>compound MLS002153512-01!CB 34
>formula C21H22Cl3N3O
>ionization [M+H]+
>parentmass 438.091461
#inchi InChI=1S/C21H22Cl3N3O/c1-3-9-26(10-4-2)19(28)12-18-20(14-5-7-15(22)8-6-14)25-21-17(24)11-16(23)13-27(18)21/h5-8,11,13H,3-4,9-10,12H2,1-2H3
#inchikey QYVWBXJKZUCSNI
#Ion_Source LC-ESI
#Instrument qTof
#Compound_Source NIH Pharmacologically Active Library
#PI Dorrestein
#Data_Collector VP/LMS
#Scan -1
#Precursor_MZ 438.096
#ExactMass 437.083
#Charge 1
#CAS_Number N/A
#Pubmed_ID N/A
#Smiles CCCN(CCC)C(=O)Cc1c(nc2c(Cl)cc(Cl)cn12)c3ccc(Cl)cc3
#INCHI_AUX N/A
#Library_Class 1
#SpectrumID CCMSLIB00000085741
#IonMode Positive
#UpdateWorkflowName UPDATE-SINGLE-ANNOTATED-GOLD
#LibraryQualityString Gold
#TaskID d252d724072548979f1f6f1ced849daf
##Scan# 2652
#SpectrumFile p4-E10_GE10_01_18382.mzXML
#LibraryName Pharm_Active_Library.mgf
#MQScore -1
#Organism Pharm_Active_Library
#TIC_Query 0
#RT_Query -1
#MZErrorPPM -1
#SharedPeaks 0
#MassDiff 0
#LibMZ -1
#SpecMZ 438.096
#SpecCharge 0
#internalFilename spec-00000.mgf

>collision 10
44.901752 144.0
44.920334 44.0
44.925076 120.0
44.936707 144.0
44.96085 176.0
44.985321 108.0
44.993675 160.0
45.007359 48.0
45.026005 208.0
45.038692 152.0
45.053104 84.0
45.063969 152.0
45.089184 156.0
45.105591 120.0
45.12394 64.0
45.13731 84.0
45.171169 108.0
45.175575 92.0
45.181824 128.0
45.192917 28.0
45.214176 184.0
45.219173 84.0
45.229092 392.0
45.24435 132.0
45.261162 72.0
45.278358 312.0
45.309185 192.0
45.319859 120.0
45.33065 112.0
45.348049 204.0
45.358406 232.0
45.363808 112.0
45.367893 92.0
45.378357 284.0
45.388416 92.0
45.409172 132.0
45.44035 100.0
45.459686 80.0
45.462391 48.0
45.473663 244.0
45.487503 128.0
45.501923 224.0
45.509438 112.0
45.512428 204.0
45.528992 112.0
45.551186 128.0
45.563057 176.0
45.58543 112.0
45.589859 96.0
45.593437 120.0
45.61327 68.0
45.628059 108.0
45.642849 208.0
45.653606 72.0
45.67189 168.0
45.680321 144.0
45.694679 120.0
45.700302 120.0
45.728455 120.0
45.736778 44.0
45.742947 84.0
45.745911 60.0
45.756218 144.0
45.767075 132.0
45.782204 108.0
45.813301 76.0
45.839184 216.0
45.850269 152.0
45.875774 68.0
45.886562 108.0
45.89716 116.0
45.908756 304.0
45.937626 96.0
45.950325 136.0
45.960297 84.0
45.990681 132.0
46.017143 248.0
46.033524 92.0
46.046776 144.0
46.056931 164.0
46.073318 80.0
46.094921 88.0
46.106159 292.0
46.137962 96.0
46.166843 132.0
46.19421 120.0
46.202374 144.0
46.217819 160.0
46.232792 76.0
46.252945 256.0
46.271294 116.0
46.285984 264.0
46.306 260.0
46.316681 176.0
46.336678 232.0
46.347202 176.0
46.358704 416.0
46.381187 124.0
46.397579 132.0
46.401447 112.0
46.405602 340.0
46.439659 128.0
46.455124 80.0
46.472359 152.0
46.486786 180.0
46.502029 128.0
46.516224 132.0
46.525612 200.0
46.534508 184.0
46.546288 224.0
46.558079 112.0
46.582588 324.0
46.598282 56.0
46.614487 140.0
46.639259 184.0
46.651443 336.0
46.660217 240.0
46.670528 84.0
46.683578 268.0
46.702625 180.0
46.730377 64.0
46.74094 220.0
46.759674 196.0
46.780659 48.0
46.797806 96.0
46.814774 96.0
46.831951 124.0
46.854919 152.0
46.867867 180.0
46.872635 176.0
46.895985 108.0
46.900509 112.0
46.919506 144.0
46.930183 144.0
46.952419 92.0
46.965668 200.0
46.983589 160.0
46.992516 172.0
47.01001 112.0
47.023602 160.0
47.047935 104.0
47.069485 148.0
47.091633 92.0
47.106255 124.0
47.120377 96.0
47.13382 200.0
47.148621 152.0
47.152069 120.0
47.166786 96.0
47.181881 212.0
47.198635 108.0
47.203869 72.0
47.214195 144.0
47.237293 164.0
47.278828 196.0
47.288288 348.0
47.297218 124.0
47.311794 60.0
47.332844 172.0
47.343285 136.0
47.359226 140.0
47.400478 64.0
47.415287 108.0
47.430309 168.0
47.458435 200.0
47.476997 208.0
47.496662 84.0
47.546291 140.0
47.561287 104.0
47.567417 60.0
47.582245 180.0
47.592274 132.0
47.605648 340.0
47.618305 176.0
47.642509 192.0
47.679218 116.0
47.693256 160.0
47.720848 192.0
47.731243 204.0
47.752277 92.0
47.785294 140.0
47.802555 132.0
47.819695 72.0
47.844608 124.0
47.856136 136.0
47.869812 160.0
47.879566 124.0
47.894653 108.0
47.924133 152.0
47.952229 148.0
47.982246 84.0
48.000328 140.0
48.03632 200.0
48.049282 92.0
48.065662 92.0
48.077038 140.0
48.08733 104.0
48.096085 112.0
48.112438 120.0
48.116322 112.0
48.121517 140.0
48.126961 104.0
48.148602 496.0
48.167782 136.0
48.186108 136.0
48.198708 116.0
48.201347 76.0
48.216911 100.0
48.230171 108.0
48.255299 160.0
48.259384 116.0
48.291573 156.0
48.308174 52.0
48.321442 104.0
48.355957 120.0
48.360031 168.0
48.374001 360.0
48.379917 204.0
48.383549 284.0
48.396671 76.0
48.408604 68.0
48.426403 156.0
48.451313 112.0
48.481068 120.0
48.509212 164.0
48.522907 168.0
48.53809 44.0
48.547794 56.0
48.562843 132.0
48.591309 100.0
48.61705 200.0
48.636185 136.0
48.649357 512.0
48.66069 256.0
48.670532 164.0
48.69241 168.0
48.715744 76.0
48.725471 164.0
48.739075 144.0
48.753979 164.0
48.770035 168.0
48.773647 148.0
48.790791 108.0
48.803677 240.0
48.819927 100.0
48.855354 180.0
48.860519 208.0
48.887207 188.0
48.90197 52.0
48.922958 92.0
48.94363 264.0
48.961372 116.0
48.963783 100.0
48.975037 80.0
49.001263 124.0
49.026428 112.0
49.037521 148.0
49.052513 36.0
49.075672 72.0
49.097912 136.0
49.123634 196.0
49.151234 180.0
49.166954 88.0
49.181805 128.0
49.19672 108.0
49.216946 140.0
49.228085 120.0
49.244625 204.0
49.256924 108.0
49.262863 120.0
49.274952 124.0
49.28867 196.0
49.310253 168.0
49.320179 208.0
49.338272 104.0
49.354294 112.0
49.365875 92.0
49.379341 128.0
49.421307 284.0
49.455624 120.0
49.466042 172.0
49.474884 176.0
49.486759 128.0
49.498211 116.0
49.51284 116.0
49.523613 116.0
49.536411 160.0
49.552486 176.0
49.564968 200.0
49.588993 40.0
49.611313 124.0
49.615677 220.0
49.626202 128.0
49.641972 220.0
49.668495 136.0
49.690308 84.0
49.715496 136.0
49.729237 276.0
49.749817 120.0
49.759815 168.0
49.774708 292.0
49.780876 52.0
49.791851 300.0
49.813782 40.0
49.829666 104.0
49.841885 104.0
49.862453 144.0
49.877018 196.0
49.894299 192.0
49.905136 88.0
49.918015 76.0
49.943512 208.0
49.965549 128.0
49.98008 172.0
49.991344 196.0
50.014675 132.0
50.031246 64.0
50.044323 252.0
50.056591 264.0
50.081139 124.0
50.099266 60.0
50.124928 192.0
50.143467 148.0
50.159206 60.0
50.16428 68.0
50.175892 184.0
50.186745 80.0
50.202072 92.0
50.212898 252.0
50.233288 48.0
50.250938 252.0
50.266121 264.0
50.281155 156.0
50.290436 176.0
50.308083 100.0
50.32275 92.0
50.335453 124.0
50.350441 28.0
50.372272 144.0
50.387371 168.0
50.4021 172.0
50.411743 244.0
50.450062 136.0
50.477219 164.0
50.489532 212.0
50.526863 256.0
50.541992 112.0
50.559555 144.0
50.56308 52.0
50.592686 140.0
50.618877 108.0
50.622551 88.0
50.635834 168.0
50.653049 128.0
50.662815 144.0
50.685532 168.0
50.707287 92.0
50.735386 296.0
50.74791 120.0
50.756798 84.0
50.772564 108.0
50.787746 112.0
50.797382 116.0
50.802635 52.0
50.807438 104.0
50.820515 108.0
50.837055 156.0
50.847813 112.0
50.864685 172.0
50.891396 120.0
50.910141 160.0
50.924625 80.0
50.936131 156.0
50.944469 136.0
50.97897 160.0
51.008709 188.0
51.023289 196.0
51.038216 116.0
51.052425 228.0
51.06477 148.0
51.084476 124.0
51.090099 144.0
51.107449 88.0
51.129642 240.0
51.139942 120.0
51.153671 176.0
51.177193 136.0
51.199978 156.0
51.228374 188.0
51.257439 72.0
51.269749 228.0
51.28698 252.0
51.314915 204.0
51.327095 260.0
51.346241 96.0
51.366959 80.0
51.397041 128.0
51.417206 340.0
51.431381 76.0
51.444942 316.0
51.464962 132.0
51.479996 68.0
51.498287 156.0
51.516384 180.0
51.535282 80.0
51.553787 152.0
51.576733 228.0
51.591698 184.0
51.613281 136.0
51.635708 160.0
51.648041 52.0
51.662457 40.0
51.68211 168.0
51.707436 92.0
51.728283 88.0
51.74699 96.0
51.779976 196.0
51.799698 92.0
51.811749 156.0
51.825909 148.0
51.841713 196.0
51.857838 108.0
51.891945 132.0
51.906982 144.0
51.913525 56.0
51.930786 112.0
51.935154 128.0
51.941353 128.0
51.958454 92.0
51.970444 88.0
51.974117 84.0
51.980896 128.0
51.987514 116.0
51.999352 252.0
52.026958 188.0
52.046223 248.0
52.063934 212.0
52.084476 356.0
52.098682 96.0
52.118755 160.0
52.132759 76.0
52.144688 132.0
52.164627 236.0
52.184509 216.0
52.194576 120.0
52.206078 144.0
52.218239 44.0
52.230267 152.0
52.240795 88.0
52.252174 164.0
52.265537 48.0
52.294216 188.0
52.334312 124.0
52.34779 144.0
52.363182 124.0
52.379604 164.0
52.400085 72.0
52.412762 348.0
52.429226 120.0
52.443638 92.0
52.46526 304.0
52.493908 152.0
52.506531 116.0
52.513054 144.0
52.535183 172.0
52.556606 84.0
52.571838 144.0
52.591911 336.0
52.624447 180.0
52.649216 280.0
52.66151 56.0
52.678165 72.0
52.696056 248.0
52.719841 140.0
52.737007 184.0
52.743168 156.0
52.76059 312.0
52.772408 76.0
52.789532 140.0
52.803158 116.0
52.827221 44.0
52.842636 120.0
52.856369 92.0
52.881416 44.0
52.900776 112.0
52.909836 188.0
52.925514 160.0
52.940647 124.0
52.952736 120.0
52.998589 228.0
53.008022 116.0
53.028248 392.0
53.044327 236.0
53.062527 144.0
53.088463 220.0
53.100475 156.0
53.146767 152.0
53.172264 184.0
53.187126 108.0
53.222168 176.0
53.240631 112.0
53.252842 108.0
53.268051 192.0
53.303398 140.0
53.31773 100.0
53.330929 144.0
53.345501 160.0
53.356098 152.0
53.373035 112.0
53.374866 144.0
53.40086 124.0
53.418175 180.0
53.431072 180.0
53.442181 136.0
53.465248 156.0
53.492657 104.0
53.506275 164.0
53.520054 44.0
53.535446 84.0
53.567307 84.0
53.581066 152.0
53.615105 96.0
53.634418 56.0
53.658836 140.0
53.677246 128.0
53.679844 248.0
53.702438 80.0
53.717083 84.0
53.732342 148.0
53.747871 164.0
53.764542 112.0
53.798935 256.0
53.830933 248.0
53.847679 124.0
53.859222 228.0
53.865566 128.0
53.870193 164.0
53.890339 172.0
53.900398 144.0
53.924152 64.0
53.934383 316.0
53.94754 152.0
53.970932 72.0
53.990398 228.0
54.007355 320.0
54.023239 224.0
54.034569 284.0
54.051056 140.0
54.070469 100.0
54.094517 208.0
54.118332 152.0
54.134258 72.0
54.15612 156.0
54.186092 88.0
54.210026 48.0
54.223812 92.0
54.237782 104.0
54.268269 100.0
54.283813 144.0
54.311386 128.0
54.333817 132.0
54.3839 212.0
54.386009 136.0
54.422951 148.0
54.44545 228.0
54.453499 168.0
54.469734 152.0
54.492622 200.0
54.515354 168.0
54.535858 304.0
54.557159 180.0
54.592194 124.0
54.614204 32.0
54.642574 136.0
54.666252 68.0
54.678501 148.0
54.699623 240.0
54.714462 152.0
54.731022 180.0
54.748074 76.0
54.752708 44.0
54.761662 164.0
54.786861 184.0
54.801723 192.0
54.81168 84.0
54.825508 292.0
54.836792 168.0
54.857235 216.0
54.875153 132.0
54.902245 208.0
54.922104 116.0
54.94619 244.0
54.976288 220.0
54.99934 60.0
55.015022 256.0
55.029839 108.0
55.04332 156.0
55.056347 120.0
55.069305 52.0
55.092567 164.0
55.115406 68.0
55.138145 224.0
55.152786 248.0
55.172455 128.0
55.192261 192.0
55.202946 188.0
55.221886 52.0
55.224304 144.0
55.254936 104.0
55.27187 260.0
55.311691 104.0
55.329967 180.0
55.346767 156.0
55.3675 152.0
55.379536 172.0
55.385368 124.0
55.39616 236.0
55.406662 256.0
55.423153 148.0
55.435268 88.0
55.450394 160.0
55.462036 108.0
55.485943 172.0
55.502567 84.0
55.516472 100.0
55.545189 136.0
55.574512 192.0
55.609913 168.0
55.623764 120.0
55.653408 180.0
55.664948 112.0
55.68874 80.0
55.7066 208.0
55.717312 296.0
55.730564 108.0
55.750931 240.0
55.768852 124.0
55.791981 120.0
55.816235 200.0
55.853291 200.0
55.883133 200.0
55.894913 184.0
55.915344 88.0
55.936375 248.0
55.952736 140.0
55.967449 144.0
55.97834 248.0
55.989307 112.0
56.018173 68.0
56.04747 216.0
56.076073 232.0
56.098507 280.0
56.10154 148.0
56.1278 180.0
56.161827 72.0
56.16732 192.0
56.172852 156.0
56.178341 80.0
56.182957 280.0
56.203239 128.0
56.233536 180.0
56.243698 148.0
56.258682 160.0
56.288471 100.0
56.313354 148.0
56.332439 156.0
56.345436 104.0
56.355614 256.0
56.370205 124.0
56.388611 152.0
56.398182 128.0
56.412437 156.0
56.444767 132.0
56.467133 144.0
56.480457 124.0
56.501591 48.0
56.519165 160.0
56.521984 172.0
56.541553 104.0
56.552666 108.0
56.580318 76.0
56.586266 72.0
56.598549 364.0
56.626396 280.0
56.637028 176.0
56.652405 112.0
56.664982 96.0
56.695591 112.0
56.707722 192.0
56.71862 116.0
56.741817 60.0
56.753254 148.0
56.767052 168.0
56.772282 104.0
56.776623 92.0
56.805084 216.0
56.820908 140.0
56.841339 292.0
56.854771 212.0
56.869987 244.0
56.907707 356.0
56.920097 188.0
56.950508 212.0
56.980934 164.0
56.999287 84.0
57.020626 116.0
57.034004 112.0
57.048317 144.0
57.058746 100.0
57.071396 72.0
57.104023 120.0
57.110294 104.0
57.135303 92.0
57.158432 120.0
57.181152 104.0
57.193451 244.0
57.235622 92.0
57.25597 152.0
57.27866 180.0
57.302029 472.0
57.312466 192.0
57.329887 196.0
57.332363 244.0
57.339928 132.0
57.36834 160.0
57.380314 220.0
57.400787 500.0
57.418789 96.0
57.437359 104.0
57.465492 316.0
57.491005 112.0
57.502895 252.0
57.515343 160.0
57.520535 128.0
57.525711 120.0
57.544495 200.0
57.560417 92.0
57.585281 172.0
57.598297 64.0
57.613953 144.0
57.629642 116.0
57.642307 124.0
57.663765 84.0
57.691677 268.0
57.717636 184.0
57.732296 188.0
57.756771 172.0
57.783047 128.0
57.80064 176.0
57.814747 96.0
57.826035 104.0
57.845928 56.0
57.88155 140.0
57.887325 132.0
57.904766 112.0
57.918396 104.0
57.933987 124.0
57.947006 60.0
57.964577 100.0
57.999023 200.0
58.032356 164.0
58.070793 324.0
58.081699 60.0
58.112 72.0
58.126202 124.0
58.154202 184.0
58.174564 108.0
58.20504 312.0
58.227654 104.0
58.259663 112.0
58.282482 244.0
58.31028 240.0
58.32756 160.0
58.338741 48.0
58.355244 272.0
58.373714 140.0
58.39085 104.0
58.405731 184.0
58.432274 152.0
58.45903 304.0
58.471508 156.0
58.492653 92.0
58.512447 300.0
58.532158 108.0
58.5443 292.0
58.557861 136.0
58.569008 176.0
58.582081 156.0
58.60939 160.0
58.614693 92.0
58.629215 120.0
58.671558 108.0
58.687603 88.0
58.704277 168.0
58.72068 92.0
58.733494 176.0
58.757603 128.0
58.771706 264.0
58.791126 116.0
58.804863 72.0
58.827858 124.0
58.833233 268.0
58.861347 300.0
58.875092 120.0
58.886688 484.0
58.933304 168.0
58.947044 164.0
58.971397 160.0
58.993626 132.0
59.032829 244.0
59.045918 88.0
59.05798 164.0
59.072044 192.0
59.075668 152.0
59.112049 112.0
59.123932 136.0
59.144608 292.0
59.155609 104.0
59.174057 120.0
59.197773 112.0
59.213486 268.0
59.226746 132.0
59.251167 56.0
59.267811 172.0
59.292381 260.0
59.310871 180.0
59.329353 172.0
59.345768 124.0
59.356461 172.0
59.378227 220.0
59.388859 132.0
59.412365 252.0
59.428459 136.0
59.450199 152.0
59.470562 320.0
59.48439 188.0
59.496517 192.0
59.500877 160.0
59.507915 140.0
59.541843 148.0
59.551102 84.0
59.56403 140.0
59.582298 308.0
59.59433 108.0
59.601215 216.0
59.621326 104.0
59.637356 64.0
59.651508 84.0
59.662693 100.0
59.681915 72.0
59.702259 176.0
59.721458 108.0
59.769234 112.0
59.78157 144.0
59.807247 72.0
59.821762 192.0
59.839241 144.0
59.855022 104.0
59.86573 84.0
59.894836 160.0
59.901199 196.0
59.926125 100.0
59.945141 76.0
59.950439 132.0
59.955746 240.0
59.968258 100.0
59.999306 172.0
60.016727 116.0
60.032139 128.0
60.047173 360.0
60.064453 140.0
60.111813 124.0
60.11441 120.0
60.130978 48.0
60.14621 244.0
60.173401 164.0
60.191505 208.0
60.21553 256.0
60.226952 176.0
60.232662 28.0
60.253025 108.0
60.283508 188.0
60.29504 124.0
60.314365 76.0
60.327202 116.0
60.34938 276.0
60.355682 88.0
60.367573 236.0
60.392643 244.0
60.419941 188.0
60.438507 52.0
60.461979 44.0
60.483002 80.0
60.493599 228.0
60.507229 80.0
60.52298 84.0
60.530582 108.0
60.554974 172.0
60.582367 128.0
60.59248 144.0
60.620975 184.0
60.639832 192.0
60.6544 192.0
60.679058 92.0
60.689957 120.0
60.706169 164.0
60.723267 64.0
60.734413 168.0
60.746822 180.0
60.768543 208.0
60.788292 184.0
60.802605 164.0
60.820892 164.0
60.855198 400.0
60.868294 100.0
60.891178 140.0
60.908264 96.0
60.934452 148.0
60.944923 124.0
60.962589 176.0
60.971676 64.0
60.974411 84.0
61.009323 144.0
61.055748 140.0
61.071697 168.0
61.097923 100.0
61.116058 304.0
61.130428 260.0
61.133076 128.0
61.146473 80.0
61.158447 124.0
61.170006 240.0
61.193119 48.0
61.198242 116.0
61.204166 400.0
61.215332 176.0
61.233349 108.0
61.249508 32.0
61.268856 176.0
61.28471 132.0
61.312511 232.0
61.331242 164.0
61.355999 124.0
61.383904 100.0
61.396767 164.0
61.41571 80.0
61.428135 248.0
61.451653 360.0
61.476559 124.0
61.500896 128.0
61.518669 240.0
61.534313 40.0
61.555202 144.0
61.584286 48.0
61.610565 180.0
61.614643 160.0
61.619461 256.0
61.637203 156.0
61.659283 60.0
61.675423 116.0
61.690071 224.0
61.711391 48.0
61.725914 208.0
61.740372 120.0
61.746105 120.0
61.748932 188.0
61.7841 240.0
61.822632 116.0
61.85405 128.0
61.879848 88.0
61.906693 196.0
61.919998 244.0
61.966835 104.0
61.982704 72.0
61.992733 116.0
62.011066 220.0
62.02224 136.0
62.02795 112.0
62.040356 176.0
62.060841 140.0
62.075306 92.0
62.089828 124.0
62.107578 76.0
62.124931 128.0
62.14045 104.0
62.146809 112.0
62.153996 124.0
62.158688 224.0
62.167957 284.0
62.193974 164.0
62.213291 88.0
62.225937 140.0
62.245609 136.0
62.259327 128.0
62.273949 116.0
62.287598 100.0
62.303085 112.0
62.317448 44.0
62.332592 132.0
62.34943 136.0
62.365547 68.0
62.392326 320.0
62.425518 160.0
62.434448 112.0
62.466305 136.0
62.482937 224.0
62.521732 148.0
62.552513 60.0
62.565422 156.0
62.571579 132.0
62.590195 100.0
62.606888 252.0
62.625183 196.0
62.63649 156.0
62.653553 136.0
62.656929 52.0
62.662601 212.0
62.686626 180.0
62.699841 140.0
62.723484 120.0
62.74052 104.0
62.751923 100.0
62.769394 132.0
62.785858 100.0
62.800175 88.0
62.816147 172.0
62.833038 268.0
62.859402 112.0
62.878571 168.0
62.911751 240.0
62.933781 148.0
62.955795 176.0
62.97121 116.0
62.983849 188.0
63.013611 200.0
63.034592 248.0
63.053196 132.0
63.072899 236.0
63.11771 120.0
63.136173 160.0
63.165089 168.0
63.188023 52.0
63.214806 204.0
63.246876 140.0
63.25692 128.0
63.271317 92.0
63.304031 248.0
63.325653 156.0
63.35289 152.0
63.358074 128.0
63.364201 224.0
63.381943 88.0
63.434231 140.0
63.444813 96.0
63.471825 240.0
63.492268 100.0
63.512917 144.0
63.547146 192.0
63.567623 128.0
63.583939 116.0
63.60313 188.0
63.629375 324.0
63.647469 208.0
63.665489 196.0
63.693497 148.0
63.710297 136.0
63.731716 68.0
63.751625 116.0
63.771957 204.0
63.788429 248.0
63.806145 176.0
63.828587 68.0
63.841095 112.0
63.856491 168.0
63.87471 148.0
63.892887 320.0
63.904255 128.0
63.918304 160.0
63.930664 128.0
63.947132 132.0
63.960724 192.0
63.994602 96.0
64.031952 152.0
64.050461 108.0
64.055252 116.0
64.072906 116.0
64.083267 212.0
64.097382 144.0
64.108482 148.0
64.126343 180.0
64.141144 88.0
64.163414 84.0
64.190262 260.0
64.218025 180.0
64.235344 72.0
64.241272 216.0
64.257439 116.0
64.273094 76.0
64.290565 136.0
64.307327 136.0
64.326553 192.0
64.343239 144.0
64.371674 104.0
64.399452 240.0
64.40435 136.0
64.412277 140.0
64.433685 172.0
64.45665 160.0
64.484764 236.0
64.507507 176.0
64.530945 200.0
64.546265 128.0
64.559593 120.0
64.591316 164.0
64.648544 100.0
64.659744 144.0
64.678284 76.0
64.702461 176.0
64.727402 168.0
64.751396 148.0
64.765198 228.0
64.778488 156.0
64.794861 264.0
64.835083 260.0
64.83783 208.0
64.863014 84.0
64.866051 272.0
64.887871 288.0
64.906258 64.0
64.915588 184.0
64.927299 88.0
64.968323 140.0
64.997086 212.0
65.023849 204.0
65.028992 136.0
65.042206 72.0
65.056831 188.0
65.067696 276.0
65.081238 148.0
65.098114 124.0
65.115974 72.0
65.135475 144.0
65.157593 180.0
65.162582 84.0
65.168915 228.0
65.174904 136.0
65.189354 132.0
65.195168 52.0
65.200775 132.0
65.213684 76.0
65.224953 168.0
65.254669 384.0
65.277351 212.0
65.287064 256.0
65.30574 116.0
65.329491 236.0
65.345764 140.0
65.373116 56.0
65.402206 104.0
65.407768 124.0
65.423767 248.0
65.440269 164.0
65.46048 208.0
65.462784 160.0
65.482376 108.0
65.501518 160.0
65.523598 132.0
65.546227 124.0
65.559196 264.0
65.576637 124.0
65.596283 72.0
65.609001 176.0
65.623703 96.0
65.644066 212.0
65.66288 56.0
65.673538 244.0
65.684013 104.0
65.691284 124.0
65.706627 192.0
65.727234 80.0
65.753029 116.0
65.771561 152.0
65.782753 160.0
65.805923 160.0
65.8181 184.0
65.836006 216.0
65.857201 196.0
65.875275 140.0
65.879288 132.0
65.88607 64.0
65.896904 196.0
65.91539 176.0
65.939552 188.0
65.96521 128.0
65.97718 76.0
66.011139 304.0
66.037582 124.0
66.055061 180.0
66.070129 136.0
66.104767 132.0
66.119331 268.0
66.148659 192.0
66.171104 288.0
66.191246 120.0
66.206909 248.0
66.241898 160.0
66.256737 256.0
66.270882 120.0
66.283089 156.0
66.32048 56.0
66.345894 128.0
66.36351 124.0
66.394188 120.0
66.41713 408.0
66.437866 184.0
66.462326 68.0
66.495079 128.0
66.530502 296.0
66.560638 188.0
66.573463 144.0
66.589577 152.0
66.616028 156.0
66.630318 92.0
66.646133 232.0
66.674644 172.0
66.687233 164.0
66.70887 156.0
66.724022 128.0
66.739044 152.0
66.744308 92.0
66.75016 164.0
66.772423 124.0
66.800453 264.0
66.814949 164.0
66.84568 80.0
66.868515 108.0
66.87487 52.0
66.879333 68.0
66.909195 112.0
66.932854 308.0
66.943649 288.0
66.9673 288.0
66.994011 124.0
67.006271 208.0
67.01178 44.0
67.0177 236.0
67.042686 88.0
67.054871 156.0
67.072937 160.0
67.087814 152.0
67.109955 116.0
67.127747 120.0
67.154991 104.0
67.173164 116.0
67.195473 100.0
67.217163 184.0
67.239662 100.0
67.271492 244.0
67.286217 72.0
67.313713 76.0
67.3386 272.0
67.386627 232.0
67.393692 200.0
67.39904 136.0
67.405228 208.0
67.452538 152.0
67.468727 120.0
67.490181 172.0
67.528526 132.0
67.552696 160.0
67.566078 384.0
67.593193 72.0
67.619614 256.0
67.634956 172.0
67.651062 156.0
67.666153 260.0
67.682884 164.0
67.695763 100.0
67.717484 148.0
67.738235 160.0
67.752731 176.0
67.77668 124.0
67.793259 192.0
67.819633 96.0
67.836365 276.0
67.848457 128.0
67.878105 96.0
67.893166 128.0
67.911469 176.0
67.921005 160.0
67.946213 184.0
67.95237 180.0
67.958939 136.0
67.983086 128.0
67.997429 120.0
68.005127 184.0
68.008118 108.0
68.032501 108.0
68.06456 144.0
68.079369 40.0
68.094391 244.0
68.105309 76.0
68.122231 164.0
68.140739 184.0
68.151482 324.0
68.165764 52.0
68.189056 308.0
68.23394 164.0
68.260063 296.0
68.279266 136.0
68.297249 168.0
68.313347 124.0
68.334671 212.0
68.37484 68.0
68.39653 80.0
68.413254 252.0
68.444099 108.0
68.455055 212.0
68.483162 188.0
68.505135 184.0
68.50882 228.0
68.534424 344.0
68.547363 148.0
68.572823 72.0
68.585258 132.0
68.59787 248.0
68.613983 180.0
68.634079 248.0
68.661446 92.0
68.681465 416.0
68.712318 284.0
68.733421 336.0
68.745209 148.0
68.766998 84.0
68.783203 180.0
68.799843 292.0
68.802338 264.0
68.821716 116.0
68.842903 140.0
68.871414 128.0
68.88298 56.0
68.899498 64.0
68.929382 144.0
68.947418 96.0
68.960556 152.0
68.974281 192.0
68.98645 144.0
69.01886 240.0
69.049011 224.0
69.072174 164.0
69.092117 244.0
69.113045 52.0
69.137199 144.0
69.152023 132.0
69.170715 100.0
69.189461 92.0
69.208191 88.0
69.244064 240.0
69.269058 72.0
69.280426 176.0
69.305695 112.0
69.330956 156.0
69.35051 156.0
69.361977 156.0
69.38308 124.0
69.397385 144.0
69.412445 80.0
69.415001 136.0
69.438423 184.0
69.465996 188.0
69.509903 216.0
69.531769 224.0
69.560593 124.0
69.587677 336.0
69.626663 236.0
69.64724 128.0
69.66655 52.0
69.697121 204.0
69.736977 168.0
69.748779 224.0
69.766266 132.0
69.78653 128.0
69.800423 176.0
69.806747 104.0
69.810669 176.0
69.822693 156.0
69.846321 172.0
69.88102 92.0
69.908165 316.0
69.919868 140.0
69.940208 128.0
69.959763 180.0
69.975502 220.0
69.980263 148.0
70.003532 140.0
70.008064 188.0
70.037445 76.0
70.042572 72.0
70.073784 228.0
70.101349 216.0
70.139214 116.0
70.181335 252.0
70.200974 152.0
70.232841 208.0
70.246658 120.0
70.253387 56.0
70.25988 92.0
70.27919 116.0
70.283768 192.0
70.303719 48.0
70.316544 120.0
70.347672 220.0
70.364372 88.0
70.377357 252.0
70.397888 288.0
70.410568 84.0
70.415527 196.0
70.436623 176.0
70.448914 148.0
70.466385 228.0
70.48204 80.0
70.501801 152.0
70.515518 108.0
70.533012 208.0
70.546661 108.0
70.574898 400.0
70.600136 272.0
70.620743 128.0
70.643845 156.0
70.661079 316.0
70.689423 300.0
70.703003 96.0
70.740852 144.0
70.75914 68.0
70.774368 152.0
70.807289 300.0
70.819229 88.0
70.836563 92.0
70.866905 268.0
70.892281 184.0
70.912544 168.0
70.933945 148.0
70.955742 60.0
70.99501 68.0
71.018318 292.0
71.055885 116.0
71.091331 124.0
71.116158 180.0
71.130157 144.0
71.150391 108.0
71.164444 136.0
71.193924 100.0
71.210617 196.0
71.224747 200.0
71.252739 212.0
71.266838 464.0
71.293106 228.0
71.308289 144.0
71.313553 92.0
71.344986 256.0
71.366516 172.0
71.385262 92.0
71.40255 228.0
71.418457 364.0
71.442566 96.0
71.467186 208.0
71.484573 120.0
71.499214 116.0
71.517616 176.0
71.541985 332.0
71.567574 192.0
71.583153 200.0
71.601051 124.0
71.604637 52.0
71.63633 112.0
71.651955 108.0
71.671791 136.0
71.69458 176.0
71.713875 80.0
71.729614 336.0
71.760147 344.0
71.783928 56.0
71.810913 80.0
71.840073 208.0
71.885239 72.0
71.904694 96.0
71.921066 96.0
71.927704 144.0
71.940498 152.0
71.944855 180.0
71.968842 84.0
71.983566 172.0
71.994286 92.0
72.008255 156.0
72.018898 164.0
72.047699 136.0
72.056931 92.0
72.059616 160.0
72.090591 140.0
72.09462 92.0
72.101921 144.0
72.123283 48.0
72.153908 244.0
72.161713 104.0
72.165451 116.0
72.167839 112.0
72.191673 244.0
72.210808 152.0
72.23185 224.0
72.255745 284.0
72.270271 136.0
72.299179 144.0
72.315697 132.0
72.334999 148.0
72.350342 124.0
72.369331 100.0
72.414604 176.0
72.429054 312.0
72.467178 156.0
72.480644 104.0
72.492729 28.0
72.507492 92.0
72.53492 224.0
72.547493 172.0
72.566971 128.0
72.584068 96.0
72.610611 224.0
72.635948 108.0
72.656639 92.0
72.675377 100.0
72.689804 104.0
72.69326 52.0
72.705666 156.0
72.724594 96.0
72.740379 332.0
72.759453 144.0
72.77993 180.0
72.7976 156.0
72.813332 256.0
72.831566 152.0
72.844788 92.0
72.866943 92.0
72.884483 96.0
72.90345 116.0
72.919456 248.0
72.951477 272.0
72.978165 108.0
73.002914 176.0
73.024162 132.0
73.047447 80.0
73.06427 36.0
73.066605 200.0
73.080925 212.0
73.110085 340.0
73.139069 132.0
73.149857 196.0
73.162918 108.0
73.189896 84.0
73.200577 188.0
73.221909 336.0
73.229324 132.0
73.232437 300.0
73.255363 88.0
73.275696 56.0
73.295288 260.0
73.316368 192.0
73.318748 128.0
73.327171 200.0
73.342171 96.0
73.361847 168.0
73.377937 72.0
73.395782 160.0
73.428772 264.0
73.44928 148.0
73.481377 128.0
73.512962 184.0
73.53389 100.0
73.578568 300.0
73.596046 72.0
73.617561 132.0
73.64872 164.0
73.660362 116.0
73.682686 176.0
73.687317 136.0
73.710289 52.0
73.723717 160.0
73.728165 84.0
73.75544 208.0
73.777344 64.0
73.802422 112.0
73.806702 300.0
73.833954 184.0
73.846397 96.0
73.875732 120.0
73.894737 144.0
73.899925 196.0
73.933121 108.0
73.961998 112.0
73.980652 220.0
73.994736 136.0
74.007439 184.0
74.035149 120.0
74.058838 96.0
74.088493 212.0
74.118561 256.0
74.138176 124.0
74.170105 120.0
74.173927 132.0
74.193359 128.0
74.207428 156.0
74.238693 164.0
74.255089 192.0
74.276619 152.0
74.292488 180.0
74.314606 92.0
74.327774 164.0
74.349144 228.0
74.37561 300.0
74.388657 140.0
74.406693 208.0
74.419342 56.0
74.43998 120.0
74.448456 144.0
74.463974 68.0
74.492683 124.0
74.510002 120.0
74.530495 200.0
74.54789 124.0
74.564529 224.0
74.58548 200.0
74.600914 244.0
74.635574 76.0
74.65229 144.0
74.661972 128.0
74.666557 72.0
74.683861 76.0
74.697647 216.0
74.716003 112.0
74.738365 76.0
74.753822 160.0
74.769173 128.0
74.776886 156.0
74.78701 164.0
74.807205 128.0
74.81427 96.0
74.820557 168.0
74.843475 116.0
74.866928 80.0
74.884727 168.0
74.895844 132.0
74.92382 140.0
74.952171 108.0
74.95797 52.0
74.963356 152.0
74.993965 100.0
75.010109 148.0
75.032349 84.0
75.052872 164.0
75.069649 128.0
75.08638 108.0
75.11676 232.0
75.135513 148.0
75.177238 116.0
75.189323 84.0
75.201401 88.0
75.226189 188.0
75.248787 304.0
75.25573 136.0
75.260445 88.0
75.29406 164.0
75.317642 88.0
75.341118 132.0
75.354408 208.0
75.361694 88.0
75.368675 200.0
75.375893 244.0
75.398621 424.0
75.415306 76.0
75.442589 96.0
75.447517 144.0
75.454536 176.0
75.465141 168.0
75.476799 136.0
75.506157 52.0
75.522018 368.0
75.55558 100.0
75.578865 48.0
75.601471 116.0
75.624191 152.0
75.636436 92.0
75.680191 176.0
75.729515 244.0
75.756439 208.0
75.76786 112.0
75.772423 252.0
75.803253 60.0
75.825157 132.0
75.852379 180.0
75.888008 148.0
75.92981 280.0
75.94783 300.0
75.964401 132.0
75.967278 80.0
75.992264 208.0
76.009178 188.0
76.022476 124.0
76.036804 116.0
76.057594 372.0
76.071838 164.0
76.119156 300.0
76.141396 44.0
76.1632 60.0
76.175659 132.0
76.205696 332.0
76.225731 132.0
76.253708 188.0
76.270569 268.0
76.281059 96.0
76.295776 180.0
76.312668 116.0
76.330315 84.0
76.33606 52.0
76.354301 280.0
76.368919 196.0
76.386635 156.0
76.40744 108.0
76.422165 132.0
76.459953 228.0
76.48423 148.0
76.509613 164.0
76.526894 168.0
76.549881 116.0
76.55349 168.0
76.577454 140.0
76.593155 108.0
76.622391 208.0
76.633743 128.0
76.644501 248.0
76.671494 128.0
76.696136 140.0
76.72506 144.0
76.740753 100.0
76.776093 68.0
76.793015 212.0
76.825989 116.0
76.842072 336.0
76.862694 100.0
76.875557 52.0
76.89669 124.0
76.914467 184.0
76.9272 60.0
76.944145 144.0
76.969872 136.0
76.986214 32.0
77.015747 260.0
77.054359 164.0
77.070198 100.0
77.088097 208.0
77.123611 100.0
77.134804 144.0
77.148109 272.0
77.166748 268.0
77.208961 132.0
77.23671 112.0
77.250725 92.0
77.277306 176.0
77.306282 96.0
77.339523 256.0
77.369873 48.0
77.383003 360.0
77.403137 108.0
77.451134 88.0
77.46553 228.0
77.470116 192.0
77.489311 148.0
77.512611 260.0
77.540733 184.0
77.556984 140.0
77.609863 112.0
77.636726 164.0
77.665901 152.0
77.685661 160.0
77.691452 128.0
77.696411 168.0
77.732536 172.0
77.76696 176.0
77.772499 168.0
77.798958 120.0
77.812714 300.0
77.833855 96.0
77.861755 56.0
77.865768 132.0
77.890625 208.0
77.909187 216.0
77.931656 100.0
77.958755 224.0
77.978951 180.0
78.000969 156.0
78.021523 136.0
78.039513 48.0
78.061722 140.0
78.094498 160.0
78.133255 156.0
78.171295 48.0
78.199982 156.0
78.220367 272.0
78.232269 204.0
78.264389 144.0
78.281609 168.0
78.325043 268.0
78.339798 188.0
78.356781 164.0
78.361214 56.0
78.367874 156.0
78.390106 240.0
78.415962 168.0
78.422104 232.0
78.44532 104.0
78.461967 152.0
78.476028 172.0
78.496674 168.0
78.519989 152.0
78.543777 48.0
78.548035 188.0
78.554955 112.0
78.563637 160.0
78.581535 144.0
78.598152 140.0
78.630112 284.0
78.650108 148.0
78.661072 260.0
78.677567 104.0
78.700111 56.0
78.719055 88.0
78.744263 136.0
78.757866 232.0
78.777946 372.0
78.80545 80.0
78.827065 264.0
78.851151 96.0
78.869713 260.0
78.884903 124.0
78.90667 128.0
78.927254 120.0
78.950302 76.0
78.968948 196.0
78.989044 140.0
79.032372 152.0
79.053116 280.0
79.067451 136.0
79.09034 140.0
79.117035 188.0
79.122635 152.0
79.134155 168.0
79.149818 192.0
79.165184 80.0
79.192032 100.0
79.212173 100.0
79.228561 144.0
79.240227 120.0
79.27124 156.0
79.275711 132.0
79.301537 192.0
79.328827 112.0
79.360168 380.0
79.372818 144.0
79.391289 116.0
79.418961 256.0
79.436363 144.0
79.453804 332.0
79.478943 100.0
79.502708 112.0
79.525726 212.0
79.56971 176.0
79.5896 284.0
79.612038 172.0
79.626793 112.0
79.642639 432.0
79.666611 292.0
79.683891 168.0
79.70578 248.0
79.743553 144.0
79.770775 76.0
79.787994 92.0
79.80835 200.0
79.832596 144.0
79.864037 156.0
79.903473 228.0
79.937088 144.0
79.965836 104.0
79.96933 64.0
79.976883 168.0
79.987862 80.0
79.993042 108.0
80.01284 116.0
80.027504 52.0
80.046051 96.0
80.069992 244.0
80.086197 356.0
80.09713 204.0
80.124001 192.0
80.15654 72.0
80.169823 196.0
80.17775 212.0
80.186401 112.0
80.189491 204.0
80.202835 248.0
80.22892 296.0
80.250496 172.0
80.272408 168.0
80.283859 260.0
80.310272 112.0
80.339058 60.0
80.365913 192.0
80.390045 148.0
80.406197 128.0
80.432747 312.0
80.435425 132.0
80.456482 140.0
80.469154 100.0
80.484497 92.0
80.487885 160.0
80.494713 76.0
80.499428 76.0
80.5168 148.0
80.550163 100.0
80.555038 144.0
80.562805 312.0
80.571022 68.0
80.574776 184.0
80.60009 96.0
80.627632 116.0
80.640686 188.0
80.670418 88.0
80.682495 264.0
80.693291 516.0
80.705727 72.0
80.712074 88.0
80.739975 240.0
80.758537 116.0
80.792709 256.0
80.820213 172.0
80.843315 164.0
80.862587 124.0
80.880836 200.0
80.899452 96.0
80.918098 296.0
80.96212 48.0
80.993195 300.0
81.011223 268.0
81.034889 192.0
81.064026 104.0
81.070465 92.0
81.090355 188.0
81.106834 224.0
81.126343 80.0
81.161034 136.0
81.18055 144.0
81.198807 112.0
81.226692 256.0
81.248878 188.0
81.265717 168.0
81.289413 148.0
81.315536 96.0
81.327499 132.0
81.351067 144.0
81.354149 216.0
81.366707 140.0
81.382118 152.0
81.407265 480.0
81.426109 124.0
81.437813 196.0
81.454094 248.0
81.473335 152.0
81.496452 60.0
81.516457 152.0
81.536072 144.0
81.538567 132.0
81.558578 244.0
81.572395 148.0
81.617462 404.0
81.650055 180.0
81.659721 292.0
81.684052 188.0
81.712532 168.0
81.734734 324.0
81.76181 252.0
81.817535 172.0
81.841751 172.0
81.856705 384.0
81.867661 160.0
81.895004 92.0
81.909485 116.0
81.930191 208.0
81.968506 144.0
82.00248 140.0
82.048279 264.0
82.086426 84.0
82.092522 140.0
82.120476 120.0
82.135803 40.0
82.156891 140.0
82.179207 72.0
82.210289 456.0
82.225822 312.0
82.240067 340.0
82.263382 304.0
82.287399 48.0
82.30365 192.0
82.332108 200.0
82.366501 160.0
82.374039 156.0
82.40078 220.0
82.423569 72.0
82.435516 128.0
82.451309 108.0
82.477081 172.0
82.497299 84.0
82.508492 108.0
82.52195 104.0
82.553337 136.0
82.574226 176.0
82.6157 168.0
82.635056 148.0
82.69371 216.0
82.706314 132.0
82.735771 164.0
82.757172 140.0
82.771645 232.0
82.786209 84.0
82.802773 384.0
82.832024 160.0
82.849663 72.0
82.869171 176.0
82.896935 136.0
82.929298 240.0
82.961319 112.0
83.002335 100.0
83.026459 132.0
83.033279 112.0
83.064056 180.0
83.084808 96.0
83.135208 152.0
83.154907 288.0
83.182251 96.0
83.196449 200.0
83.223434 244.0
83.243141 212.0
83.247902 108.0
83.276962 204.0
83.295044 84.0
83.306961 100.0
83.344109 280.0
83.357704 284.0
83.377899 152.0
83.392441 92.0
83.405167 32.0
83.421234 100.0
83.444756 156.0
83.464149 236.0
83.500778 164.0
83.520386 112.0
83.528084 80.0
83.53508 244.0
83.560486 88.0
83.583771 272.0
83.600876 104.0
83.622246 92.0
83.638039 140.0
83.657059 144.0
83.677711 100.0
83.708038 272.0
83.723572 80.0
83.746429 268.0
83.765465 160.0
83.782799 132.0
83.798111 104.0
83.823418 276.0
83.847206 116.0
83.862686 56.0
83.873154 136.0
83.913879 292.0
83.93235 120.0
83.96331 192.0
83.976906 260.0
84.00016 128.0
84.01709 72.0
84.045319 104.0
84.060928 148.0
84.083961 148.0
84.099152 108.0
84.122665 100.0
84.140511 116.0
84.160652 152.0
84.177658 160.0
84.194099 176.0
84.210159 132.0
84.240051 224.0
84.265488 192.0
84.290276 136.0
84.302032 196.0
84.315361 120.0
84.33271 304.0
84.354919 152.0
84.375931 80.0
84.409111 208.0
84.43679 180.0
84.460388 204.0
84.487633 156.0
84.501266 104.0
84.520203 288.0
84.549591 152.0
84.571327 188.0
84.596359 36.0
84.625519 268.0
84.648872 120.0
84.66507 156.0
84.675507 72.0
84.702118 144.0
84.72924 280.0
84.751686 292.0
84.775261 172.0
84.789169 300.0
84.809837 264.0
84.829018 188.0
84.845436 180.0
84.876686 144.0
84.890366 304.0
84.923843 112.0
84.943253 204.0
84.9729 156.0
84.99408 328.0
85.016548 268.0
85.041794 104.0
85.060257 116.0
85.090546 208.0
85.116425 148.0
85.143898 248.0
85.174004 200.0
85.197411 224.0
85.202362 228.0
85.237465 168.0
85.265869 128.0
85.294746 124.0
85.339348 132.0
85.360695 116.0
85.373833 156.0
85.389664 96.0
85.401932 132.0
85.422165 64.0
85.44117 340.0
85.457069 156.0
85.481728 296.0
85.494865 148.0
85.517845 88.0
85.550018 176.0
85.566383 120.0
85.599777 96.0
85.619644 176.0
85.640633 140.0
85.653351 188.0
85.672279 228.0
85.686874 132.0
85.710014 184.0
85.735931 176.0
85.757294 68.0
85.788231 136.0
85.822456 124.0
85.846436 164.0
85.86544 216.0
85.883942 336.0
85.899986 176.0
85.917999 120.0
85.937607 220.0
85.958244 104.0
85.968941 296.0
85.989227 124.0
86.010376 392.0
86.033501 116.0
86.036392 244.0
86.068237 348.0
86.086845 64.0
86.119652 144.0
86.137589 128.0
86.163467 112.0
86.178886 284.0
86.215355 216.0
86.252846 244.0
86.287315 144.0
86.303566 256.0
86.317558 68.0
86.321838 120.0
86.334213 100.0
86.350578 120.0
86.374908 248.0
86.388527 176.0
86.406433 92.0
86.418686 84.0
86.450127 208.0
86.465622 308.0
86.486893 92.0
86.501587 188.0
86.529701 196.0
86.545403 164.0
86.572678 84.0
86.588593 200.0
86.621178 264.0
86.645782 72.0
86.652946 56.0
86.677826 84.0
86.707649 200.0
86.723984 92.0
86.741547 156.0
86.759254 92.0
86.781265 140.0
86.803879 152.0
86.836563 228.0
86.856934 80.0
86.87233 224.0
86.896637 232.0
86.922928 104.0
86.936363 172.0
86.958496 64.0
86.981903 148.0
86.992882 60.0
87.025307 132.0
87.04882 136.0
87.079391 80.0
87.100662 72.0
87.128525 256.0
87.148087 188.0
87.183205 116.0
87.203522 112.0
87.225304 304.0
87.238235 136.0
87.254906 84.0
87.272087 132.0
87.289642 108.0
87.30468 104.0
87.323471 104.0
87.336113 48.0
87.340096 148.0
87.365791 92.0
87.386131 36.0
87.401482 144.0
87.408188 244.0
87.435867 316.0
87.459091 232.0
87.488548 320.0
87.524864 132.0
87.549782 100.0
87.562477 168.0
87.578316 144.0
87.594254 116.0
87.606697 100.0
87.635468 60.0
87.670845 196.0
87.703918 100.0
87.734192 128.0
87.767242 200.0
87.786682 120.0
87.798424 292.0
87.827972 44.0
87.840065 136.0
87.85788 176.0
87.879097 324.0
87.904121 96.0
87.918358 128.0
87.949509 88.0
87.968925 156.0
88.010086 256.0
88.029366 240.0
88.052666 36.0
88.059113 192.0
88.068748 72.0
88.073509 172.0
88.091187 120.0
88.099495 132.0
88.105461 64.0
88.111595 140.0
88.138313 228.0
88.157524 144.0
88.198036 136.0
88.240158 304.0
88.270271 136.0
88.301033 164.0
88.308342 128.0
88.326233 260.0
88.344307 224.0
88.359596 152.0
88.390434 160.0
88.434471 328.0
88.453064 128.0
88.459145 32.0
88.465286 144.0
88.487488 148.0
88.508911 148.0
88.526375 216.0
88.545692 144.0
88.580666 260.0
88.611778 316.0
88.641762 248.0
88.65451 164.0
88.668938 216.0
88.687309 180.0
88.70414 196.0
88.730537 132.0
88.758179 116.0
88.77758 292.0
88.785316 260.0
88.832375 236.0
88.844528 132.0
88.86232 140.0
88.87838 156.0
88.900688 108.0
88.916283 240.0
88.941742 156.0
88.957985 160.0
88.983917 136.0
88.991341 108.0
89.038757 144.0
89.053505 192.0
89.072403 420.0
89.096565 428.0
89.120758 120.0
89.148743 256.0
89.176498 112.0
89.208237 144.0
89.221901 124.0
89.246567 204.0
89.261116 196.0
89.286247 96.0
89.325073 284.0
89.348457 96.0
89.354187 104.0
89.379776 392.0
89.393616 324.0
89.421921 108.0
89.446045 96.0
89.48703 156.0
89.50502 144.0
89.52092 176.0
89.534821 148.0
89.560898 212.0
89.587097 168.0
89.601082 252.0
89.614189 148.0
89.647141 396.0
89.691902 160.0
89.716087 340.0
89.74041 320.0
89.759811 208.0
89.791931 80.0
89.80423 148.0
89.842804 104.0
89.857155 128.0
89.886055 220.0
89.899109 144.0
89.925323 144.0
89.955421 108.0
89.974823 148.0
90.014023 272.0
90.034264 140.0
90.053802 204.0
90.081787 100.0
90.106949 188.0
90.136757 88.0
90.17025 176.0
90.214104 148.0
90.265038 164.0
90.285461 336.0
90.314072 332.0
90.330513 316.0
90.335876 168.0
90.341171 140.0
90.38739 64.0
90.414551 80.0
90.434868 96.0
90.445274 48.0
90.458969 116.0
90.480141 216.0
90.504021 156.0
90.519363 168.0
90.533653 124.0
90.56041 196.0
90.575264 120.0
90.602791 112.0
90.656296 216.0
90.688591 224.0
90.715424 224.0
90.751862 268.0
90.770035 204.0
90.808868 376.0
90.824341 272.0
90.861 364.0
90.884911 100.0
90.910637 276.0
90.922264 116.0
90.955635 80.0
90.973053 152.0
90.997734 100.0
91.015656 168.0
91.029823 256.0
91.048309 176.0
91.061485 308.0
91.093132 144.0
91.104607 92.0
91.113335 120.0
91.14518 120.0
91.158226 212.0
91.174393 100.0
91.194984 132.0
91.229515 84.0
91.244728 224.0
91.256767 180.0
91.276505 264.0
91.302803 156.0
91.334686 116.0
91.340698 120.0
91.363983 100.0
91.378929 64.0
91.41423 252.0
91.438835 184.0
91.460022 92.0
91.489563 132.0
91.519043 92.0
91.523201 100.0
91.546082 128.0
91.601517 212.0
91.621605 196.0
91.650505 240.0
91.666588 152.0
91.691895 124.0
91.70517 204.0
91.714394 56.0
91.728477 236.0
91.748451 112.0
91.762329 88.0
91.774841 104.0
91.782547 112.0
91.797569 212.0
91.821167 224.0
91.851128 88.0
91.862984 108.0
91.893005 128.0
91.913162 64.0
91.940788 140.0
91.980293 120.0
92.009621 204.0
92.032295 148.0
92.048813 120.0
92.074516 104.0
92.09771 276.0
92.149094 184.0
92.199387 244.0
92.231041 252.0
92.248108 220.0
92.275574 208.0
92.301941 172.0
92.308769 112.0
92.3134 140.0
92.331673 212.0
92.362915 92.0
92.398941 156.0
92.417732 304.0
92.433037 52.0
92.457985 120.0
92.480316 156.0
92.500023 208.0
92.529419 176.0
92.552513 368.0
92.583984 128.0
92.594543 304.0
92.628166 240.0
92.678307 92.0
92.693466 208.0
92.717545 64.0
92.74305 132.0
92.761589 140.0
92.789307 180.0
92.811279 104.0
92.845261 132.0
92.863174 292.0
92.880379 152.0
92.894295 172.0
92.900543 72.0
92.904724 156.0
92.919724 128.0
92.93679 76.0
92.950478 140.0
92.966972 152.0
93.015175 272.0
93.042442 276.0
93.054848 144.0
93.06839 144.0
93.097054 268.0
93.122704 76.0
93.15519 136.0
93.181404 112.0
93.199806 124.0
93.213867 348.0
93.239693 180.0
93.267319 108.0
93.286499 140.0
93.30278 116.0
93.311249 164.0
93.341003 400.0
93.36171 196.0
93.398155 192.0
93.419876 144.0
93.469604 212.0
93.487663 120.0
93.4935 128.0
93.518295 108.0
93.530449 256.0
93.545105 148.0
93.566261 80.0
93.576584 100.0
93.583656 148.0
93.591324 116.0
93.597054 120.0
93.621307 180.0
93.665634 88.0
93.682411 152.0
93.690033 108.0
93.712257 220.0
93.735596 244.0
93.758232 248.0
93.785378 136.0
93.816673 188.0
93.838089 80.0
93.873039 300.0
93.899857 308.0
93.963165 156.0
93.98085 176.0
94.002228 172.0
94.044495 108.0
94.074684 132.0
94.087128 240.0
94.126915 164.0
94.157112 124.0
94.178223 132.0
94.192894 100.0
94.211571 180.0
94.253418 144.0
94.270897 284.0
94.286926 108.0
94.30674 64.0
94.323799 172.0
94.346352 108.0
94.358505 148.0
94.373268 192.0
94.396194 104.0
94.434875 100.0
94.449341 64.0
94.506294 260.0
94.53791 184.0
94.551712 132.0
94.581299 380.0
94.602936 216.0
94.632668 208.0
94.645813 140.0
94.669983 96.0
94.690727 176.0
94.716774 300.0
94.73568 144.0
94.738167 180.0
94.754929 156.0
94.768059 100.0
94.782295 216.0
94.800102 128.0
94.809418 168.0
94.824432 284.0
94.839699 256.0
94.86306 236.0
94.87767 212.0
94.904373 208.0
94.91906 68.0
94.947273 152.0
94.97039 124.0
95.003983 196.0
95.018814 104.0
95.047653 156.0
95.072449 144.0
95.119003 308.0
95.15213 92.0
95.157585 148.0
95.167046 160.0
95.172684 152.0
95.181229 44.0
95.189224 180.0
95.212402 288.0
95.246254 208.0
95.268593 84.0
95.292305 68.0
95.321861 120.0
95.362778 184.0
95.376938 172.0
95.388847 64.0
95.392929 160.0
95.412117 204.0
95.436485 60.0
95.456238 100.0
95.476654 200.0
95.490936 144.0
95.522346 80.0
95.570694 148.0
95.599701 288.0
95.60585 140.0
95.659698 176.0
95.687096 172.0
95.723038 76.0
95.728806 176.0
95.746994 332.0
95.777954 104.0
95.809738 144.0
95.84906 188.0
95.8694 192.0
95.914757 180.0
95.944115 100.0
95.950058 124.0
95.958969 104.0
95.994858 276.0
96.037865 100.0
96.073265 80.0
96.100288 176.0
96.116287 100.0
96.152779 136.0
96.179878 100.0
96.197525 180.0
96.242645 224.0
96.274986 204.0
96.30275 196.0
96.32148 216.0
96.349541 112.0
96.362648 324.0
96.388931 192.0
96.409149 264.0
96.428612 224.0
96.433838 60.0
96.440811 156.0
96.463478 256.0
96.487045 260.0
96.512222 168.0
96.530525 72.0
96.550713 116.0
96.568649 224.0
96.593887 184.0
96.598419 52.0
96.625618 196.0
96.657944 144.0
96.677902 320.0
96.70845 48.0
96.737015 148.0
96.743774 88.0
96.76445 184.0
96.781982 368.0
96.836227 176.0
96.852409 92.0
96.874336 160.0
96.886055 276.0
96.901985 140.0
96.905586 60.0
96.927307 96.0
96.942719 156.0
96.959984 140.0
96.996284 76.0
97.01239 232.0
97.039238 112.0
97.053177 264.0
97.06501 520.0
97.093491 176.0
97.109993 264.0
97.114853 164.0
97.147385 52.0
97.170822 268.0
97.180283 120.0
97.19313 192.0
97.219749 100.0
97.241577 176.0
97.267685 120.0
97.27684 116.0
97.28447 136.0
97.294006 328.0
97.32486 164.0
97.343613 116.0
97.364037 228.0
97.392967 216.0
97.417061 144.0
97.435265 76.0
97.450294 84.0
97.485107 116.0
97.509903 180.0
97.539856 212.0
97.555115 324.0
97.57489 212.0
97.604866 104.0
97.616898 100.0
97.647354 152.0
97.674088 100.0
97.720802 224.0
97.756424 184.0
97.781113 140.0
97.809494 116.0
97.82518 84.0
97.841339 148.0
97.855133 164.0
97.901237 352.0
97.926277 248.0
97.950264 124.0
97.972664 60.0
97.986443 148.0
98.00753 312.0
98.036842 176.0
98.062386 112.0
98.107544 120.0
98.124832 96.0
98.139725 144.0
98.171249 180.0
98.195511 128.0
98.224586 224.0
98.245949 60.0
98.251442 144.0
98.278564 140.0
98.310051 132.0
98.321236 176.0
98.338646 132.0
98.372421 104.0
98.401047 40.0
98.44117 136.0
98.468193 156.0
98.482529 184.0
98.495842 136.0
98.538795 140.0
98.586731 108.0
98.619705 164.0
98.622902 132.0
98.641937 232.0
98.682671 120.0
98.713821 152.0
98.767281 164.0
98.79361 172.0
98.800476 164.0
98.809669 104.0
98.815445 116.0
98.83181 124.0
98.849464 140.0
98.863518 164.0
98.886276 100.0
98.912979 156.0
98.964767 164.0
98.996239 164.0
99.023666 276.0
99.03907 228.0
99.078568 156.0
99.098251 144.0
99.123016 248.0
99.142258 164.0
99.162125 156.0
99.174187 88.0
99.195496 288.0
99.222748 152.0
99.251373 152.0
99.275414 96.0
99.313103 220.0
99.356384 132.0
99.359634 168.0
99.395599 200.0
99.414276 156.0
99.429535 164.0
99.459877 104.0
99.489113 264.0
99.492935 152.0
99.500267 188.0
99.522255 268.0
99.562714 156.0
99.584587 296.0
99.598969 232.0
99.619492 188.0
99.639717 196.0
99.666351 148.0
99.66951 248.0
99.694405 440.0
99.719215 136.0
99.74041 224.0
99.770256 248.0
99.795921 204.0
99.821846 220.0
99.852112 216.0
99.864609 104.0
99.887405 148.0
99.910927 136.0
99.923767 124.0
99.947891 80.0
99.981918 56.0
100.010246 180.0
100.022987 420.0
100.040878 100.0
100.045425 168.0
100.074226 236.0
100.096153 284.0
100.111984 484.0
100.140549 216.0
100.155685 180.0
100.177834 256.0
100.20948 240.0
100.226494 240.0
100.243797 164.0
100.268311 152.0
100.323524 92.0
100.341248 320.0
100.37252 148.0
100.399887 148.0
100.425682 312.0
100.44014 128.0
100.446625 88.0
100.479599 204.0
100.505524 140.0
100.539459 184.0
100.573624 96.0
100.595184 364.0
100.609566 216.0
100.661377 144.0
100.682816 220.0
100.711655 96.0
100.735497 148.0
100.758194 140.0
100.762161 180.0
100.776688 256.0
100.791138 236.0
100.824539 184.0
100.853073 188.0
100.873024 224.0
100.89418 152.0
100.939964 144.0
100.977837 208.0
101.008949 140.0
101.047951 164.0
101.076881 140.0
101.092522 56.0
101.11377 84.0
101.132545 220.0
101.160721 192.0
101.18602 208.0
101.192207 100.0
101.205116 152.0
101.232132 216.0
101.280075 272.0
101.334656 104.0
101.356316 56.0
101.360474 124.0
101.388969 156.0
101.40451 236.0
101.433662 148.0
101.451706 140.0
101.472351 312.0
101.508614 260.0
101.534805 124.0
101.54229 108.0
101.55336 108.0
101.593819 64.0
101.620209 216.0
101.651627 80.0
101.665672 112.0
101.686554 148.0
101.7052 128.0
101.718605 224.0
101.733536 124.0
101.753662 124.0
101.778481 124.0
101.818672 256.0
101.86132 156.0
101.880295 256.0
101.888695 80.0
101.934341 140.0
101.964188 132.0
101.986359 60.0
102.020294 172.0
102.047707 508.0
102.081917 132.0
102.098412 196.0
102.127487 3036.0
102.182274 44.0
102.205452 264.0
102.22802 212.0
102.257866 352.0
102.30349 188.0
102.332512 120.0
102.361977 120.0
102.384918 248.0
102.411285 148.0
102.426689 56.0
102.432701 108.0
102.447975 120.0
102.467484 112.0
102.489189 160.0
102.515816 60.0
102.532272 120.0
102.565147 128.0
102.584503 212.0
102.604309 220.0
102.616035 132.0
102.634201 276.0
102.664864 60.0
102.701027 120.0
102.73613 188.0
102.752274 60.0
102.776802 228.0
102.812439 268.0
102.835007 48.0
102.875381 156.0
102.896805 124.0
102.939987 76.0
102.961174 116.0
102.985802 164.0
102.99511 124.0
103.000389 200.0
103.010124 116.0
103.01506 168.0
103.047531 148.0
103.064064 132.0
103.097076 332.0
103.129547 336.0
103.165596 120.0
103.181427 256.0
103.200523 196.0
103.233009 152.0
103.248528 272.0
103.254829 132.0
103.268379 164.0
103.299301 232.0
103.322968 152.0
103.346199 172.0
103.381241 192.0
103.400581 232.0
103.422714 168.0
103.42981 188.0
103.456642 200.0
103.478523 232.0
103.487328 188.0
103.497162 112.0
103.512474 112.0
103.544617 288.0
103.57869 368.0
103.604576 144.0
103.632553 284.0
103.653954 68.0
103.676361 48.0
103.714256 132.0
103.717407 128.0
103.753929 212.0
103.77742 244.0
103.784492 248.0
103.809532 340.0
103.853836 168.0
103.881531 128.0
103.887459 256.0
103.896339 236.0
103.938286 220.0
103.976517 36.0
104.008072 184.0
104.043358 108.0
104.050217 132.0
104.068077 220.0
104.089554 216.0
104.112541 244.0
104.132538 128.0
104.138321 88.0
104.157227 188.0
104.190987 96.0
104.205864 172.0
104.220863 136.0
104.227554 216.0
104.233307 188.0
104.270538 328.0
104.311668 168.0
104.346222 56.0
104.364243 316.0
104.390694 300.0
104.408981 76.0
104.413544 188.0
104.438446 92.0
104.453865 328.0
104.494118 116.0
104.499268 292.0
104.529289 208.0
104.549637 352.0
104.573456 76.0
104.597534 68.0
104.626663 100.0
104.63166 140.0
104.661095 136.0
104.68927 140.0
104.714493 108.0
104.732849 228.0
104.751556 120.0
104.766914 232.0
104.791862 84.0
104.828079 244.0
104.858582 152.0
104.915771 292.0
104.937973 88.0
104.97242 68.0
105.005806 120.0
105.011528 80.0
105.028328 236.0
105.059883 92.0
105.074059 152.0
105.108765 228.0
105.133537 252.0
105.154259 144.0
105.213242 184.0
105.236267 68.0
105.260109 276.0
105.283569 56.0
105.311005 180.0
105.334183 152.0
105.361191 128.0
105.395096 168.0
105.402687 116.0
105.410652 136.0
105.432152 188.0
105.447937 124.0
105.484352 376.0
105.53598 76.0
105.560516 152.0
105.590645 176.0
105.608749 176.0
105.627747 196.0
105.649757 72.0
105.674004 164.0
105.692253 200.0
105.720222 68.0
105.723335 260.0
105.73262 56.0
105.737915 128.0
105.780861 148.0
105.817787 208.0
105.822708 156.0
105.831779 64.0
105.839622 124.0
105.880753 192.0
105.90815 140.0
105.931129 172.0
105.961098 256.0
105.976257 232.0
106.006477 140.0
106.032364 248.0
106.053185 304.0
106.07457 88.0
106.096581 204.0
106.114944 148.0
106.150742 188.0
106.180801 20.0
106.218384 144.0
106.240852 184.0
106.259987 216.0
106.294868 156.0
106.313103 108.0
106.347374 116.0
106.382614 268.0
106.405327 108.0
106.418404 108.0
106.443787 132.0
106.450912 224.0
106.488251 228.0
106.502563 272.0
106.524254 148.0
106.552551 76.0
106.574928 216.0
106.596169 136.0
106.624184 112.0
106.652046 48.0
106.672127 152.0
106.691277 76.0
106.713531 272.0
106.728218 120.0
106.745033 180.0
106.785492 152.0
106.798859 316.0
106.827431 132.0
106.842674 112.0
106.850723 144.0
106.874138 168.0
106.880806 244.0
106.889908 156.0
106.909309 92.0
106.929893 116.0
106.948837 112.0
106.972206 60.0
106.987053 52.0
106.999817 124.0
107.03006 116.0
107.042976 348.0
107.05201 120.0
107.060905 172.0
107.093582 200.0
107.121391 40.0
107.145386 88.0
107.166466 152.0
107.182686 200.0
107.18586 96.0
107.223351 116.0
107.243088 68.0
107.269272 168.0
107.283379 176.0
107.295189 132.0
107.324112 264.0
107.356003 184.0
107.369781 228.0
107.395546 292.0
107.412048 64.0
107.434135 104.0
107.456352 396.0
107.481544 176.0
107.499207 148.0
107.51815 188.0
107.558556 156.0
107.575073 100.0
107.592926 160.0
107.609756 160.0
107.632278 164.0
107.645271 196.0
107.682266 140.0
107.706375 140.0
107.725449 88.0
107.777473 156.0
107.81665 192.0
107.84021 208.0
107.870522 172.0
107.88755 208.0
107.90255 132.0
107.907249 56.0
107.91333 176.0
107.919449 64.0
107.944817 224.0
107.969879 204.0
108.002441 196.0
108.009193 148.0
108.04467 156.0
108.059364 96.0
108.072968 132.0
108.091782 156.0
108.113708 148.0
108.12957 156.0
108.148033 168.0
108.171387 224.0
108.206879 136.0
108.222191 216.0
108.260635 128.0
108.296997 148.0
108.335045 152.0
108.355736 160.0
108.386803 68.0
108.404388 192.0
108.42749 168.0
108.446991 148.0
108.474945 96.0
108.489906 92.0
108.514229 252.0
108.539604 172.0
108.588409 104.0
108.615814 236.0
108.645401 144.0
108.661369 136.0
108.682083 96.0
108.705086 140.0
108.713135 120.0
108.732147 320.0
108.748085 112.0
108.767471 204.0
108.792511 196.0
108.821251 52.0
108.83979 136.0
108.860931 120.0
108.893318 172.0
108.921318 336.0
108.95977 136.0
108.977257 232.0
108.995491 104.0
109.012268 188.0
109.040115 256.0
109.063995 192.0
109.090897 76.0
109.106422 108.0
109.124756 60.0
109.189323 316.0
109.223518 112.0
109.247406 288.0
109.252792 76.0
109.25663 148.0
109.28598 376.0
109.314049 152.0
109.340164 116.0
109.361465 116.0
109.391052 104.0
109.416039 60.0
109.436005 192.0
109.449944 108.0
109.47171 128.0
109.503128 196.0
109.506241 212.0
109.560669 144.0
109.575218 112.0
109.583214 192.0
109.610077 204.0
109.637466 132.0
109.644539 120.0
109.663757 144.0
109.698303 212.0
109.717201 188.0
109.778519 216.0
109.82428 116.0
109.852509 220.0
109.87455 112.0
109.905411 144.0
109.944733 176.0
109.958275 156.0
109.977379 908.0
110.009918 248.0
110.01725 248.0
110.03347 192.0
110.044441 60.0
110.050293 112.0
110.082413 184.0
110.104401 104.0
110.132584 68.0
110.147064 156.0
110.170204 112.0
110.175674 272.0
110.214035 336.0
110.244133 124.0
110.260132 80.0
110.279488 148.0
110.295052 116.0
110.319382 96.0
110.346275 116.0
110.36998 200.0
110.403999 100.0
110.421509 76.0
110.453766 296.0
110.482307 84.0
110.492867 84.0
110.495926 88.0
110.504196 76.0
110.513092 116.0
110.528786 168.0
110.567955 140.0
110.607887 140.0
110.628799 168.0
110.650116 280.0
110.665985 236.0
110.696289 496.0
110.719894 84.0
110.737419 108.0
110.744263 88.0
110.772133 104.0
110.790955 48.0
110.825439 156.0
110.837631 320.0
110.858368 492.0
110.878601 312.0
110.896111 124.0
110.920975 268.0
110.946426 300.0
110.984726 132.0
110.988098 172.0
111.027229 132.0
111.060104 104.0
111.073608 48.0
111.093086 152.0
111.112717 240.0
111.139755 104.0
111.15403 128.0
111.171432 96.0
111.188576 104.0
111.21521 380.0
111.257568 156.0
111.281647 136.0
111.318512 164.0
111.341637 88.0
111.354149 356.0
111.378456 264.0
111.40152 160.0
111.421913 160.0
111.449623 188.0
111.480118 212.0
111.498711 172.0
111.533218 276.0
111.556244 40.0
111.577499 200.0
111.617424 164.0
111.632172 200.0
111.657967 148.0
111.692055 340.0
111.722137 164.0
111.761658 120.0
111.767647 140.0
111.793922 104.0
111.815872 196.0
111.864319 268.0
111.893471 136.0
111.927452 204.0
111.945961 244.0
111.974922 308.0
111.98037 224.0
112.019417 176.0
112.052917 128.0
112.084442 240.0
112.091446 180.0
112.112473 172.0
112.166786 308.0
112.19059 252.0
112.205795 88.0
112.23024 340.0
112.236794 236.0
112.275497 268.0
112.282089 112.0
112.289703 184.0
112.30838 200.0
112.3312 124.0
112.34996 208.0
112.400589 72.0
112.432182 144.0
112.462143 228.0
112.467819 156.0
112.505936 280.0
112.537491 172.0
112.541725 100.0
112.551888 120.0
112.57225 108.0
112.60508 48.0
112.646202 112.0
112.674019 348.0
112.691338 288.0
112.722984 180.0
112.743111 288.0
112.766266 208.0
112.799545 56.0
112.818291 80.0
112.833359 100.0
112.876404 308.0
112.889214 156.0
112.913757 120.0
112.928612 180.0
112.934341 124.0
112.973274 132.0
113.009377 168.0
113.039253 132.0
113.056595 160.0
113.081329 96.0
113.108284 176.0
113.129356 196.0
113.157494 324.0
113.199631 168.0
113.234329 196.0
113.252403 256.0
113.267998 180.0
113.303001 152.0
113.331406 132.0
113.349831 184.0
113.379089 196.0
113.396309 240.0
113.42836 296.0
113.452026 128.0
113.473068 108.0
113.487267 148.0
113.501663 212.0
113.518059 276.0
113.539734 132.0
113.544968 48.0
113.559906 64.0
113.610527 168.0
113.641602 120.0
113.676231 156.0
113.689461 76.0
113.708954 140.0
113.739326 120.0
113.752922 148.0
113.77417 288.0
113.813324 124.0
113.841911 156.0
113.863426 200.0
113.881966 100.0
113.894928 72.0
113.909798 168.0
113.929581 140.0
113.967064 492.0
113.986122 88.0
114.025871 272.0
114.044365 96.0
114.089149 204.0
114.131508 128.0
114.138817 196.0
114.182182 120.0
114.21463 96.0
114.239075 132.0
114.273552 128.0
114.304008 96.0
114.3358 120.0
114.350555 260.0
114.366356 152.0
114.387352 112.0
114.422157 176.0
114.441727 108.0
114.471573 176.0
114.490723 244.0
114.494766 168.0
114.502884 308.0
114.538467 140.0
114.559914 100.0
114.595345 120.0
114.628761 152.0
114.667015 176.0
114.699028 340.0
114.714127 84.0
114.732697 92.0
114.758156 228.0
114.790291 148.0
114.81002 92.0
114.852615 92.0
114.884651 312.0
114.93618 196.0
114.966293 296.0
114.996834 124.0
115.021408 404.0
115.047279 232.0
115.085793 308.0
115.10952 56.0
115.124466 116.0
115.145325 68.0
115.171455 336.0
115.191467 224.0
115.208275 216.0
115.229958 124.0
115.275215 264.0
115.32811 216.0
115.378685 300.0
115.420036 128.0
115.443665 88.0
115.466164 136.0
115.487267 176.0
115.503868 124.0
115.545052 108.0
115.575195 160.0
115.597015 140.0
115.621994 100.0
115.640953 180.0
115.669548 300.0
115.69323 168.0
115.715088 96.0
115.744728 232.0
115.751694 148.0
115.776245 264.0
115.823212 212.0
115.844345 384.0
115.871758 168.0
115.892418 104.0
115.917061 92.0
115.93956 124.0
115.976685 260.0
115.984047 132.0
115.989792 264.0
116.022835 108.0
116.061882 128.0
116.092674 116.0
116.11676 160.0
116.139282 156.0
116.164062 216.0
116.193405 84.0
116.224327 272.0
116.227867 108.0
116.258682 244.0
116.275734 96.0
116.284698 148.0
116.338799 176.0
116.357841 180.0
116.392548 148.0
116.414841 124.0
116.431213 284.0
116.446533 120.0
116.472878 132.0
116.491905 132.0
116.51033 172.0
116.529976 84.0
116.562706 64.0
116.569939 180.0
116.586967 228.0
116.612801 128.0
116.63871 136.0
116.666962 244.0
116.691071 124.0
116.715538 84.0
116.726013 104.0
116.741737 220.0
116.746124 40.0
116.785728 108.0
116.835915 172.0
116.858833 204.0
116.895302 264.0
116.918884 172.0
116.94458 200.0
116.952133 116.0
116.995369 308.0
117.026718 336.0
117.049026 128.0
117.081795 232.0
117.119118 144.0
117.155556 192.0
117.193047 188.0
117.224358 216.0
117.239555 40.0
117.26741 248.0
117.275215 360.0
117.306587 120.0
117.340668 88.0
117.365013 124.0
117.390945 64.0
117.421272 216.0
117.458405 140.0
117.494217 108.0
117.504761 36.0
117.555542 104.0
117.568115 128.0
117.592316 156.0
117.618805 136.0
117.643486 48.0
117.683998 176.0
117.693565 144.0
117.721931 332.0
117.775757 124.0
117.796967 100.0
117.803513 104.0
117.822929 124.0
117.84346 100.0
117.87262 160.0
117.896873 192.0
117.916283 128.0
117.934746 164.0
117.951981 148.0
117.968651 192.0
117.985023 184.0
118.002136 172.0
118.044632 184.0
118.081017 120.0
118.115898 340.0
118.139961 404.0
118.158745 144.0
118.18943 284.0
118.219521 124.0
118.237854 148.0
118.245483 84.0
118.252121 120.0
118.2929 156.0
118.316399 140.0
118.35112 356.0
118.386436 124.0
118.392776 136.0
118.430496 412.0
118.455269 220.0
118.477142 80.0
118.483902 52.0
118.506523 188.0
118.534294 144.0
118.556137 264.0
118.593941 108.0
118.631409 172.0
118.650871 108.0
118.687706 152.0
118.70517 236.0
118.731201 156.0
118.750626 88.0
118.768677 144.0
118.785553 124.0
118.805023 144.0
118.846504 436.0
118.879753 144.0
118.918892 200.0
118.943825 224.0
118.96907 292.0
118.99585 108.0
119.011879 108.0
119.037079 164.0
119.053108 176.0
119.083214 144.0
119.107719 232.0
119.124115 160.0
119.138863 168.0
119.156525 332.0
119.185219 136.0
119.206902 228.0
119.220459 168.0
119.236954 288.0
119.291878 96.0
119.313507 156.0
119.330124 216.0
119.354767 52.0
119.382446 184.0
119.403076 296.0
119.438278 240.0
119.456573 276.0
119.481323 236.0
119.493294 64.0
119.511818 152.0
119.54837 64.0
119.578278 168.0
119.604584 208.0
119.612907 176.0
119.616486 368.0
119.654655 116.0
119.658836 48.0
119.682381 192.0
119.716759 92.0
119.756935 184.0
119.789391 264.0
119.812111 64.0
119.835129 136.0
119.841888 96.0
119.84729 268.0
119.874062 220.0
119.900551 204.0
119.931259 128.0
119.940849 80.0
119.947762 172.0
119.976715 104.0
119.996918 152.0
120.014221 328.0
120.051277 188.0
120.066872 128.0
120.100616 220.0
120.122047 148.0
120.144516 308.0
120.186501 296.0
120.218491 52.0
120.238243 128.0
120.269485 224.0
120.275505 148.0
120.297821 128.0
120.325142 224.0
120.344101 192.0
120.36602 152.0
120.384064 136.0
120.410896 196.0
120.447868 144.0
120.480408 160.0
120.508232 192.0
120.536232 128.0
120.553246 132.0
120.586914 228.0
120.628693 276.0
120.647697 192.0
120.666283 160.0
120.682037 324.0
120.723671 308.0
120.779282 140.0
120.818283 180.0
120.835098 148.0
120.868469 128.0
120.891602 208.0
120.915291 176.0
120.956642 132.0
120.974716 108.0
120.997925 264.0
121.039467 300.0
121.072487 256.0
121.109352 156.0
121.126724 172.0
121.144936 172.0
121.180931 248.0
121.199867 188.0
121.216064 208.0
121.219986 104.0
121.229858 116.0
121.237381 136.0
121.263985 104.0
121.285912 284.0
121.306892 108.0
121.348068 76.0
121.380157 252.0
121.406464 228.0
121.426147 180.0
121.465256 180.0
121.496429 172.0
121.520569 176.0
121.551819 148.0
121.56765 108.0
121.591095 212.0
121.621338 108.0
121.636284 240.0
121.6548 164.0
121.686554 48.0
121.710052 488.0
121.729469 120.0
121.747444 388.0
121.762932 164.0
121.819946 112.0
121.851891 108.0
121.872131 140.0
121.888229 228.0
121.91613 168.0
121.939102 200.0
121.955696 88.0
121.975197 208.0
122.021049 92.0
122.044334 108.0
122.085983 272.0
122.117111 136.0
122.141678 124.0
122.151642 96.0
122.159447 200.0
122.199577 108.0
122.216866 372.0
122.244835 108.0
122.293076 412.0
122.311256 212.0
122.330582 332.0
122.368599 152.0
122.400116 244.0
122.417183 436.0
122.465454 120.0
122.482513 156.0
122.5159 312.0
122.545609 132.0
122.552788 152.0
122.562103 140.0
122.583633 196.0
122.630356 212.0
122.642876 116.0
122.650421 132.0
122.683014 416.0
122.702995 324.0
122.730278 84.0
122.756203 232.0
122.76812 76.0
122.773735 204.0
122.794876 172.0
122.821281 192.0
122.827393 100.0
122.858459 224.0
122.883698 164.0
122.900238 172.0
122.942513 148.0
122.965172 148.0
122.988113 180.0
123.006393 172.0
123.0355 144.0
123.053383 104.0
123.068382 136.0
123.082626 292.0
123.116669 152.0
123.160255 180.0
123.207306 196.0
123.229187 136.0
123.251122 132.0
123.281631 428.0
123.300652 164.0
123.31572 108.0
123.344955 212.0
123.382065 148.0
123.406647 224.0
123.425934 84.0
123.430573 108.0
123.451637 248.0
123.492043 52.0
123.521347 240.0
123.546448 156.0
123.566284 120.0
123.585312 340.0
123.626045 140.0
123.651947 296.0
123.691864 412.0
123.713097 380.0
123.73172 140.0
123.755486 208.0
123.782272 252.0
123.798561 356.0
123.827858 172.0
123.871918 164.0
123.909958 144.0
123.950172 112.0
123.982407 444.0
124.001999 308.0
124.015205 140.0
124.020927 156.0
124.068237 132.0
124.086258 116.0
124.102104 160.0
124.142273 72.0
124.16433 80.0
124.185463 312.0
124.215042 280.0
124.240646 208.0
124.267067 76.0
124.309708 188.0
124.337814 144.0
124.366234 132.0
124.39299 212.0
124.414658 212.0
124.419754 40.0
124.427948 296.0
124.455208 152.0
124.48761 176.0
124.519905 244.0
124.557495 88.0
124.593307 172.0
124.615402 80.0
124.646286 120.0
124.675606 204.0
124.73423 304.0
124.740425 204.0
124.74707 108.0
124.785889 236.0
124.821671 204.0
124.853142 184.0
124.863312 164.0
124.88649 184.0
124.922798 96.0
124.939041 120.0
124.948265 212.0
124.956802 132.0
124.983276 172.0
125.013718 504.0
125.032478 116.0
125.082016 124.0
125.105606 220.0
125.133705 168.0
125.159523 112.0
125.193108 264.0
125.227173 136.0
125.25885 112.0
125.278198 136.0
125.316597 128.0
125.333595 152.0
125.370148 100.0
125.406944 144.0
125.452339 144.0
125.481285 192.0
125.49704 92.0
125.52903 80.0
125.55336 136.0
125.571594 340.0
125.60611 288.0
125.650879 144.0
125.69838 148.0
125.734688 316.0
125.772758 188.0
125.788124 284.0
125.824738 68.0
125.863007 152.0
125.895622 104.0
125.91877 188.0
125.962669 120.0
126.012138 284.0
126.030708 224.0
126.056419 80.0
126.09269 184.0
126.099823 112.0
126.145744 180.0
126.154648 160.0
126.173874 160.0
126.198784 224.0
126.231865 136.0
126.261742 172.0
126.280205 232.0
126.304871 216.0
126.329536 92.0
126.356476 196.0
126.374168 184.0
126.397987 204.0
126.443535 56.0
126.477249 132.0
126.510544 420.0
126.542122 96.0
126.546959 160.0
126.572319 220.0
126.603516 220.0
126.635612 152.0
126.668732 244.0
126.692772 52.0
126.717155 128.0
126.739433 180.0
126.74765 124.0
126.763214 172.0
126.77005 176.0
126.792923 128.0
126.817154 128.0
126.84111 296.0
126.861633 104.0
126.869789 68.0
126.891594 156.0
126.909302 96.0
126.924759 316.0
126.942841 124.0
126.970161 148.0
127.011169 236.0
127.041588 120.0
127.056229 236.0
127.094917 72.0
127.111649 180.0
127.126373 148.0
127.144897 280.0
127.174789 320.0
127.209183 152.0
127.269264 208.0
127.284332 128.0
127.343498 212.0
127.366371 100.0
127.392479 168.0
127.418083 424.0
127.456581 352.0
127.477623 188.0
127.507141 160.0
127.5522 336.0
127.58754 68.0
127.612999 148.0
127.628845 144.0
127.656876 104.0
127.686859 48.0
127.726967 52.0
127.76046 252.0
127.788742 156.0
127.830643 100.0
127.858536 144.0
127.904213 172.0
127.921318 196.0
127.940193 64.0
127.954163 88.0
127.957703 104.0
127.982361 308.0
128.006058 120.0
128.051483 256.0
128.083206 140.0
128.104721 248.0
128.158142 280.0
128.180634 136.0
128.231201 128.0
128.267914 212.0
128.284714 208.0
128.317001 68.0
128.341522 172.0
128.362091 116.0
128.388046 184.0
128.413773 228.0
128.439957 124.0
128.465164 140.0
128.486801 68.0
128.525208 288.0
128.547806 220.0
128.561569 136.0
128.593536 136.0
128.646515 204.0
128.660446 108.0
128.679825 212.0
128.695801 108.0
128.717133 120.0
128.735641 136.0
128.752945 272.0
128.777313 240.0
128.811447 124.0
128.866257 268.0
128.900284 68.0
128.917328 172.0
128.948029 260.0
128.968979 296.0
129.009674 244.0
129.057236 208.0
129.08606 276.0
129.109711 152.0
129.141251 96.0
129.164764 116.0
129.194931 148.0
129.22876 180.0
129.24913 88.0
129.256577 112.0
129.262863 192.0
129.291534 208.0
129.309708 192.0
129.343719 176.0
129.372513 316.0
129.408752 232.0
129.425293 276.0
129.444519 56.0
129.468842 108.0
129.486496 164.0
129.525055 136.0
129.535904 228.0
129.588623 52.0
129.622345 152.0
129.656189 324.0
129.701508 196.0
129.727142 332.0
129.743408 244.0
129.750565 64.0
129.761337 228.0
129.770096 348.0
129.792694 312.0
129.815567 136.0
129.822281 184.0
129.850189 244.0
129.893646 200.0
129.917114 176.0
129.946014 148.0
129.981857 172.0
130.012527 156.0
130.042542 224.0
130.062042 356.0
130.08699 132.0
130.125549 92.0
130.146683 160.0
130.170135 144.0
130.229218 136.0
130.257919 76.0
130.273895 144.0
130.30101 160.0
130.321182 208.0
130.36232 348.0
130.421539 176.0
130.43782 120.0
130.466385 76.0
130.494141 136.0
130.505646 160.0
130.540726 136.0
130.560593 120.0
130.571915 208.0
130.57959 188.0
130.624268 76.0
130.638657 68.0
130.655792 164.0
130.671906 192.0
130.706467 156.0
130.731949 136.0
130.740372 68.0
130.759583 268.0
130.797516 184.0
130.821442 156.0
130.846878 132.0
130.883118 336.0
130.929733 44.0
130.958267 224.0
130.994888 156.0
131.021271 332.0
131.040115 212.0
131.064529 328.0
131.087524 92.0
131.092346 180.0
131.11734 120.0
131.159546 204.0
131.175079 140.0
131.183426 160.0
131.201492 184.0
131.26329 120.0
131.28894 228.0
131.326324 112.0
131.363007 96.0
131.399399 108.0
131.421753 116.0
131.426895 120.0
131.4505 204.0
131.486877 204.0
131.513901 104.0
131.561493 116.0
131.599655 128.0
131.603485 160.0
131.636398 272.0
131.65564 292.0
131.675415 164.0
131.682159 108.0
131.700195 60.0
131.710464 188.0
131.729645 144.0
131.762268 128.0
131.781982 80.0
131.818909 116.0
131.849747 128.0
131.889435 180.0
131.925705 264.0
131.94577 216.0
131.971909 124.0
132.000183 328.0
132.030426 136.0
132.052643 156.0
132.070938 164.0
132.090408 116.0
132.115784 160.0
132.138718 300.0
132.167328 220.0
132.193649 152.0
132.230194 212.0
132.258301 68.0
132.284988 112.0
132.321426 280.0
132.374313 160.0
132.380966 88.0
132.396927 184.0
132.418015 132.0
132.44516 412.0
132.465118 148.0
132.489639 120.0
132.497711 140.0
132.538376 176.0
132.55542 188.0
132.577957 156.0
132.624603 232.0
132.64679 76.0
132.674728 136.0
132.680298 76.0
132.687561 252.0
132.70697 208.0
132.763458 172.0
132.788757 132.0
132.830063 180.0
132.851593 148.0
132.86853 140.0
132.891861 148.0
132.918243 316.0
132.958344 224.0
132.985992 140.0
133.016434 252.0
133.039658 60.0
133.076065 200.0
133.098145 136.0
133.121536 224.0
133.154114 188.0
133.171494 188.0
133.199966 52.0
133.219193 204.0
133.23671 52.0
133.273865 192.0
133.300751 208.0
133.325653 244.0
133.359711 264.0
133.384659 140.0
133.412704 140.0
133.435425 112.0
133.480209 160.0
133.503662 268.0
133.533508 172.0
133.553757 88.0
133.5755 260.0
133.596222 184.0
133.625244 180.0
133.650955 68.0
133.654465 228.0
133.692642 256.0
133.717148 324.0
133.749878 160.0
133.778015 88.0
133.808472 184.0
133.857651 152.0
133.899323 128.0
133.923294 140.0
133.954453 388.0
133.985977 116.0
133.999161 76.0
134.028595 220.0
134.057755 368.0
134.078873 248.0
134.145432 248.0
134.178879 204.0
134.234131 192.0
134.264893 172.0
134.28978 132.0
134.330353 128.0
134.3508 324.0
134.372894 120.0
134.422821 108.0
134.452042 144.0
134.488205 96.0
134.511215 116.0
134.519226 92.0
134.528656 192.0
134.552902 136.0
134.575043 68.0
134.592651 96.0
134.621399 104.0
134.627472 156.0
134.662292 140.0
134.689575 180.0
134.706848 156.0
134.737 180.0
134.772415 140.0
134.808441 184.0
134.817719 108.0
134.821213 220.0
134.85849 232.0
134.89035 136.0
134.919189 316.0
134.944855 80.0
134.957504 192.0
134.974091 128.0
135.016953 104.0
135.046844 180.0
135.076157 512.0
135.117065 216.0
135.138229 216.0
135.167862 140.0
135.179047 48.0
135.18335 84.0
135.20047 328.0
135.223343 500.0
135.241135 156.0
135.25032 200.0
135.28981 152.0
135.308502 100.0
135.312729 156.0
135.349869 68.0
135.370377 300.0
135.390549 144.0
135.40094 140.0
135.430038 148.0
135.452271 108.0
135.477936 40.0
135.508057 64.0
135.537033 272.0
135.557022 132.0
135.594955 96.0
135.62088 192.0
135.644226 84.0
135.674225 132.0
135.70314 368.0
135.726395 152.0
135.74411 124.0
135.780197 356.0
135.799622 216.0
135.835449 336.0
135.861588 184.0
135.892654 240.0
135.919479 172.0
135.942917 164.0
135.965637 248.0
136.004852 168.0
136.036224 156.0
136.074875 1112.0
136.100677 144.0
136.118027 184.0
136.148987 192.0
136.17305 156.0
136.217926 128.0
136.241013 340.0
136.278671 92.0
136.314743 352.0
136.332611 224.0
136.360764 344.0
136.391846 48.0
136.398895 172.0
136.437683 184.0
136.459457 232.0
136.488113 52.0
136.530334 212.0
136.556549 240.0
136.575623 352.0
136.593262 116.0
136.622452 216.0
136.652725 192.0
136.69191 156.0
136.718475 112.0
136.738297 200.0
136.752258 104.0
136.815353 172.0
136.822372 120.0
136.844513 108.0
136.864975 156.0
136.901627 252.0
136.926407 184.0
136.942108 236.0
136.975143 400.0
137.014465 2236.0
137.06163 268.0
137.075882 584.0
137.109116 176.0
137.136154 100.0
137.157486 156.0
137.201096 380.0
137.249863 188.0
137.288132 208.0
137.313492 164.0
137.334579 80.0
137.350388 192.0
137.360672 144.0
137.388672 144.0
137.421066 300.0
137.435501 104.0
137.477524 176.0
137.503525 148.0
137.533798 244.0
137.558365 148.0
137.565262 152.0
137.572815 160.0
137.609924 192.0
137.64682 164.0
137.669022 148.0
137.685837 184.0
137.704834 156.0
137.7314 100.0
137.755157 356.0
137.785019 116.0
137.821899 136.0
137.86409 136.0
137.900726 216.0
137.959686 264.0
137.981567 96.0
137.986099 136.0
138.010468 2032.0
138.042679 164.0
138.07457 116.0
138.109207 204.0
138.156815 148.0
138.17392 160.0
138.201996 108.0
138.224625 272.0
138.259232 264.0
138.287308 204.0
138.30632 208.0
138.324539 100.0
138.362305 124.0
138.405334 212.0
138.431366 280.0
138.44873 188.0
138.477112 192.0
138.51918 104.0
138.562119 128.0
138.618698 340.0
138.663651 212.0
138.684937 164.0
138.714035 96.0
138.752777 176.0
138.766998 164.0
138.794464 144.0
138.818069 140.0
138.837845 120.0
138.856598 116.0
138.887909 264.0
138.906845 108.0
138.929764 116.0
138.9478 136.0
138.987213 76.0
139.009735 772.0
139.029831 336.0
139.059097 200.0
139.096069 192.0
139.145523 212.0
139.177094 184.0
139.198227 124.0
139.239914 144.0
139.276031 164.0
139.312454 176.0
139.328644 164.0
139.347488 268.0
139.369644 204.0
139.395233 188.0
139.406143 128.0
139.440414 384.0
139.488708 264.0
139.517639 136.0
139.523224 100.0
139.539978 204.0
139.567627 216.0
139.588455 68.0
139.623474 164.0
139.661469 192.0
139.680038 60.0
139.705917 100.0
139.746735 136.0
139.793549 112.0
139.812775 348.0
139.835007 152.0
139.871918 284.0
139.899323 256.0
139.961914 260.0
140.005035 408.0
140.052612 184.0
140.07663 236.0
140.094345 136.0
140.117554 136.0
140.155869 108.0
140.166718 96.0
140.174805 188.0
140.218262 200.0
140.267792 244.0
140.286438 228.0
140.308807 156.0
140.327759 208.0
140.384064 184.0
140.406433 192.0
140.429916 80.0
140.456009 124.0
140.483536 296.0
140.518723 100.0
140.54805 184.0
140.578552 156.0
140.606384 96.0
140.628204 112.0
140.646576 128.0
140.671509 200.0
140.701157 160.0
140.745316 76.0
140.775665 84.0
140.789536 44.0
140.796326 60.0
140.804474 152.0
140.828156 240.0
140.862198 260.0
140.878677 188.0
140.894531 156.0
140.916718 364.0
140.942459 156.0
140.974854 184.0
141.025131 324.0
141.044998 160.0
141.050262 236.0
141.072784 296.0
141.106812 164.0
141.139206 212.0
141.148026 88.0
141.155228 88.0
141.201431 196.0
141.227432 176.0
141.266693 140.0
141.294235 108.0
141.326782 100.0
141.356216 100.0
141.403061 96.0
141.434128 236.0
141.468124 200.0
141.483582 132.0
141.513824 272.0
141.545517 296.0
141.582108 356.0
141.627441 92.0
141.668137 200.0
141.699722 228.0
141.719833 132.0
141.73822 148.0
141.757462 196.0
141.7995 276.0
141.860092 204.0
141.889053 144.0
141.911316 292.0
141.940872 228.0
141.982544 180.0
142.00383 308.0
142.027283 200.0
142.047958 164.0
142.058823 240.0
142.065598 172.0
142.098511 212.0
142.124985 272.0
142.151367 248.0
142.188904 240.0
142.197952 216.0
142.224121 188.0
142.252136 136.0
142.288803 156.0
142.319153 120.0
142.353836 176.0
142.373779 184.0
142.407974 92.0
142.425278 512.0
142.468689 228.0
142.500092 248.0
142.531342 128.0
142.547989 88.0
142.574051 128.0
142.615631 52.0
142.636292 204.0
142.65596 364.0
142.690857 252.0
142.729156 176.0
142.748657 268.0
142.78334 68.0
142.817947 116.0
142.83728 124.0
142.862503 172.0
142.895874 260.0
142.93309 148.0
142.954941 152.0
142.975677 96.0
142.990128 240.0
143.020966 156.0
143.041595 140.0
143.071411 336.0
143.102203 112.0
143.130142 168.0
143.136765 168.0
143.144043 100.0
143.1763 72.0
143.201492 188.0
143.217957 276.0
143.263641 92.0
143.287979 176.0
143.320633 192.0
143.372894 228.0
143.393814 176.0
143.414474 184.0
143.434555 172.0
143.462387 160.0
143.479492 128.0
143.498245 148.0
143.531647 192.0
143.581192 204.0
143.622147 296.0
143.64798 340.0
143.668579 140.0
143.693634 156.0
143.748184 80.0
143.793381 64.0
143.809937 132.0
143.828384 260.0
143.847946 180.0
143.871231 360.0
143.894714 152.0
143.911667 156.0
143.938477 236.0
143.973831 84.0
143.986801 172.0
143.991516 56.0
144.013123 160.0
144.031479 296.0
144.077393 208.0
144.112457 192.0
144.136505 52.0
144.156586 104.0
144.193726 144.0
144.212204 168.0
144.231339 108.0
144.259399 220.0
144.282669 180.0
144.308823 348.0
144.331284 120.0
144.357346 116.0
144.387314 236.0
144.422516 108.0
144.442261 144.0
144.462341 40.0
144.46579 164.0
144.506134 276.0
144.54126 196.0
144.582397 208.0
144.601196 216.0
144.627472 176.0
144.63414 144.0
144.669983 144.0
144.701904 60.0
144.732056 176.0
144.751373 188.0
144.775772 204.0
144.812668 176.0
144.852661 160.0
144.88588 108.0
144.919373 96.0
144.935638 124.0
144.962997 508.0
144.989166 100.0
145.027557 148.0
145.05722 216.0
145.089462 136.0
145.096573 96.0
145.125839 148.0
145.144043 152.0
145.165466 156.0
145.184097 112.0
145.206543 248.0
145.223999 212.0
145.2547 164.0
145.279495 40.0
145.309052 200.0
145.355453 272.0
145.383163 116.0
145.400314 252.0
145.430618 192.0
145.451233 140.0
145.479095 180.0
145.497391 152.0
145.535294 104.0
145.569031 356.0
145.578583 124.0
145.58403 292.0
145.619415 92.0
145.63707 312.0
145.689056 120.0
145.717194 64.0
145.769302 84.0
145.789581 356.0
145.817841 164.0
145.828522 80.0
145.832352 184.0
145.894974 168.0
145.917923 128.0
145.953827 5364.0
146.017548 196.0
146.044952 160.0
146.053131 200.0
146.084717 304.0
146.129181 36.0
146.167389 192.0
146.204269 156.0
146.235992 156.0
146.280548 244.0
146.316315 96.0
146.346344 148.0
146.350067 172.0
146.374054 184.0
146.419678 152.0
146.447449 176.0
146.468719 268.0
146.508301 148.0
146.539474 140.0
146.571381 192.0
146.610077 136.0
146.658859 168.0
146.68541 64.0
146.713028 208.0
146.734726 148.0
146.780197 68.0
146.783173 160.0
146.798843 160.0
146.831284 156.0
146.858032 204.0
146.881744 88.0
146.898682 120.0
146.917831 296.0
146.962616 5552.0
147.010223 160.0
147.053635 224.0
147.093231 128.0
147.132217 160.0
147.151047 444.0
147.199127 152.0
147.229034 248.0
147.253342 104.0
147.270248 132.0
147.287308 64.0
147.310242 132.0
147.324982 184.0
147.347382 116.0
147.376556 160.0
147.424805 144.0
147.439789 348.0
147.467056 132.0
147.494736 160.0
147.513229 72.0
147.527054 160.0
147.550568 124.0
147.582001 112.0
147.606644 156.0
147.636887 132.0
147.674011 452.0
147.704239 188.0
147.73558 88.0
147.764297 108.0
147.810013 188.0
147.834167 128.0
147.859192 48.0
147.895859 268.0
147.920776 156.0
147.951706 2108.0
148.005569 168.0
148.028976 140.0
148.049255 232.0
148.075684 80.0
148.106766 284.0
148.135925 136.0
148.187195 364.0
148.213913 124.0
148.22995 112.0
148.240417 96.0
148.250107 112.0
148.273087 92.0
148.303223 140.0
148.320023 172.0
148.340286 136.0
148.362534 136.0
148.373413 92.0
148.378937 216.0
148.419327 188.0
148.443634 284.0
148.469986 152.0
148.495255 192.0
148.519623 136.0
148.575836 156.0
148.618698 232.0
148.647095 168.0
148.665588 244.0
148.691711 96.0
148.700851 80.0
148.709442 112.0
148.732849 340.0
148.765488 196.0
148.79245 232.0
148.85376 344.0
148.891342 160.0
148.915955 152.0
148.960739 2216.0
149.013855 3316.0
149.071625 376.0
149.105728 140.0
149.122726 80.0
149.128204 100.0
149.14682 272.0
149.204376 88.0
149.229721 160.0
149.25592 92.0
149.276901 228.0
149.298874 40.0
149.329056 148.0
149.347961 328.0
149.365967 164.0
149.401947 64.0
149.425827 84.0
149.458176 296.0
149.481506 164.0
149.516876 172.0
149.542603 380.0
149.560471 140.0
149.597702 168.0
149.614731 212.0
149.630951 120.0
149.640717 232.0
149.684525 128.0
149.701492 220.0
149.728622 180.0
149.781601 240.0
149.812347 164.0
149.830948 124.0
149.838531 68.0
149.848724 136.0
149.854218 224.0
149.874496 156.0
149.916672 200.0
149.958099 340.0
149.991928 112.0
149.996185 192.0
150.017471 276.0
150.062515 100.0
150.082001 120.0
150.118423 84.0
150.125168 96.0
150.148117 120.0
150.165787 160.0
150.199585 132.0
150.22554 180.0
150.266708 352.0
150.299194 92.0
150.328934 156.0
150.349777 108.0
150.381393 200.0
150.434555 484.0
150.462265 136.0
150.488037 108.0
150.51001 104.0
150.543137 184.0
150.575241 192.0
150.584854 112.0
150.591171 104.0
150.614944 116.0
150.677872 204.0
150.717636 300.0
150.746155 84.0
150.80452 448.0
150.827988 212.0
150.864288 120.0
150.89415 208.0
150.915634 112.0
150.960541 172.0
151.012207 804.0
151.050613 84.0
151.05571 116.0
151.084778 128.0
151.115585 144.0
151.151672 128.0
151.198929 280.0
151.218842 144.0
151.25325 212.0
151.28598 132.0
151.315857 116.0
151.365326 168.0
151.421341 224.0
151.443268 152.0
151.449921 132.0
151.481628 228.0
151.51445 428.0
151.551834 200.0
151.592499 172.0
151.597321 232.0
151.620087 140.0
151.6642 176.0
151.668076 80.0
151.723587 216.0
151.764954 108.0
151.797119 280.0
151.827698 96.0
151.856018 120.0
151.879868 132.0
151.89566 576.0
151.914688 220.0
151.918411 128.0
151.939636 308.0
151.961777 288.0
152.016769 196.0
152.103012 304.0
152.136856 168.0
152.156693 180.0
152.196152 120.0
152.228424 148.0
152.257812 312.0
152.278336 116.0
152.302185 160.0
152.324524 160.0
152.36261 148.0
152.382538 188.0
152.427597 112.0
152.471039 112.0
152.51947 216.0
152.550858 152.0
152.606033 116.0
152.635162 96.0
152.66861 452.0
152.686996 164.0
152.736771 300.0
152.755783 256.0
152.787506 160.0
152.83194 176.0
152.858521 132.0
152.879013 164.0
152.912872 160.0
152.951843 216.0
152.95491 148.0
152.990921 156.0
153.029053 376.0
153.054825 60.0
153.082123 248.0
153.097931 224.0
153.128784 124.0
153.159607 132.0
153.181915 284.0
153.226456 152.0
153.24675 148.0
153.250763 204.0
153.303345 136.0
153.340439 212.0
153.358063 116.0
153.38266 136.0
153.418808 96.0
153.444595 272.0
153.483414 152.0
153.5065 112.0
153.540237 156.0
153.557266 256.0
153.597 120.0
153.601089 96.0
153.622696 132.0
153.651459 64.0
153.674088 220.0
153.713608 224.0
153.764481 148.0
153.787491 144.0
153.828049 112.0
153.853561 220.0
153.884628 196.0
153.921432 112.0
153.942764 208.0
153.972672 204.0
154.015411 108.0
154.04216 92.0
154.050095 156.0
154.0737 200.0
154.119034 136.0
154.168686 152.0
154.181519 92.0
154.18576 128.0
154.210815 140.0
154.246506 256.0
154.263885 316.0
154.28154 68.0
154.302933 160.0
154.358322 76.0
154.392899 112.0
154.433304 260.0
154.458023 220.0
154.487305 160.0
154.532669 184.0
154.58519 336.0
154.618195 196.0
154.660431 72.0
154.691513 316.0
154.716965 148.0
154.770294 52.0
154.805161 192.0
154.82988 60.0
154.861465 168.0
154.896881 116.0
154.909302 120.0
154.915176 140.0
154.943771 84.0
154.967697 136.0
154.990479 188.0
155.011093 256.0
155.047958 176.0
155.062363 116.0
155.097305 180.0
155.105011 224.0
155.123596 212.0
155.151825 124.0
155.182419 284.0
155.232117 88.0
155.255661 304.0
155.283218 256.0
155.324493 216.0
155.348618 336.0
155.364929 96.0
155.396057 272.0
155.432709 212.0
155.45076 300.0
155.471222 164.0
155.482239 132.0
155.512344 148.0
155.542282 224.0
155.575195 100.0
155.625839 88.0
155.65065 96.0
155.686279 100.0
155.711456 208.0
155.728317 184.0
155.759415 176.0
155.792221 196.0
155.839386 108.0
155.844223 104.0
155.872269 152.0
155.895218 152.0
155.927994 448.0
155.959885 312.0
155.989609 232.0
156.008255 144.0
156.067886 148.0
156.096512 140.0
156.136124 164.0
156.159714 136.0
156.172913 56.0
156.180222 128.0
156.198242 336.0
156.217148 72.0
156.238297 236.0
156.254715 84.0
156.280823 108.0
156.335617 172.0
156.376144 80.0
156.407654 296.0
156.432404 88.0
156.459656 216.0
156.476654 108.0
156.514511 104.0
156.537231 160.0
156.569 312.0
156.595551 100.0
156.639923 192.0
156.64827 200.0
156.655731 200.0
156.693222 116.0
156.731461 340.0
156.768463 260.0
156.805603 128.0
156.848999 84.0
156.865326 148.0
156.921036 124.0
156.946503 196.0
156.973724 132.0
156.994614 156.0
157.017426 160.0
157.044083 256.0
157.089401 272.0
157.122101 292.0
157.154312 200.0
157.205429 280.0
157.232529 136.0
157.261642 180.0
157.26799 164.0
157.29628 200.0
157.315475 208.0
157.333801 376.0
157.361008 136.0
157.366028 108.0
157.387512 136.0
157.432053 256.0
157.467896 192.0
157.485504 148.0
157.506729 232.0
157.52063 212.0
157.554642 376.0
157.615234 112.0
157.685547 164.0
157.698227 52.0
157.720245 148.0
157.740616 248.0
157.775406 264.0
157.827866 244.0
157.878769 140.0
157.916565 112.0
157.921875 180.0
157.925903 128.0
157.94104 200.0
157.97113 248.0
157.979736 248.0
158.016525 124.0
158.036972 140.0
158.081268 156.0
158.111984 108.0
158.143402 108.0
158.171539 332.0
158.21489 376.0
158.23642 160.0
158.257034 364.0
158.332855 136.0
158.364716 148.0
158.401947 132.0
158.424545 196.0
158.44101 200.0
158.46434 88.0
158.487747 288.0
158.528168 264.0
158.5448 96.0
158.551575 256.0
158.576157 180.0
158.610336 84.0
158.61441 140.0
158.644547 272.0
158.680176 168.0
158.700348 380.0
158.735947 188.0
158.7435 136.0
158.793732 148.0
158.821762 68.0
158.856537 96.0
158.892746 152.0
158.913483 276.0
158.943054 96.0
158.968307 96.0
158.994064 104.0
159.009903 124.0
159.019073 152.0
159.064728 264.0
159.107361 212.0
159.150314 260.0
159.221451 152.0
159.254501 180.0
159.272583 256.0
159.300201 196.0
159.336258 168.0
159.369507 56.0
159.3862 208.0
159.408142 136.0
159.428131 76.0
159.445099 100.0
159.466614 144.0
159.489243 108.0
159.50383 124.0
159.509689 160.0
159.560425 308.0
159.598312 144.0
159.632019 108.0
159.651413 196.0
159.686813 228.0
159.712143 240.0
159.750717 172.0
159.759003 184.0
159.814713 184.0
159.850662 136.0
159.880508 296.0
159.904251 148.0
159.942398 144.0
159.981339 172.0
160.003845 120.0
160.011185 92.0
160.040802 132.0
160.048172 164.0
160.083298 104.0
160.115051 220.0
160.13295 168.0
160.178711 144.0
160.246368 148.0
160.274445 220.0
160.299179 132.0
160.33786 520.0
160.362106 96.0
160.368805 136.0
160.392654 124.0
160.395889 124.0
160.432724 80.0
160.46077 104.0
160.489655 144.0
160.512695 168.0
160.534195 96.0
160.56636 148.0
160.598984 192.0
160.62944 200.0
160.641373 284.0
160.648544 236.0
160.684586 180.0
160.716064 160.0
160.747284 140.0
160.782654 76.0
160.810516 120.0
160.836502 180.0
160.852722 152.0
160.882111 116.0
160.915817 96.0
160.942764 80.0
160.969193 144.0
160.988937 284.0
161.026932 128.0
161.067474 148.0
161.085236 164.0
161.107178 160.0
161.138504 124.0
161.173447 128.0
161.211731 284.0
161.23735 152.0
161.276016 176.0
161.321045 236.0
161.339615 224.0
161.385452 80.0
161.427689 156.0
161.43515 212.0
161.465256 224.0
161.493561 236.0
161.52597 324.0
161.552612 208.0
161.578964 156.0
161.602371 64.0
161.6203 28.0
161.628616 112.0
161.655945 96.0
161.691223 144.0
161.71077 124.0
161.743729 132.0
161.7742 272.0
161.788849 128.0
161.807816 280.0
161.826569 276.0
161.855713 168.0
161.901581 272.0
161.922424 104.0
161.951782 1100.0
161.979599 652.0
162.002823 192.0
162.028625 344.0
162.051804 124.0
162.07431 132.0
162.083679 40.0
162.092514 140.0
162.128906 252.0
162.144058 112.0
162.154144 152.0
162.185928 168.0
162.210297 192.0
162.243759 176.0
162.288254 156.0
162.31514 156.0
162.348907 204.0
162.36882 116.0
162.431458 144.0
162.454193 60.0
162.461929 196.0
162.498749 164.0
162.538773 136.0
162.574982 152.0
162.584534 48.0
162.589401 192.0
162.609741 156.0
162.63974 180.0
162.660065 376.0
162.689865 92.0
162.715363 104.0
162.731339 120.0
162.759415 164.0
162.791199 180.0
162.823868 120.0
162.840652 184.0
162.859848 164.0
162.879074 168.0
162.917053 148.0
162.947327 160.0
162.957123 116.0
162.981094 348.0
163.000031 464.0
163.02269 300.0
163.053894 220.0
163.082214 160.0
163.099442 308.0
163.116272 164.0
163.146942 256.0
163.163513 184.0
163.196014 180.0
163.229553 116.0
163.264496 188.0
163.295029 180.0
163.319122 96.0
163.328156 252.0
163.36557 172.0
163.39006 268.0
163.428268 152.0
163.447113 240.0
163.493744 236.0
163.518616 236.0
163.559769 84.0
163.584641 264.0
163.616653 80.0
163.649887 152.0
163.670486 188.0
163.700211 428.0
163.718246 200.0
163.748093 228.0
163.811188 208.0
163.844223 156.0
163.879105 312.0
163.913773 176.0
163.963852 2116.0
164.023499 1104.0
164.060226 208.0
164.068115 96.0
164.100204 204.0
164.120987 188.0
164.157608 132.0
164.177246 80.0
164.210159 124.0
164.266418 140.0
164.277191 148.0
164.28775 124.0
164.320114 76.0
164.344788 300.0
164.379089 240.0
164.432617 248.0
164.449219 156.0
164.478119 76.0
164.509033 248.0
164.535965 272.0
164.561157 272.0
164.587891 60.0
164.613663 180.0
164.655487 236.0
164.691666 116.0
164.722961 280.0
164.743439 80.0
164.754059 184.0
164.785782 144.0
164.802124 292.0
164.823471 276.0
164.84375 152.0
164.866913 168.0
164.901947 120.0
164.968353 452.0
165.006683 2392.0
165.06279 248.0
165.116119 92.0
165.143814 172.0
165.176422 200.0
165.213013 168.0
165.235138 128.0
165.269928 288.0
165.325562 124.0
165.344849 244.0
165.362747 240.0
165.395813 132.0
165.401291 64.0
165.424515 84.0
165.435257 140.0
165.444672 260.0
165.481613 224.0
165.501389 200.0
165.540573 184.0
165.575165 228.0
165.60701 112.0
165.615341 92.0
165.660889 68.0
165.682999 64.0
165.687302 144.0
165.735565 148.0
165.773254 152.0
165.791077 184.0
165.815567 244.0
165.858215 140.0
165.87677 132.0
165.908966 324.0
165.962769 1904.0
166.012756 616.0
166.038757 344.0
166.060043 128.0
166.064484 72.0
166.078201 268.0
166.100693 244.0
166.126236 144.0
166.169693 208.0
166.191299 328.0
166.234741 148.0
166.241821 120.0
166.290466 148.0
166.314713 140.0
166.336319 52.0
166.353897 392.0
166.375946 140.0
166.397675 208.0
166.428787 236.0
166.471619 372.0
166.496048 168.0
166.505722 104.0
166.53038 152.0
166.569778 252.0
166.594391 200.0
166.636108 152.0
166.673218 136.0
166.680267 52.0
166.68837 184.0
166.715302 152.0
166.743958 88.0
166.769501 224.0
166.787415 144.0
166.810562 148.0
166.840469 120.0
166.861023 300.0
166.888809 164.0
166.923492 116.0
166.963409 172.0
167.00705 832.0
167.0616 268.0
167.079315 328.0
167.130493 240.0
167.152908 144.0
167.187195 344.0
167.219543 76.0
167.237564 96.0
167.258865 96.0
167.284714 224.0
167.309891 284.0
167.31929 96.0
167.32782 220.0
167.358871 216.0
167.386871 84.0
167.398972 116.0
167.447479 204.0
167.474564 208.0
167.517624 168.0
167.526398 132.0
167.55072 124.0
167.620148 240.0
167.668304 276.0
167.703766 68.0
167.738602 252.0
167.744461 168.0
167.775208 112.0
167.800354 300.0
167.820175 76.0
167.847885 160.0
167.878098 136.0
167.902115 56.0
167.921585 60.0
167.9785 124.0
168.006348 276.0
168.035294 100.0
168.067749 88.0
168.094589 52.0
168.141388 228.0
168.161942 60.0
168.197525 380.0
168.230499 184.0
168.276199 240.0
168.302994 104.0
168.320908 316.0
168.379761 44.0
168.413162 124.0
168.459641 320.0
168.487503 84.0
168.505142 140.0
168.512589 136.0
168.523056 148.0
168.577576 324.0
168.605957 284.0
168.66098 248.0
168.68663 136.0
168.690765 88.0
168.73761 280.0
168.783936 120.0
168.806702 212.0
168.825912 212.0
168.846649 104.0
168.870071 152.0
168.901718 220.0
168.919662 180.0
168.968964 128.0
169.024124 168.0
169.04805 136.0
169.082977 144.0
169.101105 116.0
169.118454 68.0
169.154007 240.0
169.181351 184.0
169.213272 144.0
169.235947 92.0
169.269287 220.0
169.326553 64.0
169.362091 108.0
169.444473 308.0
169.483948 104.0
169.509109 168.0
169.54567 348.0
169.585297 348.0
169.606674 84.0
169.611984 136.0
169.623337 100.0
169.649551 672.0
169.668396 156.0
169.687943 104.0
169.705856 228.0
169.737915 256.0
169.755737 180.0
169.783234 92.0
169.807831 156.0
169.850937 316.0
169.871506 396.0
169.913635 164.0
169.960968 140.0
169.978973 160.0
170.027008 216.0
170.040344 104.0
170.061417 328.0
170.088226 144.0
170.14209 148.0
170.168945 112.0
170.216141 160.0
170.226517 124.0
170.252869 308.0
170.293793 196.0
170.347733 276.0
170.376648 168.0
170.382889 296.0
170.393341 160.0
170.401016 232.0
170.420593 196.0
170.448715 140.0
170.46785 36.0
170.49292 152.0
170.51561 96.0
170.550568 116.0
170.576309 76.0
170.628082 268.0
170.674515 52.0
170.698578 116.0
170.737259 216.0
170.787064 256.0
170.811371 132.0
170.8396 264.0
170.876953 156.0
170.895706 268.0
170.922928 68.0
170.943741 144.0
170.970261 132.0
171.032166 172.0
171.052536 240.0
171.099152 348.0
171.154938 184.0
171.221512 268.0
171.2789 236.0
171.306961 136.0
171.346939 180.0
171.368881 284.0
171.417023 188.0
171.459213 136.0
171.488556 248.0
171.559036 120.0
171.588989 72.0
171.612076 132.0
171.632431 84.0
171.665817 132.0
171.708725 144.0
171.762527 192.0
171.792374 220.0
171.823441 128.0
171.849777 96.0
171.871536 168.0
171.920044 232.0
171.971008 4308.0
172.001602 68.0
172.015015 272.0
172.055801 116.0
172.073975 284.0
172.092316 140.0
172.167587 228.0
172.200943 140.0
172.245316 320.0
172.286057 264.0
172.320114 184.0
172.354904 100.0
172.414185 332.0
172.440353 380.0
172.532211 52.0
172.562302 272.0
172.615631 124.0
172.622803 124.0
172.652405 120.0
172.702499 136.0
172.742859 188.0
172.778168 112.0
172.813446 132.0
172.837875 296.0
172.877487 140.0
172.897522 224.0
172.916992 164.0
172.977539 10936.0
173.027725 200.0
173.055008 192.0
173.0755 68.0
173.100647 216.0
173.133789 320.0
173.163528 136.0
173.218658 92.0
173.240799 216.0
173.261566 112.0
173.266708 68.0
173.305756 116.0
173.368729 172.0
173.426178 172.0
173.463928 192.0
173.499084 180.0
173.527832 308.0
173.565689 224.0
173.592499 172.0
173.62468 132.0
173.650452 256.0
173.667984 248.0
173.708801 200.0
173.748901 348.0
173.780273 76.0
173.786148 144.0
173.804794 124.0
173.835358 116.0
173.859055 308.0
173.886002 412.0
173.911987 152.0
173.968353 1136.0
174.014847 196.0
174.050156 232.0
174.085739 444.0
174.102402 104.0
174.128937 140.0
174.163376 88.0
174.185196 236.0
174.205627 376.0
174.273361 148.0
174.319672 276.0
174.363312 248.0
174.398804 156.0
174.42514 160.0
174.456314 236.0
174.465363 128.0
174.475189 148.0
174.499802 160.0
174.524307 144.0
174.549118 96.0
174.56929 204.0
174.592987 396.0
174.614212 116.0
174.650635 184.0
174.67836 448.0
174.708832 216.0
174.71553 176.0
174.738571 124.0
174.761276 268.0
174.808456 108.0
174.815521 152.0
174.82518 128.0
174.857239 200.0
174.889923 148.0
174.916855 124.0
174.974136 6092.0
175.028442 124.0
175.038879 80.0
175.069229 120.0
175.100296 228.0
175.116089 108.0
175.154602 52.0
175.159714 96.0
175.195587 220.0
175.234375 360.0
175.26387 104.0
175.298309 352.0
175.318527 104.0
175.349396 272.0
175.381882 132.0
175.386627 212.0
175.396866 96.0
175.419998 108.0
175.448196 184.0
175.509552 192.0
175.575211 232.0
175.579514 188.0
175.621399 124.0
175.658997 140.0
175.66626 136.0
175.705597 108.0
175.748535 336.0
175.795547 104.0
175.815613 332.0
175.851074 272.0
175.89592 116.0
175.922806 156.0
175.963074 220.0
175.981644 484.0
176.045135 268.0
176.089691 140.0
176.123184 116.0
176.160614 204.0
176.185181 132.0
176.191406 212.0
176.224228 132.0
176.271851 112.0
176.308411 120.0
176.326462 164.0
176.37735 60.0
176.399887 264.0
176.448502 208.0
176.497803 156.0
176.556946 200.0
176.601929 104.0
176.608093 108.0
176.621094 92.0
176.641281 148.0
176.682175 124.0
176.727097 196.0
176.750687 48.0
176.775848 196.0
176.803162 316.0
176.842438 148.0
176.864899 316.0
176.887756 244.0
176.909729 116.0
176.913147 132.0
176.934662 104.0
176.963226 184.0
176.98114 204.0
177.007309 124.0
177.034286 120.0
177.054688 168.0
177.094727 332.0
177.099533 200.0
177.111847 192.0
177.150146 68.0
177.154663 116.0
177.185074 128.0
177.218842 200.0
177.23822 296.0
177.262207 116.0
177.300995 88.0
177.329285 264.0
177.354263 228.0
177.418594 128.0
177.451721 64.0
177.499832 280.0
177.524567 216.0
177.554886 80.0
177.576202 348.0
177.609009 104.0
177.631348 176.0
177.664383 372.0
177.69136 160.0
177.71257 76.0
177.741867 136.0
177.759583 172.0
177.787796 156.0
177.815277 92.0
177.847397 68.0
177.858856 112.0
177.89827 108.0
177.943283 208.0
177.979324 536.0
178.010315 320.0
178.041321 800.0
178.111938 116.0
178.153137 120.0
178.179276 136.0
178.227493 156.0
178.268112 148.0
178.311661 216.0
178.343979 180.0
178.388733 152.0
178.415329 176.0
178.431229 172.0
178.455734 164.0
178.487671 184.0
178.521103 252.0
178.546478 112.0
178.563614 116.0
178.574707 84.0
178.583145 116.0
178.62735 120.0
178.652832 96.0
178.664413 372.0
178.696075 156.0
178.725067 116.0
178.743774 248.0
178.798416 212.0
178.825623 216.0
178.844803 72.0
178.866028 172.0
178.920349 104.0
178.959274 236.0
179.002625 248.0
179.031067 160.0
179.067352 144.0
179.087997 136.0
179.101608 156.0
179.120102 272.0
179.159363 312.0
179.209946 80.0
179.237762 216.0
179.249023 128.0
179.254227 116.0
179.287216 116.0
179.306427 156.0
179.327194 188.0
179.347549 88.0
179.372635 112.0
179.440872 392.0
179.472351 108.0
179.494064 132.0
179.54747 272.0
179.574631 328.0
179.603867 252.0
179.633179 80.0
179.684052 252.0
179.708176 396.0
179.738602 140.0
179.785034 196.0
179.792572 156.0
179.804123 224.0
179.808365 108.0
179.831711 152.0
179.854034 268.0
179.91246 132.0
179.949707 288.0
179.971832 128.0
180.02182 232.0
180.051849 384.0
180.079865 212.0
180.129913 116.0
180.142639 176.0
180.196274 336.0
180.247772 220.0
180.2715 136.0
180.313797 96.0
180.323639 108.0
180.35704 212.0
180.400711 192.0
180.422974 196.0
180.43576 132.0
180.45842 88.0
180.480545 128.0
180.499115 212.0
180.516357 300.0
180.544174 288.0
180.579224 268.0
180.65451 260.0
180.690247 140.0
180.708679 316.0
180.738266 172.0
180.760818 200.0
180.797791 204.0
180.816437 248.0
180.842773 132.0
180.851913 76.0
180.894913 160.0
180.95517 156.0
181.000977 216.0
181.011002 200.0
181.016342 268.0
181.041061 124.0
181.09256 84.0
181.102661 188.0
181.126541 164.0
181.167572 148.0
181.19754 136.0
181.228455 292.0
181.26622 224.0
181.299622 128.0
181.324615 192.0
181.347488 112.0
181.376282 100.0
181.398788 160.0
181.425598 56.0
181.454834 288.0
181.495316 76.0
181.515335 128.0
181.537186 136.0
181.585037 148.0
181.613708 80.0
181.637451 108.0
181.685211 268.0
181.711319 60.0
181.73819 80.0
181.782806 136.0
181.826233 168.0
181.867264 288.0
181.916275 120.0
181.954529 132.0
181.964157 228.0
181.974258 328.0
182.020966 216.0
182.044189 148.0
182.057297 188.0
182.06897 88.0
182.075989 116.0
182.10228 232.0
182.165558 184.0
182.183655 132.0
182.194717 48.0
182.212585 228.0
182.255386 112.0
182.283051 140.0
182.306427 168.0
182.328888 108.0
182.333847 176.0
182.370026 200.0
182.403137 116.0
182.45079 180.0
182.457809 176.0
182.542526 288.0
182.573425 256.0
182.597595 268.0
182.616379 124.0
182.642349 40.0
182.653961 148.0
182.694443 276.0
182.726746 152.0
182.751175 184.0
182.780243 112.0
182.830917 200.0
182.857513 236.0
182.892822 232.0
182.923279 156.0
182.95285 152.0
182.981567 220.0
183.012146 276.0
183.061569 208.0
183.118683 236.0
183.157104 168.0
183.17688 208.0
183.20549 136.0
183.225281 360.0
183.252991 220.0
183.259155 132.0
183.287552 128.0
183.338974 72.0
183.382538 48.0
183.40712 144.0
183.431061 536.0
183.467407 124.0
183.50325 180.0
183.528763 184.0
183.538193 108.0
183.54834 120.0
183.574173 248.0
183.62027 116.0
183.643433 136.0
183.663864 224.0
183.711594 116.0
183.7444 248.0
183.781204 92.0
183.815491 284.0
183.838745 212.0
183.867966 172.0
183.907013 116.0
183.947861 268.0
183.97934 124.0
184.007233 288.0
184.074295 292.0
184.106277 292.0
184.132355 92.0
184.142731 80.0
184.150574 240.0
184.171951 264.0
184.203339 188.0
184.234863 144.0
184.252426 180.0
184.278717 140.0
184.321213 280.0
184.355026 288.0
184.437149 280.0
184.46077 148.0
184.492722 172.0
184.534805 168.0
184.538467 148.0
184.592148 88.0
184.627396 152.0
184.704803 172.0
184.74028 292.0
184.785843 188.0
184.806107 156.0
184.831314 204.0
184.855743 168.0
184.891785 120.0
184.943741 40.0
184.962692 44.0
185.006302 312.0
185.030365 156.0
185.06929 280.0
185.091751 112.0
185.126297 156.0
185.161148 172.0
185.183411 140.0
185.230331 328.0
185.278656 164.0
185.312943 212.0
185.349182 148.0
185.353104 180.0
185.374954 168.0
185.39357 96.0
185.445679 168.0
185.464706 204.0
185.504257 132.0
185.552414 84.0
185.572113 84.0
185.581421 136.0
185.630432 268.0
185.68515 320.0
185.719833 132.0
185.758911 252.0
185.796555 176.0
185.821411 88.0
185.841721 136.0
185.873337 88.0
185.903183 284.0
185.920807 232.0
185.945251 112.0
185.976166 360.0
186.030655 224.0
186.054001 272.0
186.08223 156.0
186.110992 144.0
186.140945 68.0
186.166962 264.0
186.190277 128.0
186.235016 288.0
186.28331 280.0
186.307968 148.0
186.332947 380.0
186.371155 52.0
186.382309 116.0
186.411865 100.0
186.446945 164.0
186.483582 136.0
186.509293 160.0
186.528534 216.0
186.564087 176.0
186.607773 236.0
186.634033 276.0
186.662766 208.0
186.694153 76.0
186.700638 52.0
186.738571 216.0
186.764908 116.0
186.83255 208.0
186.871445 408.0
186.897675 148.0
186.908981 188.0
186.932632 44.0
186.951492 144.0
186.957489 220.0
186.983704 416.0
187.017715 196.0
187.04216 260.0
187.064774 364.0
187.111374 128.0
187.147125 292.0
187.180847 260.0
187.231277 324.0
187.267471 200.0
187.323456 160.0
187.330368 116.0
187.334976 68.0
187.339905 248.0
187.353806 88.0
187.374008 140.0
187.432617 112.0
187.456329 152.0
187.498962 132.0
187.545502 136.0
187.613571 332.0
187.648529 156.0
187.705063 188.0
187.741104 140.0
187.776398 160.0
187.804474 116.0
187.820831 204.0
187.84314 40.0
187.865402 148.0
187.893692 128.0
187.927811 116.0
187.955948 92.0
187.9991 76.0
188.006851 68.0
188.034683 200.0
188.059662 172.0
188.093201 200.0
188.10025 288.0
188.117661 268.0
188.160461 144.0
188.172195 88.0
188.186188 88.0
188.197769 140.0
188.22644 208.0
188.256989 124.0
188.28064 252.0
188.337326 160.0
188.391388 108.0
188.399124 84.0
188.440247 224.0
188.471085 312.0
188.499619 72.0
188.505341 112.0
188.544998 260.0
188.587616 164.0
188.621201 344.0
188.642944 140.0
188.712006 184.0
188.757187 128.0
188.773758 104.0
188.779129 144.0
188.80217 216.0
188.823013 156.0
188.848175 132.0
188.906357 196.0
188.941986 276.0
188.963913 140.0
188.999512 240.0
189.041855 88.0
189.085175 132.0
189.11821 144.0
189.142349 212.0
189.187836 144.0
189.230042 124.0
189.240311 104.0
189.270233 176.0
189.308548 160.0
189.329971 144.0
189.373032 176.0
189.380783 120.0
189.414413 76.0
189.435089 212.0
189.47229 56.0
189.510834 176.0
189.532242 84.0
189.552216 164.0
189.573868 76.0
189.584106 136.0
189.595367 144.0
189.602432 76.0
189.613281 84.0
189.645859 100.0
189.668213 160.0
189.687103 128.0
189.709274 340.0
189.746552 88.0
189.786484 216.0
189.817154 112.0
189.838104 124.0
189.846161 184.0
189.875092 136.0
189.896194 84.0
189.924805 92.0
189.986053 152.0
190.012115 192.0
190.030029 200.0
190.075882 60.0
190.084976 84.0
190.096741 192.0
190.10434 148.0
190.175308 368.0
190.217941 160.0
190.25856 324.0
190.286774 192.0
190.32608 128.0
190.358871 76.0
190.384003 144.0
190.407028 476.0
190.430984 96.0
190.469543 44.0
190.507507 204.0
190.529709 176.0
190.546951 108.0
190.581482 132.0
190.627121 140.0
190.631561 372.0
190.644287 192.0
190.667664 264.0
190.673157 180.0
190.704605 420.0
190.741989 136.0
190.76709 208.0
190.796692 104.0
190.807373 156.0
190.819748 152.0
190.828674 216.0
190.886093 332.0
190.92601 136.0
190.955887 232.0
190.975906 272.0
191.04834 300.0
191.089005 128.0
191.131195 320.0
191.157715 172.0
191.180405 76.0
191.212906 184.0
191.242569 220.0
191.285797 272.0
191.305267 144.0
191.313995 136.0
191.331619 312.0
191.348923 112.0
191.369141 128.0
191.397583 108.0
191.405289 156.0
191.413818 132.0
191.444427 212.0
191.489594 224.0
191.515884 260.0
191.535416 152.0
191.588104 252.0
191.615875 360.0
191.666 164.0
191.68808 172.0
191.711639 224.0
191.732742 280.0
191.75351 44.0
191.762695 76.0
191.792984 360.0
191.831924 160.0
191.867294 128.0
191.892258 104.0
191.941925 120.0
191.96196 40.0
191.98732 116.0
192.019592 2316.0
192.055588 172.0
192.084778 104.0
192.113647 344.0
192.139648 100.0
192.171768 68.0
192.188889 248.0
192.230179 116.0
192.276199 192.0
192.284836 168.0
192.296829 200.0
192.329224 152.0
192.367615 56.0
192.413834 200.0
192.433029 384.0
192.46669 128.0
192.520233 340.0
192.554642 96.0
192.568192 140.0
192.57518 172.0
192.600967 284.0
192.632248 156.0
192.662872 188.0
192.689026 296.0
192.714798 92.0
192.746841 128.0
192.779129 140.0
192.824661 136.0
192.851151 124.0
192.893234 264.0
192.926788 216.0
192.951065 224.0
192.962189 280.0
192.969711 284.0
193.023727 264.0
193.067734 108.0
193.078171 140.0
193.16658 332.0
193.200867 224.0
193.221191 136.0
193.244873 228.0
193.27655 148.0
193.298111 104.0
193.347168 176.0
193.406311 108.0
193.425003 136.0
193.458878 152.0
193.486603 140.0
193.522232 132.0
193.560715 144.0
193.591522 204.0
193.64743 252.0
193.676468 176.0
193.70665 176.0
193.732925 232.0
193.816711 288.0
193.835831 240.0
193.847641 48.0
193.85202 156.0
193.907303 276.0
193.96228 68.0
194.014984 608.0
194.094101 168.0
194.121506 116.0
194.147797 116.0
194.192001 136.0
194.213379 96.0
194.219009 72.0
194.233719 48.0
194.261032 248.0
194.294525 388.0
194.318344 164.0
194.366867 176.0
194.391586 220.0
194.42157 132.0
194.460968 128.0
194.493515 96.0
194.513519 124.0
194.540787 212.0
194.574432 168.0
194.630737 300.0
194.661591 284.0
194.693176 396.0
194.735504 108.0
194.796936 336.0
194.83754 200.0
194.880219 84.0
194.909714 160.0
194.94249 100.0
194.995209 168.0
195.009109 156.0
195.070328 160.0
195.108475 144.0
195.153458 148.0
195.187408 224.0
195.215302 108.0
195.220779 120.0
195.232773 76.0
195.240417 204.0
195.27533 180.0
195.308716 160.0
195.334641 244.0
195.378296 92.0
195.432938 140.0
195.473343 280.0
195.516037 312.0
195.548828 148.0
195.577362 228.0
195.613205 180.0
195.633682 160.0
195.677032 228.0
195.713394 172.0
195.722961 60.0
195.732178 216.0
195.770386 104.0
195.795639 140.0
195.833572 188.0
195.910156 244.0
195.950485 228.0
195.968994 172.0
195.994156 264.0
196.019516 164.0
196.052429 148.0
196.074158 236.0
196.101944 156.0
196.146072 140.0
196.173462 204.0
196.211166 264.0
196.232391 76.0
196.25238 188.0
196.295578 444.0
196.305939 284.0
196.338852 188.0
196.355423 100.0
196.381836 160.0
196.407562 104.0
196.447861 120.0
196.477341 184.0
196.508926 140.0
196.51329 92.0
196.531799 260.0
196.558701 80.0
196.588394 236.0
196.606232 92.0
196.629028 180.0
196.668243 40.0
196.710892 200.0
196.733246 396.0
196.750977 312.0
196.771652 124.0
196.805038 108.0
196.825562 184.0
196.845627 252.0
196.87355 108.0
196.892303 144.0
196.920532 72.0
196.965744 2740.0
197.008835 156.0
197.026596 136.0
197.077072 144.0
197.112305 220.0
197.145203 164.0
197.207001 220.0
197.235214 244.0
197.255692 216.0
197.281372 324.0
197.340118 80.0
197.363815 164.0
197.42012 72.0
197.455872 76.0
197.478546 56.0
197.511642 108.0
197.539597 116.0
197.586624 188.0
197.615677 176.0
197.66391 156.0
197.71611 140.0
197.750015 140.0
197.772919 172.0
197.801468 216.0
197.825165 148.0
197.84967 136.0
197.895142 196.0
197.970612 1676.0
198.020325 140.0
198.042374 168.0
198.079849 88.0
198.10939 104.0
198.151917 332.0
198.19133 200.0
198.237549 420.0
198.337158 124.0
198.373459 96.0
198.411041 128.0
198.446198 244.0
198.478073 140.0
198.516983 224.0
198.547195 196.0
198.569839 152.0
198.589218 224.0
198.618958 112.0
198.655518 152.0
198.684952 164.0
198.726044 96.0
198.759628 172.0
198.79097 136.0
198.836563 308.0
198.876953 380.0
198.926514 200.0
198.979294 4268.0
199.023926 136.0
199.068375 104.0
199.07843 80.0
199.103271 92.0
199.108154 148.0
199.1474 176.0
199.196823 152.0
199.236145 80.0
199.282242 264.0
199.316803 160.0
199.3284 112.0
199.332901 92.0
199.340851 60.0
199.364334 84.0
199.396286 300.0
199.464035 168.0
199.493698 192.0
199.516144 228.0
199.52475 180.0
199.554733 112.0
199.588074 164.0
199.614471 60.0
199.625198 116.0
199.634781 156.0
199.649094 136.0
199.658066 156.0
199.68425 224.0
199.706543 116.0
199.74292 464.0
199.798111 184.0
199.839417 92.0
199.850937 120.0
199.89389 172.0
199.933487 192.0
199.970612 680.0
200.033432 244.0
200.055573 100.0
200.081436 220.0
200.128662 100.0
200.153229 212.0
200.187042 164.0
200.215393 268.0
200.233246 144.0
200.289276 252.0
200.307709 192.0
200.325928 124.0
200.378235 260.0
200.429123 104.0
200.454788 324.0
200.492477 132.0
200.513428 140.0
200.561722 104.0
200.619125 228.0
200.674103 264.0
200.745041 180.0
200.796097 292.0
200.835083 172.0
200.868073 312.0
200.907928 140.0
200.978149 1456.0
201.049088 420.0
201.073898 260.0
201.096252 104.0
201.107651 180.0
201.115509 84.0
201.159927 236.0
201.195007 112.0
201.224487 340.0
201.270584 132.0
201.29184 192.0
201.302429 244.0
201.322922 180.0
201.373871 120.0
201.404282 196.0
201.433914 56.0
201.454407 212.0
201.493866 252.0
201.525757 260.0
201.567429 156.0
201.580154 84.0
201.586838 60.0
201.610672 216.0
201.651077 136.0
201.673935 92.0
201.708939 172.0
201.742615 148.0
201.791397 392.0
201.824356 68.0
201.861221 320.0
201.897903 204.0
201.921692 112.0
201.968536 300.0
201.996536 252.0
202.046371 124.0
202.070297 244.0
202.102646 248.0
202.12471 76.0
202.176941 224.0
202.215591 184.0
202.263153 116.0
202.293182 160.0
202.318665 180.0
202.346909 168.0
202.372452 128.0
202.412643 144.0
202.444382 160.0
202.478439 184.0
202.528214 132.0
202.56398 148.0
202.60762 216.0
202.634705 248.0
202.661255 224.0
202.676285 112.0
202.710983 340.0
202.716385 244.0
202.736588 156.0
202.775482 88.0
202.814941 188.0
202.827515 128.0
202.874832 312.0
202.903732 200.0
202.94101 212.0
202.972092 232.0
203.001419 340.0
203.025787 168.0
203.057983 696.0
203.090637 256.0
203.139542 164.0
203.164032 216.0
203.187607 212.0
203.218735 180.0
203.240616 228.0
203.272934 136.0
203.292267 156.0
203.320969 192.0
203.340668 108.0
203.351837 184.0
203.3983 104.0
203.432159 104.0
203.479202 128.0
203.513672 152.0
203.563782 304.0
203.586014 100.0
203.610214 216.0
203.648499 120.0
203.700409 136.0
203.749725 288.0
203.784439 176.0
203.816223 172.0
203.848343 172.0
203.878738 160.0
203.919495 152.0
203.951752 220.0
203.982422 276.0
204.018982 512.0
204.058777 428.0
204.087845 228.0
204.139801 168.0
204.188629 192.0
204.210953 132.0
204.239822 108.0
204.264862 268.0
204.28624 76.0
204.315933 172.0
204.347733 108.0
204.376114 424.0
204.412354 268.0
204.432434 132.0
204.46312 92.0
204.48877 200.0
204.512589 168.0
204.559174 88.0
204.583328 148.0
204.622589 80.0
204.644165 100.0
204.670319 120.0
204.69397 104.0
204.728607 192.0
204.782211 280.0
204.833679 156.0
204.874359 84.0
204.898361 228.0
204.940109 324.0
204.96492 204.0
205.025177 580.0
205.075592 1232.0
205.110794 184.0
205.154434 264.0
205.189514 228.0
205.221268 96.0
205.251556 188.0
205.27507 88.0
205.30542 120.0
205.349396 128.0
205.374237 288.0
205.408112 184.0
205.449387 140.0
205.529449 168.0
205.558929 148.0
205.581406 180.0
205.634567 184.0
205.646179 196.0
205.659851 100.0
205.669296 124.0
205.695755 100.0
205.733551 268.0
205.766266 132.0
205.792618 124.0
205.799698 92.0
205.810211 272.0
205.843094 176.0
205.861526 232.0
205.89856 148.0
205.95549 164.0
205.962006 180.0
205.980011 292.0
206.035858 1868.0
206.073395 508.0
206.121552 192.0
206.15007 148.0
206.168686 108.0
206.194366 332.0
206.226715 336.0
206.253189 124.0
206.286545 144.0
206.32608 248.0
206.397461 220.0
206.421524 120.0
206.445297 160.0
206.492661 168.0
206.514359 296.0
206.549881 172.0
206.575302 128.0
206.624725 244.0
206.662537 252.0
206.71814 116.0
206.771759 148.0
206.812408 68.0
206.852692 212.0
206.883484 136.0
206.907471 116.0
206.9673 244.0
207.028275 396.0
207.05838 228.0
207.071503 276.0
207.077927 148.0
207.095734 256.0
207.165939 248.0
207.21138 128.0
207.220459 144.0
207.250839 124.0
207.276123 104.0
207.2883 144.0
207.29541 160.0
207.306305 116.0
207.337067 104.0
207.375641 192.0
207.387756 176.0
207.408279 52.0
207.432129 304.0
207.478973 208.0
207.502014 128.0
207.532074 344.0
207.542297 104.0
207.57843 100.0
207.608719 184.0
207.636963 192.0
207.701019 208.0
207.744141 104.0
207.781494 156.0
207.788254 64.0
207.801804 96.0
207.834091 112.0
207.864716 84.0
207.894958 160.0
207.917053 84.0
207.956497 108.0
207.982147 124.0
208.001083 276.0
208.03244 664.0
208.06636 260.0
208.09024 140.0
208.11499 184.0
208.141556 140.0
208.154984 164.0
208.162003 188.0
208.185959 108.0
208.221283 108.0
208.245087 168.0
208.281845 84.0
208.303665 180.0
208.313828 220.0
208.365891 156.0
208.376114 200.0
208.387192 300.0
208.425354 116.0
208.451218 36.0
208.484192 216.0
208.528275 164.0
208.555725 44.0
208.602844 164.0
208.634033 120.0
208.660034 240.0
208.701157 264.0
208.749664 188.0
208.791016 284.0
208.812378 108.0
208.832687 228.0
208.854401 200.0
208.885361 224.0
208.907425 132.0
208.945847 140.0
208.970886 216.0
208.981689 160.0
209.022507 60.0
209.028015 124.0
209.061813 216.0
209.123169 148.0
209.154297 268.0
209.195755 412.0
209.222061 112.0
209.247375 152.0
209.278564 96.0
209.329437 172.0
209.365097 180.0
209.387314 120.0
209.420166 236.0
209.47757 260.0
209.519714 124.0
209.563034 176.0
209.590729 204.0
209.613403 120.0
209.641739 80.0
209.647644 80.0
209.671463 264.0
209.708893 108.0
209.750549 164.0
209.777191 124.0
209.814713 236.0
209.839035 136.0
209.902267 164.0
209.936111 92.0
209.961685 296.0
210.013992 288.0
210.038666 152.0
210.069595 132.0
210.091965 180.0
210.135025 292.0
210.166138 216.0
210.190842 400.0
210.232071 148.0
210.251953 124.0
210.308395 136.0
210.341629 112.0
210.367249 96.0
210.396317 52.0
210.442078 508.0
210.479065 228.0
210.513733 128.0
210.54216 172.0
210.546249 208.0
210.611298 32.0
210.656921 176.0
210.680496 328.0
210.714493 168.0
210.735397 124.0
210.765137 100.0
210.793716 204.0
210.802414 176.0
210.84491 268.0
210.867111 104.0
210.89032 204.0
210.927673 132.0
210.958282 116.0
210.991302 128.0
211.013901 200.0
211.038086 232.0
211.06662 228.0
211.072601 240.0
211.084366 248.0
211.095947 100.0
211.104065 164.0
211.129532 148.0
211.189896 156.0
211.217712 216.0
211.266373 272.0
211.336716 176.0
211.349045 256.0
211.35881 256.0
211.369904 244.0
211.42334 92.0
211.44252 320.0
211.490021 172.0
211.51326 116.0
211.540115 148.0
211.606735 112.0
211.633209 108.0
211.658264 388.0
211.679886 176.0
211.721878 232.0
211.764771 188.0
211.799515 200.0
211.813034 108.0
211.819122 144.0
211.899429 144.0
211.965012 180.0
211.99617 156.0
212.021255 180.0
212.072678 136.0
212.103806 380.0
212.145874 220.0
212.159027 128.0
212.205765 84.0
212.247711 172.0
212.322342 148.0
212.343796 180.0
212.372635 144.0
212.423004 236.0
212.448578 164.0
212.510071 92.0
212.561981 296.0
212.603378 244.0
212.60817 100.0
212.662033 264.0
212.699371 172.0
212.727707 288.0
212.78096 316.0
212.904282 184.0
212.927185 136.0
212.936249 144.0
212.961212 240.0
212.994324 280.0
213.048828 220.0
213.088196 96.0
213.096664 96.0
213.138916 156.0
213.178802 164.0
213.200607 268.0
213.245911 96.0
213.268005 260.0
213.30986 188.0
213.333054 48.0
213.360229 172.0
213.404007 148.0
213.424057 72.0
213.45163 444.0
213.460983 112.0
213.470322 408.0
213.51915 88.0
213.571198 124.0
213.623276 288.0
213.627319 140.0
213.660843 168.0
213.706131 172.0
213.741348 200.0
213.771301 152.0
213.79689 376.0
213.848236 144.0
213.904892 136.0
213.945236 212.0
213.967865 136.0
214.019882 284.0
214.04483 188.0
214.124924 216.0
214.166199 64.0
214.174271 252.0
214.210571 136.0
214.253632 220.0
214.281723 180.0
214.291901 272.0
214.305862 168.0
214.313278 220.0
214.370895 112.0
214.400803 184.0
214.409256 60.0
214.4198 116.0
214.463638 184.0
214.485397 152.0
214.493317 132.0
214.503815 188.0
214.549011 120.0
214.606781 240.0
214.664825 240.0
214.707413 212.0
214.741516 92.0
214.770111 152.0
214.804062 168.0
214.868118 208.0
214.878372 92.0
214.887924 220.0
214.929504 88.0
214.956421 432.0
214.997391 332.0
215.027008 132.0
215.053558 208.0
215.078781 128.0
215.124863 188.0
215.163147 248.0
215.21347 140.0
215.257767 88.0
215.292862 100.0
215.30899 256.0
215.336731 140.0
215.345932 216.0
215.366776 140.0
215.388031 196.0
215.42128 152.0
215.448822 244.0
215.472717 68.0
215.497696 96.0
215.521576 204.0
215.542633 196.0
215.568619 108.0
215.618103 108.0
215.636642 132.0
215.678391 156.0
215.721878 408.0
215.777618 136.0
215.78923 68.0
215.819839 240.0
215.832581 120.0
215.844604 88.0
215.854553 256.0
215.871994 292.0
215.913452 212.0
215.940781 168.0
215.964661 288.0
215.989838 112.0
216.013962 68.0
216.039368 84.0
216.070694 96.0
216.105011 108.0
216.142303 228.0
216.20224 228.0
216.248886 52.0
216.269363 120.0
216.274933 88.0
216.319534 184.0
216.346725 152.0
216.420456 128.0
216.455185 336.0
216.525192 212.0
216.56012 160.0
216.573456 88.0
216.58548 200.0
216.611069 68.0
216.624756 124.0
216.632523 188.0
216.644638 156.0
216.652832 172.0
216.663849 284.0
216.721542 172.0
216.743164 220.0
216.783524 140.0
216.820877 188.0
216.830383 120.0
216.867798 172.0
216.890366 348.0
216.911469 248.0
216.937424 232.0
216.969284 220.0
217.013138 148.0
217.049652 248.0
217.080063 140.0
217.118851 164.0
217.148422 136.0
217.15416 84.0
217.183746 364.0
217.216553 52.0
217.240219 136.0
217.289062 108.0
217.319107 240.0
217.347672 124.0
217.379211 80.0
217.416534 164.0
217.457047 144.0
217.493576 352.0
217.522873 316.0
217.545517 76.0
217.588806 328.0
217.611206 256.0
217.68454 412.0
217.714096 300.0
217.749527 216.0
217.787109 340.0
217.808243 248.0
217.826447 92.0
217.859818 124.0
217.913254 100.0
217.933823 288.0
217.952606 212.0
218.020142 200.0
218.08197 308.0
218.110443 240.0
218.159454 172.0
218.182159 248.0
218.213974 252.0
218.259338 80.0
218.310806 264.0
218.340027 216.0
218.359985 384.0
218.416809 200.0
218.443039 196.0
218.464691 144.0
218.499115 260.0
218.542618 168.0
218.576721 120.0
218.599945 216.0
218.640961 216.0
218.692093 156.0
218.720001 352.0
218.737213 152.0
218.773727 272.0
218.813492 84.0
218.849564 100.0
218.880112 60.0
218.90416 276.0
218.928772 112.0
218.964127 136.0
218.974655 120.0
219.003586 116.0
219.040695 300.0
219.079926 284.0
219.147797 180.0
219.193283 132.0
219.227219 184.0
219.239319 80.0
219.250336 136.0
219.261963 140.0
219.273102 168.0
219.284439 124.0
219.314484 184.0
219.353607 128.0
219.373367 272.0
219.421677 156.0
219.453079 236.0
219.491516 132.0
219.525955 160.0
219.53334 172.0
219.562485 344.0
219.59729 104.0
219.617599 196.0
219.682846 108.0
219.70665 120.0
219.773834 160.0
219.822495 260.0
219.862671 184.0
219.878723 140.0
219.949631 220.0
220.006363 80.0
220.05011 784.0
220.088852 684.0
220.107529 476.0
220.182663 216.0
220.220688 112.0
220.27095 208.0
220.294312 124.0
220.302521 124.0
220.315216 84.0
220.344788 224.0
220.396683 144.0
220.425446 156.0
220.465805 124.0
220.497833 116.0
220.518372 204.0
220.553314 88.0
220.583893 116.0
220.608612 96.0
220.645935 156.0
220.676498 144.0
220.712952 76.0
220.754837 148.0
220.787216 108.0
220.815521 180.0
220.84404 132.0
220.87468 252.0
220.893768 268.0
220.923401 188.0
220.95253 88.0
220.994949 264.0
221.053665 344.0
221.066818 276.0
221.113541 264.0
221.146545 264.0
221.196686 256.0
221.251892 216.0
221.297913 212.0
221.34053 144.0
221.381409 136.0
221.413437 136.0
221.437302 84.0
221.476242 116.0
221.500809 224.0
221.558029 100.0
221.586365 48.0
221.638275 232.0
221.668213 192.0
221.695633 240.0
221.734283 172.0
221.778397 104.0
221.841415 144.0
221.870743 120.0
221.93898 192.0
221.987793 1096.0
222.04451 132.0
222.076584 276.0
222.117416 132.0
222.159195 164.0
222.231262 204.0
222.256821 196.0
222.288864 260.0
222.320541 108.0
222.373108 144.0
222.420593 156.0
222.448456 264.0
222.505737 372.0
222.535095 176.0
222.568542 180.0
222.60997 216.0
222.632431 180.0
222.649185 176.0
222.674164 248.0
222.710388 196.0
222.759842 112.0
222.770355 236.0
222.801025 244.0
222.84285 84.0
222.861526 136.0
222.895798 144.0
222.903137 84.0
222.934647 156.0
222.963837 212.0
222.98587 432.0
223.015442 136.0
223.041153 156.0
223.07489 224.0
223.123505 260.0
223.165466 180.0
223.198578 192.0
223.244492 140.0
223.274231 148.0
223.336594 196.0
223.345215 144.0
223.37709 104.0
223.423523 132.0
223.463425 152.0
223.490402 316.0
223.525742 112.0
223.544495 60.0
223.591797 112.0
223.61557 248.0
223.654678 260.0
223.682678 108.0
223.725769 240.0
223.753937 144.0
223.793152 232.0
223.842331 96.0
223.876968 92.0
223.945023 180.0
223.977615 620.0
224.012543 120.0
224.020584 220.0
224.094223 128.0
224.121689 208.0
224.12854 48.0
224.141891 164.0
224.188614 252.0
224.244415 80.0
224.279099 64.0
224.305954 164.0
224.356979 268.0
224.409439 216.0
224.457031 164.0
224.493515 292.0
224.562012 248.0
224.591629 68.0
224.599197 136.0
224.623383 120.0
224.65358 100.0
224.69783 80.0
224.731079 100.0
224.752609 96.0
224.758942 128.0
224.783615 92.0
224.81488 332.0
224.852661 92.0
224.881866 132.0
224.913391 252.0
224.966934 104.0
225.025467 148.0
225.092682 184.0
225.166687 56.0
225.197922 120.0
225.243805 232.0
225.275223 80.0
225.296738 216.0
225.325531 248.0
225.363358 112.0
225.382492 164.0
225.422913 332.0
225.454498 160.0
225.492813 336.0
225.5616 96.0
225.573349 68.0
225.602783 132.0
225.637482 140.0
225.656403 180.0
225.681808 92.0
225.714569 172.0
225.770035 200.0
225.781631 104.0
225.793701 112.0
225.809448 160.0
225.822189 248.0
225.826065 244.0
225.856842 80.0
225.894821 284.0
225.927841 144.0
225.959747 156.0
225.979736 244.0
226.033905 168.0
226.078796 148.0
226.099106 192.0
226.126175 176.0
226.16188 268.0
226.185959 168.0
226.194702 136.0
226.204239 132.0
226.215088 180.0
226.224945 76.0
226.255829 112.0
226.302444 284.0
226.327682 172.0
226.370422 228.0
226.396057 132.0
226.452667 196.0
226.5215 244.0
226.547134 188.0
226.570923 296.0
226.597488 156.0
226.620956 196.0
226.654602 312.0
226.679901 152.0
226.736847 116.0
226.768585 352.0
226.799469 96.0
226.841873 124.0
226.868286 420.0
226.904205 128.0
226.927261 164.0
226.95163 124.0
226.976547 188.0
227.009109 256.0
227.047882 88.0
227.074524 256.0
227.117004 88.0
227.144211 240.0
227.16214 100.0
227.19313 272.0
227.214386 96.0
227.224182 88.0
227.233963 240.0
227.265839 200.0
227.311295 112.0
227.320709 324.0
227.362503 256.0
227.42395 248.0
227.443619 316.0
227.485062 112.0
227.507812 260.0
227.551331 136.0
227.588669 108.0
227.647781 208.0
227.721786 184.0
227.740997 228.0
227.787537 156.0
227.829926 236.0
227.87265 176.0
227.898636 404.0
227.931717 56.0
227.969604 112.0
228.000671 348.0
228.022324 344.0
228.043472 296.0
228.05101 132.0
228.075363 92.0
228.097794 172.0
228.125931 328.0
228.15181 148.0
228.184967 204.0
228.211075 228.0
228.234161 108.0
228.265427 108.0
228.303085 204.0
228.344391 136.0
228.366287 124.0
228.393417 228.0
228.464188 304.0
228.502472 168.0
228.526703 116.0
228.560928 148.0
228.587494 216.0
228.624741 96.0
228.689941 100.0
228.696091 188.0
228.739899 168.0
228.778061 116.0
228.785446 124.0
228.801208 172.0
228.84285 336.0
228.898621 112.0
228.933838 208.0
228.944763 192.0
228.95491 136.0
229.010559 164.0
229.062897 244.0
229.133347 284.0
229.210876 268.0
229.264648 148.0
229.29541 128.0
229.329224 140.0
229.368408 76.0
229.430084 208.0
229.450256 312.0
229.463776 88.0
229.473785 192.0
229.489975 360.0
229.517014 192.0
229.525955 124.0
229.546906 176.0
229.597275 220.0
229.618759 180.0
229.683609 240.0
229.725525 64.0
229.769241 96.0
229.776718 152.0
229.799438 284.0
229.849411 156.0
229.883972 132.0
229.895615 120.0
229.960449 692.0
229.997635 144.0
230.024536 180.0
230.044785 236.0
230.069153 248.0
230.095444 248.0
230.131378 328.0
230.18602 232.0
230.274643 328.0
230.311203 116.0
230.323441 160.0
230.348129 364.0
230.380951 208.0
230.425293 112.0
230.435654 56.0
230.446304 148.0
230.466553 164.0
230.492279 136.0
230.538574 108.0
230.547226 304.0
230.577103 80.0
230.589508 128.0
230.595734 140.0
230.624985 100.0
230.64827 116.0
230.676407 156.0
230.709763 136.0
230.755478 144.0
230.781296 204.0
230.804291 200.0
230.827072 132.0
230.86763 316.0
230.918167 216.0
230.962296 212.0
231.000916 464.0
231.005844 180.0
231.046448 144.0
231.077362 208.0
231.098007 72.0
231.109863 256.0
231.161499 444.0
231.201233 88.0
231.23053 168.0
231.267624 288.0
231.316483 76.0
231.352234 68.0
231.40387 184.0
231.447525 332.0
231.485153 368.0
231.51207 276.0
231.524139 92.0
231.536545 188.0
231.577286 192.0
231.599686 208.0
231.620316 468.0
231.684082 120.0
231.728058 160.0
231.739212 156.0
231.808823 88.0
231.834732 116.0
231.858627 296.0
231.898376 324.0
231.926727 68.0
231.933502 100.0
231.961441 268.0
231.996582 252.0
232.014862 148.0
232.049469 240.0
232.054031 120.0
232.10144 248.0
232.134247 156.0
232.20137 116.0
232.231537 164.0
232.290543 208.0
232.312195 112.0
232.341827 288.0
232.374939 80.0
232.384033 184.0
232.422546 340.0
232.441055 264.0
232.450333 216.0
232.510239 152.0
232.574371 212.0
232.598587 144.0
232.634491 164.0
232.667328 164.0
232.719864 480.0
232.766037 128.0
232.797699 252.0
232.852448 124.0
232.905273 52.0
232.955154 260.0
233.024567 240.0
233.057236 528.0
233.102188 396.0
233.146835 172.0
233.198074 304.0
233.239182 136.0
233.251083 80.0
233.262985 184.0
233.284576 108.0
233.324493 120.0
233.371506 216.0
233.381287 184.0
233.43338 156.0
233.470947 116.0
233.527542 148.0
233.553314 196.0
233.573837 236.0
233.62767 136.0
233.665131 320.0
233.708893 224.0
233.796036 240.0
233.846802 208.0
233.875107 88.0
233.901749 188.0
233.923126 104.0
233.985107 348.0
234.021271 128.0
234.064911 1304.0
234.162918 172.0
234.187668 268.0
234.226425 68.0
234.249023 172.0
234.257492 232.0
234.291626 308.0
234.33107 160.0
234.343491 108.0
234.388519 116.0
234.401733 84.0
234.411606 92.0
234.435654 284.0
234.443375 244.0
234.497711 136.0
234.546173 228.0
234.571396 304.0
234.59491 312.0
234.619003 132.0
234.663757 144.0
234.750076 300.0
234.792953 220.0
234.819366 136.0
234.828979 208.0
234.87027 276.0
234.89328 132.0
234.918732 496.0
234.986786 360.0
235.03923 124.0
235.067245 320.0
235.105087 240.0
235.171951 164.0
235.235565 464.0
235.28006 68.0
235.317017 280.0
235.357895 260.0
235.382431 124.0
235.42189 252.0
235.496216 132.0
235.547562 164.0
235.580856 400.0
235.620224 260.0
235.643143 136.0
235.682266 176.0
235.710373 192.0
235.752823 44.0
235.788635 280.0
235.829559 200.0
235.854263 372.0
235.917313 268.0
235.986237 64.0
236.00444 168.0
236.06311 492.0
236.082428 180.0
236.159012 116.0
236.187317 164.0
236.22049 108.0
236.286758 248.0
236.339493 200.0
236.366165 184.0
236.406006 92.0
236.430359 156.0
236.462677 272.0
236.518692 172.0
236.550781 128.0
236.570831 112.0
236.615616 224.0
236.63472 144.0
236.69133 252.0
236.732147 160.0
236.809769 260.0
236.853638 280.0
236.880066 132.0
236.923752 268.0
236.985184 108.0
237.021805 472.0
237.04744 72.0
237.057343 96.0
237.1008 308.0
237.104843 208.0
237.177505 136.0
237.230499 404.0
237.261963 172.0
237.27356 136.0
237.307922 200.0
237.340179 140.0
237.364578 132.0
237.385681 220.0
237.424957 148.0
237.444214 188.0
237.480286 268.0
237.528229 252.0
237.566452 272.0
237.588623 112.0
237.624878 56.0
237.65686 116.0
237.666245 172.0
237.709503 212.0
237.759476 200.0
237.7939 120.0
237.816284 204.0
237.871094 412.0
237.910278 232.0
237.966019 108.0
238.029114 1104.0
238.079102 304.0
238.104126 200.0
238.146606 456.0
238.182144 140.0
238.202988 336.0
238.22673 256.0
238.258423 156.0
238.287369 108.0
238.311432 104.0
238.332214 128.0
238.36441 84.0
238.402313 132.0
238.468613 312.0
238.501541 56.0
238.558136 132.0
238.617355 96.0
238.674347 236.0
238.718887 288.0
238.773483 200.0
238.781845 156.0
238.800797 588.0
238.840912 164.0
238.898117 64.0
238.929657 108.0
238.966492 180.0
239.035965 14072.0
239.110977 216.0
239.137207 56.0
239.156693 124.0
239.190796 116.0
239.244278 124.0
239.250916 72.0
239.28833 328.0
239.333786 164.0
239.34697 212.0
239.385025 432.0
239.437805 124.0
239.491623 276.0
239.540054 200.0
239.568588 128.0
239.605087 112.0
239.638046 164.0
239.683899 112.0
239.719437 120.0
239.760086 156.0
239.802979 264.0
239.863525 136.0
239.896149 132.0
239.932037 252.0
240.042252 7348.0
240.111908 140.0
240.159882 252.0
240.170105 160.0
240.232742 140.0
240.266205 260.0
240.303009 156.0
240.365479 136.0
240.409286 284.0
240.451584 140.0
240.483292 212.0
240.530411 104.0
240.568527 180.0
240.59166 164.0
240.628708 64.0
240.662888 208.0
240.693405 136.0
240.719879 104.0
240.753281 152.0
240.793167 168.0
240.827515 356.0
240.847519 316.0
240.914276 196.0
240.942902 120.0
240.968246 72.0
241.034119 4016.0
241.10498 104.0
241.13649 416.0
241.165604 348.0
241.200714 380.0
241.234833 148.0
241.267822 308.0
241.301788 252.0
241.325272 116.0
241.37825 100.0
241.396744 264.0
241.417709 212.0
241.441391 108.0
241.491394 72.0
241.518387 224.0
241.567932 128.0
241.608582 116.0
241.635727 80.0
241.678543 64.0
241.725021 236.0
241.749008 420.0
241.782135 92.0
241.790009 184.0
241.827866 156.0
241.85376 136.0
241.886063 216.0
241.927811 176.0
241.952179 236.0
242.039917 1660.0
242.115051 148.0
242.156143 92.0
242.184021 156.0
242.228882 80.0
242.263763 104.0
242.288605 336.0
242.33728 164.0
242.388107 148.0
242.40152 100.0
242.405701 244.0
242.428802 124.0
242.464523 128.0
242.531754 172.0
242.563309 200.0
242.602768 108.0
242.641846 268.0
242.673828 104.0
242.700241 152.0
242.711533 56.0
242.734955 240.0
242.778427 184.0
242.82959 176.0
242.879227 360.0
242.928284 252.0
242.962463 204.0
242.989761 164.0
243.036819 128.0
243.072098 128.0
243.135651 92.0
243.144608 204.0
243.159409 120.0
243.180939 188.0
243.217346 368.0
243.2547 128.0
243.291122 136.0
243.357147 112.0
243.407333 148.0
243.444901 196.0
243.45993 164.0
243.502579 168.0
243.550049 188.0
243.559631 104.0
243.56955 112.0
243.611694 100.0
243.671143 308.0
243.707199 132.0
243.713058 144.0
243.763916 84.0
243.79007 208.0
243.853333 288.0
243.882874 176.0
243.911591 168.0
243.967133 360.0
243.985794 212.0
244.013733 292.0
244.028885 144.0
244.06813 280.0
244.080353 156.0
244.111191 296.0
244.148041 284.0
244.214767 360.0
244.237686 172.0
244.283432 160.0
244.316071 344.0
244.356354 188.0
244.378189 188.0
244.407257 208.0
244.430832 116.0
244.458511 172.0
244.507629 168.0
244.567078 124.0
244.611298 236.0
244.657608 156.0
244.686508 164.0
244.719711 164.0
244.743423 132.0
244.776611 64.0
244.798325 184.0
244.840363 140.0
244.870468 144.0
244.915207 68.0
244.941544 132.0
244.976501 112.0
245.005554 92.0
245.012833 188.0
245.051086 292.0
245.092072 156.0
245.101974 84.0
245.112961 144.0
245.173813 104.0
245.180695 108.0
245.248337 184.0
245.260452 120.0
245.271454 112.0
245.297409 104.0
245.34584 160.0
245.407608 108.0
245.431747 188.0
245.468491 304.0
245.498032 144.0
245.521881 204.0
245.569229 152.0
245.626175 240.0
245.697525 212.0
245.727997 72.0
245.737213 124.0
245.765503 160.0
245.8078 480.0
245.851471 192.0
245.885529 136.0
245.914551 256.0
245.966415 328.0
245.992233 184.0
246.063232 832.0
246.11908 224.0
246.140884 132.0
246.187546 256.0
246.220016 256.0
246.270889 244.0
246.305466 80.0
246.34671 216.0
246.374039 200.0
246.382248 116.0
246.398224 340.0
246.418045 172.0
246.434387 112.0
246.445389 156.0
246.455734 128.0
246.509598 232.0
246.555054 172.0
246.581497 200.0
246.605743 132.0
246.646439 272.0
246.683044 212.0
246.732895 204.0
246.755707 208.0
246.766357 68.0
246.776352 160.0
246.813187 128.0
246.856644 108.0
246.9077 96.0
246.913498 156.0
246.959824 128.0
246.991043 272.0
247.03717 148.0
247.075821 1836.0
247.122665 168.0
247.151489 156.0
247.208176 208.0
247.257263 224.0
247.274765 120.0
247.286209 304.0
247.330276 248.0
247.359238 300.0
247.398132 176.0
247.42688 128.0
247.467331 132.0
247.538528 252.0
247.575241 124.0
247.612595 168.0
247.645157 164.0
247.686661 112.0
247.738037 380.0
247.816544 232.0
247.851028 84.0
247.89769 152.0
247.962753 44.0
247.996567 456.0
248.082565 5724.0
248.173859 160.0
248.192093 236.0
248.220291 148.0
248.241852 240.0
248.261932 116.0
248.286713 152.0
248.317932 136.0
248.351791 172.0
248.36377 144.0
248.393997 40.0
248.428314 220.0
248.457611 184.0
248.506714 168.0
248.56665 276.0
248.597534 140.0
248.632568 120.0
248.651001 208.0
248.687653 264.0
248.743347 228.0
248.780579 160.0
248.838562 140.0
248.873428 176.0
248.936142 272.0
248.990372 256.0
249.011536 132.0
249.080185 1848.0
249.15329 324.0
249.173203 252.0
249.196259 232.0
249.257065 188.0
249.269669 216.0
249.275986 140.0
249.292648 312.0
249.323166 216.0
249.372955 208.0
249.414566 268.0
249.466354 136.0
249.492966 104.0
249.502167 88.0
249.523087 196.0
249.56749 200.0
249.600342 224.0
249.643219 336.0
249.660843 92.0
249.684525 124.0
249.690475 152.0
249.714355 332.0
249.788712 208.0
249.82666 208.0
249.830933 120.0
249.866409 224.0
249.890991 104.0
249.914062 348.0
249.957458 296.0
249.99762 248.0
250.045059 292.0
250.080444 996.0
250.137024 116.0
250.174835 88.0
250.183304 100.0
250.195969 252.0
250.242142 276.0
250.27623 236.0
250.322235 188.0
250.359634 412.0
250.382004 232.0
250.417236 112.0
250.422531 192.0
250.437332 80.0
250.460373 304.0
250.485321 240.0
250.535492 128.0
250.574326 172.0
250.617889 212.0
250.639343 220.0
250.64975 224.0
250.684021 208.0
250.720367 56.0
250.728226 144.0
250.752441 96.0
250.816452 348.0
250.89711 160.0
250.911026 348.0
250.931778 148.0
250.946915 124.0
250.951721 304.0
250.996567 124.0
251.030426 296.0
251.080505 220.0
251.118912 144.0
251.144302 76.0
251.179184 80.0
251.228058 156.0
251.249878 180.0
251.298111 68.0
251.334427 220.0
251.387634 204.0
251.424973 120.0
251.463699 128.0
251.473053 164.0
251.485031 136.0
251.505234 80.0
251.51825 244.0
251.576477 184.0
251.640045 144.0
251.701691 100.0
251.728455 120.0
251.736221 116.0
251.769379 264.0
251.796066 156.0
251.837555 96.0
251.918579 228.0
251.971649 128.0
251.993271 416.0
252.022095 204.0
252.063385 112.0
252.089325 204.0
252.146606 204.0
252.168076 68.0
252.178314 144.0
252.189148 172.0
252.220673 128.0
252.269119 140.0
252.310486 252.0
252.33165 156.0
252.400391 140.0
252.456772 144.0
252.49971 192.0
252.530151 260.0
252.561844 180.0
252.597366 376.0
252.663315 284.0
252.692719 72.0
252.72142 104.0
252.731766 180.0
252.744965 128.0
252.766907 196.0
252.817642 184.0
252.858612 172.0
252.904419 192.0
252.945648 240.0
252.970291 120.0
253.032043 240.0
253.062134 116.0
253.086639 132.0
253.127853 144.0
253.172272 124.0
253.225433 160.0
253.271805 140.0
253.30249 76.0
253.344925 232.0
253.371094 164.0
253.40387 116.0
253.449005 208.0
253.498505 228.0
253.539932 104.0
253.602478 216.0
253.64389 352.0
253.670166 240.0
253.709991 164.0
253.730011 240.0
253.767334 128.0
253.79689 344.0
253.847626 128.0
253.888 104.0
253.933258 52.0
253.971405 192.0
254.020752 132.0
254.067078 236.0
254.130341 128.0
254.163651 264.0
254.23259 104.0
254.275177 296.0
254.31514 112.0
254.357529 220.0
254.374313 288.0
254.416672 280.0
254.478195 272.0
254.508499 148.0
254.533615 320.0
254.581604 368.0
254.613617 292.0
254.643585 80.0
254.671982 108.0
254.718735 148.0
254.75206 188.0
254.792984 356.0
254.835266 144.0
254.885513 136.0
254.963699 272.0
255.004471 104.0
255.031952 124.0
255.077103 204.0
255.102219 88.0
255.17012 188.0
255.214722 156.0
255.228485 200.0
255.265533 104.0
255.294037 120.0
255.335907 108.0
255.376709 56.0
255.414917 136.0
255.456802 44.0
255.463501 228.0
255.516602 60.0
255.530334 168.0
255.582031 188.0
255.604309 68.0
255.626587 168.0
255.651764 128.0
255.679337 104.0
255.692307 92.0
255.702194 164.0
255.731796 92.0
255.755829 228.0
255.760818 204.0
255.869781 264.0
255.908157 360.0
255.937454 176.0
255.97348 148.0
256.003571 232.0
256.041748 188.0
256.085815 160.0
256.12854 176.0
256.170044 228.0
256.21936 116.0
256.299683 136.0
256.347992 252.0
256.393036 244.0
256.444275 64.0
256.449066 208.0
256.475952 372.0
256.521179 268.0
256.55191 216.0
256.558441 244.0
256.570953 132.0
256.616364 216.0
256.627441 116.0
256.673492 264.0
256.715881 72.0
256.723206 136.0
256.740387 108.0
256.773773 88.0
256.841034 264.0
256.86377 220.0
256.900909 348.0
256.906372 72.0
256.956757 852.0
256.997467 204.0
257.048431 288.0
257.080292 160.0
257.089752 60.0
257.101135 200.0
257.140259 92.0
257.148224 168.0
257.175262 160.0
257.203186 148.0
257.242615 256.0
257.26886 164.0
257.307068 184.0
257.359924 244.0
257.370941 140.0
257.381104 100.0
257.429504 184.0
257.461182 140.0
257.489227 208.0
257.508636 124.0
257.555206 196.0
257.604279 240.0
257.631683 28.0
257.687378 276.0
257.724823 252.0
257.748871 140.0
257.80246 200.0
257.89032 116.0
257.98468 128.0
258.014923 416.0
258.05426 144.0
258.08374 256.0
258.096527 200.0
258.119965 168.0
258.158447 224.0
258.196838 228.0
258.23764 124.0
258.267822 204.0
258.305511 224.0
258.34845 76.0
258.368988 240.0
258.409302 100.0
258.456726 112.0
258.501099 140.0
258.535126 128.0
258.565613 208.0
258.593445 308.0
258.652954 188.0
258.725891 48.0
258.74588 208.0
258.784943 244.0
258.84903 324.0
258.902344 260.0
258.949097 716.0
258.98584 248.0
259.032471 196.0
259.075653 128.0
259.119415 228.0
259.189514 204.0
259.238617 500.0
259.29776 60.0
259.32489 124.0
259.366974 120.0
259.387115 88.0
259.430115 176.0
259.458771 68.0
259.498444 232.0
259.549469 84.0
259.590546 152.0
259.608215 184.0
259.631958 260.0
259.663116 140.0
259.668854 204.0
259.692657 132.0
259.737549 404.0
259.774323 100.0
259.822296 212.0
259.847778 164.0
259.882904 92.0
259.931549 132.0
259.95755 316.0
259.986298 156.0
260.022095 172.0
260.064392 308.0
260.085754 156.0
260.132233 168.0
260.199097 276.0
260.251923 136.0
260.276886 124.0
260.3237 376.0
260.347198 140.0
260.379059 144.0
260.421112 216.0
260.458527 152.0
260.551514 152.0
260.598694 288.0
260.668396 368.0
260.691772 80.0
260.731781 92.0
260.738129 160.0
260.770905 124.0
260.830566 260.0
260.858826 204.0
260.870453 220.0
260.897827 144.0
260.931549 264.0
260.952393 416.0
260.978394 164.0
261.027313 160.0
261.098236 196.0
261.134674 208.0
261.170563 152.0
261.206848 80.0
261.238281 316.0
261.269623 224.0
261.325073 164.0
261.369751 144.0
261.400482 72.0
261.432404 40.0
261.442902 96.0
261.473602 140.0
261.503143 176.0
261.544403 360.0
261.570587 216.0
261.603973 268.0
261.637512 104.0
261.71936 168.0
261.764954 152.0
261.814117 276.0
261.84552 448.0
261.898743 188.0
261.959747 172.0
262.00528 304.0
262.038086 196.0
262.073395 220.0
262.12616 124.0
262.170593 152.0
262.199646 168.0
262.233185 152.0
262.263977 104.0
262.287689 100.0
262.296814 152.0
262.309235 112.0
262.345398 160.0
262.406494 140.0
262.44574 176.0
262.478851 160.0
262.517334 148.0
262.530304 208.0
262.557495 228.0
262.588379 204.0
262.617249 180.0
262.657349 112.0
262.709106 84.0
262.731903 108.0
262.759918 176.0
262.814819 256.0
262.838043 120.0
262.862305 336.0
262.892609 168.0
262.927795 112.0
262.96521 204.0
262.991638 148.0
263.028351 244.0
263.083221 236.0
263.16214 368.0
263.195312 100.0
263.242523 196.0
263.287598 220.0
263.324036 236.0
263.333099 168.0
263.384491 176.0
263.416656 164.0
263.439423 160.0
263.488068 108.0
263.56131 160.0
263.588348 172.0
263.59494 116.0
263.611542 112.0
263.644836 156.0
263.688385 192.0
263.696564 224.0
263.708435 188.0
263.748566 184.0
263.781586 352.0
263.830261 112.0
263.861572 228.0
263.956329 340.0
263.994385 272.0
264.00351 160.0
264.041321 104.0
264.107849 120.0
264.121429 108.0
264.148315 284.0
264.178406 144.0
264.20874 84.0
264.215302 224.0
264.254333 196.0
264.290741 244.0
264.323151 316.0
264.333588 232.0
264.393188 168.0
264.407654 252.0
264.415314 60.0
264.453247 104.0
264.509247 164.0
264.543976 416.0
264.577515 204.0
264.616119 428.0
264.647949 184.0
264.689514 120.0
264.716187 268.0
264.740143 136.0
264.774994 296.0
264.804016 236.0
264.829559 328.0
264.865143 136.0
264.915924 116.0
264.955994 244.0
264.991486 148.0
265.01593 160.0
265.035889 196.0
265.064514 52.0
265.086517 272.0
265.115479 160.0
265.151886 108.0
265.177399 84.0
265.209229 240.0
265.235199 216.0
265.254181 92.0
265.261993 144.0
265.282623 124.0
265.317291 160.0
265.358398 148.0
265.418823 156.0
265.42981 52.0
265.46344 156.0
265.479431 260.0
265.491364 208.0
265.500397 136.0
265.546356 108.0
265.574738 256.0
265.628296 152.0
265.660828 80.0
265.685455 264.0
265.719635 140.0
265.752411 56.0
265.795868 64.0
265.823029 172.0
265.855042 148.0
265.897705 148.0
265.933289 272.0
265.980652 400.0
266.022888 508.0
266.080383 136.0
266.122375 168.0
266.176483 72.0
266.228607 164.0
266.266052 80.0
266.289368 216.0
266.320404 76.0
266.370605 212.0
266.394501 128.0
266.408997 184.0
266.420654 80.0
266.459229 132.0
266.494843 104.0
266.520172 172.0
266.550537 144.0
266.580627 288.0
266.608917 144.0
266.613739 128.0
266.658478 240.0
266.687469 48.0
266.700378 244.0
266.744629 128.0
266.784912 256.0
266.819153 272.0
266.843201 44.0
266.885223 220.0
266.95105 140.0
266.990265 172.0
267.029388 1616.0
267.085419 192.0
267.16037 176.0
267.227295 184.0
267.283844 264.0
267.324158 104.0
267.334656 140.0
267.370453 108.0
267.393768 296.0
267.425293 76.0
267.438751 204.0
267.44632 164.0
267.506714 116.0
267.536346 308.0
267.540558 156.0
267.582855 180.0
267.614349 188.0
267.63504 204.0
267.666443 232.0
267.701599 260.0
267.74115 220.0
267.775635 152.0
267.822723 84.0
267.901367 244.0
267.931915 348.0
267.975677 200.0
268.025299 372.0
268.062164 224.0
268.110565 280.0
268.165955 252.0
268.196533 116.0
268.225372 136.0
268.269196 96.0
268.29245 508.0
268.323425 260.0
268.354309 128.0
268.388153 60.0
268.411407 96.0
268.435608 372.0
268.492065 356.0
268.552277 388.0
268.591125 156.0
268.665131 156.0
268.71051 140.0
268.733429 108.0
268.756683 124.0
268.798767 576.0
268.82489 256.0
268.84729 260.0
268.872894 144.0
268.899719 240.0
268.939819 156.0
268.948608 276.0
268.960052 156.0
269.028015 780.0
269.06073 164.0
269.100922 372.0
269.126434 144.0
269.153015 144.0
269.193329 256.0
269.226593 204.0
269.239655 132.0
269.264221 152.0
269.29718 284.0
269.329834 72.0
269.371185 232.0
269.393799 308.0
269.432465 112.0
269.446228 112.0
269.46933 296.0
269.476227 100.0
269.487488 148.0
269.528656 288.0
269.582855 172.0
269.627777 140.0
269.658142 84.0
269.70108 336.0
269.740112 168.0
269.798523 456.0
269.846649 192.0
269.895691 208.0
269.929352 136.0
269.954071 208.0
269.959259 164.0
270.018707 628.0
270.068848 296.0
270.110809 256.0
270.131592 128.0
270.144897 76.0
270.186493 136.0
270.232758 128.0
270.288452 76.0
270.322906 128.0
270.334778 248.0
270.382782 212.0
270.38681 148.0
270.43924 252.0
270.491974 124.0
270.525726 104.0
270.563232 104.0
270.598145 72.0
270.665497 152.0
270.705658 280.0
270.747192 96.0
270.77005 348.0
270.839722 420.0
270.881927 500.0
270.905914 388.0
270.953369 300.0
270.990265 224.0
271.014771 504.0
271.042267 328.0
271.112244 148.0
271.15155 56.0
271.17215 112.0
271.183105 104.0
271.196411 96.0
271.227112 228.0
271.286438 256.0
271.334351 176.0
271.361572 124.0
271.379913 88.0
271.423767 124.0
271.485291 120.0
271.540741 340.0
271.570496 196.0
271.600922 272.0
271.636505 148.0
271.665985 120.0
271.710999 156.0
271.730377 140.0
271.763733 184.0
271.814026 284.0
271.827667 304.0
271.883453 144.0
271.924255 352.0
271.958771 284.0
272.022095 232.0
272.046509 224.0
272.107147 184.0
272.14505 140.0
272.175232 132.0
272.239746 248.0
272.279938 348.0
272.300049 68.0
272.327972 240.0
272.385834 132.0
272.437439 168.0
272.482849 48.0
272.496094 72.0
272.51416 152.0
272.54718 120.0
272.572388 120.0
272.630768 168.0
272.657806 284.0
272.706329 76.0
272.743469 100.0
272.772949 340.0
272.796356 192.0
272.820923 272.0
272.855957 264.0
272.884186 256.0
272.922668 140.0
272.945984 316.0
272.997162 41980.0
273.080048 132.0
273.120972 288.0
273.156677 136.0
273.221436 244.0
273.263763 124.0
273.283997 280.0
273.319214 124.0
273.341003 272.0
273.364197 160.0
273.406799 124.0
273.454254 204.0
273.495148 240.0
273.508728 40.0
273.5177 176.0
273.539185 168.0
273.579926 188.0
273.631439 236.0
273.636505 200.0
273.707947 228.0
273.744965 196.0
273.785797 248.0
273.833405 176.0
273.837341 232.0
273.891418 204.0
273.910797 200.0
274.005493 100076.0
274.085968 160.0
274.139069 212.0
274.184601 364.0
274.210388 236.0
274.274597 264.0
274.299683 184.0
274.323273 284.0
274.349701 220.0
274.378693 460.0
274.42511 152.0
274.459503 344.0
274.4823 140.0
274.511597 276.0
274.548553 504.0
274.595093 212.0
274.622559 196.0
274.679626 192.0
274.698334 292.0
274.729767 232.0
274.740875 284.0
274.792145 320.0
274.862427 304.0
274.905548 284.0
275.01001 65052.0
275.080322 300.0
275.119263 248.0
275.146881 240.0
275.195038 144.0
275.216583 112.0
275.237335 280.0
275.278534 248.0
275.305725 180.0
275.325562 132.0
275.349396 264.0
275.392517 536.0
275.422302 336.0
275.448944 320.0
275.479004 192.0
275.500305 184.0
275.561401 160.0
275.588501 92.0
275.624023 288.0
275.646484 328.0
275.694122 200.0
275.726868 368.0
275.804321 416.0
275.848267 216.0
275.876678 268.0
275.942596 324.0
275.952515 352.0
276.003479 49112.0
276.106018 560.0
276.168762 216.0
276.202179 156.0
276.232361 264.0
276.250885 224.0
276.285828 152.0
276.294708 180.0
276.320557 160.0
276.350067 272.0
276.394379 232.0
276.441193 188.0
276.500092 84.0
276.523163 276.0
276.581116 240.0
276.630402 152.0
276.668671 224.0
276.70166 216.0
276.739288 312.0
276.770081 176.0
276.796082 204.0
276.848755 364.0
276.89679 392.0
276.933136 360.0
277.009125 27024.0
277.120331 1416.0
277.196472 220.0
277.237244 60.0
277.245117 164.0
277.268982 172.0
277.320038 288.0
277.352417 172.0
277.361786 64.0
277.400177 228.0
277.433624 212.0
277.469574 248.0
277.506439 332.0
277.537537 148.0
277.566345 224.0
277.625793 264.0
277.677948 372.0
277.706512 132.0
277.718048 180.0
277.771942 304.0
277.798492 104.0
277.821655 192.0
277.84848 200.0
277.898163 264.0
278.008057 4376.0
278.093048 208.0
278.123108 304.0
278.163635 212.0
278.200806 152.0
278.231262 268.0
278.260223 68.0
278.274445 116.0
278.303131 64.0
278.315887 116.0
278.37674 160.0
278.418793 172.0
278.458038 316.0
278.480591 64.0
278.565186 252.0
278.60788 148.0
278.622742 68.0
278.630554 128.0
278.655121 132.0
278.694885 544.0
278.715576 108.0
278.720856 420.0
278.74649 224.0
278.805847 88.0
278.845123 216.0
278.894775 240.0
278.916687 116.0
278.943695 216.0
279.006012 872.0
279.058105 224.0
279.11911 252.0
279.158936 152.0
279.190094 116.0
279.218445 152.0
279.256897 192.0
279.282959 140.0
279.298126 128.0
279.311279 156.0
279.319946 116.0
279.357574 116.0
279.424744 172.0
279.46344 196.0
279.500275 140.0
279.543457 188.0
279.566742 124.0
279.608002 120.0
279.660889 244.0
279.727295 176.0
279.749115 140.0
279.833252 220.0
279.862701 184.0
279.901245 88.0
279.994019 312.0
280.019806 228.0
280.031403 136.0
280.062469 228.0
280.098633 224.0
280.123444 232.0
280.14682 336.0
280.182587 228.0
280.219452 352.0
280.259735 140.0
280.296051 40.0
280.32486 128.0
280.378876 308.0
280.408813 156.0
280.480438 220.0
280.511719 272.0
280.533142 72.0
280.556152 76.0
280.589233 188.0
280.636414 120.0
280.68045 220.0
280.735382 172.0
280.772583 192.0
280.816895 404.0
280.893219 88.0
280.923767 208.0
280.969574 212.0
280.999329 192.0
281.041199 164.0
281.06369 172.0
281.072601 96.0
281.133087 136.0
281.176514 184.0
281.192566 260.0
281.242676 116.0
281.273041 132.0
281.315521 348.0
281.325806 148.0
281.339355 200.0
281.391785 192.0
281.398895 132.0
281.47406 104.0
281.509796 68.0
281.55307 208.0
281.590027 152.0
281.632477 200.0
281.700836 136.0
281.738007 96.0
281.767181 248.0
281.825562 288.0
281.856018 244.0
281.876587 228.0
281.903839 192.0
281.960388 432.0
282.016174 256.0
282.052124 248.0
282.059631 100.0
282.093079 148.0
282.108337 336.0
282.118774 244.0
282.168701 356.0
282.197998 80.0
282.211517 120.0
282.23587 264.0
282.307068 296.0
282.341278 160.0
282.367493 164.0
282.439453 296.0
282.478058 152.0
282.506775 96.0
282.5289 172.0
282.604553 212.0
282.63855 128.0
282.65567 108.0
282.666199 212.0
282.678467 120.0
282.707367 128.0
282.740234 324.0
282.769897 148.0
282.77771 120.0
282.830994 112.0
282.854523 188.0
282.906738 348.0
282.95755 5872.0
283.012939 128.0
283.05835 148.0
283.101776 132.0
283.137848 88.0
283.170319 136.0
283.199646 196.0
283.233215 144.0
283.273895 228.0
283.32309 84.0
283.378113 208.0
283.412476 140.0
283.448181 60.0
283.469574 136.0
283.498901 140.0
283.508698 64.0
283.522156 144.0
283.554291 128.0
283.582855 296.0
283.632507 456.0
283.658081 184.0
283.729797 196.0
283.745361 104.0
283.75415 152.0
283.783691 132.0
283.83017 184.0
283.868866 160.0
283.900848 112.0
283.959503 1232.0
283.998627 456.0
284.03418 324.0
284.073486 96.0
284.124359 64.0
284.161072 96.0
284.206329 140.0
284.258575 84.0
284.282654 156.0
284.319061 136.0
284.35199 268.0
284.361572 100.0
284.40979 92.0
284.436768 192.0
284.46051 196.0
284.491425 332.0
284.543518 216.0
284.578705 192.0
284.625061 284.0
284.641876 184.0
284.647034 196.0
284.678894 224.0
284.710938 184.0
284.735809 152.0
284.765503 168.0
284.834381 252.0
284.954742 5736.0
285.006287 276.0
285.076569 108.0
285.120209 256.0
285.154144 60.0
285.179077 212.0
285.184326 140.0
285.269135 336.0
285.29776 192.0
285.337006 248.0
285.398712 188.0
285.430511 172.0
285.443878 100.0
285.456207 152.0
285.503723 260.0
285.542358 108.0
285.588104 212.0
285.602783 116.0
285.643921 120.0
285.660004 124.0
285.673584 216.0
285.717041 216.0
285.751587 148.0
285.789978 232.0
285.821869 116.0
285.835144 96.0
285.877594 96.0
285.905792 316.0
285.958923 524.0
286.043823 340.0
286.074432 116.0
286.129272 88.0
286.16745 124.0
286.215027 168.0
286.246399 216.0
286.28302 288.0
286.332062 172.0
286.356812 148.0
286.397308 64.0
286.450592 212.0
286.500397 164.0
286.5242 160.0
286.564697 220.0
286.605743 76.0
286.655273 136.0
286.681793 224.0
286.713043 176.0
286.753662 188.0
286.780273 60.0
286.793762 104.0
286.834229 144.0
286.860168 232.0
286.893463 276.0
286.955292 860.0
287.013275 316.0
287.039978 128.0
287.063812 188.0
287.105286 212.0
287.131989 180.0
287.168884 112.0
287.23175 192.0
287.279236 124.0
287.335938 132.0
287.3461 108.0
287.374817 104.0
287.382599 300.0
287.423248 144.0
287.45636 272.0
287.490601 284.0
287.538116 112.0
287.581451 132.0
287.665192 212.0
287.703979 156.0
287.741913 112.0
287.805511 236.0
287.834839 124.0
287.861176 152.0
287.889191 80.0
287.937531 116.0
287.964325 336.0
287.988556 204.0
288.018555 116.0
288.060577 360.0
288.071442 388.0
288.099609 132.0
288.12912 144.0
288.174774 168.0
288.225342 152.0
288.294037 244.0
288.301056 144.0
288.333282 112.0
288.360626 300.0
288.394684 132.0
288.417877 196.0
288.462372 156.0
288.491516 184.0
288.544312 128.0
288.594086 124.0
288.605347 132.0
288.687042 228.0
288.740356 120.0
288.781708 156.0
288.819733 76.0
288.832947 108.0
288.864441 52.0
288.934753 300.0
289.009491 308.0
289.01593 308.0
289.030762 568.0
289.116852 76.0
289.160889 364.0
289.185699 236.0
289.236084 248.0
289.29187 156.0
289.326843 184.0
289.356201 144.0
289.378937 200.0
289.402588 384.0
289.43042 48.0
289.48053 284.0
289.511749 84.0
289.567535 136.0
289.624298 144.0
289.674347 64.0
289.698822 88.0
289.737 304.0
289.765503 124.0
289.811584 380.0
289.839325 120.0
289.851379 148.0
289.893524 424.0
289.924805 128.0
289.983856 288.0
290.022003 164.0
290.046509 104.0
290.054688 148.0
290.079681 160.0
290.117188 104.0
290.1539 128.0
290.209869 176.0
290.250763 340.0
290.278473 108.0
290.293884 148.0
290.30069 92.0
290.379456 608.0
290.429016 228.0
290.454224 112.0
290.476868 88.0
290.509705 56.0
290.545013 52.0
290.568695 152.0
290.581635 136.0
290.60672 84.0
290.64209 128.0
290.674835 144.0
290.712067 124.0
290.73642 228.0
290.770172 156.0
290.81546 136.0
290.855225 196.0
290.883484 236.0
290.91449 188.0
290.957703 456.0
291.003113 288.0
291.04187 252.0
291.048767 288.0
291.077301 84.0
291.119781 148.0
291.148621 252.0
291.195282 132.0
291.217438 108.0
291.241241 236.0
291.289551 148.0
291.33609 236.0
291.397491 244.0
291.430664 212.0
291.450226 300.0
291.482941 164.0
291.511932 188.0
291.556793 92.0
291.586487 316.0
291.65506 200.0
291.686523 164.0
291.752228 68.0
291.791107 156.0
291.863892 168.0
291.912018 180.0
291.940063 124.0
291.99588 292.0
292.058411 148.0
292.088837 304.0
292.153107 264.0
292.194244 168.0
292.240906 196.0
292.288025 200.0
292.335693 260.0
292.369324 216.0
292.401886 272.0
292.444519 120.0
292.468384 188.0
292.519684 184.0
292.57486 108.0
292.606903 220.0
292.631744 204.0
292.659576 48.0
292.696472 160.0
292.720856 100.0
292.729706 116.0
292.76474 184.0
292.785583 256.0
292.82486 108.0
292.875549 252.0
292.925079 208.0
293.009125 176.0
293.068604 144.0
293.126373 232.0
293.191315 284.0
293.230042 180.0
293.273438 160.0
293.330902 104.0
293.341248 56.0
293.388672 128.0
293.421844 144.0
293.439636 56.0
293.477783 160.0
293.542206 348.0
293.600494 140.0
293.631653 96.0
293.639618 128.0
293.697815 224.0
293.732422 284.0
293.74704 292.0
293.776611 196.0
293.823212 124.0
293.846375 208.0
293.90097 136.0
293.950073 132.0
293.968079 124.0
294.006989 252.0
294.032288 108.0
294.071228 48.0
294.097656 252.0
294.118164 164.0
294.180573 156.0
294.207306 60.0
294.252319 240.0
294.283691 180.0
294.3172 184.0
294.346039 80.0
294.389771 92.0
294.422363 152.0
294.469269 124.0
294.536377 280.0
294.613678 168.0
294.66507 136.0
294.694366 228.0
294.718811 200.0
294.761841 180.0
294.793396 264.0
294.836273 164.0
294.883789 216.0
294.909027 188.0
294.959229 160.0
295.00119 96.0
295.071869 176.0
295.084076 120.0
295.09845 412.0
295.121002 160.0
295.171265 116.0
295.221893 236.0
295.270447 152.0
295.308075 52.0
295.376251 104.0
295.445496 216.0
295.507355 116.0
295.52713 184.0
295.555176 248.0
295.582764 208.0
295.631653 316.0
295.67218 144.0
295.683533 108.0
295.692444 164.0
295.728455 228.0
295.763153 124.0
295.791809 84.0
295.829559 168.0
295.855835 320.0
295.895081 144.0
295.924042 192.0
295.964722 456.0
296.048676 228.0
296.091644 100.0
296.097046 132.0
296.132843 140.0
296.211029 184.0
296.260834 48.0
296.298523 104.0
296.343903 192.0
296.372681 160.0
296.423615 224.0
296.4487 248.0
296.487396 136.0
296.522278 184.0
296.560852 104.0
296.59552 64.0
296.644165 248.0
296.659241 156.0
296.684143 184.0
296.710541 64.0
296.762939 148.0
296.787964 180.0
296.847443 184.0
296.893158 236.0
296.965576 448.0
297.044739 132.0
297.071777 496.0
297.101776 216.0
297.107025 180.0
297.145172 96.0
297.18457 140.0
297.268158 204.0
297.330383 344.0
297.359894 52.0
297.42807 200.0
297.45166 116.0
297.467407 184.0
297.504669 140.0
297.545746 184.0
297.647766 232.0
297.700592 260.0
297.733124 180.0
297.768982 276.0
297.831543 128.0
297.927795 164.0
297.96701 360.0
298.028687 120.0
298.096863 220.0
298.12973 128.0
298.159485 188.0
298.198456 108.0
298.213745 152.0
298.27948 140.0
298.34201 252.0
298.418457 76.0
298.444672 136.0
298.471191 120.0
298.493164 164.0
298.502136 84.0
298.561859 120.0
298.589508 164.0
298.616211 180.0
298.665833 292.0
298.695953 228.0
298.728607 160.0
298.771576 132.0
298.840637 184.0
298.879852 196.0
298.905701 252.0
298.970673 248.0
299.051483 284.0
299.072998 240.0
299.124573 148.0
299.155396 144.0
299.194702 232.0
299.226929 160.0
299.250549 168.0
299.302734 272.0
299.335815 236.0
299.359039 128.0
299.368988 120.0
299.381317 184.0
299.42627 128.0
299.456055 124.0
299.482483 404.0
299.535492 216.0
299.571411 136.0
299.647461 172.0
299.736786 168.0
299.78006 308.0
299.82019 152.0
299.869049 208.0
299.883179 108.0
299.910248 300.0
299.944855 312.0
299.9776 356.0
300.020782 100.0
300.080353 148.0
300.140228 288.0
300.198059 312.0
300.229553 156.0
300.306824 112.0
300.341339 124.0
300.381714 208.0
300.413788 160.0
300.473541 260.0
300.483429 176.0
300.494446 180.0
300.531036 160.0
300.567871 128.0
300.619568 120.0
300.666016 328.0
300.691956 140.0
300.701111 116.0
300.728943 160.0
300.76059 224.0
300.793488 128.0
300.860291 124.0
300.896515 196.0
300.933655 276.0
300.992065 13112.0
301.066406 292.0
301.087524 400.0
301.144135 120.0
301.207794 164.0
301.247742 68.0
301.266296 160.0
301.32605 152.0
301.372345 104.0
301.413177 252.0
301.435852 332.0
301.472412 84.0
301.484192 164.0
301.533051 112.0
301.589325 108.0
301.621338 260.0
301.675598 216.0
301.724915 192.0
301.753632 260.0
301.811951 140.0
301.903351 168.0
301.930389 340.0
301.999695 27120.0
302.100983 196.0
302.14975 100.0
302.172852 136.0
302.218445 116.0
302.266144 172.0
302.291687 112.0
302.336731 76.0
302.37265 320.0
302.397644 396.0
302.443634 324.0
302.488068 60.0
302.564148 188.0
302.620941 360.0
302.710419 92.0
302.756226 216.0
302.806152 160.0
302.830902 128.0
302.875732 36.0
302.92395 312.0
302.99527 5560.0
303.056183 216.0
303.065918 176.0
303.122925 128.0
303.176819 220.0
303.2099 264.0
303.250183 128.0
303.288208 192.0
303.335938 236.0
303.365875 232.0
303.407135 144.0
303.416077 52.0
303.426849 164.0
303.464111 440.0
303.488617 276.0
303.549225 136.0
303.583679 176.0
303.625946 104.0
303.664612 208.0
303.704559 48.0
303.746368 132.0
303.783875 276.0
303.837158 224.0
303.84848 132.0
303.885498 184.0
303.891541 152.0
303.90451 304.0
303.949463 288.0
303.996002 12652.0
304.079041 108.0
304.123413 240.0
304.173004 72.0
304.210083 92.0
304.285614 148.0
304.348328 292.0
304.381592 116.0
304.427643 284.0
304.492981 280.0
304.52829 168.0
304.567871 156.0
304.620056 92.0
304.672974 224.0
304.742828 192.0
304.777863 92.0
304.810516 296.0
304.852295 148.0
304.873413 196.0
304.930511 180.0
305.000275 2144.0
305.041565 168.0
305.079071 244.0
305.091461 240.0
305.100159 276.0
305.118866 132.0
305.146393 108.0
305.181488 188.0
305.226044 240.0
305.234436 112.0
305.262207 212.0
305.324005 116.0
305.402985 128.0
305.443542 440.0
305.482025 164.0
305.524902 76.0
305.561462 144.0
305.616608 84.0
305.684204 272.0
305.751465 144.0
305.814636 124.0
305.848297 252.0
305.908997 160.0
305.941376 300.0
305.994476 1624.0
306.033936 212.0
306.055145 392.0
306.111115 112.0
306.141266 120.0
306.147888 48.0
306.155884 104.0
306.182617 136.0
306.215179 328.0
306.2453 204.0
306.272003 272.0
306.316833 312.0
306.342529 160.0
306.385254 112.0
306.434845 100.0
306.469055 160.0
306.495911 112.0
306.510071 156.0
306.52417 212.0
306.538116 100.0
306.548798 48.0
306.583252 228.0
306.627167 204.0
306.66806 116.0
306.703033 128.0
306.738281 200.0
306.77356 112.0
306.799164 156.0
306.830353 192.0
306.844574 84.0
306.853699 228.0
306.904266 112.0
306.928192 48.0
306.945038 184.0
306.960449 124.0
306.994446 216.0
307.040466 128.0
307.077576 284.0
307.131378 260.0
307.194092 180.0
307.223389 168.0
307.251465 264.0
307.277557 380.0
307.329681 248.0
307.36203 312.0
307.398956 276.0
307.453827 240.0
307.485962 112.0
307.509338 272.0
307.55127 96.0
307.56662 76.0
307.603119 272.0
307.619019 240.0
307.664307 320.0
307.698425 144.0
307.73291 328.0
307.757507 80.0
307.808685 128.0
307.849243 336.0
307.900452 416.0
307.985718 1328.0
308.063324 112.0
308.068542 252.0
308.096436 208.0
308.135223 260.0
308.204987 804.0
308.237488 352.0
308.274536 240.0
308.303101 224.0
308.335205 556.0
308.388885 608.0
308.420288 300.0
308.447052 352.0
308.488617 456.0
308.540863 376.0
308.587799 224.0
308.620972 340.0
308.665192 584.0
308.725311 348.0
308.763 428.0
308.829407 428.0
308.878601 864.0
308.975464 337700.0
309.071716 248.0
309.102142 284.0
309.143829 52.0
309.214844 508.0
309.258636 336.0
309.297516 692.0
309.347168 456.0
309.358673 280.0
309.37738 268.0
309.421936 340.0
309.456635 176.0
309.505737 396.0
309.553192 5932.0
309.593811 624.0
309.635437 300.0
309.643738 368.0
309.668488 452.0
309.695099 368.0
309.734619 612.0
309.748322 276.0
309.761292 392.0
309.79776 796.0
309.823273 732.0
309.876648 720.0
309.925476 900.0
309.982269 370800.0
310.120087 280.0
310.173553 208.0
310.185455 180.0
310.228821 324.0
310.241577 268.0
310.309265 628.0
310.362 576.0
310.442108 240.0
310.480377 260.0
310.50943 268.0
310.56073 1188.0
310.618164 644.0
310.627838 476.0
310.642303 564.0
310.68924 328.0
310.724335 424.0
310.754669 520.0
310.767883 384.0
310.781067 396.0
310.80127 384.0
310.809906 544.0
310.861603 1060.0
310.973785 315124.0
311.065399 240.0
311.112762 220.0
311.153076 304.0
311.230194 464.0
311.29483 492.0
311.346436 280.0
311.401611 560.0
311.443024 208.0
311.481964 416.0
311.512451 296.0
311.556549 2352.0
311.601685 544.0
311.624207 688.0
311.684387 320.0
311.71933 200.0
311.738556 620.0
311.784973 512.0
311.827179 460.0
311.846405 640.0
311.875885 612.0
311.903442 764.0
311.926544 624.0
311.979553 331888.0
312.09906 304.0
312.17746 616.0
312.213348 496.0
312.260895 660.0
312.302582 424.0
312.35202 384.0
312.374817 532.0
312.427124 144.0
312.444977 204.0
312.45108 228.0
312.494904 268.0
312.561432 824.0
312.622406 492.0
312.652527 408.0
312.697052 284.0
312.73053 276.0
312.765778 328.0
312.777771 296.0
312.789276 312.0
312.805756 392.0
312.832092 472.0
312.875519 480.0
312.975891 45104.0
313.087952 168.0
313.096558 236.0
313.108826 276.0
313.132904 232.0
313.172028 248.0
313.202332 356.0
313.232513 440.0
313.277527 280.0
313.324005 376.0
313.349823 208.0
313.385803 184.0
313.407654 420.0
313.469208 236.0
313.492859 296.0
313.522339 232.0
313.588501 240.0
313.612701 208.0
313.639618 228.0
313.667419 292.0
313.703125 172.0
313.769165 156.0
313.839508 252.0
313.861542 300.0
313.877502 296.0
313.888062 380.0
313.918243 264.0
313.976044 20068.0
314.071503 284.0
314.128967 208.0
314.175507 524.0
314.228973 408.0
314.255127 332.0
314.279938 176.0
314.295654 220.0
314.312836 252.0
314.324127 264.0
314.353882 404.0
314.383759 136.0
314.411957 484.0
314.461151 204.0
314.487335 260.0
314.530731 176.0
314.566925 204.0
314.577667 212.0
314.621399 204.0
314.653625 264.0
314.707184 88.0
314.732361 232.0
314.754822 160.0
314.789581 144.0
314.83374 24.0
314.869965 188.0
314.901794 232.0
314.980499 348.0
314.986267 392.0
315.044006 260.0
315.082642 168.0
315.118896 132.0
315.182068 220.0
315.191284 304.0
315.210205 308.0
315.221222 292.0
315.274017 304.0
315.286102 204.0
315.30484 180.0
315.319824 272.0
315.372772 168.0
315.410645 300.0
315.497437 100.0
315.574524 324.0
315.60379 64.0
315.654175 176.0
315.709259 124.0
315.78125 128.0
315.810608 172.0
315.899261 216.0
315.9776 184.0
316.028137 140.0
316.050415 172.0
316.06488 172.0
316.088715 144.0
316.127533 160.0
316.211609 212.0
316.283997 144.0
316.361877 192.0
316.404205 108.0
316.436768 220.0
316.450287 148.0
316.497131 100.0
316.532043 180.0
316.580811 100.0
316.625824 140.0
316.653381 92.0
316.701447 68.0
316.756927 164.0
316.815155 284.0
316.861328 76.0
316.913208 400.0
316.97818 136.0
317.009155 104.0
317.059906 156.0
317.113922 164.0
317.163147 28.0
317.187714 100.0
317.198822 36.0
317.237732 88.0
317.281219 184.0
317.402344 68.0
317.429871 72.0
317.50238 104.0
317.52652 108.0
317.574463 128.0
317.606689 300.0
317.645782 156.0
317.682312 136.0
317.726807 168.0
317.755127 148.0
317.789307 140.0
317.804626 108.0
317.838501 176.0
317.873505 132.0
317.900635 160.0
317.925323 164.0
317.959991 76.0
318.02652 208.0
318.057678 196.0
318.097992 252.0
318.128784 112.0
318.175568 164.0
318.224396 216.0
318.248596 212.0
318.357941 112.0
318.388184 176.0
318.421082 132.0
318.465363 96.0
318.4888 52.0
318.502747 84.0
318.543121 140.0
318.553436 56.0
318.569305 196.0
318.585815 116.0
318.591919 176.0
318.669678 112.0
318.693665 180.0
318.754974 192.0
318.798615 156.0
318.829834 152.0
318.864227 264.0
318.915497 176.0
318.95163 160.0
319.019714 140.0
319.051208 112.0
319.085541 124.0
319.128937 184.0
319.167999 76.0
319.223389 108.0
319.29538 156.0
319.330902 92.0
319.377472 152.0
319.454407 128.0
319.459625 68.0
319.473114 100.0
319.499725 116.0
319.507172 80.0
319.520172 64.0
319.592377 88.0
319.638275 100.0
319.71759 240.0
319.741028 56.0
319.772308 84.0
319.818451 172.0
319.854492 124.0
319.913818 180.0
319.966675 628.0
320.026367 128.0
320.10968 192.0
320.139374 196.0
320.166687 132.0
320.226013 136.0
320.266022 76.0
320.310547 200.0
320.370117 120.0
320.438019 240.0
320.459961 92.0
320.500854 88.0
320.54657 88.0
320.639862 228.0
320.689209 180.0
320.76355 160.0
320.804291 48.0
320.83786 124.0
320.893555 128.0
320.962402 248.0
321.039246 160.0
321.082672 116.0
321.157288 80.0
321.201599 76.0
321.267883 44.0
321.324188 220.0
321.352631 112.0
321.378326 96.0
321.417725 160.0
321.472687 100.0
321.510529 48.0
321.544678 120.0
321.57605 180.0
321.639008 100.0
321.672913 160.0
321.704102 240.0
321.7659 88.0
321.812469 116.0
321.835358 160.0
321.871063 204.0
321.90976 144.0
321.967834 680.0
322.00766 136.0
322.031769 124.0
322.06839 160.0
322.098053 180.0
322.110596 132.0
322.122864 188.0
322.167633 128.0
322.196106 68.0
322.224701 36.0
322.256836 84.0
322.286163 144.0
322.327423 148.0
322.443848 84.0
322.484314 128.0
322.512512 88.0
322.523682 48.0
322.555847 236.0
322.58194 120.0
322.610657 128.0
322.655273 100.0
322.736298 104.0
322.766937 68.0
322.835938 168.0
322.876495 208.0
322.929993 264.0
322.955139 220.0
322.989838 260.0
323.021576 320.0
323.072601 72.0
323.100616 140.0
323.12442 128.0
323.17868 44.0
323.218475 132.0
323.256866 84.0
323.298248 68.0
323.341187 224.0
323.377319 248.0
323.411407 208.0
323.440277 144.0
323.463928 164.0
323.507751 68.0
323.555145 52.0
323.603271 136.0
323.667694 224.0
323.730011 168.0
323.77356 80.0
323.846008 160.0
323.875793 260.0
323.992004 268.0
324.042236 128.0
324.078644 88.0
324.145599 156.0
324.152222 40.0
324.206757 240.0
324.241516 236.0
324.265259 204.0
324.302704 192.0
324.354004 316.0
324.386292 144.0
324.428619 132.0
324.458801 136.0
324.486908 168.0
324.537445 224.0
324.603363 276.0
324.640045 108.0
324.692108 212.0
324.727661 144.0
324.75708 108.0
324.780975 120.0
324.812225 164.0
324.879272 84.0
324.910858 276.0
324.993317 292.0
325.045654 100.0
325.091248 160.0
325.124634 136.0
325.172424 104.0
325.230591 80.0
325.272308 168.0
325.332733 188.0
325.394165 116.0
325.460205 168.0
325.521057 348.0
325.561615 56.0
325.594421 68.0
325.624207 76.0
325.731781 204.0
325.757111 144.0
325.783295 124.0
325.860504 248.0
325.90799 96.0
325.970673 120.0
325.999237 340.0
326.054657 148.0
326.083557 136.0
326.125153 76.0
326.157471 68.0
326.207031 148.0
326.24118 120.0
326.321747 212.0
326.368103 96.0
326.398987 124.0
326.460846 136.0
326.481628 104.0
326.526337 136.0
326.569794 148.0
326.597565 144.0
326.670715 164.0
326.713379 48.0
326.78891 116.0
326.843323 228.0
326.912689 132.0
326.957611 152.0
326.978973 108.0
327.040466 120.0
327.091217 32.0
327.14624 156.0
327.20166 128.0
327.247742 160.0
327.306427 52.0
327.3461 224.0
327.382874 40.0
327.42923 200.0
327.438538 156.0
327.514526 136.0
327.576172 308.0
327.632996 72.0
327.658661 132.0
327.726624 144.0
327.792389 100.0
327.833191 112.0
327.845795 104.0
327.912476 84.0
327.975311 156.0
327.982941 80.0
327.999512 296.0
328.07431 232.0
328.139587 56.0
328.186462 60.0
328.239746 168.0
328.291504 108.0
328.319885 80.0
328.362335 52.0
328.406555 124.0
328.462646 56.0
328.488586 176.0
328.515076 264.0
328.583069 120.0
328.616089 244.0
328.694641 116.0
328.738342 112.0
328.770844 88.0
328.809448 96.0
328.844269 128.0
328.907349 312.0
328.931793 128.0
328.995392 76.0
329.02713 28.0
329.054291 212.0
329.101654 100.0
329.161102 80.0
329.187744 116.0
329.242218 120.0
329.277802 104.0
329.347046 208.0
329.357941 80.0
329.373657 108.0
329.408203 124.0
329.454437 104.0
329.523163 128.0
329.563416 116.0
329.593445 368.0
329.625763 140.0
329.664978 184.0
329.716888 84.0
329.756805 96.0
329.815033 196.0
329.86554 96.0
329.894165 40.0
329.927795 208.0
329.98703 164.0
330.029968 128.0
330.121948 52.0
330.172455 100.0
330.206177 108.0
330.248535 332.0
330.315857 92.0
330.3302 96.0
330.344177 172.0
330.372375 120.0
330.404083 160.0
330.472443 96.0
330.529144 56.0
330.554962 92.0
330.595856 80.0
330.64212 144.0
330.678284 136.0
330.7034 112.0
330.736633 116.0
330.813049 132.0
330.842255 120.0
330.908447 112.0
330.943359 88.0
330.998901 72.0
331.02536 128.0
331.100098 116.0
331.160645 88.0
331.186005 112.0
331.195587 68.0
331.222229 156.0
331.276581 188.0
331.338196 212.0
331.371979 64.0
331.39975 228.0
331.445312 56.0
331.491638 176.0
331.526581 64.0
331.569763 196.0
331.576111 48.0
331.603973 136.0
331.681305 116.0
331.689453 120.0
331.709351 232.0
331.763428 208.0
331.843445 136.0
331.917419 88.0
331.954071 152.0
331.982147 132.0
332.025085 232.0
332.062347 88.0
332.072968 124.0
332.097626 104.0
332.164307 144.0
332.211884 80.0
332.240906 72.0
332.270294 312.0
332.354889 108.0
332.375549 132.0
332.436096 160.0
332.518463 164.0
332.585632 112.0
332.611053 140.0
332.65097 192.0
332.693481 128.0
332.723145 84.0
332.777863 100.0
332.817566 192.0
332.886993 140.0
332.96524 88.0
332.998413 216.0
333.05304 260.0
333.089142 424.0
333.11438 164.0
333.147064 192.0
333.203003 36.0
333.245331 92.0
333.293823 56.0
333.388092 136.0
333.398071 128.0
333.413757 224.0
333.446472 276.0
333.48819 152.0
333.542511 120.0
333.569153 164.0
333.642761 136.0
333.692047 72.0
333.718414 272.0
333.751831 88.0
333.795471 96.0
333.837616 156.0
333.905182 148.0
333.94281 276.0
334.024597 100.0
334.07312 200.0
334.117676 300.0
334.147217 68.0
334.198334 148.0
334.238037 96.0
334.262665 92.0
334.318939 164.0
334.330231 116.0
334.345306 292.0
334.390625 100.0
334.431366 112.0
334.466705 192.0
334.47818 140.0
334.515869 44.0
334.566833 116.0
334.634003 88.0
334.670319 84.0
334.708832 40.0
334.747589 152.0
334.767426 84.0
334.825348 52.0
334.87674 108.0
334.913879 184.0
334.975525 560.0
335.00882 76.0
335.079468 168.0
335.122864 180.0
335.167786 124.0
335.233368 60.0
335.292725 296.0
335.356476 152.0
335.437622 192.0
335.509735 240.0
335.544403 212.0
335.584656 88.0
335.629578 204.0
335.710754 116.0
335.780945 272.0
335.823883 244.0
335.884186 112.0
335.891235 120.0
335.961121 1364.0
336.073669 156.0
336.134399 48.0
336.184235 280.0
336.23114 260.0
336.274078 212.0
336.33194 296.0
336.404358 204.0
336.467743 292.0
336.518188 156.0
336.551636 168.0
336.559174 80.0
336.594971 328.0
336.640381 320.0
336.663971 260.0
336.705872 160.0
336.763824 336.0
336.82193 772.0
336.970215 310776.0
337.072327 292.0
337.110809 316.0
337.203522 196.0
337.227112 296.0
337.296265 560.0
337.363464 180.0
337.423187 192.0
337.460846 256.0
337.529572 156.0
337.571899 1164.0
337.619843 208.0
337.660248 164.0
337.695679 328.0
337.727753 168.0
337.756042 308.0
337.769348 304.0
337.805908 340.0
337.821136 208.0
337.833527 204.0
337.892914 368.0
337.971466 54484.0
338.087799 208.0
338.119446 356.0
338.186829 280.0
338.258179 300.0
338.294373 124.0
338.324738 116.0
338.357483 248.0
338.395874 168.0
338.439941 80.0
338.450226 192.0
338.49408 204.0
338.546295 264.0
338.579376 372.0
338.612762 140.0
338.673126 196.0
338.702118 264.0
338.756134 264.0
338.805756 400.0
338.967285 293416.0
339.052002 236.0
339.062439 272.0
339.110718 220.0
339.146881 36.0
339.203613 252.0
339.302917 328.0
339.324951 284.0
339.392731 224.0
339.415192 548.0
339.488037 456.0
339.52356 128.0
339.571869 920.0
339.625244 240.0
339.682739 184.0
339.704712 168.0
339.71701 352.0
339.742767 400.0
339.797852 176.0
339.808289 236.0
339.858643 268.0
339.909912 204.0
339.969025 33420.0
340.037201 408.0
340.097473 224.0
340.139557 268.0
340.181702 228.0
340.218628 548.0
340.288361 452.0
340.342285 240.0
340.392792 396.0
340.441895 260.0
340.468231 144.0
340.497681 248.0
340.53299 292.0
340.570953 108.0
340.594452 192.0
340.679596 96.0
340.716675 76.0
340.739319 60.0
340.78421 84.0
340.833282 424.0
340.891724 204.0
340.963593 17676.0
341.063843 224.0
341.094177 136.0
341.108093 172.0
341.120911 128.0
341.132782 96.0
341.144806 152.0
341.182068 196.0
341.263733 220.0
341.301544 96.0
341.330902 144.0
341.359314 160.0
341.389526 68.0
341.41568 60.0
341.446991 140.0
341.531097 168.0
341.568298 132.0
341.604401 180.0
341.671021 236.0
341.725037 200.0
341.752716 228.0
341.783905 144.0
341.808563 172.0
341.858063 200.0
341.915924 112.0
341.921722 68.0
341.971161 876.0
342.053131 176.0
342.129089 168.0
342.138641 292.0
342.180481 332.0
342.25592 300.0
342.302704 228.0
342.369019 260.0
342.398224 220.0
342.448639 168.0
342.483246 172.0
342.509857 124.0
342.549652 152.0
342.608215 84.0
342.660553 104.0
342.711761 164.0
342.763123 60.0
342.80545 132.0
342.862885 112.0
342.899719 120.0
342.972534 216.0
343.080566 120.0
343.143219 192.0
343.193207 116.0
343.236786 64.0
343.265411 64.0
343.324219 76.0
343.349884 128.0
343.416931 136.0
343.486694 100.0
343.518616 272.0
343.590332 88.0
343.671173 48.0
343.716949 204.0
343.791229 208.0
343.838226 160.0
343.888184 156.0
343.967651 588.0
344.028656 120.0
344.054504 148.0
344.080841 160.0
344.156464 92.0
344.20639 80.0
344.239624 88.0
344.309601 72.0
344.355682 104.0
344.368195 64.0
344.382874 76.0
344.397522 92.0
344.416443 124.0
344.426819 100.0
344.485901 72.0
344.540344 220.0
344.60022 128.0
344.636444 76.0
344.675415 96.0
344.718048 180.0
344.774933 140.0
344.968323 388.0
345.055054 88.0
345.195709 156.0
345.221436 100.0
345.262482 124.0
345.318542 280.0
345.36087 96.0
345.388885 88.0
345.420502 88.0
345.512421 172.0
345.551514 44.0
345.651733 100.0
345.710938 148.0
345.739014 160.0
345.784973 44.0
345.82547 344.0
345.8573 88.0
345.945892 276.0
345.995972 144.0
346.045441 108.0
346.134613 116.0
346.179474 88.0
346.225555 152.0
346.285706 132.0
346.384003 112.0
346.454926 108.0
346.50705 60.0
346.544861 120.0
346.581757 256.0
346.621826 148.0
346.711761 84.0
346.744232 48.0
346.827087 292.0
346.934021 100.0
346.965759 84.0
347.010559 76.0
347.083008 52.0
347.106995 136.0
347.157593 104.0
347.215088 72.0
347.26236 64.0
347.301056 80.0
347.348602 124.0
347.408478 112.0
347.457001 124.0
347.48587 28.0
347.511841 156.0
347.582916 132.0
347.707581 48.0
347.755798 124.0
347.789032 52.0
347.847229 112.0
347.894104 44.0
347.931244 64.0
347.991119 304.0
348.083466 132.0
348.164673 92.0
348.224609 60.0
348.25061 84.0
348.284027 40.0
348.339752 216.0
348.368591 56.0
348.415436 128.0
348.454132 76.0
348.522125 92.0
348.573914 144.0
348.610962 84.0
348.644409 56.0
348.707611 80.0
348.754303 64.0
348.839325 92.0
348.864685 156.0
348.973053 228.0
349.051422 212.0
349.100128 104.0
349.159546 108.0
349.276489 124.0
349.471619 140.0
349.529724 120.0
349.570404 84.0
349.617981 164.0
349.659729 44.0
349.69278 124.0
349.911377 100.0
349.939606 200.0
349.982056 124.0
350.074524 136.0
350.104736 76.0
350.15863 28.0
350.193176 132.0
350.225677 68.0
350.264893 68.0
350.311371 104.0
350.348602 108.0
350.40799 124.0
350.417267 176.0
350.485718 168.0
350.581848 160.0
350.624115 68.0
350.63327 112.0
350.70636 144.0
350.734222 92.0
350.812805 108.0
350.871948 76.0
350.962128 312.0
350.974976 136.0
350.985321 104.0
351.054108 144.0
351.142578 56.0
351.316498 96.0
351.385834 160.0
351.46698 96.0
351.532257 112.0
351.630127 136.0
351.679382 32.0
351.730865 144.0
351.795593 132.0
351.92627 88.0
351.979462 128.0
352.030823 84.0
352.071228 148.0
352.142853 68.0
352.198883 144.0
352.28479 28.0
352.314697 108.0
352.363251 40.0
352.400238 104.0
352.417419 64.0
352.445618 96.0
352.486542 56.0
352.528412 260.0
352.585602 96.0
352.660339 48.0
352.684753 132.0
352.737579 48.0
352.766876 68.0
352.80426 76.0
352.830414 72.0
352.912323 164.0
352.938843 80.0
352.981537 148.0
353.014313 248.0
353.077209 112.0
353.142151 100.0
353.166992 140.0
353.20813 120.0
353.245941 160.0
353.316132 156.0
353.368988 108.0
353.410156 48.0
353.440094 112.0
353.48114 132.0
353.519684 264.0
353.578552 92.0
353.622803 116.0
353.667694 200.0
353.718964 220.0
353.785126 104.0
353.800507 120.0
353.82486 200.0
353.995422 208.0
354.025146 136.0
354.126892 188.0
354.163452 56.0
354.231049 176.0
354.273865 116.0
354.30072 124.0
354.350006 116.0
354.421143 108.0
354.454865 48.0
354.49234 168.0
354.522308 116.0
354.558655 132.0
354.625854 156.0
354.668488 96.0
354.709717 36.0
354.793182 92.0
354.842773 164.0
354.870941 144.0
354.914764 116.0
354.971436 184.0
354.977753 148.0
354.992584 108.0
355.033783 168.0
355.095917 56.0
355.212219 40.0
355.27597 36.0
355.35318 284.0
355.40741 152.0
355.459503 88.0
355.469971 80.0
355.51123 132.0
355.55365 176.0
355.608673 140.0
355.664093 104.0
355.688782 164.0
355.728363 124.0
355.758514 104.0
355.801392 128.0
355.828918 312.0
355.881409 52.0
355.914032 76.0
355.975128 180.0
355.999908 236.0
356.043091 164.0
356.080414 104.0
356.111053 120.0
356.146881 148.0
356.176941 88.0
356.230896 196.0
356.277893 76.0
356.31311 116.0
356.361023 124.0
356.405518 152.0
356.439911 56.0
356.520844 172.0
356.552673 40.0
356.593994 96.0
356.630798 116.0
356.691345 160.0
356.73587 292.0
356.772247 44.0
356.8797 76.0
356.994202 116.0
357.052704 104.0
357.122894 104.0
357.153473 96.0
357.221954 144.0
357.29657 96.0
357.33255 92.0
357.37027 60.0
357.402557 196.0
357.443939 112.0
357.526733 196.0
357.574005 116.0
357.61438 96.0
357.65448 136.0
357.78064 276.0
357.815643 48.0
357.906952 180.0
357.937073 180.0
357.993561 120.0
358.019897 104.0
358.068512 164.0
358.181854 156.0
358.209412 104.0
358.249664 88.0
358.282501 124.0
358.342865 60.0
358.411682 56.0
358.576813 108.0
358.608978 136.0
358.658356 120.0
358.744385 176.0
358.797974 180.0
358.837616 48.0
358.914948 164.0
358.972321 140.0
358.996857 188.0
359.106567 124.0
359.229828 116.0
359.288055 192.0
359.324158 56.0
359.366425 192.0
359.509033 96.0
359.599609 36.0
359.64325 128.0
359.678101 136.0
359.76947 32.0
359.795898 48.0
359.838867 192.0
359.914398 104.0
359.954498 108.0
359.999817 32.0
360.032135 136.0
360.059998 136.0
360.116882 92.0
360.156616 92.0
360.199982 72.0
360.251373 200.0
360.383362 52.0
360.460693 108.0
360.506042 132.0
360.57782 200.0
360.638306 140.0
360.676117 152.0
360.746216 44.0
360.778168 100.0
360.819763 104.0
360.923157 92.0
360.973358 128.0
361.016388 156.0
361.05777 136.0
361.110931 36.0
361.183502 44.0
361.277374 40.0
361.315216 40.0
361.345459 152.0
361.371948 56.0
361.40979 200.0
361.458984 112.0
361.519531 48.0
361.575317 108.0
361.590485 80.0
361.616547 240.0
361.659576 244.0
361.706116 164.0
361.754211 36.0
361.797607 60.0
361.884094 128.0
361.949738 180.0
361.999634 156.0
362.068481 64.0
362.151794 132.0
362.199799 108.0
362.288177 88.0
362.326996 192.0
362.379089 136.0
362.454895 168.0
362.519836 52.0
362.545837 148.0
362.604797 164.0
362.714417 100.0
362.798004 152.0
362.85434 96.0
362.886993 136.0
362.917328 192.0
362.993286 112.0
363.020813 96.0
363.072815 156.0
363.114532 116.0
363.178986 152.0
363.245453 124.0
363.260315 108.0
363.29541 116.0
363.361084 92.0
363.429382 128.0
363.467163 128.0
363.526337 108.0
363.581177 108.0
363.625427 164.0
363.664673 148.0
363.70517 188.0
363.770966 80.0
363.862061 128.0
363.919037 120.0
364.011078 200.0
364.051697 144.0
364.086121 172.0
364.166809 164.0
364.201141 140.0
364.241852 108.0
364.325867 144.0
364.382904 120.0
364.503998 60.0
364.538177 128.0
364.620575 100.0
364.789032 164.0
364.825867 116.0
364.863708 212.0
364.905731 168.0
364.998169 64.0
365.145599 176.0
365.175934 144.0
365.247253 136.0
365.37323 124.0
365.425873 196.0
365.458405 76.0
365.485046 184.0
365.519287 140.0
365.57431 52.0
365.648682 44.0
365.692749 104.0
365.751434 128.0
365.784973 164.0
365.827576 136.0
365.863678 108.0
365.995178 448.0
366.034515 208.0
366.081329 100.0
366.120758 72.0
366.151245 52.0
366.218811 116.0
366.250275 152.0
366.299774 60.0
366.344025 144.0
366.359192 88.0
366.406464 52.0
366.471222 156.0
366.509338 64.0
366.558868 132.0
366.599701 180.0
366.634735 44.0
366.65213 120.0
366.684631 116.0
366.718933 116.0
366.75705 124.0
366.783722 160.0
366.8638 52.0
366.907135 120.0
366.995514 104.0
367.034027 104.0
367.102478 192.0
367.134521 124.0
367.172638 104.0
367.231689 132.0
367.257721 92.0
367.382446 100.0
367.442963 116.0
367.472046 124.0
367.517456 144.0
367.534515 112.0
367.58847 164.0
367.624573 100.0
367.678833 160.0
367.725525 92.0
367.872253 88.0
367.898804 132.0
367.993805 640.0
368.030029 244.0
368.157288 44.0
368.223724 100.0
368.254547 120.0
368.317688 48.0
368.367371 144.0
368.436127 108.0
368.485779 108.0
368.554565 132.0
368.579254 112.0
368.627167 136.0
368.69223 164.0
368.757111 132.0
368.845093 120.0
368.878693 188.0
368.959717 124.0
368.99942 268.0
369.038727 72.0
369.074402 36.0
369.147064 124.0
369.280914 84.0
369.365082 244.0
369.406555 132.0
369.456879 92.0
369.495148 152.0
369.537231 144.0
369.593597 60.0
369.650665 248.0
369.751526 152.0
369.848572 56.0
369.901672 192.0
370.001648 116.0
370.040161 148.0
370.082489 156.0
370.13562 60.0
370.174988 164.0
370.191223 136.0
370.24115 72.0
370.321991 48.0
370.352631 120.0
370.49054 96.0
370.532684 164.0
370.597809 92.0
370.683838 160.0
370.712769 136.0
370.779968 128.0
370.831604 92.0
370.879608 144.0
370.919739 124.0
370.973175 132.0
371.023254 104.0
371.072296 136.0
371.119354 104.0
371.318512 112.0
371.34671 148.0
371.446564 172.0
371.478821 116.0
371.533325 28.0
371.696381 104.0
371.725189 104.0
371.759705 56.0
371.816437 128.0
371.897736 104.0
371.946594 156.0
372.004425 100.0
372.01059 156.0
372.074463 132.0
372.158936 40.0
372.301025 48.0
372.408539 184.0
372.466461 140.0
372.512268 48.0
372.54538 112.0
372.592957 140.0
372.671997 160.0
372.761993 132.0
372.819641 96.0
372.884979 108.0
372.960815 164.0
373.022034 76.0
373.049988 52.0
373.135468 100.0
373.189148 144.0
373.264435 216.0
373.341553 148.0
373.388641 64.0
373.427765 92.0
373.515564 124.0
373.580963 68.0
373.60791 40.0
373.707031 120.0
373.75412 200.0
373.784882 236.0
373.819519 160.0
373.904175 56.0
373.990417 120.0
374.03891 80.0
374.086945 120.0
374.128754 224.0
374.162079 140.0
374.204437 80.0
374.243347 116.0
374.281464 56.0
374.405762 184.0
374.500977 96.0
374.581848 136.0
374.60672 96.0
374.778351 96.0
374.809174 80.0
374.855408 180.0
374.92865 140.0
375.039307 208.0
375.045319 148.0
375.093414 432.0
375.155792 112.0
375.279419 104.0
375.323547 148.0
375.449493 148.0
375.464111 112.0
375.479492 136.0
375.53833 144.0
375.576477 156.0
375.661255 32.0
375.71524 156.0
375.757141 156.0
375.830994 148.0
375.870636 160.0
375.930176 188.0
376.01239 144.0
376.08017 168.0
376.114105 280.0
376.155182 148.0
376.193787 124.0
376.240112 96.0
376.277008 244.0
376.328918 120.0
376.364929 124.0
376.45636 144.0
376.489502 184.0
376.564484 84.0
376.699463 68.0
376.784668 124.0
376.846497 124.0
376.888428 108.0
376.913147 140.0
377.002594 60.0
377.045563 108.0
377.117004 136.0
377.144073 64.0
377.193909 116.0
377.271637 96.0
377.32962 176.0
377.430145 104.0
377.502167 160.0
377.587585 112.0
377.680847 112.0
377.714355 148.0
377.783936 84.0
377.850739 156.0
377.929138 48.0
377.991028 168.0
378.025055 300.0
378.058868 136.0
378.107941 156.0
378.141144 76.0
378.215515 40.0
378.250122 144.0
378.277435 164.0
378.312286 120.0
378.354889 112.0
378.381989 84.0
378.469788 152.0
378.498138 132.0
378.550415 176.0
378.671692 140.0
378.719452 192.0
378.792328 96.0
378.831207 56.0
378.931946 104.0
378.966827 160.0
378.993958 140.0
379.058258 160.0
379.124329 160.0
379.315613 44.0
379.403534 88.0
379.462921 224.0
379.549805 160.0
379.629669 68.0
379.68158 84.0
379.730927 144.0
379.807098 96.0
379.877899 52.0
380.011749 536.0
380.072876 128.0
380.133972 156.0
380.24057 164.0
380.289215 80.0
380.421204 56.0
380.510498 56.0
380.537659 104.0
380.65625 104.0
380.717377 160.0
380.755005 120.0
380.848358 116.0
380.875549 60.0
380.910492 56.0
380.947937 64.0
381.015594 268.0
381.118469 120.0
381.170807 96.0
381.207947 100.0
381.318481 44.0
381.350861 168.0
381.427338 120.0
381.473969 36.0
381.512634 76.0
381.590607 84.0
381.625793 232.0
381.711945 96.0
381.785034 128.0
381.84726 124.0
381.883881 164.0
382.013062 656.0
382.139008 152.0
382.193481 124.0
382.263519 80.0
382.290771 68.0
382.328064 116.0
382.415314 88.0
382.520416 52.0
382.547668 76.0
382.668335 148.0
382.695587 52.0
382.77298 128.0
382.849884 124.0
382.956512 64.0
382.995148 144.0
383.044373 260.0
383.155182 104.0
383.182465 108.0
383.265778 116.0
383.299347 72.0
383.343994 96.0
383.429382 96.0
383.469238 88.0
383.500671 152.0
383.55658 104.0
383.604126 260.0
383.654053 168.0
383.708618 120.0
383.773712 172.0
383.823151 108.0
383.91037 96.0
383.939911 152.0
383.995483 120.0
384.063507 76.0
384.186371 64.0
384.229523 164.0
384.367706 148.0
384.382111 144.0
384.411224 64.0
384.461456 84.0
384.533203 220.0
384.587769 144.0
384.640991 48.0
384.785492 284.0
384.836212 108.0
384.883057 92.0
384.938232 120.0
384.992401 128.0
385.062714 164.0
385.144714 80.0
385.179871 144.0
385.226746 108.0
385.283173 328.0
385.34787 120.0
385.421265 92.0
385.490112 180.0
385.532501 64.0
385.586243 112.0
385.621429 88.0
385.653137 100.0
385.691772 80.0
385.752838 64.0
385.809052 100.0
385.932617 112.0
385.973267 44.0
386.026306 92.0
386.102325 120.0
386.131195 108.0
386.172699 168.0
386.289246 96.0
386.303223 76.0
386.415253 136.0
386.458282 116.0
386.497406 100.0
386.605408 100.0
386.619934 144.0
386.677429 104.0
386.724396 76.0
386.771362 152.0
386.809479 164.0
386.908386 148.0
387.057159 132.0
387.127655 120.0
387.226257 136.0
387.303894 44.0
387.388947 168.0
387.44986 92.0
387.484406 256.0
387.535034 60.0
387.593811 112.0
387.623932 88.0
387.691803 92.0
387.753906 132.0
387.915771 192.0
387.958313 104.0
388.036743 132.0
388.079865 56.0
388.187164 140.0
388.299316 104.0
388.312347 100.0
388.320038 132.0
388.425598 176.0
388.473969 148.0
388.50116 76.0
388.575378 108.0
388.716827 156.0
388.766327 164.0
388.856598 172.0
389.001831 60.0
389.056793 148.0
389.09491 96.0
389.167175 72.0
389.217773 96.0
389.272461 148.0
389.343445 160.0
389.524109 96.0
389.652771 64.0
389.70575 68.0
389.744141 92.0
389.82901 140.0
389.889526 100.0
389.928833 124.0
389.96814 172.0
390.031036 36.0
390.141083 96.0
390.248749 148.0
390.279938 128.0
390.31015 100.0
390.358154 156.0
390.463531 120.0
390.571838 164.0
390.60907 56.0
390.693359 140.0
390.754639 40.0
390.797913 92.0
390.949127 148.0
390.994659 168.0
391.056976 164.0
391.128479 124.0
391.179657 32.0
391.215088 128.0
391.371155 88.0
391.451569 136.0
391.484467 116.0
391.596558 132.0
391.664001 60.0
391.707336 120.0
391.774323 56.0
391.849152 120.0
391.935852 76.0
392.020905 96.0
392.046173 156.0
392.089539 172.0
392.124695 184.0
392.139709 88.0
392.161285 136.0
392.271545 136.0
392.307556 128.0
392.40094 80.0
392.453217 176.0
392.483765 80.0
392.554718 96.0
392.605988 76.0
392.673248 160.0
392.724335 136.0
392.822937 176.0
392.878174 128.0
392.905792 40.0
392.988647 76.0
393.095184 116.0
393.193848 144.0
393.221466 40.0
393.292511 120.0
393.360657 152.0
393.446472 108.0
393.474091 156.0
393.512604 132.0
393.557312 164.0
393.616241 92.0
393.671539 136.0
393.726837 72.0
393.782104 88.0
393.855225 164.0
393.916412 180.0
394.026917 280.0
394.062592 128.0
394.141693 148.0
394.204071 188.0
394.232513 80.0
394.336334 88.0
394.434082 132.0
394.476807 192.0
394.51709 140.0
394.571014 132.0
394.649353 276.0
394.697144 164.0
394.884369 100.0
394.908112 140.0
394.982208 136.0
395.067383 80.0
395.153839 88.0
395.232971 144.0
395.280457 172.0
395.313629 84.0
395.347717 72.0
395.422913 40.0
395.491608 80.0
395.546356 112.0
395.585785 112.0
395.635437 140.0
395.727844 144.0
395.785309 148.0
395.837738 164.0
395.879639 176.0
395.940643 168.0
396.042084 8860.0
396.147552 120.0
396.17923 48.0
396.223694 184.0
396.272552 80.0
396.313965 88.0
396.349609 128.0
396.37735 68.0
396.457672 60.0
396.49408 132.0
396.570374 96.0
396.610291 88.0
396.706329 48.0
396.749939 96.0
396.789581 164.0
396.820221 212.0
396.850128 176.0
396.868866 132.0
396.904327 112.0
396.947113 60.0
397.04187 2368.0
397.162354 116.0
397.196594 152.0
397.2258 40.0
397.26944 108.0
397.301178 124.0
397.406738 100.0
397.477875 180.0
397.595642 96.0
397.622589 132.0
397.680817 184.0
397.780518 212.0
397.844879 60.0
397.925446 128.0
397.957855 136.0
398.039032 8824.0
398.128235 132.0
398.188965 52.0
398.241608 124.0
398.280975 180.0
398.335388 120.0
398.385895 144.0
398.466858 92.0
398.480896 140.0
398.564636 56.0
398.663513 80.0
398.729767 104.0
398.740021 80.0
398.802216 68.0
398.85083 88.0
398.889679 48.0
398.924408 76.0
398.940796 56.0
398.954163 84.0
399.043549 1796.0
399.110016 104.0
399.154053 76.0
399.192474 76.0
399.27536 64.0
399.31546 192.0
399.360657 152.0
399.439514 148.0
399.474243 180.0
399.543549 188.0
399.595764 80.0
399.642944 148.0
399.705139 112.0
399.744019 316.0
399.77182 152.0
399.805328 152.0
399.848267 112.0
399.907959 92.0
399.94635 128.0
400.035919 856.0
400.134888 124.0
400.166718 100.0
400.201477 236.0
400.234406 92.0
400.278229 120.0
400.359924 132.0
400.445496 104.0
400.517181 164.0
400.548828 96.0
400.640686 96.0
400.676514 112.0
400.721161 160.0
400.767487 116.0
400.826019 108.0
400.890228 104.0
400.923584 164.0
401.004974 108.0
401.186646 72.0
401.254425 28.0
401.308167 84.0
401.370575 92.0
401.413818 180.0
401.428741 84.0
401.445404 156.0
401.489899 152.0
401.521179 300.0
401.553497 112.0
401.581421 92.0
401.625305 80.0
401.716644 204.0
401.812805 56.0
401.848694 64.0
401.900574 84.0
401.944458 32.0
402.014709 140.0
402.078339 168.0
402.13205 104.0
402.219849 80.0
402.272461 112.0
402.367554 128.0
402.395508 44.0
402.435425 80.0
402.504883 172.0
402.557739 184.0
402.639099 96.0
402.73999 108.0
402.779175 108.0
402.831299 136.0
402.870758 176.0
402.910706 132.0
402.962646 76.0
403.050568 144.0
403.124756 156.0
403.316254 116.0
403.374298 152.0
403.406799 60.0
403.46225 64.0
403.558655 140.0
403.630157 68.0
403.671906 156.0
403.733521 52.0
403.782135 44.0
403.81012 124.0
403.974121 68.0
404.006134 136.0
404.048981 96.0
404.106171 172.0
404.133423 148.0
404.198181 120.0
404.226196 76.0
404.302429 88.0
404.377167 200.0
404.418304 52.0
404.450317 120.0
404.612579 136.0
404.641541 304.0
404.7659 136.0
404.910767 44.0
404.950836 68.0
404.978851 224.0
405.049377 140.0
405.093872 144.0
405.123932 152.0
405.247009 180.0
405.307373 124.0
405.367493 92.0
405.447632 112.0
405.485504 80.0
405.530243 252.0
405.655762 108.0
405.704163 208.0
405.812408 48.0
405.872559 96.0
405.944733 152.0
406.000214 48.0
406.036987 172.0
406.081116 120.0
406.140839 148.0
406.228455 280.0
406.263184 184.0
406.316345 180.0
406.345856 200.0
406.414062 140.0
406.550507 248.0
406.595917 88.0
406.632416 168.0
406.727112 36.0
406.791931 132.0
406.83548 156.0
406.887695 104.0
406.945831 108.0
406.983276 208.0
407.018768 68.0
407.078644 172.0
407.131134 76.0
407.168762 108.0
407.246735 108.0
407.281219 132.0
407.321411 112.0
407.349518 44.0
407.403534 164.0
407.437897 56.0
407.519409 184.0
407.594604 80.0
407.665344 112.0
407.731232 48.0
407.792542 96.0
407.858765 132.0
407.901581 84.0
407.956329 124.0
408.012604 172.0
408.048645 108.0
408.11087 92.0
408.17746 48.0
408.262604 164.0
408.292908 156.0
408.322235 168.0
408.357178 140.0
408.42218 128.0
408.473175 88.0
408.527008 172.0
408.575653 124.0
408.664185 84.0
408.753479 172.0
408.809052 32.0
408.859009 164.0
408.945892 52.0
408.990143 120.0
409.025177 160.0
409.211578 120.0
409.288086 84.0
409.336548 100.0
409.461243 80.0
409.549835 128.0
409.582062 136.0
409.622345 112.0
409.670685 120.0
409.87619 152.0
409.930359 192.0
409.984985 52.0
410.0336 144.0
410.080627 168.0
410.091675 196.0
410.142853 304.0
410.17627 104.0
410.248322 132.0
410.31955 184.0
410.380035 184.0
410.432434 72.0
410.476807 100.0
410.535034 164.0
410.56955 84.0
410.634094 92.0
410.699554 136.0
410.745331 208.0
410.780273 140.0
410.850952 84.0
410.899292 140.0
411.00119 100.0
411.07785 64.0
411.132446 168.0
411.190857 120.0
411.223145 100.0
411.255432 196.0
411.386536 144.0
411.442139 96.0
411.485535 68.0
411.557251 200.0
411.622833 76.0
411.679382 140.0
411.768066 100.0
411.853027 112.0
411.952271 64.0
412.006531 132.0
412.056854 112.0
412.091614 136.0
412.166473 152.0
412.318146 360.0
412.360687 44.0
412.42392 92.0
412.499146 132.0
412.551208 160.0
412.581512 256.0
412.624908 124.0
412.653198 112.0
412.743408 104.0
412.798767 116.0
412.903992 232.0
412.995483 92.0
413.023773 136.0
413.066925 104.0
413.122498 112.0
413.203247 168.0
413.3125 212.0
413.409607 40.0
413.485565 84.0
413.559357 68.0
413.628174 60.0
413.660553 88.0
413.757721 148.0
413.815582 232.0
413.899445 160.0
413.984833 92.0
414.138397 56.0
414.242279 136.0
414.336884 172.0
414.405762 40.0
414.434113 96.0
414.523254 88.0
414.571899 128.0
414.61911 80.0
414.724365 212.0
414.758331 108.0
414.79483 148.0
414.833923 136.0
414.875885 132.0
414.921204 124.0
414.978363 204.0
415.066467 120.0
415.106995 60.0
415.182983 60.0
415.217316 120.0
415.338196 40.0
415.393066 128.0
415.457306 208.0
415.577332 76.0
415.586334 72.0
415.691162 32.0
415.723633 100.0
415.769501 144.0
415.83725 140.0
415.922485 80.0
415.983398 144.0
416.044189 164.0
416.105194 116.0
416.145782 40.0
416.235107 92.0
416.38736 76.0
416.425995 92.0
416.519409 48.0
416.645355 148.0
416.679108 116.0
416.784943 124.0
416.824127 176.0
416.933563 212.0
416.971252 136.0
417.031403 148.0
417.107849 212.0
417.173798 120.0
417.242767 108.0
417.350647 232.0
417.474548 88.0
417.721313 168.0
417.785797 100.0
417.824371 104.0
417.860962 132.0
417.897583 100.0
417.958618 148.0
418.007446 156.0
418.03595 136.0
418.068085 152.0
418.149902 120.0
418.259796 76.0
418.299103 140.0
418.357483 84.0
418.389801 64.0
418.4552 64.0
418.501343 96.0
418.536652 52.0
418.688141 140.0
418.752472 108.0
418.794739 132.0
418.85022 124.0
418.97345 64.0
419.044556 172.0
419.078369 108.0
419.093109 84.0
419.109131 116.0
419.178009 168.0
419.249512 132.0
419.296143 136.0
419.597626 80.0
419.658081 140.0
419.765045 44.0
419.855988 148.0
419.927673 160.0
419.985657 116.0
420.051605 124.0
420.109863 52.0
420.289398 300.0
420.33194 132.0
420.445648 96.0
420.554657 128.0
420.648529 124.0
420.685272 92.0
420.734161 144.0
420.775085 128.0
420.831512 108.0
420.861938 120.0
420.991516 84.0
421.089539 72.0
421.139648 172.0
421.203888 100.0
421.355042 132.0
421.396393 208.0
421.487823 228.0
421.542999 40.0
421.687225 152.0
421.781433 144.0
421.853638 252.0
421.894531 48.0
421.953674 192.0
422.058899 156.0
422.111237 48.0
422.164398 96.0
422.21347 160.0
422.297028 92.0
422.345917 136.0
422.416351 200.0
422.532867 144.0
422.579712 136.0
422.630737 56.0
422.717987 148.0
422.797607 144.0
422.858215 108.0
422.911713 140.0
422.947052 108.0
423.033539 132.0
423.085022 200.0
423.195312 124.0
423.261658 160.0
423.355286 72.0
423.465851 108.0
423.557648 156.0
423.61731 168.0
423.688354 140.0
423.752625 88.0
423.796509 112.0
423.906219 144.0
424.061493 212.0
424.125549 180.0
424.220245 160.0
424.445312 108.0
424.490417 108.0
424.527344 60.0
424.592438 124.0
424.633118 76.0
424.649567 60.0
424.679321 132.0
424.880096 108.0
424.94574 208.0
425.007294 60.0
425.137543 108.0
425.262421 72.0
425.331512 108.0
425.369873 104.0
425.451263 132.0
425.499817 100.0
425.561401 144.0
425.721558 144.0
425.774933 116.0
425.81189 200.0
425.857086 44.0
425.943329 108.0
425.976196 152.0
426.004944 64.0
426.079346 188.0
426.158356 132.0
426.218903 164.0
426.276123 124.0
426.324005 88.0
426.419769 160.0
426.465179 88.0
426.509705 164.0
426.567963 176.0
426.635315 124.0
426.659912 76.0
426.704529 128.0
426.770508 60.0
426.896881 172.0
426.946228 156.0
427.028351 116.0
427.084595 100.0
427.124695 136.0
427.168335 136.0
427.25473 124.0
427.316071 164.0
427.390503 44.0
427.472809 76.0
427.528259 160.0
427.567444 168.0
427.622253 228.0
427.674469 224.0
427.706238 140.0
427.773254 64.0
427.841583 148.0
427.90329 116.0
427.975006 124.0
428.104401 132.0
428.179108 188.0
428.250916 92.0
428.292114 36.0
428.358032 184.0
428.4198 116.0
428.448639 88.0
428.481598 148.0
428.564026 72.0
428.592865 52.0
428.626923 188.0
428.718384 192.0
428.815399 104.0
428.888123 148.0
428.959656 104.0
429.000885 60.0
429.036987 100.0
429.049835 32.0
429.102509 92.0
429.114136 60.0
429.202911 76.0
429.26239 160.0
429.334595 116.0
429.398804 208.0
429.450348 120.0
429.55426 64.0
429.660736 60.0
429.904175 192.0
429.986725 88.0
430.052765 96.0
430.081665 76.0
430.250763 124.0
430.398621 172.0
430.437408 96.0
430.499847 140.0
430.547516 72.0
430.573334 96.0
430.673553 104.0
430.714172 152.0
430.814545 100.0
430.870392 100.0
430.940643 136.0
430.969574 108.0
431.06073 188.0
431.110077 116.0
431.174316 172.0
431.26712 92.0
431.353912 128.0
431.428101 144.0
431.500244 192.0
431.531708 56.0
431.630219 116.0
431.66626 184.0
431.705353 40.0
431.734314 220.0
431.778168 80.0
431.866669 152.0
431.941132 28.0
432.025238 136.0
432.098328 192.0
432.200348 104.0
432.276245 56.0
432.305206 120.0
432.359009 52.0
432.463959 192.0
432.57785 124.0
432.614502 144.0
432.673615 196.0
432.731567 112.0
432.813354 192.0
432.859009 144.0
432.905487 104.0
432.964813 136.0
433.012756 40.0
433.077545 96.0
433.104279 236.0
433.145721 128.0
433.214111 132.0
433.253418 144.0
433.306091 84.0
433.399811 60.0
433.467224 116.0
433.523102 180.0
433.565338 144.0
433.627045 192.0
433.669891 192.0
433.723846 100.0
433.841919 144.0
433.885284 144.0
433.944397 156.0
434.024323 72.0
434.066101 268.0
434.106598 124.0
434.138031 100.0
434.193451 36.0
434.232605 124.0
434.281799 152.0
434.319916 76.0
434.411346 64.0
434.460602 64.0
434.502594 52.0
434.553284 80.0
434.601532 316.0
434.647125 56.0
434.7005 160.0
434.776886 216.0
434.830475 100.0
434.898682 212.0
434.970795 160.0
435.041229 124.0
435.079529 84.0
435.138306 108.0
435.22226 248.0
435.263702 136.0
435.271088 112.0
435.327332 108.0
435.36557 212.0
435.430817 148.0
435.506683 88.0
435.570984 180.0
435.611145 148.0
435.667236 100.0
435.74762 196.0
435.761414 72.0
435.777435 236.0
435.812988 112.0
435.843445 108.0
435.887695 112.0
435.923645 112.0
435.987427 232.0
436.025543 128.0
436.060333 116.0
436.092682 260.0
436.164185 148.0
436.202026 104.0
436.24942 272.0
436.299622 132.0
436.329224 140.0
436.362671 112.0
436.421478 328.0
436.450867 180.0
436.460052 268.0
436.475952 208.0
436.494476 204.0
436.530365 272.0
436.582184 324.0
436.66275 108.0
436.708527 288.0
436.783386 268.0
436.819 320.0
436.859192 188.0
436.901917 112.0
436.928955 192.0
436.972351 232.0
437.045776 196.0
437.085358 176.0
437.167114 272.0
437.201874 120.0
437.255493 316.0
437.293732 328.0
437.325317 268.0
437.398712 220.0
437.437988 188.0
437.483704 432.0
437.576996 480.0
437.651733 240.0
437.681 484.0
437.742584 372.0
437.749054 400.0
437.789398 704.0
437.880737 436.0
437.924225 488.0
438.091461 252004.0
438.233246 172.0
438.246338 60.0
438.320618 248.0
438.36795 252.0
438.420502 168.0
438.487976 480.0
438.541718 404.0
438.556305 276.0
438.575195 420.0
438.666962 256.0
438.702698 340.0
438.728333 412.0
438.778961 4788.0
438.830292 452.0
438.877625 384.0
438.920776 528.0
438.956665 296.0
438.998657 300.0
439.093536 109076.0
439.196014 172.0
439.255615 328.0
439.300964 108.0
439.315491 168.0
439.351715 380.0
439.397858 228.0
439.442505 280.0
439.451355 252.0
439.487823 264.0
439.607513 372.0
439.654358 332.0
439.719147 692.0
439.784027 564.0
439.80011 380.0
439.814697 708.0
439.846985 388.0
439.874969 460.0
439.942657 896.0
440.027374 632.0
440.088867 250144.0
440.202454 104.0
440.244354 84.0
440.310486 104.0
440.323395 44.0
440.384796 256.0
440.470642 724.0
440.504852 396.0
440.53595 292.0
440.588623 464.0
440.638184 204.0
440.71579 332.0
440.778381 3688.0
440.833069 532.0
440.884064 384.0
440.946747 152.0
440.995911 344.0
441.089874 76104.0
441.17569 92.0
441.211823 248.0
441.249237 220.0
441.305084 116.0
441.314056 100.0
441.368347 196.0
441.414764 544.0
441.458344 364.0
441.523651 468.0
441.617615 228.0
441.698273 196.0
441.711243 320.0
441.72348 524.0
441.783569 348.0
441.832764 600.0
441.84375 544.0
441.859558 372.0
441.873993 384.0
441.921112 484.0
441.96524 432.0
442.00882 152.0
442.083771 32068.0
442.199402 212.0
442.25943 308.0
442.300201 60.0
442.34491 244.0
442.379944 140.0
442.397491 80.0
442.414398 136.0
442.426758 172.0
442.46814 228.0
442.504425 240.0
442.53952 196.0
442.641418 88.0
442.682037 248.0
442.741547 212.0
442.84137 212.0
442.886963 148.0
442.920349 368.0
442.993439 124.0
443.010345 108.0
443.069305 168.0
443.110016 148.0
443.175873 200.0
443.222504 172.0
443.276154 188.0
443.316437 116.0
443.361237 268.0
443.396759 192.0
443.456909 212.0
443.490356 152.0
443.509003 180.0
443.541687 320.0
443.598541 220.0
443.661072 224.0
443.710175 216.0
443.779327 296.0
443.830597 240.0
443.837585 312.0
443.911591 552.0
443.955231 332.0
443.995667 212.0
444.068207 304.0
444.093628 216.0
444.133331 188.0
444.139862 108.0
444.237671 220.0
444.264404 256.0
444.293274 184.0
444.325348 96.0
444.362854 160.0
444.405273 168.0
444.466339 92.0
444.500061 88.0
444.511932 60.0
444.527405 96.0
444.561951 76.0
444.616455 64.0
444.655487 96.0
444.714294 164.0
444.753998 284.0
444.800964 156.0
444.892792 92.0
444.938019 120.0
444.974243 220.0
445.008789 164.0
445.057739 80.0
445.103271 76.0
445.147095 112.0
445.197144 56.0
445.291687 60.0
445.313721 96.0
445.351044 40.0
445.396484 44.0
445.454773 104.0
445.516693 88.0
445.5672 96.0
445.613953 72.0
445.719788 184.0
445.792175 44.0
445.84079 80.0
445.894653 116.0
445.958191 52.0
446.046326 68.0
446.147125 100.0
446.187317 32.0
446.219147 80.0
446.283173 60.0
446.31955 80.0
446.366455 72.0
446.404663 52.0
446.455444 52.0
446.506897 140.0
446.557343 36.0
446.596405 84.0
446.640961 76.0
446.702576 52.0
446.771881 112.0
446.832367 32.0
446.885468 52.0
446.952118 48.0
447.025757 144.0
447.070923 168.0
447.121124 64.0
447.168762 48.0
447.221008 88.0
447.335938 100.0
447.436829 48.0
447.478943 76.0
447.521057 100.0
447.548706 56.0
447.611328 156.0
447.647369 60.0
447.692963 92.0
447.771362 36.0
447.817841 92.0
448.000977 84.0
448.047516 112.0
448.075684 88.0
448.089081 60.0
448.103821 140.0
448.119324 64.0
448.165497 88.0
448.279266 32.0
448.329834 60.0
448.386353 40.0
448.437439 68.0
448.48999 64.0
448.565857 144.0
448.633331 68.0
448.679688 56.0
448.721344 32.0
448.818848 40.0
448.85257 80.0
448.888397 52.0
448.953064 136.0
448.993011 92.0
449.038116 44.0
449.088745 76.0
449.219513 60.0
449.24942 44.0
449.337616 80.0
449.396698 88.0
449.424927 64.0
449.481079 40.0
449.51062 48.0
449.582367 80.0
449.774506 84.0
449.839844 72.0
449.913391 76.0
449.979156 168.0
450.09317 28.0
450.184174 80.0
450.308533 96.0
450.342316 28.0
450.395844 60.0
450.460602 80.0
450.561981 56.0
450.653534 96.0
450.692596 92.0
450.709076 84.0
450.781708 52.0
450.866241 44.0
450.921173 60.0
451.022614 64.0
451.157898 40.0
451.208618 36.0
451.288971 96.0
451.401001 88.0
451.449646 120.0
451.52832 80.0
451.661102 36.0
451.733032 80.0
451.817627 28.0
451.908356 116.0
452.003479 52.0
452.050354 52.0
452.122314 84.0
452.17041 80.0
452.274658 28.0
452.393188 56.0
452.424957 88.0
452.499054 92.0
452.542694 52.0
452.58313 28.0
452.714996 80.0
452.789673 104.0
452.858978 72.0
452.938202 40.0
452.973358 116.0
453.058075 36.0
453.134338 104.0
453.175598 92.0
453.312317 88.0
453.375885 40.0
453.431854 76.0
453.548309 88.0
453.617462 76.0
453.689545 80.0
453.730133 56.0
453.837952 68.0
453.964081 48.0
454.016052 164.0
454.044373 88.0
454.102051 100.0
454.143066 84.0
454.189056 76.0
454.254181 28.0
454.290283 116.0
454.342316 100.0
454.357422 92.0
454.36731 64.0
454.450989 60.0
454.551025 108.0
454.590332 96.0
454.652405 64.0
454.716064 128.0
454.809448 80.0
454.866455 84.0
454.883392 92.0
454.924072 88.0
454.953796 36.0
455.041229 140.0
455.130035 112.0
455.166077 144.0
455.212799 96.0
455.260956 116.0
455.323212 36.0
455.400391 92.0
455.471863 36.0
455.573822 40.0
455.646698 152.0
455.767334 80.0
455.87738 104.0
455.934998 96.0
456.081787 152.0
456.111938 76.0
456.142456 108.0
456.18576 128.0
456.228271 92.0
456.258057 52.0
456.330597 124.0
456.403107 68.0
456.493683 48.0
456.568787 52.0
456.602478 100.0
456.632233 60.0
456.72583 32.0
456.774902 56.0
456.862518 60.0
456.931244 96.0
456.976807 108.0
457.036377 72.0
457.081451 104.0
457.164978 92.0
457.291718 36.0
457.342804 72.0
457.406647 108.0
457.471497 52.0
457.525848 72.0
457.667938 128.0
457.71286 104.0
457.768555 92.0
457.811127 128.0
457.887787 92.0
457.917603 72.0
458.016724 128.0
458.06488 112.0
458.224335 28.0
458.265991 72.0
458.369202 44.0
458.45517 108.0
458.499207 124.0
458.549683 68.0
458.626648 108.0
458.688843 72.0
458.825256 52.0
458.914795 80.0
458.963257 76.0
459.055511 52.0
459.174408 104.0
459.255219 116.0
459.456451 52.0
459.550323 60.0
459.586273 84.0
459.636536 176.0
459.74234 144.0
459.797821 172.0
459.853302 92.0
459.934418 104.0
460.019775 64.0
460.058197 104.0
460.222595 84.0
460.272552 104.0
460.514954 100.0
460.677429 88.0
460.762878 76.0
460.856873 52.0
460.942352 76.0
461.061981 60.0
461.121307 64.0
461.164581 88.0
461.279968 76.0
461.414215 40.0
461.476654 68.0
461.519409 28.0
461.557892 56.0
461.617767 72.0
461.807068 76.0
461.852966 128.0
462.028381 112.0
462.079712 96.0
462.165283 48.0
462.310791 84.0
462.376038 192.0
462.454254 88.0
462.511932 120.0
462.601837 56.0
462.637878 76.0
462.687469 76.0
462.812378 92.0
462.850159 68.0
463.102844 44.0
463.134949 120.0
463.291321 36.0
463.432465 76.0
463.515076 108.0
463.629333 84.0
463.670593 116.0
463.942719 80.0
463.981659 48.0
464.053802 44.0
464.101349 44.0
464.187439 56.0
464.234283 48.0
464.281464 84.0
464.345795 88.0
464.398407 60.0
464.513092 120.0
464.80484 68.0
465.010834 32.0
465.049469 96.0
465.129578 132.0
465.186829 104.0
465.225464 40.0
465.268372 56.0
465.357635 112.0
465.547485 32.0
465.663452 80.0
465.753235 64.0
465.865631 60.0
465.972748 116.0
466.080139 60.0
466.118835 64.0
466.423981 56.0
466.461426 84.0
466.651825 108.0
466.722778 80.0
466.80661 40.0
466.99585 72.0
467.112 68.0
467.163605 84.0
467.268555 72.0
467.314209 72.0
467.370911 88.0
467.447601 48.0
467.54657 96.0
467.671387 136.0
467.735962 60.0
467.783295 72.0
467.824036 52.0
467.938293 72.0
467.998566 64.0
468.267731 80.0
468.300018 56.0
468.412018 64.0
468.769623 40.0
468.799774 36.0
468.829956 76.0
468.890289 100.0
469.075623 72.0
469.110107 116.0
469.172058 76.0
469.295502 28.0
469.33432 176.0
469.549927 48.0
469.713837 124.0
470.033112 56.0
470.279114 92.0
470.365448 92.0
470.659027 60.0
470.68924 100.0
470.820801 60.0
470.926758 76.0
470.978607 60.0
471.026123 44.0
471.064789 80.0
471.190094 96.0
471.23349 52.0
471.302612 32.0
471.416534 100.0
471.479797 96.0
471.652679 48.0
471.756439 84.0
471.832642 140.0
472.193146 28.0
472.413757 112.0
472.498871 108.0
472.569519 80.0
472.677673 88.0
472.859436 36.0
473.130798 76.0
473.24472 96.0
473.378967 48.0
473.513214 84.0
473.968079 36.0
474.002747 56.0
474.197784 80.0
474.297455 92.0
474.32782 40.0
474.41452 84.0
474.566254 72.0
475.031219 116.0
475.381744 56.0
475.555359 52.0
475.707275 80.0
475.970612 80.0
476.376038 36.0
476.475983 92.0
476.523773 132.0
476.675842 28.0
476.797516 52.0
476.858368 48.0
476.914886 76.0
477.075714 64.0
477.162659 96.0
477.267029 136.0
477.397461 60.0
477.449677 44.0
477.506195 96.0
477.669586 100.0
477.701935 100.0
478.002136 40.0
478.354706 80.0
478.624634 80.0
478.73349 56.0
478.851074 124.0
478.885925 48.0
478.98175 72.0
479.042755 40.0
479.08139 92.0
479.234436 64.0
479.262482 52.0
479.373871 40.0
479.452332 84.0
479.543854 100.0
479.598053 120.0
479.748718 92.0
479.831543 68.0
480.084473 64.0
480.179596 128.0
480.315613 64.0
480.437775 80.0
480.485748 84.0
480.525024 72.0
480.778107 44.0
480.948334 104.0
481.271393 40.0
481.363098 68.0
481.441711 80.0
481.712494 56.0
481.747467 40.0
482.066406 68.0
482.223755 84.0
482.385468 60.0
482.462189 80.0
482.687164 108.0
482.84021 32.0
483.41333 112.0
483.840088 80.0
483.951752 108.0
484.087494 96.0
484.293335 72.0
484.486084 64.0
484.578064 76.0
484.678864 60.0
484.880432 96.0
485.288116 52.0
485.33197 68.0
485.485443 92.0
485.564392 28.0
485.634583 36.0
485.752991 60.0
485.80127 72.0
485.862671 72.0
485.946045 80.0
486.134735 40.0
486.494629 72.0
486.690735 72.0
486.867859 104.0
486.955719 64.0
487.012817 160.0
487.333496 80.0
487.680664 84.0
487.737427 44.0
487.906433 80.0
488.085144 84.0
488.375397 44.0
488.489777 72.0
488.533752 52.0
488.665741 48.0
488.832947 108.0
489.097015 92.0
489.141052 72.0
489.277527 48.0
489.343567 40.0
489.471252 100.0
489.828003 72.0
490.109955 96.0
490.220123 40.0
490.45813 68.0
490.585968 108.0
490.731445 64.0
490.797577 28.0
490.899017 56.0
491.212158 64.0
491.631317 60.0
491.730225 68.0
491.790222 40.0
491.834351 40.0
491.957947 88.0
492.072723 64.0
492.527618 72.0
492.668976 44.0
492.832428 60.0
492.863373 76.0
492.951752 156.0
493.192322 52.0
493.269958 36.0
493.464508 112.0
493.535248 84.0
493.617432 108.0
493.742401 52.0
493.827118 40.0
493.906738 80.0
494.468658 76.0
494.632416 168.0
494.725403 64.0
494.784912 108.0
494.911346 164.0
495.230194 108.0
495.436188 48.0
495.491577 76.0
495.721985 96.0
495.970184 96.0
496.205139 92.0
496.284943 64.0
496.552917 80.0
497.065643 76.0
497.123322 40.0
497.207642 36.0
497.336365 72.0
497.509491 96.0
497.549438 52.0
497.664886 76.0
497.735931 104.0
497.775879 64.0
497.944641 40.0
497.975739 76.0
498.046814 72.0
498.122314 88.0
498.415558 44.0
498.504425 84.0
498.562195 100.0
498.96225 132.0
499.575989 76.0
499.624908 96.0
500.234589 96.0
500.305817 84.0
500.408234 40.0
500.59079 36.0
500.662048 56.0
500.764496 72.0
500.844666 84.0
500.996124 48.0
501.067383 68.0
501.16095 32.0
501.303558 76.0
501.361481 40.0
501.437256 44.0
501.731476 60.0
501.762665 52.0
501.883057 72.0
502.052521 92.0
502.15509 36.0
502.239838 48.0
502.400421 132.0
502.623505 60.0
502.69046 84.0
502.770782 60.0
503.051971 104.0
503.123413 60.0
503.154663 108.0
503.203766 52.0
503.744171 52.0
503.802246 40.0
504.195435 36.0
504.226715 76.0
504.383179 48.0
504.655884 28.0
504.825806 76.0
504.968903 64.0
505.107574 112.0
505.232849 76.0
505.277588 64.0
505.331268 84.0
505.43866 88.0
505.702698 160.0
505.751923 104.0
505.783264 56.0
506.02005 76.0
506.110077 52.0
506.419098 72.0
506.459412 28.0
506.504181 88.0
506.826752 56.0
507.068756 76.0
507.243561 80.0
507.319763 48.0
507.458771 64.0
507.56189 68.0
507.675568 88.0
507.721436 76.0
507.956573 28.0
508.017212 100.0
508.266144 76.0
508.503082 40.0
508.548859 44.0
508.688019 52.0
508.737396 44.0
508.836182 56.0
508.872101 56.0
508.993317 44.0
509.029236 100.0
509.065186 52.0
509.258301 116.0
509.369293 68.0
509.673248 76.0
509.797424 100.0
509.860352 52.0
509.891815 32.0
510.210968 32.0
510.534698 96.0
510.737091 68.0
510.786591 84.0
510.818085 64.0
510.926025 124.0
511.313019 32.0
511.353516 64.0
511.430054 28.0
511.497559 48.0
511.91629 120.0
511.983826 68.0
512.195557 88.0
512.35321 84.0
512.542419 112.0
512.623535 100.0
512.686646 104.0
512.993164 40.0
513.119385 68.0
513.21405 68.0
513.281677 96.0
513.562439 60.0
513.746277 68.0
513.931213 120.0
514.256165 64.0
514.319336 84.0
514.45929 48.0
514.540527 40.0
514.703125 60.0
514.978577 64.0
515.048645 80.0
515.172852 80.0
515.421326 68.0
515.692505 36.0
515.841675 132.0
515.873291 60.0
516.013428 116.0
516.24408 44.0
516.40686 80.0
516.619446 84.0
516.656494 108.0
516.845703 80.0
516.963318 36.0
517.035767 52.0
517.090088 64.0
517.275635 160.0
517.617798 84.0
518.360901 52.0
518.56311 88.0
519.192261 44.0
519.643127 72.0
519.781982 56.0
519.84552 76.0
520.08606 36.0
520.47168 64.0
520.798096 84.0
521.41687 92.0
521.812378 44.0
521.87146 96.0
521.980591 44.0
522.167053 44.0
522.312622 52.0
522.433533 44.0
522.60675 128.0
523.013367 56.0
523.058899 72.0
523.322937 72.0
523.550598 60.0
523.719116 40.0
523.787476 40.0
524.001587 128.0
524.088135 104.0
524.233948 68.0
524.370667 28.0
524.680664 76.0
524.717163 104.0
524.762756 60.0
524.920654 88.0
525.069946 76.0
525.13208 32.0
525.944275 76.0
526.104065 52.0
526.496765 44.0
526.551392 104.0
526.679443 100.0
526.839355 60.0
526.907837 56.0
526.971802 72.0
527.063232 36.0
527.396851 56.0
527.45166 112.0
527.684814 76.0
527.977478 72.0
528.277466 76.0
528.343445 36.0
528.382141 104.0
528.471558 68.0
528.572205 92.0
528.782715 80.0
529.080261 60.0
529.115234 128.0
529.423645 52.0
529.739685 128.0
529.883911 92.0
530.326233 56.0
530.3797 72.0
530.587524 28.0
530.619629 68.0
530.766357 48.0
531.536987 72.0
531.775635 56.0
532.459717 52.0
532.551575 76.0
532.597534 76.0
532.643494 88.0
532.712402 76.0
532.744507 76.0
532.882385 32.0
533.015625 56.0
533.640747 108.0
533.696899 56.0
533.755676 100.0
534.114441 44.0
534.201843 64.0
534.338074 104.0
534.46405 48.0
534.703369 140.0
534.942749 92.0
535.085449 84.0
535.269592 36.0
535.42157 36.0
535.696228 108.0
536.158752 68.0
536.200195 76.0
536.239136 100.0
536.444519 56.0
536.536682 84.0
536.762634 40.0
536.854858 36.0
537.043945 76.0
537.355652 100.0
537.497192 68.0
537.61145 32.0
537.666809 124.0
538.105347 116.0
538.169983 60.0
538.299316 108.0
538.400879 108.0
538.576416 92.0
538.643616 132.0
538.691895 104.0
539.019897 92.0
539.192932 100.0
539.255615 112.0
539.398926 88.0
539.435913 32.0
539.754883 44.0
539.930664 92.0
539.990784 44.0
540.064758 48.0
540.124878 116.0
540.888428 52.0
541.175476 68.0
541.277344 52.0
541.532043 88.0
541.712708 96.0
542.041626 48.0
542.09259 100.0
542.250183 68.0
542.2854 100.0
542.421692 100.0
542.546875 52.0
542.746216 52.0
542.783325 76.0
542.864136 56.0
542.908508 96.0
542.978088 104.0
543.125305 76.0
543.325989 64.0
543.511597 72.0
543.590454 80.0
543.82251 36.0
543.947876 60.0
544.023438 100.0
544.052734 68.0
544.161438 52.0
544.221741 80.0
544.635071 76.0
544.718689 56.0
544.960266 84.0
545.211243 48.0
545.560059 84.0
545.624939 136.0
545.666748 60.0
545.88916 48.0
546.001221 108.0
546.122498 52.0
546.229492 104.0
546.44812 52.0
546.643555 48.0
546.718018 32.0
546.769226 112.0
547.421021 56.0
547.579346 84.0
547.760986 92.0
548.432007 60.0
548.599792 60.0
548.71167 88.0
548.926208 60.0
549.014771 104.0
549.154724 36.0
549.327271 112.0
549.392639 84.0
549.46405 64.0
549.565247 64.0
549.740662 52.0
549.803223 52.0
550.045959 80.0
550.128723 60.0
550.27002 84.0
550.685608 68.0
550.783752 88.0
551.003296 100.0
551.045349 128.0
551.120117 40.0
551.208862 60.0
551.536011 96.0
551.615479 148.0
551.783813 80.0
551.900696 84.0
552.251465 52.0
552.307556 60.0
552.344971 68.0
552.681824 28.0
552.770752 104.0
553.309021 76.0
553.575256 80.0
553.598999 52.0
553.997437 104.0
554.40979 40.0
554.58844 72.0
554.665771 100.0
555.087219 80.0
555.122375 64.0
555.49292 84.0
555.840088 44.0
555.872925 36.0
556.009033 52.0
556.065369 92.0
556.220276 124.0
556.426819 48.0
556.581787 92.0
556.629272 68.0
556.835327 52.0
557.300415 64.0
557.342712 140.0
557.643494 44.0
557.793884 60.0
557.88324 60.0
558.221741 72.0
558.348694 88.0
558.44281 56.0
558.673279 112.0
558.739136 36.0
558.918701 76.0
558.997925 96.0
559.184082 124.0
559.369751 108.0
559.539246 40.0
559.609863 92.0
559.915955 64.0
559.981873 76.0
560.174988 64.0
560.292786 88.0
560.389587 104.0
560.485962 92.0
560.971436 40.0
561.556152 64.0
561.694153 136.0
561.859619 48.0
561.938232 52.0
562.098694 44.0
562.339355 112.0
562.386536 64.0
563.149902 36.0
563.307312 56.0
563.406555 32.0
563.482117 88.0
563.959412 76.0
564.016174 76.0
564.153259 64.0
564.540955 96.0
564.730164 72.0
565.118042 36.0
565.263245 92.0
565.302612 112.0
565.506104 40.0
565.752258 48.0
566.093201 64.0
566.145264 96.0
566.434204 124.0
566.708984 84.0
566.839661 76.0
567.102295 76.0
567.704407 72.0
567.751831 56.0
567.84668 48.0
567.965271 56.0
568.16925 44.0
568.240417 88.0
568.378052 72.0
568.487183 84.0
568.805176 32.0
568.995056 76.0
569.41272 88.0
569.476562 92.0
569.807251 96.0
570.144592 56.0
570.322388 88.0
570.653259 48.0
570.772095 88.0
570.924255 96.0
571.066956 60.0
571.124023 32.0
571.266724 68.0
571.58075 60.0
571.733032 72.0
571.772766 160.0
571.880615 48.0
572.151917 96.0
572.218567 48.0
572.504272 84.0
572.699585 72.0
572.823425 92.0
573.109253 112.0
573.314148 48.0
573.474243 68.0
573.514343 108.0
573.619202 76.0
573.757446 72.0
573.94342 36.0
574.668457 48.0
574.778198 92.0
574.835449 124.0
575.117004 64.0
575.198181 92.0
575.470276 92.0
575.618347 88.0
575.651733 144.0
576.129395 72.0
576.229736 36.0
576.263184 36.0
576.564209 76.0
576.831848 104.0
577.05658 76.0
577.176086 88.0
577.802673 60.0
577.874451 36.0
577.99884 76.0
578.520569 96.0
578.552246 72.0
578.678528 32.0
578.759949 72.0
579.123901 76.0
579.219727 88.0
579.416138 32.0
579.620544 72.0
580.053528 48.0
580.184937 116.0
580.614502 72.0
580.744019 32.0
580.921509 100.0
580.988647 56.0
581.583679 40.0
581.8573 68.0
582.044556 32.0
582.246277 112.0
582.388062 48.0
582.48645 68.0
582.721863 76.0
583.245667 104.0
583.404297 104.0
583.683167 68.0
583.976501 72.0
584.12085 36.0
584.298828 44.0
584.457581 56.0
585.213318 80.0
585.418152 112.0
585.646729 84.0
585.709351 76.0
585.79126 88.0
585.92157 80.0
585.959839 108.0
586.094788 44.0
586.549744 80.0
586.730957 80.0
586.783997 112.0
587.671509 68.0
587.796936 56.0
587.96582 120.0
588.144409 44.0
588.273865 88.0
588.327881 84.0
588.443726 40.0
588.516174 56.0
588.757629 60.0
589.182678 108.0
589.231018 72.0
589.462952 72.0
589.801208 76.0
590.090393 88.0
590.932861 128.0
591.073181 44.0
591.131287 36.0
591.17157 48.0
591.532959 108.0
591.842834 32.0
591.963928 52.0
592.162476 80.0
592.317444 108.0
592.535461 84.0
592.675964 80.0
592.86499 48.0
593.260681 112.0
593.330322 36.0
593.422424 84.0
593.45636 76.0
593.774536 96.0
593.912231 84.0
594.432556 96.0
594.892456 112.0
595.062378 40.0
595.377991 72.0
595.58197 48.0
595.829773 56.0
595.990906 72.0
596.077576 76.0
596.18866 60.0
596.558716 48.0
596.62677 40.0
596.660828 60.0
596.971985 108.0
597.02063 68.0
597.132507 104.0
597.52655 80.0
597.589783 48.0
597.935303 56.0
597.983948 44.0
598.378235 44.0
598.465881 52.0
598.685059 64.0
598.743469 40.0
599.040588 80.0
599.157532 60.0
599.410889 36.0
599.488831 36.0
599.639954 64.0
599.800781 60.0
600.205444 32.0
600.346863 48.0
600.727295 140.0
601.229858 76.0
601.288452 64.0
601.395813 40.0
601.449524 108.0
601.615479 48.0
601.722107 96.0
601.898682 88.0
602.308899 84.0
602.377319 48.0
602.470154 80.0
602.53363 76.0
602.655762 128.0
603.115173 32.0
603.193359 104.0
603.514038 88.0
603.62854 56.0
603.91217 80.0
604.039368 36.0
604.137207 80.0
604.271912 112.0
604.543335 52.0
604.621643 28.0
604.695007 88.0
604.729309 72.0
605.081726 96.0
605.155212 72.0
605.483276 64.0
605.747803 76.0
606.080933 56.0
606.219238 108.0
606.497498 52.0
606.615173 72.0
606.776917 60.0
607.002502 80.0
607.2771 48.0
607.488037 88.0
607.792236 64.0
607.880554 40.0
608.057251 64.0
608.307556 80.0
608.376282 96.0
608.813293 40.0
608.975403 124.0
609.437195 100.0
609.529724 96.0
609.9729 56.0
610.044739 64.0
610.233459 104.0
610.312073 92.0
610.390808 104.0
610.444885 100.0
610.685852 52.0
610.948425 128.0
611.05481 72.0
611.177795 112.0
611.665039 72.0
612.024475 40.0
612.277405 76.0
612.462769 72.0
612.664734 56.0
612.871643 56.0
613.125427 104.0
613.236328 76.0
613.270874 52.0
613.325073 80.0
613.443359 96.0
613.645508 116.0
614.345825 44.0
614.392517 80.0
614.498779 56.0
614.844177 32.0
614.878723 64.0
615.120605 68.0
615.568481 112.0
615.747681 68.0
615.93042 88.0
616.700439 72.0
616.889099 140.0
617.067078 52.0
617.101685 76.0
617.156067 44.0
617.2995 48.0
617.423096 40.0
617.885925 64.0
618.031616 40.0
618.345154 140.0
618.585876 104.0
618.68988 64.0
618.783936 72.0
618.957214 44.0
619.041382 96.0
619.645691 44.0
620.032227 56.0
620.171021 40.0
620.403992 132.0
620.637024 104.0
620.820496 44.0
621.029114 132.0
621.342407 56.0
621.614197 84.0
621.778015 136.0
621.86731 28.0
622.075806 52.0
622.170166 72.0
622.378662 32.0
622.492859 140.0
623.193298 48.0
623.362244 76.0
623.421875 40.0
623.869202 68.0
624.078003 60.0
624.356506 60.0
624.510681 32.0
624.926086 72.0
625.107666 52.0
625.286865 60.0
625.341614 40.0
625.466064 40.0
625.605408 92.0
625.864319 56.0
626.159607 84.0
626.237793 88.0
626.396301 84.0
626.497437 72.0
626.941956 96.0
627.159607 36.0
627.264282 112.0
627.747925 88.0
628.052124 36.0
628.850464 84.0
629.159973 68.0
629.392822 108.0
630.068909 80.0
630.298767 76.0
630.348755 44.0
630.428711 56.0
630.641846 80.0
631.274841 124.0
631.529724 72.0
632.128967 60.0
632.384216 88.0
632.904846 48.0
633.0 72.0
633.187683 136.0
633.510864 32.0
633.681213 80.0
634.062073 72.0
634.107178 72.0
634.839172 72.0
634.934448 76.0
634.989624 28.0
635.069885 32.0
635.385864 56.0
635.63678 72.0
635.782288 48.0
636.203918 96.0
636.249146 60.0
636.85675 48.0
636.937134 88.0
637.313904 28.0
637.57019 60.0
637.65564 68.0
638.042664 48.0
638.113098 88.0
638.530457 104.0
638.839783 104.0
639.295166 68.0
639.34552 104.0
639.587097 68.0
639.652527 52.0
640.080444 64.0
640.135864 92.0
640.216431 48.0
640.342346 76.0
640.377625 80.0
640.417908 128.0
640.493469 68.0
640.612427 104.0
640.760437 60.0
641.652527 60.0
642.035767 76.0
642.096313 64.0
642.620911 44.0
642.681458 40.0
642.863098 108.0
643.115479 80.0
643.264404 68.0
643.448669 88.0
643.660706 64.0
643.696045 36.0
643.731445 76.0
643.786987 104.0
644.165771 56.0
644.403259 80.0
644.504272 92.0
644.888367 112.0
644.994507 76.0
645.62146 64.0
645.894592 52.0
646.066589 40.0
646.370178 80.0
646.871216 116.0
646.967407 72.0
647.190186 44.0
647.276245 56.0
647.342102 72.0
647.448425 44.0
647.488953 52.0
647.55481 148.0
647.605469 124.0
647.740295 52.0
648.248901 76.0
648.329956 32.0
648.436401 92.0
648.923035 96.0
649.257751 88.0
649.470764 76.0
649.506287 64.0
649.724365 52.0
649.917175 104.0
650.074524 60.0
650.145569 72.0
650.267334 88.0
650.409485 116.0
650.648071 64.0
650.971008 84.0
651.051758 72.0
651.08728 72.0
651.176208 60.0
651.25238 52.0
651.38446 60.0
651.679077 88.0
651.831543 40.0
651.953491 96.0
652.052795 96.0
652.197449 116.0
652.234863 108.0
652.563477 48.0
652.812683 32.0
653.112732 88.0
653.509521 112.0
653.560425 64.0
653.66217 128.0
654.048035 108.0
654.106873 108.0
654.400269 64.0
654.512268 48.0
654.665039 64.0
654.950256 56.0
655.156921 112.0
655.40155 76.0
655.622803 60.0
655.765503 88.0
655.942322 88.0
656.142761 80.0
656.451721 88.0
657.249573 120.0
657.468994 52.0
657.596558 68.0
657.851807 84.0
658.093018 64.0
658.163269 72.0
658.229614 60.0
658.806824 56.0
659.731812 100.0
659.793152 52.0
659.972107 56.0
660.416992 76.0
660.64209 52.0
661.220276 80.0
661.445496 56.0
661.558167 60.0
661.607971 92.0
661.686157 108.0
662.572144 124.0
662.638794 64.0
662.695129 80.0
662.853943 136.0
663.279358 40.0
663.42804 56.0
663.717346 112.0
664.063904 72.0
664.115173 92.0
664.151062 48.0
664.284424 72.0
664.361389 48.0
664.417847 68.0
664.525574 104.0
664.623047 76.0
664.956604 44.0
665.12085 64.0
665.413513 68.0
667.01825 132.0
667.324829 76.0
667.591187 60.0
667.607605 48.0
668.070557 84.0
668.343872 68.0
668.446167 68.0
668.590271 40.0
668.940247 36.0
669.377869 60.0
669.701904 88.0
670.908203 36.0
670.970032 76.0
671.026733 60.0
671.145325 52.0
671.31189 40.0
671.511475 68.0
671.784851 96.0
671.826172 72.0
671.948059 76.0
672.05835 64.0
672.109924 60.0
672.50293 80.0
672.538269 108.0
672.608826 96.0
673.328247 40.0
673.746643 68.0
673.984314 40.0
674.188293 92.0
674.335754 48.0
674.552856 92.0
674.588989 64.0
675.09314 96.0
675.493958 92.0
675.581909 100.0
676.684326 68.0
677.155518 52.0
677.383423 96.0
677.507751 160.0
678.417847 92.0
678.658386 40.0
679.119934 76.0
679.177002 104.0
679.768433 100.0
680.110962 108.0
680.988464 108.0
681.107971 56.0
681.1651 52.0
681.388489 96.0
681.824036 108.0
681.939331 52.0
682.010193 100.0
682.635986 100.0
682.6828 44.0
682.833618 40.0
682.976501 92.0
683.015625 80.0
683.514832 72.0
683.533142 68.0
683.557922 36.0
683.634766 80.0
684.202148 84.0
684.571838 72.0
684.905151 56.0
684.978088 52.0
685.603333 44.0
686.599121 36.0
686.737061 60.0
687.350342 76.0
687.523926 104.0
687.569519 92.0
687.7052 100.0
687.814819 88.0
687.908813 88.0
688.070618 120.0
688.817444 60.0
688.989807 32.0
689.172668 44.0
689.601196 48.0
690.082153 72.0
690.181519 56.0
690.233826 112.0
690.369751 88.0
691.018372 40.0
691.31665 32.0
692.232788 68.0
692.405579 52.0
692.562744 32.0
692.656982 64.0
693.222839 52.0
693.348633 76.0
693.663147 68.0
693.773193 96.0
693.872803 108.0
694.166443 64.0
694.279236 152.0
694.339539 60.0
694.48114 60.0
695.294373 44.0
695.346863 32.0
695.698547 56.0
696.626648 44.0
697.048401 48.0
697.164001 48.0
697.279663 64.0
697.455505 88.0
697.952515 52.0
698.041931 76.0
698.210205 60.0
698.473206 112.0
698.709961 68.0
698.915161 68.0
699.036194 60.0
699.746765 92.0
700.194336 80.0
701.06366 44.0
702.0495 56.0
702.13385 40.0
702.239319 60.0
702.281555 88.0
702.418701 40.0
702.72467 112.0
702.819641 84.0
702.856567 52.0
702.93573 92.0
703.199585 56.0
703.330139 104.0
703.458252 40.0
703.526917 96.0
703.822571 56.0
703.959839 96.0
704.245056 44.0
704.440491 68.0
704.894897 108.0
705.201416 112.0
705.243713 44.0
705.29126 88.0
705.391724 128.0
705.661316 84.0
705.703613 144.0
705.740662 112.0
705.986633 76.0
706.042053 120.0
706.089661 96.0
706.200745 40.0
706.317078 56.0
706.555176 36.0
706.798523 44.0
707.006897 172.0
707.079041 32.0
707.280151 48.0
707.984314 72.0
708.206116 96.0
708.545837 28.0
708.985596 120.0
709.107544 92.0
709.234741 92.0
709.812622 68.0
709.9823 68.0
710.247498 76.0
710.523376 72.0
710.57782 76.0
711.306702 80.0
711.452087 48.0
711.744141 52.0
712.174316 36.0
712.489746 52.0
712.567444 52.0
712.84375 36.0
712.950012 96.0
713.120056 60.0
713.412415 76.0
713.742065 88.0
713.928223 108.0
714.007996 36.0
714.109009 48.0
714.518616 84.0
714.58252 72.0
714.891113 88.0
715.056091 36.0
715.096313 60.0
715.359497 56.0
715.492615 40.0
715.76416 64.0
716.119995 68.0
716.371338 60.0
716.781555 76.0
716.877502 68.0
717.053345 160.0
717.11731 88.0
717.431824 64.0
717.842407 88.0
717.997009 72.0
718.215698 116.0
718.514465 40.0
718.856689 56.0
719.448425 28.0
719.485779 156.0
719.560547 48.0
719.902283 44.0
720.146667 68.0
720.602051 76.0
720.666138 52.0
720.960022 56.0
721.254028 92.0
721.842102 68.0
722.168335 48.0
722.232544 128.0
722.288452 88.0
722.628418 104.0
722.746155 96.0
722.815674 60.0
723.051147 84.0
723.195679 56.0
723.784546 56.0
723.838135 80.0
723.891663 112.0
724.036255 64.0
724.293335 84.0
724.620178 32.0
724.88269 108.0
725.24176 44.0
725.483032 28.0
725.541992 44.0
725.627747 36.0
725.676025 44.0
725.751099 104.0
725.852966 60.0
726.067505 52.0
726.142578 56.0
726.221497 112.0
726.37323 52.0
726.523438 76.0
726.743408 76.0
727.280029 28.0
727.543091 100.0
728.278809 56.0
728.552734 44.0
729.030945 60.0
729.073059 24.0
729.595337 72.0
729.842651 96.0
729.920898 140.0
730.036255 32.0
730.219116 92.0
730.401978 44.0
731.144531 84.0
731.607422 60.0
731.812012 60.0
731.919678 116.0
732.065063 96.0
732.140503 52.0
732.474426 60.0
733.420227 52.0
733.713928 140.0
734.976013 104.0
735.477905 96.0
735.742432 60.0
735.801575 80.0
735.9422 64.0
736.120422 52.0
736.487671 108.0
736.871216 40.0
737.092773 108.0
737.206238 56.0
737.24408 40.0
737.800781 112.0
738.044128 84.0
738.255005 52.0
738.357788 32.0
738.590332 56.0
738.955322 136.0
739.347839 76.0
739.445251 32.0
739.569702 104.0
739.883728 40.0
740.233093 72.0
740.582275 136.0
740.696045 72.0
740.977722 56.0
741.210693 48.0
741.514221 40.0
741.969543 108.0
742.848083 64.0
742.940308 48.0
743.710876 48.0
744.318909 32.0
744.356934 60.0
744.557861 68.0
744.813171 56.0
745.052185 60.0
745.108459 156.0
745.253235 80.0
745.568359 88.0
746.186096 152.0
746.389282 76.0
746.612244 68.0
746.829773 88.0
747.384705 56.0
747.798279 60.0
748.331787 100.0
748.658508 132.0
748.865479 56.0
750.231079 72.0
750.268372 80.0
750.418579 72.0
750.609436 48.0
750.963928 108.0
751.111145 64.0
751.394836 100.0
751.656738 64.0
752.109741 44.0
752.420898 56.0
752.622925 32.0
753.453125 72.0
753.972229 80.0
754.358826 88.0
754.461975 120.0
754.726624 84.0
755.043823 28.0
755.202393 60.0
755.557129 104.0
755.747375 52.0
755.913635 96.0
756.395264 56.0
756.510254 44.0
756.740173 60.0
756.959229 72.0
756.997559 76.0
757.227539 52.0
758.24115 72.0
758.509705 68.0
758.663208 28.0
758.745483 100.0
758.981201 48.0
759.05249 76.0
759.502258 36.0
759.798462 48.0
760.028931 56.0
760.237427 132.0
760.38562 88.0
760.682007 120.0
760.75885 96.0
760.824768 60.0
761.275024 72.0
761.37384 52.0
761.450745 40.0
761.868225 104.0
762.17041 48.0
762.435669 60.0
762.856934 88.0
763.170776 92.0
763.264282 88.0
764.364441 52.0
764.557068 48.0
764.595581 132.0
764.738647 92.0
765.082825 92.0
765.195557 60.0
765.514954 84.0
765.5755 52.0
766.005127 88.0
766.109802 108.0
766.396301 104.0
766.445923 52.0
766.666321 68.0
766.721436 28.0
767.167908 56.0
767.245972 76.0
767.950928 68.0
768.099854 60.0
768.177124 32.0
770.092529 64.0
770.219543 44.0
770.262878 52.0
770.871521 48.0
771.142273 104.0
771.252869 64.0
771.407654 68.0
771.656433 52.0
771.910767 108.0
772.342163 28.0
772.513611 64.0
773.48761 72.0
774.218445 84.0
775.753235 52.0
777.639221 32.0
777.827942 68.0
777.905701 64.0
778.577515 32.0
779.235413 84.0
779.30188 80.0
780.038818 44.0
780.572571 108.0
780.722717 108.0
780.889587 88.0
781.023071 60.0
781.941162 88.0
782.108154 76.0
782.759521 56.0
783.026855 64.0
783.271912 28.0
783.338745 88.0
783.884766 80.0
785.144714 80.0
785.278564 72.0
785.464355 180.0
785.881042 48.0
786.054016 104.0
786.277222 112.0
786.467041 68.0
786.600952 48.0
786.673523 144.0
787.80719 60.0
788.092163 68.0
788.220642 88.0
788.539185 48.0
788.617432 44.0
788.69574 76.0
789.663025 68.0
790.244812 160.0
790.39032 64.0
790.857056 72.0
790.977966 80.0
791.145874 80.0
791.336243 108.0
791.935425 28.0
792.1651 92.0
792.293945 100.0
792.686157 44.0
793.020569 72.0
793.655945 84.0
793.801758 116.0
793.880249 28.0
794.104553 112.0
794.256042 88.0
795.22113 108.0
795.754395 28.0
796.506958 80.0
796.596863 36.0
796.976135 64.0
797.063171 60.0
797.355408 48.0
797.557739 112.0
797.608337 88.0
797.928772 28.0
798.204285 76.0
798.350525 32.0
799.019897 92.0
799.175354 76.0
799.959717 44.0
800.252441 40.0
800.39325 64.0
800.443909 40.0
802.872803 36.0
803.23938 80.0
803.91333 100.0
804.091431 92.0
804.17041 92.0
804.313843 80.0
804.413147 44.0
804.898682 96.0
805.542542 56.0
805.932373 40.0
806.051086 116.0
806.766846 64.0
806.876282 132.0
807.034607 184.0
808.929932 88.0
809.558411 88.0
809.677307 44.0
811.076843 112.0
811.428284 116.0
811.50769 96.0
811.77417 88.0
812.001038 96.0
812.290283 44.0
812.738525 72.0
813.499023 84.0
814.152039 92.0
814.600708 44.0
815.072327 44.0
815.549683 88.0
815.845276 56.0
816.294495 28.0
816.652771 124.0
817.671204 84.0
817.984253 40.0
818.149353 92.0
818.539856 48.0
818.695984 92.0
819.202942 28.0
819.909485 72.0
820.154541 36.0
821.871155 64.0
821.945374 52.0
822.065186 144.0
822.643677 92.0
822.784363 84.0
823.001343 44.0
823.149841 48.0
823.269714 116.0
824.160889 32.0
824.675232 48.0
824.852417 28.0
825.178284 72.0
825.532776 36.0
826.144836 52.0
826.510986 36.0
826.714722 92.0
827.232117 84.0
827.464966 48.0
827.615295 52.0
828.028015 76.0
828.388916 48.0
828.492004 52.0
828.532104 32.0
828.681091 68.0
828.738403 36.0
828.92749 104.0
829.25415 52.0
829.345886 72.0
829.56366 124.0
830.223083 52.0
830.493164 128.0
830.5672 160.0
830.768005 52.0
831.955933 76.0
832.846008 116.0
833.805542 92.0
834.368835 52.0
834.639099 36.0
834.719604 64.0
835.15094 92.0
835.242981 64.0
835.818298 68.0
836.554993 68.0
836.63562 48.0
836.779541 68.0
837.050171 100.0
837.384216 40.0
837.712524 36.0
837.784851 100.0
837.856567 36.0
839.130249 48.0
839.314758 108.0
839.787659 40.0
839.891479 48.0
840.503052 64.0
840.676147 92.0
840.785828 64.0
841.894287 76.0
842.19458 56.0
842.402527 40.0
842.460327 44.0
843.165283 68.0
843.223083 36.0
843.500488 96.0
844.396729 84.0
844.633911 68.0
844.753784 72.0
844.824768 76.0
845.717773 76.0
845.959045 64.0
846.115356 48.0
846.549683 48.0
846.59021 76.0
847.227356 28.0
847.499634 48.0
847.766235 68.0
848.809692 116.0
848.943054 64.0
849.059021 100.0
849.372253 44.0
849.679688 76.0
849.952393 52.0
850.039429 52.0
850.120728 112.0
850.474731 56.0
850.59082 44.0
850.643066 60.0
850.956604 172.0
851.845154 100.0
852.019409 88.0
852.29248 68.0
852.402893 40.0
852.608948 80.0
853.268982 48.0
854.798767 72.0
854.920959 80.0
855.287598 80.0
855.485535 48.0
855.805786 56.0
855.88147 64.0
856.54541 60.0
857.600098 72.0
857.955688 52.0
858.815002 76.0
858.906189 80.0
859.116211 76.0
859.571289 28.0
860.283386 64.0
860.651184 92.0
860.715454 52.0
861.842773 92.0
862.269409 56.0
862.731201 88.0
862.789673 40.0
863.497192 40.0
864.292786 64.0
864.42157 80.0
865.030273 72.0
865.293701 68.0
865.586487 32.0
866.621582 84.0
867.051025 44.0
868.25293 56.0
868.886414 64.0
869.027222 48.0
869.103516 56.0
869.502563 56.0
870.030823 84.0
870.336182 60.0
871.185364 68.0
871.463928 92.0
871.646057 40.0
871.828247 72.0
871.975159 104.0
872.080994 64.0
872.451294 116.0
872.504211 72.0
872.768799 96.0
873.098145 48.0
873.251038 56.0
873.356934 36.0
873.592224 96.0
873.856934 52.0
874.057007 56.0
874.139404 60.0
874.480713 68.0
874.669067 72.0
874.833923 44.0
874.96936 40.0
875.210754 72.0
875.458069 64.0
876.300415 56.0
877.384827 112.0
877.614807 76.0
878.133728 76.0
878.818054 76.0
879.549866 64.0
880.707214 56.0
880.943481 56.0
881.45752 60.0
881.528442 92.0
881.776672 44.0
882.261353 112.0
882.539246 112.0
882.622009 56.0
882.786011 44.0
883.085754 64.0
883.160217 40.0
884.219299 40.0
884.775757 140.0
884.82312 48.0
885.485046 76.0
885.551453 88.0
885.817993 36.0
886.754211 56.0
887.578247 116.0
887.791748 64.0
888.01123 100.0
888.076416 80.0
888.373047 68.0
888.600769 108.0
889.079163 60.0
889.23938 48.0
889.316528 88.0
889.429321 68.0
889.60144 40.0
889.886414 36.0
890.860474 80.0
891.068359 64.0
891.370178 96.0
891.484314 112.0
891.793396 44.0
891.995483 64.0
892.613831 36.0
893.0896 64.0
893.202637 68.0
893.845154 40.0
894.124878 76.0
895.017822 96.0
895.208374 84.0
895.571655 104.0
895.798035 56.0
896.089966 100.0
896.739502 60.0
898.355469 36.0
898.46283 52.0
898.617981 108.0
899.644531 92.0
900.199768 68.0
900.629822 60.0
900.785095 84.0
900.832886 100.0
901.161499 64.0
902.237305 88.0
902.356873 56.0
902.817322 48.0
903.218079 84.0
903.445374 80.0
903.672729 32.0
904.2771 72.0
904.366882 68.0
904.459106 120.0
904.534485 120.0
904.702148 36.0
905.055359 44.0
905.21106 60.0
905.354797 200.0
905.486572 64.0
905.612305 48.0
906.582947 36.0
907.350159 36.0
907.506042 32.0
908.141724 48.0
910.236267 56.0
910.380371 52.0
911.149231 28.0
911.215332 80.0
912.261047 68.0
912.471497 84.0
913.547974 104.0
913.839355 112.0
914.883972 96.0
915.47406 60.0
915.6427 160.0
915.787231 76.0
916.850952 88.0
916.99231 144.0
917.920715 76.0
918.053406 32.0
918.421326 64.0
918.554016 88.0
919.169434 116.0
919.760864 68.0
920.123047 168.0
920.612183 128.0
920.859802 136.0
921.056396 132.0
921.161804 48.0
921.243347 120.0
921.42157 80.0
921.627014 76.0
921.723694 40.0
922.400635 40.0
922.847961 72.0
922.993103 40.0
923.349915 76.0
923.706787 56.0
924.396545 48.0
924.505432 72.0
924.590149 68.0
925.286316 32.0
926.224976 96.0
926.673279 56.0
927.200439 52.0
927.24292 108.0
927.685364 68.0
928.285645 44.0
929.140869 56.0
929.310791 92.0
929.687012 48.0
930.026855 72.0
930.306091 40.0
931.235168 68.0
932.675232 100.0
932.985229 112.0
933.593323 76.0
933.976501 112.0
934.134644 28.0
934.323242 92.0
934.572937 108.0
935.796082 80.0
935.863098 148.0
936.01532 40.0
936.084717 68.0
936.344177 108.0
936.898499 84.0
937.172668 44.0
937.544373 32.0
937.806458 108.0
938.013672 52.0
938.489258 52.0
938.568481 44.0
939.483398 36.0
940.008118 88.0
940.264404 72.0
940.798279 96.0
941.064087 120.0
941.906921 72.0
942.695068 52.0
943.501892 84.0
943.587463 48.0
945.147217 116.0
945.422546 88.0
945.465393 148.0
946.016602 80.0
946.365295 84.0
947.437073 60.0
947.657654 44.0
947.915039 120.0
948.086609 120.0
949.780151 92.0
950.171448 68.0
950.643921 40.0
951.441895 48.0
952.651733 40.0
953.17395 60.0
953.684082 80.0
955.30127 28.0
955.76886 76.0
956.082703 56.0
956.464355 76.0
956.519714 84.0
957.498718 64.0
957.782104 76.0
957.979187 76.0
958.028503 56.0
958.170166 52.0
958.250305 52.0
958.663147 36.0
958.737061 100.0
958.872681 48.0
958.946655 68.0
959.840576 64.0
960.130371 48.0
960.518982 64.0
960.660828 80.0
961.296387 80.0
961.524719 48.0
961.629639 60.0
961.771606 60.0
961.987671 52.0
962.080261 56.0
962.716248 112.0
962.864441 36.0
963.074463 48.0
963.686035 44.0
964.372009 48.0
964.470947 180.0
966.926453 56.0
967.440186 32.0
968.022217 60.0
968.214172 52.0
968.815063 64.0
968.901794 104.0
969.3479 60.0
970.203247 56.0
970.333435 60.0
971.015564 84.0
971.573853 108.0
972.17572 56.0
973.709167 124.0
973.94519 40.0
974.609924 52.0
974.721802 108.0
975.299805 96.0
975.4552 64.0
975.548462 80.0
976.41272 68.0
976.792175 68.0
976.991211 100.0
977.190308 40.0
977.439209 40.0
978.167419 64.0
978.248352 36.0
978.524536 76.0
980.172852 48.0
980.316223 96.0
980.565491 56.0
982.111816 52.0
982.192871 36.0
982.629578 80.0
983.809143 64.0
983.89032 92.0
984.552185 60.0
985.170532 76.0
985.482971 32.0
985.632935 56.0
985.776611 60.0
985.826599 48.0
986.032837 44.0
986.164124 40.0
986.401672 88.0
987.727356 80.0
988.853638 84.0
988.974609 96.0
989.573547 68.0
990.086975 184.0
990.475342 48.0
990.59436 88.0
991.866455 64.0
992.5495 84.0
992.656433 40.0
992.882202 40.0
993.816895 124.0
993.973755 64.0
994.300049 92.0
994.431885 88.0
994.588806 80.0
994.996826 60.0
995.543152 64.0
996.102112 108.0
996.240356 96.0
996.786987 96.0
997.00061 88.0
997.340027 40.0
997.465759 100.0
997.566345 76.0
1000.33429 48.0
1001.637756 40.0
1001.776367 72.0
1002.078796 64.0
1002.204773 136.0
1002.324524 72.0
1003.074524 72.0
1003.616699 108.0
1004.531189 28.0
1005.452454 44.0
1006.172058 52.0
1006.273071 64.0
1007.725769 40.0
1008.111206 80.0
1008.332397 56.0
1008.673767 32.0
1008.86969 88.0
1009.091003 68.0
1009.299622 152.0
1009.502014 100.0
1009.622131 48.0
1009.92572 136.0
1010.242004 60.0
1011.281921 80.0
1012.50177 72.0
1012.881775 64.0
1013.223877 60.0
1013.863892 52.0
1014.111084 44.0
1014.491394 52.0
1014.852783 60.0
1015.188843 132.0
1015.386963 68.0
1016.375122 100.0
1016.774902 208.0
1017.777893 56.0
1017.936646 72.0
1018.266907 80.0
1018.400269 84.0
1018.482849 52.0
1018.736938 32.0
1019.130859 52.0
1019.721863 40.0
1020.567383 64.0
1021.22876 48.0
1022.762207 104.0
1023.755432 92.0
1024.443359 88.0
1024.953125 88.0
1026.259766 104.0
1026.757202 52.0
1026.993164 100.0
1027.350342 68.0
1027.46521 52.0
1028.741577 36.0
1029.30603 108.0
1029.641968 60.0
1029.890991 72.0
1030.702393 60.0
1031.130615 104.0
1031.456543 64.0
1031.814575 100.0
1031.942383 36.0
1032.946533 152.0
1033.176758 64.0
1033.266357 68.0
1034.277466 128.0
1035.026489 100.0
1035.205811 132.0
1035.353149 80.0
1036.179443 68.0
1036.942017 68.0
1037.512573 60.0
1039.959961 120.0
1040.129883 96.0
1040.592163 92.0
1040.95166 88.0
1041.536133 100.0
1041.976318 84.0
1042.140015 36.0
1043.393311 60.0
1043.88208 72.0
1044.608765 140.0
1044.653809 56.0
1045.380859 68.0
1045.84436 64.0
1047.396118 68.0
1048.201538 124.0
1048.446411 112.0
1049.587402 68.0
1050.516113 56.0
1050.870972 76.0
1051.161377 160.0
1051.729248 44.0
1053.62793 160.0
1054.564819 68.0
1054.810547 96.0
1056.220215 100.0
1056.666504 132.0
1057.095947 80.0
1057.171265 72.0
1057.702026 60.0
1058.692627 80.0
1059.171875 44.0
1059.405151 52.0
1059.450439 68.0
1059.726685 76.0
1060.506714 84.0
1061.706177 164.0
1061.887817 156.0
1062.024048 64.0
1062.173218 80.0
1062.309448 64.0
1062.724609 68.0
1062.925781 64.0
1063.302124 64.0
1063.444946 116.0
1064.25647 124.0
1064.451294 148.0
1064.808472 80.0
1065.224121 48.0
1067.225952 52.0
1067.505493 84.0
1067.759155 80.0
1068.742188 76.0
1068.865112 72.0
1070.818115 44.0
1071.033081 88.0
1071.251831 68.0
1071.43042 44.0
1071.586792 84.0
1071.717163 80.0
1071.821411 36.0
1072.471436 96.0
1072.609985 76.0
1074.391602 100.0
1074.592529 56.0
1076.576904 172.0
1077.988037 52.0
1078.282104 112.0
1078.419312 52.0
1079.236572 84.0
1079.713867 112.0
1081.114014 72.0
1081.775024 84.0
1081.820923 60.0
1082.462524 168.0
1082.521484 100.0
1083.418823 92.0
1083.582642 184.0
1083.667725 48.0
1083.9823 84.0
1084.480347 112.0
1084.670532 96.0
1085.253906 48.0
1086.788818 40.0
1087.517212 80.0
1088.541504 88.0
1088.942017 168.0
1089.552979 36.0
1089.605591 44.0
1089.763184 84.0
1090.584717 140.0
1090.716187 76.0
1091.728638 108.0
1091.958862 36.0
1092.432495 52.0
1092.689087 120.0
1092.853516 72.0
1093.248413 104.0
1093.439209 36.0
1093.52478 44.0
1093.900024 68.0
1095.039185 100.0
1095.289429 56.0
1095.882324 120.0
1096.541382 128.0
1096.620483 76.0
1096.914062 44.0
1097.200562 100.0
1097.569702 48.0
1097.646851 88.0
1097.767578 68.0
1097.813721 80.0
1098.255615 124.0
1099.185913 60.0
1099.535645 68.0
1099.925049 40.0
1101.496704 92.0
1102.018555 60.0
1102.428345 84.0
1102.487793 100.0
1102.659058 96.0
1102.877686 68.0
1103.585083 108.0
1104.233154 76.0
1104.286133 72.0
1104.967407 48.0
1105.040283 72.0
1105.256104 148.0
1105.56958 156.0
1105.927002 84.0
1106.396973 124.0
1106.688354 112.0
1110.697876 76.0
1111.109131 64.0
1111.321411 68.0
1111.666504 72.0
1111.772705 152.0
1112.655518 40.0
1113.253174 36.0
1113.299683 80.0
1114.103394 100.0
1114.834229 104.0
1115.552124 56.0
1115.61853 88.0
1115.804688 36.0
1116.403198 140.0
1116.582764 100.0
1117.633789 76.0
1118.019775 72.0
1118.432495 32.0
1118.512329 120.0
1118.865112 116.0
1119.371216 44.0
1119.92395 100.0
1121.049927 52.0
1122.036377 76.0
1122.543213 44.0
1122.676514 80.0
1123.259521 72.0
1123.697144 40.0
1124.36853 124.0
1124.925171 196.0
1125.072021 80.0
1125.966797 200.0
1126.300781 80.0
1126.527832 40.0
1128.031494 64.0
1128.145142 76.0
1129.817017 64.0
1129.970947 64.0
1130.159302 84.0
1130.512939 44.0
1130.727051 44.0
1131.758057 128.0
1132.139648 68.0
1132.521484 136.0
1133.559937 40.0
1133.653687 92.0
1134.974365 52.0
1135.765747 52.0
1136.047485 76.0
1136.71167 108.0
1137.208374 40.0
1137.752075 36.0
1138.873535 84.0
1139.101929 120.0
1139.216064 56.0
1140.042603 84.0
1140.728149 100.0
1140.875977 92.0
1141.064209 52.0
1142.019165 112.0
1142.187378 76.0
1142.234375 52.0
1142.301758 56.0
1142.395874 136.0
1142.490112 28.0
1142.537109 56.0
1142.91394 84.0
1143.458984 128.0
1143.539795 144.0
1144.542847 120.0
1145.418457 76.0
1145.539673 124.0
1145.714844 48.0
1146.065186 224.0
1146.119141 56.0
1146.419434 184.0
1147.271606 44.0
1147.406494 48.0
1147.602051 140.0
1147.689697 92.0
1147.763794 60.0
1147.811035 40.0
1147.898682 32.0
1148.02002 180.0
1148.222412 120.0
1148.350586 104.0
1148.559692 32.0
1149.065552 60.0
1149.632446 44.0
1149.807861 80.0
1150.219604 32.0
1150.287109 108.0
1150.671997 96.0
1151.070312 68.0
1151.394531 36.0
1151.570068 64.0
1152.394287 36.0
1152.897705 64.0
1153.556641 68.0
1154.232788 76.0
1154.591187 72.0
1154.86853 76.0
1155.423218 96.0
1155.484131 80.0
1156.824097 60.0
1156.973022 132.0
1157.372559 128.0
1158.042969 80.0
1158.611938 144.0
1159.106567 80.0
1161.506714 128.0
1161.839111 32.0
1162.069702 56.0
1162.164795 168.0
1162.531128 96.0
1163.114868 52.0
1163.705566 72.0
1163.861694 40.0
1163.990723 120.0
1164.309814 100.0
1165.592041 176.0
1165.668579 40.0
1165.770508 52.0
1166.22583 40.0
1166.882446 92.0
1167.150513 76.0
1167.504028 180.0
1169.276978 60.0
1169.701782 40.0
1171.492798 124.0
1172.882935 48.0
1173.462402 68.0
1174.23291 56.0
1175.003784 52.0
1175.331299 132.0
1175.495117 44.0
1175.918213 52.0
1175.972778 104.0
1177.659302 80.0
1177.768555 136.0
1178.362915 52.0
1178.578491 120.0
1178.971069 108.0
1179.500732 96.0
1179.627197 36.0
1180.21521 128.0
1180.618652 56.0
1181.521606 36.0
1183.157227 60.0
1183.314697 68.0
1183.842041 92.0
1184.013184 92.0
1184.074829 68.0
1184.19812 80.0
1184.376221 60.0
1184.842041 116.0
1184.919189 60.0
1185.040771 52.0
1185.465576 168.0
1185.541016 36.0
1185.705444 104.0
1186.356689 92.0
1187.021729 56.0
1188.76416 72.0
1190.816895 64.0
1191.338989 36.0
1191.462646 120.0
1191.586304 68.0
1192.087891 80.0
1193.029541 124.0
1193.167114 56.0
1193.25647 92.0
1193.833984 44.0
1193.923462 44.0
1194.349854 76.0
1194.422729 48.0
1195.691528 56.0
1196.386841 68.0
1196.786133 28.0
1196.937622 100.0
1197.178589 116.0
1198.032715 60.0
1198.101685 88.0
1198.528809 60.0
1198.832031 64.0
1199.136719 76.0
1199.397217 48.0
1199.624634 52.0
1199.728027 168.0
1199.796997 148.0
1199.990112 132.0
1201.576416 28.0
1202.162964 208.0
1203.122314 40.0
1203.216064 168.0
1203.509033 76.0
1204.089111 96.0
1204.261719 48.0
1204.317017 204.0
1204.814331 100.0
1204.876587 76.0
1205.104492 64.0
1205.491455 40.0
1206.894775 72.0
1207.109131 64.0
1207.268188 40.0
1208.178589 152.0
1209.253784 60.0
1209.357666 60.0
1209.565308 68.0
1209.821411 104.0
1210.506836 60.0
1210.589966 48.0
1210.763062 80.0
1210.880615 104.0
1211.040161 92.0
1211.213379 72.0
1211.282593 36.0
1211.400391 64.0
1211.552734 68.0
1211.774536 36.0
1212.411987 88.0
1212.772339 72.0
1214.138306 44.0
1214.318604 156.0
1214.374023 64.0
1215.275879 80.0
1215.643677 152.0
1216.532104 96.0
1216.816772 100.0
1217.427856 128.0
1218.004272 48.0
1218.430542 168.0
1219.310547 204.0
1219.426025 92.0
1219.692871 92.0
1221.264282 40.0
1221.37561 48.0
1221.424316 52.0
1221.679199 56.0
1221.980835 44.0
1222.050415 72.0
1222.328735 108.0
1222.558472 44.0
1223.247437 140.0
1223.372803 52.0
1224.124756 52.0
1224.382446 44.0
1225.127808 96.0
1225.2323 136.0
1225.336792 80.0
1226.207886 28.0
1226.542358 52.0
1226.960693 32.0
1227.148926 188.0
1227.964844 168.0
1229.932495 88.0
1230.155884 72.0
1230.616699 176.0
1231.126343 152.0
1232.020508 72.0
1232.297852 188.0
1233.446045 84.0
1234.215088 80.0
1234.431885 148.0
1234.564697 80.0
1234.788574 64.0
1234.872437 40.0
1235.26416 88.0
1235.411133 80.0
1235.620972 48.0
1235.886841 64.0
1237.223633 68.0
1238.021973 80.0
1238.918457 40.0
1239.345825 80.0
1240.018677 140.0
1240.239136 60.0
1240.663574 72.0
1240.712646 44.0
1240.808228 120.0
1240.929932 92.0
1241.028076 52.0
1241.077148 52.0
1242.016968 84.0
1242.486938 72.0
1243.160645 52.0
1243.39917 48.0
1244.733032 88.0
1244.915649 32.0
1244.99585 84.0
1245.266846 72.0
1245.744507 48.0
1246.243286 40.0
1246.426025 192.0
1246.538452 80.0
1246.826538 36.0
1247.416992 60.0
1247.951294 48.0
1248.373657 68.0
1248.816284 56.0
1249.66748 52.0
1250.128052 168.0
1250.157837 76.0
1250.17041 144.0
1250.441528 40.0
1250.900146 104.0
1251.096191 128.0
1251.2229 208.0
1251.32605 44.0
1252.603271 108.0
1252.758179 88.0
1252.906128 40.0
1253.089355 84.0
1254.787964 100.0
1255.034668 52.0
1255.164917 112.0
1256.741699 76.0
1257.172119 88.0
1257.835571 92.0
1258.075562 116.0
1258.753418 44.0
1259.127686 88.0
1259.819946 80.0
1260.752686 80.0
1261.134277 96.0
1261.381714 72.0
1261.60791 76.0
1261.798828 60.0
1262.131104 48.0
1262.399902 68.0
1263.871216 56.0
1264.224976 52.0
1264.317017 72.0
1264.904541 40.0
1265.067383 144.0
1265.74707 40.0
1266.497803 84.0
1266.979492 264.0
1268.304688 116.0
1268.963989 60.0
1269.580811 64.0
1269.673096 140.0
1270.155396 80.0
1270.822266 152.0
1271.212524 80.0
1271.460938 32.0
1272.078369 76.0
1273.065308 64.0
1273.796875 104.0
1274.734741 80.0
1274.912476 88.0
1275.011963 68.0
1275.196777 72.0
1275.559204 76.0
1277.50769 112.0
1277.727783 156.0
1278.212158 152.0
1278.482544 140.0
1278.935547 68.0
1279.208618 36.0
1279.272583 84.0
1280.333618 180.0
1280.960327 104.0
1281.067261 68.0
1281.430542 60.0
1281.608643 84.0
1281.918335 76.0
1282.684814 108.0
1283.276611 48.0
1283.682983 68.0
1284.324951 164.0
1284.543823 64.0
1284.660156 60.0
1285.402222 48.0
1285.823242 76.0
1286.203125 140.0
1286.315796 104.0
1286.451416 68.0
1286.529907 112.0
1287.051147 72.0
1287.129761 72.0
1287.45105 40.0
1287.729614 56.0
1287.815308 196.0
1288.079956 140.0
1288.536865 64.0
1288.843994 56.0
1289.179932 52.0
1290.488037 72.0
1291.753906 44.0
1293.084839 84.0
1293.464233 44.0
1293.693237 52.0
1294.767334 72.0
1294.841187 72.0
1294.917725 108.0
1294.98938 116.0
1295.258301 72.0
1296.379272 152.0
1296.529785 36.0
1296.794922 100.0
1297.404297 32.0
1297.891846 132.0
1298.487061 176.0
1299.914673 108.0
1299.98645 64.0
1300.424194 188.0
1300.524658 144.0
1301.032593 164.0
1301.814697 120.0
1302.082764 184.0
1302.822632 64.0
1302.951904 72.0
1303.275269 56.0
1303.368652 60.0
1303.620239 104.0
1305.100952 80.0
1305.518066 36.0
1306.258911 68.0
1306.345215 168.0
1306.39563 60.0
1306.604248 168.0
1307.287842 68.0
1307.784424 48.0
1307.985962 72.0
1308.569092 60.0
1308.806641 64.0
1309.317993 152.0
1309.584473 56.0
1310.131958 48.0
1311.075806 48.0
1311.436279 28.0
1312.092285 192.0
1312.279663 92.0
1312.690674 68.0
1312.95752 48.0
1313.36145 52.0
1313.801514 92.0
1314.223145 92.0
1314.450806 132.0
1314.696167 72.0
1315.150879 56.0
1315.533447 56.0
1316.101318 116.0
1316.450439 40.0
1316.587646 32.0
1316.99939 56.0
1317.071655 80.0
1317.187134 40.0
1317.411133 132.0
1317.533936 132.0
1319.015381 164.0
1319.738403 160.0
1319.861328 128.0
1320.099976 124.0
1320.309692 36.0
1320.869019 84.0
1321.01123 64.0
1321.720337 196.0
1322.813232 44.0
1323.435791 28.0
1323.63855 80.0
1323.935425 156.0
1324.782959 92.0
1325.761108 144.0
1326.145264 36.0
1326.368408 56.0
1327.711304 104.0
1329.800781 84.0
1330.338013 92.0
1330.439575 40.0
1330.671997 48.0
1330.824463 96.0
1331.427124 68.0
1332.095337 128.0
1332.218872 96.0
1332.385986 164.0
1332.662109 128.0
1333.112549 140.0
1333.163452 68.0
1333.337891 80.0
1334.122925 72.0
1334.500977 84.0
1334.988159 68.0
1335.235474 88.0
1335.651611 56.0
1335.929688 144.0
1336.435791 68.0
1336.515869 48.0
1336.595825 92.0
1336.69043 76.0
1336.741333 60.0
1336.886963 136.0
1337.986084 160.0
1338.313721 116.0
1339.275024 136.0
1339.755737 64.0
1339.850464 40.0
1340.027588 52.0
1340.520874 84.0
1340.732178 100.0
1340.89978 36.0
1341.949585 140.0
1342.321411 80.0
1342.43811 48.0
1342.992432 52.0
1343.627075 96.0
1344.247314 52.0
1344.597534 124.0
1344.663208 48.0
1346.817261 64.0
1348.117676 56.0
1348.322388 148.0
1349.184937 116.0
1349.279907 96.0
1349.85022 56.0
1349.981934 72.0
1350.435303 48.0
1350.866943 48.0
1351.09375 68.0
1351.598511 48.0
1351.696289 56.0
1352.161987 48.0
1352.235229 92.0
1352.388916 52.0
1353.276733 72.0
1353.706787 52.0
1354.212158 76.0
1354.322021 36.0
1354.798096 100.0
1355.963257 156.0
1358.272949 120.0
1358.50769 92.0
1358.639648 60.0
1359.292725 96.0
1359.550049 60.0
1359.945923 60.0
1360.466064 136.0
1360.650635 112.0
1360.995728 112.0
1361.34082 68.0
1361.641968 84.0
1361.85498 112.0
1362.266357 72.0
1363.309692 176.0
1364.015259 152.0
1364.14563 108.0
1364.220093 116.0
1364.245361 164.0
1364.610718 48.0
1364.677002 144.0
1365.368164 156.0
1365.463745 48.0
1365.662354 52.0
1366.302368 80.0
1366.832153 68.0
1367.119141 100.0
1367.538696 140.0
1368.311646 112.0
1368.665039 132.0
1369.305664 60.0
1369.386719 56.0
1370.057129 120.0
1371.007568 104.0
1372.128052 68.0
1372.501953 68.0
1372.754761 44.0
1373.049805 148.0
1373.197266 112.0
1373.285767 60.0
1374.123901 100.0
1374.259644 156.0
1374.687622 88.0
1375.218994 36.0
1376.355835 96.0
1376.769409 64.0
1377.042725 100.0
1377.301147 36.0
1377.493286 156.0
1377.648438 92.0
1377.72229 48.0
1378.697632 56.0
1378.867676 84.0
1379.362793 40.0
1379.762085 108.0
1380.220459 36.0
1380.567993 148.0
1382.373047 136.0
1382.558105 132.0
1382.987427 84.0
1383.216797 60.0
1383.453735 64.0
1383.535156 168.0
1383.801758 92.0
1384.016479 168.0
1384.712524 116.0
1384.764404 52.0
1386.52771 48.0
1387.572998 116.0
1387.817627 100.0
1388.010376 68.0
1388.203247 104.0
1388.559204 116.0
1388.724731 64.0
1389.122925 76.0
1389.397461 108.0
1389.864868 144.0
1389.953857 100.0
1390.109741 88.0
1390.354614 132.0
1390.555054 48.0
1390.644043 136.0
1390.866821 40.0
1391.720581 180.0
1391.900146 84.0
1393.280273 40.0
1394.439453 100.0
1394.640137 192.0
1395.346436 76.0
1396.521362 120.0
1396.625488 72.0
1396.729614 108.0
1396.811401 104.0
1397.019775 128.0
1397.347046 56.0
1397.659546 44.0
1397.823364 200.0
1398.091187 44.0
1398.210327 44.0
1398.426147 148.0
1399.118408 60.0
1399.222656 68.0
1399.632202 52.0
1400.235352 192.0
1400.622681 96.0
1400.771729 92.0
1400.935547 64.0
1401.092041 80.0
1401.404907 44.0
1401.494385 32.0
1401.852051 80.0
1402.254517 116.0
1402.463135 148.0
1402.768799 36.0
1403.723145 96.0
1404.148315 60.0
1404.260132 152.0
1404.647949 104.0
1404.841919 32.0
1405.033936 56.0
1405.297119 124.0
1405.483643 48.0
1405.595581 84.0
1405.692505 80.0
1406.924072 120.0
1407.103271 48.0
1408.31311 56.0
1408.49231 88.0
1408.634277 108.0
1409.187134 52.0
1409.370117 132.0
1410.049072 172.0
1410.255737 108.0
1410.345459 60.0
1410.741699 160.0
1410.936035 136.0
1411.220093 192.0
1411.287476 40.0
1411.339722 52.0
1412.132446 128.0
1412.334473 192.0
1413.037598 76.0
1413.50708 108.0
1414.05542 140.0
1414.377197 36.0
1414.496948 44.0
1414.574219 148.0
1414.901245 164.0
1415.028564 44.0
1415.298096 76.0
1415.372925 84.0
1416.286621 124.0
1416.44397 36.0
1417.005859 36.0
1417.088257 72.0
1417.425415 80.0
1417.502686 116.0
1417.987427 100.0
1418.384766 136.0
1418.785522 184.0
1419.164429 140.0
1419.287231 108.0
1419.584351 48.0
1420.206909 44.0
1420.889526 88.0
1421.669922 180.0
1421.752441 40.0
1421.842529 32.0
1422.030151 120.0
1422.165283 76.0
1422.570557 84.0
1422.750732 44.0
1423.081177 100.0
1423.419067 48.0
1423.57666 40.0
1423.97583 116.0
1424.703369 64.0
1425.447266 80.0
1425.725342 72.0
1425.928223 76.0
1426.003418 72.0
1426.273926 140.0
1426.431885 108.0
1426.694946 112.0
1427.258911 116.0
1427.612305 148.0
1427.732666 32.0
1429.011353 60.0
1429.146851 52.0
1429.854248 120.0
1430.064941 72.0
1430.125244 76.0
1430.48645 64.0
1430.659668 64.0
1430.719849 44.0
1430.904785 148.0
1431.077515 220.0
1431.585815 60.0
1431.856934 60.0
1431.924683 56.0
1432.738281 52.0
1433.062256 124.0
1433.325928 88.0
1433.506836 104.0
1433.702759 60.0
1434.56958 108.0
1435.089722 92.0
1435.45166 88.0
1435.85144 48.0
1436.100342 40.0
1436.922607 84.0
1437.609253 196.0
1437.820557 144.0
1437.888428 96.0
1438.379028 116.0
1438.794312 96.0
1439.081177 48.0
1439.322876 100.0
1439.896729 120.0
1440.139648 128.0
1440.712524 56.0
1440.999634 136.0
1441.483276 224.0
1442.087891 64.0
1442.435547 68.0
1442.511108 180.0
1442.858887 168.0
1443.347534 180.0
1443.569702 92.0
1444.068848 120.0
1444.295776 248.0
1445.17334 124.0
1445.559204 116.0
1445.619751 124.0
1446.505371 80.0
1446.634033 76.0
1447.012573 100.0
1448.133301 128.0
1448.360596 68.0
1448.443848 96.0
1449.051758 104.0
1449.133301 64.0
1449.277222 52.0
1449.368164 72.0
1449.534912 104.0
1449.754639 44.0
1450.520142 192.0
1450.637085 168.0
1450.736206 144.0
1451.649902 132.0
1451.725708 100.0
1452.021484 104.0
1452.107056 84.0
1452.969727 116.0
1453.690552 104.0
1455.226929 144.0
1455.428833 92.0
1455.497192 52.0
1455.618774 180.0
1455.861694 48.0
1456.528442 92.0
1456.583252 116.0
1457.852173 92.0
1458.384155 32.0
1458.444946 52.0
1458.680664 88.0
1459.600586 116.0
1459.980835 84.0
1460.216553 108.0
1460.391479 64.0
1461.076172 72.0
1461.418457 168.0
1461.654419 72.0
1462.750366 92.0
1463.054932 144.0
1463.625977 68.0
1464.0448 128.0
1464.861938 168.0
1464.913086 132.0
1465.057861 88.0
1465.431152 172.0
1465.834961 168.0
1465.93457 112.0
1466.156616 100.0
1466.406616 124.0
1466.829834 92.0
1467.191772 60.0
1467.472778 92.0
1467.937012 144.0
1468.152466 184.0
1468.251587 100.0
1468.35083 304.0
1468.45752 124.0
1468.510986 100.0
1468.69397 112.0
1468.747437 148.0
1470.410767 96.0
1470.746582 168.0
1470.990845 96.0
1471.410767 72.0
1471.548218 80.0
1471.677979 108.0
1471.914673 92.0
1472.365234 72.0
1472.481201 140.0
1472.831177 156.0
1472.984009 36.0
1473.702148 144.0
1473.824341 144.0
1474.076538 112.0
1474.130005 112.0
1474.619141 80.0
1474.960205 116.0
1475.429443 64.0
1476.148193 140.0
1476.224609 160.0
1476.408203 84.0
1476.813599 148.0
1477.350586 192.0
1478.087891 160.0
1478.261108 96.0
1478.443237 224.0
1478.550293 104.0
1478.833496 148.0
1478.928955 140.0
1479.009521 100.0
1479.445923 116.0
1479.932617 56.0
1480.115479 204.0
1480.563843 152.0
1480.870239 124.0
1481.092285 52.0
1481.521362 128.0
1481.689819 124.0
1482.088257 52.0
1482.325806 88.0
1483.222534 52.0
1483.751465 100.0
1484.025513 164.0
1484.234619 132.0
1484.691528 128.0
1484.909424 104.0
1485.407959 60.0
1485.630493 44.0
1485.699463 152.0
1485.852905 84.0
1486.558838 48.0
1486.727783 84.0
1486.958008 76.0
1487.050049 112.0
1487.418457 60.0
1487.533691 60.0
1488.170898 140.0
1488.401245 68.0
1488.493408 68.0
1489.96814 164.0
1490.651978 176.0
1491.305176 76.0
1491.574219 68.0
1491.897095 148.0
1492.504517 80.0
1492.642944 132.0
1493.10437 60.0
1493.381226 64.0
1493.501221 100.0
1493.62439 116.0
1493.704346 68.0
1493.935059 108.0
1494.188965 96.0
1494.796875 56.0
1494.950806 96.0
1495.797363 56.0
1495.866699 56.0
1496.097656 112.0
1496.385742 88.0
1496.574951 192.0
1496.682739 44.0
1496.752075 48.0
1497.345093 60.0
1497.452881 92.0
1498.2323 68.0
1498.9552 180.0
1499.078491 180.0
1499.263428 48.0
1499.409912 104.0
1499.856934 148.0
1499.987915 104.0
1500.061523 76.0
1500.207764 180.0
1500.361328 192.0
1500.74353 120.0
1501.077515 116.0
1501.568604 32.0
1502.154907 120.0
1502.795166 144.0
1502.856934 100.0
1503.239624 100.0
1503.409058 116.0
1503.736694 92.0
1504.45459 168.0
1504.639893 140.0
1504.717041 76.0
1504.856079 56.0
1504.971802 80.0
1505.296143 64.0
