>compound NCGC00160229-01!VERALODINE
>formula C27H39NO3
>ionization [M+H]+
>parentmass 426.300415
#inchi InChI=1S/C27H39NO3/c1-14-4-7-22-15(2)18-5-6-19-20(24(18)26(31)28(22)13-14)12-21-25(19)23(30)11-16-10-17(29)8-9-27(16,21)3/h10,14-15,18-25,30H,4-9,11-13H2,1-3H3/t14-,15-,18-,19-,20-,21+,22+,23+,24-,25?,27+/m1/s1
#inchikey JRKNTCDSHHKHTC
#Ion_Source LC-ESI
#Instrument qTOF
#Compound_Source Prestwick Phytochem Lib
#PI Dorrestein
#Data_Collector VVP/LMS
#Scan -1
#Precursor_MZ 426.301
#ExactMass 425.293
#Charge 1
#CAS_Number N/A
#Pubmed_ID N/A
#Smiles [H][C@@]12CC[C@]3([H])[C@@H](C)[C@]4([H])CC[C@@H](C)CN4C(=O)[C@@]3([H])[C@]1([H])C[C@@]5([H])C2[C@@H](O)CC6=CC(=O)CC[C@]56C
#INCHI_AUX N/A
#Library_Class 1
#SpectrumID CCMSLIB00000078804
#IonMode Positive
#UpdateWorkflowName UPDATE-SINGLE-ANNOTATED-GOLD
#LibraryQualityString Gold
#TaskID 67c915c6594c435cadc1fe2b5358144d
##Scan# 2519
#SpectrumFile p1-E04_GE4_01_17924.mzXML
#LibraryName phytochem_lib.mgf
#MQScore -1
#Organism phytochem_lib
#TIC_Query 0
#RT_Query -1
#MZErrorPPM -1
#SharedPeaks 0
#MassDiff 0
#LibMZ -1
#SpecMZ 426.301
#SpecCharge 0
#internalFilename spec-00000.mgf

>collision 10
94.952621 172.0
95.048805 308.0
95.08416 308.0
95.138893 164.0
95.164131 160.0
95.405037 224.0
95.581451 164.0
96.000832 144.0
96.077408 428.0
96.487007 168.0
96.526115 140.0
96.592606 176.0
96.79615 208.0
96.809853 108.0
96.901917 168.0
96.927383 56.0
96.952858 200.0
97.065712 432.0
97.201904 212.0
97.523979 212.0
97.592781 164.0
97.756042 124.0
97.964943 192.0
97.994293 116.0
98.069481 336.0
98.096519 6184.0
98.15197 212.0
98.177605 52.0
98.240723 84.0
98.535255 228.0
98.60601 140.0
98.714737 60.0
98.807701 256.0
98.981873 172.0
98.995735 72.0
99.083466 164.0
99.09996 604.0
99.128456 124.0
99.170067 152.0
99.191872 208.0
99.630424 208.0
99.6642 136.0
99.697983 116.0
99.787346 264.0
99.874924 52.0
100.069946 188.0
100.500458 112.0
100.574295 44.0
100.606232 180.0
100.688095 140.0
100.875916 156.0
101.110649 144.0
101.141953 144.0
101.388298 148.0
101.596825 144.0
101.791512 36.0
101.855774 236.0
101.928101 192.0
101.970299 184.0
102.00045 176.0
102.042664 172.0
102.072823 160.0
102.098969 44.0
102.150681 152.0
102.322319 140.0
102.435089 52.0
102.495529 172.0
102.646706 48.0
102.808083 108.0
102.870651 192.0
103.053467 172.0
103.214104 260.0
103.434624 156.0
103.491302 160.0
103.543953 144.0
103.56826 132.0
103.819572 68.0
103.894615 224.0
103.916931 176.0
103.947128 172.0
104.00013 132.0
104.059006 128.0
104.103676 128.0
104.666939 32.0
104.730064 228.0
104.772842 32.0
105.033768 156.0
105.070114 884.0
105.119453 132.0
105.13578 192.0
105.254181 172.0
105.333824 56.0
105.611809 124.0
105.974152 168.0
106.019226 64.0
106.073868 164.0
106.245529 140.0
106.30632 80.0
106.402794 88.0
106.51368 160.0
106.620522 112.0
106.750031 116.0
106.924896 132.0
106.939301 96.0
107.017525 136.0
107.050232 176.0
107.085052 908.0
107.112259 80.0
107.134918 180.0
107.384323 48.0
107.448517 148.0
107.495728 184.0
107.55764 132.0
107.650543 180.0
107.691849 156.0
107.813744 136.0
107.966721 48.0
108.05545 228.0
108.080498 140.0
108.335144 152.0
108.355865 188.0
108.509529 116.0
108.785141 48.0
108.864037 160.0
108.936729 152.0
109.036461 156.0
109.063843 2388.0
109.100822 872.0
109.254791 88.0
109.294975 216.0
109.392136 76.0
109.483742 88.0
109.719193 128.0
109.984116 156.0
110.00708 88.0
110.068184 704.0
110.103874 332.0
110.508644 144.0
110.686554 112.0
110.703308 280.0
110.814323 152.0
111.017639 132.0
111.076363 92.0
111.091049 160.0
111.114128 180.0
111.27153 92.0
111.292526 164.0
112.07618 380.0
112.110809 220.0
112.208038 180.0
112.568542 164.0
112.703728 248.0
112.877052 88.0
112.927811 140.0
113.120354 284.0
113.194458 80.0
113.321541 116.0
113.884171 232.0
114.01329 128.0
114.030289 212.0
114.087685 268.0
114.176987 148.0
114.332283 160.0
114.485558 80.0
114.628288 164.0
114.694351 136.0
114.73912 136.0
114.826538 80.0
114.969475 164.0
115.053825 116.0
115.482216 104.0
115.557091 180.0
115.773277 80.0
115.876091 136.0
115.981094 124.0
116.06382 116.0
116.163361 160.0
116.214844 168.0
116.423058 76.0
116.551941 240.0
116.663704 180.0
116.872314 176.0
116.891685 200.0
117.070396 708.0
117.107704 160.0
117.180206 40.0
117.438881 96.0
117.624443 124.0
117.706482 52.0
117.823112 56.0
118.080399 144.0
118.090012 144.0
118.242599 276.0
118.344337 176.0
118.387642 112.0
118.654152 176.0
118.936157 216.0
119.059914 192.0
119.08419 1644.0
119.175034 184.0
119.194595 96.0
119.296738 136.0
119.311958 88.0
119.399826 156.0
119.488113 104.0
119.572975 192.0
119.732765 140.0
120.056374 164.0
120.085632 336.0
120.28244 168.0
120.554337 140.0
121.065338 2264.0
121.102524 484.0
121.263405 180.0
121.329163 152.0
121.362045 100.0
121.464577 224.0
121.508995 64.0
121.671394 152.0
121.702133 188.0
121.730682 188.0
121.759232 152.0
121.827316 156.0
122.042694 124.0
122.063515 296.0
122.082275 144.0
122.104271 172.0
122.218658 56.0
122.330894 88.0
122.53791 208.0
122.575363 192.0
122.626053 208.0
122.683357 140.0
122.85537 120.0
122.985558 172.0
123.079865 2464.0
123.117424 184.0
123.288132 232.0
123.327911 164.0
123.350014 32.0
123.372116 172.0
123.493736 172.0
123.611809 172.0
123.659668 104.0
123.679588 148.0
123.836792 176.0
124.080688 304.0
124.109985 568.0
124.135971 144.0
124.175888 188.0
124.533218 92.0
124.61319 156.0
124.948898 180.0
125.044579 252.0
125.095772 152.0
125.117889 552.0
125.164795 148.0
125.32962 196.0
125.530228 184.0
125.563683 128.0
125.751091 152.0
125.806892 320.0
125.974373 140.0
126.032463 40.0
126.051994 172.0
126.066513 172.0
126.091545 20172.0
126.127541 2088.0
126.164322 44.0
126.229156 56.0
126.329803 52.0
126.364182 120.0
126.393524 152.0
126.42601 84.0
126.509384 68.0
126.562561 52.0
126.647659 56.0
126.716156 76.0
126.777603 96.0
127.071335 60.0
127.095123 1976.0
127.130463 324.0
127.176804 144.0
127.253128 88.0
127.356422 188.0
127.587875 88.0
127.654686 28.0
127.73629 148.0
127.765533 132.0
127.851036 160.0
127.896049 180.0
127.995735 176.0
128.031143 104.0
128.061569 400.0
128.101685 152.0
128.137009 148.0
128.468399 116.0
128.773117 160.0
128.856689 228.0
128.971939 104.0
129.068344 832.0
129.259155 44.0
129.485535 136.0
129.580673 132.0
129.812332 156.0
129.832275 80.0
130.076797 168.0
130.538513 68.0
130.634033 152.0
130.930374 164.0
130.959534 208.0
131.00737 32.0
131.085236 3608.0
131.267197 172.0
131.326492 168.0
131.376678 144.0
131.481628 116.0
131.659698 128.0
131.732788 184.0
131.837402 208.0
131.874451 160.0
131.932709 124.0
132.013916 144.0
132.041351 96.0
132.092834 448.0
132.174026 140.0
132.254135 140.0
132.675613 88.0
132.723755 164.0
132.760452 152.0
132.792557 88.0
132.820084 60.0
132.877426 148.0
133.065247 728.0
133.101486 2200.0
133.164368 60.0
133.182739 140.0
133.366547 68.0
133.474594 136.0
133.612595 212.0
134.066193 116.0
134.099548 160.0
134.119202 104.0
134.218338 180.0
134.506714 172.0
134.714539 100.0
135.080383 804.0
135.116821 292.0
135.570602 156.0
135.807083 144.0
135.869705 64.0
136.078522 172.0
136.250443 192.0
136.282959 56.0
136.601471 176.0
136.620071 324.0
136.659622 156.0
136.817886 64.0
137.096817 148.0
137.174301 132.0
137.318863 156.0
137.409836 144.0
137.507843 100.0
137.741318 220.0
138.094269 216.0
138.124222 204.0
138.164444 68.0
138.435944 196.0
138.485123 180.0
138.571793 180.0
138.602264 112.0
138.632721 136.0
138.681931 116.0
138.822601 144.0
138.855438 108.0
138.871841 116.0
138.923447 88.0
138.965683 180.0
139.127609 188.0
139.343674 80.0
139.437668 152.0
139.595169 188.0
139.851608 148.0
139.93399 108.0
140.112991 208.0
140.464233 192.0
140.782852 128.0
141.066208 176.0
141.082977 172.0
141.132568 168.0
141.27684 136.0
141.307587 144.0
141.333618 136.0
141.745621 144.0
141.86412 56.0
141.97081 156.0
142.07962 336.0
142.324387 72.0
142.40094 116.0
142.588058 132.0
142.871017 140.0
143.049484 172.0
143.086319 384.0
143.206528 172.0
143.242371 144.0
143.261429 88.0
143.280487 84.0
143.528351 136.0
143.554581 160.0
143.614212 160.0
144.059189 224.0
144.089233 276.0
144.263687 208.0
144.388031 112.0
144.596161 200.0
144.665573 140.0
144.715851 192.0
145.010498 96.0
145.066376 140.0
145.101517 2788.0
145.23587 32.0
145.319839 148.0
145.447021 64.0
145.562256 152.0
145.639114 64.0
145.699158 196.0
145.910645 244.0
146.071671 188.0
146.103867 212.0
146.148758 192.0
146.690628 116.0
146.707489 132.0
147.018631 168.0
147.080734 712.0
147.115677 960.0
147.14415 68.0
147.272141 224.0
147.392929 44.0
147.627396 296.0
147.765274 36.0
147.876587 92.0
147.915314 232.0
147.963715 120.0
148.082367 260.0
148.103195 200.0
148.107162 120.0
148.119415 228.0
148.437897 176.0
148.484695 244.0
148.54509 212.0
148.605972 216.0
148.627808 64.0
148.787994 184.0
148.923981 68.0
149.09491 944.0
149.128784 308.0
149.685165 64.0
149.789886 208.0
149.82399 136.0
149.870285 128.0
150.128662 104.0
150.177444 256.0
150.516663 156.0
150.553284 28.0
151.012741 20.0
151.111664 168.0
151.139099 196.0
151.399429 144.0
151.575806 132.0
152.009827 160.0
152.07608 152.0
152.111557 124.0
152.14183 168.0
152.193909 152.0
152.316711 164.0
152.577194 128.0
152.609146 124.0
152.650955 116.0
152.717346 104.0
152.823135 164.0
152.963409 88.0
153.069397 544.0
153.11203 252.0
153.133301 92.0
153.170242 152.0
153.241684 100.0
153.293427 128.0
154.072433 176.0
154.122604 316.0
154.152161 180.0
154.307877 192.0
154.452896 156.0
154.540375 92.0
154.619553 200.0
154.817596 240.0
155.008347 116.0
155.025696 184.0
155.043045 60.0
155.08313 1108.0
155.129791 176.0
155.201691 148.0
155.288483 148.0
155.464615 72.0
155.4944 160.0
155.536591 128.0
156.085495 140.0
156.214966 132.0
156.386642 196.0
156.496185 160.0
156.605743 120.0
156.829987 148.0
156.882339 196.0
156.927216 128.0
157.065765 172.0
157.10112 1120.0
157.283951 100.0
157.418762 136.0
157.493683 100.0
158.068268 168.0
158.107224 268.0
158.188812 192.0
158.30899 144.0
158.39415 160.0
158.459274 180.0
158.519409 168.0
158.587082 120.0
158.612137 100.0
159.079849 592.0
159.116379 3912.0
159.143982 176.0
159.380081 56.0
159.495682 36.0
159.721985 76.0
159.769775 128.0
159.913208 116.0
160.085541 140.0
160.119751 388.0
160.144836 128.0
160.29599 196.0
160.371597 100.0
160.457306 116.0
160.527893 208.0
160.896271 132.0
161.096252 1196.0
161.128723 420.0
161.252426 60.0
161.285294 136.0
161.51033 244.0
161.687424 216.0
161.808929 128.0
161.83931 136.0
161.877289 208.0
162.098862 340.0
162.169678 116.0
162.424713 120.0
162.549026 68.0
162.574402 148.0
162.969971 148.0
163.114288 620.0
163.131409 316.0
163.293365 36.0
163.328979 52.0
163.367126 60.0
163.657257 92.0
164.105438 348.0
164.142563 396.0
164.212784 216.0
164.511322 120.0
164.776917 100.0
164.863785 128.0
164.897018 160.0
165.071686 272.0
165.116806 136.0
165.151489 320.0
165.221756 44.0
165.290833 44.0
165.380402 48.0
165.454636 168.0
165.495605 148.0
165.536575 172.0
165.703049 172.0
165.720993 132.0
165.756866 196.0
166.074753 136.0
166.121475 788.0
166.153458 184.0
166.279999 172.0
166.585556 152.0
166.76799 172.0
166.839966 132.0
167.084839 320.0
167.127151 204.0
167.194916 184.0
167.382828 84.0
168.095612 204.0
168.13826 328.0
168.182022 200.0
168.342087 92.0
168.846008 140.0
169.063309 156.0
169.100693 1324.0
169.143555 164.0
169.500946 48.0
170.104507 176.0
170.27919 144.0
170.344116 184.0
170.520813 52.0
170.91214 140.0
170.999359 164.0
171.082932 144.0
171.116684 740.0
171.168564 204.0
171.225861 188.0
171.330048 80.0
171.590652 172.0
171.736679 96.0
171.791458 84.0
172.010651 120.0
172.083755 144.0
172.121765 708.0
172.2117 244.0
172.297913 144.0
172.324036 188.0
172.582779 156.0
172.826035 252.0
173.09433 964.0
173.129913 1060.0
173.265884 92.0
173.336533 164.0
173.412613 92.0
173.50174 128.0
173.687927 116.0
173.716782 136.0
174.098923 320.0
174.136749 168.0
174.260208 56.0
174.295731 200.0
174.512512 248.0
174.601929 60.0
174.670303 48.0
174.780807 28.0
174.841324 104.0
175.033493 180.0
175.113297 992.0
175.146713 736.0
175.339066 120.0
175.378601 92.0
175.452408 80.0
175.877106 212.0
176.113022 172.0
176.191345 148.0
176.691055 176.0
177.093353 108.0
177.116852 156.0
177.311935 40.0
177.46965 60.0
177.660126 196.0
177.695099 144.0
178.080002 168.0
178.123322 564.0
178.54776 48.0
179.085358 164.0
179.129089 480.0
179.314484 84.0
179.442444 116.0
179.482742 156.0
179.741165 96.0
179.879944 144.0
180.092148 180.0
180.110733 284.0
180.137054 2944.0
180.200409 72.0
180.224457 112.0
180.301941 76.0
180.41153 48.0
180.509598 136.0
180.769043 216.0
180.793594 256.0
180.902756 96.0
181.101303 1236.0
181.14328 472.0
181.278717 48.0
181.552155 64.0
181.90094 32.0
181.922409 96.0
182.111053 784.0
182.190964 80.0
182.365616 108.0
182.416687 56.0
182.693665 112.0
182.765411 120.0
182.803986 124.0
182.988556 208.0
183.073166 172.0
183.116516 992.0
183.24556 236.0
183.552826 124.0
183.730835 144.0
183.898132 40.0
183.952118 40.0
184.122849 408.0
184.157333 76.0
184.238358 188.0
184.624878 188.0
185.096588 392.0
185.131882 1016.0
185.20134 28.0
185.404541 120.0
185.469589 160.0
185.621399 68.0
185.876389 120.0
185.971375 116.0
186.101669 144.0
186.145676 400.0
186.177704 124.0
186.204865 160.0
186.237457 92.0
186.514587 44.0
186.748428 56.0
186.944305 168.0
187.111069 708.0
187.147629 148.0
187.30368 64.0
187.366333 184.0
187.666138 56.0
187.848846 148.0
187.936157 48.0
188.110809 164.0
188.159958 124.0
188.351105 60.0
188.922409 108.0
189.023651 152.0
189.124786 152.0
189.157745 188.0
189.746902 128.0
189.779633 148.0
189.809784 156.0
190.081345 148.0
190.125687 556.0
190.158279 120.0
190.35585 132.0
190.701996 184.0
190.789948 84.0
190.822952 60.0
191.084229 136.0
191.130997 152.0
191.167603 92.0
191.221802 108.0
191.869125 204.0
191.995956 172.0
192.098007 112.0
192.132553 328.0
192.169739 120.0
192.200089 216.0
192.63353 152.0
192.91539 144.0
192.959625 108.0
193.012161 96.0
193.096191 308.0
193.143387 300.0
193.178101 280.0
193.247253 36.0
193.374557 164.0
193.540649 164.0
193.623718 88.0
194.109848 300.0
194.151138 312.0
194.341675 84.0
194.663651 88.0
194.794189 68.0
194.885864 44.0
195.115677 1740.0
195.15062 156.0
195.319534 84.0
195.457352 172.0
195.508728 72.0
195.725861 204.0
195.88739 124.0
195.954239 144.0
196.026688 160.0
196.124359 320.0
196.163254 144.0
196.297073 72.0
196.375168 156.0
196.4198 124.0
196.581604 144.0
196.69603 112.0
196.894272 144.0
197.075836 212.0
197.132019 2388.0
197.193207 124.0
197.223953 56.0
197.85054 184.0
198.099625 144.0
198.134506 436.0
198.834381 156.0
198.943848 140.0
199.002808 272.0
199.056152 196.0
199.111816 292.0
199.142593 172.0
199.393265 100.0
199.750336 180.0
199.924774 72.0
199.992325 152.0
200.07959 44.0
200.11438 280.0
200.169678 188.0
200.251358 152.0
200.674042 60.0
200.797852 132.0
201.054489 160.0
201.094345 128.0
201.126633 496.0
201.159363 448.0
202.097534 136.0
202.128296 208.0
202.157028 152.0
202.833847 164.0
203.14093 296.0
203.173248 44.0
203.219238 200.0
203.250732 200.0
203.37561 72.0
203.517548 124.0
203.727707 180.0
203.899368 164.0
204.082962 164.0
204.136795 160.0
204.179916 484.0
204.264969 152.0
204.305893 52.0
204.526749 144.0
204.996658 164.0
205.093567 120.0
205.144867 120.0
205.17662 144.0
205.427185 112.0
206.043808 52.0
206.152771 432.0
206.196671 336.0
206.48114 128.0
206.641327 160.0
206.990509 124.0
207.11412 216.0
207.16272 192.0
207.325668 60.0
207.993149 148.0
208.128311 316.0
208.170151 224.0
208.278061 104.0
208.404602 216.0
208.470688 100.0
208.832413 180.0
208.876068 124.0
209.088211 176.0
209.130997 1244.0
209.198349 184.0
209.247299 132.0
209.353836 116.0
209.440231 108.0
209.460388 32.0
209.566986 124.0
209.848648 132.0
210.099838 180.0
210.139587 240.0
210.235962 100.0
210.279251 116.0
210.302338 108.0
210.614166 176.0
210.810623 88.0
211.007233 160.0
211.030304 148.0
211.10907 168.0
211.148529 588.0
211.215378 164.0
211.371597 144.0
211.391861 160.0
211.472885 44.0
212.110672 124.0
212.263763 132.0
212.284058 184.0
212.684418 56.0
212.855713 188.0
213.125565 512.0
213.161774 548.0
213.188187 180.0
213.451385 68.0
213.492096 40.0
213.783005 96.0
214.132065 80.0
214.155655 144.0
214.178955 140.0
214.391632 216.0
214.709396 192.0
214.820236 172.0
215.122986 172.0
215.141556 152.0
215.170425 276.0
215.409882 60.0
215.568237 160.0
215.599792 56.0
215.758118 172.0
216.056702 56.0
216.13974 296.0
216.171692 144.0
216.213928 140.0
216.49205 172.0
216.714661 176.0
217.135727 196.0
217.183701 188.0
217.208633 20.0
217.227707 108.0
217.43602 148.0
217.620956 144.0
217.867645 180.0
218.126251 188.0
218.15567 644.0
218.1875 356.0
218.314407 148.0
218.479126 92.0
218.532074 100.0
218.688034 48.0
218.991302 184.0
219.109329 116.0
219.161316 420.0
219.194565 40.0
219.300659 228.0
219.403824 168.0
219.430359 80.0
219.453949 172.0
219.504074 100.0
219.642685 76.0
220.123901 164.0
220.167191 944.0
220.312775 88.0
220.664459 76.0
220.974991 180.0
221.010498 156.0
221.087433 144.0
221.173874 340.0
221.214706 204.0
221.312393 132.0
221.439407 184.0
221.570068 140.0
221.641174 104.0
221.934616 196.0
222.134521 292.0
222.180771 128.0
222.218277 248.0
222.341003 100.0
222.643173 168.0
222.81015 120.0
223.103531 196.0
223.143143 412.0
223.672531 140.0
223.740997 120.0
224.146378 220.0
224.363632 40.0
224.417297 104.0
224.670792 112.0
224.996078 132.0
225.127716 236.0
225.163437 636.0
225.279785 32.0
225.438141 96.0
225.614487 136.0
225.704178 64.0
225.725098 132.0
226.11998 168.0
226.175446 168.0
226.329529 96.0
226.976746 100.0
227.138 452.0
227.178116 396.0
227.324707 108.0
227.438751 176.0
227.462753 204.0
228.021408 88.0
228.117599 108.0
228.141006 236.0
228.180023 220.0
228.216812 168.0
228.547653 160.0
229.192001 80.0
229.21611 124.0
229.291443 84.0
229.418045 80.0
230.153 484.0
230.185638 336.0
230.463043 156.0
231.160751 188.0
231.199387 104.0
231.545212 48.0
231.72998 144.0
231.796646 148.0
232.169174 624.0
232.192795 100.0
232.197906 236.0
232.518387 144.0
232.89183 84.0
233.004211 160.0
233.074097 124.0
233.130768 336.0
233.177399 448.0
233.384125 156.0
233.408447 48.0
233.697403 144.0
234.068741 144.0
234.138779 116.0
234.185654 1120.0
234.217972 156.0
234.24234 72.0
234.653748 60.0
234.745956 148.0
234.873306 100.0
235.035004 40.0
235.11972 168.0
235.145981 684.0
235.190567 328.0
235.462372 56.0
236.149475 432.0
236.181488 140.0
237.083786 116.0
237.162064 1752.0
237.214828 180.0
237.23703 168.0
237.316742 52.0
237.396469 116.0
237.623444 116.0
237.881226 60.0
237.905792 56.0
238.126862 152.0
238.168777 300.0
238.676941 160.0
238.732285 172.0
239.000854 128.0
239.089142 168.0
239.142471 364.0
239.17514 204.0
239.594101 84.0
239.655731 64.0
239.680374 160.0
239.868362 180.0
240.073303 72.0
240.118118 108.0
240.147766 372.0
240.216812 64.0
240.34021 124.0
240.756943 100.0
240.837234 92.0
240.865036 168.0
240.886658 192.0
240.945358 180.0
241.065857 152.0
241.132492 164.0
241.167252 300.0
241.198837 172.0
241.389969 112.0
241.576004 64.0
241.897827 248.0
242.083588 96.0
242.159134 212.0
242.200272 316.0
242.418137 172.0
242.594803 108.0
242.79599 176.0
242.959076 152.0
243.016586 180.0
243.19809 344.0
243.569168 116.0
243.69342 72.0
243.777313 96.0
244.16745 608.0
244.208054 416.0
244.417877 176.0
244.663757 56.0
245.131363 212.0
245.179306 368.0
245.204376 140.0
245.386536 160.0
245.63913 120.0
246.079773 184.0
246.122589 92.0
246.145584 116.0
246.184647 664.0
246.217346 180.0
246.510193 80.0
247.14949 168.0
247.18335 132.0
247.432892 188.0
247.639557 176.0
248.100174 148.0
248.156601 168.0
248.202667 1312.0
248.282028 152.0
248.319672 136.0
248.824875 204.0
249.138077 188.0
249.164505 136.0
249.203033 236.0
249.429718 148.0
249.915466 192.0
249.965805 120.0
249.990982 48.0
250.148346 36.0
250.207001 184.0
250.239639 192.0
250.315216 152.0
250.674316 152.0
251.096741 128.0
251.147202 140.0
251.185059 172.0
251.371201 156.0
251.604752 44.0
252.181992 416.0
252.293457 72.0
252.385132 112.0
252.597031 184.0
252.872299 116.0
252.986252 120.0
253.158585 532.0
254.156555 268.0
254.266785 208.0
254.38739 156.0
254.415955 112.0
254.438187 128.0
254.53978 144.0
254.565186 196.0
254.587418 36.0
255.086243 140.0
255.174408 1076.0
255.397842 180.0
255.663086 108.0
255.722382 20.0
255.786041 76.0
256.110809 92.0
256.175049 336.0
256.203644 900.0
256.362518 200.0
256.423065 132.0
257.162994 220.0
257.205872 420.0
257.249176 192.0
257.760162 144.0
257.856049 48.0
257.918335 132.0
258.183075 612.0
258.225861 360.0
258.674866 120.0
258.7901 104.0
258.828522 156.0
258.972626 76.0
259.190582 500.0
259.204163 176.0
259.219208 228.0
259.450073 128.0
259.52063 152.0
259.655304 216.0
259.825287 160.0
259.860596 164.0
259.927979 72.0
260.200684 904.0
260.233154 148.0
260.537994 160.0
261.119781 132.0
261.161713 200.0
261.208374 280.0
261.470459 144.0
261.522644 148.0
261.573456 136.0
262.004974 120.0
262.040405 56.0
262.098389 144.0
262.213287 340.0
262.356232 168.0
262.63031 180.0
262.866486 136.0
263.182831 140.0
263.220917 112.0
263.485748 96.0
263.543915 136.0
263.650543 144.0
263.682861 144.0
264.138733 160.0
264.186615 280.0
264.213623 216.0
264.345795 108.0
264.540009 160.0
264.737488 184.0
264.938324 112.0
265.158112 1344.0
265.193146 832.0
265.22995 120.0
266.047394 216.0
266.159607 156.0
266.184143 256.0
266.65155 124.0
266.697052 108.0
266.989655 192.0
267.044952 140.0
267.175049 152.0
267.214111 168.0
267.272675 88.0
267.360535 168.0
267.845642 120.0
267.920563 196.0
267.94989 160.0
268.177277 204.0
268.203064 104.0
268.275757 88.0
268.494232 152.0
268.598602 100.0
268.644257 368.0
268.712769 76.0
268.810669 132.0
268.892242 88.0
268.934662 108.0
269.190796 140.0
269.355865 172.0
270.019379 128.0
270.127319 148.0
270.18158 568.0
270.222443 536.0
270.258179 132.0
270.343231 84.0
270.470886 100.0
270.516724 80.0
270.817963 136.0
271.191162 132.0
271.22934 196.0
271.348816 72.0
271.650513 80.0
271.744263 188.0
272.057434 164.0
272.200989 1800.0
272.236511 404.0
272.306976 72.0
272.415375 156.0
272.615784 64.0
272.757111 140.0
273.154999 168.0
273.204285 384.0
273.239075 308.0
273.697998 148.0
273.823151 144.0
273.996643 148.0
274.162476 192.0
274.215759 1412.0
274.548187 56.0
274.647125 56.0
275.218292 548.0
275.455811 60.0
275.584656 108.0
275.730042 220.0
276.017639 88.0
276.143311 96.0
276.23175 1028.0
276.265686 64.0
276.394714 40.0
276.596588 180.0
277.126465 160.0
277.234619 584.0
277.832642 204.0
277.94458 200.0
278.210938 116.0
278.238251 304.0
278.536377 112.0
279.135773 236.0
279.19632 324.0
279.78006 36.0
280.163574 144.0
280.199677 192.0
280.876373 48.0
281.190002 156.0
281.233398 160.0
281.529327 108.0
281.6875 92.0
281.805359 172.0
281.841187 180.0
282.081818 108.0
282.181702 352.0
282.908051 168.0
283.102264 60.0
283.165283 508.0
283.204987 832.0
283.259674 128.0
283.309906 52.0
283.5914 228.0
283.811127 220.0
283.966888 148.0
284.199982 1944.0
284.237885 1000.0
284.382935 44.0
284.466827 56.0
284.584351 28.0
284.621277 64.0
284.651489 88.0
285.199219 960.0
285.251343 312.0
285.293213 116.0
285.326843 60.0
285.663116 44.0
285.939026 52.0
286.114075 128.0
286.214447 3344.0
286.260925 156.0
286.321228 84.0
286.62262 108.0
286.767548 56.0
286.922607 72.0
287.091187 112.0
287.218414 728.0
287.248474 64.0
287.300293 156.0
287.330658 192.0
287.506134 64.0
287.558075 232.0
287.681641 40.0
287.708649 92.0
287.863953 84.0
288.039581 76.0
288.063232 56.0
288.100372 80.0
288.180878 164.0
288.229462 888.0
288.309875 80.0
288.394348 44.0
288.424774 52.0
288.465332 44.0
288.810242 52.0
288.833923 144.0
288.938782 76.0
288.975983 164.0
289.114716 108.0
289.23407 124.0
289.471222 208.0
289.88681 80.0
289.961365 56.0
290.205444 112.0
290.235962 120.0
290.40213 160.0
290.544586 72.0
290.62262 216.0
290.765137 172.0
290.958618 56.0
291.057068 176.0
291.169128 136.0
291.216064 212.0
291.298218 140.0
291.42392 164.0
291.461273 108.0
291.712769 28.0
291.869171 60.0
291.974579 152.0
292.2229 168.0
292.410065 92.0
292.794769 84.0
293.196747 160.0
293.230835 128.0
293.258087 132.0
293.39444 116.0
293.680878 164.0
294.188934 188.0
294.2146 256.0
294.267822 136.0
294.503448 88.0
294.667419 200.0
294.776764 144.0
295.198364 236.0
296.018463 184.0
296.202637 308.0
296.247925 156.0
296.535767 224.0
297.1427 152.0
297.173584 92.0
297.208984 236.0
297.236053 152.0
297.437836 132.0
297.513336 56.0
297.582001 108.0
297.726227 148.0
297.980408 224.0
298.028503 184.0
298.149628 180.0
298.215637 5320.0
298.279388 196.0
298.423767 172.0
298.739105 172.0
299.217041 928.0
299.311462 80.0
299.383789 120.0
299.897125 196.0
300.17981 100.0
300.230225 3544.0
300.631714 40.0
300.659302 80.0
300.68692 100.0
300.742157 48.0
300.942352 64.0
300.987244 44.0
301.125397 160.0
301.231476 484.0
301.28772 120.0
301.809601 120.0
302.107025 144.0
302.249573 404.0
302.280029 144.0
302.858185 72.0
303.111084 96.0
303.211578 176.0
303.249695 116.0
303.49234 176.0
303.693481 148.0
303.766327 164.0
303.960602 80.0
304.198822 120.0
304.314636 128.0
304.446594 172.0
304.898224 136.0
305.322357 152.0
306.251587 220.0
306.530304 192.0
307.129944 88.0
307.161316 48.0
307.199707 108.0
307.236694 248.0
307.628906 216.0
307.733643 92.0
308.180725 48.0
308.212158 200.0
308.234863 100.0
308.984833 52.0
309.110809 200.0
309.229797 124.0
309.90213 204.0
310.003723 84.0
310.21521 452.0
310.256287 148.0
310.40686 160.0
310.445435 68.0
310.817261 56.0
311.031342 80.0
311.213898 412.0
311.250061 168.0
311.291138 132.0
311.340302 136.0
311.508881 36.0
311.59671 176.0
311.853577 204.0
311.944611 76.0
312.095795 104.0
312.159088 96.0
312.183685 132.0
312.231232 11164.0
312.300049 324.0
312.341949 52.0
312.384857 104.0
312.479156 40.0
312.503784 108.0
312.54248 48.0
312.591736 40.0
312.641022 68.0
312.831085 116.0
312.862762 92.0
312.971893 40.0
313.012756 108.0
313.056396 124.0
313.091217 156.0
313.162079 48.0
313.236084 2424.0
313.299438 108.0
313.355804 36.0
313.415039 64.0
313.560181 68.0
313.683533 76.0
313.810455 52.0
313.842194 88.0
313.891541 32.0
313.958557 120.0
314.238037 548.0
314.360718 212.0
314.455994 92.0
314.498352 44.0
314.54776 116.0
314.575989 72.0
314.734863 44.0
314.978546 76.0
315.010345 64.0
315.105713 84.0
315.137512 60.0
315.258423 168.0
315.354004 152.0
315.398956 216.0
315.752594 60.0
316.095734 112.0
316.120514 68.0
316.180664 72.0
316.231476 328.0
316.531128 100.0
316.65506 124.0
316.679871 220.0
316.74173 128.0
316.803833 48.0
316.879395 168.0
317.0802 76.0
317.233185 104.0
317.353149 48.0
317.562378 120.0
318.18335 124.0
318.215302 100.0
318.847595 60.0
319.210175 116.0
319.281311 128.0
319.49826 100.0
319.584045 184.0
319.779388 120.0
319.807861 108.0
320.236847 324.0
320.382446 120.0
321.108856 128.0
321.238586 152.0
321.27951 76.0
321.664917 172.0
321.825562 148.0
321.957672 112.0
322.248505 640.0
322.336456 116.0
322.851074 72.0
323.229553 256.0
323.250916 392.0
323.89502 164.0
323.957062 140.0
324.179199 108.0
324.225494 580.0
324.354797 56.0
324.465942 172.0
324.810181 132.0
324.93573 84.0
325.122314 76.0
325.232086 132.0
325.962616 168.0
326.041687 144.0
326.066833 176.0
326.117157 240.0
326.171082 240.0
326.247498 2216.0
326.699677 236.0
326.775208 64.0
326.940735 108.0
327.142303 152.0
327.174683 52.0
327.209412 172.0
327.248322 768.0
327.495636 156.0
327.707703 196.0
327.815796 36.0
328.248383 168.0
328.468384 80.0
328.962738 76.0
329.013275 56.0
331.115601 124.0
331.182892 168.0
331.248077 140.0
331.773529 136.0
332.223114 128.0
333.207031 88.0
333.245911 148.0
333.595886 140.0
333.915863 128.0
334.2229 252.0
334.251495 136.0
334.599945 200.0
334.975037 176.0
335.12439 112.0
335.197266 156.0
335.223022 328.0
335.288361 168.0
335.368561 44.0
335.94104 100.0
336.19278 104.0
336.235565 464.0
336.568756 180.0
336.608917 124.0
337.018005 104.0
337.314026 144.0
338.148956 180.0
338.246246 1956.0
338.748444 92.0
339.251129 688.0
339.386139 64.0
339.444794 28.0
340.254272 136.0
340.292389 36.0
341.225586 212.0
341.265228 224.0
341.725769 132.0
341.891327 56.0
342.248413 68.0
342.45462 144.0
342.631439 124.0
342.900421 64.0
343.792877 108.0
343.903595 148.0
344.280182 60.0
344.427917 60.0
345.359344 64.0
345.825531 136.0
346.212555 224.0
346.255219 136.0
346.358734 164.0
346.473541 64.0
347.33728 80.0
347.76767 88.0
347.960724 52.0
348.231598 472.0
348.629303 160.0
348.822571 84.0
349.038208 120.0
349.112579 64.0
349.231689 136.0
349.279938 116.0
350.11734 268.0
350.244659 4052.0
350.694824 172.0
350.765625 56.0
350.881195 196.0
351.034058 152.0
351.075073 200.0
351.184418 204.0
351.251923 1892.0
351.343628 48.0
351.455566 140.0
352.164856 328.0
352.22168 152.0
352.257935 536.0
352.293427 216.0
352.583282 176.0
352.84494 172.0
353.015198 148.0
353.207672 156.0
353.257172 392.0
353.495758 72.0
353.536896 120.0
353.596771 60.0
354.232727 276.0
354.283905 396.0
354.379395 96.0
354.491821 192.0
354.806671 120.0
354.975372 40.0
355.271667 180.0
355.317749 172.0
355.369232 48.0
356.322845 140.0
356.495697 160.0
356.627228 204.0
356.781342 36.0
356.864044 64.0
357.089661 192.0
357.153595 172.0
357.537354 120.0
357.672852 184.0
358.02301 184.0
358.120361 132.0
358.200012 176.0
358.252747 176.0
358.576813 100.0
360.218109 92.0
360.267212 104.0
360.490112 104.0
361.216034 132.0
361.461945 184.0
361.605743 212.0
362.284119 1048.0
363.071899 160.0
363.290344 400.0
364.085175 72.0
364.1763 172.0
364.265167 864.0
364.34726 192.0
364.643616 84.0
364.700653 164.0
364.836517 156.0
365.008575 56.0
365.217743 124.0
365.267578 244.0
366.167084 128.0
366.24115 156.0
366.27832 1024.0
367.254883 128.0
367.280945 252.0
367.41568 180.0
367.770538 60.0
367.869781 48.0
368.221069 104.0
368.385315 120.0
368.473175 48.0
368.530487 92.0
368.943237 32.0
369.960846 176.0
370.113983 116.0
370.297791 184.0
370.405029 188.0
370.849487 128.0
371.002838 196.0
371.328735 148.0
371.551239 60.0
372.226746 132.0
372.270905 140.0
372.622345 40.0
373.33728 156.0
373.610382 60.0
373.738678 148.0
374.235138 312.0
374.615112 144.0
374.861694 140.0
375.244049 236.0
375.721497 28.0
375.771637 160.0
376.053345 124.0
376.273376 196.0
377.065216 164.0
377.123199 164.0
377.265289 148.0
377.444061 36.0
377.579407 164.0
377.884979 212.0
378.243439 96.0
378.279724 116.0
378.321198 84.0
378.43457 56.0
379.246796 252.0
379.275208 152.0
379.449646 256.0
379.715118 228.0
379.849091 136.0
380.04306 120.0
380.292542 6396.0
380.376801 44.0
380.407471 40.0
380.497162 124.0
380.608765 152.0
380.669525 112.0
380.69519 100.0
380.866058 60.0
380.903168 108.0
380.998138 220.0
381.106903 40.0
381.134125 48.0
381.296692 3264.0
381.441132 124.0
381.53833 88.0
381.580322 208.0
381.615723 44.0
381.647186 172.0
381.9505 48.0
382.12558 60.0
382.300262 544.0
382.425201 84.0
382.44989 76.0
382.920502 56.0
383.009247 52.0
383.130005 84.0
383.18454 36.0
383.270264 48.0
383.305328 124.0
383.497833 152.0
383.819855 132.0
384.124054 56.0
384.159149 128.0
384.732788 84.0
384.955353 48.0
385.107666 304.0
385.470978 132.0
385.736755 116.0
385.889191 180.0
385.928314 244.0
385.955658 88.0
386.022156 276.0
386.28418 184.0
386.871155 176.0
387.19223 108.0
387.540253 216.0
387.99942 108.0
388.260498 144.0
388.395477 80.0
388.870209 104.0
388.913391 120.0
389.268616 120.0
389.309906 68.0
389.643768 64.0
389.808807 160.0
389.93457 112.0
390.06427 164.0
390.147888 392.0
390.278625 7272.0
390.357483 104.0
390.481049 92.0
390.508575 84.0
390.608795 92.0
390.654114 76.0
390.709167 56.0
390.795746 52.0
390.901978 52.0
391.012146 76.0
391.130249 128.0
391.161713 68.0
391.193207 160.0
391.284851 2536.0
391.539703 44.0
391.606659 40.0
391.673615 68.0
391.716949 64.0
391.791779 92.0
391.894226 40.0
392.007935 116.0
392.142487 168.0
392.272949 508.0
392.327728 88.0
392.390808 84.0
392.4263 100.0
392.540649 104.0
392.568237 68.0
392.595856 100.0
392.923248 88.0
393.021881 72.0
393.121826 88.0
393.213562 104.0
393.280426 224.0
393.412598 44.0
393.591919 104.0
393.623718 84.0
393.937805 220.0
394.083984 32.0
394.166962 80.0
394.206451 60.0
394.285492 132.0
394.680786 52.0
395.262238 104.0
395.709503 108.0
396.057983 68.0
396.279816 108.0
397.330444 48.0
397.465332 88.0
397.647888 104.0
398.668518 124.0
398.769562 152.0
399.193268 76.0
399.471649 140.0
399.543274 124.0
399.571106 116.0
400.056641 84.0
400.124298 148.0
400.339325 92.0
401.097565 176.0
402.045532 84.0
402.472626 236.0
402.780151 112.0
403.147705 80.0
403.267609 172.0
403.31955 148.0
403.552338 88.0
403.578979 188.0
403.763367 168.0
404.499542 76.0
404.679688 128.0
404.749847 116.0
404.831848 52.0
405.012085 52.0
405.160278 144.0
405.36261 48.0
405.548981 36.0
405.681244 164.0
405.893738 56.0
405.957886 52.0
406.202545 108.0
406.279572 296.0
406.427216 168.0
406.483398 124.0
406.611816 56.0
406.713806 68.0
406.89679 76.0
406.971588 108.0
407.043915 100.0
407.097565 148.0
407.144653 88.0
407.231934 160.0
407.272003 288.0
407.382721 96.0
407.483154 192.0
407.5354 156.0
407.607727 112.0
407.676025 200.0
407.70816 108.0
407.762878 124.0
407.913147 120.0
407.967407 120.0
408.013641 152.0
408.078339 140.0
408.111267 184.0
408.172577 144.0
408.289246 70996.0
408.389435 148.0
408.489258 184.0
408.526764 108.0
408.61145 168.0
408.64389 164.0
408.650177 68.0
408.666534 96.0
408.69397 136.0
408.738007 84.0
408.814056 80.0
408.854309 156.0
408.896118 72.0
408.943634 200.0
408.976166 72.0
409.057404 156.0
409.097656 56.0
409.150391 56.0
409.200806 300.0
409.291992 16824.0
409.408386 84.0
409.447601 76.0
409.511658 72.0
409.573059 228.0
409.638672 68.0
409.671936 112.0
409.715973 140.0
409.745972 108.0
409.81485 96.0
409.868378 100.0
409.909973 132.0
409.920929 80.0
409.93811 104.0
410.042358 64.0
410.078644 52.0
410.131012 44.0
410.19574 76.0
410.296967 2876.0
410.352753 208.0
410.393066 40.0
410.422485 148.0
410.497345 144.0
410.505463 96.0
410.598724 56.0
410.673615 80.0
410.854614 144.0
410.900421 56.0
410.990906 72.0
411.022278 44.0
411.108429 152.0
411.139099 80.0
411.240204 176.0
411.298309 280.0
411.39917 104.0
411.432404 104.0
411.520813 148.0
411.585663 132.0
411.629578 132.0
411.6604 152.0
411.716156 108.0
411.775818 120.0
411.825623 28.0
411.902374 172.0
412.003357 136.0
412.111115 92.0
412.140747 124.0
412.282166 60.0
412.363007 112.0
412.476166 132.0
412.52063 64.0
412.621704 72.0
412.734894 124.0
412.793427 136.0
412.880493 92.0
412.961548 112.0
413.141785 108.0
413.293091 40.0
413.369965 92.0
413.536774 72.0
413.705902 80.0
413.766602 80.0
413.823303 44.0
414.48349 112.0
414.669922 52.0
414.921234 48.0
414.960846 88.0
415.059082 120.0
415.152344 60.0
415.203613 100.0
415.245636 72.0
415.347015 240.0
415.614777 52.0
416.097748 76.0
416.459167 36.0
416.503845 60.0
416.804474 68.0
417.308472 68.0
417.768005 88.0
419.494629 124.0
419.792267 108.0
420.42865 40.0
420.616394 76.0
420.726593 124.0
420.861328 108.0
421.163513 176.0
422.381592 84.0
422.541107 76.0
423.085419 64.0
423.503082 84.0
424.211975 100.0
424.261139 136.0
424.79834 40.0
425.011688 104.0
425.339996 88.0
425.598633 120.0
425.697174 60.0
426.149017 140.0
426.2435 140.0
426.300415 3380.0
426.37912 128.0
426.691498 68.0
426.802521 76.0
426.909424 60.0
426.950562 112.0
427.197327 76.0
427.242584 60.0
427.305664 1676.0
427.699341 96.0
427.736389 104.0
427.835205 60.0
427.93399 48.0
428.010864 84.0
428.296387 344.0
428.613617 56.0
428.720734 92.0
429.149414 124.0
429.45871 120.0
429.615448 60.0
429.813507 80.0
431.093567 116.0
431.349823 100.0
431.473846 52.0
432.723267 88.0
433.45224 104.0
434.600769 100.0
435.655304 104.0
436.902435 108.0
437.430939 40.0
438.059723 96.0
441.754028 56.0
443.097839 56.0
447.280396 124.0
447.815125 72.0
450.510468 60.0
458.743073 96.0
459.937439 64.0
462.048401 96.0
463.032898 100.0
463.684113 80.0
472.645569 88.0
476.091736 116.0
477.43454 108.0
478.217651 80.0
481.055237 88.0
485.917267 56.0
489.57431 108.0
492.454163 52.0
500.289337 64.0
503.865936 80.0
510.427643 108.0
511.264343 96.0
512.818115 80.0
516.855347 36.0
523.682983 96.0
524.630737 40.0
528.293213 60.0
528.741577 52.0
534.887268 104.0
537.842163 72.0
538.682251 92.0
540.957397 84.0
544.193298 96.0
554.024475 88.0
554.507141 68.0
557.614014 56.0
570.732239 140.0
571.421875 80.0
573.993896 40.0
575.515991 108.0
580.914368 72.0
584.42627 72.0
594.379883 72.0
597.752136 44.0
598.706238 92.0
599.042297 92.0
601.934448 60.0
602.510742 80.0
604.520325 152.0
605.210449 112.0
607.008728 36.0
609.222229 144.0
610.829712 64.0
613.306396 96.0
613.592346 52.0
616.959229 68.0
620.196533 116.0
620.72699 56.0
622.791504 56.0
622.88092 56.0
622.950439 68.0
625.506409 132.0
630.034302 84.0
634.042175 108.0
638.580688 60.0
646.162292 88.0
648.846497 96.0
650.139893 92.0
657.161926 96.0
657.55481 120.0
660.830322 72.0
668.069153 92.0
681.142273 76.0
681.386475 56.0
681.724182 84.0
688.4599 48.0
691.303711 128.0
698.428284 120.0
714.63208 92.0
719.802307 76.0
722.61908 52.0
731.619141 104.0
736.796265 176.0
746.552673 160.0
747.455627 60.0
785.937256 56.0
788.520752 76.0
796.52179 120.0
799.34967 68.0
799.529724 132.0
808.898987 176.0
819.302307 124.0
819.955078 136.0
825.003357 100.0
834.813477 56.0
837.777588 136.0
840.568115 80.0
844.502258 116.0
848.805115 140.0
855.271118 68.0
868.698975 148.0
871.716736 160.0
888.461426 120.0
902.798096 100.0
914.045532 100.0
920.669739 176.0
921.467773 96.0
924.321594 196.0
927.846619 100.0
929.478088 248.0
931.190002 204.0
939.272949 156.0
941.091553 184.0
947.249878 164.0
947.923828 32.0
955.666626 84.0
955.734314 116.0
959.731689 140.0
959.873535 72.0
963.082642 44.0
966.451782 108.0
978.878418 56.0
985.527649 68.0
1004.865662 60.0
1007.068726 164.0
1008.616699 124.0
1008.907471 56.0
1010.05835 132.0
1012.495117 248.0
1017.225037 184.0
1017.853516 72.0
1018.78717 180.0
1020.318726 64.0
1020.763794 184.0
1027.6875 56.0
1030.982422 92.0
1031.519287 144.0
1045.797363 84.0
1047.200928 156.0
1048.231689 192.0
1048.489502 140.0
1049.804565 172.0
1050.855957 136.0
1051.488281 116.0
1052.38562 52.0
1059.091675 160.0
1061.074585 92.0
1062.436401 108.0
1066.208862 216.0
1068.393555 44.0
1069.206909 132.0
1074.524048 152.0
1075.887939 156.0
1079.906616 148.0
1093.020386 172.0
1103.613403 124.0
1105.425781 164.0
1107.637085 112.0
1110.818848 160.0
1111.296387 68.0
1112.099365 168.0
1114.257568 184.0
1118.253906 216.0
1118.347046 192.0
1119.425537 48.0
1126.448486 132.0
1130.125366 184.0
1134.022827 132.0
1134.552368 140.0
1141.582153 64.0
1142.631348 204.0
1144.307129 200.0
1144.401489 176.0
1146.031372 160.0
1148.120972 136.0
1149.915527 208.0
1152.616821 152.0
1152.738403 48.0
1153.792847 120.0
1154.563599 200.0
1154.989746 60.0
1155.557983 144.0
1156.417358 144.0
1156.897949 196.0
1157.446289 132.0
1161.973877 136.0
1163.779175 136.0
1165.395752 96.0
1165.579102 192.0
1165.626709 136.0
1166.04126 220.0
1168.747681 184.0
1177.200073 224.0
1178.333862 156.0
1178.545654 212.0
1180.227051 108.0
1181.478638 56.0
1185.470459 124.0
1187.945435 172.0
1188.514893 60.0
1189.132568 168.0
1191.501465 152.0
1193.535889 108.0
1198.905151 196.0
1202.387817 192.0
1206.359375 216.0
1207.285767 156.0
1212.769043 212.0
1216.028809 164.0
1217.452026 216.0
1218.520142 92.0
1226.168945 116.0
1228.748901 84.0
1229.167603 132.0
1229.537354 224.0
1233.44165 176.0
1238.941895 164.0
1239.56543 40.0
1241.079468 208.0
1241.948975 236.0
1244.608765 144.0
1245.43042 148.0
1246.603638 176.0
1252.08374 156.0
1253.239014 144.0
1255.64978 192.0
1255.955933 196.0
1261.227417 148.0
1261.276978 92.0
1263.843994 172.0
1265.323242 144.0
1266.952148 236.0
1271.362305 156.0
1272.55481 192.0
1274.593262 128.0
1276.12854 176.0
1277.045898 192.0
1277.508179 200.0
1278.46875 116.0
1279.258789 120.0
1279.821167 152.0
1280.547607 140.0
1280.974976 124.0
1283.505005 148.0
1283.668945 160.0
1284.268066 172.0
1285.373779 140.0
1286.080322 92.0
1286.194458 212.0
1286.244507 184.0
1286.487183 188.0
1288.836792 140.0
1291.882446 52.0
1292.33313 212.0
1293.549805 192.0
1293.743042 144.0
1294.17981 152.0
1295.239624 176.0
1298.715942 208.0
1299.914062 224.0
1301.421387 216.0
1302.62793 136.0
1303.152344 176.0
1304.834106 208.0
1305.747314 168.0
1310.930542 176.0
1315.04126 216.0
1315.236206 96.0
1317.431396 160.0
1317.6698 52.0
1320.83606 148.0
1322.702881 40.0
1324.013306 52.0
1324.365234 188.0
1326.491211 196.0
1326.911743 200.0
1327.419312 152.0
1329.704468 48.0
1331.08374 208.0
1332.049683 168.0
1334.884033 148.0
1335.233154 80.0
1336.295166 120.0
1336.746216 192.0
1338.704468 216.0
1341.123169 64.0
1345.295532 184.0
1346.668213 172.0
1346.865479 180.0
1347.354858 204.0
1349.00647 188.0
1349.474243 108.0
1349.788696 148.0
1350.344482 124.0
1352.678589 148.0
1357.034058 184.0
1360.18457 168.0
1360.360718 160.0
1363.820435 160.0
1364.952515 184.0
1365.173096 128.0
1365.268799 64.0
1370.237183 152.0
1370.288696 100.0
1372.131226 172.0
1372.293457 204.0
1375.347534 52.0
1376.034058 112.0
1376.277588 192.0
1377.348511 136.0
1380.36377 124.0
1380.415527 56.0
1381.865234 124.0
1382.264771 148.0
1384.700317 172.0
1387.404907 160.0
1389.370117 236.0
1391.024902 224.0
1392.747559 132.0
1394.828125 264.0
1394.909912 96.0
1400.505371 196.0
1401.287476 44.0
1402.8302 100.0
1404.470581 144.0
1404.701904 164.0
1411.169067 124.0
1412.186157 172.0
1414.475708 124.0
1415.156982 120.0
1415.920776 188.0
1417.831055 52.0
1420.845337 220.0
1421.513062 132.0
1422.691528 144.0
1422.789062 140.0
1423.382202 220.0
1427.063843 76.0
1427.449463 252.0
1427.770752 120.0
1427.936157 120.0
1431.909912 196.0
1436.341797 200.0
1436.771729 164.0
1437.224365 220.0
1437.345093 272.0
1438.265869 224.0
1439.088745 184.0
1440.576416 192.0
1445.899414 172.0
1447.867798 164.0
1448.004028 180.0
1448.147949 176.0
1449.072144 156.0
1451.98291 196.0
1452.278687 140.0
1453.188965 100.0
1456.977417 44.0
1461.934814 116.0
1464.051147 144.0
1464.188232 72.0
1464.568237 220.0
1465.13269 224.0
1466.251465 120.0
1466.458496 176.0
1470.653442 216.0
1473.432983 52.0
1473.708008 112.0
1474.907837 176.0
1475.030029 136.0
1475.412354 104.0
1477.56897 148.0
1477.744873 164.0
1478.165771 92.0
1479.329102 188.0
1479.727173 168.0
1480.010376 28.0
1482.338989 160.0
1483.411987 180.0
1484.324341 76.0
1484.485352 180.0
1484.569702 220.0
1484.830444 192.0
1485.482422 192.0
1485.934937 140.0
1487.116699 56.0
1488.122314 132.0
1489.197388 168.0
1490.587891 160.0
1490.79541 52.0
1490.972168 148.0
1501.434326 120.0
1501.920288 124.0
1502.352295 52.0
