>compound MLS002639247-01!
>formula C16H23NO6
>ionization [M+H]+
>parentmass 326.15981390809054
#inchi InChI=1S/C16H23NO6/c1-9-13(18)23-11-5-7-17-6-4-10(12(11)17)8-22-14(19)16(3,21)15(9,2)20/h4,9,11-12,20-21H,5-8H2,1-3H3
#inchikey QVCMHGGNRFRMAD
#Ion_Source LC-ESI
#Instrument qTof
#Compound_Source NIH Natural Product Library
#PI Dorrestein
#Data_Collector VVP/LMS
#Scan -1
#Precursor_MZ 326.16
#ExactMass 325.153
#Charge 1
#CAS_Number N/A
#Pubmed_ID N/A
#Smiles CC1C(=O)OC2CCN3CC=C(COC(=O)C(C)(O)C1(C)O)C23
#INCHI_AUX N/A
#Library_Class 1
#SpectrumID CCMSLIB00000079685
#IonMode Positive
#UpdateWorkflowName UPDATE-SINGLE-ANNOTATED-GOLD
#LibraryQualityString Gold
#TaskID b1d8e8f6646f4e71acdff9ca3d919d08
##Scan# 1253
#SpectrumFile p1-G09-2_GG9_01_17969.mzXML
#LibraryName NIH_Natural_Products_Library.mgf
#MQScore -1
#Organism NIH_Natural_Products_Library
#TIC_Query 0
#RT_Query -1
#MZErrorPPM -1
#SharedPeaks 0
#MassDiff 0
#LibMZ -1
#SpecMZ 326.16
#SpecCharge 0
#internalFilename spec-00000.mgf

>collision 10
96.994095 112.0
104.311218 180.0
111.288864 132.0
112.073997 1996.0
112.248367 48.0
113.072273 136.0
113.80999 88.0
118.085426 220.0
121.86776 124.0
130.883316 200.0
140.074478 212.0
159.785873 20.0
162.001205 216.0
183.15094 368.0
194.109497 144.0
197.761917 60.0
208.147385 140.0
210.858246 164.0
215.458176 160.0
218.368988 60.0
229.153381 1444.0
229.495453 52.0
230.156616 132.0
237.147385 184.0
238.882278 132.0
269.117676 224.0
313.815643 180.0
315.754303 156.0
326.162354 84.0
326.205475 268.0
925.27417 20.0
994.192261 60.0
1192.990479 168.0
1240.265259 164.0
