>compound Moclobemide
>formula C13H17ClN2O2
>ionization [M+H]+
>parentmass 269.106232
#inchi InChI=1S/C13H17ClN2O2/c14-12-3-1-11(2-4-12)13(17)15-5-6-16-7-9-18-10-8-16/h1-4H,5-10H2,(H,15,17)
#inchikey YHXISWVBGDMDLQ
#Ion_Source LC-ESI
#Instrument qTof
#Compound_Source Commercial
#PI Dorrestein
#Data_Collector Garg_Neha
#Scan -1
#Precursor_MZ 269.105
#ExactMass 268.098
#Charge 1
#CAS_Number 71320-77-9, 64544-22-5 (HCl), 854045-89-9 (Maleic acid)
#Pubmed_ID N/A
#Smiles C(C1C=CC(=CC=1)Cl)(=O)NCCN2CCOCC2
#INCHI_AUX N/A
#Library_Class 1
#SpectrumID CCMSLIB00000078611
#IonMode Positive
#UpdateWorkflowName UPDATE-SINGLE-ANNOTATED-GOLD
#LibraryQualityString Gold
#TaskID 77f51c88eb8b467eb4a01dd2d0cb90d2
##Scan# 1032
#SpectrumFile Plate9_81_88_Plate8_81_88_GC8_01_15759.mzXML
#LibraryName FDALibrary_2_04302014.mgf
#MQScore -1
#Organism FDALibrary_2_04302014
#TIC_Query 0
#RT_Query -1
#MZErrorPPM -1
#SharedPeaks 0
#MassDiff 0
#LibMZ -1
#SpecMZ 269.105
#SpecCharge 0
#internalFilename spec-00000.mgf

>collision 10
44.928619 192.0
45.042088 168.0
45.063461 152.0
45.090187 184.0
45.147678 140.0
45.211891 156.0
45.394085 148.0
45.822868 212.0
45.852516 156.0
45.887562 164.0
45.909138 176.0
46.07246 168.0
46.749065 212.0
46.814411 184.0
46.838924 148.0
46.877075 180.0
47.418266 236.0
47.969456 152.0
48.00668 196.0
48.05772 156.0
48.093601 140.0
48.158497 148.0
48.485016 264.0
48.595951 180.0
48.904461 172.0
49.098122 192.0
49.190212 156.0
49.412415 180.0
49.523811 152.0
49.586189 164.0
49.674393 152.0
49.806339 324.0
49.935654 152.0
50.001778 176.0
50.136982 140.0
50.399456 156.0
50.538025 152.0
50.606876 192.0
50.737724 156.0
51.185291 236.0
51.195259 148.0
51.340622 176.0
51.377708 140.0
51.421944 196.0
51.440498 156.0
52.109306 196.0
52.425873 152.0
52.523914 172.0
52.682705 172.0
52.726051 160.0
53.001003 200.0
53.114086 140.0
53.135849 180.0
53.260693 148.0
53.302826 184.0
53.455513 140.0
53.597153 248.0
53.613586 168.0
53.711933 144.0
53.834534 156.0
54.352737 144.0
54.376217 144.0
54.409981 176.0
54.499573 180.0
54.521614 244.0
55.128788 188.0
55.279625 192.0
55.310707 192.0
55.39119 148.0
56.320351 216.0
56.721371 184.0
56.772346 200.0
57.005032 268.0
57.062149 144.0
57.403954 140.0
57.417526 204.0
57.571461 172.0
57.662766 184.0
57.840588 184.0
57.875408 172.0
57.949627 144.0
58.103573 140.0
58.123997 156.0
58.286472 144.0
58.944759 172.0
59.131332 152.0
59.384136 208.0
59.835918 140.0
60.104111 192.0
60.120625 160.0
60.54623 200.0
60.816799 156.0
60.831528 172.0
60.870342 200.0
60.907616 196.0
61.028835 192.0
61.159512 148.0
61.374504 168.0
61.393215 168.0
61.421288 144.0
61.468094 208.0
61.50243 184.0
61.571022 176.0
61.68206 224.0
61.97002 152.0
62.109543 188.0
62.442524 204.0
62.546371 192.0
62.574707 148.0
62.790592 184.0
62.810226 168.0
62.853695 176.0
62.910511 244.0
63.128555 180.0
63.299461 140.0
63.378662 156.0
63.475353 140.0
63.486454 172.0
63.648315 148.0
63.802433 164.0
63.99176 156.0
64.033165 152.0
64.443138 228.0
64.97789 164.0
65.231819 140.0
65.379608 156.0
65.429504 144.0
65.627678 148.0
65.934387 168.0
66.191605 176.0
66.232094 160.0
66.329323 196.0
66.666908 172.0
66.836029 248.0
66.964638 140.0
67.704483 200.0
67.771645 192.0
67.878189 164.0
68.109596 152.0
68.288757 156.0
68.328232 144.0
68.515152 180.0
68.585129 140.0
68.899178 208.0
69.20961 192.0
69.436638 140.0
69.561081 168.0
69.790352 180.0
70.328445 148.0
70.956833 352.0
71.214188 144.0
71.65155 144.0
71.744041 100.0
72.771202 144.0
72.811958 204.0
72.903694 176.0
72.930893 180.0
73.053322 164.0
73.189476 140.0
73.532127 248.0
73.682396 180.0
73.719986 156.0
73.798622 208.0
73.861893 148.0
73.959427 172.0
74.017639 156.0
74.66288 220.0
74.728249 232.0
75.248756 160.0
75.281563 208.0
75.304016 168.0
75.381752 148.0
75.498558 360.0
75.606567 160.0
75.831024 180.0
76.272591 140.0
76.310837 160.0
76.871712 168.0
76.90036 164.0
76.978203 152.0
77.492455 152.0
77.617355 160.0
77.774796 148.0
77.943649 192.0
77.96624 144.0
78.010178 156.0
78.293465 144.0
78.32869 156.0
78.464386 160.0
78.480255 180.0
78.730576 140.0
79.049034 208.0
79.201035 332.0
79.424629 172.0
79.561272 152.0
79.669601 196.0
79.756676 208.0
79.859802 156.0
80.05735 152.0
80.265846 160.0
80.603218 140.0
80.755173 172.0
80.991989 100.0
81.177834 156.0
81.19397 148.0
81.256752 144.0
81.454224 160.0
81.669502 220.0
82.156296 180.0
82.210426 144.0
82.304291 196.0
82.490379 184.0
82.622391 228.0
82.926605 188.0
83.045456 160.0
83.2332 164.0
83.25499 152.0
83.569466 140.0
83.596756 144.0
83.671387 156.0
83.787941 184.0
83.868126 264.0
83.968407 164.0
84.661057 168.0
84.789291 192.0
85.647331 160.0
86.337608 252.0
86.487473 152.0
86.572639 156.0
86.65229 144.0
86.667107 172.0
86.948982 160.0
86.971252 172.0
86.999092 380.0
87.012093 204.0
87.037582 148.0
87.088226 240.0
87.112373 212.0
87.129097 140.0
87.324272 188.0
87.474991 244.0
87.581131 244.0
87.603485 192.0
88.074524 348.0
88.368279 112.0
88.466248 176.0
88.548637 152.0
88.586693 176.0
88.600121 236.0
88.927368 220.0
89.125542 140.0
89.549706 200.0
89.634476 152.0
89.719292 168.0
89.838104 156.0
89.953217 144.0
90.086319 152.0
90.230919 204.0
90.255501 160.0
90.291428 208.0
90.632172 212.0
90.689186 196.0
90.865387 196.0
91.218613 184.0
91.374557 176.0
91.476593 188.0
91.738304 164.0
91.898506 152.0
91.913773 160.0
92.146713 168.0
92.16391 196.0
92.349342 196.0
92.475624 156.0
92.502426 228.0
92.560692 104.0
92.79937 144.0
92.874161 212.0
92.913544 332.0
92.979683 144.0
93.183228 176.0
93.450478 200.0
93.512062 192.0
94.03437 196.0
94.77697 196.0
95.063957 164.0
95.077545 156.0
95.114418 148.0
95.623665 208.0
95.664978 196.0
95.763222 212.0
95.832031 168.0
95.986015 164.0
96.120613 176.0
96.507362 160.0
96.585587 236.0
96.599281 212.0
96.687332 168.0
96.9282 164.0
97.145828 184.0
97.240013 248.0
97.289085 160.0
97.479607 152.0
97.7313 244.0
97.821831 188.0
97.926186 180.0
98.109444 196.0
98.158737 160.0
98.190292 160.0
98.362808 124.0
98.401428 176.0
98.703735 196.0
99.565773 264.0
100.078819 192.0
100.295906 144.0
100.409615 220.0
100.579208 200.0
100.81488 244.0
100.988823 148.0
101.122871 148.0
101.384392 148.0
101.462418 276.0
101.581726 180.0
102.030411 104.0
102.278999 176.0
102.302055 124.0
102.391754 184.0
102.656853 176.0
102.854973 172.0
103.002899 168.0
103.221169 172.0
103.37896 168.0
103.553062 208.0
103.980858 148.0
104.033638 148.0
104.060028 168.0
104.131104 144.0
104.639473 148.0
104.733147 236.0
104.755554 160.0
105.182838 216.0
105.306984 188.0
105.439041 164.0
105.696472 144.0
105.813431 140.0
106.37925 152.0
106.410049 172.0
106.483971 148.0
107.043343 192.0
107.854378 144.0
108.125092 208.0
108.180984 144.0
108.468918 304.0
108.935822 156.0
109.060501 148.0
109.0896 144.0
109.330872 176.0
109.7183 200.0
109.795456 196.0
109.922707 148.0
110.27356 148.0
110.398994 140.0
110.530785 156.0
110.798782 164.0
111.000717 964.0
111.096481 160.0
111.474594 240.0
111.727867 140.0
111.9981 192.0
112.867767 152.0
113.001022 156.0
113.07177 172.0
113.24234 144.0
113.322845 224.0
113.386337 112.0
113.544266 220.0
113.668465 160.0
113.706657 140.0
113.842529 168.0
114.090988 3176.0
114.13578 148.0
114.182564 272.0
114.911079 180.0
114.991402 264.0
115.094315 264.0
115.160843 156.0
115.180061 212.0
115.365974 196.0
115.402321 236.0
115.445084 164.0
115.834625 140.0
115.888184 152.0
115.999626 160.0
116.241982 176.0
116.340714 140.0
116.39653 160.0
116.512833 136.0
116.652199 172.0
116.682297 176.0
116.888786 204.0
116.912453 192.0
116.970566 140.0
116.994492 176.0
117.086838 176.0
117.224106 100.0
117.448929 176.0
117.470505 200.0
117.764061 188.0
118.150993 140.0
118.211578 212.0
118.34362 152.0
118.482231 144.0
118.742348 188.0
118.796577 216.0
120.01886 160.0
120.673889 172.0
120.770111 248.0
121.170715 148.0
121.348236 168.0
121.45417 136.0
122.026665 152.0
122.105186 164.0
122.277435 140.0
122.303848 156.0
122.397652 184.0
122.480003 196.0
122.912109 188.0
123.205757 148.0
123.230064 156.0
123.301186 152.0
123.687149 180.0
123.985207 216.0
124.026741 172.0
124.193039 144.0
124.390526 348.0
124.54818 168.0
124.850449 148.0
125.32682 148.0
125.75499 144.0
126.073143 184.0
126.163765 176.0
126.474701 156.0
126.582169 144.0
126.676231 148.0
126.844643 156.0
126.90332 196.0
126.933975 156.0
127.086502 176.0
127.284027 152.0
127.396332 164.0
127.522163 228.0
127.636818 144.0
127.681793 220.0
127.994591 160.0
128.519791 152.0
129.009384 336.0
129.12294 160.0
129.229248 184.0
129.28392 152.0
129.43837 176.0
129.660263 296.0
130.016449 144.0
130.283493 176.0
130.813965 192.0
131.079834 140.0
131.100281 148.0
131.116623 168.0
131.189224 260.0
131.212021 172.0
131.622726 156.0
131.718643 192.0
131.883163 144.0
132.217087 144.0
132.384201 148.0
132.481003 184.0
132.877014 152.0
132.957321 180.0
133.163956 160.0
133.189224 300.0
133.363846 212.0
133.874603 148.0
133.964432 212.0
134.162613 144.0
134.215637 168.0
134.499405 180.0
134.697983 140.0
134.926773 280.0
135.153427 172.0
135.247543 180.0
135.774261 184.0
135.804413 192.0
136.206253 220.0
136.545303 216.0
136.652954 144.0
136.894394 144.0
136.927002 184.0
137.048126 152.0
137.071426 140.0
137.130936 112.0
137.234589 160.0
137.60791 148.0
137.628922 196.0
137.722336 164.0
137.826324 116.0
138.029083 188.0
138.093964 160.0
138.351364 160.0
138.470779 148.0
138.716812 208.0
138.782455 368.0
138.84108 148.0
138.930054 180.0
138.994263 88612.0
139.06958 148.0
139.14801 192.0
139.307831 140.0
139.660492 168.0
139.823914 104.0
139.99765 5580.0
140.057816 148.0
140.27533 144.0
140.317764 148.0
140.539474 204.0
140.681076 160.0
140.750244 136.0
140.836929 144.0
140.991287 25684.0
141.069534 184.0
141.090408 120.0
141.15419 352.0
141.219833 160.0
141.243484 180.0
141.268372 116.0
141.338852 104.0
141.390182 168.0
141.532211 152.0
141.577881 160.0
141.821304 140.0
141.995163 784.0
142.039383 156.0
142.214966 140.0
142.29805 144.0
142.502319 140.0
142.528442 188.0
142.547455 148.0
142.652039 276.0
142.668671 140.0
142.880981 132.0
142.968063 152.0
143.094528 164.0
143.702301 208.0
143.929047 144.0
144.046906 204.0
144.224777 172.0
145.773514 168.0
146.081268 192.0
146.731491 168.0
146.932419 160.0
147.267212 152.0
147.296188 144.0
147.397659 148.0
147.698746 176.0
147.859558 152.0
148.04689 116.0
148.073776 172.0
148.145264 172.0
148.343979 184.0
149.198502 220.0
149.354141 192.0
149.775238 180.0
149.84903 152.0
150.231079 164.0
150.418976 180.0
151.071442 160.0
151.784851 112.0
152.031921 188.0
152.241806 168.0
152.341278 172.0
152.828079 208.0
153.128403 152.0
153.58931 164.0
153.769424 144.0
154.052567 132.0
154.129974 176.0
155.578873 164.0
156.349426 172.0
156.790222 168.0
157.963745 204.0
158.118866 140.0
158.223999 176.0
158.388016 148.0
158.497009 156.0
159.156693 192.0
159.946106 180.0
159.993942 192.0
160.021378 160.0
160.207993 200.0
160.28714 104.0
160.90657 156.0
161.0 288.0
161.16925 208.0
161.25264 156.0
161.401794 160.0
161.604141 160.0
161.912979 208.0
162.356476 180.0
162.610184 140.0
163.085129 148.0
163.235138 152.0
163.601517 168.0
163.963211 184.0
164.258972 160.0
164.728668 148.0
165.975052 188.0
166.077637 164.0
166.203354 160.0
166.529373 200.0
167.030594 204.0
167.118073 208.0
167.172104 152.0
167.442795 244.0
168.071411 144.0
168.636978 152.0
169.136169 148.0
169.190536 192.0
169.244904 184.0
169.604507 144.0
169.978775 104.0
170.248444 152.0
170.344543 236.0
170.729828 152.0
171.096451 208.0
171.150772 204.0
171.333099 188.0
171.534882 176.0
171.602371 280.0
172.013718 152.0
172.092041 176.0
172.16777 192.0
172.711395 148.0
173.161469 172.0
173.675308 172.0
174.747116 148.0
174.99057 120.0
175.315887 256.0
175.466125 164.0
175.5215 192.0
175.840698 144.0
176.096802 188.0
176.366302 164.0
176.551453 148.0
176.638657 176.0
176.78418 192.0
177.925827 196.0
178.104889 164.0
178.436676 188.0
179.040588 172.0
179.077988 140.0
179.438919 208.0
179.882141 224.0
180.056808 140.0
180.437775 224.0
180.600952 128.0
180.695679 184.0
180.754532 188.0
180.794678 168.0
180.909775 176.0
180.928513 152.0
181.018616 172.0
181.028915 112.0
181.078461 152.0
181.306274 120.0
181.516541 172.0
181.632339 124.0
181.707672 116.0
181.782166 160.0
181.848404 164.0
181.87532 224.0
181.913879 128.0
181.92421 108.0
181.973495 300.0
182.036972 237976.0
182.212631 104.0
182.241241 136.0
182.268951 196.0
182.333923 156.0
182.403915 204.0
182.432556 100.0
182.477844 1492.0
182.544891 180.0
182.588608 116.0
182.684296 188.0
182.72876 148.0
182.883423 156.0
182.93985 128.0
183.039627 21476.0
183.148697 180.0
183.31868 296.0
183.353302 100.0
183.393906 96.0
183.486938 144.0
183.553848 136.0
183.602798 216.0
183.672974 144.0
183.703995 224.0
183.722427 248.0
183.761246 144.0
183.81723 96.0
183.855682 164.0
183.911697 112.0
183.937027 132.0
184.001587 328.0
184.033478 74752.0
184.153549 124.0
184.218643 284.0
184.262375 232.0
184.372253 204.0
184.441177 236.0
184.474503 232.0
184.509766 244.0
184.541458 308.0
184.57486 172.0
184.672287 240.0
184.715805 168.0
184.754532 140.0
184.817688 160.0
185.036438 5784.0
185.318436 100.0
185.36908 128.0
185.590256 124.0
185.744232 164.0
186.486267 376.0
186.615982 144.0
186.645035 152.0
186.991379 140.0
187.237015 212.0
187.469177 108.0
187.900177 188.0
188.395645 172.0
188.41478 144.0
189.623642 216.0
190.115158 168.0
190.436371 164.0
192.282288 116.0
192.69249 176.0
193.165222 152.0
193.38382 212.0
194.400925 172.0
194.720184 176.0
195.10556 108.0
196.231186 156.0
196.769653 200.0
198.894409 144.0
199.966187 164.0
200.131378 144.0
200.415863 164.0
201.640594 164.0
202.415726 240.0
202.894562 172.0
203.115753 140.0
204.587753 152.0
205.046341 180.0
205.174622 152.0
206.622574 172.0
206.840057 248.0
207.324097 152.0
207.952179 196.0
208.94931 144.0
210.514847 116.0
211.356903 208.0
211.624817 200.0
212.027466 144.0
212.906509 140.0
213.069168 192.0
214.113419 168.0
215.224457 140.0
215.876678 140.0
216.525772 180.0
217.191101 184.0
217.528549 148.0
217.954407 200.0
218.480682 152.0
219.098923 172.0
219.37146 200.0
219.759338 140.0
220.589203 152.0
220.609894 160.0
222.022263 192.0
222.681122 144.0
224.770966 200.0
224.869446 156.0
225.436874 152.0
226.055893 204.0
226.603851 144.0
227.251465 148.0
227.578629 156.0
228.374985 188.0
228.748108 160.0
229.89946 140.0
231.386612 172.0
231.407806 176.0
232.310928 184.0
234.427109 212.0
234.606934 212.0
235.476562 144.0
236.859085 168.0
237.337173 148.0
237.521179 208.0
239.892044 148.0
240.475021 176.0
240.635544 256.0
242.373825 188.0
242.683777 216.0
243.804367 184.0
244.133896 248.0
244.662857 148.0
247.516586 156.0
247.619919 160.0
248.532166 164.0
249.084702 160.0
249.420929 168.0
249.870621 148.0
250.024719 144.0
250.304977 184.0
251.105423 172.0
251.41452 156.0
251.47142 184.0
252.136398 188.0
252.751297 188.0
253.093475 156.0
253.561996 208.0
253.983688 140.0
255.298553 192.0
255.992294 152.0
256.409637 216.0
256.651917 180.0
259.28598 180.0
262.265411 144.0
264.303223 168.0
265.090088 180.0
265.399414 112.0
266.082611 148.0
266.218994 148.0
266.576324 140.0
266.950165 148.0
267.24292 140.0
267.268951 220.0
267.459381 148.0
267.591156 148.0
267.630249 152.0
267.758759 156.0
267.934631 132.0
268.126862 276.0
268.206879 196.0
268.310883 172.0
268.362183 112.0
268.424286 128.0
268.471741 100.0
268.54422 164.0
268.59256 112.0
268.658905 128.0
268.730499 256.0
268.757904 128.0
268.828156 208.0
268.857635 272.0
268.892761 272.0
268.966278 244.0
268.991852 424.0
269.023254 320.0
269.065948 696.0
269.106232 164208.0
269.184052 232.0
269.383453 132.0
269.424561 252.0
269.469604 272.0
269.54541 188.0
269.643341 4624.0
269.679291 268.0
269.723724 124.0
269.804169 268.0
269.834808 116.0
269.864136 172.0
269.940582 204.0
269.994019 204.0
270.108002 39424.0
270.197784 140.0
270.244843 108.0
270.313599 300.0
270.409149 108.0
270.470978 136.0
270.600464 108.0
270.678802 164.0
270.727142 148.0
270.805481 108.0
270.941162 140.0
270.999634 104.0
271.032196 172.0
271.102814 83196.0
271.358459 116.0
271.432678 184.0
271.49762 100.0
271.589935 192.0
271.684479 312.0
271.706848 264.0
271.752686 288.0
271.811157 148.0
271.868042 156.0
271.917267 220.0
271.966705 264.0
271.996063 168.0
272.033112 324.0
272.062714 144.0
272.104736 8204.0
272.229553 268.0
272.259094 172.0
272.407501 112.0
272.524841 120.0
272.806061 208.0
272.855377 148.0
272.937805 168.0
272.9841 108.0
273.041901 116.0
273.107422 192.0
273.660126 124.0
273.870209 112.0
273.920441 112.0
273.986267 124.0
274.117767 104.0
276.043182 104.0
278.950043 104.0
282.914612 168.0
283.712311 100.0
286.120453 104.0
316.800842 152.0
327.049469 168.0
341.186188 152.0
371.246124 148.0
405.788025 156.0
763.743164 148.0
991.18396 164.0
1119.308594 152.0
1134.146606 168.0
1177.593506 148.0
1194.53772 180.0
1206.613159 168.0
1216.457397 212.0
1252.075684 164.0
1269.878906 160.0
1279.799438 160.0
1281.751099 176.0
1283.026855 156.0
1292.755249 180.0
1302.469971 184.0
1305.308838 152.0
1314.918945 176.0
1349.321899 228.0
1353.880493 172.0
1375.076172 152.0
1375.61499 148.0
1390.151245 152.0
1394.748535 140.0
1398.862061 196.0
1400.842896 144.0
1401.371826 172.0
1436.329834 220.0
1437.959595 160.0
1443.981201 160.0
1459.17749 216.0
1482.266602 168.0
1485.878052 264.0
1493.836914 164.0
1507.707886 240.0
1522.559326 220.0
1531.005127 200.0
1531.449097 224.0
1534.402466 160.0
1534.870239 148.0
1543.232788 156.0
1545.939209 208.0
1550.606812 176.0
1554.92041 156.0
1555.54834 160.0
1567.400635 188.0
1609.808716 140.0
1614.355713 256.0
1617.115845 240.0
1624.415405 188.0
1632.985962 176.0
1636.526733 228.0
1644.959473 176.0
1645.944458 220.0
1652.92041 148.0
1654.741577 188.0
1666.786377 180.0
1669.451904 196.0
1674.351929 228.0
1681.787598 180.0
1691.768311 140.0
1691.92395 176.0
1697.446289 192.0
1703.109131 156.0
1711.40686 148.0
1717.323853 152.0
1729.949829 172.0
1733.602417 168.0
1738.95166 172.0
1739.117676 156.0
1739.449707 168.0
1742.464233 152.0
1744.359009 200.0
1745.398315 172.0
1748.509521 236.0
1748.817505 188.0
1749.29187 232.0
1753.639893 168.0
1765.244385 204.0
1766.590942 176.0
1767.85437 188.0
1768.465332 144.0
1769.344238 156.0
1769.503296 180.0
1773.608154 152.0
1776.232666 284.0
1782.579834 160.0
1787.229858 216.0
1787.642212 196.0
1788.43335 172.0
1788.744751 212.0
1793.959106 156.0
1795.746704 152.0
1798.775879 172.0
1799.265503 148.0
1803.861206 244.0
1804.030273 236.0
1804.512085 140.0
1805.137817 156.0
1808.936646 156.0
1814.171875 176.0
1814.578857 164.0
1819.588379 188.0
1819.703369 144.0
1839.027344 224.0
1840.5896 176.0
1840.922607 156.0
1842.340454 244.0
1843.485474 156.0
1860.221313 212.0
1863.759644 340.0
1867.681763 168.0
1867.886353 176.0
1873.826416 172.0
1874.541626 144.0
1874.834595 168.0
1876.265381 180.0
1877.429443 200.0
1882.348267 168.0
1884.032593 220.0
1885.080322 168.0
1886.789429 140.0
1891.28772 160.0
1894.240479 180.0
1907.812622 148.0
1909.064697 176.0
1917.94519 148.0
1918.590332 224.0
1919.863281 160.0
1923.623779 144.0
1924.287354 208.0
1929.940308 144.0
1936.039429 172.0
1938.825317 184.0
1939.333618 156.0
1943.33252 196.0
1945.38623 144.0
1945.860229 232.0
1948.336914 180.0
1950.147095 168.0
1950.841553 236.0
1951.720703 152.0
1954.157104 180.0
1959.748047 156.0
1964.773438 168.0
1966.352905 176.0
1971.218994 168.0
1978.790405 148.0
1981.952393 140.0
1989.242676 176.0
1992.235352 152.0
1999.268433 180.0
2000.665894 188.0
