>compound MLS001158199-01!(3R)-N-[(2S)-1-[(2S)-2-(hydroxymethyl)pyrrolidin-1-yl]-4-methylsulfanyl-1-oxobutan-2-yl]-5-oxo-3,9b-dihydro-2H-[1,3]thiazolo[2,3-a]isoindole-3-carboxamide
>formula C21H27N3O4S2
>ionization [M+H]+
>parentmass 450.152
#inchi InChI=1S/C21H27N3O4S2/c1-29-10-8-16(20(28)23-9-4-5-13(23)11-25)22-18(26)17-12-30-21-15-7-3-2-6-14(15)19(27)24(17)21/h2-3,6-7,13,16-17,21,25H,4-5,8-12H2,1H3,(H,22,26)/t13-,16-,17-,21?/m0/s1
#inchikey MJRBGADEELXFRE
#Ion_Source LC-ESI
#Instrument qTof
#Compound_Source NIH Natural Product Library
#PI Dorrestein
#Data_Collector VVP/LMS
#Scan -1
#Precursor_MZ 450.152
#ExactMass 449.144
#Charge 1
#CAS_Number N/A
#Pubmed_ID N/A
#Smiles CSCC[C@H](NC(=O)[C@@H]1CSC2N1C(=O)c3ccccc23)C(=O)N4CCC[C@H]4CO
#INCHI_AUX N/A
#Library_Class 1
#SpectrumID CCMSLIB00000079702
#IonMode Positive
#UpdateWorkflowName UPDATE-SINGLE-ANNOTATED-GOLD
#LibraryQualityString Gold
#TaskID b1d8e8f6646f4e71acdff9ca3d919d08
##Scan# 1863
#SpectrumFile p1-A10_GA10_01_17882.mzXML
#LibraryName NIH_Natural_Products_Library.mgf
#MQScore -1
#Organism NIH_Natural_Products_Library
#TIC_Query 0
#RT_Query -1
#MZErrorPPM -1
#SharedPeaks 0
#MassDiff 0
#LibMZ -1
#SpecMZ 450.152
#SpecCharge 0
#internalFilename spec-00000.mgf

>collision 10
95.137596 168.0
95.318207 164.0
95.835739 144.0
97.467453 32.0
97.581444 180.0
98.416763 144.0
99.049553 148.0
99.202126 168.0
99.329025 152.0
99.807602 136.0
99.931137 176.0
100.12796 128.0
100.241501 108.0
100.371056 52.0
100.538605 160.0
100.674339 180.0
100.998085 152.0
101.709343 160.0
101.906128 116.0
101.992485 168.0
102.051613 204.0
102.076775 7840.0
102.109695 144.0
102.197639 52.0
102.461365 116.0
102.497627 200.0
102.898964 112.0
102.943382 168.0
103.079247 660.0
103.485237 96.0
103.602692 40.0
103.783051 128.0
104.037331 332.0
104.361671 176.0
104.440971 52.0
105.011223 96.0
105.16423 212.0
105.765099 208.0
106.207642 144.0
106.659332 128.0
106.844391 124.0
106.959618 160.0
107.103951 172.0
107.384026 248.0
107.44178 128.0
107.478912 148.0
107.687393 80.0
108.032555 192.0
108.175331 176.0
108.457016 156.0
109.747894 136.0
109.858421 132.0
109.946045 80.0
110.008652 160.0
110.03997 140.0
110.581329 160.0
110.776039 152.0
111.447327 60.0
111.495651 240.0
111.678551 80.0
111.747963 144.0
111.79425 128.0
111.830025 120.0
111.949661 144.0
112.058838 504.0
112.080605 156.0
112.143822 188.0
113.195808 60.0
113.44912 168.0
113.795807 176.0
113.925346 184.0
114.078339 136.0
114.356956 136.0
114.376114 208.0
114.497459 136.0
114.808578 68.0
115.564682 160.0
115.982239 168.0
116.428467 76.0
116.961624 96.0
117.666481 156.0
117.834923 100.0
118.902359 132.0
119.223747 160.0
119.291122 180.0
119.33242 152.0
120.210144 136.0
120.2276 108.0
120.345467 92.0
120.417526 104.0
120.487419 188.0
120.701591 204.0
121.00351 132.0
121.741768 188.0
122.333771 176.0
123.764282 120.0
124.005722 180.0
124.089951 64.0
124.829277 120.0
124.964943 92.0
125.004997 56.0
125.813995 144.0
126.182587 144.0
126.407028 136.0
126.592018 228.0
126.659203 64.0
126.898964 92.0
127.619621 112.0
127.696068 140.0
127.756798 112.0
128.026871 140.0
128.335556 160.0
128.730392 144.0
128.75975 156.0
128.960815 200.0
129.891342 108.0
130.486267 120.0
131.046097 144.0
131.531815 164.0
131.595718 156.0
131.64595 200.0
132.027374 184.0
132.480713 92.0
132.785538 236.0
133.021851 92.0
133.923126 100.0
134.730423 84.0
135.001633 204.0
135.628189 184.0
135.690765 184.0
135.999268 168.0
136.396423 148.0
138.220016 164.0
139.072998 116.0
139.148102 164.0
139.23732 40.0
139.740311 128.0
140.124054 200.0
140.590881 192.0
141.037216 180.0
141.214523 100.0
141.233444 160.0
142.005524 144.0
142.247513 160.0
143.505905 44.0
143.89476 172.0
144.026093 48.0
144.214828 152.0
144.5233 132.0
144.554398 192.0
144.925522 56.0
145.076492 192.0
146.039154 1116.0
146.236572 116.0
146.368973 104.0
146.580917 32.0
147.042801 176.0
147.420609 84.0
148.216644 136.0
148.979263 148.0
149.3965 184.0
149.467041 80.0
149.486511 176.0
149.759155 108.0
150.73735 144.0
150.976898 140.0
150.994019 164.0
151.02092 156.0
151.082062 160.0
151.571686 80.0
152.624619 56.0
153.079788 160.0
153.185684 164.0
153.377869 168.0
155.043564 116.0
155.073303 196.0
155.60907 160.0
155.830093 68.0
157.036987 192.0
157.671387 160.0
157.728867 152.0
157.953903 120.0
158.035721 436.0
158.131531 144.0
158.331802 148.0
158.677567 220.0
158.996094 100.0
159.035248 280.0
159.056335 168.0
159.370224 68.0
159.460678 188.0
160.006485 80.0
160.152527 44.0
161.487595 208.0
161.920334 196.0
162.013184 1096.0
162.305481 140.0
162.574341 172.0
162.998123 596.0
163.211884 152.0
163.733505 96.0
163.998352 248.0
164.199844 132.0
164.28656 152.0
164.932556 200.0
164.992767 204.0
165.047577 192.0
165.380127 68.0
166.018005 208.0
166.159058 160.0
166.205246 176.0
166.271957 80.0
166.492722 96.0
166.770172 160.0
166.90126 216.0
167.052994 144.0
167.090912 184.0
167.676041 164.0
168.075989 148.0
168.512024 236.0
169.505524 128.0
170.042282 208.0
170.474182 136.0
171.68895 140.0
171.84024 196.0
172.524414 108.0
172.754532 216.0
173.000488 172.0
173.624039 76.0
174.903442 212.0
176.356659 180.0
176.546997 152.0
177.367676 208.0
177.711212 148.0
177.927353 104.0
178.370941 140.0
179.185196 188.0
179.521011 228.0
180.969147 204.0
181.065536 192.0
181.770508 96.0
182.028183 88.0
182.310211 172.0
182.37471 152.0
182.589783 96.0
182.61937 120.0
182.691986 72.0
182.776337 56.0
183.354309 124.0
184.447311 184.0
184.487854 192.0
184.842133 148.0
185.177795 164.0
185.825928 148.0
186.452805 184.0
186.518036 132.0
186.762726 180.0
186.947708 148.0
186.966766 212.0
187.931305 220.0
187.992523 260.0
188.592117 104.0
188.693253 136.0
189.254547 212.0
189.271606 208.0
189.380035 88.0
189.407425 196.0
189.522476 108.0
189.547134 152.0
189.575775 132.0
189.634827 76.0
189.684158 216.0
189.791412 128.0
189.815735 284.0
189.851608 144.0
189.903488 132.0
189.928177 164.0
189.948334 148.0
189.965195 168.0
190.004639 47364.0
190.070328 124.0
190.111969 76.0
190.142166 84.0
190.173477 176.0
190.224503 276.0
190.262924 56.0
190.315079 52.0
190.350784 52.0
190.376038 80.0
190.405838 80.0
190.455643 64.0
190.503342 60.0
190.535507 76.0
190.59523 48.0
190.631714 72.0
190.681778 72.0
190.731705 72.0
190.786438 76.0
190.864578 64.0
191.007339 5680.0
191.070831 88.0
191.093353 128.0
191.114212 104.0
191.146988 88.0
191.299225 108.0
191.320023 100.0
191.384567 76.0
191.458908 56.0
191.507553 108.0
191.554199 72.0
191.593857 84.0
191.673752 104.0
191.79776 56.0
191.822571 32.0
192.000259 2348.0
192.035614 336.0
192.170013 108.0
192.214157 56.0
192.244522 64.0
192.269348 140.0
192.307983 84.0
192.337372 124.0
192.359741 96.0
192.393555 56.0
192.431564 120.0
192.467392 80.0
192.525146 60.0
192.55368 100.0
192.863098 80.0
192.917435 140.0
193.007111 208.0
193.040024 196.0
193.064911 96.0
193.13681 64.0
193.222565 80.0
193.294495 36.0
193.339828 136.0
193.432861 108.0
193.620422 80.0
194.111588 68.0
194.486069 52.0
194.87204 76.0
196.071259 52.0
197.156769 52.0
197.218246 80.0
197.576141 140.0
197.618103 64.0
197.948364 64.0
198.032379 152.0
198.067932 172.0
198.522781 120.0
198.713501 60.0
199.702225 56.0
202.057434 100.0
203.079956 144.0
203.602112 116.0
204.056717 64.0
204.25293 68.0
204.434998 76.0
205.067474 172.0
205.845932 128.0
208.010178 140.0
208.061859 128.0
208.512787 180.0
209.99826 68.0
210.032867 172.0
210.800751 96.0
211.049316 164.0
211.081055 160.0
211.740875 196.0
212.071136 220.0
214.055176 140.0
215.002518 56.0
215.180557 92.0
215.972412 64.0
216.022141 156.0
216.534317 68.0
217.31105 108.0
217.64856 64.0
217.995438 5996.0
218.059799 36.0
218.250854 68.0
218.730347 60.0
218.842209 76.0
218.995987 772.0
219.06012 36.0
219.987961 144.0
220.08046 180.0
220.278305 88.0
220.526489 84.0
220.780716 112.0
221.519501 140.0
221.686508 104.0
225.104187 108.0
229.973297 88.0
230.924942 132.0
232.90094 120.0
245.036316 208.0
246.035889 172.0
247.362885 112.0
250.002228 104.0
252.706177 52.0
255.119431 128.0
259.018585 104.0
259.598633 60.0
259.88089 60.0
268.142548 88.0
273.029816 1016.0
273.108978 152.0
273.408325 60.0
274.035858 164.0
274.07016 116.0
274.782257 144.0
275.019348 344.0
276.010834 136.0
276.093506 80.0
280.739075 68.0
292.187378 60.0
298.390839 108.0
300.022522 176.0
301.054291 116.0
302.07016 192.0
306.457947 112.0
310.130463 172.0
319.025146 164.0
320.035461 112.0
321.025085 336.0
322.017426 148.0
323.011566 48.0
323.44809 100.0
324.723511 132.0
334.482086 48.0
336.070862 84.0
337.626862 48.0
337.795074 68.0
342.412109 108.0
349.069122 108.0
353.062653 88.0
359.954041 84.0
365.776947 148.0
368.732666 144.0
382.618378 64.0
384.083466 140.0
390.223358 60.0
405.072876 124.0
413.208191 116.0
432.072693 700.0
432.937103 52.0
433.073883 136.0
434.071716 116.0
436.006744 128.0
447.176758 172.0
447.224915 920.0
448.227234 200.0
449.238495 172.0
453.168427 108.0
466.572968 132.0
471.862366 84.0
472.190979 52.0
473.779419 128.0
486.776031 20.0
488.01062 196.0
516.078003 76.0
553.914429 108.0
554.162659 84.0
598.325317 48.0
599.888977 72.0
640.937134 88.0
666.026978 120.0
715.029053 52.0
767.708801 124.0
779.487671 56.0
853.746948 204.0
865.047607 32.0
873.155701 56.0
873.432129 96.0
891.75415 68.0
923.148804 40.0
946.973083 288.0
981.784668 140.0
994.446289 152.0
1014.516113 188.0
1025.581909 20.0
1032.20166 216.0
1033.327271 128.0
1037.047485 180.0
1039.234009 208.0
1066.607544 44.0
1074.088501 172.0
1087.33667 100.0
1090.764893 76.0
1098.725708 44.0
1102.19165 204.0
1118.584839 136.0
1130.263062 172.0
1143.037964 92.0
1146.14856 132.0
1150.79541 144.0
1167.735107 140.0
1173.06604 172.0
1173.570435 80.0
1176.223999 168.0
1176.633545 184.0
1177.452881 236.0
1185.147949 144.0
1200.599365 80.0
1207.062378 200.0
1212.551636 240.0
1220.019653 152.0
1241.923096 100.0
1246.921509 80.0
1250.187622 228.0
1269.574585 140.0
1280.781616 136.0
1291.358521 32.0
1292.531616 144.0
1293.175659 120.0
1295.495483 120.0
1299.631836 164.0
1299.961792 148.0
1304.105347 148.0
1312.649902 92.0
1323.473145 180.0
1325.493896 184.0
1327.973022 176.0
1331.703247 216.0
1333.148926 136.0
1334.827881 100.0
1336.158813 184.0
1343.647583 212.0
1350.959717 172.0
1358.100952 164.0
1364.709595 172.0
1380.46582 228.0
1388.679077 136.0
1390.109741 128.0
1392.708008 60.0
1395.672852 132.0
1398.774902 192.0
1400.844849 80.0
1401.858032 160.0
1403.035645 112.0
1409.610596 164.0
1419.235718 148.0
1420.83313 180.0
1422.821655 100.0
1425.510376 160.0
1433.30542 160.0
1442.890015 160.0
1443.222656 144.0
1444.772949 76.0
1446.891724 164.0
1449.784912 336.0
1453.674805 132.0
1453.796265 40.0
1456.422852 232.0
1458.29187 212.0
1460.755127 124.0
1463.814453 84.0
1463.875366 160.0
1475.066895 264.0
1478.041626 176.0
1478.171631 148.0
1478.661377 108.0
1481.494263 192.0
1483.655151 168.0
1484.452515 216.0
1484.943237 140.0
1490.615967 180.0
1491.17688 152.0
1492.514404 164.0
1497.315796 196.0
1499.010498 100.0
