>compound NCGC00160189-01!8-OXO-PSEUDOPALMATINE
>formula C21H21NO5
>ionization [M+H]+
>parentmass 368.14856
#inchi InChI=1S/C21H21NO5/c1-24-17-8-12-5-6-22-16(14(12)10-19(17)26-3)7-13-9-18(25-2)20(27-4)11-15(13)21(22)23/h7-11H,5-6H2,1-4H3
#inchikey RNYYLJRCLSSAOZ
#Ion_Source LC-ESI
#Instrument qTOF
#Compound_Source Prestwick Phytochem Lib
#PI Dorrestein
#Data_Collector VVP/LMS
#Scan -1
#Precursor_MZ 368.15
#ExactMass 367.142
#Charge 1
#CAS_Number N/A
#Pubmed_ID N/A
#Smiles COC1=CC2=C(C=C1OC)C3=CC4=C(C=C(OC)C(OC)=C4)C(=O)N3CC2
#INCHI_AUX N/A
#Library_Class 1
#SpectrumID CCMSLIB00000078685
#IonMode Positive
#UpdateWorkflowName UPDATE-SINGLE-ANNOTATED-GOLD
#LibraryQualityString Gold
#TaskID 67c915c6594c435cadc1fe2b5358144d
##Scan# 2087
#SpectrumFile p1-A02_GA2_01_17875.mzXML
#LibraryName phytochem_lib.mgf
#MQScore -1
#Organism phytochem_lib
#TIC_Query 0
#RT_Query -1
#MZErrorPPM -1
#SharedPeaks 0
#MassDiff 0
#LibMZ -1
#SpecMZ 368.15
#SpecCharge 0
#internalFilename spec-00000.mgf

>collision 10
95.015305 120.0
95.193863 248.0
95.738327 260.0
96.135994 140.0
97.074921 156.0
97.530373 176.0
97.801788 92.0
97.915977 160.0
98.215546 140.0
98.282616 132.0
98.333923 44.0
98.525444 128.0
98.604477 48.0
98.8022 100.0
98.924889 136.0
99.321175 120.0
99.746078 120.0
100.562675 184.0
101.066238 128.0
101.553009 164.0
101.623215 128.0
101.799843 96.0
101.920357 92.0
102.614708 136.0
103.4655 140.0
103.50975 172.0
104.987015 160.0
105.203278 112.0
105.654892 228.0
105.851364 156.0
106.011139 168.0
106.296158 144.0
106.612381 116.0
106.97023 204.0
107.050522 156.0
107.064941 88.0
107.095833 176.0
107.724922 112.0
109.03019 188.0
109.363754 276.0
109.442039 96.0
109.737885 216.0
109.919342 136.0
110.199112 164.0
110.552475 232.0
110.916878 140.0
111.044769 164.0
111.061546 188.0
112.661263 108.0
113.571426 252.0
113.615974 192.0
114.393707 132.0
115.069466 20.0
115.535339 112.0
115.588821 92.0
115.877861 96.0
116.09005 168.0
116.68013 120.0
117.093605 144.0
117.149605 100.0
117.390991 100.0
117.798882 212.0
118.164207 40.0
118.25293 108.0
118.649307 160.0
119.851143 188.0
120.119278 156.0
120.248009 76.0
121.076546 104.0
121.105019 128.0
121.621445 148.0
121.683907 36.0
122.350014 156.0
122.777451 176.0
122.812393 128.0
123.165878 172.0
123.473076 120.0
124.654594 144.0
125.237434 128.0
125.257484 128.0
126.158958 120.0
126.366936 188.0
126.460915 160.0
126.781158 88.0
127.04348 180.0
127.06591 44.0
127.384674 172.0
128.077438 256.0
129.169876 184.0
129.335052 204.0
130.521484 184.0
130.710266 124.0
130.846817 84.0
131.049515 52.0
131.32077 120.0
131.610565 100.0
132.099625 144.0
132.298706 176.0
132.479599 204.0
133.006989 152.0
133.613617 172.0
133.852966 180.0
134.110977 216.0
134.378464 196.0
135.022903 144.0
135.562271 224.0
135.859024 140.0
136.558167 140.0
136.586075 220.0
136.795486 188.0
137.41069 100.0
137.55304 104.0
137.828598 132.0
138.310333 156.0
139.694702 128.0
139.821762 160.0
140.347031 144.0
140.528641 180.0
141.944077 248.0
143.276306 224.0
143.300125 120.0
143.345398 208.0
144.128021 128.0
144.402908 104.0
144.867249 168.0
145.058945 140.0
145.162033 84.0
145.579544 188.0
145.759705 128.0
145.812561 52.0
146.07222 208.0
146.122742 84.0
146.464554 132.0
146.589828 140.0
146.843262 216.0
146.87912 104.0
146.980438 220.0
147.089035 124.0
147.180771 136.0
147.540741 152.0
147.734207 156.0
148.041565 152.0
148.489883 104.0
149.021469 148.0
149.053055 108.0
149.186661 184.0
149.609985 128.0
149.73172 136.0
150.066345 172.0
150.455872 216.0
150.676178 188.0
150.744064 92.0
150.788055 100.0
151.235306 160.0
151.676483 200.0
152.648636 92.0
152.872482 104.0
153.034927 100.0
153.944748 152.0
154.305481 160.0
154.434067 236.0
155.372833 164.0
155.454712 48.0
156.56337 208.0
157.35376 112.0
157.466125 148.0
157.608505 160.0
157.940994 52.0
158.058563 136.0
159.048431 160.0
159.251801 68.0
159.716766 220.0
159.827454 172.0
160.462112 40.0
160.6008 156.0
160.815262 144.0
160.845551 124.0
161.464523 88.0
161.570755 164.0
161.96817 68.0
162.904129 180.0
162.980347 124.0
163.117569 120.0
163.346741 156.0
163.901382 180.0
164.730499 160.0
165.055054 104.0
165.922974 68.0
165.946045 88.0
166.015274 160.0
166.652679 228.0
167.088867 128.0
167.176346 152.0
168.031754 56.0
168.158188 364.0
168.413773 208.0
168.449936 172.0
168.623047 212.0
168.741943 180.0
168.819519 160.0
169.013504 176.0
169.969574 196.0
170.06041 124.0
170.351212 220.0
170.704651 140.0
171.139175 112.0
171.670715 212.0
172.375473 124.0
172.495697 152.0
173.03981 208.0
173.338379 112.0
173.781479 196.0
174.703568 120.0
175.018188 44.0
175.064148 200.0
175.161591 76.0
176.079712 172.0
176.24054 152.0
176.346237 216.0
176.425522 176.0
176.494263 148.0
176.824921 164.0
177.0923 176.0
177.150574 152.0
177.378448 128.0
177.521622 156.0
177.564041 140.0
177.793915 120.0
177.903656 60.0
178.049683 136.0
178.299393 80.0
178.51738 160.0
179.196091 132.0
179.281357 108.0
179.443939 128.0
179.897446 168.0
180.0336 92.0
180.137756 156.0
180.207214 240.0
180.415665 168.0
181.553558 88.0
182.095642 156.0
182.138611 132.0
182.165466 112.0
182.192337 160.0
182.227264 172.0
182.61702 108.0
182.808014 172.0
182.826859 48.0
183.068222 152.0
183.343887 128.0
183.678192 108.0
184.061401 148.0
184.085709 176.0
184.450409 156.0
184.78302 184.0
185.449142 152.0
185.568405 92.0
185.592804 128.0
185.676865 40.0
185.763657 76.0
186.330994 116.0
186.659668 176.0
186.765915 128.0
187.002625 48.0
187.161972 148.0
187.353867 152.0
187.599106 128.0
188.073715 152.0
188.507919 168.0
188.876984 124.0
188.956314 156.0
188.975464 180.0
189.350464 168.0
189.695679 124.0
190.070145 220.0
190.197632 152.0
190.334885 32.0
190.510651 128.0
190.694748 148.0
190.766205 224.0
191.385193 116.0
191.624786 100.0
191.748795 164.0
191.83699 204.0
192.082397 160.0
192.408005 60.0
192.844421 168.0
192.905228 140.0
192.985397 176.0
193.104309 152.0
193.660583 48.0
193.871124 140.0
194.145569 84.0
194.636703 156.0
194.970032 164.0
195.120117 144.0
195.787888 96.0
195.857513 144.0
195.960571 120.0
196.335632 136.0
196.716293 168.0
197.325272 184.0
197.414749 120.0
197.812027 172.0
198.086426 232.0
198.181671 124.0
198.436707 144.0
198.700333 180.0
199.464127 136.0
199.509094 88.0
199.838135 112.0
199.995712 168.0
200.107742 180.0
200.849411 100.0
201.416733 96.0
201.752991 164.0
202.034698 148.0
202.287613 68.0
202.68692 184.0
203.171722 256.0
203.483887 64.0
203.696854 136.0
203.870163 128.0
204.023636 172.0
204.080612 192.0
204.194229 152.0
204.709305 156.0
205.036896 36.0
205.450317 128.0
205.712906 200.0
205.789917 220.0
205.869873 208.0
205.958405 180.0
206.089798 176.0
206.295563 124.0
206.389908 136.0
206.899139 180.0
206.933502 188.0
207.072617 188.0
207.102448 120.0
207.20842 200.0
207.42334 148.0
207.649841 64.0
208.496719 148.0
209.391403 124.0
209.688126 144.0
210.051407 168.0
210.086014 104.0
210.247589 60.0
210.287994 108.0
210.38324 164.0
210.446747 192.0
211.41214 180.0
211.65239 52.0
211.800156 148.0
211.884079 184.0
212.336243 132.0
212.411652 168.0
212.893417 180.0
213.285614 200.0
213.340851 104.0
213.625824 208.0
213.881866 132.0
213.931351 128.0
213.975021 144.0
214.033249 184.0
214.062363 336.0
214.353638 152.0
214.388611 176.0
214.572235 140.0
214.662613 224.0
214.890106 140.0
215.056442 108.0
215.148315 192.0
215.322113 176.0
215.43602 88.0
215.742844 48.0
215.921204 140.0
216.178619 68.0
216.632416 180.0
216.814056 104.0
216.931305 152.0
216.957672 172.0
217.063217 136.0
217.230392 112.0
217.576645 156.0
217.864441 124.0
217.979019 120.0
218.078445 120.0
218.24649 164.0
218.384689 128.0
218.761307 184.0
219.054749 116.0
219.06723 76.0
219.071365 108.0
219.353363 60.0
219.689514 48.0
219.80162 180.0
219.831131 124.0
219.937378 208.0
220.093826 188.0
220.117447 164.0
220.138123 188.0
221.082947 236.0
221.16098 124.0
221.454086 132.0
221.519257 144.0
221.743912 140.0
221.815552 108.0
221.868912 72.0
221.916351 140.0
222.043854 88.0
222.085831 180.0
222.278198 92.0
222.4711 196.0
222.55719 144.0
222.973053 56.0
223.095474 168.0
223.84166 232.0
224.059067 172.0
224.315338 124.0
224.360046 232.0
224.592636 116.0
224.831299 136.0
225.00441 160.0
225.079056 108.0
225.114883 136.0
225.344864 84.0
225.670624 108.0
225.98764 176.0
226.047485 160.0
226.093658 120.0
226.301895 268.0
227.25592 136.0
227.84938 52.0
227.963547 184.0
228.029648 128.0
228.158905 192.0
228.255112 200.0
228.447586 132.0
228.676254 132.0
228.712372 104.0
229.272537 128.0
229.60112 144.0
229.733826 128.0
229.835831 128.0
229.894821 132.0
229.938995 88.0
230.304291 156.0
230.340546 152.0
230.416061 88.0
230.811981 152.0
231.838104 64.0
231.938019 120.0
231.962357 144.0
232.086655 192.0
232.15033 108.0
232.429382 204.0
232.979645 172.0
233.074951 128.0
233.498627 148.0
233.538162 168.0
234.090027 164.0
234.174255 144.0
234.227966 188.0
234.442337 100.0
234.951492 116.0
235.059128 316.0
235.09967 312.0
235.195602 84.0
236.070358 156.0
236.092453 172.0
236.23143 128.0
236.448654 148.0
236.696594 140.0
236.803772 188.0
236.901794 136.0
237.079483 112.0
237.235794 164.0
237.303238 144.0
237.7173 136.0
238.092194 148.0
238.33754 112.0
239.090744 156.0
239.164749 72.0
239.337128 124.0
239.423355 152.0
239.509583 48.0
240.102615 160.0
240.246277 224.0
241.806595 108.0
241.95517 92.0
242.255539 172.0
242.34848 160.0
242.645996 84.0
242.841339 120.0
243.13916 160.0
243.269516 160.0
243.580032 212.0
243.704285 168.0
243.729141 184.0
244.332275 120.0
244.690155 128.0
244.761765 200.0
244.995346 120.0
245.434769 152.0
245.834015 120.0
245.855865 116.0
245.890182 172.0
246.09256 208.0
246.180511 52.0
246.227341 68.0
246.489746 180.0
246.824188 148.0
246.86171 56.0
247.057404 220.0
247.093399 156.0
247.143204 68.0
247.293411 52.0
247.331421 212.0
247.55011 92.0
247.781876 148.0
248.06665 320.0
248.106155 184.0
249.033417 112.0
249.074829 488.0
249.451309 88.0
249.561325 196.0
249.586487 88.0
250.082855 692.0
250.253479 108.0
250.451874 180.0
250.817352 136.0
250.930832 76.0
251.092422 1044.0
251.353455 260.0
251.517563 156.0
251.776443 20.0
251.972275 52.0
252.095306 456.0
252.278793 108.0
252.379959 108.0
252.651947 72.0
252.677246 40.0
253.08728 100.0
253.304016 108.0
253.435486 208.0
253.655731 152.0
254.079483 120.0
254.121887 140.0
255.004623 184.0
255.065018 128.0
255.201706 120.0
255.246216 168.0
255.697922 124.0
255.777481 160.0
256.09906 208.0
256.13092 172.0
256.420837 112.0
256.567444 136.0
257.078094 160.0
257.104828 148.0
257.291595 208.0
257.454437 52.0
258.042328 136.0
258.071106 140.0
258.349335 136.0
258.419708 128.0
259.065887 196.0
259.152863 224.0
259.624054 152.0
259.701019 64.0
259.97049 176.0
260.073181 148.0
260.763672 192.0
260.831177 184.0
260.997955 152.0
261.079163 352.0
261.242767 32.0
261.503387 200.0
261.812439 172.0
261.902588 128.0
261.950897 180.0
261.996002 120.0
262.084564 444.0
262.297241 116.0
262.679382 264.0
262.889099 140.0
263.037537 144.0
263.068176 144.0
263.094452 412.0
263.147308 124.0
263.541321 112.0
263.593018 180.0
264.064606 460.0
264.102539 704.0
264.136108 340.0
264.307587 76.0
264.330231 104.0
264.738068 172.0
265.003662 168.0
265.074097 432.0
265.099854 580.0
265.259674 56.0
265.382874 148.0
265.593628 64.0
265.703918 184.0
265.798004 124.0
266.075043 344.0
266.113342 332.0
266.142059 52.0
266.652039 164.0
267.088226 368.0
267.258331 176.0
267.406525 60.0
267.569275 188.0
267.889191 152.0
268.114807 164.0
268.142548 252.0
268.432678 188.0
268.491364 132.0
268.631622 228.0
269.032959 76.0
269.382385 132.0
269.718933 80.0
270.026245 60.0
270.081848 88.0
270.114563 128.0
270.58905 112.0
270.785492 156.0
270.887024 108.0
271.358917 212.0
271.883728 160.0
272.30719 100.0
272.469299 148.0
272.734314 168.0
272.819763 196.0
273.072937 368.0
273.105835 108.0
273.895752 188.0
273.948456 172.0
274.061523 200.0
274.085815 212.0
274.205444 108.0
274.317505 120.0
274.601044 136.0
274.653839 164.0
274.993652 140.0
275.049744 128.0
275.085968 148.0
275.13559 128.0
275.161987 336.0
275.214813 156.0
275.607849 124.0
275.935028 176.0
276.027618 152.0
276.0672 552.0
276.098389 252.0
276.136749 192.0
276.851532 184.0
276.874725 140.0
276.916321 136.0
276.950897 136.0
277.069275 216.0
277.07608 292.0
277.091125 288.0
277.354797 84.0
277.620544 120.0
277.879028 204.0
278.081879 2736.0
278.177155 24.0
278.330414 76.0
278.935028 136.0
279.048248 136.0
279.0867 2344.0
279.530304 76.0
279.623474 60.0
279.706696 164.0
280.016327 80.0
280.05722 340.0
280.093872 2512.0
280.327148 164.0
280.392761 192.0
280.639435 304.0
280.746124 60.0
280.842834 96.0
281.068542 316.0
281.103912 1364.0
281.687286 72.0
281.934509 156.0
282.108887 228.0
282.148407 44.0
282.211945 128.0
282.274963 132.0
282.469421 120.0
282.609924 164.0
282.636688 172.0
282.676849 176.0
282.702026 44.0
282.737091 104.0
282.964691 72.0
283.021606 144.0
283.093994 168.0
283.312958 220.0
283.410126 160.0
283.540802 208.0
283.798889 72.0
284.100647 196.0
284.148041 156.0
284.258423 204.0
284.362427 160.0
284.389282 204.0
284.607483 136.0
284.765289 68.0
285.121399 172.0
285.222229 116.0
285.366791 152.0
285.578308 180.0
285.736725 120.0
285.783813 232.0
286.463837 132.0
286.767059 40.0
286.800293 144.0
286.874939 328.0
287.158142 220.0
287.839783 100.0
288.069427 144.0
288.204559 128.0
288.853638 188.0
289.066772 64.0
289.141205 120.0
290.078003 160.0
290.255646 124.0
290.53714 176.0
290.900238 44.0
290.934174 28.0
290.998688 68.0
291.054657 116.0
291.086121 288.0
291.450378 36.0
291.888855 88.0
291.973846 140.0
292.094849 2024.0
292.201752 148.0
292.521606 136.0
292.555664 112.0
292.623749 68.0
292.698639 152.0
292.827759 140.0
292.974518 140.0
293.03241 152.0
293.066223 516.0
293.102722 1720.0
293.196533 168.0
293.274353 80.0
293.420929 240.0
293.519806 120.0
293.761932 100.0
293.888153 120.0
293.939331 60.0
294.017822 160.0
294.077026 1156.0
294.112335 4704.0
294.171387 156.0
294.352356 64.0
294.485535 72.0
294.622162 128.0
294.74173 44.0
294.783112 72.0
295.081879 852.0
295.117828 1968.0
295.148956 188.0
295.183319 288.0
295.259125 88.0
295.445984 36.0
295.993561 88.0
296.094116 416.0
296.121979 832.0
296.185333 148.0
296.274414 100.0
296.455994 72.0
296.62735 44.0
296.743896 104.0
297.118103 176.0
297.405945 160.0
297.793884 72.0
297.893494 52.0
297.955322 56.0
298.013733 40.0
298.044647 72.0
298.127136 128.0
298.419281 48.0
298.532745 168.0
298.766632 156.0
298.924896 100.0
298.950378 224.0
299.121033 148.0
299.23465 148.0
299.289734 196.0
299.36203 152.0
299.475677 176.0
299.606567 224.0
299.730591 108.0
299.885651 192.0
300.837616 88.0
301.086212 156.0
301.493835 172.0
301.535309 188.0
301.645905 112.0
302.102356 168.0
302.219971 136.0
302.254578 116.0
302.392975 120.0
302.742615 148.0
303.078613 160.0
303.137512 76.0
303.161774 48.0
303.19989 64.0
303.238007 204.0
303.633209 192.0
303.775421 156.0
303.81012 180.0
304.011353 164.0
304.057739 624.0
304.097046 176.0
304.195282 84.0
304.233459 176.0
304.361908 64.0
304.452209 64.0
304.559845 100.0
304.587646 64.0
304.869049 124.0
304.917694 124.0
305.064819 300.0
305.102295 444.0
305.26532 96.0
305.696655 60.0
306.027313 112.0
306.073944 1976.0
306.109039 656.0
306.218811 140.0
306.246674 108.0
306.271057 172.0
306.29892 56.0
306.344208 136.0
306.546265 52.0
306.636871 48.0
306.730988 48.0
306.880859 116.0
307.023834 140.0
307.081085 2012.0
307.113159 748.0
307.156372 120.0
307.358704 156.0
307.404053 124.0
307.470367 92.0
307.512238 48.0
307.6763 68.0
307.917206 180.0
307.987061 92.0
308.091705 6184.0
308.193146 84.0
308.330566 76.0
308.371368 36.0
308.451752 160.0
308.521667 280.0
308.567108 52.0
308.637024 80.0
308.668488 96.0
308.762909 56.0
308.825867 116.0
308.976257 148.0
309.000763 88.0
309.096802 3756.0
309.152466 124.0
309.186218 136.0
309.245697 64.0
309.271698 116.0
309.406708 120.0
309.438629 208.0
309.511749 72.0
309.543243 68.0
309.683319 56.0
309.718353 168.0
309.823425 76.0
309.872467 40.0
309.904022 92.0
309.942535 168.0
310.105225 4284.0
310.15152 152.0
310.164642 96.0
310.227905 84.0
310.307037 52.0
310.35965 76.0
310.754089 136.0
310.818329 92.0
311.10788 652.0
311.173584 208.0
311.323212 228.0
311.366699 152.0
311.405334 116.0
311.458008 116.0
311.730438 176.0
311.911255 64.0
312.072968 216.0
312.102631 164.0
312.141571 280.0
313.858002 140.0
314.037842 152.0
314.387085 64.0
315.026123 124.0
315.457214 128.0
315.644592 204.0
316.111481 96.0
316.146881 184.0
316.196411 60.0
316.447723 132.0
316.932953 80.0
317.429169 88.0
317.652588 160.0
318.062469 240.0
318.071716 224.0
319.085175 536.0
319.168976 104.0
319.353882 128.0
319.642029 140.0
319.795044 60.0
320.015747 52.0
320.090271 2120.0
320.165314 36.0
320.218719 36.0
320.410706 84.0
320.631958 164.0
320.717499 88.0
320.874329 100.0
321.054291 212.0
321.09726 4412.0
321.140717 176.0
321.177429 144.0
321.263031 72.0
321.398621 68.0
321.448547 80.0
321.527069 44.0
321.641266 144.0
321.759064 84.0
321.837616 76.0
321.934021 80.0
321.987579 116.0
322.105774 15332.0
322.190826 80.0
322.204651 36.0
322.216278 156.0
322.255463 40.0
322.316223 52.0
322.391235 60.0
322.437714 84.0
322.47702 52.0
322.567841 196.0
322.650757 72.0
322.701355 188.0
322.771637 84.0
322.829224 116.0
322.881958 60.0
322.906036 120.0
322.946472 128.0
323.00528 192.0
323.110138 3716.0
323.313843 100.0
323.478485 260.0
323.546509 92.0
323.618103 72.0
323.757751 56.0
323.789978 64.0
323.84549 64.0
323.96344 184.0
324.12149 11848.0
324.233917 52.0
324.279572 60.0
324.319885 124.0
324.481506 100.0
324.531677 88.0
324.560364 112.0
324.596222 136.0
324.797058 96.0
324.901062 72.0
324.926178 80.0
324.951294 148.0
325.026642 116.0
325.126343 1676.0
325.202484 44.0
325.257721 100.0
325.302979 60.0
325.335297 116.0
325.365387 104.0
325.392731 48.0
325.466187 112.0
325.482117 40.0
325.511536 128.0
325.608154 216.0
325.647675 140.0
325.745941 84.0
325.917084 132.0
325.967377 136.0
326.133026 340.0
326.211761 48.0
326.477814 132.0
326.61087 52.0
326.715179 140.0
326.909454 64.0
326.938263 72.0
327.014862 96.0
327.088074 152.0
327.137482 300.0
327.182983 116.0
327.269409 120.0
327.318604 120.0
327.366608 120.0
327.435028 88.0
327.469055 140.0
327.564697 160.0
327.712402 48.0
327.874542 64.0
327.89975 52.0
327.986267 164.0
328.02951 80.0
328.209778 68.0
328.271057 156.0
328.646179 76.0
328.732758 288.0
329.010681 44.0
329.205627 52.0
329.346497 48.0
329.501801 80.0
329.581299 140.0
329.667999 52.0
329.776428 108.0
329.978851 48.0
330.58078 188.0
331.198303 80.0
331.430145 140.0
331.720062 148.0
331.825165 120.0
331.977448 164.0
332.089874 136.0
332.15152 80.0
332.510712 108.0
333.633026 180.0
333.909363 80.0
333.993011 140.0
334.109283 312.0
334.546082 56.0
334.655304 52.0
334.77182 84.0
334.942993 144.0
335.120239 988.0
335.154266 80.0
335.197998 104.0
335.227142 144.0
335.387482 188.0
335.42395 124.0
335.493195 124.0
335.536957 128.0
335.715607 120.0
335.810425 44.0
335.865112 200.0
335.970917 40.0
336.085999 5792.0
336.182526 200.0
336.259155 76.0
336.405151 48.0
336.437988 68.0
336.697235 36.0
336.741058 92.0
336.795837 44.0
336.938293 64.0
337.091614 4364.0
337.128021 3824.0
337.218628 84.0
337.245209 52.0
337.270813 92.0
337.349091 116.0
337.503021 84.0
337.560303 80.0
337.617279 52.0
337.691254 68.0
337.779022 184.0
337.826599 56.0
337.91275 60.0
337.943665 72.0
338.006317 216.0
338.099854 3500.0
338.188812 96.0
338.275238 144.0
338.478027 40.0
338.727051 276.0
338.822296 124.0
338.935852 60.0
338.976166 72.0
339.031128 44.0
339.10434 1872.0
339.39035 72.0
339.416016 140.0
339.452667 56.0
339.576355 60.0
339.625031 108.0
339.722809 128.0
340.012634 68.0
340.057953 36.0
340.111877 296.0
340.146027 84.0
340.235962 76.0
340.746429 136.0
340.968719 92.0
341.112061 132.0
341.402496 200.0
341.637878 56.0
341.785034 64.0
342.746033 140.0
342.808655 32.0
343.239929 60.0
344.476227 40.0
344.513153 156.0
345.411377 60.0
346.240417 132.0
347.152008 188.0
347.189087 120.0
347.9534 124.0
348.090088 152.0
348.595947 32.0
348.89328 120.0
349.603668 172.0
349.920013 48.0
350.106445 600.0
350.478668 132.0
350.5383 116.0
350.605377 96.0
350.644287 36.0
350.870911 228.0
350.899811 152.0
350.948303 248.0
350.981842 152.0
351.011658 132.0
351.102264 420.0
351.276459 64.0
351.358521 76.0
351.546021 116.0
351.638367 116.0
351.683136 244.0
351.759674 216.0
351.853912 112.0
351.877197 228.0
351.936981 156.0
351.9664 200.0
352.036682 176.0
352.117462 47900.0
352.194916 144.0
352.303436 124.0
352.345673 168.0
352.423767 108.0
352.508453 104.0
352.563843 152.0
352.639862 268.0
352.707458 80.0
352.748779 104.0
352.760712 72.0
352.805054 100.0
352.868408 52.0
352.908386 96.0
352.947571 212.0
352.975677 112.0
353.048828 64.0
353.12204 14276.0
353.209778 48.0
353.255768 76.0
353.289825 40.0
353.349701 40.0
353.382538 72.0
353.396729 56.0
353.479218 132.0
353.527771 80.0
353.660278 224.0
353.715515 68.0
353.781952 72.0
353.832458 64.0
353.926056 72.0
353.955994 56.0
353.991791 36.0
354.127472 2364.0
354.242828 88.0
354.285583 72.0
354.349243 56.0
354.547852 84.0
354.63028 72.0
354.77829 312.0
354.89267 136.0
354.946381 112.0
354.997681 72.0
355.03891 44.0
355.118317 712.0
355.207672 76.0
355.268524 108.0
355.320221 76.0
355.36731 124.0
355.436523 120.0
355.47406 132.0
355.554901 216.0
355.588928 104.0
355.622162 144.0
355.663879 124.0
355.725494 224.0
355.825226 148.0
355.886902 92.0
356.067139 176.0
356.127228 84.0
356.296265 32.0
356.330078 52.0
356.371399 136.0
356.545624 120.0
356.897583 60.0
357.106323 148.0
357.175873 108.0
357.205963 108.0
357.394043 80.0
357.548309 80.0
357.887085 120.0
358.000061 60.0
358.681946 60.0
359.025024 112.0
359.339722 84.0
359.575806 84.0
359.647491 208.0
360.047668 44.0
361.468994 56.0
361.877747 76.0
362.712952 92.0
362.862762 96.0
363.367157 168.0
363.507538 80.0
363.833923 132.0
363.898468 156.0
364.152863 108.0
364.277954 120.0
364.464355 236.0
364.665741 80.0
365.116333 104.0
365.464294 48.0
365.715454 76.0
366.138794 136.0
366.457977 44.0
366.686615 68.0
367.041107 88.0
367.079224 28.0
367.140564 284.0
367.174561 92.0
367.415771 132.0
367.55603 52.0
367.594177 152.0
367.639954 164.0
367.731995 88.0
367.834259 88.0
367.884216 184.0
367.926208 116.0
367.965729 208.0
368.019165 184.0
368.088501 204.0
368.14856 33156.0
368.257263 132.0
368.283875 156.0
368.319519 28.0
368.346252 32.0
368.372986 220.0
368.422638 64.0
368.483276 52.0
368.556366 100.0
368.617493 76.0
368.701569 116.0
368.76767 120.0
368.897949 116.0
368.942841 308.0
368.989746 200.0
369.078491 276.0
369.150513 5176.0
369.265167 56.0
369.362671 100.0
369.412689 76.0
369.470093 80.0
369.503662 36.0
369.529449 92.0
369.594177 64.0
369.619293 104.0
369.74939 40.0
369.833405 84.0
369.898651 60.0
370.009674 84.0
370.059418 84.0
370.086243 64.0
370.155762 1124.0
370.243225 56.0
370.331299 80.0
370.929016 36.0
371.047852 68.0
371.157684 336.0
371.270233 144.0
371.323914 108.0
371.358429 124.0
371.412109 160.0
371.438965 60.0
371.550507 108.0
371.620483 152.0
371.726685 104.0
371.75354 36.0
371.811127 52.0
371.857178 48.0
372.141205 44.0
372.175781 60.0
372.559814 96.0
372.708191 32.0
372.774963 88.0
372.836456 48.0
372.917145 32.0
373.20929 80.0
373.420776 48.0
373.693878 104.0
374.336639 40.0
375.242065 44.0
375.361603 44.0
375.511993 68.0
375.751129 40.0
378.94342 76.0
380.20459 112.0
381.004425 88.0
382.326355 92.0
383.685791 132.0
385.027863 60.0
386.684265 68.0
387.194366 80.0
389.62616 68.0
394.050232 56.0
400.360748 88.0
402.506012 72.0
402.557922 124.0
406.38031 92.0
407.821899 52.0
411.729706 52.0
417.890778 136.0
424.614166 96.0
425.459381 132.0
435.921051 56.0
443.654694 80.0
445.156677 40.0
454.705505 60.0
455.316833 68.0
455.937042 80.0
459.453918 92.0
459.56485 136.0
464.269897 76.0
467.095825 84.0
467.452911 40.0
470.763367 108.0
475.99408 72.0
483.601044 64.0
490.893463 60.0
494.440613 96.0
508.335144 116.0
509.668701 64.0
510.059662 36.0
515.291382 84.0
518.132385 64.0
520.690552 52.0
527.936218 100.0
528.553711 68.0
530.40387 32.0
531.206238 72.0
534.412781 92.0
539.291443 88.0
543.607483 56.0
546.422852 96.0
548.2948 64.0
565.341553 72.0
569.261719 56.0
579.229126 60.0
581.40094 60.0
586.175842 108.0
596.459717 72.0
610.186096 32.0
611.268127 96.0
613.168884 64.0
628.501282 76.0
631.448486 128.0
637.855957 120.0
638.730835 60.0
647.340454 140.0
648.343445 72.0
648.683044 68.0
649.088623 92.0
653.924622 80.0
660.189148 44.0
672.126587 36.0
687.444031 132.0
707.002808 100.0
713.149292 52.0
728.242432 96.0
740.279114 100.0
741.362488 76.0
743.423096 128.0
744.611938 152.0
752.496338 108.0
754.714478 88.0
767.843689 48.0
769.06842 80.0
811.705078 124.0
817.783447 36.0
820.637268 60.0
821.886292 52.0
829.005005 60.0
831.384766 116.0
841.942322 92.0
854.776123 36.0
862.39209 124.0
869.818726 188.0
877.855042 100.0
882.921631 40.0
884.844543 60.0
894.508606 88.0
898.083557 36.0
933.154663 76.0
950.101562 56.0
982.879822 52.0
983.928284 160.0
984.658813 52.0
986.126953 92.0
1024.102417 128.0
1031.67627 32.0
1038.386353 56.0
1042.327759 72.0
1107.398682 108.0
1135.322144 104.0
1139.436523 60.0
1163.878296 128.0
1186.186279 48.0
1205.179688 204.0
1230.299194 40.0
1249.430176 108.0
1259.043945 124.0
1259.168457 32.0
1268.921387 52.0
1286.778198 64.0
1323.850464 176.0
1327.096558 76.0
1390.817627 220.0
1400.646973 120.0
1402.442627 76.0
1434.560669 144.0
1494.804932 100.0
