>compound Loteprednol etabonate
>formula C24H31ClO7
>ionization [M+Na]+
>parentmass 489.16452
#inchi InChI=1S/C24H31ClO7/c1-4-30-21(29)32-24(20(28)31-13-25)10-8-17-16-6-5-14-11-15(26)7-9-22(14,2)19(16)18(27)12-23(17,24)3/h7,9,11,16-19,27H,4-6,8,10,12-13H2,1-3H3/t16-,17-,18+,19-,22-,23-,24+/m0/s1
#inchikey DMKSVUSAATWOCU
#Ion_Source LC-ESI
#Instrument qTof
#Compound_Source Commercial
#PI Dorrestein
#Data_Collector Garg_Neha
#Scan -1
#Precursor_MZ 489.165
#ExactMass 466.176
#Charge 1
#CAS_Number 82034-46-6
#Pubmed_ID N/A
#Smiles C1C(C=C2[C@](C=1)([C@]3([C@@](CC2)([C@]4([C@](C[C@H]3O)([C@@](CC4)(C(OCCl)=O)OC(OCC)=O)C)[H])[H])[H])C)=O
#INCHI_AUX N/A
#Library_Class 1
#SpectrumID CCMSLIB00000078232
#IonMode Positive
#UpdateWorkflowName UPDATE-SINGLE-ANNOTATED-GOLD
#LibraryQualityString Gold
#TaskID 77f51c88eb8b467eb4a01dd2d0cb90d2
##Scan# 2138
#SpectrumFile Plate4_1_20_GH2_01_16503.mzXML
#LibraryName FDALibrary_2_04302014.mgf
#MQScore -1
#Organism FDALibrary_2_04302014
#TIC_Query 0
#RT_Query -1
#MZErrorPPM -1
#SharedPeaks 0
#MassDiff 0
#LibMZ -1
#SpecMZ 489.165
#SpecCharge 0
#internalFilename spec-00000.mgf

>collision 10
67.897278 180.0
81.123169 200.0
94.012009 192.0
95.210335 164.0
127.540581 180.0
177.990173 152.0
180.182205 200.0
186.276047 188.0
200.525375 152.0
207.114471 216.0
222.137268 156.0
238.158752 148.0
242.112686 208.0
250.136414 328.0
251.135788 188.0
265.159241 340.0
266.159302 148.0
291.786011 216.0
292.204315 204.0
292.469757 176.0
298.02356 232.0
305.149536 3712.0
305.36853 136.0
306.154053 524.0
307.158752 240.0
308.969391 148.0
312.09787 188.0
312.534027 200.0
313.403717 152.0
313.8302 148.0
323.164276 924.0
324.166504 248.0
324.192169 244.0
345.169556 156.0
346.172363 208.0
355.829742 172.0
358.858398 220.0
360.889709 156.0
361.135498 168.0
361.721985 176.0
369.123291 752.0
370.100128 172.0
371.115692 324.0
387.129211 392.0
388.129211 180.0
389.124481 144.0
390.865692 148.0
395.14856 388.0
396.130615 228.0
399.13324 396.0
400.135315 120.0
400.238953 188.0
401.135315 288.0
413.163422 228.0
417.135254 120.0
418.817566 212.0
419.154907 124.0
422.274597 168.0
432.176361 196.0
434.264221 168.0
436.294739 156.0
444.258606 144.0
471.309235 168.0
478.713745 156.0
488.339203 316.0
489.16452 3096.0
490.166443 840.0
491.164948 1628.0
491.376984 144.0
492.172607 152.0
497.319977 164.0
507.162109 288.0
508.177856 156.0
509.197052 156.0
569.340454 156.0
