>compound Dihydropiplartine
>formula C17H21NO5
>ionization [M+H]+
>parentmass 320.1492492240905
#inchi InChI=1S/C17H21NO5/c1-21-13-10-12(11-14(22-2)17(13)23-3)7-8-16(20)18-9-5-4-6-15(18)19/h7-8,10-11H,4-6,9H2,1-3H3/b8-7+
#inchikey HPXUNEGPCPQBQY
#Ion_Source DI-ESI
#Instrument qTof
#Compound_Source Isolated
#PI Norberto Lopes
#Data_Collector Monica Pupo
#Scan -1
#Precursor_MZ 320.233
#ExactMass 319.142
#Charge 1
#CAS_Number 82017-78-5
#Pubmed_ID N/A
#Smiles O=C(N1CCCCC1=O)/C=C/C2=CC(OC)=C(OC)C(OC)=C2
#INCHI_AUX N/A
#Library_Class 3
#SpectrumID CCMSLIB00000081546
#IonMode Positive
#UpdateWorkflowName UPDATE-SINGLE-ANNOTATED-BRONZE
#LibraryQualityString Bronze
#TaskID 4a07f16a650f4095b43fe6b0b09ff8bb
##Scan# 1
#SpectrumFile gnps_Dihydropiplartine_pos_MplusH.mgf
#LibraryName gnps_library.mgf
#MQScore -1
#Organism batch_27_05
#TIC_Query 0
#RT_Query -1
#MZErrorPPM -1
#SharedPeaks 0
#MassDiff 0
#LibMZ -1
#SpecMZ 320.233
#SpecCharge 0
#internalFilename spec-00000.mgf

>collision 10
132.051437 174.0
133.060287 228.0
135.039276 287.0
147.0383 1322.0
148.045959 291.0
149.053558 247.0
150.063599 278.0
160.048813 412.0
161.056351 826.0
162.064346 3681.0
163.034576 1342.0
164.071793 143.0
165.086212 202.0
167.067825 175.0
174.028961 457.0
175.036346 1134.0
176.042252 1226.0
177.051926 689.0
178.058792 3502.0
179.063293 447.0
188.043472 310.0
189.051865 1547.0
190.060699 18940.0
191.062851 4146.0
192.05986 566.0
193.082413 13095.0
194.086761 1619.0
195.091904 201.0
206.054077 6704.0
207.058685 786.0
221.078766 66864.0
222.082275 8275.0
223.084183 1207.0
276.115234 218.0
315.172607 360.0
316.17749 145.0
320.232513 100.0
