>compound NITAZOXANIDE
>formula C12H9N3O5S
>ionization [M+H]+
>parentmass 308.034
#inchi InChI=1S/C12H9N3O5S/c1-7(16)20-9-5-3-2-4-8(9)11(17)14-12-13-6-10(21-12)15(18)19/h2-6H,1H3,(H,13,14,17)
#inchikey YQNQNVDNTFHQSW
#Ion_Source LC-ESI
#Instrument qTof
#Compound_Source Commercial
#PI Dorrestein
#Data_Collector Garg_Neha
#Scan -1
#Precursor_MZ 308.034
#ExactMass 307.026
#Charge 1
#CAS_Number N/A
#Pubmed_ID N/A
#Smiles CC(=O)Oc1ccccc1C(=O)Nc2ncc(s2)[N+](=O)[O-]
#INCHI_AUX N/A
#Library_Class 1
#SpectrumID CCMSLIB00000079126
#IonMode Positive
#UpdateWorkflowName UPDATE-SINGLE-ANNOTATED-GOLD
#LibraryQualityString Gold
#TaskID 278b19f5865741e282cec7349aa7e7a1
##Scan# 1388
#SpectrumFile NCP003512_E2_F11_BD6_01_15730.mzXML
#LibraryName NIHcollectionI_05062014.mgf
#MQScore -1
#Organism NIHcollectionI_05062014
#TIC_Query 0
#RT_Query -1
#MZErrorPPM -1
#SharedPeaks 0
#MassDiff 0
#LibMZ -1
#SpecMZ 308.034
#SpecCharge 0
#internalFilename spec-00000.mgf

>collision 10
45.774227 196.0
47.498978 196.0
52.356445 216.0
55.02211 140.0
58.067482 152.0
67.68589 196.0
71.406815 160.0
75.870834 168.0
82.534683 140.0
84.619827 140.0
103.339149 196.0
118.054123 168.0
119.316048 140.0
120.866783 200.0
121.029388 6284.0
121.361801 176.0
121.519722 152.0
122.030319 540.0
124.038193 216.0
128.997406 640.0
135.010208 140.0
146.001419 1112.0
147.00647 180.0
147.949112 140.0
161.998856 172.0
163.03952 1560.0
164.046295 348.0
171.981079 404.0
175.001953 164.0
209.161179 208.0
247.802887 208.0
248.013062 496.0
248.997574 368.0
265.010101 144.0
266.023773 5492.0
266.092743 208.0
267.025299 908.0
268.025024 316.0
290.029755 152.0
309.130341 108.0
310.144684 168.0
317.974731 144.0
382.352386 172.0
1559.110229 148.0
1586.824341 172.0
1618.928101 196.0
1727.212158 176.0
1994.107056 180.0
