>compound MLS001140841-01!2-[[2-(4-butyl-2-oxochromen-7-yl)oxyacetyl]amino]-3-(5-hydroxy-1H-indol-3-yl)propanoic acid
>formula C26H26N2O7
>ionization [M+H]+
>parentmass 479.182
#inchi InChI=1S/C26H26N2O7/c1-2-3-4-15-10-25(31)35-23-12-18(6-7-19(15)23)34-14-24(30)28-22(26(32)33)9-16-13-27-21-8-5-17(29)11-20(16)21/h5-8,10-13,22,27,29H,2-4,9,14H2,1H3,(H,28,30)(H,32,33)
#inchikey PILODEJWJAFZST
#Ion_Source LC-ESI
#Instrument qTof
#Compound_Source NIH Natural Product Library
#PI Dorrestein
#Data_Collector VVP/LMS
#Scan -1
#Precursor_MZ 479.182
#ExactMass 478.174
#Charge 1
#CAS_Number N/A
#Pubmed_ID N/A
#Smiles CCCCc1cc(=O)oc2cc(OCC(=O)NC(Cc3c[nH]c4ccc(O)cc34)C(=O)O)ccc12
#INCHI_AUX N/A
#Library_Class 1
#SpectrumID CCMSLIB00000079770
#IonMode Positive
#UpdateWorkflowName UPDATE-SINGLE-ANNOTATED-GOLD
#LibraryQualityString Gold
#TaskID b1d8e8f6646f4e71acdff9ca3d919d08
##Scan# 2009
#SpectrumFile p1-G10_GG10_01_17954.mzXML
#LibraryName NIH_Natural_Products_Library.mgf
#MQScore -1
#Organism NIH_Natural_Products_Library
#TIC_Query 0
#RT_Query -1
#MZErrorPPM -1
#SharedPeaks 0
#MassDiff 0
#LibMZ -1
#SpecMZ 479.182
#SpecCharge 0
#internalFilename spec-00000.mgf

>collision 10
95.457527 76.0
95.548943 212.0
95.702705 116.0
95.796188 136.0
96.037895 136.0
96.113976 96.0
96.35218 116.0
96.406891 176.0
96.535912 56.0
96.549599 60.0
96.653275 176.0
96.666176 108.0
96.782463 204.0
96.856888 60.0
96.876472 92.0
97.045021 256.0
97.266701 144.0
97.421837 164.0
97.467026 204.0
97.610519 184.0
97.996307 136.0
98.10273 116.0
98.339439 228.0
98.38089 136.0
98.453941 132.0
98.536629 228.0
98.603294 168.0
98.669319 232.0
98.878998 200.0
99.041351 156.0
99.297035 216.0
99.40416 208.0
99.433929 76.0
99.803421 88.0
100.035515 176.0
100.064064 228.0
100.169609 180.0
100.235359 68.0
100.544456 136.0
100.82605 52.0
101.110039 128.0
101.204124 44.0
101.348335 204.0
101.408455 108.0
101.458572 196.0
101.558838 224.0
101.71936 52.0
101.831802 180.0
101.869965 124.0
102.173523 232.0
102.225838 88.0
102.282196 216.0
102.493652 92.0
102.826698 168.0
102.951569 40.0
102.977821 164.0
103.054482 324.0
103.509689 168.0
103.542091 160.0
103.584625 208.0
103.931305 112.0
103.990028 192.0
104.347679 168.0
104.665085 148.0
104.681381 128.0
104.728218 116.0
104.805634 164.0
104.881035 120.0
105.033966 240.0
105.068092 372.0
105.217628 64.0
105.442322 84.0
105.470932 144.0
105.542488 76.0
105.597702 148.0
105.671341 240.0
106.065506 348.0
106.160896 96.0
106.175255 156.0
106.189606 56.0
106.415337 160.0
106.653633 168.0
106.686523 160.0
106.715309 184.0
106.890144 216.0
107.044533 348.0
107.089165 196.0
107.192848 176.0
107.20594 132.0
107.234062 220.0
107.510422 212.0
107.537254 140.0
107.574463 152.0
107.593857 132.0
107.615799 232.0
107.704498 168.0
108.044426 300.0
108.109726 48.0
108.403786 144.0
108.434875 132.0
108.733528 200.0
108.870544 40.0
108.885086 128.0
108.951553 120.0
109.026352 172.0
109.049217 172.0
109.173317 156.0
109.238434 168.0
109.794556 96.0
109.827927 132.0
110.003204 88.0
110.230858 144.0
110.268478 144.0
110.324913 144.0
110.469208 160.0
110.508957 116.0
110.56546 140.0
110.705872 164.0
110.802071 68.0
110.883797 172.0
111.045227 200.0
111.139633 148.0
111.255066 52.0
111.315956 152.0
111.37056 192.0
111.580696 100.0
111.687943 132.0
112.050026 212.0
112.138527 152.0
112.218636 40.0
112.3283 208.0
112.516113 148.0
113.033951 124.0
113.088974 124.0
113.118614 76.0
113.421524 156.0
113.584793 128.0
113.926567 128.0
114.27523 120.0
114.505127 168.0
114.643608 196.0
114.67131 176.0
114.899475 196.0
115.004036 124.0
115.053253 756.0
115.125732 148.0
115.386414 108.0
115.42704 148.0
115.448425 164.0
115.499756 260.0
115.514725 84.0
115.570351 220.0
115.628128 192.0
115.692345 232.0
115.867958 144.0
115.981529 132.0
116.050476 324.0
116.084442 200.0
116.103737 124.0
116.120895 128.0
116.189537 136.0
116.292542 116.0
116.361237 208.0
116.455719 72.0
116.487938 208.0
116.535202 156.0
116.578178 116.0
116.679199 148.0
116.72435 156.0
116.803925 264.0
116.836197 120.0
117.02774 204.0
117.059135 716.0
117.137581 120.0
117.16774 76.0
117.212982 88.0
117.299194 152.0
117.387589 60.0
117.672409 132.0
117.821426 204.0
117.843033 188.0
117.897057 140.0
117.935959 112.0
118.033241 168.0
118.064034 1240.0
118.090118 80.0
118.111099 48.0
118.276512 164.0
118.580948 188.0
119.046585 228.0
119.066132 340.0
119.155991 216.0
119.242905 156.0
119.299423 108.0
119.384216 168.0
119.471222 172.0
119.508209 196.0
119.664917 224.0
119.954666 228.0
120.017891 120.0
120.039696 116.0
120.081131 200.0
120.41069 52.0
120.690407 128.0
120.808502 180.0
120.904778 72.0
121.042168 168.0
121.066734 184.0
121.114967 80.0
121.163155 180.0
121.231781 164.0
121.68074 116.0
121.709282 140.0
121.845459 152.0
121.889404 152.0
121.942146 216.0
121.957535 68.0
122.052063 164.0
122.155434 184.0
122.208229 144.0
122.276451 152.0
122.434959 104.0
122.512054 148.0
122.787582 228.0
122.807426 160.0
122.90229 128.0
122.92215 176.0
123.058998 112.0
123.123039 148.0
123.24453 140.0
123.299782 192.0
123.414726 188.0
123.507492 228.0
123.739967 164.0
123.819687 192.0
123.91494 76.0
123.998817 164.0
124.061203 60.0
124.238617 208.0
124.33181 176.0
124.436142 132.0
124.473885 204.0
124.538292 164.0
124.560501 152.0
124.702705 160.0
124.887253 192.0
125.02964 116.0
125.258972 104.0
125.287933 144.0
125.352547 140.0
125.406036 144.0
125.450615 188.0
125.617867 160.0
125.635712 148.0
125.698181 144.0
125.731659 184.0
125.841034 264.0
126.046532 216.0
126.147102 208.0
126.292442 192.0
126.388641 172.0
126.529648 128.0
126.581146 140.0
126.771553 188.0
127.078751 192.0
127.143822 124.0
127.500908 156.0
127.584076 96.0
127.790985 184.0
127.946281 152.0
128.056213 216.0
128.108429 136.0
128.216583 104.0
128.834839 184.0
129.006577 176.0
129.04306 120.0
129.071091 180.0
129.101547 148.0
129.278 112.0
129.431931 212.0
129.588211 152.0
129.63353 68.0
129.77861 180.0
130.028137 188.0
130.063019 392.0
130.378967 200.0
130.566574 192.0
130.614334 156.0
130.953476 188.0
131.001312 232.0
131.048462 2036.0
131.072983 340.0
131.195023 116.0
131.697037 148.0
131.763275 64.0
131.813553 64.0
131.930115 160.0
132.006149 216.0
132.047653 108.0
132.080627 408.0
132.142807 184.0
132.406052 88.0
132.43811 160.0
132.458725 196.0
132.580154 148.0
132.72229 56.0
132.830078 116.0
132.992981 152.0
133.009048 164.0
133.05513 848.0
133.710083 148.0
133.815964 44.0
133.868927 184.0
133.905777 192.0
134.030167 152.0
134.058929 3580.0
134.103912 208.0
134.12236 156.0
134.145401 112.0
134.265305 132.0
134.36911 160.0
134.484482 180.0
134.914139 204.0
134.958069 148.0
135.036697 108.0
135.061569 292.0
135.126907 92.0
135.41626 192.0
135.759262 184.0
135.787094 176.0
135.884521 208.0
136.125916 48.0
136.167709 184.0
136.509338 128.0
136.858383 204.0
136.897964 180.0
137.015381 156.0
137.119278 116.0
137.296463 132.0
137.511108 216.0
137.634827 152.0
137.756271 148.0
137.786652 60.0
137.82637 140.0
137.863754 176.0
137.910492 148.0
138.069473 184.0
138.160706 64.0
138.399429 104.0
138.460312 148.0
138.4814 48.0
138.631332 156.0
138.692261 188.0
138.872818 204.0
139.114502 192.0
139.382248 152.0
139.478775 164.0
139.624374 176.0
139.800812 184.0
139.878479 172.0
140.044479 176.0
140.073929 56.0
140.196442 128.0
140.309586 200.0
140.330917 180.0
140.389755 128.0
140.474335 224.0
140.715378 208.0
141.055573 184.0
141.074478 192.0
141.192703 260.0
141.209259 256.0
141.455338 124.0
141.796417 32.0
142.064682 1976.0
142.230469 192.0
142.418045 216.0
142.472687 132.0
142.862549 204.0
143.074234 340.0
143.179123 144.0
143.279175 200.0
143.386398 124.0
143.488632 180.0
143.572357 192.0
143.68924 72.0
143.938522 172.0
144.048508 444.0
144.083954 160.0
144.159622 144.0
144.314987 136.0
144.417816 208.0
144.448914 148.0
144.49437 156.0
144.733719 164.0
144.867844 64.0
144.901382 100.0
144.951691 192.0
145.029221 228.0
145.03714 80.0
145.063034 664.0
145.099167 2244.0
145.155441 32.0
145.28302 168.0
145.356018 260.0
145.390533 76.0
145.440948 84.0
145.484146 212.0
145.540146 124.0
145.610397 180.0
145.882523 168.0
145.904572 188.0
145.956253 192.0
145.986313 172.0
146.012772 152.0
146.059235 40928.0
146.095184 216.0
146.101883 384.0
146.142883 88.0
146.166382 220.0
146.185333 196.0
146.214859 36.0
146.239365 196.0
146.271912 120.0
146.294296 52.0
146.323181 84.0
146.354477 48.0
146.373749 68.0
146.401443 44.0
146.453217 96.0
146.47731 60.0
146.523071 80.0
146.549576 48.0
146.588135 116.0
146.704651 128.0
146.786774 168.0
146.841263 156.0
146.885345 168.0
146.920868 28.0
146.978012 228.0
147.019791 52.0
147.062408 3700.0
147.11232 144.0
147.256393 68.0
147.295776 72.0
147.336105 152.0
147.423096 36.0
147.507675 136.0
147.601974 68.0
147.633408 104.0
147.681778 48.0
147.705963 84.0
147.790634 120.0
147.94458 80.0
147.972168 168.0
148.07515 1292.0
148.115448 120.0
148.13443 44.0
148.153809 112.0
148.199829 60.0
148.245743 152.0
148.277374 120.0
148.352524 140.0
148.396164 260.0
148.47226 200.0
148.49559 68.0
148.638718 160.0
148.845047 216.0
149.046127 168.0
149.077942 396.0
149.117126 64.0
149.615784 220.0
149.657166 108.0
149.881256 56.0
150.017746 176.0
150.044556 168.0
150.112839 52.0
150.786621 148.0
150.886841 40.0
151.121643 120.0
151.212173 144.0
151.62854 60.0
151.773163 128.0
152.278702 48.0
152.903183 60.0
153.053345 152.0
153.077957 180.0
153.225754 52.0
153.388397 156.0
153.694214 136.0
154.065536 560.0
154.204575 120.0
154.272141 192.0
154.371033 148.0
154.504593 88.0
154.581299 64.0
154.675354 184.0
154.866013 204.0
154.965103 184.0
155.061005 480.0
155.085007 292.0
155.379135 52.0
155.448608 132.0
155.619888 156.0
156.041016 320.0
156.070099 268.0
156.101929 152.0
156.644501 132.0
156.848831 156.0
156.89447 144.0
156.948563 164.0
157.046631 412.0
157.074158 200.0
157.099075 352.0
157.118164 64.0
157.280365 68.0
157.462631 228.0
157.782471 200.0
157.920013 108.0
157.940018 248.0
158.012558 204.0
158.059341 8424.0
158.182739 60.0
158.322952 204.0
158.364304 132.0
158.508316 88.0
158.728912 192.0
158.761505 132.0
158.784088 84.0
158.851807 72.0
158.917038 284.0
159.042023 184.0
159.06662 3624.0
159.122833 160.0
159.255936 192.0
159.348877 116.0
159.37149 44.0
159.40918 108.0
159.522278 44.0
159.592682 32.0
159.650513 36.0
159.68251 160.0
159.793884 56.0
159.874405 132.0
159.987671 148.0
160.010666 124.0
160.046921 208.0
160.074203 11600.0
160.186615 44.0
160.237 92.0
160.315109 72.0
160.352921 92.0
160.395767 44.0
160.554611 148.0
160.787872 148.0
160.822037 148.0
160.970993 144.0
161.075195 1432.0
161.132645 244.0
161.181549 236.0
161.534607 112.0
161.650986 204.0
161.757294 76.0
161.801697 140.0
161.937057 180.0
161.995316 228.0
162.02066 60.0
162.054474 6352.0
162.122009 48.0
162.21579 128.0
162.232834 88.0
162.253815 200.0
162.288101 84.0
162.319733 64.0
162.362854 88.0
162.395813 56.0
162.419235 204.0
162.444016 96.0
162.604324 196.0
162.677475 92.0
162.842514 120.0
162.941589 188.0
162.966995 76.0
163.056961 816.0
163.109314 156.0
163.185577 72.0
163.281311 80.0
163.336487 108.0
163.534088 52.0
164.032272 144.0
164.057571 144.0
164.114914 208.0
164.163361 80.0
164.23732 148.0
164.267929 44.0
164.308746 204.0
164.390396 136.0
164.758072 96.0
165.039215 144.0
165.202896 136.0
165.768738 136.0
165.827682 176.0
166.189255 160.0
166.332977 44.0
166.551239 144.0
167.199142 132.0
167.750351 224.0
168.052094 100.0
168.274048 140.0
168.361847 112.0
168.45224 196.0
168.824966 96.0
168.907196 88.0
169.073044 460.0
169.153015 152.0
169.32132 128.0
169.396439 160.0
169.972 104.0
170.05896 4664.0
170.10228 148.0
170.164078 216.0
170.213409 52.0
170.387421 128.0
170.496567 208.0
170.556335 156.0
170.660324 96.0
170.701935 148.0
170.977692 136.0
171.063385 684.0
171.09021 168.0
171.365677 36.0
171.597641 192.0
171.741074 132.0
171.842255 208.0
172.030716 48.0
172.071625 2488.0
172.147949 188.0
172.958679 128.0
173.046677 364.0
173.073074 1136.0
173.168152 52.0
173.301758 40.0
173.343674 108.0
173.684509 124.0
173.74437 156.0
174.077454 9352.0
174.150833 104.0
174.178833 156.0
174.233139 32.0
174.269928 88.0
174.309341 92.0
174.438126 72.0
174.609024 44.0
174.635895 188.0
174.80896 56.0
174.837921 112.0
174.870102 52.0
174.951096 116.0
174.980057 184.0
175.038681 472.0
175.084473 2896.0
175.138062 92.0
175.204239 96.0
175.292633 140.0
175.699539 92.0
175.768143 60.0
176.046082 372.0
176.069519 784.0
176.251358 68.0
176.314774 40.0
176.396713 76.0
176.449585 188.0
176.666443 96.0
176.843735 40.0
176.891388 284.0
176.91687 116.0
177.056244 284.0
177.085724 236.0
177.187988 44.0
177.466278 152.0
178.052719 204.0
178.096252 164.0
178.422073 76.0
178.47258 56.0
178.805099 208.0
179.100647 204.0
179.40976 180.0
179.559082 96.0
180.587341 212.0
181.061066 224.0
181.288773 140.0
181.715118 228.0
182.059723 180.0
182.268234 220.0
183.007919 148.0
183.048309 132.0
183.077927 168.0
183.142563 132.0
183.196442 160.0
183.665482 172.0
183.981201 152.0
184.083801 160.0
184.367462 104.0
184.667557 132.0
185.0112 180.0
185.07164 428.0
185.095428 372.0
185.133057 292.0
185.241394 36.0
185.506958 156.0
185.620834 92.0
185.642517 124.0
185.835114 184.0
185.965363 156.0
185.992508 172.0
186.011429 224.0
186.053833 13456.0
186.185272 136.0
186.220581 68.0
186.277634 40.0
186.30751 56.0
186.336685 76.0
186.456955 200.0
186.535782 48.0
186.584793 144.0
186.63208 76.0
186.747864 332.0
186.766907 376.0
186.843079 60.0
186.892044 84.0
187.017227 152.0
187.056412 1528.0
187.084671 9452.0
187.120682 92.0
187.145187 120.0
187.188751 104.0
187.213257 52.0
187.267731 60.0
187.304794 92.0
187.360336 108.0
187.46933 136.0
187.572906 64.0
187.60289 84.0
187.930161 112.0
188.022934 76.0
188.089188 1532.0
188.117279 144.0
188.176987 208.0
188.339645 128.0
188.363388 168.0
188.373184 116.0
188.48172 60.0
188.681244 40.0
189.056122 636.0
189.096191 620.0
189.187347 128.0
189.294128 84.0
189.398209 52.0
189.472168 64.0
189.537918 88.0
189.581772 104.0
190.111038 200.0
190.12883 128.0
190.278473 64.0
190.399292 124.0
190.495422 72.0
191.003967 68.0
191.02597 156.0
191.056229 132.0
191.103012 200.0
191.67572 52.0
191.711548 60.0
192.435059 96.0
192.851379 68.0
193.10022 96.0
194.891022 124.0
195.31636 44.0
195.477737 144.0
196.491669 196.0
197.070663 960.0
197.097839 128.0
197.187256 72.0
197.581528 60.0
197.631897 136.0
198.054977 840.0
198.076477 1560.0
198.589966 44.0
198.724625 104.0
198.786346 112.0
198.904236 208.0
199.082382 1820.0
199.162552 96.0
199.218735 52.0
199.489639 196.0
199.59816 32.0
199.688156 52.0
199.735962 60.0
200.003281 40.0
200.069183 616.0
200.132782 164.0
200.166565 68.0
200.372177 40.0
200.414444 60.0
200.634277 196.0
200.696304 112.0
200.755524 116.0
200.913483 160.0
201.066833 1580.0
201.089279 3716.0
201.147705 64.0
201.254974 72.0
201.305801 100.0
201.438553 104.0
201.514832 40.0
201.780502 184.0
202.070984 540.0
202.093079 476.0
202.145386 96.0
202.873291 80.0
203.07489 200.0
203.107635 552.0
203.284546 116.0
203.443497 220.0
203.537186 252.0
203.713272 168.0
204.025269 296.0
204.064316 9952.0
204.108887 516.0
204.164734 48.0
204.276123 36.0
204.315948 64.0
204.352936 64.0
204.450592 104.0
205.066345 956.0
205.241608 192.0
205.312897 44.0
205.384201 152.0
205.504013 48.0
205.714844 136.0
206.067764 208.0
206.275101 32.0
206.358002 144.0
206.486679 116.0
206.552475 88.0
207.537643 72.0
208.062683 56.0
211.050461 160.0
211.102509 132.0
211.278946 80.0
211.768143 176.0
212.205719 64.0
212.73082 192.0
212.919556 192.0
213.384476 48.0
214.071167 108.0
214.919418 192.0
215.079773 1932.0
216.087173 2320.0
216.115005 216.0
216.386658 52.0
216.429199 68.0
216.949158 48.0
217.089447 284.0
217.236542 48.0
217.356842 144.0
217.474228 128.0
217.618073 172.0
217.759018 124.0
218.064575 172.0
218.092346 428.0
218.320358 60.0
218.55275 36.0
218.702835 96.0
218.888306 48.0
219.099579 7296.0
219.370361 136.0
219.40097 56.0
219.604431 128.0
219.638214 80.0
219.675232 48.0
219.778488 104.0
220.103851 1672.0
220.611343 68.0
220.972153 168.0
221.105789 128.0
221.271072 116.0
221.493179 60.0
222.172028 128.0
222.620209 104.0
223.253189 148.0
224.957474 60.0
225.05394 124.0
225.390533 48.0
226.066345 156.0
227.069946 128.0
227.096939 176.0
229.094131 288.0
229.873779 96.0
230.095627 124.0
231.061234 188.0
231.100037 2228.0
231.176208 44.0
231.22464 100.0
232.015213 112.0
232.104889 288.0
232.488403 60.0
232.782867 44.0
233.093964 452.0
233.506149 128.0
234.085114 184.0
234.824921 136.0
234.849319 120.0
235.386444 92.0
236.125992 184.0
237.70369 104.0
238.994247 180.0
239.366699 80.0
240.479614 148.0
241.089523 272.0
242.269989 36.0
242.936508 144.0
243.074112 124.0
243.099991 344.0
243.464157 156.0
243.678482 92.0
244.077621 292.0
244.106323 224.0
244.135422 132.0
244.779572 148.0
245.069748 176.0
245.115997 152.0
245.137817 132.0
245.580505 164.0
245.739609 72.0
246.111023 128.0
248.016235 88.0
248.916641 72.0
250.176178 1296.0
250.435623 76.0
250.678207 172.0
250.706573 60.0
251.106964 140.0
251.179657 336.0
255.102295 168.0
256.063904 48.0
256.102142 120.0
256.130798 188.0
257.103668 128.0
258.11026 684.0
258.35257 192.0
259.066467 212.0
259.096527 608.0
260.119202 168.0
260.426544 40.0
260.709259 164.0
261.133636 112.0
267.951019 140.0
268.179108 188.0
269.099792 260.0
269.327637 72.0
271.539185 76.0
272.124084 164.0
273.047699 136.0
273.771729 104.0
274.088409 196.0
276.119141 1060.0
276.339813 64.0
276.554901 136.0
277.099976 172.0
277.106049 176.0
277.125366 156.0
279.5784 188.0
281.531982 252.0
282.114227 124.0
282.845947 148.0
284.891479 132.0
285.570465 64.0
286.11203 352.0
287.146729 96.0
288.073578 264.0
288.096558 260.0
288.889648 60.0
289.024963 148.0
290.057465 184.0
290.186737 128.0
290.505524 64.0
291.102875 180.0
292.078308 160.0
292.156555 108.0
300.102386 168.0
301.072021 196.0
301.12384 116.0
302.136322 272.0
303.171936 184.0
304.125702 128.0
304.229828 76.0
304.618774 152.0
306.114319 160.0
307.027344 164.0
307.938232 40.0
308.700104 136.0
310.079437 104.0
312.101471 76.0
313.118469 128.0
314.832428 204.0
315.012573 84.0
315.549744 36.0
317.330627 64.0
320.08432 160.0
324.117126 92.0
325.681305 72.0
327.087219 172.0
327.418457 76.0
328.099487 220.0
328.178802 224.0
329.093384 168.0
332.098907 148.0
333.097076 116.0
333.12616 172.0
334.118591 180.0
334.151337 156.0
337.828766 236.0
342.092987 108.0
343.006531 156.0
343.117126 100.0
345.114532 112.0
346.11554 484.0
347.140015 128.0
350.019867 32.0
352.459381 60.0
352.795746 40.0
353.061218 148.0
353.109833 64.0
353.15097 128.0
354.094147 136.0
357.074127 116.0
357.149353 108.0
357.175659 44.0
357.709991 132.0
358.094055 136.0
358.140869 188.0
359.134338 168.0
360.157928 128.0
361.548553 52.0
362.136902 404.0
363.124084 148.0
366.001343 168.0
367.041595 64.0
370.094574 176.0
370.132874 160.0
371.09845 136.0
371.850311 152.0
372.499207 68.0
373.106384 152.0
374.900055 140.0
375.142883 120.0
376.153168 1388.0
376.763702 104.0
377.123077 52.0
377.158905 172.0
378.163513 208.0
379.038757 100.0
379.147247 60.0
385.447601 192.0
386.139374 176.0
387.016113 132.0
387.17746 176.0
387.255005 76.0
388.150085 184.0
388.568207 80.0
389.388611 168.0
389.577148 136.0
391.118591 140.0
391.378448 132.0
396.609039 196.0
397.037231 76.0
397.160187 184.0
397.473572 176.0
398.069 108.0
398.139343 316.0
398.307312 52.0
399.114075 136.0
399.151947 148.0
400.140594 196.0
404.496002 160.0
405.142578 156.0
405.158295 72.0
405.175354 112.0
405.433228 72.0
406.837097 52.0
407.162323 108.0
407.246674 168.0
407.965942 60.0
408.074493 144.0
408.145142 140.0
408.275543 52.0
411.236755 128.0
411.987823 96.0
412.181763 180.0
415.16507 792.0
415.250366 52.0
416.001007 124.0
416.150024 200.0
416.268982 68.0
416.8255 68.0
417.147461 216.0
418.139038 184.0
418.876007 60.0
419.083771 64.0
419.874603 136.0
421.221527 116.0
424.610565 52.0
424.864868 32.0
426.116821 144.0
426.125397 136.0
429.274109 76.0
430.644257 108.0
430.759918 48.0
431.349487 160.0
431.565826 92.0
431.95871 48.0
432.124176 44.0
432.227631 88.0
432.533875 80.0
432.933258 112.0
433.173279 6812.0
433.279266 92.0
433.351593 80.0
433.445007 88.0
433.544464 52.0
433.701965 64.0
433.834595 196.0
434.173981 1784.0
434.240967 52.0
434.307343 72.0
434.776154 52.0
434.921417 100.0
435.087463 152.0
435.181915 400.0
435.303375 212.0
435.947266 60.0
436.178101 184.0
436.254822 88.0
437.44873 36.0
437.756836 132.0
438.415039 128.0
439.219696 44.0
440.167084 120.0
440.939941 124.0
443.161957 132.0
444.042267 104.0
444.143799 156.0
446.381439 52.0
451.166931 128.0
456.858154 56.0
459.183868 124.0
461.165009 204.0
462.181763 140.0
466.733765 96.0
477.928131 96.0
478.28064 160.0
478.8815 100.0
479.055756 200.0
479.169159 600.0
480.174347 144.0
481.175232 156.0
481.258179 160.0
482.175537 140.0
483.12439 52.0
491.445618 56.0
497.172668 152.0
503.7435 72.0
508.395508 44.0
521.17041 44.0
526.979736 116.0
529.78418 92.0
534.099182 116.0
544.104004 92.0
544.554443 120.0
562.346619 52.0
571.116882 40.0
589.35376 56.0
609.242126 60.0
669.393372 164.0
687.203796 72.0
691.719116 100.0
701.705933 96.0
706.633606 40.0
731.390503 52.0
736.421143 104.0
765.578552 104.0
770.620239 224.0
787.904663 48.0
816.700073 56.0
829.204041 196.0
840.359985 220.0
849.599426 152.0
878.116272 52.0
881.91272 116.0
884.473877 160.0
892.149902 60.0
896.816772 96.0
903.121948 64.0
913.938354 104.0
916.587769 156.0
921.565674 84.0
929.86792 108.0
934.680969 208.0
936.640686 200.0
949.605408 68.0
955.828552 188.0
958.057373 92.0
965.507507 60.0
973.26593 172.0
982.739319 164.0
999.752136 132.0
1003.096558 96.0
1003.159607 76.0
1005.158936 36.0
1007.229736 204.0
1013.644958 184.0
1022.484802 128.0
1022.822144 180.0
1023.611633 180.0
1024.108398 244.0
1024.496948 212.0
1025.624878 144.0
1033.857422 152.0
1049.002686 176.0
1054.547363 152.0
1058.590698 208.0
1078.858521 160.0
1080.702881 132.0
1081.835083 80.0
1087.662598 68.0
1095.369263 32.0
1096.897949 132.0
1096.970459 188.0
1097.451782 168.0
1101.464233 140.0
1101.953125 124.0
1108.072998 148.0
1110.260376 116.0
1112.045166 160.0
1114.728149 200.0
1116.529663 168.0
1117.667236 208.0
1117.959961 152.0
1120.34375 152.0
1122.40979 252.0
1136.382568 132.0
1137.261597 124.0
1142.085938 176.0
1145.754639 208.0
1146.812622 244.0
1151.657104 164.0
1163.032349 160.0
1168.584351 196.0
1168.672852 216.0
1172.070557 172.0
1172.751953 136.0
1173.201904 52.0
1175.698364 232.0
1176.68811 176.0
1180.11792 48.0
1185.964111 52.0
1189.537842 200.0
1201.194824 176.0
1202.42981 136.0
1203.769165 76.0
1203.907227 136.0
1205.848511 172.0
1207.079102 180.0
1212.610474 152.0
1218.592163 156.0
1218.904785 140.0
1220.552246 116.0
1222.124146 36.0
1223.084595 172.0
1224.539795 180.0
1229.224609 184.0
1229.315308 84.0
1234.477661 252.0
1240.099365 124.0
1240.891602 272.0
1242.118774 188.0
1245.530273 212.0
1251.845947 176.0
1252.627686 144.0
1258.149414 176.0
1260.098633 224.0
1264.702271 148.0
1266.005005 208.0
1267.648438 96.0
1269.498657 164.0
1270.349731 96.0
1270.498779 184.0
1272.343872 160.0
1273.153442 172.0
1274.090942 168.0
1277.062256 140.0
1277.161865 132.0
1277.976685 92.0
1278.478149 132.0
1283.521606 164.0
1286.254028 144.0
1286.98938 216.0
1288.432007 144.0
1291.691895 108.0
1294.8125 116.0
1296.653809 160.0
1299.751709 176.0
1305.22522 200.0
1305.318604 160.0
1306.483765 112.0
1308.232544 184.0
1310.018433 224.0
1310.688477 224.0
1312.605957 236.0
1313.824829 184.0
1314.647339 172.0
1315.835449 188.0
1318.597778 172.0
1320.708984 120.0
1320.86084 128.0
1323.625488 44.0
1323.683472 144.0
1325.668335 44.0
1327.146973 220.0
1328.256592 68.0
1329.642456 136.0
1330.194092 44.0
1332.147461 164.0
1333.629761 56.0
1334.858398 92.0
1335.192993 80.0
1336.873413 228.0
1337.069946 200.0
1338.038086 32.0
1339.953491 56.0
1342.037964 140.0
1342.847412 132.0
1343.744629 184.0
1344.802734 144.0
1346.781494 192.0
1347.168579 116.0
1348.856689 184.0
1353.04834 76.0
1353.180176 168.0
1353.641479 108.0
1353.736694 96.0
1358.126709 56.0
1359.953613 232.0
1361.142944 132.0
1361.37793 136.0
1365.920044 156.0
1366.376221 128.0
1366.574829 140.0
1366.766113 196.0
1368.168091 168.0
1369.674194 180.0
1369.784668 108.0
1375.706177 152.0
1380.405151 112.0
1381.914062 144.0
1382.46167 152.0
1389.115112 60.0
1389.493408 60.0
1389.753174 192.0
1390.005371 128.0
1391.939453 116.0
1394.52063 164.0
1395.382935 128.0
1396.959595 156.0
1397.599365 112.0
1398.939087 184.0
1399.758057 164.0
1404.087769 148.0
1405.69165 68.0
1410.733154 72.0
1411.914551 184.0
1413.820801 164.0
1414.826294 136.0
1415.012329 168.0
1422.253906 172.0
1428.504272 96.0
1429.228027 116.0
1430.417114 192.0
1430.72583 48.0
1430.816162 256.0
1435.570557 164.0
1436.3927 156.0
1437.796021 148.0
1440.937256 88.0
1441.073242 108.0
1442.501587 248.0
1444.967041 124.0
1445.22522 164.0
1445.905273 208.0
1446.707642 156.0
1448.138794 64.0
1451.890381 220.0
1452.284668 164.0
1453.810913 120.0
1454.280151 180.0
1456.535278 120.0
1457.250977 100.0
1457.416626 132.0
1458.814941 152.0
1462.291138 168.0
1462.732544 168.0
1463.198853 156.0
1464.521973 196.0
1465.451294 240.0
1466.397217 168.0
1468.388428 160.0
1470.400391 156.0
1470.54541 244.0
1471.178955 68.0
1473.164429 140.0
1474.700317 120.0
1476.351685 108.0
1479.320312 168.0
1480.913086 172.0
1481.839966 140.0
1487.453613 216.0
1489.181274 212.0
1491.786133 156.0
1492.208862 124.0
1496.032471 108.0
1498.342896 188.0
1500.624146 128.0
1503.022949 152.0
