>compound MLS001076155-01!6ALPHA-METHYL-11BETA-HYDROXYPROGESTERONE
>formula C22H32O3
>ionization [M+H]+
>parentmass 345.242523
#inchi InChI=1S/C22H32O3/c1-12-9-15-17-6-5-16(13(2)23)22(17,4)11-19(25)20(15)21(3)8-7-14(24)10-18(12)21/h10,12,15-17,19-20,25H,5-9,11H2,1-4H3/t12-,15-,16+,17-,19-,20+,21-,22+/m0/s1
#inchikey GZENKSODFLBBHQ
#Ion_Source LC-ESI
#Instrument qTof
#Compound_Source NIH Pharmacologically Active Library
#PI Dorrestein
#Data_Collector VP/LMS
#Scan -1
#Precursor_MZ 345.249
#ExactMass 344.235
#Charge 1
#CAS_Number N/A
#Pubmed_ID N/A
#Smiles C[C@H]1C[C@H]2[C@@H]3CC[C@H](C(=O)C)[C@@]3(C)C[C@H](O)[C@@H]2[C@@]4(C)CCC(=O)C=C14
#INCHI_AUX N/A
#Library_Class 3
#SpectrumID CCMSLIB00000085491
#IonMode Positive
#UpdateWorkflowName UPDATE-SINGLE-ANNOTATED-BRONZE
#LibraryQualityString Bronze
#TaskID d252d724072548979f1f6f1ced849daf
##Scan# 2202
#SpectrumFile p4-B07_GB7_01_18343.mzXML
#LibraryName Pharm_Active_Library.mgf
#MQScore -1
#Organism Pharm_Active_Library
#TIC_Query 0
#RT_Query -1
#MZErrorPPM -1
#SharedPeaks 0
#MassDiff 0
#LibMZ -1
#SpecMZ 345.249
#SpecCharge 0
#internalFilename spec-00000.mgf

>collision 10
44.928749 176.0
44.940754 180.0
45.044888 160.0
45.055573 168.0
45.222721 148.0
45.288326 204.0
45.356663 144.0
45.386242 188.0
45.402245 160.0
45.45322 156.0
45.484089 104.0
45.596909 152.0
45.659714 224.0
45.769096 192.0
45.994236 204.0
46.113094 196.0
46.180695 232.0
46.201584 144.0
46.283543 96.0
46.345848 216.0
46.409554 164.0
46.459732 232.0
46.48687 224.0
46.504173 240.0
46.508373 180.0
46.512032 392.0
46.546597 80.0
46.588699 144.0
46.724648 160.0
46.743694 132.0
46.757305 132.0
46.798141 124.0
46.854435 204.0
46.912579 56.0
46.945301 188.0
46.969852 164.0
47.033981 204.0
47.092693 204.0
47.107719 68.0
47.180145 184.0
47.278625 116.0
47.39502 128.0
47.460812 180.0
47.527954 164.0
47.702438 188.0
47.714497 192.0
47.71994 148.0
47.763252 232.0
47.806969 212.0
47.849636 32.0
47.866161 168.0
47.886818 172.0
47.915745 56.0
47.962597 164.0
48.175098 116.0
48.347931 180.0
48.372845 156.0
48.409473 176.0
48.426846 160.0
48.485035 132.0
48.523846 200.0
48.558514 220.0
48.633434 128.0
48.744534 320.0
48.811256 152.0
48.837681 128.0
48.862637 136.0
48.884979 64.0
48.958763 52.0
49.0103 172.0
49.059082 196.0
49.123226 172.0
49.194393 160.0
49.206959 88.0
49.273994 136.0
49.294956 196.0
49.356457 36.0
49.694012 52.0
49.779633 168.0
49.847061 48.0
49.983456 184.0
50.080593 136.0
50.151039 188.0
50.225769 232.0
50.273739 220.0
50.586094 148.0
50.726334 200.0
50.778755 144.0
50.841217 84.0
50.855408 172.0
50.902256 164.0
50.915039 112.0
50.940605 128.0
50.986069 160.0
50.99744 140.0
51.097691 124.0
51.192345 156.0
51.206585 52.0
51.377632 208.0
51.596134 152.0
51.607571 200.0
51.636173 132.0
52.081913 124.0
52.133636 140.0
52.153755 124.0
52.166695 124.0
52.288986 176.0
52.342216 156.0
52.388302 200.0
52.418667 212.0
52.565643 44.0
52.639259 96.0
52.688366 216.0
52.704262 84.0
52.893711 192.0
52.903843 144.0
52.96756 196.0
52.982044 100.0
53.045006 304.0
53.076252 188.0
53.208282 156.0
53.222801 44.0
53.293972 216.0
53.462646 196.0
53.544174 144.0
53.61993 40.0
53.662849 108.0
53.679699 120.0
53.698658 128.0
53.746799 108.0
53.796703 184.0
54.024387 140.0
54.185425 144.0
54.220589 124.0
54.23378 144.0
54.295357 156.0
54.319511 160.0
54.505276 72.0
54.619946 200.0
54.706764 144.0
54.759773 176.0
54.892406 96.0
54.910103 216.0
54.942554 168.0
55.004532 84.0
55.054367 244.0
55.078362 212.0
55.187717 148.0
55.249836 124.0
55.261669 248.0
55.289783 216.0
55.363804 244.0
55.381474 172.0
55.403797 192.0
55.439358 168.0
55.523857 168.0
55.556366 240.0
55.576786 176.0
55.617329 132.0
55.823029 260.0
55.838856 240.0
55.863995 164.0
55.93047 100.0
55.957748 140.0
55.990509 108.0
56.01136 224.0
56.056053 136.0
56.142517 156.0
56.232029 148.0
56.379879 116.0
56.469582 224.0
56.526428 116.0
56.536903 156.0
56.557858 108.0
56.799095 168.0
56.863613 220.0
56.916153 308.0
57.067905 136.0
57.185242 156.0
57.198788 156.0
57.274075 64.0
57.352425 168.0
57.435356 136.0
57.624054 132.0
57.678455 212.0
57.754059 204.0
57.826683 224.0
57.838791 140.0
57.855442 36.0
57.944794 132.0
58.098297 220.0
58.129772 212.0
58.160126 160.0
58.173786 52.0
58.1987 276.0
58.243637 112.0
58.303623 164.0
58.342411 64.0
58.371296 136.0
58.416924 32.0
58.474354 204.0
58.515842 176.0
58.599609 216.0
58.630085 132.0
58.643799 124.0
58.675812 184.0
58.855846 180.0
58.955135 80.0
59.069805 88.0
59.098873 172.0
59.256569 120.0
59.267296 164.0
59.474327 124.0
59.48814 160.0
59.611008 132.0
59.692478 84.0
59.738464 160.0
59.864826 164.0
59.944927 144.0
60.018917 224.0
60.159313 144.0
60.194824 172.0
60.210266 80.0
60.250423 140.0
60.281326 184.0
60.304508 144.0
60.349339 108.0
60.484772 176.0
60.671364 80.0
60.730286 96.0
60.747349 124.0
60.829594 168.0
60.84494 176.0
60.922764 216.0
61.040886 104.0
61.056435 140.0
61.120213 148.0
61.177799 204.0
61.215168 148.0
61.268124 224.0
61.342922 128.0
61.360069 184.0
61.383457 188.0
61.430248 124.0
61.558228 136.0
61.592587 192.0
61.631641 176.0
61.676964 124.0
61.747318 168.0
61.854965 140.0
61.982941 256.0
62.036987 60.0
62.108486 200.0
62.211113 128.0
62.30534 116.0
62.32925 256.0
62.366623 180.0
62.470402 100.0
62.527046 72.0
62.550655 60.0
62.599461 204.0
62.62151 188.0
62.766491 168.0
62.995335 156.0
63.075428 140.0
63.121773 232.0
63.159729 152.0
63.249916 132.0
63.260998 180.0
63.337006 144.0
63.457443 184.0
63.593864 228.0
63.633549 120.0
63.649426 124.0
63.707348 200.0
63.771751 152.0
64.12986 144.0
64.168121 156.0
64.292534 212.0
64.306389 188.0
64.381935 124.0
64.415474 192.0
64.703323 208.0
64.887177 168.0
64.959724 176.0
65.056007 184.0
65.081696 176.0
65.144333 140.0
65.296173 232.0
65.459564 196.0
65.5401 216.0
65.602959 132.0
65.614243 160.0
65.625526 224.0
65.669067 128.0
65.744888 180.0
65.807846 248.0
65.930603 196.0
65.94838 168.0
65.977478 148.0
66.080986 128.0
66.278511 204.0
66.741104 196.0
66.76387 220.0
66.840324 144.0
66.851715 180.0
66.928223 168.0
67.047134 100.0
67.066696 124.0
67.128647 176.0
67.252632 252.0
67.272224 232.0
67.81691 140.0
67.905449 220.0
67.920212 72.0
68.04493 200.0
68.066269 180.0
68.258522 112.0
68.330894 72.0
68.65538 140.0
68.670227 224.0
68.694969 64.0
68.744461 152.0
68.759315 116.0
68.77417 116.0
68.787376 188.0
68.817093 192.0
69.035202 132.0
69.114601 120.0
69.126183 48.0
69.141075 184.0
69.179146 176.0
69.29673 176.0
69.565384 160.0
69.58033 236.0
69.603569 108.0
69.635124 164.0
69.706558 196.0
69.821266 156.0
69.836227 152.0
69.912758 196.0
69.927742 216.0
69.939392 172.0
69.98101 204.0
70.02597 180.0
70.039291 216.0
70.104271 172.0
70.261002 164.0
70.341095 160.0
70.379494 120.0
70.404388 172.0
70.583054 184.0
70.656937 176.0
70.770744 176.0
70.83606 112.0
70.887993 140.0
71.064056 208.0
71.262169 176.0
71.305199 224.0
71.344521 180.0
71.369736 168.0
71.495903 180.0
71.549835 188.0
71.574333 316.0
71.704727 216.0
71.88752 204.0
71.929054 52.0
72.006721 184.0
72.216293 124.0
72.478691 144.0
72.495636 124.0
72.593956 52.0
72.634659 184.0
72.80098 184.0
72.965797 200.0
73.210815 128.0
73.258507 160.0
73.270432 136.0
73.365868 140.0
73.556923 228.0
73.591064 144.0
73.629272 172.0
73.649124 200.0
73.744804 168.0
73.801216 44.0
73.986389 52.0
74.073326 192.0
74.116158 212.0
74.232712 180.0
74.263588 164.0
74.32534 236.0
74.349365 160.0
74.476418 200.0
74.497025 184.0
74.531387 132.0
74.680946 232.0
74.840988 192.0
74.95295 56.0
75.054642 196.0
75.140884 136.0
75.224213 208.0
75.411987 104.0
75.537102 180.0
75.713921 208.0
75.763252 196.0
75.808296 208.0
75.950462 56.0
75.97995 212.0
75.992531 156.0
76.195229 208.0
76.287331 104.0
76.378052 116.0
76.405586 164.0
76.652824 168.0
76.671989 68.0
76.694649 120.0
76.778229 136.0
77.211441 176.0
77.260414 168.0
77.430199 108.0
77.521294 52.0
77.533562 152.0
77.577385 76.0
77.654533 140.0
77.700142 140.0
77.891487 148.0
78.049652 212.0
78.090096 184.0
78.148148 148.0
78.354134 204.0
78.429909 168.0
78.446922 92.0
78.532173 192.0
78.603775 116.0
78.67157 96.0
78.694519 192.0
78.777527 152.0
78.96312 188.0
78.984344 124.0
79.005569 196.0
79.048035 112.0
79.210915 184.0
79.278236 236.0
79.329636 212.0
79.361549 232.0
79.551376 72.0
79.612434 164.0
79.647263 156.0
79.739655 92.0
79.875397 144.0
80.102623 144.0
80.195274 164.0
80.282639 184.0
80.487846 128.0
80.580719 232.0
80.627182 208.0
80.702255 212.0
80.786308 180.0
80.841774 172.0
80.945602 168.0
81.094292 168.0
81.158829 88.0
81.487274 148.0
81.875809 204.0
81.965874 176.0
82.307571 156.0
82.469376 208.0
82.507332 156.0
82.70813 56.0
82.762436 88.0
82.814949 244.0
82.927391 132.0
82.961723 152.0
83.027 196.0
83.052391 144.0
83.183037 116.0
83.230232 92.0
83.306511 136.0
83.321045 116.0
83.350121 136.0
83.426453 212.0
83.515549 164.0
83.553749 172.0
83.693893 168.0
83.748978 208.0
83.795883 140.0
83.850555 180.0
83.927116 56.0
83.979996 200.0
84.051147 184.0
84.149704 124.0
84.222755 132.0
84.275726 200.0
84.51342 212.0
84.535378 156.0
84.621407 100.0
84.806419 112.0
84.844917 176.0
84.863251 144.0
84.885254 192.0
84.997147 168.0
85.025467 140.0
85.092583 204.0
85.116455 68.0
85.199104 168.0
85.217476 136.0
85.311203 148.0
85.335106 100.0
85.489609 220.0
85.502495 208.0
85.520897 140.0
85.579803 100.0
85.646103 148.0
85.67926 220.0
85.736252 236.0
85.789825 208.0
85.925591 136.0
85.99826 160.0
86.206955 200.0
86.249458 196.0
86.364098 168.0
86.388145 176.0
86.420357 164.0
86.573227 252.0
86.602859 208.0
86.780754 160.0
87.166832 164.0
87.365768 72.0
87.392563 208.0
87.43647 120.0
87.464394 216.0
87.719582 36.0
87.829597 164.0
87.851982 184.0
87.890404 208.0
88.03302 72.0
88.165657 208.0
88.380699 124.0
88.421867 196.0
88.616608 56.0
88.719688 220.0
88.800316 132.0
88.95417 136.0
88.978577 196.0
89.019882 152.0
89.064957 168.0
89.085625 168.0
89.194611 128.0
89.251007 120.0
89.313065 156.0
89.495605 176.0
89.681664 120.0
89.705688 180.0
89.725464 188.0
89.740547 172.0
89.819748 208.0
89.851814 56.0
89.912201 152.0
90.082367 372.0
90.249962 124.0
90.400627 244.0
90.443283 112.0
90.477364 116.0
90.515228 152.0
90.574577 260.0
90.661087 196.0
90.826035 204.0
90.920898 192.0
90.937973 144.0
91.012321 172.0
91.055885 784.0
91.097473 104.0
91.138268 220.0
91.196281 124.0
91.344589 188.0
91.384537 160.0
91.403564 60.0
91.416885 188.0
91.517769 124.0
91.750206 264.0
91.796684 212.0
92.05806 236.0
92.07267 176.0
92.17009 144.0
92.254189 196.0
92.455017 156.0
92.634995 160.0
92.746132 152.0
92.790215 180.0
92.903366 108.0
93.010826 136.0
93.069794 920.0
93.114502 164.0
93.13755 188.0
93.168289 164.0
93.214401 156.0
93.231689 224.0
93.3778 192.0
93.728157 196.0
93.994255 224.0
94.070786 220.0
94.310532 136.0
94.345764 144.0
94.372826 72.0
94.661133 140.0
94.785103 140.0
94.818047 88.0
94.850998 132.0
94.911095 196.0
95.052757 216.0
95.086708 1172.0
95.130325 48.0
95.143913 148.0
95.192451 216.0
95.355637 176.0
95.380905 152.0
95.400345 132.0
95.517014 112.0
95.592888 52.0
95.63765 128.0
95.715523 228.0
95.959869 108.0
96.035126 128.0
96.072189 148.0
96.092384 204.0
96.130722 124.0
96.206841 276.0
96.248756 204.0
96.306419 164.0
96.419739 252.0
96.507706 212.0
96.605492 124.0
96.619186 120.0
96.660271 76.0
96.701363 124.0
96.717026 156.0
96.79969 160.0
96.969681 168.0
96.999084 216.0
97.012802 100.0
97.028198 80.0
97.066055 12148.0
97.09449 224.0
97.108978 164.0
97.130463 40.0
97.164597 136.0
97.19651 192.0
97.226601 68.0
97.403297 156.0
97.466164 72.0
97.682426 88.0
97.704063 48.0
97.837883 32.0
97.855606 140.0
97.940277 68.0
97.999992 180.0
98.068802 1048.0
98.291191 188.0
98.39975 172.0
98.478737 180.0
98.579491 44.0
98.599251 204.0
98.789062 132.0
98.981041 160.0
99.012726 204.0
99.044525 500.0
99.078094 108.0
99.105354 100.0
99.197998 144.0
99.23069 152.0
99.484627 52.0
99.522346 120.0
99.634377 108.0
99.790573 152.0
99.945557 156.0
100.047211 160.0
100.063141 140.0
100.106941 172.0
100.204544 168.0
100.326111 232.0
100.40786 64.0
100.513588 188.0
100.547508 52.0
100.569466 236.0
100.701241 244.0
100.720398 196.0
100.757172 104.0
100.9366 160.0
101.015045 88.0
101.101082 172.0
101.193153 156.0
101.403488 184.0
101.431549 168.0
101.720398 76.0
101.73645 128.0
101.873009 132.0
101.939308 200.0
102.049858 212.0
102.196686 224.0
102.21479 80.0
102.629723 148.0
102.645851 156.0
102.702324 140.0
102.807228 232.0
102.823372 176.0
102.858879 172.0
102.906136 168.0
102.934402 216.0
102.984894 140.0
103.054543 936.0
103.079842 156.0
103.403404 212.0
103.60994 124.0
103.731529 168.0
103.877525 256.0
103.9039 148.0
103.976944 152.0
104.025658 164.0
104.062172 140.0
104.086571 204.0
104.182022 240.0
104.299881 116.0
104.623314 104.0
104.698654 120.0
104.829025 144.0
104.9758 140.0
105.032906 176.0
105.070984 9888.0
105.108383 28.0
105.132874 44.0
105.198189 200.0
105.253311 76.0
105.298233 164.0
105.484169 200.0
105.633438 120.0
105.751266 152.0
105.985565 228.0
106.074226 860.0
106.114693 72.0
106.252098 300.0
106.321869 112.0
106.371124 96.0
106.465569 44.0
106.543617 40.0
106.570328 148.0
106.685417 148.0
106.75676 200.0
106.825249 172.0
106.851997 196.0
107.026031 172.0
107.051811 1000.0
107.086258 3228.0
107.187248 232.0
107.247368 148.0
107.276222 160.0
107.323639 60.0
107.402008 196.0
107.42263 104.0
107.631081 148.0
107.765335 168.0
107.897606 164.0
108.021683 92.0
108.054688 280.0
108.089211 632.0
108.162384 76.0
108.31147 152.0
108.361191 164.0
108.630692 72.0
108.655586 220.0
108.736511 72.0
109.021019 92.0
109.066391 1808.0
109.102112 1492.0
109.174858 148.0
109.206055 44.0
109.276779 160.0
109.297585 144.0
109.493263 184.0
109.595329 172.0
109.668266 124.0
109.703705 40.0
109.764076 184.0
109.826729 152.0
109.906006 204.0
109.983215 84.0
110.024963 60.0
110.06881 224.0
110.10701 316.0
110.17115 156.0
110.687744 96.0
110.792465 92.0
110.907715 176.0
111.080101 408.0
111.188759 152.0
111.211845 168.0
111.266418 144.0
111.335709 48.0
111.394524 136.0
111.484863 124.0
111.50798 216.0
111.59417 52.0
111.657249 168.0
112.081329 228.0
112.145699 320.0
112.254532 204.0
112.272194 208.0
112.312263 164.0
112.358673 148.0
112.388206 196.0
112.535957 160.0
112.808823 172.0
113.049591 152.0
113.098267 164.0
113.295197 116.0
113.339691 164.0
113.447777 88.0
113.532585 80.0
113.634399 164.0
113.942245 188.0
113.960022 76.0
113.991112 132.0
114.105888 52.0
114.299438 152.0
114.355331 212.0
114.38031 212.0
114.49102 88.0
114.563438 256.0
114.669975 160.0
114.758751 124.0
114.916054 160.0
114.953606 212.0
114.994156 80.0
115.055069 2476.0
115.103027 160.0
115.291161 168.0
115.684555 132.0
115.733795 44.0
115.868729 208.0
115.952293 172.0
115.973724 172.0
116.018738 100.0
116.061691 1416.0
116.125954 52.0
116.140968 52.0
116.402168 180.0
116.45433 128.0
116.505882 80.0
116.675659 76.0
116.712204 192.0
116.744461 144.0
116.986618 160.0
117.017731 144.0
117.071198 3376.0
117.127556 188.0
117.235275 208.0
117.254677 176.0
117.302094 252.0
117.366768 220.0
117.418518 116.0
117.491859 124.0
117.5429 84.0
117.612701 192.0
117.733604 144.0
117.979919 196.0
118.075867 480.0
118.137787 160.0
118.414841 188.0
118.759453 132.0
118.844055 172.0
118.878769 172.0
118.995438 240.0
119.022034 212.0
119.043991 208.0
119.086479 7292.0
119.121933 120.0
119.165382 116.0
119.284912 52.0
119.395798 84.0
119.535019 116.0
119.620689 132.0
119.672142 116.0
119.720047 188.0
119.785393 212.0
119.8246 44.0
119.955353 224.0
119.974976 36.0
120.056396 308.0
120.09005 800.0
120.21167 180.0
120.232353 180.0
120.391716 140.0
120.420105 148.0
120.435394 148.0
120.743561 68.0
120.958122 180.0
121.001762 156.0
121.06572 3188.0
121.102127 2044.0
121.15287 48.0
121.262428 140.0
121.284348 120.0
121.486084 172.0
121.53215 52.0
121.624962 124.0
121.690178 164.0
121.709938 116.0
121.79998 148.0
122.019157 244.0
122.070045 308.0
122.10704 448.0
122.202271 152.0
122.259483 196.0
122.459824 212.0
122.631676 148.0
122.74852 56.0
122.801445 76.0
122.929398 176.0
123.022095 40.0
123.081474 5508.0
123.119682 220.0
123.238525 56.0
123.260094 168.0
123.355659 116.0
123.406502 40.0
123.456779 152.0
123.506012 164.0
123.561317 188.0
123.744614 224.0
123.800369 100.0
123.838013 72.0
123.968727 180.0
124.08683 348.0
124.112808 128.0
124.141632 232.0
124.181549 168.0
124.205948 32.0
124.330193 176.0
124.452278 184.0
124.534447 112.0
124.694412 168.0
124.711479 212.0
124.743309 104.0
124.805557 52.0
124.850029 168.0
125.036903 200.0
125.065834 212.0
125.096428 316.0
125.148201 48.0
125.21946 212.0
125.428902 152.0
125.448959 168.0
125.675453 156.0
125.881798 160.0
126.000359 144.0
126.062737 184.0
126.100723 136.0
126.210266 212.0
126.257225 144.0
126.433952 92.0
126.498863 76.0
126.709366 108.0
126.78331 236.0
126.911079 176.0
127.051559 220.0
127.07032 36.0
127.106216 200.0
127.157829 340.0
127.173897 128.0
127.270073 204.0
127.303757 76.0
127.416061 156.0
127.465485 156.0
127.541901 260.0
127.735275 40.0
127.802765 152.0
127.937866 140.0
128.039124 132.0
128.0616 1196.0
128.181046 64.0
128.282455 76.0
128.40303 136.0
128.46286 64.0
128.48317 56.0
128.546341 184.0
128.663712 156.0
128.948318 160.0
129.070602 1260.0
129.102051 184.0
129.129181 168.0
129.167633 180.0
129.221924 64.0
129.251343 100.0
129.289078 184.0
129.483948 180.0
129.628693 212.0
129.894745 176.0
130.044495 116.0
130.076324 1588.0
130.126221 152.0
130.189804 176.0
130.273834 68.0
130.376083 144.0
130.426086 264.0
130.469269 112.0
130.510193 104.0
130.535202 196.0
130.580688 184.0
130.790009 180.0
130.86969 148.0
131.050858 160.0
131.059143 156.0
131.086456 7644.0
131.112488 176.0
131.133926 36.0
131.152161 172.0
131.168121 84.0
131.186356 136.0
131.22522 172.0
131.288956 52.0
131.31633 160.0
131.339127 84.0
131.38475 236.0
131.400726 48.0
131.505692 128.0
131.563828 152.0
131.94426 176.0
132.056839 432.0
132.091446 864.0
132.237061 220.0
132.321671 108.0
132.649338 144.0
132.734161 136.0
132.7892 116.0
132.824188 64.0
132.981934 52.0
133.065613 528.0
133.101532 6176.0
133.149857 224.0
133.170197 36.0
133.188568 44.0
133.20694 172.0
133.344803 96.0
133.420654 56.0
133.528732 180.0
133.583923 36.0
133.680557 88.0
133.777222 136.0
133.892349 96.0
133.947632 40.0
133.972061 116.0
134.032867 120.0
134.071243 564.0
134.105728 468.0
134.180374 76.0
134.291321 144.0
134.367188 48.0
134.496414 172.0
134.653412 196.0
134.727325 176.0
134.817429 148.0
134.87291 52.0
134.907578 80.0
134.93956 192.0
134.979248 56.0
135.038391 188.0
135.054901 168.0
135.081223 10508.0
135.117981 2228.0
135.18512 172.0
135.245285 148.0
135.328629 64.0
135.349472 76.0
135.711334 68.0
135.778168 112.0
135.852386 72.0
135.959122 52.0
135.991608 68.0
136.028748 228.0
136.084045 1096.0
136.119339 220.0
136.14949 140.0
136.248322 116.0
136.367874 52.0
136.40506 196.0
136.430634 56.0
136.458527 152.0
136.600388 128.0
136.656219 64.0
136.767914 184.0
136.94487 112.0
137.058548 416.0
137.097168 15308.0
137.129166 232.0
137.145172 160.0
137.180206 92.0
137.205856 68.0
137.23616 72.0
137.492752 52.0
137.61647 168.0
137.803314 72.0
137.857056 124.0
137.873413 168.0
138.062775 124.0
138.100769 1412.0
138.224182 136.0
138.256943 40.0
138.328201 164.0
138.409088 160.0
138.441879 88.0
138.734756 160.0
139.074188 152.0
139.090179 116.0
139.10759 184.0
139.288544 204.0
139.316727 92.0
139.619934 236.0
139.782257 172.0
139.869339 180.0
139.982086 152.0
140.184219 188.0
140.425385 164.0
140.529175 192.0
140.932922 128.0
140.975449 156.0
141.071716 1936.0
141.136185 44.0
141.483292 152.0
141.536057 208.0
141.611847 192.0
141.708969 176.0
142.045593 120.0
142.077347 2192.0
142.299515 176.0
142.43013 188.0
142.598816 200.0
142.646362 196.0
143.029327 56.0
143.086792 4700.0
143.116852 156.0
143.215042 184.0
143.353226 192.0
143.658401 140.0
143.689407 36.0
143.978226 132.0
144.06456 196.0
144.093979 1020.0
144.276901 136.0
144.365372 44.0
144.386887 148.0
144.62854 64.0
144.784149 192.0
144.88475 196.0
144.968613 144.0
144.99498 116.0
145.066498 728.0
145.101974 7064.0
145.179565 228.0
145.220337 40.0
145.270706 112.0
145.33548 180.0
145.390671 52.0
145.417267 196.0
145.47229 160.0
145.537109 36.0
145.606735 64.0
145.856613 128.0
145.907089 76.0
146.073761 520.0
146.106171 668.0
146.166855 40.0
146.313675 52.0
146.378677 92.0
146.422028 48.0
146.450928 132.0
146.655716 156.0
146.728043 132.0
146.978867 108.0
147.000595 72.0
147.080231 1912.0
147.117584 4648.0
147.174225 120.0
147.23233 44.0
147.314453 72.0
147.423187 64.0
147.452179 92.0
147.529526 76.0
147.560959 76.0
147.68428 36.0
147.722977 116.0
147.74234 220.0
147.851212 124.0
148.088409 228.0
148.121078 796.0
148.151459 116.0
148.209595 116.0
148.464127 284.0
148.558716 108.0
148.653336 32.0
148.697021 68.0
148.900955 64.0
148.959244 96.0
149.063721 144.0
149.097275 2696.0
149.132782 724.0
149.187668 252.0
149.236298 192.0
149.314392 168.0
149.355453 56.0
149.491684 68.0
149.54361 48.0
149.569565 136.0
149.608521 112.0
149.750961 128.0
149.815506 44.0
149.842316 48.0
150.032394 140.0
150.101593 356.0
150.136078 352.0
150.547226 148.0
150.67424 108.0
150.957764 48.0
151.018906 180.0
151.060486 160.0
151.110748 700.0
151.146103 148.0
151.231766 184.0
151.263367 272.0
151.687347 56.0
151.746185 76.0
151.861435 184.0
151.903137 72.0
152.062622 100.0
152.113754 264.0
152.310608 120.0
152.364639 172.0
152.450638 128.0
152.708771 112.0
152.824402 124.0
152.912979 152.0
153.071533 384.0
153.129639 164.0
153.173965 148.0
153.218307 76.0
153.440109 68.0
153.528885 188.0
153.654678 144.0
153.686752 72.0
153.970627 116.0
154.078857 552.0
154.326462 204.0
154.417953 184.0
154.44516 92.0
154.638138 216.0
154.73468 112.0
155.085297 1072.0
155.250061 104.0
155.766296 72.0
155.950165 168.0
156.019775 64.0
156.09108 2208.0
156.482513 40.0
156.896072 96.0
156.940948 48.0
157.064789 312.0
157.101715 4068.0
157.162933 136.0
157.190369 84.0
157.315582 72.0
157.412537 96.0
157.644852 212.0
157.719818 52.0
157.767319 176.0
157.87233 92.0
157.912338 108.0
158.019913 72.0
158.073715 528.0
158.106979 1324.0
158.152542 56.0
158.217621 88.0
158.342819 84.0
158.80397 164.0
158.943115 180.0
159.078506 764.0
159.117126 5596.0
159.175385 208.0
159.215561 92.0
159.363754 44.0
159.438721 48.0
159.518066 120.0
159.677979 156.0
159.745895 92.0
160.08873 348.0
160.120041 1576.0
160.173813 300.0
160.314896 72.0
160.478745 48.0
160.551865 36.0
160.839478 104.0
160.970764 140.0
161.01622 184.0
161.059158 148.0
161.097565 1980.0
161.132935 2676.0
161.190811 72.0
161.269989 172.0
161.38768 72.0
161.450897 148.0
161.516647 264.0
161.54953 116.0
161.590012 56.0
161.844162 188.0
161.952011 48.0
162.100052 768.0
162.135269 280.0
162.31694 168.0
162.347366 48.0
162.393021 272.0
162.679733 204.0
162.740662 152.0
162.877808 212.0
162.931152 40.0
162.992126 156.0
163.017532 80.0
163.067719 208.0
163.111618 1516.0
163.150513 440.0
163.175125 68.0
163.340424 128.0
163.653442 116.0
163.72728 40.0
163.928528 116.0
164.035568 44.0
164.108917 492.0
164.129898 124.0
164.14946 164.0
164.601944 220.0
164.867615 124.0
165.066299 152.0
165.115601 140.0
165.161072 200.0
165.402145 124.0
165.606995 152.0
165.786316 84.0
165.867126 160.0
165.955505 140.0
166.075714 404.0
166.117065 208.0
166.22789 124.0
166.348007 172.0
166.73555 176.0
167.04953 208.0
167.084381 400.0
167.255386 188.0
167.605621 136.0
168.015564 164.0
168.049103 76.0
168.092117 556.0
168.175552 44.0
168.312363 152.0
168.351105 192.0
168.436325 164.0
168.658539 136.0
169.100861 1768.0
169.4478 32.0
169.904083 152.0
169.945602 188.0
170.078964 180.0
170.107147 764.0
170.283066 120.0
170.407745 220.0
170.425934 36.0
170.654648 148.0
170.745667 120.0
171.019089 88.0
171.084579 276.0
171.118515 5316.0
171.189072 104.0
171.333923 36.0
171.365189 140.0
171.396454 68.0
171.427719 64.0
171.500687 116.0
171.543701 88.0
171.675369 56.0
171.894485 164.0
171.980606 192.0
172.041565 320.0
172.090302 504.0
172.122192 892.0
172.293961 44.0
172.680817 148.0
172.819458 52.0
172.843002 48.0
173.04454 64.0
173.096481 1596.0
173.133682 3908.0
173.220001 88.0
173.306458 60.0
173.489914 64.0
173.508255 184.0
173.91748 52.0
174.102859 600.0
174.137634 756.0
174.684738 36.0
174.968948 152.0
175.111404 2820.0
175.149994 860.0
175.27095 120.0
175.350891 56.0
175.714767 56.0
176.119415 388.0
176.15564 312.0
176.242813 120.0
176.311523 72.0
176.586472 144.0
176.628784 208.0
177.09198 120.0
177.126709 3260.0
177.162308 256.0
177.245636 112.0
177.534576 52.0
178.078613 204.0
178.130936 1072.0
178.18222 76.0
178.206131 156.0
178.318268 100.0
178.418747 112.0
179.030716 60.0
179.082855 208.0
179.115082 148.0
179.143661 184.0
179.1772 148.0
179.417053 168.0
179.454376 152.0
179.966644 180.0
180.093353 520.0
180.145584 164.0
181.101746 1604.0
181.269272 224.0
181.430084 40.0
182.107422 632.0
182.334641 156.0
182.404526 136.0
182.880615 180.0
182.947906 56.0
183.023285 124.0
183.082932 196.0
183.11763 3440.0
183.268387 44.0
183.424698 44.0
183.567581 132.0
183.637756 188.0
183.842743 60.0
183.983093 168.0
184.091721 224.0
184.122162 680.0
184.536926 72.0
184.585587 56.0
184.62886 184.0
184.712708 168.0
184.9021 60.0
184.986008 180.0
185.056396 156.0
185.096207 812.0
185.13237 2112.0
185.259506 80.0
185.31369 64.0
185.376007 64.0
185.424789 160.0
185.497971 52.0
185.516953 44.0
185.56575 40.0
185.586594 192.0
185.696701 68.0
185.994354 52.0
186.106781 200.0
186.137711 528.0
186.556641 120.0
186.583832 40.0
186.997284 132.0
187.029953 36.0
187.051727 80.0
187.074295 180.0
187.111984 1584.0
187.14682 1276.0
187.334915 72.0
187.367615 56.0
187.40303 164.0
187.452072 100.0
187.561096 44.0
187.629242 64.0
187.981079 172.0
188.119186 1452.0
188.147827 428.0
188.248596 68.0
188.396088 52.0
188.498825 104.0
188.551834 48.0
188.70491 84.0
189.082382 108.0
189.127167 4128.0
189.164276 576.0
189.20282 100.0
189.252106 64.0
189.868652 96.0
189.915283 48.0
190.044205 56.0
190.083527 132.0
190.131973 648.0
190.162476 280.0
190.31044 60.0
190.439514 188.0
190.618073 148.0
191.14238 984.0
191.217575 40.0
191.302902 40.0
191.341446 60.0
191.490143 68.0
191.754623 128.0
191.873154 76.0
192.092834 236.0
192.142487 188.0
192.320023 40.0
192.485672 104.0
192.656906 168.0
193.104446 524.0
193.15448 132.0
193.395203 72.0
193.46994 104.0
193.644379 92.0
194.108231 772.0
194.132141 172.0
194.567749 128.0
194.62883 92.0
195.084457 332.0
195.116287 948.0
195.306915 184.0
195.658875 108.0
195.852448 96.0
196.083694 92.0
196.120468 932.0
196.591263 188.0
196.711273 172.0
197.093674 316.0
197.132126 2256.0
197.228027 40.0
197.521606 72.0
197.591553 188.0
198.09845 408.0
198.137787 792.0
198.187897 80.0
198.900208 156.0
199.082703 188.0
199.108887 652.0
199.146774 1444.0
199.256851 48.0
199.349579 128.0
199.678482 124.0
199.911987 160.0
200.083679 140.0
200.106201 100.0
200.153992 168.0
200.286423 48.0
200.306137 164.0
200.503372 140.0
200.723251 40.0
200.917862 144.0
201.125626 1404.0
201.164795 1300.0
201.281952 40.0
201.313004 44.0
201.748123 128.0
201.852722 164.0
201.883835 208.0
201.920593 100.0
202.030914 136.0
202.07901 116.0
202.13559 184.0
202.164536 160.0
202.87764 152.0
202.905991 144.0
203.067612 60.0
203.142273 1888.0
203.171753 264.0
204.115509 224.0
204.142975 412.0
204.197983 212.0
204.630508 44.0
204.812759 184.0
204.966599 236.0
204.995087 80.0
205.116608 156.0
205.15741 260.0
205.571106 56.0
205.636749 92.0
206.109039 308.0
206.17128 144.0
207.115509 976.0
207.192276 72.0
207.229523 84.0
208.125916 236.0
208.357025 52.0
208.569672 184.0
209.101074 368.0
209.131516 1732.0
209.185226 80.0
209.340698 196.0
209.490463 104.0
209.914139 68.0
209.934326 148.0
210.101608 120.0
210.14238 520.0
210.182404 72.0
210.222794 60.0
210.280518 256.0
210.35556 80.0
210.944839 88.0
211.110596 392.0
211.147369 2216.0
211.752106 60.0
212.11441 224.0
212.156693 468.0
212.386841 96.0
212.430344 148.0
212.453552 68.0
213.005096 120.0
213.086441 180.0
213.125153 764.0
213.16272 908.0
213.29567 64.0
213.512604 52.0
213.81337 56.0
214.046249 116.0
214.104431 176.0
214.132782 268.0
214.16864 164.0
214.26178 52.0
214.923615 36.0
214.976135 60.0
215.112335 156.0
215.143692 836.0
215.181351 168.0
215.306015 84.0
215.452057 60.0
215.481262 92.0
216.09816 308.0
216.147675 496.0
216.186966 80.0
216.241547 68.0
217.16098 608.0
218.051086 88.0
218.645157 124.0
218.748169 168.0
219.116287 188.0
219.142807 124.0
219.178162 32.0
219.708847 100.0
220.123199 328.0
221.131409 376.0
221.793579 100.0
221.817291 160.0
222.141373 320.0
222.232483 28.0
222.87381 108.0
223.107285 164.0
223.148895 984.0
224.105865 136.0
224.153076 464.0
224.227783 100.0
224.567352 80.0
224.612396 44.0
224.827209 56.0
224.979431 112.0
225.009293 60.0
225.128418 532.0
225.163254 1820.0
225.313904 164.0
225.738327 76.0
226.13472 296.0
226.165298 868.0
226.441589 108.0
226.510483 60.0
226.825104 36.0
226.894058 156.0
227.037979 40.0
227.096909 148.0
227.142899 456.0
227.175842 1352.0
227.857407 156.0
228.067764 140.0
228.149353 444.0
228.185684 268.0
228.287231 56.0
228.500778 56.0
229.160233 640.0
229.814377 128.0
229.956207 60.0
230.168732 160.0
230.400085 76.0
230.687164 40.0
230.708328 168.0
230.965363 124.0
231.134506 244.0
231.17186 516.0
231.861542 64.0
232.094955 208.0
232.143692 280.0
232.173157 304.0
233.134338 460.0
233.282013 120.0
233.741257 48.0
233.777771 96.0
234.164398 152.0
234.667191 104.0
235.151627 456.0
235.326218 56.0
235.411713 36.0
235.747726 184.0
236.153305 332.0
237.131012 116.0
237.161209 764.0
237.244415 44.0
238.170654 288.0
238.220261 88.0
238.779663 180.0
239.143692 436.0
239.181 244.0
239.27507 96.0
239.943604 140.0
240.145691 328.0
240.181564 300.0
240.730392 64.0
241.158875 780.0
241.1866 248.0
241.224731 72.0
241.434967 156.0
241.905258 108.0
241.988846 56.0
242.118896 120.0
242.161316 300.0
242.193314 276.0
242.673553 84.0
243.067474 116.0
243.095398 180.0
243.131897 180.0
243.174622 1184.0
243.209991 104.0
243.318878 48.0
243.464813 120.0
243.843826 76.0
244.039658 32.0
244.176529 304.0
244.562286 52.0
244.764633 236.0
245.181259 172.0
245.746445 76.0
246.139725 148.0
246.195938 176.0
246.361465 120.0
247.042953 128.0
247.151169 408.0
247.199387 76.0
248.132767 116.0
248.159134 156.0
249.166763 652.0
250.130707 160.0
250.168076 248.0
250.360535 28.0
251.122589 176.0
251.181473 860.0
251.71019 28.0
251.883896 164.0
252.029205 144.0
252.184616 460.0
252.218826 176.0
253.159653 1120.0
253.193893 416.0
254.164413 452.0
254.433075 64.0
254.564438 32.0
255.147873 120.0
255.17366 216.0
255.208359 148.0
255.222229 144.0
255.231476 204.0
256.17395 308.0
257.154114 1836.0
257.189484 444.0
257.219818 124.0
257.231964 160.0
257.79657 84.0
258.160889 184.0
258.188507 476.0
259.163818 172.0
259.204803 184.0
259.528259 176.0
260.063995 124.0
260.146393 184.0
260.17453 168.0
260.198792 164.0
260.658112 152.0
261.153442 140.0
261.178894 320.0
262.015869 124.0
262.174591 336.0
263.154327 60.0
263.183411 308.0
263.958862 96.0
264.187073 228.0
264.949249 148.0
265.15509 176.0
265.185547 660.0
265.222107 156.0
265.516479 160.0
265.798706 164.0
266.196045 500.0
266.838043 112.0
266.997375 140.0
267.171143 436.0
267.21048 1548.0
267.27713 136.0
267.329193 48.0
267.693787 36.0
268.184631 216.0
268.21344 428.0
268.280243 88.0
269.189178 2040.0
269.249329 40.0
269.34729 108.0
269.435486 60.0
270.151428 112.0
270.191437 292.0
271.166107 344.0
271.199249 172.0
272.160431 84.0
273.011475 48.0
273.13974 136.0
273.468781 68.0
275.168427 404.0
275.196594 168.0
276.165924 160.0
276.191528 112.0
278.44458 136.0
278.690399 124.0
279.181305 176.0
279.385254 172.0
280.184204 204.0
280.730835 140.0
281.189819 556.0
281.231262 124.0
282.202026 484.0
283.206085 564.0
284.1828 144.0
284.215118 136.0
284.491547 172.0
284.827332 204.0
285.089386 148.0
285.126373 116.0
285.180359 284.0
285.219025 1612.0
285.644135 68.0
286.188141 228.0
286.227325 176.0
286.350952 96.0
286.441895 36.0
287.476959 48.0
288.507111 96.0
289.139618 128.0
291.207642 732.0
291.693573 32.0
292.169647 104.0
292.211304 428.0
294.202942 344.0
294.654938 48.0
294.866791 108.0
295.140259 72.0
295.188141 140.0
295.222321 160.0
295.420715 28.0
296.197754 76.0
297.189575 248.0
297.236511 192.0
298.1922 124.0
298.283997 196.0
299.202484 76.0
299.639862 72.0
299.701874 56.0
300.201691 120.0
300.239624 184.0
301.217438 128.0
302.229309 388.0
302.783173 52.0
302.914764 116.0
303.230072 132.0
303.389526 96.0
304.593658 68.0
307.298553 168.0
308.129486 100.0
309.132965 168.0
309.220551 2368.0
309.314941 32.0
310.225433 852.0
311.222961 268.0
312.20697 288.0
313.214874 140.0
318.735016 104.0
327.230072 2552.0
327.780914 124.0
327.881805 68.0
328.235901 736.0
328.411804 148.0
329.097443 72.0
329.238281 280.0
330.409393 124.0
332.772339 36.0
337.073975 48.0
343.679626 88.0
345.242523 784.0
345.290192 116.0
346.222809 140.0
347.16037 52.0
347.256805 152.0
347.449677 64.0
352.053925 112.0
353.466919 40.0
354.181976 68.0
366.852356 72.0
367.626617 88.0
392.711273 84.0
404.256439 104.0
404.376495 48.0
408.875458 120.0
410.087708 56.0
420.992981 68.0
421.303406 140.0
425.997986 112.0
431.69809 84.0
435.780914 40.0
436.013611 84.0
437.25293 116.0
441.445496 32.0
448.650391 132.0
457.163879 112.0
463.492218 116.0
464.782837 68.0
467.6492 76.0
469.001617 108.0
477.400696 72.0
480.257629 124.0
483.481903 104.0
484.19989 104.0
497.898102 108.0
506.506104 80.0
508.739227 92.0
511.836914 124.0
516.281738 64.0
548.184998 56.0
587.240295 60.0
625.950195 32.0
626.707336 48.0
665.407776 96.0
676.548584 128.0
692.241394 160.0
696.205811 132.0
707.478699 76.0
707.838745 52.0
707.896973 100.0
713.191589 48.0
725.795837 100.0
750.332092 100.0
760.638367 68.0
772.380554 200.0
795.663208 180.0
827.360901 184.0
830.139709 108.0
831.206665 56.0
833.670105 168.0
834.653076 124.0
859.549316 56.0
860.436462 152.0
861.090454 220.0
863.568542 124.0
865.148438 64.0
866.360596 172.0
870.536621 140.0
873.804688 164.0
875.812012 160.0
876.312744 64.0
879.503052 44.0
885.729309 80.0
886.671326 164.0
892.441162 156.0
892.56012 172.0
894.701965 52.0
900.545593 196.0
901.824219 184.0
904.042969 136.0
916.894531 52.0
917.346558 48.0
918.353516 160.0
920.731445 224.0
921.244812 120.0
924.509766 228.0
930.255554 100.0
931.257446 136.0
934.795654 168.0
938.346619 104.0
938.907593 100.0
943.915039 104.0
953.994446 100.0
954.59082 148.0
955.088989 96.0
956.110291 112.0
964.288025 144.0
965.61731 176.0
967.269287 88.0
969.579529 116.0
970.949585 152.0
975.469666 116.0
983.661011 140.0
983.973145 268.0
984.035522 32.0
989.105408 156.0
989.581177 172.0
991.52301 188.0
992.526001 96.0
992.964966 188.0
994.489563 172.0
996.436157 212.0
997.454224 180.0
998.479065 228.0
1002.123718 88.0
1002.274902 156.0
1003.295959 196.0
1004.771667 172.0
1008.522583 160.0
1008.674255 176.0
1008.851257 88.0
1008.927124 212.0
1010.343689 196.0
1011.134644 172.0
1016.250427 184.0
1016.470459 164.0
1018.362244 136.0
1019.785461 180.0
1020.783508 128.0
1021.101501 132.0
1026.654785 96.0
1026.935425 152.0
1028.409302 152.0
1028.59436 76.0
1031.603027 220.0
1032.088867 80.0
1032.517334 236.0
1033.700806 172.0
1038.249023 88.0
1044.08667 212.0
1045.437622 180.0
1045.791626 112.0
1048.599731 132.0
1048.734985 204.0
1049.212036 120.0
1049.415039 192.0
1050.695312 276.0
1052.508911 72.0
1054.989868 132.0
1057.771484 40.0
1058.062744 148.0
1058.787964 192.0
1060.349243 132.0
1063.644165 196.0
1066.911621 152.0
1067.14563 172.0
1068.719604 128.0
1069.786987 140.0
1070.184082 144.0
1072.496704 132.0
1073.36377 188.0
1073.552856 156.0
1073.794189 140.0
1074.139771 124.0
1076.691772 160.0
1077.632446 132.0
1078.68457 220.0
1079.750366 144.0
1081.431763 168.0
1084.188965 204.0
1091.843628 72.0
1095.740356 216.0
1097.045166 208.0
1097.256226 156.0
1099.518677 200.0
1101.255005 72.0
1101.36731 120.0
1102.807739 92.0
1103.693481 140.0
1104.460693 164.0
1105.029541 212.0
1106.545166 116.0
1108.843628 196.0
1109.360718 144.0
1109.632446 156.0
1113.746826 220.0
1115.826782 136.0
1118.936157 244.0
1119.486328 132.0
1120.731934 208.0
1122.038208 184.0
1124.059204 180.0
1124.506226 192.0
1124.953491 136.0
1125.087036 180.0
1128.133179 208.0
1133.534302 196.0
1133.829224 44.0
1134.211304 152.0
1134.452515 180.0
1135.599121 196.0
1136.209595 172.0
1136.377319 184.0
1137.195923 144.0
1137.249634 160.0
1138.317139 164.0
1141.320679 88.0
1142.291626 168.0
1143.278076 164.0
1144.49646 184.0
1146.27478 152.0
1146.362305 172.0
1146.476929 200.0
1147.946533 148.0
1149.086426 196.0
1150.193115 196.0
1153.962646 192.0
1154.794312 88.0
1154.963501 216.0
1156.682129 152.0
1156.763306 216.0
1157.298218 124.0
1157.589355 220.0
1158.246216 76.0
1161.79834 152.0
1162.605713 136.0
1163.997314 180.0
1164.051636 112.0
1165.790649 92.0
1166.266357 140.0
1166.88501 196.0
1168.13623 168.0
1168.231445 196.0
1168.673706 116.0
1168.843872 76.0
1168.952393 180.0
1169.239868 220.0
1169.415405 140.0
1169.619629 156.0
1170.055298 68.0
1170.416138 160.0
1171.12439 92.0
1172.268921 40.0
1173.100464 152.0
1173.755005 160.0
1174.130005 184.0
1174.750732 248.0
1175.439819 140.0
1176.019897 156.0
1176.784424 124.0
1177.378418 132.0
1177.467285 172.0
1178.526001 120.0
1179.086426 48.0
1186.12915 96.0
1188.282471 156.0
1188.584351 224.0
1189.31189 148.0
1189.440552 156.0
1189.648193 240.0
1192.05896 168.0
1192.292603 184.0
1192.904297 192.0
1193.358032 256.0
1193.639893 172.0
1194.42395 180.0
1196.192383 196.0
1198.099854 212.0
1198.155029 224.0
1199.305786 64.0
1201.105347 240.0
1201.298462 160.0
1201.360596 96.0
1202.188599 228.0
1204.314941 196.0
1206.367188 180.0
1206.747314 164.0
1208.012939 52.0
1209.61145 200.0
1209.729126 184.0
1210.005981 164.0
1210.165283 136.0
1214.02478 160.0
1214.087158 240.0
1215.08606 180.0
1216.223999 96.0
1217.640381 180.0
1219.425903 152.0
1220.795532 156.0
1223.376831 148.0
1223.509033 116.0
1223.780518 96.0
1224.184448 52.0
1224.309814 72.0
1226.755371 224.0
1227.438599 176.0
1227.780273 252.0
1228.142944 172.0
1228.380127 152.0
1229.594116 192.0
1229.726807 196.0
1230.368896 172.0
1231.046265 168.0
1232.010132 200.0
1233.799072 132.0
1234.393433 196.0
1235.127686 136.0
1236.786011 124.0
1237.016968 172.0
1238.35437 60.0
1242.167358 180.0
1242.904053 184.0
1243.626831 156.0
1245.333008 64.0
1245.817627 200.0
1247.841675 104.0
1248.952759 176.0
1249.923584 160.0
1251.415771 136.0
1251.507324 116.0
1251.591797 128.0
1251.662231 164.0
1252.274902 180.0
1254.529663 108.0
1256.356079 228.0
1256.899414 156.0
1257.950928 196.0
1258.381592 140.0
1259.179565 144.0
1259.229004 176.0
1259.716309 184.0
1260.309814 112.0
1260.981079 48.0
1261.694946 212.0
1262.186646 228.0
1265.947388 184.0
1266.358154 172.0
1267.564209 172.0
1268.115234 176.0
1271.320801 136.0
1271.384644 224.0
1271.959473 96.0
1272.184814 184.0
1272.385498 148.0
1272.811401 180.0
1272.882446 132.0
1273.308472 108.0
1276.058472 32.0
1277.87207 196.0
1278.128174 132.0
1278.370117 208.0
1278.975098 164.0
1279.758179 84.0
1280.178223 180.0
1280.769409 156.0
1281.38916 216.0
1282.621948 100.0
1283.092407 80.0
1283.42041 116.0
1283.584473 40.0
1283.64856 116.0
1284.497314 228.0
1285.496094 44.0
1286.259766 172.0
1286.438232 140.0
1287.087891 92.0
1287.423584 184.0
1288.902222 164.0
1289.616821 160.0
1290.824951 160.0
1291.835571 220.0
1293.758423 184.0
1294.83252 180.0
1296.157715 68.0
1296.566162 196.0
1296.673706 236.0
1298.050049 188.0
1298.394287 188.0
1299.39856 92.0
1299.484619 196.0
1300.008423 200.0
1300.065796 184.0
1300.123291 132.0
1301.408081 168.0
1301.853271 180.0
1302.772705 160.0
1303.771362 144.0
1304.137939 160.0
1305.029297 152.0
1306.395752 92.0
1307.431885 176.0
1307.633301 148.0
1309.130737 184.0
1309.454834 156.0
1310.319214 168.0
1312.697754 212.0
1312.9646 60.0
1313.289185 300.0
1314.039429 192.0
1315.338379 256.0
1316.226318 188.0
1317.634766 236.0
1317.952637 180.0
1318.19104 64.0
1318.957153 184.0
1319.564331 200.0
1319.947632 156.0
1321.93689 144.0
1322.776367 164.0
1323.963745 208.0
1324.1521 236.0
1324.832886 236.0
1324.929077 144.0
1325.035767 116.0
1325.216919 104.0
1325.369019 164.0
1325.4198 64.0
1326.035767 148.0
1326.398193 148.0
1327.427612 136.0
1327.913574 136.0
1328.341431 224.0
1329.29187 76.0
1329.974121 220.0
1331.825562 180.0
1332.210571 208.0
1333.133301 156.0
1333.380371 176.0
1333.445801 184.0
1333.656616 172.0
1337.256836 112.0
1338.341431 212.0
1340.168945 208.0
1341.131592 160.0
1342.998169 152.0
1344.40625 252.0
1345.406128 148.0
1345.895264 216.0
1347.9552 88.0
1349.972656 204.0
1350.067749 80.0
1350.221313 96.0
1351.947876 96.0
1354.085571 204.0
1354.576294 200.0
1355.601929 56.0
1355.763184 176.0
1356.738037 164.0
1357.104614 200.0
1357.977295 256.0
1358.637451 144.0
1358.960205 192.0
1359.268433 96.0
1359.69397 168.0
1360.567505 68.0
1360.709595 136.0
1361.411865 160.0
1361.602783 216.0
1362.043457 164.0
1362.293213 204.0
1364.064209 128.0
1364.755249 120.0
1364.946411 172.0
1365.483276 156.0
1366.373291 80.0
1367.028076 168.0
1369.391235 92.0
1369.943726 144.0
1370.577271 192.0
1370.967896 180.0
1372.729736 184.0
1374.293457 160.0
1375.075684 172.0
1375.459473 128.0
1376.013062 224.0
1376.175537 248.0
1376.234619 152.0
1377.113403 108.0
1377.534424 100.0
1377.881226 188.0
1378.295288 156.0
1380.712646 220.0
1380.808716 200.0
1381.200684 172.0
1381.504028 284.0
1381.814697 144.0
1381.896118 200.0
1382.051514 108.0
1382.310425 128.0
1383.118896 208.0
1383.688232 232.0
1384.612793 364.0
1385.605347 164.0
1386.6427 76.0
1386.961426 108.0
1387.094849 188.0
1387.179932 216.0
1388.852173 204.0
1391.248901 160.0
1392.526123 180.0
1393.450195 268.0
1393.751831 104.0
1396.271851 136.0
1396.435425 236.0
1397.253662 164.0
1398.86853 140.0
1398.972778 92.0
1399.955566 132.0
1400.789673 168.0
1401.169678 164.0
1401.534668 228.0
1401.609253 44.0
1401.795532 152.0
1402.347046 168.0
1403.427856 220.0
1404.591309 76.0
1404.859863 128.0
1406.225342 56.0
1406.285034 216.0
1406.523926 144.0
1407.031494 200.0
1407.518188 168.0
1407.703491 96.0
1407.957397 200.0
1408.500122 192.0
1409.025513 180.0
1409.130127 144.0
1409.21228 232.0
1409.89978 204.0
1410.580688 144.0
1411.850952 224.0
1412.666138 32.0
1413.025269 216.0
1415.046021 152.0
1416.079346 204.0
1416.131714 136.0
1416.289062 132.0
1416.476318 96.0
1416.918335 216.0
1417.098145 172.0
1417.397827 136.0
1417.600098 192.0
1417.839966 60.0
1418.956787 104.0
1420.126587 144.0
1420.531616 104.0
1421.266846 204.0
1421.912231 176.0
1422.420898 164.0
1422.52771 204.0
1422.895508 192.0
1423.744019 196.0
1423.849121 200.0
1424.667847 104.0
1425.509399 180.0
1426.892334 220.0
1428.208374 108.0
1428.539307 252.0
1429.073486 60.0
1429.623413 180.0
1429.735596 84.0
1431.467041 212.0
1431.83606 120.0
1434.880249 184.0
1436.168335 220.0
1437.980469 96.0
1438.773071 184.0
1441.937988 176.0
1444.622192 168.0
1444.705322 212.0
1445.045776 108.0
1446.407959 140.0
1446.5896 172.0
1447.081665 168.0
1447.39209 172.0
1447.649536 108.0
1449.861694 128.0
1449.92981 156.0
1450.399292 148.0
1450.455444 216.0
1451.317017 168.0
1451.392822 136.0
1452.469727 172.0
1453.160156 228.0
1453.53186 156.0
1453.805054 140.0
1453.873413 40.0
1454.700684 168.0
1455.429443 76.0
1456.036987 80.0
1457.275146 244.0
1457.45752 180.0
1457.943848 176.0
1457.99707 196.0
1458.34668 52.0
1458.437866 168.0
1459.699829 180.0
1459.973633 116.0
1460.041992 152.0
1460.095215 144.0
1460.947144 208.0
1461.510132 200.0
1461.60144 132.0
1463.359619 104.0
1463.45105 244.0
1464.410522 64.0
1465.042725 168.0
1465.103638 120.0
1465.339844 172.0
1465.873169 160.0
1466.180298 108.0
1466.749634 156.0
1467.405273 180.0
1467.519653 148.0
1468.061035 160.0
1468.136353 160.0
1468.221191 188.0
1468.404175 156.0
1468.58728 116.0
1470.334351 92.0
1470.47937 116.0
1471.402954 64.0
1471.845825 164.0
1472.800415 32.0
1473.136475 120.0
1473.190063 192.0
1473.327515 260.0
1474.045654 112.0
1475.8573 84.0
1476.85144 168.0
1477.983643 180.0
1478.106079 136.0
1478.707153 176.0
1479.376465 184.0
1479.766968 176.0
1479.820557 152.0
1479.981323 144.0
1480.364136 176.0
1480.555664 44.0
1480.923218 192.0
1482.087646 160.0
1482.631714 136.0
1483.835083 200.0
1484.095825 124.0
1484.210815 76.0
1486.289429 60.0
1486.34314 188.0
1486.596436 188.0
1487.241089 216.0
1487.624878 132.0
1488.177612 184.0
1489.821167 84.0
1490.176514 168.0
1491.657715 104.0
1492.14978 152.0
1492.757202 132.0
1493.141724 188.0
1494.533936 68.0
1495.080322 60.0
1495.357422 164.0
1495.773071 200.0
1496.358032 148.0
1497.721069 128.0
1497.93689 224.0
1498.221802 176.0
1498.684082 204.0
1500.2948 184.0
1500.4104 156.0
1501.058105 128.0
1501.698242 56.0
1502.26123 136.0
1502.809082 208.0
1502.870728 216.0
1503.032837 240.0
1503.819946 132.0
1503.912598 68.0
1504.61499 124.0
1504.730835 80.0
