>compound Posaconazole
>formula C37H42F2N8O4
>ionization [M+H]+
>parentmass 701.33667
#inchi InChI=1S/C37H42F2N8O4/c1-3-35(26(2)48)47-36(49)46(25-42-47)31-7-5-29(6-8-31)43-14-16-44(17-15-43)30-9-11-32(12-10-30)50-20-27-19-37(51-21-27,22-45-24-40-23-41-45)33-13-4-28(38)18-34(33)39/h4-13,18,23-27,35,48H,3,14-17,19-22H2,1-2H3/t26-,27+,35-,37-/m0/s1
#inchikey RAGOYPUPXAKGKH
#Ion_Source LC-ESI
#Instrument qTof
#Compound_Source Commercial
#PI Dorrestein
#Data_Collector Garg_Neha
#Scan -1
#Precursor_MZ 701.337
#ExactMass 700.33
#Charge 1
#CAS_Number 171228-49-2, 177571-33-4, 1198769-38-8 (H2O)
#Pubmed_ID N/A
#Smiles C1(=CC=C(C=C1)N2CCN(CC2)C3=CC=C(C=C3)OC[C@@H]4CO[C@](C4)(C5=CC=C(C=C5F)F)CN6N=CN=C6)N7C(N(N=C7)[C@H]([C@H](C)O)CC)=O
#INCHI_AUX N/A
#Library_Class 1
#SpectrumID CCMSLIB00000078072
#IonMode Positive
#UpdateWorkflowName UPDATE-SINGLE-ANNOTATED-GOLD
#LibraryQualityString Gold
#TaskID 77f51c88eb8b467eb4a01dd2d0cb90d2
##Scan# 1472
#SpectrumFile Plate1_61_88_GG4_01_16491.mzXML
#LibraryName FDALibrary_2_04302014.mgf
#MQScore -1
#Organism FDALibrary_2_04302014
#TIC_Query 0
#RT_Query -1
#MZErrorPPM -1
#SharedPeaks 0
#MassDiff 0
#LibMZ -1
#SpecMZ 701.337
#SpecCharge 0
#internalFilename spec-00000.mgf

>collision 10
45.286098 176.0
45.432213 148.0
47.595837 228.0
49.288605 232.0
49.369682 160.0
49.774673 172.0
52.624172 164.0
53.575603 208.0
53.811874 152.0
56.286747 192.0
59.113766 176.0
59.41869 160.0
60.268604 172.0
60.401562 144.0
63.984695 160.0
64.49678 188.0
66.505447 168.0
68.270004 200.0
70.041901 232.0
74.330734 160.0
74.650253 164.0
75.180847 172.0
75.985474 152.0
80.331314 176.0
80.556244 164.0
86.564796 196.0
86.840935 196.0
87.3871 152.0
87.617966 164.0
89.105362 184.0
89.441986 196.0
91.119431 220.0
91.184036 200.0
94.573318 212.0
97.055344 172.0
98.911232 148.0
99.660896 216.0
101.200745 164.0
102.679779 176.0
103.437492 232.0
104.887878 168.0
107.094742 180.0
108.263733 184.0
108.307228 204.0
109.295448 164.0
109.857986 196.0
110.777809 144.0
112.280708 188.0
115.997559 212.0
116.156242 188.0
116.641548 184.0
116.959908 156.0
117.893806 148.0
119.070183 332.0
120.086624 200.0
121.346237 184.0
122.059853 188.0
122.885849 184.0
123.128677 176.0
125.278076 180.0
125.891457 196.0
125.969635 144.0
127.034988 1076.0
127.087456 112.0
127.549454 152.0
128.042542 108.0
130.602127 152.0
131.395798 212.0
132.080063 336.0
132.664169 152.0
134.060577 152.0
135.047501 148.0
136.077026 256.0
137.078827 160.0
139.034027 152.0
139.346329 164.0
141.018234 268.0
141.049515 304.0
143.035828 228.0
143.73877 248.0
144.080948 180.0
144.601501 152.0
144.862503 168.0
145.054199 212.0
145.085373 312.0
146.060806 740.0
147.063232 156.0
148.046753 140.0
148.076233 848.0
148.404846 140.0
149.081314 424.0
153.053558 208.0
153.225388 148.0
154.878067 196.0
155.473114 152.0
156.143906 208.0
158.107391 160.0
158.300156 164.0
158.518097 212.0
158.95694 144.0
159.060867 108.0
160.085052 208.0
161.07547 172.0
161.459808 152.0
162.09079 636.0
164.0383 256.0
165.894241 152.0
166.068359 204.0
167.062714 268.0
167.799286 160.0
168.041733 180.0
168.119141 220.0
168.571075 176.0
168.795975 236.0
169.044067 220.0
169.075363 188.0
169.525986 160.0
170.057648 172.0
170.097595 216.0
171.057266 368.0
171.165146 204.0
172.074524 820.0
172.111069 132.0
172.508835 156.0
173.079636 144.0
173.11586 188.0
173.385696 180.0
174.092331 820.0
175.099396 276.0
176.053391 168.0
176.10466 196.0
176.288513 156.0
179.066559 980.0
181.047943 180.0
181.083649 576.0
181.283691 172.0
181.67247 148.0
182.084381 164.0
183.063217 240.0
184.072098 376.0
184.115387 252.0
185.081223 188.0
186.093292 708.0
187.08548 144.0
187.102066 284.0
187.518814 204.0
188.105347 280.0
188.728165 196.0
189.078323 204.0
189.538391 220.0
189.93045 204.0
190.053894 196.0
190.119797 132.0
191.064819 304.0
191.96846 200.0
192.078781 168.0
193.07312 172.0
194.96666 256.0
195.061401 492.0
196.116135 164.0
197.080032 272.0
197.11676 220.0
198.092987 156.0
199.099609 620.0
200.107071 424.0
201.075073 200.0
201.115051 232.0
201.707779 152.0
202.080093 352.0
203.091278 1448.0
204.092514 360.0
204.80928 156.0
205.081573 224.0
205.102097 204.0
205.647568 156.0
207.056366 164.0
208.029175 240.0
209.07637 1516.0
209.550552 160.0
210.082062 608.0
212.103043 176.0
213.112335 208.0
214.108215 128.0
214.133423 152.0
215.092697 344.0
215.127747 184.0
216.099167 152.0
216.97377 152.0
217.09935 200.0
217.534103 172.0
219.098648 140.0
220.064682 140.0
221.562592 220.0
222.3573 172.0
222.511658 196.0
224.065598 108.0
225.109848 308.0
225.176819 176.0
227.08638 176.0
229.109497 664.0
230.109436 132.0
232.338257 180.0
232.684235 208.0
234.692368 292.0
236.611145 256.0
237.134964 200.0
239.122162 212.0
242.14212 188.0
243.12645 160.0
244.137299 176.0
246.078629 156.0
246.684708 152.0
248.099503 496.0
251.629715 176.0
256.153748 148.0
256.566406 240.0
256.783234 172.0
256.907654 148.0
257.133179 332.0
258.306854 140.0
259.697052 144.0
260.095795 176.0
261.113678 188.0
261.409454 140.0
261.885925 152.0
262.037323 180.0
263.308319 212.0
266.671417 184.0
267.136414 164.0
267.321869 148.0
268.083893 216.0
269.131012 144.0
270.094604 160.0
271.080597 176.0
271.103546 220.0
271.156067 1488.0
272.156097 424.0
273.158936 168.0
273.180389 160.0
274.156555 164.0
277.104095 148.0
278.109619 3196.0
279.110565 688.0
279.162109 168.0
279.820953 168.0
280.10556 112.0
282.070831 136.0
282.141602 168.0
283.152557 1088.0
284.111572 156.0
284.154388 296.0
285.0914 140.0
285.171173 316.0
285.247345 160.0
285.785461 172.0
286.115295 148.0
286.175995 148.0
286.303864 172.0
289.167267 424.0
290.322144 188.0
293.099487 172.0
294.108978 288.0
294.180664 140.0
295.133087 276.0
295.298035 188.0
295.746277 244.0
295.801025 148.0
296.133698 128.0
297.112701 156.0
297.171997 892.0
298.030304 200.0
298.102295 160.0
298.215851 180.0
298.56311 204.0
299.117065 144.0
299.168701 172.0
300.114227 168.0
300.219635 176.0
302.179413 196.0
303.120026 176.0
304.174377 140.0
305.860291 168.0
308.113098 164.0
309.270599 152.0
310.1026 132.0
310.161926 104.0
311.158783 148.0
312.17804 348.0
314.063385 144.0
314.127777 304.0
314.197418 200.0
314.222107 180.0
314.624451 188.0
315.123322 164.0
315.174255 156.0
315.355682 232.0
316.115631 244.0
317.121887 200.0
317.153656 120.0
319.209412 164.0
320.138214 244.0
321.159363 156.0
321.714203 180.0
322.166687 640.0
323.15921 152.0
323.190308 168.0
324.118469 140.0
325.121826 176.0
325.154114 152.0
325.233063 176.0
325.268982 172.0
326.132965 636.0
327.145874 444.0
328.118195 204.0
328.156769 160.0
329.136383 144.0
329.168182 152.0
330.134094 180.0
331.146423 276.0
331.432617 140.0
332.168579 164.0
333.141479 160.0
333.559387 152.0
334.16745 160.0
335.02594 172.0
335.147095 208.0
335.281006 184.0
336.144226 108.0
337.149017 564.0
337.910156 212.0
338.159851 1452.0
339.162048 348.0
340.144409 356.0
340.186066 256.0
341.155914 180.0
341.27356 156.0
342.131317 468.0
343.137726 748.0
344.097412 144.0
344.145538 4244.0
344.310059 180.0
344.736176 104.0
345.146576 1056.0
345.193298 208.0
345.599426 96.0
346.155609 228.0
346.213074 156.0
347.155975 156.0
348.152954 168.0
349.03299 104.0
349.192871 164.0
350.114197 148.0
350.164124 772.0
351.164764 796.0
352.15036 432.0
353.155853 180.0
353.223358 156.0
354.114197 152.0
354.164642 136.0
356.146362 484.0
356.203766 160.0
357.142853 164.0
361.17511 172.0
362.153351 124.0
363.145111 156.0
363.175476 176.0
366.166718 176.0
368.149902 156.0
370.160126 3512.0
371.162079 1444.0
372.175049 180.0
372.508698 184.0
375.174194 344.0
376.17218 244.0
376.823578 140.0
377.178223 156.0
377.203674 352.0
378.185455 192.0
379.197083 124.0
380.169159 156.0
381.839752 168.0
382.44281 176.0
385.160614 164.0
386.004791 156.0
388.179749 140.0
389.104156 196.0
389.209625 216.0
390.221893 252.0
391.215942 136.0
392.20462 296.0
392.247467 156.0
393.152771 228.0
393.182251 184.0
394.162598 200.0
395.171906 464.0
396.184967 168.0
399.155884 524.0
400.159698 160.0
400.828217 180.0
401.178223 152.0
402.05249 140.0
402.221741 292.0
403.201355 208.0
403.234985 176.0
404.20462 564.0
405.213226 2860.0
406.170715 144.0
406.220581 2396.0
407.156708 120.0
407.227356 608.0
407.671234 204.0
408.097321 140.0
408.17395 132.0
408.214294 132.0
412.166901 224.0
413.178833 292.0
413.587982 144.0
414.188232 376.0
415.169373 176.0
415.233002 152.0
416.19873 140.0
416.230438 204.0
416.998199 148.0
417.196655 136.0
417.417877 144.0
418.221985 1208.0
419.231659 308.0
419.510651 180.0
420.234802 136.0
421.189301 420.0
421.404358 144.0
422.180511 452.0
422.217529 320.0
423.22702 764.0
423.290527 164.0
423.539856 152.0
424.229126 332.0
425.17453 824.0
426.185394 336.0
427.171326 176.0
427.221771 268.0
427.604767 144.0
428.236298 248.0
430.913696 144.0
431.234314 160.0
432.160645 164.0
432.390717 104.0
434.982971 144.0
435.410645 160.0
435.55603 160.0
436.236938 140.0
437.212219 132.0
438.235229 148.0
438.856262 140.0
439.196411 320.0
440.201385 200.0
440.249481 128.0
441.240112 148.0
442.230652 316.0
443.229095 332.0
443.358398 168.0
444.24118 312.0
444.347992 140.0
445.235077 184.0
446.237976 160.0
447.533936 152.0
447.891907 156.0
448.237396 160.0
449.671265 160.0
450.05542 140.0
452.647491 200.0
453.948456 160.0
456.248749 348.0
456.385864 140.0
457.23938 136.0
458.227844 136.0
460.265076 436.0
461.22467 176.0
461.280243 232.0
462.212494 124.0
463.22467 260.0
463.36441 148.0
468.041901 184.0
469.241943 256.0
470.249237 148.0
471.05661 164.0
471.88208 260.0
472.716888 160.0
473.249329 172.0
473.863495 200.0
474.037689 212.0
480.839478 140.0
481.393921 148.0
484.162201 140.0
484.573944 140.0
486.429047 140.0
487.170441 160.0
487.259064 176.0
489.070862 176.0
490.370209 156.0
492.607361 164.0
494.477753 240.0
498.210938 188.0
498.349152 164.0
499.087006 160.0
499.229279 140.0
500.172546 176.0
503.210083 444.0
504.20929 148.0
505.233643 360.0
506.773254 152.0
506.840454 152.0
509.766235 140.0
510.203888 204.0
512.200256 268.0
512.267822 180.0
513.196289 176.0
514.229309 152.0
515.195679 172.0
515.236328 152.0
515.290527 152.0
516.220276 280.0
517.222473 360.0
517.687927 228.0
518.231506 140.0
518.462585 152.0
520.844604 152.0
520.890076 172.0
521.380737 224.0
527.127441 160.0
527.287354 300.0
528.213074 664.0
528.728027 212.0
529.231018 408.0
529.62085 156.0
530.219788 220.0
531.229248 128.0
533.990479 204.0
535.223816 140.0
535.292908 148.0
537.713196 212.0
538.244141 140.0
538.507385 188.0
539.126465 152.0
539.209656 184.0
540.233643 168.0
540.930298 156.0
541.394897 120.0
541.564697 176.0
542.231812 144.0
543.117493 176.0
543.230957 120.0
543.867432 100.0
544.21228 140.0
544.27771 152.0
545.08136 204.0
545.222595 568.0
545.308899 104.0
546.141357 176.0
546.229126 6516.0
546.564697 164.0
546.605042 108.0
547.232483 2852.0
547.332764 180.0
547.70282 112.0
548.240356 132.0
548.917114 152.0
552.345215 164.0
554.239258 192.0
555.240417 268.0
556.229492 268.0
557.233032 268.0
557.27356 404.0
558.228821 476.0
559.231262 172.0
560.2323 172.0
560.86322 172.0
561.933716 152.0
562.490601 196.0
562.962769 156.0
564.241211 128.0
564.645203 164.0
566.270325 128.0
567.276672 276.0
567.979736 196.0
568.281555 156.0
569.282776 132.0
570.240967 140.0
570.296875 156.0
570.463257 160.0
572.250671 792.0
573.249756 284.0
573.557434 164.0
574.245178 352.0
574.489075 152.0
575.265198 156.0
575.742676 152.0
575.885986 184.0
578.277771 276.0
578.439392 140.0
579.16687 100.0
579.274353 176.0
580.046326 192.0
582.457825 148.0
583.51123 116.0
583.981506 188.0
584.208191 132.0
584.284546 1072.0
585.281006 464.0
586.28949 136.0
587.288757 140.0
588.279114 140.0
589.818909 148.0
590.0625 196.0
590.492859 144.0
591.896301 220.0
594.111328 156.0
594.249329 200.0
595.145081 144.0
595.236023 364.0
595.621033 164.0
596.273438 1692.0
597.270325 828.0
597.487793 156.0
598.267151 292.0
599.230652 1360.0
600.230835 536.0
601.220276 248.0
602.289551 204.0
610.251343 124.0
610.369385 152.0
611.177979 176.0
612.282593 196.0
612.709229 168.0
613.024597 192.0
613.146362 124.0
613.239624 156.0
613.52594 208.0
614.112549 236.0
614.291321 10208.0
614.456604 136.0
614.710327 236.0
614.751587 264.0
615.286255 5360.0
615.570374 108.0
615.826355 116.0
615.952759 164.0
616.284424 1788.0
616.958496 212.0
617.288879 560.0
618.281067 172.0
618.506836 240.0
618.716736 112.0
623.312683 140.0
624.003601 140.0
624.274353 116.0
625.198425 180.0
626.297729 172.0
627.252869 256.0
627.633362 180.0
629.045349 144.0
629.504639 152.0
631.113708 164.0
631.843933 140.0
632.302124 2020.0
632.437866 104.0
632.686157 212.0
633.304688 948.0
634.393066 144.0
638.297119 140.0
639.546936 152.0
640.306274 128.0
641.278931 392.0
641.380432 148.0
642.281982 144.0
642.575623 168.0
643.292297 176.0
644.302307 164.0
647.301697 172.0
648.669678 180.0
648.735596 164.0
652.538208 144.0
654.318909 148.0
655.322266 204.0
656.073242 104.0
656.301208 112.0
657.31604 140.0
657.550781 208.0
659.384338 144.0
662.736206 184.0
663.264099 204.0
663.654236 180.0
665.182556 140.0
665.318542 1924.0
666.316101 372.0
667.327393 324.0
668.466858 164.0
669.522217 148.0
669.810608 156.0
670.877319 144.0
675.840698 192.0
679.149292 112.0
681.048279 104.0
681.304565 188.0
681.315308 160.0
681.419739 152.0
682.084595 116.0
682.315735 140.0
682.647827 200.0
682.898621 208.0
683.007324 132.0
683.19458 200.0
683.323547 13364.0
683.448303 212.0
683.503418 112.0
683.604309 124.0
683.723328 140.0
684.03125 104.0
684.327881 5920.0
684.427612 256.0
685.209045 168.0
685.334778 1980.0
686.157471 96.0
686.332092 304.0
687.342712 348.0
687.638489 144.0
690.673218 180.0
692.248535 172.0
694.266174 180.0
696.986572 160.0
697.221863 172.0
698.548584 136.0
698.623291 124.0
698.883606 116.0
699.030945 140.0
699.173035 168.0
699.318054 136.0
699.435059 240.0
699.638306 156.0
699.722839 172.0
699.790894 96.0
699.84552 124.0
700.005859 100.0
700.170898 172.0
700.32489 284.0
700.456604 228.0
700.578735 176.0
700.628479 292.0
700.744751 192.0
700.807068 120.0
700.917419 164.0
700.959778 116.0
701.090942 140.0
701.162476 152.0
701.185852 132.0
701.33667 91216.0
701.512329 196.0
701.61731 272.0
701.698181 120.0
701.780396 152.0
701.910034 224.0
702.01062 244.0
702.131348 220.0
702.213806 348.0
702.33783 36152.0
702.586426 168.0
702.731506 108.0
702.782593 104.0
702.819031 172.0
702.882996 144.0
702.957092 168.0
703.035034 236.0
703.125 112.0
703.206238 132.0
703.336853 6472.0
703.940674 124.0
704.190369 128.0
704.343262 808.0
704.494446 180.0
704.677551 124.0
704.749756 120.0
704.908569 208.0
704.976074 112.0
705.290833 172.0
705.340942 184.0
705.416504 124.0
705.508057 136.0
705.559387 172.0
705.67511 100.0
705.88446 144.0
706.156677 204.0
706.366577 128.0
706.563049 140.0
706.665466 128.0
706.825073 164.0
707.151245 144.0
707.964539 120.0
708.664246 124.0
710.04364 116.0
723.318787 148.0
728.541992 152.0
771.678467 140.0
879.207214 148.0
984.888855 144.0
1097.509399 140.0
1148.200928 208.0
1285.321899 184.0
1364.020386 152.0
1395.931396 212.0
1610.429199 204.0
1623.162109 148.0
1664.656738 200.0
1722.259521 156.0
1742.414673 152.0
1755.983398 220.0
1781.186279 204.0
1830.725586 148.0
1870.488037 248.0
1901.084839 180.0
1921.297852 172.0
1970.278687 268.0
1977.08728 168.0
1988.9375 200.0
1999.941772 212.0
2002.710938 148.0
