>compound MLS000860033-01!erythro-9-(2-Hydroxy-3-nonyl)-adenine hydrochloride
>formula C14H23N5O
>ionization [M+H]+
>parentmass 278.195801
#inchi InChI=1S/C14H23N5O/c1-3-4-5-6-7-11(10(2)20)19-9-18-12-13(15)16-8-17-14(12)19/h8-11,20H,3-7H2,1-2H3,(H2,15,16,17)/t10-,11+/m1/s1
#inchikey IOSAAWHGJUZBOG
#origInchi InChI=1S/C14H23N5O.ClH/c1-3-4-5-6-7-11(10(2)20)19-9-18-12-13(15)16-8-17-14(12)19;/h8-11,20H,3-7H2,1-2H3,(H2,15,16,17);1H/t10-,11+;/m1./s1
#Ion_Source LC-ESI
#Instrument qTof
#Compound_Source NIH Pharmacologically Active Library
#PI Dorrestein
#Data_Collector VP/LMS
#Scan -1
#Precursor_MZ 278.202
#ExactMass 277.19
#Charge 1
#CAS_Number N/A
#Pubmed_ID N/A
#Smiles CCCCCC[C@@H]([C@@H](C)O)n1cnc2c(N)ncnc12.Cl
#INCHI_AUX N/A
#Library_Class 1
#SpectrumID CCMSLIB00000085771
#IonMode Positive
#UpdateWorkflowName UPDATE-SINGLE-ANNOTATED-GOLD
#LibraryQualityString Gold
#TaskID d252d724072548979f1f6f1ced849daf
##Scan# 1562
#SpectrumFile p4-F04_GF4_01_18388.mzXML
#LibraryName Pharm_Active_Library.mgf
#MQScore -1
#Organism Pharm_Active_Library
#TIC_Query 0
#RT_Query -1
#MZErrorPPM -1
#SharedPeaks 0
#MassDiff 0
#LibMZ -1
#SpecMZ 278.202
#SpecCharge 0
#internalFilename spec-00000.mgf

>collision 10
44.90657 200.0
44.930584 128.0
44.941257 160.0
44.96928 140.0
44.990639 160.0
44.999985 276.0
45.022961 176.0
45.032356 320.0
45.04673 144.0
45.057415 148.0
45.13895 132.0
45.177902 360.0
45.188156 204.0
45.208515 128.0
45.236622 124.0
45.256706 252.0
45.272774 172.0
45.302242 172.0
45.311623 112.0
45.329041 96.0
45.343781 164.0
45.355846 156.0
45.367912 192.0
45.387669 212.0
45.407352 348.0
45.448383 192.0
45.468216 180.0
45.500729 132.0
45.519573 376.0
45.540958 188.0
45.563232 208.0
45.593414 180.0
45.612232 140.0
45.62299 148.0
45.640469 248.0
45.675434 364.0
45.691376 212.0
45.713699 164.0
45.723774 160.0
45.726055 148.0
45.734871 164.0
45.753487 140.0
45.803841 164.0
45.823574 108.0
45.861256 108.0
45.872787 188.0
45.89209 124.0
45.92355 220.0
45.988045 84.0
46.020481 152.0
46.037598 200.0
46.059612 100.0
46.079876 80.0
46.110958 144.0
46.137783 156.0
46.153328 140.0
46.173149 32.0
46.183617 168.0
46.200203 176.0
46.211025 152.0
46.220497 220.0
46.282478 208.0
46.301723 52.0
46.318871 200.0
46.328815 208.0
46.344982 176.0
46.366756 188.0
46.38224 388.0
46.409184 148.0
46.449863 192.0
46.46439 104.0
46.480671 124.0
46.503742 136.0
46.513245 212.0
46.529037 120.0
46.534119 192.0
46.547188 140.0
46.568954 152.0
46.587936 168.0
46.608315 172.0
46.629269 296.0
46.659966 152.0
46.670139 228.0
46.68988 212.0
46.742294 160.0
46.756001 160.0
46.760517 96.0
46.763851 152.0
46.786491 312.0
46.807869 212.0
46.821896 168.0
46.834156 96.0
46.855713 136.0
46.870941 60.0
46.887882 148.0
46.924187 184.0
46.944553 180.0
46.954098 144.0
46.976749 304.0
47.004574 220.0
47.027775 88.0
47.084324 144.0
47.088329 80.0
47.096897 324.0
47.118832 220.0
47.1343 184.0
47.146667 164.0
47.186241 112.0
47.210857 212.0
47.238514 200.0
47.255867 308.0
47.280628 40.0
47.302528 384.0
47.31485 176.0
47.334019 132.0
47.350452 244.0
47.417202 156.0
47.437275 176.0
47.47517 112.0
47.524551 160.0
47.538124 144.0
47.541878 128.0
47.562981 296.0
47.573963 176.0
47.595776 228.0
47.626144 164.0
47.637135 88.0
47.646751 196.0
47.663239 60.0
47.687977 160.0
47.713364 240.0
47.726471 168.0
47.74115 136.0
47.770481 164.0
47.795246 128.0
47.825523 188.0
47.852139 180.0
47.868202 252.0
47.886108 152.0
47.9104 88.0
47.951126 188.0
47.98119 96.0
48.008327 188.0
48.013939 128.0
48.016308 156.0
48.027939 204.0
48.057049 184.0
48.077747 220.0
48.10746 200.0
48.128185 212.0
48.154587 196.0
48.189602 112.0
48.243149 156.0
48.248459 116.0
48.252514 108.0
48.257843 172.0
48.273922 140.0
48.297749 176.0
48.313732 128.0
48.324238 160.0
48.340324 148.0
48.36718 212.0
48.379929 208.0
48.392921 116.0
48.410923 172.0
48.422005 164.0
48.436256 152.0
48.44952 204.0
48.474297 204.0
48.486683 316.0
48.502369 264.0
48.517159 348.0
48.538418 112.0
48.550896 164.0
48.563381 200.0
48.593273 160.0
48.60902 116.0
48.62368 140.0
48.639576 320.0
48.651203 152.0
48.697628 216.0
48.700687 156.0
48.705288 204.0
48.728577 120.0
48.78278 124.0
48.798073 148.0
48.810585 168.0
48.841412 344.0
48.864563 216.0
48.872051 252.0
48.905296 156.0
48.916328 216.0
48.927464 180.0
48.972485 212.0
49.005459 152.0
49.016296 196.0
49.087032 160.0
49.143497 156.0
49.165825 220.0
49.181179 36.0
49.195244 160.0
49.206306 184.0
49.23362 224.0
49.248199 124.0
49.260773 144.0
49.274609 208.0
49.29211 168.0
49.311077 144.0
49.344692 232.0
49.39917 204.0
49.41671 176.0
49.426849 148.0
49.450809 212.0
49.469139 188.0
49.492008 176.0
49.508347 176.0
49.525154 176.0
49.537762 204.0
49.565781 240.0
49.585598 172.0
49.603622 208.0
49.630619 204.0
49.647091 148.0
49.668129 108.0
49.716869 200.0
49.747128 176.0
49.759346 152.0
49.776196 68.0
49.820595 144.0
49.834019 172.0
49.860306 216.0
49.888599 108.0
49.918289 208.0
49.930786 160.0
49.949581 220.0
49.971581 32.0
49.99128 168.0
50.016613 176.0
50.028843 320.0
50.039139 108.0
50.048996 112.0
50.070507 188.0
50.082794 148.0
50.112381 160.0
50.125431 152.0
50.168339 176.0
50.185215 196.0
50.200989 344.0
50.236485 172.0
50.254787 188.0
50.296829 132.0
50.314583 208.0
50.329597 128.0
50.340897 208.0
50.366413 148.0
50.408703 144.0
50.421421 168.0
50.434143 172.0
50.44817 152.0
50.479191 116.0
50.507671 148.0
50.534554 132.0
50.544456 104.0
50.555779 136.0
50.570042 204.0
50.593994 172.0
50.603909 168.0
50.627129 212.0
50.644974 204.0
50.675583 208.0
50.691177 212.0
50.720444 184.0
50.74818 228.0
50.776791 192.0
50.789822 156.0
50.799488 144.0
50.834957 144.0
50.857666 164.0
50.871861 124.0
50.883221 204.0
50.893158 328.0
50.90736 164.0
50.934345 76.0
50.94997 148.0
50.963142 104.0
50.979214 152.0
51.008881 184.0
51.042358 156.0
51.06369 108.0
51.081486 236.0
51.106369 156.0
51.167892 160.0
51.196053 156.0
51.205944 148.0
51.278687 148.0
51.304344 172.0
51.3186 96.0
51.331432 168.0
51.348965 164.0
51.361385 64.0
51.392773 124.0
51.42617 160.0
51.459858 164.0
51.494129 60.0
51.515556 116.0
51.531864 164.0
51.54842 168.0
51.574341 144.0
51.616676 208.0
51.653648 204.0
51.684452 336.0
51.694878 192.0
51.710026 152.0
51.737514 176.0
51.754894 204.0
51.776485 200.0
51.813129 152.0
51.853069 220.0
51.866734 296.0
51.904861 92.0
51.928917 264.0
51.957932 84.0
51.972279 136.0
51.996479 232.0
52.022514 220.0
52.034821 364.0
52.052666 156.0
52.06868 132.0
52.089855 180.0
52.120178 136.0
52.153328 124.0
52.171921 184.0
52.188824 148.0
52.203827 168.0
52.226604 160.0
52.239513 176.0
52.255337 128.0
52.273186 208.0
52.285454 56.0
52.29995 224.0
52.320107 356.0
52.32988 368.0
52.355659 220.0
52.405079 188.0
52.424889 220.0
52.445976 180.0
52.459846 216.0
52.477371 156.0
52.512745 152.0
52.543186 188.0
52.575241 228.0
52.587166 212.0
52.621254 424.0
52.664757 192.0
52.678852 216.0
52.695942 160.0
52.716805 160.0
52.738319 312.0
52.791943 160.0
52.825363 188.0
52.842995 232.0
52.916386 168.0
52.936657 164.0
52.954037 176.0
52.990253 156.0
53.015919 180.0
53.092892 164.0
53.112549 316.0
53.126534 212.0
53.152653 104.0
53.175873 224.0
53.187485 124.0
53.271709 128.0
53.300766 188.0
53.331287 124.0
53.34211 188.0
53.373447 204.0
53.386536 132.0
53.418533 84.0
53.457733 176.0
53.468552 204.0
53.502514 164.0
53.527695 68.0
53.546017 124.0
53.564106 160.0
53.60445 168.0
53.637165 176.0
53.656723 172.0
53.705498 116.0
53.71571 192.0
53.730103 148.0
53.747463 136.0
53.773666 156.0
53.790367 100.0
53.842697 108.0
53.854382 92.0
53.870449 132.0
53.881985 152.0
53.901134 128.0
53.945969 148.0
53.962524 144.0
53.975685 144.0
53.993233 136.0
54.017403 168.0
54.032463 176.0
54.057053 244.0
54.083946 128.0
54.094196 228.0
54.116154 104.0
54.139492 188.0
54.154232 160.0
54.181709 232.0
54.190784 84.0
54.21701 204.0
54.239216 168.0
54.271469 148.0
54.31171 228.0
54.332321 156.0
54.357143 124.0
54.377094 120.0
54.387371 296.0
54.407921 144.0
54.421135 172.0
54.434353 140.0
54.462257 140.0
54.496044 184.0
54.511528 112.0
54.527199 120.0
54.54319 204.0
54.558876 192.0
54.57983 52.0
54.604828 176.0
54.632233 108.0
54.662807 224.0
54.681469 156.0
54.693111 108.0
54.709892 140.0
54.747143 172.0
54.759373 176.0
54.775574 200.0
54.793056 296.0
54.807251 168.0
54.833912 180.0
54.866905 160.0
54.899384 148.0
54.933308 192.0
54.944546 136.0
54.956623 428.0
54.981892 216.0
55.026283 140.0
55.036621 336.0
55.052864 232.0
55.077942 204.0
55.103088 168.0
55.131161 160.0
55.143845 104.0
55.170658 200.0
55.182415 188.0
55.196209 288.0
55.299767 116.0
55.31839 232.0
55.332829 204.0
55.344921 136.0
55.35556 200.0
55.378242 340.0
55.409351 136.0
55.433018 144.0
55.456772 152.0
55.471596 136.0
55.491623 212.0
55.524975 132.0
55.535355 232.0
55.547222 256.0
55.566509 164.0
55.578381 144.0
55.592285 140.0
55.627541 164.0
55.640793 160.0
55.660019 204.0
55.677841 164.0
55.694206 220.0
55.714977 156.0
55.729836 160.0
55.753296 188.0
55.778515 124.0
55.832405 164.0
55.85918 180.0
55.881317 268.0
55.897861 116.0
55.942516 208.0
55.961124 148.0
55.990162 184.0
56.013996 196.0
56.0294 176.0
56.102245 236.0
56.125298 200.0
56.142178 68.0
56.168945 196.0
56.185436 136.0
56.206322 168.0
56.233467 148.0
56.244263 160.0
56.258564 184.0
56.269012 124.0
56.298279 260.0
56.31464 260.0
56.339207 52.0
56.366104 100.0
56.395607 140.0
56.421406 48.0
56.447979 188.0
56.467762 224.0
56.482895 136.0
56.500671 188.0
56.518627 156.0
56.529102 188.0
56.54044 132.0
56.582985 388.0
56.599831 144.0
56.636898 212.0
56.647049 160.0
56.65667 184.0
56.681423 200.0
56.726807 32.0
56.749298 248.0
56.761417 144.0
56.774788 148.0
56.791286 132.0
56.817169 300.0
56.873146 216.0
56.892464 312.0
56.915852 252.0
56.929367 348.0
56.984547 196.0
56.995464 52.0
57.019634 236.0
57.037655 304.0
57.049572 88.0
57.073711 144.0
57.094681 176.0
57.106712 168.0
57.132286 228.0
57.152763 216.0
57.178932 68.0
57.192478 216.0
57.224094 40.0
57.244873 220.0
57.293373 164.0
57.303921 184.0
57.317482 96.0
57.334057 172.0
57.347622 48.0
57.386681 244.0
57.465195 220.0
57.482235 192.0
57.534523 180.0
57.557323 92.0
57.586018 264.0
57.635178 168.0
57.652496 68.0
57.677525 360.0
57.715988 116.0
57.760895 260.0
57.776485 80.0
57.802208 216.0
57.812801 172.0
57.824139 108.0
57.915756 144.0
57.92939 96.0
57.971817 152.0
57.996628 216.0
58.033897 176.0
58.038227 168.0
58.05912 320.0
58.073395 156.0
58.102966 308.0
58.153931 208.0
58.181137 160.0
58.197838 128.0
58.209988 104.0
58.237461 132.0
58.294327 216.0
58.351299 140.0
58.361942 172.0
58.420975 176.0
58.436474 164.0
58.457775 116.0
58.476078 148.0
58.500988 164.0
58.530846 160.0
58.556732 188.0
58.605484 128.0
58.63596 136.0
58.683216 364.0
58.696941 124.0
58.709789 200.0
58.728539 168.0
58.744923 192.0
58.761005 160.0
58.774734 148.0
58.785419 48.0
58.846478 172.0
58.864162 220.0
58.879036 176.0
58.907242 208.0
58.948818 68.0
58.959518 224.0
59.00996 208.0
59.022194 44.0
59.048191 60.0
59.060608 136.0
59.075726 156.0
59.175205 164.0
59.196644 184.0
59.219616 96.0
59.230339 136.0
59.259445 188.0
59.290691 92.0
59.300438 144.0
59.314617 124.0
59.337936 152.0
59.352219 152.0
59.368633 260.0
59.40049 172.0
59.439022 176.0
59.483356 260.0
59.502907 180.0
59.526348 208.0
59.541206 148.0
59.561028 220.0
59.572426 252.0
59.612373 200.0
59.624062 384.0
59.6329 168.0
59.679298 196.0
59.694393 136.0
59.732346 132.0
59.744606 160.0
59.763371 164.0
59.795387 156.0
59.813858 192.0
59.830791 132.0
59.846188 176.0
59.859344 324.0
59.873528 316.0
59.897148 180.0
59.921661 156.0
59.941692 288.0
59.97868 128.0
59.991013 204.0
60.004887 200.0
60.015682 228.0
60.031101 124.0
60.048946 244.0
60.060406 164.0
60.071205 116.0
60.092804 56.0
60.107319 216.0
60.154945 180.0
60.188503 148.0
60.23571 120.0
60.27037 180.0
60.298798 132.0
60.321537 152.0
60.335285 184.0
60.36237 132.0
60.390476 168.0
60.404285 168.0
60.421894 156.0
60.447891 200.0
60.467869 152.0
60.502541 112.0
60.522907 92.0
60.555023 96.0
60.578678 188.0
60.589851 116.0
60.597626 156.0
60.624805 204.0
60.636536 212.0
60.650131 304.0
60.669151 60.0
60.723164 188.0
60.791504 176.0
60.834976 188.0
60.849663 172.0
60.863773 180.0
60.894695 60.0
60.916267 212.0
60.939747 196.0
60.979519 108.0
61.001911 152.0
61.020569 140.0
61.040829 136.0
61.057499 304.0
61.075478 244.0
61.089184 68.0
61.110615 188.0
61.145515 212.0
61.169922 144.0
61.183933 336.0
61.244404 184.0
61.271252 240.0
61.285465 212.0
61.304001 144.0
61.3241 220.0
61.341526 200.0
61.356865 132.0
61.385208 136.0
61.409885 152.0
61.432014 108.0
61.461369 180.0
61.47229 96.0
61.500385 516.0
61.529942 180.0
61.536453 152.0
61.541325 196.0
61.555027 132.0
61.57629 176.0
61.605007 260.0
61.631569 152.0
61.648758 200.0
61.667408 176.0
61.683144 208.0
61.705032 160.0
61.725544 68.0
61.748817 104.0
61.78323 204.0
61.827847 140.0
61.833836 212.0
61.853355 168.0
61.855679 136.0
61.86261 72.0
61.877506 156.0
61.914715 248.0
61.93821 112.0
61.961605 176.0
61.988346 176.0
62.002453 112.0
62.047611 136.0
62.063709 156.0
62.080944 120.0
62.10907 56.0
62.131031 132.0
62.153591 212.0
62.193802 136.0
62.229912 164.0
62.242474 128.0
62.255035 196.0
62.286205 180.0
62.30373 132.0
62.331532 144.0
62.36187 144.0
62.37759 208.0
62.390167 152.0
62.412292 164.0
62.431244 160.0
62.455276 188.0
62.466236 216.0
62.48925 176.0
62.52269 160.0
62.530067 192.0
62.533272 148.0
62.571095 156.0
62.601009 260.0
62.61676 128.0
62.640388 48.0
62.671898 100.0
62.68985 180.0
62.719471 140.0
62.757011 172.0
62.775936 164.0
62.818523 116.0
62.847477 204.0
62.879448 240.0
62.889683 84.0
62.933735 172.0
63.021778 232.0
63.045692 252.0
63.074341 120.0
63.101215 180.0
63.111832 148.0
63.149895 184.0
63.18346 180.0
63.225208 156.0
63.248257 220.0
63.275776 212.0
63.294975 360.0
63.353745 132.0
63.372322 140.0
63.377316 156.0
63.383694 208.0
63.390358 252.0
63.420448 180.0
63.438435 164.0
63.470863 208.0
63.481247 200.0
63.493935 100.0
63.522484 200.0
63.5732 228.0
63.631828 200.0
63.667492 200.0
63.691082 152.0
63.76609 48.0
63.817886 136.0
63.836002 200.0
63.864006 196.0
63.881504 204.0
63.897411 84.0
63.928177 120.0
63.940376 160.0
63.953186 168.0
63.972214 152.0
64.044907 80.0
64.071426 160.0
64.086472 140.0
64.101227 44.0
64.11393 132.0
64.151451 172.0
64.171364 136.0
64.18412 328.0
64.211227 128.0
64.257492 152.0
64.273445 276.0
64.297638 100.0
64.326401 196.0
64.34095 176.0
64.359138 164.0
64.363174 112.0
64.369835 188.0
64.41394 48.0
64.437904 176.0
64.473061 200.0
64.495438 148.0
64.521019 344.0
64.557877 156.0
64.578583 216.0
64.605782 156.0
64.660965 180.0
64.679832 188.0
64.713013 236.0
64.735428 72.0
64.753464 204.0
64.779114 116.0
64.791618 152.0
64.819633 224.0
64.836967 164.0
64.850784 116.0
64.864876 232.0
64.876427 176.0
64.88765 156.0
64.92453 316.0
64.946991 208.0
64.972527 148.0
65.011429 168.0
65.045113 184.0
65.074326 176.0
65.096245 172.0
65.138878 148.0
65.161873 112.0
65.228561 172.0
65.235695 208.0
65.24147 336.0
65.282661 212.0
65.322327 260.0
65.340569 256.0
65.353905 140.0
65.414276 160.0
65.456459 132.0
65.494377 188.0
65.516968 224.0
65.550568 128.0
65.56601 152.0
65.577293 172.0
65.592567 216.0
65.606453 220.0
65.627266 160.0
65.679787 188.0
65.704453 252.0
65.754608 260.0
65.75872 124.0
65.816872 164.0
65.843506 176.0
65.867737 176.0
65.885086 200.0
65.888954 148.0
65.894112 220.0
65.908127 52.0
65.926559 156.0
65.948524 144.0
65.966309 184.0
66.020195 220.0
66.03244 160.0
66.045547 180.0
66.060875 196.0
66.077103 116.0
66.111633 132.0
66.163818 136.0
66.189583 92.0
66.244652 236.0
66.259109 176.0
66.261238 152.0
66.267792 352.0
66.306229 224.0
66.327667 160.0
66.341888 100.0
66.364944 164.0
66.460663 136.0
66.486252 200.0
66.512215 184.0
66.537933 224.0
66.590698 184.0
66.60701 180.0
66.637268 140.0
66.671394 120.0
66.687515 204.0
66.739319 264.0
66.750351 140.0
66.756157 168.0
66.79171 356.0
66.816452 268.0
66.836266 156.0
66.861671 96.0
66.895119 168.0
66.92028 140.0
66.949585 112.0
66.982162 152.0
67.010208 196.0
67.036331 196.0
67.057114 140.0
67.080429 288.0
67.094612 200.0
67.11644 144.0
67.130486 216.0
67.187569 148.0
67.212997 316.0
67.234894 200.0
67.250999 60.0
67.265816 144.0
67.280594 244.0
67.315819 204.0
67.324013 176.0
67.338539 324.0
67.385124 180.0
67.399879 140.0
67.41658 152.0
67.427612 156.0
67.437759 172.0
67.475014 120.0
67.486862 164.0
67.514259 168.0
67.538795 164.0
67.558426 124.0
67.593925 368.0
67.629364 164.0
67.660545 220.0
67.707581 228.0
67.724968 200.0
67.764709 104.0
67.784569 204.0
67.800766 248.0
67.817154 80.0
67.869614 400.0
67.900772 132.0
67.925377 96.0
67.946701 188.0
67.969887 124.0
67.989532 40.0
68.013985 220.0
68.028763 152.0
68.063385 228.0
68.074661 88.0
68.078911 140.0
68.084747 164.0
68.110115 348.0
68.140915 208.0
68.153587 304.0
68.17823 132.0
68.209465 172.0
68.243988 48.0
68.263275 164.0
68.295799 332.0
68.33445 104.0
68.352547 208.0
68.372375 156.0
68.401924 140.0
68.413452 136.0
68.434662 140.0
68.438461 124.0
68.443489 164.0
68.464767 120.0
68.491943 144.0
68.534767 240.0
68.541473 192.0
68.578926 140.0
68.596306 372.0
68.607849 148.0
68.6297 208.0
68.655434 196.0
68.670509 208.0
68.716698 140.0
68.736176 164.0
68.753006 196.0
68.792618 172.0
68.811554 148.0
68.82795 188.0
68.858665 176.0
68.886749 168.0
68.897362 160.0
68.904045 68.0
68.910942 192.0
68.932541 84.0
68.945663 152.0
69.010399 148.0
69.028893 208.0
69.078506 188.0
69.111603 128.0
69.12838 144.0
69.169846 144.0
69.189117 192.0
69.197914 188.0
69.224159 136.0
69.244186 164.0
69.292076 136.0
69.31855 196.0
69.373283 152.0
69.391838 168.0
69.408867 208.0
69.428078 256.0
69.442924 80.0
69.466148 156.0
69.514771 172.0
69.540817 116.0
69.562401 152.0
69.586044 180.0
69.61055 132.0
69.624634 200.0
69.642105 140.0
69.655396 188.0
69.675331 132.0
69.700867 152.0
69.716873 128.0
69.735153 152.0
69.765076 116.0
69.791672 180.0
69.814491 128.0
69.834915 64.0
69.848625 164.0
69.871513 52.0
69.913109 120.0
69.930511 140.0
69.974136 228.0
70.022102 240.0
70.066261 148.0
70.102959 156.0
70.114624 140.0
70.132965 148.0
70.146919 160.0
70.196793 332.0
70.211327 396.0
70.226334 112.0
70.246353 84.0
70.269554 156.0
70.286392 212.0
70.366402 180.0
70.384048 128.0
70.400414 132.0
70.418846 332.0
70.434982 196.0
70.458374 192.0
70.480095 76.0
70.496803 160.0
70.510071 132.0
70.545273 96.0
70.565735 208.0
70.583733 140.0
70.608276 160.0
70.640594 184.0
70.664017 180.0
70.687447 152.0
70.709198 72.0
70.747955 156.0
70.787888 136.0
70.829758 148.0
70.900383 132.0
70.916893 160.0
70.952095 152.0
70.97892 212.0
71.002396 208.0
71.023354 428.0
71.041565 148.0
71.067635 180.0
71.109772 196.0
71.128242 156.0
71.154472 160.0
71.175339 148.0
71.210518 124.0
71.25251 168.0
71.292336 120.0
71.319733 144.0
71.338219 120.0
71.383621 156.0
71.424461 140.0
71.477821 128.0
71.501381 52.0
71.516083 212.0
71.567673 212.0
71.583878 280.0
71.617561 316.0
71.646194 180.0
71.661362 176.0
71.692253 192.0
71.713448 176.0
71.762489 200.0
71.775696 168.0
71.786629 152.0
71.79142 180.0
71.817383 204.0
71.848503 156.0
71.874283 232.0
71.897438 156.0
71.914322 112.0
71.930862 180.0
71.949692 172.0
71.975021 212.0
72.000961 240.0
72.018799 196.0
72.038681 148.0
72.056168 156.0
72.074753 76.0
72.095871 144.0
72.108559 284.0
72.127113 192.0
72.152504 132.0
72.166031 188.0
72.182846 144.0
72.20472 164.0
72.228607 184.0
72.252289 288.0
72.282745 176.0
72.326866 176.0
72.340294 108.0
72.362244 112.0
72.39109 188.0
72.44059 136.0
72.470848 188.0
72.485954 176.0
72.504868 228.0
72.530022 116.0
72.554512 152.0
72.584229 148.0
72.597298 468.0
72.636597 136.0
72.642456 196.0
72.662384 156.0
72.677567 124.0
72.713203 120.0
72.726784 236.0
72.772621 172.0
72.784508 112.0
72.797386 124.0
72.851578 212.0
72.909691 220.0
72.938263 208.0
72.961212 184.0
72.97821 156.0
72.992821 196.0
73.042442 188.0
73.055984 148.0
73.08094 264.0
73.112389 164.0
73.134727 352.0
73.148346 300.0
73.213173 156.0
73.245407 156.0
73.281494 180.0
73.31015 140.0
73.323784 84.0
73.337418 32.0
73.357872 196.0
73.369812 188.0
73.393677 168.0
73.417557 176.0
73.456284 148.0
73.475395 204.0
73.504555 132.0
73.538689 156.0
73.553589 236.0
73.60527 88.0
73.631523 376.0
73.649323 176.0
73.668602 256.0
73.688797 204.0
73.711182 140.0
73.725578 200.0
73.759033 176.0
73.776985 204.0
73.800102 240.0
73.830765 172.0
73.847954 64.0
73.863342 260.0
73.887299 152.0
73.924942 144.0
73.93692 120.0
73.967728 200.0
73.979713 56.0
74.000526 128.0
74.02124 140.0
74.044098 120.0
74.087601 72.0
74.105026 168.0
74.140503 164.0
74.160271 156.0
74.189331 216.0
74.217865 224.0
74.279343 236.0
74.285378 116.0
74.292336 152.0
74.306732 148.0
74.327309 264.0
74.345016 196.0
74.379135 120.0
74.396301 104.0
74.408318 56.0
74.423767 148.0
74.478333 52.0
74.499939 188.0
74.517532 132.0
74.59214 64.0
74.625832 184.0
74.645439 220.0
74.663803 188.0
74.688431 136.0
74.701279 188.0
74.715294 124.0
74.718582 76.0
74.728256 192.0
74.74865 132.0
74.790565 192.0
74.811249 184.0
74.855377 120.0
74.895966 92.0
74.900589 112.0
74.937706 176.0
74.942688 140.0
74.948502 132.0
74.986504 180.0
75.011932 296.0
75.014709 168.0
75.075035 156.0
75.130119 164.0
75.143234 296.0
75.156403 216.0
75.227806 196.0
75.255333 148.0
75.270966 156.0
75.295143 148.0
75.343513 172.0
75.352791 108.0
75.360855 104.0
75.379799 120.0
75.431419 244.0
75.498375 324.0
75.525787 156.0
75.538864 424.0
75.550934 176.0
75.58461 200.0
75.644363 116.0
75.667236 200.0
75.680779 176.0
75.705246 312.0
75.724075 140.0
75.777779 48.0
75.795059 164.0
75.838318 120.0
75.866165 112.0
75.878304 64.0
75.890442 136.0
75.909515 156.0
75.935524 152.0
75.965012 224.0
76.004921 164.0
76.043098 192.0
76.073692 224.0
76.095177 228.0
76.120506 200.0
76.142067 120.0
76.161171 164.0
76.175064 136.0
76.188965 384.0
76.201126 228.0
76.228546 164.0
76.241608 176.0
76.267166 176.0
76.282402 204.0
76.307693 152.0
76.3228 144.0
76.362793 144.0
76.380188 204.0
76.397583 124.0
76.412376 72.0
76.426895 232.0
76.449783 144.0
76.467186 80.0
76.47937 224.0
76.498215 280.0
76.520981 368.0
76.53334 172.0
76.577095 228.0
76.630577 208.0
76.660332 320.0
76.684906 148.0
76.716278 100.0
76.745918 112.0
76.767799 328.0
76.79126 208.0
76.849472 172.0
76.858032 180.0
76.898399 136.0
76.925621 160.0
76.962288 200.0
76.992416 172.0
77.014679 136.0
77.04612 152.0
77.072327 120.0
77.096207 136.0
77.119469 140.0
77.137314 176.0
77.172836 64.0
77.187698 112.0
77.216209 260.0
77.251366 220.0
77.281204 224.0
77.303154 52.0
77.334656 136.0
77.371422 120.0
77.390572 136.0
77.430283 260.0
77.443214 280.0
77.494019 168.0
77.55571 160.0
77.597397 200.0
77.614967 172.0
77.627235 200.0
77.650307 156.0
77.663696 360.0
77.702667 72.0
77.725731 220.0
77.745148 76.0
77.768425 144.0
77.792168 152.0
77.834572 184.0
77.853386 148.0
77.866028 160.0
77.886993 168.0
77.927399 148.0
77.939697 240.0
77.96315 128.0
77.996567 212.0
78.016098 368.0
78.059235 160.0
78.083855 132.0
78.143394 184.0
78.226379 196.0
78.238708 244.0
78.263855 168.0
78.288689 172.0
78.315887 140.0
78.366219 304.0
78.400757 184.0
78.423073 200.0
78.446587 156.0
78.465981 264.0
78.480087 96.0
78.499481 344.0
78.53299 136.0
78.546021 220.0
78.569855 156.0
78.578674 152.0
78.600029 112.0
78.614151 140.0
78.640511 132.0
78.677689 128.0
78.728897 152.0
78.757156 216.0
78.771286 208.0
78.783371 124.0
78.806625 96.0
78.831123 180.0
78.888428 236.0
78.916206 152.0
78.946648 168.0
78.969261 224.0
78.986954 160.0
79.021889 224.0
79.042336 236.0
79.061264 160.0
79.080734 112.0
79.098434 132.0
79.125725 156.0
79.146088 48.0
79.167488 124.0
79.19429 232.0
79.217659 196.0
79.261375 180.0
79.293312 164.0
79.319267 120.0
79.35804 224.0
79.371719 160.0
79.394333 140.0
79.410294 156.0
79.422707 160.0
79.44577 208.0
79.474159 144.0
79.492867 228.0
79.532722 172.0
79.55941 116.0
79.639626 152.0
79.667679 216.0
79.689003 136.0
79.729874 224.0
79.745865 296.0
79.786751 148.0
79.80809 136.0
79.831207 148.0
79.88279 196.0
79.921127 248.0
79.931488 216.0
79.945061 220.0
79.977097 132.0
79.994896 192.0
80.037323 164.0
80.076805 152.0
80.109085 168.0
80.125023 184.0
80.162323 180.0
80.180145 196.0
80.195839 184.0
80.22979 160.0
80.260368 132.0
80.287117 196.0
80.304947 136.0
80.337059 172.0
80.36763 240.0
80.392372 188.0
80.410217 164.0
80.471855 212.0
80.504395 176.0
80.558914 372.0
80.592125 172.0
80.620964 104.0
80.633476 124.0
80.666626 220.0
80.703194 180.0
80.72332 220.0
80.754593 124.0
80.783722 148.0
80.810509 80.0
80.828407 104.0
80.858826 136.0
80.877693 208.0
80.934975 172.0
80.990692 200.0
80.997231 176.0
81.049202 316.0
81.089874 124.0
81.111191 148.0
81.149284 224.0
81.172768 152.0
81.194275 120.0
81.214561 140.0
81.238701 212.0
81.260231 164.0
81.28894 196.0
81.326271 180.0
81.346375 192.0
81.39257 244.0
81.418015 156.0
81.439751 188.0
81.472084 200.0
81.484375 148.0
81.510941 200.0
81.540672 188.0
81.593285 256.0
81.633858 112.0
81.65004 220.0
81.663483 160.0
81.685974 168.0
81.715263 156.0
81.793983 148.0
81.811989 136.0
81.829994 188.0
81.857002 212.0
81.873169 176.0
81.877144 172.0
81.882523 208.0
81.904327 104.0
81.941658 188.0
81.95607 156.0
81.992004 132.0
81.996483 104.0
82.00309 176.0
82.021301 216.0
82.044388 160.0
82.071182 228.0
82.102089 152.0
82.12764 144.0
82.159813 112.0
82.239212 176.0
82.255562 212.0
82.295174 216.0
82.306839 160.0
82.334229 192.0
82.353996 196.0
82.40535 112.0
82.439865 200.0
82.47583 120.0
82.510223 164.0
82.522835 212.0
82.561401 148.0
82.598152 124.0
82.653725 200.0
82.689262 192.0
82.756248 288.0
82.785446 188.0
82.808762 184.0
82.826874 116.0
82.84639 176.0
82.873978 200.0
82.915031 128.0
82.930161 172.0
82.962791 156.0
82.994423 152.0
83.011742 156.0
83.032829 192.0
83.057961 248.0
83.07341 148.0
83.10244 140.0
83.124214 100.0
83.156326 144.0
83.171204 72.0
83.181534 152.0
83.205894 188.0
83.249886 176.0
83.278534 160.0
83.304741 160.0
83.31398 132.0
83.327583 204.0
83.340302 160.0
83.356651 252.0
83.38028 184.0
83.418289 176.0
83.449905 172.0
83.488174 196.0
83.510506 160.0
83.582138 80.0
83.659683 292.0
83.684074 484.0
83.758293 164.0
83.782425 152.0
83.819374 172.0
83.849846 112.0
83.90448 156.0
83.927795 168.0
83.957413 256.0
83.979294 204.0
84.003006 108.0
84.022469 132.0
84.041649 160.0
84.08165 124.0
84.110374 172.0
84.132584 104.0
84.145363 96.0
84.161797 96.0
84.174576 192.0
84.188446 148.0
84.289093 208.0
84.336716 112.0
84.35363 204.0
84.394821 180.0
84.424934 300.0
84.457855 328.0
84.490784 192.0
84.528206 240.0
84.558495 48.0
84.577263 172.0
84.600685 164.0
84.636124 180.0
84.666512 88.0
84.716209 180.0
84.803925 208.0
84.838196 144.0
84.843887 100.0
84.893951 304.0
84.923103 80.0
84.967453 364.0
85.001884 324.0
85.0177 216.0
85.050354 148.0
85.057442 188.0
85.077301 160.0
85.09671 200.0
85.104546 120.0
85.1091 184.0
85.126823 172.0
85.172646 160.0
85.184158 184.0
85.228615 176.0
85.253731 348.0
85.28566 184.0
85.310562 176.0
85.339737 212.0
85.360207 180.0
85.396988 252.0
85.412338 416.0
85.449112 148.0
85.461372 208.0
85.487663 140.0
85.505539 120.0
85.519577 192.0
85.546036 108.0
85.562607 92.0
85.57653 192.0
85.595749 220.0
85.616005 32.0
85.651001 116.0
85.676788 140.0
85.699562 200.0
85.732918 168.0
85.75309 192.0
85.776306 196.0
85.797745 380.0
85.816864 44.0
85.844704 216.0
85.869194 180.0
85.888222 196.0
85.940445 68.0
85.970932 184.0
85.995811 264.0
86.082237 192.0
86.10659 196.0
86.164101 188.0
86.175812 128.0
86.204506 188.0
86.248863 120.0
86.296928 132.0
86.311722 52.0
86.331116 148.0
86.361938 192.0
86.37645 140.0
86.391251 144.0
86.411606 116.0
86.470001 172.0
86.495979 220.0
86.529594 160.0
86.550362 396.0
86.585381 164.0
86.611542 184.0
86.653137 156.0
86.670341 124.0
86.73584 264.0
86.814423 176.0
86.852509 152.0
86.876381 180.0
86.89518 180.0
86.919479 168.0
86.944107 152.0
86.978195 104.0
87.033669 248.0
87.071526 164.0
87.102654 248.0
87.132828 224.0
87.156982 188.0
87.186714 180.0
87.262932 184.0
87.304878 172.0
87.355919 204.0
87.381966 236.0
87.409409 160.0
87.466377 180.0
87.482468 160.0
87.517838 184.0
87.543907 220.0
87.566261 88.0
87.584885 112.0
87.603378 148.0
87.627731 164.0
87.655632 152.0
87.682846 244.0
87.69622 64.0
87.701645 188.0
87.724648 56.0
87.748878 204.0
87.787498 304.0
87.829506 188.0
87.916817 144.0
87.933563 104.0
87.959694 156.0
88.001549 148.0
88.025803 264.0
88.049316 124.0
88.067993 144.0
88.133492 332.0
88.165146 136.0
88.189445 136.0
88.217766 188.0
88.246971 176.0
88.316597 136.0
88.339043 36.0
88.375084 136.0
88.395134 184.0
88.418457 212.0
88.436348 104.0
88.470039 136.0
88.509361 176.0
88.561798 76.0
88.579834 216.0
88.621742 32.0
88.640274 184.0
88.68734 128.0
88.73233 136.0
88.754829 88.0
88.772598 176.0
88.822021 208.0
88.859863 132.0
88.873001 40.0
88.903023 156.0
88.925079 240.0
88.944321 164.0
88.9692 140.0
89.004395 160.0
89.045708 92.0
89.087929 216.0
89.103943 224.0
89.122734 224.0
89.154678 124.0
89.180084 200.0
89.194153 120.0
89.214828 200.0
89.24366 188.0
89.272003 284.0
89.285927 148.0
89.330261 176.0
89.377663 168.0
89.400627 236.0
89.465042 168.0
89.49382 140.0
89.50811 256.0
89.537544 144.0
89.558289 280.0
89.59687 160.0
89.637085 108.0
89.651512 164.0
89.666595 188.0
89.696747 132.0
89.740112 264.0
89.760277 144.0
89.779732 372.0
89.832062 180.0
89.849182 192.0
89.881577 140.0
89.895264 48.0
89.926186 208.0
89.949524 152.0
89.977844 404.0
90.008049 180.0
90.045013 168.0
90.090012 172.0
90.128761 124.0
90.144913 196.0
90.183754 132.0
90.197395 200.0
90.227226 160.0
90.248024 68.0
90.263153 60.0
90.285851 116.0
90.313713 196.0
90.319054 144.0
90.367188 200.0
90.386108 168.0
90.409943 256.0
90.471962 212.0
90.519981 172.0
90.545128 164.0
90.575439 112.0
90.603851 316.0
90.622231 160.0
90.634697 172.0
90.673965 144.0
90.696793 176.0
90.730835 136.0
90.763062 64.0
90.780128 176.0
90.836922 208.0
90.844154 196.0
90.847038 160.0
90.864517 156.0
90.880859 176.0
90.886436 196.0
90.934532 220.0
90.954681 208.0
90.967972 204.0
90.996452 200.0
91.011642 176.0
91.039421 260.0
91.062851 200.0
91.089508 112.0
91.133583 140.0
91.157356 180.0
91.17881 152.0
91.192429 344.0
91.22126 204.0
91.229485 176.0
91.235519 144.0
91.265945 148.0
91.292877 160.0
91.313507 180.0
91.349937 200.0
91.423195 160.0
91.43824 256.0
91.466019 288.0
91.515518 56.0
91.590134 200.0
91.625984 164.0
91.639328 84.0
91.65741 376.0
91.690773 216.0
91.711739 176.0
91.732712 164.0
91.751076 268.0
91.830345 216.0
91.847122 60.0
91.871346 172.0
91.887222 204.0
91.911995 192.0
91.952263 196.0
91.977783 272.0
92.023994 2360.0
92.064713 128.0
92.081383 200.0
92.114372 112.0
92.129814 232.0
92.162132 164.0
92.244316 148.0
92.287163 184.0
92.312752 168.0
92.34185 220.0
92.362274 132.0
92.378174 120.0
92.416443 180.0
92.435638 256.0
92.453384 184.0
92.477684 68.0
92.514053 148.0
92.560005 184.0
92.586815 172.0
92.614395 172.0
92.654411 180.0
92.690903 204.0
92.709427 124.0
92.740089 220.0
92.761559 140.0
92.801849 92.0
92.823105 120.0
92.830605 152.0
92.845543 176.0
92.913094 184.0
92.961571 384.0
92.979836 144.0
93.02758 208.0
93.05854 52.0
93.078293 140.0
93.098869 92.0
93.162254 132.0
93.175705 200.0
93.234215 204.0
93.27179 84.0
93.3237 248.0
93.367409 148.0
93.372383 216.0
93.402863 224.0
93.419861 140.0
93.461395 116.0
93.512222 168.0
93.55838 172.0
93.569695 300.0
93.596672 168.0
93.648392 172.0
93.668045 156.0
93.685982 172.0
93.737556 160.0
93.768906 180.0
93.814651 48.0
93.839714 132.0
93.871719 208.0
93.947868 312.0
93.968513 164.0
93.978935 156.0
94.039673 10692.0
94.075089 220.0
94.115631 80.0
94.134789 196.0
94.167778 196.0
94.19693 216.0
94.243118 60.0
94.283699 192.0
94.339752 188.0
94.362457 204.0
94.380356 140.0
94.401398 168.0
94.436584 156.0
94.477058 148.0
94.492538 208.0
94.510704 392.0
94.557838 340.0
94.598984 140.0
94.623482 116.0
94.662392 220.0
94.709358 196.0
94.777168 200.0
94.806236 88.0
94.82254 116.0
94.851891 144.0
94.883766 136.0
94.90316 172.0
94.930305 164.0
94.950279 80.0
94.973595 224.0
94.989914 196.0
95.011772 80.0
95.041016 912.0
95.080597 168.0
95.097153 176.0
95.153816 244.0
95.173401 160.0
95.18222 44.0
95.187836 152.0
95.213646 96.0
95.253548 328.0
95.267159 204.0
95.286797 244.0
95.294846 160.0
95.298508 212.0
95.308205 136.0
95.321388 264.0
95.343819 88.0
95.367882 452.0
95.386093 192.0
95.404793 228.0
95.423515 104.0
95.439072 108.0
95.490707 164.0
95.511024 124.0
95.524643 136.0
95.55188 144.0
95.574356 160.0
95.601608 160.0
95.620033 184.0
95.63945 192.0
95.657356 184.0
95.66449 204.0
95.670082 212.0
95.715012 188.0
95.731552 132.0
95.75238 336.0
95.78688 152.0
95.801079 48.0
95.821732 180.0
95.841995 140.0
95.879913 208.0
95.929703 108.0
95.974541 52.0
95.999725 188.0
96.030945 208.0
96.048653 152.0
96.070107 164.0
96.090652 144.0
96.111977 108.0
96.134651 196.0
96.158897 120.0
96.171585 152.0
96.20121 356.0
96.229385 176.0
96.276894 220.0
96.307953 176.0
96.353401 152.0
96.365364 156.0
96.386414 56.0
96.403999 192.0
96.429688 164.0
96.446999 116.0
96.478333 152.0
96.516479 132.0
96.556488 188.0
96.584953 228.0
96.617126 184.0
96.64035 292.0
96.663414 220.0
96.688744 160.0
96.708214 300.0
96.745857 144.0
96.785454 116.0
96.809013 160.0
96.834663 156.0
96.873589 216.0
96.919281 112.0
96.937477 244.0
96.973526 124.0
97.027046 144.0
97.051941 228.0
97.102654 232.0
97.159813 56.0
97.179436 196.0
97.207237 164.0
97.255974 140.0
97.271675 140.0
97.314865 108.0
97.3368 236.0
97.351616 196.0
97.355545 140.0
97.389488 104.0
97.421097 136.0
97.46846 204.0
97.530083 176.0
97.544724 172.0
97.564003 124.0
97.584602 156.0
97.619438 96.0
97.637138 144.0
97.654839 104.0
97.675423 320.0
97.710381 204.0
97.780762 232.0
97.830879 376.0
97.884766 236.0
97.924492 108.0
97.944191 136.0
97.957977 112.0
97.97374 80.0
98.012047 144.0
98.027832 212.0
98.052559 208.0
98.072266 340.0
98.111694 200.0
98.127693 204.0
98.152008 152.0
98.179367 304.0
98.221573 200.0
98.250359 168.0
98.273422 188.0
98.298126 184.0
98.316833 224.0
98.338615 112.0
98.360252 204.0
98.409615 252.0
98.462929 132.0
98.497475 344.0
98.522186 216.0
98.545898 152.0
98.563683 148.0
98.581009 292.0
98.63681 172.0
98.658501 156.0
98.696167 160.0
98.7229 176.0
98.74881 124.0
98.767319 612.0
98.806419 136.0
98.821808 140.0
98.846451 156.0
98.868744 136.0
98.874397 132.0
98.881027 384.0
98.906555 196.0
98.928017 212.0
98.944702 188.0
98.990967 152.0
99.049858 152.0
99.07415 196.0
99.119499 208.0
99.151718 168.0
99.189095 156.0
99.208916 160.0
99.222794 112.0
99.271202 252.0
99.3041 48.0
99.339806 124.0
99.383453 52.0
99.397339 68.0
99.412979 168.0
99.445564 188.0
99.489136 140.0
99.522392 212.0
99.536507 184.0
99.556152 296.0
99.576012 204.0
99.601654 220.0
99.621696 188.0
99.671562 252.0
99.687271 180.0
99.725029 140.0
99.749298 180.0
99.847435 176.0
99.909966 52.0
99.938522 160.0
99.960007 164.0
99.99752 152.0
100.05127 128.0
100.072449 144.0
100.085503 164.0
100.120956 120.0
100.142868 168.0
100.182709 228.0
100.210602 148.0
100.24929 164.0
100.298286 44.0
100.322212 184.0
100.336166 180.0
100.360092 168.0
100.384727 280.0
100.405952 156.0
100.455826 164.0
100.475906 120.0
100.512688 168.0
100.543617 216.0
100.577461 448.0
100.605492 156.0
100.633446 144.0
100.680153 184.0
100.732597 196.0
100.766808 192.0
100.796295 156.0
100.916008 144.0
100.971169 128.0
100.987167 192.0
101.013252 168.0
101.028732 280.0
101.04454 228.0
101.067184 84.0
101.083199 60.0
101.101204 156.0
101.123222 124.0
101.163254 232.0
101.194626 156.0
101.265381 172.0
101.31546 32.0
101.348633 180.0
101.362419 164.0
101.41391 156.0
101.485825 184.0
101.518936 220.0
101.576073 164.0
101.590111 160.0
101.621101 144.0
101.698471 188.0
101.719261 168.0
101.753777 228.0
101.788818 132.0
101.814926 216.0
101.847061 116.0
101.885231 256.0
101.899292 148.0
101.926025 168.0
101.94799 116.0
101.987717 128.0
102.014992 112.0
102.041992 160.0
102.082184 160.0
102.10006 128.0
102.138527 200.0
102.159019 148.0
102.189827 132.0
102.205269 224.0
102.302109 192.0
102.344696 212.0
102.357895 220.0
102.392967 228.0
102.438461 120.0
102.461296 168.0
102.525101 168.0
102.551308 164.0
102.581543 224.0
102.60775 176.0
102.64122 180.0
102.651176 52.0
102.661057 208.0
102.6968 176.0
102.720535 184.0
102.750946 148.0
102.791298 128.0
102.811478 124.0
102.874474 192.0
102.905365 208.0
102.969116 152.0
103.037636 176.0
103.05986 96.0
103.098259 48.0
103.133057 184.0
103.158897 160.0
103.205696 188.0
103.237663 92.0
103.262062 188.0
103.286293 136.0
103.304497 88.0
103.321075 144.0
103.355179 160.0
103.369247 200.0
103.401627 208.0
103.418007 84.0
103.438301 200.0
103.480576 228.0
103.499634 212.0
103.536743 152.0
103.545158 112.0
103.551857 140.0
103.601997 168.0
103.642616 132.0
103.69281 140.0
103.695717 196.0
103.721802 168.0
103.741928 96.0
103.756119 40.0
103.778084 144.0
103.827477 188.0
103.848785 248.0
103.869682 168.0
103.883881 240.0
103.948807 228.0
103.977425 144.0
104.015785 148.0
104.039848 220.0
104.067581 556.0
104.123192 196.0
104.139267 148.0
104.164024 128.0
104.186607 172.0
104.235527 208.0
104.255249 156.0
104.269196 168.0
104.300545 220.0
104.316437 112.0
104.365227 240.0
104.391006 124.0
104.403862 208.0
104.459511 168.0
104.486328 148.0
104.509476 144.0
104.541412 216.0
104.544586 256.0
104.566628 176.0
104.626335 160.0
104.643227 108.0
104.688782 124.0
104.709312 96.0
104.741386 192.0
104.778404 180.0
104.799889 280.0
104.822121 124.0
104.835457 176.0
104.857323 176.0
104.906799 68.0
104.967964 124.0
104.984283 176.0
105.002632 136.0
105.03035 184.0
105.067909 192.0
105.108147 200.0
105.159653 188.0
105.171448 136.0
105.227104 88.0
105.260765 280.0
105.302658 200.0
105.321907 168.0
105.353729 156.0
105.401352 220.0
105.432716 116.0
105.453857 152.0
105.470207 116.0
105.515182 136.0
105.535629 132.0
105.570076 232.0
105.594872 128.0
105.645302 212.0
105.690895 172.0
105.706573 260.0
105.721268 176.0
105.746338 204.0
105.781891 228.0
105.817986 132.0
105.843178 132.0
105.893761 128.0
105.928436 116.0
105.987999 124.0
106.014885 164.0
106.074074 132.0
106.095284 204.0
106.139824 116.0
106.224503 316.0
106.299232 256.0
106.326363 156.0
106.346893 124.0
106.385895 164.0
106.42028 96.0
106.439278 152.0
106.47213 120.0
106.531807 152.0
106.554298 128.0
106.574844 176.0
106.6008 152.0
106.621506 136.0
106.649696 208.0
106.665276 136.0
106.692001 52.0
106.753685 132.0
106.78511 172.0
106.800987 184.0
106.814507 220.0
106.831848 184.0
106.854073 144.0
106.881088 180.0
106.901802 232.0
106.935097 136.0
106.976189 144.0
106.998543 160.0
107.085564 140.0
107.105629 120.0
107.173615 188.0
107.223961 196.0
107.248116 160.0
107.284912 124.0
107.309654 164.0
107.356689 240.0
107.390213 188.0
107.467072 212.0
107.505615 152.0
107.534828 208.0
107.55291 188.0
107.575256 168.0
107.613213 196.0
107.634415 164.0
107.658386 212.0
107.674911 164.0
107.693497 192.0
107.72242 168.0
107.753403 48.0
107.778198 212.0
107.812721 176.0
107.831932 300.0
107.877365 192.0
107.925804 156.0
107.940056 160.0
107.96273 180.0
107.980797 160.0
108.020096 44.0
108.047874 180.0
108.191643 348.0
108.225555 176.0
108.240776 192.0
108.287636 144.0
108.295692 168.0
108.34304 128.0
108.367592 340.0
108.40728 176.0
108.430077 216.0
108.452873 332.0
108.498528 176.0
108.607544 128.0
108.635353 132.0
108.670654 292.0
108.695717 132.0
108.724213 204.0
108.774391 204.0
108.801384 232.0
108.830444 124.0
108.855263 156.0
108.880783 168.0
108.916946 160.0
108.944679 144.0
108.961296 184.0
108.977631 204.0
108.998703 148.0
109.025719 164.0
109.050163 8676.0
109.085991 140.0
109.126732 128.0
109.154602 80.0
109.169159 264.0
109.248772 176.0
109.275246 224.0
109.293976 168.0
109.326439 140.0
109.354324 344.0
109.373062 212.0
109.399109 304.0
109.464668 192.0
109.504143 240.0
109.510704 176.0
109.562561 148.0
109.589668 208.0
109.610039 168.0
109.643074 188.0
109.675095 104.0
109.696503 148.0
109.725121 116.0
109.750145 168.0
109.777252 60.0
109.866943 164.0
109.88781 104.0
109.93367 196.0
109.949074 300.0
109.963341 164.0
109.969719 32.0
109.977158 172.0
109.998413 116.0
110.023468 208.0
110.054428 508.0
110.076256 196.0
110.092377 168.0
110.120834 280.0
110.181046 320.0
110.202927 208.0
110.210312 192.0
110.25647 44.0
110.284744 108.0
110.303406 148.0
110.330223 212.0
110.360138 144.0
110.372604 160.0
110.391212 152.0
110.440079 204.0
110.486847 176.0
110.548111 136.0
110.598747 192.0
110.619278 144.0
110.666733 240.0
110.711403 324.0
110.747009 180.0
110.781296 240.0
110.822426 384.0
110.85305 368.0
110.891586 304.0
110.90699 332.0
110.972099 176.0
111.003326 280.0
111.093513 200.0
111.122261 196.0
111.149178 324.0
111.176102 152.0
111.208298 144.0
111.237892 164.0
111.265755 172.0
111.33654 140.0
111.362312 80.0
111.375854 140.0
111.39006 164.0
111.411987 136.0
111.502342 176.0
111.556602 212.0
111.584328 176.0
111.602768 188.0
111.621101 180.0
111.657928 168.0
111.674339 204.0
111.727341 180.0
111.758904 128.0
111.77784 128.0
111.839958 144.0
111.853607 172.0
111.87014 340.0
111.933945 152.0
111.955803 216.0
111.99469 192.0
112.052086 180.0
112.072006 120.0
112.075188 152.0
112.138786 196.0
112.171379 160.0
112.179817 136.0
112.22229 92.0
112.237053 128.0
112.277115 172.0
112.295876 224.0
112.33387 172.0
112.342346 156.0
112.363579 184.0
112.395256 320.0
112.43425 176.0
112.466446 144.0
112.483894 216.0
112.498672 128.0
112.536209 72.0
112.576103 220.0
112.608665 180.0
112.703545 164.0
112.725784 160.0
112.754745 192.0
112.838219 156.0
112.858246 172.0
112.884781 168.0
112.90065 164.0
112.950333 372.0
112.981995 172.0
113.006821 176.0
113.048225 204.0
113.0811 344.0
113.103256 148.0
113.127731 176.0
113.195572 176.0
113.246994 136.0
113.337685 196.0
113.36911 168.0
113.411606 216.0
113.450668 48.0
113.465508 144.0
113.515015 196.0
113.537605 84.0
113.565178 164.0
113.603363 172.0
113.636177 240.0
113.652161 180.0
113.667015 188.0
113.696724 152.0
113.739174 96.0
113.764999 192.0
113.830223 380.0
113.845329 140.0
113.904274 176.0
113.926086 192.0
113.965324 156.0
113.987663 156.0
114.01104 176.0
114.070732 144.0
114.115196 132.0
114.146988 156.0
114.174744 116.0
114.202393 68.0
114.266212 168.0
114.281105 108.0
114.299515 92.0
114.360512 128.0
114.41732 280.0
114.438614 108.0
114.461105 156.0
114.511017 188.0
114.534348 172.0
114.657417 112.0
114.692123 104.0
114.717705 84.0
114.736893 176.0
114.770523 176.0
114.788071 168.0
114.832855 100.0
114.86335 176.0
114.896172 164.0
114.917908 184.0
114.926079 160.0
114.986137 128.0
115.035568 152.0
115.066284 236.0
115.101753 164.0
115.118835 48.0
115.144463 168.0
115.167961 188.0
115.200111 152.0
115.246056 208.0
115.279846 196.0
115.343178 132.0
115.361862 216.0
115.398758 200.0
115.428696 140.0
115.480125 168.0
115.499275 212.0
115.520996 52.0
115.578926 156.0
115.604111 140.0
115.638359 184.0
115.655273 124.0
115.683304 220.0
115.706856 80.0
115.756104 188.0
115.779663 168.0
115.808006 188.0
115.85463 144.0
115.874329 252.0
115.929626 56.0
115.968201 140.0
115.991074 276.0
116.013222 156.0
116.057213 172.0
116.090408 172.0
116.137596 172.0
116.169594 196.0
116.210533 116.0
116.240578 200.0
116.264183 152.0
116.289474 112.0
116.304863 172.0
116.352188 56.0
116.427345 72.0
116.461823 152.0
116.481041 168.0
116.511116 104.0
116.539047 196.0
116.567253 132.0
116.609962 172.0
116.631454 160.0
116.687874 288.0
116.717453 176.0
116.751862 40.0
116.779106 168.0
116.79583 172.0
116.857269 48.0
116.884048 384.0
116.917519 296.0
116.958412 272.0
117.008133 336.0
117.081139 80.0
117.118729 164.0
117.161545 328.0
117.177483 160.0
117.314552 220.0
117.356232 176.0
117.376968 160.0
117.386765 44.0
117.393059 152.0
117.436501 160.0
117.454544 164.0
117.498047 176.0
117.512672 240.0
117.540314 240.0
117.593719 188.0
117.643997 204.0
117.67878 136.0
117.702209 196.0
117.717331 152.0
117.748146 404.0
117.779884 204.0
117.825325 184.0
117.855576 120.0
117.870705 100.0
117.949638 148.0
117.990372 208.0
118.013367 200.0
118.071701 160.0
118.114899 76.0
118.138809 164.0
118.155754 160.0
118.184242 76.0
118.236176 164.0
118.257469 184.0
118.283798 140.0
118.35704 140.0
118.380226 164.0
118.442368 140.0
118.470688 240.0
118.487366 168.0
118.524872 148.0
118.534676 120.0
118.542732 156.0
118.560089 100.0
118.574814 112.0
118.621727 136.0
118.654205 196.0
118.680267 136.0
118.705055 316.0
118.745743 136.0
118.773521 204.0
118.794144 148.0
118.826607 204.0
118.855591 324.0
118.897194 152.0
118.915192 256.0
118.930435 168.0
118.958672 476.0
119.008896 472.0
119.035141 141148.0
119.099075 400.0
119.116501 44.0
119.131638 252.0
119.146652 180.0
119.169113 184.0
119.176651 204.0
119.183823 348.0
119.208946 116.0
119.221817 76.0
119.232887 120.0
119.25724 228.0
119.274628 208.0
119.306999 284.0
119.325127 20.0
119.345284 164.0
119.365059 220.0
119.391609 916.0
119.439301 92.0
119.503288 184.0
119.558014 280.0
119.587227 132.0
119.606255 248.0
119.643349 144.0
119.687737 104.0
119.717033 176.0
119.751862 84.0
119.782143 112.0
119.819962 224.0
119.854271 116.0
119.872635 196.0
119.878265 60.0
119.885201 148.0
119.900513 160.0
119.966774 260.0
119.993355 144.0
119.996185 132.0
120.005249 172.0
120.036942 6760.0
120.086395 140.0
120.144028 76.0
120.160507 36.0
120.184212 116.0
120.217049 180.0
120.248947 48.0
120.279327 44.0
120.299271 88.0
120.321701 136.0
120.346336 140.0
120.364471 316.0
120.393417 116.0
120.435249 180.0
120.458817 336.0
120.494461 208.0
120.519562 172.0
120.545784 108.0
120.573875 136.0
120.601845 168.0
120.626656 160.0
120.659447 228.0
120.679123 64.0
120.71154 92.0
120.723953 152.0
120.742821 156.0
120.762001 172.0
120.782555 160.0
120.803322 104.0
120.82785 56.0
120.851242 184.0
120.858482 116.0
120.864792 212.0
120.88633 148.0
120.913063 208.0
120.943832 92.0
120.974792 116.0
120.997284 220.0
121.016487 108.0
121.040489 304.0
121.070427 44.0
121.093887 132.0
121.11853 128.0
121.137711 216.0
121.202667 188.0
121.235313 236.0
121.257141 196.0
121.290817 164.0
121.342537 176.0
121.36795 156.0
121.395538 188.0
121.416046 100.0
121.465355 168.0
121.488052 392.0
121.535027 132.0
121.566277 152.0
121.621315 184.0
121.678673 180.0
121.743248 124.0
121.764122 136.0
121.810135 184.0
121.83416 60.0
121.878098 60.0
121.935234 140.0
121.983597 232.0
122.035187 188.0
122.057953 248.0
122.086937 104.0
122.145325 184.0
122.185921 212.0
122.221771 136.0
122.249733 36.0
122.27684 240.0
122.302124 124.0
122.314682 204.0
122.366394 152.0
122.381805 40.0
122.430252 48.0
122.450073 156.0
122.478706 156.0
122.580055 180.0
122.635338 188.0
122.679237 56.0
122.747017 216.0
122.78508 156.0
122.817223 168.0
122.823677 96.0
122.888596 188.0
122.918213 188.0
122.957169 216.0
122.985863 216.0
123.008278 180.0
123.027802 120.0
123.056847 232.0
123.076729 152.0
123.2089 200.0
123.225761 76.0
123.2995 140.0
123.319077 216.0
123.327309 48.0
123.340431 208.0
123.366577 204.0
123.464546 196.0
123.487427 136.0
123.51416 236.0
123.673286 136.0
123.719772 152.0
123.819519 180.0
123.869255 144.0
123.886208 164.0
123.936829 172.0
123.963417 192.0
123.993675 160.0
124.029907 164.0
124.067596 148.0
124.089767 40.0
124.131462 224.0
124.167381 64.0
124.205086 148.0
124.228638 188.0
124.278175 140.0
124.335999 148.0
124.407028 100.0
124.478874 292.0
124.52346 156.0
124.550125 160.0
124.578026 208.0
124.620239 36.0
124.666901 132.0
124.726509 176.0
124.777191 156.0
124.804726 172.0
124.850998 356.0
124.881493 152.0
124.986244 204.0
125.003311 184.0
125.047211 36.0
125.145164 168.0
125.16861 180.0
125.191887 232.0
125.214195 152.0
125.235397 116.0
125.258743 180.0
125.299858 88.0
125.397575 352.0
125.423683 212.0
125.454529 164.0
125.508652 152.0
125.538757 196.0
125.561882 408.0
125.605789 204.0
125.642181 136.0
125.678726 112.0
125.722511 72.0
125.755989 152.0
125.797562 180.0
125.828636 172.0
125.863922 196.0
125.903397 136.0
125.939079 136.0
125.959183 280.0
125.999893 252.0
126.032913 160.0
126.053024 84.0
126.102577 184.0
126.151367 152.0
126.213966 252.0
126.236328 196.0
126.281059 152.0
126.338394 212.0
126.388611 52.0
126.431229 168.0
126.457817 144.0
126.477623 164.0
126.499268 124.0
126.517265 192.0
126.538406 172.0
126.554077 244.0
126.594391 64.0
126.660889 156.0
126.695183 192.0
126.739243 300.0
126.745903 220.0
126.796021 132.0
126.910347 140.0
126.955193 204.0
126.976456 172.0
127.002914 72.0
127.0494 164.0
127.072784 76.0
127.087547 172.0
127.132851 216.0
127.169022 196.0
127.213226 48.0
127.255882 148.0
127.312019 108.0
127.361435 160.0
127.391388 180.0
127.410858 124.0
127.459618 180.0
127.478264 140.0
127.524582 256.0
127.545692 68.0
127.574913 144.0
127.624374 92.0
127.700836 60.0
127.739075 260.0
127.754822 248.0
127.781029 204.0
127.842575 124.0
127.874084 140.0
127.898842 380.0
127.960045 152.0
127.980324 188.0
128.004669 172.0
128.020432 184.0
128.036194 116.0
128.075424 336.0
128.097 96.0
128.139816 144.0
128.175858 204.0
128.225449 140.0
128.264771 296.0
128.273529 84.0
128.27774 132.0
128.326202 192.0
128.360703 180.0
128.394531 72.0
128.448669 232.0
128.471222 128.0
128.528214 152.0
128.570511 172.0
128.610428 148.0
128.623047 192.0
128.652237 384.0
128.679504 168.0
128.699463 220.0
128.78952 96.0
128.818878 136.0
128.868591 200.0
128.954453 148.0
128.974808 228.0
128.991989 188.0
129.015793 236.0
129.026505 184.0
129.031616 212.0
129.060715 92.0
129.105942 128.0
129.130814 232.0
129.209991 144.0
129.305634 180.0
129.346191 292.0
129.370682 160.0
129.397842 164.0
129.452774 200.0
129.482803 208.0
129.513 212.0
129.570908 156.0
129.606216 224.0
129.631149 168.0
129.657501 132.0
129.675751 212.0
129.701416 212.0
129.73204 148.0
129.766464 144.0
129.801163 180.0
129.823837 112.0
129.853027 124.0
129.869812 136.0
129.903229 108.0
129.932159 144.0
129.9664 184.0
130.003647 252.0
130.068069 144.0
130.080536 184.0
130.114288 300.0
130.157425 160.0
130.221024 100.0
130.256088 200.0
130.262726 88.0
130.269608 144.0
130.348633 168.0
130.377777 104.0
130.393692 188.0
130.413315 296.0
130.455124 176.0
130.486893 208.0
130.511169 184.0
130.547287 148.0
130.566483 124.0
130.589218 120.0
130.611969 152.0
130.632446 128.0
130.658829 80.0
130.706985 168.0
130.730286 172.0
130.768967 164.0
130.800842 288.0
130.819473 172.0
130.881851 124.0
130.907852 156.0
130.930099 140.0
130.9534 124.0
130.985291 144.0
131.042236 100.0
131.092377 160.0
131.108322 288.0
131.149353 168.0
131.183197 208.0
131.191528 176.0
131.234772 144.0
131.263351 76.0
131.331772 32.0
131.360596 184.0
131.454208 168.0
131.475052 152.0
131.492126 464.0
131.583771 144.0
131.604965 176.0
131.658142 156.0
131.719818 196.0
131.750809 184.0
131.764267 192.0
131.786072 176.0
131.811325 152.0
131.832489 140.0
131.840286 44.0
131.846985 128.0
131.870422 188.0
131.918625 120.0
131.938309 136.0
131.991791 160.0
132.014664 164.0
132.035233 160.0
132.080978 104.0
132.103867 124.0
132.14032 64.0
132.211395 120.0
132.238312 180.0
132.25946 300.0
132.330429 136.0
132.369354 156.0
132.415161 160.0
132.443771 164.0
132.500992 60.0
132.596161 172.0
132.612213 132.0
132.64325 132.0
132.705643 180.0
132.731415 160.0
132.747467 148.0
132.777283 60.0
132.830048 188.0
132.889694 92.0
132.962921 176.0
132.977493 216.0
133.062607 212.0
133.203079 196.0
133.234085 52.0
133.256393 248.0
133.284378 188.0
133.31221 172.0
133.334793 196.0
133.360474 200.0
133.413101 136.0
133.482315 148.0
133.58812 88.0
133.613419 164.0
133.643341 124.0
133.664047 176.0
133.680145 224.0
133.712479 356.0
133.737442 188.0
133.785019 172.0
133.815964 196.0
133.845901 100.0
133.894257 160.0
133.910385 92.0
133.942627 140.0
134.007446 172.0
134.043182 148.0
134.099304 192.0
134.121765 204.0
134.168472 168.0
134.187683 144.0
134.209961 192.0
134.285004 112.0
134.304321 196.0
134.330399 184.0
134.353546 144.0
134.363266 160.0
134.394501 212.0
134.440643 128.0
134.48912 156.0
134.528351 120.0
134.566528 300.0
134.581818 180.0
134.59111 220.0
134.61972 240.0
134.667679 228.0
134.733902 224.0
134.754684 208.0
134.804565 148.0
134.84343 308.0
134.872955 116.0
134.915512 232.0
134.945648 248.0
134.96965 156.0
134.995087 144.0
135.034805 148.0
135.078384 204.0
135.095993 188.0
135.155823 124.0
135.180038 160.0
135.235565 132.0
135.240326 176.0
135.256363 548.0
135.291748 168.0
135.309265 200.0
135.315323 144.0
135.369324 116.0
135.404724 128.0
135.428192 148.0
135.460144 220.0
135.473114 160.0
135.499695 156.0
135.51767 164.0
135.548843 588.0
135.57045 180.0
135.583862 136.0
135.602066 188.0
135.624649 216.0
135.670624 152.0
135.676147 188.0
135.706619 320.0
135.728363 380.0
135.75351 292.0
135.766693 268.0
135.798004 396.0
135.834778 356.0
135.853714 552.0
135.869095 676.0
135.887329 708.0
135.902603 352.0
135.931076 132.0
135.946075 380.0
135.97113 364.0
135.99733 1140.0
136.034958 2024.0
136.06221 443260.0
136.123978 112.0
136.14801 104.0
136.190094 140.0
136.205597 196.0
136.225266 168.0
136.253937 428.0
136.277603 1136.0
136.311142 336.0
136.345322 368.0
136.417831 1544.0
136.444275 13584.0
136.473953 600.0
136.51561 184.0
136.558701 404.0
136.620377 212.0
136.637451 172.0
136.660797 484.0
136.693176 156.0
136.699524 104.0
136.716599 192.0
136.760864 208.0
136.804474 192.0
136.842712 320.0
136.864883 164.0
136.894653 44.0
136.930344 172.0
136.950974 88.0
136.960403 180.0
136.989182 308.0
137.022781 320.0
137.063049 55332.0
137.113693 136.0
137.126938 72.0
137.133438 160.0
137.167358 68.0
137.214294 64.0
137.243317 144.0
137.270477 44.0
137.286743 136.0
137.309799 112.0
137.336655 116.0
137.366531 68.0
137.396271 80.0
137.404739 144.0
137.431854 100.0
137.454407 72.0
137.494934 108.0
137.526688 152.0
137.548431 164.0
137.569199 152.0
137.607025 132.0
137.628052 112.0
137.667618 100.0
137.690582 60.0
137.699005 140.0
137.719788 72.0
137.759567 188.0
137.779922 144.0
137.802551 316.0
137.816971 280.0
137.835815 256.0
137.872681 304.0
137.8965 232.0
137.916626 284.0
137.939835 424.0
137.964432 228.0
138.044586 592.0
138.06694 1560.0
138.106812 236.0
138.133163 192.0
138.164291 508.0
138.18158 360.0
138.206573 168.0
138.213409 184.0
138.23999 328.0
138.246536 136.0
138.256042 256.0
138.311432 232.0
138.33252 48.0
138.355652 176.0
138.384995 88.0
138.403564 112.0
138.450439 60.0
138.472153 96.0
138.509628 92.0
138.527145 56.0
138.558105 156.0
138.579575 56.0
138.635468 28.0
138.657242 68.0
138.683014 84.0
138.733597 160.0
138.752243 76.0
138.783829 84.0
138.800873 104.0
138.836472 80.0
138.873489 68.0
138.912476 236.0
138.943314 100.0
138.9599 88.0
138.988831 140.0
139.017914 96.0
139.048004 144.0
139.072388 60.0
139.092819 68.0
139.121216 120.0
139.130585 96.0
139.172058 44.0
139.198547 76.0
139.227341 28.0
139.279022 80.0
139.320374 92.0
139.377686 44.0
139.403534 84.0
139.450119 220.0
139.490509 48.0
139.539871 88.0
139.563385 40.0
139.584549 52.0
139.626877 60.0
139.678619 72.0
139.756256 60.0
139.833923 40.0
139.855103 76.0
139.888062 48.0
139.946915 120.0
140.067032 88.0
140.137711 52.0
140.224899 100.0
140.264969 44.0
140.283829 144.0
140.347488 32.0
140.386124 72.0
140.432388 96.0
140.748627 40.0
140.889069 60.0
140.997147 88.0
141.025024 128.0
141.15033 28.0
141.181076 156.0
141.280426 72.0
141.429504 84.0
141.602341 52.0
141.89856 72.0
142.510925 96.0
142.567947 32.0
142.610733 68.0
142.798569 124.0
142.984146 64.0
143.069839 40.0
143.146042 104.0
143.231781 48.0
143.45578 112.0
143.595139 136.0
143.689499 152.0
143.731903 52.0
143.768234 72.0
143.809189 76.0
143.863724 80.0
143.928177 60.0
144.033264 104.0
144.095383 28.0
144.212479 64.0
144.231598 132.0
144.381683 124.0
144.540207 100.0
144.718399 216.0
144.884903 96.0
144.990341 112.0
145.028687 52.0
145.275681 48.0
145.321259 48.0
145.417252 128.0
145.528793 112.0
145.605728 128.0
145.678986 188.0
145.746262 104.0
145.806335 64.0
145.844788 76.0
145.888062 88.0
146.017914 72.0
146.069748 500.0
146.18631 80.0
146.224823 120.0
146.414627 96.0
146.50415 116.0
146.658371 108.0
146.771683 120.0
146.844025 132.0
146.889862 112.0
146.913986 76.0
147.073242 72.0
147.090149 104.0
147.133224 128.0
147.270782 84.0
147.435547 48.0
147.48111 56.0
147.507751 96.0
147.614441 92.0
147.665222 132.0
147.737793 100.0
147.781342 88.0
147.84668 40.0
147.899918 104.0
148.056992 128.0
148.067444 212.0
148.10817 100.0
148.157745 60.0
148.258377 80.0
148.345642 80.0
148.554199 84.0
148.612671 80.0
148.736191 76.0
148.886734 40.0
148.942596 92.0
149.025192 48.0
149.063721 164.0
149.18074 76.0
149.280426 56.0
149.431244 140.0
149.533447 108.0
149.562653 44.0
149.596741 156.0
149.762314 152.0
150.11084 108.0
150.170212 116.0
150.203522 44.0
150.292297 124.0
150.66893 80.0
150.711334 56.0
150.919098 68.0
150.994904 76.0
151.031586 28.0
151.310562 84.0
151.55249 156.0
151.638824 36.0
152.188339 28.0
152.46347 104.0
153.204102 32.0
153.73671 52.0
154.087341 68.0
154.480423 64.0
154.735336 44.0
156.289108 80.0
157.212296 128.0
157.473267 84.0
157.710632 84.0
160.111786 72.0
160.27301 108.0
161.055084 100.0
162.054367 144.0
162.078995 456.0
163.075943 160.0
163.374603 80.0
164.730835 128.0
164.827927 112.0
165.787567 116.0
167.625 100.0
167.831223 220.0
167.960175 56.0
169.418152 156.0
169.480331 80.0
170.463806 112.0
171.06723 88.0
171.374542 100.0
171.927368 100.0
172.021347 132.0
172.329514 212.0
172.36348 152.0
172.452347 64.0
173.824677 144.0
174.478699 136.0
175.977859 64.0
176.088821 404.0
176.821136 72.0
177.089645 168.0
177.907928 128.0
178.104431 168.0
178.343582 100.0
178.984741 88.0
179.26178 120.0
180.623444 60.0
180.925842 96.0
183.515869 68.0
185.389175 52.0
186.284561 84.0
186.746658 148.0
188.092728 288.0
188.19101 76.0
188.360336 88.0
189.09288 192.0
189.120499 72.0
189.728638 128.0
189.934311 164.0
190.107071 188.0
190.236176 136.0
190.376205 52.0
190.692154 140.0
191.107407 164.0
191.608505 96.0
191.809677 156.0
192.463547 92.0
192.681747 216.0
192.936005 56.0
194.26532 132.0
194.323578 40.0
194.50119 60.0
194.906677 84.0
195.927795 92.0
196.97673 176.0
197.040985 120.0
197.698105 56.0
198.101303 36.0
198.305847 84.0
198.68161 160.0
198.849976 100.0
198.934189 72.0
199.012802 112.0
199.293686 56.0
199.476364 40.0
199.982681 184.0
200.794128 160.0
201.110138 132.0
202.688232 60.0
202.996872 132.0
203.161728 128.0
203.604538 84.0
203.936951 172.0
205.049835 92.0
205.337799 136.0
205.634521 132.0
205.774399 144.0
205.885773 180.0
206.100021 100.0
208.412384 108.0
209.543152 56.0
209.770828 152.0
209.877502 68.0
209.943832 164.0
209.969788 176.0
210.145752 56.0
211.153931 48.0
212.834763 140.0
212.974152 112.0
213.823166 52.0
214.219162 100.0
214.257034 116.0
214.94223 128.0
215.222458 92.0
215.651474 108.0
215.859482 156.0
216.154938 104.0
216.849014 72.0
217.617615 88.0
218.117035 144.0
219.061646 172.0
219.1353 136.0
220.3302 112.0
220.690796 88.0
221.128616 112.0
221.747635 64.0
223.398621 60.0
225.228943 112.0
225.276733 32.0
225.614441 128.0
227.889267 68.0
228.83049 60.0
229.04451 216.0
229.822327 104.0
229.949081 96.0
230.525909 72.0
231.294144 180.0
232.103058 100.0
232.913391 116.0
234.946625 84.0
235.508606 148.0
237.145584 164.0
237.716019 88.0
239.523865 40.0
240.319275 32.0
241.347839 148.0
241.796402 76.0
242.797119 168.0
243.169418 192.0
243.743958 64.0
244.421844 56.0
244.680191 104.0
245.378082 52.0
245.736755 68.0
245.84285 96.0
246.520523 64.0
246.839386 120.0
247.374405 52.0
249.105438 44.0
249.602036 60.0
250.502182 68.0
250.587234 192.0
252.449615 88.0
252.645721 168.0
252.750137 44.0
253.085663 160.0
254.065033 104.0
254.887375 68.0
255.507401 76.0
255.660126 52.0
255.879761 84.0
256.080383 72.0
256.44043 72.0
256.85495 48.0
257.569977 76.0
257.780853 200.0
257.988617 124.0
258.778839 84.0
259.051086 92.0
259.830109 32.0
259.971313 208.0
259.993774 48.0
260.102905 64.0
260.183716 1856.0
260.697083 108.0
260.754944 124.0
261.193146 256.0
261.439972 164.0
262.644958 72.0
263.820404 72.0
264.38324 80.0
264.496521 72.0
265.111908 32.0
265.215607 60.0
265.935699 80.0
266.250641 160.0
266.559265 136.0
266.868042 80.0
267.251862 64.0
268.77356 152.0
269.155457 80.0
270.119629 112.0
270.463196 88.0
271.616638 88.0
271.678955 188.0
271.734741 104.0
272.053101 180.0
272.654205 88.0
274.428497 64.0
274.454895 76.0
276.192047 100.0
276.258209 72.0
276.704987 36.0
277.016296 164.0
277.118561 132.0
277.175323 116.0
277.27475 152.0
277.324463 72.0
277.390778 156.0
277.443817 56.0
277.49353 64.0
277.675934 52.0
277.755737 132.0
278.087341 44.0
278.156342 216.0
278.195801 18392.0
278.290161 44.0
278.336334 60.0
278.465851 64.0
278.495728 56.0
278.544464 84.0
278.710846 140.0
278.866821 100.0
279.123871 68.0
279.150482 96.0
279.199738 2248.0
279.330078 108.0
279.383118 76.0
279.496429 40.0
279.672821 84.0
279.792664 48.0
280.005768 76.0
280.035736 72.0
280.132355 48.0
280.200531 124.0
280.358917 56.0
280.46225 44.0
280.7323 100.0
280.803131 100.0
280.892395 48.0
280.952454 132.0
281.12262 64.0
281.205505 96.0
281.252777 132.0
281.282837 52.0
281.403015 80.0
281.453094 104.0
281.663513 112.0
281.960876 88.0
282.50592 92.0
282.853943 56.0
283.091644 100.0
283.168671 92.0
283.346222 60.0
283.369659 80.0
283.426636 84.0
283.704834 40.0
283.80542 100.0
284.570435 48.0
286.170868 60.0
288.586731 132.0
289.087372 40.0
289.503754 128.0
290.262848 108.0
290.378143 160.0
290.625793 72.0
290.693665 52.0
291.566467 60.0
296.792938 68.0
297.716034 72.0
301.585205 108.0
301.872162 80.0
302.176544 64.0
302.207703 48.0
303.575958 68.0
303.791016 112.0
305.301941 64.0
305.465424 76.0
306.830597 68.0
309.919403 148.0
310.007935 80.0
310.302399 112.0
311.003998 132.0
313.617462 36.0
314.788757 56.0
316.153351 40.0
317.706085 96.0
317.829498 108.0
318.66037 52.0
319.638214 60.0
320.255493 52.0
322.763 64.0
328.120148 88.0
329.668671 120.0
329.784332 56.0
330.61618 44.0
331.325897 64.0
332.482635 40.0
335.731445 100.0
335.972198 132.0
338.431946 60.0
339.02536 88.0
341.146912 96.0
342.589539 152.0
342.832703 96.0
346.124176 56.0
347.566132 136.0
352.339478 32.0
352.679535 76.0
353.854187 76.0
354.266174 80.0
355.109589 36.0
355.672394 52.0
356.044128 32.0
356.476135 48.0
359.164337 84.0
360.686096 96.0
362.684723 88.0
364.985413 60.0
365.879547 68.0
366.302246 96.0
366.629944 56.0
366.793823 72.0
368.434784 48.0
371.735352 84.0
377.618317 68.0
382.589172 112.0
386.633087 112.0
395.639343 52.0
395.686859 48.0
397.593536 56.0
398.618134 68.0
401.085724 80.0
402.617828 88.0
404.260925 48.0
405.943481 48.0
411.286469 72.0
414.586853 32.0
417.981781 40.0
421.010681 68.0
426.381744 96.0
428.925446 112.0
430.191895 56.0
430.646118 60.0
435.936798 72.0
436.972168 52.0
437.908813 116.0
438.400421 52.0
439.793457 76.0
441.314117 152.0
443.625183 104.0
444.824951 144.0
445.013885 108.0
447.305145 56.0
450.590393 96.0
458.014404 60.0
458.410645 48.0
459.242004 64.0
466.036041 56.0
469.212433 44.0
471.426788 76.0
471.98877 48.0
473.273895 68.0
477.235443 96.0
480.096436 84.0
482.069672 68.0
484.322876 36.0
489.989899 60.0
501.373779 132.0
506.252319 68.0
508.274048 28.0
510.592102 104.0
510.835022 64.0
511.077972 48.0
516.799377 52.0
522.944031 96.0
530.802063 88.0
531.196472 80.0
540.197937 44.0
544.643433 40.0
549.615601 56.0
553.11615 68.0
571.551331 76.0
571.865417 48.0
572.994019 184.0
573.432434 88.0
576.926575 32.0
599.936462 48.0
604.723572 28.0
610.562073 124.0
610.817871 196.0
613.112305 72.0
615.420959 64.0
616.557129 108.0
619.882751 80.0
621.66803 52.0
624.26123 64.0
629.204163 32.0
631.883057 84.0
632.413513 116.0
633.815796 144.0
633.951111 120.0
639.908569 204.0
644.837097 40.0
645.489258 80.0
647.108459 80.0
647.726318 136.0
649.130249 172.0
651.23645 248.0
652.12561 112.0
654.435242 180.0
654.552368 40.0
658.24939 116.0
665.192078 68.0
668.018494 28.0
670.289062 112.0
670.598267 244.0
672.506653 180.0
672.857727 200.0
677.522705 212.0
679.74707 64.0
679.856079 172.0
680.188232 184.0
680.811279 184.0
681.491821 144.0
683.670654 92.0
684.19635 64.0
687.574158 172.0
687.829895 28.0
688.038757 84.0
690.144348 192.0
690.761475 160.0
690.928894 44.0
691.661499 84.0
691.855225 40.0
692.137939 72.0
694.338989 160.0
696.385864 240.0
699.783081 204.0
700.367615 68.0
702.550049 104.0
703.024902 136.0
705.78772 208.0
706.083862 104.0
707.300781 120.0
708.095032 212.0
708.582397 156.0
710.13562 176.0
710.284119 104.0
710.374329 160.0
710.501648 28.0
710.639587 168.0
711.626831 140.0
713.172729 124.0
714.814453 104.0
715.57196 184.0
716.557312 208.0
717.138123 128.0
718.0979 180.0
719.165039 164.0
723.088135 96.0
724.212524 84.0
724.592896 132.0
726.877075 192.0
727.263489 188.0
727.772583 216.0
729.922852 68.0
730.912659 156.0
731.213989 152.0
731.849243 244.0
733.443909 228.0
733.783569 192.0
734.856873 172.0
735.763611 124.0
736.64386 196.0
736.692505 156.0
737.676025 44.0
740.533081 92.0
740.641418 180.0
741.107361 88.0
742.7229 172.0
744.063354 128.0
744.421692 44.0
745.187622 224.0
745.83429 188.0
747.493103 252.0
748.396729 184.0
749.29541 132.0
749.349915 172.0
749.606018 196.0
751.339905 236.0
752.398682 64.0
752.977539 68.0
754.152222 168.0
755.705322 96.0
755.869507 160.0
756.78363 180.0
757.320312 156.0
757.386047 252.0
757.52301 148.0
758.854736 116.0
759.419617 152.0
759.759705 140.0
760.083435 160.0
760.127319 80.0
760.939697 192.0
761.258179 108.0
761.538269 180.0
761.681091 164.0
761.878845 300.0
763.637878 108.0
763.951416 160.0
764.127502 88.0
765.993774 172.0
766.120483 140.0
766.274719 88.0
766.462097 164.0
766.59436 112.0
768.220886 132.0
768.772644 180.0
769.711121 128.0
771.075623 72.0
771.882812 44.0
772.004456 160.0
772.197998 56.0
772.413757 148.0
772.657166 144.0
774.018738 76.0
774.844055 144.0
775.337219 204.0
775.664246 160.0
776.900879 200.0
777.705566 136.0
778.310669 176.0
780.299805 104.0
780.488892 188.0
780.74469 124.0
781.846252 240.0
783.08783 176.0
784.308044 168.0
785.501404 148.0
785.702209 188.0
787.924255 164.0
789.662781 168.0
790.322876 184.0
791.414368 244.0
791.912781 176.0
792.069641 204.0
792.125671 52.0
792.579468 140.0
794.087524 204.0
794.300659 68.0
795.170349 164.0
795.316284 76.0
796.130371 156.0
796.669617 120.0
797.490051 176.0
798.243408 172.0
799.25592 120.0
799.379761 128.0
799.497925 132.0
799.86377 112.0
800.415527 196.0
801.744995 124.0
801.835205 148.0
802.658264 196.0
802.957153 124.0
803.194031 244.0
803.261719 128.0
804.379089 128.0
804.808167 140.0
804.960571 176.0
805.322021 172.0
805.723145 156.0
807.073975 132.0
808.199585 120.0
808.304443 220.0
808.414612 140.0
809.422302 140.0
809.705444 160.0
809.813049 188.0
809.943298 208.0
810.566528 140.0
811.382751 140.0
812.324158 132.0
812.522705 124.0
812.715637 188.0
813.680542 184.0
814.617554 152.0
814.816406 216.0
814.947083 192.0
815.185791 76.0
815.498352 128.0
815.75415 148.0
815.839417 224.0
816.436462 188.0
817.056458 152.0
817.477539 148.0
817.744995 124.0
818.035339 180.0
818.245972 132.0
818.31427 148.0
818.388306 128.0
818.889465 240.0
819.641479 124.0
819.692749 216.0
820.028992 120.0
820.496399 140.0
821.197815 176.0
821.34613 112.0
822.710022 204.0
823.281006 172.0
824.109314 128.0
825.635559 136.0
825.704224 140.0
826.03595 112.0
827.014465 180.0
827.987793 160.0
828.113831 204.0
828.606445 84.0
828.703857 228.0
829.099243 144.0
829.225342 192.0
830.125427 184.0
830.274536 168.0
830.826355 100.0
830.871094 124.0
831.021118 172.0
833.190552 124.0
833.334167 92.0
834.253784 132.0
836.088684 160.0
836.364929 232.0
837.827637 108.0
838.519104 164.0
838.766968 212.0
839.251221 188.0
839.41272 260.0
839.4646 148.0
841.178223 264.0
842.130981 56.0
842.549561 148.0
842.882019 104.0
843.835754 212.0
844.17688 268.0
844.882568 64.0
845.657959 248.0
845.785339 180.0
845.837402 252.0
846.387451 204.0
846.729126 196.0
846.827576 192.0
847.319946 380.0
847.623779 156.0
847.684998 156.0
848.142883 176.0
849.250366 140.0
849.778259 204.0
850.817139 120.0
851.206177 132.0
851.583679 52.0
852.658569 140.0
852.844543 152.0
852.995667 128.0
854.187805 176.0
854.478638 124.0
854.769592 152.0
856.102661 128.0
856.224976 48.0
856.685181 144.0
856.749268 208.0
857.62915 140.0
857.990601 172.0
858.626221 184.0
859.092834 180.0
859.752197 160.0
861.573975 136.0
862.883179 144.0
862.959167 152.0
863.251526 188.0
863.374329 152.0
863.678467 172.0
863.859802 224.0
863.95929 120.0
864.02948 136.0
864.205017 104.0
865.358093 196.0
865.481018 152.0
866.271729 208.0
866.459167 104.0
866.652527 156.0
867.273743 160.0
868.950928 140.0
869.16803 188.0
869.878357 196.0
870.21283 132.0
870.411987 184.0
871.399292 144.0
871.516785 96.0
871.865967 212.0
873.498108 88.0
873.539246 188.0
873.651062 160.0
874.804504 124.0
875.569946 184.0
876.341675 56.0
876.801331 160.0
877.042969 176.0
877.154968 208.0
877.408447 124.0
877.868408 180.0
878.122009 144.0
878.646973 256.0
878.933533 192.0
879.874573 156.0
880.15802 240.0
880.955322 204.0
881.457581 132.0
883.39093 176.0
883.455994 148.0
883.710449 172.0
883.89978 76.0
884.177917 172.0
884.52124 124.0
884.977051 76.0
885.273132 92.0
885.409363 148.0
886.062683 68.0
886.843201 220.0
887.032898 48.0
887.501221 40.0
888.029053 188.0
888.337524 196.0
888.936768 128.0
888.996094 116.0
889.328491 244.0
889.41156 196.0
889.92804 156.0
890.432861 180.0
890.658569 132.0
891.003113 164.0
892.292786 180.0
892.441467 56.0
893.048035 240.0
893.994019 52.0
894.886902 284.0
895.536011 136.0
895.625366 128.0
896.10199 120.0
896.489258 168.0
896.691895 52.0
898.021545 68.0
898.868652 204.0
899.686401 168.0
900.217834 120.0
900.349182 192.0
900.838989 112.0
900.946533 168.0
901.263184 212.0
901.872742 172.0
903.128418 116.0
903.36438 248.0
903.559143 144.0
903.888245 172.0
904.552612 144.0
905.024048 192.0
905.259094 96.0
905.372864 256.0
905.828064 168.0
907.110474 392.0
907.512207 292.0
907.584106 52.0
907.889954 160.0
908.459778 124.0
909.161804 120.0
909.990173 224.0
910.04425 184.0
910.548645 148.0
911.376038 204.0
911.606018 208.0
911.918579 216.0
912.285217 176.0
912.483643 36.0
913.6745 200.0
913.981323 48.0
914.541016 152.0
914.643372 192.0
914.69751 140.0
914.980469 44.0
915.642883 52.0
916.052429 136.0
916.425964 104.0
916.660828 184.0
916.781494 120.0
917.317932 200.0
918.698975 196.0
918.952332 156.0
919.030762 196.0
920.962646 232.0
921.11969 208.0
921.385498 68.0
922.90863 132.0
923.180725 156.0
923.241211 196.0
923.368225 224.0
924.166748 144.0
925.764832 200.0
926.915833 172.0
927.546143 100.0
927.982666 204.0
928.570862 160.0
929.462646 144.0
929.61438 124.0
929.735779 144.0
930.409546 236.0
930.646301 180.0
931.684875 160.0
932.190552 184.0
932.863892 160.0
932.906433 124.0
933.301636 176.0
934.147034 140.0
934.226135 124.0
934.791992 188.0
935.138855 128.0
935.540649 172.0
936.097717 172.0
938.154114 124.0
938.215088 132.0
939.068787 128.0
939.117615 160.0
939.916809 176.0
940.05719 188.0
942.487549 136.0
942.621948 140.0
942.835876 176.0
943.190369 124.0
943.410461 168.0
943.624451 80.0
943.710022 116.0
943.936279 112.0
944.119751 152.0
944.278748 124.0
944.700806 136.0
945.153564 256.0
945.349365 152.0
945.823914 184.0
945.924744 152.0
946.108398 176.0
946.273682 124.0
946.800293 172.0
946.892151 40.0
947.369995 200.0
948.068481 124.0
948.300232 192.0
949.067688 164.0
949.877258 228.0
950.827454 176.0
950.847839 216.0
951.589478 132.0
951.675476 240.0
953.186523 116.0
953.284851 196.0
953.512268 164.0
953.856445 196.0
954.551208 256.0
954.926331 128.0
955.104736 180.0
955.356934 112.0
955.486145 76.0
956.148071 148.0
956.476929 156.0
956.905518 268.0
957.000244 208.0
957.388184 168.0
957.437439 256.0
957.683838 200.0
958.047241 208.0
959.076355 236.0
959.162659 124.0
959.384583 52.0
959.902527 132.0
960.038208 176.0
960.106018 200.0
960.304626 184.0
960.685852 68.0
960.735168 84.0
960.994324 52.0
961.080688 196.0
961.339905 172.0
961.537354 124.0
961.957092 232.0
962.160828 200.0
962.309937 108.0
962.506592 116.0
962.563171 168.0
962.753601 68.0
963.136536 144.0
963.516602 164.0
963.729614 200.0
964.267273 192.0
964.58252 192.0
964.928711 120.0
965.343018 76.0
965.949158 208.0
966.686218 184.0
966.895813 128.0
967.397217 156.0
967.666565 220.0
968.530396 152.0
969.726257 360.0
970.011414 148.0
970.854675 220.0
971.745911 184.0
972.058167 140.0
973.144409 60.0
973.281067 84.0
973.535645 180.0
973.746826 68.0
973.796509 132.0
973.853577 204.0
974.697327 168.0
976.052429 188.0
977.347351 204.0
977.526733 176.0
977.794312 148.0
977.893921 184.0
978.055725 180.0
978.167786 112.0
978.354553 64.0
978.653381 152.0
978.78418 192.0
978.939819 180.0
979.9151 224.0
980.378906 172.0
981.357605 232.0
981.73175 144.0
982.505188 128.0
982.636169 240.0
982.890137 240.0
983.235229 180.0
983.878174 196.0
984.040527 148.0
984.240356 160.0
984.70874 180.0
984.964783 212.0
985.058533 124.0
986.5896 236.0
986.733398 128.0
986.808411 124.0
987.020996 172.0
987.319946 60.0
987.527588 168.0
987.652649 248.0
987.759033 136.0
988.128113 204.0
988.672546 220.0
989.085632 52.0
989.310974 184.0
990.613586 44.0
990.851624 124.0
991.240112 200.0
991.359192 160.0
991.716431 96.0
991.948364 136.0
992.627991 188.0
992.654175 76.0
992.678894 156.0
993.158569 148.0
993.290283 188.0
993.779663 68.0
994.570374 104.0
994.928223 192.0
995.304932 148.0
995.348877 56.0
995.819885 204.0
995.926697 144.0
996.048767 164.0
996.360168 132.0
996.711975 176.0
997.120483 220.0
997.233643 212.0
998.157776 224.0
998.264709 212.0
998.736389 260.0
999.088684 144.0
999.560547 148.0
999.944458 120.0
1000.133301 160.0
1000.599121 220.0
1000.719055 168.0
1001.558167 220.0
1002.198975 128.0
1002.967834 136.0
1003.138 168.0
1003.680237 120.0
1004.077515 200.0
1005.244629 52.0
1005.388489 176.0
1005.680115 148.0
1005.976807 168.0
1006.841675 240.0
1007.037659 152.0
1007.582397 208.0
1008.042175 212.0
1008.181213 64.0
1008.393921 152.0
1008.45929 128.0
1008.724792 136.0
1009.066162 120.0
1009.312744 156.0
1009.376038 140.0
1009.654236 188.0
1010.008484 152.0
1010.628479 144.0
1010.995483 168.0
1011.246765 160.0
1011.87146 176.0
1012.027283 44.0
1012.324951 80.0
1012.495911 132.0
1013.275085 228.0
1013.600403 152.0
1013.680603 140.0
1013.997437 156.0
1014.282715 176.0
1014.390442 216.0
1014.536255 124.0
1014.612366 244.0
1015.620667 212.0
1015.703125 132.0
1015.855347 212.0
1016.013977 136.0
1016.153503 188.0
1016.502502 148.0
1016.705566 284.0
1017.111816 128.0
1017.187988 252.0
1017.45459 204.0
1017.556213 120.0
1017.664124 156.0
1017.829224 168.0
1018.153076 176.0
1018.216614 168.0
1018.855347 204.0
1018.959839 144.0
1019.258484 180.0
1019.84314 108.0
1020.345337 160.0
1020.676025 136.0
1020.734314 116.0
1020.794128 180.0
1020.873108 184.0
1021.159302 156.0
1021.712769 56.0
1021.757263 68.0
1022.253601 148.0
1022.400757 160.0
1022.482727 84.0
1023.38031 224.0
1023.545837 144.0
1023.95343 180.0
1024.303711 176.0
1024.424805 212.0
1024.717896 204.0
1025.158691 212.0
1025.622803 140.0
1026.008789 140.0
1026.219727 168.0
1026.298584 168.0
1026.464355 176.0
1026.732178 168.0
1027.063843 108.0
1027.334229 100.0
1027.587036 128.0
1027.733765 212.0
1027.944336 164.0
1028.123047 200.0
1028.981323 188.0
1029.169922 160.0
1029.278442 252.0
1029.470093 124.0
1029.821289 156.0
1030.613525 200.0
1030.811523 144.0
1030.881836 132.0
1031.182251 196.0
1031.437866 136.0
1031.680908 152.0
1032.070801 48.0
1032.125122 148.0
1032.237061 136.0
1033.017456 192.0
1033.47168 196.0
1033.529297 148.0
1034.122925 184.0
1034.239624 160.0
1034.374023 140.0
1034.860596 172.0
1034.948486 192.0
1035.014282 224.0
1035.064697 188.0
1035.169434 84.0
1035.244873 164.0
1035.603516 164.0
1035.680298 152.0
1037.102783 232.0
1037.269531 120.0
1037.416992 88.0
1037.865723 160.0
1038.276123 204.0
1038.834229 140.0
1039.206299 148.0
1039.732544 100.0
1040.355103 156.0
1040.688965 176.0
1040.811035 124.0
1041.027832 204.0
1041.318359 164.0
1041.761597 136.0
1041.935059 136.0
1042.121338 128.0
1042.230591 76.0
1042.732056 160.0
1043.226807 168.0
1043.889038 216.0
1044.21167 204.0
1044.307129 92.0
1044.802368 196.0
1045.046875 228.0
1045.169189 172.0
1045.259277 132.0
1045.304321 184.0
1045.368652 104.0
1045.542358 128.0
1045.729004 172.0
1046.186157 136.0
1046.623901 132.0
1046.701172 216.0
1047.029663 116.0
1047.287231 160.0
1047.628662 204.0
1047.854126 68.0
1048.272949 156.0
1048.389038 224.0
1048.459839 252.0
1049.51062 112.0
1049.665405 164.0
1049.798218 116.0
1049.891113 144.0
1050.271606 208.0
1050.678101 168.0
1051.065186 156.0
1051.233032 188.0
1051.400757 124.0
1051.723511 196.0
1052.052734 148.0
1052.388428 200.0
1052.556274 136.0
1052.795288 88.0
1052.963135 184.0
1053.124634 112.0
1053.279663 136.0
1053.77063 148.0
1053.970947 176.0
1054.132568 144.0
1054.384521 148.0
1055.212036 284.0
1055.328369 212.0
1055.483521 164.0
1055.671021 172.0
1055.942749 156.0
1056.194946 264.0
1056.298462 272.0
1056.57666 180.0
1056.699585 224.0
1056.848389 120.0
1057.003662 308.0
1057.495483 68.0
1057.91626 172.0
1058.492554 168.0
1058.583252 124.0
1058.809814 188.0
1058.868164 168.0
1059.315063 80.0
1059.444702 204.0
1059.515869 160.0
1059.677856 220.0
1059.755615 172.0
1059.943604 120.0
1060.038818 432.0
1060.18335 88.0
1060.423096 204.0
1060.669434 140.0
1060.844482 84.0
1061.168579 156.0
1061.29834 112.0
1061.369629 36.0
1061.713379 40.0
1061.758789 140.0
1061.810669 128.0
1062.018188 188.0
1062.868042 216.0
1062.932983 144.0
1063.121094 176.0
1063.341797 160.0
1063.997437 44.0
1064.328613 200.0
1064.731201 168.0
1065.341797 184.0
1065.81604 188.0
1066.186523 144.0
1067.161621 200.0
1067.298096 120.0
1067.349609 200.0
1067.675293 152.0
1067.980957 200.0
1068.045898 180.0
1068.358276 200.0
1068.761719 92.0
1069.30835 148.0
1069.555664 64.0
1069.770508 184.0
1070.004883 212.0
1070.109009 156.0
1070.936035 140.0
1071.001221 104.0
1071.405151 228.0
1071.457275 200.0
1071.502808 160.0
1071.587524 212.0
1071.77002 140.0
1071.965454 160.0
1072.060425 200.0
1072.134888 124.0
1072.239136 76.0
1072.526001 132.0
1073.412598 104.0
1074.025269 136.0
1074.195312 144.0
1074.299683 160.0
1074.423584 112.0
1074.560669 48.0
1074.743286 160.0
1074.873901 180.0
1075.076172 116.0
1075.369873 160.0
1075.526489 204.0
1075.645142 120.0
1075.748413 176.0
1076.016113 116.0
1076.263916 188.0
1076.420898 164.0
1076.86499 184.0
1077.054443 128.0
1077.43335 188.0
1077.498657 108.0
1077.675049 204.0
1077.720825 116.0
1078.204468 160.0
1078.459351 172.0
1078.753418 112.0
1078.969238 180.0
1079.054199 160.0
1079.224243 168.0
1079.596924 200.0
1080.009033 196.0
1080.172485 136.0
1080.303345 136.0
1081.036133 164.0
1081.590454 188.0
1081.939453 320.0
1082.587646 172.0
1082.856201 200.0
1083.209961 28.0
1083.314697 168.0
1083.498169 180.0
1083.773315 64.0
1084.192749 192.0
1084.454956 188.0
1084.828613 140.0
1085.133545 116.0
1085.459595 188.0
1085.864624 164.0
1086.01355 120.0
1086.056763 180.0
1086.828979 140.0
1087.317017 140.0
1087.78064 176.0
1087.88562 212.0
1088.010376 80.0
1088.404297 160.0
1088.824585 268.0
1089.242676 252.0
1089.382935 160.0
1089.59314 224.0
1089.691772 208.0
1090.250244 184.0
1090.993042 152.0
1091.380981 132.0
1091.690063 228.0
1092.071411 208.0
1092.255615 156.0
1092.446411 144.0
1092.584595 180.0
1092.663574 200.0
1093.176758 128.0
1093.42688 216.0
1093.492676 208.0
1093.575317 364.0
1094.025879 184.0
1094.269409 132.0
1094.532837 188.0
1094.927979 360.0
1095.099243 156.0
1095.349487 140.0
1095.560303 68.0
1096.021484 84.0
1096.107178 56.0
1096.239014 220.0
1096.977173 44.0
1097.135376 92.0
1097.272583 124.0
1097.856079 160.0
1097.90686 156.0
1098.143188 172.0
1098.207397 128.0
1098.540161 160.0
1098.658813 100.0
1098.724854 188.0
1098.810547 224.0
1099.015137 176.0
1099.16687 160.0
1099.252686 120.0
1099.312134 156.0
1099.559814 128.0
1099.588501 164.0
1099.80249 120.0
1100.057861 116.0
1100.170166 180.0
1100.368164 156.0
1100.473877 108.0
1100.734009 132.0
1100.817261 72.0
1101.081421 128.0
1101.147461 240.0
1101.490967 192.0
1101.537109 188.0
1101.624634 168.0
1101.7948 72.0
1102.244141 216.0
1102.332764 188.0
1102.455566 160.0
1102.627441 152.0
1102.792603 188.0
1103.043823 96.0
1103.328125 236.0
1103.559448 152.0
1103.810791 180.0
1103.989258 124.0
1104.075317 104.0
1104.148071 40.0
1104.32666 56.0
1104.399414 160.0
1104.591187 128.0
1104.637451 160.0
1104.816162 100.0
1105.045166 116.0
1105.199829 188.0
1105.305786 172.0
1105.722656 184.0
1105.788818 136.0
1105.868286 160.0
1106.046997 188.0
1106.298584 212.0
1106.828247 168.0
1107.046753 112.0
1107.119629 120.0
1107.21228 76.0
1107.457397 132.0
1107.516968 140.0
1107.649414 60.0
1107.702515 168.0
1107.821655 180.0
1108.312012 80.0
1108.465698 164.0
1108.716187 80.0
1108.901855 152.0
1109.120483 72.0
1109.213379 108.0
1109.319458 188.0
1109.445312 188.0
1109.730469 192.0
1110.035522 140.0
1110.134888 268.0
1110.367065 156.0
1110.605835 168.0
1110.658936 184.0
1111.229492 188.0
1111.309082 144.0
1111.375366 140.0
1111.523926 196.0
1111.59436 112.0
1111.680664 184.0
1111.733765 140.0
1111.972656 192.0
1112.397461 132.0
1112.570068 204.0
1112.702881 204.0
1112.882202 172.0
1113.509277 64.0
1113.605957 128.0
1113.81189 132.0
1114.044434 128.0
1114.130737 148.0
1114.385498 216.0
1114.775269 68.0
1115.227295 232.0
1115.287109 112.0
1115.386719 104.0
1115.453247 168.0
1115.49939 140.0
1115.670654 160.0
1116.244385 124.0
1116.366577 340.0
1116.623535 56.0
1116.743286 228.0
1117.102417 160.0
1117.168945 188.0
1117.355225 208.0
1117.992065 188.0
1118.559814 100.0
1118.967407 136.0
1119.698364 184.0
1119.931519 160.0
1120.197998 272.0
1120.531128 176.0
1120.837524 212.0
1121.230713 132.0
1121.544067 124.0
1121.609741 168.0
1121.934204 128.0
1122.190674 124.0
1122.330688 176.0
1122.434937 176.0
1123.064331 136.0
1123.451172 180.0
1123.584961 176.0
1123.724731 144.0
1123.97168 148.0
1124.018311 168.0
1124.154053 196.0
1124.211914 204.0
1124.318604 132.0
1124.39209 156.0
1124.469238 172.0
1124.879272 220.0
1124.952759 236.0
1125.480225 124.0
1126.241089 192.0
1126.415161 184.0
1126.742554 220.0
1126.862793 88.0
1127.07666 148.0
1127.336548 140.0
1127.380371 228.0
1128.509766 164.0
1129.075439 152.0
1129.175781 148.0
1129.336304 164.0
1129.429932 140.0
1129.50354 200.0
1129.925537 184.0
1130.046875 168.0
1130.252808 156.0
1130.433472 136.0
1130.707886 44.0
1131.096191 132.0
1131.397339 180.0
1131.572144 168.0
1131.779053 264.0
1131.973267 196.0
1132.214355 164.0
1132.442017 136.0
1132.589355 188.0
1132.736694 168.0
1133.05835 148.0
1133.299561 156.0
1133.386597 144.0
1133.507202 148.0
1133.574219 168.0
1134.090332 156.0
1134.17749 212.0
1134.284668 140.0
1134.351685 148.0
1134.526001 124.0
1134.780762 176.0
1134.900513 132.0
1135.051392 176.0
1135.142944 128.0
1135.203247 212.0
1135.297119 168.0
1135.397461 176.0
1135.484985 200.0
1135.91333 160.0
1136.209351 168.0
1136.457642 168.0
1137.397217 224.0
1137.506104 216.0
1137.716187 180.0
1137.85376 200.0
1137.944336 172.0
1138.451294 176.0
1138.525146 148.0
1138.881226 200.0
1139.25061 72.0
1139.414551 164.0
1139.683594 140.0
1139.80835 168.0
1139.888916 164.0
1140.057007 320.0
1140.110718 184.0
1140.164429 140.0
1140.426636 144.0
1140.480347 172.0
1140.668579 152.0
1141.018188 116.0
1141.092163 152.0
1141.152588 192.0
1141.249023 184.0
1141.300537 80.0
1141.401489 56.0
1141.482178 136.0
1141.656982 184.0
1141.838501 144.0
1141.899048 232.0
1141.946167 112.0
1142.013428 232.0
1142.121094 164.0
1142.188354 176.0
1142.302734 200.0
1142.369995 176.0
1142.807251 184.0
1143.093018 156.0
1143.527344 204.0
1143.668701 172.0
1144.03894 200.0
1144.5 144.0
1144.644897 204.0
1144.873901 116.0
1144.981567 172.0
1145.183716 144.0
1145.298218 132.0
1145.480103 108.0
1145.563354 164.0
1146.106567 96.0
1146.389648 188.0
1146.908569 164.0
1147.061646 208.0
1147.118896 184.0
1147.198486 100.0
1147.394043 204.0
1147.470459 220.0
1147.5625 108.0
1147.818726 256.0
1148.169434 164.0
1148.432495 172.0
1148.479736 192.0
1148.634888 152.0
1148.688843 132.0
1149.092041 108.0
1149.363525 136.0
1149.410767 76.0
1149.464722 128.0
1149.768433 56.0
1149.957397 116.0
1150.126099 172.0
1150.30835 228.0
1150.402954 188.0
1150.612183 208.0
1150.713501 188.0
1150.80127 184.0
1150.970093 224.0
1151.199585 128.0
1151.443604 212.0
1151.810669 196.0
1152.037231 112.0
1152.130615 184.0
1152.253418 164.0
1152.401978 176.0
1152.462769 204.0
1152.570923 140.0
1152.760132 52.0
1152.989868 164.0
1153.073486 264.0
1153.41687 256.0
1153.496826 192.0
1154.091797 144.0
1154.166138 204.0
1154.267578 220.0
1154.351318 160.0
1154.428345 172.0
1154.592285 156.0
1154.822144 160.0
1154.876343 136.0
1154.977783 104.0
1155.092773 160.0
1155.241577 200.0
1155.55957 40.0
1156.060303 124.0
1156.273682 188.0
1156.513794 152.0
1156.594971 176.0
1156.669434 48.0
1156.743896 184.0
1156.798096 192.0
1157.004272 112.0
1157.265259 172.0
1157.529297 252.0
1157.657959 156.0
1157.752808 132.0
1157.949219 160.0
1158.15918 136.0
1158.453857 196.0
1158.728638 140.0
1158.924683 356.0
1159.338013 132.0
1159.697266 80.0
1159.832886 276.0
1160.219238 192.0
1160.320923 88.0
1160.673462 136.0
1161.127686 180.0
1161.200562 96.0
1161.300171 152.0
1161.575562 220.0
1161.679321 184.0
1161.801636 148.0
1161.887573 184.0
1161.94873 128.0
1162.165771 164.0
1162.231323 148.0
1162.505127 92.0
1163.177002 104.0
1163.231323 168.0
1163.339966 212.0
1163.561279 240.0
1163.692993 208.0
1163.822021 152.0
1163.876343 188.0
1164.004272 152.0
1164.37207 256.0
1164.72937 204.0
1165.092041 192.0
1165.237793 144.0
1165.329834 108.0
1165.547363 112.0
1165.764771 244.0
1165.866699 156.0
1165.940308 160.0
1166.395142 192.0
1166.47168 124.0
1166.974731 112.0
1167.287476 96.0
1167.416748 172.0
1167.641113 56.0
1168.030396 176.0
1168.110474 304.0
1168.266968 68.0
1168.552734 80.0
1168.811279 64.0
1169.071777 248.0
1169.260376 152.0
1169.31311 172.0
1169.437378 88.0
1169.491821 40.0
1169.539429 76.0
1170.063721 88.0
1170.13855 148.0
1170.703735 136.0
1170.962524 164.0
1171.902588 132.0
1172.066162 160.0
1172.154785 172.0
1172.229736 124.0
1172.918091 60.0
1172.972656 88.0
1173.020386 56.0
1173.265747 196.0
1173.313477 196.0
1173.493164 176.0
1173.695312 132.0
1174.220459 100.0
1174.445435 60.0
1174.520508 148.0
1175.250488 112.0
1175.359741 160.0
1175.584839 204.0
1175.789673 180.0
1175.85791 160.0
1176.042114 152.0
1176.117188 188.0
1176.533691 84.0
1176.792114 172.0
1177.125732 140.0
1177.188354 168.0
1177.510132 160.0
1177.569824 172.0
1177.646118 144.0
1177.701416 180.0
1178.008789 208.0
1178.549438 88.0
1178.712524 136.0
1179.067871 160.0
1179.13623 132.0
1179.20459 124.0
1179.366455 344.0
1179.566895 136.0
1179.806152 152.0
1179.990723 140.0
1180.305176 328.0
1180.366821 184.0
1180.413208 212.0
1180.530884 164.0
1180.729248 152.0
1180.852295 184.0
1180.911865 148.0
1180.992798 208.0
1181.194336 132.0
1181.385864 248.0
1181.502197 168.0
1182.392212 60.0
1182.624512 244.0
1182.843506 228.0
1182.905151 156.0
1182.968506 108.0
1183.103638 192.0
1183.178955 208.0
1183.342041 184.0
1183.434692 212.0
1183.534302 120.0
1183.891113 60.0
1184.130737 136.0
1184.52124 136.0
1184.569214 144.0
1184.918579 160.0
1184.987061 104.0
1185.0625 140.0
1185.466675 128.0
1185.788818 136.0
1185.980713 180.0
1186.049316 388.0
1186.227539 212.0
1186.39209 124.0
1186.494873 120.0
1186.700562 140.0
1186.810303 176.0
1186.927368 268.0
1187.235474 76.0
1187.317749 160.0
1187.634277 196.0
1187.701904 156.0
1187.818481 136.0
1187.900757 184.0
1188.058594 144.0
1188.1521 176.0
1188.326172 140.0
1188.429077 220.0
1188.551514 100.0
1188.61377 164.0
1188.696655 136.0
1188.943726 124.0
1189.015503 196.0
1189.238892 88.0
1189.348633 204.0
1189.485962 136.0
1189.911621 84.0
1190.017822 176.0
1190.102539 104.0
1190.440308 104.0
1190.557129 148.0
1190.70813 96.0
1190.879883 172.0
1190.969238 204.0
1191.168335 80.0
1191.305786 128.0
1191.553101 120.0
1191.896606 188.0
1192.123413 168.0
1192.205933 124.0
1192.30896 192.0
1192.439575 180.0
1193.477661 172.0
1193.814575 196.0
1193.96582 112.0
1194.062134 124.0
1194.117188 140.0
1194.275391 164.0
1194.323486 156.0
1194.619385 228.0
1194.721802 192.0
1195.231689 152.0
1196.05249 148.0
1196.147095 108.0
1196.267822 152.0
1196.293457 208.0
1196.44043 216.0
1196.500977 228.0
1196.553223 204.0
1196.656494 96.0
1196.945679 116.0
1197.042114 108.0
1197.104126 168.0
1197.303833 188.0
1197.400269 172.0
1197.489746 156.0
1197.620605 164.0
1198.116577 152.0
1198.550659 152.0
1198.706055 180.0
1198.853882 260.0
1198.906372 184.0
1198.971069 196.0
1199.198486 156.0
1199.403687 152.0
1199.644287 184.0
1199.673218 124.0
1199.682861 168.0
1199.901611 196.0
1200.039551 212.0
1200.115356 136.0
1200.199707 88.0
1200.349854 192.0
1200.549805 144.0
1200.839478 128.0
1201.048828 252.0
1201.108521 164.0
1201.418945 192.0
1201.508545 192.0
1201.881226 244.0
1202.053711 188.0
1202.177856 204.0
1202.38501 96.0
1202.571289 156.0
1202.909546 120.0
1203.013062 208.0
1203.530884 128.0
1203.790771 208.0
1203.979736 100.0
1204.06958 128.0
1204.193848 116.0
1204.316528 160.0
1204.394165 140.0
1204.507324 180.0
1204.60791 132.0
1204.811523 128.0
1205.105713 148.0
1205.194458 196.0
1205.36145 176.0
1205.492676 148.0
1205.635132 192.0
1205.769165 188.0
1205.914307 168.0
1206.059448 280.0
1206.228516 132.0
1206.247925 180.0
1206.467285 56.0
1206.522583 172.0
1206.799194 160.0
1206.889038 176.0
1207.234863 156.0
1207.469971 132.0
1207.815796 164.0
1208.037109 116.0
1208.673706 88.0
1209.144287 168.0
1209.192749 172.0
1209.474487 320.0
1209.552612 176.0
1209.660767 196.0
1209.788086 172.0
1209.864136 176.0
1210.168823 108.0
1210.286499 224.0
1210.576904 236.0
1210.653564 172.0
1210.875122 172.0
1210.946045 212.0
1211.064209 168.0
1211.13147 172.0
1211.263062 152.0
1211.332275 32.0
1211.574829 152.0
1211.664917 212.0
1212.032104 60.0
1212.080566 84.0
1212.15686 236.0
1212.330078 124.0
1212.392456 248.0
1212.676636 176.0
1212.80835 120.0
1213.113281 112.0
1213.348999 156.0
1213.418335 148.0
1213.466919 208.0
1213.520142 204.0
1213.730347 116.0
1213.815063 132.0
1213.875977 184.0
1214.000854 152.0
1214.194946 128.0
1214.465454 144.0
1214.701294 156.0
1215.069092 144.0
1215.180054 180.0
1215.672729 28.0
1215.764282 168.0
1215.870239 104.0
1215.964233 184.0
1216.174927 208.0
1216.290405 160.0
1216.561157 92.0
1216.72876 200.0
1216.825195 164.0
1217.186035 144.0
1217.408325 132.0
1217.533325 132.0
1217.616577 136.0
1217.755493 124.0
1217.818848 212.0
1217.954468 200.0
1218.207031 176.0
1218.283447 228.0
1218.441528 200.0
1218.728149 68.0
1218.915771 172.0
1219.032593 152.0
1219.081665 168.0
1219.18042 196.0
1219.346558 184.0
1219.687134 116.0
1219.790405 188.0
1220.159912 168.0
1220.271118 192.0
1220.382446 108.0
1220.556274 192.0
1220.625732 156.0
1220.674438 176.0
1220.924805 104.0
1221.112549 144.0
1221.251709 76.0
1221.324707 192.0
1221.808228 156.0
1222.003052 64.0
1222.163086 156.0
1222.35791 228.0
1222.406616 188.0
1222.53186 184.0
1222.63623 152.0
1222.796387 268.0
1223.046875 148.0
1223.130493 292.0
1223.575928 160.0
1223.71521 156.0
1223.958984 200.0
1224.286255 144.0
1224.425537 192.0
1224.474243 100.0
1224.599609 124.0
1224.697144 156.0
1224.86438 220.0
1225.062866 144.0
1225.226562 136.0
1225.428589 200.0
1225.496826 168.0
1225.602783 192.0
1225.721313 200.0
1225.839722 156.0
1226.369385 164.0
1226.467041 188.0
1226.529907 168.0
1226.648315 172.0
1226.94104 184.0
1227.02478 124.0
1227.10144 132.0
1227.645264 136.0
1228.077759 164.0
1228.126587 184.0
1228.293945 128.0
1228.342773 208.0
1228.454468 172.0
1228.745972 176.0
1228.907837 124.0
1228.970703 140.0
1229.131226 248.0
1229.180054 164.0
1229.237793 184.0
1229.396362 156.0
1229.494263 160.0
1229.766235 120.0
1229.870972 140.0
1230.01062 120.0
1230.077759 268.0
1230.237061 376.0
1230.799438 108.0
1230.890259 176.0
1231.046875 224.0
1231.22937 160.0
1231.384521 196.0
1231.469971 156.0
1231.546753 160.0
1231.88208 80.0
1231.930908 148.0
1232.217407 120.0
1232.364136 144.0
1232.43396 188.0
1232.846313 140.0
1233.475342 240.0
1233.964722 188.0
1234.03125 168.0
1234.16748 312.0
1234.216431 164.0
1234.293335 168.0
1234.66394 168.0
1234.957764 120.0
1235.167603 136.0
1235.279541 180.0
1235.580322 184.0
1235.901978 164.0
1236.182129 156.0
1236.293213 124.0
1236.378052 52.0
1236.455078 132.0
1236.530151 192.0
1236.723389 228.0
1236.809692 204.0
1236.973022 244.0
1237.050049 108.0
1237.177612 212.0
1237.449463 160.0
1237.54126 164.0
1237.589111 200.0
1237.743164 84.0
1237.950684 208.0
1238.016235 188.0
1238.303467 152.0
1238.385254 172.0
1238.456055 136.0
1238.576538 100.0
1238.807739 148.0
1238.86377 132.0
1239.031982 200.0
1239.158081 152.0
1239.333252 144.0
1239.494385 148.0
1239.70459 208.0
1239.886841 160.0
1240.012939 176.0
1240.160156 112.0
1240.223267 132.0
1240.412476 196.0
1240.601807 176.0
1240.755981 100.0
1241.204712 180.0
1241.352295 128.0
1241.429199 36.0
1241.611572 160.0
1241.737793 132.0
1242.067383 192.0
1242.348022 168.0
1242.460327 160.0
1242.567993 216.0
1242.666748 204.0
1242.839111 192.0
1243.112793 160.0
1243.21814 148.0
1243.598633 128.0
1243.622559 88.0
1243.649902 184.0
1243.927002 144.0
1244.095459 140.0
1244.242554 204.0
1244.432495 228.0
1244.568604 188.0
1244.617065 244.0
1245.085571 156.0
1245.204956 168.0
1245.373535 216.0
1245.844116 148.0
1246.14624 128.0
1246.3479 188.0
1246.448486 232.0
1246.563721 160.0
1246.807129 200.0
1247.124878 108.0
1247.348022 136.0
1247.474609 164.0
1247.600708 148.0
1247.625244 140.0
1247.989868 232.0
1248.154053 212.0
1248.430786 204.0
1248.716919 236.0
1249.021606 168.0
1249.105835 168.0
1249.592651 208.0
1249.795532 160.0
1249.858032 196.0
1250.217773 196.0
1250.696411 132.0
1250.814209 176.0
1250.873535 160.0
1251.069458 148.0
1251.189087 208.0
1251.450439 200.0
1251.595825 172.0
1251.646851 164.0
1251.703125 96.0
1251.752441 124.0
1251.889893 148.0
1252.160889 276.0
1252.219727 160.0
1252.331543 220.0
1252.449707 184.0
1252.547485 200.0
1252.727295 88.0
1252.840454 188.0
1253.309204 152.0
1253.527588 92.0
1253.640381 176.0
1253.837769 164.0
1253.907349 156.0
1253.966553 188.0
1254.288818 348.0
1254.42981 120.0
1254.648315 104.0
1254.697754 228.0
1254.78479 216.0
1254.866943 156.0
1254.931641 268.0
1255.191284 164.0
1255.642578 164.0
1256.600098 208.0
1256.679565 172.0
1256.7854 168.0
1256.943726 120.0
1257.124146 136.0
1257.434692 156.0
1257.846191 172.0
1258.098999 184.0
1258.178223 364.0
1258.366455 176.0
1258.521851 132.0
1258.663574 220.0
1258.917236 72.0
1258.966675 72.0
1259.249268 80.0
1259.319824 120.0
1259.390503 224.0
1259.439941 168.0
1259.630615 156.0
1260.019165 232.0
1260.068604 140.0
1260.153442 196.0
1260.202881 228.0
1260.308838 136.0
1260.71167 84.0
1260.838867 160.0
1260.895386 188.0
1261.072144 168.0
1261.475098 196.0
1261.991211 104.0
1262.047729 176.0
1262.302246 204.0
1262.620483 156.0
1262.698364 116.0
1262.896362 112.0
1263.073242 156.0
1263.25 140.0
1263.327881 192.0
1263.661865 156.0
1263.843506 132.0
1263.943359 76.0
1264.106201 156.0
1264.177002 156.0
1264.297241 64.0
1264.360962 68.0
1264.429077 140.0
1264.610474 204.0
1264.77063 200.0
1265.103149 176.0
1265.337769 120.0
1265.394409 192.0
1266.17334 172.0
1266.272583 72.0
1266.343994 212.0
1266.449585 124.0
1266.669189 232.0
1266.958008 300.0
1267.058838 196.0
1267.228638 140.0
1267.413086 120.0
1267.471436 176.0
1267.588745 152.0
1267.960693 164.0
1268.135986 160.0
1268.264648 304.0
1268.575439 156.0
1268.830688 196.0
1268.951172 244.0
1269.071777 152.0
1269.319946 168.0
1269.596558 232.0
1269.717041 396.0
1269.858887 124.0
1270.029175 168.0
1270.285278 164.0
1270.504395 204.0
1270.680542 156.0
1270.702393 128.0
1270.781128 108.0
1270.968628 296.0
1271.04187 164.0
1271.125244 276.0
1271.256592 52.0
1271.661133 96.0
1271.767578 196.0
1271.92981 172.0
1272.179321 148.0
1272.420654 280.0
1272.547729 120.0
1272.917725 156.0
1273.079346 396.0
1273.149414 180.0
1273.197021 172.0
1273.278931 184.0
1273.599487 132.0
1273.876587 160.0
1274.032837 180.0
1274.153687 160.0
1274.281494 152.0
1274.437866 88.0
1274.541016 160.0
1274.629639 80.0
1274.757568 248.0
1274.814453 140.0
1274.878418 164.0
1274.956543 132.0
1275.04187 164.0
1275.127197 224.0
1275.390137 156.0
1275.546509 128.0
1275.607422 184.0
1275.817993 164.0
1275.938965 228.0
1276.008667 144.0
1276.200195 144.0
1276.264648 184.0
1276.328613 152.0
1276.499268 132.0
1276.677002 128.0
1276.755249 152.0
1276.831665 368.0
1277.046875 124.0
1277.192749 184.0
1277.269287 160.0
1277.330444 168.0
1277.388306 176.0
1277.715576 140.0
1277.847534 132.0
1277.900513 188.0
1278.127686 208.0
1278.165161 236.0
1278.263428 164.0
1278.420044 160.0
1278.469849 104.0
1278.669067 156.0
1278.854126 192.0
1279.487671 120.0
1279.580322 196.0
1279.755981 160.0
1279.85791 216.0
1279.918457 208.0
1279.993286 116.0
1280.089355 196.0
1280.185547 168.0
1280.357056 144.0
1280.477539 176.0
1280.541626 192.0
1281.026001 196.0
1281.189819 148.0
1281.352905 180.0
1281.652954 128.0
1281.794434 216.0
1281.930908 120.0
1282.052002 136.0
1282.358521 72.0
1282.586548 212.0
1282.679199 156.0
1282.729126 164.0
1282.942993 172.0
1283.028564 284.0
1283.152344 288.0
1283.320923 216.0
1283.37085 168.0
1283.427856 208.0
1283.549072 120.0
1283.62146 208.0
1283.69165 132.0
1283.955566 148.0
1284.319336 184.0
1284.383545 168.0
1284.476196 120.0
1284.547607 192.0
1284.676025 152.0
1285.03064 152.0
1285.054932 108.0
1285.078003 164.0
1285.14856 164.0
1285.253906 32.0
1285.35376 124.0
1285.430908 100.0
1285.546509 164.0
1285.674927 172.0
1285.781982 120.0
1286.075439 164.0
1286.253052 148.0
1286.353027 168.0
1286.410156 168.0
1286.467285 136.0
1286.56189 316.0
1286.681396 324.0
1286.733887 160.0
1287.02417 152.0
1287.081299 76.0
1287.163818 128.0
1287.25061 200.0
1287.331177 184.0
1287.381226 192.0
1287.426758 116.0
1287.56543 176.0
1287.681152 156.0
1287.78833 184.0
1287.971558 168.0
1288.03833 168.0
1288.13916 200.0
1288.231201 88.0
1288.29541 108.0
1288.402588 164.0
1288.481201 192.0
1288.590698 184.0
1288.717041 192.0
1288.89563 136.0
1289.017944 220.0
1289.152832 172.0
1289.581665 196.0
1289.774658 88.0
1289.853271 168.0
1289.959351 192.0
1290.060669 56.0
1290.175049 136.0
1290.317993 204.0
1290.396606 192.0
1290.890015 148.0
1291.555176 168.0
1291.640991 136.0
1291.919189 212.0
1292.048828 128.0
1292.206177 172.0
1292.284912 204.0
1292.478027 56.0
1292.621216 136.0
1292.792969 144.0
1292.8573 92.0
1293.279663 136.0
1293.451416 176.0
1293.651855 112.0
1293.915894 168.0
1294.092896 200.0
1294.116333 120.0
1294.134033 184.0
1294.239014 64.0
1294.367798 136.0
1294.46814 140.0
1294.544434 156.0
1294.623901 200.0
1294.761719 120.0
1295.30603 44.0
1295.506714 88.0
1295.606934 164.0
1295.779297 176.0
1295.879272 140.0
1295.980103 192.0
1296.180176 172.0
1296.237549 344.0
1296.387939 220.0
1296.43811 68.0
1296.509766 200.0
1296.654419 188.0
1296.746338 120.0
1297.111938 88.0
1297.311157 160.0
1297.384277 180.0
1297.491821 104.0
1297.628052 212.0
1297.680298 168.0
1297.733154 232.0
1297.951172 192.0
1298.004395 172.0
1298.108521 124.0
1298.319336 132.0
1298.538818 200.0
1298.703735 108.0
1298.951172 132.0
1299.105469 136.0
1299.234619 148.0
1299.306396 152.0
1299.385254 160.0
1299.452393 100.0
1299.600464 176.0
1299.650757 84.0
1299.722534 172.0
1299.959106 112.0
1300.031982 168.0
1300.190796 204.0
1300.296631 328.0
1300.590942 180.0
1300.793335 204.0
1300.87085 304.0
1301.043213 160.0
1301.538574 184.0
1301.63916 168.0
1301.759521 172.0
1301.897583 136.0
1302.536865 204.0
1302.644653 144.0
1302.702148 132.0
1302.824219 192.0
1302.896118 136.0
1303.081177 172.0
1303.161865 124.0
1303.269653 184.0
1303.334351 332.0
1303.554321 52.0
1303.720215 228.0
1303.991943 132.0
1304.045776 124.0
1304.412354 156.0
1304.56189 212.0
1304.649658 176.0
1304.721558 88.0
1304.944458 40.0
1305.03064 128.0
1305.289551 160.0
1305.551147 244.0
1305.817261 244.0
1305.929688 180.0
1306.12793 228.0
1306.361206 144.0
1306.497925 48.0
1306.77124 236.0
1307.023193 184.0
1307.231812 140.0
1307.352905 216.0
1307.462158 164.0
1307.598877 48.0
1307.716187 176.0
1307.800537 184.0
1307.899536 220.0
1308.037964 176.0
1308.145874 80.0
1308.397949 80.0
1308.465942 204.0
1308.520264 140.0
1308.599487 164.0
1308.657104 200.0
1308.721924 152.0
1309.125122 132.0
1309.175537 196.0
1309.375854 168.0
1309.661621 192.0
1309.750977 116.0
1309.942749 188.0
1310.135742 260.0
1310.32959 160.0
1310.491699 208.0
1310.587524 148.0
1310.815552 116.0
1311.342896 132.0
1311.54248 156.0
1311.639648 212.0
1311.863159 64.0
1311.99292 152.0
1312.418457 164.0
1312.526489 148.0
1312.598633 164.0
1313.051636 156.0
1313.152832 140.0
1313.28772 320.0
1313.420776 232.0
1313.601074 192.0
1313.677246 204.0
1313.86084 92.0
1314.019531 156.0
1314.171021 72.0
1314.43811 164.0
1314.527588 188.0
1314.625732 132.0
1314.777954 196.0
1315.080322 220.0
1315.311523 164.0
1315.520752 140.0
1315.727661 212.0
1315.93103 160.0
1316.033325 168.0
1316.087402 168.0
1316.184937 144.0
1316.245483 252.0
1316.452148 152.0
1317.145508 160.0
1317.210571 164.0
1317.448853 164.0
1317.629517 176.0
1317.831787 128.0
1318.174927 176.0
1318.308716 208.0
1318.454468 220.0
1318.540039 92.0
1318.652466 172.0
1318.716431 160.0
1318.780396 176.0
1319.39856 124.0
1319.682129 212.0
1319.754517 228.0
1319.812378 144.0
1319.868286 216.0
1320.000366 180.0
1320.291382 200.0
1320.470459 112.0
1320.646484 156.0
1320.828125 172.0
1320.996948 172.0
1321.087524 220.0
1321.172607 204.0
1321.642334 192.0
1321.779907 188.0
1321.956421 220.0
1322.300903 100.0
1322.39502 132.0
1322.518066 136.0
1322.682251 184.0
1322.76416 124.0
1322.822144 48.0
1322.930664 324.0
1323.2854 228.0
1323.466431 188.0
1323.531616 252.0
1323.95166 132.0
1324.110962 116.0
1324.176147 140.0
1324.473145 168.0
1324.531128 164.0
1324.646973 164.0
1324.726562 144.0
1325.081665 52.0
1325.183105 196.0
1325.400635 180.0
1325.661743 200.0
1325.885986 84.0
1325.947754 192.0
1326.057983 344.0
1326.258057 180.0
1326.400635 220.0
1326.451416 348.0
1326.516602 132.0
1326.705078 72.0
1326.767944 132.0
1326.92981 140.0
1326.985107 204.0
1327.111328 144.0
1327.408447 188.0
1327.473633 184.0
1327.669434 172.0
1327.720215 140.0
1327.937866 52.0
1328.080078 212.0
1328.184448 76.0
1328.315063 184.0
1328.583496 148.0
1328.73877 332.0
1328.815552 148.0
1329.084106 120.0
1329.185669 136.0
1329.301758 160.0
1329.442627 224.0
1329.517212 204.0
1329.621094 168.0
1329.824341 188.0
1329.882324 140.0
1330.085571 180.0
1330.15979 124.0
1330.579224 216.0
1330.818848 64.0
1331.05127 140.0
1331.123901 72.0
1331.405884 172.0
1331.508789 160.0
1331.770264 176.0
1331.828369 124.0
1331.87915 116.0
1332.020874 188.0
1332.075317 164.0
1332.191528 208.0
1332.286011 136.0
1332.344116 136.0
1332.438599 100.0
1332.649292 40.0
1332.809082 112.0
1333.026733 180.0
1333.157959 120.0
1333.419556 124.0
1333.563721 176.0
1333.703003 240.0
1333.80481 88.0
1333.983398 204.0
1334.059204 228.0
1334.110107 160.0
1334.278442 152.0
1334.430054 148.0
1334.495483 164.0
1334.89917 184.0
1335.280884 164.0
1335.368164 128.0
1335.443848 176.0
1335.528076 168.0
1335.629395 168.0
1335.701172 188.0
1335.749634 272.0
1335.853882 132.0
1335.894775 260.0
1335.971924 144.0
1336.11731 140.0
1336.181519 160.0
1336.294189 364.0
1336.383423 216.0
1336.779541 148.0
1336.845459 152.0
1337.347168 268.0
1337.456421 64.0
1337.66748 240.0
1337.783936 192.0
1338.060547 204.0
1338.162476 148.0
1338.220825 108.0
1338.279053 128.0
1338.359131 96.0
1338.641846 176.0
1338.725098 188.0
1338.813477 156.0
1338.948364 316.0
1339.131104 120.0
1339.196655 148.0
1339.393311 52.0
1339.505493 188.0
1339.648315 60.0
1339.866821 184.0
1340.034424 148.0
1340.136353 116.0
1340.260254 76.0
1340.4104 168.0
1340.800171 144.0
1341.256104 296.0
1341.317017 168.0
1341.501343 200.0
1341.637207 208.0
1341.761719 124.0
1341.929443 144.0
1341.998779 172.0
1342.137207 172.0
1342.498169 68.0
1342.702393 136.0
1342.906616 184.0
1342.990112 152.0
1343.088989 152.0
1343.198364 108.0
1343.300537 44.0
1343.526733 140.0
1343.577759 124.0
1343.64624 232.0
1343.731079 188.0
1343.957153 64.0
1344.047363 296.0
1344.18335 276.0
1344.269409 192.0
1344.432495 140.0
1344.533691 208.0
1344.745361 116.0
1344.913208 156.0
1344.992554 100.0
1345.066528 196.0
1345.278198 168.0
1345.474121 220.0
1345.599243 168.0
1345.645142 164.0
1345.85498 228.0
1345.968994 148.0
1346.263916 196.0
1346.388062 76.0
1346.544922 144.0
1346.672852 216.0
1346.848145 152.0
1347.079712 192.0
1347.169678 188.0
1347.491089 60.0
1347.556885 164.0
1347.626343 124.0
1347.667969 156.0
1347.768677 48.0
1347.827148 128.0
1348.280273 128.0
1348.404541 152.0
1348.470337 164.0
1348.536133 164.0
1348.58728 212.0
1348.762695 152.0
1348.821167 176.0
1349.135254 204.0
1349.213501 200.0
1349.318237 160.0
1349.55957 100.0
1349.830078 140.0
1349.976318 164.0
1350.08606 204.0
1350.261597 108.0
1350.422485 52.0
1350.598022 52.0
1350.902344 272.0
1351.295776 236.0
1351.402832 192.0
1351.494629 80.0
1351.563721 164.0
1351.710083 136.0
1351.805786 252.0
1351.937012 144.0
1352.105347 212.0
1352.229736 232.0
1352.327393 196.0
1352.341064 248.0
1352.566406 68.0
1352.654297 128.0
1352.923218 152.0
1353.020264 148.0
1353.122803 176.0
1353.203369 148.0
1353.33374 232.0
1353.401123 164.0
1353.494751 160.0
1353.869751 152.0
1353.994141 204.0
1354.09668 148.0
1354.216553 176.0
1354.330811 168.0
1354.399536 176.0
1354.521606 164.0
1354.836548 96.0
1354.946533 192.0
1355.012451 204.0
1355.126953 224.0
1355.270996 160.0
1355.332275 136.0
1355.437378 160.0
1355.562012 228.0
1355.620605 180.0
1355.767212 192.0
1355.847778 60.0
1355.935669 136.0
1356.067627 132.0
1356.133667 268.0
1356.397461 180.0
1356.628296 200.0
1356.855957 128.0
1357.168213 168.0
1357.328613 148.0
1357.548218 140.0
1357.666016 224.0
1357.730713 200.0
1358.13147 156.0
1358.267456 140.0
1358.333374 136.0
1358.39209 184.0
1358.550049 148.0
1358.619507 144.0
1358.70752 84.0
1358.898315 132.0
1359.199219 152.0
1359.306152 188.0
1359.397339 192.0
1359.639526 220.0
1359.793579 128.0
1360.128418 196.0
1360.149048 120.0
1360.255981 172.0
1360.637817 116.0
1360.890747 164.0
1361.000977 188.0
1361.056274 140.0
1361.181152 44.0
1361.342651 72.0
1361.504272 228.0
1361.570312 144.0
1361.636475 256.0
1361.721191 96.0
1361.856812 180.0
1361.988647 144.0
1362.139648 144.0
1362.246094 168.0
1362.307983 208.0
1362.393066 224.0
1362.471313 216.0
1362.554688 316.0
1362.619141 160.0
1362.679565 160.0
1362.804443 144.0
1362.921997 148.0
1363.039673 280.0
1363.171875 164.0
1363.27478 168.0
1363.346313 148.0
1363.535034 136.0
1363.617432 232.0
1363.669434 208.0
1364.002075 184.0
1364.14209 164.0
1364.215576 116.0
1364.381958 224.0
1364.509644 108.0
1364.612671 180.0
1364.840332 128.0
1364.89209 212.0
1365.039062 108.0
1365.208252 76.0
1365.413574 164.0
1365.605347 168.0
1365.70105 192.0
1365.874023 124.0
1366.068848 108.0
1366.171753 188.0
1366.238037 176.0
1366.405029 160.0
1366.448975 136.0
1366.470459 68.0
1366.498291 108.0
1366.595947 224.0
1366.655396 140.0
1366.82666 136.0
1366.920898 172.0
1367.246094 244.0
1367.297607 372.0
1367.410889 212.0
1367.483521 176.0
1367.509277 164.0
1367.614136 144.0
1367.82605 172.0
1367.960083 152.0
1368.088379 188.0
1368.220703 196.0
1368.539551 112.0
1368.718384 196.0
1368.77002 176.0
1368.880493 216.0
1369.241333 136.0
1369.359131 76.0
1369.699951 160.0
1369.731567 152.0
1369.759644 244.0
1369.926392 224.0
1369.996338 204.0
1370.11792 176.0
1370.285522 184.0
1370.458008 236.0
1370.837036 148.0
1370.90625 148.0
1370.976807 328.0
1371.20105 56.0
1371.297607 180.0
1371.414795 128.0
1371.539185 148.0
1371.761353 200.0
1371.915771 140.0
1371.977661 208.0
1372.292114 240.0
1372.365112 244.0
1372.491211 140.0
1372.542847 68.0
1372.734497 132.0
1373.199219 192.0
1373.450317 180.0
1373.752441 148.0
1373.855713 172.0
1374.327881 168.0
1374.5896 212.0
1374.733765 140.0
1374.910889 164.0
1375.075195 232.0
1375.220825 168.0
1375.42749 132.0
1375.612061 160.0
1375.802612 192.0
1376.099365 208.0
1376.149902 176.0
1376.283203 180.0
1376.379883 176.0
1376.564575 168.0
1376.667969 172.0
1376.763916 108.0
1376.855591 48.0
1377.192261 240.0
1377.317871 80.0
1377.493408 164.0
1377.665039 92.0
1377.798096 176.0
1377.93103 164.0
1378.285645 180.0
1378.403931 116.0
1378.522217 180.0
1378.662598 168.0
1378.743896 372.0
1378.869507 276.0
1378.974243 164.0
1379.039551 148.0
1379.179932 188.0
1379.283447 176.0
1379.335205 184.0
1379.42395 156.0
1379.595215 116.0
1379.872314 136.0
1379.970947 184.0
1380.251953 232.0
1380.467041 132.0
1380.525513 136.0
1380.577393 164.0
1381.050903 112.0
1381.109863 164.0
1381.243042 168.0
1381.649902 156.0
1381.929932 168.0
1382.182617 164.0
1382.382446 192.0
1382.463867 196.0
1382.574829 212.0
1382.663696 68.0
1382.737671 52.0
1382.930054 160.0
1383.079468 180.0
1383.317383 332.0
1383.47583 116.0
1383.579346 172.0
1383.699951 152.0
1384.442383 252.0
1384.788574 88.0
1384.867432 208.0
1385.018188 72.0
1385.121826 72.0
1385.247803 64.0
1385.366333 212.0
1385.529297 164.0
1385.67749 112.0
1385.83313 176.0
1385.981323 176.0
1386.106812 192.0
1386.307373 184.0
1386.440796 188.0
1386.768311 120.0
1386.833618 188.0
1386.929077 136.0
1386.940063 88.0
1387.095581 268.0
1387.359863 192.0
1387.622437 204.0
1387.804688 120.0
1387.916016 144.0
1388.103027 392.0
1388.271851 148.0
1388.336548 100.0
1388.479614 108.0
1388.578125 280.0
1388.694824 160.0
1388.965576 152.0
1389.102661 140.0
1389.154541 176.0
1389.22876 168.0
1389.541504 180.0
1389.933594 44.0
1390.133911 128.0
1390.608887 184.0
1390.757324 164.0
1390.848267 332.0
1390.950439 68.0
1391.106323 180.0
1391.233276 140.0
1391.373535 132.0
1391.49231 112.0
1391.689453 120.0
1391.759644 100.0
1391.857788 144.0
1391.966064 224.0
1392.09375 180.0
1392.161987 212.0
1392.220093 140.0
1392.335815 228.0
1392.576538 152.0
1392.695312 104.0
1392.765015 248.0
1392.925659 160.0
1393.120483 164.0
1393.349121 180.0
1393.481567 136.0
1393.547607 560.0
1393.757812 144.0
1393.891479 156.0
1393.988159 152.0
1394.320923 204.0
1394.463745 180.0
1394.527222 220.0
1394.64209 188.0
1394.756958 196.0
1394.820557 140.0
1395.103027 160.0
1395.192261 196.0
1395.385498 136.0
1395.608643 136.0
1395.704224 172.0
1395.716064 148.0
1395.745239 240.0
1395.809326 152.0
1395.868896 128.0
1396.240723 200.0
1396.373047 240.0
1396.46167 228.0
1396.761353 220.0
1397.194092 168.0
1397.498657 244.0
1397.587158 96.0
1397.847656 144.0
1398.078369 176.0
1398.160156 96.0
1398.56958 160.0
1398.685669 140.0
1398.75061 204.0
1398.782104 228.0
1399.024658 164.0
1399.224609 104.0
1399.452637 136.0
1399.917114 152.0
1400.259766 196.0
1400.341675 148.0
1400.468262 92.0
1400.647095 128.0
1400.762451 144.0
1400.915161 192.0
1401.205811 136.0
1401.432495 192.0
1401.585815 232.0
1401.653442 148.0
1401.96582 152.0
1402.114868 140.0
1402.295776 288.0
1402.368286 120.0
1402.42041 152.0
1402.496582 96.0
1402.651489 92.0
1402.726074 132.0
1403.099976 200.0
1403.220825 180.0
1403.359741 164.0
1403.419434 164.0
1403.486572 192.0
1403.552734 152.0
1403.728027 160.0
1403.844482 212.0
1403.963867 44.0
1404.105469 148.0
1404.268921 128.0
1404.323242 148.0
1404.346313 208.0
1404.567993 140.0
1404.650024 140.0
1404.774048 212.0
1404.843994 176.0
1404.911133 184.0
1405.157349 168.0
1405.213257 128.0
1405.243164 64.0
1405.266235 160.0
1405.488892 176.0
1405.621216 208.0
1405.692505 164.0
1405.776611 416.0
1405.873657 140.0
1405.9375 136.0
1406.127441 172.0
1406.209473 176.0
1406.388672 80.0
1406.495972 192.0
1406.63501 116.0
1406.717041 152.0
1406.776855 124.0
1406.877808 172.0
1406.947754 176.0
1407.194946 172.0
1407.284546 220.0
1407.732544 216.0
1407.792236 168.0
1407.911743 36.0
1408.34082 168.0
1408.396851 160.0
1408.603638 172.0
1408.725952 80.0
1409.328369 156.0
1409.495605 228.0
1409.657715 140.0
1410.220459 180.0
1410.295166 140.0
1410.361938 196.0
1410.511963 116.0
1410.571777 176.0
1411.035278 164.0
1411.113159 168.0
1411.199707 180.0
1411.372681 120.0
1411.539673 168.0
1411.738159 208.0
1411.907104 176.0
1412.12146 212.0
1412.210571 268.0
1412.299072 180.0
1412.388794 284.0
1412.497437 164.0
1412.605713 152.0
1412.790771 160.0
1412.882568 160.0
1412.951782 212.0
1413.043701 284.0
1413.151978 216.0
1413.346436 124.0
1413.421265 40.0
1413.481201 140.0
1413.603516 156.0
1413.758057 156.0
1413.838501 160.0
1413.952637 132.0
1414.211548 180.0
1414.316895 188.0
1414.616577 124.0
1414.669556 168.0
1414.682617 200.0
1414.823608 132.0
1414.895874 160.0
1414.948242 188.0
1415.083008 176.0
1415.240234 152.0
1415.366089 144.0
1415.469482 116.0
1415.625244 172.0
1415.831787 64.0
1415.929199 164.0
1416.138916 176.0
1416.22876 168.0
1416.288696 72.0
1416.36145 184.0
1416.37854 132.0
1416.406738 184.0
1416.633423 184.0
1416.76062 88.0
1416.81311 52.0
1417.159668 140.0
1417.240112 64.0
1417.324707 56.0
1417.532349 124.0
1418.004761 144.0
1418.116943 136.0
1418.216309 172.0
1418.274414 56.0
1418.360474 276.0
1418.514282 120.0
1418.671143 160.0
1418.866577 124.0
1419.024048 40.0
1419.436401 44.0
1419.590454 196.0
1419.845703 152.0
1419.931396 188.0
1419.991455 92.0
1420.126465 56.0
1420.263916 180.0
1420.441406 164.0
1420.501465 176.0
1420.617065 408.0
1420.876587 208.0
1421.03418 128.0
1421.128174 328.0
1421.19519 108.0
1421.349854 192.0
1421.41687 156.0
1421.611938 144.0
1421.724487 184.0
1421.874634 108.0
1422.004028 160.0
1422.1073 164.0
1422.234863 232.0
1422.317871 200.0
1422.392456 216.0
1422.452393 196.0
1422.670288 116.0
1422.812866 288.0
1422.908936 136.0
1423.019897 168.0
1423.255859 136.0
1423.406128 176.0
1423.473633 200.0
1423.609985 136.0
1423.729004 128.0
1423.804077 352.0
1423.871704 116.0
1423.931763 332.0
1424.172119 92.0
1424.299805 248.0
1424.50647 172.0
1424.609619 104.0
1424.69043 180.0
1424.788086 116.0
1424.885742 200.0
1425.051147 176.0
1425.440308 176.0
1425.599609 36.0
1425.82666 132.0
1425.915283 152.0
1426.010132 208.0
1426.185913 164.0
1426.67041 176.0
1426.779785 200.0
1426.952637 100.0
1427.047241 132.0
1427.30603 152.0
1427.396362 220.0
1427.787354 180.0
1427.863281 228.0
1428.183105 164.0
1428.212769 100.0
1428.251709 120.0
1428.366577 148.0
1428.459839 188.0
1428.635742 232.0
1428.787842 188.0
1429.065796 156.0
1429.113281 172.0
1429.231689 132.0
1429.352173 140.0
1429.45752 180.0
1429.893921 364.0
1430.05957 364.0
1430.177856 244.0
1430.240234 204.0
1430.375732 68.0
1430.592529 156.0
1430.684326 200.0
1430.887573 136.0
1431.053223 188.0
1431.211426 176.0
1431.286743 160.0
1431.354004 208.0
1431.497559 148.0
1431.572876 120.0
1431.62561 68.0
1431.88916 136.0
1431.991333 148.0
1432.077515 116.0
1432.303467 120.0
1432.382324 144.0
1432.65564 212.0
1432.762451 124.0
1432.860962 96.0
1432.921143 148.0
1433.388306 96.0
1433.470703 60.0
1433.513306 136.0
1433.878174 200.0
1433.946045 104.0
1434.022217 268.0
1434.173462 180.0
1434.262085 192.0
1434.286377 180.0
1434.301636 220.0
1434.368164 240.0
1434.462769 168.0
1434.533203 160.0
1434.782715 248.0
1434.953857 52.0
1435.37085 160.0
1435.582031 68.0
1435.717773 140.0
1435.790283 416.0
1436.052246 152.0
1436.245728 276.0
1436.465698 224.0
1436.515015 120.0
1436.597656 224.0
1436.677246 156.0
1436.781372 124.0
1436.841675 156.0
1436.966431 144.0
1437.090698 40.0
1437.354736 128.0
1437.490601 164.0
1437.634033 160.0
1437.747192 164.0
1437.822632 188.0
1437.913208 196.0
1438.200073 148.0
1438.335083 176.0
1438.403931 192.0
1438.637939 88.0
1438.9021 124.0
1439.205566 168.0
1439.269775 156.0
1439.559082 148.0
1439.672363 212.0
1439.800781 176.0
1439.977783 360.0
1440.367188 152.0
1440.420044 180.0
1440.510132 224.0
1440.616455 120.0
1440.749756 184.0
1440.84314 84.0
1440.983887 284.0
1441.056763 156.0
1441.190674 48.0
1441.379639 192.0
1441.542847 184.0
1441.74231 188.0
1441.821533 144.0
1441.934448 172.0
1442.173218 144.0
1442.294067 48.0
1442.384766 172.0
1442.439331 248.0
1442.498169 164.0
1442.599854 144.0
1442.656982 180.0
1442.825928 192.0
1442.891357 204.0
1443.057617 192.0
1443.178589 176.0
1443.299683 180.0
1443.420654 204.0
1443.79895 164.0
1443.949951 212.0
1444.146606 144.0
1444.214722 172.0
1444.343262 152.0
1444.459839 136.0
1444.789673 44.0
1444.887939 168.0
1445.251221 184.0
1445.326782 96.0
1445.410034 104.0
1445.485718 144.0
1445.629517 204.0
1445.697632 64.0
1445.848999 176.0
1445.952271 176.0
1446.053345 48.0
1446.161499 156.0
1446.340942 128.0
1446.393921 424.0
1446.484863 184.0
1446.689209 196.0
1446.903564 152.0
1447.029663 148.0
1447.344116 168.0
1447.567505 192.0
1447.718994 200.0
1447.771973 48.0
1447.915894 480.0
1447.999146 148.0
1448.067383 164.0
1448.415771 196.0
1448.503052 84.0
1448.696045 200.0
1448.938965 192.0
1449.256226 164.0
1449.340088 348.0
1449.468872 200.0
1449.544678 44.0
1449.68103 136.0
1449.787109 124.0
1449.916016 108.0
1449.984253 176.0
1450.165039 176.0
1450.332886 184.0
1450.414062 136.0
1450.636108 148.0
1450.856567 344.0
1450.954468 168.0
1451.075806 148.0
1451.280518 136.0
1451.341187 164.0
1451.629395 136.0
1451.690063 140.0
1451.788574 160.0
1451.841675 76.0
1451.974854 232.0
1452.03125 160.0
1452.229858 216.0
1452.2854 220.0
1452.357422 180.0
1452.440918 100.0
1452.50708 160.0
1452.622925 184.0
1452.676025 172.0
1452.908081 68.0
1453.169189 156.0
1453.261841 168.0
1453.439087 204.0
1453.556152 168.0
1453.687134 208.0
1453.759644 200.0
1453.907227 156.0
1453.98877 72.0
1454.08606 156.0
1454.261963 128.0
1454.315063 276.0
1454.428955 384.0
1454.732544 188.0
1454.945923 348.0
1455.004639 232.0
1455.150146 168.0
1455.264038 188.0
1455.355225 132.0
1455.498047 136.0
1456.212402 132.0
1456.238892 208.0
1456.460205 96.0
1456.539917 116.0
1456.676636 148.0
1456.744995 72.0
1456.889404 128.0
1457.006226 200.0
1457.132446 44.0
1457.19751 196.0
1457.352783 32.0
1457.417603 304.0
1457.445312 160.0
1457.509644 180.0
1457.636108 172.0
1457.75708 216.0
1457.869507 160.0
1458.082397 92.0
1458.166016 164.0
1458.266968 180.0
1458.34082 124.0
1458.474487 384.0
1458.736084 240.0
1458.810547 184.0
1458.948853 344.0
1459.070557 180.0
1459.177002 104.0
1459.291016 120.0
1459.465942 148.0
1459.792969 100.0
1459.960205 224.0
1460.043823 140.0
1460.173218 252.0
1460.667603 100.0
1460.74231 220.0
1460.821289 152.0
1460.872925 200.0
1460.979492 172.0
1461.161743 320.0
1461.260986 212.0
1461.330933 164.0
1461.496826 124.0
1461.644165 156.0
1461.959717 156.0
1462.089844 172.0
1462.309448 196.0
1462.483643 180.0
1462.563599 140.0
1462.684082 196.0
1462.737427 236.0
1462.821167 248.0
1462.87439 100.0
1462.950562 112.0
1463.04126 176.0
1463.13501 172.0
1463.294312 192.0
1463.354004 192.0
1463.580322 72.0
1463.719604 140.0
1463.818604 76.0
1464.026978 244.0
1464.153687 192.0
1464.287842 104.0
1464.342651 132.0
1464.412598 72.0
1464.465942 72.0
1464.576294 140.0
1464.755371 140.0
1464.831543 140.0
1464.884888 288.0
1465.021973 140.0
1465.091431 140.0
1465.166748 128.0
1465.220093 176.0
1465.311523 228.0
1465.471436 148.0
1465.52478 412.0
1465.684814 136.0
1465.789551 176.0
1465.982056 164.0
1466.119263 164.0
1466.316895 164.0
1466.474731 196.0
1466.614624 228.0
1466.683228 160.0
1466.759521 180.0
1466.820435 184.0
1467.125366 132.0
1467.255005 164.0
1467.361694 168.0
1467.415039 276.0
1467.468506 200.0
1467.590454 188.0
1467.788696 108.0
1468.353027 164.0
1468.452271 212.0
1468.501831 144.0
1468.665771 196.0
1468.726807 124.0
1468.856445 208.0
1469.060547 196.0
1469.222656 160.0
1469.359985 148.0
1469.628662 152.0
1469.718628 176.0
1469.825439 288.0
1470.107788 192.0
1470.260376 200.0
1470.313843 116.0
1470.413086 56.0
1470.680176 180.0
1471.050415 152.0
1471.078491 184.0
1471.153442 224.0
1471.213013 204.0
1471.290894 52.0
1471.397827 144.0
1471.466553 128.0
1471.549683 148.0
1471.605591 124.0
1471.741333 128.0
1471.880737 144.0
1472.011841 144.0
1472.077393 76.0
1472.261963 160.0
1472.390503 156.0
1472.589111 304.0
1472.780029 80.0
1472.902222 248.0
1472.978638 64.0
1473.085571 156.0
1473.177246 108.0
1473.243652 144.0
1473.452271 132.0
1473.520996 176.0
1474.147217 144.0
1474.171021 136.0
1474.284668 116.0
1474.445679 120.0
1474.575562 360.0
1474.667358 176.0
1474.894043 180.0
1475.04187 192.0
1475.175659 392.0
1475.387817 128.0
1475.469971 220.0
1475.553101 156.0
1475.783447 208.0
1475.94397 408.0
1476.012817 112.0
1476.119873 268.0
1476.556763 180.0
1476.777588 224.0
1476.945923 196.0
1477.052979 172.0
1477.435425 68.0
1477.640991 140.0
1477.772339 124.0
1477.894531 144.0
1478.11792 180.0
1478.180908 196.0
1478.283203 176.0
1478.307983 108.0
1478.335938 340.0
1478.391968 156.0
1478.652954 332.0
1478.723877 228.0
1479.016357 192.0
1479.180298 104.0
1479.28479 168.0
1479.347168 252.0
1479.425293 172.0
1479.51709 96.0
1479.629639 128.0
1479.896484 156.0
1480.030151 208.0
1480.185181 212.0
1480.275146 188.0
1480.466675 84.0
1480.573853 100.0
1480.738037 156.0
1480.901611 136.0
1480.995117 152.0
1481.079346 156.0
1481.248779 232.0
1481.31604 120.0
1481.438965 208.0
1481.53894 184.0
1481.70752 180.0
1481.830078 144.0
1481.945068 176.0
1482.049927 168.0
1482.114502 404.0
1482.205566 128.0
1482.458252 152.0
1482.667358 140.0
1482.803345 176.0
1482.964233 120.0
1483.048584 108.0
1483.148193 128.0
1483.309204 160.0
1483.387207 216.0
1483.531494 160.0
1483.585205 136.0
1483.697266 128.0
1483.899536 148.0
1484.037598 64.0
1484.344849 156.0
1484.40564 128.0
1484.562134 228.0
1484.649414 172.0
1484.804443 184.0
1484.896484 224.0
1485.019165 172.0
1485.287598 156.0
1485.405518 160.0
1485.47937 144.0
1485.533081 172.0
1485.717163 172.0
1485.809326 172.0
1485.920654 200.0
1486.07019 148.0
1486.273315 184.0
1486.453857 84.0
1486.538208 48.0
1486.603516 176.0
1486.687378 196.0
1486.852905 164.0
1487.144531 88.0
1487.236694 140.0
1487.390137 96.0
1487.53418 208.0
1487.692139 284.0
1487.805908 152.0
1488.001709 176.0
1488.088745 140.0
1488.177734 200.0
1488.288452 336.0
1488.372925 116.0
1488.452148 176.0
1488.695435 176.0
1488.825928 204.0
1488.918091 188.0
1489.046143 172.0
1489.21875 200.0
1489.386597 88.0
1489.585327 208.0
1489.680542 216.0
1489.763062 212.0
1489.878296 108.0
1489.934204 184.0
1490.078003 144.0
1490.192749 164.0
1490.262451 148.0
1490.554443 148.0
1490.608276 184.0
1490.669678 100.0
1490.877197 200.0
1490.992432 152.0
1491.141235 180.0
1491.338379 108.0
1491.738037 124.0
1491.855103 140.0
1492.122437 176.0
1492.19165 284.0
1492.337769 164.0
1492.391602 168.0
1492.443115 344.0
1492.568359 140.0
1492.736938 140.0
1492.826782 208.0
1492.94519 132.0
1493.029175 160.0
1493.089111 164.0
1493.4375 232.0
1493.560547 128.0
1493.645142 204.0
1493.722046 196.0
1493.890381 200.0
1494.04895 164.0
1494.229858 116.0
1494.375977 192.0
1494.719604 224.0
1494.791504 80.0
1494.883911 156.0
1494.968506 180.0
1495.130127 212.0
1495.291748 300.0
1495.345581 100.0
1495.407227 168.0
1495.740112 180.0
1495.922974 112.0
1496.130859 164.0
1496.267456 192.0
1496.446411 188.0
1496.638916 136.0
1496.700562 128.0
1496.877686 164.0
1497.039429 204.0
1497.139526 96.0
1497.355103 188.0
1497.586182 148.0
1497.678711 172.0
1497.832764 120.0
1498.056152 176.0
1498.117676 80.0
1498.512207 204.0
1498.695557 176.0
1498.865112 96.0
1499.042358 140.0
1499.096313 260.0
1499.209717 168.0
1499.510742 148.0
1499.53479 84.0
1499.674316 120.0
1499.728271 164.0
1499.805298 148.0
1499.859253 140.0
1500.013428 192.0
1500.22937 92.0
1500.375854 88.0
1500.506104 200.0
1500.637939 152.0
1500.776733 156.0
1500.901733 152.0
1501.329346 152.0
1501.486206 124.0
1501.748413 176.0
1501.80249 168.0
1502.026123 224.0
1502.272949 256.0
1502.373291 196.0
1502.473511 136.0
1502.550659 168.0
1502.666504 148.0
1502.897949 156.0
1502.951904 120.0
1503.114014 216.0
1503.167969 160.0
1503.222046 148.0
1503.291504 164.0
1503.399536 176.0
1503.661865 328.0
1503.715942 52.0
1503.893433 188.0
1504.063232 152.0
1504.132812 136.0
1504.202271 156.0
1504.274902 196.0
1504.392456 176.0
1504.472412 136.0
1504.572754 156.0
1504.856934 268.0
1504.912476 152.0
1505.02063 208.0
1505.136475 228.0
