>compound Lansoprazole
>formula C16H14F3N3O2S
>ionization [M+Na]+
>parentmass 392.06546
#inchi InChI=1S/C16H14F3N3O2S/c1-10-13(20-7-6-14(10)24-9-16(17,18)19)8-25(23)15-21-11-4-2-3-5-12(11)22-15/h2-7H,8-9H2,1H3,(H,21,22)
#inchikey MJIHNNLFOKEZEW
#Ion_Source LC-ESI
#Instrument qTof
#Compound_Source Commercial
#PI Dorrestein
#Data_Collector Garg_Neha
#Scan -1
#Precursor_MZ 392.065
#ExactMass 369.076
#Charge 1
#CAS_Number 103577-45-3, 226904-00-3 (sodium salt)
#Pubmed_ID N/A
#Smiles C1=CC=C2C(=C1)N=C(N2)S(CC3=NC=CC(=C3C)OCC(F)(F)F)=O
#INCHI_AUX N/A
#Library_Class 1
#SpectrumID CCMSLIB00000078113
#IonMode Positive
#UpdateWorkflowName UPDATE-SINGLE-ANNOTATED-GOLD
#LibraryQualityString Gold
#TaskID 77f51c88eb8b467eb4a01dd2d0cb90d2
##Scan# 1126
#SpectrumFile Plate2_21_40_GG6_01_16494.mzXML
#LibraryName FDALibrary_2_04302014.mgf
#MQScore -1
#Organism FDALibrary_2_04302014
#TIC_Query 0
#RT_Query -1
#MZErrorPPM -1
#SharedPeaks 0
#MassDiff 0
#LibMZ -1
#SpecMZ 392.065
#SpecCharge 0
#internalFilename spec-00000.mgf

>collision 10
44.919987 160.0
47.561623 196.0
58.936348 172.0
61.048264 176.0
61.110485 228.0
81.410248 168.0
89.612869 220.0
94.313553 156.0
96.367706 160.0
97.868195 176.0
103.147507 156.0
115.825195 236.0
117.176453 156.0
128.853119 176.0
129.776566 140.0
129.960281 164.0
136.493362 148.0
141.044098 144.0
142.062347 172.0
142.095566 164.0
149.024124 388.0
150.616058 192.0
152.768326 152.0
156.934128 212.0
166.012909 188.0
173.59343 288.0
179.056152 148.0
188.002274 3512.0
188.362411 148.0
189.001877 384.0
189.994064 264.0
200.288727 172.0
205.077377 172.0
206.54216 144.0
219.652924 160.0
227.134338 260.0
234.24118 252.0
235.082687 236.0
243.596222 140.0
244.05394 980.0
244.666 144.0
245.057556 160.0
245.791168 160.0
248.046112 200.0
253.036285 172.0
255.247818 200.0
259.042664 148.0
262.069031 152.0
267.979004 172.0
273.78363 144.0
274.010101 1620.0
274.149292 276.0
275.001678 316.0
275.028595 152.0
275.997742 164.0
276.034241 164.0
281.577515 204.0
288.033234 188.0
292.366364 180.0
298.063599 184.0
300.225464 140.0
304.1073 168.0
304.131592 156.0
308.059509 164.0
308.122375 176.0
313.195007 156.0
317.226898 176.0
320.250824 216.0
323.367828 200.0
326.095886 440.0
327.082336 184.0
329.733826 188.0
332.951019 156.0
343.931702 156.0
343.987061 176.0
344.096252 220.0
346.109222 156.0
352.070251 172.0
359.552582 176.0
362.282593 160.0
363.0672 184.0
367.109894 132.0
372.091705 160.0
373.355927 192.0
374.053864 760.0
375.042267 252.0
376.051941 172.0
387.956116 156.0
389.392273 204.0
390.178162 168.0
390.543884 204.0
391.905396 176.0
391.961182 172.0
392.06546 7624.0
393.067047 2128.0
393.284302 152.0
394.060608 736.0
395.023254 132.0
395.0784 140.0
403.511749 140.0
407.008484 140.0
410.050934 208.0
410.837219 144.0
