>compound MLS002222301-01!
>formula C19H28NO3
>ionization [M+H]+
>parentmass 319.21419520809053
#inchi InChI=1S/C19H28NO3/c1-20(2)13-12-17(14-20)23-18(21)19(22,16-10-6-7-11-16)15-8-4-3-5-9-15/h3-5,8-9,16-17,22H,6-7,10-14H2,1-2H3/q+1
#inchikey ANGKOCUUWGHLCE
#origInchi InChI=1S/C19H28NO3.BrH/c1-20(2)13-12-17(14-20)23-18(21)19(22,16-10-6-7-11-16)15-8-4-3-5-9-15;/h3-5,8-9,16-17,22H,6-7,10-14H2,1-2H3;1H/q+1;/p-1
#Ion_Source LC-ESI
#Instrument qTof
#Compound_Source NIH Pharmacologically Active Library
#PI Dorrestein
#Data_Collector VP/LMS
#Scan -1
#Precursor_MZ 318.207
#ExactMass 318.207
#Charge 1
#CAS_Number N/A
#Pubmed_ID N/A
#Smiles C[N+]1(C)CCC(C1)OC(=O)C(O)(C2CCCC2)c3ccccc3.[Br-]
#INCHI_AUX N/A
#Library_Class 1
#SpectrumID CCMSLIB00000086019
#IonMode Positive
#UpdateWorkflowName UPDATE-SINGLE-ANNOTATED-GOLD
#LibraryQualityString Gold
#TaskID d252d724072548979f1f6f1ced849daf
##Scan# 1572
#SpectrumFile p5-B03_GB3_01_18442.mzXML
#LibraryName Pharm_Active_Library.mgf
#MQScore -1
#Organism Pharm_Active_Library
#TIC_Query 0
#RT_Query -1
#MZErrorPPM -1
#SharedPeaks 0
#MassDiff 0
#LibMZ -1
#SpecMZ 318.207
#SpecCharge 0
#internalFilename spec-00000.mgf

>collision 10
44.920563 200.0
44.999298 48.0
45.099487 208.0
45.201126 48.0
45.277428 208.0
45.400719 72.0
45.449009 180.0
45.459743 176.0
45.510754 156.0
45.705647 96.0
45.789108 164.0
45.810658 164.0
45.95356 148.0
45.992695 160.0
46.087227 184.0
46.130474 204.0
46.141289 76.0
46.150753 180.0
46.261688 156.0
46.310436 200.0
46.348366 236.0
46.478535 172.0
46.532825 156.0
46.565414 156.0
46.683647 112.0
46.710846 148.0
46.728531 220.0
46.739418 44.0
46.7925 124.0
46.964195 220.0
47.05426 180.0
47.171745 136.0
47.205925 208.0
47.379749 156.0
47.39893 160.0
47.445988 192.0
47.474323 184.0
47.750359 120.0
47.854939 156.0
47.985825 60.0
48.035473 116.0
48.089283 196.0
48.195614 108.0
48.23431 160.0
48.34634 64.0
48.416943 40.0
48.468197 112.0
48.584656 232.0
48.597141 120.0
48.630447 100.0
48.731819 36.0
48.776287 208.0
48.862759 176.0
48.888943 172.0
48.944622 128.0
48.965511 140.0
48.996155 176.0
49.039352 144.0
49.053291 152.0
49.149517 172.0
49.264 104.0
49.294739 104.0
49.366245 264.0
49.391205 172.0
49.51577 204.0
49.525574 168.0
49.668541 84.0
49.787838 180.0
49.811714 64.0
49.886192 236.0
49.957909 120.0
49.984642 196.0
50.015602 128.0
50.036716 36.0
50.14941 176.0
50.361046 184.0
50.385059 112.0
50.468445 184.0
50.49128 216.0
50.525017 148.0
50.551899 184.0
50.59153 124.0
50.646755 192.0
50.697758 124.0
50.712929 244.0
50.816864 164.0
50.941795 64.0
50.968788 168.0
50.982998 128.0
51.110977 172.0
51.270462 204.0
51.465889 132.0
51.524445 224.0
51.571598 164.0
51.664543 244.0
51.773323 124.0
51.842087 104.0
51.92667 124.0
51.984051 132.0
52.11903 104.0
52.193771 92.0
52.248425 60.0
52.411114 192.0
52.448586 144.0
52.532692 220.0
52.601482 188.0
52.620247 192.0
52.708351 156.0
53.090508 152.0
53.138432 196.0
53.306805 160.0
53.428936 184.0
53.453671 40.0
53.490055 160.0
53.654663 160.0
53.755302 240.0
53.856037 132.0
53.892559 168.0
54.0256 176.0
54.050472 212.0
54.102329 240.0
54.114872 132.0
54.148552 148.0
54.160267 140.0
54.22913 180.0
54.298038 156.0
54.51384 136.0
54.538822 164.0
54.59322 188.0
54.61969 360.0
54.657944 132.0
54.774246 200.0
54.833183 152.0
54.903946 160.0
55.010506 144.0
55.082535 228.0
55.146069 176.0
55.21999 132.0
55.311726 188.0
55.465775 188.0
55.544361 204.0
55.690369 324.0
55.753704 116.0
55.774509 176.0
55.808704 76.0
55.897949 148.0
55.909851 176.0
55.942596 156.0
55.985775 208.0
56.085594 172.0
56.188488 176.0
56.237732 140.0
56.301929 136.0
56.315369 140.0
56.430431 96.0
56.532146 312.0
56.710361 128.0
56.806324 156.0
56.965443 116.0
57.043583 160.0
57.102222 196.0
57.151863 92.0
57.189484 148.0
57.231636 204.0
57.272297 172.0
57.302422 148.0
57.343109 236.0
57.598495 112.0
57.687248 180.0
57.749245 156.0
57.835487 184.0
58.011196 156.0
58.088531 144.0
58.193245 188.0
58.258549 180.0
58.296532 156.0
58.347782 184.0
58.37558 88.0
58.413601 176.0
58.510994 148.0
58.605419 192.0
58.806713 176.0
58.844875 164.0
58.901592 200.0
59.201141 188.0
59.2808 160.0
59.504738 116.0
59.687576 68.0
59.698341 180.0
59.807571 212.0
59.944637 72.0
60.076511 160.0
60.105003 168.0
60.177544 72.0
60.271763 204.0
60.370693 172.0
60.40781 160.0
60.434113 240.0
60.542263 184.0
60.695873 196.0
60.726891 100.0
60.913147 128.0
60.930237 132.0
60.984623 160.0
61.183727 224.0
61.222652 176.0
61.272495 176.0
61.298985 160.0
61.492359 176.0
61.655106 212.0
61.679787 228.0
61.850281 172.0
61.8675 180.0
61.894115 296.0
62.091564 196.0
62.264194 228.0
62.303463 188.0
62.437065 152.0
62.758297 136.0
62.813496 116.0
62.845047 240.0
62.871128 144.0
62.906593 188.0
63.032944 156.0
63.371544 172.0
63.40799 152.0
63.50153 196.0
63.52956 232.0
63.544361 192.0
63.590378 176.0
63.60466 212.0
63.709465 144.0
63.893875 148.0
63.947979 188.0
64.108826 156.0
64.161423 168.0
64.23159 136.0
64.303391 156.0
64.364052 204.0
64.386406 132.0
64.413559 156.0
64.504967 156.0
64.53981 160.0
64.666183 88.0
64.802299 196.0
65.282227 160.0
65.344963 180.0
65.478561 172.0
65.494667 88.0
65.591347 184.0
65.665512 204.0
65.691322 200.0
65.709068 208.0
65.762314 224.0
65.859192 112.0
65.935127 212.0
65.97715 148.0
66.014198 136.0
66.145386 260.0
66.192337 52.0
66.304115 196.0
66.36409 208.0
66.409492 224.0
66.427864 148.0
66.6595 168.0
66.719643 208.0
66.748909 40.0
67.006813 180.0
67.121788 156.0
67.265358 128.0
67.308571 128.0
67.503891 228.0
67.580765 164.0
67.613495 232.0
67.70681 212.0
67.72155 172.0
67.773972 176.0
67.860832 148.0
67.914948 144.0
67.948891 180.0
68.190781 192.0
68.251602 128.0
68.319038 60.0
68.347008 192.0
68.506699 160.0
68.533058 44.0
68.659988 104.0
68.787033 168.0
69.044777 148.0
69.115913 128.0
69.14901 144.0
69.160591 188.0
69.291412 180.0
69.465477 156.0
69.551758 76.0
69.608208 160.0
69.954018 168.0
69.974884 224.0
70.197266 188.0
70.227287 188.0
70.265656 180.0
70.425903 232.0
70.459312 88.0
70.529495 52.0
70.628143 184.0
70.847427 108.0
70.968102 120.0
71.003311 144.0
71.026794 236.0
71.177834 164.0
71.194626 184.0
71.20974 236.0
71.308868 208.0
71.409744 164.0
71.587189 244.0
71.626869 48.0
71.687515 188.0
71.734711 36.0
71.749878 128.0
71.803841 156.0
71.876373 196.0
71.916878 124.0
71.935448 212.0
71.989471 188.0
72.1297 192.0
72.148293 148.0
72.166893 96.0
72.195641 192.0
72.256531 164.0
72.449524 216.0
72.522385 148.0
72.53595 168.0
72.596985 176.0
72.64447 180.0
72.83004 172.0
72.900841 84.0
72.941635 156.0
73.03685 144.0
73.132133 208.0
73.162773 116.0
73.203636 232.0
73.224075 176.0
73.298561 180.0
73.319481 116.0
73.391068 184.0
73.413239 80.0
73.496819 108.0
73.600464 172.0
73.776917 184.0
73.900047 188.0
73.961655 284.0
73.98391 92.0
74.043839 188.0
74.067818 240.0
74.175766 228.0
74.20491 196.0
74.250061 144.0
74.275223 176.0
74.460587 152.0
74.55851 180.0
74.628983 168.0
74.709816 176.0
74.751106 148.0
74.792412 124.0
74.823395 44.0
74.859558 176.0
74.91156 144.0
74.9319 152.0
75.023239 148.0
75.069786 148.0
75.11808 124.0
75.216232 172.0
75.230247 168.0
75.297585 228.0
75.563782 176.0
75.633003 68.0
75.681473 120.0
75.709175 128.0
75.870316 164.0
75.898056 208.0
75.977837 108.0
76.031624 76.0
76.207878 136.0
76.51136 140.0
76.584496 172.0
76.615387 180.0
76.669861 196.0
76.791901 120.0
76.809341 200.0
76.908798 120.0
77.003082 36.0
77.018799 176.0
77.10965 44.0
77.184822 184.0
77.349274 120.0
77.436821 204.0
77.641869 200.0
77.771698 96.0
77.927986 216.0
78.05278 228.0
78.204071 124.0
78.258644 220.0
78.297379 104.0
78.323799 32.0
78.338295 140.0
78.371361 44.0
78.399559 164.0
78.418945 216.0
78.477112 176.0
78.560005 32.0
78.674706 44.0
78.764771 236.0
78.819534 248.0
78.983948 120.0
79.006943 176.0
79.026405 164.0
79.114891 140.0
79.270752 256.0
79.423218 164.0
79.593407 160.0
79.707268 156.0
79.93309 124.0
80.036331 192.0
80.251923 144.0
80.455307 204.0
80.487442 56.0
80.541016 180.0
80.562454 124.0
80.657158 40.0
80.892647 204.0
81.024002 84.0
81.188904 116.0
81.222984 124.0
81.253479 128.0
81.328842 44.0
81.404243 188.0
81.587509 192.0
81.69001 192.0
81.742188 248.0
82.053329 252.0
82.250755 188.0
82.335274 140.0
82.436432 164.0
82.602768 180.0
82.658852 224.0
82.740295 60.0
82.762024 160.0
82.852577 164.0
82.932312 164.0
82.953659 196.0
83.055603 164.0
83.157211 176.0
83.193512 232.0
83.389679 172.0
83.431488 156.0
83.566071 152.0
83.611557 220.0
83.626122 80.0
83.694 180.0
83.728073 168.0
83.863762 160.0
84.021538 144.0
84.083572 168.0
84.231468 156.0
84.27166 48.0
84.412399 192.0
84.438004 196.0
84.57888 212.0
84.611832 172.0
84.738197 180.0
84.917839 80.0
84.934349 308.0
85.015907 220.0
85.06646 192.0
85.134392 300.0
85.152763 212.0
85.255638 224.0
85.327324 156.0
85.36042 116.0
85.408234 132.0
85.421112 96.0
85.43399 204.0
85.542557 140.0
85.669624 136.0
85.689888 40.0
85.782028 72.0
85.837341 104.0
85.909096 132.0
85.942474 256.0
85.99968 120.0
86.042137 152.0
86.055061 172.0
86.069832 156.0
86.095688 192.0
86.114151 56.0
86.143707 92.0
86.297096 56.0
86.417969 192.0
86.469124 172.0
86.522804 232.0
86.582054 96.0
86.66214 156.0
86.713593 168.0
86.826683 136.0
86.843376 132.0
86.876762 68.0
86.945419 44.0
86.974564 68.0
87.188164 168.0
87.209145 236.0
87.22773 120.0
87.248177 160.0
87.320694 116.0
87.436043 136.0
87.689323 196.0
87.823563 68.0
87.838486 216.0
87.901917 160.0
88.006348 156.0
88.076073 412.0
88.109352 160.0
88.217552 176.0
88.360046 164.0
88.417686 152.0
88.468224 204.0
88.633034 208.0
88.732368 72.0
88.792374 140.0
88.966873 152.0
89.079842 204.0
89.269371 152.0
89.282532 128.0
89.331436 208.0
89.39917 100.0
89.540359 92.0
89.585564 164.0
89.602524 180.0
89.677895 136.0
89.775925 92.0
89.887222 52.0
89.979073 220.0
90.304726 60.0
90.33429 196.0
90.350121 168.0
90.42614 204.0
90.459877 140.0
90.526146 180.0
90.726982 80.0
90.854042 52.0
90.939423 152.0
91.013458 60.0
91.055786 188.0
91.097023 248.0
91.233849 100.0
91.319412 168.0
91.332726 116.0
91.3936 176.0
91.410728 188.0
91.620163 148.0
91.799324 164.0
91.938583 200.0
92.060585 344.0
92.131432 232.0
92.144798 208.0
92.173462 140.0
92.311089 184.0
92.399071 48.0
92.462219 196.0
92.56176 144.0
92.80127 208.0
92.820442 156.0
92.876053 228.0
92.956635 172.0
92.991173 172.0
93.006531 172.0
93.12365 136.0
93.165909 216.0
93.20433 196.0
93.260063 160.0
93.302353 132.0
93.388885 200.0
93.410042 148.0
93.433128 180.0
93.475349 144.0
93.540894 176.0
93.604424 204.0
93.662201 48.0
93.710358 68.0
93.745041 160.0
93.972565 148.0
94.117325 72.0
94.140495 128.0
94.200371 104.0
94.289246 152.0
94.325974 224.0
94.356903 220.0
94.412971 224.0
94.467133 188.0
94.503891 188.0
94.585167 160.0
94.687782 168.0
94.805954 136.0
95.195869 148.0
95.263847 160.0
95.361 224.0
95.388214 176.0
95.430984 68.0
95.674171 124.0
95.754005 164.0
95.817291 196.0
96.143913 148.0
96.17514 152.0
96.241508 32.0
96.323532 252.0
96.432953 128.0
96.52874 252.0
96.62458 116.0
96.779198 204.0
96.926102 40.0
97.012337 164.0
97.06723 212.0
97.230049 180.0
97.381218 136.0
97.457832 204.0
97.699654 84.0
97.918137 188.0
98.097343 4736.0
98.130356 156.0
98.164474 104.0
98.180733 148.0
98.584938 100.0
98.626442 212.0
98.660049 168.0
98.766617 112.0
98.875648 140.0
99.053841 188.0
99.102264 324.0
99.129128 160.0
99.146957 44.0
99.351189 176.0
99.44445 144.0
99.458344 56.0
99.698654 160.0
99.722504 112.0
99.847755 192.0
99.937271 212.0
100.07563 596.0
100.114426 176.0
100.179176 212.0
100.227966 108.0
100.313667 160.0
100.453247 212.0
100.479179 64.0
100.50312 156.0
100.588936 80.0
100.612892 124.0
100.842606 192.0
100.876587 144.0
100.934563 172.0
100.99456 184.0
101.08532 712.0
101.25074 196.0
101.40696 180.0
101.457115 40.0
101.503235 116.0
101.543343 220.0
101.573425 228.0
101.920738 296.0
102.011169 192.0
102.055405 128.0
102.123772 160.0
102.151932 176.0
102.166016 164.0
102.194183 204.0
102.284737 248.0
102.387421 116.0
102.576813 220.0
102.59697 68.0
102.713928 144.0
102.794632 112.0
102.834991 172.0
103.245918 260.0
103.297699 156.0
103.475784 160.0
103.556778 160.0
103.70063 148.0
103.868919 168.0
104.015015 176.0
104.260765 184.0
104.437645 124.0
104.484428 52.0
104.604492 148.0
104.688019 164.0
104.706299 224.0
104.79673 172.0
104.832603 176.0
104.958984 216.0
105.014404 180.0
105.033821 552.0
105.097679 152.0
105.130333 92.0
105.214012 164.0
105.453003 68.0
105.61657 212.0
105.665665 312.0
105.745468 176.0
105.798691 232.0
105.872398 248.0
105.977203 220.0
106.04039 160.0
106.095734 296.0
106.302887 248.0
106.387039 204.0
106.421944 144.0
106.444527 156.0
106.460953 160.0
106.637634 208.0
106.867943 36.0
106.902924 76.0
106.921448 208.0
107.024368 128.0
107.051506 1416.0
107.152069 124.0
107.255104 36.0
107.387062 104.0
107.457191 228.0
107.490204 136.0
107.554184 244.0
107.65741 188.0
107.750359 200.0
107.928101 164.0
108.060364 152.0
108.091507 116.0
108.128761 172.0
108.234337 224.0
108.271606 116.0
108.348244 144.0
108.383469 168.0
108.412476 200.0
108.474655 256.0
108.524406 196.0
108.62603 172.0
108.723541 100.0
108.769203 128.0
108.881317 164.0
108.929092 164.0
109.053757 204.0
109.072464 228.0
109.14315 136.0
109.25338 164.0
109.359497 180.0
109.399048 196.0
109.424026 168.0
109.451096 188.0
109.519821 120.0
109.557312 216.0
109.732376 220.0
109.809029 184.0
109.957657 144.0
109.978523 132.0
110.258385 100.0
110.442368 44.0
110.480026 152.0
110.603485 144.0
110.63279 192.0
110.775185 124.0
110.821274 244.0
110.942825 148.0
111.051865 192.0
111.131577 196.0
111.247002 228.0
111.709312 156.0
111.730347 136.0
111.757698 200.0
111.894501 172.0
111.942924 212.0
111.978729 176.0
112.383461 180.0
112.429886 144.0
112.453102 168.0
112.759338 164.0
112.820633 200.0
112.856575 180.0
112.94751 160.0
113.176071 180.0
113.34552 128.0
113.544785 144.0
113.559631 164.0
113.704063 152.0
113.818527 168.0
113.94384 216.0
114.092598 120.0
114.164894 208.0
114.192535 144.0
114.277626 204.0
114.320183 60.0
114.385139 208.0
114.441513 72.0
114.528824 208.0
114.54586 176.0
114.57782 88.0
114.637169 168.0
114.829338 196.0
114.961296 164.0
114.989349 184.0
115.053391 120.0
115.179375 172.0
115.222099 208.0
115.286201 156.0
115.300682 108.0
115.433098 156.0
115.534225 44.0
115.554634 128.0
115.579147 184.0
115.646507 152.0
115.668091 172.0
115.696861 144.0
115.740829 216.0
115.782028 212.0
115.806068 72.0
115.836052 152.0
115.862518 148.0
115.879524 164.0
115.904358 272.0
115.920364 180.0
115.939445 172.0
115.94384 208.0
115.952774 160.0
115.979256 164.0
115.989723 168.0
116.012825 472.0
116.057892 380.0
116.086464 476.0
116.108788 109760.0
116.169472 52.0
116.186844 44.0
116.213852 176.0
116.24752 116.0
116.266083 148.0
116.269707 172.0
116.28743 76.0
116.311867 160.0
116.319954 120.0
116.329971 120.0
116.334679 76.0
116.358597 48.0
116.374695 104.0
116.388145 108.0
116.429092 72.0
116.46138 1896.0
116.514923 96.0
116.557945 132.0
116.582695 56.0
116.618553 72.0
116.658516 72.0
116.679413 76.0
116.709518 48.0
116.758759 40.0
116.774422 44.0
116.7967 148.0
116.833885 92.0
116.866692 52.0
116.882019 92.0
116.898087 48.0
116.934563 112.0
116.983025 152.0
117.027954 76.0
117.065819 356.0
117.111038 11016.0
117.179253 32.0
117.228271 48.0
117.295082 72.0
117.337738 56.0
117.387787 56.0
117.420135 28.0
117.458961 52.0
117.478371 124.0
117.501686 124.0
117.545258 28.0
117.614311 60.0
117.633743 52.0
117.664619 92.0
117.685555 52.0
117.709305 72.0
117.734833 112.0
117.764374 72.0
117.787056 100.0
117.845383 92.0
117.870331 88.0
117.900352 200.0
117.933983 64.0
117.965942 112.0
117.974045 112.0
117.978508 100.0
118.001572 156.0
118.044235 136.0
118.077301 88.0
118.113556 856.0
118.165359 84.0
118.249756 132.0
118.2649 60.0
118.292427 56.0
118.310356 36.0
118.327682 48.0
118.440285 76.0
118.498772 40.0
118.574615 92.0
118.613632 36.0
118.781174 104.0
119.049713 296.0
119.064919 116.0
119.119217 116.0
119.438744 144.0
119.593224 80.0
119.691193 48.0
120.042015 92.0
120.474159 124.0
120.963989 32.0
121.625961 100.0
121.845551 44.0
122.542976 232.0
122.990631 64.0
123.014915 72.0
123.112061 48.0
123.483337 112.0
125.040787 56.0
125.136505 100.0
125.20108 88.0
125.397125 148.0
125.544266 52.0
126.011711 152.0
126.663994 148.0
126.76033 68.0
126.909889 116.0
127.043961 148.0
127.1595 100.0
127.253784 68.0
127.566048 184.0
127.786438 184.0
128.067749 228.0
128.094849 164.0
128.683441 120.0
129.070877 604.0
129.17836 40.0
129.429581 56.0
129.926468 84.0
130.075699 304.0
130.157425 56.0
131.039917 56.0
131.245041 68.0
131.731155 168.0
131.84996 124.0
132.090027 172.0
133.875641 76.0
133.923996 48.0
134.465805 148.0
137.03511 48.0
137.08638 72.0
137.191254 92.0
138.945206 172.0
139.111816 56.0
140.224365 168.0
140.559235 68.0
142.080887 144.0
143.602921 244.0
143.684021 184.0
143.738892 192.0
144.099457 648.0
144.850601 76.0
145.099213 224.0
145.279678 192.0
145.342056 164.0
146.002655 192.0
149.004761 128.0
149.118973 132.0
151.084305 200.0
151.716125 132.0
152.27066 224.0
152.486862 88.0
154.021835 152.0
155.090744 136.0
156.947769 160.0
157.082932 168.0
157.102295 820.0
157.127335 204.0
157.404388 76.0
158.104645 156.0
158.64534 80.0
163.408432 204.0
164.310303 188.0
167.952972 168.0
168.484726 120.0
168.593246 220.0
168.947464 132.0
169.063904 36.0
169.916367 192.0
170.030533 176.0
170.248611 96.0
172.324615 124.0
174.313324 92.0
175.111557 1336.0
175.500443 152.0
175.598007 220.0
175.748367 48.0
176.113297 124.0
176.548737 144.0
177.528564 88.0
180.086105 160.0
180.278458 148.0
180.524384 116.0
181.64122 76.0
181.737793 208.0
181.893448 52.0
183.410492 60.0
184.933853 140.0
186.020767 140.0
187.157166 140.0
187.546722 84.0
188.60849 220.0
189.158295 176.0
189.623917 212.0
190.540405 156.0
190.864716 92.0
191.117767 56.0
197.08194 176.0
197.747482 152.0
200.592789 144.0
201.422379 156.0
201.478882 120.0
201.659729 76.0
202.021652 160.0
202.10936 196.0
202.420715 180.0
204.134644 108.0
204.242706 112.0
206.141449 232.0
207.291779 156.0
208.761505 140.0
209.313995 64.0
209.769196 156.0
211.542831 116.0
212.174362 160.0
213.117599 188.0
213.34137 100.0
213.815491 180.0
213.940643 172.0
214.083313 144.0
215.62851 156.0
215.649948 140.0
216.609665 192.0
218.491348 168.0
219.251007 216.0
220.132889 144.0
221.147064 156.0
221.555695 152.0
221.576447 128.0
221.878723 60.0
223.08696 172.0
224.140533 164.0
224.790573 164.0
226.186264 220.0
227.307129 136.0
229.713989 132.0
230.269363 128.0
231.006866 144.0
232.855789 120.0
235.114731 60.0
236.086197 88.0
236.159592 44.0
237.320206 52.0
238.480576 124.0
238.650848 124.0
238.748047 92.0
239.320389 148.0
241.149673 84.0
241.220764 108.0
244.150726 156.0
246.157578 184.0
246.56369 52.0
247.978287 100.0
248.138153 112.0
249.130539 224.0
250.133667 160.0
252.407608 120.0
254.482971 112.0
254.625854 28.0
254.76561 52.0
255.073853 84.0
255.639969 68.0
258.169891 164.0
258.963348 52.0
259.178314 588.0
259.604309 128.0
259.67807 172.0
260.056641 132.0
264.042023 100.0
264.362274 136.0
266.076904 216.0
266.469879 84.0
267.155823 192.0
268.96106 76.0
270.17337 192.0
270.210999 216.0
271.178619 188.0
272.182465 208.0
272.218567 152.0
272.560181 60.0
274.564911 48.0
274.848602 112.0
275.115936 120.0
276.100555 156.0
280.13327 132.0
281.146851 128.0
282.153687 168.0
282.202393 48.0
283.742462 124.0
284.195221 172.0
284.460358 52.0
287.820251 96.0
287.941833 92.0
292.471497 164.0
292.655334 128.0
294.698334 200.0
295.202454 248.0
295.970703 224.0
297.908417 68.0
299.153259 136.0
300.562836 116.0
300.728485 192.0
302.110626 72.0
305.806061 52.0
309.180908 140.0
312.817108 92.0
313.03891 120.0
315.501617 100.0
315.844635 176.0
316.279846 156.0
316.708282 32.0
317.179535 112.0
317.210541 200.0
317.271698 80.0
317.686615 140.0
317.753998 164.0
317.784729 212.0
317.853363 92.0
317.924316 56.0
318.121094 244.0
318.161621 408.0
318.207184 17600.0
318.279297 112.0
318.338409 136.0
318.527893 52.0
318.567322 76.0
318.620239 44.0
318.662872 96.0
318.705505 116.0
318.757935 48.0
318.794983 112.0
318.833588 108.0
318.892426 168.0
318.957825 80.0
319.117798 196.0
319.21051 3268.0
319.266968 228.0
319.441437 60.0
319.484131 60.0
319.544586 36.0
319.818604 52.0
319.843506 48.0
319.904022 72.0
320.171082 36.0
320.212585 404.0
320.256531 80.0
320.438202 148.0
320.82309 44.0
321.0513 112.0
321.214966 240.0
321.370514 164.0
321.493652 136.0
321.93988 180.0
322.218475 72.0
322.901215 112.0
323.133728 112.0
323.187378 116.0
323.305481 120.0
323.373474 60.0
324.207916 72.0
327.084747 48.0
328.980804 80.0
329.475555 80.0
331.019928 96.0
333.4505 84.0
334.105011 76.0
336.919373 100.0
337.259216 104.0
340.677979 92.0
341.438812 128.0
342.716125 100.0
345.189178 112.0
347.225952 116.0
349.179443 240.0
351.213013 156.0
353.461975 116.0
353.780121 108.0
377.099792 152.0
380.217468 124.0
386.233093 124.0
393.262299 100.0
394.249481 92.0
440.984131 128.0
455.946045 48.0
470.03067 128.0
482.880859 92.0
483.362061 64.0
495.279602 40.0
516.126099 108.0
520.239868 64.0
521.66626 60.0
550.81427 64.0
621.74231 136.0
659.457947 80.0
663.922241 164.0
669.678284 44.0
711.993225 52.0
731.762024 216.0
791.236328 60.0
794.778503 64.0
800.202209 52.0
808.788391 124.0
814.543579 164.0
815.367432 164.0
835.891663 164.0
848.894531 148.0
859.451904 204.0
867.159241 208.0
874.97168 172.0
880.508423 132.0
882.78363 56.0
883.570312 248.0
884.718384 84.0
908.976257 168.0
914.992615 44.0
919.368591 64.0
923.464661 120.0
925.44342 164.0
936.385925 232.0
936.501648 32.0
938.994385 184.0
939.09198 204.0
945.33551 104.0
956.443909 176.0
956.733215 76.0
961.719971 52.0
967.914368 160.0
968.323059 116.0
977.54187 236.0
981.222961 160.0
985.529358 136.0
987.479736 176.0
990.778442 176.0
991.010254 128.0
993.066345 132.0
994.434143 172.0
998.95813 228.0
1003.631104 252.0
1009.370667 124.0
1010.509155 168.0
1013.516541 32.0
1015.430969 120.0
1015.652954 176.0
1015.944763 148.0
1017.664612 172.0
1021.859375 144.0
1028.014404 132.0
1028.518555 172.0
1028.844116 164.0
1029.073975 132.0
1029.687012 148.0
1031.731689 212.0
1032.275146 168.0
1033.682373 128.0
1034.277588 96.0
1036.371704 68.0
1038.275513 184.0
1038.660278 152.0
1040.001343 120.0
1040.887207 156.0
1043.675903 180.0
1045.605713 156.0
1054.570312 48.0
1054.693115 184.0
1055.384888 184.0
1055.785767 180.0
1056.633179 148.0
1058.050415 156.0
1060.745239 220.0
1060.822998 124.0
1061.555664 44.0
1064.891357 160.0
1065.521484 164.0
1065.989258 208.0
1067.946045 156.0
1075.177734 40.0
1077.783203 164.0
1078.142578 152.0
1079.319214 152.0
1082.794067 192.0
1086.674561 172.0
1087.002563 200.0
1087.888672 164.0
1089.963989 176.0
1090.095459 140.0
1090.73291 56.0
1091.009033 40.0
1092.311035 164.0
1094.384033 188.0
1096.03064 180.0
1097.25 184.0
1099.736816 176.0
1099.987671 52.0
1102.98645 236.0
1103.290527 160.0
1106.154907 188.0
1107.234131 188.0
1109.07959 180.0
1111.582764 144.0
1111.688965 164.0
1112.68457 96.0
1114.311646 152.0
1115.015991 176.0
1115.275269 132.0
1116.039673 144.0
1117.862305 192.0
1120.285767 144.0
1120.460327 188.0
1120.838745 128.0
1121.418457 212.0
1122.72522 240.0
1122.838501 176.0
1123.959229 128.0
1124.927002 208.0
1125.407593 228.0
1126.041992 76.0
1126.562988 180.0
1127.117554 184.0
1127.244507 48.0
1127.83252 196.0
1128.360718 156.0
1131.53186 188.0
1132.777344 144.0
1134.834839 196.0
1135.385498 176.0
1137.612183 136.0
1138.908081 144.0
1140.850098 144.0
1143.957886 196.0
1145.695312 212.0
1145.85022 132.0
1146.955444 64.0
1148.519775 32.0
1149.639648 236.0
1150.719482 216.0
1151.69873 228.0
1152.245972 132.0
1153.692139 148.0
1154.496704 276.0
1154.631958 152.0
1155.037842 164.0
1156.538452 164.0
1158.639038 56.0
1165.151855 240.0
1165.797241 128.0
1167.530762 140.0
1168.374146 220.0
1169.074951 196.0
1169.626221 152.0
1169.735229 152.0
1170.40918 172.0
1171.662354 120.0
1172.187012 200.0
1172.493652 160.0
1172.643555 128.0
1172.800293 216.0
1172.902588 48.0
1177.282593 40.0
1178.286621 116.0
1180.788452 208.0
1181.431396 132.0
1181.602417 132.0
1182.731567 204.0
1183.135376 128.0
1183.484497 160.0
1183.717407 196.0
1185.505249 84.0
1186.876099 140.0
1188.014648 160.0
1188.282227 176.0
1188.584106 120.0
1189.345825 128.0
1190.622803 168.0
1190.808228 256.0
1191.35083 136.0
1191.522583 132.0
1192.594604 64.0
1194.664307 88.0
1197.107666 144.0
1197.692993 180.0
1198.347412 148.0
1198.678223 160.0
1198.754028 160.0
1198.960693 176.0
1200.036011 96.0
1200.284302 140.0
1201.029053 216.0
1201.091187 160.0
1201.229126 140.0
1201.546387 124.0
1202.022461 200.0
1202.415771 184.0
1202.491699 196.0
1204.293701 148.0
1204.535522 124.0
1204.63916 164.0
1205.433594 128.0
1205.634033 148.0
1206.525635 144.0
1207.638916 136.0
1207.832642 212.0
1208.247681 124.0
1211.141113 52.0
1211.452881 140.0
1211.612183 164.0
1211.660645 244.0
1213.053589 180.0
1213.365479 188.0
1214.003418 184.0
1215.779297 168.0
1215.827881 128.0
1216.244263 208.0
1216.393188 164.0
1216.674683 200.0
1217.105103 148.0
1217.257935 184.0
1221.37207 104.0
1221.559937 184.0
1221.787354 172.0
1223.320435 100.0
1223.536255 164.0
1224.727051 184.0
1225.549072 144.0
1227.256714 116.0
1228.491089 160.0
1229.167847 204.0
1229.314331 128.0
1229.370117 44.0
1233.316528 128.0
1234.93811 180.0
1235.036133 196.0
1236.428345 140.0
1237.457275 244.0
1237.716431 180.0
1238.304565 148.0
1238.766846 112.0
1239.691772 120.0
1241.367065 156.0
1241.591431 68.0
1242.061401 224.0
1242.587524 112.0
1242.805054 216.0
1244.12439 152.0
1245.100464 160.0
1245.430542 144.0
1245.479736 200.0
1246.294556 164.0
1246.533447 204.0
1246.955078 176.0
1247.818237 200.0
1249.205078 128.0
1249.49353 104.0
1249.986084 176.0
1250.55603 212.0
1250.647583 148.0
1250.801636 216.0
1251.140259 168.0
1251.837402 208.0
1252.566772 140.0
1252.781128 192.0
1253.02063 244.0
1253.126343 204.0
1253.866211 192.0
1254.296143 136.0
1254.65564 144.0
1255.283203 236.0
1255.776855 228.0
1255.896729 156.0
1257.208984 128.0
1257.399536 140.0
1257.470093 292.0
1258.422974 172.0
1259.030273 156.0
1260.506714 240.0
1260.718628 180.0
1260.937744 164.0
1261.538574 168.0
1261.86377 204.0
1262.188965 160.0
1262.309204 128.0
1263.087158 204.0
1263.631836 136.0
1264.105835 160.0
1264.558838 200.0
1264.785278 212.0
1266.930908 244.0
1267.46228 124.0
1267.752563 176.0
1268.248901 120.0
1268.326782 128.0
1268.624512 156.0
1269.397339 172.0
1269.638428 180.0
1269.766113 184.0
1270.016846 160.0
1270.468262 140.0
1270.603027 56.0
1272.001099 168.0
1273.335938 156.0
1273.733643 164.0
1274.380127 124.0
1275.865479 172.0
1275.979248 204.0
1277.30896 188.0
1277.664673 44.0
1278.219604 176.0
1278.767578 96.0
1280.027588 228.0
1280.184326 216.0
1280.875122 156.0
1281.509155 108.0
1282.424927 160.0
1282.863159 108.0
1283.205444 212.0
1284.555298 168.0
1285.445068 212.0
1285.81604 172.0
1287.943726 184.0
1290.366211 192.0
1290.602173 188.0
1291.088379 156.0
1291.238525 176.0
1291.689209 180.0
1292.189941 248.0
1292.418823 168.0
1293.120117 144.0
1294.874146 124.0
1295.690796 212.0
1295.862671 164.0
1295.977295 80.0
1296.993652 164.0
1297.470093 152.0
1298.084717 164.0
1299.433105 152.0
1299.512085 152.0
1300.294189 148.0
1300.466431 148.0
1300.976074 212.0
1301.320679 100.0
1301.421143 148.0
1301.571899 124.0
1302.275757 72.0
1302.835938 180.0
1303.008423 180.0
1303.0802 72.0
1303.223999 168.0
1304.366577 180.0
1304.474365 120.0
1304.574341 160.0
1304.783569 172.0
1304.984863 156.0
1305.30835 196.0
1306.106689 204.0
1306.272095 180.0
1306.502319 172.0
1307.049072 196.0
1307.732788 168.0
1308.294189 192.0
1309.050171 76.0
1309.900024 120.0
1311.506836 152.0
1312.162842 176.0
1314.11731 84.0
1315.134766 136.0
1315.225586 148.0
1315.336914 172.0
1316.412598 144.0
1319.242554 176.0
1319.432739 128.0
1319.591797 164.0
1320.770508 160.0
1322.514282 116.0
1322.579468 180.0
1322.745972 132.0
1323.035522 184.0
1323.10791 236.0
1323.296143 68.0
1325.411011 204.0
1326.324097 148.0
1326.70105 220.0
1326.875 52.0
1327.542114 112.0
1327.614624 148.0
1327.687134 176.0
1327.882935 204.0
1328.441406 188.0
1329.384644 192.0
1330.495117 72.0
1330.691162 368.0
1330.80542 152.0
1331.656982 156.0
1331.747314 156.0
1331.860352 168.0
1332.1073 116.0
1332.230713 140.0
1332.971802 228.0
1333.168091 172.0
1334.796387 120.0
1335.399902 176.0
1336.018188 132.0
1336.185547 260.0
1336.60022 148.0
1336.854858 152.0
1337.44873 252.0
1337.568115 132.0
1337.640991 136.0
1337.859375 144.0
1339.3302 60.0
1339.4104 188.0
1340.175293 104.0
1341.122559 188.0
1341.800537 172.0
1342.354614 220.0
1342.668213 200.0
1342.770386 192.0
1343.200684 180.0
1344.769409 160.0
1344.849609 96.0
1345.200073 180.0
1345.353271 172.0
1347.778076 288.0
1348.82312 164.0
1348.874878 132.0
1349.714966 128.0
1350.89978 208.0
1351.141235 132.0
1351.302124 124.0
1351.375244 176.0
1351.880127 164.0
1352.612061 192.0
1352.904907 128.0
1353.248901 244.0
1353.40271 180.0
1354.186279 180.0
1355.072632 212.0
1355.241089 240.0
1355.556152 156.0
1355.951904 120.0
1357.777344 188.0
1359.39856 60.0
1359.787598 60.0
1359.956299 120.0
1361.498047 132.0
1362.342773 196.0
1362.467651 192.0
1363.011353 176.0
1363.432251 116.0
1364.709229 40.0
1365.518066 188.0
1365.952026 132.0
1366.753906 84.0
1366.80542 216.0
1366.871704 192.0
1367.342651 192.0
1367.453003 68.0
1367.541382 156.0
1367.776855 172.0
1368.04187 196.0
1368.940063 120.0
1369.168335 200.0
1369.356934 248.0
1370.369019 168.0
1370.531128 88.0
1370.855347 164.0
1371.666016 168.0
1371.916748 136.0
1372.233643 128.0
1373.612671 180.0
1374.87439 192.0
1375.427856 192.0
1375.907715 144.0
1376.631348 136.0
1376.778931 96.0
1377.096558 172.0
1377.244263 180.0
1377.635742 244.0
1378.271118 160.0
1378.596313 184.0
1378.721924 180.0
1379.283569 136.0
1379.350098 52.0
1379.484985 216.0
1379.58667 68.0
1380.059814 144.0
1380.377808 200.0
1380.540405 152.0
1380.636597 128.0
1381.021118 128.0
1381.651367 160.0
1382.182617 196.0
1382.559937 96.0
1382.744995 136.0
1383.388916 160.0
1384.506958 180.0
1384.90686 208.0
1384.963989 212.0
1385.047607 116.0
1385.106812 136.0
1385.358765 152.0
1386.892578 52.0
1387.493042 88.0
1388.256714 92.0
1388.679443 172.0
1389.109619 148.0
1389.295044 176.0
1389.369263 236.0
1389.910889 80.0
1390.059204 236.0
1390.155762 176.0
1390.682617 188.0
1392.694702 68.0
1393.103271 92.0
1393.318726 228.0
1394.299438 160.0
1394.693359 160.0
1395.49646 148.0
1396.187744 120.0
1396.455566 136.0
1396.515015 156.0
1397.251465 72.0
1397.943359 160.0
1398.211304 156.0
1398.456909 136.0
1398.516479 192.0
1398.709961 180.0
1399.268311 76.0
1399.499023 204.0
1399.893677 160.0
1400.578857 184.0
1402.054077 76.0
1402.44165 120.0
1402.918701 188.0
1403.425659 168.0
1403.783569 164.0
1403.873047 252.0
1404.022095 52.0
1404.074341 144.0
1404.283203 160.0
1404.924683 152.0
1405.506592 172.0
1405.8573 180.0
1405.909546 164.0
1406.11853 204.0
1406.305054 156.0
1406.551392 180.0
1406.782837 140.0
1407.977417 204.0
1408.373291 168.0
1410.129028 148.0
1410.996094 36.0
1412.125244 176.0
1412.471069 200.0
1412.813354 192.0
1413.367065 176.0
1413.673828 152.0
1413.756104 184.0
1413.845947 64.0
1413.935791 68.0
1414.571899 196.0
1415.380493 148.0
1415.470337 252.0
1417.020752 136.0
1417.582642 204.0
1417.904907 224.0
1418.624512 228.0
1418.804443 240.0
1419.149292 176.0
1419.44165 236.0
1420.40918 96.0
1420.731689 36.0
1420.844238 136.0
1421.438477 176.0
1422.277466 192.0
1423.013184 148.0
1423.666382 64.0
1424.82312 48.0
1425.08606 124.0
1426.032837 116.0
1426.587646 140.0
1426.761963 40.0
1428.228394 156.0
1429.356812 176.0
1429.537354 208.0
1429.913696 52.0
1430.244873 148.0
1430.455566 156.0
1430.606079 180.0
1430.914795 44.0
1431.050293 60.0
1433.91272 152.0
1434.598633 100.0
1434.651367 84.0
1435.292236 68.0
1435.405396 144.0
1436.03125 84.0
1436.084106 152.0
1436.385742 196.0
1436.717651 112.0
1438.106079 92.0
1438.317383 152.0
1438.377808 204.0
1438.566528 208.0
1438.90625 132.0
1438.959106 208.0
1439.276245 200.0
1439.842529 180.0
1440.114502 148.0
1440.507202 132.0
1441.232422 64.0
1441.428955 192.0
1441.549805 128.0
1442.071289 224.0
1442.836548 132.0
1443.03125 200.0
1443.303467 120.0
1443.94751 208.0
1444.46814 104.0
1444.967407 168.0
1445.792114 216.0
1445.845093 168.0
1445.90564 180.0
1447.191528 188.0
1447.93457 192.0
1448.098267 240.0
1449.146606 216.0
1449.858887 164.0
1450.245361 224.0
1450.457642 204.0
1450.593994 104.0
1451.138916 168.0
1452.133179 220.0
1452.800659 112.0
1453.210327 140.0
1453.362183 136.0
1453.506348 116.0
1455.631714 100.0
1458.13855 136.0
1458.357422 196.0
1459.012695 176.0
1459.240723 160.0
1460.099976 152.0
1460.601929 220.0
1461.484375 92.0
1462.298706 116.0
1462.367188 184.0
1462.922852 40.0
1463.380737 176.0
1463.783081 68.0
1464.582764 156.0
1464.940796 188.0
1466.449463 200.0
1467.455688 164.0
1467.570068 180.0
1467.936035 176.0
1468.248657 128.0
1469.224976 140.0
1469.66748 124.0
1470.155884 168.0
1470.34668 200.0
1470.774048 80.0
1470.964844 200.0
1471.919189 60.0
1472.568237 204.0
1472.72522 212.0
1473.462036 48.0
1473.652954 192.0
1473.973877 164.0
1475.105591 160.0
1475.632446 176.0
1476.091187 164.0
1476.259399 40.0
1476.368164 240.0
1476.5271 176.0
1477.544434 168.0
1477.904053 164.0
1478.095337 144.0
1478.409058 120.0
1478.516113 132.0
1478.71521 144.0
1478.939575 148.0
1479.717896 140.0
1480.368774 72.0
1481.050293 76.0
1481.257202 108.0
1482.023193 176.0
1482.199463 120.0
1482.689941 168.0
1482.758911 124.0
1484.008301 220.0
1484.108032 184.0
1484.989868 52.0
1485.718506 136.0
1485.93335 56.0
1485.987061 148.0
1486.270996 140.0
1488.481567 136.0
1489.272583 172.0
1489.426147 168.0
1489.833252 164.0
1490.878296 188.0
1491.250122 216.0
1491.362427 188.0
1491.600708 168.0
1492.261841 184.0
1492.383423 176.0
1493.399902 128.0
1493.615234 120.0
1494.18457 188.0
1494.515381 92.0
1494.807739 144.0
1494.915405 192.0
1495.692749 224.0
1496.054565 148.0
1496.485718 68.0
1497.05542 120.0
1498.457275 116.0
1498.60376 124.0
1499.227783 52.0
1500.021729 208.0
1500.592163 144.0
1500.738647 168.0
1501.810547 208.0
1502.651367 80.0
1502.743896 220.0
1503.021729 80.0
1504.210205 64.0
1504.271973 184.0
1504.349121 192.0
1504.611572 220.0
