>compound MLS000876961-01!methyl 4-hydroxy-3-(4-hydroxyphenyl)-2-[(4-hydroxyphenyl)methyl]-5-oxofuran-2-carboxylate
>formula C19H16O7
>ionization [M+H]+
>parentmass 357.097
#inchi InChI=1S/C19H16O7/c1-25-18(24)19(10-11-2-6-13(20)7-3-11)15(16(22)17(23)26-19)12-4-8-14(21)9-5-12/h2-9,20-22H,10H2,1H3
#inchikey AEKPZNDJHWFONI
#Ion_Source LC-ESI
#Instrument qTof
#Compound_Source NIH Natural Product Library
#PI Dorrestein
#Data_Collector VVP/LMS
#Scan -1
#Precursor_MZ 357.097
#ExactMass 356.09
#Charge 1
#CAS_Number N/A
#Pubmed_ID N/A
#Smiles COC(=O)C1(Cc2ccc(O)cc2)OC(=O)C(=C1c3ccc(O)cc3)O
#INCHI_AUX N/A
#Library_Class 3
#SpectrumID CCMSLIB00000079538
#IonMode Positive
#UpdateWorkflowName UPDATE-SINGLE-ANNOTATED-BRONZE
#LibraryQualityString Bronze
#TaskID b1d8e8f6646f4e71acdff9ca3d919d08
##Scan# 1839
#SpectrumFile p1-H07_GH7_01_17963.mzXML
#LibraryName NIH_Natural_Products_Library.mgf
#MQScore -1
#Organism NIH_Natural_Products_Library
#TIC_Query 0
#RT_Query -1
#MZErrorPPM -1
#SharedPeaks 0
#MassDiff 0
#LibMZ -1
#SpecMZ 357.097
#SpecCharge 0
#internalFilename spec-00000.mgf

>collision 10
95.429459 164.0
95.951241 116.0
96.004578 256.0
97.391525 64.0
97.666702 148.0
98.757462 164.0
99.695236 224.0
100.629456 128.0
100.879181 156.0
100.999161 104.0
101.929398 172.0
102.05201 200.0
102.341751 112.0
102.861221 156.0
102.956787 136.0
103.052216 736.0
103.16288 112.0
104.056313 152.0
104.422089 176.0
104.694801 172.0
105.030174 204.0
105.069855 144.0
105.410835 176.0
105.68074 168.0
105.942802 224.0
106.045258 164.0
106.067802 152.0
106.815247 96.0
107.049263 3608.0
107.239418 108.0
107.264153 52.0
108.055099 148.0
108.1772 192.0
108.268303 188.0
108.48172 164.0
108.608208 152.0
109.02137 132.0
110.761444 36.0
110.836868 208.0
110.878777 84.0
112.266312 144.0
113.306274 104.0
113.465225 184.0
113.503387 236.0
113.789825 152.0
114.67263 116.0
114.907196 56.0
115.050186 156.0
115.783607 216.0
119.048904 372.0
119.120422 144.0
119.187775 184.0
119.579216 32.0
120.052055 172.0
120.174133 76.0
120.412071 224.0
121.028191 3092.0
121.087883 120.0
121.155785 84.0
122.029198 184.0
122.833107 112.0
122.985359 100.0
123.035004 188.0
123.829971 200.0
124.986572 156.0
125.129021 68.0
127.266502 160.0
129.537598 52.0
130.072754 220.0
130.702286 72.0
131.000534 148.0
131.048416 2584.0
131.609482 128.0
132.051041 536.0
133.029236 188.0
133.047318 140.0
133.458572 84.0
134.029404 156.0
134.068588 44.0
136.757523 100.0
137.060745 212.0
137.139496 220.0
137.188446 72.0
137.410004 76.0
137.440338 136.0
138.375259 132.0
138.614182 192.0
138.71965 48.0
139.369751 152.0
140.875229 52.0
141.06665 148.0
141.45697 76.0
141.679565 108.0
141.698517 120.0
142.075485 164.0
144.003601 160.0
144.056931 172.0
144.929016 176.0
145.070801 140.0
145.329819 100.0
145.373016 52.0
145.653915 88.0
146.036102 128.0
146.645248 164.0
146.77301 200.0
147.043015 800.0
147.436859 132.0
148.050674 300.0
148.66954 56.0
149.04837 244.0
149.790405 120.0
150.781021 72.0
151.043777 240.0
152.06105 424.0
153.064728 132.0
154.078674 236.0
154.85788 120.0
154.994141 148.0
155.051132 152.0
155.18251 156.0
156.058975 172.0
157.027664 312.0
157.065079 192.0
158.03595 200.0
158.076935 108.0
159.042801 772.0
159.074463 88.0
159.390915 128.0
159.493958 100.0
160.04744 532.0
160.705276 96.0
160.929916 100.0
161.059311 448.0
161.086502 148.0
162.065582 188.0
163.001907 196.0
163.036835 288.0
163.678528 136.0
165.070175 392.0
166.075729 220.0
166.314346 144.0
166.424744 56.0
166.527466 132.0
167.084351 168.0
167.453369 152.0
168.090149 192.0
169.046402 156.0
170.072571 140.0
171.240005 188.0
171.33638 168.0
171.732605 204.0
172.129288 164.0
172.973755 200.0
173.023499 116.0
174.043411 168.0
175.036728 1052.0
175.119003 28.0
175.205933 192.0
176.038132 296.0
176.061981 416.0
176.52829 128.0
177.067184 836.0
177.773361 256.0
178.076614 848.0
178.823135 60.0
179.084824 556.0
179.29187 64.0
179.326523 92.0
179.403824 40.0
180.090302 408.0
180.156387 64.0
181.062714 528.0
181.186356 32.0
181.703796 204.0
182.070206 172.0
182.098389 148.0
182.514938 120.0
183.823761 152.0
184.056213 160.0
184.758942 140.0
185.020859 224.0
185.332916 40.0
186.032654 152.0
187.04303 188.0
187.220856 200.0
187.460587 116.0
188.033279 168.0
189.066177 748.0
190.073822 452.0
191.030914 128.0
191.085938 336.0
191.694458 172.0
191.846054 224.0
192.483398 212.0
192.781738 172.0
193.069992 148.0
193.116257 48.0
193.714157 176.0
194.066666 308.0
195.001633 152.0
195.077393 928.0
195.171219 40.0
196.085083 156.0
198.687622 204.0
198.889679 56.0
198.98793 176.0
199.072357 192.0
199.420532 136.0
200.397018 56.0
200.642227 168.0
201.62735 108.0
202.079788 148.0
203.030838 404.0
203.093964 168.0
203.650284 132.0
203.778122 48.0
204.039307 80.0
205.00737 116.0
205.064407 476.0
205.16983 48.0
206.074692 256.0
206.924011 124.0
207.047134 140.0
207.078979 1304.0
208.083359 588.0
208.297684 120.0
208.373489 144.0
208.401108 60.0
208.464325 56.0
209.062714 196.0
209.358994 52.0
209.892105 136.0
210.059082 156.0
211.074448 312.0
211.738708 108.0
212.126984 164.0
212.335739 128.0
213.020752 144.0
213.616684 100.0
215.086685 180.0
215.573059 132.0
216.081833 196.0
217.060303 328.0
217.098251 116.0
218.070938 664.0
218.696518 284.0
219.026566 708.0
219.078186 368.0
219.468353 76.0
219.589264 144.0
219.872498 28.0
220.031311 184.0
220.082077 152.0
220.602066 76.0
220.983566 100.0
221.051895 288.0
221.273621 116.0
221.557938 144.0
221.774246 88.0
221.878006 148.0
222.084122 236.0
222.836639 232.0
222.967377 104.0
223.006012 344.0
223.032928 148.0
223.074661 5720.0
223.344986 136.0
223.734802 48.0
223.767563 60.0
224.008789 96.0
224.079132 1488.0
224.351486 48.0
224.517944 68.0
224.563202 72.0
224.8526 64.0
225.089767 388.0
225.425995 56.0
225.733902 140.0
225.781738 100.0
226.068939 160.0
226.08989 156.0
226.338348 100.0
226.66185 64.0
227.006577 96.0
227.096558 176.0
227.219543 52.0
228.0784 180.0
229.08345 160.0
231.030701 124.0
231.075272 300.0
233.055634 532.0
233.086258 164.0
234.066055 1756.0
234.547104 40.0
234.693436 40.0
235.072418 1620.0
235.193314 56.0
235.31282 40.0
235.496033 68.0
235.660995 64.0
236.081299 776.0
236.269409 68.0
236.676483 48.0
236.762222 124.0
237.05632 152.0
237.08606 164.0
238.277527 216.0
238.397369 140.0
239.070847 64.0
241.084625 160.0
242.436996 76.0
245.045532 392.0
245.072586 208.0
246.619949 120.0
246.64183 172.0
247.079636 124.0
247.843582 72.0
248.219727 52.0
249.048264 180.0
250.013474 44.0
250.057724 128.0
250.104752 144.0
250.306229 116.0
250.681091 140.0
251.032013 188.0
251.067581 1236.0
251.113007 48.0
251.144547 72.0
251.236023 44.0
251.384323 48.0
251.41272 104.0
251.450592 64.0
251.665253 44.0
251.96846 136.0
252.0755 1448.0
252.164368 96.0
252.401474 96.0
252.638687 68.0
253.079849 408.0
253.110275 52.0
254.082031 188.0
259.062317 200.0
261.059448 168.0
262.065735 184.0
263.072693 528.0
264.068848 152.0
265.036621 156.0
266.051544 132.0
268.426697 112.0
268.540863 228.0
269.07782 168.0
277.041534 112.0
277.084595 96.0
278.08606 236.0
279.061432 548.0
279.162445 52.0
280.06015 148.0
281.064514 40.0
282.07312 144.0
282.507843 64.0
289.047974 384.0
290.065063 140.0
295.024567 48.0
295.048492 204.0
311.075653 144.0
313.129089 44.0
313.795105 72.0
322.914429 160.0
343.110016 140.0
354.53656 80.0
397.851227 104.0
407.162994 48.0
452.534454 88.0
497.452545 140.0
677.655273 20.0
711.427368 108.0
805.457886 80.0
807.243835 68.0
861.193237 208.0
956.830505 56.0
987.148071 192.0
992.646118 76.0
1005.776367 64.0
1089.375854 136.0
1102.355591 40.0
1105.185791 184.0
1105.874023 160.0
1111.327881 260.0
1114.162842 140.0
1137.026367 140.0
1142.388306 160.0
1161.783447 144.0
1203.292725 108.0
1211.238647 136.0
1230.997803 148.0
1240.905762 60.0
1263.839233 248.0
1268.953125 152.0
1279.603271 168.0
1284.549072 152.0
1284.812988 188.0
1301.496582 156.0
1304.571533 36.0
1315.672974 136.0
1321.027954 180.0
1335.877441 104.0
1342.797241 144.0
1348.506714 172.0
1353.10791 124.0
1354.704346 196.0
1359.719727 216.0
1373.235229 180.0
1393.102539 144.0
1406.804932 192.0
1407.223022 156.0
1412.820801 216.0
1416.046997 76.0
1417.013428 200.0
1430.283081 156.0
1437.314575 56.0
1446.459351 192.0
1453.029663 192.0
1478.434204 236.0
1478.855103 196.0
1484.118042 116.0
1490.611938 84.0
1498.799194 124.0
1501.674683 224.0
