>compound MLS000083577-01!Imiquimod
>formula C14H16N4
>ionization [M+H]+
>parentmass 241.144958
#inchi InChI=1S/C14H16N4/c1-9(2)7-18-8-16-12-13(18)10-5-3-4-6-11(10)17-14(12)15/h3-6,8-9H,7H2,1-2H3,(H2,15,17)
#inchikey DOUYETYNHWVLEO
#Ion_Source LC-ESI
#Instrument qTof
#Compound_Source NIH Pharmacologically Active Library
#PI Dorrestein
#Data_Collector VP/LMS
#Scan -1
#Precursor_MZ 241.146
#ExactMass 240.137
#Charge 1
#CAS_Number N/A
#Pubmed_ID N/A
#Smiles CC(C)Cn1cnc2c(N)nc3ccccc3c12
#INCHI_AUX N/A
#Library_Class 1
#SpectrumID CCMSLIB00000085381
#IonMode Positive
#UpdateWorkflowName UPDATE-SINGLE-ANNOTATED-GOLD
#LibraryQualityString Gold
#TaskID d252d724072548979f1f6f1ced849daf
##Scan# 1433
#SpectrumFile p4-A02_GA2_01_18326.mzXML
#LibraryName Pharm_Active_Library.mgf
#MQScore -1
#Organism Pharm_Active_Library
#TIC_Query 0
#RT_Query -1
#MZErrorPPM -1
#SharedPeaks 0
#MassDiff 0
#LibMZ -1
#SpecMZ 241.146
#SpecCharge 0
#internalFilename spec-00000.mgf

>collision 10
44.88958 156.0
44.948277 128.0
44.962955 132.0
44.974968 144.0
44.988316 120.0
45.020359 176.0
45.047073 184.0
45.077805 48.0
45.270866 224.0
45.385677 128.0
45.468849 192.0
45.609901 228.0
45.623318 140.0
45.654995 172.0
45.7094 172.0
45.721512 72.0
45.736317 128.0
45.759201 168.0
45.802296 136.0
45.879196 184.0
45.907421 136.0
45.916862 136.0
45.930351 96.0
45.953285 156.0
45.962727 124.0
45.982971 212.0
46.01672 204.0
46.119389 104.0
46.150482 120.0
46.192406 48.0
46.241116 56.0
46.279018 172.0
46.289852 184.0
46.303394 176.0
46.33997 168.0
46.35894 180.0
46.411808 36.0
46.422653 184.0
46.43486 212.0
46.537994 176.0
46.573879 104.0
46.589603 168.0
46.616779 228.0
46.732357 116.0
46.858982 124.0
46.929855 228.0
46.958492 180.0
47.043091 148.0
47.059475 92.0
47.08815 44.0
47.219357 196.0
47.308296 140.0
47.408287 180.0
47.522099 184.0
47.572876 132.0
47.641541 160.0
47.781769 100.0
47.80241 132.0
47.817055 212.0
47.883633 148.0
48.066986 232.0
48.198166 88.0
48.223038 112.0
48.306004 160.0
48.427811 204.0
48.462444 112.0
48.497089 192.0
48.680222 152.0
48.72467 56.0
48.766357 160.0
48.824753 172.0
48.842625 296.0
48.874832 172.0
48.916584 48.0
49.051704 164.0
49.079586 204.0
49.131191 188.0
49.238674 216.0
49.256832 96.0
49.304337 52.0
49.350464 120.0
49.385426 248.0
49.497387 120.0
49.535202 148.0
49.564777 144.0
49.811546 244.0
49.880402 268.0
49.931019 84.0
49.964779 164.0
50.005585 108.0
50.054859 156.0
50.073166 116.0
50.115425 160.0
50.246548 352.0
50.269123 184.0
50.301586 184.0
50.365128 80.0
50.788353 168.0
50.900467 240.0
50.944496 172.0
50.968651 288.0
50.984283 188.0
51.02124 224.0
51.046833 148.0
51.095192 112.0
51.199104 160.0
51.247536 180.0
51.400105 164.0
51.427219 56.0
51.448631 268.0
51.620087 164.0
51.657272 108.0
51.938034 192.0
51.993111 216.0
52.128983 136.0
52.156288 220.0
52.193668 88.0
52.311642 136.0
52.421104 336.0
52.457138 160.0
52.560978 100.0
52.588398 188.0
52.76897 104.0
52.865887 176.0
52.946957 168.0
52.986065 180.0
53.002003 192.0
53.154259 124.0
53.191994 172.0
53.367783 196.0
53.37796 140.0
53.446327 32.0
53.623993 68.0
53.669182 156.0
53.949501 164.0
54.013844 128.0
54.271599 220.0
54.318531 116.0
54.379192 140.0
54.438881 156.0
54.596127 172.0
54.674095 208.0
54.772743 124.0
54.855263 168.0
54.874428 212.0
54.987423 140.0
55.033379 164.0
55.064789 220.0
55.074532 220.0
55.181526 236.0
55.279152 60.0
55.375381 236.0
55.430195 132.0
55.470211 176.0
55.75816 176.0
55.835468 156.0
56.230282 128.0
56.281036 216.0
56.306423 112.0
56.324345 52.0
56.445515 216.0
56.596531 128.0
56.611507 152.0
56.62199 140.0
56.729874 176.0
56.743366 124.0
56.818356 124.0
56.929428 136.0
56.977493 100.0
57.094738 92.0
57.198555 232.0
57.266312 212.0
57.300961 224.0
57.32959 196.0
57.382347 176.0
57.43211 160.0
57.454739 96.0
57.506042 188.0
57.531704 216.0
57.632896 188.0
57.646538 144.0
57.670677 208.0
57.68428 156.0
57.703934 152.0
57.722076 184.0
57.740223 92.0
58.044453 188.0
58.238873 180.0
58.358925 112.0
58.372612 152.0
58.416718 132.0
58.42889 172.0
58.483669 164.0
58.571987 220.0
58.632931 204.0
58.6436 168.0
58.658844 40.0
58.696957 144.0
58.753391 168.0
58.812019 204.0
58.87743 76.0
58.892303 124.0
58.953415 120.0
59.000015 168.0
59.020672 156.0
59.115513 256.0
59.247192 208.0
59.337849 184.0
59.359081 188.0
59.414295 172.0
59.529415 128.0
59.646179 76.0
59.69384 188.0
59.710758 40.0
59.769215 48.0
59.820583 180.0
59.970959 152.0
60.01104 60.0
60.051132 236.0
60.066559 124.0
60.080441 136.0
60.174583 204.0
60.228634 120.0
60.240993 100.0
60.360561 112.0
60.401756 168.0
60.44817 180.0
60.534859 124.0
60.634007 160.0
60.725479 112.0
60.765812 164.0
60.790638 140.0
60.84317 280.0
60.86515 152.0
60.890667 148.0
60.95369 156.0
61.096733 172.0
61.138744 132.0
61.157421 96.0
61.201012 188.0
61.358372 180.0
61.436352 80.0
61.503448 140.0
61.517498 180.0
61.534672 348.0
61.73468 180.0
61.754009 144.0
61.808201 188.0
61.867676 168.0
61.891159 140.0
61.911518 96.0
62.059673 136.0
62.076061 172.0
62.08704 104.0
62.154495 180.0
62.223557 172.0
62.317791 52.0
62.408955 44.0
62.445122 160.0
62.519066 108.0
62.649754 212.0
62.782154 156.0
62.807388 176.0
62.846455 152.0
62.85828 156.0
62.935535 200.0
63.109024 60.0
63.329357 192.0
63.387611 152.0
63.444668 172.0
63.463696 200.0
63.562607 324.0
63.582668 88.0
63.596954 140.0
63.639816 52.0
63.658234 220.0
63.692223 168.0
63.739368 192.0
63.862297 156.0
63.892521 144.0
63.98642 116.0
64.0103 136.0
64.176018 156.0
64.240814 264.0
64.447876 160.0
64.466537 116.0
64.608841 160.0
64.650444 144.0
64.680283 136.0
64.728882 232.0
64.927597 200.0
64.93882 132.0
65.011017 208.0
65.125008 184.0
65.150703 152.0
65.305901 144.0
65.342018 60.0
65.404785 180.0
65.422485 184.0
65.456299 316.0
65.512672 48.0
65.752884 160.0
65.756279 156.0
65.781975 108.0
65.812653 184.0
65.830414 148.0
65.848183 192.0
65.943504 196.0
65.969368 168.0
66.092285 172.0
66.195877 344.0
66.229889 108.0
66.383858 160.0
66.54937 152.0
66.602959 164.0
66.75573 164.0
66.820793 128.0
66.867981 416.0
66.882629 128.0
66.952644 120.0
66.972191 176.0
67.040611 128.0
67.087959 164.0
67.15963 120.0
67.20845 160.0
67.35714 148.0
67.451912 104.0
67.546753 152.0
67.744827 212.0
67.825127 144.0
67.873596 184.0
67.987495 244.0
68.018494 208.0
68.27993 40.0
68.349022 160.0
68.381935 244.0
68.409912 176.0
68.554855 200.0
68.594414 328.0
68.696655 212.0
68.762657 196.0
68.846855 184.0
68.959198 212.0
69.051781 212.0
69.086517 132.0
69.230522 164.0
69.242111 160.0
69.432709 172.0
69.484131 148.0
69.625221 52.0
69.64183 176.0
69.718254 176.0
69.731552 160.0
69.927444 260.0
70.011047 88.0
70.047691 80.0
70.122673 48.0
70.22271 196.0
70.249336 116.0
70.348129 120.0
70.38028 104.0
70.416313 100.0
70.431343 196.0
70.475105 164.0
70.591789 196.0
70.608871 188.0
70.628586 152.0
70.667061 160.0
70.812698 120.0
70.834473 176.0
71.055763 208.0
71.08596 188.0
71.277397 224.0
71.29084 172.0
71.346306 116.0
71.405159 164.0
71.45562 80.0
71.516205 120.0
71.558289 104.0
71.630699 184.0
71.647545 128.0
71.669449 52.0
71.809372 128.0
71.87516 124.0
71.930855 164.0
72.07103 112.0
72.082863 224.0
72.291702 128.0
72.441544 216.0
72.480515 136.0
72.494072 228.0
72.521187 128.0
72.566956 116.0
72.629524 188.0
72.689079 76.0
72.746788 160.0
72.802818 100.0
72.931801 148.0
73.028862 160.0
73.076492 120.0
73.251839 204.0
73.268875 156.0
73.393295 148.0
73.432518 68.0
73.526352 200.0
73.54528 184.0
73.627083 56.0
73.700539 104.0
73.743263 116.0
73.835587 80.0
73.85611 216.0
73.912567 124.0
74.049515 180.0
74.078636 88.0
74.134674 192.0
74.291206 224.0
74.462852 148.0
74.513771 144.0
74.538445 136.0
74.584846 176.0
74.672531 168.0
75.103127 96.0
75.142014 200.0
75.341347 64.0
75.3619 192.0
75.426018 272.0
75.491722 40.0
75.581673 164.0
75.631859 140.0
75.653671 140.0
75.727089 172.0
75.78772 132.0
75.831047 136.0
76.046112 156.0
76.072151 144.0
76.251053 152.0
76.362328 48.0
76.522423 116.0
76.579887 196.0
76.609497 36.0
76.911171 144.0
76.979263 156.0
77.026421 108.0
77.05262 84.0
77.180214 152.0
77.232681 172.0
77.313156 108.0
77.470741 132.0
77.500526 144.0
77.57238 208.0
77.649536 152.0
77.803947 144.0
77.933914 196.0
77.99894 148.0
78.113396 184.0
78.225861 208.0
78.241707 120.0
78.280258 156.0
78.333275 52.0
78.357941 96.0
78.412567 160.0
78.496849 188.0
78.830826 136.0
78.862633 172.0
78.875641 164.0
78.901527 224.0
78.942192 76.0
79.133293 112.0
79.237785 144.0
79.253731 96.0
79.271454 200.0
79.285629 212.0
79.513947 152.0
79.52684 192.0
79.565887 196.0
79.706207 144.0
79.923134 228.0
80.111855 132.0
80.395355 192.0
80.436409 32.0
80.516754 108.0
80.534401 132.0
80.548203 296.0
80.632881 156.0
80.764549 212.0
80.847488 188.0
80.872543 156.0
80.949532 188.0
80.974602 140.0
80.994301 168.0
81.074928 192.0
81.152008 176.0
81.277565 128.0
81.356537 112.0
81.409775 228.0
81.453506 56.0
81.507401 220.0
81.581093 204.0
81.613457 56.0
81.672798 52.0
81.724976 132.0
81.746567 212.0
81.80056 216.0
81.877983 172.0
81.912201 136.0
81.975266 140.0
82.036545 100.0
82.222328 116.0
82.265648 180.0
82.278282 176.0
82.319817 216.0
82.408325 112.0
82.694046 136.0
82.761024 180.0
82.898689 132.0
82.929031 200.0
83.301476 140.0
83.415962 216.0
83.479881 200.0
83.570541 124.0
83.781738 136.0
83.816353 176.0
83.845512 140.0
83.971306 176.0
84.018738 36.0
84.071648 172.0
84.109978 172.0
84.17205 56.0
84.201271 148.0
84.250587 184.0
84.298096 156.0
84.354752 204.0
84.460808 124.0
84.526672 132.0
84.599884 168.0
84.636497 176.0
84.652977 112.0
84.720749 176.0
84.810493 156.0
84.902214 168.0
84.942566 180.0
85.072853 164.0
85.104065 152.0
85.181198 136.0
85.19957 144.0
85.24897 220.0
85.346603 176.0
85.547142 168.0
85.679733 88.0
85.755287 188.0
85.805054 192.0
86.076286 124.0
86.176025 232.0
86.192154 160.0
86.219368 208.0
86.28138 160.0
86.307259 164.0
86.455246 224.0
86.484856 192.0
86.55336 252.0
86.592247 180.0
86.629295 116.0
86.645966 204.0
86.898109 208.0
87.06517 60.0
87.119041 116.0
87.182213 148.0
87.397919 132.0
87.436996 216.0
87.689049 180.0
87.770454 124.0
88.024223 168.0
88.076515 96.0
88.123222 176.0
88.196106 136.0
88.20919 40.0
88.300812 156.0
88.325127 152.0
88.429901 172.0
88.540573 180.0
88.622787 240.0
88.673386 184.0
88.738991 108.0
88.752121 196.0
88.768997 196.0
88.935966 204.0
89.086189 160.0
89.157593 164.0
89.185783 144.0
89.213982 176.0
89.364433 44.0
89.47171 140.0
89.744904 72.0
89.844864 136.0
89.873161 80.0
89.9562 96.0
90.184761 148.0
90.258286 148.0
90.343597 200.0
90.373871 176.0
90.758377 68.0
90.796303 148.0
90.824753 128.0
90.872177 184.0
91.043015 196.0
91.081001 184.0
91.202888 188.0
91.278656 84.0
91.303375 188.0
91.374313 220.0
91.396591 128.0
91.447968 196.0
91.66317 132.0
91.737503 156.0
91.806145 168.0
91.844284 36.0
91.958771 136.0
92.044228 204.0
92.134445 88.0
92.166924 164.0
92.294991 56.0
92.361923 284.0
92.442284 88.0
92.478645 212.0
92.677811 160.0
92.817734 160.0
92.838829 216.0
93.005745 132.0
93.182419 140.0
93.217003 192.0
93.271767 148.0
93.559364 164.0
93.586319 164.0
93.721146 140.0
93.755836 196.0
93.848366 48.0
93.871498 232.0
94.017281 260.0
94.089531 200.0
94.1745 88.0
94.375481 116.0
94.42189 64.0
94.48185 204.0
94.597961 164.0
94.617325 188.0
94.791649 112.0
94.880806 136.0
94.950607 60.0
95.018501 272.0
95.115532 196.0
95.166008 148.0
95.224266 132.0
95.274086 152.0
95.630615 208.0
95.690964 80.0
95.759117 180.0
95.942284 176.0
96.04174 264.0
96.173576 212.0
96.256416 68.0
96.279846 112.0
96.406326 184.0
96.442009 132.0
96.467072 176.0
96.708015 140.0
96.774582 192.0
96.850952 144.0
96.909721 160.0
97.037125 40.0
97.088104 48.0
97.113602 148.0
97.176376 216.0
97.229355 164.0
97.343216 40.0
97.494484 168.0
97.516098 56.0
97.551483 212.0
97.616364 144.0
97.655693 84.0
97.674507 192.0
97.712746 136.0
97.866264 124.0
97.925339 152.0
97.939125 68.0
98.010048 72.0
98.04158 128.0
98.155914 196.0
98.193382 140.0
98.288322 160.0
98.301712 228.0
98.495369 124.0
99.023476 148.0
99.28112 60.0
99.300949 148.0
99.404114 144.0
99.43586 36.0
99.573212 88.0
99.68013 204.0
99.751678 96.0
99.78624 136.0
99.816635 256.0
99.936638 176.0
100.000313 184.0
100.089897 148.0
100.213394 120.0
100.30307 120.0
100.352913 184.0
100.3908 152.0
100.67617 124.0
100.698135 164.0
100.722107 180.0
100.796028 244.0
100.907959 100.0
100.94738 244.0
101.001953 100.0
101.069969 208.0
101.089165 252.0
101.113998 124.0
101.148018 124.0
101.214088 184.0
101.348289 204.0
101.366325 160.0
101.406403 132.0
101.49662 216.0
101.550766 216.0
101.63903 136.0
101.695282 144.0
101.809662 132.0
101.871925 160.0
102.000534 160.0
102.038734 236.0
102.088997 228.0
102.13916 204.0
102.296234 40.0
102.386841 112.0
102.42511 216.0
102.513763 144.0
102.903061 156.0
102.945457 148.0
102.977776 148.0
102.997971 164.0
103.052521 56.0
103.112045 180.0
103.206131 156.0
103.232414 124.0
103.272026 192.0
103.291069 332.0
103.345695 196.0
103.463081 132.0
103.495979 208.0
103.519775 128.0
103.542809 160.0
103.616997 80.0
103.642342 220.0
103.799416 152.0
103.835922 288.0
103.945465 184.0
104.02462 80.0
104.05101 448.0
104.091621 220.0
104.118019 136.0
104.209435 92.0
104.241943 180.0
104.256165 156.0
104.37249 180.0
104.404572 96.0
104.437531 232.0
104.688812 180.0
104.704613 176.0
104.834122 40.0
104.952347 196.0
105.048203 212.0
105.148186 120.0
105.186966 168.0
105.609932 144.0
105.70269 216.0
105.828903 140.0
105.914917 156.0
105.937447 92.0
105.953835 172.0
106.027603 60.0
106.160591 184.0
106.234695 136.0
106.271622 208.0
106.386551 384.0
106.409134 184.0
106.464577 160.0
106.573448 148.0
106.58783 168.0
106.614548 212.0
106.68251 180.0
106.785187 144.0
106.826324 112.0
106.908623 136.0
106.933319 164.0
107.007431 164.0
107.126877 136.0
107.19281 96.0
107.264938 200.0
107.279373 112.0
107.299988 104.0
107.620934 160.0
107.768501 168.0
107.795364 212.0
107.917313 180.0
108.057961 104.0
108.072441 212.0
108.122101 212.0
108.171783 36.0
108.196625 140.0
108.260811 56.0
108.387169 160.0
108.484581 136.0
108.592865 240.0
108.625595 188.0
108.683685 132.0
108.714813 120.0
108.76004 252.0
108.783302 104.0
108.799911 140.0
108.864281 284.0
108.878815 200.0
108.993065 128.0
109.099068 116.0
109.159523 156.0
109.47567 204.0
109.583984 112.0
109.694435 256.0
109.731964 228.0
109.754898 144.0
109.788261 88.0
109.884216 160.0
109.907166 92.0
110.003174 168.0
110.032394 156.0
110.13681 188.0
110.191124 136.0
110.239182 128.0
110.26635 136.0
110.387604 120.0
110.582161 188.0
110.720535 220.0
110.810417 156.0
110.871185 184.0
110.906815 164.0
110.97599 176.0
111.177368 120.0
111.26133 216.0
111.286522 136.0
111.33902 176.0
111.381027 196.0
111.437744 136.0
111.576462 120.0
111.679497 196.0
111.743622 116.0
111.772064 128.0
111.801529 216.0
111.877296 192.0
112.049995 168.0
112.081596 232.0
112.191193 188.0
112.237579 88.0
112.50975 204.0
112.574112 188.0
112.61322 68.0
112.663109 220.0
112.687157 180.0
112.729416 152.0
112.752663 148.0
112.808014 236.0
112.868927 272.0
112.917564 208.0
112.987373 180.0
113.040611 196.0
113.256218 148.0
113.294342 164.0
113.387573 140.0
113.504173 148.0
113.538101 60.0
113.582642 212.0
113.60498 196.0
113.644165 160.0
113.763016 156.0
113.801231 84.0
113.920158 156.0
113.976883 304.0
114.034859 9736.0
114.092781 88.0
114.106934 176.0
114.149704 204.0
114.175224 140.0
114.230522 176.0
114.247543 56.0
114.266685 140.0
114.345421 156.0
114.365128 108.0
114.399178 224.0
114.477417 188.0
114.498711 92.0
114.530655 68.0
114.564079 180.0
114.594566 268.0
114.647835 184.0
114.790665 196.0
114.858917 104.0
114.89518 112.0
114.920784 212.0
114.948517 156.0
114.967728 220.0
115.037521 708.0
115.102211 140.0
115.123566 60.0
115.206863 176.0
115.226097 160.0
115.241051 40.0
115.27951 156.0
115.320114 196.0
115.416321 160.0
115.441978 156.0
115.598137 140.0
115.692314 192.0
115.77993 160.0
115.827225 140.0
115.846504 132.0
115.910782 188.0
115.964355 108.0
116.020088 56.0
116.048851 1100.0
116.071548 32.0
116.163765 192.0
116.191658 204.0
116.262466 56.0
116.436363 72.0
116.45784 156.0
116.565254 148.0
116.591042 180.0
116.644249 180.0
116.674873 140.0
116.756584 128.0
116.778091 240.0
116.825409 144.0
117.004036 172.0
117.025566 184.0
117.054794 312.0
117.560135 132.0
117.609779 208.0
117.708641 192.0
117.83004 176.0
117.87542 160.0
118.127983 176.0
118.201935 172.0
118.297165 152.0
118.353455 212.0
118.531075 228.0
118.671967 144.0
118.830299 136.0
118.982216 100.0
119.051704 236.0
119.28418 128.0
119.316788 160.0
119.388542 120.0
119.514709 160.0
119.54953 232.0
119.574081 184.0
119.701912 152.0
119.736755 228.0
119.756355 56.0
119.845673 104.0
119.974258 124.0
120.117096 184.0
120.190178 184.0
120.303673 120.0
120.391006 184.0
120.498039 160.0
120.53022 128.0
120.651024 204.0
120.75161 124.0
120.887245 64.0
120.91127 164.0
121.088661 128.0
121.158752 164.0
121.178467 196.0
121.231056 148.0
121.261742 44.0
121.28804 80.0
121.592918 144.0
121.680717 148.0
121.736641 128.0
121.90696 88.0
121.935959 164.0
122.098221 248.0
122.157608 156.0
122.225807 124.0
122.254417 148.0
122.330887 172.0
122.371078 140.0
122.399704 168.0
122.450356 200.0
122.534065 112.0
122.712585 164.0
122.922127 168.0
123.129639 220.0
123.195908 124.0
123.361649 152.0
123.405861 124.0
123.505379 152.0
123.520859 108.0
123.580597 172.0
123.693459 180.0
123.844032 152.0
123.939285 168.0
124.072273 200.0
124.138786 188.0
124.173096 128.0
124.205322 120.0
124.314041 144.0
124.469421 116.0
124.589363 120.0
124.633797 176.0
124.649353 224.0
124.749367 124.0
124.862762 60.0
124.927879 176.0
124.978439 156.0
125.018494 112.0
125.07859 232.0
125.111977 92.0
125.157005 160.0
125.414932 96.0
125.461739 184.0
125.492958 140.0
125.588844 240.0
125.69593 188.0
125.782974 164.0
126.11132 196.0
126.341637 216.0
126.502769 80.0
126.560974 132.0
126.818604 224.0
126.845497 208.0
126.916603 164.0
126.96209 128.0
127.072006 84.0
127.09893 76.0
127.16246 180.0
127.182579 204.0
127.680748 136.0
127.709984 176.0
127.887733 188.0
128.02092 176.0
128.225571 136.0
128.26001 144.0
128.311234 136.0
128.327011 68.0
128.457825 200.0
128.475861 152.0
128.518738 116.0
128.570633 132.0
128.804367 184.0
128.846115 36.0
128.882263 196.0
128.950058 184.0
128.974915 160.0
129.04274 160.0
129.060013 156.0
129.164856 140.0
129.20784 180.0
129.542892 196.0
129.581406 120.0
129.622192 140.0
129.717377 260.0
129.735504 208.0
129.751373 156.0
129.836319 108.0
129.969116 104.0
130.00769 304.0
130.04628 144.0
130.065536 152.0
130.268799 140.0
130.384689 184.0
130.496063 68.0
130.63707 44.0
130.659821 168.0
130.675751 160.0
130.712143 372.0
130.74173 244.0
130.816849 184.0
130.917023 172.0
130.932968 248.0
130.976242 176.0
131.033035 180.0
131.060959 2152.0
131.099274 52.0
131.117508 180.0
131.243332 80.0
131.26796 200.0
131.295334 44.0
131.372879 160.0
131.415192 168.0
131.51207 120.0
131.626221 48.0
131.750137 192.0
131.84552 144.0
131.868378 32.0
131.962112 36.0
132.046402 932.0
132.065948 332.0
132.474747 156.0
132.570984 184.0
132.806473 196.0
133.04184 208.0
133.220245 144.0
133.327835 196.0
133.406448 220.0
133.457031 168.0
133.855103 184.0
134.037079 76.0
134.16153 52.0
134.184586 224.0
134.260681 84.0
134.42012 212.0
134.44754 236.0
134.726929 128.0
134.763748 188.0
134.907196 340.0
134.92569 108.0
134.995056 72.0
135.191681 164.0
135.39772 168.0
135.41626 168.0
135.569153 208.0
135.59697 156.0
135.68042 152.0
135.701279 244.0
136.002853 136.0
136.049286 204.0
136.172348 120.0
136.228104 152.0
136.479095 68.0
136.593063 172.0
136.735428 216.0
136.811798 144.0
136.963165 124.0
137.10762 128.0
137.136597 204.0
137.170547 120.0
137.203186 172.0
137.242828 172.0
137.296463 136.0
137.410751 156.0
137.58345 152.0
137.604462 40.0
137.735245 136.0
137.95256 128.0
138.055893 168.0
138.239655 172.0
138.294083 136.0
138.371323 172.0
138.408783 176.0
138.469681 220.0
138.486069 60.0
138.572739 120.0
138.881668 236.0
138.985413 176.0
139.058151 164.0
139.091019 192.0
139.245987 200.0
139.504456 92.0
139.638474 164.0
139.680817 136.0
139.83847 124.0
139.862 144.0
140.035095 340.0
140.062149 180.0
140.113968 172.0
140.170517 244.0
140.189377 152.0
140.210587 116.0
140.227081 216.0
140.250412 196.0
140.642197 116.0
140.713211 148.0
140.738983 176.0
140.783859 172.0
140.864151 144.0
140.92038 140.0
140.951569 108.0
140.972839 140.0
140.99411 212.0
141.045044 28024.0
141.100479 44.0
141.118118 52.0
141.174149 100.0
141.211624 108.0
141.240005 40.0
141.261292 152.0
141.367767 36.0
141.391891 204.0
141.451492 200.0
141.492813 144.0
141.528732 92.0
141.559509 120.0
141.583191 196.0
141.621078 92.0
141.666092 100.0
141.82486 228.0
141.971848 124.0
142.021652 132.0
142.049179 1992.0
142.197235 68.0
142.23996 140.0
142.282684 44.0
142.33255 208.0
142.470306 72.0
142.503555 172.0
142.520187 228.0
142.546326 172.0
142.567719 116.0
142.639023 68.0
142.722229 160.0
142.817352 104.0
142.834 156.0
142.880005 144.0
142.948212 168.0
142.983902 100.0
143.058929 352.0
143.080597 184.0
143.148163 44.0
143.169601 164.0
143.19751 156.0
143.262497 104.0
143.42453 140.0
143.450745 192.0
143.577118 184.0
143.770355 76.0
143.91597 212.0
143.956558 188.0
143.985214 184.0
144.055344 156.0
144.075989 200.0
144.195465 92.0
144.214584 108.0
144.49437 184.0
144.539825 112.0
144.67865 148.0
144.724136 172.0
144.776825 28.0
144.906174 192.0
144.966064 176.0
145.058899 164.0
145.162643 136.0
145.186615 180.0
145.210861 108.0
145.25618 100.0
145.404938 192.0
145.604202 116.0
145.669052 124.0
145.846878 220.0
145.909378 164.0
145.945435 156.0
145.979095 220.0
146.033386 216.0
146.199783 188.0
146.568863 40.0
146.875381 120.0
147.309525 128.0
147.336105 72.0
147.406174 120.0
147.463959 220.0
147.771286 184.0
147.899536 172.0
148.001221 148.0
148.030273 88.0
148.081573 176.0
148.132004 324.0
148.238602 216.0
148.289001 220.0
148.430099 136.0
148.510132 68.0
148.602325 112.0
148.636292 96.0
148.672684 196.0
148.689682 228.0
148.820755 80.0
148.866898 220.0
149.007782 152.0
149.05394 184.0
149.224091 136.0
149.518417 276.0
149.849594 168.0
149.873947 88.0
149.942184 200.0
149.963089 228.0
150.034805 48.0
150.068939 220.0
150.122589 136.0
150.200638 180.0
150.220154 180.0
150.266495 176.0
150.327499 84.0
150.439774 192.0
150.627808 128.0
150.745087 188.0
150.801285 132.0
150.911469 172.0
150.982208 116.0
151.054413 192.0
151.26358 236.0
151.436005 112.0
151.458817 184.0
151.493774 120.0
151.523163 196.0
151.591782 184.0
151.711868 116.0
151.903152 132.0
151.981659 104.0
152.018463 128.0
152.045456 184.0
152.384323 176.0
152.448212 164.0
152.578491 124.0
152.667007 148.0
152.831818 172.0
152.952408 144.0
153.0952 180.0
153.174026 140.0
153.206039 128.0
153.247925 184.0
153.294739 116.0
153.413055 100.0
153.664612 116.0
154.058716 332.0
154.104813 200.0
154.398239 56.0
154.43782 112.0
154.489761 168.0
154.651459 196.0
154.672577 132.0
155.068588 116.0
155.19313 172.0
155.289841 52.0
155.327042 116.0
155.532745 120.0
155.734116 168.0
155.76889 108.0
155.80864 108.0
155.828522 212.0
155.930405 148.0
156.030777 532.0
156.111893 124.0
156.246201 124.0
156.323334 204.0
156.427872 164.0
156.477661 128.0
156.514999 180.0
156.552353 184.0
156.572281 120.0
157.041473 236.0
157.063156 728.0
157.405197 212.0
157.495529 196.0
157.570053 72.0
157.632507 64.0
157.717484 152.0
157.734985 240.0
157.757477 108.0
157.797485 44.0
157.950027 188.0
158.017578 264.0
158.042587 204.0
158.07106 1624.0
158.15271 112.0
158.192749 188.0
158.508331 112.0
158.654297 236.0
158.689758 188.0
158.771545 120.0
158.836761 156.0
158.929581 76.0
159.055359 2568.0
159.140427 184.0
159.371506 168.0
159.391602 228.0
159.441803 184.0
159.522293 64.0
159.549942 172.0
159.570053 156.0
159.590164 128.0
159.688248 160.0
159.768738 192.0
159.811508 92.0
159.859314 124.0
159.952438 112.0
160.063812 212.0
160.118622 156.0
160.260422 192.0
160.347885 76.0
160.443665 180.0
160.603424 160.0
160.660553 184.0
160.736252 44.0
160.758957 148.0
160.806915 172.0
160.857391 192.0
160.983627 156.0
161.068436 124.0
161.348602 152.0
161.395523 136.0
161.573822 128.0
161.744644 168.0
161.952271 148.0
162.066269 156.0
162.289322 152.0
162.367935 52.0
162.51506 60.0
162.537888 208.0
162.593719 96.0
162.657181 96.0
162.799362 52.0
162.911118 264.0
163.078827 136.0
163.279678 152.0
163.44249 208.0
163.635925 100.0
163.992554 140.0
164.030792 120.0
164.097076 176.0
164.265396 64.0
164.576752 180.0
164.631882 176.0
164.850067 184.0
164.949738 140.0
165.044342 164.0
165.067352 156.0
165.256638 144.0
165.323166 176.0
165.463943 168.0
165.481873 200.0
165.602219 92.0
165.620148 204.0
165.858444 152.0
166.050751 180.0
166.125137 148.0
166.507584 168.0
166.558945 196.0
166.736237 160.0
166.769653 184.0
166.790207 160.0
167.045258 432.0
167.072052 212.0
167.098801 116.0
167.284103 156.0
167.351028 196.0
167.379364 180.0
167.47464 200.0
167.539047 144.0
167.595718 144.0
167.768402 160.0
167.88443 132.0
167.928284 80.0
167.970535 104.0
168.001465 140.0
168.056335 30960.0
168.117569 108.0
168.145004 52.0
168.201782 128.0
168.251419 192.0
168.292145 216.0
168.328293 136.0
168.514267 40.0
168.534927 228.0
168.555603 52.0
168.607285 292.0
168.692078 164.0
168.757217 164.0
168.904617 196.0
168.992584 180.0
169.021042 168.0
169.059311 2496.0
169.168564 68.0
169.189285 76.0
169.260117 112.0
169.329102 60.0
169.404221 36.0
169.439651 132.0
169.514374 184.0
169.532883 128.0
169.564865 68.0
169.638611 196.0
169.803391 84.0
169.834518 192.0
169.972015 68.0
170.046585 152.0
170.066681 532.0
170.119949 168.0
170.177063 112.0
170.223801 96.0
170.244583 104.0
170.286179 204.0
170.340683 68.0
170.361465 260.0
170.379654 84.0
170.410202 140.0
170.452393 160.0
170.519958 120.0
170.740952 132.0
170.894424 72.0
170.972488 148.0
171.074005 132.0
171.399963 264.0
171.479309 140.0
171.618515 28.0
171.795868 208.0
171.814117 276.0
172.059448 192.0
172.150833 224.0
172.289261 116.0
172.448654 132.0
172.519241 212.0
172.723206 220.0
172.919434 216.0
173.018906 52.0
173.063416 176.0
173.08699 160.0
173.181259 120.0
173.343689 152.0
173.364655 172.0
173.506195 120.0
173.752716 148.0
173.923294 136.0
174.010971 124.0
174.385574 156.0
174.545929 216.0
174.598526 184.0
174.806351 180.0
174.869507 96.0
175.167053 100.0
175.188126 136.0
175.23555 144.0
175.380478 180.0
175.412109 116.0
175.438477 116.0
175.520218 132.0
176.047974 168.0
176.074387 128.0
176.166824 184.0
176.320084 244.0
176.452255 60.0
176.483978 132.0
176.579178 276.0
176.613556 196.0
176.63208 48.0
176.759064 100.0
177.018478 136.0
177.039673 264.0
177.251587 200.0
177.309891 140.0
177.349747 208.0
177.604187 52.0
177.665207 144.0
177.755417 156.0
177.933243 48.0
177.951828 44.0
178.406143 140.0
178.58696 84.0
178.637497 108.0
178.658783 80.0
179.012772 72.0
179.039124 148.0
179.127304 252.0
179.241867 172.0
179.289825 132.0
179.329803 172.0
179.5271 176.0
179.548431 140.0
179.601776 220.0
179.663116 32.0
179.841309 180.0
179.930008 116.0
179.956696 180.0
180.057312 692.0
180.111588 176.0
180.287933 40.0
180.656906 92.0
180.739853 172.0
181.063705 684.0
181.138763 36.0
181.471069 188.0
181.567612 48.0
181.645386 176.0
181.768799 164.0
181.806366 164.0
181.830521 204.0
181.937897 144.0
181.95668 148.0
181.978912 216.0
182.068008 332.0
182.144669 100.0
182.236008 184.0
182.375748 244.0
182.397247 64.0
182.453705 184.0
182.585464 212.0
182.779144 72.0
182.832977 208.0
182.90979 108.0
182.929871 184.0
183.067184 40.0
183.096802 68.0
183.199158 196.0
183.226105 128.0
183.355438 300.0
183.45517 212.0
183.652008 164.0
183.735641 56.0
183.757217 128.0
183.900238 256.0
183.92453 72.0
184.01767 104.0
184.04332 40.0
184.073639 1060.0
184.113525 80.0
184.135132 80.0
184.175644 152.0
184.226974 68.0
184.301224 116.0
184.30867 152.0
184.326935 208.0
184.386169 156.0
184.453964 184.0
184.519638 88.0
184.611664 160.0
184.61972 52.0
184.631302 176.0
184.665741 212.0
184.700989 304.0
184.727081 128.0
184.748764 128.0
184.804626 324.0
184.828079 272.0
184.856949 160.0
184.888077 136.0
184.915466 192.0
184.92276 192.0
184.961838 148.0
184.973831 256.0
185.006287 320.0
185.024246 228.0
185.083054 148760.0
185.18837 316.0
185.233932 108.0
185.278183 212.0
185.301712 204.0
185.338501 260.0
185.345444 196.0
185.355408 96.0
185.394104 176.0
185.425247 292.0
185.44899 100.0
185.483444 200.0
185.528809 424.0
185.55069 296.0
185.580978 120.0
185.625854 56.0
185.632965 120.0
185.661682 68.0
185.706909 136.0
185.741135 236.0
185.769409 124.0
185.799042 156.0
185.836334 72.0
185.85318 92.0
185.871368 196.0
185.921494 204.0
185.983398 204.0
186.027039 124.0
186.067932 24072.0
186.157379 232.0
186.207031 136.0
186.225418 88.0
186.264267 220.0
186.323837 84.0
186.348282 60.0
186.387497 88.0
186.486191 68.0
186.522217 52.0
186.579498 156.0
186.620911 52.0
186.646301 56.0
186.673141 88.0
186.692184 56.0
186.73645 96.0
186.786423 72.0
186.810837 104.0
186.925201 88.0
186.998199 72.0
187.037247 116.0
187.069336 2640.0
187.116318 92.0
187.137619 132.0
187.177017 176.0
187.229507 228.0
187.284775 64.0
187.315521 144.0
187.360626 244.0
187.389694 132.0
187.400925 36.0
187.410828 172.0
187.432907 120.0
187.468262 80.0
187.520065 112.0
187.527069 68.0
187.536667 80.0
187.562912 216.0
187.571671 104.0
187.612259 72.0
187.675232 136.0
187.715485 152.0
187.816666 100.0
187.85289 60.0
187.886536 68.0
188.0448 60.0
188.070343 128.0
188.107574 48.0
188.242599 72.0
188.282318 72.0
188.333191 100.0
188.443481 124.0
188.489929 64.0
188.547318 108.0
188.571915 136.0
188.615646 88.0
188.714066 52.0
188.733215 92.0
189.08609 88.0
189.140839 52.0
189.212021 260.0
189.269516 44.0
189.302368 92.0
189.337967 72.0
189.587265 64.0
189.773666 64.0
190.028748 100.0
190.476227 60.0
190.616348 100.0
190.652069 112.0
191.447113 148.0
191.537994 80.0
191.684021 92.0
191.863174 188.0
191.917145 124.0
192.100342 108.0
194.022339 108.0
194.069168 224.0
194.877151 64.0
194.916046 92.0
194.949402 60.0
195.255203 128.0
195.288574 220.0
195.589081 64.0
195.656555 152.0
195.719925 112.0
195.77562 132.0
195.920456 128.0
195.987335 104.0
196.023544 84.0
196.076508 124.0
196.148972 76.0
196.266068 196.0
196.299103 108.0
196.68454 200.0
196.951416 144.0
197.014038 136.0
197.081619 4868.0
197.131927 172.0
197.285126 96.0
197.606735 156.0
197.707474 92.0
197.743851 104.0
197.794235 148.0
197.993027 56.0
198.018234 164.0
198.08905 6504.0
198.155502 36.0
198.18071 36.0
198.309616 32.0
198.329239 88.0
198.388107 100.0
198.491379 48.0
198.604019 48.0
198.665741 60.0
198.80603 100.0
198.963211 80.0
199.029129 192.0
199.09375 920.0
199.131378 72.0
199.135437 108.0
199.156967 180.0
199.29744 120.0
200.101837 140.0
200.166595 44.0
200.488419 84.0
200.789398 136.0
200.967117 52.0
201.10257 192.0
201.907776 44.0
202.159561 60.0
202.810959 144.0
203.111511 180.0
203.281738 60.0
203.307281 68.0
203.412308 192.0
203.969055 108.0
204.099823 148.0
204.631897 68.0
204.919556 108.0
205.079147 96.0
206.666931 88.0
207.431595 32.0
208.079941 76.0
208.209152 128.0
208.887482 92.0
209.091766 224.0
209.330704 152.0
209.81189 44.0
210.851028 248.0
211.095779 1648.0
211.490219 28.0
211.591537 36.0
212.037628 148.0
212.079453 324.0
212.106094 160.0
212.275345 84.0
213.110107 216.0
213.349625 84.0
213.387421 156.0
213.436859 52.0
213.800476 100.0
213.980942 164.0
214.449951 124.0
215.699219 64.0
217.15152 44.0
218.258652 76.0
218.473343 88.0
218.505707 168.0
218.782349 104.0
219.009094 76.0
219.250687 204.0
219.551392 136.0
220.06778 72.0
221.635422 224.0
222.000031 100.0
224.118515 208.0
225.112701 300.0
225.468277 88.0
226.117264 120.0
226.141907 208.0
226.58139 56.0
227.031006 120.0
227.391022 208.0
227.979645 88.0
228.265228 136.0
228.334396 136.0
230.006622 260.0
230.634888 144.0
231.403275 104.0
231.587997 40.0
231.755447 176.0
232.330658 228.0
233.874344 48.0
235.719452 52.0
236.747299 188.0
237.26207 152.0
238.148895 68.0
238.456146 56.0
239.299011 84.0
239.69635 68.0
239.955261 260.0
240.11467 132.0
240.238983 172.0
240.371658 140.0
240.405594 92.0
240.674149 64.0
240.745178 160.0
240.7668 108.0
240.925735 192.0
240.952133 140.0
240.992294 148.0
241.013916 164.0
241.035553 84.0
241.075714 160.0
241.144958 39656.0
241.202438 160.0
241.228455 144.0
241.336914 60.0
241.349945 56.0
241.381531 56.0
241.468353 40.0
241.503342 96.0
241.575836 144.0
241.624893 56.0
241.660828 72.0
241.696381 112.0
241.727173 60.0
241.941772 144.0
242.016083 188.0
242.147308 3356.0
242.204987 36.0
242.325806 40.0
242.375381 96.0
242.424973 104.0
242.524139 68.0
242.567535 52.0
242.632629 56.0
242.707047 52.0
242.800079 36.0
242.821793 104.0
242.944473 80.0
243.15033 376.0
243.259293 68.0
243.318268 140.0
243.343109 108.0
243.479736 72.0
243.591553 72.0
243.740692 96.0
243.810318 76.0
243.896072 128.0
243.980011 84.0
244.000702 84.0
244.035965 108.0
244.13237 64.0
244.160355 172.0
244.189728 84.0
244.337646 60.0
244.399887 84.0
244.505676 112.0
244.62085 72.0
244.679993 96.0
244.820114 84.0
245.767746 76.0
246.854767 92.0
247.753067 60.0
248.872726 104.0
251.214264 28.0
252.028809 48.0
252.869995 132.0
252.978638 136.0
253.991638 152.0
254.635956 40.0
255.179337 84.0
255.443298 56.0
255.465561 116.0
258.928802 128.0
259.197876 128.0
260.095886 116.0
261.60025 88.0
262.189697 108.0
262.241272 124.0
265.568298 32.0
267.528229 104.0
272.324707 56.0
276.905945 76.0
277.243866 84.0
278.003265 64.0
278.517883 92.0
278.826874 88.0
278.850159 36.0
291.357727 52.0
294.044342 92.0
295.007568 108.0
297.927338 40.0
303.667786 76.0
306.173615 120.0
309.081482 72.0
314.52536 68.0
316.193634 60.0
319.724884 144.0
322.889374 64.0
327.292542 56.0
328.647797 88.0
328.911255 48.0
332.679596 96.0
334.486267 32.0
334.9888 56.0
336.871124 60.0
341.32782 72.0
343.93988 104.0
351.380463 72.0
351.529724 80.0
351.634216 80.0
351.727509 60.0
351.764832 112.0
357.311249 92.0
360.807343 96.0
362.605347 100.0
362.927551 56.0
372.057739 48.0
377.134857 168.0
383.40683 92.0
383.710876 88.0
384.588593 56.0
386.734436 56.0
387.976166 68.0
394.756378 60.0
396.189178 128.0
398.112885 104.0
399.309113 88.0
403.044434 72.0
405.806213 40.0
407.222778 84.0
408.328033 72.0
408.637787 60.0
410.732605 48.0
422.85318 76.0
423.631165 128.0
425.7435 96.0
426.146057 112.0
431.623932 88.0
432.579651 52.0
434.776398 84.0
435.901794 88.0
438.752899 92.0
441.412567 40.0
447.33255 92.0
455.362213 40.0
465.565216 64.0
471.882233 56.0
472.825226 116.0
473.33606 116.0
474.553619 80.0
477.902344 52.0
484.346039 136.0
487.518127 60.0
497.82901 112.0
498.682007 92.0
498.988739 80.0
507.427002 84.0
510.426331 64.0
514.982544 96.0
531.774719 60.0
574.265747 84.0
574.38501 40.0
588.663574 76.0
614.515564 68.0
626.115051 84.0
630.170532 72.0
636.96875 40.0
637.828003 80.0
653.22583 32.0
723.891296 80.0
724.373291 28.0
745.616394 60.0
749.976013 36.0
752.829407 92.0
776.49469 68.0
799.698608 68.0
821.166809 56.0
828.941833 200.0
830.289001 148.0
848.046875 68.0
855.249207 112.0
870.27356 164.0
872.717834 48.0
892.460754 92.0
900.260864 44.0
903.207397 168.0
904.23053 124.0
905.451843 60.0
909.414917 92.0
915.438965 140.0
923.840698 164.0
929.353943 72.0
931.071899 156.0
933.35675 72.0
933.399353 56.0
933.879761 152.0
937.276794 68.0
937.374268 168.0
953.610474 204.0
954.083801 120.0
962.703857 152.0
965.695129 56.0
971.828003 160.0
974.479187 148.0
980.384338 184.0
981.032532 216.0
982.173706 168.0
982.785095 104.0
984.108337 116.0
984.813965 172.0
987.63916 196.0
1001.384949 48.0
1002.487427 208.0
1014.838867 104.0
1015.441345 136.0
1020.477051 100.0
1020.56604 116.0
1042.47229 184.0
1050.868896 140.0
1053.806641 160.0
1053.851929 100.0
1054.252563 172.0
1055.914062 88.0
1064.702148 180.0
1066.527832 128.0
1066.930908 96.0
1068.817017 208.0
1068.862549 236.0
1069.187988 140.0
1070.268555 136.0
1071.141235 188.0
1072.327148 152.0
1072.496582 220.0
1077.15564 60.0
1077.436523 100.0
1077.6521 64.0
1080.855957 120.0
1087.389648 160.0
1091.942749 136.0
1093.304565 216.0
1093.962769 124.0
1097.744629 128.0
1100.093506 148.0
1100.298096 220.0
1101.810547 148.0
1102.709229 168.0
1103.991821 152.0
1104.706055 112.0
1105.156006 144.0
1106.049438 140.0
1111.490479 164.0
1112.837891 168.0
1114.691162 144.0
1116.206665 176.0
1120.659668 208.0
1123.84021 112.0
1132.7854 176.0
1133.019897 52.0
1134.299805 88.0
1135.339111 152.0
1137.526367 144.0
1138.150757 152.0
1139.514282 52.0
1140.394531 124.0
1141.039917 176.0
1142.452148 132.0
1144.855103 176.0
1145.562378 136.0
1146.040649 128.0
1146.303467 144.0
1148.765137 176.0
1150.593262 140.0
1150.728271 132.0
1151.90332 164.0
1152.538452 172.0
1155.344238 108.0
1156.778931 184.0
1157.049683 120.0
1158.817383 172.0
1160.932251 124.0
1162.472168 136.0
1170.731812 192.0
1171.916992 212.0
1172.837036 136.0
1176.063354 128.0
1176.657227 244.0
1177.56543 184.0
1182.200684 48.0
1183.015137 232.0
1183.651855 124.0
1184.261353 128.0
1184.549072 224.0
1185.508301 188.0
1186.036011 148.0
1186.865479 160.0
1187.49646 144.0
1190.042358 220.0
1192.261108 192.0
1192.350464 144.0
1194.894653 192.0
1196.291748 92.0
1197.579346 136.0
1198.819458 120.0
1200.749878 152.0
1201.480957 208.0
1204.200684 108.0
1204.753296 224.0
1205.969482 104.0
1206.239014 148.0
1207.646973 204.0
1209.427856 204.0
1210.466309 56.0
1211.94873 108.0
1212.475342 232.0
1213.119995 128.0
1214.28479 216.0
1215.05481 120.0
1215.533569 200.0
1215.929077 116.0
1216.671875 220.0
1217.491211 208.0
1217.838501 156.0
1219.7771 164.0
1219.895264 176.0
1220.235962 136.0
1226.131836 160.0
1227.798096 224.0
1233.810059 140.0
1234.138672 212.0
1234.24353 128.0
1235.131714 204.0
1239.157104 172.0
1240.243286 88.0
1242.620605 152.0
1243.631104 152.0
1244.262939 44.0
1244.466431 168.0
1246.131104 136.0
1247.150024 224.0
1247.480469 188.0
1249.203247 168.0
1249.695801 140.0
1250.871094 232.0
1251.011841 192.0
1252.878052 128.0
1254.562378 112.0
1254.738647 144.0
1255.055908 184.0
1255.697632 104.0
1255.746948 156.0
1255.888062 124.0
1258.10376 116.0
1259.311279 196.0
1260.074219 204.0
1260.250854 240.0
1262.873535 164.0
1263.043335 176.0
1264.507935 76.0
1266.858765 56.0
1267.184692 216.0
1268.665894 148.0
1268.8927 116.0
1269.424561 224.0
1270.467163 196.0
1276.419067 176.0
1277.116089 172.0
1277.535767 144.0
1278.033691 140.0
1278.866333 148.0
1281.344482 128.0
1282.520264 188.0
1283.810791 188.0
1286.072388 196.0
1286.843384 160.0
1286.936157 152.0
1287.514648 180.0
1289.329224 248.0
1290.523071 192.0
1291.252441 128.0
1292.618774 84.0
1293.434692 172.0
1294.32959 140.0
1296.342529 188.0
1297.905151 216.0
1298.313965 176.0
1299.03833 92.0
1299.110107 56.0
1300.746216 72.0
1301.636475 140.0
1302.024292 156.0
1303.266968 208.0
1303.849121 96.0
1304.028809 120.0
1307.394531 200.0
1309.302368 196.0
1310.483765 224.0
1311.528687 224.0
1312.292847 112.0
1312.720947 260.0
1313.901123 196.0
1315.39502 136.0
1318.948975 168.0
1319.708008 180.0
1319.997192 188.0
1321.610229 152.0
1323.542847 192.0
1324.607544 128.0
1328.913818 156.0
1329.000854 136.0
1330.684814 76.0
1331.955688 228.0
1332.551392 156.0
1332.63855 148.0
1333.299805 112.0
1336.026489 156.0
1339.571777 128.0
1342.239258 208.0
1343.282227 200.0
1343.420776 228.0
1343.77832 144.0
1344.354736 72.0
1344.668579 168.0
1344.967773 176.0
1345.208618 168.0
1347.1073 168.0
1348.349487 160.0
1351.384155 220.0
1352.174438 176.0
1352.774658 92.0
1353.755859 180.0
1356.180786 180.0
1356.503296 112.0
1357.559204 140.0
1358.703369 132.0
1359.892212 140.0
1360.149048 108.0
1361.970093 220.0
1364.034912 156.0
1365.299438 184.0
1365.961426 132.0
1366.689819 136.0
1368.132324 128.0
1368.713989 168.0
1370.098633 160.0
1371.130249 164.0
1371.668335 44.0
1371.933716 304.0
1372.199097 220.0
1373.002808 136.0
1373.548706 176.0
1373.799438 176.0
1373.998657 192.0
1374.426636 172.0
1375.415527 48.0
1377.143311 168.0
1377.822876 168.0
1380.432007 68.0
1381.430542 68.0
1382.392456 100.0
1384.094971 208.0
1384.257812 196.0
1386.413574 212.0
1387.762695 196.0
1388.074097 128.0
1390.366333 148.0
1391.516968 124.0
1393.708008 128.0
1394.941772 196.0
1399.412964 212.0
1400.410767 168.0
1400.50769 68.0
1401.356934 112.0
1401.647461 156.0
1402.974121 140.0
1403.048706 180.0
1403.630249 184.0
1404.555054 176.0
1405.025024 116.0
1405.823364 148.0
1407.346191 224.0
1407.637451 148.0
1408.974365 144.0
1409.108887 184.0
1409.228394 64.0
1409.557129 140.0
1409.631958 140.0
1412.398193 256.0
1412.450562 192.0
1413.901978 196.0
1414.418457 144.0
1415.212036 180.0
1415.72876 112.0
1416.275391 164.0
1417.294312 156.0
1418.088623 140.0
1419.655151 132.0
1421.651001 140.0
1422.056274 68.0
1424.414062 124.0
1425.112671 164.0
1425.495972 240.0
1425.691284 140.0
1426.713501 140.0
1427.29248 80.0
1427.495483 168.0
1427.593262 176.0
1427.698608 216.0
1430.324341 140.0
1431.973389 152.0
1432.26709 80.0
1432.462891 184.0
1433.125854 60.0
1433.306763 116.0
1433.932251 104.0
1434.904663 240.0
1435.432495 156.0
1437.597412 68.0
1438.29187 188.0
1438.728882 168.0
1438.827759 216.0
1439.311035 156.0
1439.567749 280.0
1439.817017 176.0
1441.494019 144.0
1442.385864 160.0
1443.013306 96.0
1443.519897 156.0
1444.268677 160.0
1444.790649 224.0
1445.471558 96.0
1447.083862 112.0
1447.414062 220.0
1450.212524 232.0
1450.530762 140.0
1452.0625 144.0
1452.411377 176.0
1453.154785 136.0
1460.820312 180.0
1462.342163 148.0
1463.887573 80.0
1465.952026 200.0
1466.668457 172.0
1466.72937 136.0
1467.522217 120.0
1468.383911 192.0
1468.513672 140.0
1468.89502 144.0
1469.360352 196.0
1469.474854 108.0
1470.352295 164.0
1470.421021 88.0
1472.047119 172.0
1473.001831 140.0
1475.225586 176.0
1475.462524 160.0
1475.783691 156.0
1475.913574 152.0
1476.311279 56.0
1478.629272 140.0
1479.126831 120.0
1481.087036 156.0
1482.075317 188.0
1483.109985 52.0
1484.075928 160.0
1484.35791 228.0
1484.497559 140.0
1485.134155 108.0
1485.402588 76.0
1485.579102 200.0
1486.423096 144.0
1486.944946 120.0
1488.203857 128.0
1490.093262 148.0
1491.20752 192.0
1491.368896 140.0
1491.960815 180.0
1492.229858 156.0
1492.452881 156.0
1492.921875 104.0
1495.329956 160.0
1496.053467 148.0
1496.153564 48.0
1497.169922 216.0
1497.254639 84.0
1498.101929 156.0
1498.163574 188.0
1498.541138 132.0
1499.018799 68.0
1501.053833 148.0
1501.447144 204.0
1501.871338 120.0
1502.095093 160.0
1502.936035 152.0
1503.638306 216.0
1504.070435 224.0
1504.356079 140.0
