>compound MLS001049022-01!(E)-1-(2-hydroxy-4-methoxyphenyl)-3-phenylprop-2-en-1-one
>formula C16H14O3
>ionization [M+H]+
>parentmass 255.102
#inchi InChI=1S/C16H14O3/c1-19-13-8-9-14(16(18)11-13)15(17)10-7-12-5-3-2-4-6-12/h2-11,18H,1H3/b10-7+
#inchikey GUNGQVJAKLIYDG
#Ion_Source LC-ESI
#Instrument qTof
#Compound_Source NIH Natural Product Library
#PI Dorrestein
#Data_Collector VVP/LMS
#Scan -1
#Precursor_MZ 255.102
#ExactMass 254.094
#Charge 1
#CAS_Number N/A
#Pubmed_ID N/A
#Smiles COc1ccc(C(=O)/C=C/c2ccccc2)c(O)c1
#INCHI_AUX N/A
#Library_Class 1
#SpectrumID CCMSLIB00000080319
#IonMode Positive
#UpdateWorkflowName UPDATE-SINGLE-ANNOTATED-GOLD
#LibraryQualityString Gold
#TaskID b1d8e8f6646f4e71acdff9ca3d919d08
##Scan# 2614
#SpectrumFile p2-B07_GB7_01_17995.mzXML
#LibraryName NIH_Natural_Products_Library.mgf
#MQScore -1
#Organism NIH_Natural_Products_Library
#TIC_Query 0
#RT_Query -1
#MZErrorPPM -1
#SharedPeaks 0
#MassDiff 0
#LibMZ -1
#SpecMZ 255.102
#SpecCharge 0
#internalFilename spec-00000.mgf

>collision 10
95.005104 132.0
95.050331 4180.0
95.107948 148.0
95.160362 128.0
95.21862 48.0
95.360443 68.0
95.659996 136.0
95.696983 208.0
95.730087 60.0
96.038017 204.0
96.062683 248.0
96.10434 264.0
96.225349 184.0
96.610359 188.0
96.671013 192.0
96.804123 140.0
96.821754 116.0
96.902061 152.0
96.923615 156.0
97.105934 152.0
97.243271 200.0
97.419991 84.0
97.445534 128.0
97.57753 200.0
97.797531 48.0
97.893539 136.0
98.097763 172.0
98.637817 164.0
98.829651 104.0
98.851418 140.0
98.90287 124.0
98.946419 184.0
99.013748 156.0
99.146484 48.0
99.336823 120.0
99.644539 104.0
99.771729 220.0
99.863205 88.0
99.877121 236.0
99.916908 136.0
100.058212 212.0
100.185669 152.0
100.636406 152.0
100.756241 168.0
101.294365 140.0
101.661278 176.0
101.767662 72.0
102.046043 1420.0
102.103249 132.0
102.12738 116.0
102.173645 104.0
102.315125 160.0
102.350761 204.0
102.580437 188.0
102.632858 112.0
102.665123 72.0
102.915642 160.0
103.006477 188.0
103.055092 15072.0
103.135681 56.0
103.384308 48.0
103.479439 76.0
103.619186 68.0
103.667816 68.0
103.941574 228.0
103.957809 104.0
104.006516 48.0
104.059387 972.0
104.081635 144.0
104.374237 84.0
104.402702 40.0
104.815941 116.0
104.919891 60.0
104.9729 60.0
105.036163 216.0
105.065224 212.0
105.138138 36.0
105.91098 164.0
106.054405 124.0
106.109756 176.0
106.304619 80.0
106.372345 212.0
106.505814 144.0
106.573608 112.0
107.049408 520.0
107.170128 48.0
107.296021 40.0
107.310455 112.0
107.679832 156.0
108.021271 3424.0
108.128471 32.0
108.342857 116.0
108.372826 192.0
108.41507 176.0
108.804222 200.0
109.02948 368.0
109.128326 124.0
109.427933 128.0
109.7071 168.0
109.745308 136.0
109.938622 188.0
110.037872 160.0
110.270683 76.0
110.308311 248.0
110.387756 164.0
110.52372 224.0
110.679367 56.0
110.942604 60.0
111.045349 188.0
111.328674 156.0
112.054359 224.0
112.938866 212.0
113.006561 76.0
113.235184 132.0
113.254036 204.0
113.338989 164.0
113.400444 140.0
114.277473 200.0
114.322159 116.0
114.810005 172.0
114.897461 136.0
115.055046 336.0
115.298889 156.0
115.49559 176.0
115.542656 68.0
116.024521 164.0
116.22184 128.0
116.632027 240.0
116.857826 144.0
116.950363 168.0
117.036469 172.0
117.215256 180.0
117.422211 20.0
118.039795 196.0
118.45755 104.0
118.518211 176.0
118.617905 176.0
119.013535 444.0
119.551842 208.0
119.62149 156.0
119.74778 148.0
120.026779 160.0
120.194679 60.0
120.375862 208.0
120.406433 108.0
121.064545 492.0
121.115074 40.0
121.492111 236.0
122.038979 156.0
122.069763 200.0
122.28096 188.0
122.443878 216.0
122.785484 184.0
123.044159 2316.0
123.149651 136.0
123.257896 68.0
123.282204 176.0
123.341881 48.0
123.467911 92.0
123.589569 156.0
123.662598 136.0
124.045799 148.0
124.220978 212.0
124.311943 224.0
124.327477 192.0
124.545059 68.0
124.927399 148.0
125.058678 116.0
125.874634 136.0
126.279129 140.0
127.063354 176.0
127.310059 120.0
127.59317 132.0
127.656128 140.0
127.685364 48.0
128.065872 292.0
128.162598 108.0
128.399292 160.0
128.808212 188.0
129.067856 192.0
129.454666 188.0
129.601913 176.0
130.364349 168.0
130.380249 140.0
130.787369 236.0
130.94902 136.0
130.964966 144.0
131.049988 6316.0
131.165482 88.0
131.200211 68.0
131.231598 48.0
131.552628 56.0
131.763382 180.0
132.05484 780.0
132.174927 80.0
132.408432 188.0
132.435913 32.0
132.779709 152.0
132.896698 52.0
132.981613 156.0
133.050476 216.0
134.037231 216.0
134.219284 68.0
134.537674 52.0
134.565369 172.0
134.791733 212.0
135.041229 152.0
135.298264 228.0
135.963501 176.0
136.017273 736.0
136.474548 104.0
136.628052 112.0
137.0215 148.0
137.448181 96.0
137.522858 140.0
137.592896 84.0
137.849823 184.0
138.025131 108.0
138.256729 100.0
138.425278 80.0
138.490845 124.0
139.008972 220.0
139.053558 124.0
139.22728 292.0
140.194168 124.0
140.274307 116.0
140.437012 192.0
140.958755 100.0
141.068176 268.0
141.311066 148.0
141.486191 156.0
141.694611 172.0
142.078674 128.0
142.482254 144.0
142.779388 112.0
142.929245 156.0
143.043488 52.0
143.083954 84.0
143.994858 188.0
144.021606 176.0
144.059341 240.0
144.147751 240.0
144.463348 240.0
144.956558 132.0
145.029663 136.0
145.801285 148.0
148.764984 168.0
149.058456 524.0
149.097748 48.0
149.175522 152.0
149.776566 96.0
150.256805 152.0
150.386139 156.0
150.644958 120.0
150.693832 164.0
150.786682 136.0
150.835571 156.0
150.852676 176.0
150.978409 132.0
151.03981 32284.0
151.170166 84.0
151.203949 288.0
151.259567 72.0
151.309982 256.0
151.346878 36.0
151.438004 96.0
151.528122 220.0
151.623688 40.0
151.65065 68.0
151.667801 40.0
151.908112 72.0
152.043945 2012.0
152.196533 92.0
152.261566 116.0
152.357361 68.0
152.379471 64.0
152.817108 68.0
152.900772 48.0
152.967224 56.0
153.005188 124.0
153.044617 316.0
153.066116 344.0
153.161758 80.0
153.183929 212.0
153.238129 120.0
153.33783 176.0
153.78804 88.0
153.82753 64.0
153.849747 52.0
153.876907 64.0
154.047318 204.0
154.084366 156.0
154.279602 180.0
154.398285 168.0
154.601151 84.0
155.056656 180.0
156.064682 188.0
157.153137 80.0
157.245468 56.0
158.448227 64.0
159.048248 144.0
159.27356 216.0
159.334137 152.0
159.431839 104.0
159.874451 60.0
159.894577 128.0
160.153915 40.0
160.403366 92.0
161.618118 212.0
162.028656 208.0
162.751129 184.0
163.06105 72.0
163.750534 104.0
163.804016 44.0
164.125137 60.0
164.906311 88.0
165.029007 180.0
165.070145 5040.0
165.136414 36.0
165.318054 44.0
165.74826 60.0
165.976379 28.0
166.078644 4188.0
166.122574 28.0
166.14566 60.0
166.299622 48.0
166.402145 64.0
166.433121 80.0
166.637451 108.0
167.082397 520.0
167.160568 76.0
167.20871 96.0
167.492676 60.0
167.608612 80.0
168.090805 152.0
168.351532 84.0
168.922729 124.0
168.992584 204.0
169.046631 424.0
169.067215 520.0
169.090912 152.0
169.401627 200.0
169.614105 68.0
170.074478 148.0
171.282318 76.0
172.028107 124.0
173.78418 136.0
174.101807 56.0
174.906342 104.0
175.211807 152.0
176.061127 868.0
176.084915 152.0
176.137741 140.0
176.187927 88.0
177.057343 880.0
178.078766 1260.0
178.246628 76.0
178.597549 56.0
178.634796 96.0
178.711945 60.0
179.086182 820.0
179.127258 132.0
180.063461 44.0
180.088501 108.0
180.226425 208.0
180.774582 152.0
181.015503 140.0
181.061966 304.0
181.213715 172.0
182.088211 212.0
182.10701 152.0
183.047485 300.0
183.077896 116.0
183.867798 120.0
184.078354 140.0
184.102661 212.0
185.10051 220.0
187.834625 140.0
191.089172 188.0
192.997818 144.0
193.066544 300.0
193.172058 68.0
193.243988 44.0
194.074295 3988.0
194.241302 60.0
194.391113 60.0
194.535446 96.0
194.796478 56.0
195.024323 60.0
195.075241 656.0
196.059113 204.0
196.083679 116.0
196.126556 116.0
196.430481 80.0
196.824005 52.0
196.927322 156.0
197.065659 1220.0
197.131271 116.0
197.796906 56.0
197.827698 44.0
198.065689 492.0
198.929932 104.0
199.100662 68.0
205.013428 124.0
205.066772 196.0
206.072571 176.0
206.652466 172.0
207.081589 168.0
207.359772 140.0
208.091736 188.0
208.878662 100.0
209.097565 2440.0
209.154907 40.0
209.313248 32.0
209.984711 216.0
210.073074 268.0
210.099457 696.0
210.131821 156.0
211.073578 708.0
212.086044 284.0
213.806091 100.0
220.306763 36.0
221.053299 144.0
222.063248 332.0
222.41217 28.0
223.071609 160.0
224.13707 136.0
224.16687 144.0
225.058746 364.0
227.101471 272.0
227.112381 160.0
227.12001 192.0
229.116714 204.0
236.082886 136.0
236.970566 60.0
237.038528 132.0
237.093887 816.0
238.093262 108.0
239.073944 152.0
240.07991 604.0
241.075348 368.0
242.858627 120.0
244.122635 20.0
245.667496 108.0
251.466248 40.0
253.081635 168.0
253.10379 184.0
253.125961 124.0
253.182968 176.0
255.106003 984.0
255.770569 96.0
256.102814 128.0
256.302429 128.0
321.238159 72.0
363.335693 84.0
368.559387 40.0
377.697723 28.0
383.658478 76.0
386.165344 84.0
396.916565 48.0
424.452728 56.0
446.740845 84.0
473.155579 36.0
479.54541 52.0
483.703644 76.0
511.655609 100.0
591.971069 20.0
643.282471 84.0
702.358704 36.0
703.77832 20.0
709.031128 72.0
711.205627 72.0
775.592957 176.0
792.260132 84.0
844.666077 196.0
854.179077 120.0
879.132629 184.0
884.629333 232.0
902.106628 128.0
914.673584 156.0
925.013123 196.0
933.37384 172.0
934.340881 120.0
942.431335 32.0
942.614685 208.0
945.764221 228.0
956.271973 92.0
958.569031 116.0
962.041382 60.0
963.702698 60.0
970.585449 124.0
992.577881 172.0
993.274048 164.0
997.286255 168.0
997.581665 132.0
999.827087 144.0
1009.62439 240.0
1009.845764 156.0
1012.503845 240.0
1012.896545 128.0
1013.263977 224.0
1029.406982 144.0
1035.898682 144.0
1036.468872 236.0
1042.487793 164.0
1043.606201 152.0
1046.371948 140.0
1046.417847 208.0
1048.769043 204.0
1057.139038 196.0
1066.644531 188.0
1069.730225 220.0
1070.680786 156.0
1082.062012 188.0
1082.363159 192.0
1084.026978 184.0
1090.543701 152.0
1092.713745 120.0
1093.707397 148.0
1096.262695 148.0
1098.715454 160.0
1098.985962 68.0
1099.329102 84.0
1105.851929 148.0
1109.170288 152.0
1111.863037 200.0
1114.685303 100.0
1115.19043 160.0
1115.921631 88.0
1117.285034 184.0
1117.414429 248.0
1119.155151 220.0
1125.829956 84.0
1126.18396 168.0
1127.119141 136.0
1129.211548 176.0
1131.198853 164.0
1132.678589 228.0
1134.37085 184.0
1134.628662 172.0
1136.902466 100.0
1138.433838 180.0
1140.717407 132.0
1142.277466 112.0
1150.248901 140.0
1151.646606 144.0
1152.126221 192.0
1152.963989 168.0
1156.413208 156.0
1157.421875 132.0
1160.179321 200.0
1161.89502 112.0
1168.4646 192.0
1170.840088 136.0
1175.932861 196.0
1176.67688 204.0
1179.409424 148.0
1180.804199 204.0
1183.418091 224.0
1187.481689 168.0
1193.002319 116.0
1197.798462 168.0
1200.520874 120.0
1204.447876 312.0
1209.114746 188.0
1215.094604 212.0
1215.545654 172.0
1216.420166 64.0
1220.588623 216.0
1224.950684 176.0
1226.415527 40.0
1226.589722 140.0
1231.201538 200.0
1234.828613 160.0
1237.263672 48.0
1240.486084 196.0
1240.89978 108.0
1241.15918 144.0
1241.292358 188.0
1241.432617 128.0
1241.902466 168.0
1242.477661 168.0
1242.646118 196.0
1243.516235 180.0
1243.874146 204.0
1244.281372 140.0
1244.66748 180.0
1244.765747 124.0
1248.089355 44.0
1249.418579 164.0
1249.875977 196.0
1251.565186 176.0
1254.009644 156.0
1254.362061 104.0
1254.904907 148.0
1255.074097 164.0
1256.512939 128.0
1256.999756 120.0
1260.064087 72.0
1262.248047 172.0
1262.396606 136.0
1263.181641 164.0
1263.910278 176.0
1265.417847 192.0
1269.187134 176.0
1269.733154 128.0
1271.166138 184.0
1275.185669 232.0
1276.351562 192.0
1282.01062 52.0
1283.072632 144.0
1284.406128 196.0
1285.71167 148.0
1287.053711 196.0
1287.653564 72.0
1287.782104 116.0
1288.189209 236.0
1290.10437 156.0
1291.355713 156.0
1292.171143 164.0
1292.858032 116.0
1293.144287 164.0
1294.039062 172.0
1294.325562 248.0
1295.364014 188.0
1296.825684 88.0
1297.592651 244.0
1304.771973 204.0
1306.361206 124.0
1309.434692 120.0
1309.946045 176.0
1311.617798 48.0
1313.088623 180.0
1315.758423 140.0
1315.910034 184.0
1318.120239 88.0
1319.724854 156.0
1321.077271 112.0
1322.95874 224.0
1325.725464 160.0
1326.500977 196.0
1328.545898 132.0
1329.859253 100.0
1329.997192 212.0
1330.236694 160.0
1331.703491 140.0
1333.628784 172.0
1334.493896 100.0
1337.141724 136.0
1338.532104 116.0
1339.966919 48.0
1340.630859 180.0
1341.905518 236.0
1346.480713 168.0
1347.15271 108.0
1348.131836 144.0
1348.541016 172.0
1349.798462 148.0
1352.007568 128.0
1353.046997 108.0
1354.555542 148.0
1355.10498 64.0
1357.560425 168.0
1359.849365 156.0
1364.918213 144.0
1365.293213 164.0
1368.729614 232.0
1370.05542 128.0
1371.74292 284.0
1373.475708 88.0
1373.837158 144.0
1375.098877 192.0
1376.353882 116.0
1377.121826 188.0
1377.771851 100.0
1378.052612 232.0
1378.133911 176.0
1379.493652 216.0
1381.150024 148.0
1382.489136 148.0
1385.895264 140.0
1392.987671 176.0
1394.45874 180.0
1395.789429 180.0
1397.38855 128.0
1397.529907 156.0
1397.634155 144.0
1398.549438 148.0
1399.532104 84.0
1399.926758 196.0
1401.990234 180.0
1403.093384 144.0
1403.510864 168.0
1403.756958 108.0
1404.062744 164.0
1405.756104 120.0
1406.062012 152.0
1406.688965 208.0
1409.758667 176.0
1410.760254 148.0
1411.418091 148.0
1411.941528 188.0
1413.826782 144.0
1419.190063 88.0
1419.550049 80.0
1419.752441 176.0
1421.147705 144.0
1423.414429 160.0
1424.308105 180.0
1427.118774 152.0
1427.34436 96.0
1427.396973 224.0
1429.10437 140.0
1435.476685 156.0
1436.736206 176.0
1437.505737 200.0
1437.679321 164.0
1438.207642 92.0
1438.547363 156.0
1439.725098 164.0
1440.336914 156.0
1446.030273 136.0
1446.688721 160.0
1447.741211 216.0
1449.113037 164.0
1449.492554 176.0
1449.854736 160.0
1450.036621 124.0
1450.347412 80.0
1450.893188 188.0
1452.880005 100.0
1455.005005 160.0
1455.301025 220.0
1458.332031 252.0
1459.016113 104.0
1460.247925 164.0
1460.917358 120.0
1461.700928 84.0
1463.916138 120.0
1464.883301 176.0
1465.256592 64.0
1467.344849 204.0
1468.549683 60.0
1469.701538 176.0
1470.128906 132.0
1470.395996 164.0
1471.418823 160.0
1472.174683 184.0
1474.756958 176.0
1475.483154 208.0
1476.362427 268.0
1477.525024 184.0
1478.695801 156.0
1479.285156 184.0
1480.66333 136.0
1482.517212 272.0
1484.073242 156.0
1484.541016 112.0
1486.236206 152.0
1486.665894 172.0
1487.134033 176.0
1487.226196 156.0
1488.093628 224.0
1488.439087 124.0
1489.276123 224.0
1490.159546 196.0
1492.657593 104.0
1494.680542 156.0
1495.365479 72.0
1496.512451 184.0
1497.952515 200.0
1499.624512 168.0
1501.143311 188.0
1503.951416 124.0
