>compound MLS001076678-01!Cantil
>formula C21H26NO3
>ionization [M+H]+
>parentmass 341.19854514409053
#inchi InChI=1S/C21H26NO3/c1-22(2)15-9-14-19(16-22)25-20(23)21(24,17-10-5-3-6-11-17)18-12-7-4-8-13-18/h3-8,10-13,19,24H,9,14-16H2,1-2H3/q+1
#inchikey GKNPSSNBBWDAGH
#origInchi InChI=1S/C21H26NO3.BrH/c1-22(2)15-9-14-19(16-22)25-20(23)21(24,17-10-5-3-6-11-17)18-12-7-4-8-13-18;/h3-8,10-13,19,24H,9,14-16H2,1-2H3;1H/q+1;/p-1
#Ion_Source LC-ESI
#Instrument qTof
#Compound_Source NIH Pharmacologically Active Library
#PI Dorrestein
#Data_Collector VP/LMS
#Scan -1
#Precursor_MZ 340.192
#ExactMass 340.191
#Charge 1
#CAS_Number N/A
#Pubmed_ID N/A
#Smiles C[N+]1(C)CCCC(C1)OC(=O)C(O)(c2ccccc2)c3ccccc3.[Br-]
#INCHI_AUX N/A
#Library_Class 1
#SpectrumID CCMSLIB00000085648
#IonMode Positive
#UpdateWorkflowName UPDATE-SINGLE-ANNOTATED-GOLD
#LibraryQualityString Gold
#TaskID d252d724072548979f1f6f1ced849daf
##Scan# 1520
#SpectrumFile p4-D09_GD9_01_18369.mzXML
#LibraryName Pharm_Active_Library.mgf
#MQScore -1
#Organism Pharm_Active_Library
#TIC_Query 0
#RT_Query -1
#MZErrorPPM -1
#SharedPeaks 0
#MassDiff 0
#LibMZ -1
#SpecMZ 340.192
#SpecCharge 0
#internalFilename spec-00000.mgf

>collision 10
44.951141 160.0
44.977837 132.0
45.007206 60.0
45.028572 148.0
45.051281 144.0
45.083347 160.0
45.106071 216.0
45.123447 192.0
45.143505 136.0
45.16032 252.0
45.172932 176.0
45.201027 132.0
45.210396 148.0
45.270638 152.0
45.284565 100.0
45.338959 160.0
45.353703 136.0
45.377609 144.0
45.403313 188.0
45.440872 152.0
45.478447 184.0
45.518723 184.0
45.546955 172.0
45.631588 180.0
45.688602 224.0
45.716331 172.0
45.739212 140.0
45.771523 188.0
45.797832 224.0
45.828602 212.0
45.868935 220.0
45.886707 156.0
45.979095 176.0
45.992622 336.0
46.06284 188.0
46.120945 148.0
46.14798 240.0
46.219669 48.0
46.229141 160.0
46.269749 164.0
46.323917 52.0
46.338211 160.0
46.353725 184.0
46.3727 204.0
46.436123 164.0
46.462196 156.0
46.493404 116.0
46.568077 236.0
46.603397 260.0
46.672718 200.0
46.71677 72.0
46.770672 68.0
46.800621 164.0
46.842838 152.0
46.876904 176.0
46.887806 176.0
46.921883 148.0
46.940971 220.0
46.96143 200.0
46.976433 156.0
46.99144 136.0
47.132076 228.0
47.175777 172.0
47.304401 148.0
47.32555 392.0
47.342739 140.0
47.466072 160.0
47.523186 204.0
47.535141 148.0
47.632137 132.0
47.660988 168.0
47.722839 236.0
47.824642 168.0
47.867321 132.0
47.885536 188.0
47.938587 144.0
47.981419 188.0
48.031326 156.0
48.057537 184.0
48.099564 220.0
48.130695 168.0
48.165222 172.0
48.223255 196.0
48.275787 156.0
48.288235 136.0
48.324203 60.0
48.338039 76.0
48.351879 280.0
48.367104 104.0
48.482059 144.0
48.505623 84.0
48.525032 224.0
48.540283 108.0
48.569408 232.0
48.595768 104.0
48.723259 116.0
48.779083 212.0
48.813843 152.0
48.85696 176.0
48.881004 200.0
48.895565 172.0
48.929592 148.0
48.966927 116.0
48.992001 208.0
49.057983 196.0
49.095146 116.0
49.134201 132.0
49.209568 160.0
49.225441 164.0
49.250065 112.0
49.262638 128.0
49.284992 192.0
49.343475 204.0
49.399006 160.0
49.410828 160.0
49.473804 104.0
49.513748 156.0
49.672794 176.0
49.721905 120.0
49.738747 184.0
49.776867 212.0
49.806149 120.0
49.901711 152.0
49.919991 156.0
50.035366 124.0
50.056488 180.0
50.070961 144.0
50.166386 172.0
50.24818 188.0
50.283459 124.0
50.318127 272.0
50.378685 192.0
50.383999 240.0
50.406322 28.0
50.434589 176.0
50.513775 148.0
50.537827 148.0
50.601517 144.0
50.641167 128.0
50.701698 188.0
50.770138 160.0
50.887917 224.0
50.920448 132.0
50.937622 132.0
51.027153 108.0
51.084038 64.0
51.099686 160.0
51.138111 172.0
51.148071 196.0
51.219269 184.0
51.280537 92.0
51.296219 140.0
51.40213 108.0
51.426022 264.0
51.47456 172.0
51.539555 128.0
51.586002 112.0
51.604588 144.0
51.747406 156.0
51.796356 176.0
51.863701 64.0
51.890938 104.0
51.924877 144.0
52.054516 176.0
52.090305 152.0
52.126339 116.0
52.146458 136.0
52.159393 132.0
52.195335 196.0
52.239922 44.0
52.295254 124.0
52.340672 140.0
52.391747 156.0
52.529472 116.0
52.604511 160.0
52.63483 164.0
52.698383 180.0
52.722347 252.0
52.746075 108.0
52.757641 204.0
52.792339 160.0
52.802464 232.0
52.850201 172.0
52.886383 168.0
52.903751 228.0
52.948639 272.0
52.984852 208.0
53.054665 188.0
53.10807 160.0
53.184971 124.0
53.222828 156.0
53.312782 216.0
53.368019 92.0
53.429104 144.0
53.49168 208.0
53.540051 180.0
53.558662 112.0
53.593628 104.0
53.616734 224.0
53.695671 80.0
53.762779 184.0
53.859142 184.0
53.898586 188.0
53.954876 180.0
53.993607 104.0
54.287971 172.0
54.32317 220.0
54.539028 144.0
54.571369 160.0
54.604527 124.0
54.643559 196.0
54.670437 248.0
54.685341 124.0
54.703777 172.0
54.742058 120.0
54.752365 164.0
54.792137 184.0
54.882839 216.0
54.911537 176.0
54.924812 156.0
54.941422 200.0
54.998196 60.0
55.09605 96.0
55.138905 112.0
55.201885 252.0
55.223179 128.0
55.237968 172.0
55.282356 204.0
55.526802 200.0
55.563801 140.0
55.617062 208.0
55.633636 212.0
55.710857 156.0
55.761379 196.0
55.792595 140.0
55.805977 160.0
55.820847 212.0
55.844643 140.0
55.88332 132.0
55.910103 152.0
55.950294 152.0
55.971138 172.0
56.038166 228.0
56.069458 128.0
56.254414 224.0
56.275043 132.0
56.324596 72.0
56.424721 272.0
56.438179 160.0
56.460609 192.0
56.472572 152.0
56.496506 120.0
56.641953 176.0
56.655193 180.0
56.67767 128.0
56.691154 108.0
56.704643 140.0
56.716633 128.0
56.809605 120.0
56.928181 124.0
56.971737 240.0
57.000896 304.0
57.037857 200.0
57.067924 100.0
57.081383 160.0
57.164192 172.0
57.236446 120.0
57.296227 116.0
57.350945 176.0
57.369034 200.0
57.384109 72.0
57.475403 152.0
57.495735 160.0
57.541019 88.0
57.584808 188.0
57.698116 244.0
57.719311 120.0
57.737457 44.0
57.757118 208.0
57.788887 124.0
57.829746 176.0
57.861534 148.0
57.988781 196.0
58.04184 148.0
58.057003 172.0
58.097958 184.0
58.116161 172.0
58.129818 172.0
58.144997 140.0
58.184464 228.0
58.23761 256.0
58.264385 228.0
58.353104 200.0
58.458057 168.0
58.470234 124.0
58.491543 148.0
58.526558 212.0
58.573769 180.0
58.738396 196.0
58.762806 120.0
58.802483 140.0
58.846748 196.0
58.857437 152.0
58.897144 48.0
58.921589 172.0
58.950146 168.0
58.999531 156.0
59.020935 216.0
59.120365 132.0
59.178535 160.0
59.212223 108.0
59.250519 44.0
59.264309 184.0
59.291889 224.0
59.31488 164.0
59.34861 36.0
59.37468 108.0
59.471336 148.0
59.516171 176.0
59.545036 200.0
59.620316 128.0
59.728325 176.0
59.764862 168.0
59.811031 328.0
59.823345 108.0
59.842026 152.0
59.8955 420.0
59.958275 132.0
59.971542 216.0
59.989719 156.0
60.002052 116.0
60.020557 184.0
60.035976 188.0
60.09922 168.0
60.190292 204.0
60.21191 184.0
60.27216 204.0
60.282974 164.0
60.306156 160.0
60.37109 228.0
60.414402 132.0
60.470104 208.0
60.620327 152.0
60.687977 168.0
60.745914 184.0
60.757675 200.0
60.770638 188.0
60.924438 208.0
60.95396 196.0
60.978825 184.0
61.008358 324.0
61.050339 136.0
61.081226 224.0
61.09856 180.0
61.156136 136.0
61.185711 64.0
61.201283 100.0
61.241772 120.0
61.27916 124.0
61.296299 76.0
61.322792 152.0
61.464245 236.0
61.492798 184.0
61.506844 156.0
61.527138 136.0
61.628658 160.0
61.669289 88.0
61.695862 172.0
61.711185 160.0
61.752533 232.0
61.802216 128.0
61.835079 72.0
61.872646 176.0
61.944454 164.0
61.995136 140.0
62.01363 156.0
62.057522 180.0
62.079475 172.0
62.092022 200.0
62.110844 148.0
62.172298 188.0
62.192436 172.0
62.220692 132.0
62.247383 220.0
62.277222 152.0
62.314926 148.0
62.393509 180.0
62.404514 96.0
62.435963 148.0
62.517769 124.0
62.538231 220.0
62.58231 112.0
62.640579 72.0
62.683117 52.0
62.736706 184.0
62.761932 188.0
62.785587 72.0
62.807667 140.0
62.81871 60.0
62.916553 152.0
62.933918 184.0
62.946552 108.0
63.022373 164.0
63.102982 152.0
63.175728 184.0
63.316605 156.0
63.376801 188.0
63.524242 208.0
63.561981 168.0
63.624222 188.0
63.675564 240.0
63.77195 184.0
63.822823 128.0
63.903942 56.0
63.935768 56.0
63.959641 188.0
63.980335 172.0
64.136444 212.0
64.165138 160.0
64.177895 188.0
64.200218 196.0
64.227333 132.0
64.251266 84.0
64.281578 196.0
64.335846 192.0
64.357483 188.0
64.410904 144.0
64.450844 144.0
64.49559 180.0
64.524361 268.0
64.544853 196.0
64.569138 68.0
64.597931 156.0
64.617126 104.0
64.637924 40.0
64.72757 184.0
64.764404 164.0
64.836502 100.0
64.874969 164.0
64.952438 192.0
64.985626 160.0
64.998466 52.0
65.024139 104.0
65.117828 304.0
65.134933 212.0
65.160637 152.0
65.221703 104.0
65.314156 64.0
65.493629 200.0
65.521019 144.0
65.566132 164.0
65.653191 48.0
65.677383 108.0
65.708031 112.0
65.737076 192.0
65.838783 144.0
65.856544 208.0
65.916321 176.0
65.93248 232.0
65.955109 168.0
65.99337 168.0
66.019783 172.0
66.082016 144.0
66.10218 184.0
66.118469 204.0
66.147606 196.0
66.210747 248.0
66.222084 184.0
66.288506 188.0
66.333893 124.0
66.408134 208.0
66.458771 140.0
66.483109 40.0
66.554939 128.0
66.593506 268.0
66.608124 68.0
66.655243 164.0
66.865028 152.0
66.970856 164.0
67.069221 196.0
67.101219 104.0
67.119156 132.0
67.184395 108.0
67.246407 160.0
67.27742 136.0
67.297012 164.0
67.372139 112.0
67.450577 136.0
67.462021 164.0
67.502892 164.0
67.560143 208.0
67.712372 120.0
67.759872 196.0
67.786087 80.0
67.81395 136.0
67.933113 220.0
67.984512 140.0
68.096153 192.0
68.157326 152.0
68.234184 220.0
68.252274 152.0
68.288452 148.0
68.32135 104.0
68.380592 112.0
68.410217 200.0
68.429977 128.0
68.463493 244.0
68.509865 188.0
68.565048 92.0
68.588127 140.0
68.660667 204.0
68.715103 228.0
68.744804 140.0
68.767578 200.0
68.805878 84.0
68.827339 136.0
68.914886 176.0
68.941322 160.0
69.032242 132.0
69.065323 168.0
69.088478 140.0
69.179497 208.0
69.192741 156.0
69.227516 244.0
69.240051 204.0
69.269173 188.0
69.290459 228.0
69.390945 392.0
69.447937 144.0
69.519279 180.0
69.632172 152.0
69.713577 200.0
69.796692 156.0
69.93644 140.0
69.979721 104.0
69.993042 148.0
70.016357 148.0
70.049095 152.0
70.076324 224.0
70.152222 148.0
70.17466 236.0
70.194672 172.0
70.296524 208.0
70.31311 176.0
70.346497 152.0
70.374878 136.0
70.433327 132.0
70.519112 124.0
70.553642 52.0
70.595444 124.0
70.63224 84.0
70.659012 156.0
70.683228 220.0
70.699165 152.0
70.77282 112.0
70.799614 164.0
70.827766 168.0
70.881699 76.0
70.913536 140.0
70.950073 116.0
70.988983 124.0
71.044174 128.0
71.128235 120.0
71.222267 272.0
71.289474 196.0
71.333176 64.0
71.351662 100.0
71.386429 184.0
71.425659 196.0
71.457619 80.0
71.484467 172.0
71.632706 168.0
71.654602 104.0
71.740555 140.0
71.767532 152.0
71.821495 180.0
71.836678 148.0
71.856926 228.0
71.877167 192.0
71.909233 72.0
71.936241 236.0
71.953308 180.0
72.056145 140.0
72.100082 168.0
72.157555 140.0
72.23027 184.0
72.311485 240.0
72.345337 140.0
72.369041 164.0
72.382591 156.0
72.458809 68.0
72.557732 184.0
72.576485 196.0
72.594406 216.0
72.630028 136.0
72.70977 132.0
72.747108 156.0
72.840508 60.0
72.865913 172.0
72.930565 204.0
73.05249 120.0
73.092125 180.0
73.109146 124.0
73.195961 132.0
73.22213 176.0
73.270905 120.0
73.298164 144.0
73.327141 160.0
73.410675 164.0
73.596191 212.0
73.639366 348.0
73.735039 156.0
73.774353 204.0
73.851982 164.0
73.900917 172.0
73.914604 152.0
73.953964 180.0
74.053268 68.0
74.090363 184.0
74.120087 160.0
74.168068 136.0
74.181786 44.0
74.207497 216.0
74.245224 132.0
74.262375 180.0
74.355026 276.0
74.372185 248.0
74.385918 148.0
74.406517 120.0
74.44709 156.0
74.518158 140.0
74.5783 180.0
74.602364 160.0
74.621277 144.0
74.647461 176.0
74.745117 148.0
74.836349 176.0
74.852089 196.0
74.905235 212.0
74.936554 220.0
75.000008 48.0
75.018967 140.0
75.046555 176.0
75.106911 156.0
75.151695 196.0
75.188004 224.0
75.21389 148.0
75.300224 100.0
75.327858 168.0
75.339951 120.0
75.388336 168.0
75.619156 172.0
75.642578 160.0
75.75341 172.0
75.791527 48.0
75.814049 32.0
75.837852 164.0
75.866051 148.0
75.897255 116.0
75.926735 156.0
75.961426 172.0
76.136734 164.0
76.171471 188.0
76.310501 188.0
76.348755 192.0
76.408875 180.0
76.451431 208.0
76.467056 192.0
76.541916 172.0
76.571518 224.0
76.634232 232.0
76.770195 248.0
76.798103 92.0
76.816147 220.0
76.831245 108.0
76.874863 148.0
76.894058 168.0
77.007545 84.0
77.028511 144.0
77.177933 160.0
77.25576 232.0
77.26976 104.0
77.283752 188.0
77.362511 136.0
77.437805 124.0
77.503914 188.0
77.527153 176.0
77.567467 128.0
77.683205 424.0
77.700745 180.0
77.758652 136.0
77.783226 176.0
77.816582 160.0
77.853661 232.0
77.900879 148.0
77.95359 196.0
78.034447 212.0
78.05555 216.0
78.106552 216.0
78.162018 140.0
78.204025 160.0
78.307983 152.0
78.344193 240.0
78.365334 124.0
78.539864 168.0
78.571617 172.0
78.645729 188.0
78.69516 124.0
78.717316 192.0
78.851265 152.0
78.885963 216.0
78.935471 176.0
78.951202 196.0
78.976143 204.0
79.032753 216.0
79.107086 188.0
79.123024 168.0
79.161972 192.0
79.179688 164.0
79.270035 204.0
79.28421 140.0
79.301933 132.0
79.337387 160.0
79.411865 292.0
79.483902 184.0
79.502342 124.0
79.521866 108.0
79.539612 172.0
79.564468 156.0
79.658592 144.0
79.6959 136.0
79.786736 148.0
79.871902 148.0
79.984001 144.0
80.008926 140.0
80.02861 208.0
80.087273 136.0
80.10865 132.0
80.137154 52.0
80.151413 228.0
80.197891 248.0
80.258362 184.0
80.279228 148.0
80.299377 148.0
80.325638 204.0
80.357506 184.0
80.393929 92.0
80.488541 208.0
80.563553 224.0
80.652901 152.0
80.668991 132.0
80.78344 104.0
80.928398 116.0
80.951683 152.0
81.017952 208.0
81.064735 180.0
81.218719 100.0
81.374352 260.0
81.434113 140.0
81.452492 136.0
81.51136 152.0
81.682159 180.0
81.694748 152.0
81.718628 176.0
81.754128 216.0
81.786522 220.0
81.800919 64.0
81.858536 132.0
81.88195 184.0
81.93959 76.0
81.952202 144.0
82.031502 196.0
82.119858 160.0
82.199234 156.0
82.224495 188.0
82.264206 152.0
82.305733 116.0
82.331017 76.0
82.345459 84.0
82.374359 156.0
82.406883 140.0
82.46434 176.0
82.533401 172.0
82.557907 176.0
82.571381 148.0
82.594894 200.0
82.611176 168.0
82.761391 132.0
82.823212 188.0
82.908119 144.0
82.928055 160.0
82.944366 172.0
82.991501 64.0
83.015076 156.0
83.038803 172.0
83.147507 132.0
83.211044 48.0
83.552719 52.0
83.627327 184.0
83.658272 108.0
83.671013 116.0
83.785751 156.0
83.81205 92.0
83.844063 120.0
83.873276 140.0
83.887802 84.0
83.942505 60.0
83.997215 196.0
84.051949 136.0
84.068375 160.0
84.123795 164.0
84.157814 208.0
84.175186 164.0
84.178757 120.0
84.229042 180.0
84.291161 156.0
84.360611 60.0
84.400833 88.0
84.441063 192.0
84.490456 156.0
84.512413 48.0
84.598427 116.0
84.633217 184.0
84.660683 144.0
84.699142 160.0
84.77243 148.0
84.812752 180.0
84.887917 180.0
84.983299 48.0
85.040192 64.0
85.109947 224.0
85.13015 144.0
85.187088 220.0
85.22567 84.0
85.240364 156.0
85.262421 164.0
85.291824 148.0
85.334106 152.0
85.346977 200.0
85.392952 148.0
85.449982 220.0
85.477577 160.0
85.508865 176.0
85.597229 132.0
85.617485 216.0
85.739075 188.0
85.792534 44.0
85.844444 208.0
85.873665 208.0
85.912399 260.0
85.930847 188.0
86.115448 160.0
86.189346 144.0
86.268814 152.0
86.292854 168.0
86.476616 172.0
86.551888 64.0
86.590782 160.0
86.71862 180.0
86.828011 252.0
86.848412 68.0
86.883652 184.0
86.905914 172.0
86.918907 44.0
86.943031 152.0
86.970871 108.0
87.030273 52.0
87.107094 232.0
87.268105 96.0
87.288559 128.0
87.346214 176.0
87.362953 192.0
87.394585 172.0
87.424706 216.0
87.441109 52.0
87.476471 176.0
87.657135 164.0
87.674736 144.0
87.774567 136.0
87.791351 152.0
87.811867 188.0
87.847305 224.0
87.989143 184.0
88.093719 212.0
88.142296 236.0
88.205841 144.0
88.252579 176.0
88.291847 136.0
88.366669 164.0
88.428429 76.0
88.445267 156.0
88.465858 212.0
88.492073 148.0
88.553871 124.0
88.640045 64.0
88.661041 176.0
88.679398 236.0
88.78627 232.0
88.803146 152.0
88.823776 148.0
88.836906 204.0
88.878181 176.0
88.941994 176.0
88.990807 116.0
89.116646 216.0
89.139191 284.0
89.233177 204.0
89.289589 152.0
89.360588 300.0
89.402466 132.0
89.419403 168.0
89.480652 212.0
89.51918 128.0
89.536133 140.0
89.605827 192.0
89.624664 160.0
89.701935 76.0
89.724274 184.0
89.781128 184.0
89.847145 108.0
89.873558 108.0
89.976898 240.0
90.001915 212.0
90.037788 132.0
90.071793 168.0
90.088791 116.0
90.1147 168.0
90.191505 400.0
90.221077 208.0
90.243767 180.0
90.274017 188.0
90.34211 164.0
90.372383 112.0
90.38752 132.0
90.491623 184.0
90.512451 176.0
90.540855 164.0
90.734131 172.0
90.75309 168.0
90.822266 184.0
90.86689 152.0
90.967468 144.0
90.994049 60.0
91.056717 192.0
91.157402 192.0
91.172607 136.0
91.187805 188.0
91.2229 176.0
91.298073 212.0
91.389381 128.0
91.404602 140.0
91.41983 172.0
91.4636 92.0
91.492157 116.0
91.591713 272.0
91.633095 76.0
91.646431 144.0
91.684982 208.0
91.718849 192.0
91.737907 164.0
91.762695 68.0
91.83844 252.0
91.873306 200.0
91.945816 136.0
92.025993 120.0
92.102379 156.0
92.196136 164.0
92.29731 148.0
92.325996 216.0
92.347038 148.0
92.368073 72.0
92.419731 200.0
92.521164 52.0
92.657143 216.0
92.77021 104.0
92.80706 184.0
92.873703 132.0
92.892944 244.0
92.937065 172.0
92.969688 76.0
93.01767 216.0
93.031113 216.0
93.054146 160.0
93.086792 212.0
93.113678 108.0
93.167458 152.0
93.215492 128.0
93.232788 148.0
93.26931 160.0
93.284683 108.0
93.298141 136.0
93.336594 180.0
93.353905 132.0
93.375053 144.0
93.444305 160.0
93.459702 124.0
93.486641 152.0
93.584808 144.0
93.625626 184.0
93.661842 196.0
93.746613 124.0
93.846848 128.0
93.868057 164.0
93.904701 160.0
93.970673 120.0
94.00502 208.0
94.033485 192.0
94.066231 224.0
94.179558 172.0
94.204933 196.0
94.308235 208.0
94.41021 156.0
94.483276 416.0
94.536446 184.0
94.584831 144.0
94.612274 204.0
94.644852 176.0
94.681641 48.0
94.757233 172.0
94.858955 192.0
94.894798 240.0
94.910309 96.0
94.980125 136.0
95.043282 200.0
95.073257 68.0
95.088783 212.0
95.131485 240.0
95.17614 176.0
95.214973 120.0
95.238609 192.0
95.271309 140.0
95.289879 136.0
95.310165 76.0
95.332985 160.0
95.393738 156.0
95.442337 148.0
95.559044 148.0
95.578499 204.0
95.749809 136.0
95.765388 164.0
95.781342 148.0
95.847214 148.0
95.872543 52.0
95.890083 64.0
95.964157 156.0
96.001205 128.0
96.040215 260.0
96.054611 168.0
96.079132 1128.0
96.097054 204.0
96.218925 200.0
96.32325 136.0
96.369186 148.0
96.390327 180.0
96.409676 192.0
96.456123 100.0
96.489357 116.0
96.579308 160.0
96.623238 368.0
96.676613 196.0
96.716278 180.0
96.835716 140.0
96.919952 164.0
96.935623 192.0
96.996384 252.0
97.087273 1340.0
97.118095 160.0
97.133133 184.0
97.149155 212.0
97.241562 220.0
97.35347 196.0
97.447754 168.0
97.544052 60.0
97.592987 188.0
97.749146 200.0
97.780838 228.0
97.82235 388.0
97.93956 44.0
97.953346 144.0
98.06369 112.0
98.093681 656.0
98.176071 76.0
98.288513 116.0
98.316139 132.0
98.481979 80.0
98.499184 208.0
98.547173 108.0
98.598549 184.0
98.612381 44.0
98.667458 204.0
98.689484 40.0
98.948669 192.0
98.992226 52.0
99.088715 180.0
99.096901 128.0
99.099586 160.0
99.117027 236.0
99.143837 232.0
99.18837 52.0
99.247849 196.0
99.269844 212.0
99.402565 132.0
99.458138 188.0
99.479973 220.0
99.553436 128.0
99.589188 248.0
99.613022 216.0
99.643089 176.0
99.688522 148.0
99.748146 64.0
99.775978 192.0
100.024643 136.0
100.046539 176.0
100.094322 216.0
100.132164 244.0
100.152077 212.0
100.215828 84.0
100.251694 116.0
100.335411 200.0
100.369308 164.0
100.391243 184.0
100.405205 148.0
100.532883 156.0
100.592758 188.0
100.624702 48.0
100.666634 148.0
100.684608 160.0
100.722557 188.0
100.754517 156.0
100.804466 144.0
100.820457 36.0
100.880417 192.0
100.934402 120.0
100.9524 148.0
101.058411 192.0
101.074417 212.0
101.090431 152.0
101.142082 188.0
101.202522 200.0
101.223724 348.0
101.24057 36.0
101.420883 196.0
101.679619 216.0
101.749878 200.0
101.771957 164.0
101.79937 148.0
101.818146 136.0
101.83622 152.0
101.906532 112.0
101.968826 172.0
102.055267 196.0
102.119621 172.0
102.174156 180.0
102.26046 92.0
102.304741 200.0
102.387299 164.0
102.434975 220.0
102.459816 176.0
102.483986 196.0
102.544449 132.0
102.621048 116.0
102.669441 316.0
102.7118 132.0
102.760612 184.0
102.830841 208.0
102.939857 160.0
102.963142 172.0
102.988327 156.0
103.018631 160.0
103.03479 116.0
103.198502 176.0
103.222763 208.0
103.327942 152.0
103.441933 244.0
103.506058 216.0
103.535774 172.0
103.688377 176.0
103.759323 192.0
103.848495 140.0
103.959297 136.0
103.986519 180.0
104.04335 116.0
104.1063 172.0
104.227623 204.0
104.244438 176.0
104.297279 120.0
104.322685 184.0
104.53727 60.0
104.569832 200.0
104.586113 152.0
104.608505 240.0
104.637833 148.0
104.671616 152.0
104.720497 164.0
104.74086 180.0
104.757156 144.0
104.796982 212.0
104.838661 128.0
104.87738 156.0
104.903885 60.0
104.926308 152.0
104.957146 192.0
104.998039 112.0
105.034119 26384.0
105.117722 52.0
105.138634 88.0
105.153976 164.0
105.171097 72.0
105.220093 144.0
105.258888 156.0
105.275223 40.0
105.307899 56.0
105.336494 132.0
105.367592 36.0
105.455009 80.0
105.491798 72.0
105.524513 108.0
105.56192 176.0
105.57972 132.0
105.61245 56.0
105.665634 64.0
105.694275 52.0
105.753624 40.0
105.834648 304.0
105.858948 200.0
105.876465 124.0
105.915184 164.0
105.934181 68.0
105.956512 204.0
105.985039 152.0
106.017822 144.0
106.03656 1448.0
106.105278 72.0
106.136719 44.0
106.155174 136.0
106.206444 140.0
106.24839 152.0
106.278252 160.0
106.306976 244.0
106.333656 100.0
106.359825 80.0
106.380867 84.0
106.437187 260.0
106.534882 48.0
106.564102 144.0
106.65818 104.0
106.730133 88.0
106.898857 172.0
106.9338 108.0
107.014076 168.0
107.036728 120.0
107.124496 176.0
107.154137 144.0
107.199463 232.0
107.246437 116.0
107.265419 180.0
107.333321 192.0
107.364388 136.0
107.38501 52.0
107.540993 100.0
107.585167 140.0
107.62439 176.0
107.868179 44.0
108.010254 164.0
108.052231 148.0
108.079124 156.0
108.14949 76.0
108.184677 184.0
108.246696 176.0
108.281998 32.0
108.329643 184.0
108.346214 148.0
108.39801 152.0
108.466408 192.0
108.544731 200.0
108.657196 136.0
108.675865 200.0
108.717369 180.0
108.781708 128.0
108.82531 104.0
108.860603 144.0
108.966537 48.0
109.030914 192.0
109.062721 132.0
109.251366 136.0
109.274246 148.0
109.318306 300.0
109.351189 156.0
109.386627 232.0
109.440758 204.0
109.545753 192.0
109.646988 128.0
109.677208 204.0
109.801262 172.0
109.868011 208.0
110.062119 148.0
110.096901 444.0
110.122681 188.0
110.164452 124.0
110.2752 56.0
110.397064 180.0
110.415283 152.0
110.57428 192.0
110.588936 120.0
110.691513 172.0
110.72921 144.0
110.766914 200.0
110.852814 132.0
111.081345 144.0
111.102325 168.0
111.169464 208.0
111.213539 36.0
111.287018 72.0
111.358414 180.0
111.394119 168.0
111.442444 52.0
111.497078 200.0
111.574753 168.0
111.579895 160.0
111.623215 148.0
111.648445 64.0
111.917847 184.0
111.976761 140.0
112.031532 196.0
112.112152 6804.0
112.151642 80.0
112.171783 108.0
112.282364 544.0
112.313995 176.0
112.337204 164.0
112.356186 160.0
112.408936 64.0
112.478584 80.0
112.586266 36.0
112.607384 156.0
112.623024 148.0
112.655968 168.0
112.750679 176.0
112.79332 176.0
112.844223 208.0
112.909607 112.0
112.932877 112.0
113.057594 164.0
113.087326 152.0
113.1175 1032.0
113.184715 76.0
113.218597 84.0
113.280022 48.0
113.347816 168.0
113.382011 148.0
113.413513 120.0
113.453789 56.0
113.525879 280.0
113.600113 52.0
113.623451 180.0
113.807808 116.0
113.831505 200.0
113.988655 60.0
114.007782 84.0
114.089951 740.0
114.127708 1296.0
114.184235 76.0
114.209755 40.0
114.36721 120.0
114.395805 240.0
114.400291 104.0
114.40863 192.0
114.445984 176.0
114.484306 212.0
114.543945 184.0
114.558861 148.0
114.605728 240.0
114.654739 112.0
114.680313 160.0
114.818901 84.0
115.053612 212.0
115.07283 152.0
115.098595 1192.0
115.133873 184.0
115.254379 40.0
115.269341 180.0
115.316353 28.0
115.384758 56.0
115.412552 200.0
115.480988 212.0
115.576027 160.0
115.622192 176.0
115.712097 60.0
115.791328 192.0
115.840012 148.0
115.926292 148.0
115.992737 124.0
116.063484 200.0
116.078491 160.0
116.106369 204.0
116.209335 160.0
116.232941 56.0
116.338104 360.0
116.381042 168.0
116.407951 196.0
116.580818 52.0
116.604454 104.0
116.640999 156.0
116.668938 112.0
116.696892 144.0
116.72699 216.0
116.856857 192.0
116.920601 180.0
117.011009 128.0
117.069145 76.0
117.0923 144.0
117.130699 228.0
117.190697 192.0
117.213478 144.0
117.405334 152.0
117.437637 172.0
117.582474 200.0
117.634041 100.0
117.722565 220.0
117.791679 124.0
117.882156 160.0
117.971039 156.0
117.992661 160.0
118.042389 180.0
118.128899 116.0
118.265221 224.0
118.317177 192.0
118.3778 180.0
118.440613 184.0
118.503433 80.0
118.568443 120.0
118.639969 228.0
118.689842 176.0
118.719421 56.0
118.740776 172.0
118.815636 192.0
118.8395 72.0
118.856857 208.0
118.874222 92.0
118.891579 152.0
118.978806 196.0
119.00663 128.0
119.04789 56.0
119.204292 140.0
119.256454 208.0
119.297752 160.0
119.460854 252.0
119.482605 212.0
119.521767 228.0
119.539177 368.0
119.578346 112.0
119.617531 184.0
119.637123 176.0
119.663246 200.0
119.762451 344.0
119.830948 156.0
119.913757 80.0
119.935555 52.0
119.989365 140.0
120.201622 180.0
120.242294 180.0
120.280197 116.0
120.350052 152.0
120.382805 168.0
120.483284 124.0
120.500763 132.0
120.519508 160.0
120.559761 204.0
120.588165 156.0
120.60347 156.0
120.62751 148.0
120.660309 216.0
120.722786 188.0
120.760399 228.0
120.846207 140.0
120.873497 136.0
120.896538 160.0
121.019119 120.0
121.10672 232.0
121.179008 112.0
121.208786 176.0
121.227211 144.0
121.264473 160.0
121.389435 228.0
121.481552 188.0
121.523232 164.0
121.636513 116.0
121.652718 156.0
121.711998 184.0
121.764702 120.0
121.88092 168.0
121.911896 260.0
122.037193 188.0
122.153748 252.0
122.175751 116.0
122.252396 168.0
122.320992 192.0
122.336395 88.0
122.369423 236.0
122.402451 172.0
122.417862 228.0
122.466316 180.0
122.494949 216.0
122.565453 156.0
122.580879 116.0
122.737381 140.0
122.770462 248.0
122.803543 168.0
122.823395 168.0
122.838837 176.0
122.96994 212.0
123.163315 136.0
123.282623 128.0
123.340088 128.0
123.395355 144.0
123.441788 184.0
123.473595 208.0
123.501503 56.0
123.549828 236.0
123.557556 200.0
123.632034 160.0
123.674088 196.0
123.694862 176.0
123.731644 180.0
123.760422 132.0
123.965523 176.0
124.069221 192.0
124.197006 184.0
124.320122 340.0
124.37648 176.0
124.432228 144.0
124.506744 172.0
124.614349 160.0
124.661018 124.0
124.812172 96.0
124.858871 48.0
125.012375 200.0
125.05394 176.0
125.116112 56.0
125.157066 164.0
125.18824 176.0
125.214966 168.0
125.308517 168.0
125.437775 192.0
125.468987 124.0
125.500198 200.0
125.564873 196.0
125.587173 228.0
125.613937 204.0
125.716576 136.0
125.881767 196.0
126.011322 148.0
126.068298 208.0
126.086571 148.0
126.165527 152.0
126.358955 212.0
126.501091 124.0
126.523476 176.0
126.554039 160.0
126.606323 156.0
126.662315 200.0
126.684715 144.0
126.768646 200.0
126.801231 172.0
126.819168 76.0
126.940231 156.0
127.124176 172.0
127.162323 152.0
127.310501 200.0
127.436295 100.0
127.482727 156.0
127.565971 188.0
127.629593 156.0
127.770241 192.0
127.850044 32.0
127.86805 248.0
127.888138 164.0
127.946831 184.0
127.967094 160.0
127.99411 112.0
128.012131 136.0
128.043655 188.0
128.061722 172.0
128.08194 148.0
128.106659 1272.0
128.158188 208.0
128.192642 60.0
128.208115 236.0
128.275742 116.0
128.327591 60.0
128.397491 156.0
128.442596 168.0
128.505768 176.0
128.54187 32.0
128.591522 196.0
128.675034 132.0
128.699875 196.0
128.7202 120.0
128.781174 72.0
128.865707 196.0
128.905426 172.0
128.952896 180.0
129.050095 152.0
129.081757 48.0
129.10437 332.0
129.202881 252.0
129.233307 168.0
129.278198 180.0
129.328354 208.0
129.398529 276.0
129.430222 100.0
129.46492 272.0
129.507675 236.0
129.552307 112.0
129.581375 208.0
129.608002 132.0
129.636261 152.0
129.643677 380.0
129.686218 60.0
129.708878 128.0
129.726349 236.0
129.745377 168.0
129.766479 196.0
129.770996 80.0
129.78064 228.0
129.79982 328.0
129.817612 384.0
129.852386 152.0
129.889252 164.0
129.904541 116.0
129.924484 232.0
129.939865 280.0
129.958405 164.0
129.984604 404.0
130.025436 332.0
130.052826 184.0
130.092239 584.0
130.123398 171084.0
130.193771 164.0
130.212418 140.0
130.256027 116.0
130.281677 296.0
130.321121 132.0
130.335892 196.0
130.366577 160.0
130.390137 168.0
130.445099 164.0
130.470978 160.0
130.496582 4144.0
130.540024 140.0
130.581757 116.0
130.609253 108.0
130.662079 84.0
130.704163 224.0
130.741302 76.0
130.775513 68.0
130.847992 96.0
130.883224 40.0
130.904114 112.0
130.921753 152.0
130.944717 88.0
130.964767 124.0
130.993576 148.0
131.032562 164.0
131.054794 280.0
131.087189 236.0
131.126099 25060.0
131.191025 44.0
131.215103 64.0
131.261246 100.0
131.301849 204.0
131.336838 72.0
131.365356 40.0
131.381836 128.0
131.428223 136.0
131.467163 60.0
131.526352 68.0
131.560059 84.0
131.585052 88.0
131.616257 84.0
131.680664 72.0
131.704391 144.0
131.788086 168.0
131.823257 84.0
131.851761 212.0
131.894104 268.0
131.912399 116.0
131.946808 112.0
131.980667 104.0
132.047119 136.0
132.050308 108.0
132.076828 176.0
132.099915 80.0
132.127563 1388.0
132.160416 108.0
132.179245 224.0
132.228653 128.0
132.29213 52.0
132.312744 76.0
132.328766 56.0
132.37706 160.0
132.408905 32.0
132.489075 60.0
132.642624 72.0
132.681595 124.0
132.906128 116.0
132.944046 104.0
132.997269 52.0
133.028702 156.0
133.076202 112.0
133.118561 140.0
133.132736 148.0
133.165009 132.0
133.188736 104.0
133.230087 80.0
133.25766 128.0
133.315094 40.0
133.338089 80.0
133.47142 92.0
133.526611 36.0
133.547302 144.0
133.591003 44.0
133.63472 60.0
133.703751 52.0
133.830368 40.0
133.924789 40.0
133.950119 60.0
133.996201 100.0
134.060715 156.0
134.1483 44.0
134.247437 32.0
134.413528 72.0
134.496613 108.0
134.642075 44.0
134.743698 44.0
134.923965 64.0
135.13443 36.0
135.901352 100.0
135.989532 128.0
136.105606 160.0
136.361145 36.0
136.616928 64.0
136.973083 68.0
137.077927 152.0
137.117554 56.0
137.192139 68.0
137.395035 60.0
138.049042 64.0
138.348526 40.0
138.47731 72.0
138.74913 64.0
138.85231 68.0
138.885147 132.0
138.929718 60.0
138.950836 60.0
138.983673 120.0
139.03215 128.0
139.157364 120.0
139.185547 56.0
139.294815 68.0
139.418106 64.0
139.451004 100.0
139.490967 116.0
139.577957 124.0
139.617935 48.0
139.697906 60.0
139.829666 36.0
139.890869 92.0
140.055695 276.0
140.082962 84.0
140.392731 44.0
140.446976 44.0
140.574371 48.0
140.600342 128.0
140.8936 180.0
140.9711 52.0
141.153122 80.0
141.250092 100.0
141.40625 96.0
141.504776 84.0
141.650131 44.0
141.714096 252.0
142.081589 56.0
142.121918 208.0
142.278564 40.0
143.003571 40.0
143.534836 208.0
143.71373 120.0
143.79248 92.0
143.878403 84.0
143.895126 176.0
143.952423 224.0
144.437592 40.0
144.566788 80.0
145.73938 112.0
145.883575 48.0
146.128876 144.0
146.234756 68.0
146.275681 68.0
146.444229 64.0
146.550232 96.0
147.020447 64.0
147.201492 160.0
147.728394 220.0
148.064835 68.0
148.823853 180.0
148.848129 236.0
149.178558 128.0
149.278244 72.0
149.300125 96.0
149.694366 80.0
149.743073 68.0
150.164719 176.0
151.085617 80.0
151.141891 48.0
151.663528 104.0
151.820435 48.0
152.063034 380.0
152.39975 92.0
153.039246 48.0
153.164841 232.0
153.216583 56.0
153.347183 148.0
153.428528 184.0
154.055359 144.0
154.547348 136.0
154.64386 40.0
155.072281 144.0
155.085159 168.0
155.31781 52.0
155.618103 152.0
157.036545 128.0
157.535767 208.0
157.820679 64.0
158.117096 2676.0
158.481476 44.0
158.626831 48.0
158.902695 48.0
159.008087 152.0
159.12027 328.0
159.943085 164.0
160.605774 68.0
160.921219 204.0
161.0298 60.0
161.191483 180.0
161.773209 104.0
161.958054 100.0
162.135406 144.0
162.23172 188.0
162.272293 96.0
162.728058 188.0
163.232086 104.0
163.338898 188.0
163.519547 92.0
164.2202 72.0
164.253372 132.0
164.625992 164.0
164.84314 88.0
165.069382 1900.0
165.492844 80.0
165.877121 204.0
166.046356 48.0
166.077209 1408.0
166.109848 180.0
166.161789 112.0
166.338852 120.0
166.377365 40.0
166.526306 68.0
166.834656 136.0
167.050659 96.0
167.083252 2848.0
167.169022 44.0
167.194748 48.0
167.306458 100.0
167.546478 188.0
167.954819 108.0
168.039948 100.0
168.090134 504.0
168.150909 96.0
168.184464 164.0
168.225754 208.0
168.432343 176.0
168.512421 108.0
168.708847 120.0
168.931244 204.0
169.088181 184.0
169.156372 80.0
169.283234 176.0
169.555252 52.0
169.879364 112.0
170.227158 132.0
170.442764 124.0
170.622101 96.0
171.085175 164.0
171.624496 104.0
171.914032 172.0
172.201218 56.0
172.86525 96.0
172.943771 152.0
173.069427 196.0
173.252762 108.0
173.462402 96.0
173.527939 48.0
173.624969 88.0
173.727264 280.0
173.77449 72.0
174.170883 108.0
174.678207 168.0
174.949265 112.0
175.065109 48.0
175.53418 48.0
175.790054 148.0
176.233658 116.0
176.386948 124.0
177.334534 148.0
177.443222 64.0
177.525421 200.0
177.74559 108.0
177.870331 88.0
177.928726 40.0
178.058838 108.0
178.085403 160.0
178.202286 204.0
178.271378 96.0
178.853821 48.0
179.005585 88.0
179.285294 104.0
179.327942 184.0
179.445221 44.0
180.307434 52.0
180.443756 160.0
180.984222 132.0
181.06189 272.0
181.230652 152.0
182.18309 220.0
182.312057 128.0
182.424942 44.0
182.825714 100.0
182.895691 140.0
182.919907 28.0
183.080414 9680.0
183.136642 188.0
183.156876 172.0
183.258057 64.0
183.283493 88.0
183.332001 124.0
183.363327 64.0
183.413574 120.0
183.439804 80.0
183.473343 100.0
183.550354 48.0
183.582703 80.0
183.620468 60.0
183.652832 52.0
183.721634 228.0
183.790421 48.0
183.8228 64.0
183.909164 44.0
184.084488 1484.0
184.852356 60.0
185.08136 404.0
185.2341 52.0
185.358734 120.0
185.393967 80.0
185.499664 68.0
185.532196 80.0
185.572861 108.0
185.616257 128.0
185.795258 96.0
185.833237 56.0
187.03714 48.0
187.235901 148.0
187.860077 100.0
187.947388 116.0
190.685898 72.0
191.084045 424.0
191.244232 52.0
191.706909 96.0
191.850235 104.0
192.575958 132.0
192.810806 44.0
193.101089 192.0
193.64357 196.0
194.074005 464.0
194.181244 116.0
195.078934 264.0
195.907394 72.0
197.03447 180.0
197.079178 108.0
197.157425 96.0
198.372162 120.0
198.475906 80.0
198.579666 116.0
199.514725 176.0
199.672195 76.0
199.987305 228.0
200.832596 76.0
202.293488 192.0
202.775009 108.0
203.773865 92.0
203.915955 96.0
204.103577 156.0
205.095001 136.0
205.271057 140.0
206.097076 264.0
207.137375 212.0
207.191803 120.0
207.747955 96.0
207.879944 132.0
208.187103 48.0
208.454269 144.0
209.127228 128.0
209.193436 44.0
209.844528 108.0
211.069427 304.0
211.28981 120.0
211.372498 140.0
212.293686 80.0
212.435806 36.0
212.554764 80.0
212.766632 112.0
212.79567 76.0
212.917633 32.0
212.981522 124.0
213.193619 120.0
213.792694 88.0
214.786209 48.0
217.442947 60.0
218.403717 48.0
218.695007 124.0
219.116119 100.0
219.328293 72.0
219.72049 128.0
220.982056 156.0
221.085617 28.0
221.695679 84.0
222.021774 76.0
222.680634 60.0
222.802429 164.0
224.069809 76.0
224.752579 144.0
225.789169 196.0
226.115265 204.0
226.187103 136.0
226.561432 204.0
226.702255 196.0
227.080002 184.0
227.322998 120.0
227.560135 148.0
227.731308 92.0
227.797379 144.0
227.86348 128.0
228.57608 48.0
229.044388 116.0
229.941238 72.0
230.508987 120.0
232.811264 156.0
232.859863 208.0
233.133286 192.0
234.141739 404.0
234.204224 60.0
234.336746 56.0
235.320358 56.0
235.702164 160.0
235.827469 284.0
236.090393 40.0
236.240265 148.0
236.335114 264.0
236.898438 188.0
237.195679 100.0
238.331207 96.0
238.589371 124.0
239.709732 168.0
240.033401 36.0
240.203033 120.0
242.422943 116.0
242.72673 144.0
242.763947 160.0
243.605057 184.0
244.989395 160.0
246.090317 204.0
246.56514 80.0
247.062302 192.0
248.026794 80.0
248.20549 64.0
248.707458 168.0
249.125336 204.0
249.508499 64.0
250.814911 52.0
251.057678 132.0
251.12706 140.0
252.7034 80.0
254.268799 228.0
254.376709 108.0
254.624374 120.0
254.789551 168.0
255.485779 48.0
256.017334 80.0
256.967224 40.0
257.149109 124.0
257.599335 72.0
257.739929 116.0
257.784637 116.0
261.98465 140.0
262.023315 188.0
262.087738 120.0
262.184418 60.0
262.287537 112.0
263.197327 184.0
263.416931 92.0
263.901703 120.0
265.070221 280.0
265.232269 40.0
266.189331 144.0
266.47757 76.0
267.734039 172.0
268.121704 136.0
269.13623 136.0
270.234436 124.0
271.210327 56.0
271.630035 144.0
271.954895 124.0
272.270081 44.0
273.124634 92.0
273.921204 132.0
274.13208 196.0
276.61908 68.0
277.613068 120.0
278.189209 136.0
278.479279 140.0
278.954437 148.0
279.955902 164.0
282.930969 56.0
284.721527 124.0
285.699646 136.0
285.729919 84.0
286.817627 112.0
287.536072 196.0
288.427734 96.0
288.650879 136.0
289.551056 144.0
289.622162 88.0
289.974548 184.0
290.194885 164.0
290.262695 112.0
290.510284 124.0
291.036346 136.0
291.579865 112.0
291.91983 64.0
291.994659 224.0
292.253174 120.0
292.30423 112.0
292.406311 72.0
292.682068 116.0
293.40097 156.0
293.677185 140.0
293.77951 124.0
294.60907 208.0
294.72522 80.0
295.176422 48.0
295.76828 124.0
297.13562 36.0
297.616119 148.0
297.801575 184.0
298.578308 68.0
300.134827 160.0
300.559113 168.0
301.702301 88.0
302.345673 112.0
302.401062 200.0
302.446045 124.0
302.930817 116.0
303.513092 144.0
305.339691 164.0
305.858887 128.0
306.373505 160.0
306.728943 44.0
307.890808 184.0
308.610657 156.0
309.625458 160.0
309.681488 224.0
311.063019 152.0
311.744415 52.0
312.852356 240.0
313.141083 128.0
313.863525 92.0
315.650238 120.0
316.035797 140.0
317.427856 160.0
319.278046 108.0
319.391846 92.0
320.274597 240.0
320.655853 172.0
320.930328 108.0
321.529633 160.0
322.17215 540.0
322.933716 116.0
323.091125 144.0
323.181122 176.0
323.209198 204.0
323.481171 40.0
324.190338 148.0
324.495026 84.0
324.885956 156.0
327.088776 200.0
329.913361 196.0
330.242401 144.0
331.487793 72.0
332.604828 132.0
333.011505 140.0
333.342102 160.0
333.901947 104.0
334.738953 156.0
335.310913 172.0
335.427551 108.0
336.109558 68.0
337.241669 48.0
337.479279 96.0
337.647491 208.0
337.687714 92.0
338.02063 128.0
338.415955 156.0
338.485535 128.0
338.536804 88.0
338.969055 144.0
339.020355 124.0
339.046021 108.0
339.119293 108.0
339.18161 152.0
339.234406 180.0
339.291595 76.0
339.412598 44.0
339.489594 136.0
339.515259 116.0
339.551941 160.0
339.704559 216.0
339.790375 80.0
339.819092 92.0
339.833618 76.0
339.843567 152.0
339.878418 140.0
339.933472 84.0
339.965515 136.0
340.023895 172.0
340.078674 176.0
340.132904 460.0
340.190918 50268.0
340.260132 100.0
340.333221 304.0
340.417175 156.0
340.447418 88.0
340.506409 60.0
340.5448 92.0
340.606079 48.0
340.634064 180.0
340.660034 72.0
340.693512 128.0
340.765442 120.0
340.801208 288.0
340.836792 112.0
340.882294 84.0
340.910278 44.0
340.961731 120.0
341.027893 76.0
341.119781 68.0
341.192902 7948.0
341.263153 144.0
341.343506 104.0
341.384521 44.0
341.436005 60.0
341.484131 92.0
341.524261 48.0
341.649323 80.0
341.687378 96.0
341.759705 88.0
341.78714 24.0
341.820282 104.0
341.903229 44.0
341.947388 108.0
342.006287 80.0
342.046753 52.0
342.195587 884.0
342.260284 152.0
342.297119 68.0
342.354889 140.0
342.551239 124.0
342.624939 52.0
342.740784 84.0
342.850677 104.0
342.866547 88.0
342.874847 180.0
343.092957 120.0
343.122467 40.0
343.194885 280.0
343.233063 92.0
343.266266 116.0
343.301392 84.0
343.384277 108.0
343.421143 60.0
343.489014 120.0
343.638153 136.0
343.69046 40.0
343.734741 48.0
343.882355 164.0
343.91925 116.0
343.962036 88.0
344.00415 28.0
344.092285 60.0
344.281097 172.0
344.310638 52.0
344.351257 40.0
344.532257 44.0
344.576599 76.0
344.611877 152.0
344.639404 40.0
344.776123 48.0
345.234528 120.0
345.312195 68.0
346.656067 76.0
347.030457 72.0
347.245514 44.0
347.330841 124.0
347.438416 44.0
347.668457 56.0
348.890503 108.0
349.831696 236.0
350.0737 68.0
350.591522 72.0
351.870941 44.0
351.997894 120.0
352.319092 112.0
352.419983 124.0
352.48349 84.0
352.524597 96.0
353.208801 76.0
353.556763 124.0
353.73642 96.0
353.934845 68.0
354.695343 52.0
355.700653 88.0
355.933411 48.0
356.008514 80.0
358.008179 120.0
358.114624 32.0
360.196747 104.0
360.975311 144.0
364.40564 140.0
373.323517 76.0
377.233154 76.0
384.992432 44.0
386.258759 52.0
388.695648 128.0
393.173981 100.0
399.903717 148.0
412.216125 48.0
414.668579 88.0
431.985687 84.0
443.348572 128.0
449.125397 68.0
456.847717 180.0
460.487915 68.0
462.608795 104.0
468.910095 116.0
469.587006 72.0
470.372284 88.0
471.616302 120.0
477.878357 76.0
478.082886 56.0
479.328308 48.0
496.615173 48.0
503.848846 64.0
504.648865 104.0
531.153015 108.0
531.71283 76.0
532.26825 56.0
533.021606 152.0
533.16864 96.0
533.338684 52.0
544.362244 52.0
546.277161 36.0
548.838684 64.0
555.310913 128.0
558.622437 120.0
558.815308 92.0
569.090698 92.0
571.781311 60.0
577.755371 60.0
584.04425 108.0
585.387024 96.0
592.070679 40.0
593.151184 260.0
601.117676 52.0
603.467163 196.0
616.958069 168.0
619.392761 116.0
626.8302 68.0
650.357788 120.0
655.382263 112.0
665.093933 48.0
673.068604 60.0
680.062683 36.0
681.75061 236.0
681.932495 184.0
691.681213 152.0
695.659912 60.0
696.983398 164.0
697.687683 84.0
702.685669 116.0
718.613403 148.0
741.397461 188.0
748.023804 72.0
759.186279 340.0
760.245056 152.0
762.661621 132.0
767.098267 192.0
767.627563 108.0
769.012268 152.0
769.139221 172.0
771.448242 192.0
771.752319 116.0
773.135254 200.0
779.529297 156.0
780.162903 168.0
782.293579 212.0
787.831177 216.0
790.789185 56.0
792.458008 64.0
792.570068 180.0
793.528503 168.0
793.713501 168.0
794.667053 144.0
796.2276 136.0
798.357544 152.0
798.576904 168.0
801.932556 164.0
804.216919 208.0
804.383484 116.0
811.724304 80.0
817.046326 160.0
820.873901 248.0
821.507019 136.0
821.797974 120.0
830.051819 132.0
831.336792 208.0
831.640991 208.0
832.766357 208.0
834.754822 200.0
835.738403 156.0
836.054932 172.0
837.839905 168.0
841.034546 116.0
841.317444 124.0
842.316467 168.0
844.570801 128.0
847.789856 140.0
848.033264 100.0
850.17334 48.0
850.811829 204.0
852.473022 184.0
852.769409 112.0
853.106506 120.0
853.304199 168.0
854.565735 176.0
855.742004 180.0
861.200317 144.0
864.995239 252.0
869.2854 212.0
869.408691 188.0
869.778442 184.0
870.95282 284.0
872.668762 64.0
872.886353 188.0
876.818848 44.0
878.481628 160.0
880.659729 164.0
881.114563 28.0
882.462097 200.0
882.639526 188.0
882.90564 52.0
886.647217 156.0
887.702454 32.0
889.680115 176.0
889.957275 180.0
890.034485 132.0
890.325439 176.0
891.477966 196.0
893.154541 176.0
894.13208 176.0
895.166199 176.0
898.223633 132.0
900.48584 172.0
901.501465 208.0
902.625305 172.0
907.037659 124.0
908.422852 140.0
908.530884 204.0
909.40094 192.0
909.677063 128.0
917.340942 152.0
917.871521 76.0
920.937256 176.0
928.072205 240.0
928.248047 172.0
931.36145 240.0
935.599915 160.0
937.238281 240.0
938.341492 144.0
939.390442 172.0
942.718018 36.0
946.498413 152.0
947.533508 136.0
949.237488 156.0
949.433716 68.0
950.341553 156.0
952.109497 100.0
954.5 168.0
955.022705 164.0
961.880798 128.0
965.557129 200.0
965.792175 140.0
967.772522 224.0
968.639526 32.0
970.008972 184.0
970.585571 148.0
970.976257 128.0
971.13678 176.0
972.409424 164.0
973.110901 132.0
974.526978 204.0
975.129761 144.0
975.521362 196.0
976.814819 204.0
976.945435 164.0
978.831299 184.0
981.161621 204.0
983.263733 120.0
984.499817 88.0
985.111938 160.0
987.568481 180.0
988.062683 196.0
988.700928 224.0
989.251709 172.0
990.842407 160.0
992.986206 48.0
994.925171 220.0
997.098511 180.0
998.85907 212.0
999.991638 144.0
1000.180481 148.0
1000.224548 172.0
1005.203796 172.0
1007.034302 180.0
1007.211182 144.0
1008.152527 84.0
1009.574951 72.0
1009.834229 152.0
1011.327454 104.0
1014.057312 172.0
1014.310852 184.0
1014.938477 188.0
1015.299927 120.0
1016.689331 228.0
1017.158997 48.0
1017.431946 208.0
1018.486084 144.0
1018.822754 180.0
1019.057861 60.0
1019.280212 156.0
1020.468811 136.0
1021.651794 172.0
1022.358032 188.0
1022.816284 172.0
1024.866943 192.0
1025.27478 164.0
1025.599854 156.0
1025.803833 168.0
1026.269165 176.0
1026.384033 176.0
1028.016968 156.0
1029.831421 212.0
1033.422852 68.0
1036.054199 232.0
1037.175659 128.0
1037.464111 260.0
1040.594971 124.0
1040.639893 120.0
1041.686646 48.0
1042.194214 172.0
1042.708252 216.0
1042.901123 136.0
1045.924316 96.0
1046.316895 132.0
1046.689697 140.0
1048.062378 164.0
1049.951172 228.0
1050.95752 164.0
1051.880371 100.0
1052.609863 104.0
1052.874634 68.0
1052.965088 260.0
1053.559326 144.0
1054.043945 124.0
1054.360596 136.0
1054.864746 156.0
1055.744141 56.0
1056.449097 196.0
1057.633301 148.0
1058.125244 128.0
1058.695068 156.0
1058.753418 220.0
1059.012451 156.0
1059.537109 216.0
1061.235229 140.0
1061.526978 108.0
1063.298096 136.0
1064.27832 184.0
1064.615967 248.0
1065.129028 192.0
1065.622803 204.0
1066.519531 160.0
1068.190674 220.0
1068.307861 112.0
1068.665649 180.0
1068.906372 120.0
1069.030029 224.0
1069.281006 172.0
1069.57019 120.0
1070.221191 136.0
1070.384033 88.0
1071.400146 172.0
1073.844482 144.0
1075.003296 176.0
1075.155884 252.0
1075.2146 224.0
1076.324341 152.0
1077.088501 108.0
1077.532715 212.0
1080.016846 144.0
1080.625244 144.0
1081.187988 132.0
1081.305786 204.0
1082.012695 124.0
1083.984253 188.0
1084.921509 152.0
1086.534912 84.0
1088.904541 212.0
1089.016235 204.0
1089.357788 168.0
1089.541748 216.0
1090.172485 132.0
1090.336792 204.0
1090.750854 124.0
1091.921265 192.0
1094.276978 228.0
1094.408691 200.0
1094.487671 192.0
1096.536499 64.0
1096.951782 120.0
1097.050659 176.0
1098.758667 156.0
1099.834351 172.0
1099.99939 188.0
1100.237061 224.0
1101.214355 132.0
1101.333252 160.0
1101.478516 184.0
1101.7229 40.0
1101.934326 140.0
1103.877686 220.0
1106.193359 72.0
1106.676636 64.0
1106.900513 148.0
1107.060669 140.0
1107.590576 244.0
1108.988647 228.0
1109.571899 176.0
1109.651489 212.0
1109.750977 236.0
1110.182007 40.0
1110.347778 88.0
1110.573242 248.0
1110.798828 160.0
1111.196899 132.0
1112.703491 176.0
1113.606567 144.0
1113.73938 208.0
1113.978516 156.0
1114.51001 188.0
1116.058716 200.0
1116.298096 56.0
1116.783569 156.0
1116.943237 140.0
1118.367188 188.0
1118.726685 52.0
1119.400146 136.0
1119.605591 172.0
1120.098389 172.0
1121.291138 172.0
1122.591064 140.0
1122.977905 224.0
1124.058716 92.0
1125.206665 132.0
1125.273438 204.0
1125.360229 164.0
1126.422119 220.0
1127.116943 176.0
1127.812012 144.0
1128.346802 224.0
1129.951904 212.0
1130.005493 168.0
1131.464478 68.0
1131.718872 72.0
1132.462158 148.0
1132.582764 164.0
1133.031616 160.0
1133.125366 156.0
1133.969727 188.0
1135.934326 96.0
1136.055054 240.0
1136.464355 152.0
1136.739502 312.0
1137.236084 140.0
1137.820068 184.0
1138.283447 176.0
1138.807251 212.0
1139.327515 208.0
1139.566284 160.0
1139.620117 248.0
1139.747803 100.0
1140.345825 152.0
1140.601318 204.0
1142.060425 256.0
1142.120972 192.0
1142.419312 192.0
1143.472534 160.0
1143.641602 108.0
1144.132935 172.0
1144.71875 160.0
1145.769531 64.0
1146.369141 216.0
1147.333008 176.0
1148.014038 192.0
1148.70874 104.0
1149.889526 260.0
1151.658813 200.0
1152.320557 196.0
1152.996338 116.0
1153.286865 144.0
1153.373291 184.0
1154.091431 44.0
1154.159058 156.0
1154.328003 236.0
1154.429443 88.0
1155.883911 160.0
1157.136108 152.0
1158.036743 92.0
1158.097656 96.0
1158.273804 64.0
1158.748047 212.0
1159.323608 204.0
1160.164429 136.0
1160.652588 92.0
1161.011963 160.0
1161.242554 200.0
1162.694458 100.0
1162.898071 88.0
1163.355713 216.0
1163.407227 128.0
1164.452881 188.0
1164.975952 40.0
1165.431152 84.0
1167.402344 204.0
1167.463623 192.0
1167.851318 172.0
1168.266235 144.0
1170.757446 216.0
1171.813232 120.0
1172.092529 108.0
1172.753662 56.0
1173.17627 176.0
1173.333008 160.0
1173.592163 144.0
1174.376343 80.0
1174.437744 148.0
1174.887939 56.0
1175.597656 168.0
1175.925171 148.0
1176.00708 156.0
1176.293823 204.0
1177.714111 120.0
1178.123901 184.0
1178.72522 184.0
1178.793457 144.0
1178.875488 156.0
1179.230835 204.0
1180.20166 104.0
1180.304199 196.0
1180.552124 176.0
1181.234375 148.0
1182.171631 108.0
1183.047729 172.0
1183.164185 144.0
1183.609131 188.0
1184.043457 204.0
1184.780396 188.0
1184.972168 140.0
1185.499878 92.0
1186.109863 160.0
1186.802246 176.0
1187.09021 140.0
1188.311157 112.0
1188.839478 144.0
1189.991699 224.0
1190.274292 120.0
1190.693115 200.0
1191.799072 180.0
1191.881592 144.0
1192.665039 168.0
1192.715942 176.0
1192.80249 148.0
1195.099487 172.0
1195.202759 44.0
1195.884033 132.0
1195.939087 68.0
1196.393433 176.0
1196.871216 176.0
1197.054443 152.0
1197.130127 100.0
1197.391846 164.0
1197.550293 164.0
1197.812012 176.0
1197.929077 140.0
1198.328735 144.0
1198.7146 96.0
1199.403809 152.0
1199.520996 168.0
1200.416016 212.0
1200.694336 252.0
1201.555298 152.0
1201.679565 152.0
1202.203979 144.0
1202.625 160.0
1203.460205 136.0
1203.543091 104.0
1203.632935 236.0
1204.164673 120.0
1204.309692 216.0
1204.876099 168.0
1205.095703 216.0
1205.435791 200.0
1205.497925 144.0
1206.057739 156.0
1206.652344 140.0
1207.552856 144.0
1207.758789 64.0
1207.814087 128.0
1208.907227 108.0
1208.969482 204.0
1209.177124 164.0
1210.305542 172.0
1211.053467 148.0
1211.136597 72.0
1211.870972 200.0
1212.390625 152.0
1212.674805 180.0
1213.208496 148.0
1213.354248 148.0
1213.661011 220.0
1213.825562 184.0
1214.075195 184.0
1214.921509 156.0
1215.379395 192.0
1216.1427 156.0
1216.718872 180.0
1217.461914 148.0
1217.593872 36.0
1218.302368 156.0
1218.406494 112.0
1219.03186 108.0
1219.344604 92.0
1219.706055 168.0
1219.872925 120.0
1220.074463 188.0
1220.429077 180.0
1220.881104 36.0
1222.161011 172.0
1222.933472 200.0
1223.051758 192.0
1223.438965 124.0
1224.876099 180.0
1224.931885 124.0
1225.092041 172.0
1225.349854 164.0
1226.144287 172.0
1227.001587 144.0
1227.175903 196.0
1227.301392 116.0
1227.991821 232.0
1228.180176 116.0
1228.591675 104.0
1229.303345 228.0
1229.617432 108.0
1229.791992 116.0
1229.847778 144.0
1230.113037 184.0
1230.182861 152.0
1230.636597 128.0
1230.832153 180.0
1231.083496 368.0
1231.216187 168.0
1231.293091 176.0
1231.600342 180.0
1231.879761 232.0
1232.962769 208.0
1233.228394 208.0
1233.375122 116.0
1233.486938 172.0
1234.263062 176.0
1234.402832 164.0
1235.01001 132.0
1235.158203 212.0
1235.766846 148.0
1237.068604 180.0
1237.593628 184.0
1239.162598 184.0
1240.094604 160.0
1240.739502 56.0
1241.286377 172.0
1241.482788 132.0
1241.654175 72.0
1241.945679 156.0
1242.457764 172.0
1242.54895 156.0
1242.853882 164.0
1243.237061 168.0
1243.343384 164.0
1243.650635 108.0
1243.727905 216.0
1243.980591 132.0
1245.441162 160.0
1246.776001 184.0
1248.104614 144.0
1248.983765 112.0
1249.408569 220.0
1250.421143 196.0
1251.29895 220.0
1251.425781 192.0
1251.658081 164.0
1251.967896 252.0
1252.460938 128.0
1252.883667 120.0
1253.447266 88.0
1253.722168 144.0
1254.038574 204.0
1255.371704 196.0
1255.449341 152.0
1256.055908 124.0
1256.796631 132.0
1256.965942 192.0
1257.036499 160.0
1257.121216 176.0
1257.19043 248.0
1257.410522 188.0
1258.25 192.0
1258.532959 96.0
1258.631836 168.0
1258.709473 172.0
1258.942383 184.0
1259.027344 168.0
1259.408691 140.0
1260.199951 136.0
1260.614014 164.0
1261.281128 196.0
1262.058838 168.0
1262.235596 72.0
1262.412354 176.0
1263.091309 168.0
1263.268188 56.0
1263.416138 148.0
1263.820068 156.0
1264.025269 176.0
1264.138672 176.0
1265.219116 260.0
1265.299316 128.0
1265.540039 124.0
1265.894043 184.0
1266.85022 140.0
1266.963623 104.0
1267.402832 236.0
1267.473755 156.0
1267.927246 136.0
1268.07605 132.0
1268.370361 184.0
1268.855835 112.0
1269.983398 92.0
1270.139404 112.0
1270.522461 228.0
1270.770752 192.0
1270.855957 180.0
1271.72168 116.0
1272.431519 156.0
1273.489624 96.0
1273.972656 176.0
1274.185791 104.0
1274.469971 156.0
1274.761353 160.0
1274.839478 36.0
1275.173584 36.0
1275.841675 152.0
1275.974854 188.0
1276.346558 240.0
1276.567017 192.0
1276.652344 64.0
1277.825928 116.0
1277.989624 228.0
1278.914795 164.0
1279.27063 140.0
1279.640869 164.0
1280.281738 156.0
1280.374268 84.0
1280.822998 132.0
1281.229126 196.0
1281.799072 152.0
1281.856079 136.0
1282.126831 104.0
1283.730835 156.0
1284.301392 180.0
1284.993408 128.0
1285.235962 148.0
1285.463257 156.0
1285.914551 152.0
1286.006714 176.0
1286.235107 148.0
1286.689819 220.0
1287.091919 184.0
1288.656128 160.0
1288.756104 180.0
1288.836792 204.0
1289.327759 140.0
1289.560669 144.0
1290.693237 180.0
1291.179443 184.0
1291.465576 164.0
1292.116577 232.0
1292.495728 160.0
1292.595947 48.0
1292.953735 240.0
1293.719604 140.0
1293.827026 184.0
1293.891479 32.0
1293.977295 144.0
1294.235107 128.0
1294.292358 140.0
1294.722046 128.0
1295.502808 176.0
1295.732056 164.0
1297.903809 156.0
1298.53479 156.0
1299.244995 136.0
1299.338257 176.0
1299.567871 144.0
1299.73291 200.0
1300.515137 64.0
1300.888428 136.0
1301.469971 156.0
1302.227905 176.0
1302.920776 188.0
1303.179443 180.0
1303.366211 44.0
1305.785522 44.0
1306.198853 160.0
1307.508301 204.0
1308.127319 104.0
1308.192139 136.0
1308.804077 84.0
1309.203735 184.0
1309.495483 184.0
1309.783569 108.0
1310.143677 120.0
1310.338257 152.0
1311.203003 132.0
1311.534546 140.0
1312.140015 116.0
1312.262573 176.0
1313.142334 164.0
1313.503052 136.0
1313.668945 148.0
1313.849243 224.0
1313.921387 156.0
1313.99353 140.0
1314.700684 124.0
1315.010986 76.0
1315.278076 164.0
1315.595703 152.0
1315.870117 164.0
1316.166138 176.0
1316.238281 164.0
1316.483887 84.0
1316.693237 172.0
1316.794434 80.0
1317.921265 132.0
1318.015259 112.0
1318.427124 100.0
1318.521118 68.0
1319.286011 212.0
1319.598145 52.0
1319.822266 68.0
1320.017578 216.0
1320.162231 92.0
1321.160278 192.0
1322.021362 104.0
1322.267456 200.0
1322.404907 168.0
1322.774048 176.0
1323.63562 112.0
1324.765503 152.0
1325.171265 164.0
1325.250977 208.0
1325.427368 204.0
1326.779419 188.0
1327.244263 312.0
1327.541504 136.0
1328.041992 204.0
1328.157959 164.0
1328.440918 96.0
1328.557007 148.0
1328.6875 148.0
1329.456665 112.0
1330.211548 96.0
1330.364014 128.0
1331.053711 180.0
1331.286133 108.0
1331.453125 184.0
1331.547485 200.0
1331.634644 184.0
1332.077759 212.0
1332.520874 156.0
1332.680786 152.0
1332.811523 176.0
1332.956909 184.0
1333.233032 176.0
1333.400146 168.0
1333.494629 60.0
1334.06897 168.0
1334.207031 156.0
1334.279785 132.0
1334.352417 48.0
1334.425171 152.0
1334.890503 156.0
1335.057739 176.0
1335.389648 272.0
1335.595947 228.0
1335.705078 200.0
1336.105225 104.0
1337.167603 184.0
1337.546021 184.0
1337.626099 176.0
1337.720825 160.0
1337.888184 52.0
1338.026489 160.0
1338.077515 188.0
1338.164917 72.0
1338.390625 96.0
1338.936768 180.0
1339.388306 124.0
1340.304321 212.0
1340.430176 200.0
1341.384888 172.0
1341.683838 136.0
1341.74939 112.0
1342.033691 152.0
1342.493164 124.0
1342.806763 96.0
1343.222534 208.0
1343.638306 164.0
1344.025024 148.0
1344.426392 140.0
1344.490601 188.0
1344.565063 236.0
1345.229248 156.0
1345.557739 168.0
1345.645386 152.0
1346.141846 176.0
1346.812622 180.0
1346.981812 64.0
1347.047607 96.0
1347.274048 180.0
1347.573608 160.0
1347.69043 276.0
1347.851196 428.0
1348.011963 200.0
1348.728149 216.0
1348.867065 156.0
1349.305664 212.0
1349.386108 72.0
1349.817505 76.0
1350.110107 196.0
1350.222656 152.0
1350.600098 156.0
1351.04248 160.0
1351.137451 236.0
1351.375488 92.0
1352.041382 64.0
1352.143921 124.0
1352.255127 168.0
1352.480591 192.0
1352.766113 132.0
1353.168701 200.0
1354.368774 156.0
1354.757935 116.0
1355.109619 172.0
1355.879028 124.0
1356.223511 180.0
1356.494751 164.0
1356.795288 124.0
1356.905273 112.0
1357.125244 148.0
1357.631226 208.0
1357.939209 148.0
1358.239868 160.0
1358.980835 120.0
1359.20105 124.0
1359.421143 68.0
1359.79541 164.0
1360.250488 60.0
1360.507446 164.0
1361.06543 120.0
1361.124146 224.0
1361.513428 48.0
1361.609375 212.0
1361.730347 352.0
1361.836548 128.0
1362.093628 148.0
1362.321411 160.0
1362.431519 184.0
1362.59314 228.0
1362.644653 176.0
1363.239746 160.0
1363.915894 140.0
1364.634399 232.0
1364.910645 172.0
1365.055542 212.0
1365.261475 184.0
1365.842407 180.0
1365.945435 44.0
1366.041016 188.0
1366.355957 172.0
1366.526611 108.0
1367.019653 260.0
1367.453857 160.0
1367.998535 112.0
1368.26355 180.0
1368.396118 192.0
1369.346069 168.0
1369.724609 240.0
1369.891113 116.0
1370.001587 112.0
1371.158447 220.0
1371.482788 144.0
1371.696533 148.0
1372.13147 188.0
1372.207642 188.0
1372.293701 172.0
1372.779663 168.0
1373.163818 200.0
1374.115356 228.0
1374.181641 144.0
1374.351562 52.0
1374.735229 152.0
1375.214966 232.0
1375.93103 140.0
1376.233643 196.0
1376.469971 200.0
1376.854004 240.0
1377.393188 200.0
1377.644287 192.0
1377.799438 184.0
1378.043335 156.0
1378.264893 128.0
1379.166504 196.0
1379.240479 100.0
1379.366089 188.0
1379.876221 144.0
1379.97229 184.0
1380.171997 196.0
1380.297729 204.0
1380.726562 32.0
1381.377441 188.0
1381.540283 208.0
1381.784424 124.0
1382.161743 140.0
1382.309692 128.0
1382.776001 128.0
1382.97583 68.0
1383.286743 188.0
1383.353271 156.0
1383.649414 176.0
1384.015991 220.0
1384.56189 120.0
1384.893555 36.0
1385.418823 188.0
1385.952881 260.0
1386.330078 196.0
1386.634644 44.0
1387.401245 156.0
1387.862793 168.0
1387.939331 76.0
1388.250854 144.0
1388.365479 168.0
1388.925781 176.0
1389.133423 152.0
1389.244751 88.0
1389.436279 108.0
1390.060913 156.0
1390.409668 172.0
1390.85498 180.0
1390.997803 180.0
1391.092529 176.0
1391.233521 196.0
1391.463745 136.0
1391.723633 132.0
1391.983521 116.0
1393.14209 44.0
1393.468994 192.0
1393.565674 132.0
1393.810791 180.0
1393.900024 148.0
1394.41272 176.0
1394.576294 124.0
1395.47583 176.0
1396.83667 152.0
1396.985474 180.0
1397.097046 112.0
1397.504272 164.0
1398.823608 140.0
1399.01709 204.0
1399.402344 184.0
1399.724365 224.0
1399.903198 152.0
1400.506348 128.0
1400.655396 160.0
1401.535889 196.0
1401.584961 160.0
1402.488403 172.0
1402.615845 220.0
1403.443848 200.0
1403.875122 56.0
1404.352417 212.0
1405.284912 196.0
1405.501343 156.0
1405.904297 144.0
1405.986328 120.0
1406.27002 212.0
1406.508789 148.0
1406.721924 160.0
1406.994019 120.0
1407.128418 176.0
1407.47937 156.0
1407.658569 168.0
1407.912476 252.0
1409.174927 132.0
1410.024536 144.0
1410.564941 36.0
1410.714478 116.0
1411.110718 168.0
1411.200439 184.0
1411.30127 192.0
1411.593384 252.0
1411.649048 112.0
1412.441772 60.0
1412.651245 84.0
1412.935547 212.0
1413.332031 52.0
1413.713745 160.0
1414.087891 124.0
1414.417236 188.0
1414.75415 216.0
1415.016113 176.0
1415.37146 164.0
1415.630127 188.0
1416.319214 176.0
1416.50647 164.0
1417.279297 200.0
1417.377197 144.0
1418.252319 120.0
1418.807129 196.0
1418.919556 188.0
1419.721802 260.0
1419.91687 228.0
1420.621948 216.0
1420.719482 172.0
1421.244629 224.0
1421.46228 208.0
1421.589844 144.0
1421.814941 48.0
1423.766846 172.0
1424.007202 180.0
1424.1875 160.0
1424.442871 180.0
1424.998779 120.0
1425.472168 188.0
1425.697632 180.0
1425.787842 144.0
1425.983276 148.0
1426.418335 148.0
1426.48645 172.0
1426.65979 228.0
1426.712402 176.0
1426.892822 172.0
1428.050903 268.0
1428.133545 128.0
1428.223877 132.0
1428.539795 84.0
1428.735352 188.0
1429.073975 152.0
1429.322266 144.0
1429.502808 132.0
1429.88208 112.0
1430.078735 176.0
1430.315674 128.0
1430.526489 88.0
1430.601685 240.0
1430.737061 200.0
1431.13623 32.0
1431.482666 156.0
1432.032471 236.0
1432.763062 148.0
1432.86853 168.0
1432.921265 124.0
1433.222656 200.0
1433.524048 136.0
1434.149658 228.0
1434.564941 176.0
1434.828125 188.0
1434.911011 204.0
1434.993896 132.0
1435.250366 180.0
1435.431274 152.0
1435.521729 44.0
1435.687622 200.0
1435.793213 144.0
1435.891357 180.0
1436.137451 196.0
1436.268433 204.0
1436.668213 176.0
1436.909058 164.0
1437.022827 120.0
1437.30957 208.0
1437.407593 132.0
1437.520874 136.0
1438.230225 116.0
1438.645386 76.0
1438.954956 148.0
1439.189087 64.0
1439.652222 168.0
1439.906494 224.0
1439.99707 152.0
1440.59375 148.0
1440.805298 176.0
1441.213257 120.0
1441.636475 156.0
1442.116455 176.0
1442.354492 144.0
1442.483032 96.0
1442.906372 124.0
1443.102905 152.0
1443.300293 164.0
1443.473389 188.0
1444.380981 196.0
1444.751709 136.0
1445.447754 140.0
1445.841309 164.0
1446.075928 164.0
1446.530029 172.0
1446.590576 208.0
1446.810181 140.0
1446.953979 220.0
1447.589966 204.0
1447.96106 136.0
1449.483765 164.0
1449.771729 164.0
1450.256836 92.0
1450.800781 84.0
1451.257446 168.0
1451.598755 168.0
1451.977905 172.0
1452.129517 240.0
1452.440552 208.0
1453.032227 44.0
1453.510254 128.0
1453.722778 180.0
1454.307129 156.0
1455.066284 184.0
1455.445923 168.0
1455.772461 204.0
1455.952148 192.0
1456.250977 184.0
1456.402832 172.0
1456.953247 136.0
1457.147217 232.0
1457.200439 56.0
1457.610718 172.0
1457.701904 192.0
1457.907104 48.0
1458.38855 188.0
1458.712769 144.0
1458.933228 52.0
1459.298096 184.0
1461.100708 168.0
1461.153931 132.0
1461.245239 80.0
1462.368408 72.0
1462.439941 124.0
1462.896729 76.0
1463.079346 180.0
1463.163086 176.0
1463.322998 64.0
1463.429565 148.0
1463.601318 208.0
1463.703735 300.0
1463.787476 212.0
1464.130127 108.0
1464.846191 176.0
1465.265137 308.0
1465.501343 152.0
1465.714722 176.0
1465.947021 360.0
1466.088135 292.0
1467.544067 176.0
1467.772827 228.0
1467.94812 140.0
1468.006958 180.0
1468.446777 180.0
1469.138062 156.0
1469.588135 52.0
1469.65686 124.0
1470.152832 152.0
1470.328369 188.0
1470.480957 160.0
1470.946533 88.0
1471.114502 156.0
1471.679443 156.0
1471.73291 84.0
1471.824585 172.0
1471.954346 40.0
1472.168213 164.0
1472.22168 44.0
1472.290405 148.0
1472.740234 188.0
1473.436157 224.0
1473.672607 148.0
1473.802856 204.0
1474.055054 116.0
1474.219604 156.0
1474.74292 208.0
1475.216797 204.0
1475.706055 164.0
1475.914307 184.0
1476.417236 128.0
1476.715454 84.0
1476.86853 92.0
1477.074951 164.0
1477.557007 176.0
1477.702271 196.0
1478.299194 180.0
1478.551758 164.0
1478.81189 140.0
1478.964966 120.0
1479.026245 132.0
1479.255859 192.0
1480.006104 196.0
1480.075073 80.0
1480.373657 120.0
1480.511597 196.0
1480.715454 180.0
1480.84375 196.0
1481.491943 228.0
1481.95166 204.0
1482.350098 28.0
1482.457397 200.0
1482.718018 220.0
1482.909546 212.0
1483.078247 96.0
1483.499756 168.0
1484.090088 140.0
1484.358521 128.0
1484.741943 156.0
1484.841675 136.0
1484.895264 232.0
1485.025757 156.0
1485.217407 116.0
1485.30188 192.0
1485.976929 124.0
1486.429688 132.0
1486.529419 184.0
1486.659912 184.0
1487.05896 168.0
1487.212402 56.0
1487.405396 148.0
1487.511841 52.0
1487.719116 192.0
1487.811157 156.0
1487.957031 116.0
1488.12207 176.0
1488.340942 228.0
1488.448486 168.0
1488.540649 236.0
1488.88623 180.0
1489.147339 172.0
1489.763306 204.0
1490.138306 140.0
1490.322632 212.0
1490.591553 144.0
1490.683838 160.0
1491.160278 28.0
1491.321655 148.0
1491.467773 160.0
1491.852051 188.0
1491.990479 140.0
1492.513306 128.0
1492.754761 160.0
1493.497681 180.0
1493.559204 176.0
1493.782349 120.0
1493.943848 176.0
1494.013062 88.0
1494.082275 184.0
1494.236206 180.0
1495.167236 136.0
1495.259644 80.0
1496.884033 104.0
1497.708008 176.0
1497.931396 200.0
1498.224121 152.0
1498.355103 184.0
1498.858765 164.0
1499.279785 144.0
1499.680542 68.0
1499.75769 84.0
1499.904053 192.0
1500.081421 136.0
1500.343506 152.0
1501.6698 176.0
1502.217407 144.0
1502.302368 188.0
1502.433472 80.0
1502.518311 84.0
1502.572388 228.0
1502.672607 156.0
1502.803833 216.0
1502.992676 112.0
1503.220459 292.0
1503.599243 188.0
1503.865356 224.0
1504.038574 168.0
1504.583008 196.0
1504.856812 96.0
1505.235229 116.0
