>compound MLS001146891-01!113-52-0
>formula C19H24N2
>ionization [M+H]+
>parentmass 281.2012252200905
#inchi InChI=1S/C19H24N2/c1-20(2)14-7-15-21-18-10-5-3-8-16(18)12-13-17-9-4-6-11-19(17)21/h3-6,8-11H,7,12-15H2,1-2H3
#inchikey BCGWQEUPMDMJNV
#origInchi InChI=1S/C19H24N2.ClH/c1-20(2)14-7-15-21-18-10-5-3-8-16(18)12-13-17-9-4-6-11-19(17)21;/h3-6,8-11H,7,12-15H2,1-2H3;1H
#Ion_Source LC-ESI
#Instrument qTof
#Compound_Source NIH Pharmacologically Active Library
#PI Dorrestein
#Data_Collector VP/LMS
#Scan -1
#Precursor_MZ 281.204
#ExactMass 280.194
#Charge 1
#CAS_Number N/A
#Pubmed_ID N/A
#Smiles CN(C)CCCN1c2ccccc2CCc3ccccc13.Cl
#INCHI_AUX N/A
#Library_Class 1
#SpectrumID CCMSLIB00000085117
#IonMode Positive
#UpdateWorkflowName UPDATE-SINGLE-ANNOTATED-GOLD
#LibraryQualityString Gold
#TaskID d252d724072548979f1f6f1ced849daf
##Scan# 1781
#SpectrumFile p3-F02_GF2_01_18283.mzXML
#LibraryName Pharm_Active_Library.mgf
#MQScore -1
#Organism Pharm_Active_Library
#TIC_Query 0
#RT_Query -1
#MZErrorPPM -1
#SharedPeaks 0
#MassDiff 0
#LibMZ -1
#SpecMZ 281.204
#SpecCharge 0
#internalFilename spec-00000.mgf

>collision 10
45.003654 124.0
45.641716 188.0
45.719742 124.0
45.965019 156.0
46.085201 148.0
46.120342 136.0
46.137917 64.0
46.684387 124.0
46.947235 188.0
46.988159 160.0
47.429897 180.0
47.553352 120.0
47.641239 196.0
47.703083 184.0
47.759464 192.0
47.808994 148.0
47.935696 48.0
47.954994 156.0
48.068085 180.0
48.242123 188.0
48.279457 228.0
48.653599 188.0
49.089134 168.0
49.156097 132.0
49.368446 168.0
49.476192 120.0
49.666782 52.0
49.693439 176.0
50.015278 176.0
50.161785 152.0
50.557285 172.0
50.572853 64.0
50.717339 120.0
50.821781 224.0
50.847836 156.0
51.023983 164.0
51.038204 120.0
51.176231 184.0
51.294304 160.0
51.368641 196.0
51.397175 48.0
51.449986 196.0
51.469978 88.0
51.485687 104.0
51.704433 172.0
51.859123 180.0
52.121765 268.0
52.238228 112.0
52.385071 192.0
52.475868 148.0
52.991882 88.0
53.799103 44.0
53.91304 156.0
54.019779 148.0
54.106129 216.0
54.406685 160.0
54.613895 116.0
54.864243 136.0
54.924706 68.0
55.076752 120.0
55.99641 136.0
56.006836 156.0
56.281258 180.0
56.572815 232.0
56.662678 208.0
56.694145 148.0
56.785606 168.0
56.847118 160.0
56.93269 128.0
56.943207 192.0
57.180767 156.0
57.394695 136.0
57.409775 192.0
57.486717 132.0
57.958534 148.0
58.028259 196.0
58.041908 160.0
58.347107 136.0
58.386646 136.0
58.461193 104.0
58.47337 208.0
58.717148 128.0
58.811752 144.0
58.866714 60.0
59.016472 84.0
59.120495 108.0
59.563622 104.0
59.743488 148.0
59.880489 224.0
59.943657 192.0
59.962151 176.0
60.011482 48.0
60.175037 172.0
60.235271 132.0
60.490433 56.0
60.504368 176.0
60.603497 240.0
60.677895 188.0
60.770958 132.0
60.885834 192.0
60.912239 140.0
61.416599 152.0
61.564877 196.0
61.616428 156.0
61.721153 188.0
61.999813 156.0
62.101727 240.0
62.393818 168.0
62.688175 248.0
62.754379 92.0
62.938999 196.0
63.051163 132.0
63.437393 140.0
63.530964 164.0
63.721485 136.0
63.88047 132.0
64.235725 188.0
64.465652 176.0
64.579163 164.0
64.595161 176.0
64.697586 204.0
64.732811 104.0
64.909088 76.0
65.003738 100.0
65.077576 116.0
65.112907 184.0
65.824753 124.0
65.879669 144.0
65.924911 48.0
66.086617 160.0
66.25177 220.0
66.396034 160.0
66.475533 156.0
66.605423 168.0
67.118103 176.0
67.637657 168.0
67.945755 152.0
68.026169 128.0
68.147713 108.0
68.70092 176.0
68.894081 112.0
69.013077 160.0
69.069313 224.0
69.239799 100.0
69.307724 164.0
69.408836 132.0
69.521645 244.0
69.835663 124.0
70.360603 140.0
70.46917 112.0
70.582832 108.0
71.055191 176.0
71.118958 236.0
71.219711 148.0
71.345749 176.0
71.376015 188.0
71.668907 136.0
71.796249 156.0
72.001244 48.0
72.170242 124.0
72.25312 232.0
72.266655 140.0
72.44104 192.0
72.537636 148.0
72.783653 184.0
73.217308 168.0
73.386017 36.0
73.551506 124.0
73.684715 84.0
73.886459 44.0
74.038811 124.0
74.235901 108.0
74.295937 40.0
74.40921 144.0
74.648056 116.0
74.997566 132.0
75.320251 196.0
75.370354 128.0
75.828972 168.0
75.882706 76.0
75.931267 156.0
76.091766 212.0
76.315056 112.0
76.372444 40.0
76.657982 184.0
76.800949 136.0
76.931831 184.0
77.386414 68.0
77.775612 144.0
77.880966 148.0
78.065514 144.0
78.784683 188.0
78.873039 104.0
78.901329 180.0
79.076462 208.0
79.170296 156.0
79.544426 172.0
79.997742 140.0
80.256088 172.0
80.436287 160.0
81.162682 164.0
81.437263 196.0
81.832909 308.0
81.861725 48.0
81.906746 124.0
81.957199 124.0
82.112236 140.0
82.460701 220.0
82.502281 232.0
82.697647 168.0
83.007454 60.0
83.021965 160.0
83.592407 128.0
83.97683 188.0
84.022438 176.0
84.068054 160.0
84.664047 112.0
84.871132 160.0
84.990356 124.0
85.177628 164.0
85.333847 204.0
85.729614 172.0
85.864204 136.0
85.964828 196.0
86.094818 196.0
86.207596 84.0
86.246758 228.0
86.681351 160.0
86.816681 220.0
86.948402 156.0
87.044945 128.0
87.126671 92.0
87.210297 168.0
87.245613 204.0
87.323715 172.0
87.584305 132.0
87.604797 188.0
87.692383 188.0
87.89753 160.0
88.089844 188.0
88.119736 40.0
88.207573 144.0
88.241226 128.0
88.35157 160.0
88.703651 68.0
88.810539 48.0
89.013229 256.0
89.406143 132.0
89.483322 152.0
89.541702 188.0
89.794258 224.0
89.82444 204.0
89.886703 44.0
89.998077 216.0
90.01696 192.0
90.468704 232.0
90.705666 56.0
90.944679 60.0
91.057854 184.0
91.269547 164.0
91.459801 184.0
91.692177 240.0
91.82946 96.0
91.894318 172.0
91.915306 204.0
92.057106 244.0
92.674446 128.0
92.847252 168.0
93.033104 144.0
93.058556 156.0
93.400154 72.0
93.735161 148.0
93.78334 208.0
93.966545 172.0
94.007072 160.0
94.086212 84.0
94.18663 96.0
94.298698 120.0
95.075363 152.0
95.090889 48.0
95.364754 208.0
95.909775 184.0
96.5326 144.0
97.228088 148.0
97.308571 176.0
97.432304 148.0
97.514839 112.0
97.770523 128.0
97.790207 180.0
97.896523 216.0
97.965462 152.0
98.200035 152.0
98.529709 156.0
98.69574 204.0
99.028214 172.0
99.059914 156.0
99.08963 192.0
99.190704 184.0
99.345383 132.0
99.457924 180.0
99.526001 60.0
99.609413 164.0
100.001144 132.0
100.475418 52.0
100.551247 72.0
100.667046 236.0
101.046837 104.0
101.327141 224.0
101.605827 244.0
101.752342 164.0
101.77845 248.0
101.81813 84.0
101.911018 132.0
102.690117 128.0
102.780899 180.0
102.82328 136.0
103.049454 176.0
103.160614 224.0
103.178802 164.0
103.330498 156.0
103.611923 148.0
103.753792 88.0
103.79232 176.0
103.999252 160.0
104.047974 208.0
104.289719 72.0
104.32428 164.0
104.450363 176.0
104.576523 184.0
104.767937 140.0
104.851959 156.0
104.949341 72.0
104.969727 52.0
105.01664 128.0
105.068092 528.0
105.196205 176.0
105.527184 176.0
105.586487 48.0
105.82592 44.0
105.948807 184.0
106.06456 116.0
106.09227 240.0
106.330215 52.0
106.535561 148.0
106.685585 72.0
106.755493 148.0
107.200165 156.0
107.945412 164.0
108.098495 124.0
108.158516 108.0
108.222694 164.0
108.496185 188.0
108.713989 164.0
109.168953 108.0
109.483208 132.0
110.472603 44.0
110.583511 64.0
110.64212 72.0
110.723793 156.0
110.903984 136.0
111.004616 124.0
111.040421 168.0
111.235413 64.0
111.371902 128.0
111.718765 164.0
111.903976 144.0
111.955383 180.0
112.293839 204.0
112.367668 192.0
112.673813 192.0
112.764679 116.0
113.100998 112.0
113.297943 296.0
113.489792 108.0
113.635048 184.0
114.076805 40.0
115.052834 540.0
115.155037 168.0
115.738876 128.0
116.057137 136.0
116.110085 240.0
116.139648 160.0
116.191132 144.0
116.427254 144.0
116.495987 216.0
116.547554 208.0
116.971252 212.0
117.054359 332.0
117.221092 128.0
117.389244 172.0
117.717262 120.0
117.974388 140.0
118.068787 268.0
118.320541 80.0
118.452644 44.0
118.52198 140.0
118.734428 156.0
118.827705 128.0
118.916679 180.0
119.088211 48.0
119.362053 176.0
119.400368 136.0
119.435997 136.0
119.477333 104.0
120.074196 172.0
120.185455 172.0
120.281479 164.0
120.355713 216.0
120.408127 84.0
120.889099 160.0
120.937248 100.0
121.029198 260.0
121.39077 92.0
122.02317 140.0
122.602104 168.0
123.111725 68.0
123.339302 144.0
123.525055 36.0
123.593643 196.0
123.688812 140.0
123.715378 124.0
123.967888 172.0
124.100891 176.0
124.391525 172.0
124.471458 48.0
124.558075 124.0
124.820335 180.0
124.882607 168.0
125.038353 152.0
125.495033 240.0
126.086609 160.0
126.209564 148.0
126.525047 172.0
126.728867 92.0
126.818748 168.0
127.05397 176.0
127.534538 80.0
127.687431 148.0
128.13765 200.0
129.05542 236.0
129.585953 204.0
130.064316 504.0
130.150742 76.0
130.223419 212.0
131.063782 124.0
131.195084 124.0
131.468811 188.0
131.587509 64.0
131.747375 188.0
131.786224 104.0
131.834213 132.0
132.174942 152.0
132.277939 108.0
132.330597 156.0
132.754517 144.0
132.823334 148.0
132.90593 180.0
133.041336 132.0
133.086395 224.0
133.18602 60.0
133.367538 168.0
133.829956 160.0
133.855286 32.0
134.200928 48.0
135.057739 156.0
135.360931 248.0
136.370132 28.0
136.76091 192.0
136.921555 56.0
137.284348 60.0
137.58847 132.0
137.903839 196.0
137.941238 112.0
138.233597 136.0
138.268707 156.0
138.598907 132.0
138.66687 132.0
138.995193 60.0
139.248749 140.0
139.400894 176.0
139.629501 176.0
139.65303 184.0
139.805954 88.0
139.951904 204.0
140.046112 160.0
140.18512 172.0
140.328903 152.0
140.489288 92.0
141.100967 44.0
141.153 156.0
141.223938 200.0
141.552917 172.0
141.642914 148.0
141.770218 204.0
142.067261 164.0
142.729919 200.0
142.863113 144.0
142.944992 116.0
142.982101 108.0
143.082077 172.0
143.124924 84.0
143.317871 200.0
143.572952 192.0
143.818695 168.0
144.081711 600.0
144.437592 76.0
144.478256 196.0
144.813385 100.0
144.957825 128.0
145.082306 160.0
145.278427 136.0
145.312027 156.0
145.876404 164.0
146.047134 132.0
146.165024 188.0
146.19632 232.0
146.52861 172.0
146.622589 172.0
146.668396 164.0
146.805817 140.0
147.068802 132.0
147.138809 188.0
147.315109 128.0
147.382767 296.0
147.479431 204.0
147.769638 92.0
148.05043 184.0
148.132782 124.0
148.205475 184.0
148.639526 176.0
148.765732 36.0
148.86528 152.0
148.964874 180.0
149.110657 76.0
149.207901 128.0
149.246796 152.0
149.334351 144.0
149.689682 160.0
149.991791 192.0
150.181992 132.0
150.831528 144.0
150.91954 108.0
150.941544 68.0
150.958664 172.0
151.061386 76.0
151.413864 152.0
151.438354 124.0
151.749588 216.0
152.014511 132.0
152.063889 172.0
152.39267 112.0
152.446732 196.0
152.70668 196.0
153.069839 184.0
153.261246 188.0
153.455978 124.0
154.08783 152.0
154.40918 252.0
154.961227 72.0
155.090088 164.0
155.390167 192.0
155.47702 196.0
155.678101 196.0
156.033432 76.0
156.075714 168.0
156.105545 76.0
156.735352 188.0
156.874924 156.0
157.022049 120.0
157.082626 148.0
157.301514 160.0
157.768677 112.0
158.058807 172.0
158.094833 304.0
158.594772 104.0
158.963455 252.0
159.099106 196.0
159.684494 40.0
159.767502 148.0
159.873184 112.0
160.049393 136.0
160.293228 216.0
160.452545 64.0
160.618988 176.0
160.747665 92.0
160.90921 96.0
161.280563 44.0
161.403595 212.0
161.659943 116.0
161.923248 104.0
162.440338 68.0
162.496155 256.0
162.678894 148.0
162.696655 60.0
162.983673 156.0
163.034485 136.0
163.056442 520.0
163.227692 168.0
163.591537 160.0
163.683197 84.0
163.701019 76.0
164.022049 188.0
164.063477 176.0
164.552704 164.0
164.912903 56.0
164.953796 136.0
165.067535 1596.0
165.08931 192.0
165.143021 172.0
165.501312 160.0
165.583267 100.0
165.847168 148.0
166.077225 876.0
166.139511 132.0
166.167725 120.0
166.537399 116.0
166.617035 108.0
166.7995 124.0
166.830353 260.0
167.073563 1420.0
167.53035 144.0
167.566422 140.0
167.880905 160.0
168.074631 296.0
168.154373 140.0
168.206009 196.0
168.412582 56.0
168.660645 108.0
168.727859 148.0
168.774399 228.0
168.808014 172.0
168.942505 192.0
168.960617 196.0
169.02272 60.0
169.219437 116.0
169.315247 112.0
169.382599 176.0
169.569153 216.0
169.628784 132.0
169.924423 192.0
170.095718 124.0
170.139847 112.0
170.342407 148.0
170.43335 152.0
170.493118 104.0
170.919601 100.0
171.591614 60.0
171.623993 144.0
172.215317 136.0
172.986725 120.0
173.005051 192.0
173.041702 156.0
173.104553 212.0
173.138596 136.0
173.44635 128.0
173.602463 160.0
173.699509 124.0
173.801834 52.0
173.82283 208.0
174.582031 56.0
174.882477 164.0
174.989899 156.0
175.939056 132.0
176.123901 136.0
176.192596 144.0
176.229584 140.0
176.488617 152.0
176.72403 36.0
177.062881 216.0
177.192673 92.0
177.403687 104.0
177.574417 160.0
177.802582 208.0
177.993729 240.0
178.014969 92.0
178.074203 900.0
178.248734 160.0
178.732712 160.0
178.786331 188.0
178.905716 156.0
179.078308 356.0
179.164047 56.0
179.243973 180.0
179.398575 264.0
179.483887 164.0
179.571899 128.0
180.077866 1948.0
180.183197 68.0
180.439789 108.0
180.784851 128.0
180.814285 124.0
180.934738 204.0
181.033813 228.0
181.055252 148.0
181.090057 460.0
181.19722 96.0
181.353638 108.0
181.669067 184.0
181.902542 104.0
181.996506 64.0
182.036789 192.0
182.058273 88.0
182.08934 324.0
182.894455 56.0
183.169128 76.0
183.204147 184.0
183.62735 72.0
183.843185 48.0
183.934952 188.0
184.107758 156.0
184.28064 36.0
185.138153 108.0
186.285507 192.0
186.388748 136.0
187.526337 184.0
187.94632 192.0
188.050034 168.0
188.276642 64.0
188.353119 184.0
188.437805 120.0
188.486984 184.0
189.16803 44.0
189.500198 112.0
189.532288 160.0
189.847549 212.0
189.95726 240.0
190.073669 344.0
190.270111 116.0
190.349747 160.0
190.440384 72.0
190.45961 180.0
190.899353 192.0
190.924103 224.0
190.957108 180.0
191.001129 188.0
191.079742 560.0
191.119431 92.0
191.38092 76.0
191.522186 148.0
191.868607 84.0
191.932022 164.0
191.962357 180.0
191.992691 68.0
192.078384 2644.0
192.111298 172.0
192.185013 200.0
192.224426 144.0
192.252014 216.0
192.356903 176.0
192.403839 220.0
192.533463 144.0
192.663437 156.0
192.693832 172.0
192.746475 240.0
192.898346 224.0
192.947128 124.0
193.004074 248.0
193.038101 244.0
193.087585 63900.0
193.148392 108.0
193.157394 136.0
193.184479 192.0
193.222122 52.0
193.241287 88.0
193.282791 104.0
193.317505 88.0
193.351974 120.0
193.373032 184.0
193.40152 120.0
193.432236 40.0
193.453888 88.0
193.518066 160.0
193.539719 44.0
193.559601 112.0
193.588913 160.0
193.631195 100.0
193.659302 52.0
193.731323 64.0
193.77565 60.0
193.819992 56.0
193.880554 56.0
193.906296 84.0
193.940918 88.0
193.96965 36.0
193.989059 300.0
194.054535 136.0
194.090408 9520.0
194.144608 120.0
194.171509 40.0
194.219223 32.0
194.241409 48.0
194.28302 40.0
194.333908 80.0
194.402008 104.0
194.421768 140.0
194.494354 220.0
194.563324 68.0
194.616074 60.0
194.663284 40.0
194.699783 84.0
194.72438 64.0
194.789886 88.0
194.860504 36.0
194.882736 84.0
194.971664 48.0
195.016129 48.0
195.0979 1720.0
195.182938 80.0
195.213531 188.0
195.26358 104.0
195.294174 72.0
195.347031 84.0
195.36998 208.0
195.401138 196.0
195.455536 88.0
195.4841 92.0
195.507355 84.0
195.516846 88.0
195.56041 112.0
195.593674 180.0
195.614182 104.0
195.740845 244.0
195.859238 32.0
195.914948 52.0
195.953949 52.0
196.04126 192.0
196.109879 304.0
196.296814 148.0
196.374893 172.0
196.397217 68.0
196.517181 120.0
196.684616 148.0
197.111938 80.0
197.444611 40.0
197.75238 176.0
197.867157 72.0
197.917557 48.0
198.113617 48.0
198.180862 52.0
198.556503 184.0
199.587143 164.0
199.986633 132.0
200.561249 228.0
200.707855 204.0
200.765732 192.0
201.325867 124.0
203.171417 60.0
203.460907 128.0
203.546082 104.0
204.082016 184.0
204.302139 164.0
204.712021 64.0
204.925659 192.0
205.136551 196.0
205.210678 128.0
205.564392 168.0
205.815598 68.0
205.912689 196.0
206.025085 68.0
206.094498 1852.0
206.19841 88.0
206.355637 40.0
206.389938 76.0
206.68457 140.0
206.821945 100.0
206.882065 100.0
207.101776 2596.0
207.138321 156.0
207.175812 160.0
207.348969 80.0
207.393997 208.0
207.446426 180.0
207.562454 128.0
207.704514 124.0
207.77623 172.0
207.856567 48.0
207.876663 168.0
207.90889 172.0
207.965622 184.0
208.048492 152.0
208.056656 204.0
208.110611 40704.0
208.181961 92.0
208.204819 180.0
208.262329 76.0
208.307343 52.0
208.341812 56.0
208.373413 96.0
208.399277 64.0
208.433212 128.0
208.472595 60.0
208.534348 80.0
208.580338 148.0
208.635361 56.0
208.695328 132.0
208.755722 68.0
208.876526 44.0
208.908295 168.0
208.948441 128.0
208.977219 232.0
209.042267 92.0
209.112885 6192.0
209.184433 52.0
209.259293 48.0
209.299591 112.0
209.319748 60.0
209.429199 72.0
209.538666 28.0
209.59053 68.0
209.630875 60.0
209.659698 40.0
209.832642 52.0
209.855713 32.0
209.939346 60.0
210.057602 40.0
210.117355 320.0
210.37793 88.0
210.441437 72.0
210.549683 108.0
210.577164 44.0
210.63205 180.0
210.678268 104.0
210.728836 64.0
210.822754 88.0
210.874771 56.0
211.301132 164.0
211.383774 32.0
211.447449 60.0
211.496658 56.0
211.54007 140.0
211.684845 64.0
211.736969 124.0
211.826767 56.0
211.945557 144.0
212.168732 32.0
212.238312 88.0
212.670593 148.0
212.725739 72.0
212.83316 108.0
215.840363 48.0
216.932465 80.0
218.097855 144.0
218.130188 60.0
218.253662 96.0
218.497787 92.0
218.662582 40.0
218.965836 68.0
219.101349 224.0
219.233948 108.0
220.056946 104.0
220.108688 2240.0
220.160873 124.0
220.316849 40.0
220.384811 76.0
220.819382 92.0
220.922913 172.0
221.116058 1520.0
221.3965 40.0
222.115723 300.0
222.576782 80.0
223.013504 56.0
223.096741 92.0
223.123489 68.0
223.382233 40.0
223.533966 84.0
224.699036 52.0
225.07811 132.0
226.106491 176.0
227.794632 48.0
230.566757 164.0
231.201874 132.0
232.113724 236.0
232.156174 68.0
232.820816 84.0
234.124741 448.0
235.122452 172.0
235.366684 116.0
235.53772 56.0
235.79744 212.0
236.093994 148.0
236.141907 3592.0
236.198807 120.0
236.277527 64.0
236.598999 56.0
236.892883 40.0
237.145432 528.0
237.174805 240.0
237.659363 48.0
238.148102 524.0
238.353333 40.0
238.540817 104.0
240.876678 116.0
241.130051 132.0
241.25679 48.0
244.258682 56.0
249.148087 236.0
268.071259 128.0
274.559265 56.0
281.194061 236.0
282.106842 32.0
282.200439 100.0
282.280701 144.0
284.196747 112.0
287.545197 132.0
288.136139 120.0
294.471649 56.0
298.281952 60.0
300.041138 112.0
301.238678 88.0
301.318146 100.0
301.573853 136.0
311.210236 124.0
311.814453 72.0
323.359619 40.0
324.233521 144.0
346.09021 56.0
357.509766 76.0
399.130676 84.0
399.810944 88.0
400.559509 32.0
402.757446 52.0
413.258514 68.0
421.729706 80.0
447.907471 36.0
460.240906 116.0
465.542358 132.0
465.662598 68.0
466.251221 36.0
467.756653 52.0
483.644653 96.0
501.913818 68.0
514.287476 108.0
518.457581 80.0
577.563904 112.0
579.042908 56.0
580.432739 40.0
583.847168 80.0
595.903259 120.0
597.828857 60.0
598.349731 68.0
610.72113 36.0
646.057739 208.0
691.318481 108.0
718.543335 92.0
760.920898 124.0
766.454285 104.0
784.540039 208.0
799.92926 48.0
821.697937 116.0
824.913269 132.0
860.048279 76.0
886.747009 164.0
897.286743 176.0
934.176453 76.0
969.440552 112.0
972.603699 172.0
1002.015869 152.0
1015.036926 44.0
1018.025879 228.0
1029.955322 188.0
1034.393188 60.0
1056.233887 136.0
1076.989502 144.0
1082.457153 136.0
1096.733887 156.0
1118.407471 100.0
1123.952393 136.0
1131.53894 40.0
1136.532471 172.0
1145.588867 96.0
1152.490967 164.0
1155.993774 192.0
1157.977417 152.0
1166.234985 248.0
1174.064941 148.0
1190.373169 76.0
1194.393921 180.0
1208.177246 176.0
1212.373413 140.0
1215.667603 120.0
1217.347656 104.0
1223.619629 132.0
1235.183594 196.0
1242.714966 168.0
1244.006348 20.0
1247.694702 184.0
1258.340576 132.0
1269.010376 228.0
1272.962769 68.0
1286.791138 208.0
1289.005493 164.0
1300.18457 76.0
1309.25769 180.0
1314.809082 88.0
1325.961548 96.0
1334.585938 160.0
1336.935547 148.0
1353.463013 140.0
1355.931885 156.0
1377.727905 124.0
1385.496094 96.0
1386.452026 60.0
1386.703979 280.0
1389.195435 160.0
1392.23877 112.0
1393.746826 172.0
1401.507812 124.0
1410.262817 96.0
1417.326782 252.0
1420.723267 268.0
1426.235229 184.0
1427.573608 136.0
1430.583374 140.0
1439.080322 80.0
1440.348999 100.0
1456.043335 136.0
1464.904907 152.0
1481.344849 168.0
1481.513306 28.0
1493.896484 220.0
1498.354126 96.0
1499.294189 152.0
1499.810547 180.0
1500.288574 176.0
1504.94104 200.0
