>compound Rizatriptan Benzoate (Maxalt)
>formula C15H19N5
>ionization [M+H]+
>parentmass 270.171509
#inchi InChI=1S/C15H19N5/c1-19(2)6-5-13-8-17-15-4-3-12(7-14(13)15)9-20-11-16-10-18-20/h3-4,7-8,10-11,17H,5-6,9H2,1-2H3
#inchikey ULFRLSNUDGIQQP
#origInchi InChI=1S/C15H19N5.C7H6O2/c1-19(2)6-5-13-8-17-15-4-3-12(7-14(13)15)9-20-11-16-10-18-20;8-7(9)6-4-2-1-3-5-6/h3-4,7-8,10-11,17H,5-6,9H2,1-2H3;1-5H,(H,8,9)
#Ion_Source LC-ESI
#Instrument qTof
#Compound_Source Commercial
#PI Dorrestein
#Data_Collector Garg_Neha
#Scan -1
#Precursor_MZ 270.171
#ExactMass 269.164
#Charge 1
#CAS_Number 145202-66-0
#Pubmed_ID N/A
#Smiles C1(=CC(=CC2=C1NC=C2CCN(C)C)CN3C=NC=N3).C4=CC(=CC=C4)C(O)=O
#INCHI_AUX N/A
#Library_Class 1
#SpectrumID CCMSLIB00000078198
#IonMode Positive
#UpdateWorkflowName UPDATE-SINGLE-ANNOTATED-GOLD
#LibraryQualityString Gold
#TaskID 77f51c88eb8b467eb4a01dd2d0cb90d2
##Scan# 1015
#SpectrumFile Plate3_41_60_GG11_01_16500.mzXML
#LibraryName FDALibrary_2_04302014.mgf
#MQScore -1
#Organism FDALibrary_2_04302014
#TIC_Query 0
#RT_Query -1
#MZErrorPPM -1
#SharedPeaks 0
#MassDiff 0
#LibMZ -1
#SpecMZ 270.171
#SpecCharge 0
#internalFilename spec-00000.mgf

>collision 10
44.943722 164.0
45.275238 152.0
46.4492 236.0
46.517048 252.0
46.891094 228.0
47.283058 164.0
48.023602 204.0
48.226566 144.0
48.364883 156.0
50.416737 196.0
50.575142 204.0
50.894112 200.0
51.459366 176.0
51.51506 188.0
51.562214 176.0
51.746742 176.0
51.957417 156.0
52.243301 184.0
52.276394 156.0
52.979553 144.0
53.221756 168.0
53.343334 152.0
53.66116 164.0
53.773479 156.0
54.040901 164.0
54.08773 216.0
54.11092 176.0
54.288448 216.0
54.458691 160.0
54.718971 192.0
54.81324 200.0
54.892838 200.0
55.07584 220.0
55.383499 180.0
56.014786 176.0
56.348953 200.0
56.360909 156.0
57.01125 224.0
58.043793 172.0
58.083221 164.0
58.265388 176.0
58.278034 160.0
58.540691 140.0
58.809013 192.0
59.903839 192.0
60.255573 172.0
60.352943 188.0
60.591293 256.0
60.684284 140.0
60.935539 176.0
61.001312 172.0
61.348129 172.0
61.541584 204.0
61.586872 164.0
61.625927 196.0
62.172421 212.0
62.681923 228.0
62.904305 152.0
63.25523 148.0
63.624592 268.0
64.234077 144.0
64.731125 172.0
65.776161 140.0
66.175812 168.0
66.340714 152.0
66.405571 156.0
66.743355 196.0
67.287544 160.0
67.639015 172.0
67.851974 172.0
67.874931 148.0
68.126038 168.0
68.560661 136.0
68.608215 144.0
68.745117 220.0
68.768219 148.0
69.019325 156.0
69.110298 156.0
69.328873 172.0
69.580994 160.0
69.790337 144.0
70.089951 156.0
70.58403 188.0
70.826698 148.0
70.875282 160.0
71.051323 244.0
71.271271 176.0
71.291435 200.0
71.399025 204.0
71.774551 184.0
72.426888 196.0
72.862854 168.0
73.029442 192.0
73.528641 148.0
73.832741 176.0
74.12204 144.0
75.134743 144.0
75.667046 148.0
77.072395 192.0
77.103851 144.0
77.138809 192.0
77.392479 244.0
78.555931 200.0
78.72184 200.0
79.410271 152.0
79.571747 140.0
79.719177 152.0
80.401237 156.0
80.769295 160.0
80.801491 240.0
80.874863 148.0
81.364235 200.0
81.723694 212.0
82.230064 140.0
82.66198 140.0
82.91188 152.0
82.939072 180.0
82.99527 228.0
83.09626 176.0
84.084923 212.0
84.132385 148.0
84.811035 160.0
84.965065 144.0
85.027458 200.0
85.260696 160.0
85.455612 168.0
85.532898 232.0
85.604706 184.0
86.509407 168.0
86.698326 192.0
86.766907 224.0
87.112083 188.0
87.31282 144.0
87.452362 196.0
87.491447 148.0
87.513794 164.0
87.628525 200.0
87.819412 184.0
87.98735 256.0
88.857613 200.0
88.953323 184.0
89.148651 184.0
90.000076 172.0
90.068062 180.0
90.340271 160.0
91.357079 148.0
91.484581 144.0
92.412102 140.0
92.558441 200.0
92.977386 208.0
93.113693 252.0
93.496269 140.0
93.769753 140.0
95.026031 144.0
95.185837 224.0
95.292664 176.0
95.492889 156.0
95.673851 152.0
96.110428 196.0
96.526482 168.0
96.724075 156.0
96.769104 140.0
97.601028 188.0
98.160248 184.0
98.258865 156.0
98.903084 204.0
98.930794 160.0
99.779884 180.0
100.638596 148.0
101.500992 172.0
101.928543 196.0
102.002899 208.0
102.157738 152.0
102.84285 156.0
103.339973 176.0
103.356155 164.0
103.982338 172.0
104.134613 152.0
104.634842 168.0
105.332275 212.0
105.636848 212.0
106.220657 200.0
106.456688 140.0
106.510086 160.0
106.904831 180.0
106.975632 160.0
107.153976 160.0
107.248764 180.0
107.496246 208.0
108.132286 192.0
108.227982 220.0
108.275612 152.0
109.561363 144.0
109.584282 200.0
109.740601 144.0
110.760422 152.0
110.90081 192.0
111.1147 228.0
111.806015 148.0
111.97654 320.0
112.00679 144.0
112.046051 140.0
112.30323 160.0
112.42981 160.0
112.590256 164.0
112.75293 144.0
113.744171 144.0
113.871567 256.0
114.115936 156.0
115.041069 212.0
115.373802 148.0
115.435814 216.0
115.737518 188.0
115.874596 264.0
116.301338 156.0
116.703056 156.0
116.90741 196.0
117.006424 160.0
117.052544 312.0
117.071884 268.0
117.258446 156.0
117.304695 184.0
117.726593 208.0
117.834595 240.0
117.942642 164.0
118.174034 144.0
118.208656 156.0
118.644005 172.0
119.578033 248.0
119.852417 164.0
120.316978 152.0
120.382477 144.0
120.957489 208.0
121.248787 196.0
121.628227 204.0
121.753372 148.0
121.98188 164.0
122.116005 220.0
122.462196 124.0
122.54747 196.0
122.664268 252.0
124.685074 204.0
124.780663 256.0
125.145538 172.0
125.437386 228.0
125.475281 164.0
125.852341 208.0
126.435776 200.0
126.511871 180.0
126.722397 164.0
126.8591 208.0
126.948784 152.0
126.97345 156.0
127.213539 220.0
128.051331 400.0
128.503082 152.0
128.832687 220.0
129.047394 232.0
129.069931 248.0
129.765106 144.0
129.932938 188.0
130.065186 552.0
130.709991 216.0
131.084396 476.0
131.242157 164.0
131.377563 156.0
132.997665 160.0
133.167572 156.0
133.572113 248.0
133.799927 152.0
134.378403 212.0
134.500717 168.0
134.553818 172.0
135.013626 164.0
135.757004 188.0
135.889221 172.0
135.96579 144.0
136.014542 160.0
136.051682 200.0
136.239792 204.0
137.707275 152.0
139.21785 184.0
139.300049 160.0
139.897354 200.0
139.93364 212.0
140.052765 148.0
140.359131 140.0
140.772079 172.0
140.994141 180.0
141.072449 180.0
141.247131 140.0
141.49324 164.0
141.528748 152.0
141.971863 180.0
142.06691 200.0
142.090469 156.0
142.235229 232.0
142.618652 188.0
143.074539 2380.0
143.179138 168.0
144.079895 1088.0
145.082703 132.0
145.179413 204.0
145.279816 168.0
145.611404 140.0
145.633011 216.0
146.07048 236.0
146.217255 184.0
146.320755 144.0
146.638718 152.0
146.94014 148.0
146.981155 168.0
147.014938 156.0
147.536667 156.0
148.24826 164.0
148.459167 272.0
148.726044 148.0
149.012589 144.0
149.131668 184.0
149.163269 172.0
149.301849 156.0
149.391846 200.0
149.564621 172.0
149.742355 164.0
149.88121 148.0
150.168869 184.0
150.293289 168.0
150.708374 176.0
151.50351 236.0
151.868744 168.0
152.654633 212.0
152.706284 224.0
153.13945 188.0
153.849609 196.0
154.063812 484.0
154.581207 164.0
154.61586 216.0
154.804001 148.0
155.071564 284.0
155.160797 172.0
155.304626 160.0
155.629715 160.0
155.81102 148.0
156.080917 8872.0
156.159698 208.0
156.210068 168.0
156.317352 168.0
156.600983 112.0
156.675629 156.0
156.966187 180.0
157.084991 1776.0
157.122406 204.0
157.205383 164.0
157.93541 204.0
158.011169 180.0
158.034958 200.0
158.052475 272.0
158.097092 29076.0
158.189713 120.0
158.336517 112.0
158.8638 236.0
159.06279 132.0
159.100113 3708.0
159.171921 120.0
159.322327 172.0
159.4198 216.0
159.564896 140.0
160.070633 196.0
160.108658 184.0
160.284348 124.0
160.368683 208.0
160.45108 164.0
160.725998 152.0
161.253799 212.0
161.430222 152.0
161.595169 192.0
162.514893 160.0
162.83728 256.0
163.073563 164.0
163.159988 160.0
163.516113 140.0
164.300919 164.0
165.545685 188.0
166.381561 168.0
166.671783 216.0
166.707764 144.0
166.923691 148.0
168.057037 220.0
168.077682 180.0
168.266098 232.0
168.568298 156.0
168.645828 180.0
169.10881 212.0
169.194229 160.0
169.922485 160.0
170.097549 928.0
170.176834 148.0
170.514526 152.0
171.091278 168.0
171.65477 220.0
172.112427 1048.0
172.571259 176.0
173.091965 144.0
173.12117 604.0
173.48233 176.0
173.634415 148.0
174.729767 192.0
175.258972 204.0
177.253937 152.0
177.550842 180.0
177.858612 140.0
179.073715 172.0
179.172272 140.0
180.00444 152.0
180.116608 160.0
180.381134 140.0
180.621796 200.0
181.489502 148.0
181.510941 188.0
181.822128 144.0
181.897278 180.0
182.066437 208.0
182.789551 188.0
183.605804 144.0
183.654343 160.0
184.110458 208.0
185.121857 168.0
185.395035 196.0
186.110626 112.0
186.739334 160.0
186.807343 220.0
187.019577 188.0
187.098526 200.0
188.077148 140.0
188.363846 184.0
188.70546 212.0
188.869537 204.0
190.269836 232.0
191.336533 192.0
191.37233 212.0
191.416382 172.0
191.923386 160.0
192.732117 144.0
193.083191 244.0
193.166168 204.0
194.396317 140.0
195.124039 152.0
196.198669 168.0
197.505539 192.0
198.199814 180.0
198.269882 172.0
198.415634 192.0
199.117142 168.0
199.614548 148.0
199.72142 168.0
199.743912 140.0
200.085556 120.0
200.129471 144.0
200.176407 156.0
200.260376 124.0
200.492844 192.0
200.539215 140.0
200.593246 216.0
200.70047 164.0
200.721985 212.0
200.788864 240.0
200.944977 160.0
200.982254 304.0
201.011948 156.0
201.039841 160.0
201.139954 101272.0
201.215683 128.0
201.39003 148.0
201.418884 112.0
201.465408 208.0
201.52919 152.0
201.606155 120.0
201.784744 188.0
201.871368 208.0
201.971298 104.0
202.029877 112.0
202.086594 128.0
202.142654 8856.0
202.193481 156.0
202.456253 164.0
202.577026 100.0
203.143784 608.0
203.252075 168.0
203.416733 164.0
203.452271 168.0
203.702805 112.0
203.807663 108.0
204.133392 148.0
204.66835 140.0
204.719009 96.0
209.088272 152.0
212.04277 144.0
217.001282 184.0
219.23819 228.0
225.113525 2920.0
226.113373 460.0
228.243378 192.0
229.20961 144.0
230.582687 148.0
231.018097 160.0
232.008362 188.0
232.102356 156.0
240.497253 160.0
240.907944 160.0
241.145859 144.0
244.050552 180.0
245.879089 140.0
249.720184 164.0
251.200607 176.0
252.17392 160.0
253.152481 160.0
253.495972 216.0
259.738556 216.0
265.109985 164.0
267.572083 192.0
268.751923 152.0
269.042389 212.0
270.124054 140.0
270.171509 7448.0
271.075226 100.0
271.17395 812.0
271.209503 236.0
272.048157 1024.0
272.172363 260.0
273.053955 420.0
273.289917 152.0
308.880402 152.0
713.484924 148.0
1231.334351 264.0
1243.348022 204.0
1244.337769 156.0
1347.826782 168.0
1384.942261 148.0
1407.946411 164.0
1428.739136 156.0
1448.259888 160.0
1466.053101 164.0
1467.600586 148.0
1472.224731 180.0
1483.832397 172.0
1484.161987 260.0
1522.203857 216.0
1529.27063 156.0
1530.999023 184.0
1555.08667 220.0
1556.542358 188.0
1565.479858 208.0
1587.662476 204.0
1618.165283 268.0
1619.190186 160.0
1648.255127 184.0
1677.733643 164.0
1678.279785 204.0
1689.174316 152.0
1696.454224 172.0
1716.103149 200.0
1727.458618 228.0
1735.873413 140.0
1744.009399 176.0
1765.703613 192.0
1784.671997 168.0
1791.194214 176.0
1796.040894 184.0
1798.133423 140.0
1799.205322 176.0
1805.246582 200.0
1809.392578 156.0
1823.210205 192.0
1825.973267 200.0
1833.030518 188.0
1837.805542 208.0
1840.366089 172.0
1841.715332 240.0
1851.251343 156.0
1851.979248 184.0
1857.765259 168.0
1863.989868 164.0
1868.151245 164.0
1869.519287 156.0
1890.212402 236.0
1894.506836 172.0
1902.033691 212.0
1911.706909 168.0
1916.557129 168.0
1919.477173 196.0
1921.03833 204.0
1927.901001 188.0
1931.713135 208.0
1933.375488 216.0
1936.465942 168.0
1936.579834 140.0
1946.515991 184.0
1947.815918 252.0
1952.254272 148.0
1955.597412 144.0
1955.975952 248.0
1965.167603 152.0
1969.025146 256.0
1970.765259 168.0
1975.636719 160.0
1978.521729 152.0
1980.655884 172.0
1981.736694 220.0
1986.142578 140.0
1987.384521 172.0
1992.978271 208.0
1996.009277 168.0
2001.107666 184.0
