>compound Piplartine
>formula C17H19NO5
>ionization [M+H]+
>parentmass 318.1335991600905
#inchi InChI=1S/C17H19NO5/c1-21-13-10-12(11-14(22-2)17(13)23-3)7-8-16(20)18-9-5-4-6-15(18)19/h4,6-8,10-11H,5,9H2,1-3H3/b8-7+
#inchikey VABYUUZNAVQNPG
#Ion_Source DI-ESI
#Instrument qTof
#Compound_Source Commercial
#PI Norberto Lopes
#Data_Collector Denise Silva
#Scan -1
#Precursor_MZ 318.14
#ExactMass 317.126
#Charge 1
#CAS_Number 20069-09-4
#Pubmed_ID  
#Smiles O=C(N1CCC=CC1=O)/C=C/C2=CC(OC)=C(OC)C(OC)=C2
#INCHI_AUX  
#Library_Class 3
#SpectrumID CCMSLIB00000078864
#IonMode Positive
#UpdateWorkflowName UPDATE-SINGLE-ANNOTATED-BRONZE
#LibraryQualityString Bronze
#TaskID e86c4fa48deb4e1b9b31495a1b0ed265
##Scan# 1
#SpectrumFile piplartine_pos_MSMS_318.mgf
#LibraryName gnps_library.mgf
#MQScore -1
#Organism gnps_library
#TIC_Query 0
#RT_Query -1
#MZErrorPPM -1
#SharedPeaks 0
#MassDiff 0
#LibMZ -1
#SpecMZ 318.14
#SpecCharge 0
#internalFilename spec-00000.mgf

>collision 10
118.038887 2574.0
119.046501 6599.0
120.051491 1119.0
121.062187 1647.0
130.038406 10153.0
131.044235 6169.0
132.054047 8670.0
133.059937 7225.0
134.066559 1924.0
135.039948 15843.0
144.052719 1736.0
145.047531 1895.0
146.033325 3912.0
147.040421 53565.0
148.047394 10518.0
149.055603 9905.0
150.064667 8539.0
151.067245 968.0
157.033218 1658.0
158.030884 2211.0
159.038422 3674.0
160.048264 17253.0
161.055847 23946.0
162.061478 101615.0
163.033493 65541.0
164.039169 4451.0
165.085205 3916.0
167.066971 2929.0
172.046204 1143.0
173.020523 1195.0
174.026367 11317.0
175.034393 46587.0
176.043304 35269.0
177.050125 22374.0
178.058533 102735.0
179.061523 7580.0
188.040573 11744.0
189.050476 28940.0
190.057617 398097.0
191.043106 82407.0
192.035049 9523.0
193.081284 292385.0
194.084946 22889.0
205.044235 4736.0
206.053513 159056.0
207.056366 13568.0
221.077393 881655.0
222.080917 86063.0
256.256409 1474.0
