>compound MLS001076292-01!11BETA,17ALPHA,21-TRIHYDROXY-4-PREGNENE-3,20-DIONE 21-CAPRYLATE
>formula C29H44O6
>ionization [M+H]+
>parentmass 489.320801
#inchi InChI=1S/C29H44O6/c1-4-5-6-7-8-9-25(33)35-18-24(32)29(34)15-13-22-21-11-10-19-16-20(30)12-14-27(19,2)26(21)23(31)17-28(22,29)3/h16,21-23,26,31,34H,4-15,17-18H2,1-3H3/t21-,22-,23-,26+,27-,28-,29-/m0/s1
#inchikey VWVPRYMOFYIOOZ
#Ion_Source LC-ESI
#Instrument qTof
#Compound_Source NIH Pharmacologically Active Library
#PI Dorrestein
#Data_Collector VP/LMS
#Scan -1
#Precursor_MZ 489.327
#ExactMass 488.314
#Charge 1
#CAS_Number N/A
#Pubmed_ID N/A
#Smiles CCCCCCCC(=O)OCC(=O)[C@@]1(O)CC[C@H]2[C@@H]3CCC4=CC(=O)CC[C@]4(C)[C@H]3[C@@H](O)C[C@@]21C
#INCHI_AUX N/A
#Library_Class 1
#SpectrumID CCMSLIB00000085697
#IonMode Positive
#UpdateWorkflowName UPDATE-SINGLE-ANNOTATED-GOLD
#LibraryQualityString Gold
#TaskID d252d724072548979f1f6f1ced849daf
##Scan# 2675
#SpectrumFile p4-E04_GE4_01_18376.mzXML
#LibraryName Pharm_Active_Library.mgf
#MQScore -1
#Organism Pharm_Active_Library
#TIC_Query 0
#RT_Query -1
#MZErrorPPM -1
#SharedPeaks 0
#MassDiff 0
#LibMZ -1
#SpecMZ 489.327
#SpecCharge 0
#internalFilename spec-00000.mgf

>collision 10
44.950848 156.0
44.976208 196.0
45.029438 152.0
45.30785 204.0
45.340008 156.0
45.371357 152.0
45.65147 160.0
45.689133 224.0
45.727718 136.0
45.819725 100.0
45.845325 64.0
45.874977 172.0
45.920826 108.0
45.952797 120.0
45.984238 44.0
46.004486 160.0
46.051746 184.0
46.109844 120.0
46.142288 180.0
46.177864 168.0
46.265331 148.0
46.322281 168.0
46.354797 136.0
46.376484 148.0
46.390038 132.0
46.427021 232.0
46.452419 176.0
46.516197 180.0
46.582737 168.0
46.593605 172.0
46.603115 52.0
46.691475 176.0
46.721401 312.0
46.746414 220.0
46.80579 140.0
46.834389 116.0
46.852097 148.0
46.91835 260.0
46.970699 184.0
46.989559 184.0
47.043022 188.0
47.067024 332.0
47.097645 156.0
47.114338 200.0
47.175533 136.0
47.383556 160.0
47.410961 64.0
47.421494 328.0
47.463055 152.0
47.590664 44.0
47.699196 200.0
47.980034 184.0
48.015884 136.0
48.182911 132.0
48.292118 100.0
48.303185 92.0
48.31702 216.0
48.377911 148.0
48.477638 144.0
48.509518 140.0
48.563595 124.0
48.654575 164.0
48.681564 172.0
48.710938 188.0
48.764923 220.0
48.778824 136.0
48.826164 168.0
48.842789 64.0
48.865047 36.0
48.878963 148.0
48.9235 244.0
48.970844 256.0
49.042027 184.0
49.11441 124.0
49.157661 128.0
49.18837 156.0
49.199535 148.0
49.265175 140.0
49.29731 188.0
49.370007 192.0
49.460949 188.0
49.588413 188.0
49.627663 136.0
49.643089 132.0
49.841019 140.0
50.046379 116.0
50.111805 196.0
50.136536 28.0
50.198212 176.0
50.227596 140.0
50.319912 220.0
50.40979 236.0
50.466858 156.0
50.480999 140.0
50.509285 180.0
50.57296 256.0
50.642338 188.0
50.691925 240.0
50.72736 192.0
50.776985 200.0
50.801098 188.0
50.916073 228.0
51.052505 248.0
51.076851 172.0
51.290276 60.0
51.32164 148.0
51.447193 196.0
51.554321 108.0
51.688744 120.0
51.711643 56.0
51.750294 224.0
51.820477 180.0
51.884972 180.0
51.925121 184.0
51.965286 108.0
52.065769 180.0
52.14048 188.0
52.15485 160.0
52.23106 160.0
52.254078 152.0
52.272785 168.0
52.313084 148.0
52.566757 112.0
52.663486 124.0
52.6866 40.0
52.715496 156.0
52.737175 248.0
52.801208 228.0
52.867344 160.0
52.989052 224.0
53.033901 188.0
53.113651 188.0
53.128155 160.0
53.21669 192.0
53.239017 112.0
53.332909 136.0
53.376522 104.0
53.428886 256.0
53.473995 172.0
53.501652 168.0
53.542423 28.0
53.677952 184.0
53.698372 120.0
53.777161 48.0
53.850163 208.0
53.896912 156.0
54.010448 176.0
54.170502 120.0
54.206821 244.0
54.249638 84.0
54.268696 52.0
54.290691 196.0
54.344967 200.0
54.369915 60.0
54.459473 172.0
54.607925 180.0
54.685905 148.0
54.699154 164.0
54.749214 104.0
54.766888 120.0
54.797825 176.0
54.861198 68.0
55.023483 180.0
55.122444 176.0
55.188961 184.0
55.293995 180.0
55.449505 188.0
55.620079 164.0
55.661648 140.0
55.673531 216.0
55.759697 140.0
55.944145 152.0
55.960522 48.0
55.985233 208.0
56.018604 168.0
56.088642 128.0
56.12442 144.0
56.160213 148.0
56.193031 236.0
56.207954 120.0
56.266163 52.0
56.294533 152.0
56.35199 224.0
56.366238 172.0
56.437988 156.0
56.521751 204.0
56.629543 96.0
56.662498 192.0
56.855934 212.0
56.977562 164.0
56.998371 132.0
57.019638 164.0
57.133919 240.0
57.322128 100.0
57.377895 56.0
57.402023 128.0
57.447269 196.0
57.495556 148.0
57.581612 140.0
57.634483 204.0
57.702499 56.0
57.828056 136.0
57.873245 160.0
57.902245 228.0
57.915878 176.0
58.094749 188.0
58.137234 176.0
58.23177 180.0
58.24807 140.0
58.380302 156.0
58.441151 136.0
58.459412 144.0
58.617893 112.0
58.637596 188.0
58.690952 188.0
58.889343 196.0
58.904068 200.0
58.958096 224.0
59.175308 112.0
59.238102 136.0
59.325218 184.0
59.385254 340.0
59.437416 148.0
59.495739 136.0
59.646286 192.0
59.666271 128.0
59.689335 260.0
59.753181 196.0
59.821651 224.0
59.832428 64.0
59.868057 116.0
59.949493 124.0
60.015778 216.0
60.040451 116.0
60.057415 152.0
60.07901 60.0
60.103699 192.0
60.14756 72.0
60.227203 124.0
60.265827 132.0
60.414249 124.0
60.454479 196.0
60.494724 148.0
60.53653 108.0
60.559517 128.0
60.593838 88.0
60.713196 172.0
60.78611 116.0
60.79697 56.0
60.807835 160.0
60.820251 188.0
60.877697 184.0
60.946049 36.0
60.983345 52.0
61.03931 132.0
61.243187 152.0
61.411526 120.0
61.500462 92.0
61.681656 52.0
61.742638 612.0
61.830151 192.0
61.863117 144.0
61.914791 144.0
61.950817 208.0
62.019764 132.0
62.04171 212.0
62.095024 200.0
62.175041 164.0
62.242542 152.0
62.291229 128.0
62.327366 120.0
62.460999 120.0
62.51292 92.0
62.763386 72.0
62.799656 200.0
62.831207 208.0
62.845406 148.0
62.883282 176.0
62.913273 112.0
62.982754 120.0
62.99855 60.0
63.044373 240.0
63.113926 212.0
63.194595 196.0
63.208836 152.0
63.226242 124.0
63.273731 144.0
63.428982 132.0
63.459103 128.0
63.579544 164.0
63.884735 124.0
63.93306 292.0
64.099678 132.0
64.326157 220.0
64.39003 156.0
64.524254 144.0
64.540245 52.0
64.585022 144.0
64.601021 180.0
64.689034 196.0
64.773911 216.0
64.791527 168.0
64.815567 120.0
65.07412 204.0
65.207077 204.0
65.24411 76.0
65.414635 60.0
65.438782 136.0
65.475822 44.0
65.496758 176.0
65.51931 168.0
65.533813 108.0
65.632133 216.0
65.648262 124.0
65.695038 128.0
65.785408 164.0
65.827385 120.0
65.967949 156.0
66.006752 60.0
66.019691 184.0
66.039101 236.0
66.163704 156.0
66.192848 140.0
66.283562 140.0
66.353256 148.0
66.486267 40.0
66.632408 208.0
66.67466 48.0
66.694366 228.0
66.731552 64.0
66.74456 164.0
66.785217 136.0
66.851929 52.0
66.962631 176.0
66.982521 208.0
67.009872 164.0
67.027794 220.0
67.393303 128.0
67.425392 148.0
67.445602 144.0
67.58918 192.0
67.61734 148.0
67.6604 196.0
67.746696 196.0
67.784378 276.0
67.800766 164.0
67.857506 144.0
67.869621 160.0
67.90242 140.0
67.918381 164.0
67.971321 164.0
67.997574 116.0
68.048622 212.0
68.156868 172.0
68.196312 192.0
68.207817 72.0
68.283455 160.0
68.30426 160.0
68.344322 140.0
68.443085 168.0
68.457901 128.0
68.533676 92.0
68.612793 172.0
68.634224 160.0
68.655663 160.0
68.88839 156.0
68.923088 120.0
68.964401 208.0
68.977631 200.0
68.992508 256.0
69.040459 168.0
69.058647 92.0
69.134758 196.0
69.179443 132.0
69.197777 160.0
69.225449 240.0
69.278809 216.0
69.368294 72.0
69.426331 64.0
69.515907 128.0
69.681564 204.0
69.704727 176.0
69.808281 68.0
70.064613 120.0
70.27636 104.0
70.291374 204.0
70.341446 152.0
70.393204 76.0
70.409904 40.0
70.455002 92.0
70.51516 144.0
70.536888 164.0
70.58036 136.0
70.686493 172.0
70.975533 96.0
71.139954 188.0
71.183609 116.0
71.20208 152.0
71.228958 240.0
71.361725 36.0
71.432358 156.0
71.452545 100.0
71.466003 188.0
71.477783 40.0
71.597305 120.0
72.032021 196.0
72.115265 148.0
72.183678 148.0
72.247162 68.0
72.31485 188.0
72.375793 88.0
72.468956 156.0
72.485901 120.0
72.523041 140.0
72.540024 188.0
72.591003 192.0
72.604568 148.0
72.706825 188.0
72.80143 92.0
72.857483 192.0
72.986656 184.0
72.998558 160.0
73.085312 128.0
73.11084 152.0
73.129555 116.0
73.149986 92.0
73.209579 156.0
73.22831 196.0
73.289642 280.0
73.31179 152.0
73.337357 172.0
73.368042 184.0
73.405548 204.0
73.482307 204.0
73.543747 96.0
73.681694 148.0
73.688545 116.0
73.707695 144.0
73.769226 92.0
73.811966 116.0
74.073822 80.0
74.1595 184.0
74.17836 88.0
74.193787 204.0
74.248657 124.0
74.277023 136.0
74.440865 36.0
74.719322 152.0
74.765778 148.0
74.817413 180.0
74.953484 132.0
74.996567 328.0
75.06208 196.0
75.103477 152.0
75.227715 156.0
75.257065 180.0
75.268875 176.0
75.411583 252.0
75.441933 72.0
75.569916 216.0
75.623558 124.0
75.665108 160.0
75.698006 36.0
75.741302 172.0
75.774216 168.0
75.798477 144.0
75.81234 124.0
75.98938 120.0
76.04821 132.0
76.086395 156.0
76.154121 180.0
76.235779 192.0
76.4114 232.0
76.507118 240.0
76.717918 140.0
76.764992 164.0
76.789413 196.0
76.972382 228.0
76.993607 204.0
77.159615 208.0
77.201576 192.0
77.32579 156.0
77.40107 184.0
77.418579 200.0
77.651535 204.0
77.91674 124.0
77.971214 128.0
78.004608 136.0
78.06311 204.0
78.141785 168.0
78.242104 228.0
78.310776 132.0
78.349533 196.0
78.437645 160.0
78.467613 140.0
78.518753 248.0
78.559319 176.0
78.606956 84.0
78.629898 204.0
79.133705 132.0
79.192146 152.0
79.263008 176.0
79.291359 132.0
79.325043 152.0
79.344582 160.0
79.386322 160.0
79.411682 208.0
79.457466 292.0
79.521927 152.0
79.592941 152.0
79.617805 156.0
79.633789 176.0
79.682915 220.0
79.754608 144.0
79.784828 172.0
79.809723 156.0
79.898651 156.0
79.921783 116.0
79.939575 188.0
80.029266 228.0
80.087349 116.0
80.13723 136.0
80.181778 176.0
80.247734 92.0
80.59758 184.0
80.688728 128.0
80.778152 200.0
80.838982 184.0
80.935646 136.0
80.984001 124.0
81.059242 176.0
81.109428 152.0
81.129143 160.0
81.450363 136.0
81.516838 124.0
81.66246 148.0
81.741623 108.0
81.837021 148.0
81.849625 140.0
81.898254 128.0
81.939682 120.0
81.963104 56.0
82.116341 200.0
82.159637 192.0
82.174065 132.0
82.23362 100.0
82.381691 128.0
82.55159 160.0
82.616699 68.0
82.695526 200.0
82.772362 184.0
82.910912 132.0
82.97348 80.0
82.989799 156.0
83.096809 160.0
83.183922 168.0
83.336472 176.0
83.354645 124.0
83.5019 204.0
83.524292 180.0
83.678413 148.0
83.758545 140.0
83.931679 196.0
84.006454 184.0
84.039299 156.0
84.119598 112.0
84.165245 220.0
84.227333 208.0
84.347939 48.0
84.510704 244.0
84.622353 176.0
84.657143 200.0
84.688278 216.0
84.752403 120.0
84.851372 72.0
84.904549 148.0
84.979759 136.0
85.010956 68.0
85.064186 216.0
85.187218 104.0
85.222122 192.0
85.255203 360.0
85.348953 60.0
85.380219 92.0
85.461159 216.0
85.536613 164.0
85.551338 124.0
85.564224 124.0
85.57711 188.0
85.591843 148.0
85.615784 104.0
85.667358 80.0
85.698677 48.0
85.83139 156.0
85.846146 188.0
85.943909 120.0
86.026962 152.0
86.079819 172.0
86.100822 196.0
86.180252 120.0
86.209816 128.0
86.231995 244.0
86.370674 180.0
86.451836 184.0
86.526115 100.0
86.572411 140.0
86.590927 216.0
86.653915 152.0
86.676147 128.0
86.741013 256.0
86.841141 56.0
86.950607 116.0
86.993301 188.0
87.015579 132.0
87.073143 200.0
87.110291 80.0
87.154884 188.0
87.167892 104.0
87.205063 180.0
87.24781 204.0
87.281281 180.0
87.534355 172.0
87.614441 120.0
87.761681 184.0
87.841881 160.0
87.858665 136.0
87.937042 160.0
88.013443 160.0
88.029144 204.0
88.133125 80.0
88.204147 264.0
88.226578 200.0
88.364975 140.0
88.525948 236.0
88.720818 180.0
88.760193 180.0
88.778946 172.0
88.936546 96.0
88.966576 168.0
89.062347 124.0
89.238998 160.0
89.26532 192.0
89.304817 76.0
89.351845 104.0
89.419586 156.0
89.459122 164.0
89.541969 180.0
89.566452 236.0
89.630508 136.0
89.673851 108.0
89.736061 300.0
89.760574 176.0
89.877525 140.0
89.913383 184.0
89.982819 204.0
90.024765 172.0
90.122993 108.0
90.136223 184.0
90.410423 132.0
90.491821 136.0
90.599777 104.0
90.808289 124.0
90.823463 160.0
90.961708 192.0
91.032234 180.0
91.054306 696.0
91.083511 212.0
91.117706 168.0
91.241241 204.0
91.313499 108.0
91.376274 224.0
91.538071 208.0
91.650452 180.0
91.680946 208.0
91.780067 172.0
91.818207 184.0
91.904053 60.0
91.955574 116.0
92.059868 208.0
92.121704 192.0
92.335785 120.0
92.410065 168.0
92.57309 160.0
92.695694 180.0
92.751274 164.0
92.81646 52.0
92.84906 216.0
92.929626 96.0
92.969925 136.0
93.0467 172.0
93.067131 720.0
93.088249 88.0
93.162483 360.0
93.183067 128.0
93.221794 128.0
93.234947 196.0
93.261856 196.0
93.325294 132.0
93.34919 160.0
93.569649 132.0
93.585052 104.0
93.687126 132.0
93.712173 48.0
93.783478 212.0
93.796967 244.0
93.928093 108.0
93.995621 192.0
94.047729 120.0
94.072823 168.0
94.142326 148.0
94.265968 148.0
94.281425 160.0
94.438034 160.0
94.641228 136.0
94.679962 196.0
94.734192 88.0
95.017242 92.0
95.051216 204.0
95.085823 1284.0
95.172516 144.0
95.259911 140.0
95.312935 280.0
95.331802 140.0
95.376503 156.0
95.450378 192.0
95.604057 128.0
95.900101 128.0
95.921539 76.0
95.974174 176.0
96.063896 152.0
96.122429 148.0
96.171219 124.0
96.323524 168.0
96.358688 184.0
96.374313 52.0
96.411446 124.0
96.434898 208.0
96.493546 156.0
96.653931 152.0
96.706772 148.0
96.787033 176.0
96.912399 116.0
96.943748 104.0
96.959427 184.0
97.064789 3228.0
97.102547 176.0
97.184937 104.0
97.206528 196.0
97.298775 128.0
97.373398 208.0
97.395004 132.0
97.505028 188.0
97.530579 168.0
97.575798 64.0
97.75676 124.0
97.780373 160.0
97.80793 96.0
97.859116 124.0
97.900467 128.0
97.947739 212.0
97.979256 76.0
98.024574 40.0
98.067886 176.0
98.150734 172.0
98.183853 216.0
98.284866 188.0
98.363808 100.0
98.417114 124.0
98.454636 184.0
98.484261 100.0
98.614662 56.0
98.64827 124.0
98.741203 76.0
98.838135 64.0
98.871979 160.0
99.044708 640.0
99.094154 160.0
99.171585 172.0
99.258072 232.0
99.281845 268.0
99.44059 164.0
99.525955 44.0
99.581123 184.0
99.680893 44.0
99.78624 180.0
99.833961 156.0
99.873741 60.0
99.889656 112.0
99.966629 192.0
100.017006 136.0
100.054825 152.0
100.100624 108.0
100.212173 128.0
100.250031 156.0
100.269958 196.0
100.359665 132.0
100.605064 72.0
100.650986 176.0
100.768837 104.0
100.792809 248.0
100.862762 108.0
100.936737 152.0
101.055489 152.0
101.084129 148.0
101.178833 156.0
101.240906 284.0
101.258934 152.0
101.272957 168.0
101.286972 128.0
101.323036 52.0
101.397179 116.0
101.421227 156.0
101.448593 160.0
101.551559 116.0
101.613747 164.0
101.66391 164.0
101.723831 136.0
101.778328 180.0
101.834564 164.0
101.894829 204.0
101.981239 104.0
102.047577 88.0
102.150139 180.0
102.206474 204.0
102.284966 196.0
102.615356 200.0
102.706741 164.0
102.772682 132.0
102.956627 164.0
102.980614 40.0
103.053101 528.0
103.194824 172.0
103.243355 108.0
103.289871 176.0
103.368774 228.0
103.382942 48.0
103.439613 132.0
103.482132 104.0
103.599594 164.0
103.700912 96.0
103.778862 176.0
103.804306 132.0
104.056351 160.0
104.09449 40.0
104.238716 212.0
104.254974 156.0
104.381012 108.0
104.600746 132.0
104.645531 176.0
104.76162 208.0
104.792564 212.0
104.85331 56.0
104.924065 220.0
105.002144 172.0
105.030701 204.0
105.04702 56.0
105.070023 2000.0
105.092171 240.0
105.16333 48.0
105.195984 112.0
105.232735 52.0
105.293999 172.0
105.387962 48.0
105.443138 144.0
105.67012 164.0
105.801109 196.0
105.921928 136.0
105.952629 140.0
105.981346 68.0
106.036179 116.0
106.074234 344.0
106.134918 108.0
106.225388 116.0
106.255974 148.0
106.358696 44.0
106.416176 120.0
106.488052 104.0
106.562004 184.0
106.619537 180.0
106.709984 200.0
106.761391 172.0
106.812813 192.0
107.026848 352.0
107.050301 336.0
107.085526 1944.0
107.12571 44.0
107.168976 80.0
107.185455 56.0
107.296761 160.0
107.311195 60.0
107.415718 176.0
107.436996 64.0
107.614494 140.0
107.628944 152.0
107.825195 132.0
107.930626 136.0
108.001579 196.0
108.029907 168.0
108.046165 172.0
108.09404 176.0
108.112671 152.0
108.23687 160.0
108.294861 52.0
108.321785 72.0
108.346649 176.0
108.564293 108.0
108.721954 192.0
108.773849 164.0
108.809135 104.0
108.867279 184.0
108.933746 120.0
108.98568 52.0
109.016792 132.0
109.040771 196.0
109.06414 2176.0
109.10054 1972.0
109.179008 164.0
109.218315 196.0
109.272614 72.0
109.467346 140.0
109.645355 172.0
109.772522 92.0
109.883072 72.0
109.910194 56.0
109.947762 208.0
110.045868 52.0
110.066231 340.0
110.106308 276.0
110.125221 184.0
110.156555 108.0
110.179535 48.0
110.275658 124.0
110.4011 136.0
110.511971 176.0
110.620796 256.0
110.685699 104.0
110.719757 212.0
110.777855 160.0
110.918938 184.0
110.96228 104.0
111.043159 276.0
111.079544 504.0
111.109093 116.0
111.146858 112.0
111.165741 144.0
111.19722 48.0
111.256851 304.0
111.299667 200.0
111.363091 100.0
111.403 92.0
111.59005 232.0
111.652512 204.0
111.705719 88.0
111.947762 224.0
111.975143 184.0
112.084557 196.0
112.192917 216.0
112.306046 184.0
112.386215 140.0
112.400986 212.0
112.468521 56.0
112.536072 96.0
112.580421 136.0
112.603653 104.0
112.696602 124.0
112.901649 164.0
112.979912 112.0
112.996834 204.0
113.026459 216.0
113.134399 152.0
113.232407 140.0
113.515785 184.0
113.594261 200.0
113.670639 136.0
113.738556 80.0
113.770393 228.0
113.82135 360.0
113.844711 68.0
113.885063 208.0
113.987038 164.0
114.106071 48.0
114.576424 228.0
114.640343 40.0
114.691498 168.0
114.825821 212.0
114.883415 184.0
114.970894 168.0
115.015717 236.0
115.052376 200.0
115.077629 112.0
115.109657 208.0
115.175865 176.0
115.219467 156.0
115.363914 160.0
115.438744 168.0
115.547836 256.0
115.591888 88.0
115.706207 172.0
115.903259 124.0
116.002899 204.0
116.036148 44.0
116.058029 408.0
116.102623 188.0
116.126213 88.0
116.151955 200.0
116.169113 192.0
116.246353 128.0
116.336502 192.0
116.375702 140.0
116.422386 180.0
116.452454 184.0
116.598557 128.0
116.828041 204.0
116.891029 136.0
116.921158 84.0
117.068764 1236.0
117.166634 96.0
117.201103 76.0
117.343361 132.0
117.456161 156.0
117.692902 200.0
117.725288 188.0
117.783607 132.0
117.809525 132.0
117.848412 192.0
117.867859 208.0
117.932693 204.0
118.07386 328.0
118.198708 160.0
118.252808 216.0
118.36322 196.0
118.419525 156.0
118.445518 124.0
118.558182 180.0
118.575523 180.0
118.753304 172.0
118.948593 52.0
119.050636 176.0
119.084808 6304.0
119.115799 128.0
119.168335 44.0
119.184105 172.0
119.224434 288.0
119.258888 160.0
119.313553 224.0
119.332283 228.0
119.40271 108.0
119.426636 212.0
119.685608 216.0
119.842438 132.0
119.893082 232.0
119.973206 188.0
120.051704 152.0
120.088821 1296.0
120.136063 208.0
120.259415 136.0
120.355019 200.0
120.379044 164.0
120.403061 144.0
120.42054 196.0
120.440193 208.0
120.481697 156.0
120.510101 48.0
120.62812 140.0
120.739693 140.0
120.794312 116.0
120.820564 144.0
120.899002 132.0
120.91684 148.0
120.9366 148.0
120.967186 192.0
120.984703 88.0
121.001572 244.0
121.064507 13600.0
121.098244 1252.0
121.127045 56.0
121.149826 60.0
121.195503 64.0
121.225632 44.0
121.256317 124.0
121.300591 180.0
121.365929 100.0
121.44268 52.0
121.488075 104.0
121.534821 64.0
121.59407 176.0
121.65773 184.0
121.743362 164.0
121.835617 64.0
121.852783 152.0
121.983742 208.0
122.068527 1180.0
122.101036 180.0
122.160973 52.0
122.255585 136.0
122.361244 128.0
122.404747 132.0
122.478325 144.0
122.504395 88.0
122.572693 40.0
122.649834 184.0
122.740219 100.0
122.779915 148.0
122.89904 56.0
122.987312 60.0
123.080818 5880.0
123.11647 180.0
123.163956 180.0
123.190468 216.0
123.331886 212.0
123.528694 144.0
123.546387 76.0
123.697716 220.0
123.716797 68.0
123.743362 184.0
123.878456 136.0
123.898392 180.0
124.009186 228.0
124.046875 160.0
124.083916 328.0
124.117821 164.0
124.225563 72.0
124.255501 164.0
124.295273 112.0
124.350754 180.0
124.39959 92.0
124.508659 196.0
124.626122 172.0
124.77948 136.0
124.795044 184.0
124.921814 116.0
124.990784 188.0
125.0625 160.0
125.090248 500.0
125.166641 124.0
125.295822 152.0
125.353752 136.0
125.425072 76.0
125.570007 164.0
125.59008 144.0
125.668159 48.0
125.732872 56.0
125.826622 188.0
125.957458 212.0
125.996361 164.0
126.020935 184.0
126.057838 268.0
126.26236 112.0
126.340652 204.0
126.647324 136.0
126.66301 152.0
126.759346 204.0
126.777275 132.0
126.792961 180.0
126.902802 240.0
126.93644 88.0
126.994743 176.0
127.052185 224.0
127.081749 136.0
127.112091 8696.0
127.264046 128.0
127.308952 176.0
127.354469 180.0
127.470695 168.0
127.524635 80.0
127.587578 32.0
127.646034 152.0
127.762993 148.0
127.819244 148.0
127.857498 168.0
127.907578 192.0
127.954292 200.0
128.060913 1228.0
128.11441 1012.0
128.271942 104.0
128.303497 144.0
128.443314 160.0
128.483917 112.0
128.506592 84.0
128.576431 124.0
128.598999 220.0
128.65181 204.0
128.689301 32.0
128.786407 136.0
128.831589 144.0
128.95813 144.0
129.069473 2132.0
129.141281 184.0
129.157104 180.0
129.238556 88.0
129.282288 188.0
129.306442 28.0
129.327606 184.0
129.363022 104.0
129.50116 200.0
129.532867 160.0
129.571381 76.0
129.680145 116.0
129.861542 132.0
129.891022 144.0
130.031708 220.0
130.074005 1196.0
130.115692 180.0
130.2724 140.0
130.33374 120.0
130.392822 40.0
130.456467 92.0
130.627014 172.0
130.645218 76.0
130.685745 148.0
130.752167 80.0
130.818176 188.0
130.838669 192.0
130.975296 168.0
131.000351 228.0
131.04364 80.0
131.083984 3432.0
131.235107 160.0
131.276138 216.0
131.401596 100.0
131.424408 176.0
131.524826 196.0
131.62529 60.0
131.730347 160.0
131.789749 36.0
132.059509 124.0
132.088715 328.0
132.114395 136.0
132.134995 224.0
132.308929 172.0
132.423431 128.0
132.471527 180.0
132.595261 144.0
132.612885 220.0
132.666962 272.0
132.714462 136.0
132.755737 176.0
132.776382 188.0
132.793991 188.0
132.916321 144.0
133.010406 120.0
133.033371 76.0
133.063324 1028.0
133.101593 2816.0
133.240067 188.0
133.283707 212.0
133.382538 60.0
133.440018 160.0
133.571091 184.0
133.640121 208.0
133.660828 192.0
133.688431 48.0
133.782806 40.0
133.844971 104.0
133.925583 56.0
134.024643 100.0
134.067032 208.0
134.101669 132.0
134.114929 224.0
134.153702 148.0
134.248245 204.0
134.298981 72.0
134.377289 148.0
134.435104 196.0
134.476746 180.0
134.497421 240.0
134.518188 156.0
134.55513 140.0
134.601303 112.0
134.684448 136.0
134.783798 108.0
134.816147 176.0
134.857742 136.0
134.873917 156.0
134.955872 196.0
135.042709 208.0
135.080063 3064.0
135.115158 948.0
135.237076 120.0
135.438522 124.0
135.517288 136.0
135.565948 116.0
135.626205 136.0
135.769958 164.0
135.878967 200.0
135.94162 88.0
136.008926 92.0
136.048386 188.0
136.086151 1152.0
136.159851 40.0
136.180756 44.0
136.361984 204.0
136.496811 104.0
136.636368 108.0
136.831879 156.0
136.932007 104.0
137.060776 496.0
137.097153 604.0
137.196182 132.0
137.638214 164.0
137.666641 248.0
137.741379 108.0
137.76474 208.0
137.940002 116.0
137.99144 128.0
138.019485 68.0
138.038193 128.0
138.05925 140.0
138.098267 164.0
138.384506 128.0
138.588287 132.0
138.712494 136.0
138.803925 212.0
138.890701 152.0
138.90947 160.0
138.942245 148.0
138.989243 44.0
139.070602 412.0
139.134766 112.0
139.158234 80.0
139.334381 84.0
139.442474 104.0
139.86351 176.0
139.901169 184.0
139.954971 188.0
140.287521 116.0
140.372391 136.0
140.393616 116.0
140.650787 68.0
140.669678 192.0
140.702728 148.0
140.804581 120.0
140.916397 180.0
141.068497 1204.0
141.10437 128.0
141.13414 224.0
141.374023 156.0
141.430832 180.0
141.454498 48.0
141.592987 156.0
141.62262 164.0
141.674728 132.0
141.703171 92.0
141.87381 140.0
141.918854 124.0
142.076355 1644.0
142.283249 48.0
142.336472 236.0
142.402756 184.0
142.467102 28.0
142.490189 116.0
142.524124 80.0
142.680984 104.0
142.71666 192.0
142.780853 64.0
142.841507 128.0
142.864105 52.0
142.928345 104.0
142.99617 228.0
143.085007 5760.0
143.194977 84.0
143.268829 80.0
143.396027 52.0
143.509537 144.0
143.595383 44.0
143.738525 148.0
143.776062 148.0
143.827621 120.0
143.855469 140.0
143.960526 172.0
144.046509 132.0
144.088333 1096.0
144.139694 116.0
144.187485 36.0
144.328537 160.0
144.358963 204.0
144.558533 108.0
144.610825 60.0
144.730515 212.0
144.900574 180.0
144.917343 108.0
144.967667 232.0
145.064148 1456.0
145.100281 6676.0
145.189117 268.0
145.222656 124.0
145.358551 124.0
145.380142 160.0
145.564133 124.0
145.59848 76.0
145.627426 48.0
145.661057 152.0
145.699036 288.0
145.802826 192.0
145.882141 44.0
145.923019 48.0
146.036041 88.0
146.070587 320.0
146.105896 652.0
146.141891 204.0
146.259811 40.0
146.413895 60.0
146.481339 224.0
146.645187 172.0
146.746445 372.0
146.879074 136.0
146.910446 144.0
146.932159 132.0
146.973175 128.0
147.004547 72.0
147.031082 152.0
147.080032 3692.0
147.115158 2964.0
147.166275 96.0
147.182159 88.0
147.226639 68.0
147.333527 180.0
147.349823 92.0
147.412659 40.0
147.593948 100.0
147.642319 188.0
147.659241 40.0
147.722137 172.0
147.739075 140.0
147.755997 92.0
148.022247 144.0
148.053726 144.0
148.085175 856.0
148.120117 348.0
148.49968 136.0
148.519089 244.0
148.584579 212.0
148.635529 100.0
148.662231 48.0
148.681641 220.0
148.725327 152.0
148.907425 96.0
148.960861 144.0
148.982727 72.0
149.06073 156.0
149.094376 996.0
149.132416 440.0
149.233063 128.0
149.418167 192.0
149.464142 200.0
149.505508 144.0
149.575027 184.0
149.702698 80.0
149.917068 116.0
149.990189 224.0
150.021881 60.0
150.060883 36.0
150.099594 456.0
150.129166 180.0
150.348724 164.0
150.490311 180.0
150.790787 124.0
150.856781 80.0
150.942352 204.0
151.005936 64.0
151.049744 136.0
151.073868 420.0
151.111282 324.0
151.194321 160.0
151.292236 168.0
151.368134 120.0
151.448959 100.0
151.632721 208.0
152.073166 124.0
152.138016 228.0
152.157654 132.0
152.322205 116.0
152.383621 152.0
152.437668 156.0
152.639252 168.0
152.941849 76.0
153.065231 756.0
153.119125 112.0
153.180542 172.0
153.271866 160.0
153.301437 212.0
153.323608 168.0
153.411865 144.0
153.464127 156.0
153.503571 172.0
153.745331 160.0
153.950241 132.0
153.984818 160.0
154.076675 1080.0
154.099319 216.0
154.135513 100.0
154.212128 92.0
154.31842 92.0
154.372818 276.0
154.412399 128.0
154.857895 80.0
155.084747 4356.0
155.227158 48.0
155.430573 176.0
155.537292 228.0
155.651489 56.0
155.952103 160.0
156.090012 1172.0
156.151337 180.0
156.417236 196.0
156.459564 104.0
156.561295 84.0
156.723572 152.0
156.76593 72.0
156.909836 164.0
157.063995 512.0
157.100082 4948.0
157.149948 64.0
157.190445 52.0
157.234787 112.0
157.26474 92.0
157.29718 184.0
157.340256 188.0
157.427521 176.0
157.536911 124.0
157.761017 232.0
157.786835 64.0
157.881851 136.0
157.899353 172.0
158.072067 1380.0
158.103607 1380.0
158.267212 168.0
158.382416 44.0
158.460083 136.0
158.479034 152.0
158.575348 48.0
158.605438 148.0
158.635513 56.0
158.665588 176.0
158.785385 208.0
158.863724 56.0
158.923935 52.0
158.951538 168.0
158.987732 132.0
159.079575 2704.0
159.115311 4776.0
159.193832 44.0
159.268875 188.0
159.386246 68.0
159.453796 96.0
159.526688 48.0
159.57135 168.0
159.710251 104.0
159.871277 220.0
160.085449 684.0
160.120255 1540.0
160.284256 100.0
160.314499 56.0
160.339706 84.0
160.450623 92.0
160.496002 196.0
160.554001 116.0
160.624619 160.0
160.808823 44.0
160.849197 176.0
160.866867 136.0
160.917358 68.0
160.995651 92.0
161.050781 168.0
161.096008 2580.0
161.129425 756.0
161.175156 64.0
161.250809 68.0
161.402496 84.0
161.44548 136.0
161.468246 136.0
161.496063 176.0
161.531479 164.0
161.551056 168.0
161.587128 172.0
161.640274 84.0
161.692154 120.0
161.734482 72.0
161.776947 84.0
161.944077 148.0
162.007401 196.0
162.098648 580.0
162.127625 116.0
162.276047 136.0
162.324219 124.0
162.362793 148.0
162.400574 116.0
162.48909 192.0
162.570282 236.0
162.684509 160.0
162.806381 196.0
162.847015 56.0
162.869873 160.0
162.933395 164.0
162.958801 152.0
163.072662 148.0
163.110809 6836.0
163.146011 144.0
163.242416 180.0
163.263824 180.0
163.45462 64.0
163.594696 188.0
163.65062 104.0
163.893524 56.0
163.956299 56.0
164.035309 316.0
164.114075 860.0
164.185745 84.0
164.226562 116.0
164.246964 196.0
164.31839 80.0
164.4664 144.0
164.558304 140.0
164.586395 168.0
164.777954 252.0
164.811172 124.0
164.908279 144.0
165.068558 788.0
165.121094 428.0
165.299576 156.0
165.326874 108.0
165.347168 180.0
165.392899 164.0
165.532516 160.0
165.555664 100.0
165.583145 104.0
165.688766 116.0
165.727188 60.0
165.842514 192.0
165.960434 152.0
166.014297 132.0
166.077972 704.0
166.123856 256.0
166.334167 160.0
166.368378 60.0
166.578293 116.0
166.82309 172.0
166.967072 140.0
167.084946 2084.0
167.201202 188.0
167.889069 116.0
167.966431 164.0
168.056732 160.0
168.092255 936.0
168.152222 156.0
168.358337 100.0
168.505981 60.0
168.539581 184.0
168.854965 152.0
169.005753 180.0
169.066757 272.0
169.070709 216.0
169.100479 3600.0
169.188766 64.0
169.256088 180.0
169.294922 132.0
169.393341 44.0
169.525482 160.0
169.578186 156.0
169.608429 52.0
169.639526 60.0
169.670639 148.0
169.771759 224.0
169.972321 140.0
170.068237 164.0
170.104019 672.0
170.142822 48.0
170.173599 168.0
170.360962 72.0
170.483078 104.0
170.644241 116.0
170.938171 32.0
170.982407 112.0
171.037308 176.0
171.078674 3108.0
171.115601 3932.0
171.261002 84.0
171.357895 184.0
171.4095 28.0
171.607605 36.0
171.628464 180.0
171.748428 136.0
171.779724 128.0
171.842346 40.0
171.910187 176.0
171.931061 124.0
172.014587 220.0
172.035461 104.0
172.084656 340.0
172.120895 1524.0
172.150345 212.0
172.26712 144.0
172.309692 184.0
172.469101 84.0
172.522781 224.0
172.87558 88.0
172.98703 84.0
173.018448 116.0
173.062958 36.0
173.094727 3860.0
173.130539 2692.0
173.170319 108.0
173.241043 128.0
173.298691 92.0
173.366821 172.0
173.458557 44.0
173.673569 84.0
173.836227 60.0
173.875595 128.0
173.949097 152.0
174.017349 152.0
174.06987 156.0
174.100662 692.0
174.137726 608.0
174.195465 136.0
174.490265 48.0
174.582306 160.0
175.070114 492.0
175.110611 3508.0
175.149658 288.0
175.200851 48.0
175.219299 44.0
175.308884 56.0
175.401138 152.0
175.419586 204.0
175.641098 148.0
175.88913 124.0
175.931366 52.0
175.952484 188.0
175.990936 128.0
176.114716 468.0
176.348724 88.0
176.398956 132.0
176.67662 116.0
176.947464 72.0
177.087448 784.0
177.123199 524.0
177.222916 36.0
177.241211 184.0
177.26973 48.0
177.388992 180.0
177.426117 120.0
177.467773 112.0
177.4776 192.0
177.526871 172.0
177.595825 144.0
177.68602 152.0
178.023117 164.0
178.049683 92.0
178.079544 164.0
178.12439 192.0
178.187805 152.0
178.217041 76.0
178.339279 84.0
178.419037 176.0
178.62114 48.0
178.738205 104.0
178.815384 112.0
178.884583 152.0
178.92984 52.0
179.044342 192.0
179.082565 1092.0
179.107071 304.0
179.138123 196.0
179.181305 116.0
179.345413 168.0
179.537369 232.0
179.673416 52.0
179.708099 136.0
179.76947 228.0
179.828049 80.0
179.865555 156.0
180.049789 192.0
180.091019 1184.0
180.177994 60.0
180.226089 144.0
180.536179 128.0
180.688644 60.0
180.803711 120.0
180.884003 184.0
181.058044 260.0
181.101837 2304.0
181.172958 40.0
181.367249 176.0
181.492157 180.0
181.53775 112.0
181.607483 152.0
181.809784 228.0
181.848953 144.0
181.972443 160.0
182.066879 168.0
182.105392 1416.0
182.149689 100.0
182.314468 184.0
182.43454 112.0
182.50444 116.0
182.5905 168.0
182.641602 220.0
182.778809 116.0
182.861053 204.0
182.972595 52.0
183.079727 1212.0
183.116791 5360.0
183.232132 120.0
183.329926 116.0
183.357803 172.0
183.400925 100.0
183.430573 92.0
183.452133 160.0
183.479172 88.0
183.541107 68.0
183.657074 128.0
183.708328 68.0
183.746094 64.0
183.913727 172.0
183.9431 136.0
184.120605 1416.0
184.307098 216.0
184.523941 56.0
184.564499 68.0
184.632095 224.0
184.672668 132.0
184.795334 92.0
184.853928 212.0
185.056946 184.0
185.094116 2732.0
185.131424 4244.0
185.224167 48.0
185.254639 56.0
185.31601 80.0
185.377701 96.0
185.509384 64.0
185.552765 132.0
185.596146 48.0
185.71817 92.0
185.763351 92.0
185.951523 76.0
186.015976 176.0
186.051956 148.0
186.101486 716.0
186.134979 684.0
186.212158 56.0
186.388748 88.0
186.440384 64.0
186.486588 148.0
186.527359 40.0
186.584442 116.0
186.672852 124.0
186.704086 84.0
186.902664 160.0
186.973419 132.0
186.99791 164.0
187.041473 288.0
187.075348 456.0
187.111053 4872.0
187.145996 760.0
187.319214 124.0
187.361862 128.0
187.406403 100.0
187.785324 28.0
187.976288 144.0
188.069092 60.0
188.11438 904.0
188.148254 172.0
188.385849 44.0
188.479675 176.0
188.585312 96.0
188.691925 60.0
188.722 148.0
189.039307 124.0
189.06395 88.0
189.089859 164.0
189.126022 2228.0
189.15892 212.0
189.321289 184.0
189.400711 36.0
189.513031 88.0
189.880371 84.0
190.058685 44.0
190.093033 284.0
190.127884 304.0
190.330429 172.0
190.430862 112.0
190.486252 108.0
190.552902 156.0
190.599609 124.0
190.618851 80.0
190.706787 140.0
190.734283 56.0
191.085083 528.0
191.108978 300.0
191.144974 388.0
191.714111 168.0
191.813324 32.0
191.868469 104.0
192.031158 172.0
192.096268 432.0
192.191162 128.0
192.21875 124.0
192.414734 208.0
192.467194 120.0
192.585938 208.0
192.992188 116.0
193.014297 132.0
193.033737 132.0
193.100571 2496.0
193.177475 48.0
193.266022 188.0
193.470825 184.0
193.864136 136.0
193.894623 144.0
193.927887 40.0
194.016586 132.0
194.063721 156.0
194.10289 792.0
194.127502 248.0
194.180191 92.0
194.324448 112.0
194.746399 180.0
194.913086 160.0
194.949219 228.0
195.08046 376.0
195.115387 3564.0
195.224426 28.0
195.330124 100.0
195.524887 100.0
195.810349 68.0
196.08757 416.0
196.121979 1228.0
196.201767 72.0
196.631348 180.0
196.67041 140.0
196.762543 288.0
196.782074 136.0
196.927292 264.0
196.971985 116.0
197.094803 1524.0
197.130951 4336.0
197.370911 216.0
197.673752 68.0
197.799698 88.0
197.822083 152.0
197.847275 212.0
197.880875 88.0
197.939682 68.0
197.959274 168.0
197.978882 224.0
198.020889 128.0
198.102402 1040.0
198.137131 1060.0
198.446838 172.0
198.50853 176.0
198.631943 92.0
198.716095 52.0
198.839569 120.0
198.884476 128.0
199.019226 28.0
199.073395 304.0
199.111359 2208.0
199.146301 2012.0
199.274368 48.0
199.30574 32.0
199.325409 204.0
199.474365 136.0
199.499664 68.0
199.54184 188.0
199.567139 64.0
199.875137 80.0
199.960983 228.0
200.025711 80.0
200.115982 716.0
200.15329 424.0
200.699051 128.0
200.741348 164.0
201.057312 88.0
201.093872 740.0
201.125778 1676.0
201.159256 332.0
201.274673 152.0
201.442993 248.0
201.685745 72.0
201.735214 124.0
201.845474 200.0
202.040634 76.0
202.074585 104.0
202.098358 228.0
202.133301 640.0
202.21608 116.0
202.309479 64.0
202.507706 124.0
202.527527 200.0
202.813705 144.0
202.842056 168.0
202.966797 116.0
203.104538 788.0
203.141235 284.0
203.207901 84.0
203.337494 108.0
203.4832 88.0
203.642227 60.0
203.730286 56.0
204.005951 92.0
204.098389 200.0
204.14119 252.0
204.284637 76.0
204.367142 208.0
204.517975 220.0
204.623169 88.0
204.782776 136.0
205.101181 488.0
205.116486 396.0
205.15181 292.0
205.398453 184.0
205.469772 144.0
205.532547 128.0
205.626709 120.0
205.733078 212.0
205.835114 136.0
206.10791 764.0
206.166489 172.0
206.363724 72.0
206.601105 68.0
206.62114 188.0
206.761353 168.0
206.840805 152.0
207.039047 124.0
207.080124 340.0
207.114517 2452.0
207.29837 100.0
207.42012 104.0
207.511856 176.0
207.54277 128.0
207.586411 116.0
207.67244 76.0
207.69252 172.0
207.942154 72.0
208.079941 128.0
208.121887 1832.0
208.217773 64.0
208.358521 112.0
208.378632 68.0
208.484955 128.0
208.740799 52.0
208.760941 136.0
208.795441 56.0
209.093796 812.0
209.131668 3108.0
209.252975 124.0
209.448807 84.0
209.49202 128.0
209.690842 92.0
209.762894 112.0
209.881256 144.0
210.007996 48.0
210.104111 812.0
210.137436 1916.0
210.243454 88.0
210.481293 100.0
210.744141 196.0
211.036072 136.0
211.070267 304.0
211.109787 2824.0
211.145325 1496.0
211.215378 120.0
211.247513 72.0
211.290588 76.0
211.359161 108.0
211.403427 40.0
211.432373 80.0
211.481567 32.0
211.510513 104.0
211.666855 56.0
211.776917 68.0
212.0 92.0
212.084045 112.0
212.117203 1116.0
212.145508 644.0
212.185501 60.0
212.342087 104.0
212.388504 64.0
212.411713 100.0
212.487137 196.0
212.519043 48.0
212.887711 100.0
212.922546 112.0
212.977737 76.0
213.094849 128.0
213.124695 5232.0
213.161453 840.0
213.188339 264.0
213.265396 200.0
213.317719 68.0
213.351425 136.0
213.378769 48.0
213.416565 40.0
213.518341 52.0
213.589859 68.0
213.660873 148.0
213.745255 120.0
213.777267 68.0
213.803452 232.0
213.876221 72.0
214.010284 164.0
214.131424 1100.0
214.164795 340.0
214.214005 72.0
214.237305 64.0
214.304321 112.0
214.336365 60.0
214.362595 60.0
214.715347 212.0
214.744507 160.0
214.823273 56.0
214.945801 168.0
215.098251 160.0
215.141113 1432.0
215.237717 148.0
215.261078 52.0
215.412949 84.0
215.488907 44.0
215.620407 156.0
215.822113 236.0
215.865967 36.0
215.886444 56.0
216.012207 136.0
216.061951 140.0
216.099731 140.0
216.1483 580.0
216.185379 172.0
216.258011 152.0
216.278488 88.0
216.404373 40.0
216.536148 44.0
216.608612 152.0
216.662109 68.0
216.744156 112.0
216.79982 112.0
216.878967 44.0
216.984497 108.0
217.06073 76.0
217.118805 560.0
217.158127 392.0
217.187515 216.0
217.263107 188.0
217.315918 48.0
217.439163 152.0
217.47438 208.0
217.77388 72.0
217.812057 220.0
218.005981 168.0
218.110855 1016.0
218.161621 184.0
218.464661 160.0
218.535263 148.0
218.82077 120.0
219.026917 172.0
219.1129 540.0
219.133484 472.0
219.504364 56.0
219.760986 236.0
220.129181 636.0
220.333755 252.0
220.638168 144.0
220.839249 172.0
220.922073 152.0
221.064102 60.0
221.132172 2588.0
221.200241 164.0
221.226883 232.0
221.286102 40.0
221.315704 112.0
221.406677 172.0
221.466736 88.0
221.543762 32.0
221.671173 164.0
222.049911 180.0
222.108734 284.0
222.139191 340.0
222.368103 156.0
222.430435 116.0
222.572937 156.0
222.789749 156.0
222.917511 56.0
223.036392 76.0
223.107468 1172.0
223.146545 3620.0
223.357544 64.0
223.644638 84.0
223.762268 124.0
224.119797 628.0
224.149673 1172.0
224.197159 120.0
224.280609 184.0
224.656342 108.0
224.718994 72.0
224.945816 40.0
225.038361 128.0
225.127243 3452.0
225.164749 1404.0
225.22052 160.0
225.268326 28.0
225.298187 124.0
225.611984 80.0
225.71962 140.0
225.743546 72.0
226.132797 1652.0
226.165787 496.0
226.204315 32.0
226.349716 148.0
226.464813 48.0
226.665543 140.0
226.731476 116.0
226.863358 168.0
227.040268 156.0
227.140945 2692.0
227.17569 476.0
227.333511 160.0
227.376282 36.0
227.405258 104.0
227.460724 88.0
227.509277 104.0
227.547379 180.0
227.691513 44.0
227.781631 100.0
228.015991 40.0
228.082108 220.0
228.146255 804.0
228.265518 92.0
228.358734 136.0
228.491104 76.0
228.626511 140.0
228.857285 132.0
229.02092 124.0
229.11879 272.0
229.157059 1544.0
229.252899 64.0
229.478973 76.0
229.656906 148.0
229.828857 172.0
229.877136 184.0
229.907318 76.0
229.955612 108.0
229.997864 136.0
230.119125 284.0
230.165405 420.0
230.27565 136.0
230.314911 192.0
230.384399 180.0
230.677521 188.0
231.136276 1276.0
231.168716 320.0
231.44902 40.0
231.630737 84.0
231.773132 40.0
231.967087 88.0
232.124908 372.0
232.170242 132.0
232.570724 176.0
232.85614 68.0
233.099548 192.0
233.131546 1156.0
233.232895 152.0
233.326157 112.0
233.403152 76.0
233.710373 60.0
233.956894 152.0
234.057373 172.0
234.10202 388.0
234.139099 396.0
234.267517 132.0
234.319321 200.0
234.523483 128.0
234.65152 64.0
235.041946 164.0
235.11055 1180.0
235.146988 1432.0
235.71373 112.0
235.875717 164.0
236.086685 152.0
236.116272 456.0
236.149826 472.0
236.447678 124.0
236.47522 232.0
236.518082 140.0
236.934555 84.0
237.124283 864.0
237.158218 320.0
237.308472 44.0
237.339127 152.0
237.418854 88.0
237.713364 132.0
237.811569 116.0
237.860687 84.0
237.94664 48.0
238.017258 168.0
238.041824 204.0
238.134171 408.0
238.166763 144.0
238.530334 52.0
238.822449 96.0
238.865509 132.0
238.908585 60.0
238.97319 68.0
239.107285 964.0
239.140839 5236.0
239.174652 804.0
239.240952 80.0
239.317917 84.0
239.431854 112.0
239.465729 68.0
239.50885 76.0
239.530426 92.0
239.601273 48.0
239.672134 68.0
239.801575 88.0
239.826675 56.0
239.997406 152.0
240.054367 176.0
240.105652 268.0
240.147247 1768.0
240.25795 100.0
240.319656 176.0
240.365936 60.0
240.39679 72.0
240.43074 164.0
240.551117 92.0
240.674606 76.0
240.717834 224.0
240.76416 136.0
240.870087 164.0
241.017471 300.0
241.068466 96.0
241.120453 420.0
241.15802 12124.0
241.255463 92.0
241.276505 60.0
241.349854 68.0
241.394592 60.0
241.433105 88.0
241.468811 92.0
241.502838 76.0
241.530685 44.0
241.606216 124.0
241.663712 44.0
241.707031 76.0
241.753448 60.0
241.793671 116.0
241.855576 132.0
241.936066 132.0
241.970123 72.0
242.022751 60.0
242.125305 388.0
242.160614 3140.0
242.202377 64.0
242.227158 64.0
242.273621 36.0
242.394455 172.0
242.416153 52.0
242.443314 168.0
242.52153 140.0
242.589722 36.0
242.704437 76.0
242.803665 44.0
242.989792 236.0
243.08287 164.0
243.14003 1336.0
243.172806 1400.0
243.234955 100.0
243.65419 60.0
243.813568 192.0
243.936996 52.0
243.98674 76.0
244.124985 324.0
244.174805 188.0
244.216843 68.0
244.294617 136.0
244.652496 40.0
244.745895 192.0
244.792603 108.0
245.128754 308.0
245.150497 720.0
245.186401 148.0
245.955521 32.0
246.158859 156.0
246.423965 224.0
246.553757 112.0
246.739639 68.0
247.100433 132.0
247.146255 888.0
247.236984 116.0
247.330887 156.0
247.359055 80.0
247.53125 60.0
247.725433 212.0
247.828827 72.0
248.113983 264.0
248.151733 880.0
248.239456 80.0
248.879593 132.0
248.936111 140.0
249.046036 52.0
249.068024 160.0
249.124893 436.0
249.161148 1632.0
249.19426 356.0
249.379089 64.0
249.60231 212.0
249.753265 120.0
249.78157 36.0
249.809891 40.0
249.995926 124.0
250.074203 144.0
250.129715 556.0
250.16922 668.0
250.937347 100.0
250.965729 100.0
251.041412 80.0
251.142029 3228.0
251.177963 796.0
251.21489 52.0
251.268509 92.0
251.315369 160.0
251.323166 136.0
251.473633 96.0
251.688293 32.0
251.83989 76.0
251.899902 48.0
252.0168 44.0
252.057877 56.0
252.14505 1148.0
252.182648 388.0
252.269638 76.0
252.57637 64.0
252.782013 92.0
253.117584 248.0
253.15657 2400.0
253.194016 576.0
253.253738 120.0
253.370956 52.0
253.443817 52.0
253.62764 168.0
253.675186 52.0
253.788086 144.0
254.062073 76.0
254.09697 116.0
254.123001 176.0
254.160431 428.0
254.201691 148.0
254.363556 224.0
254.785919 128.0
255.011536 172.0
255.04332 140.0
255.135391 316.0
255.17662 320.0
255.816299 60.0
255.946838 44.0
256.122009 128.0
256.147491 44.0
256.184357 284.0
256.552185 60.0
256.709473 96.0
256.746704 100.0
257.144379 484.0
257.179047 124.0
257.185394 160.0
257.215729 152.0
257.244446 148.0
257.934448 44.0
258.014374 188.0
258.142426 672.0
258.19342 180.0
258.907104 120.0
259.136993 156.0
259.170654 212.0
259.371674 72.0
260.106262 92.0
260.145813 112.0
260.183289 64.0
260.620117 40.0
260.89328 52.0
261.155945 872.0
261.424011 76.0
261.791016 72.0
262.131165 504.0
262.161621 252.0
262.290405 36.0
262.354858 168.0
262.425812 44.0
262.854797 148.0
263.139862 512.0
263.1763 1052.0
263.287384 180.0
263.481201 192.0
263.998352 144.0
264.139679 768.0
264.179321 148.0
264.183441 280.0
264.291931 112.0
264.347748 184.0
264.43512 56.0
264.480438 128.0
264.577545 128.0
265.156464 960.0
265.433502 44.0
265.646973 100.0
266.062378 72.0
266.121155 120.0
266.164856 2116.0
266.234467 96.0
266.286438 156.0
266.729492 132.0
266.760834 48.0
267.043732 120.0
267.09436 248.0
267.140991 852.0
267.172119 5972.0
267.34201 112.0
267.427673 36.0
267.46347 36.0
267.522064 60.0
267.587189 68.0
267.766266 48.0
267.945435 84.0
268.061798 84.0
268.17865 2720.0
268.311554 108.0
268.458862 164.0
268.496307 28.0
268.5224 84.0
268.564819 116.0
268.796448 200.0
269.152283 1032.0
269.187927 2360.0
269.367798 68.0
269.397217 76.0
269.521362 64.0
269.596527 48.0
269.619385 180.0
269.642273 60.0
269.674957 52.0
269.7146 64.0
270.014984 124.0
270.116394 104.0
270.155457 272.0
270.191681 744.0
271.172729 420.0
271.301849 76.0
271.383789 104.0
271.859436 104.0
272.010406 116.0
272.187714 140.0
272.217255 172.0
272.397339 164.0
272.927032 184.0
273.019104 36.0
273.16272 456.0
273.601532 108.0
274.163147 120.0
274.217499 132.0
274.260376 188.0
275.111237 144.0
275.14267 140.0
275.184052 116.0
275.306244 60.0
275.362396 184.0
275.788605 144.0
275.841492 208.0
276.006805 160.0
276.153198 928.0
276.268097 56.0
276.324341 96.0
276.940063 228.0
277.052704 124.0
277.147247 200.0
277.38739 52.0
277.679169 168.0
278.15097 148.0
278.17691 108.0
278.246613 36.0
278.791382 112.0
279.139771 408.0
279.176727 1212.0
279.253479 220.0
280.141235 104.0
280.182922 460.0
280.745544 48.0
280.949005 88.0
281.109161 212.0
281.152405 1548.0
281.187317 3392.0
281.279388 52.0
281.566528 44.0
281.770294 80.0
281.974121 60.0
282.066589 60.0
282.1539 800.0
282.19339 632.0
282.555969 76.0
283.168182 472.0
283.207886 140.0
283.691284 104.0
283.872345 168.0
284.123901 136.0
284.171722 656.0
284.291656 204.0
284.432648 92.0
284.513214 108.0
284.556854 64.0
285.180817 1076.0
285.238831 88.0
285.803833 64.0
286.150513 132.0
286.189911 824.0
286.473816 64.0
286.571533 52.0
286.595093 56.0
286.638916 96.0
287.06366 136.0
287.158081 128.0
287.194824 456.0
287.819519 40.0
287.941101 76.0
288.16806 108.0
288.204071 152.0
289.17099 244.0
289.550964 164.0
290.157532 156.0
290.347412 92.0
290.374542 88.0
290.656128 196.0
290.895599 192.0
291.171936 3056.0
291.235321 132.0
291.280823 32.0
291.409912 72.0
291.645905 108.0
291.756592 40.0
291.810974 56.0
292.175629 616.0
292.576477 228.0
293.178253 180.0
293.77948 88.0
293.892059 196.0
294.159637 844.0
294.250458 108.0
294.578308 52.0
295.163879 136.0
295.251648 44.0
296.177948 164.0
296.511536 156.0
296.85437 272.0
296.919525 96.0
297.13562 120.0
297.1828 1848.0
297.225677 180.0
298.059265 84.0
298.188141 596.0
298.255157 64.0
298.987732 124.0
299.121979 68.0
299.200378 532.0
299.273468 80.0
299.369873 92.0
299.70401 44.0
300.169128 112.0
300.210083 220.0
300.583313 132.0
300.628174 28.0
300.87323 84.0
300.911224 92.0
301.000977 68.0
301.178101 560.0
302.190033 144.0
302.35614 52.0
303.204651 180.0
303.957153 40.0
304.168884 112.0
304.467468 240.0
305.17984 128.0
305.920898 92.0
305.948761 160.0
306.293488 48.0
306.387543 196.0
307.17334 188.0
307.416168 160.0
308.233307 180.0
308.256897 108.0
308.46048 108.0
308.502411 44.0
309.069 128.0
309.107513 244.0
309.183136 7364.0
309.34201 76.0
309.394501 44.0
309.439819 72.0
309.458557 96.0
309.583588 72.0
309.652313 84.0
309.695679 132.0
309.776245 40.0
309.835785 56.0
309.861572 100.0
309.905853 124.0
310.014496 56.0
310.185211 1816.0
310.442169 56.0
310.547394 84.0
310.600006 136.0
310.701752 40.0
310.726288 96.0
311.098297 212.0
311.186096 376.0
311.249268 52.0
311.424866 48.0
311.480865 72.0
311.488708 68.0
311.600525 68.0
311.797302 68.0
311.916809 80.0
312.1698 836.0
312.335236 136.0
312.370422 60.0
312.430237 48.0
312.539307 104.0
313.178345 280.0
313.401978 64.0
313.463837 100.0
313.609894 68.0
313.791718 132.0
313.976562 68.0
314.114136 40.0
315.193329 584.0
315.420654 72.0
316.198364 324.0
316.786591 32.0
317.165771 132.0
317.201935 412.0
317.63382 68.0
317.740234 216.0
318.155487 100.0
318.20163 56.0
318.638489 40.0
318.698883 84.0
318.844574 44.0
319.217865 148.0
320.25351 80.0
321.454987 64.0
323.002014 52.0
325.169769 152.0
326.157166 204.0
326.412781 124.0
326.578186 64.0
326.833618 76.0
327.096344 164.0
327.125153 124.0
327.193878 10168.0
327.256348 136.0
327.369995 72.0
327.48999 112.0
327.578888 52.0
327.668945 120.0
327.766235 92.0
327.795074 100.0
327.867126 32.0
327.978882 172.0
328.020416 40.0
328.123077 48.0
328.196564 2592.0
328.245667 60.0
328.281708 64.0
328.332214 56.0
328.440399 44.0
328.50174 76.0
328.542847 84.0
328.754303 40.0
328.812042 32.0
328.880615 92.0
328.905884 128.0
328.938385 108.0
329.183319 256.0
329.205841 900.0
329.306671 68.0
329.400604 88.0
329.566772 112.0
329.946289 48.0
330.040283 72.0
330.159637 144.0
330.196655 192.0
330.318756 48.0
330.347717 116.0
330.391113 80.0
330.550323 72.0
330.644409 44.0
330.796448 84.0
331.01004 88.0
331.118683 64.0
331.227356 32.0
331.412109 148.0
331.981232 172.0
332.434692 148.0
332.580444 76.0
332.899353 96.0
333.070068 84.0
333.211731 176.0
334.051544 92.0
334.990723 92.0
338.032104 80.0
338.240723 64.0
339.237122 100.0
340.238647 120.0
340.488342 120.0
340.694031 100.0
342.084137 108.0
343.189392 104.0
344.418304 100.0
345.14267 88.0
345.203888 5324.0
345.331268 80.0
345.464447 72.0
345.490356 92.0
345.531036 108.0
345.919617 100.0
346.012177 48.0
346.138062 132.0
346.204803 1440.0
346.277557 72.0
346.519562 128.0
346.749329 48.0
346.96051 76.0
347.206451 132.0
347.249847 88.0
347.921478 80.0
348.021729 124.0
348.058868 76.0
348.199982 44.0
348.237122 88.0
348.549194 104.0
349.192322 116.0
349.355988 68.0
350.186066 108.0
350.569824 44.0
351.233459 124.0
356.456268 104.0
356.85849 120.0
357.234558 92.0
359.687744 116.0
361.180328 132.0
363.203156 128.0
363.590057 100.0
364.216522 344.0
365.140137 136.0
365.334137 92.0
365.665161 88.0
367.47525 40.0
369.377777 36.0
370.434326 88.0
372.213898 128.0
380.966034 48.0
382.509888 60.0
383.132965 116.0
383.343353 92.0
385.64209 72.0
387.046539 68.0
387.195343 40.0
387.255615 180.0
389.340607 112.0
393.275879 164.0
395.293396 100.0
397.691101 100.0
398.211243 116.0
401.267395 108.0
404.243195 36.0
404.839661 40.0
405.456635 72.0
405.861511 64.0
409.055511 124.0
410.570496 100.0
413.01001 64.0
415.026825 96.0
417.922882 84.0
422.226593 160.0
422.868927 92.0
423.298798 100.0
424.196045 128.0
425.2995 172.0
426.272858 100.0
427.811127 28.0
432.558472 84.0
434.298798 68.0
435.340546 44.0
436.288452 156.0
438.860901 80.0
443.513885 72.0
444.503662 44.0
445.889526 140.0
448.322052 56.0
453.289032 224.0
454.292358 44.0
460.016083 76.0
464.157623 124.0
465.135803 88.0
468.055023 64.0
468.619293 112.0
470.456543 36.0
471.314819 324.0
472.063873 44.0
473.418396 112.0
473.721558 52.0
474.965668 32.0
482.346497 56.0
482.473297 48.0
482.569458 52.0
485.20517 88.0
488.334351 160.0
489.320801 436.0
490.312531 308.0
490.340118 172.0
492.152496 80.0
492.969696 136.0
493.305603 180.0
494.371552 52.0
498.091461 80.0
501.597931 148.0
506.150543 84.0
507.351318 76.0
509.330292 52.0
512.966187 92.0
517.950439 124.0
520.508362 68.0
530.385803 64.0
535.439941 76.0
538.262268 92.0
539.722412 44.0
541.328125 124.0
552.667542 88.0
553.734924 48.0
558.038086 56.0
569.730835 92.0
572.551514 60.0
572.622925 84.0
575.221619 80.0
582.341797 72.0
590.424377 108.0
592.995239 116.0
596.013733 60.0
600.751038 88.0
602.156799 92.0
608.159607 64.0
609.475708 64.0
646.6474 116.0
650.286499 96.0
679.616516 44.0
684.341248 152.0
693.944641 184.0
705.183899 68.0
708.49115 152.0
709.074036 144.0
733.512512 76.0
734.828369 196.0
749.026733 76.0
754.986938 68.0
759.439697 112.0
760.838989 96.0
767.011292 128.0
767.512939 96.0
773.14209 72.0
775.795227 96.0
778.219727 148.0
778.447388 192.0
778.941711 48.0
779.152832 80.0
783.98822 184.0
784.450806 72.0
787.33551 212.0
797.594482 128.0
812.225159 68.0
821.451843 60.0
826.65686 72.0
832.360596 156.0
836.448364 204.0
836.718933 200.0
839.807678 180.0
847.821045 136.0
851.505066 172.0
852.12085 108.0
853.515808 116.0
859.077942 68.0
861.407166 172.0
862.83313 52.0
866.719543 164.0
887.722961 132.0
889.734436 80.0
901.83905 40.0
902.753784 44.0
908.593872 208.0
908.683838 92.0
920.584106 140.0
928.894226 248.0
933.187927 224.0
935.895569 36.0
937.838928 180.0
941.725647 132.0
944.561829 52.0
954.571228 84.0
957.161926 188.0
957.642273 76.0
958.44928 212.0
958.621826 80.0
961.495667 236.0
961.60675 100.0
962.656311 180.0
963.156555 148.0
964.454163 176.0
966.457886 180.0
971.017334 168.0
973.77301 152.0
973.828918 68.0
977.198242 224.0
978.144226 208.0
983.798279 160.0
985.115967 164.0
986.272034 92.0
989.199463 84.0
1000.014771 56.0
1005.832642 164.0
1007.164978 136.0
1010.243469 164.0
1010.351013 100.0
1011.882629 116.0
1012.262512 148.0
1012.990906 40.0
1013.624451 104.0
1021.268311 212.0
1022.050781 148.0
1022.184387 140.0
1029.036621 132.0
1031.834961 176.0
1032.058716 72.0
1032.807007 184.0
1035.117432 96.0
1036.110229 164.0
1037.122681 100.0
1037.289429 184.0
1044.101807 124.0
1045.073242 160.0
1049.743286 144.0
1051.723999 104.0
1052.330811 32.0
1055.121948 136.0
1057.709595 240.0
1061.207886 112.0
1061.869385 192.0
1065.718872 164.0
1065.770874 148.0
1066.27124 180.0
1073.295532 148.0
1073.843262 132.0
1078.701294 72.0
1079.727905 88.0
1079.904419 188.0
1081.193359 176.0
1081.625366 148.0
1089.350098 144.0
1089.573486 152.0
1090.624878 112.0
1091.302002 104.0
1093.492676 168.0
1093.657227 160.0
1093.74939 136.0
1094.480103 164.0
1095.085938 208.0
1097.583618 68.0
1099.609009 176.0
1106.781738 144.0
1110.824463 40.0
1114.56897 132.0
1114.668701 120.0
1115.413086 188.0
1118.819092 60.0
1118.876099 136.0
1122.923828 184.0
1124.907227 220.0
1126.601807 164.0
1127.323486 120.0
1127.396973 64.0
1128.112183 68.0
1128.994751 164.0
1129.703735 152.0
1131.524048 60.0
1134.303467 204.0
1134.35791 132.0
1134.793701 132.0
1135.786255 28.0
1136.678467 212.0
1137.846436 88.0
1146.153076 152.0
1149.592163 76.0
1152.874268 36.0
1153.813843 84.0
1155.680542 52.0
1156.154297 208.0
1157.562378 144.0
1158.415771 156.0
1158.53772 144.0
1159.811646 192.0
1160.394653 208.0
1161.608643 116.0
1164.228516 52.0
1164.349365 168.0
1166.124023 108.0
1166.74939 176.0
1167.490601 144.0
1167.830688 236.0
1171.969727 180.0
1174.117065 172.0
1178.90271 68.0
1180.584473 192.0
1183.657104 152.0
1184.300903 104.0
1184.800903 292.0
1185.739746 144.0
1185.794556 172.0
1186.075562 128.0
1186.630859 188.0
1190.803101 132.0
1191.448853 40.0
1191.957275 180.0
1192.926392 136.0
1196.145752 220.0
1197.550415 268.0
1198.287476 128.0
1200.258789 144.0
1202.02478 140.0
1207.503052 116.0
1207.869751 188.0
1211.77417 188.0
1212.820679 160.0
1212.959351 144.0
1213.021729 180.0
1216.566528 152.0
1217.503906 208.0
1217.74707 144.0
1217.913696 184.0
1219.685547 140.0
1221.110962 156.0
1224.681519 152.0
1227.036987 172.0
1227.706421 136.0
1228.27832 208.0
1233.697266 132.0
1234.557373 104.0
1239.751831 152.0
1240.782227 56.0
1242.07959 244.0
1242.226929 172.0
1243.384644 128.0
1243.588135 180.0
1243.686401 176.0
1244.023438 160.0
1244.479736 228.0
1245.336426 220.0
1245.856323 52.0
1246.256714 60.0
1248.590576 196.0
1252.997192 128.0
1253.384644 188.0
1253.687744 160.0
1253.828613 68.0
1254.145752 140.0
1254.322021 48.0
1254.618164 152.0
1254.815552 244.0
1255.908569 180.0
1256.197754 212.0
1256.635132 168.0
1256.69873 108.0
1257.637329 192.0
1257.997314 112.0
1258.251465 160.0
1260.829712 28.0
1262.873047 168.0
1263.035645 196.0
1263.092285 168.0
1263.424805 184.0
1264.740967 204.0
1265.165771 204.0
1265.264771 148.0
1266.171265 164.0
1273.440918 128.0
1274.556274 104.0
1275.1604 176.0
1276.461426 104.0
1276.866699 152.0
1277.613647 168.0
1280.624756 48.0
1280.866943 184.0
1281.835815 168.0
1282.584229 204.0
1282.997681 112.0
1284.373901 136.0
1286.885986 92.0
1288.300171 200.0
1290.47998 164.0
1290.701538 172.0
1290.923218 112.0
1291.295166 160.0
1292.539917 108.0
1292.833374 172.0
1293.033691 188.0
1293.168457 116.0
1296.994629 140.0
1297.080688 180.0
1298.708374 160.0
1299.992554 136.0
1300.839478 156.0
1302.074463 156.0
1302.433594 148.0
1302.864624 212.0
1304.079102 36.0
1304.618164 148.0
1306.315308 160.0
1307.781982 160.0
1308.402344 196.0
1308.546387 136.0
1309.288086 128.0
1311.687378 160.0
1314.49292 204.0
1315.06311 48.0
1316.066528 216.0
1317.157104 56.0
1320.077026 68.0
1321.849365 148.0
1324.477417 176.0
1324.528076 192.0
1325.238159 144.0
1328.098267 152.0
1328.464355 160.0
1329.843018 212.0
1331.723633 104.0
1332.282959 164.0
1332.842407 124.0
1333.416504 208.0
1333.583618 156.0
1333.87439 176.0
1334.790527 204.0
1335.445068 184.0
1336.077881 164.0
1336.88562 136.0
1336.95105 196.0
1337.708008 200.0
1337.766235 140.0
1337.933716 168.0
1338.159424 168.0
1338.268677 136.0
1338.669067 264.0
1339.098755 160.0
1339.550415 152.0
1341.189941 184.0
1342.283569 184.0
1344.880737 164.0
1344.931885 204.0
1345.523193 208.0
1349.826782 208.0
1350.287598 148.0
1350.938599 112.0
1352.533813 196.0
1353.229248 180.0
1353.668579 160.0
1354.232544 140.0
1354.862549 176.0
1356.210938 128.0
1356.262207 192.0
1356.562744 200.0
1358.821533 136.0
1359.568237 184.0
1360.935425 164.0
1361.230713 160.0
1364.587036 148.0
1364.667969 208.0
1365.807861 232.0
1367.242554 156.0
1367.669434 120.0
1367.720947 208.0
1368.229004 80.0
1368.619141 232.0
1368.781128 136.0
1369.532349 120.0
1370.342773 252.0
1370.504761 136.0
1370.578491 96.0
1371.470215 196.0
1373.365234 184.0
1374.213623 224.0
1374.449707 132.0
1374.552979 132.0
1375.447144 192.0
1375.999756 224.0
1376.317261 164.0
1376.523926 112.0
1377.594971 184.0
1378.203857 156.0
1378.607178 184.0
1378.806763 224.0
1379.656738 192.0
1380.292603 76.0
1381.283691 60.0
1382.452759 192.0
1383.237305 184.0
1384.466309 176.0
1384.866333 116.0
1385.421875 184.0
1386.066406 76.0
1387.274536 148.0
1387.697144 120.0
1388.438721 140.0
1389.276855 180.0
1390.872314 128.0
1391.518188 228.0
1393.070312 168.0
1393.820801 120.0
1394.638306 40.0
1395.433716 124.0
1395.798096 192.0
1396.288818 120.0
1397.687378 128.0
1398.200928 220.0
1399.049438 120.0
1399.875977 48.0
1402.081055 56.0
1402.237549 128.0
1404.138794 160.0
1404.280518 208.0
1405.235352 124.0
1405.548706 160.0
1406.615967 200.0
1406.668213 208.0
1406.74292 136.0
1407.243164 136.0
1408.258789 172.0
1409.125244 172.0
1409.327026 220.0
1410.066895 184.0
1411.061035 172.0
1411.891113 128.0
1412.624146 160.0
1413.043091 188.0
1413.911011 224.0
1415.385864 136.0
1415.655396 84.0
1417.153564 136.0
1417.45813 208.0
1417.835449 124.0
1418.405151 140.0
1418.959839 152.0
1419.822144 152.0
1420.504761 52.0
1421.840332 36.0
1423.236572 164.0
1423.401855 128.0
1423.544556 128.0
1423.709717 128.0
1424.002563 180.0
1425.452515 196.0
1427.294189 68.0
1427.7229 116.0
1428.783447 128.0
1428.948975 100.0
1429.031738 232.0
1429.234863 184.0
1431.380249 120.0
1432.216187 64.0
1433.014771 120.0
1433.278442 232.0
1434.565063 148.0
1434.619995 244.0
1435.019653 120.0
1436.595825 184.0
1436.671265 188.0
1439.403564 64.0
1439.713135 152.0
1442.145996 132.0
1443.295044 188.0
1444.384155 48.0
1444.520264 144.0
1444.648926 156.0
1445.102783 132.0
1445.708252 76.0
1446.291016 188.0
1447.070679 120.0
1447.759766 104.0
1449.100586 180.0
1449.520752 212.0
1450.63147 92.0
1451.169678 176.0
1451.814331 180.0
1451.927979 104.0
1452.838257 96.0
1452.98999 168.0
1454.067505 156.0
1454.143433 64.0
1454.249634 72.0
1455.532715 144.0
1455.714966 136.0
1456.709961 188.0
1456.785889 204.0
1457.150513 40.0
1457.583618 168.0
1457.667236 140.0
1459.415527 180.0
1460.404175 236.0
1460.684692 156.0
1461.400757 64.0
1462.588013 36.0
1463.250244 120.0
1463.615723 120.0
1464.887695 220.0
1465.60376 148.0
1465.71814 124.0
1465.885742 248.0
1465.992432 164.0
1466.510742 76.0
1466.594482 84.0
1466.785034 140.0
1466.85376 212.0
1467.013794 188.0
1467.158691 172.0
1468.52356 120.0
1468.958374 88.0
1469.187256 172.0
1470.453979 144.0
1471.522705 132.0
1471.58374 196.0
1472.84375 160.0
1473.982178 204.0
1474.272583 172.0
1474.51709 156.0
1474.799927 180.0
1475.686646 168.0
1476.114868 100.0
1476.351929 200.0
1476.660034 204.0
1477.935425 272.0
1479.121704 204.0
1479.450806 164.0
1479.581055 176.0
1480.31604 144.0
1481.203125 268.0
1481.832764 116.0
1482.300049 152.0
1482.859497 144.0
1483.319458 60.0
1483.551758 204.0
1483.856079 120.0
1484.438843 80.0
1485.712036 144.0
1485.995972 168.0
1486.794067 124.0
1486.924438 212.0
1489.0896 144.0
1489.711792 232.0
1489.988403 100.0
1490.42627 148.0
1492.040405 168.0
1492.717041 140.0
1495.217285 124.0
1495.979248 260.0
1496.202515 332.0
1496.903198 128.0
1497.734985 208.0
1497.873657 148.0
1498.151123 168.0
1498.320435 180.0
1499.871338 208.0
1500.370483 132.0
1500.594116 152.0
1501.087524 120.0
1501.380615 156.0
1501.650513 160.0
1501.858765 176.0
1502.946533 156.0
1503.309204 152.0
1503.841797 136.0
1504.219971 168.0
