>compound MLS001141257-01!1-[2-[[(2Z)-2-[(2,5-dimethoxyphenyl)methylidene]-3-oxo-1-benzofuran-6-yl]oxy]acetyl]piperidine-4-carboxylic acid
>formula C25H25NO8
>ionization [M+H]+
>parentmass 468.164093
#inchi InChI=1S/C25H25NO8/c1-31-17-4-6-20(32-2)16(11-17)12-22-24(28)19-5-3-18(13-21(19)34-22)33-14-23(27)26-9-7-15(8-10-26)25(29)30/h3-6,11-13,15H,7-10,14H2,1-2H3,(H,29,30)/b22-12-
#inchikey LRPGQHXRHMSCMB
#Ion_Source LC-ESI
#Instrument qTof
#Compound_Source NIH Natural Product Library
#PI Dorrestein
#Data_Collector VVP/LMS
#Scan -1
#Precursor_MZ 468.166
#ExactMass 467.158
#Charge 1
#CAS_Number N/A
#Pubmed_ID N/A
#Smiles COc1ccc(OC)c(/C=C/2\Oc3cc(OCC(=O)N4CCC(CC4)C(=O)O)ccc3C2=O)c1
#INCHI_AUX N/A
#Library_Class 1
#SpectrumID CCMSLIB00000079491
#IonMode Positive
#UpdateWorkflowName UPDATE-SINGLE-ANNOTATED-GOLD
#LibraryQualityString Gold
#TaskID b1d8e8f6646f4e71acdff9ca3d919d08
##Scan# 2145
#SpectrumFile p1-B07_GB7_01_17891.mzXML
#LibraryName NIH_Natural_Products_Library.mgf
#MQScore -1
#Organism NIH_Natural_Products_Library
#TIC_Query 0
#RT_Query -1
#MZErrorPPM -1
#SharedPeaks 0
#MassDiff 0
#LibMZ -1
#SpecMZ 468.166
#SpecCharge 0
#internalFilename spec-00000.mgf

>collision 10
95.924881 116.0
95.98922 52.0
96.079315 704.0
96.188217 160.0
96.256554 72.0
97.072533 104.0
97.086258 100.0
97.876205 140.0
98.004234 172.0
98.154037 220.0
98.748451 116.0
98.774162 144.0
99.043106 952.0
99.322838 200.0
99.445854 204.0
99.660324 200.0
99.771622 204.0
100.046913 448.0
100.125793 188.0
100.21344 72.0
100.352959 44.0
100.889999 152.0
100.973984 148.0
101.290222 228.0
101.56884 164.0
101.831772 48.0
101.894043 156.0
102.038742 196.0
102.101074 104.0
102.221779 180.0
102.294228 192.0
102.310333 116.0
103.746674 156.0
104.777016 120.0
105.211403 140.0
105.452431 216.0
105.75309 72.0
105.957863 132.0
106.007034 116.0
106.152573 128.0
106.242821 180.0
106.308479 208.0
108.033012 228.0
108.132332 124.0
108.322823 196.0
108.727127 128.0
108.932678 52.0
109.069824 192.0
109.81105 196.0
110.062759 336.0
110.688751 96.0
110.743202 160.0
111.045013 36.0
111.511101 148.0
111.832893 40.0
111.973953 172.0
112.07653 356.0
112.927917 140.0
113.769135 196.0
114.058029 188.0
114.087234 152.0
114.172836 152.0
114.366447 164.0
114.517616 204.0
114.820251 220.0
114.950378 64.0
115.801231 112.0
115.994064 160.0
116.120567 204.0
116.322258 136.0
116.857368 208.0
117.053238 144.0
117.361359 128.0
117.419586 64.0
117.706596 188.0
118.218903 172.0
118.522057 160.0
119.013466 172.0
119.031792 132.0
119.708061 160.0
119.843109 116.0
120.03492 64.0
120.668114 120.0
120.724968 136.0
121.011604 56.0
121.112343 212.0
121.542023 124.0
121.904335 128.0
122.034019 148.0
122.703316 108.0
123.040863 164.0
123.403191 236.0
124.073303 736.0
124.30024 196.0
124.471161 180.0
124.62442 160.0
125.075859 160.0
126.093704 204.0
126.276245 136.0
126.515663 148.0
127.201614 64.0
127.594742 184.0
127.720673 180.0
127.898422 36.0
127.916428 136.0
127.999733 72.0
128.047028 60.0
128.070953 9560.0
128.128693 96.0
128.191193 40.0
128.288116 80.0
128.312912 32.0
128.341141 100.0
128.376053 88.0
128.405365 76.0
128.421158 68.0
128.470779 84.0
128.863602 172.0
129.071945 772.0
129.225342 188.0
129.426788 44.0
129.72583 68.0
129.848282 212.0
130.074295 420.0
130.091049 132.0
130.106949 112.0
130.186417 72.0
130.395416 196.0
131.069031 184.0
131.17157 72.0
132.082642 272.0
132.783508 176.0
133.025528 332.0
133.086411 108.0
133.189758 196.0
133.546021 96.0
133.626526 120.0
133.833664 84.0
134.03157 144.0
134.11702 112.0
134.950394 124.0
135.005875 112.0
135.029007 116.0
135.084518 124.0
135.232605 84.0
135.285568 168.0
136.892517 112.0
137.024353 460.0
137.060562 324.0
137.444962 152.0
138.068665 208.0
138.087372 224.0
138.461838 196.0
138.794586 64.0
139.059311 128.0
139.510666 84.0
139.691742 148.0
139.814087 80.0
140.073074 188.0
140.535141 180.0
141.075974 516.0
141.267502 192.0
141.523102 32.0
141.741013 92.0
141.833435 136.0
142.086868 18604.0
142.202164 52.0
142.241425 72.0
142.350632 56.0
142.372009 48.0
142.438507 72.0
142.607208 56.0
142.797409 44.0
142.992508 32.0
143.065582 108.0
143.087982 1488.0
143.263947 68.0
143.375931 40.0
143.972336 88.0
144.090012 212.0
144.206467 96.0
144.232758 88.0
144.259048 52.0
144.39534 208.0
144.672897 116.0
145.094528 112.0
145.425552 160.0
146.577484 140.0
147.042908 160.0
147.666229 32.0
148.052917 1600.0
148.642517 52.0
148.768723 56.0
149.022018 40.0
149.052673 180.0
149.070435 160.0
149.249756 188.0
149.697479 140.0
150.033722 160.0
150.060181 216.0
150.531448 176.0
151.037247 176.0
151.233093 92.0
151.294281 52.0
151.686234 128.0
152.070236 164.0
152.105682 140.0
152.373352 212.0
152.397919 184.0
152.569962 192.0
153.855927 156.0
154.080658 256.0
154.439087 48.0
156.064331 428.0
156.230026 60.0
157.101929 116.0
157.816208 160.0
158.081345 164.0
158.226517 140.0
159.041199 184.0
159.086395 216.0
160.563354 56.0
160.780319 168.0
161.063095 200.0
162.065109 220.0
163.033997 364.0
163.075394 172.0
163.461426 124.0
164.002579 156.0
164.922729 160.0
165.03009 208.0
165.064926 360.0
165.086349 100.0
165.50856 76.0
166.156998 196.0
167.079285 196.0
168.634171 184.0
169.027252 96.0
169.076416 268.0
169.464828 68.0
170.080597 3220.0
170.106155 216.0
170.157303 48.0
170.185867 164.0
170.380661 152.0
170.409225 152.0
170.487183 68.0
170.554764 112.0
171.041153 120.0
171.082413 380.0
171.377106 84.0
171.473785 180.0
171.569962 172.0
172.102188 92.0
172.56987 36.0
173.077469 244.0
173.176987 116.0
173.714325 60.0
173.908493 72.0
175.039368 720.0
175.073151 308.0
175.449936 132.0
176.044342 344.0
176.083206 112.0
177.024673 192.0
177.294876 144.0
177.764252 172.0
178.058929 96.0
178.90181 204.0
179.008301 164.0
179.133484 148.0
179.346649 184.0
180.499939 64.0
181.375366 128.0
182.070267 140.0
182.777237 60.0
185.039047 176.0
185.063416 172.0
187.083298 156.0
188.561661 196.0
189.062134 140.0
189.275894 180.0
189.382462 80.0
189.535873 188.0
189.708527 168.0
192.793961 56.0
194.069458 132.0
195.080582 152.0
195.879211 176.0
197.062057 208.0
197.654816 192.0
197.780746 168.0
198.007538 108.0
199.078812 152.0
199.112518 128.0
204.803131 180.0
205.410263 48.0
206.764557 108.0
207.592468 132.0
208.882019 168.0
210.911972 32.0
211.137482 172.0
211.180862 112.0
211.452835 128.0
212.116104 144.0
212.536621 248.0
213.053406 184.0
214.068481 196.0
215.646759 64.0
217.280716 128.0
217.788544 176.0
219.026855 132.0
219.121124 108.0
220.05899 164.0
220.723801 208.0
222.507431 92.0
224.039749 96.0
224.080719 184.0
224.378754 124.0
225.052063 268.0
225.085861 124.0
225.107239 128.0
225.285965 104.0
226.061798 124.0
226.671219 180.0
227.07019 360.0
228.352341 208.0
229.481567 96.0
230.060822 192.0
235.438156 92.0
236.078033 52.0
236.31543 80.0
236.566391 136.0
237.062561 124.0
237.145309 44.0
237.286316 44.0
238.434311 244.0
238.609528 184.0
239.074387 212.0
239.400284 112.0
240.078873 160.0
241.043945 112.0
241.780441 56.0
242.260361 260.0
243.050949 84.0
246.08252 148.0
247.348602 148.0
249.051208 108.0
250.059814 176.0
250.227295 76.0
250.46347 168.0
250.649338 136.0
251.069977 692.0
251.870255 144.0
252.042694 240.0
252.07666 180.0
252.28421 160.0
253.046066 296.0
253.090637 196.0
254.050064 192.0
254.082977 148.0
255.063614 448.0
255.458527 100.0
256.069641 140.0
259.120239 152.0
260.095093 112.0
260.294159 140.0
261.747559 148.0
263.066193 108.0
264.054901 156.0
264.085907 156.0
265.019562 52.0
265.045471 128.0
265.084564 204.0
266.053101 112.0
266.167786 168.0
266.531555 72.0
266.632294 132.0
266.752563 128.0
266.999664 208.0
267.064941 2344.0
268.041687 168.0
268.067993 848.0
268.106537 160.0
268.507538 56.0
268.638 68.0
268.683655 76.0
268.879456 56.0
269.04248 948.0
269.075165 104.0
269.339813 92.0
269.424744 116.0
269.852875 100.0
270.055603 168.0
270.089661 916.0
270.595551 72.0
270.814941 60.0
271.100647 212.0
271.677032 60.0
272.100372 120.0
272.195587 84.0
272.320374 40.0
272.925049 116.0
273.102631 200.0
274.311035 116.0
276.057587 168.0
276.23288 72.0
276.987579 120.0
278.061829 136.0
278.417084 200.0
278.965302 136.0
279.064911 984.0
280.071503 176.0
280.119995 112.0
280.27655 204.0
280.409851 92.0
280.619873 84.0
280.940033 192.0
281.040009 384.0
281.085144 264.0
281.21698 116.0
281.874878 124.0
282.050232 128.0
282.090973 156.0
282.372955 156.0
282.660675 176.0
283.058746 356.0
283.094177 424.0
283.400635 196.0
283.690857 148.0
284.067474 900.0
284.242249 192.0
285.068298 372.0
286.078613 112.0
286.090454 188.0
286.101105 208.0
287.117493 72.0
287.172394 100.0
288.083771 168.0
288.178345 32.0
291.108307 96.0
291.322266 164.0
293.377686 128.0
295.053894 204.0
295.289825 120.0
296.065887 512.0
297.072205 328.0
298.081909 624.0
298.482513 64.0
298.561584 84.0
298.637268 100.0
299.089752 2344.0
299.143066 172.0
299.357666 156.0
300.09021 492.0
300.390472 52.0
300.445679 20.0
300.801117 88.0
301.092682 232.0
301.136017 96.0
302.114227 60.0
302.588348 108.0
304.092773 196.0
304.968018 120.0
306.09903 148.0
307.109314 200.0
308.034271 144.0
309.046448 176.0
309.940948 124.0
310.035583 112.0
310.081329 136.0
310.118195 152.0
310.210815 48.0
311.089142 2284.0
311.172058 176.0
312.093292 544.0
312.261353 56.0
312.416138 88.0
312.665955 52.0
312.940521 52.0
313.07431 160.0
313.098969 164.0
313.213165 264.0
313.560059 68.0
314.103638 168.0
314.1987 64.0
315.310974 132.0
317.647797 56.0
318.986511 116.0
319.0896 204.0
319.388306 64.0
322.068695 136.0
324.060364 288.0
325.070618 160.0
327.070618 76.0
327.884583 104.0
328.133301 136.0
328.248688 112.0
328.68515 116.0
330.111969 160.0
330.191528 84.0
332.121887 480.0
333.098358 184.0
333.134705 164.0
335.737091 168.0
336.185791 160.0
337.12796 236.0
339.087708 88.0
340.088074 124.0
340.391846 92.0
341.093567 140.0
341.45755 76.0
343.070312 40.0
347.0224 96.0
347.857086 156.0
348.113281 120.0
349.064545 120.0
351.121399 108.0
351.14386 204.0
352.115509 320.0
357.097534 200.0
357.259277 72.0
360.131561 124.0
360.490479 68.0
362.253571 132.0
363.827301 140.0
363.95639 224.0
364.117432 260.0
365.123016 36.0
366.120087 160.0
366.375275 32.0
366.939301 64.0
367.400757 100.0
369.123291 124.0
370.777039 148.0
376.184937 156.0
376.281433 200.0
380.105499 172.0
380.140442 184.0
388.839203 104.0
389.141449 124.0
391.130615 144.0
391.575531 48.0
392.116119 588.0
393.12088 96.0
394.060638 164.0
394.156586 200.0
406.022461 196.0
406.130737 108.0
408.118561 108.0
408.605225 100.0
410.131409 168.0
411.220398 132.0
414.820282 152.0
417.251953 92.0
417.593506 52.0
420.049591 52.0
420.095856 140.0
421.147583 148.0
422.118408 224.0
422.158081 1152.0
422.950745 160.0
423.139984 120.0
423.157715 168.0
423.376526 64.0
423.491211 184.0
423.73288 76.0
424.204163 112.0
424.663391 80.0
425.529236 108.0
425.562073 72.0
426.457611 96.0
428.700531 92.0
430.172943 120.0
431.548676 140.0
432.533234 108.0
435.134003 256.0
436.062927 172.0
436.140656 800.0
437.13739 196.0
437.285675 216.0
437.447998 64.0
437.760254 84.0
438.022644 176.0
438.11441 2264.0
438.62265 76.0
439.122925 512.0
439.189728 132.0
439.306519 60.0
439.903259 96.0
440.12204 240.0
440.763611 72.0
441.123016 140.0
441.578766 100.0
444.112701 156.0
445.24588 96.0
445.880249 96.0
446.885254 64.0
447.655518 56.0
448.215759 128.0
448.257904 144.0
450.143219 312.0
451.165833 184.0
451.508392 44.0
452.134521 104.0
452.714508 100.0
452.981323 124.0
453.138 2232.0
453.794983 40.0
454.150604 424.0
454.460876 72.0
454.617889 72.0
454.651825 88.0
454.745209 72.0
455.275879 104.0
455.365051 36.0
456.895294 124.0
457.035706 128.0
459.570862 200.0
461.963287 192.0
462.789276 108.0
463.624542 60.0
464.190399 48.0
464.816681 196.0
465.310242 60.0
465.847076 100.0
465.885712 48.0
466.096252 120.0
466.470154 128.0
466.594818 56.0
466.633514 56.0
466.710907 92.0
467.097961 32.0
467.885437 160.0
467.98877 120.0
468.031555 124.0
468.047119 116.0
468.164093 10964.0
468.242828 136.0
468.458191 132.0
468.608978 76.0
468.740784 80.0
468.772705 88.0
468.828735 120.0
468.940796 96.0
469.168793 3440.0
469.25116 124.0
469.544373 44.0
469.639252 32.0
469.686707 48.0
469.76004 56.0
470.166748 876.0
470.269196 48.0
470.385742 48.0
470.502289 72.0
470.636139 72.0
470.847717 72.0
470.899536 56.0
471.182098 176.0
471.227844 48.0
471.261047 76.0
471.456848 44.0
471.530304 72.0
471.742096 80.0
471.845856 144.0
471.876129 132.0
471.975555 92.0
472.113953 80.0
472.25235 60.0
472.897003 96.0
472.944611 36.0
473.070129 116.0
473.975311 32.0
475.757843 56.0
477.382812 68.0
477.69162 96.0
478.157166 44.0
492.136688 84.0
501.176086 128.0
515.598694 76.0
540.744995 48.0
540.990295 112.0
541.268066 44.0
542.699829 20.0
546.796936 100.0
551.989075 88.0
553.80957 80.0
566.314697 32.0
611.445312 68.0
619.042786 240.0
619.339966 180.0
630.104858 148.0
659.58313 76.0
676.341492 64.0
693.137085 48.0
693.425293 116.0
694.06488 52.0
696.111267 80.0
697.366882 40.0
705.600647 124.0
726.863281 212.0
728.157043 68.0
742.024963 64.0
763.138062 208.0
771.374329 108.0
826.250854 84.0
843.629944 244.0
844.161865 92.0
887.424377 40.0
891.478455 124.0
895.589478 84.0
895.946838 20.0
901.63324 120.0
915.606812 96.0
928.526611 84.0
956.036743 56.0
986.040955 204.0
986.759827 208.0
1006.993896 160.0
1007.177063 80.0
1007.486572 160.0
1016.286743 96.0
1027.618286 120.0
1048.19397 84.0
1048.413086 36.0
1050.295654 156.0
1055.869507 104.0
1068.609375 68.0
1081.340454 76.0
1109.228394 180.0
1110.196411 188.0
1111.377075 204.0
1116.026489 184.0
1141.932861 60.0
1166.35498 168.0
1169.538208 136.0
1179.592407 168.0
1180.727417 76.0
1182.246094 160.0
1197.487061 208.0
1205.690063 176.0
1219.453979 164.0
1219.537354 144.0
1222.632324 152.0
1223.551025 208.0
1229.929443 40.0
1230.864868 160.0
1231.346802 172.0
1231.661011 132.0
1233.561646 180.0
1238.242554 172.0
1254.318359 208.0
1256.074097 100.0
1266.48584 200.0
1272.002319 192.0
1272.825195 212.0
1273.322876 136.0
1276.95459 216.0
1277.118164 36.0
1282.964355 220.0
1283.855591 180.0
1286.052979 88.0
1294.596313 116.0
1305.094238 72.0
1305.827637 152.0
1307.468018 132.0
1312.928711 204.0
1313.015259 132.0
1315.555054 168.0
1318.249023 200.0
1318.413696 92.0
1324.920044 168.0
1328.131226 196.0
1334.420044 200.0
1337.970337 144.0
1338.47998 160.0
1349.000366 136.0
1357.507935 168.0
1365.262695 216.0
1370.091187 120.0
1374.846924 44.0
1375.127319 164.0
1385.827637 172.0
1400.104492 172.0
1400.462036 124.0
1407.72583 204.0
1410.079102 252.0
1414.783936 132.0
1422.144897 148.0
1426.516479 152.0
1428.223389 180.0
1428.456543 180.0
1431.956543 44.0
1435.453247 32.0
1440.101929 144.0
1440.645874 208.0
1441.068848 172.0
1441.144409 40.0
1443.192749 136.0
1444.380005 160.0
1447.505615 160.0
1448.452393 236.0
1454.822021 124.0
1457.214233 180.0
1459.228394 124.0
1459.502075 196.0
1460.810181 276.0
1470.509766 352.0
1471.196777 164.0
1476.308228 220.0
1477.692749 216.0
1479.154419 212.0
1484.525024 148.0
1485.299683 212.0
1488.515381 192.0
1492.703125 152.0
1498.22168 192.0
1503.032593 196.0
