>compound MLS000563041-01!5,7-dihydroxy-2-(4-hydroxyphenyl)-6-[(2S,3R,4R,5S,6R)-3,4,5-trihydroxy-6-(hydroxymethyl)oxan-2-yl]chromen-4-one
>formula C21H20O10
>ionization [M+H]+
>parentmass 433.113
#inchi InChI=1S/C21H20O10/c22-7-14-17(26)19(28)20(29)21(31-14)16-11(25)6-13-15(18(16)27)10(24)5-12(30-13)8-1-3-9(23)4-2-8/h1-6,14,17,19-23,25-29H,7H2/t14-,17-,19+,20-,21+/m1/s1
#inchikey MYXNWGACZJSMBT
#Ion_Source LC-ESI
#Instrument qTof
#Compound_Source NIH Natural Product Library
#PI Dorrestein
#Data_Collector VVP/LMS
#Scan -1
#Precursor_MZ 433.113
#ExactMass 432.106
#Charge 1
#CAS_Number N/A
#Pubmed_ID N/A
#Smiles OC[C@H]1O[C@H]([C@H](O)[C@@H](O)[C@@H]1O)c2c(O)cc3oc(cc(=O)c3c2O)c4ccc(O)cc4
#INCHI_AUX N/A
#Library_Class 3
#SpectrumID CCMSLIB00000079731
#IonMode Positive
#UpdateWorkflowName UPDATE-SINGLE-ANNOTATED-BRONZE
#LibraryQualityString Bronze
#TaskID b1d8e8f6646f4e71acdff9ca3d919d08
##Scan# 1522
#SpectrumFile p1-D10_GD10_01_17918.mzXML
#LibraryName NIH_Natural_Products_Library.mgf
#MQScore -1
#Organism NIH_Natural_Products_Library
#TIC_Query 0
#RT_Query -1
#MZErrorPPM -1
#SharedPeaks 0
#MassDiff 0
#LibMZ -1
#SpecMZ 433.113
#SpecCharge 0
#internalFilename spec-00000.mgf

>collision 10
95.155701 152.0
96.494156 128.0
99.904068 144.0
100.499756 144.0
100.99118 152.0
101.682396 64.0
103.940552 204.0
104.67231 268.0
110.56855 188.0
110.924614 136.0
117.625778 128.0
118.787773 176.0
121.026245 352.0
122.757462 56.0
123.00898 192.0
124.536789 108.0
125.549423 132.0
133.025665 316.0
137.0242 204.0
139.192383 140.0
140.732285 104.0
141.022369 224.0
144.206635 188.0
145.028931 188.0
147.032089 152.0
147.04805 224.0
149.024414 304.0
152.85405 96.0
153.019485 204.0
159.048447 256.0
163.028595 132.0
163.043686 248.0
163.106613 172.0
164.926529 136.0
165.017563 664.0
165.458603 184.0
166.025925 284.0
166.550995 136.0
167.031128 196.0
170.052124 100.0
170.184509 104.0
174.064621 108.0
175.042801 144.0
175.854767 136.0
176.824707 84.0
177.016006 124.0
177.343826 176.0
178.966934 140.0
183.023422 136.0
183.109222 144.0
184.08313 64.0
184.10202 148.0
184.89682 144.0
187.040543 128.0
187.885727 196.0
188.161362 160.0
190.019653 164.0
190.887604 132.0
191.000351 164.0
191.033371 172.0
191.572906 140.0
192.104935 152.0
193.074402 120.0
194.770599 196.0
197.052109 140.0
201.025208 296.0
201.059082 168.0
202.062164 140.0
203.030899 64.0
203.053574 196.0
203.127319 196.0
204.018982 176.0
205.0439 152.0
206.068069 100.0
206.685654 180.0
207.080704 184.0
208.483597 236.0
208.952271 112.0
209.994614 140.0
211.037491 180.0
212.929718 228.0
213.063339 168.0
214.026016 168.0
214.702057 144.0
215.032822 532.0
216.039795 152.0
217.006241 92.0
219.658844 68.0
223.025513 168.0
223.07605 140.0
224.854218 104.0
227.900177 108.0
228.131027 132.0
228.443771 184.0
229.057846 152.0
229.090988 164.0
230.052948 164.0
230.243164 72.0
230.632904 48.0
232.040527 284.0
232.092072 140.0
232.786942 212.0
233.768799 160.0
233.905746 160.0
235.140152 108.0
239.061661 208.0
240.06221 124.0
241.050491 140.0
241.565033 60.0
243.036606 384.0
244.0336 180.0
245.116776 120.0
247.074387 152.0
247.406113 124.0
248.889069 160.0
248.983261 148.0
254.055588 80.0
255.065384 104.0
257.668915 176.0
257.841461 68.0
258.212311 80.0
258.263489 216.0
258.445831 68.0
261.027924 132.0
261.057251 196.0
263.067322 84.0
267.061493 680.0
268.063782 224.0
268.391266 180.0
268.776154 144.0
269.076416 104.0
270.047333 260.0
271.025726 212.0
271.053558 124.0
272.009583 176.0
272.426605 112.0
273.031372 204.0
273.324158 116.0
275.605835 160.0
275.890076 60.0
278.078064 260.0
278.404907 236.0
279.073486 112.0
280.069946 316.0
281.047882 240.0
281.078003 664.0
282.016327 144.0
282.079834 248.0
282.113251 132.0
282.561401 176.0
282.946259 108.0
283.006531 160.0
283.059753 4224.0
283.371582 68.0
283.398407 56.0
283.545837 60.0
283.594543 156.0
283.776001 60.0
283.89447 44.0
284.063538 1204.0
284.206451 80.0
284.276917 36.0
284.871155 148.0
285.071198 120.0
285.345001 92.0
285.745239 168.0
285.886536 96.0
286.081757 152.0
286.576813 44.0
290.909058 172.0
291.055054 208.0
292.758667 20.0
293.082245 132.0
293.972229 204.0
294.054138 212.0
295.070648 788.0
296.002686 132.0
296.06955 172.0
296.10202 140.0
297.023987 124.0
297.074829 268.0
297.931549 52.0
298.04361 144.0
298.073669 128.0
299.064941 204.0
305.055969 132.0
305.092224 224.0
305.358459 196.0
305.490631 68.0
306.078796 44.0
307.06189 416.0
307.096405 148.0
308.059509 144.0
309.038116 320.0
309.075165 616.0
309.33963 124.0
310.039429 144.0
310.076569 400.0
311.05484 140.0
311.078308 124.0
311.847534 112.0
312.227234 100.0
312.994354 124.0
313.069855 3044.0
313.202148 136.0
313.258484 72.0
313.420563 136.0
313.519226 32.0
313.600281 44.0
313.691925 108.0
314.073547 236.0
314.224426 52.0
314.407898 28.0
314.517334 192.0
315.072662 136.0
315.877716 40.0
316.082916 112.0
316.235077 164.0
317.237488 48.0
320.026337 56.0
320.070557 264.0
321.075226 308.0
321.951843 112.0
322.089417 140.0
322.123291 32.0
322.634308 156.0
322.92392 68.0
323.092316 1152.0
323.263794 40.0
323.582336 256.0
324.100128 288.0
325.074738 128.0
325.081696 160.0
328.942383 76.0
332.083038 104.0
333.07547 132.0
334.0784 108.0
335.08432 228.0
335.522949 232.0
336.062714 132.0
336.168518 92.0
337.072296 1476.0
337.202026 76.0
337.304382 144.0
337.414032 44.0
338.078613 420.0
338.888977 76.0
342.117157 56.0
347.056702 132.0
347.62793 48.0
349.07016 420.0
350.075653 384.0
350.487396 96.0
351.071106 312.0
351.796448 144.0
352.902283 48.0
352.977051 76.0
353.893768 60.0
354.654236 72.0
355.794586 68.0
358.502686 64.0
361.071838 388.0
361.970428 48.0
362.070435 156.0
363.194519 148.0
363.444885 108.0
365.850647 148.0
366.700043 124.0
367.071014 284.0
367.462708 72.0
369.697968 132.0
370.096069 204.0
374.127258 132.0
375.992828 144.0
379.076019 464.0
380.110229 124.0
389.067688 128.0
397.082306 136.0
398.09021 132.0
424.930756 116.0
435.236938 184.0
458.283844 132.0
481.248322 36.0
483.031342 32.0
485.014893 128.0
517.268066 116.0
521.327271 44.0
804.580078 52.0
832.457336 120.0
846.261353 20.0
1184.839966 156.0
1231.162354 132.0
1237.210449 164.0
1302.503906 60.0
1418.098511 280.0
1444.731689 160.0
1481.125854 40.0
