>compound Clafen (Cyclophosphamide)
>formula C7H15Cl2N2O2P
>ionization [M+H]+
>parentmass 261.032806
#inchi InChI=1S/C7H15Cl2N2O2P/c8-2-5-11(6-3-9)14(12)10-4-1-7-13-14/h1-7H2,(H,10,12)
#inchikey CMSMOCZEIVJLDB
#Ion_Source LC-ESI
#Instrument qTof
#Compound_Source Commercial
#PI Dorrestein
#Data_Collector Garg_Neha
#Scan -1
#Precursor_MZ 261.032
#ExactMass 260.025
#Charge 1
#CAS_Number 50-18-0, 60007-95-6, 75526-90-8
#Pubmed_ID N/A
#Smiles C1COP(NC1)(=O)N(CCCl)CCCl
#INCHI_AUX N/A
#Library_Class 1
#SpectrumID CCMSLIB00000078053
#IonMode Positive
#UpdateWorkflowName UPDATE-SINGLE-ANNOTATED-GOLD
#LibraryQualityString Gold
#TaskID 77f51c88eb8b467eb4a01dd2d0cb90d2
##Scan# 1138
#SpectrumFile Plate1_41_60_GG3_01_16490.mzXML
#LibraryName FDALibrary_2_04302014.mgf
#MQScore -1
#Organism FDALibrary_2_04302014
#TIC_Query 0
#RT_Query -1
#MZErrorPPM -1
#SharedPeaks 0
#MassDiff 0
#LibMZ -1
#SpecMZ 261.032
#SpecCharge 0
#internalFilename spec-00000.mgf

>collision 10
44.934971 160.0
44.958988 152.0
45.049786 200.0
45.06181 204.0
45.303967 232.0
45.997879 184.0
46.487843 152.0
46.600548 152.0
47.194828 220.0
47.509842 252.0
47.640263 140.0
48.705341 192.0
49.004448 148.0
49.356194 224.0
49.409344 156.0
49.589989 192.0
50.078953 164.0
50.207207 144.0
50.550499 188.0
50.784264 160.0
51.081142 144.0
51.10675 232.0
51.918148 264.0
53.305508 156.0
53.471298 192.0
53.859146 200.0
54.273319 192.0
54.823105 144.0
55.316433 196.0
55.849148 208.0
56.105282 168.0
57.167274 184.0
58.140537 144.0
58.456638 180.0
60.482635 144.0
61.589771 192.0
61.916668 168.0
62.031052 152.0
62.120438 148.0
63.043118 208.0
63.148544 164.0
63.716553 172.0
63.829407 148.0
63.907349 208.0
64.798286 200.0
65.713142 244.0
66.146263 168.0
66.207787 204.0
66.57029 116.0
66.845795 148.0
67.160233 156.0
67.504837 196.0
67.786407 176.0
67.797882 156.0
67.820824 188.0
68.647812 164.0
68.776505 200.0
69.405182 184.0
71.479904 216.0
72.778114 204.0
73.065353 148.0
73.136826 180.0
73.516899 172.0
74.618332 196.0
75.235115 208.0
75.354279 144.0
76.010529 152.0
76.033089 212.0
76.052185 152.0
77.284317 204.0
78.337738 152.0
82.353386 176.0
82.610069 212.0
82.65892 164.0
82.747612 196.0
83.240814 248.0
83.842972 152.0
84.147606 172.0
88.102051 172.0
88.272141 216.0
89.125046 160.0
89.277313 212.0
89.454178 180.0
89.700958 192.0
90.653557 200.0
91.990685 168.0
92.809547 172.0
93.585823 192.0
93.632042 164.0
94.00219 236.0
94.382736 140.0
94.653641 156.0
96.257935 184.0
97.148499 176.0
98.78756 164.0
98.993401 152.0
99.586403 208.0
100.093544 140.0
101.001633 172.0
102.008423 176.0
102.0867 152.0
103.072456 156.0
103.410194 140.0
103.436508 204.0
103.470924 140.0
103.685646 156.0
104.946014 156.0
106.00692 216.0
106.042542 1632.0
106.070457 196.0
106.117607 176.0
106.653419 168.0
106.974319 196.0
107.044899 136.0
107.67952 228.0
108.038239 344.0
108.24411 164.0
108.480309 200.0
109.063614 188.0
109.329842 160.0
109.560966 184.0
109.99855 428.0
110.667923 172.0
110.902557 168.0
111.986763 164.0
113.595375 152.0
113.716324 224.0
114.007294 172.0
114.173119 200.0
114.285866 208.0
114.818428 208.0
115.125748 228.0
116.565346 188.0
116.902969 152.0
117.50631 160.0
118.500885 208.0
118.769699 200.0
119.140915 156.0
119.658531 240.0
120.020828 1872.0
120.044212 140.0
120.194733 144.0
120.918091 156.0
121.165543 172.0
122.083069 184.0
122.862816 216.0
123.207222 168.0
123.64505 192.0
123.973885 192.0
124.017151 200.0
124.261086 180.0
125.038849 208.0
125.225868 228.0
125.459846 148.0
125.772156 144.0
125.81234 140.0
125.973129 156.0
126.409126 172.0
126.480743 180.0
127.789124 160.0
128.853317 212.0
129.527481 204.0
130.128464 148.0
130.908401 152.0
131.656418 160.0
132.92009 236.0
133.315063 184.0
133.466782 192.0
134.614365 212.0
135.484055 176.0
136.210159 152.0
136.582092 164.0
136.882324 168.0
137.502441 176.0
137.784988 180.0
137.850418 152.0
137.922867 176.0
138.007034 168.0
138.029877 556.0
138.662506 200.0
139.587494 188.0
139.723907 204.0
139.966339 240.0
140.003448 7524.0
140.062912 180.0
140.17128 240.0
140.260849 212.0
141.005615 352.0
141.851746 152.0
141.959457 196.0
142.000626 4272.0
142.018372 2588.0
142.103134 160.0
143.007736 352.0
143.091873 172.0
143.977707 172.0
144.01474 1504.0
144.221176 132.0
144.940613 200.0
145.016754 120.0
145.048477 200.0
145.134781 164.0
145.20192 152.0
145.770905 156.0
148.222656 140.0
148.554825 156.0
149.577881 148.0
149.665527 144.0
151.411606 160.0
151.43364 204.0
151.482635 184.0
151.644363 168.0
152.056412 168.0
155.018356 172.0
155.080322 204.0
155.541687 144.0
155.998245 204.0
156.842636 212.0
157.223358 224.0
157.603836 168.0
158.419464 220.0
159.106628 168.0
159.838043 204.0
163.678162 152.0
163.98642 176.0
164.583374 148.0
164.858093 156.0
165.189102 204.0
165.916412 176.0
166.052322 140.0
166.075409 148.0
167.298584 208.0
167.355225 160.0
167.999664 308.0
169.21167 172.0
169.24791 248.0
169.395538 192.0
170.261871 168.0
171.010971 368.0
172.197006 176.0
172.309326 140.0
172.683136 148.0
174.030136 216.0
174.68718 164.0
174.992462 164.0
175.754227 204.0
177.799835 164.0
178.604904 152.0
178.690033 184.0
182.240799 148.0
182.353668 156.0
182.894302 156.0
183.716217 152.0
184.034683 224.0
184.615677 140.0
184.81044 148.0
185.024155 168.0
186.002914 140.0
187.018066 220.0
187.180145 176.0
187.436203 140.0
187.763351 140.0
187.880646 140.0
191.113159 144.0
193.617508 176.0
193.952759 164.0
194.041473 144.0
195.694641 236.0
197.016647 180.0
197.125626 196.0
198.135727 208.0
199.040207 324.0
199.412537 152.0
199.778076 180.0
200.017273 152.0
200.200287 188.0
200.346756 168.0
200.470734 200.0
201.074265 180.0
201.370728 152.0
201.752197 140.0
201.822891 140.0
202.148712 216.0
202.442612 152.0
202.992371 176.0
203.971893 156.0
204.111206 152.0
204.274048 176.0
205.969437 196.0
209.91008 184.0
212.446701 260.0
213.248154 152.0
214.549362 208.0
216.430969 236.0
217.242828 192.0
218.117935 176.0
218.844604 204.0
220.768585 164.0
221.576675 180.0
223.051605 152.0
223.581039 168.0
224.510559 140.0
225.053665 180.0
227.049667 148.0
229.292511 144.0
232.501404 256.0
232.683533 160.0
233.000824 3504.0
233.068604 160.0
233.713913 156.0
234.004898 436.0
234.057877 196.0
234.283264 172.0
234.463211 152.0
234.798416 164.0
234.998169 1776.0
235.031143 368.0
237.226242 148.0
238.152954 220.0
238.226685 160.0
239.087631 168.0
239.425858 200.0
239.968628 200.0
242.7733 176.0
247.676025 172.0
248.434647 200.0
248.619781 164.0
248.839508 156.0
250.056061 172.0
250.348862 156.0
250.377213 156.0
254.116821 224.0
254.599335 176.0
254.796265 188.0
255.941315 200.0
256.607239 232.0
257.97049 248.0
258.066406 228.0
258.248688 156.0
258.802307 164.0
259.205933 240.0
259.318085 208.0
260.0625 144.0
260.09433 144.0
260.163239 944.0
260.489288 140.0
260.624237 156.0
260.66391 180.0
260.826782 200.0
260.940735 160.0
260.983185 240.0
261.032806 67168.0
261.13562 168.0
261.174255 288.0
261.357819 204.0
261.561157 112.0
261.650269 156.0
261.833801 152.0
262.036469 3720.0
262.144745 192.0
262.478668 116.0
262.6026 100.0
262.69873 168.0
262.780823 220.0
262.823242 156.0
262.868744 132.0
262.955078 140.0
263.029846 26924.0
263.117706 300.0
263.168396 208.0
263.419006 124.0
263.444061 192.0
263.571503 152.0
263.653412 244.0
264.032227 1132.0
264.574371 100.0
265.021667 132.0
265.68692 140.0
265.912323 104.0
265.945282 104.0
281.013641 160.0
291.180328 152.0
324.217712 164.0
334.694214 172.0
377.476746 156.0
499.189819 160.0
803.365784 152.0
1184.270264 188.0
1279.860352 204.0
1287.783569 208.0
1315.313721 156.0
1340.262573 164.0
1370.724365 232.0
1472.316162 156.0
1504.528442 212.0
1504.860352 148.0
1509.914185 140.0
1528.439697 144.0
1530.486938 200.0
1530.751709 216.0
1601.097656 192.0
1604.452393 180.0
1613.729858 180.0
1642.989014 172.0
1654.740479 176.0
1681.37085 200.0
1688.536011 140.0
1696.396729 156.0
1723.648193 236.0
1753.407959 140.0
1774.138184 196.0
1790.591187 160.0
1792.705811 340.0
1797.959839 140.0
1800.129395 160.0
1802.528564 176.0
1848.089722 192.0
1848.723022 168.0
1853.861328 156.0
1855.584229 232.0
1882.759033 260.0
1892.175781 224.0
1901.069214 152.0
1918.081787 184.0
1925.550781 164.0
1934.942383 156.0
1946.218018 176.0
1948.387451 140.0
1958.627319 156.0
1975.629517 204.0
1987.61731 180.0
1992.625122 220.0
