>compound 2H-Indol-2-one, 1,3-dihydro-1-phenyl-3,3-bis(4-pyridinylmethyl)- [CAS]
>formula C26H21N3O
>ionization [M+H]+
>parentmass 392.17573874409055
#inchi InChI=1S/C26H21N3O/c30-25-26(18-20-10-14-27-15-11-20,19-21-12-16-28-17-13-21)23-8-4-5-9-24(23)29(25)22-6-2-1-3-7-22/h1-17H,18-19H2
#inchikey YEJCDKJIEMIWRQ
#Ion_Source LC-ESI
#Instrument qTof
#Compound_Source Commercial
#PI Dorrestein
#Data_Collector Garg_Neha
#Scan -1
#Precursor_MZ 392.176
#ExactMass 391.168
#Charge 1
#CAS_Number N/A
#Pubmed_ID N/A
#Smiles O=C1N(c2ccccc2C1(Cc3ccncc3)Cc4ccncc4)c5ccccc5
#INCHI_AUX N/A
#Library_Class 1
#SpectrumID CCMSLIB00000079055
#IonMode Positive
#UpdateWorkflowName UPDATE-SINGLE-ANNOTATED-GOLD
#LibraryQualityString Gold
#TaskID 278b19f5865741e282cec7349aa7e7a1
##Scan# 1004
#SpectrumFile NCP003432_A2_B11_BC8_01_15722.mzXML
#LibraryName NIHcollectionI_05062014.mgf
#MQScore -1
#Organism NIHcollectionI_05062014
#TIC_Query 0
#RT_Query -1
#MZErrorPPM -1
#SharedPeaks 0
#MassDiff 0
#LibMZ -1
#SpecMZ 392.176
#SpecCharge 0
#internalFilename spec-00000.mgf

>collision 10
45.260162 148.0
45.602253 172.0
45.672169 180.0
45.704456 164.0
46.881218 392.0
47.635109 228.0
48.686211 164.0
49.921604 156.0
54.531857 152.0
54.656857 172.0
55.038624 156.0
55.998108 216.0
56.495171 192.0
57.666546 200.0
58.724812 192.0
61.899376 152.0
64.154068 156.0
64.466904 148.0
69.245766 156.0
69.507698 176.0
69.810661 136.0
69.824989 184.0
70.188026 172.0
70.690819 208.0
72.401215 156.0
77.658585 212.0
78.802826 160.0
78.873642 248.0
80.270744 140.0
80.810165 188.0
81.529221 224.0
82.00074 160.0
82.302002 152.0
84.029907 268.0
84.962959 160.0
88.09726 200.0
88.647331 256.0
91.888313 188.0
92.048416 764.0
93.057388 8500.0
93.090363 220.0
94.012459 140.0
94.061928 1084.0
95.070282 164.0
96.886314 164.0
97.021538 144.0
99.402206 216.0
100.215088 132.0
100.785851 160.0
102.193642 240.0
103.129349 140.0
104.720047 156.0
105.812531 216.0
106.318817 176.0
106.411186 180.0
106.840721 168.0
107.415459 192.0
107.640419 168.0
108.020699 200.0
109.169731 168.0
109.248764 220.0
110.591095 124.0
111.334763 168.0
112.235397 184.0
115.364899 252.0
115.955887 156.0
116.367531 160.0
117.124496 140.0
120.644295 172.0
121.952927 148.0
125.207497 152.0
126.681664 140.0
126.955109 228.0
127.657997 148.0
128.656128 204.0
129.044724 164.0
129.463333 156.0
132.229431 144.0
132.841202 168.0
134.454117 144.0
137.228439 144.0
137.709152 180.0
138.3358 164.0
139.92514 140.0
141.895523 156.0
142.938217 192.0
143.119125 156.0
143.153168 160.0
144.819427 160.0
145.272461 180.0
145.913666 140.0
147.183411 200.0
147.482971 156.0
147.608688 172.0
149.43512 184.0
149.710175 152.0
151.941803 180.0
151.995789 168.0
153.220215 160.0
154.296234 180.0
155.346237 160.0
156.014252 160.0
156.080505 236.0
157.087555 192.0
157.451965 152.0
157.55687 120.0
160.009628 156.0
161.243103 148.0
161.534622 160.0
162.466095 260.0
165.496429 196.0
165.842255 180.0
166.062759 164.0
167.076859 136.0
168.081055 420.0
170.625656 144.0
170.755676 188.0
170.903946 208.0
171.328323 144.0
171.390854 140.0
171.565475 244.0
173.366348 176.0
174.011612 144.0
174.111389 140.0
174.654541 152.0
174.894882 148.0
176.773972 152.0
177.863235 180.0
178.423737 216.0
179.078339 136.0
180.08226 964.0
181.087555 540.0
181.124313 164.0
181.440521 192.0
181.679199 168.0
181.826782 192.0
181.915359 184.0
181.982468 144.0
182.04155 172.0
182.090073 112.0
182.269867 176.0
182.944931 176.0
183.084946 156.0
184.120529 168.0
184.317734 200.0
185.10759 140.0
186.2901 140.0
189.830063 156.0
190.984482 172.0
191.286209 188.0
191.67453 140.0
192.485489 172.0
193.087265 304.0
193.289871 156.0
194.08902 948.0
194.612015 152.0
195.091202 2008.0
195.312332 164.0
196.041763 176.0
196.061264 148.0
196.094971 432.0
196.217361 176.0
196.691605 164.0
197.085373 164.0
200.508911 148.0
200.710968 304.0
200.92099 124.0
201.053207 176.0
202.418594 200.0
204.078491 188.0
205.077484 500.0
206.084305 376.0
206.81427 152.0
207.309738 212.0
207.360062 164.0
207.837341 148.0
208.071869 304.0
208.446091 160.0
209.142059 200.0
209.99202 152.0
210.395981 164.0
211.064789 128.0
211.902756 188.0
212.540634 216.0
213.458511 140.0
214.361771 148.0
215.04808 124.0
217.103104 136.0
218.095001 128.0
219.378677 160.0
219.408157 164.0
220.04541 152.0
220.074539 364.0
221.086411 336.0
222.091599 6564.0
222.764023 252.0
222.986877 164.0
223.022537 164.0
223.093521 2248.0
223.138474 152.0
223.572754 140.0
223.849594 208.0
224.087982 128.0
224.567825 152.0
225.197586 172.0
226.22319 156.0
226.582565 188.0
230.099518 180.0
231.29541 204.0
231.628494 164.0
233.71109 188.0
234.039825 184.0
234.109863 224.0
234.332214 172.0
236.065933 176.0
236.558533 208.0
237.864365 156.0
238.715408 144.0
241.089081 172.0
242.556122 156.0
243.263367 152.0
244.388397 192.0
244.450623 156.0
245.11087 216.0
246.340012 176.0
247.597366 140.0
247.744583 168.0
248.092438 152.0
249.401398 120.0
249.429688 228.0
249.624619 156.0
251.114212 156.0
252.76059 176.0
253.301453 168.0
254.088425 132.0
254.366898 156.0
254.953629 120.0
255.098724 156.0
256.000549 172.0
256.036133 140.0
256.105713 164.0
256.427979 152.0
258.056 172.0
258.625977 156.0
259.695557 172.0
259.769348 144.0
261.87149 172.0
261.945557 156.0
262.029327 176.0
262.38382 160.0
262.609558 212.0
262.725677 180.0
262.877319 176.0
262.987061 148.0
264.299103 188.0
264.590393 140.0
266.344727 180.0
266.549408 276.0
266.585144 148.0
267.091003 232.0
269.106628 584.0
269.347961 164.0
269.511292 172.0
269.890442 236.0
270.110199 248.0
270.276428 164.0
270.457458 124.0
270.832947 172.0
270.855865 164.0
270.910431 164.0
270.996735 140.0
271.053101 140.0
271.123566 51364.0
271.225006 196.0
271.483917 136.0
271.785675 124.0
271.825714 136.0
271.998779 120.0
272.129181 22164.0
272.253754 116.0
272.427917 168.0
272.561127 200.0
273.132294 3680.0
273.880646 100.0
273.932648 108.0
274.143463 360.0
274.464355 164.0
275.041687 144.0
275.199127 180.0
275.990936 156.0
276.055969 144.0
276.254395 148.0
276.529053 152.0
277.125092 152.0
277.837921 176.0
278.887238 156.0
280.095062 148.0
280.231628 156.0
280.364929 140.0
280.654938 152.0
281.118591 256.0
281.429016 164.0
282.111786 140.0
282.552002 184.0
282.859161 152.0
283.122314 404.0
283.258331 148.0
284.125427 144.0
284.974915 152.0
285.098816 140.0
285.34906 148.0
286.789825 168.0
286.968475 188.0
287.811981 160.0
290.188354 164.0
290.519531 172.0
291.678162 164.0
291.813477 144.0
292.187592 140.0
292.602783 172.0
294.126587 172.0
296.699005 148.0
296.853302 172.0
296.935608 152.0
297.131622 172.0
297.999756 152.0
298.182129 164.0
298.604736 184.0
298.70105 160.0
298.790497 168.0
299.037354 184.0
299.118591 21476.0
299.393646 188.0
299.584473 196.0
299.828339 176.0
299.860352 256.0
300.024811 104.0
300.126373 66224.0
300.346466 272.0
300.420929 104.0
300.473511 124.0
300.52002 156.0
300.552032 144.0
300.594543 192.0
300.687653 124.0
300.871033 148.0
300.970459 168.0
301.130096 14496.0
301.190399 140.0
301.257721 148.0
301.423981 108.0
301.776093 96.0
301.9198 140.0
302.132996 1876.0
302.217163 184.0
302.309906 292.0
302.335663 128.0
302.410278 148.0
302.774902 96.0
303.127991 264.0
303.293793 144.0
303.492981 96.0
303.562317 104.0
303.699188 164.0
303.982178 112.0
304.223145 140.0
304.314209 100.0
304.376862 136.0
304.660706 164.0
305.321106 180.0
305.863861 164.0
307.121735 156.0
308.759766 168.0
308.924133 172.0
309.057098 164.0
310.561401 164.0
311.6763 188.0
315.150452 156.0
318.136017 140.0
318.231873 272.0
318.768219 160.0
319.017029 148.0
319.881439 156.0
320.714935 144.0
324.27121 180.0
324.493469 144.0
325.921967 148.0
326.342468 144.0
327.76062 156.0
327.85791 156.0
328.69812 168.0
332.218475 168.0
334.453217 240.0
334.865967 256.0
337.301971 172.0
339.187103 168.0
339.260406 152.0
341.248901 104.0
341.687897 140.0
342.057892 148.0
346.843079 152.0
347.847076 120.0
349.580261 152.0
353.13559 188.0
353.509705 180.0
353.535889 156.0
358.410004 164.0
360.908722 144.0
364.184998 140.0
364.410858 192.0
369.137299 192.0
371.922516 144.0
373.3974 152.0
373.467133 152.0
373.886475 140.0
374.65271 220.0
375.193207 176.0
375.442871 196.0
375.813171 200.0
375.89035 176.0
376.013855 148.0
376.218414 184.0
377.40451 164.0
380.573914 160.0
381.988525 144.0
384.013977 188.0
384.677277 152.0
385.857086 156.0
385.95874 172.0
387.391968 152.0
388.231781 224.0
389.21283 140.0
389.442596 148.0
389.876587 148.0
389.994324 152.0
390.035858 132.0
390.210907 124.0
390.260986 96.0
390.288269 124.0
390.380981 120.0
390.450104 116.0
390.507751 292.0
390.566742 148.0
391.03006 308.0
391.154633 188.0
391.251434 268.0
391.318359 156.0
391.414703 172.0
391.502991 164.0
391.577545 108.0
391.617767 188.0
391.657379 164.0
391.77066 152.0
391.867432 264.0
391.918274 400.0
391.947876 252.0
392.028534 376.0
392.133514 1048.0
392.178375 197016.0
392.333344 204.0
392.373016 148.0
392.412628 108.0
392.462311 196.0
392.503815 112.0
392.543457 164.0
392.596069 216.0
392.660828 144.0
392.714478 192.0
392.776306 104.0
392.827087 3608.0
392.901306 304.0
392.973114 284.0
393.046143 112.0
393.107452 236.0
393.180847 93068.0
393.399353 160.0
393.432678 240.0
393.462402 396.0
393.637146 100.0
393.682831 208.0
393.71524 132.0
393.830902 360.0
393.880066 120.0
393.9534 256.0
394.008301 180.0
394.072205 220.0
394.183289 11312.0
394.288574 120.0
394.338043 104.0
394.416107 96.0
394.48587 188.0
394.71524 96.0
394.742126 376.0
394.772034 116.0
395.066162 120.0
395.103394 196.0
395.137817 200.0
395.184265 980.0
395.288269 216.0
395.450714 136.0
395.620056 272.0
395.667664 180.0
395.857056 180.0
395.929932 116.0
395.972839 96.0
396.174316 192.0
396.401855 212.0
396.430878 168.0
396.517822 112.0
396.664185 148.0
396.723633 132.0
396.833679 128.0
396.933563 168.0
397.052002 240.0
397.12616 132.0
397.330383 152.0
397.66507 140.0
397.736694 140.0
398.105621 104.0
398.153046 100.0
436.340424 156.0
489.336273 148.0
560.305725 140.0
587.707825 152.0
603.835876 140.0
614.801331 144.0
786.271973 188.0
888.007446 160.0
948.398987 164.0
1141.607422 208.0
1195.364502 200.0
1224.217407 148.0
1239.137207 140.0
1281.095581 164.0
1283.511719 220.0
1309.734497 232.0
1375.318359 148.0
1391.22583 224.0
1631.943359 188.0
1642.121948 160.0
1651.021851 196.0
1723.326904 248.0
1735.211914 148.0
1791.617065 176.0
1797.139282 188.0
1799.004395 164.0
1808.581543 156.0
1814.01123 156.0
1850.918823 152.0
1868.161255 244.0
1897.420044 152.0
1903.710693 148.0
1911.4646 200.0
1984.432129 200.0
1997.655762 140.0
2000.396606 184.0
