>compound MLS002153394-01!DCEBIO60563-36-2
>formula C9H8Cl2N2O
>ionization [M+H]+
>parentmass 231.00864468809053
#inchi InChI=1S/C9H8Cl2N2O/c1-2-13-8-4-6(11)5(10)3-7(8)12-9(13)14/h3-4H,2H2,1H3,(H,12,14)
#inchikey LKHRMULASXZCLG
#Ion_Source LC-ESI
#Instrument qTof
#Compound_Source NIH Pharmacologically Active Library
#PI Dorrestein
#Data_Collector VP/LMS
#Scan -1
#Precursor_MZ 231.011
#ExactMass 230.001
#Charge 1
#CAS_Number N/A
#Pubmed_ID N/A
#Smiles CCn1c(O)nc2cc(Cl)c(Cl)cc12
#INCHI_AUX N/A
#Library_Class 1
#SpectrumID CCMSLIB00000085798
#IonMode Positive
#UpdateWorkflowName UPDATE-SINGLE-ANNOTATED-GOLD
#LibraryQualityString Gold
#TaskID d252d724072548979f1f6f1ced849daf
##Scan# 1932
#SpectrumFile p4-F07_GF7_01_18391.mzXML
#LibraryName Pharm_Active_Library.mgf
#MQScore -1
#Organism Pharm_Active_Library
#TIC_Query 0
#RT_Query -1
#MZErrorPPM -1
#SharedPeaks 0
#MassDiff 0
#LibMZ -1
#SpecMZ 231.011
#SpecCharge 0
#internalFilename spec-00000.mgf

>collision 10
44.89748 180.0
45.068352 140.0
45.141872 120.0
45.266327 144.0
45.297134 144.0
45.340012 148.0
45.43119 112.0
45.488895 176.0
45.565445 172.0
45.728161 112.0
45.818386 152.0
45.922184 152.0
46.061214 172.0
46.349392 136.0
46.36972 152.0
46.388493 132.0
46.426662 200.0
46.464645 220.0
46.478214 36.0
46.491783 188.0
46.686058 140.0
46.732307 160.0
46.819427 116.0
46.853485 216.0
46.880737 368.0
46.894363 92.0
47.179134 196.0
47.232998 160.0
47.26173 200.0
47.323322 136.0
47.380848 180.0
47.461716 208.0
47.538536 144.0
47.557751 124.0
47.706108 112.0
47.825787 104.0
47.83955 216.0
47.937344 32.0
47.997997 160.0
48.365501 228.0
48.420883 112.0
48.492931 216.0
48.71912 184.0
48.849796 232.0
48.929123 196.0
49.029419 148.0
49.113075 136.0
49.200993 104.0
49.233109 184.0
49.416229 172.0
49.47081 104.0
49.546436 144.0
49.7188 152.0
49.771194 148.0
49.872005 200.0
49.953564 180.0
49.998589 148.0
50.057716 152.0
50.132381 196.0
50.250832 176.0
50.52634 260.0
50.558884 412.0
50.57304 96.0
50.592857 256.0
50.619759 76.0
50.733112 184.0
50.845173 132.0
51.055439 188.0
51.089577 184.0
51.163582 152.0
51.535839 140.0
51.554417 204.0
51.941002 172.0
52.20528 136.0
52.242676 120.0
52.272892 76.0
52.317513 44.0
52.402485 176.0
52.442837 84.0
52.529354 144.0
52.574085 160.0
52.695381 204.0
52.945637 132.0
53.129726 184.0
53.139885 124.0
53.23138 116.0
53.351929 116.0
53.388283 88.0
53.399918 240.0
53.58334 80.0
53.63726 192.0
53.853218 168.0
53.914581 212.0
54.011082 156.0
54.176498 132.0
54.317234 180.0
54.36565 128.0
54.446396 128.0
54.465492 152.0
54.537491 128.0
54.632526 192.0
54.71402 184.0
54.762615 40.0
54.893784 212.0
54.912956 180.0
54.955738 160.0
55.001488 200.0
55.229046 64.0
55.412617 128.0
55.467449 204.0
55.507481 140.0
55.546043 124.0
55.862461 224.0
56.093281 160.0
56.230511 184.0
56.343998 184.0
56.4935 152.0
56.521927 176.0
56.535397 140.0
56.599766 244.0
56.673164 216.0
56.7766 192.0
56.794598 96.0
56.839607 168.0
56.997276 156.0
57.165215 396.0
57.224407 164.0
57.436901 100.0
57.513859 200.0
57.528954 112.0
57.698158 124.0
57.869129 168.0
57.934254 120.0
58.017605 164.0
58.099812 196.0
58.122261 164.0
58.301456 164.0
58.333374 232.0
58.456707 180.0
58.525074 180.0
58.651524 180.0
58.689636 120.0
58.765903 184.0
58.825424 316.0
58.947613 116.0
59.059223 140.0
59.149502 128.0
59.190842 188.0
59.224533 160.0
59.29195 120.0
59.466797 156.0
59.554317 160.0
59.589806 160.0
59.601944 204.0
59.6665 228.0
59.728012 156.0
59.995758 148.0
60.054565 124.0
60.083874 132.0
60.252159 84.0
60.310883 136.0
60.366543 164.0
60.392834 60.0
60.600281 152.0
60.680878 120.0
60.845337 64.0
60.864895 260.0
61.142239 116.0
61.157803 164.0
61.207623 144.0
61.43206 116.0
61.563171 184.0
61.782005 176.0
61.796085 144.0
61.877472 140.0
61.971451 92.0
61.983986 140.0
62.187866 196.0
62.205132 200.0
62.335495 196.0
62.454983 128.0
62.579308 188.0
62.77998 220.0
62.833065 80.0
62.850422 208.0
63.278767 100.0
63.299355 152.0
63.323109 148.0
63.540283 132.0
63.668861 104.0
63.784851 164.0
63.845726 140.0
64.018738 112.0
64.06971 152.0
64.112732 260.0
64.138237 260.0
64.694153 184.0
64.756599 108.0
64.807869 212.0
64.94574 180.0
65.005104 60.0
65.069305 140.0
65.109451 120.0
65.340927 200.0
65.371498 192.0
65.416565 192.0
65.456818 168.0
65.559921 236.0
65.598602 244.0
65.682457 108.0
65.743774 212.0
65.87133 196.0
66.008705 128.0
66.159187 112.0
66.238533 224.0
66.324417 196.0
66.405846 156.0
66.668503 96.0
66.803459 112.0
66.898773 148.0
66.943443 172.0
67.090088 208.0
67.104759 160.0
67.200775 152.0
67.369156 132.0
67.390396 144.0
67.774918 184.0
67.879822 84.0
67.999588 172.0
68.076752 156.0
68.283829 116.0
68.545593 140.0
68.660988 144.0
68.687378 160.0
68.839226 164.0
69.037537 64.0
69.38195 100.0
69.576065 232.0
69.595985 144.0
69.659096 80.0
69.748833 140.0
69.92514 168.0
69.945114 192.0
69.973419 172.0
70.165108 228.0
70.405304 212.0
70.482147 132.0
70.582443 148.0
70.622581 180.0
70.684486 68.0
70.970924 228.0
71.001106 96.0
71.128059 148.0
71.140381 196.0
71.173958 68.0
71.264664 112.0
71.304993 100.0
71.327362 208.0
71.347015 68.0
71.37056 100.0
71.419327 48.0
71.688713 48.0
71.847214 100.0
72.049805 124.0
72.159668 96.0
72.257759 192.0
72.269608 80.0
72.305145 120.0
72.322067 184.0
72.566017 172.0
72.798485 164.0
72.846046 116.0
72.961609 176.0
72.993912 156.0
73.043236 248.0
73.124916 232.0
73.150444 132.0
73.210037 152.0
73.493011 208.0
73.509888 180.0
73.562195 224.0
73.660324 180.0
73.812439 172.0
73.990387 172.0
74.069168 164.0
74.089722 196.0
74.322906 144.0
74.389839 72.0
74.769714 200.0
74.959145 188.0
75.028709 212.0
75.155724 188.0
75.271378 208.0
75.396294 188.0
75.5289 212.0
75.669075 144.0
76.144218 164.0
76.168533 148.0
76.182434 160.0
76.194595 164.0
76.284966 92.0
76.385826 96.0
76.652214 164.0
76.711472 192.0
77.006363 116.0
77.147911 148.0
77.19162 136.0
77.380592 64.0
77.392853 116.0
77.462906 168.0
77.585579 152.0
77.994606 84.0
78.020981 72.0
78.063179 168.0
78.182808 148.0
78.383568 60.0
78.395897 68.0
78.499908 120.0
78.589874 228.0
78.6287 108.0
78.709908 160.0
78.837898 168.0
78.860069 172.0
78.898964 136.0
78.996231 160.0
79.019226 172.0
79.164375 140.0
79.189171 72.0
79.224602 112.0
79.252945 116.0
79.495888 132.0
79.539322 152.0
79.561562 76.0
79.650352 76.0
79.868996 112.0
79.968636 148.0
80.134254 176.0
80.162766 180.0
80.312523 184.0
80.423157 72.0
80.439217 176.0
80.589241 144.0
80.678604 216.0
80.73761 132.0
81.292976 212.0
81.549805 96.0
81.794434 196.0
82.023209 152.0
82.079094 112.0
82.340775 168.0
82.485321 160.0
82.783859 196.0
83.073868 172.0
83.142815 136.0
83.45163 52.0
83.872177 116.0
83.945107 164.0
84.01989 204.0
84.233482 232.0
84.280983 168.0
84.423569 104.0
84.463806 160.0
84.562614 228.0
84.780563 148.0
84.861221 172.0
85.103416 208.0
85.299995 284.0
85.369164 52.0
85.384193 152.0
85.419525 132.0
85.432404 116.0
85.594376 100.0
85.645943 188.0
85.679337 156.0
85.69178 168.0
85.830238 108.0
85.961212 136.0
85.996277 208.0
86.138458 184.0
86.193886 96.0
86.229004 184.0
86.256729 152.0
86.378777 76.0
86.408379 124.0
86.550896 140.0
86.604607 148.0
86.658325 136.0
86.686127 252.0
86.710213 152.0
86.74173 180.0
86.860924 200.0
86.958748 148.0
87.031151 48.0
87.295021 116.0
87.343376 176.0
87.397331 140.0
87.525764 220.0
87.628212 140.0
87.665482 192.0
87.685982 172.0
87.72699 144.0
87.872459 80.0
87.891121 220.0
87.989487 184.0
88.097595 224.0
88.290894 72.0
88.39753 132.0
88.418114 168.0
88.453674 240.0
88.545425 160.0
88.684074 168.0
88.916649 120.0
89.247276 216.0
89.580406 136.0
89.678391 44.0
89.691589 140.0
89.765114 180.0
89.863205 172.0
89.968895 120.0
90.018684 76.0
90.276085 180.0
90.348763 144.0
90.534264 168.0
90.75029 168.0
90.953285 208.0
90.989349 204.0
91.046318 140.0
91.065315 240.0
91.306694 116.0
91.377075 124.0
91.746231 164.0
92.028931 204.0
92.068619 184.0
92.090042 40.0
92.29644 112.0
92.369118 268.0
92.526047 196.0
92.549103 184.0
92.570084 200.0
92.696518 100.0
92.780853 148.0
92.815369 112.0
92.849884 176.0
93.078255 112.0
93.116661 160.0
93.193504 108.0
93.408539 132.0
93.536697 196.0
93.572411 204.0
93.65715 132.0
93.751556 156.0
93.790108 284.0
93.80938 168.0
93.83252 220.0
93.857582 196.0
94.092979 100.0
94.11615 152.0
94.390541 112.0
94.527885 144.0
94.543365 152.0
94.603371 180.0
94.653709 200.0
94.69632 184.0
94.709877 188.0
94.777687 188.0
94.816444 132.0
95.198631 152.0
95.227768 136.0
95.394875 116.0
95.581589 80.0
95.629272 184.0
95.71006 156.0
95.791 180.0
96.090149 84.0
96.451431 168.0
96.731163 140.0
97.026985 64.0
97.229027 244.0
97.2565 76.0
97.307541 116.0
97.388062 148.0
97.460747 184.0
97.486206 176.0
97.631775 228.0
97.659309 116.0
98.10434 124.0
98.212799 152.0
98.244362 164.0
98.44767 216.0
98.759941 68.0
98.979622 48.0
99.003387 108.0
99.100449 228.0
99.296707 112.0
99.33638 196.0
99.40979 96.0
99.534851 112.0
99.590462 144.0
99.659996 152.0
99.997841 176.0
100.123497 228.0
100.175285 160.0
100.35067 84.0
100.366623 60.0
100.440414 136.0
100.661957 64.0
100.737854 120.0
100.769814 128.0
100.979721 120.0
101.027725 88.0
101.133781 128.0
101.161812 136.0
101.285965 108.0
101.314011 156.0
101.484375 132.0
101.587273 196.0
101.705048 152.0
101.805443 164.0
101.871719 192.0
101.996315 224.0
102.086792 220.0
102.292015 156.0
102.598228 208.0
103.02713 812.0
103.076591 164.0
103.218094 92.0
103.234276 200.0
103.268654 232.0
103.333389 140.0
103.408264 36.0
103.570244 172.0
103.590508 180.0
103.624947 164.0
103.906769 120.0
103.920967 140.0
104.012299 200.0
104.040718 104.0
104.30481 244.0
104.459358 148.0
104.699539 184.0
104.732124 228.0
104.768791 180.0
104.878838 168.0
104.931839 184.0
104.958344 172.0
104.99913 156.0
105.043716 17076.0
105.092972 64.0
105.10997 80.0
105.156235 132.0
105.28894 52.0
105.315125 44.0
105.374741 36.0
105.472832 284.0
105.50145 56.0
105.530075 76.0
105.595512 196.0
105.609833 48.0
105.736687 72.0
105.770645 216.0
105.804237 192.0
105.84314 44.0
106.013168 76.0
106.047318 988.0
106.103355 220.0
106.140266 228.0
106.261284 52.0
106.41111 176.0
106.495308 120.0
106.524063 56.0
106.550774 52.0
106.608307 92.0
106.636345 56.0
106.679016 140.0
106.710243 176.0
106.756325 72.0
106.799515 196.0
106.834488 68.0
106.863289 164.0
106.90239 152.0
106.940399 172.0
107.046486 132.0
107.063469 148.0
107.118576 120.0
107.149483 120.0
107.221603 176.0
107.238091 232.0
107.337051 140.0
107.393303 160.0
107.417694 196.0
107.452553 156.0
107.514465 164.0
107.528908 156.0
107.56813 104.0
107.706482 192.0
107.805656 184.0
107.966911 180.0
108.233864 200.0
108.25367 176.0
108.353996 188.0
108.407867 188.0
108.441032 176.0
108.519806 172.0
108.546761 160.0
108.573723 136.0
108.629723 176.0
108.762535 124.0
109.011765 180.0
109.047096 148.0
109.080353 104.0
109.196793 144.0
109.229858 188.0
109.248802 196.0
109.338272 168.0
109.511086 236.0
109.556915 188.0
109.571495 164.0
109.625923 168.0
109.650681 196.0
109.934319 172.0
110.070007 52.0
110.102341 184.0
110.13266 120.0
110.243393 192.0
110.281013 176.0
110.324913 252.0
110.607323 204.0
110.81675 252.0
110.894287 184.0
110.944649 160.0
111.032661 188.0
111.076714 52.0
111.148048 148.0
111.194214 44.0
111.215202 144.0
111.311783 128.0
111.713226 132.0
111.734268 216.0
111.993523 1352.0
112.256645 248.0
112.343124 164.0
112.37899 116.0
112.421196 184.0
112.600647 156.0
113.001678 692.0
113.027687 228.0
113.292343 60.0
113.307175 192.0
113.358025 112.0
113.399551 236.0
113.47673 164.0
113.508537 176.0
113.550949 76.0
113.748283 44.0
113.990219 188.0
114.010239 244.0
114.273216 152.0
114.430717 72.0
114.639473 92.0
114.814285 68.0
114.976433 104.0
115.000526 544.0
115.104523 140.0
115.431465 128.0
115.601021 92.0
116.048157 212.0
116.091042 148.0
116.291 200.0
116.855751 44.0
117.043015 172.0
117.105469 32.0
117.424461 120.0
117.497803 76.0
117.984848 196.0
118.007523 188.0
118.028046 188.0
118.061584 208.0
118.117821 88.0
118.254143 96.0
118.480705 160.0
118.531349 68.0
118.644058 160.0
118.700432 196.0
118.81105 160.0
118.99987 128.0
119.09977 204.0
119.304039 152.0
119.59771 156.0
119.713104 124.0
120.081421 244.0
120.159958 140.0
120.539146 188.0
120.59671 212.0
120.673225 132.0
120.706024 148.0
120.960602 464.0
121.038635 248.0
121.083031 128.0
121.209496 164.0
121.428726 72.0
121.547195 172.0
121.567009 136.0
121.685478 180.0
121.766731 176.0
121.900742 140.0
121.995255 160.0
122.089806 192.0
122.327438 200.0
122.488716 168.0
122.956123 416.0
123.013023 156.0
123.143303 148.0
123.412918 148.0
123.66954 156.0
123.740379 184.0
123.777924 180.0
123.803558 136.0
123.994286 252.0
124.214638 192.0
124.26123 84.0
124.416588 148.0
124.60537 208.0
124.649811 64.0
124.674255 224.0
124.689484 164.0
124.847664 140.0
124.974457 96.0
125.009026 300.0
125.07238 84.0
125.183701 120.0
125.431015 172.0
125.515732 124.0
125.546959 224.0
125.562569 132.0
125.691956 124.0
125.727661 128.0
125.783463 144.0
125.888405 204.0
125.935303 68.0
126.009026 148.0
126.160995 176.0
126.205719 168.0
126.230316 28.0
126.695877 168.0
126.890862 108.0
126.920006 72.0
126.982803 112.0
127.000305 184.0
127.100418 140.0
127.158104 120.0
127.198212 160.0
127.27005 168.0
127.717285 132.0
127.773521 132.0
127.982841 124.0
128.066177 212.0
128.102219 76.0
128.185577 216.0
128.327591 92.0
128.402008 136.0
128.417786 184.0
128.462906 116.0
128.68634 148.0
128.729248 144.0
128.781189 140.0
128.828629 60.0
128.932571 164.0
128.99559 172.0
129.169983 160.0
129.264999 140.0
129.346481 252.0
129.391754 196.0
129.536697 156.0
129.6651 192.0
129.974274 180.0
130.074142 200.0
130.146164 200.0
130.242172 128.0
130.76741 88.0
130.851639 140.0
131.09082 156.0
131.213898 108.0
131.34845 88.0
131.371262 144.0
131.489914 104.0
131.531006 188.0
131.574371 208.0
131.652008 72.0
131.686279 200.0
131.729675 224.0
131.997086 132.0
132.031387 180.0
132.061127 140.0
132.409012 164.0
132.438797 256.0
132.518982 124.0
132.844528 192.0
132.863724 188.0
132.963455 740.0
132.998276 208.0
133.035095 232.0
133.071747 156.0
133.345108 160.0
133.50145 164.0
133.600357 72.0
133.738419 96.0
133.837418 240.0
133.957184 64.0
134.021683 140.0
134.175812 92.0
134.658401 84.0
134.723083 92.0
134.955475 664.0
135.125366 116.0
135.20636 148.0
135.324417 184.0
135.410095 156.0
135.428619 152.0
135.516663 188.0
135.74614 156.0
135.776291 116.0
135.85051 128.0
135.968857 164.0
136.010635 128.0
136.031525 156.0
136.470627 188.0
136.861526 104.0
137.101471 80.0
137.209778 232.0
137.46994 72.0
137.516617 92.0
138.016556 156.0
138.166245 216.0
138.430756 56.0
138.683777 200.0
138.831482 96.0
139.004913 8304.0
139.044983 60.0
139.063751 40.0
139.249237 284.0
139.279785 36.0
139.317368 104.0
139.3479 172.0
139.420746 56.0
139.43956 44.0
139.479507 60.0
139.495972 76.0
139.62294 124.0
139.679382 192.0
139.74527 56.0
139.771149 48.0
139.787613 76.0
139.86293 60.0
139.900665 140.0
139.957108 140.0
139.989441 1020.0
140.011475 6656.0
140.07251 192.0
140.154968 28.0
140.261017 188.0
140.322311 44.0
140.468536 96.0
140.737579 204.0
140.855667 96.0
140.902924 216.0
141.001846 1212.0
141.044708 60.0
141.205505 96.0
141.328506 36.0
141.413712 156.0
141.579437 36.0
141.722839 180.0
141.783188 132.0
141.859039 88.0
141.904083 200.0
141.98587 784.0
142.009399 1568.0
142.210098 60.0
142.305054 140.0
142.340683 144.0
142.376297 180.0
142.487946 148.0
142.844543 224.0
142.992081 216.0
143.011261 200.0
143.225418 336.0
143.437225 176.0
143.500397 52.0
143.840637 176.0
144.034058 160.0
144.067505 216.0
144.27063 40.0
144.35672 140.0
144.56723 188.0
144.777908 244.0
144.993347 164.0
145.019897 120.0
145.118179 144.0
145.254883 140.0
145.29567 180.0
145.45285 168.0
145.626938 136.0
145.725433 52.0
145.891266 164.0
146.119492 76.0
146.151016 204.0
146.201553 208.0
146.345993 172.0
146.548309 148.0
146.59169 156.0
146.897903 68.0
146.963211 344.0
147.054749 136.0
147.25032 108.0
147.286545 72.0
147.356598 96.0
147.501602 240.0
147.595901 132.0
147.859589 84.0
147.898315 76.0
147.915253 140.0
147.970398 17940.0
148.033401 136.0
148.054047 148.0
148.118668 68.0
148.184082 44.0
148.213974 196.0
148.242233 196.0
148.295547 60.0
148.339188 52.0
148.365845 32.0
148.421616 32.0
148.649643 44.0
148.741867 88.0
148.800125 68.0
148.880264 60.0
148.921555 176.0
148.971313 700.0
149.125656 308.0
149.278809 80.0
149.466125 260.0
149.495331 36.0
149.580521 100.0
149.697388 132.0
149.802109 156.0
149.840454 200.0
149.91626 128.0
149.967255 7492.0
150.042374 136.0
150.084839 64.0
150.136749 152.0
150.226288 96.0
150.248245 120.0
150.474625 96.0
150.78302 52.0
150.812347 48.0
150.844131 44.0
150.866135 48.0
150.976654 348.0
151.023972 160.0
151.250198 148.0
151.328537 164.0
151.389755 132.0
151.406891 88.0
151.45343 44.0
151.539185 164.0
151.671509 108.0
151.830887 184.0
152.002121 100.0
152.015549 176.0
152.100784 112.0
152.117966 236.0
152.137711 196.0
152.194275 148.0
152.228455 160.0
152.332016 200.0
152.393036 64.0
152.491333 108.0
152.515915 104.0
152.540497 108.0
152.734756 196.0
152.847931 72.0
152.867615 204.0
152.941452 112.0
153.02037 548.0
153.158142 192.0
153.234512 88.0
153.532776 60.0
153.571945 168.0
153.841217 84.0
153.893066 176.0
153.999512 260.0
154.174667 176.0
154.253174 220.0
154.369965 76.0
154.409546 132.0
154.612411 212.0
154.738663 188.0
154.998734 364.0
155.016632 480.0
155.251587 92.0
155.283829 176.0
155.519547 184.0
155.598984 152.0
155.983612 156.0
156.012222 156.0
156.078537 144.0
156.280014 148.0
156.394485 120.0
156.481613 60.0
156.638519 180.0
156.685852 188.0
156.715744 264.0
156.845337 184.0
157.01474 128.0
157.047318 168.0
157.094711 100.0
157.244431 164.0
157.614258 228.0
157.871506 128.0
157.957886 156.0
157.981567 144.0
158.311966 84.0
158.605103 120.0
158.672791 128.0
158.737991 84.0
159.43338 216.0
159.968765 264.0
160.054626 156.0
160.551178 148.0
160.700012 248.0
160.727768 52.0
160.980682 148.0
161.00293 104.0
161.253052 232.0
161.564087 148.0
161.764008 184.0
161.973114 300.0
162.202255 116.0
162.258621 220.0
162.648697 88.0
162.729935 120.0
162.923996 196.0
162.980331 176.0
163.004272 144.0
163.024597 172.0
163.105927 120.0
163.29155 68.0
164.764938 144.0
164.913162 180.0
165.017776 160.0
165.076782 60.0
165.125381 208.0
165.34285 164.0
165.463165 160.0
165.609131 224.0
165.629623 168.0
165.908936 108.0
165.996124 104.0
166.026901 140.0
166.429779 92.0
166.550247 212.0
166.69693 144.0
166.787857 160.0
166.807449 136.0
166.999557 784.0
167.0336 272.0
167.24733 128.0
167.271515 180.0
167.414673 180.0
167.491943 80.0
167.552399 292.0
167.687408 140.0
167.739319 96.0
167.815903 148.0
167.878555 120.0
167.932846 328.0
167.9655 204.0
168.007782 42904.0
168.084061 36.0
168.107666 64.0
168.174545 88.0
168.226883 60.0
168.257858 104.0
168.301758 100.0
168.337112 104.0
168.40506 64.0
168.4319 224.0
168.482559 128.0
168.510971 80.0
168.556503 148.0
168.588501 108.0
168.619507 56.0
168.640182 56.0
168.691742 72.0
168.709976 144.0
168.797211 76.0
168.802322 56.0
168.836685 80.0
168.911682 92.0
169.009689 4112.0
169.095398 112.0
169.114487 64.0
169.217072 96.0
169.274826 92.0
169.293945 128.0
169.312881 184.0
169.437866 48.0
169.504593 128.0
169.573334 128.0
169.614761 204.0
169.779373 56.0
169.831253 36.0
169.961243 152.0
170.004425 12156.0
170.127075 52.0
170.160828 32.0
170.184204 76.0
170.207565 40.0
170.248688 120.0
170.282883 92.0
170.312378 124.0
170.353973 184.0
170.39888 140.0
170.462143 56.0
170.482925 32.0
170.59729 100.0
170.748108 80.0
170.802734 160.0
170.823547 64.0
170.85997 48.0
171.005585 636.0
171.036926 68.0
171.281693 92.0
171.310349 176.0
171.352036 48.0
171.576172 88.0
171.667435 144.0
171.818726 40.0
171.967468 116.0
171.993561 200.0
172.019669 68.0
172.080978 208.0
172.244247 88.0
172.296494 120.0
172.367035 140.0
172.401016 60.0
172.427155 92.0
172.675522 92.0
172.740921 172.0
172.769699 136.0
172.793243 92.0
172.963348 112.0
173.047119 132.0
173.607895 84.0
173.639359 180.0
173.975006 568.0
174.382401 116.0
174.490173 72.0
174.663742 192.0
174.737396 148.0
174.89003 168.0
174.940048 240.0
174.980637 10172.0
175.039078 76.0
175.075165 76.0
175.095413 144.0
175.227112 116.0
175.314072 92.0
175.366791 76.0
175.432678 64.0
175.540787 52.0
175.593536 104.0
175.910172 40.0
175.984299 1336.0
176.129349 80.0
176.171616 40.0
176.354935 64.0
176.451752 64.0
176.499359 72.0
176.655396 156.0
176.901505 32.0
176.977905 6540.0
177.110703 36.0
177.208725 68.0
177.272324 48.0
177.378342 132.0
177.412796 112.0
177.542511 100.0
177.794769 60.0
177.86908 60.0
177.94342 144.0
177.981781 276.0
178.105408 120.0
178.195145 192.0
178.514709 72.0
178.666321 44.0
178.692932 52.0
178.977737 76.0
179.01236 152.0
179.140198 80.0
179.366714 72.0
179.676056 104.0
179.932281 40.0
180.007034 140.0
180.212723 152.0
180.608383 148.0
180.93486 68.0
181.01413 1312.0
181.237518 100.0
181.602127 124.0
181.992279 236.0
182.386169 120.0
183.007523 292.0
183.967438 220.0
184.006882 176.0
184.548325 56.0
184.845871 92.0
185.007111 384.0
185.130112 116.0
185.295349 32.0
185.504028 176.0
185.598923 120.0
185.745377 152.0
185.986877 48.0
186.291016 128.0
186.546463 116.0
186.712326 180.0
186.962555 160.0
186.981125 452.0
187.090561 160.0
187.763611 52.0
187.864532 108.0
188.717331 220.0
188.977341 156.0
189.422745 56.0
189.633743 136.0
189.896957 120.0
190.390976 132.0
191.003906 140.0
191.031418 48.0
191.069931 148.0
191.617813 184.0
192.09201 60.0
192.384521 52.0
193.396271 156.0
194.966095 68.0
195.006805 440.0
195.052261 56.0
195.383194 164.0
196.036484 440.0
196.995453 164.0
197.022507 144.0
197.483749 156.0
198.018341 160.0
198.963348 52.0
198.988617 132.0
199.13768 144.0
199.291962 68.0
199.485886 240.0
199.935928 128.0
200.155518 124.0
200.682434 100.0
200.727539 140.0
200.812149 248.0
200.874207 32.0
200.981415 132.0
201.345581 72.0
201.419022 192.0
201.891037 120.0
201.968002 1612.0
202.029633 84.0
202.41243 180.0
202.492447 176.0
202.68367 64.0
202.721924 160.0
202.805542 188.0
202.860474 168.0
202.899094 128.0
202.927444 168.0
202.976074 21712.0
203.067108 72.0
203.091919 68.0
203.129654 132.0
203.233765 168.0
203.372833 124.0
203.42392 40.0
203.448959 88.0
203.493042 92.0
203.577255 88.0
203.651932 68.0
203.776093 76.0
203.815292 176.0
203.86702 220.0
203.908417 184.0
203.973053 1440.0
204.020508 60.0
204.046097 36.0
204.105804 68.0
204.144196 112.0
204.370346 160.0
204.532562 140.0
204.674911 40.0
204.972534 11092.0
205.045258 92.0
205.1091 120.0
205.14502 48.0
205.184937 84.0
205.23056 44.0
205.34462 92.0
205.407379 116.0
205.427353 128.0
205.481552 84.0
205.535065 148.0
205.564301 84.0
205.712723 40.0
205.749832 132.0
205.861191 128.0
205.97226 520.0
206.029709 60.0
206.152588 56.0
207.251434 52.0
207.334534 144.0
207.386124 176.0
207.569611 152.0
207.735962 40.0
209.028885 84.0
209.685501 112.0
210.400894 216.0
212.194687 120.0
212.624008 96.0
214.284439 164.0
214.680862 112.0
214.982147 132.0
214.987808 168.0
215.095184 144.0
215.983505 464.0
216.091736 52.0
216.305374 48.0
216.982895 224.0
217.099411 164.0
217.298874 44.0
217.980103 72.0
218.068268 116.0
219.717331 92.0
219.814697 108.0
220.66835 68.0
220.987091 240.0
222.665649 144.0
222.979095 312.0
224.71669 80.0
224.970367 128.0
226.351715 200.0
227.103973 112.0
228.83194 300.0
228.995895 296.0
229.250641 144.0
230.796219 100.0
230.905075 128.0
231.006409 3820.0
231.125916 64.0
231.201569 32.0
231.292374 44.0
231.425583 72.0
231.446777 36.0
231.931519 88.0
232.008011 472.0
232.641357 144.0
233.00386 1756.0
233.069611 188.0
233.376602 60.0
233.79335 136.0
234.007492 252.0
234.137375 156.0
234.557861 32.0
234.603592 92.0
235.082458 100.0
235.696259 64.0
236.690399 32.0
236.92012 40.0
240.67865 108.0
242.907013 136.0
243.44397 96.0
243.984619 32.0
249.012573 84.0
251.020447 164.0
259.741699 44.0
261.360931 52.0
266.758972 52.0
269.218994 68.0
272.843048 52.0
278.298004 52.0
278.942535 116.0
281.447968 76.0
285.553253 72.0
290.86496 84.0
298.824524 96.0
299.84729 36.0
304.521637 56.0
310.588135 80.0
321.553711 68.0
323.942291 88.0
325.57431 88.0
328.226532 64.0
336.75885 96.0
343.114746 92.0
352.22934 72.0
353.242371 68.0
357.429504 40.0
363.767822 100.0
369.671844 44.0
384.649597 88.0
388.151276 92.0
390.220551 104.0
396.140503 64.0
417.772522 68.0
439.09906 32.0
452.800995 88.0
504.881165 72.0
510.415039 48.0
519.96991 68.0
539.821594 108.0
557.786621 72.0
568.223633 108.0
584.955627 76.0
590.461182 68.0
593.759399 104.0
600.84198 84.0
603.44519 120.0
610.172058 76.0
610.531006 48.0
619.707764 172.0
670.107178 80.0
684.455261 112.0
687.144775 72.0
714.905151 76.0
741.76178 164.0
744.458374 132.0
759.818726 148.0
813.770142 152.0
833.562866 48.0
865.333557 272.0
894.873962 184.0
897.346619 48.0
898.915344 76.0
900.515381 108.0
908.164856 124.0
933.78717 188.0
937.982483 164.0
940.385803 68.0
941.454224 108.0
960.974915 132.0
965.502869 160.0
969.334961 104.0
977.668945 184.0
989.973816 200.0
994.757874 256.0
997.84259 128.0
998.364502 188.0
1000.277222 176.0
1012.235474 140.0
1014.510132 96.0
1014.706665 40.0
1015.10614 184.0
1016.977722 248.0
1024.123413 192.0
1026.463623 168.0
1026.527344 132.0
1027.70105 192.0
1041.478149 176.0
1043.856201 180.0
1050.083862 168.0
1061.388428 88.0
1062.80249 172.0
1077.210571 128.0
1077.471924 164.0
1085.365601 180.0
1086.867676 60.0
1087.68811 208.0
1092.439209 92.0
1099.417114 124.0
1101.265747 200.0
1111.534058 116.0
1115.233398 228.0
1118.099976 56.0
1123.450684 152.0
1123.984497 84.0
1127.223145 144.0
1129.155273 176.0
1131.577637 216.0
1140.285034 112.0
1140.910156 56.0
1141.23291 216.0
1142.901001 232.0
1143.802856 124.0
1147.629517 76.0
1148.013916 172.0
1149.950195 180.0
1150.895264 44.0
1156.560669 136.0
1158.145142 180.0
1162.694702 180.0
1166.593628 204.0
1167.123901 124.0
1168.899292 132.0
1172.508667 184.0
1172.631348 168.0
1174.895386 172.0
1180.47583 184.0
1181.837036 168.0
1183.103271 168.0
1184.144165 240.0
1185.863892 120.0
1187.893555 152.0
1189.149292 140.0
1192.824097 248.0
1195.995239 144.0
1200.687378 184.0
1201.611816 84.0
1203.875854 140.0
1204.338623 184.0
1204.490601 124.0
1205.036377 128.0
1206.197388 224.0
1210.092407 60.0
1211.920898 176.0
1212.461426 172.0
1212.835693 184.0
1213.799438 132.0
1215.457275 152.0
1216.907959 200.0
1217.164917 208.0
1219.485352 208.0
1221.508789 172.0
1224.571533 152.0
1224.717773 148.0
1227.554443 208.0
1228.71228 156.0
1230.596802 84.0
1234.474976 64.0
1234.887573 172.0
1235.608154 72.0
1236.251831 116.0
1238.036987 188.0
1239.150879 244.0
1239.199829 192.0
1241.576172 212.0
1243.828491 48.0
1244.067139 180.0
1244.228638 136.0
1244.776367 200.0
1244.923828 148.0
1246.399048 136.0
1252.273438 44.0
1258.740601 100.0
1258.860596 204.0
1259.581055 148.0
1264.679321 148.0
1265.897095 168.0
1266.661987 156.0
1271.26355 284.0
1273.613647 124.0
1274.650879 148.0
1274.807251 92.0
1277.053833 196.0
1278.071167 180.0
1279.857788 168.0
1288.445435 164.0
1294.210205 172.0
1294.47522 152.0
1294.72583 148.0
1294.955078 132.0
1297.44873 176.0
1299.055176 228.0
1299.58606 184.0
1303.753662 192.0
1305.440552 140.0
1307.793213 180.0
1308.484253 164.0
1311.358521 148.0
1313.182739 112.0
1315.231934 208.0
1319.993164 172.0
1321.902832 156.0
1322.539795 188.0
1323.669189 164.0
1327.887085 84.0
1328.830078 76.0
1331.407104 88.0
1331.662598 176.0
1333.783081 148.0
1333.979248 64.0
1336.888672 96.0
1338.41748 192.0
1338.868896 128.0
1339.356934 108.0
1339.604614 108.0
1339.728394 156.0
1340.238403 172.0
1341.38269 208.0
1344.533691 164.0
1345.876953 128.0
1346.278564 32.0
1346.665649 176.0
1347.082031 188.0
1351.432129 224.0
1352.112671 152.0
1353.269287 188.0
1354.426392 88.0
1355.400879 144.0
1356.324341 248.0
1357.072144 48.0
1357.475342 232.0
1358.318848 96.0
1363.414551 148.0
1365.083374 100.0
1365.311279 40.0
1369.234009 148.0
1370.073853 176.0
1370.162231 208.0
1370.508545 232.0
1371.481323 140.0
1378.31543 176.0
1379.283569 140.0
1380.252075 112.0
1381.539062 108.0
1382.102295 160.0
1383.433594 44.0
1383.626099 188.0
1384.573975 252.0
1385.018311 320.0
1385.225708 180.0
1386.129639 172.0
1386.774414 200.0
1387.59729 172.0
1387.656616 84.0
1389.745239 256.0
1390.25293 256.0
1390.757568 172.0
1393.587036 156.0
1394.025879 152.0
1394.300415 164.0
1395.021484 164.0
1398.033936 180.0
1398.324097 264.0
1398.621826 100.0
1399.55249 204.0
1400.714355 156.0
1400.781372 176.0
1400.98999 28.0
1403.859619 152.0
1404.545776 64.0
1405.94104 164.0
1406.314209 180.0
1406.575562 240.0
1408.210815 132.0
1410.153442 148.0
1410.415039 212.0
1410.990601 108.0
1411.080322 164.0
1415.644897 172.0
1417.008179 168.0
1417.832397 152.0
1418.911865 188.0
1422.280151 160.0
1422.978394 180.0
1423.721802 216.0
1425.280029 220.0
1425.487183 56.0
1426.313965 96.0
1426.765015 40.0
1426.983032 200.0
1427.426636 200.0
1428.87085 172.0
1430.662109 148.0
1431.031006 136.0
1432.996826 192.0
1437.43811 220.0
1439.446167 208.0
1442.468262 136.0
1444.994263 132.0
1447.030273 132.0
1447.166504 216.0
1448.80249 228.0
1449.385864 144.0
1450.257446 156.0
1453.510986 212.0
1454.292725 192.0
1454.641846 176.0
1454.763306 160.0
1456.616211 188.0
1458.94165 204.0
1459.97583 180.0
1460.447388 100.0
1460.789673 100.0
1461.390747 44.0
1462.448486 164.0
1468.155151 112.0
1469.963257 164.0
1470.57373 156.0
1471.100464 176.0
1472.352661 144.0
1473.460327 188.0
1475.569824 140.0
1476.579224 136.0
1478.736816 68.0
1479.364502 176.0
1480.183716 36.0
1481.37085 212.0
1484.083984 168.0
1484.536377 200.0
1485.134644 172.0
1487.613281 208.0
1489.133667 192.0
1489.502319 128.0
1490.939209 120.0
1491.615601 164.0
1492.861084 172.0
1493.407227 232.0
1494.084106 244.0
1494.961304 140.0
1495.176758 172.0
1496.262207 176.0
1499.222412 144.0
1500.653931 200.0
1504.611938 128.0
