>compound MLS001240218-01!4-Methyl-N,N-dipropyl-benzenesulfonamide
>formula C13H21NO2S
>ionization [M+H]+
>parentmass 256.13657636409056
#inchi InChI=1S/C13H21NO2S/c1-4-10-14(11-5-2)17(15,16)13-8-6-12(3)7-9-13/h6-9H,4-5,10-11H2,1-3H3
#inchikey AUUADVNHIYKUBA
#Ion_Source LC-ESI
#Instrument qTof
#Compound_Source NIH Pharmacologically Active Library
#PI Dorrestein
#Data_Collector VP/LMS
#Scan -1
#Precursor_MZ 256.131
#ExactMass 255.129
#Charge 1
#CAS_Number N/A
#Pubmed_ID N/A
#Smiles CCCN(CCC)S(=O)(=O)c1ccc(C)cc1
#INCHI_AUX N/A
#Library_Class 1
#SpectrumID CCMSLIB00000085369
#IonMode Positive
#UpdateWorkflowName UPDATE-SINGLE-ANNOTATED-GOLD
#LibraryQualityString Gold
#TaskID d252d724072548979f1f6f1ced849daf
##Scan# 2489
#SpectrumFile p3-H10_GH10_01_18315.mzXML
#LibraryName Pharm_Active_Library.mgf
#MQScore -1
#Organism Pharm_Active_Library
#TIC_Query 0
#RT_Query -1
#MZErrorPPM -1
#SharedPeaks 0
#MassDiff 0
#LibMZ -1
#SpecMZ 256.131
#SpecCharge 0
#internalFilename spec-00000.mgf

>collision 10
45.128605 148.0
45.523922 64.0
45.650249 188.0
47.361839 160.0
48.130657 40.0
50.723446 184.0
51.209423 204.0
52.005863 268.0
52.274632 208.0
54.197361 128.0
57.139034 132.0
59.501041 124.0
60.698433 216.0
64.936707 100.0
65.069901 184.0
68.848152 164.0
69.021667 120.0
69.835983 112.0
69.925827 144.0
70.705269 204.0
70.926361 92.0
72.453194 176.0
72.480309 220.0
75.011635 184.0
75.534874 176.0
77.180199 164.0
78.95816 160.0
79.406258 224.0
79.876968 180.0
80.211754 164.0
81.207741 188.0
81.55249 172.0
81.667564 200.0
82.28569 220.0
83.36348 200.0
85.508797 236.0
86.27063 84.0
87.450417 196.0
90.283577 148.0
90.800621 160.0
90.961906 96.0
90.978989 60.0
91.054276 2872.0
92.057762 892.0
92.339561 60.0
96.718567 176.0
100.088799 72.0
100.111931 824.0
100.262115 168.0
100.587234 60.0
101.115341 192.0
101.794556 84.0
105.026848 168.0
105.065659 156.0
110.728981 20.0
113.694397 140.0
119.059097 252.0
120.083015 228.0
120.539062 184.0
120.74894 176.0
120.930542 108.0
131.087708 204.0
146.097244 228.0
154.065094 252.0
154.579376 140.0
155.015839 3168.0
156.01564 244.0
157.009033 208.0
157.068909 116.0
171.104675 140.0
172.04332 208.0
180.0168 160.0
184.11026 148.0
185.923508 140.0
194.97345 108.0
196.106232 152.0
212.135651 116.0
213.102097 36.0
214.093719 436.0
220.563782 52.0
254.182556 148.0
256.204224 180.0
258.42691 92.0
333.205353 88.0
681.823975 212.0
750.80481 200.0
792.214661 164.0
828.055908 144.0
836.548523 192.0
843.141418 208.0
871.333984 168.0
916.660278 140.0
916.955566 236.0
936.294922 164.0
992.850464 176.0
1007.561157 216.0
1012.609131 64.0
1013.324951 164.0
1056.524048 168.0
1065.360474 184.0
1065.581299 188.0
1068.988647 176.0
1076.518066 152.0
1086.729736 172.0
1106.1521 168.0
1111.88562 228.0
1115.63855 144.0
1121.6698 132.0
1133.137939 152.0
1140.459351 180.0
1144.738403 136.0
1145.162598 72.0
1146.604492 152.0
1148.802734 136.0
1163.318726 164.0
1181.289307 156.0
1198.646362 120.0
1208.991211 156.0
1209.406494 180.0
1221.06311 236.0
1227.142456 156.0
1231.741577 144.0
1239.423462 64.0
1255.000122 176.0
1255.19043 140.0
1269.914917 152.0
1278.953003 148.0
1289.852539 168.0
1297.426514 216.0
1298.530884 136.0
1299.384521 240.0
1299.664307 60.0
1301.832275 228.0
1311.200439 100.0
1320.932617 172.0
1338.88269 180.0
1341.651611 148.0
1355.150879 196.0
1364.273682 184.0
1366.619873 136.0
1371.694214 60.0
1371.848999 64.0
1379.748413 68.0
1385.713867 204.0
1388.263794 136.0
1390.118408 156.0
1390.541382 152.0
1391.46936 196.0
1392.650146 84.0
1397.207031 260.0
1401.041138 212.0
1413.959473 208.0
1417.719116 180.0
1420.358276 172.0
1424.825073 196.0
1432.596558 108.0
1438.244751 120.0
1438.456055 140.0
1446.72644 156.0
1454.390381 116.0
1460.058472 124.0
1463.688477 188.0
1467.391602 140.0
1471.840088 128.0
1491.176392 152.0
1498.818359 156.0
