>compound DEPO-MEDROL
>formula C24H32O6 
>ionization [M+H]+
>parentmass 417.228455
#inchi InChI=1S/C24H32O6/c1-13-9-16-17-6-8-24(29,20(28)12-30-14(2)25)23(17,4)11-19(27)21(16)22(3)7-5-15(26)10-18(13)22/h5,7,10,13,16-17,19,21,27,29H,6,8-9,11-12H2,1-4H3/t13-,16-,17-,19-,21+,22-,23-,24-/m0/s1
#inchikey PLBHSZGDDKCEHR
#Ion_Source LC-ESI
#Instrument qTof
#Compound_Source Commercial
#PI Dorrestein
#Data_Collector Garg_Neha
#Scan -1
#Precursor_MZ 417.229
#ExactMass 416.22
#Charge 1
#CAS_Number N/A
#Pubmed_ID N/A
#Smiles N/A
#INCHI_AUX N/A
#Library_Class 1
#SpectrumID CCMSLIB00000077109
#IonMode Positive
#UpdateWorkflowName UPDATE-SINGLE-ANNOTATED-GOLD
#LibraryQualityString Gold
#TaskID 48f7f52fc6d249b5abbcc6e7b3df5969
##Scan# 1440
#SpectrumFile NCP003106_E2_F11_BB4_01_15707.mzXML
#LibraryName NIH_Clinical_Collection_2.mgf
#MQScore -1
#Organism NIHcollection2_04212014_2_mgf
#TIC_Query 0
#RT_Query -1
#MZErrorPPM -1
#SharedPeaks 0
#MassDiff 0
#LibMZ -1
#SpecMZ 417.229
#SpecCharge 0
#internalFilename spec-00000.mgf

>collision 10
44.902611 180.0
45.859928 172.0
47.514923 176.0
47.855778 184.0
48.141212 164.0
50.027786 152.0
50.605217 188.0
50.979694 148.0
51.299942 180.0
52.443836 160.0
54.120346 168.0
54.625206 140.0
58.910278 204.0
59.487602 164.0
60.392113 148.0
60.588707 152.0
60.911377 156.0
62.089806 156.0
62.78336 196.0
63.325451 160.0
64.410233 160.0
65.641228 144.0
65.800964 188.0
66.56897 140.0
66.95388 188.0
66.976677 204.0
67.046738 176.0
67.747704 200.0
67.896866 168.0
71.468666 256.0
72.300591 188.0
73.811211 212.0
74.325081 196.0
76.318405 156.0
79.869293 236.0
81.178429 160.0
81.460213 172.0
82.6586 152.0
82.929008 148.0
83.104912 148.0
83.419106 160.0
84.656143 216.0
85.89122 180.0
85.922585 180.0
86.23465 196.0
86.349281 148.0
87.838936 172.0
88.393822 204.0
88.470558 180.0
91.056015 168.0
91.658813 156.0
93.051254 196.0
93.071541 208.0
93.276024 164.0
93.936516 184.0
94.054222 240.0
95.113014 152.0
95.649506 140.0
97.030655 148.0
101.022804 464.0
101.698616 160.0
102.060219 156.0
102.728867 180.0
102.993301 184.0
103.039207 248.0
103.967148 168.0
104.54837 196.0
105.071114 736.0
106.957359 140.0
107.083389 300.0
107.387993 160.0
108.295341 168.0
109.063667 268.0
110.037971 292.0
111.046158 172.0
111.078056 296.0
111.596786 152.0
112.078545 176.0
113.058601 140.0
115.056229 288.0
116.807457 236.0
117.069885 152.0
117.233757 208.0
119.033569 152.0
119.050941 156.0
119.085594 540.0
120.427361 212.0
121.064529 1472.0
121.102844 400.0
122.068634 168.0
123.081406 372.0
123.438232 160.0
123.703728 176.0
125.296005 152.0
125.862526 240.0
128.064194 140.0
128.971817 196.0
129.069016 160.0
130.078903 148.0
130.122604 256.0
131.084641 384.0
131.116638 148.0
132.057526 108.0
132.226364 188.0
132.29982 160.0
132.868179 192.0
133.064117 308.0
133.100891 524.0
133.237793 192.0
133.490631 156.0
133.651642 220.0
134.098404 140.0
134.308212 180.0
135.081268 6508.0
135.113968 224.0
136.082962 860.0
137.059479 484.0
137.118347 200.0
137.867493 204.0
138.405518 200.0
138.94223 156.0
139.073135 284.0
139.094772 140.0
139.111206 164.0
140.058838 172.0
141.072159 796.0
141.099518 228.0
142.078476 260.0
143.084686 740.0
143.504608 220.0
144.053497 144.0
144.096848 188.0
145.064346 868.0
145.101395 1028.0
146.075516 384.0
146.103485 340.0
147.079727 1856.0
147.163605 140.0
148.082687 108.0
148.118866 140.0
148.254547 152.0
149.060196 172.0
149.096054 756.0
149.12825 364.0
150.099197 480.0
151.054535 152.0
151.074097 360.0
151.110107 200.0
151.993164 160.0
152.054214 260.0
152.078751 200.0
153.052277 140.0
153.094131 168.0
154.081299 240.0
155.013565 168.0
155.089325 592.0
155.130051 148.0
156.091675 240.0
157.064224 256.0
157.101837 388.0
158.072403 764.0
159.081238 2032.0
159.116379 716.0
159.443237 204.0
160.085373 288.0
160.117477 212.0
160.912445 180.0
161.062485 236.0
161.096436 8916.0
161.235107 212.0
161.252792 140.0
161.708054 140.0
162.062576 180.0
162.10083 1168.0
163.08139 188.0
163.108963 432.0
163.652328 200.0
164.117401 164.0
165.092117 1736.0
165.130096 336.0
165.430252 116.0
165.700363 140.0
166.090515 164.0
167.082886 344.0
167.112534 168.0
168.053452 140.0
168.089584 176.0
168.704285 140.0
169.063736 296.0
169.098068 684.0
170.072556 128.0
170.108551 136.0
170.84375 156.0
171.080139 528.0
171.11145 332.0
171.484299 148.0
172.08963 312.0
172.118652 216.0
173.062149 164.0
173.09642 1072.0
173.130264 304.0
174.101913 164.0
175.075195 156.0
175.113297 1140.0
175.149948 156.0
176.115234 100.0
176.937744 156.0
177.091232 864.0
178.078827 224.0
178.878311 156.0
179.076447 272.0
179.109818 352.0
179.149933 180.0
179.752502 176.0
180.095245 180.0
181.059769 252.0
181.082993 192.0
182.089584 140.0
182.374374 144.0
183.080261 336.0
183.112823 408.0
183.192398 188.0
183.531967 176.0
184.086914 452.0
184.909683 168.0
185.095596 6872.0
185.135025 508.0
186.047546 168.0
186.098862 1868.0
187.073288 192.0
187.111771 3796.0
187.694183 144.0
188.081955 176.0
188.116287 612.0
189.094208 480.0
189.125031 384.0
190.084915 304.0
190.134308 224.0
191.108337 440.0
191.14621 196.0
192.106934 168.0
193.100479 644.0
194.083115 112.0
194.106079 304.0
195.08017 352.0
195.150803 148.0
196.087723 508.0
196.117096 260.0
197.094223 416.0
198.098175 272.0
198.134338 160.0
198.294067 152.0
199.064072 152.0
199.111633 1548.0
200.113876 164.0
201.093475 340.0
201.126709 696.0
202.13089 468.0
203.139999 192.0
204.090363 308.0
205.099976 284.0
205.123459 312.0
206.087738 152.0
206.319244 144.0
206.765457 188.0
207.109161 132.0
207.349701 196.0
208.089844 240.0
208.140213 136.0
209.095016 1092.0
209.988998 204.0
210.100922 944.0
210.263077 184.0
211.111679 6084.0
211.553024 184.0
212.115875 1180.0
213.091599 164.0
213.12793 1612.0
213.397339 204.0
213.74057 140.0
214.133423 268.0
215.138733 164.0
217.098312 264.0
217.123383 144.0
218.08931 144.0
218.606934 196.0
219.065399 156.0
219.116852 288.0
219.885941 140.0
220.093857 120.0
220.121277 228.0
221.096985 636.0
222.105316 532.0
223.112 1792.0
224.119095 1224.0
225.089676 200.0
225.126678 2616.0
225.158554 148.0
225.848129 144.0
226.094467 164.0
226.129883 696.0
227.106201 848.0
227.141968 672.0
228.149109 260.0
229.119034 456.0
229.805542 140.0
230.124908 244.0
231.079453 188.0
231.100601 108.0
231.137131 744.0
232.140686 176.0
232.589371 180.0
233.097473 340.0
233.132889 608.0
233.656357 152.0
234.106339 188.0
234.134247 292.0
234.164581 108.0
235.112061 1120.0
235.153091 152.0
235.180191 172.0
235.741943 148.0
236.117645 1008.0
236.147339 304.0
236.258667 216.0
236.543259 172.0
237.095612 320.0
237.126968 3488.0
237.214111 164.0
238.133957 1380.0
238.340439 144.0
238.457214 196.0
238.881546 164.0
239.047684 244.0
239.100876 140.0
239.143616 1296.0
240.148605 276.0
241.125488 160.0
241.15921 972.0
241.215866 160.0
242.160599 492.0
242.853867 152.0
243.121399 136.0
244.123642 132.0
245.096039 180.0
246.110947 580.0
246.14122 240.0
246.724487 164.0
246.902725 172.0
247.113831 436.0
247.136932 288.0
247.534851 164.0
247.697708 152.0
248.114258 216.0
248.189743 172.0
249.124817 1820.0
249.169968 116.0
250.132019 680.0
250.162689 184.0
251.107071 276.0
251.142639 5000.0
252.113113 208.0
252.146469 1596.0
252.712769 168.0
253.051422 180.0
253.11911 128.0
253.15863 10520.0
253.828766 104.0
254.162308 2512.0
255.136826 460.0
255.171021 488.0
256.140808 140.0
256.170898 144.0
256.740601 144.0
257.121094 176.0
257.532104 144.0
258.109558 144.0
259.147583 280.0
260.111206 176.0
260.146515 260.0
261.126129 780.0
262.132538 376.0
262.173096 160.0
263.10025 188.0
263.144745 1868.0
263.180206 604.0
263.778625 176.0
263.866211 132.0
264.110443 204.0
264.145782 436.0
265.122284 300.0
265.158508 1008.0
266.129028 176.0
266.163452 444.0
266.653656 144.0
267.136047 128.0
267.175873 164.0
267.199921 140.0
267.74353 140.0
269.131592 228.0
269.15451 600.0
270.155792 172.0
272.158112 148.0
273.12912 440.0
274.131042 180.0
275.141235 508.0
275.177307 268.0
276.150787 180.0
276.188568 156.0
276.698181 152.0
277.123871 116.0
277.157776 1596.0
278.130249 132.0
278.160034 1144.0
279.139099 1752.0
279.17453 5216.0
280.138428 552.0
280.177704 992.0
281.188782 460.0
282.191132 136.0
283.136414 140.0
283.173889 100.0
285.158173 172.0
285.991943 196.0
286.131165 396.0
287.14389 120.0
287.171204 148.0
288.149231 968.0
288.897278 160.0
289.154572 100.0
290.160461 172.0
290.967926 204.0
291.133636 144.0
291.176453 288.0
292.156647 132.0
292.178192 196.0
293.154083 1456.0
293.189148 2944.0
294.15863 368.0
294.190155 528.0
295.168701 260.0
296.170349 140.0
296.840057 140.0
297.148804 1164.0
297.185028 1036.0
298.147247 476.0
298.188324 216.0
299.200378 236.0
300.204773 152.0
301.159302 284.0
302.153931 108.0
302.878204 236.0
303.136108 180.0
303.175293 5076.0
303.27002 156.0
304.17691 1496.0
305.137329 160.0
305.187195 320.0
306.166229 320.0
307.167511 160.0
308.175415 120.0
309.175415 268.0
310.146759 160.0
310.197083 160.0
311.123566 116.0
311.165436 252.0
311.198914 1100.0
312.169128 120.0
312.201965 148.0
313.111115 164.0
313.211243 140.0
315.197784 148.0
318.381622 176.0
318.608948 148.0
319.164978 568.0
319.19751 180.0
319.846466 156.0
320.173309 160.0
320.320526 152.0
320.947296 188.0
321.10907 184.0
321.184906 12080.0
322.189728 2500.0
322.423035 108.0
323.194366 400.0
324.185822 272.0
324.587341 148.0
325.164917 168.0
327.200745 200.0
328.18811 148.0
329.169098 144.0
329.211853 104.0
334.18103 160.0
337.174561 416.0
338.176788 168.0
338.447845 172.0
339.195892 16064.0
339.506836 184.0
340.160919 408.0
340.199158 2952.0
341.168976 172.0
341.199097 1036.0
342.196289 144.0
342.673035 120.0
344.634552 232.0
352.17218 144.0
353.217285 264.0
354.349304 140.0
355.132782 156.0
357.170074 780.0
357.202667 604.0
358.173584 152.0
363.199524 648.0
364.195892 340.0
365.200409 312.0
370.205963 148.0
379.198975 188.0
381.205658 3100.0
381.341492 184.0
382.044098 172.0
382.207336 1384.0
383.207977 428.0
397.084961 168.0
397.198486 404.0
397.994293 132.0
398.203064 116.0
399.142029 184.0
399.216644 23928.0
399.597626 96.0
399.666412 132.0
400.219666 5844.0
400.360199 192.0
400.723969 152.0
400.981659 108.0
401.224915 1100.0
402.229858 296.0
402.882324 124.0
402.950439 108.0
403.348053 148.0
403.687897 160.0
403.799866 152.0
415.206299 288.0
416.223572 132.0
417.228455 1304.0
418.235901 340.0
419.235016 132.0
420.213135 164.0
1157.846069 148.0
1470.872314 152.0
1488.626953 148.0
1551.218872 236.0
1578.578613 148.0
1630.493652 152.0
1715.608154 196.0
1725.523193 216.0
1753.064087 176.0
1776.575684 168.0
1817.647949 224.0
1822.283936 164.0
1864.471191 164.0
1924.704224 152.0
1926.285034 172.0
1934.111084 152.0
1935.580688 148.0
1963.853638 172.0
1975.009155 200.0
