>compound MLS001165781-01!OLANZAPINE
>formula C17H20N4S
>ionization [M+H]+
>parentmass 313.14814409209055
#inchi InChI=1S/C17H20N4S/c1-12-11-13-16(21-9-7-20(2)8-10-21)18-14-5-3-4-6-15(14)19-17(13)22-12/h3-6,11,19H,7-10H2,1-2H3
#inchikey KVWDHTXUZHCGIO
#Ion_Source LC-ESI
#Instrument qTof
#Compound_Source NIH Pharmacologically Active Library
#PI Dorrestein
#Data_Collector VP/LMS
#Scan -1
#Precursor_MZ 313.151
#ExactMass 312.141
#Charge 1
#CAS_Number N/A
#Pubmed_ID N/A
#Smiles CN1CCN(CC1)C2=Nc3ccccc3Nc4sc(C)cc24
#INCHI_AUX N/A
#Library_Class 1
#SpectrumID CCMSLIB00000085795
#IonMode Positive
#UpdateWorkflowName UPDATE-SINGLE-ANNOTATED-GOLD
#LibraryQualityString Gold
#TaskID d252d724072548979f1f6f1ced849daf
##Scan# 1163
#SpectrumFile p4-F07_GF7_01_18391.mzXML
#LibraryName Pharm_Active_Library.mgf
#MQScore -1
#Organism Pharm_Active_Library
#TIC_Query 0
#RT_Query -1
#MZErrorPPM -1
#SharedPeaks 0
#MassDiff 0
#LibMZ -1
#SpecMZ 313.151
#SpecCharge 0
#internalFilename spec-00000.mgf

>collision 10
44.948265 172.0
44.970955 120.0
45.137955 152.0
45.223576 112.0
45.342781 296.0
45.499729 128.0
45.834644 124.0
45.869686 188.0
46.319679 184.0
46.367691 240.0
46.415909 172.0
46.586926 40.0
46.760979 96.0
46.856304 164.0
46.884918 88.0
47.064991 156.0
47.09367 168.0
47.112793 160.0
47.50433 84.0
47.686958 128.0
47.857548 180.0
48.027058 128.0
48.231422 180.0
48.404362 108.0
48.47224 136.0
48.692825 100.0
49.269524 120.0
49.346394 124.0
49.671307 140.0
49.763931 184.0
49.828541 72.0
49.863674 60.0
50.021214 112.0
50.162083 192.0
50.30315 152.0
50.339859 144.0
50.679356 136.0
50.692108 200.0
50.747391 172.0
50.756744 176.0
50.863728 60.0
50.930466 180.0
50.954617 92.0
51.042744 144.0
51.115292 172.0
51.327541 224.0
51.46167 196.0
51.473095 132.0
51.638874 160.0
51.703259 184.0
51.96693 144.0
52.257168 40.0
52.294586 116.0
52.376659 180.0
52.404034 112.0
52.77354 60.0
52.929813 200.0
53.05587 96.0
53.17627 144.0
53.195141 176.0
53.53101 144.0
53.619877 164.0
53.634453 144.0
54.686161 136.0
54.986839 68.0
55.624805 156.0
55.651527 164.0
55.681229 184.0
55.797134 180.0
55.872799 160.0
56.121719 120.0
56.2351 112.0
56.332161 128.0
56.417343 212.0
56.445751 172.0
56.707748 220.0
56.96434 180.0
57.217911 164.0
57.547188 132.0
57.581921 148.0
57.689205 92.0
57.816261 48.0
58.090515 88.0
58.173981 52.0
58.330452 208.0
58.369984 188.0
58.715679 176.0
58.955376 136.0
59.025696 72.0
59.045574 40.0
59.241505 132.0
59.348789 152.0
59.503761 36.0
59.529865 204.0
59.571335 88.0
59.715828 96.0
59.842018 48.0
60.170425 148.0
60.210575 188.0
60.699608 164.0
61.397869 128.0
61.642971 136.0
61.897953 200.0
61.985676 132.0
62.112675 324.0
62.346622 120.0
62.392204 116.0
62.47084 120.0
62.893867 152.0
63.185516 92.0
63.408794 76.0
63.426228 180.0
63.54517 76.0
64.159088 436.0
64.216492 32.0
64.336174 108.0
64.481537 132.0
64.529495 148.0
64.636665 148.0
65.14492 184.0
65.766502 76.0
65.908623 84.0
65.966805 136.0
66.089722 168.0
66.722282 272.0
66.89473 92.0
67.165237 120.0
67.217445 196.0
67.285995 200.0
68.344833 228.0
68.424278 164.0
68.80304 156.0
69.292595 80.0
69.591148 160.0
69.640968 108.0
69.867043 132.0
69.906975 52.0
70.006866 32.0
70.176834 180.0
70.195175 84.0
70.5224 112.0
70.602654 76.0
70.629417 132.0
70.783394 156.0
70.850388 100.0
71.172424 128.0
71.362297 164.0
71.486771 52.0
71.594513 320.0
71.823738 124.0
71.881104 128.0
71.951996 160.0
72.489883 128.0
72.779953 116.0
72.852989 164.0
73.028076 84.0
73.285141 60.0
73.482925 48.0
73.549484 188.0
73.810883 128.0
73.869034 180.0
74.1567 104.0
74.328201 136.0
74.34021 236.0
74.53598 200.0
74.644279 44.0
75.090546 188.0
75.167953 128.0
75.425301 116.0
75.937828 104.0
76.074913 184.0
76.2799 204.0
76.424255 188.0
76.469505 260.0
76.533913 160.0
76.695938 232.0
76.744751 80.0
76.790092 180.0
76.982071 248.0
77.377251 180.0
77.463066 112.0
78.197044 208.0
78.690643 184.0
78.892052 120.0
79.09726 132.0
79.256653 140.0
79.52977 108.0
79.728691 108.0
80.038231 128.0
80.168274 184.0
80.278801 148.0
80.507233 56.0
80.981186 136.0
81.029549 208.0
81.276993 184.0
81.29673 168.0
81.332626 156.0
81.598503 172.0
81.663246 176.0
81.685844 184.0
81.900841 188.0
81.947678 196.0
81.976509 156.0
82.360809 136.0
82.556007 160.0
82.999672 108.0
83.288239 140.0
83.330025 48.0
83.502724 132.0
83.726585 152.0
83.830421 108.0
83.848648 116.0
84.282982 188.0
84.566444 48.0
84.599396 196.0
84.892563 140.0
85.404984 200.0
86.118317 132.0
86.158958 144.0
86.21254 164.0
86.632568 144.0
86.677032 136.0
86.845741 52.0
86.89769 144.0
87.053612 136.0
87.120476 196.0
87.259865 116.0
87.337975 156.0
87.365875 120.0
87.449615 136.0
87.511047 156.0
88.072655 84.0
88.433266 304.0
88.48568 176.0
88.620537 212.0
88.717995 168.0
88.805977 224.0
88.982529 152.0
89.085823 168.0
89.106491 124.0
89.608849 204.0
89.999283 52.0
90.118286 116.0
91.899323 204.0
91.947029 68.0
92.005127 248.0
92.074951 248.0
92.409477 180.0
93.05732 208.0
93.532173 216.0
93.58223 136.0
93.732475 184.0
93.82692 152.0
93.983154 128.0
94.027534 176.0
94.060349 184.0
94.07579 180.0
94.13179 140.0
94.183929 240.0
94.384926 100.0
94.549362 64.0
94.64035 180.0
95.01442 128.0
95.092041 100.0
95.105629 68.0
95.294006 164.0
95.373688 44.0
95.498131 152.0
95.786209 40.0
95.80764 192.0
95.858299 168.0
95.908974 200.0
95.965515 180.0
96.117661 144.0
96.448868 136.0
96.535698 184.0
96.576775 176.0
96.594376 96.0
97.13504 168.0
97.211555 188.0
97.419685 60.0
97.60051 72.0
97.724426 140.0
98.009933 100.0
98.07103 152.0
98.39653 180.0
98.422195 32.0
98.53083 184.0
98.843239 184.0
98.902611 180.0
99.063011 164.0
99.096687 148.0
99.134338 96.0
99.215607 136.0
99.261208 240.0
99.350464 144.0
99.503288 216.0
99.646286 164.0
100.042061 152.0
100.127686 128.0
100.251205 68.0
100.560341 172.0
100.582291 168.0
100.626213 144.0
100.913933 172.0
101.103966 212.0
101.148003 132.0
101.180031 168.0
101.212067 164.0
101.238098 128.0
101.418419 184.0
101.500618 76.0
101.540726 164.0
101.614952 164.0
101.663109 220.0
101.805641 180.0
102.398941 176.0
102.479523 236.0
102.604485 192.0
102.975784 116.0
103.050529 164.0
104.053764 272.0
104.197311 80.0
104.777153 204.0
105.250351 160.0
105.558914 104.0
105.693924 232.0
105.759415 140.0
105.851547 48.0
105.976494 200.0
106.062454 208.0
106.55304 216.0
106.666077 232.0
106.746262 36.0
106.931419 112.0
107.017876 224.0
107.19503 240.0
107.438446 140.0
107.669518 144.0
107.846176 152.0
108.035385 180.0
108.207161 108.0
108.348 244.0
108.418449 132.0
109.005692 144.0
109.251099 136.0
109.307281 172.0
109.342659 152.0
109.455078 212.0
109.905319 84.0
110.036819 164.0
110.669106 272.0
110.749931 204.0
111.0224 128.0
111.463249 156.0
111.585167 188.0
111.648247 204.0
111.761841 96.0
111.790077 272.0
112.001846 112.0
112.01767 180.0
112.069267 92.0
112.598763 176.0
113.608452 32.0
113.653008 144.0
113.720924 192.0
114.791061 232.0
114.904114 136.0
114.970261 84.0
115.027893 192.0
115.052567 232.0
115.314117 168.0
115.335487 228.0
115.465919 120.0
115.52581 156.0
115.57502 220.0
115.626381 172.0
115.716286 172.0
116.052681 136.0
116.722633 140.0
117.000191 156.0
117.056931 280.0
117.099243 68.0
117.194031 144.0
117.260841 80.0
117.319038 64.0
117.424698 152.0
117.498047 152.0
117.854301 152.0
118.060616 232.0
118.62262 140.0
118.830818 176.0
119.017487 108.0
119.057777 240.0
119.184738 164.0
119.743835 172.0
120.07373 244.0
120.343536 224.0
120.391579 148.0
120.422157 176.0
120.520462 180.0
120.92572 220.0
121.144012 164.0
121.251381 136.0
121.2733 160.0
121.481621 104.0
121.657181 76.0
121.698898 232.0
121.760384 188.0
122.019684 124.0
122.10984 220.0
123.00444 184.0
123.103798 188.0
123.240753 144.0
123.28495 160.0
123.525955 228.0
124.043373 184.0
124.312515 216.0
124.498993 184.0
124.79454 96.0
125.041473 124.0
125.558357 168.0
125.92662 160.0
125.957893 136.0
126.091957 164.0
126.116547 168.0
126.181374 172.0
126.25293 212.0
127.479218 136.0
127.638824 140.0
127.830032 208.0
127.998863 108.0
128.05101 212.0
128.285004 40.0
128.451889 216.0
128.524078 200.0
128.569214 204.0
128.754349 156.0
128.885361 132.0
128.930557 144.0
129.057159 136.0
129.315048 152.0
129.686508 196.0
129.811203 32.0
129.954117 128.0
130.044891 172.0
130.066544 180.0
130.346939 112.0
130.5811 116.0
130.835968 40.0
130.858734 136.0
131.068283 208.0
131.398911 172.0
131.547256 32.0
131.846466 100.0
132.011078 192.0
132.033936 192.0
132.070679 132.0
132.198669 160.0
132.413864 140.0
132.459671 176.0
132.757401 224.0
132.853973 152.0
133.046753 120.0
133.070282 324.0
133.336182 292.0
133.359177 48.0
133.49942 208.0
133.876831 140.0
133.964355 56.0
134.056519 148.0
134.342438 136.0
134.404739 36.0
134.510895 212.0
134.60556 192.0
134.647125 208.0
135.021545 108.0
135.681488 148.0
136.015549 152.0
136.110733 124.0
136.552292 148.0
137.01088 140.0
137.190323 156.0
137.307602 176.0
137.423553 88.0
137.465546 140.0
137.67099 184.0
137.75975 160.0
138.040527 240.0
138.194611 80.0
138.323334 148.0
138.566879 124.0
139.056992 172.0
139.322342 172.0
139.766724 152.0
140.047791 256.0
140.235382 164.0
140.376831 232.0
140.770081 200.0
140.811081 124.0
141.059189 152.0
141.227066 92.0
141.347733 204.0
141.700531 132.0
141.968384 156.0
142.027679 132.0
142.067688 296.0
142.181915 164.0
142.668854 128.0
143.011398 192.0
143.05481 172.0
143.070923 392.0
143.201889 260.0
143.361511 124.0
143.914932 212.0
144.048676 140.0
144.333099 176.0
144.38092 168.0
144.701569 132.0
145.001007 232.0
145.075714 220.0
145.226395 160.0
145.319946 136.0
145.927628 168.0
146.004089 180.0
146.054596 200.0
146.396851 184.0
146.582596 76.0
146.623322 196.0
146.775192 192.0
147.064697 216.0
147.088837 180.0
147.392517 168.0
147.451141 152.0
147.922821 168.0
148.020828 372.0
148.051147 172.0
148.227997 168.0
148.310394 140.0
148.500931 220.0
149.006882 200.0
149.220764 184.0
149.797546 236.0
150.033936 276.0
150.302231 36.0
150.336395 108.0
150.512161 148.0
150.94223 224.0
150.981354 40.0
151.054733 176.0
151.392517 240.0
151.463531 40.0
151.529678 120.0
151.816483 128.0
151.850815 172.0
151.998016 112.0
152.048523 264.0
152.18457 112.0
152.548172 124.0
152.661285 212.0
153.056656 476.0
153.244675 188.0
153.612015 88.0
154.016846 156.0
154.069458 328.0
154.345551 128.0
154.419739 192.0
154.446945 116.0
154.649857 168.0
154.67955 112.0
154.989136 228.0
155.058563 376.0
155.388336 160.0
155.825317 152.0
155.984375 152.0
156.066422 464.0
156.208176 52.0
156.651291 68.0
156.728531 172.0
156.78833 52.0
156.835693 208.0
157.07843 184.0
157.132446 148.0
157.167389 140.0
157.322128 188.0
157.571869 208.0
157.644333 136.0
157.716812 60.0
157.734314 152.0
157.941864 148.0
158.016907 180.0
158.077576 200.0
158.339828 128.0
158.828598 192.0
159.014282 100.0
159.034348 148.0
159.094604 228.0
159.24025 156.0
159.491516 200.0
159.936737 220.0
160.012665 124.0
160.03743 160.0
160.072693 184.0
160.216263 152.0
160.249008 160.0
160.295944 280.0
160.405258 220.0
160.58429 168.0
160.609512 204.0
160.890854 140.0
161.164932 104.0
161.668152 124.0
162.032791 148.0
162.075851 180.0
162.314133 192.0
162.339493 144.0
163.172363 164.0
163.355469 184.0
163.373276 172.0
163.566681 232.0
163.767838 108.0
164.0354 116.0
164.122086 200.0
164.514999 112.0
164.903275 120.0
165.005524 160.0
165.031097 144.0
165.051544 172.0
165.33551 160.0
165.624832 144.0
166.065704 240.0
166.309464 172.0
166.466064 160.0
166.58165 268.0
166.728104 176.0
166.800079 128.0
166.972351 176.0
167.058212 372.0
167.237366 164.0
167.613373 116.0
167.657181 104.0
167.850525 152.0
168.063492 180.0
168.454483 48.0
168.606918 132.0
168.637939 140.0
168.656036 212.0
168.776291 156.0
168.798233 120.0
168.979294 116.0
169.012924 180.0
169.031052 124.0
169.074463 6104.0
169.18634 72.0
169.28215 132.0
169.328766 40.0
169.367462 68.0
169.504929 80.0
169.631927 88.0
169.660446 68.0
169.684647 60.0
169.865311 64.0
169.904236 36.0
170.002838 232.0
170.02359 108.0
170.075378 676.0
170.358551 132.0
170.413223 88.0
170.433899 92.0
170.821289 132.0
171.012344 104.0
171.081528 148.0
171.190887 80.0
171.37323 124.0
171.43837 208.0
171.563492 44.0
171.646927 120.0
171.962585 100.0
172.022415 160.0
172.090515 320.0
172.445801 140.0
172.514862 188.0
172.60527 120.0
172.968933 88.0
173.016403 636.0
173.306778 156.0
173.340851 204.0
173.419464 200.0
173.43782 136.0
174.014709 596.0
174.056976 92.0
174.080612 164.0
174.125259 240.0
174.424805 88.0
174.564148 208.0
174.698288 116.0
174.716705 136.0
174.914078 224.0
175.024658 192.0
175.077332 128.0
175.266998 180.0
175.51741 116.0
175.543777 228.0
175.789124 128.0
176.008224 76.0
176.026703 172.0
177.039551 148.0
177.458237 36.0
177.890686 92.0
177.949081 200.0
178.057968 324.0
178.406052 160.0
178.746506 100.0
178.927567 160.0
178.947418 176.0
178.970108 100.0
179.058411 1992.0
179.177856 88.0
179.403976 52.0
179.489716 192.0
179.527054 52.0
179.737793 100.0
179.857895 92.0
179.939865 192.0
179.973419 188.0
180.00206 96.0
180.023422 112.0
180.06633 6060.0
180.238998 80.0
180.269196 176.0
180.418777 196.0
180.455933 224.0
180.515137 36.0
180.624802 48.0
180.715759 80.0
180.758575 136.0
180.785324 160.0
180.817444 176.0
180.95932 224.0
181.072021 1436.0
181.38797 96.0
181.79834 132.0
181.923645 100.0
181.988937 224.0
182.021149 120.0
182.080673 544.0
182.351593 64.0
182.418793 120.0
182.510208 136.0
183.081512 452.0
183.180359 216.0
183.600845 176.0
184.03801 168.0
184.082367 516.0
184.148727 72.0
184.235168 36.0
184.505432 124.0
185.027206 544.0
185.070908 148.0
185.190063 64.0
185.238831 108.0
185.325531 72.0
185.390564 136.0
185.886826 160.0
185.932968 188.0
185.954681 136.0
186.035904 3156.0
186.110229 228.0
186.43811 176.0
186.620239 72.0
187.039871 320.0
187.300613 68.0
187.878555 228.0
187.906525 156.0
187.978317 184.0
188.034088 324.0
188.083221 108.0
188.135086 128.0
188.416382 256.0
188.544815 84.0
189.031967 148.0
189.160248 84.0
189.187622 132.0
189.302612 196.0
189.584793 164.0
190.190933 212.0
190.385864 112.0
190.440796 184.0
190.770554 236.0
192.023438 132.0
192.04274 168.0
192.169647 160.0
192.208267 164.0
192.280029 192.0
192.539551 176.0
192.788193 220.0
192.813065 140.0
193.078613 192.0
193.404968 160.0
194.071899 316.0
194.316711 44.0
194.424927 188.0
194.480438 192.0
194.874786 176.0
195.076721 1692.0
195.36412 128.0
195.72316 80.0
195.759354 124.0
195.948776 36.0
195.968277 144.0
196.023712 264.0
196.083649 960.0
196.171722 32.0
196.378067 224.0
196.425491 60.0
196.724091 144.0
197.017319 204.0
197.049591 204.0
197.060928 112.0
197.09787 412.0
197.201752 164.0
197.271637 192.0
197.335938 152.0
197.41423 188.0
197.514923 108.0
197.537292 140.0
197.691193 136.0
197.96553 68.0
198.023163 15812.0
198.088226 176.0
198.153214 52.0
198.232178 44.0
198.268097 72.0
198.340973 152.0
198.399841 132.0
198.517609 100.0
198.716766 48.0
198.865509 88.0
198.949722 36.0
199.025162 1636.0
199.083313 176.0
199.104156 132.0
199.178009 104.0
199.219315 64.0
199.244598 72.0
199.272705 64.0
199.354187 192.0
199.486298 88.0
199.528458 172.0
199.567825 156.0
199.78157 188.0
199.984177 40.0
200.018021 624.0
200.050339 1020.0
200.086029 184.0
200.175629 104.0
200.270874 112.0
200.302368 124.0
200.462967 148.0
200.784348 56.0
200.804092 72.0
200.928223 124.0
200.96489 88.0
201.021332 180.0
201.044418 432.0
201.091888 72.0
201.117294 220.0
201.156815 56.0
201.264099 48.0
201.334686 112.0
201.380615 104.0
201.679398 120.0
201.767029 156.0
201.795303 52.0
201.970642 48.0
202.047745 156.0
202.194168 184.0
202.228119 96.0
202.380997 132.0
202.533936 44.0
202.78894 88.0
203.049454 168.0
203.583344 128.0
203.608902 60.0
203.702637 84.0
203.864594 56.0
204.00386 124.0
204.237045 160.0
204.370758 388.0
204.49028 172.0
204.518738 196.0
204.686722 112.0
204.794937 84.0
205.128326 56.0
205.459137 116.0
206.047272 252.0
206.081558 140.0
207.080551 356.0
207.197403 132.0
207.888443 44.0
208.081284 208.0
208.192764 100.0
209.099304 132.0
209.360367 128.0
209.559143 180.0
209.766953 184.0
210.109253 200.0
210.219467 140.0
210.597687 216.0
210.753693 220.0
210.944443 172.0
211.033127 972.0
211.465103 80.0
211.856018 112.0
212.003799 160.0
212.038391 3476.0
212.074295 136.0
212.092316 96.0
212.122635 28.0
212.17482 116.0
212.322708 80.0
212.3517 120.0
212.45903 28.0
212.488052 72.0
212.554779 32.0
212.625656 248.0
212.676498 68.0
212.74054 232.0
212.801514 200.0
212.952515 64.0
213.046722 14288.0
213.103577 144.0
213.138443 80.0
213.193665 40.0
213.225632 52.0
213.301895 268.0
213.408768 56.0
213.501831 88.0
213.528 56.0
213.554184 164.0
213.591995 92.0
213.81604 196.0
213.869827 100.0
214.050156 1580.0
214.092606 176.0
214.162674 72.0
214.26738 88.0
214.36937 76.0
214.404343 40.0
214.430573 144.0
214.620056 188.0
214.657974 76.0
214.725052 68.0
214.761169 124.0
214.993454 184.0
215.061295 1280.0
215.153992 96.0
215.209473 80.0
215.248428 84.0
215.2854 72.0
215.322601 124.0
215.600906 84.0
216.065903 192.0
216.112656 232.0
216.171188 80.0
216.256912 116.0
216.308746 84.0
216.402435 92.0
216.513702 56.0
216.622086 52.0
217.052917 624.0
217.13504 120.0
217.220108 44.0
217.322784 220.0
217.384415 132.0
217.51062 96.0
217.639786 164.0
217.698517 80.0
218.159836 92.0
218.259796 176.0
218.739365 104.0
219.107483 208.0
219.198822 176.0
220.033569 200.0
220.081085 288.0
221.09111 368.0
221.192429 144.0
222.101624 2148.0
222.149612 52.0
222.214874 136.0
222.559189 40.0
222.799759 100.0
222.939423 76.0
223.049393 144.0
223.108078 1368.0
223.141006 108.0
223.145493 160.0
223.168304 104.0
223.290237 112.0
223.314026 92.0
223.427063 144.0
223.736588 52.0
223.828888 132.0
223.87355 156.0
223.915253 52.0
223.950989 164.0
224.044586 452.0
224.114853 520.0
224.156052 140.0
224.245972 108.0
224.389053 84.0
224.573944 76.0
224.645538 60.0
224.785889 104.0
224.890228 52.0
224.969528 68.0
225.048065 264.0
225.110245 168.0
225.127243 188.0
225.430817 56.0
225.90921 68.0
226.047134 436.0
226.103699 104.0
226.310257 120.0
226.513916 140.0
226.87352 152.0
226.948486 56.0
227.061935 1804.0
227.227417 56.0
227.332443 44.0
227.383469 208.0
227.431488 104.0
227.455505 112.0
227.542557 128.0
227.584595 196.0
227.875946 124.0
228.064667 876.0
228.269714 104.0
228.384003 60.0
228.820358 148.0
229.038818 192.0
229.071381 352.0
229.169739 116.0
229.658127 120.0
230.07251 676.0
230.39772 116.0
230.443039 120.0
230.59111 64.0
230.96907 120.0
231.074219 152.0
231.671371 36.0
232.071442 120.0
232.165451 128.0
232.669144 44.0
233.09108 140.0
233.146042 120.0
234.093613 148.0
234.162216 216.0
234.658936 68.0
234.70163 140.0
235.089035 144.0
235.108917 128.0
236.112488 124.0
237.055405 252.0
237.782257 112.0
237.895828 104.0
238.053665 356.0
238.888443 140.0
239.060608 880.0
239.109985 64.0
239.168472 112.0
239.735184 236.0
240.059402 724.0
240.419815 60.0
241.063553 1320.0
241.553772 160.0
241.996338 52.0
242.072464 440.0
242.160477 124.0
242.448608 36.0
242.774124 164.0
243.029999 144.0
243.059906 164.0
243.077942 128.0
243.082794 104.0
243.243073 144.0
243.620605 236.0
244.090836 104.0
244.125046 196.0
244.177902 204.0
244.215225 164.0
246.713043 172.0
246.963211 108.0
247.110245 132.0
247.498367 196.0
248.119781 376.0
249.047623 120.0
249.127213 252.0
249.430984 92.0
249.990829 128.0
250.041183 148.0
250.118347 124.0
250.132294 108.0
250.136688 352.0
250.201721 180.0
250.261551 120.0
250.412704 64.0
250.759293 160.0
250.92952 116.0
251.049347 132.0
251.123871 300.0
251.408981 212.0
252.056671 400.0
252.210114 160.0
252.644455 76.0
252.840637 76.0
252.897614 92.0
253.063156 532.0
253.128723 184.0
253.892471 184.0
253.968597 200.0
254.075638 792.0
254.106064 144.0
254.371582 88.0
254.416031 224.0
254.450958 80.0
254.476364 100.0
254.587494 124.0
254.663727 172.0
254.930603 152.0
255.082153 676.0
255.121307 180.0
255.165817 128.0
255.219879 104.0
255.315277 36.0
255.480682 36.0
255.560211 132.0
255.592041 92.0
255.703415 48.0
255.738434 224.0
255.931458 240.0
255.971069 380.0
255.996323 100.0
256.089813 46180.0
256.1492 112.0
256.182861 112.0
256.210846 132.0
256.265228 104.0
256.292572 188.0
256.340363 92.0
256.400909 108.0
256.439178 64.0
256.464661 160.0
256.547546 48.0
256.579437 80.0
256.633179 112.0
256.679657 184.0
256.720398 80.0
256.762939 44.0
256.77713 68.0
256.844116 148.0
256.933441 40.0
256.977692 60.0
257.024902 48.0
257.092255 5832.0
257.150421 68.0
257.204681 100.0
257.233429 44.0
257.349335 100.0
257.397858 104.0
257.424072 100.0
257.552734 64.0
257.670959 60.0
257.743958 136.0
257.811554 44.0
257.855316 144.0
257.928284 52.0
258.08786 1812.0
258.154816 148.0
258.243164 64.0
258.278351 88.0
258.329529 80.0
258.406311 152.0
258.462097 64.0
258.508698 96.0
258.732758 84.0
258.771179 32.0
258.809845 52.0
258.863464 104.0
258.902466 180.0
259.008179 96.0
259.044281 220.0
259.085938 272.0
259.200409 48.0
259.24527 68.0
259.415131 64.0
259.953979 32.0
259.998932 44.0
260.12088 168.0
260.239685 68.0
260.5159 48.0
260.67334 204.0
261.039795 104.0
261.699463 68.0
261.796051 52.0
262.227783 120.0
262.337372 40.0
262.61792 88.0
262.698547 84.0
263.005096 168.0
263.121338 156.0
263.143921 220.0
264.055206 124.0
265.078247 304.0
265.14801 132.0
265.28244 156.0
266.073914 196.0
266.473511 80.0
266.821289 64.0
267.084625 232.0
267.501221 60.0
267.631439 56.0
267.657501 88.0
268.071014 204.0
268.080505 192.0
268.795135 184.0
269.095459 116.0
269.490662 76.0
270.106506 312.0
271.110626 148.0
271.887726 80.0
272.514923 60.0
273.432404 84.0
275.123413 112.0
275.314941 36.0
276.048584 56.0
276.938873 116.0
277.638214 128.0
277.906891 188.0
278.056244 152.0
278.411469 128.0
280.094482 164.0
280.421021 140.0
281.083221 276.0
281.966339 96.0
282.023132 188.0
282.061554 172.0
282.103943 7724.0
282.551514 96.0
282.718811 108.0
282.839325 44.0
283.050232 112.0
283.107147 1496.0
283.174164 72.0
283.341644 56.0
283.381836 32.0
284.102722 468.0
284.495331 60.0
284.777405 140.0
284.891602 96.0
285.092316 132.0
285.668182 116.0
285.799408 156.0
288.342133 116.0
288.392822 96.0
290.597443 92.0
293.587524 136.0
294.526123 72.0
295.100372 124.0
297.749176 168.0
300.91037 156.0
300.93454 92.0
306.341492 84.0
309.054291 148.0
310.848389 108.0
311.131683 176.0
311.151642 204.0
312.134094 176.0
312.59491 116.0
312.837769 100.0
313.145996 3880.0
313.49292 172.0
314.095825 132.0
314.146423 1160.0
314.409851 112.0
314.494568 48.0
315.141663 644.0
315.564972 72.0
315.8302 36.0
316.095551 84.0
316.134491 140.0
316.254822 96.0
317.353027 64.0
317.909973 80.0
318.289795 48.0
319.235046 76.0
324.562988 48.0
326.998688 96.0
339.295502 64.0
347.8508 48.0
350.152435 120.0
359.314178 76.0
364.672607 96.0
365.665314 100.0
369.068207 120.0
373.928741 72.0
379.212494 108.0
380.116119 84.0
392.871918 64.0
401.016968 72.0
404.804413 68.0
407.761169 56.0
410.688324 84.0
417.639099 160.0
420.932159 100.0
428.508301 64.0
437.749664 112.0
450.424774 140.0
461.346405 36.0
489.368134 84.0
505.678558 72.0
514.818787 120.0
518.351929 88.0
523.530762 60.0
534.936523 72.0
539.226318 56.0
548.281311 40.0
549.274475 48.0
555.120911 56.0
569.558777 64.0
573.022156 64.0
580.349426 72.0
586.864685 132.0
588.765991 88.0
610.212646 84.0
611.74762 128.0
625.221069 80.0
640.57312 84.0
663.714355 80.0
665.176575 68.0
678.025208 116.0
678.113342 108.0
692.279297 72.0
693.295593 80.0
722.933044 48.0
752.535339 160.0
788.399536 88.0
831.422485 152.0
838.277588 144.0
842.813232 36.0
850.800293 56.0
903.344543 80.0
923.272339 36.0
931.959229 40.0
953.537842 80.0
982.450134 76.0
983.542236 68.0
1038.258301 124.0
1053.281128 184.0
1059.621094 140.0
1070.416626 136.0
1071.875732 36.0
1074.00769 92.0
1075.586792 132.0
1115.986816 200.0
1147.85437 140.0
1161.692749 180.0
1186.133545 180.0
1207.721069 164.0
1218.778931 96.0
1233.260864 200.0
1234.708252 156.0
1244.01355 148.0
1246.75293 184.0
1254.692993 216.0
1256.759521 164.0
1259.703613 144.0
1260.367798 164.0
1261.604736 124.0
1289.755737 192.0
1298.900024 164.0
1304.242432 204.0
1311.188232 96.0
1333.189697 140.0
1342.661377 172.0
1352.261841 100.0
1356.972168 80.0
1382.895996 120.0
1388.215576 168.0
1397.114014 36.0
1405.138062 200.0
1408.422729 220.0
1412.309692 204.0
1418.457397 96.0
1423.01123 124.0
1424.24646 144.0
1425.662964 188.0
1427.790527 44.0
1433.444336 136.0
1440.325195 148.0
1443.620483 108.0
1443.76416 128.0
1452.004272 152.0
1454.462646 96.0
1456.026733 48.0
1456.664795 132.0
1462.695068 40.0
1464.682495 224.0
1464.880859 140.0
1465.40625 168.0
1467.563354 56.0
1485.014893 100.0
1486.472656 180.0
1492.871826 132.0
1495.74939 148.0
1499.531372 100.0
1500.880493 196.0
1500.957642 56.0
