>compound MLS000574962-01!
>formula C12H9BrN2
>ionization [M+H]+
>parentmass 261.002502
#inchi InChI=1S/C12H9BrN2/c1-7-12-9(4-5-14-7)10-6-8(13)2-3-11(10)15-12/h2-6,15H,1H3
#inchikey MGPZBLVKGVLQIV
#Ion_Source LC-ESI
#Instrument qTof
#Compound_Source NIH Natural Product Library
#PI Dorrestein
#Data_Collector VVP/LMS
#Scan -1
#Precursor_MZ 261.003
#ExactMass 259.995
#Charge 1
#CAS_Number N/A
#Pubmed_ID N/A
#Smiles Cc1nccc2c3cc(Br)ccc3[nH]c12
#INCHI_AUX N/A
#Library_Class 1
#SpectrumID CCMSLIB00000080492
#IonMode Positive
#UpdateWorkflowName UPDATE-SINGLE-ANNOTATED-GOLD
#LibraryQualityString Gold
#TaskID b1d8e8f6646f4e71acdff9ca3d919d08
##Scan# 1542
#SpectrumFile p2-G09_GG9_01_18057.mzXML
#LibraryName NIH_Natural_Products_Library.mgf
#MQScore -1
#Organism NIH_Natural_Products_Library
#TIC_Query 0
#RT_Query -1
#MZErrorPPM -1
#SharedPeaks 0
#MassDiff 0
#LibMZ -1
#SpecMZ 261.003
#SpecCharge 0
#internalFilename spec-00000.mgf

>collision 10
95.117516 132.0
95.366142 180.0
95.410858 192.0
95.475021 112.0
96.005775 120.0
96.037895 104.0
96.104225 120.0
96.145203 100.0
96.233047 128.0
96.422531 144.0
96.535919 176.0
96.590683 32.0
97.417931 236.0
97.775795 76.0
98.154037 144.0
98.272385 168.0
98.519173 168.0
98.621933 52.0
99.011703 108.0
99.096886 140.0
99.203903 200.0
99.672302 116.0
99.765717 196.0
99.783615 176.0
100.127869 152.0
100.414864 168.0
101.950455 188.0
102.675217 200.0
103.056831 176.0
103.169922 92.0
103.331718 116.0
103.929436 140.0
104.575684 100.0
105.03006 188.0
105.591751 152.0
105.88443 184.0
106.064735 200.0
106.169296 180.0
106.187759 220.0
106.317009 164.0
106.507957 160.0
106.657959 172.0
106.964455 160.0
107.465248 120.0
107.849365 68.0
107.961014 68.0
108.068954 176.0
108.178268 156.0
108.424751 68.0
108.820961 140.0
108.945572 168.0
109.299026 176.0
109.430161 208.0
110.130859 80.0
110.452759 132.0
111.282661 112.0
111.490616 100.0
112.178894 216.0
112.199982 176.0
112.337059 136.0
112.402061 104.0
112.423569 208.0
112.527 132.0
112.609352 156.0
112.975044 156.0
113.036407 128.0
113.245995 188.0
113.419746 192.0
113.466385 184.0
113.51091 164.0
113.655151 192.0
113.795242 252.0
113.824966 28.0
113.977913 64.0
114.04834 696.0
114.401161 112.0
115.054611 556.0
115.468056 52.0
115.630661 192.0
116.056168 248.0
116.419609 144.0
116.778412 144.0
116.978645 96.0
117.058304 152.0
117.13369 104.0
117.174622 204.0
117.683632 220.0
118.043365 192.0
118.137497 104.0
118.696297 136.0
118.928429 200.0
119.055695 188.0
119.236847 160.0
119.378159 116.0
119.422836 148.0
119.752495 148.0
120.051079 188.0
120.085968 172.0
120.103416 168.0
120.177597 188.0
120.199417 56.0
120.461411 276.0
120.636238 120.0
120.903084 200.0
120.962181 132.0
121.034431 204.0
121.105827 140.0
121.542976 132.0
121.742737 128.0
121.80204 116.0
121.830597 80.0
121.848167 176.0
122.358414 148.0
122.922684 240.0
122.975655 136.0
122.995514 156.0
123.026817 112.0
123.276009 152.0
123.563461 140.0
123.736092 184.0
124.035164 152.0
124.407845 216.0
125.016869 128.0
125.277374 104.0
126.040421 108.0
126.152176 104.0
126.351212 160.0
126.720634 96.0
126.890968 152.0
127.051018 352.0
128.058701 168.0
128.120331 176.0
128.16539 188.0
128.212723 160.0
128.483307 256.0
128.528427 136.0
128.896118 96.0
129.056549 208.0
129.509598 168.0
129.790619 220.0
130.064072 760.0
130.174103 52.0
130.218903 72.0
130.360382 232.0
130.412659 124.0
130.44902 208.0
130.494492 96.0
130.799347 132.0
130.82666 104.0
130.892685 124.0
131.045303 308.0
131.072372 508.0
131.243607 224.0
131.277802 88.0
131.400986 184.0
131.613251 156.0
132.054306 212.0
132.672577 168.0
132.888168 152.0
132.94783 172.0
133.018982 156.0
133.073959 148.0
133.131485 148.0
133.384216 156.0
133.565872 128.0
133.595779 148.0
133.674011 260.0
133.768372 192.0
134.164612 56.0
134.20842 172.0
134.245316 164.0
135.053665 176.0
135.069855 128.0
135.254974 132.0
135.442535 152.0
135.651093 180.0
135.711365 176.0
135.755417 144.0
136.168518 132.0
136.349747 176.0
136.54039 144.0
136.910431 80.0
136.950027 76.0
136.994278 152.0
137.087479 148.0
137.462921 200.0
137.502609 116.0
138.049286 176.0
138.430725 176.0
138.51973 140.0
138.808014 100.0
138.892441 160.0
139.066071 224.0
139.178757 124.0
139.891144 88.0
139.938217 68.0
140.04837 1300.0
140.375641 112.0
140.508591 64.0
140.754059 104.0
140.992661 104.0
141.057037 2468.0
141.539124 120.0
142.066864 108.0
142.502121 148.0
142.825439 196.0
143.06102 148.0
143.201508 292.0
143.270599 136.0
143.287277 116.0
143.384964 156.0
143.942535 184.0
144.000519 128.0
144.047318 224.0
144.072189 56.0
144.253799 184.0
144.404449 204.0
145.31955 224.0
145.951263 156.0
146.058899 180.0
146.158127 148.0
146.321793 180.0
146.593979 120.0
146.639771 64.0
146.697617 148.0
147.12944 208.0
147.276749 56.0
147.383728 100.0
147.520813 152.0
147.552246 112.0
147.953842 156.0
148.237244 116.0
148.411774 200.0
148.5961 144.0
148.950546 244.0
149.023422 172.0
149.405136 196.0
150.113922 116.0
150.402527 164.0
150.511688 212.0
150.998001 176.0
151.020004 32.0
151.198608 176.0
151.644363 156.0
151.730164 188.0
151.766937 136.0
152.466721 176.0
152.523087 148.0
152.638641 144.0
152.8871 224.0
153.032333 144.0
153.057938 220.0
153.108673 104.0
153.562164 104.0
153.65097 156.0
154.015854 192.0
154.065277 7616.0
154.130478 84.0
154.161819 180.0
154.307938 172.0
154.357376 100.0
154.39447 44.0
154.416733 64.0
154.515686 72.0
154.597336 124.0
154.726059 180.0
154.745865 44.0
154.899399 164.0
154.968765 76.0
155.035202 188.0
155.071152 4384.0
155.179443 56.0
155.242676 96.0
155.315842 36.0
155.338165 116.0
155.367935 232.0
155.449814 56.0
155.469681 88.0
155.740753 108.0
156.003693 100.0
156.074814 536.0
156.103149 216.0
156.197662 132.0
156.215073 108.0
156.332016 116.0
156.673141 220.0
157.028351 248.0
157.074432 336.0
157.109421 52.0
157.256653 80.0
157.438904 144.0
157.473862 60.0
157.603775 200.0
157.755402 60.0
157.773727 88.0
158.006317 184.0
158.083298 852.0
158.24408 168.0
158.544678 64.0
158.9133 48.0
159.046295 236.0
159.071457 204.0
159.082855 128.0
159.089005 144.0
159.352676 168.0
159.57637 92.0
159.714691 72.0
160.16777 180.0
160.704758 160.0
161.04808 152.0
161.073349 116.0
161.174393 76.0
161.278015 48.0
161.449936 188.0
161.829514 84.0
161.885223 172.0
162.265305 140.0
162.663605 68.0
162.701675 208.0
162.843887 120.0
162.968353 180.0
163.321732 72.0
163.47438 192.0
163.637283 92.0
164.027069 200.0
164.506653 104.0
165.055161 208.0
165.439438 164.0
165.44458 144.0
165.621567 128.0
165.726593 216.0
165.847046 268.0
165.892426 216.0
166.050323 548.0
166.791641 260.0
166.868759 140.0
167.036789 164.0
167.061356 1508.0
167.893936 168.0
168.172272 144.0
168.216141 140.0
168.394318 80.0
168.589233 216.0
169.001816 144.0
169.113098 144.0
170.056564 156.0
170.078903 204.0
170.170776 56.0
170.264267 128.0
170.823105 192.0
171.143219 272.0
172.241165 152.0
172.408386 208.0
173.133057 68.0
173.334778 116.0
174.247879 168.0
174.484421 212.0
174.65535 160.0
174.79216 36.0
174.965881 156.0
175.287216 148.0
175.353104 260.0
175.529724 148.0
175.957184 40.0
176.062805 228.0
176.805695 160.0
177.036011 168.0
177.134018 156.0
177.727875 132.0
177.83403 216.0
178.043777 136.0
178.92392 140.0
179.057755 200.0
179.49411 148.0
179.542114 168.0
179.969086 232.0
180.035843 236.0
180.067932 240.0
180.391205 112.0
180.565002 208.0
180.680023 120.0
180.845932 164.0
180.880737 168.0
180.982468 108.0
181.006561 160.0
181.026825 240.0
181.076096 18668.0
181.147263 176.0
181.193344 60.0
181.226212 32.0
181.271759 40.0
181.320938 184.0
181.485031 152.0
181.531799 60.0
181.561295 184.0
181.598846 60.0
181.636566 124.0
181.714188 40.0
181.797379 204.0
181.824219 84.0
181.855911 168.0
181.896683 92.0
181.939636 160.0
181.960861 176.0
182.04805 212.0
182.084213 35180.0
182.14476 52.0
182.182236 132.0
182.21051 84.0
182.247345 56.0
182.275375 180.0
182.324234 96.0
182.358124 76.0
182.367935 136.0
182.390945 64.0
182.40976 72.0
182.428574 116.0
182.454178 84.0
182.485031 48.0
182.527237 64.0
182.552261 48.0
182.638321 64.0
182.680405 180.0
182.802429 40.0
182.926239 76.0
183.023163 228.0
183.087326 5356.0
183.124771 148.0
183.216751 112.0
183.24942 76.0
183.26828 64.0
183.332764 56.0
183.378189 112.0
183.446152 76.0
183.599854 196.0
183.67807 176.0
183.705048 88.0
183.912827 100.0
183.934418 108.0
184.04921 48.0
184.090027 468.0
184.126114 64.0
184.173492 96.0
184.282791 60.0
184.358459 32.0
184.382782 76.0
184.442612 88.0
184.661255 184.0
184.680191 140.0
184.969711 84.0
185.068451 328.0
185.105087 148.0
185.259476 60.0
185.305527 52.0
185.340759 88.0
185.37056 56.0
185.614532 68.0
186.076187 140.0
186.162689 56.0
186.325668 112.0
186.513168 76.0
186.551224 112.0
186.643661 180.0
187.065369 56.0
187.136154 60.0
187.792923 240.0
187.9375 76.0
188.631195 132.0
188.929276 112.0
189.506958 56.0
189.548065 260.0
189.583694 140.0
190.00322 152.0
190.148651 168.0
191.639114 112.0
191.779663 52.0
191.898193 112.0
192.058151 84.0
192.427948 152.0
192.463837 112.0
192.965378 452.0
193.124329 124.0
193.32077 56.0
193.517303 168.0
193.971649 136.0
194.052048 108.0
194.257263 92.0
194.573639 28.0
194.687485 164.0
194.876373 160.0
194.964096 312.0
195.109833 188.0
195.432465 88.0
196.139847 72.0
196.516342 180.0
196.923904 60.0
197.072693 588.0
197.242447 56.0
197.580826 208.0
198.07756 608.0
198.493927 64.0
198.864243 80.0
199.077606 128.0
200.030746 164.0
200.388412 180.0
200.86203 52.0
201.556564 100.0
205.124115 172.0
207.207458 152.0
208.19133 104.0
208.41539 148.0
210.859131 112.0
211.307343 108.0
211.590988 136.0
212.414017 120.0
213.968781 120.0
214.073868 4412.0
214.364914 52.0
214.385315 68.0
214.510651 84.0
214.545624 52.0
214.78183 88.0
215.018173 172.0
215.075104 428.0
215.190399 60.0
215.318878 192.0
215.377304 76.0
215.888779 104.0
215.950195 168.0
215.982361 76.0
216.386215 104.0
217.300644 44.0
217.629379 52.0
218.590576 132.0
219.977646 356.0
220.880066 152.0
221.970901 140.0
222.964462 200.0
222.991211 180.0
226.521133 60.0
227.705933 164.0
227.865143 160.0
231.572571 172.0
233.287003 228.0
233.648911 188.0
233.980637 188.0
234.00499 188.0
234.446686 148.0
235.572571 108.0
236.940063 92.0
238.059631 104.0
239.89035 180.0
241.125015 92.0
241.242477 156.0
242.043808 56.0
242.424835 116.0
243.197083 48.0
244.119812 160.0
245.977539 492.0
246.032944 188.0
246.426468 32.0
247.032974 20.0
247.624573 132.0
247.977234 136.0
250.460861 80.0
253.601639 148.0
255.739258 76.0
255.981216 168.0
257.314026 224.0
257.738831 128.0
258.980133 104.0
259.063416 160.0
259.242828 208.0
259.74942 100.0
259.807159 104.0
259.991547 192.0
260.1987 88.0
260.330353 84.0
260.561615 112.0
260.606598 80.0
260.699799 148.0
260.72229 192.0
260.776917 108.0
260.825134 152.0
260.895874 68.0
260.918365 128.0
261.002502 12796.0
261.067108 200.0
261.164154 64.0
261.193665 72.0
261.217438 36.0
261.265686 60.0
261.302917 112.0
261.328705 72.0
261.35257 40.0
261.381531 96.0
261.439453 60.0
261.484497 88.0
261.510254 136.0
261.545654 172.0
261.906311 48.0
261.938507 64.0
262.004547 2240.0
262.144714 116.0
262.638 188.0
262.673462 152.0
262.883179 212.0
263.000214 9572.0
263.222137 52.0
263.277039 108.0
263.380402 96.0
263.451447 60.0
263.687347 68.0
263.7229 112.0
263.765564 60.0
263.903931 68.0
264.003967 1144.0
264.259705 72.0
264.350311 44.0
264.415039 64.0
264.447418 48.0
264.593079 80.0
264.674011 96.0
264.936371 136.0
265.792328 120.0
265.870209 76.0
265.94812 76.0
266.064972 76.0
266.155884 128.0
266.545685 88.0
266.620422 108.0
267.345642 92.0
267.566986 104.0
269.438995 52.0
270.325104 76.0
271.780029 104.0
273.986176 84.0
280.184875 84.0
285.533997 120.0
288.278229 48.0
304.5466 76.0
313.010193 96.0
313.299011 84.0
323.652557 96.0
329.374481 56.0
329.761108 72.0
336.204041 64.0
345.05304 52.0
351.803497 32.0
355.223846 68.0
373.508057 48.0
382.520477 72.0
405.142883 116.0
462.793427 60.0
471.491547 32.0
476.82666 68.0
505.571136 64.0
519.866211 72.0
536.340759 40.0
541.325806 48.0
575.414673 68.0
593.651733 72.0
602.095276 132.0
612.21759 80.0
621.565491 124.0
655.510986 52.0
689.841248 72.0
856.855713 116.0
885.599731 44.0
928.418945 84.0
936.179382 112.0
945.042603 76.0
947.981812 208.0
954.267273 148.0
954.574707 208.0
956.57428 168.0
979.355286 28.0
983.657715 184.0
988.050964 60.0
997.375793 172.0
1000.848511 208.0
1005.538635 144.0
1027.526245 164.0
1038.022461 200.0
1038.304565 84.0
1038.567505 88.0
1044.907959 140.0
1096.101685 64.0
1098.514648 80.0
1098.686157 224.0
1100.441772 212.0
1111.057495 120.0
1122.210938 140.0
1123.404663 204.0
1140.365723 20.0
1145.607544 148.0
1146.887817 116.0
1174.621338 160.0
1179.209717 136.0
1199.726929 144.0
1206.015381 144.0
1207.10083 164.0
1214.025757 168.0
1216.176514 152.0
1221.116455 76.0
1233.940186 200.0
1238.593872 128.0
1241.811157 88.0
1249.024658 184.0
1257.056274 180.0
1261.597778 148.0
1273.878662 148.0
1283.586548 112.0
1284.891846 212.0
1287.032959 156.0
1288.723877 148.0
1293.38855 80.0
1308.694092 132.0
1317.478516 140.0
1318.663574 48.0
1345.679443 204.0
1354.264526 80.0
1355.055664 124.0
1355.165649 92.0
1357.357178 56.0
1364.324951 188.0
1365.964722 184.0
1367.186157 108.0
1370.01355 68.0
1370.367188 200.0
1373.78064 120.0
1374.850464 152.0
1377.678345 156.0
1378.210327 156.0
1379.333618 132.0
1380.316895 212.0
1381.737061 172.0
1382.935791 168.0
1384.838013 224.0
1389.605225 160.0
1391.460693 120.0
1394.521118 104.0
1400.264893 224.0
1404.901123 156.0
1406.610107 164.0
1418.93103 76.0
1420.294189 176.0
1421.248657 172.0
1422.952393 136.0
1437.222778 172.0
1437.735962 116.0
1437.886841 120.0
1438.936157 56.0
1443.53772 176.0
1452.368286 164.0
1461.766113 100.0
1463.981323 172.0
1471.442139 224.0
1474.25708 128.0
1475.227783 116.0
1477.759155 100.0
1481.786377 176.0
1482.361084 212.0
1487.36145 176.0
1488.060059 120.0
1499.483154 192.0
