>compound MLS001074742-01!
>formula C10H13N5O
>ionization [M+H]+
>parentmass 220.12
#inchi InChI=1S/C10H13N5O/c1-7(4-16)2-3-11-9-8-10(13-5-12-8)15-6-14-9/h2,5-6,16H,3-4H2,1H3,(H2,11,12,13,14,15)/b7-2+
#inchikey UZKQTCBAMSWPJD
#Ion_Source LC-ESI
#Instrument qTof
#Compound_Source NIH Natural Product Library
#PI Dorrestein
#Data_Collector VVP/LMS
#Scan -1
#Precursor_MZ 220.12
#ExactMass 219.112
#Charge 1
#CAS_Number N/A
#Pubmed_ID N/A
#Smiles C/C(=C\CNc1[nH]cnc2ncnc12)/CO
#INCHI_AUX N/A
#Library_Class 3
#SpectrumID CCMSLIB00000079576
#IonMode Positive
#UpdateWorkflowName UPDATE-SINGLE-ANNOTATED-BRONZE
#LibraryQualityString Bronze
#TaskID b1d8e8f6646f4e71acdff9ca3d919d08
##Scan# 842
#SpectrumFile p1-D08_GD8_01_17916.mzXML
#LibraryName NIH_Natural_Products_Library.mgf
#MQScore -1
#Organism NIH_Natural_Products_Library
#TIC_Query 0
#RT_Query -1
#MZErrorPPM -1
#SharedPeaks 0
#MassDiff 0
#LibMZ -1
#SpecMZ 220.12
#SpecCharge 0
#internalFilename spec-00000.mgf

>collision 10
95.769753 180.0
103.346413 140.0
105.512444 144.0
109.058067 220.0
113.042862 204.0
113.224915 80.0
116.782768 76.0
118.62027 124.0
119.034332 880.0
119.222305 52.0
119.686974 72.0
120.038826 132.0
121.968742 256.0
133.762939 204.0
134.060043 56.0
134.944077 156.0
134.96257 200.0
136.035217 196.0
136.061417 1896.0
136.0867 140.0
136.218674 52.0
137.048721 184.0
137.06456 368.0
141.334351 164.0
148.057953 336.0
160.057358 196.0
160.074997 216.0
161.076233 144.0
168.900955 164.0
172.071594 192.0
173.215851 60.0
173.235062 88.0
174.636734 164.0
176.929794 164.0
177.454346 44.0
178.95015 160.0
185.077194 136.0
202.106522 164.0
209.017502 172.0
209.083694 112.0
810.889038 192.0
811.382141 128.0
1056.794312 216.0
1339.227905 168.0
1355.951538 152.0
