>compound Aminoglutethimide (Cytadren)
>formula C13H16N2O2
>ionization [M+H]+
>parentmass 233.128571
#inchi InChI=1S/C13H16N2O2/c1-2-13(8-7-11(16)15-12(13)17)9-3-5-10(14)6-4-9/h3-6H,2,7-8,14H2,1H3,(H,15,16,17)
#inchikey ROBVIMPUHSLWNV
#Ion_Source LC-ESI
#Instrument qTof
#Compound_Source Commercial
#PI Dorrestein
#Data_Collector Garg_Neha
#Scan -1
#Precursor_MZ 233.128
#ExactMass 232.121
#Charge 1
#CAS_Number 125-84-8
#Pubmed_ID N/A
#Smiles C1(=CC=C(C=C1)N)C2(CCC(NC2=O)=O)CC
#INCHI_AUX N/A
#Library_Class 1
#SpectrumID CCMSLIB00000078234
#IonMode Positive
#UpdateWorkflowName UPDATE-SINGLE-ANNOTATED-GOLD
#LibraryQualityString Gold
#TaskID 77f51c88eb8b467eb4a01dd2d0cb90d2
##Scan# 1016
#SpectrumFile Plate4_1_20_GH2_01_16503.mzXML
#LibraryName FDALibrary_2_04302014.mgf
#MQScore -1
#Organism FDALibrary_2_04302014
#TIC_Query 0
#RT_Query -1
#MZErrorPPM -1
#SharedPeaks 0
#MassDiff 0
#LibMZ -1
#SpecMZ 233.128
#SpecCharge 0
#internalFilename spec-00000.mgf

>collision 10
45.116917 160.0
45.647865 160.0
45.713779 228.0
45.915855 168.0
46.414856 156.0
46.467754 144.0
46.670124 228.0
46.710926 176.0
46.802109 180.0
47.040691 168.0
47.106236 164.0
47.22242 144.0
47.392166 160.0
47.420944 176.0
47.733952 188.0
48.193207 176.0
48.220592 156.0
48.264828 264.0
48.296635 168.0
48.333988 144.0
48.490475 192.0
48.855785 136.0
49.100811 192.0
49.374542 176.0
49.719177 188.0
49.848373 192.0
49.977737 148.0
50.265186 184.0
50.39085 200.0
50.403564 208.0
51.25494 148.0
51.406094 236.0
51.434635 160.0
51.480324 152.0
51.813595 160.0
51.944046 160.0
52.058865 200.0
52.24284 208.0
52.33783 180.0
53.095043 216.0
53.158875 180.0
53.285194 184.0
53.392761 156.0
53.588264 144.0
53.686935 208.0
53.73653 148.0
53.752743 180.0
53.932213 252.0
54.169258 164.0
54.18977 284.0
54.265984 160.0
54.33638 224.0
54.527275 156.0
54.717026 172.0
55.005966 164.0
55.608391 140.0
55.93539 188.0
56.557831 200.0
56.575794 152.0
57.48362 164.0
57.506256 204.0
57.540974 172.0
58.070602 148.0
58.169228 180.0
58.339367 296.0
58.521931 180.0
58.541725 168.0
58.595036 196.0
58.892498 208.0
58.997936 152.0
59.255047 172.0
59.337807 252.0
59.353371 184.0
59.506573 152.0
59.569538 152.0
60.055943 208.0
60.471897 168.0
60.491688 192.0
60.827271 164.0
60.869984 168.0
61.034695 212.0
61.185612 184.0
61.762997 188.0
62.01038 212.0
62.314808 172.0
62.382385 192.0
62.79808 184.0
63.025402 184.0
63.216736 176.0
63.267384 184.0
63.359238 232.0
64.171371 172.0
64.34687 188.0
65.140816 188.0
65.730919 180.0
65.832153 184.0
66.144188 144.0
66.268883 152.0
66.33371 184.0
66.471565 168.0
66.57708 236.0
66.907158 156.0
67.016281 200.0
67.115707 228.0
67.725273 216.0
67.903923 236.0
67.966263 156.0
68.040253 248.0
68.114014 168.0
68.137016 148.0
68.37719 196.0
68.390251 168.0
68.520348 144.0
68.571426 164.0
69.043602 188.0
69.321716 144.0
69.573822 172.0
69.849678 216.0
70.27282 180.0
70.43721 196.0
70.583496 164.0
70.978439 176.0
71.522148 208.0
71.578545 212.0
71.699837 196.0
71.730179 168.0
72.111641 180.0
72.531403 152.0
73.175247 236.0
73.274025 228.0
73.507614 348.0
73.555405 204.0
73.992149 224.0
74.327263 156.0
74.667397 156.0
74.71212 212.0
74.820427 192.0
74.960052 156.0
75.10659 184.0
75.33445 140.0
75.346542 156.0
75.784264 192.0
76.004471 148.0
76.391899 160.0
76.423218 192.0
76.67057 160.0
76.687912 164.0
76.792526 164.0
77.382736 180.0
77.440956 164.0
78.505981 140.0
78.58712 156.0
78.761894 196.0
79.216499 224.0
79.25193 276.0
79.352959 140.0
79.439857 204.0
79.489532 156.0
79.578285 204.0
79.699059 156.0
79.869728 152.0
80.004967 144.0
80.197929 148.0
80.594833 180.0
81.049789 152.0
81.139404 168.0
82.227676 180.0
82.646919 168.0
82.864189 276.0
82.9403 220.0
82.996498 152.0
83.202774 168.0
83.588661 176.0
83.725189 224.0
84.287041 168.0
84.310799 172.0
84.624794 176.0
84.638237 160.0
84.792114 144.0
85.442139 144.0
85.773613 152.0
85.793884 140.0
86.042938 176.0
86.09095 176.0
86.253532 144.0
86.493996 192.0
86.5625 216.0
86.931389 160.0
87.018631 164.0
87.039055 196.0
87.336403 168.0
87.539261 184.0
87.589546 144.0
87.895294 264.0
88.012886 220.0
88.078255 172.0
88.237099 180.0
88.5009 164.0
88.716354 180.0
88.958351 184.0
89.057869 172.0
89.109352 112.0
89.737206 176.0
89.788124 188.0
89.974922 196.0
90.058014 164.0
90.436165 144.0
90.974495 164.0
91.128326 140.0
91.244263 244.0
91.326027 172.0
91.343147 192.0
91.796432 232.0
91.893707 140.0
92.053108 180.0
92.206871 260.0
92.746613 168.0
92.809875 152.0
93.056305 1860.0
93.076584 156.0
93.090027 240.0
93.324448 152.0
93.54377 188.0
93.705536 160.0
93.788399 160.0
94.000305 228.0
94.064087 4808.0
94.098038 172.0
94.13649 188.0
94.26619 120.0
94.481644 208.0
94.528084 164.0
95.047882 320.0
95.067421 332.0
95.340614 192.0
95.540886 172.0
96.351891 144.0
96.381203 168.0
96.666687 184.0
98.043297 140.0
98.297684 164.0
99.092545 140.0
99.290771 172.0
99.697746 184.0
99.958252 152.0
100.0299 172.0
100.161324 244.0
100.209129 156.0
100.288841 156.0
100.801743 200.0
102.074623 184.0
102.332176 168.0
103.053131 144.0
103.076454 184.0
103.157295 144.0
105.051949 212.0
105.067177 268.0
105.55233 156.0
105.77533 172.0
105.793755 176.0
106.064362 756.0
106.117447 148.0
106.330788 176.0
107.071487 296.0
107.565742 144.0
107.693764 216.0
107.724747 192.0
108.08242 140.0
108.117599 140.0
108.330856 176.0
108.401306 176.0
108.467621 192.0
108.4925 196.0
108.610695 220.0
108.728958 216.0
108.753868 220.0
109.608604 164.0
109.792046 148.0
109.96521 200.0
110.416481 220.0
110.669685 164.0
111.099327 172.0
111.475159 152.0
111.525597 148.0
111.618095 204.0
111.660156 204.0
111.775864 192.0
112.074692 2804.0
112.130341 164.0
112.35527 144.0
112.680389 144.0
112.809303 152.0
113.061005 164.0
113.079895 720.0
113.228714 184.0
113.387146 180.0
113.577965 220.0
113.872993 180.0
113.921844 204.0
114.096107 228.0
114.25135 144.0
114.389671 184.0
114.489746 148.0
114.653786 144.0
114.826469 160.0
114.890465 176.0
114.905396 180.0
115.052086 344.0
115.101761 160.0
115.259827 152.0
115.674728 164.0
115.841759 216.0
116.06147 180.0
116.64959 236.0
116.87442 176.0
116.9562 200.0
117.053902 528.0
117.195244 192.0
117.2211 204.0
117.27713 176.0
117.676216 204.0
117.710762 176.0
117.725876 204.0
117.762589 192.0
117.840355 152.0
118.064041 1208.0
118.417931 144.0
118.727844 140.0
118.975204 188.0
119.014282 164.0
119.066338 144.0
119.253242 168.0
119.357597 200.0
119.995544 160.0
120.044334 332.0
120.080521 1120.0
120.128578 212.0
120.401413 176.0
120.528107 184.0
120.649391 220.0
120.789116 120.0
120.860466 172.0
121.048714 160.0
121.079964 252.0
121.186707 188.0
121.305054 180.0
121.482674 180.0
121.629692 164.0
121.814148 208.0
122.058098 324.0
122.535721 172.0
123.045181 152.0
123.655273 180.0
124.593231 176.0
125.029045 212.0
125.38092 172.0
125.528053 184.0
125.717667 248.0
125.923058 188.0
126.043686 164.0
126.802315 228.0
126.853867 156.0
126.878525 152.0
126.990646 156.0
127.053452 252.0
128.060989 748.0
128.149872 148.0
128.20694 176.0
128.414398 180.0
128.608383 144.0
128.979309 184.0
129.067398 436.0
129.923111 188.0
130.063583 1584.0
130.374954 224.0
130.584106 156.0
130.744308 232.0
130.950546 300.0
131.071701 4032.0
131.40416 152.0
131.549118 132.0
131.840302 168.0
131.993073 144.0
132.018616 148.0
132.0793 2148.0
132.572601 148.0
133.087219 672.0
133.249496 192.0
134.057129 184.0
134.094193 476.0
134.114746 164.0
134.870392 156.0
135.001297 152.0
135.138672 204.0
135.420181 208.0
135.459564 192.0
136.617935 164.0
136.710999 180.0
137.067276 144.0
137.501022 184.0
137.771881 216.0
138.199722 216.0
138.337814 176.0
138.436142 188.0
138.775909 168.0
139.995438 192.0
140.069489 2480.0
140.120209 144.0
140.648514 180.0
140.747665 144.0
140.946075 148.0
141.075592 140.0
141.595474 192.0
141.710312 444.0
142.062408 304.0
142.193954 228.0
142.234421 148.0
142.545532 216.0
142.714294 188.0
142.783264 144.0
142.902191 156.0
143.083176 312.0
143.371292 212.0
144.05954 184.0
144.079269 1028.0
144.768814 204.0
144.95929 188.0
145.046722 260.0
145.087021 1900.0
145.392105 164.0
145.841232 148.0
145.9422 148.0
145.95903 160.0
145.978897 168.0
146.031174 200.0
146.060074 624.0
146.095764 20752.0
146.158676 168.0
146.478867 168.0
146.662003 144.0
147.062912 108.0
147.099182 2876.0
147.277267 140.0
148.072388 208.0
148.105484 440.0
148.139053 240.0
148.320786 104.0
148.439865 136.0
149.982727 156.0
150.136322 164.0
150.473053 156.0
150.536545 172.0
150.95929 188.0
151.505112 140.0
152.277771 164.0
152.344101 200.0
152.945984 212.0
153.06604 228.0
154.063614 172.0
154.113022 144.0
154.944321 216.0
155.057129 176.0
156.056213 196.0
156.287521 216.0
157.601532 212.0
158.029083 248.0
158.059113 208.0
158.083054 664.0
158.454712 184.0
159.067413 2048.0
159.091705 304.0
159.290085 172.0
159.508499 148.0
159.654526 180.0
159.702316 144.0
159.752625 168.0
159.860809 204.0
160.073166 2460.0
160.111618 5956.0
160.838684 180.0
160.967438 160.0
161.043213 144.0
161.082062 212.0
161.114594 808.0
161.809418 164.0
161.928421 168.0
162.086838 164.0
162.123672 228.0
162.249893 148.0
162.380859 132.0
163.029465 180.0
163.057419 164.0
163.08284 276.0
163.120239 176.0
163.273529 168.0
163.589035 200.0
163.953247 144.0
164.5578 160.0
164.608856 176.0
164.726349 180.0
165.038132 240.0
165.085617 180.0
165.890671 152.0
166.000916 148.0
166.039383 224.0
166.172775 240.0
166.442276 184.0
166.575821 160.0
167.65387 176.0
168.025177 156.0
168.567383 152.0
168.972672 172.0
169.017319 152.0
169.06131 196.0
169.082825 356.0
169.159653 164.0
170.096558 936.0
170.152542 160.0
170.498016 176.0
170.763199 212.0
170.911469 196.0
171.049408 192.0
171.102066 140.0
171.703384 136.0
171.7686 168.0
172.075256 496.0
172.100037 272.0
172.120926 176.0
172.259338 296.0
172.518051 152.0
172.876114 164.0
173.080841 256.0
173.104645 1012.0
173.282227 224.0
173.714783 176.0
173.880096 152.0
174.088684 188.0
174.271362 156.0
174.884079 176.0
175.085251 352.0
175.236954 188.0
176.044769 188.0
176.090927 148.0
176.167328 128.0
176.485382 184.0
177.252991 148.0
177.584366 180.0
177.751495 184.0
178.343735 176.0
178.792114 144.0
178.886368 164.0
179.643158 176.0
180.602112 160.0
181.357162 204.0
181.877518 144.0
182.401306 228.0
182.623459 180.0
182.68634 156.0
182.971603 148.0
184.133789 176.0
184.747375 208.0
185.500183 168.0
185.917877 184.0
185.977585 196.0
186.076843 1276.0
186.474625 216.0
187.060822 544.0
187.1185 296.0
187.344131 148.0
187.380768 184.0
187.473404 260.0
187.658768 188.0
187.719284 124.0
187.755692 176.0
187.996536 140.0
188.031021 136.0
188.106812 41468.0
188.296295 208.0
188.496719 208.0
188.934677 148.0
189.018997 148.0
189.10939 3936.0
189.223099 148.0
189.937637 116.0
190.109573 660.0
190.197464 176.0
190.323746 148.0
190.451752 156.0
190.516418 136.0
190.601166 152.0
191.057571 232.0
191.547562 208.0
192.029922 144.0
192.604599 136.0
192.968796 160.0
193.650986 184.0
194.97847 140.0
195.159149 208.0
196.197632 216.0
196.719299 184.0
196.934311 176.0
197.65271 176.0
200.45517 212.0
200.844223 208.0
201.736267 212.0
202.732819 204.0
203.080582 3228.0
203.195007 188.0
203.327682 164.0
203.402161 272.0
203.629318 188.0
203.88501 200.0
204.087143 596.0
204.5961 172.0
204.858093 180.0
204.892273 204.0
204.945328 148.0
205.012253 152.0
205.043304 140.0
205.0905 544.0
205.133331 31792.0
205.283417 108.0
205.593033 108.0
206.085037 124.0
206.134705 3088.0
206.688156 192.0
206.817932 104.0
207.138901 408.0
207.424194 176.0
207.48439 140.0
207.690857 152.0
207.804108 192.0
207.845779 140.0
207.870026 196.0
208.015106 188.0
209.257019 220.0
209.282944 192.0
209.732346 168.0
211.311966 172.0
211.986618 160.0
213.78125 216.0
214.101471 172.0
214.841812 156.0
214.992004 144.0
215.116272 4480.0
215.373962 160.0
215.536682 188.0
215.96936 184.0
216.013229 148.0
216.057846 160.0
216.101089 1844.0
216.28537 216.0
217.101471 744.0
217.214233 152.0
217.689697 172.0
218.540833 284.0
218.600967 152.0
219.054382 172.0
219.245239 200.0
220.201767 160.0
220.999908 152.0
222.093048 176.0
224.672089 256.0
225.173553 156.0
225.935776 148.0
226.163208 140.0
228.320389 164.0
229.166245 180.0
229.46463 236.0
229.699844 164.0
231.010849 224.0
231.120056 340.0
231.725311 152.0
231.964722 180.0
232.261887 204.0
232.38324 188.0
232.442215 236.0
232.531921 156.0
232.73967 104.0
232.780869 148.0
232.81427 184.0
232.90036 184.0
232.93576 204.0
233.032181 168.0
233.079208 488.0
233.128571 54808.0
233.242142 308.0
233.314529 124.0
234.130341 6492.0
235.01532 168.0
235.131683 856.0
235.591858 100.0
235.772156 116.0
236.133118 160.0
249.505096 172.0
251.137253 280.0
252.140228 140.0
315.334381 176.0
468.832886 148.0
731.777954 140.0
971.307312 196.0
1051.267944 168.0
1169.61853 192.0
1186.203491 184.0
1231.792603 192.0
1233.581421 184.0
1242.152466 168.0
1243.113647 144.0
1278.960083 168.0
1297.267822 168.0
1305.941895 152.0
1310.138428 184.0
1332.362427 176.0
1339.032593 176.0
1346.741821 168.0
1359.57605 160.0
1362.997925 160.0
1373.547729 152.0
1374.005127 236.0
1389.823486 156.0
1409.129639 184.0
1416.266113 188.0
1427.61377 148.0
1429.449219 164.0
1438.289429 148.0
1443.80481 188.0
1453.053467 188.0
1468.602051 192.0
1493.341309 172.0
1498.236938 164.0
1507.341064 160.0
1511.377441 164.0
1526.137695 168.0
1527.568604 156.0
1535.996948 180.0
1556.148193 208.0
1557.451782 140.0
1565.135132 200.0
1565.607544 184.0
1572.395386 256.0
1573.153076 264.0
1580.827515 176.0
1586.502441 164.0
1605.804688 212.0
1609.475586 184.0
1610.290039 156.0
1618.751099 172.0
1640.492188 204.0
1655.155884 160.0
1657.553467 164.0
1661.282959 160.0
1662.572998 228.0
1663.855469 164.0
1668.518799 144.0
1671.80481 176.0
1672.944214 216.0
1674.450562 184.0
1683.396729 168.0
1686.288696 204.0
1689.764038 168.0
1699.579468 140.0
1700.05542 160.0
1701.363037 196.0
1704.818359 168.0
1706.092407 188.0
1706.799438 208.0
1710.180542 180.0
1711.473022 144.0
1724.085571 168.0
1729.279297 148.0
1730.347168 168.0
1730.504395 176.0
1738.362183 144.0
1742.106689 176.0
1748.261353 252.0
1751.456421 160.0
1752.689331 208.0
1756.17395 172.0
1760.213135 156.0
1760.413574 192.0
1762.894531 140.0
1763.646729 140.0
1766.372559 212.0
1770.498901 180.0
1771.637939 180.0
1774.252563 200.0
1775.577393 192.0
1776.164551 156.0
1790.789551 160.0
1795.155029 160.0
1799.399048 148.0
1809.29895 140.0
1814.771973 196.0
1816.934937 168.0
1823.286011 244.0
1831.700684 148.0
1832.637695 212.0
1835.416382 156.0
1835.484619 180.0
1836.38855 152.0
1839.434692 196.0
1841.577881 168.0
1845.106934 156.0
1846.782959 168.0
1848.91333 212.0
1852.252441 200.0
1853.460327 156.0
1853.931641 160.0
1863.98877 164.0
1864.538818 184.0
1867.728516 220.0
1868.717773 200.0
1870.852173 196.0
1888.878662 248.0
1894.531372 156.0
1897.963379 196.0
1900.044922 216.0
1904.29834 232.0
1908.06958 152.0
1908.556519 140.0
1910.078369 280.0
1910.904785 140.0
1913.376465 148.0
1915.083252 156.0
1918.8302 160.0
1919.048218 192.0
1929.060425 164.0
1931.658813 324.0
1932.384888 228.0
1933.198608 172.0
1934.310181 208.0
1939.153809 192.0
1942.169922 244.0
1943.1875 172.0
1957.479248 144.0
1962.025635 180.0
1964.618286 164.0
1965.765381 204.0
1966.171265 196.0
1967.433472 224.0
1968.351685 180.0
1968.660767 144.0
1970.012085 172.0
1975.581299 184.0
1981.282349 172.0
1983.231812 184.0
1983.488892 216.0
1985.235474 164.0
1988.216187 144.0
1988.296021 236.0
1988.509033 176.0
1988.961792 168.0
1989.662964 320.0
1997.678833 188.0
2001.861938 152.0
