>compound MLS001160039-01!
>formula C27H30N2O5
>ionization [M+H]+
>parentmass 463.222168
#inchi InChI=1S/C27H30N2O5/c1-3-4-6-19-12-26(32)34-23-10-17(2)9-22(27(19)23)33-16-25(31)28-13-18-11-20(15-28)21-7-5-8-24(30)29(21)14-18/h5,7-10,12,18,20H,3-4,6,11,13-16H2,1-2H3/t18-,20+/m1/s1
#inchikey RCHIKMXYFFYNTC
#Ion_Source LC-ESI
#Instrument qTof
#Compound_Source NIH Natural Product Library
#PI Dorrestein
#Data_Collector VVP/LMS
#Scan -1
#Precursor_MZ 463.223
#ExactMass 462.215
#Charge 1
#CAS_Number N/A
#Pubmed_ID N/A
#Smiles CCCCc1cc(=O)oc2cc(C)cc(OCC(=O)N3C[C@H]4C[C@@H](C3)c5cccc(=O)n5C4)c12
#INCHI_AUX N/A
#Library_Class 1
#SpectrumID CCMSLIB00000079705
#IonMode Positive
#UpdateWorkflowName UPDATE-SINGLE-ANNOTATED-GOLD
#LibraryQualityString Gold
#TaskID b1d8e8f6646f4e71acdff9ca3d919d08
##Scan# 2017
#SpectrumFile p1-A10_GA10_01_17882.mzXML
#LibraryName NIH_Natural_Products_Library.mgf
#MQScore -1
#Organism NIH_Natural_Products_Library
#TIC_Query 0
#RT_Query -1
#MZErrorPPM -1
#SharedPeaks 0
#MassDiff 0
#LibMZ -1
#SpecMZ 463.223
#SpecCharge 0
#internalFilename spec-00000.mgf

>collision 10
94.970955 176.0
95.001984 108.0
95.037422 540.0
95.083626 184.0
95.134758 240.0
95.221321 172.0
95.248512 176.0
95.264053 56.0
95.485634 124.0
95.551765 108.0
95.632195 132.0
95.744469 160.0
95.805885 188.0
95.88279 120.0
95.951012 208.0
95.990005 160.0
96.003654 164.0
96.04071 148.0
96.214378 152.0
96.335243 164.0
96.419472 148.0
96.583702 156.0
96.607178 148.0
96.642387 64.0
96.65609 228.0
96.708923 176.0
96.746117 88.0
96.816605 140.0
96.957657 92.0
96.992935 56.0
97.00972 160.0
97.257729 72.0
97.332329 188.0
97.361786 164.0
97.49144 224.0
97.513054 172.0
97.699646 192.0
97.751877 100.0
97.827766 180.0
97.914398 148.0
97.998444 252.0
98.018806 180.0
98.101479 228.0
98.21595 208.0
98.253426 164.0
98.294861 136.0
98.353722 160.0
98.391571 120.0
98.436989 172.0
98.492287 164.0
98.510063 144.0
98.761093 148.0
98.881783 60.0
99.004524 204.0
99.375191 132.0
99.516106 200.0
99.530006 64.0
99.645203 220.0
99.732941 184.0
99.816132 140.0
99.838005 188.0
99.907623 232.0
100.144493 104.0
100.182343 88.0
100.252075 220.0
100.479378 192.0
100.505318 136.0
100.575165 140.0
100.641045 176.0
100.688965 176.0
100.793434 176.0
101.013077 124.0
101.040764 156.0
101.086784 232.0
101.172844 112.0
101.342255 192.0
101.405197 44.0
101.481178 204.0
101.585655 216.0
101.683975 168.0
101.71006 132.0
101.800407 140.0
101.846596 156.0
101.878738 208.0
101.914902 188.0
102.037102 180.0
102.105865 128.0
102.121956 152.0
102.184319 192.0
102.325195 116.0
102.359421 144.0
102.387619 152.0
102.403725 76.0
102.605232 140.0
102.643539 104.0
102.68589 148.0
102.716141 88.0
102.752449 156.0
102.800011 112.0
103.271591 136.0
103.324226 196.0
103.446152 224.0
103.482048 120.0
103.544823 128.0
103.725143 48.0
103.915771 136.0
104.048447 780.0
104.191872 268.0
104.216255 192.0
104.277214 172.0
104.311768 192.0
104.484619 144.0
104.523277 184.0
104.690201 184.0
104.737038 164.0
104.887825 196.0
105.006081 176.0
105.070229 668.0
105.208084 124.0
105.244827 112.0
105.346947 168.0
105.624947 164.0
105.680183 200.0
105.708824 136.0
105.854164 52.0
105.894646 172.0
105.936089 116.0
106.013939 196.0
106.064941 680.0
106.203506 212.0
106.259995 220.0
106.313339 148.0
106.35849 136.0
106.385178 116.0
106.444717 96.0
106.592613 164.0
106.625496 140.0
106.683044 152.0
106.724159 156.0
106.762482 132.0
106.882538 152.0
106.979225 200.0
107.049271 204.0
107.071922 172.0
107.176979 68.0
107.226433 140.0
107.339813 180.0
107.438812 188.0
107.544052 144.0
107.608047 180.0
107.709229 44.0
107.737221 220.0
107.796005 160.0
107.843536 100.0
107.907616 176.0
107.926224 204.0
108.042046 188.0
108.093765 184.0
108.155853 92.0
108.296646 196.0
108.315292 156.0
108.331863 152.0
108.584732 36.0
108.661484 164.0
108.75901 148.0
108.77977 204.0
108.800529 248.0
108.850357 164.0
108.933434 168.0
109.030769 728.0
109.052383 1888.0
109.090088 196.0
109.149574 220.0
109.164131 136.0
109.420052 136.0
109.695038 128.0
109.759666 208.0
109.884804 144.0
109.903587 168.0
109.928619 100.0
109.980797 100.0
110.057121 320.0
110.091446 172.0
110.137527 184.0
110.193794 136.0
110.260666 196.0
110.285744 128.0
110.362396 204.0
110.555534 128.0
110.580643 376.0
110.689499 84.0
110.720917 80.0
110.808891 152.0
110.896896 76.0
110.927635 260.0
111.031075 120.0
111.067551 364.0
111.180023 212.0
111.486771 172.0
111.68425 132.0
111.735985 108.0
111.804176 224.0
111.95153 172.0
111.976807 156.0
112.042099 160.0
112.071594 224.0
112.097565 136.0
112.124275 104.0
112.233894 220.0
112.250763 64.0
112.307701 156.0
112.335121 52.0
112.423737 128.0
112.442734 136.0
112.459618 108.0
112.573616 120.0
112.617966 124.0
112.702469 240.0
112.863106 128.0
112.920197 176.0
113.047813 160.0
113.21225 164.0
113.250366 172.0
113.286377 172.0
113.316032 132.0
113.538605 128.0
113.636177 168.0
113.683815 168.0
113.710442 160.0
113.729546 184.0
113.750771 116.0
113.80172 180.0
113.839943 164.0
113.869675 132.0
113.905777 188.0
113.931274 200.0
113.956764 164.0
113.971642 180.0
113.986511 200.0
114.103409 136.0
114.211861 68.0
114.230049 132.0
114.258659 136.0
114.335258 164.0
114.614212 176.0
114.68454 304.0
114.824417 132.0
114.910576 84.0
115.006607 180.0
115.051979 360.0
115.083458 260.0
115.160332 144.0
115.339806 208.0
115.515144 164.0
115.568634 216.0
115.658508 232.0
115.810532 148.0
115.914871 172.0
115.984085 184.0
116.048393 144.0
116.0634 128.0
116.262894 200.0
116.415314 92.0
116.560844 160.0
116.701096 136.0
116.718292 220.0
117.055817 544.0
117.19828 168.0
117.245689 180.0
117.3125 124.0
117.35778 168.0
117.519539 188.0
117.595703 216.0
117.642555 176.0
117.672775 196.0
117.705162 148.0
117.754829 96.0
117.776428 124.0
117.797745 184.0
117.875809 212.0
117.957825 156.0
118.024956 188.0
118.063469 448.0
118.081726 172.0
118.109291 184.0
118.148232 180.0
118.18866 64.0
118.20665 156.0
118.327858 232.0
118.40728 176.0
118.451294 132.0
118.6297 132.0
118.64415 176.0
118.674797 148.0
118.945679 176.0
119.032516 132.0
119.066284 356.0
119.085007 380.0
119.132423 40.0
119.175873 128.0
119.195427 124.0
119.232368 204.0
119.358452 72.0
119.739273 216.0
119.937538 232.0
119.952797 48.0
120.061813 196.0
120.080635 416.0
120.205788 204.0
120.22979 256.0
120.34111 84.0
120.384781 44.0
120.507103 200.0
120.590141 184.0
120.620743 188.0
120.649155 136.0
120.710373 188.0
120.756302 128.0
120.960823 168.0
120.992622 184.0
121.041847 264.0
121.062653 496.0
121.20726 52.0
121.224792 168.0
121.279579 88.0
121.319031 104.0
121.338768 112.0
121.371651 244.0
121.525185 80.0
121.571266 172.0
121.60199 324.0
121.617355 196.0
121.770004 204.0
121.860725 116.0
121.880875 152.0
121.905052 216.0
121.951073 212.0
122.059669 2320.0
122.1007 152.0
122.135895 76.0
122.160088 288.0
122.217285 192.0
122.288902 184.0
122.382362 228.0
122.452827 72.0
122.536537 136.0
122.577751 136.0
122.651123 200.0
122.715057 160.0
122.779045 212.0
122.966522 144.0
123.026855 168.0
123.064079 436.0
123.167442 132.0
123.211624 52.0
123.231506 52.0
123.286751 176.0
123.337578 156.0
123.48793 152.0
123.638367 208.0
123.675415 216.0
123.771141 188.0
123.913124 232.0
123.937309 168.0
124.017082 44.0
124.045898 92.0
124.072174 164.0
124.105759 124.0
124.143456 184.0
124.35199 104.0
124.405258 188.0
124.443001 184.0
124.689568 172.0
124.848648 172.0
124.891891 32.0
124.974197 84.0
125.014252 112.0
125.056534 500.0
125.094376 140.0
125.227966 40.0
125.417351 88.0
125.477249 152.0
125.751907 184.0
125.798782 140.0
125.833961 176.0
125.861298 208.0
125.970726 232.0
126.060097 96.0
126.086914 180.0
126.153969 196.0
126.200912 204.0
126.398575 172.0
126.496216 104.0
126.61264 200.0
126.630562 124.0
126.711197 132.0
126.764977 100.0
126.863586 164.0
126.944305 148.0
127.076645 156.0
127.350502 172.0
127.606682 92.0
127.76564 164.0
127.9599 128.0
127.988258 148.0
128.045471 168.0
128.062897 488.0
128.182312 128.0
128.196045 228.0
128.2798 140.0
128.297821 96.0
128.365463 172.0
128.406052 56.0
128.500793 132.0
128.539154 220.0
128.658768 144.0
128.683609 148.0
128.70845 152.0
128.832657 52.0
128.907227 132.0
128.999878 132.0
129.067627 176.0
129.125031 140.0
129.186722 148.0
129.232819 156.0
129.434265 76.0
129.472763 148.0
129.583755 140.0
129.731064 188.0
129.753723 156.0
129.829086 240.0
129.880722 156.0
129.966919 168.0
130.066635 444.0
130.105362 192.0
130.141693 192.0
130.298401 76.0
130.325668 120.0
130.421112 132.0
130.596176 176.0
130.680344 120.0
130.737244 156.0
130.876083 164.0
130.903412 220.0
130.923904 176.0
130.98996 104.0
131.018173 208.0
131.046906 148.0
131.073257 344.0
131.261169 88.0
131.38205 204.0
131.427673 116.0
131.653656 64.0
131.77243 212.0
131.911835 156.0
131.959839 268.0
131.983459 192.0
132.044174 1344.0
132.079453 1160.0
132.197723 92.0
132.241196 160.0
132.392303 84.0
132.440399 96.0
132.458725 148.0
132.53891 180.0
132.788773 196.0
132.811707 184.0
132.869049 112.0
132.963135 212.0
133.029694 152.0
133.05043 2180.0
133.099915 188.0
133.183533 76.0
133.236374 104.0
133.500702 112.0
133.538254 176.0
133.56279 156.0
133.633118 140.0
133.734222 236.0
133.935669 196.0
134.004776 184.0
134.059982 5060.0
134.101624 168.0
134.200684 120.0
134.31369 300.0
134.343674 28.0
134.424423 48.0
134.44519 96.0
134.470581 368.0
134.523666 180.0
134.560608 212.0
134.590622 120.0
134.627563 96.0
134.69455 172.0
134.821609 168.0
134.874771 184.0
134.955688 84.0
134.994995 132.0
135.071548 748.0
135.101379 200.0
135.318924 184.0
135.481033 156.0
135.636292 120.0
135.791641 132.0
135.933151 176.0
136.007034 172.0
136.039917 44.0
136.062988 224.0
136.167618 192.0
136.183868 52.0
136.207092 140.0
136.272842 148.0
136.309326 204.0
136.362198 180.0
136.406937 128.0
136.445953 132.0
136.532486 128.0
136.795395 140.0
136.844284 188.0
136.874557 204.0
137.058609 1668.0
137.088852 144.0
137.109833 164.0
137.151779 124.0
137.238037 156.0
137.382904 172.0
137.417633 48.0
137.471298 136.0
137.522629 96.0
137.718765 164.0
137.791168 144.0
137.819214 104.0
137.910355 180.0
137.967834 184.0
138.017883 164.0
138.061935 532.0
138.088043 232.0
138.176926 156.0
138.237762 204.0
138.41098 208.0
138.446106 60.0
138.506088 176.0
138.528076 168.0
138.680374 200.0
138.865112 172.0
138.914902 200.0
138.968811 180.0
139.060333 168.0
139.076767 176.0
139.264603 184.0
139.574799 72.0
139.652405 144.0
139.673569 96.0
140.054886 172.0
140.130264 204.0
140.200958 136.0
140.226883 104.0
140.415482 60.0
140.434357 72.0
140.460297 180.0
140.594772 128.0
140.621948 132.0
140.816696 144.0
140.847397 124.0
141.070786 236.0
141.218491 128.0
141.30127 132.0
141.55217 176.0
141.57254 148.0
141.646896 124.0
141.741669 196.0
141.805573 144.0
141.826981 128.0
141.864899 156.0
141.909943 68.0
141.943146 192.0
142.066681 624.0
142.121033 128.0
142.162277 136.0
142.171326 168.0
142.234955 60.0
142.448654 124.0
142.486664 160.0
142.724335 56.0
142.740982 76.0
143.021698 128.0
143.045959 104.0
143.082916 784.0
143.109787 180.0
143.576828 180.0
143.606171 212.0
143.753357 184.0
143.789154 144.0
143.808243 160.0
143.903732 188.0
144.055145 148.0
144.078415 552.0
144.207108 160.0
144.263565 128.0
144.278809 212.0
144.591125 168.0
144.714233 160.0
144.977722 168.0
145.013672 140.0
145.062454 328.0
145.092575 340.0
145.169495 100.0
145.397385 192.0
145.461395 60.0
145.486206 104.0
145.505402 208.0
145.750381 108.0
145.829681 164.0
145.863342 68.0
145.880157 220.0
145.925781 156.0
145.954437 184.0
146.033905 392.0
146.060043 31640.0
146.142929 108.0
146.193161 60.0
146.215759 156.0
146.255402 128.0
146.281891 176.0
146.298172 172.0
146.337357 88.0
146.407089 36.0
146.433578 68.0
146.455246 128.0
146.477798 100.0
146.61908 168.0
146.655228 64.0
146.706375 148.0
146.766129 76.0
146.787827 168.0
146.843292 32.0
146.872238 56.0
146.892792 92.0
146.988037 68.0
147.067169 20176.0
147.146194 144.0
147.180252 88.0
147.243912 92.0
147.268066 68.0
147.284973 64.0
147.313965 72.0
147.342957 164.0
147.362686 72.0
147.396103 156.0
147.537842 168.0
147.570129 48.0
147.6026 144.0
147.64328 160.0
147.744736 100.0
147.896698 152.0
147.961288 200.0
147.983856 48.0
148.005646 72.0
148.075439 10668.0
148.145142 80.0
148.183411 132.0
148.204514 152.0
148.228485 128.0
148.330276 76.0
148.444229 180.0
148.492722 156.0
148.53154 92.0
148.550934 32.0
148.684387 200.0
148.771759 184.0
148.861603 212.0
148.934448 56.0
148.970886 88.0
149.075577 1564.0
149.102203 188.0
149.206619 108.0
149.264969 100.0
149.308731 100.0
149.340347 288.0
149.44252 64.0
149.62262 60.0
149.673691 184.0
149.756546 160.0
149.795517 112.0
149.84668 140.0
149.868607 36.0
150.030838 156.0
150.072601 276.0
150.163574 88.0
150.183075 60.0
150.221344 64.0
150.251373 184.0
150.427078 40.0
150.53566 204.0
150.637085 32.0
150.691544 152.0
150.727478 232.0
150.839905 80.0
150.989044 124.0
151.032806 148.0
151.041672 132.0
151.049347 128.0
151.075165 1396.0
151.121002 144.0
151.21167 88.0
151.22963 296.0
151.253281 196.0
151.380585 104.0
151.432022 220.0
151.503052 32.0
151.716248 112.0
151.887909 132.0
151.922241 76.0
151.999466 160.0
152.041504 204.0
152.078583 380.0
152.135742 52.0
152.205719 228.0
152.313538 168.0
152.393616 288.0
152.624649 184.0
152.730392 68.0
152.759918 192.0
152.833725 200.0
153.075317 156.0
153.121735 176.0
153.190033 192.0
153.239975 164.0
153.279984 200.0
153.363174 176.0
153.471649 192.0
153.575226 28.0
153.622086 144.0
153.844177 192.0
153.902649 100.0
154.044205 152.0
154.066681 340.0
154.147964 76.0
154.171021 208.0
154.214691 164.0
154.385284 88.0
154.466888 136.0
154.555954 256.0
154.6698 116.0
154.776245 180.0
154.843109 48.0
154.882736 72.0
155.076004 260.0
155.105743 144.0
155.130524 196.0
155.155655 120.0
155.29541 152.0
155.477768 168.0
155.517471 60.0
155.586975 20.0
155.840302 64.0
156.077789 160.0
156.094208 184.0
156.20575 160.0
156.232407 228.0
156.256454 204.0
156.322678 204.0
156.651321 140.0
156.783371 168.0
156.810791 44.0
156.853165 140.0
157.000259 52.0
157.020203 76.0
157.047638 136.0
157.065887 292.0
157.09787 308.0
157.132462 92.0
157.335693 184.0
157.369553 172.0
157.420776 232.0
157.544373 140.0
157.616821 196.0
157.634323 328.0
157.704285 168.0
157.934311 100.0
157.971832 144.0
158.034378 92.0
158.062027 1344.0
158.09346 164.0
158.138123 44.0
158.237106 84.0
158.38736 72.0
158.410843 204.0
158.500092 64.0
158.530167 92.0
158.715927 184.0
158.851089 184.0
158.871155 160.0
158.983704 140.0
159.021698 132.0
159.068024 1928.0
159.115417 96.0
159.143829 296.0
159.182373 156.0
159.24321 176.0
159.307953 140.0
159.448654 172.0
159.481323 96.0
159.566788 124.0
159.737793 40.0
159.803207 308.0
159.86058 80.0
159.896317 44.0
159.921478 168.0
159.944138 132.0
159.975998 212.0
160.0121 192.0
160.075424 15848.0
160.11792 148.0
160.213562 28.0
160.243805 76.0
160.334518 80.0
160.369797 148.0
160.403656 92.0
160.440369 60.0
160.541229 32.0
160.57402 80.0
160.649689 128.0
160.773315 64.0
160.793503 168.0
160.898697 136.0
160.987885 60.0
161.07666 2212.0
161.131866 332.0
161.152069 44.0
161.172287 48.0
161.222824 36.0
161.328979 56.0
161.361847 112.0
161.394714 36.0
161.452881 264.0
161.603973 76.0
161.663727 240.0
161.685623 64.0
161.850159 56.0
161.943848 372.0
162.066757 1212.0
162.090408 1924.0
162.161743 172.0
162.194687 88.0
162.217499 88.0
162.253616 132.0
162.360764 64.0
162.410843 112.0
162.445724 128.0
162.464874 256.0
162.636032 140.0
162.834061 220.0
162.915344 156.0
162.938217 104.0
163.029678 72.0
163.076233 656.0
163.10022 384.0
163.151688 136.0
163.169815 152.0
163.22287 124.0
163.299423 192.0
163.810776 112.0
163.887207 192.0
163.966202 148.0
164.024811 124.0
164.082626 208.0
164.101898 184.0
164.167587 100.0
164.23645 100.0
164.489059 132.0
164.529892 168.0
164.560532 208.0
164.580963 108.0
164.748688 200.0
164.879837 176.0
164.918167 140.0
164.959061 176.0
165.02298 148.0
165.05368 984.0
165.150833 48.0
165.204559 152.0
165.437424 164.0
165.483505 204.0
165.53215 180.0
165.578247 184.0
165.652527 200.0
165.783188 92.0
165.831879 108.0
165.870331 60.0
165.9216 188.0
166.060074 164.0
166.079681 220.0
166.124191 216.0
166.193069 164.0
166.219116 148.0
166.239655 208.0
166.303802 100.0
166.337173 188.0
166.385956 164.0
166.416763 76.0
166.540024 136.0
166.689026 228.0
166.714722 152.0
166.78154 316.0
166.802109 156.0
166.871506 116.0
166.940933 164.0
167.085953 180.0
167.332031 160.0
167.40155 148.0
167.468521 48.0
167.764832 144.0
167.834442 180.0
168.05368 188.0
168.154327 120.0
168.629532 188.0
168.727753 148.0
168.763962 100.0
168.841522 116.0
168.895844 80.0
168.934647 204.0
169.094757 372.0
169.296997 144.0
169.486084 48.0
169.662323 172.0
169.767014 256.0
169.900909 144.0
169.991714 140.0
170.060699 372.0
170.105911 224.0
170.126678 276.0
170.209763 200.0
170.259094 156.0
170.279877 84.0
170.388977 184.0
170.425354 140.0
170.453934 132.0
170.485107 72.0
170.625473 248.0
170.659271 116.0
170.71907 104.0
170.839081 112.0
171.077057 512.0
171.09375 388.0
171.221329 104.0
171.249985 176.0
171.497498 152.0
171.560059 164.0
171.578308 192.0
171.69043 268.0
171.792145 192.0
171.89682 176.0
171.940872 204.0
171.963837 196.0
171.988846 188.0
172.075027 4412.0
172.131439 108.0
172.241119 144.0
172.275085 48.0
172.319489 184.0
172.405716 92.0
172.457733 84.0
172.516403 148.0
172.656677 44.0
172.761307 116.0
172.782227 128.0
172.988968 196.0
173.020386 180.0
173.082733 13640.0
173.12648 100.0
173.198456 28.0
173.216782 140.0
173.273926 108.0
173.347778 72.0
173.366119 208.0
173.39296 100.0
173.447372 116.0
173.486694 168.0
173.510956 204.0
173.544373 108.0
173.625656 92.0
173.811905 176.0
173.985123 72.0
174.088608 2520.0
174.203079 208.0
174.237228 128.0
174.26561 60.0
174.297668 48.0
174.344421 168.0
174.365982 112.0
174.415802 88.0
174.44368 96.0
174.521088 68.0
174.634155 192.0
174.681503 144.0
174.799896 112.0
174.836731 128.0
174.894638 144.0
175.049286 1112.0
175.075027 5304.0
175.109024 616.0
175.132858 184.0
175.189545 68.0
175.234329 72.0
175.287033 60.0
175.396698 124.0
175.414444 116.0
175.458359 44.0
175.476807 120.0
175.550629 76.0
175.595459 192.0
175.674591 132.0
175.708359 252.0
175.799835 120.0
175.986008 28.0
176.0177 168.0
176.080017 940.0
176.114227 332.0
176.14975 40.0
176.408707 144.0
176.435135 100.0
176.580566 140.0
176.60173 96.0
176.784271 204.0
176.834564 168.0
177.053528 908.0
177.085541 372.0
177.394516 148.0
177.421432 128.0
177.445648 172.0
177.528656 188.0
177.549866 148.0
177.584351 116.0
177.706375 112.0
177.836395 116.0
177.87355 64.0
177.900101 160.0
178.062622 136.0
178.114182 152.0
178.230438 84.0
179.032761 144.0
179.064484 188.0
179.116837 204.0
179.221878 240.0
179.240524 100.0
179.328476 148.0
179.424438 72.0
179.595093 84.0
179.68045 136.0
179.768509 116.0
179.848572 80.0
180.075974 184.0
180.099548 264.0
180.433578 188.0
180.615417 156.0
180.639481 216.0
180.816071 68.0
180.834808 180.0
180.98204 128.0
181.035599 148.0
181.059692 200.0
181.078445 172.0
181.102554 176.0
181.294159 164.0
181.324921 36.0
181.480392 116.0
181.563522 128.0
182.070374 192.0
182.323257 160.0
182.363571 208.0
182.616302 136.0
182.82077 60.0
183.003799 172.0
183.044189 144.0
183.065735 104.0
183.092667 172.0
183.147263 192.0
183.216568 192.0
183.507629 144.0
183.596619 116.0
183.631668 108.0
183.707199 120.0
183.85289 172.0
183.91954 200.0
184.049942 180.0
184.087448 176.0
184.298431 180.0
184.666077 176.0
184.890625 120.0
184.952881 116.0
185.060272 220.0
185.097626 444.0
185.31575 152.0
185.345566 100.0
185.458405 184.0
185.643738 128.0
185.817322 96.0
185.958344 128.0
186.057602 120.0
186.100647 632.0
186.137604 192.0
186.170181 32.0
186.210922 48.0
186.284256 88.0
186.449997 104.0
186.759933 96.0
186.879623 112.0
186.977585 160.0
187.014084 216.0
187.056519 160.0
187.082962 1272.0
187.111008 1160.0
187.274353 180.0
187.315201 80.0
187.364243 216.0
187.457748 92.0
187.655853 92.0
187.702988 152.0
187.904037 132.0
188.071411 3424.0
188.113617 196.0
188.174591 148.0
188.217911 156.0
188.258865 188.0
188.303467 144.0
188.43483 200.0
188.464844 76.0
188.499359 200.0
188.532043 196.0
188.644104 296.0
188.712448 144.0
188.767136 192.0
188.794373 196.0
188.830032 120.0
188.849182 208.0
188.889252 172.0
188.90094 212.0
188.96051 336.0
188.982513 184.0
189.01593 116.0
189.054993 1228.0
189.070435 1380.0
189.1026 92752.0
189.189346 288.0
189.211975 96.0
189.266693 288.0
189.320862 180.0
189.361221 180.0
189.387985 76.0
189.398163 108.0
189.441544 184.0
189.473282 96.0
189.496399 64.0
189.553497 508.0
189.592163 92.0
189.627228 180.0
189.664642 72.0
189.684097 140.0
189.744995 56.0
189.77121 76.0
189.814972 60.0
189.827774 24.0
189.836853 68.0
189.867081 220.0
189.896622 64.0
189.921356 184.0
189.942825 156.0
189.973679 188.0
190.032043 136.0
190.075653 1620.0
190.105698 17324.0
190.156998 128.0
190.184219 76.0
190.24115 88.0
190.268219 68.0
190.290558 116.0
190.312531 56.0
190.337234 44.0
190.367447 36.0
190.386658 184.0
190.42511 92.0
190.463562 276.0
190.493774 60.0
190.570618 140.0
190.589935 116.0
190.609177 192.0
190.630295 64.0
190.657715 84.0
190.697113 124.0
190.752228 144.0
190.823563 36.0
190.852844 220.0
190.913544 132.0
190.947983 80.0
190.970383 220.0
190.996384 136.0
191.077011 1264.0
191.116592 14708.0
191.167374 104.0
191.204376 108.0
191.237396 144.0
191.257004 220.0
191.305862 104.0
191.324265 188.0
191.343536 144.0
191.38063 80.0
191.4048 236.0
191.421844 108.0
191.442657 76.0
191.465805 108.0
191.528351 140.0
191.569611 168.0
191.614761 76.0
191.645325 60.0
191.68782 60.0
191.707108 32.0
191.731903 148.0
191.796997 104.0
191.855942 64.0
191.952438 52.0
192.015869 72.0
192.08226 236.0
192.121063 2272.0
192.153793 60.0
192.211731 60.0
192.264069 116.0
192.288361 52.0
192.324875 140.0
192.441895 144.0
192.512604 120.0
192.54541 264.0
192.56842 108.0
192.733597 92.0
192.788849 72.0
192.855179 116.0
192.877304 56.0
192.913239 144.0
192.990646 84.0
193.015518 108.0
193.070068 160.0
193.126099 440.0
193.322571 72.0
193.397293 56.0
193.447113 48.0
193.476639 204.0
193.535706 132.0
193.62709 100.0
193.649246 248.0
194.067688 188.0
194.234589 84.0
194.478241 56.0
194.528198 36.0
194.553192 184.0
194.6698 60.0
194.925354 132.0
195.011505 48.0
195.487061 96.0
195.603958 100.0
196.094162 120.0
196.261414 100.0
196.529175 76.0
196.772003 136.0
197.006577 180.0
197.092239 160.0
197.112747 192.0
197.272049 100.0
197.341949 200.0
197.473373 140.0
197.665527 64.0
197.683197 92.0
197.977127 104.0
198.066269 148.0
198.641373 112.0
198.804092 56.0
199.071075 204.0
199.111343 228.0
199.301102 152.0
199.435989 108.0
199.489395 232.0
199.885956 104.0
200.038132 116.0
200.076157 164.0
200.111755 72.0
200.142105 208.0
200.260376 96.0
200.386673 120.0
200.440674 100.0
200.699982 48.0
201.001801 72.0
201.050201 280.0
201.100647 1176.0
201.141571 204.0
201.162659 132.0
201.205002 60.0
201.552399 100.0
201.753067 164.0
201.857681 48.0
201.945343 56.0
202.055664 124.0
202.095184 424.0
202.421265 92.0
202.485916 56.0
202.540848 92.0
202.653046 156.0
202.721039 120.0
202.747803 72.0
202.831573 68.0
202.976166 84.0
203.035706 140.0
203.069 2776.0
203.114426 3244.0
203.367645 44.0
203.396027 44.0
203.469833 60.0
203.606125 220.0
203.682816 96.0
203.750992 112.0
203.773727 40.0
203.895905 184.0
203.984009 124.0
204.071915 652.0
204.113052 1480.0
204.211487 48.0
204.234238 88.0
204.293976 76.0
204.42485 52.0
204.609848 156.0
204.948776 44.0
205.075668 312.0
205.117783 540.0
205.276566 80.0
205.519028 76.0
205.576096 72.0
205.687393 212.0
205.861557 160.0
206.11293 116.0
206.201508 192.0
206.438782 56.0
206.665466 212.0
206.685883 84.0
206.753464 56.0
207.085556 176.0
207.154312 152.0
207.194412 100.0
207.552673 28.0
208.097809 88.0
208.428116 124.0
208.847839 56.0
209.008942 116.0
209.101028 156.0
209.267975 212.0
209.973953 184.0
210.034531 64.0
210.418335 96.0
210.580032 80.0
210.770691 164.0
211.632629 84.0
211.77742 68.0
212.083969 180.0
212.301987 128.0
212.650116 172.0
213.088715 300.0
213.178665 72.0
213.783524 188.0
213.998917 52.0
214.103088 156.0
214.441696 144.0
214.485413 104.0
214.879089 168.0
215.069778 736.0
215.108322 268.0
215.272415 132.0
215.77861 80.0
216.075653 140.0
216.1091 132.0
216.360794 76.0
216.477905 44.0
216.524765 208.0
216.668289 84.0
216.688797 48.0
216.85289 156.0
217.046204 148.0
217.100433 2600.0
217.119781 3000.0
217.17247 52.0
217.222336 48.0
217.242874 80.0
217.577408 132.0
218.02681 124.0
218.065018 236.0
218.099487 332.0
218.126434 580.0
219.057114 140.0
219.113129 476.0
219.139572 280.0
219.215683 40.0
219.75528 96.0
219.79364 140.0
219.882156 200.0
219.905777 212.0
219.944138 144.0
220.082886 192.0
220.113174 156.0
220.724075 112.0
220.80687 132.0
221.383942 124.0
221.564621 84.0
222.071503 204.0
222.163452 116.0
222.834396 148.0
222.953247 140.0
223.057266 84.0
223.693832 216.0
224.155457 88.0
224.557907 128.0
224.909973 112.0
225.08313 188.0
225.184662 180.0
225.611954 136.0
225.866119 128.0
226.425812 80.0
226.512665 96.0
226.656479 96.0
226.746368 96.0
227.058167 132.0
227.105942 732.0
227.745453 48.0
227.9888 180.0
228.101105 168.0
228.130615 132.0
228.271378 176.0
228.725662 100.0
229.082199 128.0
229.123306 260.0
229.391357 128.0
229.433563 92.0
229.873917 64.0
229.925217 104.0
230.092438 304.0
230.786118 108.0
231.009918 172.0
231.063095 116.0
231.110779 5124.0
231.328781 64.0
231.351868 148.0
231.412415 28.0
231.515366 120.0
231.609253 192.0
231.715271 104.0
231.809204 124.0
231.93042 44.0
231.975891 44.0
232.119308 3996.0
232.188126 76.0
232.227554 292.0
232.327652 84.0
232.50061 56.0
232.533981 72.0
232.585587 68.0
232.728271 56.0
232.97731 48.0
233.12648 1064.0
233.271637 84.0
233.308548 116.0
233.33287 64.0
233.551804 48.0
234.13118 176.0
234.273224 68.0
234.425568 184.0
234.766983 160.0
235.113159 124.0
235.475006 44.0
237.335541 68.0
237.795685 120.0
238.48674 48.0
238.683487 184.0
239.117233 160.0
239.53598 72.0
240.090744 76.0
240.137009 120.0
240.217209 164.0
240.420837 196.0
241.066238 144.0
241.134232 172.0
241.573288 232.0
241.845581 160.0
242.049911 80.0
242.090164 136.0
242.126892 116.0
242.402405 256.0
243.024734 152.0
243.063507 148.0
243.141083 108.0
244.384033 144.0
244.483597 140.0
244.978653 124.0
245.11618 5756.0
245.167343 160.0
245.218918 148.0
245.277802 48.0
245.461731 44.0
245.508514 76.0
245.711258 96.0
245.935928 128.0
245.97963 36.0
246.120438 868.0
246.148209 132.0
247.017715 92.0
247.126129 372.0
247.45517 100.0
247.602341 88.0
247.893677 120.0
248.141281 188.0
248.22908 56.0
249.11908 468.0
249.393784 92.0
249.560394 72.0
249.670456 120.0
249.843445 148.0
250.134949 272.0
250.633698 196.0
250.762894 36.0
250.810165 136.0
251.052933 116.0
251.229553 72.0
251.535645 120.0
252.142059 164.0
252.632156 32.0
252.717575 80.0
252.90744 156.0
253.075226 64.0
253.319077 64.0
254.06282 168.0
254.683014 272.0
254.870453 96.0
255.016632 156.0
255.107147 200.0
255.166031 168.0
255.401352 180.0
255.499954 176.0
255.971008 164.0
256.09552 164.0
256.42337 92.0
257.123199 304.0
257.15329 144.0
257.734924 180.0
258.07373 36.0
258.125732 164.0
258.188843 44.0
258.355164 76.0
258.710358 232.0
258.86084 152.0
259.411926 108.0
260.490112 168.0
260.589691 100.0
260.637878 204.0
260.88858 48.0
261.396729 124.0
261.763702 88.0
261.828094 160.0
262.079346 184.0
262.678986 60.0
263.305145 116.0
264.105804 860.0
264.255493 32.0
265.113983 176.0
266.122314 160.0
266.443848 72.0
266.727295 88.0
268.132599 156.0
268.647766 144.0
269.13504 228.0
269.165558 208.0
269.35611 40.0
269.395325 148.0
270.150452 232.0
270.968872 120.0
271.181885 140.0
271.408051 108.0
271.434296 116.0
271.532684 100.0
271.719635 108.0
271.82135 64.0
271.932922 72.0
272.152863 184.0
272.458313 124.0
273.069702 124.0
273.111511 1184.0
273.619202 56.0
273.655426 128.0
274.114899 132.0
274.690216 104.0
275.201752 76.0
276.434631 120.0
276.523987 72.0
277.637146 140.0
278.317383 64.0
279.114838 112.0
279.420837 112.0
282.132141 132.0
282.32605 48.0
282.493286 136.0
282.640503 72.0
283.005341 116.0
283.045502 80.0
283.152893 176.0
283.53125 148.0
283.749115 44.0
284.14151 128.0
285.666656 176.0
286.141144 136.0
286.164734 112.0
286.195007 116.0
287.003662 68.0
288.166138 208.0
289.863251 136.0
289.927612 88.0
289.954742 68.0
291.349304 112.0
291.876099 156.0
293.278687 148.0
294.10022 156.0
294.141632 36.0
294.452332 152.0
294.848633 172.0
295.936401 108.0
296.121307 92.0
296.227478 128.0
296.268585 176.0
297.129089 140.0
297.15625 192.0
297.918671 80.0
298.100769 60.0
298.143402 516.0
298.368835 84.0
298.60083 128.0
299.14502 156.0
299.917877 48.0
300.15921 128.0
301.08548 152.0
301.353455 116.0
301.934174 156.0
302.376984 216.0
304.102966 140.0
304.283478 152.0
304.606415 140.0
305.068573 164.0
305.256317 68.0
305.551971 152.0
305.882568 60.0
306.673218 136.0
307.608002 36.0
307.890839 148.0
308.034027 60.0
308.334503 72.0
308.393921 244.0
308.491791 180.0
308.925415 108.0
308.956879 120.0
309.164917 180.0
311.178925 116.0
311.315735 172.0
312.011444 104.0
312.089203 96.0
312.204803 60.0
312.852203 52.0
313.179688 96.0
313.341736 136.0
313.857147 148.0
314.628967 72.0
315.377808 92.0
315.683563 160.0
316.300995 132.0
317.37796 268.0
317.604919 116.0
317.668762 40.0
317.789398 148.0
318.066193 204.0
318.332458 84.0
319.242157 124.0
320.099762 140.0
320.313446 176.0
321.529236 88.0
322.146942 160.0
322.861786 56.0
322.926147 128.0
323.019135 196.0
323.15152 80.0
323.240967 124.0
324.322723 132.0
325.477661 112.0
326.084747 204.0
326.224915 88.0
326.562927 212.0
327.722046 44.0
328.482727 164.0
328.839935 144.0
330.021179 188.0
330.809845 88.0
331.461761 140.0
331.530609 84.0
333.861206 100.0
334.23587 64.0
334.355957 196.0
334.388702 36.0
334.567078 68.0
335.288269 116.0
336.039398 148.0
337.003296 216.0
337.148682 432.0
338.166138 148.0
339.136719 176.0
339.164764 388.0
339.59137 184.0
339.771088 96.0
340.167419 104.0
340.494202 72.0
340.575012 96.0
341.486511 36.0
341.86911 136.0
343.656189 152.0
344.475006 156.0
347.296295 156.0
347.463226 176.0
349.149567 64.0
349.651794 116.0
349.767181 148.0
350.154755 120.0
350.418854 172.0
350.724426 116.0
350.82135 180.0
350.910828 188.0
351.175568 188.0
351.65686 84.0
352.030182 36.0
353.188751 116.0
353.248596 156.0
353.604065 44.0
353.742523 160.0
353.809906 96.0
353.89978 132.0
354.300507 40.0
354.341705 52.0
354.410614 184.0
354.450378 200.0
354.491577 52.0
354.600281 48.0
354.990143 60.0
355.043182 320.0
355.072662 76.0
355.108582 96.0
355.164398 18784.0
355.242584 148.0
355.422668 116.0
355.650421 144.0
355.717987 88.0
355.789337 64.0
355.865662 84.0
355.954712 76.0
356.070923 80.0
356.097229 192.0
356.16861 3676.0
356.274567 56.0
356.303833 56.0
356.600677 40.0
356.694641 176.0
357.115753 76.0
357.170074 936.0
357.258698 80.0
357.303833 60.0
357.337708 52.0
357.56723 80.0
357.683899 72.0
357.710266 48.0
357.759186 44.0
357.84201 68.0
357.917328 60.0
358.007568 116.0
358.158325 136.0
358.184692 108.0
358.331635 104.0
358.361755 100.0
358.388123 160.0
358.429596 84.0
358.493652 104.0
358.651917 124.0
359.255249 44.0
359.391052 56.0
359.794891 156.0
359.904388 56.0
360.633484 60.0
360.784668 76.0
361.144928 180.0
361.775818 80.0
361.942383 152.0
362.010559 116.0
362.442383 64.0
362.999573 48.0
363.037506 228.0
363.473724 68.0
363.815308 104.0
364.229218 116.0
364.742157 224.0
365.167633 208.0
365.73111 100.0
366.020416 72.0
366.134674 116.0
366.161316 144.0
366.207031 72.0
366.245117 148.0
366.976776 28.0
367.095001 72.0
367.162537 2628.0
367.564178 56.0
367.800781 48.0
368.166748 584.0
368.229736 208.0
368.537811 76.0
368.778564 188.0
368.824432 32.0
369.069092 176.0
369.164429 180.0
369.283234 80.0
369.39035 60.0
371.075348 68.0
371.32074 88.0
371.727386 52.0
371.85788 92.0
371.988373 196.0
372.07666 56.0
372.161133 124.0
374.091064 120.0
374.2258 52.0
374.391357 80.0
374.815094 184.0
376.551025 80.0
376.632141 60.0
376.70166 168.0
377.358643 96.0
378.04715 192.0
378.534882 128.0
378.620087 120.0
379.155304 432.0
379.167358 164.0
379.180756 204.0
380.162537 144.0
380.213409 124.0
380.407471 76.0
380.67926 124.0
380.90451 96.0
381.1297 172.0
381.180573 1228.0
381.386322 152.0
381.547638 96.0
381.62735 56.0
382.180054 456.0
382.660248 100.0
382.771271 64.0
383.078949 172.0
383.160767 44.0
383.197815 188.0
384.23288 200.0
385.154114 156.0
385.200989 172.0
386.27594 56.0
386.74939 160.0
387.050842 208.0
387.270142 72.0
387.626648 140.0
387.853943 140.0
388.344055 164.0
389.258423 56.0
389.556915 136.0
389.902679 212.0
390.217133 104.0
390.873993 100.0
391.169159 40.0
391.937103 100.0
392.674286 156.0
392.824158 152.0
393.175598 532.0
393.234497 148.0
394.179871 308.0
394.23761 132.0
394.680328 84.0
394.747559 76.0
394.9888 124.0
396.029785 128.0
396.558228 224.0
396.687531 120.0
396.889709 52.0
396.969025 80.0
399.355804 152.0
399.896912 120.0
400.21936 128.0
400.701263 48.0
401.426697 48.0
401.578247 112.0
401.997131 164.0
402.188232 172.0
403.207123 116.0
403.934814 136.0
404.366943 64.0
404.763245 100.0
406.197998 128.0
406.362488 140.0
406.848083 172.0
407.077759 232.0
407.15802 4844.0
407.333618 92.0
407.341766 64.0
407.394226 104.0
407.663422 52.0
407.908569 68.0
407.964874 68.0
408.161041 1636.0
408.21817 120.0
408.350861 260.0
408.383057 44.0
408.535889 52.0
408.620361 72.0
408.716949 56.0
408.906067 72.0
409.158173 276.0
409.256287 44.0
409.602631 64.0
409.759735 76.0
409.852386 64.0
410.078064 48.0
410.166748 132.0
410.828064 108.0
410.880493 48.0
411.375671 136.0
412.617065 64.0
412.758575 140.0
412.851593 112.0
413.167084 80.0
413.454346 140.0
414.677429 140.0
415.107147 120.0
415.752136 100.0
415.853607 76.0
417.223877 428.0
418.182434 164.0
419.106842 168.0
419.20816 152.0
419.583679 140.0
419.636688 100.0
419.738617 216.0
419.828339 60.0
420.195435 156.0
420.228058 124.0
420.348267 80.0
420.705566 36.0
420.934204 180.0
421.00769 148.0
421.160767 184.0
421.20932 4604.0
421.358978 64.0
421.583679 76.0
421.792145 108.0
421.980164 44.0
422.061951 160.0
422.215668 964.0
422.270508 160.0
422.31958 60.0
422.360474 92.0
422.397308 48.0
422.687775 136.0
423.002899 72.0
423.212799 288.0
423.453278 44.0
423.662201 48.0
423.920319 116.0
424.051453 48.0
424.227692 192.0
424.4245 28.0
424.51059 72.0
424.773071 216.0
424.838715 128.0
425.171051 56.0
425.405029 96.0
425.655457 176.0
432.196899 28.0
432.888153 136.0
433.209534 336.0
434.205994 144.0
434.986023 60.0
435.162201 136.0
435.228821 4268.0
435.600555 48.0
435.862305 68.0
435.991119 116.0
436.024353 48.0
436.233459 1612.0
437.113892 164.0
437.238037 148.0
437.475983 60.0
437.575897 32.0
438.238098 332.0
439.105164 68.0
439.468079 48.0
439.643311 52.0
440.353027 208.0
440.875244 64.0
443.197601 156.0
443.918579 44.0
444.648529 96.0
444.690491 88.0
445.212433 1324.0
445.75296 116.0
446.220184 432.0
446.682648 148.0
447.225067 136.0
448.214508 84.0
448.30722 248.0
448.728729 68.0
448.994385 124.0
449.521698 160.0
450.074646 28.0
451.004028 120.0
451.037842 116.0
451.088562 52.0
451.680542 96.0
453.403748 132.0
454.018463 148.0
454.238983 32.0
455.249115 200.0
455.907562 116.0
456.247589 104.0
456.626038 120.0
457.637848 92.0
457.775024 84.0
458.281921 108.0
459.617981 136.0
459.676208 88.0
460.009094 104.0
460.389099 96.0
460.525757 144.0
460.970062 84.0
461.106812 76.0
461.264954 64.0
461.548645 156.0
461.756653 64.0
462.013275 88.0
462.081146 176.0
462.164612 196.0
462.299957 52.0
462.394104 108.0
462.509674 156.0
462.616913 68.0
462.685181 92.0
462.745117 36.0
462.779358 176.0
462.845734 160.0
462.877838 96.0
462.916382 72.0
462.967773 68.0
463.002014 120.0
463.040558 160.0
463.094543 332.0
463.130646 124.0
463.222168 36600.0
463.366119 108.0
463.417511 104.0
463.49292 60.0
463.611786 120.0
463.723206 96.0
463.761475 76.0
463.815369 128.0
463.855896 96.0
463.922485 64.0
463.96875 136.0
464.022369 260.0
464.05481 104.0
464.098999 72.0
464.129028 68.0
464.224823 11200.0
464.366547 132.0
464.44635 40.0
464.515991 68.0
464.596497 92.0
464.634491 56.0
464.720917 60.0
464.830078 108.0
464.940155 116.0
464.999847 136.0
465.071289 216.0
465.120026 72.0
465.226471 2548.0
465.29364 252.0
465.327362 184.0
465.407654 52.0
465.467743 148.0
465.514984 60.0
465.656494 76.0
465.712555 44.0
465.785553 68.0
465.92688 76.0
465.964081 60.0
466.112793 48.0
466.176514 32.0
466.233917 124.0
466.286591 52.0
466.333496 84.0
466.395691 52.0
466.519745 84.0
466.554749 36.0
466.613068 128.0
466.733307 76.0
466.811005 104.0
466.926331 128.0
467.001953 132.0
467.050568 92.0
467.11377 88.0
467.272949 112.0
467.50531 112.0
467.578461 44.0
467.688721 84.0
467.75061 48.0
467.802277 52.0
467.879761 116.0
468.135193 124.0
468.646362 84.0
468.969574 44.0
469.059235 116.0
469.107513 128.0
469.272125 108.0
469.323059 64.0
469.715515 48.0
470.185791 32.0
470.310944 60.0
470.492249 76.0
471.135712 72.0
471.209137 96.0
471.299866 52.0
474.962311 84.0
478.543121 60.0
478.81311 60.0
479.789124 68.0
480.299316 84.0
481.036743 148.0
481.233154 312.0
481.412231 48.0
481.840271 128.0
482.220062 148.0
482.841888 136.0
483.221802 96.0
483.374939 72.0
484.24173 116.0
484.552734 96.0
484.846313 88.0
485.591583 56.0
485.854767 76.0
491.971771 76.0
493.380981 48.0
498.38913 56.0
499.55838 100.0
500.368317 100.0
506.298035 108.0
509.046936 124.0
512.123047 88.0
520.080688 44.0
520.194153 148.0
520.248657 60.0
527.272217 92.0
534.002502 84.0
535.309448 56.0
542.252869 116.0
542.294556 88.0
544.614441 112.0
544.944214 60.0
559.244507 48.0
561.906921 48.0
563.129517 112.0
563.970459 56.0
569.281311 20.0
570.759094 108.0
589.584045 112.0
589.671082 96.0
592.109375 40.0
592.787598 140.0
595.567444 108.0
596.510071 36.0
612.279724 84.0
617.827637 52.0
644.880798 84.0
649.539001 128.0
650.320374 88.0
664.501465 64.0
667.583313 56.0
668.545288 116.0
672.560059 72.0
676.550659 56.0
680.994446 52.0
681.394409 52.0
688.206787 68.0
690.458923 108.0
694.607056 156.0
695.173706 120.0
701.063354 96.0
702.513306 20.0
713.884705 140.0
719.60199 152.0
721.20459 184.0
724.768677 96.0
738.041931 72.0
747.381958 108.0
749.603577 100.0
763.10675 76.0
765.423157 60.0
772.310425 64.0
777.207642 88.0
779.728699 92.0
780.006592 120.0
782.198181 104.0
791.935974 84.0
799.256287 72.0
801.790283 96.0
809.580627 64.0
823.885437 36.0
827.059082 100.0
849.114502 104.0
849.207336 112.0
856.356079 56.0
891.051697 168.0
911.383667 92.0
921.445312 72.0
926.230347 168.0
928.879211 68.0
939.238037 108.0
940.116577 176.0
944.815125 176.0
947.790649 192.0
949.715576 48.0
952.674194 160.0
975.980347 184.0
978.288452 120.0
978.898621 128.0
980.493347 164.0
989.671448 68.0
993.60553 116.0
995.30011 108.0
997.41095 72.0
1002.338684 72.0
1007.512207 44.0
1012.654785 200.0
1018.680481 60.0
1021.140259 128.0
1023.418396 80.0
1029.993286 152.0
1033.618164 96.0
1035.052002 152.0
1039.808472 160.0
1040.334839 164.0
1041.753174 164.0
1052.858032 172.0
1055.533325 164.0
1063.339478 180.0
1063.605591 176.0
1080.293457 68.0
1084.280884 140.0
1085.021606 96.0
1097.170654 156.0
1108.06189 172.0
1108.605225 128.0
1112.684326 96.0
1113.97937 128.0
1114.112183 152.0
1117.123535 124.0
1117.589233 168.0
1119.206665 100.0
1120.238892 124.0
1122.704956 68.0
1126.622925 188.0
1127.230957 204.0
1130.22644 172.0
1135.330811 164.0
1136.632202 136.0
1137.128784 132.0
1139.69397 68.0
1140.9104 228.0
1141.562622 228.0
1144.846436 144.0
1150.699219 220.0
1151.840454 216.0
1153.881226 140.0
1156.32312 148.0
1156.85791 164.0
1157.209961 44.0
1160.746826 136.0
1162.564697 104.0
1164.696533 148.0
1165.104126 144.0
1165.810669 212.0
1167.027466 80.0
1167.748291 92.0
1168.258423 212.0
1169.020386 148.0
1169.510376 196.0
1169.837158 128.0
1171.553223 168.0
1171.689453 92.0
1172.950073 180.0
1174.627563 64.0
1174.675293 260.0
1175.152832 160.0
1177.200562 92.0
1177.315308 100.0
1178.969849 180.0
1179.824219 132.0
1182.279663 52.0
1183.381714 128.0
1183.758301 68.0
1186.677246 144.0
1189.366333 232.0
1191.282104 240.0
1192.498291 144.0
1195.028809 100.0
1195.455444 280.0
1197.321045 140.0
1197.568359 244.0
1198.981323 60.0
1201.967163 144.0
1203.506348 88.0
1203.872314 88.0
1205.032715 200.0
1207.465942 156.0
1211.168701 120.0
1212.817749 156.0
1213.344604 108.0
1213.434814 160.0
1214.911865 232.0
1215.404541 72.0
1215.612671 172.0
1216.390015 56.0
1216.744019 148.0
1218.056519 148.0
1218.125977 164.0
1219.661621 220.0
1221.879883 136.0
1225.918213 220.0
1230.598633 60.0
1233.378906 192.0
1234.966064 48.0
1235.76355 232.0
1237.688354 136.0
1237.947388 20.0
1238.108398 260.0
1238.304565 64.0
1242.503296 192.0
1243.148804 224.0
1243.401367 132.0
1245.205688 152.0
1246.161011 160.0
1250.02124 192.0
1251.971069 156.0
1252.287964 32.0
1252.407715 168.0
1253.746338 120.0
1257.526489 108.0
1258.366455 68.0
1258.818359 100.0
1259.164429 152.0
1259.517578 216.0
1259.849609 120.0
1260.647949 180.0
1260.902344 76.0
1263.037598 124.0
1263.490234 68.0
1264.714478 156.0
1264.827759 72.0
1265.337402 188.0
1267.554321 164.0
1272.75354 76.0
1273.07312 168.0
1273.271973 192.0
1273.321655 208.0
1273.442383 88.0
1274.344482 32.0
1278.255127 280.0
1278.461548 128.0
1279.792603 128.0
1280.511841 188.0
1280.927856 196.0
1281.851074 144.0
1282.075317 208.0
1283.576172 156.0
1284.168091 168.0
1285.059692 104.0
1288.658081 152.0
1289.726562 152.0
1290.223267 76.0
1292.011108 204.0
1297.955566 88.0
1298.50061 100.0
1298.809082 36.0
1299.842041 144.0
1300.789429 152.0
1303.38208 200.0
1304.309082 116.0
1305.186157 196.0
1309.011108 188.0
1309.424683 172.0
1311.636597 188.0
1312.898926 132.0
1313.057007 172.0
1315.300781 136.0
1316.304321 180.0
1317.987305 116.0
1318.637695 124.0
1320.01123 128.0
1323.404785 164.0
1323.875366 164.0
1325.526978 124.0
1326.193726 204.0
1329.080322 160.0
1330.023315 220.0
1330.146729 188.0
1331.119629 160.0
1331.872803 56.0
1337.488159 32.0
1338.565674 164.0
1340.06604 196.0
1341.18103 40.0
1341.516357 132.0
1342.012085 152.0
1346.448608 56.0
1347.274048 116.0
1349.195923 168.0
1350.131836 180.0
1351.455811 200.0
1352.297363 68.0
1352.407227 204.0
1353.519897 128.0
1355.116699 136.0
1359.046509 276.0
1360.345459 120.0
1360.874023 192.0
1362.79834 76.0
1363.966797 156.0
1364.268188 128.0
1365.062256 104.0
1367.1073 176.0
1367.570923 84.0
1368.248169 188.0
1368.336426 208.0
1369.242188 208.0
1369.547852 168.0
1369.93457 192.0
1371.327148 168.0
1371.548218 152.0
1373.081177 52.0
1373.64978 156.0
1374.291504 40.0
1375.110596 52.0
1376.697876 216.0
1376.882446 92.0
1379.438965 36.0
1379.866333 112.0
1381.931152 160.0
1383.907349 200.0
1385.003296 20.0
1385.136597 232.0
1386.151611 148.0
1387.344849 184.0
1388.123291 128.0
1390.126221 128.0
1391.618164 140.0
1391.736938 156.0
1395.793823 184.0
1396.366455 232.0
1396.879639 240.0
1397.020996 172.0
1399.960938 152.0
1402.464111 204.0
1403.13501 120.0
1405.805176 128.0
1406.096313 64.0
1406.506836 176.0
1406.984497 168.0
1407.059204 132.0
1407.131958 164.0
1409.12793 176.0
1410.390869 236.0
1410.816895 144.0
1413.920898 168.0
1414.609497 148.0
1418.272339 180.0
1418.992065 148.0
1419.111938 156.0
1419.359375 48.0
1420.09436 184.0
1421.151123 220.0
1423.561523 184.0
1425.281616 164.0
1425.845215 164.0
1425.980469 212.0
1426.408936 148.0
1426.875 124.0
1427.817505 172.0
1430.915039 172.0
1431.592651 176.0
1431.765869 72.0
1432.014404 220.0
1433.724609 236.0
1433.920532 184.0
1435.300049 148.0
1437.744019 156.0
1443.424683 200.0
1443.485229 164.0
1444.332153 188.0
1446.329712 164.0
1446.617432 180.0
1446.768799 156.0
1446.889893 184.0
1446.965576 176.0
1448.661987 152.0
1450.435059 152.0
1451.792236 160.0
1452.186523 164.0
1452.459595 164.0
1453.271362 152.0
1453.544434 180.0
1455.100464 280.0
1455.669922 76.0
1456.277466 168.0
1456.619263 132.0
1457.81958 144.0
1458.047607 172.0
1458.929321 136.0
1459.58313 144.0
1460.282715 136.0
1460.663086 152.0
1460.959717 128.0
1461.789062 176.0
1462.062988 196.0
1463.600098 252.0
1467.168823 60.0
1467.928711 248.0
1468.424316 92.0
1468.912476 60.0
1469.126099 260.0
1469.187134 28.0
1469.461792 120.0
1471.018555 148.0
1471.934692 44.0
1473.798462 148.0
1474.042969 152.0
1474.516724 120.0
1475.816284 176.0
1476.634521 276.0
1478.799683 176.0
1479.006348 232.0
1479.174683 160.0
1481.157837 108.0
1481.226807 240.0
1482.529297 180.0
1483.180664 208.0
1485.49646 128.0
1485.941406 120.0
1486.409424 192.0
1487.445435 188.0
1488.489502 116.0
1488.643188 136.0
1489.011719 212.0
1489.89502 160.0
1492.631226 84.0
1492.712402 152.0
1493.715576 172.0
1494.384888 180.0
1495.231323 140.0
1496.30127 248.0
1498.049316 212.0
1498.234253 132.0
1498.604004 164.0
1498.898682 184.0
1499.34375 196.0
1501.008789 184.0
1501.872559 204.0
1503.631714 164.0
