>compound Procaine (Novocaine) HCl
>formula C13H20N2O2
>ionization [M+H]+
>parentmass 237.160675
#inchi InChI=1S/C13H20N2O2/c1-3-15(4-2)9-10-17-13(16)11-5-7-12(14)8-6-11/h5-8H,3-4,9-10,14H2,1-2H3
#inchikey MFDFERRIHVXMIY
#origInchi InChI=1S/C13H20N2O2.ClH/c1-3-15(4-2)9-10-17-13(16)11-5-7-12(14)8-6-11;/h5-8H,3-4,9-10,14H2,1-2H3;1H
#Ion_Source LC-ESI
#Instrument qTof
#Compound_Source Commercial
#PI Dorrestein
#Data_Collector Garg_Neha
#Scan -1
#Precursor_MZ 237.16
#ExactMass 236.152
#Charge 1
#CAS_Number 51-05-8, 59-46-1(free base)
#Pubmed_ID N/A
#Smiles C1(C(OCCN(CC)CC)=O)(C=CC(=CC=1)N).Cl
#INCHI_AUX N/A
#Library_Class 1
#SpectrumID CCMSLIB00000078628
#IonMode Positive
#UpdateWorkflowName UPDATE-SINGLE-ANNOTATED-GOLD
#LibraryQualityString Gold
#TaskID 77f51c88eb8b467eb4a01dd2d0cb90d2
##Scan# 954
#SpectrumFile Plate10_1_20_GC1_01_15743.mzXML
#LibraryName FDALibrary_2_04302014.mgf
#MQScore -1
#Organism FDALibrary_2_04302014
#TIC_Query 0
#RT_Query -1
#MZErrorPPM -1
#SharedPeaks 0
#MassDiff 0
#LibMZ -1
#SpecMZ 237.16
#SpecCharge 0
#internalFilename spec-00000.mgf

>collision 10
45.092209 216.0
47.020954 172.0
47.331272 160.0
47.949463 172.0
47.958736 160.0
48.85783 188.0
49.03746 144.0
49.150421 200.0
49.607765 160.0
50.285751 204.0
51.359844 160.0
51.777691 196.0
52.462589 140.0
54.354885 204.0
55.863403 156.0
58.603638 160.0
60.067757 228.0
63.706158 172.0
64.28093 184.0
65.278923 144.0
68.087257 140.0
69.744453 160.0
71.573036 156.0
71.71624 176.0
72.493668 172.0
75.669518 180.0
77.130829 240.0
78.772079 276.0
80.503799 236.0
82.272408 160.0
83.005173 204.0
84.711113 168.0
84.980606 144.0
85.245018 164.0
87.185432 220.0
87.581993 140.0
87.999451 152.0
91.242004 180.0
92.048279 196.0
95.083931 180.0
96.361336 168.0
97.118919 144.0
97.425148 212.0
99.733208 140.0
100.11219 7644.0
101.118179 676.0
101.151436 164.0
101.855263 168.0
103.209564 188.0
107.054153 228.0
108.044899 156.0
111.199783 200.0
111.419022 128.0
113.001495 172.0
113.668938 204.0
115.772972 224.0
116.090134 144.0
118.125488 144.0
118.957611 216.0
119.124817 168.0
119.574905 240.0
120.044754 12072.0
120.139549 120.0
120.23745 200.0
121.048218 936.0
122.048317 104.0
122.085732 120.0
138.094299 144.0
150.021622 336.0
150.297211 140.0
157.91893 176.0
162.270447 156.0
163.5177 156.0
163.795227 228.0
164.070572 12124.0
165.072739 1532.0
166.071609 172.0
166.961304 140.0
167.901306 164.0
182.231995 148.0
183.996078 220.0
185.974884 156.0
195.933945 132.0
195.963577 244.0
196.903641 152.0
203.873718 164.0
208.949173 144.0
213.927383 116.0
221.621826 140.0
222.772949 180.0
225.747498 168.0
227.921234 172.0
235.015259 184.0
235.177292 124.0
235.250259 196.0
236.953674 148.0
237.007782 128.0
237.11203 172.0
237.160675 20020.0
237.818436 152.0
238.163559 3136.0
239.161194 248.0
366.820923 144.0
1143.560303 168.0
1277.403931 168.0
1382.439087 196.0
1399.504395 216.0
1447.90332 172.0
1457.089111 200.0
1458.365723 252.0
1513.88269 180.0
1538.889771 188.0
1603.467041 204.0
1682.138672 144.0
1693.045776 144.0
1701.11377 144.0
1709.686401 144.0
1763.655396 148.0
1785.168457 160.0
1789.998535 152.0
1798.896851 260.0
1826.611572 152.0
1827.743042 180.0
1838.58252 160.0
1854.438843 160.0
1856.710815 172.0
1859.087158 152.0
1879.369019 152.0
1883.348755 200.0
1883.797974 148.0
1905.299561 176.0
1910.489624 156.0
1927.01062 216.0
1936.081543 156.0
1938.253906 156.0
1947.201904 144.0
1954.401489 144.0
1979.842041 156.0
1984.104004 180.0
1997.380005 164.0
1997.460083 224.0
1998.011597 240.0
