>compound Centratherin
>formula C20H22O7
>ionization [M+H]+
>parentmass 375.1438294960905
#inchi InChI=1S/C20H22O7/c1-5-10(2)18(23)26-15-8-20(4)16(22)7-13(27-20)12(9-21)6-14-17(15)11(3)19(24)25-14/h5-7,14-15,17,21H,3,8-9H2,1-2,4H3/b10-5-,12-6-/t14-,15+,17+,20-/m1/s1
#inchikey BMVJFNLJSZHNNS
#Ion_Source DI-ESI
#Instrument qTof
#Compound_Source Isolated
#PI Norberto Lopes
#Data_Collector Denise Silva
#Scan -1
#Precursor_MZ 375.138
#ExactMass 374.137
#Charge 1
#CAS_Number 71939-83-8
#Pubmed_ID N/A
#Smiles O=C1C([C@]2([H])[C@@H](OC(/C(C)=C\C)=O)C[C@](O3)(C)C(C=C3/C(CO)=C\[C@@]2([H])O1)=O)=C
#INCHI_AUX N/A
#Library_Class 3
#SpectrumID CCMSLIB00000081485
#IonMode Positive
#UpdateWorkflowName UPDATE-SINGLE-ANNOTATED-BRONZE
#LibraryQualityString Bronze
#TaskID 053e8682627d4c9488a292c234ed8aed
##Scan# 1
#SpectrumFile gnps_Centratherin_pos_MplusH.mgf
#LibraryName gnps_library.mgf
#MQScore -1
#Organism blank
#TIC_Query 0
#RT_Query -1
#MZErrorPPM -1
#SharedPeaks 0
#MassDiff 0
#LibMZ -1
#SpecMZ 375.138
#SpecCharge 0
#internalFilename spec-00000.mgf

>collision 10
133.058945 8183.0
135.038803 5305.0
143.078705 1198.0
147.037674 1987.0
155.079483 3797.0
157.096649 4122.0
159.074097 2422.0
160.04628 10131.0
161.053421 11148.0
163.034729 9282.0
167.0802 3106.0
169.059402 1433.0
171.074646 5337.0
173.091614 5393.0
175.071548 3907.0
179.065933 2503.0
183.076157 24414.0
184.079559 3452.0
185.090897 11655.0
186.095367 1490.0
187.069687 5802.0
189.049118 2019.0
195.075882 3831.0
199.070847 11438.0
200.074203 1918.0
201.087585 23789.0
202.090744 3082.0
203.067764 3012.0
211.069351 45118.0
212.074554 6628.0
213.085999 20259.0
214.089325 2809.0
215.066315 6391.0
217.082016 3681.0
227.065094 12868.0
229.080887 293551.0
230.083832 43532.0
231.088272 4928.0
239.064163 50884.0
240.067902 8128.0
241.073563 1289.0
245.076645 22850.0
247.091827 21409.0
257.07608 145521.0
259.088318 5227.0
275.087524 138631.0
293.095886 4167.0
357.123749 3309.0
359.141693 1885.0
375.137604 18110.0
