>compound MLS001066334-01!D-erythro-Dihydrosphingosine764-22-7
>formula C18H39NO2
>ionization [M+H]+
>parentmass 302.3053559400906
#inchi InChI=1S/C18H39NO2/c1-2-3-4-5-6-7-8-9-10-11-12-13-14-15-18(21)17(19)16-20/h17-18,20-21H,2-16,19H2,1H3/t17-,18+/m0/s1
#inchikey OTKJDMGTUTTYMP
#Ion_Source LC-ESI
#Instrument qTof
#Compound_Source NIH Pharmacologically Active Library
#PI Dorrestein
#Data_Collector VP/LMS
#Scan -1
#Precursor_MZ 302.311
#ExactMass 301.298
#Charge 1
#CAS_Number N/A
#Pubmed_ID N/A
#Smiles CCCCCCCCCCCCCCC[C@@H](O)[C@@H](N)CO
#INCHI_AUX N/A
#Library_Class 1
#SpectrumID CCMSLIB00000086124
#IonMode Positive
#UpdateWorkflowName UPDATE-SINGLE-ANNOTATED-GOLD
#LibraryQualityString Gold
#TaskID d252d724072548979f1f6f1ced849daf
##Scan# 2252
#SpectrumFile p5-F03_GF3_01_18466.mzXML
#LibraryName Pharm_Active_Library.mgf
#MQScore -1
#Organism Pharm_Active_Library
#TIC_Query 0
#RT_Query -1
#MZErrorPPM -1
#SharedPeaks 0
#MassDiff 0
#LibMZ -1
#SpecMZ 302.311
#SpecCharge 0
#internalFilename spec-00000.mgf

>collision 10
44.963367 56.0
45.090244 156.0
45.411568 160.0
45.735374 44.0
45.899734 180.0
46.041428 216.0
46.404072 112.0
46.678345 72.0
46.946609 220.0
47.672157 68.0
47.806923 84.0
48.267658 160.0
48.284252 160.0
49.059048 68.0
49.180405 184.0
51.293488 112.0
53.005234 156.0
53.169102 196.0
53.455387 144.0
53.682632 180.0
54.116608 116.0
54.200096 212.0
55.180359 68.0
56.175373 76.0
56.578865 236.0
56.892185 52.0
56.925217 180.0
57.442959 228.0
57.571251 136.0
57.710266 164.0
57.779839 180.0
58.36681 192.0
59.135681 160.0
60.882484 216.0
61.422562 136.0
62.302322 160.0
62.935455 144.0
63.04287 108.0
64.716286 180.0
66.567429 192.0
68.989128 136.0
69.227379 128.0
69.461075 200.0
70.643799 68.0
71.839882 172.0
73.343987 112.0
73.355919 56.0
73.427536 192.0
74.805145 188.0
75.576591 116.0
76.986343 220.0
77.028259 200.0
77.453316 124.0
79.046638 148.0
79.266212 60.0
79.491409 176.0
80.122612 136.0
80.656174 124.0
81.173576 112.0
81.34761 192.0
81.604515 124.0
82.247643 140.0
83.072784 224.0
83.925743 148.0
84.051605 184.0
84.783066 160.0
85.041664 244.0
85.790314 156.0
85.821655 144.0
86.286926 176.0
86.773842 48.0
88.26152 228.0
89.063622 164.0
91.055939 216.0
91.771767 120.0
91.870941 160.0
92.054169 148.0
92.161133 160.0
92.509209 88.0
92.635597 128.0
93.069962 296.0
94.147385 144.0
94.50499 220.0
94.83226 184.0
95.033936 92.0
95.085716 2384.0
95.191162 132.0
95.792137 48.0
96.024086 184.0
96.090439 548.0
96.23484 144.0
96.320763 128.0
96.520111 72.0
97.102173 584.0
97.25869 108.0
98.252441 164.0
98.675079 144.0
99.656151 152.0
100.07383 148.0
101.191917 128.0
101.207932 140.0
102.559952 56.0
103.195854 132.0
103.248428 96.0
103.351593 144.0
104.854309 124.0
104.946045 152.0
105.048012 156.0
105.092987 184.0
105.329712 184.0
106.491074 176.0
106.768524 152.0
107.049179 180.0
107.091652 224.0
107.970863 224.0
108.774773 124.0
108.834976 108.0
109.10186 2284.0
109.148735 56.0
109.310982 156.0
109.514412 100.0
110.107117 160.0
110.366447 64.0
110.730568 48.0
111.113152 348.0
111.479515 48.0
111.759178 124.0
111.81179 164.0
112.028664 108.0
112.46093 52.0
113.45089 76.0
114.304703 140.0
115.908333 92.0
116.236412 188.0
116.251427 120.0
116.451088 156.0
116.599335 80.0
116.936989 148.0
117.055397 236.0
117.801636 108.0
118.36396 140.0
119.110008 216.0
119.275146 116.0
121.151825 168.0
121.781372 208.0
123.122398 292.0
124.880165 120.0
125.064835 168.0
125.156105 108.0
126.177971 180.0
126.484444 152.0
127.07383 144.0
130.962112 148.0
131.242416 168.0
131.520737 40.0
133.086609 204.0
133.27037 132.0
135.932724 172.0
136.311218 136.0
136.597183 160.0
136.950989 128.0
137.12558 176.0
137.132843 80.0
137.156036 152.0
138.232697 60.0
138.431671 112.0
138.743286 64.0
139.106903 112.0
140.445786 128.0
141.189758 152.0
142.712128 96.0
144.912735 80.0
145.536346 56.0
145.82222 124.0
146.580276 108.0
146.869568 216.0
148.897812 100.0
151.144287 180.0
152.13559 156.0
153.464111 100.0
153.898376 244.0
154.52121 156.0
154.585541 188.0
155.892395 120.0
156.267853 112.0
156.763367 188.0
158.109406 192.0
158.698059 176.0
160.458008 140.0
161.121765 200.0
161.870422 156.0
162.131348 140.0
162.49649 156.0
163.261063 100.0
165.157013 156.0
166.835632 156.0
167.579407 160.0
169.509567 168.0
169.641739 172.0
169.711746 176.0
170.248886 144.0
170.311218 164.0
171.099136 116.0
171.119965 32.0
171.190262 180.0
171.677582 176.0
171.807999 180.0
172.290955 152.0
172.719666 220.0
174.579178 52.0
174.950165 128.0
176.107758 136.0
177.07312 100.0
177.237366 176.0
178.35199 56.0
179.419434 72.0
180.982407 136.0
181.676559 120.0
181.864395 200.0
182.189301 48.0
183.208893 180.0
184.207016 340.0
184.772018 116.0
184.910019 128.0
185.183472 104.0
186.75769 76.0
188.868835 124.0
191.019363 128.0
193.151627 140.0
196.462891 156.0
197.144165 188.0
198.218719 136.0
199.099564 188.0
200.325897 152.0
200.99408 136.0
201.183609 236.0
201.567291 112.0
202.1866 160.0
203.308838 152.0
203.927979 152.0
204.038834 164.0
204.701782 240.0
205.234634 128.0
205.52272 104.0
206.245239 212.0
207.206741 96.0
208.199203 160.0
208.242279 84.0
208.26239 84.0
209.41864 116.0
209.559784 100.0
209.871078 156.0
210.214325 156.0
212.239441 216.0
213.048904 76.0
213.22905 88.0
213.252304 184.0
213.496521 128.0
214.500992 140.0
214.570969 152.0
215.026016 72.0
215.569199 132.0
215.633484 120.0
216.599045 200.0
218.722015 160.0
219.028244 176.0
219.741638 208.0
220.39711 180.0
223.501587 64.0
223.843887 204.0
224.23082 172.0
226.136658 88.0
226.250397 152.0
227.261047 208.0
227.398453 104.0
227.869904 288.0
228.170441 152.0
229.971817 92.0
230.023117 160.0
230.669556 128.0
231.649979 124.0
233.407227 184.0
233.854431 80.0
233.970108 164.0
235.110077 252.0
235.201645 124.0
238.252594 420.0
238.331512 120.0
238.949509 140.0
239.291122 108.0
239.522095 148.0
239.580627 152.0
240.178635 168.0
240.267883 1852.0
240.385345 52.0
240.431641 48.0
241.104889 104.0
241.157425 248.0
241.270065 596.0
241.940018 60.0
242.66188 136.0
242.95961 128.0
243.015457 176.0
243.704727 160.0
243.74823 64.0
245.201508 168.0
246.5466 196.0
246.668503 112.0
248.05835 176.0
248.24646 256.0
249.56842 192.0
249.697342 168.0
250.676407 40.0
250.890732 128.0
252.123474 116.0
252.265945 392.0
253.054871 172.0
253.115021 148.0
253.210022 140.0
253.298706 168.0
253.396545 172.0
253.536346 44.0
253.561691 132.0
253.751892 168.0
253.949753 264.0
254.081726 176.0
254.151321 196.0
254.224167 136.0
254.284012 17688.0
254.387772 136.0
254.424469 44.0
254.516541 64.0
254.587097 80.0
254.685745 264.0
254.738861 116.0
254.761093 76.0
254.837341 84.0
254.86911 48.0
254.907242 48.0
254.941483 208.0
254.990189 120.0
255.075684 36.0
255.107468 68.0
255.148804 104.0
255.19014 168.0
255.235703 120.0
255.287323 4016.0
255.330048 88.0
255.358673 40.0
255.641815 228.0
255.689545 52.0
255.75145 116.0
255.851883 68.0
256.026306 124.0
256.156006 168.0
256.291595 568.0
256.342377 60.0
256.380615 56.0
256.44754 68.0
256.479431 28.0
256.737671 124.0
256.777527 112.0
256.854919 120.0
256.945007 52.0
257.010101 140.0
257.123688 44.0
257.164032 100.0
257.28894 172.0
257.340759 52.0
257.44931 80.0
257.666534 84.0
257.704865 196.0
258.014893 136.0
258.456238 64.0
258.568237 92.0
258.645081 60.0
259.119019 168.0
259.401031 88.0
259.538879 48.0
262.342407 128.0
263.013336 128.0
263.123108 64.0
264.270447 160.0
264.4711 200.0
264.675049 100.0
265.105865 180.0
265.705719 144.0
266.189331 200.0
266.225067 148.0
266.283142 3480.0
266.559662 92.0
266.6409 44.0
266.68869 40.0
266.821075 56.0
266.861938 96.0
267.235992 84.0
267.285553 520.0
267.463776 84.0
267.496338 72.0
268.294678 144.0
268.640106 60.0
269.031708 124.0
269.194977 48.0
269.446472 76.0
269.502014 56.0
269.528168 76.0
269.603302 52.0
270.312927 164.0
270.52301 128.0
272.690552 88.0
273.019287 32.0
273.144287 172.0
274.006775 36.0
276.063141 168.0
276.605743 188.0
277.201874 76.0
279.097229 244.0
279.340027 88.0
282.686432 184.0
282.991028 44.0
283.124969 184.0
283.386261 72.0
283.614136 76.0
283.75827 100.0
284.197632 108.0
284.224487 156.0
284.295349 6460.0
284.353577 220.0
284.405701 120.0
284.452698 32.0
284.511292 124.0
284.623932 84.0
284.91275 52.0
285.070679 88.0
285.296173 2136.0
285.588409 60.0
285.669159 60.0
285.773438 60.0
286.052765 28.0
286.167236 76.0
286.300171 192.0
286.460236 48.0
286.672485 44.0
287.002808 116.0
287.222015 84.0
287.296234 108.0
287.336731 72.0
288.765594 40.0
290.381134 60.0
290.927429 48.0
294.608734 88.0
296.781982 80.0
301.218109 128.0
301.449585 52.0
304.022552 184.0
304.289825 128.0
314.826294 188.0
322.078796 68.0
355.162964 104.0
376.308411 68.0
383.968414 132.0
394.882996 60.0
426.326599 40.0
442.885315 104.0
446.158386 60.0
450.228668 20.0
452.461243 52.0
460.002777 56.0
470.926453 100.0
494.02066 68.0
499.112152 80.0
513.374634 96.0
517.962036 112.0
522.392395 144.0
550.902039 60.0
567.77179 32.0
620.755188 44.0
624.365479 48.0
662.354675 48.0
717.907288 104.0
759.309753 144.0
809.64093 160.0
867.368835 192.0
879.704163 120.0
886.179993 60.0
904.570374 40.0
913.926575 128.0
926.623901 52.0
964.542786 132.0
992.565186 164.0
997.883362 204.0
998.021667 64.0
1025.821533 164.0
1034.394043 152.0
1037.853516 176.0
1043.98584 176.0
1064.717773 200.0
1069.743774 160.0
1075.238403 120.0
1103.802002 168.0
1119.862061 48.0
1162.948364 136.0
1165.54248 164.0
1174.740479 196.0
1211.893555 52.0
1213.563965 156.0
1216.901245 28.0
1223.777466 144.0
1232.64978 184.0
1233.726196 164.0
1259.529785 160.0
1265.448853 64.0
1267.814697 92.0
1274.136841 152.0
1274.186523 64.0
1276.866333 92.0
1282.348389 160.0
1286.778198 168.0
1312.774536 140.0
1328.19397 192.0
1357.652344 208.0
1364.179565 232.0
1367.342407 192.0
1376.498291 112.0
1377.583984 176.0
1381.546265 192.0
1417.05127 220.0
1423.186523 192.0
1426.77771 180.0
1429.613403 132.0
1431.156494 132.0
1437.375 92.0
1444.59021 132.0
1461.196533 180.0
1470.943359 220.0
1494.086304 236.0
1504.30481 72.0
