>compound Deflazacort
>formula C25H31NO6 
>ionization [M+H]+
>parentmass 442.223
#inchi InChI=1S/C25H31NO6/c1-13-26-25(20(30)12-31-14(2)27)21(32-13)10-18-17-6-5-15-9-16(28)7-8-23(15,3)22(17)19(29)11-24(18,25)4/h7-9,17-19,21-22,29H,5-6,10-12H2,1-4H3/t17-,18-,19-,21+,22+,23-,24-,25+/m0/s1
#inchikey FBHSPRKOSMHSIF
#Ion_Source LC-ESI
#Instrument qTof
#Compound_Source Isolated
#PI Sirenas
#Data_Collector Ed Esquenazi 
#Scan -1
#Precursor_MZ 442.223
#ExactMass 0.0
#Charge 1
#CAS_Number N/A
#Pubmed_ID N/A
#Smiles N/A
#INCHI_AUX N/A
#Library_Class 3
#SpectrumID CCMSLIB00000005301
#IonMode Positive
#UpdateWorkflowName UPDATE-SINGLE-ANNOTATED-BRONZE
#LibraryQualityString Bronze
#TaskID d19310cd93df49b68e9fcbec27720eb5
##Scan# 3
#SpectrumFile Deflazacort.mgf
#LibraryName fda_library.mgf
#MQScore -1
#Organism fda_library
#TIC_Query 0
#RT_Query -1
#MZErrorPPM -1
#SharedPeaks 0
#MassDiff 0
#LibMZ -1
#SpecMZ 442.223
#SpecCharge 0
#internalFilename spec-00000.mgf

>collision 10
101.024506 115.286598
106.071922 53.70454
107.047691 106.162598
107.310692 15.86422
108.112572 5.502976
114.05278 84.989822
114.058937 42.62019
118.070129 59.283451
119.08477 7.741071
119.138199 15.79605
119.246986 30.125
121.06218 61.890629
121.358612 18.347759
123.081146 13.00179
124.038231 149.688507
124.086678 5.0
131.081985 62.620499
133.324539 9.570313
134.662628 8.680555
138.053116 13.3225
140.984909 24.289471
141.314224 14.14464
142.048035 310.901093
142.279236 9.506945
142.30072 20.286831
142.407349 11.26645
145.07016 41.740131
146.485825 11.225
147.079865 165.901398
151.071762 36.16964
152.069199 26.012501
157.100006 17.6875
160.07132 46.020828
166.980469 111.0681
171.075775 37.043129
173.093155 61.112869
196.144592 26.54167
207.992233 4.142045
209.101608 2.5625
211.104385 10.69531
215.106766 48.045971
223.10936 99.281113
225.123215 177.372894
227.140305 44.8288
240.003372 4.620193
245.134521 24.285721
259.152832 45.59766
262.141418 42.530319
268.168976 30.278549
279.940277 19.012501
295.171143 35.182629
312.195801 10.76563
312.475037 9.240385
312.557098 12.6025
340.185669 33.180149
341.191345 17.509609
342.619537 12.05357
400.216736 85.100594
442.20697 60.32893
442.259186 3.0625
442.447815 26.5
