>compound tosufloxacin tosilate
>formula C19H15F3N4O3
>ionization [M+H]+
>parentmass 405.11690145209053
#inchi InChI=1S/C19H15F3N4O3/c20-9-1-2-15(13(21)5-9)26-8-12(19(28)29)16(27)11-6-14(22)18(24-17(11)26)25-4-3-10(23)7-25/h1-2,5-6,8,10H,3-4,7,23H2,(H,28,29)
#inchikey WUWFMDMBOJLQIV
#Ion_Source LC-ESI
#Instrument qTof
#Compound_Source Commercial
#PI Dorrestein
#Data_Collector Garg_Neha
#Scan -1
#Precursor_MZ 405.117
#ExactMass 404.11
#Charge 1
#CAS_Number N/A
#Pubmed_ID N/A
#Smiles NC1CCN(C1)c2nc3n(cc(C(=O)O)c(=O)c3cc2F)c4ccc(F)cc4F
#INCHI_AUX N/A
#Library_Class 1
#SpectrumID CCMSLIB00000078981
#IonMode Positive
#UpdateWorkflowName UPDATE-SINGLE-ANNOTATED-GOLD
#LibraryQualityString Gold
#TaskID 278b19f5865741e282cec7349aa7e7a1
##Scan# 1069
#SpectrumFile NCP003352_A2_B11_BC4_01_15718.mzXML
#LibraryName NIHcollectionI_05062014.mgf
#MQScore -1
#Organism NIHcollectionI_05062014
#TIC_Query 0
#RT_Query -1
#MZErrorPPM -1
#SharedPeaks 0
#MassDiff 0
#LibMZ -1
#SpecMZ 405.117
#SpecCharge 0
#internalFilename spec-00000.mgf

>collision 10
48.666924 200.0
50.364304 172.0
50.648609 144.0
53.114223 160.0
54.99155 160.0
61.990421 172.0
62.893169 152.0
62.968956 148.0
65.005165 140.0
65.593811 188.0
66.480133 172.0
66.636017 176.0
69.120171 152.0
69.981628 160.0
70.023262 152.0
71.02108 188.0
71.929718 184.0
74.288315 152.0
74.728119 252.0
75.710304 180.0
75.835037 144.0
78.358459 144.0
78.487122 144.0
79.557526 152.0
79.628548 168.0
79.831146 168.0
81.626541 148.0
81.81366 188.0
82.078506 160.0
84.02652 148.0
84.708412 140.0
87.502617 176.0
88.24704 144.0
88.812592 212.0
89.519241 188.0
92.607361 240.0
93.303925 172.0
95.605728 176.0
96.432648 208.0
98.930801 140.0
99.593102 148.0
99.803749 180.0
101.95668 168.0
102.051155 140.0
104.400848 208.0
106.762886 148.0
108.73587 172.0
109.746857 140.0
111.366608 180.0
112.774597 144.0
113.863075 144.0
114.658752 156.0
115.038414 152.0
115.166534 180.0
115.739662 192.0
116.046059 160.0
116.224083 168.0
116.434456 148.0
116.473114 184.0
117.053787 144.0
117.260597 152.0
117.339622 212.0
118.042091 176.0
119.112732 144.0
122.408699 152.0
123.032661 180.0
123.096695 160.0
123.706917 144.0
125.595688 172.0
127.375206 140.0
129.278091 152.0
130.151901 176.0
130.630341 148.0
130.675842 156.0
131.274902 148.0
131.957626 156.0
133.245651 152.0
134.226151 172.0
134.643845 188.0
135.659607 208.0
135.954163 156.0
136.054596 164.0
136.158463 208.0
136.690811 160.0
137.055634 124.0
137.723587 196.0
138.514191 200.0
139.03717 156.0
139.14267 228.0
139.289505 220.0
139.466858 156.0
140.030441 116.0
140.768829 176.0
143.05835 248.0
143.186234 304.0
143.937424 188.0
145.270508 216.0
145.741074 192.0
145.849213 140.0
146.037811 128.0
146.075241 152.0
146.335159 188.0
148.238525 152.0
148.709 236.0
149.054001 300.0
149.58403 156.0
150.044449 168.0
150.793335 172.0
152.133698 156.0
152.999039 172.0
154.007584 220.0
154.043701 316.0
154.630646 144.0
155.0578 304.0
155.356644 148.0
156.022202 148.0
156.12912 140.0
157.076385 744.0
157.210297 208.0
158.064911 160.0
158.432953 172.0
158.743759 148.0
160.02774 160.0
160.279617 244.0
161.137466 188.0
162.039505 328.0
162.228226 228.0
162.248505 200.0
162.974365 140.0
163.025192 140.0
163.070526 308.0
164.941788 156.0
165.304962 180.0
165.391968 184.0
166.058136 264.0
166.350647 180.0
166.550934 172.0
166.859314 148.0
167.142227 168.0
167.747467 160.0
168.067261 172.0
168.656067 188.0
169.045609 160.0
169.075043 168.0
169.691544 144.0
170.16893 148.0
170.4245 160.0
170.948715 152.0
171.072586 284.0
171.292374 144.0
171.678116 180.0
171.871155 160.0
172.195999 196.0
172.388168 168.0
173.043304 276.0
173.097076 168.0
174.182846 176.0
175.066208 344.0
175.294937 148.0
176.0634 208.0
176.087158 160.0
177.025986 144.0
177.441986 148.0
177.951385 140.0
178.041794 176.0
178.079498 356.0
179.065643 148.0
179.625305 140.0
180.065933 184.0
182.04393 124.0
182.063812 296.0
182.474701 196.0
183.045578 260.0
183.078278 356.0
183.423782 152.0
184.342621 140.0
184.556168 172.0
184.845581 176.0
185.070328 148.0
186.064896 144.0
186.535233 188.0
187.365234 172.0
189.042191 116.0
190.0457 320.0
190.100662 120.0
190.423416 164.0
190.885117 144.0
191.317078 160.0
192.051941 204.0
192.094177 312.0
192.256973 160.0
192.751266 152.0
193.185333 144.0
195.054337 156.0
195.816711 204.0
196.340652 164.0
196.41597 148.0
197.032898 152.0
197.052444 144.0
197.382263 156.0
197.81311 152.0
198.642563 316.0
199.077591 200.0
199.428772 220.0
200.028915 292.0
200.065308 340.0
200.115173 144.0
201.042007 168.0
202.046036 376.0
202.07959 380.0
202.794189 228.0
202.983109 208.0
203.049362 576.0
203.090775 116.0
203.133423 164.0
203.346222 148.0
203.476807 148.0
204.053452 140.0
204.484573 112.0
204.548523 176.0
205.329224 204.0
206.042511 248.0
206.07164 172.0
206.540222 140.0
207.069733 304.0
208.179581 144.0
208.892365 148.0
209.349609 152.0
209.909027 184.0
210.068878 148.0
210.136887 164.0
210.225113 160.0
210.246536 184.0
210.59877 172.0
210.65123 124.0
210.864578 152.0
210.887695 164.0
211.042435 120.0
211.068954 284.0
211.454575 148.0
212.628342 152.0
213.034836 144.0
213.360321 236.0
214.052261 196.0
214.172195 168.0
214.384872 284.0
214.486877 180.0
215.061493 172.0
215.081924 200.0
215.201614 144.0
215.31842 156.0
215.75087 184.0
216.070206 144.0
216.180832 176.0
216.915955 172.0
217.057602 296.0
217.323608 188.0
218.03717 152.0
218.157684 140.0
218.778397 148.0
219.137695 148.0
219.680145 160.0
219.809952 144.0
220.038147 440.0
220.294159 216.0
220.571915 160.0
221.040466 244.0
223.048508 292.0
223.683563 152.0
224.142212 192.0
224.464142 192.0
224.640106 152.0
225.903702 156.0
225.97522 220.0
227.040985 940.0
227.332855 148.0
228.049026 340.0
228.107742 200.0
228.932129 156.0
229.060867 556.0
230.040634 188.0
230.070099 416.0
230.246979 184.0
231.038513 212.0
231.08255 436.0
231.232559 180.0
231.992828 152.0
232.03688 156.0
232.095459 160.0
232.660233 172.0
232.720963 180.0
232.851532 188.0
233.009491 196.0
233.076508 140.0
234.156265 140.0
234.537109 176.0
235.048401 312.0
235.153214 168.0
235.800705 208.0
237.653351 168.0
238.067749 140.0
238.783798 156.0
238.820709 144.0
239.045517 160.0
239.072983 308.0
239.171478 180.0
239.251511 144.0
239.722748 168.0
240.058762 144.0
240.570923 144.0
240.990952 152.0
241.055832 148.0
242.564301 160.0
242.886612 176.0
243.065689 184.0
243.403824 152.0
243.587067 148.0
243.736191 232.0
244.012817 176.0
244.071884 364.0
245.05481 492.0
245.163895 164.0
245.351517 160.0
246.040817 160.0
246.097031 172.0
247.047745 2000.0
247.845612 144.0
247.917679 160.0
248.033752 1340.0
248.079025 292.0
248.5009 148.0
249.032303 116.0
249.059006 292.0
250.012314 208.0
250.793381 140.0
250.963608 152.0
251.199722 132.0
251.872498 232.0
252.056244 496.0
252.295929 148.0
252.381302 144.0
252.710236 148.0
252.824158 144.0
253.064728 156.0
253.090057 252.0
253.869568 228.0
254.209 152.0
254.28833 164.0
254.348633 140.0
255.036194 500.0
255.177765 172.0
255.260437 168.0
256.043915 100.0
256.070374 160.0
256.240784 140.0
256.473389 152.0
256.52121 204.0
256.658295 188.0
256.938965 164.0
257.050415 776.0
257.088928 168.0
258.056793 244.0
258.555786 168.0
258.875916 160.0
259.016846 144.0
259.046997 96.0
259.289185 236.0
259.558472 156.0
259.603363 148.0
259.932037 112.0
260.042877 168.0
260.103851 180.0
261.06424 288.0
261.180267 220.0
261.413635 164.0
261.505249 200.0
262.052155 160.0
262.204132 140.0
262.427856 120.0
262.765198 232.0
263.073059 760.0
264.005554 188.0
264.073456 172.0
264.186676 260.0
264.594452 220.0
264.691559 168.0
264.968231 200.0
265.018707 140.0
265.062592 272.0
265.25528 156.0
265.279083 100.0
266.064148 164.0
266.09552 144.0
267.048309 152.0
267.356689 140.0
267.561768 156.0
267.708282 156.0
268.069366 304.0
268.205963 212.0
268.490387 152.0
268.581726 156.0
268.764404 168.0
269.364899 180.0
269.485992 140.0
269.551331 140.0
270.044769 264.0
270.941895 168.0
271.056946 1308.0
272.064362 636.0
273.04837 548.0
273.486786 144.0
273.746857 176.0
273.93277 156.0
274.029327 104.0
274.051208 396.0
274.168549 144.0
274.705963 176.0
274.861023 212.0
275.043732 15092.0
275.603851 132.0
275.718842 188.0
275.912994 156.0
276.046021 3156.0
276.070862 1204.0
276.745056 172.0
277.063843 1344.0
277.195374 164.0
277.589996 156.0
277.900574 164.0
278.069489 576.0
278.55249 224.0
279.031036 292.0
279.072388 320.0
279.656403 140.0
280.030396 148.0
280.189178 144.0
281.07196 152.0
281.486664 180.0
281.783905 140.0
281.827362 192.0
282.049713 212.0
282.084015 424.0
282.38562 144.0
283.082275 516.0
283.802124 140.0
284.064697 1288.0
284.16629 124.0
284.452972 172.0
285.062225 192.0
285.420532 180.0
286.07608 236.0
287.086273 784.0
288.069794 340.0
288.586609 144.0
288.647491 152.0
289.059448 272.0
289.490082 224.0
289.700073 156.0
290.064148 432.0
290.771515 156.0
291.068115 476.0
291.229889 160.0
291.297821 204.0
291.813141 100.0
291.88382 112.0
292.069611 2064.0
292.579865 156.0
293.05545 1648.0
293.191437 160.0
293.412323 148.0
293.740479 200.0
294.081512 1116.0
294.544067 256.0
295.070038 492.0
295.780609 176.0
295.926971 136.0
296.063904 452.0
296.1008 1044.0
296.322937 184.0
297.081909 1392.0
297.337921 148.0
298.062347 160.0
298.084564 352.0
299.088196 164.0
299.596985 196.0
299.750732 148.0
299.972626 152.0
300.068542 124.0
301.058167 392.0
301.923401 144.0
302.05545 828.0
302.242371 172.0
302.393921 172.0
302.972168 172.0
303.065918 528.0
303.346436 192.0
303.502441 168.0
303.939484 192.0
304.07074 13696.0
304.918762 180.0
304.957001 152.0
305.073273 1952.0
305.159576 144.0
305.334534 136.0
306.045837 140.0
306.080475 416.0
306.841095 132.0
307.065582 676.0
307.187988 176.0
307.516937 188.0
307.785736 196.0
308.064789 304.0
308.344666 140.0
309.066711 124.0
310.086426 144.0
311.074341 196.0
311.103912 212.0
311.143402 144.0
311.48053 140.0
312.081482 168.0
312.447266 168.0
312.784058 152.0
313.089355 1272.0
313.397858 152.0
314.092041 2572.0
314.490509 128.0
315.07431 980.0
315.681641 176.0
316.00705 172.0
316.069702 6184.0
316.254761 192.0
317.085388 1824.0
317.136719 168.0
317.408386 152.0
317.633026 148.0
317.987915 148.0
318.048218 1336.0
318.085724 612.0
318.95401 180.0
319.049103 416.0
319.092651 168.0
319.636841 152.0
320.06839 236.0
320.318878 168.0
320.564362 112.0
320.990417 176.0
321.015381 176.0
321.043335 176.0
322.081787 160.0
322.114655 140.0
322.178955 164.0
322.396912 164.0
323.080353 140.0
323.405457 144.0
323.699036 332.0
324.09436 12604.0
324.250702 200.0
324.567535 104.0
325.003754 152.0
325.057587 168.0
325.096497 2368.0
325.142181 160.0
325.204742 288.0
326.094513 244.0
327.073578 484.0
327.628326 168.0
327.754425 144.0
327.970642 160.0
328.003082 192.0
328.065674 356.0
328.491272 116.0
328.583679 240.0
328.635559 116.0
328.702759 140.0
329.07486 644.0
329.16687 148.0
329.283966 144.0
329.403168 184.0
329.460968 164.0
329.619934 152.0
330.047119 1580.0
330.087769 312.0
331.051422 212.0
331.116486 360.0
331.650208 240.0
332.063477 324.0
332.100708 376.0
332.339203 144.0
333.096741 4336.0
334.099243 488.0
334.48703 168.0
335.052948 208.0
335.219055 164.0
335.526917 152.0
335.891266 148.0
336.057281 820.0
336.204987 152.0
336.630768 148.0
337.0672 172.0
338.06369 128.0
338.993896 152.0
339.069733 1008.0
339.349426 172.0
340.072388 200.0
340.163879 172.0
340.655914 140.0
340.905426 108.0
341.052765 212.0
341.07663 164.0
341.11676 180.0
342.085815 4588.0
342.331024 136.0
342.387207 112.0
342.438599 148.0
342.539337 140.0
342.583527 140.0
342.622437 136.0
342.929901 192.0
343.010254 148.0
343.088074 1164.0
343.258698 104.0
343.449768 144.0
343.630035 116.0
343.88736 168.0
343.952667 136.0
344.101807 106716.0
344.25824 104.0
344.315491 120.0
344.373718 216.0
344.410095 112.0
344.674957 144.0
344.707733 140.0
344.858948 196.0
345.050507 100.0
345.104309 18092.0
345.194244 136.0
345.22702 144.0
345.263519 96.0
345.332581 100.0
345.38382 104.0
345.502716 132.0
345.531647 168.0
346.106293 1752.0
346.370667 128.0
346.543976 140.0
346.981781 116.0
347.104034 240.0
347.288208 168.0
347.316956 264.0
347.357635 124.0
347.399902 96.0
347.45224 112.0
347.59256 164.0
347.836975 176.0
347.999207 192.0
348.059601 3560.0
348.222839 136.0
348.283234 152.0
348.32428 100.0
348.607025 144.0
349.062714 688.0
349.55777 136.0
349.767426 152.0
349.834045 120.0
350.062714 276.0
350.764435 140.0
351.063965 216.0
351.152527 112.0
351.660858 168.0
352.127563 172.0
352.164917 172.0
352.482452 160.0
353.050659 212.0
353.08432 140.0
353.510376 188.0
354.049866 172.0
355.58493 104.0
355.65451 152.0
355.718323 232.0
356.364258 144.0
356.6073 124.0
357.075012 364.0
357.134918 180.0
357.349335 164.0
358.078064 196.0
358.480225 128.0
358.730011 172.0
358.98407 156.0
359.07605 1232.0
359.111603 2600.0
359.431061 96.0
359.655609 168.0
359.874573 184.0
360.032379 184.0
360.07547 448.0
360.109619 368.0
360.225769 160.0
360.422882 136.0
360.989899 228.0
361.053528 164.0
361.128021 37020.0
361.383759 132.0
362.077301 152.0
362.131256 5692.0
362.179901 176.0
363.079651 224.0
363.132904 668.0
363.228943 164.0
363.824982 148.0
364.214447 140.0
364.438232 124.0
364.642761 308.0
365.073395 144.0
366.020905 140.0
366.268433 172.0
366.555847 112.0
366.702789 144.0
366.733307 164.0
367.100464 740.0
367.351013 180.0
368.102814 208.0
368.301483 156.0
368.362579 176.0
368.679718 156.0
369.106018 180.0
370.078674 1032.0
370.811401 172.0
370.861206 200.0
371.083038 472.0
371.541046 140.0
373.8992 192.0
374.064697 212.0
374.788727 164.0
376.049744 156.0
376.99472 200.0
377.085999 4540.0
377.409515 152.0
378.001343 168.0
378.088257 980.0
379.084656 268.0
379.515839 140.0
380.132599 144.0
381.063904 136.0
381.875214 144.0
382.378815 360.0
382.758667 128.0
382.958466 100.0
384.726227 148.0
385.105621 424.0
385.837006 136.0
386.080292 352.0
386.146027 136.0
386.253876 280.0
386.459625 148.0
386.509277 160.0
386.807007 176.0
386.930084 216.0
387.024933 308.0
387.10733 68704.0
387.410797 124.0
387.448486 124.0
387.500153 116.0
387.550964 276.0
387.606628 116.0
387.743011 148.0
387.778076 124.0
387.856567 152.0
387.886749 260.0
387.944305 216.0
387.980011 164.0
388.0979 24344.0
388.264893 196.0
388.548157 148.0
388.877289 124.0
388.904388 172.0
389.098053 4348.0
389.206665 104.0
389.600311 172.0
389.816742 108.0
389.875488 192.0
389.968781 128.0
390.09671 636.0
390.169708 100.0
390.292175 100.0
390.606262 108.0
390.692139 124.0
390.766296 120.0
390.812103 120.0
391.488892 152.0
391.949768 180.0
393.843414 152.0
394.108093 160.0
395.00946 140.0
395.499725 168.0
395.761383 196.0
396.83432 140.0
397.695953 160.0
398.502075 144.0
398.625244 200.0
398.963104 156.0
399.233459 160.0
399.285156 156.0
399.344055 156.0
400.287994 168.0
400.440582 168.0
400.508759 172.0
400.819885 168.0
401.431641 112.0
401.472473 120.0
401.573242 176.0
401.666962 144.0
401.708557 244.0
401.886475 148.0
402.21051 196.0
402.332733 100.0
402.550262 188.0
402.750488 124.0
402.901489 200.0
402.949646 236.0
403.058502 212.0
403.090973 176.0
403.131683 272.0
403.250977 124.0
403.324158 140.0
403.362579 120.0
403.39209 148.0
403.492889 136.0
403.52951 120.0
403.602753 248.0
403.708954 176.0
403.894653 180.0
403.958862 116.0
404.008118 204.0
404.087219 1608.0
404.177338 164.0
404.215973 196.0
404.27951 268.0
404.308746 132.0
404.362427 104.0
404.433685 132.0
404.513153 188.0
404.549194 164.0
404.596008 144.0
404.662384 196.0
404.670441 216.0
404.755402 120.0
404.787872 384.0
404.855255 152.0
404.922974 340.0
404.970154 568.0
405.019623 584.0
405.119659 221300.0
405.244354 420.0
405.304535 136.0
405.345001 148.0
405.369904 344.0
405.403656 132.0
405.436066 352.0
405.488861 448.0
405.545166 364.0
405.591095 164.0
405.654968 120.0
405.731049 264.0
405.781372 6096.0
405.82785 400.0
405.874207 152.0
405.936462 172.0
405.977875 320.0
406.034424 184.0
406.073822 532.0
406.121857 84568.0
406.219025 236.0
406.313599 168.0
406.370911 244.0
406.42099 116.0
406.468323 156.0
406.516449 228.0
406.693207 116.0
406.726135 168.0
406.780701 464.0
406.841095 168.0
406.90332 136.0
407.034149 96.0
407.124054 9620.0
407.231323 272.0
407.547455 128.0
407.656281 112.0
407.827087 300.0
407.937286 144.0
408.005096 120.0
408.124329 1152.0
408.23349 176.0
408.324768 100.0
408.365906 136.0
408.398315 216.0
408.511139 172.0
408.578461 176.0
408.629517 148.0
408.685883 312.0
408.76062 240.0
408.772797 232.0
408.83316 124.0
408.87854 352.0
408.948425 120.0
409.067627 176.0
409.169098 184.0
409.240143 216.0
409.293427 168.0
409.343781 96.0
409.645325 200.0
409.687469 152.0
409.757416 120.0
409.892487 112.0
410.172272 116.0
410.556915 96.0
410.609192 212.0
410.679932 140.0
410.767944 156.0
410.803131 112.0
410.917908 196.0
410.970215 96.0
412.437286 152.0
413.03244 120.0
418.312622 112.0
419.517242 116.0
419.695007 152.0
420.261963 152.0
421.675537 148.0
422.549957 144.0
425.390717 144.0
446.166504 164.0
488.307739 108.0
577.142578 164.0
586.460632 140.0
627.833862 96.0
641.927307 148.0
700.67627 108.0
827.336426 148.0
1005.617188 180.0
1232.123901 144.0
1270.571045 152.0
1487.414429 144.0
1646.105591 264.0
1848.356689 148.0
1931.431641 216.0
1939.39917 156.0
1961.303345 164.0
