>compound Azacyclonol
>formula C18H21NO
>ionization [M+H]+
>parentmass 268.170715
#inchi InChI=1S/C18H21NO/c20-18(15-7-3-1-4-8-15,16-9-5-2-6-10-16)17-11-13-19-14-12-17/h1-10,17,19-20H,11-14H2
#inchikey ZMISODWVFHHWNR
#Ion_Source LC-ESI
#Instrument qTof
#Compound_Source Commercial
#PI Dorrestein
#Data_Collector Garg_Neha
#Scan -1
#Precursor_MZ 268.17
#ExactMass 267.162
#Charge 1
#CAS_Number 115-46-8, 595598-07-5, 1798-50-1 (HCl)
#Pubmed_ID N/A
#Smiles N1CCC(CC1)C(O)(C2C=CC=CC=2)C3C=CC=CC=3
#INCHI_AUX N/A
#Library_Class 1
#SpectrumID CCMSLIB00000078604
#IonMode Positive
#UpdateWorkflowName UPDATE-SINGLE-ANNOTATED-GOLD
#LibraryQualityString Gold
#TaskID 77f51c88eb8b467eb4a01dd2d0cb90d2
##Scan# 1076
#SpectrumFile Plate9_61_80_GC7_01_15756.mzXML
#LibraryName FDALibrary_2_04302014.mgf
#MQScore -1
#Organism FDALibrary_2_04302014
#TIC_Query 0
#RT_Query -1
#MZErrorPPM -1
#SharedPeaks 0
#MassDiff 0
#LibMZ -1
#SpecMZ 268.17
#SpecCharge 0
#internalFilename spec-00000.mgf

>collision 10
44.985966 156.0
45.003914 116.0
45.050068 152.0
45.131592 252.0
45.148022 224.0
45.203827 144.0
45.329704 208.0
45.360531 220.0
45.387344 172.0
45.817673 164.0
45.833611 152.0
46.004902 148.0
46.02515 216.0
46.137264 176.0
46.279152 188.0
46.301022 148.0
46.315922 176.0
46.902931 184.0
47.055721 156.0
47.180046 140.0
48.081139 244.0
48.303593 172.0
48.357559 140.0
48.437866 184.0
48.462803 172.0
48.554295 192.0
48.565102 228.0
48.654202 148.0
48.691696 224.0
48.857109 148.0
49.40258 188.0
49.493557 200.0
49.593021 156.0
49.689781 216.0
49.862503 152.0
50.166542 148.0
50.227177 248.0
50.289261 168.0
50.502617 172.0
50.596012 200.0
50.613003 160.0
50.699413 220.0
50.734108 136.0
51.014519 160.0
51.203762 176.0
51.287827 188.0
51.409058 192.0
51.717766 268.0
51.980034 168.0
52.005867 160.0
52.391178 164.0
52.471954 188.0
52.48349 204.0
52.785282 168.0
52.812759 156.0
52.885105 140.0
52.94157 172.0
52.974884 252.0
53.027046 144.0
53.205467 176.0
53.349293 148.0
53.767334 172.0
53.90461 164.0
53.925068 196.0
54.160641 152.0
54.320415 152.0
54.364433 164.0
54.508347 152.0
54.589195 232.0
54.621391 184.0
54.864532 156.0
55.641247 140.0
55.702133 164.0
55.773457 176.0
55.909962 216.0
56.103931 220.0
56.275505 256.0
56.289234 144.0
56.697342 156.0
56.802299 160.0
56.880733 148.0
57.119251 200.0
57.328533 160.0
57.547253 180.0
57.588028 228.0
57.754292 148.0
57.805729 216.0
57.855679 200.0
57.896561 164.0
58.094048 164.0
58.269711 164.0
58.660828 148.0
58.83474 192.0
59.241531 184.0
59.419281 140.0
59.465405 172.0
60.028477 192.0
60.141098 228.0
60.154991 164.0
60.194736 124.0
60.465675 140.0
60.568123 168.0
60.753883 168.0
60.777023 232.0
60.825268 172.0
60.88427 140.0
60.986813 144.0
61.062996 140.0
61.156349 152.0
61.176586 156.0
61.240429 160.0
61.422798 152.0
61.500816 148.0
61.519508 148.0
61.575764 180.0
61.591381 188.0
61.619499 144.0
61.665047 136.0
61.788353 156.0
61.971535 188.0
62.079693 208.0
62.118904 172.0
62.497536 220.0
62.511696 156.0
62.557339 204.0
62.784233 172.0
62.916775 156.0
63.006794 160.0
63.090557 212.0
63.248745 156.0
63.300991 188.0
63.851673 140.0
64.068153 148.0
64.090462 140.0
64.171745 196.0
64.392731 108.0
64.428703 180.0
64.516602 212.0
65.058083 180.0
65.090195 172.0
65.130348 164.0
65.348984 208.0
65.426231 216.0
65.513199 176.0
65.70504 140.0
65.73893 156.0
65.83902 160.0
65.905251 144.0
65.916557 164.0
65.952118 144.0
66.015167 172.0
66.441628 196.0
66.588875 240.0
67.192795 160.0
67.356049 144.0
67.408325 148.0
67.778145 140.0
67.920776 160.0
67.986404 168.0
68.307198 164.0
68.505981 188.0
68.743401 204.0
68.994469 144.0
69.024223 168.0
69.171471 212.0
69.360313 156.0
69.505333 180.0
69.645714 156.0
69.898415 156.0
69.983841 212.0
70.196587 152.0
70.443604 144.0
70.512115 168.0
70.647552 188.0
70.731392 204.0
70.932236 168.0
71.269569 244.0
71.301498 152.0
71.528564 160.0
71.595909 220.0
71.636337 208.0
71.842003 208.0
72.066109 124.0
72.576019 172.0
73.194527 256.0
73.23056 200.0
73.354675 196.0
73.383659 160.0
73.475761 192.0
73.622009 188.0
73.678917 240.0
73.843018 168.0
73.943962 156.0
74.068954 196.0
74.561386 160.0
74.575134 148.0
74.645668 152.0
74.662819 168.0
74.891724 180.0
75.005447 184.0
75.49752 160.0
75.786598 152.0
75.919037 200.0
76.157852 168.0
76.266563 232.0
76.48822 176.0
76.604897 160.0
76.653679 184.0
76.73037 172.0
76.761421 168.0
76.803612 160.0
76.941467 192.0
77.021797 140.0
77.072884 168.0
77.173843 184.0
77.520432 148.0
78.282829 152.0
78.536873 212.0
78.601898 184.0
78.859001 192.0
78.925148 152.0
78.999428 152.0
79.110916 144.0
79.272095 144.0
79.451172 176.0
79.494896 212.0
79.538124 144.0
79.845505 140.0
79.922005 164.0
79.957588 176.0
80.014557 144.0
80.199821 192.0
80.235474 164.0
80.445984 168.0
80.687157 164.0
80.858932 132.0
80.966301 144.0
81.256691 212.0
81.299751 196.0
81.416443 152.0
81.812019 184.0
81.841896 168.0
82.039009 148.0
82.120148 184.0
82.150818 156.0
82.392723 208.0
82.676605 148.0
82.698326 168.0
82.736343 152.0
82.765312 160.0
82.825073 204.0
82.853638 156.0
83.142365 160.0
83.362106 180.0
83.442078 180.0
83.496628 152.0
83.574852 184.0
83.592461 172.0
84.086029 136.0
84.127083 184.0
84.428566 176.0
85.246185 148.0
85.545982 176.0
85.634369 144.0
85.670197 160.0
85.706215 140.0
85.826027 208.0
86.051125 160.0
86.159088 176.0
86.187805 108.0
86.372681 152.0
86.472595 224.0
86.502213 160.0
86.702248 176.0
87.179192 160.0
87.194061 192.0
87.370712 160.0
87.592239 148.0
87.907326 152.0
88.243546 148.0
88.578529 200.0
88.889755 188.0
89.13575 196.0
89.27298 352.0
89.318985 256.0
89.440422 208.0
89.576004 240.0
89.696602 160.0
89.875763 144.0
90.013557 184.0
90.041885 156.0
90.066437 148.0
90.278076 172.0
90.547523 136.0
90.575264 156.0
90.694267 184.0
90.774269 192.0
90.920113 100.0
91.05455 9808.0
91.091377 148.0
91.198944 168.0
91.808777 148.0
91.986221 148.0
92.056358 976.0
92.289986 148.0
92.374138 168.0
92.39817 192.0
92.42765 128.0
92.567444 152.0
92.749451 260.0
93.073677 188.0
93.260025 176.0
93.34269 204.0
93.42347 188.0
93.50621 172.0
93.520874 116.0
93.864532 152.0
93.889603 176.0
93.918533 156.0
93.964828 152.0
94.204216 152.0
94.583229 216.0
94.604523 148.0
95.104637 160.0
95.145401 164.0
95.434891 140.0
95.681984 140.0
95.755981 244.0
95.853386 300.0
95.954742 148.0
96.290375 156.0
96.493599 164.0
96.595291 152.0
97.141823 168.0
97.163406 176.0
97.221207 212.0
97.351074 164.0
97.497215 184.0
97.583702 140.0
98.50602 164.0
98.660164 176.0
98.723434 156.0
98.913986 168.0
98.978706 172.0
99.301727 148.0
99.563705 156.0
99.724632 184.0
99.859833 160.0
99.91951 152.0
99.959305 176.0
99.997116 316.0
100.040909 140.0
100.084709 220.0
100.571144 188.0
100.656502 132.0
100.788826 156.0
100.896751 184.0
101.387154 164.0
101.423233 204.0
101.441277 248.0
101.598915 112.0
101.846611 172.0
101.9953 168.0
102.048988 352.0
102.119965 220.0
102.967094 228.0
103.016953 152.0
103.05484 3076.0
103.093491 132.0
103.652496 132.0
103.988892 208.0
104.058937 456.0
104.175705 164.0
104.302704 296.0
104.346413 140.0
104.496918 152.0
104.594604 236.0
104.618439 108.0
104.643463 220.0
105.012299 152.0
105.069649 9952.0
105.155823 116.0
105.239365 104.0
105.295998 148.0
105.533043 172.0
105.571892 148.0
105.60257 184.0
106.072678 1080.0
106.096062 156.0
106.315536 164.0
106.346321 220.0
106.827148 156.0
106.859039 152.0
107.077042 160.0
107.111221 140.0
107.750732 160.0
107.798256 184.0
107.831322 156.0
107.905739 152.0
107.998802 180.0
108.224373 140.0
108.392151 180.0
108.510292 140.0
109.232994 160.0
109.514 172.0
109.603577 160.0
109.622337 200.0
109.772423 220.0
110.061615 212.0
110.166901 180.0
110.267197 152.0
110.434464 160.0
110.493034 224.0
110.522072 164.0
110.570457 212.0
110.61441 140.0
110.689781 164.0
111.25798 212.0
111.377678 140.0
111.440697 224.0
112.095093 168.0
112.121414 168.0
112.179405 160.0
112.310135 204.0
112.324905 200.0
112.491608 140.0
112.713371 140.0
112.758453 192.0
113.100388 204.0
113.178719 168.0
113.852219 140.0
114.078285 156.0
114.497452 176.0
114.821396 172.0
114.868317 204.0
115.029716 176.0
115.05365 4268.0
115.130516 208.0
115.248337 172.0
115.269699 168.0
115.314583 236.0
115.47493 176.0
115.560501 152.0
115.864517 180.0
115.971603 152.0
116.05909 352.0
116.30896 176.0
116.854263 152.0
116.89299 148.0
117.068893 4228.0
117.127464 172.0
117.256943 188.0
117.349632 144.0
117.787727 168.0
117.995186 144.0
118.06218 324.0
118.074059 864.0
118.30455 180.0
118.557976 140.0
118.650467 148.0
118.954895 204.0
119.048256 160.0
119.0867 496.0
119.213356 152.0
119.289062 144.0
119.737648 200.0
120.009575 112.0
120.415932 220.0
120.431221 200.0
120.557938 200.0
120.623512 148.0
120.719711 188.0
121.034065 116.0
121.161797 160.0
121.3591 172.0
121.532379 148.0
121.598213 152.0
121.879303 148.0
121.965012 176.0
122.792885 140.0
122.814941 220.0
123.592575 168.0
123.785156 196.0
123.964584 236.0
124.19516 152.0
124.376549 204.0
124.74585 140.0
124.881485 176.0
125.010521 168.0
125.161888 228.0
125.33786 144.0
126.052063 120.0
126.141312 152.0
126.351524 196.0
126.458931 264.0
126.603951 176.0
126.677177 188.0
126.821777 164.0
126.886787 140.0
126.936119 140.0
127.003395 156.0
127.031494 172.0
127.05423 1768.0
127.290665 144.0
127.411949 180.0
127.630577 148.0
127.816666 152.0
128.0121 160.0
128.030518 156.0
128.062683 27376.0
128.111252 156.0
128.167023 100.0
128.206833 240.0
128.241425 104.0
128.38884 168.0
129.068405 9120.0
129.512787 192.0
129.654861 184.0
129.897476 104.0
130.033051 144.0
130.066132 6196.0
130.457733 172.0
130.494751 180.0
130.634613 128.0
130.989166 128.0
131.028976 160.0
131.069244 1500.0
131.083862 772.0
131.145889 124.0
131.303131 164.0
131.513031 148.0
131.737091 132.0
131.953461 180.0
132.02124 172.0
132.058655 140.0
132.080856 23008.0
132.117218 144.0
132.228424 172.0
132.530701 144.0
132.582474 152.0
132.668213 152.0
132.984756 156.0
133.053619 184.0
133.084351 2588.0
133.216675 152.0
133.498032 136.0
133.67421 172.0
133.757065 140.0
133.948639 164.0
134.039505 132.0
134.084549 168.0
134.25473 164.0
134.328537 140.0
134.570862 220.0
135.09549 164.0
135.378998 168.0
135.431122 180.0
135.709061 168.0
136.18959 144.0
136.354553 148.0
137.155746 176.0
137.208832 204.0
137.295105 156.0
137.414078 200.0
137.708206 148.0
137.768936 148.0
137.839035 172.0
137.983948 160.0
138.126602 208.0
138.686218 148.0
138.920715 144.0
139.052826 136.0
139.698288 144.0
139.830048 224.0
140.259216 116.0
140.522339 168.0
141.069748 1600.0
141.097992 152.0
141.155869 156.0
141.662369 176.0
141.86734 152.0
142.073761 492.0
142.103317 180.0
142.354935 208.0
142.48082 140.0
142.67807 192.0
142.834106 248.0
142.868317 168.0
142.911148 144.0
142.967667 160.0
143.050659 320.0
143.085892 77848.0
143.161087 152.0
143.185425 184.0
143.231232 140.0
143.255066 184.0
143.293503 128.0
143.618683 164.0
143.863708 208.0
144.088226 6840.0
144.305008 144.0
144.404495 280.0
144.996353 116.0
145.062988 316.0
145.089462 1936.0
145.226761 156.0
145.363312 164.0
145.678726 148.0
145.729355 184.0
145.946472 144.0
146.035446 268.0
146.069122 164.0
146.096741 1864.0
146.160538 152.0
146.251999 160.0
146.348282 264.0
147.010681 156.0
147.099182 300.0
147.669571 152.0
148.821808 188.0
148.940506 164.0
149.239716 148.0
149.453766 192.0
150.506744 164.0
151.054184 452.0
151.127579 156.0
151.245056 168.0
151.605087 160.0
152.013382 100.0
152.06189 2264.0
152.520538 140.0
152.867325 184.0
153.069321 1064.0
153.115967 140.0
153.369736 228.0
153.860641 144.0
154.072479 148.0
154.183914 128.0
154.342438 200.0
154.449402 172.0
154.569992 180.0
154.802689 148.0
154.9319 192.0
155.03772 160.0
155.06134 1304.0
155.085205 1128.0
156.06134 180.0
156.087067 312.0
156.279617 168.0
156.692917 144.0
157.089508 344.0
157.548645 176.0
157.683578 148.0
158.066193 264.0
158.099731 536.0
158.636047 204.0
158.807739 140.0
159.102966 704.0
159.184189 224.0
159.432892 204.0
160.38678 184.0
160.492661 200.0
160.702011 168.0
160.974625 176.0
161.219666 152.0
161.495239 204.0
161.905243 316.0
162.156067 172.0
162.411652 184.0
163.051956 180.0
163.40033 164.0
164.011505 196.0
164.10582 160.0
164.519135 184.0
164.547211 164.0
164.733643 152.0
164.892059 148.0
164.943176 188.0
165.070267 3628.0
165.284241 156.0
165.360107 196.0
165.851868 168.0
165.908081 168.0
166.076813 4920.0
166.161362 168.0
166.25206 112.0
166.303787 148.0
166.596024 160.0
166.7939 192.0
167.046021 164.0
167.086319 29112.0
167.276138 124.0
167.864914 144.0
168.088333 4400.0
168.125473 284.0
168.427551 168.0
169.014404 176.0
169.032516 176.0
169.093246 632.0
169.147827 260.0
169.420883 180.0
169.552521 180.0
169.610062 156.0
169.750061 196.0
169.822678 164.0
170.096603 160.0
170.266479 192.0
172.109894 2712.0
172.153458 192.0
172.225098 160.0
172.771423 140.0
173.11676 128.0
173.137878 268.0
173.208588 212.0
174.050446 140.0
174.44191 228.0
174.692978 168.0
174.994385 208.0
175.386902 188.0
175.526627 200.0
176.041199 176.0
176.488586 144.0
177.104385 152.0
177.578827 164.0
177.743301 196.0
177.761749 172.0
178.078339 2288.0
178.13092 172.0
178.350845 136.0
178.381714 100.0
178.42627 116.0
178.888794 160.0
178.936722 160.0
179.003281 200.0
179.058578 192.0
179.083511 2556.0
179.256348 196.0
179.338959 144.0
180.086685 988.0
180.386871 116.0
180.500275 184.0
180.631317 212.0
180.968521 184.0
181.048859 192.0
181.101135 17308.0
181.438126 144.0
181.756561 256.0
181.854706 244.0
181.973709 196.0
182.035721 172.0
182.103653 2692.0
182.186127 140.0
182.284851 124.0
182.411865 152.0
182.877197 172.0
182.903885 136.0
183.108353 136.0
183.366226 176.0
183.793472 172.0
184.214645 168.0
184.320007 144.0
184.915817 164.0
184.974503 168.0
185.332001 172.0
185.689835 164.0
185.765778 152.0
185.855301 244.0
186.251663 144.0
186.566895 156.0
186.795319 220.0
186.822525 160.0
186.863327 144.0
186.977615 164.0
187.628632 164.0
187.969574 204.0
188.175537 128.0
188.406433 156.0
189.074402 164.0
189.207733 140.0
189.306305 156.0
189.593948 152.0
189.635056 148.0
189.728256 144.0
189.750183 224.0
189.975067 172.0
190.080505 916.0
190.296631 212.0
190.484039 156.0
190.540604 144.0
190.900681 156.0
191.084732 1528.0
191.280365 156.0
191.71553 140.0
192.029831 148.0
192.071136 188.0
192.09227 1280.0
192.612213 172.0
193.100159 684.0
193.236984 172.0
193.483307 156.0
193.926514 176.0
193.970871 196.0
194.101196 332.0
194.531219 184.0
195.119324 264.0
195.679382 144.0
196.041489 140.0
196.476456 148.0
196.914993 196.0
197.012466 160.0
198.019455 148.0
198.843079 224.0
199.278992 160.0
199.411072 220.0
200.342453 164.0
200.657776 180.0
201.010666 148.0
201.685654 168.0
202.082458 332.0
202.664825 160.0
202.732834 268.0
203.086838 1072.0
203.118423 140.0
203.385147 148.0
203.99588 176.0
204.093597 2572.0
204.43782 200.0
204.505035 208.0
204.845078 144.0
205.100449 3280.0
205.157349 168.0
205.205811 156.0
205.511002 156.0
205.979202 144.0
206.105667 1104.0
206.227783 176.0
206.842758 152.0
206.925781 152.0
206.945816 164.0
207.117615 3000.0
207.223648 232.0
207.343994 156.0
207.650757 220.0
207.805664 180.0
208.116623 392.0
208.201797 228.0
208.24884 212.0
208.333923 212.0
208.520691 160.0
208.559937 128.0
208.762177 168.0
208.946854 156.0
209.110291 152.0
210.404556 140.0
211.448059 324.0
211.569641 148.0
211.62175 168.0
211.891098 152.0
212.009903 188.0
212.746628 148.0
212.952805 148.0
213.057373 188.0
213.09996 176.0
213.763916 148.0
214.442474 152.0
214.666946 164.0
214.760269 164.0
214.833206 168.0
215.063721 156.0
215.928558 184.0
215.95195 140.0
216.133331 188.0
216.456802 168.0
216.956329 180.0
217.073608 156.0
217.100052 236.0
217.68985 160.0
218.107544 912.0
218.633514 192.0
218.677658 156.0
218.715927 184.0
218.870239 144.0
219.115677 3080.0
219.328598 204.0
219.363968 156.0
220.122406 332.0
220.602371 140.0
221.088882 148.0
221.131165 3976.0
221.887711 192.0
221.965729 168.0
222.13475 844.0
222.167419 156.0
222.52356 156.0
222.562149 148.0
222.71785 112.0
222.805695 144.0
222.888885 172.0
223.135529 120.0
223.461121 220.0
224.630569 156.0
225.711716 168.0
226.049728 168.0
226.538971 168.0
226.729523 176.0
227.560425 152.0
228.943619 152.0
229.627747 212.0
229.666962 180.0
229.899277 168.0
230.337067 152.0
230.763168 180.0
230.893204 192.0
231.050491 152.0
233.034378 324.0
233.132172 268.0
234.127319 164.0
234.389206 176.0
234.5793 156.0
234.82019 152.0
234.963562 164.0
235.099625 168.0
235.131378 240.0
236.16832 264.0
237.076508 132.0
237.21434 200.0
237.330841 160.0
237.450439 148.0
237.898422 140.0
238.561981 244.0
239.152573 168.0
239.555954 156.0
239.678131 164.0
240.141602 200.0
240.237228 148.0
240.33287 148.0
240.545822 168.0
240.608292 140.0
241.098694 168.0
241.50061 184.0
241.958771 140.0
243.222733 116.0
244.986542 168.0
245.288803 160.0
245.416626 224.0
246.087448 196.0
246.352921 164.0
246.387283 176.0
246.612701 200.0
248.078354 196.0
248.141296 144.0
248.249649 196.0
248.296692 144.0
248.318634 144.0
248.445343 204.0
248.510712 148.0
248.690216 140.0
248.721878 168.0
248.745773 124.0
248.788666 156.0
248.890793 212.0
248.926468 112.0
248.962143 188.0
249.050522 144.0
249.090775 152.0
249.129532 120.0
249.151321 192.0
249.23204 212.0
249.331696 260.0
249.399261 184.0
249.452209 160.0
249.500748 192.0
249.565582 196.0
249.637253 172.0
249.670395 232.0
249.696121 108.0
249.722565 156.0
249.748657 360.0
249.77562 116.0
249.810028 116.0
249.859894 140.0
249.884628 272.0
249.911163 220.0
249.95816 352.0
249.98317 216.0
250.016861 304.0
250.03743 528.0
250.082489 272.0
250.161942 232940.0
250.250809 196.0
250.368088 200.0
250.441116 304.0
250.500366 236.0
250.53241 220.0
250.584747 136.0
250.619751 172.0
250.64389 840.0
250.678192 11072.0
250.72406 360.0
250.802597 240.0
250.830231 452.0
250.911972 132.0
250.940826 272.0
250.981644 128.0
251.008102 328.0
251.031342 288.0
251.093445 108.0
251.163269 115604.0
251.258652 104.0
251.305435 136.0
251.398209 236.0
251.422562 240.0
251.448364 244.0
251.514008 232.0
251.615356 160.0
251.721542 176.0
251.81369 100.0
251.9198 204.0
252.001068 132.0
252.166641 8468.0
252.214478 188.0
252.257172 324.0
252.298706 124.0
252.47493 272.0
252.508362 108.0
252.554474 184.0
252.617996 96.0
252.652481 148.0
252.685547 260.0
252.723328 244.0
252.775208 288.0
252.813934 232.0
252.869125 108.0
252.90715 168.0
252.943802 116.0
252.952271 372.0
253.001678 192.0
253.041061 240.0
253.06871 248.0
253.113556 260.0
253.138519 372.0
253.170059 268.0
253.312744 112.0
253.351257 100.0
253.57106 168.0
253.704514 96.0
253.855057 144.0
253.997299 172.0
254.076859 120.0
254.099472 148.0
254.291245 200.0
254.37175 144.0
254.988068 160.0
255.966614 172.0
256.958588 128.0
257.690399 140.0
257.922302 148.0
259.189636 140.0
260.132568 160.0
260.831696 148.0
261.135071 148.0
262.698212 112.0
263.449463 188.0
265.332977 180.0
266.472137 144.0
267.055023 144.0
267.153381 132.0
267.333801 220.0
267.69516 140.0
267.766785 176.0
267.924744 140.0
268.101715 144.0
268.170715 97988.0
268.273834 196.0
268.348572 156.0
268.566406 120.0
268.644318 128.0
268.682465 100.0
268.901367 188.0
268.963409 160.0
269.120087 144.0
269.172852 12760.0
269.227356 124.0
269.395752 180.0
269.74057 144.0
270.177429 1688.0
270.21347 148.0
270.319702 152.0
270.589508 112.0
270.623779 112.0
270.777863 140.0
270.846832 116.0
270.958649 128.0
271.020447 256.0
271.078857 116.0
271.177979 168.0
271.256714 144.0
271.31366 112.0
271.413116 100.0
271.560272 108.0
272.471924 132.0
272.677643 148.0
280.949341 148.0
291.183136 144.0
322.097351 140.0
364.394135 156.0
393.683014 140.0
412.033997 152.0
522.336121 140.0
546.425049 148.0
611.75708 172.0
727.602844 144.0
841.371399 124.0
967.787354 212.0
1026.622192 216.0
1080.71228 168.0
1093.396851 140.0
1095.036133 140.0
1121.339478 164.0
1142.15625 204.0
1149.358032 152.0
1150.329956 148.0
1169.281616 180.0
1176.418091 208.0
1192.315918 204.0
1214.020996 160.0
1216.845093 212.0
1222.37793 156.0
1222.892944 200.0
1228.188354 224.0
1238.155029 140.0
1259.120117 248.0
1266.822876 140.0
1272.276367 172.0
1281.593262 192.0
1284.045532 144.0
1285.015625 156.0
1289.378662 152.0
1291.752441 180.0
1298.693359 160.0
1299.913086 156.0
1300.307739 156.0
1314.636475 176.0
1316.130615 168.0
1332.19458 188.0
1332.521484 148.0
1332.928345 184.0
1335.421997 152.0
1340.744019 144.0
1343.981689 144.0
1360.162842 176.0
1369.994629 188.0
1380.081421 184.0
1389.91272 168.0
1398.325073 204.0
1401.646362 164.0
1402.205322 176.0
1409.884888 156.0
1411.890381 208.0
1414.110474 208.0
1414.941406 164.0
1419.360962 144.0
1421.274658 204.0
1421.582275 208.0
1423.391479 160.0
1426.674805 148.0
1430.029663 160.0
1432.0625 192.0
1434.194824 200.0
1435.861084 288.0
1436.38147 220.0
1440.306641 168.0
1443.707764 164.0
1461.808105 296.0
1472.183105 148.0
1472.419922 232.0
1476.998169 164.0
1488.862793 168.0
1495.751709 172.0
1497.099121 192.0
1497.484253 144.0
1499.202271 152.0
1503.088745 152.0
1503.436035 180.0
1512.285278 204.0
1514.223267 116.0
1515.258911 232.0
1519.259277 144.0
1523.894165 168.0
1526.13269 196.0
1527.835938 140.0
1529.182129 144.0
1546.376221 156.0
1555.955322 192.0
1558.020752 180.0
1558.924316 184.0
1560.818726 156.0
1562.383911 196.0
1565.46936 180.0
1565.571777 204.0
1565.989136 172.0
1572.170166 196.0
1586.391479 140.0
1587.715576 188.0
1587.961426 164.0
1589.365601 152.0
1589.828369 108.0
1593.724731 204.0
1595.147339 200.0
1595.346069 184.0
1597.294312 184.0
1597.922852 152.0
1610.150757 156.0
1611.834351 160.0
1621.182983 144.0
1621.471436 212.0
1623.114868 144.0
1625.906494 148.0
1626.80542 200.0
1627.897339 192.0
1630.669067 152.0
1631.44873 160.0
1632.944336 172.0
1641.851807 264.0
1642.27124 168.0
1644.950073 148.0
1647.606934 148.0
1661.020752 168.0
1662.375732 196.0
1664.015381 168.0
1669.865112 168.0
1672.764282 220.0
1674.594849 160.0
1675.099854 160.0
1677.128784 164.0
1679.958374 140.0
1684.61145 176.0
1686.278442 168.0
1687.24292 148.0
1689.876465 168.0
1694.248413 152.0
1696.321655 144.0
1698.109131 236.0
1710.071899 152.0
1710.327026 164.0
1711.57019 156.0
1711.858398 156.0
1711.965454 144.0
1712.994995 172.0
1720.532349 176.0
1725.249634 144.0
1726.514648 184.0
1726.886841 156.0
1727.333496 180.0
1731.944092 144.0
1733.311035 192.0
1733.68396 180.0
1734.371826 140.0
1734.446411 164.0
1734.512695 180.0
1736.784668 192.0
1739.19104 216.0
1739.963013 200.0
1749.998169 188.0
1751.880371 144.0
1752.338501 180.0
1754.213623 148.0
1754.963989 204.0
1756.999023 176.0
1757.775024 196.0
1758.108765 156.0
1758.709717 220.0
1758.901733 144.0
1761.56543 220.0
1764.682739 176.0
1764.992065 164.0
1765.259644 236.0
1776.046753 164.0
1777.859009 152.0
1779.067627 168.0
1781.133423 180.0
1781.36853 200.0
1782.10791 140.0
1784.898438 220.0
1785.907715 140.0
1786.016968 140.0
1789.475708 144.0
1790.4104 156.0
1791.404297 144.0
1795.045288 172.0
1795.483887 176.0
1801.578003 192.0
1802.414551 188.0
1803.022949 156.0
1809.189209 156.0
1819.345337 168.0
1821.825073 160.0
1829.453247 188.0
1830.134399 172.0
1830.815552 176.0
1830.92627 168.0
1831.769531 176.0
1833.447998 200.0
1836.858521 240.0
1837.56665 200.0
1837.796997 208.0
1839.802612 240.0
1840.331909 168.0
1842.27063 152.0
1849.325195 176.0
1849.8302 176.0
1850.069946 156.0
1850.762085 188.0
1853.864258 156.0
1855.278564 144.0
1863.641846 168.0
1869.244141 160.0
1871.215332 200.0
1871.335815 192.0
1872.705078 140.0
1875.815674 172.0
1876.255249 184.0
1876.496704 140.0
1877.997192 172.0
1879.791626 148.0
1883.042358 248.0
1886.459351 172.0
1888.301147 156.0
1889.520752 160.0
1889.763062 164.0
1894.481445 196.0
1897.25708 172.0
1897.323975 148.0
1900.22937 172.0
1901.609131 148.0
1902.303467 164.0
1902.503174 260.0
1902.79834 248.0
1902.902466 156.0
1911.14978 172.0
1913.857788 152.0
1914.710327 168.0
1916.174561 148.0
1916.244263 140.0
1917.359741 196.0
1918.536377 220.0
1921.510376 184.0
1924.102417 192.0
1924.303223 160.0
1924.90564 144.0
1932.501465 172.0
1934.146729 156.0
1941.506348 252.0
1942.772095 160.0
1946.622559 192.0
1947.606201 140.0
1953.662842 140.0
1954.199463 164.0
1954.322632 148.0
1958.636353 212.0
1960.354492 140.0
1960.69812 192.0
1961.200562 236.0
1962.725708 144.0
1964.886597 156.0
1966.227783 172.0
1967.949097 140.0
1968.673218 256.0
1973.524414 148.0
1983.909546 140.0
1984.53894 184.0
1984.654297 172.0
1985.567627 176.0
1987.483765 152.0
1989.42749 160.0
1990.821411 204.0
1995.122192 148.0
1998.723999 180.0
1999.293579 160.0
1999.765259 176.0
2002.498657 160.0
2003.202271 188.0
