>compound Lopinavir (ABT-378)
>formula C37H48N4O5
>ionization [M+H]+
>parentmass 629.368652
#inchi InChI=1S/C37H48N4O5/c1-25(2)34(41-20-12-19-38-37(41)45)36(44)39-30(21-28-15-7-5-8-16-28)23-32(42)31(22-29-17-9-6-10-18-29)40-33(43)24-46-35-26(3)13-11-14-27(35)4/h5-11,13-18,25,30-32,34,42H,12,19-24H2,1-4H3,(H,38,45)(H,39,44)(H,40,43)/t30-,31-,32-,34-/m0/s1
#inchikey KJHKTHWMRKYKJE
#Ion_Source LC-ESI
#Instrument qTof
#Compound_Source Commercial
#PI Dorrestein
#Data_Collector Garg_Neha
#Scan -1
#Precursor_MZ 629.37
#ExactMass 628.362
#Charge 1
#CAS_Number 192725-17-0
#Pubmed_ID N/A
#Smiles C1=CC=C(C(=C1C)OCC(N[C@@H](CC2=CC=CC=C2)[C@H](C[C@H](CC3=CC=CC=C3)NC(=O)[C@@H](N4CCCNC4=O)C(C)C)O)=O)C
#INCHI_AUX N/A
#Library_Class 1
#SpectrumID CCMSLIB00000078124
#IonMode Positive
#UpdateWorkflowName UPDATE-SINGLE-ANNOTATED-GOLD
#LibraryQualityString Gold
#TaskID 77f51c88eb8b467eb4a01dd2d0cb90d2
##Scan# 2136
#SpectrumFile Plate2_41_60_GG7_01_16495.mzXML
#LibraryName FDALibrary_2_04302014.mgf
#MQScore -1
#Organism FDALibrary_2_04302014
#TIC_Query 0
#RT_Query -1
#MZErrorPPM -1
#SharedPeaks 0
#MassDiff 0
#LibMZ -1
#SpecMZ 629.37
#SpecCharge 0
#internalFilename spec-00000.mgf

>collision 10
44.895638 188.0
44.995716 200.0
45.057148 144.0
45.193523 148.0
45.244381 164.0
45.374336 140.0
45.445419 160.0
45.467438 108.0
45.491051 176.0
45.696674 176.0
46.09309 172.0
46.148506 144.0
46.198547 152.0
46.24979 180.0
46.325802 184.0
46.506145 152.0
46.572678 176.0
46.667809 200.0
46.699085 144.0
46.76519 164.0
46.814766 144.0
46.840645 176.0
47.215546 244.0
47.284401 144.0
47.51049 144.0
47.532444 188.0
47.595585 188.0
47.745373 168.0
47.760441 176.0
47.811409 176.0
47.827789 160.0
47.924328 176.0
48.229313 164.0
48.244518 184.0
48.256962 148.0
48.409172 208.0
48.45211 184.0
48.488136 144.0
48.499226 236.0
48.564392 212.0
48.671253 176.0
48.722641 168.0
48.778229 148.0
48.835239 244.0
48.85054 144.0
48.864452 160.0
49.077553 140.0
49.127758 156.0
49.145897 220.0
49.166828 180.0
49.205914 184.0
49.222446 200.0
49.298103 152.0
49.423954 180.0
49.550583 236.0
49.560989 184.0
49.58622 188.0
49.652294 144.0
49.673332 248.0
49.860077 180.0
50.006344 216.0
50.033089 144.0
50.061298 112.0
50.166924 220.0
50.262829 160.0
50.837353 144.0
50.879936 144.0
50.919697 176.0
51.151459 220.0
51.17424 156.0
51.245453 164.0
51.30246 192.0
51.452255 168.0
51.692383 240.0
51.733891 168.0
51.798332 148.0
51.814087 268.0
52.009567 192.0
52.032085 180.0
52.099583 224.0
52.157063 176.0
52.172874 168.0
52.30666 156.0
52.388744 164.0
52.434853 152.0
52.499386 152.0
52.536926 172.0
52.683037 228.0
52.748066 144.0
52.768303 236.0
52.782764 196.0
52.803387 200.0
52.834831 168.0
52.869678 144.0
52.905746 172.0
52.936153 192.0
53.014378 212.0
53.127472 148.0
53.246498 160.0
53.409286 160.0
53.557755 200.0
53.690384 176.0
53.758949 148.0
53.896214 200.0
54.077553 156.0
54.106022 192.0
54.128792 188.0
54.191776 164.0
54.254795 152.0
54.273857 144.0
54.335457 208.0
54.348663 184.0
54.379478 168.0
54.42205 164.0
54.593281 152.0
54.651344 176.0
54.68961 156.0
54.699913 176.0
54.749466 116.0
54.769119 180.0
54.853111 232.0
54.959297 204.0
54.985859 212.0
55.170498 148.0
55.189716 168.0
55.210419 200.0
55.250648 184.0
55.265152 148.0
55.29031 196.0
55.390991 204.0
55.442848 160.0
55.571857 216.0
55.629738 212.0
55.864532 144.0
56.207878 168.0
56.439571 224.0
56.523994 236.0
56.595844 168.0
56.673733 184.0
56.85918 144.0
57.051945 152.0
57.137669 192.0
57.15723 172.0
57.230324 200.0
57.339447 184.0
57.405781 172.0
57.443485 160.0
57.574799 212.0
57.751629 172.0
57.78672 164.0
57.916615 156.0
58.053017 268.0
58.071217 220.0
58.159328 168.0
58.351021 124.0
58.37825 168.0
58.438843 184.0
58.466858 136.0
58.484497 144.0
58.505806 192.0
58.589569 168.0
58.657825 172.0
58.670902 212.0
58.694733 176.0
58.728287 144.0
59.021503 144.0
59.038322 176.0
59.04903 148.0
59.093391 208.0
59.142754 140.0
59.283264 200.0
59.344578 200.0
59.43047 152.0
59.731586 204.0
59.793133 168.0
60.019585 184.0
60.169247 172.0
60.195496 156.0
60.492348 152.0
60.768547 164.0
60.781883 236.0
60.838047 216.0
61.04314 200.0
61.099133 152.0
61.242348 144.0
61.25481 200.0
61.323368 160.0
61.340515 236.0
61.537083 224.0
61.641735 152.0
61.65424 140.0
61.752735 248.0
61.848179 204.0
61.9296 212.0
62.05183 276.0
62.126347 140.0
62.247963 220.0
62.434971 156.0
62.615959 148.0
62.716797 196.0
62.762516 148.0
62.899769 148.0
63.060474 288.0
63.071945 184.0
63.084591 148.0
63.113049 148.0
63.242775 160.0
63.260185 164.0
63.271267 236.0
63.298183 200.0
63.361542 200.0
63.651798 156.0
63.915665 188.0
63.961819 140.0
64.039841 152.0
64.082855 152.0
64.114723 248.0
64.154572 228.0
64.54734 160.0
64.743271 196.0
64.861542 188.0
64.918854 160.0
65.106613 200.0
65.193367 152.0
65.31073 140.0
65.404053 268.0
65.446106 264.0
65.582031 200.0
65.626373 196.0
65.687653 172.0
65.868446 208.0
65.903992 216.0
66.083466 196.0
66.094788 144.0
66.326385 232.0
66.475594 204.0
66.509674 180.0
66.550262 172.0
66.613602 160.0
66.706223 164.0
66.862373 164.0
66.984489 168.0
67.012184 220.0
67.023781 168.0
67.087151 168.0
67.477333 172.0
67.694962 164.0
67.865372 184.0
67.916733 200.0
67.939919 240.0
68.054062 220.0
68.12735 224.0
68.144394 176.0
68.335121 208.0
68.358154 256.0
68.418968 156.0
68.471748 168.0
68.728912 140.0
69.292725 148.0
69.503296 172.0
69.537041 144.0
69.577988 156.0
69.9254 160.0
70.042107 172.0
70.090263 172.0
70.238647 144.0
70.388847 176.0
70.412231 156.0
70.502449 220.0
70.652931 204.0
70.733261 160.0
70.783485 156.0
70.843498 160.0
70.900749 236.0
70.99295 204.0
71.133888 204.0
71.246407 148.0
71.278328 176.0
71.342194 188.0
71.379189 192.0
71.542389 192.0
71.786697 180.0
71.800194 204.0
71.863495 152.0
71.89402 356.0
71.950371 168.0
72.070282 192.0
72.201973 288.0
72.23597 192.0
72.569603 200.0
72.910797 236.0
73.164238 156.0
73.46759 176.0
73.532433 180.0
73.61438 208.0
73.658554 180.0
73.79892 340.0
73.81089 140.0
73.848511 160.0
74.083023 248.0
74.096848 168.0
74.285309 160.0
74.426041 176.0
74.463821 156.0
74.876587 176.0
74.96962 160.0
75.06443 204.0
75.390701 164.0
75.440826 148.0
75.485779 204.0
75.56015 204.0
75.612068 232.0
75.702087 144.0
75.774239 116.0
75.840691 252.0
76.029739 240.0
76.106117 156.0
76.187744 140.0
76.220757 152.0
76.239876 144.0
76.265945 180.0
76.450294 160.0
76.728996 172.0
76.910416 176.0
77.009941 200.0
77.045891 232.0
77.100792 164.0
77.28965 168.0
77.343903 164.0
77.369705 152.0
77.493881 156.0
77.554092 196.0
77.608444 204.0
77.72596 212.0
77.757553 140.0
77.800705 180.0
77.898018 176.0
78.089615 156.0
78.218056 204.0
78.246223 184.0
78.267357 180.0
78.316666 148.0
78.529938 148.0
78.787659 156.0
78.88662 156.0
78.925514 148.0
78.955574 180.0
78.982109 204.0
79.518974 144.0
79.790756 180.0
79.840546 172.0
80.007805 164.0
80.057663 160.0
80.376747 152.0
80.396378 160.0
80.501701 164.0
80.551712 152.0
80.647858 124.0
80.691017 164.0
80.742966 148.0
80.80378 160.0
81.327049 168.0
81.387215 164.0
81.452744 152.0
81.630669 192.0
81.691818 156.0
81.803391 152.0
81.999725 196.0
82.16021 168.0
82.231529 172.0
82.261269 168.0
82.312286 236.0
82.559395 160.0
82.623108 196.0
82.67337 172.0
83.110077 164.0
83.130043 148.0
83.144562 164.0
83.222618 164.0
83.793724 152.0
83.917656 216.0
83.93042 164.0
83.968719 208.0
84.039864 160.0
84.070885 172.0
84.151199 188.0
84.238861 200.0
84.413445 184.0
84.529564 156.0
84.586296 200.0
84.646721 144.0
84.773117 148.0
84.804268 156.0
84.828102 240.0
84.855148 228.0
84.895943 208.0
85.106964 216.0
85.178589 140.0
85.224518 164.0
85.277122 192.0
85.434113 160.0
85.492989 192.0
85.56662 224.0
85.747139 148.0
85.804039 120.0
85.828255 200.0
86.028999 164.0
86.066284 176.0
86.182648 164.0
86.354568 192.0
86.461449 208.0
86.671135 140.0
86.818932 164.0
86.865799 180.0
87.233482 188.0
87.320877 188.0
87.402725 152.0
88.148605 244.0
88.195335 172.0
88.483414 192.0
88.680107 176.0
88.79554 148.0
88.899536 184.0
89.391884 188.0
89.472824 148.0
89.715851 184.0
89.746017 236.0
89.842201 160.0
89.944099 148.0
89.996964 196.0
90.049614 132.0
90.253105 328.0
90.29879 172.0
90.322021 196.0
90.376884 148.0
90.404968 180.0
90.588928 188.0
90.615448 172.0
90.676086 168.0
90.782249 164.0
90.935921 184.0
90.975922 112.0
91.013756 224.0
91.056389 152.0
91.194229 192.0
91.565239 228.0
91.633812 180.0
91.736725 156.0
91.755791 192.0
91.940819 412.0
92.015259 176.0
92.219658 148.0
92.47213 164.0
92.77861 216.0
92.791939 168.0
93.03376 240.0
93.133614 168.0
93.16819 232.0
93.248901 212.0
93.32579 188.0
93.416183 140.0
93.443665 196.0
93.579773 200.0
93.710739 148.0
93.792694 228.0
93.809029 176.0
93.857231 232.0
94.034706 164.0
94.109993 180.0
94.143394 256.0
94.334106 172.0
94.537193 156.0
94.740494 184.0
94.818001 164.0
94.839317 160.0
94.862579 172.0
94.91687 208.0
95.011909 196.0
95.182709 224.0
95.450867 140.0
95.553947 184.0
95.699928 188.0
95.984406 156.0
96.089043 220.0
96.185783 200.0
96.220497 184.0
96.354607 120.0
96.378433 148.0
96.437325 160.0
97.010002 192.0
97.073601 192.0
97.130478 232.0
97.175598 152.0
97.277649 176.0
97.916687 176.0
98.015182 144.0
98.030952 196.0
98.074989 208.0
98.157112 140.0
98.44976 212.0
98.476814 212.0
98.596306 184.0
98.661217 188.0
99.05439 156.0
99.201035 196.0
99.230774 172.0
99.28611 172.0
99.308113 140.0
99.472801 220.0
99.504562 184.0
99.5979 140.0
99.653526 148.0
99.762833 192.0
99.900047 172.0
99.943817 172.0
99.987602 208.0
100.021439 180.0
100.049301 240.0
100.06324 144.0
100.148872 196.0
100.171806 140.0
100.258446 180.0
100.413956 196.0
100.433899 140.0
100.691376 144.0
100.943176 148.0
101.069244 752.0
101.151253 184.0
101.16526 176.0
101.309448 164.0
101.527931 156.0
101.822945 152.0
101.949516 180.0
102.561356 196.0
102.817505 164.0
102.928535 212.0
102.991142 216.0
103.058144 888.0
103.158859 156.0
103.231644 172.0
103.27816 180.0
103.328735 160.0
103.460281 160.0
103.63446 164.0
103.798645 172.0
103.914261 148.0
103.944695 156.0
103.976082 180.0
104.076637 160.0
104.125374 176.0
104.155716 200.0
104.363129 196.0
104.489235 160.0
104.625587 180.0
104.788521 236.0
104.837425 236.0
104.906723 176.0
105.007858 180.0
105.045387 196.0
105.07048 504.0
105.161697 264.0
105.188232 156.0
105.416985 172.0
105.472702 168.0
105.789742 176.0
105.965355 140.0
106.071922 188.0
106.106773 160.0
106.213409 176.0
106.352943 160.0
106.566513 244.0
106.597336 156.0
106.687775 164.0
106.759735 152.0
107.105507 176.0
107.130226 152.0
107.195595 204.0
107.214706 172.0
107.305405 168.0
107.427078 180.0
107.565338 296.0
107.810699 156.0
107.966171 220.0
108.144104 176.0
108.204132 176.0
108.218628 384.0
108.286964 220.0
108.548088 180.0
108.805374 160.0
109.133644 168.0
109.227226 164.0
109.331261 188.0
109.364555 188.0
109.466576 144.0
109.870934 180.0
110.021622 140.0
110.083832 196.0
110.099113 188.0
110.21125 168.0
110.345016 152.0
110.365929 224.0
110.397293 140.0
110.441216 160.0
110.462128 196.0
110.552696 252.0
110.750954 196.0
110.864128 140.0
110.891373 148.0
110.975227 192.0
111.015068 176.0
111.59462 176.0
111.764984 160.0
111.939697 140.0
111.979713 360.0
112.112663 492.0
112.171455 188.0
112.226273 148.0
112.276878 176.0
112.475212 140.0
112.760353 156.0
112.785713 204.0
112.880852 140.0
112.929497 220.0
113.071396 344.0
113.114052 144.0
113.501289 156.0
113.579758 148.0
113.857803 188.0
113.874794 140.0
113.987389 184.0
114.129807 204.0
114.404259 148.0
114.495819 228.0
114.532028 192.0
114.580521 152.0
115.011787 152.0
115.036186 132.0
115.159729 148.0
115.221062 144.0
115.300125 172.0
115.335106 240.0
115.447632 164.0
115.857132 240.0
116.051491 176.0
116.128693 140.0
116.249603 200.0
116.680565 168.0
116.775177 208.0
116.975288 180.0
117.070602 1464.0
117.09156 148.0
117.113098 176.0
117.481705 176.0
117.930855 152.0
118.001579 184.0
118.054085 212.0
118.110313 180.0
118.144928 196.0
118.203346 144.0
118.315895 140.0
118.710243 160.0
118.833878 140.0
119.331253 216.0
119.373734 164.0
119.472618 232.0
119.618423 140.0
119.738174 156.0
119.842743 148.0
119.875427 256.0
119.897217 188.0
119.954102 164.0
120.019745 172.0
120.036736 188.0
120.081474 19664.0
120.30127 164.0
120.444862 260.0
120.527878 188.0
121.052864 184.0
121.084862 1548.0
121.114189 172.0
121.305618 156.0
121.333328 176.0
121.399467 148.0
121.592163 192.0
121.631035 152.0
121.862267 244.0
121.932579 180.0
122.087654 380.0
122.365929 160.0
122.434189 168.0
122.678764 240.0
122.890488 204.0
123.022911 216.0
123.078964 196.0
123.226089 168.0
123.349846 152.0
124.073746 204.0
124.375435 180.0
124.413177 148.0
124.464241 156.0
124.497551 204.0
124.807625 200.0
124.839783 140.0
124.928749 168.0
124.988388 204.0
125.026657 184.0
125.045044 136.0
125.097878 180.0
125.304993 196.0
125.43425 168.0
125.501129 156.0
125.590332 164.0
125.623795 228.0
125.69519 172.0
125.788925 148.0
126.12709 196.0
126.233536 144.0
126.280502 156.0
126.638618 180.0
126.952377 196.0
127.107162 192.0
127.250816 180.0
127.296684 420.0
127.365349 148.0
127.440269 96.0
127.517853 160.0
127.659767 192.0
127.742989 212.0
127.787979 164.0
128.059113 228.0
128.148224 180.0
128.356812 148.0
128.432266 184.0
128.592468 216.0
128.784561 160.0
128.969208 200.0
129.001312 144.0
129.071014 820.0
129.13472 264.0
129.222946 184.0
129.295349 180.0
129.333832 208.0
129.437973 236.0
129.504547 224.0
129.703049 212.0
129.785385 148.0
129.816406 152.0
129.985321 104.0
130.065964 204.0
130.209351 164.0
130.361221 164.0
130.613586 172.0
130.640884 144.0
130.822937 320.0
131.085281 1004.0
131.203659 204.0
131.260391 172.0
131.406372 176.0
131.572983 176.0
131.705429 192.0
131.847809 176.0
131.908798 200.0
131.945374 176.0
132.083557 692.0
132.256485 356.0
132.345764 228.0
132.375534 176.0
132.622971 164.0
132.645889 164.0
132.710083 164.0
132.789612 188.0
133.011414 172.0
133.064682 144.0
133.094925 176.0
133.205795 200.0
133.235657 192.0
133.281616 168.0
133.364349 176.0
133.559128 248.0
133.621902 152.0
133.951752 200.0
134.097061 340.0
134.186172 228.0
134.287628 152.0
134.340683 152.0
134.529922 176.0
134.788589 144.0
134.838715 180.0
134.943466 172.0
135.016022 168.0
135.08017 2260.0
135.39006 188.0
135.621429 228.0
135.642609 148.0
135.693604 140.0
135.990158 148.0
136.060181 184.0
136.084885 416.0
136.249161 312.0
136.285461 180.0
136.466766 172.0
136.51326 140.0
136.606293 212.0
136.811081 188.0
136.853256 308.0
137.272415 176.0
137.38205 160.0
137.466034 140.0
137.524384 156.0
137.557068 176.0
137.711166 220.0
137.835785 212.0
137.905106 144.0
138.0103 156.0
138.029007 148.0
138.25592 180.0
138.293365 144.0
138.387009 164.0
138.410416 180.0
138.611862 164.0
138.820496 144.0
138.913452 136.0
138.989395 172.0
139.125519 168.0
139.221786 224.0
139.358032 160.0
139.597794 164.0
139.760101 156.0
139.979004 160.0
140.075577 196.0
140.200455 144.0
140.450363 176.0
140.613174 160.0
140.972229 220.0
141.073776 168.0
141.227478 172.0
141.84549 168.0
142.01384 160.0
142.289352 196.0
142.321198 108.0
142.70726 164.0
142.865005 260.0
143.082382 132.0
143.237976 188.0
143.29277 264.0
143.457199 240.0
143.492966 144.0
143.616974 200.0
143.634033 156.0
143.886627 148.0
144.050858 160.0
144.080612 196.0
144.519989 168.0
144.64444 180.0
144.797684 176.0
144.857559 180.0
145.095947 152.0
145.152359 164.0
145.278793 184.0
145.317856 236.0
145.432098 152.0
145.449844 148.0
145.562683 184.0
145.954575 232.0
146.045746 144.0
146.099335 204.0
146.216583 160.0
146.330322 192.0
146.650101 200.0
147.072037 180.0
147.316086 188.0
147.516663 196.0
147.642395 188.0
147.940002 172.0
148.117935 388.0
148.402756 144.0
148.451248 152.0
148.837082 184.0
148.960938 204.0
149.043549 164.0
149.230698 204.0
149.276901 152.0
149.546951 224.0
149.734421 152.0
149.904953 172.0
149.958572 252.0
150.090271 152.0
150.120575 212.0
150.268265 172.0
150.370758 168.0
150.541641 144.0
150.671097 204.0
150.917953 228.0
150.935074 188.0
151.091599 212.0
151.194382 172.0
151.213959 444.0
151.348602 204.0
151.594681 236.0
151.901733 212.0
152.24855 240.0
152.266266 192.0
152.2854 252.0
152.445084 168.0
152.516357 200.0
152.663361 228.0
152.868057 184.0
152.902512 144.0
153.000977 148.0
153.072372 180.0
153.155304 160.0
153.395126 200.0
153.482117 156.0
153.612137 236.0
153.863846 180.0
153.900879 152.0
153.94191 104.0
154.093536 212.0
154.199799 176.0
154.365433 156.0
154.412415 200.0
154.452209 176.0
154.498993 160.0
154.541916 196.0
154.560852 260.0
154.583115 212.0
154.608353 140.0
154.637558 160.0
154.753906 208.0
154.773712 240.0
154.80072 284.0
154.838028 132.0
154.881943 188.0
154.91713 204.0
154.952057 264.0
154.973007 228.0
154.991699 180.0
155.02597 224.0
155.055161 396.0
155.090775 480.0
155.118774 169080.0
155.221466 132.0
155.245651 128.0
155.283981 136.0
155.347305 120.0
155.407013 176.0
155.469376 96.0
155.526291 396.0
155.609177 164.0
155.634842 112.0
155.672318 200.0
155.80603 244.0
155.964081 228.0
156.000198 260.0
156.041214 128.0
156.121552 15604.0
156.189819 116.0
156.30867 108.0
156.353531 120.0
156.40979 184.0
156.507736 152.0
156.59404 232.0
157.024765 180.0
157.037506 112.0
157.122849 968.0
157.184875 148.0
157.245834 140.0
157.289841 132.0
157.326126 116.0
157.374817 112.0
157.416138 112.0
157.464478 104.0
157.494553 104.0
157.579391 160.0
158.01886 180.0
158.095139 860.0
158.159561 168.0
158.227158 152.0
158.26799 244.0
158.338974 188.0
158.715729 164.0
159.102463 384.0
159.12471 188.0
159.302246 100.0
159.476929 208.0
160.109787 616.0
160.35228 148.0
160.740646 188.0
161.109283 272.0
161.706039 148.0
162.092377 396.0
162.11377 196.0
162.230362 224.0
162.364761 156.0
162.445923 160.0
162.596802 156.0
163.073578 672.0
163.093719 328.0
163.121399 156.0
163.230728 176.0
163.915054 196.0
164.074875 152.0
164.104095 176.0
164.495209 196.0
164.527603 176.0
164.793228 212.0
164.867325 172.0
165.460754 236.0
166.011658 216.0
166.573746 164.0
166.602005 172.0
167.088669 424.0
167.195969 160.0
167.394196 192.0
168.392227 240.0
168.523987 160.0
169.364746 164.0
169.508148 244.0
169.634247 188.0
170.031097 184.0
170.368652 144.0
170.394623 192.0
170.583466 132.0
170.631134 148.0
170.68573 164.0
170.807968 152.0
171.00032 160.0
171.103012 664.0
171.148895 160.0
171.349457 192.0
171.844833 184.0
171.923111 188.0
172.001404 176.0
172.077118 152.0
172.111404 1360.0
172.163284 152.0
173.036636 140.0
173.079376 136.0
173.118301 360.0
173.183289 204.0
174.043457 160.0
174.087631 156.0
174.123444 192.0
174.156387 208.0
174.466461 184.0
175.688416 204.0
175.991943 280.0
176.039459 168.0
176.137192 164.0
176.244431 128.0
176.390869 144.0
176.422577 180.0
176.718796 200.0
176.937271 176.0
177.110596 152.0
177.457764 148.0
177.768097 156.0
177.947876 176.0
178.118561 216.0
178.182327 172.0
178.408218 216.0
178.432144 212.0
178.474686 184.0
178.817856 216.0
178.881744 180.0
179.34523 228.0
179.766617 152.0
179.988174 216.0
180.100983 2828.0
180.417038 216.0
180.485428 208.0
180.712524 208.0
180.950729 140.0
181.072906 188.0
181.105621 496.0
181.221237 144.0
181.29895 160.0
181.424927 160.0
181.66629 148.0
181.905121 184.0
181.95076 172.0
182.131622 132.0
182.167511 148.0
182.423782 100.0
182.553833 128.0
182.573776 148.0
182.67366 244.0
182.738281 128.0
182.778595 140.0
182.82164 212.0
182.880707 136.0
182.945389 160.0
182.972794 444.0
183.004761 148.0
183.043793 284.0
183.053421 168.0
183.066574 340.0
183.11412 144844.0
183.286896 176.0
183.315506 124.0
183.435013 148.0
183.458939 112.0
183.488235 176.0
183.53006 160.0
183.556961 1016.0
183.655167 160.0
183.728973 212.0
183.751221 212.0
183.992554 120.0
184.026566 304.0
184.083771 172.0
184.116165 16636.0
184.172256 128.0
184.391541 108.0
184.482254 168.0
184.522858 196.0
184.606079 316.0
184.709717 204.0
185.047775 108.0
185.118179 1028.0
185.182419 128.0
185.24292 212.0
185.277435 104.0
185.298355 216.0
185.333374 276.0
185.39418 96.0
185.485916 184.0
185.521637 256.0
185.588669 96.0
185.685394 228.0
185.730057 128.0
185.895035 216.0
186.086868 140.0
186.118607 144.0
186.935074 192.0
187.098114 272.0
187.997864 144.0
188.025146 144.0
189.109787 348.0
189.658005 168.0
190.12648 200.0
190.491196 108.0
190.780731 196.0
191.304657 132.0
192.080505 144.0
192.103516 272.0
192.210175 164.0
193.301682 164.0
193.982697 144.0
195.299194 144.0
195.814102 156.0
196.603088 144.0
198.040146 172.0
198.115784 168.0
198.202637 156.0
198.323135 96.0
198.578293 168.0
198.948685 180.0
199.123962 196.0
199.309631 148.0
199.819901 160.0
200.022522 156.0
200.111618 168.0
200.464706 144.0
202.040237 148.0
204.748184 160.0
205.098755 180.0
206.63501 152.0
207.359482 204.0
208.162766 140.0
208.659851 164.0
210.249344 108.0
210.899719 140.0
211.07608 212.0
211.102097 160.0
211.538986 160.0
212.467606 156.0
215.351089 140.0
215.50592 196.0
215.745575 148.0
216.957581 160.0
217.112991 212.0
217.7146 172.0
217.95549 140.0
218.122849 408.0
219.102951 140.0
219.123581 144.0
219.155991 224.0
219.471375 180.0
220.541489 132.0
221.110886 144.0
221.679489 180.0
222.400177 148.0
223.127975 144.0
223.368851 176.0
225.124191 156.0
226.066025 160.0
226.116898 156.0
226.275543 184.0
227.009659 140.0
227.901169 172.0
228.036407 156.0
229.752792 224.0
230.130051 164.0
230.62851 156.0
231.227371 152.0
231.917923 188.0
232.124084 196.0
232.236298 144.0
232.258957 220.0
233.13205 1288.0
234.135757 512.0
234.193329 120.0
234.355194 144.0
234.382614 140.0
234.917114 164.0
235.010727 188.0
235.12059 160.0
236.134903 204.0
236.336807 152.0
237.390533 196.0
237.91214 196.0
238.431244 168.0
239.227905 140.0
241.276337 140.0
242.792847 116.0
243.964188 156.0
244.857224 212.0
245.159409 140.0
245.755005 164.0
245.823639 152.0
245.901672 172.0
247.408325 140.0
248.145432 176.0
248.21669 176.0
248.43309 156.0
249.146896 348.0
249.705246 140.0
249.74614 140.0
250.031723 228.0
250.158722 7888.0
250.366165 232.0
250.431564 120.0
250.557938 104.0
251.159897 1580.0
251.845352 140.0
252.169205 316.0
252.34465 184.0
252.473633 168.0
253.678635 152.0
254.15596 120.0
255.354019 164.0
255.694443 148.0
255.727982 164.0
255.93956 192.0
256.321808 180.0
256.916199 244.0
257.371246 172.0
257.556458 216.0
258.109375 144.0
258.346039 140.0
259.697815 172.0
261.567902 144.0
261.664459 228.0
261.844788 164.0
262.157532 344.0
263.168091 560.0
264.166229 496.0
264.706085 156.0
264.887451 144.0
265.665466 252.0
266.148682 144.0
266.343903 212.0
267.006958 176.0
267.184052 144.0
268.169952 300.0
269.181213 172.0
270.362488 200.0
270.404633 160.0
270.471039 176.0
271.140167 144.0
271.438507 140.0
271.740265 192.0
272.492126 232.0
272.824066 140.0
273.600464 212.0
274.476868 220.0
274.52713 228.0
274.778564 196.0
274.968323 160.0
276.190918 228.0
276.658051 168.0
277.170868 156.0
277.313354 240.0
277.548737 176.0
279.448639 168.0
279.664948 148.0
279.983582 228.0
280.041168 168.0
280.165466 120.0
280.204407 204.0
280.364349 216.0
280.981232 196.0
281.264893 224.0
281.331635 156.0
282.145538 664.0
282.608337 148.0
282.943024 160.0
283.013336 200.0
283.144928 308.0
283.921448 152.0
284.157654 192.0
284.350891 148.0
284.552307 204.0
284.945251 140.0
285.571899 144.0
285.62265 104.0
286.47934 220.0
288.132416 144.0
288.223633 152.0
289.427521 136.0
290.154236 540.0
290.184631 324.0
291.157379 172.0
291.442627 180.0
292.187622 144.0
293.062225 184.0
293.529205 140.0
294.148773 188.0
294.18103 140.0
294.638489 220.0
295.153473 240.0
295.246918 224.0
295.814911 164.0
296.156036 192.0
296.287506 148.0
296.503387 176.0
297.370331 128.0
297.494659 148.0
297.607971 148.0
298.157593 176.0
300.243896 140.0
300.79248 140.0
300.86499 172.0
301.054871 164.0
301.87735 184.0
302.181732 204.0
302.673248 168.0
302.770203 156.0
306.142334 164.0
306.448853 148.0
306.640533 144.0
307.481049 148.0
308.170166 196.0
308.934631 208.0
308.990601 152.0
309.175476 196.0
309.205048 268.0
309.820343 180.0
310.178772 6264.0
310.435822 140.0
310.493317 156.0
311.179932 2740.0
311.231598 144.0
311.848541 184.0
312.164948 612.0
312.558929 176.0
312.675049 156.0
312.923492 208.0
313.122864 144.0
313.164337 116.0
313.28421 184.0
313.548492 144.0
314.656097 144.0
314.800873 204.0
315.002197 164.0
315.36615 152.0
315.518158 168.0
316.257477 152.0
316.493652 120.0
316.569031 156.0
317.068542 140.0
317.483337 148.0
318.907013 168.0
319.803314 168.0
320.016907 168.0
320.145111 148.0
320.514801 144.0
320.87915 184.0
321.649689 180.0
322.481964 168.0
322.585602 168.0
322.792969 216.0
323.006226 172.0
323.254425 196.0
324.2966 164.0
324.447144 200.0
325.125092 180.0
325.16098 180.0
325.649261 164.0
325.925873 164.0
326.562195 168.0
327.175415 108.0
327.988037 164.0
328.366638 156.0
329.456726 164.0
329.904846 236.0
330.649994 164.0
331.475677 140.0
332.306 152.0
332.653381 140.0
332.697968 180.0
333.150055 136.0
333.420807 184.0
333.762512 220.0
334.635742 184.0
335.357056 232.0
335.991547 252.0
336.148438 172.0
337.287933 164.0
337.698334 180.0
337.971832 148.0
338.682037 172.0
338.764404 180.0
339.228027 156.0
340.152435 204.0
340.604187 148.0
340.868622 156.0
341.177368 140.0
341.302368 164.0
341.544495 196.0
341.633362 156.0
342.174377 140.0
342.476349 164.0
342.855835 168.0
343.353516 168.0
343.423615 148.0
343.754913 144.0
343.925415 152.0
344.137207 200.0
344.171082 172.0
345.869659 180.0
346.221405 184.0
346.67337 160.0
349.052856 168.0
349.09375 152.0
349.168152 140.0
353.738922 176.0
354.181671 152.0
355.177856 176.0
356.10495 200.0
356.296509 232.0
356.386597 148.0
358.098358 140.0
358.818085 160.0
359.500824 204.0
359.783905 156.0
361.571808 240.0
361.7005 156.0
362.457947 152.0
363.049316 188.0
364.206879 248.0
365.594604 152.0
367.057434 176.0
367.221405 176.0
367.89682 144.0
367.950256 180.0
368.026611 192.0
368.091522 144.0
368.523926 180.0
368.58429 144.0
368.691284 144.0
368.790649 156.0
370.010956 156.0
370.129852 140.0
370.185303 216.0
370.298157 148.0
370.451355 144.0
371.279266 152.0
372.384583 196.0
372.991699 172.0
374.242004 172.0
375.024017 148.0
375.139679 200.0
376.046143 192.0
376.81073 144.0
377.231964 140.0
377.444611 140.0
378.102264 164.0
379.035522 152.0
380.377441 192.0
380.808441 176.0
381.710052 144.0
381.78006 304.0
382.134308 164.0
382.414215 168.0
383.391754 148.0
384.039062 140.0
384.23172 2664.0
384.764893 140.0
384.835052 148.0
385.194366 172.0
385.234161 1200.0
386.022919 148.0
386.097229 156.0
386.236542 180.0
387.200867 168.0
387.408478 180.0
387.672913 116.0
387.945374 184.0
388.247284 216.0
388.294342 172.0
388.333557 216.0
388.361023 164.0
388.447296 144.0
388.526703 136.0
388.612091 160.0
390.179169 212.0
390.249939 144.0
390.599945 144.0
390.682556 164.0
391.670624 172.0
392.671753 160.0
393.35437 144.0
393.567566 248.0
393.966888 180.0
394.21933 144.0
395.670959 140.0
395.750153 140.0
396.276917 164.0
396.334259 108.0
396.379944 236.0
396.455231 144.0
396.661346 144.0
397.810059 132.0
398.276337 152.0
398.465698 120.0
398.733246 180.0
399.321655 172.0
399.822968 140.0
400.535645 180.0
400.842438 188.0
401.23703 168.0
401.524139 208.0
401.899109 156.0
401.970917 204.0
402.493835 156.0
403.648651 208.0
404.825165 164.0
405.454132 184.0
405.51825 224.0
406.067535 296.0
406.135712 140.0
406.54895 140.0
406.786499 176.0
407.970825 140.0
408.073059 156.0
410.335022 200.0
410.491302 144.0
410.882538 144.0
411.235413 280.0
411.851379 148.0
412.22644 1444.0
412.864349 192.0
413.226837 660.0
413.557678 164.0
413.679108 164.0
413.901794 260.0
414.241852 108.0
415.328339 244.0
415.743713 160.0
415.778717 184.0
415.823364 160.0
417.398804 164.0
417.471619 196.0
417.733093 196.0
418.245819 240.0
418.465332 168.0
418.836212 144.0
418.946198 160.0
419.153992 156.0
420.801849 172.0
422.435394 140.0
422.694336 200.0
423.15686 164.0
423.349304 264.0
423.439392 176.0
423.881836 200.0
424.176941 164.0
424.886383 144.0
425.522522 172.0
425.924988 152.0
426.181305 100.0
426.529022 184.0
426.631775 144.0
426.676208 168.0
426.992432 124.0
427.051208 168.0
427.45517 144.0
427.6698 200.0
427.826233 140.0
427.952942 164.0
428.125397 176.0
428.389008 164.0
428.73288 252.0
428.8414 196.0
428.971558 140.0
429.006805 100.0
429.167969 200.0
429.25412 44580.0
429.578339 128.0
429.822479 124.0
429.904297 164.0
429.981354 196.0
430.15863 152.0
430.256042 10568.0
430.348877 120.0
430.613464 96.0
430.708069 104.0
430.973999 184.0
431.00473 140.0
431.087372 188.0
431.258575 2240.0
431.396973 184.0
431.537933 224.0
431.607605 108.0
431.851776 232.0
432.25531 168.0
432.590118 96.0
432.684631 176.0
432.73642 236.0
432.780243 120.0
432.846771 124.0
433.263489 112.0
433.436188 104.0
434.001526 108.0
434.279358 192.0
434.752655 160.0
434.971313 180.0
435.429047 208.0
435.5578 176.0
435.66449 176.0
436.064697 160.0
437.749176 156.0
438.166138 252.0
438.236969 140.0
439.187439 156.0
439.487823 192.0
440.397888 156.0
441.135834 180.0
441.287994 252.0
441.785675 176.0
442.099487 156.0
442.241791 160.0
443.418945 140.0
443.540283 144.0
443.850525 204.0
443.951141 180.0
444.447723 128.0
444.639191 196.0
444.870026 168.0
445.129608 96.0
445.223053 320.0
445.279602 104.0
445.384796 96.0
445.449799 140.0
445.549652 196.0
445.562958 188.0
445.61499 148.0
445.665283 136.0
445.806366 228.0
445.869385 100.0
445.932343 124.0
446.008911 100.0
446.057678 268.0
446.124725 236.0
446.196136 164.0
446.26358 144.0
446.365479 236.0
446.417206 212.0
446.48465 136.0
446.535614 144.0
446.585754 132.0
446.686401 120.0
446.728943 96.0
446.793396 132.0
446.845856 196.0
446.940643 580.0
446.965637 168.0
447.045959 420.0
447.105499 420.0
447.141815 496.0
447.189484 364.0
447.265472 174520.0
447.370667 280.0
447.383698 196.0
447.397919 232.0
447.49469 132.0
447.5354 172.0
447.572418 184.0
447.618408 220.0
447.65509 284.0
447.729675 472.0
447.776886 212.0
447.893036 228.0
447.959442 1408.0
448.017792 260.0
448.077545 164.0
448.108276 300.0
448.156921 196.0
448.208313 576.0
448.26767 73348.0
448.399811 324.0
448.433105 172.0
448.536194 156.0
448.595459 184.0
448.64267 152.0
448.678589 184.0
448.736633 144.0
448.822601 292.0
448.906677 200.0
448.963318 292.0
448.998535 164.0
449.074066 164.0
449.188049 148.0
449.269928 8720.0
449.390869 136.0
449.476654 124.0
449.636688 156.0
449.686676 204.0
449.960602 136.0
450.099762 120.0
450.276154 1180.0
450.398773 256.0
450.544495 260.0
450.605499 120.0
450.621704 148.0
450.726044 368.0
450.7724 240.0
450.816681 372.0
450.895081 104.0
450.928864 260.0
450.974976 248.0
451.018097 244.0
451.038879 176.0
451.053406 264.0
451.130615 196.0
451.634308 132.0
451.705841 120.0
451.867584 156.0
451.917786 116.0
452.024841 204.0
452.093964 228.0
452.156525 144.0
452.202606 156.0
452.695587 100.0
453.364929 164.0
453.501923 172.0
459.260956 196.0
464.364532 112.0
464.769867 200.0
466.229095 108.0
472.609924 168.0
484.386597 220.0
485.144684 164.0
485.212158 196.0
488.517365 152.0
500.627411 148.0
500.916931 200.0
501.732452 156.0
505.394836 144.0
515.19165 164.0
515.968994 168.0
518.61261 152.0
524.444214 168.0
526.50647 168.0
529.694397 188.0
531.408997 152.0
535.707581 152.0
540.916504 140.0
553.725891 144.0
560.900635 184.0
565.141602 168.0
565.588196 104.0
578.807434 172.0
586.817261 152.0
595.187927 156.0
598.38147 108.0
599.449097 180.0
601.351074 144.0
601.712341 176.0
602.532837 152.0
603.011719 148.0
607.517151 132.0
607.567383 148.0
609.02356 156.0
609.131653 156.0
609.352722 196.0
609.448853 116.0
609.773804 128.0
609.952271 252.0
610.069824 104.0
610.297974 116.0
610.998291 180.0
611.116394 132.0
611.147339 292.0
611.217163 152.0
611.359009 28296.0
611.515808 176.0
611.604736 280.0
611.726501 104.0
611.883301 144.0
611.963135 152.0
612.064331 108.0
612.132263 128.0
612.209656 196.0
612.36084 11552.0
612.490112 172.0
612.552063 144.0
612.683411 140.0
612.851807 220.0
612.89447 152.0
613.052979 176.0
613.364075 3052.0
614.353882 284.0
614.761047 280.0
614.871521 120.0
615.111938 104.0
616.923218 100.0
617.206909 112.0
621.822754 140.0
624.053711 136.0
627.597046 160.0
627.768738 112.0
628.087891 140.0
628.614624 172.0
628.684753 132.0
629.368652 16000.0
629.838257 172.0
629.992676 144.0
630.190552 136.0
630.294312 108.0
630.372253 6932.0
630.48175 120.0
630.562805 244.0
630.675476 124.0
630.847229 192.0
630.994263 116.0
631.371887 1636.0
632.279968 116.0
632.368713 428.0
633.671753 112.0
633.703674 184.0
633.915344 236.0
634.597046 144.0
644.448975 116.0
656.849731 148.0
658.462646 156.0
737.024414 148.0
794.812317 140.0
941.196411 152.0
1072.468262 140.0
1142.961304 160.0
1186.067993 176.0
1199.665039 160.0
1210.159424 200.0
1217.65564 152.0
1223.705444 160.0
1234.60498 188.0
1251.551758 168.0
1268.699097 224.0
1272.807129 224.0
1272.871094 168.0
1277.014282 164.0
1292.187378 152.0
1298.110962 224.0
1299.201172 248.0
1304.184692 152.0
1322.063965 172.0
1341.522583 172.0
1364.113525 192.0
1366.172607 192.0
1368.873779 188.0
1378.470947 204.0
1380.991943 140.0
1386.581909 168.0
1391.804321 168.0
1395.155151 188.0
1398.413208 200.0
1412.328735 204.0
1428.147705 144.0
1428.298096 204.0
1433.606079 164.0
1435.860107 216.0
1450.339111 200.0
1453.016113 180.0
1455.460083 260.0
1479.185913 156.0
1481.667114 144.0
1482.21875 184.0
1482.778198 256.0
1485.392822 164.0
1485.584595 156.0
1488.362915 180.0
1496.828979 232.0
1502.231812 184.0
1504.770874 204.0
1507.567017 208.0
1511.30188 180.0
1512.733643 232.0
1512.927246 208.0
1523.202271 164.0
1525.502441 156.0
1531.556396 200.0
1541.910034 176.0
1543.567383 188.0
1550.824585 168.0
1550.957886 208.0
1552.118164 152.0
1553.318115 180.0
1563.823608 248.0
1565.555664 160.0
1567.257202 160.0
1571.964722 140.0
1575.896973 176.0
1578.370972 208.0
1578.560791 184.0
1578.687256 160.0
1589.325684 204.0
1591.190918 144.0
1593.382935 156.0
1596.689697 148.0
1597.36792 192.0
1599.203857 160.0
1601.703979 180.0
1601.958984 176.0
1602.524536 224.0
1604.453369 140.0
1614.250366 144.0
1621.976318 184.0
1624.293701 188.0
1625.192261 200.0
1626.211426 144.0
1626.32373 152.0
1629.953735 140.0
1630.395752 156.0
1632.220581 160.0
1633.563721 152.0
1641.165283 144.0
1641.634033 168.0
1643.223145 200.0
1643.392578 176.0
1654.546021 164.0
1655.153198 204.0
1655.550049 148.0
1655.849609 240.0
1656.254639 164.0
1656.651611 156.0
1657.688599 156.0
1659.366455 212.0
1665.079224 172.0
1666.435791 200.0
1667.963623 172.0
1669.004272 172.0
1671.924561 152.0
1673.52002 148.0
1677.936035 160.0
1689.606689 244.0
1694.969604 144.0
1696.035034 244.0
1697.855225 140.0
1700.825317 188.0
1701.161865 180.0
1703.346191 204.0
1704.111084 184.0
1704.718262 164.0
1705.063354 152.0
1705.663452 192.0
1706.625244 216.0
1708.459351 164.0
1710.895264 152.0
1713.53894 172.0
1715.261353 148.0
1718.114624 228.0
1721.176758 196.0
1725.25 152.0
1730.876099 160.0
1732.781128 196.0
1733.104248 192.0
1735.383667 200.0
1736.237793 232.0
1738.386353 152.0
1739.639648 228.0
1740.552979 324.0
1741.748901 180.0
1742.383911 208.0
1747.859497 188.0
1750.589844 196.0
1751.672607 260.0
1754.622681 140.0
1755.331421 172.0
1755.806763 204.0
1759.630737 152.0
1766.389282 168.0
1766.782471 156.0
1768.974976 204.0
1769.669922 184.0
1771.755371 164.0
1772.283203 212.0
1772.568115 160.0
1774.650269 180.0
1777.557495 144.0
1777.901489 192.0
1783.411133 164.0
1786.101807 172.0
1788.087402 196.0
1788.668213 176.0
1790.091064 172.0
1790.570557 176.0
1796.294189 144.0
1797.737061 172.0
1800.78479 144.0
1804.359253 200.0
1805.22168 192.0
1805.297729 188.0
1806.084351 152.0
1807.150269 188.0
1807.793335 172.0
1808.673584 212.0
1810.239868 144.0
1811.247681 188.0
1813.289673 180.0
1813.721924 140.0
1814.85791 184.0
1816.282715 148.0
1818.403931 208.0
1822.412109 176.0
1822.836914 168.0
1823.074829 184.0
1826.331177 252.0
1826.535278 176.0
1829.411499 160.0
1830.441772 152.0
1831.075439 176.0
1832.017334 216.0
1832.750122 148.0
1833.38916 164.0
1837.465088 160.0
1839.940063 192.0
1840.324341 184.0
1840.887817 252.0
1841.946899 180.0
1842.382568 220.0
1843.459106 144.0
1844.048828 168.0
1844.305298 140.0
1845.109253 160.0
1845.47644 180.0
1858.444214 204.0
1860.083374 172.0
1860.787354 184.0
1861.654541 172.0
1862.78833 168.0
1863.260864 220.0
1864.034058 168.0
1864.11145 168.0
1864.240356 180.0
1872.482056 144.0
1873.782837 252.0
1874.39917 208.0
1875.152954 148.0
1875.532227 148.0
1877.152954 140.0
1878.671021 172.0
1880.167236 192.0
1880.267334 156.0
1885.865967 108.0
1886.166504 180.0
1886.555542 176.0
1887.454712 240.0
1889.547852 224.0
1890.387085 232.0
1890.551514 188.0
1892.291382 184.0
1893.174683 168.0
1893.295898 152.0
1895.192993 164.0
1895.868896 216.0
1899.918091 160.0
1901.549438 200.0
1901.905273 192.0
1902.174438 204.0
1903.442017 200.0
1903.572266 200.0
1904.266968 184.0
1906.25647 184.0
1906.95166 176.0
1908.925171 184.0
1913.702271 176.0
1914.329224 172.0
1915.626953 228.0
1921.703491 208.0
1924.599609 168.0
1925.954956 144.0
1926.723633 208.0
1927.07312 196.0
1927.169189 216.0
1929.021973 164.0
1929.84375 260.0
1932.362793 148.0
1933.465332 152.0
1935.303589 184.0
1936.503296 152.0
1937.563232 168.0
1939.114258 140.0
1941.007812 148.0
1943.841187 184.0
1946.123413 172.0
1947.897339 164.0
1948.617798 144.0
1949.40271 212.0
1949.514038 148.0
1954.781494 160.0
1955.256714 188.0
1955.503174 188.0
1955.978516 216.0
1957.801025 184.0
1959.087036 176.0
1961.501587 260.0
1964.90564 172.0
1966.220337 264.0
1968.542114 264.0
1968.78064 192.0
1970.485352 152.0
1971.669434 204.0
1972.791992 144.0
1972.888306 184.0
1974.516235 240.0
1976.161621 164.0
1978.316528 188.0
1981.535889 260.0
1985.444946 192.0
1986.207642 160.0
1989.35791 192.0
1989.437744 184.0
1990.547607 188.0
1991.031616 216.0
1992.075317 152.0
1992.235107 188.0
1995.310059 240.0
1995.639038 244.0
1996.43042 156.0
1997.239868 148.0
2000.140625 164.0
2001.075317 220.0
