>compound Isovitexin
>formula C21H20O10
>ionization [M+Na]+
>parentmass 455.0948675400905
#inchi InChI=1S/C21H20O10/c22-7-14-17(26)19(28)20(29)21(31-14)16-11(25)6-13-15(18(16)27)10(24)5-12(30-13)8-1-3-9(23)4-2-8/h1-6,14,17,19-23,25-29H,7H2/t14-,17-,19+,20-,21+/m1/s1
#inchikey MYXNWGACZJSMBT
#Ion_Source DI-ESI
#Instrument qTof
#Compound_Source Isolated
#PI Norberto Lopes
#Data_Collector Denise Silva
#Scan -1
#Precursor_MZ 455.055
#ExactMass 432.106
#Charge 1
#CAS_Number 38953-85-4
#Pubmed_ID N/A
#Smiles O=C1C2=C(O)C([C@H]3[C@H](O)[C@@H](O)[C@H](O)[C@@H](CO)O3)=C(O)C=C2OC(C4=CC=C(O)C=C4)=C1
#INCHI_AUX N/A
#Library_Class 3
#SpectrumID CCMSLIB00000081703
#IonMode Positive
#UpdateWorkflowName UPDATE-SINGLE-ANNOTATED-BRONZE
#LibraryQualityString Bronze
#TaskID 52bd5f0db6314c93924d5ce5c86348eb
##Scan# 1
#SpectrumFile gnps_Isovitexin_pos_MplusNa.mgf
#LibraryName gnps_library.mgf
#MQScore -1
#Organism batch_27_05_V02
#TIC_Query 0
#RT_Query -1
#MZErrorPPM -1
#SharedPeaks 0
#MassDiff 0
#LibMZ -1
#SpecMZ 455.055
#SpecCharge 0
#internalFilename spec-00000.mgf

>collision 10
143.017807 107.0
172.077438 216.0
305.015228 228.0
335.023529 315.0
365.03009 379.0
419.033905 249.0
437.047485 1343.0
455.05542 1140.0
