>compound Ivacaftor (VX-770)
>formula C24H28N2O3
>ionization [M+H]+
>parentmass 393.217712
#inchi InChI=1S/C24H28N2O3/c1-23(2,3)16-11-17(24(4,5)6)20(27)12-19(16)26-22(29)15-13-25-18-10-8-7-9-14(18)21(15)28/h7-13,27H,1-6H3,(H,25,28)(H,26,29)
#inchikey PURKAOJPTOLRMP
#Ion_Source LC-ESI
#Instrument qTof
#Compound_Source Commercial
#PI Dorrestein
#Data_Collector Garg_Neha
#Scan -1
#Precursor_MZ 393.217
#ExactMass 392.21
#Charge 1
#CAS_Number 873054-44-5, 1134822-09-5 (benzenesulfonate), 1134822-07-3 (H2O)
#Pubmed_ID N/A
#Smiles C1=C(C(=CC(=C1C(C)(C)C)NC(C2C(C3=C(NC=2)C=CC=C3)=O)=O)O)C(C)(C)C
#INCHI_AUX N/A
#Library_Class 1
#SpectrumID CCMSLIB00000078023
#IonMode Positive
#UpdateWorkflowName UPDATE-SINGLE-ANNOTATED-GOLD
#LibraryQualityString Gold
#TaskID 77f51c88eb8b467eb4a01dd2d0cb90d2
##Scan# 2514
#SpectrumFile Plate1_21_40_GG2_01_16489.mzXML
#LibraryName FDALibrary_2_04302014.mgf
#MQScore -1
#Organism FDALibrary_2_04302014
#TIC_Query 0
#RT_Query -1
#MZErrorPPM -1
#SharedPeaks 0
#MassDiff 0
#LibMZ -1
#SpecMZ 393.217
#SpecCharge 0
#internalFilename spec-00000.mgf

>collision 10
45.182522 216.0
45.480019 140.0
45.744835 152.0
46.107677 220.0
46.190155 148.0
46.747799 212.0
46.911247 200.0
47.390049 168.0
47.418373 168.0
47.436192 144.0
47.775394 204.0
48.017834 176.0
48.334194 216.0
48.436649 208.0
48.627998 176.0
48.769672 164.0
48.844761 184.0
49.281132 156.0
49.426552 172.0
49.706814 144.0
51.221081 244.0
51.29105 156.0
51.574963 240.0
51.829708 172.0
51.852638 252.0
52.576065 176.0
53.169445 236.0
53.696125 140.0
54.391148 196.0
54.758743 180.0
54.969566 148.0
55.042625 160.0
55.568844 160.0
56.071472 144.0
57.271645 188.0
57.567257 168.0
58.04697 152.0
58.160954 188.0
58.725273 144.0
58.789352 168.0
58.845833 272.0
59.104149 148.0
59.173027 148.0
59.249607 148.0
59.597897 176.0
59.964157 148.0
60.099869 164.0
60.432076 148.0
60.586903 160.0
60.676792 184.0
61.388958 180.0
62.025307 196.0
62.301498 152.0
62.531082 168.0
62.792892 212.0
63.00573 144.0
64.508087 268.0
65.230545 196.0
65.29808 172.0
65.386574 156.0
65.413803 192.0
66.341217 144.0
66.613853 180.0
66.630096 148.0
66.782906 152.0
66.854492 208.0
67.276657 172.0
67.317482 156.0
67.425308 156.0
67.464539 196.0
68.496765 140.0
69.666557 156.0
69.98568 212.0
70.603119 164.0
70.830757 172.0
70.939682 172.0
71.119164 204.0
71.712921 140.0
71.793846 144.0
72.089287 224.0
72.165352 152.0
72.180832 128.0
72.843269 176.0
72.856857 156.0
72.921432 200.0
73.358894 248.0
73.411751 148.0
73.500458 192.0
73.881477 180.0
73.941368 140.0
74.136612 144.0
74.639595 232.0
75.082176 196.0
75.170158 184.0
75.361832 220.0
75.51915 144.0
76.110664 272.0
76.184807 168.0
76.37117 192.0
76.53788 208.0
76.801041 176.0
77.150291 148.0
77.428513 168.0
77.52137 140.0
77.665138 164.0
77.689697 228.0
77.747597 168.0
77.805527 156.0
77.88279 152.0
78.229218 172.0
78.470581 168.0
78.523483 140.0
78.823601 176.0
79.023415 140.0
79.262459 192.0
79.567535 140.0
79.666992 140.0
80.052963 140.0
80.643509 220.0
81.67453 152.0
81.998634 152.0
82.072548 172.0
82.392014 148.0
82.672287 168.0
82.802635 184.0
82.831619 140.0
83.000175 168.0
83.223358 160.0
83.534142 144.0
83.645149 140.0
83.699768 140.0
84.126411 180.0
84.26339 200.0
84.583427 184.0
84.634689 168.0
84.801399 280.0
84.874733 196.0
85.028831 184.0
85.0839 180.0
85.137909 96.0
85.173882 160.0
85.284134 164.0
85.457001 220.0
85.49749 212.0
87.463158 176.0
87.828377 180.0
89.184059 152.0
89.494476 148.0
89.701714 160.0
90.186844 264.0
90.305962 220.0
90.466805 192.0
90.569061 156.0
90.629578 204.0
90.83255 184.0
91.705338 176.0
92.499962 192.0
93.401863 148.0
93.415329 148.0
94.035797 248.0
94.053169 224.0
94.633141 176.0
95.798447 172.0
96.461945 216.0
97.145393 148.0
97.280807 208.0
97.835197 168.0
97.872078 164.0
98.137917 168.0
98.329964 156.0
99.619034 144.0
99.636909 224.0
99.650818 204.0
99.728325 212.0
100.552917 200.0
100.636757 196.0
101.208626 236.0
101.31678 152.0
101.86245 164.0
101.926743 260.0
102.065277 244.0
102.877411 144.0
102.933945 164.0
103.01474 152.0
103.158218 144.0
103.637886 160.0
103.842636 188.0
104.210075 180.0
104.350319 144.0
104.480484 172.0
104.963211 168.0
105.551315 140.0
105.569717 148.0
105.923813 152.0
106.715996 204.0
106.913475 188.0
107.228592 224.0
107.257446 140.0
107.276001 156.0
108.537209 288.0
108.767494 196.0
109.035439 192.0
109.097801 176.0
109.218414 196.0
109.299553 172.0
109.791183 200.0
109.880882 148.0
110.060341 208.0
110.267204 140.0
110.313187 188.0
110.396828 148.0
110.467941 144.0
111.224426 196.0
112.198441 160.0
113.708801 212.0
113.993378 240.0
114.093285 160.0
114.159393 216.0
114.655235 176.0
114.810875 176.0
115.261307 208.0
115.656967 144.0
115.886116 168.0
116.049301 512.0
116.128365 220.0
116.403069 164.0
116.467499 164.0
116.534096 196.0
116.579224 144.0
117.005127 168.0
117.058952 172.0
117.248535 216.0
117.572037 212.0
117.870056 140.0
117.917603 196.0
118.090569 196.0
118.798912 148.0
119.100647 140.0
119.452797 256.0
119.931862 140.0
120.400955 220.0
120.591042 184.0
120.790024 176.0
121.142464 176.0
121.249832 216.0
121.302437 196.0
121.33094 140.0
121.451553 224.0
121.510353 204.0
122.260101 188.0
122.517723 200.0
122.744751 160.0
123.265717 176.0
124.381981 168.0
125.936226 156.0
125.994301 172.0
126.161919 140.0
126.712486 156.0
126.766258 160.0
126.855911 224.0
126.976997 156.0
127.745209 176.0
128.049194 388.0
128.856674 156.0
129.080444 192.0
129.743866 152.0
129.972946 164.0
130.670517 232.0
131.027969 148.0
134.022659 168.0
134.074661 128.0
134.583176 196.0
135.105515 156.0
135.392548 196.0
135.934967 160.0
136.027863 232.0
136.218292 140.0
136.405853 128.0
136.895126 144.0
137.079163 152.0
137.639008 220.0
137.96846 152.0
137.990448 176.0
138.6754 196.0
139.116409 200.0
139.344208 176.0
139.386505 140.0
140.870865 192.0
141.043365 176.0
141.260925 152.0
141.308243 156.0
141.416962 140.0
141.51416 164.0
141.668106 152.0
141.764481 196.0
141.800797 172.0
141.841095 180.0
142.049774 220.0
142.410583 156.0
142.702667 180.0
142.919327 152.0
144.044662 1724.0
144.252548 156.0
144.32666 192.0
144.570663 200.0
144.723877 172.0
144.788528 140.0
144.893921 148.0
145.049698 336.0
145.351898 164.0
145.656815 144.0
145.692841 148.0
145.738495 192.0
146.048615 228.0
146.06546 172.0
146.28685 176.0
146.397614 144.0
146.903778 160.0
147.297272 172.0
147.529251 208.0
147.667084 140.0
147.905258 120.0
149.024658 224.0
149.569412 176.0
149.671677 188.0
150.796326 184.0
150.847656 168.0
150.876999 196.0
152.148514 140.0
152.876099 144.0
153.896637 160.0
154.821487 156.0
154.935425 148.0
156.067215 192.0
157.148224 164.0
157.412827 152.0
157.590179 196.0
157.775131 152.0
158.483444 168.0
158.7341 204.0
159.256073 176.0
159.291306 184.0
159.318939 220.0
159.416931 212.0
159.567749 200.0
159.71109 148.0
159.962723 224.0
160.620422 148.0
160.728912 168.0
160.7491 188.0
161.357849 156.0
161.544998 152.0
162.015884 204.0
162.649185 104.0
163.87822 156.0
163.898605 196.0
163.98526 156.0
164.188492 152.0
164.278503 140.0
164.375458 184.0
164.822327 212.0
164.960342 176.0
165.01915 168.0
165.41951 188.0
166.123856 1068.0
166.197388 164.0
166.980927 212.0
167.112122 144.0
167.132706 152.0
167.428741 176.0
167.691544 188.0
168.259064 228.0
169.15097 208.0
169.272659 148.0
169.783188 172.0
170.564713 160.0
170.733719 144.0
170.751923 148.0
170.77533 160.0
171.056549 668.0
171.092804 184.0
171.402756 220.0
171.436646 196.0
171.606186 180.0
171.648911 188.0
171.754105 132.0
171.774963 148.0
171.857819 140.0
171.932846 144.0
171.996994 352.0
172.039993 95412.0
172.227097 120.0
172.32608 108.0
172.395828 172.0
172.424973 132.0
172.544708 136.0
172.606781 164.0
172.810181 272.0
172.993378 168.0
173.043213 8596.0
173.145248 164.0
173.443008 100.0
173.487015 128.0
173.916092 164.0
174.042694 680.0
174.336334 192.0
174.473007 144.0
175.264938 164.0
175.594788 144.0
175.739868 152.0
176.170227 192.0
176.254776 152.0
176.360489 160.0
177.894241 192.0
178.106674 160.0
178.502686 248.0
178.574493 200.0
178.960373 168.0
179.152451 164.0
180.569611 168.0
180.845139 200.0
181.404984 152.0
181.520279 160.0
183.63414 160.0
184.912125 208.0
185.470108 160.0
186.311356 180.0
187.399643 184.0
187.732208 184.0
187.835175 128.0
187.953171 176.0
187.996841 152.0
188.551239 224.0
188.578568 192.0
189.128357 148.0
189.224167 176.0
189.785858 156.0
189.988831 172.0
190.049911 22480.0
190.31987 96.0
190.983261 200.0
191.053375 1480.0
192.054138 632.0
192.101639 368.0
192.223038 152.0
192.432831 160.0
192.565384 156.0
192.943954 172.0
196.432068 168.0
197.658615 196.0
197.742569 168.0
200.712051 184.0
200.745895 200.0
201.920746 196.0
201.985809 160.0
202.110291 176.0
203.817307 180.0
204.411636 152.0
204.830154 208.0
204.898529 152.0
204.980713 128.0
206.631577 176.0
207.092468 148.0
207.510864 164.0
208.440872 140.0
209.309601 168.0
210.088318 160.0
211.871582 164.0
212.497833 228.0
212.570374 228.0
213.014587 180.0
217.6409 156.0
218.811127 156.0
219.085022 168.0
219.308975 144.0
219.459335 228.0
219.5242 144.0
220.259125 192.0
220.862137 176.0
221.317902 160.0
222.187378 248.0
222.346573 152.0
223.193222 184.0
227.360611 164.0
229.620071 188.0
229.858414 144.0
229.930832 176.0
230.149658 152.0
231.160843 192.0
233.688507 156.0
234.803452 176.0
236.499191 196.0
236.542053 184.0
236.566544 144.0
236.701263 172.0
237.268112 156.0
237.731277 160.0
239.841187 148.0
241.001587 188.0
244.071899 116.0
246.729919 140.0
249.275085 200.0
253.348373 144.0
253.95401 160.0
254.055527 140.0
255.857513 144.0
257.819244 196.0
259.063934 188.0
259.448517 148.0
260.765167 212.0
261.559113 140.0
262.029297 148.0
262.725677 172.0
263.085693 436.0
263.82373 180.0
264.081726 228.0
264.626099 140.0
265.180054 156.0
266.868134 144.0
268.34964 156.0
271.623322 140.0
272.069641 144.0
272.601746 168.0
272.835114 140.0
273.562164 236.0
273.624725 228.0
275.379089 188.0
275.594971 148.0
275.79541 160.0
275.983856 196.0
276.063202 224.0
276.344391 168.0
276.827667 180.0
276.999908 144.0
277.139038 184.0
278.150574 164.0
278.293335 164.0
279.639709 160.0
281.093872 1308.0
282.09906 184.0
283.165527 144.0
283.420135 208.0
289.084229 140.0
289.653046 212.0
289.930878 168.0
294.613007 160.0
295.190643 140.0
296.039337 188.0
296.104401 144.0
298.31076 148.0
298.585846 188.0
299.966583 152.0
300.142426 140.0
301.456879 128.0
303.146423 192.0
303.503479 140.0
303.947479 140.0
304.118744 428.0
305.127045 220.0
305.893799 212.0
307.752075 144.0
309.087341 156.0
310.14151 148.0
310.226807 192.0
310.541229 144.0
311.144806 140.0
312.937927 224.0
313.172516 104.0
313.416962 196.0
314.37262 200.0
315.580688 152.0
315.768127 184.0
317.092316 168.0
318.25235 152.0
318.820709 148.0
318.849152 172.0
318.941559 236.0
319.144226 15144.0
319.253021 140.0
319.609131 148.0
319.867767 128.0
320.10498 144.0
320.147766 3044.0
320.226044 168.0
320.562317 116.0
321.113556 168.0
321.149506 864.0
321.827271 244.0
322.734863 140.0
322.945862 164.0
325.598145 204.0
327.778229 176.0
328.279297 168.0
328.415985 188.0
329.126038 168.0
329.886047 168.0
330.160858 188.0
331.790314 144.0
332.152985 140.0
332.21463 152.0
332.642853 232.0
332.813507 256.0
332.950073 180.0
334.688232 152.0
334.926483 188.0
335.024841 204.0
335.135559 156.0
335.232544 164.0
335.388092 136.0
335.469452 156.0
335.750214 188.0
335.874786 176.0
335.94873 168.0
336.136719 208.0
336.282898 144.0
336.331207 152.0
336.348297 188.0
336.491486 144.0
336.525818 128.0
336.559326 200.0
336.629883 224.0
336.667114 152.0
336.730743 164.0
336.779846 168.0
336.818604 136.0
336.894257 324.0
336.970612 276.0
337.016937 192.0
337.082764 276.0
337.156097 110944.0
337.289032 136.0
337.435089 100.0
337.484222 164.0
337.56601 152.0
337.640228 132.0
337.71228 276.0
337.757294 252.0
337.816376 96.0
337.870758 100.0
337.96933 112.0
338.033508 216.0
338.157593 19388.0
338.282959 180.0
338.549469 156.0
338.585388 168.0
338.610718 156.0
338.694916 148.0
338.782684 164.0
338.995392 112.0
339.157654 3068.0
339.494019 112.0
339.739166 140.0
339.904114 144.0
340.082489 112.0
340.154694 172.0
340.441223 108.0
341.101044 112.0
341.426331 184.0
341.68924 116.0
343.452728 152.0
344.636078 128.0
345.921173 160.0
354.360504 144.0
356.619659 184.0
375.201141 576.0
376.207886 524.0
387.891296 164.0
391.214722 144.0
391.283813 116.0
392.881744 204.0
392.996185 184.0
393.217712 6384.0
393.293213 428.0
394.222748 1456.0
394.288147 168.0
395.191833 220.0
395.228973 144.0
405.623749 192.0
411.210846 208.0
519.279236 160.0
608.652893 140.0
1192.452148 160.0
1343.212036 140.0
1345.416016 228.0
1368.010742 156.0
1372.940186 148.0
1446.552124 192.0
1481.905884 236.0
1522.901733 212.0
1525.038452 160.0
1528.577148 172.0
1542.045776 164.0
1562.568115 208.0
1606.475708 164.0
1631.703369 140.0
1632.378784 160.0
1634.486328 216.0
1638.455933 176.0
1638.770142 148.0
1645.7229 204.0
1652.933228 212.0
1657.670532 168.0
1658.63501 188.0
1667.002808 184.0
1681.989136 248.0
1705.588745 168.0
1706.550659 224.0
1710.499634 144.0
1724.398315 200.0
1728.359619 200.0
1735.060303 160.0
1743.33606 172.0
1749.199829 160.0
1772.602661 232.0
1772.845703 168.0
1775.083984 224.0
1776.19104 212.0
1782.33667 152.0
1786.17041 224.0
1803.473511 280.0
1805.840942 176.0
1809.268188 160.0
1814.368286 176.0
1817.701782 208.0
1832.181885 252.0
1839.524658 176.0
1839.720947 204.0
1840.942017 140.0
1844.898071 176.0
1850.647583 200.0
1854.356934 268.0
1860.859497 244.0
1872.520264 204.0
1872.580566 184.0
1877.976196 172.0
1881.177612 224.0
1881.540161 200.0
1882.731812 164.0
1892.945068 148.0
1896.887329 172.0
1897.82373 180.0
1898.239868 176.0
1898.32666 184.0
1901.536621 224.0
1902.517578 144.0
1902.942993 192.0
1904.983887 152.0
1919.519165 168.0
1927.655029 164.0
1930.741089 220.0
1941.153809 148.0
1942.881714 216.0
1946.497925 176.0
1949.651733 204.0
1953.027954 188.0
1953.564575 188.0
1956.451172 180.0
1960.20874 176.0
1973.779907 176.0
1978.593262 160.0
1981.055298 140.0
1984.183716 172.0
1991.229614 172.0
1993.486206 172.0
1994.410522 212.0
1996.686646 152.0
1998.528076 236.0
