>compound Altretamine (Hexalen)
>formula C9H18N6
>ionization [M+H]+
>parentmass 211.168518
#inchi InChI=1S/C9H18N6/c1-13(2)7-10-8(14(3)4)12-9(11-7)15(5)6/h1-6H3
#inchikey UUVWYPNAQBNQJQ
#Ion_Source LC-ESI
#Instrument qTof
#Compound_Source Commercial
#PI Dorrestein
#Data_Collector Garg_Neha
#Scan -1
#Precursor_MZ 211.167
#ExactMass 210.159
#Charge 1
#CAS_Number 645-05-6, 2975-00-0 (HCl)
#Pubmed_ID N/A
#Smiles N1=C(N=C(N=C1N(C)C)N(C)C)N(C)C
#INCHI_AUX N/A
#Library_Class 1
#SpectrumID CCMSLIB00000078079
#IonMode Positive
#UpdateWorkflowName UPDATE-SINGLE-ANNOTATED-GOLD
#LibraryQualityString Gold
#TaskID 77f51c88eb8b467eb4a01dd2d0cb90d2
##Scan# 1085
#SpectrumFile Plate1_61_88_GG4_01_16491.mzXML
#LibraryName FDALibrary_2_04302014.mgf
#MQScore -1
#Organism FDALibrary_2_04302014
#TIC_Query 0
#RT_Query -1
#MZErrorPPM -1
#SharedPeaks 0
#MassDiff 0
#LibMZ -1
#SpecMZ 211.167
#SpecCharge 0
#internalFilename spec-00000.mgf

>collision 10
44.921936 204.0
45.142914 304.0
45.200436 140.0
45.233318 188.0
45.244987 212.0
45.256657 144.0
45.31023 152.0
45.334351 152.0
45.375904 160.0
45.421112 208.0
45.496651 160.0
45.569176 216.0
45.624279 188.0
45.704235 188.0
45.753433 148.0
45.838291 140.0
45.883404 176.0
45.929283 244.0
45.958302 176.0
46.022655 224.0
46.071712 220.0
46.121712 192.0
46.22757 164.0
46.239388 192.0
46.318073 208.0
46.357208 192.0
46.640869 228.0
46.650387 220.0
46.741512 192.0
46.776897 192.0
46.820892 180.0
46.881775 168.0
46.91449 180.0
46.947212 192.0
46.981312 188.0
47.076859 152.0
47.104176 196.0
47.158833 204.0
47.2272 172.0
47.236774 160.0
47.259281 200.0
47.27919 196.0
47.325733 180.0
47.431221 204.0
47.47784 144.0
47.529968 204.0
47.540947 156.0
47.550552 140.0
47.687717 208.0
47.704395 148.0
47.890163 164.0
47.967327 180.0
48.094231 168.0
48.108036 152.0
48.206829 236.0
48.269691 152.0
48.315334 156.0
48.348 172.0
48.423309 188.0
48.479408 132.0
48.489811 144.0
48.510288 168.0
48.647942 152.0
48.696541 156.0
48.761845 180.0
48.776463 356.0
48.804939 176.0
48.82719 212.0
48.857792 212.0
49.027668 192.0
49.044125 228.0
49.155491 164.0
49.206177 144.0
49.277447 172.0
49.297009 204.0
49.467648 164.0
49.554478 156.0
49.603729 156.0
49.755039 160.0
49.868824 144.0
49.982189 188.0
50.047489 160.0
50.234936 236.0
50.329498 376.0
50.364429 196.0
50.517471 152.0
50.5854 208.0
50.596725 164.0
50.612301 160.0
50.733253 192.0
50.766758 144.0
50.795128 152.0
50.853588 160.0
50.949863 144.0
50.97834 196.0
51.016659 164.0
51.065006 160.0
51.330879 128.0
51.449749 188.0
51.474022 144.0
51.643646 256.0
51.708481 140.0
51.790092 224.0
51.920105 208.0
51.940601 180.0
51.99369 168.0
52.024426 192.0
52.036179 140.0
52.174679 140.0
52.18618 152.0
52.229324 144.0
52.268169 180.0
52.348782 160.0
52.550587 192.0
52.602543 200.0
52.637123 164.0
52.746571 176.0
52.9235 156.0
52.946671 212.0
52.962601 144.0
53.232365 156.0
53.26722 168.0
53.30291 156.0
53.341331 140.0
53.354416 348.0
53.405312 424.0
53.434406 172.0
53.448956 160.0
53.460335 176.0
53.508633 176.0
53.658699 148.0
53.686405 244.0
53.741837 148.0
53.833801 160.0
53.982861 164.0
54.011696 212.0
54.107235 236.0
54.143841 144.0
54.162113 164.0
54.3591 216.0
54.500053 136.0
54.641464 188.0
54.682667 180.0
54.755096 144.0
54.769539 160.0
54.782795 172.0
54.919125 132.0
54.964146 148.0
55.050598 104.0
55.113285 200.0
55.179794 180.0
55.190147 152.0
55.296658 236.0
55.37661 188.0
55.41613 236.0
55.488438 200.0
55.511856 204.0
55.524494 144.0
55.53669 184.0
55.55983 200.0
55.60133 188.0
55.635773 140.0
55.759403 216.0
55.78186 148.0
55.832253 208.0
55.88776 148.0
55.991127 160.0
56.040657 148.0
56.112198 184.0
56.201691 172.0
56.234524 140.0
56.292747 164.0
56.377899 148.0
56.466106 140.0
56.577892 172.0
56.593307 176.0
56.640434 164.0
56.660706 188.0
56.702663 208.0
56.725147 144.0
56.79805 148.0
56.897484 160.0
57.014835 168.0
57.065689 164.0
57.12159 188.0
57.138691 120.0
57.184788 180.0
57.31686 172.0
57.356499 168.0
57.439434 144.0
57.450829 208.0
57.471119 184.0
57.581318 156.0
57.689598 100.0
57.732452 168.0
57.763111 148.0
57.826942 168.0
57.850471 152.0
57.879238 188.0
57.917099 176.0
57.967098 148.0
58.018631 148.0
58.050472 228.0
58.121769 156.0
58.18248 152.0
58.246262 196.0
58.33136 152.0
58.401306 184.0
58.440861 284.0
58.462162 140.0
58.496563 140.0
58.609291 156.0
58.658646 244.0
58.81271 160.0
58.937698 200.0
58.988377 176.0
59.014961 180.0
59.037304 188.0
59.079838 124.0
59.146828 268.0
59.185741 188.0
59.228519 236.0
59.277649 192.0
59.291443 212.0
59.364117 188.0
59.381901 192.0
59.436459 184.0
59.458611 228.0
59.475494 140.0
59.492226 156.0
59.544308 152.0
59.600742 128.0
59.644314 208.0
59.708309 128.0
59.741341 200.0
59.829063 204.0
59.83984 220.0
59.904522 224.0
59.96714 176.0
60.020969 152.0
60.089527 148.0
60.109623 164.0
60.226921 176.0
60.240822 144.0
60.326862 148.0
60.375217 160.0
60.410873 176.0
60.443981 200.0
60.533146 240.0
60.552116 96.0
60.686707 140.0
60.796688 228.0
60.819969 196.0
60.906925 152.0
61.053024 144.0
61.073242 140.0
61.087242 224.0
61.26783 168.0
61.354099 180.0
61.423119 124.0
61.616249 208.0
61.867535 244.0
61.916077 156.0
61.952103 152.0
61.980305 144.0
61.99284 160.0
62.050838 352.0
62.286236 176.0
62.301987 152.0
62.315807 112.0
62.350658 252.0
62.367947 144.0
62.504772 248.0
62.601288 232.0
62.614971 172.0
62.632298 140.0
62.694942 184.0
62.709507 164.0
62.811996 204.0
62.883003 172.0
62.999851 200.0
63.029873 144.0
63.108906 160.0
63.126301 160.0
63.256893 260.0
63.346302 156.0
63.397778 172.0
63.426739 200.0
63.445206 248.0
63.598431 168.0
63.744545 176.0
63.768383 200.0
63.792225 192.0
63.844696 300.0
63.868553 160.0
63.991093 184.0
64.050018 200.0
64.094734 172.0
64.246094 216.0
64.303535 248.0
64.327965 184.0
64.396049 204.0
64.420105 188.0
64.463242 164.0
64.480782 144.0
64.533577 168.0
64.584755 156.0
64.642868 136.0
64.723984 220.0
64.75602 152.0
64.770432 160.0
64.834518 152.0
64.906174 132.0
64.951569 192.0
65.10244 148.0
65.301727 168.0
65.322639 156.0
65.358032 200.0
65.403091 152.0
65.47113 376.0
65.567688 168.0
65.586723 188.0
65.613533 196.0
65.625412 272.0
65.673798 156.0
65.686699 156.0
65.764153 176.0
65.810966 144.0
65.841652 176.0
65.872337 164.0
65.962448 184.0
65.977821 268.0
66.037216 176.0
66.095459 216.0
66.110016 232.0
66.144005 184.0
66.181244 184.0
66.272987 200.0
66.310844 144.0
66.45517 164.0
66.487625 144.0
66.539566 180.0
66.592888 172.0
66.658142 196.0
66.789093 172.0
66.855263 168.0
66.874443 188.0
66.952599 316.0
67.015022 136.0
67.079689 144.0
67.09436 172.0
67.128838 164.0
67.166115 156.0
67.202003 220.0
67.270546 176.0
67.384872 224.0
67.396309 224.0
67.432259 176.0
67.484573 200.0
67.612167 172.0
67.844948 212.0
67.998955 188.0
68.012085 180.0
68.148666 136.0
68.278259 228.0
68.406601 192.0
68.45639 200.0
68.726334 212.0
68.835281 228.0
68.935585 156.0
68.985634 272.0
69.015396 156.0
69.034889 132.0
69.076591 184.0
69.242111 164.0
69.258675 228.0
69.285179 184.0
69.311691 236.0
69.421097 148.0
69.434364 168.0
69.462128 184.0
69.509018 156.0
69.533913 140.0
69.595329 152.0
69.768127 156.0
69.816284 172.0
69.910789 156.0
69.967766 148.0
70.021049 156.0
70.471458 196.0
70.504883 184.0
70.543121 200.0
70.64032 208.0
70.655373 148.0
70.722313 220.0
70.744072 148.0
70.869682 148.0
70.953484 144.0
71.003792 160.0
71.025597 164.0
71.040276 176.0
71.081642 216.0
71.109489 208.0
71.122917 144.0
71.146507 156.0
71.271629 124.0
71.39006 304.0
71.411926 168.0
71.514847 260.0
71.541496 144.0
71.629593 404.0
71.661072 180.0
71.701515 164.0
71.826286 236.0
71.838097 148.0
71.875214 148.0
71.894791 144.0
71.979027 120.0
72.039291 132.0
72.103195 156.0
72.142067 148.0
72.165741 204.0
72.182266 192.0
72.213089 140.0
72.298584 176.0
72.350159 156.0
72.429749 196.0
72.451767 180.0
72.518143 192.0
72.653519 164.0
72.843651 184.0
72.910492 224.0
73.023827 228.0
73.117401 140.0
73.177788 148.0
73.205933 168.0
73.234886 160.0
73.269669 200.0
73.311157 208.0
73.420662 152.0
73.509369 156.0
73.856194 140.0
73.907967 184.0
74.126701 164.0
74.236382 180.0
74.294731 140.0
74.332481 160.0
74.356506 172.0
74.401138 148.0
74.421745 172.0
74.49559 192.0
74.555733 152.0
74.588501 124.0
74.612457 140.0
74.635399 160.0
74.762108 156.0
74.777596 204.0
74.838333 128.0
74.860229 308.0
74.97393 172.0
75.163322 160.0
75.21904 148.0
75.260292 200.0
75.277557 152.0
75.29483 140.0
75.398491 140.0
75.55584 204.0
75.59391 176.0
75.76918 144.0
75.784386 160.0
76.233818 180.0
76.245979 160.0
76.275528 184.0
76.292915 184.0
76.324211 188.0
76.364212 172.0
76.503418 168.0
76.574043 136.0
76.667145 156.0
76.738617 176.0
76.766518 168.0
76.803146 168.0
76.914818 156.0
76.976555 144.0
77.07724 180.0
77.124428 156.0
77.178627 168.0
77.27832 196.0
77.362335 160.0
77.391327 184.0
77.414856 168.0
77.532104 156.0
77.626854 152.0
77.726891 188.0
77.778938 140.0
77.810318 184.0
77.825188 200.0
77.858551 140.0
77.875137 200.0
77.909492 172.0
77.935852 184.0
77.955177 140.0
78.034279 208.0
78.106384 192.0
78.216415 180.0
78.243645 184.0
78.298233 152.0
78.362793 160.0
78.395126 188.0
78.492088 160.0
78.527634 128.0
78.601456 244.0
78.633217 168.0
78.823631 148.0
79.144119 164.0
79.365608 168.0
79.551949 148.0
79.789955 180.0
79.8433 252.0
79.855751 204.0
79.999886 244.0
80.154839 164.0
80.169098 168.0
80.192268 144.0
80.24218 188.0
80.254662 168.0
80.306381 192.0
80.516983 212.0
80.549133 172.0
80.768066 160.0
80.83699 180.0
80.876366 268.0
80.894264 152.0
80.915749 200.0
80.956009 240.0
81.098022 176.0
81.155838 204.0
81.202469 232.0
81.222198 164.0
81.276016 160.0
81.329857 188.0
81.437592 196.0
81.462738 176.0
81.545395 184.0
81.608315 152.0
81.660469 176.0
81.764816 164.0
81.813423 172.0
81.935883 188.0
82.224403 196.0
82.339645 188.0
82.372459 144.0
82.518494 164.0
82.554855 140.0
82.603851 184.0
82.625557 164.0
82.68708 188.0
82.706177 276.0
82.7939 152.0
82.830124 184.0
82.898453 196.0
82.940659 200.0
83.034943 172.0
83.089363 160.0
83.10569 144.0
83.40535 188.0
83.519905 224.0
83.581757 156.0
83.596733 216.0
83.680046 152.0
83.885918 180.0
83.929672 140.0
84.004929 168.0
84.029991 188.0
84.062836 204.0
84.097511 184.0
84.135849 160.0
84.17054 284.0
84.206009 132.0
84.232635 188.0
84.258209 212.0
84.272827 160.0
84.344101 208.0
84.574577 168.0
84.589417 180.0
84.649643 212.0
84.697258 160.0
84.746727 172.0
84.918144 212.0
84.952065 180.0
84.986557 220.0
85.025459 156.0
85.082367 168.0
85.097054 244.0
85.135529 168.0
85.266052 276.0
85.354515 168.0
85.394753 176.0
85.4757 168.0
85.50515 248.0
85.523552 144.0
85.641396 176.0
85.858009 152.0
85.906837 252.0
85.965881 148.0
85.984337 188.0
86.111732 228.0
86.329811 196.0
86.350296 160.0
86.389832 204.0
86.640778 148.0
86.738998 236.0
86.961052 120.0
87.173302 200.0
87.221626 152.0
87.35923 144.0
87.613091 200.0
87.767113 152.0
87.828659 184.0
87.877167 244.0
88.065712 176.0
88.104942 224.0
88.17408 156.0
88.208611 160.0
88.269051 120.0
88.319618 148.0
88.338623 196.0
88.383141 288.0
88.480339 188.0
88.569748 140.0
88.656929 188.0
88.687759 164.0
88.900726 272.0
88.927002 188.0
89.073463 148.0
89.111038 140.0
89.141907 140.0
89.206886 164.0
89.24073 164.0
89.313095 192.0
89.447678 192.0
89.532646 188.0
89.549355 156.0
89.64167 300.0
89.669937 160.0
89.762314 156.0
89.867943 184.0
89.916611 188.0
89.979301 176.0
90.062393 356.0
90.171982 160.0
90.319466 200.0
90.358536 208.0
90.381897 216.0
90.511734 236.0
90.569771 176.0
90.614792 168.0
90.736084 172.0
90.787285 148.0
90.827118 152.0
90.976234 276.0
91.025421 148.0
91.153717 176.0
91.269623 248.0
91.435127 148.0
91.452255 156.0
91.480812 260.0
91.514687 172.0
91.545547 152.0
91.665565 152.0
91.713585 244.0
91.761124 148.0
91.88102 200.0
91.896286 148.0
91.909645 156.0
92.054718 156.0
92.083366 192.0
92.121567 200.0
92.173157 196.0
92.194176 180.0
92.207558 200.0
92.293579 196.0
92.314613 156.0
92.350952 164.0
92.409874 160.0
92.441063 164.0
92.509781 192.0
92.668739 180.0
92.784691 168.0
92.879616 160.0
92.948685 188.0
93.062881 132.0
93.077293 176.0
93.150276 152.0
93.17141 148.0
93.225212 140.0
93.340553 152.0
93.415565 268.0
93.469437 200.0
93.524254 128.0
93.617661 144.0
93.640778 144.0
93.731316 172.0
93.758301 172.0
93.774818 224.0
93.825768 156.0
93.885536 140.0
93.901688 140.0
93.953049 172.0
93.974274 232.0
93.991638 200.0
94.045677 180.0
94.070122 220.0
94.16539 204.0
94.254257 240.0
94.284966 148.0
94.308365 168.0
94.362495 196.0
94.426308 168.0
94.458023 232.0
94.509491 152.0
94.544327 192.0
94.629501 148.0
94.662415 164.0
94.683716 196.0
94.968636 160.0
95.092812 140.0
95.236382 140.0
95.269516 160.0
95.292831 160.0
95.313362 164.0
95.418434 180.0
95.452217 244.0
95.580772 192.0
95.662346 140.0
95.730492 160.0
95.763603 164.0
95.835678 196.0
95.85215 336.0
95.907791 184.0
95.958382 164.0
95.985771 272.0
96.015022 160.0
96.032776 352.0
96.056465 21400.0
96.092964 176.0
96.133759 192.0
96.180046 156.0
96.219093 200.0
96.367661 156.0
96.382324 208.0
96.486 392.0
96.602959 252.0
96.681946 308.0
96.839813 188.0
96.859398 192.0
96.904457 204.0
96.929527 184.0
97.025978 164.0
97.060257 1608.0
97.188354 152.0
97.253532 248.0
97.392944 272.0
97.473495 184.0
97.834038 180.0
97.848206 212.0
97.889633 220.0
97.941734 212.0
97.9851 160.0
98.050102 144.0
98.069969 256.0
98.0877 188.0
98.123817 192.0
98.15242 324.0
98.215721 148.0
98.259125 280.0
98.282799 152.0
98.537506 188.0
98.57711 196.0
98.620506 164.0
98.648178 152.0
98.69442 176.0
98.82618 176.0
98.865089 180.0
98.885544 152.0
98.994438 140.0
99.136971 188.0
99.210411 180.0
99.371826 164.0
99.433212 124.0
99.519913 164.0
99.66819 200.0
99.892227 184.0
99.913712 152.0
99.978691 120.0
100.074661 104.0
100.130417 184.0
100.245972 148.0
100.291809 196.0
100.307755 148.0
100.531143 160.0
100.601875 176.0
100.658905 160.0
100.693703 188.0
100.740791 156.0
100.758774 156.0
100.793472 208.0
100.851646 320.0
100.88868 164.0
100.958664 180.0
100.995956 176.0
101.05468 148.0
101.076691 156.0
101.094696 204.0
101.224823 148.0
101.359055 428.0
101.39711 152.0
101.519402 172.0
101.563255 204.0
101.621704 144.0
101.662537 172.0
101.820442 152.0
101.981171 200.0
102.004196 132.0
102.047516 164.0
102.113876 256.0
102.133987 156.0
102.155472 188.0
102.26178 180.0
102.329193 160.0
102.347321 148.0
102.38961 212.0
102.554825 160.0
102.62941 208.0
102.644943 232.0
102.695961 196.0
102.716133 196.0
102.800873 252.0
102.922897 148.0
102.983383 120.0
103.182152 332.0
103.235023 128.0
103.250305 224.0
103.354561 208.0
103.370384 132.0
103.518524 176.0
103.587387 168.0
103.647865 184.0
103.672485 216.0
103.811096 108.0
103.826569 164.0
103.954376 208.0
104.055862 168.0
104.164116 184.0
104.25399 156.0
104.307777 140.0
104.375557 212.0
104.404312 232.0
104.424805 224.0
104.470146 180.0
104.515221 140.0
104.548187 120.0
104.637894 164.0
104.682144 160.0
104.721291 108.0
104.810478 180.0
104.84716 144.0
104.865501 156.0
104.916466 168.0
104.983749 200.0
105.011864 148.0
105.028618 156.0
105.175537 152.0
105.232697 144.0
105.351151 164.0
105.3675 160.0
105.43084 140.0
105.571808 160.0
105.66214 104.0
105.715103 180.0
105.81266 188.0
105.872742 168.0
105.991554 156.0
106.038689 140.0
106.07061 160.0
106.091988 220.0
106.159653 176.0
106.18502 140.0
106.304176 124.0
106.440788 140.0
106.674057 152.0
106.749123 176.0
106.831299 160.0
106.953476 184.0
107.001755 204.0
107.076248 156.0
107.243141 160.0
107.268829 140.0
107.305748 184.0
107.331833 424.0
107.384315 204.0
107.491341 196.0
107.515388 172.0
107.732239 120.0
107.899597 184.0
107.96759 204.0
107.992653 140.0
108.036095 172.0
108.087822 152.0
108.118858 200.0
108.176819 152.0
108.365448 204.0
108.419159 200.0
108.510368 160.0
108.534477 176.0
108.628578 180.0
108.651398 172.0
108.682518 208.0
108.780067 248.0
108.798752 204.0
108.813278 140.0
108.870575 196.0
108.956032 164.0
109.002296 224.0
109.027237 260.0
109.048019 152.0
109.260124 180.0
109.33712 188.0
109.351685 200.0
109.506989 244.0
109.878899 216.0
109.895592 144.0
109.981155 208.0
110.053238 212.0
110.150291 180.0
110.279915 120.0
110.321648 192.0
110.41993 204.0
110.608246 176.0
110.688431 172.0
110.760941 152.0
110.819763 156.0
110.851357 208.0
110.924553 148.0
110.970673 176.0
111.06295 236.0
111.163651 144.0
111.19857 288.0
111.463943 192.0
111.565758 212.0
111.583755 176.0
111.709938 212.0
111.747421 196.0
111.82296 268.0
111.84726 232.0
111.935143 184.0
112.004959 240.0
112.061523 168.0
112.119034 152.0
112.17955 196.0
112.234261 164.0
112.29763 200.0
112.377792 176.0
112.428436 172.0
112.48185 156.0
112.54454 140.0
112.612122 180.0
112.64592 184.0
112.728317 172.0
112.80864 152.0
112.823433 144.0
112.852371 280.0
113.013786 188.0
113.125954 204.0
113.261986 220.0
113.426765 192.0
113.492485 164.0
113.589371 188.0
113.636719 144.0
113.827751 156.0
113.919083 168.0
113.963699 152.0
113.987968 208.0
114.028938 172.0
114.135872 324.0
114.195419 196.0
114.218819 140.0
114.29541 176.0
114.430466 136.0
114.614807 168.0
114.674652 196.0
114.704659 204.0
114.764015 152.0
114.977341 180.0
115.169502 212.0
115.267776 200.0
115.282738 148.0
115.419548 176.0
115.438354 236.0
115.588531 216.0
115.671532 184.0
115.757645 204.0
115.800476 200.0
115.830467 140.0
115.854759 248.0
115.916168 156.0
115.950455 188.0
115.966156 160.0
116.033333 172.0
116.192764 164.0
116.335197 120.0
116.444359 196.0
116.486877 164.0
116.50621 172.0
116.523399 172.0
116.600761 156.0
116.62706 204.0
116.663475 204.0
116.706093 164.0
116.796425 148.0
116.910454 172.0
116.962112 188.0
117.035309 188.0
117.056839 140.0
117.166695 156.0
117.247223 140.0
117.341621 96.0
117.380081 232.0
117.41674 144.0
117.503021 164.0
117.537544 144.0
117.669212 172.0
117.760727 116.0
117.84848 196.0
117.925262 136.0
118.002823 176.0
118.232666 212.0
118.315651 180.0
118.382263 200.0
118.507233 316.0
118.55825 176.0
118.5951 148.0
118.777245 160.0
118.992088 244.0
119.070259 196.0
119.161499 180.0
119.224174 180.0
119.276505 404.0
119.376694 192.0
119.428886 148.0
119.45282 148.0
119.468048 248.0
119.505028 160.0
119.667397 184.0
119.694405 180.0
119.788055 156.0
119.864311 236.0
120.016899 156.0
120.117218 196.0
120.167397 160.0
120.215141 168.0
120.337639 204.0
120.372231 304.0
120.5298 156.0
120.553894 212.0
120.636955 220.0
120.754463 292.0
120.781281 160.0
120.846909 164.0
120.90818 208.0
120.943199 160.0
121.044701 168.0
121.106827 192.0
121.162186 196.0
121.234497 232.0
121.260796 212.0
121.317787 156.0
121.335327 392.0
121.383568 180.0
121.447166 216.0
121.541504 188.0
121.559059 168.0
121.579887 252.0
121.675392 176.0
121.722961 204.0
121.829842 184.0
121.859879 148.0
121.912621 184.0
121.989548 196.0
122.008247 188.0
122.042313 244.0
122.095093 232.0
122.253494 164.0
122.279434 208.0
122.342758 160.0
122.506706 192.0
122.703148 236.0
122.728264 136.0
122.749153 176.0
122.899147 152.0
122.95652 208.0
123.067131 784.0
123.089989 196.0
123.155235 188.0
123.181122 472.0
123.313332 216.0
123.328506 216.0
123.349686 160.0
123.371231 188.0
123.488991 156.0
123.640839 196.0
123.796059 208.0
124.062508 156.0
124.136215 148.0
124.153419 140.0
124.314003 176.0
124.355316 172.0
124.466423 168.0
124.512955 256.0
124.550095 216.0
124.729568 228.0
124.77739 236.0
124.919716 152.0
125.051331 192.0
125.082169 488.0
125.137825 228.0
125.289268 168.0
125.347565 124.0
125.60495 204.0
125.735237 164.0
125.759789 184.0
125.822296 172.0
125.869186 160.0
126.060104 232.0
126.202126 156.0
126.347504 140.0
126.412392 152.0
126.508636 176.0
126.526543 188.0
126.54425 176.0
126.651947 176.0
126.737083 296.0
126.786385 152.0
126.866096 128.0
127.008354 172.0
127.035271 176.0
127.385468 200.0
127.677673 144.0
127.765396 148.0
128.033264 140.0
128.153046 248.0
128.224762 176.0
128.32547 172.0
128.384827 204.0
128.420914 172.0
128.563049 176.0
128.632385 224.0
128.664627 140.0
128.725601 184.0
128.814911 96.0
128.931168 160.0
128.994461 180.0
129.254562 156.0
129.271362 188.0
129.317932 160.0
129.382156 212.0
129.408478 168.0
129.547516 164.0
129.746063 336.0
129.888016 268.0
129.961533 200.0
129.984222 168.0
130.113602 176.0
130.363449 180.0
130.431641 144.0
130.459991 152.0
130.522583 156.0
130.638855 164.0
130.741104 168.0
130.878647 184.0
130.953751 228.0
131.27861 164.0
131.317383 192.0
131.372131 160.0
131.454926 180.0
131.555908 164.0
131.611771 168.0
131.745667 200.0
131.879059 200.0
131.906494 200.0
132.022293 132.0
132.057404 152.0
132.078003 168.0
132.171799 188.0
132.208405 160.0
132.233582 152.0
132.290817 192.0
132.366364 156.0
132.533539 180.0
132.558792 216.0
132.616089 152.0
132.66423 164.0
132.685532 192.0
132.707123 196.0
132.879807 160.0
132.944061 192.0
133.058823 208.0
133.083008 196.0
133.106613 168.0
133.233368 148.0
133.249451 248.0
133.290817 144.0
133.403427 160.0
133.465515 172.0
133.615021 156.0
133.654129 408.0
133.704758 148.0
133.854385 164.0
133.918381 372.0
134.289963 140.0
134.332031 240.0
134.449158 148.0
134.562271 148.0
134.589981 192.0
134.622314 188.0
134.672165 164.0
134.740112 152.0
134.830231 148.0
134.851028 200.0
134.869522 192.0
134.889175 112.0
134.929977 208.0
135.031372 148.0
135.057053 152.0
135.126953 152.0
135.219818 124.0
135.255814 232.0
135.290543 208.0
135.355362 140.0
135.378525 152.0
135.401688 176.0
135.429474 152.0
135.54068 160.0
135.568741 148.0
135.660339 108.0
135.761139 156.0
135.953461 156.0
135.976669 140.0
136.019745 100.0
136.120605 176.0
136.256226 124.0
136.310913 104.0
136.37616 176.0
136.422653 196.0
136.536591 216.0
136.755295 176.0
136.932236 144.0
137.030075 180.0
137.085999 184.0
137.332504 168.0
137.531464 176.0
137.63652 140.0
137.706589 184.0
137.751999 172.0
137.818726 180.0
137.839752 152.0
137.944397 196.0
137.95903 348.0
138.076523 1220.0
138.181137 168.0
138.43988 148.0
138.548706 168.0
138.581512 172.0
138.723083 232.0
138.792465 176.0
138.815918 156.0
138.947266 344.0
139.023834 260.0
139.058365 324.0
139.095978 428.0
139.266525 188.0
139.317993 172.0
139.452148 148.0
139.532074 152.0
139.569687 176.0
139.701401 168.0
139.779037 164.0
139.803772 228.0
140.007401 172.0
140.04744 148.0
140.099258 156.0
140.144028 224.0
140.179367 192.0
140.210007 152.0
140.254791 192.0
140.287888 188.0
140.573181 152.0
140.589706 152.0
140.682938 344.0
140.745499 176.0
140.934082 168.0
140.984985 148.0
141.076797 128.0
141.11174 192.0
141.154297 216.0
141.21579 156.0
141.267899 148.0
141.390869 156.0
141.523438 152.0
141.622665 200.0
141.632278 180.0
141.703445 168.0
141.786392 164.0
141.871719 176.0
141.949966 144.0
142.023483 196.0
142.068558 144.0
142.118835 372.0
142.269424 100.0
142.348633 200.0
142.36525 192.0
142.449753 112.0
142.514908 244.0
142.53154 176.0
142.557678 200.0
142.658859 152.0
142.709808 180.0
142.814453 144.0
142.886734 136.0
143.023849 232.0
143.12384 180.0
143.140503 140.0
143.180984 148.0
143.216721 184.0
143.264359 152.0
143.421631 176.0
143.521759 156.0
143.564865 164.0
143.803329 144.0
143.834305 284.0
143.857513 160.0
143.90831 200.0
143.965622 152.0
144.077881 144.0
144.161514 228.0
144.240891 168.0
144.295502 152.0
144.3423 248.0
144.57045 148.0
144.651825 140.0
144.76915 152.0
144.812256 180.0
145.032867 112.0
145.205338 208.0
145.294083 140.0
145.39006 140.0
145.459625 184.0
145.49498 124.0
145.5298 324.0
145.663788 148.0
145.70842 132.0
145.759888 148.0
145.900894 332.0
145.942581 228.0
146.002686 396.0
146.060425 152.0
146.128983 128.0
146.214401 188.0
146.300369 180.0
146.341995 164.0
146.394974 168.0
146.486496 180.0
146.515396 152.0
146.655167 184.0
146.694778 196.0
146.787766 212.0
146.806717 376.0
146.927658 204.0
147.19075 148.0
147.221085 132.0
147.335678 148.0
147.454086 224.0
147.536087 156.0
147.57428 188.0
147.649918 180.0
147.976166 204.0
148.00322 148.0
148.071289 192.0
148.12674 188.0
148.16066 184.0
148.210205 196.0
148.220886 196.0
148.250305 220.0
148.322403 156.0
148.383636 200.0
148.480621 260.0
148.51944 212.0
148.553391 168.0
148.728104 176.0
148.883499 160.0
148.934509 168.0
148.970947 324.0
149.287888 100.0
149.392349 172.0
149.452332 184.0
149.522903 180.0
149.655334 100.0
149.699203 252.0
149.772583 128.0
149.793182 284.0
149.88768 132.0
150.052795 144.0
150.075882 144.0
150.253036 164.0
150.314941 160.0
150.468704 220.0
150.502899 156.0
150.537949 340.0
150.605469 160.0
150.793594 140.0
150.864487 180.0
150.893829 156.0
150.961395 240.0
150.984299 172.0
151.025681 240.0
151.062576 184.0
151.091614 184.0
151.140869 156.0
151.214279 192.0
151.336502 272.0
151.393005 184.0
151.493423 156.0
151.755676 144.0
151.831696 168.0
151.855164 200.0
151.885651 152.0
151.933594 196.0
151.951889 208.0
151.994904 140.0
152.018143 168.0
152.093384 896.0
152.209335 144.0
152.283295 224.0
152.391174 96.0
152.412628 164.0
152.554138 232.0
152.592209 136.0
152.742935 172.0
152.770126 296.0
152.854584 180.0
152.875015 212.0
152.950668 188.0
153.037811 180.0
153.055496 212.0
153.100723 2816.0
153.227921 172.0
153.375778 212.0
153.482834 208.0
153.680313 148.0
153.723526 176.0
153.744141 160.0
153.827194 172.0
153.985229 240.0
154.002518 168.0
154.039566 224.0
154.070923 184.0
154.11615 168.0
154.210068 144.0
154.2621 228.0
154.291641 156.0
154.474701 156.0
154.56398 184.0
154.603302 140.0
154.771637 176.0
154.818695 152.0
154.962357 200.0
155.066437 148.0
155.158157 184.0
155.297028 152.0
155.361526 144.0
155.42485 136.0
155.478149 160.0
155.512894 156.0
155.547638 168.0
155.684204 172.0
155.736771 196.0
155.819305 204.0
155.95253 324.0
156.058014 120.0
156.117813 268.0
156.18129 212.0
156.269302 136.0
156.54216 232.0
157.03064 312.0
157.130692 180.0
157.347549 156.0
157.389999 236.0
157.527374 176.0
157.675629 180.0
157.809784 156.0
157.877289 180.0
157.897018 224.0
157.999863 164.0
158.029892 184.0
158.157516 172.0
158.204849 176.0
158.302734 168.0
158.362015 220.0
158.385376 160.0
158.548157 264.0
158.605881 144.0
158.769684 184.0
158.79895 156.0
158.824036 144.0
158.844101 192.0
159.145752 188.0
159.193939 156.0
159.421585 192.0
159.451752 148.0
159.49704 184.0
159.523666 244.0
159.578354 232.0
159.737427 156.0
159.831482 180.0
159.879288 260.0
160.110916 152.0
160.169388 292.0
160.219894 240.0
160.257019 172.0
160.355301 160.0
160.488907 176.0
160.509079 152.0
161.011276 372.0
161.234909 108.0
161.274048 140.0
161.354935 168.0
161.453552 180.0
161.640762 156.0
161.663528 188.0
161.693909 172.0
161.732788 188.0
161.893906 192.0
161.949371 156.0
162.028152 180.0
162.089981 260.0
162.127319 180.0
162.185272 152.0
162.352615 140.0
162.421097 164.0
162.517502 168.0
162.568253 192.0
162.664703 168.0
162.827194 144.0
162.844986 160.0
162.885452 184.0
162.924957 216.0
162.946594 196.0
163.031387 228.0
163.093979 184.0
163.23381 184.0
163.282135 160.0
163.396606 180.0
163.493607 164.0
163.526382 152.0
163.58493 256.0
163.671494 164.0
163.879013 208.0
164.02182 156.0
164.094467 184.0
164.127609 156.0
164.160767 204.0
164.318909 164.0
164.428635 144.0
164.551163 396.0
164.653305 204.0
164.795792 196.0
164.857224 176.0
164.995468 164.0
165.140335 336.0
165.389679 176.0
165.430634 184.0
165.479279 160.0
165.499756 148.0
165.544357 156.0
165.578094 196.0
165.607315 176.0
165.668793 268.0
165.840485 216.0
165.994308 148.0
166.012253 172.0
166.042694 180.0
166.07637 220.0
166.108093 6800.0
166.261108 168.0
166.394592 140.0
166.46051 160.0
166.551239 184.0
166.602615 164.0
166.666855 164.0
166.749084 176.0
166.777359 200.0
166.98967 216.0
167.021957 192.0
167.066833 288.0
167.117218 1560.0
167.338165 156.0
167.406998 168.0
167.446335 148.0
167.835266 156.0
168.087891 600.0
168.125015 7872.0
168.229813 208.0
168.401138 164.0
168.427704 208.0
168.668747 152.0
168.828415 180.0
168.943481 204.0
169.010742 164.0
169.129074 572.0
169.228165 152.0
169.471634 284.0
169.65477 212.0
169.814011 172.0
169.897369 188.0
169.920197 140.0
169.940948 176.0
169.99025 208.0
170.019714 192.0
170.138382 176.0
170.174545 220.0
170.304398 256.0
170.438232 120.0
170.553833 168.0
170.669266 140.0
171.066299 196.0
171.265915 200.0
171.372665 144.0
171.545624 176.0
171.649918 232.0
171.702072 140.0
171.741196 144.0
171.780319 188.0
171.858597 204.0
171.88208 152.0
172.04129 180.0
172.068115 172.0
172.098724 220.0
172.299835 152.0
172.35994 168.0
172.402115 168.0
173.039993 180.0
173.129669 196.0
173.149979 264.0
173.414597 156.0
173.474899 160.0
173.524765 180.0
173.596283 104.0
173.991714 176.0
174.067856 216.0
174.314789 140.0
174.36116 212.0
174.481369 240.0
174.598709 180.0
174.798645 188.0
174.867065 192.0
174.953934 212.0
175.07576 204.0
175.452682 140.0
175.478226 148.0
175.520416 168.0
175.603943 100.0
175.955765 172.0
175.979538 240.0
176.060181 580.0
176.2146 152.0
176.309738 268.0
176.341446 152.0
176.441895 144.0
176.536346 184.0
176.587341 160.0
176.654785 168.0
176.674789 132.0
176.746063 212.0
176.841339 256.0
176.920746 144.0
176.989594 168.0
177.024017 256.0
177.052612 156.0
177.073578 252.0
177.416168 152.0
177.591187 152.0
177.668411 140.0
177.738663 196.0
177.967148 244.0
178.022476 256.0
178.076904 236.0
178.113266 192.0
178.177841 216.0
178.31868 148.0
178.350586 140.0
178.568604 140.0
178.66983 156.0
178.773071 192.0
178.803665 208.0
178.833511 292.0
178.935837 160.0
179.034363 164.0
179.071655 212.0
179.11409 236.0
179.143509 188.0
179.256302 180.0
179.327438 156.0
179.35675 164.0
179.658081 168.0
179.692322 212.0
179.762146 184.0
179.986374 164.0
180.047791 144.0
180.120834 380.0
180.272202 188.0
180.325653 256.0
180.395157 172.0
180.534195 200.0
180.678635 168.0
180.78299 140.0
181.059128 292.0
181.120209 4628.0
181.283768 176.0
181.376907 188.0
181.43924 204.0
181.52504 140.0
181.560196 208.0
181.680603 144.0
181.71817 156.0
181.790375 136.0
181.868454 144.0
182.067139 200.0
182.122925 640.0
182.169907 168.0
182.222305 188.0
182.347977 188.0
182.394928 168.0
182.486328 212.0
182.959259 164.0
183.013702 200.0
183.104996 132.0
183.120529 236.0
183.148361 192.0
183.272278 144.0
183.371994 240.0
183.471176 136.0
183.533752 168.0
183.562027 180.0
183.695572 172.0
183.733337 164.0
183.833176 164.0
184.049118 152.0
184.120056 3104.0
184.247971 168.0
184.451675 220.0
184.479614 192.0
184.581284 196.0
184.640945 200.0
184.695984 148.0
184.726532 200.0
184.749146 168.0
184.870911 164.0
185.090179 320.0
185.111328 160.0
185.235657 240.0
185.40712 148.0
185.577911 144.0
185.626709 252.0
185.678238 184.0
185.718918 144.0
185.779068 188.0
185.878998 180.0
185.91156 156.0
185.973984 192.0
186.014694 104.0
186.076706 228.0
186.177612 148.0
186.215637 172.0
186.280823 176.0
186.416672 188.0
186.577972 212.0
186.791885 156.0
186.917038 288.0
187.030533 176.0
187.181076 188.0
187.20015 264.0
187.255569 140.0
187.488922 164.0
187.540695 192.0
187.58432 176.0
187.630661 140.0
187.753372 160.0
187.799728 204.0
187.829742 148.0
187.966156 152.0
188.168137 212.0
188.187256 156.0
188.209091 180.0
188.282822 160.0
188.340179 152.0
188.383896 208.0
188.452194 236.0
188.531433 160.0
188.6353 196.0
188.69545 164.0
188.963074 164.0
189.097916 152.0
189.225388 156.0
189.277802 172.0
189.354935 276.0
189.387802 164.0
189.686478 164.0
189.707108 144.0
189.730347 208.0
190.056732 192.0
190.107346 208.0
190.221405 140.0
190.614151 216.0
190.667267 208.0
190.827774 152.0
190.850555 168.0
190.990814 156.0
191.103607 184.0
191.231522 200.0
191.268723 188.0
191.351318 204.0
191.409134 160.0
191.504959 156.0
191.566132 144.0
191.621231 168.0
191.662567 184.0
191.907883 156.0
191.98233 156.0
192.009918 148.0
192.117096 200.0
192.150589 144.0
192.307892 172.0
192.379654 152.0
192.432114 148.0
192.545334 208.0
192.66687 192.0
192.744232 236.0
192.769104 156.0
192.89624 148.0
192.918167 172.0
193.017899 152.0
193.167587 228.0
193.269608 180.0
193.384521 100.0
193.546417 184.0
193.668274 164.0
194.165268 152.0
194.219345 176.0
194.473145 200.0
194.534729 112.0
194.646088 168.0
194.671158 184.0
194.780579 180.0
194.8806 156.0
194.950073 160.0
195.134735 2576.0
195.383835 172.0
195.464523 196.0
195.572083 148.0
195.742889 168.0
195.832932 244.0
195.928268 168.0
196.066055 164.0
196.138947 988.0
196.401871 188.0
196.478729 152.0
196.618622 152.0
196.657333 164.0
196.679657 180.0
196.805298 144.0
196.953308 204.0
197.149979 148.0
197.515152 168.0
197.537537 160.0
197.626099 140.0
197.775375 144.0
197.836975 148.0
197.878967 164.0
197.937759 168.0
198.010574 144.0
198.058197 188.0
198.153442 172.0
198.282578 144.0
198.313171 164.0
198.430908 232.0
198.506622 144.0
198.536957 176.0
198.733826 164.0
198.761887 164.0
198.801178 180.0
198.961166 176.0
198.982681 132.0
199.102951 168.0
199.135925 240.0
199.188644 192.0
199.292587 216.0
199.317871 204.0
199.42749 164.0
199.449966 188.0
199.50119 200.0
199.556793 148.0
199.577423 180.0
199.643967 184.0
199.696136 124.0
199.797379 164.0
199.852127 184.0
200.049149 180.0
200.101913 140.0
200.15332 160.0
200.192749 140.0
200.294128 180.0
200.350479 204.0
200.378647 192.0
200.413788 220.0
200.496994 148.0
200.702789 192.0
200.880478 196.0
200.98204 156.0
201.030014 184.0
201.286896 152.0
201.346207 320.0
201.442902 188.0
202.052887 188.0
202.144012 176.0
202.197998 156.0
202.329269 164.0
202.364212 216.0
202.403931 144.0
202.531296 176.0
202.794815 152.0
202.823151 200.0
202.860016 200.0
202.993073 240.0
203.116302 164.0
203.259918 100.0
203.447327 140.0
203.526749 260.0
203.641708 200.0
203.663055 160.0
203.975632 188.0
204.103577 220.0
204.174667 196.0
204.29982 204.0
204.453476 156.0
204.477341 176.0
204.558792 240.0
204.612885 208.0
204.89769 180.0
205.024078 248.0
205.065811 204.0
205.105713 196.0
205.20549 148.0
205.226669 216.0
205.362335 336.0
205.395447 180.0
205.459335 196.0
205.540497 128.0
205.718628 140.0
205.796112 176.0
205.830383 168.0
205.864655 172.0
206.214432 136.0
206.532059 192.0
206.570618 140.0
206.613342 180.0
206.67598 136.0
206.727997 192.0
206.790039 112.0
206.994217 144.0
207.02858 228.0
207.12883 164.0
207.16893 156.0
207.26062 164.0
207.372391 148.0
207.398178 192.0
207.432571 160.0
207.518585 144.0
207.550125 180.0
207.596008 232.0
207.652542 208.0
207.696182 160.0
207.814011 192.0
207.916061 148.0
207.93692 164.0
207.980469 200.0
208.059372 188.0
208.129745 172.0
208.181442 164.0
208.314941 184.0
208.354858 128.0
208.391006 180.0
208.506073 168.0
208.615311 188.0
208.736954 276.0
208.887085 188.0
208.925247 180.0
208.953857 200.0
209.034241 128.0
209.065353 240.0
209.09436 192.0
209.151459 6200.0
209.196411 168.0
209.296051 152.0
209.33461 140.0
209.372055 168.0
209.40625 156.0
209.496613 148.0
209.539124 184.0
209.560516 188.0
209.775452 240.0
209.819366 168.0
209.872772 212.0
209.910965 172.0
210.001266 152.0
210.034973 276.0
210.064926 136.0
210.086609 228.0
210.152405 940.0
210.236938 140.0
210.297119 160.0
210.3591 188.0
210.410141 376.0
210.470581 308.0
210.506393 200.0
210.553787 196.0
210.605133 212.0
210.671112 400.0
210.695221 180.0
210.736923 192.0
210.776764 600.0
210.817734 364.0
210.861923 260.0
210.894531 172.0
210.925018 544.0
210.988449 848.0
211.03624 324.0
211.079666 1092.0
211.129807 1444.0
211.168518 309540.0
211.251068 120.0
211.273819 208.0
211.3255 148.0
211.360565 256.0
211.402939 396.0
211.436493 744.0
211.479492 400.0
211.494522 312.0
211.523148 216.0
211.611145 1000.0
211.644226 14816.0
211.683136 360.0
211.711823 256.0
211.752243 360.0
211.793167 364.0
211.830917 288.0
211.872437 432.0
211.935333 224.0
212.010239 212.0
212.068451 200.0
212.126099 704.0
212.169586 79972.0
212.270645 152.0
212.337921 204.0
212.383377 112.0
212.406479 184.0
212.41539 168.0
212.427185 200.0
212.482742 168.0
212.598724 116.0
212.629898 152.0
212.647827 288.0
212.691422 124.0
212.719116 136.0
212.755112 128.0
212.777313 188.0
212.829788 108.0
212.851761 172.0
213.044067 172.0
213.104965 300.0
213.171921 2912.0
213.300415 228.0
213.352661 224.0
213.41713 104.0
213.461731 220.0
213.484406 208.0
213.517105 376.0
213.551361 128.0
213.559769 308.0
213.599564 160.0
213.633957 128.0
213.66127 232.0
213.686432 176.0
213.703705 224.0
213.734802 388.0
213.767242 300.0
213.81012 252.0
213.850159 244.0
213.877441 140.0
213.928864 156.0
214.148041 160.0
214.19371 100.0
214.232559 152.0
214.261047 168.0
214.446243 144.0
214.522415 112.0
214.610825 120.0
214.741699 108.0
214.926407 172.0
215.059387 196.0
215.123917 132.0
215.286804 100.0
215.403259 96.0
216.572769 96.0
220.160522 112.0
221.743454 188.0
221.948013 184.0
222.440506 144.0
222.788177 108.0
223.064331 140.0
223.323364 108.0
224.26889 108.0
226.481018 140.0
227.101471 212.0
228.139984 200.0
229.141708 164.0
232.699524 144.0
233.50177 148.0
235.003601 144.0
237.494202 96.0
240.623505 148.0
247.013168 212.0
249.987579 180.0
252.641174 184.0
273.794312 144.0
279.262024 152.0
279.618011 180.0
305.033508 116.0
328.89032 192.0
332.755035 100.0
343.063019 144.0
353.99231 116.0
476.498169 160.0
661.840149 152.0
683.302185 184.0
890.67041 148.0
920.696716 160.0
928.691956 144.0
1108.290771 184.0
1196.874756 160.0
1215.635742 152.0
1233.766602 204.0
1254.37793 204.0
1260.631348 168.0
1266.510742 164.0
1273.468994 176.0
1283.382324 176.0
1284.744507 204.0
1295.088379 204.0
1295.367676 172.0
1323.361938 148.0
1361.045532 184.0
1361.823975 160.0
1371.750366 140.0
1381.794189 168.0
1396.155151 156.0
1398.707153 144.0
1404.444824 196.0
1406.280273 188.0
1408.370972 192.0
1414.846924 160.0
1415.700562 212.0
1425.122192 172.0
1425.57312 172.0
1429.634033 188.0
1444.513062 176.0
1445.716187 196.0
1454.08313 152.0
1457.956421 172.0
1469.531006 156.0
1480.783691 140.0
1487.070801 148.0
1487.285767 148.0
1490.89563 152.0
1490.964722 204.0
1494.194336 240.0
1494.479004 180.0
1498.83728 148.0
1505.81897 188.0
1515.729126 208.0
1517.170776 204.0
1519.551758 156.0
1520.24231 220.0
1521.316772 124.0
1529.109863 168.0
1531.087402 160.0
1544.050781 168.0
1545.834473 160.0
1550.462769 172.0
1553.269775 196.0
1555.592529 220.0
1556.715332 180.0
1558.087402 164.0
1565.972046 144.0
1568.911255 148.0
1579.097778 140.0
1584.615234 200.0
1584.908447 156.0
1585.225464 208.0
1588.41272 180.0
1591.642944 192.0
1593.318848 148.0
1598.001709 188.0
1601.488525 172.0
1607.994629 148.0
1608.673096 208.0
1610.773315 192.0
1612.994873 152.0
1615.785889 176.0
1621.278931 192.0
1622.585449 188.0
1623.122681 140.0
1626.115112 172.0
1626.59668 176.0
1632.092041 228.0
1633.587891 252.0
1635.80896 156.0
1636.074707 196.0
1636.428955 208.0
1642.053711 168.0
1642.206909 216.0
1651.22876 184.0
1651.390503 220.0
1657.057129 140.0
1662.441284 156.0
1663.472168 144.0
1668.13501 148.0
1671.526611 248.0
1674.815796 156.0
1676.380005 156.0
1683.18335 224.0
1684.35022 188.0
1685.331665 192.0
1687.26062 152.0
1687.522217 224.0
1687.783813 216.0
1689.035156 168.0
1692.554321 188.0
1693.283203 176.0
1698.332153 156.0
1700.596802 184.0
1702.435791 208.0
1706.190918 176.0
1712.856689 200.0
1714.463379 168.0
1714.657349 152.0
1721.071045 220.0
1726.898315 148.0
1728.493896 164.0
1728.916016 140.0
1728.998779 188.0
1730.546753 180.0
1734.042603 140.0
1739.035645 188.0
1739.492188 224.0
1745.316284 172.0
1745.478027 360.0
1746.039673 160.0
1746.447266 176.0
1749.268188 176.0
1750.866821 192.0
1753.091187 208.0
1754.800049 200.0
1756.71814 180.0
1758.629028 176.0
1758.695801 156.0
1759.722656 144.0
1760.248657 232.0
1761.000366 160.0
1761.401245 236.0
1766.433594 184.0
1773.710449 220.0
1774.607544 156.0
1776.041504 200.0
1776.142212 156.0
1779.222046 232.0
1781.145142 160.0
1782.099121 192.0
1782.506226 148.0
1783.951782 208.0
1784.85144 160.0
1786.163452 172.0
1787.963989 164.0
1788.687866 164.0
1792.78125 196.0
1798.550293 168.0
1801.319946 180.0
1802.038086 160.0
1802.173218 164.0
1804.793579 156.0
1805.393921 156.0
1809.184692 228.0
1812.835327 180.0
1814.615356 216.0
1814.937622 144.0
1816.235107 160.0
1816.54895 144.0
1817.643433 168.0
1819.706055 156.0
1821.022339 184.0
1821.727417 200.0
1825.041992 176.0
1825.416138 156.0
1827.53418 228.0
1830.34314 148.0
1832.924194 144.0
1839.559692 144.0
1839.704834 144.0
1842.822144 148.0
1843.77063 204.0
1844.052734 168.0
1845.813843 176.0
1846.172974 144.0
1847.207886 172.0
1848.345825 156.0
1849.133179 156.0
1849.210205 192.0
1851.290649 184.0
1853.140869 168.0
1855.232056 204.0
1856.552612 204.0
1857.761963 168.0
1858.757202 144.0
1866.273315 156.0
1867.331055 176.0
1867.821289 232.0
1868.853638 172.0
1872.443481 184.0
1872.55542 176.0
1875.579712 224.0
1877.562866 172.0
1879.003418 148.0
1879.365723 176.0
1882.050171 192.0
1887.182617 168.0
1887.50708 164.0
1888.748047 204.0
1891.110229 140.0
1891.369873 156.0
1891.62085 180.0
1893.248657 168.0
1895.371094 164.0
1896.012329 184.0
1898.032227 196.0
1898.249634 160.0
1898.951538 180.0
1899.359131 160.0
1899.688843 148.0
1901.328735 140.0
1904.463013 140.0
1905.331787 212.0
1905.592407 196.0
1906.052979 188.0
1911.574829 184.0
1913.785767 160.0
1914.012207 188.0
1914.787231 228.0
1915.780273 140.0
1916.224609 144.0
1916.41626 180.0
1921.560425 192.0
1921.961792 152.0
1923.55896 152.0
1929.289673 208.0
1930.811157 168.0
1934.127319 140.0
1935.195312 172.0
1936.39502 212.0
1936.824219 180.0
1941.548462 200.0
1941.671265 176.0
1947.604492 188.0
1948.578247 200.0
1949.713257 152.0
1950.082275 164.0
1950.390015 168.0
1950.451538 168.0
1951.304199 172.0
1951.893311 180.0
1952.711182 248.0
1957.712036 204.0
1957.798218 188.0
1957.958252 164.0
1958.115234 168.0
1958.45874 196.0
1960.864136 192.0
1961.163818 164.0
1962.38916 148.0
1963.101685 144.0
1964.549927 152.0
1967.056152 204.0
1969.051758 156.0
1969.39624 172.0
1969.723022 192.0
1970.164673 156.0
1972.506592 184.0
1973.019287 164.0
1974.380981 156.0
1975.672485 228.0
1977.291748 204.0
1978.380493 164.0
1979.212769 168.0
1979.27478 260.0
1980.22229 248.0
1980.330566 168.0
1982.162476 148.0
1982.384033 228.0
1982.791748 164.0
1982.906982 152.0
1983.527344 188.0
1984.334106 156.0
1984.458252 196.0
1984.928223 200.0
1985.052368 192.0
1985.812622 244.0
1987.864502 192.0
1988.503418 196.0
1988.716431 192.0
1990.651855 172.0
1991.353516 200.0
1992.321777 240.0
1992.970337 152.0
1993.059204 192.0
1995.539062 180.0
1996.606201 140.0
2002.132935 192.0
2002.293213 192.0
