>compound Vildagliptin (LAF-237)
>formula C17H25N3O2
>ionization [M+H]+
>parentmass 304.203766
#inchi InChI=1S/C17H25N3O2/c18-9-14-2-1-3-20(14)15(21)10-19-16-5-12-4-13(6-16)8-17(22,7-12)11-16/h12-14,19,22H,1-8,10-11H2/t12?,13?,14-,16?,17?/m0/s1
#inchikey SYOKIDBDQMKNDQ
#Ion_Source LC-ESI
#Instrument qTof
#Compound_Source Commercial
#PI Dorrestein
#Data_Collector Garg_Neha
#Scan -1
#Precursor_MZ 304.202
#ExactMass 303.195
#Charge 1
#CAS_Number 274901-16-5, 565453-38-5, 924914-75-0 (HCl)
#Pubmed_ID N/A
#Smiles C1N([C@@H](CC1)C#N)C(CNC23CC4CC(C2)CC(C3)(C4)O)=O
#INCHI_AUX N/A
#Library_Class 1
#SpectrumID CCMSLIB00000078549
#IonMode Positive
#UpdateWorkflowName UPDATE-SINGLE-ANNOTATED-GOLD
#LibraryQualityString Gold
#TaskID 77f51c88eb8b467eb4a01dd2d0cb90d2
##Scan# 984
#SpectrumFile Plate9_1_20_GC4_01_15750.mzXML
#LibraryName FDALibrary_2_04302014.mgf
#MQScore -1
#Organism FDALibrary_2_04302014
#TIC_Query 0
#RT_Query -1
#MZErrorPPM -1
#SharedPeaks 0
#MassDiff 0
#LibMZ -1
#SpecMZ 304.202
#SpecCharge 0
#internalFilename spec-00000.mgf

>collision 10
45.167492 192.0
45.340214 244.0
45.592518 176.0
45.628811 164.0
46.627773 228.0
47.05687 180.0
47.101936 176.0
49.188545 144.0
49.822926 168.0
50.317261 192.0
50.546238 140.0
50.653839 164.0
50.686424 176.0
51.07827 164.0
52.548149 164.0
53.05434 164.0
54.072536 168.0
54.110596 172.0
55.183178 156.0
55.377033 148.0
55.421478 188.0
56.287186 160.0
56.363369 212.0
56.613186 148.0
57.682953 268.0
57.693535 140.0
58.038734 140.0
58.77494 200.0
58.808517 176.0
58.936794 176.0
60.063667 216.0
60.578568 132.0
60.992744 176.0
61.766163 244.0
62.401299 148.0
62.905434 160.0
63.436954 144.0
63.902279 144.0
64.870087 292.0
66.173431 172.0
66.632423 188.0
66.842171 144.0
66.929298 228.0
68.089516 172.0
68.832222 188.0
69.017288 164.0
71.009033 220.0
71.077812 144.0
71.178528 232.0
71.210442 156.0
71.760712 144.0
72.501099 152.0
72.55703 164.0
73.03421 152.0
73.58123 176.0
74.31205 140.0
74.543854 144.0
75.395164 160.0
75.763725 140.0
76.265221 164.0
76.527908 208.0
76.695145 180.0
76.995239 168.0
77.337929 148.0
77.680862 208.0
78.266617 148.0
78.991982 180.0
79.13533 156.0
80.965919 180.0
81.028618 184.0
83.609039 148.0
84.28376 164.0
84.409889 140.0
86.194794 176.0
86.363029 164.0
86.859444 180.0
87.830421 224.0
88.033859 148.0
89.673561 144.0
90.432838 216.0
91.050911 192.0
91.149696 140.0
91.572029 176.0
92.051811 184.0
92.676193 156.0
93.069778 1016.0
94.222916 172.0
95.050201 804.0
95.714638 208.0
95.897766 168.0
96.430595 176.0
96.708328 172.0
96.929634 208.0
97.023712 184.0
97.076279 7212.0
97.217896 200.0
97.510513 296.0
97.961105 164.0
98.078636 160.0
98.92083 184.0
99.678459 144.0
100.448959 148.0
100.628563 168.0
101.300529 204.0
101.743721 168.0
102.059158 188.0
102.721748 168.0
103.016472 188.0
103.25296 200.0
103.761215 184.0
104.469986 148.0
105.070557 312.0
105.29142 200.0
105.483482 176.0
105.687996 152.0
106.093521 144.0
107.08548 1964.0
107.273514 176.0
107.963135 164.0
108.09166 136.0
108.555405 164.0
109.064873 988.0
109.09655 316.0
110.066139 156.0
110.622269 236.0
110.907143 156.0
112.873497 168.0
113.036369 204.0
114.541641 176.0
116.048294 212.0
116.084747 164.0
116.350807 176.0
116.503288 196.0
117.636017 156.0
117.76342 160.0
118.748207 200.0
119.569458 148.0
120.419746 168.0
121.786469 224.0
122.699699 156.0
122.990891 264.0
123.120483 132.0
124.294411 140.0
125.081161 140.0
125.448708 184.0
125.540123 144.0
125.584732 168.0
126.10466 148.0
126.187668 252.0
126.234627 164.0
126.49192 184.0
127.085144 1000.0
127.575417 152.0
128.086227 164.0
128.113266 176.0
130.366852 152.0
130.689743 148.0
131.348129 196.0
131.382355 156.0
132.259842 180.0
132.436157 156.0
132.472809 160.0
133.100296 1476.0
133.666687 164.0
134.103119 300.0
134.548218 124.0
137.231506 176.0
137.322464 200.0
139.349686 144.0
139.86705 136.0
140.142593 148.0
140.457199 204.0
141.706711 240.0
142.972351 160.0
144.454041 144.0
144.59761 176.0
145.580536 160.0
145.671814 168.0
145.945786 156.0
146.044388 148.0
146.651505 132.0
147.720825 152.0
147.815186 164.0
148.641495 208.0
149.431168 164.0
149.487137 140.0
149.813385 148.0
149.837753 184.0
149.957153 168.0
150.393738 144.0
150.720993 188.0
150.99823 176.0
151.111694 14268.0
151.274292 160.0
151.889832 140.0
152.070908 176.0
152.114609 1276.0
152.331833 180.0
152.866608 156.0
153.047897 96.0
153.123535 232.0
153.168594 128.0
153.283447 132.0
153.44545 260.0
153.556412 152.0
153.600815 156.0
153.718369 136.0
153.816345 208.0
153.84758 184.0
153.921814 184.0
153.956223 260.0
154.013489 168.0
154.053925 144.0
154.064163 188.0
154.098495 91412.0
154.151382 148.0
154.269699 108.0
154.310028 128.0
154.33226 180.0
154.358368 120.0
154.469025 108.0
154.504227 768.0
154.52887 120.0
154.565903 188.0
154.592926 96.0
154.621506 152.0
154.715302 272.0
155.100342 7564.0
155.852219 120.0
156.063965 268.0
156.104797 616.0
156.305298 240.0
156.391312 112.0
158.230148 120.0
158.518692 164.0
160.99913 188.0
161.909561 212.0
163.013077 188.0
163.524261 140.0
165.617935 140.0
166.89595 156.0
170.120285 164.0
172.66861 156.0
173.097794 208.0
173.768799 148.0
174.328079 208.0
174.727753 152.0
175.19635 204.0
176.838791 184.0
177.161835 140.0
179.572754 140.0
179.874268 168.0
180.140289 132.0
187.077454 192.0
187.153931 184.0
192.142029 140.0
193.576553 180.0
194.55806 164.0
194.644135 224.0
194.835785 172.0
195.263855 208.0
199.497269 192.0
200.851746 140.0
202.867935 148.0
203.872711 140.0
208.679565 192.0
210.608612 156.0
212.148041 192.0
212.420624 196.0
214.674698 160.0
214.943069 160.0
217.721146 156.0
219.522156 148.0
220.41954 180.0
221.152969 160.0
224.453552 196.0
224.874191 168.0
226.090942 160.0
227.319244 148.0
230.197052 216.0
230.323898 140.0
230.71373 172.0
231.979126 172.0
234.130325 156.0
235.490555 176.0
235.624954 192.0
236.719971 256.0
237.148865 140.0
237.839005 176.0
251.053589 140.0
256.768494 160.0
256.918396 152.0
257.681427 148.0
258.775238 160.0
258.916138 152.0
261.29538 220.0
265.853943 204.0
268.665192 192.0
269.912842 160.0
270.635956 152.0
274.183716 148.0
274.243042 168.0
275.596069 164.0
277.190948 160.0
279.61853 144.0
280.144623 200.0
283.187622 164.0
283.452301 144.0
283.69696 144.0
286.954681 144.0
293.031647 200.0
293.870392 144.0
294.75473 200.0
296.188202 168.0
296.846222 152.0
297.621735 156.0
299.768158 148.0
302.271393 96.0
303.180725 168.0
303.236481 176.0
303.331268 124.0
303.407043 160.0
303.530334 180.0
303.659851 188.0
303.727783 124.0
303.790985 140.0
303.842712 140.0
303.945129 128.0
304.02829 132.0
304.083374 192.0
304.118347 200.0
304.203766 135096.0
304.29538 108.0
304.533051 184.0
304.575317 172.0
304.683289 248.0
304.774139 1300.0
304.826813 160.0
304.87262 124.0
304.968567 120.0
305.104553 180.0
305.159851 600.0
305.20575 21860.0
305.284454 224.0
305.338226 156.0
305.373718 176.0
305.490112 128.0
305.542328 116.0
305.70462 156.0
305.756287 128.0
305.86734 124.0
305.929901 152.0
305.963776 136.0
306.207245 3840.0
306.386108 200.0
306.857788 100.0
307.187744 180.0
307.211914 264.0
307.256409 112.0
307.283051 216.0
307.344513 236.0
307.373718 116.0
307.448822 96.0
307.598663 124.0
316.060913 168.0
318.709198 116.0
321.071503 140.0
362.821198 148.0
450.938385 148.0
1111.332764 140.0
1167.83374 188.0
1243.203857 160.0
1291.002686 152.0
1309.871826 144.0
1336.106812 200.0
1348.539673 180.0
1374.44873 152.0
1382.148193 156.0
1431.25 164.0
1502.973755 228.0
1510.088623 188.0
1511.3573 168.0
1550.410278 156.0
1555.422119 204.0
1557.919189 156.0
1560.811523 152.0
1563.800903 164.0
1564.66687 156.0
1594.241821 148.0
1642.432983 168.0
1689.353149 156.0
1709.512451 192.0
1728.409302 164.0
1730.536499 216.0
1733.758789 188.0
1733.866455 240.0
1740.179077 180.0
1744.931396 156.0
1747.692749 152.0
1748.990967 152.0
1760.162476 252.0
1761.690918 156.0
1770.883667 180.0
1777.254883 204.0
1781.595459 156.0
1811.585815 192.0
1814.950439 160.0
1820.652954 188.0
1828.670166 152.0
1831.778076 176.0
1846.946411 204.0
1852.724609 148.0
1866.783813 220.0
1882.502075 164.0
1886.519775 204.0
1901.956055 156.0
1911.846802 240.0
1912.360229 180.0
1919.373169 160.0
1919.835327 148.0
1921.736938 196.0
1930.874146 164.0
1940.962402 224.0
1941.690308 200.0
1943.54126 164.0
1949.055542 164.0
1949.266357 152.0
1965.733276 176.0
1966.589355 168.0
1967.480957 144.0
1970.245117 208.0
1974.585205 140.0
1977.29248 176.0
1987.856079 168.0
