>compound Phenelzine
>formula C8H12N2 
>ionization [M+H]+
>parentmass 137.108
#inchi InChI=1S/C8H12N2/c9-10-7-6-8-4-2-1-3-5-8/h1-5,10H,6-7,9H2
#inchikey RMUCZJUITONUFY
#Ion_Source LC-ESI
#Instrument qTof
#Compound_Source Commercial
#PI Dorrestein
#Data_Collector Garg_Neha
#Scan -1
#Precursor_MZ 137.108
#ExactMass 136.1
#Charge 1
#CAS_Number N/A
#Pubmed_ID N/A
#Smiles N/A
#INCHI_AUX N/A
#Library_Class 1
#SpectrumID CCMSLIB00000077147
#IonMode Positive
#UpdateWorkflowName UPDATE-SINGLE-ANNOTATED-GOLD
#LibraryQualityString Gold
#TaskID 48f7f52fc6d249b5abbcc6e7b3df5969
##Scan# 343
#SpectrumFile NCP003195_E2E6F2F6G2G6H2H6_BB7_01_15711.mzXML
#LibraryName NIH_Clinical_Collection_2.mgf
#MQScore -1
#Organism NIHcollection2_04212014_2_mgf
#TIC_Query 0
#RT_Query -1
#MZErrorPPM -1
#SharedPeaks 0
#MassDiff 0
#LibMZ -1
#SpecMZ 137.108
#SpecCharge 0
#internalFilename spec-00000.mgf

>collision 10
73.759483 148.0
103.05304 160.0
105.070709 1028.0
106.071411 452.0
137.115265 340.0
138.108414 152.0
1469.932617 168.0
