>compound TriamcinoloneAcetonide
>formula C24H31FO6 
>ionization [M+H]+
>parentmass 435.21701
#inchi InChI=1S/C24H31FO6/c1-20(2)30-19-10-16-15-6-5-13-9-14(27)7-8-21(13,3)23(15,25)17(28)11-22(16,4)24(19,31-20)18(29)12-26/h7-9,15-17,19,26,28H,5-6,10-12H2,1-4H3/t15-,16-,17-,19+,21-,22-,23-,24+/m0/s1
#inchikey YNDXUCZADRHECN
#Ion_Source LC-ESI
#Instrument qTof
#Compound_Source Isolated
#PI Sirenas
#Data_Collector Ed Esquenazi 
#Scan -1
#Precursor_MZ 435.218
#ExactMass 0.0
#Charge 1
#CAS_Number N/A
#Pubmed_ID N/A
#Smiles N/A
#INCHI_AUX N/A
#Library_Class 3
#SpectrumID CCMSLIB00000005220
#IonMode Positive
#UpdateWorkflowName UPDATE-SINGLE-ANNOTATED-BRONZE
#LibraryQualityString Bronze
#TaskID d19310cd93df49b68e9fcbec27720eb5
##Scan# 1
#SpectrumFile TriamcinoloneAcetonide.mgf
#LibraryName fda_library.mgf
#MQScore -1
#Organism fda_library
#TIC_Query 0
#RT_Query -1
#MZErrorPPM -1
#SharedPeaks 0
#MassDiff 0
#LibMZ -1
#SpecMZ 435.218
#SpecCharge 0
#internalFilename spec-00000.mgf

>collision 10
105.068016 73.970909
107.085396 26.172131
110.068489 32.087448
111.042358 19.455879
119.04847 12.91667
123.080345 33.790371
125.058739 68.078583
127.038673 14.09375
128.05957 16.566179
129.065659 12.70439
135.080414 33.65625
139.070648 70.647774
140.058258 13.68371
142.057343 50.60947
143.083481 22.9144
147.080978 309.04361
151.039413 99.973251
151.076309 93.228973
155.065521 80.673027
155.083176 36.0
159.061737 30.44068
159.080338 27.964279
161.058243 65.257622
161.099915 111.178703
162.959869 13.625
167.073975 18.00762
169.060135 30.754471
171.077072 180.418396
173.058121 47.369202
173.094452 103.535004
174.098206 44.123959
175.069199 12.53002
177.086609 72.134079
179.069809 50.659309
179.30101 10.44565
181.084442 11.99003
185.09584 71.895866
187.072647 225.473099
187.107742 55.72974
193.097672 15.75174
196.087112 16.252319
197.076263 57.095951
199.10849 31.45455
201.122055 31.000311
203.103317 80.234543
207.10347 45.68837
207.121124 28.50102
209.085388 39.653851
209.09848 82.006813
211.107605 75.430183
213.089371 12.9
213.124619 213.529694
213.431778 11.5
215.105515 12.85537
215.143967 14.759
219.10051 26.524111
219.116806 17.86161
223.073471 29.324671
223.111221 218.998596
225.026428 22.115271
225.092712 19.714649
225.126053 342.983185
226.815033 10.44565
227.107819 15.03333
227.141937 113.682602
229.120392 11.29602
233.091263 49.8908
235.10881 12.75368
237.124023 146.902695
239.138626 44.979408
240.113571 15.72227
240.144775 19.18367
241.119171 67.445557
241.59697 10.93939
243.138779 60.890781
247.13324 18.29668
249.127411 192.027802
250.585449 14.62016
251.141052 131.740997
251.971603 11.91736
252.143265 62.13649
253.120041 84.63224
253.15889 168.185501
253.312927 11.65307
255.133591 39.9533
257.074402 49.588772
259.109711 17.3617
261.129181 109.509102
261.579529 14.53488
263.14212 323.816711
263.337921 10.02009
265.158173 114.374901
265.771271 13.65042
267.112366 32.729778
269.115265 68.436089
269.155121 100.741096
271.069763 15.14375
271.117767 17.34375
274.038666 15.05125
275.142792 288.207306
277.121429 28.533199
279.136017 255.865997
281.107849 33.382721
281.130341 33.34507
281.1539 306.996887
283.124908 16.69556
283.254425 12.22059
285.124146 52.06834
287.122345 13.0601
287.144836 18.060341
291.137451 55.06208
291.55484 13.19901
292.144409 26.533331
293.15509 522.867981
293.747162 10.6656
295.132538 198.537903
297.148254 248.028
299.159943 15.82703
301.150879 28.451611
301.499359 12.2796
303.134399 129.869095
309.146027 81.643257
311.12616 28.860929
311.163666 911.745483
311.251495 17.60977
311.388794 14.32949
311.505463 11.25284
311.547028 13.24227
311.855835 12.69823
319.171021 28.65341
321.148895 764.778076
321.434662 17.013889
321.856384 11.61161
322.067139 17.395741
322.436951 10.75057
325.092316 15.69215
325.152863 30.69841
327.154175 128.3591
329.172974 121.1698
335.049194 24.15822
337.135529 32.742271
337.180328 36.404732
338.999512 16.39259
339.132019 43.171051
339.15918 2020.656006
339.332489 16.81399
339.428711 22.580931
339.451904 17.88356
339.549805 14.66077
339.584412 21.84392
339.696991 14.19196
339.775787 11.77367
339.854065 16.86237
339.902496 10.82717
340.685608 29.83802
341.443512 10.30625
341.469666 15.61161
341.5914 10.25051
342.048035 13.50477
343.151733 141.252106
345.144653 56.265888
354.861755 12.5558
355.012421 15.8196
355.15097 145.729294
355.576385 11.50061
355.912048 10.50089
356.934998 16.059191
357.169495 1777.57605
357.322937 12.13594
357.467316 29.76746
357.565552 15.88036
357.947083 10.51087
361.170258 35.151791
361.326172 10.16736
367.183319 33.25
369.21344 15.13889
369.625 12.30179
377.22879 14.5329
379.18985 137.755402
380.213318 15.01563
394.924469 12.01532
395.076691 11.90307
396.273804 13.77511
397.029602 12.83403
397.098511 32.534088
397.19986 2629.5979
397.465851 11.26166
397.657501 15.50461
397.706116 15.23003
397.771484 33.873322
397.966766 13.29499
398.43866 17.069201
399.250488 20.391541
401.675171 12.81641
412.452148 15.59067
412.600159 26.20089
412.624176 18.160509
412.658844 19.190069
412.690186 36.475422
412.735046 34.902061
415.086395 10.0
415.114746 14.51278
415.16449 44.878868
415.210785 5780.759766
415.291473 23.875
415.320984 58.855671
415.348602 38.734169
415.422455 23.43487
415.456818 38.247799
415.490143 28.47431
415.520416 24.31988
415.580841 42.348499
415.621613 41.577229
415.686951 19.543091
415.782654 18.55792
415.873505 11.26585
415.936951 16.41518
416.019012 25.954889
416.056549 33.118191
416.391541 14.28467
416.822906 21.78586
420.135498 10.72407
432.370636 15.46795
432.567993 17.02174
433.044464 10.17388
433.487823 10.97784
434.06073 15.60556
434.908325 18.40037
435.168579 54.076279
435.21701 1916.853027
435.375732 14.31136
435.4375 13.09722
435.470459 40.330421
436.284119 10.4375
436.330902 47.421009
1109.133911 19.257891
1166.233521 47.86174
