>compound MLS001076516-01!
>formula C20H23NO4
>ionization [M+H]+
>parentmass 342.16861
#inchi InChI=1S/C20H23NO4/c22-13-4-3-12-9-15-20(24)6-5-14(23)18-19(20,16(12)17(13)25-18)7-8-21(15)10-11-1-2-11/h3-4,11,15,18,22,24H,1-2,5-10H2/t15-,18+,19+,20-/m1/s1
#inchikey DQCKKXVULJGBQN
#origInchi InChI=1S/C20H23NO4.ClH/c22-13-4-3-12-9-15-20(24)6-5-14(23)18-19(20,16(12)17(13)25-18)7-8-21(15)10-11-1-2-11;/h3-4,11,15,18,22,24H,1-2,5-10H2;1H/t15-,18+,19+,20-;/m1./s1
#Ion_Source LC-ESI
#Instrument qTof
#Compound_Source NIH Pharmacologically Active Library
#PI Dorrestein
#Data_Collector VP/LMS
#Scan -1
#Precursor_MZ 342.169
#ExactMass 341.163
#Charge 1
#CAS_Number N/A
#Pubmed_ID N/A
#Smiles Oc1ccc2C[C@H]3N(CC4CC4)CC[C@]5([C@H]6Oc1c25)[C@@]3(O)CCC6=O.Cl
#INCHI_AUX N/A
#Library_Class 1
#SpectrumID CCMSLIB00000085211
#IonMode Positive
#UpdateWorkflowName UPDATE-SINGLE-ANNOTATED-GOLD
#LibraryQualityString Gold
#TaskID d252d724072548979f1f6f1ced849daf
##Scan# 1212
#SpectrumFile p3-G02_GG2_01_18295.mzXML
#LibraryName Pharm_Active_Library.mgf
#MQScore -1
#Organism Pharm_Active_Library
#TIC_Query 0
#RT_Query -1
#MZErrorPPM -1
#SharedPeaks 0
#MassDiff 0
#LibMZ -1
#SpecMZ 342.169
#SpecCharge 0
#internalFilename spec-00000.mgf

>collision 10
44.898197 232.0
44.960903 32.0
45.118534 180.0
45.147953 108.0
45.39706 140.0
45.560825 164.0
45.886543 136.0
46.083614 116.0
46.519737 188.0
46.574059 128.0
46.737209 108.0
47.403629 164.0
47.683613 160.0
47.701485 140.0
48.141037 196.0
48.193531 136.0
48.52158 256.0
48.534058 144.0
48.624237 136.0
49.222897 160.0
49.505394 92.0
49.578247 128.0
49.680611 156.0
49.708675 144.0
49.891281 104.0
50.198246 136.0
50.271606 120.0
51.424107 192.0
51.827415 136.0
51.93351 192.0
52.039711 216.0
52.278343 156.0
52.567646 156.0
52.710987 160.0
52.793392 172.0
52.848366 168.0
52.949703 88.0
52.974327 204.0
53.495701 160.0
53.896805 160.0
54.108898 124.0
54.408001 232.0
54.452057 216.0
54.777142 88.0
54.861145 164.0
55.070698 144.0
55.25993 136.0
55.603741 172.0
55.706203 136.0
56.024578 228.0
56.36179 164.0
56.432045 180.0
56.710506 136.0
56.815479 92.0
57.195698 152.0
57.210751 132.0
57.438313 100.0
57.55302 140.0
57.713196 128.0
57.873592 188.0
58.059994 56.0
58.732296 212.0
58.759758 144.0
59.100502 176.0
59.38546 188.0
60.005226 120.0
60.150246 144.0
60.256813 192.0
60.321724 244.0
60.691765 208.0
61.596043 160.0
61.646042 256.0
61.6945 52.0
61.747669 128.0
61.9543 68.0
62.021687 128.0
62.389038 148.0
62.417339 48.0
62.431496 152.0
62.522747 156.0
63.176029 164.0
63.40881 156.0
63.559471 132.0
63.580105 204.0
63.797726 148.0
63.983871 184.0
64.245255 188.0
64.318665 148.0
64.899429 136.0
64.921883 156.0
65.106453 192.0
65.257507 92.0
65.281631 92.0
65.768219 88.0
66.469025 180.0
66.714096 164.0
66.790825 196.0
67.030067 176.0
67.067551 164.0
67.309021 156.0
67.413574 80.0
67.480591 260.0
67.515335 180.0
68.183868 164.0
68.382889 188.0
68.625061 116.0
68.714127 184.0
68.819763 96.0
69.08918 256.0
69.264938 120.0
69.920547 156.0
70.232132 180.0
71.177765 84.0
71.307129 172.0
71.397919 116.0
71.96077 36.0
72.200729 144.0
73.023346 124.0
73.198639 204.0
73.811279 120.0
73.910492 108.0
73.924179 148.0
74.117691 40.0
74.174255 136.0
74.93734 180.0
75.448227 172.0
75.546806 108.0
75.68354 164.0
75.792671 124.0
75.914024 112.0
75.938301 212.0
76.457809 92.0
76.536148 104.0
77.132843 152.0
77.285004 164.0
77.545952 160.0
77.589775 56.0
77.960159 192.0
78.106903 188.0
78.264496 204.0
78.278938 100.0
78.483002 204.0
78.537674 72.0
78.636482 148.0
78.735359 180.0
78.859039 160.0
79.313957 188.0
79.67244 64.0
80.033508 116.0
80.058441 216.0
80.088715 104.0
80.249115 228.0
80.42038 112.0
80.659744 136.0
81.148506 128.0
81.186165 120.0
81.380394 236.0
81.696297 268.0
81.766479 180.0
81.885315 52.0
82.096184 156.0
82.206146 176.0
82.424744 156.0
82.511505 104.0
82.600121 204.0
82.667068 128.0
83.056618 60.0
83.261726 176.0
83.347115 36.0
84.082863 176.0
84.126671 88.0
84.188751 96.0
84.4739 140.0
84.838341 208.0
84.889687 180.0
84.902519 172.0
84.919029 96.0
84.992416 88.0
85.258698 72.0
85.490425 132.0
85.775925 124.0
86.529701 84.0
86.835472 176.0
86.907822 168.0
87.184525 124.0
88.006058 68.0
88.019127 60.0
88.16111 212.0
88.563377 256.0
89.066093 108.0
89.141251 160.0
89.191994 40.0
89.316109 168.0
89.832275 168.0
90.039909 228.0
90.12114 236.0
90.14193 88.0
90.24968 176.0
90.289391 140.0
90.332901 128.0
90.393242 188.0
90.489983 116.0
90.626358 156.0
91.015221 204.0
91.049408 192.0
91.089294 184.0
91.144394 40.0
91.157692 28.0
91.448685 160.0
91.543884 160.0
91.635315 72.0
91.850754 224.0
91.902267 172.0
92.26899 80.0
92.316795 120.0
92.456459 136.0
92.487083 52.0
92.736099 132.0
92.757179 52.0
92.782104 116.0
92.872238 92.0
93.139053 44.0
93.198616 200.0
93.348557 124.0
93.379326 144.0
93.731644 188.0
93.808739 116.0
93.974609 164.0
94.061272 168.0
94.490501 148.0
94.709259 176.0
94.730568 208.0
95.407883 68.0
95.438995 80.0
95.608238 100.0
95.723106 116.0
95.828293 364.0
95.865318 200.0
96.0392 176.0
96.091515 152.0
96.38636 148.0
96.460632 128.0
96.748215 120.0
97.33252 152.0
97.957977 36.0
98.107758 196.0
98.299088 92.0
98.882111 60.0
98.977135 160.0
99.34977 140.0
99.366982 172.0
99.536346 224.0
99.71714 128.0
99.750931 216.0
99.826485 164.0
100.0812 160.0
100.220634 136.0
100.949265 188.0
101.017265 120.0
101.147346 212.0
101.389709 152.0
101.668488 168.0
101.738739 76.0
101.813042 36.0
102.116531 220.0
102.243286 40.0
102.519203 40.0
102.738991 128.0
102.820503 132.0
102.841911 240.0
102.882286 116.0
103.462524 156.0
103.525299 84.0
103.636719 208.0
104.762001 128.0
104.915176 84.0
105.002861 220.0
105.033455 180.0
105.074257 196.0
105.417305 172.0
105.497025 192.0
105.660637 152.0
105.924736 96.0
106.061592 204.0
106.076698 232.0
106.219933 36.0
106.400528 132.0
106.577171 100.0
106.988533 184.0
107.052368 436.0
107.071671 188.0
108.04731 252.0
108.080414 136.0
108.132149 112.0
108.212891 240.0
108.293655 148.0
108.753975 140.0
108.851555 236.0
109.009438 156.0
109.642113 176.0
109.779709 224.0
109.971657 104.0
110.05909 500.0
110.186752 188.0
110.613396 212.0
110.766266 56.0
110.869904 260.0
110.921333 204.0
111.443932 112.0
111.645523 200.0
111.826683 152.0
112.047798 112.0
112.073082 176.0
112.311317 264.0
112.402039 204.0
112.471687 264.0
112.498093 252.0
112.6026 264.0
112.680763 160.0
113.074097 208.0
113.705704 136.0
113.835213 156.0
113.881935 152.0
113.992805 196.0
114.03492 72.0
114.119957 76.0
114.334816 136.0
114.54007 212.0
114.596748 180.0
114.982735 168.0
115.051437 392.0
115.200539 88.0
115.324486 196.0
115.925903 132.0
116.018074 192.0
116.142456 176.0
116.756752 196.0
117.065857 204.0
117.180832 164.0
117.763306 212.0
117.780586 48.0
118.035614 204.0
118.065216 396.0
118.297424 124.0
118.362373 40.0
118.394859 160.0
118.78936 220.0
118.926071 200.0
118.980339 172.0
119.004227 212.0
119.072441 232.0
119.506332 224.0
119.697884 152.0
120.04438 132.0
120.074913 212.0
120.105453 160.0
120.791374 216.0
121.023369 212.0
121.061707 244.0
121.536293 40.0
121.799751 52.0
121.819527 108.0
121.962364 172.0
122.059593 248.0
122.08989 184.0
122.206482 196.0
122.356148 156.0
122.684418 180.0
122.803497 120.0
123.040161 216.0
123.178757 192.0
124.030724 192.0
124.046242 100.0
124.117195 164.0
124.487785 44.0
124.970169 168.0
125.074768 236.0
125.359863 156.0
125.569435 44.0
125.60289 172.0
126.114243 104.0
126.2976 204.0
126.662476 128.0
126.850716 212.0
127.521889 164.0
127.997887 216.0
128.043884 128.0
128.06076 224.0
128.131744 52.0
128.161026 64.0
128.242157 144.0
128.711426 132.0
128.903442 148.0
129.050369 76.0
129.068024 212.0
129.095596 156.0
129.387497 48.0
129.813492 104.0
130.058533 152.0
130.074936 168.0
130.328796 172.0
130.735855 116.0
130.779099 96.0
131.049377 212.0
131.080627 276.0
131.20282 216.0
131.218781 124.0
131.287186 192.0
131.494812 140.0
131.814545 40.0
132.052307 152.0
132.079636 272.0
132.173569 136.0
132.281143 156.0
132.354401 124.0
133.055679 180.0
133.087082 204.0
133.260452 132.0
133.582321 180.0
133.623734 40.0
133.817078 84.0
133.904587 148.0
133.955261 208.0
134.058884 148.0
134.095169 368.0
134.361023 168.0
134.59877 104.0
134.647263 176.0
134.700394 204.0
134.88295 104.0
135.537933 208.0
135.570389 144.0
135.670059 152.0
136.05191 208.0
136.073746 256.0
136.110901 96.0
136.301392 252.0
136.319977 180.0
136.352509 108.0
136.566422 152.0
136.596664 152.0
136.685074 124.0
136.816818 212.0
137.057037 224.0
137.132233 180.0
137.778641 104.0
137.895477 124.0
138.098907 108.0
138.283752 164.0
138.728455 104.0
138.921127 160.0
139.052536 200.0
139.682281 152.0
139.757568 156.0
140.148438 188.0
140.221497 176.0
140.259216 108.0
140.294571 176.0
140.575256 160.0
140.681473 156.0
140.891678 168.0
141.068375 520.0
141.620285 140.0
141.963959 124.0
142.07338 200.0
142.536072 172.0
143.0522 156.0
143.08638 180.0
143.82457 56.0
144.006027 100.0
144.04425 36.0
144.063995 184.0
144.078781 88.0
144.139832 144.0
144.553528 44.0
144.651657 32.0
144.749832 168.0
145.066223 192.0
145.202789 220.0
145.250763 168.0
145.325134 188.0
145.82254 192.0
145.911194 32.0
146.062469 420.0
146.084717 212.0
146.322617 124.0
146.358734 180.0
146.382812 96.0
146.663269 208.0
146.860016 180.0
146.97583 52.0
147.042526 344.0
147.066284 952.0
147.106155 132.0
147.347672 132.0
147.727234 180.0
148.044327 100.0
148.074707 1120.0
148.113144 184.0
148.344788 172.0
148.924744 112.0
149.057159 156.0
149.090012 180.0
149.175034 136.0
149.90036 208.0
149.925095 136.0
150.119766 136.0
150.146591 156.0
150.329575 152.0
150.932968 236.0
151.976471 164.0
152.062653 188.0
152.433212 212.0
152.452866 140.0
152.693802 164.0
152.797119 212.0
153.067566 528.0
153.168869 212.0
153.950745 108.0
154.071075 504.0
154.561356 96.0
154.633118 200.0
155.041794 136.0
155.081451 260.0
155.262436 156.0
155.562683 184.0
155.627243 148.0
156.290924 144.0
156.345673 156.0
156.659409 144.0
156.806427 196.0
156.933563 64.0
157.0009 232.0
157.065399 364.0
157.099457 196.0
157.173035 304.0
157.317795 136.0
157.421692 164.0
157.537567 92.0
157.592529 76.0
157.764984 132.0
157.824997 204.0
158.05513 172.0
158.092239 232.0
158.305466 68.0
158.505875 52.0
158.61615 152.0
158.64122 160.0
158.811737 116.0
158.899536 120.0
158.922119 140.0
158.967285 88.0
159.075623 376.0
159.102844 108.0
159.127945 180.0
159.341431 160.0
159.663193 96.0
160.035645 92.0
160.072678 908.0
160.107208 296.0
160.174164 68.0
160.312744 152.0
160.393402 108.0
160.421127 72.0
160.446335 152.0
160.749023 144.0
160.791931 144.0
160.986328 180.0
161.058304 2960.0
161.125259 48.0
161.246552 52.0
161.294571 152.0
161.335022 260.0
161.390656 100.0
161.734726 204.0
162.059189 296.0
162.094376 168.0
162.284485 120.0
162.407211 144.0
162.672668 124.0
162.743759 224.0
162.97998 164.0
163.035889 148.0
163.058762 144.0
163.292679 52.0
163.463135 212.0
163.730453 160.0
164.284225 156.0
164.531143 204.0
165.067108 688.0
165.226318 48.0
166.075378 140.0
166.099915 148.0
166.15123 220.0
166.564545 80.0
167.050949 224.0
167.081757 932.0
167.179062 164.0
167.36441 140.0
167.817917 160.0
167.838547 100.0
168.080826 296.0
168.119736 168.0
168.421814 148.0
168.571671 176.0
168.589752 56.0
169.057022 208.0
169.080215 88.0
169.090897 120.0
169.100128 180.0
169.319351 252.0
169.3582 176.0
169.455612 80.0
169.658798 160.0
169.718445 132.0
169.855896 152.0
169.951889 148.0
169.970047 136.0
169.996002 124.0
170.072525 392.0
170.315353 124.0
170.33873 228.0
170.845673 160.0
171.053864 248.0
171.080231 324.0
171.689636 140.0
171.739197 112.0
171.779343 268.0
171.924454 124.0
172.05072 128.0
172.075928 472.0
172.093765 200.0
172.103531 264.0
172.198593 128.0
172.26651 48.0
172.38147 84.0
172.496475 212.0
172.666443 196.0
173.009232 128.0
173.058075 880.0
173.093018 152.0
173.113968 232.0
173.258041 152.0
173.554214 136.0
173.630264 144.0
173.80603 160.0
173.921509 144.0
174.054993 948.0
174.352264 164.0
175.057068 220.0
175.07457 356.0
175.32341 52.0
175.391953 132.0
175.455215 124.0
176.061935 212.0
176.104614 144.0
176.614548 60.0
177.05127 176.0
177.072449 192.0
177.271164 192.0
177.456711 116.0
177.84404 104.0
178.043167 260.0
178.092545 344.0
178.11763 188.0
178.223816 180.0
178.508255 144.0
179.081772 628.0
179.179031 112.0
179.661591 200.0
179.933823 120.0
180.078217 448.0
180.239868 160.0
180.255936 224.0
180.401367 240.0
180.529709 32.0
180.612625 184.0
181.063675 1504.0
181.093948 440.0
181.684189 108.0
181.74054 76.0
181.82373 40.0
181.961334 76.0
182.000916 108.0
182.067627 676.0
182.092865 280.0
182.438858 56.0
182.952713 92.0
183.071823 268.0
183.108261 200.0
183.227432 36.0
183.402603 196.0
183.437637 36.0
184.05249 208.0
184.077728 640.0
184.112213 136.0
184.333344 140.0
184.41481 212.0
184.988297 156.0
185.056885 1544.0
185.084564 352.0
185.242844 104.0
185.340393 56.0
185.703674 124.0
185.825745 96.0
186.060913 180.0
186.090652 356.0
186.515564 56.0
186.588959 160.0
186.757568 116.0
186.829697 188.0
187.002457 180.0
187.072861 468.0
187.108627 196.0
187.307434 160.0
187.383713 56.0
187.487259 136.0
187.882645 132.0
188.051849 100.0
188.076416 144.0
188.107819 152.0
188.466949 232.0
188.557129 180.0
188.595398 144.0
188.674683 60.0
188.72937 232.0
188.80867 144.0
188.852432 32.0
189.077271 328.0
189.635529 196.0
189.758896 124.0
190.073639 392.0
190.472443 124.0
190.969986 240.0
190.989227 160.0
191.016739 52.0
191.086792 660.0
191.220367 136.0
191.407578 48.0
191.603134 200.0
192.082825 168.0
192.140762 164.0
192.453903 236.0
192.817322 80.0
192.999771 164.0
193.062073 348.0
193.331741 156.0
193.677841 168.0
193.799728 220.0
194.018692 236.0
194.073441 360.0
194.094147 296.0
194.176758 60.0
194.359863 72.0
194.387604 108.0
194.670761 96.0
194.792984 192.0
194.959702 112.0
195.079102 596.0
195.184875 44.0
195.396271 188.0
195.42688 40.0
196.07399 608.0
196.103607 276.0
196.187241 132.0
196.756378 80.0
197.058334 472.0
197.092865 512.0
197.281616 44.0
197.312363 64.0
197.413025 120.0
197.650818 104.0
197.695587 116.0
197.810349 88.0
197.916733 204.0
197.992355 104.0
198.056458 380.0
198.089905 540.0
198.128098 288.0
198.216476 216.0
198.426697 68.0
198.780136 172.0
199.013123 136.0
199.075302 1984.0
199.104477 344.0
200.026932 220.0
200.037445 132.0
200.074875 296.0
200.106003 736.0
200.177292 44.0
200.26741 60.0
201.064056 376.0
201.106247 332.0
201.398529 140.0
201.635864 152.0
201.760239 48.0
201.89032 124.0
202.045898 148.0
202.08551 88.0
202.12178 492.0
202.320419 188.0
202.343079 96.0
202.385544 116.0
202.5923 144.0
202.836014 180.0
202.867203 152.0
203.062866 296.0
203.106033 200.0
203.117737 116.0
203.269974 68.0
203.304016 68.0
203.943069 144.0
204.022675 100.0
204.085037 188.0
205.058853 164.0
205.086487 476.0
205.124405 136.0
205.361084 80.0
205.495163 168.0
206.069077 176.0
206.095718 220.0
206.226257 144.0
206.406372 136.0
206.606583 156.0
207.07196 288.0
207.523117 132.0
207.78125 124.0
208.071838 212.0
208.113678 336.0
208.444534 160.0
208.686005 132.0
208.714752 116.0
208.930481 92.0
209.059097 244.0
209.082642 680.0
209.133774 132.0
209.232666 160.0
209.32193 68.0
210.028061 176.0
210.088699 1180.0
210.235794 52.0
210.429199 68.0
210.541824 172.0
210.870346 216.0
210.999039 144.0
211.073837 1708.0
211.129639 176.0
211.171906 44.0
211.302078 176.0
211.383102 152.0
211.591507 40.0
211.63205 152.0
211.765259 104.0
211.831879 148.0
212.070053 6820.0
212.13327 40.0
212.278244 60.0
212.303772 160.0
212.324646 196.0
212.379761 112.0
212.405869 60.0
212.449371 28.0
212.701447 172.0
212.939957 152.0
213.0271 60.0
213.076477 3856.0
213.175278 48.0
213.464142 212.0
213.614334 32.0
213.949005 76.0
214.085602 1152.0
214.444229 44.0
214.508362 140.0
214.616226 180.0
214.794144 244.0
215.071594 608.0
215.118057 236.0
215.205643 84.0
215.556183 56.0
215.605865 52.0
216.077988 260.0
216.342987 144.0
216.615341 188.0
216.911316 64.0
217.057907 212.0
217.096085 224.0
217.383545 424.0
217.51561 172.0
217.539108 52.0
217.747589 128.0
217.803391 72.0
217.98555 64.0
218.073013 180.0
218.514847 144.0
218.709076 148.0
219.077332 156.0
219.11174 192.0
220.07991 156.0
220.280823 160.0
220.434464 96.0
220.523117 52.0
220.633636 188.0
220.741898 104.0
221.025879 56.0
221.09375 116.0
221.129868 236.0
222.047958 144.0
222.091721 176.0
222.570282 108.0
223.071365 492.0
223.091232 328.0
223.137634 172.0
223.375732 132.0
223.935349 200.0
224.033646 156.0
224.074936 300.0
224.107605 616.0
224.1707 280.0
224.266083 168.0
224.600052 124.0
225.086014 768.0
225.137299 172.0
225.173141 28.0
225.507782 44.0
225.866608 208.0
226.084778 3180.0
226.222717 88.0
226.435318 136.0
226.489227 80.0
226.776886 80.0
226.911789 128.0
227.068771 1664.0
227.220718 36.0
227.38623 52.0
227.4608 44.0
227.571884 48.0
227.682999 144.0
227.917328 76.0
228.013489 112.0
228.040543 248.0
228.100677 5092.0
228.1698 48.0
228.281052 56.0
228.337112 84.0
228.478989 60.0
228.506897 152.0
228.756454 92.0
229.103516 1364.0
229.178116 32.0
229.346878 116.0
229.440338 160.0
230.104248 176.0
230.357788 128.0
230.384979 164.0
230.43634 48.0
230.48468 60.0
230.533035 140.0
230.723465 120.0
230.753708 148.0
230.805099 212.0
231.044052 48.0
231.086411 136.0
231.243774 192.0
231.370926 156.0
231.467804 72.0
231.840439 156.0
232.093964 216.0
232.859848 120.0
233.064499 188.0
233.087708 100.0
233.097839 168.0
233.203186 228.0
233.358231 160.0
233.662384 52.0
234.091614 332.0
234.365738 28.0
235.077072 300.0
235.102432 348.0
235.518967 72.0
235.720917 124.0
235.797012 96.0
235.833694 116.0
236.068588 552.0
236.10405 428.0
236.129868 144.0
236.154404 152.0
236.381149 156.0
236.509705 116.0
236.552551 120.0
237.085495 540.0
237.616013 68.0
238.090607 408.0
238.115555 480.0
238.635742 216.0
239.038712 124.0
239.098862 772.0
239.122116 448.0
239.155655 240.0
239.346542 188.0
239.395813 112.0
239.734695 164.0
240.100967 820.0
240.131943 172.0
240.533539 84.0
240.61998 40.0
240.69101 60.0
240.996811 76.0
241.084991 484.0
241.107697 836.0
241.142059 176.0
241.899918 160.0
241.955643 164.0
242.080719 596.0
242.114441 684.0
242.365997 132.0
242.459641 68.0
242.658951 52.0
243.096466 176.0
243.121674 192.0
243.232895 92.0
243.565155 120.0
243.720505 72.0
244.0896 124.0
244.280136 144.0
244.364151 160.0
245.101791 156.0
245.822464 136.0
245.953552 144.0
245.987885 84.0
247.006638 188.0
247.075455 60.0
248.085907 144.0
248.84317 104.0
249.116409 84.0
249.235794 188.0
249.509247 188.0
249.704224 224.0
250.085815 220.0
250.118683 248.0
250.156738 332.0
250.718018 196.0
250.938675 140.0
251.0867 208.0
251.964447 76.0
252.027649 152.0
252.099625 2228.0
252.133301 460.0
252.220428 104.0
252.36586 308.0
252.520813 140.0
252.906845 172.0
253.078049 300.0
253.10849 324.0
253.138306 348.0
253.416718 68.0
253.958832 228.0
254.038132 96.0
254.078094 488.0
254.116089 1116.0
254.157303 164.0
254.295166 44.0
254.417099 108.0
254.530106 108.0
254.698425 68.0
254.89859 52.0
254.97168 48.0
255.120743 360.0
255.194214 88.0
255.270523 132.0
255.41684 48.0
255.545822 88.0
255.59819 32.0
255.696838 100.0
256.099945 400.0
256.130432 112.0
256.321045 48.0
256.402527 248.0
256.594055 120.0
256.833191 100.0
256.990662 200.0
257.114777 112.0
258.899109 172.0
259.80304 96.0
260.294128 100.0
260.31662 176.0
260.43866 132.0
262.121307 144.0
262.153534 120.0
262.966278 164.0
263.027618 188.0
263.087799 180.0
263.098083 116.0
263.118256 152.0
263.269775 176.0
264.095917 308.0
264.135468 232.0
264.174835 44.0
264.339844 36.0
264.663544 64.0
264.82547 148.0
265.105103 284.0
265.132324 232.0
265.21756 160.0
265.473694 212.0
265.856506 216.0
266.114471 280.0
266.197388 108.0
266.29483 144.0
266.645721 136.0
266.778992 108.0
266.827759 152.0
266.964325 208.0
266.991699 224.0
267.123993 14180.0
267.237579 280.0
267.270111 92.0
267.371002 88.0
267.393799 64.0
267.442627 40.0
267.523987 60.0
267.550049 124.0
267.690063 60.0
267.885498 104.0
267.930237 76.0
267.97345 104.0
268.051666 64.0
268.12796 3272.0
268.173737 196.0
268.22113 160.0
268.292847 112.0
268.32547 128.0
268.433075 60.0
268.592865 32.0
268.73642 60.0
269.036713 36.0
269.103516 436.0
269.12558 328.0
269.180359 376.0
269.213013 56.0
269.330597 60.0
269.379608 84.0
269.618134 156.0
269.641022 60.0
269.719452 208.0
269.792145 188.0
269.846954 108.0
269.892731 108.0
269.981018 212.0
270.11145 9748.0
270.213287 68.0
270.252533 84.0
270.359619 72.0
270.383453 88.0
270.598969 100.0
270.73703 92.0
271.113342 1320.0
271.156403 60.0
271.192444 80.0
271.22522 52.0
271.261292 196.0
271.372772 72.0
271.484253 44.0
271.520325 72.0
271.835297 104.0
271.87796 56.0
271.959991 52.0
272.048645 128.0
272.118805 408.0
272.304749 116.0
272.508453 88.0
272.702332 76.0
272.738495 100.0
272.85025 104.0
272.919312 88.0
273.116638 120.0
273.153992 180.0
273.31076 112.0
274.285614 108.0
275.605774 112.0
276.075195 104.0
276.128113 68.0
277.147736 196.0
277.658264 100.0
278.120605 432.0
278.148468 164.0
278.63089 64.0
278.753845 32.0
278.833588 68.0
278.866852 96.0
279.136139 164.0
279.988098 80.0
280.097321 184.0
280.127625 544.0
280.864716 108.0
281.1008 204.0
281.144989 144.0
281.225067 176.0
281.776093 184.0
281.883026 124.0
281.996643 152.0
282.073547 100.0
282.111389 1856.0
282.146301 5684.0
282.252045 92.0
282.30423 60.0
282.417969 80.0
282.496002 120.0
282.811584 212.0
283.070587 96.0
283.115417 156.0
283.148682 804.0
283.764221 32.0
283.8078 60.0
284.123108 312.0
284.148468 120.0
284.650085 68.0
284.95575 140.0
285.117035 100.0
285.160736 108.0
285.671875 120.0
287.407013 72.0
288.13974 160.0
288.623077 108.0
289.14743 128.0
292.131805 164.0
294.127075 104.0
294.15097 196.0
295.118408 116.0
295.144012 208.0
296.017792 88.0
296.121979 416.0
296.1604 552.0
296.504272 96.0
296.99115 92.0
297.144531 164.0
297.169342 260.0
297.533386 72.0
297.794373 140.0
298.801605 156.0
299.700256 128.0
300.122131 236.0
300.855713 152.0
301.142334 160.0
301.588074 104.0
303.003479 76.0
303.121277 196.0
303.734955 32.0
304.564575 192.0
305.162323 148.0
305.332733 140.0
305.464905 120.0
305.743286 180.0
306.146271 1036.0
307.147461 160.0
308.65976 124.0
309.14035 196.0
310.235352 144.0
311.56546 136.0
311.751709 164.0
313.190735 132.0
314.230713 156.0
314.689575 92.0
315.115173 192.0
315.742645 184.0
315.908905 152.0
317.088043 176.0
317.155396 164.0
317.183746 220.0
317.314941 124.0
317.680237 136.0
317.825684 176.0
318.145142 188.0
320.335815 44.0
320.37146 132.0
321.319794 92.0
321.525269 152.0
321.82663 148.0
322.037354 136.0
322.062347 164.0
322.142883 136.0
322.169525 84.0
322.355316 72.0
322.795013 92.0
323.009613 76.0
323.149139 80.0
323.320923 76.0
323.420197 76.0
323.592987 76.0
323.768768 192.0
323.825745 144.0
323.90097 116.0
323.954712 172.0
324.001892 280.0
324.059509 144.0
324.085022 268.0
324.158417 31048.0
324.240967 244.0
324.305878 96.0
324.354279 60.0
324.384735 48.0
324.461212 76.0
324.496735 152.0
324.578369 56.0
324.675171 56.0
324.724213 60.0
324.788635 120.0
324.833008 68.0
324.86853 128.0
324.906982 84.0
325.041107 52.0
325.087769 96.0
325.160797 5080.0
325.227722 28.0
325.267212 44.0
325.299713 72.0
325.40744 68.0
325.503082 52.0
325.597565 48.0
325.741241 40.0
325.786438 116.0
325.992737 44.0
326.093384 88.0
326.16272 584.0
326.249146 60.0
326.668732 100.0
326.819824 76.0
326.852203 36.0
326.891785 132.0
326.997742 64.0
327.039368 88.0
327.08255 56.0
327.304047 92.0
327.341797 192.0
327.397186 96.0
327.442627 120.0
327.517151 128.0
327.669586 92.0
327.734436 120.0
327.943451 132.0
328.199432 56.0
328.260742 32.0
328.661133 40.0
328.859619 52.0
329.217072 72.0
329.30014 28.0
329.534943 48.0
330.92749 76.0
332.333862 88.0
334.096039 128.0
334.423553 112.0
335.932159 80.0
338.113617 88.0
338.296631 80.0
340.654694 100.0
341.205963 56.0
341.97113 264.0
342.037384 92.0
342.081573 44.0
342.16861 2928.0
342.403839 76.0
343.175446 424.0
343.70697 100.0
343.869354 64.0
344.15979 172.0
345.180878 116.0
347.982208 72.0
350.671844 120.0
351.167755 72.0
351.936523 48.0
352.205444 60.0
356.642059 64.0
358.550354 84.0
360.815247 56.0
364.431152 76.0
373.522827 124.0
380.743225 124.0
383.197845 52.0
406.82782 120.0
410.957275 124.0
416.479401 140.0
427.3461 48.0
431.044891 100.0
439.0448 92.0
439.119873 76.0
440.656128 148.0
451.320007 52.0
458.843964 64.0
483.472504 88.0
484.944122 80.0
486.549683 128.0
495.76889 108.0
517.482544 100.0
517.550476 52.0
519.02771 76.0
519.399597 76.0
519.925903 72.0
523.153259 36.0
525.08075 148.0
527.190002 84.0
532.063843 80.0
533.336304 132.0
538.598633 108.0
541.586792 56.0
550.456177 84.0
596.812012 48.0
600.96698 80.0
605.58197 104.0
605.826904 36.0
630.864868 76.0
638.300659 140.0
669.256592 160.0
669.375061 84.0
671.111572 84.0
680.362732 56.0
719.254517 20.0
721.856506 96.0
735.422546 68.0
738.875732 116.0
752.185181 60.0
766.660156 48.0
774.201355 132.0
777.455688 60.0
815.135315 76.0
821.820496 72.0
850.174316 100.0
857.380188 56.0
905.243835 36.0
907.239136 156.0
919.003601 192.0
945.316284 96.0
948.501221 164.0
965.130676 80.0
997.772827 148.0
1106.372314 168.0
1111.960449 120.0
1118.887207 76.0
1147.456543 56.0
1152.478271 128.0
1172.722778 172.0
1175.587402 164.0
1202.71936 96.0
1202.947144 84.0
1208.102661 116.0
1217.564575 152.0
1250.27124 108.0
1253.496704 204.0
1263.134399 144.0
1266.716431 244.0
1278.332397 192.0
1291.889526 116.0
1296.923828 152.0
1308.734863 48.0
1312.799072 76.0
1319.043335 172.0
1320.505371 84.0
1327.211548 64.0
1355.752075 48.0
1363.83313 104.0
1367.731689 196.0
1368.48999 212.0
1373.066406 164.0
1383.241211 72.0
1383.863037 204.0
1385.455444 44.0
1404.001831 40.0
1414.305298 108.0
1423.181885 140.0
1423.790283 92.0
1433.336914 124.0
1436.103882 76.0
1438.72998 116.0
1440.028809 44.0
1443.013916 84.0
1454.947021 176.0
1456.161987 140.0
1457.87146 168.0
1465.30603 184.0
1469.522461 224.0
1474.004761 164.0
1486.026733 144.0
1497.681519 128.0
1500.733398 108.0
