>compound NCGC00160225-01!SONGORINE N-OXIDE
>formula C22H31NO4
>ionization [M+H]+
>parentmass 374.231598
#inchi InChI=1S/C22H31NO4/c1-4-23(27)10-20(3)6-5-17(25)22-15(20)7-13(18(22)23)21-9-12(11(2)19(21)26)14(24)8-16(21)22/h12-13,15-19,25-26H,2,4-10H2,1,3H3/t12?,13?,15?,16?,17-,18?,19+,20-,21+,22+,23?/m0/s1
#inchikey YAFVVJNTIALWDB
#Ion_Source LC-ESI
#Instrument qTOF
#Compound_Source Prestwick Phytochem Lib
#PI Dorrestein
#Data_Collector VVP/LMS
#Scan -1
#Precursor_MZ 374.233
#ExactMass 373.225
#Charge 1
#CAS_Number N/A
#Pubmed_ID N/A
#Smiles CC[N+]1([O-])C[C@]2(C)CC[C@H](O)[C@]34C2CC(C13)[C@@]56CC(C(=C)[C@H]5O)C(=O)CC46
#INCHI_AUX N/A
#Library_Class 1
#SpectrumID CCMSLIB00000078723
#IonMode Positive
#UpdateWorkflowName UPDATE-SINGLE-ANNOTATED-GOLD
#LibraryQualityString Gold
#TaskID 67c915c6594c435cadc1fe2b5358144d
##Scan# 1237
#SpectrumFile p1-G02_GG2_01_17946.mzXML
#LibraryName phytochem_lib.mgf
#MQScore -1
#Organism phytochem_lib
#TIC_Query 0
#RT_Query -1
#MZErrorPPM -1
#SharedPeaks 0
#MassDiff 0
#LibMZ -1
#SpecMZ 374.233
#SpecCharge 0
#internalFilename spec-00000.mgf

>collision 10
95.836388 92.0
95.949432 176.0
96.167908 48.0
96.41008 108.0
96.822868 240.0
97.260094 156.0
97.462372 188.0
97.708138 116.0
98.084267 96.0
98.100876 216.0
98.115807 80.0
98.374237 132.0
98.439392 124.0
99.080238 204.0
99.460983 152.0
99.576141 228.0
99.850403 108.0
100.180824 132.0
101.027252 92.0
101.923454 148.0
101.957619 176.0
103.158913 68.0
103.253944 188.0
103.774361 44.0
104.776329 168.0
104.870071 144.0
104.931221 176.0
105.070198 396.0
105.429276 152.0
106.587082 192.0
107.091057 180.0
108.05513 176.0
108.081383 240.0
108.25383 52.0
108.326324 120.0
108.57505 160.0
108.620674 96.0
108.975677 76.0
109.042175 112.0
109.739525 236.0
110.004478 48.0
110.096344 208.0
110.29274 160.0
111.098312 324.0
111.163986 168.0
111.758644 192.0
112.08712 60.0
113.052162 176.0
113.26812 112.0
113.424919 148.0
114.223328 120.0
114.915695 44.0
115.456123 104.0
115.693626 124.0
115.899231 116.0
116.356079 140.0
116.643944 108.0
116.697685 136.0
116.856842 176.0
117.060745 236.0
117.067039 172.0
117.570084 204.0
118.85553 160.0
119.794701 164.0
119.984299 108.0
120.232956 180.0
120.335548 168.0
120.665459 124.0
120.860115 68.0
121.062859 284.0
121.090996 232.0
122.070946 116.0
122.093903 328.0
122.13913 40.0
122.271141 64.0
122.680832 168.0
122.991859 140.0
123.104965 192.0
123.309914 100.0
123.719131 104.0
124.108475 180.0
124.140106 88.0
125.115524 140.0
125.485352 136.0
126.074646 220.0
126.120216 204.0
126.822159 140.0
126.880447 160.0
127.118195 132.0
127.96109 120.0
128.064682 224.0
129.069702 320.0
129.125458 52.0
129.397003 124.0
129.537415 84.0
129.888763 136.0
130.069214 192.0
130.599716 180.0
130.802231 156.0
131.045914 132.0
131.084045 196.0
131.130219 84.0
131.79657 232.0
132.074768 352.0
132.625015 112.0
132.737106 228.0
132.792389 104.0
132.996597 96.0
133.06546 188.0
133.09761 60.0
133.187164 168.0
133.357193 124.0
134.172073 144.0
134.356567 136.0
135.086578 128.0
135.106354 184.0
135.130539 60.0
135.452316 136.0
135.593658 96.0
135.665512 112.0
135.68869 108.0
136.107788 292.0
136.408356 128.0
136.527267 140.0
136.917908 156.0
137.119308 180.0
137.437744 184.0
137.48674 304.0
137.626801 128.0
138.091843 144.0
138.124588 128.0
138.225189 108.0
138.538925 52.0
138.597504 84.0
138.789703 72.0
139.917465 204.0
139.988098 72.0
140.037567 232.0
140.107574 116.0
140.400513 88.0
140.72142 108.0
141.049789 184.0
141.17511 228.0
141.343048 56.0
142.115494 112.0
142.918594 148.0
143.083466 496.0
143.11377 132.0
143.666702 232.0
144.058197 140.0
144.084488 100.0
144.555511 88.0
144.663208 240.0
145.063507 184.0
145.098526 536.0
145.19754 116.0
146.072754 184.0
146.093475 112.0
146.767838 68.0
146.816055 192.0
147.026398 148.0
147.105591 200.0
147.228729 92.0
147.477585 60.0
147.591202 140.0
148.009811 136.0
148.111816 168.0
148.487213 168.0
148.839081 176.0
149.057693 192.0
149.084854 180.0
149.118454 192.0
149.427277 148.0
150.0849 272.0
150.121353 156.0
150.180008 176.0
150.946854 132.0
151.142532 132.0
151.237976 148.0
151.7034 72.0
152.304581 104.0
152.936493 160.0
153.080505 340.0
153.520401 148.0
154.075912 188.0
154.10788 192.0
154.162247 100.0
154.201782 196.0
155.084915 324.0
155.516953 116.0
155.61377 76.0
156.09581 132.0
157.024704 220.0
157.062119 108.0
157.097717 368.0
157.151917 216.0
157.306656 112.0
158.064224 316.0
158.104599 312.0
159.10379 488.0
159.151398 128.0
159.619156 48.0
159.770065 188.0
160.106018 152.0
160.659363 60.0
160.843567 80.0
161.093567 160.0
161.222412 164.0
161.662445 148.0
161.743439 156.0
162.12178 260.0
162.303314 196.0
162.503693 136.0
163.135086 156.0
163.51506 120.0
164.110397 396.0
164.141739 112.0
164.27182 120.0
164.90506 152.0
165.073792 368.0
165.112152 180.0
166.411331 132.0
166.459824 180.0
166.806961 160.0
167.084686 112.0
167.136154 144.0
167.65889 176.0
167.702713 156.0
168.006989 80.0
168.107605 92.0
168.141159 120.0
168.234085 164.0
169.050827 168.0
169.071533 184.0
169.102966 220.0
169.322662 188.0
169.853989 184.0
170.058975 124.0
170.077148 176.0
170.102539 128.0
171.082764 316.0
171.117065 340.0
171.291458 144.0
171.83371 124.0
171.90155 132.0
172.086975 156.0
172.114304 752.0
172.517944 140.0
172.813477 220.0
173.095993 124.0
173.135437 284.0
173.688461 132.0
174.063751 132.0
174.125702 196.0
174.27652 176.0
174.310684 148.0
174.581436 132.0
174.765564 144.0
175.727264 132.0
176.094193 152.0
176.147018 176.0
176.376907 168.0
176.935074 160.0
177.109848 196.0
177.162582 168.0
177.284714 180.0
177.84166 152.0
178.072647 224.0
178.119919 160.0
178.976807 188.0
179.088669 148.0
179.267166 212.0
179.771164 152.0
180.056824 208.0
180.136871 428.0
180.166336 188.0
180.449631 144.0
180.939224 136.0
181.102066 428.0
181.142746 320.0
181.207047 144.0
181.338348 60.0
181.982162 180.0
182.093842 276.0
182.151352 44.0
182.288605 232.0
183.085968 424.0
183.114609 156.0
183.192398 100.0
183.734253 68.0
184.081253 160.0
184.111603 160.0
184.163467 36.0
184.312042 44.0
185.094955 264.0
185.1371 124.0
185.481186 184.0
185.82016 124.0
185.904282 88.0
185.991135 140.0
186.01828 128.0
186.1259 908.0
186.189331 112.0
186.221924 84.0
186.904266 188.0
186.941971 196.0
187.09761 240.0
187.132553 476.0
187.309921 100.0
187.350784 40.0
187.661469 56.0
188.111649 272.0
188.140869 276.0
188.368301 92.0
189.147354 332.0
189.199631 104.0
189.276291 144.0
189.769501 220.0
190.08493 180.0
190.125198 160.0
190.156403 280.0
190.180984 208.0
190.620407 164.0
190.867798 76.0
191.132751 132.0
191.250198 44.0
191.547577 160.0
191.726669 136.0
192.091705 400.0
192.316879 144.0
192.877594 212.0
192.902466 156.0
193.002289 220.0
193.098053 280.0
193.143036 72.0
194.10405 124.0
194.155777 184.0
194.828445 144.0
194.996597 140.0
195.112885 220.0
195.159103 144.0
195.481842 136.0
195.526367 184.0
196.107178 580.0
196.392868 120.0
197.098587 136.0
197.126572 144.0
198.099411 176.0
198.129852 220.0
198.754013 164.0
199.094559 148.0
199.141418 136.0
199.191986 108.0
199.279068 36.0
199.327911 84.0
199.44487 60.0
200.105209 872.0
200.141281 544.0
200.229858 44.0
200.511581 132.0
200.604599 80.0
201.106995 296.0
201.147156 320.0
201.167038 244.0
201.50769 76.0
201.719635 148.0
201.98262 92.0
202.149536 112.0
203.092957 108.0
203.157959 140.0
203.195084 148.0
203.615189 172.0
203.706085 124.0
203.899292 160.0
204.092606 196.0
204.115341 148.0
204.136246 172.0
204.451019 80.0
204.590485 48.0
204.622009 168.0
205.325638 136.0
206.107803 100.0
206.145828 348.0
206.459412 172.0
206.957321 32.0
207.066132 80.0
207.086182 160.0
207.110687 440.0
207.163528 172.0
207.280991 164.0
207.97789 212.0
208.061142 212.0
208.125824 152.0
208.161636 420.0
208.18187 140.0
208.285126 168.0
208.36557 84.0
208.469009 72.0
208.891647 92.0
208.947754 20.0
209.118958 144.0
209.177887 144.0
210.083145 124.0
210.114716 224.0
210.12326 200.0
210.130981 348.0
210.329544 96.0
210.782959 128.0
211.074905 92.0
211.109619 184.0
211.150925 140.0
212.072815 240.0
212.083557 168.0
212.139847 484.0
212.473862 112.0
212.961533 108.0
213.092178 144.0
213.113907 196.0
213.149933 480.0
213.569016 52.0
213.769745 68.0
213.810486 236.0
214.034637 56.0
214.095169 168.0
214.120392 388.0
214.15744 476.0
215.101685 164.0
215.123596 144.0
215.15683 148.0
215.311905 132.0
216.052078 160.0
216.106735 128.0
216.131622 204.0
216.177231 316.0
216.467041 112.0
216.622269 72.0
217.182129 160.0
217.481415 120.0
217.822021 188.0
217.971863 52.0
218.118805 144.0
218.149948 176.0
218.318741 128.0
218.398148 28.0
219.11937 208.0
219.163559 168.0
219.661804 84.0
220.083832 168.0
220.122208 112.0
220.615631 212.0
220.648148 60.0
220.946854 104.0
221.137894 204.0
221.173248 128.0
222.136475 140.0
222.523544 92.0
223.114761 180.0
223.150436 144.0
223.629379 148.0
223.653183 140.0
224.064133 88.0
224.102081 168.0
224.147552 140.0
224.687225 116.0
225.146072 216.0
225.556229 108.0
225.974899 144.0
226.094589 168.0
226.144501 136.0
226.149246 100.0
226.238266 200.0
226.42691 92.0
226.687531 192.0
227.152176 156.0
227.350281 104.0
227.404297 172.0
227.428314 36.0
228.099091 204.0
228.137741 1676.0
228.169373 300.0
228.230423 172.0
228.744873 256.0
229.039963 172.0
229.095764 144.0
229.11528 192.0
229.142426 624.0
229.205658 148.0
229.321487 68.0
229.488998 148.0
229.55835 100.0
230.147552 324.0
230.717773 160.0
230.820572 156.0
231.020187 68.0
231.153381 236.0
231.18045 124.0
231.190994 168.0
231.202225 200.0
231.374268 140.0
232.110519 200.0
232.166168 284.0
233.133316 124.0
233.180099 280.0
233.285492 168.0
233.775177 132.0
233.811691 128.0
234.142914 196.0
234.181503 380.0
235.003159 72.0
235.108307 324.0
236.108948 148.0
236.153229 128.0
236.173187 144.0
236.552612 88.0
236.892517 148.0
237.113129 120.0
237.1577 208.0
237.83696 96.0
237.901428 72.0
237.944412 104.0
237.99353 112.0
238.058014 184.0
238.08873 100.0
238.12677 836.0
238.160797 248.0
238.226944 160.0
238.405151 48.0
239.049881 224.0
239.128387 812.0
239.426514 68.0
240.134491 572.0
240.592041 156.0
240.638351 124.0
240.659973 52.0
240.820541 52.0
241.042984 100.0
241.14682 180.0
241.182053 132.0
241.899689 108.0
242.042099 200.0
242.117477 276.0
242.150238 532.0
242.255798 48.0
242.748611 192.0
242.857147 140.0
243.105347 52.0
243.136292 128.0
243.148605 124.0
243.192841 148.0
243.272949 64.0
243.322632 40.0
243.580383 204.0
243.710861 124.0
243.84137 40.0
244.056152 132.0
244.136719 164.0
244.171082 376.0
244.887405 212.0
245.033508 168.0
245.175415 1376.0
245.229492 124.0
245.285599 92.0
245.429001 180.0
245.457062 88.0
245.700348 116.0
245.95311 64.0
246.184006 1240.0
246.768463 116.0
246.902924 116.0
247.192612 564.0
247.284607 80.0
247.422348 28.0
247.497482 68.0
247.697922 104.0
248.155243 168.0
248.200577 164.0
248.905365 116.0
249.156738 124.0
249.206909 284.0
249.810532 128.0
249.933228 256.0
250.295212 120.0
251.134949 152.0
252.094528 216.0
252.178146 224.0
253.111816 132.0
253.148621 184.0
253.18782 192.0
253.647232 64.0
253.735992 112.0
253.869171 152.0
254.053131 164.0
254.11879 172.0
254.150391 488.0
254.199081 176.0
254.383163 152.0
254.43396 76.0
254.583191 212.0
254.799179 40.0
254.8246 128.0
255.107452 160.0
255.148773 152.0
255.8423 88.0
256.132751 760.0
256.16803 664.0
256.511292 52.0
257.137146 556.0
257.178497 124.0
257.219421 200.0
257.353516 168.0
257.746399 176.0
257.998871 112.0
258.141571 416.0
258.184265 640.0
258.36026 152.0
258.389038 92.0
259.045319 56.0
259.195831 392.0
259.782623 108.0
260.151672 168.0
260.207153 236.0
260.246765 128.0
260.504913 72.0
260.591644 76.0
260.643066 192.0
260.790894 56.0
260.913025 128.0
261.006287 88.0
261.067383 120.0
261.147766 140.0
261.173523 180.0
261.204712 148.0
261.76889 64.0
262.452026 168.0
262.506836 64.0
263.236115 192.0
263.88559 136.0
264.140381 132.0
264.176666 164.0
264.937408 244.0
265.117249 112.0
265.152985 164.0
265.21286 84.0
266.15451 152.0
267.135651 316.0
268.134766 128.0
268.165955 252.0
268.362946 128.0
268.444458 32.0
268.95993 160.0
269.04483 136.0
269.139496 188.0
269.171051 144.0
269.208069 120.0
269.387726 144.0
270.097046 152.0
270.149475 712.0
270.181946 976.0
270.32608 160.0
270.348969 32.0
270.496246 112.0
270.607574 92.0
270.754242 136.0
270.888947 148.0
271.069397 88.0
271.125122 116.0
271.190613 864.0
271.567719 112.0
271.836731 120.0
272.167603 380.0
272.191254 992.0
272.302917 128.0
272.976624 48.0
273.169739 188.0
273.21344 200.0
273.974243 148.0
274.147888 216.0
274.185303 300.0
274.333099 96.0
274.544128 228.0
274.870697 92.0
275.147949 100.0
276.195496 136.0
277.185394 152.0
277.208588 196.0
277.351105 160.0
279.14389 116.0
279.170471 336.0
279.622925 220.0
279.932526 148.0
280.125702 56.0
280.173798 160.0
280.200348 180.0
281.135956 60.0
281.276154 152.0
281.443054 64.0
281.603363 52.0
282.140259 184.0
282.184845 188.0
282.222687 268.0
282.502533 44.0
282.546021 96.0
283.201813 184.0
283.2341 220.0
283.523743 164.0
284.103821 136.0
284.161163 124.0
284.203064 696.0
284.241364 288.0
284.593811 108.0
284.724792 120.0
285.205383 384.0
285.259003 92.0
285.440582 136.0
285.854309 188.0
286.173828 420.0
286.215302 536.0
286.601837 248.0
287.08725 140.0
287.187408 328.0
287.218781 208.0
287.728363 156.0
288.164032 108.0
288.202332 292.0
288.735291 156.0
288.758972 52.0
289.171722 128.0
289.584778 208.0
289.730438 128.0
289.811768 188.0
289.964264 144.0
290.174408 160.0
291.328278 144.0
291.736084 160.0
291.763275 112.0
292.159363 176.0
292.321106 144.0
292.555939 176.0
292.988434 128.0
293.414459 176.0
293.622437 136.0
293.700897 88.0
294.171783 168.0
294.195892 136.0
294.222992 264.0
294.451782 116.0
295.025818 100.0
295.224121 108.0
295.795502 156.0
296.052307 100.0
296.172943 300.0
296.197388 488.0
296.847321 120.0
297.049683 52.0
297.182404 192.0
297.209351 152.0
297.506073 56.0
297.791077 60.0
297.870087 160.0
297.914734 116.0
298.048737 160.0
298.179871 3612.0
298.275574 148.0
298.337433 36.0
298.519653 136.0
298.560944 132.0
298.595337 48.0
298.643463 204.0
299.185913 2280.0
300.131195 92.0
300.189667 1624.0
300.229065 364.0
300.296722 124.0
300.414001 60.0
300.614105 40.0
300.900604 160.0
301.156128 248.0
301.198303 896.0
301.236755 348.0
301.563843 76.0
301.961426 196.0
302.089417 76.0
302.205505 420.0
302.252014 156.0
302.715881 56.0
302.921173 212.0
303.178772 148.0
303.214722 172.0
303.322174 200.0
303.426178 76.0
303.530182 40.0
304.137329 160.0
304.209473 204.0
304.362976 116.0
304.474091 60.0
305.196899 128.0
308.079163 164.0
309.446625 192.0
310.217896 596.0
310.529419 144.0
310.606567 124.0
311.222137 484.0
311.336609 132.0
311.41037 44.0
311.463043 36.0
311.986633 156.0
312.130798 48.0
312.197571 468.0
312.230011 1652.0
312.781647 52.0
313.042175 148.0
313.098541 144.0
313.202026 364.0
313.232452 140.0
313.605865 108.0
313.641113 60.0
313.718658 128.0
313.845581 84.0
314.060699 208.0
314.210114 2512.0
314.406464 52.0
314.763 128.0
314.932526 56.0
315.211639 896.0
315.512054 92.0
315.593353 76.0
316.039032 108.0
316.225037 236.0
316.297363 136.0
317.051788 64.0
317.381439 116.0
317.690002 76.0
317.814178 32.0
318.03775 132.0
318.812012 72.0
318.875977 28.0
319.149689 100.0
321.196625 152.0
321.493591 84.0
322.207367 120.0
322.418518 172.0
322.554352 148.0
323.377014 208.0
323.89621 164.0
324.193787 712.0
324.247314 160.0
324.276001 76.0
324.401459 56.0
324.455231 188.0
324.509003 172.0
325.199554 168.0
325.230072 72.0
325.614227 120.0
325.826172 52.0
325.984253 52.0
326.12442 112.0
326.198883 320.0
326.300568 220.0
326.577454 92.0
326.832886 84.0
326.933624 256.0
326.962433 52.0
327.012909 128.0
327.084808 60.0
327.221588 76.0
327.470062 92.0
327.537842 176.0
327.671783 88.0
328.194397 1032.0
328.22406 1988.0
328.349457 28.0
328.860107 60.0
328.937592 40.0
329.024231 88.0
329.063934 184.0
329.186432 348.0
329.231567 1424.0
329.281799 120.0
329.645477 156.0
329.674377 56.0
329.95993 220.0
330.202515 180.0
330.239288 800.0
330.574829 32.0
330.62912 112.0
330.875244 96.0
331.012848 48.0
331.17807 260.0
331.242889 124.0
331.49823 80.0
331.588837 112.0
332.173431 140.0
332.237915 48.0
332.444733 104.0
333.378021 140.0
333.785156 148.0
334.447266 240.0
334.567383 132.0
338.210388 860.0
338.426453 228.0
338.741425 196.0
339.215607 1336.0
339.294769 120.0
339.320435 104.0
339.382782 68.0
339.782562 36.0
339.903625 44.0
340.028412 68.0
340.127502 128.0
340.224823 3292.0
340.278015 184.0
340.366119 68.0
340.44693 96.0
340.57547 76.0
340.898773 48.0
341.005341 48.0
341.225098 424.0
341.81073 68.0
342.042572 72.0
342.072021 56.0
342.112518 56.0
342.210236 1104.0
342.307678 92.0
342.587585 120.0
342.838135 136.0
343.085785 104.0
343.216888 456.0
343.428009 76.0
343.461212 92.0
343.911377 104.0
343.948273 196.0
344.188263 92.0
344.214111 244.0
345.341278 64.0
345.64093 116.0
346.425812 112.0
346.763 144.0
347.015076 108.0
347.849792 96.0
348.235962 140.0
349.21344 84.0
349.857178 160.0
351.116608 92.0
353.264313 140.0
354.069061 176.0
354.192657 156.0
355.497375 192.0
355.529449 124.0
355.559937 256.0
356.139374 136.0
356.220337 4716.0
356.357239 92.0
356.556396 192.0
356.669159 120.0
356.785706 80.0
357.022583 32.0
357.094025 88.0
357.131653 60.0
357.228241 3768.0
357.359863 36.0
357.790161 48.0
357.824066 56.0
357.888062 48.0
357.952087 128.0
358.156647 124.0
358.230835 776.0
358.343811 40.0
358.44931 40.0
358.498291 52.0
358.660339 72.0
358.961945 40.0
359.007202 76.0
359.215729 160.0
359.246216 136.0
359.569336 48.0
359.615967 112.0
359.977051 96.0
360.264099 184.0
360.657074 132.0
360.906586 52.0
361.152405 68.0
361.292358 156.0
362.094818 144.0
363.90741 184.0
364.606354 104.0
366.412323 76.0
367.840057 136.0
368.386108 68.0
368.470154 92.0
369.582764 172.0
369.816223 112.0
371.026672 180.0
371.114868 76.0
371.233734 148.0
371.406311 88.0
371.659515 56.0
371.763123 112.0
372.223236 116.0
372.59787 220.0
372.838409 136.0
372.892212 108.0
372.943115 148.0
373.195892 112.0
373.230499 188.0
373.338165 188.0
373.422791 168.0
373.684357 148.0
373.724091 84.0
373.911407 116.0
373.972992 120.0
374.043762 236.0
374.095703 140.0
374.160187 196.0
374.231598 22252.0
374.334015 116.0
374.513092 72.0
374.627594 48.0
374.686188 56.0
374.720032 44.0
374.770142 88.0
374.831787 36.0
374.897278 64.0
374.958954 56.0
375.027679 48.0
375.116974 92.0
375.173126 176.0
375.234589 4220.0
375.32901 44.0
375.402069 68.0
375.463989 48.0
375.498718 68.0
375.60141 32.0
375.652985 36.0
375.69928 108.0
375.74173 72.0
375.795746 116.0
375.842804 40.0
375.903778 40.0
375.930786 124.0
376.015686 48.0
376.054291 80.0
376.148743 84.0
376.24411 1432.0
376.32135 120.0
376.394958 64.0
376.494415 48.0
376.606415 48.0
376.637299 108.0
376.884552 48.0
376.976624 84.0
377.131897 84.0
377.182129 64.0
377.242035 544.0
377.406372 168.0
377.539368 132.0
377.59198 120.0
377.622742 92.0
377.700287 104.0
377.746704 164.0
377.824066 84.0
377.885956 120.0
377.974945 68.0
378.114258 64.0
378.180054 72.0
378.242004 80.0
378.354248 44.0
378.64856 104.0
379.187073 60.0
379.295593 80.0
379.524323 52.0
379.617401 80.0
379.822937 112.0
380.323486 48.0
380.746674 100.0
381.286713 96.0
381.345001 32.0
381.881561 84.0
382.072144 44.0
382.445709 80.0
385.40567 60.0
389.198761 188.0
389.226196 308.0
390.23056 372.0
391.308594 108.0
391.52124 92.0
391.72998 84.0
392.788574 44.0
394.2117 64.0
394.622772 44.0
395.192322 52.0
395.774139 72.0
395.813751 36.0
398.451355 36.0
409.467804 88.0
416.585846 88.0
460.939301 64.0
472.367096 140.0
477.489594 64.0
484.951141 64.0
485.630737 56.0
498.269135 60.0
500.537506 76.0
524.506897 120.0
534.546082 140.0
546.721558 48.0
549.638672 112.0
558.742371 72.0
563.466309 48.0
568.770142 64.0
572.211914 100.0
582.056763 96.0
592.339172 64.0
604.178345 108.0
604.315369 84.0
609.306396 64.0
640.625427 64.0
670.475403 104.0
676.813721 72.0
683.717896 32.0
691.018005 68.0
693.767456 100.0
698.251648 92.0
718.8974 40.0
747.36084 224.0
748.367737 112.0
752.178467 36.0
802.006348 88.0
807.929932 84.0
812.405334 84.0
831.193542 48.0
857.536194 108.0
885.78186 88.0
908.950317 120.0
936.786621 88.0
940.915283 60.0
946.460754 76.0
1011.180298 104.0
1032.109863 88.0
1037.789185 68.0
1038.526611 20.0
1066.432861 68.0
1073.516113 96.0
1104.99939 180.0
1138.575806 176.0
1154.155762 84.0
1157.010864 172.0
1157.850586 48.0
1182.113281 144.0
1200.923706 104.0
1213.03125 148.0
1218.235718 188.0
1227.966675 184.0
1230.011108 64.0
1239.865967 216.0
1244.278076 140.0
1261.234131 76.0
1273.768921 144.0
1280.3125 148.0
1295.898926 44.0
1307.718994 64.0
1357.823242 200.0
1368.758179 48.0
1453.169067 52.0
1454.125244 148.0
1457.960449 52.0
1458.089722 160.0
1459.625244 132.0
1470.763428 204.0
1475.323853 36.0
1477.970093 108.0
1479.033813 156.0
