>compound MLS000863593-01!5-hydroxy-2-(4-hydroxy-3,5-dimethoxyphenyl)-6,7-dimethoxychromen-4-one
>formula C19H18O8
>ionization [M+H]+
>parentmass 375.109131
#inchi InChI=1S/C19H18O8/c1-23-13-5-9(6-14(24-2)17(13)21)11-7-10(20)16-12(27-11)8-15(25-3)19(26-4)18(16)22/h5-8,21-22H,1-4H3
#inchikey XEHLDSAKZSXOFK
#Ion_Source LC-ESI
#Instrument qTof
#Compound_Source NIH Natural Product Library
#PI Dorrestein
#Data_Collector VVP/LMS
#Scan -1
#Precursor_MZ 375.108
#ExactMass 374.1
#Charge 1
#CAS_Number N/A
#Pubmed_ID N/A
#Smiles COc1cc(cc(OC)c1O)c2cc(=O)c3c(O)c(OC)c(OC)cc3o2
#INCHI_AUX N/A
#Library_Class 1
#SpectrumID CCMSLIB00000080505
#IonMode Positive
#UpdateWorkflowName UPDATE-SINGLE-ANNOTATED-GOLD
#LibraryQualityString Gold
#TaskID b1d8e8f6646f4e71acdff9ca3d919d08
##Scan# 2149
#SpectrumFile p2-A10_GA10_01_17986.mzXML
#LibraryName NIH_Natural_Products_Library.mgf
#MQScore -1
#Organism NIH_Natural_Products_Library
#TIC_Query 0
#RT_Query -1
#MZErrorPPM -1
#SharedPeaks 0
#MassDiff 0
#LibMZ -1
#SpecMZ 375.108
#SpecCharge 0
#internalFilename spec-00000.mgf

>collision 10
94.98613 160.0
95.318123 152.0
95.393921 272.0
95.504761 84.0
95.631233 60.0
95.654594 116.0
95.685738 64.0
96.036507 156.0
96.056015 176.0
96.076302 100.0
97.106392 144.0
97.339928 152.0
97.379204 92.0
97.501015 164.0
97.591446 96.0
97.615036 132.0
97.996902 312.0
98.138817 64.0
98.3629 144.0
98.579002 88.0
99.005127 168.0
99.49807 168.0
99.698685 32.0
100.028854 112.0
100.076637 84.0
100.616951 116.0
100.824692 188.0
100.844673 96.0
100.942635 228.0
101.068657 160.0
101.122688 152.0
101.240814 152.0
101.465233 120.0
101.987167 216.0
102.047478 156.0
102.198326 168.0
102.298958 148.0
102.472153 236.0
102.693901 140.0
102.90377 196.0
103.006767 172.0
103.054398 396.0
103.698776 200.0
103.757561 100.0
104.003021 160.0
104.039558 76.0
104.05986 144.0
104.212196 292.0
104.326004 128.0
104.527367 256.0
104.845047 240.0
104.987755 76.0
105.002029 120.0
105.032623 148.0
105.072655 296.0
105.183624 148.0
105.234665 196.0
105.332687 132.0
105.389893 120.0
105.758003 192.0
105.864464 152.0
105.917717 156.0
105.950493 204.0
106.0401 332.0
106.065384 184.0
106.24366 116.0
106.297005 124.0
106.436592 120.0
106.748932 52.0
107.046028 216.0
107.076149 44.0
107.763077 164.0
107.938774 176.0
107.95945 192.0
108.251244 172.0
108.456352 136.0
108.491592 220.0
108.603813 168.0
108.728058 140.0
109.026077 148.0
109.114418 52.0
109.798889 68.0
110.033211 232.0
110.047821 172.0
110.104202 164.0
110.187759 156.0
110.357056 176.0
110.432335 212.0
110.513924 180.0
110.60601 212.0
110.79657 172.0
111.009315 224.0
111.495316 140.0
111.711884 228.0
111.845558 184.0
111.974998 88.0
112.014786 1176.0
112.037193 220.0
112.090866 156.0
112.107719 164.0
112.238419 104.0
112.329109 84.0
112.440933 156.0
112.48362 216.0
112.603508 72.0
112.812691 128.0
112.835945 176.0
113.026306 428.0
113.062286 152.0
113.307915 72.0
113.515633 160.0
113.62381 192.0
113.86792 128.0
114.018768 120.0
114.084656 76.0
114.369705 216.0
114.569878 144.0
114.936592 140.0
115.060547 164.0
115.124451 60.0
115.173569 204.0
115.333824 180.0
115.517723 140.0
115.663231 188.0
115.776711 152.0
115.950241 96.0
116.091736 116.0
116.250488 168.0
116.478073 124.0
117.033081 528.0
117.068459 156.0
117.123383 48.0
117.422981 112.0
117.539474 80.0
117.833122 60.0
117.936852 196.0
117.990891 180.0
118.473503 164.0
118.56234 160.0
118.657722 100.0
118.931053 184.0
118.948418 36.0
119.050209 168.0
119.196007 252.0
119.241646 216.0
119.522179 188.0
119.654953 64.0
119.685432 132.0
119.794327 164.0
119.968666 172.0
120.049149 136.0
120.086418 184.0
120.424721 68.0
120.512108 148.0
120.573288 160.0
120.645424 148.0
120.824753 124.0
120.914467 180.0
120.940735 124.0
121.027565 292.0
121.061592 180.0
121.085831 208.0
121.282005 116.0
121.396439 60.0
121.484177 176.0
121.512695 76.0
121.639977 148.0
121.746834 168.0
121.835426 128.0
122.402885 68.0
123.010628 160.0
123.046722 188.0
123.132843 160.0
123.35601 200.0
123.409004 136.0
123.78302 196.0
123.805161 144.0
123.907059 160.0
124.048889 196.0
124.703697 96.0
125.282249 176.0
125.400352 116.0
125.451622 52.0
125.49398 152.0
125.674644 176.0
125.790695 52.0
125.969345 100.0
126.045303 112.0
126.103409 128.0
126.119057 80.0
126.230843 116.0
126.312439 132.0
126.514999 132.0
126.661095 140.0
126.886833 140.0
126.929497 60.0
126.94519 48.0
127.002815 388.0
127.180763 68.0
127.319969 200.0
127.364891 104.0
127.67955 116.0
127.976593 168.0
127.992355 212.0
128.02388 188.0
128.080185 116.0
128.154526 104.0
128.183823 100.0
128.330338 156.0
128.481445 152.0
128.702637 108.0
128.867523 32.0
128.969208 228.0
129.07312 212.0
129.290375 44.0
129.349228 132.0
129.385437 172.0
129.417145 108.0
129.53038 140.0
130.070068 116.0
130.213104 252.0
130.54718 228.0
130.654083 168.0
130.76532 172.0
130.808838 72.0
130.849823 132.0
130.959122 228.0
131.049805 172.0
131.085739 136.0
131.278198 120.0
131.333511 172.0
131.462967 164.0
131.732391 232.0
131.917496 124.0
132.018097 132.0
132.057632 364.0
132.297241 168.0
132.395706 60.0
132.414017 68.0
132.553772 48.0
132.602432 188.0
132.739441 72.0
132.792191 216.0
132.808243 72.0
133.029922 268.0
133.066849 852.0
133.207657 36.0
133.260498 116.0
133.336319 68.0
133.391495 112.0
133.494949 128.0
133.762222 116.0
134.038727 296.0
134.069412 180.0
134.132706 100.0
134.241074 156.0
134.257217 88.0
134.501785 216.0
135.005524 152.0
135.040756 76.0
135.065598 156.0
135.158127 96.0
135.503128 96.0
135.52861 112.0
135.660721 48.0
136.011734 124.0
136.055099 156.0
136.108505 152.0
136.384964 196.0
136.529175 140.0
137.024948 128.0
137.090164 144.0
137.115799 92.0
137.318634 100.0
137.626678 176.0
137.701401 192.0
137.935059 224.0
138.02858 320.0
138.049622 72.0
138.13382 164.0
138.20401 160.0
138.304642 140.0
139.004044 1084.0
139.054672 92.0
139.07814 164.0
139.195526 40.0
139.357605 44.0
139.799683 156.0
139.889114 144.0
139.959747 152.0
140.010208 916.0
140.05159 116.0
140.069489 184.0
140.105774 200.0
140.129333 96.0
140.218887 48.0
140.353256 208.0
140.603302 180.0
140.773285 156.0
140.799423 116.0
140.833282 192.0
140.853592 96.0
141.01297 168.0
141.074036 336.0
141.376099 180.0
141.664963 144.0
141.712357 40.0
141.887741 132.0
142.020538 140.0
142.098816 244.0
142.150787 204.0
142.288696 196.0
142.53096 184.0
142.985168 156.0
143.046906 264.0
143.080582 140.0
143.168488 172.0
143.199448 176.0
143.239944 108.0
143.320938 116.0
143.437714 68.0
143.523544 148.0
143.690506 156.0
143.840851 148.0
143.88382 48.0
143.902924 156.0
144.054581 184.0
144.160843 164.0
144.220642 152.0
144.727829 200.0
144.794876 108.0
144.917038 212.0
145.027283 48.0
145.061752 884.0
145.168732 80.0
145.598297 92.0
145.812119 80.0
145.997238 164.0
146.070282 180.0
146.148788 48.0
146.266129 164.0
146.459351 188.0
146.505112 120.0
146.601501 136.0
146.668976 128.0
147.001816 160.0
147.043488 176.0
147.086288 132.0
147.110428 128.0
147.533188 88.0
147.57428 92.0
147.62265 120.0
147.980759 40.0
148.0849 220.0
148.123642 228.0
148.157562 172.0
148.264175 204.0
148.559998 116.0
148.698303 216.0
148.717728 160.0
148.809967 184.0
148.870667 200.0
148.899811 188.0
149.059021 1368.0
149.096603 164.0
149.315414 72.0
149.364059 56.0
149.461365 92.0
149.997177 192.0
150.036179 132.0
150.065323 132.0
150.114197 152.0
150.197128 104.0
150.563232 132.0
150.621857 36.0
150.726898 140.0
150.817337 156.0
150.86377 68.0
150.912674 104.0
150.999893 156.0
151.039597 1228.0
151.079803 180.0
151.647079 88.0
151.803986 248.0
151.828918 120.0
151.862839 180.0
151.916809 156.0
152.012497 164.0
152.051758 336.0
152.27272 220.0
152.402924 176.0
152.606934 176.0
152.705292 204.0
153.019012 340.0
153.04982 164.0
153.079376 216.0
153.182816 180.0
153.209915 120.0
153.249329 144.0
153.271515 140.0
153.40213 156.0
153.821487 148.0
153.888153 124.0
154.13269 140.0
154.338226 128.0
154.397186 252.0
154.450134 168.0
154.466446 220.0
154.587677 132.0
154.81543 84.0
154.88974 108.0
154.939285 192.0
154.989624 196.0
155.028488 120.0
155.049927 368.0
155.167297 180.0
155.638718 176.0
155.730591 168.0
155.951736 144.0
156.060562 144.0
156.093445 168.0
156.568649 196.0
156.613586 160.0
157.02565 192.0
157.044785 220.0
157.068802 192.0
157.569016 132.0
157.911484 128.0
158.014038 144.0
158.051743 120.0
158.076599 144.0
158.136658 188.0
158.239288 152.0
158.439651 156.0
158.600464 184.0
158.695297 236.0
158.840759 128.0
158.89093 116.0
158.956161 164.0
159.047882 536.0
159.078522 176.0
159.340332 160.0
159.367966 132.0
159.393097 116.0
159.533844 124.0
159.875916 152.0
159.901077 68.0
159.926254 240.0
160.051697 208.0
160.110046 160.0
160.223404 168.0
160.311584 120.0
160.649445 112.0
160.6772 56.0
160.727478 56.0
161.00029 116.0
161.025558 160.0
161.059174 204.0
161.447617 288.0
161.675293 184.0
161.801865 132.0
162.025497 280.0
162.068695 168.0
162.115952 92.0
162.303528 164.0
162.422729 140.0
162.691193 200.0
162.892334 136.0
162.999039 144.0
163.033447 392.0
163.087357 192.0
163.461838 96.0
163.558548 152.0
163.606918 92.0
163.680756 92.0
163.912567 100.0
164.046234 204.0
164.57576 176.0
164.81842 136.0
165.017975 460.0
165.071472 212.0
165.258026 176.0
165.726761 92.0
165.860031 124.0
165.888229 144.0
165.931808 212.0
166.448853 272.0
166.496338 136.0
166.524582 132.0
166.568253 144.0
166.598389 60.0
166.627335 80.0
166.684174 164.0
166.768677 168.0
166.814941 152.0
166.958923 104.0
166.998077 880.0
167.030945 124.0
167.076706 212.0
167.140472 168.0
167.164734 200.0
167.314011 184.0
167.350067 116.0
167.393829 32.0
167.641129 124.0
167.754547 132.0
167.927307 148.0
168.006348 5604.0
168.135101 52.0
168.169846 44.0
168.234253 92.0
168.29892 88.0
168.42804 288.0
168.500381 132.0
168.701431 156.0
168.753662 136.0
168.911423 176.0
168.968338 180.0
169.014374 14448.0
169.063782 532.0
169.115829 32.0
169.249054 76.0
169.302246 180.0
169.379944 200.0
169.491348 144.0
169.532806 36.0
169.591019 52.0
169.607971 76.0
169.644257 144.0
169.667587 52.0
169.685745 180.0
169.735001 64.0
169.790115 64.0
169.94252 32.0
169.98143 36.0
170.015488 1212.0
170.115067 148.0
170.155334 80.0
170.178711 52.0
170.26181 152.0
170.279984 76.0
170.332901 108.0
170.630783 68.0
170.846649 204.0
170.875259 160.0
170.896072 32.0
171.023865 584.0
171.042908 356.0
171.258453 80.0
171.356918 44.0
171.489822 96.0
172.055634 252.0
172.296158 48.0
172.561432 20.0
172.622879 100.0
172.84523 164.0
173.060349 1268.0
173.143661 60.0
173.303452 32.0
173.513123 152.0
173.725555 64.0
173.838379 60.0
174.053619 136.0
174.074631 136.0
174.547638 224.0
174.637054 124.0
174.797531 156.0
174.878998 176.0
175.005478 32.0
175.044968 164.0
175.077164 256.0
175.382202 184.0
175.510117 124.0
175.677536 144.0
175.825287 128.0
175.870163 160.0
175.933517 148.0
176.044632 188.0
176.08931 148.0
176.379959 204.0
176.670837 140.0
176.694641 148.0
176.774033 96.0
176.861359 144.0
176.96196 148.0
177.054855 1324.0
177.127899 188.0
177.611237 136.0
177.759811 144.0
177.796188 152.0
177.921722 104.0
178.058426 548.0
178.200592 116.0
178.240448 84.0
178.272324 56.0
178.81221 168.0
178.963943 156.0
178.995895 184.0
179.047043 272.0
179.115738 120.0
179.150375 72.0
179.686234 92.0
179.843674 136.0
179.982498 132.0
180.030563 108.0
180.073303 144.0
180.292374 112.0
180.356522 204.0
180.391266 124.0
180.562393 152.0
180.796799 168.0
180.947723 100.0
181.02002 176.0
181.063568 256.0
181.360275 160.0
181.644501 148.0
181.698151 80.0
182.02536 132.0
182.192139 76.0
182.390991 168.0
182.43132 152.0
182.533478 136.0
182.573822 68.0
182.592651 136.0
182.751358 104.0
182.82402 124.0
182.937057 104.0
182.955902 68.0
183.042526 340.0
183.136322 92.0
183.306046 192.0
183.389603 224.0
183.572922 268.0
183.629562 84.0
183.831894 88.0
184.263916 116.0
184.472015 116.0
184.536896 104.0
184.585571 132.0
184.774902 188.0
184.880432 100.0
185.010605 372.0
185.040146 156.0
185.061737 576.0
185.519669 184.0
185.883255 76.0
186.018372 476.0
186.070389 120.0
186.198013 152.0
186.325684 104.0
186.556686 64.0
186.681763 108.0
186.888489 160.0
186.92659 164.0
186.948364 136.0
187.0392 704.0
187.079102 436.0
187.36496 92.0
187.503922 136.0
187.593872 40.0
187.787476 68.0
187.85022 152.0
187.87204 136.0
188.026016 216.0
188.073227 192.0
188.114914 156.0
188.393463 112.0
188.494553 148.0
188.620102 132.0
188.653076 244.0
188.84996 164.0
188.926544 64.0
189.01683 344.0
189.049667 192.0
189.120834 92.0
189.263184 136.0
189.539841 172.0
189.597397 204.0
189.715256 140.0
189.764603 172.0
189.835892 116.0
189.855087 64.0
189.992233 156.0
190.060608 148.0
190.196564 160.0
190.406723 140.0
190.455688 116.0
190.486374 176.0
190.585281 136.0
190.610016 188.0
190.648483 100.0
190.686966 140.0
190.884903 124.0
190.987137 228.0
191.045486 196.0
191.071487 196.0
191.135223 104.0
191.226028 176.0
191.294846 252.0
191.363678 144.0
191.69696 124.0
192.005737 184.0
192.03331 108.0
192.079651 1016.0
192.422394 128.0
192.648865 192.0
192.81189 56.0
193.013519 200.0
193.084213 528.0
193.154556 188.0
193.331818 108.0
193.417618 152.0
193.470215 196.0
193.528351 132.0
193.608658 172.0
193.838577 156.0
193.902328 116.0
194.019409 200.0
194.08252 160.0
194.243362 164.0
194.293304 128.0
194.329376 116.0
194.515305 148.0
194.551392 140.0
194.579163 108.0
194.643021 152.0
194.693008 80.0
194.868011 124.0
195.066986 1056.0
195.14595 172.0
195.170975 52.0
195.242294 216.0
195.284988 88.0
195.463043 192.0
195.485306 196.0
195.546524 68.0
195.694061 124.0
196.058273 160.0
196.0952 168.0
196.440964 244.0
196.541397 32.0
196.932236 216.0
197.033783 136.0
197.061295 1040.0
197.133392 172.0
197.247986 128.0
197.449295 128.0
197.505234 52.0
197.566772 136.0
197.628326 76.0
197.678345 160.0
197.734665 256.0
197.801849 160.0
198.017441 176.0
198.069229 188.0
198.223358 248.0
198.2724 136.0
198.398529 128.0
198.432175 60.0
198.757538 120.0
198.837189 52.0
198.875397 200.0
198.928741 172.0
198.968033 156.0
199.044891 388.0
199.251694 100.0
199.27417 72.0
199.347229 96.0
199.389389 68.0
199.510254 28.0
199.625534 132.0
199.96875 148.0
199.991272 132.0
200.046066 396.0
200.146103 68.0
200.191162 216.0
200.244675 228.0
200.267212 148.0
200.44751 180.0
200.805542 128.0
200.900528 160.0
200.907822 108.0
200.916748 188.0
201.054199 928.0
201.118729 144.0
201.279648 180.0
201.460846 132.0
201.69397 196.0
202.036621 136.0
202.068237 164.0
202.64299 48.0
203.039001 200.0
203.075058 116.0
203.315033 60.0
203.51091 136.0
203.578247 200.0
203.704025 76.0
203.826187 152.0
203.991043 148.0
204.24411 132.0
204.275406 144.0
204.369293 108.0
204.522964 32.0
204.656769 120.0
204.776382 164.0
204.884613 76.0
205.050461 120.0
205.076904 180.0
205.229477 120.0
205.491882 72.0
205.568924 116.0
205.617447 148.0
205.7202 120.0
205.765884 184.0
206.028625 200.0
206.05719 204.0
206.091476 184.0
206.434494 136.0
206.872253 144.0
207.060562 152.0
207.114212 152.0
207.238846 144.0
207.459534 208.0
207.531204 116.0
207.769257 188.0
208.036469 108.0
208.245758 128.0
208.696945 40.0
208.901138 128.0
209.019104 164.0
209.137085 140.0
209.258865 132.0
209.30983 96.0
209.482635 160.0
209.563293 84.0
209.785217 60.0
210.076477 124.0
210.111099 152.0
210.393921 128.0
210.806961 136.0
210.882095 132.0
211.039017 348.0
211.318771 236.0
211.516968 196.0
211.585037 28.0
211.892029 140.0
212.048508 204.0
212.106476 120.0
212.141266 196.0
212.213745 132.0
212.419647 92.0
212.892746 212.0
213.057266 468.0
213.110611 116.0
213.293701 104.0
213.314041 60.0
213.491394 96.0
213.511765 100.0
213.537933 180.0
213.901642 116.0
214.026474 132.0
214.059494 204.0
214.137497 92.0
214.265671 212.0
214.347244 168.0
214.44342 164.0
214.466736 136.0
214.886673 128.0
215.038406 180.0
215.068741 532.0
215.493958 144.0
215.531952 220.0
215.587463 180.0
215.648849 104.0
215.683914 120.0
215.707306 84.0
216.04277 140.0
216.163559 56.0
216.277695 168.0
216.687683 152.0
217.049072 520.0
217.12738 424.0
217.227097 172.0
217.285782 48.0
217.693771 96.0
217.793106 156.0
217.843567 132.0
217.864136 72.0
217.893509 108.0
218.057175 132.0
218.181534 84.0
218.210922 188.0
218.405014 120.0
218.513855 40.0
218.66983 136.0
219.025742 264.0
219.06105 324.0
219.167511 52.0
219.31781 240.0
219.50354 88.0
219.618561 48.0
219.836884 136.0
219.889999 112.0
220.034637 132.0
220.075714 200.0
220.149796 196.0
220.170471 112.0
220.241364 132.0
220.347702 224.0
220.368393 64.0
220.403549 164.0
220.465897 112.0
220.566391 144.0
220.743774 72.0
221.021835 180.0
221.048462 188.0
221.083984 140.0
221.220139 88.0
221.37114 168.0
221.934143 192.0
222.035919 200.0
222.085388 144.0
222.319763 156.0
222.399902 80.0
222.462234 144.0
222.75325 108.0
222.781525 148.0
223.040955 208.0
223.841797 60.0
224.050629 120.0
224.078445 152.0
224.112869 184.0
224.178421 152.0
224.223129 136.0
224.291672 180.0
224.339371 124.0
224.49144 112.0
224.661453 108.0
224.706192 152.0
224.974792 148.0
225.055664 1124.0
225.389954 116.0
225.652969 36.0
225.828125 140.0
226.069092 348.0
226.203491 196.0
226.706619 136.0
226.748566 156.0
226.856476 200.0
226.973404 140.0
227.044128 328.0
227.072372 108.0
227.813782 176.0
227.867859 220.0
227.897903 44.0
228.040298 544.0
228.07785 148.0
228.44809 96.0
228.574448 84.0
228.836319 204.0
228.902557 160.0
228.989899 152.0
229.050064 3640.0
229.147842 184.0
229.203781 264.0
229.604721 172.0
229.649963 88.0
229.846054 116.0
229.903397 68.0
229.945648 56.0
230.05722 696.0
230.181122 196.0
230.513397 40.0
230.607086 88.0
231.008163 260.0
231.028214 384.0
231.069885 200.0
231.196838 148.0
231.251312 100.0
231.590439 88.0
231.675247 52.0
231.741898 80.0
231.951004 132.0
232.036041 168.0
232.236038 212.0
232.311874 148.0
232.472672 96.0
232.985825 184.0
233.0215 140.0
233.046661 168.0
233.076965 120.0
233.134705 212.0
233.277557 152.0
233.453903 184.0
233.748978 88.0
233.812897 60.0
233.937683 212.0
234.010757 220.0
234.046463 184.0
234.120377 136.0
234.226974 176.0
234.370163 132.0
234.479874 88.0
234.684113 192.0
234.90065 144.0
235.062347 136.0
235.132538 136.0
235.694427 188.0
235.831955 140.0
235.871689 144.0
235.902267 164.0
236.03067 80.0
236.183578 92.0
237.061356 160.0
237.157272 212.0
237.595795 164.0
237.666351 144.0
238.016281 44.0
238.063446 448.0
238.268143 152.0
238.298859 160.0
238.501678 152.0
238.649246 128.0
238.716904 56.0
239.041733 208.0
239.076157 148.0
239.110672 96.0
239.179276 112.0
239.677307 196.0
239.772842 128.0
240.037949 124.0
240.062622 64.0
240.185989 144.0
240.448257 128.0
240.485291 108.0
240.682877 56.0
240.707565 168.0
241.050812 2012.0
241.112259 44.0
241.143173 72.0
241.17717 40.0
241.269897 60.0
241.353378 108.0
241.41832 200.0
242.061111 524.0
242.257111 160.0
242.322174 92.0
242.743729 100.0
243.066986 3664.0
243.264969 264.0
243.289795 148.0
243.342575 132.0
243.451263 72.0
243.504059 116.0
243.541321 44.0
243.594131 40.0
243.64563 104.0
243.687332 84.0
243.729401 52.0
243.786774 60.0
243.848923 76.0
244.037521 432.0
244.068161 952.0
244.271805 72.0
244.371353 76.0
244.701263 116.0
244.775543 112.0
244.93483 136.0
245.043564 668.0
245.202789 196.0
245.258896 156.0
245.573807 136.0
245.679871 284.0
245.812286 164.0
246.054489 936.0
246.180847 156.0
246.291702 84.0
246.438751 232.0
246.494766 136.0
246.758987 144.0
247.013763 152.0
247.056564 216.0
247.16394 104.0
247.342331 84.0
247.473816 116.0
247.548965 120.0
247.628113 160.0
247.729294 224.0
247.801208 144.0
248.057144 216.0
248.523834 48.0
248.834549 116.0
248.869095 96.0
248.991562 184.0
249.045151 124.0
249.079498 148.0
249.156372 128.0
249.198883 56.0
249.418869 160.0
249.466019 164.0
249.51947 56.0
249.953522 104.0
250.051071 152.0
250.11087 140.0
250.132919 136.0
250.154953 104.0
250.624207 160.0
250.851135 232.0
250.879501 168.0
250.936249 160.0
250.980392 212.0
251.035522 172.0
251.308426 148.0
251.598785 132.0
251.677719 200.0
251.804031 120.0
251.968292 56.0
251.993576 88.0
252.043259 132.0
252.14209 48.0
252.338074 40.0
252.451904 212.0
252.518326 60.0
252.618851 128.0
252.888504 216.0
253.047287 920.0
253.369827 100.0
253.499741 120.0
253.670883 184.0
253.97847 148.0
254.054062 344.0
254.206894 132.0
254.622772 188.0
254.746658 208.0
254.943649 180.0
254.98497 112.0
255.029465 84.0
255.065765 104.0
255.232925 132.0
255.270905 216.0
255.341049 36.0
255.563721 92.0
255.592361 172.0
255.755371 180.0
255.917023 152.0
256.045624 452.0
256.084381 156.0
256.276947 156.0
256.407593 44.0
256.436279 136.0
256.46814 240.0
256.745544 116.0
256.788483 204.0
256.809326 232.0
256.949677 216.0
257.046173 7900.0
257.118805 52.0
257.147522 32.0
257.182648 68.0
257.20816 60.0
257.236908 96.0
257.385132 112.0
257.479065 128.0
257.523163 136.0
257.565796 204.0
257.620117 120.0
257.642456 40.0
257.741516 80.0
257.920471 56.0
258.050934 2292.0
258.251038 84.0
258.375 60.0
258.646576 56.0
258.752228 144.0
258.928345 48.0
259.026276 468.0
259.059601 616.0
259.102478 144.0
259.303192 52.0
259.363525 180.0
259.489105 112.0
259.636627 132.0
259.720001 52.0
259.758514 132.0
259.877197 104.0
259.934967 60.0
260.037231 480.0
260.069885 604.0
260.105072 152.0
260.207794 88.0
260.30545 136.0
260.503235 128.0
260.544312 200.0
260.59964 192.0
260.916016 128.0
260.940308 212.0
261.033569 196.0
261.077057 84.0
261.113953 140.0
261.258698 192.0
261.364868 256.0
261.413147 124.0
261.451782 168.0
261.815552 80.0
261.879974 76.0
261.947601 116.0
262.095825 164.0
262.656769 60.0
262.695496 56.0
263.047241 156.0
263.541351 20.0
263.596283 204.0
263.942169 88.0
264.334595 176.0
265.058289 256.0
265.486816 160.0
265.681427 184.0
265.999451 112.0
266.059875 272.0
266.272186 228.0
266.457336 44.0
266.68808 208.0
266.73465 324.0
266.779083 184.0
267.000183 72.0
267.03241 132.0
267.058807 192.0
267.23114 92.0
267.296234 232.0
267.70639 140.0
267.901825 112.0
268.039825 496.0
268.071533 128.0
268.371124 168.0
268.403748 140.0
268.472198 44.0
268.93222 192.0
268.958344 164.0
268.981201 184.0
269.045258 2076.0
269.086731 148.0
269.128113 136.0
269.200562 108.0
269.264679 160.0
269.316437 132.0
269.339355 128.0
269.539673 84.0
269.640991 140.0
269.758636 168.0
269.895966 88.0
270.003876 160.0
270.050995 1544.0
270.095459 200.0
270.124908 56.0
270.164154 100.0
270.275391 80.0
270.303223 40.0
270.429199 212.0
270.494659 96.0
270.707489 36.0
270.933502 92.0
271.061096 9292.0
271.150543 84.0
271.189087 32.0
271.234985 136.0
271.368347 88.0
271.464478 44.0
271.503815 52.0
271.587158 244.0
271.625183 56.0
271.65799 72.0
271.71048 144.0
271.854858 172.0
272.066772 1996.0
272.120728 44.0
272.498444 64.0
272.679169 92.0
272.930969 80.0
272.958588 100.0
273.034271 512.0
273.066132 656.0
273.142761 228.0
273.438904 156.0
273.494843 168.0
273.545715 132.0
273.577148 120.0
273.652863 112.0
273.684967 160.0
273.778015 120.0
273.873505 124.0
273.978912 60.0
274.049713 856.0
274.288696 216.0
274.321655 108.0
274.398468 160.0
274.450226 116.0
274.522766 204.0
274.559052 128.0
274.667908 68.0
274.766876 88.0
274.941742 48.0
275.053223 732.0
275.357727 56.0
275.737671 48.0
276.040314 220.0
276.098053 144.0
276.19397 96.0
276.309723 100.0
276.468567 92.0
276.759857 48.0
277.223633 128.0
277.495422 152.0
277.657898 144.0
277.737518 140.0
277.830383 152.0
277.858215 168.0
277.883484 120.0
277.966431 108.0
278.139008 164.0
278.238586 208.0
278.540802 124.0
279.438385 188.0
279.774536 176.0
280.097534 128.0
280.140839 60.0
280.364105 184.0
280.417419 156.0
280.534088 72.0
280.704132 168.0
280.877533 80.0
280.957611 124.0
281.047058 336.0
281.207886 132.0
281.661987 52.0
281.862427 92.0
281.942627 104.0
281.982727 108.0
282.006134 96.0
282.04129 140.0
282.668304 104.0
282.865784 32.0
283.023132 108.0
283.061371 248.0
283.147034 128.0
283.173828 344.0
283.421722 160.0
283.562469 128.0
283.781525 208.0
283.81723 164.0
283.877594 156.0
284.033051 604.0
284.070343 424.0
284.152649 116.0
284.354004 48.0
284.525177 52.0
284.604218 208.0
284.723297 76.0
284.780396 168.0
284.82959 228.0
284.938263 128.0
284.995392 96.0
285.041199 5424.0
285.07373 1092.0
285.160065 88.0
285.217194 188.0
285.27771 144.0
285.391113 120.0
285.418915 56.0
285.455902 200.0
285.533264 44.0
285.711517 164.0
285.775452 44.0
285.920135 160.0
286.045044 2464.0
286.079346 1268.0
286.128845 148.0
286.497314 68.0
286.545563 176.0
286.623962 104.0
286.883484 88.0
286.94278 232.0
286.974518 60.0
287.015411 892.0
287.053741 1156.0
287.227448 72.0
287.344818 136.0
287.591156 156.0
287.618866 68.0
287.659363 84.0
287.713379 76.0
288.060822 404.0
288.152435 124.0
288.263947 124.0
288.299469 156.0
288.419403 92.0
288.733826 108.0
288.787964 160.0
288.840912 164.0
288.886047 136.0
288.913116 160.0
289.076721 444.0
289.265045 124.0
289.297333 180.0
289.610443 136.0
289.911957 44.0
290.037384 164.0
290.077667 160.0
290.369659 132.0
290.417145 140.0
290.715698 188.0
290.81073 204.0
291.042511 144.0
291.843445 44.0
292.05545 212.0
292.677063 80.0
292.89505 176.0
293.055511 152.0
293.378937 156.0
293.51532 180.0
293.661957 160.0
294.027008 160.0
294.341064 228.0
294.833374 132.0
294.877411 60.0
294.973145 232.0
295.06543 340.0
295.287689 164.0
295.681152 40.0
295.794098 100.0
296.030334 96.0
296.067169 164.0
296.448273 88.0
296.5271 76.0
296.571655 88.0
296.969391 264.0
297.041779 1740.0
297.346802 160.0
297.522888 92.0
297.583649 60.0
297.628296 172.0
297.71756 160.0
297.765656 188.0
297.794952 112.0
297.991577 140.0
298.047546 3936.0
298.15387 76.0
298.186829 68.0
298.23291 124.0
298.284485 176.0
298.446075 104.0
298.497406 120.0
298.551514 136.0
298.66272 92.0
298.690247 112.0
298.74527 132.0
298.830933 192.0
298.95517 132.0
298.997894 116.0
299.056732 9116.0
299.237976 220.0
299.271851 120.0
299.346191 156.0
299.464966 104.0
299.512268 172.0
299.791992 52.0
299.843689 44.0
299.943634 88.0
300.024078 2004.0
300.059418 2132.0
300.126373 152.0
300.219452 48.0
300.243591 52.0
300.327362 140.0
300.374664 100.0
300.414398 124.0
300.592041 164.0
301.036224 1000.0
301.068787 1324.0
301.31366 52.0
301.500244 200.0
301.679993 128.0
301.718018 108.0
301.773346 56.0
301.8526 208.0
301.900269 160.0
301.993988 104.0
302.043518 7360.0
302.15033 44.0
302.240295 52.0
302.264496 92.0
302.323334 52.0
302.354492 160.0
302.382172 76.0
302.428986 68.0
302.485992 44.0
302.510223 112.0
302.537933 72.0
302.641785 68.0
302.690277 128.0
302.797638 80.0
302.862701 160.0
302.998535 48.0
303.047119 2076.0
303.358948 72.0
303.58432 108.0
303.778564 180.0
303.906921 32.0
303.965912 68.0
304.051147 412.0
304.074188 200.0
304.108215 88.0
304.271362 108.0
304.708221 56.0
304.771484 144.0
304.907013 80.0
305.272064 128.0
305.299866 64.0
305.438995 96.0
305.481354 160.0
305.616425 176.0
305.91922 76.0
305.967957 152.0
306.107208 72.0
306.507812 136.0
307.312012 232.0
307.5401 120.0
307.623871 92.0
307.67276 184.0
308.186157 112.0
308.434296 124.0
308.804901 32.0
309.354279 44.0
309.532837 104.0
310.041321 184.0
310.093353 216.0
310.384338 144.0
310.619293 164.0
311.071991 140.0
311.574158 60.0
311.72876 120.0
311.777954 100.0
311.939636 60.0
312.059967 144.0
312.199829 40.0
312.326447 152.0
312.356018 196.0
312.406097 152.0
312.572723 104.0
312.597351 208.0
312.636047 176.0
312.695892 108.0
312.822601 200.0
312.903564 208.0
313.032379 768.0
313.071808 952.0
313.146545 56.0
313.178253 80.0
313.248688 104.0
313.322662 124.0
313.389618 204.0
313.747131 192.0
313.760681 84.0
313.76889 216.0
313.958832 92.0
314.044006 5280.0
314.078583 5844.0
314.21524 140.0
314.316956 44.0
314.369904 108.0
314.46167 56.0
314.571075 92.0
314.599304 36.0
314.694641 44.0
314.72995 144.0
314.779388 104.0
314.849609 60.0
315.050934 2336.0
315.080566 1372.0
315.136139 132.0
315.357208 108.0
315.433014 88.0
315.691101 72.0
315.765381 80.0
316.058441 4048.0
316.158081 140.0
316.196991 52.0
316.421539 84.0
316.46109 80.0
316.573608 180.0
316.633789 108.0
316.671417 124.0
316.749359 84.0
316.777679 216.0
316.866272 136.0
316.915863 48.0
316.983185 196.0
317.065948 4012.0
317.211334 96.0
317.266724 32.0
317.299957 96.0
317.373108 56.0
317.409363 88.0
317.444031 32.0
317.518494 72.0
317.717133 88.0
317.745514 80.0
317.954865 44.0
317.983246 124.0
318.03598 136.0
318.070526 1188.0
318.174957 48.0
318.334717 36.0
318.595245 228.0
318.711243 52.0
318.764557 144.0
318.910278 88.0
318.952911 116.0
319.074585 536.0
319.3974 116.0
319.596619 108.0
319.806305 52.0
320.112762 120.0
320.141632 100.0
320.212463 148.0
320.27301 136.0
320.376312 176.0
320.43689 112.0
320.893097 208.0
320.985809 72.0
321.021454 52.0
321.21048 152.0
321.239014 76.0
321.445953 104.0
321.520905 100.0
322.281525 160.0
322.567413 104.0
322.653229 124.0
323.050171 172.0
323.100281 156.0
323.526154 144.0
323.583435 48.0
324.052612 156.0
324.106689 204.0
324.367981 208.0
324.400238 172.0
324.662598 152.0
324.769592 56.0
324.819794 232.0
325.036957 152.0
325.081696 152.0
325.548401 140.0
325.907593 144.0
325.975861 84.0
326.043243 4412.0
326.209503 56.0
326.305389 124.0
326.348511 140.0
326.374878 76.0
326.619415 48.0
326.67337 148.0
326.727356 132.0
326.788513 164.0
326.820892 112.0
326.860657 80.0
326.900055 328.0
326.988861 300.0
327.051453 16056.0
327.141205 152.0
327.172974 68.0
327.281616 52.0
327.378845 52.0
327.414856 60.0
327.496246 100.0
327.569733 176.0
327.609344 52.0
327.659698 180.0
327.688599 280.0
327.775085 188.0
327.800323 68.0
327.857971 44.0
327.926453 68.0
328.056488 3172.0
328.164368 112.0
328.247314 36.0
328.431244 120.0
328.499756 48.0
328.596893 212.0
328.712646 52.0
328.766754 28.0
328.824524 48.0
328.878662 132.0
329.066925 7268.0
329.199982 80.0
329.293854 60.0
329.358887 148.0
329.405853 140.0
329.478088 80.0
329.615387 32.0
329.662354 60.0
329.738251 80.0
329.799713 144.0
329.849213 160.0
329.939301 180.0
329.978424 284.0
330.039062 14324.0
330.156433 72.0
330.20105 116.0
330.302307 180.0
330.378967 168.0
330.417206 152.0
330.443207 72.0
330.504913 44.0
330.541107 80.0
330.566437 28.0
330.656891 168.0
330.707581 152.0
330.781677 76.0
330.839172 100.0
330.895813 132.0
330.953735 60.0
331.041748 1960.0
331.077087 1360.0
331.163788 208.0
331.237305 172.0
331.312286 64.0
331.352142 120.0
331.377502 44.0
331.443207 128.0
331.515198 160.0
331.555054 80.0
331.631165 64.0
331.841431 40.0
331.968353 48.0
332.045166 980.0
332.072021 560.0
332.09201 364.0
332.160553 92.0
332.196838 120.0
332.225861 116.0
332.327454 160.0
332.64682 100.0
332.772217 76.0
332.931396 84.0
333.036926 348.0
333.093475 144.0
333.164246 60.0
333.340515 84.0
333.434998 132.0
333.696747 52.0
333.74765 84.0
333.951294 40.0
333.987671 236.0
334.082245 108.0
334.213226 128.0
334.373322 64.0
334.988678 148.0
335.050629 276.0
335.159912 144.0
335.334839 100.0
335.440552 140.0
336.064178 76.0
336.199188 72.0
336.410889 140.0
336.553284 44.0
336.863708 188.0
337.54718 100.0
337.814148 184.0
337.883667 96.0
337.96051 44.0
338.019043 164.0
338.216675 204.0
338.440002 76.0
338.637756 104.0
340.511932 144.0
340.651489 180.0
340.831512 220.0
341.067383 3732.0
341.261566 68.0
341.507965 48.0
341.547119 68.0
341.640381 120.0
341.706604 224.0
341.8685 72.0
341.956848 172.0
342.070129 2072.0
342.232941 152.0
342.27713 48.0
342.420746 36.0
342.479675 196.0
342.555695 128.0
342.663849 136.0
342.708069 56.0
342.741241 40.0
342.962006 88.0
343.047821 440.0
343.080872 384.0
343.164185 48.0
343.38269 156.0
343.430634 44.0
343.718384 136.0
343.761169 168.0
343.995941 188.0
344.053589 7156.0
344.114655 100.0
344.134125 44.0
344.146729 88.0
344.179779 48.0
344.225983 80.0
344.343872 92.0
344.406708 116.0
344.541748 64.0
344.66037 76.0
344.708008 72.0
344.756042 64.0
344.845764 216.0
344.896484 156.0
344.948242 164.0
344.974121 144.0
345.0 164.0
345.061951 9748.0
345.122009 64.0
345.194336 200.0
345.377167 128.0
345.406464 48.0
345.465973 36.0
345.536255 48.0
345.658356 116.0
345.721252 140.0
345.78418 52.0
345.895233 100.0
346.023804 136.0
346.062561 1420.0
346.146973 48.0
346.202515 172.0
346.250671 60.0
346.283997 40.0
346.517365 136.0
346.565552 88.0
346.698944 108.0
346.739716 108.0
346.791595 200.0
346.843475 84.0
346.988068 64.0
347.027283 140.0
347.067505 364.0
347.166046 72.0
347.195709 36.0
347.248779 224.0
347.302704 104.0
347.538696 96.0
347.822174 76.0
347.885864 56.0
347.926697 76.0
348.050568 120.0
348.079407 124.0
348.127197 148.0
348.211487 52.0
348.224182 36.0
348.364899 64.0
348.394623 140.0
348.42807 152.0
348.732758 80.0
348.781097 112.0
349.041321 100.0
349.178925 96.0
349.29422 120.0
349.837524 96.0
350.515381 200.0
350.716644 80.0
351.828278 124.0
351.977631 68.0
352.170746 84.0
352.7323 184.0
354.80246 44.0
355.428833 152.0
355.489197 92.0
356.318695 172.0
356.438904 80.0
356.592987 72.0
356.983978 100.0
357.056854 148.0
357.099731 224.0
357.299927 148.0
357.435394 48.0
357.785431 120.0
357.830597 96.0
357.95108 84.0
358.015106 100.0
358.305145 144.0
358.742065 132.0
358.785553 168.0
358.866699 96.0
358.900635 104.0
359.077484 4968.0
359.177826 144.0
359.273163 212.0
359.347931 116.0
359.394775 76.0
359.495758 220.0
359.541931 124.0
359.570557 192.0
359.602325 172.0
359.703705 176.0
359.745758 88.0
359.791046 132.0
359.824951 184.0
359.880188 92.0
359.949646 216.0
359.974518 68.0
360.086365 49604.0
360.202332 136.0
360.215515 76.0
360.266907 60.0
360.374664 100.0
360.424286 116.0
360.432159 76.0
360.486053 72.0
360.528961 112.0
360.572571 76.0
360.610748 132.0
360.654297 156.0
360.761719 64.0
360.818451 128.0
360.940186 96.0
361.088989 7148.0
361.183014 196.0
361.246643 48.0
361.302765 60.0
361.354523 108.0
361.393555 108.0
361.517883 100.0
361.687286 240.0
361.722809 64.0
361.78833 52.0
361.830597 84.0
362.090759 1712.0
362.196136 32.0
362.227234 108.0
362.362823 56.0
362.488251 156.0
362.527405 92.0
362.575012 112.0
362.662201 156.0
362.781708 76.0
362.819946 84.0
362.954224 68.0
363.018555 76.0
363.098145 184.0
363.186188 156.0
363.226105 72.0
363.287872 76.0
363.318207 52.0
363.359955 48.0
363.429779 108.0
363.464539 196.0
363.552002 136.0
363.5914 160.0
363.679138 36.0
363.857117 68.0
363.910278 48.0
364.036255 68.0
364.125854 52.0
364.212708 164.0
364.286255 124.0
364.381226 156.0
364.799255 52.0
364.947327 68.0
365.004578 224.0
365.035004 32.0
366.081482 84.0
366.416687 68.0
367.465149 44.0
369.004303 80.0
369.195496 88.0
369.52063 40.0
370.29007 60.0
370.435608 40.0
370.719147 72.0
371.037292 88.0
371.727692 124.0
372.459351 168.0
372.62619 72.0
373.191162 160.0
373.768127 52.0
373.833557 68.0
374.075226 136.0
374.387909 216.0
374.68576 168.0
374.865234 136.0
374.966156 84.0
375.012024 84.0
375.109131 15664.0
375.193207 40.0
375.220184 32.0
375.259949 144.0
375.389862 88.0
375.550018 104.0
375.659821 56.0
375.779419 48.0
375.866882 60.0
375.929901 48.0
375.968506 124.0
376.04184 80.0
376.111237 2640.0
376.180786 96.0
376.207825 64.0
376.339081 112.0
376.447205 60.0
376.930054 56.0
377.118225 564.0
377.165802 152.0
377.192871 56.0
377.231537 192.0
377.378448 68.0
377.420959 64.0
377.486694 68.0
377.660736 80.0
377.977142 112.0
378.101807 120.0
378.167603 60.0
378.337921 76.0
378.473419 36.0
378.636078 60.0
378.752258 84.0
378.81424 40.0
379.286987 68.0
379.539001 56.0
379.566132 100.0
379.90744 40.0
385.901245 28.0
386.421417 88.0
387.259155 48.0
387.882172 128.0
390.402802 100.0
391.173981 72.0
391.575592 44.0
391.666199 68.0
392.091705 128.0
394.479706 48.0
395.223206 56.0
396.086273 124.0
399.388763 120.0
400.977417 76.0
417.651154 60.0
417.923706 80.0
419.793396 48.0
422.742828 120.0
423.692749 112.0
425.854523 88.0
427.136963 68.0
429.575592 104.0
430.504242 68.0
433.283844 60.0
434.046478 60.0
434.266266 52.0
436.488068 116.0
437.715607 48.0
439.357788 100.0
440.154999 80.0
443.133057 84.0
446.970764 76.0
454.992981 76.0
458.659912 80.0
461.798218 44.0
462.525604 52.0
466.725647 56.0
470.210693 80.0
473.253967 52.0
476.767609 72.0
476.893646 68.0
477.685028 100.0
483.693817 48.0
491.852203 124.0
491.984619 120.0
497.780365 56.0
498.806671 112.0
500.485962 112.0
503.150116 36.0
506.092041 32.0
507.050659 44.0
510.583923 92.0
513.11908 80.0
521.811829 36.0
524.023804 80.0
524.233398 144.0
525.587708 80.0
530.550171 72.0
536.356079 88.0
536.904724 136.0
546.591248 72.0
546.898438 72.0
553.012817 72.0
553.930603 32.0
554.057068 104.0
555.116333 76.0
555.167908 64.0
558.77063 60.0
568.461792 36.0
573.021729 120.0
580.799561 92.0
584.392944 108.0
585.346008 84.0
586.232361 56.0
590.533936 76.0
591.656555 48.0
593.361938 72.0
606.519348 48.0
608.241028 48.0
608.90387 80.0
609.444214 92.0
611.819763 92.0
614.5896 96.0
622.539429 108.0
639.84021 84.0
646.786377 92.0
647.485107 84.0
653.820984 80.0
656.577148 44.0
670.980957 100.0
674.227722 60.0
680.059448 68.0
683.572632 80.0
698.867615 100.0
699.793945 80.0
704.202515 92.0
706.232117 108.0
709.403931 80.0
717.324524 84.0
724.924683 100.0
734.068604 80.0
734.893921 56.0
754.708496 44.0
759.275452 104.0
762.421204 56.0
766.724854 124.0
783.263733 44.0
792.470337 100.0
799.405029 52.0
799.652649 84.0
801.730774 76.0
802.700378 140.0
808.07196 64.0
816.052002 68.0
828.780151 120.0
840.873718 212.0
866.102417 88.0
888.627991 140.0
891.644531 64.0
894.011475 20.0
896.649719 52.0
898.038879 56.0
903.690063 48.0
908.914856 44.0
913.811768 52.0
922.671448 184.0
926.126709 88.0
980.194641 60.0
986.404541 76.0
990.647217 128.0
992.094788 64.0
992.201355 96.0
1004.52887 164.0
1007.225708 20.0
1009.175293 104.0
1032.455322 56.0
1045.626343 252.0
1072.779419 180.0
1079.412842 188.0
1086.886719 128.0
1091.294067 124.0
1098.657104 112.0
1098.749512 60.0
1105.846436 56.0
1116.966919 108.0
1146.925171 160.0
1148.691772 124.0
1154.236572 184.0
1159.943848 176.0
1189.5354 144.0
1190.634033 100.0
1192.296509 76.0
1200.978394 212.0
1206.447388 164.0
1208.95813 52.0
1219.346802 172.0
1219.993286 164.0
1221.961426 80.0
1224.550903 84.0
1228.063599 128.0
1229.026367 132.0
1235.153198 208.0
1242.242065 180.0
1246.426514 60.0
1247.33313 100.0
1257.52832 220.0
1261.091797 60.0
1269.098267 192.0
1270.743774 176.0
1274.449951 132.0
1279.777344 144.0
1283.389771 116.0
1288.264282 140.0
1293.019165 56.0
1306.588013 160.0
1308.667969 160.0
1310.331665 56.0
1315.105469 56.0
1315.596313 160.0
1321.38501 144.0
1326.744263 112.0
1330.465942 84.0
1331.576904 40.0
1336.905762 172.0
1337.757324 40.0
1337.808228 196.0
1344.871582 140.0
1350.175781 200.0
1364.143433 160.0
1365.158081 140.0
1369.684326 176.0
1369.905396 72.0
1373.790283 44.0
1382.07959 176.0
1384.685303 60.0
1385.003784 220.0
1385.766846 116.0
1394.055054 100.0
1397.973999 152.0
1400.579834 160.0
1402.800293 184.0
1412.193604 224.0
1413.046387 184.0
1413.854614 148.0
1419.292969 120.0
1424.411255 172.0
1437.217163 160.0
1443.411011 264.0
1445.324707 144.0
1454.821045 144.0
1460.581055 180.0
1461.63855 160.0
1464.059204 124.0
1465.90271 164.0
1468.593872 136.0
1469.791626 56.0
1477.554199 260.0
1479.429199 156.0
1486.687622 184.0
1489.321045 196.0
1490.544434 180.0
1497.674072 88.0
1502.445679 56.0
1503.440918 136.0
