>compound ENROFLOXACIN
>formula C19H22FN3O3
>ionization [M+H]+
>parentmass 360.17179623609053
#inchi InChI=1S/C19H22FN3O3/c1-2-21-5-7-22(8-6-21)17-10-16-13(9-15(17)20)18(24)14(19(25)26)11-23(16)12-3-4-12/h9-12H,2-8H2,1H3,(H,25,26)
#inchikey SPFYMRJSYKOXGV
#Ion_Source LC-ESI
#Instrument qTof
#Compound_Source Commercial
#PI Dorrestein
#Data_Collector Garg_Neha
#Scan -1
#Precursor_MZ 360.172
#ExactMass 359.165
#Charge 1
#CAS_Number N/A
#Pubmed_ID N/A
#Smiles CCN1CCN(CC1)c2cc3n(cc(C(=O)O)c(=O)c3cc2F)C4CC4
#INCHI_AUX N/A
#Library_Class 1
#SpectrumID CCMSLIB00000079094
#IonMode Positive
#UpdateWorkflowName UPDATE-SINGLE-ANNOTATED-GOLD
#LibraryQualityString Gold
#TaskID 278b19f5865741e282cec7349aa7e7a1
##Scan# 1031
#SpectrumFile NCP003432_G2_H11_BD3_01_15725.mzXML
#LibraryName NIHcollectionI_05062014.mgf
#MQScore -1
#Organism NIHcollectionI_05062014
#TIC_Query 0
#RT_Query -1
#MZErrorPPM -1
#SharedPeaks 0
#MassDiff 0
#LibMZ -1
#SpecMZ 360.172
#SpecCharge 0
#internalFilename spec-00000.mgf

>collision 10
45.149883 208.0
45.189114 184.0
46.520355 104.0
46.655159 196.0
46.79393 180.0
47.027035 140.0
47.192329 140.0
47.760078 140.0
48.067303 212.0
49.271156 132.0
49.555126 156.0
49.849789 200.0
50.498299 184.0
51.141033 168.0
51.584644 148.0
52.218414 192.0
52.497807 152.0
53.407337 160.0
53.526676 140.0
53.851891 188.0
53.888409 188.0
54.180195 100.0
54.299747 168.0
54.948456 180.0
55.483833 208.0
55.939899 160.0
56.614773 160.0
56.703163 212.0
56.724148 272.0
56.755634 156.0
56.931202 176.0
57.042385 192.0
57.334377 200.0
57.435394 180.0
57.543041 156.0
57.911514 156.0
58.128307 148.0
58.302944 176.0
58.354626 168.0
58.391121 164.0
58.483932 152.0
58.829952 152.0
59.65258 180.0
59.786392 204.0
59.908028 160.0
60.105377 176.0
60.15218 132.0
60.905769 148.0
61.016102 140.0
61.078308 144.0
61.63718 176.0
62.139038 160.0
62.32745 188.0
62.382458 140.0
63.199406 188.0
63.58371 116.0
63.655914 196.0
63.983456 148.0
65.035301 144.0
65.266632 184.0
65.516098 152.0
65.64827 156.0
66.035866 168.0
66.087631 220.0
66.712029 148.0
66.960365 212.0
67.205498 160.0
67.664772 184.0
69.446144 160.0
69.587196 164.0
69.696823 172.0
70.139503 144.0
70.449883 156.0
71.104576 224.0
71.242264 164.0
71.491112 200.0
71.551704 144.0
71.757248 168.0
72.328239 160.0
72.523026 144.0
72.768539 148.0
72.836929 140.0
72.874306 156.0
72.887894 164.0
73.021927 148.0
73.165131 144.0
73.266899 148.0
73.902428 196.0
74.12674 180.0
74.689857 144.0
75.036522 208.0
75.18261 164.0
75.635437 140.0
76.58522 140.0
77.428802 252.0
77.877792 144.0
77.948059 192.0
78.067596 140.0
79.330017 192.0
79.859161 144.0
80.206367 176.0
80.591843 140.0
80.981819 168.0
81.109039 208.0
81.464333 184.0
81.589134 188.0
81.698036 228.0
82.249443 168.0
82.826256 156.0
83.248833 152.0
83.434166 184.0
83.614243 168.0
84.267052 172.0
84.457169 152.0
84.610519 160.0
85.093056 148.0
85.585808 176.0
85.607903 156.0
85.928627 144.0
86.055977 144.0
86.172333 148.0
86.701546 148.0
87.278862 168.0
87.707047 248.0
87.748055 252.0
87.785347 168.0
87.83757 180.0
88.085831 172.0
88.160568 184.0
88.175522 144.0
88.562813 208.0
88.795219 180.0
89.059853 148.0
89.082397 160.0
89.138763 140.0
89.292915 224.0
89.498032 216.0
89.717461 180.0
90.156364 156.0
90.271675 208.0
90.494957 152.0
90.860741 160.0
91.767937 144.0
91.941521 160.0
92.451775 164.0
92.823402 160.0
93.078613 140.0
93.180412 148.0
93.259193 180.0
93.335213 148.0
93.438034 144.0
93.556038 188.0
93.643997 172.0
93.73233 212.0
94.023804 152.0
94.259399 156.0
94.551407 140.0
94.624962 164.0
94.678116 160.0
95.97921 168.0
96.100143 168.0
96.187958 196.0
96.432114 160.0
96.495758 156.0
96.725502 220.0
96.750954 148.0
96.795982 196.0
96.90567 188.0
97.301849 152.0
97.376465 176.0
98.09684 500.0
98.315552 140.0
99.09053 248.0
99.528999 184.0
99.564743 156.0
100.376663 140.0
100.43457 108.0
100.91777 156.0
102.273895 188.0
102.434975 144.0
103.25647 144.0
103.321198 196.0
103.639061 176.0
103.890465 172.0
105.184677 144.0
105.619911 204.0
106.828117 236.0
107.079231 180.0
107.264671 156.0
107.647568 136.0
107.927376 168.0
108.252243 180.0
108.383316 172.0
108.582428 280.0
108.760178 156.0
109.043076 168.0
109.175697 380.0
110.083046 168.0
111.091019 176.0
111.29039 164.0
112.099129 168.0
112.550438 184.0
112.737518 144.0
113.104546 172.0
113.185974 140.0
113.450806 192.0
113.562691 196.0
113.862038 184.0
113.94104 160.0
114.313126 160.0
114.549454 140.0
114.886269 140.0
114.997223 160.0
115.217163 168.0
115.676941 152.0
115.880646 164.0
116.046234 216.0
116.30928 196.0
116.902458 140.0
117.034485 144.0
117.06044 124.0
117.479889 168.0
117.626625 176.0
117.671959 168.0
117.827461 144.0
117.900925 148.0
118.363853 152.0
118.450485 140.0
119.253128 144.0
119.31852 168.0
120.01741 184.0
120.270538 120.0
121.013733 152.0
121.044388 168.0
122.176918 172.0
122.245125 144.0
122.81794 148.0
122.994461 160.0
123.045227 144.0
123.100433 232.0
123.68631 220.0
125.178238 208.0
125.372047 148.0
125.588303 144.0
125.766518 156.0
126.448494 152.0
126.614166 160.0
126.679115 180.0
126.858391 160.0
127.109581 144.0
127.340813 160.0
127.700417 168.0
129.075882 152.0
129.320389 160.0
129.340759 152.0
129.393753 156.0
130.066055 276.0
130.358582 168.0
130.658569 156.0
130.772202 140.0
131.061722 340.0
131.691818 172.0
131.764908 156.0
131.850266 136.0
131.904312 200.0
131.934036 180.0
132.066818 156.0
132.462646 172.0
132.808762 188.0
133.702499 168.0
133.84407 148.0
133.891266 192.0
133.967087 196.0
134.041626 344.0
134.248474 160.0
134.733185 216.0
134.966614 208.0
134.995392 148.0
135.048172 1672.0
135.181793 168.0
135.380447 124.0
135.461548 140.0
135.614807 152.0
135.842041 156.0
136.056274 1352.0
136.901886 196.0
137.050705 172.0
137.064041 320.0
137.263077 152.0
137.45903 200.0
137.502518 200.0
138.187332 200.0
138.265518 132.0
138.529831 160.0
140.04837 360.0
140.316666 240.0
140.549377 168.0
140.72168 172.0
140.783066 144.0
141.042953 152.0
141.672394 332.0
141.792206 236.0
141.997131 200.0
142.064606 312.0
142.110992 156.0
142.845078 176.0
142.985458 144.0
143.066391 188.0
143.896042 172.0
144.103821 216.0
144.632324 164.0
144.816681 228.0
145.050385 164.0
145.069473 104.0
145.269714 156.0
145.807556 160.0
145.981186 176.0
146.057602 200.0
146.722229 164.0
147.067169 216.0
147.216858 192.0
147.269989 176.0
147.332794 204.0
147.354538 200.0
147.823624 140.0
147.927689 148.0
148.057098 560.0
148.654785 208.0
148.836578 184.0
149.04744 328.0
150.071609 296.0
150.212921 160.0
150.746567 156.0
150.856552 192.0
151.042023 128.0
151.068848 300.0
151.206329 172.0
152.046219 280.0
152.073883 160.0
152.14267 228.0
152.830826 152.0
153.315933 168.0
153.520538 168.0
153.877884 136.0
153.903015 316.0
154.065262 352.0
154.471436 168.0
154.634628 192.0
154.872421 140.0
155.061447 328.0
155.087982 424.0
155.154907 140.0
155.172272 180.0
155.271454 188.0
155.854813 172.0
155.90451 236.0
156.043793 272.0
156.079056 836.0
156.113327 156.0
156.471634 148.0
156.733154 168.0
156.807907 216.0
157.077133 156.0
157.912964 216.0
157.993988 172.0
158.044205 172.0
158.210648 124.0
158.835678 228.0
158.981186 184.0
159.054428 132.0
159.13681 156.0
159.682114 224.0
160.064957 560.0
160.490463 164.0
160.677094 164.0
160.732605 164.0
160.896652 144.0
161.004135 168.0
161.050751 396.0
161.391846 160.0
161.470245 160.0
161.619492 228.0
162.034531 580.0
162.072723 264.0
162.851532 160.0
163.040451 248.0
163.067551 1596.0
163.739777 164.0
164.053909 180.0
164.09079 304.0
164.521942 172.0
165.023804 156.0
165.081497 176.0
165.42865 132.0
165.556564 112.0
165.60228 128.0
165.659927 156.0
166.063339 108.0
166.193176 144.0
166.65535 140.0
166.749878 152.0
166.837814 224.0
166.866104 176.0
166.986954 144.0
167.046539 192.0
167.138733 180.0
167.243561 180.0
167.416748 156.0
167.481125 144.0
167.617676 192.0
168.077225 236.0
168.226334 180.0
168.699066 188.0
169.054535 156.0
169.076111 888.0
169.14917 204.0
169.328934 204.0
169.421265 108.0
169.64653 192.0
169.768387 212.0
170.076065 236.0
170.131638 156.0
170.27446 180.0
170.482285 164.0
170.916534 160.0
171.041458 168.0
171.065292 204.0
171.095566 224.0
171.335724 156.0
171.682388 164.0
171.979813 176.0
172.05687 292.0
172.091599 188.0
173.049225 124.0
173.109207 232.0
173.685791 144.0
173.719879 184.0
174.060989 856.0
174.111816 100.0
174.187134 144.0
174.505127 172.0
174.694473 144.0
174.749725 236.0
174.886566 208.0
175.069168 820.0
175.181992 184.0
175.346695 104.0
175.54892 136.0
175.687836 144.0
175.729828 172.0
175.886475 200.0
176.053024 732.0
176.074554 2180.0
176.126785 140.0
176.450851 144.0
176.490509 148.0
176.850281 144.0
177.057892 468.0
177.079865 640.0
177.287964 108.0
177.775208 144.0
178.028656 360.0
178.052551 460.0
178.394058 164.0
178.723221 188.0
179.062317 516.0
179.453629 152.0
179.554962 152.0
179.763046 148.0
179.869888 132.0
180.021988 140.0
180.04068 164.0
180.059372 140.0
180.569595 136.0
181.079956 116.0
181.099762 208.0
181.118515 216.0
181.574158 200.0
181.823654 204.0
181.925644 148.0
182.085342 304.0
182.255997 200.0
183.059769 112.0
183.093185 1048.0
183.186859 164.0
183.729141 124.0
183.761078 224.0
184.039642 188.0
184.066559 676.0
184.242508 184.0
184.360016 152.0
184.369904 144.0
184.538925 144.0
184.636261 160.0
185.069458 520.0
185.115295 156.0
185.494568 180.0
185.716629 116.0
185.944809 184.0
186.039398 184.0
186.067963 172.0
186.240753 168.0
186.382019 216.0
186.876862 152.0
187.034714 236.0
187.065887 324.0
187.121887 172.0
187.1716 168.0
187.360245 236.0
187.405075 192.0
187.522247 248.0
187.794891 140.0
188.050705 736.0
188.081375 732.0
188.149628 152.0
188.376297 176.0
188.402084 172.0
188.614578 176.0
188.747986 148.0
188.862625 104.0
188.996887 160.0
189.047272 2664.0
189.082138 2472.0
189.7117 140.0
190.054001 1124.0
190.085266 640.0
190.326263 172.0
190.790573 200.0
191.013321 180.0
191.062347 1332.0
191.097336 284.0
191.395859 144.0
191.642578 168.0
191.833908 144.0
192.010376 188.0
192.065735 112.0
192.683884 156.0
192.946442 180.0
193.062424 232.0
193.286636 148.0
193.347519 216.0
193.444382 156.0
193.639114 220.0
193.682526 168.0
193.942978 192.0
194.100998 160.0
194.150909 180.0
194.483841 148.0
195.031982 128.0
195.059891 144.0
195.093613 132.0
195.910324 216.0
196.057999 168.0
196.110962 180.0
196.138824 144.0
196.448349 152.0
197.070908 444.0
197.107941 408.0
197.160339 144.0
197.319656 220.0
197.45668 144.0
197.73645 184.0
197.910004 152.0
198.074905 424.0
198.464783 144.0
198.529282 184.0
198.697571 160.0
198.823837 224.0
199.054596 152.0
199.082199 312.0
199.264694 208.0
199.481079 148.0
199.672272 152.0
200.050735 244.0
200.072189 288.0
200.204163 176.0
200.401352 172.0
200.452057 148.0
200.479782 172.0
200.525681 96.0
200.807266 140.0
201.057419 472.0
201.079376 808.0
201.13588 172.0
201.75885 176.0
202.064301 2392.0
202.219925 144.0
202.987656 160.0
203.062531 15712.0
203.096207 820.0
203.14238 192.0
203.22876 196.0
203.312592 168.0
203.495926 144.0
203.786057 168.0
203.833557 200.0
203.895615 228.0
203.99472 136.0
204.070206 22176.0
204.138885 136.0
204.230225 128.0
204.341049 196.0
204.839676 180.0
204.933014 128.0
204.983505 192.0
205.043243 272.0
205.075607 4140.0
205.158279 144.0
205.196915 144.0
205.288162 144.0
205.536331 148.0
206.081116 492.0
206.119293 148.0
206.261719 280.0
206.336044 156.0
206.556244 152.0
206.682617 140.0
206.852615 144.0
207.04805 164.0
207.082611 160.0
207.113586 140.0
207.15451 184.0
207.369415 228.0
207.492676 192.0
207.627441 148.0
207.711349 124.0
207.833969 184.0
208.077927 236.0
208.371735 160.0
208.520294 160.0
208.599716 108.0
208.794708 152.0
208.977509 148.0
209.065491 620.0
209.853088 148.0
209.874527 188.0
210.000153 228.0
210.042679 356.0
210.07782 268.0
210.114426 124.0
210.41835 104.0
210.623596 156.0
211.080139 160.0
211.115219 160.0
211.239288 200.0
211.441833 268.0
211.806641 144.0
212.016876 140.0
212.077118 300.0
212.095566 168.0
212.194962 168.0
212.377655 144.0
212.942581 168.0
213.054779 104.0
213.100479 276.0
213.128784 184.0
214.113495 176.0
214.245667 108.0
214.856049 200.0
215.027954 352.0
215.059082 1764.0
215.100983 272.0
215.179993 152.0
215.302628 168.0
215.469116 216.0
215.670761 180.0
215.919266 236.0
216.035004 308.0
216.067459 1552.0
216.220612 192.0
216.39624 144.0
216.832611 144.0
216.892242 152.0
216.930206 256.0
216.990982 140.0
217.040421 1800.0
217.079407 4524.0
217.112946 2308.0
217.1772 120.0
217.977188 148.0
218.047272 320.0
218.086548 748.0
218.362305 168.0
218.435837 140.0
218.832336 180.0
219.027481 152.0
219.057632 132.0
219.093109 660.0
219.177734 164.0
219.338791 156.0
219.496689 96.0
219.686188 164.0
219.838486 104.0
220.099365 200.0
220.487137 128.0
220.593231 148.0
220.764969 136.0
221.0439 208.0
221.070526 320.0
221.109726 148.0
221.230362 144.0
221.555252 96.0
221.754944 120.0
222.145432 156.0
222.869156 176.0
223.084122 120.0
223.28302 136.0
223.429382 240.0
224.059311 528.0
224.091446 332.0
224.128067 292.0
224.328735 144.0
224.558319 140.0
224.767151 164.0
225.067932 392.0
225.102829 2164.0
225.161194 144.0
225.316513 156.0
225.480865 176.0
225.525696 176.0
225.950317 220.0
226.017761 96.0
226.073685 224.0
226.104416 492.0
226.267548 160.0
226.33342 188.0
226.611969 212.0
226.996704 156.0
227.099075 1000.0
227.500168 124.0
227.857056 252.0
227.932175 248.0
228.082016 392.0
228.629822 168.0
228.832169 144.0
229.008163 192.0
229.040192 320.0
229.077133 3660.0
229.449112 144.0
229.645111 156.0
229.808014 140.0
230.05455 952.0
230.082794 2176.0
230.149078 156.0
230.257095 228.0
230.531036 168.0
230.900146 124.0
231.054443 492.0
231.093018 9004.0
231.640045 160.0
231.752136 156.0
231.785461 172.0
231.818787 168.0
232.033997 168.0
232.093704 2160.0
232.131607 328.0
232.166763 112.0
232.240204 144.0
232.604309 144.0
232.817673 132.0
233.040283 164.0
233.106567 344.0
233.424194 120.0
233.59787 128.0
233.810944 144.0
233.844421 184.0
234.014893 140.0
234.057526 200.0
234.185425 188.0
234.401718 148.0
235.050491 204.0
235.093933 140.0
235.71077 148.0
236.063919 144.0
236.121155 344.0
236.187698 144.0
237.063309 356.0
237.108627 176.0
237.129913 120.0
237.36264 148.0
237.937469 224.0
238.095505 536.0
238.13533 276.0
238.604141 148.0
238.668701 160.0
238.812195 236.0
238.927048 160.0
239.080048 224.0
239.11702 284.0
239.154709 444.0
239.228638 208.0
239.998932 140.0
240.029678 160.0
240.085815 280.0
240.112076 652.0
240.391617 120.0
241.075012 244.0
241.119141 284.0
241.471848 156.0
241.496582 212.0
241.544861 216.0
241.703857 172.0
241.830734 164.0
242.086319 144.0
242.12796 144.0
242.952454 156.0
243.056747 1068.0
243.090805 904.0
243.55777 256.0
243.983932 112.0
244.062729 628.0
244.09642 372.0
244.418076 164.0
244.74263 180.0
244.777344 188.0
244.87233 208.0
245.023285 140.0
245.066711 336.0
245.109802 142280.0
245.202484 124.0
245.410751 184.0
245.525909 240.0
245.579636 180.0
245.621063 156.0
245.662918 124.0
245.683929 220.0
245.76561 192.0
245.941254 164.0
246.112122 15876.0
246.636261 136.0
247.045074 124.0
247.114792 2176.0
247.292221 100.0
247.534134 144.0
247.593765 268.0
247.668732 124.0
247.701828 96.0
247.775131 108.0
247.804367 228.0
247.843124 112.0
247.901871 112.0
247.946518 156.0
248.0354 152.0
248.068298 256.0
248.097198 140.0
248.117508 156.0
248.53949 196.0
248.688583 132.0
248.716064 228.0
248.862259 140.0
248.975037 116.0
249.058319 156.0
249.426926 116.0
249.99205 172.0
250.067581 152.0
250.121094 164.0
250.767761 128.0
250.829819 224.0
251.085205 248.0
251.118164 152.0
251.145126 216.0
251.482742 144.0
251.58374 172.0
251.706879 212.0
251.811096 188.0
252.080627 128.0
252.113922 348.0
252.207306 184.0
252.408356 172.0
253.066498 172.0
253.118332 428.0
253.125153 188.0
253.310349 180.0
253.820602 152.0
254.090195 176.0
254.133194 360.0
254.212906 108.0
254.299622 224.0
254.702866 152.0
254.756866 148.0
255.092377 128.0
255.134857 248.0
255.26857 200.0
255.370331 220.0
256.123718 172.0
256.232758 268.0
256.379547 160.0
256.484741 208.0
256.634583 152.0
257.057556 200.0
257.108795 7064.0
257.259888 160.0
257.79599 236.0
257.822021 160.0
258.067505 1700.0
258.110474 1320.0
258.749634 176.0
259.083618 376.0
259.12442 1304.0
259.203339 188.0
259.86496 204.0
260.121765 1540.0
260.151886 284.0
261.023438 160.0
261.060974 136.0
261.126587 592.0
261.861176 160.0
262.074829 272.0
262.476685 144.0
262.830017 176.0
263.247925 148.0
263.473999 148.0
263.522461 192.0
263.693726 156.0
263.813324 140.0
263.861816 180.0
264.08844 256.0
264.181976 236.0
264.232086 180.0
264.86499 292.0
265.091278 156.0
265.113342 276.0
265.143616 204.0
265.16748 156.0
265.250671 144.0
265.312164 184.0
266.094452 300.0
266.1297 660.0
266.169464 312.0
266.227173 152.0
266.864044 156.0
267.136383 700.0
267.257599 172.0
267.290131 156.0
267.550507 140.0
267.5961 148.0
267.725464 184.0
268.145691 692.0
268.528046 144.0
269.022583 172.0
269.078827 188.0
269.105408 168.0
269.143158 400.0
269.749207 140.0
270.106232 184.0
270.134369 120.0
270.878143 224.0
271.080048 288.0
271.126556 264.0
271.22876 164.0
271.327087 232.0
271.570221 196.0
272.083221 444.0
272.127625 380.0
272.182892 148.0
272.498749 140.0
272.843842 320.0
272.866852 140.0
273.081848 208.0
273.13504 696.0
273.80777 156.0
273.916626 144.0
274.059998 168.0
274.135101 728.0
274.176666 172.0
274.504242 148.0
275.089783 160.0
275.140747 956.0
275.361298 140.0
276.149323 324.0
276.336456 156.0
276.584625 164.0
277.131439 168.0
277.177429 184.0
277.306702 160.0
277.58847 172.0
277.865021 168.0
278.175995 216.0
278.600769 216.0
278.652863 136.0
278.929749 156.0
279.135895 236.0
279.781342 176.0
280.10556 120.0
280.151886 196.0
280.264282 152.0
280.388458 156.0
280.647583 144.0
281.114502 288.0
281.745605 172.0
281.842499 164.0
281.869232 164.0
282.139465 308.0
282.273682 168.0
283.029907 156.0
283.116974 164.0
283.5914 224.0
283.867615 148.0
284.1185 120.0
284.454742 140.0
284.7323 176.0
284.948395 172.0
285.045837 192.0
285.127258 4512.0
285.860626 160.0
285.933655 176.0
286.046753 112.0
286.098938 12412.0
286.17334 164.0
286.73288 120.0
287.102142 2240.0
287.139862 900.0
288.003784 144.0
288.101685 788.0
288.150879 4416.0
288.355164 140.0
289.09494 380.0
289.154236 1332.0
290.074615 152.0
290.152527 136.0
291.778748 168.0
292.108612 144.0
292.670166 144.0
292.894928 144.0
293.295685 136.0
294.119843 304.0
294.159943 464.0
294.296539 140.0
294.518524 168.0
294.815765 160.0
295.132721 116.0
295.143524 144.0
295.162842 428.0
295.520142 160.0
296.174042 848.0
296.365845 144.0
296.442749 144.0
297.180145 144.0
297.511353 144.0
297.899384 148.0
298.136292 112.0
298.182922 240.0
298.318634 148.0
298.518036 140.0
299.138489 136.0
299.702148 204.0
299.857208 168.0
300.114838 1132.0
300.148834 556.0
300.320709 172.0
300.895477 180.0
300.941284 112.0
300.978363 160.0
301.119476 800.0
301.963226 204.0
302.127686 200.0
302.170776 148.0
302.385315 168.0
302.47876 156.0
302.672638 208.0
303.12616 232.0
303.80249 180.0
303.86496 140.0
304.109772 232.0
304.271576 120.0
304.461975 188.0
304.736389 180.0
305.473389 212.0
305.650848 156.0
305.689117 164.0
306.720001 228.0
307.061676 156.0
307.543793 136.0
307.825958 168.0
307.90799 116.0
308.315002 200.0
308.339478 144.0
308.579285 172.0
308.819611 96.0
310.054321 160.0
310.25061 160.0
310.285675 148.0
310.562714 156.0
310.660919 176.0
311.16626 144.0
311.679077 184.0
312.051636 144.0
312.113892 288.0
312.151306 292.0
313.498291 148.0
314.003326 144.0
314.072968 188.0
314.131226 1152.0
314.167175 9032.0
314.269806 136.0
314.475372 152.0
314.778809 144.0
314.825806 192.0
314.905945 144.0
315.01297 156.0
315.117676 196.0
315.169556 2268.0
315.333435 172.0
315.372894 100.0
315.529144 220.0
315.58429 228.0
315.635284 252.0
315.712952 116.0
315.936035 188.0
315.965027 196.0
316.022461 324.0
316.078705 340.0
316.128174 448.0
316.18338 161656.0
316.291565 276.0
316.32901 164.0
316.421661 196.0
316.501465 116.0
316.530121 140.0
316.615173 120.0
316.6521 172.0
316.764374 472.0
316.801025 180.0
316.852997 132.0
316.928589 120.0
317.008179 204.0
317.135895 208.0
317.185455 35036.0
317.279938 196.0
317.311737 216.0
317.356598 152.0
317.381989 216.0
317.507935 100.0
317.586426 220.0
317.781555 188.0
317.909393 120.0
318.106842 308.0
318.134247 124.0
318.187592 3652.0
318.265167 128.0
318.568939 100.0
318.608368 104.0
318.898254 144.0
318.958923 128.0
319.069336 176.0
319.136505 276.0
319.194611 444.0
319.228302 148.0
319.262054 284.0
319.419708 132.0
319.463715 200.0
319.574127 112.0
319.717773 240.0
320.088043 156.0
320.149261 136.0
320.253204 184.0
320.411255 104.0
320.528625 144.0
321.102783 200.0
321.210724 184.0
321.381012 248.0
321.49231 108.0
321.593048 116.0
321.837891 140.0
322.155853 392.0
323.049438 176.0
323.229584 168.0
323.32663 152.0
323.47168 168.0
324.012421 184.0
324.05899 144.0
324.523956 180.0
324.912262 176.0
324.976868 208.0
325.098846 140.0
325.644562 196.0
326.140381 160.0
326.183502 140.0
326.78183 148.0
327.035431 184.0
327.095673 136.0
327.534546 136.0
327.967346 144.0
328.268188 120.0
329.343536 172.0
329.535004 140.0
329.795197 168.0
330.579987 152.0
331.079559 200.0
331.516205 120.0
331.775238 140.0
332.522461 212.0
332.66037 188.0
333.247681 116.0
333.464569 168.0
333.75769 128.0
334.747314 164.0
334.871735 188.0
334.918457 148.0
335.2901 156.0
335.723907 152.0
335.822388 244.0
335.878113 156.0
336.183197 156.0
337.154968 160.0
337.28653 140.0
337.593658 168.0
338.036285 168.0
338.094818 160.0
338.794159 180.0
338.914886 156.0
339.84668 148.0
340.152008 272.0
340.380829 112.0
340.890198 160.0
340.947693 100.0
341.133148 148.0
341.177795 296.0
341.288605 184.0
341.475922 116.0
341.521515 144.0
341.597137 108.0
341.621613 204.0
341.63092 212.0
341.823395 208.0
341.931488 160.0
341.979401 368.0
342.105469 104.0
342.162537 67644.0
342.408508 140.0
342.493225 148.0
342.532043 104.0
342.602631 172.0
342.766724 280.0
342.847168 216.0
342.935242 112.0
343.164917 11944.0
343.313354 204.0
343.386383 148.0
343.991577 104.0
344.166351 1416.0
344.381683 204.0
344.646271 120.0
344.753052 108.0
344.976776 280.0
345.025879 120.0
345.171173 240.0
345.429169 156.0
345.505188 132.0
345.55423 136.0
345.67453 108.0
345.875458 160.0
346.464264 144.0
346.819489 152.0
346.912659 148.0
346.983093 140.0
347.025696 164.0
347.476349 208.0
348.296753 156.0
348.597687 180.0
348.627411 184.0
350.156433 204.0
350.407166 140.0
350.743469 164.0
350.819672 180.0
351.274597 140.0
351.405182 148.0
353.119751 176.0
353.672241 188.0
354.126556 152.0
354.348236 132.0
354.635406 132.0
354.677338 180.0
355.454865 228.0
355.960388 156.0
356.264618 184.0
356.295898 188.0
356.603363 156.0
356.739655 184.0
356.847717 128.0
356.880981 220.0
356.941132 144.0
356.974396 172.0
357.019867 128.0
357.080292 280.0
357.132935 184.0
357.217468 212.0
357.291351 140.0
357.391571 160.0
357.520447 108.0
357.75946 96.0
357.79541 120.0
357.923828 204.0
358.015472 168.0
358.151459 288.0
358.223572 208.0
358.376678 112.0
358.487732 192.0
358.527191 108.0
358.572754 152.0
358.611511 252.0
358.662933 296.0
358.713898 184.0
358.749542 116.0
358.779114 120.0
358.830933 148.0
358.87915 324.0
358.922089 248.0
358.951355 132.0
359.09726 152.0
359.169586 112.0
359.257355 260.0
359.320831 308.0
359.358551 220.0
359.477875 184.0
359.545532 144.0
359.5867 164.0
359.660217 144.0
359.686737 292.0
359.756744 164.0
359.765594 300.0
359.818695 192.0
359.837341 108.0
359.852753 212.0
359.935577 228.0
359.951538 376.0
359.999603 564.0
360.009552 556.0
360.026306 272.0
360.097687 660.0
360.174896 238016.0
360.3125 272.0
360.356201 156.0
360.425079 144.0
360.524139 856.0
360.581024 352.0
360.633514 276.0
360.752075 712.0
360.797791 11728.0
360.842468 368.0
360.881714 572.0
360.941071 352.0
360.981842 192.0
361.049377 216.0
361.104858 336.0
361.177155 127772.0
361.297211 104.0
361.358551 120.0
361.421753 208.0
361.455414 408.0
361.548431 156.0
361.697357 176.0
361.742462 200.0
361.802216 476.0
361.893097 124.0
361.967224 164.0
361.99942 108.0
362.034393 108.0
362.075409 268.0
362.178223 14632.0
362.31427 224.0
362.396637 232.0
363.003998 236.0
363.066345 148.0
363.119751 240.0
363.178497 1148.0
363.220032 204.0
363.264465 328.0
363.300995 240.0
363.326355 312.0
363.386658 348.0
363.454041 316.0
363.538635 384.0
363.607788 236.0
363.673279 204.0
363.805267 124.0
363.968872 120.0
363.997498 136.0
364.25174 136.0
364.302002 136.0
364.442383 152.0
364.544983 128.0
364.576233 176.0
364.710754 140.0
364.96109 144.0
365.112152 128.0
365.206604 96.0
365.439484 124.0
365.691284 100.0
371.334595 184.0
371.418762 140.0
371.688416 120.0
372.127808 124.0
373.504669 148.0
375.027008 108.0
375.304199 132.0
375.830292 100.0
376.00769 100.0
376.632996 100.0
377.40744 148.0
377.527313 148.0
398.178131 156.0
401.192902 336.0
404.03952 100.0
413.38443 144.0
431.448425 108.0
562.822937 140.0
562.929626 108.0
583.203674 188.0
585.65271 196.0
600.64502 144.0
644.412231 156.0
707.144104 144.0
710.201172 140.0
747.868958 168.0
905.174438 156.0
1219.893799 140.0
1264.951538 160.0
1294.247925 224.0
1330.913452 200.0
1547.794556 168.0
1663.511719 196.0
1695.599609 164.0
1710.28479 152.0
1726.356323 208.0
1736.683838 160.0
1739.322388 216.0
1748.772827 204.0
1769.156738 144.0
1841.088989 148.0
1847.456665 168.0
1848.115479 140.0
1850.118164 188.0
1877.553711 168.0
1880.590576 164.0
1888.46167 152.0
1895.55188 208.0
1918.078857 180.0
1921.907349 172.0
1926.953979 192.0
1927.119995 224.0
1932.068359 204.0
1952.259521 160.0
1974.660034 140.0
1982.335449 164.0
1990.994873 124.0
1999.706299 176.0
