>compound MLS001146922-01!Ipratropium bromide monohydrate
>formula C20H30NO3
>ionization [M+H]+
>parentmass 333.22984527209053
#inchi InChI=1S/C20H30NO3/c1-14(2)21(3)16-9-10-17(21)12-18(11-16)24-20(23)19(13-22)15-7-5-4-6-8-15/h4-8,14,16-19,22H,9-13H2,1-3H3/q+1/t16-,17+,18?,19?,21?
#inchikey OEXHQOGQTVQTAT
#origInchi InChI=1S/C20H30NO3.BrH.H2O/c1-14(2)21(3)16-9-10-17(21)12-18(11-16)24-20(23)19(13-22)15-7-5-4-6-8-15;;/h4-8,14,16-19,22H,9-13H2,1-3H3;1H;1H2/q+1;;/p-1/t16-,17+,18?,19?,21?;;
#Ion_Source LC-ESI
#Instrument qTof
#Compound_Source NIH Pharmacologically Active Library
#PI Dorrestein
#Data_Collector VP/LMS
#Scan -1
#Precursor_MZ 332.221
#ExactMass 332.223
#Charge 1
#CAS_Number N/A
#Pubmed_ID N/A
#Smiles CC(C)[N+]1(C)[C@H]2CC[C@@H]1CC(C2)OC(=O)C(CO)c3ccccc3.O.[Br-]
#INCHI_AUX N/A
#Library_Class 1
#SpectrumID CCMSLIB00000085078
#IonMode Positive
#UpdateWorkflowName UPDATE-SINGLE-ANNOTATED-GOLD
#LibraryQualityString Gold
#TaskID d252d724072548979f1f6f1ced849daf
##Scan# 1320
#SpectrumFile p3-E07_GE7_01_18276.mzXML
#LibraryName Pharm_Active_Library.mgf
#MQScore -1
#Organism Pharm_Active_Library
#TIC_Query 0
#RT_Query -1
#MZErrorPPM -1
#SharedPeaks 0
#MassDiff 0
#LibMZ -1
#SpecMZ 332.221
#SpecCharge 0
#internalFilename spec-00000.mgf

>collision 10
44.947124 168.0
45.758091 144.0
45.811962 108.0
46.054783 80.0
46.242733 220.0
46.272518 120.0
46.375477 188.0
46.433781 188.0
46.5994 140.0
46.748981 124.0
46.887901 136.0
46.953342 120.0
47.221046 216.0
47.790382 204.0
48.150192 168.0
48.219276 140.0
48.306393 168.0
48.397739 208.0
48.850208 112.0
49.043259 164.0
49.430653 128.0
50.708065 184.0
50.967777 136.0
51.112823 152.0
51.192543 208.0
51.54348 132.0
51.742302 200.0
51.766644 60.0
51.993164 156.0
52.073566 192.0
52.274849 208.0
52.616474 108.0
53.134621 228.0
53.747204 108.0
54.172676 164.0
54.215172 132.0
54.639549 148.0
54.89143 164.0
55.601555 168.0
56.28339 200.0
56.301311 236.0
56.772747 152.0
56.957363 224.0
57.240124 148.0
57.298866 128.0
57.339554 76.0
57.520561 224.0
57.697319 144.0
57.768398 120.0
57.997063 148.0
58.14571 188.0
58.800175 52.0
58.852081 172.0
58.936092 60.0
59.076756 116.0
59.318722 208.0
59.884205 220.0
59.913475 128.0
60.133991 220.0
60.266804 120.0
60.345634 96.0
60.491066 204.0
60.587086 208.0
60.748318 164.0
60.891125 224.0
61.42659 140.0
61.745239 196.0
61.782784 140.0
61.903309 124.0
62.762894 156.0
62.821251 176.0
63.137165 188.0
63.614113 92.0
63.655396 200.0
63.831787 128.0
63.955887 96.0
64.421364 112.0
65.100677 188.0
65.134407 192.0
65.402954 176.0
65.549515 124.0
65.663979 200.0
65.793076 316.0
66.16655 176.0
66.35611 56.0
67.739799 144.0
67.862717 220.0
68.709778 212.0
69.26194 48.0
69.441429 168.0
69.558769 184.0
69.666718 148.0
69.681664 156.0
69.736504 152.0
69.871208 60.0
69.897827 168.0
70.062668 220.0
70.227707 216.0
70.247719 168.0
70.27108 172.0
70.349525 156.0
70.453064 144.0
70.717278 196.0
70.94175 152.0
71.020561 208.0
71.072571 168.0
71.282478 124.0
71.312729 132.0
71.351395 56.0
71.677933 64.0
71.694786 176.0
71.735237 268.0
71.883667 136.0
72.001846 160.0
72.074486 96.0
72.424698 120.0
72.487389 156.0
72.755386 160.0
72.869179 140.0
72.964355 160.0
73.074913 128.0
73.212791 84.0
73.275826 68.0
73.765633 108.0
74.171341 88.0
74.25193 188.0
74.310249 112.0
74.346291 180.0
74.753586 188.0
74.948174 140.0
75.282837 120.0
75.466011 152.0
75.724388 128.0
75.763702 228.0
76.133179 144.0
76.811996 216.0
76.84166 176.0
77.024971 172.0
77.0634 196.0
77.777946 180.0
77.932495 184.0
78.887756 168.0
79.227554 160.0
79.768829 76.0
79.79332 196.0
79.838173 180.0
79.898651 196.0
79.923561 184.0
80.051727 188.0
80.122978 44.0
80.178223 140.0
80.228249 184.0
80.59581 200.0
80.620827 124.0
80.98761 136.0
81.154282 184.0
81.263695 224.0
81.353432 144.0
81.486336 200.0
82.028046 152.0
82.221046 168.0
82.271591 136.0
82.837639 216.0
83.120102 152.0
83.514732 128.0
83.549294 124.0
83.906265 136.0
84.48156 180.0
84.673759 48.0
84.710396 40.0
85.608574 208.0
86.276535 208.0
86.642982 172.0
86.939667 92.0
87.700371 92.0
87.849556 144.0
87.899933 136.0
87.959656 236.0
89.051323 140.0
89.642082 168.0
90.202652 164.0
90.246132 184.0
90.331238 196.0
90.958488 136.0
91.052986 1796.0
91.078117 144.0
91.104713 168.0
91.12751 84.0
91.140808 204.0
92.057358 172.0
92.259628 32.0
92.328468 164.0
92.841736 76.0
93.02594 64.0
93.06881 1156.0
93.508415 156.0
93.643188 156.0
93.735664 80.0
93.961266 68.0
94.061295 228.0
94.287613 120.0
94.660988 180.0
95.085159 360.0
95.3983 72.0
95.536377 92.0
95.814781 148.0
95.953163 184.0
96.080215 1452.0
96.154083 108.0
96.372803 172.0
96.439255 64.0
96.525276 64.0
96.681778 116.0
97.081436 148.0
97.116737 160.0
97.5802 124.0
97.808411 144.0
97.912766 152.0
98.086159 136.0
98.09996 168.0
98.279434 208.0
99.832504 236.0
99.953857 136.0
100.182831 184.0
100.737427 156.0
102.088387 228.0
102.464798 132.0
102.603973 144.0
102.650238 204.0
102.922661 208.0
102.959007 176.0
103.053696 1592.0
103.114578 40.0
103.432144 192.0
104.050461 152.0
105.812035 48.0
106.199753 284.0
106.472321 148.0
106.593529 136.0
106.955513 164.0
107.05909 216.0
107.085579 168.0
107.105827 64.0
107.578064 216.0
107.640007 60.0
108.001686 32.0
108.085014 160.0
108.250046 148.0
108.745552 52.0
108.793297 124.0
108.859734 144.0
109.06958 224.0
109.09993 388.0
109.158981 216.0
109.471138 148.0
109.677406 44.0
109.904732 80.0
110.011169 140.0
110.097054 156.0
110.433281 192.0
110.671852 64.0
110.885536 96.0
113.311058 224.0
113.516663 80.0
113.888084 132.0
113.924194 44.0
114.177139 172.0
114.886467 176.0
116.105713 188.0
117.077133 240.0
117.350807 156.0
117.680931 148.0
118.028816 100.0
118.789032 152.0
118.891006 184.0
119.264587 208.0
119.362419 140.0
119.414612 184.0
119.52774 36.0
120.000412 176.0
120.054123 352.0
120.177086 132.0
121.063423 1348.0
121.709312 100.0
121.950974 68.0
122.054306 228.0
122.071892 164.0
122.094193 172.0
123.098824 160.0
123.115555 188.0
123.848038 196.0
124.01255 136.0
124.111336 15168.0
124.152229 144.0
124.187714 60.0
124.245392 32.0
124.274239 60.0
124.296425 80.0
124.313545 56.0
124.336372 40.0
124.356346 36.0
124.471794 68.0
124.487335 52.0
124.585068 44.0
124.618393 44.0
124.829567 120.0
124.851807 64.0
125.117485 1488.0
125.154449 36.0
125.30368 60.0
125.417336 100.0
126.028831 240.0
126.115509 204.0
126.194237 80.0
126.2658 104.0
126.597023 76.0
127.049553 216.0
127.888 148.0
128.189789 92.0
128.537079 52.0
129.031738 128.0
129.819733 196.0
130.005768 204.0
130.046616 172.0
130.332764 100.0
131.044952 160.0
131.104202 144.0
131.23642 156.0
131.455414 108.0
132.314865 184.0
132.676849 88.0
132.805267 152.0
132.917679 92.0
132.933746 132.0
133.01178 104.0
133.779587 196.0
134.106689 216.0
134.401886 88.0
135.046448 156.0
135.159805 92.0
136.110199 120.0
136.642487 196.0
136.949768 120.0
137.353027 196.0
138.124939 336.0
138.180038 220.0
139.004837 236.0
139.124542 164.0
140.107071 932.0
140.147644 200.0
140.447052 72.0
140.835999 108.0
141.104675 136.0
141.576828 40.0
142.100693 168.0
142.123428 932.0
142.85144 64.0
143.11705 140.0
143.201355 124.0
143.256134 176.0
143.499237 176.0
144.277573 64.0
144.413879 160.0
145.043625 152.0
146.095444 156.0
146.215759 48.0
147.494125 100.0
147.818207 220.0
148.411682 112.0
148.624207 164.0
151.901794 168.0
152.004852 56.0
152.142792 1120.0
152.486206 160.0
152.515701 208.0
153.027405 128.0
153.071716 232.0
153.144135 344.0
153.204727 180.0
153.562164 156.0
153.685501 188.0
153.774353 232.0
154.322769 52.0
154.396957 112.0
155.100143 136.0
156.40921 192.0
158.055176 20.0
158.184067 116.0
158.35434 156.0
158.559784 176.0
159.991592 48.0
160.310425 240.0
160.317017 140.0
161.412125 180.0
161.500641 196.0
161.725845 196.0
162.409973 188.0
162.757675 148.0
163.113358 168.0
163.362579 128.0
163.706192 76.0
164.024673 136.0
164.305191 160.0
164.504257 164.0
164.813293 180.0
165.015213 128.0
165.040787 188.0
165.068924 144.0
165.526978 92.0
165.596115 60.0
165.701157 144.0
165.726776 228.0
165.780594 76.0
165.81485 140.0
165.834412 196.0
165.967712 108.0
166.047211 104.0
166.075821 600.0
166.158127 22452.0
166.22467 212.0
166.257599 36.0
166.288391 48.0
166.403915 156.0
166.421997 96.0
166.532318 48.0
166.552856 80.0
166.671051 60.0
166.71521 88.0
166.838104 48.0
166.971817 56.0
167.036133 152.0
167.160721 1844.0
167.339813 64.0
167.597382 68.0
167.625732 104.0
167.713348 112.0
168.004745 92.0
168.084732 36.0
168.165085 148.0
168.208618 128.0
168.23941 108.0
168.298981 100.0
168.37645 108.0
168.407455 56.0
168.497864 76.0
168.515945 96.0
169.149567 88.0
169.377441 80.0
169.496628 68.0
169.558823 84.0
170.430771 44.0
171.60466 172.0
177.065491 120.0
177.550507 176.0
177.722931 220.0
178.557083 108.0
179.342545 152.0
181.58049 52.0
182.09581 132.0
182.146835 156.0
183.853897 200.0
184.167099 224.0
184.453522 192.0
185.167847 116.0
186.957001 168.0
186.981506 160.0
188.519669 116.0
189.072098 208.0
189.102203 184.0
190.657288 184.0
191.097275 260.0
191.367004 124.0
191.488174 92.0
193.025375 156.0
193.304764 200.0
194.017792 236.0
196.516998 116.0
198.006973 120.0
199.207504 188.0
201.042236 288.0
203.035034 128.0
205.555573 168.0
209.057495 112.0
209.152481 100.0
209.547012 44.0
211.206985 172.0
211.777206 116.0
211.950394 236.0
212.983871 152.0
213.384918 104.0
213.646667 104.0
214.135696 108.0
214.165466 164.0
214.602707 172.0
215.67337 268.0
216.428177 192.0
216.639053 164.0
225.116501 56.0
227.406845 124.0
228.371338 144.0
233.914932 112.0
235.350906 52.0
238.036407 156.0
239.029312 200.0
241.055313 252.0
241.469589 148.0
241.757309 108.0
242.649414 80.0
243.481049 136.0
243.972 80.0
244.634644 136.0
246.699844 92.0
246.815536 112.0
247.228455 140.0
248.230927 204.0
249.565475 192.0
250.478149 248.0
251.585037 176.0
252.001938 224.0
252.517227 148.0
255.467239 64.0
255.966934 188.0
256.792358 148.0
258.213654 68.0
258.597595 76.0
259.153015 148.0
260.163818 428.0
260.7883 360.0
260.949036 52.0
261.174133 176.0
261.283508 196.0
262.172241 156.0
262.710724 156.0
263.892792 100.0
264.708191 92.0
265.998627 176.0
266.105743 116.0
273.000671 76.0
273.105896 44.0
273.319763 128.0
275.000519 116.0
276.752625 100.0
277.979126 160.0
279.231598 96.0
279.28479 116.0
280.49353 196.0
281.928741 144.0
282.634338 160.0
285.559723 96.0
287.986511 120.0
288.157562 392.0
289.122528 84.0
289.159882 128.0
289.850647 156.0
290.020081 96.0
290.108215 108.0
290.172211 7124.0
290.259216 112.0
290.328613 48.0
290.399841 60.0
290.443939 56.0
290.51178 56.0
290.745911 48.0
290.936005 40.0
291.178589 1556.0
291.578003 52.0
291.628967 132.0
291.866943 164.0
292.030182 132.0
292.057404 40.0
292.094818 88.0
292.176788 304.0
292.937286 148.0
293.13327 88.0
293.576416 112.0
294.101868 76.0
294.535522 116.0
295.195129 160.0
295.414032 156.0
297.90976 132.0
298.796753 148.0
301.189209 140.0
301.797455 36.0
302.211426 300.0
302.240204 276.0
302.281738 224.0
303.216797 88.0
305.665131 152.0
305.84613 80.0
308.200195 164.0
309.266846 104.0
309.708038 128.0
311.816772 44.0
314.228943 108.0
317.862885 168.0
321.435638 208.0
322.421265 108.0
322.639313 140.0
323.315369 128.0
324.23938 144.0
324.906342 132.0
327.552216 168.0
328.402893 48.0
328.597717 72.0
329.240234 152.0
330.187134 116.0
330.241394 48.0
330.57785 76.0
330.983307 80.0
331.160736 196.0
331.186096 204.0
331.494049 100.0
331.780396 148.0
331.8638 132.0
331.965332 72.0
332.01886 152.0
332.056 112.0
332.092255 160.0
332.146667 176.0
332.220917 19080.0
332.286285 188.0
332.31488 48.0
332.361572 52.0
332.43692 80.0
332.509521 48.0
332.594421 72.0
332.640198 32.0
332.675232 116.0
332.716431 88.0
332.814453 52.0
332.847137 96.0
332.94519 96.0
333.054901 76.0
333.224274 2916.0
333.359344 40.0
333.472015 60.0
333.577423 108.0
333.733734 124.0
333.806458 32.0
333.882843 176.0
333.96286 184.0
334.071991 104.0
334.223206 464.0
334.297577 32.0
334.363098 64.0
334.417664 36.0
334.49411 104.0
334.541443 40.0
334.672516 180.0
335.054932 52.0
335.244232 156.0
335.328247 84.0
335.441254 52.0
335.539673 100.0
335.696472 64.0
335.977325 128.0
336.013824 64.0
336.198212 120.0
336.594177 136.0
337.021545 100.0
337.624725 48.0
337.997864 100.0
338.188171 132.0
339.767578 112.0
347.348755 112.0
350.121582 104.0
360.135986 60.0
367.26062 72.0
374.555176 88.0
383.424377 52.0
402.875183 116.0
409.9935 32.0
422.569855 32.0
423.830963 48.0
427.111267 96.0
482.88913 144.0
506.742523 92.0
508.765259 76.0
513.900574 52.0
550.878296 36.0
552.224487 76.0
574.855774 56.0
582.127502 52.0
611.302246 48.0
716.101624 100.0
734.573486 52.0
770.359985 116.0
803.366028 68.0
809.657227 68.0
834.463562 124.0
863.739929 168.0
874.189453 192.0
883.151428 176.0
883.464905 64.0
909.248901 144.0
911.735291 228.0
915.368896 80.0
930.266968 188.0
950.18103 224.0
966.583496 52.0
976.279602 188.0
997.43811 48.0
1011.498901 76.0
1012.322021 212.0
1015.490906 200.0
1016.918457 156.0
1023.122742 164.0
1024.83606 88.0
1037.63208 236.0
1039.691162 184.0
1042.420532 168.0
1048.972656 204.0
1054.258911 124.0
1059.791626 208.0
1075.047119 116.0
1083.049805 176.0
1085.855225 188.0
1089.39978 184.0
1094.134888 240.0
1110.026001 160.0
1113.324219 96.0
1118.503784 96.0
1118.563599 180.0
1119.735596 236.0
1121.427856 148.0
1121.8479 136.0
1122.787964 176.0
1123.088135 152.0
1152.480347 148.0
1160.779175 208.0
1169.509521 116.0
1169.740967 240.0
1169.877075 160.0
1171.668213 140.0
1178.163086 152.0
1178.251953 188.0
1185.320068 148.0
1200.147095 112.0
1200.333252 168.0
1207.612549 32.0
1219.906982 176.0
1220.511841 128.0
1221.276855 156.0
1228.821533 212.0
1229.142456 40.0
1238.636963 128.0
1251.087891 156.0
1253.905518 136.0
1261.309814 156.0
1270.317383 48.0
1273.255981 128.0
1285.158569 180.0
1288.164307 76.0
1291.91748 188.0
1292.210815 216.0
1292.683105 68.0
1292.983643 208.0
1293.842651 192.0
1296.055786 188.0
1299.712769 36.0
1300.803711 144.0
1305.387695 136.0
1307.006226 184.0
1310.347168 192.0
1312.105713 216.0
1312.617676 148.0
1315.900879 244.0
1318.617065 148.0
1319.101318 216.0
1320.272705 40.0
1323.49292 172.0
1326.463379 152.0
1328.994507 184.0
1329.502441 156.0
1338.786255 136.0
1341.059448 256.0
1341.4823 132.0
1347.225586 60.0
1351.290649 188.0
1355.991943 100.0
1357.34082 220.0
1358.998657 168.0
1359.174683 188.0
1363.750122 124.0
1371.191406 116.0
1371.368286 176.0
1382.690918 204.0
1383.394043 160.0
1386.720093 188.0
1397.101196 168.0
1398.946899 188.0
1401.605835 168.0
1406.498291 204.0
1406.617798 40.0
1408.66394 156.0
1413.23938 156.0
1414.406982 184.0
1416.136597 168.0
1416.473755 132.0
1416.975586 240.0
1422.059937 196.0
1422.315186 156.0
1423.636597 160.0
1425.702637 172.0
1428.093506 220.0
1428.815674 132.0
1430.019653 268.0
1432.075195 196.0
1433.582031 152.0
1434.463867 64.0
1434.803223 196.0
1436.94519 192.0
1440.56897 168.0
1441.188477 248.0
1443.48645 208.0
1445.150635 156.0
1445.324707 56.0
1446.285767 124.0
1450.376221 160.0
1455.315063 132.0
1456.54541 244.0
1457.662231 216.0
1457.730591 164.0
1464.32666 172.0
1473.473022 164.0
1474.573486 164.0
1475.827271 184.0
1476.706665 172.0
1478.573486 184.0
1480.755615 60.0
1482.356689 180.0
1482.47937 180.0
1486.875366 172.0
1489.599609 204.0
1490.444824 140.0
1493.304688 164.0
1500.342896 56.0
1500.98291 184.0
1503.713989 160.0
1503.767944 120.0
1505.227051 196.0
