>compound MLS000859929-01!1,7-Dimethylxanthine
>formula C7H8N4O2
>ionization [M+H]+
>parentmass 181.072
#inchi InChI=1S/C7H8N4O2/c1-10-3-8-5-4(10)6(12)11(2)7(13)9-5/h3H,1-2H3,(H,9,13)
#inchikey QUNWUDVFRNGTCO
#Ion_Source LC-ESI
#Instrument qTof
#Compound_Source NIH Pharmacologically Active Library
#PI Dorrestein
#Data_Collector VP/LMS
#Scan -1
#Precursor_MZ 181.072
#ExactMass 180.065
#Charge 1
#CAS_Number N/A
#Pubmed_ID N/A
#Smiles Cn1cnc2[nH]c(=O)n(C)c(=O)c12
#INCHI_AUX N/A
#Library_Class 1
#SpectrumID CCMSLIB00000084951
#IonMode Positive
#UpdateWorkflowName UPDATE-SINGLE-ANNOTATED-GOLD
#LibraryQualityString Gold
#TaskID d252d724072548979f1f6f1ced849daf
##Scan# 1146
#SpectrumFile p3-D02_GD2_01_18259.mzXML
#LibraryName Pharm_Active_Library.mgf
#MQScore -1
#Organism Pharm_Active_Library
#TIC_Query 0
#RT_Query -1
#MZErrorPPM -1
#SharedPeaks 0
#MassDiff 0
#LibMZ -1
#SpecMZ 181.072
#SpecCharge 0
#internalFilename spec-00000.mgf

>collision 10
52.980328 168.0
69.740448 176.0
74.776497 112.0
90.700768 140.0
91.828316 204.0
97.968048 108.0
115.966133 96.0
120.05899 144.0
124.050056 3652.0
124.08532 152.0
124.589111 72.0
125.050919 216.0
125.863113 172.0
137.908081 164.0
141.829575 176.0
142.066696 180.0
149.039429 200.0
151.200043 28.0
163.062225 228.0
180.240265 160.0
181.078003 312.0
506.292816 124.0
1144.712036 76.0
1222.808716 172.0
1321.610229 156.0
1370.644287 136.0
1374.973145 184.0
1379.050049 148.0
1402.013428 148.0
1410.223145 116.0
1412.002563 176.0
1426.864868 188.0
