>compound MLS001401373-01!Granisetron??Hydrochloride
>formula C18H24N4O
>ionization [M+H]+
>parentmass 313.2022878400905
#inchi InChI=1S/C18H24N4O/c1-21-13-6-5-7-14(21)11-12(10-13)19-18(23)17-15-8-3-4-9-16(15)22(2)20-17/h3-4,8-9,12-14H,5-7,10-11H2,1-2H3,(H,19,23)/t12-,13+,14-
#inchikey MFWNKCLOYSRHCJ
#origInchi InChI=1S/C18H24N4O.ClH/c1-21-13-6-5-7-14(21)11-12(10-13)19-18(23)17-15-8-3-4-9-16(15)22(2)20-17;/h3-4,8-9,12-14H,5-7,10-11H2,1-2H3,(H,19,23);1H/t12-,13+,14-;
#Ion_Source LC-ESI
#Instrument qTof
#Compound_Source NIH Pharmacologically Active Library
#PI Dorrestein
#Data_Collector VP/LMS
#Scan -1
#Precursor_MZ 313.201
#ExactMass 312.195
#Charge 1
#CAS_Number N/A
#Pubmed_ID N/A
#Smiles CN1[C@H]2CCC[C@@H]1C[C@@H](C2)NC(=O)c3nn(C)c4ccccc34.Cl
#INCHI_AUX N/A
#Library_Class 1
#SpectrumID CCMSLIB00000085243
#IonMode Positive
#UpdateWorkflowName UPDATE-SINGLE-ANNOTATED-GOLD
#LibraryQualityString Gold
#TaskID d252d724072548979f1f6f1ced849daf
##Scan# 1421
#SpectrumFile p3-G05_GG5_01_18298.mzXML
#LibraryName Pharm_Active_Library.mgf
#MQScore -1
#Organism Pharm_Active_Library
#TIC_Query 0
#RT_Query -1
#MZErrorPPM -1
#SharedPeaks 0
#MassDiff 0
#LibMZ -1
#SpecMZ 313.201
#SpecCharge 0
#internalFilename spec-00000.mgf

>collision 10
44.903473 180.0
45.007568 192.0
45.11179 168.0
45.188026 124.0
45.295132 172.0
45.390293 136.0
45.415779 192.0
45.685802 152.0
45.781376 160.0
45.841999 196.0
45.882439 52.0
45.937737 180.0
46.047077 92.0
46.059235 228.0
46.079498 176.0
46.161957 140.0
46.23214 140.0
46.271564 152.0
46.48167 192.0
46.557697 180.0
46.662334 68.0
46.74123 164.0
46.776619 44.0
46.807938 196.0
46.960583 148.0
47.011066 176.0
47.106647 124.0
47.642326 44.0
47.658813 132.0
47.707298 116.0
48.022274 216.0
48.229401 32.0
48.364967 152.0
48.423122 180.0
48.558956 204.0
48.692207 108.0
48.717209 120.0
48.761677 208.0
48.85902 204.0
48.884068 164.0
49.28849 108.0
49.336014 72.0
49.651089 188.0
49.731064 200.0
49.801273 224.0
50.27013 236.0
50.339306 108.0
50.354839 96.0
50.398418 180.0
50.422661 140.0
50.685898 168.0
51.346989 144.0
51.641228 160.0
51.709911 160.0
51.947784 124.0
52.154575 164.0
52.2682 52.0
52.358898 72.0
52.417965 164.0
52.449677 88.0
52.609806 84.0
52.894608 184.0
53.039471 144.0
53.329792 224.0
53.345783 52.0
53.405403 140.0
53.51601 160.0
53.876278 128.0
53.940582 48.0
54.231888 168.0
54.261208 100.0
55.253937 180.0
55.461273 52.0
55.670479 216.0
55.828014 104.0
55.999176 128.0
56.060265 140.0
56.07666 28.0
56.762905 124.0
56.91597 104.0
56.961029 188.0
57.144451 160.0
57.371883 224.0
57.394501 152.0
57.608829 56.0
57.787235 132.0
57.808422 164.0
57.918953 184.0
57.962891 140.0
58.150951 136.0
58.198017 204.0
58.576729 224.0
58.607201 172.0
58.631584 188.0
58.865005 28.0
59.155521 172.0
59.282803 208.0
59.480522 172.0
59.500477 92.0
59.732544 56.0
59.754086 100.0
59.814106 176.0
59.854137 168.0
60.252098 184.0
60.38195 112.0
60.477882 144.0
60.533623 132.0
60.708744 68.0
60.761486 136.0
60.778553 160.0
60.82201 164.0
61.027092 96.0
61.171787 156.0
61.191525 224.0
61.30574 156.0
61.439846 164.0
61.460129 88.0
62.088089 220.0
62.120399 140.0
62.547848 144.0
62.670696 204.0
63.063667 88.0
63.093704 216.0
63.194931 132.0
63.220253 124.0
63.23608 184.0
63.472141 124.0
63.52607 216.0
63.756313 228.0
63.883522 160.0
64.068199 232.0
64.128754 128.0
64.380852 180.0
64.899345 172.0
65.4328 220.0
65.755219 148.0
65.903793 184.0
66.120499 156.0
66.143158 128.0
66.301895 120.0
66.31324 72.0
66.345665 156.0
66.564713 180.0
66.642685 180.0
66.709328 204.0
66.87851 160.0
66.961548 200.0
67.056053 180.0
67.095177 104.0
67.20446 88.0
67.380798 204.0
67.398773 116.0
67.580284 184.0
67.685043 244.0
67.771866 216.0
68.389381 112.0
68.407486 52.0
68.636513 160.0
68.8461 184.0
69.218193 132.0
70.222031 68.0
70.897507 152.0
70.968178 228.0
71.049385 176.0
71.083664 96.0
71.113869 92.0
71.276779 188.0
71.301987 176.0
71.419693 184.0
71.451653 184.0
71.478577 164.0
71.620003 156.0
71.925217 136.0
72.062019 164.0
72.202332 180.0
72.386803 208.0
72.429146 68.0
72.496918 168.0
72.676674 132.0
72.943329 176.0
73.036858 172.0
73.053864 84.0
73.590744 168.0
73.662476 148.0
74.098747 120.0
74.486481 40.0
74.510529 280.0
74.587868 152.0
74.620529 148.0
74.727173 152.0
75.23217 328.0
75.697296 204.0
75.737129 44.0
75.913925 88.0
76.445526 56.0
76.687622 52.0
77.085548 120.0
77.195686 148.0
77.622993 208.0
78.037407 196.0
78.18869 148.0
78.276718 156.0
78.449394 232.0
78.5411 164.0
78.627556 160.0
78.6558 84.0
78.689339 172.0
79.131378 156.0
79.147308 212.0
79.216385 184.0
79.31208 128.0
79.434441 192.0
79.587074 228.0
80.314995 160.0
80.348892 132.0
81.006805 104.0
81.110748 100.0
81.148399 36.0
81.259605 96.0
81.367294 152.0
81.579254 172.0
81.802368 64.0
81.845581 156.0
81.859993 132.0
82.101486 156.0
82.495277 232.0
82.542137 176.0
82.978523 128.0
83.159943 172.0
83.190796 176.0
83.247086 172.0
83.370628 100.0
83.419701 176.0
83.432426 136.0
83.730865 108.0
83.876633 144.0
84.000641 180.0
84.14299 172.0
84.309219 156.0
84.572601 48.0
84.611046 124.0
84.927933 240.0
84.986794 140.0
85.587883 180.0
85.65419 204.0
85.681824 84.0
86.013779 192.0
86.122726 176.0
86.137505 168.0
86.168915 36.0
86.700012 200.0
87.234596 116.0
87.266205 184.0
87.51181 164.0
87.545334 216.0
87.653381 40.0
87.877708 172.0
87.892075 96.0
88.019012 136.0
88.198372 176.0
88.398499 172.0
88.525803 200.0
88.855713 228.0
88.895119 132.0
88.913887 184.0
89.043434 252.0
89.361137 136.0
89.425125 268.0
89.530563 176.0
89.798203 184.0
89.811401 132.0
89.851021 144.0
89.930283 116.0
89.956711 220.0
90.041679 112.0
90.385757 208.0
90.599716 152.0
90.624344 160.0
90.703949 120.0
90.760826 56.0
90.967636 160.0
91.053085 292.0
91.073975 172.0
91.454277 152.0
91.515198 36.0
91.743835 172.0
91.976578 188.0
92.058807 192.0
92.783897 156.0
92.80307 156.0
92.849098 72.0
92.933502 48.0
93.186958 164.0
93.406136 208.0
93.523514 156.0
93.608231 140.0
93.881889 168.0
94.061821 212.0
94.125046 220.0
94.4188 92.0
95.011559 168.0
95.069771 208.0
95.563354 148.0
95.810631 148.0
95.904167 116.0
95.978256 160.0
96.080002 2840.0
96.661964 112.0
96.691322 172.0
96.981209 164.0
97.086479 1416.0
97.138084 132.0
97.261711 44.0
97.357925 108.0
97.509209 80.0
97.668472 64.0
97.751106 128.0
97.7826 192.0
97.84362 160.0
98.089699 416.0
98.520103 232.0
98.579491 148.0
98.617348 152.0
98.757324 172.0
99.175125 184.0
99.591827 176.0
99.686203 20.0
99.925812 184.0
100.625412 224.0
100.855156 208.0
100.907135 32.0
100.989128 116.0
101.135201 232.0
101.385567 124.0
101.594109 172.0
101.620186 200.0
101.897675 180.0
101.981674 188.0
102.054054 144.0
102.874077 120.0
103.074036 224.0
103.239807 116.0
103.338928 164.0
103.496811 100.0
103.648735 140.0
103.666977 96.0
104.028381 204.0
104.047081 612.0
104.188461 220.0
104.308365 264.0
104.422234 96.0
104.904839 52.0
105.027199 176.0
105.050583 124.0
105.070206 532.0
105.121048 48.0
105.654358 152.0
105.900017 184.0
106.07637 192.0
106.201324 96.0
106.400391 188.0
106.437347 212.0
106.897827 88.0
106.986336 216.0
107.043991 104.0
107.084801 960.0
107.110489 208.0
107.309807 88.0
107.460381 196.0
107.619316 136.0
107.765968 164.0
107.825897 192.0
107.945808 180.0
107.962357 48.0
108.016129 164.0
108.045151 1620.0
108.077484 248.0
108.386742 124.0
108.641769 124.0
108.895027 40.0
109.046349 188.0
109.057449 188.0
109.099403 628.0
109.171448 116.0
109.327484 168.0
109.583618 80.0
109.602371 132.0
109.844223 148.0
109.954811 184.0
110.025787 160.0
110.046669 136.0
110.095863 1236.0
110.442047 108.0
110.539993 184.0
110.638367 136.0
111.097046 196.0
111.135117 196.0
111.231659 168.0
111.637177 56.0
111.704483 100.0
111.917061 128.0
111.984451 128.0
112.051567 192.0
112.08979 136.0
112.110985 2404.0
112.138268 40.0
112.171989 64.0
112.218376 188.0
112.302727 72.0
112.425102 176.0
112.560211 108.0
112.744011 80.0
112.773598 152.0
112.841248 132.0
112.879311 136.0
113.037971 264.0
113.116219 556.0
113.294174 76.0
113.733147 148.0
113.875412 72.0
114.01564 72.0
114.039024 144.0
114.05603 100.0
114.124062 200.0
114.170845 212.0
114.198494 152.0
114.398521 48.0
114.801468 112.0
114.912163 172.0
115.127762 156.0
115.395767 196.0
115.64518 188.0
115.818619 40.0
115.885033 156.0
115.965759 144.0
116.047935 164.0
116.24099 140.0
116.324699 120.0
116.801765 128.0
116.857704 132.0
116.963158 164.0
117.023438 144.0
117.098816 164.0
117.271187 156.0
117.590408 224.0
117.892784 176.0
118.37088 60.0
118.539444 84.0
118.865143 176.0
119.3974 120.0
119.754349 168.0
119.813171 152.0
120.002792 192.0
120.103111 148.0
120.223114 176.0
120.408691 204.0
121.322792 132.0
121.577827 172.0
121.771034 192.0
121.891869 128.0
122.038887 168.0
122.26133 204.0
122.311958 156.0
122.371399 208.0
122.9291 152.0
123.021805 208.0
123.039467 136.0
123.36644 160.0
123.423927 148.0
123.649582 48.0
124.015045 144.0
124.190216 120.0
124.301147 148.0
124.37439 224.0
124.729805 176.0
124.747589 164.0
124.854324 152.0
125.030083 204.0
125.124184 132.0
125.152527 220.0
125.457771 420.0
125.602722 152.0
126.011276 236.0
126.071609 408.0
126.174072 220.0
126.937614 240.0
127.212135 196.0
127.413849 80.0
128.260025 212.0
128.356979 120.0
128.632233 152.0
128.75351 164.0
128.844528 156.0
128.980118 20.0
129.046326 352.0
129.154236 168.0
129.235687 228.0
129.267365 192.0
129.622894 128.0
129.661423 124.0
129.795181 188.0
129.820129 164.0
130.071976 200.0
130.185516 100.0
130.201401 196.0
130.262741 132.0
130.351349 220.0
130.521835 204.0
130.565048 180.0
130.722031 204.0
131.058319 160.0
131.357727 224.0
131.508331 220.0
131.556274 156.0
131.60878 200.0
131.805222 144.0
131.958374 148.0
132.061279 148.0
132.077301 136.0
132.512283 212.0
132.936493 148.0
133.071976 532.0
133.170685 168.0
133.410156 220.0
133.620392 192.0
133.701797 188.0
133.96199 140.0
134.074203 184.0
134.656326 196.0
135.072388 164.0
135.259827 216.0
135.391815 88.0
135.81366 144.0
136.045715 152.0
136.109894 368.0
136.192017 136.0
136.387207 160.0
136.563919 144.0
136.687225 172.0
137.211319 184.0
137.229965 192.0
137.248627 172.0
137.485062 212.0
137.558929 176.0
137.600952 112.0
137.645325 172.0
137.68158 160.0
137.876602 156.0
137.979462 228.0
138.018921 224.0
138.05896 156.0
138.126923 44400.0
138.178268 76.0
138.206345 76.0
138.270691 168.0
138.302292 44.0
138.335419 68.0
138.367508 108.0
138.412338 184.0
138.445114 68.0
138.479416 192.0
138.510941 88.0
138.557556 120.0
138.59433 108.0
138.634888 40.0
138.665344 64.0
138.684097 32.0
138.75209 88.0
139.035919 224.0
139.103989 128.0
139.1297 2968.0
139.176071 92.0
139.284821 60.0
139.305954 160.0
139.592712 108.0
139.715027 48.0
139.747971 152.0
139.787964 184.0
139.823273 68.0
139.842102 60.0
139.867996 108.0
139.89389 44.0
139.940094 96.0
140.006912 52.0
140.044556 1200.0
140.134262 380.0
140.188324 96.0
140.205872 124.0
140.251953 92.0
140.275528 108.0
140.294388 48.0
140.315613 68.0
140.339188 40.0
140.428802 52.0
140.464188 32.0
141.052338 348.0
141.281586 120.0
141.378601 144.0
141.797806 56.0
141.947159 32.0
141.980362 224.0
142.06102 56.0
142.388596 116.0
142.730804 76.0
143.049637 168.0
143.140106 224.0
143.530914 68.0
143.657333 52.0
144.306961 100.0
144.506226 160.0
144.711319 124.0
145.043579 188.0
145.075043 124.0
145.228973 144.0
145.408936 72.0
145.581787 220.0
146.064911 76.0
146.307968 144.0
146.558472 132.0
147.627869 196.0
148.17009 144.0
148.310654 44.0
148.905121 148.0
149.929413 156.0
150.20076 168.0
150.595505 176.0
151.204315 104.0
151.814362 160.0
151.988541 160.0
152.54361 152.0
152.986435 224.0
153.254898 172.0
153.392914 256.0
153.548264 148.0
153.792526 132.0
154.059525 1020.0
154.139145 164.0
154.462189 68.0
154.489395 48.0
155.06636 168.0
155.917679 200.0
156.010147 628.0
156.036972 156.0
156.079483 256.0
156.385284 208.0
156.621841 208.0
157.078476 176.0
157.539856 148.0
157.947342 124.0
157.999542 212.0
158.024887 200.0
158.069504 408.0
158.360352 84.0
158.575836 224.0
158.783936 216.0
158.814041 128.0
158.861694 64.0
158.929062 132.0
158.949509 196.0
159.020386 208.0
159.054611 41988.0
159.121017 160.0
159.178787 164.0
159.21312 116.0
159.238235 52.0
159.282425 96.0
159.331177 28.0
159.377106 156.0
159.426666 80.0
159.492172 120.0
159.517151 52.0
159.616379 148.0
159.651611 84.0
159.678085 52.0
159.795334 92.0
159.845596 68.0
159.909561 44.0
160.056229 3064.0
160.143723 52.0
160.337723 36.0
160.473862 64.0
160.496552 48.0
160.570312 80.0
160.643417 52.0
160.66806 40.0
160.703384 36.0
160.733673 96.0
160.751328 76.0
160.892685 156.0
160.96843 132.0
161.06076 168.0
161.117462 64.0
161.13768 136.0
161.165466 180.0
161.210953 92.0
161.231171 92.0
161.262177 136.0
161.282562 96.0
161.323318 88.0
161.344925 120.0
161.377792 88.0
161.430893 172.0
161.949738 64.0
162.21582 48.0
162.30455 168.0
162.69783 84.0
162.740997 56.0
165.451324 32.0
165.999664 80.0
167.235458 44.0
168.194351 72.0
169.109406 68.0
171.095291 68.0
171.616394 184.0
172.430893 64.0
172.736832 64.0
174.909653 116.0
176.08017 1396.0
176.212463 40.0
177.064133 492.0
177.101364 80.0
177.318634 36.0
177.395493 176.0
177.414062 84.0
178.065323 316.0
178.1306 136.0
179.541321 108.0
180.697998 40.0
181.130737 272.0
181.734924 196.0
182.13765 192.0
184.074158 200.0
186.980438 204.0
188.082291 196.0
190.079575 104.0
191.093521 40.0
191.707596 152.0
194.376251 136.0
195.090073 196.0
197.085709 96.0
199.0634 180.0
199.982758 148.0
200.086914 128.0
200.208008 120.0
200.326309 52.0
201.075378 328.0
202.087921 316.0
202.093842 160.0
203.106522 216.0
206.958359 184.0
209.72789 152.0
209.782669 92.0
214.56929 144.0
214.942657 212.0
215.88623 196.0
216.073441 180.0
216.333923 172.0
216.875854 124.0
217.078156 204.0
218.099884 88.0
219.244843 68.0
219.445297 216.0
219.837631 72.0
220.443024 20.0
221.167648 136.0
223.9142 196.0
224.116776 124.0
225.36702 56.0
227.331436 108.0
228.981995 64.0
229.503357 164.0
229.844208 156.0
230.073608 172.0
236.931992 36.0
237.13118 236.0
239.143036 200.0
239.725128 128.0
240.113586 316.0
241.030487 92.0
241.123199 108.0
243.968826 148.0
245.093872 208.0
245.142303 152.0
245.628693 132.0
245.828384 112.0
247.034454 96.0
247.278137 160.0
250.944656 100.0
252.960327 52.0
254.139328 120.0
255.162079 132.0
256.164581 144.0
260.058044 356.0
261.399628 188.0
263.166107 108.0
264.148132 220.0
264.303894 120.0
264.821899 96.0
265.950287 40.0
268.109955 128.0
281.177979 176.0
281.87262 136.0
282.156006 1244.0
283.164886 324.0
283.676666 92.0
285.29483 208.0
285.785889 152.0
289.668518 108.0
291.993652 152.0
293.342072 100.0
295.18924 148.0
295.538177 52.0
299.85495 116.0
303.401642 212.0
303.731079 96.0
304.11972 112.0
304.407898 192.0
311.095428 200.0
312.057129 108.0
312.77298 276.0
312.983276 208.0
313.199677 11220.0
313.285431 76.0
313.366455 76.0
313.581421 64.0
313.669556 96.0
313.697754 40.0
313.796478 132.0
313.881104 40.0
313.94809 72.0
313.983368 28.0
314.022156 48.0
314.046844 84.0
314.202515 1796.0
314.353821 108.0
314.985809 92.0
315.209869 132.0
315.525116 80.0
315.844818 60.0
316.173859 64.0
316.517242 140.0
316.666016 152.0
317.360596 60.0
317.725922 44.0
319.470306 44.0
323.990112 80.0
326.628723 40.0
329.657379 120.0
358.757202 112.0
359.292725 48.0
373.545441 36.0
376.602264 56.0
380.129333 80.0
385.581665 60.0
386.222931 36.0
387.393402 76.0
389.056213 80.0
395.505615 108.0
408.177338 44.0
430.040741 108.0
434.198975 116.0
458.106049 52.0
459.901337 56.0
501.496216 84.0
502.973755 96.0
515.505127 160.0
540.303772 160.0
569.445251 32.0
578.112976 56.0
588.028076 88.0
663.92157 136.0
691.821106 48.0
704.643555 192.0
742.536743 104.0
756.913513 116.0
761.218323 172.0
764.516785 48.0
767.315125 68.0
767.563232 60.0
782.11792 64.0
808.815979 216.0
829.873047 104.0
836.445557 220.0
842.385315 232.0
854.223083 160.0
871.729126 228.0
875.559082 176.0
879.533142 164.0
885.315674 80.0
892.109741 136.0
899.28186 148.0
908.473328 140.0
920.215637 212.0
921.852661 104.0
933.705078 272.0
945.847534 176.0
949.076294 124.0
950.708069 196.0
950.959717 180.0
951.518311 60.0
955.765625 68.0
957.470886 224.0
960.546631 164.0
972.942505 188.0
978.66272 96.0
980.78717 180.0
984.512085 128.0
985.507874 168.0
999.362793 188.0
999.885132 72.0
1000.117981 76.0
1001.616699 144.0
1002.164795 60.0
1002.996704 108.0
1008.785461 112.0
1014.565552 172.0
1016.582642 224.0
1019.29425 152.0
1031.212158 196.0
1033.469604 188.0
1036.389526 156.0
1041.714722 40.0
1053.697998 216.0
1061.847412 204.0
1065.431396 96.0
1068.643188 164.0
1072.374756 40.0
1074.435425 164.0
1074.905273 272.0
1077.778564 180.0
1081.571777 148.0
1088.153931 192.0
1089.053589 180.0
1090.880371 164.0
1091.366943 176.0
1093.682739 196.0
1095.908691 184.0
1095.954834 168.0
1099.34436 180.0
1099.911987 156.0
1101.417603 216.0
1102.87793 212.0
1104.7229 176.0
1107.198486 172.0
1109.710083 212.0
1110.817627 160.0
1111.673584 116.0
1115.718872 112.0
1116.024658 176.0
1120.830688 168.0
1120.950562 224.0
1126.087769 132.0
1129.904907 200.0
1132.127197 228.0
1135.142944 184.0
1137.323486 96.0
1145.190674 188.0
1148.716187 184.0
1153.03772 204.0
1153.517578 204.0
1155.289429 164.0
1157.015259 212.0
1157.299561 216.0
1159.359009 136.0
1166.785156 144.0
1172.557739 184.0
1173.437134 228.0
1180.846558 212.0
1180.99707 136.0
1181.126953 136.0
1182.313477 180.0
1182.41333 164.0
1184.296265 44.0
1185.981934 176.0
1188.334229 180.0
1190.22876 152.0
1194.13916 60.0
1202.345093 40.0
1202.614258 76.0
1203.159668 244.0
1205.307739 152.0
1208.931396 64.0
1216.111816 128.0
1218.521606 160.0
1221.594482 84.0
1225.110229 156.0
1225.25647 180.0
1229.44043 164.0
1230.644043 192.0
1232.988281 180.0
1237.178345 116.0
1241.9646 148.0
1248.046631 44.0
1249.199341 184.0
1250.593384 132.0
1251.726929 200.0
1252.191772 176.0
1253.798096 172.0
1254.883789 140.0
1255.7229 116.0
1257.169312 60.0
1259.513428 240.0
1270.500366 124.0
1270.862305 76.0
1272.047485 156.0
1273.723389 160.0
1276.410034 192.0
1277.007446 212.0
1277.377319 164.0
1277.989136 124.0
1279.206177 164.0
1281.143311 184.0
1281.634888 188.0
1282.418823 160.0
1282.846558 212.0
1284.743652 140.0
1285.135986 216.0
1285.970947 260.0
1287.406128 156.0
1289.106323 184.0
1289.956909 140.0
1291.122437 252.0
1291.329834 44.0
1292.045166 224.0
1293.068481 100.0
1293.677002 52.0
1295.173584 120.0
1297.975952 204.0
1301.800903 164.0
1302.986084 192.0
1304.056885 144.0
1313.00647 228.0
1313.085815 104.0
1313.4104 128.0
1315.755859 240.0
1316.586304 204.0
1317.655396 152.0
1322.934937 116.0
1328.32666 184.0
1329.516724 128.0
1329.727173 56.0
1332.276001 168.0
1333.431396 44.0
1334.369141 164.0
1336.776855 208.0
1339.638428 104.0
1339.696655 136.0
1340.818848 48.0
1342.072754 192.0
1344.217407 196.0
1345.224609 164.0
1345.370605 152.0
1345.691895 260.0
1346.166504 200.0
1346.663208 144.0
1353.281616 136.0
1353.442627 196.0
1354.900269 76.0
1357.436401 228.0
1361.13501 148.0
1361.450684 156.0
1365.772583 208.0
1366.074219 240.0
1368.340942 212.0
1368.745972 244.0
1370.838013 200.0
1373.389038 208.0
1374.362915 104.0
1376.924683 196.0
1379.518311 284.0
1379.836182 192.0
1379.887939 76.0
1382.808716 188.0
1384.179688 180.0
1385.312866 96.0
1386.965454 228.0
1395.094238 188.0
1396.001343 160.0
1397.006958 100.0
1403.060303 172.0
1404.499634 136.0
1406.096436 164.0
1409.569214 204.0
1410.413696 188.0
1410.884644 136.0
1412.230713 176.0
1413.547485 176.0
1413.712158 208.0
1418.363403 172.0
1418.445923 120.0
1418.933228 120.0
1420.373169 88.0
1421.51355 160.0
1421.993896 268.0
1422.526855 252.0
1424.509399 136.0
1425.027832 124.0
1434.518433 160.0
1441.318848 100.0
1442.029175 88.0
1444.532104 156.0
1445.863892 204.0
1446.431519 164.0
1447.317383 160.0
1449.233765 36.0
1453.2146 168.0
1453.874756 196.0
1454.064575 128.0
1457.64917 160.0
1458.637207 144.0
1459.914673 152.0
1461.063232 176.0
1461.337158 264.0
1461.763306 148.0
1462.402588 156.0
1462.630981 156.0
1465.342163 184.0
1465.494507 164.0
1467.522095 224.0
1467.949097 184.0
1468.98645 160.0
1470.306519 172.0
1471.703491 152.0
1475.088135 184.0
1475.393921 152.0
1475.546875 144.0
1476.196777 120.0
1477.917969 160.0
1478.599121 156.0
1480.107178 200.0
1485.134888 192.0
1486.431396 172.0
1487.375488 172.0
1488.945312 216.0
1490.578247 164.0
1490.63208 228.0
1490.816528 56.0
1492.269287 124.0
1494.007568 188.0
1495.123291 212.0
1495.777588 132.0
1503.562622 68.0
