>compound MLS002222320-01!60762-57-4
>formula C15H18N2
>ionization [M+H]+
>parentmass 227.153091
#inchi InChI=1S/C15H18N2/c1-10-5-6-14-12(9-10)11-3-2-4-13-15(11)17(14)8-7-16-13/h5-6,9,13,16H,2-4,7-8H2,1H3
#inchikey IWVRVEIKCBFZNF
#origInchi InChI=1S/C15H18N2.CH4O3S/c1-10-5-6-14-12(9-10)11-3-2-4-13-15(11)17(14)8-7-16-13;1-5(2,3)4/h5-6,9,13,16H,2-4,7-8H2,1H3;1H3,(H,2,3,4)
#Ion_Source LC-ESI
#Instrument qTof
#Compound_Source NIH Pharmacologically Active Library
#PI Dorrestein
#Data_Collector VP/LMS
#Scan -1
#Precursor_MZ 227.157
#ExactMass 226.147
#Charge 1
#CAS_Number N/A
#Pubmed_ID N/A
#Smiles Cc1ccc2n3CCNC4CCCc(c43)c2c1.CS(=O)(=O)O
#INCHI_AUX N/A
#Library_Class 1
#SpectrumID CCMSLIB00000085767
#IonMode Positive
#UpdateWorkflowName UPDATE-SINGLE-ANNOTATED-GOLD
#LibraryQualityString Gold
#TaskID d252d724072548979f1f6f1ced849daf
##Scan# 1564
#SpectrumFile p4-F03_GF3_01_18387.mzXML
#LibraryName Pharm_Active_Library.mgf
#MQScore -1
#Organism Pharm_Active_Library
#TIC_Query 0
#RT_Query -1
#MZErrorPPM -1
#SharedPeaks 0
#MassDiff 0
#LibMZ -1
#SpecMZ 227.157
#SpecCharge 0
#internalFilename spec-00000.mgf

>collision 10
44.900532 324.0
44.91201 96.0
44.942692 96.0
44.959419 156.0
44.970718 164.0
44.993412 180.0
45.002136 120.0
45.033474 180.0
45.055515 224.0
45.10162 44.0
45.112312 156.0
45.141975 108.0
45.157574 144.0
45.1749 60.0
45.201546 196.0
45.231373 128.0
45.244022 132.0
45.256332 124.0
45.295647 200.0
45.309044 184.0
45.323784 160.0
45.334297 52.0
45.35857 180.0
45.379124 152.0
45.397511 124.0
45.413605 184.0
45.424339 288.0
45.444462 128.0
45.468933 220.0
45.490093 132.0
45.518288 124.0
45.542126 188.0
45.577393 112.0
45.600731 152.0
45.612335 212.0
45.639225 56.0
45.659397 160.0
45.674194 172.0
45.692333 140.0
45.703407 168.0
45.736092 116.0
45.773914 212.0
45.790085 252.0
45.804768 140.0
45.820961 132.0
45.844543 192.0
45.888321 132.0
45.904503 96.0
45.917927 348.0
45.931477 340.0
45.970604 136.0
45.982071 172.0
45.993549 148.0
46.002998 64.0
46.01894 184.0
46.035404 148.0
46.053452 332.0
46.06377 172.0
46.093861 176.0
46.11095 180.0
46.131603 156.0
46.144855 132.0
46.176418 272.0
46.180607 92.0
46.186214 220.0
46.232784 168.0
46.252243 196.0
46.295059 380.0
46.312664 188.0
46.334339 168.0
46.343826 152.0
46.35873 104.0
46.372284 240.0
46.39397 116.0
46.412033 160.0
46.433655 212.0
46.447781 112.0
46.463715 188.0
46.478592 280.0
46.497566 56.0
46.514709 56.0
46.533062 160.0
46.579891 296.0
46.595741 188.0
46.59919 136.0
46.603153 176.0
46.626087 228.0
46.638916 200.0
46.649929 140.0
46.66959 168.0
46.681828 116.0
46.726715 292.0
46.745537 216.0
46.786842 180.0
46.802937 92.0
46.819164 140.0
46.849247 236.0
46.861507 132.0
46.878414 108.0
46.898712 160.0
46.940567 124.0
46.956932 72.0
46.978359 424.0
47.023788 260.0
47.033344 72.0
47.043709 244.0
47.063377 108.0
47.081131 228.0
47.141705 188.0
47.164474 92.0
47.185692 216.0
47.238724 108.0
47.279842 184.0
47.309727 112.0
47.326881 152.0
47.342113 168.0
47.345631 140.0
47.349705 224.0
47.366158 124.0
47.383438 56.0
47.393028 124.0
47.41153 184.0
47.423176 228.0
47.435513 124.0
47.460194 164.0
47.47802 56.0
47.513508 124.0
47.531521 80.0
47.546852 188.0
47.564461 120.0
47.575443 140.0
47.604614 276.0
47.633213 180.0
47.655972 228.0
47.674835 100.0
47.691414 240.0
47.719704 136.0
47.748581 56.0
47.758209 208.0
47.797733 264.0
47.818748 88.0
47.85815 148.0
47.860416 136.0
47.866692 228.0
47.878502 160.0
47.913765 160.0
47.947605 156.0
47.961998 220.0
47.984318 148.0
48.004742 176.0
48.039223 156.0
48.062679 56.0
48.097584 164.0
48.109604 208.0
48.130341 204.0
48.152412 176.0
48.163792 184.0
48.184464 196.0
48.233242 336.0
48.250679 140.0
48.26366 160.0
48.279884 172.0
48.293392 144.0
48.322918 184.0
48.337666 28.0
48.403339 220.0
48.429039 148.0
48.441505 40.0
48.467831 200.0
48.480301 104.0
48.492405 180.0
48.509411 184.0
48.5205 236.0
48.539913 172.0
48.561852 132.0
48.573601 152.0
48.623676 116.0
48.637032 224.0
48.664009 152.0
48.678711 184.0
48.712017 72.0
48.72591 132.0
48.746265 172.0
48.757107 168.0
48.772068 148.0
48.784279 56.0
48.810696 124.0
48.825996 84.0
48.842686 308.0
48.859379 136.0
48.873508 208.0
48.885818 192.0
48.89695 260.0
48.909477 76.0
48.924789 136.0
48.945675 116.0
48.959602 144.0
49.002922 160.0
49.019505 164.0
49.029263 104.0
49.048775 196.0
49.086533 208.0
49.101761 96.0
49.116745 156.0
49.121342 208.0
49.138027 172.0
49.147331 156.0
49.177101 188.0
49.196239 152.0
49.225246 248.0
49.24107 172.0
49.256695 32.0
49.285439 168.0
49.331745 204.0
49.345203 216.0
49.361519 316.0
49.431461 148.0
49.441257 168.0
49.47728 196.0
49.482903 144.0
49.498657 368.0
49.516861 100.0
49.532269 188.0
49.551884 284.0
49.577106 136.0
49.609344 400.0
49.650726 156.0
49.662556 148.0
49.681839 144.0
49.727173 144.0
49.737968 340.0
49.758057 132.0
49.789169 204.0
49.816708 164.0
49.831371 160.0
49.843739 100.0
49.85881 212.0
49.869034 60.0
49.902256 196.0
49.932064 184.0
49.944965 212.0
49.975914 76.0
49.993271 132.0
50.019566 140.0
50.033619 168.0
50.101223 132.0
50.165817 196.0
50.182968 180.0
50.195438 180.0
50.21056 176.0
50.218399 184.0
50.245567 240.0
50.255516 172.0
50.290848 136.0
50.329159 408.0
50.345669 188.0
50.362194 212.0
50.374908 192.0
50.405285 280.0
50.424362 204.0
50.454048 340.0
50.481182 212.0
50.505363 168.0
50.51569 232.0
50.518105 136.0
50.554741 368.0
50.575706 140.0
50.606853 108.0
50.616764 264.0
50.627701 172.0
50.645092 164.0
50.666229 152.0
50.687027 180.0
50.703949 192.0
50.72728 100.0
50.745628 144.0
50.778152 172.0
50.788853 208.0
50.799603 92.0
50.820885 104.0
50.851021 152.0
50.869137 176.0
50.880497 288.0
50.897533 120.0
50.908894 176.0
50.920258 224.0
50.950089 60.0
50.967136 152.0
50.979927 136.0
51.002838 132.0
51.039631 152.0
51.049587 180.0
51.080875 196.0
51.106487 136.0
51.137794 168.0
51.159496 196.0
51.176231 116.0
51.214684 92.0
51.235928 140.0
51.246147 140.0
51.278801 152.0
51.321568 116.0
51.35268 396.0
51.411194 164.0
51.427624 200.0
51.439335 228.0
51.443668 124.0
51.447544 176.0
51.46983 124.0
51.487106 208.0
51.525734 184.0
51.570393 164.0
51.610001 204.0
51.629704 108.0
51.634377 180.0
51.653744 144.0
51.686165 144.0
51.720161 92.0
51.737034 244.0
51.746407 108.0
51.761681 160.0
51.7822 196.0
51.802517 176.0
51.827576 296.0
51.844521 160.0
51.862309 220.0
51.887772 128.0
51.921547 224.0
51.936531 160.0
51.958668 316.0
51.996796 104.0
52.017677 124.0
52.039536 160.0
52.055256 216.0
52.088688 68.0
52.106239 148.0
52.120296 76.0
52.141853 160.0
52.153351 144.0
52.187855 156.0
52.215721 276.0
52.239632 124.0
52.258335 140.0
52.274162 100.0
52.291435 168.0
52.322552 116.0
52.33894 188.0
52.354782 112.0
52.383118 196.0
52.398346 148.0
52.432987 252.0
52.452759 84.0
52.466396 148.0
52.483704 212.0
52.552269 188.0
52.642635 120.0
52.658829 220.0
52.709053 76.0
52.713936 92.0
52.718967 164.0
52.747997 180.0
52.771564 184.0
52.783386 224.0
52.800114 188.0
52.823528 164.0
52.8615 184.0
52.879822 176.0
52.894791 192.0
52.909267 208.0
52.922298 224.0
52.952709 144.0
52.966667 168.0
53.004864 140.0
53.02515 80.0
53.071541 192.0
53.085709 192.0
53.103603 184.0
53.115856 288.0
53.149872 124.0
53.188107 116.0
53.215187 136.0
53.248589 68.0
53.263115 176.0
53.280468 240.0
53.322685 132.0
53.343121 136.0
53.417824 336.0
53.437569 64.0
53.458591 224.0
53.48996 44.0
53.505974 104.0
53.53801 208.0
53.575882 36.0
53.59045 140.0
53.607937 176.0
53.621239 168.0
53.636135 196.0
53.650208 220.0
53.674995 64.0
53.688118 164.0
53.712914 116.0
53.743927 116.0
53.768997 176.0
53.802906 84.0
53.831245 160.0
53.845978 124.0
53.856358 208.0
53.876583 208.0
53.906498 136.0
53.930485 204.0
53.949863 156.0
53.960629 116.0
53.973858 180.0
53.979965 200.0
54.002522 208.0
54.036381 116.0
54.065044 188.0
54.093777 184.0
54.106518 156.0
54.117214 144.0
54.129456 204.0
54.142635 144.0
54.158749 336.0
54.181957 360.0
54.217693 208.0
54.240902 124.0
54.259865 164.0
54.280392 132.0
54.311333 164.0
54.334663 112.0
54.361076 188.0
54.372505 208.0
54.430534 152.0
54.455971 176.0
54.469292 268.0
54.487309 212.0
54.516743 204.0
54.531677 148.0
54.560837 128.0
54.576447 312.0
54.591942 156.0
54.609367 192.0
54.649452 160.0
54.675159 112.0
54.691765 180.0
54.715317 168.0
54.735931 216.0
54.755077 188.0
54.780903 216.0
54.800743 140.0
54.811058 260.0
54.825794 112.0
54.840454 148.0
54.872967 180.0
54.892136 164.0
54.931892 184.0
54.957039 168.0
54.985077 192.0
54.991718 152.0
55.016075 208.0
55.042652 84.0
55.072189 168.0
55.106724 212.0
55.134243 100.0
55.146069 48.0
55.15937 196.0
55.171196 136.0
55.217037 184.0
55.241325 200.0
55.320805 188.0
55.356106 132.0
55.359653 208.0
55.373344 252.0
55.402069 80.0
55.425579 152.0
55.44381 188.0
55.458652 152.0
55.49453 176.0
55.508709 156.0
55.550472 228.0
55.577427 176.0
55.603733 140.0
55.618576 216.0
55.634907 108.0
55.658661 116.0
55.679451 232.0
55.69833 96.0
55.70916 148.0
55.730392 192.0
55.777519 108.0
55.799816 308.0
55.841003 420.0
55.855766 148.0
55.889061 208.0
55.907082 220.0
55.924778 80.0
55.940056 332.0
55.965755 160.0
55.984333 200.0
56.012531 116.0
56.023655 100.0
56.06776 168.0
56.081821 184.0
56.104431 160.0
56.115463 204.0
56.15871 160.0
56.168427 140.0
56.173462 72.0
56.178555 132.0
56.19899 156.0
56.215405 168.0
56.270634 152.0
56.310955 100.0
56.328876 136.0
56.343655 148.0
56.363243 44.0
56.399109 100.0
56.410595 180.0
56.424522 188.0
56.449677 112.0
56.460411 140.0
56.473873 156.0
56.48724 124.0
56.503792 152.0
56.522324 176.0
56.543968 184.0
56.565506 168.0
56.582752 204.0
56.598904 228.0
56.634029 176.0
56.658001 216.0
56.680534 100.0
56.695896 220.0
56.711948 156.0
56.744926 156.0
56.778748 112.0
56.794685 156.0
56.808216 240.0
56.81992 168.0
56.833424 332.0
56.844898 176.0
56.869091 172.0
56.894958 168.0
56.914478 128.0
56.941029 136.0
56.971554 172.0
56.982071 156.0
56.995594 224.0
57.019066 168.0
57.052708 248.0
57.069244 192.0
57.079773 176.0
57.099548 212.0
57.120312 176.0
57.145023 168.0
57.161003 156.0
57.185081 88.0
57.238934 156.0
57.26405 168.0
57.299446 116.0
57.315411 104.0
57.344006 148.0
57.364334 76.0
57.37941 148.0
57.389965 140.0
57.413792 144.0
57.436047 108.0
57.483864 80.0
57.509144 96.0
57.519711 132.0
57.531296 160.0
57.545376 180.0
57.555946 172.0
57.572556 140.0
57.587662 96.0
57.604275 156.0
57.622406 272.0
57.638214 204.0
57.661694 160.0
57.726704 200.0
57.76754 148.0
57.782669 128.0
57.796288 184.0
57.81596 96.0
57.831348 120.0
57.847748 156.0
57.869377 208.0
57.885193 308.0
57.913479 176.0
57.937096 312.0
57.973122 152.0
58.002262 176.0
58.017422 124.0
58.042439 296.0
58.0728 148.0
58.084145 136.0
58.100834 172.0
58.122074 144.0
58.134853 176.0
58.159149 140.0
58.163811 148.0
58.17207 184.0
58.188862 152.0
58.205563 112.0
58.222267 48.0
58.242012 128.0
58.257759 120.0
58.275242 508.0
58.288414 148.0
58.320511 212.0
58.344841 132.0
58.355991 204.0
58.372158 192.0
58.381844 324.0
58.403137 60.0
58.424435 120.0
58.435081 140.0
58.460953 180.0
58.496445 340.0
58.529453 104.0
58.551643 168.0
58.600216 184.0
58.637585 188.0
58.671154 116.0
58.707893 128.0
58.726051 180.0
58.757324 216.0
58.771816 120.0
58.808445 156.0
58.819996 268.0
58.854244 152.0
58.876678 168.0
58.901588 184.0
58.912281 156.0
58.922977 176.0
58.942059 164.0
58.95805 144.0
58.962475 132.0
58.969734 228.0
58.985634 56.0
58.997959 196.0
59.032562 104.0
59.049427 128.0
59.061817 112.0
59.067085 152.0
59.090572 116.0
59.129414 192.0
59.162468 200.0
59.181465 212.0
59.219791 152.0
59.258507 160.0
59.272751 208.0
59.288696 96.0
59.304024 108.0
59.3241 184.0
59.337521 136.0
59.34827 348.0
59.358265 284.0
59.403584 280.0
59.425171 52.0
59.437447 132.0
59.457241 196.0
59.48349 228.0
59.4977 188.0
59.52066 172.0
59.543251 148.0
59.590141 144.0
59.612606 128.0
59.639473 168.0
59.6558 240.0
59.668594 148.0
59.68322 108.0
59.703213 188.0
59.715824 160.0
59.749615 120.0
59.812454 208.0
59.83263 176.0
59.866924 148.0
59.877319 220.0
59.900227 120.0
59.923336 72.0
59.942928 168.0
59.96032 96.0
59.972515 180.0
60.017414 172.0
60.031239 164.0
60.06517 336.0
60.080059 172.0
60.13747 140.0
60.15493 312.0
60.172146 248.0
60.208714 192.0
60.237629 100.0
60.248337 184.0
60.276688 136.0
60.305279 72.0
60.338516 80.0
60.351501 180.0
60.365036 132.0
60.387306 268.0
60.407101 180.0
60.421745 180.0
60.490128 144.0
60.501862 324.0
60.525734 176.0
60.536575 180.0
60.550514 128.0
60.561356 212.0
60.575298 156.0
60.589241 132.0
60.606285 124.0
60.621525 244.0
60.641926 172.0
60.663761 140.0
60.676758 308.0
60.69009 140.0
60.738613 180.0
60.755127 100.0
60.770641 112.0
60.797024 148.0
60.862129 136.0
60.894833 152.0
60.908482 148.0
60.920063 116.0
60.974808 188.0
60.994354 164.0
61.036255 344.0
61.053009 212.0
61.063206 172.0
61.121811 100.0
61.140484 112.0
61.183121 256.0
61.227474 192.0
61.242607 88.0
61.262817 104.0
61.296829 188.0
61.385071 208.0
61.408615 124.0
61.431862 196.0
61.470871 204.0
61.494282 240.0
61.533306 344.0
61.569347 148.0
61.591087 144.0
61.607624 192.0
61.633461 156.0
61.665058 224.0
61.682026 188.0
61.694229 132.0
61.724117 164.0
61.755215 116.0
61.774727 160.0
61.789627 200.0
61.808624 228.0
61.832123 180.0
61.842594 104.0
61.848103 164.0
61.871845 164.0
61.892933 164.0
61.91016 212.0
61.922878 328.0
61.962101 176.0
61.976643 192.0
61.99789 336.0
62.014915 164.0
62.027672 52.0
62.040211 56.0
62.054321 156.0
62.077339 144.0
62.093525 148.0
62.129604 92.0
62.156277 204.0
62.179585 300.0
62.203362 176.0
62.297375 208.0
62.302822 180.0
62.325867 140.0
62.343151 136.0
62.363949 196.0
62.400101 184.0
62.414078 136.0
62.432762 124.0
62.469181 156.0
62.483097 120.0
62.504913 148.0
62.530308 284.0
62.56179 156.0
62.588554 120.0
62.617233 172.0
62.638954 108.0
62.6628 324.0
62.68784 148.0
62.700405 68.0
62.716167 184.0
62.741974 140.0
62.757156 140.0
62.769772 140.0
62.8092 208.0
62.847065 92.0
62.86488 152.0
62.893883 180.0
62.92667 220.0
62.945175 104.0
62.9702 100.0
63.003372 156.0
63.088711 332.0
63.136982 152.0
63.180439 116.0
63.194534 176.0
63.228325 76.0
63.231594 152.0
63.253235 152.0
63.272877 216.0
63.300999 144.0
63.357021 164.0
63.367649 244.0
63.383106 180.0
63.403816 180.0
63.427483 136.0
63.48241 180.0
63.501141 212.0
63.508133 144.0
63.513954 308.0
63.525803 92.0
63.560707 96.0
63.578163 196.0
63.630547 136.0
63.649601 192.0
63.665482 132.0
63.684963 220.0
63.697201 140.0
63.725048 212.0
63.744118 232.0
63.769913 104.0
63.796101 232.0
63.821743 120.0
63.851349 160.0
63.904732 120.0
63.930508 224.0
63.955109 348.0
63.967583 88.0
63.985989 128.0
64.022591 124.0
64.056137 216.0
64.060379 132.0
64.084442 192.0
64.104858 116.0
64.142853 172.0
64.169914 200.0
64.197021 92.0
64.224464 156.0
64.271996 76.0
64.324509 128.0
64.330116 164.0
64.337234 192.0
64.362206 156.0
64.387733 160.0
64.406105 160.0
64.424492 180.0
64.451019 172.0
64.496315 96.0
64.517075 72.0
64.544144 128.0
64.567535 176.0
64.578728 64.0
64.613647 140.0
64.649124 272.0
64.664391 156.0
64.675194 196.0
64.692345 76.0
64.716133 56.0
64.736481 212.0
64.748016 172.0
64.758179 144.0
64.779961 152.0
64.818878 172.0
64.830093 164.0
64.846123 164.0
64.885689 164.0
64.927887 56.0
64.947182 132.0
64.961906 172.0
64.976677 164.0
64.990753 148.0
65.032562 100.0
65.057114 188.0
65.107101 348.0
65.122093 136.0
65.136551 136.0
65.147797 64.0
65.166962 176.0
65.190178 200.0
65.204033 100.0
65.229752 160.0
65.278969 144.0
65.298195 120.0
65.323608 132.0
65.355202 248.0
65.394455 132.0
65.40831 128.0
65.444725 176.0
65.453491 324.0
65.475937 132.0
65.492043 84.0
65.521591 204.0
65.562935 208.0
65.595169 200.0
65.616127 120.0
65.642723 172.0
65.69236 180.0
65.7136 184.0
65.74041 164.0
65.770592 208.0
65.798782 204.0
65.824951 188.0
65.866478 156.0
65.898262 164.0
65.930901 80.0
65.951042 156.0
65.977776 156.0
65.996651 232.0
66.019753 192.0
66.035988 184.0
66.088104 148.0
66.097939 232.0
66.11203 144.0
66.128212 164.0
66.147636 176.0
66.16436 376.0
66.183014 220.0
66.214676 164.0
66.231842 144.0
66.254524 60.0
66.278824 196.0
66.291046 156.0
66.324203 208.0
66.339546 156.0
66.363113 184.0
66.388557 104.0
66.411209 164.0
66.439346 164.0
66.454727 116.0
66.51075 120.0
66.52874 144.0
66.54245 136.0
66.556351 396.0
66.577599 272.0
66.600052 228.0
66.62442 108.0
66.656952 176.0
66.679298 148.0
66.705673 132.0
66.723701 232.0
66.760956 140.0
66.804878 212.0
66.824005 204.0
66.837051 124.0
66.855316 192.0
66.873993 160.0
66.884193 296.0
66.897636 120.0
66.911278 212.0
66.928528 164.0
66.948112 124.0
66.983582 180.0
67.046082 176.0
67.12085 144.0
67.143684 232.0
67.1632 120.0
67.196129 180.0
67.208252 324.0
67.240257 200.0
67.254631 204.0
67.26606 140.0
67.315041 32.0
67.349335 140.0
67.364082 148.0
67.377106 120.0
67.409477 148.0
67.424492 48.0
67.440842 56.0
67.457184 192.0
67.486168 176.0
67.504601 144.0
67.516052 196.0
67.529137 152.0
67.568665 196.0
67.593819 200.0
67.663322 172.0
67.681091 136.0
67.704254 200.0
67.725548 124.0
67.743568 184.0
67.805832 116.0
67.818245 112.0
67.830421 204.0
67.844856 228.0
67.862556 272.0
67.904205 184.0
67.921387 220.0
67.947792 268.0
67.989304 444.0
68.038429 176.0
68.056824 184.0
68.091316 152.0
68.129692 396.0
68.149597 112.0
68.171158 220.0
68.193184 60.0
68.213684 160.0
68.251991 176.0
68.27449 324.0
68.313454 140.0
68.354828 180.0
68.377243 176.0
68.393143 204.0
68.421837 56.0
68.440659 240.0
68.480072 232.0
68.494293 108.0
68.508324 248.0
68.537155 160.0
68.557114 160.0
68.579308 176.0
68.617073 216.0
68.639328 176.0
68.660774 152.0
68.686974 176.0
68.720154 132.0
68.77755 184.0
68.80928 164.0
68.852219 116.0
68.88195 164.0
68.916641 128.0
68.946388 144.0
69.015816 284.0
69.038673 156.0
69.055244 176.0
69.069199 188.0
69.095207 172.0
69.12056 236.0
69.149818 188.0
69.211075 160.0
69.227402 144.0
69.252472 152.0
69.264069 100.0
69.285454 172.0
69.290405 156.0
69.300644 216.0
69.345261 220.0
69.363045 208.0
69.376442 184.0
69.443497 64.0
69.466583 244.0
69.480896 192.0
69.516083 148.0
69.539322 44.0
69.577499 76.0
69.615692 56.0
69.665932 208.0
69.695427 144.0
69.726791 232.0
69.789116 168.0
69.799454 48.0
69.831749 76.0
69.856697 136.0
69.876663 52.0
69.889572 252.0
69.899353 144.0
69.933655 160.0
69.974579 192.0
70.004913 160.0
70.015152 164.0
70.029076 208.0
70.058136 108.0
70.078125 184.0
70.08934 148.0
70.098854 192.0
70.129784 152.0
70.173134 200.0
70.194809 256.0
70.213707 156.0
70.226494 160.0
70.243179 140.0
70.29911 132.0
70.339119 356.0
70.363335 132.0
70.391716 124.0
70.416771 144.0
70.437988 188.0
70.452843 188.0
70.480896 196.0
70.51535 216.0
70.567169 100.0
70.590744 188.0
70.610252 168.0
70.634064 36.0
70.652466 196.0
70.672546 96.0
70.684258 212.0
70.717728 100.0
70.734467 140.0
70.756233 164.0
70.789719 128.0
70.812332 136.0
70.830025 128.0
70.866776 168.0
70.892548 156.0
70.918724 176.0
70.957764 196.0
70.979393 120.0
71.004234 68.0
71.031075 220.0
71.04953 128.0
71.064522 132.0
71.087463 184.0
71.105682 112.0
71.120621 352.0
71.139076 188.0
71.157875 224.0
71.185486 172.0
71.209717 224.0
71.261078 136.0
71.304764 36.0
71.340309 192.0
71.353516 188.0
71.375244 160.0
71.398918 132.0
71.42276 276.0
71.476303 104.0
71.489761 60.0
71.50251 128.0
71.525108 136.0
71.548119 48.0
71.59024 216.0
71.622772 172.0
71.636375 160.0
71.659836 156.0
71.688484 60.0
71.717133 164.0
71.740738 64.0
71.783966 188.0
71.808868 148.0
71.834976 136.0
71.891136 192.0
71.903946 132.0
71.933052 172.0
71.944397 144.0
71.956688 208.0
71.980324 176.0
72.036064 152.0
72.061401 108.0
72.093582 352.0
72.118385 312.0
72.143951 160.0
72.161125 136.0
72.178032 96.0
72.232155 272.0
72.243828 196.0
72.264297 180.0
72.289383 136.0
72.315063 172.0
72.335335 148.0
72.382782 148.0
72.415703 216.0
72.450539 180.0
72.475952 120.0
72.48951 316.0
72.508148 36.0
72.538658 168.0
72.591423 132.0
72.640404 92.0
72.664452 256.0
72.698097 128.0
72.71167 124.0
72.737129 56.0
72.763474 108.0
72.801651 228.0
72.822029 184.0
72.834747 272.0
72.853706 172.0
72.879791 60.0
72.916595 116.0
72.938759 312.0
72.952873 128.0
72.964775 316.0
72.978378 68.0
73.002182 204.0
73.071342 340.0
73.100853 160.0
73.137276 196.0
73.148506 204.0
73.162018 188.0
73.180855 100.0
73.21151 144.0
73.226837 220.0
73.253822 180.0
73.305206 144.0
73.32225 176.0
73.347427 160.0
73.387672 156.0
73.405785 128.0
73.417236 172.0
73.473053 128.0
73.497894 120.0
73.518372 152.0
73.534698 184.0
73.564461 120.0
73.63974 168.0
73.652664 196.0
73.685715 160.0
73.699387 56.0
73.715195 192.0
73.759483 172.0
73.770424 156.0
73.801888 388.0
73.81871 212.0
73.85154 144.0
73.865219 164.0
73.887764 188.0
73.907997 216.0
73.960533 224.0
73.973534 176.0
73.992035 248.0
74.041161 208.0
74.054703 368.0
74.081573 168.0
74.093742 124.0
74.115143 160.0
74.132324 60.0
74.170151 148.0
74.202599 120.0
74.232582 124.0
74.251884 404.0
74.276344 144.0
74.289963 268.0
74.338913 120.0
74.37587 160.0
74.397774 168.0
74.420418 156.0
74.469383 252.0
74.490921 124.0
74.530769 184.0
74.552773 168.0
74.594025 120.0
74.624908 208.0
74.676193 204.0
74.698921 292.0
74.71785 108.0
74.747269 132.0
74.763588 144.0
74.777962 184.0
74.808281 168.0
74.812752 196.0
74.848351 112.0
74.900581 128.0
74.915833 164.0
74.940269 176.0
74.960121 176.0
74.986481 116.0
75.015709 180.0
75.046822 124.0
75.066376 188.0
75.095108 80.0
75.129608 116.0
75.162384 136.0
75.177788 108.0
75.210968 160.0
75.253914 160.0
75.272865 92.0
75.29425 232.0
75.325439 136.0
75.341957 264.0
75.397247 68.0
75.433548 136.0
75.449104 172.0
75.462936 136.0
75.514816 140.0
75.526924 188.0
75.558067 84.0
75.608246 96.0
75.621666 196.0
75.6661 228.0
75.686737 188.0
75.723648 104.0
75.772751 124.0
75.791412 140.0
75.818634 184.0
75.835136 108.0
75.848999 156.0
75.897545 164.0
75.911423 148.0
75.940903 112.0
75.96254 144.0
75.988617 340.0
76.0103 108.0
76.038063 196.0
76.067528 156.0
76.099754 184.0
76.11792 176.0
76.156128 348.0
76.203072 140.0
76.226494 200.0
76.251251 204.0
76.264328 208.0
76.314453 176.0
76.360489 184.0
76.375679 196.0
76.399612 152.0
76.432381 156.0
76.520142 188.0
76.532959 188.0
76.566605 140.0
76.610733 96.0
76.631058 72.0
76.658936 160.0
76.681297 164.0
76.716957 268.0
76.767021 328.0
76.800156 148.0
76.861221 116.0
76.882774 192.0
76.896706 120.0
76.928459 220.0
76.960503 164.0
77.053352 104.0
77.068977 196.0
77.097435 136.0
77.114716 268.0
77.131172 184.0
77.147659 72.0
77.19487 164.0
77.219643 192.0
77.249092 144.0
77.273018 224.0
77.303329 168.0
77.325089 240.0
77.374153 184.0
77.394478 208.0
77.417587 196.0
77.45565 72.0
77.481934 340.0
77.523987 104.0
77.55027 176.0
77.572395 168.0
77.592346 140.0
77.645859 132.0
77.708107 184.0
77.741966 188.0
77.773033 232.0
77.808365 200.0
77.863503 76.0
77.892441 200.0
77.918282 164.0
77.949242 216.0
77.974243 140.0
77.991066 188.0
78.004906 188.0
78.02285 116.0
78.04007 164.0
78.062401 200.0
78.081207 136.0
78.133286 152.0
78.147125 148.0
78.20417 172.0
78.250275 136.0
78.257347 180.0
78.260353 224.0
78.27919 384.0
78.316368 164.0
78.342041 180.0
78.388603 120.0
78.400932 124.0
78.416115 196.0
78.428131 264.0
78.444359 196.0
78.448486 180.0
78.48555 144.0
78.498482 144.0
78.521088 132.0
78.541107 144.0
78.558296 260.0
78.596741 236.0
78.660149 100.0
78.693764 128.0
78.709648 144.0
78.757339 144.0
78.775848 256.0
78.813873 172.0
78.835724 196.0
78.868652 152.0
78.88633 140.0
78.903511 156.0
78.920769 252.0
78.946449 84.0
78.967674 120.0
78.993973 152.0
79.059937 296.0
79.07737 124.0
79.091232 140.0
79.119064 148.0
79.153145 160.0
79.17675 248.0
79.22789 144.0
79.247375 236.0
79.287064 212.0
79.31118 76.0
79.323586 216.0
79.350182 224.0
79.396286 164.0
79.420067 224.0
79.445946 116.0
79.510597 212.0
79.524025 136.0
79.536453 124.0
79.551544 136.0
79.606911 140.0
79.657204 160.0
79.67852 128.0
79.7034 36.0
79.737038 168.0
79.758492 232.0
79.77169 92.0
79.790489 32.0
79.814484 192.0
79.869308 188.0
79.910141 160.0
79.934563 132.0
79.955925 156.0
79.985619 164.0
80.014664 248.0
80.073425 124.0
80.087242 228.0
80.090408 172.0
80.126869 200.0
80.144684 32.0
80.1903 188.0
80.21904 128.0
80.246796 140.0
80.273033 220.0
80.296211 172.0
80.325691 160.0
80.356911 164.0
80.385773 140.0
80.406197 392.0
80.423416 164.0
80.447884 128.0
80.495163 184.0
80.535385 136.0
80.556862 164.0
80.584694 20.0
80.611969 148.0
80.633003 44.0
80.656448 128.0
80.671448 204.0
80.692688 172.0
80.714104 52.0
80.73735 100.0
80.77491 116.0
80.821426 128.0
80.836906 376.0
80.857224 188.0
80.914505 168.0
80.939568 220.0
80.969116 168.0
80.992378 160.0
81.013008 140.0
81.031708 100.0
81.049911 120.0
81.09436 368.0
81.113358 124.0
81.163559 116.0
81.189087 192.0
81.211983 128.0
81.249611 184.0
81.301689 140.0
81.319633 208.0
81.335793 64.0
81.352257 208.0
81.384262 144.0
81.402222 148.0
81.44413 192.0
81.484848 40.0
81.502968 144.0
81.545944 124.0
81.570389 160.0
81.574333 96.0
81.581169 236.0
81.637039 144.0
81.657417 188.0
81.675331 188.0
81.681404 180.0
81.73658 136.0
81.761772 172.0
81.789627 140.0
81.80439 236.0
81.823715 68.0
81.890472 116.0
81.907333 180.0
81.928146 212.0
81.958061 128.0
81.992302 120.0
82.028351 160.0
82.052643 76.0
82.081787 128.0
82.101822 152.0
82.142723 132.0
82.17804 128.0
82.21109 192.0
82.229195 172.0
82.263092 192.0
82.277946 136.0
82.283478 48.0
82.289391 156.0
82.345039 212.0
82.398315 172.0
82.410957 152.0
82.43589 236.0
82.460884 160.0
82.476021 224.0
82.488678 148.0
82.513504 196.0
82.5438 100.0
82.578621 156.0
82.628502 164.0
82.677246 172.0
82.714516 208.0
82.733231 108.0
82.769112 164.0
82.785408 228.0
82.79808 220.0
82.825844 160.0
82.847107 128.0
82.879601 176.0
82.905876 156.0
82.919136 196.0
82.952103 156.0
83.005745 204.0
83.022736 284.0
83.026848 160.0
83.050018 172.0
83.062714 140.0
83.082672 124.0
83.098999 188.0
83.123207 176.0
83.144791 188.0
83.166145 84.0
83.179764 104.0
83.215164 132.0
83.227875 144.0
83.260269 152.0
83.280678 176.0
83.304779 212.0
83.345612 200.0
83.363945 172.0
83.378418 156.0
83.398849 144.0
83.410095 160.0
83.495728 160.0
83.514595 156.0
83.551399 260.0
83.587791 144.0
83.63092 160.0
83.649673 100.0
83.697815 212.0
83.724144 124.0
83.740715 116.0
83.764893 160.0
83.777878 304.0
83.812836 232.0
83.859146 204.0
83.888313 152.0
83.902748 200.0
83.91465 216.0
83.922043 64.0
83.93428 112.0
83.952469 64.0
83.972946 116.0
83.999107 164.0
84.024788 192.0
84.041512 236.0
84.099915 104.0
84.118164 132.0
84.140076 124.0
84.160652 104.0
84.182068 124.0
84.194855 188.0
84.221428 320.0
84.233727 300.0
84.260612 108.0
84.279434 80.0
84.291916 184.0
84.306297 352.0
84.328232 36.0
84.368446 104.0
84.412323 64.0
84.44342 148.0
84.461708 148.0
84.498726 136.0
84.527573 72.0
84.540741 164.0
84.560516 104.0
84.57663 164.0
84.582588 132.0
84.588394 172.0
84.619095 164.0
84.631912 144.0
84.64473 148.0
84.674026 140.0
84.696518 184.0
84.71373 208.0
84.735039 264.0
84.7528 208.0
84.767464 132.0
84.823074 128.0
84.843681 144.0
84.894745 236.0
84.918694 164.0
84.941643 144.0
84.963463 288.0
85.009529 188.0
85.0355 184.0
85.070099 140.0
85.111458 228.0
85.133797 208.0
85.156189 104.0
85.219429 116.0
85.231186 124.0
85.246613 116.0
85.278221 240.0
85.292374 232.0
85.312592 168.0
85.334587 112.0
85.340721 160.0
85.357574 116.0
85.369591 180.0
85.397179 180.0
85.417412 220.0
85.465614 160.0
85.47699 252.0
85.527611 176.0
85.58313 96.0
85.594971 228.0
85.622002 160.0
85.629776 100.0
85.67495 152.0
85.699913 280.0
85.734108 164.0
85.769676 228.0
85.783875 156.0
85.800659 172.0
85.829056 180.0
85.846657 160.0
85.885292 160.0
85.903961 200.0
85.938797 192.0
85.979027 284.0
86.002502 384.0
86.022514 320.0
86.037796 164.0
86.062408 188.0
86.111465 228.0
86.189919 208.0
86.253403 172.0
86.279472 88.0
86.301659 168.0
86.334106 180.0
86.361847 160.0
86.377274 180.0
86.40625 168.0
86.443253 144.0
86.489525 148.0
86.50248 136.0
86.517296 452.0
86.540031 144.0
86.567284 180.0
86.607025 208.0
86.62841 144.0
86.687363 156.0
86.703056 180.0
86.723518 180.0
86.740845 160.0
86.746117 108.0
86.765251 224.0
86.771545 188.0
86.777229 268.0
86.793358 112.0
86.821175 152.0
86.86039 224.0
86.90094 172.0
86.925537 300.0
86.942238 204.0
86.962181 148.0
86.977036 192.0
86.996666 216.0
87.034584 168.0
87.064919 96.0
87.086586 100.0
87.116386 228.0
87.146912 196.0
87.175949 164.0
87.193359 188.0
87.209221 236.0
87.224091 96.0
87.242676 192.0
87.273224 208.0
87.2873 208.0
87.316795 168.0
87.361702 204.0
87.410805 316.0
87.424339 192.0
87.438553 40.0
87.451698 220.0
87.514061 176.0
87.521667 152.0
87.528328 320.0
87.553421 196.0
87.585083 124.0
87.616753 180.0
87.637245 212.0
87.66893 180.0
87.682808 108.0
87.712189 164.0
87.752808 116.0
87.777046 140.0
87.801292 140.0
87.822693 152.0
87.875908 96.0
87.903008 84.0
87.908379 180.0
87.914993 156.0
87.957405 168.0
87.986031 160.0
88.021507 112.0
88.045784 108.0
88.062592 112.0
88.098083 56.0
88.120605 148.0
88.136223 192.0
88.156006 188.0
88.17469 212.0
88.187233 152.0
88.219559 140.0
88.24012 192.0
88.253212 104.0
88.293594 168.0
88.300323 208.0
88.348595 172.0
88.363617 144.0
88.406601 84.0
88.428436 192.0
88.435669 128.0
88.478409 176.0
88.505089 216.0
88.509842 132.0
88.516861 236.0
88.539452 212.0
88.586349 144.0
88.599968 208.0
88.625 324.0
88.668793 160.0
88.689415 196.0
88.711906 176.0
88.733414 136.0
88.748352 144.0
88.803787 136.0
88.822548 224.0
88.841309 180.0
88.863823 152.0
88.876953 160.0
88.903503 108.0
88.9216 96.0
88.941353 188.0
88.962898 240.0
88.969521 200.0
89.006523 168.0
89.039818 180.0
89.077843 204.0
89.122383 188.0
89.156761 136.0
89.177307 116.0
89.207512 128.0
89.224266 140.0
89.258278 128.0
89.288094 196.0
89.382423 164.0
89.441742 116.0
89.483765 148.0
89.534492 244.0
89.580116 92.0
89.611847 292.0
89.631104 196.0
89.651718 164.0
89.66713 288.0
89.711914 180.0
89.725822 216.0
89.745377 140.0
89.775513 148.0
89.780952 80.0
89.788101 164.0
89.80632 188.0
89.82518 180.0
89.86248 156.0
89.904427 60.0
89.917641 152.0
89.940292 192.0
90.038475 208.0
90.069702 232.0
90.119698 84.0
90.138596 212.0
90.158882 136.0
90.198059 172.0
90.226822 124.0
90.242561 108.0
90.293144 208.0
90.298416 156.0
90.316315 176.0
90.329178 140.0
90.348473 84.0
90.365501 96.0
90.378746 100.0
90.393883 204.0
90.410919 320.0
90.427948 236.0
90.477234 116.0
90.507462 100.0
90.536575 288.0
90.564278 44.0
90.59269 240.0
90.625961 200.0
90.646576 148.0
90.664696 80.0
90.70829 120.0
90.734833 200.0
90.764595 172.0
90.781319 248.0
90.795509 112.0
90.829269 168.0
90.858109 316.0
90.874054 128.0
90.891594 160.0
90.91217 220.0
90.949776 144.0
90.979568 120.0
90.996498 160.0
91.023239 224.0
91.053032 604.0
91.082115 68.0
91.1306 344.0
91.163811 100.0
91.217033 204.0
91.247452 184.0
91.274071 68.0
91.30085 96.0
91.323647 176.0
91.340446 160.0
91.402885 360.0
91.434608 140.0
91.461197 56.0
91.498589 176.0
91.527153 168.0
91.548203 144.0
91.588097 188.0
91.614761 156.0
91.63382 116.0
91.658585 160.0
91.686859 172.0
91.699738 148.0
91.705536 176.0
91.720055 348.0
91.742317 116.0
91.799652 108.0
91.818275 240.0
91.866409 196.0
91.891212 244.0
91.934013 168.0
91.966354 244.0
91.985443 180.0
92.005844 132.0
92.055267 152.0
92.081207 228.0
92.103119 168.0
92.164253 196.0
92.179543 404.0
92.218819 196.0
92.253082 244.0
92.269379 116.0
92.294235 196.0
92.317177 76.0
92.342041 124.0
92.37014 336.0
92.393692 140.0
92.418564 76.0
92.441185 156.0
92.481216 336.0
92.495117 116.0
92.541908 208.0
92.573616 164.0
92.592766 160.0
92.620949 112.0
92.650238 116.0
92.66674 128.0
92.682755 148.0
92.73838 192.0
92.772888 188.0
92.814369 240.0
92.818558 132.0
92.825577 152.0
92.879471 276.0
92.934303 192.0
92.960297 96.0
92.995842 176.0
93.01931 176.0
93.035713 48.0
93.053665 172.0
93.081795 168.0
93.09832 408.0
93.120209 164.0
93.145691 164.0
93.175629 244.0
93.205215 164.0
93.233559 156.0
93.307037 160.0
93.333527 120.0
93.346985 164.0
93.389297 112.0
93.419388 172.0
93.437363 136.0
93.483566 180.0
93.506142 212.0
93.522675 180.0
93.536263 180.0
93.557831 124.0
93.614876 232.0
93.646759 168.0
93.664551 176.0
93.680878 160.0
93.698158 256.0
93.716568 160.0
93.741142 176.0
93.773018 152.0
93.795586 88.0
93.880424 108.0
93.915512 164.0
93.934166 356.0
93.945107 208.0
93.974297 396.0
94.003685 176.0
94.063324 148.0
94.087898 160.0
94.103699 96.0
94.115845 124.0
94.146744 208.0
94.167992 216.0
94.1931 120.0
94.229805 176.0
94.246315 200.0
94.264587 236.0
94.291641 212.0
94.312904 208.0
94.341835 124.0
94.361359 244.0
94.3899 188.0
94.428322 336.0
94.469536 104.0
94.486946 60.0
94.5494 160.0
94.572098 184.0
94.589516 148.0
94.619713 188.0
94.638367 156.0
94.655647 180.0
94.701828 44.0
94.723129 180.0
94.74057 96.0
94.767654 196.0
94.80352 164.0
94.854904 176.0
94.885536 200.0
94.905312 112.0
94.972374 144.0
94.990646 176.0
95.00811 168.0
95.027946 176.0
95.052803 112.0
95.077248 228.0
95.101944 116.0
95.136887 268.0
95.155655 216.0
95.171143 168.0
95.188614 176.0
95.218178 236.0
95.248825 172.0
95.274078 212.0
95.303223 64.0
95.334885 136.0
95.35273 124.0
95.379021 216.0
95.42762 108.0
95.468452 108.0
95.487907 244.0
95.52108 144.0
95.552101 104.0
95.571419 176.0
95.578438 164.0
95.586884 264.0
95.621704 160.0
95.647453 164.0
95.672096 200.0
95.703918 144.0
95.772934 172.0
95.785713 212.0
95.80909 56.0
95.842522 152.0
95.872093 228.0
95.906815 108.0
95.925018 72.0
95.953308 96.0
95.970856 116.0
95.992165 268.0
96.029022 176.0
96.0578 208.0
96.083282 144.0
96.100479 88.0
96.112839 188.0
96.158134 232.0
96.189369 92.0
96.203033 160.0
96.222557 160.0
96.238174 40.0
96.268372 196.0
96.295624 344.0
96.312584 160.0
96.329033 52.0
96.345596 152.0
96.37886 160.0
96.446472 148.0
96.464806 40.0
96.505867 192.0
96.52346 160.0
96.543015 116.0
96.564529 36.0
96.578224 164.0
96.596458 300.0
96.611481 224.0
96.644737 100.0
96.676788 180.0
96.690979 248.0
96.694115 156.0
96.702377 284.0
96.721458 120.0
96.760216 196.0
96.773926 144.0
96.787628 332.0
96.825233 200.0
96.864807 168.0
96.883003 388.0
96.901237 184.0
96.924072 196.0
96.985504 256.0
97.003143 128.0
97.02681 220.0
97.07177 128.0
97.103104 180.0
97.202858 204.0
97.215759 160.0
97.281708 408.0
97.307816 256.0
97.334724 172.0
97.354362 132.0
97.386765 144.0
97.411079 132.0
97.43924 208.0
97.494987 128.0
97.542946 204.0
97.564568 116.0
97.591423 144.0
97.646523 292.0
97.662933 108.0
97.712112 156.0
97.737686 212.0
97.765236 132.0
97.78701 196.0
97.816414 164.0
97.847916 232.0
97.896034 284.0
97.98381 108.0
98.013367 264.0
98.028107 216.0
98.042923 188.0
98.080376 92.0
98.116272 152.0
98.141075 152.0
98.155289 88.0
98.173973 188.0
98.202621 128.0
98.223045 204.0
98.262054 192.0
98.279564 196.0
98.293373 168.0
98.317184 124.0
98.364426 236.0
98.383072 144.0
98.414299 168.0
98.433533 240.0
98.447357 140.0
98.476982 184.0
98.494835 192.0
98.561928 140.0
98.581688 160.0
98.600693 160.0
98.638962 168.0
98.690414 148.0
98.718094 132.0
98.736122 140.0
98.755669 100.0
98.790535 256.0
98.809082 244.0
98.825478 140.0
98.846107 152.0
98.878342 132.0
98.898132 188.0
98.92865 240.0
98.967529 152.0
99.013992 132.0
99.020897 184.0
99.079994 168.0
99.104149 148.0
99.163551 136.0
99.185356 108.0
99.200623 180.0
99.219055 300.0
99.311264 248.0
99.345871 296.0
99.404648 232.0
99.42305 252.0
99.465843 184.0
99.494881 136.0
99.534531 36.0
99.548431 120.0
99.588158 164.0
99.61615 172.0
99.63588 108.0
99.668701 176.0
99.715668 160.0
99.755737 156.0
99.803146 132.0
99.865532 164.0
99.879601 116.0
99.887726 272.0
99.900909 132.0
99.918152 120.0
99.942024 108.0
99.963913 108.0
99.983818 168.0
100.005707 116.0
100.03392 156.0
100.083481 124.0
100.103264 140.0
100.117203 124.0
100.138863 96.0
100.166023 172.0
100.17189 88.0
100.178123 212.0
100.198921 176.0
100.218796 184.0
100.245308 132.0
100.267067 160.0
100.286278 256.0
100.334496 164.0
100.380257 112.0
100.416153 196.0
100.432114 88.0
100.460037 140.0
100.478737 184.0
100.497643 184.0
100.519897 92.0
100.571785 192.0
100.589752 248.0
100.606743 196.0
100.663628 172.0
100.68959 76.0
100.743645 132.0
100.799614 216.0
100.826172 44.0
100.874046 204.0
100.889214 224.0
100.906532 256.0
100.940216 204.0
100.969391 172.0
100.995392 120.0
101.015396 168.0
101.031403 168.0
101.103439 160.0
101.13504 132.0
101.18351 204.0
101.209534 136.0
101.237572 168.0
101.275726 168.0
101.335724 140.0
101.365784 144.0
101.383499 184.0
101.403862 72.0
101.492065 140.0
101.512115 132.0
101.549599 244.0
101.600372 172.0
101.632477 168.0
101.664398 128.0
101.679214 152.0
101.696693 252.0
101.722794 52.0
101.738853 116.0
101.782104 176.0
101.803101 136.0
101.824478 180.0
101.853317 128.0
101.875412 152.0
101.897118 164.0
101.902992 132.0
101.932877 276.0
101.997345 148.0
102.004219 212.0
102.049866 600.0
102.077309 192.0
102.095222 392.0
102.109245 208.0
102.16893 164.0
102.195084 168.0
102.213196 136.0
102.241371 332.0
102.261497 84.0
102.27961 96.0
102.31279 352.0
102.401817 196.0
102.40593 136.0
102.450172 132.0
102.483017 180.0
102.50518 140.0
102.521309 112.0
102.546211 156.0
102.579758 104.0
102.623718 164.0
102.646294 204.0
102.667648 136.0
102.674911 168.0
102.708351 312.0
102.729095 148.0
102.786934 196.0
102.824936 116.0
102.857475 208.0
102.865692 140.0
102.870628 172.0
102.909073 156.0
102.955055 100.0
102.97274 216.0
103.0541 1664.0
103.072723 140.0
103.098495 184.0
103.138512 208.0
103.196091 156.0
103.217354 256.0
103.250122 300.0
103.264275 196.0
103.298172 148.0
103.315315 156.0
103.349243 252.0
103.380249 292.0
103.426147 128.0
103.440315 260.0
103.458534 236.0
103.476761 212.0
103.516273 200.0
103.532906 192.0
103.562721 240.0
103.592323 148.0
103.628204 124.0
103.703644 152.0
103.723915 168.0
103.744186 260.0
103.771629 180.0
103.78009 96.0
103.785484 152.0
103.798935 192.0
103.850647 208.0
103.875412 400.0
103.919373 296.0
103.942368 180.0
103.968346 172.0
103.983543 76.0
104.00264 176.0
104.049713 832.0
104.08651 152.0
104.145355 156.0
104.176453 96.0
104.206924 200.0
104.233337 188.0
104.249596 212.0
104.284904 160.0
104.313705 140.0
104.350777 284.0
104.380806 176.0
104.438675 176.0
104.460442 120.0
104.4814 180.0
104.514786 208.0
104.558609 148.0
104.581108 60.0
104.605537 208.0
104.622444 196.0
104.657272 212.0
104.691055 84.0
104.713165 140.0
104.77253 136.0
104.792908 108.0
104.823631 200.0
104.854042 160.0
104.87442 112.0
104.936394 352.0
104.988594 184.0
105.035507 164.0
105.06868 3172.0
105.090164 76.0
105.099777 80.0
105.106529 84.0
105.125832 160.0
105.15181 76.0
105.188553 220.0
105.206924 180.0
105.228653 100.0
105.290649 316.0
105.308853 140.0
105.329453 144.0
105.372871 172.0
105.381088 160.0
105.403008 208.0
105.41935 116.0
105.444 136.0
105.459724 328.0
105.478622 144.0
105.517632 200.0
105.537918 224.0
105.581696 244.0
105.611404 180.0
105.640419 168.0
105.654495 308.0
105.680641 176.0
105.73233 208.0
105.748627 216.0
105.77816 176.0
105.830513 120.0
105.857742 148.0
105.887756 128.0
105.89772 44.0
105.91114 196.0
105.930077 228.0
105.966507 132.0
106.039467 180.0
106.071465 380.0
106.115318 156.0
106.148575 128.0
106.166351 212.0
106.209534 140.0
106.244873 236.0
106.262741 196.0
106.29377 136.0
106.34713 152.0
106.373573 100.0
106.421967 168.0
106.447731 140.0
106.464157 148.0
106.492912 228.0
106.519615 176.0
106.56826 124.0
106.583305 148.0
106.639885 128.0
106.667969 188.0
106.69841 64.0
106.720184 184.0
106.750458 148.0
106.797989 236.0
106.813576 148.0
106.827972 208.0
106.847588 120.0
106.876221 204.0
106.891472 144.0
106.918716 156.0
106.951439 212.0
106.967911 360.0
106.996826 168.0
107.036003 160.0
107.064369 184.0
107.080238 188.0
107.097305 124.0
107.104279 160.0
107.124413 32.0
107.142601 116.0
107.182106 48.0
107.231033 248.0
107.264542 164.0
107.293526 200.0
107.31881 160.0
107.38826 28.0
107.402702 152.0
107.430626 156.0
107.497803 128.0
107.544991 192.0
107.564789 172.0
107.584297 84.0
107.629723 184.0
107.653435 132.0
107.687973 352.0
107.74926 224.0
107.766045 128.0
107.798775 124.0
107.803879 104.0
107.810127 156.0
107.834244 172.0
107.861115 188.0
107.886467 152.0
107.90139 124.0
107.94175 164.0
107.962425 212.0
108.014137 120.0
108.049301 180.0
108.067924 112.0
108.092758 88.0
108.117844 192.0
108.141342 260.0
108.161057 100.0
108.184898 316.0
108.221092 376.0
108.253273 156.0
108.28653 160.0
108.302505 192.0
108.317612 152.0
108.349503 128.0
108.388092 344.0
108.401558 164.0
108.435501 144.0
108.461563 164.0
108.50898 144.0
108.546417 200.0
108.575493 188.0
108.63353 228.0
108.652199 124.0
108.675018 196.0
108.701996 120.0
108.731049 48.0
108.783516 192.0
108.799416 188.0
108.83075 144.0
108.859764 108.0
108.909241 148.0
108.952728 196.0
108.988556 124.0
109.021805 156.0
109.046951 160.0
109.083305 204.0
109.142372 88.0
109.188614 188.0
109.214737 156.0
109.268188 148.0
109.28196 192.0
109.300018 372.0
109.327515 248.0
109.34581 152.0
109.369141 196.0
109.442711 220.0
109.485435 164.0
109.504486 172.0
109.532951 192.0
109.589897 136.0
109.612007 196.0
109.653999 168.0
109.678261 200.0
109.69619 108.0
109.727684 112.0
109.787201 172.0
109.867195 152.0
109.883774 156.0
109.909615 336.0
109.94857 116.0
110.009872 152.0
110.052948 232.0
110.105156 128.0
110.132309 128.0
110.174088 204.0
110.235924 188.0
110.274391 64.0
110.363945 100.0
110.395836 164.0
110.420746 160.0
110.521713 288.0
110.562752 128.0
110.570564 112.0
110.597763 192.0
110.648346 136.0
110.668457 108.0
110.688622 204.0
110.709564 288.0
110.763786 252.0
110.795441 100.0
110.816391 196.0
110.850967 144.0
110.883209 140.0
110.906181 204.0
110.936234 180.0
110.967896 156.0
110.998756 76.0
111.015533 164.0
111.051186 160.0
111.115532 172.0
111.147316 156.0
111.178947 188.0
111.199577 380.0
111.233742 172.0
111.296448 184.0
111.393883 184.0
111.430717 116.0
111.455223 140.0
111.491348 192.0
111.547791 168.0
111.597855 140.0
111.616119 200.0
111.635048 48.0
111.671043 104.0
111.698654 164.0
111.731804 176.0
111.754211 160.0
111.769676 172.0
111.787132 176.0
111.8265 216.0
111.858948 164.0
111.900177 176.0
111.970619 176.0
112.009689 196.0
112.024437 44.0
112.059349 124.0
112.093964 144.0
112.112572 212.0
112.118286 148.0
112.142441 52.0
112.201462 124.0
112.224159 136.0
112.254738 300.0
112.304794 128.0
112.353645 252.0
112.403999 180.0
112.425056 216.0
112.467651 152.0
112.499832 160.0
112.540268 124.0
112.568604 220.0
112.607857 180.0
112.649338 144.0
112.665764 96.0
112.72953 112.0
112.760345 256.0
112.796791 204.0
112.811249 176.0
112.859421 212.0
112.874802 348.0
112.94973 208.0
112.977623 164.0
113.01503 140.0
113.039917 248.0
113.092926 148.0
113.109863 132.0
113.126015 140.0
113.169144 76.0
113.251732 176.0
113.285629 104.0
113.302574 148.0
113.320145 300.0
113.353424 112.0
113.382439 232.0
113.402168 192.0
113.433777 172.0
113.441132 148.0
113.449944 320.0
113.47213 104.0
113.492401 144.0
113.510292 140.0
113.525139 104.0
113.567558 76.0
113.614082 176.0
113.667267 112.0
113.682121 140.0
113.703346 172.0
113.727951 384.0
113.765541 120.0
113.809883 156.0
113.828186 144.0
113.861313 188.0
113.907188 348.0
113.978149 220.0
114.018723 276.0
114.023483 224.0
114.042145 284.0
114.066559 152.0
114.083023 172.0
114.134598 320.0
114.150978 136.0
114.18351 172.0
114.208092 100.0
114.246101 216.0
114.276375 256.0
114.279793 168.0
114.319664 136.0
114.354439 136.0
114.371887 120.0
114.415314 188.0
114.447388 364.0
114.479973 212.0
114.495598 244.0
114.552971 132.0
114.600746 228.0
114.618187 240.0
114.683342 148.0
114.700203 176.0
114.714386 176.0
114.752083 188.0
114.794724 184.0
114.821945 168.0
114.837379 188.0
114.877243 424.0
114.896324 196.0
114.932968 104.0
114.940552 156.0
114.949707 160.0
114.957085 260.0
114.963799 188.0
115.018532 116.0
115.053467 9628.0
115.135895 212.0
115.151657 164.0
115.170357 184.0
115.213081 116.0
115.234444 28.0
115.27932 64.0
115.303192 140.0
115.343643 248.0
115.381165 220.0
115.4021 320.0
115.422546 144.0
115.45462 172.0
115.476006 32.0
115.520058 128.0
115.54232 120.0
115.590767 268.0
115.62075 156.0
115.651459 64.0
115.676476 448.0
115.704979 76.0
115.740845 224.0
115.758507 196.0
115.779922 128.0
115.793983 124.0
115.822678 180.0
115.838753 360.0
115.865608 136.0
115.884888 80.0
115.899887 216.0
115.936317 116.0
115.967438 288.0
116.008286 168.0
116.049507 6996.0
116.12059 164.0
116.144295 108.0
116.15873 184.0
116.181511 240.0
116.197922 112.0
116.224426 132.0
116.251106 132.0
116.293777 120.0
116.324547 128.0
116.350945 160.0
116.372467 136.0
116.428711 304.0
116.46627 180.0
116.501297 104.0
116.519325 132.0
116.52739 196.0
116.558372 188.0
116.630417 448.0
116.705688 128.0
116.734436 160.0
116.773163 220.0
116.828194 176.0
116.870438 56.0
116.917313 220.0
116.94146 172.0
116.974197 152.0
116.989784 160.0
117.020493 140.0
117.055763 1528.0
117.090019 168.0
117.130943 136.0
117.166229 172.0
117.182289 168.0
117.219276 196.0
117.24514 140.0
117.259399 148.0
117.288246 232.0
117.318428 196.0
117.33783 196.0
117.354004 200.0
117.389435 176.0
117.427124 244.0
117.450752 232.0
117.508011 124.0
117.525902 164.0
117.547852 192.0
117.616119 136.0
117.637711 172.0
117.654976 116.0
117.67009 304.0
117.691963 244.0
117.71328 116.0
117.73703 184.0
117.774796 180.0
117.803993 124.0
117.830772 152.0
117.855843 316.0
117.872581 140.0
117.903969 148.0
117.953102 196.0
117.998497 120.0
118.062965 1024.0
118.095497 208.0
118.115097 140.0
118.131317 300.0
118.163101 116.0
118.205696 136.0
118.245102 136.0
118.268127 176.0
118.318703 204.0
118.349014 228.0
118.370667 148.0
118.39016 40.0
118.405319 152.0
118.454361 200.0
118.489799 120.0
118.541801 168.0
118.57431 180.0
118.592224 152.0
118.619827 144.0
118.636604 152.0
118.654518 164.0
118.674034 148.0
118.691376 184.0
118.708725 128.0
118.724808 260.0
118.761101 160.0
118.783142 168.0
118.795212 200.0
118.819351 140.0
118.834534 176.0
118.861023 96.0
118.944252 208.0
119.008179 188.0
119.035027 352.0
119.06115 244.0
119.084709 284.0
119.116615 168.0
119.148468 216.0
119.157501 128.0
119.164925 180.0
119.19838 128.0
119.227211 168.0
119.298317 140.0
119.336121 176.0
119.367477 160.0
119.423256 160.0
119.444191 244.0
119.468941 60.0
119.486343 160.0
119.518982 128.0
119.56041 224.0
119.585632 256.0
119.592163 160.0
119.608841 196.0
119.653931 36.0
119.707703 92.0
119.721153 220.0
119.736084 132.0
119.769348 144.0
119.802979 256.0
119.83802 208.0
119.868576 132.0
119.906349 132.0
119.9272 144.0
119.964066 124.0
119.988754 212.0
120.081879 272.0
120.11158 136.0
120.130028 148.0
120.139679 68.0
120.150467 140.0
120.198845 112.0
120.26049 180.0
120.277321 184.0
120.303612 224.0
120.350082 196.0
120.360184 136.0
120.363129 184.0
120.399689 84.0
120.435158 248.0
120.478844 272.0
120.529678 360.0
120.588425 312.0
120.603767 128.0
120.612442 204.0
120.629112 92.0
120.699554 164.0
120.719269 136.0
120.742729 104.0
120.773262 188.0
120.787727 232.0
120.831863 164.0
120.863945 236.0
120.900337 96.0
120.978363 340.0
121.021156 164.0
121.078651 116.0
121.121475 108.0
121.138641 292.0
121.165291 252.0
121.185005 332.0
121.202538 172.0
121.226639 116.0
121.244171 84.0
121.270477 148.0
121.319206 104.0
121.338432 124.0
121.365074 236.0
121.395241 160.0
121.417023 176.0
121.448082 84.0
121.47879 180.0
121.499458 176.0
121.533638 120.0
121.553391 152.0
121.603226 220.0
121.61129 156.0
121.662727 240.0
121.726807 132.0
121.761948 140.0
121.7883 176.0
121.826965 200.0
121.843224 112.0
121.864662 216.0
121.881798 136.0
121.892403 104.0
121.91288 80.0
121.921104 144.0
121.966484 180.0
121.993958 156.0
122.02961 148.0
122.054993 336.0
122.072876 152.0
122.088814 192.0
122.106705 176.0
122.125069 180.0
122.172729 228.0
122.181503 120.0
122.192383 332.0
122.267235 140.0
122.321846 180.0
122.330139 128.0
122.339127 336.0
122.38649 108.0
122.445946 132.0
122.467743 116.0
122.487282 188.0
122.491966 184.0
122.499115 288.0
122.516434 128.0
122.53186 60.0
122.569313 144.0
122.593903 152.0
122.62294 156.0
122.689568 100.0
122.71479 136.0
122.758896 284.0
122.776711 152.0
122.793915 164.0
122.834267 140.0
122.853676 144.0
122.878006 156.0
122.90007 244.0
122.928757 192.0
122.962418 128.0
122.97731 400.0
122.999382 172.0
123.030289 64.0
123.063225 332.0
123.067825 180.0
123.093521 176.0
123.110451 184.0
123.134422 220.0
123.160576 116.0
123.18634 392.0
123.204758 48.0
123.251762 88.0
123.273254 40.0
123.295357 96.0
123.331886 296.0
123.383774 60.0
123.419151 120.0
123.439056 116.0
123.461525 124.0
123.505402 228.0
123.535019 124.0
123.595482 240.0
123.611382 120.0
123.629303 236.0
123.672379 156.0
123.695702 236.0
123.716858 180.0
123.751053 164.0
123.790787 216.0
123.79425 204.0
123.831871 172.0
123.883934 152.0
123.923813 192.0
123.988686 204.0
124.007568 232.0
124.023544 72.0
124.056236 176.0
124.093803 156.0
124.110649 152.0
124.134399 100.0
124.163223 80.0
124.189842 132.0
124.259857 276.0
124.330208 136.0
124.345154 164.0
124.36982 212.0
124.401848 148.0
124.447273 124.0
124.470978 124.0
124.49752 236.0
124.545845 176.0
124.573868 32.0
124.604576 188.0
124.617859 120.0
124.689407 148.0
124.710526 136.0
124.716843 176.0
124.762764 164.0
124.787224 124.0
124.827248 64.0
124.850349 144.0
124.889076 120.0
124.898193 40.0
124.916954 308.0
124.938461 284.0
124.963486 240.0
124.989632 88.0
125.035576 192.0
125.066261 148.0
125.087563 128.0
125.114273 188.0
125.134315 60.0
125.152122 112.0
125.172844 132.0
125.191193 180.0
125.221161 324.0
125.246323 216.0
125.265709 188.0
125.287987 152.0
125.308037 144.0
125.340553 128.0
125.347092 152.0
125.356171 208.0
125.363243 176.0
125.392715 128.0
125.423927 64.0
125.472618 128.0
125.498405 276.0
125.524254 140.0
125.554276 156.0
125.561546 152.0
125.56768 288.0
125.596512 160.0
125.633545 104.0
125.68486 148.0
125.711639 124.0
125.738419 208.0
125.843338 112.0
125.873383 124.0
125.933235 252.0
125.971535 160.0
125.983841 44.0
125.990433 108.0
126.020638 200.0
126.045235 632.0
126.073959 100.0
126.11142 136.0
126.129295 224.0
126.154839 132.0
126.187424 108.0
126.203072 196.0
126.229904 176.0
126.294769 352.0
126.350693 92.0
126.399628 160.0
126.428886 148.0
126.436813 140.0
126.443222 216.0
126.478249 160.0
126.518204 132.0
126.537979 340.0
126.55661 224.0
126.572174 172.0
126.587379 140.0
126.590965 128.0
126.602196 184.0
126.640244 208.0
126.673065 36.0
126.70443 128.0
126.737442 120.0
126.753479 332.0
126.78286 168.0
126.797264 156.0
126.829811 160.0
126.861305 112.0
126.879242 136.0
126.908394 224.0
126.927139 100.0
126.93647 84.0
126.940941 144.0
126.980156 148.0
127.002579 188.0
127.020523 304.0
127.053413 2432.0
127.11866 184.0
127.153488 140.0
127.179314 68.0
127.216232 180.0
127.280876 128.0
127.308693 328.0
127.340569 156.0
127.402161 128.0
127.424873 220.0
127.447098 116.0
127.467316 72.0
127.497025 128.0
127.534058 184.0
127.63591 80.0
127.665146 108.0
127.683136 260.0
127.710129 184.0
127.739693 220.0
127.76326 116.0
127.784958 152.0
127.811363 84.0
127.847572 156.0
127.874878 144.0
127.906319 168.0
127.938858 152.0
127.971176 188.0
128.015289 116.0
128.060913 19652.0
128.087723 256.0
128.09819 80.0
128.105133 344.0
128.13559 172.0
128.156189 204.0
128.189667 128.0
128.225739 32.0
128.252655 144.0
128.279831 100.0
128.324432 92.0
128.367767 204.0
128.403839 76.0
128.424149 160.0
128.46701 132.0
128.487305 60.0
128.521042 156.0
128.582077 140.0
128.602631 196.0
128.647141 156.0
128.663208 132.0
128.669373 72.0
128.677643 108.0
128.700577 288.0
128.719482 284.0
128.746902 160.0
128.772171 148.0
128.801712 240.0
128.841949 100.0
128.865707 200.0
128.900513 180.0
128.94928 416.0
128.979614 120.0
128.997452 184.0
129.001404 168.0
129.068665 18420.0
129.11528 156.0
129.150436 184.0
129.17392 128.0
129.205765 156.0
129.266602 312.0
129.290054 128.0
129.297119 224.0
129.331268 176.0
129.358612 236.0
129.386307 36.0
129.433685 172.0
129.47287 100.0
129.513626 128.0
129.554413 164.0
129.587677 140.0
129.622375 68.0
129.64827 244.0
129.667709 208.0
129.706238 176.0
129.732559 164.0
129.765701 156.0
129.818558 148.0
129.849091 100.0
129.874039 140.0
129.889908 232.0
129.908066 148.0
129.928482 212.0
129.969894 64.0
129.995392 232.0
130.016479 240.0
130.066101 4412.0
130.118591 168.0
130.122818 184.0
130.149399 84.0
130.164536 128.0
130.182709 164.0
130.198593 56.0
130.227829 60.0
130.265259 160.0
130.311218 200.0
130.338226 156.0
130.367493 176.0
130.410583 416.0
130.443344 392.0
130.485901 212.0
130.522354 128.0
130.562225 80.0
130.593002 136.0
130.634079 292.0
130.655487 128.0
130.690674 60.0
130.694626 160.0
130.723755 132.0
130.807312 248.0
130.838821 304.0
130.878311 200.0
130.905869 116.0
130.969437 272.0
130.995316 192.0
131.030518 72.0
131.071915 3640.0
131.11319 156.0
131.138321 132.0
131.165604 132.0
131.211197 236.0
131.262604 196.0
131.290482 192.0
131.316101 52.0
131.334351 100.0
131.359436 128.0
131.402542 156.0
131.421036 56.0
131.437012 196.0
131.460632 148.0
131.486572 240.0
131.518402 96.0
131.548843 120.0
131.569672 216.0
131.592896 368.0
131.622681 208.0
131.659241 184.0
131.683182 144.0
131.732513 148.0
131.759995 176.0
131.790207 112.0
131.795654 180.0
131.803879 228.0
131.831787 64.0
131.83844 56.0
131.864059 100.0
131.884644 100.0
131.905212 196.0
131.928894 132.0
131.959015 148.0
132.000046 160.0
132.019531 268.0
132.050034 204.0
132.07933 1876.0
132.137909 160.0
132.173874 128.0
132.198303 168.0
132.21701 392.0
132.259247 212.0
132.287231 208.0
132.313019 396.0
132.332672 380.0
132.392517 236.0
132.418945 268.0
132.446014 256.0
132.467087 148.0
132.490204 204.0
132.546829 208.0
132.56897 196.0
132.594177 112.0
132.646896 164.0
132.666443 236.0
132.697327 120.0
132.715103 192.0
132.745087 164.0
132.79364 32.0
132.827744 88.0
132.841217 296.0
132.885406 164.0
132.90033 120.0
132.938187 160.0
132.981781 136.0
133.031143 120.0
133.080017 188.0
133.104279 124.0
133.113205 164.0
133.137451 160.0
133.160522 156.0
133.197632 200.0
133.227158 212.0
133.266159 140.0
133.289261 168.0
133.327667 172.0
133.353882 116.0
133.369965 200.0
133.412323 252.0
133.434341 172.0
133.48262 140.0
133.505615 172.0
133.52951 228.0
133.560822 180.0
133.586121 196.0
133.649124 296.0
133.675858 184.0
133.695908 196.0
133.721878 160.0
133.740295 92.0
133.765915 124.0
133.785233 416.0
133.823166 188.0
133.857712 88.0
133.876129 132.0
133.896866 196.0
133.931885 308.0
134.009735 188.0
134.045563 184.0
134.070953 192.0
134.095657 256.0
134.131882 248.0
134.15033 180.0
134.192932 228.0
134.236115 172.0
134.258484 128.0
134.272934 140.0
134.300217 144.0
134.318665 172.0
134.353271 324.0
134.385422 64.0
134.409012 228.0
134.452713 388.0
134.528656 204.0
134.56662 280.0
134.58638 104.0
134.614212 164.0
134.65834 200.0
134.761932 60.0
134.79245 132.0
134.82663 100.0
134.865921 156.0
134.899704 332.0
134.921402 68.0
134.944519 144.0
134.986725 128.0
135.016205 156.0
135.039337 176.0
135.062469 88.0
135.087677 152.0
135.111053 152.0
135.178146 176.0
135.229156 104.0
135.247589 140.0
135.277679 176.0
135.297852 328.0
135.335556 72.0
135.365906 256.0
135.430511 124.0
135.504639 188.0
135.544754 192.0
135.605469 172.0
135.654282 372.0
135.684341 160.0
135.707596 148.0
135.766708 132.0
135.796722 156.0
135.823181 136.0
135.847763 224.0
135.893723 128.0
135.922241 120.0
135.941849 232.0
135.983429 128.0
136.064392 140.0
136.089233 176.0
136.121643 208.0
136.151825 288.0
136.177368 180.0
136.204239 120.0
136.228485 232.0
136.289963 52.0
136.326172 140.0
136.346985 168.0
136.36174 80.0
136.395798 144.0
136.429306 124.0
136.471512 180.0
136.495758 116.0
136.567856 156.0
136.602386 204.0
136.627991 80.0
136.663239 204.0
136.695816 224.0
136.713333 252.0
136.740036 124.0
136.762512 208.0
136.799835 168.0
136.816849 208.0
136.863419 164.0
136.888138 292.0
136.919312 152.0
136.954254 156.0
136.970551 132.0
137.015518 120.0
137.059082 148.0
137.09729 192.0
137.106674 76.0
137.111481 148.0
137.135986 176.0
137.172028 364.0
137.232666 112.0
137.257217 44.0
137.284195 176.0
137.343323 284.0
137.386108 124.0
137.427994 188.0
137.445587 160.0
137.489105 180.0
137.611893 116.0
137.660202 192.0
137.679611 128.0
137.700623 192.0
137.740341 132.0
137.770706 104.0
137.794067 128.0
137.811356 272.0
137.84314 116.0
137.903244 240.0
137.923431 168.0
137.92981 144.0
137.997406 192.0
138.031143 176.0
138.047516 140.0
138.07692 212.0
138.10498 228.0
138.14241 148.0
138.217285 120.0
138.235031 144.0
138.271194 172.0
138.303162 144.0
138.343674 52.0
138.394272 176.0
138.420425 148.0
138.443024 56.0
138.484177 44.0
138.502792 160.0
138.521225 244.0
138.532867 264.0
138.591934 268.0
138.608337 212.0
138.67897 172.0
138.709122 108.0
138.730148 144.0
138.77504 332.0
138.812286 124.0
138.831528 212.0
138.863144 140.0
138.878143 148.0
138.964752 104.0
139.015533 168.0
139.052399 1252.0
139.14534 168.0
139.183044 116.0
139.201645 160.0
139.229691 292.0
139.246445 116.0
139.281784 96.0
139.304932 196.0
139.340408 164.0
139.361557 88.0
139.394455 176.0
139.417786 160.0
139.515564 152.0
139.529694 156.0
139.566055 208.0
139.596619 172.0
139.631897 124.0
139.656799 408.0
139.693054 120.0
139.719467 124.0
139.765991 168.0
139.782471 104.0
139.822464 168.0
139.889191 140.0
139.928116 136.0
139.945374 152.0
139.963715 140.0
139.987274 148.0
140.003754 128.0
140.022598 56.0
140.049728 3324.0
140.102875 148.0
140.19458 132.0
140.21579 160.0
140.288864 84.0
140.308975 172.0
140.359695 192.0
140.392654 180.0
140.465729 116.0
140.534149 136.0
140.556946 168.0
140.579208 280.0
140.595764 144.0
140.619736 148.0
140.65686 208.0
140.685196 120.0
140.713715 200.0
140.805618 120.0
140.843414 144.0
140.86467 160.0
140.926102 80.0
140.947357 128.0
140.999359 336.0
141.064316 3072.0
141.098633 220.0
141.126129 204.0
141.145248 140.0
141.169708 136.0
141.207596 160.0
141.25235 204.0
141.284012 168.0
141.322083 84.0
141.377319 176.0
141.403519 144.0
141.458862 180.0
141.503952 128.0
141.538727 128.0
141.576508 168.0
141.623672 180.0
141.646515 196.0
141.673737 244.0
141.702164 208.0
141.722092 92.0
141.755173 140.0
141.7733 292.0
141.815536 128.0
141.84198 144.0
141.868103 128.0
141.906494 160.0
141.934448 196.0
141.979324 200.0
142.020706 212.0
142.065414 16568.0
142.10141 524.0
142.160919 120.0
142.189056 396.0
142.221512 92.0
142.239746 112.0
142.267303 140.0
142.295166 300.0
142.343307 280.0
142.368439 168.0
142.375305 244.0
142.399155 132.0
142.427124 188.0
142.454056 220.0
142.5065 44.0
142.529175 68.0
142.558273 208.0
142.601547 148.0
142.712158 204.0
142.729935 60.0
142.762253 356.0
142.841461 372.0
142.895905 328.0
142.922607 380.0
142.958298 152.0
142.980453 232.0
142.996368 352.0
143.035309 404.0
143.073669 6012.0
143.142365 148.0
143.179703 112.0
143.214706 252.0
143.269989 128.0
143.289352 148.0
143.336075 168.0
143.339539 292.0
143.367905 56.0
143.403793 144.0
143.464493 184.0
143.483032 368.0
143.51033 216.0
143.582474 156.0
143.608719 164.0
143.632568 192.0
143.667465 208.0
143.722549 128.0
143.762787 76.0
143.784302 168.0
143.817688 224.0
143.872284 196.0
143.895081 104.0
143.949997 180.0
143.999283 204.0
144.028809 196.0
144.079803 15828.0
144.146423 160.0
144.17543 180.0
144.207153 44.0
144.255829 36.0
144.30603 52.0
144.328659 140.0
144.344299 200.0
144.361038 64.0
144.401947 256.0
144.412506 176.0
144.45192 200.0
144.472305 116.0
144.487915 340.0
144.511734 204.0
144.57634 108.0
144.597885 180.0
144.614639 140.0
144.633789 284.0
144.652878 148.0
144.693207 136.0
144.728516 180.0
144.753403 200.0
144.820557 184.0
144.839111 192.0
144.899445 116.0
144.945129 144.0
144.993057 52.0
145.018295 144.0
145.084702 2660.0
145.145096 200.0
145.170471 212.0
145.201645 56.0
145.224426 236.0
145.257385 184.0
145.274292 200.0
145.295578 128.0
145.326385 180.0
145.364777 180.0
145.394974 172.0
145.409271 112.0
145.439178 212.0
145.487961 216.0
145.518402 124.0
145.560059 220.0
145.606461 332.0
145.651337 228.0
145.711411 292.0
145.782639 92.0
145.809067 184.0
145.83551 156.0
145.853378 212.0
145.892853 220.0
145.912003 180.0
145.96701 160.0
146.003815 140.0
146.03508 192.0
146.063049 116.0
146.09108 496.0
146.119904 168.0
146.142685 296.0
146.163574 248.0
146.18277 164.0
146.21312 188.0
146.244614 276.0
146.272507 116.0
146.319916 152.0
146.352737 56.0
146.395218 132.0
146.41777 332.0
146.486313 140.0
146.528564 156.0
146.59845 96.0
146.624725 168.0
146.685928 388.0
146.731018 120.0
146.752716 164.0
146.769608 156.0
146.808182 104.0
146.829895 192.0
146.851593 112.0
146.88295 84.0
146.916733 188.0
146.952408 76.0
146.984283 176.0
147.051865 132.0
147.085968 336.0
147.126358 164.0
147.160309 360.0
147.189468 176.0
147.232941 176.0
147.259506 124.0
147.402039 32.0
147.440063 236.0
147.476959 72.0
147.493881 148.0
147.562759 180.0
147.604218 88.0
147.655884 140.0
147.677109 180.0
147.685944 140.0
147.742966 92.0
147.762314 36.0
147.798615 100.0
147.820618 212.0
147.851852 156.0
147.876053 64.0
147.905029 136.0
147.932541 112.0
147.9617 324.0
147.96611 196.0
148.001251 168.0
148.030991 132.0
148.055222 140.0
148.093964 68.0
148.121567 172.0
148.145721 168.0
148.174316 72.0
148.197128 172.0
148.237701 268.0
148.282959 56.0
148.314468 136.0
148.333862 264.0
148.387192 164.0
148.406586 68.0
148.428406 176.0
148.479767 92.0
148.498749 236.0
148.531342 152.0
148.559387 128.0
148.608612 208.0
148.615677 260.0
148.641876 140.0
148.663727 184.0
148.686218 148.0
148.707123 168.0
148.751099 96.0
148.776398 236.0
148.802078 124.0
148.836075 160.0
148.857925 156.0
148.874924 80.0
148.925934 76.0
148.983398 164.0
149.019653 208.0
149.051743 220.0
149.093582 92.0
149.11058 136.0
149.135895 68.0
149.160355 192.0
149.212677 328.0
149.273468 180.0
149.390167 176.0
149.521988 240.0
149.56543 144.0
149.582474 144.0
149.642242 224.0
149.692795 128.0
149.724564 156.0
149.748123 128.0
149.779175 184.0
149.80365 164.0
149.813751 136.0
149.84549 200.0
149.918594 76.0
149.942963 128.0
150.001465 152.0
150.045731 152.0
150.064041 156.0
150.108734 96.0
150.145325 40.0
150.177032 132.0
150.205566 120.0
150.228256 136.0
150.273697 192.0
150.342926 172.0
150.360016 152.0
150.384308 176.0
150.438126 140.0
150.481354 176.0
150.497833 200.0
150.543579 160.0
150.600677 184.0
150.687241 228.0
150.713348 192.0
150.770081 124.0
150.778503 92.0
150.78862 180.0
150.806976 124.0
150.828369 224.0
150.89743 156.0
150.917068 124.0
150.955521 164.0
150.987915 244.0
151.008759 140.0
151.024597 212.0
151.05043 444.0
151.081436 136.0
151.097336 120.0
151.124893 116.0
151.148087 92.0
151.164246 208.0
151.20076 48.0
151.222198 168.0
151.254608 92.0
151.297516 172.0
151.395615 176.0
151.470093 188.0
151.533798 144.0
151.551331 128.0
151.587692 380.0
151.648468 156.0
151.668579 168.0
151.72554 120.0
151.754379 160.0
151.775101 124.0
151.798615 336.0
151.830795 148.0
151.869644 120.0
151.917236 160.0
151.940521 148.0
151.980042 128.0
152.059601 4256.0
152.112579 240.0
152.142029 212.0
152.167145 192.0
152.2061 156.0
152.253418 188.0
152.281464 172.0
152.331909 176.0
152.373398 116.0
152.400681 104.0
152.435669 212.0
152.481506 216.0
152.51297 64.0
152.55722 124.0
152.608841 104.0
152.634735 136.0
152.697372 232.0
152.721298 148.0
152.763794 100.0
152.810532 196.0
152.828384 116.0
152.853638 128.0
152.894196 120.0
152.926193 148.0
152.94342 388.0
153.002502 104.0
153.019745 36.0
153.064438 2812.0
153.109879 132.0
153.131424 144.0
153.19252 52.0
153.349838 76.0
153.431183 76.0
153.505157 188.0
153.552078 156.0
153.603165 228.0
153.629608 96.0
153.656631 196.0
153.680557 76.0
153.717316 200.0
153.742874 244.0
153.789291 148.0
153.804031 164.0
153.865402 124.0
153.898529 348.0
153.921494 184.0
153.964172 180.0
153.992966 276.0
154.029068 148.0
154.064484 33928.0
154.108368 228.0
154.129807 164.0
154.158005 132.0
154.189377 52.0
154.218658 72.0
154.24585 92.0
154.263916 92.0
154.289902 192.0
154.313156 100.0
154.328491 184.0
154.344742 252.0
154.3638 68.0
154.407303 136.0
154.444656 172.0
154.465729 144.0
154.496277 60.0
154.527786 192.0
154.548874 172.0
154.567368 148.0
154.605789 132.0
154.648285 172.0
154.656921 172.0
154.664536 140.0
154.704407 184.0
154.719254 220.0
154.784729 180.0
154.802536 152.0
154.837143 144.0
154.856186 140.0
154.874359 48.0
154.909424 284.0
154.966339 220.0
155.010635 144.0
155.070251 7224.0
155.147995 104.0
155.171127 32.0
155.196548 132.0
155.269836 180.0
155.27858 100.0
155.286972 188.0
155.327988 40.0
155.354736 176.0
155.389999 156.0
155.41597 180.0
155.440552 292.0
155.470703 100.0
155.509583 212.0
155.543869 208.0
155.576141 192.0
155.604019 160.0
155.648148 128.0
155.675827 220.0
155.72673 216.0
155.735779 140.0
155.768463 136.0
155.795364 176.0
155.833664 196.0
155.86496 184.0
155.887466 364.0
155.919724 112.0
155.975708 128.0
156.002899 508.0
156.032928 204.0
156.080109 52252.0
156.135147 80.0
156.180969 376.0
156.232086 128.0
156.28511 100.0
156.315781 224.0
156.345779 284.0
156.387985 116.0
156.403732 336.0
156.435455 216.0
156.464249 124.0
156.487671 108.0
156.506851 224.0
156.530792 128.0
156.54213 248.0
156.550079 164.0
156.559921 120.0
156.592468 224.0
156.634201 176.0
156.657944 208.0
156.68721 64.0
156.712753 148.0
156.763702 284.0
156.778671 248.0
156.819809 104.0
156.82933 160.0
156.857224 204.0
156.900238 220.0
156.912064 120.0
156.921844 184.0
156.937302 320.0
156.956635 276.0
156.982956 132.0
157.015762 400.0
157.087982 117768.0
157.158249 108.0
157.185638 56.0
157.223129 148.0
157.245499 76.0
157.280151 172.0
157.303574 76.0
157.30722 204.0
157.332794 376.0
157.342163 292.0
157.350098 248.0
157.39122 112.0
157.413361 212.0
157.434662 120.0
157.47583 104.0
157.498291 644.0
157.53186 44.0
157.551056 112.0
157.579834 124.0
157.587296 108.0
157.596481 144.0
157.66217 168.0
157.687698 88.0
157.710999 140.0
157.728485 48.0
157.750992 176.0
157.7724 200.0
157.80632 300.0
157.855789 48.0
157.87529 152.0
157.91803 144.0
157.940277 92.0
157.987595 92.0
158.031372 144.0
158.093063 19096.0
158.159439 68.0
158.196686 164.0
158.220718 132.0
158.240616 180.0
158.278534 156.0
158.304611 152.0
158.328094 168.0
158.355942 152.0
158.370209 96.0
158.376419 64.0
158.406769 76.0
158.414642 144.0
158.424591 184.0
158.456436 96.0
158.488297 120.0
158.529404 132.0
158.548538 232.0
158.571854 192.0
158.609619 144.0
158.627167 164.0
158.660889 184.0
158.687958 80.0
158.719193 316.0
158.75032 260.0
158.785126 204.0
158.8293 136.0
158.858429 196.0
158.894241 168.0
158.939804 128.0
158.979233 72.0
158.998383 48.0
159.025375 164.0
159.06279 124.0
159.097855 1512.0
159.131424 72.0
159.149002 76.0
159.17923 108.0
159.217438 236.0
159.27182 380.0
159.309418 92.0
159.315536 92.0
159.362381 152.0
159.391052 100.0
159.418747 116.0
159.447952 52.0
159.478851 96.0
159.515808 264.0
159.533417 332.0
159.561066 72.0
159.581177 180.0
159.614532 76.0
159.67926 196.0
159.702774 208.0
159.719498 140.0
159.74968 80.0
159.782211 56.0
159.817612 172.0
159.845383 208.0
159.910721 40.0
159.938721 232.0
160.00386 108.0
160.045151 172.0
160.074524 1392.0
160.10054 164.0
160.137039 140.0
160.177261 60.0
160.203552 124.0
160.217422 116.0
160.270844 60.0
160.296494 68.0
160.332657 84.0
160.36409 212.0
160.391815 140.0
160.424591 160.0
160.442245 128.0
160.477982 168.0
160.507797 60.0
160.538055 156.0
160.604187 108.0
160.649033 36.0
160.666702 128.0
160.685867 188.0
160.695709 112.0
160.762451 164.0
160.792557 132.0
160.817169 184.0
160.845871 44.0
160.903931 104.0
160.941803 72.0
160.993744 220.0
161.026367 216.0
161.046707 148.0
161.078186 116.0
161.118698 120.0
161.161743 156.0
161.191879 168.0
161.21463 136.0
161.261032 112.0
161.309082 108.0
161.33342 84.0
161.377991 160.0
161.405396 120.0
161.427338 140.0
161.462387 136.0
161.487671 160.0
161.553452 160.0
161.619232 152.0
161.647064 176.0
161.687561 116.0
161.710327 160.0
161.758423 80.0
161.783737 192.0
161.882751 220.0
161.940567 56.0
161.987518 112.0
162.049667 136.0
162.067413 280.0
162.092636 136.0
162.173065 248.0
162.209335 140.0
162.242294 88.0
162.310745 188.0
162.338638 136.0
162.421524 124.0
162.519745 164.0
162.580338 196.0
162.608765 188.0
162.653259 80.0
162.671021 56.0
162.700256 124.0
162.718231 292.0
162.746536 124.0
162.874176 152.0
162.965637 136.0
163.028687 192.0
163.064743 196.0
163.094559 116.0
163.123199 120.0
163.143463 156.0
163.198471 172.0
163.265594 108.0
163.306061 180.0
163.387695 104.0
163.413132 216.0
163.484375 212.0
163.524536 160.0
163.570923 116.0
163.591278 120.0
163.660019 148.0
163.705856 28.0
163.761887 88.0
163.812836 184.0
163.830673 152.0
163.878799 124.0
163.941101 148.0
163.963165 72.0
163.996048 160.0
164.033722 188.0
164.053848 132.0
164.085526 164.0
164.10437 156.0
164.149277 128.0
164.202393 148.0
164.248749 68.0
164.271698 116.0
164.332932 212.0
164.399277 84.0
164.433655 136.0
164.475845 152.0
164.493713 104.0
164.570312 96.0
164.596848 264.0
164.650253 220.0
164.719437 172.0
164.778595 160.0
164.84491 184.0
164.94075 136.0
164.986771 208.0
165.008072 132.0
165.067871 2992.0
165.114609 220.0
165.164948 212.0
165.214371 252.0
165.234848 60.0
165.26503 216.0
165.306488 164.0
165.332077 156.0
165.352554 44.0
165.389633 144.0
165.419418 128.0
165.488892 184.0
165.55481 56.0
165.699234 252.0
165.721313 188.0
165.739456 96.0
165.762314 196.0
165.791138 144.0
165.828949 100.0
165.862045 116.0
165.919296 164.0
165.959946 164.0
166.017853 152.0
166.063583 2420.0
166.113815 128.0
166.158173 52.0
166.189148 148.0
166.216812 100.0
166.235825 268.0
166.291107 168.0
166.318085 160.0
166.333435 284.0
166.387909 80.0
166.413849 164.0
166.434387 156.0
166.54248 136.0
166.579376 172.0
166.619308 140.0
166.653915 112.0
166.674667 184.0
166.689972 200.0
166.74115 172.0
166.759369 152.0
166.831787 192.0
166.86348 208.0
166.905472 132.0
166.94252 184.0
166.984344 172.0
167.002731 296.0
167.029358 248.0
167.072556 58284.0
167.157898 76.0
167.189713 76.0
167.243774 240.0
167.265457 156.0
167.283508 196.0
167.316132 268.0
167.356888 200.0
167.390396 140.0
167.41748 108.0
167.448624 92.0
167.473373 164.0
167.496292 112.0
167.543488 204.0
167.627472 172.0
167.651154 344.0
167.676849 184.0
167.706909 132.0
167.733627 68.0
167.77182 192.0
167.807526 172.0
167.870239 420.0
167.920807 108.0
167.961319 268.0
168.000183 268.0
168.020599 108.0
168.079834 77960.0
168.137787 52.0
168.148331 36.0
168.173859 72.0
168.215378 196.0
168.221619 236.0
168.266617 184.0
168.293732 200.0
168.313538 208.0
168.338242 288.0
168.369446 104.0
168.390823 92.0
168.415756 96.0
168.447571 60.0
168.469681 100.0
168.505402 204.0
168.560699 176.0
168.584137 48.0
168.606049 124.0
168.624802 208.0
168.652328 244.0
168.720871 180.0
168.752914 88.0
168.773819 228.0
168.790161 180.0
168.824127 136.0
168.865936 184.0
168.883209 60.0
168.893234 108.0
168.922318 212.0
168.942184 44.0
168.987808 336.0
169.038666 384.0
169.087112 49368.0
169.144531 160.0
169.165344 116.0
169.215393 184.0
169.245117 220.0
169.281143 108.0
169.319244 108.0
169.341797 96.0
169.361984 100.0
169.403671 148.0
169.451431 172.0
169.480362 276.0
169.511429 120.0
169.54895 208.0
169.579193 164.0
169.636749 52.0
169.713745 160.0
169.764862 300.0
169.793991 52.0
169.830002 160.0
169.871628 228.0
169.88063 164.0
169.90593 68.0
169.935822 160.0
169.959518 136.0
169.980927 120.0
170.018326 244.0
170.044266 112.0
170.0952 30204.0
170.189255 180.0
170.246719 152.0
170.253525 84.0
170.287521 136.0
170.30835 172.0
170.343948 216.0
170.364532 180.0
170.391144 132.0
170.427719 172.0
170.433487 260.0
170.458374 152.0
170.498718 60.0
170.53093 88.0
170.573349 48.0
170.61235 44.0
170.635742 136.0
170.664154 160.0
170.685013 312.0
170.709061 244.0
170.735977 140.0
170.760437 76.0
170.776306 160.0
170.807388 160.0
170.825592 60.0
170.905548 164.0
170.934875 92.0
170.981949 160.0
170.999527 116.0
171.01619 188.0
171.052307 188.0
171.096832 3764.0
171.137604 336.0
171.162888 88.0
171.182175 80.0
171.206665 236.0
171.230362 112.0
171.282349 104.0
171.305893 168.0
171.330536 96.0
171.403305 320.0
171.432266 92.0
171.452316 52.0
171.468506 396.0
171.514023 76.0
171.532822 116.0
171.606232 168.0
171.63559 88.0
171.694962 208.0
171.723022 148.0
171.770538 304.0
171.812958 48.0
171.856888 176.0
171.888184 156.0
171.967834 148.0
171.987793 144.0
172.110016 3204.0
172.209091 72.0
172.238144 180.0
172.282883 104.0
172.327301 124.0
172.350815 100.0
172.376495 92.0
172.39473 104.0
172.423843 180.0
172.439468 176.0
172.468414 144.0
172.486053 96.0
172.517258 76.0
172.56514 240.0
172.612213 120.0
172.656662 72.0
172.687012 180.0
172.727722 116.0
172.783203 140.0
172.812881 184.0
172.89061 104.0
172.931015 112.0
172.949707 172.0
172.973267 52.0
173.013901 176.0
173.079239 364.0
173.11351 264.0
173.170029 164.0
173.212967 172.0
173.308502 152.0
173.369827 168.0
173.423386 116.0
173.461807 156.0
173.491959 60.0
173.539154 128.0
173.581116 52.0
173.615204 40.0
173.650223 248.0
173.741104 140.0
173.790955 52.0
173.874939 116.0
173.969421 204.0
173.992157 140.0
174.035065 204.0
174.09166 196.0
174.114838 180.0
174.130875 148.0
174.171631 72.0
174.226791 200.0
174.274094 172.0
174.29248 248.0
174.332947 240.0
174.377792 112.0
174.410751 288.0
174.439117 156.0
174.502762 340.0
174.535965 244.0
174.577698 144.0
174.63504 132.0
174.694748 100.0
174.726318 128.0
174.744736 52.0
174.763153 136.0
174.815781 52.0
174.874222 212.0
174.963181 224.0
175.057159 296.0
175.088516 116.0
175.095917 188.0
175.12645 188.0
175.168594 140.0
175.192307 144.0
175.229187 308.0
175.262924 164.0
175.307465 176.0
175.390289 392.0
175.409714 104.0
175.484848 96.0
175.651001 104.0
175.82515 172.0
175.920395 184.0
175.960968 148.0
175.983536 192.0
176.012177 80.0
176.054825 32.0
176.089157 120.0
176.123505 84.0
176.155197 180.0
176.204041 156.0
176.231812 172.0
176.258835 252.0
176.319016 184.0
176.348099 100.0
176.374527 148.0
176.400955 204.0
176.426071 136.0
176.454788 112.0
176.492081 120.0
176.522583 208.0
176.626892 200.0
176.689224 180.0
176.744781 184.0
176.7686 124.0
176.828201 188.0
176.866531 108.0
176.90094 200.0
176.940659 160.0
176.988403 120.0
177.067413 240.0
177.071213 236.0
177.097656 112.0
177.343307 160.0
177.491776 88.0
177.512985 140.0
177.546371 156.0
177.579727 208.0
177.60051 128.0
177.635605 176.0
177.714096 192.0
177.773483 124.0
177.802353 164.0
177.85524 212.0
177.88179 108.0
177.950806 164.0
177.979523 108.0
178.001694 124.0
178.074432 1444.0
178.108978 144.0
178.139374 148.0
178.176575 76.0
178.285507 156.0
178.328033 156.0
178.349304 192.0
178.383865 108.0
178.410446 108.0
178.511475 132.0
178.577972 100.0
178.609726 192.0
178.643494 120.0
178.687714 220.0
178.726944 212.0
178.777267 180.0
178.804123 196.0
178.83606 48.0
178.860016 84.0
178.964645 156.0
179.043274 164.0
179.082199 916.0
179.112106 216.0
179.142288 196.0
179.165375 232.0
179.224503 140.0
179.245422 188.0
179.2995 40.0
179.334656 212.0
179.37146 156.0
179.402542 140.0
179.443451 188.0
179.464111 332.0
179.499435 96.0
179.530853 220.0
179.56015 188.0
179.592789 56.0
179.626038 188.0
179.65947 144.0
179.696823 216.0
179.722137 120.0
179.773727 176.0
179.79129 180.0
179.863327 144.0
179.889511 204.0
179.96907 224.0
179.99147 144.0
180.026794 208.0
180.079742 24280.0
180.168915 196.0
180.219788 200.0
180.252228 56.0
180.303146 192.0
180.329422 176.0
180.370346 40.0
180.398727 64.0
180.435654 96.0
180.464783 88.0
180.529037 268.0
180.53624 148.0
180.584351 104.0
180.649719 360.0
180.669876 236.0
180.698761 128.0
180.72551 96.0
180.747101 180.0
180.792007 160.0
180.827118 64.0
180.844315 324.0
180.879547 116.0
180.899841 164.0
180.929153 124.0
180.978363 52.0
181.020264 92.0
181.087173 22116.0
181.127899 268.0
181.169952 84.0
181.200043 52.0
181.21846 192.0
181.245956 148.0
181.26976 176.0
181.308853 196.0
181.365326 128.0
181.382233 220.0
181.403107 180.0
181.429657 120.0
181.483536 192.0
181.546616 160.0
181.585999 196.0
181.635452 176.0
181.670395 240.0
181.722473 148.0
181.769119 172.0
181.837326 132.0
181.868195 392.0
181.939362 160.0
181.969757 144.0
182.018051 224.0
182.048096 644.0
182.09584 123444.0
182.157486 224.0
182.191986 208.0
182.231674 148.0
182.263458 56.0
182.290436 132.0
182.338898 164.0
182.37056 104.0
182.397354 196.0
182.424118 84.0
182.430817 124.0
182.452896 192.0
182.476074 152.0
182.485596 100.0
182.49469 172.0
182.519867 244.0
182.537231 724.0
182.562164 172.0
182.600113 204.0
182.609573 228.0
182.657181 92.0
182.691956 120.0
182.731995 320.0
182.765259 120.0
182.798508 128.0
182.831314 88.0
182.85495 88.0
182.887253 252.0
182.912811 144.0
182.932953 124.0
182.953201 160.0
182.981247 124.0
183.003448 180.0
183.044846 96.0
183.101471 36860.0
183.154129 208.0
183.18338 76.0
183.218018 128.0
183.254623 48.0
183.27388 144.0
183.307983 168.0
183.330154 256.0
183.367844 60.0
183.411591 168.0
183.458328 180.0
183.498978 152.0
183.518585 236.0
183.539658 104.0
183.561996 260.0
183.597885 404.0
183.619934 120.0
183.633484 164.0
183.665131 156.0
183.706192 88.0
183.711884 200.0
183.717346 88.0
183.73053 92.0
183.762604 196.0
183.774612 140.0
183.783951 232.0
183.802734 136.0
183.842377 172.0
183.868713 176.0
183.891968 372.0
183.90947 316.0
183.943054 304.0
183.968613 232.0
183.987595 148.0
184.032822 504.0
184.04425 316.0
184.111847 274560.0
184.194138 192.0
184.220139 76.0
184.229507 108.0
184.242905 128.0
184.249619 136.0
184.279602 84.0
184.296982 76.0
184.316086 172.0
184.335068 360.0
184.343918 244.0
184.362579 228.0
184.38913 164.0
184.417892 248.0
184.452164 216.0
184.470139 184.0
184.527039 572.0
184.555878 3096.0
184.591812 144.0
184.622971 368.0
184.648392 300.0
184.679077 192.0
184.684937 60.0
184.701965 116.0
184.713852 160.0
184.726074 180.0
184.729736 108.0
184.77478 192.0
184.782761 156.0
184.795074 116.0
184.832214 68.0
184.872726 76.0
184.911774 168.0
184.942337 136.0
184.968414 312.0
184.99324 48.0
185.017151 132.0
185.050659 176.0
185.115952 61996.0
185.177826 140.0
185.212234 236.0
185.231461 76.0
185.311203 112.0
185.334259 96.0
185.383331 104.0
185.440475 252.0
185.499359 88.0
185.533997 284.0
185.574631 76.0
185.617935 64.0
185.639542 96.0
185.691879 48.0
185.735886 44.0
185.762085 164.0
185.789536 88.0
185.819977 92.0
185.856003 56.0
185.889725 144.0
185.929886 156.0
185.950806 180.0
185.986511 148.0
186.030136 136.0
186.08432 224.0
186.118088 5204.0
186.20285 84.0
186.240936 92.0
186.259018 216.0
186.294357 44.0
186.329834 88.0
186.365295 148.0
186.404419 164.0
186.437057 196.0
186.460373 364.0
186.48111 156.0
186.500961 200.0
186.512527 104.0
186.526718 140.0
186.570847 212.0
186.616547 112.0
186.637451 116.0
186.681458 104.0
186.699585 60.0
186.729126 112.0
186.755249 44.0
186.785919 204.0
186.819397 48.0
186.837265 80.0
186.900269 148.0
186.934814 48.0
186.958618 112.0
186.990677 68.0
187.02623 200.0
187.045303 80.0
187.075378 136.0
187.123825 464.0
187.209763 56.0
187.23877 120.0
187.261505 96.0
187.288742 64.0
187.315903 124.0
187.323517 120.0
187.342804 180.0
187.386826 176.0
187.410492 80.0
187.452209 100.0
187.492447 116.0
187.554443 88.0
187.580322 344.0
187.653931 88.0
187.683762 136.0
187.705948 52.0
187.730377 100.0
187.817352 56.0
187.833527 56.0
187.855743 92.0
187.904846 60.0
187.93486 28.0
188.040222 124.0
188.059586 108.0
188.128647 108.0
188.160538 76.0
188.240585 92.0
188.281326 48.0
188.317062 36.0
188.423599 108.0
188.456375 104.0
188.511032 184.0
188.571152 32.0
188.628098 48.0
188.688705 80.0
188.732452 44.0
188.765259 148.0
189.075211 188.0
189.255081 100.0
189.323532 60.0
189.364624 180.0
189.430359 112.0
189.482407 48.0
189.515289 36.0
189.542694 40.0
189.638611 124.0
189.679733 76.0
189.698914 92.0
189.918289 120.0
189.975891 72.0
190.033508 44.0
190.066437 140.0
190.296997 40.0
190.357407 100.0
190.456284 36.0
190.571671 56.0
190.607391 108.0
190.648605 92.0
190.75856 104.0
190.80751 104.0
190.997787 56.0
191.019791 96.0
191.072769 516.0
191.132599 176.0
191.171127 60.0
191.253265 52.0
191.27771 116.0
191.32251 140.0
191.416122 124.0
191.449173 56.0
191.57312 108.0
191.652145 76.0
191.704285 120.0
191.730179 96.0
191.781311 80.0
191.854218 136.0
191.88179 40.0
191.931427 96.0
192.009598 116.0
192.077469 1500.0
192.21051 92.0
192.315338 152.0
192.366119 100.0
192.39772 112.0
192.426331 120.0
192.469498 72.0
192.549591 152.0
192.574448 28.0
192.622513 188.0
192.628159 144.0
192.638474 176.0
192.662842 140.0
192.698761 152.0
192.7836 112.0
192.800812 160.0
192.853516 40.0
192.908798 100.0
193.041519 104.0
193.088486 2752.0
193.152145 112.0
193.17981 48.0
193.204712 48.0
193.235977 128.0
193.321716 84.0
193.462082 140.0
193.482971 128.0
193.597763 100.0
193.655914 84.0
193.675308 32.0
193.694702 160.0
193.723373 88.0
193.751923 84.0
193.771683 56.0
193.793289 136.0
193.826843 164.0
193.930222 52.0
193.986115 148.0
194.047256 196.0
194.095642 19708.0
194.149261 276.0
194.207504 56.0
194.237579 76.0
194.263809 124.0
194.290726 56.0
194.315689 56.0
194.354355 108.0
194.420059 92.0
194.496719 52.0
194.531586 116.0
194.596024 132.0
194.62616 348.0
194.67099 44.0
194.693207 96.0
194.731491 184.0
194.766983 96.0
194.832092 52.0
194.865707 120.0
194.90712 92.0
194.934906 56.0
194.957138 200.0
195.037064 228.0
195.068161 148.0
195.102524 15652.0
195.167343 124.0
195.217697 148.0
195.254608 184.0
195.313232 104.0
195.402039 112.0
195.436462 108.0
195.456833 52.0
195.484772 120.0
195.530045 140.0
195.614288 60.0
195.669067 108.0
195.716568 240.0
195.785034 156.0
195.805679 156.0
195.853027 132.0
195.889236 48.0
195.91153 52.0
195.954254 164.0
196.025497 192.0
196.051163 144.0
196.1091 9096.0
196.173492 64.0
196.235428 148.0
196.26709 228.0
196.311127 132.0
196.332428 112.0
196.363098 56.0
196.382629 56.0
196.431732 68.0
196.462341 132.0
196.511581 88.0
196.541519 100.0
196.622421 72.0
196.636276 92.0
196.640198 88.0
196.723053 100.0
196.779083 176.0
196.800003 128.0
196.840317 212.0
196.874359 240.0
196.898972 44.0
196.93248 92.0
197.011353 80.0
197.052612 116.0
197.114319 2224.0
197.150406 152.0
197.192337 36.0
197.217484 124.0
197.306946 80.0
197.329071 48.0
197.354889 136.0
197.411713 264.0
197.483124 84.0
197.519485 40.0
197.55864 132.0
197.606201 40.0
197.628586 168.0
197.652725 64.0
197.65831 116.0
197.704147 76.0
197.744476 252.0
197.782516 60.0
197.852493 64.0
197.873322 100.0
197.902893 164.0
197.922501 144.0
197.999969 216.0
198.019073 156.0
198.059723 140.0
198.126221 42756.0
198.175522 96.0
198.202545 116.0
198.232635 56.0
198.252747 188.0
198.278137 48.0
198.355972 116.0
198.392151 204.0
198.420395 80.0
198.439896 196.0
198.465958 84.0
198.513763 76.0
198.549103 60.0
198.589493 92.0
198.616364 124.0
198.636429 208.0
198.690826 168.0
198.725403 80.0
198.752213 68.0
198.782074 124.0
198.888214 104.0
198.973938 96.0
199.002014 88.0
199.044144 176.0
199.129288 5928.0
199.220322 44.0
199.250641 176.0
199.319427 52.0
199.400925 40.0
199.440277 44.0
199.539932 44.0
199.597717 60.0
199.625839 76.0
199.653961 80.0
199.686203 60.0
199.74115 208.0
199.784286 60.0
199.864944 64.0
199.893082 80.0
199.99762 56.0
200.084473 212.0
200.140137 1964.0
200.178391 136.0
200.226578 52.0
200.304138 80.0
200.476013 136.0
200.495743 80.0
200.51828 60.0
200.571838 116.0
200.683594 200.0
200.704346 68.0
200.752289 56.0
200.78331 44.0
200.834076 80.0
201.073837 536.0
201.140259 292.0
201.311966 124.0
201.440979 120.0
201.614685 108.0
201.631516 92.0
201.896042 68.0
201.93309 200.0
202.078552 116.0
202.102554 132.0
202.345963 36.0
202.374283 148.0
202.416748 36.0
202.487549 100.0
202.527206 176.0
202.77655 52.0
202.981613 60.0
203.023193 60.0
203.380692 148.0
203.51413 76.0
203.536835 76.0
203.599319 104.0
203.789642 44.0
204.051132 60.0
204.11937 196.0
204.213226 68.0
204.571762 48.0
204.85939 104.0
204.924911 72.0
204.9991 112.0
205.438095 136.0
205.52655 80.0
205.797714 68.0
205.874817 132.0
206.099808 152.0
206.29483 80.0
206.340576 116.0
206.412064 76.0
206.549347 100.0
206.678085 116.0
206.878433 48.0
207.100952 380.0
207.253632 68.0
207.388321 140.0
207.454254 128.0
207.550186 104.0
207.735291 76.0
207.792679 116.0
207.890228 28.0
207.936157 116.0
208.007904 152.0
208.030869 76.0
208.110062 6040.0
208.172745 204.0
208.277832 148.0
208.346985 56.0
208.398499 76.0
208.421478 104.0
208.450211 88.0
208.514023 216.0
208.743439 76.0
208.918884 60.0
209.016708 36.0
209.112335 1624.0
209.279678 112.0
209.3564 68.0
209.441483 52.0
209.503296 120.0
209.678909 140.0
209.791489 44.0
209.892395 124.0
209.971161 192.0
210.045258 120.0
210.084427 132.0
210.126633 30052.0
210.190292 136.0
210.27771 56.0
210.372864 84.0
210.415787 92.0
210.447372 60.0
210.50647 240.0
210.548981 124.0
210.717911 64.0
210.764145 88.0
210.801712 84.0
210.882629 40.0
210.911545 48.0
210.943329 108.0
211.008728 148.0
211.032959 108.0
211.054947 108.0
211.128265 4524.0
211.169418 176.0
211.241196 72.0
211.342529 144.0
211.432159 52.0
211.504257 44.0
211.565308 52.0
211.594269 84.0
211.631897 136.0
211.681122 72.0
211.707199 64.0
211.759323 96.0
211.802765 40.0
211.860703 52.0
211.925583 164.0
212.041382 136.0
212.128616 2760.0
212.177963 68.0
212.208496 160.0
212.36084 120.0
212.550568 56.0
212.58725 80.0
212.653915 148.0
212.698792 152.0
212.777176 60.0
212.867188 140.0
212.910736 48.0
212.931076 92.0
213.124527 376.0
213.285553 64.0
213.715973 96.0
213.835297 64.0
214.044907 52.0
214.132401 184.0
214.385727 64.0
214.444031 76.0
214.581039 48.0
214.753098 84.0
214.904785 72.0
214.927155 84.0
215.085724 192.0
215.722549 92.0
215.801483 100.0
216.101776 108.0
216.231506 88.0
216.594589 80.0
216.7733 72.0
216.949173 32.0
216.981415 52.0
217.524155 48.0
217.797241 64.0
218.74411 52.0
218.879532 68.0
219.811035 188.0
220.874649 108.0
221.309708 160.0
221.786667 108.0
222.038696 112.0
222.739182 76.0
223.057144 36.0
223.116592 212.0
223.182007 164.0
223.476486 136.0
224.137512 136.0
224.832352 96.0
225.086304 112.0
225.137451 576.0
225.331024 44.0
225.755478 48.0
225.812302 52.0
226.140488 192.0
226.770416 176.0
226.809387 148.0
226.860352 152.0
227.025253 124.0
227.058243 172.0
227.107025 152.0
227.153091 14448.0
227.274246 72.0
227.337067 64.0
227.359268 72.0
227.394287 40.0
227.421295 44.0
227.472321 68.0
227.598419 64.0
227.71254 64.0
227.874756 56.0
227.979935 180.0
228.052063 76.0
228.076111 80.0
228.157211 1516.0
228.301605 40.0
228.662628 140.0
229.096237 48.0
229.160095 336.0
229.699158 144.0
229.831909 72.0
229.859055 104.0
230.595947 40.0
230.656403 68.0
230.8862 52.0
230.943665 56.0
231.464203 52.0
231.958054 136.0
232.203659 92.0
232.749908 60.0
232.859238 68.0
234.438232 40.0
234.816284 40.0
236.738632 52.0
238.54277 96.0
238.62886 80.0
238.837982 84.0
239.610672 68.0
240.2612 48.0
240.643906 104.0
241.113449 72.0
241.209274 120.0
241.490646 56.0
242.267624 80.0
243.421448 60.0
244.341507 100.0
244.413071 104.0
244.508713 76.0
245.547028 56.0
246.375854 176.0
247.597275 68.0
248.550293 72.0
248.986649 92.0
249.162552 28.0
249.363663 96.0
249.907715 44.0
250.159485 48.0
250.814713 40.0
251.988693 36.0
252.519775 28.0
252.757034 36.0
254.449631 60.0
256.166962 108.0
257.072479 120.0
257.401306 112.0
257.813385 60.0
258.30899 36.0
258.856293 100.0
259.368896 80.0
259.477905 68.0
259.654266 104.0
259.99115 76.0
260.180542 104.0
260.694458 144.0
260.784454 40.0
261.196014 32.0
261.440552 128.0
261.756042 52.0
262.769836 116.0
263.307251 144.0
263.552765 64.0
264.626617 48.0
266.735352 76.0
267.128845 80.0
267.281769 64.0
267.535645 68.0
271.843628 60.0
272.102966 76.0
274.310455 40.0
275.306885 60.0
276.516937 60.0
276.715546 36.0
278.101257 116.0
279.447144 52.0
279.716736 32.0
280.236267 80.0
280.519531 120.0
280.85968 68.0
281.029816 92.0
281.366913 60.0
282.73407 64.0
284.128021 112.0
284.332733 152.0
285.074921 40.0
285.760895 72.0
286.366669 72.0
286.75769 96.0
287.98584 32.0
288.6922 60.0
289.690704 120.0
289.727966 144.0
290.154999 100.0
290.75882 56.0
290.908173 92.0
291.696289 84.0
291.733673 60.0
291.998901 56.0
292.938354 76.0
293.170074 48.0
293.998779 104.0
294.101166 56.0
294.70224 52.0
295.307312 108.0
295.563904 60.0
295.74527 100.0
296.159607 64.0
296.632477 48.0
297.836914 28.0
297.936554 76.0
298.7995 84.0
299.126434 96.0
299.326111 80.0
300.542908 164.0
300.91568 124.0
301.105621 120.0
301.496033 108.0
301.903961 64.0
302.018097 104.0
302.447174 92.0
303.503845 48.0
304.30188 44.0
304.467682 64.0
304.840271 76.0
305.163544 108.0
305.688812 68.0
306.183167 96.0
308.748322 40.0
309.871979 32.0
310.190918 64.0
311.608734 52.0
312.153564 32.0
312.188721 112.0
312.29071 108.0
312.473663 124.0
313.205902 52.0
316.564728 56.0
317.667023 44.0
318.249084 76.0
318.295227 40.0
318.867218 96.0
319.4646 56.0
319.934357 32.0
320.044708 68.0
320.842804 64.0
320.867767 48.0
320.896301 32.0
320.921265 124.0
321.046051 76.0
321.699036 88.0
322.381226 92.0
323.912598 40.0
325.056305 60.0
326.414185 56.0
326.518463 92.0
327.097778 68.0
328.297577 76.0
329.077026 92.0
329.823761 108.0
331.268677 60.0
331.64917 64.0
332.203979 88.0
332.349121 104.0
332.882721 112.0
333.086121 64.0
333.609406 52.0
334.58075 64.0
335.429565 92.0
336.027679 72.0
336.597076 80.0
339.018799 72.0
339.092102 100.0
339.3414 104.0
340.269653 52.0
341.48233 64.0
341.680969 64.0
343.16156 64.0
343.615234 100.0
343.729614 64.0
343.784973 68.0
344.918854 56.0
345.192444 60.0
346.376831 28.0
346.676941 68.0
347.448181 68.0
347.83786 68.0
348.595551 56.0
349.316833 88.0
350.277252 56.0
350.776611 56.0
354.435577 108.0
354.652954 64.0
355.024109 56.0
355.260437 56.0
355.834625 68.0
356.909241 64.0
357.063446 68.0
357.921448 112.0
358.761658 44.0
359.048248 84.0
359.508514 36.0
360.641571 52.0
361.85968 76.0
361.950562 40.0
363.884338 88.0
364.704895 88.0
366.085999 56.0
366.287842 76.0
366.989105 84.0
367.149261 112.0
367.820801 84.0
368.267548 48.0
369.016571 88.0
369.299561 80.0
369.83905 68.0
370.754456 84.0
371.720856 88.0
373.361237 76.0
373.707458 64.0
374.034576 92.0
374.200104 60.0
374.79715 60.0
377.379425 100.0
377.588226 100.0
377.986694 48.0
378.575134 104.0
378.730042 132.0
379.187256 88.0
379.501251 72.0
384.418091 64.0
385.109131 80.0
386.860992 60.0
387.123322 80.0
387.773651 52.0
388.204926 112.0
388.656036 28.0
393.904175 76.0
394.406006 64.0
395.786743 140.0
396.674225 56.0
397.312714 88.0
397.721436 32.0
399.459442 80.0
400.990967 76.0
401.616943 108.0
401.784485 32.0
405.711823 48.0
406.626404 56.0
409.912109 60.0
411.65448 96.0
412.139557 72.0
412.418396 36.0
414.036804 96.0
414.883698 152.0
417.72641 52.0
418.515991 116.0
419.363342 72.0
419.718018 140.0
427.941803 28.0
430.02774 40.0
430.832977 40.0
432.383606 80.0
433.878967 60.0
433.90799 120.0
437.372681 116.0
439.364624 48.0
439.756897 56.0
441.708252 128.0
442.323395 60.0
442.867737 108.0
444.082886 132.0
445.035889 76.0
446.132477 88.0
449.303711 76.0
450.802673 80.0
450.84494 76.0
453.557983 28.0
454.011658 100.0
455.892365 92.0
459.43927 64.0
460.288635 100.0
460.579071 72.0
461.100342 112.0
461.41452 88.0
463.934052 52.0
464.736084 60.0
465.452911 52.0
470.304932 64.0
474.835052 68.0
474.882782 104.0
476.215271 152.0
476.436829 48.0
478.354645 104.0
480.38974 100.0
485.323181 88.0
485.546844 40.0
488.225861 92.0
489.369965 48.0
490.19809 104.0
498.171234 68.0
499.122375 84.0
499.589386 56.0
500.795715 100.0
502.119476 56.0
504.012299 120.0
505.58194 80.0
507.16745 72.0
507.853485 44.0
509.24942 132.0
520.776428 36.0
521.217102 100.0
527.845032 32.0
529.721558 68.0
534.9245 168.0
538.507385 128.0
542.625916 52.0
543.19635 48.0
546.448425 40.0
547.193115 136.0
548.525513 64.0
548.781921 96.0
548.875183 108.0
549.896851 140.0
552.214294 88.0
554.157043 136.0
554.264832 84.0
554.822571 128.0
556.028137 104.0
556.774597 104.0
556.86853 80.0
557.516907 84.0
557.756592 60.0
562.349121 52.0
563.992859 72.0
564.957581 72.0
567.44873 52.0
567.505615 80.0
570.83429 112.0
571.505005 68.0
572.014282 80.0
572.409424 56.0
573.447998 72.0
581.032288 108.0
584.573547 124.0
585.204102 80.0
585.40155 48.0
586.659119 72.0
588.84021 68.0
594.247498 36.0
595.247375 64.0
604.343262 48.0
605.738525 100.0
609.526184 56.0
617.324829 28.0
618.591492 112.0
620.80127 108.0
624.516296 116.0
625.108337 44.0
626.18866 160.0
629.270508 88.0
629.46521 72.0
630.639282 92.0
643.000122 52.0
643.282776 72.0
643.34845 36.0
644.368591 28.0
646.568298 120.0
650.841797 92.0
653.912354 248.0
656.153748 40.0
658.700317 44.0
661.482178 200.0
661.727905 44.0
662.788208 88.0
664.613647 132.0
675.748413 132.0
678.234192 64.0
678.565979 80.0
679.198669 36.0
680.605103 116.0
689.225952 40.0
691.092651 88.0
694.859863 44.0
696.019836 104.0
696.618591 92.0
699.468811 76.0
703.005371 128.0
704.906494 104.0
706.625 52.0
707.058899 52.0
712.44104 64.0
717.987488 148.0
718.382202 84.0
718.670349 36.0
720.827576 88.0
721.126892 60.0
732.987488 76.0
735.619507 128.0
736.278259 56.0
737.894958 244.0
740.572693 52.0
740.886902 96.0
743.614441 112.0
745.841431 88.0
747.407715 104.0
749.498718 60.0
751.603516 56.0
756.183167 124.0
756.544434 116.0
757.853394 64.0
761.440552 40.0
761.556458 176.0
761.853088 64.0
762.116821 212.0
762.523499 192.0
763.37561 48.0
765.411682 76.0
765.995544 104.0
766.215881 108.0
777.407593 72.0
782.365662 116.0
783.033875 72.0
785.218689 48.0
786.697388 56.0
788.04895 92.0
796.834351 176.0
798.093384 68.0
803.145081 152.0
806.527405 76.0
807.386841 148.0
809.644958 148.0
811.407288 200.0
813.602905 108.0
815.108032 32.0
818.133972 32.0
823.722656 168.0
824.236877 108.0
824.299744 108.0
825.43158 184.0
826.066467 176.0
829.714478 28.0
833.203918 104.0
834.416626 104.0
835.210266 176.0
835.342529 112.0
835.733765 68.0
836.689209 104.0
840.435608 248.0
841.561157 84.0
844.820862 140.0
845.897217 124.0
848.527405 116.0
848.904297 184.0
851.684387 104.0
851.725037 60.0
854.870483 196.0
858.447327 112.0
858.738953 48.0
860.425415 136.0
860.711548 56.0
861.155334 60.0
862.294678 100.0
862.440796 60.0
862.592834 100.0
863.662903 44.0
864.072388 156.0
865.75238 184.0
866.068665 176.0
866.976807 72.0
867.199524 196.0
868.994019 284.0
870.578918 72.0
871.736206 172.0
872.876648 240.0
873.588318 56.0
874.276733 32.0
874.777039 124.0
875.701538 176.0
879.044312 284.0
882.464417 172.0
884.949463 136.0
885.328491 168.0
888.701416 88.0
891.218994 220.0
892.080811 212.0
892.835938 188.0
893.615234 40.0
895.097351 184.0
896.866821 112.0
900.046692 108.0
901.659668 136.0
908.155945 100.0
908.96582 136.0
912.293335 80.0
919.201843 112.0
920.16156 124.0
922.396851 164.0
922.638672 108.0
922.844238 68.0
924.320129 184.0
927.330017 164.0
929.434448 168.0
929.525452 136.0
929.671082 140.0
931.358948 220.0
932.051575 96.0
933.036194 172.0
934.769714 88.0
935.110535 132.0
937.479675 200.0
940.095886 196.0
940.187439 144.0
943.638794 196.0
944.745789 232.0
946.000305 180.0
947.329224 120.0
947.868408 180.0
949.615662 204.0
951.573242 200.0
951.825012 156.0
951.935547 44.0
952.248718 176.0
953.760254 192.0
955.033081 44.0
955.340637 112.0
956.109802 196.0
956.528381 148.0
956.58374 160.0
958.166504 112.0
958.850464 116.0
959.633362 172.0
959.688904 220.0
960.404236 84.0
960.484436 160.0
960.805237 40.0
963.392029 108.0
965.666809 192.0
969.071594 200.0
971.377869 196.0
971.42749 224.0
971.588806 64.0
972.078979 156.0
973.724182 196.0
974.096863 168.0
974.364014 104.0
975.905396 124.0
976.359375 216.0
976.43396 176.0
977.161804 176.0
977.230225 196.0
977.4729 184.0
977.902344 176.0
978.443909 164.0
978.537292 180.0
980.312561 164.0
981.665344 168.0
983.455933 104.0
985.498047 152.0
988.424438 224.0
988.474487 224.0
988.906311 184.0
989.519836 48.0
989.588684 80.0
990.759888 64.0
990.929077 172.0
993.411743 132.0
993.66272 192.0
994.007812 224.0
994.183533 184.0
995.037231 164.0
995.206726 128.0
997.091309 176.0
998.619141 220.0
998.663147 180.0
998.864441 92.0
999.072083 148.0
999.550232 184.0
999.663513 128.0
1001.073669 144.0
1001.848389 208.0
1002.339844 216.0
1004.458252 92.0
1006.989441 48.0
1007.362122 200.0
1007.507385 84.0
1008.55011 120.0
1009.53009 172.0
1009.814697 44.0
1009.865295 164.0
1010.985107 136.0
1011.276245 140.0
1012.210449 464.0
1012.447571 164.0
1013.277344 244.0
1013.334412 168.0
1013.847656 156.0
1015.293152 172.0
1015.553162 180.0
1017.818848 144.0
1018.42218 100.0
1019.267151 240.0
1019.572144 104.0
1020.513 68.0
1020.614746 72.0
1020.830933 176.0
1021.307922 256.0
1021.428772 160.0
1022.72052 144.0
1023.427185 44.0
1026.536865 148.0
1027.168213 152.0
1027.691406 120.0
1028.080688 176.0
1028.335938 100.0
1028.661499 132.0
1029.159424 208.0
1030.794067 204.0
1032.16272 144.0
1032.303467 232.0
1032.610352 140.0
1033.026123 200.0
1033.17334 72.0
1033.250122 160.0
1034.696533 112.0
1035.16394 228.0
1035.701904 164.0
1036.823242 104.0
1036.913818 168.0
1037.906616 212.0
1040.562988 212.0
1040.858276 32.0
1043.107056 216.0
1043.229126 100.0
1043.40918 176.0
1043.949341 216.0
1045.332397 196.0
1045.435425 92.0
1047.431396 152.0
1048.526733 136.0
1049.648438 264.0
1049.712891 156.0
1051.157959 180.0
1051.36438 160.0
1051.461182 32.0
1051.706543 164.0
1052.390869 100.0
1052.739502 56.0
1052.78479 172.0
1054.393433 116.0
1056.268555 168.0
1056.397949 176.0
1056.734375 200.0
1056.947876 124.0
1057.892822 60.0
1059.485962 144.0
1060.470947 156.0
1060.516235 80.0
1061.748169 136.0
1062.35791 220.0
1063.188477 160.0
1063.843994 176.0
1065.214233 152.0
1065.363647 176.0
1066.331909 152.0
1067.053467 148.0
1067.59314 196.0
1067.775269 172.0
1068.60791 84.0
1069.161011 248.0
1069.512573 72.0
1069.590576 144.0
1071.049194 136.0
1071.172974 164.0
1072.163452 64.0
1072.502319 200.0
1072.828247 52.0
1072.939087 104.0
1072.984741 128.0
1073.682495 192.0
1074.269531 108.0
1074.634888 120.0
1074.993774 152.0
1075.489746 204.0
1075.946777 156.0
1076.011963 132.0
1076.109985 120.0
1078.324463 200.0
1080.750732 196.0
1080.888184 108.0
1081.72583 264.0
1082.059814 164.0
1082.419922 60.0
1083.173096 108.0
1083.605469 176.0
1084.228027 144.0
1085.237549 136.0
1085.348999 152.0
1085.985107 120.0
1086.372192 124.0
1087.139893 132.0
1087.303955 84.0
1088.045654 56.0
1088.728516 144.0
1089.326294 160.0
1090.31189 52.0
1090.949463 124.0
1091.534668 196.0
1092.133179 160.0
1092.738403 160.0
1092.89624 80.0
1093.718994 192.0
1093.850586 128.0
1094.54187 184.0
1094.588013 144.0
1094.706543 124.0
1094.973999 120.0
1095.095093 196.0
1096.236694 116.0
1097.012695 104.0
1097.296143 196.0
1097.368652 160.0
1098.080811 148.0
1099.301392 96.0
1099.750122 184.0
1100.397095 156.0
1102.160645 184.0
1102.325928 104.0
1102.980225 164.0
1103.244629 172.0
1103.370239 176.0
1103.824585 168.0
1104.104248 108.0
1104.686279 92.0
1105.559692 184.0
1106.075928 160.0
1108.201904 92.0
1108.394043 164.0
1108.804077 164.0
1109.427979 108.0
1109.653442 220.0
1110.183838 136.0
1110.462402 184.0
1110.820679 168.0
1111.265137 76.0
1111.815918 148.0
1112.322998 128.0
1112.353027 52.0
1112.370728 124.0
1112.997559 164.0
1114.259521 64.0
1114.359253 152.0
1115.834717 208.0
1117.184814 188.0
1117.470947 212.0
1117.657227 96.0
1117.92334 204.0
1118.588989 184.0
1119.174805 176.0
1119.301392 180.0
1120.593628 196.0
1120.68689 120.0
1120.873413 80.0
1121.033325 156.0
1121.493286 76.0
1123.193604 156.0
1123.324707 128.0
1123.747314 124.0
1123.827393 144.0
1124.247803 144.0
1124.327881 140.0
1124.374634 172.0
1124.434692 228.0
1126.723022 228.0
1127.680664 48.0
1128.843994 168.0
1129.178345 60.0
1129.251953 184.0
1129.445923 144.0
1130.019165 116.0
1130.476196 116.0
1130.884521 108.0
1131.9021 252.0
1132.054443 144.0
1132.464722 52.0
1133.080933 156.0
1133.402588 120.0
1133.717529 188.0
1134.381104 152.0
1134.991211 204.0
1135.044922 112.0
1135.775879 132.0
1136.346191 176.0
1136.594482 116.0
1136.700073 184.0
1137.574341 116.0
1137.742188 188.0
1137.901855 136.0
1138.02417 160.0
1138.679443 212.0
1139.018066 32.0
1139.226318 156.0
1139.508545 128.0
1139.649658 80.0
1139.891479 128.0
1139.99231 156.0
1140.825806 168.0
1141.091797 176.0
1141.744263 164.0
1142.419678 44.0
1142.594604 168.0
1143.664551 112.0
1144.095337 176.0
1144.351196 44.0
1145.212769 128.0
1145.421997 104.0
1145.765625 152.0
1146.102539 212.0
1146.244019 88.0
1146.776367 196.0
1146.890991 172.0
1146.978638 96.0
1147.619141 104.0
1147.686523 152.0
1148.064087 172.0
1148.347412 188.0
1148.799316 204.0
1149.264893 184.0
1149.588745 176.0
1150.148926 132.0
1150.203003 180.0
1150.621582 104.0
1151.188721 76.0
1152.864136 68.0
1152.911499 184.0
1153.195312 96.0
1153.560303 32.0
1154.845093 124.0
1155.108887 136.0
1155.258301 140.0
1155.682129 160.0
1156.008789 56.0
1156.056152 136.0
1156.909058 216.0
1156.976685 228.0
1157.389771 144.0
1157.491333 208.0
1157.85022 232.0
1158.209229 212.0
1158.676636 156.0
1159.09668 168.0
1159.727051 208.0
1160.072754 144.0
1161.537476 116.0
1161.863159 188.0
1162.385742 208.0
1162.806396 144.0
1163.10498 216.0
1163.858643 96.0
1164.069092 200.0
1164.238892 116.0
1164.300049 152.0
1164.530884 116.0
1164.653198 104.0
1165.556763 208.0
1166.209229 156.0
1166.698608 176.0
1166.85498 164.0
1166.938843 208.0
1167.507812 132.0
1167.807007 140.0
1168.315552 200.0
1168.650635 184.0
1169.514893 148.0
1170.086792 168.0
1170.134399 124.0
1170.879639 160.0
1171.080933 172.0
1171.155884 144.0
1171.476074 140.0
1171.796265 216.0
1171.987061 244.0
1172.450439 116.0
1173.241089 176.0
1173.445679 124.0
1173.527466 108.0
1174.08667 132.0
1174.564087 156.0
1175.123535 120.0
1175.321411 100.0
1175.466553 120.0
1175.85376 156.0
1176.966431 140.0
1177.977295 104.0
1178.031982 56.0
1178.134399 104.0
1178.325684 204.0
1178.619507 160.0
1178.722046 184.0
1178.810791 132.0
1178.885986 104.0
1179.589966 136.0
1179.726685 148.0
1179.904541 76.0
1180.177979 196.0
1180.335815 196.0
1180.527954 212.0
1180.636108 192.0
1180.895996 184.0
1181.450195 176.0
1181.723755 108.0
1182.32605 132.0
1182.668213 188.0
1183.174805 100.0
1184.311523 176.0
1184.558105 132.0
1184.962402 160.0
1185.081299 164.0
1185.729858 48.0
1186.189087 60.0
1186.450684 168.0
1187.334106 204.0
1187.98584 240.0
1189.008179 196.0
1189.461182 144.0
1189.838745 48.0
1190.017334 148.0
1190.278198 140.0
1190.477417 124.0
1190.855103 56.0
1191.143555 196.0
1191.816895 160.0
1191.90625 112.0
1192.084839 136.0
1192.208618 132.0
1192.270508 28.0
1192.336914 120.0
1192.387329 140.0
1192.782471 156.0
1194.02356 88.0
1194.202393 156.0
1194.408813 172.0
1194.931641 128.0
1194.979736 148.0
1195.110474 128.0
1195.482178 188.0
1195.619751 44.0
1195.716064 116.0
1195.860596 72.0
1196.184204 164.0
1196.500854 184.0
1196.652344 152.0
1197.278931 204.0
1197.340942 112.0
1197.554443 44.0
1197.82312 128.0
1199.194336 184.0
1199.387329 108.0
1199.925049 212.0
1200.025757 204.0
1200.380127 164.0
1200.945679 196.0
1201.207764 116.0
1201.269897 32.0
1201.456177 168.0
1201.513794 208.0
1201.794189 88.0
1201.883911 180.0
1202.139282 152.0
1202.277588 180.0
1202.401489 116.0
1202.525757 144.0
1202.650024 164.0
1202.946777 104.0
1203.266113 296.0
1203.492188 200.0
1203.802979 176.0
1203.947998 168.0
1205.039429 132.0
1205.688965 164.0
1206.04834 116.0
1206.373291 148.0
1206.566895 44.0
1206.906982 248.0
1207.258301 96.0
1207.488525 136.0
1208.814819 156.0
1209.181641 100.0
1209.354614 184.0
1209.763062 156.0
1209.859985 152.0
1209.974609 164.0
1210.074585 132.0
1211.113403 176.0
1211.293457 128.0
1211.459717 144.0
1211.619141 156.0
1211.734741 152.0
1211.889282 160.0
1212.097168 168.0
1212.18042 112.0
1212.409058 224.0
1212.665527 148.0
1212.716187 176.0
1212.824951 188.0
1212.880371 192.0
1213.053711 68.0
1213.247803 172.0
1213.788574 56.0
1213.88562 68.0
1214.142334 76.0
1214.253296 216.0
1214.572266 244.0
1215.081421 124.0
1215.155029 128.0
1215.633789 112.0
1215.821167 72.0
1216.078003 192.0
1216.560547 108.0
1217.110229 228.0
1217.542969 168.0
1217.612427 80.0
1217.758301 184.0
1218.425171 108.0
1218.862915 236.0
1219.064453 140.0
1219.175659 164.0
1219.405029 136.0
1219.474487 236.0
1219.550903 160.0
1219.627441 88.0
1219.794189 160.0
1220.440796 172.0
1220.59375 56.0
1220.79541 240.0
1220.844116 132.0
1221.337891 148.0
1221.539673 136.0
1221.762329 84.0
1221.859741 68.0
1221.929321 60.0
1222.026611 172.0
1222.569458 212.0
1223.028809 212.0
1223.836426 140.0
1223.906006 180.0
1224.087036 216.0
1224.637207 136.0
1224.686035 124.0
1224.825317 204.0
1224.908936 128.0
1224.971558 132.0
1225.173584 128.0
1225.281494 224.0
1225.537354 176.0
1225.926147 148.0
1226.167603 168.0
1226.421021 172.0
1226.647827 120.0
1226.755615 140.0
1226.901978 72.0
1227.062378 112.0
1227.389893 160.0
1227.703857 148.0
1228.020874 180.0
1228.282837 144.0
1228.415283 200.0
1228.743286 104.0
1229.107544 152.0
1229.203247 116.0
1229.39917 132.0
1229.499634 204.0
1230.076172 64.0
1230.627686 228.0
1230.760376 196.0
1230.87207 204.0
1231.661377 156.0
1231.863892 140.0
1232.311035 164.0
1232.450806 168.0
1232.877075 156.0
1232.932983 224.0
1233.051758 40.0
1233.100708 80.0
1233.289429 188.0
1233.701904 216.0
1233.785767 96.0
1233.953491 64.0
1234.047607 140.0
1234.240234 132.0
1234.309937 192.0
1235.044434 160.0
1235.611084 168.0
1235.762939 228.0
1236.723755 216.0
1236.933838 188.0
1237.136841 180.0
1237.41687 100.0
1237.914062 124.0
1237.991089 80.0
1238.376221 148.0
1238.467285 184.0
1238.593384 132.0
1238.873657 132.0
1239.181885 160.0
1239.350098 148.0
1239.707397 132.0
1239.840576 160.0
1240.478394 120.0
1240.5625 124.0
1241.333862 112.0
1241.582397 176.0
1242.308716 160.0
1242.392944 188.0
1242.59729 180.0
1242.813965 36.0
1242.954224 112.0
1243.066528 168.0
1243.532227 132.0
1244.638916 108.0
1244.730225 144.0
1245.334229 148.0
1245.530884 128.0
1245.580078 140.0
1245.63623 148.0
1246.317749 212.0
1246.415283 176.0
1246.598877 156.0
1246.733643 160.0
1246.985352 172.0
1247.976562 156.0
1248.363281 196.0
1248.672729 128.0
1249.144043 188.0
1249.328369 144.0
1249.713989 192.0
1250.07666 184.0
1250.291016 144.0
1250.734375 112.0
1251.35498 180.0
1251.424316 104.0
1251.691895 204.0
1251.889038 208.0
1252.029907 176.0
1252.304565 92.0
1252.530029 148.0
1252.875244 128.0
1253.100586 108.0
1253.382446 140.0
1253.713745 120.0
1253.847656 128.0
1253.903931 164.0
1254.037964 180.0
1254.164795 128.0
1254.383301 104.0
1254.679443 104.0
1255.053101 204.0
1255.278687 148.0
1255.525513 156.0
1255.645508 124.0
1256.78125 132.0
1257.183472 128.0
1257.416382 224.0
1258.651733 72.0
1258.764771 144.0
1258.948364 92.0
1259.845459 160.0
1260.19165 148.0
1260.318848 240.0
1260.396484 84.0
1260.474243 64.0
1260.544922 108.0
1260.7146 228.0
1261.110352 164.0
1261.484985 72.0
1261.555664 224.0
1261.647583 92.0
1261.810181 172.0
1262.121338 84.0
1262.213257 220.0
1262.291016 108.0
1262.446533 156.0
1262.552612 64.0
1262.771973 176.0
1262.962891 188.0
1263.11145 140.0
1263.528809 152.0
1263.698608 172.0
1264.137329 148.0
1264.20105 156.0
1264.859253 284.0
1265.418213 148.0
1265.469482 172.0
1265.560181 148.0
1266.951416 204.0
1267.727783 104.0
1267.93335 124.0
1268.472046 52.0
1268.63501 92.0
1269.081665 104.0
1269.216431 212.0
1269.351196 152.0
1269.436279 144.0
1269.535522 148.0
1269.624878 200.0
1270.216431 172.0
1270.83374 224.0
1271.046509 176.0
1271.131714 184.0
1271.245239 252.0
1271.62854 100.0
1271.773315 196.0
1272.182129 168.0
1272.267334 140.0
1272.338379 188.0
1272.388062 176.0
1272.487427 120.0
1272.792725 200.0
1273.033936 176.0
1273.225952 104.0
1273.573975 204.0
1273.858154 96.0
1274.257568 208.0
1274.311523 188.0
1274.462036 208.0
1274.689453 120.0
1275.272217 140.0
1275.421509 60.0
1275.648926 136.0
1275.82666 128.0
1275.975952 152.0
1276.281738 164.0
1276.615967 136.0
1276.900391 152.0
1277.312988 180.0
1277.611694 148.0
1277.832275 100.0
1277.896362 108.0
1278.124023 128.0
1278.414307 212.0
1278.60791 132.0
1278.763184 184.0
1279.255737 120.0
1279.376709 172.0
1279.633057 80.0
1279.981934 188.0
1280.152832 132.0
1280.295288 40.0
1280.448975 136.0
1280.523193 196.0
1280.69519 212.0
1281.043091 64.0
1281.192749 144.0
1281.54187 160.0
1281.720215 132.0
1282.126221 280.0
1282.332886 156.0
1282.461182 124.0
1282.518188 172.0
1282.660767 88.0
1282.862183 148.0
1283.00293 140.0
1283.487793 152.0
1283.580444 152.0
1283.666016 172.0
1283.958496 48.0
1284.309814 244.0
1284.514771 212.0
1284.600464 176.0
1284.885376 124.0
1285.071289 160.0
1285.121216 256.0
1285.806274 180.0
1286.091797 84.0
1286.245117 124.0
1286.44873 64.0
1286.598633 160.0
1286.653564 184.0
1286.755737 124.0
1286.841431 268.0
1287.228149 96.0
1287.805542 180.0
1287.962646 124.0
1288.04126 164.0
1288.138306 180.0
1288.441284 124.0
1288.669922 160.0
1288.7771 172.0
1289.112915 132.0
1289.477417 140.0
1290.034912 168.0
1290.263672 152.0
1290.422974 192.0
1290.485352 60.0
1290.671265 64.0
1290.828613 228.0
1291.057495 184.0
1291.157593 184.0
1291.386475 144.0
1291.515137 264.0
1292.552612 188.0
1292.638428 200.0
1292.938965 124.0
1293.060669 144.0
1293.278076 124.0
1293.404297 128.0
1293.755005 120.0
1294.227539 140.0
1294.353149 104.0
1294.471069 156.0
1294.685913 228.0
1294.87207 188.0
1295.54541 180.0
1295.652832 224.0
1295.745972 140.0
1296.715088 160.0
1297.036011 56.0
1297.442627 148.0
1297.509155 196.0
1298.125732 48.0
1298.190308 172.0
1298.326538 72.0
1298.735352 184.0
1299.000854 140.0
1299.122803 160.0
1299.316528 188.0
1299.503052 192.0
1299.589111 108.0
1300.005371 200.0
1300.102905 160.0
1300.156006 168.0
1300.270874 148.0
1300.845093 168.0
1301.125122 96.0
1301.534302 124.0
1301.828735 124.0
1302.177368 172.0
1302.460815 196.0
1302.539795 136.0
1302.855957 204.0
1303.02832 132.0
1303.136108 176.0
1303.229492 152.0
1303.560059 148.0
1303.653442 128.0
1303.75415 236.0
1304.041626 120.0
1304.221313 84.0
1304.321899 156.0
1304.753296 200.0
1305.17749 100.0
1305.335693 136.0
1305.483398 208.0
1305.794434 172.0
1306.105225 160.0
1306.335449 168.0
1306.464966 144.0
1306.536865 284.0
1306.666382 188.0
1306.850342 228.0
1307.076538 208.0
1307.206055 228.0
1307.393188 84.0
1307.529907 112.0
1308.184937 164.0
1308.485352 248.0
1308.64563 168.0
1309.14978 216.0
1309.452271 156.0
1309.683838 128.0
1309.873413 168.0
1309.931763 176.0
1309.992432 116.0
1310.136597 148.0
1310.244629 132.0
1310.323853 144.0
1310.403076 148.0
1310.518433 92.0
1310.684082 168.0
1310.875122 96.0
1311.008423 172.0
1311.105469 244.0
1311.321777 160.0
1311.880615 136.0
1312.161743 120.0
1312.680908 84.0
1312.796265 148.0
1313.0271 140.0
1313.091919 60.0
1313.301147 144.0
1313.914307 172.0
1314.067871 156.0
1314.117798 204.0
1314.199585 128.0
1314.354492 32.0
1314.729736 212.0
1314.809082 140.0
1315.112183 144.0
1315.37207 224.0
1315.552612 120.0
1315.783569 140.0
1315.891846 200.0
1316.043457 92.0
1316.715088 132.0
1317.47229 68.0
1318.411743 148.0
1318.528564 100.0
1318.694824 128.0
1318.778442 152.0
1319.265869 164.0
1319.446533 88.0
1319.526123 160.0
1319.757446 228.0
1320.08667 116.0
1320.249268 176.0
1320.312988 132.0
1321.884155 148.0
1322.340088 88.0
1322.550049 160.0
1322.637573 368.0
1322.702026 120.0
1322.960083 144.0
1323.107422 188.0
1323.346313 100.0
1323.585327 192.0
1323.715698 92.0
1323.860474 100.0
1324.273804 116.0
1324.46875 192.0
1324.548584 180.0
1324.678955 164.0
1324.809326 152.0
1324.903564 156.0
1325.005005 128.0
1325.135376 252.0
1325.273071 68.0
1325.352783 164.0
1325.46875 156.0
1325.758545 112.0
1326.091919 76.0
1326.584839 172.0
1326.671875 128.0
1326.755493 140.0
1326.903809 132.0
1327.106934 168.0
1327.331665 104.0
1327.389648 196.0
1327.462158 84.0
1327.716064 124.0
1327.864136 180.0
1327.940186 124.0
1328.122192 168.0
1328.289062 128.0
1328.412354 160.0
1328.569214 116.0
1328.602905 200.0
1328.633911 168.0
1328.811401 120.0
1328.869385 144.0
1329.058105 56.0
1329.116089 156.0
1329.290283 240.0
1329.39917 124.0
1329.631348 180.0
1329.863647 80.0
1330.168457 104.0
1330.358398 164.0
1330.981689 216.0
1331.308472 108.0
1331.64978 200.0
1332.136475 192.0
1332.368164 192.0
1332.550537 116.0
1332.659546 112.0
1332.716553 196.0
1333.088257 128.0
1333.146362 212.0
1333.313599 192.0
1333.45166 196.0
1333.58252 176.0
1333.737915 180.0
1334.049438 256.0
1334.367554 128.0
1334.607544 220.0
1335.152954 144.0
1335.240234 68.0
1335.436646 144.0
1335.691162 164.0
1335.756714 108.0
1335.887573 60.0
1336.004028 128.0
1336.062256 64.0
1336.462402 48.0
1336.67334 132.0
1337.000854 180.0
1337.059082 156.0
1337.444824 132.0
1337.663208 168.0
1337.734375 188.0
1337.794312 120.0
1338.037964 152.0
1338.551514 176.0
1338.638916 224.0
1338.733521 164.0
1338.811279 224.0
1339.08313 144.0
1339.498291 164.0
1339.709595 116.0
1339.826172 112.0
1339.877197 148.0
1340.075806 288.0
1340.241455 176.0
1340.615845 224.0
1340.700562 164.0
1340.799316 256.0
1341.043091 124.0
1341.232666 132.0
1341.984985 164.0
1342.085571 108.0
1342.136597 140.0
1342.629639 200.0
1343.002197 152.0
1343.410034 88.0
1343.515137 172.0
1343.646484 220.0
1343.901855 252.0
1344.153442 152.0
1344.478271 116.0
1344.675415 124.0
1344.799438 200.0
1344.989258 204.0
1345.221069 168.0
1345.631714 148.0
1345.996704 68.0
1346.084351 148.0
1346.222168 156.0
1346.424683 208.0
1346.7052 168.0
1346.807373 92.0
1346.887817 144.0
1346.98999 88.0
1347.041138 132.0
1347.150757 104.0
1347.216553 168.0
1347.735229 184.0
1347.866821 124.0
1347.998291 160.0
1348.10791 120.0
1348.159058 132.0
1348.297974 152.0
1348.366943 176.0
1348.721924 176.0
1348.933838 176.0
1349.006958 116.0
1349.204346 136.0
1349.379883 64.0
1349.496826 120.0
1349.68689 116.0
1350.162231 136.0
1350.864502 72.0
1350.98877 68.0
1351.336548 128.0
1351.435059 136.0
1351.596069 124.0
1351.647339 68.0
1351.910767 112.0
1352.196167 96.0
1352.320557 132.0
1352.657349 152.0
1353.16333 172.0
1353.228394 92.0
1353.316284 164.0
1353.467529 236.0
1353.953369 148.0
1354.004639 168.0
1354.055908 124.0
1354.341553 268.0
1354.531982 128.0
1354.722412 148.0
1354.807983 180.0
1355.154663 152.0
1355.205933 136.0
1355.286621 252.0
1355.529419 220.0
1355.64563 132.0
1355.9021 200.0
1356.004761 76.0
1356.078003 192.0
1356.726074 228.0
1356.879517 168.0
1356.935791 168.0
1357.246216 164.0
1357.355835 184.0
1358.233765 164.0
1358.813354 112.0
1358.93811 100.0
1359.033447 96.0
1359.473755 132.0
1359.657227 136.0
1359.770142 144.0
1359.82605 144.0
1359.877441 192.0
1359.980225 212.0
1360.255127 232.0
1360.317871 112.0
1360.860229 168.0
1360.991455 212.0
1361.5 196.0
1362.01416 208.0
1362.102295 48.0
1362.175781 136.0
1362.748779 124.0
1362.800293 128.0
1363.013306 120.0
1363.292603 96.0
1363.490967 144.0
1363.549805 172.0
1363.718384 116.0
1364.400635 172.0
1364.483398 132.0
1364.53479 144.0
1364.916382 152.0
1364.990723 128.0
1365.108398 184.0
1365.284912 188.0
1365.4823 152.0
1365.548218 84.0
1365.573608 112.0
1365.663818 160.0
1366.119507 136.0
1366.285278 132.0
1366.417725 148.0
1366.88855 164.0
1366.980103 204.0
1367.14856 164.0
1367.263916 200.0
1367.425903 104.0
1367.639282 116.0
1367.977905 172.0
1368.309204 188.0
1368.817261 124.0
1368.88269 168.0
1368.957153 188.0
1369.288086 192.0
1369.421143 240.0
1369.510498 120.0
1369.693726 140.0
1369.978516 120.0
1370.120972 128.0
1370.599854 96.0
1370.739868 172.0
1370.887329 176.0
1371.445679 168.0
1371.734863 124.0
1371.828735 176.0
1371.865723 76.0
1371.893555 156.0
1372.059326 144.0
1372.133057 124.0
1372.199341 180.0
1372.280518 148.0
1372.376343 172.0
1372.472168 148.0
1372.627075 128.0
1372.783569 160.0
1372.877808 332.0
1373.260498 120.0
1373.270752 168.0
1373.371948 140.0
1373.681519 160.0
1373.748169 140.0
1373.794556 96.0
1374.072754 112.0
1374.148193 124.0
1374.707397 216.0
1374.866089 172.0
1375.064453 172.0
1375.364258 128.0
1375.659546 160.0
1375.854736 180.0
1376.154175 132.0
1376.309204 92.0
1376.48645 232.0
1376.713989 84.0
1376.870483 116.0
1377.025513 124.0
1377.431763 200.0
1377.505615 124.0
1377.616455 212.0
1377.742065 148.0
1378.325806 92.0
1378.414429 140.0
1379.116577 112.0
1379.168335 196.0
1379.415039 160.0
1379.560059 152.0
1379.727783 176.0
1379.841064 92.0
1379.907593 144.0
1380.114624 172.0
1380.284668 160.0
1380.654419 180.0
1380.720947 304.0
1380.987305 112.0
1381.072632 192.0
1381.142578 88.0
1381.268311 92.0
1381.497681 124.0
1381.616089 184.0
1382.222778 156.0
1382.481812 100.0
1382.88147 172.0
1382.977661 140.0
1383.11084 176.0
1383.266357 88.0
1383.333008 136.0
1383.680908 112.0
1383.784546 68.0
1384.058472 76.0
1384.295532 92.0
1384.502808 104.0
1384.714111 200.0
1384.734375 184.0
1385.080566 208.0
1385.258423 60.0
1385.354614 164.0
1385.469238 192.0
1385.554688 184.0
1385.665771 152.0
1385.858521 176.0
1386.221558 152.0
1386.288208 172.0
1386.384644 100.0
1386.792236 212.0
1386.925659 144.0
1387.088745 108.0
1387.162842 192.0
1387.214722 108.0
1387.296265 112.0
1387.355591 112.0
1387.433838 256.0
1387.555786 80.0
1387.659546 72.0
1387.718872 188.0
1387.778198 164.0
1388.178589 188.0
1388.477539 160.0
1388.616211 164.0
1388.764526 228.0
1388.918579 100.0
1389.000366 116.0
1389.023193 92.0
1389.55835 168.0
1389.706665 224.0
1390.21875 88.0
1390.493652 200.0
1390.686279 112.0
1390.8125 208.0
1390.886719 112.0
1391.072266 180.0
1391.3396 132.0
1391.428711 100.0
1391.5177 160.0
1391.933594 72.0
1392.193481 152.0
1392.290039 260.0
1392.356934 136.0
1392.661377 124.0
1392.987793 156.0
1393.129395 208.0
1393.196289 140.0
1393.389404 160.0
1393.887817 144.0
1394.306519 308.0
1394.517822 160.0
1394.779419 340.0
1394.86084 200.0
1395.009521 172.0
1395.299438 124.0
1395.596924 72.0
1395.671265 120.0
1395.731934 124.0
1395.849731 180.0
1395.990967 176.0
1396.652954 68.0
1396.797485 368.0
1396.890991 164.0
1397.084473 172.0
1397.210938 144.0
1397.300171 60.0
1397.367188 132.0
1397.44519 144.0
1397.563721 116.0
1397.940063 144.0
1398.215454 96.0
1398.632324 144.0
1398.714111 108.0
1398.810913 100.0
1398.948608 256.0
1399.279907 164.0
1399.399048 148.0
1399.637329 184.0
1399.713379 156.0
1399.905396 148.0
1400.054321 100.0
1400.121338 144.0
1400.218262 244.0
1400.478882 140.0
1400.838745 232.0
1401.134399 148.0
1401.194092 80.0
1401.313232 96.0
1401.41333 192.0
1401.782715 156.0
1402.006226 116.0
1402.109253 152.0
1402.125244 124.0
1402.157715 148.0
1402.26709 196.0
1402.393799 132.0
1402.938721 132.0
1403.005127 100.0
1403.094604 184.0
1403.221313 84.0
1403.27356 148.0
1403.348022 228.0
1403.795532 204.0
1403.900269 180.0
1404.001221 172.0
1404.168701 172.0
1404.286987 196.0
1404.347412 244.0
1404.399536 80.0
1404.675537 132.0
1404.802368 156.0
1405.023071 132.0
1405.242554 76.0
1405.458984 176.0
1405.55603 208.0
1405.809692 104.0
1406.11853 188.0
1406.3396 172.0
1406.406738 192.0
1406.541138 144.0
1406.787476 160.0
1406.906982 156.0
1407.094971 64.0
1407.183228 144.0
1407.394165 136.0
1407.474365 156.0
1407.608765 104.0
1407.802979 152.0
1408.091309 292.0
1408.144409 172.0
1408.258423 188.0
1408.384766 120.0
1408.52002 88.0
1408.631958 36.0
1408.834473 192.0
1409.305176 160.0
1409.42395 168.0
1409.603271 156.0
1409.752808 148.0
1409.864868 52.0
1409.932129 104.0
1409.991943 32.0
1410.059204 132.0
1410.186279 152.0
1410.260986 116.0
1410.370605 236.0
1410.515137 48.0
1410.642212 160.0
1411.064331 96.0
1411.195435 120.0
1411.875977 140.0
1412.01062 128.0
1412.182617 120.0
1412.623901 184.0
1413.338501 112.0
1413.354004 56.0
1413.382324 88.0
1413.454468 156.0
1413.514282 68.0
1413.768677 176.0
1413.845337 148.0
1413.970825 64.0
1414.285156 216.0
1414.438354 168.0
1414.636963 124.0
1414.71936 72.0
1414.876587 148.0
1415.033813 188.0
1415.28833 180.0
1415.370728 136.0
1415.53479 88.0
1415.614746 216.0
1415.805054 188.0
1415.902466 232.0
1417.355713 160.0
1417.483154 108.0
1417.977783 180.0
1418.120239 200.0
1418.390015 52.0
1418.498291 152.0
1418.547485 192.0
1418.862305 32.0
1419.012207 80.0
1419.124756 168.0
1419.687134 148.0
1419.887695 204.0
1420.054688 140.0
1420.137085 124.0
1420.212158 164.0
1420.264648 68.0
1420.422241 32.0
1420.549683 108.0
1420.62207 160.0
1420.782227 144.0
1420.977295 204.0
1421.037354 176.0
1421.142456 164.0
1421.194946 208.0
1421.420044 116.0
1421.600098 216.0
1421.65271 132.0
1421.772705 164.0
1421.941772 224.0
1422.549316 132.0
1422.748535 180.0
1422.898682 124.0
1423.080444 256.0
1423.296631 132.0
1423.691528 160.0
1423.920044 40.0
1423.972534 144.0
1424.032715 28.0
1424.385742 72.0
1424.530762 168.0
1424.741089 168.0
1424.94165 128.0
1425.129517 96.0
1425.189575 188.0
1425.249146 172.0
1425.362427 112.0
1425.453979 176.0
1425.557739 124.0
1425.655518 176.0
1426.095703 168.0
1426.234253 304.0
1426.542358 152.0
1426.707764 152.0
1427.376953 148.0
1428.4375 164.0
1428.587891 72.0
1428.640625 76.0
1428.956543 84.0
1429.132812 88.0
1429.197388 152.0
1429.3479 132.0
1429.445679 216.0
1429.508301 180.0
1429.746704 188.0
1429.853027 156.0
1429.949951 212.0
1430.055298 72.0
1430.168701 128.0
1430.406616 164.0
1430.717773 152.0
1430.868286 164.0
1430.973755 192.0
1431.04895 228.0
1431.222168 168.0
1431.320068 116.0
1431.500732 168.0
1431.636353 168.0
1431.967773 148.0
1432.11377 176.0
1432.223877 104.0
1432.487427 120.0
1432.562744 116.0
1432.68335 88.0
1432.849121 148.0
1432.930542 192.0
1433.037476 56.0
1433.150513 136.0
1433.268921 188.0
1433.369019 168.0
1433.436768 88.0
1433.57251 176.0
1433.798584 128.0
1433.880005 144.0
1433.964355 76.0
1434.077393 160.0
1434.167847 188.0
1434.650269 148.0
1434.891113 140.0
1435.245972 172.0
1435.313843 140.0
1435.797729 140.0
1435.909546 176.0
1435.992554 164.0
1436.051392 144.0
1436.163696 160.0
1436.324463 164.0
1436.615479 144.0
1436.741577 188.0
1437.071167 192.0
1437.267456 176.0
1437.350464 184.0
1437.690063 116.0
1437.848633 116.0
1437.984497 144.0
1438.116089 172.0
1438.250732 116.0
1438.535522 120.0
1438.829956 192.0
1439.532104 176.0
1439.615234 148.0
1439.74353 52.0
1439.856812 144.0
1439.972656 144.0
1440.128784 140.0
1440.393188 412.0
1440.642456 124.0
1440.718018 160.0
1441.088257 180.0
1441.324097 124.0
1441.511353 116.0
1441.571777 128.0
1441.791016 88.0
1441.942139 164.0
1442.297363 180.0
1442.39563 184.0
1442.531738 200.0
1442.607544 120.0
1442.846313 132.0
1443.109863 152.0
1443.20459 156.0
1443.589722 180.0
1443.733887 128.0
1443.802002 184.0
1443.900269 164.0
1443.998657 172.0
1444.149902 76.0
1444.762695 128.0
1444.903809 172.0
1444.982056 84.0
1445.44873 160.0
1445.731201 104.0
1445.875 124.0
1445.973389 136.0
1446.24585 136.0
1447.22998 196.0
1447.298584 156.0
1447.465332 232.0
1447.679565 272.0
1447.828247 108.0
1447.979736 104.0
1448.085815 100.0
1448.153687 132.0
1448.297852 64.0
1448.456909 112.0
1448.51001 188.0
1448.592041 208.0
1449.078125 264.0
1449.184204 180.0
1449.275146 156.0
1449.381226 144.0
1449.487305 148.0
1449.616211 152.0
1449.714722 292.0
1449.775269 132.0
1449.919312 120.0
1450.025391 208.0
1450.305908 76.0
1450.396851 160.0
1450.878052 144.0
1451.065552 192.0
1451.185303 76.0
1451.329346 100.0
1451.480957 168.0
1451.549194 128.0
1451.662964 208.0
1451.860107 156.0
1452.064941 104.0
1452.133057 132.0
1452.277344 40.0
1452.338013 120.0
1452.413818 216.0
1452.671753 104.0
1452.869019 48.0
1453.020752 136.0
1453.104126 148.0
1453.384521 196.0
1453.428101 176.0
1453.516602 156.0
1453.631348 196.0
1453.802246 172.0
1453.99939 116.0
1454.268311 192.0
1454.74353 148.0
1454.857422 84.0
1454.914185 256.0
1455.05481 156.0
1455.110352 176.0
1455.274902 108.0
1455.442017 360.0
1455.677368 148.0
1455.806519 44.0
1455.890015 96.0
1455.996338 144.0
1456.079956 76.0
1456.307739 216.0
1456.459717 180.0
1456.535645 64.0
1456.710327 124.0
1456.76355 160.0
1456.81665 128.0
1457.064453 188.0
1457.348511 192.0
1457.432129 152.0
1457.515747 152.0
1457.766479 160.0
1457.877686 216.0
1458.268066 100.0
1458.632935 128.0
1459.110474 212.0
1459.268555 332.0
1459.545288 176.0
1459.948364 148.0
1460.123291 124.0
1460.201416 200.0
1460.282959 120.0
1460.807861 148.0
1461.058838 64.0
1461.127319 160.0
1461.317505 188.0
1461.493286 200.0
1461.874634 156.0
1462.215454 204.0
1462.459106 168.0
1462.641724 176.0
1462.733154 60.0
1462.915771 164.0
1462.985718 148.0
1463.066895 208.0
1463.174683 116.0
1463.227905 48.0
1463.357422 96.0
1463.498291 208.0
1463.894653 244.0
1463.98291 108.0
1464.431152 96.0
1464.552979 184.0
1464.728149 180.0
1464.956787 112.0
1465.040527 164.0
1465.116699 144.0
1465.497681 228.0
1465.771973 180.0
1465.874146 156.0
1466.22168 136.0
1466.335938 112.0
1466.611206 248.0
1466.717041 64.0
1467.021973 136.0
1467.105835 84.0
1467.16687 148.0
1467.380249 156.0
1467.46936 208.0
1467.685303 172.0
1467.738647 284.0
1467.814941 148.0
1467.952148 100.0
1468.017822 120.0
1468.093506 132.0
1468.272461 216.0
1468.455566 72.0
1468.88269 228.0
1469.111572 248.0
1469.569336 360.0
1469.691406 148.0
1469.943237 40.0
1470.141602 172.0
1470.530884 184.0
1470.72937 104.0
1470.782715 52.0
1470.889648 96.0
1471.049927 104.0
1471.141602 216.0
1471.530884 168.0
1471.767578 184.0
1471.920288 60.0
1471.984741 204.0
1472.088379 128.0
1472.187622 168.0
1472.269653 144.0
1472.439697 148.0
1472.504761 140.0
1472.668701 284.0
1472.806274 48.0
1473.067505 144.0
1473.166626 184.0
1473.333374 204.0
1473.425049 372.0
1473.547241 156.0
1473.730713 68.0
1473.796875 156.0
1473.864624 128.0
1474.13562 156.0
1474.250244 68.0
1474.342041 96.0
1474.662964 168.0
1474.754761 216.0
1474.813354 180.0
1474.869385 228.0
1475.144531 208.0
1475.4198 84.0
1475.488647 184.0
1475.537476 172.0
1475.566895 68.0
1475.592896 188.0
1475.69104 164.0
1475.832642 204.0
1475.963501 144.0
1476.023804 140.0
1476.36792 148.0
1476.490356 128.0
1476.949219 124.0
1477.063965 136.0
1477.502319 156.0
1477.660645 164.0
1477.759155 176.0
1477.890259 160.0
1477.951416 44.0
1478.043335 104.0
1478.338013 248.0
1478.474731 168.0
1478.663208 144.0
1478.746094 300.0
1478.811646 236.0
1478.915771 76.0
1478.96936 248.0
1479.214233 132.0
1479.28772 160.0
1479.528198 124.0
1479.611084 148.0
1479.796143 140.0
1479.928589 224.0
1480.508301 68.0
1481.159302 96.0
1481.212891 116.0
1481.519409 188.0
1481.611328 92.0
1481.778809 180.0
1481.910034 104.0
1482.040405 136.0
1482.169067 156.0
1482.247192 192.0
1482.362061 168.0
1482.584473 312.0
1482.653442 204.0
1482.765625 192.0
1482.883301 136.0
1483.074951 172.0
1483.166992 168.0
1483.303101 236.0
1483.387817 200.0
1483.450562 384.0
1483.534912 128.0
1483.734253 236.0
1484.416626 184.0
1484.508667 48.0
1484.899414 140.0
1485.060913 100.0
1485.237305 108.0
1485.390747 144.0
1485.467407 60.0
1485.850952 148.0
1486.050537 80.0
1486.131836 192.0
1486.265137 128.0
1486.435303 140.0
1486.518555 116.0
1486.587646 80.0
1486.720825 184.0
1487.086548 156.0
1487.140259 172.0
1487.23999 124.0
1487.303101 108.0
1487.59375 212.0
1487.915527 36.0
1488.079712 136.0
1488.210693 132.0
1488.284058 176.0
1488.345581 108.0
1488.849731 172.0
1488.979858 140.0
1489.297852 64.0
1489.397705 72.0
1489.512939 168.0
1489.605103 124.0
1489.674194 176.0
1490.027588 188.0
1490.465454 164.0
1490.972778 188.0
1491.423462 144.0
1491.500366 240.0
1491.633789 184.0
1491.710693 88.0
1491.930298 160.0
1492.069092 208.0
1492.156616 116.0
1492.434937 220.0
1492.682007 148.0
1492.746338 160.0
1492.940918 160.0
1493.033203 132.0
1493.14856 128.0
1493.402344 176.0
1493.477295 180.0
1493.597656 344.0
1493.763916 60.0
1493.948608 136.0
1494.048584 156.0
1494.133179 144.0
1494.194702 116.0
1494.427368 172.0
1494.689819 196.0
1494.748779 96.0
1494.825684 184.0
1495.027832 148.0
1495.141235 140.0
1495.294312 148.0
1495.418335 132.0
1495.680054 104.0
1495.749756 184.0
1495.818604 164.0
1495.937134 244.0
1496.083374 200.0
1496.241943 352.0
1496.311279 164.0
1496.480713 128.0
1496.727051 172.0
1496.803223 176.0
1496.927246 140.0
1496.988892 136.0
1497.373901 44.0
1497.458618 212.0
1497.558838 172.0
1497.651245 184.0
1497.797607 64.0
1497.920898 144.0
1498.013306 208.0
1498.17749 176.0
1498.433716 148.0
1498.940063 156.0
1499.091309 144.0
1499.338623 92.0
1499.415649 76.0
1499.484985 220.0
1499.683472 208.0
1499.782349 140.0
1499.885864 112.0
1500.120728 188.0
1500.194214 180.0
1500.394897 204.0
1500.502563 100.0
1500.677734 84.0
1500.849487 104.0
1500.942017 172.0
1501.109131 144.0
1501.204224 104.0
1501.304565 140.0
1501.505005 108.0
1501.576782 176.0
1501.756592 168.0
1501.961914 140.0
1501.976807 168.0
1502.052734 176.0
1502.157227 140.0
1502.314941 184.0
1502.384399 128.0
1502.623535 124.0
1502.739258 172.0
1502.916748 92.0
1503.026611 100.0
1503.18689 200.0
1503.491699 376.0
1503.642212 56.0
1504.151611 144.0
1504.427124 168.0
1504.568481 152.0
1504.630249 148.0
1504.718018 200.0
1505.010986 144.0
1505.162964 164.0
1505.240234 140.0
1505.356079 168.0
