>compound MLS001140924-01!4-[[[2-(6-ethyl-2-oxo-4-phenylchromen-7-yl)oxyacetyl]amino]methyl]cyclohexane-1-carboxylic acid
>formula C27H29NO6
>ionization [M+H]+
>parentmass 464.207
#inchi InChI=1S/C27H29NO6/c1-2-18-12-22-21(19-6-4-3-5-7-19)13-26(30)34-24(22)14-23(18)33-16-25(29)28-15-17-8-10-20(11-9-17)27(31)32/h3-7,12-14,17,20H,2,8-11,15-16H2,1H3,(H,28,29)(H,31,32)
#inchikey KNBGYUXCXDOOSX
#Ion_Source LC-ESI
#Instrument qTof
#Compound_Source NIH Natural Product Library
#PI Dorrestein
#Data_Collector VVP/LMS
#Scan -1
#Precursor_MZ 464.207
#ExactMass 463.199
#Charge 1
#CAS_Number N/A
#Pubmed_ID N/A
#Smiles CCc1cc2c(cc(=O)oc2cc1OCC(=O)NCC3CCC(CC3)C(=O)O)c4ccccc4
#INCHI_AUX N/A
#Library_Class 1
#SpectrumID CCMSLIB00000080094
#IonMode Positive
#UpdateWorkflowName UPDATE-SINGLE-ANNOTATED-GOLD
#LibraryQualityString Gold
#TaskID b1d8e8f6646f4e71acdff9ca3d919d08
##Scan# 2285
#SpectrumFile p2-A04_GA4_01_17981.mzXML
#LibraryName NIH_Natural_Products_Library.mgf
#MQScore -1
#Organism NIH_Natural_Products_Library
#TIC_Query 0
#RT_Query -1
#MZErrorPPM -1
#SharedPeaks 0
#MassDiff 0
#LibMZ -1
#SpecMZ 464.207
#SpecCharge 0
#internalFilename spec-00000.mgf

>collision 10
94.988869 196.0
95.086525 5564.0
95.138298 84.0
95.153824 108.0
95.301437 164.0
95.340302 100.0
95.501678 144.0
95.532799 52.0
95.598953 120.0
95.664474 172.0
95.748856 132.0
95.770279 56.0
95.801453 188.0
95.834572 132.0
95.894981 184.0
96.029518 220.0
96.04512 144.0
96.062675 88.0
96.084732 652.0
96.146576 216.0
96.177803 116.0
96.201233 108.0
96.251991 184.0
96.381538 128.0
96.564674 116.0
96.592812 156.0
96.668365 152.0
96.693802 196.0
96.738823 140.0
96.899414 144.0
97.030731 148.0
97.050339 160.0
97.085632 152.0
97.260254 148.0
97.510155 200.0
97.558838 64.0
97.641426 80.0
97.724045 160.0
97.771271 128.0
98.056496 136.0
98.236282 92.0
98.392189 172.0
98.41983 124.0
98.680641 148.0
98.710304 136.0
98.809204 140.0
98.985359 228.0
99.028931 120.0
99.147919 224.0
99.276672 60.0
99.411568 156.0
99.528687 148.0
99.60614 124.0
99.707474 96.0
99.85659 144.0
100.34845 144.0
100.380844 180.0
100.452156 136.0
100.583862 216.0
100.631775 144.0
100.65374 188.0
100.811546 80.0
100.871513 136.0
100.887505 92.0
100.979485 140.0
101.079514 132.0
101.10553 184.0
101.145561 224.0
101.486137 188.0
102.024208 112.0
102.043594 168.0
102.241447 176.0
102.283714 96.0
102.350349 204.0
102.535484 140.0
102.693932 80.0
102.752983 200.0
102.831963 136.0
102.930885 156.0
103.032501 156.0
103.056122 124.0
103.310867 132.0
103.422165 120.0
103.456093 84.0
103.482895 188.0
103.606438 92.0
103.657089 128.0
103.882141 52.0
103.947067 76.0
104.016075 148.0
104.072922 120.0
104.396019 68.0
104.625938 116.0
104.74202 168.0
105.033539 880.0
105.066147 392.0
105.233505 128.0
105.266174 104.0
105.317238 220.0
105.386696 140.0
105.554306 84.0
105.603394 180.0
105.617706 84.0
105.674988 132.0
105.810074 132.0
106.037445 116.0
106.236992 176.0
107.047699 188.0
107.088951 252.0
107.177994 64.0
107.338776 112.0
107.61734 88.0
107.637985 108.0
107.794983 132.0
107.811516 176.0
108.084 172.0
108.167267 160.0
108.393013 136.0
108.446899 108.0
108.533974 148.0
108.604485 140.0
108.656342 192.0
108.708214 116.0
108.791237 172.0
109.075836 68.0
109.20475 140.0
109.435745 52.0
109.664902 216.0
109.691284 244.0
109.825455 108.0
110.0457 204.0
110.061607 608.0
110.097473 1152.0
110.190773 120.0
110.205399 152.0
110.37471 144.0
110.401894 104.0
110.619499 72.0
110.648804 172.0
110.845695 48.0
110.975655 88.0
111.078209 160.0
111.103859 1092.0
111.513062 184.0
111.588745 88.0
111.698097 164.0
111.893814 188.0
111.96962 228.0
112.040443 288.0
112.072159 580.0
112.111488 1704.0
112.151497 248.0
112.273102 140.0
112.398201 120.0
112.441879 124.0
112.737549 76.0
112.938408 152.0
112.959557 76.0
113.016678 160.0
113.038986 192.0
113.111794 196.0
113.130966 152.0
113.217781 156.0
113.279106 176.0
113.399986 172.0
113.493263 176.0
113.665077 144.0
113.70752 108.0
113.820038 124.0
113.960228 104.0
114.062233 236.0
114.121765 168.0
114.270645 152.0
114.500542 160.0
114.607056 80.0
114.653938 176.0
114.702637 132.0
114.775452 156.0
114.875687 136.0
114.920494 112.0
115.056122 124.0
115.215126 92.0
115.232216 148.0
115.251144 196.0
115.315559 52.0
115.405342 116.0
115.629959 100.0
115.946938 108.0
116.081993 72.0
116.268631 180.0
116.375961 144.0
116.515572 168.0
116.584328 156.0
116.614418 152.0
116.691811 152.0
116.82515 108.0
116.891846 112.0
117.072342 156.0
117.514572 92.0
117.542618 112.0
117.847076 120.0
118.074059 112.0
118.09568 132.0
118.491837 44.0
118.654381 188.0
118.682571 148.0
118.725937 124.0
119.01889 184.0
119.047127 56.0
119.067909 140.0
119.281982 128.0
119.394836 180.0
119.534065 32.0
119.638542 92.0
119.75177 172.0
119.828018 200.0
119.862877 128.0
120.035088 104.0
120.187782 124.0
120.283806 132.0
120.338387 184.0
120.427917 124.0
120.445396 160.0
120.674858 176.0
120.792953 160.0
120.91111 100.0
120.976776 140.0
121.040268 96.0
121.066605 456.0
121.121307 156.0
121.176819 232.0
121.228661 176.0
121.325104 176.0
121.386688 232.0
121.504944 168.0
121.579544 204.0
121.665154 104.0
121.785927 180.0
121.818878 192.0
121.869408 148.0
122.071632 184.0
122.095245 432.0
122.230019 172.0
122.395638 200.0
122.53167 116.0
122.595573 164.0
122.648468 208.0
122.840309 124.0
122.944016 60.0
123.088303 176.0
123.122833 124.0
123.153755 124.0
123.228867 100.0
123.359261 168.0
123.567146 176.0
123.602547 40.0
123.790703 184.0
123.832787 128.0
123.86158 32.0
123.912529 136.0
124.056587 144.0
124.07666 148.0
124.110809 2068.0
124.320534 176.0
124.34716 96.0
124.364922 96.0
124.389336 196.0
124.504791 68.0
124.860382 180.0
124.949364 104.0
124.970436 224.0
125.071754 144.0
125.119064 524.0
125.185303 176.0
125.385803 112.0
125.43261 152.0
125.570854 204.0
125.593163 124.0
125.70694 132.0
125.83194 168.0
125.9235 148.0
125.992744 120.0
126.097771 56.0
126.128357 332.0
126.220726 176.0
126.323608 144.0
126.511581 76.0
126.663864 120.0
126.755722 108.0
126.975418 68.0
127.002335 104.0
127.054741 148.0
127.208771 184.0
127.262657 188.0
127.419876 76.0
127.494026 272.0
127.613167 100.0
127.660385 56.0
127.77285 152.0
128.060989 124.0
128.182648 104.0
128.270538 184.0
128.487045 136.0
128.606644 172.0
129.034119 668.0
129.075623 396.0
129.105957 152.0
129.41597 112.0
129.46579 172.0
129.587433 228.0
129.617554 160.0
129.882812 68.0
129.925919 132.0
129.955414 96.0
129.980377 124.0
130.15062 104.0
130.221024 192.0
130.241455 180.0
130.291428 148.0
130.464157 128.0
130.485886 176.0
130.57103 48.0
130.666565 76.0
130.78717 136.0
131.054184 212.0
131.094833 192.0
131.175125 204.0
131.254211 152.0
131.425293 180.0
131.454956 32.0
131.489182 176.0
131.690109 164.0
132.080963 128.0
132.108414 64.0
132.257156 184.0
132.399109 120.0
132.511353 148.0
132.85524 108.0
132.88736 120.0
132.94014 116.0
133.028549 176.0
133.06868 380.0
133.089355 192.0
133.110016 228.0
133.197296 152.0
133.222565 108.0
133.408707 128.0
133.519073 124.0
133.590378 132.0
133.63179 296.0
133.753754 160.0
133.935669 120.0
134.097931 160.0
134.182251 116.0
134.242203 156.0
134.495987 132.0
134.632202 144.0
134.68071 136.0
134.870178 256.0
134.902542 196.0
134.982529 188.0
135.043594 140.0
135.081924 128.0
135.156952 148.0
135.205551 180.0
135.323608 128.0
135.666489 112.0
135.752289 132.0
135.970352 172.0
136.086426 52.0
136.11467 168.0
136.158096 148.0
136.290833 168.0
136.383789 148.0
136.509338 64.0
136.71405 104.0
136.876541 140.0
136.889389 164.0
136.977142 132.0
137.058685 156.0
137.254486 140.0
137.310455 176.0
137.410767 112.0
137.567902 88.0
138.053284 152.0
138.090378 228.0
138.165405 124.0
138.21991 200.0
138.261337 156.0
138.429886 64.0
138.537628 196.0
138.70842 164.0
138.903336 188.0
139.203751 148.0
139.371506 240.0
139.398422 124.0
139.406647 108.0
139.413635 164.0
139.492737 144.0
139.558563 112.0
139.612656 216.0
139.812622 152.0
140.045349 184.0
140.107544 1300.0
140.337921 116.0
140.448761 144.0
140.505386 176.0
140.604492 88.0
140.757935 136.0
140.874451 168.0
140.946915 168.0
141.071671 212.0
141.112152 336.0
141.20932 136.0
141.405701 144.0
141.552475 220.0
141.621155 116.0
141.777527 224.0
141.850998 192.0
141.888931 188.0
142.071548 96.0
142.08815 124.0
142.114517 180.0
142.247162 240.0
142.441879 60.0
142.515518 160.0
142.596329 160.0
142.674759 160.0
142.727066 120.0
142.843613 152.0
142.870575 188.0
142.905472 140.0
143.050644 128.0
143.105392 112.0
143.24353 100.0
143.334061 112.0
143.38887 76.0
143.415085 196.0
143.669479 180.0
144.0522 100.0
144.104767 60.0
144.152557 156.0
144.217087 128.0
144.38205 40.0
144.508835 112.0
144.573441 164.0
144.59259 80.0
144.678757 132.0
144.741013 180.0
144.791702 48.0
144.858368 92.0
144.992554 184.0
145.064453 520.0
145.105209 124.0
145.167557 124.0
145.193939 68.0
145.364258 140.0
145.42186 128.0
145.678787 172.0
145.75087 172.0
145.827774 180.0
145.875854 180.0
145.976822 160.0
146.051392 148.0
146.097092 132.0
146.52803 208.0
146.626831 88.0
146.687088 40.0
146.815399 168.0
146.89447 228.0
147.000641 148.0
147.039948 220.0
147.075455 112.0
147.099594 172.0
147.128555 172.0
147.287933 40.0
147.307266 128.0
147.358002 132.0
147.411163 176.0
147.490921 96.0
147.517502 216.0
147.599701 180.0
147.827087 160.0
148.493332 172.0
148.597641 144.0
148.755386 148.0
148.835495 100.0
148.862213 132.0
149.073563 112.0
149.197525 104.0
149.287491 136.0
149.47966 164.0
149.506439 200.0
149.591629 136.0
149.628143 64.0
149.727982 140.0
149.898499 176.0
150.003311 124.0
150.022812 140.0
150.081329 140.0
150.125214 176.0
150.159363 116.0
150.230103 192.0
150.52298 208.0
150.581589 140.0
150.608459 192.0
150.628006 176.0
150.684189 256.0
150.860153 92.0
150.989746 128.0
151.055786 112.0
151.082703 160.0
151.545425 148.0
151.861664 160.0
152.06543 168.0
152.107941 1080.0
152.148773 144.0
152.251907 156.0
152.313309 236.0
152.357529 136.0
152.460724 284.0
152.551666 164.0
152.632797 164.0
152.669693 160.0
152.827118 160.0
153.068161 212.0
153.113586 2220.0
153.24324 48.0
153.314697 268.0
153.423141 204.0
153.689514 68.0
153.904266 160.0
154.032684 28.0
154.077148 116.0
154.118988 676.0
154.144852 140.0
154.360046 132.0
154.414413 92.0
154.480118 168.0
154.532074 64.0
154.591461 248.0
154.662308 160.0
154.992615 264.0
155.012436 84.0
155.043304 188.0
155.136368 76.0
155.205795 88.0
155.256943 216.0
155.347153 232.0
155.429031 96.0
155.483627 92.0
155.563049 80.0
155.880966 172.0
156.171844 132.0
156.198669 92.0
156.418182 92.0
156.4879 156.0
156.644791 176.0
156.711288 156.0
157.065048 276.0
157.091019 56.0
157.358047 76.0
157.44545 128.0
157.550354 164.0
157.589157 168.0
157.728912 196.0
157.925308 108.0
158.012863 136.0
158.31575 208.0
158.613907 128.0
158.631454 32.0
158.751801 232.0
159.130692 116.0
159.412018 132.0
159.653366 168.0
159.710144 200.0
159.960327 88.0
159.99556 48.0
160.043411 92.0
160.108871 224.0
160.189484 216.0
160.328064 160.0
160.406189 104.0
160.479309 112.0
160.885498 136.0
161.055878 136.0
161.131653 172.0
161.461609 228.0
161.54509 128.0
161.633636 56.0
161.747528 136.0
161.924774 204.0
161.957687 208.0
162.031158 148.0
162.061554 176.0
162.193344 76.0
162.251648 136.0
162.451996 144.0
162.817505 100.0
163.135117 196.0
163.310577 100.0
163.386887 100.0
163.438019 168.0
163.478485 188.0
163.641403 148.0
163.720337 148.0
163.804382 148.0
163.847687 228.0
163.873169 128.0
163.936874 152.0
164.429077 184.0
164.492889 168.0
164.602676 116.0
164.932251 60.0
164.991043 180.0
165.052048 460.0
165.070404 604.0
165.231155 176.0
165.282623 300.0
165.390106 212.0
165.68367 132.0
165.94603 92.0
165.984482 144.0
166.077393 296.0
166.258972 88.0
166.392456 124.0
166.631302 140.0
166.722366 100.0
166.914047 136.0
167.063217 148.0
167.084976 480.0
167.119812 40.0
167.222748 196.0
167.279388 92.0
167.312851 192.0
167.34375 204.0
167.402969 228.0
167.655426 188.0
167.696671 252.0
167.730179 128.0
167.985474 176.0
168.031906 92.0
168.049957 140.0
168.083511 216.0
168.104156 192.0
168.179001 112.0
168.259018 60.0
168.292587 108.0
168.328735 140.0
168.354553 184.0
168.372635 256.0
168.420883 200.0
168.483704 60.0
168.623245 60.0
168.680115 120.0
168.794128 200.0
169.024094 76.0
169.095612 164.0
169.153503 148.0
169.213043 132.0
169.270004 88.0
169.31662 120.0
169.459091 76.0
169.482407 28.0
169.544601 88.0
169.707916 52.0
169.972488 168.0
170.00882 176.0
170.116211 168.0
170.343704 204.0
171.061478 36.0
171.090118 220.0
171.121826 112.0
171.160416 152.0
171.275009 124.0
171.342728 108.0
171.379211 136.0
171.582504 120.0
171.671158 144.0
171.720718 176.0
171.78331 180.0
171.827667 92.0
171.864197 40.0
171.885071 248.0
172.010345 44.0
172.075607 144.0
172.216629 236.0
172.253189 60.0
172.271484 96.0
172.360306 104.0
172.409958 120.0
172.477921 108.0
172.530197 148.0
172.55896 108.0
172.621719 188.0
172.757721 200.0
172.778656 128.0
172.817902 136.0
172.935944 184.0
172.972305 56.0
173.069321 204.0
173.229218 184.0
173.352081 164.0
173.464783 220.0
173.527695 244.0
173.622101 444.0
173.664062 100.0
173.755814 172.0
173.879196 116.0
173.902832 208.0
173.99733 208.0
174.036713 156.0
174.31778 128.0
174.380844 96.0
174.449188 128.0
174.622742 148.0
174.659561 44.0
174.683228 140.0
174.77005 176.0
174.830582 32.0
175.033279 284.0
175.122818 208.0
175.157059 68.0
175.301971 104.0
175.39949 168.0
175.647354 144.0
176.061737 144.0
176.09079 120.0
176.130417 108.0
176.394653 100.0
176.929031 120.0
176.981979 188.0
177.068222 680.0
177.225677 128.0
177.283966 228.0
177.532471 136.0
177.588867 96.0
177.652527 36.0
177.761307 144.0
177.875427 60.0
177.965698 152.0
178.018799 48.0
178.045364 48.0
178.077286 1488.0
178.178177 96.0
178.297745 120.0
178.324326 136.0
178.353561 64.0
178.483841 176.0
178.534363 244.0
178.731216 188.0
178.89888 168.0
178.930832 92.0
179.08374 1032.0
179.142548 112.0
179.46904 120.0
179.765121 160.0
179.882568 120.0
180.013382 160.0
180.059616 156.0
180.100815 2268.0
180.146942 196.0
180.317947 60.0
180.491714 228.0
180.612061 112.0
181.061951 276.0
181.106262 416.0
181.190292 176.0
181.241196 244.0
181.266647 212.0
181.384857 332.0
181.436859 156.0
181.536057 232.0
181.836533 180.0
182.075912 152.0
182.101212 276.0
182.430161 216.0
182.658737 160.0
182.677567 152.0
183.041824 448.0
183.08226 468.0
183.116318 132.0
183.256393 124.0
183.383057 68.0
183.415405 96.0
183.461609 140.0
183.552902 232.0
183.733612 152.0
183.919815 176.0
184.081802 300.0
184.251968 152.0
184.389771 104.0
184.735886 140.0
184.838699 104.0
184.876587 148.0
184.906357 80.0
184.984848 140.0
185.101273 104.0
185.225845 164.0
185.29628 104.0
185.415512 172.0
185.48056 184.0
185.556473 92.0
185.60527 160.0
185.629684 216.0
185.903671 128.0
186.055664 140.0
186.232178 104.0
186.283783 160.0
186.541992 216.0
186.604477 60.0
187.058807 120.0
187.107803 304.0
187.132309 108.0
187.18132 176.0
187.233063 216.0
187.393784 144.0
187.519135 120.0
187.598175 148.0
187.682693 144.0
187.73996 148.0
188.141068 128.0
188.217514 132.0
188.405975 136.0
188.605453 108.0
188.630066 196.0
188.673798 88.0
188.723007 212.0
188.810516 168.0
189.061401 188.0
189.084106 144.0
189.111481 208.0
189.566101 136.0
189.821045 152.0
189.886795 172.0
190.078247 420.0
190.105698 188.0
190.174942 152.0
190.250595 132.0
190.455017 52.0
190.58963 124.0
190.630844 204.0
190.661087 192.0
190.705048 180.0
190.837006 216.0
190.900253 152.0
191.084641 740.0
191.153336 120.0
191.175354 108.0
191.252411 56.0
191.409332 260.0
192.026657 164.0
192.092194 472.0
192.156311 100.0
192.189407 172.0
192.251083 80.0
192.539993 160.0
192.751221 172.0
192.846359 172.0
193.070862 136.0
193.099945 668.0
193.214462 236.0
193.305771 64.0
193.386032 120.0
193.477371 72.0
193.546585 148.0
193.588135 136.0
193.740814 284.0
193.766556 220.0
193.815277 176.0
193.928894 80.0
194.025925 176.0
194.0728 1168.0
194.106323 120.0
194.403152 36.0
194.73909 132.0
194.764084 48.0
194.817337 280.0
195.080933 1208.0
195.115799 312.0
195.27829 68.0
195.326614 160.0
196.091949 124.0
196.117569 168.0
196.174911 140.0
196.283646 136.0
196.386826 172.0
196.417511 216.0
196.498413 96.0
196.523529 148.0
196.54863 140.0
196.718887 88.0
196.764557 168.0
196.827774 56.0
196.95903 48.0
197.060333 292.0
197.096802 632.0
197.221695 180.0
197.37587 156.0
197.652374 108.0
197.671967 196.0
197.716736 152.0
198.010712 176.0
198.063919 152.0
198.103271 176.0
198.167572 212.0
198.276871 124.0
198.411407 132.0
198.614243 196.0
198.797791 224.0
198.930405 168.0
198.966904 152.0
199.009018 156.0
199.067368 168.0
199.111252 612.0
199.239319 152.0
199.320801 44.0
199.348907 120.0
199.444458 48.0
199.495056 84.0
199.559723 76.0
199.587845 172.0
199.897263 104.0
200.119385 176.0
200.308319 112.0
200.547836 208.0
200.609848 124.0
200.75 204.0
200.788986 144.0
200.869293 96.0
201.038574 180.0
201.117599 160.0
201.329346 120.0
201.549698 124.0
201.628815 204.0
201.671219 112.0
201.750366 144.0
201.874771 120.0
201.968109 140.0
202.076187 536.0
202.202942 172.0
202.310501 140.0
202.624863 88.0
202.800568 52.0
202.831741 184.0
202.851578 156.0
203.084091 1000.0
203.140823 124.0
203.225937 144.0
203.339447 212.0
203.433121 216.0
203.504105 152.0
203.722778 140.0
203.810867 232.0
203.881897 120.0
204.093048 744.0
204.157852 188.0
204.47345 132.0
204.839035 152.0
205.065491 564.0
205.097946 316.0
205.376648 88.0
205.396622 112.0
205.467941 56.0
205.525009 104.0
205.724686 120.0
205.767609 140.0
205.790451 108.0
205.81044 84.0
206.070953 512.0
206.107574 364.0
206.281845 72.0
206.353317 192.0
206.396194 120.0
206.618927 156.0
206.826996 116.0
207.073303 608.0
207.111649 204.0
207.27211 76.0
207.295029 192.0
207.831253 164.0
207.865692 184.0
207.917343 224.0
207.940308 156.0
208.003448 84.0
208.055115 72.0
208.08757 672.0
208.115417 120.0
208.368164 176.0
208.396896 112.0
208.517593 92.0
208.563583 88.0
208.773468 108.0
208.822357 140.0
208.989197 120.0
209.032364 192.0
209.060837 480.0
209.097382 312.0
209.182022 108.0
209.219894 264.0
209.288559 140.0
209.363419 124.0
209.668808 144.0
209.7005 56.0
209.789871 188.0
209.859055 140.0
209.955048 180.0
210.037857 184.0
210.065384 376.0
210.102921 216.0
210.161713 172.0
210.190765 88.0
210.242706 164.0
210.381256 52.0
210.531403 204.0
210.987946 116.0
211.078201 244.0
211.111557 1072.0
211.149872 112.0
211.187988 200.0
211.337906 92.0
211.439194 72.0
211.476807 104.0
211.746078 264.0
211.827179 68.0
211.95755 148.0
212.012619 144.0
212.080902 132.0
212.110809 164.0
212.212631 156.0
212.369217 140.0
212.389526 152.0
212.421432 104.0
212.50267 108.0
212.534592 44.0
212.647766 208.0
212.865494 212.0
212.903244 352.0
213.022339 120.0
213.117859 168.0
213.153076 168.0
213.452484 148.0
213.563492 164.0
213.693909 68.0
213.725906 108.0
213.772476 184.0
213.830673 176.0
214.139297 124.0
214.279129 168.0
214.567657 48.0
214.68721 120.0
214.7397 252.0
214.77179 168.0
214.973099 156.0
214.999359 100.0
215.025635 204.0
215.076965 184.0
215.1745 168.0
215.475327 128.0
215.604828 164.0
215.869919 132.0
216.090424 148.0
216.256104 176.0
216.607483 112.0
216.751038 100.0
216.853607 136.0
217.006042 116.0
217.091461 156.0
217.125412 136.0
217.191986 188.0
217.542923 208.0
217.877716 132.0
217.927658 224.0
217.986435 120.0
218.056244 164.0
218.280396 152.0
218.309799 160.0
218.445099 44.0
218.588455 132.0
218.656952 108.0
218.706985 168.0
218.874786 116.0
218.939575 112.0
218.998489 108.0
219.027939 164.0
219.081894 720.0
219.240067 56.0
219.396805 116.0
219.526031 168.0
219.585007 128.0
219.621353 188.0
219.947937 168.0
220.009918 120.0
220.033539 176.0
220.06012 180.0
220.086792 376.0
220.142792 168.0
220.458893 172.0
220.544601 88.0
220.772247 68.0
220.83812 280.0
221.056839 396.0
221.095047 1448.0
221.272324 92.0
221.296005 204.0
221.473694 200.0
221.529984 260.0
221.6633 132.0
221.838165 168.0
222.030899 64.0
222.067795 308.0
222.101501 300.0
222.386932 116.0
222.414673 184.0
222.604782 192.0
222.737305 156.0
222.81752 212.0
222.942322 88.0
223.075073 1684.0
223.110764 1788.0
223.159927 192.0
223.200943 52.0
223.426987 32.0
223.480545 116.0
223.642181 176.0
223.685898 60.0
223.816895 76.0
223.956863 40.0
224.022385 172.0
224.046219 172.0
224.07843 680.0
224.117783 968.0
224.147522 152.0
224.183289 200.0
224.424744 56.0
224.908035 120.0
224.952805 56.0
225.012512 108.0
225.055878 160.0
225.090393 960.0
225.117996 148.0
225.272339 52.0
225.352997 180.0
225.379898 168.0
225.426956 128.0
225.451614 184.0
225.556213 56.0
225.60405 148.0
225.638367 216.0
225.696732 92.0
225.717667 92.0
225.801392 132.0
226.064667 160.0
226.092682 412.0
226.169418 80.0
226.381989 152.0
226.840408 44.0
226.879379 244.0
227.00531 160.0
227.025162 224.0
227.092285 188.0
227.206268 40.0
227.332291 164.0
227.464355 228.0
227.508881 72.0
227.54541 168.0
227.57843 272.0
227.670914 160.0
227.746613 136.0
227.830719 172.0
227.905823 120.0
228.101181 112.0
228.161301 160.0
228.444855 196.0
228.73288 112.0
228.753952 116.0
228.943634 144.0
229.062454 248.0
229.522217 176.0
229.567444 100.0
229.760498 124.0
229.82988 40.0
229.854019 160.0
229.944565 68.0
230.340347 148.0
230.612045 104.0
230.666458 160.0
230.781342 100.0
230.872055 200.0
230.893234 128.0
231.093094 144.0
231.392517 140.0
231.437927 152.0
231.568146 172.0
231.592377 140.0
231.674164 128.0
231.713547 100.0
232.086365 152.0
232.386642 60.0
232.492844 192.0
232.541397 180.0
232.647644 212.0
232.702286 220.0
232.766052 108.0
232.835907 188.0
232.968521 212.0
233.058121 156.0
233.093613 560.0
233.4133 168.0
233.595779 160.0
233.741821 52.0
233.927475 116.0
234.040131 148.0
234.068558 476.0
234.125381 172.0
234.250275 144.0
234.289871 128.0
234.317291 160.0
234.34166 196.0
234.46051 88.0
234.759262 136.0
234.929123 204.0
234.960587 132.0
235.077255 888.0
235.109421 616.0
235.290192 108.0
235.462769 160.0
235.580322 184.0
235.616974 168.0
235.719711 60.0
235.800323 100.0
235.86145 240.0
235.907303 140.0
235.983734 168.0
236.017365 204.0
236.041824 132.0
236.083099 4308.0
236.179459 160.0
236.210037 136.0
236.283463 48.0
236.387497 140.0
236.677536 224.0
236.819168 308.0
236.917191 92.0
236.938644 104.0
237.018402 120.0
237.056671 1256.0
237.08876 2320.0
237.130859 104.0
237.165405 68.0
237.278824 60.0
237.301193 176.0
237.327881 212.0
237.518021 108.0
237.576309 180.0
237.695328 96.0
237.74324 188.0
238.061996 376.0
238.098831 4472.0
238.340805 244.0
238.408417 232.0
238.563889 172.0
238.654327 192.0
238.682007 140.0
238.820404 44.0
238.921906 128.0
238.992676 176.0
239.07103 1936.0
239.102005 1176.0
239.241974 132.0
239.383606 160.0
239.482162 52.0
239.546844 128.0
239.571487 176.0
239.626938 124.0
239.685486 28.0
239.710144 72.0
239.88736 40.0
239.913208 172.0
239.962891 64.0
240.014099 124.0
240.06926 232.0
240.106567 404.0
240.255875 232.0
240.302155 136.0
240.335236 92.0
240.363876 44.0
240.422501 76.0
240.632401 64.0
240.66507 180.0
240.919632 120.0
240.953613 64.0
241.07103 148.0
241.126648 108.0
241.312134 172.0
241.343048 156.0
241.443939 128.0
241.472931 48.0
241.612122 212.0
241.658539 108.0
241.860519 196.0
241.999008 120.0
242.077682 156.0
242.125961 168.0
242.339706 172.0
242.420273 56.0
242.510147 172.0
242.556641 196.0
242.600037 160.0
242.641144 108.0
242.662048 140.0
242.756424 164.0
242.88533 172.0
242.965988 220.0
242.993195 172.0
243.139755 100.0
243.164581 108.0
243.208038 160.0
243.263916 64.0
243.391205 104.0
243.543381 164.0
243.624146 180.0
243.871185 144.0
243.978424 136.0
244.258301 120.0
244.336075 140.0
244.482315 184.0
244.656631 108.0
244.700211 140.0
244.746918 160.0
244.846573 104.0
244.887054 88.0
245.058395 112.0
245.102661 192.0
245.214203 116.0
245.441772 104.0
245.479187 120.0
245.541565 52.0
245.578995 164.0
245.663208 184.0
245.847305 220.0
246.437485 140.0
246.681244 108.0
246.796921 156.0
246.956421 92.0
247.07489 388.0
247.303726 56.0
247.341278 184.0
247.475906 136.0
247.510345 140.0
247.579239 148.0
247.641876 124.0
247.76091 92.0
247.801636 96.0
247.970856 132.0
248.024139 128.0
248.07959 280.0
248.312607 72.0
248.35965 92.0
248.39415 176.0
248.450623 72.0
248.642029 144.0
248.682831 60.0
248.757339 212.0
248.921432 132.0
248.965393 116.0
249.051941 136.0
249.090973 1500.0
249.142334 204.0
249.26123 100.0
249.51561 188.0
249.55217 60.0
249.697662 164.0
249.757416 156.0
249.83606 156.0
249.908417 108.0
249.933594 76.0
250.06633 424.0
250.095322 468.0
250.257797 136.0
250.358566 196.0
250.569611 48.0
250.670441 80.0
250.758682 116.0
250.923889 136.0
250.991959 164.0
251.020203 176.0
251.069672 3556.0
251.106812 2936.0
251.291611 80.0
251.328598 188.0
251.392578 168.0
251.452545 232.0
251.493576 136.0
251.544083 36.0
251.575653 44.0
251.667206 68.0
251.705093 108.0
251.872482 40.0
251.951462 104.0
251.998856 168.0
252.075256 840.0
252.109528 1276.0
252.194778 148.0
252.412918 84.0
252.450867 48.0
252.523605 180.0
252.782654 68.0
252.814667 104.0
252.890625 28.0
253.050842 764.0
253.085892 212.0
253.146301 164.0
253.223083 112.0
253.400467 60.0
253.657166 124.0
253.679367 156.0
253.955231 156.0
254.093277 340.0
254.136063 140.0
254.170959 136.0
254.392517 208.0
254.482025 64.0
254.520126 244.0
254.564575 152.0
254.825043 120.0
254.889557 132.0
254.948975 88.0
255.041138 80.0
255.130142 168.0
255.158768 96.0
255.200089 32.0
255.305023 308.0
255.689163 188.0
255.779099 152.0
255.992416 144.0
256.014709 184.0
256.400208 164.0
256.45755 224.0
256.55957 180.0
256.581879 212.0
257.178802 200.0
257.264587 120.0
257.468964 152.0
257.644623 156.0
257.666992 48.0
257.718109 172.0
257.91626 112.0
257.948212 172.0
258.047333 176.0
258.152863 172.0
258.453552 56.0
258.584747 100.0
258.629547 100.0
258.66156 64.0
258.770233 136.0
258.952942 124.0
259.020203 152.0
259.054779 212.0
259.119507 120.0
259.468872 136.0
259.494507 320.0
259.616364 88.0
259.683716 44.0
259.834473 48.0
259.885803 100.0
260.062317 32.0
260.200348 160.0
260.733582 192.0
260.897491 116.0
260.929657 132.0
261.04541 284.0
261.0867 636.0
261.141876 48.0
261.169098 364.0
261.206207 136.0
261.669647 168.0
261.749084 236.0
261.914398 188.0
262.062836 208.0
262.110901 188.0
262.210815 96.0
262.323639 184.0
262.366302 132.0
262.452576 192.0
262.489319 136.0
262.51062 164.0
262.700928 124.0
262.726746 208.0
262.765442 156.0
262.849335 80.0
262.939697 56.0
262.997803 84.0
263.070221 716.0
263.110565 348.0
263.136597 92.0
263.166809 80.0
263.307739 136.0
263.36911 176.0
263.398193 100.0
263.427246 152.0
263.572357 180.0
263.712128 128.0
263.818298 72.0
263.876465 60.0
263.916595 144.0
264.036591 180.0
264.0784 3084.0
264.134155 88.0
264.145966 132.0
264.182373 232.0
264.229645 184.0
264.397278 200.0
264.507324 80.0
264.556091 116.0
264.608002 196.0
264.704803 84.0
264.772186 120.0
264.826294 144.0
264.908875 108.0
265.086334 4748.0
265.24588 56.0
265.281525 76.0
265.392487 144.0
265.423798 168.0
265.491211 196.0
265.539764 176.0
265.790741 152.0
265.849152 152.0
265.901062 52.0
265.936768 84.0
265.991943 184.0
266.021149 124.0
266.094482 5376.0
266.149597 60.0
266.188385 160.0
266.248444 44.0
266.290894 176.0
266.3284 180.0
266.463348 156.0
266.498566 36.0
266.540558 164.0
266.573059 100.0
266.618927 208.0
266.677307 48.0
266.701416 116.0
266.727203 160.0
266.759399 176.0
266.803467 296.0
266.830109 172.0
266.85257 88.0
266.865356 80.0
266.932037 332.0
266.97699 124.0
267.039215 292.0
267.102783 78892.0
267.190277 220.0
267.200073 212.0
267.209808 320.0
267.26593 116.0
267.300507 204.0
267.325592 68.0
267.335846 132.0
267.388519 216.0
267.422241 132.0
267.459167 172.0
267.481201 256.0
267.545105 36.0
267.553589 116.0
267.570892 52.0
267.576965 64.0
267.582672 88.0
267.637665 508.0
267.690338 52.0
267.713898 52.0
267.743378 72.0
267.808105 100.0
267.860046 76.0
267.908203 128.0
267.971191 252.0
267.979156 168.0
268.053864 288.0
268.105103 15900.0
268.157623 172.0
268.206207 100.0
268.246246 88.0
268.272308 140.0
268.319397 72.0
268.345825 64.0
268.433472 132.0
268.483154 56.0
268.544647 108.0
268.600006 140.0
268.679962 188.0
268.71698 136.0
268.790314 132.0
268.852905 80.0
268.888794 164.0
269.040588 104.0
269.107605 1732.0
269.170868 100.0
269.203278 168.0
269.290741 72.0
269.331512 116.0
269.486389 36.0
269.545197 44.0
269.598969 80.0
269.686249 104.0
269.738037 156.0
269.802185 188.0
269.842651 64.0
269.907745 128.0
269.956085 124.0
270.03421 176.0
270.105347 184.0
270.14328 112.0
270.156372 104.0
270.212219 32.0
270.274658 48.0
270.431488 104.0
270.477295 116.0
270.607971 48.0
270.755615 48.0
270.832214 144.0
270.881042 96.0
270.98819 88.0
271.04892 316.0
271.077423 220.0
271.135651 80.0
271.338867 32.0
271.399658 184.0
271.472809 80.0
271.512665 52.0
271.817749 96.0
271.899811 56.0
272.011383 108.0
272.191956 168.0
272.362762 64.0
272.408722 48.0
272.441589 52.0
272.716034 100.0
272.852386 164.0
273.523499 36.0
273.753967 136.0
274.075134 140.0
274.377136 188.0
274.706482 180.0
274.83847 136.0
274.876282 104.0
275.026581 96.0
275.066193 148.0
275.102173 84.0
275.237854 80.0
275.322052 120.0
275.502075 72.0
275.568176 36.0
275.667297 64.0
276.093292 124.0
276.131042 100.0
276.183044 44.0
276.308746 224.0
276.477509 44.0
276.619843 152.0
276.6539 124.0
276.692657 64.0
276.907898 180.0
276.957581 152.0
277.087891 2520.0
277.124969 268.0
277.293488 168.0
277.595245 300.0
277.628052 124.0
277.653625 56.0
277.680145 116.0
277.726593 56.0
277.756439 100.0
277.912354 96.0
277.96405 132.0
278.057861 132.0
278.091431 468.0
278.187836 92.0
278.221008 84.0
278.327271 132.0
278.350494 108.0
278.394897 140.0
278.457062 92.0
278.476562 92.0
278.484985 180.0
278.516571 108.0
278.546448 92.0
278.595764 104.0
278.638947 152.0
278.667847 172.0
278.718811 96.0
278.723267 236.0
278.766693 188.0
278.808929 128.0
278.840668 124.0
278.850006 68.0
278.863739 148.0
278.927582 272.0
278.967773 112.0
278.996399 408.0
279.102936 67452.0
279.181793 220.0
279.219635 196.0
279.257141 64.0
279.281128 124.0
279.325409 76.0
279.408417 184.0
279.440735 128.0
279.477539 64.0
279.51062 304.0
279.544739 44.0
279.57843 120.0
279.648071 72.0
279.692963 96.0
279.735046 92.0
279.783539 40.0
279.840149 40.0
279.892181 168.0
279.961121 192.0
280.013306 52.0
280.044739 128.0
280.105103 12408.0
280.160553 220.0
280.184265 108.0
280.22049 100.0
280.302948 68.0
280.315826 64.0
280.328003 120.0
280.359772 156.0
280.403107 48.0
280.426453 48.0
280.459778 52.0
280.513977 76.0
280.555115 200.0
280.658691 84.0
280.740509 60.0
280.79483 104.0
280.843231 76.0
280.87323 56.0
280.956635 76.0
281.107239 1204.0
281.163849 40.0
281.245789 92.0
281.380493 120.0
281.417206 88.0
281.491364 116.0
281.546753 96.0
281.610901 120.0
281.659241 76.0
281.697754 52.0
281.724487 116.0
281.754547 48.0
281.800507 92.0
281.870148 80.0
281.887482 56.0
281.893372 124.0
282.008392 124.0
282.031891 120.0
282.107269 412.0
282.171051 116.0
282.220551 84.0
282.284149 160.0
282.352875 40.0
282.42981 104.0
282.456573 56.0
282.590393 232.0
282.648193 72.0
282.720886 48.0
282.86145 76.0
282.931763 116.0
282.96524 56.0
282.992035 132.0
283.112579 108.0
283.181305 76.0
283.246552 60.0
283.467651 76.0
283.641937 196.0
283.665405 192.0
283.769348 80.0
283.903473 176.0
283.970551 40.0
284.065918 184.0
284.302673 132.0
284.336243 192.0
284.661896 80.0
284.970917 168.0
285.060242 156.0
285.475128 120.0
285.646637 128.0
285.754303 168.0
285.781219 124.0
285.89563 156.0
286.521912 64.0
286.609528 156.0
287.118561 112.0
287.148895 164.0
287.277069 56.0
287.351318 104.0
287.75293 40.0
287.810333 184.0
287.860992 68.0
288.107544 88.0
288.151489 116.0
288.202148 56.0
288.803925 96.0
288.940521 188.0
289.089722 184.0
290.107605 68.0
290.392426 44.0
290.633301 160.0
291.003265 120.0
291.110687 352.0
291.207031 108.0
291.32251 136.0
291.794891 116.0
291.859497 164.0
291.907104 72.0
291.998932 28.0
292.109253 140.0
292.276703 240.0
292.413605 112.0
292.482086 112.0
292.64209 80.0
292.768066 36.0
292.887299 84.0
293.033783 60.0
293.103821 140.0
293.429138 108.0
293.899811 148.0
294.073853 164.0
294.268433 124.0
294.312836 224.0
294.516632 212.0
294.879913 196.0
294.975616 80.0
295.132874 156.0
295.954071 168.0
296.085052 144.0
296.121887 232.0
296.238342 132.0
296.522736 84.0
296.584442 184.0
296.999329 116.0
297.133118 188.0
297.253204 152.0
297.455688 168.0
297.843719 64.0
298.085144 240.0
298.109741 216.0
298.183868 60.0
298.34198 120.0
298.926697 116.0
299.202057 72.0
300.553162 52.0
300.598022 188.0
300.691193 92.0
300.853424 60.0
300.929382 96.0
301.184937 52.0
301.540802 204.0
301.606476 132.0
301.886536 144.0
302.10788 112.0
302.34317 84.0
302.381256 128.0
302.405487 36.0
303.105164 120.0
304.100342 224.0
304.63855 112.0
304.871368 116.0
305.024292 148.0
305.083649 924.0
305.229401 132.0
305.282318 92.0
306.081207 132.0
306.117493 228.0
306.297882 152.0
306.434784 132.0
306.559174 60.0
306.656769 120.0
306.684631 140.0
306.801849 148.0
306.925201 132.0
306.949585 156.0
306.976959 152.0
307.048706 200.0
307.097168 10436.0
307.183289 96.0
307.451935 96.0
307.553162 80.0
307.643921 132.0
307.720734 44.0
307.78009 56.0
307.818481 44.0
307.856903 108.0
307.919769 40.0
308.021057 244.0
308.100555 2840.0
308.157806 136.0
308.251648 44.0
308.297089 124.0
308.321533 72.0
308.499817 128.0
308.524261 52.0
308.709595 152.0
308.778992 52.0
308.825012 64.0
308.971924 144.0
308.996155 52.0
309.108673 668.0
309.421509 160.0
309.545959 92.0
309.615997 116.0
309.805145 72.0
309.899719 136.0
309.976807 36.0
310.039886 104.0
310.092468 152.0
310.126129 168.0
310.194122 116.0
310.246704 120.0
310.292267 92.0
310.327332 80.0
310.411499 64.0
310.516693 164.0
310.562286 124.0
310.885071 80.0
311.03598 136.0
311.453827 68.0
311.738434 96.0
311.942261 80.0
312.107513 48.0
312.174316 152.0
312.754822 116.0
312.89212 100.0
313.43454 164.0
313.541718 144.0
314.072662 88.0
314.351379 104.0
314.450195 92.0
314.520782 176.0
314.59491 56.0
314.770905 128.0
315.191803 92.0
315.488678 116.0
315.679626 56.0
316.153656 136.0
316.196136 124.0
316.741394 92.0
317.106354 96.0
317.691437 196.0
317.865265 204.0
318.475922 84.0
318.529205 84.0
318.802765 100.0
319.019592 76.0
319.176025 64.0
319.510345 108.0
319.602875 180.0
319.738098 272.0
319.848419 88.0
319.887573 56.0
319.965912 108.0
320.119019 168.0
320.364777 184.0
321.402283 116.0
321.445099 108.0
321.950409 68.0
322.057312 116.0
322.09845 140.0
322.141327 92.0
322.173462 96.0
322.298523 60.0
322.62735 64.0
322.74176 76.0
322.877625 168.0
322.932434 172.0
323.020721 112.0
323.161041 144.0
323.299774 220.0
323.332001 72.0
323.382111 40.0
323.421478 104.0
323.450104 156.0
323.485901 136.0
323.546753 176.0
323.583008 64.0
323.677246 208.0
323.77594 108.0
323.874573 148.0
323.901306 168.0
323.982452 152.0
324.041016 188.0
324.12439 51740.0
324.229187 164.0
324.255402 52.0
324.269104 56.0
324.304535 52.0
324.340332 68.0
324.38504 152.0
324.443512 120.0
324.496887 68.0
324.523651 128.0
324.59671 164.0
324.707764 72.0
324.783386 76.0
324.821808 40.0
324.842651 72.0
324.855804 44.0
324.933746 40.0
324.997131 60.0
325.027679 108.0
325.12616 12096.0
325.267487 48.0
325.306976 48.0
325.337402 84.0
325.429047 48.0
325.464355 160.0
325.488708 84.0
325.521393 84.0
325.558319 44.0
325.610779 72.0
325.68277 132.0
325.718323 36.0
325.773804 64.0
325.79895 76.0
325.877991 104.0
325.91394 44.0
325.957062 64.0
325.992981 32.0
326.02533 36.0
326.056915 56.0
326.127594 1580.0
326.187073 36.0
326.240997 64.0
326.28125 144.0
326.438751 48.0
326.489105 104.0
326.546631 84.0
326.589813 88.0
326.661743 60.0
326.735291 116.0
326.766083 156.0
326.820038 140.0
326.881226 152.0
326.960388 52.0
326.985565 36.0
327.097168 152.0
327.128998 492.0
327.206635 108.0
327.269958 36.0
327.311401 96.0
327.345581 48.0
327.380493 92.0
327.435608 132.0
327.597687 116.0
327.694977 28.0
327.749023 60.0
327.788971 44.0
327.907593 80.0
328.008514 116.0
328.066895 100.0
328.139832 132.0
328.272614 128.0
328.378784 156.0
328.430389 48.0
328.688721 68.0
328.769531 136.0
329.025818 56.0
330.048309 148.0
330.355743 64.0
330.554718 56.0
330.688629 100.0
331.166565 120.0
331.369415 52.0
331.681091 80.0
331.734222 164.0
331.989258 120.0
332.134338 136.0
332.671387 52.0
333.732269 56.0
334.245148 136.0
334.387054 104.0
334.423462 32.0
334.685577 56.0
335.304871 84.0
335.454315 112.0
335.578247 184.0
335.640259 120.0
335.806366 108.0
335.902832 96.0
335.997681 64.0
336.121674 6912.0
336.260406 60.0
336.431976 44.0
336.593079 64.0
336.6474 80.0
336.705841 80.0
336.742371 72.0
336.819061 64.0
336.8573 128.0
336.890533 72.0
336.976135 56.0
337.084625 64.0
337.126892 2488.0
337.195404 44.0
337.487854 48.0
337.57196 68.0
337.674347 96.0
337.956024 104.0
338.029205 48.0
338.128632 376.0
338.472137 72.0
338.625946 40.0
339.102234 40.0
339.138885 156.0
339.439514 40.0
339.622894 72.0
340.151276 76.0
341.985474 32.0
342.199005 44.0
342.298401 64.0
343.167999 48.0
343.333923 88.0
344.829163 48.0
345.302429 156.0
346.335052 40.0
347.013245 84.0
347.317322 136.0
347.458282 216.0
347.502808 76.0
347.580719 68.0
347.762573 56.0
347.985321 76.0
348.104126 44.0
348.50531 164.0
350.116028 104.0
350.153259 80.0
350.984283 156.0
351.147491 152.0
351.211792 124.0
351.360992 68.0
354.869202 124.0
356.16391 56.0
357.10733 92.0
358.323242 88.0
358.473938 180.0
358.933838 192.0
360.073517 144.0
360.700714 72.0
361.173401 52.0
362.195404 136.0
362.953369 168.0
363.171417 148.0
363.685547 48.0
364.031036 60.0
364.160187 112.0
365.163574 108.0
365.216827 116.0
365.760956 44.0
366.137878 108.0
366.419769 132.0
366.572174 40.0
367.323273 52.0
370.75293 84.0
371.074921 88.0
371.136261 164.0
372.014832 52.0
372.145386 88.0
373.436584 128.0
373.728943 80.0
376.809601 68.0
380.48114 64.0
380.729645 120.0
381.083557 108.0
382.767365 84.0
383.308807 84.0
384.552856 232.0
385.392456 76.0
385.752014 228.0
386.67514 52.0
386.894318 80.0
388.19516 164.0
388.293213 96.0
388.665894 180.0
388.968079 140.0
389.176453 404.0
389.88324 92.0
390.185211 164.0
390.194916 136.0
390.212036 68.0
390.457214 48.0
391.164398 120.0
391.216644 152.0
394.914032 140.0
395.424408 156.0
396.676056 52.0
396.925842 76.0
397.755035 88.0
399.014343 80.0
399.45578 104.0
399.491577 68.0
400.048706 148.0
400.192047 64.0
402.480743 180.0
402.852173 124.0
403.183807 144.0
403.483612 104.0
403.667511 108.0
406.519714 232.0
408.287354 332.0
408.315491 60.0
410.449829 132.0
410.69989 72.0
411.50296 96.0
411.886597 120.0
412.310852 128.0
413.686066 64.0
414.107178 68.0
414.552826 84.0
414.873047 52.0
415.29071 88.0
415.388062 124.0
415.557098 60.0
415.952087 76.0
416.134796 52.0
416.362183 64.0
416.744019 232.0
416.967529 32.0
417.317139 184.0
417.455383 108.0
417.762299 104.0
417.804779 120.0
417.931305 124.0
417.966431 132.0
418.130524 348.0
418.201965 19580.0
418.274963 208.0
418.332275 76.0
418.374939 36.0
418.452271 56.0
418.491028 108.0
418.564331 48.0
418.643829 56.0
418.694 100.0
418.752106 128.0
418.79245 172.0
418.837463 172.0
418.900269 36.0
418.989868 32.0
419.034698 72.0
419.079529 40.0
419.11618 200.0
419.204254 5044.0
419.389221 196.0
419.466675 32.0
419.592346 92.0
419.606781 76.0
419.829559 64.0
419.898895 36.0
420.049805 96.0
420.119141 164.0
420.207184 824.0
420.449646 140.0
420.501465 52.0
420.568024 72.0
420.702728 64.0
420.755798 40.0
420.919128 56.0
420.96463 84.0
421.057953 40.0
421.106964 136.0
421.155975 40.0
421.213165 144.0
421.249939 92.0
421.401093 72.0
421.560455 116.0
421.609497 60.0
421.668762 64.0
421.715759 100.0
421.8302 64.0
421.973297 128.0
422.198212 120.0
422.578613 68.0
422.815948 52.0
422.918274 68.0
423.16391 140.0
423.293793 172.0
423.438263 68.0
423.684021 80.0
423.958557 56.0
424.528381 64.0
425.751343 76.0
426.207306 68.0
426.733429 92.0
428.095428 168.0
429.220398 80.0
429.356476 128.0
429.542084 124.0
432.877411 88.0
434.191101 40.0
434.456573 100.0
435.55249 72.0
436.354553 52.0
437.074097 128.0
437.815094 56.0
438.84433 120.0
446.200409 160.0
449.376251 112.0
449.439545 76.0
451.446045 116.0
452.550446 92.0
454.436554 84.0
454.474762 108.0
455.13266 116.0
456.415894 84.0
457.654083 76.0
459.712952 96.0
463.998871 60.0
465.002625 92.0
465.247314 56.0
465.290222 52.0
467.88266 40.0
472.067993 72.0
476.172089 104.0
478.611725 28.0
480.568787 76.0
482.630402 148.0
486.209351 152.0
486.244446 72.0
488.524933 56.0
488.872528 160.0
489.801514 108.0
490.206848 92.0
491.256195 92.0
492.249268 80.0
495.562286 60.0
502.101288 72.0
502.172638 172.0
502.310913 68.0
503.207916 136.0
505.277222 68.0
506.912323 112.0
508.445251 64.0
508.606812 52.0
510.147583 60.0
513.596863 68.0
514.341431 64.0
518.130981 60.0
522.348328 124.0
523.153809 168.0
530.939758 148.0
532.74823 44.0
533.313416 36.0
533.455933 108.0
538.325989 120.0
543.956055 72.0
544.146362 80.0
547.699219 96.0
553.19635 76.0
554.919373 92.0
556.218872 64.0
566.006348 40.0
567.802368 56.0
570.119141 68.0
570.375793 96.0
571.617126 60.0
574.99115 68.0
576.896973 72.0
578.853882 108.0
585.269104 68.0
589.267578 80.0
590.113342 116.0
592.528442 80.0
594.336975 36.0
597.276123 60.0
599.788696 64.0
601.325134 80.0
601.837708 128.0
607.029419 76.0
611.253967 84.0
616.555237 52.0
617.722107 60.0
619.727173 92.0
626.140259 100.0
629.376648 52.0
632.956848 28.0
638.949768 52.0
643.692688 136.0
652.524292 112.0
662.563171 60.0
663.249878 28.0
667.115173 76.0
671.940735 116.0
672.023254 48.0
673.966797 48.0
677.866211 40.0
685.447815 112.0
704.372192 56.0
707.830994 72.0
724.325378 44.0
725.94397 100.0
729.503723 52.0
736.627686 104.0
741.286072 104.0
746.600647 60.0
746.85083 204.0
754.982788 52.0
757.5224 32.0
765.585388 100.0
773.596924 120.0
776.306335 56.0
783.11438 56.0
797.224182 168.0
809.618408 100.0
826.765747 108.0
830.036743 32.0
834.383118 96.0
843.821045 108.0
852.312256 208.0
869.005676 176.0
872.241516 72.0
872.447266 124.0
877.799255 76.0
880.620239 44.0
891.408386 48.0
900.409912 212.0
905.613281 112.0
910.963806 64.0
914.872681 212.0
915.444641 88.0
925.541016 88.0
937.745544 156.0
950.668152 100.0
951.773071 76.0
954.427551 188.0
958.32373 184.0
958.440796 108.0
976.604492 116.0
977.767944 80.0
979.473938 100.0
981.736389 88.0
992.335144 112.0
995.171082 64.0
996.898438 216.0
997.954468 192.0
1000.533997 36.0
1019.624207 108.0
1024.587402 40.0
1025.657959 88.0
1028.2229 144.0
1028.381592 148.0
1031.639282 148.0
1038.631836 48.0
1040.672607 32.0
1043.846802 148.0
1045.043213 132.0
1048.378662 168.0
1048.978149 140.0
1051.764648 180.0
1051.842163 68.0
1057.517212 160.0
1060.250366 124.0
1064.012451 104.0
1065.99353 112.0
1066.994507 120.0
1077.951172 144.0
1079.761963 96.0
1081.103149 32.0
1109.260254 140.0
1110.51355 232.0
1110.904907 156.0
1111.734253 172.0
1114.190918 84.0
1117.821289 52.0
1119.938354 128.0
1120.631226 156.0
1121.097656 188.0
1124.705811 224.0
1125.767334 60.0
1130.520386 148.0
1138.021118 172.0
1140.970581 124.0
1142.537598 56.0
1145.445679 140.0
1149.841797 212.0
1153.577026 144.0
1169.633179 156.0
1182.464966 152.0
1184.279419 176.0
1186.643555 144.0
1191.317139 232.0
1193.172729 180.0
1193.592041 228.0
1206.851562 208.0
1208.144897 240.0
1210.802856 160.0
1215.579224 232.0
1215.669434 228.0
1217.773071 160.0
1220.830933 256.0
1222.326538 36.0
1224.839844 164.0
1229.741577 188.0
1231.934082 128.0
1235.03772 232.0
1235.233521 188.0
1244.05603 200.0
1247.906006 176.0
1248.960815 116.0
1249.094482 80.0
1256.089233 168.0
1265.608765 184.0
1268.166138 164.0
1271.350464 124.0
1277.361328 164.0
1282.224365 176.0
1282.324097 132.0
1294.497559 192.0
1295.786865 88.0
1296.023315 200.0
1301.596558 76.0
1302.041748 84.0
1306.124268 192.0
1314.871094 188.0
1315.925049 184.0
1316.553223 160.0
1320.593262 144.0
1323.292358 204.0
1324.031006 156.0
1327.284668 136.0
1328.292847 120.0
1328.807861 140.0
1333.615112 60.0
1333.680542 152.0
1334.044067 144.0
1337.804932 188.0
1340.026245 176.0
1343.978027 160.0
1348.812622 220.0
1349.170776 80.0
1350.508911 100.0
1351.306274 152.0
1352.286865 148.0
1353.524048 68.0
1356.769775 52.0
1358.031128 200.0
1360.775513 196.0
1361.730225 196.0
1362.993774 92.0
1363.934448 132.0
1365.757935 172.0
1366.339111 152.0
1367.884521 64.0
1368.281982 148.0
1370.417847 52.0
1373.388672 196.0
1374.126465 104.0
1375.425171 140.0
1376.318481 184.0
1378.674927 208.0
1379.199707 116.0
1380.582275 176.0
1382.720215 92.0
1385.348877 232.0
1386.467651 96.0
1388.55835 184.0
1388.847534 48.0
1389.400391 116.0
1394.037109 192.0
1396.557373 208.0
1397.137573 36.0
1399.213989 132.0
1400.122314 136.0
1403.945435 176.0
1406.116455 140.0
1417.303589 168.0
1417.453491 68.0
1422.380859 120.0
1426.549805 172.0
1426.782837 48.0
1428.031128 176.0
1430.755127 156.0
1434.574463 156.0
1436.776611 240.0
1438.519775 80.0
1441.253784 176.0
1442.311768 180.0
1443.967529 168.0
1447.494141 36.0
1450.835449 96.0
1452.670532 168.0
1452.920898 156.0
1453.300293 176.0
1456.883789 160.0
1458.297119 160.0
1459.56665 124.0
1461.894287 172.0
1463.812622 140.0
1467.950439 212.0
1473.209106 168.0
1473.88147 68.0
1474.179443 244.0
1474.401001 260.0
1485.311401 92.0
1486.047974 248.0
1486.738525 148.0
1487.759399 180.0
1489.771362 72.0
1492.807373 156.0
1494.391846 172.0
1500.29126 92.0
1501.61377 152.0
1501.717773 188.0
1502.273071 208.0
