>compound Drospirenone
>formula C24H30O3 
>ionization [M+H]+
>parentmass 367.227539
#inchi InChI=1S/C24H30O3/c1-22-6-3-12(25)9-17(22)13-10-14(13)20-16(22)4-7-23(2)21(20)15-11-18(15)24(23)8-5-19(26)27-24/h9,13-16,18,20-21H,3-8,10-11H2,1-2H3/t13-,14+,15-,16+,18+,20-,21+,22-,23+,24+/m1/s1
#inchikey METQSPRSQINEEU
#Ion_Source LC-ESI
#Instrument qTof
#Compound_Source Isolated
#PI Sirenas
#Data_Collector Ed Esquenazi 
#Scan -1
#Precursor_MZ 367.228
#ExactMass 0.0
#Charge 1
#CAS_Number N/A
#Pubmed_ID N/A
#Smiles N/A
#INCHI_AUX N/A
#Library_Class 3
#SpectrumID CCMSLIB00000005507
#IonMode Positive
#UpdateWorkflowName UPDATE-SINGLE-ANNOTATED-BRONZE
#LibraryQualityString Bronze
#TaskID d19310cd93df49b68e9fcbec27720eb5
##Scan# 2
#SpectrumFile Drospirenone.mgf
#LibraryName fda_library.mgf
#MQScore -1
#Organism fda_library
#TIC_Query 0
#RT_Query -1
#MZErrorPPM -1
#SharedPeaks 0
#MassDiff 0
#LibMZ -1
#SpecMZ 367.228
#SpecCharge 0
#internalFilename spec-00000.mgf

>collision 10
100.008049 5.386968
100.045219 44.666672
100.267731 8.796296
101.02253 11.60887
101.061623 33.976311
101.156532 2.533333
101.478081 1.5
102.194252 4.333333
103.273445 6.643282
103.941956 9.282609
104.514572 3.12004
104.575813 1.520833
104.756378 4.760417
104.870277 3.724856
104.880272 6.494971
104.90593 3.960938
104.957581 2.041667
105.034454 4.56813
105.069946 2177.156006
105.120316 8.96733
105.130508 5.694445
105.166115 5.561274
105.190689 12.09831
105.212631 2.942935
105.219582 2.008333
105.237549 1.333333
105.284004 4.844298
105.300713 5.816667
105.333801 10.00947
105.363594 9.989584
105.39463 3.368534
105.436172 14.28257
105.453209 5.460227
105.466171 7.289541
105.473221 5.851191
105.496346 10.02402
105.547928 9.148809
105.559906 3.648284
105.584045 7.86
105.59922 10.86782
105.61618 6.082237
105.660194 3.168056
105.688278 5.333333
105.7034 5.893939
105.727043 3.565104
105.73777 4.545608
105.778259 8.168403
105.830803 4.054824
106.071968 15.59643
106.519127 6.199717
106.529167 2.568056
106.622971 2.386905
107.048447 184.642395
107.085686 1867.843994
107.144714 6.062613
107.170586 8.681159
107.220848 2.1125
107.26123 7.467129
107.28521 3.047619
107.307259 16.21574
107.349709 15.1642
107.375351 5.000906
107.400764 3.527244
107.4366 2.166667
107.465454 4.882936
107.523163 1.701389
107.566452 6.667092
107.602539 3.167438
107.6278 1.837963
107.703606 2.166667
107.721657 4.024899
107.945633 2.669444
108.605156 12.61232
108.626945 6.260671
108.706001 7.218391
108.829361 5.191565
108.949158 7.501126
109.018349 17.931231
109.06501 1032.708984
109.1008 421.652496
109.132278 3.3
109.141777 3.168056
109.148964 2.669643
109.159874 1.334722
109.1819 25.572479
109.192749 7.549603
109.211945 10.21102
109.245041 15.44003
109.262474 10.17172
109.286911 3.505953
109.30172 4.620098
109.325455 6.478334
109.398659 9.722994
109.523872 7.000366
109.723709 10.50829
110.054642 1.704167
110.377289 4.662725
110.406494 9.986413
110.446693 5.074912
110.45401 9.584504
110.526802 6.005357
110.560059 8.00947
110.707268 4.334325
110.75412 7.041667
110.966782 8.854167
111.044319 2038.214966
111.080383 486.810608
111.114784 51.269981
111.120743 1.854167
111.135109 1.350379
111.157082 5.888889
111.177414 10.20104
111.190125 5.501437
111.234154 5.722222
111.242897 8.708096
111.273285 7.705128
111.289192 5.357143
111.348351 5.820153
111.426384 1.540064
111.439713 7.548387
111.478493 11.67214
111.526375 6.286706
111.538963 3.877778
111.623505 8.608993
111.741066 3.877778
112.008957 1.891204
112.028305 3.673611
112.058853 30.69116
112.145439 7.473684
112.201218 1.834325
113.290924 2.334559
113.576225 2.884615
113.720673 2.335648
113.795189 2.040064
115.054756 69.517509
115.074249 2.611111
115.202187 5.622874
115.217117 2.700758
115.613289 1.671296
116.060699 57.83633
116.576134 3.167659
116.593575 44.595161
116.705383 3.796875
117.024033 2.841486
117.069511 672.627808
117.115707 1.667763
117.133194 6.428572
117.148521 6.953224
117.172745 1.75
117.210648 16.555361
117.285942 6.027243
117.298935 12.00099
117.351875 7.135803
117.393372 2.041667
117.525101 3.898438
117.638268 3.554435
117.689606 2.8
118.432617 10.99187
118.502914 9.320833
118.531654 1.820076
118.572075 11.66688
118.604355 2.755208
118.750084 4.024802
119.085335 2177.281006
119.120201 7.034722
119.133339 11.56172
119.14621 1.8
119.194962 11.3675
119.209396 4.224856
119.225502 3.78125
119.25856 4.377717
119.272667 19.964821
119.290947 1.183712
119.311943 2.220395
119.323479 1.502976
119.376007 8.208333
119.384171 10.66779
119.420227 12.82732
119.44474 8.506465
119.472115 6.866264
119.581894 4.694444
119.620033 2.863971
119.833107 4.5
119.97406 3.360119
120.074028 6.648214
120.595955 3.7075
120.657104 3.0625
120.687546 2.514423
121.06498 1228.417969
121.101883 560.695679
121.144386 7.370619
121.1726 4.756893
121.192703 27.943489
121.215668 4.408333
121.235291 14.86816
121.257805 5.168478
121.266014 3.370471
121.280792 8.508013
121.295593 5.253472
121.350403 4.629751
121.367287 3.520412
121.397148 7.167201
121.407196 1.3375
121.439545 4.253472
121.50145 4.566123
121.56736 4.722222
121.836967 10.16793
121.875359 2.4
122.097961 1.208333
122.163475 9.617285
122.436714 1.505208
122.455971 5.22815
122.471596 3.673611
122.552231 4.002778
122.644676 2.666667
122.764114 10.33464
122.7771 6.546696
122.798386 14.04097
122.96933 2.380952
123.045761 2.335227
123.080635 1796.197998
123.112923 100.921204
123.130142 2.932598
123.145142 2.296474
123.203957 7.350636
123.264435 10.52778
123.280312 16.02272
123.335365 2.347756
123.368942 4.044384
123.381676 4.481482
123.438828 8.994048
123.600945 2.083333
123.660027 4.005357
123.674911 6.531863
124.049446 4.387821
124.0793 4.963235
124.087639 10.61732
124.33506 3.547348
124.419434 5.041667
124.555351 7.560484
124.86602 3.834559
125.060135 561.926208
125.094803 100.931099
125.126701 1.175
125.14225 1.8375
125.189072 7.266447
125.274597 5.844415
125.582367 3.358135
126.570671 2.204167
126.592438 8.180555
126.60981 1.010417
126.641129 7.011574
127.038475 25.6875
127.075005 223.378098
127.170624 8.251489
127.527733 1.928571
128.060547 61.226261
128.224594 3.204167
128.629837 4.835648
129.069366 829.754822
129.087936 5.16875
129.113953 6.482143
129.166489 8.193452
129.190262 3.588816
129.210495 3.5
129.269836 5.840278
129.341019 1.880208
129.686249 4.526786
129.954376 10.73162
130.355698 6.585874
130.402008 5.200833
130.413452 9.590085
130.439346 1.901389
130.468399 11.97068
130.49234 2.173611
130.505951 5.074074
130.534683 2.580357
130.662292 6.081893
130.77655 2.5625
130.904572 3.03125
131.085464 2001.52002
131.111618 2.348485
131.132248 7.852536
131.139511 5.004808
131.185364 13.0
131.236771 12.69624
131.247147 4.371142
131.27504 5.522727
131.292908 9.396132
131.374664 2.884615
131.390701 9.902205
131.434769 1.928571
131.451157 12.41344
131.483871 2.568056
131.498215 2.863971
131.52597 7.153409
131.53418 12.6461
131.570114 4.898551
131.649048 5.38966
131.877441 10.21078
132.305206 8.671735
132.41745 5.868055
132.53949 13.56694
132.629364 3.6875
132.690323 3.80303
132.725876 2.5
132.758026 4.505357
133.002563 3.859509
133.064423 367.119598
133.10051 1472.328979
133.147903 13.65915
133.169754 14.01296
133.19014 6.741667
133.246262 18.20401
133.264023 3.017045
133.27124 4.671875
133.279541 8.966115
133.286942 2.648284
133.299622 6.334596
133.328278 7.133796
133.338303 2.280092
133.404449 3.176471
133.440247 2.341486
133.452362 4.178241
133.478043 1.260417
133.490143 3.878788
133.596603 2.75
133.621796 5.667201
133.653915 10.99187
133.729736 3.013889
133.86264 2.083333
134.274536 12.0741
134.343307 5.215278
134.398529 31.573891
134.425903 5.875
134.507309 3.173132
134.521118 15.70125
134.555847 5.729167
135.080292 1939.051025
135.11673 616.400696
135.164978 4.146667
135.201401 2.714015
135.246674 8.232761
135.258957 4.034091
135.319656 3.828305
135.352051 6.031746
135.369263 8.235076
135.423401 24.90169
135.452698 5.946908
135.461212 6.808569
135.497742 7.265432
135.546234 8.166667
135.582962 8.489899
135.631302 4.834052
135.674561 3.62004
135.714798 8.235711
135.757019 9.779279
135.959671 5.76923
136.224365 12.84794
136.448196 3.640152
136.646576 6.115919
136.970261 14.91098
137.060577 106.922501
137.096466 435.963013
137.133484 62.384991
137.142654 3.51796
137.183395 1.5125
137.214828 10.36756
137.252686 2.670139
137.276123 8.273809
137.354568 1.683712
137.366821 3.166667
137.399048 2.799342
137.443878 2.734722
138.180695 3.453373
138.309143 4.242424
139.075668 131.101395
139.111099 31.629219
139.273468 5.107456
139.559616 5.279167
141.047089 6.075758
141.069016 291.780609
141.090027 66.440208
141.127029 2.381944
141.143616 6.707843
141.28833 11.98182
141.365631 13.09208
141.404114 2.166667
141.531479 2.541667
141.553192 3.645833
141.837967 2.911859
142.216675 4.963235
142.35527 26.36433
142.377975 4.180556
142.394669 8.393346
142.406586 4.157052
142.440491 6.306159
142.523346 2.422149
142.63121 3.760031
142.936035 3.453373
143.085327 2067.6521
143.135223 7.275064
143.155136 8.673913
143.184387 6.564015
143.234344 2.678571
143.255173 3.669118
143.274033 3.673611
143.317627 5.710892
143.330124 3.080128
143.375946 5.341667
143.419006 2.006944
143.476074 2.514423
143.518692 5.633333
143.584305 2.016667
143.613586 6.339798
143.75943 3.500508
144.164322 3.502451
144.185211 3.667298
144.414566 2.932598
144.548874 1.677696
144.674438 3.802778
145.062317 106.285896
145.100632 1599.453003
145.150177 13.16573
145.181137 4.519737
145.18956 7.291667
145.260788 2.355978
145.285034 5.1875
145.305664 9.995608
145.319489 4.333868
145.332047 13.00026
145.387115 8.151895
145.471039 2.942935
145.487274 1.169643
145.514267 4.628205
145.611908 9.120591
145.650955 10.66786
145.725052 2.5625
146.113129 4.846154
146.19426 3.694257
146.218338 3.341486
146.247787 2.834239
146.285645 3.217949
146.459457 9.724133
146.491974 11.18803
146.521683 6.133928
146.534012 5.935897
146.552185 7.391203
146.58876 1.334722
146.9133 7.748903
147.053375 13.1136
147.080017 1358.05896
147.117096 674.084412
147.14949 4.339015
147.170593 2.011029
147.194717 3.040833
147.23175 1.125
147.25145 4.444444
147.264786 34.296692
147.291885 2.001894
147.311508 2.755208
147.335876 21.95536
147.361649 2.1875
147.386383 5.909171
147.449265 6.17124
147.478836 3.506048
147.506638 10.79409
147.640503 6.488313
147.800095 5.234848
147.914307 8.174933
147.935379 2.347756
147.965088 5.336407
147.991531 2.942935
148.34407 2.354167
148.441101 3.12963
148.491074 8.415642
148.591858 5.788075
148.641129 3.986742
148.740692 1.901389
148.808441 5.002083
148.859329 5.402369
148.903152 5.460227
149.053925 7.172024
149.095795 2622.650879
149.130646 191.186493
149.166504 6.6125
149.18396 5.582314
149.209091 3.907738
149.225647 22.828011
149.241592 3.834052
149.271927 9.944776
149.294769 19.012131
149.32193 6.662725
149.330841 2.884615
149.352112 7.97338
149.376526 10.26351
149.396118 6.58173
149.407242 3.066667
149.445648 4.547348
149.454163 2.343202
149.484558 18.58292
149.526703 4.176535
149.573242 9.836132
149.671249 9.961582
149.679657 4.921017
149.705185 4.000631
149.741867 2.734722
149.765152 4.727904
149.857819 6.000534
150.313248 22.609449
150.361633 12.10333
150.47168 6.694079
151.044739 4.05819
151.075363 738.634277
151.11142 181.1185
151.22023 3.828305
151.261444 1.741071
151.279984 2.871142
151.305649 3.581317
151.385132 4.541667
151.489716 6.833776
151.540192 4.222222
151.566803 2.011029
151.734451 3.726716
151.764359 7.714285
151.896378 3.958333
152.098221 1.547348
152.254089 3.080044
152.492081 5.500992
152.678116 5.320076
152.934509 5.629808
152.974854 4.709936
153.069885 62.459942
153.090164 2083.966064
153.14447 6.344804
153.156006 3.222222
153.164322 2.690476
153.177155 9.095201
153.210892 5.7675
153.254776 2.604167
153.310638 6.5375
153.3246 2.277778
153.358002 3.855978
153.409592 9.880208
153.439926 6.422101
153.504547 3.864268
153.647034 11.62142
153.739548 2.375
153.810745 3.940025
154.324585 3.173611
154.367813 1.335648
154.432739 9.723214
154.503387 8.030934
154.827011 3.125
154.869629 8.847222
154.944138 20.658739
155.117599 1.370833
155.146622 6.839031
155.172806 4.72815
155.205048 5.377778
155.256744 2.340278
155.33493 6.446509
155.419922 7.18109
155.493668 5.336623
155.884323 1.334722
156.201752 5.052632
156.218964 1.690476
156.350906 13.25653
156.42778 6.354167
156.436447 7.911526
156.992249 2.486742
157.063828 143.942596
157.101288 2133.114014
157.155045 16.048441
157.177032 8.285714
157.227585 2.780092
157.259903 1.5125
157.271667 9.081644
157.293671 2.408333
157.339371 4.222222
157.356003 21.80015
157.364624 4.033333
157.390915 8.916397
157.438843 4.753968
157.47995 3.714286
157.491211 1.183712
157.502121 1.645833
157.510223 4.574846
157.598877 5.556548
157.718826 28.00676
157.879105 7.224537
157.904938 9.75094
157.919342 6.88436
157.95433 1.506945
158.024704 6.3375
158.125137 14.17326
158.173752 4.629704
158.200134 5.186275
158.256149 4.088235
158.277573 10.87344
158.317642 4.895833
158.34079 5.914216
158.422501 5.175804
158.48381 2.837963
158.540756 3.246795
158.733536 2.722222
158.828644 2.704167
158.840836 4.483334
158.91452 5.767262
159.044937 8.083909
159.080612 1860.807007
159.117065 1591.754028
159.166336 29.6401
159.206497 3.386905
159.216888 7.081644
159.225571 3.974167
159.240158 37.22073
159.263611 10.08188
159.29068 5.048214
159.323288 8.494291
159.35881 7.24793
159.392761 17.81333
159.409668 17.945499
159.433044 21.7756
159.485764 7.205194
159.49913 5.438113
159.519073 4.029167
159.534012 9.164708
159.598862 1.777778
159.611359 1.175
159.641129 2.053571
159.693497 10.09375
159.708038 10.17333
159.744446 26.342489
159.763885 8.898449
159.859955 5.027244
159.985168 9.462991
160.059982 12.80348
160.181381 7.003788
160.305237 30.04134
160.360184 4.815104
160.473969 10.50099
160.504547 2.840278
160.524643 4.083333
160.694275 4.364583
160.757965 3.878788
161.029724 4.508333
161.05658 20.83161
161.096252 871.973083
161.130981 255.909103
161.167038 21.034069
161.175446 2.6675
161.206345 4.837963
161.245956 1.510417
161.263794 6.449713
161.3255 2.040064
161.338898 3.849116
161.347763 7.017857
161.409622 9.067857
161.462646 2.194079
161.481567 12.03707
161.865723 6.371212
162.175766 7.075255
162.31694 3.167572
162.442947 4.253472
162.72966 4.130401
162.804855 1.6875
163.073685 154.6082
163.110306 343.804413
163.228271 5.647059
163.245026 4.225
163.341293 1.260417
163.386856 4.722685
163.413544 7.169384
163.489151 1.679167
163.604004 2.779166
163.684937 1.361111
163.787354 3.100833
164.264542 1.720238
164.458496 3.09375
165.068329 23.425211
165.089386 459.055908
165.13913 5.166667
165.19278 2.166667
165.39241 2.320076
165.432236 16.237129
165.528305 8.5125
165.787994 5.028986
165.849823 2.981618
166.177933 4.061275
166.478531 2.666667
166.900848 4.32353
167.084183 96.308037
167.106277 500.140503
167.157013 2.00463
167.220093 2.368056
167.228989 2.5
167.24382 3.020833
167.260391 4.181818
167.372986 2.833965
167.436005 3.03125
167.527527 1.760417
167.563446 2.704167
167.701691 4.505357
167.755768 3.695513
167.793182 9.524932
168.0905 37.443192
168.116516 11.575
168.194794 7.558114
168.217926 1.25
168.247269 5.591912
168.373962 1.928571
168.459412 4.543269
168.688644 8.001985
168.726273 12.84765
168.898071 10.50556
169.100235 1104.380005
169.158173 11.79464
169.318359 7.844415
169.372879 12.35469
169.531281 8.308227
169.592682 2.580357
169.644821 4.734167
169.658096 5.168982
170.078217 4.929167
170.181 23.832541
170.226105 2.520833
170.241196 6.877193
170.363724 9.041667
170.479263 1.851852
170.633728 2.016667
170.763245 7.444853
170.916443 11.36227
171.07872 265.894287
171.116562 2986.60498
171.152252 17.88443
171.171417 39.148979
171.21788 14.25389
171.243423 15.24816
171.285217 5.731533
171.295044 2.715278
171.316879 3.520833
171.352936 11.68059
171.393478 6.856019
171.416306 15.96736
171.439026 1.339286
171.484802 2.220238
171.494827 2.526786
171.516479 3.003472
171.533447 7.854167
171.569046 9.445106
171.606476 3.428571
171.621323 3.884615
171.704391 2.334722
171.758057 6.052083
171.78183 20.408791
172.09491 23.60667
172.137924 9.246913
172.195953 3.555556
172.20546 5.460938
172.23288 3.173611
172.248566 9.644852
172.332977 2.170455
172.688843 2.004167
172.72467 20.080999
172.823334 3.020833
172.849426 5.5
173.069046 6.53592
173.094894 941.45697
173.132751 637.274414
173.194687 3.337963
173.21553 10.17163
173.285385 3.026786
173.308258 11.8276
173.33197 18.70668
173.379303 20.644779
173.401596 16.400949
173.467438 2.502976
173.485977 2.740741
173.536179 6.569036
173.591171 2.860119
173.600342 3.346154
173.669098 6.710784
173.746964 4.724856
173.767471 7.438386
173.999359 3.526786
174.283981 2.351852
174.504501 6.003677
175.076645 234.910797
175.111343 762.592529
175.147354 71.938667
175.190384 1.375
175.209518 10.55871
175.245178 3.0
175.300446 3.905357
175.354858 4.6875
175.399902 12.16002
175.481171 4.980812
175.669785 4.280093
175.692413 7.449275
175.839767 5.333796
175.881363 5.881548
175.970551 3.080044
176.093597 12.50082
176.16954 9.935
176.188202 8.661637
176.249146 4.666667
176.296768 2.840833
176.482376 8.29885
176.618652 1.5375
176.699051 10.80028
176.992126 8.540064
177.050491 3.195513
177.090622 2675.272949
177.127075 549.312622
177.180389 4.177976
177.209106 9.701755
177.221832 3.200758
177.231094 7.21007
177.273239 15.39437
177.295532 1.854167
177.308899 6.0
177.323257 8.164941
177.34375 9.231757
177.360825 2.190476
177.378418 10.50036
177.40712 6.398551
177.450455 10.19524
177.485718 7.83869
177.507858 4.722222
177.588837 3.223214
177.623047 7.444015
177.653793 25.688749
177.679733 2.839382
177.73201 12.24612
177.750168 3.666667
178.163864 1.513889
178.236633 13.89454
178.263062 7.642045
178.441986 3.282051
178.558121 3.402778
178.757919 6.590278
178.920883 4.340833
178.990707 3.333896
179.106979 1118.811035
179.162979 1.169643
179.209534 4.001812
179.26535 17.372009
179.286377 3.104167
179.405182 5.104167
179.521698 4.221491
179.619461 12.02541
179.843292 2.506944
180.002121 2.333333
180.092072 76.568604
180.150589 3.765931
180.461533 2.222222
180.793198 1.633333
181.13826 4.343202
181.204666 7.414978
181.297318 2.001096
181.334793 6.874659
181.374283 8.827206
181.419159 1.694445
181.476227 1.963141
181.512863 4.009259
181.622955 8.827206
181.709763 5.300463
181.789474 7.16875
181.963287 3.694079
182.037704 2.078526
182.08194 1.820076
182.146149 2.171875
182.324707 2.191468
183.080093 181.697693
183.116302 1326.796997
183.166428 3.337121
183.180893 10.897
183.260605 10.22874
183.316864 6.173611
183.328476 3.691468
183.397095 13.16667
183.411331 2.864583
183.454193 2.675
183.506119 4.675
183.555832 13.53026
183.708282 2.671875
183.912506 1.633333
183.944763 1.541667
183.961517 3.148809
184.029053 7.020833
184.039047 5.010417
184.176895 6.906746
184.189835 8.822387
184.243393 15.05655
184.482391 3.678571
184.654007 10.59064
185.059311 11.01372
185.095352 924.80957
185.132202 1265.192993
185.182007 20.746441
185.191711 7.729167
185.237015 23.185129
185.269165 3.501389
185.296768 22.10022
185.319733 19.686411
185.333893 4.1875
185.361954 10.06896
185.407944 2.632675
185.430145 3.183712
185.455872 21.792271
185.466629 7.181667
185.523392 4.780996
185.576141 12.00174
185.62973 5.377778
185.712982 4.886968
185.727219 6.052083
185.831512 5.669551
185.888428 1.505952
185.973816 5.180059
186.048981 3.206731
186.344437 20.20373
186.828796 3.048611
187.07193 41.251869
187.111023 899.663025
187.148392 279.071991
187.190994 20.700491
187.210266 4.981771
187.312515 7.611111
187.380539 2.52381
187.403595 10.1338
187.476547 9.046296
187.738083 3.229167
187.770126 10.35951
188.006866 4.6125
188.167679 6.980183
188.347229 4.704167
188.783508 5.334167
188.812164 3.848485
189.093765 74.467049
189.128311 1019.705994
189.171173 6.643055
189.185165 3.002976
189.228851 6.872784
189.338318 2.204167
189.415527 1.592803
189.443771 3.511111
189.460098 1.927083
189.500473 9.818182
189.706833 5.024248
189.847946 9.885253
189.894135 8.66449
189.932373 1.168561
190.097076 62.13007
190.320923 5.428997
191.080643 27.388729
191.105896 452.809296
191.180954 2.851852
191.224274 8.009616
191.296432 3.669118
191.398758 8.80281
191.941742 1.501225
192.016449 1.604167
192.294205 2.816667
192.42897 5.208333
193.082672 13.29487
193.102386 215.602493
193.121384 270.495087
193.288834 10.63706
193.392807 3.229167
193.75824 2.351852
193.780075 7.895833
194.058563 16.50202
194.319855 2.706731
194.985779 2.816667
195.076965 79.732788
195.116104 1277.135986
195.179214 12.3734
195.243225 3.220395
195.263474 10.5359
195.289261 9.691468
195.330154 3.1875
195.369278 2.520833
195.391998 3.501389
195.406281 38.229198
195.429031 7.240651
195.486023 8.214744
195.506378 5.746795
195.520676 10.36487
195.636826 2.030637
195.74826 4.006944
195.843307 7.570252
195.913773 4.782052
195.929504 39.037418
195.943939 8.20794
195.965179 12.17482
196.057953 1.6875
196.103806 2.166667
196.273468 3.833333
196.300369 3.547348
196.557541 5.763889
196.611206 2.667572
196.7005 1.633333
196.744583 2.14881
197.057098 18.438801
197.095459 434.304108
197.132004 2494.885986
197.192139 15.53419
197.207413 30.7139
197.226089 5.380952
197.30368 5.420139
197.314362 13.65812
197.33371 11.92622
197.353897 4.958333
197.377884 7.395833
197.426132 16.73682
197.468155 29.38278
197.491013 1.777778
197.524475 4.699597
197.617371 2.027412
197.737152 19.54302
197.759674 4.225
197.793472 4.602083
197.984329 4.029167
198.023438 4.354167
198.082275 3.100833
198.964539 3.539216
199.01384 9.885416
199.11145 1107.98999
199.14769 323.824585
199.176392 4.958333
199.188217 4.275735
199.229263 1.002976
199.249252 3.5
199.273804 1.001894
199.315826 5.958968
199.371902 8.622726
199.40358 2.966666
199.423477 8.376811
199.543976 3.367424
199.568573 2.837121
199.606354 1.5375
199.637604 4.531863
199.938461 4.669445
199.96701 8.504573
200.025894 5.175438
200.207977 2.018518
200.256088 11.47338
200.293808 5.002976
200.322708 6.473536
200.666031 1.339286
201.088425 240.528305
201.126648 802.42041
201.162445 45.54493
201.189499 6.091131
201.253311 5.081644
201.299774 20.16597
201.317062 7.51856
201.332062 2.786706
201.407166 12.83939
201.425674 6.972222
201.455231 7.911859
201.47963 1.0
201.499741 4.541159
201.539246 5.503677
201.583725 7.520833
201.638672 4.011111
201.684128 7.867867
201.761551 4.838401
201.855453 1.868055
201.875092 6.000992
202.390121 11.26667
202.42923 4.626689
202.775879 1.380682
203.015121 9.896317
203.106781 466.536987
203.139221 179.831802
203.30632 4.32353
203.44516 1.001894
203.470978 7.592882
203.497208 7.375801
203.615494 1.820076
204.006256 4.207825
204.22995 0.860119
204.866882 5.365079
205.122482 327.082703
205.463364 9.170834
205.533417 4.630952
205.557709 2.055556
205.863876 2.336539
206.106583 62.908169
206.215408 3.12963
206.353333 2.001602
206.464523 8.956018
206.698608 1.020833
207.115891 345.5672
207.309418 2.1125
207.394135 2.530637
207.454224 5.001603
207.965637 3.000992
208.081024 2.694079
208.216553 4.891203
208.596268 14.07051
208.905182 3.15308
209.096817 57.27124
209.132019 718.004089
209.23703 12.52136
209.251938 4.0
209.327438 4.0
209.342804 1.669643
209.429077 1.926136
209.554001 3.375
209.700073 5.5
209.804886 4.78411
209.856506 5.235577
209.923569 2.19391
209.945145 1.52381
209.986313 6.727273
210.031891 9.084005
210.083115 1.335227
210.118408 2.833333
210.145248 9.381709
210.259628 7.72338
210.956345 5.186404
211.078278 6.890625
211.111221 364.068207
211.147232 1010.455994
211.198822 3.834722
211.244461 7.196886
211.308533 3.223214
211.345596 1.334722
211.388123 11.76158
211.431732 9.66723
211.444199 19.88673
211.502075 5.552631
211.522659 3.260031
211.573242 4.67647
211.603607 4.839015
211.623856 1.868055
211.690033 20.56633
211.701004 7.004167
211.774673 15.11599
211.82402 12.50833
211.983322 8.000302
211.998291 7.541159
212.018784 2.508152
212.327896 8.83554
212.47493 7.789216
212.520569 1.690476
212.854874 20.096991
212.893494 2.895833
213.086533 9.626985
213.127151 850.326477
213.163712 243.191299
213.229141 8.421569
213.27095 3.347222
213.33847 7.891821
213.419373 15.07797
213.457031 6.643251
213.476883 5.851974
213.520874 3.100833
213.550171 10.35975
213.60968 3.565104
213.65387 6.5675
213.810745 4.337121
214.0961 22.002979
214.278946 1.350379
214.380798 10.16766
215.106491 158.587402
215.142883 720.457886
215.175598 7.53293
215.21698 1.835227
215.235687 11.94704
215.268021 8.478121
215.315674 13.22506
215.385925 9.721983
215.456924 6.308569
215.506546 5.416667
215.661255 5.980072
215.702194 2.92803
216.556564 3.541667
217.089691 26.558781
217.12056 477.680908
217.162201 1.520833
217.181229 2.166667
217.201736 13.84926
217.228363 3.0375
217.278656 4.337323
217.30481 4.673611
217.494247 5.390752
217.528854 7.477143
217.699371 3.222222
217.921646 5.005952
217.987701 25.693371
218.054504 0.888889
218.106354 40.15007
218.12384 163.492493
218.171844 1.350379
218.305481 4.460022
218.405289 12.50278
218.547287 1.520833
218.691147 2.511029
218.913162 11.58514
219.137482 1186.958984
219.184784 7.675595
219.223007 13.60215
219.251862 16.97315
219.282776 3.023809
219.317581 7.398468
219.368668 6.621565
219.540833 2.170139
219.561111 4.788075
219.643951 6.860014
219.702789 15.22387
219.772903 7.380123
219.798645 3.364268
219.829926 4.377604
219.87085 10.06616
220.037292 9.037624
220.134903 7.622685
220.159821 8.941422
221.092972 18.928419
221.131485 1243.270996
221.196762 5.682583
221.222046 7.926028
221.235031 5.170833
221.278381 7.382936
221.374557 10.23794
221.421127 3.694257
221.452194 7.676879
221.480392 1.633333
221.497757 2.347222
221.535019 1.517045
221.560913 1.540064
221.654236 8.862939
221.747375 4.504167
221.762909 5.690407
221.782364 10.47368
221.82518 2.422149
221.939087 3.0
221.961639 9.100656
222.001663 5.785715
222.06929 4.575941
222.101135 9.630208
222.213867 5.873397
222.240173 6.980183
222.255356 5.504167
222.623734 6.838889
222.80545 4.358232
222.872955 5.362319
223.109802 207.343201
223.147461 716.952087
223.231537 1.33631
223.392792 4.540833
223.52272 13.50116
223.761948 5.501302
223.902481 3.868421
223.929398 3.740833
223.947586 1.59375
224.044891 7.593508
224.332291 19.129761
224.417557 3.008333
224.595551 3.828305
225.090332 10.42006
225.126801 475.536499
225.161987 411.66861
225.207565 2.013889
225.2229 6.561788
225.24231 9.080129
225.299744 8.005208
225.322479 7.633796
225.362411 7.041667
225.405746 8.128077
225.530746 13.59767
225.628845 4.667201
225.82373 5.358368
225.893509 13.5259
225.92157 6.345052
225.938843 5.720395
225.963409 5.691358
226.010468 4.423611
226.457443 7.382936
227.104706 208.006393
227.141556 470.765015
227.178482 91.822632
227.24115 7.500393
227.347321 17.49494
227.370605 7.520833
227.382935 5.026175
227.39949 8.748563
227.498291 14.74017
227.747482 12.62976
227.944901 14.85987
228.523209 2.296875
228.622665 2.604167
228.992935 31.325979
229.121078 288.985199
229.15683 195.266006
229.190796 9.343546
229.385895 4.911574
229.459656 4.529167
229.712677 12.7077
229.740082 13.33864
229.865952 5.602134
230.090912 7.506945
230.134094 21.73847
230.393356 9.348837
230.759949 3.12963
231.02951 2.942402
231.096741 21.00028
231.138214 1869.11499
231.200333 2.041667
231.21785 4.5
231.256393 4.6875
231.271591 3.206731
231.328812 4.7075
231.365067 11.87599
231.385452 8.127976
231.413773 24.85763
231.45636 3.060049
231.508896 8.0
231.630951 4.161638
231.658478 11.80697
231.699493 1.835227
231.752441 4.685417
231.79744 10.20535
231.933044 4.225
231.945786 2.041667
231.959427 8.333333
231.97493 2.041667
232.065018 5.074912
232.11731 79.492828
232.201874 3.632675
232.648361 4.928491
232.743896 3.377717
232.775711 2.006944
232.855621 4.194221
232.913727 3.241071
233.095718 22.34483
233.148651 39.34507
233.195587 3.544444
233.290848 2.334239
233.378967 3.466666
233.668274 2.920139
233.682266 2.320076
233.769318 1.173611
234.040878 6.745614
234.056625 4.926136
234.377243 2.674819
234.62114 4.33869
234.681458 1.860119
234.770081 3.335227
234.850403 1.901389
235.107193 80.045624
235.147873 592.26001
235.255676 4.21875
235.335724 1.701389
235.408676 1.741071
235.457733 3.027778
235.541794 2.780092
235.607986 2.740036
235.720108 4.512821
235.948639 2.383333
236.292007 1.517045
236.687881 7.856322
236.739075 4.506944
236.928787 7.508539
236.987701 1.834325
237.126968 396.743195
237.163788 354.149811
237.212738 1.366667
237.309113 2.860746
237.377716 3.185606
237.461563 5.316886
237.498413 2.806878
237.566452 1.505952
237.587891 8.693531
237.721466 1.3375
237.75412 2.520833
237.775726 5.026175
237.841125 3.185307
238.022614 6.602083
238.054398 5.13098
238.184601 4.297619
238.887344 3.503205
239.107254 46.987968
239.142166 1776.880005
239.176117 107.986504
239.207382 2.125
239.246002 9.734076
239.306931 2.836538
239.393311 3.84965
239.468414 4.335648
239.485275 7.544038
239.506317 16.15624
239.535797 8.132247
239.593155 10.9948
239.698868 11.92906
239.750488 9.516666
239.852722 12.48404
239.958557 10.15755
240.246017 8.66077
240.551712 8.010417
240.573166 3.360746
240.681931 1.575
240.78093 1.055556
241.121445 221.248703
241.158752 415.353699
241.221542 1.7
241.24826 6.699755
241.275269 2.888889
241.291489 3.402778
241.323975 7.061769
241.356339 5.340909
241.404984 3.902778
241.459122 3.080128
241.485809 15.58881
241.523911 3.905357
241.599518 3.722222
241.721176 8.078969
241.765198 5.140152
241.854477 8.47405
241.870132 8.082236
241.967453 6.680059
242.064865 1.835227
242.130203 21.39822
242.522446 3.625
242.703979 4.231304
242.964767 3.705128
243.136963 330.398285
243.172897 94.030212
243.252914 2.334722
243.339264 3.370471
243.381912 7.5
243.529343 10.96411
243.588196 4.66711
243.638092 11.67593
243.821686 5.025
243.840012 4.944444
243.93602 9.51856
245.151855 638.64917
245.203461 5.897348
245.300125 2.444444
245.770325 1.868055
245.812943 2.761905
245.863052 5.181548
246.195908 1.52381
246.665573 2.341486
247.112808 26.495899
247.217102 4.963735
247.425659 9.74288
247.485916 1.873397
247.529648 2.530637
247.600769 6.83477
247.651535 5.222222
247.748596 2.0
247.774506 7.203947
247.896454 7.55255
248.022461 5.000563
248.411606 2.520833
248.479172 1.820076
248.625488 6.189352
249.125458 141.897705
249.16394 403.265015
249.226471 1.416667
249.350189 4.32353
249.36824 6.533333
249.392487 1.407738
249.515045 14.57184
249.641327 6.068182
249.740326 6.951389
249.762756 7.558249
249.795334 3.282051
249.971237 5.854839
250.431396 4.983552
250.499542 2.864583
250.557999 2.714286
250.697784 3.697917
251.110321 13.25531
251.143295 373.284912
251.179016 319.162506
251.259506 1.854167
251.309601 4.368421
251.348206 5.336407
251.408875 2.503788
251.441879 12.1381
251.519409 4.145833
251.541306 6.860014
251.595367 4.194444
251.724411 3.926282
251.778702 8.955882
251.911102 7.525641
252.01059 4.800595
252.024292 8.270833
252.585175 5.019737
252.704056 1.3125
252.762131 4.045608
252.791611 1.704167
252.856171 2.220395
253.10675 16.891979
253.121735 50.1446
253.159714 773.99823
253.196289 24.086809
253.262955 4.409091
253.3022 6.387821
253.348755 9.051329
253.386581 8.002991
253.409744 9.516097
253.731094 4.588816
253.780838 2.000906
253.848709 9.809524
253.878006 8.774167
254.651459 6.031746
254.729462 2.240741
254.779388 6.666969
254.894897 4.5
254.940445 4.408333
255.136337 323.454987
255.17041 179.572098
255.230408 3.583333
255.506714 10.51515
255.555969 2.444444
255.606522 8.344742
255.707565 3.0625
255.734924 4.023809
255.768219 12.47708
255.835464 8.275537
255.908859 7.111111
255.924576 1.854167
255.941269 3.842592
256.060608 8.133772
256.127411 34.369652
256.186218 4.333818
256.30896 3.247024
256.371155 11.06177
256.431305 1.720238
256.4729 4.170455
256.531799 2.265931
256.649933 7.520833
256.676758 8.609469
256.85437 7.072024
257.153107 2856.176025
257.220642 9.903592
257.24527 3.683468
257.277069 16.35425
257.29541 7.002451
257.350159 8.643283
257.379211 6.726342
257.415833 11.1206
257.441986 10.1875
257.510956 10.274
257.582092 3.75947
257.622437 4.3375
257.640594 4.006945
257.736511 3.034091
257.809143 3.040833
257.904144 5.211111
257.930603 3.740833
257.962463 10.20615
258.084229 3.595109
258.233398 9.252518
258.262848 1.926136
258.373596 4.340278
258.395966 7.340669
258.614105 3.727941
258.666992 5.691469
258.720428 1.335648
259.112183 6.75947
259.470795 4.333333
259.700592 6.172413
259.783875 7.744907
259.801514 3.420259
260.121277 8.057718
260.149292 7.842471
260.407532 4.142045
260.789368 3.520833
261.12616 118.972603
261.162628 297.72879
261.216492 5.688726
261.329041 11.94719
261.489014 9.818561
261.778748 2.9375
261.801636 6.833759
261.925934 3.002976
261.976166 7.534439
262.353577 7.016506
263.144104 232.618805
263.177979 234.161102
263.214325 4.016369
263.233246 1.168269
263.628479 5.261824
263.753571 2.340278
263.787415 4.490385
263.82077 2.083333
263.910095 10.34673
264.080383 4.246795
264.167084 3.060185
264.47348 5.002976
264.521759 3.024801
264.708527 2.560606
264.850769 1.592803
265.06369 21.325809
265.122009 64.956573
265.158356 345.994598
265.19342 131.932999
265.227448 3.0
265.274811 3.015152
265.304993 9.782586
265.373077 2.006944
265.468933 2.693453
265.484161 1.224537
265.535645 9.480278
265.602905 9.264423
265.796417 3.855978
265.968475 2.006944
266.006439 3.463735
266.963013 12.62963
267.136139 277.024414
267.172974 392.8125
267.238922 1.361111
267.264526 3.25
267.352997 8.436218
267.386963 3.360746
267.443024 3.574074
267.568878 4.942345
267.614624 4.349116
267.801453 5.527554
267.817291 8.922297
267.859192 7.807678
267.947754 5.177427
268.018646 1.339286
268.377594 11.95502
268.73291 1.722222
268.788055 4.901042
269.151672 445.918793
269.190094 242.245697
269.238831 5.176879
269.325592 22.26726
269.547638 5.299947
269.758545 7.333726
269.936371 4.341667
269.958557 5.442345
270.107208 1.2
270.169464 1.347222
270.37027 4.745614
270.447906 7.120039
270.881866 7.704166
271.168152 451.752197
271.217529 4.008928
271.492615 5.730682
271.739136 1.6875
271.871063 2.685957
272.071869 5.335784
272.525421 2.201389
273.144043 570.007629
273.220734 4.56813
273.364502 2.000906
273.567535 3.080044
273.850403 8.382936
273.91983 4.458333
274.175995 19.028151
274.212158 9.1875
274.360474 6.893383
274.567963 3.0075
274.695465 4.59375
275.177612 96.425179
275.334076 15.43467
275.427551 3.673132
275.560394 3.960938
275.710541 5.440104
275.779846 5.029167
275.953217 4.333333
276.184631 156.344299
276.312439 1.173611
276.73941 3.668561
276.831543 4.673611
276.988617 3.002976
277.116882 6.037094
277.196259 71.714157
277.433044 11.50387
277.584869 4.634921
277.730225 2.355978
277.922424 3.370471
277.973785 8.653846
278.076752 8.41875
278.56662 3.555556
278.634064 10.71609
279.135132 81.235672
279.158234 14.00033
279.174561 355.374298
279.208771 126.104897
279.249359 1.741071
279.344299 1.333333
279.407104 5.625
279.593292 2.854167
279.675812 2.006944
279.769775 4.840278
279.814575 7.833897
279.853668 14.59557
279.869019 2.981618
280.257935 1.671296
280.760071 3.926282
280.822815 7.252541
281.154358 431.245605
281.219757 30.38538
281.394989 5.052632
281.481903 7.84375
281.514984 4.374387
281.534821 5.461436
281.571503 1.360119
281.59137 1.5375
281.661591 1.388889
281.698456 2.083333
281.764008 6.46875
281.87915 3.080357
282.508148 3.006944
283.168274 418.099487
283.203461 32.65538
283.239685 2.668561
283.34726 4.558624
283.604218 1.575
283.675293 4.382936
283.728027 4.682449
283.804108 6.181159
283.861725 1.926136
284.149414 35.341549
284.302582 7.346591
284.586151 9.195402
285.149078 150.746002
285.184967 729.245972
285.235992 2.335227
285.277161 1.5
285.494781 7.741072
285.582794 6.670343
285.623932 1.0
285.712128 2.174819
285.73587 1.863971
287.107544 5.673132
287.132385 24.598961
287.158142 20.734699
287.272369 1.533333
287.408203 6.395833
287.543854 3.846037
287.750366 2.522645
287.874786 9.62963
288.194885 35.102009
288.435333 3.000631
289.157379 198.227097
289.195557 739.569397
289.219208 39.062229
289.263092 7.104514
289.487976 2.191468
289.582672 4.388158
289.647614 10.17313
290.020935 6.845833
290.171051 249.146896
290.589966 4.0
290.992188 5.953869
291.130737 4.261824
291.20639 36.953911
291.297333 3.223214
291.375458 4.761905
291.410461 2.204167
291.563385 1.683712
291.730164 10.15638
292.140839 25.75952
292.175323 20.34683
293.1297 7.56713
293.154266 289.592896
293.189209 162.082993
293.224884 44.862991
293.254791 8.303745
293.294525 1.166667
293.355438 9.891606
293.42688 5.657051
293.469482 10.02778
293.585114 13.82386
293.655762 2.673611
294.035126 1.907738
294.162964 141.169403
294.3172 2.875
294.379913 3.343202
294.917328 4.849116
295.169281 1347.932007
295.205536 19.242821
295.243683 13.42687
295.263916 4.335648
295.291656 4.111111
295.319824 4.349116
295.360504 9.929762
295.441742 12.63157
295.550934 3.199597
295.568878 5.901515
295.637299 13.90476
295.660553 14.86675
295.730377 4.029167
296.276001 5.333333
296.327271 2.873775
296.580536 4.583333
297.149139 24.55785
297.182953 112.855598
297.2164 13.92596
297.572876 2.5625
297.609772 2.888889
298.169342 75.973961
299.164124 73.263351
299.464752 11.76014
299.524658 6.963768
299.884796 4.703703
299.917084 4.574846
300.264465 8.507134
300.706512 1.633333
301.175629 262.657715
301.19223 2.092803
301.477356 3.375
302.251831 12.2449
303.068481 2.580357
303.2099 410.566101
303.440277 4.883184
303.598022 7.439533
303.726532 3.336806
303.789398 5.106692
303.910492 4.177083
304.978699 2.875
305.146027 8.25
305.188965 315.230804
305.288666 7.979305
305.307281 3.994971
305.343475 5.053635
305.391266 3.068055
305.446533 6.718056
305.477234 4.722685
305.515442 5.973536
305.915192 3.015152
305.988983 5.297861
306.15509 29.425381
307.121887 19.99099
307.167847 198.282196
307.205261 1407.635986
307.295105 9.036931
307.383026 9.743056
307.413605 6.552536
307.451111 7.616033
307.476257 10.60714
307.498047 5.542145
307.535828 3.387769
307.585266 17.48308
307.646973 7.063973
307.706726 5.681159
307.775818 15.10767
307.864349 7.443799
307.963135 7.208333
308.035095 2.963542
308.178711 211.0802
308.232605 4.259339
308.555511 2.018518
308.795532 2.020833
308.897583 7.751736
309.258667 1.339286
309.387177 9.72163
309.607971 3.336806
309.791138 2.02381
310.18808 36.224651
310.232178 1.334722
310.570862 3.9675
311.170837 14.16702
311.207184 15.50032
311.299347 5.522727
311.476196 14.97348
312.170685 67.928589
312.202698 9.060012
312.244141 9.981481
312.261353 2.446759
313.170502 33.408642
313.194183 303.856903
313.80246 3.182449
316.188629 21.96446
316.258331 3.779166
319.204224 16.95154
319.373352 2.008929
319.391876 7.342105
319.503906 2.4
319.827362 4.535088
320.070068 6.389219
320.114868 9.707108
320.175385 63.22897
320.549469 2.6875
321.141479 1.5
321.184753 128.171097
321.220337 883.132385
321.303589 1.333333
321.347992 9.504225
321.459808 26.63979
321.512848 11.95682
321.615448 1.677696
321.640411 4.100595
321.707001 1.760417
321.752716 4.333333
321.784698 11.85701
321.882263 4.466009
321.933807 1.873397
322.021667 12.23646
322.120605 6.193452
322.264832 6.669872
322.834106 10.65427
323.199036 234.084106
323.237427 28.98201
323.375732 4.555556
323.471222 6.256945
323.763733 4.234722
323.940491 9.501097
324.134644 3.547619
324.201721 1.388889
324.310028 3.522059
324.404022 2.220395
324.682892 4.125
325.131866 4.207615
325.156525 35.5019
325.175812 27.59672
325.216217 406.375488
325.294373 2.041667
325.325989 17.50893
325.344574 3.366263
325.376801 7.901152
325.394775 6.673913
325.434875 3.75
325.45755 6.8375
325.495209 15.31092
325.608185 8.904166
325.733734 2.000992
325.858398 3.282408
326.077545 2.444444
326.185028 74.933456
326.248688 5.012821
329.336578 11.8336
329.5466 2.520833
329.568695 5.918561
331.12027 2.714286
331.205078 1265.115967
331.258118 8.394608
331.28302 9.61093
331.311554 9.406418
331.350922 3.175
331.399109 12.79374
331.442688 48.40855
331.482483 22.308741
331.506042 13.18199
331.597809 8.817708
331.662537 11.01031
331.70047 6.000534
331.807678 17.090481
332.040436 15.9631
332.117126 5.765377
332.360016 8.557693
332.518341 6.735703
332.588684 6.052631
332.695984 2.920139
332.929016 1.427083
334.192352 98.158333
334.545197 2.191468
334.716888 1.857143
335.280396 3.270833
336.967407 5.935897
337.689026 2.868056
338.18161 26.77796
338.540192 3.001096
339.191315 32.304409
339.231781 72.76989
339.514557 11.09399
339.85498 2.945833
340.752136 4.217803
344.632263 3.125
346.97226 9.1925
346.992523 7.487366
347.047272 3.130208
347.087616 11.23057
347.10553 16.85289
347.183258 2.277778
347.204651 11.67688
347.249603 2.004167
347.301208 3.276268
347.327423 5.835648
347.373596 3.185606
347.554352 3.001225
347.573822 3.167438
347.818115 6.963542
348.164276 2.001096
348.238312 14.4687
349.216888 3243.013916
349.293091 13.84484
349.320679 9.003089
349.339935 8.48717
349.364624 8.844298
349.405151 17.853201
349.436676 1.673611
349.473694 34.854919
349.496582 26.58799
349.5289 12.22055
349.561249 39.830379
349.630005 27.11607
349.674988 12.5318
349.705109 4.694079
349.737061 5.58603
349.756653 4.15121
349.778076 39.308609
349.814117 5.18109
349.840393 13.08006
349.899384 23.543449
349.940277 21.4692
350.030273 17.24971
350.069824 6.1875
350.100342 3.360119
350.13501 2.578526
350.166443 21.565411
350.21936 308.21579
350.36087 12.10547
350.381317 3.035201
351.007416 3.008333
351.07077 6.197304
351.30011 2.834052
351.547913 2.000906
351.848053 4.703703
351.906189 3.3375
352.198334 31.121321
352.623077 7.690901
352.8349 2.860119
354.0896 7.502976
360.052368 3.463735
360.468231 2.670455
361.028748 1.673611
361.466309 2.060049
361.827728 4.628205
364.807587 10.71387
364.842468 23.50034
364.881378 46.26955
364.917175 46.71172
364.969482 89.33033
365.009338 83.908447
365.040863 63.489101
365.089722 56.515881
365.112762 29.941019
365.13913 29.79022
365.161438 40.995541
365.1987 13.94122
365.225006 55.533501
365.263245 62.68124
365.292938 17.34556
365.330261 4.092803
365.357544 8.131875
365.448853 37.02161
365.480957 6.445216
365.710663 5.844444
365.771606 3.051282
365.928802 2.445833
366.316803 6.667339
366.333527 6.686403
366.390656 2.860746
366.485809 21.21463
366.53241 14.41915
366.625641 11.64244
366.673431 6.168651
366.71701 3.348214
366.770386 4.581317
366.886902 3.583333
367.061096 2.722222
367.094635 32.440311
367.144592 78.850471
367.165985 126.535103
367.227539 29584.349609
367.29248 1.592803
367.42572 3.580598
367.481659 27.94833
367.542236 27.50206
367.605286 120.929901
367.698181 17.7551
367.717346 16.632601
367.751984 43.202358
367.794922 53.619808
367.817902 18.252131
367.844727 77.37204
367.884125 70.373848
367.916534 56.044361
367.944885 80.991577
368.02774 57.555759
368.058655 89.838173
368.12088 62.75573
368.180023 10.24962
368.318695 32.880428
368.401001 37.649509
368.460327 34.790272
368.513031 12.51254
368.704376 17.00436
368.738373 19.00238
368.998627 17.51973
369.104858 12.35968
369.156311 21.81151
369.259155 14.25079
369.342712 1.4375
369.407654 22.68013
369.473755 5.698412
369.595764 21.752609
369.828064 3.336309
369.861359 4.727738
370.176025 8.562343
370.227814 16.970909
370.27655 7.704463
370.510162 8.210649
370.614594 0.916667
370.673187 34.331661
371.341583 2.900833
371.528381 5.527554
371.810303 3.705128
372.362701 2.129808
372.556 1.168561
373.382385 2.503205
374.371063 7.602564
374.445282 5.063974
374.823395 4.074074
375.206299 4.334239
375.780823 9.741605
375.825653 4.707615
375.873749 3.174819
376.973938 4.335938
377.203552 2.226716
377.879578 3.0625
380.528412 5.333333
383.997284 3.0
400.797028 13.70623
400.832184 7.709524
410.473755 6.306159
440.755829 3.802778
447.951599 8.40947
485.927338 4.026175
675.806335 3.500563
985.992188 3.3075
1036.982178 2.166667
1098.282959 3.878788
1212.925171 3.320076
1338.521606 11.90476
1458.040894 17.728029
1474.998657 1.366667
1511.009399 6.0625
1589.243164 16.711201
