>compound MLS002153789-01!Benfluorex hydrochloride23642-66-2
>formula C19H20F3NO2
>ionization [M+H]+
>parentmass 352.15188999209056
#inchi InChI=1S/C19H20F3NO2/c1-14(12-15-6-5-9-17(13-15)19(20,21)22)23-10-11-25-18(24)16-7-3-2-4-8-16/h2-9,13-14,23H,10-12H2,1H3
#inchikey CJAVTWRYCDNHSM
#origInchi InChI=1S/C19H20F3NO2.ClH/c1-14(12-15-6-5-9-17(13-15)19(20,21)22)23-10-11-25-18(24)16-7-3-2-4-8-16;/h2-9,13-14,23H,10-12H2,1H3;1H
#Ion_Source LC-ESI
#Instrument qTof
#Compound_Source NIH Pharmacologically Active Library
#PI Dorrestein
#Data_Collector VP/LMS
#Scan -1
#Precursor_MZ 352.15
#ExactMass 351.145
#Charge 1
#CAS_Number N/A
#Pubmed_ID N/A
#Smiles CC(Cc1cccc(c1)C(F)(F)F)NCCOC(=O)c2ccccc2.Cl
#INCHI_AUX N/A
#Library_Class 1
#SpectrumID CCMSLIB00000085283
#IonMode Positive
#UpdateWorkflowName UPDATE-SINGLE-ANNOTATED-GOLD
#LibraryQualityString Gold
#TaskID d252d724072548979f1f6f1ced849daf
##Scan# 1872
#SpectrumFile p3-G09_GG9_01_18302.mzXML
#LibraryName Pharm_Active_Library.mgf
#MQScore -1
#Organism Pharm_Active_Library
#TIC_Query 0
#RT_Query -1
#MZErrorPPM -1
#SharedPeaks 0
#MassDiff 0
#LibMZ -1
#SpecMZ 352.15
#SpecCharge 0
#internalFilename spec-00000.mgf

>collision 10
44.908623 160.0
44.919296 232.0
44.942867 192.0
44.976677 232.0
45.072842 184.0
45.087543 180.0
45.106258 212.0
45.132996 144.0
45.147709 92.0
45.183826 200.0
45.219959 156.0
45.230667 68.0
45.258064 164.0
45.298965 48.0
45.313702 404.0
45.37804 432.0
45.419617 56.0
45.433033 180.0
45.463894 180.0
45.480003 128.0
45.496113 188.0
45.522968 204.0
45.532368 156.0
45.582077 140.0
45.596264 160.0
45.619713 180.0
45.653332 192.0
45.705799 172.0
45.740791 100.0
45.789787 280.0
45.839115 164.0
45.853943 256.0
45.924057 124.0
45.938896 160.0
45.97263 76.0
45.988827 216.0
46.057693 152.0
46.120579 164.0
46.159065 152.0
46.173943 196.0
46.250362 148.0
46.263252 196.0
46.394672 128.0
46.461128 160.0
46.511341 64.0
46.564297 120.0
46.580601 164.0
46.681183 128.0
46.732876 124.0
46.75737 148.0
46.776428 140.0
46.822727 80.0
47.020428 116.0
47.031345 168.0
47.05592 140.0
47.148815 196.0
47.163849 152.0
47.232224 192.0
47.259586 204.0
47.277103 160.0
47.29517 152.0
47.318977 176.0
47.347202 112.0
47.356789 120.0
47.376499 124.0
47.422562 260.0
47.495544 216.0
47.508316 200.0
47.546047 132.0
47.556988 68.0
47.581699 144.0
47.609161 156.0
47.662743 192.0
47.684731 112.0
47.747978 240.0
47.757774 164.0
47.789249 116.0
47.812645 120.0
47.884243 256.0
48.106339 136.0
48.128345 160.0
48.141953 136.0
48.158733 76.0
48.207222 168.0
48.247177 176.0
48.309414 176.0
48.375843 156.0
48.410458 140.0
48.421658 188.0
48.4631 192.0
48.526863 172.0
48.578178 120.0
48.590561 52.0
48.62397 164.0
48.646183 112.0
48.676727 192.0
48.694782 152.0
48.704506 180.0
48.714233 144.0
48.755917 388.0
48.816994 172.0
48.860214 140.0
48.897785 116.0
48.960442 200.0
49.03986 184.0
49.06356 204.0
49.175163 164.0
49.208668 252.0
49.262672 120.0
49.302261 120.0
49.312046 164.0
49.324627 152.0
49.365322 192.0
49.39315 148.0
49.405285 196.0
49.493923 136.0
49.509327 220.0
49.535942 176.0
49.57938 164.0
49.591995 48.0
49.617229 168.0
49.657703 144.0
49.752537 200.0
49.764557 124.0
49.823547 172.0
49.846134 160.0
49.877853 268.0
49.985252 104.0
50.005878 256.0
50.052483 264.0
50.090851 104.0
50.155674 64.0
50.251579 180.0
50.269924 132.0
50.316505 200.0
50.344749 60.0
50.38842 96.0
50.408321 44.0
50.450726 152.0
50.471935 172.0
50.518612 128.0
50.565311 72.0
50.58482 184.0
50.590553 144.0
50.613445 180.0
50.652306 176.0
50.674355 60.0
50.708366 208.0
50.726795 148.0
50.785393 212.0
50.82608 204.0
50.853046 140.0
50.88002 108.0
50.916199 136.0
50.94109 208.0
50.972347 156.0
50.986561 104.0
51.005039 160.0
51.020676 188.0
51.047691 168.0
51.106018 140.0
51.13448 124.0
51.170071 76.0
51.204247 240.0
51.262661 200.0
51.299721 148.0
51.389576 212.0
51.409557 224.0
51.481987 120.0
51.49522 192.0
51.547131 180.0
51.551895 60.0
51.556122 160.0
51.568092 76.0
51.649601 160.0
51.688229 168.0
51.715424 140.0
51.738155 132.0
51.890202 128.0
51.934662 136.0
51.984879 128.0
52.003536 160.0
52.01844 188.0
52.059532 216.0
52.076767 164.0
52.134617 228.0
52.201809 188.0
52.346401 220.0
52.365887 204.0
52.429279 176.0
52.440811 160.0
52.482399 216.0
52.505695 32.0
52.528774 204.0
52.583607 224.0
52.598042 196.0
52.61248 272.0
52.689026 152.0
52.738163 152.0
52.787323 184.0
52.830715 136.0
52.841213 172.0
52.852417 48.0
52.942173 104.0
52.991428 216.0
53.001572 120.0
53.042152 160.0
53.071152 148.0
53.084202 140.0
53.142227 176.0
53.188671 40.0
53.25692 164.0
53.319397 192.0
53.344109 72.0
53.40955 188.0
53.450287 136.0
53.461929 164.0
53.47794 84.0
53.488129 156.0
53.565311 112.0
53.626514 212.0
53.674625 104.0
53.699421 164.0
53.738811 112.0
53.756321 116.0
53.80595 164.0
53.827854 80.0
53.857063 188.0
53.878712 132.0
53.915512 268.0
53.937168 240.0
53.963005 168.0
54.063229 132.0
54.097649 256.0
54.133499 160.0
54.159863 348.0
54.17012 36.0
54.182713 208.0
54.197956 116.0
54.209679 136.0
54.253273 216.0
54.343124 196.0
54.373943 172.0
54.388622 184.0
54.430264 176.0
54.462044 188.0
54.538452 180.0
54.566387 172.0
54.658947 164.0
54.735809 144.0
54.747131 116.0
54.806313 164.0
54.880016 112.0
54.909512 212.0
54.926441 240.0
54.955246 180.0
55.000996 128.0
55.029049 172.0
55.086758 160.0
55.120415 164.0
55.173588 228.0
55.250751 160.0
55.409176 188.0
55.523319 56.0
55.552986 152.0
55.566341 100.0
55.576729 152.0
55.637585 188.0
55.696987 220.0
55.744534 196.0
55.765339 184.0
55.777042 156.0
55.843342 332.0
55.954273 148.0
56.027252 156.0
56.088852 168.0
56.125629 152.0
56.171864 28.0
56.201706 208.0
56.273354 72.0
56.288284 188.0
56.336082 164.0
56.371819 192.0
56.397354 116.0
56.52132 176.0
56.545433 224.0
56.56789 364.0
56.586029 172.0
56.614307 216.0
56.632278 260.0
56.822674 168.0
56.833176 184.0
56.97279 224.0
57.055477 160.0
57.091568 80.0
57.186356 220.0
57.272186 144.0
57.291771 196.0
57.313988 236.0
57.319576 176.0
57.428951 164.0
57.46365 200.0
57.47723 80.0
57.532249 320.0
57.554218 248.0
57.566299 172.0
57.578381 136.0
57.603745 96.0
57.63623 232.0
57.675083 112.0
57.74313 128.0
57.76582 140.0
57.812725 168.0
57.858139 68.0
57.870251 148.0
57.917198 188.0
57.942955 208.0
57.97023 160.0
58.071812 168.0
58.086983 324.0
58.149162 176.0
58.181156 148.0
58.212963 48.0
58.289158 180.0
58.308678 160.0
58.320839 136.0
58.342121 116.0
58.36021 196.0
58.439465 152.0
58.469898 100.0
58.484932 96.0
58.496536 168.0
58.514046 128.0
58.535366 176.0
58.643539 236.0
58.654209 184.0
58.716724 264.0
58.780804 160.0
58.803696 120.0
58.828121 204.0
58.854881 116.0
58.871494 276.0
58.935036 184.0
58.950317 124.0
58.971714 152.0
59.040516 56.0
59.100182 144.0
59.237976 172.0
59.262493 184.0
59.33913 140.0
59.382072 176.0
59.401226 172.0
59.538235 252.0
59.593929 188.0
59.606304 148.0
59.67778 240.0
59.695385 76.0
59.732685 144.0
59.744606 204.0
59.761532 112.0
59.789234 188.0
59.904301 176.0
59.970982 68.0
59.997189 156.0
60.023403 316.0
60.039982 176.0
60.109791 204.0
60.129501 244.0
60.253803 76.0
60.291428 152.0
60.32449 144.0
60.389435 204.0
60.404903 176.0
60.426563 116.0
60.455967 168.0
60.500858 208.0
60.526871 316.0
60.545258 240.0
60.604977 144.0
60.660427 164.0
60.692989 220.0
60.720901 184.0
60.758331 156.0
60.790718 240.0
60.804688 224.0
60.818657 96.0
60.829525 128.0
60.925812 388.0
60.94912 108.0
60.982555 144.0
61.126396 156.0
61.146629 204.0
61.179317 168.0
61.282116 212.0
61.321075 84.0
61.347576 76.0
61.380276 136.0
61.497334 188.0
61.547295 132.0
61.61602 204.0
61.628521 116.0
61.661339 28.0
61.78175 192.0
61.792702 140.0
61.838509 264.0
61.853737 200.0
61.874088 120.0
61.956055 228.0
61.987556 164.0
62.02919 100.0
62.040165 92.0
62.095047 100.0
62.127781 180.0
62.166134 168.0
62.256706 152.0
62.271999 244.0
62.344822 140.0
62.424866 156.0
62.435875 332.0
62.501949 320.0
62.578693 244.0
62.624752 68.0
62.640503 168.0
62.668861 180.0
62.698807 148.0
62.743721 308.0
62.760288 204.0
62.771328 76.0
62.891762 192.0
62.965446 180.0
62.979664 216.0
63.00494 148.0
63.117165 116.0
63.1577 184.0
63.226322 136.0
63.243824 208.0
63.295982 84.0
63.329243 156.0
63.364094 152.0
63.398956 220.0
63.422581 168.0
63.471882 148.0
63.49884 84.0
63.519463 128.0
63.532154 84.0
63.730625 156.0
63.746517 92.0
63.768768 176.0
63.946274 180.0
63.980343 176.0
64.019783 224.0
64.087059 264.0
64.099808 136.0
64.131683 156.0
64.236931 124.0
64.287987 192.0
64.338638 104.0
64.364616 172.0
64.398155 136.0
64.453041 204.0
64.700401 160.0
64.742035 160.0
64.785286 144.0
64.893593 160.0
64.912048 136.0
64.927948 152.0
65.01078 152.0
65.030632 192.0
65.098068 104.0
65.168747 188.0
65.186424 116.0
65.20089 76.0
65.265198 232.0
65.290924 220.0
65.426094 128.0
65.46096 208.0
65.480476 224.0
65.519508 116.0
65.530785 204.0
65.593643 136.0
65.679108 52.0
65.701698 212.0
65.714333 152.0
65.754761 200.0
65.801765 228.0
65.865524 224.0
65.907669 212.0
65.926437 132.0
65.97464 252.0
65.995659 96.0
66.028 128.0
66.077721 212.0
66.136414 116.0
66.181747 124.0
66.20118 360.0
66.227089 140.0
66.288658 204.0
66.324318 168.0
66.434593 144.0
66.462173 116.0
66.507462 204.0
66.5271 144.0
66.684669 132.0
66.726555 172.0
66.805 128.0
66.87986 180.0
66.933327 172.0
66.95639 204.0
66.990593 108.0
67.050888 204.0
67.088379 132.0
67.120598 236.0
67.187866 168.0
67.212341 232.0
67.272736 120.0
67.289062 48.0
67.378891 160.0
67.40667 144.0
67.473686 176.0
67.521111 132.0
67.540741 140.0
67.604553 328.0
67.642197 184.0
67.653656 144.0
67.726509 164.0
67.753563 196.0
67.802719 152.0
67.871574 112.0
67.95031 180.0
68.012672 120.0
68.030731 208.0
68.127625 140.0
68.181854 156.0
68.239449 240.0
68.278862 172.0
68.292313 176.0
68.359474 116.0
68.407204 124.0
68.418732 164.0
68.499428 196.0
68.573578 192.0
68.620842 144.0
68.644699 156.0
68.700554 40.0
68.736855 140.0
68.749435 212.0
68.802071 228.0
68.840858 212.0
68.976349 44.0
68.992882 92.0
69.034218 172.0
69.07061 184.0
69.082855 200.0
69.11528 60.0
69.150032 148.0
69.196388 164.0
69.294106 156.0
69.358742 212.0
69.418434 192.0
69.449944 160.0
69.478149 324.0
69.572403 172.0
69.642365 52.0
69.692337 116.0
69.77877 104.0
69.836975 100.0
69.869308 156.0
69.895203 204.0
69.971771 156.0
69.983429 132.0
70.010666 168.0
70.028397 116.0
70.121681 184.0
70.20575 172.0
70.216743 172.0
70.246864 240.0
70.263451 228.0
70.31852 172.0
70.335213 188.0
70.361923 52.0
70.427055 188.0
70.530655 176.0
70.58416 132.0
70.608597 240.0
70.676163 216.0
70.714653 260.0
70.779945 224.0
70.869003 192.0
70.909332 176.0
70.969299 128.0
71.004517 156.0
71.034714 180.0
71.059189 136.0
71.073303 136.0
71.20089 168.0
71.247925 208.0
71.286568 164.0
71.37735 120.0
71.400894 204.0
71.508575 268.0
71.523727 232.0
71.542244 108.0
71.626793 156.0
71.700584 44.0
71.776451 120.0
71.806808 196.0
71.834145 216.0
71.919861 128.0
71.987396 176.0
72.053276 80.0
72.120872 136.0
72.154686 176.0
72.235863 140.0
72.276466 144.0
72.318779 260.0
72.357719 144.0
72.459343 156.0
72.525436 132.0
72.554253 140.0
72.569511 108.0
72.593254 224.0
72.630569 212.0
72.664497 168.0
72.693344 168.0
72.727287 176.0
72.765327 128.0
72.837669 100.0
72.893738 220.0
72.94133 168.0
73.004242 56.0
73.034851 216.0
73.083382 176.0
73.152275 108.0
73.227196 52.0
73.29705 236.0
73.373749 176.0
73.448792 216.0
73.624596 208.0
73.672424 212.0
73.834053 152.0
73.8964 140.0
73.952881 148.0
74.115578 140.0
74.187569 204.0
74.295616 204.0
74.337891 232.0
74.445229 124.0
74.462128 48.0
74.529121 132.0
74.587563 136.0
74.63398 180.0
74.657356 156.0
74.716545 112.0
74.826698 164.0
74.868767 148.0
74.945549 148.0
75.005867 148.0
75.030006 156.0
75.052422 184.0
75.178352 156.0
75.233589 248.0
75.41394 188.0
75.499695 140.0
75.55851 164.0
75.582169 356.0
75.821724 180.0
75.837326 160.0
75.856392 152.0
75.875465 220.0
75.930954 208.0
75.955284 164.0
75.981262 244.0
76.059357 148.0
76.078453 196.0
76.131241 200.0
76.146179 140.0
76.164902 220.0
76.208717 152.0
76.234787 164.0
76.250427 168.0
76.288666 176.0
76.309532 144.0
76.32518 136.0
76.351265 140.0
76.384315 148.0
76.396492 96.0
76.532257 188.0
76.603661 172.0
76.685562 192.0
76.753555 192.0
76.788437 184.0
76.855148 236.0
76.997887 112.0
77.053787 100.0
77.128929 156.0
77.162148 200.0
77.186119 152.0
77.207611 200.0
77.247849 176.0
77.422882 168.0
77.503471 164.0
77.550789 76.0
77.6567 108.0
77.675293 188.0
77.827988 172.0
77.854324 140.0
77.93338 60.0
77.98259 36.0
77.999191 188.0
78.047638 160.0
78.121506 220.0
78.235901 68.0
78.255272 264.0
78.410294 356.0
78.526665 256.0
78.565475 116.0
78.640999 192.0
78.726105 164.0
78.749062 48.0
78.789696 156.0
78.821495 168.0
78.908112 164.0
78.950554 164.0
78.986855 208.0
79.021309 184.0
79.073242 196.0
79.092102 100.0
79.139908 164.0
79.162926 128.0
79.242638 144.0
79.311424 212.0
79.345436 164.0
79.396866 124.0
79.4217 164.0
79.509491 164.0
79.616936 120.0
79.678764 184.0
79.787529 52.0
79.81424 172.0
79.849907 188.0
79.865776 188.0
79.910255 132.0
79.990341 88.0
80.018913 168.0
80.073288 172.0
80.093628 32.0
80.172028 168.0
80.188065 160.0
80.203415 236.0
80.255814 388.0
80.270073 100.0
80.346779 80.0
80.399452 156.0
80.439575 176.0
80.52919 152.0
80.643532 184.0
80.686119 164.0
80.698639 120.0
80.725464 300.0
80.754074 192.0
80.775543 180.0
80.800591 104.0
80.865013 144.0
80.882912 120.0
80.909767 112.0
80.993935 136.0
81.022911 160.0
81.049477 192.0
81.115791 172.0
81.13372 136.0
81.171371 172.0
81.235825 180.0
81.240044 168.0
81.247185 228.0
81.295158 184.0
81.341393 164.0
81.44957 200.0
81.516006 168.0
81.614922 128.0
81.652687 108.0
81.682152 168.0
81.74984 236.0
81.794838 188.0
81.836243 180.0
81.857857 148.0
81.996574 192.0
82.027222 180.0
82.063278 140.0
82.124771 164.0
82.171501 152.0
82.231056 156.0
82.277992 160.0
82.330353 124.0
82.344803 168.0
82.371902 132.0
82.416328 180.0
82.550842 52.0
82.580452 264.0
82.619576 100.0
82.681099 148.0
82.69558 168.0
82.711868 136.0
82.764374 68.0
82.777054 184.0
82.798782 60.0
82.88031 208.0
82.900238 128.0
82.920174 148.0
82.947365 176.0
83.025337 124.0
83.090637 208.0
83.110321 156.0
83.181381 188.0
83.392876 168.0
83.477547 240.0
83.603073 240.0
83.641296 188.0
83.728699 192.0
83.823753 136.0
83.852592 64.0
83.884659 144.0
83.903633 164.0
83.94487 216.0
83.963814 136.0
83.992996 180.0
84.03569 184.0
84.107964 152.0
84.149948 204.0
84.255882 200.0
84.334465 120.0
84.360062 144.0
84.429543 140.0
84.473442 164.0
84.510033 204.0
84.524918 152.0
84.555786 148.0
84.629189 164.0
84.715096 40.0
84.764565 68.0
84.784729 232.0
84.832382 152.0
84.881889 152.0
84.933243 168.0
84.958923 164.0
85.032326 144.0
85.057938 168.0
85.120453 52.0
85.133308 148.0
85.162697 124.0
85.271751 204.0
85.291321 144.0
85.307869 204.0
85.366707 60.0
85.399811 172.0
85.469719 212.0
85.532295 56.0
85.583847 204.0
85.620682 128.0
85.633575 176.0
85.653839 144.0
85.731071 224.0
85.782837 196.0
85.828926 132.0
85.860184 156.0
85.928535 60.0
85.993126 220.0
86.03743 156.0
86.0522 132.0
86.076775 220.0
86.126068 176.0
86.196281 184.0
86.229546 48.0
86.296097 144.0
86.358376 308.0
86.437622 188.0
86.531082 156.0
86.560707 168.0
86.594048 104.0
86.609207 108.0
86.631096 252.0
86.655182 220.0
86.68483 164.0
86.703362 72.0
86.720039 104.0
86.755264 128.0
86.811539 252.0
86.903641 200.0
86.994583 180.0
87.035431 100.0
87.080002 140.0
87.09301 152.0
87.109726 180.0
87.176613 132.0
87.217506 96.0
87.254684 120.0
87.280724 356.0
87.301178 104.0
87.348694 168.0
87.394188 176.0
87.466774 108.0
87.540573 232.0
87.699615 112.0
87.772331 144.0
87.804031 156.0
87.84507 128.0
87.884247 172.0
88.091492 36.0
88.113914 156.0
88.173714 116.0
88.187515 52.0
88.203079 180.0
88.240173 164.0
88.280281 228.0
88.353233 232.0
88.381096 152.0
88.47979 148.0
88.519821 148.0
88.604111 84.0
88.714691 204.0
88.73719 148.0
88.774689 176.0
88.82901 192.0
88.906013 156.0
88.958572 156.0
89.12252 152.0
89.137009 72.0
89.151253 192.0
89.187988 192.0
89.230995 144.0
89.249794 180.0
89.281769 352.0
89.339821 176.0
89.401138 148.0
89.475403 188.0
89.543381 180.0
89.588898 148.0
89.688469 56.0
89.720512 180.0
89.81292 152.0
89.829903 208.0
89.958229 180.0
89.99221 112.0
90.031868 52.0
90.071533 236.0
90.12632 204.0
90.154671 332.0
90.241623 140.0
90.273773 140.0
90.341652 176.0
90.362679 208.0
90.419449 96.0
90.444054 196.0
90.495132 172.0
90.658089 64.0
90.674385 220.0
90.693626 196.0
90.823044 144.0
90.894455 244.0
90.940689 60.0
90.986244 136.0
91.031822 184.0
91.054222 188.0
91.098572 140.0
91.124901 184.0
91.170502 136.0
91.183807 208.0
91.225632 156.0
91.246544 184.0
91.25956 132.0
91.282669 236.0
91.366364 112.0
91.389198 128.0
91.434433 176.0
91.448189 92.0
91.478653 48.0
91.640907 208.0
91.702065 140.0
91.854073 212.0
91.968559 124.0
92.075485 220.0
92.10833 164.0
92.260841 200.0
92.322418 160.0
92.517212 192.0
92.540184 96.0
92.565079 204.0
92.586143 216.0
92.613884 232.0
92.657021 176.0
92.686661 164.0
92.7285 120.0
92.745064 168.0
92.818031 144.0
92.87941 200.0
93.000298 248.0
93.053841 148.0
93.12352 204.0
93.155838 144.0
93.228859 164.0
93.257683 156.0
93.321129 88.0
93.361511 96.0
93.41729 224.0
93.444229 152.0
93.476944 152.0
93.553932 72.0
93.573189 104.0
93.592438 136.0
93.629028 340.0
93.734985 216.0
93.918182 260.0
93.983185 152.0
94.010765 136.0
94.060944 200.0
94.078323 132.0
94.101486 236.0
94.159424 140.0
94.1884 152.0
94.255386 184.0
94.3256 124.0
94.341064 156.0
94.405312 176.0
94.43969 80.0
94.612984 200.0
94.651176 188.0
94.739738 136.0
94.757179 204.0
94.780434 140.0
94.843391 288.0
94.859894 164.0
94.924515 172.0
95.001808 316.0
95.029007 144.0
95.05191 212.0
95.067436 192.0
95.101776 232.0
95.186699 184.0
95.248009 228.0
95.304352 68.0
95.358711 132.0
95.419029 176.0
95.43264 252.0
95.492928 284.0
95.512383 80.0
95.615509 156.0
95.736214 228.0
95.86068 140.0
95.867218 148.0
95.923271 152.0
95.952515 52.0
96.012962 168.0
96.028572 200.0
96.059731 164.0
96.085144 164.0
96.172958 120.0
96.192574 168.0
96.220444 224.0
96.338951 152.0
96.381935 96.0
96.428833 168.0
96.462067 44.0
96.507034 168.0
96.536369 180.0
96.565704 152.0
96.730072 160.0
96.759438 136.0
96.798599 188.0
96.816231 168.0
96.847565 176.0
96.865196 184.0
97.026955 160.0
97.080803 148.0
97.133759 192.0
97.331993 148.0
97.383057 176.0
97.490509 168.0
97.514702 156.0
97.528465 184.0
97.573677 140.0
97.685776 176.0
97.74157 156.0
97.79007 240.0
97.845192 152.0
97.90033 164.0
97.921989 156.0
97.994881 148.0
98.010704 144.0
98.036263 212.0
98.055969 212.0
98.075684 184.0
98.111168 248.0
98.138771 196.0
98.188072 244.0
98.228027 116.0
98.241333 188.0
98.307655 184.0
98.339195 128.0
98.394661 300.0
98.42292 380.0
98.478218 112.0
98.497971 124.0
98.523651 36.0
98.573051 180.0
98.638275 140.0
98.727249 160.0
98.802422 164.0
98.820229 136.0
98.940941 180.0
99.009483 220.0
99.025871 196.0
99.051865 108.0
99.134361 176.0
99.180664 208.0
99.240807 204.0
99.321457 192.0
99.375023 148.0
99.414711 156.0
99.553726 172.0
99.645058 68.0
99.662941 184.0
99.694733 172.0
99.770271 216.0
99.86483 132.0
99.885612 204.0
99.941322 404.0
99.967194 184.0
100.02491 216.0
100.05278 168.0
100.156342 176.0
100.195694 164.0
100.277885 44.0
100.317757 148.0
100.345573 164.0
100.365608 172.0
100.397514 148.0
100.429428 164.0
100.45137 176.0
100.479301 180.0
100.507912 164.0
100.630989 172.0
100.716866 144.0
100.823608 248.0
100.846748 224.0
100.878731 168.0
100.935051 216.0
101.162811 188.0
101.229057 144.0
101.369118 156.0
101.38916 116.0
101.461327 136.0
101.599709 72.0
101.618721 204.0
101.671951 184.0
101.685997 148.0
101.70005 160.0
101.744217 112.0
101.786377 168.0
101.806465 160.0
101.852303 228.0
101.869514 220.0
101.904892 164.0
101.926994 60.0
101.945084 384.0
101.987175 204.0
102.013725 80.0
102.02951 120.0
102.160233 176.0
102.206512 192.0
102.258835 208.0
102.331306 144.0
102.345406 156.0
102.37561 192.0
102.389709 140.0
102.466255 136.0
102.517761 236.0
102.588005 176.0
102.60331 192.0
102.647942 208.0
102.665817 196.0
102.694054 140.0
102.752556 192.0
102.859749 144.0
102.909996 212.0
102.926521 152.0
102.988754 120.0
103.054008 148.0
103.105949 120.0
103.154457 164.0
103.215118 212.0
103.279831 180.0
103.330414 148.0
103.415405 172.0
103.433624 68.0
103.472092 128.0
103.496384 192.0
103.650337 176.0
103.694923 188.0
103.751686 140.0
103.828743 160.0
103.85714 208.0
103.881477 188.0
103.897713 228.0
104.070229 204.0
104.149437 104.0
104.199471 216.0
104.24958 208.0
104.324203 144.0
104.387238 124.0
104.442146 156.0
104.464523 196.0
104.486908 144.0
104.505219 156.0
104.519463 108.0
104.558128 188.0
104.583107 88.0
104.606979 40.0
104.647697 140.0
104.674171 120.0
104.7146 216.0
104.7276 240.0
104.765831 120.0
104.78009 156.0
104.806145 208.0
104.898293 100.0
104.922653 152.0
104.965881 328.0
105.002754 308.0
105.011719 192.0
105.033524 67684.0
105.090881 112.0
105.120621 108.0
105.133713 56.0
105.159561 224.0
105.189087 284.0
105.206291 288.0
105.223701 152.0
105.249222 88.0
105.290565 212.0
105.311859 72.0
105.334572 56.0
105.369049 308.0
105.433594 196.0
105.476517 60.0
105.496452 80.0
105.537346 104.0
105.553703 32.0
105.590118 104.0
105.614708 176.0
105.652908 60.0
105.727592 128.0
105.750107 48.0
105.778763 40.0
105.797188 56.0
105.839188 196.0
105.866814 68.0
105.887291 56.0
105.920952 148.0
105.937019 220.0
105.991776 188.0
106.035774 4912.0
106.063507 152.0
106.079575 124.0
106.101364 60.0
106.139366 200.0
106.181084 128.0
106.301903 208.0
106.35508 56.0
106.380066 200.0
106.422043 232.0
106.502632 76.0
106.544273 164.0
106.559608 164.0
106.598549 148.0
106.639648 100.0
106.662666 100.0
106.704033 76.0
106.730186 100.0
106.780121 48.0
106.816208 100.0
106.846054 152.0
106.876518 156.0
106.901505 104.0
106.93956 216.0
106.958817 208.0
106.977661 64.0
107.038139 308.0
107.185692 336.0
107.241341 100.0
107.274323 52.0
107.402176 308.0
107.433113 144.0
107.47438 224.0
107.517723 140.0
107.531059 112.0
107.575516 168.0
107.594093 148.0
107.630989 152.0
107.660172 180.0
107.687027 104.0
107.746933 208.0
107.833725 64.0
107.883339 120.0
107.906082 144.0
107.928825 188.0
107.963982 96.0
108.001213 116.0
108.032242 92.0
108.334496 176.0
108.35936 204.0
108.427742 152.0
108.448471 216.0
108.558357 132.0
108.597763 164.0
108.642036 164.0
108.664146 132.0
108.713951 212.0
108.743004 184.0
108.871735 184.0
108.958977 176.0
109.004692 120.0
109.044159 7844.0
109.071198 352.0
109.117195 160.0
109.143967 60.0
109.241722 56.0
109.277092 136.0
109.29998 360.0
109.324951 56.0
109.366577 104.0
109.418625 184.0
109.465714 156.0
109.637352 60.0
109.667946 188.0
109.720734 216.0
109.762436 188.0
109.780617 228.0
109.822914 204.0
109.843773 140.0
109.878426 200.0
109.912628 128.0
109.956451 132.0
109.971062 188.0
110.018227 216.0
110.0476 564.0
110.152733 84.0
110.179893 172.0
110.372185 176.0
110.386826 92.0
110.452675 136.0
110.512337 188.0
110.669327 360.0
110.696548 128.0
110.734245 204.0
110.757286 188.0
110.86631 224.0
111.036064 104.0
111.082207 240.0
111.166138 100.0
111.245895 228.0
111.265831 148.0
111.331985 184.0
111.420212 136.0
111.441223 196.0
111.518982 136.0
111.603073 148.0
111.729271 144.0
111.750313 172.0
111.899757 184.0
111.950294 160.0
111.984985 220.0
111.999809 212.0
112.207375 48.0
112.228455 284.0
112.279068 164.0
112.295944 164.0
112.323364 128.0
112.34024 28.0
112.37822 196.0
112.409866 56.0
112.521744 84.0
112.559753 172.0
112.623116 100.0
112.667473 148.0
112.756226 168.0
112.790047 124.0
112.832329 52.0
112.967682 160.0
113.018463 208.0
113.096764 204.0
113.278877 76.0
113.355156 28.0
113.395424 108.0
113.461143 140.0
113.488701 208.0
113.589478 140.0
113.862206 224.0
113.911057 132.0
113.940804 200.0
113.981171 148.0
114.015175 152.0
114.055557 204.0
114.236313 184.0
114.263977 112.0
114.319298 144.0
114.353355 188.0
114.451286 124.0
114.466187 208.0
114.504524 88.0
114.602516 144.0
114.640877 108.0
114.706955 168.0
114.764519 136.0
114.805031 164.0
114.860489 168.0
114.941566 112.0
114.962906 144.0
114.982117 188.0
115.017807 268.0
115.052559 128.0
115.236237 184.0
115.254791 152.0
115.271851 156.0
115.336685 112.0
115.370888 96.0
115.422203 144.0
115.47139 84.0
115.572609 128.0
115.651123 204.0
115.675644 212.0
115.719513 140.0
115.79673 180.0
115.823578 216.0
115.875992 116.0
115.905991 168.0
115.95578 136.0
116.064613 156.0
116.12252 196.0
116.169708 116.0
116.321732 148.0
116.360725 160.0
116.395081 160.0
116.468208 164.0
116.513214 136.0
116.637856 196.0
116.715256 196.0
116.746185 156.0
116.762573 232.0
116.790535 168.0
116.906715 124.0
117.038033 168.0
117.115562 72.0
117.165115 192.0
117.276901 192.0
117.29657 156.0
117.350471 124.0
117.365562 84.0
117.54245 108.0
117.594246 156.0
117.646057 128.0
117.758347 132.0
117.80587 184.0
117.883652 188.0
118.006866 176.0
118.177742 148.0
118.290283 196.0
118.357407 184.0
118.452705 200.0
118.467865 132.0
118.504089 212.0
118.528534 172.0
118.571877 208.0
118.608727 108.0
118.652084 172.0
118.680275 160.0
118.701958 124.0
118.799095 148.0
118.968842 164.0
119.01226 376.0
119.030327 216.0
119.06221 200.0
119.081406 148.0
119.190804 208.0
119.207771 164.0
119.227325 120.0
119.264282 68.0
119.353416 148.0
119.379517 180.0
119.420837 224.0
119.644035 224.0
119.695175 152.0
119.898285 220.0
119.976135 180.0
120.040245 260.0
120.072083 208.0
120.096077 160.0
120.137527 140.0
120.196236 216.0
120.246628 160.0
120.266273 184.0
120.314301 188.0
120.489021 172.0
120.615776 136.0
120.668243 204.0
120.727287 220.0
120.742599 160.0
120.766655 196.0
120.97673 92.0
121.099365 136.0
121.175766 144.0
121.200142 200.0
121.268082 140.0
121.347 132.0
121.363808 192.0
121.447876 156.0
121.482979 168.0
121.535637 48.0
121.634399 132.0
121.689285 128.0
121.716805 188.0
121.741989 176.0
121.82106 184.0
121.908951 184.0
122.01886 180.0
122.056236 124.0
122.078232 220.0
122.098022 60.0
122.315857 208.0
122.390717 248.0
122.432556 148.0
122.514061 236.0
122.538292 176.0
122.560326 124.0
122.618027 176.0
122.656281 172.0
122.767548 132.0
122.862396 176.0
122.913147 132.0
122.933006 108.0
123.001427 104.0
123.054413 128.0
123.098579 144.0
123.118454 180.0
123.138329 160.0
123.208572 276.0
123.288521 188.0
123.339409 56.0
123.410156 188.0
123.507462 44.0
123.595963 88.0
123.852783 236.0
123.994591 200.0
124.022293 184.0
124.074394 216.0
124.235519 172.0
124.289543 172.0
124.340584 100.0
124.424942 136.0
124.440483 152.0
124.522652 204.0
124.56041 200.0
124.651505 160.0
124.682617 80.0
124.758194 216.0
124.782143 156.0
124.882729 136.0
124.993965 212.0
125.058907 180.0
125.079048 176.0
125.134201 64.0
125.178734 132.0
125.24778 208.0
125.390381 160.0
125.410446 140.0
125.548676 124.0
125.602211 132.0
125.660217 144.0
125.776268 180.0
125.843239 176.0
125.861107 100.0
125.900208 120.0
125.914703 220.0
125.96608 164.0
126.053215 208.0
126.178391 144.0
126.198517 188.0
126.223114 140.0
126.254417 120.0
126.312576 136.0
126.352844 56.0
126.384171 88.0
126.431168 220.0
126.520699 180.0
126.693153 96.0
126.836578 128.0
126.977837 196.0
127.038658 176.0
127.10347 100.0
127.137131 152.0
127.180687 128.0
127.213448 112.0
127.271828 204.0
127.316269 120.0
127.354919 140.0
127.375809 188.0
127.408836 136.0
127.435799 188.0
127.635857 204.0
127.662842 180.0
127.692078 148.0
127.793312 332.0
127.837952 196.0
127.894035 196.0
127.964371 204.0
127.980133 128.0
128.009415 164.0
128.104004 124.0
128.205414 188.0
128.264008 128.0
128.358704 64.0
128.448929 208.0
128.46991 184.0
128.518936 124.0
128.622681 56.0
128.661057 204.0
128.715256 164.0
128.767563 164.0
128.816879 132.0
128.857559 88.0
128.94342 140.0
129.006561 172.0
129.071548 180.0
129.117523 188.0
129.232895 228.0
129.257782 192.0
129.280411 264.0
129.404617 180.0
129.450195 212.0
129.475113 164.0
129.530533 160.0
129.651825 80.0
129.685837 80.0
129.725937 116.0
129.853622 160.0
129.878571 208.0
129.987473 104.0
130.06691 204.0
130.135025 180.0
130.158646 232.0
130.24176 204.0
130.291733 216.0
130.319 180.0
130.337738 244.0
130.457642 124.0
130.50766 152.0
130.573608 184.0
130.628204 64.0
130.664291 172.0
130.70784 176.0
130.728317 104.0
130.809692 240.0
130.842133 192.0
130.880844 148.0
131.045761 148.0
131.106369 148.0
131.142838 232.0
131.211227 164.0
131.31517 152.0
131.368591 136.0
131.439316 136.0
131.480408 156.0
131.498138 88.0
131.601395 224.0
131.700317 176.0
131.727005 216.0
131.774979 200.0
131.841248 40.0
131.976135 116.0
131.998993 160.0
132.12709 136.0
132.17514 120.0
132.328705 180.0
132.502563 188.0
132.593033 192.0
132.633392 184.0
132.76619 152.0
132.802887 164.0
132.839584 220.0
132.991043 144.0
133.021118 228.0
133.044479 212.0
133.177032 164.0
133.234451 176.0
133.252838 180.0
133.478104 104.0
133.652924 168.0
133.717361 80.0
133.785095 156.0
133.919022 196.0
134.06514 176.0
134.085876 208.0
134.104324 156.0
134.251877 124.0
134.337219 96.0
134.598038 112.0
134.695038 172.0
134.792786 184.0
134.879303 216.0
135.02327 132.0
135.057953 180.0
135.081085 176.0
135.108856 124.0
135.141251 244.0
135.310211 208.0
135.391251 200.0
135.437576 196.0
135.463058 128.0
135.569641 236.0
135.604416 176.0
135.620636 112.0
135.731918 164.0
135.782944 220.0
135.966232 88.0
135.99176 176.0
136.04747 136.0
136.079987 104.0
136.110168 136.0
136.198425 152.0
136.221649 156.0
136.237915 116.0
136.291351 124.0
136.362 220.0
136.431427 120.0
136.514526 132.0
136.579651 56.0
136.682007 156.0
136.945099 120.0
136.980759 180.0
137.049927 88.0
137.147812 260.0
137.278381 172.0
137.410278 220.0
137.458008 44.0
137.567703 140.0
137.759201 140.0
137.904083 164.0
137.946884 232.0
137.978897 200.0
138.070084 188.0
138.196411 128.0
138.266617 184.0
138.340469 156.0
138.370956 196.0
138.44455 156.0
138.477341 104.0
138.605331 184.0
138.678848 176.0
138.705872 176.0
138.770279 108.0
138.791382 220.0
138.831238 136.0
138.887543 228.0
138.91568 164.0
138.950546 164.0
139.03447 1740.0
139.058136 144.0
139.150375 432.0
139.213776 136.0
139.249008 212.0
139.284241 188.0
139.307739 176.0
139.434631 148.0
139.479279 172.0
139.627411 232.0
139.735626 52.0
139.794449 52.0
139.817184 200.0
139.90509 144.0
139.982788 136.0
140.011047 152.0
140.036926 316.0
140.15004 192.0
140.183029 224.0
140.199524 60.0
140.402283 168.0
140.527313 148.0
140.582367 168.0
140.614624 172.0
140.640594 80.0
140.735016 176.0
140.753906 180.0
140.785599 164.0
140.823288 204.0
140.857544 196.0
140.90744 136.0
140.933441 96.0
140.980698 176.0
140.999603 132.0
141.051605 196.0
141.091797 252.0
141.120163 168.0
141.141449 228.0
141.264435 168.0
141.348297 180.0
141.362427 136.0
141.44902 176.0
141.503479 156.0
141.553207 196.0
141.771149 136.0
141.799591 188.0
141.913391 148.0
141.996384 132.0
142.10788 84.0
142.164841 136.0
142.266907 56.0
142.288269 192.0
142.357132 212.0
142.392761 196.0
142.456894 196.0
142.497284 156.0
142.537674 220.0
142.585205 40.0
142.620865 168.0
142.687424 160.0
142.715958 188.0
142.846024 192.0
142.953842 240.0
143.019058 168.0
143.095444 164.0
143.253845 176.0
143.322937 156.0
143.678207 128.0
143.696869 220.0
143.761734 176.0
143.799911 204.0
143.859589 164.0
143.885849 172.0
143.924057 156.0
143.97377 200.0
144.006409 168.0
144.093643 80.0
144.110367 132.0
144.155777 188.0
144.30397 148.0
144.342239 148.0
144.469009 192.0
144.49054 168.0
144.514908 148.0
144.539719 144.0
144.670029 188.0
144.772171 152.0
144.941605 176.0
145.03656 152.0
145.060532 216.0
145.09169 160.0
145.134842 176.0
145.245178 204.0
145.338745 112.0
145.383041 164.0
145.446747 136.0
145.54277 152.0
145.631638 84.0
145.677032 196.0
145.730133 172.0
145.795013 164.0
145.874649 220.0
145.917618 124.0
145.965698 52.0
145.985947 124.0
146.011398 104.0
146.028229 168.0
146.051147 180.0
146.081146 104.0
146.103058 188.0
146.203873 96.0
146.444641 84.0
146.521729 84.0
146.553055 100.0
146.594009 124.0
146.774811 60.0
146.808578 164.0
146.844757 204.0
147.031967 552.0
147.05867 984.0
147.376724 100.0
147.412109 172.0
147.480988 200.0
147.590988 132.0
147.649033 208.0
147.84259 68.0
147.915192 72.0
148.00235 68.0
148.028885 184.0
148.055389 404.0
148.174332 48.0
148.191284 136.0
148.232819 172.0
148.285797 228.0
148.346405 140.0
148.379562 224.0
148.467468 56.0
148.494324 32.0
148.554962 152.0
148.612 204.0
148.647995 232.0
148.685989 220.0
148.718872 132.0
148.737991 152.0
148.775803 116.0
148.823547 156.0
148.909531 172.0
148.965195 264.0
148.991425 144.0
149.010727 88.0
149.019958 176.0
149.059784 65196.0
149.126831 40.0
149.151413 52.0
149.165237 92.0
149.205292 160.0
149.24231 68.0
149.273926 84.0
149.300705 244.0
149.335114 148.0
149.355331 84.0
149.363464 216.0
149.385803 92.0
149.402832 216.0
149.435333 124.0
149.458099 84.0
149.483124 52.0
149.500168 56.0
149.525787 76.0
149.587723 220.0
149.634048 64.0
149.675339 252.0
149.729156 68.0
149.770432 60.0
149.829849 164.0
149.841339 36.0
149.846725 100.0
149.88147 152.0
149.901993 112.0
149.921494 104.0
149.97998 112.0
150.062393 4276.0
150.094482 204.0
150.155548 48.0
150.174347 136.0
150.216522 88.0
150.23848 88.0
150.26532 108.0
150.338516 256.0
150.377579 176.0
150.397095 36.0
150.433716 56.0
150.546036 64.0
150.624191 172.0
150.709702 156.0
150.733963 112.0
150.756134 168.0
150.781143 52.0
150.796097 136.0
150.836792 88.0
150.856354 124.0
150.897919 52.0
150.938583 180.0
150.966385 140.0
150.990143 84.0
151.021683 144.0
151.064178 460.0
151.10582 40.0
151.143738 112.0
151.19162 128.0
151.220825 152.0
151.246719 140.0
151.326096 48.0
151.450989 200.0
151.492645 124.0
151.519592 84.0
151.583298 92.0
151.620056 176.0
151.678879 188.0
151.7034 48.0
151.754883 112.0
151.821091 140.0
151.946198 128.0
152.005096 36.0
152.061539 156.0
152.094147 224.0
152.194107 124.0
152.210419 112.0
152.260406 140.0
152.308014 92.0
152.533157 144.0
152.579697 184.0
152.715118 48.0
152.742172 112.0
152.783035 164.0
152.865189 136.0
153.073334 380.0
153.150803 184.0
153.219772 136.0
153.266586 160.0
153.283844 120.0
153.355316 40.0
153.509445 168.0
153.633972 52.0
153.821518 148.0
154.046249 172.0
154.112961 128.0
154.21254 136.0
154.263718 68.0
154.357681 220.0
154.472412 212.0
154.644669 220.0
154.721405 248.0
154.738739 132.0
154.860077 176.0
154.993866 200.0
155.011215 116.0
155.037155 144.0
155.065735 212.0
155.083084 176.0
155.146271 136.0
155.286407 128.0
155.340973 188.0
155.502274 208.0
155.589157 184.0
155.631363 156.0
155.755539 56.0
155.835037 152.0
155.863266 144.0
155.9245 172.0
155.971725 160.0
156.144226 212.0
156.202988 212.0
156.272659 120.0
156.389618 192.0
156.412018 156.0
156.45932 164.0
156.504135 152.0
156.561417 148.0
156.581345 232.0
156.60376 120.0
156.794556 332.0
156.818039 216.0
156.885345 92.0
157.002548 56.0
157.199631 232.0
157.274506 92.0
157.391846 148.0
157.414322 60.0
157.654144 56.0
157.720123 172.0
157.799133 120.0
157.876648 148.0
157.892868 132.0
157.910614 152.0
157.991714 168.0
158.032547 304.0
158.121841 120.0
158.17308 176.0
158.229477 228.0
158.302475 160.0
158.347183 392.0
158.382248 172.0
158.412308 96.0
158.435776 220.0
158.474945 144.0
158.519394 308.0
158.572601 144.0
158.59523 144.0
158.612778 120.0
158.646027 304.0
158.682983 268.0
158.720078 160.0
158.736725 188.0
158.774628 204.0
158.794266 468.0
158.827271 192.0
158.881622 584.0
158.899719 116.0
158.931915 464.0
158.989136 516.0
159.042023 250708.0
159.130981 204.0
159.164307 68.0
159.18457 180.0
159.216232 128.0
159.251801 420.0
159.284988 96.0
159.302887 188.0
159.333496 120.0
159.352417 140.0
159.381729 244.0
159.424728 156.0
159.455063 2424.0
159.504456 96.0
159.54306 356.0
159.569122 124.0
159.588821 52.0
159.615646 84.0
159.647537 244.0
159.67749 100.0
159.699799 104.0
159.745346 32.0
159.800552 164.0
159.860611 132.0
159.911423 36.0
159.946045 232.0
159.979385 64.0
160.0056 188.0
160.044327 24632.0
160.106308 80.0
160.168839 140.0
160.206039 36.0
160.226196 40.0
160.277298 72.0
160.301224 88.0
160.305084 104.0
160.357239 100.0
160.384964 68.0
160.410172 92.0
160.442245 52.0
160.462082 88.0
160.506256 72.0
160.531616 260.0
160.594254 48.0
160.628937 64.0
160.664886 92.0
160.674377 84.0
160.681992 72.0
160.69397 68.0
160.745316 64.0
160.806198 60.0
160.825485 100.0
160.853012 148.0
160.900253 92.0
160.931503 44.0
160.950104 224.0
160.967651 84.0
160.97699 80.0
161.000946 120.0
161.047485 1464.0
161.082977 124.0
161.119019 196.0
161.141083 188.0
161.151077 120.0
161.17305 156.0
161.197662 48.0
161.229568 128.0
161.277924 132.0
161.325455 220.0
161.344788 132.0
161.367096 132.0
161.386719 76.0
161.4272 100.0
161.448456 140.0
161.520599 72.0
161.557465 40.0
161.604782 64.0
161.69841 76.0
161.718033 140.0
161.804733 60.0
161.863281 128.0
161.910172 180.0
161.971878 64.0
162.030151 36.0
162.047882 80.0
162.07576 88.0
162.117004 72.0
162.154312 120.0
162.210083 68.0
162.237961 96.0
162.291214 108.0
162.32164 40.0
162.656555 60.0
162.806351 72.0
162.910507 40.0
162.96843 100.0
163.004517 76.0
163.037552 152.0
163.074234 212.0
163.1138 112.0
163.246017 56.0
163.424088 72.0
163.465485 44.0
163.523331 68.0
163.586975 176.0
163.770309 108.0
163.790695 72.0
163.864578 48.0
163.887131 136.0
163.971603 96.0
164.08313 184.0
164.097534 216.0
164.40773 36.0
165.048477 412.0
165.384094 216.0
165.494171 212.0
165.745209 184.0
166.027191 100.0
166.052841 200.0
166.084381 148.0
166.227295 64.0
166.383881 96.0
166.604752 100.0
166.645859 68.0
166.67926 60.0
166.730652 240.0
166.946609 52.0
167.066147 1216.0
167.09581 124.0
167.301712 172.0
167.88147 168.0
167.914993 176.0
167.964584 144.0
167.987228 64.0
168.061096 280.0
168.154953 108.0
168.423935 116.0
168.531998 240.0
168.666382 60.0
168.793076 148.0
168.992249 60.0
169.079071 200.0
169.181183 112.0
169.207077 84.0
169.365051 56.0
169.396133 48.0
169.414276 56.0
169.665665 56.0
169.735672 176.0
169.91983 136.0
169.966537 172.0
170.096313 168.0
170.137848 68.0
170.324829 140.0
170.400162 116.0
170.592484 152.0
170.725098 44.0
170.753708 144.0
170.938416 96.0
171.043762 144.0
171.151886 40.0
171.203964 112.0
171.772186 128.0
171.960052 136.0
172.129745 104.0
172.184601 132.0
172.336121 56.0
172.3936 52.0
172.773651 104.0
172.992584 48.0
173.05426 428.0
173.238251 168.0
173.333084 156.0
173.503448 88.0
173.639816 152.0
174.009827 68.0
174.046585 68.0
175.122223 184.0
175.330368 48.0
175.406815 80.0
175.665253 40.0
176.277817 108.0
176.367676 100.0
176.75563 196.0
176.931152 204.0
177.066193 108.0
177.116531 48.0
177.203949 112.0
177.370911 140.0
177.482269 148.0
177.856354 96.0
178.055496 180.0
178.379654 120.0
178.403595 192.0
178.438156 156.0
178.773315 192.0
179.071503 184.0
179.135437 120.0
179.32196 136.0
179.607269 120.0
180.614319 56.0
180.871216 180.0
182.073776 148.0
182.118088 172.0
182.161072 76.0
182.241669 36.0
182.424438 116.0
183.590332 144.0
184.041 232.0
184.265182 60.0
184.628769 136.0
184.919617 104.0
184.984573 92.0
185.056335 516.0
185.082047 184.0
185.14975 112.0
185.380035 84.0
185.41658 148.0
185.472183 156.0
186.069016 168.0
186.223801 192.0
186.264557 48.0
186.452042 128.0
186.481934 152.0
186.568924 268.0
186.596115 104.0
186.802795 120.0
186.835449 128.0
186.9198 120.0
186.949738 132.0
187.012329 164.0
187.031235 144.0
187.072128 19608.0
187.100311 208.0
187.121063 96.0
187.172958 28.0
187.217484 52.0
187.24649 84.0
187.273727 128.0
187.327515 156.0
187.418121 192.0
187.522003 68.0
187.652527 136.0
187.698883 80.0
187.739792 40.0
187.780701 28.0
188.076218 1332.0
188.10582 192.0
188.599854 88.0
188.665451 136.0
189.075775 116.0
189.11409 148.0
189.141464 80.0
189.166092 44.0
189.227615 136.0
189.316696 236.0
189.344086 108.0
189.382431 36.0
189.494751 176.0
189.624619 164.0
189.774323 44.0
190.101746 424.0
190.288879 88.0
190.397263 60.0
190.629562 164.0
190.97995 136.0
191.065231 180.0
191.089996 56.0
191.109253 196.0
191.172546 64.0
192.993195 48.0
193.077377 216.0
193.441406 40.0
194.084183 128.0
194.292206 112.0
194.83638 152.0
195.081085 160.0
196.361847 140.0
197.185501 172.0
197.50705 172.0
198.058502 56.0
198.400391 168.0
198.534988 96.0
199.079651 244.0
200.059479 352.0
200.412827 116.0
200.548096 160.0
200.691879 96.0
200.948563 76.0
201.264694 60.0
202.080643 108.0
202.090942 72.0
202.097366 124.0
202.356125 68.0
203.01355 120.0
203.092957 152.0
203.169556 116.0
203.209274 96.0
203.443481 184.0
203.498795 124.0
204.226318 180.0
204.4767 64.0
204.550705 92.0
204.935196 108.0
205.568237 52.0
206.119385 160.0
206.811508 144.0
207.519119 44.0
207.946564 88.0
208.265289 184.0
208.351471 76.0
208.515259 68.0
210.106949 2380.0
210.207245 44.0
211.109863 472.0
211.402206 92.0
211.87709 84.0
212.108932 60.0
212.164017 88.0
212.387314 160.0
213.088013 740.0
214.04393 136.0
214.08461 124.0
214.095474 120.0
215.087708 156.0
215.128571 176.0
215.181122 136.0
216.180832 140.0
217.485077 112.0
217.534988 180.0
218.196014 160.0
220.164429 164.0
220.492371 64.0
221.294052 168.0
223.017685 32.0
223.626984 156.0
224.521286 100.0
225.805557 104.0
227.12648 120.0
227.219482 140.0
227.465576 84.0
227.561646 84.0
228.312897 88.0
228.655624 136.0
228.756912 220.0
229.038284 84.0
229.059372 124.0
229.267273 116.0
229.309479 108.0
229.378799 148.0
229.414352 176.0
229.562729 244.0
229.683365 120.0
229.794998 104.0
229.834213 76.0
229.870422 208.0
229.981003 92.0
230.051102 156.0
230.114838 40088.0
230.243179 68.0
230.273499 128.0
230.299149 96.0
230.369431 60.0
230.421158 72.0
230.447174 96.0
230.487411 64.0
230.519699 124.0
230.542603 60.0
230.565033 64.0
230.610367 104.0
230.639343 96.0
230.66478 80.0
230.697189 128.0
230.767578 52.0
230.915756 128.0
230.952057 76.0
230.985321 32.0
231.055939 128.0
231.118088 4512.0
231.177689 44.0
231.336365 64.0
231.366638 32.0
231.453491 76.0
231.490784 60.0
231.569534 104.0
231.625122 96.0
231.648285 112.0
231.705841 32.0
231.84523 104.0
231.869476 92.0
231.989792 80.0
232.117905 476.0
232.162109 100.0
232.227264 52.0
232.28186 92.0
232.354675 76.0
232.42749 80.0
232.491226 88.0
232.6521 68.0
232.676392 136.0
232.739212 104.0
232.751953 72.0
232.811081 112.0
232.873779 144.0
233.014786 48.0
233.092514 92.0
233.128983 80.0
233.189774 144.0
233.305283 52.0
233.551605 100.0
233.816315 72.0
233.895462 64.0
233.93808 56.0
234.465042 60.0
234.611359 92.0
234.751617 52.0
234.81871 64.0
234.876663 64.0
236.373749 48.0
236.398239 128.0
236.808487 40.0
237.112305 212.0
240.205139 76.0
240.408783 88.0
240.646469 128.0
240.742203 96.0
241.332428 88.0
241.740753 64.0
242.865417 84.0
243.56694 88.0
243.694321 88.0
244.994843 124.0
245.400024 36.0
245.496689 80.0
246.094635 200.0
246.136429 156.0
246.758224 152.0
247.659515 68.0
248.305206 100.0
248.747635 112.0
255.444077 104.0
255.813232 40.0
255.93103 184.0
256.112549 176.0
257.22226 36.0
262.187561 52.0
266.260895 104.0
266.374573 68.0
270.686432 88.0
276.55014 44.0
277.865753 48.0
280.873199 120.0
281.794617 108.0
282.888245 100.0
285.87558 48.0
285.98999 48.0
287.010803 84.0
287.938873 28.0
288.398376 64.0
295.841583 76.0
299.864075 96.0
300.050201 96.0
301.171783 92.0
302.35083 108.0
303.591095 32.0
308.308502 84.0
309.182831 156.0
309.585449 100.0
311.047546 100.0
313.315857 112.0
313.537842 96.0
318.154053 112.0
318.466553 40.0
319.760803 76.0
323.508881 56.0
328.0354 80.0
328.276978 128.0
332.898346 40.0
339.250977 80.0
343.719849 100.0
346.871033 104.0
347.193634 96.0
349.97702 72.0
352.146423 448.0
352.659393 100.0
353.155121 380.0
353.620667 68.0
360.3862 100.0
363.434357 96.0
369.806427 56.0
372.575104 40.0
373.786285 48.0
374.945496 108.0
377.652069 140.0
382.280701 40.0
383.51532 48.0
386.972748 88.0
388.046295 64.0
397.934204 48.0
402.425507 160.0
403.232483 108.0
408.911865 44.0
411.867462 64.0
413.889618 52.0
416.924072 48.0
431.861176 108.0
433.716217 88.0
438.087891 80.0
443.046906 60.0
456.988708 32.0
458.977936 96.0
465.78302 80.0
470.628174 52.0
477.014374 92.0
479.451904 68.0
481.336517 108.0
483.741272 52.0
490.947327 52.0
491.339935 64.0
497.371826 60.0
502.677124 52.0
502.845947 116.0
519.546509 80.0
522.162964 48.0
527.831726 100.0
532.814148 68.0
542.872375 48.0
556.442139 56.0
556.723877 52.0
569.119995 52.0
571.572815 144.0
574.522156 56.0
576.436829 64.0
581.990051 72.0
583.16095 48.0
587.755432 76.0
614.841797 104.0
618.375671 96.0
629.657227 100.0
645.311218 88.0
647.112488 92.0
659.617798 52.0
664.241943 36.0
676.620972 76.0
696.669312 60.0
705.745361 64.0
707.364258 136.0
708.502869 96.0
711.642761 84.0
720.366699 140.0
720.911682 136.0
721.082703 100.0
727.231628 120.0
728.772949 80.0
734.576782 52.0
745.389282 120.0
746.498291 92.0
751.913635 120.0
759.261475 172.0
763.253906 80.0
784.00293 84.0
788.193909 56.0
803.319885 196.0
805.928345 76.0
811.350647 108.0
813.654114 140.0
827.228455 92.0
827.669312 56.0
828.17334 176.0
828.41394 72.0
830.127747 72.0
831.475952 160.0
840.926697 160.0
844.977722 52.0
846.031067 148.0
846.604309 96.0
849.020996 148.0
849.108032 128.0
850.140686 156.0
859.358215 84.0
863.049805 156.0
872.877808 144.0
873.742432 156.0
882.518982 136.0
884.73175 96.0
890.816467 176.0
892.480652 148.0
900.591797 116.0
903.772339 116.0
904.167297 176.0
907.767883 188.0
909.717896 92.0
911.790222 192.0
911.940491 48.0
914.033447 196.0
916.309509 84.0
918.190308 112.0
925.399658 88.0
927.6474 28.0
927.701965 120.0
930.310608 80.0
931.500916 188.0
932.333313 232.0
933.652649 260.0
937.884277 80.0
939.903015 128.0
941.910645 120.0
942.345459 236.0
944.295593 120.0
946.253845 192.0
947.233704 80.0
947.337891 180.0
947.582947 40.0
948.471558 132.0
948.949768 100.0
949.836304 188.0
952.036377 164.0
952.61377 244.0
952.755066 60.0
955.854004 168.0
957.300659 168.0
959.753296 92.0
959.802612 216.0
960.265137 132.0
961.58551 100.0
961.838623 168.0
962.672119 192.0
963.363953 40.0
963.920044 248.0
972.156433 152.0
972.845398 136.0
972.981995 200.0
977.003113 256.0
979.655212 116.0
980.315735 200.0
980.833008 188.0
982.092651 128.0
983.983521 92.0
984.801636 172.0
986.407532 100.0
986.976501 176.0
987.827087 228.0
989.109924 108.0
990.424927 92.0
991.690674 196.0
992.286255 160.0
995.838196 52.0
996.271606 72.0
998.81134 216.0
1000.2146 148.0
1000.711975 188.0
1002.759338 96.0
1004.903503 204.0
1005.843689 148.0
1008.054199 208.0
1009.135376 84.0
1010.368713 160.0
1010.697754 176.0
1011.666138 164.0
1015.15741 192.0
1015.607727 176.0
1016.379517 56.0
1016.997375 184.0
1019.042297 76.0
1020.98114 176.0
1021.31189 180.0
1021.591797 208.0
1021.668091 188.0
1022.075317 164.0
1023.233765 112.0
1023.329285 152.0
1025.680176 220.0
1026.011597 124.0
1026.96814 140.0
1027.772095 140.0
1027.944336 88.0
1030.626343 188.0
1030.907471 144.0
1032.927979 56.0
1034.067017 224.0
1035.21936 148.0
1038.250732 224.0
1041.52417 148.0
1042.97644 192.0
1043.432861 136.0
1044.732056 144.0
1046.888306 184.0
1047.120117 176.0
1047.210327 100.0
1047.974487 128.0
1050.220459 168.0
1050.888306 188.0
1051.026978 180.0
1052.253296 156.0
1052.4729 148.0
1053.092896 180.0
1053.473999 200.0
1053.616089 148.0
1057.651489 144.0
1058.201782 160.0
1059.173218 136.0
1060.806274 152.0
1061.275757 160.0
1061.334839 144.0
1061.525879 124.0
1061.94751 116.0
1063.225708 156.0
1063.342529 156.0
1063.965698 184.0
1064.855347 224.0
1064.991699 104.0
1066.167725 136.0
1067.30542 152.0
1067.637085 140.0
1067.682617 224.0
1068.053345 140.0
1069.615112 192.0
1070.240112 208.0
1070.66333 148.0
1070.715454 40.0
1070.761108 192.0
1071.275635 156.0
1072.722412 168.0
1075.690674 104.0
1076.01709 256.0
1076.677368 212.0
1076.918213 168.0
1079.009399 156.0
1079.342896 132.0
1079.44104 156.0
1081.083008 180.0
1081.894653 176.0
1083.079956 220.0
1083.892456 224.0
1085.734619 72.0
1087.893433 188.0
1088.319946 144.0
1089.466309 216.0
1093.224121 124.0
1094.119385 164.0
1094.270752 132.0
1094.902954 108.0
1095.502319 232.0
1095.72998 200.0
1095.864746 180.0
1096.44458 172.0
1096.741211 48.0
1098.033569 120.0
1098.660278 272.0
1098.891113 188.0
1099.953735 176.0
1100.250854 64.0
1100.369629 168.0
1101.168701 168.0
1101.234741 188.0
1101.73291 172.0
1102.64209 196.0
1103.342773 148.0
1103.435303 172.0
1103.977539 204.0
1104.380981 188.0
1104.639038 200.0
1104.731689 180.0
1105.466064 104.0
1106.850342 180.0
1111.78186 176.0
1113.468262 224.0
1113.747192 120.0
1114.145752 148.0
1115.847168 124.0
1117.090942 160.0
1118.062378 176.0
1119.713501 136.0
1119.806763 296.0
1120.326416 264.0
1120.459595 244.0
1121.059326 180.0
1121.185913 180.0
1121.819214 140.0
1123.526489 164.0
1124.020264 232.0
1127.940796 256.0
1128.20813 88.0
1128.716309 104.0
1129.117554 204.0
1129.913574 156.0
1130.502441 172.0
1130.82373 108.0
1132.022095 148.0
1132.216431 228.0
1132.939819 204.0
1133.288208 176.0
1133.4021 164.0
1133.603149 176.0
1134.394043 216.0
1135.171875 212.0
1135.473633 164.0
1136.231689 96.0
1136.661133 288.0
1138.064087 156.0
1138.22522 132.0
1138.594604 148.0
1139.991943 140.0
1141.289429 224.0
1141.834106 176.0
1142.103149 32.0
1142.486572 176.0
1142.802856 176.0
1142.917236 192.0
1143.078735 196.0
1145.105225 200.0
1145.879883 224.0
1146.567261 204.0
1147.025513 276.0
1147.241333 196.0
1148.178589 216.0
1149.237671 128.0
1149.372681 172.0
1150.466064 160.0
1151.148071 156.0
1151.256104 144.0
1152.370728 60.0
1152.614014 216.0
1154.243042 172.0
1155.616211 208.0
1157.145874 128.0
1157.206909 140.0
1157.260986 200.0
1158.236206 56.0
1158.500488 152.0
1159.144165 156.0
1163.451294 68.0
1166.012207 60.0
1166.746338 188.0
1167.52832 148.0
1167.664307 180.0
1168.215332 212.0
1168.439819 168.0
1169.174805 44.0
1169.58313 168.0
1171.414917 124.0
1171.469482 180.0
1172.048584 152.0
1172.144043 236.0
1173.445923 156.0
1175.540039 164.0
1175.738037 164.0
1176.304565 200.0
1176.761963 232.0
1177.872437 204.0
1178.606201 176.0
1178.886353 172.0
1179.19397 132.0
1179.288696 144.0
1179.672363 112.0
1179.863892 136.0
1180.280884 200.0
1180.930664 180.0
1181.484741 104.0
1182.844116 232.0
1184.168213 200.0
1184.435303 220.0
1184.89978 144.0
1185.223145 132.0
1185.538452 160.0
1186.56665 108.0
1187.10144 140.0
1190.972412 64.0
1191.625122 116.0
1191.741943 44.0
1192.106079 164.0
1192.827759 316.0
1194.72583 132.0
1196.005859 28.0
1196.184814 68.0
1196.356934 220.0
1196.942261 192.0
1197.8927 168.0
1198.8573 160.0
1198.967651 132.0
1200.608521 140.0
1202.208984 156.0
1203.092529 148.0
1205.157715 200.0
1205.385742 204.0
1205.648315 144.0
1206.11145 140.0
1206.215088 216.0
1207.459717 120.0
1207.757202 124.0
1209.445557 208.0
1209.791748 164.0
1209.957886 120.0
1210.179443 168.0
1210.588013 20.0
1211.232178 204.0
1211.536987 184.0
1212.243652 196.0
1213.013062 220.0
1213.255737 124.0
1213.526123 68.0
1213.748047 148.0
1215.142212 220.0
1216.988525 180.0
1217.551025 120.0
1217.939941 144.0
1219.385254 160.0
1220.031738 192.0
1220.15686 204.0
1221.227783 156.0
1222.153076 164.0
1222.222656 356.0
1223.030029 120.0
1223.294556 136.0
1224.798706 156.0
1225.509277 192.0
1225.781006 120.0
1227.000854 124.0
1227.244873 152.0
1227.865601 108.0
1228.779419 236.0
1229.253906 220.0
1230.098389 220.0
1230.887451 124.0
1231.313477 176.0
1231.606812 164.0
1231.66272 140.0
1232.368286 172.0
1232.713257 184.0
1232.976318 48.0
1233.262817 188.0
1233.437622 32.0
1233.640259 192.0
1234.647217 232.0
1234.738159 132.0
1234.864014 264.0
1235.287354 220.0
1235.92041 196.0
1236.095337 180.0
1236.78125 52.0
1237.579346 104.0
1238.174561 148.0
1238.538818 160.0
1239.477661 132.0
1240.290649 204.0
1241.559814 44.0
1241.763184 148.0
1242.668091 88.0
1242.780396 140.0
1244.387695 180.0
1246.143677 176.0
1246.263184 128.0
1246.684814 108.0
1247.472046 64.0
1247.633667 132.0
1248.850342 124.0
1248.955811 132.0
1249.019165 176.0
1249.314575 116.0
1249.940796 80.0
1250.524902 236.0
1250.799438 152.0
1251.630249 64.0
1252.200684 148.0
1252.376831 80.0
1252.440186 240.0
1254.110107 136.0
1254.991455 76.0
1255.111328 132.0
1256.155151 164.0
1256.232788 208.0
1256.627808 116.0
1256.959473 180.0
1257.538208 172.0
1257.658203 172.0
1257.778198 64.0
1258.194702 140.0
1258.512451 192.0
1259.027954 224.0
1259.155029 176.0
1260.009766 200.0
1260.087524 156.0
1260.341919 200.0
1261.034546 48.0
1262.250488 144.0
1262.91394 200.0
1263.550415 220.0
1263.629883 144.0
1263.686401 188.0
1264.153442 132.0
1264.833008 124.0
1265.817139 212.0
1266.050781 220.0
1266.752075 140.0
1267.053955 196.0
1267.304688 208.0
1267.694336 96.0
1268.084229 36.0
1269.098022 172.0
1269.424194 144.0
1270.374634 156.0
1270.651367 176.0
1270.786133 212.0
1271.53833 204.0
1271.824463 148.0
1272.077759 156.0
1272.177246 188.0
1273.107422 80.0
1273.640137 264.0
1275.118042 184.0
1276.653687 208.0
1276.959473 156.0
1277.059082 160.0
1277.564209 128.0
1278.04541 212.0
1278.913696 196.0
1278.927246 124.0
1278.960815 264.0
1279.649536 92.0
1280.019775 180.0
1280.468506 180.0
1280.639404 48.0
1281.323242 148.0
1281.537109 144.0
1281.608276 144.0
1282.313843 184.0
1283.169312 216.0
1283.732666 232.0
1283.946533 52.0
1285.409058 112.0
1285.544678 204.0
1286.451172 140.0
1286.508301 128.0
1287.050903 100.0
1287.436523 128.0
1287.624146 76.0
1288.622314 116.0
1288.922485 128.0
1289.008179 140.0
1289.150635 200.0
1289.42981 84.0
1289.522705 132.0
1289.637085 152.0
1289.744385 164.0
1289.815796 144.0
1290.466431 140.0
1290.552246 80.0
1290.981323 176.0
1291.317383 216.0
1291.603516 176.0
1292.118652 236.0
1292.848511 156.0
1292.905762 156.0
1293.04895 200.0
1294.072632 188.0
1294.788696 216.0
1294.946289 104.0
1295.354614 216.0
1295.533691 196.0
1295.655518 124.0
1295.770142 168.0
1296.214355 208.0
1296.640747 152.0
1297.023315 148.0
1297.095947 136.0
1297.260864 184.0
1298.250366 160.0
1298.78833 128.0
1299.032227 192.0
1300.417114 116.0
1300.711426 168.0
1300.984131 188.0
1302.097168 140.0
1302.989014 116.0
1303.225098 256.0
1303.332886 188.0
1304.001221 144.0
1304.065918 160.0
1304.640991 172.0
1305.144287 128.0
1305.244995 156.0
1305.741211 48.0
1305.90686 156.0
1306.072021 204.0
1306.273438 84.0
1306.841797 160.0
1308.338867 128.0
1308.806885 200.0
1309.073364 120.0
1309.334961 124.0
1310.106445 208.0
1310.903198 160.0
1311.249146 252.0
1311.45813 68.0
1311.74646 144.0
1312.69104 208.0
1312.777588 184.0
1313.441162 148.0
1313.697388 228.0
1314.120728 184.0
1314.281616 200.0
1314.545166 220.0
1315.750488 168.0
1315.981567 168.0
1316.299194 144.0
1316.45813 220.0
1317.447754 84.0
1318.784546 96.0
1320.093262 172.0
1321.373535 216.0
1321.510986 100.0
1322.213013 208.0
1322.379395 152.0
1322.516968 216.0
1322.801636 184.0
1323.472656 148.0
1324.204102 132.0
1325.384888 84.0
1326.139282 144.0
1326.624268 176.0
1327.092529 352.0
1327.994873 180.0
1328.337769 184.0
1328.437378 164.0
1328.836426 148.0
1331.369873 68.0
1331.457031 192.0
1331.609497 168.0
1331.878296 180.0
1332.168823 168.0
1332.270508 112.0
1332.321411 140.0
1332.444946 144.0
1332.65564 152.0
1333.012573 184.0
1333.309692 244.0
1333.52771 80.0
1333.578613 172.0
1333.709351 196.0
1333.818481 120.0
1335.280029 64.0
1335.512695 148.0
1335.672729 216.0
1336.269287 204.0
1336.473022 140.0
1336.807739 92.0
1337.178955 168.0
1338.300049 132.0
1338.933594 132.0
1339.042847 172.0
1339.092529 152.0
1340.164795 176.0
1341.338135 208.0
1341.979736 140.0
1342.519409 236.0
1343.022583 140.0
1343.234131 156.0
1343.62085 168.0
1343.723022 80.0
1344.292114 136.0
1344.569458 212.0
1344.802979 156.0
1344.956299 208.0
1345.211792 148.0
1345.41626 112.0
1345.547607 196.0
1346.146362 208.0
1347.68042 168.0
1348.30896 140.0
1348.550049 84.0
1349.069092 144.0
1349.37915 228.0
1349.529785 124.0
1349.602905 172.0
1350.12207 152.0
1351.336426 204.0
1351.914429 224.0
1353.664185 148.0
1353.815674 236.0
1353.957031 104.0
1354.338013 140.0
1354.513794 204.0
1354.887451 236.0
1355.187744 176.0
1355.59082 176.0
1356.631592 180.0
1357.23291 156.0
1357.423584 180.0
1359.110718 136.0
1359.301514 152.0
1359.367554 124.0
1359.477661 156.0
1359.63916 140.0
1360.108887 244.0
1360.747559 44.0
1361.371704 112.0
1361.540649 52.0
1361.6875 60.0
1362.289917 60.0
1362.554321 88.0
1362.701294 260.0
1362.955688 148.0
1363.215698 188.0
1363.91394 128.0
1364.185913 176.0
1364.237427 148.0
1365.595215 316.0
1366.333374 164.0
1366.392334 100.0
1367.26062 188.0
1367.812622 140.0
1368.118408 152.0
1368.364746 52.0
1368.864258 228.0
1369.373657 156.0
1369.675659 132.0
1370.184082 116.0
1371.083008 108.0
1371.842285 180.0
1372.69751 116.0
1373.412964 116.0
1373.663818 176.0
1373.951538 148.0
1374.025269 184.0
1374.881226 64.0
1375.656372 36.0
1376.069702 252.0
1376.726929 240.0
1376.985474 204.0
1377.096313 228.0
1377.657715 156.0
1377.709351 188.0
1378.270874 168.0
1378.509888 232.0
1378.581299 192.0
1379.852661 124.0
1381.028564 164.0
1381.095093 208.0
1381.501953 88.0
1381.605591 36.0
1381.923706 128.0
1382.064331 144.0
1382.153076 176.0
1382.270386 196.0
1382.77478 152.0
1383.724976 208.0
1383.996216 216.0
1384.151733 128.0
1384.751709 188.0
1384.914551 180.0
1386.181519 76.0
1386.76709 220.0
1386.944946 280.0
1387.14502 192.0
1387.389771 108.0
1387.842041 148.0
1388.843262 172.0
1388.917358 180.0
1389.035156 160.0
1390.119385 128.0
1390.223267 44.0
1390.408813 180.0
1390.490479 108.0
1390.906128 136.0
1391.114014 224.0
1391.248535 188.0
1391.537109 40.0
1391.589111 160.0
1391.900513 176.0
1392.777344 76.0
1392.873901 112.0
1393.795166 484.0
1393.980957 124.0
1394.062744 136.0
1395.497437 176.0
1395.594116 148.0
1395.848633 152.0
1396.330322 160.0
1396.434448 188.0
1396.940308 64.0
1397.312256 168.0
1398.391357 152.0
1398.465698 156.0
1398.614624 156.0
1398.766357 176.0
1399.515503 204.0
1399.92041 192.0
1400.070435 204.0
1400.811401 172.0
1401.515625 156.0
1402.704224 168.0
1403.321167 132.0
1403.494507 132.0
1403.874878 144.0
1404.277588 184.0
1404.740112 248.0
1404.986328 224.0
1405.075806 32.0
1405.314575 96.0
1405.710083 152.0
1406.19519 208.0
1406.284668 228.0
1407.135742 156.0
1407.763062 212.0
1408.681763 144.0
1408.995483 100.0
1409.817505 164.0
1409.899658 144.0
1410.385986 176.0
1410.781738 176.0
1411.342529 340.0
1411.641602 244.0
1411.753784 152.0
1411.806152 144.0
1411.955688 180.0
1413.244629 108.0
1413.451904 208.0
1414.851685 204.0
1415.121216 156.0
1415.937378 164.0
1416.289429 140.0
1416.356934 152.0
1416.409912 156.0
1416.761475 120.0
1417.143555 128.0
1417.196045 140.0
1417.523071 208.0
1418.005737 160.0
1418.102783 188.0
1418.387573 192.0
1418.500122 176.0
1418.844971 188.0
1418.927368 220.0
1419.069824 116.0
1419.609741 180.0
1419.969727 104.0
1420.339111 136.0
1420.434814 156.0
1420.532349 152.0
1421.447754 164.0
1422.641113 128.0
1423.12915 60.0
1423.632324 136.0
1424.518677 256.0
1425.036987 224.0
1425.908813 136.0
1426.344727 116.0
1426.607788 144.0
1427.630493 100.0
1428.111816 96.0
1428.322388 184.0
1428.698608 148.0
1428.976929 224.0
1429.315552 48.0
1429.488647 232.0
1429.612427 132.0
1429.759521 184.0
1429.9552 152.0
1430.527344 220.0
1430.580078 132.0
1430.685425 248.0
1430.79834 156.0
1430.851074 144.0
1431.001709 52.0
1431.325439 240.0
1431.566406 220.0
1432.081055 144.0
1432.259399 108.0
1432.884644 232.0
1433.690918 196.0
1433.751221 88.0
1434.352783 104.0
1434.452271 176.0
1434.814087 192.0
1434.904541 104.0
1435.153442 192.0
1435.387085 152.0
1435.61145 220.0
1436.126221 168.0
1436.448242 156.0
1436.865601 224.0
1438.072998 168.0
1438.216431 188.0
1438.684448 120.0
1438.737305 76.0
1438.926025 216.0
1439.099731 156.0
1439.824707 44.0
1439.96814 152.0
1440.995605 188.0
1441.956909 184.0
1442.25769 180.0
1442.514648 76.0
1442.885132 232.0
1442.998535 196.0
1443.5354 184.0
1443.679077 300.0
1444.806152 224.0
1445.123901 172.0
1445.248291 236.0
1445.35498 156.0
1445.918457 216.0
1446.259155 156.0
1446.418091 144.0
1447.894531 116.0
1448.530884 100.0
1449.394531 144.0
1449.902344 176.0
1450.319214 140.0
1450.6073 184.0
1451.244141 260.0
1451.585327 152.0
1452.055542 132.0
1452.142456 208.0
1452.760986 168.0
1452.859619 192.0
1453.276978 176.0
1453.709473 160.0
1454.058594 164.0
1454.180054 260.0
1454.999756 164.0
1455.136597 44.0
1456.587158 208.0
1456.784668 168.0
1456.853027 116.0
1457.080933 168.0
1457.179688 144.0
1457.544434 288.0
1458.251221 248.0
1458.745361 200.0
1459.39917 132.0
1459.452393 68.0
1459.999878 140.0
1460.456299 144.0
1462.092163 76.0
1462.822876 144.0
1464.48877 224.0
1464.619995 176.0
1465.122803 164.0
1465.694336 68.0
1466.121094 68.0
1466.243042 176.0
1466.547852 96.0
1466.685059 128.0
1466.914062 188.0
1467.203491 168.0
1467.329102 172.0
1467.562622 188.0
1468.339722 128.0
1469.354248 60.0
1469.438232 160.0
1469.895996 184.0
1470.376831 128.0
1470.834717 260.0
1471.193604 172.0
1472.064087 132.0
1472.209106 220.0
1472.32373 188.0
1472.419434 100.0
1472.507935 164.0
1472.682617 224.0
1472.881226 136.0
1473.240356 184.0
1473.515381 68.0
1473.915894 224.0
1474.968384 220.0
1475.204346 148.0
1475.835815 144.0
1476.014893 132.0
1476.687866 160.0
1476.909668 180.0
1477.429932 188.0
1477.566895 200.0
1477.674683 272.0
1477.965454 280.0
1478.141479 132.0
1478.240967 136.0
1478.371094 156.0
1478.654297 220.0
1479.036987 124.0
1479.167114 148.0
1479.235962 156.0
1479.366089 156.0
1479.741333 192.0
1479.84082 156.0
1480.591309 192.0
1481.64502 160.0
1481.977905 216.0
1482.091309 108.0
1482.200073 172.0
1483.441772 144.0
1483.704834 160.0
1484.921631 224.0
1485.52002 132.0
1485.872925 184.0
1486.14917 144.0
1486.563477 160.0
1487.185181 136.0
1488.249146 164.0
1488.643921 144.0
1489.012573 160.0
1489.151489 200.0
1489.48877 112.0
1492.124878 168.0
1493.009155 180.0
1493.532227 72.0
1493.709106 200.0
1493.832153 132.0
1494.424561 64.0
1494.609253 132.0
1495.278809 48.0
1495.478882 172.0
1495.833008 160.0
1496.164062 40.0
1496.225708 132.0
1496.287231 148.0
1496.533691 200.0
1497.228027 160.0
1497.750488 260.0
1497.819824 128.0
1498.443848 204.0
1498.574829 104.0
1498.674927 124.0
1500.062256 140.0
1500.655884 152.0
1500.791382 100.0
1501.473389 156.0
1501.978638 136.0
1502.05957 156.0
1502.221558 156.0
1502.32959 136.0
1502.61499 148.0
1502.743896 148.0
1503.216919 156.0
1503.687744 148.0
1504.135376 252.0
1504.359253 152.0
1504.753174 152.0
