>compound MLS001075149-01!
>formula C25H28N4O2
>ionization [M+H]+
>parentmass 417.229
#inchi InChI=1S/C25H28N4O2/c1-16-5-6-21-19(9-16)20-14-28(8-7-22(20)26-21)25(31)15-27-11-17-10-18(13-27)23-3-2-4-24(30)29(23)12-17/h2-6,9,17-18,26H,7-8,10-15H2,1H3/t17-,18+/m1/s1
#inchikey FAHKQVDBQYDALV
#Ion_Source LC-ESI
#Instrument qTof
#Compound_Source NIH Natural Product Library
#PI Dorrestein
#Data_Collector VVP/LMS
#Scan -1
#Precursor_MZ 417.229
#ExactMass 416.221
#Charge 1
#CAS_Number N/A
#Pubmed_ID N/A
#Smiles Cc1ccc2[nH]c3CCN(Cc3c2c1)C(=O)CN4C[C@H]5C[C@@H](C4)c6cccc(=O)n6C5
#INCHI_AUX N/A
#Library_Class 1
#SpectrumID CCMSLIB00000079840
#IonMode Positive
#UpdateWorkflowName UPDATE-SINGLE-ANNOTATED-GOLD
#LibraryQualityString Gold
#TaskID b1d8e8f6646f4e71acdff9ca3d919d08
##Scan# 1629
#SpectrumFile p1-G11_GG11_01_17955.mzXML
#LibraryName NIH_Natural_Products_Library.mgf
#MQScore -1
#Organism NIH_Natural_Products_Library
#TIC_Query 0
#RT_Query -1
#MZErrorPPM -1
#SharedPeaks 0
#MassDiff 0
#LibMZ -1
#SpecMZ 417.229
#SpecCharge 0
#internalFilename spec-00000.mgf

>collision 10
95.003075 88.0
95.020538 140.0
95.070984 172.0
95.168045 168.0
95.253494 132.0
95.348701 144.0
95.508133 104.0
95.529526 120.0
95.605408 108.0
95.73584 264.0
95.874161 152.0
95.95993 172.0
96.149139 168.0
96.268227 164.0
96.291664 208.0
96.541817 164.0
96.715942 132.0
96.78054 124.0
96.972527 168.0
97.041138 184.0
97.057976 204.0
97.276558 128.0
97.362946 108.0
97.526016 164.0
97.596786 192.0
97.625961 48.0
97.919525 164.0
98.211227 116.0
98.336075 208.0
98.465836 176.0
98.523117 144.0
98.647614 164.0
98.736588 176.0
98.768234 204.0
98.922585 136.0
98.995842 148.0
99.053276 112.0
99.13649 108.0
99.178108 184.0
99.322861 136.0
99.479622 212.0
99.719963 84.0
99.809998 152.0
99.978508 136.0
100.039207 144.0
100.115875 200.0
100.17762 108.0
100.33107 176.0
100.732185 144.0
100.806107 152.0
100.874062 124.0
101.004036 112.0
101.070885 2408.0
101.166122 152.0
101.456604 132.0
101.712799 180.0
101.807739 168.0
102.064957 220.0
102.201729 196.0
102.294312 128.0
102.431923 272.0
102.491684 248.0
102.681175 164.0
102.761864 228.0
102.808273 108.0
102.901268 168.0
103.055275 384.0
103.279022 264.0
103.307335 168.0
103.335663 116.0
103.428749 188.0
103.76503 248.0
104.047035 160.0
104.065308 116.0
104.168884 204.0
104.183105 284.0
104.272507 88.0
104.349754 184.0
104.498222 200.0
104.673912 236.0
104.716042 152.0
104.862732 152.0
105.146225 144.0
105.168678 156.0
105.252785 100.0
105.481194 184.0
105.55275 160.0
105.577293 176.0
105.657066 96.0
106.140434 228.0
106.323006 168.0
106.35379 136.0
106.370216 220.0
106.431801 68.0
106.608459 180.0
106.740021 248.0
106.766754 196.0
106.822289 196.0
106.849037 176.0
107.001335 228.0
107.083702 136.0
107.126961 160.0
107.758247 164.0
108.078171 724.0
108.229828 228.0
108.422478 32.0
108.474297 128.0
108.519554 180.0
108.660942 136.0
109.057571 84.0
109.084595 164.0
109.367485 172.0
109.438271 116.0
109.509071 116.0
109.542397 84.0
109.80294 184.0
109.821709 132.0
109.892639 120.0
110.005333 140.0
110.074234 76.0
110.232994 152.0
110.61573 148.0
110.65551 108.0
110.888031 160.0
110.946716 144.0
110.999138 168.0
111.05291 224.0
111.074638 48.0
111.345398 156.0
111.559715 172.0
111.715332 160.0
111.850014 208.0
111.902641 136.0
111.976341 164.0
112.028999 80.0
112.058495 156.0
112.115387 204.0
112.277718 120.0
112.457054 136.0
112.754852 176.0
112.843933 140.0
112.926102 36.0
112.949371 280.0
113.010719 196.0
113.059387 208.0
113.237228 140.0
113.442764 160.0
113.492165 120.0
113.533936 208.0
113.553024 60.0
113.729126 184.0
113.833153 152.0
113.867134 184.0
114.062607 108.0
114.081512 148.0
114.219963 80.0
114.279526 56.0
114.296555 140.0
114.424255 188.0
114.44342 132.0
114.468971 148.0
114.500916 216.0
114.558426 140.0
114.596771 340.0
114.647911 144.0
114.669228 108.0
114.688408 128.0
114.761452 200.0
114.944328 212.0
115.053268 344.0
115.266762 56.0
115.474129 192.0
115.790886 84.0
115.848717 172.0
115.957367 164.0
116.024452 196.0
116.048744 36.0
116.073761 48.0
116.112366 200.0
116.163841 40.0
116.230347 160.0
116.283997 116.0
116.299026 96.0
116.326927 136.0
116.464355 204.0
116.61261 156.0
116.760956 208.0
116.791069 204.0
116.918007 32.0
117.056778 372.0
117.101006 160.0
117.700523 164.0
117.862526 112.0
118.061699 172.0
118.258278 164.0
118.355698 208.0
118.437988 204.0
118.58316 180.0
118.617836 92.0
118.667702 104.0
118.760948 108.0
118.797432 132.0
118.984459 172.0
119.017029 64.0
119.060463 156.0
119.188629 160.0
119.366867 152.0
119.421242 164.0
119.54525 172.0
120.146614 72.0
120.220802 96.0
120.295013 232.0
120.546181 52.0
120.71888 260.0
120.8545 152.0
121.033981 104.0
121.079971 208.0
121.117203 128.0
121.145676 180.0
121.163208 236.0
121.190445 200.0
121.222366 204.0
121.465729 224.0
121.513992 264.0
121.595177 112.0
121.75325 132.0
121.799377 128.0
121.847282 104.0
121.986153 136.0
122.059174 344.0
122.24128 172.0
122.342529 192.0
122.430603 128.0
122.463638 84.0
122.479057 180.0
122.613708 176.0
122.829536 220.0
122.856003 176.0
122.880272 156.0
122.988403 132.0
123.01931 128.0
123.059052 160.0
123.085541 192.0
123.129707 124.0
123.44352 220.0
123.684677 148.0
123.704597 156.0
123.802017 80.0
124.049637 184.0
124.189865 164.0
124.251976 100.0
124.747208 136.0
124.822807 180.0
124.893974 184.0
125.031914 128.0
125.066719 316.0
125.101845 212.0
125.176613 180.0
125.212456 168.0
125.299118 144.0
125.504173 184.0
125.671455 212.0
125.820992 172.0
125.836617 184.0
125.925941 220.0
125.968384 76.0
126.001892 172.0
126.0354 36.0
126.191864 120.0
126.241058 144.0
126.33947 268.0
126.467018 188.0
126.619263 148.0
126.686462 200.0
126.92852 140.0
126.9487 176.0
126.998039 248.0
127.054703 124.0
127.128166 196.0
127.213455 148.0
127.280807 104.0
127.332458 136.0
127.42231 144.0
127.49646 60.0
127.617851 132.0
127.660576 88.0
127.96209 208.0
127.993614 164.0
128.060806 3200.0
128.22113 112.0
128.315811 156.0
128.403748 176.0
128.483994 132.0
128.909439 148.0
128.941086 196.0
129.065292 824.0
129.253159 152.0
129.357269 196.0
129.4189 204.0
129.465256 132.0
129.49765 148.0
129.556549 172.0
129.84668 424.0
129.907928 116.0
129.966919 192.0
130.06485 364.0
130.157578 116.0
130.271133 132.0
130.312027 100.0
130.346115 148.0
130.46965 264.0
130.97403 120.0
131.069016 260.0
131.085281 188.0
131.277145 52.0
131.329605 132.0
131.468781 272.0
131.516556 124.0
131.690231 76.0
131.717636 120.0
131.815887 132.0
131.889023 96.0
131.98732 228.0
132.044861 360.0
132.078751 468.0
132.11998 144.0
132.197769 60.0
132.266434 48.0
132.300766 148.0
132.371475 168.0
132.465851 176.0
132.591675 236.0
132.637512 160.0
132.697113 240.0
132.836746 144.0
132.91272 128.0
132.9655 80.0
133.022873 44.0
133.05304 252.0
133.080276 340.0
133.27092 136.0
133.377563 156.0
133.475479 96.0
133.569778 128.0
133.733139 208.0
133.760773 108.0
133.857468 264.0
133.873581 160.0
133.972626 88.0
134.002579 80.0
134.060364 304.0
134.177734 192.0
134.193878 188.0
134.325317 68.0
134.373764 160.0
134.503006 176.0
134.539932 208.0
134.694656 60.0
134.843674 132.0
135.011307 148.0
135.061279 188.0
135.092255 136.0
135.239487 192.0
135.261185 56.0
135.282013 148.0
135.648026 140.0
135.991318 124.0
136.332718 112.0
136.470047 148.0
136.602432 96.0
136.69516 144.0
136.728073 144.0
136.781601 128.0
136.928284 108.0
136.99118 124.0
137.070389 144.0
137.103027 164.0
137.154297 244.0
137.200912 72.0
137.28952 168.0
137.336166 204.0
137.50882 148.0
137.539169 100.0
137.723633 180.0
137.77034 116.0
137.868484 188.0
138.074203 184.0
138.32457 164.0
138.413528 164.0
138.476761 72.0
138.521271 236.0
138.577499 52.0
138.722656 132.0
138.748581 168.0
138.931503 144.0
139.001328 200.0
139.150589 172.0
139.330612 144.0
139.430328 208.0
139.523315 188.0
139.63562 200.0
139.7491 52.0
139.824402 72.0
140.015106 196.0
140.04924 164.0
140.158798 140.0
140.260132 80.0
140.382736 52.0
140.425751 220.0
140.472366 148.0
140.495956 156.0
140.517181 148.0
140.819336 128.0
141.005051 252.0
141.069199 288.0
141.09581 132.0
141.334686 48.0
141.353622 196.0
141.377289 132.0
141.521683 156.0
141.666153 80.0
141.727753 140.0
141.777512 200.0
141.841507 180.0
141.905518 120.0
142.067429 656.0
142.320724 88.0
142.546387 36.0
142.586792 92.0
142.700897 32.0
142.851715 200.0
142.924469 208.0
143.084351 4348.0
143.148224 120.0
143.233963 244.0
143.291824 220.0
143.446045 52.0
143.534256 56.0
143.610565 68.0
143.698837 64.0
143.737015 52.0
143.808487 160.0
143.916031 216.0
143.959015 72.0
144.001434 120.0
144.008118 92.0
144.047379 160.0
144.080917 944.0
144.150116 72.0
144.238541 188.0
144.338959 120.0
144.389175 112.0
144.537491 136.0
144.628433 192.0
144.697861 72.0
144.75293 176.0
144.779266 228.0
144.882263 188.0
145.021255 164.0
145.048355 348.0
145.088196 508.0
145.141113 48.0
145.201065 196.0
145.292221 204.0
145.311417 204.0
145.429001 232.0
145.498611 120.0
145.523331 204.0
145.553833 200.0
145.858948 164.0
145.952713 152.0
145.972549 128.0
146.059479 1640.0
146.097443 884.0
146.164383 104.0
146.235031 156.0
146.344543 132.0
146.388245 232.0
146.47496 112.0
146.547226 224.0
146.57132 128.0
146.609879 168.0
146.730942 36.0
146.761749 180.0
147.066055 200.0
147.222641 220.0
147.290268 128.0
147.32457 176.0
147.35791 176.0
147.432816 128.0
147.597198 124.0
147.686676 132.0
147.87056 104.0
148.073975 772.0
148.26532 128.0
148.614502 140.0
148.701309 224.0
148.749588 152.0
148.798965 192.0
148.864899 132.0
149.007828 104.0
149.071014 40.0
149.554977 148.0
149.576889 216.0
149.781433 176.0
150.0495 192.0
150.093384 180.0
150.195816 168.0
150.530167 132.0
150.720703 100.0
150.948029 160.0
151.086975 308.0
151.126587 176.0
151.17308 72.0
151.312607 136.0
151.332184 180.0
151.814911 64.0
152.060104 148.0
152.089691 112.0
152.254196 152.0
152.428375 164.0
152.649841 40.0
152.716248 160.0
152.73761 216.0
152.855896 116.0
152.895859 64.0
152.922928 256.0
153.064697 160.0
153.100647 172.0
153.135147 164.0
153.172775 112.0
153.358871 176.0
153.435287 168.0
153.462418 156.0
153.627655 120.0
153.731277 148.0
153.844818 128.0
153.918884 88.0
153.941116 108.0
154.064148 5536.0
154.160965 172.0
154.190628 208.0
154.220291 172.0
154.346375 128.0
154.41066 28.0
154.509613 140.0
154.759583 148.0
154.810577 108.0
155.029922 148.0
155.071564 11304.0
155.121292 160.0
155.141113 44.0
155.159866 64.0
155.183273 60.0
155.225418 44.0
155.304779 172.0
155.344467 56.0
155.361832 52.0
155.407379 112.0
155.463562 84.0
155.533951 176.0
155.669601 64.0
155.707443 152.0
155.731689 124.0
155.875778 124.0
155.972717 72.0
156.020584 172.0
156.074081 2212.0
156.110428 132.0
156.281082 68.0
156.309113 156.0
156.609695 168.0
156.669479 164.0
156.931168 112.0
157.010956 200.0
157.060135 212.0
157.086365 1276.0
157.148163 128.0
157.165619 100.0
157.22052 32.0
157.265442 184.0
157.297897 104.0
157.330276 128.0
157.632614 224.0
157.673355 148.0
157.732544 44.0
157.83754 152.0
157.930069 180.0
157.960083 80.0
157.98761 128.0
158.025131 140.0
158.059494 644.0
158.094727 1684.0
158.127731 164.0
158.252899 108.0
158.310486 176.0
158.343048 80.0
158.701385 84.0
158.794174 44.0
158.836807 188.0
158.881973 248.0
158.924622 160.0
158.952225 108.0
159.052612 124.0
159.094315 340.0
159.645538 60.0
159.876984 132.0
159.897125 68.0
159.976135 144.0
160.025497 232.0
160.074585 8808.0
160.104889 440.0
160.126236 200.0
160.244629 176.0
160.277374 60.0
160.436157 60.0
160.598557 172.0
160.663132 168.0
160.685837 164.0
160.718643 92.0
160.809479 164.0
160.827148 172.0
160.878006 192.0
160.964676 212.0
161.008942 156.0
161.026611 56.0
161.075424 1396.0
161.113373 184.0
161.147873 124.0
161.216095 180.0
161.236313 60.0
161.264114 196.0
161.281799 80.0
161.448669 92.0
161.752289 148.0
161.845657 148.0
161.970047 204.0
162.084152 464.0
162.119537 152.0
162.266556 76.0
162.350235 108.0
162.713196 176.0
162.786713 120.0
162.880676 156.0
163.048676 104.0
163.089035 148.0
163.111923 56.0
163.231415 48.0
163.551971 176.0
163.595245 136.0
163.661438 120.0
163.727646 200.0
163.791321 180.0
163.821381 100.0
164.00853 148.0
164.074707 156.0
164.631744 148.0
164.673843 108.0
164.74025 156.0
164.765808 152.0
164.847565 108.0
165.131332 172.0
165.522888 144.0
165.594589 216.0
165.732925 180.0
166.063629 192.0
166.09697 48.0
166.171356 140.0
166.232941 132.0
166.376678 140.0
166.394653 140.0
166.428024 184.0
166.592392 244.0
166.843018 244.0
166.98053 136.0
167.066757 144.0
167.143417 204.0
167.466965 156.0
167.526215 116.0
167.593201 136.0
167.760727 268.0
167.80455 128.0
167.832184 192.0
168.078369 964.0
168.129562 216.0
168.147629 52.0
168.181183 156.0
168.408401 112.0
168.434235 180.0
168.591827 208.0
168.733994 192.0
168.753448 160.0
168.922791 200.0
169.08606 872.0
169.153091 100.0
169.435364 152.0
169.510498 228.0
169.536407 168.0
169.699722 168.0
169.741211 152.0
169.771118 224.0
169.83197 140.0
169.881256 140.0
169.927795 64.0
169.961685 132.0
170.008835 120.0
170.095734 58380.0
170.163589 132.0
170.169327 64.0
170.224564 44.0
170.232849 52.0
170.273193 140.0
170.35553 120.0
170.389954 72.0
170.4151 136.0
170.457016 100.0
170.474014 148.0
170.517426 52.0
170.558868 76.0
170.576523 168.0
170.639587 64.0
170.6604 52.0
170.683792 40.0
170.780014 84.0
170.858063 56.0
170.896622 96.0
170.955307 92.0
170.977753 192.0
170.998566 108.0
171.066101 148.0
171.098602 7048.0
171.225082 76.0
171.261536 164.0
171.372406 36.0
171.412643 76.0
171.443909 48.0
171.615952 140.0
171.681152 92.0
171.733307 60.0
171.761124 144.0
171.824615 52.0
171.923767 36.0
171.990982 164.0
172.037659 176.0
172.074966 1152.0
172.110321 7884.0
172.162628 388.0
172.255356 96.0
172.277374 148.0
172.299454 68.0
172.331116 52.0
172.35463 100.0
172.380768 112.0
172.422577 216.0
172.468216 148.0
172.500992 56.0
172.559906 172.0
172.633636 120.0
172.741562 220.0
172.864532 112.0
172.938263 184.0
172.966599 60.0
173.00325 140.0
173.07489 288.0
173.114075 760.0
173.164948 48.0
173.207504 32.0
173.259903 48.0
173.296585 128.0
173.380432 60.0
173.420593 112.0
173.46431 136.0
173.582291 172.0
173.619003 72.0
173.639984 40.0
173.681946 112.0
173.741547 100.0
173.79213 76.0
173.844604 36.0
173.973221 124.0
174.095139 336.0
174.124603 660.0
174.279099 180.0
174.309402 60.0
174.390884 124.0
174.4487 160.0
174.480255 152.0
174.551239 80.0
174.664337 56.0
174.885361 68.0
175.084305 284.0
175.12233 124.0
175.227692 96.0
175.472549 164.0
175.802521 156.0
176.03746 108.0
176.071793 260.0
176.259354 112.0
176.624191 124.0
177.439835 52.0
177.795273 168.0
177.927994 48.0
178.127167 152.0
178.204208 152.0
178.496582 48.0
178.733322 100.0
178.850418 148.0
178.895676 136.0
179.044785 156.0
179.114029 208.0
179.51915 120.0
179.596481 160.0
179.768066 128.0
179.906021 72.0
179.940735 196.0
180.069702 208.0
180.582062 76.0
180.622177 148.0
180.967407 28.0
181.010254 60.0
181.256683 172.0
181.334412 48.0
181.546204 164.0
181.666901 188.0
181.739334 40.0
181.892303 112.0
182.094559 252.0
182.355652 188.0
182.502151 104.0
182.607025 192.0
182.75499 32.0
182.991837 140.0
183.095459 168.0
183.32045 200.0
183.533401 128.0
183.652069 120.0
183.719498 168.0
183.908386 48.0
184.043365 56.0
184.072952 376.0
184.107101 672.0
184.437805 104.0
184.924652 152.0
185.105392 440.0
185.260422 36.0
185.341705 148.0
185.867737 28.0
186.086502 308.0
186.110672 176.0
186.124619 120.0
186.198929 44.0
187.041809 72.0
187.086899 176.0
187.118225 220.0
187.39856 56.0
187.570251 68.0
187.856567 220.0
188.084381 132.0
188.119995 140.0
188.173141 124.0
188.80983 96.0
189.066986 224.0
189.099655 428.0
189.129944 188.0
189.359924 180.0
189.746307 192.0
189.836792 40.0
190.0233 108.0
190.042511 28.0
190.402115 112.0
190.599899 144.0
191.116821 1176.0
191.160858 152.0
191.551819 184.0
191.595901 192.0
192.009369 56.0
192.122452 108.0
192.169357 236.0
192.340454 164.0
192.785126 148.0
193.077454 188.0
193.401871 116.0
193.800659 148.0
193.955856 240.0
194.077713 364.0
194.735519 64.0
195.02449 168.0
195.098038 200.0
195.135681 120.0
195.650375 152.0
195.67543 40.0
195.869675 224.0
195.895432 188.0
195.949051 148.0
196.043106 160.0
196.090485 156.0
196.293747 228.0
196.391602 176.0
196.584106 100.0
196.720871 96.0
196.991745 240.0
197.069458 544.0
197.110001 200.0
197.41098 244.0
197.931473 240.0
197.967865 152.0
198.004272 180.0
198.088486 328.0
198.121918 68.0
198.270432 140.0
198.447021 120.0
199.005371 156.0
199.086487 280.0
199.120667 636.0
199.511078 108.0
199.769806 148.0
199.896408 160.0
200.123489 600.0
200.15538 152.0
200.28775 44.0
200.360992 212.0
200.43425 136.0
200.744324 64.0
200.992554 148.0
201.099396 600.0
201.143326 132.0
201.401917 96.0
201.49231 160.0
201.871063 168.0
201.964386 56.0
202.023788 128.0
202.060577 96.0
202.10347 344.0
202.221863 256.0
202.278473 48.0
202.309616 164.0
202.34642 76.0
202.57782 192.0
202.660812 160.0
202.745819 60.0
202.765656 108.0
202.865448 212.0
202.9832 168.0
202.99025 124.0
203.025497 268.0
203.065598 268.0
203.117142 65300.0
203.18248 236.0
203.216248 40.0
203.25058 204.0
203.291687 120.0
203.327469 124.0
203.376007 108.0
203.41629 92.0
203.446411 60.0
203.488052 76.0
203.554306 44.0
203.581131 64.0
203.599747 132.0
203.641556 232.0
203.696304 144.0
203.742401 72.0
203.77301 92.0
203.798584 92.0
203.943512 88.0
203.972977 132.0
204.058517 44.0
204.119217 6424.0
204.164825 304.0
204.193726 92.0
204.226715 72.0
204.26535 116.0
204.298965 304.0
204.36145 104.0
204.418472 156.0
204.437363 56.0
204.560272 68.0
204.606323 36.0
204.708817 44.0
204.774323 80.0
204.805649 64.0
204.825592 64.0
204.976593 40.0
205.033585 132.0
205.093307 88.0
205.121857 744.0
205.176102 64.0
205.202148 304.0
205.235977 52.0
205.287186 88.0
205.330093 124.0
205.380447 108.0
205.412796 124.0
205.45845 140.0
205.532425 128.0
205.569717 136.0
205.594437 164.0
205.60408 108.0
205.61235 64.0
205.655334 52.0
205.775238 68.0
205.84227 92.0
205.946579 92.0
206.060837 152.0
206.083694 132.0
206.123703 160.0
206.303757 48.0
206.335205 112.0
206.384674 120.0
206.692734 116.0
206.727081 96.0
206.812927 92.0
206.915985 40.0
207.09639 224.0
207.592209 76.0
208.025436 132.0
208.390167 124.0
208.424652 272.0
208.467758 228.0
208.689087 56.0
208.798355 88.0
209.06015 128.0
209.106125 6688.0
209.238617 36.0
209.284683 48.0
209.396988 76.0
209.425797 60.0
209.55542 108.0
209.615936 36.0
209.935913 112.0
210.107391 1304.0
210.224396 72.0
210.403351 40.0
210.562164 76.0
210.657486 44.0
211.08812 100.0
211.174881 76.0
211.284805 76.0
211.481583 108.0
211.875397 48.0
212.09137 992.0
212.693161 188.0
213.098343 608.0
213.265381 48.0
213.602676 184.0
214.062515 76.0
214.100891 136.0
214.400436 52.0
214.473312 172.0
214.519943 64.0
214.668182 76.0
214.735718 80.0
215.145981 80.0
216.225754 120.0
216.500946 80.0
216.527298 32.0
217.016678 44.0
217.089981 76.0
217.412674 196.0
217.538879 60.0
217.991196 104.0
218.352798 116.0
218.638168 208.0
219.119736 96.0
220.091446 172.0
220.138351 208.0
220.247971 148.0
220.463654 64.0
221.626572 124.0
222.237381 136.0
222.825241 72.0
222.950043 80.0
223.030289 92.0
224.504044 92.0
225.106842 180.0
226.069427 144.0
226.093369 140.0
227.016052 160.0
227.114624 2484.0
227.232986 136.0
227.883545 44.0
228.015762 144.0
228.116821 324.0
228.433701 44.0
229.099792 1644.0
229.130768 148.0
229.493805 132.0
229.750153 132.0
230.117859 552.0
230.124313 248.0
230.356934 44.0
231.118134 304.0
231.75769 100.0
233.123184 188.0
234.489639 244.0
235.826462 104.0
236.667725 108.0
237.665939 144.0
238.102859 176.0
239.083572 164.0
239.222076 120.0
240.163803 408.0
241.146851 164.0
242.155472 252.0
243.076218 32.0
243.349365 72.0
243.980042 140.0
244.110138 148.0
244.144836 96.0
244.462158 124.0
244.807693 112.0
244.994583 116.0
245.109863 156.0
246.122375 1864.0
246.345352 64.0
246.454712 160.0
246.789154 60.0
246.826675 48.0
247.02684 108.0
247.123917 140.0
247.292801 40.0
247.356903 48.0
247.377319 92.0
247.62468 168.0
247.941116 64.0
247.979156 172.0
248.031998 40.0
248.063354 60.0
248.138168 19392.0
248.176697 140.0
248.204437 152.0
248.248337 60.0
248.283524 36.0
248.365417 60.0
248.438995 100.0
248.464294 340.0
248.524368 52.0
248.595016 164.0
248.640472 68.0
248.684418 100.0
248.737778 56.0
248.762894 120.0
248.828064 84.0
248.897888 160.0
248.949707 88.0
249.042358 52.0
249.083191 72.0
249.140137 3444.0
249.199417 56.0
249.227707 32.0
249.292038 84.0
249.328262 56.0
249.398544 44.0
249.652069 96.0
249.708679 80.0
249.75177 80.0
249.796738 52.0
249.818771 200.0
250.026428 44.0
250.048462 60.0
250.141479 752.0
250.224747 52.0
250.252274 140.0
250.410522 120.0
250.533127 52.0
250.583786 76.0
250.725586 96.0
250.77916 76.0
250.876877 84.0
250.99353 104.0
251.097595 148.0
251.204849 68.0
251.356277 156.0
251.473053 64.0
251.574051 120.0
251.652985 40.0
252.149933 112.0
252.328888 56.0
256.497345 172.0
256.675873 84.0
258.130096 316.0
258.160065 236.0
258.944855 148.0
259.119202 228.0
260.07666 132.0
260.134827 516.0
260.166534 144.0
260.770416 92.0
260.8797 148.0
261.140167 164.0
261.259186 80.0
261.729065 68.0
262.354126 84.0
262.715302 132.0
264.761322 72.0
266.10379 136.0
269.295074 80.0
269.827728 84.0
270.154449 264.0
271.182953 136.0
271.589508 116.0
272.139313 128.0
272.173676 132.0
274.155701 164.0
274.272614 172.0
274.361603 52.0
275.358124 80.0
275.74469 112.0
276.187744 64.0
277.704712 200.0
279.056274 196.0
280.081268 140.0
282.166962 144.0
282.514771 116.0
284.884857 124.0
286.092163 144.0
293.440613 160.0
294.095581 88.0
294.819611 248.0
294.918732 156.0
295.478546 96.0
296.164185 132.0
298.112915 72.0
300.068024 132.0
301.842743 120.0
302.223236 96.0
303.397339 88.0
304.089447 144.0
305.501862 188.0
307.540344 100.0
307.763763 112.0
311.697357 120.0
314.910248 116.0
316.080414 112.0
317.578979 68.0
318.498291 112.0
319.386902 92.0
319.813873 100.0
321.235626 64.0
322.742767 172.0
322.935883 112.0
323.386688 136.0
323.458282 56.0
324.088593 88.0
328.052734 116.0
328.575653 96.0
330.577393 236.0
335.214691 84.0
338.055725 184.0
341.761871 108.0
343.165192 140.0
344.172455 144.0
352.336212 100.0
356.168427 204.0
356.360016 76.0
356.829254 156.0
360.191345 80.0
360.455811 36.0
361.219513 116.0
361.836365 76.0
362.283264 48.0
368.702301 88.0
370.945221 84.0
371.750671 52.0
372.207092 112.0
383.621185 172.0
386.941864 88.0
392.844696 52.0
394.048798 188.0
394.321472 128.0
394.606079 148.0
397.295197 72.0
399.086395 68.0
399.12616 140.0
399.21405 3756.0
399.321014 56.0
400.220886 1264.0
400.271423 92.0
400.367706 140.0
401.005157 100.0
401.217438 140.0
402.126678 132.0
402.64093 112.0
403.317017 224.0
404.087952 40.0
405.441406 92.0
411.818329 172.0
411.882965 100.0
413.797974 124.0
413.840302 104.0
414.460022 128.0
416.862244 96.0
416.955688 104.0
417.224304 4328.0
417.411011 44.0
417.439453 52.0
417.618408 56.0
417.756714 72.0
417.93573 44.0
418.037445 108.0
418.18396 108.0
418.230865 1868.0
418.363068 52.0
419.002441 84.0
419.232025 316.0
419.642334 112.0
420.229095 116.0
420.756134 44.0
420.837799 108.0
421.168579 44.0
421.74469 76.0
422.30896 56.0
422.480743 52.0
426.326782 76.0
428.033936 72.0
435.270325 84.0
437.219971 100.0
439.211548 152.0
455.914398 100.0
462.670837 108.0
469.028564 64.0
487.478424 64.0
488.63623 64.0
495.132507 124.0
497.367126 44.0
498.761841 44.0
505.617126 112.0
506.396149 64.0
507.229553 92.0
508.301453 132.0
523.964172 76.0
569.325317 112.0
571.683289 48.0
572.46875 40.0
577.766846 56.0
587.939087 104.0
587.982544 60.0
592.513367 120.0
598.044373 72.0
610.500671 112.0
614.909973 80.0
629.785461 56.0
631.869995 52.0
638.757812 52.0
657.581848 96.0
663.295166 112.0
675.638977 100.0
678.756958 84.0
684.899841 80.0
686.322571 92.0
686.416443 176.0
695.231018 76.0
707.655334 88.0
724.088745 92.0
797.138794 68.0
797.818909 192.0
799.129272 84.0
803.236206 56.0
841.329895 68.0
843.889282 36.0
904.630188 112.0
913.643921 108.0
920.364075 84.0
921.982971 160.0
923.373474 96.0
934.833435 164.0
938.591858 88.0
941.808044 40.0
945.868164 28.0
960.227478 112.0
963.702881 60.0
965.248169 164.0
965.959412 36.0
966.683289 196.0
971.906982 92.0
992.265198 148.0
1006.111023 72.0
1009.328308 48.0
1011.93512 72.0
1014.938416 64.0
1016.536926 136.0
1018.143066 144.0
1020.405151 44.0
1047.012085 188.0
1048.493896 176.0
1068.984009 120.0
1085.347168 188.0
1085.524292 248.0
1087.43335 100.0
1087.715576 176.0
1094.125 176.0
1096.806152 152.0
1097.603882 116.0
1108.384888 80.0
1127.223022 104.0
1132.414429 144.0
1141.622314 144.0
1141.891357 164.0
1142.967651 168.0
1143.398315 180.0
1146.26709 204.0
1146.408691 128.0
1147.473633 48.0
1149.301514 212.0
1150.840454 168.0
1158.238892 200.0
1159.417725 160.0
1165.124268 204.0
1168.040649 200.0
1168.190186 156.0
1170.136597 192.0
1175.371216 224.0
1177.330444 188.0
1180.323486 136.0
1180.692749 124.0
1181.855713 204.0
1182.314087 212.0
1194.437744 172.0
1197.252808 192.0
1197.307861 56.0
1197.493774 108.0
1206.34668 116.0
1207.024292 224.0
1207.321655 208.0
1210.733398 152.0
1214.21936 84.0
1215.07959 144.0
1215.508667 136.0
1215.703979 164.0
1217.870117 136.0
1221.860229 160.0
1226.330811 84.0
1227.453247 120.0
1228.625 236.0
1229.594849 144.0
1229.874146 252.0
1230.467407 192.0
1235.54834 212.0
1237.788086 160.0
1238.390381 156.0
1240.205078 48.0
1242.27356 204.0
1242.448975 164.0
1245.755493 112.0
1249.959839 192.0
1259.717651 128.0
1260.14856 136.0
1262.55188 40.0
1267.896973 96.0
1270.811401 108.0
1271.081055 248.0
1271.485596 64.0
1272.039185 116.0
1273.530273 40.0
1274.36145 120.0
1275.818359 152.0
1276.550781 168.0
1279.332764 116.0
1280.637695 148.0
1282.074951 116.0
1282.495483 232.0
1284.456299 160.0
1287.811035 204.0
1288.075317 168.0
1289.454346 112.0
1292.658203 204.0
1292.729736 188.0
1294.641113 112.0
1295.629639 176.0
1296.869263 176.0
1299.020386 172.0
1300.570312 144.0
1300.907715 204.0
1302.078125 128.0
1307.664429 140.0
1308.341064 100.0
1311.179077 160.0
1314.539673 164.0
1315.463501 156.0
1317.868408 144.0
1323.387085 176.0
1325.132568 168.0
1332.823608 168.0
1333.884644 136.0
1334.393555 160.0
1335.317139 200.0
1335.535278 184.0
1335.622559 204.0
1341.499023 136.0
1344.460327 172.0
1345.27771 132.0
1350.597412 188.0
1350.838867 176.0
1351.13147 172.0
1353.334473 144.0
1353.978882 148.0
1355.656494 140.0
1355.890991 124.0
1360.409302 156.0
1361.95874 132.0
1362.979858 56.0
1364.435181 176.0
1364.993896 176.0
1365.508667 144.0
1365.913208 156.0
1366.222168 192.0
1369.645264 36.0
1369.991455 172.0
1372.674316 52.0
1375.906006 280.0
1376.828979 156.0
1377.02832 88.0
1378.986328 152.0
1379.84375 192.0
1384.972046 136.0
1387.143188 156.0
1387.365479 156.0
1389.196289 132.0
1391.327148 188.0
1393.235718 108.0
1393.844971 48.0
1394.498901 140.0
1395.62146 180.0
1396.238647 152.0
1396.335327 72.0
1396.863403 168.0
1399.081055 132.0
1402.084106 116.0
1403.163696 172.0
1407.326904 192.0
1408.20813 176.0
1408.462036 132.0
1409.709717 60.0
1409.93396 128.0
1413.433594 132.0
1414.795776 160.0
1416.473267 48.0
1416.59314 152.0
1417.776978 272.0
1419.298706 140.0
1419.388672 112.0
1420.011108 128.0
1420.251099 124.0
1420.446533 160.0
1421.233887 148.0
1421.571533 148.0
1422.434692 80.0
1423.598389 56.0
1424.041504 168.0
1424.589844 168.0
1425.281006 196.0
1425.611694 40.0
1425.882202 120.0
1425.987427 104.0
1426.716553 252.0
1428.408569 152.0
1430.229492 132.0
1431.878418 184.0
1435.571167 136.0
1437.034546 168.0
1437.472168 176.0
1438.468384 40.0
1441.104126 152.0
1442.668457 248.0
1443.12207 152.0
1445.156738 172.0
1446.503784 188.0
1447.753052 204.0
1449.813721 208.0
1451.481445 140.0
1455.989014 152.0
1457.082886 160.0
1457.531128 120.0
1458.435547 220.0
1458.830811 212.0
1461.226318 168.0
1462.070923 208.0
1462.839722 80.0
1464.057983 200.0
1468.1427 216.0
1468.539307 228.0
1469.595459 248.0
1474.081787 140.0
1475.511108 144.0
1479.091309 244.0
1480.53833 20.0
1480.722168 128.0
1482.046875 204.0
1482.683472 176.0
1483.334961 152.0
1484.362305 192.0
1484.653687 168.0
1487.170166 160.0
1488.513672 180.0
1490.856689 224.0
1491.271606 200.0
1492.686157 432.0
1495.093994 188.0
1496.710571 200.0
1497.097534 260.0
1498.674683 140.0
1499.221802 124.0
1499.74585 148.0
1500.928345 160.0
1501.418945 48.0
1501.526978 164.0
1502.12085 156.0
1503.370728 132.0
1503.733521 132.0
