>compound Mizolastine (Mizollen)
>formula C24H25FN6O
>ionization [M+Na]+
>parentmass 455.194916
#inchi InChI=1S/C24H25FN6O/c1-29(23-26-13-10-22(32)28-23)19-11-14-30(15-12-19)24-27-20-4-2-3-5-21(20)31(24)16-17-6-8-18(25)9-7-17/h2-10,13,19H,11-12,14-16H2,1H3,(H,26,28,32)
#inchikey PVLJETXTTWAYEW
#Ion_Source LC-ESI
#Instrument qTof
#Compound_Source Commercial
#PI Dorrestein
#Data_Collector Garg_Neha
#Scan -1
#Precursor_MZ 455.197
#ExactMass 432.207
#Charge 1
#CAS_Number 108612-45-9,1056596-82-7 (2HCl)
#Pubmed_ID N/A
#Smiles C1(NC(C=CN=1)=O)N(C)C2CCN(CC2)C3=NC4C(N3CC5C=CC(=CC=5)F)=CC=CC=4
#INCHI_AUX N/A
#Library_Class 1
#SpectrumID CCMSLIB00000078436
#IonMode Positive
#UpdateWorkflowName UPDATE-SINGLE-ANNOTATED-GOLD
#LibraryQualityString Gold
#TaskID 77f51c88eb8b467eb4a01dd2d0cb90d2
##Scan# 1045
#SpectrumFile Plate7_1_20_GD2_01_15767.mzXML
#LibraryName FDALibrary_2_04302014.mgf
#MQScore -1
#Organism FDALibrary_2_04302014
#TIC_Query 0
#RT_Query -1
#MZErrorPPM -1
#SharedPeaks 0
#MassDiff 0
#LibMZ -1
#SpecMZ 455.197
#SpecCharge 0
#internalFilename spec-00000.mgf

>collision 10
145.036774 172.0
148.050919 236.0
158.712524 148.0
169.069366 144.0
184.080505 336.0
186.059814 176.0
200.081772 164.0
201.121979 156.0
206.069092 180.0
208.229034 152.0
213.077408 124.0
214.082718 152.0
257.101654 720.0
325.177002 140.0
365.813751 152.0
366.114563 856.0
367.108398 112.0
367.830322 176.0
368.116669 156.0
376.029175 188.0
384.835968 132.0
391.039215 208.0
410.574768 204.0
411.176483 784.0
412.164948 216.0
413.164917 404.0
427.881378 216.0
431.053253 152.0
438.811157 140.0
454.186615 144.0
455.194916 7376.0
455.287689 196.0
456.054901 160.0
456.197906 2512.0
456.285706 136.0
456.77774 276.0
457.193878 460.0
458.201782 96.0
