>compound MLS001158024-01!2-[2-(4,7-dimethyl-2-oxochromen-5-yl)oxypropanoylamino]-3-(5-hydroxy-1H-indol-3-yl)propanoic acid
>formula C25H24N2O7
>ionization [M+H]+
>parentmass 465.166
#inchi InChI=1S/C25H24N2O7/c1-12-6-20(23-13(2)8-22(29)34-21(23)7-12)33-14(3)24(30)27-19(25(31)32)9-15-11-26-18-5-4-16(28)10-17(15)18/h4-8,10-11,14,19,26,28H,9H2,1-3H3,(H,27,30)(H,31,32)
#inchikey RECFGSCXLBEPBT
#Ion_Source LC-ESI
#Instrument qTof
#Compound_Source NIH Natural Product Library
#PI Dorrestein
#Data_Collector VVP/LMS
#Scan -1
#Precursor_MZ 465.166
#ExactMass 464.158
#Charge 1
#CAS_Number N/A
#Pubmed_ID N/A
#Smiles CC(Oc1cc(C)cc2oc(=O)cc(C)c12)C(=O)NC(Cc3c[nH]c4ccc(O)cc34)C(=O)O
#INCHI_AUX N/A
#Library_Class 3
#SpectrumID CCMSLIB00000079716
#IonMode Positive
#UpdateWorkflowName UPDATE-SINGLE-ANNOTATED-BRONZE
#LibraryQualityString Bronze
#TaskID b1d8e8f6646f4e71acdff9ca3d919d08
##Scan# 1785
#SpectrumFile p1-B10_GB10_01_17894.mzXML
#LibraryName NIH_Natural_Products_Library.mgf
#MQScore -1
#Organism NIH_Natural_Products_Library
#TIC_Query 0
#RT_Query -1
#MZErrorPPM -1
#SharedPeaks 0
#MassDiff 0
#LibMZ -1
#SpecMZ 465.166
#SpecCharge 0
#internalFilename spec-00000.mgf

>collision 10
95.190903 180.0
99.167656 100.0
100.324516 168.0
101.28968 136.0
102.567635 160.0
102.920677 268.0
103.049942 140.0
105.07003 120.0
105.486626 100.0
106.644722 156.0
107.050003 120.0
107.087074 136.0
109.023521 204.0
109.073402 180.0
109.547836 196.0
109.66452 188.0
111.483192 148.0
111.672401 160.0
111.771271 172.0
114.182869 68.0
114.227898 188.0
115.054359 136.0
115.188889 156.0
115.560867 136.0
117.069794 176.0
118.062523 168.0
118.123085 236.0
118.506264 208.0
119.068077 108.0
120.080086 176.0
120.973747 128.0
123.524162 64.0
123.880554 128.0
128.06662 280.0
129.073853 184.0
130.064865 152.0
131.048004 48.0
132.056793 80.0
132.078049 148.0
133.046371 152.0
133.099655 380.0
133.807632 168.0
134.017227 108.0
134.061646 144.0
134.522278 212.0
134.785568 132.0
134.949677 132.0
135.039856 160.0
135.067612 184.0
136.045486 172.0
136.082626 140.0
137.796799 152.0
138.156815 148.0
140.801132 164.0
141.070496 188.0
141.153244 148.0
141.254929 180.0
142.051163 128.0
142.435379 160.0
143.09021 252.0
143.332275 124.0
144.093399 168.0
145.063858 208.0
145.100952 168.0
145.530411 20.0
145.631271 248.0
145.698532 36.0
146.059784 2296.0
146.100006 48.0
146.2155 44.0
147.037308 156.0
147.060303 348.0
147.083984 336.0
147.339127 52.0
148.074432 196.0
148.120483 52.0
148.464645 36.0
148.642273 88.0
149.312195 180.0
149.864761 48.0
151.043884 188.0
152.15889 76.0
153.00705 144.0
154.069962 120.0
155.086975 192.0
155.70723 132.0
156.079773 336.0
157.053711 152.0
157.083191 176.0
157.38562 80.0
158.058899 412.0
158.268234 40.0
158.380936 196.0
159.065582 200.0
159.884827 112.0
160.076981 540.0
160.552414 164.0
161.059937 164.0
161.096573 696.0
161.221405 152.0
161.297226 60.0
161.373062 100.0
162.05751 1200.0
162.092743 800.0
162.157791 88.0
162.840271 108.0
162.880905 76.0
163.061295 132.0
163.783875 60.0
166.792969 196.0
167.075714 184.0
167.709274 124.0
169.067764 152.0
169.098816 180.0
170.064667 272.0
171.07222 228.0
171.868988 148.0
172.068192 172.0
172.608185 80.0
172.977066 148.0
173.080444 200.0
174.083374 536.0
174.122864 148.0
174.396088 128.0
174.756363 104.0
175.08342 760.0
176.091721 336.0
182.029022 120.0
183.069687 184.0
183.964813 152.0
184.076553 712.0
184.43483 36.0
185.042984 132.0
185.079956 356.0
186.05249 656.0
186.090714 344.0
186.345306 80.0
187.066116 152.0
187.093063 324.0
188.101807 136.0
188.59346 80.0
189.091232 704.0
189.477325 68.0
189.581451 64.0
190.054916 204.0
190.954102 192.0
191.070343 1388.0
191.342087 104.0
191.416428 100.0
191.565155 64.0
191.766296 60.0
192.073563 564.0
192.679657 44.0
192.806763 60.0
193.072159 164.0
193.108109 116.0
199.735413 132.0
200.07872 112.0
201.070908 288.0
201.10173 156.0
202.091965 152.0
202.699768 104.0
203.056305 276.0
203.117371 40.0
203.846146 68.0
203.971207 136.0
204.065964 1616.0
204.343735 36.0
204.893204 96.0
205.00148 32.0
205.029968 56.0
205.067368 332.0
205.12117 64.0
211.083038 144.0
212.06781 300.0
213.098679 136.0
214.070633 128.0
215.07608 156.0
215.096512 120.0
216.432541 164.0
216.602402 32.0
216.754745 100.0
217.084534 1888.0
217.1241 68.0
217.203293 104.0
217.922531 52.0
218.054764 76.0
218.089142 472.0
218.13118 60.0
218.166458 64.0
218.23407 80.0
218.887283 140.0
218.910828 72.0
219.091171 176.0
219.131744 56.0
221.093018 152.0
227.071716 124.0
229.088104 176.0
229.209091 52.0
230.008286 160.0
230.10289 436.0
231.08107 68.0
231.106522 184.0
232.080566 48.0
232.881699 108.0
232.927261 168.0
241.081467 180.0
245.081985 368.0
247.109467 140.0
255.161423 164.0
258.939484 128.0
262.101776 300.0
262.126251 156.0
263.610626 204.0
270.113037 96.0
272.092346 192.0
284.163574 88.0
303.738983 20.0
308.088531 84.0
313.125488 176.0
322.749573 56.0
326.227173 200.0
332.102081 196.0
336.121979 76.0
347.039093 236.0
348.124146 376.0
350.846283 192.0
374.132111 148.0
375.10672 172.0
378.769836 108.0
411.11734 140.0
418.897858 84.0
419.156769 348.0
420.145264 112.0
455.107849 92.0
463.15509 48.0
464.275024 196.0
465.247681 116.0
465.651306 56.0
501.824158 60.0
506.615021 48.0
765.841431 20.0
870.285645 20.0
1129.9198 200.0
1169.103271 100.0
1193.362305 20.0
1214.32373 140.0
1268.874268 40.0
1288.388306 180.0
1310.578979 132.0
1323.225586 204.0
1335.212769 180.0
1366.138062 100.0
1369.641846 164.0
1374.79541 176.0
1376.264282 128.0
1393.424927 152.0
1402.645142 136.0
1423.195801 64.0
1436.192261 128.0
1447.179932 244.0
1455.239502 172.0
1461.58606 240.0
1461.692505 140.0
1465.636719 96.0
1490.950317 144.0
