>compound MLS001159029-01!N-(3-imidazol-1-ylpropyl)-2-[(4,8,8-trimethyl-2-oxo-9,10-dihydropyrano[2,3-h]chromen-5-yl)oxy]acetamide
>formula C23H27N3O5
>ionization [M+H]+
>parentmass 426.203491
#inchi InChI=1S/C23H27N3O5/c1-15-11-20(28)30-22-16-5-6-23(2,3)31-17(16)12-18(21(15)22)29-13-19(27)25-7-4-9-26-10-8-24-14-26/h8,10-12,14H,4-7,9,13H2,1-3H3,(H,25,27)
#inchikey LHFYUFSFCQDQKD
#Ion_Source LC-ESI
#Instrument qTof
#Compound_Source NIH Natural Product Library
#PI Dorrestein
#Data_Collector VVP/LMS
#Scan -1
#Precursor_MZ 426.203
#ExactMass 425.195
#Charge 1
#CAS_Number N/A
#Pubmed_ID N/A
#Smiles Cc1cc(=O)oc2c3CCC(C)(C)Oc3cc(OCC(=O)NCCCn4ccnc4)c12
#INCHI_AUX N/A
#Library_Class 1
#SpectrumID CCMSLIB00000080426
#IonMode Positive
#UpdateWorkflowName UPDATE-SINGLE-ANNOTATED-GOLD
#LibraryQualityString Gold
#TaskID b1d8e8f6646f4e71acdff9ca3d919d08
##Scan# 1646
#SpectrumFile p2-G08_GG8_01_18056.mzXML
#LibraryName NIH_Natural_Products_Library.mgf
#MQScore -1
#Organism NIH_Natural_Products_Library
#TIC_Query 0
#RT_Query -1
#MZErrorPPM -1
#SharedPeaks 0
#MassDiff 0
#LibMZ -1
#SpecMZ 426.203
#SpecCharge 0
#internalFilename spec-00000.mgf

>collision 10
94.999359 56.0
95.038773 204.0
95.059479 4084.0
95.092499 184.0
95.133263 112.0
95.160446 52.0
95.179863 164.0
95.234238 72.0
95.276978 100.0
95.325554 108.0
95.397469 52.0
95.537483 116.0
95.556946 88.0
95.57251 200.0
95.714607 84.0
95.784004 188.0
95.802246 176.0
95.876289 204.0
95.891884 64.0
95.940613 92.0
96.012764 248.0
96.065727 420.0
96.153236 144.0
96.305527 164.0
96.33287 164.0
96.346352 180.0
96.375549 180.0
96.41494 164.0
96.564514 140.0
96.626122 204.0
96.666977 228.0
96.733757 152.0
96.782707 200.0
96.82785 152.0
96.902184 180.0
96.937454 168.0
97.143326 96.0
97.198265 188.0
97.270882 176.0
97.298363 48.0
97.508545 120.0
97.524269 92.0
97.573196 176.0
97.687485 136.0
97.791771 168.0
98.020218 180.0
98.058624 1296.0
98.087234 220.0
98.148346 112.0
98.205544 188.0
98.22921 224.0
98.371292 76.0
98.40683 176.0
98.523354 120.0
98.578682 144.0
98.639954 84.0
98.750092 148.0
98.793701 176.0
98.823875 184.0
98.898224 296.0
98.914864 160.0
98.942627 132.0
98.982231 88.0
99.018532 260.0
99.036896 192.0
99.06839 38492.0
99.115646 204.0
99.134758 32.0
99.175957 56.0
99.216911 204.0
99.27449 60.0
99.289398 60.0
99.307243 204.0
99.364777 168.0
99.393913 184.0
99.462013 56.0
99.518852 108.0
99.542328 124.0
99.58493 84.0
99.674522 32.0
99.698372 140.0
99.740105 200.0
99.756012 36.0
99.782219 88.0
99.86631 68.0
99.956894 100.0
99.993645 120.0
100.071228 3648.0
100.125206 168.0
100.163948 44.0
100.287262 140.0
100.295273 124.0
100.299095 156.0
100.35527 200.0
100.425934 184.0
100.476234 80.0
100.510857 128.0
100.588692 152.0
100.630615 104.0
100.644592 92.0
100.684532 48.0
100.708496 92.0
100.730469 156.0
100.841942 168.0
100.887611 132.0
100.930328 184.0
100.986328 60.0
101.012329 244.0
101.030334 136.0
101.072426 344.0
101.096367 112.0
101.134392 76.0
101.342667 60.0
101.388756 32.0
101.408798 288.0
101.446884 140.0
101.509041 108.0
101.585258 52.0
101.607323 88.0
101.666519 136.0
101.73175 76.0
101.822113 60.0
101.846214 140.0
101.88237 180.0
101.954704 144.0
102.055214 204.0
102.153763 104.0
102.198029 164.0
102.314766 144.0
102.340935 124.0
102.417465 148.0
102.494019 48.0
102.544403 216.0
102.838875 204.0
102.976173 64.0
103.060173 172.0
103.113564 160.0
103.329933 196.0
103.386597 224.0
103.40683 152.0
103.4291 208.0
103.451363 108.0
103.483459 136.0
103.512688 208.0
103.609329 228.0
103.635666 56.0
103.676193 196.0
103.787689 100.0
103.919533 60.0
103.938301 64.0
104.043335 84.0
104.148521 200.0
104.179405 148.0
104.352982 128.0
104.367912 208.0
104.386719 72.0
104.407059 220.0
104.569817 120.0
104.590172 148.0
104.604424 48.0
104.694008 184.0
104.742889 180.0
104.783638 104.0
104.824387 104.0
104.924263 136.0
105.020111 68.0
105.069519 180.0
105.189468 56.0
105.216011 148.0
105.279312 184.0
105.311989 184.0
105.34742 196.0
105.375313 136.0
105.424355 116.0
105.479538 172.0
105.526558 52.0
105.567459 216.0
105.622681 124.0
105.655411 156.0
105.669731 172.0
105.78434 160.0
105.864189 128.0
105.905151 172.0
106.072174 188.0
106.154594 236.0
106.229027 228.0
106.458908 124.0
106.491768 160.0
106.506149 120.0
106.771286 72.0
106.88443 204.0
106.902489 196.0
106.979111 52.0
107.003815 116.0
107.061836 280.0
107.248962 140.0
107.269127 148.0
107.385048 108.0
107.469627 116.0
107.57901 108.0
107.628563 112.0
107.655403 148.0
107.888893 160.0
108.06469 160.0
108.175102 160.0
108.267555 92.0
108.387703 52.0
108.488792 212.0
108.561836 140.0
108.621979 120.0
108.784599 276.0
108.881432 136.0
109.008156 284.0
109.031723 188.0
109.076866 684.0
109.139114 88.0
109.157829 164.0
109.218147 80.0
109.257668 260.0
109.455399 104.0
109.511627 160.0
109.561287 148.0
109.640808 148.0
109.755463 312.0
109.786743 164.0
109.870178 200.0
109.993301 172.0
110.026703 276.0
110.165428 124.0
110.183334 120.0
110.212585 192.0
110.306641 152.0
110.354721 136.0
110.442558 156.0
110.47393 64.0
110.542976 132.0
110.557625 144.0
110.706268 216.0
110.748154 44.0
110.838242 144.0
110.911591 68.0
111.053123 184.0
111.077248 156.0
111.094032 136.0
111.215736 208.0
111.234627 104.0
111.490875 56.0
111.572853 148.0
111.621849 132.0
111.840012 196.0
111.911591 92.0
112.073776 144.0
112.185478 128.0
112.236084 116.0
112.371071 180.0
112.402725 228.0
112.436493 208.0
112.567375 60.0
112.759628 36.0
112.804016 64.0
112.829384 192.0
112.85006 144.0
112.901276 136.0
112.932999 128.0
112.960503 136.0
113.13826 152.0
113.17849 164.0
113.250496 48.0
113.282272 144.0
113.379738 168.0
113.530258 140.0
113.619347 212.0
113.644806 164.0
113.680878 120.0
113.892517 88.0
113.969673 184.0
114.214157 136.0
114.256706 156.0
114.367363 132.0
114.488724 112.0
114.720421 124.0
115.01535 112.0
115.05378 152.0
115.082603 176.0
115.380653 132.0
115.414864 164.0
115.56031 120.0
115.759377 164.0
115.836479 160.0
115.980049 224.0
116.061897 204.0
116.119423 168.0
116.143013 116.0
116.245995 276.0
116.261017 152.0
116.549988 208.0
116.586334 196.0
116.664383 212.0
116.737938 152.0
116.929405 164.0
116.944473 32.0
116.976761 128.0
117.056427 176.0
117.153351 180.0
117.306351 168.0
117.392601 200.0
117.485344 124.0
117.597557 88.0
117.634247 208.0
117.735733 128.0
118.073624 268.0
118.191856 92.0
118.243797 204.0
118.289253 116.0
118.59684 180.0
118.616348 96.0
118.818031 160.0
118.837563 108.0
118.867935 156.0
119.051712 256.0
119.171936 128.0
119.243645 228.0
119.365387 176.0
119.549461 156.0
119.596001 148.0
119.768021 44.0
119.933617 84.0
120.009537 180.0
120.048553 212.0
120.093636 124.0
120.228065 204.0
120.276077 196.0
120.313187 144.0
120.4748 168.0
120.532356 144.0
120.573128 144.0
120.629959 152.0
120.682991 156.0
120.874916 96.0
120.923065 184.0
121.004059 84.0
121.030441 164.0
121.062538 656.0
121.098221 224.0
121.161751 164.0
121.377991 188.0
121.451424 224.0
121.508148 188.0
121.558617 120.0
121.578369 216.0
121.628845 124.0
121.645187 116.0
121.672752 136.0
121.710075 200.0
121.927559 144.0
121.953934 124.0
122.101242 176.0
122.162834 200.0
122.23764 140.0
122.530487 28.0
122.576759 108.0
122.592186 172.0
122.607613 76.0
122.759178 144.0
122.814865 112.0
122.920761 128.0
122.936211 68.0
122.982559 128.0
123.039955 108.0
123.059822 128.0
123.079697 132.0
123.183502 196.0
123.291763 128.0
123.353653 148.0
123.38903 176.0
123.534988 124.0
123.585876 116.0
123.605789 216.0
123.712029 80.0
123.807236 148.0
123.909134 168.0
123.962311 192.0
124.037666 96.0
124.078217 188.0
124.115265 44.0
124.159027 196.0
124.235031 40.0
124.292717 56.0
124.410355 104.0
124.508049 212.0
124.603569 120.0
124.654678 104.0
124.890343 108.0
125.034958 176.0
125.083931 180.0
125.246483 40.0
125.277664 120.0
125.331139 152.0
125.42028 352.0
125.460411 252.0
125.674522 72.0
125.745934 44.0
125.766022 120.0
125.857552 152.0
125.93795 60.0
126.05761 236.0
126.087646 156.0
126.107758 104.0
126.248611 196.0
126.293343 220.0
126.715942 160.0
126.759018 156.0
126.79039 48.0
126.877815 152.0
126.92041 48.0
126.942833 128.0
127.090881 216.0
127.212082 224.0
127.234047 204.0
127.353546 164.0
127.380501 160.0
127.654709 152.0
127.821167 196.0
128.145416 176.0
128.291901 160.0
128.400131 172.0
128.582886 64.0
128.72963 216.0
128.831268 176.0
128.908096 148.0
129.073212 168.0
129.235962 128.0
129.263123 212.0
129.278961 176.0
129.430634 136.0
129.459946 144.0
129.503098 164.0
129.557831 152.0
129.734238 92.0
129.843338 148.0
129.870285 36.0
129.974655 184.0
129.997345 144.0
130.060898 196.0
130.085861 128.0
130.158508 168.0
130.287979 180.0
130.33342 148.0
130.376602 120.0
130.531174 124.0
130.581207 112.0
130.597137 152.0
130.618851 184.0
130.679031 156.0
130.710892 104.0
130.996414 132.0
131.018265 56.0
131.051331 140.0
131.178421 208.0
131.542786 208.0
131.558762 160.0
131.618118 160.0
131.675217 48.0
131.825989 88.0
131.860275 116.0
131.990585 172.0
132.040894 196.0
132.503296 120.0
132.656845 164.0
132.709564 204.0
132.810471 160.0
132.893066 136.0
133.064194 360.0
133.115097 148.0
133.265991 100.0
133.417114 116.0
133.442886 228.0
133.48764 160.0
133.655914 160.0
133.692734 152.0
133.782501 92.0
133.826248 96.0
133.856186 92.0
134.068604 132.0
134.098083 100.0
134.153397 164.0
134.187988 60.0
134.409409 152.0
134.471725 156.0
134.557129 68.0
134.59407 108.0
134.612549 72.0
134.767319 160.0
135.04599 344.0
135.227509 92.0
135.283356 160.0
135.421997 200.0
135.44516 188.0
135.479904 156.0
135.60968 288.0
135.688492 40.0
135.74437 160.0
135.788208 116.0
135.938995 156.0
135.983093 164.0
136.015594 172.0
136.038803 168.0
136.085526 700.0
136.152588 100.0
136.398865 112.0
136.415146 124.0
136.77803 112.0
136.896774 108.0
137.019608 372.0
137.059113 568.0
137.092133 156.0
137.23465 180.0
137.350784 136.0
137.390915 240.0
137.540268 184.0
137.58696 256.0
137.614014 204.0
137.706039 128.0
137.766785 60.0
137.808838 148.0
137.967758 180.0
138.023148 368.0
138.059845 572.0
138.106155 356.0
138.182922 136.0
138.201645 240.0
138.243759 124.0
138.311646 192.0
138.484909 100.0
138.510681 120.0
138.56221 192.0
138.606735 72.0
138.665329 148.0
138.742676 164.0
138.782532 184.0
138.800171 84.0
138.855225 168.0
139.003021 92.0
139.122726 136.0
139.197861 196.0
139.213272 160.0
139.34819 224.0
139.416336 84.0
139.52446 176.0
139.545624 96.0
139.602051 136.0
139.637329 132.0
139.766724 148.0
139.818497 204.0
139.985641 92.0
140.068069 172.0
140.141113 56.0
140.167023 176.0
140.421631 184.0
140.457016 200.0
140.567902 132.0
140.586777 92.0
140.768555 140.0
140.790604 168.0
140.985901 88.0
141.033173 144.0
141.08461 100.0
141.290924 184.0
141.520508 192.0
141.55365 272.0
141.788193 96.0
141.823746 124.0
141.840332 208.0
141.856934 108.0
141.973114 208.0
142.103577 152.0
142.217484 52.0
142.331436 132.0
142.376556 116.0
142.554733 144.0
142.576126 204.0
142.759171 204.0
142.786591 132.0
142.875015 128.0
142.904282 44.0
142.93045 204.0
143.08992 156.0
143.152954 156.0
143.187561 136.0
143.206604 52.0
143.401993 160.0
143.587952 220.0
143.733475 124.0
143.781204 124.0
143.836105 32.0
143.912506 44.0
143.941147 92.0
144.04863 156.0
144.079056 240.0
144.137024 112.0
144.376083 60.0
144.447845 72.0
144.575073 160.0
144.636871 36.0
144.682358 212.0
144.918777 96.0
144.955414 56.0
145.064392 388.0
145.157059 172.0
145.226318 56.0
145.269501 28.0
145.57193 96.0
145.797745 108.0
145.845535 176.0
145.92514 164.0
146.055557 440.0
146.093506 192.0
146.131989 104.0
146.184937 124.0
146.216583 132.0
146.295654 136.0
146.389557 156.0
146.485886 92.0
146.526855 88.0
146.553345 140.0
146.640106 164.0
146.688309 88.0
146.729294 160.0
146.753403 132.0
146.799225 164.0
147.043365 324.0
147.325409 112.0
147.407562 132.0
147.620956 188.0
147.651718 108.0
147.736389 156.0
147.876724 232.0
148.012299 152.0
148.046204 120.0
148.075272 348.0
148.096634 212.0
148.13269 152.0
148.26181 168.0
148.460617 156.0
148.477585 112.0
148.763901 168.0
148.962738 164.0
149.023346 292.0
149.05925 836.0
149.082092 176.0
149.113693 108.0
149.283859 52.0
149.420074 208.0
149.476044 60.0
149.568527 96.0
149.841278 128.0
149.870514 120.0
149.904633 208.0
149.950928 148.0
150.022858 144.0
150.054947 468.0
150.158173 152.0
150.226471 168.0
150.519882 128.0
150.766083 232.0
150.876083 128.0
150.934769 252.0
150.956772 136.0
151.015472 132.0
151.043259 232.0
151.072266 180.0
151.128006 172.0
151.282181 48.0
151.316467 148.0
151.421753 132.0
151.585892 188.0
151.615311 96.0
151.730515 148.0
151.865387 176.0
152.073883 164.0
152.130402 212.0
152.44725 156.0
152.548019 180.0
153.017914 148.0
153.141052 204.0
153.229492 204.0
153.256836 112.0
153.281479 208.0
153.357864 164.0
153.564987 68.0
153.60199 136.0
153.619247 192.0
153.903397 156.0
154.08226 220.0
154.117966 176.0
154.17598 140.0
154.221771 132.0
154.431931 180.0
154.610077 52.0
154.72641 132.0
154.818024 196.0
154.917099 44.0
155.131226 168.0
155.197159 52.0
155.265274 60.0
155.494858 108.0
155.777924 112.0
155.90712 44.0
156.01152 40.0
156.081131 180.0
156.280121 176.0
156.359756 184.0
156.419495 128.0
156.641113 88.0
156.735794 128.0
156.940186 96.0
157.054901 120.0
157.155823 152.0
157.211945 136.0
157.252014 120.0
157.35936 72.0
157.474228 168.0
157.504211 120.0
157.531677 172.0
157.634232 180.0
157.784088 104.0
157.969162 172.0
157.989166 212.0
158.057465 176.0
158.206894 160.0
158.349625 140.0
158.507462 104.0
158.577621 196.0
158.657837 44.0
158.712997 148.0
158.800781 120.0
159.047256 220.0
159.071777 116.0
159.09436 160.0
159.111938 168.0
159.154617 172.0
159.189774 104.0
159.300293 172.0
159.647141 176.0
159.79808 148.0
159.926422 168.0
160.049774 180.0
160.077881 212.0
160.248764 204.0
160.270218 172.0
160.589081 220.0
160.748016 144.0
160.808594 192.0
160.937332 172.0
161.059082 3756.0
161.088867 32.0
161.414917 156.0
161.476303 232.0
161.498367 148.0
161.53125 100.0
161.548965 224.0
161.656525 196.0
161.785904 108.0
161.933716 252.0
161.96669 188.0
162.056824 692.0
162.103455 148.0
162.164276 172.0
162.214981 52.0
162.237793 128.0
162.263138 164.0
162.341751 128.0
162.42038 108.0
162.45842 192.0
162.638596 112.0
162.67131 180.0
162.699524 180.0
162.735062 160.0
162.826477 28.0
162.976364 144.0
163.038818 924.0
163.065308 124.0
163.103424 108.0
163.356964 120.0
163.543472 144.0
163.607117 172.0
163.683502 112.0
163.953537 144.0
164.045792 420.0
164.07843 404.0
164.098831 144.0
164.126877 156.0
164.233994 192.0
164.476395 148.0
164.685776 112.0
164.703659 212.0
164.901123 296.0
165.002655 152.0
165.052887 216.0
165.078979 244.0
165.102371 52.0
165.171432 80.0
165.272797 168.0
165.368454 36.0
165.445251 44.0
165.560471 44.0
165.596329 148.0
165.645004 64.0
165.680862 156.0
165.780792 104.0
165.819229 176.0
165.932022 136.0
166.054184 240.0
166.09317 232.0
166.135788 344.0
166.247528 52.0
166.398972 124.0
166.663528 124.0
166.681519 208.0
166.709778 228.0
166.830582 216.0
166.894592 112.0
167.106262 1728.0
167.20871 204.0
167.239594 220.0
167.267914 156.0
167.301376 124.0
167.672287 248.0
167.713531 84.0
167.772827 140.0
167.814072 212.0
167.855331 112.0
167.948181 52.0
167.981705 128.0
168.061691 136.0
168.079742 180.0
168.104568 136.0
168.208801 216.0
168.39212 148.0
168.634995 124.0
168.662994 120.0
168.761658 124.0
168.859924 80.0
169.007385 176.0
169.082428 120.0
169.114197 148.0
169.15889 296.0
169.240341 172.0
169.318024 164.0
169.341339 220.0
169.488998 228.0
169.93663 196.0
170.032822 176.0
170.311401 144.0
170.347778 144.0
170.365967 152.0
170.430908 140.0
170.631042 164.0
170.698654 184.0
170.904144 80.0
170.997833 140.0
171.043564 312.0
171.060349 520.0
171.174225 148.0
171.279037 168.0
171.445786 56.0
171.631012 144.0
171.779526 132.0
171.849976 64.0
172.056732 220.0
172.084045 404.0
172.186111 224.0
172.359131 216.0
172.466293 172.0
172.746078 148.0
172.97113 116.0
173.010391 132.0
173.056656 404.0
173.085373 176.0
173.251328 56.0
173.287643 200.0
173.371872 176.0
173.419037 80.0
173.500305 184.0
173.644531 48.0
173.683868 100.0
173.912155 152.0
173.941025 88.0
174.014526 148.0
174.052536 620.0
174.095932 132.0
174.416473 60.0
174.534775 176.0
174.576859 56.0
174.647873 76.0
174.76506 80.0
174.88205 104.0
174.934692 72.0
175.040695 448.0
175.075363 400.0
175.095306 132.0
175.195404 72.0
175.416763 144.0
175.574966 168.0
175.725327 180.0
175.815048 120.0
175.944382 120.0
176.044434 740.0
176.068008 352.0
176.145081 212.0
176.203201 136.0
176.253403 252.0
176.293762 192.0
176.435776 220.0
176.671158 136.0
176.774338 108.0
176.851089 224.0
176.949036 196.0
177.016541 160.0
177.053329 472.0
177.240402 132.0
177.510773 116.0
177.640747 140.0
177.859421 136.0
177.916733 112.0
177.988129 156.0
178.057312 392.0
178.086624 360.0
178.131836 136.0
178.301895 64.0
178.323151 148.0
178.386948 160.0
178.425339 64.0
178.652878 216.0
178.849808 72.0
178.906326 68.0
179.030853 140.0
179.061066 220.0
179.141098 324.0
179.491867 140.0
179.646561 180.0
179.686584 192.0
179.712433 116.0
180.062012 212.0
180.108368 208.0
180.276688 112.0
180.405838 188.0
180.487869 108.0
180.584137 84.0
180.602859 148.0
180.632294 228.0
180.677765 120.0
180.838318 180.0
180.867767 200.0
181.073944 128.0
181.100723 112.0
181.20787 180.0
181.564392 108.0
181.593185 136.0
181.69046 176.0
181.795105 140.0
181.918579 132.0
182.103851 160.0
182.192505 156.0
182.437057 124.0
182.458572 40.0
182.498901 188.0
182.55806 184.0
182.5952 128.0
182.638748 124.0
182.746353 144.0
182.958969 208.0
182.993973 160.0
183.058594 184.0
183.095322 144.0
183.145111 164.0
183.171722 104.0
183.198654 124.0
183.368408 116.0
183.438492 136.0
183.475204 272.0
183.932617 112.0
184.081223 204.0
184.143799 132.0
184.362366 112.0
184.380508 272.0
184.475113 216.0
184.57785 140.0
184.602188 72.0
184.726608 208.0
184.84024 196.0
184.872711 128.0
185.037827 180.0
185.058594 536.0
185.0952 220.0
185.138016 52.0
185.235519 212.0
185.362854 188.0
185.544464 136.0
185.652924 212.0
185.802109 48.0
186.090622 160.0
186.252747 112.0
186.353256 172.0
186.451096 160.0
186.491852 156.0
186.570694 128.0
187.033249 208.0
187.071259 220.0
187.114807 128.0
187.20195 196.0
187.550674 180.0
187.692444 188.0
187.81221 92.0
188.070236 500.0
188.120789 232.0
188.246399 200.0
188.287994 196.0
188.355637 204.0
188.418472 100.0
188.590378 216.0
188.713654 128.0
188.750168 204.0
188.823029 68.0
188.973495 140.0
189.055527 8400.0
189.115082 216.0
189.145905 112.0
189.178757 200.0
189.208862 40.0
189.293747 176.0
189.329346 60.0
189.458084 140.0
189.523834 48.0
189.622589 168.0
189.669098 168.0
189.701981 76.0
189.744232 136.0
189.753677 56.0
189.761108 128.0
189.781494 156.0
189.818863 140.0
189.982697 200.0
190.056625 1408.0
190.094208 92.0
190.156891 352.0
190.344009 52.0
190.637939 176.0
190.676407 136.0
191.009109 160.0
191.033783 476.0
191.094391 172.0
191.209976 56.0
191.236954 184.0
191.623032 200.0
191.964706 196.0
192.038864 244.0
192.056808 136.0
192.104568 364.0
192.203201 152.0
192.257248 52.0
192.290359 96.0
192.340042 104.0
192.649323 204.0
193.047348 348.0
193.100433 144.0
193.157974 124.0
193.279709 100.0
193.490067 132.0
193.542664 200.0
193.636826 132.0
193.700531 376.0
193.725464 176.0
193.780869 168.0
193.913895 176.0
193.95546 148.0
194.04599 116.0
194.057022 76.0
194.097717 116.0
194.180054 56.0
194.252167 144.0
194.374252 188.0
194.463058 124.0
194.549103 140.0
194.587967 92.0
194.607407 208.0
194.682388 132.0
194.740707 164.0
194.762924 148.0
194.912949 204.0
195.05748 144.0
195.138092 108.0
195.227081 144.0
195.39119 144.0
195.427353 100.0
195.622177 228.0
195.652802 84.0
195.772522 184.0
196.007706 196.0
196.313171 128.0
196.514008 196.0
196.583755 212.0
196.622833 152.0
196.728424 208.0
196.773575 136.0
196.857346 156.0
196.913193 72.0
197.078018 112.0
197.114334 156.0
197.173019 168.0
197.240112 72.0
197.346344 144.0
197.435822 168.0
197.476639 148.0
197.53093 84.0
197.561691 168.0
197.665222 104.0
197.785568 144.0
197.975952 112.0
198.060516 184.0
198.345795 160.0
198.463531 256.0
198.530838 88.0
198.572906 188.0
198.643036 164.0
198.669922 204.0
198.86731 224.0
198.983047 280.0
199.042007 400.0
199.082764 352.0
199.112259 164.0
199.20166 152.0
199.251938 116.0
199.386429 184.0
199.451752 108.0
199.496719 248.0
199.730133 140.0
199.749817 136.0
199.775131 120.0
199.800461 108.0
199.977737 208.0
200.071625 464.0
200.111526 164.0
200.183136 192.0
200.236771 160.0
200.400146 112.0
200.48468 104.0
200.50441 160.0
200.560791 84.0
200.611526 152.0
200.772247 124.0
200.964066 144.0
201.055557 656.0
201.155563 168.0
201.393173 112.0
201.500519 156.0
201.582458 188.0
201.636154 60.0
201.709641 192.0
201.834045 60.0
202.045197 128.0
202.053757 252.0
202.090088 460.0
202.122559 192.0
202.204636 56.0
202.25238 216.0
202.38298 104.0
202.612396 208.0
202.677551 192.0
202.7229 164.0
202.788086 44.0
202.959473 140.0
203.034668 1228.0
203.090149 240.0
203.315613 156.0
203.500122 48.0
203.59285 128.0
203.738693 144.0
203.894974 220.0
204.040573 416.0
204.063324 284.0
204.102142 132.0
204.150833 176.0
204.170746 168.0
204.517853 144.0
204.617493 52.0
204.665894 76.0
204.69722 168.0
204.734756 152.0
204.805435 112.0
204.828232 112.0
204.853867 64.0
204.90799 212.0
204.973526 116.0
205.050003 5600.0
205.123611 332.0
205.212967 212.0
205.247177 72.0
205.281403 32.0
205.330383 228.0
205.483917 128.0
205.695099 28.0
205.766464 56.0
205.96637 88.0
206.05629 572.0
206.080887 1264.0
206.120651 164.0
206.168884 196.0
206.340744 36.0
206.39949 124.0
206.695419 92.0
206.807022 56.0
206.944443 156.0
206.973068 184.0
207.067123 300.0
207.124863 72.0
207.2108 240.0
207.305359 200.0
207.374146 188.0
207.517471 132.0
207.617844 148.0
207.680939 140.0
207.729706 180.0
207.758392 104.0
207.835861 148.0
207.944901 192.0
208.010925 160.0
208.053726 164.0
208.094177 152.0
208.16597 156.0
208.263611 132.0
208.367035 132.0
208.542328 92.0
208.64006 152.0
208.668808 148.0
208.824097 48.0
208.852859 92.0
208.924774 148.0
209.04866 144.0
209.085907 100.0
209.186646 156.0
209.206802 96.0
209.273026 108.0
209.411255 116.0
209.633087 108.0
209.757019 160.0
209.915588 84.0
210.056915 40.0
210.100754 204.0
210.157898 152.0
210.302185 196.0
210.322388 164.0
210.417664 152.0
210.501389 88.0
210.616409 180.0
210.937668 152.0
211.14006 184.0
211.244186 188.0
211.284698 68.0
211.536469 132.0
211.617813 164.0
211.695709 44.0
211.863708 164.0
212.02887 80.0
212.072342 140.0
212.127426 292.0
212.278183 124.0
212.397095 132.0
212.670441 100.0
212.875107 172.0
212.968918 108.0
213.055908 212.0
213.098221 292.0
213.121552 164.0
213.17746 160.0
213.276917 156.0
213.349594 56.0
213.375763 300.0
213.468811 136.0
213.593872 124.0
213.806274 92.0
214.048279 180.0
214.094559 148.0
214.282059 140.0
214.310043 176.0
214.359589 160.0
214.490982 92.0
214.525711 132.0
214.683167 172.0
214.799622 108.0
214.868011 184.0
214.926758 160.0
214.951553 168.0
215.036591 336.0
215.070328 160.0
215.098099 240.0
215.228851 204.0
215.25386 220.0
215.349976 176.0
215.377792 108.0
215.573547 164.0
215.599854 144.0
215.76062 76.0
215.785629 196.0
215.851257 128.0
215.896988 332.0
215.950684 88.0
215.988708 264.0
216.026749 136.0
216.066238 3140.0
216.103683 368.0
216.167786 156.0
216.272949 172.0
216.295517 156.0
216.383789 176.0
216.404282 100.0
216.465775 148.0
216.512634 200.0
216.585846 136.0
216.638412 144.0
216.675476 216.0
216.697174 180.0
216.741867 308.0
216.78508 128.0
216.853531 232.0
216.917114 124.0
216.949219 140.0
216.986115 308.0
217.051224 72284.0
217.102371 288.0
217.124832 264.0
217.169449 176.0
217.195114 108.0
217.231674 84.0
217.262558 204.0
217.296066 184.0
217.333771 304.0
217.388016 40.0
217.411346 124.0
217.439575 112.0
217.487839 136.0
217.534332 628.0
217.56871 188.0
217.609329 80.0
217.646576 96.0
217.714828 56.0
217.734512 140.0
217.759094 156.0
217.779663 80.0
217.80751 108.0
217.828766 184.0
217.854858 80.0
217.888351 128.0
217.937637 36.0
217.963913 320.0
218.004593 164.0
218.053955 12468.0
218.118439 148.0
218.141083 212.0
218.191055 44.0
218.217529 36.0
218.267502 176.0
218.345276 72.0
218.369568 108.0
218.458954 44.0
218.538116 76.0
218.561661 80.0
218.614624 192.0
218.699982 56.0
218.732361 164.0
218.773575 36.0
218.80513 72.0
218.827499 76.0
218.894287 48.0
218.954163 108.0
219.009796 156.0
219.054932 1836.0
219.092834 264.0
219.152145 104.0
219.197693 76.0
219.230118 28.0
219.256638 92.0
219.292007 212.0
219.323563 96.0
219.351456 120.0
219.374542 116.0
219.446823 108.0
219.473618 252.0
219.501328 100.0
219.524918 112.0
219.572098 48.0
219.611206 100.0
219.67128 128.0
219.694916 128.0
219.707047 80.0
219.719589 144.0
219.736115 88.0
219.803635 72.0
219.861221 92.0
220.057724 200.0
220.087738 164.0
220.104233 176.0
220.164413 200.0
220.188934 48.0
220.331451 240.0
220.451859 180.0
220.502106 124.0
220.639236 92.0
220.685379 148.0
220.713333 204.0
220.768188 56.0
220.84584 172.0
220.904236 76.0
220.990036 72.0
221.045944 264.0
221.110992 156.0
221.618866 116.0
221.925995 176.0
222.011993 164.0
222.041656 164.0
222.113754 556.0
222.225571 100.0
222.875824 168.0
223.060089 172.0
223.106506 124.0
223.214691 56.0
223.283096 192.0
223.571671 116.0
223.836624 192.0
223.958725 152.0
224.060013 128.0
224.093628 168.0
224.164291 60.0
224.271591 88.0
224.301392 120.0
224.378906 216.0
224.402756 188.0
224.426605 84.0
224.536942 136.0
224.644333 164.0
224.689072 168.0
224.927811 140.0
225.322021 140.0
225.429581 140.0
225.4505 128.0
225.546143 160.0
225.649796 208.0
225.764404 180.0
225.836182 188.0
226.052109 316.0
226.083847 240.0
226.129395 48.0
226.204239 248.0
226.252136 60.0
226.285065 128.0
226.315002 76.0
226.392868 96.0
226.419815 44.0
226.563599 88.0
226.65947 128.0
226.737381 56.0
226.8423 148.0
227.031189 408.0
227.080795 200.0
227.163162 160.0
227.394211 128.0
227.535294 76.0
227.604355 144.0
227.655396 48.0
227.739502 80.0
227.766525 88.0
227.847641 160.0
227.880692 200.0
227.979843 68.0
228.066849 1172.0
228.131958 112.0
228.223343 120.0
228.271454 156.0
228.295502 76.0
228.560226 380.0
228.867249 68.0
228.888321 96.0
228.988403 156.0
229.052338 472.0
229.117645 120.0
229.156403 44.0
229.207626 168.0
229.304062 176.0
229.394485 28.0
229.460815 160.0
229.55127 176.0
229.60556 56.0
229.65683 92.0
229.702072 132.0
229.808228 172.0
229.849915 108.0
229.904221 80.0
229.946472 176.0
229.982697 120.0
230.081573 528.0
230.216461 168.0
230.296722 208.0
230.396408 144.0
230.512299 152.0
230.632111 124.0
230.683502 204.0
230.740936 80.0
230.861893 72.0
230.970764 48.0
231.022202 280.0
231.066238 556.0
231.179535 60.0
231.234009 196.0
231.352066 140.0
231.636719 156.0
231.733658 220.0
231.797821 144.0
231.988251 76.0
232.060547 436.0
232.104507 152.0
232.161072 156.0
232.285431 120.0
232.318802 220.0
232.576736 180.0
232.613159 172.0
232.643509 136.0
232.689056 112.0
232.801407 196.0
233.047653 1440.0
233.099777 296.0
233.257156 196.0
233.524734 200.0
233.658569 52.0
233.784576 120.0
233.865509 176.0
233.947693 116.0
234.064545 176.0
234.112747 604.0
234.380188 84.0
234.60878 144.0
234.633163 48.0
234.663651 152.0
234.730728 268.0
234.785629 168.0
234.871017 164.0
235.055313 180.0
235.123474 184.0
235.243301 60.0
235.368484 52.0
235.43663 204.0
235.588394 48.0
235.654739 128.0
235.680054 188.0
235.722824 60.0
235.780899 56.0
235.829788 132.0
235.850784 128.0
236.095779 140.0
236.213196 128.0
236.307648 92.0
236.533325 128.0
236.603729 128.0
236.710892 100.0
236.781326 148.0
236.92836 124.0
237.072372 68.0
237.286942 132.0
237.477066 160.0
237.499756 172.0
237.713303 140.0
238.08168 216.0
238.121689 144.0
238.309006 228.0
238.493393 100.0
238.69014 68.0
238.767029 348.0
238.923904 36.0
239.010056 136.0
239.09314 88.0
239.13623 180.0
239.188553 84.0
239.386734 164.0
239.801514 112.0
239.940231 144.0
239.983398 104.0
240.017303 64.0
240.065887 228.0
240.104172 168.0
240.362793 232.0
240.547974 144.0
240.577469 72.0
240.693085 196.0
240.816605 96.0
240.862946 80.0
241.038132 176.0
241.092957 116.0
241.119156 208.0
241.21521 160.0
241.276764 176.0
241.28894 160.0
241.385345 152.0
241.580109 120.0
241.985535 76.0
242.04747 120.0
242.085358 184.0
242.220551 140.0
242.27356 48.0
242.343719 56.0
242.598969 184.0
242.695084 108.0
242.760193 76.0
242.791214 172.0
243.023865 124.0
243.054398 124.0
243.09169 144.0
243.269043 184.0
243.352875 112.0
243.377701 92.0
243.411865 160.0
243.621719 148.0
243.719376 56.0
243.831757 148.0
243.99733 92.0
244.061295 6952.0
244.137192 88.0
244.173248 116.0
244.229233 56.0
244.257233 48.0
244.279007 40.0
244.359894 128.0
244.384781 128.0
244.471909 168.0
244.577728 108.0
244.683578 120.0
244.758301 100.0
244.788803 136.0
244.85173 144.0
244.903763 164.0
244.94165 156.0
245.046478 24560.0
245.09523 228.0
245.107727 396.0
245.139435 148.0
245.21936 48.0
245.270447 72.0
245.318115 120.0
245.344574 92.0
245.38147 56.0
245.430206 96.0
245.48436 96.0
245.516953 80.0
245.560669 32.0
245.599762 116.0
245.642181 60.0
245.688171 92.0
245.719376 84.0
245.803741 52.0
245.846237 100.0
245.887192 140.0
246.002304 68.0
246.049164 4544.0
246.113907 308.0
246.195877 168.0
246.233368 56.0
246.258347 76.0
246.330719 96.0
246.364548 52.0
246.39267 76.0
246.42392 172.0
246.544083 96.0
246.614532 56.0
246.637878 128.0
246.739578 144.0
246.792725 104.0
246.880295 96.0
246.910416 124.0
246.955109 52.0
246.994446 80.0
247.055389 640.0
247.102615 156.0
247.139923 148.0
247.233795 44.0
247.283875 32.0
247.333954 212.0
247.434128 120.0
247.524933 60.0
247.554367 80.0
247.714371 140.0
247.747314 132.0
247.80986 108.0
247.841309 172.0
247.869507 224.0
247.949524 128.0
248.026215 40.0
248.091476 1164.0
248.201782 64.0
248.286453 188.0
248.374268 140.0
248.524857 96.0
248.647247 176.0
248.77594 160.0
248.807327 132.0
248.860703 180.0
248.914078 108.0
248.938416 144.0
249.014572 156.0
249.055405 140.0
249.100571 224.0
249.184204 136.0
249.269043 116.0
249.306763 92.0
249.363327 224.0
249.38533 132.0
249.542511 40.0
249.746918 120.0
249.82254 192.0
249.888489 52.0
250.064713 76.0
250.115067 172.0
250.527145 56.0
250.678833 244.0
250.73555 48.0
250.84903 96.0
250.906937 152.0
251.344193 144.0
251.719833 120.0
251.839844 96.0
252.000946 64.0
252.068039 156.0
252.095749 108.0
252.785141 56.0
252.819946 148.0
252.861084 132.0
252.956039 152.0
253.149185 136.0
253.185486 116.0
253.722687 292.0
253.859039 160.0
253.94783 140.0
253.976379 164.0
254.100098 112.0
254.506378 92.0
254.72551 140.0
254.820816 40.0
254.966995 100.0
255.021027 176.0
255.096603 516.0
255.173615 164.0
255.253098 248.0
255.294434 108.0
255.371582 188.0
255.459839 44.0
255.488464 112.0
255.545731 84.0
255.66983 92.0
255.692108 116.0
255.806702 132.0
255.841721 84.0
255.886292 160.0
255.908585 140.0
256.060547 2004.0
256.098206 1144.0
256.175476 184.0
256.207947 92.0
256.462891 100.0
256.654175 192.0
256.701996 164.0
256.816803 276.0
257.063538 980.0
257.115875 284.0
257.228455 84.0
257.388062 36.0
257.44458 184.0
257.560547 124.0
257.602051 56.0
257.640411 196.0
257.950378 60.0
258.030304 128.0
258.075592 392.0
258.114075 596.0
258.137848 144.0
258.362915 64.0
258.484497 96.0
258.564514 40.0
258.599701 136.0
258.650909 100.0
258.916656 120.0
258.955109 124.0
259.059631 244.0
259.098969 496.0
259.154785 108.0
259.265869 164.0
259.583252 68.0
259.660217 156.0
259.72757 144.0
259.769257 48.0
259.827026 100.0
259.904022 72.0
260.012634 132.0
260.051636 76.0
260.094025 1800.0
260.157562 32.0
260.318115 68.0
260.665039 144.0
260.755035 52.0
261.05249 124.0
261.1008 924.0
261.298462 32.0
261.494781 120.0
261.790955 248.0
262.019653 144.0
262.071198 264.0
262.10199 164.0
262.212982 132.0
262.390289 192.0
262.546631 68.0
263.051636 80.0
263.103302 140.0
263.216309 124.0
263.251801 120.0
263.284119 128.0
263.416534 72.0
263.759064 48.0
263.804321 100.0
264.109863 156.0
264.134155 160.0
264.185913 196.0
264.505676 212.0
264.642273 232.0
265.095764 152.0
265.147614 176.0
265.588562 188.0
266.078857 132.0
266.559296 164.0
266.955872 196.0
267.059967 120.0
267.177063 212.0
267.21936 144.0
267.326721 236.0
267.590973 136.0
267.61319 200.0
267.753204 152.0
267.847656 116.0
267.929108 104.0
267.96698 140.0
268.069214 140.0
268.131134 52.0
268.489746 112.0
268.640778 152.0
268.678955 180.0
268.815979 120.0
269.037933 108.0
269.488647 76.0
269.55072 112.0
269.573608 172.0
269.616089 152.0
269.965881 136.0
269.998596 48.0
270.080353 164.0
270.142517 136.0
270.185028 48.0
270.332275 160.0
270.378113 160.0
270.646515 96.0
270.70874 32.0
270.761139 132.0
270.924927 180.0
271.103699 180.0
271.155151 160.0
271.370636 140.0
271.429657 132.0
271.541168 136.0
271.767517 232.0
271.898773 232.0
271.941467 148.0
271.974274 104.0
272.056335 116.0
272.093842 660.0
272.173157 60.0
272.22052 188.0
272.351868 156.0
272.401154 144.0
272.450439 52.0
272.512848 100.0
272.621307 104.0
272.650879 196.0
272.744202 244.0
272.825989 100.0
272.946747 112.0
272.986206 56.0
273.113434 22504.0
273.177704 160.0
273.204803 56.0
273.25769 52.0
273.323669 88.0
273.392487 48.0
273.422089 96.0
273.512604 60.0
273.53894 36.0
273.591614 76.0
273.636963 148.0
273.720032 100.0
273.833679 264.0
273.884705 132.0
273.951538 248.0
274.0 44.0
274.072571 1176.0
274.11499 5704.0
274.200989 32.0
274.266907 44.0
274.421875 164.0
274.487793 60.0
274.53067 56.0
274.599945 52.0
274.708771 72.0
274.784668 76.0
274.827545 120.0
274.850647 208.0
274.877045 88.0
274.900146 44.0
275.021515 160.0
275.073883 244.0
275.112885 500.0
275.177429 296.0
275.217041 36.0
275.306213 128.0
275.362335 236.0
275.411896 48.0
275.501068 92.0
275.527496 64.0
275.643158 92.0
275.854248 124.0
275.928253 112.0
275.951965 132.0
276.039825 88.0
276.076202 140.0
276.119843 164.0
276.168823 124.0
276.243835 124.0
276.532776 148.0
276.694489 140.0
276.71814 120.0
276.824097 64.0
276.999634 72.0
277.026154 80.0
277.135468 100.0
277.297852 80.0
277.473419 112.0
277.636017 152.0
278.000946 120.0
278.02417 96.0
278.079803 168.0
278.173553 160.0
278.296387 140.0
278.485809 96.0
278.535492 96.0
278.694977 60.0
278.933533 72.0
279.087189 88.0
279.210236 60.0
279.403137 104.0
279.654541 116.0
279.769226 100.0
279.795868 88.0
279.899078 52.0
280.145538 76.0
280.795532 228.0
280.925629 176.0
281.269318 128.0
281.553131 96.0
281.79364 156.0
281.980774 140.0
282.020874 136.0
282.057465 152.0
282.358582 112.0
282.596069 180.0
283.097015 332.0
283.208038 156.0
283.597382 144.0
283.765015 124.0
283.936005 48.0
283.986328 56.0
284.0914 2476.0
284.127441 424.0
284.174194 100.0
284.865784 124.0
284.923309 156.0
285.089294 896.0
285.186157 116.0
285.400146 140.0
285.763428 108.0
285.850891 100.0
286.096375 132.0
286.107178 284.0
286.174042 40.0
286.33905 148.0
286.426636 72.0
286.48053 144.0
286.595062 204.0
286.770325 148.0
286.886414 152.0
287.02652 116.0
287.057251 180.0
287.131073 132.0
287.232239 152.0
287.424561 72.0
287.448181 68.0
287.542664 52.0
287.630432 60.0
287.718201 80.0
287.79248 92.0
287.99173 124.0
288.044006 176.0
288.079559 120.0
288.10321 156.0
288.309326 136.0
288.35025 152.0
288.390442 48.0
288.579742 124.0
288.819855 160.0
288.846924 64.0
289.036377 160.0
289.095215 1404.0
289.164978 96.0
289.18866 56.0
289.286835 164.0
289.613342 132.0
290.103241 4580.0
290.168823 268.0
290.249023 132.0
290.506805 324.0
290.659485 84.0
291.105835 1012.0
291.179688 168.0
291.447266 32.0
291.522003 44.0
291.623962 128.0
291.756531 40.0
292.008575 100.0
292.110901 140.0
292.137421 76.0
292.293945 120.0
292.392639 220.0
292.590057 112.0
292.930603 88.0
293.087311 168.0
293.35849 148.0
293.837433 40.0
293.960266 148.0
294.103607 56.0
294.168457 128.0
294.328949 76.0
294.547516 132.0
294.960968 76.0
295.104553 136.0
295.185852 140.0
295.224243 128.0
295.277863 148.0
295.343964 52.0
295.675842 264.0
295.778534 128.0
296.52652 148.0
296.63147 60.0
296.868042 144.0
297.13559 232.0
297.180206 140.0
297.214508 192.0
297.489075 204.0
298.109833 176.0
298.275726 216.0
298.592072 172.0
298.887909 108.0
298.977386 76.0
299.101288 124.0
299.146545 152.0
299.173584 168.0
299.358398 188.0
299.566162 132.0
299.601593 128.0
299.716064 128.0
299.855591 88.0
300.12558 532.0
300.351318 120.0
300.421112 80.0
300.476288 64.0
300.510162 88.0
300.545746 180.0
300.591736 180.0
300.628113 80.0
300.705902 108.0
300.75238 92.0
300.77887 136.0
300.831757 172.0
300.854462 196.0
300.888031 136.0
300.935333 200.0
301.009766 160.0
301.066559 60.0
301.107788 1808.0
301.191986 104.0
301.215851 152.0
301.256531 100.0
301.287628 192.0
301.35672 152.0
301.386505 116.0
301.418915 96.0
301.511322 208.0
301.555328 68.0
301.64389 128.0
301.679779 204.0
301.735382 224.0
301.758362 156.0
301.782898 156.0
301.803619 208.0
301.826904 140.0
301.860565 216.0
301.936401 232.0
301.970642 200.0
302.044281 388.0
302.104675 108004.0
302.190063 164.0
302.246735 144.0
302.303406 76.0
302.338043 88.0
302.366821 80.0
302.428467 132.0
302.434174 100.0
302.480988 80.0
302.533234 68.0
302.586792 124.0
302.630249 132.0
302.67511 268.0
302.717834 152.0
302.754395 252.0
302.778992 76.0
302.836182 132.0
302.875549 140.0
302.891907 80.0
302.901184 120.0
302.914703 132.0
302.921448 112.0
302.972107 232.0
303.000977 152.0
303.024414 240.0
303.053162 80.0
303.106903 18408.0
303.174835 156.0
303.206543 100.0
303.2388 60.0
303.249847 68.0
303.291321 176.0
303.348022 76.0
303.39035 156.0
303.431702 160.0
303.507568 60.0
303.538055 60.0
303.566925 88.0
303.641998 144.0
303.69754 256.0
303.746521 68.0
303.821808 100.0
303.849579 56.0
303.907959 72.0
303.991821 92.0
304.017853 80.0
304.059387 204.0
304.107056 2704.0
304.165497 96.0
304.207855 100.0
304.245331 100.0
304.274719 56.0
304.318115 96.0
304.342407 40.0
304.43692 76.0
304.474365 76.0
304.540375 116.0
304.569763 80.0
304.595947 76.0
304.641113 72.0
304.677765 72.0
304.736237 204.0
304.818878 148.0
304.851166 104.0
304.900146 72.0
304.921906 224.0
304.954193 100.0
304.991852 80.0
305.033783 100.0
305.072021 28.0
305.117035 384.0
305.146423 96.0
305.202301 120.0
305.227631 84.0
305.254639 92.0
305.277161 228.0
305.316681 132.0
305.327698 280.0
305.379669 144.0
305.437164 88.0
305.464996 92.0
305.512848 64.0
305.597198 88.0
305.649384 44.0
305.701569 64.0
305.792053 56.0
305.983521 52.0
306.049683 28.0
306.077515 40.0
306.131866 92.0
306.195923 56.0
306.258636 72.0
306.363129 92.0
306.439758 92.0
306.607025 108.0
306.634918 68.0
306.690674 88.0
306.753418 120.0
306.802246 64.0
306.941711 76.0
306.994019 76.0
307.147461 72.0
307.24762 128.0
307.44754 40.0
307.538269 128.0
307.70932 60.0
308.208801 44.0
309.040649 88.0
309.364716 208.0
309.439972 128.0
309.912811 44.0
309.937347 60.0
310.056488 112.0
310.459656 72.0
310.698181 88.0
310.898193 132.0
311.284332 160.0
311.361603 60.0
311.546631 100.0
311.983551 172.0
312.12442 560.0
312.810242 164.0
312.905304 108.0
313.07959 696.0
313.138733 184.0
313.176453 144.0
313.222229 88.0
313.426575 60.0
313.606323 100.0
313.8284 72.0
313.874237 72.0
314.071747 148.0
314.180573 104.0
314.304596 112.0
315.189636 156.0
315.222687 228.0
315.618591 240.0
315.81311 112.0
315.87677 140.0
316.155304 568.0
316.289032 96.0
316.343872 228.0
316.382812 144.0
316.82196 96.0
317.120728 104.0
317.149567 124.0
317.268494 36.0
317.321686 88.0
317.828888 140.0
317.988251 196.0
318.063141 96.0
318.091522 116.0
318.127014 116.0
318.270874 148.0
318.361359 64.0
318.443054 196.0
318.496338 112.0
318.607697 148.0
318.862305 128.0
318.894287 48.0
319.569946 188.0
320.281952 64.0
320.862823 160.0
321.019714 64.0
321.647644 148.0
321.733337 140.0
322.0047 104.0
323.09137 168.0
323.417023 168.0
323.656891 96.0
323.775055 148.0
324.233643 176.0
325.728119 128.0
325.859161 144.0
326.146667 108.0
326.290466 180.0
326.326416 80.0
326.527771 36.0
327.197083 104.0
327.395111 136.0
327.71933 156.0
327.928345 76.0
328.285248 52.0
328.613495 132.0
329.165771 132.0
329.342743 80.0
329.693176 136.0
329.910065 156.0
330.136658 708.0
330.21167 88.0
330.222504 148.0
330.810852 72.0
330.901337 116.0
331.141876 176.0
331.607727 136.0
331.71286 208.0
331.966644 140.0
332.147827 392.0
332.300354 128.0
333.033661 152.0
333.069977 92.0
335.256653 96.0
335.387848 112.0
335.861877 84.0
336.011444 100.0
336.36908 148.0
336.953369 264.0
337.099548 180.0
337.190918 52.0
337.355377 68.0
338.035706 72.0
338.262604 156.0
339.526703 108.0
340.014648 192.0
340.06604 76.0
340.151337 540.0
340.205505 152.0
340.418488 60.0
340.50293 84.0
340.532318 40.0
340.855621 176.0
340.918091 108.0
341.15213 300.0
341.451172 124.0
341.712341 88.0
342.129272 200.0
342.163544 344.0
342.194489 336.0
342.469452 60.0
342.573822 176.0
344.495789 132.0
344.602936 200.0
345.553131 172.0
346.368042 96.0
347.24234 60.0
347.828583 176.0
350.480286 100.0
350.894012 96.0
351.50943 160.0
351.920044 92.0
352.11795 124.0
352.177704 156.0
352.203857 124.0
352.43219 132.0
352.5289 192.0
352.917664 200.0
353.06723 144.0
354.459839 48.0
354.566986 148.0
354.898407 128.0
355.333466 72.0
355.382263 128.0
355.671234 88.0
355.855164 124.0
356.088013 72.0
356.114288 40.0
356.200684 96.0
356.339691 36.0
356.406311 164.0
356.55011 112.0
356.644073 136.0
356.681671 68.0
356.899719 128.0
356.944183 68.0
356.993713 80.0
357.021851 184.0
357.193054 124.0
357.369873 112.0
357.467712 140.0
357.530548 132.0
357.618256 104.0
357.658783 136.0
357.708588 136.0
357.761292 92.0
357.844025 168.0
357.881683 164.0
357.975922 76.0
358.049561 188.0
358.081787 212.0
358.110168 152.0
358.167297 44932.0
358.282806 168.0
358.348816 172.0
358.403839 92.0
358.427795 188.0
358.468079 160.0
358.573578 100.0
358.635345 204.0
358.664215 132.0
358.705963 52.0
358.786774 92.0
358.871429 168.0
358.925507 60.0
358.972168 76.0
359.003662 304.0
359.034882 80.0
359.068054 136.0
359.095215 212.0
359.169342 8904.0
359.23407 84.0
359.28125 60.0
359.37381 124.0
359.430969 60.0
359.476257 88.0
359.566193 72.0
359.62207 44.0
359.655182 64.0
359.725952 80.0
359.754852 48.0
359.808411 84.0
359.873413 128.0
359.951233 92.0
360.012329 120.0
360.057648 52.0
360.107117 80.0
360.169952 2200.0
360.27005 68.0
360.340942 44.0
360.371155 52.0
360.401398 52.0
360.446747 72.0
360.493774 80.0
360.627991 100.0
360.654602 136.0
360.730194 92.0
360.794464 144.0
360.820923 32.0
361.005737 96.0
361.029358 120.0
361.165833 484.0
361.225586 96.0
361.263397 144.0
361.344849 68.0
361.380676 56.0
361.418518 56.0
361.463074 52.0
361.524475 104.0
361.598663 188.0
361.645599 84.0
361.682434 76.0
361.770508 92.0
361.891663 112.0
361.948456 48.0
361.992706 64.0
362.198425 124.0
362.539398 136.0
362.599243 132.0
362.8237 88.0
362.963989 108.0
363.051208 32.0
363.081543 52.0
363.350861 44.0
363.445709 76.0
363.479858 40.0
363.53299 64.0
363.650635 64.0
363.696198 100.0
363.806274 96.0
363.888245 128.0
363.965729 36.0
364.012238 128.0
364.075867 112.0
364.375946 60.0
364.946045 64.0
365.227478 112.0
365.383453 96.0
365.539429 72.0
366.438049 60.0
366.544739 64.0
366.601898 92.0
366.769592 216.0
366.914459 60.0
367.181396 52.0
367.64682 108.0
367.749878 112.0
367.788025 72.0
368.341705 160.0
368.700867 88.0
368.777313 88.0
368.857574 56.0
368.999023 88.0
369.201904 148.0
369.270538 108.0
369.308777 80.0
369.335571 124.0
369.448517 204.0
369.477112 88.0
369.565094 80.0
369.597961 96.0
369.633972 96.0
369.967407 68.0
370.055023 104.0
370.141449 11764.0
370.205536 156.0
370.235504 60.0
370.369995 80.0
370.491638 148.0
370.576294 120.0
370.650818 116.0
370.740692 124.0
370.790497 96.0
370.874817 64.0
370.911835 68.0
370.943573 60.0
371.079071 144.0
371.143311 3340.0
371.197815 228.0
371.360718 100.0
371.436066 44.0
371.510406 144.0
371.710907 68.0
371.810669 56.0
371.868256 36.0
372.143127 648.0
372.279022 160.0
372.316101 196.0
372.398102 52.0
372.455719 64.0
372.49411 60.0
372.697754 56.0
373.037415 52.0
373.099426 148.0
373.160583 124.0
373.276245 40.0
373.362762 80.0
373.578186 112.0
373.703094 212.0
373.78595 48.0
374.186249 104.0
374.347961 64.0
374.713898 56.0
374.914246 84.0
375.446259 200.0
375.753235 76.0
375.940063 116.0
376.615723 40.0
377.253326 88.0
377.291962 56.0
378.007538 52.0
378.139099 48.0
378.390717 52.0
380.561951 88.0
384.134644 80.0
387.461517 104.0
388.476868 92.0
389.560364 52.0
390.865662 108.0
391.278961 124.0
391.952484 120.0
393.790863 176.0
396.081024 76.0
398.882507 56.0
401.921265 100.0
403.107239 132.0
406.503052 188.0
406.868317 72.0
409.264587 88.0
410.582306 76.0
411.352966 88.0
413.313141 128.0
413.956757 68.0
414.702209 124.0
417.487335 68.0
417.572723 180.0
421.657959 92.0
421.899139 96.0
422.201721 92.0
422.688538 124.0
423.85965 44.0
423.949799 68.0
424.249023 108.0
424.769806 112.0
424.938019 124.0
425.381256 112.0
425.56189 68.0
425.730255 88.0
425.840607 156.0
425.87854 148.0
426.0383 208.0
426.104034 168.0
426.203491 7756.0
426.305389 176.0
426.482086 36.0
426.625977 136.0
426.741089 88.0
426.88501 76.0
426.930237 32.0
427.04129 100.0
427.086517 60.0
427.127655 48.0
427.156464 140.0
427.208496 1392.0
427.349823 52.0
427.415649 44.0
427.522644 48.0
427.654358 88.0
427.687286 76.0
427.728424 36.0
427.769592 44.0
427.868408 44.0
428.203156 624.0
428.259613 296.0
428.362579 80.0
428.616089 60.0
428.836456 76.0
429.368317 68.0
429.628174 88.0
430.284363 72.0
431.292328 100.0
431.858795 148.0
432.396667 36.0
435.315247 56.0
436.686707 72.0
437.206757 124.0
437.381561 52.0
438.085297 96.0
439.144073 80.0
442.348969 56.0
443.119537 72.0
445.376495 44.0
448.140411 56.0
448.544983 40.0
448.629303 104.0
452.075897 76.0
456.292145 40.0
456.670624 92.0
457.794189 64.0
459.268829 48.0
459.494904 68.0
461.207336 128.0
465.934021 136.0
466.866791 132.0
472.482849 72.0
473.907288 100.0
474.626801 100.0
476.619171 128.0
477.205963 60.0
484.253601 176.0
492.332855 60.0
494.127502 60.0
496.763458 76.0
496.88324 92.0
499.486481 116.0
500.314209 36.0
503.460693 60.0
505.039886 104.0
511.667938 132.0
513.136658 84.0
515.583252 60.0
519.558838 52.0
520.611877 84.0
523.190002 96.0
525.099243 60.0
527.327332 88.0
527.66333 20.0
535.899597 88.0
542.573486 72.0
543.032532 72.0
543.877014 72.0
550.983276 96.0
552.558838 68.0
553.682251 100.0
554.150696 48.0
558.055725 100.0
563.882263 36.0
564.875183 60.0
570.86554 112.0
572.774048 88.0
574.924377 100.0
580.377686 68.0
583.238953 36.0
586.733826 56.0
587.095459 48.0
587.148499 112.0
591.971558 40.0
593.328247 80.0
598.088867 88.0
598.195984 80.0
600.10083 56.0
600.339783 108.0
600.632385 52.0
601.486328 60.0
604.33551 96.0
607.50531 68.0
610.550659 80.0
617.662964 124.0
621.820068 56.0
623.384399 96.0
625.129883 40.0
626.643616 84.0
629.796387 64.0
636.738281 124.0
636.83374 64.0
645.416077 60.0
646.51886 72.0
648.49408 76.0
653.389282 104.0
654.814575 116.0
660.633545 40.0
672.02887 68.0
673.882446 88.0
675.981812 140.0
676.442444 56.0
682.387695 36.0
684.66687 92.0
688.865662 40.0
691.302124 108.0
695.578918 36.0
701.581177 40.0
702.567383 92.0
705.207642 112.0
707.032288 76.0
707.153992 136.0
708.716187 28.0
715.967224 60.0
720.127258 92.0
722.682495 28.0
730.208801 60.0
730.757507 76.0
736.79541 224.0
736.893127 160.0
738.157959 60.0
741.980591 96.0
745.63916 60.0
745.720703 68.0
749.170593 84.0
749.290405 160.0
753.638855 64.0
760.473267 188.0
762.560364 208.0
762.862732 84.0
770.639038 44.0
775.608643 40.0
777.649841 64.0
780.488586 68.0
781.745789 80.0
782.641968 76.0
786.834717 120.0
794.793762 72.0
800.994873 120.0
806.451172 96.0
808.283508 176.0
816.310181 116.0
819.098999 136.0
823.371033 84.0
823.542358 36.0
824.822266 140.0
830.697449 88.0
830.829407 52.0
831.139221 140.0
831.472046 124.0
833.326843 48.0
833.504944 88.0
834.016418 36.0
835.966125 88.0
837.059875 104.0
842.920593 92.0
845.065796 44.0
846.298645 212.0
847.538147 184.0
850.698975 148.0
850.797668 276.0
859.924988 56.0
861.390564 164.0
865.291199 124.0
866.855103 208.0
868.244507 76.0
868.836914 112.0
869.417786 192.0
877.187561 48.0
877.88324 84.0
881.111938 168.0
883.464905 116.0
887.160217 148.0
890.988037 144.0
893.818176 92.0
896.712402 76.0
902.305664 184.0
904.363464 164.0
904.97406 108.0
906.285828 64.0
908.216187 52.0
908.972107 180.0
909.368164 180.0
912.455811 48.0
919.950195 160.0
921.375427 132.0
921.725891 220.0
921.91925 56.0
924.447021 188.0
926.723816 160.0
929.252075 60.0
929.792175 68.0
931.571228 144.0
933.747253 272.0
934.112183 44.0
934.452881 96.0
935.822327 140.0
936.114563 200.0
937.460876 84.0
944.579834 248.0
945.987305 208.0
946.158691 92.0
948.633667 128.0
952.634705 184.0
954.26947 220.0
955.413391 124.0
958.984924 164.0
959.077393 180.0
961.562988 180.0
964.397949 156.0
966.642883 132.0
967.682739 184.0
967.775635 248.0
968.240051 192.0
972.679443 172.0
975.114258 104.0
975.555542 108.0
975.81665 76.0
976.718384 140.0
978.828186 228.0
979.79364 148.0
979.968079 140.0
981.320557 188.0
984.596558 72.0
984.952576 36.0
986.514832 108.0
989.423828 212.0
989.536499 188.0
990.450806 160.0
991.898315 180.0
992.644348 128.0
995.813599 192.0
995.895264 160.0
996.881592 44.0
998.5979 212.0
999.170349 68.0
1000.095398 100.0
1002.167236 140.0
1006.235352 228.0
1006.330078 88.0
1006.481567 100.0
1006.538391 156.0
1009.255493 108.0
1010.476196 140.0
1012.026855 192.0
1012.337097 188.0
1014.072998 180.0
1018.120667 92.0
1018.496094 192.0
1019.511963 196.0
1019.861511 64.0
1020.955078 152.0
1023.035706 108.0
1023.90802 148.0
1026.731323 80.0
1027.082031 104.0
1030.139648 208.0
1032.747681 120.0
1033.425781 92.0
1033.899292 148.0
1036.127563 72.0
1036.986206 84.0
1038.44812 176.0
1039.46167 168.0
1039.840332 212.0
1039.949463 152.0
1040.867432 44.0
1041.374878 140.0
1042.27417 156.0
1042.454102 144.0
1044.299194 152.0
1044.743042 128.0
1044.987549 128.0
1047.788208 180.0
1051.980469 260.0
1052.089722 120.0
1054.686646 188.0
1056.471313 156.0
1057.467773 116.0
1058.387085 184.0
1065.28125 164.0
1065.775024 180.0
1067.211426 164.0
1070.158936 128.0
1072.113037 188.0
1072.315063 104.0
1074.290771 132.0
1074.408203 44.0
1075.609009 200.0
1076.653687 152.0
1081.805908 156.0
1081.930298 128.0
1082.5 36.0
1086.419434 60.0
1088.086426 152.0
1088.138916 152.0
1089.905762 196.0
1090.08313 188.0
1090.175171 44.0
1090.470947 132.0
1092.193604 260.0
1092.358032 120.0
1093.733276 208.0
1094.167725 132.0
1094.345459 176.0
1095.893311 180.0
1096.618164 156.0
1098.240234 144.0
1103.126465 168.0
1103.642212 188.0
1106.162842 144.0
1106.950684 244.0
1107.401001 192.0
1108.35498 196.0
1109.607666 172.0
1112.108521 144.0
1112.466919 120.0
1113.170776 84.0
1113.695435 176.0
1116.726318 196.0
1121.873535 172.0
1124.247925 164.0
1126.404541 84.0
1127.573853 132.0
1128.549805 132.0
1132.156494 132.0
1133.905151 152.0
1135.675171 140.0
1136.22522 196.0
1136.829102 52.0
1138.446899 180.0
1139.474609 156.0
1140.576782 44.0
1140.643921 104.0
1141.09436 236.0
1142.150146 116.0
1142.735474 172.0
1143.765137 56.0
1143.845825 220.0
1144.14209 144.0
1145.071289 172.0
1146.391724 100.0
1147.605103 84.0
1150.708618 176.0
1152.494263 32.0
1154.465576 116.0
1156.711792 256.0
1157.287354 116.0
1158.09314 160.0
1158.777344 124.0
1158.919678 136.0
1161.834961 236.0
1162.96814 116.0
1163.619873 148.0
1163.979736 120.0
1164.563721 272.0
1167.520142 188.0
1167.758179 88.0
1167.887451 192.0
1168.676636 160.0
1168.778687 84.0
1169.220947 148.0
1172.415039 156.0
1172.987549 156.0
1174.003418 144.0
1175.770386 144.0
1176.985474 172.0
1177.162964 104.0
1177.251709 200.0
1179.294556 112.0
1179.424316 140.0
1182.112183 140.0
1182.536499 184.0
1183.159424 144.0
1183.768799 112.0
1184.296143 204.0
1185.542969 136.0
1186.440918 100.0
1188.210327 224.0
1188.621948 104.0
1189.424927 56.0
1190.928711 228.0
1191.498901 100.0
1192.852661 160.0
1195.307983 132.0
1195.769043 80.0
1197.118408 144.0
1198.537354 180.0
1200.68811 156.0
1202.192139 144.0
1203.103149 172.0
1204.746826 188.0
1205.651978 116.0
1208.61853 168.0
1209.954346 108.0
1210.058105 272.0
1210.668945 136.0
1211.637207 72.0
1212.392456 204.0
1214.826172 140.0
1216.241699 136.0
1219.610474 128.0
1219.979004 144.0
1220.131836 176.0
1220.618652 152.0
1224.655029 204.0
1225.734863 136.0
1226.585083 252.0
1227.100952 152.0
1227.393799 212.0
1228.405151 164.0
1228.872559 132.0
1228.921387 172.0
1229.046997 116.0
1229.702881 140.0
1230.638306 144.0
1232.049194 212.0
1232.44043 220.0
1234.887085 132.0
1234.999023 120.0
1235.047974 136.0
1236.874268 128.0
1238.113525 180.0
1238.743896 100.0
1238.947021 192.0
1239.024048 196.0
1239.759888 196.0
1243.575073 48.0
1245.534058 108.0
1246.637085 168.0
1253.730713 172.0
1253.942139 68.0
1255.831665 152.0
1256.226685 204.0
1257.031006 144.0
1258.718018 148.0
1258.901611 128.0
1261.289673 176.0
1263.807373 192.0
1264.239014 148.0
1264.720215 148.0
1265.229858 196.0
1266.717041 136.0
1268.594971 124.0
1269.559204 144.0
1269.630127 176.0
1271.559814 224.0
1271.744385 228.0
1276.006592 68.0
1276.326538 216.0
1276.546997 152.0
1279.435669 256.0
1281.116333 188.0
1281.757568 168.0
1282.056885 156.0
1282.391846 204.0
1283.425537 44.0
1285.522705 204.0
1286.150757 160.0
1287.207397 44.0
1288.864502 164.0
1289.379028 220.0
1290.680054 124.0
1292.92627 112.0
1293.842529 124.0
1294.135986 152.0
1294.436768 84.0
1295.976807 144.0
1296.288452 192.0
1297.252441 188.0
1297.639648 80.0
1298.414062 56.0
1299.095459 244.0
1299.626343 204.0
1299.676636 136.0
1299.769897 188.0
1301.535645 108.0
1302.43335 68.0
1302.490845 156.0
1302.964966 144.0
1305.083496 168.0
1306.861694 208.0
1306.984009 100.0
1307.264648 184.0
1307.797241 172.0
1309.057129 204.0
1309.247559 240.0
1311.448975 240.0
1312.854858 44.0
1313.60498 208.0
1313.951294 236.0
1315.430664 148.0
1316.037109 164.0
1316.794678 176.0
1316.997559 108.0
1317.308105 96.0
1317.835571 220.0
1319.165283 192.0
1319.252075 212.0
1319.447266 252.0
1321.595337 156.0
1322.514404 120.0
1324.114502 132.0
1325.164795 60.0
1328.180542 136.0
1329.268799 140.0
1330.451904 156.0
1331.853394 160.0
1335.131226 164.0
1335.502197 156.0
1336.695312 60.0
1336.928101 160.0
1340.671265 172.0
1341.400146 48.0
1342.515747 156.0
1342.807373 124.0
1343.682739 152.0
1344.697021 252.0
1344.762695 232.0
1345.478149 56.0
1346.850952 152.0
1347.800659 148.0
1347.96875 144.0
1348.326782 380.0
1348.385254 200.0
1351.537109 208.0
1352.898438 216.0
1353.264404 132.0
1353.659912 188.0
1355.293335 152.0
1356.363281 200.0
1358.071777 132.0
1359.194214 120.0
1359.942749 112.0
1360.941162 140.0
1361.756226 224.0
1363.967896 128.0
1364.144287 184.0
1364.600098 92.0
1364.680908 104.0
1366.718384 152.0
1367.851685 36.0
1368.249268 164.0
1368.816162 156.0
1369.015015 120.0
1373.355957 144.0
1373.503418 216.0
1374.68396 200.0
1374.787231 200.0
1375.119263 176.0
1378.848999 100.0
1379.462524 104.0
1380.519775 176.0
1381.459106 160.0
1381.525757 72.0
1382.806519 248.0
1384.946411 184.0
1385.804932 112.0
1385.930908 196.0
1386.219849 132.0
1386.812744 160.0
1387.880249 116.0
1388.866577 176.0
1388.925903 116.0
1392.139526 84.0
1392.369751 132.0
1393.328003 140.0
1395.111572 188.0
1395.654297 92.0
1396.026123 132.0
1398.019775 132.0
1398.585449 152.0
1399.970215 108.0
1400.20105 64.0
1401.132202 208.0
1401.862427 168.0
1402.473511 132.0
1402.861084 220.0
1403.047485 144.0
1403.204102 136.0
1403.748413 88.0
1404.949219 224.0
1406.083374 248.0
1406.628296 192.0
1407.180664 160.0
1407.471924 132.0
1409.436279 224.0
1409.787598 160.0
1411.402222 192.0
1411.648926 148.0
1412.546387 144.0
1412.688599 128.0
1412.883057 192.0
1413.002808 152.0
1413.893188 192.0
1416.401489 52.0
1418.102295 212.0
1418.342163 168.0
1421.259399 172.0
1421.754761 176.0
1422.790527 236.0
1423.789185 88.0
1425.043701 116.0
1425.148804 144.0
1427.471436 188.0
1427.937744 132.0
1430.970337 164.0
1431.821167 84.0
1433.847778 176.0
1437.595947 88.0
1439.120605 132.0
1440.517822 180.0
1441.197754 180.0
1442.391846 292.0
1442.921021 144.0
1443.057129 136.0
1446.264648 160.0
1446.62793 100.0
1446.688477 196.0
1447.748535 180.0
1448.028687 228.0
1449.248291 184.0
1449.35437 156.0
1451.226562 128.0
1451.825684 140.0
1452.614868 212.0
1452.986206 92.0
1453.737305 236.0
1456.394531 160.0
1456.987061 164.0
1457.838013 136.0
1458.005249 108.0
1458.666504 220.0
1459.03894 208.0
1459.449585 132.0
1462.226196 164.0
1462.522949 32.0
1462.713257 200.0
1462.918823 188.0
1462.987305 96.0
1463.086304 212.0
1463.923828 124.0
1464.038086 208.0
1465.424438 160.0
1465.538696 204.0
1466.445557 128.0
1467.787231 72.0
1470.922852 144.0
1472.3125 164.0
1474.077148 156.0
1474.22229 72.0
1475.766357 188.0
1476.668701 164.0
1477.502441 60.0
1478.673218 124.0
1479.90564 140.0
1480.51062 156.0
1480.901245 216.0
1481.782104 120.0
1484.395874 80.0
1484.809937 172.0
1485.745728 188.0
1486.067993 344.0
1490.160278 128.0
1491.98938 148.0
1492.135498 120.0
1492.358398 136.0
1493.865845 172.0
1495.089111 172.0
1495.266113 160.0
1497.868652 124.0
1498.292358 92.0
1499.047363 200.0
1500.057007 152.0
1500.60437 116.0
1500.696899 84.0
1500.997681 188.0
1501.668579 152.0
1502.910522 156.0
1503.145386 148.0
