>compound Docetaxel (Taxotere)
>formula C43H53NO14
>ionization [M+H]+
>parentmass 808.3538818280905
#inchi InChI=1S/C43H53NO14/c1-22-26(55-37(51)32(48)30(24-15-11-9-12-16-24)44-38(52)58-39(3,4)5)20-43(53)35(56-36(50)25-17-13-10-14-18-25)33-41(8,34(49)31(47)29(22)40(43,6)7)27(46)19-28-42(33,21-54-28)57-23(2)45/h9-18,26-28,30-33,35,46-48,53H,19-21H2,1-8H3,(H,44,52)/t26-,27+,28-,30+,31-,32-,33?,35-,41+,42-,43+/m1/s1
#inchikey ZDZOTLJHXYCWBA
#Ion_Source LC-ESI
#Instrument qTof
#Compound_Source Commercial
#PI Dorrestein
#Data_Collector Garg_Neha
#Scan -1
#Precursor_MZ 808.354
#ExactMass 807.347
#Charge 1
#CAS_Number 114977-28-5, 148408-66-6 (3H2O)
#Pubmed_ID N/A
#Smiles C1=CC=CC=C1C(=O)O[C@H]2[C@]3(C[C@H](C(=C([C@H](C([C@]4([C@H](C[C@@H]5[C@](C42)(OC(C)=O)CO5)O)C)=O)O)C(C)(C)3)C)OC([C@@H]([C@H](C6=CC=CC=C6)NC(OC(C)(C)C)=O)O)=O)O
#INCHI_AUX N/A
#Library_Class 1
#SpectrumID CCMSLIB00000078025
#IonMode Positive
#UpdateWorkflowName UPDATE-SINGLE-ANNOTATED-GOLD
#LibraryQualityString Gold
#TaskID 77f51c88eb8b467eb4a01dd2d0cb90d2
##Scan# 1742
#SpectrumFile Plate1_21_40_GG2_01_16489.mzXML
#LibraryName FDALibrary_2_04302014.mgf
#MQScore -1
#Organism FDALibrary_2_04302014
#TIC_Query 0
#RT_Query -1
#MZErrorPPM -1
#SharedPeaks 0
#MassDiff 0
#LibMZ -1
#SpecMZ 808.354
#SpecCharge 0
#internalFilename spec-00000.mgf

>collision 10
45.297668 220.0
45.742157 208.0
45.773125 140.0
46.370258 144.0
47.338924 148.0
47.502029 196.0
48.330059 152.0
49.059235 164.0
49.388794 220.0
50.093479 208.0
50.906422 164.0
51.166981 200.0
52.089409 160.0
52.257618 208.0
52.602066 212.0
53.308884 144.0
53.378662 188.0
53.409203 180.0
53.772011 236.0
54.077488 144.0
54.420528 176.0
54.772018 168.0
55.361336 248.0
55.582218 196.0
55.940411 200.0
56.248989 156.0
56.375946 196.0
58.009087 184.0
58.119801 248.0
58.169888 152.0
58.438892 224.0
59.448963 156.0
59.770134 200.0
60.001175 204.0
60.504837 160.0
60.769871 184.0
60.866108 176.0
61.37962 160.0
62.091179 152.0
63.016808 160.0
63.157509 164.0
63.455235 200.0
63.710758 148.0
63.753662 192.0
64.614731 208.0
65.290062 212.0
65.871933 236.0
67.134727 152.0
67.278313 188.0
67.737846 184.0
68.887749 164.0
69.117561 240.0
70.040657 176.0
70.629982 176.0
70.780533 192.0
70.845856 172.0
71.810738 180.0
72.030174 156.0
72.393814 176.0
72.441246 156.0
72.761772 160.0
73.29245 220.0
73.727608 160.0
74.076668 232.0
74.354439 224.0
74.471191 168.0
74.488373 224.0
75.285851 172.0
75.591835 348.0
75.870705 144.0
76.028549 196.0
76.063271 192.0
76.080627 156.0
76.195251 156.0
76.489151 180.0
76.600601 156.0
77.160812 184.0
77.222015 144.0
77.516136 168.0
78.348991 180.0
78.387756 176.0
79.266029 264.0
79.503662 168.0
79.885681 144.0
80.031624 196.0
81.026489 148.0
81.953606 148.0
81.973427 172.0
82.43541 244.0
82.829834 204.0
83.270607 220.0
84.126442 176.0
84.331032 192.0
84.59993 148.0
84.65303 144.0
84.715302 200.0
84.904099 168.0
84.997658 160.0
86.061607 192.0
86.773956 232.0
86.948334 152.0
87.147026 156.0
87.26413 144.0
87.735168 216.0
89.388603 216.0
89.835632 220.0
90.200104 144.0
91.054794 672.0
91.085045 216.0
91.263695 176.0
92.058319 188.0
92.438744 148.0
92.745178 268.0
94.030037 160.0
94.082153 168.0
94.199951 196.0
94.453186 148.0
94.666092 144.0
95.051857 248.0
95.086792 156.0
95.133377 296.0
95.531769 140.0
95.749779 168.0
95.85498 156.0
96.575394 204.0
96.888603 220.0
97.027756 172.0
97.337776 228.0
97.498863 228.0
97.528343 148.0
98.580811 376.0
99.329231 148.0
99.95285 168.0
100.908524 200.0
101.026527 160.0
101.162605 184.0
102.310944 148.0
102.488182 148.0
102.721466 204.0
103.04937 192.0
103.073364 176.0
103.091553 140.0
103.20475 192.0
104.057777 152.0
104.940819 204.0
105.033409 1688.0
105.070114 520.0
106.040726 392.0
106.066574 312.0
106.543388 148.0
106.886757 196.0
107.045265 176.0
107.08802 232.0
107.562775 184.0
109.027161 148.0
109.061729 120.0
109.120705 180.0
109.436966 188.0
110.2547 200.0
110.595619 264.0
111.086578 204.0
111.40506 232.0
111.447083 240.0
112.093086 160.0
112.29126 144.0
112.485382 152.0
113.805695 96.0
114.171997 292.0
114.384766 172.0
114.896233 168.0
115.111816 148.0
115.244247 152.0
115.267754 228.0
116.641594 164.0
118.064659 200.0
118.239899 172.0
118.296181 148.0
119.047722 884.0
119.089874 188.0
120.036545 232.0
120.85569 220.0
121.063797 620.0
121.099678 240.0
122.073776 416.0
122.103935 224.0
122.376808 148.0
123.040459 140.0
123.084373 156.0
123.387321 184.0
124.304337 172.0
125.06443 240.0
125.596977 192.0
125.675064 184.0
126.777504 156.0
129.94577 228.0
130.000229 160.0
130.996109 148.0
131.048447 132.0
131.085068 352.0
131.977509 164.0
132.032394 200.0
132.101013 248.0
132.258911 184.0
132.343613 180.0
132.719391 200.0
133.064148 632.0
133.101639 472.0
133.332336 184.0
133.603668 176.0
133.932556 212.0
134.071091 176.0
134.104111 160.0
135.081284 512.0
135.116913 188.0
135.242096 184.0
136.074127 352.0
136.146332 216.0
136.206711 216.0
137.059875 164.0
137.094009 1124.0
137.414978 152.0
137.510651 160.0
137.795547 192.0
138.074509 180.0
138.429504 184.0
139.074707 200.0
139.114105 164.0
139.367752 160.0
139.680435 200.0
139.732193 184.0
139.913422 192.0
139.944031 180.0
140.059433 176.0
140.788239 216.0
141.01741 228.0
141.05275 332.0
141.251495 248.0
141.327209 160.0
142.00238 212.0
142.218292 184.0
142.265778 200.0
142.422501 168.0
142.966965 256.0
143.082932 552.0
143.293198 252.0
144.176102 200.0
145.018295 200.0
145.065689 364.0
145.100906 156.0
145.575195 172.0
145.793808 152.0
145.834671 180.0
146.481964 204.0
146.604843 156.0
146.870056 216.0
147.042145 664.0
147.081436 836.0
147.108948 180.0
147.128265 176.0
147.655045 148.0
148.050552 220.0
148.083435 172.0
149.034424 172.0
149.060287 800.0
149.096542 564.0
149.934814 144.0
150.022568 152.0
150.064011 196.0
150.099457 164.0
151.075333 564.0
151.109192 648.0
151.565674 136.0
152.099472 164.0
152.118576 184.0
152.917984 176.0
153.055847 184.0
153.252899 160.0
153.472275 208.0
153.509262 184.0
153.795456 152.0
155.083588 220.0
155.226105 156.0
155.515747 156.0
155.674637 160.0
155.935501 144.0
156.099594 180.0
156.604813 208.0
156.711945 160.0
157.026047 140.0
157.101425 144.0
157.153275 152.0
157.680252 136.0
157.76767 148.0
157.940216 148.0
158.083389 196.0
158.18045 232.0
159.080582 1020.0
160.620483 172.0
160.779434 212.0
161.034439 200.0
161.058044 164.0
161.097626 660.0
161.160751 196.0
161.335144 152.0
161.516052 156.0
161.603241 180.0
161.955139 188.0
162.388565 156.0
163.074799 280.0
163.118851 220.0
164.107681 176.0
165.055359 2716.0
166.057205 468.0
166.089691 164.0
166.718735 160.0
166.858459 144.0
167.067719 572.0
167.677734 244.0
168.057312 216.0
168.11972 360.0
168.814667 148.0
168.946579 188.0
169.068192 148.0
169.100998 308.0
169.195023 168.0
169.340042 188.0
170.105911 224.0
170.494598 228.0
170.658371 180.0
170.723373 228.0
171.079849 172.0
171.116302 204.0
171.650452 152.0
172.08989 308.0
172.791916 176.0
173.060379 176.0
173.097153 528.0
173.677368 216.0
174.100555 196.0
174.286453 144.0
174.391571 200.0
174.988739 140.0
175.074097 524.0
175.112137 196.0
176.076004 168.0
176.680527 144.0
177.055664 212.0
177.090637 456.0
177.623627 164.0
178.056274 260.0
178.093201 212.0
178.130646 164.0
178.183777 180.0
178.210342 196.0
178.821991 196.0
179.065964 540.0
179.103607 220.0
179.546692 168.0
180.02652 176.0
180.06929 168.0
180.328964 160.0
180.823776 156.0
181.068634 176.0
181.096451 368.0
181.582016 212.0
182.000656 188.0
182.081161 17936.0
182.137177 168.0
182.889633 144.0
183.08461 1668.0
183.115341 360.0
183.278351 176.0
183.627975 180.0
184.086609 108.0
184.118973 216.0
184.171341 168.0
184.190247 156.0
184.411819 192.0
185.09259 344.0
185.130478 280.0
185.448471 140.0
186.056122 156.0
186.656601 176.0
186.743637 220.0
187.002121 172.0
187.073959 456.0
187.10968 300.0
188.319061 148.0
188.800095 144.0
189.093262 336.0
189.120209 168.0
189.144836 152.0
189.254349 164.0
189.988892 164.0
190.098633 188.0
190.370422 204.0
190.865051 156.0
191.068756 144.0
191.107285 176.0
191.572403 164.0
191.707413 176.0
192.089279 228.0
192.112747 188.0
192.756073 244.0
193.099457 392.0
193.330811 164.0
193.74939 188.0
194.084763 156.0
194.112244 180.0
195.065796 320.0
195.116959 644.0
195.896896 140.0
196.086136 148.0
196.117035 152.0
196.621872 172.0
197.011795 168.0
197.092697 564.0
197.130768 700.0
197.155304 156.0
197.941406 176.0
198.143066 224.0
199.11116 580.0
199.151123 372.0
199.276581 168.0
200.113113 328.0
200.294998 176.0
200.342896 176.0
200.833389 204.0
201.094833 104.0
201.126785 260.0
202.130157 144.0
202.546356 200.0
203.07074 148.0
203.103058 368.0
203.232437 152.0
204.070358 156.0
204.114349 264.0
204.853012 160.0
205.093185 184.0
206.06839 212.0
206.110443 244.0
207.085892 164.0
207.116028 812.0
208.058609 256.0
208.123489 436.0
208.665131 172.0
208.909592 212.0
209.09996 308.0
209.132202 296.0
209.793716 240.0
210.099579 276.0
210.137497 280.0
211.060837 180.0
211.11171 688.0
211.146912 512.0
211.376526 152.0
211.518341 184.0
211.714615 188.0
212.112427 368.0
212.95076 168.0
213.083832 188.0
213.12941 784.0
213.171555 276.0
214.094711 132.0
214.128189 360.0
215.083282 200.0
215.105667 436.0
216.10791 184.0
217.079163 156.0
217.119858 244.0
217.453079 140.0
218.072815 140.0
218.10582 264.0
218.849472 180.0
219.101944 328.0
220.019989 180.0
220.12439 156.0
220.595078 216.0
221.090027 140.0
221.131897 576.0
221.891556 164.0
222.035126 148.0
222.133636 188.0
222.815811 168.0
223.113235 1020.0
223.141144 348.0
224.071365 160.0
224.114243 448.0
224.268387 140.0
225.087326 648.0
225.129593 820.0
225.162201 488.0
225.225861 152.0
225.315491 160.0
225.393173 140.0
225.614349 164.0
225.751892 140.0
225.90065 164.0
226.071564 36740.0
226.129257 196.0
226.27092 164.0
226.303467 148.0
226.390671 144.0
226.476959 204.0
226.991684 156.0
227.073257 4144.0
227.143158 672.0
227.315659 244.0
227.651886 156.0
227.794922 180.0
227.835114 160.0
227.945038 184.0
228.076797 288.0
228.108688 240.0
228.142303 148.0
228.25415 112.0
228.290298 120.0
228.574768 180.0
228.686127 352.0
228.714081 140.0
228.889404 192.0
229.094574 144.0
229.126709 608.0
229.155914 180.0
229.342758 144.0
230.111313 252.0
230.981384 176.0
231.098358 260.0
231.169998 156.0
232.08316 192.0
232.122147 480.0
232.922455 164.0
233.028793 228.0
233.096756 308.0
233.12825 184.0
233.250641 212.0
233.290161 164.0
234.092728 156.0
234.142151 216.0
234.385864 208.0
235.148331 1368.0
235.753006 144.0
236.113754 188.0
236.149658 148.0
237.125549 1028.0
237.406174 208.0
237.857193 188.0
238.041412 184.0
238.095047 172.0
238.135696 860.0
239.034332 140.0
239.105667 576.0
239.141296 1612.0
240.100342 156.0
240.142563 464.0
241.121292 676.0
241.15921 204.0
241.347549 196.0
242.087448 156.0
242.123352 288.0
242.168243 136.0
242.468506 260.0
243.097931 152.0
243.169449 348.0
243.560684 180.0
243.759521 140.0
244.188553 164.0
245.127045 280.0
246.108658 204.0
247.109756 196.0
247.146545 424.0
247.314987 164.0
247.502823 204.0
248.120712 432.0
249.076279 184.0
249.125931 988.0
250.141815 176.0
251.108475 124.0
251.144623 1076.0
252.073517 164.0
252.110245 116.0
252.145264 232.0
252.550919 148.0
253.117264 392.0
253.157059 1652.0
254.163315 372.0
254.65239 152.0
255.105072 148.0
255.13797 380.0
255.85759 168.0
256.098877 188.0
256.144775 160.0
256.17926 192.0
257.117279 152.0
257.155396 272.0
258.075043 196.0
258.100647 172.0
259.105591 152.0
259.128387 724.0
259.2146 240.0
260.183289 176.0
260.587952 168.0
261.086212 184.0
261.129181 168.0
262.132782 312.0
262.916138 196.0
263.1427 2376.0
264.14505 504.0
265.12561 492.0
265.157288 868.0
266.130035 308.0
266.169617 368.0
267.135681 732.0
268.10318 292.0
268.140564 144.0
269.113159 776.0
269.157318 324.0
269.452911 156.0
270.11615 136.0
270.163422 368.0
271.16864 104.0
272.17807 140.0
273.07196 220.0
273.13092 216.0
273.555664 144.0
274.150055 228.0
274.207886 208.0
275.097626 152.0
275.6633 168.0
276.102997 144.0
278.87146 156.0
279.137238 1008.0
280.146362 144.0
280.949371 156.0
281.152954 4736.0
281.639099 164.0
282.137787 1168.0
283.134308 612.0
283.166962 320.0
283.501404 140.0
284.103149 168.0
284.1521 188.0
285.111877 488.0
285.149719 848.0
285.188049 148.0
286.100525 284.0
287.127502 2508.0
287.166718 344.0
288.131531 424.0
289.124939 144.0
289.182465 184.0
289.991974 176.0
290.839935 176.0
291.139282 1436.0
291.767365 148.0
292.140778 452.0
293.125458 228.0
293.923401 156.0
294.125214 152.0
295.129181 160.0
297.145111 1136.0
298.152435 136.0
298.957489 168.0
299.101257 176.0
299.161865 2416.0
300.018402 144.0
300.168488 744.0
301.13916 148.0
301.175476 236.0
304.753143 144.0
306.136902 172.0
307.029816 148.0
308.6362 168.0
308.706116 224.0
308.971954 204.0
309.149384 6244.0
309.300171 152.0
309.897522 104.0
310.149872 1824.0
311.142944 264.0
312.056702 148.0
312.146301 156.0
313.226807 140.0
314.856384 164.0
315.159241 268.0
316.026459 156.0
316.437042 208.0
317.103027 148.0
317.170685 296.0
318.187988 132.0
319.161682 176.0
319.268768 160.0
319.318573 180.0
320.165619 168.0
322.291748 188.0
324.573883 104.0
325.605438 160.0
326.500336 224.0
327.159607 7256.0
328.161469 2216.0
329.159454 312.0
330.05246 176.0
330.097382 160.0
330.64505 144.0
331.196106 188.0
332.18573 188.0
334.165741 160.0
335.075958 168.0
337.141296 192.0
340.280579 148.0
343.157806 140.0
344.401489 184.0
344.475342 152.0
344.985352 148.0
345.040802 144.0
345.17041 5208.0
345.973114 156.0
346.171173 560.0
347.168579 316.0
347.834106 152.0
353.166412 160.0
355.136719 156.0
357.15976 248.0
358.806915 148.0
359.11615 324.0
359.185089 760.0
359.316071 176.0
360.173035 200.0
361.662842 180.0
363.180603 380.0
364.199921 168.0
369.167023 1064.0
370.17514 324.0
370.206665 156.0
371.145538 168.0
371.889801 224.0
374.180939 152.0
377.193939 172.0
387.180328 988.0
388.181396 732.0
389.187439 392.0
390.181274 320.0
390.829132 232.0
391.155182 128.0
392.101135 164.0
392.156311 168.0
392.329742 192.0
393.173889 164.0
393.285339 216.0
398.142517 140.0
403.837982 176.0
404.194061 152.0
405.050842 184.0
405.18811 860.0
405.234222 532.0
406.192261 464.0
407.149078 368.0
407.184479 360.0
407.261047 144.0
413.168182 188.0
413.956085 140.0
414.85965 240.0
418.223175 168.0
420.48938 160.0
421.191406 128.0
430.023987 164.0
430.742462 148.0
431.181549 1208.0
432.194885 440.0
437.677002 180.0
438.139313 168.0
438.922913 164.0
449.194092 1168.0
450.200867 440.0
450.359985 112.0
451.17804 276.0
453.668671 156.0
458.160797 144.0
458.386597 160.0
459.072937 168.0
459.956146 144.0
461.784943 160.0
465.174377 220.0
467.206146 908.0
468.211182 196.0
468.283264 152.0
469.19397 152.0
469.619415 164.0
470.171814 136.0
472.600311 148.0
473.200073 140.0
474.184937 100.0
478.860352 172.0
482.381714 176.0
484.057434 156.0
484.416595 256.0
488.794006 212.0
490.388275 168.0
491.205017 1336.0
492.205566 168.0
493.208893 180.0
494.734955 168.0
496.06842 204.0
496.108307 148.0
499.016357 204.0
502.16568 204.0
507.76239 168.0
507.845276 192.0
508.138062 136.0
508.229919 108.0
508.551483 192.0
508.747223 156.0
508.859467 148.0
508.8909 164.0
508.965149 112.0
509.031921 124.0
509.122986 268.0
509.217438 20860.0
509.36795 128.0
509.568176 100.0
509.640442 96.0
509.851044 100.0
509.950104 156.0
510.217499 6996.0
510.498993 164.0
510.998077 164.0
511.223907 1544.0
512.232483 396.0
512.322571 140.0
514.333801 144.0
525.958984 140.0
526.867737 172.0
527.2276 12156.0
527.359314 104.0
527.635559 220.0
528.103088 132.0
528.230408 3956.0
528.615845 104.0
528.677063 116.0
528.939392 232.0
529.230652 900.0
530.233337 452.0
530.669678 124.0
531.212952 232.0
534.202942 160.0
540.24939 116.0
564.08374 140.0
565.270874 164.0
566.009338 156.0
568.243713 296.0
569.212158 176.0
578.187012 212.0
583.292969 240.0
585.24292 132.0
613.233276 184.0
646.215515 140.0
672.25592 104.0
672.294434 604.0
673.296448 152.0
690.274719 752.0
691.281738 376.0
691.371582 144.0
705.616516 140.0
708.29126 176.0
709.28833 172.0
716.258545 164.0
717.268494 116.0
727.878967 160.0
734.276733 472.0
735.28479 276.0
752.279602 136.0
753.276062 168.0
762.227539 96.0
763.201599 164.0
764.219177 196.0
765.215454 180.0
780.765137 144.0
806.19043 188.0
808.347046 580.0
809.362854 476.0
809.437561 172.0
810.324402 212.0
810.367859 220.0
1092.498047 184.0
1158.375122 216.0
1296.115112 196.0
1362.884888 196.0
1387.270508 184.0
1464.115479 108.0
1503.908569 180.0
1540.108521 168.0
1544.251221 192.0
1546.058472 156.0
1559.8396 164.0
1561.490845 168.0
1575.087646 152.0
1595.247437 144.0
1666.012085 204.0
1679.892456 164.0
1680.904175 164.0
1692.053223 148.0
1722.96936 160.0
1734.397705 152.0
1741.043701 160.0
1749.591675 152.0
1755.324219 164.0
1757.634888 272.0
1765.32019 160.0
1791.609253 168.0
1809.683594 224.0
1809.963013 188.0
1819.000854 192.0
1819.561279 140.0
1820.673584 232.0
1823.706787 164.0
1836.692139 172.0
1840.857178 192.0
1877.554199 180.0
1878.55481 192.0
1881.9552 224.0
1887.20874 192.0
1890.608276 212.0
1895.56189 228.0
1897.728882 184.0
1908.878418 164.0
1909.165283 176.0
1917.558228 152.0
1922.992065 164.0
1925.165894 236.0
1935.55481 144.0
1943.066528 152.0
1944.883179 228.0
1960.468384 168.0
1978.673584 212.0
1993.611206 188.0
1993.993408 200.0
1994.446655 164.0
