>compound MLS000860027-01!(R)-(+)-WIN 55,212-2 mesylate salt
>formula C27H26N2O3
>ionization [M+H]+
>parentmass 427.2005
#inchi InChI=1S/C27H26N2O3/c1-18-25(27(30)22-9-4-7-19-6-2-3-8-21(19)22)23-10-5-11-24-26(23)29(18)20(17-32-24)16-28-12-14-31-15-13-28/h2-11,20H,12-17H2,1H3/t20-/m1/s1
#inchikey HQVHOQAKMCMIIM
#origInchi InChI=1S/C27H26N2O3.CH4O3S/c1-18-25(27(30)22-9-4-7-19-6-2-3-8-21(19)22)23-10-5-11-24-26(23)29(18)20(17-32-24)16-28-12-14-31-15-13-28;1-5(2,3)4/h2-11,20H,12-17H2,1H3;1H3,(H,2,3,4)/t20-;/m1./s1
#Ion_Source LC-ESI
#Instrument qTof
#Compound_Source NIH Pharmacologically Active Library
#PI Dorrestein
#Data_Collector VP/LMS
#Scan -1
#Precursor_MZ 427.203
#ExactMass 426.194
#Charge 1
#CAS_Number N/A
#Pubmed_ID N/A
#Smiles Cc1c(C(=O)c2cccc3ccccc23)c4cccc5OC[C@@H](CN6CCOCC6)n1c54.CS(=O)(=O)O
#INCHI_AUX N/A
#Library_Class 1
#SpectrumID CCMSLIB00000085207
#IonMode Positive
#UpdateWorkflowName UPDATE-SINGLE-ANNOTATED-GOLD
#LibraryQualityString Gold
#TaskID d252d724072548979f1f6f1ced849daf
##Scan# 2136
#SpectrumFile p3-G02_GG2_01_18295.mzXML
#LibraryName Pharm_Active_Library.mgf
#MQScore -1
#Organism Pharm_Active_Library
#TIC_Query 0
#RT_Query -1
#MZErrorPPM -1
#SharedPeaks 0
#MassDiff 0
#LibMZ -1
#SpecMZ 427.203
#SpecCharge 0
#internalFilename spec-00000.mgf

>collision 10
44.89735 160.0
44.908886 160.0
44.919132 112.0
44.932709 196.0
44.946243 164.0
44.960926 140.0
44.989674 112.0
45.001736 196.0
45.042377 156.0
45.053066 188.0
45.069099 216.0
45.09182 152.0
45.103165 176.0
45.113205 180.0
45.133263 188.0
45.164024 440.0
45.178978 112.0
45.212193 152.0
45.229595 136.0
45.271103 152.0
45.280479 148.0
45.292534 176.0
45.319256 216.0
45.33202 196.0
45.340202 216.0
45.359539 96.0
45.376968 236.0
45.387592 156.0
45.421932 76.0
45.436783 316.0
45.474899 336.0
45.48698 92.0
45.497723 136.0
45.514336 180.0
45.527069 164.0
45.540798 208.0
45.551445 180.0
45.583519 248.0
45.606541 180.0
45.622673 216.0
45.637463 124.0
45.650909 184.0
45.66436 36.0
45.677872 184.0
45.692612 176.0
45.713722 372.0
45.726254 500.0
45.754524 136.0
45.76799 124.0
45.782803 256.0
45.805702 168.0
45.869041 208.0
45.895386 304.0
45.914688 192.0
45.934875 88.0
45.936848 156.0
45.959408 172.0
45.974251 200.0
45.989166 164.0
46.001247 180.0
46.022346 168.0
46.032303 164.0
46.051857 188.0
46.06337 228.0
46.07896 364.0
46.129333 232.0
46.152706 164.0
46.178272 148.0
46.191799 312.0
46.208748 148.0
46.24929 132.0
46.277065 140.0
46.305504 176.0
46.332268 180.0
46.361057 128.0
46.385452 168.0
46.397167 156.0
46.420834 172.0
46.438339 144.0
46.449192 112.0
46.468544 196.0
46.480469 152.0
46.53643 72.0
46.57761 228.0
46.59322 268.0
46.605331 104.0
46.619427 344.0
46.640667 124.0
46.650185 192.0
46.676018 156.0
46.71138 368.0
46.723625 148.0
46.745399 160.0
46.766769 148.0
46.780788 160.0
46.790318 132.0
46.823002 204.0
46.854332 60.0
46.872047 164.0
46.884312 108.0
46.902031 120.0
46.9324 180.0
46.945663 120.0
46.963394 152.0
46.982815 152.0
47.001598 152.0
47.03529 140.0
47.060295 184.0
47.079414 40.0
47.094864 384.0
47.132694 120.0
47.142258 116.0
47.151825 172.0
47.165497 112.0
47.178017 176.0
47.199657 180.0
47.220493 180.0
47.240108 264.0
47.264446 172.0
47.282822 248.0
47.296818 100.0
47.32283 60.0
47.335903 144.0
47.352959 184.0
47.370266 284.0
47.383026 148.0
47.38588 140.0
47.403652 192.0
47.418728 196.0
47.431065 84.0
47.453003 112.0
47.480587 176.0
47.494946 200.0
47.501789 188.0
47.522957 352.0
47.54641 180.0
47.55864 68.0
47.577862 104.0
47.590027 200.0
47.609936 108.0
47.624554 172.0
47.652031 176.0
47.661606 132.0
47.672642 124.0
47.699543 112.0
47.712505 272.0
47.72488 120.0
47.74551 172.0
47.759266 120.0
47.768253 112.0
47.815678 120.0
47.828499 140.0
47.85313 276.0
47.862282 372.0
47.896679 136.0
47.900906 112.0
47.907898 236.0
47.932285 144.0
47.935272 96.0
47.93998 128.0
47.993401 108.0
48.017532 372.0
48.049324 144.0
48.06237 72.0
48.080311 52.0
48.117882 220.0
48.132145 220.0
48.174065 112.0
48.193386 164.0
48.20599 160.0
48.21843 132.0
48.230869 104.0
48.261288 180.0
48.28817 200.0
48.301395 68.0
48.363667 204.0
48.38028 124.0
48.394127 308.0
48.431519 160.0
48.442604 48.0
48.4585 380.0
48.493031 92.0
48.503368 212.0
48.515659 140.0
48.526047 136.0
48.545174 88.0
48.593727 180.0
48.622612 172.0
48.636749 196.0
48.649246 152.0
48.664516 152.0
48.67424 180.0
48.696461 104.0
48.71452 80.0
48.729889 64.0
48.752037 204.0
48.768093 232.0
48.77935 80.0
48.789597 184.0
48.806252 92.0
48.820652 68.0
48.841885 452.0
48.884155 168.0
48.902248 228.0
48.945072 132.0
48.980515 196.0
49.005306 48.0
49.019032 176.0
49.054089 188.0
49.065243 204.0
49.076397 56.0
49.104923 132.0
49.130795 192.0
49.250854 120.0
49.27401 160.0
49.3102 144.0
49.320724 120.0
49.341805 152.0
49.383648 128.0
49.403233 128.0
49.420155 160.0
49.439262 244.0
49.458397 128.0
49.468269 136.0
49.491413 160.0
49.523159 188.0
49.565659 336.0
49.609108 184.0
49.642761 252.0
49.658188 140.0
49.67403 192.0
49.701855 160.0
49.720753 132.0
49.733643 176.0
49.744835 268.0
49.771061 188.0
49.788494 148.0
49.792072 228.0
49.81847 136.0
49.835083 160.0
49.849133 180.0
49.867844 180.0
49.894913 176.0
49.950371 128.0
49.97924 108.0
49.988903 176.0
50.008064 88.0
50.019569 172.0
50.033123 144.0
50.038967 80.0
50.042267 176.0
50.054527 164.0
50.082695 292.0
50.101009 188.0
50.113689 144.0
50.157379 48.0
50.174297 280.0
50.191219 140.0
50.208141 88.0
50.222248 184.0
50.24559 168.0
50.265469 164.0
50.289719 196.0
50.33971 352.0
50.366764 328.0
50.404037 132.0
50.433346 160.0
50.471298 320.0
50.482132 160.0
50.497078 148.0
50.501934 84.0
50.505375 148.0
50.523842 148.0
50.553982 160.0
50.584278 148.0
50.596752 256.0
50.627254 148.0
50.642071 232.0
50.662697 164.0
50.675964 420.0
50.690105 124.0
50.722839 144.0
50.750381 132.0
50.769634 220.0
50.84108 156.0
50.853962 140.0
50.866119 180.0
50.880577 176.0
50.895939 160.0
50.905876 144.0
50.952755 152.0
50.9897 112.0
51.016064 228.0
51.03093 188.0
51.082592 160.0
51.10218 176.0
51.125359 116.0
51.135815 160.0
51.157837 164.0
51.188885 156.0
51.217369 192.0
51.250137 120.0
51.274364 216.0
51.307152 296.0
51.322304 160.0
51.344002 328.0
51.361588 164.0
51.392525 220.0
51.401829 300.0
51.418205 184.0
51.423252 156.0
51.426571 124.0
51.46125 196.0
51.530327 188.0
51.55373 152.0
51.56411 180.0
51.582691 176.0
51.603138 204.0
51.617008 104.0
51.649902 308.0
51.679649 344.0
51.697121 152.0
51.715729 96.0
51.735302 208.0
51.755749 84.0
51.760658 136.0
51.764786 136.0
51.769005 172.0
51.800217 216.0
51.826916 160.0
51.841854 252.0
51.887573 172.0
51.912018 136.0
51.926361 36.0
51.942059 168.0
51.973705 168.0
52.003845 160.0
52.023293 168.0
52.052116 264.0
52.089474 304.0
52.105518 100.0
52.109337 184.0
52.124912 176.0
52.138115 216.0
52.161858 200.0
52.173328 200.0
52.199242 156.0
52.21619 188.0
52.230595 272.0
52.249588 144.0
52.276711 156.0
52.29084 192.0
52.308594 176.0
52.327309 120.0
52.35323 180.0
52.389572 316.0
52.40324 240.0
52.427361 212.0
52.444244 288.0
52.45842 148.0
52.469952 128.0
52.517281 132.0
52.531971 224.0
52.54784 152.0
52.562271 180.0
52.615677 152.0
52.631561 212.0
52.695118 264.0
52.72691 272.0
52.740059 124.0
52.751484 220.0
52.76569 160.0
52.807621 156.0
52.827938 120.0
52.856781 208.0
52.87402 180.0
52.888496 208.0
52.90456 152.0
52.926392 140.0
52.946438 140.0
52.959866 108.0
53.002632 116.0
53.036015 160.0
53.051048 152.0
53.075214 136.0
53.084515 192.0
53.097569 168.0
53.132381 200.0
53.152279 180.0
53.173798 156.0
53.204952 180.0
53.226734 224.0
53.242706 136.0
53.267403 160.0
53.305599 124.0
53.348579 140.0
53.354359 120.0
53.370594 212.0
53.386593 152.0
53.399681 88.0
53.412773 104.0
53.425465 316.0
53.474144 184.0
53.525772 384.0
53.536495 180.0
53.549603 144.0
53.561256 144.0
53.604694 212.0
53.620499 176.0
53.637035 176.0
53.64724 128.0
53.660362 208.0
53.670567 156.0
53.687298 204.0
53.709946 268.0
53.731319 148.0
53.736328 144.0
53.769711 192.0
53.787624 152.0
53.812805 212.0
53.822704 140.0
53.829739 108.0
53.845695 192.0
53.879295 180.0
53.899529 200.0
53.914131 200.0
53.945786 204.0
53.97364 172.0
53.988094 112.0
54.00502 148.0
54.023251 168.0
54.071655 96.0
54.12064 196.0
54.139675 136.0
54.162941 152.0
54.183842 160.0
54.209999 180.0
54.24078 156.0
54.25544 296.0
54.276714 212.0
54.302368 96.0
54.319969 164.0
54.363991 136.0
54.397751 52.0
54.408028 136.0
54.421242 124.0
54.434456 104.0
54.447674 180.0
54.476616 160.0
54.497623 164.0
54.511482 196.0
54.568176 152.0
54.587296 172.0
54.61232 144.0
54.635834 192.0
54.649078 148.0
54.702065 224.0
54.744762 108.0
54.774776 216.0
54.787483 192.0
54.797794 140.0
54.816952 424.0
54.834637 196.0
54.847904 64.0
54.881813 148.0
54.920212 116.0
54.957043 88.0
54.986561 68.0
55.010178 124.0
55.045616 156.0
55.060383 140.0
55.073677 132.0
55.113358 312.0
55.135857 148.0
55.159 216.0
55.188957 168.0
55.213097 148.0
55.218849 188.0
55.239243 72.0
55.256996 112.0
55.273853 112.0
55.291035 120.0
55.302807 172.0
55.319706 140.0
55.350147 284.0
55.373947 120.0
55.38876 208.0
55.405148 168.0
55.421356 180.0
55.44062 124.0
55.491024 40.0
55.505852 168.0
55.516232 72.0
55.535515 148.0
55.560734 280.0
55.587444 196.0
55.621086 168.0
55.637913 148.0
55.733345 64.0
55.764183 172.0
55.792427 136.0
55.825142 140.0
55.844608 136.0
55.865204 180.0
55.89529 156.0
55.935436 188.0
55.958607 180.0
56.010284 192.0
56.043972 156.0
56.059834 168.0
56.066051 108.0
56.06971 148.0
56.08123 156.0
56.112141 164.0
56.140049 316.0
56.161755 68.0
56.189125 184.0
56.236362 260.0
56.24995 192.0
56.296234 164.0
56.31102 204.0
56.324463 136.0
56.340321 364.0
56.356781 152.0
56.399181 180.0
56.415623 200.0
56.433567 224.0
56.450039 136.0
56.484417 100.0
56.506859 296.0
56.520287 148.0
56.559238 364.0
56.604156 120.0
56.619133 216.0
56.631115 140.0
56.670067 188.0
56.688686 160.0
56.706272 204.0
56.725521 140.0
56.740322 124.0
56.775627 372.0
56.819427 176.0
56.865871 128.0
56.895565 164.0
56.91457 136.0
56.942917 196.0
56.970146 164.0
56.979809 148.0
56.988754 104.0
57.00975 168.0
57.025745 192.0
57.038776 144.0
57.052521 160.0
57.065048 196.0
57.088131 224.0
57.108448 72.0
57.123489 248.0
57.148949 152.0
57.171642 152.0
57.185425 208.0
57.218307 164.0
57.229321 140.0
57.240894 156.0
57.292709 140.0
57.304661 180.0
57.340328 108.0
57.364449 88.0
57.388149 100.0
57.420238 220.0
57.441357 100.0
57.471283 192.0
57.482788 192.0
57.518826 60.0
57.545498 148.0
57.566639 208.0
57.607422 368.0
57.624039 112.0
57.645195 132.0
57.664845 212.0
57.697453 168.0
57.713223 64.0
57.741386 244.0
57.766159 40.0
57.786114 148.0
57.800144 52.0
57.836948 144.0
57.841934 112.0
57.846764 152.0
57.873619 124.0
57.885735 196.0
57.906937 124.0
57.922085 212.0
57.93269 352.0
57.958576 284.0
57.979664 148.0
58.002399 136.0
58.016045 128.0
58.051788 224.0
58.067604 196.0
58.081921 152.0
58.095314 172.0
58.120705 72.0
58.17231 180.0
58.182938 188.0
58.208031 164.0
58.230808 168.0
58.242165 140.0
58.260269 144.0
58.262817 160.0
58.268124 324.0
58.2873 192.0
58.300495 208.0
58.320744 180.0
58.343723 208.0
58.37896 136.0
58.401478 124.0
58.415897 196.0
58.425507 140.0
58.44133 96.0
58.458069 128.0
58.49316 72.0
58.529476 520.0
58.554237 176.0
58.606365 292.0
58.624706 112.0
58.630783 128.0
58.674374 124.0
58.685047 220.0
58.714577 132.0
58.780605 108.0
58.791832 192.0
58.810146 180.0
58.833046 148.0
58.855949 212.0
58.877331 148.0
58.892685 152.0
58.93063 144.0
58.95219 56.0
58.962891 148.0
58.990406 132.0
59.002068 172.0
59.007111 108.0
59.012333 164.0
59.038258 124.0
59.05616 196.0
59.077576 84.0
59.089817 124.0
59.1143 176.0
59.141895 132.0
59.160221 164.0
59.170937 132.0
59.212627 304.0
59.253647 96.0
59.273567 136.0
59.292538 164.0
59.3363 164.0
59.340652 152.0
59.35857 152.0
59.385487 156.0
59.434162 204.0
59.476021 220.0
59.488304 168.0
59.509796 168.0
59.54715 124.0
59.562016 144.0
59.588135 132.0
59.613644 140.0
59.631165 84.0
59.641922 212.0
59.692009 176.0
59.712654 152.0
59.76276 180.0
59.773979 312.0
59.797279 164.0
59.812675 252.0
59.829117 176.0
59.866566 384.0
59.903534 176.0
59.914318 64.0
59.955921 156.0
60.001564 112.0
60.022213 188.0
60.065399 132.0
60.088543 100.0
60.119404 176.0
60.131752 128.0
60.156452 52.0
60.197662 180.0
60.227303 168.0
60.231201 148.0
60.249493 164.0
60.283112 184.0
60.305519 128.0
60.32415 116.0
60.340004 316.0
60.397526 112.0
60.448586 196.0
60.465927 176.0
60.486561 164.0
60.513599 132.0
60.573589 240.0
60.592594 88.0
60.634434 176.0
60.663887 164.0
60.694897 140.0
60.712555 196.0
60.730568 156.0
60.760044 120.0
60.789524 236.0
60.803493 252.0
60.81591 148.0
60.838577 300.0
60.85162 176.0
60.888973 148.0
60.926292 152.0
60.938599 132.0
60.957249 148.0
60.975182 224.0
60.985226 172.0
60.998436 336.0
61.01165 96.0
61.02409 196.0
61.040436 188.0
61.076969 200.0
61.089413 164.0
61.11742 204.0
61.148365 240.0
61.186573 140.0
61.23941 180.0
61.259106 240.0
61.283997 156.0
61.315067 128.0
61.338585 148.0
61.352352 400.0
61.368206 204.0
61.427437 168.0
61.48814 212.0
61.500816 108.0
61.530132 144.0
61.575447 216.0
61.59705 96.0
61.617947 156.0
61.65937 252.0
61.674469 144.0
61.736748 128.0
61.747696 180.0
61.760212 124.0
61.786434 84.0
61.802452 408.0
61.836483 156.0
61.853916 236.0
61.869755 136.0
61.880096 116.0
61.89642 140.0
61.953957 216.0
62.036785 196.0
62.048367 128.0
62.065014 208.0
62.089226 148.0
62.10738 216.0
62.160213 160.0
62.174511 188.0
62.188236 228.0
62.201378 348.0
62.225666 224.0
62.264927 128.0
62.289978 184.0
62.300404 184.0
62.303112 156.0
62.309151 328.0
62.321484 172.0
62.351341 108.0
62.363914 168.0
62.382778 192.0
62.402607 144.0
62.40934 148.0
62.429329 192.0
62.441387 148.0
62.489731 144.0
62.513332 148.0
62.534843 180.0
62.565113 152.0
62.588898 124.0
62.629696 208.0
62.683414 132.0
62.737007 164.0
62.751198 372.0
62.764248 216.0
62.800087 152.0
62.820591 200.0
62.834793 168.0
62.85215 224.0
62.869019 168.0
62.880558 188.0
62.932957 176.0
62.946041 144.0
62.994251 168.0
63.031357 132.0
63.068523 140.0
63.112793 108.0
63.157421 172.0
63.180065 128.0
63.212452 256.0
63.231445 168.0
63.263103 104.0
63.282104 100.0
63.301105 132.0
63.316944 132.0
63.331066 144.0
63.360703 192.0
63.38348 80.0
63.434948 136.0
63.469833 144.0
63.500366 160.0
63.513943 168.0
63.533482 220.0
63.558636 188.0
63.572197 144.0
63.583309 328.0
63.603943 140.0
63.634106 208.0
63.657925 180.0
63.687717 148.0
63.712463 128.0
63.740639 212.0
63.762783 88.0
63.773911 216.0
63.794399 180.0
63.806221 136.0
63.832775 172.0
63.845459 104.0
63.86734 180.0
63.893181 88.0
63.909775 216.0
63.942513 124.0
63.969406 152.0
64.028061 148.0
64.043678 168.0
64.065132 316.0
64.08432 184.0
64.102699 200.0
64.133652 160.0
64.147423 212.0
64.176163 296.0
64.19265 196.0
64.211113 180.0
64.230927 216.0
64.264427 196.0
64.352219 184.0
64.36853 56.0
64.382561 208.0
64.411316 156.0
64.430489 132.0
64.467239 96.0
64.49601 144.0
64.513016 212.0
64.56636 340.0
64.601997 136.0
64.659866 228.0
64.675308 228.0
64.685638 368.0
64.702385 308.0
64.734406 184.0
64.772285 252.0
64.778984 164.0
64.784492 224.0
64.843353 112.0
64.888237 60.0
64.917107 184.0
64.928329 108.0
64.954651 156.0
64.981766 172.0
65.019028 168.0
65.040649 212.0
65.088814 156.0
65.108086 128.0
65.122543 160.0
65.171692 152.0
65.18409 196.0
65.210915 152.0
65.221985 140.0
65.270859 196.0
65.294525 152.0
65.307396 144.0
65.322678 160.0
65.337555 272.0
65.376579 144.0
65.393738 260.0
65.402588 204.0
65.419769 164.0
65.445801 52.0
65.473946 160.0
65.498955 148.0
65.553223 228.0
65.579826 156.0
65.603981 176.0
65.6166 300.0
65.652573 248.0
65.723061 152.0
65.734352 92.0
65.795502 168.0
65.800232 172.0
65.828026 164.0
65.855087 144.0
65.894218 60.0
65.913483 160.0
65.94072 160.0
65.960182 144.0
65.976265 188.0
66.038094 152.0
66.062363 244.0
66.077385 196.0
66.101532 192.0
66.113716 136.0
66.180511 152.0
66.202095 148.0
66.214523 64.0
66.238663 168.0
66.262459 136.0
66.293915 84.0
66.339661 216.0
66.359634 200.0
66.38308 60.0
66.424515 212.0
66.440041 172.0
66.454453 228.0
66.465813 184.0
66.485283 168.0
66.508774 68.0
66.530739 280.0
66.56076 252.0
66.59082 144.0
66.611938 116.0
66.624153 100.0
66.644432 260.0
66.665558 244.0
66.709442 176.0
66.727333 60.0
66.753349 136.0
66.764519 216.0
66.784248 104.0
66.811905 268.0
66.841194 72.0
66.866043 148.0
66.888397 128.0
66.914444 172.0
66.945381 92.0
66.965538 184.0
66.986107 220.0
67.013802 128.0
67.045975 216.0
67.08548 184.0
67.126274 108.0
67.157265 168.0
67.212128 172.0
67.230598 144.0
67.242111 204.0
67.258438 184.0
67.313133 176.0
67.32692 144.0
67.369484 108.0
67.384186 232.0
67.405434 220.0
67.421776 128.0
67.454941 164.0
67.465912 196.0
67.492073 212.0
67.526413 160.0
67.543076 152.0
67.571167 216.0
67.588585 156.0
67.604576 140.0
67.629501 128.0
67.647507 172.0
67.66552 176.0
67.685432 184.0
67.742493 44.0
67.75724 128.0
67.77198 148.0
67.791649 136.0
67.805038 188.0
67.836792 460.0
67.869423 136.0
67.898216 80.0
67.910591 140.0
67.960861 128.0
67.984192 200.0
67.996658 212.0
68.009789 172.0
68.022621 172.0
68.040466 128.0
68.057404 108.0
68.068893 200.0
68.082764 324.0
68.098457 92.0
68.120239 340.0
68.130768 180.0
68.152084 212.0
68.170753 208.0
68.192116 72.0
68.217018 160.0
68.235062 128.0
68.255257 148.0
68.297356 152.0
68.341774 132.0
68.364815 116.0
68.424072 212.0
68.440536 44.0
68.47348 136.0
68.491592 192.0
68.507103 116.0
68.521736 216.0
68.540398 264.0
68.557503 152.0
68.587173 160.0
68.606956 200.0
68.644882 80.0
68.678505 176.0
68.683067 208.0
68.702614 132.0
68.750465 100.0
68.771919 60.0
68.81385 160.0
68.830055 188.0
68.879257 120.0
68.907341 216.0
68.923866 88.0
68.940392 224.0
68.976158 700.0
69.001556 200.0
69.023872 256.0
69.053474 252.0
69.084381 148.0
69.135544 52.0
69.166801 136.0
69.172401 120.0
69.179054 168.0
69.205009 108.0
69.233223 144.0
69.264427 376.0
69.308914 168.0
69.325935 168.0
69.347549 156.0
69.366051 196.0
69.406158 136.0
69.424156 236.0
69.451576 92.0
69.464897 144.0
69.495018 104.0
69.513405 164.0
69.555046 144.0
69.578873 156.0
69.604134 116.0
69.617302 184.0
69.659515 104.0
69.678909 212.0
69.699394 240.0
69.737617 148.0
69.771912 172.0
69.815765 84.0
69.845078 128.0
69.887939 124.0
69.920578 176.0
69.931763 132.0
69.960533 160.0
69.983841 148.0
69.998825 184.0
70.022148 148.0
70.044258 160.0
70.105782 200.0
70.116524 112.0
70.142891 232.0
70.248848 152.0
70.320602 208.0
70.345459 208.0
70.362335 164.0
70.405937 184.0
70.423203 212.0
70.46756 176.0
70.526054 188.0
70.550179 280.0
70.584084 164.0
70.63092 216.0
70.722084 128.0
70.766968 136.0
70.781731 284.0
70.793762 128.0
70.872696 132.0
70.89048 124.0
70.907951 76.0
70.91938 416.0
70.969719 96.0
70.991516 116.0
71.008293 132.0
71.02681 200.0
71.045197 168.0
71.075394 160.0
71.103294 144.0
71.130783 216.0
71.153664 216.0
71.194588 100.0
71.223869 232.0
71.24498 160.0
71.276024 128.0
71.314751 324.0
71.334999 204.0
71.360954 204.0
71.379456 208.0
71.391228 172.0
71.405838 220.0
71.445053 152.0
71.475342 180.0
71.501945 168.0
71.557243 188.0
71.591759 156.0
71.623497 156.0
71.667366 212.0
71.701012 124.0
71.714493 200.0
71.734772 132.0
71.791748 156.0
71.808922 60.0
71.832535 156.0
71.851135 156.0
71.86628 124.0
71.894157 200.0
71.916908 212.0
71.938805 136.0
71.965828 188.0
71.987297 168.0
72.006401 172.0
72.024025 184.0
72.047745 236.0
72.072289 152.0
72.101013 128.0
72.125183 148.0
72.1754 360.0
72.211845 180.0
72.241364 152.0
72.270126 200.0
72.302536 92.0
72.321388 152.0
72.334442 100.0
72.356453 136.0
72.369995 132.0
72.383545 108.0
72.397087 48.0
72.419548 124.0
72.461464 196.0
72.518013 248.0
72.530945 116.0
72.559158 92.0
72.597679 172.0
72.63414 164.0
72.654747 104.0
72.675209 132.0
72.698944 168.0
72.744591 192.0
72.761673 156.0
72.77433 132.0
72.793938 120.0
72.844894 164.0
72.865913 172.0
72.883972 80.0
72.911736 260.0
72.938354 120.0
72.966148 208.0
72.979164 136.0
73.031624 212.0
73.061737 312.0
73.088028 136.0
73.101639 144.0
73.133217 144.0
73.146736 152.0
73.172684 152.0
73.22422 252.0
73.244125 216.0
73.258293 120.0
73.271919 108.0
73.292633 240.0
73.326454 204.0
73.350319 296.0
73.374184 192.0
73.389534 112.0
73.40274 188.0
73.420296 196.0
73.443413 204.0
73.460838 240.0
73.481712 96.0
73.498703 100.0
73.51577 196.0
73.534538 148.0
73.554634 148.0
73.574776 224.0
73.602943 176.0
73.630295 148.0
73.686531 148.0
73.703728 244.0
73.734894 212.0
73.761726 212.0
73.778824 116.0
73.795967 160.0
73.813606 128.0
73.847229 88.0
73.861916 136.0
73.876305 180.0
73.891708 140.0
73.919617 128.0
73.960159 216.0
74.006386 48.0
74.025223 144.0
74.050911 144.0
74.069756 164.0
74.109673 160.0
74.13829 128.0
74.161003 156.0
74.181145 152.0
74.194862 40.0
74.210289 108.0
74.289757 180.0
74.301201 220.0
74.327278 180.0
74.359543 164.0
74.457245 168.0
74.462059 176.0
74.481461 188.0
74.496101 180.0
74.513527 192.0
74.538155 112.0
74.551559 180.0
74.608627 148.0
74.629265 172.0
74.648178 124.0
74.67524 256.0
74.721283 184.0
74.742615 196.0
74.758278 176.0
74.773773 160.0
74.868462 132.0
74.885689 180.0
74.904144 112.0
74.924675 292.0
74.940819 148.0
74.964943 116.0
74.982178 164.0
75.016479 244.0
75.064934 228.0
75.089073 152.0
75.101151 168.0
75.117294 156.0
75.144279 192.0
75.167961 216.0
75.187424 48.0
75.202957 128.0
75.241356 148.0
75.259476 200.0
75.289284 180.0
75.306557 136.0
75.329018 300.0
75.346291 212.0
75.368752 100.0
75.384201 68.0
75.413689 140.0
75.448242 320.0
75.472473 184.0
75.507057 152.0
75.519432 156.0
75.531273 440.0
75.553764 152.0
75.565872 176.0
75.590141 176.0
75.605675 184.0
75.620094 244.0
75.662804 168.0
75.68531 132.0
75.702049 200.0
75.769142 160.0
75.791283 204.0
75.810036 116.0
75.852539 196.0
75.870461 180.0
75.898079 180.0
75.928246 132.0
75.976501 144.0
76.02903 208.0
76.04245 136.0
76.122307 152.0
76.148514 136.0
76.173958 144.0
76.186577 172.0
76.207428 140.0
76.22654 28.0
76.244499 208.0
76.266518 136.0
76.294334 160.0
76.308243 224.0
76.334328 100.0
76.34845 164.0
76.409119 132.0
76.433296 188.0
76.51667 160.0
76.531319 156.0
76.551201 212.0
76.611084 136.0
76.631989 64.0
76.65464 108.0
76.679047 132.0
76.712929 136.0
76.736572 192.0
76.794777 180.0
76.805374 124.0
76.851692 116.0
77.023087 348.0
77.04026 160.0
77.078598 208.0
77.082298 204.0
77.13813 148.0
77.154198 200.0
77.17659 128.0
77.207466 140.0
77.23304 204.0
77.267403 96.0
77.292679 176.0
77.313042 216.0
77.334045 80.0
77.352982 176.0
77.366318 184.0
77.393616 148.0
77.411888 164.0
77.430344 140.0
77.472389 208.0
77.49678 104.0
77.514442 120.0
77.558815 248.0
77.595078 200.0
77.614365 28.0
77.628387 80.0
77.67028 204.0
77.70031 196.0
77.786186 120.0
77.809998 284.0
77.834496 144.0
77.86235 104.0
77.879372 176.0
77.897659 156.0
77.946457 132.0
77.957939 168.0
77.996796 180.0
78.00724 168.0
78.034767 304.0
78.053368 196.0
78.082214 80.0
78.129005 116.0
78.153641 156.0
78.180031 172.0
78.195877 156.0
78.209953 132.0
78.234856 140.0
78.257492 236.0
78.269814 164.0
78.283905 92.0
78.296234 112.0
78.312088 212.0
78.357887 168.0
78.382561 172.0
78.401947 120.0
78.438957 228.0
78.470695 124.0
78.488327 232.0
78.528847 308.0
78.551926 204.0
78.588875 212.0
78.650642 228.0
78.690491 164.0
78.704445 120.0
78.767189 136.0
78.827263 192.0
78.848473 224.0
78.865959 148.0
78.87307 188.0
78.899673 112.0
78.905571 160.0
78.922722 188.0
78.972244 188.0
78.993469 72.0
79.021423 164.0
79.053627 132.0
79.076637 128.0
79.091141 308.0
79.12674 212.0
79.139648 204.0
79.165161 216.0
79.181099 128.0
79.201027 176.0
79.22007 220.0
79.244041 220.0
79.296272 144.0
79.328178 260.0
79.354065 176.0
79.370728 136.0
79.384918 176.0
79.403542 208.0
79.454094 148.0
79.477165 160.0
79.505554 160.0
79.519142 244.0
79.532349 128.0
79.544922 136.0
79.599648 96.0
79.626007 252.0
79.6492 160.0
79.675201 120.0
79.706238 148.0
79.736374 188.0
79.775322 216.0
79.802223 240.0
79.823563 180.0
79.836014 320.0
79.876923 96.0
79.894241 152.0
79.910721 184.0
79.965889 140.0
79.983696 168.0
80.004448 176.0
80.024643 152.0
80.054916 144.0
80.101181 172.0
80.106186 168.0
80.163589 96.0
80.21328 168.0
80.274117 168.0
80.333847 164.0
80.37513 268.0
80.41449 140.0
80.429871 116.0
80.443626 148.0
80.471321 156.0
80.4916 248.0
80.512543 208.0
80.540054 164.0
80.555534 168.0
80.563026 112.0
80.567322 152.0
80.584717 164.0
80.599014 312.0
80.640671 136.0
80.648109 128.0
80.65567 184.0
80.6623 216.0
80.695534 168.0
80.708054 204.0
80.720573 92.0
80.741524 140.0
80.761711 116.0
80.80114 304.0
80.870209 188.0
80.89592 152.0
80.91655 136.0
80.931732 176.0
80.943718 144.0
80.987251 168.0
81.005165 164.0
81.042786 100.0
81.089378 152.0
81.105675 196.0
81.119858 144.0
81.132408 188.0
81.174225 148.0
81.225662 108.0
81.24025 364.0
81.269051 216.0
81.28286 200.0
81.348045 184.0
81.366333 188.0
81.393692 116.0
81.45153 136.0
81.480591 136.0
81.502861 152.0
81.520126 172.0
81.575844 124.0
81.593826 140.0
81.617195 348.0
81.658997 180.0
81.683746 164.0
81.723328 124.0
81.744865 132.0
81.757439 172.0
81.77552 116.0
81.791039 328.0
81.813324 168.0
81.828667 216.0
81.86554 92.0
81.888954 156.0
81.949974 124.0
81.968224 116.0
82.011482 116.0
82.04213 124.0
82.056549 164.0
82.10704 104.0
82.125076 56.0
82.137711 220.0
82.157188 168.0
82.190033 188.0
82.213486 228.0
82.256035 224.0
82.278473 204.0
82.295433 112.0
82.304878 64.0
82.308411 152.0
82.355171 144.0
82.379608 188.0
82.41983 124.0
82.436943 176.0
82.457283 220.0
82.477646 160.0
82.511192 164.0
82.540474 92.0
82.603783 104.0
82.642616 336.0
82.66349 160.0
82.737701 68.0
82.780869 100.0
82.797127 224.0
82.811417 176.0
82.849991 136.0
82.880798 84.0
82.927917 108.0
82.965981 80.0
82.984116 132.0
83.000435 192.0
83.022194 244.0
83.0494 124.0
83.063911 136.0
83.080246 176.0
83.139153 232.0
83.161903 216.0
83.193672 192.0
83.216591 192.0
83.239975 124.0
83.289009 144.0
83.320152 196.0
83.344154 160.0
83.37986 304.0
83.401154 180.0
83.419853 104.0
83.4571 248.0
83.483498 44.0
83.534424 144.0
83.561531 216.0
83.589211 180.0
83.613464 148.0
83.629051 148.0
83.667282 156.0
83.728722 140.0
83.733208 176.0
83.754692 196.0
83.771088 112.0
83.811172 156.0
83.825752 108.0
83.849442 116.0
83.874962 204.0
83.905952 168.0
83.944244 204.0
83.961136 152.0
83.97438 148.0
83.989845 136.0
84.012466 160.0
84.071144 208.0
84.085335 204.0
84.137665 320.0
84.174675 148.0
84.20462 136.0
84.233917 132.0
84.256378 244.0
84.269173 124.0
84.323997 132.0
84.362381 144.0
84.397125 124.0
84.434151 388.0
84.463829 112.0
84.483086 48.0
84.495895 172.0
84.528831 184.0
84.561775 144.0
84.576416 160.0
84.638741 104.0
84.652313 300.0
84.673462 184.0
84.700325 204.0
84.722923 152.0
84.752235 212.0
84.777893 128.0
84.803551 164.0
84.825256 124.0
84.848236 172.0
84.871872 120.0
84.905968 56.0
84.952599 264.0
84.976685 176.0
84.99192 176.0
85.014473 100.0
85.027321 76.0
85.040169 72.0
85.069542 528.0
85.100754 140.0
85.113609 180.0
85.13253 236.0
85.151093 240.0
85.183983 224.0
85.21096 180.0
85.246666 164.0
85.264389 108.0
85.277115 164.0
85.301018 184.0
85.324913 136.0
85.363533 164.0
85.390472 160.0
85.437103 136.0
85.472069 120.0
85.494148 128.0
85.548981 228.0
85.581779 240.0
85.58889 52.0
85.640045 196.0
85.685661 188.0
85.719658 176.0
85.733574 172.0
85.75016 48.0
85.776291 248.0
85.793587 100.0
85.809151 148.0
85.844185 200.0
85.85894 132.0
85.872414 92.0
85.899574 144.0
85.916122 120.0
85.929039 168.0
85.945236 236.0
85.971481 124.0
85.984398 108.0
86.013283 124.0
86.069321 144.0
86.095177 188.0
86.147125 196.0
86.168854 68.0
86.190636 220.0
86.217117 148.0
86.235985 212.0
86.252235 132.0
86.267021 92.0
86.304001 156.0
86.333588 216.0
86.380913 84.0
86.395096 240.0
86.429138 160.0
86.448296 180.0
86.477905 152.0
86.501968 176.0
86.524185 148.0
86.576035 132.0
86.603821 140.0
86.633499 168.0
86.663101 124.0
86.701286 324.0
86.727966 140.0
86.766899 176.0
86.823273 80.0
86.84108 160.0
86.854057 176.0
86.880585 160.0
86.898277 204.0
86.960419 388.0
86.978485 204.0
87.009949 192.0
87.048943 136.0
87.068802 168.0
87.108383 120.0
87.134392 144.0
87.151115 168.0
87.178986 212.0
87.216988 216.0
87.23909 228.0
87.267906 168.0
87.303528 208.0
87.323219 168.0
87.372375 164.0
87.404007 156.0
87.431328 100.0
87.457977 224.0
87.489624 136.0
87.514885 172.0
87.522675 160.0
87.525848 332.0
87.555595 184.0
87.604851 120.0
87.63118 212.0
87.648331 196.0
87.668449 140.0
87.716911 156.0
87.74453 216.0
87.760414 132.0
87.784035 104.0
87.825066 88.0
87.862381 164.0
87.881035 148.0
87.895966 188.0
87.922089 144.0
87.941177 176.0
87.968559 196.0
87.998627 128.0
88.024773 104.0
88.052788 252.0
88.082077 164.0
88.096001 404.0
88.136856 112.0
88.152824 212.0
88.174133 180.0
88.215027 204.0
88.229156 208.0
88.245644 80.0
88.2995 144.0
88.312592 156.0
88.336914 104.0
88.351883 156.0
88.376205 300.0
88.394913 120.0
88.434219 128.0
88.467934 240.0
88.486633 68.0
88.556664 152.0
88.593124 200.0
88.645859 80.0
88.735832 228.0
88.749428 96.0
88.767113 200.0
88.781097 372.0
88.854568 180.0
88.876511 100.0
88.902977 120.0
88.939911 200.0
88.972237 172.0
89.013359 160.0
89.028442 172.0
89.062378 188.0
89.086029 136.0
89.110703 200.0
89.131638 136.0
89.148811 140.0
89.180763 176.0
89.218361 196.0
89.246559 252.0
89.295456 276.0
89.342911 124.0
89.371758 216.0
89.407181 196.0
89.436577 208.0
89.499016 172.0
89.529938 200.0
89.553322 152.0
89.568413 268.0
89.589119 288.0
89.624916 180.0
89.662766 240.0
89.67701 156.0
89.682816 228.0
89.696808 180.0
89.727646 156.0
89.746208 352.0
89.760643 148.0
89.79129 160.0
89.815636 196.0
89.898354 160.0
89.918564 164.0
89.941765 248.0
89.956871 148.0
89.97197 128.0
89.987076 160.0
90.000298 268.0
90.041939 156.0
90.090958 296.0
90.132088 140.0
90.138611 108.0
90.144508 164.0
90.165955 168.0
90.217583 120.0
90.255394 92.0
90.289673 140.0
90.329155 160.0
90.345207 188.0
90.389702 128.0
90.408356 168.0
90.425659 48.0
90.440804 136.0
90.467377 236.0
90.508148 168.0
90.524109 208.0
90.550629 272.0
90.578072 180.0
90.594193 100.0
90.60746 168.0
90.62355 132.0
90.645355 292.0
90.713585 156.0
90.732544 180.0
90.767181 268.0
90.793228 72.0
90.820343 324.0
90.836189 160.0
90.848869 156.0
90.875633 236.0
90.936455 180.0
90.962105 88.0
90.978508 208.0
90.996277 232.0
91.039276 112.0
91.106941 224.0
91.134933 148.0
91.159637 376.0
91.188988 136.0
91.207153 168.0
91.234344 308.0
91.250885 152.0
91.277504 56.0
91.296143 100.0
91.31218 208.0
91.347198 124.0
91.37133 220.0
91.39164 264.0
91.429207 140.0
91.452538 128.0
91.494087 180.0
91.508293 176.0
91.535675 84.0
91.548309 180.0
91.577347 140.0
91.602425 152.0
91.640266 132.0
91.654419 396.0
91.694122 144.0
91.745903 224.0
91.768814 260.0
91.796562 276.0
91.829437 180.0
91.84507 188.0
91.87941 160.0
91.896584 176.0
91.917572 256.0
91.956017 84.0
91.975525 148.0
92.02256 200.0
92.04763 184.0
92.062119 208.0
92.079849 176.0
92.112022 128.0
92.136818 180.0
92.156265 140.0
92.249916 180.0
92.267876 204.0
92.320099 148.0
92.347443 116.0
92.379959 144.0
92.399094 204.0
92.43866 212.0
92.503212 248.0
92.525414 144.0
92.543846 120.0
92.56311 200.0
92.582863 152.0
92.626915 208.0
92.640327 136.0
92.699722 180.0
92.762978 128.0
92.78698 156.0
92.834351 144.0
92.860771 104.0
92.920242 128.0
92.94902 156.0
93.017006 152.0
93.053802 232.0
93.074348 140.0
93.129494 172.0
93.208267 100.0
93.225494 116.0
93.275536 136.0
93.292839 108.0
93.312065 124.0
93.365906 220.0
93.383629 224.0
93.417664 184.0
93.462097 124.0
93.487114 56.0
93.50251 84.0
93.535233 136.0
93.560638 164.0
93.585052 96.0
93.639214 152.0
93.658943 184.0
93.704414 156.0
93.710548 132.0
93.714684 160.0
93.735863 120.0
93.756737 44.0
93.770233 148.0
93.783722 132.0
93.814568 164.0
93.878197 204.0
93.934273 236.0
93.965004 156.0
93.984299 124.0
94.015175 112.0
94.051392 168.0
94.065361 232.0
94.081467 176.0
94.131386 168.0
94.161705 152.0
94.179291 148.0
94.204407 128.0
94.221794 264.0
94.24498 140.0
94.282356 164.0
94.297157 116.0
94.337753 252.0
94.352646 148.0
94.371689 152.0
94.403496 96.0
94.434441 136.0
94.449181 220.0
94.483673 204.0
94.517632 152.0
94.538483 232.0
94.55217 312.0
94.58828 168.0
94.618286 172.0
94.633774 336.0
94.649261 128.0
94.664459 184.0
94.68412 132.0
94.724579 176.0
94.741341 216.0
94.808121 148.0
94.825562 188.0
94.866272 268.0
94.901215 176.0
94.924438 196.0
94.947273 204.0
94.965797 184.0
94.979126 184.0
95.002029 112.0
95.04277 216.0
95.083527 132.0
95.108757 144.0
95.167 124.0
95.182533 132.0
95.226349 136.0
95.240585 324.0
95.259415 128.0
95.267006 172.0
95.347672 136.0
95.364578 440.0
95.392731 176.0
95.418755 212.0
95.427299 112.0
95.431702 228.0
95.450706 224.0
95.478546 324.0
95.520729 220.0
95.562523 232.0
95.59272 320.0
95.606339 108.0
95.619965 140.0
95.637772 184.0
95.67981 124.0
95.685051 92.0
95.748466 128.0
95.780312 160.0
95.815964 80.0
95.836128 168.0
95.859512 184.0
95.878555 212.0
95.90239 216.0
95.933586 180.0
95.961105 240.0
95.975548 176.0
95.989517 180.0
95.997864 124.0
96.006172 176.0
96.052544 192.0
96.072052 212.0
96.085251 188.0
96.111076 188.0
96.152054 124.0
96.167671 156.0
96.190079 208.0
96.236168 136.0
96.257477 152.0
96.278961 116.0
96.333809 308.0
96.368935 136.0
96.386406 168.0
96.427452 180.0
96.470451 184.0
96.495872 120.0
96.540413 144.0
96.569275 180.0
96.659653 104.0
96.666595 144.0
96.738472 136.0
96.764832 368.0
96.826591 144.0
96.84623 152.0
96.864517 244.0
96.924545 196.0
97.012749 212.0
97.048019 188.0
97.073532 324.0
97.097061 172.0
97.170563 180.0
97.206932 376.0
97.241547 176.0
97.268074 184.0
97.293297 144.0
97.318611 300.0
97.348274 136.0
97.411133 112.0
97.433678 176.0
97.442307 60.0
97.446747 188.0
97.475967 100.0
97.493408 288.0
97.526337 172.0
97.533768 148.0
97.572807 180.0
97.6064 172.0
97.624779 184.0
97.660782 132.0
97.681206 220.0
97.727913 228.0
97.796555 192.0
97.829147 136.0
97.849709 160.0
97.882881 448.0
97.896965 180.0
97.930122 196.0
97.946678 200.0
97.955772 140.0
97.961029 252.0
97.979515 284.0
97.989868 196.0
98.013054 276.0
98.059235 660.0
98.0765 196.0
98.092743 596.0
98.127518 268.0
98.167496 176.0
98.18663 164.0
98.232048 108.0
98.245857 112.0
98.281372 152.0
98.30925 140.0
98.334442 148.0
98.358345 176.0
98.385139 188.0
98.420433 376.0
98.494598 120.0
98.510864 116.0
98.585487 136.0
98.617111 132.0
98.656647 152.0
98.712013 96.0
98.729752 144.0
98.766472 144.0
98.800423 184.0
98.843994 152.0
98.862366 216.0
98.886116 120.0
98.921745 136.0
98.95842 164.0
99.00293 156.0
99.017021 272.0
99.060371 404.0
99.110565 216.0
99.131462 296.0
99.167374 116.0
99.185219 164.0
99.201073 96.0
99.222885 52.0
99.249474 176.0
99.285423 232.0
99.316093 164.0
99.349815 136.0
99.386841 296.0
99.437126 148.0
99.468536 160.0
99.544334 124.0
99.57074 176.0
99.605492 208.0
99.631584 108.0
99.672935 196.0
99.68737 176.0
99.74836 304.0
99.777885 224.0
99.792725 96.0
99.820129 128.0
99.866074 168.0
99.881355 88.0
99.901894 140.0
99.927933 164.0
99.943123 308.0
99.971764 152.0
99.985695 132.0
100.010521 160.0
100.046623 184.0
100.074814 50980.0
100.106369 120.0
100.111794 336.0
100.135643 140.0
100.154938 48.0
100.171326 244.0
100.204651 264.0
100.234528 144.0
100.253662 80.0
100.262108 168.0
100.26693 212.0
100.287636 148.0
100.293243 88.0
100.300491 184.0
100.318344 188.0
100.342621 160.0
100.356956 196.0
100.400253 240.0
100.426025 212.0
100.455948 192.0
100.494659 140.0
100.541756 28.0
100.576591 272.0
100.625595 180.0
100.653549 224.0
100.703827 132.0
100.726128 224.0
100.768082 224.0
100.79538 164.0
100.809372 116.0
100.847343 156.0
100.870567 268.0
100.896423 240.0
100.90921 228.0
100.948708 84.0
100.987312 128.0
101.005859 204.0
101.037445 452.0
101.077286 2656.0
101.11882 212.0
101.148361 132.0
101.181427 132.0
101.209396 132.0
101.216644 68.0
101.247475 144.0
101.265533 88.0
101.302826 220.0
101.332962 140.0
101.363701 152.0
101.389755 216.0
101.411041 168.0
101.427841 124.0
101.443718 204.0
101.505508 76.0
101.552162 116.0
101.587265 192.0
101.591278 96.0
101.598969 144.0
101.614349 108.0
101.62706 96.0
101.653297 196.0
101.682785 160.0
101.702652 140.0
101.730759 132.0
101.75779 148.0
101.789879 156.0
101.805054 56.0
101.823128 196.0
101.845222 64.0
101.883507 136.0
101.899681 112.0
101.983871 144.0
102.011124 136.0
102.04493 876.0
102.074646 296.0
102.100082 200.0
102.134583 308.0
102.16687 212.0
102.18203 160.0
102.217575 280.0
102.238754 232.0
102.258797 176.0
102.289032 148.0
102.346008 68.0
102.368317 148.0
102.372734 160.0
102.386398 204.0
102.410454 148.0
102.436638 92.0
102.467674 148.0
102.530098 216.0
102.559563 52.0
102.580597 184.0
102.602928 336.0
102.643295 184.0
102.664406 112.0
102.68644 160.0
102.708778 172.0
102.729759 168.0
102.76487 160.0
102.799576 64.0
102.829849 212.0
102.843979 160.0
102.875137 184.0
102.894806 156.0
102.916656 288.0
102.941902 216.0
102.969025 368.0
102.99556 176.0
103.003181 124.0
103.017456 200.0
103.032494 300.0
103.053307 50800.0
103.110054 480.0
103.123878 224.0
103.139549 88.0
103.174698 372.0
103.195503 160.0
103.229828 168.0
103.267395 184.0
103.28891 308.0
103.303558 140.0
103.361801 112.0
103.386383 80.0
103.41256 192.0
103.421783 160.0
103.453537 172.0
103.474724 164.0
103.493759 128.0
103.51725 80.0
103.566444 136.0
103.580727 80.0
103.611778 96.0
103.64151 128.0
103.720833 224.0
103.7286 180.0
103.735512 100.0
103.758377 116.0
103.774597 128.0
103.823265 148.0
103.843552 320.0
103.869774 56.0
103.903976 208.0
103.924835 116.0
103.94381 176.0
103.981522 52.0
104.014 132.0
104.055649 4828.0
104.104607 212.0
104.139305 180.0
104.16111 240.0
104.194588 52.0
104.212723 180.0
104.233353 56.0
104.260941 320.0
104.30304 180.0
104.322922 180.0
104.335358 152.0
104.360397 72.0
104.381752 136.0
104.402237 160.0
104.427025 124.0
104.457001 136.0
104.481415 196.0
104.497406 84.0
104.505608 72.0
104.515686 76.0
104.520973 136.0
104.546532 144.0
104.589279 388.0
104.625526 176.0
104.663956 140.0
104.69635 136.0
104.730972 164.0
104.739372 96.0
104.744385 116.0
104.762375 40.0
104.792297 64.0
104.817032 228.0
104.829742 256.0
104.853615 72.0
104.881073 112.0
104.898399 284.0
104.920883 140.0
104.96714 156.0
105.000465 184.0
105.007874 276.0
105.058281 424.0
105.135521 152.0
105.161613 180.0
105.170067 160.0
105.176468 272.0
105.19101 152.0
105.208061 172.0
105.225708 224.0
105.288643 116.0
105.323326 188.0
105.356056 136.0
105.374443 116.0
105.390793 180.0
105.427574 112.0
105.480858 116.0
105.49707 152.0
105.525696 84.0
105.547142 164.0
105.564316 104.0
105.571495 172.0
105.59523 148.0
105.618736 148.0
105.638184 184.0
105.670921 96.0
105.711296 180.0
105.74868 96.0
105.787575 212.0
105.829941 116.0
105.867859 212.0
105.916588 204.0
105.956093 156.0
105.980682 184.0
106.000595 136.0
106.046783 224.0
106.082214 180.0
106.116478 188.0
106.144089 144.0
106.1605 104.0
106.214439 160.0
106.234337 68.0
106.262383 336.0
106.295898 328.0
106.338997 204.0
106.357368 84.0
106.403587 180.0
106.460129 152.0
106.487984 216.0
106.495392 164.0
106.525673 220.0
106.560783 152.0
106.587494 176.0
106.613022 148.0
106.649155 156.0
106.663155 128.0
106.686638 176.0
106.731644 196.0
106.758125 36.0
106.809547 48.0
106.842461 144.0
106.857552 80.0
106.8918 176.0
106.913918 248.0
106.935066 140.0
106.986526 116.0
107.000938 132.0
107.02153 128.0
107.079193 144.0
107.094505 404.0
107.145111 328.0
107.184265 84.0
107.204353 192.0
107.237846 168.0
107.266113 180.0
107.273895 188.0
107.278122 156.0
107.298851 152.0
107.313301 172.0
107.384239 216.0
107.404396 140.0
107.423431 196.0
107.474731 176.0
107.49617 176.0
107.524689 168.0
107.557571 148.0
107.582649 208.0
107.619507 60.0
107.633965 168.0
107.65255 84.0
107.685745 108.0
107.71946 152.0
107.745499 272.0
107.824028 172.0
107.838493 216.0
107.910629 188.0
107.914391 168.0
107.937477 116.0
107.959793 144.0
108.01284 216.0
108.037079 120.0
108.054756 284.0
108.076324 136.0
108.110474 208.0
108.161179 184.0
108.174217 148.0
108.183388 44.0
108.193634 136.0
108.274117 228.0
108.291634 108.0
108.323669 444.0
108.396996 200.0
108.42926 104.0
108.45118 140.0
108.478134 140.0
108.493591 140.0
108.512306 140.0
108.547821 144.0
108.567291 116.0
108.600975 184.0
108.654129 260.0
108.702827 228.0
108.722893 104.0
108.767708 92.0
108.795547 68.0
108.823265 148.0
108.843781 156.0
108.899376 100.0
108.922226 172.0
108.955467 352.0
108.978783 160.0
109.013649 224.0
109.031181 144.0
109.06604 172.0
109.109261 192.0
109.123817 144.0
109.155205 208.0
109.173721 96.0
109.20076 148.0
109.22364 116.0
109.253387 188.0
109.296883 140.0
109.383881 184.0
109.404694 80.0
109.444252 208.0
109.471329 124.0
109.489944 128.0
109.497711 120.0
109.529648 260.0
109.561821 332.0
109.606606 128.0
109.63591 36.0
109.665092 344.0
109.725548 116.0
109.742226 84.0
109.764671 152.0
109.80896 100.0
109.880791 176.0
109.886551 164.0
109.896408 208.0
109.935905 180.0
109.965446 108.0
109.982147 108.0
109.996758 56.0
110.014023 108.0
110.029823 244.0
110.051041 216.0
110.067749 168.0
110.092804 168.0
110.135567 152.0
110.159645 172.0
110.174271 132.0
110.201218 184.0
110.252228 208.0
110.274361 152.0
110.301109 400.0
110.316383 88.0
110.338158 212.0
110.422234 252.0
110.479507 268.0
110.523453 184.0
110.545631 220.0
110.584145 192.0
110.607162 168.0
110.678352 160.0
110.71814 116.0
110.746971 188.0
110.774696 132.0
110.793549 92.0
110.81031 208.0
110.828453 152.0
110.83709 208.0
110.84655 136.0
110.869156 152.0
110.904572 312.0
110.944878 156.0
110.965416 176.0
110.984283 56.0
111.044487 136.0
111.065102 152.0
111.080765 48.0
111.103844 220.0
111.139015 180.0
111.164696 256.0
111.206665 168.0
111.236855 220.0
111.268021 196.0
111.338943 132.0
111.363052 256.0
111.422966 192.0
111.436623 132.0
111.454483 172.0
111.473396 128.0
111.507027 168.0
111.546967 176.0
111.579269 172.0
111.601631 204.0
111.701233 380.0
111.756409 144.0
111.784637 200.0
111.828453 220.0
111.875153 164.0
111.932556 196.0
111.96093 168.0
111.993073 104.0
112.062202 128.0
112.108788 196.0
112.138466 220.0
112.155701 180.0
112.180626 188.0
112.199928 204.0
112.243881 192.0
112.279732 188.0
112.31559 144.0
112.329155 116.0
112.41053 112.0
112.437965 152.0
112.456963 164.0
112.504524 140.0
112.524406 184.0
112.572243 184.0
112.60054 72.0
112.640678 304.0
112.66642 172.0
112.68293 140.0
112.703033 184.0
112.718323 160.0
112.750549 48.0
112.828766 176.0
112.904892 204.0
112.957771 156.0
112.976807 176.0
113.035522 176.0
113.103783 176.0
113.121208 172.0
113.153481 164.0
113.313011 156.0
113.340988 200.0
113.370659 228.0
113.39566 236.0
113.431206 120.0
113.445015 256.0
113.465965 104.0
113.509193 184.0
113.553123 200.0
113.59317 136.0
113.622887 76.0
113.659073 188.0
113.688957 144.0
113.709946 156.0
113.746086 124.0
113.786636 80.0
113.819649 80.0
113.857079 148.0
113.875618 100.0
113.911728 116.0
113.952095 124.0
113.975044 120.0
113.996719 244.0
114.017975 156.0
114.041351 80.0
114.071175 144.0
114.091278 156.0
114.124672 84.0
114.147659 148.0
114.164665 248.0
114.194977 192.0
114.222099 140.0
114.260323 128.0
114.290176 216.0
114.307205 168.0
114.347404 208.0
114.375313 116.0
114.412613 268.0
114.451958 160.0
114.473251 140.0
114.516624 132.0
114.552063 128.0
114.582832 316.0
114.602219 192.0
114.609344 104.0
114.616188 188.0
114.654228 156.0
114.661598 128.0
114.671188 208.0
114.677025 168.0
114.694839 132.0
114.720421 88.0
114.751999 256.0
114.77372 288.0
114.839836 172.0
114.893166 164.0
115.014809 204.0
115.035957 172.0
115.053467 924.0
115.08651 164.0
115.104477 104.0
115.126266 192.0
115.184654 140.0
115.213417 164.0
115.232643 140.0
115.255249 124.0
115.263252 184.0
115.298889 128.0
115.328026 152.0
115.354462 168.0
115.377846 128.0
115.429298 164.0
115.450684 48.0
115.493919 452.0
115.546944 128.0
115.564064 160.0
115.590164 264.0
115.619278 320.0
115.647522 168.0
115.670166 196.0
115.696594 200.0
115.702171 152.0
115.735214 196.0
115.740852 176.0
115.861671 76.0
115.8787 152.0
115.936676 144.0
115.984955 200.0
116.00312 180.0
116.022415 164.0
116.054802 304.0
116.097466 264.0
116.133926 228.0
116.151085 184.0
116.217598 160.0
116.239052 80.0
116.258369 252.0
116.3013 216.0
116.318466 168.0
116.333496 196.0
116.400055 124.0
116.436569 184.0
116.461716 244.0
116.507561 160.0
116.533241 200.0
116.618393 64.0
116.670792 164.0
116.722061 128.0
116.778313 112.0
116.868416 168.0
116.923233 204.0
116.947693 128.0
116.999649 192.0
117.007843 164.0
117.029449 208.0
117.067352 1292.0
117.096924 312.0
117.164742 160.0
117.190567 324.0
117.208473 164.0
117.244926 128.0
117.282173 164.0
117.298111 184.0
117.320976 140.0
117.351166 136.0
117.36721 156.0
117.387276 220.0
117.421585 140.0
117.430298 92.0
117.436455 204.0
117.452522 220.0
117.50589 196.0
117.543144 144.0
117.56472 136.0
117.584145 136.0
117.600578 140.0
117.627319 116.0
117.652618 100.0
117.680176 168.0
117.749641 192.0
117.791443 44.0
117.828163 176.0
117.867058 52.0
117.895157 192.0
117.959999 152.0
117.985588 148.0
118.003235 128.0
118.039719 124.0
118.056404 352.0
118.087578 128.0
118.111374 144.0
118.158112 184.0
118.184929 220.0
118.223885 48.0
118.241631 140.0
118.267174 284.0
118.284111 184.0
118.288422 152.0
118.334282 224.0
118.386253 156.0
118.412247 152.0
118.436996 328.0
118.46653 256.0
118.505394 220.0
118.523918 160.0
118.576912 328.0
118.609947 252.0
118.663628 196.0
118.772057 176.0
118.815445 164.0
118.857643 332.0
118.907387 196.0
118.94558 108.0
119.000397 188.0
119.024391 228.0
119.049232 160.0
119.085396 204.0
119.094009 176.0
119.114815 152.0
119.128769 200.0
119.154099 180.0
119.18943 184.0
119.217163 216.0
119.239601 136.0
119.269325 140.0
119.334549 132.0
119.371262 136.0
119.415131 152.0
119.456345 64.0
119.55426 164.0
119.597794 140.0
119.622765 212.0
119.689545 196.0
119.720825 152.0
119.741501 204.0
119.804672 184.0
119.832993 172.0
119.860268 116.0
119.88311 60.0
119.95504 76.0
119.974663 200.0
119.994286 168.0
120.011726 208.0
120.029175 60.0
120.068428 160.0
120.085876 96.0
120.11573 228.0
120.142593 144.0
120.18705 188.0
120.210381 184.0
120.253159 152.0
120.28772 208.0
120.328041 124.0
120.352127 124.0
120.380516 128.0
120.404358 144.0
120.431587 288.0
120.457825 244.0
120.477745 76.0
120.503357 136.0
120.538422 184.0
120.55941 104.0
120.564636 144.0
120.601524 132.0
120.620857 128.0
120.649277 168.0
120.688637 148.0
120.714874 108.0
120.767372 112.0
120.800133 184.0
120.842972 268.0
120.911774 32.0
120.936913 124.0
120.970879 148.0
121.011932 160.0
121.0289 172.0
121.056274 128.0
121.072769 332.0
121.132935 144.0
121.203041 172.0
121.277557 136.0
121.306404 176.0
121.32798 136.0
121.383209 172.0
121.400032 228.0
121.430595 156.0
121.439323 124.0
121.44532 252.0
121.510872 320.0
121.540741 96.0
121.586823 144.0
121.616478 180.0
121.673149 136.0
121.690002 144.0
121.709511 172.0
121.727333 172.0
121.755882 540.0
121.788467 148.0
121.830566 216.0
121.852829 108.0
121.894287 180.0
121.933846 64.0
121.953392 112.0
122.070152 216.0
122.111938 76.0
122.13636 196.0
122.206535 188.0
122.323181 40.0
122.356209 120.0
122.426811 128.0
122.450897 140.0
122.466316 176.0
122.494835 148.0
122.52359 100.0
122.633774 156.0
122.682274 304.0
122.708733 160.0
122.728577 60.0
122.759445 264.0
122.777092 184.0
122.794044 128.0
122.856499 176.0
122.894012 196.0
122.93354 188.0
122.965576 112.0
123.004364 136.0
123.023224 184.0
123.032707 100.0
123.038857 268.0
123.094887 192.0
123.114761 116.0
123.148331 140.0
123.181023 56.0
123.203117 84.0
123.225212 156.0
123.253769 248.0
123.268112 232.0
123.304764 176.0
123.331291 212.0
123.350502 116.0
123.366119 212.0
123.375175 240.0
123.395401 244.0
123.430779 104.0
123.497131 140.0
123.531754 288.0
123.565712 124.0
123.629089 412.0
123.674149 236.0
123.712029 200.0
123.745583 164.0
123.76152 112.0
123.809021 140.0
123.83136 156.0
123.871231 280.0
123.894852 332.0
123.918579 140.0
123.949203 164.0
123.995316 164.0
124.044083 112.0
124.078316 176.0
124.137207 72.0
124.190437 180.0
124.216599 116.0
124.243675 180.0
124.279747 156.0
124.342903 168.0
124.40612 164.0
124.41674 168.0
124.485626 160.0
124.501175 48.0
124.530418 192.0
124.54966 212.0
124.598999 204.0
124.642448 108.0
124.711945 116.0
124.719185 100.0
124.723846 128.0
124.77227 260.0
124.801353 148.0
124.824677 260.0
124.854546 36.0
124.879723 288.0
124.897339 200.0
124.941299 152.0
124.997963 180.0
125.038475 348.0
125.079384 172.0
125.105995 176.0
125.22847 292.0
125.25074 172.0
125.28891 180.0
125.391907 192.0
125.444618 148.0
125.469139 248.0
125.538269 232.0
125.574684 208.0
125.605179 72.0
125.642433 132.0
125.687515 124.0
125.714508 148.0
125.774773 196.0
125.79644 68.0
125.828354 176.0
125.846214 196.0
125.879707 124.0
125.934395 240.0
125.941864 116.0
125.947769 220.0
125.978951 112.0
126.004799 44.0
126.045578 7320.0
126.089745 4424.0
126.116714 152.0
126.152306 148.0
126.182007 84.0
126.205421 136.0
126.253319 68.0
126.321434 140.0
126.327202 136.0
126.334282 216.0
126.360298 104.0
126.384911 88.0
126.416924 92.0
126.444427 424.0
126.470894 48.0
126.496819 296.0
126.541595 40.0
126.568695 156.0
126.594612 160.0
126.630394 92.0
126.634857 280.0
126.674484 216.0
126.691376 220.0
126.719498 384.0
126.769753 136.0
126.822792 108.0
126.850777 64.0
126.872192 164.0
126.900429 232.0
126.92588 240.0
126.934334 120.0
126.943237 152.0
126.959923 200.0
126.963608 124.0
126.993576 392.0
127.053696 63856.0
127.100975 280.0
127.131149 120.0
127.153595 32.0
127.19175 80.0
127.216446 364.0
127.237358 140.0
127.262764 180.0
127.276375 176.0
127.303513 180.0
127.335037 172.0
127.36602 112.0
127.401901 148.0
127.421997 464.0
127.463516 192.0
127.498123 280.0
127.515205 100.0
127.547142 68.0
127.565979 216.0
127.593414 152.0
127.654869 132.0
127.672386 196.0
127.679787 100.0
127.707588 56.0
127.731422 76.0
127.759155 140.0
127.774422 140.0
127.796181 200.0
127.82206 116.0
127.863251 156.0
127.902046 156.0
127.917847 244.0
127.940956 136.0
127.978065 188.0
127.986229 140.0
128.016922 52.0
128.056046 10092.0
128.101379 96.0
128.127777 216.0
128.148376 124.0
128.167847 180.0
128.183624 84.0
128.214081 64.0
128.2332 108.0
128.248993 40.0
128.267548 224.0
128.289383 288.0
128.313828 228.0
128.333542 144.0
128.35495 72.0
128.373444 160.0
128.407883 204.0
128.440659 128.0
128.469666 204.0
128.544449 40.0
128.571518 32.0
128.60199 160.0
128.625702 216.0
128.644577 144.0
128.677628 140.0
128.727295 128.0
128.76181 172.0
128.793472 212.0
128.816742 168.0
128.858994 80.0
128.88028 180.0
128.896164 116.0
128.923843 200.0
128.989868 172.0
129.066605 928.0
129.11087 220.0
129.126312 152.0
129.160278 140.0
129.175812 64.0
129.199677 228.0
129.28299 184.0
129.32814 80.0
129.353607 128.0
129.401154 272.0
129.429916 236.0
129.516647 156.0
129.597702 212.0
129.663925 112.0
129.703339 184.0
129.757309 164.0
129.801712 148.0
129.834015 128.0
129.861191 152.0
129.908829 88.0
129.940582 184.0
129.955582 132.0
129.974106 192.0
130.006393 36.0
130.038879 716.0
130.056885 308.0
130.097687 144.0
130.116562 224.0
130.172119 116.0
130.231171 56.0
130.297607 168.0
130.322311 104.0
130.34314 128.0
130.367493 56.0
130.403427 212.0
130.427322 136.0
130.489624 196.0
130.549805 224.0
130.610413 200.0
130.638077 220.0
130.699509 152.0
130.715439 176.0
130.735916 228.0
130.751419 212.0
130.816864 160.0
130.857544 140.0
130.886703 152.0
130.913498 160.0
130.93399 184.0
130.974991 204.0
130.996094 212.0
131.047958 5780.0
131.098022 172.0
131.133896 152.0
131.159058 216.0
131.220734 140.0
131.314407 132.0
131.336121 144.0
131.380768 308.0
131.433258 136.0
131.465195 176.0
131.500244 224.0
131.555969 120.0
131.559875 92.0
131.568924 164.0
131.645554 260.0
131.660095 240.0
131.767624 172.0
131.827927 208.0
131.866928 180.0
131.898483 172.0
131.938034 224.0
131.960373 280.0
131.999771 248.0
132.048218 740.0
132.109909 160.0
132.13092 228.0
132.152481 132.0
132.226257 48.0
132.292648 36.0
132.354462 120.0
132.404846 28.0
132.450653 40.0
132.488403 92.0
132.496216 172.0
132.501373 200.0
132.616516 136.0
132.661102 144.0
132.688995 116.0
132.733078 160.0
132.774017 56.0
132.791412 164.0
132.952759 144.0
132.982498 128.0
133.010178 148.0
133.028549 104.0
133.044617 136.0
133.068939 108.0
133.138763 72.0
133.175507 136.0
133.206375 176.0
133.242142 120.0
133.285797 128.0
133.311066 136.0
133.331985 116.0
133.418991 164.0
133.425171 156.0
133.460495 108.0
133.481186 160.0
133.497498 128.0
133.515533 124.0
133.564896 172.0
133.58873 196.0
133.632019 184.0
133.734268 212.0
133.799332 204.0
133.82663 216.0
133.906952 76.0
133.925385 160.0
133.973999 156.0
133.991135 328.0
133.999954 204.0
134.006927 164.0
134.032684 208.0
134.092438 144.0
134.125854 32.0
134.167343 152.0
134.227295 68.0
134.292542 112.0
134.312637 136.0
134.340317 152.0
134.368256 184.0
134.41185 116.0
134.45108 184.0
134.481079 120.0
134.527252 184.0
134.550339 176.0
134.566498 100.0
134.589462 144.0
134.624237 176.0
134.640396 340.0
134.670425 148.0
134.736572 164.0
134.772751 136.0
134.87146 104.0
134.929245 220.0
134.962509 136.0
135.007874 252.0
135.028687 136.0
135.056015 152.0
135.087952 244.0
135.123672 196.0
135.142044 112.0
135.181503 144.0
135.195801 192.0
135.216095 160.0
135.278595 148.0
135.297623 240.0
135.315643 244.0
135.352692 168.0
135.368896 252.0
135.440689 176.0
135.487305 200.0
135.512512 48.0
135.540314 184.0
135.562057 220.0
135.590561 224.0
135.607422 92.0
135.610229 188.0
135.631805 68.0
135.651566 112.0
135.674759 136.0
135.715591 52.0
135.730408 140.0
135.779099 144.0
135.824493 168.0
135.845215 104.0
135.871887 192.0
135.93222 72.0
135.95311 192.0
135.980957 256.0
136.068558 180.0
136.101028 176.0
136.120255 100.0
136.154129 184.0
136.19458 128.0
136.213058 176.0
136.238831 316.0
136.268921 236.0
136.359558 128.0
136.396744 212.0
136.415344 88.0
136.438583 120.0
136.49733 184.0
136.521164 140.0
136.626968 164.0
136.65834 240.0
136.678162 48.0
136.702072 204.0
136.727036 88.0
136.75148 200.0
136.79686 72.0
136.814072 280.0
136.857819 264.0
136.88768 216.0
136.924683 152.0
136.959473 188.0
137.004135 160.0
137.055389 120.0
137.096558 156.0
137.13356 160.0
137.153275 212.0
137.178711 220.0
137.235229 244.0
137.267715 152.0
137.29599 216.0
137.322678 364.0
137.352142 100.0
137.392029 180.0
137.428314 184.0
137.477478 136.0
137.510162 164.0
137.526505 148.0
137.549835 168.0
137.568512 160.0
137.627838 212.0
137.65416 176.0
137.678268 128.0
137.694611 108.0
137.731979 272.0
137.750671 256.0
137.767029 84.0
137.808701 228.0
137.85582 208.0
137.872177 144.0
137.901031 184.0
137.91893 96.0
137.955536 224.0
137.977692 144.0
138.045593 136.0
138.077927 140.0
138.124695 176.0
138.176163 64.0
138.240479 116.0
138.27446 160.0
138.30722 96.0
138.325958 96.0
138.359894 152.0
138.364395 76.0
138.374146 184.0
138.430618 160.0
138.459412 148.0
138.478149 104.0
138.503922 160.0
138.527344 96.0
138.545227 156.0
138.581238 144.0
138.647476 164.0
138.70076 180.0
138.722092 124.0
138.774994 136.0
138.781601 96.0
138.806259 216.0
138.843796 224.0
138.860214 192.0
138.876633 160.0
138.900085 180.0
138.925888 124.0
139.000977 88.0
139.054947 220.0
139.080765 120.0
139.139465 144.0
139.15744 228.0
139.233383 124.0
139.259232 148.0
139.287415 128.0
139.320297 192.0
139.366928 272.0
139.420166 48.0
139.42514 188.0
139.498917 124.0
139.522156 172.0
139.651764 212.0
139.672928 180.0
139.696594 264.0
139.73645 272.0
139.769073 120.0
139.851761 112.0
139.88237 108.0
139.905289 112.0
139.938873 192.0
139.965057 164.0
139.988327 160.0
140.050064 296.0
140.091965 140.0
140.118286 140.0
140.157928 152.0
140.186218 180.0
140.216843 148.0
140.289917 92.0
140.326035 164.0
140.335449 52.0
140.343475 180.0
140.447922 124.0
140.468521 104.0
140.521057 36.0
140.601288 188.0
140.620178 96.0
140.662659 88.0
140.688629 176.0
140.719315 124.0
140.746765 340.0
140.768906 56.0
140.816147 148.0
140.901245 176.0
140.970886 176.0
141.026443 124.0
141.070831 792.0
141.090973 148.0
141.158829 164.0
141.205002 200.0
141.253799 160.0
141.28183 236.0
141.300766 140.0
141.329147 80.0
141.357544 88.0
141.424515 204.0
141.44986 124.0
141.472244 152.0
141.499374 196.0
141.526474 152.0
141.562592 176.0
141.580429 224.0
141.59491 188.0
141.718643 148.0
141.768738 180.0
141.817017 132.0
141.870407 92.0
141.879318 128.0
141.929993 172.0
141.953369 156.0
141.980621 304.0
142.037949 236.0
142.048874 184.0
142.065247 260.0
142.088806 192.0
142.208389 208.0
142.246155 132.0
142.293854 148.0
142.321228 268.0
142.384094 204.0
142.401352 180.0
142.435165 128.0
142.495743 128.0
142.538513 168.0
142.605057 32.0
142.635956 164.0
142.652603 168.0
142.683197 240.0
142.712036 136.0
142.74144 144.0
142.766739 156.0
142.81366 156.0
142.845795 196.0
142.957458 212.0
143.048553 1628.0
143.075592 160.0
143.11264 216.0
143.13681 276.0
143.171326 124.0
143.190384 144.0
143.230865 80.0
143.267868 128.0
143.335709 156.0
143.390518 196.0
143.409592 172.0
143.483887 140.0
143.618866 244.0
143.650421 108.0
143.732712 148.0
143.793594 444.0
143.827682 228.0
143.860443 184.0
143.890289 164.0
143.919434 328.0
143.987717 132.0
144.012329 224.0
144.054184 368.0
144.07843 896.0
144.111221 268.0
144.152557 224.0
144.278885 136.0
144.323959 212.0
144.362213 92.0
144.405273 112.0
144.443542 112.0
144.500961 160.0
144.5979 196.0
144.633026 240.0
144.680466 140.0
144.72612 116.0
144.764267 152.0
144.800186 76.0
144.819351 128.0
144.857239 176.0
144.903046 188.0
144.955124 176.0
144.986725 168.0
145.019409 344.0
145.026428 304.0
145.037186 208.0
145.063705 39152.0
145.155899 76.0
145.186066 36.0
145.205246 72.0
145.239182 136.0
145.264496 184.0
145.301208 188.0
145.318756 368.0
145.338608 176.0
145.356323 128.0
145.382645 80.0
145.443619 464.0
145.465088 56.0
145.480377 116.0
145.507614 160.0
145.536728 328.0
145.635254 136.0
145.652985 120.0
145.674744 156.0
145.70433 324.0
145.726074 164.0
145.762238 172.0
145.793472 100.0
145.862946 84.0
145.939087 56.0
146.007446 200.0
146.06543 2712.0
146.104919 180.0
146.126556 132.0
146.159012 144.0
146.207138 132.0
146.228806 140.0
146.314133 224.0
146.335159 44.0
146.363617 140.0
146.400558 140.0
146.437225 184.0
146.48645 140.0
146.527725 356.0
146.551498 204.0
146.580414 140.0
146.599701 132.0
146.623795 224.0
146.640671 212.0
146.657547 140.0
146.676895 268.0
146.727448 116.0
146.756393 172.0
146.782074 80.0
146.812866 172.0
146.85527 228.0
146.896271 64.0
146.913162 220.0
146.952087 120.0
147.012085 168.0
147.031403 72.0
147.067093 408.0
147.098312 144.0
147.131836 144.0
147.1521 64.0
147.183487 156.0
147.258728 228.0
147.282516 140.0
147.299423 96.0
147.321167 396.0
147.388809 156.0
147.421616 112.0
147.466156 100.0
147.541092 56.0
147.580353 204.0
147.625778 168.0
147.658127 160.0
147.676514 116.0
147.707962 156.0
147.725784 120.0
147.756348 168.0
147.811996 196.0
147.847763 108.0
147.894287 192.0
147.912415 228.0
147.935852 184.0
147.980362 144.0
148.021362 100.0
148.038086 176.0
148.07576 168.0
148.107376 148.0
148.136444 140.0
148.158249 156.0
148.185913 104.0
148.214676 208.0
148.264862 180.0
148.28653 132.0
148.344849 180.0
148.373947 88.0
148.4254 164.0
148.495193 196.0
148.565536 356.0
148.58252 148.0
148.600266 140.0
148.62059 140.0
148.672302 420.0
148.719009 180.0
148.746506 112.0
148.774796 196.0
148.82962 216.0
148.945114 156.0
148.992844 48.0
149.024429 60.0
149.050598 156.0
149.087601 52.0
149.126495 268.0
149.179977 152.0
149.199417 264.0
149.265076 92.0
149.284195 176.0
149.369659 212.0
149.386688 248.0
149.403717 144.0
149.425613 180.0
149.465591 228.0
149.498611 108.0
149.537491 168.0
149.571625 164.0
149.630066 184.0
149.649536 172.0
149.700668 140.0
149.720154 72.0
149.759125 216.0
149.794174 160.0
149.818665 148.0
149.834641 152.0
149.899368 292.0
149.932114 204.0
149.989731 168.0
150.010117 136.0
150.033783 108.0
150.102768 200.0
150.124542 164.0
150.19545 164.0
150.236923 164.0
150.258453 208.0
150.283279 212.0
150.317444 172.0
150.346725 132.0
150.373718 160.0
150.394058 156.0
150.417511 156.0
150.454361 168.0
150.499771 260.0
150.524948 44.0
150.555099 128.0
150.610611 188.0
150.706223 188.0
150.727692 136.0
150.790344 132.0
150.842575 52.0
150.893906 104.0
150.935486 112.0
150.952591 176.0
150.975525 128.0
151.023468 192.0
151.05043 168.0
151.089569 208.0
151.109146 132.0
151.126282 276.0
151.171555 176.0
151.209488 168.0
151.228714 228.0
151.267319 160.0
151.309845 104.0
151.363785 140.0
151.399384 144.0
151.423752 200.0
151.444534 136.0
151.500885 144.0
151.542526 160.0
151.572815 168.0
151.699387 136.0
151.723297 524.0
151.749512 184.0
151.788681 152.0
151.937286 164.0
151.983521 128.0
152.005905 128.0
152.011749 196.0
152.030533 132.0
152.061737 300.0
152.091888 180.0
152.145889 168.0
152.196182 116.0
152.26622 168.0
152.2957 164.0
152.323883 192.0
152.352188 32.0
152.386688 212.0
152.438202 160.0
152.590988 304.0
152.627472 116.0
152.676666 128.0
152.697571 172.0
152.725861 208.0
152.777512 132.0
152.799652 128.0
152.83902 156.0
152.883316 176.0
152.938019 108.0
152.973206 132.0
152.994675 200.0
153.06871 404.0
153.134796 172.0
153.161545 136.0
153.178787 116.0
153.205887 136.0
153.223145 112.0
153.245316 192.0
153.272415 168.0
153.343887 104.0
153.371429 164.0
153.401169 152.0
153.434875 132.0
153.451172 200.0
153.486877 72.0
153.509079 80.0
153.575668 144.0
153.606644 200.0
153.642273 128.0
153.659546 116.0
153.683685 148.0
153.733627 160.0
153.790771 160.0
153.815018 124.0
153.874954 212.0
153.898972 196.0
153.930191 204.0
153.959351 148.0
153.988876 184.0
154.007401 168.0
154.064865 424.0
154.125595 176.0
154.14801 112.0
154.172653 140.0
154.197891 140.0
154.237427 172.0
154.287262 104.0
154.315552 204.0
154.339844 132.0
154.377045 180.0
154.405411 188.0
154.431778 176.0
154.457458 176.0
154.483032 128.0
154.52829 396.0
154.553787 44.0
154.561432 136.0
154.588257 288.0
154.602493 172.0
154.623917 96.0
154.6474 388.0
154.674515 236.0
154.679901 216.0
154.69342 600.0
154.720932 304.0
154.745132 456.0
154.775497 368.0
154.79071 620.0
154.800125 224.0
154.826401 400.0
154.847824 424.0
154.874252 292.0
154.8927 472.0
154.928528 588.0
154.96666 816.0
154.970505 648.0
154.980362 720.0
155.049911 449488.0
155.129181 196.0
155.138763 320.0
155.190918 228.0
155.218216 288.0
155.243042 280.0
155.277054 604.0
155.319229 692.0
155.348053 244.0
155.353973 200.0
155.383072 140.0
155.407501 72.0
155.429581 668.0
155.458542 5192.0
155.489975 584.0
155.527527 248.0
155.531387 220.0
155.5858 444.0
155.619247 64.0
155.641464 160.0
155.651596 168.0
155.687943 124.0
155.708374 304.0
155.723846 164.0
155.768723 280.0
155.791763 224.0
155.821899 168.0
155.866104 352.0
155.908585 188.0
155.930405 280.0
155.959763 220.0
156.007401 476.0
156.023666 176.0
156.052231 88048.0
156.110474 228.0
156.148041 76.0
156.172974 92.0
156.195862 68.0
156.227295 328.0
156.250168 164.0
156.279266 196.0
156.298157 188.0
156.305527 76.0
156.311722 228.0
156.355286 120.0
156.38591 172.0
156.430954 108.0
156.460022 168.0
156.508698 144.0
156.526337 100.0
156.548889 48.0
156.574509 36.0
156.605408 136.0
156.647949 216.0
156.667847 112.0
156.715744 140.0
156.72525 72.0
156.734497 220.0
156.763855 36.0
156.792618 128.0
156.803543 108.0
156.813065 240.0
156.830505 100.0
156.857147 248.0
156.875671 268.0
156.908325 104.0
156.932587 268.0
156.960052 212.0
156.992126 228.0
157.054352 4692.0
157.115356 140.0
157.156601 164.0
157.195145 544.0
157.213104 280.0
157.225021 328.0
157.244797 356.0
157.248444 304.0
157.272766 656.0
157.296021 132.0
157.303802 356.0
157.314438 320.0
157.320953 300.0
157.343246 144.0
157.354279 108.0
157.362503 96.0
157.386566 144.0
157.440155 88.0
157.463486 116.0
157.525772 64.0
157.545227 112.0
157.572342 188.0
157.619904 108.0
157.656021 68.0
157.699234 84.0
157.72319 156.0
157.742569 28.0
157.790771 56.0
157.810928 80.0
157.875412 60.0
157.910858 132.0
157.936401 204.0
157.990082 80.0
158.017975 184.0
158.056412 636.0
158.090118 224.0
158.129166 72.0
158.139404 68.0
158.146332 160.0
158.167389 160.0
158.210388 156.0
158.255173 272.0
158.282745 80.0
158.318939 136.0
158.366608 176.0
158.392288 112.0
158.443298 68.0
158.483841 112.0
158.510956 220.0
158.558578 48.0
158.613297 72.0
158.648819 44.0
158.689941 76.0
158.76918 48.0
158.791748 164.0
158.910019 112.0
158.947296 88.0
159.029343 236.0
159.065552 180.0
159.093597 148.0
159.15062 32.0
159.168198 56.0
159.236008 76.0
159.258606 68.0
159.287125 148.0
159.339005 36.0
159.361618 28.0
159.438339 176.0
159.462128 128.0
159.518234 76.0
159.557663 60.0
159.597885 116.0
159.67836 84.0
159.716095 104.0
159.932495 216.0
159.950119 100.0
159.997955 172.0
160.043365 228.0
160.070999 332.0
160.126373 56.0
160.157516 100.0
160.212021 68.0
160.25737 84.0
160.31282 200.0
160.355667 52.0
160.383392 80.0
160.411118 40.0
160.469101 100.0
160.627991 96.0
160.778534 96.0
160.900543 36.0
160.922073 124.0
160.986404 140.0
161.044891 100.0
161.188507 60.0
161.350266 76.0
161.479248 84.0
161.625977 100.0
161.732269 32.0
161.77594 112.0
161.858078 104.0
161.947495 36.0
162.010834 164.0
162.028564 216.0
162.081528 84.0
162.10965 92.0
162.205292 120.0
162.312454 48.0
162.339233 128.0
162.411362 108.0
162.436432 68.0
162.572357 160.0
162.634659 80.0
162.690506 68.0
162.75145 96.0
162.774307 72.0
162.886063 72.0
162.919083 128.0
162.972443 48.0
163.000397 116.0
163.079178 108.0
163.15036 104.0
163.277496 224.0
163.346176 52.0
163.476532 68.0
163.567566 44.0
163.682144 76.0
163.710159 100.0
163.758545 72.0
163.781464 124.0
163.858353 112.0
163.990265 132.0
164.019363 116.0
164.081528 124.0
164.190277 72.0
164.217346 64.0
164.288925 68.0
164.350006 60.0
164.444427 132.0
164.467407 108.0
164.50058 84.0
164.582291 120.0
164.643585 68.0
164.686996 140.0
164.727875 136.0
164.830078 132.0
164.919525 44.0
164.978317 104.0
165.037048 84.0
165.068756 576.0
165.108734 196.0
165.13942 172.0
165.175598 168.0
165.223846 72.0
165.282684 52.0
165.3134 100.0
165.423462 132.0
165.449066 64.0
165.472412 68.0
165.535004 64.0
165.5578 112.0
165.638565 80.0
165.73938 172.0
165.790649 68.0
165.821716 84.0
165.84613 84.0
165.869202 116.0
165.933289 96.0
165.976425 88.0
166.021255 168.0
166.046127 96.0
166.071045 240.0
166.112503 132.0
166.189789 104.0
166.212875 76.0
166.280609 92.0
166.382294 80.0
166.415665 92.0
166.447891 124.0
166.526093 160.0
166.590317 64.0
166.608292 80.0
166.641693 48.0
166.8396 84.0
166.945023 64.0
166.974564 112.0
167.022186 104.0
167.045792 308.0
167.084427 720.0
167.186859 44.0
167.240906 52.0
167.282379 108.0
167.312988 100.0
167.338745 100.0
167.421143 156.0
167.43956 80.0
167.475235 120.0
167.51387 80.0
167.634705 252.0
167.683945 52.0
167.833466 172.0
167.925644 116.0
168.0 84.0
168.037231 44.0
168.081253 132.0
168.1353 72.0
168.302414 152.0
168.372818 84.0
168.509735 144.0
168.579498 148.0
168.662216 48.0
168.832855 176.0
168.933731 88.0
169.060532 132.0
169.084213 160.0
169.112289 36.0
169.215836 112.0
169.316833 76.0
169.366043 152.0
169.5215 64.0
169.604446 96.0
169.648514 84.0
169.718521 128.0
169.819656 124.0
169.845596 84.0
169.895996 140.0
169.963486 64.0
169.996078 40.0
170.060272 812.0
170.092117 132.0
170.193375 36.0
170.268692 72.0
170.338821 140.0
170.564896 68.0
170.791122 72.0
170.819748 144.0
170.884781 104.0
170.99408 80.0
171.064362 620.0
171.109924 96.0
171.142471 40.0
171.168518 116.0
171.321045 124.0
171.38472 168.0
171.431625 56.0
171.470718 64.0
171.794067 40.0
171.856674 228.0
171.887985 224.0
171.916336 116.0
171.955841 36.0
171.97934 160.0
172.045807 252.0
172.073792 1972.0
172.292709 68.0
172.339737 64.0
172.493073 120.0
172.541 172.0
172.713593 156.0
172.826096 208.0
172.933395 32.0
172.964813 52.0
173.044373 296.0
173.078293 448.0
173.169052 148.0
173.591003 96.0
173.803497 112.0
173.89534 124.0
174.052383 492.0
174.086075 180.0
174.126404 156.0
174.239655 140.0
174.394409 124.0
174.586334 124.0
174.615265 208.0
174.791534 172.0
174.828369 96.0
174.888916 196.0
175.007385 44.0
175.062683 152.0
175.24707 148.0
175.953949 48.0
176.038452 96.0
176.080704 64.0
176.445374 112.0
176.477097 96.0
176.543213 64.0
176.614624 44.0
176.712509 108.0
176.836899 116.0
176.969254 176.0
177.046051 144.0
177.101669 148.0
177.793701 104.0
177.886597 80.0
177.931732 72.0
178.081848 168.0
178.38382 140.0
179.082977 176.0
179.109848 104.0
179.176453 132.0
179.272385 152.0
179.312363 140.0
179.501648 240.0
179.736389 132.0
179.867172 104.0
180.079178 160.0
180.206345 152.0
180.267807 180.0
180.305222 56.0
180.329849 208.0
180.446899 140.0
180.618134 144.0
180.655518 40.0
180.984726 80.0
181.061844 640.0
181.375885 112.0
181.475082 128.0
182.062759 208.0
182.103043 112.0
182.135284 144.0
182.422821 64.0
182.503326 148.0
182.629883 128.0
183.063889 244.0
183.332611 100.0
183.866608 72.0
183.899002 124.0
184.046936 148.0
184.074051 3368.0
184.42572 36.0
184.64473 184.0
184.671768 52.0
184.836807 180.0
184.974838 48.0
184.996506 28.0
185.050644 240.0
185.076416 920.0
185.171494 256.0
185.294418 36.0
185.337769 192.0
185.497681 96.0
185.519363 156.0
185.57901 44.0
185.703766 132.0
185.957779 184.0
185.978165 152.0
186.052582 268.0
186.087891 2748.0
186.250198 80.0
186.330856 80.0
186.455856 64.0
186.534683 112.0
186.682587 172.0
187.056992 236.0
187.09375 488.0
187.116882 116.0
187.157578 144.0
187.195847 160.0
187.2258 160.0
187.291168 180.0
187.321136 232.0
187.342926 128.0
187.400146 84.0
187.650909 152.0
187.702713 108.0
187.811813 208.0
187.920944 188.0
188.067123 1108.0
188.107697 476.0
188.357758 76.0
188.396011 108.0
188.450653 216.0
188.502563 132.0
188.901764 148.0
189.066528 148.0
189.142578 104.0
189.501343 140.0
189.558884 44.0
189.896103 104.0
190.074432 148.0
190.121078 72.0
190.337967 96.0
190.708847 136.0
190.843567 108.0
191.011337 88.0
191.058105 124.0
191.556396 68.0
191.989136 104.0
192.543884 140.0
192.950089 96.0
193.061478 208.0
193.190704 104.0
193.392715 200.0
193.453613 132.0
193.555603 120.0
193.82753 92.0
193.988297 96.0
194.055008 192.0
194.066849 84.0
194.074661 144.0
194.107513 120.0
194.1297 56.0
194.26561 112.0
194.299774 96.0
194.490387 144.0
194.720856 56.0
194.820847 140.0
195.078217 400.0
195.15715 180.0
195.337936 120.0
195.407486 128.0
195.635712 64.0
195.85849 136.0
196.074997 120.0
196.204056 136.0
196.226364 36.0
196.388107 72.0
196.446686 148.0
196.502487 132.0
196.586197 140.0
197.049728 272.0
197.091873 144.0
197.178696 116.0
197.547379 128.0
197.89444 180.0
198.006454 104.0
198.053894 708.0
198.087677 292.0
198.115692 124.0
198.303452 220.0
198.676819 188.0
198.744293 144.0
198.962677 108.0
199.013214 196.0
199.057068 292.0
199.096771 132.0
199.139587 140.0
199.29129 132.0
199.426193 100.0
199.584717 124.0
199.651123 52.0
199.890244 128.0
200.01741 152.0
200.069305 21976.0
200.163925 36.0
200.194275 124.0
200.242157 64.0
200.278778 56.0
200.357651 144.0
200.450638 80.0
200.536606 156.0
200.587585 68.0
200.659225 68.0
200.772781 180.0
200.93515 92.0
201.012268 128.0
201.034393 136.0
201.072708 2132.0
201.141647 160.0
201.294113 64.0
201.370377 44.0
201.43251 96.0
201.463593 36.0
201.520096 32.0
201.58226 76.0
201.695694 92.0
201.746201 92.0
201.890411 36.0
201.969604 88.0
202.074936 456.0
202.156342 52.0
202.176147 76.0
202.215775 60.0
202.374313 76.0
202.473434 152.0
202.501755 132.0
202.541412 104.0
202.631958 212.0
202.6604 76.0
202.700073 76.0
202.725571 104.0
202.762421 100.0
202.804932 72.0
202.855011 120.0
203.071472 152.0
203.092819 212.0
203.190613 120.0
203.298447 128.0
203.358047 116.0
203.437531 72.0
203.664703 180.0
203.784027 64.0
204.18486 84.0
204.204758 88.0
204.292953 48.0
204.349854 60.0
204.435211 60.0
204.506378 64.0
205.058945 112.0
205.392563 188.0
205.421082 132.0
206.060593 196.0
206.263504 184.0
206.323547 140.0
206.515137 48.0
206.572357 172.0
206.646744 44.0
206.93869 212.0
207.07901 164.0
207.394196 40.0
207.781357 172.0
208.091187 168.0
208.740738 92.0
208.950714 136.0
209.218369 72.0
209.287476 84.0
209.345078 56.0
209.376755 120.0
209.517899 220.0
209.785919 84.0
210.055115 148.0
210.089264 524.0
210.15799 176.0
210.221466 52.0
210.276306 96.0
210.297623 52.0
210.440857 92.0
210.513046 108.0
210.654572 80.0
211.059204 232.0
211.093918 108.0
211.31665 120.0
211.400558 184.0
211.455551 156.0
211.580032 132.0
211.698746 156.0
211.797226 116.0
211.863846 96.0
211.889923 124.0
211.968155 140.0
212.017426 160.0
212.068726 10776.0
212.112137 160.0
212.152328 52.0
212.182663 88.0
212.237747 68.0
212.287048 116.0
212.44368 108.0
212.483047 144.0
212.519119 112.0
212.582947 80.0
212.640991 104.0
212.661316 128.0
212.800934 44.0
212.93425 68.0
213.071838 1796.0
213.123077 48.0
213.149231 92.0
213.181198 76.0
213.218979 76.0
213.25676 64.0
213.278671 88.0
213.370132 56.0
213.620255 44.0
213.751175 64.0
213.809387 200.0
214.027725 100.0
214.08255 1432.0
214.12674 132.0
214.284042 44.0
214.410919 216.0
214.455994 92.0
214.490967 136.0
214.549271 72.0
214.584259 36.0
214.660065 40.0
215.079788 356.0
215.123993 224.0
215.185303 144.0
215.258316 84.0
215.310883 136.0
215.538742 44.0
215.997772 196.0
216.065063 196.0
216.088898 164.0
216.480713 72.0
216.550995 148.0
216.59787 124.0
216.729706 36.0
216.861588 140.0
217.097839 300.0
217.251602 44.0
217.530396 28.0
217.738876 136.0
217.876938 52.0
217.900452 140.0
217.985657 136.0
218.076767 144.0
218.1091 296.0
218.33844 124.0
218.473755 76.0
218.83577 172.0
218.909393 160.0
219.077286 148.0
219.351349 136.0
220.026932 112.0
220.094849 184.0
220.127335 144.0
220.390244 60.0
220.875107 132.0
221.028946 168.0
221.230225 72.0
221.401962 68.0
221.585617 204.0
221.84346 156.0
222.015442 108.0
222.19342 124.0
222.424911 104.0
222.632751 148.0
222.81395 240.0
222.977386 144.0
223.07251 168.0
223.200348 132.0
223.397263 136.0
223.465088 148.0
223.756775 44.0
224.361588 44.0
224.447906 172.0
224.501724 56.0
224.558395 116.0
224.713516 80.0
224.737396 72.0
224.950882 128.0
225.032898 84.0
225.096619 412.0
225.552719 92.0
225.573654 124.0
225.821838 220.0
226.083771 168.0
226.243774 124.0
226.330612 80.0
226.522293 64.0
226.641052 188.0
226.771851 140.0
226.830948 140.0
227.046844 48.0
227.075073 116.0
227.119888 236.0
227.427887 184.0
227.944473 104.0
228.082123 244.0
228.105362 248.0
228.236053 48.0
228.290192 164.0
228.867966 196.0
229.09668 560.0
229.353027 88.0
229.69075 200.0
229.726959 128.0
230.069733 376.0
230.099319 200.0
230.327682 120.0
230.50293 176.0
230.666138 148.0
230.702408 112.0
230.841507 96.0
230.908035 60.0
230.944336 112.0
231.035095 44.0
231.080521 152.0
231.334702 92.0
231.367996 132.0
231.589066 108.0
231.731445 84.0
232.078629 160.0
232.183136 36.0
232.280197 132.0
232.33783 120.0
232.47438 84.0
233.096924 136.0
233.446533 80.0
233.65033 108.0
234.078171 176.0
234.116058 124.0
234.283585 124.0
234.390228 104.0
235.015335 164.0
235.079422 48.0
235.650452 140.0
235.800186 120.0
236.084518 140.0
236.191574 92.0
236.38739 80.0
236.714951 40.0
237.171448 100.0
237.471954 112.0
237.543457 360.0
237.895416 52.0
238.033585 144.0
238.088867 124.0
238.254745 168.0
238.316193 180.0
238.349991 68.0
238.974197 152.0
239.082703 716.0
239.337418 76.0
239.374359 92.0
239.497559 100.0
239.549927 188.0
239.981415 144.0
240.093964 216.0
240.404022 248.0
240.533661 120.0
240.830093 68.0
241.096039 468.0
241.135986 180.0
241.219452 140.0
241.553436 68.0
241.797882 88.0
241.95575 164.0
242.095993 504.0
242.138458 200.0
242.640457 104.0
242.708679 128.0
243.07782 224.0
243.10463 308.0
243.326141 84.0
243.51239 164.0
243.649155 48.0
243.872894 140.0
244.0867 260.0
244.119232 140.0
244.171387 128.0
244.41716 232.0
244.510513 72.0
244.783646 60.0
244.837433 168.0
244.92775 112.0
244.993179 84.0
245.089767 96.0
245.112274 212.0
245.158325 144.0
246.000488 152.0
246.094162 184.0
246.225311 144.0
246.437408 188.0
246.478363 232.0
246.731537 184.0
246.875381 120.0
246.96608 108.0
247.106537 152.0
247.131897 40.0
247.347839 76.0
247.686035 52.0
247.976196 144.0
248.077759 52.0
248.328613 132.0
249.547104 36.0
249.575394 152.0
249.619415 80.0
249.70433 88.0
250.088196 156.0
250.113388 124.0
250.141708 116.0
250.166901 120.0
250.288651 180.0
250.368423 84.0
250.948257 44.0
251.073273 124.0
251.118546 220.0
251.153244 176.0
251.292053 212.0
251.554001 140.0
251.936127 212.0
251.99617 192.0
252.092651 120.0
252.893494 140.0
252.954453 92.0
253.096359 292.0
253.239441 200.0
253.385162 220.0
253.407333 32.0
253.477051 192.0
253.511902 164.0
253.701157 176.0
253.984329 160.0
254.031906 136.0
254.091812 516.0
254.18103 144.0
254.212769 160.0
254.266388 112.0
254.816101 112.0
254.978165 116.0
255.074326 268.0
255.100998 696.0
255.16571 164.0
255.595123 172.0
255.735153 152.0
256.077454 424.0
256.111359 352.0
256.155487 64.0
256.286102 76.0
256.735596 40.0
257.10144 296.0
257.396179 64.0
257.498383 68.0
257.546295 160.0
257.853027 60.0
257.94574 136.0
258.073608 52.0
258.107697 132.0
258.198334 124.0
258.783966 100.0
258.857605 100.0
258.889618 76.0
259.069 216.0
259.232422 164.0
259.629944 40.0
259.716553 128.0
259.755035 48.0
259.777496 176.0
260.101624 232.0
260.136932 80.0
260.789032 184.0
260.969055 72.0
261.11377 200.0
261.25531 116.0
262.079559 180.0
262.189117 68.0
262.495392 56.0
262.746979 136.0
263.063263 60.0
263.554169 84.0
264.029388 116.0
264.091797 152.0
264.252594 144.0
264.582733 112.0
265.093384 124.0
265.243622 136.0
265.454376 64.0
265.876099 116.0
266.098175 148.0
266.20401 120.0
266.92868 40.0
267.100433 484.0
267.234467 68.0
267.419952 104.0
267.644592 88.0
267.696686 128.0
267.791138 152.0
267.826965 72.0
268.00943 68.0
268.091339 360.0
268.116394 564.0
268.873627 40.0
269.016327 156.0
269.081421 688.0
269.281738 160.0
269.32959 184.0
269.490814 52.0
269.539825 76.0
269.562714 72.0
269.592102 72.0
269.686554 144.0
269.735931 124.0
270.091034 1888.0
270.164337 244.0
270.517792 72.0
270.674927 140.0
270.858368 128.0
270.933716 40.0
271.097015 3800.0
271.14212 944.0
271.199127 80.0
271.257782 180.0
271.307312 60.0
271.349945 96.0
271.461426 68.0
271.700867 116.0
271.750092 108.0
272.023407 52.0
272.100586 1152.0
272.143768 584.0
272.27533 164.0
272.403442 56.0
272.515137 96.0
272.577576 88.0
272.603851 96.0
272.636719 92.0
272.699188 128.0
272.81424 136.0
272.916138 136.0
272.942444 72.0
273.078217 116.0
273.103027 536.0
273.149658 180.0
273.337189 64.0
273.69931 72.0
273.900208 40.0
273.987823 108.0
274.074829 160.0
274.598999 112.0
275.936432 64.0
275.979431 60.0
276.095001 152.0
276.296936 116.0
276.763641 64.0
276.97229 144.0
277.031921 68.0
277.134613 72.0
277.416351 56.0
277.568878 96.0
277.674988 100.0
277.757904 52.0
277.784454 192.0
278.09964 156.0
278.232483 136.0
278.305511 224.0
279.006592 108.0
279.107605 324.0
279.179504 144.0
279.635315 100.0
279.738495 132.0
280.038177 152.0
280.111755 328.0
280.296692 156.0
280.478027 116.0
280.511353 92.0
280.768097 128.0
281.110992 284.0
281.17514 68.0
281.382111 136.0
281.562439 132.0
281.883148 136.0
281.909882 80.0
282.090698 1044.0
282.12793 276.0
282.160583 40.0
282.18399 56.0
282.498383 84.0
282.829681 96.0
283.099762 1300.0
283.261658 56.0
283.717407 132.0
283.76413 56.0
284.103241 824.0
284.131775 284.0
284.21048 76.0
284.250732 124.0
284.341339 92.0
284.448761 184.0
284.502472 80.0
284.881592 240.0
284.996216 88.0
285.025269 124.0
285.081299 300.0
285.10791 524.0
285.143158 164.0
285.33905 32.0
285.402924 116.0
285.433197 108.0
285.456726 56.0
285.894073 60.0
286.081055 868.0
286.106812 300.0
286.163361 148.0
286.274506 248.0
286.345215 116.0
286.803467 52.0
287.09137 500.0
287.101074 244.0
287.114807 324.0
287.262085 100.0
287.322815 56.0
287.687286 36.0
287.781311 128.0
287.950684 68.0
288.095367 420.0
288.156769 156.0
288.302063 124.0
288.366272 152.0
288.444031 44.0
288.468781 124.0
288.859955 168.0
289.330383 84.0
289.469208 56.0
289.716461 84.0
289.89267 148.0
290.102814 140.0
290.319824 120.0
290.428345 116.0
290.803253 156.0
290.978119 160.0
291.079987 156.0
291.253204 76.0
291.378906 132.0
291.688171 120.0
291.796967 100.0
292.065613 44.0
292.106445 120.0
292.130249 164.0
292.228912 44.0
292.385468 144.0
293.110199 156.0
293.132141 164.0
293.540375 52.0
293.584686 256.0
293.608582 48.0
293.983856 168.0
294.092102 340.0
294.126587 356.0
294.202301 196.0
294.414001 192.0
294.500397 136.0
294.653137 64.0
294.74881 108.0
294.950439 40.0
295.107574 192.0
295.133026 192.0
295.607147 84.0
295.805664 172.0
296.107208 1876.0
296.401611 136.0
296.579834 160.0
296.932983 192.0
296.970734 72.0
297.011871 172.0
297.114258 1004.0
297.255493 88.0
297.306946 44.0
297.729248 72.0
297.773895 44.0
297.84259 76.0
298.085052 2424.0
298.118866 772.0
298.478424 208.0
298.650391 140.0
298.684784 64.0
298.770782 72.0
298.82135 132.0
298.910034 76.0
298.970367 160.0
299.002747 324.0
299.01593 132.0
299.030121 144.0
299.092377 11020.0
299.137451 8524.0
299.303009 76.0
299.36972 36.0
299.446045 72.0
299.502075 48.0
299.535034 52.0
299.585754 124.0
299.669403 32.0
299.731415 52.0
299.769318 40.0
299.819794 100.0
299.871246 132.0
299.94986 264.0
299.983032 44.0
300.097778 2888.0
300.137665 1804.0
300.189911 156.0
300.23819 44.0
300.317505 40.0
300.348572 80.0
300.403748 44.0
300.469299 84.0
300.618378 60.0
300.714325 176.0
300.766083 116.0
300.897278 92.0
300.945618 120.0
300.974823 96.0
301.025055 40.0
301.103271 568.0
301.143341 164.0
301.150146 628.0
301.190826 88.0
301.273743 52.0
301.4534 32.0
301.785248 144.0
302.023895 44.0
302.081543 96.0
302.119263 220.0
302.155365 136.0
302.207611 116.0
302.279572 116.0
303.03479 108.0
303.131805 100.0
303.221924 200.0
303.315521 84.0
303.362793 100.0
303.402191 184.0
303.461121 52.0
303.794983 56.0
304.061249 92.0
304.113739 132.0
304.384125 124.0
304.501312 92.0
305.096436 124.0
305.687744 108.0
306.07373 136.0
306.085754 120.0
306.100494 56.0
306.12915 200.0
306.203003 72.0
306.335358 116.0
306.83374 76.0
306.934845 192.0
307.098389 260.0
307.135986 256.0
307.971405 124.0
308.101044 588.0
308.170532 184.0
308.397675 108.0
308.883728 48.0
308.922211 112.0
309.11554 684.0
309.692352 180.0
309.895538 156.0
310.00766 32.0
310.115265 1296.0
310.277557 64.0
310.53006 56.0
310.568634 28.0
310.59671 76.0
310.908966 60.0
311.090668 412.0
311.129944 756.0
311.208374 124.0
311.291656 40.0
311.34082 120.0
311.832703 72.0
311.870728 136.0
311.990875 32.0
312.022522 40.0
312.054169 64.0
312.099304 712.0
312.136688 3872.0
312.177643 192.0
312.33902 84.0
312.465668 56.0
312.757782 76.0
312.89505 76.0
313.067596 156.0
313.101349 364.0
313.139252 1140.0
313.497406 44.0
313.670105 72.0
313.793518 60.0
313.888702 176.0
313.983948 48.0
314.115936 1260.0
314.148285 580.0
314.209686 132.0
314.386139 84.0
314.530853 104.0
314.668518 92.0
314.760345 128.0
315.11734 196.0
315.160156 388.0
315.198364 44.0
315.293793 52.0
315.392761 108.0
315.615479 60.0
315.760468 40.0
316.128418 152.0
316.163239 176.0
316.478882 36.0
316.691376 152.0
316.726776 56.0
317.063385 176.0
317.120087 68.0
317.393097 48.0
317.818756 48.0
318.191437 92.0
318.368988 216.0
318.983673 104.0
319.456665 132.0
319.778687 40.0
319.99408 204.0
320.107208 164.0
321.110992 400.0
321.912506 140.0
322.12561 880.0
322.207855 128.0
322.255402 56.0
322.670013 64.0
323.083649 204.0
323.126892 560.0
323.335388 212.0
323.417725 188.0
323.49646 128.0
323.747101 152.0
323.782928 48.0
323.874756 132.0
324.019348 108.0
324.106842 484.0
324.13324 472.0
324.470947 148.0
324.59137 192.0
324.625122 136.0
325.108124 1004.0
325.353546 76.0
325.525879 48.0
325.675201 96.0
325.784485 52.0
325.849182 52.0
325.892273 100.0
325.91745 108.0
326.112854 2092.0
326.160187 108.0
326.21936 116.0
326.363159 100.0
326.532196 44.0
326.604126 92.0
326.937256 116.0
326.964844 124.0
327.118011 1052.0
327.388763 156.0
327.619293 212.0
327.720184 84.0
327.764648 208.0
327.885956 92.0
327.999664 156.0
328.033722 348.0
328.066162 172.0
328.132568 24672.0
328.254578 64.0
328.30777 172.0
328.378082 80.0
328.444824 68.0
328.480896 64.0
328.516357 72.0
328.559601 88.0
328.61438 52.0
328.657257 116.0
328.794373 132.0
328.903107 92.0
328.97168 36.0
329.010345 152.0
329.054718 180.0
329.087219 188.0
329.135803 4612.0
329.351624 76.0
329.386993 40.0
329.51181 108.0
329.589813 116.0
329.668823 104.0
329.764587 80.0
329.900146 56.0
329.983307 36.0
330.089203 56.0
330.134399 1076.0
330.228333 164.0
330.471588 124.0
330.580139 84.0
330.663391 68.0
330.743011 108.0
330.779236 40.0
330.899445 76.0
330.991241 72.0
331.029053 120.0
331.137695 84.0
331.210785 112.0
331.236755 220.0
331.328674 268.0
331.358673 184.0
331.384033 144.0
331.43399 92.0
331.47464 52.0
331.590607 76.0
331.699341 136.0
331.942261 84.0
332.025116 76.0
332.08371 76.0
332.34491 96.0
332.758698 44.0
332.940277 156.0
333.270844 92.0
333.325348 56.0
333.910675 68.0
334.168945 48.0
334.704041 140.0
334.795074 52.0
335.197449 132.0
335.567596 88.0
335.967499 68.0
336.10379 132.0
336.465149 80.0
336.662323 56.0
337.106415 108.0
337.192078 124.0
337.243256 92.0
337.484558 140.0
338.121735 160.0
338.406616 48.0
338.882782 52.0
338.952393 152.0
339.116302 208.0
339.152466 148.0
339.25296 144.0
339.660004 116.0
339.689362 184.0
339.759064 96.0
339.861816 116.0
340.131042 12732.0
340.207092 100.0
340.245239 144.0
340.346344 52.0
340.390411 48.0
340.522003 220.0
340.693604 88.0
340.846802 136.0
340.884491 96.0
341.005493 124.0
341.135193 4524.0
341.318085 68.0
341.423065 112.0
341.503998 48.0
341.537109 52.0
341.59964 104.0
341.658508 76.0
341.832764 84.0
341.894012 56.0
341.949219 52.0
342.142639 2652.0
342.287506 72.0
342.332092 32.0
342.368927 64.0
342.531006 80.0
342.70047 60.0
342.825745 84.0
342.855255 80.0
342.895782 48.0
342.958282 88.0
343.069031 64.0
343.151245 636.0
343.24234 116.0
343.301331 116.0
343.349274 124.0
343.386169 48.0
343.440552 96.0
343.515259 48.0
343.570587 96.0
343.607483 76.0
343.732941 36.0
343.758789 72.0
343.791992 84.0
344.126831 68.0
344.153168 176.0
344.209167 80.0
344.427063 72.0
344.489868 124.0
344.792847 120.0
344.962891 116.0
345.018341 48.0
345.347473 60.0
345.521332 72.0
346.939819 108.0
347.703949 56.0
347.926666 116.0
348.03064 124.0
348.134613 128.0
348.546967 132.0
348.610138 152.0
348.725372 108.0
350.027496 128.0
350.850952 76.0
351.425323 136.0
351.473846 108.0
351.97403 44.0
353.708832 84.0
354.087036 76.0
354.146942 188.0
354.73526 112.0
354.825256 48.0
356.228851 88.0
356.311523 92.0
357.627716 120.0
358.772919 56.0
359.116089 284.0
359.180206 100.0
360.365662 100.0
362.299011 52.0
363.444061 128.0
365.229706 216.0
367.111237 64.0
367.233276 48.0
368.17981 264.0
368.707062 196.0
369.869843 56.0
370.118683 64.0
370.153168 148.0
370.789124 96.0
371.544525 40.0
371.816986 100.0
372.181702 56.0
373.276855 100.0
374.081024 128.0
374.312042 68.0
374.859039 104.0
376.16272 76.0
377.956055 124.0
379.024811 144.0
380.001953 100.0
380.083435 60.0
381.963898 92.0
383.131805 92.0
383.16687 108.0
383.872375 200.0
384.160889 132.0
384.641022 124.0
384.719086 76.0
384.922119 120.0
386.794922 48.0
386.877136 204.0
388.939148 76.0
389.343567 60.0
392.046387 56.0
392.081848 156.0
392.547058 176.0
395.304474 112.0
396.552032 104.0
398.099335 36.0
398.174805 204.0
399.080872 32.0
399.205872 184.0
400.163147 112.0
400.19101 72.0
400.653015 64.0
400.812408 28.0
402.927155 120.0
405.243774 88.0
405.933258 104.0
406.065582 172.0
407.398285 196.0
408.580292 120.0
409.186676 140.0
409.715637 48.0
410.203949 364.0
412.156738 68.0
412.197144 216.0
412.860138 124.0
413.175659 256.0
414.892853 88.0
415.253754 64.0
415.976044 200.0
416.56488 140.0
417.146027 72.0
417.471283 84.0
418.488617 172.0
420.392303 32.0
421.854584 60.0
422.500732 116.0
423.200623 120.0
424.015839 116.0
424.934418 136.0
425.127289 124.0
425.463867 168.0
425.582947 96.0
425.90329 188.0
426.326477 132.0
426.667664 120.0
427.03067 116.0
427.137756 144.0
427.2005 14016.0
427.303894 136.0
427.372925 68.0
427.47168 136.0
427.552948 56.0
427.638489 176.0
427.737671 44.0
427.807281 88.0
427.83609 72.0
428.046814 156.0
428.202942 4308.0
428.266602 96.0
428.35498 80.0
428.610443 88.0
428.64978 80.0
429.203613 540.0
429.246246 148.0
429.418488 84.0
429.566986 40.0
430.195862 192.0
430.289215 64.0
430.532837 44.0
430.607178 100.0
430.644348 76.0
430.714569 280.0
430.885406 124.0
430.921143 68.0
431.557678 124.0
431.652771 120.0
431.89267 52.0
432.033325 36.0
432.066406 52.0
432.182251 160.0
432.724487 40.0
432.803162 64.0
436.093048 96.0
436.290894 108.0
436.82077 48.0
439.528931 84.0
440.539368 52.0
441.860474 76.0
446.065155 104.0
448.023834 108.0
451.036957 88.0
451.548584 80.0
452.555786 88.0
454.335907 112.0
455.176331 32.0
456.668091 104.0
456.808472 112.0
458.273041 64.0
458.920929 76.0
461.683838 52.0
464.467896 76.0
465.317657 80.0
465.854492 64.0
466.15097 112.0
466.90332 60.0
472.98288 88.0
474.60321 64.0
474.672607 100.0
475.141052 64.0
477.382416 76.0
477.800018 84.0
478.444153 68.0
483.853546 100.0
484.230164 36.0
489.192139 144.0
491.228119 60.0
494.644104 152.0
496.988617 64.0
497.03299 52.0
498.774017 92.0
503.077332 44.0
504.667908 84.0
506.408783 60.0
507.551575 80.0
510.654877 76.0
511.032776 80.0
511.397278 68.0
512.640381 84.0
518.719604 96.0
518.910034 56.0
518.982605 32.0
519.749207 96.0
520.16217 116.0
521.097778 52.0
523.326538 76.0
529.102295 32.0
529.166382 56.0
530.348328 96.0
532.206421 80.0
532.978088 104.0
534.237915 60.0
535.766357 88.0
536.056641 52.0
536.402344 200.0
539.218018 100.0
548.893188 48.0
554.18927 52.0
555.047119 76.0
557.098206 104.0
557.718506 108.0
563.727844 68.0
566.547913 56.0
567.419983 68.0
569.015564 68.0
569.911865 68.0
573.242859 28.0
574.492126 64.0
580.360718 60.0
582.49646 92.0
582.611755 120.0
584.169373 112.0
585.387146 28.0
588.294617 104.0
590.101562 104.0
590.609375 92.0
591.722473 196.0
592.826843 76.0
593.374634 56.0
593.452209 204.0
594.922302 76.0
595.388428 44.0
597.357056 132.0
598.271973 88.0
600.586731 56.0
613.543152 60.0
614.006653 68.0
620.653259 56.0
622.221191 256.0
623.905457 52.0
625.104187 52.0
625.825989 48.0
629.855713 196.0
633.29718 84.0
634.073792 64.0
634.389587 144.0
635.041504 148.0
635.989807 112.0
638.537292 268.0
641.7099 96.0
642.971008 100.0
643.031616 80.0
645.2948 188.0
645.886475 100.0
646.529053 56.0
648.757812 152.0
649.9599 80.0
651.376404 156.0
652.601257 124.0
654.183594 100.0
654.876099 72.0
656.680481 160.0
656.879395 92.0
659.92334 56.0
666.011719 124.0
668.664917 52.0
669.061279 204.0
669.457764 168.0
670.977844 148.0
671.777222 52.0
674.571106 48.0
675.55365 48.0
675.858948 44.0
686.263245 144.0
686.795166 188.0
692.83313 60.0
694.536865 240.0
698.345093 160.0
698.892212 52.0
700.453247 20.0
700.782532 116.0
708.51239 196.0
710.882568 144.0
711.546082 84.0
713.166382 168.0
713.309875 56.0
715.443176 192.0
715.815918 48.0
715.890442 220.0
717.110535 156.0
719.308228 164.0
719.778076 84.0
720.119873 40.0
725.251221 96.0
730.745178 72.0
731.724731 60.0
734.300598 92.0
734.802307 92.0
735.719849 36.0
737.421448 56.0
738.573181 140.0
740.462219 76.0
740.92804 32.0
741.025574 68.0
741.096008 56.0
743.634033 212.0
743.900024 164.0
748.461731 96.0
749.98175 208.0
751.656128 84.0
756.613708 228.0
756.865601 72.0
757.615967 208.0
757.769409 116.0
758.416077 104.0
759.205627 56.0
761.335022 76.0
762.884521 160.0
763.115417 256.0
764.936523 172.0
766.087463 148.0
766.313354 76.0
769.043213 60.0
769.72229 152.0
769.954224 200.0
771.280334 68.0
771.341125 176.0
772.668396 92.0
773.199646 132.0
773.858398 212.0
774.932922 48.0
778.416504 92.0
780.016663 188.0
780.461426 84.0
783.533875 180.0
786.316528 72.0
787.120422 76.0
788.981079 88.0
789.193542 140.0
790.603271 196.0
791.991821 140.0
792.462402 136.0
793.583435 88.0
797.404724 132.0
797.614441 80.0
797.69873 132.0
797.923645 168.0
798.74469 76.0
801.542908 204.0
802.174194 104.0
804.978394 52.0
805.193054 168.0
805.300354 108.0
805.740967 56.0
808.404297 124.0
809.553467 40.0
810.998291 220.0
812.257141 72.0
813.607788 184.0
814.414185 132.0
816.187378 200.0
819.03302 148.0
820.708618 148.0
822.203247 72.0
823.756348 172.0
824.036316 224.0
824.670654 160.0
825.596863 116.0
826.277588 160.0
827.124573 48.0
828.367249 164.0
828.762573 172.0
829.433105 172.0
830.264526 308.0
831.079102 108.0
831.388977 160.0
831.934326 132.0
832.801392 184.0
833.398926 156.0
833.996582 64.0
834.054077 96.0
835.2099 104.0
836.015381 168.0
836.291687 136.0
837.120728 244.0
837.25946 188.0
838.659058 180.0
839.097168 168.0
840.406494 176.0
841.65332 48.0
845.017395 208.0
845.590271 100.0
845.769714 164.0
846.19812 140.0
848.498352 56.0
848.64325 128.0
850.029663 104.0
851.248718 60.0
851.603027 172.0
851.968994 132.0
852.079346 196.0
852.189758 92.0
853.584839 144.0
854.905396 160.0
855.5224 156.0
856.564819 84.0
856.926025 208.0
858.120911 148.0
858.196716 32.0
859.684265 172.0
859.911865 136.0
862.446838 128.0
862.92627 136.0
863.025635 180.0
863.288818 228.0
865.090942 144.0
867.797791 128.0
868.583618 128.0
873.306396 124.0
873.924072 112.0
874.224182 60.0
874.553406 124.0
874.912903 184.0
875.760864 180.0
875.837463 104.0
876.367676 176.0
876.444275 200.0
876.515015 52.0
876.856812 112.0
877.110291 180.0
877.977051 160.0
878.277832 140.0
879.00946 116.0
880.195984 132.0
880.485352 160.0
880.615295 228.0
880.659851 220.0
880.816101 152.0
881.152893 116.0
881.460144 172.0
882.204895 192.0
883.582886 252.0
884.074036 56.0
884.119507 88.0
884.547546 148.0
884.879089 164.0
885.275818 208.0
886.76886 108.0
889.78241 152.0
891.98053 180.0
893.483276 164.0
893.508301 112.0
893.516479 152.0
893.845825 248.0
894.032593 132.0
895.122009 168.0
896.444519 116.0
898.400269 244.0
899.575989 152.0
899.755066 192.0
899.826721 200.0
902.422729 160.0
902.730774 60.0
903.789612 80.0
903.933228 220.0
904.070862 228.0
904.699402 96.0
905.747375 196.0
906.256592 156.0
906.648499 224.0
908.540955 208.0
909.189026 148.0
909.447144 188.0
909.50116 120.0
910.251648 128.0
910.714111 172.0
910.792175 188.0
911.164673 196.0
912.625244 220.0
913.563477 184.0
914.411926 128.0
914.605347 156.0
915.254761 68.0
916.682434 180.0
916.790955 176.0
917.532349 176.0
919.323914 144.0
919.848999 124.0
919.897278 56.0
920.235413 172.0
921.159424 172.0
921.558167 48.0
922.259949 164.0
922.342163 156.0
923.365723 128.0
923.994873 196.0
924.382141 164.0
924.854187 148.0
925.211365 72.0
925.253723 240.0
926.010681 116.0
927.034607 136.0
927.51947 160.0
927.737732 168.0
928.871765 212.0
928.993103 124.0
929.308594 144.0
929.399597 132.0
929.545227 196.0
929.788025 44.0
929.963989 196.0
930.388977 160.0
931.062988 132.0
931.214844 188.0
931.415283 220.0
931.761536 148.0
931.955994 204.0
932.126099 68.0
932.521179 204.0
933.183777 44.0
933.5 48.0
933.579041 172.0
933.718933 116.0
934.272522 240.0
934.461121 168.0
934.576721 156.0
935.617493 108.0
935.806274 156.0
936.113281 228.0
936.171631 180.0
936.451782 136.0
936.652832 120.0
937.231567 152.0
937.298645 104.0
937.560669 260.0
937.92688 236.0
938.078796 172.0
938.298279 168.0
939.621765 184.0
940.213684 48.0
940.305237 168.0
940.463928 220.0
941.092712 120.0
941.428589 80.0
941.501892 156.0
941.587402 132.0
941.660706 148.0
941.77063 140.0
942.228821 136.0
943.518372 228.0
943.675781 168.0
943.866943 152.0
944.154358 168.0
944.912903 208.0
945.677856 60.0
946.081848 152.0
946.761536 148.0
947.741699 152.0
948.746887 80.0
949.292603 188.0
949.341675 100.0
949.680359 196.0
949.875305 140.0
950.188171 148.0
950.814087 144.0
950.899231 160.0
951.13324 212.0
951.618286 132.0
952.103394 108.0
952.705383 192.0
953.239929 56.0
953.479614 228.0
953.528809 128.0
953.989807 132.0
954.063599 184.0
954.752319 188.0
955.106812 188.0
955.173035 108.0
955.373535 152.0
955.933472 64.0
957.940735 160.0
958.551208 196.0
958.760254 188.0
958.963623 156.0
959.210205 152.0
959.672607 72.0
960.196777 164.0
961.183899 112.0
961.455444 128.0
961.881287 204.0
961.980103 152.0
962.319641 132.0
962.362854 56.0
963.104004 152.0
963.338745 180.0
963.851562 204.0
964.469604 120.0
964.945618 152.0
965.168213 104.0
966.3125 156.0
966.714722 132.0
966.96228 148.0
967.37085 128.0
967.9776 184.0
968.163391 180.0
968.219177 160.0
968.67749 120.0
969.10498 124.0
969.439636 152.0
969.675171 108.0
970.512085 152.0
971.243896 88.0
971.523071 212.0
971.597473 124.0
971.929749 132.0
972.304932 164.0
972.776672 124.0
973.031189 36.0
973.73291 192.0
975.161987 104.0
975.335999 124.0
975.423035 52.0
975.71521 148.0
975.758789 168.0
976.169128 136.0
976.37439 168.0
976.952881 112.0
977.41333 172.0
977.494202 144.0
977.575134 136.0
977.662231 88.0
978.178833 152.0
978.533752 192.0
978.739197 116.0
978.869995 204.0
979.044373 72.0
979.305908 84.0
979.411804 112.0
979.623657 52.0
979.723328 204.0
980.620667 96.0
981.58075 68.0
981.767822 180.0
981.929993 156.0
982.017334 184.0
982.129578 160.0
982.591248 112.0
982.634949 40.0
982.76593 156.0
983.814514 144.0
983.908142 196.0
984.570068 140.0
985.001038 160.0
985.063538 144.0
985.145813 164.0
985.474365 164.0
986.119568 176.0
986.345703 200.0
986.963562 76.0
987.244934 176.0
987.345032 52.0
988.95929 192.0
989.084473 192.0
989.410034 160.0
990.643799 188.0
990.806152 192.0
991.690247 144.0
991.765503 68.0
991.815613 132.0
991.953552 172.0
992.06012 124.0
992.774902 168.0
992.919189 124.0
993.054016 176.0
993.471191 204.0
994.161377 180.0
994.537964 100.0
994.713745 180.0
994.826721 136.0
995.203491 192.0
995.316467 184.0
995.818909 196.0
996.013611 124.0
996.799011 144.0
997.138367 132.0
997.490356 168.0
998.0625 92.0
998.19458 128.0
999.175842 176.0
999.547058 52.0
999.691772 204.0
1000.45343 128.0
1000.799744 212.0
1001.870483 140.0
1002.355652 144.0
1002.500549 120.0
1003.080444 204.0
1003.23175 220.0
1003.496521 212.0
1003.60376 156.0
1004.417297 124.0
1004.91571 236.0
1005.054565 120.0
1005.237549 216.0
1006.140198 208.0
1006.500061 152.0
1007.333801 152.0
1007.415894 92.0
1007.554932 60.0
1007.738159 192.0
1007.965637 176.0
1008.351135 336.0
1008.467957 152.0
1008.945312 88.0
1009.558716 76.0
1010.140625 188.0
1010.558167 132.0
1010.97583 140.0
1013.020996 148.0
1013.356812 176.0
1013.622925 164.0
1014.269409 88.0
1015.106323 144.0
1015.968994 132.0
1016.159302 76.0
1016.635254 152.0
1016.916687 220.0
1017.174744 192.0
1017.612793 180.0
1018.108154 140.0
1018.171631 128.0
1018.298645 140.0
1019.080078 204.0
1019.156311 164.0
1019.219849 156.0
1019.601135 72.0
1020.262268 36.0
1020.599243 124.0
1020.923523 168.0
1021.343323 160.0
1021.394226 44.0
1021.814087 144.0
1021.941345 84.0
1022.41864 140.0
1022.959656 212.0
1023.405334 164.0
1023.615479 36.0
1024.144165 152.0
1024.832153 140.0
1025.016968 88.0
1025.220947 164.0
1025.335571 108.0
1025.412109 160.0
1025.647217 176.0
1025.998535 108.0
1026.987061 224.0
1027.133667 196.0
1027.350586 192.0
1027.541992 164.0
1027.867432 176.0
1027.963135 144.0
1028.046143 220.0
1028.103516 176.0
1028.258545 148.0
1028.352417 168.0
1028.403564 60.0
1028.486572 168.0
1029.182373 128.0
1029.490967 236.0
1029.846558 176.0
1030.191528 172.0
1030.670776 168.0
1031.233154 108.0
1031.335449 144.0
1031.981079 44.0
1032.256104 172.0
1032.575806 76.0
1032.652588 168.0
1032.870117 164.0
1032.966064 136.0
1033.030029 236.0
1033.215576 228.0
1033.311523 152.0
1033.41394 136.0
1033.561035 116.0
1033.748535 192.0
1034.085815 192.0
1034.578735 176.0
1034.815674 220.0
1034.911743 176.0
1035.05896 176.0
1035.225464 124.0
1035.705811 172.0
1035.878784 140.0
1036.173462 184.0
1036.263184 168.0
1036.359375 164.0
1036.42334 176.0
1036.628418 156.0
1036.795044 152.0
1036.9104 152.0
1037.096313 176.0
1037.801514 156.0
1039.616943 168.0
1040.014893 132.0
1040.111206 104.0
1040.265259 144.0
1040.502808 168.0
1040.66333 136.0
1040.990845 152.0
1041.042969 152.0
1041.25415 164.0
1041.446777 224.0
1041.549561 56.0
1042.314087 128.0
1043.284668 152.0
1043.41333 140.0
1043.934082 116.0
1043.991943 196.0
1044.127075 188.0
1044.577271 156.0
1044.744629 164.0
1045.227173 188.0
1045.355835 132.0
1045.497437 92.0
1045.767822 156.0
1046.290771 148.0
1046.337646 136.0
1046.514526 52.0
1046.785034 68.0
1047.487061 180.0
1047.564331 144.0
1047.66748 124.0
1047.725464 116.0
1048.170044 40.0
1048.279541 136.0
1049.111084 216.0
1049.472168 112.0
1049.588135 152.0
1049.762329 176.0
1049.875244 188.0
1050.213745 104.0
1050.329834 208.0
1050.549194 140.0
1050.60083 32.0
1050.729858 152.0
1051.033081 224.0
1051.336182 112.0
1051.969727 152.0
1052.072266 200.0
1053.098511 156.0
1053.783813 212.0
1054.098755 172.0
1054.262085 160.0
1054.614624 168.0
1054.759766 184.0
1054.84375 60.0
1055.283447 208.0
1055.483032 156.0
1055.904175 144.0
1056.466919 244.0
1056.829346 100.0
1057.004028 96.0
1057.19812 140.0
1057.599487 184.0
1057.87439 116.0
1058.026733 156.0
1058.078491 148.0
1058.240356 160.0
1058.350464 232.0
1058.648315 132.0
1058.777832 160.0
1059.095215 152.0
1059.386719 128.0
1059.691284 168.0
1059.846802 148.0
1059.982788 128.0
1060.585571 196.0
1060.658813 188.0
1061.032959 76.0
1061.486816 160.0
1061.635986 120.0
1061.986816 204.0
1062.206787 92.0
1062.35437 184.0
1062.472778 36.0
1063.082642 272.0
1064.608276 192.0
1064.796631 124.0
1064.900513 332.0
1064.998047 80.0
1065.043457 184.0
1065.322754 168.0
1065.615112 192.0
1066.200073 132.0
1066.245483 176.0
1066.713501 108.0
1067.376709 144.0
1067.506714 124.0
1067.649902 144.0
1067.792969 104.0
1067.864502 168.0
1068.007568 140.0
1068.072632 140.0
1068.462769 164.0
1068.671143 132.0
1068.80127 200.0
1069.08313 232.0
1069.720093 104.0
1070.376587 180.0
1072.063843 152.0
1072.213745 184.0
1072.415771 68.0
1072.579834 100.0
1072.650513 120.0
1072.924316 200.0
1072.983032 212.0
1073.041626 44.0
1073.439453 104.0
1073.654663 132.0
1073.73291 140.0
1073.94812 200.0
1074.163452 280.0
1074.509155 168.0
1074.580933 144.0
1074.744019 176.0
1075.12915 168.0
1075.370605 168.0
1075.709961 188.0
1075.879761 192.0
1076.258423 136.0
1076.624146 160.0
1076.82666 144.0
1077.88501 164.0
1078.04834 144.0
1078.145386 200.0
1078.43396 68.0
1078.603882 104.0
1079.983643 188.0
1080.323853 140.0
1080.57251 144.0
1080.874756 156.0
1081.187622 148.0
1081.23999 172.0
1081.318481 116.0
1081.390503 124.0
1081.488647 116.0
1082.706543 132.0
1082.902954 108.0
1083.040527 80.0
1083.195679 160.0
1083.911865 60.0
1083.964355 176.0
1084.259277 144.0
1084.508301 52.0
1084.875366 60.0
1085.553589 176.0
1086.560913 48.0
1086.633057 156.0
1086.738037 52.0
1087.00708 156.0
1087.072754 120.0
1087.243408 224.0
1087.387817 52.0
1088.162354 144.0
1088.444702 172.0
1088.727173 68.0
1088.799438 140.0
1089.035889 152.0
1089.429932 132.0
1089.502197 396.0
1089.567993 148.0
1089.896484 180.0
1090.080444 196.0
1090.277588 128.0
1090.658813 188.0
1090.783813 116.0
1090.928345 144.0
1091.066406 164.0
1091.783203 164.0
1091.993652 148.0
1092.149902 188.0
1092.283081 204.0
1092.487061 220.0
1093.487183 160.0
1093.602661 184.0
1093.763672 240.0
1093.816406 152.0
1094.112549 100.0
1094.349609 64.0
1094.790894 180.0
1095.3573 192.0
1096.11499 52.0
1096.431274 168.0
1096.556519 184.0
1097.198853 160.0
1097.334473 140.0
1097.486084 156.0
1097.894897 200.0
1098.488647 132.0
1098.561157 184.0
1098.6073 48.0
1098.81189 144.0
1099.432129 108.0
1099.709351 176.0
1099.78479 212.0
1099.875488 268.0
1099.999756 164.0
1100.131836 116.0
1100.191284 176.0
1100.395874 160.0
1100.45752 180.0
1100.527954 168.0
1100.864746 120.0
1100.924194 132.0
1101.241211 172.0
1101.584717 28.0
1102.185913 124.0
1102.344604 124.0
1102.410645 128.0
1102.48999 136.0
1102.55603 148.0
1102.793945 156.0
1102.959229 208.0
1103.098022 200.0
1103.507935 232.0
1103.607178 68.0
1103.787964 196.0
1104.156006 168.0
1104.255249 244.0
1104.5 124.0
1104.797729 56.0
1105.472656 52.0
1105.909424 156.0
1106.167603 220.0
1106.240356 156.0
1106.313232 48.0
1106.405884 208.0
1107.458862 168.0
1107.544922 164.0
1107.596313 168.0
1107.856323 124.0
1107.915894 56.0
1108.200806 120.0
1108.320068 152.0
1108.90332 112.0
1109.06897 232.0
1109.256226 136.0
1109.513184 168.0
1109.950806 252.0
1110.236694 224.0
1110.501221 136.0
1110.733765 196.0
1110.806396 176.0
1110.859497 140.0
1111.101685 212.0
1111.237671 64.0
1111.569458 180.0
1111.748535 120.0
1112.22644 64.0
1112.810669 168.0
1113.036499 56.0
1113.182617 180.0
1113.39502 196.0
1113.453369 176.0
1113.660767 192.0
1113.720581 124.0
1114.132446 116.0
1114.198853 164.0
1114.289795 128.0
1114.570923 160.0
1115.049438 124.0
1115.115845 200.0
1115.242188 124.0
1115.627808 148.0
1115.70752 132.0
1116.186279 112.0
1116.275757 160.0
1116.325928 164.0
1116.399048 160.0
1116.738281 140.0
1116.80481 144.0
1116.971069 88.0
1117.203979 152.0
1117.638672 228.0
1117.942505 112.0
1118.04895 128.0
1118.168823 192.0
1118.721313 96.0
1119.027588 140.0
1119.566895 204.0
1119.680176 148.0
1119.820068 236.0
1119.946533 28.0
1120.557129 188.0
1120.699463 84.0
1121.152588 68.0
1121.385864 244.0
1121.445801 196.0
1121.679077 180.0
1121.815186 168.0
1122.019165 80.0
1122.692627 76.0
1122.8927 96.0
1122.946045 168.0
1123.012817 128.0
1123.239502 136.0
1123.286255 108.0
1123.419678 140.0
1124.066895 148.0
1124.514038 160.0
1125.22168 200.0
1125.956177 164.0
1126.039429 116.0
1126.236816 100.0
1126.355225 168.0
1126.414307 168.0
1126.664307 168.0
1127.058472 152.0
1127.178833 108.0
1127.564331 192.0
1127.942627 200.0
1128.061035 172.0
1128.401978 188.0
1128.702881 120.0
1129.031494 224.0
1129.813232 188.0
1130.221436 248.0
1130.415405 220.0
1130.690796 120.0
1130.756714 160.0
1131.098145 196.0
1131.232056 72.0
1131.441406 224.0
1131.685181 200.0
1131.935059 116.0
1132.089111 132.0
1132.310059 136.0
1132.450806 248.0
1132.5177 148.0
1132.60022 188.0
1132.758911 236.0
1132.932983 176.0
1133.160889 228.0
1133.361938 56.0
1133.757324 56.0
1133.924805 156.0
1134.092407 124.0
1134.467773 60.0
1134.635376 132.0
1134.776245 92.0
1134.870117 108.0
1135.346191 96.0
1135.715088 216.0
1136.226196 204.0
1136.278564 204.0
1136.325562 216.0
1136.667847 168.0
1136.882568 232.0
1137.567139 84.0
1137.614136 164.0
1137.862549 176.0
1137.936401 148.0
1138.016968 64.0
1138.258789 200.0
1138.567627 212.0
1138.721558 236.0
1139.23938 136.0
1139.694946 168.0
1139.892822 164.0
1140.025513 156.0
1140.38855 204.0
1140.543091 192.0
1140.88916 180.0
1140.932983 212.0
1141.033813 208.0
1141.329712 124.0
1141.390259 136.0
1141.736816 212.0
1141.790039 316.0
1141.921509 140.0
1141.98877 116.0
1142.061157 216.0
1142.204102 172.0
1142.654785 176.0
1143.0979 140.0
1143.415161 284.0
1143.812378 72.0
1144.061401 72.0
1144.323975 140.0
1144.455688 164.0
1144.653931 200.0
1144.734741 120.0
1144.936768 184.0
1145.109863 180.0
1145.280273 84.0
1145.347656 220.0
1145.453979 104.0
1145.603638 164.0
1145.711426 184.0
1145.765381 188.0
1145.866455 40.0
1145.990845 188.0
1146.250488 164.0
1146.466187 180.0
1146.648071 132.0
1146.695312 268.0
1147.328979 140.0
1147.450317 164.0
1147.652588 176.0
1147.713257 124.0
1148.003052 212.0
1148.380981 120.0
1148.590088 140.0
1148.684082 152.0
1148.765503 132.0
1148.940796 84.0
1149.096069 120.0
1149.608887 96.0
1150.72168 156.0
1150.884766 160.0
1151.330444 148.0
1151.519531 232.0
1151.701904 168.0
1152.174805 168.0
1152.336914 152.0
1152.512695 132.0
1152.668091 248.0
1153.239868 208.0
1153.681885 128.0
1154.777466 168.0
1154.905884 216.0
1155.068237 180.0
1155.1698 120.0
1155.406494 116.0
1155.501221 204.0
1156.130615 136.0
1156.387817 112.0
1156.584106 108.0
1156.64624 196.0
1156.724121 184.0
1156.841309 108.0
1157.15271 196.0
1157.40332 192.0
1157.640259 120.0
1158.019531 240.0
1158.080566 176.0
1158.243042 44.0
1158.954468 344.0
1159.110352 120.0
1159.313599 148.0
1159.439087 148.0
1159.686401 192.0
1159.984619 164.0
1160.09314 168.0
1160.276123 84.0
1160.581299 204.0
1160.689819 180.0
1161.24585 236.0
1161.320557 60.0
1161.368042 92.0
1161.490112 160.0
1161.544312 100.0
1161.727539 172.0
1162.229614 176.0
1162.412842 160.0
1162.507812 192.0
1162.668579 124.0
1162.955811 128.0
1163.023682 212.0
1163.217285 256.0
1163.383423 260.0
1163.445557 224.0
1163.743286 144.0
1163.980957 204.0
1164.429199 140.0
1164.66687 160.0
1165.033691 204.0
1165.312256 104.0
1165.590942 356.0
1166.012207 172.0
1166.161743 108.0
1166.698853 156.0
1166.861938 144.0
1167.113525 128.0
1167.406006 144.0
1167.480835 124.0
1167.5896 144.0
1167.963745 224.0
1168.331055 112.0
1168.521606 140.0
1168.574585 184.0
1168.712036 196.0
1168.936646 136.0
1169.028687 236.0
1169.365479 188.0
1169.474365 116.0
1169.760254 224.0
1169.821533 192.0
1170.087036 212.0
1170.250732 172.0
1170.373047 76.0
1170.48877 208.0
1170.815674 124.0
1170.985962 216.0
1171.197021 164.0
1171.297607 248.0
1171.476318 176.0
1171.613281 188.0
1171.735229 148.0
1171.932861 196.0
1172.028198 136.0
1172.139771 208.0
1172.333984 124.0
1172.360352 108.0
1172.385864 204.0
1172.518921 192.0
1172.757446 140.0
1173.307739 108.0
1173.657349 168.0
1174.107544 188.0
1174.216553 132.0
1174.488525 204.0
1174.666748 132.0
1174.927979 156.0
1174.973755 136.0
1175.526489 164.0
1175.867798 60.0
1176.447998 212.0
1176.550415 184.0
1176.721069 208.0
1176.768921 180.0
1177.02832 160.0
1177.208496 356.0
1177.369751 92.0
1177.513184 124.0
1177.731812 208.0
1178.018677 168.0
1178.066528 196.0
1179.269165 184.0
1179.761353 152.0
1180.063599 216.0
1180.452026 168.0
1180.520386 172.0
1180.664673 156.0
1180.759766 276.0
1180.951294 120.0
1181.108643 216.0
1181.156128 180.0
1181.2854 204.0
1181.328613 204.0
1181.389038 164.0
1181.635376 112.0
1181.846924 152.0
1181.873047 140.0
1182.134888 164.0
1182.30603 148.0
1182.499512 128.0
1182.58667 124.0
1182.908325 136.0
1183.202759 32.0
1183.30542 132.0
1183.414917 164.0
1183.558716 112.0
1183.684448 288.0
1183.880615 148.0
1184.325806 168.0
1184.428589 200.0
1185.079468 160.0
1185.257568 56.0
1185.432495 220.0
1185.572876 156.0
1185.709839 112.0
1185.867554 160.0
1186.045776 108.0
1186.107422 156.0
1186.813599 236.0
1186.909668 156.0
1187.081055 104.0
1187.335938 152.0
1187.52002 176.0
1187.574829 136.0
1187.629761 172.0
1187.869873 244.0
1188.370728 132.0
1188.494141 172.0
1188.809082 204.0
1189.084351 172.0
1189.242188 160.0
1189.406982 256.0
1189.461914 204.0
1189.599243 168.0
1189.837402 172.0
1190.059204 208.0
1190.278931 168.0
1190.780273 144.0
1190.876465 148.0
1190.931396 192.0
1191.000122 60.0
1191.364136 180.0
1191.463257 88.0
1191.570312 164.0
1191.700806 204.0
1191.776367 184.0
1191.831421 152.0
1191.886353 120.0
1192.432983 104.0
1192.491089 60.0
1192.738647 152.0
1192.821045 176.0
1192.882935 84.0
1193.157959 116.0
1193.4823 180.0
1193.673706 100.0
1193.897705 228.0
1193.962524 168.0
1194.139771 240.0
1194.265137 108.0
1194.455444 164.0
1194.677856 40.0
1194.787964 180.0
1194.849854 60.0
1195.097534 44.0
1195.255859 192.0
1195.310913 236.0
1195.558594 180.0
1195.655029 60.0
1195.785767 184.0
1196.818359 144.0
1196.997437 180.0
1197.093872 204.0
1197.224731 128.0
1197.514038 120.0
1197.988525 204.0
1198.072021 188.0
1198.155029 140.0
1198.45752 196.0
1198.654785 188.0
1198.988403 188.0
1199.298584 200.0
1199.512329 184.0
1199.698486 208.0
1199.896729 160.0
1200.098389 100.0
1200.291382 176.0
1200.705322 176.0
1200.787964 140.0
1200.849976 100.0
1201.078857 176.0
1201.622681 156.0
1201.671021 124.0
1202.092651 220.0
1202.312744 128.0
1202.595703 232.0
1203.106567 124.0
1203.229248 196.0
1203.37207 192.0
1203.646851 464.0
1203.935181 72.0
1204.03186 84.0
1204.222534 208.0
1205.690063 44.0
1205.980347 188.0
1206.118164 164.0
1206.323364 220.0
1206.519531 184.0
1206.609375 180.0
1206.733887 172.0
1206.809937 156.0
1206.885986 208.0
1207.045044 136.0
1207.363159 164.0
1207.826538 172.0
1207.999512 312.0
1208.456177 176.0
1208.511475 108.0
1208.712158 164.0
1209.009766 200.0
1209.168945 132.0
1209.244263 168.0
1209.418091 188.0
1209.494263 196.0
1209.586304 152.0
1209.6604 52.0
1209.828735 100.0
1210.241943 156.0
1210.470459 128.0
1210.560547 88.0
1210.698975 136.0
1210.899902 112.0
1211.322388 108.0
1211.516357 156.0
1211.578491 132.0
1211.750488 196.0
1211.913086 176.0
1211.987549 80.0
1212.153809 48.0
1212.465698 56.0
1212.562744 120.0
1212.823853 304.0
1213.151978 156.0
1213.297485 112.0
1213.366821 128.0
1213.533203 172.0
1213.713501 140.0
1213.762085 136.0
1213.893799 44.0
1214.198975 144.0
1214.411987 240.0
1214.525024 68.0
1214.691528 152.0
1214.85791 204.0
1215.170166 60.0
1215.329712 188.0
1215.48938 144.0
1215.69751 132.0
1215.898804 108.0
1216.200928 200.0
1216.377808 148.0
1216.752686 112.0
1217.162354 136.0
1217.217896 76.0
1217.280396 80.0
1217.56958 112.0
1217.968018 188.0
1218.069702 176.0
1218.08313 112.0
1218.113647 128.0
1218.252808 204.0
1218.530762 152.0
1218.724487 196.0
1218.926758 168.0
1218.982422 104.0
1219.100464 124.0
1219.552246 360.0
1219.87207 196.0
1220.011108 144.0
1220.108398 184.0
1220.164062 172.0
1220.337891 156.0
1220.525635 160.0
1220.706421 160.0
1221.290649 224.0
1221.363892 188.0
1221.554932 148.0
1221.749756 116.0
1222.090698 208.0
1222.215942 232.0
1222.591675 156.0
1222.751831 96.0
1222.856201 172.0
1222.911865 188.0
1223.057373 124.0
1223.406128 180.0
1223.475708 92.0
1223.538452 136.0
1223.663696 180.0
1223.796021 144.0
1223.914429 92.0
1224.269531 160.0
1224.478516 200.0
1224.583008 36.0
1224.750122 116.0
1224.890015 276.0
1225.175049 136.0
1225.446777 156.0
1225.523438 156.0
1225.61145 192.0
1225.830078 184.0
1226.492188 208.0
1227.042969 72.0
1227.224243 176.0
1227.300903 164.0
1227.503174 192.0
1227.649658 108.0
1227.733276 128.0
1227.819336 228.0
1227.904053 308.0
1228.199219 352.0
1228.502563 188.0
1228.616089 180.0
1228.758789 100.0
1228.954102 240.0
1229.135498 88.0
1229.449585 180.0
1229.596191 152.0
1229.910278 116.0
1230.406128 156.0
1230.632568 164.0
1230.943604 144.0
1231.139038 148.0
1231.327637 292.0
1231.401001 176.0
1231.886475 156.0
1232.242798 96.0
1232.352905 68.0
1232.64624 188.0
1233.123291 96.0
1233.193848 164.0
1233.256104 88.0
1233.395874 156.0
1233.717529 180.0
1233.828003 228.0
1234.074097 124.0
1234.198364 200.0
1234.290894 220.0
1234.425903 196.0
1234.535645 184.0
1234.619263 176.0
1234.836304 156.0
1234.90625 180.0
1235.134033 156.0
1235.305054 280.0
1235.570801 48.0
1235.703125 116.0
1235.871704 184.0
1236.023804 164.0
1236.193604 136.0
1236.31958 52.0
1236.417603 192.0
1236.837524 168.0
1236.947144 196.0
1237.012573 184.0
1237.649658 168.0
1237.737549 124.0
1237.777954 100.0
1237.866699 96.0
1237.97876 156.0
1238.225708 160.0
1238.483032 160.0
1238.74231 136.0
1238.90979 180.0
1239.020386 188.0
1239.232666 128.0
1239.281738 176.0
1239.384277 236.0
1239.48877 180.0
1239.563599 128.0
1239.69519 116.0
1240.060181 176.0
1240.276978 144.0
1240.447021 164.0
1240.515259 184.0
1240.711548 168.0
1241.034058 128.0
1241.111206 192.0
1241.356689 180.0
1241.531982 132.0
1241.672241 156.0
1242.247437 128.0
1242.885986 196.0
1242.949097 124.0
1243.061401 116.0
1243.180664 64.0
1243.707031 192.0
1243.882568 172.0
1244.198486 152.0
1244.366943 128.0
1244.886597 40.0
1245.013062 164.0
1245.09729 212.0
1245.223755 136.0
1245.364258 96.0
1245.567871 168.0
1245.940308 156.0
1246.223145 184.0
1246.790527 216.0
1246.888916 84.0
1247.170044 76.0
1247.268433 180.0
1247.348145 204.0
1247.648071 184.0
1247.753662 160.0
1247.816895 160.0
1247.922363 36.0
1248.256104 152.0
1248.363647 188.0
1248.625488 196.0
1249.188232 100.0
1249.395996 160.0
1249.511841 148.0
1249.589233 84.0
1249.821533 248.0
1249.990356 96.0
1250.10437 108.0
1250.278931 320.0
1250.792725 104.0
1251.046143 184.0
1251.45459 172.0
1251.69397 172.0
1251.771362 308.0
1252.158813 136.0
1252.306641 40.0
1252.391235 164.0
1252.560303 92.0
1252.856201 168.0
1252.999146 216.0
1253.25769 28.0
1253.356445 160.0
1253.533691 156.0
1253.721313 240.0
1253.983643 96.0
1254.036865 136.0
1254.089355 128.0
1254.491211 184.0
1254.695801 184.0
1255.041138 88.0
1255.280884 168.0
1255.436035 112.0
1255.689941 100.0
1255.880371 148.0
1256.01062 236.0
1256.247192 184.0
1256.324585 192.0
1256.47998 52.0
1256.670532 184.0
1257.072754 240.0
1257.171509 52.0
1257.388794 108.0
1257.439697 148.0
1257.559692 136.0
1257.884399 148.0
1257.976196 148.0
1258.193359 184.0
1258.265015 176.0
1258.41394 168.0
1258.766968 116.0
1258.957642 172.0
1259.077759 132.0
1259.324951 108.0
1259.482666 192.0
1259.649902 184.0
1260.151489 152.0
1260.420044 256.0
1260.547241 216.0
1260.61084 216.0
1260.709717 88.0
1260.801636 52.0
1260.957153 184.0
1261.112549 116.0
1261.232788 88.0
1261.416504 252.0
1261.586182 188.0
1262.235596 152.0
1262.491333 52.0
1262.710571 60.0
1262.82373 148.0
1262.908569 140.0
1263.227051 196.0
1263.297729 80.0
1263.382568 188.0
1263.460449 100.0
1263.545288 140.0
1263.693848 192.0
1263.899048 140.0
1264.047729 220.0
1264.26709 188.0
1264.373291 140.0
1264.620972 184.0
1264.776733 124.0
1264.833374 216.0
1264.882812 104.0
1264.960693 72.0
1265.243896 92.0
1265.357178 124.0
1265.435059 232.0
1265.53418 108.0
1265.607422 164.0
1265.704102 28.0
1266.235352 124.0
1266.299072 108.0
1266.461914 136.0
1266.525757 144.0
1266.575317 72.0
1267.279053 188.0
1267.375854 200.0
1267.652222 112.0
1267.730225 64.0
1267.928589 148.0
1268.049194 104.0
1268.318481 116.0
1268.488647 128.0
1268.580811 256.0
1268.715454 132.0
1268.942383 232.0
1269.452881 92.0
1269.821655 148.0
1269.878418 184.0
1269.963623 148.0
1270.085693 152.0
1270.233154 192.0
1270.339478 220.0
1270.424683 56.0
1270.630249 176.0
1270.736816 152.0
1271.091675 156.0
1271.2052 148.0
1271.332886 160.0
1271.560059 428.0
1271.661377 160.0
1271.823486 228.0
1272.059204 152.0
1272.376343 144.0
1272.446777 200.0
1272.616699 224.0
1272.6427 188.0
1272.774048 108.0
1273.349243 116.0
1273.460815 212.0
1273.73999 216.0
1273.846436 172.0
1274.002808 128.0
1274.230103 100.0
1274.294067 100.0
1274.358032 188.0
1274.599609 252.0
1274.667358 164.0
1274.898071 64.0
1274.997559 120.0
1275.068726 180.0
1275.331665 136.0
1275.38855 76.0
1276.120728 168.0
1276.262939 164.0
1276.556274 144.0
1276.967041 156.0
1277.1875 176.0
1277.372559 168.0
1277.464966 96.0
1277.685547 144.0
1277.970093 136.0
1278.076904 108.0
1278.525146 164.0
1278.672974 104.0
1279.002075 84.0
1279.080444 156.0
1279.158691 188.0
1279.400757 152.0
1279.562622 164.0
1279.649902 128.0
1279.719849 160.0
1279.927612 96.0
1280.020264 232.0
1280.191162 104.0
1280.283691 104.0
1280.452271 196.0
1280.568604 208.0
1280.832153 128.0
1281.523193 132.0
1281.57312 140.0
1281.69812 196.0
1281.886597 276.0
1281.98645 156.0
1282.100464 176.0
1282.171753 172.0
1282.442505 136.0
1282.493042 260.0
1282.555786 172.0
1282.608398 140.0
1282.692017 204.0
1282.741943 184.0
1282.955811 180.0
1283.390747 108.0
1283.676025 48.0
1283.939819 112.0
1284.203735 100.0
1284.389282 140.0
1284.744507 156.0
1284.838623 172.0
1284.981323 124.0
1285.125122 128.0
1285.352417 180.0
1285.480713 180.0
1285.786987 156.0
1285.891968 140.0
1285.940918 156.0
1286.108887 72.0
1286.166382 160.0
1286.322388 192.0
1286.622925 164.0
1286.758545 60.0
1287.001343 184.0
1287.052856 164.0
1287.130615 180.0
1287.344116 192.0
1287.55835 140.0
1287.794067 88.0
1287.886963 216.0
1287.93689 180.0
1288.065552 168.0
1288.129761 148.0
1288.379883 108.0
1288.757935 152.0
1289.165894 180.0
1289.387451 116.0
1289.959229 152.0
1290.02356 188.0
1290.116577 136.0
1290.174805 136.0
1290.277344 128.0
1290.445435 156.0
1290.516968 72.0
1290.595581 112.0
1290.702881 200.0
1291.003174 160.0
1291.096191 200.0
1291.274292 204.0
1291.486328 320.0
1291.75415 192.0
1291.832886 188.0
1291.925903 124.0
1291.975952 204.0
1292.054688 156.0
1292.133423 228.0
1292.22644 88.0
1292.283691 168.0
1292.356812 176.0
1292.579102 184.0
1293.099487 172.0
1293.285522 236.0
1293.414429 132.0
1293.72229 56.0
1293.82959 232.0
1293.947266 256.0
1294.106689 184.0
1294.224487 144.0
1294.388184 168.0
1294.445435 140.0
1294.624512 164.0
1294.703247 132.0
1294.824097 224.0
1294.982544 240.0
1295.068481 88.0
1295.147339 128.0
1295.218994 96.0
1295.405151 172.0
1295.705811 176.0
1295.87085 180.0
1295.971191 228.0
1296.035645 164.0
1296.101685 172.0
1296.350952 172.0
1296.515869 112.0
1296.65918 184.0
1296.845581 140.0
1296.988892 176.0
1297.171631 192.0
1297.372803 136.0
1297.458008 64.0
1297.748779 68.0
1297.963989 188.0
1298.207764 116.0
1298.257935 160.0
1298.379883 204.0
1298.745728 152.0
1298.817383 116.0
1298.874878 120.0
1299.002197 200.0
1299.111572 40.0
1299.305298 80.0
1299.434448 152.0
1299.620972 240.0
1299.687622 168.0
1300.144775 128.0
1300.209473 156.0
1300.324219 132.0
1300.474976 136.0
1300.647217 112.0
1300.740601 220.0
1300.797974 144.0
1301.358276 228.0
1301.494507 116.0
1301.577881 172.0
1301.652466 116.0
1301.796021 132.0
1301.954102 80.0
1302.018677 128.0
1302.090454 132.0
1302.162354 164.0
1302.593384 176.0
1302.729858 192.0
1302.844727 168.0
1303.088989 116.0
1303.333374 96.0
1303.441162 208.0
1303.589111 208.0
1303.728638 156.0
1303.793335 244.0
1304.102295 200.0
1304.188599 32.0
1304.375488 128.0
1304.446655 172.0
1304.634277 52.0
1304.700928 180.0
1304.799683 200.0
1305.08728 32.0
1305.173584 156.0
1305.259888 76.0
1305.402832 220.0
1305.424072 196.0
1305.56189 112.0
1305.769043 188.0
1305.986206 140.0
1306.036621 284.0
1306.236206 172.0
1306.352173 152.0
1306.475464 160.0
1306.619263 208.0
1306.791992 136.0
1306.921509 144.0
1307.06543 112.0
1307.295654 180.0
1307.374878 160.0
1307.439697 124.0
1307.612427 172.0
1307.741943 196.0
1307.932495 164.0
1308.094604 176.0
1308.188232 100.0
1308.613037 160.0
1308.824951 192.0
1308.915405 164.0
1308.96582 168.0
1309.083008 220.0
1309.33313 212.0
1309.459106 112.0
1309.53479 188.0
1309.617432 144.0
1310.059814 160.0
1310.13269 176.0
1310.269653 124.0
1310.651489 132.0
1310.709106 152.0
1310.846069 140.0
1310.903687 96.0
1311.192017 48.0
1311.273682 204.0
1311.52356 80.0
1311.755493 68.0
1311.956055 120.0
1312.107544 276.0
1312.403076 72.0
1312.47522 144.0
1312.648315 164.0
1312.79248 52.0
1312.968628 144.0
1313.131226 192.0
1313.246948 184.0
1313.40332 228.0
1313.528198 192.0
1313.599976 208.0
1313.80957 136.0
1313.888916 192.0
1314.054932 128.0
1314.502319 148.0
1314.603271 92.0
1314.769287 100.0
1314.98584 216.0
1315.115723 208.0
1315.395996 140.0
1315.625854 224.0
1315.839966 160.0
1316.08313 100.0
1316.210083 196.0
1316.538086 120.0
1316.806519 196.0
1316.957031 68.0
1317.318237 172.0
1317.498779 116.0
1317.61438 132.0
1317.686646 120.0
1317.761353 48.0
1318.047974 176.0
1318.626099 164.0
1318.756226 156.0
1318.929688 132.0
1319.062256 208.0
1319.204346 144.0
1319.283936 132.0
1319.435791 172.0
1319.568604 204.0
1319.645386 172.0
1319.710449 132.0
1319.804443 220.0
1319.905762 128.0
1320.035889 48.0
1320.375854 176.0
1320.44812 204.0
1320.563843 124.0
1320.874512 132.0
1320.997925 188.0
1321.330688 136.0
1321.433472 20.0
1321.81543 176.0
1322.133911 140.0
1322.300415 92.0
1322.763672 200.0
1322.95166 156.0
1323.103882 172.0
1323.161865 48.0
1323.263184 168.0
1323.350098 196.0
1323.494873 88.0
1323.59314 196.0
1323.68811 180.0
1323.791748 188.0
1324.45813 136.0
1324.631958 144.0
1324.772461 268.0
1325.094727 180.0
1325.320312 164.0
1325.56665 184.0
1325.675293 148.0
1326.255127 176.0
1326.515991 208.0
1326.731079 456.0
1326.798828 108.0
1326.907593 156.0
1326.958374 320.0
1327.052612 100.0
1327.125122 224.0
1327.317139 244.0
1327.620972 160.0
1327.690796 148.0
1327.835815 116.0
1327.937378 176.0
1328.18396 232.0
1328.329102 48.0
1328.728149 200.0
1329.088379 208.0
1329.236084 140.0
1329.470093 228.0
1329.664185 108.0
1329.860229 144.0
1329.925537 92.0
1330.102173 176.0
1330.241577 176.0
1330.353882 172.0
1330.430176 172.0
1330.721191 192.0
1330.893188 172.0
1331.036377 152.0
1331.363159 220.0
1331.431519 176.0
1331.534058 156.0
1331.816162 196.0
1331.886108 224.0
1331.972778 160.0
1332.088501 152.0
1332.227539 156.0
1332.334473 212.0
1332.354126 152.0
1332.450928 164.0
1332.554443 124.0
1332.612549 152.0
1333.026855 132.0
1333.122437 192.0
1333.223022 212.0
1333.332886 140.0
1333.470093 48.0
1333.855347 212.0
1334.008057 104.0
1334.204346 188.0
1334.335205 208.0
1334.393311 148.0
1334.553345 320.0
1334.69873 64.0
1334.863525 220.0
1334.951904 168.0
1335.241089 284.0
1335.811523 80.0
1335.949829 144.0
1336.15918 152.0
1336.229126 220.0
1336.306274 124.0
1336.408203 196.0
1336.460083 168.0
1336.53186 116.0
1336.59436 148.0
1336.757446 88.0
1336.856445 220.0
1337.019409 136.0
1337.092163 140.0
1337.194092 220.0
1337.315552 176.0
1337.418823 164.0
1337.438354 144.0
1337.623047 160.0
1337.718262 144.0
1337.834717 56.0
1337.890381 168.0
1338.060425 176.0
1338.118652 216.0
1338.220581 36.0
1338.337036 192.0
1338.533691 112.0
1338.86145 176.0
1339.054932 228.0
1339.138184 184.0
1339.226196 180.0
1339.658813 184.0
1339.852051 100.0
1340.179932 160.0
1340.281982 116.0
1340.835815 56.0
1341.484985 196.0
1341.542847 152.0
1341.593994 32.0
1341.734985 136.0
1341.80542 140.0
1341.994995 132.0
1342.053223 44.0
1342.301147 156.0
1342.447021 64.0
1342.62207 172.0
1342.687744 160.0
1342.746094 168.0
1342.855469 160.0
1343.000488 192.0
1343.0625 184.0
1343.192383 112.0
1343.285889 220.0
1343.351562 156.0
1343.497437 144.0
1343.67981 148.0
1343.840332 164.0
1343.891357 72.0
1344.028442 236.0
1344.152588 140.0
1344.296509 132.0
1344.323242 68.0
1344.347656 144.0
1344.411743 200.0
1344.459229 320.0
1344.56604 180.0
1344.672241 232.0
1344.773438 108.0
1344.854736 180.0
1344.93396 176.0
1345.126465 184.0
1345.183228 208.0
1345.2854 120.0
1345.482544 100.0
1345.541016 172.0
1345.608765 244.0
1345.749268 160.0
1345.998901 240.0
1346.322266 220.0
1346.377808 236.0
1346.404297 140.0
1346.77478 140.0
1346.91394 232.0
1347.159668 216.0
1347.600708 40.0
1347.651855 128.0
1347.900269 132.0
1347.951416 136.0
1348.010986 164.0
1348.086304 176.0
1348.173462 128.0
1348.25 208.0
1348.346069 92.0
1348.470459 176.0
1348.58606 160.0
1348.77002 212.0
1348.93811 168.0
1349.201294 128.0
1349.596191 164.0
1349.705811 120.0
1349.881348 128.0
1350.159302 184.0
1350.24231 188.0
1350.393311 184.0
1350.444458 176.0
1350.510376 296.0
1350.678589 128.0
1350.839478 116.0
1351.022461 156.0
1351.108521 172.0
1351.622437 108.0
1351.673584 216.0
1351.849243 44.0
1351.915161 208.0
1352.105469 316.0
1352.302979 104.0
1352.771484 188.0
1352.844727 156.0
1352.95459 92.0
1353.057983 132.0
1353.130249 96.0
1353.445068 128.0
1353.496338 332.0
1353.613525 108.0
1353.723389 148.0
1353.864868 140.0
1354.067627 100.0
1354.946655 224.0
1355.005249 216.0
1355.071167 188.0
1355.15918 136.0
1355.305664 180.0
1355.38147 188.0
1355.524292 172.0
1355.668213 144.0
1355.761841 184.0
1356.075195 124.0
1356.148438 176.0
1356.383057 176.0
1356.460083 188.0
1356.573608 196.0
1356.713013 160.0
1356.866943 184.0
1356.967651 304.0
1357.093994 144.0
1357.111572 140.0
1357.46814 184.0
1357.930298 148.0
1357.990967 200.0
1358.047607 88.0
1358.113647 160.0
1358.187012 228.0
1358.33374 112.0
1358.421753 88.0
1358.575806 96.0
1358.656494 172.0
1358.795898 152.0
1359.032593 180.0
1359.082642 140.0
1359.22876 136.0
1359.359863 136.0
1359.632446 164.0
1359.859985 128.0
1359.929077 144.0
1360.557373 132.0
1360.814331 36.0
1360.939087 52.0
1361.012573 112.0
1361.1521 180.0
1361.222778 184.0
1361.306274 204.0
1361.504639 188.0
1361.563354 156.0
1361.62207 328.0
1361.695557 228.0
1361.746948 196.0
1361.835083 128.0
1362.106934 260.0
1362.220337 92.0
1362.510986 56.0
1362.606445 104.0
1362.687256 176.0
1362.894531 216.0
1363.098755 176.0
1363.194336 156.0
1363.306274 144.0
1363.429443 176.0
1363.671997 148.0
1363.774902 88.0
1363.921997 116.0
1364.098389 184.0
1364.471436 204.0
1364.60437 268.0
1365.105713 184.0
1365.466064 376.0
1365.554321 152.0
1365.766968 168.0
1365.793823 152.0
1366.010376 120.0
1366.069214 148.0
1366.150146 176.0
1366.407715 168.0
1366.679932 132.0
1366.768188 124.0
1366.836792 208.0
1366.959595 172.0
1367.147217 112.0
1367.258911 200.0
1367.32312 200.0
1367.451904 200.0
1367.570435 28.0
1367.680786 212.0
1367.776489 176.0
1367.844727 184.0
1367.876709 192.0
1368.039917 196.0
1368.262451 196.0
1368.321289 160.0
1368.439087 224.0
1368.601074 108.0
1368.761963 228.0
1368.798828 128.0
1368.824829 208.0
1368.927368 200.0
1369.065063 124.0
1369.308105 108.0
1369.425903 140.0
1369.573242 236.0
1369.646973 72.0
1369.751099 192.0
1369.890015 192.0
1369.94043 176.0
1370.081543 252.0
1370.154419 136.0
1370.174438 120.0
1370.19519 208.0
1370.332031 252.0
1370.472046 224.0
1370.72998 120.0
1370.8479 64.0
1371.103271 300.0
1371.282715 180.0
1371.334351 156.0
1371.424683 168.0
1371.548096 136.0
1371.909302 132.0
1372.174683 180.0
1372.365112 180.0
1372.506592 136.0
1372.698242 176.0
1372.845825 180.0
1373.33252 168.0
1373.406372 276.0
1373.546509 204.0
1373.99646 136.0
1374.185181 200.0
1374.298706 176.0
1374.424438 152.0
1374.512939 116.0
1374.586792 128.0
1374.822998 124.0
1374.953125 188.0
1374.995728 204.0
1375.102173 164.0
1375.265259 148.0
1375.372314 168.0
1375.664429 148.0
1375.751831 96.0
1376.277222 120.0
1376.336304 168.0
1376.447021 144.0
1376.594727 52.0
1376.853271 192.0
1376.934448 140.0
1376.99353 168.0
1377.096924 144.0
1377.174683 200.0
1377.237305 168.0
1377.381714 192.0
1377.49585 88.0
1377.599243 156.0
1377.820923 92.0
1378.064697 164.0
1378.188354 408.0
1378.308594 160.0
1378.419434 180.0
1378.53772 108.0
1378.732178 168.0
1378.902344 128.0
1378.993652 152.0
1379.097778 160.0
1379.18811 52.0
1379.261963 188.0
1379.313721 212.0
1379.491211 164.0
1379.579834 320.0
1379.631592 192.0
1379.846069 184.0
1380.133179 116.0
1380.367065 152.0
1380.533691 68.0
1380.600342 124.0
1380.659424 156.0
1380.748169 256.0
1380.875854 188.0
1380.955322 132.0
1381.00708 64.0
1381.091919 188.0
1381.221558 112.0
1381.347412 100.0
1381.654663 280.0
1381.872681 140.0
1382.128296 192.0
1382.264893 352.0
1382.390625 176.0
1382.671875 184.0
1382.763916 196.0
1382.854858 256.0
1383.064209 156.0
1383.152954 152.0
1383.552734 196.0
1383.663818 188.0
1383.730469 156.0
1383.885986 104.0
1384.045288 156.0
1384.167358 76.0
1384.404297 104.0
1384.461914 160.0
1384.563965 172.0
1384.641357 136.0
1384.693115 132.0
1384.752441 48.0
1384.996826 196.0
1385.628662 172.0
1386.641724 148.0
1386.708496 168.0
1386.80481 120.0
1387.027222 300.0
1387.093994 136.0
1387.294067 192.0
1387.501709 132.0
1387.595459 164.0
1387.783447 184.0
1387.842773 100.0
1387.955322 144.0
1388.036743 172.0
1388.10144 176.0
1388.235229 232.0
1388.3396 184.0
1388.584351 108.0
1388.703003 188.0
1388.806885 124.0
1388.977539 156.0
1389.20752 108.0
1389.326172 184.0
1389.435791 148.0
1389.574341 208.0
1390.001343 152.0
1390.053345 68.0
1390.112671 168.0
1390.181274 136.0
1390.387329 164.0
1390.483765 176.0
1390.571533 136.0
1390.665894 120.0
1390.973633 124.0
1391.047852 212.0
1391.276367 160.0
1391.463623 204.0
1391.575073 72.0
1391.655762 132.0
1391.755127 176.0
1391.932861 132.0
1391.998291 56.0
1392.235962 256.0
1392.451294 52.0
1392.636963 184.0
1392.726196 104.0
1392.829956 196.0
1393.09021 140.0
1393.240601 184.0
1393.36499 124.0
1393.458984 160.0
1393.592285 164.0
1393.662231 208.0
1394.018921 144.0
1394.122437 104.0
1394.31897 144.0
1394.487183 176.0
1394.635864 128.0
1394.866211 76.0
1394.970337 168.0
1395.067017 68.0
1395.205322 340.0
1395.297119 180.0
1395.40625 212.0
1395.739624 112.0
1395.99646 120.0
1396.204712 96.0
1396.316284 136.0
1396.375732 52.0
1396.456543 188.0
1396.628662 124.0
1396.717896 176.0
1396.834106 188.0
1396.926147 148.0
1397.230469 188.0
1397.330566 304.0
1397.699951 128.0
1397.93811 160.0
1397.997681 128.0
1398.153931 108.0
1398.273071 120.0
1398.33252 72.0
1398.42334 160.0
1398.533569 164.0
1398.789551 124.0
1398.980225 192.0
1399.106689 116.0
1399.342529 168.0
1399.444214 292.0
1399.702393 136.0
1399.761963 124.0
1399.850708 136.0
1399.868164 124.0
1399.897949 168.0
1399.977905 148.0
1400.089722 112.0
1400.235107 184.0
1400.342285 148.0
1400.617554 152.0
1400.834595 104.0
1400.968628 144.0
1401.050537 144.0
1401.1698 160.0
1401.289062 188.0
1401.477051 180.0
1401.631714 144.0
1401.698853 140.0
1401.865845 164.0
1401.952271 308.0
1402.017578 152.0
1402.116211 168.0
1402.19812 136.0
1402.308838 160.0
1402.40686 156.0
1402.548462 112.0
1402.775513 372.0
1403.047974 128.0
1403.130005 120.0
1403.251831 160.0
1403.435669 148.0
1403.532593 220.0
1403.584839 108.0
1403.66687 128.0
1403.82666 132.0
1404.06958 256.0
1404.300781 164.0
1404.464844 280.0
1404.990601 224.0
1405.494507 128.0
1405.546631 108.0
1405.737915 228.0
1405.807861 212.0
1405.867554 148.0
1406.166138 200.0
1406.261108 208.0
1406.382568 176.0
1406.487061 136.0
1406.546753 132.0
1406.643799 160.0
1406.748413 128.0
1406.912598 260.0
1407.494995 80.0
1408.084961 144.0
1408.406128 160.0
1408.510742 172.0
1408.570557 152.0
1408.667603 148.0
1408.861816 196.0
1409.077148 152.0
1409.166626 156.0
1409.215454 160.0
1409.325073 76.0
1409.407349 208.0
1409.497681 156.0
1409.564209 96.0
1409.878052 120.0
1409.945312 44.0
1410.11731 176.0
1410.266724 104.0
1410.424438 168.0
1410.496948 160.0
1410.679932 188.0
1410.887207 180.0
1410.947021 264.0
1411.006836 200.0
1411.085449 168.0
1411.135376 216.0
1411.39563 120.0
1411.469604 108.0
1411.605103 236.0
1411.84436 160.0
1411.985962 164.0
1412.121094 104.0
1412.173462 156.0
1412.322998 168.0
1412.412842 156.0
1412.517944 156.0
1412.637207 68.0
1412.732666 212.0
1412.922974 172.0
1413.011353 224.0
1413.13855 96.0
1413.291382 120.0
1413.460327 264.0
1413.552734 148.0
1413.909302 232.0
1414.014038 168.0
1414.238647 180.0
1414.420044 232.0
1414.515625 228.0
1414.575439 84.0
1414.889893 160.0
1415.009766 60.0
1415.256836 152.0
1415.683594 148.0
1415.818481 56.0
1415.87085 120.0
1415.990723 108.0
1416.116455 132.0
1416.295532 320.0
1416.410156 116.0
1416.477539 136.0
1416.702393 96.0
1416.792236 184.0
1416.962646 196.0
1417.031982 100.0
1417.444092 132.0
1417.526611 156.0
1417.595215 148.0
1417.672363 328.0
1417.967407 212.0
1418.302246 128.0
1418.958252 100.0
1419.025757 160.0
1419.453125 168.0
1419.543091 148.0
1419.745605 212.0
1419.858154 176.0
1419.952759 312.0
1420.435669 144.0
1420.638184 104.0
1420.780762 144.0
1420.938354 80.0
1421.035889 204.0
1421.196899 156.0
1421.268433 116.0
1421.576172 176.0
1421.703735 64.0
1421.821533 128.0
1422.229126 196.0
1422.7771 72.0
1422.907715 84.0
1423.212646 192.0
1423.302734 192.0
1423.400391 196.0
1423.550537 84.0
1424.023682 168.0
1424.076294 52.0
1424.369263 136.0
1424.429321 136.0
1424.723877 156.0
1424.850098 140.0
1425.000366 220.0
1425.179932 180.0
1425.360962 144.0
1425.518799 116.0
1425.578979 152.0
1425.646606 148.0
1425.72168 72.0
1426.074951 176.0
1426.127563 184.0
1426.370361 204.0
1426.43335 188.0
1426.781616 120.0
1426.924438 136.0
1427.492432 224.0
1427.623779 116.0
1427.676514 188.0
1428.314087 120.0
1428.518921 124.0
1428.594482 168.0
1428.653198 156.0
1428.729492 96.0
1428.940186 180.0
1429.063477 208.0
1429.135864 96.0
1429.30896 140.0
1429.550781 112.0
1429.655029 180.0
1429.75293 116.0
1429.819458 156.0
1429.956177 184.0
1430.016357 116.0
1430.120361 192.0
1430.290771 168.0
1430.678833 168.0
1430.778931 176.0
1430.88208 144.0
1431.116089 164.0
1431.288696 84.0
1431.40918 140.0
1431.589966 132.0
1431.717896 152.0
1431.80835 116.0
1431.895996 192.0
1432.064453 92.0
1432.1698 40.0
1432.267334 136.0
1432.546509 180.0
1432.621826 244.0
1432.825317 180.0
1432.885498 108.0
1432.953369 136.0
1433.141724 40.0
1433.284912 120.0
1433.471069 188.0
1433.593872 232.0
1433.699341 184.0
1433.842529 144.0
1433.940552 128.0
1434.166626 160.0
1434.309692 152.0
1434.432739 156.0
1434.57373 132.0
1434.852661 188.0
1435.016357 152.0
1435.334229 236.0
1435.636963 140.0
1435.81604 200.0
1435.976318 172.0
1436.210083 152.0
1436.308228 164.0
1436.413818 88.0
1436.519409 240.0
1436.715576 156.0
1436.848022 344.0
1436.913696 140.0
1437.024902 172.0
1437.227295 68.0
1437.349365 224.0
1437.553101 148.0
1437.677124 180.0
1437.839966 188.0
1437.91333 144.0
1438.066406 180.0
1438.232422 108.0
1438.349609 216.0
1438.492676 204.0
1438.611572 184.0
1438.806152 184.0
1439.047729 112.0
1439.130859 132.0
1439.493286 188.0
1439.615845 188.0
1439.697144 124.0
1439.750122 164.0
1439.841187 172.0
1440.225952 56.0
1440.393311 300.0
1440.721558 112.0
1440.973877 164.0
1441.200439 128.0
1441.273804 80.0
1441.404541 128.0
1441.600952 144.0
1441.700317 168.0
1442.058594 304.0
1442.160278 300.0
1442.220825 52.0
1442.356812 68.0
1442.742432 196.0
1442.885986 40.0
1443.158203 216.0
1443.233887 156.0
1443.314209 172.0
1443.388916 216.0
1443.543945 64.0
1443.60144 192.0
1443.835327 176.0
1443.891724 176.0
1444.008789 380.0
1444.224609 72.0
1444.353149 52.0
1444.521851 272.0
1444.602783 180.0
1445.049194 180.0
1445.170288 220.0
1445.223267 104.0
1445.419922 56.0
1445.488037 160.0
1445.609131 124.0
1445.679321 180.0
1445.827515 376.0
1445.914062 112.0
1446.146484 156.0
1446.350708 184.0
1446.487183 168.0
1446.585571 152.0
1446.719604 220.0
1446.820312 148.0
1446.911133 116.0
1447.108032 188.0
1447.230957 164.0
1447.3927 140.0
1447.469116 172.0
1447.539551 80.0
1447.604736 92.0
1447.857666 104.0
1447.925781 136.0
1448.130371 188.0
1448.329346 180.0
1448.47876 148.0
1448.736328 160.0
1448.848633 216.0
1448.924561 252.0
1449.069702 184.0
1449.23645 200.0
1449.304565 136.0
1449.425903 180.0
1449.630493 188.0
1449.857666 204.0
1449.918457 176.0
1450.077393 108.0
1450.153442 192.0
1450.365601 140.0
1450.471802 176.0
1450.646118 240.0
1450.812866 108.0
1450.919067 140.0
1451.032837 196.0
1451.154053 128.0
1451.252686 180.0
1451.305786 156.0
1451.517578 132.0
1451.572876 124.0
1451.6698 152.0
1451.844116 240.0
1451.980713 192.0
1452.094482 232.0
1452.472412 212.0
1452.856079 116.0
1453.057861 112.0
1453.209595 124.0
1453.391724 176.0
1453.824341 160.0
1453.960938 140.0
1454.097534 116.0
1454.226562 184.0
1454.704834 132.0
1454.985718 180.0
1455.038818 192.0
1455.137329 192.0
1455.296997 168.0
1455.530884 204.0
1455.558716 164.0
1455.584839 128.0
1455.64624 208.0
1455.942505 216.0
1456.117188 160.0
1456.367798 116.0
1456.474121 152.0
1456.557739 160.0
1456.694458 68.0
1456.81604 192.0
1456.929932 148.0
1456.990723 264.0
1457.066772 56.0
1457.157959 112.0
1457.3479 128.0
1457.462769 160.0
1457.629028 180.0
1457.781006 192.0
1457.857056 76.0
1457.925415 100.0
1458.244385 132.0
1458.518311 128.0
1458.632324 132.0
1458.700684 196.0
1458.94397 140.0
1459.02002 164.0
1459.142456 148.0
1459.205444 276.0
1459.397949 164.0
1459.919312 224.0
1460.061768 136.0
1460.145874 148.0
1460.244263 176.0
1460.456299 160.0
1460.556152 184.0
1460.656128 144.0
1460.746338 160.0
1460.860474 160.0
1460.921265 184.0
1461.127197 188.0
1461.263672 168.0
1461.461548 164.0
1461.575684 128.0
1462.09314 100.0
1462.152832 216.0
1462.183594 180.0
1462.213989 196.0
1462.390015 44.0
1462.573975 188.0
1462.632202 172.0
1462.745605 228.0
1462.808716 172.0
1462.873047 164.0
1462.93811 192.0
1463.171997 188.0
1463.318726 168.0
1463.410156 216.0
1463.760986 144.0
1463.882202 240.0
1464.137695 164.0
1464.308716 36.0
1464.414307 176.0
1464.594604 204.0
1464.735352 196.0
1464.788574 176.0
1465.009521 48.0
1465.178833 168.0
1465.295044 284.0
1465.573364 56.0
1465.667358 188.0
1465.802002 124.0
1466.106812 120.0
1466.205933 156.0
1466.312622 148.0
1466.388794 212.0
1466.457397 112.0
1466.579346 184.0
1466.645874 148.0
1466.792847 172.0
1466.914795 152.0
1466.990967 108.0
1467.234985 136.0
1467.3125 164.0
1467.529663 236.0
1467.74585 136.0
1467.944092 160.0
1468.005127 168.0
1468.095215 188.0
1468.275879 180.0
1468.344482 192.0
1468.416992 128.0
1468.485596 140.0
1468.760254 168.0
1469.263672 112.0
1469.336548 148.0
1469.565674 188.0
1469.77417 168.0
1470.270996 172.0
1470.896851 136.0
1471.171753 128.0
1471.295288 168.0
1471.751953 176.0
1471.935181 128.0
1472.11084 244.0
1472.187256 160.0
1472.240723 76.0
1472.378174 108.0
1472.503296 228.0
1472.630249 144.0
1472.683716 76.0
1472.828857 212.0
1473.033569 156.0
1473.057983 100.0
1473.087036 156.0
1473.153442 136.0
1473.218384 192.0
1473.405884 128.0
1473.427246 192.0
1473.844971 180.0
1473.982544 176.0
1474.081909 156.0
1474.24231 72.0
1474.418091 232.0
1474.509888 96.0
1474.627808 144.0
1474.777344 136.0
1474.964844 160.0
1475.09082 108.0
1475.228394 156.0
1475.3125 92.0
1475.404175 52.0
1475.488281 120.0
1475.587646 144.0
1475.798706 208.0
1475.870605 220.0
1475.964478 168.0
1476.018311 240.0
1476.107666 80.0
1476.214722 116.0
1476.294067 160.0
1476.414551 180.0
1476.518555 220.0
1476.597168 116.0
1476.742432 116.0
1476.937988 144.0
1477.063721 196.0
1477.147827 144.0
1477.369751 124.0
1477.496948 264.0
1477.767578 76.0
1477.911987 148.0
1478.188477 164.0
1478.4104 164.0
1478.548096 208.0
1478.663696 152.0
1478.750732 212.0
1478.81604 216.0
1478.969116 188.0
1479.022705 360.0
1479.226562 168.0
1479.328857 152.0
1479.391357 272.0
1479.489624 32.0
1479.642822 112.0
1479.731201 196.0
1479.803589 116.0
1479.857178 148.0
1479.956787 144.0
1480.15271 180.0
1480.231445 188.0
1480.370239 180.0
1480.454468 164.0
1480.645996 128.0
1480.883423 140.0
1480.98291 200.0
1481.044189 144.0
1481.157837 192.0
1481.320068 44.0
1481.419556 160.0
1481.580078 228.0
1481.802734 152.0
1481.90686 224.0
1482.017212 160.0
1482.215576 164.0
1482.270874 156.0
1482.342163 120.0
1482.457153 184.0
1482.840332 188.0
1482.921509 76.0
1483.067139 156.0
1483.220459 132.0
1483.35083 136.0
1483.46582 124.0
1483.632935 140.0
1483.810791 148.0
1484.056152 184.0
1484.224854 132.0
1484.324585 160.0
1484.807739 164.0
1484.884399 152.0
1485.020508 184.0
1485.083862 312.0
1485.214233 124.0
1485.329224 124.0
1485.563965 196.0
1485.682129 136.0
1485.743164 152.0
1486.050415 356.0
1486.165527 164.0
1486.385254 100.0
1486.75647 156.0
1486.822632 184.0
1486.9552 168.0
1487.025024 176.0
1487.086426 104.0
1487.192749 208.0
1487.437378 156.0
1487.60437 152.0
1487.678833 116.0
1487.96167 128.0
1488.15332 132.0
1488.284058 124.0
1488.729492 140.0
1488.829346 228.0
1488.953857 212.0
1489.029053 144.0
1489.104248 152.0
1489.134766 120.0
1489.155884 244.0
1489.218384 204.0
1489.294434 204.0
1489.489868 156.0
1489.605103 192.0
1489.674316 212.0
1489.918579 204.0
1490.07666 216.0
1490.473389 208.0
1490.768799 108.0
1490.842163 200.0
1491.134277 164.0
1491.580078 104.0
1491.926025 164.0
1492.077759 164.0
1492.195068 148.0
1492.364258 128.0
1492.433472 192.0
1492.525757 232.0
1492.841064 64.0
1493.017944 164.0
1493.102539 124.0
1493.510254 152.0
1493.565552 176.0
1493.856323 152.0
1494.218018 184.0
1494.417969 220.0
1494.610352 200.0
1494.664307 220.0
1494.857666 244.0
1494.918213 124.0
1494.976318 108.0
1495.210693 192.0
1495.264526 104.0
1495.468872 160.0
1495.549316 120.0
1495.696289 136.0
1495.780273 84.0
1495.934204 168.0
1496.072754 124.0
1496.14209 160.0
1496.334595 124.0
1496.657959 160.0
1496.812012 144.0
1496.917114 140.0
1497.004639 180.0
1497.081543 124.0
1497.158569 200.0
1497.227783 160.0
1497.297119 132.0
1497.438477 192.0
1497.651489 208.0
1497.759277 52.0
1498.005859 120.0
1498.169556 128.0
1498.475708 120.0
1498.976685 160.0
1499.092285 120.0
1499.161621 32.0
1499.313599 176.0
1499.392822 132.0
1499.508423 128.0
1499.570068 68.0
1499.816772 176.0
1499.970947 140.0
1500.063354 164.0
1500.518311 100.0
1500.619995 200.0
1500.865234 188.0
1500.934692 148.0
1501.011719 148.0
1501.142822 148.0
1501.21582 96.0
1501.497681 68.0
1501.729004 84.0
1501.859009 136.0
1501.88501 176.0
1501.952759 204.0
1502.161011 152.0
1502.382812 180.0
1502.570923 148.0
1502.917114 224.0
1503.063721 116.0
1503.241211 60.0
1503.423096 164.0
1503.511353 44.0
1503.56897 192.0
1503.74292 204.0
1503.858154 240.0
1503.957764 124.0
1504.036133 112.0
1504.105713 200.0
1504.213745 168.0
1504.270142 192.0
1504.406738 172.0
1504.545654 136.0
1504.669189 100.0
1504.831421 144.0
1504.885376 88.0
1504.978027 120.0
1505.256836 212.0
1505.387329 160.0
1505.441406 136.0
