>compound MLS001048977-01!
>formula C17H19NO2
>ionization [M+H]+
>parentmass 270.14859
#inchi InChI=1S/C17H19NO2/c1-18-10-9-12-5-3-4-6-14(12)16-13(11-18)7-8-15(20-2)17(16)19/h3-8,19H,9-11H2,1-2H3
#inchikey ZGZXDJPQXTUPSG
#origInchi InChI=1S/C17H19NO2.ClH/c1-18-10-9-12-5-3-4-6-14(12)16-13(11-18)7-8-15(20-2)17(16)19;/h3-8,19H,9-11H2,1-2H3;1H
#Ion_Source LC-ESI
#Instrument qTof
#Compound_Source NIH Natural Product Library
#PI Dorrestein
#Data_Collector VVP/LMS
#Scan -1
#Precursor_MZ 270.149
#ExactMass 269.142
#Charge 1
#CAS_Number N/A
#Pubmed_ID N/A
#Smiles COc1ccc2CN(C)CCc3ccccc3-c2c1O.Cl
#INCHI_AUX N/A
#Library_Class 1
#SpectrumID CCMSLIB00000079631
#IonMode Positive
#UpdateWorkflowName UPDATE-SINGLE-ANNOTATED-GOLD
#LibraryQualityString Gold
#TaskID b1d8e8f6646f4e71acdff9ca3d919d08
##Scan# 1417
#SpectrumFile p1-A09_GA9_01_17881.mzXML
#LibraryName NIH_Natural_Products_Library.mgf
#MQScore -1
#Organism NIH_Natural_Products_Library
#TIC_Query 0
#RT_Query -1
#MZErrorPPM -1
#SharedPeaks 0
#MassDiff 0
#LibMZ -1
#SpecMZ 270.149
#SpecCharge 0
#internalFilename spec-00000.mgf

>collision 10
94.958176 212.0
94.978561 176.0
95.087212 128.0
95.11438 176.0
95.141556 112.0
95.242531 176.0
95.263901 160.0
95.286797 188.0
95.328018 48.0
95.343559 176.0
95.405579 128.0
95.454636 228.0
95.49865 192.0
95.541885 176.0
95.596367 168.0
95.643074 68.0
95.668381 116.0
95.682007 188.0
95.71817 160.0
95.740417 156.0
95.796906 160.0
95.826744 328.0
95.980103 144.0
96.038605 204.0
96.18885 188.0
96.202766 136.0
96.317719 200.0
96.604019 232.0
96.631432 352.0
96.765541 172.0
96.779243 152.0
96.841911 72.0
96.897598 316.0
96.937904 144.0
97.002403 136.0
97.039825 204.0
97.069237 160.0
97.19281 176.0
97.214394 68.0
97.373413 152.0
97.392693 176.0
97.446091 160.0
97.459846 184.0
97.546318 192.0
97.702553 196.0
97.735115 208.0
97.752823 216.0
97.811867 124.0
97.96521 160.0
97.995003 376.0
98.03244 176.0
98.070335 160.0
98.095512 132.0
98.13633 204.0
98.143265 144.0
98.273003 28.0
98.296677 136.0
98.415108 128.0
98.444725 220.0
98.53756 220.0
98.57708 140.0
98.668549 144.0
98.68277 216.0
98.828255 128.0
98.934624 108.0
98.972687 152.0
98.988525 156.0
99.081421 204.0
99.190086 124.0
99.284645 268.0
99.305603 200.0
99.36908 140.0
99.430595 228.0
99.492126 160.0
99.523888 156.0
99.556465 176.0
99.645042 200.0
99.735847 196.0
99.764282 144.0
99.851768 172.0
99.881607 196.0
99.991035 208.0
100.056717 204.0
100.080612 200.0
100.098534 148.0
100.204094 96.0
100.237587 232.0
100.273834 232.0
100.333633 224.0
100.361549 112.0
100.421288 212.0
100.519127 56.0
100.564957 232.0
100.570694 224.0
100.61692 100.0
100.724754 160.0
100.782692 224.0
100.818657 176.0
100.838646 156.0
100.85463 144.0
100.879807 108.0
100.914604 124.0
100.9366 132.0
101.022598 52.0
101.042603 164.0
101.125221 128.0
101.160522 160.0
101.188698 152.0
101.316872 204.0
101.495247 160.0
101.509277 184.0
101.531342 176.0
101.54538 144.0
101.599533 184.0
101.635651 148.0
101.711906 120.0
101.850456 168.0
101.894646 204.0
101.912727 144.0
102.013214 168.0
102.046776 144.0
102.087608 164.0
102.141907 148.0
102.197563 192.0
102.23848 168.0
102.366325 244.0
102.40155 164.0
102.518394 92.0
102.601036 152.0
102.615547 120.0
102.654678 172.0
102.679672 220.0
102.705444 204.0
102.764397 152.0
102.782555 208.0
102.849152 124.0
102.869331 144.0
102.948074 244.0
102.972313 136.0
103.054871 756.0
103.097565 68.0
103.156174 132.0
103.188522 196.0
103.214806 152.0
103.233009 200.0
103.28154 36.0
103.303795 100.0
103.378654 168.0
103.431274 124.0
103.485931 144.0
103.502129 168.0
103.573013 124.0
103.599342 88.0
103.643913 136.0
103.68647 124.0
103.749306 172.0
103.785316 204.0
103.824226 168.0
103.901398 72.0
103.960243 144.0
103.988655 320.0
104.057182 232.0
104.088455 224.0
104.118584 100.0
104.264343 164.0
104.299408 228.0
104.379967 160.0
104.450974 156.0
104.551605 44.0
104.573433 44.0
104.641167 64.0
104.708359 200.0
104.722618 172.0
104.754646 200.0
104.771164 144.0
104.840782 144.0
104.908035 188.0
104.961044 140.0
104.975319 180.0
104.994461 176.0
105.009987 208.0
105.050781 144.0
105.069702 204.0
105.124062 176.0
105.254875 132.0
105.32431 168.0
105.377975 176.0
105.404846 208.0
105.43544 132.0
105.504753 236.0
105.663643 196.0
105.865318 148.0
105.878571 364.0
105.968697 252.0
105.98304 64.0
106.038368 196.0
106.059196 172.0
106.093704 172.0
106.195618 120.0
106.354218 180.0
106.370636 148.0
106.415802 148.0
106.463669 192.0
106.477402 356.0
106.520538 44.0
106.571899 172.0
106.613091 260.0
106.699318 168.0
106.728104 184.0
106.7519 220.0
106.812424 196.0
106.849449 36.0
106.931755 204.0
106.974983 140.0
107.003799 192.0
107.022331 108.0
107.104706 148.0
107.128677 176.0
107.182228 228.0
107.241455 140.0
107.395325 212.0
107.422142 144.0
107.576904 168.0
107.67395 172.0
107.706993 204.0
107.758636 104.0
107.781364 60.0
107.802032 232.0
107.870064 148.0
107.969162 208.0
107.977043 176.0
108.058418 176.0
108.100533 204.0
108.120499 132.0
108.201317 176.0
108.219856 164.0
108.317184 216.0
108.354477 148.0
108.40213 156.0
108.44062 160.0
108.464302 64.0
108.568016 184.0
108.624146 120.0
108.659233 156.0
108.680855 152.0
108.795525 172.0
108.846031 140.0
108.876122 376.0
108.935966 236.0
109.043381 228.0
109.062256 144.0
109.114052 48.0
109.172272 184.0
109.249229 180.0
109.342865 228.0
109.503166 124.0
109.532326 116.0
109.551079 148.0
109.600845 180.0
109.632332 188.0
109.671249 172.0
109.694862 220.0
109.721962 156.0
109.778259 180.0
109.861687 132.0
109.880455 136.0
109.903412 216.0
109.926361 44.0
109.940971 184.0
110.087959 204.0
110.153931 140.0
110.17482 136.0
110.221886 204.0
110.252129 96.0
110.281387 200.0
110.308556 44.0
110.32946 76.0
110.362747 152.0
110.417747 180.0
110.463295 56.0
110.477943 120.0
110.530243 152.0
110.545143 236.0
110.565819 140.0
110.605583 72.0
110.639076 144.0
110.6642 92.0
110.7351 168.0
110.758438 244.0
110.783569 192.0
110.921875 124.0
111.014694 176.0
111.077042 176.0
111.098022 204.0
111.142075 76.0
111.16761 120.0
111.242813 116.0
111.2743 124.0
111.303696 152.0
111.332382 176.0
111.391907 56.0
111.449211 136.0
111.505363 188.0
111.528481 176.0
111.555809 88.0
111.591545 172.0
111.614677 164.0
111.639908 156.0
111.694588 184.0
111.742561 184.0
111.77874 60.0
111.841881 148.0
111.877663 72.0
111.938721 56.0
111.989265 164.0
112.031387 132.0
112.060883 176.0
112.172577 116.0
112.244255 112.0
112.294868 60.0
112.398239 156.0
112.465767 124.0
112.484764 176.0
112.526497 156.0
112.558655 272.0
112.613564 164.0
112.641022 156.0
112.681007 56.0
112.693047 140.0
112.708626 80.0
112.748772 104.0
112.787567 124.0
112.87561 100.0
112.894638 168.0
113.072342 160.0
113.093079 176.0
113.160866 244.0
113.180305 172.0
113.195129 136.0
113.332802 204.0
113.387901 168.0
113.415451 160.0
113.455727 132.0
113.500252 132.0
113.576599 100.0
113.591446 212.0
113.626564 180.0
113.68692 184.0
113.706017 136.0
113.739975 148.0
113.887917 148.0
113.945961 232.0
113.96933 136.0
113.986328 84.0
114.036194 224.0
114.071342 72.0
114.119202 164.0
114.150002 172.0
114.1819 176.0
114.245712 184.0
114.282906 108.0
114.342415 188.0
114.38829 136.0
114.409576 128.0
114.479836 92.0
114.505394 160.0
114.571426 164.0
114.631081 108.0
114.667305 152.0
114.71846 540.0
114.750443 184.0
114.814407 152.0
114.88266 208.0
114.899727 160.0
114.950935 208.0
114.985077 132.0
115.00856 168.0
115.053162 304.0
115.102486 52.0
115.139336 204.0
115.213547 148.0
115.228508 140.0
115.260086 200.0
115.286194 184.0
115.343903 128.0
115.643341 184.0
115.696861 44.0
115.748245 184.0
115.801056 224.0
115.853363 196.0
115.902466 52.0
115.923889 128.0
115.964607 32.0
116.056198 160.0
116.084427 332.0
116.168304 156.0
116.185471 192.0
116.228378 192.0
116.26915 180.0
116.294907 252.0
116.32457 248.0
116.34642 128.0
116.397949 188.0
116.412979 176.0
116.503189 164.0
116.571938 120.0
116.681557 32.0
116.699524 352.0
116.748215 164.0
116.806282 132.0
116.879425 100.0
117.023636 168.0
117.064545 372.0
117.267052 188.0
117.310158 264.0
117.393898 124.0
117.401962 104.0
117.408119 184.0
117.55603 120.0
117.601357 148.0
117.644524 108.0
117.665901 204.0
117.700661 312.0
117.7892 176.0
117.804321 256.0
117.828087 148.0
117.879944 120.0
117.901878 132.0
117.940453 204.0
118.000984 176.0
118.046387 72.0
118.065681 292.0
118.104782 112.0
118.139389 92.0
118.297356 140.0
118.33416 172.0
118.442436 180.0
118.461739 136.0
118.51609 104.0
118.5616 104.0
118.643967 116.0
118.680817 108.0
118.726357 64.0
118.765396 36.0
118.782745 100.0
118.797928 156.0
118.85051 120.0
118.932465 196.0
118.960686 160.0
118.999039 180.0
119.049698 172.0
119.06707 112.0
119.093132 256.0
119.106911 184.0
119.173508 136.0
119.227196 204.0
119.299507 168.0
119.338692 184.0
119.373611 160.0
119.399582 96.0
119.430031 208.0
119.488266 140.0
119.530098 192.0
119.552742 188.0
119.593208 116.0
119.617157 176.0
119.65123 196.0
119.832748 180.0
119.869789 60.0
119.906837 136.0
119.937347 160.0
119.967865 32.0
120.037636 180.0
120.056671 400.0
120.10524 136.0
120.129189 180.0
120.172119 152.0
120.191345 188.0
120.236145 304.0
120.288528 148.0
120.30381 148.0
120.321274 208.0
120.345291 164.0
120.391815 260.0
120.411438 144.0
120.478508 172.0
120.515648 156.0
120.658501 100.0
120.677383 64.0
120.784546 60.0
120.806419 144.0
120.863297 84.0
120.878616 144.0
120.931137 52.0
120.953026 128.0
120.974915 240.0
120.992432 248.0
121.01796 172.0
121.080009 136.0
121.09581 188.0
121.134766 184.0
121.150101 48.0
121.26561 112.0
121.33638 152.0
121.367073 208.0
121.410927 164.0
121.439987 180.0
121.46225 180.0
121.48082 148.0
121.511826 176.0
121.59082 216.0
121.624008 148.0
121.691513 216.0
121.740105 224.0
121.784508 128.0
121.863983 248.0
121.933426 176.0
121.957428 260.0
121.982796 148.0
122.003761 112.0
122.043335 104.0
122.095177 208.0
122.133499 172.0
122.244789 116.0
122.269905 140.0
122.333733 92.0
122.439423 156.0
122.514313 184.0
122.529732 176.0
122.681793 88.0
122.714859 232.0
122.732048 196.0
122.814095 204.0
122.838356 284.0
122.878067 40.0
122.926605 168.0
122.983025 156.0
123.006058 208.0
123.043587 160.0
123.081116 180.0
123.119232 148.0
123.235733 120.0
123.273293 136.0
123.372749 148.0
123.399277 112.0
123.425812 48.0
123.441292 212.0
123.476677 136.0
123.520805 172.0
123.545242 128.0
123.574005 160.0
123.72007 284.0
123.813065 80.0
123.846283 204.0
123.886154 168.0
123.941544 100.0
123.974777 60.0
124.04792 244.0
124.14769 232.0
124.167648 208.0
124.298531 168.0
124.331818 124.0
124.398666 168.0
124.447243 136.0
124.580879 160.0
124.688477 184.0
124.707909 328.0
124.748573 260.0
124.814194 112.0
124.83831 148.0
124.853882 60.0
124.878342 192.0
124.898361 152.0
124.922829 132.0
124.950233 176.0
124.989571 156.0
125.018501 72.0
125.105301 140.0
125.123116 232.0
125.14315 172.0
125.179504 172.0
125.278999 284.0
125.316872 108.0
125.380272 160.0
125.486259 136.0
125.508553 212.0
125.548691 180.0
125.684761 220.0
125.707077 104.0
125.751709 176.0
125.809746 180.0
125.838768 132.0
125.86779 224.0
125.899544 164.0
125.963829 120.0
125.983932 124.0
126.039787 128.0
126.115768 116.0
126.232018 192.0
126.254379 188.0
126.27227 192.0
126.287926 196.0
126.410973 136.0
126.475868 68.0
126.581093 124.0
126.652512 184.0
126.748131 224.0
126.754929 132.0
126.773735 212.0
126.829765 160.0
126.855476 204.0
126.908226 264.0
126.948586 176.0
126.98671 212.0
127.052727 596.0
127.258232 176.0
127.294159 108.0
127.395226 88.0
127.439758 180.0
127.542122 176.0
127.575005 152.0
127.621452 308.0
127.651443 260.0
127.680679 228.0
127.709915 132.0
127.734657 128.0
127.781189 252.0
127.847153 328.0
127.885597 192.0
127.910172 200.0
127.938881 180.0
128.046341 164.0
128.062546 632.0
128.133102 168.0
128.171417 164.0
128.209717 100.0
128.255341 164.0
128.295364 120.0
128.329193 236.0
128.400131 112.0
128.493896 136.0
128.538956 76.0
128.77977 172.0
128.823715 156.0
128.8573 144.0
128.916061 28.0
128.954468 172.0
129.025253 152.0
129.049408 108.0
129.068985 948.0
129.103683 156.0
129.196136 164.0
129.271088 144.0
129.357086 180.0
129.377457 124.0
129.400101 132.0
129.418213 124.0
129.456696 136.0
129.54277 236.0
129.619797 128.0
129.708191 164.0
129.739914 96.0
129.846497 52.0
129.866959 168.0
129.894119 132.0
129.916809 196.0
130.000748 160.0
130.021179 52.0
130.066254 528.0
130.13266 176.0
130.230042 80.0
130.291382 132.0
130.318634 156.0
130.334549 100.0
130.352722 204.0
130.424713 160.0
130.459549 132.0
130.496109 208.0
130.581451 124.0
130.678223 260.0
130.704041 100.0
130.7388 180.0
130.760742 200.0
130.797379 208.0
130.946472 128.0
130.97731 104.0
131.003418 184.0
131.046707 216.0
131.073395 436.0
131.181152 140.0
131.203949 128.0
131.256393 156.0
131.286041 240.0
131.364914 192.0
131.400085 176.0
131.475388 192.0
131.548416 244.0
131.584946 196.0
131.635178 180.0
131.726532 164.0
131.751663 156.0
131.790497 192.0
131.829636 224.0
131.869171 196.0
131.900192 188.0
131.941345 128.0
132.023651 140.0
132.041946 192.0
132.057373 188.0
132.080292 936.0
132.138016 244.0
132.170059 108.0
132.456223 120.0
132.569916 192.0
132.585434 200.0
132.664749 40.0
132.788559 44.0
132.951447 284.0
132.978989 68.0
133.044159 152.0
133.08757 880.0
133.132797 64.0
133.215485 188.0
133.269424 200.0
133.309692 188.0
133.420151 196.0
133.582977 124.0
133.606293 208.0
133.640137 208.0
133.661499 256.0
133.686813 120.0
133.737442 112.0
133.791763 60.0
133.820312 152.0
133.85025 148.0
133.880188 160.0
133.9608 92.0
133.981659 140.0
134.04834 108.0
134.092133 272.0
134.117477 160.0
134.170044 140.0
134.207397 104.0
134.241974 72.0
134.292709 128.0
134.336533 156.0
134.365829 184.0
134.481903 200.0
134.635696 196.0
134.664307 124.0
134.715118 120.0
134.798294 172.0
134.913849 148.0
135.089005 92.0
135.114624 172.0
135.124039 140.0
135.156693 164.0
135.189087 208.0
135.274719 120.0
135.308167 144.0
135.346497 148.0
135.381226 156.0
135.399567 148.0
135.414169 164.0
135.441437 152.0
135.5457 128.0
135.568863 164.0
135.608261 112.0
135.636078 136.0
135.654617 128.0
135.677811 168.0
135.717224 164.0
135.763153 168.0
135.833176 184.0
135.928299 104.0
135.97702 268.0
136.025772 172.0
136.054565 416.0
136.111664 140.0
136.334671 144.0
136.371857 180.0
136.39566 164.0
136.450882 144.0
136.507797 216.0
136.713715 144.0
136.778885 112.0
136.875183 208.0
136.925568 48.0
136.981461 156.0
137.000107 72.0
137.0242 128.0
137.091705 176.0
137.158554 156.0
137.225967 192.0
137.272797 176.0
137.370743 68.0
137.410507 188.0
137.634857 172.0
137.671829 312.0
137.716202 152.0
137.737228 144.0
137.795624 180.0
137.872742 224.0
137.950333 120.0
138.01767 160.0
138.034027 164.0
138.134598 136.0
138.172424 116.0
138.253922 164.0
138.313065 192.0
138.348175 132.0
138.366272 152.0
138.511459 168.0
138.534882 164.0
138.577057 160.0
138.605164 96.0
138.635635 84.0
138.758362 224.0
138.83255 176.0
138.89534 268.0
138.954514 112.0
138.990891 312.0
139.054062 320.0
139.158707 188.0
139.182495 212.0
139.207855 184.0
139.337189 120.0
139.384186 92.0
139.405136 240.0
139.460037 172.0
139.560471 244.0
139.607773 136.0
139.666702 116.0
139.894547 152.0
139.943985 156.0
139.962814 96.0
140.007553 164.0
140.058884 408.0
140.14418 52.0
140.346878 160.0
140.403473 196.0
140.43251 180.0
140.544464 192.0
140.766876 136.0
140.828522 176.0
140.986572 128.0
141.029114 244.0
141.071045 2308.0
141.136841 308.0
141.199341 168.0
141.437729 188.0
141.537735 200.0
141.634827 220.0
141.715378 164.0
141.812531 68.0
141.836227 216.0
141.876526 172.0
141.919205 164.0
141.950027 172.0
141.97612 144.0
142.009232 116.0
142.037781 160.0
142.078186 484.0
142.113693 200.0
142.160034 120.0
142.202179 208.0
142.234726 44.0
142.256088 148.0
142.277451 168.0
142.318359 188.0
142.368408 168.0
142.486435 216.0
142.626633 120.0
142.671799 212.0
142.724548 108.0
142.750259 120.0
142.769287 216.0
142.807281 164.0
142.864426 180.0
143.053192 136.0
143.082153 852.0
143.11908 188.0
143.188141 236.0
143.335831 100.0
143.369186 196.0
143.483597 116.0
143.545593 152.0
143.638611 160.0
143.667236 196.0
143.698044 304.0
143.720825 216.0
143.757904 108.0
143.81279 256.0
143.879623 96.0
143.901108 212.0
143.932144 144.0
144.020508 84.0
144.051559 152.0
144.08345 636.0
144.161469 232.0
144.187759 152.0
144.234299 236.0
144.269012 156.0
144.277054 144.0
144.314575 140.0
144.410095 164.0
144.508179 48.0
144.627823 160.0
144.666122 152.0
144.709213 56.0
144.917587 84.0
144.955917 160.0
145.011032 124.0
145.062561 300.0
145.102127 164.0
145.133301 152.0
145.260406 116.0
145.281616 128.0
145.332367 44.0
145.409302 128.0
145.531586 156.0
145.592911 96.0
145.632446 184.0
145.668472 132.0
145.718918 136.0
145.754959 176.0
145.803024 228.0
145.858292 176.0
145.908783 164.0
145.959274 188.0
146.036224 188.0
146.069901 120.0
146.101166 196.0
146.142075 156.0
146.281647 100.0
146.305725 36.0
146.327393 132.0
146.394806 132.0
146.435745 164.0
146.481506 216.0
146.518173 148.0
146.544739 228.0
146.582703 176.0
146.717667 48.0
146.75383 40.0
146.814117 192.0
146.839249 172.0
146.869583 152.0
146.950256 164.0
147.026123 172.0
147.043121 164.0
147.096405 176.0
147.196732 132.0
147.236435 156.0
147.287155 168.0
147.337891 148.0
147.376541 156.0
147.436951 56.0
147.473206 168.0
147.495499 196.0
147.579575 168.0
147.596497 100.0
147.661789 156.0
147.685974 128.0
147.746445 180.0
147.765793 76.0
147.838486 188.0
147.886414 180.0
147.935394 188.0
147.964066 156.0
148.017517 192.0
148.053833 88.0
148.077179 144.0
148.111969 164.0
148.155563 140.0
148.187057 184.0
148.468231 180.0
148.511887 96.0
148.591385 176.0
148.621063 180.0
148.647751 164.0
148.69043 188.0
148.713272 220.0
148.739166 180.0
148.766678 132.0
148.84436 104.0
148.879868 180.0
148.9245 132.0
149.080978 176.0
149.12616 148.0
149.179642 164.0
149.303635 188.0
149.388763 132.0
149.449585 196.0
149.503113 148.0
149.561523 232.0
149.659027 164.0
149.766052 232.0
149.8172 128.0
149.878113 232.0
149.926849 180.0
149.958527 172.0
150.046005 272.0
150.170639 184.0
150.197479 128.0
150.248703 168.0
150.478104 232.0
150.495193 52.0
150.59288 136.0
150.644165 152.0
150.663712 164.0
150.699707 180.0
150.798111 192.0
150.914444 192.0
150.932556 80.0
150.964859 132.0
151.053619 668.0
151.182068 156.0
151.289291 148.0
151.355286 136.0
151.468521 124.0
151.527313 140.0
151.762589 68.0
151.826813 136.0
151.899933 136.0
151.929367 120.0
151.951447 148.0
152.062103 5308.0
152.103592 160.0
152.154724 212.0
152.187057 56.0
152.214066 132.0
152.36969 144.0
152.455368 120.0
152.494125 92.0
152.528534 128.0
152.650772 188.0
152.712936 164.0
152.79657 36.0
152.855621 108.0
152.880234 76.0
152.945023 184.0
152.977966 208.0
153.022995 168.0
153.069519 7884.0
153.098862 180.0
153.143646 80.0
153.170258 160.0
153.279144 72.0
153.325974 72.0
153.346512 144.0
153.424561 172.0
153.449219 168.0
153.496063 196.0
153.562637 116.0
153.609512 128.0
153.635818 144.0
153.664047 180.0
153.747681 116.0
153.767426 40.0
153.797043 156.0
153.82666 96.0
153.88591 100.0
153.913071 192.0
153.931427 104.0
153.963989 160.0
153.997025 116.0
154.074402 2456.0
154.138077 84.0
154.169968 176.0
154.300964 180.0
154.335571 160.0
154.42955 172.0
154.533447 236.0
154.587433 156.0
154.662125 112.0
154.73143 40.0
154.823044 184.0
154.860199 96.0
154.919647 168.0
155.047668 492.0
155.084869 1188.0
155.146515 168.0
155.217056 80.0
155.239365 76.0
155.393158 148.0
155.41301 188.0
155.475037 128.0
155.524063 180.0
155.589218 128.0
155.62149 152.0
155.63887 140.0
155.661209 152.0
155.70343 124.0
155.832596 260.0
155.966797 56.0
156.056076 144.0
156.088806 456.0
156.11348 136.0
156.148285 216.0
156.165695 48.0
156.185593 112.0
156.243378 212.0
156.29155 180.0
156.379669 124.0
156.422379 176.0
156.466797 120.0
156.524048 160.0
156.648575 104.0
156.760696 144.0
156.847916 156.0
156.907745 180.0
157.026169 268.0
157.065903 168.0
157.084961 136.0
157.093414 168.0
157.104721 204.0
157.129715 108.0
157.149673 180.0
157.169632 88.0
157.18959 152.0
157.284698 180.0
157.356827 176.0
157.399002 224.0
157.450821 360.0
157.47168 208.0
157.506134 76.0
157.554108 116.0
157.609085 188.0
157.659058 152.0
157.759033 140.0
157.789032 284.0
157.833221 160.0
157.886551 180.0
157.931152 196.0
158.024582 132.0
158.067703 156.0
158.100922 256.0
158.129227 116.0
158.146744 160.0
158.201813 132.0
158.241867 108.0
158.319489 148.0
158.499847 180.0
158.529907 44.0
158.636032 176.0
158.685318 116.0
158.737976 196.0
158.763046 164.0
158.816299 172.0
158.901001 272.0
158.925934 336.0
158.95369 148.0
158.97879 128.0
159.046448 160.0
159.131897 220.0
159.172073 180.0
159.302673 132.0
159.39061 156.0
159.418243 208.0
159.444397 168.0
159.493637 80.0
159.538879 136.0
159.657059 140.0
159.767731 52.0
159.799759 240.0
159.870895 128.0
159.947708 172.0
160.043625 244.0
160.049408 152.0
160.069016 68.0
160.091232 128.0
160.122635 136.0
160.162933 192.0
160.208282 168.0
160.239761 40.0
160.36792 208.0
160.457764 180.0
160.535934 148.0
160.591415 188.0
160.614395 180.0
160.667084 240.0
160.692322 76.0
160.768005 232.0
160.899261 148.0
160.919464 176.0
160.957336 164.0
160.98764 168.0
161.028046 212.0
161.05275 288.0
161.118973 236.0
161.141708 112.0
161.245316 64.0
161.265533 152.0
161.308502 104.0
161.409622 168.0
161.462738 68.0
161.493088 164.0
161.637283 148.0
161.65889 188.0
161.69548 236.0
161.73851 208.0
161.771408 216.0
161.8423 240.0
161.860031 92.0
161.952423 196.0
162.019592 60.0
162.037323 172.0
162.09053 76.0
162.108261 152.0
162.136139 48.0
162.158951 148.0
162.191895 148.0
162.227386 144.0
162.321198 164.0
162.349091 168.0
162.422638 136.0
162.442932 168.0
162.491669 168.0
162.509506 212.0
162.572327 112.0
162.620544 100.0
162.651001 120.0
162.681458 260.0
162.727158 188.0
162.744934 176.0
162.777939 132.0
162.963364 164.0
162.991302 196.0
163.05278 292.0
163.080246 184.0
163.098038 200.0
163.126007 272.0
163.176849 156.0
163.218384 148.0
163.265839 148.0
163.349777 124.0
163.446457 56.0
163.558426 156.0
163.619522 88.0
163.672043 272.0
163.866562 48.0
163.897125 116.0
163.914963 180.0
164.013458 180.0
164.023148 116.0
164.06427 420.0
164.177521 172.0
164.258743 204.0
164.338226 156.0
164.368546 104.0
164.377716 92.0
164.382568 148.0
164.455612 164.0
164.504105 52.0
164.552612 168.0
164.665222 184.0
164.713501 120.0
164.759476 212.0
164.779327 176.0
164.836166 164.0
164.864227 148.0
164.889786 100.0
164.918594 148.0
164.9767 168.0
165.000046 148.0
165.033966 244.0
165.069778 17196.0
165.132675 232.0
165.159592 168.0
165.238037 84.0
165.274933 104.0
165.36293 60.0
165.385971 124.0
165.453796 136.0
165.485794 116.0
165.569138 44.0
165.593353 104.0
165.63945 72.0
165.665359 176.0
165.750702 152.0
165.778534 100.0
165.836746 52.0
165.981491 216.0
166.034164 184.0
166.076538 15192.0
166.209442 208.0
166.329208 144.0
166.353897 168.0
166.421631 160.0
166.499939 80.0
166.534622 56.0
166.596268 164.0
166.616821 168.0
166.642502 72.0
166.701599 200.0
166.722168 180.0
166.814682 160.0
166.884094 148.0
166.970367 156.0
166.997253 96.0
167.049911 272.0
167.083893 6704.0
167.141068 84.0
167.190201 92.0
167.260147 156.0
167.287109 228.0
167.377106 204.0
167.398712 248.0
167.486282 160.0
167.53598 68.0
167.604782 116.0
167.687241 32.0
167.826447 156.0
167.850266 212.0
167.888336 140.0
167.937332 292.0
168.012131 304.0
168.05481 1484.0
168.09288 4312.0
168.143738 44.0
168.174698 144.0
168.22374 128.0
168.256165 136.0
168.28656 156.0
168.345383 140.0
168.401306 224.0
168.42923 124.0
168.444214 116.0
168.506027 208.0
168.544708 140.0
168.590103 128.0
168.665451 88.0
168.693878 164.0
168.799881 104.0
168.900742 152.0
168.983521 56.0
169.009613 192.0
169.061127 1076.0
169.098022 704.0
169.200928 240.0
169.229401 172.0
169.276001 180.0
169.294128 260.0
169.310135 256.0
169.408966 208.0
169.459915 120.0
169.480637 160.0
169.508545 88.0
169.553192 88.0
169.620575 112.0
169.654282 112.0
169.6828 48.0
169.745026 44.0
169.799759 220.0
169.830597 148.0
169.887665 108.0
169.911011 188.0
169.974335 232.0
170.077637 336.0
170.123322 64.0
170.143692 152.0
170.186127 332.0
170.209488 84.0
170.252747 164.0
170.277008 40.0
170.323761 168.0
170.362732 172.0
170.425079 172.0
170.450348 152.0
170.47377 200.0
170.570602 196.0
170.5914 232.0
170.609604 172.0
170.64859 144.0
170.705795 144.0
170.789017 228.0
170.80983 164.0
170.986679 144.0
171.038803 236.0
171.083801 468.0
171.114471 360.0
171.135132 216.0
171.215851 136.0
171.246414 180.0
171.306488 256.0
171.340881 112.0
171.387772 196.0
171.43988 104.0
171.476105 160.0
171.482452 144.0
171.604156 192.0
171.632782 176.0
171.664078 192.0
171.738861 136.0
171.802307 108.0
171.841812 56.0
171.958984 200.0
172.011063 104.0
172.029343 160.0
172.065887 132.0
172.090897 172.0
172.103302 236.0
172.170334 216.0
172.204285 40.0
172.233017 132.0
172.269577 128.0
172.293091 144.0
172.328217 204.0
172.397598 164.0
172.43779 148.0
172.482178 212.0
172.551483 160.0
172.55748 192.0
172.593643 184.0
172.64856 208.0
172.745331 116.0
172.776733 100.0
172.797653 188.0
172.829056 180.0
172.849991 196.0
172.878769 108.0
172.988693 172.0
173.014877 148.0
173.062195 160.0
173.081543 188.0
173.148407 172.0
173.190262 184.0
173.361298 196.0
173.399918 148.0
173.420883 164.0
173.454956 140.0
173.483978 108.0
173.588669 68.0
173.81163 164.0
174.110886 152.0
174.208054 136.0
174.255356 120.0
174.328918 108.0
174.394623 148.0
174.447189 76.0
174.50502 60.0
174.536575 176.0
174.615463 148.0
174.662811 52.0
174.709625 176.0
174.74733 212.0
174.785034 368.0
174.805603 160.0
174.925949 84.0
174.970688 152.0
175.035751 164.0
175.091812 164.0
175.112885 172.0
175.15239 196.0
175.196091 252.0
175.336823 160.0
175.386002 176.0
175.452805 124.0
175.481796 128.0
175.534531 84.0
175.6035 184.0
175.69014 148.0
175.818268 132.0
175.864304 176.0
175.924881 176.0
175.972534 92.0
175.991013 188.0
176.027573 160.0
176.034836 136.0
176.060699 1412.0
176.117767 136.0
176.1521 92.0
176.28421 176.0
176.366135 148.0
176.40831 356.0
176.471466 132.0
176.496292 152.0
176.553848 196.0
176.572235 172.0
176.61467 180.0
176.638229 208.0
176.70462 132.0
176.738342 204.0
176.74855 152.0
176.818832 220.0
176.911041 144.0
176.983139 172.0
177.003693 80.0
177.045776 180.0
177.070526 3216.0
177.122879 164.0
177.157318 196.0
177.178497 56.0
177.220886 64.0
177.250046 216.0
177.27124 192.0
177.340149 176.0
177.381332 236.0
177.413162 124.0
177.440872 132.0
177.47049 212.0
177.521744 272.0
177.587448 72.0
177.605286 140.0
177.626495 156.0
177.646652 128.0
177.70874 92.0
177.748535 184.0
177.786087 228.0
177.833466 108.0
177.862656 312.0
177.886551 108.0
177.946945 140.0
177.964493 176.0
177.976151 96.0
177.986404 248.0
178.03006 148.0
178.078186 59552.0
178.14389 216.0
178.181396 92.0
178.226486 52.0
178.252747 120.0
178.267776 52.0
178.293915 128.0
178.33078 96.0
178.380737 488.0
178.407089 204.0
178.427261 420.0
178.446609 68.0
178.479538 272.0
178.516769 232.0
178.548126 88.0
178.629044 220.0
178.657486 340.0
178.680573 176.0
178.68631 84.0
178.722198 56.0
178.744278 276.0
178.768921 144.0
178.790802 296.0
178.809906 340.0
178.835419 228.0
178.867401 180.0
178.915054 288.0
178.970047 460.0
179.011246 264.0
179.048996 512.0
179.085815 133308.0
179.149475 156.0
179.194092 312.0
179.237488 240.0
179.256012 52.0
179.276733 52.0
179.324936 364.0
179.405197 72.0
179.443207 156.0
179.49614 92.0
179.523041 292.0
179.578934 132.0
179.615601 108.0
179.646332 112.0
179.690842 96.0
179.711746 104.0
179.745224 68.0
179.7789 32.0
179.826248 156.0
179.888321 72.0
179.933945 176.0
179.959824 156.0
180.089523 17516.0
180.166412 228.0
180.200775 32.0
180.234055 96.0
180.269135 192.0
180.30162 92.0
180.321945 104.0
180.369125 184.0
180.404694 112.0
180.434418 152.0
180.462952 144.0
180.483932 144.0
180.490189 100.0
180.506622 112.0
180.568558 120.0
180.595016 124.0
180.612473 452.0
180.636902 140.0
180.675735 188.0
180.715302 36.0
180.74086 84.0
180.77565 172.0
180.807999 44.0
180.831848 212.0
180.911743 160.0
180.953903 112.0
180.972595 184.0
180.998322 172.0
181.029022 160.0
181.065063 35864.0
181.099625 8052.0
181.180344 180.0
181.206085 184.0
181.216553 84.0
181.221039 212.0
181.265717 304.0
181.29631 148.0
181.361435 88.0
181.386673 160.0
181.427017 136.0
181.484009 240.0
181.513947 116.0
181.57753 84.0
181.609253 100.0
181.635651 152.0
181.668732 60.0
181.719193 56.0
181.759064 72.0
181.80867 204.0
181.86084 56.0
181.874878 204.0
181.903976 104.0
181.948074 160.0
182.005997 92.0
182.069992 5336.0
182.101608 1196.0
182.197571 168.0
182.247726 160.0
182.292862 144.0
182.368652 116.0
182.388367 156.0
182.472092 100.0
182.493057 104.0
182.543396 48.0
182.575668 128.0
182.600082 104.0
182.64061 180.0
182.662415 112.0
182.704086 232.0
182.837128 148.0
182.898529 64.0
182.960434 60.0
182.987366 68.0
183.041351 236.0
183.075485 1384.0
183.116089 2248.0
183.162399 64.0
183.221664 136.0
183.251297 176.0
183.289795 84.0
183.316742 180.0
183.381653 96.0
183.411636 32.0
183.448029 104.0
183.509659 200.0
183.570358 140.0
183.646713 76.0
183.666443 104.0
183.752762 212.0
183.801331 48.0
183.88768 32.0
183.944611 180.0
183.971359 164.0
184.050385 476.0
184.070496 500.0
184.117386 304.0
184.163071 124.0
184.184677 44.0
184.206284 96.0
184.261719 116.0
184.29184 108.0
184.384613 124.0
184.419754 304.0
184.833511 128.0
184.960709 140.0
185.048248 200.0
185.065781 372.0
185.092682 364.0
185.118652 236.0
185.228775 56.0
185.250443 160.0
185.312744 108.0
185.345261 124.0
185.416809 80.0
185.459076 144.0
185.58107 72.0
185.662415 60.0
185.684113 312.0
185.751923 36.0
185.795319 164.0
185.90657 120.0
185.947281 72.0
185.979843 208.0
186.060181 168.0
186.099548 160.0
186.186188 124.0
186.205185 100.0
186.289398 148.0
186.338287 88.0
186.446335 184.0
186.523087 88.0
186.615509 32.0
186.656296 144.0
186.678055 172.0
186.699799 116.0
186.732437 160.0
186.8358 96.0
187.029007 156.0
187.080719 156.0
187.11496 256.0
187.159668 180.0
187.208679 148.0
187.543777 112.0
187.690994 164.0
187.950119 188.0
187.969223 116.0
187.988312 156.0
188.018341 92.0
188.068024 116.0
188.214874 68.0
188.316605 80.0
188.356888 96.0
188.389664 96.0
188.523544 32.0
188.71254 84.0
188.906326 200.0
188.970154 132.0
189.007538 116.0
189.069077 3628.0
189.160797 68.0
189.187515 180.0
189.257538 108.0
189.316864 184.0
189.424088 160.0
189.472992 132.0
189.629181 164.0
189.673035 124.0
189.736069 152.0
189.89238 168.0
190.075211 1872.0
190.139282 76.0
190.19693 108.0
190.272446 180.0
190.369888 76.0
190.434555 80.0
190.487976 64.0
190.570404 204.0
190.59787 120.0
190.66658 48.0
190.850754 188.0
190.902985 136.0
190.950089 156.0
190.982742 188.0
191.014618 116.0
191.046005 80.0
191.084198 5172.0
191.165939 68.0
191.222107 108.0
191.375412 116.0
191.43219 156.0
191.494675 76.0
191.516708 176.0
191.5737 208.0
191.581284 144.0
191.624146 48.0
191.676498 196.0
191.783966 120.0
191.844604 56.0
191.888718 168.0
192.007294 144.0
192.055649 2692.0
192.090134 2480.0
192.181717 172.0
192.208664 140.0
192.230743 220.0
192.285934 132.0
192.357697 200.0
192.639359 136.0
192.70874 104.0
192.727753 132.0
192.98204 220.0
193.068481 1096.0
193.097961 1908.0
193.197754 116.0
193.311188 96.0
193.359528 164.0
193.413589 136.0
193.554779 80.0
193.626221 80.0
193.726486 248.0
193.795746 72.0
193.818802 112.0
193.881653 176.0
193.964798 176.0
194.039719 192.0
194.072388 9024.0
194.095261 3684.0
194.128372 216.0
194.150558 84.0
194.194931 152.0
194.22821 40.0
194.258896 136.0
194.347504 44.0
194.380798 100.0
194.431595 132.0
194.482239 104.0
194.572037 40.0
194.691711 100.0
194.750031 44.0
194.861145 188.0
194.91571 100.0
194.963943 132.0
195.022308 232.0
195.079971 21904.0
195.157028 52.0
195.187317 68.0
195.261414 108.0
195.283661 44.0
195.32251 120.0
195.367874 132.0
195.419968 64.0
195.453232 180.0
195.471359 128.0
195.517365 64.0
195.547974 172.0
195.581375 172.0
195.639832 208.0
195.680481 80.0
195.714996 44.0
195.78183 56.0
195.834747 36.0
195.896027 132.0
195.918884 152.0
195.942413 120.0
195.965668 144.0
196.008087 116.0
196.05098 2996.0
196.087585 28520.0
196.129913 336.0
196.173676 88.0
196.20929 68.0
196.229294 156.0
196.259491 72.0
196.309067 120.0
196.398758 104.0
196.435333 68.0
196.468552 124.0
196.499527 108.0
196.555832 236.0
196.60199 88.0
196.637421 204.0
196.671417 48.0
196.746552 48.0
196.774475 76.0
196.833115 64.0
196.946915 172.0
196.960556 44.0
196.969162 156.0
197.057953 1032.0
197.091995 4548.0
197.165924 84.0
197.223572 52.0
197.28157 108.0
197.338837 80.0
197.391953 108.0
197.426636 120.0
197.487045 96.0
197.509415 76.0
197.528992 216.0
197.58963 220.0
197.65097 100.0
197.661713 128.0
197.78363 64.0
197.805252 244.0
197.850815 132.0
197.868851 84.0
197.889999 188.0
197.912399 96.0
198.068268 1932.0
198.09938 524.0
198.18512 120.0
198.273758 92.0
198.307388 56.0
198.380417 152.0
198.464371 40.0
198.500824 96.0
198.548492 108.0
198.583481 124.0
198.656219 128.0
198.697159 108.0
198.739243 48.0
198.800964 36.0
198.859909 328.0
198.88797 44.0
198.96376 32.0
199.005875 108.0
199.042374 164.0
199.075531 3744.0
199.205276 48.0
199.227737 140.0
199.247406 60.0
199.267075 28.0
199.353806 60.0
199.37886 148.0
199.389938 116.0
199.533066 124.0
199.585785 132.0
199.677475 68.0
199.725281 72.0
199.74498 84.0
199.764664 112.0
199.789978 172.0
199.815292 140.0
199.905334 140.0
200.026352 192.0
200.078552 668.0
200.175568 28.0
200.38118 132.0
200.403717 52.0
200.448807 240.0
200.575623 64.0
200.632004 152.0
200.725052 148.0
200.808029 216.0
200.863235 92.0
200.894272 152.0
200.978897 112.0
200.998657 52.0
201.049438 160.0
201.08049 112.0
201.119995 80.0
201.210327 64.0
201.240341 260.0
201.292206 68.0
201.314804 200.0
201.424957 68.0
201.503021 132.0
201.519897 216.0
201.566208 80.0
201.727295 156.0
201.755569 104.0
201.865845 152.0
201.899765 168.0
202.010086 204.0
202.082336 140.0
202.126068 88.0
202.828415 100.0
203.08786 304.0
203.202744 100.0
203.350296 112.0
203.387436 140.0
203.696701 52.0
203.855789 216.0
203.979645 208.0
204.08017 1804.0
204.184219 188.0
204.218719 164.0
204.404602 48.0
204.626617 156.0
204.684601 196.0
204.709183 96.0
204.786072 172.0
204.922806 152.0
205.003693 236.0
205.065048 2784.0
205.086395 1720.0
205.127991 44.0
205.396027 180.0
205.657196 232.0
205.727036 32.0
205.92691 68.0
206.006042 68.0
206.073395 2788.0
206.287643 176.0
206.32695 136.0
206.392715 100.0
206.433365 184.0
206.472778 88.0
206.601486 148.0
206.675873 120.0
206.747406 104.0
206.778885 52.0
206.811615 156.0
206.859039 220.0
206.948563 204.0
207.007767 152.0
207.080383 23472.0
207.136795 28.0
207.167343 124.0
207.17778 156.0
207.204666 64.0
207.300095 84.0
207.373886 156.0
207.446259 48.0
207.500732 60.0
207.526535 100.0
207.569366 164.0
207.598221 52.0
207.672073 160.0
207.70433 104.0
207.74736 48.0
207.830566 60.0
207.885086 40.0
207.905167 164.0
207.932983 208.0
208.086594 6044.0
208.175003 60.0
208.199677 80.0
208.245163 56.0
208.281281 192.0
208.312866 112.0
208.364578 64.0
208.456528 96.0
208.491013 104.0
208.513992 36.0
208.548248 96.0
208.623215 84.0
208.68573 156.0
208.720978 36.0
208.765823 200.0
208.794632 208.0
208.824493 48.0
208.85614 56.0
208.876266 168.0
208.905029 180.0
208.957535 96.0
208.981812 140.0
209.059631 6152.0
209.096222 12652.0
209.166885 52.0
209.258255 228.0
209.306335 92.0
209.34726 80.0
209.382828 140.0
209.411621 164.0
209.47171 136.0
209.49884 116.0
209.50975 128.0
209.54126 116.0
209.570511 72.0
209.583893 60.0
209.595413 100.0
209.636337 68.0
209.664001 100.0
209.683594 80.0
209.731445 128.0
209.751617 68.0
209.787048 96.0
209.80809 68.0
209.846756 108.0
209.954071 92.0
209.982285 28.0
210.00824 92.0
210.064102 1100.0
210.101913 3236.0
210.169785 148.0
210.290237 80.0
210.316956 124.0
210.387024 132.0
210.507507 64.0
210.550812 52.0
210.625916 36.0
210.71257 108.0
210.895203 180.0
210.999603 196.0
211.039017 156.0
211.074234 4576.0
211.111526 11888.0
211.192429 172.0
211.22879 48.0
211.273422 120.0
211.292496 76.0
211.348648 80.0
211.387863 60.0
211.457153 104.0
211.495193 100.0
211.531265 76.0
211.604492 60.0
211.629395 44.0
211.652557 76.0
211.695587 116.0
211.772415 196.0
211.79953 176.0
211.816391 56.0
211.828415 108.0
211.875565 76.0
212.081955 1056.0
212.111343 1448.0
212.145081 172.0
212.211761 160.0
212.516296 52.0
212.539505 32.0
212.568512 56.0
212.607834 80.0
212.680283 156.0
212.739761 40.0
212.827927 140.0
212.934296 64.0
213.003998 64.0
213.05629 88.0
213.08989 1600.0
213.172516 148.0
213.268417 144.0
213.373062 92.0
213.463196 40.0
213.545853 136.0
213.602798 72.0
213.623154 116.0
213.646423 148.0
213.734863 152.0
213.783173 84.0
213.838974 116.0
214.098892 4088.0
214.153793 144.0
214.187866 192.0
214.272339 112.0
214.301468 40.0
214.380142 72.0
214.435516 52.0
214.482147 64.0
214.555023 60.0
214.632553 136.0
214.671661 68.0
214.736694 120.0
214.810715 128.0
214.941742 128.0
215.018463 172.0
215.098557 676.0
215.272781 56.0
215.839661 100.0
216.064865 92.0
216.102905 148.0
216.421921 136.0
216.776352 132.0
216.899445 56.0
217.085617 264.0
217.490372 128.0
217.694504 100.0
217.814926 60.0
218.095352 780.0
218.329254 108.0
218.399841 208.0
218.449844 60.0
218.502808 64.0
218.735275 140.0
218.99144 68.0
219.081924 356.0
219.10231 172.0
219.403976 136.0
219.574997 28.0
219.622177 152.0
220.035309 80.0
220.075607 792.0
220.111618 4364.0
220.157867 172.0
220.338303 124.0
220.363129 60.0
220.39267 32.0
220.419266 100.0
220.561127 36.0
220.600571 184.0
220.682327 48.0
220.741455 60.0
220.785812 64.0
220.893799 204.0
221.057373 40.0
221.118118 2544.0
221.235092 76.0
221.265152 112.0
221.389511 56.0
221.451706 92.0
221.756882 68.0
221.878403 128.0
221.943634 140.0
222.041489 108.0
222.090729 8820.0
222.148819 172.0
222.219467 68.0
222.240234 88.0
222.278809 44.0
222.355972 96.0
222.54892 168.0
222.582504 128.0
222.661758 128.0
222.774628 176.0
222.917236 108.0
222.991531 220.0
223.030167 44.0
223.098145 4868.0
223.312622 228.0
223.333435 52.0
223.356567 72.0
223.404831 72.0
223.43161 124.0
223.549133 40.0
223.594193 36.0
223.68367 164.0
223.717285 76.0
223.750031 40.0
223.787323 160.0
223.810852 84.0
223.860199 104.0
223.92572 48.0
223.961533 100.0
224.00824 232.0
224.041092 60.0
224.082504 14584.0
224.193848 156.0
224.257538 60.0
224.360748 112.0
224.393555 68.0
224.530716 72.0
224.641068 56.0
224.727585 44.0
224.756073 136.0
224.790237 76.0
224.815903 120.0
224.855896 40.0
224.882751 104.0
224.921555 120.0
225.032013 108.0
225.085052 2792.0
225.175339 92.0
225.205215 116.0
225.338562 164.0
225.363541 60.0
225.404617 160.0
225.506973 144.0
225.577835 124.0
225.656433 132.0
225.773056 68.0
225.826889 72.0
226.091049 548.0
226.245804 76.0
226.278732 60.0
226.494339 32.0
226.602188 168.0
226.635132 140.0
226.668091 40.0
226.701859 224.0
226.799957 96.0
226.901886 44.0
227.102585 404.0
227.213776 112.0
227.51088 100.0
227.664001 96.0
227.709045 132.0
227.832199 60.0
228.042542 136.0
228.120697 60.0
228.141739 116.0
228.248291 172.0
228.3853 100.0
228.644043 148.0
228.729507 132.0
229.952011 100.0
230.181442 76.0
230.549973 68.0
230.575653 20.0
230.797836 76.0
231.754288 48.0
232.205704 48.0
232.506302 204.0
232.834183 84.0
233.244339 160.0
233.299057 112.0
234.092697 340.0
234.135788 112.0
234.32576 76.0
234.769653 100.0
234.94046 48.0
235.095337 132.0
235.459351 152.0
235.749573 144.0
236.110031 916.0
236.532516 28.0
236.76828 56.0
236.81781 116.0
236.869339 168.0
237.063705 228.0
237.114334 5224.0
237.154297 180.0
237.543716 72.0
237.635742 96.0
237.80452 84.0
237.868973 128.0
237.921158 236.0
237.973358 112.0
238.007126 156.0
238.056259 156.0
238.120941 3588.0
238.231323 40.0
238.31427 64.0
238.366699 128.0
238.424896 68.0
238.447113 208.0
238.504807 36.0
238.58165 124.0
238.80304 180.0
238.841019 80.0
238.969147 248.0
239.10495 8044.0
239.172256 120.0
239.243057 48.0
239.310776 60.0
239.335419 52.0
239.392044 160.0
239.527451 56.0
239.559052 104.0
239.619965 76.0
239.677307 56.0
239.750626 248.0
239.80098 60.0
239.822144 128.0
239.946701 108.0
239.988617 36.0
240.034866 108.0
240.104202 2480.0
240.17981 100.0
240.209885 112.0
240.252151 48.0
240.290863 56.0
240.386505 80.0
240.498901 124.0
240.59639 60.0
241.115494 720.0
241.316223 80.0
241.408981 96.0
241.600754 48.0
241.653336 104.0
241.792587 80.0
242.099075 92.0
242.120743 176.0
242.145523 196.0
242.244644 56.0
242.31279 84.0
242.368561 96.0
242.715714 32.0
242.756027 80.0
242.85527 92.0
242.945221 48.0
243.050705 112.0
243.935806 96.0
244.71666 116.0
245.071732 96.0
245.271164 120.0
245.51123 140.0
245.829422 68.0
246.516418 88.0
246.741455 72.0
247.636383 32.0
249.106003 264.0
250.082199 156.0
250.127258 164.0
250.182922 144.0
250.32933 40.0
250.491531 136.0
250.916946 48.0
251.125916 108.0
251.582596 196.0
251.945755 108.0
252.13797 1036.0
252.378738 60.0
252.511551 168.0
252.951355 88.0
253.130783 268.0
253.876495 136.0
254.118546 2356.0
254.33017 44.0
254.403183 116.0
254.593689 64.0
255.04483 100.0
255.123901 2740.0
255.248291 100.0
255.337326 168.0
255.369141 112.0
256.13092 380.0
257.067139 88.0
257.123474 92.0
257.134979 124.0
257.603516 88.0
257.811188 64.0
257.939026 116.0
258.207611 36.0
258.309967 140.0
259.071808 72.0
261.648132 64.0
261.962952 116.0
262.227173 100.0
262.259399 124.0
263.553467 68.0
263.747345 104.0
265.048309 52.0
266.518158 80.0
267.012268 132.0
267.526337 88.0
269.110779 88.0
269.144196 188.0
269.205475 108.0
269.724915 88.0
270.045349 116.0
270.078064 80.0
270.14859 4940.0
270.467438 148.0
270.64798 52.0
270.994659 124.0
271.05365 96.0
271.149292 844.0
271.194946 160.0
271.260101 52.0
271.332214 56.0
271.368286 92.0
271.696259 36.0
272.162292 160.0
272.356049 52.0
273.164642 320.0
273.539764 120.0
273.592438 72.0
273.869049 56.0
275.227722 92.0
275.36972 132.0
279.260712 124.0
280.399353 112.0
281.316589 116.0
283.892822 52.0
284.224915 88.0
284.560547 104.0
285.706573 84.0
286.474091 120.0
287.667816 48.0
290.208984 88.0
290.907379 156.0
291.902832 92.0
295.617584 52.0
296.35379 96.0
298.622833 68.0
300.203552 104.0
300.303558 92.0
300.403595 48.0
302.044373 48.0
303.218079 100.0
303.838745 56.0
305.002045 124.0
305.061157 92.0
308.334015 92.0
309.320312 76.0
310.732574 68.0
311.694611 36.0
312.06366 72.0
312.429413 100.0
312.999573 84.0
313.055939 76.0
314.459015 84.0
316.548309 92.0
320.373474 92.0
322.635986 76.0
326.130951 88.0
326.986938 64.0
327.296509 60.0
328.749176 40.0
329.046021 104.0
329.720612 60.0
332.062988 84.0
334.883331 120.0
336.257812 100.0
336.600952 68.0
336.809143 48.0
338.103394 52.0
338.13266 48.0
339.785217 56.0
340.03476 88.0
340.104492 92.0
340.365143 28.0
341.441833 76.0
342.045227 96.0
342.969757 144.0
348.465057 116.0
349.420532 96.0
350.960114 108.0
352.12674 100.0
353.169495 88.0
355.741821 20.0
360.719849 56.0
365.186432 56.0
365.677246 48.0
365.974152 60.0
369.845093 92.0
370.729767 104.0
374.587189 68.0
376.071686 60.0
383.807129 124.0
386.236206 48.0
388.559174 104.0
388.814209 84.0
390.185059 108.0
396.195526 68.0
401.713196 72.0
402.778992 48.0
403.342377 124.0
403.498291 108.0
403.786194 128.0
406.578522 68.0
415.865112 64.0
418.873962 108.0
421.28476 40.0
422.269836 88.0
422.490723 68.0
424.112244 124.0
425.478241 32.0
426.982117 60.0
427.578644 60.0
428.908966 44.0
429.832764 68.0
430.389984 48.0
433.856995 120.0
436.805328 60.0
439.934784 92.0
444.488342 64.0
445.339813 112.0
447.274658 68.0
450.796234 80.0
452.63205 88.0
454.509796 76.0
455.411682 44.0
457.510345 68.0
459.487732 60.0
459.517609 80.0
460.153503 84.0
468.731812 40.0
470.500122 120.0
477.941742 76.0
482.630585 40.0
483.829346 56.0
484.254089 152.0
487.065552 36.0
497.198273 36.0
499.820068 120.0
500.184998 40.0
502.912842 52.0
510.425629 100.0
514.399231 92.0
515.953247 60.0
516.486816 88.0
524.984253 64.0
525.189453 44.0
525.823669 48.0
532.393127 92.0
535.690857 68.0
541.547729 112.0
544.200256 108.0
548.745789 48.0
552.131104 80.0
557.710327 128.0
563.08136 108.0
567.742859 76.0
568.193481 72.0
582.10199 84.0
583.971375 68.0
596.747375 88.0
604.488098 116.0
604.688721 104.0
604.977539 72.0
613.121155 36.0
619.291809 40.0
622.11322 64.0
627.346436 92.0
628.723022 44.0
633.1073 76.0
633.232483 112.0
638.109924 60.0
638.984985 84.0
643.152405 48.0
656.194641 48.0
656.551575 40.0
656.954529 68.0
667.176086 48.0
669.934387 52.0
671.738586 84.0
689.589966 80.0
694.878784 112.0
700.53009 88.0
703.641479 108.0
707.691345 80.0
713.468872 132.0
723.482178 44.0
724.210388 80.0
731.60437 68.0
735.334351 56.0
745.993958 64.0
746.499634 48.0
772.773926 112.0
788.751038 20.0
790.101196 24.0
795.719788 148.0
797.798401 96.0
817.327637 196.0
822.091309 52.0
823.089355 124.0
831.998962 32.0
866.389954 76.0
872.216919 52.0
876.471802 132.0
877.721375 44.0
885.054077 40.0
896.792603 184.0
898.706787 96.0
900.969543 108.0
906.779602 112.0
919.759094 68.0
925.944214 216.0
928.707886 44.0
929.308472 56.0
932.472168 92.0
935.641235 224.0
942.704224 172.0
943.358215 52.0
944.905396 48.0
945.248047 188.0
946.57782 84.0
949.002747 156.0
951.487488 60.0
958.314148 80.0
959.115295 276.0
969.98175 72.0
970.77533 148.0
977.670715 216.0
980.741089 120.0
981.021606 196.0
1001.744873 228.0
1012.311157 48.0
1014.275146 132.0
1015.467163 140.0
1017.497681 112.0
1018.945679 144.0
1021.762024 80.0
1023.283081 184.0
1027.827515 152.0
1028.708252 124.0
1033.296631 124.0
1034.378052 224.0
1035.216797 64.0
1039.511719 168.0
1042.94104 168.0
1048.604858 124.0
1051.720093 236.0
1053.637939 128.0
1058.650635 128.0
1060.082275 124.0
1062.461792 144.0
1066.247192 148.0
1067.664429 68.0
1068.048218 112.0
1069.499146 196.0
1078.17981 152.0
1079.376099 136.0
1081.947388 148.0
1082.96228 180.0
1083.027832 100.0
1085.092041 124.0
1088.201782 188.0
1090.96106 64.0
1093.144653 220.0
1094.243774 176.0
1096.891968 184.0
1098.210693 48.0
1098.90332 184.0
1101.643066 124.0
1109.44519 172.0
1110.817871 80.0
1112.065308 56.0
1116.755981 152.0
1116.982056 32.0
1117.527588 96.0
1117.993408 52.0
1119.690918 140.0
1122.196411 144.0
1123.576904 168.0
1125.045166 92.0
1125.091797 232.0
1130.994263 60.0
1132.527588 188.0
1133.137207 196.0
1133.686646 216.0
1134.008301 120.0
1135.563721 176.0
1137.241089 140.0
1138.194336 144.0
1142.906006 212.0
1144.42041 32.0
1145.275757 236.0
1146.198608 160.0
1148.261475 204.0
1148.969727 80.0
1150.139893 212.0
1153.568481 160.0
1156.957642 84.0
1158.867432 144.0
1162.264282 176.0
1162.75293 184.0
1162.902222 64.0
1163.601318 156.0
1170.713623 68.0
1171.190308 148.0
1172.164551 124.0
1172.403076 188.0
1173.316406 124.0
1173.623169 156.0
1176.307739 184.0
1179.241333 88.0
1183.112793 248.0
1189.487915 168.0
1190.009644 92.0
1190.092041 176.0
1193.974487 176.0
1194.263306 148.0
1197.387939 160.0
1198.069824 184.0
1199.020752 216.0
1201.903198 220.0
1202.841675 204.0
1206.171143 204.0
1207.139038 124.0
1207.941284 192.0
1208.882202 180.0
1209.428955 140.0
1212.80896 116.0
1213.342651 140.0
1215.222168 184.0
1215.360962 48.0
1219.173096 168.0
1220.952759 132.0
1223.57605 112.0
1224.028564 144.0
1224.96875 96.0
1226.006958 164.0
1227.16394 72.0
1227.359253 156.0
1229.647339 128.0
1230.19873 152.0
1230.352295 148.0
1236.545288 164.0
1237.203247 88.0
1240.026123 152.0
1240.376465 116.0
1241.014404 148.0
1241.456177 232.0
1242.662598 172.0
1243.595947 196.0
1245.407349 140.0
1247.592773 148.0
1248.54895 208.0
1248.830322 168.0
1250.511841 256.0
1250.72998 96.0
1250.835571 160.0
1253.074951 128.0
1253.554077 204.0
1254.449219 188.0
1256.244385 212.0
1264.231201 128.0
1264.549683 180.0
1267.049194 152.0
1267.431885 224.0
1273.91626 184.0
1275.906006 52.0
1276.538818 128.0
1278.672974 84.0
1278.793945 144.0
1281.307617 172.0
1281.941772 204.0
1282.134155 136.0
1283.559814 72.0
1286.006714 132.0
1286.435059 108.0
1289.770874 212.0
1291.8302 216.0
1292.0448 200.0
1293.017944 164.0
1293.246948 220.0
1293.347168 132.0
1294.220459 120.0
1295.39502 208.0
1296.584351 128.0
1296.734863 180.0
1297.014404 132.0
1297.559204 200.0
1297.795776 120.0
1297.967896 140.0
1300.866333 152.0
1301.074463 160.0
1304.953979 192.0
1306.334839 220.0
1306.536255 64.0
1307.083008 144.0
1307.291748 160.0
1309.56665 96.0
1310.474243 48.0
1310.921021 136.0
1311.858032 124.0
1312.175171 192.0
1312.405884 180.0
1312.831299 32.0
1313.422729 172.0
1314.613159 180.0
1315.970093 240.0
1316.916138 124.0
1317.277222 164.0
1317.465088 176.0
1319.669312 252.0
1320.385132 140.0
1321.448486 168.0
1321.680054 132.0
1321.730713 156.0
1322.222778 212.0
1322.497803 260.0
1322.997192 144.0
1325.930664 136.0
1328.896484 136.0
1329.244751 216.0
1329.810791 76.0
1329.963135 140.0
1332.279541 152.0
1332.512085 148.0
1333.878174 96.0
1334.190796 200.0
1334.496216 212.0
1334.794312 116.0
1334.845215 176.0
1335.114258 112.0
1337.063843 60.0
1337.158447 248.0
1337.951904 104.0
1338.206665 176.0
1338.395996 164.0
1338.578003 124.0
1338.942139 120.0
1339.226196 148.0
1339.969238 160.0
1340.114868 124.0
1340.522949 144.0
1341.506836 184.0
1341.57251 68.0
1343.351807 48.0
1343.916992 160.0
1344.679688 200.0
1347.235352 156.0
1348.002441 124.0
1348.309448 232.0
1348.784424 104.0
1349.890747 180.0
1350.78064 96.0
1351.157837 196.0
1352.185425 164.0
1352.529419 164.0
1353.547119 112.0
1354.096313 80.0
1356.7854 188.0
1357.254639 132.0
1358.494141 56.0
1358.919556 188.0
1359.484619 152.0
1359.587402 88.0
1361.650269 172.0
1361.826538 188.0
1363.420776 148.0
1363.788208 152.0
1365.037964 188.0
1365.54541 132.0
1366.339844 184.0
1367.745361 140.0
1368.245972 160.0
1370.499634 176.0
1370.728027 140.0
1371.369141 172.0
1372.570801 196.0
1373.116455 184.0
1375.182251 156.0
1378.158203 112.0
1378.741943 136.0
1379.466309 180.0
1380.865479 236.0
1380.930298 60.0
1381.825439 196.0
1383.349854 164.0
1383.860718 220.0
1384.03833 228.0
1386.15686 144.0
1386.342041 96.0
1389.048218 180.0
1390.250122 104.0
1390.502441 232.0
1391.036865 120.0
1391.385742 108.0
1392.053955 124.0
1394.334595 128.0
1394.877197 140.0
1394.981201 80.0
1395.21167 96.0
1396.825317 112.0
1396.989014 172.0
1397.15271 200.0
1397.881836 160.0
1398.678101 52.0
1399.541626 196.0
1399.59375 148.0
1400.062866 184.0
1401.873169 120.0
1401.940186 252.0
1404.967407 100.0
1405.73584 120.0
1407.33313 144.0
1408.871704 92.0
1409.036011 148.0
1409.738403 52.0
1410.246582 156.0
1411.868896 232.0
1412.00354 152.0
1415.812744 148.0
1416.202148 204.0
1416.674072 160.0
1417.258423 176.0
1417.378296 52.0
1420.212036 132.0
1421.877686 176.0
1422.104126 108.0
1423.123657 136.0
1426.098511 168.0
1428.948486 76.0
1429.24939 240.0
1430.223633 272.0
1430.626709 100.0
1431.914185 180.0
1432.179199 132.0
1432.855713 116.0
1433.074219 148.0
1433.435913 136.0
1433.963501 140.0
1436.640137 228.0
1439.470459 124.0
1440.098389 236.0
1440.422119 212.0
1440.837524 144.0
1441.472168 152.0
1441.819824 200.0
1442.270874 136.0
1442.386719 128.0
1442.704102 132.0
1442.764648 52.0
1445.131104 184.0
1445.351196 204.0
1446.266846 116.0
1446.932983 200.0
1448.106689 132.0
1448.190063 168.0
1448.386353 228.0
1448.796021 168.0
1449.925049 140.0
1450.038696 96.0
1450.796631 68.0
1450.963379 208.0
1453.466309 128.0
1453.519409 176.0
1453.678711 176.0
1453.803955 40.0
1454.430054 128.0
1454.824829 116.0
1455.325928 172.0
1455.470093 164.0
1456.191528 156.0
1457.490601 84.0
1457.695679 156.0
1459.01062 156.0
1460.463013 148.0
1461.056274 148.0
1461.109619 204.0
1462.502075 172.0
1463.050171 136.0
1463.415527 156.0
1464.01709 324.0
1464.339478 184.0
1465.291992 88.0
1465.494873 152.0
1466.119629 204.0
1466.348267 164.0
1466.454956 132.0
1467.445923 276.0
1467.598511 168.0
1468.017822 40.0
1470.275879 116.0
1470.40564 216.0
1470.581177 152.0
1470.678101 96.0
1472.092773 72.0
1472.222534 44.0
1472.44397 216.0
1473.353027 240.0
1473.681519 136.0
1475.606934 172.0
1475.798584 144.0
1476.310913 52.0
1477.274658 196.0
1477.879028 184.0
1478.154419 72.0
1479.601074 156.0
1479.731201 112.0
1479.968506 156.0
1480.198242 164.0
1480.542847 108.0
1481.032959 160.0
1483.584595 168.0
1484.52771 96.0
1485.107178 172.0
1485.333008 152.0
1485.846924 148.0
1486.17688 156.0
1486.422363 64.0
1487.389404 196.0
1488.563965 164.0
1489.186035 152.0
1489.424072 248.0
1490.837769 200.0
1491.022217 180.0
1491.532593 284.0
1492.12207 196.0
1492.436646 200.0
1493.144043 164.0
1493.728638 172.0
1494.028564 116.0
1494.459473 160.0
1494.751831 188.0
1496.237305 200.0
1496.783936 184.0
1497.278564 84.0
1497.800537 148.0
1498.285767 180.0
1499.148682 188.0
1499.410767 48.0
1500.505249 192.0
1500.751953 148.0
1500.937012 156.0
1501.384277 144.0
1501.862427 152.0
1502.98877 120.0
1503.420898 160.0
1503.544434 196.0
