>compound MLS001142920-01!
>formula C23H28N4O3
>ionization [M+H]+
>parentmass 409.224
#inchi InChI=1S/C23H28N4O3/c1-2-16-6-8-19(9-7-16)25-21(28)10-11-24-23(30)26-13-17-12-18(15-26)20-4-3-5-22(29)27(20)14-17/h3-9,17-18H,2,10-15H2,1H3,(H,24,30)(H,25,28)/t17-,18+/m1/s1
#inchikey QJIMGXJWUVAKOD
#Ion_Source LC-ESI
#Instrument qTof
#Compound_Source NIH Natural Product Library
#PI Dorrestein
#Data_Collector VVP/LMS
#Scan -1
#Precursor_MZ 409.224
#ExactMass 408.216
#Charge 1
#CAS_Number N/A
#Pubmed_ID N/A
#Smiles CCc1ccc(NC(=O)CCNC(=O)N2C[C@H]3C[C@@H](C2)c4cccc(=O)n4C3)cc1
#INCHI_AUX N/A
#Library_Class 1
#SpectrumID CCMSLIB00000080160
#IonMode Positive
#UpdateWorkflowName UPDATE-SINGLE-ANNOTATED-GOLD
#LibraryQualityString Gold
#TaskID b1d8e8f6646f4e71acdff9ca3d919d08
##Scan# 1821
#SpectrumFile p2-A05_GA5_01_17982.mzXML
#LibraryName NIH_Natural_Products_Library.mgf
#MQScore -1
#Organism NIH_Natural_Products_Library
#TIC_Query 0
#RT_Query -1
#MZErrorPPM -1
#SharedPeaks 0
#MassDiff 0
#LibMZ -1
#SpecMZ 409.224
#SpecCharge 0
#internalFilename spec-00000.mgf

>collision 10
94.975143 132.0
94.988724 148.0
95.074249 256.0
95.161446 172.0
95.1819 180.0
95.202225 152.0
95.233978 172.0
95.252724 148.0
95.309067 168.0
95.331299 208.0
95.382919 120.0
95.398468 72.0
95.470673 148.0
95.497635 136.0
95.528885 208.0
95.610481 184.0
95.656548 132.0
95.683556 52.0
95.742867 124.0
95.832764 184.0
95.938179 204.0
95.996216 44.0
96.032745 220.0
96.097641 164.0
96.117157 240.0
96.165947 88.0
96.20108 124.0
96.23037 108.0
96.298714 152.0
96.369041 112.0
96.445259 188.0
96.458939 248.0
96.536064 168.0
96.568436 160.0
96.607559 152.0
96.771957 192.0
96.822876 124.0
96.882408 112.0
96.909065 144.0
96.96981 56.0
97.018311 92.0
97.048225 116.0
97.25901 216.0
97.289551 176.0
97.434464 188.0
97.468277 60.0
97.491859 136.0
97.541 48.0
97.575333 152.0
97.66291 168.0
97.786865 108.0
97.814423 104.0
97.875458 224.0
98.023468 608.0
98.09037 144.0
98.104004 268.0
98.206543 196.0
98.238106 232.0
98.255859 88.0
98.29335 120.0
98.315056 148.0
98.401909 160.0
98.427574 232.0
98.504601 204.0
98.564049 92.0
98.611305 128.0
98.640953 160.0
98.660721 136.0
98.6884 192.0
98.716866 132.0
98.791245 40.0
98.824875 208.0
98.847466 260.0
98.888206 48.0
98.94561 160.0
98.963432 132.0
98.977287 336.0
98.999069 176.0
99.09613 92.0
99.200691 164.0
99.234871 232.0
99.258667 44.0
99.304283 172.0
99.36776 232.0
99.437218 80.0
99.478897 136.0
99.564278 140.0
99.611107 180.0
99.661613 164.0
99.760986 64.0
99.846489 136.0
99.898209 144.0
99.92099 212.0
99.961876 144.0
100.021584 116.0
100.073341 184.0
100.08728 404.0
100.178894 208.0
100.196823 156.0
100.422081 96.0
100.461975 92.0
100.505875 156.0
100.523827 48.0
100.569733 156.0
100.599678 168.0
100.635612 164.0
100.79541 56.0
100.845367 196.0
100.879349 148.0
100.911339 140.0
100.94133 212.0
101.075356 60.0
101.107376 164.0
101.133392 100.0
101.247353 196.0
101.347679 160.0
101.425835 64.0
101.461922 148.0
101.502022 152.0
101.580238 148.0
101.603363 152.0
101.666519 212.0
101.720932 160.0
101.780937 120.0
101.852783 124.0
101.885384 180.0
101.971786 160.0
102.022041 88.0
102.080353 68.0
102.124596 92.0
102.144348 228.0
102.199028 172.0
102.362076 180.0
102.40126 148.0
102.432564 140.0
102.452713 132.0
102.613945 176.0
102.628059 176.0
102.730919 48.0
102.765213 176.0
102.801537 104.0
102.835846 144.0
102.866074 184.0
103.056122 356.0
103.080208 232.0
103.130737 64.0
103.210617 140.0
103.233849 132.0
103.278343 96.0
103.296547 156.0
103.383545 144.0
103.498932 124.0
103.537407 76.0
103.579941 108.0
103.596146 116.0
103.631874 196.0
103.66909 212.0
103.699493 400.0
103.731926 64.0
103.813026 72.0
103.835335 140.0
103.855614 176.0
103.869812 180.0
103.932709 204.0
104.048302 176.0
104.077858 184.0
104.109314 48.0
104.200722 140.0
104.225105 156.0
104.265747 200.0
104.294197 208.0
104.390617 188.0
104.397995 80.0
104.403145 192.0
104.424332 180.0
104.479248 188.0
104.550468 176.0
104.572853 172.0
104.589142 192.0
104.631889 224.0
104.650215 52.0
104.690941 140.0
104.739822 140.0
104.775513 140.0
104.798897 124.0
104.845772 136.0
104.862076 60.0
104.87838 104.0
104.900803 108.0
104.982361 136.0
104.998672 44.0
105.037132 220.0
105.069618 992.0
105.098633 128.0
105.150246 124.0
105.197891 196.0
105.225182 216.0
105.278267 136.0
105.296646 80.0
105.343628 208.0
105.413094 180.0
105.433533 228.0
105.521431 220.0
105.578682 184.0
105.989502 152.0
106.043327 156.0
106.062698 120.0
106.129532 60.0
106.151154 172.0
106.24234 120.0
106.299789 124.0
106.316208 144.0
106.351097 152.0
106.394203 120.0
106.448479 176.0
106.474289 124.0
106.608681 168.0
106.62632 228.0
106.690041 156.0
106.823715 208.0
106.860741 220.0
106.910126 216.0
106.928139 208.0
106.961586 160.0
106.990402 160.0
107.027466 168.0
107.048058 68.0
107.151047 176.0
107.166458 108.0
107.234924 204.0
107.276756 200.0
107.311806 208.0
107.388107 60.0
107.40461 176.0
107.421112 176.0
107.532539 152.0
107.561913 240.0
107.598595 168.0
107.637825 156.0
107.703629 148.0
107.728699 172.0
107.745224 116.0
107.786552 28.0
107.902298 160.0
107.918839 132.0
107.945366 116.0
107.978806 160.0
108.005699 192.0
108.047073 180.0
108.06385 184.0
108.090523 156.0
108.105011 128.0
108.230659 120.0
108.234161 348.0
108.27684 128.0
108.393661 212.0
108.480301 248.0
108.52758 172.0
108.554543 148.0
108.575279 120.0
108.64373 132.0
108.786919 156.0
108.815788 128.0
108.834671 156.0
108.857513 104.0
108.96685 144.0
109.046387 220.0
109.062111 176.0
109.067772 220.0
109.098534 156.0
109.125565 152.0
109.183784 120.0
109.249191 108.0
109.346069 96.0
109.366783 168.0
109.56842 184.0
109.575706 144.0
109.58004 224.0
109.664734 180.0
109.698082 128.0
109.729355 160.0
109.750206 156.0
109.771645 212.0
109.791908 188.0
109.860748 132.0
109.940033 52.0
110.002647 56.0
110.05484 144.0
110.079903 152.0
110.117493 184.0
110.249115 132.0
110.286736 200.0
110.395454 156.0
110.441467 196.0
110.523422 136.0
110.598396 72.0
110.646545 120.0
110.658585 184.0
110.690514 124.0
110.991508 168.0
111.073586 180.0
111.136993 228.0
111.21254 180.0
111.241875 160.0
111.276062 216.0
111.374222 64.0
111.729485 240.0
111.755943 132.0
111.777504 224.0
111.902985 192.0
111.965317 208.0
112.076881 144.0
112.114815 160.0
112.152756 112.0
112.182266 156.0
112.289803 232.0
112.350769 164.0
112.405769 132.0
112.422714 196.0
112.511368 328.0
112.562042 140.0
112.616951 148.0
112.708908 296.0
112.760628 208.0
112.813469 188.0
112.828552 148.0
112.851524 248.0
112.902275 184.0
113.090576 232.0
113.109627 152.0
113.155731 164.0
113.177376 56.0
113.317833 280.0
113.392166 192.0
113.410408 164.0
113.444328 108.0
113.482483 160.0
113.501472 176.0
113.556709 40.0
113.594887 132.0
113.632301 176.0
113.673393 80.0
113.69886 128.0
113.928444 192.0
113.953674 96.0
114.015297 116.0
114.062057 160.0
114.140724 160.0
114.210907 204.0
114.291748 144.0
114.432228 212.0
114.478386 212.0
114.50676 144.0
114.60688 64.0
114.717705 164.0
114.800865 56.0
114.822189 164.0
114.90538 192.0
114.960106 148.0
114.982201 232.0
115.053192 212.0
115.112427 128.0
115.244858 188.0
115.323929 156.0
115.399361 196.0
115.445793 184.0
115.679016 108.0
115.736816 76.0
115.76252 208.0
115.779648 116.0
115.826767 152.0
115.886528 224.0
115.903893 168.0
116.019638 120.0
116.049652 396.0
116.255577 200.0
116.322113 288.0
116.394035 148.0
116.435913 204.0
116.513245 172.0
116.618538 164.0
116.670128 100.0
116.689476 188.0
116.704529 68.0
116.734634 148.0
116.769043 164.0
116.791542 208.0
116.864792 112.0
117.055557 752.0
117.093948 156.0
117.147881 200.0
117.176544 320.0
117.199593 112.0
117.319283 216.0
117.410324 216.0
117.494972 140.0
117.516548 156.0
117.565742 192.0
117.585602 236.0
117.607185 240.0
117.646042 104.0
117.702179 220.0
117.739311 244.0
117.805847 196.0
117.851898 164.0
117.868591 196.0
117.978729 72.0
118.019814 128.0
118.041435 200.0
118.06562 468.0
118.086021 208.0
118.1604 112.0
118.214493 172.0
118.236137 128.0
118.270767 212.0
118.340042 152.0
118.38768 76.0
118.451431 156.0
118.48082 132.0
118.582664 68.0
118.600006 92.0
118.749611 56.0
118.819031 136.0
118.836388 84.0
118.877899 152.0
118.907997 120.0
118.95575 112.0
119.073868 180.0
119.08223 428.0
119.12513 176.0
119.181618 164.0
119.279419 204.0
119.296806 72.0
119.31855 112.0
119.405525 136.0
119.427277 112.0
119.44323 60.0
119.462082 156.0
119.586113 192.0
119.668839 200.0
119.714561 200.0
119.729805 156.0
119.78862 200.0
119.823471 136.0
119.869232 64.0
119.89756 172.0
119.924248 164.0
120.03054 76.0
120.048187 172.0
120.08036 3564.0
120.102509 60.0
120.122147 88.0
120.152687 108.0
120.172318 224.0
120.205048 152.0
120.255592 152.0
120.320732 164.0
120.349113 168.0
120.377502 180.0
120.403709 40.0
120.434288 100.0
120.464867 300.0
120.57412 188.0
120.630951 152.0
120.68998 104.0
120.790581 176.0
120.828369 192.0
120.924057 164.0
120.967834 196.0
121.018188 100.0
121.06636 100.0
121.084167 488.0
121.110168 148.0
121.140831 160.0
121.163895 168.0
121.276276 148.0
121.414818 104.0
121.458916 116.0
121.502563 160.0
121.526695 204.0
121.549355 232.0
121.739616 52.0
121.770363 108.0
121.787407 172.0
121.821587 88.0
121.884941 232.0
121.939545 172.0
121.95932 88.0
121.9879 144.0
122.059914 692.0
122.096519 22612.0
122.14843 36.0
122.225433 56.0
122.256622 164.0
122.294319 148.0
122.337677 148.0
122.390518 76.0
122.423546 152.0
122.483017 280.0
122.537453 108.0
122.60199 108.0
122.679955 144.0
122.744431 124.0
122.7938 116.0
123.007263 156.0
123.054192 192.0
123.099113 2296.0
123.160461 232.0
123.204376 196.0
123.235687 416.0
123.261307 156.0
123.304115 228.0
123.33033 48.0
123.367912 124.0
123.430519 76.0
123.45414 116.0
123.52713 132.0
123.555893 68.0
123.571381 136.0
123.591293 80.0
123.624481 168.0
123.658508 236.0
123.671494 116.0
123.71302 180.0
123.753632 140.0
123.845879 208.0
123.957542 120.0
123.992111 136.0
124.054176 80.0
124.098839 248.0
124.151733 196.0
124.202477 164.0
124.238159 108.0
124.37751 100.0
124.433548 120.0
124.461998 108.0
124.552025 148.0
124.580124 100.0
124.615669 68.0
124.657661 200.0
124.724564 180.0
124.824608 172.0
124.889107 212.0
124.913574 140.0
124.933594 32.0
125.020096 192.0
125.107178 124.0
125.198471 156.0
125.239052 256.0
125.258606 232.0
125.33213 160.0
125.461403 124.0
125.52829 184.0
125.597694 168.0
125.635353 44.0
125.74469 52.0
125.767006 204.0
125.842911 172.0
125.961273 144.0
126.041702 108.0
126.066284 112.0
126.173576 180.0
126.247368 104.0
126.278671 192.0
126.307755 96.0
126.37439 168.0
126.462143 128.0
126.571838 132.0
126.654709 220.0
126.735359 120.0
126.755524 140.0
126.77121 204.0
126.804825 188.0
126.820518 168.0
126.872078 116.0
126.899246 132.0
127.013351 180.0
127.050217 204.0
127.118797 180.0
127.165932 188.0
127.240005 96.0
127.345551 128.0
127.369278 192.0
127.44664 160.0
127.48484 156.0
127.534286 164.0
127.563507 140.0
127.616982 168.0
127.644447 164.0
127.711922 136.0
127.736664 180.0
127.878418 216.0
127.893829 156.0
127.963959 180.0
128.006744 220.0
128.047806 204.0
128.132874 132.0
128.155411 244.0
128.192673 160.0
128.232025 80.0
128.261337 224.0
128.286133 180.0
128.319946 200.0
128.374054 124.0
128.536484 168.0
128.674164 176.0
128.823212 48.0
128.855164 144.0
128.905243 184.0
129.026611 156.0
129.06456 148.0
129.087662 68.0
129.214325 184.0
129.264114 96.0
129.29126 192.0
129.406265 144.0
129.412094 116.0
129.421158 188.0
129.488586 104.0
129.572052 232.0
129.621887 168.0
129.80777 68.0
129.823654 76.0
129.862198 120.0
129.934799 160.0
129.957489 120.0
130.002869 232.0
130.065887 668.0
130.179504 148.0
130.207184 136.0
130.266312 128.0
130.332779 168.0
130.361679 144.0
130.402573 156.0
130.441803 124.0
130.471863 108.0
130.607224 112.0
130.629959 172.0
130.748276 184.0
130.78653 184.0
130.823395 60.0
130.978241 180.0
131.004974 164.0
131.032532 188.0
131.072845 708.0
131.103561 48.0
131.234756 188.0
131.302856 144.0
131.409119 136.0
131.486694 156.0
131.521759 156.0
131.639648 248.0
131.683044 72.0
131.742432 88.0
131.843033 160.0
131.896545 256.0
131.936691 120.0
132.012146 76.0
132.044235 1464.0
132.08049 760.0
132.153961 116.0
132.188293 100.0
132.277557 208.0
132.314178 184.0
132.380585 124.0
132.490952 108.0
132.538635 144.0
132.67157 200.0
132.811615 172.0
132.906799 208.0
133.025879 280.0
133.052322 1852.0
133.07106 352.0
133.100616 80.0
133.135071 164.0
133.157013 144.0
133.212433 164.0
133.268295 160.0
133.328049 188.0
133.367126 188.0
133.39241 136.0
133.440689 128.0
133.465973 196.0
133.515915 160.0
133.532669 168.0
133.562515 156.0
133.594772 92.0
133.629288 228.0
133.644684 196.0
133.786255 136.0
133.881592 236.0
133.928558 160.0
134.013794 136.0
134.060883 1380.0
134.096634 716.0
134.128616 184.0
134.276581 128.0
134.315796 128.0
134.440384 204.0
134.465775 164.0
134.615829 160.0
134.636627 168.0
134.710541 148.0
134.74057 180.0
134.875641 160.0
134.893097 152.0
134.916214 192.0
134.983459 144.0
135.011017 40.0
135.064743 704.0
135.205338 124.0
135.295624 160.0
135.358139 88.0
135.425293 188.0
135.475113 228.0
135.573929 184.0
135.615295 152.0
135.657013 128.0
135.705231 160.0
135.73584 124.0
135.756714 200.0
135.888931 200.0
135.930695 136.0
136.046936 152.0
136.095505 160.0
136.111755 92.0
136.139618 92.0
136.230209 180.0
136.311523 116.0
136.362656 184.0
136.516098 132.0
136.583542 108.0
136.65567 144.0
136.727249 188.0
136.8535 136.0
136.972275 116.0
137.209976 128.0
137.273315 188.0
137.31958 244.0
137.380219 152.0
137.482895 172.0
137.50856 20.0
137.527237 212.0
137.552917 32.0
137.585602 180.0
137.604279 172.0
137.641632 220.0
137.661453 160.0
137.721039 60.0
137.737381 52.0
137.767761 152.0
137.802795 228.0
137.819153 172.0
137.948807 84.0
137.99913 56.0
138.10202 168.0
138.137115 368.0
138.165192 128.0
138.223679 148.0
138.265808 176.0
138.359436 128.0
138.387527 180.0
138.403915 136.0
138.502274 224.0
138.572556 164.0
138.642853 128.0
138.76944 172.0
138.785858 156.0
138.931259 44.0
139.008698 184.0
139.050934 156.0
139.100235 156.0
139.130051 148.0
139.180054 200.0
139.349167 148.0
139.428665 144.0
139.443985 184.0
139.524979 144.0
139.5513 80.0
139.60997 168.0
139.64563 248.0
139.725342 148.0
139.824173 156.0
139.850067 188.0
139.957642 132.0
140.012512 144.0
140.046539 180.0
140.10202 200.0
140.182144 68.0
140.241058 132.0
140.377792 184.0
140.401382 224.0
140.483063 140.0
140.508942 220.0
140.597198 148.0
140.69397 156.0
140.715225 36.0
140.7341 168.0
140.750641 160.0
140.850494 100.0
140.916611 148.0
140.970322 244.0
141.056747 136.0
141.100327 68.0
141.145248 132.0
141.17836 196.0
141.246948 124.0
141.263504 148.0
141.322647 168.0
141.348679 156.0
141.407837 164.0
141.613312 256.0
141.67305 144.0
141.722809 140.0
141.744125 92.0
141.843674 228.0
141.902939 172.0
141.960617 148.0
142.02388 144.0
142.06604 300.0
142.163864 228.0
142.48204 128.0
142.539062 120.0
142.700119 132.0
142.733994 116.0
142.767273 36.0
142.795822 100.0
142.819595 136.0
142.888596 188.0
142.990906 156.0
143.014709 128.0
143.077499 160.0
143.164703 176.0
143.190903 160.0
143.393417 68.0
143.529297 168.0
143.636627 184.0
143.679367 148.0
143.710587 152.0
143.72728 184.0
143.756165 196.0
143.817978 112.0
143.848999 120.0
143.882431 148.0
143.923019 144.0
143.973206 200.0
144.080338 404.0
144.135605 156.0
144.185791 140.0
144.277939 180.0
144.295746 100.0
144.319824 168.0
144.354507 196.0
144.48468 156.0
144.506226 144.0
144.522964 104.0
144.58519 144.0
144.716843 188.0
144.736008 232.0
144.786285 72.0
144.855743 204.0
144.896469 164.0
144.93721 208.0
145.022964 160.0
145.0616 120.0
145.179321 288.0
145.205704 220.0
145.229691 116.0
145.272873 76.0
145.307266 200.0
145.53447 168.0
145.55127 116.0
145.6017 104.0
145.676163 220.0
145.7276 228.0
145.801849 208.0
145.808716 248.0
145.839569 148.0
145.868408 108.0
145.906952 124.0
145.941818 256.0
145.96698 140.0
145.991028 192.0
146.007874 152.0
146.059906 11132.0
146.09671 6880.0
146.181076 64.0
146.222244 192.0
146.302933 236.0
146.332718 76.0
146.392914 68.0
146.412094 108.0
146.41774 104.0
146.437546 76.0
146.455536 100.0
146.504623 244.0
146.616959 200.0
146.669998 132.0
146.691681 48.0
146.71579 60.0
146.77124 76.0
146.832596 136.0
146.988342 188.0
147.007645 136.0
147.062302 944.0
147.099289 288.0
147.135132 176.0
147.316696 236.0
147.427841 100.0
147.541458 220.0
147.599487 136.0
147.688965 104.0
147.78331 28.0
147.824448 160.0
147.851074 152.0
147.897247 144.0
147.974365 180.0
147.990677 196.0
148.02536 204.0
148.076447 26408.0
148.115372 892.0
148.166809 148.0
148.24823 168.0
148.294281 80.0
148.315872 84.0
148.330276 80.0
148.364578 68.0
148.410431 88.0
148.461563 144.0
148.550354 112.0
148.575577 156.0
148.803711 44.0
148.825562 132.0
148.878983 120.0
148.963989 56.0
148.985855 124.0
149.031097 176.0
149.049026 136.0
149.078171 3368.0
149.154358 188.0
149.17392 208.0
149.211884 164.0
149.245911 112.0
149.275101 144.0
149.326172 152.0
149.352921 92.0
149.394272 76.0
149.436737 124.0
149.469696 68.0
149.489166 64.0
149.525665 84.0
149.584091 104.0
149.667419 160.0
149.702942 176.0
149.735046 52.0
149.791077 120.0
149.849548 236.0
149.924332 144.0
149.966507 148.0
150.01651 128.0
150.071548 236.0
150.082092 184.0
150.134735 144.0
150.20256 124.0
150.229874 52.0
150.303055 184.0
150.322586 112.0
150.365387 228.0
150.386032 112.0
150.505661 96.0
150.539841 216.0
150.667175 156.0
150.746872 176.0
150.833038 208.0
151.01886 124.0
151.050049 144.0
151.217056 76.0
151.258667 56.0
151.28804 108.0
151.314972 64.0
151.368835 72.0
151.454559 128.0
151.481491 76.0
151.508438 104.0
151.645676 132.0
151.741272 120.0
151.912949 120.0
151.968796 156.0
152.074356 92.0
152.106812 112.0
152.131348 148.0
152.151001 204.0
152.209915 276.0
152.273361 188.0
152.291473 196.0
152.313065 44.0
152.374481 228.0
152.403976 116.0
152.494904 144.0
152.566177 160.0
152.676834 104.0
152.694046 56.0
152.726471 196.0
152.826889 124.0
152.908096 160.0
152.995667 192.0
153.267639 128.0
153.311996 136.0
153.437363 256.0
153.509216 204.0
153.533386 164.0
153.644867 128.0
153.663269 220.0
153.778122 276.0
153.817612 108.0
153.859589 140.0
153.896622 160.0
153.997864 116.0
154.066681 404.0
154.266708 140.0
154.37352 164.0
154.415573 148.0
154.440308 132.0
154.463684 200.0
154.635773 176.0
154.762024 164.0
154.851166 156.0
154.915146 188.0
154.942825 108.0
154.98642 188.0
155.014679 188.0
155.056808 128.0
155.089035 164.0
155.113815 216.0
155.16835 104.0
155.212982 300.0
155.257629 152.0
155.274979 136.0
155.44368 304.0
155.468491 88.0
155.518143 56.0
155.550964 124.0
155.587646 128.0
155.741608 180.0
155.761475 192.0
155.855881 136.0
155.890671 288.0
155.908066 156.0
155.932922 148.0
155.950317 136.0
155.985123 140.0
156.009384 136.0
156.082626 416.0
156.131821 72.0
156.17659 100.0
156.233795 156.0
156.256836 124.0
156.333328 40.0
156.380615 220.0
156.440353 152.0
156.622131 144.0
156.661987 160.0
156.696869 164.0
156.726776 116.0
156.759155 76.0
156.789062 104.0
156.911209 120.0
156.948608 208.0
157.005966 332.0
157.045868 200.0
157.064514 152.0
157.087036 184.0
157.170609 132.0
157.22052 44.0
157.262939 192.0
157.427719 148.0
157.51889 124.0
157.675049 44.0
157.709 136.0
157.745041 152.0
157.777542 148.0
157.808868 172.0
157.840042 140.0
157.892563 208.0
157.91507 204.0
157.932571 96.0
158.005127 152.0
158.059906 3076.0
158.096481 9040.0
158.141769 92.0
158.187805 52.0
158.21785 180.0
158.272934 176.0
158.300476 56.0
158.323013 164.0
158.345551 100.0
158.43573 144.0
158.489227 164.0
158.588593 144.0
158.62117 172.0
158.663788 124.0
158.701401 184.0
158.789169 204.0
158.809235 148.0
158.856903 176.0
158.94722 136.0
158.983459 172.0
159.025024 196.0
159.066605 1400.0
159.099579 916.0
159.184952 176.0
159.2108 112.0
159.245972 84.0
159.293686 144.0
159.399216 200.0
159.424347 112.0
159.462036 128.0
159.491974 224.0
159.534943 176.0
159.567627 56.0
159.632996 184.0
159.650604 128.0
159.68985 172.0
159.733597 224.0
159.793976 144.0
159.839264 112.0
159.884171 200.0
159.944336 376.0
160.000351 180.0
160.029129 204.0
160.076172 25232.0
160.145203 176.0
160.169586 128.0
160.18782 64.0
160.289047 84.0
160.311554 80.0
160.363098 84.0
160.416031 36.0
160.441238 208.0
160.471497 212.0
160.495865 168.0
160.521927 64.0
160.542099 204.0
160.562271 60.0
160.59758 44.0
160.630371 168.0
160.723724 220.0
160.765091 172.0
160.809738 144.0
160.834763 32.0
160.94162 248.0
160.981201 300.0
161.044449 152.0
161.080994 3156.0
161.243942 36.0
161.280701 88.0
161.323456 148.0
161.355164 60.0
161.425964 184.0
161.448715 80.0
161.524597 48.0
161.565079 172.0
161.689056 172.0
161.706772 172.0
161.793427 160.0
161.847855 220.0
161.939713 104.0
161.959976 128.0
161.987457 188.0
162.053711 176.0
162.090317 924.0
162.150009 140.0
162.200851 208.0
162.270355 160.0
162.314789 68.0
162.360733 100.0
162.477112 60.0
162.555771 92.0
162.654755 232.0
162.680679 112.0
162.77916 184.0
162.859131 116.0
162.893448 108.0
162.923187 116.0
163.076401 136.0
163.096008 260.0
163.167908 136.0
163.203506 252.0
163.221313 124.0
163.246735 124.0
163.310318 68.0
163.330673 48.0
163.414627 144.0
163.651321 240.0
163.697159 152.0
163.771027 284.0
163.900223 212.0
163.921326 72.0
163.97995 104.0
164.099579 116.0
164.176254 96.0
164.234924 56.0
164.27063 44.0
164.324203 204.0
164.385452 176.0
164.444138 124.0
164.487534 100.0
164.559021 148.0
164.625137 188.0
164.709686 136.0
164.730133 140.0
164.861893 196.0
164.998459 136.0
165.087952 156.0
165.251663 96.0
165.44873 52.0
165.475082 164.0
165.483932 48.0
165.494019 152.0
165.512741 164.0
165.535797 180.0
165.633118 100.0
165.674103 156.0
165.702286 200.0
165.781723 128.0
165.863739 140.0
165.961151 216.0
165.996323 168.0
166.02269 152.0
166.097076 136.0
166.153519 260.0
166.229019 140.0
166.281815 176.0
166.356247 212.0
166.474365 124.0
166.543701 160.0
166.610489 192.0
166.740814 196.0
166.759537 196.0
166.780106 332.0
166.898361 272.0
167.009613 212.0
167.142715 168.0
167.261108 224.0
167.338516 116.0
167.425888 228.0
167.660324 104.0
167.678375 188.0
167.771164 192.0
167.814987 100.0
167.861404 332.0
167.920715 180.0
168.057449 240.0
168.263931 148.0
168.328476 188.0
168.42662 96.0
168.444702 216.0
168.522202 104.0
168.553207 168.0
168.716049 96.0
168.749573 132.0
168.76683 360.0
168.811707 152.0
168.83757 180.0
168.878952 40.0
168.972076 104.0
169.003128 56.0
169.02124 116.0
169.065231 64.0
169.091949 164.0
169.137711 52.0
169.241257 140.0
169.277512 48.0
169.300812 220.0
169.624695 248.0
169.75174 156.0
169.793228 72.0
169.974823 100.0
170.052673 96.0
170.086426 132.0
170.143524 88.0
170.190262 144.0
170.457809 128.0
170.670959 132.0
170.702164 52.0
170.726746 124.0
170.806198 156.0
170.837418 184.0
170.898117 360.0
171.066422 184.0
171.090118 176.0
171.27623 180.0
171.311203 260.0
171.342468 128.0
171.402405 144.0
171.470154 204.0
171.668289 144.0
171.705917 224.0
171.83522 176.0
171.944824 208.0
171.986588 88.0
172.009109 152.0
172.076035 5220.0
172.174576 172.0
172.198074 188.0
172.32608 40.0
172.435837 104.0
172.509018 56.0
172.535172 136.0
172.560272 228.0
172.590073 200.0
172.637146 160.0
172.668518 60.0
172.694672 196.0
172.746994 92.0
172.791473 164.0
172.825485 60.0
172.92276 160.0
172.99559 36.0
173.016541 76.0
173.07962 156.0
173.14151 188.0
173.314697 172.0
173.419952 196.0
173.443542 224.0
173.493347 60.0
173.519562 132.0
173.608719 56.0
173.857941 136.0
173.920929 164.0
173.952423 60.0
173.986237 164.0
174.018066 116.0
174.057449 372.0
174.091888 12704.0
174.188766 144.0
174.262421 224.0
174.288071 136.0
174.396347 152.0
174.422638 44.0
174.488358 108.0
174.53569 44.0
174.609314 132.0
174.627731 180.0
174.656265 156.0
174.711899 104.0
174.748886 200.0
174.772415 140.0
174.869781 136.0
174.904007 72.0
174.927307 164.0
174.946121 60.0
175.006683 180.0
175.038269 144.0
175.093857 2196.0
175.114044 332.0
175.119492 376.0
175.23407 144.0
175.320145 112.0
175.349136 136.0
175.399216 100.0
175.482788 188.0
175.657639 144.0
175.734146 184.0
175.768341 96.0
175.790512 144.0
175.84761 108.0
175.929443 108.0
175.96376 184.0
176.056183 148.0
176.10585 3832.0
176.182968 108.0
176.307159 44.0
176.371582 96.0
176.435226 204.0
176.486908 172.0
176.513351 104.0
176.54245 200.0
176.560959 148.0
176.634949 160.0
176.73819 132.0
176.888321 116.0
176.943298 220.0
176.997604 148.0
177.057816 200.0
177.108276 588.0
177.159164 148.0
177.379105 172.0
177.40741 148.0
177.440079 136.0
177.509018 72.0
177.623062 172.0
177.686737 152.0
177.731842 108.0
177.787567 64.0
177.822067 172.0
177.875153 128.0
177.917633 44.0
177.972549 228.0
178.042435 172.0
178.07164 84.0
178.115494 128.0
178.193649 108.0
178.246979 176.0
178.436478 164.0
178.475586 128.0
178.613876 132.0
178.750473 152.0
178.787445 84.0
178.949127 156.0
178.999786 160.0
179.05571 180.0
179.098328 32.0
179.145248 188.0
179.231537 184.0
179.316803 116.0
179.370117 52.0
179.434097 172.0
179.474091 176.0
179.69014 344.0
179.750092 132.0
179.858261 196.0
179.89563 104.0
179.933014 156.0
179.975723 156.0
179.997086 180.0
180.055847 156.0
180.258881 80.0
180.334549 164.0
180.392517 144.0
180.598404 200.0
180.810104 164.0
180.879257 204.0
180.967712 428.0
180.999847 168.0
181.023941 168.0
181.066788 192.0
181.090897 176.0
181.120361 68.0
181.200729 208.0
181.369553 48.0
181.774536 48.0
182.032227 200.0
182.174591 176.0
182.221863 228.0
182.319672 32.0
182.384186 220.0
182.440628 44.0
182.533966 168.0
182.570358 228.0
182.60466 224.0
182.714951 128.0
182.792984 120.0
182.841415 184.0
182.897934 176.0
183.061096 160.0
183.16452 180.0
183.283066 128.0
183.328873 148.0
183.37738 124.0
183.417816 136.0
183.487671 144.0
183.576889 104.0
183.601151 120.0
183.730621 220.0
183.754913 160.0
183.79538 244.0
183.976212 44.0
184.05722 184.0
184.078812 172.0
184.116364 252.0
184.123489 228.0
184.232773 164.0
184.262482 144.0
184.286804 192.0
184.362473 108.0
184.400299 164.0
184.5625 60.0
184.667969 52.0
184.740372 172.0
184.807419 88.0
184.97374 152.0
185.025162 44.0
185.133484 152.0
185.290588 72.0
185.434204 208.0
185.5345 120.0
185.607697 92.0
185.722702 164.0
185.740601 204.0
185.83049 144.0
185.892532 96.0
185.919662 168.0
186.028244 168.0
186.170685 156.0
186.191147 140.0
186.291656 44.0
186.315491 180.0
186.321381 140.0
186.330185 172.0
186.354141 112.0
186.384033 144.0
186.441101 92.0
186.532852 148.0
186.672165 148.0
186.821762 140.0
186.895218 60.0
186.963257 112.0
187.08551 148.0
187.161972 192.0
187.197372 156.0
187.303589 164.0
187.456161 28.0
187.524017 160.0
187.633179 208.0
187.671509 164.0
187.728775 148.0
187.825592 148.0
187.916977 148.0
187.946991 148.0
188.03978 188.0
188.07048 3280.0
188.132584 56.0
188.195374 124.0
188.265503 212.0
188.329193 148.0
188.397491 144.0
188.422073 440.0
188.700851 52.0
188.774673 260.0
188.815063 276.0
188.886429 144.0
188.916901 128.0
188.938797 200.0
188.984894 160.0
189.029083 196.0
189.071472 260.0
189.10289 21292.0
189.205627 200.0
189.23056 112.0
189.271622 172.0
189.29187 172.0
189.330215 212.0
189.360336 60.0
189.392136 92.0
189.455154 72.0
189.476303 168.0
189.5186 176.0
189.549362 96.0
189.602295 284.0
189.643417 76.0
189.747253 144.0
189.808823 264.0
189.839951 156.0
189.933197 76.0
190.106064 2084.0
190.147217 40.0
190.183426 124.0
190.230576 204.0
190.265244 80.0
190.286148 196.0
190.339371 108.0
190.396133 120.0
190.402756 152.0
190.449234 72.0
190.46846 116.0
190.553864 44.0
190.64325 116.0
190.723999 144.0
190.781189 136.0
190.807434 80.0
190.835403 84.0
190.869705 368.0
190.892868 180.0
190.928177 76.0
190.998306 164.0
191.020981 212.0
191.047897 204.0
191.118668 62012.0
191.193451 88.0
191.218811 48.0
191.225571 40.0
191.256149 96.0
191.318497 172.0
191.356888 140.0
191.379837 196.0
191.405914 88.0
191.414291 168.0
191.439926 88.0
191.464127 232.0
191.496323 104.0
191.519211 176.0
191.539398 152.0
191.575714 148.0
191.597397 124.0
191.639099 172.0
191.663834 176.0
191.684509 204.0
191.709076 92.0
191.732666 84.0
191.765198 196.0
191.78923 52.0
191.814041 88.0
191.83609 84.0
191.887482 88.0
191.903885 136.0
191.950821 72.0
191.97258 80.0
191.998779 108.0
192.05304 136.0
192.121765 6668.0
192.183594 104.0
192.210358 72.0
192.283844 184.0
192.317383 52.0
192.338455 108.0
192.360229 68.0
192.379547 128.0
192.434769 76.0
192.45462 188.0
192.478943 108.0
192.498276 52.0
192.529785 136.0
192.694397 60.0
192.756973 204.0
192.785583 92.0
192.903046 152.0
193.053726 92.0
193.121613 680.0
193.149017 168.0
193.203705 160.0
193.263962 184.0
193.341446 56.0
193.377502 136.0
193.399567 76.0
193.418945 152.0
193.460464 80.0
193.504593 148.0
193.595383 88.0
193.66246 116.0
193.740173 88.0
193.900879 88.0
193.942459 116.0
193.992355 124.0
194.089386 116.0
194.129944 200.0
194.167038 116.0
194.269669 184.0
194.300186 164.0
194.345551 96.0
194.47583 48.0
194.56662 108.0
194.852676 108.0
195.055542 164.0
195.085281 132.0
195.102798 180.0
195.21402 192.0
195.414291 148.0
195.46907 112.0
195.536743 68.0
195.678711 108.0
195.714905 160.0
195.76503 164.0
195.792877 64.0
195.851364 136.0
196.040817 164.0
196.161331 164.0
196.18576 72.0
196.308441 192.0
196.595779 128.0
196.785583 120.0
196.911255 140.0
196.981079 156.0
197.042542 140.0
197.331757 200.0
197.425476 196.0
197.453445 188.0
197.512192 136.0
197.559738 108.0
197.638077 132.0
197.68248 152.0
197.940384 232.0
198.016006 88.0
198.133652 140.0
198.189682 136.0
198.256943 48.0
198.335419 160.0
198.365036 120.0
198.40831 32.0
198.433533 72.0
198.472794 92.0
198.526077 168.0
198.840286 112.0
198.991867 188.0
199.045212 164.0
199.085281 440.0
199.116074 120.0
199.160355 176.0
199.227783 68.0
199.354218 120.0
199.666275 40.0
199.718704 156.0
199.837875 136.0
199.964508 92.0
200.071198 168.0
200.170013 128.0
200.21788 224.0
200.268585 132.0
200.324921 140.0
200.840775 112.0
200.868973 160.0
200.931046 124.0
201.066483 124.0
201.102112 940.0
201.247147 44.0
201.320572 76.0
201.555038 112.0
201.651123 44.0
201.687866 124.0
201.764191 172.0
201.806595 148.0
201.970627 120.0
202.078125 144.0
202.102142 368.0
202.290375 32.0
202.760574 148.0
202.791748 224.0
202.868286 140.0
202.956177 140.0
203.036148 232.0
203.075272 300.0
203.117218 188.0
203.239822 180.0
203.293732 100.0
203.319275 144.0
203.44133 152.0
203.503784 88.0
203.583374 152.0
203.668503 116.0
203.763077 220.0
203.842331 172.0
203.870224 240.0
203.952637 192.0
204.094788 168.0
204.120377 168.0
204.410538 44.0
204.650986 164.0
204.743607 44.0
204.874634 132.0
204.928757 140.0
204.960114 104.0
205.07695 132.0
205.099747 136.0
205.148209 188.0
205.226456 164.0
205.287918 144.0
205.382034 152.0
205.63028 164.0
205.881897 88.0
206.01004 100.0
206.218643 176.0
206.461655 232.0
206.484528 188.0
206.523254 112.0
206.916626 128.0
206.991074 64.0
207.182556 140.0
207.627258 176.0
207.727646 116.0
207.789093 140.0
207.865372 64.0
207.937119 200.0
208.034439 132.0
208.117966 176.0
208.218475 100.0
208.267303 140.0
208.310394 136.0
208.347733 180.0
208.396576 168.0
208.425308 80.0
208.514389 188.0
208.606369 108.0
208.695496 168.0
208.776016 116.0
208.827789 152.0
208.908325 140.0
208.976196 156.0
209.034225 180.0
209.152924 172.0
209.414948 212.0
209.615479 164.0
209.671356 124.0
209.796188 156.0
210.066238 92.0
210.147156 112.0
210.210648 120.0
210.244797 240.0
210.274139 188.0
210.542542 120.0
210.585953 60.0
210.78241 136.0
210.846497 268.0
210.911911 168.0
210.955811 184.0
211.068573 176.0
211.239212 172.0
211.287598 132.0
211.320221 148.0
211.467804 124.0
211.615433 172.0
211.757339 152.0
211.794983 148.0
211.880936 60.0
211.951431 164.0
211.97171 164.0
212.02388 160.0
212.183304 172.0
212.316696 60.0
212.345688 192.0
212.479126 68.0
212.5952 180.0
212.717102 136.0
212.783875 52.0
212.887115 132.0
212.946487 168.0
212.978439 228.0
213.289352 56.0
213.324234 76.0
213.350388 380.0
213.673218 108.0
213.725586 80.0
213.793015 164.0
213.967163 88.0
214.086548 104.0
214.124405 160.0
214.205963 128.0
214.310837 128.0
214.383698 28.0
214.549835 68.0
214.590652 176.0
214.613983 140.0
214.644821 116.0
214.695633 36.0
214.718964 144.0
214.742294 144.0
214.7948 80.0
214.905655 180.0
214.943588 200.0
215.031128 180.0
215.092514 148.0
215.162491 156.0
215.197525 164.0
215.293884 120.0
215.322708 208.0
215.363052 144.0
215.44577 88.0
215.474991 184.0
215.516235 136.0
215.89299 100.0
215.958664 148.0
216.011093 236.0
216.11412 872.0
216.202713 136.0
216.244064 164.0
216.264557 124.0
216.309357 108.0
216.328949 108.0
216.358231 48.0
216.390427 208.0
216.416779 68.0
216.449066 148.0
216.469482 232.0
216.501709 208.0
216.573593 124.0
216.599274 184.0
216.636444 156.0
216.670105 124.0
216.716263 196.0
216.756561 164.0
216.777069 180.0
216.8181 84.0
216.838623 276.0
216.901703 180.0
216.947479 172.0
216.984177 128.0
217.014252 296.0
217.050858 364.0
217.098236 118492.0
217.168762 240.0
217.211578 68.0
217.264282 48.0
217.294464 124.0
217.321823 160.0
217.346817 204.0
217.372238 180.0
217.418427 112.0
217.453903 332.0
217.491226 168.0
217.52417 76.0
217.548859 232.0
217.580917 1256.0
217.629959 204.0
217.65976 164.0
217.700363 136.0
217.7435 132.0
217.797302 64.0
217.853882 140.0
217.884674 216.0
217.920197 28.0
217.951035 220.0
217.980377 152.0
218.004868 248.0
218.059006 188.0
218.100708 19552.0
218.149612 132.0
218.194794 152.0
218.223114 88.0
218.257614 68.0
218.288879 80.0
218.309464 60.0
218.330048 104.0
218.365112 200.0
218.408585 148.0
218.428116 180.0
218.454987 104.0
218.483002 68.0
218.562775 72.0
218.652435 132.0
218.718872 104.0
218.737717 56.0
218.805374 196.0
218.862671 96.0
218.89006 160.0
218.919388 136.0
218.946533 84.0
219.020157 120.0
219.060471 508.0
219.111069 6800.0
219.162384 128.0
219.204376 60.0
219.242981 184.0
219.295731 84.0
219.374222 96.0
219.41954 104.0
219.464081 104.0
219.48735 124.0
219.532104 116.0
219.557602 68.0
219.579529 104.0
219.609146 108.0
219.64328 152.0
219.683197 60.0
219.718063 184.0
219.751648 152.0
219.773544 128.0
219.806961 120.0
219.835648 56.0
219.863358 84.0
219.904877 120.0
219.958694 116.0
219.991867 124.0
220.021393 180.0
220.053879 36.0
220.080444 76.0
220.115311 1652.0
220.210388 40.0
220.25174 40.0
220.272415 40.0
220.339951 204.0
220.478058 140.0
220.510269 120.0
220.567902 96.0
220.611755 48.0
220.712769 116.0
220.795578 76.0
220.872467 116.0
220.943466 188.0
221.023361 184.0
221.11673 312.0
221.144699 52.0
221.192047 148.0
221.224609 176.0
221.260529 216.0
221.30455 48.0
221.343048 40.0
221.393387 188.0
221.425964 100.0
221.514816 56.0
221.547409 48.0
221.615555 176.0
221.710373 112.0
221.796326 48.0
221.897125 32.0
221.947525 136.0
222.078018 168.0
222.172943 52.0
222.377686 288.0
222.431122 52.0
222.454865 56.0
222.484543 56.0
222.564713 80.0
222.585495 92.0
222.609253 148.0
222.805298 180.0
222.891449 64.0
222.950897 220.0
223.037079 100.0
223.206543 148.0
223.310638 48.0
223.480194 188.0
223.590302 188.0
223.780807 164.0
224.045883 236.0
224.209763 80.0
224.27832 188.0
224.311096 168.0
224.448242 64.0
224.573502 96.0
224.689835 52.0
224.734589 56.0
224.839035 96.0
225.176407 44.0
225.206604 72.0
225.263031 152.0
225.331741 76.0
225.373566 156.0
225.409424 116.0
225.490112 196.0
225.615662 132.0
225.765167 60.0
226.012558 188.0
226.046356 44.0
226.073303 100.0
226.261871 188.0
226.369659 180.0
226.531403 216.0
226.624268 112.0
226.768112 92.0
226.78981 164.0
226.858566 160.0
227.355942 188.0
227.530045 60.0
227.551056 76.0
227.587097 188.0
227.704208 124.0
227.923508 140.0
227.944534 160.0
228.034698 284.0
228.13089 40.0
228.473724 60.0
228.560974 172.0
228.762619 120.0
228.97641 156.0
229.313858 204.0
229.357971 100.0
229.449509 120.0
229.476639 68.0
229.54599 172.0
229.615356 132.0
229.814453 52.0
229.841599 92.0
229.94722 232.0
230.173645 88.0
230.771912 104.0
231.059235 184.0
231.183304 124.0
231.383072 236.0
231.413345 116.0
231.458771 160.0
231.500153 168.0
231.640488 48.0
231.916229 224.0
232.070847 44.0
232.134521 104.0
232.264938 56.0
232.381348 236.0
232.598709 200.0
232.66246 116.0
232.717117 168.0
232.926666 96.0
232.95401 260.0
233.020844 96.0
233.085999 216.0
233.154541 136.0
233.1819 56.0
233.221405 164.0
233.317444 164.0
233.339966 136.0
233.373413 200.0
233.440689 96.0
233.476807 108.0
233.535522 208.0
233.567032 360.0
233.636551 108.0
233.71048 132.0
233.750046 124.0
233.826126 112.0
233.843857 260.0
233.87233 120.0
233.902771 44.0
233.939301 136.0
233.979202 184.0
234.004715 172.0
234.035248 328.0
234.067383 400.0
234.124634 86980.0
234.20726 84.0
234.249374 184.0
234.2789 68.0
234.297699 184.0
234.33847 56.0
234.362625 184.0
234.402252 44.0
234.425232 172.0
234.446579 80.0
234.470963 176.0
234.516373 196.0
234.541656 140.0
234.579025 60.0
234.630173 52.0
234.678192 244.0
234.701141 136.0
234.72673 260.0
234.767899 160.0
234.800552 128.0
234.825165 132.0
234.86174 192.0
234.882004 100.0
234.917511 52.0
234.951065 164.0
234.978394 368.0
235.015717 64.0
235.04982 120.0
235.072617 172.0
235.110245 19452.0
235.204178 68.0
235.213516 64.0
235.244034 72.0
235.276138 116.0
235.297256 132.0
235.38797 112.0
235.418411 72.0
235.465591 220.0
235.489746 128.0
235.536392 108.0
235.595566 72.0
235.622726 76.0
235.707352 156.0
235.771835 40.0
235.795593 140.0
235.853195 172.0
235.896393 124.0
235.961975 108.0
236.068985 140.0
236.114883 2628.0
236.194382 284.0
236.258621 112.0
236.317139 64.0
236.353699 56.0
236.364182 72.0
236.373505 88.0
236.413284 132.0
236.445282 52.0
236.481842 144.0
236.511673 148.0
236.522537 116.0
236.555466 36.0
236.593735 124.0
236.684052 92.0
236.717957 192.0
236.734894 80.0
236.750107 240.0
236.797363 72.0
236.852493 124.0
236.889252 88.0
236.930588 188.0
236.968918 64.0
236.999557 56.0
237.054703 92.0
237.109451 644.0
237.211014 52.0
237.363297 96.0
237.407242 64.0
237.471649 96.0
237.572876 52.0
237.597427 48.0
237.618896 80.0
237.646515 128.0
237.667984 80.0
237.772324 60.0
237.813217 84.0
237.84906 148.0
237.873611 100.0
237.93808 72.0
237.973007 128.0
238.054764 76.0
238.285141 84.0
238.337372 88.0
238.475662 112.0
238.555588 76.0
238.644745 64.0
238.683411 160.0
238.823105 84.0
238.864197 72.0
238.921539 112.0
239.100006 92.0
239.223129 100.0
239.315491 152.0
239.46022 100.0
239.515671 60.0
239.712845 104.0
239.737503 52.0
239.807648 116.0
239.934769 40.0
240.016739 232.0
240.06427 116.0
240.129044 156.0
240.252426 68.0
240.879089 100.0
240.990311 124.0
241.590103 96.0
241.681717 232.0
241.707672 180.0
241.744812 124.0
242.08223 160.0
242.147263 32.0
242.184433 160.0
242.237091 120.0
242.435394 116.0
242.478043 152.0
242.509781 120.0
242.7733 60.0
242.897369 100.0
242.99353 92.0
243.036972 92.0
243.074203 112.0
243.126968 140.0
243.415665 124.0
243.866135 280.0
244.102417 128.0
244.369919 124.0
244.485046 112.0
244.665588 136.0
244.783905 112.0
244.896027 116.0
244.924057 136.0
245.127518 236.0
245.224976 152.0
245.453873 172.0
245.519363 52.0
245.633926 120.0
245.674301 160.0
245.700272 120.0
245.769394 184.0
245.806458 124.0
245.868149 180.0
245.878342 124.0
245.888565 188.0
245.962402 212.0
246.002991 172.0
246.026062 244.0
246.059189 224.0
246.12442 48164.0
246.228424 92.0
246.255676 48.0
246.284027 64.0
246.318832 92.0
246.387924 136.0
246.433975 112.0
246.487656 112.0
246.515213 144.0
246.546463 44.0
246.598389 144.0
246.631897 72.0
246.682663 72.0
246.713623 84.0
246.771057 112.0
246.786957 60.0
246.793427 48.0
246.846573 92.0
246.894501 136.0
246.996124 176.0
247.037369 28.0
247.126328 7616.0
247.214355 92.0
247.250916 64.0
247.275177 52.0
247.358536 76.0
247.365799 88.0
247.49118 60.0
247.531876 84.0
247.556931 92.0
247.581985 72.0
247.649643 80.0
247.826126 64.0
247.895264 48.0
247.961075 68.0
247.983017 100.0
248.011215 60.0
248.033157 68.0
248.131775 792.0
248.180511 56.0
248.291367 80.0
248.389404 132.0
248.447098 64.0
248.506714 76.0
248.528671 180.0
248.560059 84.0
248.589508 156.0
248.622818 116.0
248.685196 96.0
248.740372 88.0
248.747421 40.0
248.759262 76.0
248.816605 244.0
248.885056 96.0
248.906677 160.0
248.946167 88.0
248.968155 124.0
249.008972 76.0
249.03096 104.0
249.082153 188.0
249.122986 176.0
249.181747 116.0
249.247726 108.0
249.304291 36.0
249.404861 104.0
249.456345 64.0
249.716141 72.0
249.910797 132.0
249.961533 88.0
250.770905 68.0
251.467941 52.0
251.97319 88.0
252.033218 156.0
252.387238 116.0
252.558014 76.0
252.760483 120.0
252.877579 116.0
253.023193 112.0
253.485641 112.0
254.072205 104.0
254.322906 72.0
254.411789 124.0
254.707108 136.0
254.79924 104.0
254.843719 120.0
254.872314 100.0
254.91362 68.0
255.031219 104.0
255.221954 72.0
255.26329 72.0
255.524124 164.0
256.119415 176.0
256.450806 72.0
256.632507 80.0
257.024841 144.0
258.289978 36.0
258.798828 88.0
258.840454 36.0
259.138336 84.0
259.519745 168.0
259.58252 196.0
260.102203 144.0
260.137024 596.0
260.167358 216.0
260.26416 112.0
260.32196 72.0
260.768524 96.0
261.141357 564.0
261.17688 88.0
261.575867 112.0
261.846344 60.0
262.150543 168.0
263.045807 148.0
263.100677 88.0
264.180084 236.0
264.273895 88.0
265.200073 76.0
265.469177 132.0
266.270782 68.0
266.335724 48.0
267.320831 168.0
268.480591 156.0
269.352051 148.0
270.128326 188.0
270.542358 160.0
271.099182 180.0
271.420441 140.0
272.05365 160.0
272.109467 172.0
273.072296 200.0
273.440796 132.0
273.730499 40.0
274.145569 76.0
275.148285 76.0
275.782532 64.0
276.295105 88.0
276.824677 144.0
277.021362 156.0
277.557007 136.0
277.872101 216.0
278.466309 112.0
278.556 96.0
278.735413 156.0
280.046173 124.0
280.886139 180.0
281.056305 100.0
282.06488 248.0
283.259491 76.0
284.067383 152.0
284.245209 60.0
284.282104 60.0
284.849518 156.0
284.943604 48.0
285.252777 84.0
285.320007 28.0
285.595764 168.0
285.938934 48.0
285.969238 32.0
286.053375 128.0
286.174591 64.0
286.322754 48.0
286.572021 88.0
286.636353 268.0
286.804565 76.0
286.868591 76.0
287.01358 76.0
287.202423 236.0
287.384613 68.0
287.647827 64.0
287.716522 184.0
287.743927 120.0
287.833527 96.0
287.947296 76.0
288.030914 100.0
288.082031 140.0
288.13562 34088.0
288.21524 60.0
288.246643 108.0
288.281311 252.0
288.320953 200.0
288.385986 76.0
288.411255 64.0
288.473724 96.0
288.532928 116.0
288.559998 96.0
288.591919 108.0
288.690552 84.0
288.720947 72.0
288.789948 48.0
288.813599 92.0
288.85083 168.0
288.88266 108.0
289.043671 128.0
289.067352 56.0
289.137207 6380.0
289.219666 56.0
289.246735 68.0
289.375671 44.0
289.434753 56.0
289.514221 68.0
289.592102 52.0
289.619202 68.0
289.819092 72.0
289.886322 76.0
289.978363 96.0
290.039368 44.0
290.080048 108.0
290.14212 792.0
290.256348 96.0
290.490356 80.0
290.527679 44.0
290.558197 36.0
290.690552 48.0
290.721069 96.0
290.770966 144.0
290.863617 36.0
290.888702 124.0
290.955292 48.0
291.080902 96.0
291.148376 116.0
291.186188 168.0
291.230347 72.0
291.392426 84.0
291.896454 136.0
292.073303 88.0
292.233215 56.0
292.344208 84.0
292.42038 44.0
292.81189 72.0
294.418243 92.0
295.549713 104.0
295.806396 52.0
296.237885 64.0
296.556549 92.0
296.793091 132.0
296.988586 128.0
297.482697 72.0
298.076874 184.0
298.55127 44.0
299.983612 48.0
300.266357 56.0
300.576843 76.0
301.975983 104.0
302.574646 64.0
303.711273 120.0
304.884796 76.0
305.023804 56.0
305.375 112.0
306.154602 92.0
306.454163 84.0
307.315369 40.0
307.388641 116.0
308.876984 124.0
309.576996 92.0
312.810669 68.0
312.955017 84.0
313.145172 88.0
315.891327 80.0
316.666534 84.0
318.731201 72.0
319.136414 100.0
320.481842 64.0
320.602997 68.0
323.224152 144.0
325.640411 68.0
325.985291 100.0
326.956268 128.0
328.08371 132.0
328.11615 64.0
332.85968 56.0
334.346527 44.0
334.848938 64.0
336.248962 148.0
336.946411 160.0
339.090729 92.0
339.339996 80.0
339.9599 52.0
341.16098 84.0
342.084351 120.0
342.854156 84.0
343.473572 64.0
343.816681 60.0
345.568237 108.0
345.690338 136.0
346.323425 76.0
348.935913 64.0
351.491028 108.0
352.140625 116.0
356.742035 80.0
358.367889 80.0
358.398041 100.0
359.212372 124.0
359.65387 64.0
361.513336 68.0
362.57373 124.0
363.017273 48.0
364.740967 60.0
365.197235 116.0
366.042114 128.0
368.139465 64.0
372.77475 68.0
372.920807 152.0
373.293701 100.0
375.396301 96.0
377.659454 84.0
378.027008 40.0
379.49118 116.0
381.199097 116.0
381.385651 56.0
383.678497 52.0
386.338013 36.0
386.878082 40.0
386.972046 108.0
391.023163 96.0
391.205078 112.0
392.218781 116.0
393.210541 84.0
393.704041 68.0
396.013733 68.0
396.069183 72.0
399.304016 100.0
400.589691 80.0
402.132812 84.0
402.308441 100.0
403.7229 32.0
406.896423 100.0
408.158051 84.0
408.966675 72.0
409.167938 80.0
409.228546 376.0
410.222046 512.0
414.045807 68.0
416.670258 64.0
416.897797 84.0
417.044098 64.0
418.121918 56.0
418.720398 56.0
419.131836 88.0
421.06958 84.0
427.683044 72.0
429.343445 84.0
431.680847 68.0
441.972137 72.0
442.507874 60.0
442.767487 56.0
443.234772 44.0
445.364594 72.0
446.994904 56.0
447.150604 116.0
448.26239 56.0
452.998688 112.0
456.704376 60.0
464.547089 48.0
469.95932 124.0
471.45343 104.0
471.544159 72.0
477.675262 112.0
479.469147 92.0
481.576447 72.0
481.900879 76.0
483.767181 68.0
484.042999 96.0
485.414551 76.0
488.942169 104.0
494.516449 48.0
495.247009 44.0
499.770721 52.0
505.943298 56.0
516.025635 48.0
517.34668 64.0
522.315674 108.0
525.422485 44.0
526.609375 96.0
527.340393 124.0
529.119812 116.0
534.779846 88.0
534.93634 36.0
547.661133 72.0
551.047913 44.0
557.349854 72.0
557.970276 140.0
560.66272 148.0
568.854858 40.0
571.977966 64.0
579.988403 88.0
582.718994 120.0
587.600952 68.0
593.417297 112.0
594.918457 108.0
595.671143 80.0
597.669312 40.0
598.905823 44.0
606.582336 68.0
616.425781 48.0
619.701416 152.0
626.079529 92.0
632.415161 112.0
636.234924 104.0
636.676758 84.0
638.435669 72.0
645.232788 80.0
651.989563 20.0
662.674866 80.0
664.00769 64.0
664.346191 88.0
667.587219 52.0
682.032654 48.0
683.332764 52.0
686.770935 84.0
690.181091 88.0
700.335938 84.0
701.521545 96.0
705.655273 92.0
708.089417 92.0
716.247742 104.0
719.159058 120.0
748.427917 48.0
749.217651 56.0
756.458923 60.0
761.443054 56.0
778.752563 96.0
781.971802 40.0
788.167419 60.0
788.782227 48.0
788.933105 44.0
794.337036 60.0
801.319336 92.0
803.834106 132.0
811.611816 88.0
811.99176 60.0
814.551575 152.0
818.100037 80.0
822.358032 84.0
823.020264 152.0
825.197144 48.0
833.031372 96.0
834.404846 104.0
849.738831 48.0
853.572327 208.0
861.265198 100.0
862.375366 48.0
870.847595 244.0
880.02832 104.0
880.41217 84.0
882.131531 80.0
885.427246 164.0
889.32251 148.0
893.012207 64.0
898.12262 168.0
914.606384 124.0
920.478455 64.0
924.595215 216.0
925.412415 68.0
927.363037 88.0
936.464661 80.0
944.172974 116.0
946.253418 172.0
954.665894 64.0
959.733704 72.0
963.022888 240.0
967.332703 84.0
969.643005 168.0
973.601135 196.0
974.085632 136.0
985.49884 156.0
986.211304 144.0
989.389038 188.0
990.459839 120.0
994.761475 84.0
995.483459 52.0
999.7771 200.0
1002.09436 236.0
1007.823364 88.0
1011.371094 224.0
1013.13147 168.0
1020.754211 92.0
1022.47821 84.0
1024.076172 148.0
1025.318604 128.0
1025.579956 232.0
1027.754517 112.0
1029.152344 56.0
1030.104004 188.0
1033.441162 156.0
1036.271118 188.0
1037.296509 160.0
1045.427612 136.0
1048.621948 52.0
1057.211426 176.0
1057.437988 68.0
1057.586792 256.0
1060.443115 112.0
1065.524048 68.0
1066.641846 136.0
1070.96228 124.0
1071.07312 48.0
1078.348145 136.0
1080.630371 32.0
1082.93689 196.0
1084.651245 116.0
1093.367065 152.0
1093.71582 128.0
1103.419678 152.0
1109.371338 108.0
1117.427002 44.0
1122.429077 136.0
1123.863159 96.0
1124.657349 132.0
1127.03479 36.0
1127.29541 152.0
1129.668945 80.0
1130.036865 184.0
1131.147705 152.0
1131.763672 52.0
1132.821899 208.0
1133.233643 168.0
1138.254395 176.0
1140.027832 164.0
1143.154785 192.0
1148.106201 132.0
1150.400269 204.0
1151.007935 116.0
1154.447388 128.0
1154.542114 176.0
1156.490601 108.0
1157.302979 176.0
1158.041138 152.0
1159.050415 64.0
1161.518188 140.0
1161.850586 152.0
1163.065308 156.0
1164.470825 48.0
1168.848755 140.0
1169.134521 124.0
1169.999023 132.0
1170.80249 92.0
1173.425903 164.0
1177.574707 168.0
1178.394531 144.0
1179.672485 124.0
1180.780151 168.0
1181.388916 160.0
1184.256958 188.0
1186.874878 160.0
1192.930176 112.0
1196.011841 220.0
1202.518433 144.0
1204.907593 180.0
1205.163208 144.0
1205.239258 244.0
1209.651611 152.0
1210.572388 136.0
1210.877197 212.0
1211.251221 196.0
1212.553711 172.0
1215.313721 200.0
1215.431641 208.0
1217.430786 160.0
1218.896606 196.0
1220.098999 204.0
1224.817017 32.0
1225.179321 176.0
1226.147827 40.0
1226.559082 36.0
1228.685913 148.0
1230.542358 224.0
1236.869019 196.0
1236.938965 168.0
1237.093018 188.0
1237.528198 132.0
1238.269409 72.0
1239.208008 28.0
1242.418945 144.0
1242.931152 168.0
1243.092529 120.0
1243.506592 148.0
1243.766357 180.0
1244.103271 152.0
1245.50061 184.0
1245.809692 232.0
1246.976196 140.0
1247.4823 164.0
1247.573608 132.0
1249.043335 188.0
1249.964966 152.0
1251.485352 100.0
1252.872803 180.0
1253.281372 200.0
1254.803833 204.0
1257.639648 40.0
1258.931641 228.0
1262.500366 132.0
1264.785645 96.0
1265.755493 156.0
1266.555786 200.0
1267.192139 116.0
1267.462646 88.0
1272.228638 184.0
1277.501587 100.0
1277.729248 148.0
1278.967529 200.0
1279.309204 124.0
1280.626465 184.0
1281.053833 112.0
1281.766357 164.0
1283.027832 116.0
1283.077759 224.0
1287.723145 168.0
1287.794556 156.0
1288.094482 72.0
1290.538574 116.0
1295.089966 132.0
1295.68457 132.0
1296.795288 72.0
1297.175171 164.0
1297.992432 132.0
1298.960693 188.0
1299.254761 60.0
1299.692383 140.0
1300.704346 72.0
1301.149414 156.0
1302.054199 156.0
1302.104492 228.0
1302.248047 88.0
1304.259888 140.0
1304.453979 132.0
1305.856079 192.0
1306.749634 184.0
1307.654785 164.0
1308.043457 132.0
1308.223022 192.0
1308.763428 160.0
1309.24585 168.0
1310.672119 136.0
1311.983887 136.0
1313.46936 160.0
1313.548706 164.0
1314.890747 196.0
1315.756958 140.0
1316.565674 56.0
1317.042358 152.0
1318.429443 124.0
1318.610229 148.0
1318.986084 184.0
1319.065552 220.0
1319.289673 144.0
1320.092163 68.0
1320.395874 160.0
1322.110474 192.0
1322.231445 208.0
1322.479614 160.0
1322.667847 132.0
1323.362793 172.0
1324.202759 108.0
1325.4198 244.0
1326.079346 156.0
1326.970947 212.0
1329.096069 160.0
1330.641968 120.0
1331.244629 136.0
1333.184326 176.0
1333.255859 176.0
1333.409546 224.0
1335.699951 40.0
1336.762085 188.0
1337.999512 144.0
1338.676636 68.0
1338.97522 212.0
1341.926392 216.0
1342.357544 148.0
1343.38501 100.0
1343.625732 212.0
1345.180054 148.0
1346.582031 244.0
1348.22583 132.0
1348.459717 100.0
1352.21167 156.0
1352.343384 204.0
1353.185181 152.0
1353.317017 156.0
1353.382935 84.0
1354.246948 120.0
1354.679199 140.0
1355.221313 120.0
1355.350464 212.0
1355.653687 140.0
1356.865234 200.0
1357.62561 180.0
1358.417725 136.0
1360.101562 188.0
1360.457764 176.0
1360.98645 88.0
1361.081909 124.0
1361.875 112.0
1362.315674 204.0
1364.064697 156.0
1365.395508 200.0
1366.756348 176.0
1367.315674 44.0
1367.838257 68.0
1369.259277 136.0
1371.882324 124.0
1372.258301 180.0
1372.317383 176.0
1372.796631 180.0
1374.574341 52.0
1375.039307 152.0
1375.216431 136.0
1375.902954 120.0
1376.006348 92.0
1376.294189 188.0
1377.040039 140.0
1377.778809 124.0
1378.465942 144.0
1378.746704 144.0
1380.469238 220.0
1382.266724 116.0
1382.48877 264.0
1382.710693 184.0
1382.910522 64.0
1384.072876 128.0
1384.383789 112.0
1385.228149 112.0
1385.287476 164.0
1385.946777 176.0
1386.01355 56.0
1386.658203 176.0
1386.799072 48.0
1386.991699 92.0
1387.110352 200.0
1387.44397 200.0
1387.532837 168.0
1387.807251 184.0
1388.563599 176.0
1389.698608 148.0
1390.529663 176.0
1391.888184 140.0
1392.259521 140.0
1396.518066 160.0
1396.659302 172.0
1396.860229 164.0
1397.157715 164.0
1397.217285 172.0
1397.470215 60.0
1398.095337 132.0
1398.817261 172.0
1398.936401 208.0
1401.289673 220.0
1401.98645 20.0
1403.652466 176.0
1403.950806 188.0
1404.00293 56.0
1404.070068 128.0
1404.420654 140.0
1405.126831 144.0
1405.382935 176.0
1406.248657 216.0
1406.644165 68.0
1407.077148 152.0
1407.36084 88.0
1408.189819 160.0
1408.690308 192.0
1410.55188 144.0
1411.373291 148.0
1411.649902 144.0
1412.876587 76.0
1412.966309 80.0
1413.886719 164.0
1414.717529 68.0
1415.383911 168.0
1415.750854 108.0
1416.290039 96.0
1416.447388 140.0
1417.278931 152.0
1418.905396 168.0
1420.247681 56.0
1421.140381 140.0
1422.228516 120.0
1422.618774 156.0
1422.866577 164.0
1424.11377 212.0
1425.052124 136.0
1425.841064 192.0
1426.946045 140.0
1429.104614 68.0
1429.398071 96.0
1430.677612 52.0
1430.865845 48.0
1431.505859 188.0
1431.897461 88.0
1432.078125 148.0
1432.334229 36.0
1433.034912 176.0
1433.230835 196.0
1433.396606 168.0
1434.097412 132.0
1434.338623 64.0
1434.542114 84.0
1435.039673 224.0
1436.133179 96.0
1436.366943 204.0
1436.706421 132.0
1437.204346 136.0
1437.551514 188.0
1437.755249 208.0
1437.883545 128.0
1438.525146 140.0
1438.585571 208.0
1438.729004 160.0
1438.842163 92.0
1440.526245 160.0
1443.647705 220.0
1444.214844 176.0
1444.623413 104.0
1444.789795 220.0
1445.894531 212.0
1446.712036 72.0
1449.044556 124.0
1449.961426 192.0
1450.181274 120.0
1451.075806 140.0
1453.305664 124.0
1454.276978 124.0
1454.633667 160.0
1455.22583 164.0
1457.565308 120.0
1458.340454 108.0
1459.389526 208.0
1459.634033 124.0
1460.33252 128.0
1460.393311 104.0
1460.54541 132.0
1461.298584 124.0
1461.861572 160.0
1462.4552 108.0
1463.444824 76.0
1466.065186 144.0
1466.202393 140.0
1466.613892 164.0
1466.995117 204.0
1467.589722 128.0
1467.955688 220.0
1468.893799 208.0
1469.282837 196.0
1469.733032 140.0
1470.236694 48.0
1472.252075 116.0
1472.565186 104.0
1472.633911 140.0
1473.008179 184.0
1473.237427 104.0
1474.207764 72.0
1474.628052 44.0
1475.078979 148.0
1476.401733 128.0
1478.031128 164.0
1478.214722 168.0
1478.367798 148.0
1478.67395 228.0
1479.46228 108.0
1480.465332 32.0
1481.284912 156.0
1481.43811 36.0
1481.584595 232.0
1481.759888 260.0
1482.32605 156.0
1482.824951 120.0
1483.491821 128.0
1483.675781 64.0
1484.220093 128.0
1485.186401 204.0
1487.235107 148.0
1488.378906 100.0
1489.853638 108.0
1490.560425 116.0
1493.366455 176.0
1493.786255 164.0
1493.943359 252.0
1494.066406 120.0
1494.551147 180.0
1494.651123 212.0
1495.697144 216.0
1496.244385 144.0
1496.752563 132.0
1497.268433 180.0
1497.907715 128.0
1497.977051 144.0
1498.855347 200.0
1499.895752 196.0
1499.988281 156.0
1500.581909 156.0
1500.774658 164.0
1501.67688 228.0
1501.985352 104.0
1502.378784 200.0
1502.679688 188.0
1503.042358 164.0
1503.343262 128.0
1503.443604 132.0
1503.513062 136.0
1504.122803 80.0
