>compound MLS001074194-01!53-86-1
>formula C19H16ClNO4
>ionization [M+H]+
>parentmass 358.084
#inchi InChI=1S/C19H16ClNO4/c1-11-15(10-18(22)23)16-9-14(25-2)7-8-17(16)21(11)19(24)12-3-5-13(20)6-4-12/h3-9H,10H2,1-2H3,(H,22,23)
#inchikey CGIGDMFJXJATDK
#Ion_Source LC-ESI
#Instrument qTof
#Compound_Source NIH Pharmacologically Active Library
#PI Dorrestein
#Data_Collector VP/LMS
#Scan -1
#Precursor_MZ 358.084
#ExactMass 357.077
#Charge 1
#CAS_Number N/A
#Pubmed_ID N/A
#Smiles COc1ccc2n(C(=O)c3ccc(Cl)cc3)c(C)c(CC(=O)O)c2c1
#INCHI_AUX N/A
#Library_Class 1
#SpectrumID CCMSLIB00000084962
#IonMode Positive
#UpdateWorkflowName UPDATE-SINGLE-ANNOTATED-GOLD
#LibraryQualityString Gold
#TaskID d252d724072548979f1f6f1ced849daf
##Scan# 2301
#SpectrumFile p3-D03_GD3_01_18260.mzXML
#LibraryName Pharm_Active_Library.mgf
#MQScore -1
#Organism Pharm_Active_Library
#TIC_Query 0
#RT_Query -1
#MZErrorPPM -1
#SharedPeaks 0
#MassDiff 0
#LibMZ -1
#SpecMZ 358.084
#SpecCharge 0
#internalFilename spec-00000.mgf

>collision 10
45.119095 176.0
45.247536 148.0
46.741802 188.0
47.049847 176.0
47.315083 172.0
47.491863 200.0
47.671722 176.0
47.762466 132.0
48.591377 188.0
49.054497 164.0
49.332306 200.0
49.577259 96.0
49.828438 196.0
49.86919 156.0
50.202869 268.0
50.262119 220.0
50.331287 80.0
50.387585 168.0
50.598522 168.0
51.364529 208.0
51.900856 160.0
52.205292 180.0
52.314648 148.0
52.37513 236.0
52.835644 140.0
53.179085 104.0
54.198502 112.0
54.823051 172.0
55.042858 192.0
55.100464 372.0
55.24535 188.0
55.417091 100.0
55.675209 124.0
55.816387 40.0
55.969654 232.0
56.387367 104.0
56.730152 176.0
56.803635 160.0
56.948154 216.0
56.965763 224.0
57.093525 128.0
57.497295 232.0
57.743565 204.0
58.034325 188.0
58.131409 164.0
58.295418 88.0
58.6348 164.0
59.236832 72.0
59.857342 84.0
60.074665 136.0
60.451672 200.0
60.525978 176.0
60.550755 204.0
61.016285 196.0
61.150066 176.0
61.943298 188.0
61.966797 152.0
62.11887 196.0
62.129852 92.0
62.187916 96.0
62.683319 384.0
62.957817 60.0
63.427738 168.0
63.687969 152.0
63.7547 196.0
63.811928 240.0
63.8326 232.0
63.896221 160.0
64.304169 80.0
64.626984 200.0
64.662186 48.0
64.78228 200.0
64.811119 96.0
65.46653 140.0
65.908051 212.0
65.945709 204.0
66.219147 116.0
66.246681 48.0
66.337433 136.0
66.501266 192.0
66.836052 184.0
67.098289 184.0
67.333267 172.0
67.5065 140.0
68.14579 160.0
68.702278 144.0
68.872307 200.0
69.216309 176.0
69.249428 144.0
69.423454 216.0
69.4981 112.0
70.148392 296.0
70.220093 100.0
71.068253 176.0
71.336975 152.0
71.407593 164.0
71.503494 112.0
71.591042 88.0
72.10054 212.0
72.218895 216.0
72.505028 172.0
72.93615 128.0
73.029663 188.0
73.68428 128.0
73.802101 184.0
74.110313 224.0
74.740486 176.0
74.792114 168.0
75.293854 76.0
76.378891 228.0
76.404984 160.0
76.545975 168.0
76.559906 112.0
76.73764 156.0
77.071022 188.0
77.448914 188.0
77.624176 200.0
77.687317 144.0
78.276123 44.0
78.549309 68.0
79.160843 164.0
79.966858 200.0
80.225151 136.0
81.135132 44.0
81.267853 48.0
81.852036 176.0
81.954712 156.0
82.124176 212.0
82.349792 132.0
82.369659 124.0
82.387726 168.0
82.508812 216.0
83.293503 160.0
83.606239 172.0
83.700897 236.0
83.852104 148.0
84.282791 140.0
84.531479 188.0
84.568085 136.0
84.712738 44.0
85.11808 160.0
86.356537 248.0
86.419441 156.0
86.72686 160.0
86.93087 204.0
86.998375 384.0
87.144409 216.0
87.999329 216.0
88.541626 144.0
89.333733 156.0
89.386414 172.0
89.591644 220.0
90.401672 156.0
90.458122 184.0
90.498215 96.0
90.674385 200.0
91.097527 120.0
91.226753 188.0
92.172104 36.0
92.522125 208.0
92.581482 172.0
93.032082 92.0
93.156906 140.0
93.266441 160.0
93.435669 80.0
94.723328 168.0
94.862854 160.0
94.953987 44.0
95.629234 176.0
95.820969 228.0
95.91256 120.0
96.224693 188.0
96.312569 48.0
96.377045 196.0
96.981758 144.0
97.496262 112.0
98.528503 196.0
98.751884 116.0
98.8508 196.0
99.000336 204.0
99.082466 248.0
99.397728 156.0
99.632019 140.0
99.818855 188.0
100.011833 220.0
100.250832 100.0
102.159012 76.0
102.233459 40.0
102.507332 216.0
102.694832 196.0
102.817902 132.0
103.04464 140.0
103.236092 172.0
103.418182 32.0
103.671349 204.0
104.154228 196.0
104.192825 188.0
104.459137 164.0
104.589371 136.0
105.260124 180.0
106.297981 108.0
106.326714 120.0
106.408821 52.0
106.778702 100.0
106.883621 208.0
107.161591 188.0
107.627747 180.0
107.784737 156.0
108.018265 172.0
108.047325 124.0
108.581757 88.0
108.872307 180.0
109.127899 204.0
110.293266 56.0
110.542152 136.0
110.703339 232.0
110.96946 136.0
110.998833 3192.0
111.042854 52.0
111.086906 160.0
111.248489 184.0
111.30098 40.0
111.548897 156.0
111.590942 196.0
111.767624 140.0
111.929703 220.0
112.003525 464.0
112.148811 144.0
112.862373 84.0
112.99408 508.0
113.065453 216.0
113.308968 88.0
113.478523 136.0
113.56971 144.0
113.631233 36.0
113.713989 40.0
113.864738 132.0
114.00119 140.0
114.309052 128.0
114.364388 128.0
114.385674 84.0
114.436768 116.0
114.611427 152.0
114.997551 496.0
115.181053 220.0
115.63221 156.0
115.878174 172.0
115.99543 172.0
116.350311 216.0
116.657516 100.0
116.879044 180.0
116.988312 248.0
117.387421 188.0
117.905533 132.0
118.310028 168.0
118.387978 140.0
118.491951 144.0
118.752083 144.0
119.810707 188.0
119.971977 236.0
120.222816 84.0
120.467361 180.0
120.653114 124.0
121.08419 192.0
121.577477 36.0
121.665276 156.0
121.972824 116.0
123.609306 200.0
123.815193 200.0
123.901581 148.0
123.95697 40.0
125.524155 176.0
125.892357 112.0
126.278999 164.0
126.346107 100.0
126.655029 188.0
126.807396 144.0
126.908272 172.0
126.995789 156.0
127.647026 184.0
128.545837 100.0
128.791931 152.0
129.010895 1432.0
130.008804 160.0
130.155289 156.0
130.971756 232.0
131.005905 744.0
131.07193 492.0
131.697098 80.0
131.733643 208.0
131.873032 112.0
132.18634 60.0
132.316818 120.0
132.46109 268.0
132.559601 136.0
132.616898 144.0
132.995361 36.0
133.066528 76.0
133.208908 196.0
133.611221 168.0
133.892044 248.0
135.752426 172.0
136.5746 164.0
136.842224 256.0
136.949341 156.0
137.343262 280.0
137.410904 28.0
137.480911 156.0
137.653656 176.0
138.446426 76.0
138.462814 160.0
138.483902 152.0
138.504974 204.0
138.618225 288.0
138.690094 140.0
138.755737 180.0
138.781525 28.0
138.865952 36.0
138.915649 224.0
138.962524 160.0
138.994675 38768.0
139.068283 68.0
139.09465 128.0
139.109772 140.0
139.134979 80.0
139.166321 84.0
139.189377 44.0
139.202133 48.0
139.229721 36.0
139.253067 68.0
139.271942 140.0
139.322266 40.0
139.342484 84.0
139.377045 28.0
139.471725 56.0
139.584579 40.0
139.652786 48.0
139.912384 100.0
139.948532 232.0
139.997299 2564.0
140.092972 84.0
140.231995 92.0
140.340424 64.0
140.366364 72.0
140.447968 100.0
140.498459 44.0
140.714279 240.0
140.746277 88.0
140.766525 132.0
140.810043 40.0
140.859634 140.0
140.89035 60.0
140.963547 212.0
140.99176 11672.0
141.064331 136.0
141.110153 32.0
141.133789 160.0
141.155075 84.0
141.237381 80.0
141.25058 104.0
141.294617 268.0
141.822708 76.0
141.994507 940.0
142.142868 72.0
142.221191 120.0
142.309021 60.0
142.38739 92.0
142.420639 116.0
142.465775 56.0
142.487152 64.0
142.598846 48.0
142.950821 64.0
146.097244 164.0
146.330688 200.0
147.701431 80.0
149.175797 72.0
149.993713 116.0
150.960556 84.0
151.869171 72.0
152.001648 100.0
152.043381 88.0
152.338013 96.0
153.120209 32.0
159.06813 636.0
160.07515 180.0
161.077576 180.0
164.038971 140.0
172.357834 52.0
174.090027 932.0
174.654434 76.0
174.875458 40.0
175.100494 160.0
179.231949 60.0
179.309219 44.0
186.19429 100.0
192.985016 132.0
197.694473 40.0
199.587952 172.0
202.078552 180.0
207.862915 128.0
210.36116 88.0
229.992935 148.0
230.799561 136.0
244.034439 80.0
246.000305 132.0
254.551926 84.0
256.846619 60.0
258.044189 184.0
269.185913 64.0
273.006958 96.0
282.018555 160.0
284.165131 168.0
292.250671 88.0
292.999695 160.0
294.172852 56.0
297.067932 100.0
297.407654 52.0
298.40387 144.0
313.173828 164.0
343.337616 112.0
361.196075 104.0
366.236908 32.0
376.871429 140.0
415.659973 88.0
519.713745 44.0
620.729492 44.0
699.248901 172.0
705.668762 168.0
761.347839 88.0
770.712585 128.0
790.492065 48.0
804.080994 240.0
805.509521 32.0
808.738281 248.0
816.130249 148.0
867.361694 176.0
876.123535 96.0
912.45282 180.0
923.542664 44.0
927.163269 276.0
932.370422 208.0
932.947876 140.0
943.421387 132.0
961.393799 136.0
962.912537 148.0
971.615845 156.0
980.109009 192.0
982.553101 100.0
995.108093 224.0
995.805115 120.0
1006.100647 128.0
1023.855164 132.0
1024.466675 116.0
1040.583252 144.0
1043.795898 124.0
1049.630005 152.0
1051.868774 180.0
1053.166626 64.0
1068.933838 112.0
1074.641846 148.0
1074.733154 148.0
1097.395142 228.0
1097.737915 216.0
1105.817749 224.0
1113.276245 232.0
1116.313232 144.0
1117.876465 72.0
1118.768433 172.0
1120.766479 188.0
1120.893066 140.0
1121.479492 140.0
1124.707886 168.0
1126.457397 132.0
1141.18811 52.0
1149.587891 152.0
1150.377686 196.0
1153.295776 172.0
1153.924438 136.0
1157.707031 144.0
1158.005005 120.0
1167.765015 144.0
1174.733398 196.0
1175.593018 180.0
1176.596436 112.0
1177.313354 156.0
1178.727417 184.0
1179.561279 184.0
1182.694092 116.0
1187.552124 176.0
1192.873657 204.0
1195.026245 32.0
1195.824585 48.0
1196.80896 116.0
1198.889282 172.0
1201.495728 140.0
1206.136353 192.0
1218.721802 156.0
1223.312012 104.0
1224.029175 132.0
1224.161499 164.0
1225.282959 100.0
1225.505859 48.0
1228.985229 136.0
1238.983276 156.0
1248.1427 148.0
1252.499146 248.0
1255.882568 180.0
1264.552002 180.0
1268.242188 60.0
1274.707642 120.0
1275.652954 168.0
1277.857666 224.0
1278.718628 216.0
1281.104004 128.0
1284.247681 52.0
1284.525879 128.0
1286.895264 140.0
1291.089844 136.0
1295.993286 140.0
1296.373169 128.0
1297.3479 36.0
1298.789307 184.0
1303.053467 132.0
1303.793579 64.0
1305.576538 160.0
1309.12439 144.0
1311.422729 192.0
1311.984985 132.0
1315.490967 168.0
1319.594482 172.0
1327.052124 152.0
1331.406006 152.0
1335.46875 136.0
1343.182495 40.0
1348.534668 168.0
1355.179443 68.0
1355.531128 192.0
1361.223633 136.0
1366.766113 212.0
1369.563721 148.0
1370.10144 192.0
1378.372559 84.0
1382.461914 36.0
1383.564819 116.0
1384.171997 132.0
1386.0979 208.0
1386.171997 136.0
1386.30542 204.0
1388.195801 48.0
1391.178467 224.0
1391.445679 192.0
1392.099121 232.0
1392.240234 132.0
1392.678467 196.0
1394.967163 236.0
1399.081055 112.0
1402.075439 104.0
1403.685669 92.0
1404.819336 96.0
1407.513672 244.0
1407.618164 156.0
1412.573486 208.0
1412.70813 156.0
1414.511597 152.0
1414.668823 72.0
1417.200195 192.0
1421.009155 68.0
1423.335938 148.0
1424.071899 40.0
1425.49939 128.0
1425.694702 116.0
1426.183228 164.0
1426.393799 168.0
1430.606445 80.0
1432.850708 216.0
1435.911133 144.0
1436.137451 368.0
1439.012573 208.0
1441.520386 172.0
1443.107666 80.0
1449.056763 164.0
1451.530273 236.0
1451.922119 148.0
1453.075073 232.0
1456.217773 152.0
1459.363892 172.0
1459.843018 180.0
1461.341553 196.0
1463.00061 164.0
1464.005737 180.0
1465.354004 156.0
1466.070312 128.0
1466.687622 108.0
1466.962036 172.0
1471.509033 160.0
1473.876831 144.0
1474.786255 88.0
1478.817139 260.0
1479.322266 60.0
1480.271729 168.0
1481.92627 152.0
1487.839478 104.0
1488.522827 144.0
1490.727539 184.0
1491.419189 148.0
1493.133789 196.0
1497.983032 136.0
1499.678223 180.0
1500.256348 220.0
1500.57251 68.0
1501.490112 208.0
1503.403442 180.0
1504.043945 180.0
