>compound MLS001141333-01!2-(7-methyl-2,3,4,7,9,10-hexahydro-[1,4]dioxepino[2,3-g]isoquinolin-8-yl)-N-phenylacetamide
>formula C21H24N2O3
>ionization [M+H]+
>parentmass 353.187073
#inchi InChI=1S/C21H24N2O3/c1-15-18-13-20-19(25-10-5-11-26-20)12-16(18)8-9-23(15)14-21(24)22-17-6-3-2-4-7-17/h2-4,6-7,12-13,15H,5,8-11,14H2,1H3,(H,22,24)
#inchikey NZKAQZURXRPUQX
#Ion_Source LC-ESI
#Instrument qTof
#Compound_Source NIH Natural Product Library
#PI Dorrestein
#Data_Collector VVP/LMS
#Scan -1
#Precursor_MZ 353.186
#ExactMass 352.179
#Charge 1
#CAS_Number N/A
#Pubmed_ID N/A
#Smiles CC1N(CC(=O)Nc2ccccc2)CCc3cc4OCCCOc4cc13
#INCHI_AUX N/A
#Library_Class 1
#SpectrumID CCMSLIB00000080371
#IonMode Positive
#UpdateWorkflowName UPDATE-SINGLE-ANNOTATED-GOLD
#LibraryQualityString Gold
#TaskID b1d8e8f6646f4e71acdff9ca3d919d08
##Scan# 1632
#SpectrumFile p2-H07_GH7_01_18067.mzXML
#LibraryName NIH_Natural_Products_Library.mgf
#MQScore -1
#Organism NIH_Natural_Products_Library
#TIC_Query 0
#RT_Query -1
#MZErrorPPM -1
#SharedPeaks 0
#MassDiff 0
#LibMZ -1
#SpecMZ 353.186
#SpecCharge 0
#internalFilename spec-00000.mgf

>collision 10
95.01059 124.0
95.04808 140.0
95.069527 236.0
95.123146 244.0
95.150139 124.0
95.205322 184.0
95.28302 36.0
95.352974 176.0
95.380188 156.0
95.393799 144.0
95.457954 32.0
95.502686 124.0
95.518196 140.0
95.538834 152.0
95.646683 188.0
95.666885 156.0
95.68367 160.0
95.699242 92.0
95.716293 132.0
95.781685 184.0
95.825844 104.0
95.841431 236.0
95.895996 148.0
95.915878 140.0
96.016884 132.0
96.035507 128.0
96.1045 144.0
96.133934 56.0
96.159813 184.0
96.174301 152.0
96.193794 180.0
96.215141 172.0
96.231537 204.0
96.275017 180.0
96.307701 72.0
96.327736 384.0
96.356537 148.0
96.381935 128.0
96.4132 88.0
96.464592 124.0
96.477707 192.0
96.493103 128.0
96.499069 112.0
96.532455 140.0
96.609375 280.0
96.662933 200.0
96.771179 152.0
96.786842 124.0
96.84951 100.0
96.871056 204.0
96.884773 164.0
96.916122 144.0
96.957275 176.0
96.976776 252.0
97.014114 152.0
97.0298 108.0
97.053329 184.0
97.068817 120.0
97.100922 148.0
97.131775 104.0
97.163162 172.0
97.210503 192.0
97.233803 140.0
97.247543 216.0
97.310364 172.0
97.324112 200.0
97.339821 124.0
97.404633 132.0
97.440697 168.0
97.46241 168.0
97.475357 264.0
97.504837 124.0
97.555946 52.0
97.571671 132.0
97.587006 168.0
97.601654 176.0
97.636559 60.0
97.66803 136.0
97.754601 240.0
97.793961 220.0
97.807739 132.0
97.835297 168.0
97.862862 156.0
97.905869 200.0
97.96405 92.0
97.977097 180.0
98.004677 128.0
98.032265 128.0
98.126884 124.0
98.239296 168.0
98.263527 184.0
98.28862 204.0
98.313202 144.0
98.357285 248.0
98.385338 188.0
98.523582 172.0
98.626335 136.0
98.642151 240.0
98.714569 172.0
98.741013 148.0
98.802338 76.0
98.820145 140.0
98.868454 184.0
98.8927 164.0
98.912514 208.0
98.970573 152.0
99.002258 124.0
99.016121 252.0
99.061676 200.0
99.11319 368.0
99.154808 172.0
99.176605 52.0
99.222198 144.0
99.252464 168.0
99.276596 148.0
99.309906 192.0
99.356895 192.0
99.36264 168.0
99.418579 180.0
99.466209 120.0
99.495987 108.0
99.513855 92.0
99.535698 184.0
99.561516 152.0
99.611168 76.0
99.631973 136.0
99.678101 64.0
99.695892 256.0
99.748283 92.0
99.78009 204.0
99.832329 148.0
99.85939 128.0
99.87439 144.0
99.925285 204.0
99.943192 152.0
99.986969 144.0
100.038719 160.0
100.07695 140.0
100.102226 116.0
100.156212 172.0
100.188225 172.0
100.229591 160.0
100.267792 152.0
100.285728 76.0
100.307152 160.0
100.371452 172.0
100.40535 116.0
100.422882 156.0
100.455353 116.0
100.495117 196.0
100.531418 168.0
100.566963 112.0
100.588921 124.0
100.621834 148.0
100.640831 96.0
100.713737 252.0
100.721214 128.0
100.725067 156.0
100.74868 184.0
100.792633 180.0
100.834602 44.0
100.875351 180.0
100.898567 140.0
100.918785 108.0
100.936562 180.0
100.953529 148.0
100.971558 144.0
101.015465 152.0
101.041191 180.0
101.060577 84.0
101.076584 156.0
101.112602 44.0
101.148636 116.0
101.184319 208.0
101.218704 96.0
101.251534 164.0
101.284798 120.0
101.303619 228.0
101.327606 152.0
101.348785 128.0
101.394814 128.0
101.467957 212.0
101.492691 180.0
101.555397 152.0
101.609558 84.0
101.645676 100.0
101.662254 184.0
101.677788 272.0
101.705887 180.0
101.733994 56.0
101.766365 160.0
101.790207 160.0
101.827782 164.0
101.854477 164.0
101.893066 212.0
101.952744 132.0
101.971016 136.0
101.998238 140.0
102.04496 304.0
102.065506 116.0
102.091644 176.0
102.127846 160.0
102.184174 164.0
102.216553 216.0
102.244934 212.0
102.294861 204.0
102.310966 96.0
102.355263 92.0
102.434929 144.0
102.495758 236.0
102.526733 136.0
102.61116 128.0
102.637367 168.0
102.663582 124.0
102.7453 148.0
102.768478 140.0
102.784477 228.0
102.810852 156.0
102.835075 88.0
102.875443 180.0
102.929283 192.0
102.978134 220.0
103.026909 36.0
103.053757 2388.0
103.157753 232.0
103.196678 188.0
103.210831 188.0
103.258759 196.0
103.291733 168.0
103.311958 172.0
103.346359 152.0
103.386826 76.0
103.403015 160.0
103.498169 88.0
103.554871 176.0
103.569046 220.0
103.594925 176.0
103.611183 160.0
103.624168 196.0
103.662247 56.0
103.67794 188.0
103.706131 208.0
103.725075 168.0
103.753883 152.0
103.791389 152.0
103.809868 180.0
103.837074 408.0
103.860931 176.0
103.919769 32.0
103.951942 196.0
103.982674 124.0
104.009201 172.0
104.055626 596.0
104.172813 156.0
104.201988 152.0
104.240593 80.0
104.293434 176.0
104.307663 160.0
104.329514 132.0
104.371071 172.0
104.413391 156.0
104.428627 96.0
104.461464 196.0
104.508339 148.0
104.600365 160.0
104.633163 156.0
104.70443 152.0
104.762581 156.0
104.789986 168.0
104.80629 164.0
104.82756 244.0
104.869774 132.0
104.892906 172.0
104.936737 156.0
104.952881 136.0
104.987717 84.0
105.010994 212.0
105.033714 260.0
105.041473 268.0
105.069298 5960.0
105.103989 164.0
105.153755 168.0
105.179504 144.0
105.204002 56.0
105.223351 136.0
105.241516 404.0
105.303703 260.0
105.367378 240.0
105.381683 128.0
105.41642 296.0
105.479485 204.0
105.519188 160.0
105.559517 176.0
105.615707 152.0
105.712944 164.0
105.756538 172.0
105.782532 152.0
105.801018 132.0
105.810135 124.0
105.82592 264.0
105.856117 200.0
105.898529 136.0
105.919273 188.0
105.948555 176.0
105.964806 144.0
105.989388 188.0
106.065567 41040.0
106.12365 68.0
106.138367 72.0
106.18605 56.0
106.234314 180.0
106.261879 76.0
106.312614 180.0
106.33181 156.0
106.367233 164.0
106.39875 116.0
106.415527 212.0
106.44133 160.0
106.459152 84.0
106.485558 28.0
106.504204 124.0
106.554749 96.0
106.578491 148.0
106.587776 52.0
106.595512 116.0
106.61734 148.0
106.644058 160.0
106.679863 172.0
106.720123 224.0
106.781815 36.0
106.808556 256.0
106.841469 180.0
106.857925 196.0
106.871788 76.0
106.891075 200.0
106.903976 116.0
106.934425 208.0
106.972931 180.0
107.014351 108.0
107.049034 1376.0
107.068497 3276.0
107.125565 76.0
107.146164 64.0
107.162651 120.0
107.177071 68.0
107.191498 48.0
107.236839 136.0
107.259514 156.0
107.276001 220.0
107.33419 144.0
107.357445 144.0
107.372917 224.0
107.390823 152.0
107.424477 140.0
107.447174 128.0
107.473999 116.0
107.512329 104.0
107.537971 108.0
107.58461 148.0
107.625931 176.0
107.664085 108.0
107.705223 124.0
107.719681 72.0
107.744125 168.0
107.798195 236.0
107.816528 252.0
107.830566 184.0
107.89209 196.0
107.910591 220.0
107.953239 148.0
107.96978 136.0
107.984863 192.0
108.017349 100.0
108.039543 152.0
108.057121 396.0
108.082527 104.0
108.117645 288.0
108.155991 152.0
108.175064 168.0
108.208069 128.0
108.236732 40.0
108.261856 152.0
108.280228 192.0
108.298347 344.0
108.324005 116.0
108.35894 180.0
108.382721 128.0
108.406342 228.0
108.425957 188.0
108.535126 124.0
108.576599 56.0
108.643318 192.0
108.67202 232.0
108.688622 144.0
108.703148 124.0
108.740982 52.0
108.786789 120.0
108.792786 148.0
108.833916 392.0
108.854034 140.0
108.8713 304.0
108.892067 172.0
108.933609 144.0
108.952309 256.0
109.010483 112.0
109.027237 192.0
109.062492 440.0
109.102882 248.0
109.145599 232.0
109.162239 312.0
109.191353 212.0
109.282883 124.0
109.29953 136.0
109.366821 132.0
109.407761 164.0
109.422333 156.0
109.441071 116.0
109.457733 132.0
109.50563 88.0
109.591095 164.0
109.61335 136.0
109.671295 228.0
109.688995 60.0
109.714943 228.0
109.755051 152.0
109.783951 236.0
109.830788 140.0
109.85862 164.0
109.864311 172.0
109.949715 164.0
110.0186 112.0
110.033211 360.0
110.06694 132.0
110.083794 160.0
110.16954 168.0
110.217712 136.0
110.250603 172.0
110.279716 36.0
110.304794 148.0
110.321518 168.0
110.395355 128.0
110.417709 156.0
110.446991 176.0
110.468575 200.0
110.490921 32.0
110.530678 96.0
110.576485 144.0
110.618576 252.0
110.649887 180.0
110.742119 144.0
110.781097 112.0
110.809158 104.0
110.823822 200.0
110.947479 152.0
110.978928 132.0
111.008286 196.0
111.096382 124.0
111.169708 160.0
111.215988 128.0
111.238625 184.0
111.262749 196.0
111.287506 124.0
111.356667 132.0
111.393974 200.0
111.434944 184.0
111.46801 176.0
111.518456 192.0
111.559822 252.0
111.703491 176.0
111.724533 124.0
111.748611 304.0
111.766609 184.0
111.844223 100.0
111.871841 128.0
111.968704 144.0
112.004509 280.0
112.034004 140.0
112.091888 152.0
112.135818 164.0
112.206306 180.0
112.253204 152.0
112.286949 172.0
112.303825 280.0
112.341789 124.0
112.383987 132.0
112.40509 164.0
112.43924 264.0
112.504288 324.0
112.527084 176.0
112.550743 132.0
112.569748 108.0
112.601425 168.0
112.641556 176.0
112.675789 196.0
112.704941 136.0
112.72184 88.0
112.777893 176.0
112.84021 44.0
112.857124 112.0
112.889465 176.0
112.95018 228.0
113.059174 396.0
113.107903 140.0
113.178749 148.0
113.23381 188.0
113.261345 264.0
113.281769 168.0
113.299477 200.0
113.367279 88.0
113.405525 172.0
113.469025 180.0
113.483864 72.0
113.524155 72.0
113.566086 212.0
113.594147 144.0
113.609001 156.0
113.632332 132.0
113.687508 156.0
113.7342 188.0
113.75248 120.0
113.823235 208.0
113.865837 172.0
113.901947 200.0
113.927437 104.0
113.944435 104.0
113.959312 200.0
113.997559 140.0
114.044312 200.0
114.108086 92.0
114.150398 232.0
114.184639 76.0
114.212296 132.0
114.239944 104.0
114.296509 164.0
114.316544 216.0
114.37188 212.0
114.451202 216.0
114.531578 200.0
114.548622 176.0
114.582184 164.0
114.657288 272.0
114.682861 176.0
114.716972 188.0
114.751106 168.0
114.789459 228.0
114.819321 116.0
114.834251 148.0
114.867615 168.0
114.886208 168.0
114.908958 192.0
114.947319 140.0
114.966522 128.0
115.009209 212.0
115.027634 108.0
115.054276 12208.0
115.098877 112.0
115.115959 44.0
115.15654 28.0
115.173622 48.0
115.221886 176.0
115.24691 92.0
115.268578 172.0
115.289963 204.0
115.319908 164.0
115.353119 176.0
115.398018 168.0
115.411659 84.0
115.441582 64.0
115.477142 204.0
115.504433 184.0
115.537033 180.0
115.56057 188.0
115.678139 124.0
115.802475 164.0
115.831543 168.0
115.851402 384.0
115.886017 156.0
115.922997 156.0
115.941734 180.0
115.957024 484.0
116.001747 80.0
116.016754 40.0
116.05954 3024.0
116.117538 152.0
116.188324 164.0
116.22171 200.0
116.265862 148.0
116.287033 168.0
116.302063 196.0
116.324928 104.0
116.368614 140.0
116.402969 328.0
116.529701 108.0
116.553329 84.0
116.569687 164.0
116.632057 152.0
116.660797 176.0
116.7136 176.0
116.728279 180.0
116.772362 136.0
116.796272 120.0
116.819931 204.0
116.842484 116.0
116.862129 124.0
116.895752 184.0
116.920227 184.0
116.945984 152.0
116.970566 212.0
116.999435 228.0
117.028694 176.0
117.070091 38900.0
117.102325 308.0
117.129028 68.0
117.154884 80.0
117.170853 64.0
117.20649 236.0
117.251465 232.0
117.299187 152.0
117.319077 408.0
117.338959 160.0
117.384209 160.0
117.402008 216.0
117.42453 184.0
117.466194 176.0
117.526123 160.0
117.533226 92.0
117.554657 88.0
117.571815 84.0
117.583481 124.0
117.602135 212.0
117.621567 120.0
117.648651 124.0
117.678413 120.0
117.706055 180.0
117.723038 76.0
117.740318 124.0
117.856972 168.0
117.875412 388.0
117.921799 148.0
117.941254 116.0
117.98233 152.0
118.011414 180.0
118.040619 604.0
118.071823 3656.0
118.116402 88.0
118.166161 116.0
118.199272 252.0
118.261078 116.0
118.266594 196.0
118.29184 164.0
118.349442 112.0
118.365295 136.0
118.381729 160.0
118.427261 144.0
118.469398 96.0
118.543388 132.0
118.586273 224.0
118.612007 248.0
118.641396 84.0
118.672989 36.0
118.701172 184.0
118.730545 228.0
118.782822 124.0
118.791077 80.0
118.799858 160.0
118.832329 92.0
118.848679 84.0
118.866035 64.0
118.889816 260.0
118.909081 96.0
118.93766 140.0
118.987831 324.0
119.006401 204.0
119.049271 5372.0
119.085526 3256.0
119.133095 108.0
119.154976 284.0
119.18148 156.0
119.228371 132.0
119.274345 108.0
119.306953 204.0
119.396103 196.0
119.421089 168.0
119.44178 156.0
119.465714 56.0
119.50705 244.0
119.522278 116.0
119.552742 136.0
119.585388 88.0
119.644165 224.0
119.687714 108.0
119.707008 176.0
119.731262 168.0
119.766113 192.0
119.820572 56.0
119.847679 192.0
119.866951 144.0
119.890305 116.0
119.904945 236.0
119.927353 164.0
119.966591 160.0
120.052704 796.0
120.082657 856.0
120.11924 184.0
120.1399 324.0
120.165871 236.0
120.21524 60.0
120.240112 172.0
120.27536 124.0
120.30204 188.0
120.322197 108.0
120.361496 136.0
120.404625 96.0
120.437614 164.0
120.499107 116.0
120.529312 160.0
120.57708 344.0
120.601814 64.0
120.628044 160.0
120.652092 144.0
120.669579 204.0
120.722061 148.0
120.750496 124.0
120.76799 116.0
120.789864 120.0
120.912445 184.0
120.929901 192.0
120.95256 80.0
120.971497 48.0
121.063759 1668.0
121.099564 160.0
121.153259 68.0
121.234917 180.0
121.326393 44.0
121.35955 96.0
121.414101 136.0
121.436035 152.0
121.508423 152.0
121.558891 68.0
121.580833 152.0
121.620346 208.0
121.64888 204.0
121.699379 192.0
121.804504 92.0
121.831154 148.0
121.850868 160.0
121.899269 104.0
121.927834 156.0
121.969284 140.0
122.006882 208.0
122.031151 196.0
122.058212 332.0
122.095245 328.0
122.121315 120.0
122.182449 152.0
122.220314 112.0
122.251122 64.0
122.300583 160.0
122.327599 152.0
122.366783 184.0
122.392006 104.0
122.419914 184.0
122.458069 132.0
122.508865 172.0
122.524155 164.0
122.548393 112.0
122.60128 160.0
122.634338 188.0
122.683952 148.0
122.741898 132.0
122.757797 136.0
122.828377 152.0
122.859261 116.0
122.887947 108.0
122.903389 116.0
122.967384 156.0
123.000168 136.0
123.042221 500.0
123.078873 132.0
123.113098 80.0
123.179359 164.0
123.210289 140.0
123.254478 156.0
123.276573 44.0
123.31636 148.0
123.371964 128.0
123.420265 56.0
123.443268 196.0
123.504303 180.0
123.539177 172.0
123.570663 176.0
123.595009 128.0
123.636299 188.0
123.723152 116.0
123.861557 116.0
123.938217 76.0
123.955055 288.0
124.011353 116.0
124.046021 228.0
124.076767 188.0
124.162117 164.0
124.232155 208.0
124.288567 212.0
124.303612 184.0
124.364021 168.0
124.415077 336.0
124.486778 136.0
124.541328 220.0
124.603851 152.0
124.666016 172.0
124.688293 196.0
124.763222 276.0
124.852814 200.0
124.926941 108.0
124.979614 180.0
125.024117 136.0
125.057503 164.0
125.120453 144.0
125.153229 132.0
125.177727 148.0
125.206673 96.0
125.286865 144.0
125.304688 144.0
125.344795 156.0
125.376411 192.0
125.400505 124.0
125.433945 164.0
125.498596 308.0
125.528389 224.0
125.578003 92.0
125.598953 60.0
125.614571 188.0
125.737289 140.0
125.755997 196.0
125.833275 172.0
125.848907 316.0
125.96727 192.0
126.002037 168.0
126.023575 100.0
126.120773 108.0
126.157227 68.0
126.177345 128.0
126.210884 328.0
126.231544 216.0
126.291389 128.0
126.33609 220.0
126.375229 124.0
126.401016 184.0
126.451462 184.0
126.508453 164.0
126.629364 40.0
126.677589 180.0
126.70105 128.0
126.716728 132.0
126.750343 192.0
126.876694 140.0
126.927429 136.0
127.010406 48.0
127.053139 1516.0
127.15625 108.0
127.234818 144.0
127.284218 116.0
127.321716 188.0
127.452492 140.0
127.49218 132.0
127.498695 76.0
127.540329 204.0
127.632507 72.0
127.675232 128.0
127.690979 100.0
127.768417 188.0
127.823921 128.0
127.850716 196.0
127.868721 172.0
127.97937 188.0
128.016205 212.0
128.061218 2796.0
128.114975 232.0
128.163727 212.0
128.208801 156.0
128.238098 164.0
128.278183 148.0
128.33728 176.0
128.452301 96.0
128.474869 68.0
128.565125 176.0
128.595886 104.0
128.630951 168.0
128.664444 136.0
128.719604 232.0
128.854156 164.0
128.879013 164.0
128.946808 100.0
128.978439 144.0
129.007828 156.0
129.037216 124.0
129.069794 8368.0
129.127228 164.0
129.193268 164.0
129.256012 176.0
129.276993 36.0
129.31459 124.0
129.347153 160.0
129.392563 72.0
129.41507 60.0
129.455841 164.0
129.47168 88.0
129.501541 236.0
129.51918 136.0
129.578156 116.0
129.598541 116.0
129.675766 204.0
129.709595 52.0
129.743591 132.0
129.781952 196.0
129.852448 116.0
129.879654 228.0
129.909149 152.0
129.943176 160.0
130.022598 136.0
130.043289 136.0
130.070679 1508.0
130.124756 348.0
130.138718 244.0
130.162827 192.0
130.20195 132.0
130.25647 180.0
130.284729 136.0
130.335526 224.0
130.388046 176.0
130.416489 292.0
130.558762 160.0
130.588333 124.0
130.674774 184.0
130.692978 128.0
130.753281 160.0
130.781738 160.0
130.836365 132.0
130.85231 124.0
130.892502 208.0
130.941116 96.0
131.000336 172.0
131.019028 156.0
131.049042 4452.0
131.082489 2148.0
131.155289 148.0
131.200882 120.0
131.244202 28.0
131.312622 52.0
131.379181 200.0
131.3965 156.0
131.56134 180.0
131.613846 140.0
131.657242 112.0
131.685471 188.0
131.711533 296.0
131.754303 192.0
131.805725 92.0
131.85379 140.0
131.87886 64.0
131.910858 332.0
131.942871 224.0
131.984024 172.0
132.054596 3056.0
132.081161 1132.0
132.169296 224.0
132.213577 160.0
132.281448 108.0
132.350128 40.0
132.386765 312.0
132.41655 184.0
132.444763 184.0
132.515045 176.0
132.581497 40.0
132.599838 36.0
132.620468 180.0
132.647964 152.0
132.684647 148.0
132.725922 136.0
132.787766 132.0
132.808487 164.0
132.826828 52.0
132.858948 148.0
132.903091 168.0
132.944427 160.0
132.959488 228.0
133.002457 172.0
133.030472 160.0
133.064148 10932.0
133.085205 1316.0
133.12291 184.0
133.138641 136.0
133.171143 160.0
133.237076 176.0
133.254807 172.0
133.29213 168.0
133.30899 164.0
133.346878 168.0
133.403229 84.0
133.428513 44.0
133.52739 184.0
133.598694 136.0
133.630905 204.0
133.676987 140.0
133.695343 220.0
133.752884 160.0
133.781296 212.0
133.829498 240.0
133.884109 80.0
133.920074 164.0
133.966888 124.0
133.987778 148.0
134.040573 528.0
134.07045 2844.0
134.095383 636.0
134.119797 232.0
134.146408 144.0
134.162918 136.0
134.215317 188.0
134.259888 240.0
134.287445 100.0
134.304993 152.0
134.349731 100.0
134.388565 120.0
134.395966 184.0
134.425842 268.0
134.532166 220.0
134.575912 140.0
134.674423 388.0
134.700577 164.0
134.760681 92.0
134.798325 56.0
134.827347 212.0
134.848495 36.0
134.866989 96.0
134.885483 120.0
134.915543 76.0
134.957153 156.0
135.04422 1904.0
135.079819 4632.0
135.10405 704.0
135.160706 412.0
135.190018 120.0
135.208145 176.0
135.238525 80.0
135.311615 180.0
135.372131 216.0
135.389877 176.0
135.417679 128.0
135.443161 132.0
135.463394 164.0
135.503387 128.0
135.570587 212.0
135.650513 156.0
135.707352 44.0
135.781555 124.0
135.827942 164.0
135.90683 156.0
135.926025 204.0
135.943588 100.0
135.985092 204.0
136.0159 132.0
136.051895 2148.0
136.083008 468.0
136.107803 144.0
136.157532 48.0
136.194702 180.0
136.231873 128.0
136.32016 108.0
136.352692 36.0
136.401505 160.0
136.41777 144.0
136.464279 132.0
136.481369 104.0
136.510773 168.0
136.551636 204.0
136.589859 52.0
136.614548 144.0
136.645691 48.0
136.722488 160.0
136.80162 152.0
136.922699 172.0
136.948318 136.0
136.99025 132.0
137.058731 1356.0
137.093857 248.0
137.120743 80.0
137.139923 364.0
137.190659 176.0
137.235657 168.0
137.318909 156.0
137.343002 172.0
137.384232 184.0
137.429657 144.0
137.463562 260.0
137.487701 196.0
137.58493 200.0
137.640686 204.0
137.672516 188.0
137.739059 236.0
137.788116 164.0
137.805038 152.0
137.879257 220.0
138.012497 116.0
138.033539 140.0
138.06633 216.0
138.084824 172.0
138.21019 132.0
138.279922 216.0
138.411133 200.0
138.454773 88.0
138.473511 128.0
138.520126 204.0
138.642197 204.0
138.660889 164.0
138.686737 164.0
138.764099 132.0
138.784607 176.0
138.816101 156.0
138.841476 92.0
138.884277 96.0
138.930603 112.0
138.957108 132.0
138.976974 184.0
139.118347 156.0
139.158264 132.0
139.195831 44.0
139.214905 232.0
139.320312 92.0
139.336761 116.0
139.354568 180.0
139.407257 156.0
139.435455 212.0
139.451904 132.0
139.482468 88.0
139.498917 140.0
139.621185 176.0
139.698807 156.0
139.726654 176.0
139.75528 136.0
139.903549 176.0
139.922379 124.0
139.961197 304.0
140.000092 108.0
140.035004 184.0
140.055435 208.0
140.060104 100.0
140.182709 368.0
140.263977 152.0
140.377151 48.0
140.417236 124.0
140.443481 128.0
140.490356 124.0
140.530472 180.0
140.617783 96.0
140.643753 172.0
140.715027 164.0
140.733459 144.0
140.844452 268.0
140.894821 148.0
140.936829 196.0
140.95549 148.0
140.974396 208.0
141.008804 144.0
141.069794 864.0
141.151688 120.0
141.188141 172.0
141.221756 224.0
141.242355 108.0
141.300766 168.0
141.341873 152.0
141.454529 132.0
141.490051 124.0
141.599747 196.0
141.646347 164.0
141.677612 184.0
141.700989 180.0
141.75145 132.0
141.828796 76.0
141.915359 268.0
141.933121 532.0
141.948196 156.0
141.9758 232.0
141.99501 148.0
142.077682 2084.0
142.105621 236.0
142.156097 104.0
142.205231 200.0
142.277206 172.0
142.293777 220.0
142.323883 152.0
142.365005 244.0
142.395874 208.0
142.423248 176.0
142.448135 220.0
142.502777 144.0
142.545547 48.0
142.573853 172.0
142.673904 148.0
142.700058 120.0
142.738098 196.0
142.754745 200.0
142.771255 72.0
142.784531 144.0
142.897461 100.0
142.935532 152.0
143.012466 160.0
143.048813 5944.0
143.084412 992.0
143.130722 76.0
143.181885 124.0
143.216461 36.0
143.247025 216.0
143.273453 172.0
143.306992 112.0
143.347046 64.0
143.392776 164.0
143.421387 220.0
143.480972 36.0
143.517899 120.0
143.593048 104.0
143.62883 144.0
143.702789 172.0
143.724258 96.0
143.75766 124.0
143.807785 188.0
143.830658 240.0
143.894653 328.0
143.948639 152.0
143.967743 52.0
144.00119 132.0
144.022461 208.0
144.054871 3012.0
144.079849 704.0
144.110199 76.0
144.166031 52.0
144.254471 80.0
144.285553 76.0
144.33815 140.0
144.378799 100.0
144.420975 76.0
144.457733 128.0
144.479263 36.0
144.498398 124.0
144.532043 184.0
144.564072 132.0
144.583084 164.0
144.625244 388.0
144.644394 76.0
144.682693 160.0
144.720993 124.0
144.776077 136.0
144.811996 200.0
144.827576 132.0
144.857117 148.0
144.862564 156.0
144.891052 224.0
144.934174 176.0
144.953064 68.0
144.971619 160.0
145.012665 272.0
145.019958 204.0
145.06517 52596.0
145.101089 1292.0
145.14537 148.0
145.181534 196.0
145.218185 240.0
145.265152 244.0
145.283081 216.0
145.327667 164.0
145.359711 156.0
145.38031 88.0
145.420639 264.0
145.461319 84.0
145.483414 352.0
145.524231 84.0
145.557602 116.0
145.621964 172.0
145.639496 164.0
145.683044 124.0
145.717392 152.0
145.752365 164.0
145.810776 108.0
145.847794 164.0
145.867783 56.0
145.907867 428.0
145.954132 204.0
145.984604 252.0
146.002426 80.0
146.069717 12792.0
146.095596 4216.0
146.159271 160.0
146.200699 68.0
146.222 200.0
146.240616 204.0
146.264679 176.0
146.336914 116.0
146.380249 200.0
146.40065 128.0
146.41687 216.0
146.500687 240.0
146.516418 180.0
146.55127 80.0
146.589691 72.0
146.593048 228.0
146.633209 296.0
146.666946 44.0
146.707932 132.0
146.763382 72.0
146.792328 180.0
146.833313 204.0
146.850983 148.0
146.903885 160.0
146.951523 100.0
146.973892 228.0
147.013199 304.0
147.043213 2648.0
147.069336 9120.0
147.115646 1608.0
147.159348 84.0
147.197418 64.0
147.203613 136.0
147.231537 100.0
147.305374 168.0
147.348877 76.0
147.366318 216.0
147.383575 188.0
147.390213 128.0
147.399673 100.0
147.477982 36.0
147.511215 204.0
147.557755 100.0
147.639969 160.0
147.708252 136.0
147.72644 128.0
147.751236 116.0
147.801941 176.0
147.833496 244.0
147.852859 160.0
147.890045 100.0
147.906113 208.0
147.940002 60.0
148.011475 92.0
148.052536 784.0
148.072968 1636.0
148.113327 448.0
148.141006 152.0
148.193085 80.0
148.237915 100.0
148.254883 56.0
148.299316 192.0
148.327591 52.0
148.356003 184.0
148.383347 180.0
148.411499 112.0
148.474854 136.0
148.50946 60.0
148.561386 136.0
148.623474 64.0
148.70842 152.0
148.725403 176.0
148.764236 172.0
148.787109 336.0
148.853271 204.0
148.883224 192.0
148.951233 108.0
148.999817 112.0
149.059906 11408.0
149.094559 1200.0
149.177231 68.0
149.209076 116.0
149.270645 188.0
149.308395 172.0
149.342575 36.0
149.366898 88.0
149.390717 368.0
149.406311 184.0
149.459351 92.0
149.503159 140.0
149.556702 128.0
149.590775 32.0
149.618454 140.0
149.66301 120.0
149.731995 172.0
149.839188 40.0
149.892792 148.0
149.930801 320.0
149.965897 76.0
150.021957 44.0
150.06456 2280.0
150.098236 172.0
150.190216 152.0
150.214615 48.0
150.251083 80.0
150.290253 108.0
150.331604 160.0
150.339859 84.0
150.419601 216.0
150.435165 96.0
150.502609 184.0
150.639374 56.0
150.705338 124.0
150.776199 136.0
150.812866 88.0
150.854416 132.0
150.930099 164.0
150.935547 156.0
150.945343 192.0
150.964447 60.0
151.032928 112.0
151.071991 812.0
151.128342 32.0
151.152817 156.0
151.189514 64.0
151.246201 332.0
151.288132 152.0
151.326599 44.0
151.439255 64.0
151.510284 140.0
151.60585 152.0
151.652664 156.0
151.723511 104.0
151.762726 128.0
151.797058 336.0
151.843658 96.0
152.010483 160.0
152.061905 328.0
152.086868 224.0
152.108658 244.0
152.145477 240.0
152.179855 92.0
152.197037 84.0
152.268555 192.0
152.30452 84.0
152.339493 188.0
152.368973 44.0
152.398453 44.0
152.485611 232.0
152.55574 128.0
152.582794 40.0
152.646713 60.0
152.695908 184.0
152.74263 100.0
152.838593 124.0
152.855804 160.0
152.887665 344.0
152.901001 332.0
152.956726 152.0
152.988724 140.0
153.023376 104.0
153.07309 348.0
153.104065 204.0
153.146317 144.0
153.178345 224.0
153.207901 40.0
153.267029 196.0
153.418579 140.0
153.456833 128.0
153.496552 224.0
153.580139 120.0
153.666473 100.0
153.725693 164.0
153.757782 164.0
153.858978 120.0
153.876266 160.0
153.923172 36.0
153.94046 208.0
154.024734 164.0
154.049149 180.0
154.075119 304.0
154.120789 160.0
154.244354 36.0
154.285324 232.0
154.360565 68.0
154.400131 160.0
154.611404 60.0
154.644592 144.0
154.650024 116.0
154.657928 144.0
154.689621 204.0
154.75647 40.0
154.84021 108.0
154.865433 140.0
154.905487 188.0
154.959579 100.0
155.061172 1012.0
155.085632 500.0
155.130051 248.0
155.157394 236.0
155.204956 92.0
155.291748 68.0
155.353775 72.0
155.500168 156.0
155.559738 208.0
155.583069 172.0
155.654083 92.0
155.67395 116.0
155.711212 156.0
155.774231 128.0
155.815536 152.0
155.840378 184.0
155.887589 68.0
155.919907 116.0
155.937302 36.0
155.965073 252.0
156.036728 112.0
156.085205 392.0
156.1362 160.0
156.15361 192.0
156.2556 92.0
156.282593 288.0
156.307846 188.0
156.365097 84.0
156.414871 160.0
156.444748 156.0
156.51944 52.0
156.55928 180.0
156.651443 168.0
156.733658 184.0
156.776489 192.0
156.795959 64.0
156.820877 76.0
156.843307 156.0
156.880707 120.0
156.987915 388.0
157.064728 7384.0
157.100006 904.0
157.244888 100.0
157.269852 64.0
157.34996 216.0
157.389679 160.0
157.409653 124.0
157.449615 220.0
157.529541 144.0
157.565369 308.0
157.65947 140.0
157.676971 88.0
157.731949 132.0
157.749451 160.0
157.771957 172.0
157.801453 200.0
157.833282 188.0
157.858078 140.0
157.874466 224.0
157.895691 140.0
157.942001 104.0
157.992035 176.0
158.072159 3316.0
158.091492 884.0
158.134659 32.0
158.167816 132.0
158.189728 120.0
158.257706 212.0
158.285599 124.0
158.320206 216.0
158.341995 128.0
158.363022 156.0
158.42012 144.0
158.472733 76.0
158.51947 196.0
158.563141 156.0
158.595535 140.0
158.688293 232.0
158.720367 108.0
158.783829 160.0
158.821274 144.0
158.856323 100.0
158.896454 172.0
158.930038 128.0
158.978683 132.0
159.044403 904.0
159.076248 2616.0
159.105759 548.0
159.186234 144.0
159.220276 160.0
159.23674 108.0
159.258911 232.0
159.290604 140.0
159.38356 104.0
159.406174 192.0
159.463318 204.0
159.511734 36.0
159.607346 144.0
159.627396 80.0
159.66008 120.0
159.681259 96.0
159.750641 48.0
159.77327 128.0
159.795914 148.0
159.838699 56.0
159.866379 176.0
159.901611 92.0
160.018555 88.0
160.050797 1652.0
160.075836 2076.0
160.111099 904.0
160.145844 216.0
160.197174 168.0
160.251648 84.0
160.354965 116.0
160.372208 76.0
160.393677 184.0
160.416168 272.0
160.440674 64.0
160.465881 112.0
160.569672 272.0
160.599533 188.0
160.690353 164.0
160.770004 176.0
160.798203 216.0
160.937698 140.0
160.986725 164.0
161.013458 140.0
161.059662 11324.0
161.083267 8452.0
161.120361 1824.0
161.178574 112.0
161.25853 120.0
161.284409 68.0
161.319199 132.0
161.39505 164.0
161.425034 276.0
161.448151 80.0
161.490112 88.0
161.507584 104.0
161.533173 124.0
161.569626 164.0
161.607071 252.0
161.662064 288.0
161.694763 160.0
161.734924 224.0
161.773819 180.0
161.820129 72.0
161.903687 48.0
161.933914 172.0
161.950424 308.0
162.067123 14244.0
162.086777 2816.0
162.129501 392.0
162.167084 96.0
162.17305 140.0
162.23674 100.0
162.296799 144.0
162.314224 112.0
162.35733 88.0
162.392838 40.0
162.432785 80.0
162.458801 328.0
162.478836 80.0
162.504456 120.0
162.526093 140.0
162.558502 148.0
162.660278 120.0
162.704971 124.0
162.752258 160.0
162.776062 184.0
162.841309 184.0
162.867493 128.0
162.940903 140.0
162.991974 64.0
163.016708 124.0
163.077896 8588.0
163.134308 184.0
163.170792 152.0
163.191193 468.0
163.235138 92.0
163.245483 132.0
163.254684 140.0
163.285538 92.0
163.332733 104.0
163.368271 140.0
163.408981 160.0
163.464951 180.0
163.492218 180.0
163.50972 312.0
163.548935 116.0
163.586472 344.0
163.623672 180.0
163.654099 196.0
163.694061 64.0
163.75264 76.0
163.780655 84.0
163.826508 224.0
163.860977 136.0
163.881561 120.0
163.905487 152.0
163.938614 132.0
163.965576 124.0
163.99469 96.0
164.048325 180.0
164.079834 2116.0
164.144852 208.0
164.177032 100.0
164.212936 220.0
164.241394 164.0
164.274536 168.0
164.299591 148.0
164.359375 44.0
164.438477 48.0
164.479324 168.0
164.527832 108.0
164.5457 68.0
164.578888 156.0
164.610718 156.0
164.657578 188.0
164.787796 96.0
164.839432 184.0
164.875214 184.0
164.976669 180.0
165.085434 344.0
165.125992 136.0
165.15564 100.0
165.194824 36.0
165.29718 112.0
165.315079 148.0
165.342773 180.0
165.412628 148.0
165.438873 208.0
165.473785 76.0
165.583893 156.0
165.721786 164.0
165.745285 64.0
165.829865 148.0
165.901031 152.0
165.92984 188.0
165.960846 128.0
165.981125 184.0
166.06424 196.0
166.155533 100.0
166.204285 156.0
166.249115 160.0
166.34288 108.0
166.460983 100.0
166.596283 136.0
166.725586 168.0
166.812973 208.0
166.890106 140.0
166.920959 220.0
166.964676 272.0
166.995544 120.0
167.031433 168.0
167.084579 276.0
167.129318 128.0
167.178207 56.0
167.214233 76.0
167.257996 32.0
167.331284 76.0
167.37384 128.0
167.505188 168.0
167.578369 188.0
167.615982 144.0
167.667526 80.0
167.713913 56.0
167.868607 84.0
167.906158 204.0
167.951141 76.0
167.987244 140.0
168.033691 72.0
168.060593 252.0
168.072128 280.0
168.16272 336.0
168.191101 124.0
168.210587 176.0
168.302124 140.0
168.402832 208.0
168.431549 204.0
168.457077 228.0
168.539749 88.0
168.585999 228.0
168.640549 140.0
168.674149 72.0
168.743942 172.0
168.78273 168.0
168.826691 156.0
168.870667 104.0
168.891357 112.0
168.956024 120.0
169.068176 252.0
169.101654 504.0
169.233612 208.0
169.41684 120.0
169.504944 116.0
169.593048 208.0
169.640976 172.0
169.77713 160.0
169.878296 168.0
169.943146 144.0
169.992462 188.0
170.015808 132.0
170.067459 436.0
170.092896 256.0
170.117035 120.0
170.171555 176.0
170.192337 120.0
170.280624 64.0
170.351791 116.0
170.391113 172.0
170.478073 52.0
170.509262 84.0
170.584641 156.0
170.605438 148.0
170.623627 116.0
170.670441 92.0
170.73024 156.0
170.898972 236.0
170.940964 116.0
170.972198 156.0
171.01123 232.0
171.046524 332.0
171.076569 780.0
171.112762 148.0
171.141403 52.0
171.159622 196.0
171.177856 156.0
171.30661 140.0
171.385269 96.0
171.473541 132.0
171.540009 156.0
171.597366 112.0
171.644302 164.0
171.666077 136.0
171.683411 184.0
171.727753 100.0
171.766876 176.0
171.798187 76.0
171.894714 168.0
171.939087 156.0
171.965179 160.0
171.993896 212.0
172.04866 644.0
172.077164 1072.0
172.108643 388.0
172.132782 224.0
172.309891 124.0
172.380432 88.0
172.443161 160.0
172.492813 240.0
172.52681 172.0
172.589554 168.0
172.607849 88.0
172.660156 68.0
172.7173 264.0
172.745834 180.0
172.817108 60.0
172.856369 64.0
172.958435 252.0
173.00032 92.0
173.059631 2328.0
173.083267 948.0
173.130768 156.0
173.162659 180.0
173.215057 180.0
173.236008 140.0
173.267441 156.0
173.350327 108.0
173.360001 160.0
173.445648 140.0
173.534271 124.0
173.565887 116.0
173.585327 160.0
173.613449 108.0
173.715744 116.0
173.739349 148.0
173.774918 196.0
173.823456 144.0
173.881042 64.0
173.920914 156.0
173.965042 160.0
173.994003 184.0
174.012299 216.0
174.059341 2932.0
174.091537 12492.0
174.173691 88.0
174.23555 184.0
174.273758 140.0
174.29776 176.0
174.328903 212.0
174.345795 96.0
174.356903 108.0
174.437897 36.0
174.464188 60.0
174.49472 212.0
174.523895 180.0
174.552414 108.0
174.574615 68.0
174.679199 156.0
174.717392 100.0
174.799408 80.0
174.814133 88.0
174.833313 144.0
174.856125 168.0
174.897217 144.0
174.925461 108.0
174.954834 160.0
175.006744 204.0
175.075836 28520.0
175.156616 228.0
175.193161 48.0
175.260422 212.0
175.288025 52.0
175.322281 32.0
175.353897 192.0
175.406616 52.0
175.461533 232.0
175.588547 124.0
175.61676 156.0
175.646576 56.0
175.670319 56.0
175.720444 112.0
175.739319 132.0
175.767944 204.0
175.791763 148.0
175.841843 120.0
175.889343 52.0
175.924408 148.0
175.973831 144.0
176.005508 84.0
176.039841 164.0
176.078461 6556.0
176.107147 1960.0
176.146667 152.0
176.225723 216.0
176.24588 52.0
176.289673 112.0
176.346298 64.0
176.407104 248.0
176.436188 168.0
176.47319 68.0
176.496994 220.0
176.515503 48.0
176.536652 132.0
176.557816 116.0
176.602783 120.0
176.711243 128.0
176.751648 196.0
176.768631 64.0
176.803848 92.0
176.854141 136.0
176.87796 200.0
176.922974 120.0
176.994461 160.0
177.011383 92.0
177.041031 184.0
177.091019 26700.0
177.136032 140.0
177.140915 200.0
177.179489 56.0
177.227859 140.0
177.263733 116.0
177.306931 92.0
177.347122 420.0
177.386566 216.0
177.430725 104.0
177.492111 72.0
177.537704 108.0
177.582031 108.0
177.63533 168.0
177.654709 36.0
177.742935 264.0
177.779114 148.0
177.866699 120.0
177.97821 112.0
178.034821 112.0
178.093628 2784.0
178.127228 180.0
178.150482 104.0
178.187134 124.0
178.22258 204.0
178.247009 144.0
178.314896 168.0
178.350143 96.0
178.399582 120.0
178.459946 92.0
178.522202 100.0
178.568863 184.0
178.633652 116.0
178.666595 72.0
178.686127 164.0
178.773026 228.0
178.802292 128.0
178.839554 52.0
178.879486 220.0
178.941254 196.0
178.975327 100.0
179.007294 52.0
179.060547 276.0
179.100616 620.0
179.288193 72.0
179.309555 204.0
179.369629 128.0
179.412292 144.0
179.44545 128.0
179.478943 96.0
179.524658 192.0
179.558945 40.0
179.656143 236.0
179.700333 144.0
179.817734 144.0
179.836426 64.0
179.908493 116.0
180.096588 220.0
180.122131 124.0
180.210297 116.0
180.250381 132.0
180.389359 44.0
180.444778 268.0
180.531067 60.0
180.582901 104.0
180.621994 132.0
180.667282 96.0
180.759186 160.0
180.828033 116.0
180.864334 212.0
180.927078 84.0
180.945816 48.0
181.080078 144.0
181.229721 180.0
181.275269 160.0
181.292465 96.0
181.31279 184.0
181.371765 60.0
181.513855 172.0
181.621124 136.0
181.717712 316.0
181.776733 76.0
181.929733 88.0
181.986115 68.0
182.068146 168.0
182.131134 96.0
182.163361 124.0
182.23053 124.0
182.2789 168.0
182.312592 148.0
182.34877 120.0
182.389084 120.0
182.477798 172.0
182.603088 292.0
182.65799 160.0
182.919006 208.0
183.077377 292.0
183.083832 148.0
183.142502 148.0
183.17482 180.0
183.261032 196.0
183.323013 200.0
183.430817 176.0
183.611481 140.0
183.741562 180.0
184.018951 144.0
184.074646 516.0
184.10434 116.0
184.122772 152.0
184.168289 240.0
184.210861 136.0
184.24852 252.0
184.362 176.0
184.385696 136.0
184.420349 252.0
184.467422 128.0
184.486343 160.0
184.518784 76.0
184.540405 324.0
184.562042 144.0
184.940796 200.0
184.965149 144.0
185.000351 100.0
185.032837 152.0
185.057205 136.0
185.09082 716.0
185.306381 180.0
185.374115 188.0
185.409348 100.0
185.436447 88.0
185.6642 172.0
185.688599 92.0
185.769974 108.0
185.837799 124.0
185.870361 72.0
185.940918 128.0
186.019638 96.0
186.042175 120.0
186.065826 396.0
186.091217 1464.0
186.124054 208.0
186.266754 44.0
186.370361 148.0
186.408035 148.0
186.489563 72.0
186.649963 100.0
186.679871 188.0
186.713287 156.0
186.765305 244.0
186.791382 196.0
186.818344 136.0
186.886612 160.0
186.908371 128.0
186.926514 108.0
186.987961 288.0
187.074448 3852.0
187.191483 128.0
187.220978 216.0
187.249817 76.0
187.271896 68.0
187.303146 44.0
187.344009 48.0
187.455719 168.0
187.671051 112.0
187.707382 188.0
187.763779 192.0
187.87561 184.0
187.895905 88.0
187.935532 180.0
187.982742 76.0
188.014771 228.0
188.081863 2768.0
188.106949 2516.0
188.158417 264.0
188.203125 84.0
188.276855 320.0
188.316833 168.0
188.443497 188.0
188.468201 88.0
188.488937 208.0
188.510406 172.0
188.574661 108.0
188.632065 140.0
188.670334 52.0
188.694946 56.0
188.727753 192.0
188.749619 104.0
188.839874 156.0
188.921936 96.0
188.978928 96.0
189.021881 180.0
189.085693 2232.0
189.108139 1060.0
189.15303 260.0
189.236679 48.0
189.261322 168.0
189.280487 132.0
189.311584 112.0
189.354431 84.0
189.388702 240.0
189.4366 64.0
189.494125 108.0
189.520569 112.0
189.548935 76.0
189.577332 216.0
189.628403 52.0
189.655823 48.0
189.71666 148.0
189.784668 48.0
189.89328 112.0
189.96019 104.0
190.009766 172.0
190.089264 1820.0
190.120331 692.0
190.185196 152.0
190.216476 212.0
190.314224 296.0
190.336197 136.0
190.360916 104.0
190.4021 208.0
190.5168 164.0
190.584869 196.0
190.62738 124.0
190.663101 228.0
190.734558 208.0
190.773056 152.0
190.817032 168.0
190.839035 52.0
190.922379 156.0
190.951782 216.0
190.995789 208.0
191.034302 228.0
191.056305 172.0
191.105499 10644.0
191.166367 148.0
191.18396 56.0
191.348038 48.0
191.413559 196.0
191.510513 76.0
191.568359 76.0
191.619843 320.0
191.664795 136.0
191.71991 100.0
191.755737 64.0
191.791565 60.0
191.810867 156.0
191.835663 36.0
191.904602 144.0
192.061783 108.0
192.107193 1596.0
192.161102 124.0
192.232849 84.0
192.282516 40.0
192.379135 204.0
192.422119 84.0
192.481293 124.0
192.628265 184.0
192.664383 164.0
192.818314 64.0
192.851486 56.0
192.88945 120.0
192.94548 144.0
193.081772 360.0
193.125854 260.0
193.230347 136.0
193.393616 180.0
193.604034 68.0
193.64003 100.0
193.664963 116.0
193.731445 140.0
193.797943 120.0
193.823898 184.0
194.285904 100.0
194.385788 96.0
194.424637 196.0
194.560654 132.0
194.687592 196.0
194.777252 120.0
194.927292 140.0
195.005096 136.0
195.082932 156.0
195.1035 176.0
195.152435 120.0
195.233078 108.0
195.310959 92.0
195.428574 232.0
195.472321 60.0
195.512344 84.0
195.544678 160.0
195.867676 60.0
196.043198 184.0
196.141617 128.0
196.391708 176.0
196.430756 96.0
196.472595 132.0
196.528397 188.0
196.570251 172.0
196.606537 108.0
196.651184 128.0
196.720978 168.0
196.754471 192.0
196.813461 156.0
196.910843 168.0
197.025375 116.0
197.087799 128.0
197.204224 184.0
197.363571 208.0
197.387146 184.0
197.418121 220.0
197.428986 112.0
197.434219 152.0
197.472626 108.0
197.52298 124.0
197.553757 112.0
197.64328 208.0
197.758026 208.0
197.777618 200.0
197.811203 68.0
197.830795 224.0
197.909653 244.0
197.959595 88.0
197.990402 168.0
198.01001 84.0
198.09111 172.0
198.102173 164.0
198.114731 156.0
198.12706 224.0
198.2005 144.0
198.250946 140.0
198.318207 36.0
198.367813 184.0
198.489227 152.0
198.573349 96.0
198.592987 152.0
198.632263 32.0
198.696777 116.0
198.741669 124.0
198.80217 208.0
198.830856 180.0
199.008331 136.0
199.0336 96.0
199.100082 184.0
199.134232 240.0
199.164185 136.0
199.217026 192.0
199.258301 192.0
199.308868 168.0
199.347961 120.0
199.539566 156.0
199.726852 148.0
199.801102 240.0
199.860535 188.0
199.985107 184.0
200.017593 140.0
200.043716 72.0
200.080688 1044.0
200.106094 540.0
200.158371 36.0
200.242844 148.0
200.33934 220.0
200.369614 184.0
200.394745 148.0
200.445694 140.0
200.502045 92.0
200.533051 224.0
200.566879 172.0
200.662094 144.0
200.680435 184.0
200.732086 208.0
200.87706 160.0
200.919373 216.0
200.984268 112.0
201.031677 180.0
201.091049 11264.0
201.181839 48.0
201.204422 32.0
201.263779 184.0
201.308899 164.0
201.340881 136.0
201.371399 184.0
201.395798 216.0
201.427521 136.0
201.470917 132.0
201.526398 104.0
201.623199 140.0
201.643875 80.0
201.707275 80.0
201.741196 68.0
201.807129 112.0
201.848633 128.0
201.890945 108.0
201.924255 184.0
201.968918 100.0
201.988907 396.0
202.021988 400.0
202.087631 65348.0
202.150375 112.0
202.170731 156.0
202.215744 148.0
202.239609 184.0
202.261627 164.0
202.283463 108.0
202.303864 196.0
202.357788 72.0
202.398621 276.0
202.451355 172.0
202.497208 68.0
202.553635 216.0
202.57814 64.0
202.582733 296.0
202.606766 212.0
202.649689 176.0
202.692184 60.0
202.74115 172.0
202.784088 112.0
202.806793 256.0
202.819717 72.0
202.828217 196.0
202.882553 168.0
202.909058 264.0
202.933884 148.0
202.939316 152.0
202.959747 188.0
203.014862 336.0
203.053406 220.0
203.103958 80016.0
203.175217 116.0
203.20108 148.0
203.229309 28.0
203.267014 56.0
203.276535 56.0
203.30722 104.0
203.342407 148.0
203.355026 44.0
203.36554 196.0
203.385223 100.0
203.42897 448.0
203.477234 36.0
203.531387 108.0
203.57225 152.0
203.622696 180.0
203.676712 216.0
203.705063 56.0
203.751175 112.0
203.781235 148.0
203.814117 104.0
203.846115 160.0
203.877975 56.0
203.898438 136.0
203.911346 60.0
203.916885 204.0
203.963654 56.0
204.002151 184.0
204.029373 232.0
204.071136 104.0
204.104172 23572.0
204.174408 32.0
204.251984 64.0
204.273071 64.0
204.313217 248.0
204.340118 148.0
204.387405 52.0
204.410812 88.0
204.438263 212.0
204.46312 136.0
204.496246 172.0
204.51944 92.0
204.547348 108.0
204.569183 92.0
204.63063 80.0
204.685287 196.0
204.734131 120.0
204.740997 200.0
204.780273 76.0
204.800217 144.0
204.828888 120.0
204.879501 80.0
204.8974 76.0
204.925171 60.0
204.964233 56.0
205.001587 88.0
205.115692 3200.0
205.163147 112.0
205.187012 120.0
205.205933 112.0
205.261902 168.0
205.287567 68.0
205.311447 140.0
205.362671 84.0
205.395645 96.0
205.430176 108.0
205.465225 96.0
205.481796 100.0
205.515137 144.0
205.56134 140.0
205.580643 120.0
205.605652 256.0
205.663559 148.0
205.689667 124.0
205.735535 100.0
205.84404 68.0
205.871979 92.0
205.949707 60.0
205.983978 32.0
206.009689 164.0
206.120834 880.0
206.159119 120.0
206.200668 64.0
206.263062 36.0
206.32692 56.0
206.3564 64.0
206.435562 40.0
206.479248 44.0
206.504211 104.0
206.55217 144.0
206.584305 76.0
206.637589 32.0
206.670135 132.0
206.718781 92.0
206.761703 44.0
206.824783 100.0
206.860443 80.0
206.939178 60.0
207.025085 52.0
207.122467 132.0
207.174026 88.0
207.200134 72.0
207.234192 68.0
207.302246 168.0
207.420471 68.0
207.482376 304.0
207.58963 60.0
207.687149 44.0
207.735916 116.0
207.77034 72.0
207.867889 108.0
207.908066 60.0
207.928162 116.0
208.071686 120.0
208.140594 48.0
208.169312 160.0
208.203766 160.0
208.335907 48.0
208.378998 136.0
208.539917 124.0
208.680786 152.0
208.772797 192.0
208.87059 88.0
208.928131 84.0
209.008682 36.0
209.057602 196.0
209.089264 140.0
209.279251 52.0
209.41748 144.0
209.550003 152.0
209.712646 200.0
210.076874 112.0
210.123749 112.0
210.504196 164.0
210.545197 128.0
210.978622 188.0
211.09166 164.0
211.207062 168.0
211.30542 172.0
211.60643 128.0
211.693298 128.0
211.759903 100.0
211.806259 136.0
211.846802 100.0
211.909302 168.0
212.061234 136.0
212.113403 120.0
212.145294 184.0
212.200378 140.0
212.251633 136.0
212.337524 124.0
212.388885 132.0
212.478806 136.0
212.568756 56.0
212.603577 108.0
212.766129 120.0
212.934555 96.0
213.004959 116.0
213.083633 188.0
213.105942 140.0
213.126282 100.0
213.166962 116.0
213.222183 140.0
213.286118 108.0
213.407501 108.0
213.421387 76.0
213.507095 192.0
213.582718 200.0
213.734451 128.0
213.937744 148.0
214.004013 68.0
214.084091 168.0
214.122238 760.0
214.182068 200.0
214.397949 292.0
214.476654 116.0
214.541443 204.0
214.613663 52.0
214.654495 52.0
214.759476 84.0
214.782822 80.0
214.95459 164.0
215.062866 172.0
215.106781 5928.0
215.162186 132.0
215.20015 68.0
215.226028 60.0
215.352005 184.0
215.44548 96.0
215.486374 160.0
215.562347 72.0
215.685104 196.0
215.886841 136.0
215.936554 76.0
215.975693 156.0
216.04953 164.0
216.103729 6796.0
216.204315 112.0
216.308167 144.0
216.363785 96.0
216.40477 76.0
216.434967 116.0
216.469193 196.0
216.507523 220.0
216.622101 156.0
216.644119 116.0
216.677155 180.0
216.712311 116.0
216.739517 168.0
216.923325 32.0
216.949707 40.0
216.97023 180.0
217.002487 44.0
217.063431 112.0
217.10965 13808.0
217.166702 36.0
217.191528 52.0
217.233414 68.0
217.291534 84.0
217.375 48.0
217.416092 48.0
217.454239 104.0
217.495331 124.0
217.524689 56.0
217.572723 44.0
217.590836 128.0
217.638855 112.0
217.665619 52.0
217.728134 180.0
217.783096 104.0
217.806595 84.0
217.868271 88.0
217.899612 84.0
217.927032 104.0
217.947601 180.0
218.081665 148.0
218.114853 3376.0
218.175156 104.0
218.226837 52.0
218.26506 60.0
218.347412 36.0
218.385635 164.0
218.420151 196.0
218.529785 60.0
218.57901 160.0
218.782898 60.0
218.805191 64.0
219.005585 180.0
219.043762 164.0
219.124725 8964.0
219.20546 104.0
219.289551 72.0
219.380035 64.0
219.401566 296.0
219.495926 52.0
219.531311 160.0
219.566696 80.0
219.615143 60.0
219.674133 92.0
219.705338 40.0
219.745163 100.0
219.811554 60.0
219.954788 128.0
219.997498 52.0
220.035141 64.0
220.128632 1008.0
220.338577 196.0
220.400711 52.0
220.425766 48.0
220.467133 284.0
220.656311 52.0
220.768677 96.0
220.807129 140.0
220.869247 164.0
221.127533 208.0
221.336853 196.0
221.360535 148.0
221.600464 76.0
221.653809 132.0
221.739746 104.0
221.991745 72.0
222.074783 48.0
222.120911 80.0
222.160812 48.0
222.306198 68.0
222.386322 104.0
222.585236 216.0
222.626816 48.0
222.733734 84.0
222.980347 36.0
223.102219 220.0
223.173569 108.0
223.209259 176.0
223.256836 152.0
223.301453 152.0
223.384735 84.0
223.408539 72.0
223.443222 176.0
223.526962 144.0
223.673386 76.0
223.881805 88.0
223.956253 180.0
224.051575 152.0
224.093292 188.0
224.197586 84.0
224.284027 64.0
224.376434 112.0
224.719421 124.0
224.816162 132.0
224.940262 28.0
225.077606 128.0
225.182129 52.0
225.486877 124.0
225.657272 124.0
225.9384 232.0
225.989258 132.0
226.01918 200.0
226.097672 388.0
226.710922 136.0
226.887772 132.0
226.938751 52.0
227.010712 256.0
227.391724 100.0
227.589859 144.0
227.764038 40.0
227.810638 212.0
227.980362 76.0
228.025452 52.0
228.100586 144.0
228.220856 48.0
228.256927 160.0
228.336624 152.0
228.491547 140.0
228.569778 60.0
228.885834 112.0
229.046265 180.0
229.108719 144.0
229.202118 180.0
229.268417 248.0
229.298553 236.0
229.467361 216.0
229.497513 52.0
229.747482 104.0
229.778015 192.0
229.826294 60.0
229.910782 128.0
229.983215 192.0
230.01944 152.0
230.079819 236.0
230.118225 6924.0
230.209656 36.0
230.300766 48.0
230.364761 96.0
230.509598 164.0
230.523071 48.0
230.532166 200.0
230.690063 72.0
230.786575 100.0
230.83812 116.0
230.913818 48.0
231.121765 1880.0
231.177032 160.0
231.198212 44.0
231.26828 108.0
231.292038 224.0
231.313232 164.0
231.347336 188.0
231.410248 176.0
231.448288 112.0
231.482788 112.0
231.519547 256.0
231.552429 264.0
231.594116 100.0
231.619064 32.0
231.643951 88.0
231.679398 160.0
231.717239 268.0
231.735672 164.0
231.744736 100.0
231.78772 224.0
231.827682 220.0
231.850983 96.0
231.886261 132.0
231.921432 320.0
231.947754 128.0
231.980347 472.0
232.013412 188.0
232.038269 228.0
232.088211 200.0
232.134399 134480.0
232.233887 68.0
232.259064 88.0
232.283218 152.0
232.336945 172.0
232.366348 104.0
232.391968 72.0
232.460831 88.0
232.518829 244.0
232.526672 220.0
232.560486 164.0
232.59935 116.0
232.633972 508.0
232.699158 52.0
232.738693 180.0
232.78067 60.0
232.801636 152.0
232.832062 104.0
232.87178 92.0
232.907898 36.0
232.94519 136.0
232.991867 204.0
233.016678 132.0
233.028656 56.0
233.036041 116.0
233.078674 244.0
233.13649 17412.0
233.229691 116.0
233.26535 48.0
233.299713 92.0
233.352325 92.0
233.413879 116.0
233.442215 100.0
233.47818 72.0
233.549088 72.0
233.557846 112.0
233.609543 96.0
233.640854 124.0
233.674316 72.0
233.704742 76.0
233.798126 44.0
233.826462 88.0
233.908646 124.0
233.951263 32.0
233.981796 92.0
234.030426 52.0
234.051743 76.0
234.138748 1264.0
234.234482 104.0
234.282486 100.0
234.316727 60.0
234.33931 68.0
234.396042 144.0
234.436813 156.0
234.473511 168.0
234.497559 92.0
234.530884 132.0
234.573883 116.0
234.626312 168.0
234.659607 248.0
234.720337 212.0
234.747299 216.0
234.813599 136.0
234.838013 36.0
234.867432 264.0
234.891388 56.0
234.914261 308.0
234.933212 148.0
234.963684 80.0
235.042404 72.0
235.097336 68.0
235.137009 196.0
235.171722 80.0
235.278793 80.0
235.307953 124.0
235.332382 56.0
235.375122 92.0
235.54158 68.0
235.567535 52.0
235.656143 56.0
235.796707 128.0
235.824219 188.0
235.860901 72.0
236.016815 44.0
236.33493 64.0
236.515488 44.0
236.67009 144.0
236.737045 88.0
236.769623 84.0
236.902466 88.0
236.987106 108.0
237.088242 52.0
237.125015 68.0
237.146469 88.0
237.269089 92.0
237.425461 52.0
237.603378 96.0
238.036423 92.0
238.128937 324.0
238.564636 80.0
238.792175 64.0
238.878296 92.0
239.093689 156.0
239.149078 32.0
239.306091 44.0
239.795883 144.0
240.286194 92.0
240.372589 40.0
240.891296 132.0
240.916 72.0
241.902496 60.0
242.09137 180.0
242.123383 168.0
242.150208 132.0
242.280319 108.0
242.401154 96.0
242.711136 44.0
242.859985 92.0
243.09874 200.0
243.131744 148.0
244.064957 92.0
244.173798 100.0
244.298218 116.0
244.746399 60.0
245.008026 92.0
246.137115 116.0
246.433838 72.0
246.677612 200.0
246.699493 92.0
247.038284 120.0
247.190552 28.0
247.250015 76.0
247.763535 72.0
248.243103 92.0
248.842422 116.0
249.106232 108.0
249.974014 52.0
250.112488 128.0
250.238419 40.0
250.490356 100.0
250.69516 60.0
250.912643 168.0
251.029312 152.0
251.127075 136.0
251.269028 96.0
251.376312 100.0
251.543594 52.0
252.102646 152.0
253.244766 36.0
254.40535 176.0
254.710205 92.0
254.945328 144.0
256.128906 64.0
256.661133 180.0
257.213074 80.0
257.474884 156.0
257.858276 72.0
258.053253 84.0
258.117218 136.0
258.443481 180.0
258.641907 52.0
258.958893 144.0
258.997345 132.0
259.625519 96.0
259.64798 108.0
259.894989 72.0
260.12738 872.0
260.40863 196.0
261.133514 184.0
261.257233 40.0
262.097565 144.0
262.129791 124.0
262.965088 192.0
263.052246 68.0
263.100647 224.0
263.242737 116.0
263.556061 48.0
264.092712 108.0
264.730286 52.0
265.679993 108.0
266.16684 128.0
266.19281 40.0
267.086578 172.0
267.128571 132.0
267.197174 208.0
268.12149 108.0
268.526245 40.0
269.077728 56.0
270.208557 264.0
270.290344 40.0
272.329498 60.0
273.069031 52.0
273.157837 44.0
273.763458 68.0
273.934723 64.0
274.063202 168.0
274.531311 76.0
274.617035 144.0
276.202515 32.0
276.490387 184.0
276.722076 100.0
276.857849 64.0
276.934021 120.0
276.990326 188.0
277.139435 108.0
277.31839 76.0
278.109528 112.0
278.144287 92.0
278.360107 80.0
278.871735 132.0
279.121063 116.0
279.24411 68.0
280.106201 136.0
280.299438 128.0
280.939606 112.0
281.103088 160.0
282.161926 80.0
282.345825 144.0
284.107727 52.0
285.145325 152.0
285.303314 120.0
285.908752 132.0
286.622681 148.0
287.78299 88.0
287.995758 208.0
288.71228 116.0
289.072083 124.0
289.812439 88.0
291.016541 100.0
291.098022 192.0
291.614441 192.0
291.648407 96.0
292.101135 156.0
292.308197 96.0
292.5737 124.0
293.096527 216.0
293.142517 184.0
293.169769 116.0
293.537933 96.0
293.834686 168.0
294.114532 116.0
294.141815 172.0
294.701904 124.0
294.852264 76.0
295.016357 84.0
295.689667 128.0
296.122437 132.0
296.163605 4704.0
296.889282 168.0
297.166992 1008.0
297.537811 184.0
298.101135 96.0
298.167755 244.0
298.193909 100.0
299.026245 104.0
299.139832 60.0
299.177704 124.0
300.404541 112.0
300.797943 196.0
301.277954 212.0
301.371216 112.0
302.111115 136.0
302.315247 32.0
305.135284 360.0
305.865845 108.0
306.133057 128.0
306.141327 96.0
306.152435 140.0
306.680939 160.0
306.764587 80.0
306.788971 88.0
306.848267 176.0
307.12027 212.0
307.312134 84.0
307.744934 40.0
308.087219 92.0
308.157074 96.0
309.262146 100.0
310.320099 92.0
311.172699 136.0
312.181152 72.0
313.518921 88.0
315.237549 96.0
315.711243 76.0
315.774902 148.0
316.022552 184.0
317.698334 92.0
318.561005 92.0
318.653351 56.0
318.945801 68.0
319.079865 116.0
319.570679 48.0
320.09256 136.0
320.749481 88.0
321.082611 180.0
321.121826 148.0
321.305786 132.0
321.784027 104.0
321.943481 92.0
322.105438 132.0
322.477051 84.0
322.841736 44.0
323.274597 72.0
323.611053 108.0
324.005035 120.0
324.040863 128.0
324.065948 104.0
324.143951 600.0
324.496033 56.0
324.578522 44.0
325.066376 32.0
325.145874 144.0
325.827576 84.0
326.151001 176.0
327.622803 88.0
328.15979 132.0
328.671997 76.0
328.982361 40.0
329.191803 52.0
329.24234 128.0
329.878265 44.0
331.220795 176.0
331.31134 132.0
332.174133 72.0
332.638641 192.0
334.103149 148.0
334.306915 104.0
335.0242 20.0
335.100708 184.0
335.176239 292.0
335.52713 76.0
335.786041 68.0
336.125092 412.0
337.030884 72.0
337.115967 112.0
337.359802 48.0
337.440247 96.0
338.00354 156.0
338.135284 160.0
338.343933 136.0
338.380524 52.0
338.428131 104.0
338.60025 36.0
338.666168 96.0
339.147888 152.0
340.096161 88.0
340.294403 140.0
340.522064 48.0
342.036957 108.0
343.628998 36.0
343.843018 116.0
344.581543 64.0
345.565033 28.0
345.968445 60.0
346.894562 96.0
347.465698 40.0
347.692047 124.0
348.048401 44.0
348.78772 88.0
348.821198 128.0
349.122345 48.0
349.524109 132.0
349.907471 112.0
350.242645 108.0
350.27243 156.0
350.656219 44.0
351.167969 244.0
351.5065 152.0
352.03537 148.0
352.096344 160.0
352.122498 152.0
352.157898 92.0
352.193726 220.0
352.354095 160.0
352.387726 144.0
352.567078 76.0
352.596985 148.0
352.858643 148.0
352.89444 168.0
352.933411 156.0
352.970825 32.0
353.109192 48.0
353.187073 15288.0
353.241028 152.0
353.313629 92.0
353.325897 60.0
353.453339 88.0
353.524445 48.0
353.603058 220.0
353.636719 68.0
353.726562 152.0
353.917511 76.0
353.986572 116.0
354.041077 36.0
354.189209 2896.0
354.580566 56.0
354.914215 80.0
355.195953 420.0
355.488129 100.0
355.536926 64.0
355.589447 36.0
355.938599 120.0
356.081299 168.0
356.133881 156.0
356.191742 196.0
356.242798 88.0
356.302917 64.0
356.404358 100.0
356.479523 116.0
356.562531 92.0
356.622345 140.0
356.701263 60.0
357.272888 76.0
357.340607 64.0
357.694336 36.0
358.311951 128.0
358.602112 88.0
359.948944 80.0
360.032013 100.0
361.502594 56.0
362.377289 48.0
365.589752 120.0
365.650635 80.0
365.974213 80.0
366.400787 48.0
368.904297 216.0
370.718536 116.0
371.278259 80.0
372.813873 80.0
372.917633 136.0
373.740601 68.0
374.190948 60.0
374.275635 64.0
375.026886 64.0
375.659271 124.0
380.997803 84.0
381.083282 108.0
381.188202 76.0
381.829651 36.0
384.529633 68.0
386.4953 80.0
387.160767 84.0
388.399323 112.0
388.874084 76.0
389.188141 104.0
389.938446 36.0
393.136383 76.0
394.542542 88.0
395.052704 120.0
395.476105 52.0
396.517761 52.0
397.116455 68.0
398.90329 64.0
407.210571 112.0
409.317871 72.0
409.466858 76.0
411.022949 244.0
411.248962 108.0
411.636536 96.0
411.664795 68.0
412.295013 68.0
415.096375 36.0
415.566925 28.0
416.098602 48.0
419.560822 56.0
421.255371 84.0
428.165863 108.0
430.975098 48.0
432.095581 104.0
433.515839 44.0
433.68161 44.0
433.934479 56.0
434.992371 40.0
435.457428 48.0
435.515564 56.0
435.781464 84.0
436.633606 100.0
437.732269 40.0
438.490479 76.0
439.236847 76.0
439.879456 92.0
442.32486 68.0
443.68869 72.0
445.377502 48.0
447.029785 80.0
448.647186 48.0
450.039459 60.0
451.281677 144.0
452.068451 92.0
453.016876 96.0
453.046539 96.0
453.847565 84.0
454.691742 52.0
455.715149 36.0
456.977936 112.0
457.812256 116.0
459.436218 100.0
460.251434 68.0
460.430786 72.0
461.960999 140.0
462.868347 52.0
464.488373 124.0
464.711456 104.0
465.200714 40.0
466.455078 92.0
468.999023 68.0
469.128357 72.0
471.277649 104.0
472.3974 64.0
473.349579 104.0
479.631897 56.0
479.727783 72.0
479.78009 64.0
480.800781 32.0
481.014648 128.0
483.466644 68.0
485.53009 32.0
486.916962 60.0
487.738586 60.0
487.782532 40.0
490.68808 84.0
491.204071 80.0
492.046967 28.0
496.494019 96.0
497.674408 48.0
499.007324 56.0
504.562531 96.0
507.99295 32.0
508.096161 92.0
508.773804 104.0
515.03772 84.0
523.05011 56.0
525.657043 60.0
526.766479 68.0
528.755493 52.0
530.033142 100.0
532.48291 116.0
538.017761 76.0
539.778137 92.0
542.037048 56.0
542.29657 60.0
543.493042 60.0
543.947876 92.0
544.639771 116.0
547.579285 72.0
549.149963 84.0
550.937805 56.0
556.309265 56.0
556.764709 36.0
558.508423 88.0
559.896912 40.0
561.636047 88.0
565.794556 96.0
568.600708 136.0
570.980957 52.0
575.890076 56.0
576.611511 84.0
576.78363 68.0
579.76062 96.0
585.318604 92.0
586.40741 76.0
587.854187 28.0
588.027954 44.0
590.269531 156.0
593.969666 88.0
594.144348 52.0
600.180237 48.0
600.433777 84.0
600.843506 36.0
608.232971 68.0
608.704285 76.0
609.475464 120.0
611.570496 96.0
619.263123 104.0
621.444336 52.0
622.675415 100.0
623.117493 84.0
633.043701 68.0
635.810974 40.0
638.398193 56.0
640.03363 80.0
643.401611 84.0
656.528442 140.0
657.32428 84.0
657.94696 108.0
661.187683 36.0
666.726501 52.0
671.091675 72.0
672.030396 92.0
680.285217 72.0
682.685669 76.0
683.231812 104.0
693.692017 84.0
693.851624 72.0
704.268738 140.0
704.733582 60.0
706.504761 48.0
710.748657 80.0
718.356689 52.0
730.716125 44.0
735.674011 80.0
739.566284 44.0
740.762939 80.0
751.870483 132.0
752.651917 152.0
754.465881 52.0
755.685486 208.0
760.85376 64.0
760.958069 120.0
767.252075 188.0
769.293213 80.0
771.823669 52.0
776.22583 244.0
778.845337 132.0
790.536804 100.0
792.434998 128.0
806.074402 40.0
806.515198 68.0
809.672302 232.0
812.863953 80.0
814.078735 108.0
815.3797 56.0
816.710144 52.0
818.827454 176.0
827.753418 140.0
831.209961 164.0
837.021423 124.0
838.622986 96.0
844.315735 136.0
848.855896 148.0
855.1651 236.0
856.178101 104.0
857.599731 152.0
859.168335 72.0
859.839355 80.0
861.56189 200.0
864.245483 108.0
864.854126 140.0
865.314148 108.0
867.964966 76.0
868.621826 192.0
872.409485 156.0
875.533875 148.0
878.622559 108.0
880.115784 112.0
881.243958 164.0
887.085205 204.0
888.431335 108.0
888.484741 168.0
889.9151 68.0
894.671326 68.0
895.719421 148.0
900.252258 136.0
900.951111 108.0
901.566528 192.0
902.612671 168.0
902.702332 40.0
908.93219 140.0
909.160217 100.0
909.640381 100.0
912.181335 40.0
915.833801 212.0
917.213623 176.0
917.533142 172.0
920.65271 140.0
921.190247 224.0
922.882446 96.0
925.647705 140.0
927.331909 188.0
928.417114 152.0
931.348572 212.0
931.500427 48.0
931.980347 124.0
936.293335 180.0
936.768433 176.0
937.085205 128.0
937.664124 176.0
941.61145 92.0
941.880188 148.0
942.540039 152.0
942.955566 180.0
943.713562 140.0
944.337341 92.0
945.683411 128.0
946.136353 188.0
948.182251 60.0
949.647583 200.0
950.991272 156.0
952.059509 244.0
952.573059 256.0
954.204041 44.0
956.264771 140.0
956.412476 128.0
956.566345 152.0
958.623474 196.0
960.577942 172.0
961.812073 160.0
962.744324 128.0
963.226074 100.0
964.795715 168.0
965.203796 72.0
965.568665 160.0
966.892639 116.0
967.171143 144.0
967.579712 184.0
967.827332 276.0
969.760193 144.0
974.749817 108.0
975.57019 244.0
976.801514 40.0
976.950806 100.0
977.539124 36.0
977.5979 160.0
978.768127 124.0
979.316162 156.0
979.527954 148.0
979.671265 44.0
979.995178 64.0
980.250671 144.0
981.316528 192.0
981.528564 100.0
982.314392 148.0
982.358032 92.0
983.412598 76.0
983.849548 96.0
983.936951 184.0
984.055542 72.0
986.842163 56.0
986.91095 172.0
989.357239 148.0
989.695312 228.0
989.858093 112.0
992.220276 160.0
992.84729 152.0
993.919983 180.0
995.125122 156.0
995.300903 132.0
995.658875 96.0
996.908997 208.0
999.726318 164.0
999.978088 28.0
1000.601257 156.0
1001.174255 244.0
1002.516113 156.0
1002.566528 96.0
1003.436401 220.0
1003.549866 120.0
1004.117371 116.0
1004.357056 164.0
1004.508484 152.0
1005.013184 104.0
1005.202454 156.0
1005.745239 136.0
1006.951172 96.0
1007.982117 168.0
1009.826904 144.0
1010.111511 56.0
1010.804382 156.0
1011.927795 188.0
1012.185974 156.0
1013.302185 128.0
1013.466919 48.0
1016.070251 172.0
1016.554993 36.0
1016.681885 108.0
1016.973877 68.0
1017.957886 148.0
1018.364319 48.0
1018.465942 196.0
1019.145691 124.0
1019.272827 48.0
1019.776794 184.0
1021.867004 140.0
1022.293335 120.0
1022.80249 52.0
1024.241577 116.0
1025.088867 160.0
1025.828247 156.0
1026.791016 164.0
1028.667603 156.0
1029.477783 60.0
1030.25061 108.0
1031.707764 184.0
1031.982666 124.0
1032.027344 124.0
1032.225586 116.0
1034.112793 164.0
1035.450928 148.0
1037.507812 152.0
1038.13623 160.0
1038.905884 156.0
1039.900513 184.0
1040.677246 180.0
1041.113892 60.0
1041.293701 176.0
1041.402832 204.0
1042.257324 148.0
1043.144165 116.0
1044.55896 144.0
1045.787842 44.0
1046.064697 176.0
1046.450928 116.0
1046.998291 176.0
1048.299561 120.0
1049.118164 128.0
1052.427856 152.0
1052.628052 140.0
1052.692627 124.0
1053.816528 152.0
1054.798828 148.0
1055.290161 204.0
1055.387207 176.0
1055.794556 116.0
1056.182617 164.0
1056.751953 112.0
1057.515503 136.0
1057.994507 180.0
1059.302612 156.0
1059.44519 176.0
1059.626587 200.0
1060.488403 128.0
1060.592163 212.0
1060.838501 192.0
1061.110718 164.0
1061.208008 72.0
1061.331177 164.0
1062.783569 128.0
1063.807495 132.0
1064.393921 224.0
1065.075806 156.0
1065.21875 100.0
1065.342163 80.0
1065.524048 160.0
1065.602051 100.0
1066.024292 72.0
1066.53125 244.0
1066.693848 124.0
1067.239868 216.0
1068.495117 268.0
1068.612305 128.0
1068.911621 120.0
1069.321533 164.0
1069.529907 104.0
1069.60144 164.0
1070.245972 204.0
1070.311035 176.0
1070.38916 164.0
1072.056885 236.0
1073.07373 188.0
1073.243286 64.0
1073.484497 84.0
1074.136719 132.0
1074.46936 104.0
1075.356812 148.0
1077.675049 164.0
1078.210938 140.0
1078.936523 156.0
1079.276489 124.0
1079.740723 224.0
1079.99585 180.0
1080.434082 196.0
1080.748169 184.0
1080.89209 220.0
1080.970703 128.0
1081.775635 228.0
1082.175049 188.0
1082.338745 132.0
1085.772583 228.0
1086.487549 136.0
1087.294556 60.0
1087.747437 220.0
1089.297241 72.0
1089.369507 136.0
1089.566528 100.0
1090.440552 148.0
1091.420044 152.0
1091.551514 140.0
1092.886841 160.0
1094.446777 180.0
1094.519165 204.0
1094.637695 204.0
1094.782593 196.0
1095.309448 124.0
1096.818481 156.0
1096.963501 64.0
1097.088745 252.0
1097.484253 144.0
1097.945923 116.0
1098.579102 204.0
1098.803345 188.0
1099.700806 76.0
1099.997803 148.0
1100.143066 108.0
1100.69104 356.0
1101.384521 204.0
1101.57605 116.0
1101.734619 116.0
1102.50769 56.0
1102.553955 108.0
1103.393433 80.0
1104.03479 112.0
1104.213379 116.0
1104.689697 128.0
1104.815308 68.0
1105.768188 116.0
1106.158691 176.0
1106.21167 132.0
1106.641968 168.0
1106.93335 44.0
1108.43042 112.0
1108.589355 180.0
1109.88208 160.0
1110.074341 144.0
1110.899048 248.0
1111.13562 44.0
1112.097778 100.0
1113.598267 136.0
1113.651489 144.0
1113.711182 164.0
1114.309082 116.0
1115.359131 160.0
1115.671509 196.0
1116.509277 124.0
1117.879761 164.0
1118.125977 120.0
1118.848633 148.0
1119.377563 96.0
1120.389893 132.0
1120.56311 132.0
1120.636475 40.0
1121.742676 112.0
1122.209717 152.0
1122.496094 116.0
1122.656128 180.0
1122.936279 184.0
1123.223022 124.0
1123.516602 140.0
1124.036987 96.0
1125.472168 60.0
1125.939575 140.0
1126.220093 164.0
1127.449463 136.0
1127.810303 352.0
1127.910522 212.0
1128.124512 196.0
1128.706177 136.0
1129.548828 208.0
1130.619385 192.0
1130.873657 200.0
1130.978149 240.0
1131.087891 144.0
1131.267212 92.0
1131.322144 164.0
1131.670288 196.0
1131.730591 128.0
1132.413574 64.0
1132.487305 184.0
1132.547607 160.0
1132.735107 144.0
1133.284424 152.0
1134.001465 192.0
1134.309814 164.0
1134.76709 156.0
1135.121094 140.0
1135.235107 76.0
1136.375366 104.0
1136.482788 168.0
1136.657227 116.0
1136.831665 224.0
1137.442383 28.0
1138.254761 168.0
1138.697998 116.0
1138.939819 200.0
1139.27356 172.0
1139.745972 128.0
1140.707031 48.0
1141.850098 136.0
1142.045166 148.0
1142.172974 160.0
1142.307495 208.0
1142.845703 192.0
1143.155273 124.0
1143.431152 100.0
1144.380249 212.0
1144.481323 156.0
1144.851685 144.0
1145.831665 132.0
1146.32019 200.0
1146.387573 120.0
1146.630249 176.0
1147.621094 160.0
1148.221313 164.0
1148.450562 140.0
1148.666504 44.0
1148.747437 136.0
1149.246704 208.0
1151.17041 224.0
1151.305542 252.0
1152.062012 156.0
1152.136353 144.0
1152.588989 196.0
1152.66333 148.0
1153.068726 140.0
1153.298584 100.0
1155.015991 168.0
1155.875244 52.0
1156.085083 204.0
1156.15271 184.0
1156.484375 132.0
1156.769653 204.0
1157.64209 92.0
1158.346436 108.0
1159.084839 160.0
1159.281372 104.0
1159.892456 176.0
1160.338745 184.0
1160.86084 212.0
1161.071167 192.0
1161.152466 136.0
1161.467407 228.0
1162.59082 184.0
1162.787598 116.0
1163.140503 184.0
1164.206421 164.0
1164.403442 124.0
1165.02832 172.0
1165.422363 140.0
1166.217529 192.0
1166.319458 100.0
1166.367065 56.0
1167.509277 60.0
1167.883301 160.0
1167.930908 124.0
1168.291504 192.0
1168.699707 132.0
1168.869751 260.0
1169.053467 176.0
1169.659302 220.0
1169.754517 124.0
1170.353638 120.0
1171.974731 196.0
1172.097412 144.0
1172.274536 136.0
1172.465332 52.0
1172.519897 204.0
1173.003784 144.0
1173.194702 116.0
1174.694946 196.0
1174.831421 208.0
1174.947388 136.0
1175.26123 176.0
1175.581909 160.0
1176.462402 164.0
1176.557983 116.0
1176.940308 116.0
1177.548096 136.0
1177.821289 204.0
1178.019409 160.0
1178.702637 180.0
1179.611572 72.0
1180.363647 176.0
1181.273315 196.0
1181.854858 64.0
1182.190063 184.0
1183.093628 204.0
1183.201294 236.0
1183.75769 188.0
1185.508423 172.0
1185.710205 228.0
1186.073486 168.0
1186.258545 100.0
1186.354492 108.0
1186.807007 156.0
1187.033203 152.0
1187.08667 164.0
1187.211548 152.0
1187.602539 136.0
1187.760254 168.0
1187.99353 240.0
1188.192383 176.0
1188.302246 220.0
1188.357056 164.0
1188.700195 120.0
1189.002075 228.0
1189.098145 148.0
1189.393311 140.0
1189.885132 120.0
1190.052368 192.0
1190.62915 124.0
1192.179443 184.0
1192.429199 196.0
1192.656006 152.0
1193.089111 236.0
1193.219727 132.0
1193.357178 184.0
1193.707886 176.0
1193.838501 156.0
1194.7052 200.0
1194.828979 112.0
1194.952881 168.0
1195.021729 112.0
1195.269409 152.0
1195.372559 160.0
1195.496216 224.0
1195.585938 136.0
1195.991943 128.0
1196.164062 88.0
1196.597778 128.0
1197.231323 156.0
1197.437866 176.0
1197.568726 172.0
1197.644531 64.0
1197.720337 128.0
1198.257568 180.0
1198.684814 220.0
1198.960449 144.0
1199.213623 216.0
1199.808228 152.0
1200.242676 196.0
1200.304688 104.0
1200.66333 128.0
1200.842651 204.0
1201.829102 148.0
1201.960205 176.0
1202.236206 108.0
1202.360474 176.0
1202.429443 76.0
1202.802124 208.0
1203.354492 216.0
1203.451172 332.0
1203.761841 412.0
1203.934448 224.0
1204.134766 80.0
1204.376465 208.0
1204.528442 180.0
1204.694214 128.0
1205.336792 148.0
1205.385132 124.0
1205.647705 184.0
1205.730713 92.0
1206.145386 52.0
1207.092529 144.0
1207.75647 192.0
1207.860229 184.0
1208.074707 148.0
1208.199219 52.0
1208.316772 212.0
1210.289429 220.0
1210.808716 184.0
1210.864136 52.0
1211.549927 120.0
1212.540771 72.0
1213.220093 48.0
1213.608276 120.0
1214.059082 132.0
1214.343384 260.0
1214.772339 120.0
1215.696289 96.0
1216.022461 196.0
1216.688843 124.0
1217.904053 148.0
1218.313843 84.0
1218.390259 188.0
1219.654175 180.0
1219.835693 192.0
1219.919189 136.0
1220.065186 144.0
1220.329346 212.0
1220.871704 168.0
1221.358521 188.0
1221.414185 196.0
1221.503418 204.0
1221.713379 156.0
1221.769043 52.0
1221.935913 180.0
1222.165527 156.0
1222.473145 196.0
1222.604004 116.0
1223.237305 136.0
1223.87085 80.0
1224.769287 56.0
1225.145386 156.0
1226.336914 140.0
1227.014404 156.0
1227.410522 80.0
1227.459351 76.0
1227.954468 48.0
1228.158447 172.0
1228.512573 144.0
1228.805542 180.0
1229.517334 160.0
1230.019775 152.0
1230.487549 100.0
1230.83667 120.0
1231.681641 164.0
1231.856323 168.0
1232.031006 116.0
1232.079834 112.0
1232.184692 184.0
1232.508667 140.0
1232.743652 144.0
1232.890381 332.0
1233.652222 172.0
1233.792114 184.0
1233.910889 112.0
1233.966919 84.0
1234.323486 156.0
1234.421387 160.0
1234.666138 144.0
1234.791992 244.0
1234.861938 188.0
1235.099731 192.0
1235.274658 156.0
1235.652344 128.0
1235.953247 200.0
1236.114258 120.0
1236.471069 168.0
1237.003052 56.0
1237.199097 124.0
1237.290039 76.0
1238.01123 204.0
1238.61731 144.0
1238.669678 152.0
1238.739746 112.0
1238.788696 84.0
1239.671509 164.0
1239.944824 180.0
1240.049927 64.0
1240.60376 156.0
1240.750977 220.0
1241.038452 148.0
1241.360962 112.0
1241.452148 196.0
1241.711548 160.0
1242.427124 124.0
1242.490234 156.0
1242.703125 204.0
1242.918213 136.0
1243.137451 160.0
1243.612915 188.0
1243.796265 152.0
1244.263184 148.0
1244.792358 48.0
1244.996094 160.0
1245.080322 132.0
1245.600098 156.0
1245.740601 144.0
1245.98645 184.0
1246.190186 252.0
1246.604736 156.0
1246.885864 164.0
1247.040527 212.0
1247.666138 56.0
1247.757568 160.0
1247.884033 352.0
1248.284912 140.0
1248.826416 144.0
1249.135864 192.0
1249.199219 164.0
1249.438354 172.0
1249.522827 152.0
1249.783081 136.0
1249.832397 148.0
1250.029419 136.0
1250.212402 140.0
1250.68396 164.0
1250.817627 128.0
1250.951416 192.0
1251.162598 128.0
1251.492798 192.0
1251.634277 88.0
1252.289307 200.0
1252.669556 112.0
1252.768188 152.0
1252.859863 92.0
1252.90918 200.0
1253.453247 120.0
1253.508057 176.0
1253.88147 196.0
1254.001343 200.0
1254.35376 140.0
1254.544067 180.0
1254.593506 136.0
1254.755615 156.0
1254.819092 164.0
1254.868408 72.0
1254.945923 92.0
1255.02356 92.0
1255.074707 152.0
1255.143433 196.0
1255.277344 124.0
1255.432495 204.0
1255.503052 40.0
1255.630005 120.0
1255.72876 152.0
1256.292969 224.0
1256.370605 148.0
1256.747192 152.0
1257.12561 128.0
1257.937256 160.0
1258.068359 296.0
1258.171631 160.0
1258.35376 176.0
1258.60791 156.0
1258.709229 132.0
1258.777466 136.0
1259.60376 232.0
1260.048828 124.0
1260.40918 156.0
1260.465698 172.0
1260.594604 232.0
1261.688477 152.0
1262.638672 112.0
1262.682861 120.0
1262.77356 204.0
1263.053223 204.0
1263.099243 124.0
1263.336182 152.0
1263.644775 176.0
1263.77478 52.0
1264.220581 136.0
1264.836304 112.0
1265.225708 176.0
1265.590698 252.0
1266.302002 220.0
1266.358643 116.0
1267.038696 116.0
1268.328491 124.0
1268.611938 104.0
1268.980591 52.0
1269.973389 176.0
1270.023071 80.0
1270.171997 112.0
1270.257202 192.0
1270.313965 160.0
1270.505493 92.0
1270.633179 240.0
1270.838867 168.0
1271.172363 160.0
1271.229126 136.0
1271.303711 40.0
1271.69751 116.0
1272.009888 132.0
1272.06665 160.0
1272.2229 176.0
1272.329346 128.0
1272.457153 232.0
1273.415771 112.0
1273.827759 116.0
1274.005371 172.0
1274.275269 148.0
1274.445801 248.0
1274.578979 168.0
1274.808228 128.0
1275.12439 204.0
1275.177734 128.0
1275.369629 128.0
1275.469238 120.0
1275.526001 196.0
1275.661133 196.0
1275.88147 180.0
1276.677856 112.0
1276.784546 184.0
1276.94812 104.0
1277.339355 104.0
1278.121948 164.0
1278.200195 152.0
1278.363892 152.0
1278.755249 144.0
1279.104004 112.0
1279.474243 140.0
1279.666382 128.0
1279.723389 140.0
1280.271729 36.0
1280.606445 132.0
1280.862793 172.0
1281.675049 208.0
1281.78186 192.0
1282.394775 156.0
1282.466064 164.0
1282.815308 120.0
1282.893677 132.0
1283.150391 164.0
1283.599609 120.0
1283.948975 124.0
1284.327026 116.0
1285.275879 128.0
1286.710449 132.0
1287.046021 136.0
1287.345947 120.0
1287.788696 156.0
1288.024414 232.0
1288.397461 188.0
1288.481689 52.0
1288.595947 188.0
1288.653076 84.0
1288.924561 192.0
1289.560669 68.0
1289.932373 156.0
1290.158325 200.0
1290.482788 176.0
1290.811768 128.0
1291.240845 56.0
1291.290894 100.0
1291.584106 92.0
1291.738525 108.0
1291.906006 112.0
1292.041992 160.0
1292.399658 100.0
1292.464111 180.0
1292.635864 40.0
1292.964966 124.0
1293.093872 124.0
1293.294189 144.0
1293.637817 144.0
1293.759521 92.0
1293.884766 96.0
1294.282227 180.0
1294.50415 160.0
1294.905151 40.0
1295.091431 200.0
1295.198853 108.0
1295.771973 124.0
1296.018311 96.0
1296.73938 84.0
1297.054688 40.0
1297.241089 144.0
1297.406006 144.0
1297.491943 204.0
1298.092041 184.0
1298.53894 184.0
1298.625 104.0
1298.728516 176.0
1298.797119 176.0
1299.320801 44.0
1299.49292 200.0
1300.37561 152.0
1300.971436 176.0
1301.44519 136.0
1301.545776 164.0
1302.069946 212.0
1302.342896 112.0
1303.133179 164.0
1303.391846 164.0
1303.533936 232.0
1304.311646 144.0
1304.757446 140.0
1305.533936 104.0
1306.000488 144.0
1306.073364 72.0
1306.16687 172.0
1306.303589 196.0
1306.353882 220.0
1306.45459 172.0
1306.720825 164.0
1306.88623 136.0
1307.102173 148.0
1307.433228 180.0
1308.217773 128.0
1308.5271 128.0
1308.786499 108.0
1308.930542 152.0
1309.160889 128.0
1309.43457 168.0
1310.140503 108.0
1310.464722 184.0
1310.659302 144.0
1310.88269 208.0
1311.075928 188.0
1311.322266 176.0
1311.495239 120.0
1311.697021 128.0
1311.970947 92.0
1312.353149 64.0
1312.663086 40.0
1312.872314 180.0
1313.002075 60.0
1314.112915 152.0
1314.170654 196.0
1314.228394 140.0
1314.790527 188.0
1314.935547 176.0
1315.027832 116.0
1315.823486 104.0
1315.924561 124.0
1316.314453 68.0
1316.596069 176.0
1317.017212 204.0
1317.657959 120.0
1317.708496 64.0
1318.380493 256.0
1319.132202 208.0
1319.229492 64.0
1319.327393 164.0
1319.753906 108.0
1319.804565 116.0
1319.941895 260.0
1320.014282 152.0
1320.115479 172.0
1320.202271 220.0
1320.563843 136.0
1320.744629 80.0
1320.88208 204.0
1321.207642 120.0
1321.41748 180.0
1321.597412 224.0
1322.001953 176.0
1322.835938 116.0
1322.980713 132.0
1323.378906 172.0
1323.762573 140.0
1323.871216 68.0
1324.204346 200.0
1324.631714 188.0
1324.922607 180.0
1324.994019 140.0
1325.146118 152.0
1325.298218 204.0
1325.747559 120.0
1325.892456 164.0
1326.102661 148.0
1326.18335 196.0
1326.239746 204.0
1326.530273 188.0
1326.588257 212.0
1326.842041 124.0
1327.2771 180.0
1327.335083 148.0
1327.465576 160.0
1327.646851 208.0
1327.699585 128.0
1327.806396 172.0
1327.987793 104.0
1328.328613 88.0
1328.77124 96.0
1328.91626 156.0
1329.061401 56.0
1329.17749 164.0
1329.685547 88.0
1329.837891 220.0
1329.983032 48.0
1330.331543 128.0
1330.44043 144.0
1330.658203 172.0
1330.892944 200.0
1331.340698 108.0
1331.507812 352.0
1331.565918 192.0
1332.517456 48.0
1332.633667 124.0
1332.859009 152.0
1333.171387 184.0
1333.360352 176.0
1333.418579 172.0
1333.702026 136.0
1333.869141 144.0
1333.980591 216.0
1334.203613 144.0
1334.690674 164.0
1334.763428 156.0
1335.497925 152.0
1335.876221 60.0
1335.987061 224.0
1336.647339 184.0
1336.843872 184.0
1336.93042 200.0
1337.200439 260.0
1337.331421 92.0
1338.001343 132.0
1338.073975 188.0
1338.889526 272.0
1339.220215 176.0
1340.37561 44.0
1340.506714 56.0
1341.74585 128.0
1342.00415 196.0
1342.336426 180.0
1342.693726 148.0
1342.941772 140.0
1343.043823 156.0
1343.561768 184.0
1343.649292 184.0
1343.714966 236.0
1344.123535 168.0
1344.218506 52.0
1344.393555 124.0
1345.276733 116.0
1345.583374 136.0
1346.038086 188.0
1346.130981 164.0
1346.371948 52.0
1346.445068 116.0
1346.569214 156.0
1346.890503 196.0
1347.306885 132.0
1347.949951 192.0
1348.022949 92.0
1348.863403 220.0
1349.00061 136.0
1349.126587 148.0
1349.192383 132.0
1349.455566 180.0
1349.536011 164.0
1350.0625 120.0
1350.903687 52.0
1351.181641 188.0
1351.298706 40.0
1351.510864 180.0
1352.579346 128.0
1353.099121 156.0
1353.32605 200.0
1353.457886 116.0
1353.523804 220.0
1353.823975 68.0
1354.131592 68.0
1354.387939 176.0
1354.86853 316.0
1354.987671 228.0
1355.039917 176.0
1355.149902 124.0
1355.362305 128.0
1355.648071 200.0
1356.285767 168.0
1356.432373 144.0
1356.608276 100.0
1356.66687 164.0
1356.740234 32.0
1356.835571 100.0
1357.282837 164.0
1357.434448 180.0
1357.544312 176.0
1358.060181 208.0
1358.353516 124.0
1358.442261 168.0
1358.698364 128.0
1358.830444 124.0
1359.366089 68.0
1359.483398 116.0
1359.997192 192.0
1360.202759 144.0
1360.349487 88.0
1360.591797 184.0
1360.82666 156.0
1361.098389 176.0
1361.193848 64.0
1361.450928 132.0
1361.847412 164.0
1361.942993 172.0
1362.016235 148.0
1362.236816 144.0
1362.552612 192.0
1362.633423 108.0
1362.72168 248.0
1362.927368 184.0
1363.592041 136.0
1363.706299 116.0
1364.081177 164.0
1364.24292 168.0
1364.735474 32.0
1365.095825 140.0
1365.147339 124.0
1365.463501 176.0
1365.912231 176.0
1366.007812 156.0
1366.182251 184.0
1366.203247 232.0
1367.133545 156.0
1367.472046 164.0
1367.692871 184.0
1367.953247 128.0
1368.172607 172.0
1368.392212 104.0
1368.56897 172.0
1368.841431 220.0
1368.915039 164.0
1369.209595 196.0
1369.491821 240.0
1370.065186 176.0
1370.189331 88.0
1370.270264 68.0
1370.550293 88.0
1370.741821 152.0
1370.940796 72.0
1371.007202 188.0
1371.103027 188.0
1371.294556 48.0
1371.442017 136.0
1371.596802 116.0
1371.781128 296.0
1372.19397 44.0
1372.547852 76.0
1372.695312 128.0
1373.145142 76.0
1373.418091 60.0
1373.565552 184.0
1373.80896 244.0
1373.98291 176.0
1374.664917 156.0
1374.982178 80.0
1375.307007 140.0
1375.853271 160.0
1376.185425 104.0
1376.850098 40.0
1376.90918 44.0
1377.049438 188.0
1377.581665 212.0
1377.677368 112.0
1377.73645 140.0
1377.854614 128.0
1377.913696 152.0
1378.024536 184.0
1378.504883 148.0
1378.955688 212.0
1379.169922 156.0
1379.302979 240.0
1379.583862 100.0
1379.931396 220.0
1380.463745 160.0
1381.018433 84.0
1381.292114 132.0
1381.388306 184.0
1381.536255 228.0
1381.647217 136.0
1381.913574 124.0
1382.320557 140.0
1382.994019 124.0
1383.097656 152.0
1383.260498 140.0
1383.497314 128.0
1383.638062 160.0
1384.069336 236.0
1384.289551 132.0
1384.371094 156.0
1384.76355 196.0
1384.875244 184.0
1385.007935 44.0
1385.082031 72.0
1385.519165 212.0
1385.676636 172.0
1386.267456 212.0
1386.319336 144.0
1386.801025 196.0
1387.067017 188.0
1387.490479 152.0
1387.542358 140.0
1387.616943 136.0
1388.29126 156.0
1388.554932 100.0
1388.76001 176.0
1388.847534 192.0
1389.003296 188.0
1389.188721 240.0
1389.337036 144.0
1389.403809 176.0
1389.608276 160.0
1389.767334 144.0
1390.190308 52.0
1390.294189 48.0
1390.429199 128.0
1390.887939 112.0
1390.969604 44.0
1391.207153 104.0
1391.385376 100.0
1391.556152 212.0
1392.113037 116.0
1392.209595 160.0
1392.276367 164.0
1392.610596 128.0
1393.137939 160.0
1393.286621 120.0
1393.442993 176.0
1393.502075 80.0
1394.19519 180.0
1394.318481 180.0
1394.534912 128.0
1394.824829 144.0
1395.241089 116.0
1395.48645 176.0
1395.612915 128.0
1395.746704 168.0
1396.051636 132.0
1396.34375 124.0
1396.624268 308.0
1396.698608 120.0
1396.83252 132.0
1396.98877 148.0
1397.078003 180.0
1397.174683 220.0
1397.293823 116.0
1398.231323 168.0
1398.479614 188.0
1398.834229 144.0
1399.012939 172.0
1399.07251 128.0
1399.177734 148.0
1399.422363 152.0
1399.534058 108.0
1399.95105 160.0
1400.815063 52.0
1401.142822 208.0
1401.35144 140.0
1401.612183 104.0
1401.738892 44.0
1401.805908 100.0
1401.940063 152.0
1402.208374 132.0
1402.312744 136.0
1402.513916 168.0
1402.92395 40.0
1403.072998 132.0
1403.480713 140.0
1403.684448 64.0
1403.855957 144.0
1404.296021 188.0
1404.467896 156.0
1404.59436 128.0
1404.687134 328.0
1404.947144 172.0
1405.019531 116.0
1405.176147 140.0
1405.609009 32.0
1405.92981 296.0
1406.176147 88.0
1406.310425 156.0
1406.414917 176.0
1406.526978 120.0
1407.146484 112.0
1407.348145 124.0
1407.512451 180.0
1407.564697 204.0
1408.251709 124.0
1408.36377 104.0
1408.498169 44.0
1408.67749 156.0
1409.028564 156.0
1409.305054 164.0
1409.432007 204.0
1409.522583 176.0
1409.596436 188.0
1409.910278 100.0
1410.119629 140.0
1410.313965 184.0
1410.373657 168.0
1410.605469 164.0
1411.016602 84.0
1411.380493 136.0
1411.584839 108.0
1412.048462 148.0
1412.287842 192.0
1412.41272 212.0
1412.699219 212.0
1412.759155 160.0
1412.901245 120.0
1413.312744 172.0
1413.671875 168.0
1413.779053 176.0
1414.008667 152.0
1414.07605 172.0
1414.293091 212.0
1414.36792 152.0
1414.424194 148.0
1414.8396 108.0
1414.906982 48.0
1415.064209 120.0
1415.258789 248.0
1415.505981 216.0
1415.55835 156.0
1415.745605 164.0
1416.487061 216.0
1416.621826 204.0
1416.973145 176.0
1417.318604 104.0
1417.592407 68.0
1417.89563 168.0
1418.00061 120.0
1419.080078 176.0
1419.275024 164.0
1419.544678 144.0
1419.837402 176.0
1419.897339 140.0
1420.272339 160.0
1420.347412 84.0
1420.422363 380.0
1420.737427 200.0
1421.022583 164.0
1421.292725 124.0
1422.200684 128.0
1422.291016 192.0
1422.433472 104.0
1422.748779 156.0
1422.903931 200.0
1423.266724 164.0
1423.814941 164.0
1424.062744 216.0
1424.42334 188.0
1424.543579 28.0
1424.902344 188.0
1425.038208 216.0
1425.065796 184.0
1425.182129 144.0
1425.460205 176.0
1426.647705 80.0
1426.733276 52.0
1426.955933 128.0
1427.098755 168.0
1427.313232 176.0
1427.489746 196.0
1427.745483 148.0
1428.023682 148.0
1428.136597 80.0
1428.264404 184.0
1428.422363 148.0
1428.900879 108.0
1429.12207 84.0
1429.561523 148.0
1429.701416 152.0
1429.904663 192.0
1430.23584 116.0
1430.378784 232.0
1430.779053 176.0
1431.252197 48.0
1431.357544 124.0
1431.410278 152.0
1431.478027 200.0
1431.553345 208.0
1431.85498 480.0
1432.030029 164.0
1432.118164 44.0
1432.216064 180.0
1432.374268 160.0
1432.698242 32.0
1432.750977 112.0
1433.436523 40.0
1433.979126 180.0
1434.114868 140.0
1434.792236 208.0
1434.936523 224.0
1435.395142 164.0
1435.600098 176.0
1435.973145 208.0
1436.029907 156.0
1436.233643 176.0
1436.354248 116.0
1436.497559 136.0
1437.131348 88.0
1437.244507 272.0
1437.350098 116.0
1437.463379 112.0
1437.516113 180.0
1437.719849 204.0
1437.863281 220.0
1438.006714 160.0
1438.218018 120.0
1438.331299 92.0
1438.633179 124.0
1438.852173 96.0
1439.252319 188.0
1439.544922 164.0
1439.750732 200.0
1439.803589 168.0
1439.947021 148.0
1440.214478 208.0
1440.401489 124.0
1440.702393 132.0
1440.845947 132.0
1441.053711 104.0
1441.624146 160.0
1441.805542 140.0
1442.017212 164.0
1442.138062 140.0
1442.284668 132.0
1442.538696 192.0
1442.878906 204.0
1442.977173 108.0
1443.200439 228.0
1443.33252 220.0
1443.642578 184.0
1444.482178 152.0
1444.578247 168.0
1445.246216 204.0
1445.368652 172.0
1445.745605 140.0
1446.161865 136.0
1446.252686 80.0
1446.918945 132.0
1447.623047 140.0
1447.827515 164.0
1448.312256 88.0
1448.410767 156.0
1448.478882 156.0
1448.766724 160.0
1448.98645 216.0
1449.228882 172.0
1449.463745 88.0
1449.895752 176.0
1450.100342 132.0
1450.359741 148.0
1450.456665 236.0
1451.032715 160.0
1451.160889 156.0
1451.33606 52.0
1451.813721 160.0
1452.006348 184.0
1452.693604 144.0
1452.868042 152.0
1453.308105 176.0
1453.356689 172.0
1453.687744 160.0
1453.915161 240.0
1454.21875 156.0
1454.560303 100.0
1454.780396 144.0
1455.076538 192.0
1455.141113 116.0
1455.319458 176.0
1455.387817 72.0
1455.516846 188.0
1455.570068 124.0
1455.706787 112.0
1455.790283 68.0
1455.866211 148.0
1456.093994 140.0
1456.367432 72.0
1456.473755 100.0
1456.800415 124.0
1457.119507 44.0
1457.241089 136.0
1457.552612 176.0
1457.674194 204.0
1457.788208 120.0
1457.962891 196.0
1458.049683 160.0
1458.251709 92.0
1459.080322 144.0
1459.148682 140.0
1459.483276 124.0
1459.59729 264.0
1459.882446 184.0
1460.091675 156.0
1460.738159 232.0
1460.993408 156.0
1461.841309 168.0
1461.902222 148.0
1462.145752 200.0
1462.461426 176.0
1462.672729 208.0
1462.777466 108.0
1462.952515 64.0
1463.165771 204.0
1463.249512 196.0
1463.310425 216.0
1463.729126 192.0
1464.093628 140.0
1464.292725 192.0
1464.780151 144.0
1464.924927 120.0
1465.130615 128.0
1465.321045 204.0
1465.412476 176.0
1465.477783 356.0
1465.845703 220.0
1466.441284 116.0
1466.555542 116.0
1466.692749 168.0
1467.112061 136.0
1467.264526 148.0
1467.554199 232.0
1467.645752 272.0
1468.011719 184.0
1468.431152 124.0
1468.598999 208.0
1469.033691 128.0
1469.186279 172.0
1469.514404 116.0
1469.651733 192.0
1470.453003 152.0
1470.575073 100.0
1470.746216 192.0
1470.872803 192.0
1471.57666 172.0
1471.771973 180.0
1471.987427 84.0
1472.155396 136.0
1473.209473 136.0
1473.310425 168.0
1473.530273 180.0
1473.637329 208.0
1473.752075 200.0
1473.935303 208.0
1474.011719 52.0
1474.065186 320.0
1474.294434 100.0
1474.416748 72.0
1474.584839 148.0
1474.803589 268.0
1475.165771 120.0
1475.318604 108.0
1475.372192 104.0
1475.43335 132.0
1475.785034 132.0
1475.876709 188.0
1475.989258 156.0
1476.078003 184.0
1476.251465 208.0
1476.840332 96.0
1476.970337 176.0
1477.153931 108.0
1477.283936 140.0
1477.544067 160.0
1477.612915 128.0
1477.720093 84.0
1477.78894 148.0
1478.366577 244.0
1478.600098 132.0
1478.722534 188.0
1478.944458 56.0
1479.472656 100.0
1479.656372 144.0
1479.87854 272.0
1479.993286 40.0
1480.184692 92.0
1480.276611 208.0
1480.36084 156.0
1480.414429 44.0
1480.797363 84.0
1481.310547 144.0
1481.497681 208.0
1481.724243 168.0
1482.674316 212.0
1482.858276 176.0
1483.080566 220.0
1483.141846 184.0
1483.264526 136.0
1483.379517 180.0
1484.18457 168.0
1484.39917 224.0
1484.468262 176.0
1484.682983 44.0
1484.744263 88.0
1484.851685 188.0
1485.143066 48.0
1485.25415 132.0
1485.31958 120.0
1485.411621 140.0
1485.473999 148.0
1485.672363 160.0
1486.299438 204.0
1486.662231 168.0
1486.969238 204.0
1487.072388 136.0
1487.475708 172.0
1487.859619 212.0
1487.922119 228.0
1488.727295 104.0
1489.154175 244.0
1489.779541 36.0
1489.845215 264.0
1489.959351 188.0
1491.131836 164.0
1491.534302 180.0
1491.769775 160.0
1492.046631 84.0
1492.131104 128.0
1492.231079 164.0
1492.284912 168.0
1492.677002 240.0
1492.769287 192.0
1493.069214 120.0
1493.223022 216.0
1493.725342 136.0
1494.50769 144.0
1494.730713 152.0
1495.192627 132.0
1495.508179 384.0
1495.578003 112.0
1495.785645 160.0
1496.131714 236.0
1496.439575 136.0
1496.693726 140.0
1496.757568 160.0
1497.071045 152.0
1497.379028 216.0
1497.51001 140.0
1497.72998 136.0
1497.967651 156.0
1498.018433 156.0
1498.365112 164.0
1498.511475 136.0
1498.750244 192.0
1499.004517 156.0
1499.191284 188.0
1499.466919 184.0
1499.659668 120.0
1499.998779 312.0
1500.160645 184.0
1500.260864 108.0
1500.314819 200.0
1500.599609 188.0
1500.808228 120.0
1500.91626 140.0
1500.970215 236.0
1501.464111 196.0
1501.664307 168.0
1501.764526 112.0
1501.826294 164.0
1501.965088 164.0
1502.308716 124.0
1502.524414 132.0
1502.602417 128.0
1502.667114 156.0
1502.883057 172.0
1502.952515 200.0
1503.045166 180.0
1503.130005 156.0
1503.259644 176.0
1503.35376 36.0
1504.276855 156.0
