>compound MLS001140329-01!
>formula C30H34N4O4
>ionization [M+H]+
>parentmass 515.266
#inchi InChI=1S/C30H34N4O4/c1-17(2)14-24(28(35)31-16-18-8-7-13-38-18)33-29(36)25-15-22-19-9-5-6-12-23(19)32-26(22)27-20-10-3-4-11-21(20)30(37)34(25)27/h3-6,9-12,17-18,24-25,27,32H,7-8,13-16H2,1-2H3,(H,31,35)(H,33,36)/t18?,24-,25-,27?/m0/s1
#inchikey KRFNIBVBZRNIBR
#Ion_Source LC-ESI
#Instrument qTof
#Compound_Source NIH Natural Product Library
#PI Dorrestein
#Data_Collector VVP/LMS
#Scan -1
#Precursor_MZ 515.266
#ExactMass 514.258
#Charge 1
#CAS_Number N/A
#Pubmed_ID N/A
#Smiles CC(C)C[C@H](NC(=O)[C@@H]1Cc2c([nH]c3ccccc23)C4N1C(=O)c5ccccc45)C(=O)NCC6CCCO6
#INCHI_AUX N/A
#Library_Class 1
#SpectrumID CCMSLIB00000079660
#IonMode Positive
#UpdateWorkflowName UPDATE-SINGLE-ANNOTATED-GOLD
#LibraryQualityString Gold
#TaskID b1d8e8f6646f4e71acdff9ca3d919d08
##Scan# 2181
#SpectrumFile p1-E09_GE9_01_17929.mzXML
#LibraryName NIH_Natural_Products_Library.mgf
#MQScore -1
#Organism NIH_Natural_Products_Library
#TIC_Query 0
#RT_Query -1
#MZErrorPPM -1
#SharedPeaks 0
#MassDiff 0
#LibMZ -1
#SpecMZ 515.266
#SpecCharge 0
#internalFilename spec-00000.mgf

>collision 10
94.984077 164.0
95.251945 136.0
95.286911 144.0
95.37825 144.0
95.621368 180.0
95.823883 108.0
96.172943 128.0
96.186607 164.0
96.426842 200.0
96.519897 140.0
96.773079 144.0
97.131706 104.0
97.237663 148.0
97.369202 104.0
97.510651 96.0
97.693512 68.0
97.884422 244.0
98.099174 128.0
98.21946 112.0
98.410881 184.0
98.592613 252.0
98.610397 172.0
98.770554 104.0
98.909058 176.0
98.958549 112.0
99.107101 176.0
99.388649 164.0
99.762032 152.0
100.018959 244.0
100.066406 84.0
100.126144 164.0
101.202461 136.0
101.222481 184.0
101.264534 144.0
101.368355 112.0
101.468925 136.0
101.486969 224.0
101.569191 200.0
101.651451 52.0
101.741768 148.0
101.818069 56.0
101.928551 28.0
102.090775 4036.0
102.145683 104.0
102.242256 104.0
102.570549 172.0
102.594742 56.0
102.652748 112.0
103.010445 148.0
103.094208 560.0
103.483757 88.0
103.542389 188.0
103.558594 184.0
103.58815 156.0
103.649757 128.0
103.678123 144.0
103.781502 188.0
103.923485 64.0
103.964066 100.0
104.193504 160.0
104.57579 60.0
104.777382 156.0
104.9282 168.0
104.997528 76.0
105.258728 152.0
105.41806 56.0
105.530479 140.0
105.70639 40.0
105.888588 132.0
106.021751 196.0
106.202164 212.0
106.228836 192.0
106.429558 184.0
106.534698 196.0
107.042709 312.0
107.207504 128.0
107.395119 80.0
107.589081 60.0
107.832825 164.0
107.865891 112.0
107.894836 88.0
108.054077 144.0
108.157547 180.0
108.217583 168.0
108.68808 132.0
108.812614 68.0
108.868675 72.0
108.991234 104.0
109.076439 68.0
109.311455 116.0
109.627975 192.0
109.851059 148.0
110.270752 144.0
110.523781 116.0
110.638893 44.0
110.749878 56.0
110.936363 124.0
111.001358 156.0
111.490471 136.0
112.251404 144.0
112.298912 44.0
112.400177 132.0
112.987541 136.0
113.010811 260.0
113.1632 156.0
113.400452 160.0
113.432243 200.0
113.529778 164.0
113.72496 112.0
114.009544 128.0
114.156227 156.0
114.196632 180.0
114.586182 36.0
114.775871 128.0
115.051735 276.0
115.529793 160.0
115.611099 120.0
115.913033 124.0
116.056648 36.0
116.170311 60.0
116.346283 180.0
116.707222 64.0
117.182388 192.0
117.376862 72.0
117.735077 116.0
117.864685 228.0
117.936005 164.0
118.000854 84.0
118.039772 52.0
118.070045 84.0
118.431488 112.0
118.559311 56.0
118.659019 208.0
118.708885 104.0
118.752258 148.0
118.97142 120.0
119.075645 220.0
119.482117 140.0
119.612686 136.0
119.64534 164.0
119.749863 196.0
119.793419 156.0
119.959038 64.0
120.00264 148.0
120.185844 80.0
120.384483 132.0
120.41069 100.0
120.898209 152.0
121.014221 168.0
121.489792 68.0
121.632423 164.0
122.005867 164.0
122.1576 72.0
122.408501 104.0
122.598999 144.0
122.650841 124.0
123.114159 220.0
123.282051 140.0
123.728844 240.0
124.183098 172.0
124.413864 88.0
124.596794 140.0
125.149765 168.0
125.593231 148.0
125.974937 180.0
126.120178 128.0
126.296814 152.0
126.41539 168.0
126.764717 124.0
126.780403 168.0
126.848518 184.0
127.080872 212.0
127.208794 176.0
127.943893 112.0
128.302094 36.0
128.480255 176.0
128.599838 172.0
128.67659 152.0
128.771439 108.0
128.793076 96.0
129.065201 172.0
129.157928 256.0
129.205429 156.0
129.347992 124.0
129.614273 132.0
129.660553 180.0
129.710419 184.0
129.739883 96.0
130.026947 280.0
130.065598 144.0
130.202774 216.0
130.489075 140.0
130.518631 80.0
130.611877 144.0
130.659653 124.0
130.759766 176.0
131.085419 112.0
131.295151 176.0
131.687698 60.0
131.747086 124.0
131.78363 116.0
131.971054 128.0
132.0457 212.0
132.295914 48.0
132.488281 120.0
133.027191 172.0
133.109833 148.0
133.279816 116.0
133.305084 160.0
133.725937 172.0
133.946991 112.0
134.327316 148.0
134.391922 144.0
134.645844 176.0
134.796402 112.0
134.819107 104.0
134.844528 180.0
134.88382 176.0
134.939301 28.0
135.017914 212.0
135.069382 192.0
135.297897 148.0
135.459991 184.0
135.603653 168.0
135.830872 104.0
135.872635 120.0
136.141876 164.0
136.31842 116.0
136.876694 128.0
136.91861 224.0
137.214539 120.0
137.331131 220.0
137.550461 148.0
137.697556 116.0
137.928864 32.0
137.987305 192.0
138.106567 168.0
138.438904 128.0
138.502136 136.0
138.748184 116.0
138.809143 116.0
138.870117 160.0
139.139969 108.0
139.19397 152.0
139.280869 172.0
139.574631 140.0
139.927551 108.0
140.047653 160.0
140.068848 224.0
140.21965 172.0
140.51001 124.0
140.660706 152.0
140.903946 80.0
141.206512 136.0
141.643066 144.0
141.705978 176.0
141.878983 128.0
142.06395 352.0
142.284653 176.0
142.30127 212.0
142.328064 156.0
142.431885 200.0
142.481766 88.0
142.545914 204.0
142.750351 152.0
143.088211 136.0
143.157272 192.0
143.228714 188.0
143.312088 128.0
143.335922 144.0
143.452698 160.0
143.481308 120.0
143.552841 160.0
143.59816 132.0
143.699646 168.0
143.793793 152.0
143.948959 136.0
144.211746 124.0
144.240433 76.0
144.276291 124.0
144.300201 148.0
144.340836 120.0
144.675797 144.0
144.833847 164.0
144.963211 88.0
145.16217 40.0
145.198151 56.0
145.639755 152.0
145.796967 248.0
145.988235 212.0
146.012283 192.0
146.669586 172.0
146.898651 144.0
147.043427 208.0
147.190674 76.0
147.383911 44.0
147.502335 160.0
148.078186 176.0
148.162964 240.0
148.204163 172.0
148.322906 168.0
148.368958 112.0
148.468369 116.0
148.587234 204.0
148.604218 168.0
148.946503 180.0
149.255142 192.0
149.705322 124.0
149.84903 132.0
150.295212 132.0
151.121048 136.0
151.140625 124.0
151.179779 152.0
151.223831 140.0
151.243408 140.0
151.789734 112.0
152.059586 160.0
152.285461 204.0
152.607376 124.0
152.64917 224.0
152.698349 168.0
153.215271 216.0
153.641754 84.0
154.327881 168.0
154.365433 140.0
154.498993 152.0
154.7341 172.0
155.301575 128.0
155.601822 188.0
155.721024 220.0
155.832809 48.0
156.046539 136.0
156.080597 248.0
156.509323 160.0
156.808258 180.0
156.888016 48.0
156.942871 108.0
157.078201 176.0
157.209778 216.0
157.372025 120.0
157.569321 124.0
158.222061 120.0
158.302185 100.0
158.414886 80.0
158.532654 120.0
158.886185 64.0
159.230072 96.0
159.498901 144.0
159.566772 172.0
159.61203 128.0
160.090149 52.0
160.347107 112.0
160.672379 112.0
160.793503 172.0
160.934555 168.0
161.286011 44.0
161.392181 120.0
161.470581 180.0
161.591995 136.0
161.670441 224.0
161.731171 180.0
162.166824 128.0
162.199768 124.0
162.296097 184.0
162.420364 48.0
162.511688 108.0
162.65889 152.0
162.757889 140.0
162.900116 256.0
163.037323 148.0
163.187286 52.0
163.454361 152.0
163.591797 208.0
163.874481 176.0
163.920349 160.0
164.045227 136.0
164.40741 208.0
164.577179 120.0
164.745407 180.0
164.823639 168.0
164.841522 180.0
164.959091 200.0
165.092041 168.0
165.173889 84.0
165.409302 200.0
165.957535 160.0
166.0242 148.0
166.052414 148.0
166.075485 152.0
166.419357 80.0
166.861267 160.0
167.025848 216.0
167.060684 332.0
167.141617 128.0
167.417053 108.0
167.857712 196.0
167.976334 184.0
168.102768 160.0
168.327332 148.0
168.730408 120.0
168.795044 144.0
168.916595 84.0
168.991623 156.0
169.027847 152.0
169.105484 212.0
169.227142 112.0
169.247849 152.0
169.496521 236.0
169.633881 140.0
170.060928 180.0
170.1008 148.0
170.144928 144.0
170.45517 172.0
170.487778 96.0
170.607346 136.0
170.659348 68.0
170.966278 180.0
171.068405 320.0
171.23703 80.0
171.312576 172.0
171.502792 148.0
171.665604 212.0
172.040131 180.0
172.092346 212.0
172.175903 252.0
172.371826 152.0
172.552185 204.0
172.5914 216.0
172.949799 152.0
173.182831 240.0
173.340012 168.0
173.457947 172.0
173.565445 196.0
173.704437 164.0
174.15065 168.0
174.581665 140.0
174.831573 128.0
174.928955 148.0
175.007568 144.0
175.24762 172.0
175.474274 128.0
175.569199 84.0
175.951797 196.0
175.991409 172.0
176.036301 104.0
176.205338 168.0
176.445831 184.0
176.694427 148.0
176.728836 180.0
177.52092 120.0
177.632217 216.0
177.921478 80.0
178.274734 152.0
178.407623 160.0
178.458145 132.0
178.921066 172.0
179.022247 104.0
179.099472 180.0
179.333954 116.0
179.397919 228.0
179.53923 152.0
179.64859 184.0
179.683273 152.0
179.779327 148.0
180.05162 168.0
180.201218 144.0
180.332153 68.0
180.415009 32.0
180.444427 132.0
180.481857 132.0
180.626266 168.0
180.778763 68.0
181.579773 132.0
181.708527 80.0
182.038681 136.0
182.08432 128.0
182.543869 128.0
182.600342 216.0
182.619171 156.0
183.294876 156.0
183.437714 160.0
183.500763 52.0
183.742447 184.0
183.931335 132.0
184.063629 144.0
184.133835 184.0
184.422928 176.0
184.517548 132.0
184.693314 80.0
185.242691 188.0
185.408081 136.0
185.652069 120.0
185.727997 124.0
185.947769 48.0
186.211121 28.0
186.243713 160.0
186.352371 188.0
186.591537 184.0
186.670883 176.0
186.719345 112.0
187.094833 44.0
187.274551 80.0
187.299072 236.0
187.593353 128.0
187.70787 32.0
187.754227 204.0
188.439362 180.0
188.707199 224.0
189.112061 120.0
189.812881 200.0
189.860001 140.0
190.153687 148.0
190.209839 184.0
190.513245 92.0
190.598419 180.0
190.848541 140.0
190.933792 140.0
191.074066 152.0
191.208893 76.0
191.506241 228.0
191.75972 136.0
191.969238 140.0
192.029907 228.0
192.143005 104.0
192.443832 152.0
192.697922 192.0
193.115341 216.0
193.488464 128.0
193.519363 180.0
193.663361 176.0
194.459076 172.0
194.522919 200.0
194.783936 200.0
195.53186 160.0
195.865982 232.0
195.927261 128.0
195.96347 144.0
196.148102 192.0
196.264496 28.0
196.331421 148.0
196.98732 144.0
197.997025 80.0
198.302399 128.0
199.228363 136.0
199.264893 44.0
199.512207 152.0
199.742798 120.0
199.908783 152.0
200.043884 56.0
200.114258 152.0
200.297318 136.0
200.455078 112.0
200.511444 220.0
200.643921 176.0
201.377579 164.0
201.583817 92.0
201.637512 108.0
201.733612 160.0
202.135223 168.0
202.440933 176.0
202.701553 92.0
202.936813 180.0
203.089783 148.0
203.143936 156.0
203.240295 148.0
203.262131 212.0
203.694534 112.0
203.958786 140.0
204.282944 60.0
204.396744 176.0
204.689926 92.0
204.85228 96.0
205.505127 192.0
205.799103 156.0
206.162781 212.0
206.190445 160.0
206.736664 128.0
207.383911 120.0
207.43837 184.0
207.693573 136.0
207.931717 244.0
207.999161 40.0
208.21019 168.0
208.362427 184.0
208.615326 128.0
208.8396 156.0
208.951797 152.0
209.11293 168.0
209.328842 212.0
209.588089 220.0
209.67453 108.0
209.841721 148.0
209.885956 212.0
209.939758 84.0
210.040695 128.0
210.122696 348.0
210.283066 136.0
210.318909 144.0
210.415848 148.0
210.528458 172.0
210.583328 248.0
210.863571 204.0
210.892487 156.0
211.083282 164.0
211.22789 128.0
211.343613 148.0
211.369644 136.0
211.650421 212.0
211.693848 164.0
211.789429 200.0
212.511261 132.0
212.755035 180.0
212.804398 116.0
212.911835 112.0
212.969925 144.0
213.001862 132.0
213.144226 52.0
213.336044 172.0
213.813065 84.0
214.136215 192.0
214.174088 88.0
214.450882 56.0
214.821182 148.0
214.901337 212.0
215.12468 208.0
215.170349 192.0
215.215179 44.0
215.326141 72.0
215.346588 80.0
215.378723 152.0
215.399155 84.0
215.670898 104.0
215.893097 48.0
215.916489 184.0
215.992538 136.0
216.062744 152.0
216.083221 100.0
216.384674 144.0
216.472504 148.0
216.692184 88.0
216.78302 96.0
217.082092 176.0
217.143616 64.0
217.366562 148.0
217.897995 156.0
218.095779 196.0
218.277161 152.0
218.453613 116.0
218.483032 108.0
219.09079 100.0
219.180817 88.0
219.360596 104.0
219.505051 212.0
219.552231 196.0
219.643661 176.0
219.684967 44.0
219.758713 152.0
219.847244 280.0
219.876755 140.0
219.921021 116.0
220.024338 168.0
220.074402 180.0
220.499908 212.0
220.572281 172.0
220.629959 44.0
220.793396 232.0
221.132812 92.0
221.171295 120.0
221.277863 120.0
221.870377 92.0
221.923737 276.0
222.395416 160.0
222.475555 136.0
222.603973 192.0
222.778458 44.0
222.843826 176.0
222.929993 196.0
223.408676 120.0
223.483063 152.0
223.545547 100.0
223.602097 116.0
223.962341 216.0
224.087891 192.0
224.176849 260.0
224.597214 232.0
224.815018 144.0
225.01738 180.0
225.044846 192.0
225.283768 156.0
225.741058 92.0
225.878632 136.0
226.079086 124.0
226.153915 144.0
226.186844 208.0
226.351501 168.0
226.597107 148.0
226.842834 120.0
227.025726 116.0
227.075745 124.0
227.115005 276.0
227.153427 156.0
227.190689 116.0
227.235703 180.0
227.322708 88.0
227.757339 156.0
227.785065 132.0
227.890213 184.0
228.007401 52.0
228.043472 172.0
228.075668 140.0
228.136658 28.0
228.211807 144.0
228.48851 144.0
228.521606 144.0
228.998672 176.0
229.084564 116.0
229.144821 160.0
229.268356 160.0
229.328644 60.0
229.521576 176.0
229.989182 144.0
230.093964 260.0
230.131058 140.0
230.161255 188.0
230.188431 148.0
230.477036 180.0
230.575104 184.0
230.986298 216.0
231.101074 204.0
231.331268 152.0
231.761673 104.0
231.95224 144.0
232.070877 364.0
232.097763 152.0
232.252182 240.0
232.398041 220.0
232.455688 144.0
232.504242 204.0
232.82605 176.0
232.850342 56.0
233.084259 164.0
233.312195 244.0
233.363892 152.0
233.710617 148.0
233.807999 124.0
233.887131 84.0
234.008896 184.0
234.042389 92.0
234.094147 140.0
234.185516 148.0
234.225113 164.0
234.755417 140.0
234.843857 172.0
235.130646 204.0
235.338211 196.0
235.374863 136.0
235.43898 172.0
235.487854 208.0
235.808655 172.0
235.830048 120.0
236.352982 220.0
236.386642 156.0
236.92244 240.0
237.630646 124.0
237.658249 148.0
237.704285 120.0
237.925262 212.0
237.98053 152.0
238.051147 160.0
238.115646 92.0
238.192429 100.0
238.293808 180.0
238.619583 180.0
238.671844 228.0
238.75795 180.0
238.831772 112.0
238.939438 152.0
239.068665 168.0
239.219467 60.0
239.465805 140.0
239.493515 164.0
240.029755 208.0
240.128433 68.0
240.245651 88.0
240.520279 172.0
241.005127 156.0
241.100922 76.0
241.130249 220.0
241.156189 132.0
241.329666 88.0
241.551483 116.0
241.650742 168.0
241.815323 184.0
241.84938 168.0
241.926758 152.0
242.087769 112.0
242.143509 144.0
242.193054 128.0
242.326263 128.0
242.726105 100.0
242.911545 172.0
243.0905 288.0
243.222488 80.0
243.408752 116.0
243.806381 112.0
243.837448 152.0
244.073853 292.0
244.126572 152.0
244.151443 244.0
245.057266 140.0
245.106323 3328.0
245.147614 56.0
245.29657 96.0
245.451004 132.0
245.549774 56.0
245.571609 44.0
245.602173 60.0
245.902328 76.0
245.924164 120.0
246.0923 1096.0
246.164551 36.0
246.186417 184.0
246.3582 156.0
246.448807 200.0
246.810806 200.0
247.020905 212.0
247.095184 320.0
247.317703 136.0
247.37764 168.0
247.646927 132.0
247.9095 228.0
248.088745 216.0
248.508987 144.0
248.549774 176.0
248.675308 80.0
248.822845 48.0
248.860519 232.0
248.973557 88.0
249.592606 60.0
249.724686 156.0
249.819046 88.0
250.275391 232.0
250.580902 60.0
250.785736 224.0
251.631134 124.0
251.713226 188.0
251.924835 180.0
252.04805 160.0
252.395752 176.0
252.449509 64.0
252.6203 156.0
252.860764 84.0
252.987381 136.0
253.057022 124.0
253.12352 112.0
253.164688 40.0
253.354721 140.0
253.842819 152.0
254.058487 172.0
254.196625 164.0
254.84375 176.0
254.984116 156.0
255.02063 188.0
255.092041 2452.0
255.138229 124.0
255.176392 216.0
255.424438 136.0
255.7267 176.0
255.876312 52.0
256.095673 2372.0
256.134247 44.0
256.283997 164.0
256.373199 188.0
256.491119 76.0
256.590027 204.0
256.631409 176.0
256.825928 136.0
257.104095 1228.0
257.336517 148.0
257.533508 180.0
257.620728 216.0
257.659088 212.0
257.796478 152.0
257.873169 52.0
258.103973 292.0
258.295227 84.0
258.362396 124.0
258.457092 180.0
258.643982 308.0
258.811523 172.0
258.986603 140.0
259.085907 212.0
259.111542 232.0
259.278137 108.0
259.393524 124.0
259.835144 176.0
259.887421 32.0
260.028595 96.0
260.096008 96.0
260.298279 124.0
260.47168 176.0
260.548798 188.0
260.731934 80.0
260.940887 108.0
261.09845 112.0
261.413696 184.0
261.448242 164.0
261.722717 92.0
261.846527 232.0
261.925598 176.0
262.038361 156.0
262.482422 144.0
262.566986 256.0
262.647614 140.0
262.947662 200.0
263.257599 168.0
263.742218 156.0
264.036407 112.0
264.207855 160.0
264.592957 148.0
264.686066 176.0
265.007538 188.0
265.082062 112.0
265.21817 108.0
265.334869 160.0
265.594299 124.0
265.727295 120.0
265.76947 224.0
265.873291 208.0
266.116547 200.0
266.175201 152.0
266.262878 112.0
266.392792 120.0
266.857513 192.0
266.98761 152.0
267.338928 88.0
267.514679 176.0
267.75238 140.0
267.830536 48.0
268.837952 196.0
268.932617 164.0
268.975037 148.0
269.115417 148.0
269.273682 156.0
269.507355 128.0
269.628265 116.0
270.072906 128.0
270.09906 152.0
270.197205 56.0
270.419708 116.0
270.540833 48.0
270.756927 100.0
270.855194 184.0
270.980927 176.0
271.085632 9284.0
271.177002 256.0
271.330353 124.0
271.356567 128.0
271.493591 132.0
271.561707 116.0
271.645172 164.0
271.750153 136.0
271.791992 112.0
271.833038 264.0
271.920776 60.0
271.96344 160.0
272.006134 96.0
272.089539 3872.0
272.186249 120.0
272.282745 152.0
272.305786 120.0
272.350891 44.0
272.393585 96.0
272.458862 296.0
272.470062 188.0
272.544708 172.0
272.579529 120.0
272.618652 96.0
272.657349 292.0
272.725494 244.0
272.763275 108.0
272.831024 212.0
272.896149 304.0
272.986328 520.0
273.025574 384.0
273.057159 284.0
273.101929 145576.0
273.172577 420.0
273.179321 276.0
273.210419 192.0
273.275085 344.0
273.302673 172.0
273.34906 248.0
273.372589 172.0
273.416534 96.0
273.457581 80.0
273.487 148.0
273.509552 72.0
273.561127 132.0
273.573456 40.0
273.615326 64.0
273.643097 532.0
273.688446 184.0
273.724518 108.0
273.768524 136.0
273.797058 164.0
273.820374 76.0
273.862305 132.0
273.90863 124.0
273.966003 76.0
273.991974 236.0
274.021301 176.0
274.064514 424.0
274.104279 28432.0
274.165863 116.0
274.199005 228.0
274.245636 124.0
274.285828 336.0
274.342255 72.0
274.368439 92.0
274.40274 76.0
274.446442 156.0
274.473846 132.0
274.503632 92.0
274.565887 48.0
274.602173 52.0
274.647797 48.0
274.694519 184.0
274.737915 128.0
274.844452 116.0
274.869385 32.0
274.911438 80.0
274.945557 144.0
274.980164 136.0
275.046265 140.0
275.104797 5440.0
275.169739 40.0
275.224854 92.0
275.278687 156.0
275.361237 40.0
275.393005 108.0
275.446472 100.0
275.546448 64.0
275.582581 80.0
275.615601 52.0
275.638733 36.0
275.676025 272.0
275.715546 220.0
275.788177 224.0
275.823425 168.0
275.832825 116.0
275.844635 172.0
275.855469 148.0
275.901489 96.0
275.929596 160.0
275.970062 84.0
276.004486 148.0
276.028778 92.0
276.065552 260.0
276.100494 244.0
276.119415 312.0
276.165558 124.0
276.197357 116.0
276.235718 220.0
276.270355 124.0
276.329773 116.0
276.36618 44.0
276.411316 124.0
276.458832 88.0
276.574677 40.0
276.681 96.0
276.707062 84.0
276.746796 80.0
276.783234 96.0
276.889008 140.0
276.944763 124.0
277.073639 88.0
277.107819 172.0
277.165344 120.0
277.226013 72.0
277.329834 104.0
277.366302 84.0
277.442535 56.0
277.525421 44.0
277.750946 104.0
277.916809 100.0
278.041809 120.0
278.079407 40.0
278.132507 192.0
278.285217 48.0
278.398132 96.0
278.69043 128.0
279.129181 84.0
279.30545 120.0
279.518372 64.0
279.90448 52.0
280.2742 100.0
281.22052 84.0
281.862488 120.0
281.899231 132.0
282.226807 56.0
282.865814 96.0
283.013123 112.0
283.073395 120.0
283.284393 80.0
284.09024 180.0
284.859314 88.0
285.095276 284.0
285.587036 72.0
285.849426 96.0
286.087555 276.0
286.148987 72.0
286.741852 52.0
287.035126 72.0
287.08786 176.0
287.129547 140.0
287.652527 32.0
287.740295 96.0
288.743866 64.0
288.799835 88.0
288.845337 96.0
288.879181 40.0
289.251404 64.0
289.51886 136.0
289.688202 52.0
289.722076 76.0
289.800018 36.0
289.932159 32.0
290.166046 40.0
290.386444 112.0
290.634094 92.0
291.106934 108.0
291.52713 152.0
292.336487 40.0
293.457123 96.0
293.613983 44.0
293.689026 76.0
294.101868 128.0
294.590149 80.0
295.109619 176.0
295.944458 168.0
296.101959 120.0
297.332764 36.0
298.150116 56.0
299.037415 164.0
299.077087 744.0
300.088043 96.0
300.615784 156.0
300.660645 48.0
300.760742 108.0
300.850494 72.0
301.096161 3480.0
301.282166 96.0
301.465271 88.0
301.613892 64.0
301.655365 52.0
301.880096 32.0
302.039185 88.0
302.100128 1336.0
302.610199 100.0
303.073334 84.0
303.102661 248.0
303.674042 56.0
303.805847 96.0
304.50351 32.0
304.708466 76.0
304.896088 92.0
305.059448 36.0
310.103241 60.0
311.099426 172.0
312.118286 140.0
314.17157 96.0
315.121246 92.0
319.098694 180.0
321.480743 52.0
322.981262 72.0
323.045654 160.0
323.646912 80.0
323.775818 108.0
325.57251 96.0
326.129395 168.0
328.783722 100.0
329.109802 316.0
329.159607 164.0
329.296387 60.0
330.119324 208.0
331.043121 100.0
337.640961 140.0
338.215363 64.0
339.158173 152.0
341.163208 140.0
341.429321 52.0
342.098969 48.0
342.170715 132.0
350.778381 56.0
352.061859 140.0
353.55719 48.0
353.658234 80.0
353.980194 60.0
355.115723 120.0
355.355804 156.0
357.155212 132.0
358.194 356.0
358.480408 84.0
359.197083 128.0
359.385376 104.0
360.06485 124.0
362.107117 112.0
363.733673 96.0
366.144226 192.0
368.039429 220.0
368.172058 440.0
369.147522 128.0
372.716217 184.0
376.55307 132.0
378.645355 128.0
378.916504 56.0
379.478485 112.0
384.176453 180.0
384.3013 116.0
385.132812 156.0
385.429718 84.0
385.804901 72.0
385.887024 136.0
386.000397 44.0
386.090332 136.0
386.183136 4656.0
386.262421 36.0
386.433838 108.0
386.677185 48.0
386.73587 92.0
386.853302 96.0
387.103882 84.0
387.189941 2180.0
387.240967 88.0
387.444641 144.0
387.722839 44.0
388.099152 92.0
388.188324 364.0
388.577637 112.0
389.091766 104.0
390.046356 60.0
390.211456 40.0
390.730591 112.0
391.285492 48.0
391.517822 48.0
391.773834 36.0
393.923767 108.0
397.169586 176.0
398.396149 160.0
400.209686 40.0
402.107178 120.0
402.586243 72.0
403.461273 164.0
403.52124 92.0
403.877136 108.0
403.905151 96.0
405.43457 100.0
405.542755 116.0
405.618927 104.0
406.100067 108.0
411.614075 76.0
414.193665 136.0
415.10553 132.0
416.526001 164.0
417.460785 88.0
426.14679 140.0
435.21701 144.0
436.239014 112.0
438.199127 136.0
438.991089 76.0
445.125641 68.0
447.383423 52.0
447.76236 116.0
448.352173 96.0
448.647217 108.0
448.828522 164.0
457.586334 92.0
459.316498 48.0
459.679138 52.0
461.977753 60.0
463.244843 36.0
468.128204 120.0
472.474609 112.0
475.928833 84.0
476.202423 112.0
476.29364 116.0
479.565613 52.0
485.103729 80.0
485.678162 80.0
488.097931 108.0
488.476166 88.0
489.219849 116.0
497.241364 220.0
498.260101 136.0
501.333801 132.0
511.842834 52.0
514.205017 68.0
514.277222 76.0
515.259094 156.0
516.776184 196.0
517.111084 116.0
517.314758 104.0
518.53772 64.0
521.801392 88.0
523.439392 92.0
526.805298 72.0
529.568054 56.0
532.811096 68.0
542.423584 52.0
545.454651 48.0
553.8396 44.0
554.256531 68.0
559.738159 76.0
572.943115 44.0
575.446899 60.0
577.353455 112.0
577.917908 112.0
584.698303 48.0
587.985107 112.0
593.22821 48.0
593.310669 72.0
594.761047 64.0
611.747681 80.0
620.799194 52.0
636.211853 64.0
641.130981 44.0
645.527893 96.0
660.761658 100.0
668.072144 112.0
671.327271 40.0
675.226257 32.0
694.749084 32.0
705.275391 48.0
710.406372 164.0
725.305237 28.0
730.949646 104.0
735.805847 44.0
736.718567 88.0
737.858826 56.0
751.75293 92.0
755.944214 60.0
771.725281 64.0
784.700562 108.0
834.058289 40.0
834.489441 168.0
849.545471 76.0
849.644043 84.0
861.987488 48.0
864.010498 80.0
864.267944 56.0
865.028748 88.0
896.843811 64.0
902.072693 116.0
911.373901 56.0
922.922424 20.0
941.425476 28.0
943.142212 52.0
944.016479 80.0
995.479004 64.0
998.495422 176.0
1016.423523 96.0
1027.392212 68.0
1048.552124 88.0
1054.030884 184.0
1068.743164 136.0
1081.468628 164.0
1089.481567 48.0
1108.1521 72.0
1114.255859 56.0
1124.170166 44.0
1143.807373 148.0
1147.606934 104.0
1154.534912 64.0
1178.878906 180.0
1195.598022 148.0
1213.204224 220.0
1232.301025 148.0
1258.901611 204.0
1264.698853 180.0
1282.263184 148.0
1293.89917 44.0
1295.489014 168.0
1316.657104 200.0
1321.116821 116.0
1321.355469 160.0
1347.324341 132.0
1366.223633 64.0
1367.032959 180.0
1373.612183 28.0
1374.423706 120.0
1374.622925 204.0
1376.291138 156.0
1378.558838 64.0
1396.425537 160.0
1401.673828 184.0
1404.141235 140.0
1406.692993 144.0
1410.412842 180.0
1412.342041 180.0
1415.268066 44.0
1422.217407 100.0
1431.697876 152.0
1440.348755 176.0
1442.298218 32.0
1455.525635 76.0
1476.764648 248.0
1482.47583 232.0
1493.769775 200.0
1493.992798 88.0
1495.978271 120.0
1502.775513 128.0
1503.215332 232.0
