>compound Adefovir Dipivoxil (Preveon, Hepsera)
>formula C20H32N5O8P
>ionization [M+Na]+
>parentmass 524.188599
#inchi InChI=1S/C20H32N5O8P/c1-19(2,3)17(26)30-11-32-34(28,33-12-31-18(27)20(4,5)6)13-29-8-7-25-10-24-14-15(21)22-9-23-16(14)25/h9-10H,7-8,11-13H2,1-6H3,(H2,21,22,23)
#inchikey WOZSCQDILHKSGG
#Ion_Source LC-ESI
#Instrument qTof
#Compound_Source Commercial
#PI Dorrestein
#Data_Collector Garg_Neha
#Scan -1
#Precursor_MZ 524.188
#ExactMass 501.199
#Charge 1
#CAS_Number 142340-99-6
#Pubmed_ID N/A
#Smiles C12=C(N=CN=C1N)N(C=N2)CCOCP(OCOC(C(C)(C)C)=O)(=O)OCOC(C(C)(C)C)=O
#INCHI_AUX N/A
#Library_Class 1
#SpectrumID CCMSLIB00000078254
#IonMode Positive
#UpdateWorkflowName UPDATE-SINGLE-ANNOTATED-GOLD
#LibraryQualityString Gold
#TaskID 77f51c88eb8b467eb4a01dd2d0cb90d2
##Scan# 1177
#SpectrumFile Plate4_21_40_GH3_01_16504.mzXML
#LibraryName FDALibrary_2_04302014.mgf
#MQScore -1
#Organism FDALibrary_2_04302014
#TIC_Query 0
#RT_Query -1
#MZErrorPPM -1
#SharedPeaks 0
#MassDiff 0
#LibMZ -1
#SpecMZ 524.188
#SpecCharge 0
#internalFilename spec-00000.mgf

>collision 10
48.855518 172.0
49.266769 204.0
50.066273 188.0
53.894058 152.0
59.081875 204.0
60.228642 156.0
61.07806 164.0
61.626808 228.0
64.990097 196.0
65.901413 156.0
66.612617 248.0
69.696526 192.0
69.726883 148.0
73.253365 188.0
80.234543 188.0
82.675629 184.0
83.315689 164.0
84.09687 172.0
85.414291 144.0
85.537582 220.0
88.69735 140.0
89.953896 148.0
91.291527 160.0
91.990768 196.0
94.056236 168.0
94.917152 168.0
98.599541 152.0
98.937782 144.0
100.448067 176.0
101.001366 184.0
102.186966 148.0
104.851822 168.0
105.366028 220.0
105.938843 148.0
107.951782 204.0
108.119347 140.0
111.310982 180.0
112.297989 144.0
114.351028 164.0
115.199661 184.0
116.068596 144.0
119.370293 172.0
120.110771 244.0
120.60862 144.0
120.919197 172.0
122.557396 140.0
123.898483 140.0
124.12899 140.0
127.376335 160.0
128.235855 200.0
128.937759 176.0
131.333069 172.0
131.527008 236.0
133.088333 196.0
135.065659 200.0
137.272003 152.0
144.543365 180.0
146.083664 144.0
148.99675 208.0
149.714294 152.0
151.198593 164.0
151.590424 168.0
151.698257 172.0
153.320465 280.0
154.87204 168.0
157.233994 232.0
157.331345 160.0
157.401245 164.0
157.688538 152.0
157.906052 168.0
161.46228 148.0
161.687439 144.0
162.074417 328.0
162.259903 172.0
163.468918 160.0
166.215897 164.0
169.726532 160.0
169.96257 164.0
171.225952 200.0
172.569824 184.0
173.452057 212.0
173.58577 140.0
175.734756 240.0
176.08847 144.0
176.233765 140.0
176.598572 168.0
177.149139 216.0
177.432693 160.0
177.862442 208.0
178.077515 220.0
178.885834 188.0
179.709335 140.0
181.391479 180.0
185.494217 176.0
188.061951 204.0
189.980118 188.0
191.9935 188.0
192.043152 188.0
192.087387 6100.0
192.18306 164.0
192.573074 152.0
193.046478 180.0
193.090027 884.0
194.089218 180.0
194.236572 152.0
194.339218 148.0
195.002914 160.0
195.413208 204.0
198.573837 148.0
200.088425 196.0
201.029846 148.0
203.62587 140.0
205.133911 172.0
205.390533 176.0
209.259293 160.0
211.247696 160.0
211.92514 244.0
212.026566 156.0
214.072113 304.0
214.896622 140.0
216.267166 228.0
220.044617 220.0
220.198166 152.0
223.411285 220.0
225.34317 232.0
227.36438 176.0
229.623764 164.0
230.925476 200.0
232.412888 236.0
232.491791 188.0
232.822693 176.0
233.448715 188.0
233.762039 180.0
234.03598 184.0
235.191391 152.0
235.793076 236.0
239.675003 200.0
239.832169 176.0
242.177322 144.0
242.916794 148.0
244.011276 172.0
247.571533 144.0
248.02269 168.0
248.606033 216.0
250.265732 140.0
250.924225 204.0
252.26593 152.0
252.689697 172.0
253.535141 176.0
258.640625 208.0
260.956818 164.0
261.851379 192.0
265.098145 156.0
265.655792 220.0
265.834259 180.0
266.145874 208.0
266.243286 200.0
268.250793 212.0
275.153168 140.0
275.56601 168.0
276.141632 308.0
277.154144 160.0
277.648071 216.0
277.673065 164.0
277.856232 172.0
277.890228 160.0
277.959534 368.0
278.040924 47976.0
278.403168 112.0
278.461182 208.0
278.593048 140.0
278.625 112.0
278.703674 144.0
278.805115 112.0
278.946289 180.0
279.042816 5156.0
279.771271 164.0
279.94223 104.0
280.046906 560.0
280.638092 112.0
280.908203 164.0
281.042877 108.0
281.069855 144.0
281.159637 120.0
283.003052 224.0
283.639557 172.0
290.077942 140.0
291.612152 196.0
292.530518 156.0
293.62085 156.0
293.90741 236.0
295.089172 164.0
295.99588 140.0
296.051605 2192.0
297.053162 548.0
300.404236 128.0
305.445557 148.0
312.522949 200.0
315.283997 168.0
317.712982 160.0
317.769745 160.0
319.073151 168.0
320.062256 148.0
321.720123 156.0
321.812927 144.0
327.219604 184.0
328.513397 140.0
328.596375 172.0
329.639862 172.0
332.086548 200.0
333.034454 160.0
335.738586 180.0
340.42276 168.0
344.252533 184.0
346.10141 148.0
349.341858 164.0
349.698608 148.0
350.674408 156.0
354.857422 144.0
357.283539 168.0
358.213379 196.0
358.944519 212.0
359.468842 196.0
361.569977 192.0
362.091553 260.0
362.603912 156.0
366.358032 188.0
371.706879 204.0
372.6745 144.0
375.997681 148.0
378.843506 152.0
380.10791 2964.0
381.118774 472.0
382.509247 172.0
383.112854 168.0
396.317932 152.0
402.231628 152.0
404.770325 176.0
404.91449 164.0
406.169006 140.0
407.863495 156.0
410.11203 168.0
410.516632 164.0
416.230347 208.0
416.815277 148.0
418.943115 148.0
419.142761 184.0
419.750122 240.0
420.210999 168.0
423.329742 176.0
423.964691 140.0
427.290649 148.0
428.542236 168.0
430.167114 176.0
431.695801 188.0
432.742676 172.0
441.504364 112.0
441.568756 148.0
444.169769 160.0
444.446655 148.0
444.506195 128.0
445.781952 192.0
451.3461 160.0
454.668518 204.0
455.295532 148.0
455.567352 160.0
456.795868 176.0
456.983063 152.0
458.392426 148.0
459.940552 188.0
460.021667 184.0
463.027527 140.0
463.057495 164.0
463.220245 156.0
463.365906 308.0
463.455627 132.0
464.098633 204.0
464.166321 16984.0
464.312531 148.0
464.417786 156.0
465.169189 3908.0
465.334473 188.0
465.854126 160.0
466.170868 560.0
466.247833 120.0
467.174805 160.0
468.575287 120.0
475.181824 104.0
475.326691 184.0
478.660675 140.0
483.54129 140.0
486.074249 164.0
489.441254 164.0
491.243805 272.0
492.939178 188.0
493.020874 248.0
493.673004 168.0
493.956055 148.0
494.177826 11988.0
494.345398 160.0
494.743561 100.0
495.18219 3528.0
495.314972 184.0
496.187225 324.0
497.179474 120.0
500.016937 172.0
500.101501 140.0
500.796082 140.0
502.208954 144.0
503.065704 196.0
507.50824 152.0
509.033844 176.0
510.273956 152.0
511.191528 148.0
516.298157 140.0
520.131165 208.0
522.180298 140.0
522.56012 96.0
523.094849 140.0
523.448792 152.0
524.117798 336.0
524.188599 32124.0
524.354187 148.0
524.445862 120.0
524.559937 140.0
525.190002 8900.0
525.3172 144.0
525.545837 100.0
526.116943 196.0
526.194031 1448.0
527.19458 336.0
527.742737 100.0
528.011108 140.0
528.315002 108.0
528.416016 108.0
528.470886 140.0
530.464844 124.0
701.435242 144.0
760.539612 140.0
1022.827332 144.0
1673.655762 168.0
1913.492798 188.0
