>compound MLS001158005-01!(3S)-N-[(2S)-1-[(2-methoxyphenyl)methylamino]-4-methylsulfanyl-1-oxobutan-2-yl]-1,2,3,4-tetrahydroisoquinoline-3-carboxamide
>formula C23H29N3O3S
>ionization [M+H]+
>parentmass 428.201
#inchi InChI=1S/C23H29N3O3S/c1-29-21-10-6-5-9-18(21)15-25-22(27)19(11-12-30-2)26-23(28)20-13-16-7-3-4-8-17(16)14-24-20/h3-10,19-20,24H,11-15H2,1-2H3,(H,25,27)(H,26,28)/t19-,20-/m0/s1
#inchikey UGFKKUYAHVXETN
#Ion_Source LC-ESI
#Instrument qTof
#Compound_Source NIH Natural Product Library
#PI Dorrestein
#Data_Collector VVP/LMS
#Scan -1
#Precursor_MZ 428.201
#ExactMass 427.193
#Charge 1
#CAS_Number N/A
#Pubmed_ID N/A
#Smiles COc1ccccc1CNC(=O)[C@H](CCSC)NC(=O)[C@@H]2Cc3ccccc3CN2
#INCHI_AUX N/A
#Library_Class 1
#SpectrumID CCMSLIB00000079873
#IonMode Positive
#UpdateWorkflowName UPDATE-SINGLE-ANNOTATED-GOLD
#LibraryQualityString Gold
#TaskID b1d8e8f6646f4e71acdff9ca3d919d08
##Scan# 1714
#SpectrumFile p1-C12_GC12_01_17908.mzXML
#LibraryName NIH_Natural_Products_Library.mgf
#MQScore -1
#Organism NIH_Natural_Products_Library
#TIC_Query 0
#RT_Query -1
#MZErrorPPM -1
#SharedPeaks 0
#MassDiff 0
#LibMZ -1
#SpecMZ 428.201
#SpecCharge 0
#internalFilename spec-00000.mgf

>collision 10
95.103127 256.0
95.133377 204.0
95.232399 184.0
95.255707 72.0
95.273193 136.0
95.442368 168.0
95.473389 180.0
95.49662 148.0
95.50312 140.0
95.574539 164.0
95.611511 184.0
95.652382 124.0
95.666008 164.0
95.753632 160.0
95.888054 196.0
95.921188 204.0
96.051834 188.0
96.105362 128.0
96.223564 212.0
96.241135 200.0
96.262611 164.0
96.303909 220.0
96.332924 280.0
96.346596 140.0
96.426712 196.0
96.485352 160.0
96.575302 152.0
96.644127 108.0
96.65493 136.0
96.660072 204.0
96.686813 176.0
96.700516 196.0
96.845299 160.0
96.850807 152.0
96.894371 100.0
96.913963 120.0
97.025673 192.0
97.039398 52.0
97.186241 156.0
97.282661 160.0
97.311005 220.0
97.3396 152.0
97.41423 84.0
97.492821 180.0
97.508537 184.0
97.616661 216.0
97.63829 216.0
97.679596 112.0
97.739029 96.0
97.817856 188.0
97.852768 120.0
97.868523 88.0
97.900024 200.0
97.925102 224.0
98.05172 112.0
98.079308 56.0
98.126617 184.0
98.209442 100.0
98.23114 240.0
98.258041 88.0
98.331764 132.0
98.345581 204.0
98.36927 188.0
98.529221 208.0
98.578568 148.0
98.598938 236.0
98.637909 180.0
98.756546 152.0
98.942551 164.0
98.99601 48.0
99.125206 180.0
99.166382 184.0
99.180252 200.0
99.207848 224.0
99.264534 156.0
99.298012 184.0
99.350487 184.0
99.394432 152.0
99.466354 180.0
99.670433 96.0
99.726074 132.0
99.751556 156.0
99.795654 184.0
99.889122 132.0
99.926598 124.0
99.976662 148.0
100.058266 180.0
100.082161 196.0
100.211624 192.0
100.233536 184.0
100.327209 256.0
100.36908 84.0
100.391014 220.0
100.430901 192.0
100.520676 184.0
100.538635 180.0
100.574562 140.0
100.616478 148.0
100.640434 132.0
100.678375 180.0
100.740288 136.0
100.792236 236.0
100.848656 208.0
100.868179 168.0
100.918159 144.0
101.034157 72.0
101.07225 956.0
101.096176 204.0
101.122192 148.0
101.176239 56.0
101.330444 104.0
101.354492 184.0
101.416611 216.0
101.452698 40.0
101.494797 228.0
101.510841 96.0
101.53891 160.0
101.558968 40.0
101.587051 156.0
101.687378 136.0
101.723503 172.0
101.785744 164.0
101.827911 156.0
102.026833 180.0
102.073372 328.0
102.127296 196.0
102.197784 124.0
102.221931 172.0
102.33062 272.0
102.393044 156.0
102.435272 124.0
102.457497 168.0
102.548172 168.0
102.634857 188.0
102.673172 208.0
102.739731 104.0
102.790169 140.0
102.826492 220.0
102.860809 128.0
102.925407 124.0
103.05352 1588.0
103.078918 292.0
103.105194 168.0
103.14698 184.0
103.200424 160.0
103.287155 136.0
103.343796 100.0
103.408554 148.0
103.442963 240.0
103.465233 188.0
103.528 120.0
103.546227 132.0
103.645485 176.0
103.6698 60.0
103.726547 184.0
103.822083 168.0
103.840088 96.0
103.866455 68.0
103.882683 156.0
103.899727 80.0
103.919205 180.0
103.955727 88.0
104.053421 2632.0
104.103912 84.0
104.120155 28.0
104.183121 212.0
104.211563 68.0
104.254234 152.0
104.359337 176.0
104.374168 60.0
104.435173 176.0
104.473824 88.0
104.504341 184.0
104.581665 208.0
104.644615 212.0
104.699753 176.0
104.714005 180.0
104.746597 56.0
104.773079 148.0
104.794449 180.0
104.813828 224.0
104.844391 156.0
104.907578 152.0
104.969849 140.0
105.014603 228.0
105.069115 2192.0
105.156418 48.0
105.227867 104.0
105.260536 120.0
105.360245 180.0
105.561966 116.0
105.616127 176.0
105.661133 144.0
105.677498 104.0
105.696144 180.0
105.848351 152.0
105.930206 172.0
105.968369 176.0
105.994865 132.0
106.013306 88.0
106.046219 292.0
106.074463 312.0
106.097336 140.0
106.111687 192.0
106.177307 160.0
106.267563 88.0
106.32296 148.0
106.401108 56.0
106.446129 180.0
106.557045 232.0
106.643349 72.0
106.718353 180.0
106.800842 252.0
106.818123 148.0
106.902473 180.0
106.97451 140.0
107.04908 276.0
107.065102 184.0
107.087753 124.0
107.194878 168.0
107.564049 244.0
107.601204 172.0
107.661079 92.0
107.830025 160.0
107.859421 164.0
107.948318 164.0
108.014503 228.0
108.14782 212.0
108.223518 200.0
108.298065 96.0
108.322922 160.0
108.387146 160.0
108.416161 204.0
108.445175 140.0
108.513618 192.0
108.582008 140.0
108.752502 180.0
108.766243 160.0
108.814407 252.0
108.891083 164.0
108.918236 84.0
108.957703 152.0
109.040817 148.0
109.061607 84.0
109.076157 140.0
109.109413 164.0
109.148918 164.0
109.188431 136.0
109.348625 32.0
109.392334 84.0
109.467285 160.0
109.519348 200.0
109.554756 128.0
109.658943 80.0
109.771515 116.0
109.863579 120.0
109.915443 164.0
110.05529 184.0
110.151352 148.0
110.32579 188.0
110.370789 196.0
110.407944 188.0
110.429344 132.0
110.565331 68.0
110.640686 104.0
110.703499 148.0
110.770515 200.0
110.852226 172.0
110.868988 132.0
111.009438 140.0
111.059769 236.0
111.084938 184.0
111.383011 176.0
111.436447 228.0
111.494362 164.0
111.765625 176.0
111.891907 168.0
111.950859 48.0
112.02668 84.0
112.068817 140.0
112.115173 220.0
112.220566 140.0
112.292267 176.0
112.345039 184.0
112.375519 172.0
112.558159 180.0
112.583496 124.0
112.665871 124.0
112.68911 120.0
112.706017 128.0
112.780289 136.0
112.888824 124.0
113.112061 32.0
113.148048 148.0
113.179802 164.0
113.220039 152.0
113.272987 176.0
113.287811 64.0
113.311119 208.0
113.345016 152.0
113.383163 136.0
113.402237 160.0
113.42131 124.0
113.444626 148.0
113.501869 180.0
113.599426 160.0
113.624886 40.0
113.711884 56.0
113.743721 216.0
113.767067 232.0
113.845627 144.0
113.890228 32.0
113.939293 184.0
113.96907 176.0
114.068001 176.0
114.338829 80.0
114.355858 208.0
114.417587 136.0
114.462296 132.0
114.481461 160.0
114.576599 208.0
114.592224 112.0
114.643356 56.0
114.769119 52.0
114.901024 156.0
114.941895 192.0
114.988838 168.0
115.035233 256.0
115.05468 5672.0
115.09771 32.0
115.123337 64.0
115.213043 88.0
115.283546 104.0
115.311333 100.0
115.32843 132.0
115.356216 204.0
115.394699 68.0
115.40966 48.0
115.431046 148.0
115.561516 172.0
115.595757 52.0
115.673889 136.0
115.726318 52.0
115.799126 160.0
115.816261 168.0
115.856956 128.0
115.884811 160.0
115.968384 168.0
116.05719 488.0
116.184952 156.0
116.202118 176.0
116.225716 464.0
116.305122 112.0
116.442528 88.0
116.474747 92.0
116.504822 60.0
116.530602 172.0
116.545639 156.0
116.635902 160.0
116.673668 216.0
116.756088 208.0
116.798088 176.0
116.898277 228.0
116.982216 120.0
116.997284 156.0
117.012352 180.0
117.027428 108.0
117.058197 7356.0
117.208351 244.0
117.303177 176.0
117.325706 160.0
117.447647 108.0
117.542564 140.0
117.568459 196.0
117.659119 168.0
117.721733 160.0
117.849167 172.0
117.986099 56.0
118.059288 688.0
118.084793 144.0
118.13887 124.0
118.240562 208.0
118.344467 152.0
118.407257 116.0
118.524239 200.0
118.712341 308.0
118.756195 80.0
118.784393 48.0
118.92543 180.0
118.981865 164.0
119.060188 168.0
119.132347 176.0
119.162125 132.0
119.196884 168.0
119.24395 152.0
119.290337 128.0
119.523041 100.0
119.540451 176.0
119.586151 112.0
119.696297 288.0
119.766869 140.0
119.904129 216.0
119.928101 188.0
120.032738 108.0
120.056725 36.0
120.189789 232.0
120.287994 232.0
120.344131 228.0
120.493271 44.0
120.525497 160.0
120.629539 224.0
120.703094 160.0
120.792755 252.0
120.851822 176.0
120.880272 176.0
120.911446 196.0
120.955307 224.0
120.972969 372.0
121.000648 144.0
121.065849 58548.0
121.119629 136.0
121.135857 160.0
121.151756 32.0
121.178047 60.0
121.201767 92.0
121.207321 144.0
121.241844 104.0
121.267891 60.0
121.294121 84.0
121.315147 216.0
121.345474 224.0
121.369896 196.0
121.425308 248.0
121.467415 264.0
121.504707 40.0
121.520065 196.0
121.545792 188.0
121.56691 80.0
121.607254 180.0
121.684669 28.0
121.790733 120.0
121.860374 48.0
121.91217 168.0
121.930687 188.0
121.982758 196.0
122.009819 192.0
122.032867 124.0
122.068634 7972.0
122.19455 100.0
122.269363 32.0
122.30584 84.0
122.369934 80.0
122.393631 336.0
122.518173 40.0
122.621735 88.0
122.650391 204.0
122.692268 88.0
122.780464 164.0
122.806931 56.0
122.826782 84.0
122.851051 164.0
122.87973 116.0
122.913391 140.0
122.948128 104.0
122.979271 108.0
123.02906 144.0
123.071121 652.0
123.109283 188.0
123.14978 260.0
123.204254 112.0
123.279373 196.0
123.460648 32.0
123.484428 220.0
123.501305 188.0
123.540268 224.0
123.568085 176.0
123.66861 224.0
123.728378 176.0
123.772652 176.0
123.874527 216.0
123.899857 120.0
123.952072 192.0
123.967583 224.0
124.042938 168.0
124.119942 200.0
124.147141 144.0
124.238075 200.0
124.317955 224.0
124.488884 148.0
124.513306 168.0
124.647621 356.0
124.826645 116.0
124.846657 148.0
124.933403 44.0
124.963783 152.0
125.046883 172.0
125.098076 152.0
125.135918 40.0
125.23835 144.0
125.256172 220.0
125.363113 248.0
125.443352 140.0
125.615051 152.0
125.639587 108.0
125.728836 160.0
125.860535 232.0
125.98114 36.0
126.0504 60.0
126.191216 148.0
126.205788 152.0
126.231461 152.0
126.361183 184.0
126.410408 128.0
126.474937 168.0
126.483948 140.0
126.512123 188.0
126.533516 168.0
126.618599 196.0
126.672356 204.0
126.795586 164.0
126.871796 180.0
127.079269 196.0
127.102798 140.0
127.147682 172.0
127.174614 168.0
127.264404 180.0
127.403038 280.0
127.462021 216.0
127.531731 72.0
127.650879 168.0
127.722847 160.0
127.772339 156.0
127.790337 192.0
127.824081 224.0
127.915924 188.0
128.049728 272.0
128.227188 260.0
128.28804 56.0
128.33313 48.0
128.421066 132.0
128.673798 144.0
128.70993 104.0
128.725739 412.0
128.798004 116.0
128.821869 176.0
128.88385 144.0
128.901932 160.0
128.949387 152.0
129.02652 156.0
129.066147 568.0
129.202637 232.0
129.241089 240.0
129.272766 136.0
129.456131 200.0
129.494629 44.0
129.5354 164.0
129.562576 160.0
129.594299 96.0
129.739349 132.0
129.756927 164.0
129.811905 152.0
129.828903 184.0
129.926193 512.0
129.962631 168.0
130.028534 324.0
130.066208 60324.0
130.131271 208.0
130.155945 52.0
130.215851 188.0
130.241837 148.0
130.277176 144.0
130.338516 200.0
130.356689 68.0
130.37294 100.0
130.395325 176.0
130.425201 132.0
130.458969 180.0
130.498566 144.0
130.534576 188.0
130.558426 264.0
130.600708 96.0
130.642136 244.0
130.681839 56.0
130.711929 144.0
130.743271 164.0
130.768311 88.0
130.826828 136.0
130.844147 80.0
130.877579 136.0
130.9133 244.0
130.964111 52.0
130.980057 132.0
131.031693 176.0
131.069778 5448.0
131.120667 128.0
131.136292 68.0
131.187424 176.0
131.212494 156.0
131.274063 208.0
131.292297 92.0
131.378967 220.0
131.433731 64.0
131.459976 56.0
131.481644 100.0
131.516113 204.0
131.553452 348.0
131.57988 176.0
131.643524 172.0
131.68483 172.0
131.703003 92.0
131.709351 208.0
131.741592 216.0
131.786057 192.0
131.822983 68.0
131.8573 164.0
131.898941 176.0
131.919601 180.0
131.937225 248.0
131.97496 164.0
131.9944 520.0
132.017059 168.0
132.054291 476.0
132.081879 140424.0
132.140518 152.0
132.15741 176.0
132.190262 124.0
132.209442 136.0
132.247177 204.0
132.265045 228.0
132.294449 296.0
132.332993 284.0
132.35965 180.0
132.382111 192.0
132.404678 96.0
132.427383 56.0
132.457916 1788.0
132.477997 84.0
132.486237 68.0
132.505157 88.0
132.526657 120.0
132.55513 140.0
132.574203 48.0
132.604187 48.0
132.613602 72.0
132.626785 216.0
132.671631 100.0
132.688416 76.0
132.708679 76.0
132.726059 36.0
132.748993 112.0
132.791245 92.0
132.81218 64.0
132.831558 72.0
132.858139 108.0
132.90361 156.0
132.94397 44.0
132.96463 52.0
132.989502 100.0
132.99588 84.0
133.014343 200.0
133.04451 60.0
133.084732 15232.0
133.147018 72.0
133.175842 52.0
133.279816 140.0
133.327484 140.0
133.364258 84.0
133.429398 164.0
133.44931 100.0
133.511398 208.0
133.563568 64.0
133.589584 120.0
133.614899 112.0
133.642502 40.0
133.692703 172.0
133.720749 136.0
133.755997 164.0
133.771378 144.0
133.79747 72.0
133.831314 120.0
133.855499 60.0
133.897705 168.0
133.933502 120.0
133.962509 92.0
133.988617 144.0
134.040909 388.0
134.067612 104.0
134.088196 568.0
134.154572 172.0
134.171112 108.0
134.223114 104.0
134.252502 272.0
134.292114 100.0
134.324417 124.0
134.349869 124.0
134.36824 48.0
134.400543 96.0
134.488235 108.0
134.749176 64.0
134.991867 68.0
135.105194 104.0
135.195435 76.0
135.23941 72.0
135.255615 132.0
135.540466 340.0
135.559006 84.0
135.756042 64.0
135.867371 96.0
136.008911 48.0
136.069275 56.0
136.636337 176.0
136.685394 92.0
136.924957 136.0
137.041428 228.0
137.351486 92.0
137.678223 64.0
137.720261 172.0
137.77269 144.0
137.862778 148.0
137.897827 64.0
137.921204 152.0
138.061478 188.0
138.091537 2844.0
138.162064 64.0
138.279053 244.0
138.353958 84.0
138.456985 52.0
138.632675 64.0
138.76947 88.0
138.88588 32.0
139.095581 160.0
139.141647 60.0
139.223831 68.0
139.24028 84.0
139.31543 76.0
139.531647 120.0
139.56691 64.0
139.719772 136.0
139.849014 104.0
139.978683 84.0
140.119995 120.0
140.473602 84.0
141.030853 112.0
141.669739 120.0
141.728958 128.0
141.803879 152.0
141.904358 80.0
142.006317 144.0
142.051376 136.0
142.143906 52.0
142.269699 52.0
142.307678 40.0
142.376541 264.0
142.419296 44.0
142.443054 96.0
142.500061 108.0
142.590363 72.0
142.61412 184.0
142.68306 84.0
142.775024 100.0
142.801514 44.0
143.072922 180.0
143.101776 132.0
143.480591 136.0
143.828857 148.0
143.929123 68.0
143.950623 88.0
143.972107 76.0
144.079422 176.0
144.45491 112.0
144.840286 144.0
144.859451 60.0
145.785553 140.0
145.997101 40.0
146.066498 164.0
146.283417 96.0
147.083817 212.0
147.31308 112.0
147.421799 120.0
148.698059 100.0
149.076904 96.0
149.884766 156.0
150.211182 164.0
150.282196 156.0
150.812103 144.0
151.764374 76.0
151.83548 116.0
151.933594 100.0
152.198654 236.0
152.463959 96.0
152.970612 176.0
153.123276 128.0
153.342545 144.0
153.41156 172.0
153.737122 188.0
153.983994 144.0
154.067093 208.0
154.090561 144.0
154.275558 144.0
154.995758 108.0
155.076813 404.0
156.075638 132.0
156.192368 124.0
156.610519 140.0
156.642899 68.0
157.061661 192.0
157.52594 112.0
157.708344 68.0
157.770828 148.0
158.059082 264.0
158.100998 152.0
158.549057 152.0
158.8125 92.0
158.832565 148.0
158.882736 76.0
159.088516 172.0
159.422562 172.0
159.555786 180.0
159.819855 92.0
160.033798 144.0
160.263 160.0
160.550354 92.0
160.966721 180.0
161.075974 140.0
161.098053 180.0
161.353287 72.0
163.071899 168.0
163.168503 64.0
163.427917 104.0
163.651886 192.0
164.881393 132.0
165.119156 196.0
165.339172 68.0
166.238647 128.0
166.775391 20.0
167.289841 224.0
169.078522 116.0
170.065964 92.0
170.096359 4920.0
170.143829 204.0
170.304825 200.0
170.335999 48.0
171.032852 72.0
171.101715 792.0
171.152603 20.0
171.890381 84.0
172.110306 332.0
172.141678 224.0
172.537979 60.0
172.598114 176.0
173.109756 176.0
173.320541 92.0
174.047089 176.0
174.286102 92.0
175.083145 124.0
175.473114 88.0
175.510025 172.0
175.884644 84.0
176.101135 168.0
176.521332 184.0
176.587448 80.0
177.106201 160.0
177.16713 120.0
177.755722 108.0
178.159271 96.0
178.866608 120.0
180.085114 140.0
182.066956 148.0
182.094421 160.0
182.246933 164.0
182.279175 80.0
182.408173 60.0
182.927322 152.0
183.048477 184.0
183.309769 160.0
183.757355 52.0
184.100861 208.0
184.275711 148.0
184.73259 220.0
184.881393 84.0
185.057343 92.0
186.060455 116.0
186.089661 164.0
186.321167 164.0
187.086502 348.0
187.120911 188.0
187.142502 116.0
187.284119 212.0
187.311356 60.0
187.365829 216.0
188.072083 208.0
188.1185 140.0
188.875397 140.0
189.535156 76.0
190.044418 180.0
190.275696 176.0
190.924149 136.0
191.292831 68.0
191.951294 152.0
192.160904 212.0
192.282318 120.0
192.323715 180.0
192.588776 108.0
192.779404 80.0
192.826385 48.0
193.1008 140.0
194.01384 44.0
194.659866 128.0
195.081223 628.0
195.40242 168.0
195.497025 164.0
196.095764 188.0
196.11528 132.0
196.318802 156.0
197.081436 164.0
197.107513 292.0
197.771561 152.0
198.091431 1996.0
198.239258 48.0
198.513962 76.0
198.763611 72.0
199.052734 148.0
199.094086 532.0
199.446045 112.0
199.738464 228.0
200.093033 140.0
200.383118 112.0
201.09935 84.0
201.295273 200.0
201.438187 156.0
202.003815 80.0
202.153473 92.0
202.756668 44.0
202.799179 60.0
202.974945 196.0
203.250076 44.0
204.899109 64.0
204.93045 84.0
205.192657 152.0
205.315262 84.0
206.331757 92.0
206.740768 132.0
209.77951 108.0
210.356445 152.0
210.821442 116.0
211.174133 168.0
211.281158 168.0
211.576355 120.0
211.889114 60.0
213.055344 76.0
213.099686 564.0
213.398285 116.0
213.828796 52.0
213.849167 172.0
213.988892 212.0
214.116867 152.0
214.467896 156.0
214.574493 60.0
214.665054 128.0
214.784439 72.0
214.921555 204.0
214.944901 100.0
214.972626 224.0
215.016739 188.0
215.027618 116.0
215.049866 136.0
215.117981 24240.0
215.21051 76.0
215.230957 72.0
215.260147 64.0
215.288589 96.0
215.341919 76.0
215.386703 60.0
215.455841 80.0
215.509537 84.0
215.545349 88.0
215.581482 88.0
215.607773 68.0
215.629486 112.0
215.670822 56.0
215.716385 100.0
215.767624 64.0
215.818237 36.0
215.873795 52.0
215.952759 56.0
215.979507 84.0
216.005402 88.0
216.078873 176.0
216.120712 4408.0
216.214798 52.0
216.280457 60.0
216.450256 52.0
216.573242 48.0
216.605469 56.0
216.87796 36.0
216.942459 64.0
217.024536 40.0
217.070435 80.0
217.123047 372.0
217.34816 96.0
217.423477 84.0
217.569611 152.0
217.723618 100.0
217.752289 44.0
217.813965 84.0
217.89328 100.0
217.92424 144.0
218.10051 904.0
218.493011 96.0
218.575394 152.0
218.663559 104.0
218.713715 136.0
218.738541 120.0
219.101028 332.0
219.438385 32.0
219.783463 116.0
220.105194 196.0
220.917938 100.0
221.128922 1188.0
221.305634 44.0
221.767746 64.0
221.972305 188.0
222.135056 164.0
222.372787 80.0
223.076736 196.0
223.13916 132.0
223.698441 56.0
224.111313 484.0
224.914597 208.0
225.095718 184.0
225.556793 148.0
226.093918 224.0
226.792969 80.0
227.053802 68.0
227.194778 44.0
227.723068 60.0
229.429474 176.0
230.802872 80.0
230.854279 88.0
230.914764 132.0
232.223129 76.0
233.240265 100.0
235.207947 68.0
236.923431 72.0
237.689926 92.0
239.556091 64.0
241.102829 104.0
241.138962 164.0
242.12587 168.0
242.342697 184.0
242.630936 136.0
243.111984 804.0
243.154373 164.0
243.521484 64.0
243.568069 52.0
244.125336 184.0
245.113464 400.0
246.081161 60.0
246.110245 128.0
248.136658 112.0
248.25267 156.0
249.735001 112.0
250.534515 116.0
250.868561 188.0
251.114502 108.0
251.360565 192.0
252.104019 248.0
252.13768 400.0
252.34285 100.0
253.108536 268.0
253.141434 408.0
255.151779 104.0
256.087311 176.0
259.179596 56.0
260.071106 84.0
260.142303 248.0
260.31189 68.0
260.665222 60.0
261.103302 304.0
261.211792 56.0
262.103546 160.0
262.693542 108.0
262.806458 84.0
262.906494 84.0
263.120422 4524.0
263.251892 136.0
264.063049 132.0
264.123566 732.0
264.166534 40.0
264.253906 68.0
264.362549 104.0
264.826843 56.0
265.116638 416.0
265.316132 140.0
265.380981 96.0
265.595001 96.0
265.831848 164.0
265.922699 108.0
266.84198 84.0
267.437286 172.0
269.132935 2148.0
269.396973 112.0
269.543976 140.0
269.635498 80.0
269.668182 52.0
269.746613 64.0
270.014709 60.0
270.1297 220.0
270.646271 100.0
270.862427 76.0
271.026215 80.0
271.132233 228.0
272.121674 284.0
273.232513 44.0
273.499054 80.0
274.091125 156.0
276.409821 68.0
277.529358 100.0
279.150421 176.0
279.359253 92.0
285.523682 120.0
286.442505 112.0
289.102966 120.0
291.110443 124.0
292.112396 136.0
292.177032 92.0
295.393921 88.0
296.225708 44.0
299.957458 64.0
302.991516 132.0
303.345001 60.0
309.970367 40.0
314.175354 116.0
319.507019 76.0
324.234528 144.0
329.86734 36.0
330.098724 80.0
331.514099 68.0
332.31546 92.0
336.595825 40.0
339.09436 100.0
341.399872 100.0
341.664703 100.0
345.028015 124.0
347.086517 136.0
351.9198 56.0
354.924286 92.0
357.941528 116.0
358.227753 80.0
358.363373 40.0
362.777496 120.0
371.679108 68.0
372.354736 72.0
373.084778 64.0
376.054596 92.0
379.485779 52.0
380.18396 160.0
386.989777 20.0
391.434509 136.0
393.054565 100.0
393.646667 96.0
401.930847 44.0
404.612671 60.0
409.511536 80.0
423.029022 56.0
427.202332 20.0
428.18811 160.0
429.059601 76.0
431.220032 132.0
431.276245 276.0
432.421906 132.0
458.159882 80.0
461.0784 68.0
461.274994 52.0
468.419525 32.0
472.607117 76.0
477.226318 72.0
498.901672 40.0
507.240326 48.0
511.620117 56.0
532.156616 100.0
532.533142 72.0
534.928711 124.0
540.366272 72.0
549.946899 76.0
558.488342 76.0
563.470947 92.0
589.78833 64.0
595.296753 124.0
598.437866 56.0
611.316101 92.0
615.881287 96.0
622.388489 196.0
623.516113 68.0
629.818665 84.0
631.242981 28.0
632.533691 76.0
638.680359 208.0
641.782471 60.0
646.237183 116.0
666.56665 148.0
668.196533 204.0
679.780701 100.0
683.584473 60.0
688.839722 236.0
692.066467 72.0
692.632019 192.0
699.526489 184.0
703.960449 84.0
704.906006 176.0
711.23999 64.0
721.184204 252.0
721.590454 44.0
723.559265 56.0
727.504883 152.0
743.345703 108.0
753.216125 196.0
762.816345 64.0
763.443115 120.0
766.002319 224.0
768.141052 116.0
769.74707 36.0
776.897827 140.0
777.321594 52.0
779.757324 160.0
783.045349 52.0
784.332397 36.0
789.30658 132.0
790.442078 152.0
791.195801 228.0
793.79364 60.0
796.721497 164.0
799.621765 100.0
800.698181 192.0
806.294617 124.0
807.408325 156.0
807.611938 212.0
808.562439 172.0
808.624695 152.0
809.241699 168.0
809.422852 176.0
810.465088 108.0
810.754089 112.0
814.38501 164.0
818.684448 148.0
822.829712 72.0
823.269348 192.0
823.554932 188.0
828.812195 116.0
829.327942 68.0
829.545776 128.0
830.216553 44.0
834.465637 108.0
838.50647 56.0
838.604431 180.0
839.105957 148.0
842.770874 176.0
844.863708 160.0
847.077026 68.0
847.801636 208.0
848.494812 144.0
848.999268 184.0
850.414795 152.0
851.668945 172.0
852.941406 148.0
853.557617 36.0
853.604187 132.0
854.406799 32.0
855.145813 120.0
859.528076 148.0
860.269287 108.0
861.46051 248.0
862.822144 140.0
863.260681 208.0
864.14386 72.0
865.548584 244.0
866.509155 236.0
866.679016 164.0
867.335388 188.0
868.009583 68.0
868.918701 124.0
870.021973 144.0
870.808838 152.0
871.261108 152.0
873.959656 128.0
877.20459 180.0
880.809937 220.0
883.280701 140.0
887.924622 260.0
888.345276 136.0
888.701233 84.0
889.069153 200.0
889.49054 220.0
891.379089 124.0
892.787903 164.0
892.942566 140.0
893.150696 132.0
894.805054 176.0
897.271484 116.0
897.384766 136.0
898.95343 40.0
899.621887 80.0
899.753235 108.0
899.842773 36.0
901.013367 148.0
903.177246 204.0
905.709106 60.0
906.985352 76.0
907.656799 180.0
907.920654 204.0
909.120422 188.0
911.155884 20.0
912.015198 176.0
916.950439 68.0
917.577332 212.0
917.776306 104.0
918.05365 168.0
918.711121 56.0
920.201721 144.0
920.491516 140.0
920.865967 140.0
921.560608 116.0
923.525269 152.0
925.092468 188.0
925.237732 80.0
925.28009 196.0
925.449646 88.0
926.242981 184.0
926.721558 144.0
929.52887 176.0
929.789795 168.0
935.489441 172.0
936.154663 172.0
937.433899 116.0
938.311584 224.0
938.372559 148.0
941.270691 84.0
943.476318 120.0
945.011353 176.0
947.00769 144.0
947.270325 256.0
947.546021 152.0
948.262939 84.0
948.379395 132.0
949.758911 180.0
949.814148 80.0
952.324524 220.0
952.373657 116.0
952.471924 180.0
957.016541 188.0
957.767822 176.0
958.149719 240.0
959.708984 200.0
960.220825 160.0
961.010376 124.0
961.244873 248.0
961.985474 176.0
963.665222 156.0
964.400635 176.0
965.525818 208.0
965.729919 56.0
966.063904 156.0
968.124939 100.0
970.312195 80.0
970.907471 100.0
972.433594 168.0
974.874268 168.0
978.849121 176.0
982.825867 80.0
985.07959 180.0
987.117065 232.0
987.404724 116.0
988.117798 44.0
988.399353 132.0
988.912476 164.0
991.944031 172.0
993.787781 160.0
994.070129 124.0
994.490601 204.0
999.631287 276.0
1000.134766 264.0
1003.271729 144.0
1005.807495 64.0
1005.870667 76.0
1006.24939 116.0
1007.076599 164.0
1007.127136 72.0
1007.49353 220.0
1007.632507 184.0
1009.136658 84.0
1010.793823 228.0
1011.363403 196.0
1011.926819 168.0
1012.534668 276.0
1013.61792 192.0
1014.257996 208.0
1014.657349 144.0
1015.297791 76.0
1016.655334 160.0
1017.01709 144.0
1018.382141 88.0
1018.541565 208.0
1020.03418 176.0
1020.593628 196.0
1022.075623 104.0
1022.215576 76.0
1023.845215 152.0
1025.508057 84.0
1025.80127 176.0
1027.414551 156.0
1027.791016 168.0
1028.282349 160.0
1029.20166 152.0
1029.616699 180.0
1030.728149 204.0
1031.76355 284.0
1034.155884 164.0
1035.372314 120.0
1036.813721 152.0
1037.018799 136.0
1038.987427 104.0
1041.028442 76.0
1041.747803 168.0
1041.88269 192.0
1045.303589 112.0
1047.542725 172.0
1048.954834 172.0
1049.425415 132.0
1049.992798 188.0
1050.508789 188.0
1050.741089 76.0
1051.328247 200.0
1052.812988 140.0
1054.020996 84.0
1054.428101 116.0
1055.516357 148.0
1056.08313 140.0
1059.189941 168.0
1060.382202 204.0
1062.872314 180.0
1064.105469 144.0
1066.008545 120.0
1068.128052 148.0
1069.368774 200.0
1069.507446 148.0
1069.552979 92.0
1070.151123 160.0
1071.317627 52.0
1076.319946 148.0
1076.424438 188.0
1078.462646 168.0
1080.659912 160.0
1081.418945 36.0
1082.95105 140.0
1083.691284 228.0
1083.907471 168.0
1084.025391 220.0
1084.634888 184.0
1085.539673 116.0
1086.549683 152.0
1087.356812 116.0
1088.131348 152.0
1088.374268 92.0
1088.505615 148.0
1088.590942 168.0
1088.925903 164.0
1089.01123 276.0
1090.778687 216.0
1091.061401 40.0
1092.027954 100.0
1094.772339 96.0
1094.844727 144.0
1095.292603 224.0
1095.542847 160.0
1098.753418 208.0
1101.677856 168.0
1102.252686 56.0
1102.358398 40.0
1102.450928 224.0
1103.316772 128.0
1104.29541 156.0
1104.652588 68.0
1105.307495 172.0
1107.631226 44.0
1107.790161 136.0
1109.605957 180.0
1109.738647 164.0
1110.52771 148.0
1111.104858 180.0
1111.343628 144.0
1111.980713 192.0
1112.199707 360.0
1112.292603 172.0
1112.378906 148.0
1112.724121 168.0
1113.83313 124.0
1115.082275 176.0
1115.500977 64.0
1116.425171 156.0
1117.170044 200.0
1118.900269 152.0
1119.092041 220.0
1119.266479 116.0
1119.892456 192.0
1122.138184 124.0
1122.320435 176.0
1122.591553 232.0
1122.791626 196.0
1123.898926 68.0
1124.052368 116.0
1124.185791 120.0
1124.3927 104.0
1125.106934 104.0
1125.307129 140.0
1125.507446 124.0
1126.015015 60.0
1126.187134 88.0
1127.792236 36.0
1127.945923 220.0
1129.437012 184.0
1129.89856 180.0
1130.112671 192.0
1130.213013 160.0
1131.417725 156.0
1133.842407 92.0
1134.720459 108.0
1135.920898 208.0
1135.967896 88.0
1136.356934 116.0
1138.465942 96.0
1138.518311 192.0
1138.780273 52.0
1139.297485 172.0
1139.472046 152.0
1140.547241 200.0
1140.822876 192.0
1140.964111 136.0
1141.454834 180.0
1141.690186 132.0
1142.087036 128.0
1142.557861 252.0
1142.954834 200.0
1143.594116 176.0
1144.031616 172.0
1144.327881 260.0
1144.598877 60.0
1145.028198 228.0
1147.19104 156.0
1147.614868 160.0
1147.777588 208.0
1148.303589 196.0
1148.411499 228.0
1148.782471 184.0
1150.105957 140.0
1151.556641 164.0
1152.475342 132.0
1152.542847 160.0
1152.948364 204.0
1154.083984 432.0
1154.455811 172.0
1154.685791 168.0
1159.052002 184.0
1159.282349 208.0
1159.417969 192.0
1160.366943 180.0
1160.590576 96.0
1160.909302 136.0
1163.609863 112.0
1164.200562 164.0
1164.811768 144.0
1166.129883 220.0
1166.204712 208.0
1167.163086 160.0
1167.469238 128.0
1169.30603 172.0
1170.5177 128.0
1170.905884 68.0
1171.035278 200.0
1171.355469 304.0
1172.036743 160.0
1173.226074 116.0
1173.283936 240.0
1175.261719 144.0
1175.445923 176.0
1176.449219 128.0
1177.523438 232.0
1177.753418 236.0
1177.814941 224.0
1178.258911 148.0
1180.719604 160.0
1180.993164 208.0
1182.004028 136.0
1182.799561 232.0
1183.552612 180.0
1183.758057 220.0
1184.203125 148.0
1184.347046 220.0
1184.525146 184.0
1184.758057 208.0
1185.285522 188.0
1185.950317 196.0
1187.108887 208.0
1187.191162 192.0
1187.51355 180.0
1188.86499 224.0
1189.841431 232.0
1189.935425 176.0
1190.05249 216.0
1192.003174 172.0
1192.078735 132.0
1192.216187 96.0
1192.738525 140.0
1192.793457 164.0
1192.97229 136.0
1195.028564 164.0
1195.111084 132.0
1195.654663 104.0
1196.012573 200.0
1196.797363 188.0
1198.298828 188.0
1198.459717 200.0
1198.73291 92.0
1198.836304 136.0
1199.359985 160.0
1200.663086 216.0
1200.890137 244.0
1201.641846 184.0
1202.995239 228.0
1203.202271 152.0
1204.825195 148.0
1205.419312 188.0
1205.536865 172.0
1205.709595 144.0
1205.813232 172.0
1207.451782 168.0
1207.839111 192.0
1208.281738 208.0
1208.482422 172.0
1208.551636 164.0
1208.759155 168.0
1209.64502 240.0
1209.825073 152.0
1209.921997 136.0
1209.970459 180.0
1210.095093 156.0
1211.022949 268.0
1211.182251 92.0
1212.554077 172.0
1212.803589 164.0
1213.302734 112.0
1214.842163 180.0
1215.064209 200.0
1215.758057 124.0
1215.834351 188.0
1216.084229 212.0
1216.202148 144.0
1216.500732 160.0
1216.62561 184.0
1216.924194 76.0
1217.80603 208.0
1219.278931 144.0
1220.370239 152.0
1220.493042 184.0
1220.517334 216.0
1220.914429 168.0
1221.496826 140.0
1222.452148 208.0
1222.672729 228.0
1223.104248 156.0
1223.257324 132.0
1223.326904 156.0
1224.670776 184.0
1224.948486 184.0
1225.207153 152.0
1225.513062 196.0
1225.729736 152.0
1226.419678 140.0
1226.893677 160.0
1227.807007 152.0
1228.037231 260.0
1228.20459 208.0
1228.420776 168.0
1228.548584 136.0
1228.769653 80.0
1229.781494 200.0
1230.716919 200.0
1230.947266 176.0
1231.422119 128.0
1231.666626 64.0
1232.7146 152.0
1232.809814 192.0
1233.231689 152.0
1233.434448 164.0
1233.525269 116.0
1234.280273 160.0
1234.392212 216.0
1234.888672 188.0
1235.126465 208.0
1236.015015 236.0
1236.154907 252.0
1236.238892 168.0
1237.547852 136.0
1238.878418 148.0
1239.086548 200.0
1239.223633 184.0
1240.553955 184.0
1241.254395 172.0
1242.124023 100.0
1242.776123 212.0
1242.965942 220.0
1243.071167 128.0
1243.737793 140.0
1243.857178 136.0
1243.976562 140.0
1244.910278 204.0
1245.310547 204.0
1246.209717 136.0
1246.359985 124.0
1246.44165 124.0
1247.200562 172.0
1247.390381 188.0
1247.467651 60.0
1247.753052 48.0
1248.634888 168.0
1248.880981 68.0
1250.168457 144.0
1250.26001 144.0
1250.428833 136.0
1250.865234 176.0
1252.463623 176.0
1252.682007 152.0
1253.062378 136.0
1253.118774 148.0
1253.534424 56.0
1253.987671 208.0
1254.401367 140.0
1254.605713 172.0
1254.711548 140.0
1254.916016 176.0
1255.381348 164.0
1256.051392 120.0
1256.495728 168.0
1256.975586 228.0
1257.772949 200.0
1258.401245 204.0
1258.570679 172.0
1258.676636 160.0
1259.086182 128.0
1259.262817 164.0
1259.51709 220.0
1260.336548 60.0
1261.467285 120.0
1262.075317 216.0
1263.164307 112.0
1263.475586 36.0
1263.709106 160.0
1263.991943 176.0
1264.239746 240.0
1264.99707 44.0
1267.412109 240.0
1267.50415 164.0
1268.269531 164.0
1268.482178 168.0
1268.645264 164.0
1268.716064 228.0
1268.786987 164.0
1268.84375 152.0
1268.900391 88.0
1269.543701 140.0
1270.020874 156.0
1271.205566 124.0
1271.773315 132.0
1271.979248 228.0
1273.277832 220.0
1273.52002 180.0
1274.159302 152.0
1275.37439 232.0
1275.573364 232.0
1276.255859 204.0
1276.426514 196.0
1277.411133 200.0
1277.763672 260.0
1277.870361 112.0
1278.190552 200.0
1278.332886 124.0
1278.702881 176.0
1278.867065 220.0
1279.037476 196.0
1279.403564 228.0
1279.585571 184.0
1280.205078 148.0
1280.853149 132.0
1281.159424 44.0
1282.698608 36.0
1283.055054 192.0
1283.739502 160.0
1284.224487 188.0
1284.973511 88.0
1285.658447 128.0
1285.713989 232.0
1285.728638 180.0
1286.547485 220.0
1288.078857 168.0
1288.335083 228.0
1288.393188 252.0
1289.121948 152.0
1290.630127 168.0
1290.987671 200.0
1291.388184 80.0
1291.581299 64.0
1292.232178 148.0
1292.725952 156.0
1293.148193 164.0
1293.205444 128.0
1293.627686 184.0
1294.379517 184.0
1294.665894 88.0
1296.74353 144.0
1296.831177 208.0
1297.567871 120.0
1298.019531 120.0
1298.356567 176.0
1298.41394 128.0
1298.750977 160.0
1298.80835 144.0
1300.036743 152.0
1300.250488 152.0
1300.702637 184.0
1302.203247 172.0
1303.50354 212.0
1304.401855 196.0
1304.459351 184.0
1304.998535 160.0
1305.16394 144.0
1305.811157 164.0
1306.048462 168.0
1306.408447 188.0
1306.875732 80.0
1307.264282 132.0
1307.321899 168.0
1307.84729 156.0
1308.113647 208.0
1308.192749 156.0
1308.63916 156.0
1308.768677 184.0
1308.970337 164.0
1309.200806 180.0
1309.265625 204.0
1309.31604 136.0
1309.805786 292.0
1309.98584 140.0
1310.048462 184.0
1310.346069 140.0
1310.515137 140.0
1310.771118 100.0
1311.03772 128.0
1311.196289 36.0
1311.650391 136.0
1311.830566 104.0
1311.960327 136.0
1312.493774 128.0
1313.121216 96.0
1313.32312 136.0
1313.517944 52.0
1313.654907 244.0
1313.921875 132.0
1314.138306 256.0
1314.962646 204.0
1315.632202 152.0
1315.812622 180.0
1316.050903 220.0
1316.202515 132.0
1316.700806 40.0
1316.823608 192.0
1317.17749 164.0
1317.589233 192.0
1318.037231 196.0
1318.752686 120.0
1319.106812 80.0
1319.244141 148.0
1319.555054 52.0
1320.357666 128.0
1320.583496 104.0
1320.814331 144.0
1321.372681 184.0
1321.457153 172.0
1322.00708 144.0
1322.687378 160.0
1322.77417 188.0
1323.461914 168.0
1323.845703 148.0
1324.022583 192.0
1324.12085 140.0
1324.215088 100.0
1324.381592 112.0
1324.490234 180.0
1324.605225 160.0
1324.722046 180.0
1325.721924 184.0
1326.38147 128.0
1326.62793 140.0
1327.439941 236.0
1328.332031 152.0
1328.433594 168.0
1328.564087 172.0
1329.064697 40.0
1329.877441 172.0
1330.240356 80.0
1330.414673 160.0
1330.596069 56.0
1331.464233 212.0
1331.569092 116.0
1332.099365 64.0
1333.283569 92.0
1333.530762 216.0
1334.08313 184.0
1334.315796 208.0
1334.85376 40.0
1335.624756 48.0
1335.690186 184.0
1336.235718 172.0
1336.453979 52.0
1336.912476 196.0
1337.07251 104.0
1337.276367 132.0
1337.946045 164.0
1338.666748 136.0
1339.234863 140.0
1339.861328 132.0
1340.597168 152.0
1341.143799 180.0
1341.77063 140.0
1341.960205 116.0
1342.328735 188.0
1343.659546 156.0
1343.722168 204.0
1343.995117 172.0
1344.571655 152.0
1344.848999 188.0
1345.009521 104.0
1345.231567 132.0
1346.973755 224.0
1348.054932 168.0
1348.727295 108.0
1348.815063 48.0
1349.12207 44.0
1349.217163 48.0
1349.399902 128.0
1349.677734 200.0
1350.065308 184.0
1350.825928 96.0
1351.36731 116.0
1351.579468 188.0
1351.981934 108.0
1352.604004 188.0
1352.838257 152.0
1352.896851 172.0
1353.035889 188.0
1353.116455 100.0
1353.548462 160.0
1353.643555 200.0
1353.702148 164.0
1353.797363 180.0
1354.178223 132.0
1355.474854 120.0
1355.643433 112.0
1355.980469 128.0
1356.053833 200.0
1356.838135 136.0
1356.977417 180.0
1357.732666 144.0
1358.092041 172.0
1358.414307 192.0
1358.443604 180.0
1358.59082 220.0
1359.207153 68.0
1360.043701 192.0
1360.117065 172.0
1360.27124 124.0
1360.322632 132.0
1360.40332 144.0
1360.64563 144.0
1361.152222 140.0
1361.233032 188.0
1361.313843 92.0
1361.614868 216.0
1361.710327 92.0
1362.048218 148.0
1362.158325 56.0
1362.231812 184.0
1362.981201 112.0
1364.201172 176.0
1364.252686 188.0
1364.480591 172.0
1364.642334 152.0
1364.767334 200.0
1364.84082 84.0
1365.09082 148.0
1365.348145 88.0
1365.421753 44.0
1365.529175 172.0
1366.539795 128.0
1367.3125 152.0
1367.621582 200.0
1367.731934 160.0
1367.864502 200.0
1367.945435 160.0
1368.291382 168.0
1368.593262 196.0
1368.703735 156.0
1369.079224 136.0
1369.624268 144.0
1369.977783 192.0
1370.500977 168.0
1370.581909 168.0
1370.802979 140.0
1371.127319 160.0
1371.186279 144.0
1372.144409 128.0
1372.822754 68.0
1372.992432 172.0
1373.191528 224.0
1373.693115 124.0
1374.00293 176.0
1374.202148 196.0
1374.79248 236.0
1376.896362 144.0
1377.036743 160.0
1377.169678 228.0
1377.24353 188.0
1377.53894 68.0
1377.738403 116.0
1377.88623 168.0
1378.27771 192.0
1378.964966 176.0
1379.157104 164.0
1379.778076 136.0
1379.911133 148.0
1380.192139 120.0
1380.687622 204.0
1380.887207 220.0
1381.049927 100.0
1381.212646 124.0
1381.59729 72.0
1382.152222 200.0
1382.315063 164.0
1383.210449 188.0
1383.315186 176.0
1383.499023 144.0
1383.67688 172.0
1383.787964 108.0
1384.292236 152.0
1385.098633 216.0
1385.624634 160.0
1385.765381 156.0
1386.24707 28.0
1387.099365 148.0
1387.551514 148.0
1388.077881 152.0
1388.322632 204.0
1388.752808 60.0
1388.901123 188.0
1389.168213 172.0
1389.606201 156.0
1389.698364 204.0
1390.52063 264.0
1391.015869 152.0
1391.528076 168.0
1391.825073 152.0
1392.292847 124.0
1393.161865 172.0
1393.407104 156.0
1393.950195 164.0
1394.038574 164.0
1395.748291 200.0
1396.30603 188.0
1396.596069 152.0
1398.858032 156.0
1399.026367 204.0
1399.699341 192.0
1399.847534 204.0
1400.071655 256.0
1400.496094 200.0
1400.741943 144.0
1401.144165 324.0
1401.434814 192.0
1401.693726 192.0
1401.757446 208.0
1402.122314 212.0
1402.440796 64.0
1403.119141 164.0
1403.596313 180.0
1403.909424 156.0
1404.088501 120.0
1404.334595 212.0
1405.595337 168.0
1405.714722 112.0
1405.82666 128.0
1406.043091 196.0
1406.580444 184.0
1406.923828 168.0
1407.07312 192.0
1407.721558 200.0
1407.969116 176.0
1408.200684 204.0
1408.25293 156.0
1408.312744 156.0
1408.514404 212.0
1408.588989 184.0
1408.880371 160.0
1409.530396 228.0
1410.02356 156.0
1410.449585 192.0
1410.748657 140.0
1411.002808 124.0
1411.189697 136.0
1411.309326 104.0
1411.86377 132.0
1412.358032 184.0
1412.739746 168.0
1414.436401 176.0
1414.578613 132.0
1415.229858 152.0
1415.484497 176.0
1415.888794 264.0
1416.40564 240.0
1416.570435 148.0
1416.75769 156.0
1417.139771 328.0
1417.40918 180.0
1417.566895 108.0
1417.671753 164.0
1418.106445 184.0
1418.556152 60.0
1418.923462 228.0
1419.170898 112.0
1420.258301 80.0
1420.865845 172.0
1421.120972 144.0
1421.226074 112.0
1421.556152 176.0
1422.160767 196.0
1422.464355 140.0
1422.75708 100.0
1422.899658 172.0
1423.117432 220.0
1423.507812 192.0
1423.755737 156.0
1423.920898 136.0
1423.988525 88.0
1424.153198 204.0
1424.303955 32.0
1424.404053 256.0
1424.679565 136.0
1424.762207 140.0
1425.07019 188.0
1425.310669 140.0
1425.363159 172.0
1426.280029 164.0
1426.43042 156.0
1426.513062 124.0
1426.663452 140.0
1426.746094 156.0
1427.099487 180.0
1427.551758 224.0
1427.678467 140.0
1427.967773 152.0
1428.128906 120.0
1428.453125 64.0
1428.715698 172.0
1428.729126 156.0
1429.145264 304.0
1429.416138 204.0
1429.724609 192.0
1429.973022 240.0
1430.469727 48.0
1430.620361 148.0
1431.20752 128.0
1431.584106 204.0
1431.96814 80.0
1432.683716 204.0
1432.733276 180.0
1432.992554 140.0
1433.203491 176.0
1433.467285 156.0
1433.715942 116.0
1434.846558 100.0
1434.899292 272.0
1435.178345 172.0
1435.396973 208.0
1435.72876 76.0
1436.792236 108.0
1437.131714 204.0
1437.662354 212.0
1437.74292 176.0
1438.135376 36.0
1438.444946 88.0
1439.735962 140.0
1440.060669 144.0
1440.121094 212.0
1440.309937 148.0
1440.589478 168.0
1440.793457 120.0
1441.035156 164.0
1441.59082 212.0
1441.692505 120.0
1441.83606 196.0
1442.811157 56.0
1443.438721 176.0
1443.763916 156.0
1444.61853 152.0
1444.701782 148.0
1444.845459 188.0
1445.034668 76.0
1445.095093 224.0
1445.352417 184.0
1445.768555 36.0
1445.866943 132.0
1446.063721 32.0
1446.154541 152.0
1446.38916 128.0
1446.495117 184.0
1446.714722 204.0
1446.926636 148.0
1447.356201 180.0
1447.585327 152.0
1447.668701 52.0
1447.842896 184.0
1448.638062 156.0
1448.706299 108.0
1449.009277 160.0
1450.27478 148.0
1450.456665 80.0
1451.185791 116.0
1451.487793 148.0
1451.540771 240.0
1451.707642 28.0
1452.003418 204.0
1452.241577 140.0
1453.86377 192.0
1453.953125 176.0
1454.066895 52.0
1454.241455 180.0
1454.567871 164.0
1454.643799 176.0
1454.87915 176.0
1455.349854 160.0
1455.418213 140.0
1455.524414 168.0
1455.577637 180.0
1455.987671 128.0
1456.473755 184.0
1456.724365 52.0
1457.005493 200.0
1457.42334 124.0
1458.038818 124.0
1458.187378 148.0
1458.502441 176.0
1458.669678 148.0
1460.3396 248.0
1460.966187 188.0
1461.171631 100.0
1461.780273 168.0
1462.061768 136.0
1462.46521 88.0
1463.13501 160.0
1463.378662 172.0
1463.49292 184.0
1463.65271 160.0
1463.774536 68.0
1464.063965 128.0
1464.402466 220.0
1464.529297 188.0
1465.03125 108.0
1465.412231 104.0
1465.761108 220.0
1466.21228 160.0
1466.357056 220.0
1466.440918 256.0
1467.050659 160.0
1467.226074 160.0
1467.393799 132.0
1467.523315 136.0
1467.607178 172.0
1467.856567 176.0
1468.209595 184.0
1468.346191 228.0
1468.552856 124.0
1468.73584 140.0
1469.765747 76.0
1470.345703 116.0
1470.52124 164.0
1471.52124 136.0
1471.574707 168.0
1471.696777 156.0
1471.82666 220.0
1472.078613 148.0
1472.355225 156.0
1472.628418 176.0
1472.972168 120.0
1473.216553 164.0
1473.27002 40.0
1474.270996 132.0
1474.783081 180.0
1474.859497 140.0
1475.165161 136.0
1475.241699 184.0
1475.63916 136.0
1475.845581 104.0
1475.945068 148.0
1476.082642 204.0
1477.633545 208.0
1477.741821 104.0
1478.224487 192.0
1478.332153 200.0
1478.507568 132.0
1478.614746 56.0
1479.127563 200.0
1479.21167 216.0
1479.426025 104.0
1480.007935 140.0
1480.084473 140.0
1480.589844 180.0
1480.827271 224.0
1480.90271 184.0
1481.417114 128.0
1481.807739 168.0
1481.930298 136.0
1482.252197 120.0
1482.666016 100.0
1482.796265 212.0
1483.194824 164.0
1484.728149 228.0
1484.904541 204.0
1484.956787 172.0
1485.495117 188.0
1485.794312 164.0
1486.108887 192.0
1486.300659 180.0
1486.469482 172.0
1486.546265 192.0
1486.999023 196.0
1487.137207 180.0
1487.605347 116.0
1487.73584 148.0
1487.866333 164.0
1487.973877 172.0
1488.204224 128.0
1488.357788 216.0
1488.560059 160.0
1489.430908 212.0
1489.532715 120.0
1489.832397 188.0
1490.016724 184.0
1490.331665 176.0
1490.42981 88.0
1490.694092 220.0
1490.815796 112.0
1490.8927 44.0
1491.13855 224.0
1491.292236 80.0
1491.738037 124.0
1492.030273 56.0
1492.241821 180.0
1492.499146 152.0
1492.845215 180.0
1493.275879 164.0
1493.875854 108.0
1494.104736 132.0
1494.629761 204.0
1494.791382 212.0
1495.160767 584.0
1495.299316 124.0
1495.522461 108.0
1495.922729 80.0
1496.084351 208.0
1496.315308 168.0
1496.484741 112.0
1496.73877 188.0
1497.354858 204.0
1497.678345 152.0
1497.863159 276.0
1498.017212 116.0
1498.317627 64.0
1498.63916 192.0
1498.864746 184.0
1499.666138 188.0
1500.267334 148.0
1501.377686 172.0
1501.431641 132.0
1501.52417 228.0
1501.678467 184.0
1501.778687 120.0
1501.90332 128.0
1502.17981 220.0
1502.250244 156.0
1502.334106 188.0
1502.958984 68.0
1503.051636 116.0
1503.468262 60.0
1503.54541 196.0
1503.768921 176.0
1504.04126 180.0
1504.193726 168.0
