>compound ZAFIRLUKAST
>formula C31H33N3O6S
>ionization [M+H]+
>parentmass 576.217407
#inchi InChI=1S/C31H33N3O6S/c1-20-8-4-7-11-29(20)41(37,38)33-30(35)22-13-12-21(28(17-22)39-3)16-23-19-34(2)27-15-14-24(18-26(23)27)32-31(36)40-25-9-5-6-10-25/h4,7-8,11-15,17-19,25H,5-6,9-10,16H2,1-3H3,(H,32,36)(H,33,35)
#inchikey YEEZWCHGZNKEEK
#Ion_Source LC-ESI
#Instrument qTof
#Compound_Source Commercial
#PI Dorrestein
#Data_Collector Garg_Neha
#Scan -1
#Precursor_MZ 576.216
#ExactMass 575.209
#Charge 1
#CAS_Number N/A
#Pubmed_ID N/A
#Smiles COc1cc(ccc1Cc2cn(C)c3ccc(NC(=O)OC4CCCC4)cc23)C(=O)NS(=O)(=O)c5ccccc5C
#INCHI_AUX N/A
#Library_Class 1
#SpectrumID CCMSLIB00000079105
#IonMode Positive
#UpdateWorkflowName UPDATE-SINGLE-ANNOTATED-GOLD
#LibraryQualityString Gold
#TaskID 278b19f5865741e282cec7349aa7e7a1
##Scan# 2834
#SpectrumFile NCP003512_C2_D11_BD5_01_15729.mzXML
#LibraryName NIHcollectionI_05062014.mgf
#MQScore -1
#Organism NIHcollectionI_05062014
#TIC_Query 0
#RT_Query -1
#MZErrorPPM -1
#SharedPeaks 0
#MassDiff 0
#LibMZ -1
#SpecMZ 576.216
#SpecCharge 0
#internalFilename spec-00000.mgf

>collision 10
45.550915 184.0
46.233154 140.0
46.356388 140.0
50.352062 188.0
50.693481 184.0
51.089619 156.0
51.365978 148.0
51.992664 152.0
52.278648 144.0
53.120991 180.0
56.017132 184.0
56.046928 156.0
58.430824 116.0
58.49894 168.0
59.163002 160.0
59.829273 144.0
59.853905 208.0
60.565857 164.0
60.621632 152.0
62.437263 216.0
63.286228 180.0
63.919556 188.0
69.074867 200.0
69.777702 152.0
70.189262 144.0
71.072433 264.0
72.081055 156.0
72.568527 152.0
72.918221 140.0
74.114471 168.0
75.26519 160.0
76.146645 200.0
77.403999 156.0
78.454674 176.0
79.901566 180.0
79.986984 204.0
80.131226 188.0
80.421898 164.0
80.545097 144.0
80.698792 152.0
81.372452 188.0
82.408066 148.0
84.828575 152.0
86.026123 156.0
89.731331 140.0
91.054565 548.0
91.685638 160.0
94.855148 144.0
96.744728 176.0
98.821045 184.0
99.005135 192.0
99.588211 156.0
99.854538 188.0
100.085381 284.0
100.202888 172.0
102.288788 184.0
102.444679 140.0
102.62001 232.0
102.936798 196.0
103.454384 168.0
104.780525 152.0
105.292511 172.0
105.744331 160.0
106.06385 144.0
106.244308 164.0
107.049309 296.0
107.066887 164.0
107.916641 156.0
108.069695 196.0
110.188324 220.0
110.713341 200.0
110.874649 172.0
110.941719 140.0
111.082222 196.0
113.249092 192.0
113.583992 144.0
116.038567 148.0
118.06768 108.0
119.049599 1728.0
120.048698 136.0
121.065247 628.0
121.089935 176.0
121.833527 140.0
121.853294 144.0
121.881859 164.0
122.709435 160.0
123.865211 200.0
126.551003 144.0
127.239296 164.0
128.201996 224.0
128.265106 156.0
129.073334 140.0
129.702698 164.0
129.90451 156.0
131.038925 160.0
131.062912 144.0
132.079895 164.0
133.969101 180.0
134.060059 168.0
135.044708 124.0
135.065567 176.0
135.093323 200.0
135.60968 192.0
136.047287 128.0
137.05957 2264.0
137.91626 168.0
137.934967 164.0
138.062592 160.0
139.063934 152.0
139.11792 184.0
139.764236 196.0
142.063034 184.0
144.065079 148.0
144.478638 196.0
144.80658 204.0
145.075943 968.0
145.549988 180.0
146.060059 2292.0
146.083603 3424.0
146.140625 164.0
146.353073 228.0
147.046219 1556.0
147.085632 656.0
147.639221 176.0
147.910202 172.0
148.047333 244.0
148.091797 276.0
149.058472 624.0
149.874908 152.0
150.079651 180.0
150.218658 160.0
151.03624 340.0
151.457962 144.0
151.516754 180.0
152.370514 212.0
153.638382 184.0
154.035812 176.0
154.886719 140.0
154.975906 144.0
155.014679 868.0
155.375061 152.0
156.757492 160.0
157.010529 104.0
157.03421 148.0
158.086914 160.0
158.614441 164.0
159.005707 252.0
159.040848 148.0
159.091736 3152.0
159.342178 164.0
160.09816 1116.0
161.076355 188.0
161.104553 172.0
162.052658 256.0
163.056778 600.0
163.089767 160.0
163.283005 148.0
164.037292 192.0
165.054153 3208.0
166.055908 588.0
166.349121 180.0
167.251358 140.0
171.07988 280.0
171.267365 168.0
173.069305 156.0
173.106644 152.0
175.136063 180.0
175.417999 192.0
176.614151 200.0
176.780823 156.0
177.443008 156.0
178.08252 144.0
178.31102 164.0
179.802414 160.0
180.515686 320.0
181.096497 152.0
181.721024 180.0
183.323593 212.0
184.067596 168.0
184.157227 148.0
185.071457 8720.0
185.175247 100.0
185.192581 200.0
186.072983 808.0
187.078812 308.0
189.059143 204.0
189.316467 204.0
190.078522 196.0
191.240997 168.0
192.153107 160.0
193.085602 164.0
194.272247 256.0
195.074783 152.0
195.138733 168.0
196.118607 184.0
196.883057 148.0
197.09227 332.0
198.102524 240.0
200.473877 140.0
201.433151 180.0
201.546158 164.0
203.082764 880.0
204.08815 864.0
205.086349 212.0
205.36441 188.0
206.105194 260.0
207.091812 160.0
207.265488 160.0
207.357193 180.0
207.491913 140.0
207.618073 156.0
208.082474 156.0
209.074951 236.0
209.097198 536.0
209.322159 160.0
209.728363 204.0
209.751419 184.0
210.109009 168.0
211.104797 200.0
212.065506 168.0
212.110123 184.0
212.359482 204.0
213.032883 144.0
214.148575 160.0
214.58403 180.0
216.922775 204.0
217.016586 152.0
217.321609 160.0
218.102768 156.0
218.293869 192.0
218.90004 148.0
219.085693 116.0
220.108887 268.0
221.087479 168.0
221.115601 128.0
221.315414 160.0
222.0793 288.0
222.113663 448.0
223.081696 276.0
223.333374 152.0
223.755936 140.0
224.108047 464.0
224.37561 144.0
225.110855 172.0
226.01384 268.0
226.105087 284.0
226.235001 188.0
226.353546 164.0
227.633957 184.0
229.068573 152.0
229.876572 140.0
231.089966 132.0
232.718826 172.0
232.934448 160.0
233.031662 168.0
233.10701 1388.0
233.69751 148.0
234.068848 148.0
234.110352 504.0
235.084595 400.0
235.11908 168.0
236.094467 300.0
237.102875 608.0
238.116745 148.0
238.209915 156.0
239.107483 152.0
239.387863 144.0
239.973312 180.0
240.068893 176.0
240.102219 404.0
241.325623 212.0
241.514267 156.0
241.795807 168.0
243.485443 156.0
243.824066 228.0
244.134872 144.0
246.101501 148.0
247.09906 204.0
247.242111 144.0
248.037109 216.0
248.107803 440.0
249.104095 868.0
250.109848 1520.0
250.154816 160.0
251.11644 124.0
252.087036 140.0
252.116623 160.0
252.331558 144.0
252.806015 140.0
253.101257 264.0
253.135696 256.0
254.1203 456.0
255.099136 180.0
256.404114 204.0
256.866425 144.0
259.088165 148.0
260.091797 376.0
261.102417 4060.0
261.171448 208.0
261.688904 100.0
262.046692 176.0
262.106506 1132.0
263.117096 780.0
263.237274 144.0
263.582886 148.0
263.907654 152.0
263.957855 204.0
263.999878 168.0
264.08667 136.0
264.124817 680.0
264.29425 140.0
265.051941 152.0
265.095337 304.0
265.134186 16056.0
265.220459 196.0
265.291748 180.0
265.579315 100.0
265.677673 188.0
266.136719 3352.0
266.531555 180.0
266.583527 156.0
266.759918 192.0
267.110229 184.0
267.137238 488.0
267.29483 172.0
267.65332 100.0
268.102814 172.0
269.085083 144.0
269.123962 244.0
270.628265 168.0
271.129456 156.0
271.880432 156.0
273.053284 148.0
275.088074 168.0
275.117523 112.0
276.090729 112.0
276.119995 308.0
277.093353 280.0
277.134766 228.0
277.504578 152.0
278.104858 2044.0
279.068359 160.0
279.109467 752.0
279.355255 168.0
279.510742 148.0
279.737061 168.0
279.900177 144.0
280.121155 7592.0
280.246582 260.0
281.124817 1336.0
282.101196 140.0
282.126556 424.0
282.199097 156.0
283.390625 196.0
284.624939 244.0
285.122101 172.0
286.474701 160.0
288.066925 140.0
289.050446 208.0
290.055908 140.0
290.091553 436.0
290.135559 288.0
290.572052 156.0
291.111572 1100.0
292.115967 692.0
292.566956 144.0
292.607819 172.0
293.128052 18900.0
293.222443 256.0
294.13028 5232.0
295.135773 784.0
296.112854 404.0
296.267334 200.0
296.321564 132.0
296.542145 152.0
297.123627 18100.0
297.868958 192.0
298.125488 3892.0
298.58374 96.0
299.128723 772.0
299.803497 176.0
300.956543 212.0
302.377289 172.0
302.539978 148.0
304.881226 140.0
305.087982 108.0
307.108582 116.0
307.761963 184.0
308.083282 248.0
308.109619 148.0
308.137665 512.0
309.123352 8284.0
309.206116 172.0
309.487915 128.0
309.856171 112.0
310.130432 1732.0
310.19574 132.0
310.951019 164.0
311.138458 2736.0
312.110077 140.0
312.14151 772.0
312.336182 140.0
312.613281 196.0
313.137207 156.0
314.107117 192.0
314.145905 140.0
316.110321 152.0
316.701538 164.0
317.084167 140.0
317.112518 152.0
317.179871 144.0
317.459961 164.0
318.078949 5660.0
318.640442 168.0
318.972412 168.0
319.108276 42176.0
319.328705 196.0
319.448914 148.0
320.014771 144.0
320.111542 8048.0
321.081696 216.0
321.117859 1116.0
321.260742 152.0
321.496582 148.0
321.980713 108.0
322.116943 568.0
322.327515 248.0
323.103516 1152.0
324.10611 540.0
325.104858 144.0
326.092468 664.0
329.23761 196.0
330.600494 176.0
331.339142 232.0
334.196442 140.0
335.124939 348.0
335.514862 180.0
336.133606 180.0
336.402405 244.0
336.811066 132.0
336.918396 148.0
337.000275 180.0
337.038818 176.0
337.119293 56252.0
337.223053 140.0
337.232574 200.0
337.663513 120.0
337.716766 160.0
337.791351 144.0
337.828247 172.0
338.007904 124.0
338.054932 176.0
338.121857 11920.0
338.263947 148.0
338.342499 216.0
338.603851 100.0
338.949127 208.0
339.12439 1232.0
339.190918 132.0
339.493927 152.0
340.101562 412.0
340.60321 112.0
340.740967 104.0
341.111481 1444.0
341.56073 148.0
342.111115 256.0
343.830322 164.0
343.977966 140.0
348.414337 180.0
349.455322 140.0
350.002472 172.0
350.695374 152.0
352.877502 132.0
353.436462 148.0
353.503815 156.0
353.634796 160.0
354.408447 196.0
354.741882 156.0
354.82785 184.0
354.995605 132.0
355.05954 184.0
355.129517 82804.0
355.218872 280.0
355.381683 144.0
355.413483 144.0
355.492645 124.0
355.543243 256.0
355.87674 196.0
355.935699 200.0
356.079437 404.0
356.132141 16332.0
357.065033 124.0
357.134277 2708.0
357.178802 272.0
357.309235 204.0
358.098083 220.0
358.13208 596.0
358.266632 176.0
358.382751 172.0
358.516022 112.0
359.466217 152.0
367.576569 148.0
367.897156 148.0
370.40567 172.0
370.700562 116.0
374.945404 124.0
375.06662 148.0
378.253296 144.0
379.233276 168.0
382.155304 104.0
383.804962 148.0
393.63443 140.0
393.669983 152.0
398.279938 200.0
405.072937 216.0
405.182251 8632.0
406.185211 2144.0
407.185425 468.0
407.246948 160.0
407.688873 164.0
408.178284 128.0
408.599304 124.0
409.177277 112.0
410.19632 176.0
411.511475 144.0
422.141144 160.0
422.596771 144.0
423.191833 14528.0
423.488647 108.0
424.195404 4212.0
425.196594 1028.0
426.199188 128.0
427.723419 152.0
439.161041 180.0
441.248962 140.0
448.76004 156.0
461.45462 96.0
461.561859 252.0
462.148499 292.0
462.84552 144.0
463.098206 196.0
463.156616 712.0
463.423767 236.0
463.630737 132.0
463.715668 132.0
463.828613 108.0
463.888214 256.0
464.057617 112.0
464.164734 36332.0
464.312469 160.0
464.36908 144.0
464.751038 292.0
464.948883 140.0
464.977692 212.0
465.022217 100.0
465.05896 140.0
465.167023 12068.0
465.681824 164.0
466.164429 3712.0
466.393402 140.0
467.046936 164.0
467.16153 680.0
467.435791 120.0
467.697998 140.0
467.900482 104.0
468.185211 244.0
468.538116 100.0
470.364777 140.0
482.948364 156.0
488.893127 176.0
490.082031 152.0
490.143585 1256.0
491.14267 176.0
491.828369 160.0
492.14328 272.0
493.154877 144.0
508.154327 1804.0
509.150391 632.0
510.160767 164.0
511.162109 156.0
532.224854 732.0
533.238464 232.0
533.276001 148.0
558.188721 108.0
574.195374 116.0
575.209839 1372.0
576.217407 1340.0
577.223572 808.0
578.214783 320.0
730.012756 144.0
871.484924 144.0
957.184509 140.0
1517.619141 240.0
1619.719238 164.0
1708.221558 168.0
1761.824585 160.0
1788.641968 152.0
1839.263672 176.0
1854.565674 148.0
1921.961426 164.0
1948.209351 156.0
1968.546265 144.0
1969.146729 144.0
1988.039062 200.0
