>compound MLS001148217-01!Medroxyprogesterone 17-acetate
>formula C24H34O4
>ionization [M+H]+
>parentmass 387.25298602009053
#inchi InChI=1S/C24H34O4/c1-14-12-18-19(22(4)9-6-17(27)13-21(14)22)7-10-23(5)20(18)8-11-24(23,15(2)25)28-16(3)26/h13-14,18-20H,6-12H2,1-5H3/t14-,18+,19-,20-,22+,23-,24-/m0/s1
#inchikey PSGAAPLEWMOORI
#Ion_Source LC-ESI
#Instrument qTof
#Compound_Source NIH Pharmacologically Active Library
#PI Dorrestein
#Data_Collector VP/LMS
#Scan -1
#Precursor_MZ 387.257
#ExactMass 386.246
#Charge 1
#CAS_Number N/A
#Pubmed_ID N/A
#Smiles C[C@H]/1C[C@H]2[C@@H]3CC[C@](OC(=O)C)(C(=O)C)[C@@]3(C)CC[C@@H]2[C@@]\4(C)CCC(=O)\C=C14
#INCHI_AUX N/A
#Library_Class 1
#SpectrumID CCMSLIB00000084833
#IonMode Positive
#UpdateWorkflowName UPDATE-SINGLE-ANNOTATED-GOLD
#LibraryQualityString Gold
#TaskID d252d724072548979f1f6f1ced849daf
##Scan# 2486
#SpectrumFile p3-B05_GB5_01_18238.mzXML
#LibraryName Pharm_Active_Library.mgf
#MQScore -1
#Organism Pharm_Active_Library
#TIC_Query 0
#RT_Query -1
#MZErrorPPM -1
#SharedPeaks 0
#MassDiff 0
#LibMZ -1
#SpecMZ 387.257
#SpecCharge 0
#internalFilename spec-00000.mgf

>collision 10
45.002548 128.0
45.08136 92.0
45.35305 64.0
45.547615 180.0
45.56105 128.0
45.964977 144.0
46.05138 184.0
46.08102 140.0
46.158146 148.0
46.235252 144.0
46.371105 52.0
46.456116 84.0
46.465611 208.0
46.477821 128.0
46.54705 196.0
46.696541 64.0
46.730549 176.0
46.761848 260.0
46.80405 160.0
46.877609 232.0
46.893963 200.0
46.95116 172.0
47.034454 124.0
47.236691 176.0
47.328388 204.0
47.409206 176.0
47.631477 140.0
47.822605 108.0
47.91349 84.0
47.969994 224.0
48.117607 176.0
48.134174 176.0
48.22121 144.0
48.428749 112.0
48.443985 96.0
48.460613 168.0
48.480011 124.0
48.514664 156.0
48.54319 184.0
48.565971 148.0
48.577068 56.0
48.647842 224.0
48.902977 212.0
48.977406 196.0
49.07914 108.0
49.116795 104.0
49.161442 196.0
49.284325 172.0
49.443741 128.0
49.547359 76.0
49.732464 32.0
49.747906 72.0
49.805477 132.0
49.875736 196.0
49.98262 112.0
49.9981 196.0
50.095253 152.0
50.284199 224.0
50.294079 100.0
50.337845 192.0
50.412716 200.0
50.953991 196.0
51.00515 156.0
51.100655 232.0
51.117508 204.0
51.271309 136.0
51.385384 152.0
51.496731 172.0
51.591042 248.0
51.665405 240.0
51.742687 176.0
51.851555 68.0
51.949055 112.0
52.043777 180.0
52.075371 104.0
52.476868 52.0
52.538883 136.0
52.814793 164.0
52.833599 156.0
52.911053 160.0
53.146549 132.0
53.16396 184.0
53.235096 156.0
53.319355 100.0
53.421135 128.0
53.832157 196.0
54.105579 188.0
54.203831 200.0
54.337139 76.0
54.636848 196.0
54.700127 196.0
54.87249 176.0
55.055462 168.0
55.116028 88.0
55.274246 60.0
55.321609 168.0
55.552788 152.0
55.735405 160.0
55.913853 172.0
56.120914 216.0
56.174606 100.0
56.216381 56.0
56.229813 268.0
56.873405 148.0
56.898926 256.0
56.969509 80.0
57.00106 256.0
57.071709 148.0
57.110809 64.0
57.129517 404.0
57.35323 176.0
57.44672 180.0
57.463238 232.0
57.782104 184.0
57.935009 156.0
58.145775 144.0
58.282448 160.0
58.346283 192.0
58.394943 108.0
58.413197 172.0
58.633972 196.0
58.757484 156.0
58.8433 140.0
58.873493 104.0
58.904037 168.0
58.925426 144.0
59.098198 200.0
59.275818 136.0
59.438358 192.0
59.56118 188.0
59.636467 136.0
59.68187 188.0
59.756416 208.0
59.827209 36.0
60.036762 176.0
60.138588 200.0
60.171005 176.0
60.184902 228.0
60.323948 188.0
60.359505 180.0
60.447678 188.0
60.526623 176.0
60.627312 108.0
60.745148 132.0
60.777729 196.0
60.830498 140.0
60.850677 192.0
60.895714 172.0
60.908138 44.0
60.970287 188.0
61.0107 128.0
61.040241 192.0
61.139801 184.0
61.177158 28.0
61.236328 44.0
61.275272 136.0
61.314228 100.0
61.378143 48.0
61.60601 144.0
61.677891 76.0
61.853081 176.0
61.890656 168.0
61.964497 192.0
62.026955 196.0
62.153656 132.0
62.268585 132.0
62.353424 196.0
62.491806 140.0
62.543739 228.0
62.699665 92.0
62.762718 176.0
62.789528 200.0
62.860519 236.0
62.887348 148.0
63.06741 156.0
63.200249 180.0
63.268303 132.0
63.309471 196.0
63.44891 252.0
63.809299 164.0
63.880863 212.0
63.944511 120.0
64.587517 160.0
64.617912 176.0
64.712341 136.0
64.771591 200.0
65.193558 148.0
65.280365 108.0
65.394592 176.0
65.710434 172.0
65.745934 212.0
65.973679 100.0
66.316841 152.0
66.371964 184.0
66.719414 140.0
66.904877 128.0
66.93557 192.0
67.224052 216.0
67.253716 180.0
67.278198 192.0
67.765572 172.0
67.814728 176.0
67.91803 220.0
68.037819 308.0
68.055878 136.0
68.216881 168.0
68.284821 188.0
68.307327 40.0
68.821518 72.0
68.927071 124.0
68.978462 168.0
69.021446 156.0
69.138893 108.0
69.165375 152.0
69.233261 200.0
69.34507 164.0
69.505119 128.0
69.516739 88.0
69.559891 124.0
69.62796 160.0
69.820747 148.0
69.965508 196.0
70.080429 152.0
70.232132 140.0
70.566116 180.0
70.750153 160.0
70.900902 376.0
70.931068 180.0
70.99646 120.0
71.152336 156.0
71.20372 144.0
71.29528 200.0
71.423058 376.0
71.533669 208.0
72.007927 180.0
72.040016 72.0
72.112671 136.0
72.224266 212.0
72.312248 156.0
72.629089 144.0
72.696953 76.0
72.746178 160.0
72.798805 196.0
72.832779 164.0
73.019737 48.0
73.050354 212.0
73.089485 152.0
73.201828 164.0
73.300629 236.0
73.580353 48.0
73.70504 72.0
73.776817 156.0
74.011215 244.0
74.141403 164.0
74.323174 200.0
74.374657 196.0
74.415855 164.0
74.573898 144.0
74.690819 192.0
75.078339 52.0
75.164589 144.0
75.178398 172.0
75.243988 64.0
75.382164 104.0
75.548149 176.0
75.658905 160.0
75.676216 60.0
75.878929 228.0
75.944824 216.0
76.102539 172.0
76.125313 124.0
76.239967 220.0
76.399933 144.0
76.474762 112.0
76.556587 128.0
76.573997 96.0
76.615807 124.0
76.682022 172.0
76.969864 56.0
77.125351 232.0
77.638336 208.0
78.091446 28.0
78.10376 132.0
78.147743 108.0
78.267426 160.0
78.415405 180.0
78.487679 164.0
78.556465 148.0
78.824829 180.0
78.890221 172.0
79.136139 148.0
79.412582 180.0
79.574066 180.0
79.808594 124.0
79.881508 164.0
79.997177 300.0
80.105804 188.0
80.155952 108.0
80.19133 172.0
80.460686 40.0
80.482109 192.0
80.508896 152.0
80.535683 204.0
80.569412 204.0
80.678635 64.0
80.716179 188.0
81.142319 168.0
81.23378 176.0
81.30555 148.0
81.434814 140.0
81.486908 164.0
81.6343 180.0
81.830429 156.0
81.880844 196.0
81.938484 128.0
82.272125 252.0
82.512215 172.0
82.620911 240.0
82.711388 168.0
82.767509 188.0
83.045601 228.0
83.240784 152.0
83.64595 168.0
83.735428 212.0
83.875725 180.0
83.93589 160.0
83.992424 128.0
84.401512 156.0
85.002319 208.0
85.461685 240.0
85.520569 160.0
85.553703 60.0
85.684464 60.0
85.747108 208.0
85.992409 40.0
86.132736 176.0
86.291656 268.0
86.569206 132.0
86.915848 116.0
87.153519 132.0
87.484566 196.0
87.570221 176.0
87.585121 196.0
87.713684 160.0
87.775208 188.0
87.995384 180.0
88.04393 200.0
88.200874 64.0
88.299965 128.0
88.320541 216.0
88.4328 196.0
88.505814 208.0
88.732521 140.0
88.953888 184.0
89.044014 132.0
89.113976 164.0
89.143578 176.0
89.262001 352.0
89.374863 96.0
89.484032 244.0
89.719528 156.0
89.787407 164.0
89.825127 172.0
89.873192 168.0
89.981758 92.0
90.100739 204.0
90.231148 160.0
90.391914 148.0
90.53389 128.0
90.626709 200.0
90.732841 188.0
90.907341 184.0
90.924423 124.0
91.032631 156.0
91.054184 952.0
91.072426 220.0
91.744225 220.0
91.795708 116.0
91.822403 168.0
92.196587 208.0
92.542816 128.0
92.755463 168.0
92.880096 132.0
92.897362 204.0
92.995224 276.0
93.069008 732.0
93.177643 44.0
93.225685 164.0
93.239136 164.0
93.444885 104.0
93.500381 204.0
93.537254 256.0
93.673569 172.0
93.701332 140.0
93.810791 172.0
94.040115 180.0
94.075996 184.0
94.134041 164.0
94.200592 160.0
94.324265 152.0
94.357124 128.0
94.699142 220.0
94.926376 152.0
95.039757 204.0
95.043571 96.0
95.086151 720.0
95.240776 168.0
95.361244 112.0
95.382622 144.0
95.514847 52.0
95.540138 32.0
95.631592 84.0
95.715302 212.0
96.027107 80.0
96.066116 164.0
96.161728 160.0
96.184433 160.0
96.452751 136.0
96.482071 60.0
96.505531 72.0
96.671799 140.0
96.86367 216.0
96.920479 120.0
97.040039 164.0
97.065826 5516.0
97.143982 164.0
97.287239 116.0
97.316689 160.0
97.342209 156.0
97.467926 124.0
97.483643 92.0
97.511162 80.0
97.540642 168.0
97.766823 72.0
97.873123 220.0
97.89872 84.0
97.938446 212.0
97.967659 180.0
97.983414 220.0
98.026764 196.0
98.068802 1060.0
98.135178 172.0
98.150948 192.0
98.277184 104.0
98.403503 64.0
98.43586 208.0
98.691963 144.0
98.824486 228.0
98.873955 168.0
98.913536 136.0
99.042976 184.0
99.079979 160.0
99.161125 232.0
99.204727 116.0
99.379257 152.0
99.722801 136.0
99.891808 200.0
100.084236 232.0
100.305992 156.0
100.361816 104.0
100.391724 96.0
100.477493 132.0
100.605217 156.0
100.659126 248.0
100.780968 188.0
101.045441 384.0
101.166954 44.0
101.373253 212.0
102.260918 60.0
102.308167 208.0
102.325333 148.0
102.349487 168.0
102.367615 144.0
102.403862 112.0
102.421989 152.0
102.496529 212.0
103.056252 208.0
103.112022 168.0
103.196922 48.0
103.233315 144.0
103.255562 136.0
103.340523 240.0
103.520668 244.0
103.840866 36.0
103.880363 212.0
103.993034 108.0
104.125 216.0
104.141251 128.0
104.490891 80.0
104.523445 84.0
104.704849 212.0
104.786095 116.0
105.070259 2380.0
105.257256 208.0
105.275635 64.0
105.289925 56.0
105.386444 48.0
105.404327 52.0
105.516739 156.0
105.538208 136.0
105.909637 188.0
105.969048 132.0
106.026421 192.0
106.072479 220.0
106.094063 284.0
106.155571 140.0
106.202744 76.0
106.233505 208.0
106.295059 180.0
106.387421 128.0
106.459282 120.0
106.707909 76.0
106.742859 152.0
107.049713 860.0
107.086319 1224.0
107.252823 96.0
107.509171 116.0
107.633026 96.0
107.705307 116.0
107.84581 152.0
108.053093 408.0
108.090012 232.0
108.307213 280.0
108.344505 84.0
108.402519 140.0
108.458473 104.0
108.54969 104.0
108.607765 56.0
108.711494 200.0
108.748856 196.0
108.906647 108.0
109.064278 1428.0
109.101295 632.0
109.255867 52.0
109.334938 172.0
109.353668 44.0
109.378647 400.0
109.451508 128.0
109.499405 56.0
109.795341 48.0
109.847488 160.0
109.945549 116.0
109.987289 80.0
110.070801 176.0
110.106743 152.0
110.164787 140.0
110.233734 108.0
110.38842 100.0
110.430244 144.0
110.459526 164.0
110.488815 180.0
110.704399 196.0
110.859421 180.0
110.907623 156.0
110.939064 128.0
110.958984 80.0
111.081429 364.0
111.165581 212.0
111.310425 248.0
111.56044 84.0
111.751823 136.0
111.789696 192.0
111.84021 44.0
111.943367 144.0
112.023399 176.0
112.085152 180.0
112.248917 212.0
112.284767 56.0
112.335388 184.0
112.364922 148.0
112.455658 96.0
112.5401 172.0
112.880287 256.0
112.936348 200.0
112.956421 52.0
113.04528 180.0
113.093956 124.0
113.130547 168.0
113.445587 48.0
113.509186 180.0
113.623726 228.0
113.668282 224.0
113.765907 128.0
113.855087 140.0
114.025047 104.0
114.054802 192.0
114.131332 168.0
114.384499 104.0
114.566307 308.0
114.633682 124.0
114.851143 64.0
114.938606 116.0
115.053864 36.0
115.20871 184.0
115.413116 184.0
115.753014 152.0
115.770142 156.0
115.930809 140.0
115.95224 48.0
116.061569 376.0
116.308273 144.0
116.40274 88.0
116.50798 228.0
116.79818 192.0
116.972473 152.0
117.006912 108.0
117.069016 664.0
117.269714 164.0
117.379662 180.0
117.789719 140.0
117.930161 128.0
118.055557 156.0
118.072853 152.0
118.21347 56.0
118.33252 164.0
118.876564 56.0
118.926483 108.0
119.013313 128.0
119.043716 208.0
119.085426 3080.0
119.278358 88.0
119.3414 72.0
119.415337 56.0
119.463188 176.0
119.567635 84.0
119.737442 44.0
119.879044 132.0
119.916092 164.0
119.974945 176.0
120.029457 156.0
120.086617 192.0
120.107964 152.0
120.173409 196.0
120.245422 112.0
120.332733 180.0
120.514015 144.0
120.67794 156.0
120.850723 124.0
120.872139 168.0
120.966713 184.0
121.065048 776.0
121.103271 1064.0
121.362343 116.0
121.402718 152.0
121.4729 140.0
121.742859 104.0
121.79557 148.0
121.892235 40.0
122.074379 496.0
122.101677 160.0
122.134064 208.0
122.167061 148.0
122.633011 236.0
122.700005 172.0
122.735283 316.0
122.772766 152.0
122.887466 164.0
122.950142 208.0
122.993393 220.0
123.081139 26280.0
123.115845 280.0
123.134697 48.0
123.200966 36.0
123.220848 64.0
123.279449 192.0
123.329124 72.0
123.346809 60.0
123.550255 76.0
123.601143 144.0
123.620422 56.0
123.660889 72.0
123.736153 148.0
123.758293 68.0
123.787079 60.0
123.813652 36.0
123.8358 164.0
124.084221 2376.0
124.118507 176.0
124.194862 84.0
124.223694 224.0
124.288033 236.0
124.361267 164.0
124.385681 168.0
124.450066 168.0
124.46891 172.0
124.709305 200.0
124.747757 128.0
124.832245 156.0
124.885246 144.0
124.939003 124.0
124.961258 188.0
124.987038 172.0
125.05249 148.0
125.093666 184.0
125.125946 112.0
125.148209 160.0
125.35759 160.0
125.451202 148.0
125.616219 68.0
125.910835 220.0
126.156624 148.0
126.272888 48.0
126.288544 236.0
126.391457 204.0
126.493317 132.0
126.588432 184.0
126.693703 80.0
126.987343 124.0
127.185715 184.0
127.285812 180.0
127.778038 68.0
127.859047 116.0
128.060654 408.0
128.111221 148.0
128.176559 64.0
128.37944 184.0
128.53508 44.0
129.069595 1360.0
129.124695 128.0
129.188019 160.0
129.69072 200.0
129.706573 160.0
130.079163 792.0
130.260239 56.0
130.364349 176.0
130.403397 100.0
130.482956 172.0
130.503418 40.0
130.526154 188.0
130.664886 84.0
130.769562 228.0
130.801437 132.0
131.086273 2356.0
131.298126 96.0
131.343735 148.0
131.736359 180.0
131.772903 28.0
131.839172 140.0
132.012909 132.0
132.090363 440.0
132.127274 136.0
132.683777 60.0
132.745682 164.0
132.878723 112.0
132.956741 100.0
133.066315 432.0
133.101151 2404.0
133.13121 236.0
133.149582 36.0
133.167953 108.0
133.234573 100.0
133.2966 152.0
133.41893 124.0
133.655304 128.0
134.072968 128.0
134.105835 704.0
134.166611 196.0
134.235779 240.0
134.360321 228.0
134.745865 152.0
134.794388 236.0
134.852173 168.0
134.884521 164.0
134.973877 124.0
135.08223 792.0
135.115234 636.0
135.21759 164.0
135.254623 136.0
135.30632 180.0
135.509354 160.0
135.588135 136.0
135.68013 104.0
135.708679 176.0
135.789841 256.0
136.093826 192.0
136.12088 172.0
136.145996 224.0
136.323792 72.0
136.770325 180.0
136.951935 104.0
137.096634 5220.0
137.136002 148.0
137.266556 168.0
137.289825 224.0
137.48877 92.0
137.565186 160.0
137.642227 52.0
138.046478 164.0
138.097549 660.0
138.375687 136.0
138.615311 112.0
138.66687 176.0
138.744217 120.0
138.847382 56.0
139.110016 200.0
139.460159 96.0
140.258072 76.0
140.342941 236.0
140.541077 148.0
140.600662 172.0
140.821991 156.0
141.068909 408.0
141.301849 220.0
141.618011 276.0
141.694855 216.0
142.079193 576.0
142.161957 84.0
142.228409 192.0
142.311493 160.0
142.720169 204.0
143.024673 116.0
143.08522 1260.0
143.174667 128.0
143.632278 160.0
143.722931 112.0
144.094315 476.0
144.442017 80.0
144.561646 152.0
144.702866 116.0
144.839355 88.0
144.951965 64.0
145.028656 56.0
145.100616 5116.0
145.150909 176.0
145.184494 112.0
145.212738 140.0
145.304413 92.0
145.362 204.0
145.628479 44.0
145.662109 220.0
145.99379 60.0
146.020233 180.0
146.068344 160.0
146.103958 1096.0
146.354721 180.0
146.434189 188.0
146.622116 32.0
146.757095 108.0
147.032089 108.0
147.056229 88.0
147.080414 624.0
147.117081 4852.0
147.166306 160.0
147.186584 148.0
147.205368 72.0
147.464401 180.0
147.766663 52.0
147.805374 52.0
147.926392 112.0
148.066818 52.0
148.086197 140.0
148.119659 664.0
148.163712 180.0
148.246078 176.0
148.369705 80.0
149.096527 552.0
149.134827 620.0
149.175659 116.0
149.320358 124.0
149.443176 136.0
149.574585 168.0
149.72554 136.0
149.827835 248.0
150.108124 164.0
150.20813 188.0
150.308151 108.0
150.647507 144.0
150.911453 200.0
151.11264 204.0
151.356766 144.0
152.084869 212.0
152.119232 192.0
152.202698 96.0
152.644989 140.0
152.731079 152.0
153.070099 164.0
153.659775 40.0
154.07872 296.0
154.123947 136.0
154.257401 172.0
154.334045 148.0
154.445328 80.0
154.801697 112.0
155.085571 948.0
155.10643 212.0
155.165924 80.0
155.236725 80.0
155.577744 40.0
155.957794 112.0
156.047287 120.0
156.064697 160.0
156.093002 768.0
156.201477 68.0
156.634598 116.0
156.721786 156.0
156.84639 96.0
157.065811 320.0
157.100464 2948.0
157.168091 132.0
157.400238 108.0
157.417709 92.0
157.520111 68.0
157.797501 164.0
157.845001 136.0
158.080139 192.0
158.10527 272.0
158.205292 152.0
158.821716 176.0
159.039993 232.0
159.082626 168.0
159.117203 3312.0
159.151657 184.0
159.30365 56.0
159.340469 104.0
159.537354 136.0
159.564117 204.0
159.889496 168.0
159.939835 168.0
160.086227 320.0
160.12233 564.0
160.322769 160.0
160.534409 100.0
160.605026 136.0
160.7034 56.0
161.09639 968.0
161.132919 3552.0
161.228622 156.0
161.284225 156.0
161.349945 72.0
161.380295 68.0
161.486496 188.0
161.504211 44.0
161.653473 64.0
161.701553 44.0
161.721802 92.0
161.942078 152.0
161.990204 48.0
162.103348 188.0
162.137268 636.0
162.177704 76.0
162.241074 168.0
162.347565 172.0
162.844986 32.0
162.938965 160.0
163.076187 168.0
163.113998 744.0
163.146744 508.0
163.199661 28.0
163.287216 60.0
163.307556 56.0
163.388962 96.0
163.500916 132.0
163.712204 140.0
163.921097 128.0
163.947815 132.0
164.066376 124.0
164.107162 120.0
164.140305 192.0
164.15947 88.0
164.323944 196.0
164.535782 168.0
164.786057 120.0
165.072327 124.0
165.133713 152.0
165.397247 88.0
165.684052 60.0
166.073624 200.0
166.682098 92.0
167.086456 576.0
167.505371 104.0
167.930664 72.0
168.087631 264.0
168.857849 144.0
169.101807 1912.0
169.253784 124.0
169.274506 148.0
169.357376 88.0
169.525772 140.0
169.616486 200.0
169.709808 80.0
169.816132 172.0
169.927673 132.0
170.054825 64.0
170.108475 484.0
170.239151 128.0
170.436554 156.0
170.47554 156.0
170.540512 100.0
170.683487 172.0
170.842133 160.0
171.000854 128.0
171.084671 236.0
171.116638 3412.0
171.193512 76.0
171.240387 116.0
171.26741 96.0
171.300293 52.0
171.344574 36.0
171.365417 116.0
171.506149 176.0
171.89212 96.0
172.119415 576.0
172.231506 200.0
172.461441 84.0
172.597382 68.0
172.730759 180.0
172.937454 100.0
173.034317 136.0
173.096741 284.0
173.132767 4604.0
173.16452 204.0
173.194046 56.0
173.235962 52.0
173.288361 104.0
173.435104 136.0
173.647476 64.0
173.694687 120.0
173.791763 144.0
173.907227 64.0
174.103226 264.0
174.138016 1060.0
174.203934 208.0
174.245972 52.0
174.811264 48.0
174.890228 36.0
175.112213 1768.0
175.148651 6852.0
175.237823 60.0
175.432846 48.0
175.504654 128.0
175.620056 124.0
175.686005 200.0
175.78891 216.0
175.934067 68.0
176.115646 528.0
176.151855 1124.0
176.203445 52.0
176.417496 88.0
176.967789 52.0
177.012787 52.0
177.129639 984.0
177.160034 176.0
177.256485 108.0
177.370453 84.0
177.391663 204.0
177.415512 152.0
177.553391 100.0
177.824005 168.0
178.039047 48.0
178.076218 140.0
178.130341 164.0
178.394775 72.0
178.421661 120.0
178.510696 188.0
178.613129 72.0
178.796707 144.0
178.833969 36.0
178.94577 56.0
179.087631 348.0
179.876144 60.0
179.953568 52.0
180.052368 176.0
180.09523 356.0
180.119141 152.0
180.570847 120.0
180.750076 192.0
181.100815 728.0
181.138275 244.0
181.19989 56.0
181.610016 56.0
181.913223 88.0
182.107574 968.0
182.189819 168.0
182.248932 172.0
182.3591 48.0
182.566116 112.0
182.601074 120.0
182.972412 168.0
183.028946 168.0
183.116852 1060.0
183.16629 36.0
183.24173 72.0
183.621796 116.0
183.805237 276.0
183.880798 56.0
184.12207 764.0
184.480438 168.0
184.612915 84.0
184.755783 112.0
184.999817 208.0
185.054611 236.0
185.099396 396.0
185.13208 2168.0
185.330231 64.0
185.422363 164.0
186.000076 168.0
186.112091 152.0
186.133636 280.0
186.225937 176.0
186.277039 140.0
186.42627 104.0
187.043854 160.0
187.113464 648.0
187.148666 1736.0
187.19223 36.0
187.242599 48.0
187.283463 40.0
187.515045 100.0
187.632263 168.0
187.686783 184.0
187.708603 176.0
188.118347 120.0
188.143753 340.0
188.800903 52.0
188.934937 60.0
188.978699 96.0
189.030685 136.0
189.128418 1880.0
189.164825 756.0
189.230499 144.0
189.257874 40.0
189.49617 116.0
189.624954 60.0
190.085663 100.0
190.130951 288.0
190.167145 308.0
190.481018 60.0
191.087463 324.0
191.110565 156.0
191.144745 608.0
191.171906 96.0
191.24736 148.0
191.281189 72.0
191.746658 76.0
191.821075 60.0
191.961685 40.0
192.149277 280.0
192.295502 100.0
192.676544 112.0
192.784317 52.0
193.091171 112.0
193.110535 164.0
193.143723 188.0
193.16861 240.0
193.503464 168.0
193.675156 168.0
193.835846 48.0
193.99382 164.0
194.109512 296.0
194.415405 52.0
194.648575 144.0
194.976379 128.0
195.065308 108.0
195.113815 652.0
195.148712 100.0
195.35173 100.0
195.507538 80.0
195.769211 120.0
195.863907 80.0
196.067291 96.0
196.125122 440.0
196.254059 48.0
196.272797 72.0
196.389359 108.0
196.454865 160.0
197.092773 136.0
197.131485 1812.0
197.628235 128.0
197.969742 116.0
198.134659 432.0
198.563858 232.0
198.791077 92.0
198.850021 84.0
198.953873 176.0
199.113144 248.0
199.148453 2424.0
199.425781 156.0
199.60289 100.0
200.03334 116.0
200.118759 184.0
200.151611 436.0
200.405075 148.0
200.915359 100.0
201.127655 592.0
201.162628 1124.0
201.30275 80.0
201.364166 124.0
201.559097 112.0
201.66832 92.0
202.141098 232.0
202.151077 192.0
202.16391 108.0
202.594589 120.0
202.773102 144.0
202.804276 96.0
202.948853 144.0
202.999893 120.0
203.107666 204.0
203.143799 936.0
203.179886 708.0
203.328964 92.0
203.442505 84.0
203.976547 60.0
204.03624 116.0
204.132904 48.0
204.155212 180.0
204.525513 32.0
204.616608 80.0
205.080917 48.0
205.159332 1700.0
205.27478 48.0
205.383148 56.0
205.517227 68.0
205.591431 72.0
205.756973 36.0
205.962585 44.0
206.107239 176.0
206.161453 296.0
206.208298 144.0
206.565704 44.0
207.117172 216.0
207.338379 156.0
208.126678 452.0
209.087723 152.0
209.130844 800.0
209.165436 84.0
209.943329 84.0
210.029846 220.0
210.140335 592.0
210.252014 124.0
210.650452 80.0
210.956757 32.0
211.107193 132.0
211.147781 1672.0
211.538193 68.0
211.961029 136.0
212.045074 76.0
212.151413 388.0
212.363983 100.0
212.871857 180.0
212.915421 164.0
213.092606 176.0
213.124542 744.0
213.163895 1124.0
213.50827 156.0
213.543167 180.0
213.642059 124.0
213.828293 176.0
214.104462 176.0
214.135651 6800.0
214.166718 368.0
214.24585 76.0
214.270889 48.0
214.329163 52.0
214.46904 56.0
214.559402 148.0
214.740189 68.0
214.926895 44.0
215.063416 108.0
215.141846 2684.0
215.17659 408.0
215.265488 108.0
215.548828 36.0
215.575134 160.0
215.770966 104.0
215.832367 108.0
216.144836 656.0
216.42926 144.0
216.575684 104.0
216.634262 32.0
216.830582 48.0
217.068024 64.0
217.158676 1200.0
217.378967 120.0
217.487549 64.0
217.828156 192.0
218.11319 148.0
218.161194 248.0
218.21608 40.0
218.363098 64.0
218.716171 60.0
218.742661 156.0
218.878082 80.0
218.998825 32.0
219.113205 184.0
219.134338 212.0
219.166748 140.0
220.125717 348.0
220.663132 176.0
221.0802 112.0
221.12825 184.0
222.139236 388.0
222.755356 232.0
223.097092 120.0
223.146957 952.0
224.12088 160.0
224.147888 416.0
224.460678 68.0
224.487518 104.0
224.72316 132.0
224.776871 116.0
224.985779 100.0
225.01265 212.0
225.127731 212.0
225.162415 1952.0
225.388977 68.0
225.696854 132.0
226.112473 192.0
226.130264 140.0
226.174469 796.0
226.274292 64.0
226.837479 112.0
226.858459 144.0
227.050354 152.0
227.14299 624.0
227.179382 2776.0
227.695602 100.0
227.851791 40.0
227.893845 76.0
228.104218 100.0
228.148926 196.0
228.183502 372.0
228.928589 96.0
229.156631 340.0
229.615692 64.0
230.068283 168.0
230.155106 152.0
231.16626 116.0
231.1884 392.0
232.304611 128.0
233.152649 460.0
234.153519 136.0
235.143173 344.0
236.145401 148.0
236.152725 140.0
236.164795 196.0
236.255676 112.0
236.671906 160.0
237.166504 860.0
237.296936 72.0
237.388931 120.0
237.732498 128.0
238.16864 348.0
239.117828 92.0
239.145798 252.0
239.180099 580.0
239.348022 136.0
240.151932 152.0
240.193359 220.0
240.826538 52.0
241.156403 100.0
241.195145 324.0
241.280792 132.0
242.162231 312.0
242.193649 88.0
243.083405 52.0
243.142365 104.0
243.17395 448.0
243.210526 108.0
243.362762 176.0
243.918839 44.0
244.172791 316.0
244.438217 188.0
244.528458 164.0
245.145081 96.0
245.185883 284.0
245.696945 236.0
246.18074 132.0
247.14682 348.0
249.162781 276.0
249.29454 172.0
250.168747 84.0
250.52475 196.0
250.924988 180.0
251.180481 2124.0
251.3918 132.0
252.140244 156.0
252.18663 560.0
253.158463 324.0
253.197601 160.0
253.241226 44.0
253.361603 36.0
253.440796 68.0
254.090759 128.0
254.192291 160.0
254.643066 56.0
255.170975 172.0
255.211884 36.0
255.310471 152.0
255.969177 128.0
256.039246 56.0
256.182556 164.0
256.219513 140.0
256.297241 56.0
256.341858 60.0
257.155609 1044.0
257.188629 340.0
257.222107 120.0
257.321075 168.0
257.346619 60.0
257.790588 64.0
257.828949 164.0
258.153046 232.0
258.727753 52.0
258.804565 68.0
258.935883 72.0
259.156891 164.0
259.237 152.0
259.631317 52.0
259.695465 44.0
259.8815 160.0
260.061218 140.0
261.152496 160.0
261.185516 192.0
262.16452 396.0
263.086975 132.0
263.177368 144.0
263.329132 128.0
264.182465 168.0
265.196106 552.0
266.152954 172.0
266.203186 2348.0
266.277985 40.0
266.429016 232.0
266.455017 68.0
266.510223 124.0
266.659729 68.0
267.210419 2988.0
267.645386 60.0
268.111206 44.0
268.143799 128.0
268.181488 200.0
268.213379 1220.0
268.678558 72.0
268.78949 52.0
268.942871 116.0
268.988556 56.0
269.190765 1356.0
269.275879 56.0
269.413086 32.0
269.782349 32.0
269.955627 132.0
270.190216 328.0
270.865479 48.0
271.101379 128.0
271.165833 192.0
271.216461 168.0
271.507874 124.0
271.740753 116.0
271.937653 116.0
272.213409 148.0
273.182983 156.0
273.261932 104.0
274.098236 60.0
274.658691 172.0
275.147766 248.0
276.183807 172.0
276.283905 36.0
277.187775 144.0
278.066559 148.0
279.168488 364.0
280.16803 204.0
281.195557 348.0
281.223022 152.0
281.629059 120.0
282.188507 216.0
282.374359 176.0
283.205872 1280.0
283.270325 164.0
283.425507 148.0
283.656738 108.0
284.096008 112.0
284.212585 2524.0
284.260437 92.0
284.465149 80.0
284.598022 124.0
284.713593 176.0
284.767334 72.0
284.850433 124.0
284.880341 56.0
284.958801 220.0
285.221832 7376.0
285.311707 36.0
285.661438 48.0
285.839722 56.0
286.169586 136.0
286.223694 988.0
286.46933 44.0
287.167053 88.0
287.226715 372.0
287.440308 48.0
287.622528 240.0
287.906128 76.0
287.939911 144.0
288.105408 44.0
288.206787 36.0
288.48053 76.0
288.713806 68.0
289.17392 28.0
289.200989 72.0
290.637848 148.0
291.209961 612.0
292.197327 116.0
292.2229 128.0
293.556366 64.0
294.208038 284.0
295.079193 88.0
295.199585 116.0
297.188965 140.0
299.202942 172.0
299.237396 132.0
300.360809 68.0
301.222656 164.0
301.956512 48.0
303.182037 192.0
303.237274 656.0
304.042084 40.0
304.233185 332.0
304.340607 40.0
305.497894 104.0
305.79715 132.0
308.209167 184.0
309.059967 164.0
309.220337 2020.0
309.287445 52.0
309.329437 44.0
309.402954 52.0
310.223755 552.0
311.227661 316.0
312.207428 228.0
312.614502 60.0
313.681671 60.0
315.13562 48.0
315.418335 140.0
317.184631 140.0
321.716522 208.0
321.923584 196.0
324.184418 212.0
325.543976 120.0
327.229309 1692.0
328.113007 56.0
328.236847 600.0
329.245972 156.0
329.516876 64.0
330.254333 144.0
331.249725 64.0
332.319153 72.0
332.758331 64.0
340.617157 96.0
341.12793 132.0
344.422119 64.0
344.651184 72.0
345.239777 184.0
345.819763 48.0
346.238098 100.0
351.013306 156.0
353.014801 96.0
358.469086 124.0
363.72226 68.0
370.245728 188.0
370.716949 72.0
377.016541 100.0
378.800171 148.0
380.355072 56.0
380.704498 72.0
385.156067 80.0
387.246094 212.0
388.251373 120.0
388.261841 104.0
388.273102 176.0
390.258423 120.0
391.135712 36.0
393.149689 112.0
405.714844 48.0
410.451019 48.0
412.578735 104.0
415.214661 84.0
436.317505 48.0
449.663208 108.0
467.636749 108.0
487.96521 72.0
489.197021 120.0
505.763275 48.0
516.843079 52.0
533.683228 144.0
536.215027 56.0
543.739624 80.0
565.605103 164.0
574.753479 100.0
576.281372 156.0
611.435974 100.0
614.338135 44.0
621.814575 68.0
647.935303 76.0
723.048157 48.0
732.966553 64.0
753.470764 132.0
759.97467 188.0
771.225281 80.0
771.772583 212.0
816.781494 172.0
855.272034 128.0
858.598816 136.0
881.074158 176.0
881.381348 184.0
899.704041 200.0
904.516113 120.0
904.599915 168.0
906.007202 220.0
907.943237 192.0
916.334473 152.0
917.431335 108.0
924.921692 188.0
937.262085 200.0
941.135254 140.0
945.463074 220.0
947.698059 108.0
956.473755 200.0
962.274658 220.0
989.738098 124.0
994.307922 200.0
994.822632 36.0
997.002075 132.0
1006.29303 188.0
1015.430481 176.0
1023.513672 168.0
1025.858276 216.0
1031.360474 172.0
1031.526733 184.0
1033.119019 116.0
1043.617676 188.0
1044.029175 140.0
1046.429321 160.0
1049.019043 128.0
1052.48999 152.0
1056.788208 224.0
1056.962891 36.0
1058.199097 240.0
1074.303345 220.0
1076.927368 140.0
1078.147461 208.0
1081.268555 204.0
1082.0802 52.0
1088.919556 108.0
1089.661743 192.0
1096.814941 212.0
1098.456787 168.0
1098.549194 184.0
1100.231934 212.0
1103.336914 192.0
1110.02417 140.0
1110.116943 116.0
1115.574585 260.0
1115.734131 56.0
1116.252686 176.0
1116.531982 104.0
1116.638428 76.0
1124.493408 92.0
1126.964111 160.0
1131.304565 228.0
1135.572876 160.0
1135.680176 200.0
1135.961914 200.0
1136.679688 152.0
1138.613037 152.0
1138.700317 40.0
1141.939819 148.0
1142.081055 124.0
1142.592285 252.0
1146.187622 104.0
1146.497681 224.0
1148.39209 124.0
1149.565918 160.0
1151.415649 184.0
1152.26001 144.0
1154.132202 176.0
1154.882812 76.0
1156.418701 204.0
1156.953369 112.0
1158.5448 164.0
1160.015381 196.0
1161.22229 248.0
1165.838745 160.0
1167.56543 176.0
1167.749146 180.0
1168.021118 164.0
1169.790405 180.0
1170.886597 172.0
1171.97644 204.0
1172.480713 92.0
1172.610229 120.0
1173.687256 160.0
1180.146484 168.0
1180.201172 256.0
1182.917114 124.0
1185.129272 192.0
1189.25061 160.0
1191.344971 148.0
1192.025146 236.0
1192.430542 136.0
1195.256958 136.0
1196.110352 200.0
1196.860718 88.0
1196.936523 180.0
1198.493164 100.0
1201.519897 144.0
1204.287842 148.0
1206.637573 152.0
1207.128296 88.0
1208.73999 188.0
1211.544067 216.0
1213.075562 152.0
1214.40686 164.0
1216.141357 156.0
1216.981323 220.0
1218.620483 164.0
1218.773315 136.0
1221.088135 192.0
1228.387695 156.0
1229.643677 136.0
1230.634888 60.0
1233.226562 180.0
1233.736816 196.0
1235.68103 188.0
1237.003662 228.0
1238.516113 148.0
1241.459717 200.0
1242.631104 188.0
1245.818359 200.0
1246.724731 152.0
1246.977661 220.0
1249.35437 184.0
1250.339355 120.0
1251.317871 192.0
1252.423462 236.0
1258.678833 184.0
1259.632202 104.0
1261.483643 248.0
1261.787598 220.0
1263.414185 148.0
1266.507568 208.0
1270.079834 96.0
1270.413208 176.0
1273.678589 152.0
1273.799316 32.0
1274.801025 168.0
1274.980957 136.0
1275.511841 76.0
1278.164551 188.0
1278.68396 136.0
1279.644897 208.0
1280.926758 240.0
1285.489746 200.0
1288.059937 64.0
1289.12439 152.0
1291.426514 160.0
1292.893066 152.0
1293.623169 184.0
1295.119751 212.0
1296.158447 200.0
1302.543579 144.0
1303.549316 96.0
1303.783447 168.0
1307.612549 212.0
1308.793091 140.0
1308.915527 240.0
1309.923828 80.0
1312.229858 172.0
1312.749023 168.0
1313.412476 220.0
1313.520752 40.0
1313.571167 164.0
1313.88147 160.0
1314.177246 76.0
1314.913208 56.0
1315.122559 192.0
1315.801147 124.0
1316.970947 176.0
1317.079224 220.0
1317.787231 120.0
1318.090698 140.0
1321.684326 164.0
1322.603394 184.0
1324.703369 48.0
1325.978516 184.0
1326.203247 136.0
1330.766113 160.0
1331.986206 192.0
1336.602661 160.0
1339.376465 68.0
1339.565796 152.0
1339.930054 184.0
1349.834595 200.0
1351.085327 152.0
1351.765747 208.0
1357.868042 176.0
1358.227417 148.0
1358.902344 164.0
1359.284058 192.0
1363.829834 132.0
1364.667847 164.0
1365.237183 208.0
1366.374146 112.0
1367.963745 144.0
1370.526611 72.0
1370.998169 240.0
1372.71582 192.0
1374.604248 196.0
1375.652222 192.0
1378.281494 192.0
1379.508301 216.0
1381.253418 256.0
1387.785156 152.0
1390.092041 136.0
1390.307251 160.0
1392.140869 108.0
1392.645874 216.0
1393.314331 180.0
1396.473511 168.0
1398.60144 184.0
1399.234253 208.0
1400.664062 208.0
1400.768311 164.0
1401.185547 80.0
1402.444824 140.0
1403.041138 128.0
1404.390869 192.0
1404.935425 164.0
1405.688965 128.0
1406.136719 208.0
1408.518433 160.0
1408.989136 180.0
1409.175903 152.0
1410.730347 136.0
1412.869141 132.0
1413.602417 140.0
1413.939087 160.0
1415.953003 176.0
1416.027954 176.0
1417.144043 168.0
1418.657959 136.0
1421.763062 160.0
1424.007812 168.0
1424.631348 168.0
1425.578003 188.0
1425.961304 32.0
1427.066284 148.0
1427.788208 164.0
1428.36731 208.0
1430.481812 164.0
1432.462158 160.0
1433.260742 136.0
1434.217896 240.0
1435.665405 204.0
1435.82373 168.0
1436.065063 168.0
1437.196655 156.0
1437.43811 228.0
1438.38147 144.0
1438.698608 124.0
1438.902344 204.0
1440.193726 108.0
1440.276733 208.0
1441.440186 212.0
1441.855835 292.0
1442.21106 124.0
1445.130127 108.0
1445.939697 152.0
1446.310547 196.0
1446.49231 152.0
1447.559814 112.0
1448.521606 56.0
1450.938965 140.0
1452.903198 68.0
1453.070068 156.0
1453.768188 136.0
1455.536865 180.0
1456.00769 188.0
1459.90625 212.0
1464.449707 164.0
1465.409546 116.0
1466.034302 132.0
1466.422974 188.0
1469.30542 192.0
1472.54187 148.0
1473.114746 180.0
1475.208496 76.0
1476.324829 136.0
1476.691895 64.0
1478.895386 244.0
1480.196899 236.0
1480.449585 156.0
1480.916748 184.0
1486.631104 232.0
1487.349731 220.0
1487.756592 180.0
1489.223145 176.0
1489.814575 184.0
1490.821167 108.0
1492.035522 136.0
1492.842896 204.0
1494.927612 164.0
1497.283325 140.0
1497.46814 120.0
1498.007324 136.0
1498.369385 96.0
1499.640869 208.0
1499.694702 80.0
1499.879761 156.0
1500.650635 140.0
1501.020752 156.0
1501.0979 136.0
1501.614502 132.0
1503.929199 132.0
1504.183838 56.0
1504.338257 184.0
1504.77832 68.0
1505.033081 260.0
1505.141235 68.0
1505.241577 76.0
