>compound Gemfibrozil
>formula C15H22O3 
>ionization [M+H]+
>parentmass 251.164
#inchi InChI=1S/C15H22O3/c1-11-6-7-12(2)13(10-11)18-9-5-8-15(3,4)14(16)17/h6-7,10H,5,8-9H2,1-4H3,(H,16,17)
#inchikey HEMJJKBWTPKOJG
#Ion_Source LC-ESI
#Instrument qTof
#Compound_Source Isolated
#PI Sirenas
#Data_Collector Ed Esquenazi 
#Scan -1
#Precursor_MZ 251.164
#ExactMass 0.0
#Charge 1
#CAS_Number N/A
#Pubmed_ID N/A
#Smiles N/A
#INCHI_AUX N/A
#Library_Class 3
#SpectrumID CCMSLIB00000004572
#IonMode Positive
#UpdateWorkflowName UPDATE-SINGLE-ANNOTATED-BRONZE
#LibraryQualityString Bronze
#TaskID d19310cd93df49b68e9fcbec27720eb5
##Scan# 3
#SpectrumFile Gemfibrozil.mgf
#LibraryName fda_library.mgf
#MQScore -1
#Organism fda_library
#TIC_Query 0
#RT_Query -1
#MZErrorPPM -1
#SharedPeaks 0
#MassDiff 0
#LibMZ -1
#SpecMZ 251.164
#SpecCharge 0
#internalFilename spec-00000.mgf

>collision 10
101.095078 135.587296
111.075676 25.25952
111.081604 77.090714
123.080276 1166.012939
123.340584 13.12821
123.620338 14.05603
126.466377 13.89943
128.325821 11.51042
128.532608 11.66755
128.58783 13.0147
129.037949 14.05128
129.090912 7881.149902
129.139084 43.765209
129.153885 21.886709
129.180954 51.099461
129.196442 18.2272
129.247482 11.90278
129.260956 19.79598
129.290985 23.66667
129.325348 10.77182
129.353531 45.74551
129.376373 10.34134
129.399948 19.380211
129.437576 31.112181
129.492706 13.01157
129.508881 22.35
129.517471 15.70513
129.548233 13.00321
129.556152 16.40056
129.89296 24.71839
130.039841 13.09643
130.229919 13.0163
130.866318 22.179079
161.095352 188.640305
161.650131 10.75347
161.889069 11.7902
203.13829 75.361687
205.158554 477.735687
205.427246 12.13564
205.930054 22.375681
233.152008 308.303497
251.083206 10.00595
