>compound Amoxicillin (Amoxycillin)
>formula C16H19N3O5S
>ionization [M+H]+
>parentmass 366.112
#inchi InChI=1S/C16H19N3O5S/c1-16(2)11(15(23)24)19-13(22)10(14(19)25-16)18-12(21)9(17)7-3-5-8(20)6-4-7/h3-6,9-11,14,20H,17H2,1-2H3,(H,18,21)(H,23,24)/t9-,10-,11+,14+/m1/s1
#inchikey LSQZJLSUYDQPKJ
#Ion_Source LC-ESI
#Instrument qTof
#Compound_Source Commercial
#PI Dorrestein
#Data_Collector Garg_Neha
#Scan -1
#Precursor_MZ 366.112
#ExactMass 365.105
#Charge 1
#CAS_Number 26787-78-0, 34642-77-8 (sodium salt), 61336-70-7 (3H2O)
#Pubmed_ID N/A
#Smiles [C@H]1(C(N2[C@]1(SC([C@@H]2C(=O)O)(C)C)[H])=O)NC(=O)[C@@H](C3=CC=C(C=C3)O)N
#INCHI_AUX N/A
#Library_Class 1
#SpectrumID CCMSLIB00000078536
#IonMode Positive
#UpdateWorkflowName UPDATE-SINGLE-ANNOTATED-GOLD
#LibraryQualityString Gold
#TaskID 77f51c88eb8b467eb4a01dd2d0cb90d2
##Scan# 1043
#SpectrumFile Plate9_81_88_Plate8_81_88_GC8_01_15759.mzXML
#LibraryName FDALibrary_2_04302014.mgf
#MQScore -1
#Organism FDALibrary_2_04302014
#TIC_Query 0
#RT_Query -1
#MZErrorPPM -1
#SharedPeaks 0
#MassDiff 0
#LibMZ -1
#SpecMZ 366.112
#SpecCharge 0
#internalFilename spec-00000.mgf

>collision 10
45.222626 176.0
45.97797 188.0
47.515652 152.0
48.026016 172.0
48.085346 204.0
49.010326 152.0
49.077232 168.0
49.630943 148.0
49.734756 160.0
50.141239 148.0
50.545128 148.0
50.776039 156.0
50.971951 168.0
52.221462 188.0
52.487888 216.0
52.610527 172.0
53.353729 164.0
53.773247 148.0
54.8941 196.0
55.630932 140.0
57.223171 156.0
57.805809 176.0
59.113003 144.0
59.13443 188.0
59.259998 180.0
60.006973 148.0
60.530777 144.0
60.640774 196.0
60.898331 168.0
61.002441 228.0
61.357388 160.0
62.305805 140.0
62.332516 172.0
62.943707 144.0
63.966324 184.0
65.143288 192.0
65.756775 192.0
65.769684 152.0
66.598717 168.0
66.977707 148.0
67.300613 208.0
71.274704 148.0
71.530342 216.0
72.318619 184.0
72.426987 180.0
72.970032 180.0
73.564606 164.0
73.603874 148.0
74.041092 172.0
74.261032 184.0
74.391441 216.0
75.174576 172.0
75.727806 192.0
75.951401 188.0
76.21244 208.0
76.882233 160.0
77.446953 272.0
78.430931 180.0
78.960625 164.0
80.182106 164.0
80.330101 172.0
80.440735 176.0
80.665817 140.0
80.737335 184.0
81.034485 184.0
81.484818 204.0
81.637604 144.0
81.932793 160.0
82.788963 176.0
83.082603 168.0
83.580429 164.0
87.231354 176.0
87.702293 188.0
88.593643 240.0
89.152786 184.0
89.521507 200.0
89.683533 156.0
91.060959 144.0
91.427887 148.0
92.068451 184.0
92.423119 180.0
92.69783 180.0
92.904907 200.0
93.490944 148.0
93.606995 184.0
95.049858 176.0
95.345604 156.0
96.05043 144.0
96.765686 192.0
97.053703 192.0
98.123299 180.0
98.314636 184.0
99.043121 96.0
99.788383 180.0
101.736305 188.0
103.049423 196.0
104.592712 160.0
105.029808 156.0
105.71933 196.0
106.572365 280.0
107.049644 1000.0
107.276222 180.0
108.052734 172.0
108.636955 164.0
109.357994 220.0
110.098122 184.0
110.129456 140.0
110.876381 152.0
110.893143 172.0
111.01474 140.0
111.086052 352.0
111.356827 172.0
112.626907 140.0
112.669159 192.0
112.757904 220.0
113.033035 160.0
113.507317 184.0
113.638824 188.0
113.787392 168.0
113.998917 736.0
114.037086 4184.0
114.966621 172.0
115.041122 612.0
116.034531 348.0
116.054657 344.0
116.729668 148.0
117.293747 168.0
119.050591 172.0
119.263504 152.0
120.044159 296.0
120.708946 168.0
120.918961 188.0
121.315422 168.0
122.059914 1252.0
122.378769 160.0
122.566994 212.0
122.771004 148.0
123.06266 336.0
123.084358 160.0
123.924873 144.0
124.064499 144.0
124.36618 144.0
125.026276 168.0
125.139801 212.0
125.395973 152.0
126.014099 168.0
126.0345 336.0
126.291298 168.0
126.497162 140.0
127.043953 160.0
128.409317 176.0
129.134323 176.0
130.35173 184.0
130.813431 196.0
130.965988 144.0
131.750702 140.0
131.780411 148.0
131.890091 168.0
132.04248 124.0
132.452988 244.0
132.643173 160.0
132.851852 144.0
133.030701 176.0
133.058411 156.0
133.893097 156.0
134.036942 992.0
134.05899 1860.0
134.416397 140.0
134.478714 144.0
134.730408 144.0
135.04187 180.0
135.855515 168.0
136.045288 176.0
136.074829 380.0
136.266449 180.0
136.382629 148.0
137.007782 308.0
137.067459 216.0
137.488937 148.0
137.729904 212.0
138.883377 160.0
139.019455 148.0
139.747879 164.0
140.02095 176.0
140.045914 192.0
140.480576 168.0
140.723663 168.0
141.048035 160.0
142.031876 480.0
142.76387 232.0
143.063309 160.0
143.814545 152.0
144.04129 120.0
145.048782 232.0
145.228622 164.0
145.555008 152.0
146.060196 316.0
146.165558 144.0
148.039612 420.0
148.064529 184.0
148.853577 160.0
149.069626 276.0
149.152405 196.0
150.016556 224.0
150.054871 168.0
150.338516 140.0
151.073975 160.0
151.963303 160.0
152.051636 188.0
153.057205 224.0
154.03125 180.0
154.067398 296.0
154.597427 168.0
154.89949 156.0
154.956482 140.0
155.006027 144.0
155.038162 120.0
155.33577 192.0
155.397797 144.0
156.028641 160.0
156.05069 152.0
156.081329 144.0
157.008453 176.0
157.043808 160.0
157.073029 212.0
157.296646 168.0
157.448944 196.0
157.776276 180.0
157.833786 180.0
158.058899 156.0
158.421936 148.0
158.489594 176.0
159.033783 152.0
159.05809 268.0
159.719742 144.0
159.988007 160.0
160.007706 232.0
160.042587 35744.0
160.149338 124.0
160.74765 172.0
160.929398 176.0
160.96727 148.0
161.045471 2888.0
161.283066 156.0
161.475235 176.0
162.05278 2420.0
162.199921 112.0
162.305847 116.0
163.019608 348.0
163.054047 276.0
163.204712 152.0
163.39801 160.0
164.01738 244.0
164.040985 144.0
164.971527 192.0
165.014999 148.0
165.049988 152.0
165.181229 148.0
166.04953 176.0
166.99469 164.0
167.079636 176.0
168.055252 184.0
168.29866 168.0
168.484619 188.0
168.525955 140.0
168.823212 220.0
168.993942 140.0
170.020081 152.0
170.046814 176.0
170.208084 152.0
170.927017 176.0
171.025909 140.0
171.050095 268.0
171.077972 144.0
172.053253 548.0
173.067642 380.0
173.206223 172.0
173.937805 172.0
174.039352 168.0
174.105835 192.0
174.434265 144.0
174.599915 212.0
174.719437 136.0
175.071106 300.0
175.292267 160.0
175.809143 204.0
176.055054 196.0
177.013992 108.0
177.068924 560.0
177.327194 188.0
177.467697 152.0
178.027359 160.0
178.060806 172.0
178.213531 228.0
178.998199 204.0
179.024841 172.0
179.080643 276.0
179.597839 176.0
179.971466 172.0
180.048477 132.0
180.064316 536.0
181.011734 96.0
181.043243 100.0
181.07431 156.0
181.102676 164.0
181.153564 156.0
182.006439 236.0
182.053696 120.0
182.920532 140.0
182.950134 152.0
182.985138 148.0
183.013779 188.0
183.056091 148.0
183.138626 152.0
183.909775 164.0
183.998856 176.0
184.028549 140.0
184.056183 104.0
184.744904 208.0
184.980179 200.0
185.183258 148.0
186.059402 232.0
186.303543 144.0
186.469299 176.0
186.500153 136.0
187.057678 340.0
187.47081 148.0
188.010727 132.0
188.020325 136.0
188.055176 104.0
189.066528 2316.0
189.4216 180.0
190.048203 1096.0
190.279099 164.0
190.425507 212.0
190.452972 192.0
191.028137 196.0
191.054642 432.0
191.81778 144.0
192.022079 128.0
192.082123 116.0
192.446793 180.0
192.99939 184.0
193.082352 144.0
194.003021 492.0
194.067383 168.0
194.095901 300.0
194.19574 168.0
194.231796 152.0
194.309464 208.0
194.923096 148.0
194.953659 168.0
195.002426 388.0
195.095413 168.0
195.189941 176.0
195.715851 172.0
196.022797 316.0
196.100281 144.0
196.602295 200.0
196.887054 204.0
197.026016 160.0
197.440399 184.0
198.016235 188.0
198.588699 260.0
199.067963 616.0
199.394485 200.0
199.495667 176.0
200.015671 164.0
200.04953 1412.0
201.059845 1552.0
201.646362 196.0
202.065704 616.0
202.089279 428.0
203.060913 288.0
203.100937 324.0
204.007431 112.0
204.038803 232.0
204.072861 208.0
204.824234 156.0
205.057053 240.0
205.342972 160.0
205.61116 164.0
206.023727 160.0
206.087646 168.0
206.949753 148.0
207.008759 448.0
207.037476 304.0
207.075241 1744.0
207.765793 164.0
208.042038 1004.0
208.077881 356.0
208.193466 160.0
208.276764 144.0
208.880402 196.0
209.024353 188.0
209.083557 144.0
209.992218 160.0
210.046524 120.0
210.122025 160.0
211.044632 264.0
211.069824 296.0
211.187958 196.0
211.75235 200.0
212.015991 172.0
212.085693 300.0
212.210205 220.0
212.836929 160.0
213.050537 352.0
213.083252 268.0
213.67691 140.0
214.060959 292.0
215.059525 320.0
215.131165 208.0
215.81189 208.0
216.044601 696.0
216.069626 520.0
216.569839 172.0
217.032425 188.0
217.060242 1096.0
217.255768 228.0
217.340851 220.0
217.434753 184.0
217.858597 144.0
218.001541 144.0
218.066513 620.0
218.404327 148.0
218.951767 188.0
219.019516 168.0
219.048965 148.0
219.07254 148.0
219.113785 204.0
219.222794 148.0
219.609009 184.0
220.110718 164.0
220.178635 148.0
221.001999 256.0
221.030319 256.0
221.06897 676.0
221.10582 136.0
221.257904 168.0
221.684433 140.0
221.994614 416.0
222.040894 264.0
222.066269 156.0
222.089203 112.0
223.001633 396.0
223.042068 952.0
223.076309 368.0
223.135895 164.0
223.933395 152.0
224.015869 808.0
224.071243 172.0
224.09343 160.0
224.293915 168.0
224.320755 172.0
225.017685 164.0
225.044418 348.0
225.089951 204.0
225.679138 156.0
226.011841 136.0
226.053894 884.0
226.085846 232.0
227.014633 292.0
227.059753 2028.0
227.38063 220.0
227.746933 168.0
228.022018 152.0
228.068237 416.0
228.09549 152.0
229.070694 708.0
229.314514 148.0
229.959946 192.0
230.084351 1600.0
231.056854 160.0
231.090836 156.0
231.168808 140.0
231.314087 144.0
231.604782 196.0
232.02652 140.0
232.07077 164.0
232.332306 172.0
233.033035 308.0
233.064438 172.0
233.580841 208.0
233.672104 156.0
234.017517 268.0
234.086441 744.0
234.459824 168.0
234.738174 160.0
235.030396 140.0
235.041901 396.0
235.262955 228.0
235.991638 724.0
236.05043 7784.0
236.191925 188.0
237.001984 164.0
237.054489 2348.0
237.563477 156.0
237.984482 468.0
238.047058 2104.0
238.240524 124.0
238.468216 124.0
238.709885 140.0
238.91597 200.0
238.999908 116.0
239.052902 472.0
239.181412 216.0
239.571686 216.0
240.027344 148.0
240.072449 284.0
241.006317 156.0
241.041122 564.0
241.079819 672.0
241.677277 152.0
241.773209 200.0
242.004333 144.0
242.049271 164.0
242.083511 244.0
242.117493 316.0
243.054123 696.0
243.101379 124.0
243.436813 132.0
244.069412 524.0
245.050034 252.0
245.133316 268.0
245.167603 204.0
245.426331 256.0
245.498047 184.0
246.06282 168.0
246.734528 160.0
246.881485 156.0
247.071869 388.0
247.093124 312.0
248.033661 172.0
248.091476 472.0
248.149643 168.0
248.770828 176.0
248.986237 356.0
249.024719 196.0
249.057007 904.0
249.100037 848.0
249.500763 104.0
249.990326 152.0
250.054016 572.0
250.106781 184.0
250.537704 180.0
250.593582 224.0
250.752457 144.0
251.002731 1220.0
251.05397 532.0
251.40213 176.0
251.600983 140.0
251.84169 140.0
252.009521 1040.0
252.043198 204.0
252.078018 328.0
253.000168 536.0
253.046112 160.0
253.075775 516.0
253.869659 244.0
254.005035 140.0
254.079346 268.0
254.212265 156.0
254.74884 156.0
255.00383 160.0
255.053024 2208.0
255.089767 716.0
255.619995 204.0
256.052399 364.0
256.093842 296.0
256.3078 184.0
257.032288 144.0
257.070221 420.0
257.884308 140.0
258.014801 160.0
258.059631 448.0
259.009888 148.0
259.057495 176.0
259.087494 180.0
259.407928 300.0
260.009216 164.0
260.074524 164.0
261.026093 148.0
261.065613 336.0
261.104095 200.0
262.038208 300.0
262.08017 380.0
262.891235 224.0
263.038208 3688.0
263.085571 172.0
263.2948 200.0
263.5112 148.0
263.791901 168.0
264.005554 548.0
264.045776 25468.0
264.204468 184.0
264.226959 196.0
264.737122 160.0
264.779236 228.0
265.050201 6560.0
265.101837 132.0
265.132355 156.0
265.404663 176.0
265.43512 132.0
265.818054 112.0
266.043182 5524.0
266.326324 200.0
266.485504 180.0
266.993988 288.0
267.044678 1248.0
267.089447 324.0
268.016418 572.0
268.05307 204.0
268.097565 532.0
268.472351 176.0
268.513519 188.0
268.72229 140.0
269.015778 116.0
269.108368 2472.0
269.58432 168.0
269.830688 148.0
270.067993 596.0
270.109924 736.0
270.752228 236.0
271.090912 416.0
271.240417 152.0
272.082764 3036.0
273.033112 172.0
273.079132 340.0
273.523346 172.0
273.575806 272.0
273.777802 152.0
274.033783 144.0
274.077148 324.0
275.033691 172.0
275.079956 556.0
275.518433 184.0
275.591125 224.0
276.091431 268.0
276.573303 180.0
276.76532 156.0
277.018005 980.0
277.048492 232.0
277.098694 260.0
278.019409 400.0
278.082703 268.0
278.393463 192.0
278.818695 160.0
279.016418 548.0
279.063202 284.0
279.265594 156.0
279.340729 212.0
279.583618 164.0
280.019379 136.0
280.063385 152.0
281.032013 140.0
282.051727 180.0
282.238922 192.0
282.270538 192.0
282.580109 204.0
282.651917 156.0
282.871246 164.0
283.028595 172.0
283.111298 456.0
284.080963 144.0
284.739227 108.0
285.024414 152.0
285.075958 316.0
286.046814 220.0
286.131134 144.0
287.04538 496.0
287.10141 184.0
287.144012 120.0
288.079041 192.0
288.144409 148.0
288.206909 104.0
289.014038 288.0
289.483856 148.0
290.026672 756.0
290.084351 160.0
290.663513 184.0
290.706879 108.0
291.029053 220.0
291.07959 160.0
291.954376 192.0
292.032043 384.0
292.061066 304.0
292.1073 332.0
292.893738 140.0
293.027954 256.0
293.095337 544.0
293.565155 164.0
294.083832 316.0
294.114441 144.0
294.26123 160.0
295.019684 192.0
295.231659 176.0
296.002472 296.0
296.063263 172.0
296.579163 964.0
297.079193 324.0
297.566986 228.0
297.998199 148.0
298.083801 228.0
298.596039 164.0
299.232635 152.0
299.94574 220.0
300.05835 180.0
300.080444 192.0
301.066467 116.0
301.284668 148.0
301.485077 164.0
302.073822 144.0
302.126038 340.0
302.522736 180.0
303.029785 136.0
303.071594 1224.0
303.145935 184.0
304.06839 356.0
304.77002 128.0
304.839233 108.0
304.945282 156.0
305.084625 36468.0
305.174255 168.0
305.233734 136.0
305.333252 168.0
305.441071 260.0
305.713318 116.0
305.888092 104.0
305.958984 208.0
306.044189 580.0
306.087585 5912.0
306.665802 180.0
306.88266 132.0
307.028809 240.0
307.08194 9360.0
307.161865 176.0
307.380768 156.0
307.425323 108.0
307.488159 108.0
307.52124 156.0
307.989105 152.0
308.043213 256.0
308.085785 988.0
308.139343 156.0
308.259094 160.0
308.300079 164.0
308.53775 144.0
309.041412 780.0
309.091675 184.0
310.044739 448.0
311.035248 300.0
311.102325 7216.0
311.366425 120.0
311.505981 140.0
312.029175 108.0
312.052429 148.0
312.109467 1856.0
312.16571 104.0
312.638153 164.0
313.103851 196.0
313.878113 148.0
314.181427 140.0
314.703766 204.0
315.095825 240.0
315.816956 144.0
316.301727 140.0
316.747894 196.0
318.116669 164.0
318.876801 156.0
319.107849 140.0
319.203857 172.0
319.595123 148.0
320.066895 148.0
320.1362 168.0
320.59903 188.0
321.08844 1852.0
321.164246 192.0
321.59436 148.0
322.108795 2188.0
323.0896 376.0
323.111511 332.0
323.18103 180.0
324.109619 560.0
324.346313 116.0
325.022766 156.0
325.112274 168.0
326.121674 212.0
326.261871 180.0
328.072754 108.0
328.121033 152.0
329.09314 160.0
329.612244 232.0
329.837891 192.0
330.025879 140.0
330.119904 208.0
330.868896 192.0
331.073395 628.0
331.135956 188.0
331.270966 172.0
332.054749 592.0
332.125549 200.0
332.162628 140.0
333.05838 236.0
333.095367 100.0
333.469757 152.0
333.676971 168.0
334.062469 156.0
334.109741 172.0
335.096436 124.0
335.880157 212.0
336.422638 124.0
337.066711 160.0
337.743042 152.0
338.07019 748.0
338.116119 888.0
338.57019 220.0
338.987823 172.0
339.095734 3728.0
340.069885 180.0
340.103088 716.0
340.205536 144.0
341.120789 208.0
341.234192 140.0
343.598419 356.0
344.006195 168.0
345.449493 184.0
345.536438 96.0
346.026825 192.0
347.121887 176.0
347.621674 132.0
348.091705 5972.0
348.198059 304.0
348.239899 160.0
348.349335 120.0
348.616486 120.0
348.690186 140.0
348.760803 188.0
348.924377 144.0
348.957855 164.0
349.011414 156.0
349.077698 28232.0
349.384216 168.0
349.487915 116.0
349.585419 112.0
349.793915 184.0
349.91156 128.0
349.938995 148.0
350.08139 7576.0
350.137817 364.0
350.185852 192.0
350.217682 140.0
350.257904 172.0
350.644867 156.0
350.816895 180.0
350.919952 188.0
351.072052 7428.0
351.195557 152.0
351.389893 140.0
351.751129 216.0
351.778015 140.0
352.03891 96.0
352.07608 1388.0
352.188782 156.0
352.218658 144.0
352.274689 144.0
353.096313 176.0
353.418701 176.0
353.811707 164.0
354.935699 156.0
357.143951 148.0
357.21167 168.0
359.098114 184.0
360.086548 172.0
361.084564 592.0
361.304749 140.0
362.0961 128.0
362.264618 124.0
362.937164 164.0
363.013 188.0
363.107971 164.0
363.141785 108.0
363.202606 160.0
363.407471 168.0
364.094971 180.0
364.170929 108.0
364.285858 152.0
364.321533 132.0
364.436432 224.0
364.580811 224.0
364.641632 160.0
364.811462 136.0
364.953339 136.0
365.039154 196.0
365.121674 200.0
365.311218 116.0
365.486298 152.0
365.572388 104.0
365.60907 128.0
365.660187 188.0
365.711426 260.0
365.769867 216.0
365.801636 140.0
365.830902 224.0
365.862213 308.0
365.900452 180.0
365.973114 272.0
366.00528 248.0
366.044617 304.0
366.102844 133988.0
366.229462 236.0
366.262482 176.0
366.334656 148.0
366.344818 112.0
366.39682 124.0
366.460449 236.0
366.54425 100.0
366.573029 124.0
366.645294 100.0
366.729218 580.0
366.77243 172.0
366.871582 136.0
366.921417 116.0
366.962433 184.0
367.000854 144.0
367.104858 23032.0
367.335236 160.0
367.447632 132.0
367.555054 220.0
367.99765 200.0
368.099457 42676.0
368.323425 100.0
368.462891 116.0
368.609985 176.0
368.696167 160.0
368.894379 128.0
368.932739 132.0
368.958771 100.0
369.101349 5796.0
369.421875 168.0
369.467834 296.0
369.502014 164.0
369.598419 156.0
370.010864 148.0
370.044006 164.0
370.101105 192.0
370.197449 216.0
370.270477 96.0
370.314301 164.0
370.481415 136.0
371.280853 144.0
371.434509 124.0
371.503204 156.0
371.60495 188.0
372.19635 112.0
373.070129 160.0
376.088196 220.0
376.534149 148.0
377.103088 124.0
378.110779 348.0
378.572235 168.0
379.094696 448.0
380.084167 144.0
383.141388 192.0
383.1745 132.0
385.139069 164.0
386.079437 168.0
386.983093 172.0
393.13089 144.0
396.060516 184.0
396.120209 3320.0
396.23877 144.0
397.120758 984.0
398.11496 272.0
399.120575 124.0
404.091919 652.0
405.08847 228.0
405.130981 216.0
406.106873 180.0
413.154419 204.0
417.109741 148.0
418.165771 180.0
419.143127 144.0
421.124023 132.0
423.134125 336.0
424.138336 140.0
446.12735 152.0
451.130066 136.0
452.110352 124.0
453.106567 948.0
454.111084 140.0
461.124634 148.0
467.144775 140.0
470.137604 2756.0
471.135559 1072.0
472.143372 200.0
473.112701 140.0
481.089966 160.0
482.132477 168.0
487.162628 128.0
491.162354 288.0
492.143738 200.0
493.174866 144.0
497.134247 160.0
498.133087 968.0
499.130524 408.0
500.13562 112.0
501.133972 128.0
503.141144 132.0
509.162292 676.0
509.862122 160.0
510.127777 144.0
510.187378 148.0
511.164551 128.0
512.778503 144.0
515.154785 176.0
519.760864 144.0
521.139282 164.0
527.159302 200.0
529.118225 164.0
535.266235 148.0
537.128723 124.0
538.137573 420.0
552.158691 140.0
555.156921 1088.0
556.165344 164.0
557.149414 256.0
559.238586 152.0
572.175049 124.0
585.174805 144.0
603.241821 148.0
634.200073 120.0
635.180664 120.0
668.190247 380.0
669.193359 132.0
680.227966 180.0
686.183594 164.0
714.197998 168.0
715.199585 180.0
750.400024 176.0
964.182312 140.0
1305.510864 184.0
1343.137329 152.0
1384.147705 196.0
1395.797607 152.0
1446.501587 144.0
1459.748535 204.0
1496.362061 176.0
1528.981934 180.0
1532.065308 200.0
1545.674072 240.0
1568.646729 168.0
1572.077637 160.0
1574.161743 164.0
1584.380737 180.0
1599.158447 220.0
1625.980957 160.0
1654.45105 256.0
1656.507935 188.0
1692.448853 140.0
1697.644043 160.0
1717.803223 216.0
1720.62561 140.0
1721.632935 176.0
1744.850586 140.0
1745.199707 200.0
1784.312378 200.0
1786.271851 196.0
1805.900024 148.0
1845.067749 196.0
1876.154419 140.0
1888.554565 152.0
1896.572388 196.0
1906.023315 168.0
1933.991821 204.0
1939.098145 212.0
1945.123901 160.0
1963.407349 148.0
1964.783447 208.0
1969.426636 200.0
1979.110352 180.0
2000.391113 160.0
