>compound 10H-Phenothiazine, 2-chloro-10-[3-(4-methyl-1-piperazinyl)propyl- [CAS]
>formula C20H24ClN3S
>ionization [M+H]+
>parentmass 374.1452229000906
#inchi InChI=1S/C20H24ClN3S/c1-22-11-13-23(14-12-22)9-4-10-24-17-5-2-3-6-19(17)25-20-8-7-16(21)15-18(20)24/h2-3,5-8,15H,4,9-14H2,1H3
#inchikey WIKYUJGCLQQFNW
#Ion_Source LC-ESI
#Instrument qTof
#Compound_Source Commercial
#PI Dorrestein
#Data_Collector Garg_Neha
#Scan -1
#Precursor_MZ 374.145
#ExactMass 373.138
#Charge 1
#CAS_Number N/A
#Pubmed_ID N/A
#Smiles CN1CCN(CCCN2c3ccccc3Sc4ccc(Cl)cc24)CC1
#INCHI_AUX N/A
#Library_Class 1
#SpectrumID CCMSLIB00000079203
#IonMode Positive
#UpdateWorkflowName UPDATE-SINGLE-ANNOTATED-GOLD
#LibraryQualityString Gold
#TaskID 278b19f5865741e282cec7349aa7e7a1
##Scan# 1211
#SpectrumFile NCP003592_G2_H11_BE3_01_15737.mzXML
#LibraryName NIHcollectionI_05062014.mgf
#MQScore -1
#Organism NIHcollectionI_05062014
#TIC_Query 0
#RT_Query -1
#MZErrorPPM -1
#SharedPeaks 0
#MassDiff 0
#LibMZ -1
#SpecMZ 374.145
#SpecCharge 0
#internalFilename spec-00000.mgf

>collision 10
45.537876 148.0
45.872921 216.0
46.420498 184.0
47.043648 144.0
47.176159 196.0
47.323914 168.0
47.476017 192.0
47.488361 184.0
47.796085 180.0
48.422829 152.0
48.776646 188.0
49.608627 160.0
50.225948 152.0
50.354389 152.0
50.691086 144.0
51.316509 212.0
51.750858 156.0
53.897446 144.0
54.030495 152.0
57.191582 148.0
57.725655 188.0
57.990589 148.0
59.148205 172.0
59.168106 204.0
59.370365 180.0
59.443996 172.0
59.552998 164.0
59.596012 184.0
60.179764 172.0
60.541599 160.0
60.671753 156.0
61.245159 192.0
62.373337 196.0
62.855259 180.0
62.904797 176.0
63.119053 204.0
64.657379 156.0
64.734024 164.0
64.838348 184.0
65.186584 140.0
66.162407 188.0
66.584 152.0
66.985748 164.0
67.217255 156.0
67.426285 148.0
67.973251 144.0
67.997864 232.0
68.898575 208.0
69.04734 140.0
70.311646 172.0
71.40062 188.0
72.172951 232.0
72.216927 152.0
72.504745 156.0
73.883972 152.0
74.319153 216.0
74.790024 144.0
76.44458 188.0
76.495056 168.0
76.662254 152.0
76.749413 172.0
77.235214 160.0
80.110352 188.0
80.25312 184.0
80.345863 192.0
80.386894 152.0
81.243935 144.0
81.71283 176.0
82.061676 132.0
82.146996 180.0
82.808556 212.0
82.870148 180.0
84.364334 176.0
84.690048 140.0
85.255783 144.0
85.650688 192.0
85.803642 144.0
86.015785 180.0
86.176453 172.0
86.837318 144.0
87.338806 180.0
87.623627 232.0
87.700027 232.0
88.379791 180.0
88.816292 200.0
91.173409 148.0
91.560692 168.0
92.391006 140.0
93.18856 228.0
94.826897 160.0
96.081993 168.0
96.266533 204.0
96.504921 164.0
97.072762 160.0
97.096298 172.0
97.44767 156.0
98.08522 2492.0
98.363411 140.0
98.418686 172.0
99.090103 184.0
100.108566 152.0
100.289444 224.0
101.128319 152.0
101.793907 160.0
103.335876 164.0
104.718277 160.0
105.16275 216.0
105.945915 160.0
105.968452 140.0
106.070915 172.0
107.00975 140.0
107.030342 152.0
108.285919 216.0
108.690155 184.0
109.217667 96.0
109.903236 160.0
110.097366 152.0
111.037033 176.0
111.098526 200.0
112.867027 144.0
113.033195 136.0
113.107384 30356.0
113.226067 112.0
113.250763 172.0
113.2677 124.0
113.329407 136.0
113.363686 116.0
114.110306 1880.0
114.845352 128.0
115.066788 176.0
115.110077 128.0
116.286255 156.0
116.707298 176.0
118.093933 164.0
120.03981 144.0
123.094421 208.0
124.205421 180.0
125.158821 204.0
126.61927 196.0
127.119194 160.0
128.146759 192.0
128.266205 160.0
128.327072 224.0
128.435318 156.0
131.866119 156.0
132.147385 164.0
132.229767 176.0
133.084808 152.0
133.112915 168.0
133.342087 144.0
133.558212 180.0
133.804443 172.0
134.69458 144.0
135.138443 204.0
135.191666 164.0
136.239685 140.0
137.03302 168.0
137.483047 228.0
137.690826 176.0
138.177017 200.0
138.303391 168.0
139.126862 176.0
139.429169 180.0
139.880768 228.0
140.112625 244.0
140.472229 200.0
140.992432 136.0
141.096786 212.0
141.138779 52032.0
141.192474 140.0
141.228088 188.0
141.422104 164.0
141.639938 152.0
141.657166 140.0
142.141586 3600.0
142.517715 232.0
143.145248 192.0
143.665253 168.0
144.240753 152.0
144.62825 176.0
147.913895 172.0
148.844864 140.0
149.360092 148.0
151.02359 144.0
151.518066 144.0
153.78035 148.0
154.407898 180.0
154.917786 172.0
155.257355 204.0
157.597244 152.0
157.979752 240.0
158.109863 160.0
158.417847 148.0
158.445404 168.0
158.984467 300.0
159.941055 120.0
159.979813 176.0
160.91008 140.0
161.557053 256.0
162.71521 172.0
164.400253 156.0
164.773041 176.0
166.908066 156.0
167.065735 160.0
167.152435 180.0
167.215057 160.0
169.068466 212.0
169.984543 380.0
176.560135 148.0
177.073563 240.0
178.074585 176.0
179.0746 156.0
180.356842 148.0
181.679657 148.0
181.698441 160.0
181.752106 204.0
182.095718 160.0
183.037476 180.0
183.953598 248.0
184.034592 188.0
184.218231 144.0
185.565964 168.0
186.401962 152.0
187.951019 108.0
188.284363 168.0
188.573959 184.0
190.006088 288.0
191.014267 152.0
191.396805 140.0
191.876221 172.0
191.917572 148.0
192.055466 164.0
192.132706 212.0
192.281708 152.0
192.86171 152.0
193.916229 176.0
195.271103 180.0
196.148163 272.0
196.985291 156.0
197.298279 140.0
198.035522 592.0
199.036224 476.0
199.473648 212.0
200.071304 192.0
201.655273 144.0
201.776825 156.0
203.042542 160.0
204.884445 144.0
205.095306 156.0
205.736374 164.0
206.092636 384.0
206.377106 172.0
206.992294 188.0
207.072479 144.0
207.096741 364.0
208.076096 252.0
208.100677 292.0
208.460983 176.0
208.912384 148.0
210.009857 148.0
210.03566 352.0
211.044342 2508.0
211.162247 164.0
211.283737 180.0
212.050751 424.0
213.036697 644.0
213.084106 172.0
213.709213 144.0
213.895462 156.0
214.042496 6912.0
215.044312 1124.0
215.12851 156.0
216.038666 2744.0
217.042038 640.0
218.934326 156.0
222.253952 244.0
222.633911 168.0
223.040298 144.0
223.082565 144.0
223.198502 180.0
223.501907 148.0
223.742981 212.0
224.018295 176.0
224.055099 692.0
224.279175 176.0
224.431213 184.0
224.768265 180.0
225.015991 144.0
225.724121 152.0
225.768982 180.0
226.328552 172.0
226.762924 148.0
229.061508 148.0
230.041336 120.0
230.095871 156.0
230.506653 148.0
230.796829 156.0
231.414062 152.0
232.007935 172.0
233.006577 2696.0
234.013229 304.0
234.674164 180.0
235.004272 416.0
236.018723 132.0
238.06897 800.0
238.586884 144.0
238.903625 212.0
239.028442 232.0
239.076309 9180.0
239.815079 192.0
240.077499 1336.0
240.148071 140.0
241.065689 2096.0
242.0728 404.0
243.062027 164.0
243.652176 192.0
243.785782 172.0
244.061935 128.0
245.18306 156.0
246.014038 21040.0
247.018005 2484.0
247.620773 172.0
248.010086 4888.0
248.259247 180.0
248.843033 152.0
249.011856 420.0
249.480621 164.0
250.031967 252.0
258.225159 144.0
258.917419 168.0
258.955841 172.0
259.394806 144.0
260.031036 216.0
260.289917 144.0
260.794312 160.0
261.00647 156.0
262.284576 152.0
263.665955 168.0
264.931091 152.0
265.783783 172.0
266.518036 144.0
267.083252 144.0
267.353302 156.0
267.551849 148.0
269.72113 164.0
269.806122 164.0
272.066589 176.0
272.325989 216.0
273.031036 152.0
273.859436 140.0
274.044373 2616.0
275.04834 512.0
276.04248 1020.0
277.042999 200.0
278.356384 196.0
279.010925 244.0
280.162384 168.0
282.051117 192.0
283.128448 164.0
283.761749 172.0
284.231323 164.0
284.929657 144.0
286.743347 164.0
286.888306 152.0
287.02652 188.0
289.032928 220.0
289.781219 152.0
290.140472 144.0
290.879974 148.0
291.324829 164.0
292.117615 172.0
294.137573 164.0
294.225159 176.0
294.964203 180.0
296.146362 2816.0
296.704254 144.0
297.152802 788.0
297.863098 144.0
298.147736 160.0
299.13974 236.0
299.552063 164.0
299.848358 148.0
302.701843 144.0
302.826538 140.0
304.692749 168.0
304.814362 172.0
305.03067 148.0
305.892487 156.0
306.578644 192.0
306.616974 152.0
306.654266 232.0
308.229187 168.0
311.297729 192.0
314.194489 184.0
314.752136 160.0
315.865387 180.0
316.760925 144.0
317.033752 196.0
317.098907 156.0
317.140076 148.0
318.491913 184.0
318.545197 188.0
319.622437 212.0
320.202698 148.0
320.505493 176.0
322.46463 176.0
322.786377 212.0
324.505035 176.0
325.8396 132.0
326.94043 140.0
328.359863 200.0
329.561951 156.0
330.791565 148.0
331.271118 204.0
332.355408 188.0
333.519287 208.0
334.118561 160.0
336.81076 168.0
337.478302 152.0
338.451569 212.0
346.203003 192.0
346.703125 200.0
347.531036 128.0
348.43222 164.0
349.432312 180.0
349.722565 140.0
350.016663 160.0
353.892395 176.0
354.892792 164.0
355.620544 164.0
355.912537 164.0
358.209625 240.0
359.127167 164.0
359.157349 176.0
359.854889 152.0
360.172699 248.0
360.301147 152.0
360.917206 148.0
361.007965 140.0
361.821442 180.0
362.181183 212.0
362.73819 184.0
364.6474 168.0
365.335632 160.0
366.233978 192.0
367.541565 148.0
368.049225 152.0
368.545776 184.0
368.652771 204.0
368.706268 140.0
369.706116 152.0
369.825928 132.0
369.980499 116.0
370.163483 160.0
370.416534 144.0
370.803528 208.0
370.904053 124.0
370.962921 136.0
371.466431 108.0
371.6203 208.0
371.661713 96.0
371.711121 96.0
371.73526 284.0
371.863281 136.0
372.090515 148.0
372.117249 156.0
372.157654 140.0
372.280914 116.0
372.381653 132.0
372.442719 120.0
372.542999 156.0
372.645966 180.0
372.731201 168.0
372.774323 136.0
372.833252 168.0
373.10495 428.0
373.177216 116.0
373.261322 236.0
373.311157 100.0
373.356689 96.0
373.483276 320.0
373.551147 216.0
373.605042 172.0
373.675232 132.0
373.735565 244.0
373.786713 372.0
373.869904 144.0
373.909119 232.0
373.980347 136.0
374.010101 352.0
374.040161 304.0
374.070618 420.0
374.14743 215956.0
374.276703 160.0
374.431152 212.0
374.482208 284.0
374.514954 348.0
374.577423 248.0
374.630463 204.0
374.657745 300.0
374.699158 156.0
374.736206 332.0
374.780304 3216.0
374.834686 288.0
374.911224 176.0
374.94931 208.0
374.979034 172.0
375.016388 344.0
375.080078 432.0
375.149292 68200.0
375.302765 196.0
375.400116 168.0
375.582184 184.0
375.746338 164.0
375.776062 212.0
375.84137 212.0
375.919891 248.0
375.93399 128.0
375.944214 248.0
376.001526 164.0
376.14389 107856.0
376.246704 164.0
376.290741 248.0
376.350098 144.0
376.504272 172.0
376.570526 152.0
376.623657 156.0
376.678192 156.0
376.774536 344.0
376.835907 120.0
376.925354 152.0
376.970764 116.0
377.081635 364.0
377.145477 13656.0
377.294098 284.0
377.327942 156.0
377.364075 224.0
377.452728 136.0
377.480957 264.0
377.533722 160.0
377.575165 192.0
377.660156 304.0
377.684631 244.0
377.769165 156.0
377.838623 256.0
377.972839 116.0
378.041382 212.0
378.143372 788.0
378.225311 136.0
378.265045 136.0
378.308655 168.0
378.408295 120.0
378.470581 100.0
378.51828 144.0
378.64621 104.0
378.703766 168.0
378.819275 176.0
379.239075 188.0
379.276459 128.0
379.321808 172.0
379.433472 104.0
379.489594 188.0
379.518585 152.0
379.556183 212.0
379.625977 144.0
379.685608 192.0
379.74292 112.0
380.012115 176.0
380.158112 108.0
380.36734 108.0
380.539795 108.0
381.380829 112.0
382.033722 108.0
383.13205 96.0
391.323303 140.0
392.792664 112.0
411.054871 148.0
413.868195 168.0
420.820892 144.0
464.186432 160.0
604.429321 148.0
768.571777 140.0
1192.465332 232.0
1199.348145 156.0
1286.061768 140.0
1357.224365 156.0
1362.530884 184.0
1376.407104 208.0
1376.805786 168.0
1388.877075 172.0
1414.397705 144.0
1420.287109 152.0
1422.876099 160.0
1433.006714 236.0
1434.43103 168.0
1444.761597 220.0
1458.517212 140.0
1458.59668 156.0
1459.642334 188.0
1474.53064 140.0
1477.505127 160.0
1492.384033 204.0
1493.106934 308.0
1493.676025 148.0
1495.083984 140.0
1496.107788 156.0
1500.036499 184.0
1504.495239 172.0
1508.404053 276.0
1513.773438 220.0
1519.400513 156.0
1530.92749 192.0
1557.401367 216.0
1566.462769 184.0
1574.09729 248.0
1587.510254 216.0
1606.128662 176.0
1607.373169 260.0
1614.218872 160.0
1616.538696 196.0
1628.813232 152.0
1640.690796 156.0
1643.247437 152.0
1644.619263 172.0
1645.45874 144.0
1646.427734 264.0
1652.506348 220.0
1658.871826 192.0
1670.077393 176.0
1670.223755 148.0
1676.745483 168.0
1692.585205 156.0
1696.165405 144.0
1701.423706 172.0
1701.481201 176.0
1705.654297 156.0
1706.081665 192.0
1717.437012 156.0
1719.210938 140.0
1745.836426 176.0
1747.957642 184.0
1748.756592 164.0
1759.134033 180.0
1768.479126 196.0
1792.009155 140.0
1793.188843 140.0
1794.427979 144.0
1794.824341 144.0
1794.917114 216.0
1800.11499 156.0
1800.410645 156.0
1801.90564 204.0
1807.088379 164.0
1816.585205 188.0
1817.493042 216.0
1844.002808 244.0
1844.353271 196.0
1845.746704 200.0
1846.90979 200.0
1854.555908 208.0
1893.542847 236.0
1898.2052 180.0
1913.070923 140.0
1920.119995 160.0
1924.736328 140.0
1926.762573 164.0
1929.952637 212.0
1935.692749 148.0
1939.828003 192.0
1941.704468 184.0
1945.582764 152.0
1947.391602 140.0
1947.619995 168.0
1955.630005 140.0
1963.409546 140.0
1965.950195 140.0
1974.979492 144.0
1976.72229 148.0
1976.828491 144.0
1979.041382 276.0
1980.520264 216.0
1981.50354 168.0
1982.806152 176.0
1989.733887 216.0
1991.121704 212.0
1991.216675 140.0
2001.211792 148.0
2002.120117 196.0
2002.324951 140.0
