>compound BESTATIN
>formula C16H24N2O4
>ionization [M+H]+
>parentmass 309.182556
#inchi InChI=1S/C16H24N2O4/c1-10(2)8-13(16(21)22)18-15(20)14(19)12(17)9-11-6-4-3-5-7-11/h3-7,10,12-14,19H,8-9,17H2,1-2H3,(H,18,20)(H,21,22)/t12-,13+,14+/m1/s1
#inchikey VGGGPCQERPFHOB
#Ion_Source LC-ESI
#Instrument qTof
#Compound_Source Commercial
#PI Dorrestein
#Data_Collector Garg_Neha
#Scan -1
#Precursor_MZ 309.181
#ExactMass 308.174
#Charge 1
#CAS_Number N/A
#Pubmed_ID N/A
#Smiles CC(C)C[C@H](NC(=O)[C@@H](O)[C@H](N)Cc1ccccc1)C(=O)O
#INCHI_AUX N/A
#Library_Class 1
#SpectrumID CCMSLIB00000079037
#IonMode Positive
#UpdateWorkflowName UPDATE-SINGLE-ANNOTATED-GOLD
#LibraryQualityString Gold
#TaskID 278b19f5865741e282cec7349aa7e7a1
##Scan# 1059
#SpectrumFile NCP003432_A2_B11_BC8_01_15722.mzXML
#LibraryName NIHcollectionI_05062014.mgf
#MQScore -1
#Organism NIHcollectionI_05062014
#TIC_Query 0
#RT_Query -1
#MZErrorPPM -1
#SharedPeaks 0
#MassDiff 0
#LibMZ -1
#SpecMZ 309.181
#SpecCharge 0
#internalFilename spec-00000.mgf

>collision 10
44.980675 148.0
45.324387 184.0
45.439697 184.0
45.455795 140.0
45.594116 208.0
45.647888 148.0
45.727261 152.0
46.255016 164.0
46.443363 140.0
46.698715 200.0
46.738167 140.0
46.950672 152.0
46.991596 216.0
47.166397 196.0
47.543041 192.0
47.885372 140.0
48.108749 184.0
48.274551 232.0
48.321579 164.0
48.436481 148.0
49.371796 160.0
49.832973 172.0
49.957966 212.0
50.12339 280.0
50.443199 156.0
50.644562 208.0
50.695129 144.0
50.7887 224.0
51.048035 220.0
51.317722 140.0
51.547531 188.0
51.783581 148.0
52.257298 164.0
52.300472 184.0
52.549778 160.0
52.942951 152.0
53.07917 316.0
53.274464 172.0
53.654942 140.0
53.673073 160.0
53.970306 164.0
54.159092 140.0
54.175205 192.0
54.361412 172.0
54.758347 152.0
54.829063 148.0
55.190727 156.0
55.255806 192.0
55.406815 156.0
55.423382 176.0
55.938461 180.0
56.179874 220.0
56.373974 180.0
56.508549 156.0
56.565414 160.0
56.580387 196.0
57.480705 156.0
57.841915 160.0
58.083187 176.0
58.610382 148.0
58.788795 192.0
59.091339 144.0
59.186234 152.0
59.265884 224.0
59.296532 144.0
59.46524 204.0
59.837238 160.0
60.150684 100.0
61.594307 156.0
61.942947 136.0
63.2691 232.0
63.541649 152.0
64.036057 220.0
64.317436 244.0
64.458817 176.0
64.521149 148.0
64.597908 108.0
64.733955 172.0
65.500046 168.0
65.853287 148.0
66.26255 168.0
66.388977 172.0
66.481445 188.0
66.746231 176.0
66.767372 164.0
67.032722 160.0
67.221878 148.0
67.370453 192.0
67.669739 160.0
67.692665 144.0
68.01236 184.0
68.337746 160.0
68.572113 148.0
68.589706 216.0
69.237381 148.0
69.636406 220.0
69.949669 140.0
70.24128 156.0
70.510094 156.0
70.700752 188.0
71.010689 188.0
71.056595 272.0
71.326347 144.0
71.499588 188.0
71.865707 120.0
72.025627 180.0
72.436668 160.0
72.470551 164.0
72.794533 168.0
72.879463 176.0
73.453186 140.0
74.346306 164.0
74.372047 180.0
74.668343 220.0
74.870728 152.0
75.055023 140.0
75.224098 212.0
75.305252 172.0
75.414894 124.0
76.141777 140.0
76.168633 136.0
76.298164 152.0
76.790337 204.0
76.954987 260.0
77.014359 172.0
77.705826 168.0
78.060631 240.0
78.931732 148.0
79.131668 156.0
79.477287 148.0
79.59977 164.0
79.640884 132.0
79.866348 140.0
79.903702 176.0
79.930389 252.0
80.005142 168.0
80.475967 144.0
80.8172 200.0
81.243599 204.0
81.586609 196.0
81.723289 160.0
82.10157 208.0
82.33799 212.0
82.408432 168.0
82.42289 188.0
82.453613 148.0
82.538574 176.0
82.64167 188.0
82.84082 168.0
82.877052 156.0
82.983994 172.0
83.203514 248.0
83.337914 144.0
83.714447 176.0
83.909409 164.0
84.007889 144.0
84.431641 252.0
84.446274 152.0
84.97934 180.0
85.10231 224.0
85.30072 184.0
85.849388 180.0
86.094826 200.0
86.183495 164.0
86.272202 188.0
86.516396 196.0
86.605278 160.0
87.133965 148.0
87.195282 160.0
87.373795 208.0
87.450089 156.0
88.028015 148.0
88.512321 212.0
88.527 196.0
88.664589 156.0
89.366356 140.0
89.500946 156.0
89.739281 160.0
90.111092 140.0
90.16967 176.0
90.728065 188.0
90.828896 184.0
91.018349 196.0
91.054031 1024.0
91.196922 144.0
91.447983 172.0
91.66394 128.0
91.819504 148.0
92.038193 156.0
92.316032 144.0
92.36409 136.0
92.396362 156.0
92.522675 220.0
92.541817 176.0
93.070526 500.0
93.31118 176.0
93.484291 160.0
93.65564 156.0
94.04126 168.0
94.356125 244.0
94.417999 164.0
94.559235 192.0
94.750931 152.0
94.803246 200.0
94.861397 236.0
94.983559 224.0
95.340805 176.0
95.389397 144.0
95.71653 188.0
95.749352 140.0
95.766876 192.0
95.937439 128.0
96.188042 168.0
96.251556 128.0
96.46347 196.0
96.545593 152.0
96.619919 176.0
97.525871 188.0
97.569557 180.0
97.791397 152.0
97.956795 148.0
98.023781 172.0
98.080933 212.0
98.478828 164.0
98.813576 164.0
98.954506 136.0
99.000168 180.0
99.592636 184.0
99.62442 140.0
99.89875 168.0
100.295242 136.0
100.801926 160.0
100.825905 148.0
100.923859 172.0
101.358208 172.0
101.829636 148.0
101.952187 144.0
102.031807 200.0
102.045631 164.0
102.721901 136.0
103.054688 5876.0
103.169617 144.0
103.511543 148.0
104.020424 192.0
104.058334 1148.0
104.119919 168.0
104.197105 180.0
104.416634 212.0
104.61512 124.0
104.975174 120.0
105.071342 412.0
105.115654 120.0
105.15007 220.0
105.396767 264.0
105.970062 196.0
106.023338 200.0
106.07663 316.0
106.154541 168.0
106.306343 156.0
106.509598 148.0
106.593826 192.0
106.787071 168.0
106.906395 192.0
106.927246 180.0
107.326614 184.0
107.603088 272.0
108.169518 204.0
108.432571 216.0
108.615028 160.0
108.722916 164.0
108.93885 144.0
109.034431 144.0
109.177368 228.0
109.687973 212.0
109.760948 164.0
110.201355 232.0
110.347656 144.0
110.554733 184.0
110.801811 156.0
111.14566 164.0
111.437515 168.0
112.075035 152.0
113.601471 184.0
114.036758 148.0
114.07077 232.0
114.14518 164.0
114.313225 204.0
114.645432 144.0
114.668877 148.0
115.055252 1256.0
115.119011 144.0
115.42672 192.0
115.854782 172.0
115.876205 176.0
115.957634 164.0
116.017647 156.0
116.034821 828.0
116.054092 180.0
116.101028 176.0
116.180634 180.0
116.25573 196.0
116.51339 176.0
117.033867 152.0
117.068924 444.0
117.2967 228.0
118.065666 380.0
118.277359 204.0
118.320656 208.0
118.348801 188.0
118.584923 180.0
119.036163 144.0
119.072449 344.0
119.294708 160.0
119.34906 164.0
119.55571 208.0
119.650757 112.0
119.669365 180.0
119.715866 180.0
119.738586 208.0
119.803932 204.0
119.882607 220.0
119.92202 144.0
120.002312 140.0
120.041054 152.0
120.081993 143432.0
120.154007 116.0
120.239677 212.0
120.28244 244.0
120.329391 128.0
120.375572 168.0
120.418633 120.0
120.439499 1984.0
120.473503 112.0
120.541458 120.0
120.669571 148.0
120.791756 100.0
120.857605 136.0
120.880318 164.0
120.913712 156.0
120.958801 140.0
121.083878 18212.0
121.256989 144.0
121.295387 116.0
121.334503 132.0
121.465286 144.0
121.553993 100.0
121.644165 100.0
121.687752 148.0
121.764313 100.0
121.789177 228.0
121.808891 328.0
121.853783 128.0
121.920937 272.0
121.968063 148.0
122.001183 96.0
122.087418 732.0
124.136162 148.0
124.340637 116.0
125.851746 140.0
126.092102 540.0
127.19722 152.0
127.298256 168.0
127.475716 148.0
127.525154 140.0
128.261169 148.0
128.421265 196.0
129.189255 140.0
130.085709 424.0
130.531937 220.0
130.602829 120.0
130.692581 168.0
130.982574 172.0
131.068115 268.0
131.088425 224.0
131.431686 196.0
131.696503 156.0
131.911285 144.0
132.081573 1468.0
132.101959 7536.0
132.141037 220.0
132.272705 180.0
132.412369 148.0
132.707977 168.0
133.064148 3496.0
133.099854 276.0
133.403366 196.0
133.744034 184.0
134.065872 692.0
134.095291 364.0
134.144226 120.0
135.386383 148.0
136.232162 236.0
136.692505 212.0
136.801895 152.0
136.822845 144.0
137.98468 156.0
139.250046 148.0
139.355759 236.0
139.466537 140.0
140.108398 476.0
140.545898 180.0
140.972183 148.0
141.10675 116.0
141.947464 184.0
142.061295 320.0
142.576538 148.0
144.056168 220.0
144.102493 15604.0
144.16684 176.0
144.240005 104.0
144.42189 164.0
145.104553 824.0
145.589066 196.0
146.106277 172.0
146.196304 120.0
146.558472 172.0
146.710297 260.0
146.859802 236.0
148.087631 164.0
148.160294 180.0
148.747147 220.0
149.113907 172.0
149.290024 144.0
149.953568 144.0
150.091202 5684.0
150.942261 148.0
151.090927 392.0
151.177094 164.0
152.238556 148.0
154.09166 148.0
155.712112 136.0
156.668503 156.0
157.005005 188.0
157.509171 172.0
158.095322 304.0
158.224365 164.0
158.725464 140.0
159.569092 172.0
159.614349 168.0
159.772812 144.0
160.075958 492.0
161.05687 160.0
161.078613 272.0
161.108765 120.0
161.386932 144.0
162.080475 168.0
162.950745 156.0
162.981232 172.0
163.299545 148.0
163.505066 140.0
163.581436 140.0
164.241394 156.0
164.823471 156.0
165.77536 148.0
165.903519 152.0
166.308807 180.0
167.272705 168.0
168.425323 260.0
168.660446 168.0
170.718994 176.0
171.078049 160.0
171.559982 160.0
171.969513 148.0
172.076035 1336.0
172.096329 5396.0
172.369629 188.0
173.099258 600.0
174.029724 260.0
174.106308 96.0
174.981476 144.0
176.140289 164.0
176.593796 200.0
177.234436 188.0
177.374893 152.0
178.5112 164.0
179.533783 204.0
179.899323 148.0
180.915161 176.0
181.082901 168.0
181.126709 176.0
181.794296 176.0
182.033203 148.0
183.324417 180.0
184.041931 144.0
185.733337 196.0
186.105133 140.0
187.109802 144.0
188.145905 536.0
188.652451 140.0
189.013474 152.0
189.806412 192.0
189.87912 152.0
190.057434 156.0
190.107315 12720.0
190.875977 144.0
191.111328 1340.0
192.112595 276.0
192.223984 184.0
193.07103 168.0
193.148483 192.0
193.400269 144.0
195.072037 152.0
195.100693 160.0
196.097137 2016.0
196.320221 208.0
196.59082 180.0
196.610352 216.0
197.100052 616.0
198.093979 140.0
200.143967 384.0
200.302917 180.0
201.513153 200.0
201.838196 168.0
202.834732 144.0
203.654755 180.0
203.950256 152.0
205.308304 204.0
205.659225 168.0
207.309402 156.0
207.495712 188.0
208.963318 192.0
209.655457 204.0
210.470718 232.0
210.642258 136.0
210.690231 144.0
210.964203 132.0
211.54332 140.0
212.847977 156.0
213.519333 140.0
213.670517 140.0
214.885406 184.0
215.445938 180.0
217.005829 192.0
218.047913 184.0
218.150787 160.0
218.574295 172.0
220.180893 168.0
223.075699 144.0
223.623001 236.0
223.780762 184.0
224.979248 156.0
225.006119 172.0
226.56424 160.0
228.070618 140.0
228.139008 1064.0
229.140106 124.0
229.397705 148.0
229.648331 140.0
229.775024 172.0
230.895676 176.0
230.919861 180.0
231.606918 144.0
233.157303 140.0
235.869904 144.0
236.007477 176.0
236.068634 160.0
237.10611 304.0
238.724258 176.0
242.329514 208.0
243.868683 148.0
244.630768 144.0
245.163879 264.0
245.824463 152.0
246.147705 2256.0
246.889709 196.0
247.055496 180.0
247.153198 340.0
248.146698 148.0
248.217468 180.0
249.762604 144.0
250.48027 180.0
251.874481 160.0
253.766922 156.0
254.106277 204.0
254.817444 168.0
255.972031 180.0
256.226837 152.0
256.430786 144.0
259.249542 164.0
260.808014 220.0
261.547272 148.0
262.112671 188.0
262.273834 212.0
262.570435 152.0
262.594879 236.0
263.174713 6988.0
264.060028 196.0
264.177582 1196.0
264.479919 148.0
265.075806 168.0
265.179504 160.0
265.422638 148.0
265.996887 144.0
266.396301 180.0
267.280609 144.0
268.150818 180.0
269.152924 108.0
269.243011 176.0
271.058197 160.0
272.075317 160.0
273.172913 156.0
274.144562 2120.0
274.292511 208.0
275.142426 368.0
276.181213 152.0
276.369781 204.0
276.747101 196.0
277.002106 172.0
277.15448 164.0
277.369904 148.0
277.515778 148.0
278.770477 236.0
278.906738 148.0
279.605194 172.0
279.821533 144.0
279.968048 188.0
281.144836 176.0
281.520996 132.0
282.160278 156.0
282.227142 180.0
283.120575 152.0
284.995392 136.0
285.02594 152.0
285.483093 164.0
285.775726 172.0
286.246979 256.0
287.237823 176.0
290.132477 168.0
290.181152 136.0
290.254547 176.0
291.022156 188.0
291.169373 2416.0
291.653229 148.0
291.873871 160.0
291.929321 208.0
292.154938 2052.0
292.568268 180.0
292.67041 148.0
293.152649 392.0
293.819214 116.0
294.624664 148.0
294.850189 176.0
295.380157 172.0
296.571716 164.0
296.84256 188.0
297.693573 196.0
298.632538 128.0
298.748749 200.0
301.946198 228.0
302.096985 188.0
302.395966 204.0
302.704071 156.0
303.119751 172.0
304.024811 180.0
304.521271 160.0
305.768677 132.0
305.971313 212.0
306.281219 144.0
306.577057 120.0
306.914154 120.0
307.086761 180.0
307.144409 144.0
307.385742 128.0
307.545258 100.0
307.58313 160.0
307.817688 180.0
307.858917 120.0
307.89325 252.0
307.955444 220.0
307.982178 152.0
308.031647 144.0
308.142456 112.0
308.185516 536.0
308.307098 220.0
308.403412 232.0
308.429291 388.0
308.48764 140.0
308.564178 116.0
308.612793 112.0
308.681793 112.0
308.754181 240.0
308.815796 316.0
308.919556 180.0
308.950165 112.0
309.011414 292.0
309.043365 272.0
309.087585 424.0
309.098389 180.0
309.135803 524.0
309.182556 189004.0
309.285492 136.0
309.42041 212.0
309.486115 272.0
309.510651 432.0
309.557465 240.0
309.584106 344.0
309.691833 292.0
309.716003 356.0
309.75943 7312.0
309.811432 332.0
309.884918 128.0
309.950104 160.0
310.014893 124.0
310.039948 240.0
310.083527 160.0
310.124329 332.0
310.185028 62756.0
310.318024 132.0
310.350952 172.0
310.411163 204.0
310.60144 112.0
310.649017 196.0
310.708191 156.0
310.748474 96.0
310.874725 116.0
310.955139 272.0
310.984283 148.0
311.031067 128.0
311.186584 9484.0
311.417664 140.0
311.533417 124.0
311.67868 128.0
311.733368 136.0
311.802032 172.0
311.939178 192.0
312.144714 196.0
312.190765 220.0
312.210297 232.0
312.251099 144.0
312.301208 232.0
312.325378 168.0
312.362305 240.0
312.42868 96.0
312.481445 128.0
312.529907 228.0
312.730835 152.0
313.178833 120.0
313.211395 148.0
313.338928 140.0
313.477051 112.0
315.425079 132.0
329.82077 148.0
331.276794 100.0
349.267181 168.0
471.68869 140.0
1010.117615 172.0
1058.310791 148.0
1104.899536 156.0
1128.002075 204.0
1166.500244 160.0
1274.377686 224.0
1277.242554 160.0
1277.761841 164.0
1281.506836 152.0
1301.677612 160.0
1306.852783 164.0
1330.72583 144.0
1360.83606 148.0
1368.003906 168.0
1380.369385 144.0
1388.122437 168.0
1393.176758 152.0
1397.682251 188.0
1404.618286 216.0
1409.612915 148.0
1418.481689 240.0
1425.025757 180.0
1435.224243 224.0
1457.044556 228.0
1465.885864 152.0
1466.327881 216.0
1466.487915 256.0
1468.394043 148.0
1468.889771 188.0
1471.629517 240.0
1475.136108 192.0
1488.728027 144.0
1491.639893 164.0
1493.81604 140.0
1497.279663 212.0
1507.717773 152.0
1512.706543 184.0
1521.567261 172.0
1532.385498 168.0
1533.593384 204.0
1547.803833 152.0
1550.584717 188.0
1554.019409 152.0
1555.56543 156.0
1556.931519 164.0
1557.661987 212.0
1565.023071 196.0
1565.172607 180.0
1565.235596 204.0
1567.047241 152.0
1568.260742 140.0
1568.442017 172.0
1568.796753 156.0
1570.074097 164.0
1571.564941 236.0
1576.642456 156.0
1581.253052 180.0
1588.280884 156.0
1589.407471 156.0
1593.750732 244.0
1597.113525 168.0
1598.10791 184.0
1600.296631 208.0
1608.172607 164.0
1609.53772 160.0
1615.987915 148.0
1617.78064 148.0
1618.645386 176.0
1626.903442 144.0
1629.850952 216.0
1643.071289 148.0
1646.808716 160.0
1649.782227 144.0
1650.420898 168.0
1650.590698 172.0
1653.389648 200.0
1657.106445 164.0
1660.973267 164.0
1661.711548 164.0
1668.476685 204.0
1669.566284 144.0
1670.550415 148.0
1672.250977 204.0
1672.625366 192.0
1677.194946 168.0
1677.488403 156.0
1678.980469 148.0
1687.309204 168.0
1688.748413 180.0
1691.088379 228.0
1691.194702 224.0
1698.675781 156.0
1699.602905 180.0
1706.354248 160.0
1710.105225 168.0
1710.22876 196.0
1711.29895 144.0
1718.700439 148.0
1720.681274 184.0
1728.161011 148.0
1728.897461 168.0
1729.203735 144.0
1733.651001 212.0
1733.766968 180.0
1735.63208 140.0
1737.053833 112.0
1737.473389 216.0
1737.788574 164.0
1741.009277 164.0
1741.241821 144.0
1741.640503 176.0
1744.000244 164.0
1744.997803 156.0
1749.207153 152.0
1753.988525 144.0
1754.439697 156.0
1758.709473 148.0
1759.75293 144.0
1763.43689 188.0
1763.821411 140.0
1763.904907 160.0
1778.160645 232.0
1781.242065 160.0
1782.1073 152.0
1782.174561 148.0
1783.544434 216.0
1788.018799 160.0
1790.216064 172.0
1791.142456 144.0
1792.128174 236.0
1792.608521 140.0
1796.664062 184.0
1796.739868 152.0
1796.874878 144.0
1798.376953 168.0
1798.858032 152.0
1800.57019 144.0
1801.881348 276.0
1807.994751 172.0
1808.100586 136.0
1810.47522 208.0
1810.678467 164.0
1815.780518 148.0
1816.306274 176.0
1817.901367 168.0
1818.121948 160.0
1820.142334 140.0
1824.977051 176.0
1825.487183 152.0
1826.584351 180.0
1826.82251 188.0
1827.375488 180.0
1828.796631 208.0
1828.898804 148.0
1829.375366 176.0
1831.580933 148.0
1831.945312 184.0
1835.714355 180.0
1839.463867 144.0
1842.525513 148.0
1852.757446 224.0
1853.245728 168.0
1855.628418 188.0
1858.630371 160.0
1863.807983 160.0
1864.710327 168.0
1866.739136 148.0
1869.453369 124.0
1870.994751 168.0
1876.615479 236.0
1880.626831 184.0
1883.648926 180.0
1884.046265 152.0
1885.074463 228.0
1887.806152 144.0
1888.584473 144.0
1888.696899 144.0
1893.128052 140.0
1894.366699 144.0
1898.648315 224.0
1898.761108 176.0
1902.492188 148.0
1910.189819 192.0
1912.21875 252.0
1912.340576 184.0
1914.412598 152.0
1921.560059 148.0
1924.1521 216.0
1928.248901 180.0
1929.140503 164.0
1935.045654 164.0
1935.30835 144.0
1936.551758 160.0
1936.691895 164.0
1937.445312 212.0
1943.126221 144.0
1944.654907 200.0
1945.443115 204.0
1946.022583 140.0
1946.786499 156.0
1947.02356 140.0
1950.696289 180.0
1956.528687 156.0
1956.748779 168.0
1957.497192 148.0
1958.818237 212.0
1959.549438 152.0
1959.681641 192.0
1963.507324 216.0
1965.315186 176.0
1965.695068 152.0
1966.524658 176.0
1968.334351 168.0
1968.996704 168.0
1972.274536 240.0
1972.371826 188.0
1974.060425 184.0
1974.644165 152.0
1979.31665 172.0
1979.467163 176.0
1980.379272 140.0
1982.298584 204.0
1982.567627 180.0
1982.851196 156.0
1983.099365 180.0
1983.653564 124.0
1983.835083 164.0
1983.959229 144.0
1985.102905 208.0
1985.280273 176.0
1990.373779 252.0
1993.669434 188.0
1993.962646 164.0
1994.807129 144.0
1994.949341 196.0
1997.883911 180.0
2000.838501 176.0
2002.085083 156.0
2002.245483 168.0
