>compound Indatraline
>formula C16H15Cl2N
>ionization [M+H]+
>parentmass 292.066681
#inchi InChI=1S/C16H15Cl2N/c1-19-16-9-13(11-4-2-3-5-12(11)16)10-6-7-14(17)15(18)8-10/h2-8,13,16,19H,9H2,1H3/t13-,16+/m0/s1
#inchikey SVFXPTLYMIXFRX
#Ion_Source LC-ESI
#Instrument qTof
#Compound_Source Commercial
#PI Dorrestein
#Data_Collector Garg_Neha
#Scan -1
#Precursor_MZ 292.065
#ExactMass 291.058
#Charge 1
#CAS_Number N/A
#Pubmed_ID N/A
#Smiles CN[C@@H]1C[C@H](c2ccccc12)c3ccc(Cl)c(Cl)c3
#INCHI_AUX N/A
#Library_Class 1
#SpectrumID CCMSLIB00000079171
#IonMode Positive
#UpdateWorkflowName UPDATE-SINGLE-ANNOTATED-GOLD
#LibraryQualityString Gold
#TaskID 278b19f5865741e282cec7349aa7e7a1
##Scan# 1213
#SpectrumFile NCP003592_C2_D11_BE1_01_15735.mzXML
#LibraryName NIHcollectionI_05062014.mgf
#MQScore -1
#Organism NIHcollectionI_05062014
#TIC_Query 0
#RT_Query -1
#MZErrorPPM -1
#SharedPeaks 0
#MassDiff 0
#LibMZ -1
#SpecMZ 292.065
#SpecCharge 0
#internalFilename spec-00000.mgf

>collision 10
45.174473 180.0
45.657337 216.0
45.725647 160.0
45.751526 156.0
46.075195 160.0
46.724594 188.0
46.853931 200.0
46.949345 196.0
47.440208 152.0
47.469002 344.0
47.597988 188.0
47.846851 184.0
47.97908 184.0
48.190269 196.0
48.329132 148.0
48.339603 172.0
48.690338 140.0
48.798725 192.0
49.18322 180.0
49.22929 164.0
49.258621 216.0
49.391415 152.0
49.444584 180.0
49.45578 140.0
49.525787 156.0
50.134136 160.0
50.222958 172.0
50.542236 144.0
51.051487 144.0
51.176704 172.0
51.559002 192.0
51.759274 192.0
52.070465 212.0
52.099194 184.0
52.304829 208.0
52.889423 148.0
52.928795 184.0
53.100964 188.0
53.121269 140.0
53.523853 176.0
53.778973 196.0
53.805248 212.0
53.936722 160.0
54.126915 196.0
54.718628 160.0
54.883648 168.0
55.088795 224.0
55.153812 164.0
55.523956 280.0
55.639698 304.0
56.012959 184.0
56.100876 160.0
56.11821 256.0
56.311272 164.0
56.363556 164.0
56.892254 204.0
57.604549 208.0
58.085922 164.0
58.113228 160.0
58.219124 168.0
58.249863 172.0
58.262012 168.0
58.497726 164.0
58.913906 136.0
58.929317 196.0
59.089855 152.0
59.295868 156.0
59.469891 164.0
59.887589 156.0
60.017414 180.0
60.259914 160.0
60.332516 240.0
60.355705 196.0
61.238724 172.0
62.321266 148.0
62.662689 156.0
62.777756 188.0
62.832958 164.0
62.929916 184.0
64.099831 284.0
64.393364 176.0
65.163872 152.0
65.245842 244.0
65.310341 216.0
65.729027 148.0
66.507462 200.0
66.611389 176.0
66.835739 160.0
66.899216 224.0
67.127319 152.0
67.160698 176.0
67.535606 140.0
67.77462 168.0
67.94841 152.0
68.194725 172.0
68.739838 176.0
69.318604 164.0
69.939735 164.0
70.047974 144.0
70.207207 192.0
70.331436 184.0
70.426613 180.0
70.453339 184.0
70.677536 128.0
70.729256 208.0
70.910149 164.0
71.2491 216.0
71.274307 184.0
71.949692 144.0
72.033333 148.0
72.186241 156.0
72.470612 144.0
72.613007 188.0
72.672379 216.0
73.039322 152.0
73.160141 168.0
73.521667 188.0
73.600014 140.0
73.723 192.0
73.93335 148.0
74.024078 148.0
75.003365 140.0
75.111992 152.0
75.220703 160.0
75.332947 180.0
75.547302 164.0
75.702858 156.0
75.730789 172.0
76.011635 192.0
76.14357 184.0
76.166153 156.0
76.332993 148.0
76.599274 172.0
76.906166 144.0
77.114006 148.0
77.534042 148.0
78.677368 168.0
78.937096 140.0
79.209648 184.0
79.335464 144.0
79.485199 164.0
79.540588 104.0
79.765053 152.0
79.853958 148.0
79.989182 224.0
80.030128 144.0
80.091568 200.0
80.215408 300.0
80.381279 204.0
80.42411 168.0
80.513374 236.0
80.727821 140.0
80.795792 148.0
80.974792 200.0
81.14682 144.0
81.299286 172.0
81.943008 216.0
82.171982 192.0
82.618217 224.0
82.686974 200.0
82.797409 156.0
82.951424 148.0
83.071106 144.0
83.296196 148.0
83.368866 212.0
83.845673 184.0
84.064514 148.0
84.336632 140.0
84.528656 160.0
84.612 336.0
84.667786 152.0
84.768539 144.0
84.959221 256.0
85.091187 188.0
85.219925 172.0
85.468147 176.0
85.646721 168.0
86.037651 192.0
86.240845 164.0
86.505356 180.0
86.948341 172.0
88.220528 164.0
89.39801 168.0
89.464287 196.0
90.141396 184.0
90.194313 232.0
90.523506 164.0
90.73761 176.0
90.986145 208.0
91.055527 412.0
91.265434 144.0
91.486122 156.0
91.800919 188.0
92.165092 212.0
92.371567 180.0
92.459579 180.0
92.702408 176.0
93.06916 256.0
93.130615 164.0
93.406044 204.0
93.488213 160.0
93.649933 268.0
93.665344 164.0
93.732773 164.0
93.92363 188.0
94.376663 176.0
94.683212 196.0
94.966171 160.0
95.265099 156.0
95.38752 228.0
95.43029 140.0
96.393951 132.0
96.778519 240.0
96.952858 140.0
96.995979 148.0
97.522011 184.0
97.594749 184.0
97.680954 144.0
97.712761 180.0
97.772667 164.0
97.860367 176.0
98.420769 200.0
98.445999 156.0
98.532913 180.0
98.659393 164.0
98.764198 148.0
98.867073 160.0
99.029419 176.0
99.168114 208.0
99.448845 148.0
99.773537 168.0
99.814896 160.0
100.071968 148.0
100.233307 304.0
100.428673 184.0
100.486526 164.0
100.765137 156.0
101.01593 204.0
101.085953 148.0
101.472298 172.0
101.857834 304.0
101.900024 152.0
101.946922 140.0
102.248253 180.0
102.268021 184.0
102.318344 152.0
102.401772 148.0
102.794655 152.0
103.388138 176.0
103.469101 164.0
104.272369 144.0
104.331314 160.0
104.41671 176.0
104.895195 156.0
104.986946 168.0
105.20118 192.0
105.374771 144.0
105.456512 148.0
105.607811 192.0
105.855438 156.0
106.511726 164.0
107.007332 168.0
107.126785 220.0
107.931686 144.0
108.248276 144.0
108.293839 168.0
108.905701 220.0
109.346474 148.0
109.446396 172.0
110.101173 244.0
110.533897 140.0
110.56488 104.0
111.076515 208.0
111.156242 164.0
111.317871 164.0
111.517448 232.0
111.841362 144.0
112.1409 116.0
112.49321 200.0
113.018944 176.0
113.033752 176.0
113.228508 164.0
113.306885 200.0
114.038971 152.0
114.262253 144.0
114.453804 148.0
114.530472 148.0
114.80896 156.0
114.956863 164.0
115.015305 160.0
115.054893 21468.0
115.089737 380.0
115.332748 176.0
116.034889 164.0
116.05806 1156.0
116.240799 156.0
116.483398 140.0
116.872528 208.0
116.967888 204.0
117.062744 164.0
117.810371 148.0
118.01136 192.0
118.400864 220.0
118.452843 140.0
118.50267 156.0
118.634293 196.0
119.351326 208.0
119.410042 144.0
119.586273 196.0
119.684235 172.0
119.930405 168.0
120.165916 180.0
121.099335 160.0
121.498283 196.0
121.944038 200.0
122.060547 168.0
122.591057 160.0
122.712288 152.0
123.000572 212.0
123.025566 152.0
123.507286 192.0
123.595772 188.0
123.662163 148.0
123.76178 140.0
124.07196 156.0
124.162865 152.0
124.196136 180.0
124.375862 176.0
124.424698 144.0
124.597923 212.0
124.995918 244.0
125.013718 308.0
125.740227 144.0
125.78933 196.0
126.094551 216.0
126.144958 196.0
126.238411 168.0
126.356956 152.0
127.013321 168.0
127.437614 160.0
128.063156 168.0
128.08551 152.0
128.800552 140.0
128.820877 152.0
128.843475 152.0
129.035568 168.0
129.361588 112.0
129.465485 172.0
129.5289 160.0
129.6082 168.0
129.92334 224.0
130.118515 224.0
130.366104 200.0
131.424942 164.0
132.320877 140.0
132.747055 216.0
132.790634 184.0
132.930573 140.0
133.020081 144.0
133.153259 160.0
133.235947 160.0
133.631378 168.0
133.80629 168.0
133.962891 144.0
134.345566 356.0
134.608673 172.0
134.958679 144.0
135.026596 188.0
135.209732 372.0
135.327789 184.0
135.661392 172.0
136.223587 152.0
136.42746 276.0
136.648407 172.0
136.836914 140.0
137.48259 188.0
138.216339 156.0
138.232712 212.0
138.352081 148.0
139.906189 248.0
140.0569 240.0
140.228027 252.0
140.273682 188.0
140.396286 152.0
140.645676 164.0
141.072815 220.0
141.459503 204.0
141.734238 160.0
141.784058 164.0
142.002106 144.0
142.928589 148.0
143.061859 140.0
143.345291 180.0
143.528839 172.0
143.657333 168.0
143.745895 176.0
144.067215 172.0
144.251373 172.0
144.359818 192.0
144.419601 140.0
144.745071 204.0
144.771423 140.0
145.082901 196.0
145.152435 144.0
145.195587 152.0
145.272079 140.0
145.418716 164.0
145.533936 148.0
146.397186 140.0
146.423676 156.0
146.734528 152.0
147.044724 160.0
147.10463 168.0
147.214691 164.0
147.973923 208.0
148.012665 324.0
148.521591 144.0
148.574966 140.0
148.662308 256.0
148.789062 128.0
148.83223 176.0
148.902649 188.0
148.92897 224.0
149.014938 1908.0
150.017258 260.0
150.319489 144.0
151.011032 140.0
151.111145 148.0
151.431824 156.0
151.696442 160.0
151.833755 148.0
152.003799 176.0
152.081558 140.0
152.201843 176.0
152.300079 160.0
152.403259 164.0
152.526138 192.0
153.184677 108.0
153.784775 144.0
154.170044 140.0
154.314972 228.0
154.831604 128.0
154.897446 152.0
155.014587 152.0
155.244431 156.0
155.261795 152.0
155.745758 172.0
155.822769 156.0
156.041473 216.0
156.486816 144.0
156.833084 232.0
157.354446 156.0
158.121857 148.0
158.976166 5408.0
159.50386 196.0
159.775436 184.0
159.920837 144.0
159.981018 516.0
160.029572 168.0
160.077484 164.0
160.78334 156.0
160.973267 3220.0
161.419571 212.0
161.632416 188.0
161.98085 236.0
162.022324 188.0
162.133804 144.0
162.166748 168.0
162.829758 200.0
162.95256 132.0
163.051285 232.0
163.068176 148.0
163.871872 144.0
164.9207 140.0
165.069931 1096.0
165.156769 184.0
165.575668 208.0
165.824188 156.0
165.908768 192.0
166.07222 320.0
166.884369 148.0
166.93837 156.0
167.123566 164.0
167.306305 176.0
167.656601 148.0
168.058868 152.0
168.125946 236.0
168.495193 168.0
168.541702 212.0
168.748474 140.0
168.916565 160.0
169.313492 112.0
169.57164 180.0
170.160477 168.0
170.251358 140.0
170.376038 156.0
170.405701 144.0
170.446182 184.0
170.708725 224.0
170.794556 188.0
170.96106 176.0
171.000656 244.0
171.781784 140.0
171.870483 200.0
172.455444 172.0
172.607071 160.0
172.651535 176.0
173.269257 248.0
173.473679 216.0
173.641479 164.0
173.675583 144.0
174.373978 172.0
174.536957 160.0
174.728958 188.0
175.168594 204.0
175.281876 196.0
175.368851 208.0
176.064209 148.0
176.134018 160.0
177.520844 184.0
177.804703 172.0
177.847168 208.0
177.894943 184.0
178.078415 456.0
178.386383 200.0
178.521973 216.0
179.078186 164.0
179.803375 224.0
180.808228 184.0
180.92601 184.0
181.043823 188.0
181.191132 148.0
181.298309 140.0
181.346558 164.0
181.507401 180.0
181.748413 136.0
181.960846 168.0
181.984055 152.0
182.26973 168.0
182.918884 392.0
182.943054 248.0
182.976685 22972.0
183.510544 184.0
183.553696 140.0
183.693939 176.0
183.936783 196.0
183.979675 1548.0
184.098785 188.0
184.631165 188.0
184.736649 212.0
184.973679 14184.0
185.030563 112.0
185.052094 128.0
185.24263 160.0
185.398758 104.0
185.437073 100.0
185.473175 140.0
185.793167 168.0
185.976913 816.0
186.0327 180.0
186.251923 224.0
186.548111 180.0
186.642258 140.0
186.901825 132.0
186.969223 300.0
187.048355 148.0
187.238037 240.0
187.839569 272.0
187.923416 140.0
188.035294 220.0
188.062592 104.0
188.166321 164.0
188.387527 172.0
188.50209 172.0
188.573334 152.0
188.603394 148.0
188.8022 100.0
189.06958 2768.0
189.824417 140.0
190.077271 3788.0
190.19313 192.0
190.409683 104.0
190.458389 284.0
190.513321 288.0
190.535309 188.0
190.873291 132.0
190.910873 200.0
190.974503 160.0
191.010727 208.0
191.03981 308.0
191.086288 122320.0
191.169556 160.0
191.199356 104.0
191.23085 120.0
191.26683 176.0
191.331039 176.0
191.370895 188.0
191.536194 152.0
191.631851 116.0
191.657608 124.0
191.792877 152.0
191.878326 180.0
192.089005 16764.0
192.133377 100.0
192.219589 136.0
192.387421 172.0
192.650299 116.0
192.919113 172.0
193.004822 184.0
193.093353 688.0
193.277832 136.0
193.300354 252.0
193.419678 196.0
193.520447 216.0
193.602524 144.0
193.646118 120.0
193.685608 260.0
194.04863 144.0
194.207504 96.0
195.227051 112.0
195.982498 284.0
196.018204 260.0
196.100128 172.0
196.59375 144.0
196.637802 164.0
196.711929 204.0
197.146683 192.0
197.279053 100.0
197.47937 240.0
197.512939 220.0
197.647232 156.0
197.708786 172.0
197.885132 156.0
197.985886 184.0
198.344559 164.0
198.917816 144.0
199.031525 448.0
199.689484 160.0
200.190414 176.0
200.432266 140.0
200.47493 152.0
202.744202 160.0
203.72876 144.0
203.99588 144.0
204.015778 156.0
204.129517 168.0
204.180695 196.0
204.929337 192.0
205.011978 140.0
205.204971 124.0
205.359787 240.0
205.739304 172.0
205.959183 188.0
207.498749 140.0
207.710953 148.0
208.078278 148.0
208.460281 140.0
208.560883 152.0
208.848404 168.0
209.277191 168.0
209.458618 216.0
210.696167 192.0
211.210709 228.0
211.280136 176.0
212.037872 1632.0
212.085159 156.0
212.134521 124.0
212.288101 220.0
213.039764 252.0
213.321106 156.0
214.035995 560.0
214.949753 188.0
215.038773 156.0
215.75296 184.0
216.376099 288.0
216.460999 176.0
217.105698 180.0
217.751343 228.0
217.774841 180.0
219.359848 196.0
221.25145 160.0
221.615723 156.0
222.066315 152.0
222.134537 196.0
222.460953 172.0
223.066956 188.0
223.191818 144.0
223.908981 148.0
224.111542 256.0
224.415558 176.0
224.469223 180.0
224.591507 180.0
224.743652 204.0
224.963135 184.0
225.046524 16412.0
225.100266 284.0
225.206009 136.0
225.291412 104.0
225.419205 176.0
225.451935 160.0
225.642227 152.0
225.673035 144.0
225.749069 108.0
225.798828 268.0
225.825043 144.0
225.856461 184.0
225.89444 260.0
225.949142 280.0
225.981781 320.0
226.024261 176.0
226.055649 183592.0
226.20871 108.0
226.267395 164.0
226.317139 100.0
226.339233 196.0
226.385895 180.0
226.412216 256.0
226.437515 136.0
226.497055 108.0
226.547684 876.0
226.62149 264.0
226.653473 204.0
226.867462 112.0
226.9216 136.0
226.955551 240.0
227.057175 27124.0
227.116913 200.0
227.185654 104.0
227.410553 244.0
227.492264 128.0
227.547455 244.0
227.606247 140.0
227.662445 96.0
227.72934 100.0
227.7603 96.0
227.851425 108.0
227.903946 152.0
228.002853 176.0
228.052292 39376.0
228.139282 188.0
228.168823 328.0
228.216446 124.0
228.293671 112.0
228.350616 116.0
228.401443 144.0
228.425934 116.0
228.486557 144.0
228.562042 152.0
228.673721 192.0
228.734055 192.0
228.773178 264.0
228.84523 284.0
228.873077 240.0
228.998566 168.0
229.054718 3964.0
229.357742 100.0
229.559265 136.0
229.640915 132.0
229.885101 104.0
229.905106 172.0
229.932098 180.0
230.263824 160.0
230.50061 248.0
230.653137 116.0
230.934525 96.0
230.98053 204.0
231.051315 180.0
231.255569 156.0
231.746445 176.0
231.879776 148.0
232.079849 160.0
232.595581 196.0
232.750412 152.0
232.884033 176.0
232.991318 1332.0
233.266891 168.0
233.631805 192.0
233.665268 200.0
233.995956 288.0
234.698654 148.0
234.988617 236.0
235.369049 156.0
235.980133 156.0
236.31543 128.0
237.026917 184.0
237.149506 176.0
238.087646 184.0
238.273712 156.0
238.299454 212.0
238.52594 128.0
238.857788 112.0
240.823196 188.0
240.983826 236.0
242.171707 148.0
243.826782 192.0
244.422424 188.0
245.946365 140.0
245.999908 4444.0
246.137772 168.0
246.177399 160.0
247.001755 1272.0
247.601379 140.0
247.747528 156.0
247.997421 2940.0
248.101639 168.0
248.162949 100.0
248.313843 148.0
248.590927 148.0
249.003815 292.0
249.73764 216.0
249.992462 152.0
251.770447 168.0
251.957169 172.0
253.845276 160.0
253.909805 152.0
254.376221 216.0
254.693756 152.0
255.434372 156.0
255.953125 140.0
257.020935 140.0
257.298615 176.0
257.493103 96.0
257.891968 116.0
258.602814 152.0
258.634155 120.0
259.007538 1736.0
259.355499 160.0
259.538208 184.0
259.695923 184.0
259.729401 104.0
259.853668 136.0
259.918427 180.0
259.974457 176.0
260.005096 132.0
260.217163 124.0
260.260162 184.0
260.42688 204.0
260.536621 192.0
260.667114 304.0
260.69931 132.0
260.774139 108.0
260.818176 252.0
260.888733 240.0
260.93457 352.0
261.025452 222540.0
261.14624 400.0
261.207947 108.0
261.231384 108.0
261.315186 288.0
261.379456 136.0
261.418701 136.0
261.523071 128.0
261.553558 3316.0
261.581268 260.0
261.671844 120.0
261.745392 120.0
261.770569 180.0
261.817871 224.0
261.846252 204.0
261.88562 188.0
261.928894 164.0
261.972565 160.0
262.027374 39020.0
262.102295 160.0
262.240601 172.0
262.290344 188.0
262.320404 220.0
262.39035 168.0
262.468933 156.0
262.504547 128.0
262.618042 200.0
262.64032 284.0
262.731598 272.0
262.765564 172.0
262.829193 108.0
262.876862 104.0
262.925507 176.0
262.98114 136.0
263.021759 157228.0
263.107056 308.0
263.261566 164.0
263.456726 260.0
263.553162 488.0
263.616669 220.0
263.666412 244.0
263.789124 276.0
263.837555 360.0
263.930542 316.0
263.976776 256.0
264.024658 13276.0
264.091095 244.0
264.108978 296.0
264.26413 120.0
264.371704 96.0
264.419067 176.0
264.743652 120.0
264.956757 104.0
265.017792 660.0
265.24939 112.0
265.476654 100.0
265.503906 140.0
265.679077 164.0
265.710052 124.0
265.748871 140.0
265.789032 216.0
265.854828 156.0
265.878387 284.0
266.022095 204.0
266.129089 100.0
266.427795 116.0
266.914154 144.0
267.009399 208.0
272.591187 140.0
274.661194 96.0
275.586365 200.0
276.682953 100.0
278.903625 152.0
291.11792 164.0
292.066681 1272.0
292.188934 180.0
293.067413 124.0
294.062531 832.0
294.191193 152.0
295.076874 112.0
304.722992 152.0
350.417755 140.0
385.528442 144.0
427.109039 124.0
441.251282 140.0
476.955566 144.0
691.071716 128.0
1272.588745 152.0
1299.281372 180.0
1424.741333 164.0
1458.709961 192.0
1463.183105 200.0
1491.464233 152.0
1524.030518 208.0
1533.095825 160.0
1533.781616 172.0
1547.6875 188.0
1550.53894 148.0
1555.072021 160.0
1557.356812 180.0
1572.726196 140.0
1583.415649 156.0
1589.765747 184.0
1594.5625 224.0
1598.467163 208.0
1607.463623 172.0
1628.486572 152.0
1677.367432 148.0
1683.854004 148.0
1686.133423 168.0
1701.61499 140.0
1732.434326 156.0
1732.81543 296.0
1739.740234 160.0
1744.364136 152.0
1749.458252 164.0
1761.625 172.0
1761.800415 168.0
1765.461426 192.0
1770.711304 156.0
1773.029297 204.0
1783.848389 168.0
1784.209839 192.0
1785.656128 152.0
1786.968384 176.0
1787.784546 188.0
1788.457886 212.0
1803.023438 212.0
1809.10498 156.0
1810.324219 188.0
1826.560181 180.0
1829.776978 140.0
1846.937866 144.0
1850.780396 148.0
1855.03833 188.0
1855.441162 184.0
1858.837769 192.0
1859.100586 108.0
1863.311157 152.0
1865.072754 176.0
1865.416504 200.0
1865.734619 192.0
1866.302124 208.0
1873.729614 196.0
1899.387085 144.0
1903.109985 228.0
1907.662354 164.0
1908.149292 144.0
1911.489258 188.0
1913.41272 148.0
1918.892822 156.0
1925.908813 208.0
1952.42981 168.0
1954.664185 184.0
1957.806885 164.0
1960.220581 172.0
1960.943237 196.0
1962.344849 216.0
1964.602539 188.0
1982.985718 140.0
1983.490845 148.0
1993.359863 160.0
1995.955444 176.0
2002.94165 176.0
