>compound Trifluoperazine 2HCl
>formula C21H24F3N3S
>ionization [M+H]+
>parentmass 408.1715798800906
#inchi InChI=1S/C21H24F3N3S/c1-25-11-13-26(14-12-25)9-4-10-27-17-5-2-3-6-19(17)28-20-8-7-16(15-18(20)27)21(22,23)24/h2-3,5-8,15H,4,9-14H2,1H3
#inchikey ZEWQUBUPAILYHI
#origInchi InChI=1S/C21H24F3N3S.2ClH/c1-25-11-13-26(14-12-25)9-4-10-27-17-5-2-3-6-19(17)28-20-8-7-16(15-18(20)27)21(22,23)24;;/h2-3,5-8,15H,4,9-14H2,1H3;2*1H
#Ion_Source LC-ESI
#Instrument qTof
#Compound_Source Commercial
#PI Dorrestein
#Data_Collector Garg_Neha
#Scan -1
#Precursor_MZ 408.172
#ExactMass 407.164
#Charge 1
#CAS_Number 440-17-5 , 117-89-5(free base),605-75-4 (Maleic acid)
#Pubmed_ID N/A
#Smiles C1(C(=CC=C2SC3C=CC=CC=3N(C2=1)CCCN4CCN(CC4)C)C(F)(F)F).Cl.Cl
#INCHI_AUX N/A
#Library_Class 1
#SpectrumID CCMSLIB00000078605
#IonMode Positive
#UpdateWorkflowName UPDATE-SINGLE-ANNOTATED-GOLD
#LibraryQualityString Gold
#TaskID 77f51c88eb8b467eb4a01dd2d0cb90d2
##Scan# 1241
#SpectrumFile Plate9_61_80_GC7_01_15756.mzXML
#LibraryName FDALibrary_2_04302014.mgf
#MQScore -1
#Organism FDALibrary_2_04302014
#TIC_Query 0
#RT_Query -1
#MZErrorPPM -1
#SharedPeaks 0
#MassDiff 0
#LibMZ -1
#SpecMZ 408.172
#SpecCharge 0
#internalFilename spec-00000.mgf

>collision 10
45.091423 164.0
45.985935 188.0
46.288765 204.0
47.994164 140.0
48.122482 180.0
48.619431 164.0
49.006008 212.0
52.672474 180.0
52.766407 196.0
53.045815 204.0
53.78915 144.0
54.645012 160.0
55.43499 192.0
55.871525 160.0
56.229145 160.0
57.82016 156.0
58.830074 224.0
59.384003 140.0
60.354206 172.0
60.955639 160.0
61.207638 160.0
62.106266 244.0
62.288349 272.0
62.315056 224.0
63.440331 164.0
63.905666 160.0
65.146317 176.0
65.244347 136.0
67.339615 168.0
67.892792 236.0
70.036491 144.0
70.328285 160.0
70.677567 168.0
70.746185 148.0
71.779488 192.0
71.835144 144.0
72.223663 144.0
72.26088 156.0
72.852562 168.0
74.15966 168.0
74.587059 184.0
81.680534 156.0
82.148888 152.0
83.169472 180.0
83.341995 180.0
83.878868 156.0
84.136086 152.0
84.752449 140.0
85.1689 148.0
86.653946 204.0
87.998657 212.0
88.110718 140.0
92.433311 180.0
93.627365 156.0
93.771858 192.0
93.976273 176.0
94.119102 332.0
94.198288 220.0
94.217606 180.0
95.069565 148.0
95.162735 176.0
95.197693 228.0
96.080376 388.0
96.927979 156.0
97.076782 176.0
97.337952 212.0
97.989006 180.0
98.084686 888.0
98.121048 172.0
98.353828 140.0
99.089905 168.0
99.303566 160.0
99.488106 176.0
100.840637 172.0
100.990593 192.0
101.106636 164.0
101.35495 144.0
103.394913 176.0
103.431343 168.0
104.694214 176.0
105.126396 144.0
105.389809 180.0
105.561516 152.0
106.07029 124.0
107.409958 144.0
107.521378 176.0
108.373344 144.0
108.783981 148.0
109.149643 220.0
110.522163 176.0
111.027008 140.0
111.091507 2604.0
111.430031 160.0
112.099716 280.0
112.512558 192.0
112.865395 180.0
112.882317 216.0
112.98172 156.0
113.007111 148.0
113.082939 132.0
113.107536 25960.0
113.254166 108.0
113.294106 108.0
113.451866 148.0
114.110069 1348.0
115.02179 156.0
115.113312 120.0
115.310135 164.0
116.119438 160.0
117.071495 316.0
120.15818 192.0
120.680176 160.0
123.091896 140.0
124.024246 144.0
124.09613 312.0
127.243324 140.0
129.081619 116.0
129.498352 164.0
129.591232 144.0
130.278656 212.0
133.02359 160.0
134.538345 156.0
134.746201 140.0
135.369431 164.0
135.514328 140.0
135.922409 140.0
136.018051 172.0
136.131332 168.0
136.95697 216.0
137.106995 172.0
137.392883 188.0
137.670639 140.0
138.021149 140.0
138.113358 384.0
139.122528 724.0
139.145813 152.0
140.124466 176.0
140.416489 144.0
140.824799 144.0
141.009094 144.0
141.077393 116.0
141.106003 172.0
141.13858 34600.0
141.194336 248.0
141.596909 96.0
142.069626 104.0
142.140396 2824.0
142.171936 372.0
143.1362 112.0
145.216217 172.0
145.470566 180.0
146.562439 140.0
149.025604 140.0
149.139832 148.0
156.757477 148.0
157.455994 188.0
158.674606 168.0
158.963058 224.0
160.149704 140.0
161.022369 180.0
161.568359 140.0
162.83577 204.0
167.707413 164.0
167.905945 152.0
168.716721 152.0
169.845764 256.0
171.022827 168.0
172.025223 152.0
172.452164 148.0
174.394348 160.0
175.066681 152.0
178.064255 176.0
179.58934 148.0
179.70137 188.0
180.013672 172.0
180.088806 120.0
182.820419 144.0
185.055328 184.0
186.106323 104.0
189.325195 140.0
190.578796 228.0
191.011536 364.0
192.011246 196.0
193.11499 140.0
193.220108 160.0
193.480255 156.0
193.829102 160.0
193.934555 208.0
196.60173 172.0
198.051682 240.0
201.380203 144.0
201.716446 180.0
204.006317 144.0
204.082413 172.0
204.410828 180.0
206.098892 204.0
210.037766 200.0
211.040802 192.0
212.090744 240.0
213.042542 168.0
213.97258 100.0
216.004288 144.0
218.750931 184.0
219.347885 216.0
220.656708 212.0
220.834122 184.0
221.615646 180.0
223.007446 148.0
223.129318 160.0
224.049805 428.0
225.570862 164.0
226.069885 132.0
226.402649 216.0
226.995987 228.0
227.088959 204.0
227.256958 188.0
228.239136 140.0
230.017929 136.0
230.046036 300.0
230.076462 408.0
231.084122 308.0
231.719238 148.0
233.437225 176.0
233.87532 144.0
235.055573 148.0
236.261612 164.0
236.99028 140.0
237.053146 108.0
238.776871 180.0
239.076904 480.0
239.141678 168.0
240.078537 248.0
240.977829 236.0
241.00563 156.0
241.03035 144.0
241.069 276.0
242.043045 380.0
243.359619 216.0
243.56459 196.0
244.060532 352.0
244.83667 160.0
245.774963 156.0
246.065353 108.0
246.511902 156.0
246.568146 140.0
247.06073 232.0
248.069229 6400.0
248.337097 188.0
249.042404 152.0
249.071487 1164.0
249.297791 188.0
250.071548 120.0
251.549759 144.0
252.079559 236.0
252.251022 140.0
253.112228 156.0
254.023376 184.0
256.05542 168.0
256.096802 180.0
258.260864 212.0
258.913788 164.0
260.034576 1084.0
261.036041 448.0
261.076813 272.0
262.051056 1576.0
262.967957 148.0
263.049438 480.0
263.484619 192.0
264.045563 488.0
264.059113 284.0
264.066467 280.0
264.843536 96.0
265.047363 164.0
266.021881 264.0
267.033112 280.0
268.040283 512.0
269.042053 340.0
269.665253 168.0
270.073944 220.0
272.134399 156.0
272.227173 148.0
273.937469 220.0
274.082123 948.0
274.372467 160.0
274.43512 104.0
274.487885 152.0
275.089172 1476.0
276.096405 536.0
277.102386 148.0
278.519958 128.0
279.027344 172.0
279.892395 148.0
280.040588 20752.0
280.088104 372.0
280.210205 116.0
280.288788 160.0
281.043823 3476.0
281.458191 212.0
282.035095 1980.0
282.131134 192.0
282.405334 208.0
282.447784 116.0
282.50235 180.0
282.885986 144.0
282.967529 156.0
283.039734 224.0
285.030304 160.0
286.228302 132.0
287.006165 160.0
288.059906 388.0
289.615112 140.0
290.025116 172.0
290.08374 232.0
292.031769 152.0
292.685181 220.0
293.046661 148.0
293.127991 160.0
294.055817 152.0
295.169281 148.0
296.812897 256.0
298.340729 164.0
300.265533 196.0
304.560822 172.0
305.09964 132.0
306.051575 180.0
306.108429 140.0
307.073364 136.0
307.118561 156.0
307.883453 212.0
307.977753 148.0
308.016174 148.0
308.071381 3832.0
308.229309 228.0
309.07312 604.0
309.150787 108.0
309.204987 288.0
309.63559 144.0
310.071869 424.0
311.385681 140.0
313.101959 140.0
313.436615 200.0
313.683319 152.0
314.064148 212.0
315.787781 144.0
315.97879 176.0
318.038513 200.0
319.106506 168.0
319.558624 216.0
320.123077 232.0
320.27417 156.0
321.140289 156.0
321.175964 204.0
322.039734 156.0
324.681061 140.0
325.1008 144.0
325.682404 200.0
325.844055 140.0
326.365204 144.0
328.782318 192.0
330.075562 172.0
332.103638 188.0
333.301636 184.0
334.953979 160.0
335.13916 144.0
335.219299 232.0
335.813568 204.0
338.067688 148.0
338.17749 228.0
339.390076 144.0
340.186188 228.0
344.68689 176.0
347.990845 156.0
348.153809 392.0
349.086975 176.0
351.109131 164.0
351.623993 160.0
351.806885 140.0
352.019714 180.0
356.6203 140.0
356.654144 240.0
357.139191 280.0
358.019867 144.0
358.603821 216.0
359.161865 192.0
359.456116 176.0
360.649536 252.0
361.345337 152.0
366.310974 176.0
367.016022 140.0
367.401245 160.0
368.158081 952.0
368.694244 132.0
369.161713 340.0
369.966827 212.0
370.160278 148.0
371.981934 144.0
372.025787 188.0
372.592529 204.0
372.669373 160.0
373.13443 276.0
373.711334 176.0
374.151947 144.0
375.137421 152.0
375.217255 144.0
376.645081 176.0
377.015991 176.0
379.206512 152.0
379.695007 148.0
380.048004 144.0
381.310089 152.0
381.835693 212.0
382.803955 148.0
384.679321 144.0
386.046814 204.0
387.083801 140.0
387.55777 160.0
387.981049 168.0
388.164581 1292.0
389.170837 580.0
389.291534 152.0
390.16864 144.0
393.334991 152.0
393.63504 140.0
394.377777 204.0
395.271545 244.0
396.114838 144.0
397.145447 140.0
397.252533 172.0
398.7005 148.0
403.065338 248.0
403.145264 160.0
403.567352 128.0
404.292999 168.0
404.636047 132.0
405.013153 124.0
405.125824 144.0
405.835205 152.0
406.017456 244.0
406.236267 140.0
406.273254 144.0
406.366638 160.0
406.545715 128.0
406.599243 148.0
406.69104 136.0
406.742035 208.0
406.885529 132.0
406.936157 148.0
407.005127 220.0
407.159729 224.0
407.227448 132.0
407.28656 232.0
407.381073 136.0
407.647064 104.0
407.686798 180.0
407.797729 104.0
407.868469 308.0
407.923126 188.0
407.954498 224.0
408.045227 260.0
408.112244 484.0
408.173798 224940.0
408.284027 336.0
408.297211 192.0
408.400482 136.0
408.443512 152.0
408.520294 248.0
408.536835 192.0
408.558533 232.0
408.615265 228.0
408.651672 396.0
408.679047 652.0
408.784271 172.0
408.83493 4032.0
408.895935 388.0
408.932587 248.0
408.978729 196.0
409.044769 176.0
409.075867 332.0
409.175323 81876.0
409.299072 180.0
409.366302 140.0
409.406036 152.0
409.470673 244.0
409.507172 132.0
409.566437 184.0
409.630554 96.0
409.696747 104.0
409.746826 148.0
409.806 128.0
409.83725 112.0
409.877594 152.0
409.889465 184.0
409.938293 104.0
409.975433 144.0
410.066132 252.0
410.107697 212.0
410.171997 18428.0
410.586609 128.0
410.709625 96.0
410.81366 200.0
410.849701 120.0
410.893646 144.0
410.935333 176.0
411.0961 132.0
411.17038 2928.0
411.255585 124.0
411.333466 136.0
411.41925 108.0
411.477386 204.0
411.520142 132.0
411.600983 464.0
411.681152 220.0
411.780548 396.0
411.851105 180.0
411.951813 148.0
412.102325 184.0
412.176605 224.0
412.38443 152.0
412.430267 148.0
412.560638 148.0
412.71402 212.0
412.825348 124.0
413.056885 240.0
413.187683 212.0
413.764984 188.0
413.87619 124.0
414.621307 124.0
420.824829 116.0
422.140198 112.0
424.104004 136.0
426.030121 120.0
426.216797 152.0
431.697388 116.0
447.287109 160.0
447.367096 140.0
491.147308 160.0
554.244934 140.0
556.167725 140.0
561.102417 152.0
579.131165 164.0
622.803101 140.0
669.811646 148.0
692.196655 164.0
1138.706543 140.0
1144.597534 144.0
1164.445923 172.0
1176.771362 144.0
1192.747192 144.0
1296.942017 144.0
1325.437988 192.0
1330.558594 168.0
1338.673218 176.0
1344.979614 192.0
1392.650024 156.0
1445.506104 140.0
1465.178955 144.0
1492.626099 180.0
1493.271973 228.0
1506.390991 164.0
1542.916504 200.0
1559.967407 228.0
1568.99707 148.0
1574.559937 176.0
1600.021606 188.0
1601.717773 140.0
1604.730225 172.0
1608.615356 188.0
1629.228394 160.0
1631.07666 168.0
1654.503052 148.0
1663.03064 144.0
1669.026123 148.0
1679.18103 188.0
1680.616821 176.0
1697.596069 128.0
1702.867065 316.0
1726.00769 216.0
1737.819214 228.0
1737.976807 220.0
1738.897949 212.0
1740.740967 144.0
1748.222656 172.0
1770.303101 168.0
1772.464355 160.0
1776.93335 196.0
1778.762817 148.0
1793.036377 144.0
1824.354858 164.0
1827.18689 152.0
1829.884766 168.0
1842.447388 144.0
1842.678101 208.0
1851.300171 276.0
1865.371216 148.0
1866.549072 196.0
1874.339111 144.0
1876.726807 164.0
1879.435181 192.0
1880.323975 188.0
1880.772827 180.0
1898.040894 212.0
1908.45166 192.0
1917.792725 200.0
1934.77417 160.0
1937.883301 172.0
1938.111206 164.0
1943.793213 140.0
1955.437378 184.0
1973.194458 184.0
1975.060303 140.0
1979.618286 144.0
1984.473999 184.0
1986.478394 228.0
1992.977051 176.0
