>compound MLS002153992-01!Vidarabine5536-17-4
>formula C10H13N5O4
>ionization [M+H]+
>parentmass 268.103
#inchi InChI=1S/C10H13N5O4/c11-8-5-9(13-2-12-8)15(3-14-5)10-7(18)6(17)4(1-16)19-10/h2-4,6-7,10,16-18H,1H2,(H2,11,12,13)/t4-,6-,7+,10?/m1/s1
#inchikey OIRDTQYFTABQOQ
#Ion_Source LC-ESI
#Instrument qTof
#Compound_Source NIH Pharmacologically Active Library
#PI Dorrestein
#Data_Collector VP/LMS
#Scan -1
#Precursor_MZ 268.103
#ExactMass 267.097
#Charge 1
#CAS_Number N/A
#Pubmed_ID N/A
#Smiles Nc1ncnc2n(cnc12)C3O[C@H](CO)[C@@H](O)[C@@H]3O
#INCHI_AUX N/A
#Library_Class 1
#SpectrumID CCMSLIB00000085225
#IonMode Positive
#UpdateWorkflowName UPDATE-SINGLE-ANNOTATED-GOLD
#LibraryQualityString Gold
#TaskID d252d724072548979f1f6f1ced849daf
##Scan# 200
#SpectrumFile p3-G03_GG3_01_18296.mzXML
#LibraryName Pharm_Active_Library.mgf
#MQScore -1
#Organism Pharm_Active_Library
#TIC_Query 0
#RT_Query -1
#MZErrorPPM -1
#SharedPeaks 0
#MassDiff 0
#LibMZ -1
#SpecMZ 268.103
#SpecCharge 0
#internalFilename spec-00000.mgf

>collision 10
45.579597 208.0
46.267525 152.0
48.326233 196.0
49.048447 96.0
49.488544 28.0
51.707069 180.0
54.524002 144.0
55.085419 156.0
56.209419 140.0
57.879597 212.0
58.199558 136.0
60.728935 188.0
61.694447 76.0
62.708546 52.0
64.348938 168.0
65.149765 160.0
74.429832 152.0
75.832466 236.0
76.88649 192.0
78.343689 72.0
84.007973 112.0
87.931305 96.0
90.514519 72.0
93.666054 172.0
94.045929 132.0
95.079514 188.0
96.879349 128.0
100.26638 152.0
100.358086 148.0
104.428383 140.0
113.909447 180.0
117.014877 40.0
118.776237 180.0
119.033379 592.0
119.158333 52.0
119.506226 40.0
120.031189 168.0
120.922554 60.0
122.098579 176.0
126.15213 124.0
130.353683 104.0
132.636093 100.0
132.656723 44.0
134.908264 200.0
134.936005 96.0
136.031845 156.0
136.061218 5964.0
136.092758 272.0
136.236206 72.0
136.366333 72.0
136.568634 108.0
136.712891 52.0
137.059631 160.0
137.155426 64.0
137.428299 64.0
138.068375 208.0
139.491669 76.0
162.934097 164.0
167.078552 220.0
178.907211 144.0
198.968018 124.0
206.898331 152.0
284.915192 176.0
302.030396 48.0
343.894867 20.0
397.197815 136.0
814.361938 20.0
994.348328 172.0
1138.391479 136.0
1159.284912 172.0
1277.022217 140.0
1292.668335 172.0
1309.56189 52.0
1362.222534 164.0
1391.929565 200.0
1483.195435 140.0
1489.119141 224.0
1498.389038 152.0
1500.045898 212.0
