>compound MLS000876964-01!5,7-dihydroxy-2-(4-hydroxyphenyl)-6,8-bis(3-methylbut-2-enyl)-2,3-dihydrochromen-4-one
>formula C25H28O5
>ionization [M+H]+
>parentmass 409.201
#inchi InChI=1S/C25H28O5/c1-14(2)5-11-18-23(28)19(12-6-15(3)4)25-22(24(18)29)20(27)13-21(30-25)16-7-9-17(26)10-8-16/h5-10,21,26,28-29H,11-13H2,1-4H3
#inchikey HCNLDGTUMBOHKT
#Ion_Source LC-ESI
#Instrument qTof
#Compound_Source NIH Natural Product Library
#PI Dorrestein
#Data_Collector VVP/LMS
#Scan -1
#Precursor_MZ 409.201
#ExactMass 408.194
#Charge 1
#CAS_Number N/A
#Pubmed_ID N/A
#Smiles CC(=CCc1c(O)c(CC=C(C)C)c2OC(CC(=O)c2c1O)c3ccc(O)cc3)C
#INCHI_AUX N/A
#Library_Class 1
#SpectrumID CCMSLIB00000080321
#IonMode Positive
#UpdateWorkflowName UPDATE-SINGLE-ANNOTATED-GOLD
#LibraryQualityString Gold
#TaskID b1d8e8f6646f4e71acdff9ca3d919d08
##Scan# 2692
#SpectrumFile p2-C07_GC7_01_18007.mzXML
#LibraryName NIH_Natural_Products_Library.mgf
#MQScore -1
#Organism NIH_Natural_Products_Library
#TIC_Query 0
#RT_Query -1
#MZErrorPPM -1
#SharedPeaks 0
#MassDiff 0
#LibMZ -1
#SpecMZ 409.201
#SpecCharge 0
#internalFilename spec-00000.mgf

>collision 10
95.040215 232.0
95.298004 168.0
95.547424 148.0
95.717911 176.0
95.867905 156.0
96.133118 124.0
96.34594 152.0
96.416283 212.0
96.484695 192.0
96.611809 156.0
96.744881 140.0
97.009338 148.0
97.1623 164.0
97.195656 48.0
97.295753 160.0
97.356621 156.0
97.608154 276.0
97.641586 172.0
97.66526 200.0
98.124016 40.0
98.22261 156.0
98.289688 276.0
98.477234 144.0
98.799431 48.0
98.940887 176.0
99.008087 324.0
99.106308 156.0
99.429535 148.0
99.469231 52.0
99.49305 120.0
99.809975 152.0
99.920334 112.0
99.977211 124.0
100.332581 164.0
100.424309 184.0
100.500114 208.0
100.755669 128.0
100.935547 44.0
101.075569 188.0
101.121597 128.0
101.291786 124.0
101.568405 164.0
101.590469 80.0
101.853432 128.0
102.307892 32.0
102.492157 136.0
103.055534 192.0
103.08239 100.0
103.284561 140.0
103.509201 200.0
103.561859 192.0
103.669235 144.0
104.007927 184.0
104.145996 184.0
104.215065 84.0
104.515991 180.0
104.579079 172.0
104.634041 128.0
104.717529 204.0
104.831612 64.0
104.911102 156.0
105.033447 148.0
105.070168 188.0
105.090569 124.0
105.319214 196.0
105.366196 128.0
105.482674 148.0
105.726067 176.0
105.83046 124.0
105.855034 164.0
105.973839 168.0
106.267029 48.0
106.384003 160.0
106.414803 220.0
106.482567 184.0
106.721588 152.0
106.938988 132.0
107.01722 212.0
107.050568 1556.0
107.114006 180.0
107.266495 136.0
107.447968 124.0
107.693611 104.0
107.710136 164.0
107.858261 128.0
107.891983 116.0
108.052986 268.0
108.210587 248.0
108.258209 136.0
108.397003 160.0
108.475754 140.0
108.614685 232.0
108.961365 92.0
108.980057 196.0
109.029938 11756.0
109.062508 188.0
109.098526 148.0
109.150497 76.0
109.28154 224.0
109.329399 196.0
109.402245 92.0
109.423065 116.0
109.461113 176.0
109.512604 224.0
109.539688 40.0
109.560516 60.0
109.664703 68.0
109.683464 68.0
109.748093 44.0
109.925392 176.0
110.032837 424.0
110.138336 72.0
110.170784 60.0
110.623459 108.0
110.734428 88.0
110.765846 124.0
110.858032 208.0
111.039177 128.0
111.163177 148.0
111.206169 64.0
111.233459 228.0
111.321632 144.0
111.348938 212.0
111.397247 108.0
111.485489 60.0
111.805145 148.0
111.963036 160.0
111.988228 104.0
112.036758 176.0
112.25174 164.0
112.525032 120.0
112.545036 96.0
112.785866 136.0
112.812187 284.0
112.90004 156.0
113.283134 204.0
113.482346 44.0
113.526878 172.0
113.70932 108.0
113.75177 224.0
113.800598 132.0
114.013016 152.0
114.14209 132.0
114.357552 188.0
114.393738 44.0
114.559837 208.0
114.662117 228.0
114.811348 180.0
114.907333 136.0
114.935066 96.0
115.009766 140.0
115.142136 132.0
115.650795 180.0
115.803001 164.0
115.86512 148.0
115.959404 148.0
116.05587 204.0
116.122345 112.0
116.203857 384.0
116.519455 220.0
116.820427 168.0
116.848396 52.0
117.014114 204.0
117.149788 136.0
117.173485 156.0
117.212265 152.0
117.324341 212.0
117.340439 232.0
117.369911 148.0
117.473137 168.0
117.503799 132.0
117.645775 176.0
117.799095 144.0
117.909294 144.0
117.987785 184.0
118.168777 152.0
118.309448 60.0
118.385231 244.0
118.422043 152.0
118.502197 68.0
118.746887 232.0
119.044464 172.0
119.085213 348.0
119.276932 104.0
119.320412 124.0
119.374771 228.0
119.392166 124.0
119.435661 112.0
119.581444 152.0
119.705528 40.0
119.801361 164.0
120.082542 208.0
120.134895 152.0
120.252724 44.0
120.641525 184.0
120.704933 60.0
120.73336 124.0
120.809914 252.0
120.908379 100.0
121.027832 688.0
121.065773 5228.0
121.102913 196.0
121.133896 112.0
121.157066 148.0
121.188667 60.0
121.212769 76.0
121.243446 48.0
121.283386 72.0
121.429794 132.0
121.563614 156.0
121.613686 108.0
121.649216 124.0
121.754608 56.0
121.87542 220.0
122.033676 164.0
122.06839 1080.0
122.12603 160.0
122.181023 200.0
122.352684 184.0
122.480408 112.0
122.602684 144.0
122.634644 160.0
122.702972 160.0
122.784561 44.0
123.011032 480.0
123.045532 300.0
123.086884 96.0
123.115593 148.0
123.296745 140.0
123.818855 180.0
124.244438 56.0
124.799675 144.0
124.859711 72.0
125.037689 84.0
125.068848 128.0
125.182396 132.0
125.220253 116.0
125.458672 164.0
125.648232 76.0
125.668312 152.0
125.775429 76.0
125.814934 212.0
126.017776 184.0
126.57579 292.0
126.600418 212.0
126.730339 212.0
127.015045 124.0
127.041969 188.0
127.085251 204.0
127.208023 52.0
127.243942 88.0
127.282112 120.0
127.297829 168.0
127.475296 212.0
127.500015 148.0
127.853088 192.0
128.063828 188.0
129.157166 184.0
129.215973 192.0
129.498932 32.0
129.523849 188.0
129.675659 156.0
129.804871 172.0
129.854767 148.0
130.06572 168.0
130.247421 188.0
130.481491 152.0
130.683899 216.0
130.703735 292.0
130.772659 116.0
130.815903 196.0
131.01123 440.0
131.378769 28.0
131.5271 104.0
131.547638 224.0
131.638962 112.0
131.940567 132.0
132.013184 244.0
132.558548 92.0
132.911667 208.0
133.003464 220.0
133.214722 184.0
133.23999 164.0
133.571014 116.0
133.676849 124.0
133.798843 232.0
133.84259 116.0
134.026855 176.0
134.075241 124.0
134.100601 156.0
134.566559 132.0
135.006058 340.0
135.041382 168.0
135.079391 180.0
135.17215 132.0
135.290176 60.0
135.331863 176.0
135.438385 72.0
135.477768 164.0
135.741974 216.0
136.015747 152.0
136.168991 112.0
136.738586 116.0
136.887573 156.0
137.029663 244.0
137.111313 184.0
137.160156 248.0
137.192795 144.0
137.666443 40.0
137.692123 128.0
137.829956 128.0
137.970184 48.0
138.029266 224.0
138.304688 168.0
138.634918 80.0
138.653671 140.0
138.848251 72.0
138.86467 188.0
139.328491 40.0
139.411682 164.0
139.496292 184.0
139.564468 192.0
139.585007 240.0
139.729095 128.0
139.957397 44.0
140.053955 92.0
140.094009 152.0
140.525436 172.0
140.578339 188.0
140.721329 196.0
140.898453 148.0
140.929169 216.0
141.059143 176.0
141.093582 184.0
141.513367 148.0
141.563095 160.0
141.677917 192.0
141.747864 172.0
141.771561 128.0
141.835541 124.0
142.215057 68.0
142.590439 152.0
142.664001 156.0
142.697281 184.0
143.142212 164.0
143.843155 208.0
143.871796 212.0
143.986404 176.0
144.139297 188.0
144.421387 224.0
144.471634 212.0
144.488373 212.0
144.557755 56.0
144.902557 164.0
144.952866 144.0
145.067917 188.0
145.254944 60.0
145.331711 164.0
145.434906 140.0
145.470917 164.0
145.55014 232.0
145.607773 164.0
145.819199 156.0
145.989883 200.0
146.172699 152.0
146.240082 168.0
146.324936 180.0
146.449554 144.0
147.016113 208.0
147.044403 172.0
147.083694 160.0
147.147034 268.0
147.192337 172.0
147.269623 52.0
147.566849 148.0
147.692596 140.0
148.055634 124.0
148.10498 128.0
148.133133 136.0
148.247009 72.0
148.273666 168.0
148.363358 140.0
148.419113 256.0
148.490906 116.0
148.737259 172.0
148.887451 44.0
149.025375 2516.0
149.072327 160.0
149.242233 144.0
149.313873 112.0
149.356522 180.0
149.560913 136.0
149.587341 140.0
149.777618 116.0
150.027054 456.0
150.131012 148.0
150.501923 176.0
150.609375 220.0
150.817062 116.0
151.017548 184.0
151.034668 168.0
151.296509 136.0
151.333237 136.0
151.629639 132.0
151.688461 140.0
152.122635 80.0
152.208572 144.0
152.251633 192.0
152.355927 68.0
152.677917 224.0
152.793533 412.0
152.850113 68.0
152.889496 148.0
153.226822 168.0
153.534943 172.0
153.68541 132.0
153.85817 168.0
154.547729 244.0
154.938904 68.0
155.072708 172.0
155.367783 168.0
155.66066 188.0
155.70784 160.0
156.03833 60.0
156.386581 100.0
156.897232 108.0
157.461151 56.0
157.526093 152.0
157.623535 160.0
157.671021 184.0
157.871017 184.0
158.148712 92.0
158.306442 100.0
158.331482 156.0
158.401672 152.0
158.481781 164.0
158.652206 92.0
158.73996 116.0
159.006577 684.0
159.048538 144.0
159.148956 100.0
159.578598 72.0
159.659058 100.0
159.840179 72.0
159.938324 196.0
159.955948 36.0
160.011642 192.0
160.215317 156.0
160.762466 96.0
160.817978 88.0
160.886139 212.0
160.91391 160.0
161.262497 180.0
161.304962 176.0
161.436951 204.0
161.479935 108.0
161.576065 132.0
161.982361 40.0
162.112839 192.0
162.145782 244.0
162.282669 160.0
162.680969 192.0
162.807922 180.0
162.952713 232.0
162.978119 152.0
163.037003 304.0
163.143311 164.0
163.227219 36.0
163.257584 136.0
163.266632 128.0
163.318771 144.0
163.359467 184.0
163.501648 164.0
163.886459 112.0
164.067413 200.0
164.23317 176.0
164.337753 96.0
164.384598 168.0
164.450043 144.0
164.759003 136.0
165.018936 1296.0
165.06572 76.0
165.203827 140.0
165.258102 188.0
165.323105 200.0
165.754288 140.0
165.908066 200.0
166.303085 108.0
166.428879 164.0
166.51619 48.0
166.570129 172.0
166.642059 48.0
166.860519 56.0
166.984787 184.0
167.038315 408.0
167.248947 136.0
167.266968 148.0
167.303009 176.0
167.426605 124.0
167.527054 124.0
167.60434 128.0
167.735779 176.0
167.79834 236.0
167.900787 176.0
168.073624 180.0
168.305923 172.0
168.497055 212.0
169.011566 132.0
169.042618 136.0
169.195312 236.0
169.319611 216.0
169.389542 168.0
169.485733 140.0
169.913193 156.0
169.951065 168.0
170.024765 136.0
170.203888 128.0
170.681992 124.0
170.871857 212.0
171.100876 328.0
171.150345 188.0
171.317032 104.0
171.340469 136.0
171.700302 176.0
171.888 152.0
171.92453 176.0
171.945419 124.0
172.180374 100.0
172.561874 156.0
172.674316 184.0
172.84436 92.0
172.88884 132.0
173.024963 76.0
173.055069 124.0
173.111359 168.0
173.150284 144.0
173.336639 132.0
173.441467 180.0
173.580978 168.0
173.916214 72.0
173.966095 164.0
173.997589 32.0
174.089493 200.0
174.533569 180.0
174.554611 40.0
174.841354 220.0
174.882523 112.0
174.957169 88.0
175.001358 240.0
175.039215 160.0
175.075653 108.0
175.138855 128.0
175.252136 112.0
175.476166 68.0
175.523621 68.0
175.689774 160.0
175.792679 216.0
175.914093 196.0
175.964249 96.0
176.024979 188.0
176.046097 128.0
176.122696 120.0
176.212509 92.0
176.253647 140.0
176.344315 136.0
176.41864 116.0
176.44165 268.0
176.475327 200.0
176.50325 148.0
176.529694 108.0
176.607513 184.0
176.632843 116.0
176.659286 208.0
176.691284 212.0
176.743942 160.0
176.774979 116.0
176.808289 140.0
176.835281 164.0
176.855896 164.0
176.914856 412.0
176.925156 328.0
176.930542 112.0
176.960236 224.0
176.96814 284.0
176.985519 576.0
177.019958 121384.0
177.084671 160.0
177.119873 84.0
177.151657 88.0
177.196564 76.0
177.225067 100.0
177.273117 76.0
177.31485 200.0
177.337982 164.0
177.36972 124.0
177.401306 96.0
177.4254 68.0
177.455765 804.0
177.503769 80.0
177.533875 124.0
177.554459 72.0
177.564056 68.0
177.59079 120.0
177.654602 196.0
177.681244 76.0
177.725861 144.0
177.758545 40.0
177.819855 28.0
177.84108 88.0
177.873154 188.0
177.892593 88.0
177.939301 124.0
177.960541 116.0
177.981461 236.0
178.021912 12436.0
178.069763 124.0
178.093323 180.0
178.189682 180.0
178.231461 60.0
178.251511 68.0
178.312134 56.0
178.340485 92.0
178.38028 132.0
178.417908 52.0
178.438766 56.0
178.460037 44.0
178.507294 88.0
178.547867 132.0
178.616943 52.0
178.674515 112.0
178.731339 52.0
178.799454 208.0
178.827148 72.0
178.862183 48.0
178.920303 84.0
178.994858 160.0
179.024902 1652.0
179.082733 124.0
179.10405 176.0
179.152145 72.0
179.202621 64.0
179.229263 60.0
179.26059 184.0
179.307159 136.0
179.350449 84.0
179.373474 72.0
179.400864 124.0
179.480301 108.0
179.512756 124.0
179.562485 36.0
179.581146 60.0
179.637161 80.0
179.722122 128.0
179.818604 56.0
179.917358 144.0
179.957413 120.0
180.036301 212.0
180.074905 112.0
180.096268 100.0
180.327591 160.0
180.376831 108.0
181.195709 44.0
181.525391 52.0
181.678268 128.0
181.809738 80.0
181.930527 76.0
182.019119 44.0
182.153397 48.0
182.201752 48.0
182.524277 40.0
182.847092 220.0
182.925156 180.0
182.970917 160.0
183.0345 188.0
183.100159 200.0
183.420776 180.0
184.03595 124.0
184.478943 252.0
185.516037 184.0
185.873734 60.0
186.031158 176.0
186.188629 72.0
186.245667 116.0
186.414108 140.0
186.457596 88.0
186.683228 152.0
187.053238 144.0
187.077744 140.0
187.309204 48.0
187.475403 108.0
187.559891 76.0
187.592606 168.0
187.652573 44.0
187.840744 60.0
188.012634 52.0
188.419479 76.0
189.01825 124.0
189.14415 228.0
189.593323 32.0
190.075943 132.0
190.15004 200.0
190.226898 84.0
190.413605 112.0
190.583923 48.0
190.655365 60.0
190.75705 220.0
190.944031 84.0
191.033676 2668.0
191.062164 168.0
191.071259 264.0
191.202637 80.0
191.444275 72.0
191.477936 172.0
191.50824 180.0
191.822357 100.0
192.043335 440.0
192.076035 188.0
192.611526 92.0
192.763474 136.0
192.854675 64.0
193.023926 180.0
193.049469 192.0
193.111816 68.0
193.219696 196.0
193.709686 104.0
193.828812 168.0
193.931351 164.0
193.984009 116.0
194.008957 188.0
194.056091 68.0
194.111542 96.0
194.21138 104.0
194.280731 104.0
194.345566 156.0
194.426956 168.0
194.616547 144.0
194.716522 196.0
194.810959 144.0
194.908203 48.0
194.945084 160.0
195.030533 17908.0
195.094406 52.0
195.113861 32.0
195.136108 60.0
195.197281 44.0
195.219528 76.0
195.250122 32.0
195.333191 60.0
195.467102 60.0
195.505585 184.0
195.545013 140.0
195.570068 52.0
195.589554 68.0
195.614609 52.0
195.692108 100.0
195.728745 124.0
195.812286 64.0
195.909775 48.0
195.93486 120.0
195.982224 48.0
196.033539 1732.0
196.177307 40.0
196.406281 68.0
196.55661 68.0
196.64032 44.0
196.7771 48.0
196.8134 44.0
197.037643 152.0
197.067764 60.0
197.106689 68.0
197.212891 108.0
197.277176 44.0
197.481293 84.0
198.041077 156.0
198.253998 48.0
198.447403 88.0
198.499664 144.0
198.71666 172.0
198.876602 236.0
199.075928 132.0
199.118057 52.0
199.179855 88.0
199.640778 224.0
199.71109 124.0
200.471222 216.0
202.145767 148.0
202.210861 136.0
203.035294 1636.0
203.089172 48.0
204.036987 364.0
205.016754 56.0
205.048111 160.0
205.139313 124.0
205.24765 52.0
205.318939 84.0
205.447296 100.0
206.933395 92.0
207.715744 116.0
208.09169 116.0
208.23526 64.0
208.281219 104.0
208.344421 48.0
209.040298 144.0
209.097763 136.0
209.477829 120.0
210.218796 164.0
212.12767 64.0
213.381775 96.0
214.21991 152.0
214.709579 172.0
215.078995 396.0
215.380859 168.0
217.051926 144.0
218.047073 140.0
219.297913 52.0
221.327408 132.0
222.465866 76.0
223.068893 184.0
223.366257 148.0
224.432404 40.0
228.547974 140.0
228.671265 128.0
229.168121 148.0
230.251053 148.0
232.3396 88.0
232.403305 76.0
232.455475 232.0
232.706818 200.0
232.749329 44.0
232.99231 164.0
233.028183 276.0
233.082321 19648.0
233.127045 256.0
233.203415 84.0
233.239426 124.0
233.308365 176.0
233.335724 56.0
233.411728 152.0
233.466217 48.0
233.589813 216.0
233.636795 48.0
233.667221 96.0
233.827774 168.0
233.947205 56.0
233.995911 112.0
234.086563 2764.0
234.129883 44.0
234.340073 48.0
234.39711 72.0
234.464996 68.0
234.608261 60.0
235.089722 344.0
235.120682 76.0
235.203094 100.0
235.267197 80.0
235.331299 76.0
235.380157 88.0
235.560349 100.0
235.61441 92.0
235.731445 136.0
235.976318 104.0
236.398071 60.0
236.529678 60.0
236.67662 32.0
236.759308 72.0
237.090164 144.0
237.91832 76.0
238.099472 44.0
239.055542 172.0
239.289474 96.0
240.738663 92.0
241.0383 80.0
241.106293 216.0
243.060287 340.0
244.24704 80.0
244.564423 40.0
245.215363 112.0
245.274582 52.0
251.0905 792.0
251.466156 36.0
251.504028 240.0
252.097366 456.0
255.069687 784.0
255.150116 44.0
256.01239 188.0
256.070007 240.0
259.088928 76.0
260.102814 144.0
260.544739 44.0
262.211487 48.0
265.710205 76.0
267.464996 128.0
268.784882 200.0
269.085144 148.0
271.933044 208.0
272.189087 108.0
272.468262 92.0
273.372467 88.0
274.50235 96.0
274.657349 40.0
276.759155 236.0
278.652985 216.0
279.058472 136.0
280.47995 164.0
281.070221 180.0
282.239288 116.0
283.085876 80.0
285.196106 60.0
286.084137 108.0
288.729431 112.0
289.138794 112.0
290.704437 180.0
290.948792 144.0
292.461487 64.0
295.892151 120.0
296.645813 108.0
296.70752 32.0
296.876587 172.0
297.009308 108.0
297.07663 9384.0
297.225433 32.0
297.256317 68.0
297.297485 56.0
297.410736 72.0
297.472534 52.0
297.534332 92.0
297.621002 112.0
298.079529 3360.0
298.224762 36.0
298.816223 88.0
299.079529 428.0
299.242981 112.0
299.442719 32.0
299.494385 32.0
299.897491 60.0
300.169861 108.0
301.101593 112.0
301.823822 92.0
303.700806 56.0
309.783417 104.0
311.121765 244.0
311.934479 68.0
312.139191 120.0
315.09906 100.0
325.384766 64.0
335.197693 76.0
338.049591 88.0
338.122772 96.0
346.607361 48.0
351.967346 40.0
353.142334 956.0
354.147583 128.0
355.062042 152.0
355.110809 52.0
362.166504 100.0
362.750031 60.0
365.153503 92.0
368.645538 84.0
370.014862 64.0
371.160431 140.0
375.174286 76.0
398.720581 68.0
408.367889 136.0
409.285431 152.0
409.394135 56.0
412.193634 104.0
441.089508 64.0
446.767334 40.0
450.215118 48.0
451.406799 120.0
451.753601 40.0
452.252899 108.0
461.043884 96.0
470.191315 96.0
474.412842 52.0
497.844086 68.0
499.359558 32.0
511.966766 124.0
539.837708 68.0
555.069641 60.0
565.812073 56.0
566.115112 60.0
580.401001 56.0
588.527771 104.0
589.798279 52.0
591.321777 84.0
591.883362 44.0
603.781311 96.0
723.099548 112.0
782.221985 112.0
784.037659 108.0
788.301086 152.0
788.664368 128.0
821.57489 128.0
826.019104 80.0
830.676086 288.0
849.568298 92.0
890.548035 268.0
921.8573 212.0
939.385437 156.0
943.073425 68.0
974.247253 160.0
986.073547 160.0
1002.969543 160.0
1004.104431 196.0
1004.14856 180.0
1005.467102 80.0
1007.35498 96.0
1019.545166 84.0
1025.725098 80.0
1031.246216 188.0
1053.401001 180.0
1061.484497 168.0
1069.019531 176.0
1070.510254 44.0
1072.399536 144.0
1075.047241 180.0
1075.367065 236.0
1089.024536 124.0
1089.489502 208.0
1099.710327 172.0
1111.011963 156.0
1112.790527 164.0
1113.162354 208.0
1118.221313 188.0
1122.178101 144.0
1127.230835 88.0
1130.42041 144.0
1137.403687 176.0
1140.338867 208.0
1149.996826 120.0
1152.319824 104.0
1153.083374 212.0
1156.295776 72.0
1160.217529 196.0
1166.721069 168.0
1174.797607 204.0
1186.552368 176.0
1186.895996 196.0
1187.170288 140.0
1187.218262 128.0
1187.567993 176.0
1187.952148 248.0
1189.660889 176.0
1198.449951 128.0
1198.856567 180.0
1210.703857 124.0
1213.454712 136.0
1217.715332 84.0
1217.763916 124.0
1230.695312 232.0
1232.036255 204.0
1232.280762 180.0
1237.554199 160.0
1254.668457 124.0
1256.558472 204.0
1259.579834 156.0
1260.441772 256.0
1261.409912 148.0
1262.124023 116.0
1266.525757 160.0
1268.204956 160.0
1270.693848 156.0
1273.057495 216.0
1273.405518 140.0
1275.57959 156.0
1277.058594 176.0
1281.094482 172.0
1282.455444 180.0
1282.911621 248.0
1286.456421 152.0
1289.428223 264.0
1290.035767 140.0
1292.860962 152.0
1297.19397 124.0
1303.732422 124.0
1304.465576 200.0
1305.982666 136.0
1308.558838 332.0
1309.019653 240.0
1313.372437 136.0
1314.065063 292.0
1318.780396 216.0
1319.040527 84.0
1319.344238 136.0
1320.182861 108.0
1320.746948 196.0
1321.115845 60.0
1323.627319 160.0
1327.460449 116.0
1330.057617 168.0
1330.790894 168.0
1337.187622 76.0
1341.718262 172.0
1343.02356 160.0
1343.61438 72.0
1344.329468 124.0
1345.979126 52.0
1346.592529 240.0
1348.068237 124.0
1348.155884 200.0
1348.820923 180.0
1349.076782 148.0
1351.643921 140.0
1354.125488 228.0
1356.755981 160.0
1358.222534 136.0
1359.607422 212.0
1362.178955 140.0
1363.648438 132.0
1365.716431 268.0
1366.420532 132.0
1366.890259 128.0
1367.22998 208.0
1371.324707 172.0
1373.521851 164.0
1378.194824 176.0
1378.6604 192.0
1381.425537 276.0
1384.822876 208.0
1386.897461 68.0
1387.305176 56.0
1389.255493 136.0
1390.116089 156.0
1393.628174 148.0
1394.661133 144.0
1395.188843 100.0
1396.676025 168.0
1397.286011 180.0
1398.595703 96.0
1399.980469 204.0
1400.516602 160.0
1400.822021 200.0
1400.896484 160.0
1401.112549 188.0
1401.820435 56.0
1402.401733 184.0
1403.355835 172.0
1406.056152 156.0
1406.750244 188.0
1413.768311 136.0
1414.711426 176.0
1415.707153 176.0
1419.004028 172.0
1420.211304 132.0
1422.192017 176.0
1422.88269 136.0
1427.804199 204.0
1432.056396 208.0
1435.470215 188.0
1437.740845 136.0
1440.851685 256.0
1440.987671 48.0
1441.622314 180.0
1447.772461 140.0
1448.938843 232.0
1451.758423 144.0
1453.852173 136.0
1455.879028 124.0
1455.970215 220.0
1456.099243 156.0
1456.600586 96.0
1458.386108 136.0
1459.290649 168.0
1460.309692 180.0
1461.701782 156.0
1462.949951 120.0
1463.010864 44.0
1463.300171 176.0
1464.800293 188.0
1465.10498 184.0
1465.158325 164.0
1467.68103 168.0
1468.908813 216.0
1472.328125 160.0
1472.664185 156.0
1472.862793 196.0
1473.336304 284.0
1474.864624 124.0
1475.185669 200.0
1476.210083 204.0
1476.509277 160.0
1477.387939 160.0
1479.074463 208.0
1479.859863 116.0
1480.947266 132.0
1481.054443 184.0
1481.537109 176.0
1485.331421 68.0
1485.684326 232.0
1487.763916 152.0
1489.238281 204.0
1490.229126 220.0
1494.273193 144.0
1495.158081 192.0
1495.789185 196.0
1498.515259 232.0
1500.650146 140.0
1500.850586 48.0
1501.876221 160.0
1503.045898 136.0
1503.24939 36.0
