>compound MLS001076496-01!ENROFLOXACIN
>formula C19H22FN3O3
>ionization [M+H]+
>parentmass 360.172455
#inchi InChI=1S/C19H22FN3O3/c1-2-21-5-7-22(8-6-21)17-10-16-13(9-15(17)20)18(24)14(19(25)26)11-23(16)12-3-4-12/h9-12H,2-8H2,1H3,(H,25,26)
#inchikey SPFYMRJSYKOXGV
#Ion_Source LC-ESI
#Instrument qTof
#Compound_Source NIH Pharmacologically Active Library
#PI Dorrestein
#Data_Collector VP/LMS
#Scan -1
#Precursor_MZ 360.179
#ExactMass 359.165
#Charge 1
#CAS_Number N/A
#Pubmed_ID N/A
#Smiles CCN1CCN(CC1)c2cc3n(cc(C(=O)O)c(=O)c3cc2F)C4CC4
#INCHI_AUX N/A
#Library_Class 1
#SpectrumID CCMSLIB00000085501
#IonMode Positive
#UpdateWorkflowName UPDATE-SINGLE-ANNOTATED-GOLD
#LibraryQualityString Gold
#TaskID d252d724072548979f1f6f1ced849daf
##Scan# 1322
#SpectrumFile p4-B09_GB9_01_18345.mzXML
#LibraryName Pharm_Active_Library.mgf
#MQScore -1
#Organism Pharm_Active_Library
#TIC_Query 0
#RT_Query -1
#MZErrorPPM -1
#SharedPeaks 0
#MassDiff 0
#LibMZ -1
#SpecMZ 360.179
#SpecCharge 0
#internalFilename spec-00000.mgf

>collision 10
44.928791 152.0
44.992847 156.0
45.006199 144.0
45.046265 200.0
45.076996 244.0
45.161217 196.0
45.221424 160.0
45.238827 152.0
45.289711 92.0
45.3232 228.0
45.354023 100.0
45.384857 172.0
45.498898 128.0
45.536495 132.0
45.648037 124.0
45.727661 192.0
45.766449 84.0
45.883663 184.0
46.00177 168.0
46.118546 188.0
46.130711 36.0
46.140171 104.0
46.161804 160.0
46.171272 68.0
46.18074 168.0
46.216568 132.0
46.249744 124.0
46.279526 140.0
46.341106 164.0
46.379364 172.0
46.448925 180.0
46.497772 232.0
46.637665 176.0
46.736607 148.0
46.776405 216.0
46.839043 88.0
46.946712 184.0
47.058601 164.0
47.169254 124.0
47.206169 188.0
47.273197 104.0
47.319736 148.0
47.3526 148.0
47.379997 204.0
47.419086 280.0
47.52121 140.0
47.591206 176.0
47.617298 160.0
47.68874 180.0
47.710735 172.0
47.74511 204.0
47.775368 148.0
47.867584 164.0
47.881355 96.0
47.899261 164.0
47.961266 152.0
47.984699 156.0
48.00676 144.0
48.017796 292.0
48.031586 164.0
48.102493 228.0
48.14476 116.0
48.188961 124.0
48.20969 196.0
48.260834 196.0
48.395042 168.0
48.424122 144.0
48.503098 144.0
48.547466 184.0
48.600174 244.0
48.629318 188.0
48.644585 184.0
48.765427 128.0
48.823818 100.0
48.858593 60.0
49.041008 144.0
49.05899 164.0
49.087013 156.0
49.125824 140.0
49.166527 160.0
49.201424 156.0
49.215385 176.0
49.234932 172.0
49.303387 144.0
49.339729 180.0
49.447433 172.0
49.70248 200.0
49.758621 200.0
49.783894 128.0
49.80777 108.0
49.834461 124.0
49.967747 160.0
49.994514 204.0
50.096134 52.0
50.246979 124.0
50.268143 148.0
50.285076 132.0
50.415005 200.0
50.475788 196.0
50.487103 56.0
50.502659 52.0
50.683865 108.0
50.720711 144.0
50.814304 120.0
50.898045 144.0
50.909405 112.0
51.041557 168.0
51.094185 212.0
51.206635 80.0
51.250797 180.0
51.344879 160.0
51.407646 216.0
51.430481 116.0
51.469025 152.0
51.514729 56.0
51.534729 44.0
51.546162 128.0
51.594753 184.0
51.657677 224.0
51.670551 196.0
51.680565 160.0
51.699169 176.0
51.756428 72.0
51.766449 120.0
51.818012 128.0
51.853836 96.0
51.881073 60.0
51.95134 84.0
51.964706 164.0
51.994385 148.0
52.005867 188.0
52.145184 152.0
52.271736 144.0
52.323551 188.0
52.362427 152.0
52.414806 156.0
52.427258 160.0
52.539875 152.0
52.54982 204.0
52.611877 144.0
52.660973 112.0
52.675419 40.0
52.692753 108.0
52.816242 216.0
52.834431 168.0
52.986443 144.0
53.054554 184.0
53.067604 144.0
53.318726 76.0
53.386436 180.0
53.42778 180.0
53.440922 200.0
53.465611 60.0
53.512188 184.0
53.534031 140.0
53.636017 140.0
53.656422 120.0
53.68121 188.0
53.73518 104.0
53.795013 128.0
53.904549 120.0
53.935242 128.0
53.982025 112.0
54.05809 160.0
54.126888 312.0
54.188408 152.0
54.288647 196.0
54.321812 136.0
54.625885 120.0
54.696514 224.0
54.712708 96.0
54.776028 176.0
54.786339 172.0
54.874767 148.0
54.95731 116.0
55.053307 132.0
55.11665 204.0
55.230659 152.0
55.251369 168.0
55.28096 136.0
55.338688 132.0
55.423111 112.0
55.438656 204.0
55.503151 132.0
55.531326 156.0
55.595119 140.0
55.6455 208.0
55.74659 172.0
55.87595 88.0
55.908684 192.0
55.978649 128.0
56.053127 108.0
56.127659 136.0
56.164047 120.0
56.297771 176.0
56.347061 208.0
56.397869 60.0
56.420292 100.0
56.438232 168.0
56.46814 196.0
56.478611 140.0
56.521996 88.0
56.535461 76.0
56.66573 252.0
56.737667 192.0
56.754158 172.0
56.937233 80.0
56.956757 68.0
57.007839 184.0
57.113262 164.0
57.162724 104.0
57.190441 172.0
57.229858 352.0
57.270042 140.0
57.284676 48.0
57.317818 180.0
57.369064 116.0
57.424854 108.0
57.43692 164.0
57.456528 76.0
57.497269 116.0
57.651306 176.0
57.683048 84.0
57.710258 352.0
57.743526 300.0
57.787395 216.0
57.813118 168.0
57.841873 92.0
58.019112 132.0
58.105553 228.0
58.127033 224.0
58.207245 172.0
58.242176 184.0
58.313587 168.0
58.465923 240.0
58.520466 160.0
58.576813 180.0
58.649952 304.0
58.668247 140.0
58.718563 152.0
58.829948 204.0
58.921577 236.0
59.046921 204.0
59.153172 176.0
59.171627 96.0
59.25663 208.0
59.273483 180.0
59.336323 172.0
59.373123 208.0
59.420673 140.0
59.448292 124.0
59.486664 88.0
59.49741 120.0
59.561905 152.0
59.64949 176.0
59.663326 148.0
59.677162 128.0
59.749447 88.0
59.76791 104.0
59.804844 200.0
59.875664 156.0
59.898766 96.0
59.926498 192.0
60.0051 160.0
60.068398 88.0
60.085777 176.0
60.11924 128.0
60.140846 212.0
60.276749 116.0
60.363682 184.0
60.400429 92.0
60.533527 224.0
60.581539 140.0
60.66367 176.0
60.697781 144.0
60.744305 100.0
60.789299 188.0
60.970547 224.0
61.008293 136.0
61.026951 160.0
61.045609 156.0
61.23716 192.0
61.272854 180.0
61.425629 84.0
61.528622 172.0
61.558289 176.0
61.587959 160.0
61.667645 184.0
61.812397 192.0
61.828732 176.0
61.94146 160.0
61.983761 180.0
62.007267 152.0
62.027645 180.0
62.052727 96.0
62.088791 148.0
62.101337 76.0
62.190769 168.0
62.302258 184.0
62.319538 136.0
62.410702 108.0
62.450016 188.0
62.47361 240.0
62.490913 152.0
62.64677 132.0
62.665676 92.0
62.70507 104.0
62.743057 164.0
62.788628 156.0
62.805038 168.0
62.837528 84.0
62.853306 200.0
62.987499 156.0
63.004875 136.0
63.096535 116.0
63.120251 112.0
63.14397 124.0
63.264225 140.0
63.27689 104.0
63.30883 116.0
63.351147 180.0
63.375088 108.0
63.482872 120.0
63.506664 148.0
63.546322 108.0
63.625858 172.0
63.686016 212.0
63.797245 160.0
63.934086 120.0
63.967457 172.0
64.078934 152.0
64.107613 192.0
64.246323 148.0
64.303772 116.0
64.434708 68.0
64.570572 128.0
64.613762 192.0
64.629761 44.0
64.640961 60.0
64.821877 204.0
64.841141 132.0
64.858772 156.0
64.889229 248.0
64.938934 236.0
65.041626 132.0
65.129936 128.0
65.169342 204.0
65.211876 156.0
65.284225 224.0
65.30513 100.0
65.345345 392.0
65.374313 128.0
65.470901 256.0
65.511162 140.0
65.588509 156.0
65.661064 60.0
65.693031 200.0
65.785301 164.0
65.857964 136.0
66.021095 124.0
66.037369 204.0
66.076195 148.0
66.098846 164.0
66.152252 132.0
66.163589 156.0
66.302116 152.0
66.437462 132.0
66.516975 84.0
66.533211 208.0
66.687523 180.0
66.702156 164.0
66.719177 140.0
66.791588 132.0
66.885963 160.0
66.900612 72.0
66.972183 176.0
67.023483 216.0
67.056984 164.0
67.073868 212.0
67.123817 188.0
67.590981 152.0
67.721947 116.0
67.735054 152.0
67.775665 152.0
67.790756 172.0
67.856323 132.0
68.07309 180.0
68.128746 188.0
68.14846 128.0
68.164894 124.0
68.219841 216.0
68.248726 176.0
68.460991 192.0
68.473701 228.0
68.515343 156.0
68.559464 300.0
68.744034 200.0
68.769287 112.0
68.790741 144.0
68.967484 164.0
69.02475 420.0
69.046547 156.0
69.083229 188.0
69.116325 176.0
69.132866 56.0
69.218948 116.0
69.290169 216.0
69.464233 184.0
69.592018 112.0
69.681702 96.0
69.714935 140.0
69.84259 164.0
69.874557 248.0
69.906174 164.0
69.94445 160.0
70.016045 40.0
70.06601 172.0
70.133278 120.0
70.29277 148.0
70.319466 144.0
70.401276 220.0
70.536606 96.0
70.605156 188.0
70.678757 124.0
70.715569 128.0
70.762444 136.0
70.852882 48.0
70.891418 132.0
70.945053 104.0
71.012123 172.0
71.05909 84.0
71.082581 104.0
71.137962 144.0
71.178261 156.0
71.191696 124.0
71.216881 188.0
71.233681 176.0
71.305931 156.0
71.504387 228.0
71.772224 112.0
71.866684 168.0
72.038879 148.0
72.096329 116.0
72.196068 160.0
72.27388 64.0
72.487228 140.0
72.534683 216.0
72.568588 236.0
72.61113 92.0
72.702591 160.0
72.852005 148.0
72.917458 184.0
72.987968 108.0
73.064507 112.0
73.110451 172.0
73.178535 160.0
73.250061 68.0
73.355705 140.0
73.389809 112.0
73.570724 188.0
73.59626 240.0
73.71241 76.0
73.730698 172.0
73.760262 144.0
73.772224 132.0
73.823517 108.0
73.967926 152.0
74.016884 108.0
74.032295 172.0
74.064835 128.0
74.079414 172.0
74.152214 116.0
74.178764 180.0
74.270515 156.0
74.433556 88.0
74.478203 116.0
74.644905 100.0
74.837616 132.0
74.851395 212.0
74.894447 52.0
74.911674 176.0
74.935791 228.0
74.994377 180.0
75.013962 200.0
75.037476 116.0
75.089203 168.0
75.103004 60.0
75.275581 180.0
75.314453 156.0
75.332314 104.0
75.607491 136.0
75.635185 112.0
75.686882 172.0
75.709633 136.0
75.800369 284.0
75.820503 184.0
75.9655 224.0
75.992172 140.0
76.044228 136.0
76.101517 204.0
76.120613 92.0
76.148399 140.0
76.297836 88.0
76.38652 192.0
76.497894 228.0
76.590179 200.0
76.764458 132.0
76.881332 168.0
76.895294 168.0
76.933701 112.0
76.945915 176.0
76.994812 180.0
77.111862 184.0
77.160805 368.0
77.222008 40.0
77.293732 64.0
77.319984 120.0
77.386497 224.0
77.498383 168.0
77.537064 180.0
77.66864 172.0
77.765137 212.0
77.882774 240.0
77.921967 52.0
77.958321 220.0
78.037422 104.0
78.090813 176.0
78.121834 116.0
78.186935 192.0
78.276718 172.0
78.335106 208.0
78.429985 136.0
78.511086 144.0
78.541069 92.0
78.560471 140.0
78.593994 48.0
78.655762 56.0
78.669884 216.0
78.77887 224.0
78.865952 88.0
78.93985 180.0
79.037491 256.0
79.060493 184.0
79.141922 168.0
79.16317 212.0
79.176369 136.0
79.218071 140.0
79.241104 52.0
79.25351 172.0
79.278671 160.0
79.301353 180.0
79.313759 128.0
79.494659 200.0
79.54435 140.0
79.578079 56.0
79.594063 140.0
79.6651 212.0
79.707741 88.0
79.73262 104.0
79.757507 188.0
79.772087 216.0
79.803726 156.0
79.937126 52.0
80.027908 176.0
80.058174 164.0
80.075981 176.0
80.231003 80.0
80.309464 176.0
80.327301 188.0
80.432579 212.0
80.499207 164.0
80.663002 152.0
80.675514 196.0
80.806068 104.0
80.869537 204.0
80.893761 152.0
80.931351 132.0
81.049294 180.0
81.072861 92.0
81.103867 200.0
81.196564 192.0
81.2145 156.0
81.302406 44.0
81.375999 148.0
81.419098 148.0
81.480171 168.0
81.607773 36.0
81.65992 88.0
81.6959 52.0
81.890297 148.0
81.973167 156.0
81.99659 164.0
82.193153 168.0
82.332146 60.0
82.348404 180.0
82.3787 176.0
82.485725 160.0
82.520073 108.0
82.568893 152.0
82.583359 156.0
82.610497 172.0
82.693726 116.0
82.911942 188.0
82.961807 96.0
82.982643 160.0
83.014381 60.0
83.08149 124.0
83.217606 180.0
83.268494 184.0
83.296219 208.0
83.321129 144.0
83.386543 156.0
83.582626 140.0
83.598488 124.0
83.630257 120.0
83.704643 116.0
83.846939 156.0
83.872505 92.0
83.98555 108.0
84.036629 132.0
84.060349 136.0
84.224663 416.0
84.239273 136.0
84.288605 180.0
84.540443 160.0
84.57206 88.0
84.588539 68.0
84.76252 140.0
84.784508 168.0
84.826668 80.0
85.07431 120.0
85.088997 180.0
85.120209 72.0
85.15049 196.0
85.21756 240.0
85.272682 192.0
85.285553 116.0
85.335182 156.0
85.379318 184.0
85.431229 200.0
85.491531 104.0
85.591423 228.0
85.627762 120.0
85.659081 160.0
85.723557 160.0
85.760422 144.0
85.788574 204.0
85.830475 148.0
85.915314 132.0
86.044022 188.0
86.131287 160.0
86.151604 92.0
86.338173 192.0
86.386375 240.0
86.403023 112.0
86.415977 184.0
86.566536 176.0
86.591484 172.0
86.653198 220.0
86.753036 116.0
86.775276 180.0
86.855019 124.0
86.888412 136.0
86.905106 176.0
86.940361 76.0
86.996048 204.0
87.521156 260.0
87.656303 156.0
87.678665 148.0
87.78492 156.0
87.801704 100.0
87.820358 124.0
87.847382 172.0
87.896843 272.0
87.915504 108.0
88.021904 60.0
88.109688 184.0
88.16761 148.0
88.382652 48.0
88.395752 72.0
88.496826 120.0
88.579231 164.0
88.648552 252.0
88.691658 76.0
88.729149 140.0
88.927979 116.0
88.980545 112.0
89.051895 180.0
89.17701 156.0
89.205971 120.0
89.23793 132.0
89.262375 136.0
89.305634 144.0
89.333847 88.0
89.358299 176.0
89.490044 96.0
89.529587 124.0
89.599281 80.0
89.68219 124.0
89.748177 36.0
89.802864 148.0
89.836815 180.0
89.881935 144.0
89.906624 192.0
89.934937 252.0
89.972687 176.0
90.010445 224.0
90.044144 204.0
90.063324 132.0
90.142136 168.0
90.261757 148.0
90.369446 176.0
90.443375 120.0
90.481232 140.0
90.534248 124.0
90.69529 172.0
90.780602 192.0
90.793877 120.0
90.816635 168.0
90.944221 148.0
91.02919 140.0
91.069069 172.0
91.108963 96.0
91.122261 132.0
91.2089 100.0
91.28952 168.0
91.462654 148.0
91.564362 180.0
91.700737 168.0
91.718872 136.0
91.799866 176.0
91.893333 140.0
92.0047 124.0
92.059395 180.0
92.086128 156.0
92.196938 160.0
92.251579 204.0
92.292511 124.0
92.340317 200.0
92.414925 236.0
92.460846 128.0
92.541245 340.0
92.637001 140.0
92.732803 136.0
92.949501 124.0
92.970612 112.0
93.035866 152.0
93.145325 132.0
93.170975 192.0
93.227943 168.0
93.274063 168.0
93.362511 48.0
93.418282 188.0
93.501022 60.0
93.520264 220.0
93.545288 156.0
93.578018 100.0
93.614601 188.0
93.68972 228.0
93.710907 204.0
93.762939 88.0
93.7957 160.0
93.973122 72.0
94.069611 172.0
94.166153 212.0
94.351654 164.0
94.392258 132.0
94.427063 92.0
94.449455 160.0
94.479294 112.0
94.576042 36.0
94.623459 160.0
94.711578 156.0
94.845276 204.0
94.868538 104.0
94.920883 208.0
94.936394 160.0
95.019798 140.0
95.074127 128.0
95.118767 180.0
95.1343 128.0
95.225563 168.0
95.270233 156.0
95.289665 100.0
95.452927 88.0
95.587151 212.0
95.631905 276.0
95.649422 120.0
95.713669 108.0
95.990364 96.0
96.07354 204.0
96.121056 168.0
96.134712 228.0
96.152275 200.0
96.179604 248.0
96.206932 164.0
96.351448 164.0
96.496063 220.0
96.550819 140.0
96.617317 204.0
96.679932 112.0
96.701118 248.0
96.973701 120.0
97.007019 280.0
97.093369 196.0
97.185486 216.0
97.20118 228.0
97.248283 76.0
97.277725 160.0
97.366081 176.0
97.383751 232.0
97.456436 140.0
97.470192 140.0
97.576324 148.0
97.948586 120.0
98.044792 76.0
98.070419 184.0
98.097885 568.0
98.131523 192.0
98.206459 128.0
98.23999 212.0
98.269585 128.0
98.305099 196.0
98.402893 132.0
98.678413 156.0
98.927681 104.0
99.010628 168.0
99.028664 176.0
99.04406 140.0
99.057587 180.0
99.101707 188.0
99.131683 104.0
99.232773 144.0
99.341843 164.0
99.381523 188.0
99.548256 260.0
99.597908 236.0
99.641609 140.0
99.733017 208.0
99.768799 60.0
99.840378 132.0
100.122971 196.0
100.2146 72.0
100.248474 212.0
100.336174 88.0
100.35611 216.0
100.370071 172.0
100.419922 140.0
100.437874 60.0
100.497719 148.0
100.569565 112.0
100.591515 196.0
100.741287 124.0
100.823204 156.0
100.843193 60.0
100.961143 92.0
100.983139 76.0
101.121193 188.0
101.342789 320.0
101.395569 176.0
101.415611 176.0
101.439667 40.0
101.471741 180.0
101.555962 228.0
101.632187 144.0
101.655556 168.0
101.70845 184.0
101.754341 200.0
101.838959 40.0
101.857033 156.0
101.889175 148.0
101.928658 228.0
101.957497 104.0
102.049957 136.0
102.087585 180.0
102.158562 156.0
102.212883 120.0
102.319046 160.0
102.337669 164.0
102.406136 144.0
102.561279 136.0
102.593536 184.0
102.746796 164.0
102.779083 144.0
102.815399 168.0
102.873764 184.0
102.953941 160.0
102.989861 176.0
103.017166 168.0
103.075905 172.0
103.096107 176.0
103.126427 160.0
103.148659 136.0
103.211327 176.0
103.377197 120.0
103.398842 132.0
103.450058 128.0
103.482452 128.0
103.680962 188.0
103.756615 148.0
103.79776 188.0
103.879654 132.0
103.90197 44.0
103.956757 204.0
104.025764 176.0
104.049362 348.0
104.143532 120.0
104.202438 72.0
104.253235 176.0
104.267464 176.0
104.334541 136.0
104.367073 260.0
104.389435 220.0
104.426529 168.0
104.454521 160.0
104.470795 36.0
104.637665 56.0
104.666176 160.0
104.7136 180.0
104.735413 136.0
104.763931 168.0
104.784302 88.0
104.83432 88.0
104.888229 160.0
104.912697 192.0
105.136284 116.0
105.1493 180.0
105.320801 108.0
105.337143 100.0
105.396393 148.0
105.527199 228.0
105.578323 140.0
105.596725 128.0
105.63559 132.0
105.703102 184.0
105.744034 40.0
105.766548 132.0
105.786606 180.0
105.844337 104.0
105.963135 352.0
106.032806 136.0
106.083679 180.0
106.239899 112.0
106.404076 164.0
106.504692 164.0
106.697853 160.0
106.714302 124.0
106.77935 152.0
106.823296 104.0
106.842812 380.0
107.030319 172.0
107.07029 188.0
107.103241 208.0
107.145844 396.0
107.169159 164.0
107.195946 168.0
107.230179 256.0
107.249535 144.0
107.352615 140.0
107.404175 40.0
107.432297 196.0
107.47171 244.0
107.544479 108.0
107.567184 136.0
107.693138 180.0
107.802628 168.0
107.947327 288.0
108.036667 228.0
108.070038 172.0
108.203636 128.0
108.208847 112.0
108.214966 172.0
108.348862 204.0
108.388229 148.0
108.456619 236.0
108.483566 80.0
108.506371 168.0
108.520882 152.0
108.551987 132.0
108.653618 204.0
108.70134 168.0
108.742844 148.0
108.763596 116.0
108.815491 196.0
108.900635 128.0
108.923477 64.0
108.94841 196.0
109.026207 156.0
109.046295 588.0
109.071007 280.0
109.133377 164.0
109.168724 120.0
109.268562 144.0
109.287285 204.0
109.316422 196.0
109.399673 204.0
109.441307 164.0
109.517769 152.0
109.530861 180.0
109.553772 188.0
109.576691 180.0
109.593353 108.0
109.672546 100.0
109.712151 132.0
109.73925 152.0
109.776787 164.0
109.793465 196.0
109.88942 176.0
109.988197 120.0
110.022987 248.0
110.050156 380.0
110.106506 52.0
110.294548 164.0
110.396988 196.0
110.501572 144.0
110.566437 164.0
110.656448 156.0
110.744392 144.0
110.780006 176.0
110.796761 128.0
110.961723 208.0
110.995872 228.0
111.088356 372.0
111.130112 160.0
111.167877 184.0
111.20356 120.0
111.253937 236.0
111.277031 60.0
111.310623 92.0
111.348419 156.0
111.375725 92.0
111.401871 188.0
111.552231 188.0
111.585297 104.0
111.632126 136.0
111.655258 44.0
111.669975 152.0
111.697319 148.0
111.756226 136.0
111.817253 80.0
111.836189 120.0
111.914085 172.0
111.956192 176.0
111.987686 168.0
112.124733 136.0
112.232239 156.0
112.30394 292.0
112.341904 192.0
112.362999 92.0
112.447403 140.0
112.620529 144.0
112.643768 160.0
112.681793 128.0
112.743073 180.0
112.77581 148.0
112.798019 92.0
112.81282 156.0
112.882591 76.0
112.927002 104.0
112.954498 116.0
112.97142 200.0
112.998924 136.0
113.015846 172.0
113.034889 92.0
113.075096 132.0
113.091827 200.0
113.096069 176.0
113.106415 236.0
113.161888 140.0
113.202118 100.0
113.2593 52.0
113.301666 152.0
113.331322 164.0
113.416092 144.0
113.490288 60.0
113.526337 192.0
113.579361 144.0
113.634514 212.0
113.659973 156.0
113.757599 168.0
113.844437 160.0
113.927483 212.0
113.963913 136.0
114.016724 156.0
114.042282 164.0
114.102646 340.0
114.261253 252.0
114.291039 196.0
114.316574 104.0
114.412354 208.0
114.465576 44.0
114.5103 116.0
114.574203 168.0
114.597633 196.0
114.621071 184.0
114.702057 220.0
114.766014 88.0
114.802261 152.0
114.836388 152.0
114.902512 192.0
115.04319 196.0
115.047417 160.0
115.056267 516.0
115.070259 160.0
115.246246 44.0
115.269753 76.0
115.314629 176.0
115.404411 68.0
115.45359 180.0
115.584084 156.0
115.624741 168.0
115.650421 136.0
115.691093 204.0
115.766029 48.0
115.785301 292.0
115.802437 40.0
115.909103 136.0
115.930977 52.0
116.001701 76.0
116.049599 1420.0
116.10891 88.0
116.179695 48.0
116.218307 184.0
116.241249 116.0
116.254242 204.0
116.271614 176.0
116.374992 188.0
116.428673 88.0
116.445854 104.0
116.49955 84.0
116.5812 164.0
116.631569 184.0
116.733826 208.0
116.830612 200.0
116.893005 136.0
117.008911 188.0
117.057045 672.0
117.24617 132.0
117.31945 124.0
117.338852 48.0
117.416481 156.0
117.468246 120.0
117.604179 120.0
117.675095 108.0
117.828758 148.0
117.928154 76.0
118.030396 184.0
118.06778 188.0
118.092476 148.0
118.183334 52.0
118.202805 160.0
118.35865 56.0
118.430115 220.0
118.462326 164.0
118.505936 112.0
118.601288 112.0
118.737877 136.0
118.800781 60.0
118.871254 108.0
118.934166 180.0
118.963173 244.0
119.033371 100.0
119.436203 172.0
119.457603 140.0
119.480743 200.0
119.58519 244.0
119.728874 124.0
119.755363 164.0
119.89257 172.0
120.025238 212.0
120.046242 256.0
120.066666 136.0
120.108109 168.0
120.123375 164.0
120.138649 156.0
120.474831 108.0
120.505417 164.0
120.569237 136.0
120.60276 140.0
120.621887 216.0
120.731003 176.0
120.778671 160.0
120.796173 240.0
121.034721 144.0
121.152985 140.0
121.315155 172.0
121.339264 164.0
121.560661 196.0
121.67054 224.0
121.694687 52.0
121.762764 136.0
121.784721 232.0
121.916542 164.0
121.94072 148.0
121.9561 184.0
122.043678 148.0
122.145683 200.0
122.175995 176.0
122.227242 136.0
122.424706 136.0
122.440125 148.0
122.506203 148.0
122.59874 120.0
122.631798 112.0
122.706009 180.0
122.7332 224.0
122.750839 256.0
122.781715 152.0
122.933929 92.0
122.953796 112.0
123.051903 152.0
123.09066 192.0
123.117157 164.0
123.185623 92.0
123.214348 176.0
123.384514 264.0
123.413254 160.0
123.442001 188.0
123.514984 144.0
123.645523 352.0
123.975784 180.0
124.024254 140.0
124.058022 184.0
124.179451 168.0
124.241562 156.0
124.339188 196.0
124.370262 116.0
124.392693 188.0
124.465721 196.0
124.605652 116.0
124.662102 152.0
124.736763 136.0
124.790115 168.0
124.919098 228.0
124.972496 184.0
125.003647 296.0
125.043701 252.0
125.1707 160.0
125.36216 164.0
125.536034 184.0
125.622856 160.0
125.699959 124.0
125.721191 164.0
125.799309 128.0
125.826096 128.0
125.863602 216.0
125.883034 116.0
125.928818 176.0
125.980186 136.0
126.009232 208.0
126.071793 176.0
126.123199 96.0
126.454216 184.0
126.499062 116.0
126.519135 132.0
126.613174 200.0
126.721382 156.0
126.756538 124.0
126.877571 132.0
126.965019 212.0
127.05722 144.0
127.207336 116.0
127.265709 208.0
127.33532 156.0
127.360023 28.0
127.423363 144.0
127.530785 128.0
127.665672 92.0
127.712906 200.0
127.843391 148.0
127.865898 152.0
127.998711 212.0
128.055527 280.0
128.201447 140.0
128.318649 156.0
128.514877 144.0
128.634491 188.0
128.699951 132.0
128.747375 148.0
128.849014 156.0
129.053497 316.0
129.069916 180.0
129.206223 152.0
129.50502 204.0
129.629608 176.0
129.654541 208.0
129.686264 132.0
129.758804 176.0
129.906219 112.0
129.934296 212.0
130.063538 736.0
130.226257 228.0
130.373932 260.0
130.407639 188.0
130.533051 112.0
130.596741 184.0
130.628586 100.0
130.653595 116.0
130.708206 204.0
130.725632 152.0
130.847046 140.0
130.910797 36.0
130.929016 172.0
131.060379 536.0
131.122665 224.0
131.143173 40.0
131.163681 200.0
131.254883 196.0
131.332413 184.0
131.533203 36.0
131.569733 156.0
131.635941 52.0
131.695328 172.0
131.734146 180.0
131.763855 164.0
131.935257 120.0
132.013657 96.0
132.039444 148.0
132.077591 224.0
132.159378 240.0
132.360809 148.0
132.417419 100.0
132.539459 240.0
132.660934 168.0
132.679276 168.0
132.812271 196.0
132.908615 216.0
133.046082 584.0
133.07637 144.0
133.112915 160.0
133.255371 164.0
133.320587 188.0
133.406998 100.0
133.547256 152.0
133.59787 56.0
133.673019 176.0
133.821106 176.0
133.910904 108.0
133.987396 172.0
134.009964 88.0
134.040298 496.0
134.075333 184.0
134.097488 260.0
134.162064 80.0
134.288879 132.0
134.332718 176.0
134.395996 204.0
134.457306 60.0
134.673065 176.0
134.69281 196.0
134.736694 56.0
134.77597 124.0
134.808319 100.0
134.861481 132.0
134.879974 76.0
134.958572 144.0
134.978027 112.0
135.048126 4064.0
135.124298 152.0
135.18988 120.0
135.210709 180.0
135.368118 168.0
135.431274 164.0
135.488571 124.0
135.530273 44.0
135.573868 152.0
135.602112 140.0
135.639191 60.0
135.692505 152.0
135.792221 156.0
135.817734 160.0
135.880356 132.0
135.93605 156.0
136.020767 164.0
136.057098 4372.0
136.178864 108.0
136.251816 124.0
136.302933 56.0
136.323181 192.0
136.377304 84.0
136.488876 88.0
136.516785 228.0
136.535385 160.0
136.601761 156.0
136.658676 224.0
136.744781 76.0
136.799194 52.0
136.839752 164.0
136.870483 156.0
136.947327 160.0
136.983582 92.0
137.058685 468.0
137.091766 60.0
137.178009 80.0
137.250275 180.0
137.362228 132.0
137.40863 152.0
137.485886 124.0
137.537231 68.0
137.700668 144.0
137.728683 152.0
137.787094 128.0
137.840836 76.0
137.859528 52.0
137.896912 180.0
137.948334 80.0
138.036148 152.0
138.071243 200.0
138.114349 44.0
138.285156 180.0
138.343674 128.0
138.437332 132.0
138.49353 160.0
138.53569 124.0
138.554443 172.0
138.601227 144.0
138.711441 120.0
138.732544 120.0
138.753647 240.0
138.784119 88.0
138.87558 92.0
138.936569 136.0
138.957672 148.0
138.999908 60.0
139.018692 128.0
139.041183 164.0
139.072525 252.0
139.09848 172.0
139.346191 92.0
139.403809 200.0
139.608322 356.0
139.697693 180.0
139.841217 36.0
139.871826 156.0
139.890656 124.0
139.944794 136.0
139.965988 228.0
140.005051 204.0
140.050278 180.0
140.09317 244.0
140.156784 192.0
140.210983 236.0
140.326996 148.0
140.675629 120.0
140.694519 56.0
140.72049 332.0
140.810211 72.0
140.873993 88.0
140.982681 220.0
141.022858 216.0
141.057144 328.0
141.240372 132.0
141.351562 96.0
141.413101 116.0
141.434402 180.0
141.571274 148.0
141.602509 200.0
141.678299 176.0
141.709106 192.0
141.725677 128.0
141.773071 188.0
141.851288 216.0
141.87973 180.0
141.913757 148.0
141.948486 180.0
141.975784 100.0
141.996735 132.0
142.03862 80.0
142.067612 428.0
142.147751 184.0
142.185715 64.0
142.226059 28.0
142.254547 76.0
142.285416 204.0
142.311523 108.0
142.337646 176.0
142.406509 84.0
142.565689 72.0
142.639359 176.0
142.753479 120.0
142.921829 124.0
143.029465 40.0
143.063385 496.0
143.096115 216.0
143.131836 276.0
143.15564 176.0
143.234238 152.0
143.262817 96.0
143.293793 52.0
143.310471 172.0
143.395676 200.0
143.536911 252.0
143.759079 144.0
143.818405 112.0
143.873306 140.0
144.004639 96.0
144.051193 180.0
144.078476 136.0
144.104965 204.0
144.274658 132.0
144.714859 228.0
144.985535 168.0
145.035858 208.0
145.053589 436.0
145.07309 144.0
145.093399 200.0
145.110168 140.0
145.183258 148.0
145.270859 128.0
145.323624 148.0
145.350021 204.0
145.419617 216.0
145.47963 40.0
145.503632 128.0
145.539642 164.0
145.676544 116.0
145.702957 168.0
145.799591 168.0
145.832718 64.0
145.924072 120.0
145.955322 160.0
146.018219 128.0
146.046295 280.0
146.080826 84.0
146.111664 124.0
146.191055 144.0
146.282516 84.0
146.361343 188.0
146.386047 160.0
146.410126 180.0
146.557068 160.0
146.641403 192.0
146.733398 120.0
146.930756 108.0
146.957306 180.0
146.995911 144.0
147.056259 372.0
147.193848 180.0
147.233124 148.0
147.292862 160.0
147.420914 164.0
147.500656 180.0
147.517029 52.0
147.611877 112.0
147.800537 188.0
147.848938 220.0
147.892502 260.0
148.015976 152.0
148.056625 2188.0
148.105576 80.0
148.124954 124.0
148.180664 72.0
148.311523 136.0
148.396378 156.0
148.60495 164.0
148.634064 100.0
148.668045 164.0
148.825821 192.0
148.857391 80.0
149.020126 168.0
149.058411 676.0
149.202393 104.0
149.229141 128.0
149.309387 188.0
149.557541 188.0
149.65979 148.0
149.708496 208.0
149.727966 180.0
150.028732 312.0
150.070587 640.0
150.172348 64.0
150.203247 76.0
150.291061 108.0
150.569351 156.0
150.657288 144.0
150.733017 116.0
150.767227 164.0
150.798996 188.0
150.818558 208.0
150.886993 304.0
150.918777 232.0
151.045959 188.0
151.06929 316.0
151.168274 144.0
151.217361 140.0
151.23436 228.0
151.280869 136.0
151.312683 160.0
151.422882 200.0
151.46138 144.0
151.534241 200.0
151.786606 152.0
151.839508 168.0
151.893463 104.0
151.917999 152.0
152.028412 128.0
152.051239 296.0
152.071259 648.0
152.129333 204.0
152.16832 164.0
152.217422 144.0
152.251801 48.0
152.313202 172.0
152.385422 360.0
152.448334 236.0
152.59581 148.0
152.871292 140.0
152.910675 40.0
152.989441 160.0
153.07309 128.0
153.139633 216.0
153.201218 68.0
153.324417 92.0
153.416077 64.0
153.447662 180.0
153.531494 160.0
153.714035 212.0
153.953491 128.0
153.99794 156.0
154.064026 1396.0
154.114044 128.0
154.299408 180.0
154.371109 156.0
154.450256 328.0
154.509628 136.0
154.554153 152.0
154.84259 204.0
154.984924 184.0
155.065552 664.0
155.118805 144.0
155.1436 116.0
155.339508 104.0
155.376709 96.0
155.413925 132.0
155.461075 188.0
155.480927 104.0
155.498306 104.0
155.525604 192.0
155.642273 80.0
155.682693 176.0
155.721741 136.0
155.76149 88.0
155.895935 168.0
155.944565 176.0
155.98761 88.0
156.045761 200.0
156.07283 1408.0
156.124344 204.0
156.314529 160.0
156.348251 124.0
156.395538 204.0
156.412964 88.0
156.51503 88.0
156.619629 120.0
156.669449 188.0
156.694351 276.0
156.873779 96.0
156.908691 236.0
156.973511 236.0
157.075455 788.0
157.138138 192.0
157.210495 128.0
157.257904 152.0
157.277878 180.0
157.480621 180.0
157.682495 64.0
157.914993 172.0
157.997543 120.0
158.036377 184.0
158.078186 176.0
158.102631 104.0
158.154922 188.0
158.202759 28.0
158.257828 44.0
158.384064 176.0
158.413101 220.0
158.439255 148.0
158.693787 196.0
158.776535 116.0
158.871841 100.0
158.917725 208.0
158.952774 248.0
159.049393 300.0
159.058105 192.0
159.065552 156.0
159.101181 140.0
159.127823 112.0
159.173019 108.0
159.296082 192.0
159.366425 104.0
159.461914 156.0
159.607727 232.0
159.69574 148.0
159.771194 216.0
159.834091 68.0
159.92218 124.0
159.942307 168.0
159.987625 92.0
160.049866 512.0
160.187897 120.0
160.307495 156.0
160.356445 180.0
160.378067 120.0
160.398224 244.0
160.620117 180.0
160.738693 120.0
160.810471 136.0
160.849731 212.0
160.887604 216.0
160.953247 52.0
160.970917 240.0
160.99617 144.0
161.054016 1196.0
161.14267 120.0
161.205841 200.0
161.377716 140.0
161.461166 164.0
161.501633 188.0
161.580048 232.0
161.633179 112.0
161.91304 124.0
161.980026 160.0
162.036743 972.0
162.068359 992.0
162.147247 160.0
162.177658 64.0
162.271454 216.0
162.337372 236.0
162.504791 112.0
162.598679 232.0
162.646896 84.0
162.679901 88.0
162.710358 164.0
162.766403 172.0
162.813034 164.0
162.847488 56.0
162.872879 208.0
162.898285 144.0
162.921143 172.0
162.951859 136.0
162.987198 140.0
163.00499 112.0
163.041534 568.0
163.068176 2828.0
163.104843 152.0
163.26535 104.0
163.297333 124.0
163.338028 76.0
163.418945 164.0
163.574677 148.0
163.600128 28.0
163.696884 188.0
163.755463 132.0
163.778381 132.0
163.854797 128.0
163.882828 180.0
163.931244 232.0
163.974564 196.0
164.004562 88.0
164.044128 600.0
164.070679 652.0
164.135162 220.0
164.175964 264.0
164.21167 120.0
164.367279 104.0
164.420868 196.0
164.46936 148.0
164.576584 48.0
164.61998 208.0
164.65451 184.0
164.711929 92.0
165.016037 144.0
165.046814 196.0
165.14389 160.0
165.169464 76.0
165.215515 156.0
165.276917 220.0
165.353683 144.0
165.70015 208.0
165.773666 180.0
165.81723 88.0
165.994339 96.0
166.058685 180.0
166.129669 136.0
166.136948 116.0
166.248077 172.0
166.378983 72.0
166.40979 204.0
166.461136 112.0
166.480316 256.0
166.509933 164.0
166.679474 164.0
166.764282 108.0
166.93396 44.0
166.969955 48.0
166.987961 92.0
167.034973 300.0
167.067368 152.0
167.461533 100.0
167.525925 164.0
167.672791 60.0
167.737228 164.0
167.783615 172.0
167.819717 176.0
167.881607 196.0
167.925446 100.0
167.943497 164.0
168.03894 160.0
168.073242 720.0
168.170547 72.0
168.214432 156.0
168.260895 44.0
168.286713 172.0
168.328018 164.0
168.353851 120.0
168.415833 128.0
168.470078 164.0
168.50882 216.0
168.58429 136.0
168.60701 84.0
168.681976 188.0
168.741425 100.0
168.779297 148.0
168.839691 104.0
168.893997 104.0
168.963837 156.0
168.997482 84.0
169.048218 216.0
169.077118 3568.0
169.176056 124.0
169.194168 96.0
169.251129 188.0
169.283829 192.0
169.383209 68.0
169.489426 104.0
169.515289 232.0
169.616409 180.0
169.701965 124.0
169.72789 52.0
169.790131 72.0
169.810867 144.0
169.834213 224.0
169.935379 172.0
170.018417 152.0
170.056503 308.0
170.079803 700.0
170.129471 192.0
170.17157 40.0
170.228683 72.0
170.302109 236.0
170.358551 152.0
170.462479 168.0
170.488464 164.0
170.605423 220.0
170.800446 144.0
170.829071 96.0
170.862885 208.0
171.016403 72.0
171.055511 208.0
171.092728 384.0
171.130951 204.0
171.190964 132.0
171.259781 212.0
171.326279 120.0
171.37056 132.0
171.599915 56.0
171.742493 224.0
171.761597 192.0
171.798126 72.0
171.952072 76.0
171.972946 40.0
172.055786 904.0
172.093338 132.0
172.145493 132.0
172.189651 116.0
172.24147 152.0
172.288895 136.0
172.318771 148.0
172.424774 124.0
172.495346 120.0
172.547623 128.0
172.662674 108.0
172.704529 112.0
172.741135 136.0
172.913834 144.0
172.968796 128.0
173.018524 160.0
173.058594 968.0
173.091843 188.0
173.110168 148.0
173.19397 176.0
173.296143 168.0
173.327591 176.0
173.419861 172.0
173.626419 184.0
173.720261 160.0
173.759598 176.0
173.909775 76.0
174.031189 336.0
174.066803 2344.0
174.170303 124.0
174.285294 68.0
174.382965 168.0
174.466644 168.0
174.550781 60.0
174.571808 104.0
174.77005 88.0
174.887512 136.0
174.960968 212.0
174.984909 144.0
175.069916 3416.0
175.190323 168.0
175.227203 88.0
175.303619 152.0
175.342346 132.0
175.385315 84.0
175.56723 124.0
175.606796 44.0
175.714951 72.0
175.779556 164.0
175.809937 176.0
175.833679 108.0
175.860077 124.0
175.970886 172.0
176.020279 188.0
176.052231 2220.0
176.074554 6100.0
176.134674 36.0
176.174301 152.0
176.192184 52.0
176.248978 120.0
176.359268 176.0
176.383057 80.0
176.404205 240.0
176.528458 164.0
176.573425 164.0
176.607803 120.0
176.636902 80.0
176.705673 112.0
176.752075 156.0
176.843277 88.0
176.954453 80.0
177.077789 1364.0
177.163681 76.0
177.191299 132.0
177.359756 44.0
177.412018 140.0
177.444595 120.0
177.46846 132.0
177.513535 184.0
177.532089 148.0
177.566574 56.0
177.656754 72.0
177.688583 108.0
177.709808 96.0
177.800034 56.0
177.869034 72.0
177.947266 136.0
177.957932 172.0
178.029526 540.0
178.063995 304.0
178.155823 180.0
178.264755 28.0
178.341827 64.0
178.408279 144.0
178.458801 84.0
178.527924 100.0
178.631653 136.0
178.679535 120.0
178.711472 204.0
178.757965 176.0
178.838562 176.0
178.919052 120.0
178.943024 196.0
179.061752 288.0
179.108124 252.0
179.185379 132.0
179.217346 64.0
179.249313 168.0
179.321274 132.0
179.355927 148.0
179.398575 148.0
179.422562 120.0
179.451889 148.0
179.554245 240.0
179.659912 100.0
179.801331 120.0
179.838684 228.0
179.873383 180.0
179.916107 40.0
179.937454 208.0
179.996201 240.0
180.016769 204.0
180.040359 176.0
180.077759 252.0
180.180481 116.0
180.201859 236.0
180.228577 136.0
180.311417 184.0
180.386261 152.0
180.477158 196.0
180.499863 132.0
180.584122 128.0
180.722076 188.0
180.763351 228.0
180.950714 112.0
181.028366 84.0
181.049896 252.0
181.07695 492.0
181.126602 124.0
181.213181 212.0
181.277496 224.0
181.349854 164.0
181.416855 160.0
181.476898 232.0
181.529221 176.0
181.752106 168.0
181.781616 96.0
181.805771 148.0
181.883606 196.0
181.985611 144.0
182.058716 572.0
182.084427 1684.0
182.122574 88.0
182.212662 172.0
182.383194 148.0
182.493423 152.0
182.531067 64.0
182.579468 168.0
182.629593 216.0
182.80275 84.0
183.052994 396.0
183.071259 1008.0
183.090912 1720.0
183.166199 148.0
183.255096 124.0
183.290131 164.0
183.319763 104.0
183.344025 64.0
183.408707 96.0
183.519226 132.0
183.562378 184.0
183.613602 184.0
183.640579 68.0
183.668472 164.0
183.778152 52.0
183.8591 112.0
183.890259 220.0
184.012009 136.0
184.06543 2396.0
184.116196 172.0
184.180389 176.0
184.304657 184.0
184.401947 108.0
184.42897 184.0
184.53981 108.0
184.618225 124.0
184.645264 164.0
184.750748 132.0
184.791336 124.0
184.812973 76.0
184.856277 112.0
184.877914 140.0
185.021378 172.0
185.069901 1788.0
185.111786 144.0
185.151352 36.0
185.236557 148.0
185.27594 172.0
185.460205 104.0
185.77475 176.0
185.961975 120.0
186.027893 332.0
186.068451 776.0
186.098969 188.0
186.117981 272.0
186.200394 128.0
186.260635 40.0
186.29866 32.0
186.331268 52.0
186.36116 144.0
186.401093 120.0
186.48616 160.0
186.529648 68.0
186.55954 56.0
186.635666 176.0
186.6819 76.0
186.744446 124.0
186.771637 80.0
186.872299 180.0
187.035995 460.0
187.067688 1924.0
187.115097 300.0
187.163528 136.0
187.207092 96.0
187.258835 192.0
187.460434 144.0
187.595428 212.0
187.645782 88.0
187.765762 100.0
187.96489 160.0
188.052765 1920.0
188.10704 244.0
188.176422 120.0
188.214798 80.0
188.314896 76.0
188.371689 140.0
188.426315 56.0
188.461838 184.0
188.494629 184.0
188.52742 112.0
188.590271 164.0
188.62854 104.0
188.683212 64.0
188.702362 172.0
188.781647 152.0
188.808578 52.0
188.855484 172.0
188.914169 188.0
188.937546 88.0
188.977753 148.0
188.997513 196.0
189.011124 148.0
189.046814 12876.0
189.08287 5268.0
189.123627 52.0
189.150009 84.0
189.172897 80.0
189.23587 108.0
189.276932 124.0
189.326218 52.0
189.355377 56.0
189.407547 144.0
189.441254 180.0
189.470215 84.0
189.520706 44.0
189.553589 72.0
189.588669 240.0
189.62645 116.0
189.642731 144.0
189.720779 40.0
189.786575 176.0
189.871582 36.0
189.918213 68.0
189.981293 80.0
190.019699 144.0
190.052658 2576.0
190.085739 712.0
190.258469 136.0
190.299652 48.0
190.368286 120.0
190.511108 48.0
190.645737 56.0
190.665939 216.0
190.706207 160.0
190.780258 140.0
190.920639 248.0
190.948151 52.0
190.981155 96.0
191.060043 2448.0
191.086624 364.0
191.150146 112.0
191.245285 100.0
191.327271 112.0
191.413223 168.0
191.464722 108.0
191.534393 48.0
191.556427 64.0
191.575714 76.0
191.606018 124.0
191.666626 128.0
191.776581 196.0
191.840256 116.0
191.87886 116.0
191.903671 52.0
191.967087 228.0
191.997421 112.0
192.068344 336.0
192.110077 180.0
192.209824 32.0
192.276062 168.0
192.300903 104.0
192.345062 96.0
192.419586 440.0
192.524521 92.0
192.546616 132.0
192.56871 68.0
192.737213 220.0
192.822235 188.0
192.947266 40.0
193.073059 268.0
193.114456 144.0
193.29628 192.0
193.323441 92.0
193.436905 180.0
193.57811 104.0
193.603027 140.0
193.702744 104.0
193.749832 72.0
193.793045 192.0
193.993698 88.0
194.029907 132.0
194.076859 176.0
194.100296 160.0
194.162827 60.0
194.362549 40.0
194.431931 180.0
194.479111 152.0
194.617905 136.0
194.649582 156.0
194.687332 96.0
194.859543 208.0
194.99292 148.0
195.026276 176.0
195.051056 428.0
195.090118 596.0
195.195862 120.0
195.329346 188.0
195.401688 224.0
195.437851 120.0
195.504639 104.0
195.575363 48.0
195.649963 132.0
195.661758 160.0
195.669449 204.0
195.735672 156.0
195.930634 168.0
195.991928 80.0
196.075089 324.0
196.094971 316.0
196.175873 100.0
196.245575 140.0
196.290176 192.0
196.345947 200.0
196.379425 120.0
196.424042 40.0
196.443573 128.0
196.564911 128.0
196.61586 80.0
196.814758 76.0
196.87619 56.0
197.010254 84.0
197.070206 1420.0
197.111206 1084.0
197.161133 140.0
197.30368 48.0
197.460266 240.0
197.554626 136.0
197.586151 136.0
197.609116 176.0
197.840805 180.0
197.949997 160.0
197.992004 152.0
198.071854 724.0
198.101013 436.0
198.162872 124.0
198.192413 148.0
198.322601 148.0
198.375183 196.0
198.412308 168.0
198.513245 84.0
198.590363 152.0
198.790955 28.0
198.991837 176.0
199.079147 352.0
199.125031 176.0
199.164352 172.0
199.254242 132.0
199.403168 192.0
199.591507 124.0
199.656189 120.0
199.762161 188.0
199.773178 128.0
199.884033 64.0
200.05014 680.0
200.084396 592.0
200.202133 84.0
200.224655 208.0
200.261276 168.0
200.289444 128.0
200.340149 144.0
200.402115 116.0
200.425827 164.0
200.483841 60.0
200.571213 84.0
200.636047 96.0
200.765747 108.0
200.813126 160.0
200.85881 128.0
200.884201 84.0
200.909592 160.0
200.943451 216.0
201.057678 764.0
201.079376 888.0
201.143799 112.0
201.194611 192.0
201.318848 172.0
201.437469 32.0
201.471375 56.0
201.590042 116.0
201.635254 224.0
201.666336 104.0
201.748016 188.0
201.821823 72.0
201.981964 160.0
202.064941 4184.0
202.202454 144.0
202.240952 152.0
202.291458 172.0
202.333908 48.0
202.362228 124.0
202.399033 188.0
202.43515 212.0
202.458496 64.0
202.509476 96.0
202.636948 40.0
202.670944 132.0
202.761627 132.0
202.792801 168.0
202.890564 192.0
202.945068 112.0
202.98558 92.0
203.062958 34572.0
203.097321 1204.0
203.168991 48.0
203.202835 120.0
203.22876 60.0
203.245941 76.0
203.278275 128.0
203.323517 184.0
203.35437 128.0
203.39566 176.0
203.455795 60.0
203.517883 60.0
203.587097 92.0
203.606094 112.0
203.663849 80.0
203.768951 64.0
203.791687 124.0
203.815491 176.0
203.868408 128.0
203.940811 184.0
203.99733 276.0
204.034927 800.0
204.069855 31076.0
204.14415 156.0
204.174454 164.0
204.230652 148.0
204.287537 116.0
204.313507 180.0
204.3629 128.0
204.408691 48.0
204.437149 52.0
204.462143 112.0
204.489685 80.0
204.541565 64.0
204.56871 124.0
204.595551 252.0
204.662018 92.0
204.696838 88.0
204.718964 160.0
204.78302 228.0
204.847137 164.0
204.892944 144.0
204.937439 80.0
204.971497 92.0
205.075958 7348.0
205.117477 64.0
205.182709 136.0
205.229019 72.0
205.257278 136.0
205.299805 212.0
205.355179 216.0
205.380157 236.0
205.422943 96.0
205.474304 48.0
205.511383 44.0
205.539917 48.0
205.574036 140.0
205.636948 96.0
205.779678 68.0
205.888184 80.0
205.93959 88.0
206.034271 136.0
206.080948 684.0
206.122223 180.0
206.184555 176.0
206.262741 124.0
206.296753 60.0
206.333923 128.0
206.471176 100.0
206.528595 156.0
206.577438 104.0
206.648514 36.0
206.682861 48.0
206.73288 100.0
206.831665 108.0
206.867065 76.0
206.940445 108.0
207.057327 132.0
207.086288 344.0
207.125839 136.0
207.182022 92.0
207.381607 160.0
207.430679 164.0
207.523621 132.0
207.64537 112.0
207.674042 84.0
207.742737 152.0
207.784668 128.0
207.935562 208.0
208.038467 180.0
208.086868 252.0
208.135025 208.0
208.288284 104.0
208.479523 148.0
208.612991 156.0
209.030014 148.0
209.072372 312.0
209.10907 412.0
209.171036 108.0
209.194077 92.0
209.306351 176.0
209.329391 84.0
209.363937 256.0
209.424896 72.0
209.464752 136.0
209.513718 140.0
209.603027 148.0
209.680847 180.0
209.701019 44.0
209.752899 36.0
209.85379 120.0
210.048813 172.0
210.07959 388.0
210.246094 176.0
210.355759 124.0
210.375977 56.0
210.40773 168.0
210.517441 132.0
210.54277 208.0
210.693634 184.0
210.916138 52.0
210.95372 52.0
211.05658 460.0
211.087036 892.0
211.120041 144.0
211.199493 92.0
211.242889 160.0
211.294952 48.0
211.436737 224.0
211.483047 160.0
211.575684 96.0
211.694382 76.0
211.836304 144.0
212.047821 220.0
212.082748 340.0
212.119186 160.0
212.227539 200.0
212.624954 116.0
212.822342 120.0
212.979156 176.0
213.016922 148.0
213.064438 276.0
213.088913 216.0
213.272614 176.0
213.313309 36.0
213.575012 64.0
213.633179 164.0
213.700104 64.0
213.720459 80.0
213.799026 96.0
213.879364 120.0
213.918365 136.0
214.014435 176.0
214.071426 268.0
214.104767 224.0
214.267822 104.0
214.305695 224.0
214.413513 76.0
214.713791 220.0
214.737122 72.0
214.783783 40.0
214.900482 160.0
215.026077 1024.0
215.060287 2960.0
215.09938 468.0
215.192337 148.0
215.212784 84.0
215.241974 44.0
215.288696 168.0
215.347107 112.0
215.373398 56.0
215.445999 140.0
215.505966 168.0
215.531143 76.0
215.694809 76.0
215.852676 92.0
215.873138 96.0
215.893616 156.0
215.990128 116.0
216.035858 724.0
216.070587 3052.0
216.167953 128.0
216.189072 128.0
216.24176 76.0
216.323715 64.0
216.435684 144.0
216.463135 128.0
216.765808 80.0
216.820755 160.0
216.946533 64.0
216.991638 144.0
217.041138 5072.0
217.079193 6796.0
217.111862 2588.0
217.172363 108.0
217.193985 168.0
217.220383 36.0
217.24678 128.0
217.288422 144.0
217.402283 64.0
217.4375 108.0
217.484467 84.0
217.518738 124.0
217.581329 132.0
217.615784 352.0
217.663544 80.0
217.722748 216.0
217.757507 112.0
217.789825 48.0
217.819199 72.0
217.842697 68.0
217.901443 124.0
217.972046 152.0
218.045822 700.0
218.085541 1728.0
218.160065 80.0
218.207916 132.0
218.242371 152.0
218.312943 92.0
218.354126 80.0
218.388397 92.0
218.414185 104.0
218.448242 32.0
218.471771 60.0
218.504135 72.0
218.557098 132.0
218.586517 68.0
218.609161 144.0
218.65126 56.0
218.689514 128.0
218.786652 124.0
219.025177 60.0
219.057388 176.0
219.091675 868.0
219.379639 292.0
219.481964 36.0
219.617615 76.0
219.638275 52.0
219.699768 112.0
219.765121 116.0
219.800323 172.0
220.048569 304.0
220.094223 168.0
220.151794 156.0
220.231537 152.0
220.269943 76.0
220.326065 68.0
220.512222 160.0
220.532913 128.0
220.902512 152.0
220.946884 72.0
221.069656 420.0
221.186584 64.0
221.245789 92.0
221.383469 160.0
221.438248 128.0
221.734512 116.0
221.814545 156.0
221.867905 244.0
222.065842 180.0
222.084106 316.0
222.1259 212.0
222.146652 116.0
222.182251 140.0
222.292038 152.0
222.568085 112.0
222.615601 164.0
222.638931 200.0
222.767075 120.0
222.835403 44.0
223.054367 468.0
223.082947 420.0
223.11763 124.0
223.302094 28.0
223.358597 136.0
223.674011 136.0
223.703781 180.0
223.825836 148.0
223.968216 188.0
224.056885 664.0
224.086884 280.0
224.125305 296.0
224.371063 116.0
224.639465 156.0
224.725983 180.0
224.811142 192.0
224.881149 140.0
224.970688 116.0
225.064392 564.0
225.102844 2144.0
225.137894 56.0
225.442215 92.0
225.49939 100.0
225.598022 168.0
225.678741 64.0
225.723587 92.0
225.850662 148.0
226.100555 748.0
226.145401 320.0
226.214249 52.0
226.411865 128.0
226.585587 44.0
226.631821 148.0
226.765381 168.0
226.804352 40.0
226.858307 148.0
226.990219 160.0
227.099319 2096.0
227.206161 88.0
227.227173 64.0
227.250046 128.0
227.338181 128.0
227.359192 68.0
227.404205 136.0
227.488251 140.0
227.578323 180.0
227.818573 200.0
227.924622 48.0
227.947769 52.0
228.085037 284.0
228.133774 36.0
228.157562 160.0
228.188217 148.0
228.251358 108.0
228.278427 200.0
228.320526 160.0
228.371658 116.0
228.452866 200.0
228.501007 48.0
228.528076 36.0
228.62738 132.0
228.663498 48.0
228.751648 180.0
228.810989 104.0
228.835068 140.0
228.872818 196.0
228.907333 116.0
228.970581 200.0
229.044083 592.0
229.077454 7256.0
229.150177 180.0
229.188126 164.0
229.232666 196.0
229.253754 124.0
229.306442 68.0
229.349197 60.0
229.377319 84.0
229.401443 120.0
229.47084 172.0
229.585358 164.0
229.654724 36.0
229.705994 88.0
229.733154 68.0
229.784439 208.0
229.805557 72.0
229.950394 184.0
230.050095 1124.0
230.08342 2400.0
230.120987 380.0
230.145615 144.0
230.169342 160.0
230.211685 44.0
230.324783 136.0
230.345932 64.0
230.397293 156.0
230.518143 76.0
230.602768 60.0
230.802277 148.0
230.859726 124.0
230.899048 64.0
230.959534 160.0
231.057083 1544.0
231.092331 11068.0
231.167923 80.0
231.201569 208.0
231.256042 44.0
231.277237 188.0
231.413452 148.0
231.464935 88.0
231.492188 48.0
231.553665 80.0
231.610855 132.0
231.731476 40.0
231.755707 184.0
231.802872 92.0
231.918839 120.0
232.066956 360.0
232.096069 1528.0
232.164917 180.0
232.328705 36.0
232.359055 52.0
232.43187 60.0
232.47435 236.0
232.599319 156.0
232.674667 128.0
232.727585 192.0
232.771835 168.0
232.839813 156.0
232.90242 144.0
232.944946 248.0
233.008743 40.0
233.039124 160.0
233.107285 392.0
233.148514 220.0
233.181946 164.0
233.309601 100.0
233.419052 92.0
233.448425 336.0
233.559494 156.0
233.581451 104.0
233.652084 136.0
233.719254 208.0
233.75975 160.0
233.832779 92.0
233.86322 140.0
233.887573 52.0
233.960617 52.0
234.050812 432.0
234.135361 164.0
234.240784 64.0
234.536346 60.0
234.639984 196.0
234.755844 44.0
234.840408 116.0
235.058105 436.0
235.168961 116.0
235.225693 144.0
235.262329 164.0
235.405823 232.0
235.616577 64.0
235.803848 168.0
235.986374 140.0
236.055618 268.0
236.12178 172.0
236.179031 116.0
236.218796 56.0
236.475815 148.0
236.682526 176.0
236.889175 120.0
236.919815 140.0
237.03624 356.0
237.091995 456.0
237.119049 180.0
237.177216 84.0
237.201736 172.0
237.241577 108.0
237.269379 116.0
237.296768 180.0
237.465424 84.0
237.680161 156.0
237.732315 148.0
237.775284 168.0
237.833603 56.0
238.064056 224.0
238.101486 1200.0
238.137299 240.0
238.19899 132.0
238.291153 64.0
238.321884 116.0
238.371033 68.0
238.543152 164.0
239.055542 192.0
239.088516 168.0
239.098724 696.0
239.151291 360.0
239.207581 184.0
239.37999 116.0
239.423096 160.0
239.802048 148.0
239.934586 144.0
240.074829 136.0
240.08812 156.0
240.115448 368.0
240.147354 76.0
240.378723 36.0
240.480576 240.0
240.683411 68.0
240.709015 136.0
240.746078 128.0
240.835632 172.0
240.897415 108.0
241.005539 84.0
241.036438 140.0
241.070297 288.0
241.107361 168.0
241.133423 208.0
241.158325 148.0
241.520218 200.0
241.657913 140.0
241.80484 152.0
241.890015 136.0
241.970505 64.0
241.992188 144.0
242.080872 144.0
242.086487 140.0
242.125336 128.0
242.267807 156.0
242.28949 92.0
242.326675 152.0
242.410324 76.0
242.500198 192.0
242.534302 56.0
242.633499 208.0
242.686203 44.0
242.751312 160.0
242.779221 128.0
242.804031 124.0
242.962219 132.0
243.057739 5432.0
243.094574 1376.0
243.243515 148.0
243.28186 44.0
243.375 180.0
243.412888 160.0
243.446411 112.0
243.540787 104.0
243.551392 40.0
243.560028 96.0
243.59549 108.0
243.643707 116.0
243.696899 180.0
243.706955 64.0
243.716446 92.0
243.783951 92.0
243.820007 148.0
243.869415 228.0
243.915558 320.0
243.937317 68.0
243.961426 164.0
243.999481 148.0
244.061325 1236.0
244.097122 340.0
244.132843 276.0
244.202408 140.0
244.253677 312.0
244.309021 112.0
244.363251 112.0
244.438034 160.0
244.476471 204.0
244.553177 164.0
244.586334 136.0
244.615433 108.0
244.680801 296.0
244.735138 204.0
244.803787 124.0
244.836487 172.0
244.868362 172.0
244.917984 168.0
244.948624 96.0
244.990555 124.0
245.033112 172.0
245.109238 88620.0
245.185196 208.0
245.212479 308.0
245.264847 132.0
245.313141 208.0
245.339691 72.0
245.36702 196.0
245.393326 248.0
245.43042 104.0
245.470871 128.0
245.522705 204.0
245.571075 68.0
245.621674 192.0
245.65097 316.0
245.694748 192.0
245.72319 64.0
245.74791 180.0
245.782791 56.0
245.844879 76.0
245.875015 160.0
245.911484 64.0
245.943283 56.0
246.007233 224.0
246.111679 14804.0
246.179794 116.0
246.218033 52.0
246.244461 108.0
246.285034 124.0
246.336716 44.0
246.371078 108.0
246.436691 88.0
246.469925 88.0
246.508347 60.0
246.542938 28.0
246.603348 24.0
246.692963 80.0
246.715378 164.0
246.832809 112.0
246.911819 36.0
246.980637 44.0
247.015045 44.0
247.05899 236.0
247.112915 1192.0
247.169937 148.0
247.238052 72.0
247.271606 56.0
247.324982 72.0
247.378021 68.0
247.42749 120.0
247.471939 124.0
247.514191 132.0
247.559875 96.0
247.587799 68.0
247.62616 152.0
247.653275 128.0
247.726654 60.0
247.786865 116.0
247.822174 112.0
247.843094 160.0
247.882523 100.0
247.929276 136.0
248.026428 188.0
248.05864 324.0
248.087708 184.0
248.116928 392.0
248.21524 140.0
248.512512 72.0
248.625473 136.0
248.699005 100.0
248.735321 88.0
248.798096 52.0
248.823212 28.0
248.87973 140.0
248.922562 144.0
248.948807 60.0
248.970795 148.0
249.027328 56.0
249.071289 164.0
249.130981 68.0
249.178101 60.0
249.303787 72.0
249.372925 96.0
249.415237 208.0
249.517517 116.0
249.649582 96.0
249.762802 176.0
249.841446 140.0
249.894928 48.0
249.929535 80.0
250.042038 144.0
250.08963 256.0
250.140396 220.0
250.272614 168.0
250.341888 168.0
250.549774 216.0
250.789246 68.0
250.855438 128.0
250.940567 156.0
250.968933 60.0
251.071304 140.0
251.104233 164.0
251.128464 116.0
251.148972 204.0
251.246475 136.0
251.969421 80.0
252.032608 212.0
252.079391 292.0
252.112961 392.0
252.149734 128.0
252.222229 68.0
252.41835 116.0
252.680756 52.0
252.763016 40.0
252.978241 40.0
253.035217 40.0
253.091187 180.0
253.11647 296.0
253.234711 80.0
253.27272 136.0
253.374084 84.0
253.399429 176.0
253.507156 168.0
254.089157 152.0
254.118408 348.0
254.171295 108.0
254.293655 180.0
254.383759 124.0
254.592072 92.0
254.725479 80.0
254.900208 68.0
255.059113 168.0
255.134766 556.0
255.173553 160.0
255.410294 192.0
255.492966 64.0
255.758881 92.0
255.803436 56.0
255.921234 108.0
256.093201 124.0
256.135712 116.0
256.576752 148.0
256.791718 144.0
256.826263 92.0
256.983551 156.0
257.030426 132.0
257.06842 156.0
257.10733 3976.0
257.185791 164.0
257.336853 44.0
257.407104 88.0
257.567932 88.0
257.729706 76.0
258.020538 220.0
258.067566 2700.0
258.110016 1052.0
258.196411 48.0
258.253967 40.0
258.33075 68.0
258.497101 152.0
258.532318 108.0
258.633118 96.0
258.734955 168.0
258.764008 52.0
258.8172 92.0
258.846008 104.0
258.984619 148.0
259.07254 452.0
259.120728 1760.0
259.192444 52.0
259.230408 48.0
259.305481 48.0
259.336182 52.0
259.369812 40.0
259.490051 108.0
259.575378 104.0
259.849243 176.0
260.089233 152.0
260.121552 672.0
260.15918 280.0
260.211914 76.0
260.263275 64.0
260.315735 164.0
260.341949 64.0
260.5466 56.0
260.870483 224.0
260.928345 136.0
261.037659 132.0
261.066254 316.0
261.112793 460.0
261.161743 192.0
261.211334 128.0
261.34967 172.0
261.520233 132.0
261.584595 84.0
261.790649 56.0
261.864716 88.0
262.128876 352.0
262.450958 104.0
262.474854 144.0
262.654388 32.0
262.893127 72.0
263.038361 124.0
263.064178 136.0
263.096008 140.0
263.151367 188.0
263.190094 128.0
263.480774 144.0
263.690796 84.0
263.816864 56.0
263.865356 124.0
263.98822 68.0
264.096741 116.0
264.126099 184.0
264.224335 104.0
264.424957 124.0
264.832886 180.0
265.088837 136.0
265.114502 148.0
265.146942 176.0
265.24115 148.0
265.691895 132.0
266.086609 396.0
266.131195 1156.0
266.168152 136.0
266.233612 76.0
266.337891 40.0
266.398071 136.0
266.527985 116.0
266.656281 172.0
266.880585 48.0
266.948853 144.0
266.987885 72.0
267.072449 176.0
267.10321 324.0
267.131073 420.0
267.173279 144.0
267.228607 192.0
267.267639 44.0
267.615906 128.0
267.778717 120.0
267.860138 52.0
267.892731 188.0
268.141876 632.0
268.277252 156.0
268.326141 68.0
268.358765 164.0
268.437012 172.0
268.91983 176.0
268.988373 224.0
269.076508 92.0
269.143524 300.0
269.540314 120.0
269.661224 128.0
269.961975 36.0
270.033936 144.0
270.069122 100.0
270.102509 300.0
270.143463 140.0
270.539215 264.0
270.606598 72.0
270.789948 80.0
270.859589 276.0
271.076721 2216.0
271.122711 500.0
271.337189 132.0
271.409302 72.0
271.883636 200.0
272.049072 52.0
272.078949 344.0
272.120514 344.0
272.180389 140.0
272.280548 136.0
272.37088 36.0
272.433289 184.0
272.84079 112.0
272.985443 100.0
273.072632 228.0
273.128967 648.0
273.22049 128.0
273.353882 96.0
273.422974 216.0
273.492096 148.0
273.735718 168.0
273.834503 44.0
273.953094 168.0
274.09967 332.0
274.127441 380.0
274.174683 140.0
274.899323 184.0
274.981842 56.0
275.02475 184.0
275.077545 100.0
275.141937 1360.0
275.283356 72.0
275.430878 136.0
275.986053 56.0
276.052185 104.0
276.14563 524.0
276.224182 56.0
276.379669 96.0
277.10144 180.0
277.136444 332.0
277.366547 80.0
277.512421 212.0
277.555511 232.0
277.638428 88.0
277.787659 52.0
278.099579 128.0
278.157745 144.0
278.773743 80.0
279.102814 140.0
279.126099 104.0
279.854767 132.0
280.111206 104.0
280.148743 164.0
280.201141 212.0
280.477722 148.0
281.111115 728.0
281.153259 140.0
281.408478 224.0
281.50531 196.0
282.103333 148.0
282.143463 112.0
282.360809 216.0
282.671906 92.0
282.914581 220.0
282.939667 204.0
283.096558 164.0
283.184113 196.0
283.388458 140.0
283.458832 76.0
283.777252 120.0
284.011963 104.0
284.085602 500.0
284.120605 392.0
284.2099 64.0
284.243774 128.0
284.344147 112.0
284.407898 196.0
284.51532 168.0
284.6362 148.0
284.659698 92.0
284.686554 196.0
284.75708 128.0
284.79068 84.0
285.04718 204.0
285.126862 4352.0
285.24765 124.0
285.351837 136.0
285.553436 148.0
285.563507 140.0
285.786255 176.0
285.829468 200.0
285.882141 84.0
286.000305 52.0
286.098938 16952.0
286.170258 112.0
286.256958 56.0
286.305573 72.0
286.37146 152.0
286.448914 52.0
286.492706 176.0
286.533142 148.0
286.662781 76.0
286.713623 64.0
286.859192 164.0
286.930817 60.0
286.967896 128.0
287.102448 3616.0
287.139435 360.0
287.143616 384.0
287.211731 136.0
287.237549 108.0
287.27478 76.0
287.301788 124.0
287.382751 60.0
287.622345 84.0
287.696625 184.0
287.774261 44.0
287.824921 64.0
287.892456 124.0
287.937256 196.0
288.014038 172.0
288.063202 100.0
288.100525 420.0
288.149628 2940.0
288.193359 520.0
288.237488 136.0
288.483704 96.0
288.700104 48.0
288.805756 132.0
288.838776 108.0
288.919952 68.0
288.984802 172.0
289.048523 72.0
289.101013 200.0
289.144745 460.0
289.312531 100.0
289.360596 156.0
289.403931 44.0
289.627441 68.0
289.698578 80.0
289.847626 44.0
290.054352 72.0
290.105225 148.0
290.138275 160.0
290.434113 112.0
290.674988 96.0
290.739471 136.0
290.98764 104.0
291.116272 172.0
291.354034 104.0
291.853638 52.0
292.04068 96.0
292.122314 124.0
292.299225 160.0
292.628845 76.0
293.198242 104.0
293.269806 180.0
293.34317 200.0
293.484558 60.0
293.719879 156.0
293.921173 176.0
293.970703 116.0
294.123016 604.0
294.155365 436.0
294.24881 40.0
294.880737 196.0
295.102936 132.0
295.159454 280.0
295.198669 184.0
295.397064 52.0
295.557831 108.0
295.99939 104.0
296.050751 184.0
296.108978 140.0
296.176758 1048.0
296.2323 168.0
296.269958 144.0
296.444702 208.0
296.712067 120.0
296.811493 160.0
297.171509 112.0
297.183228 168.0
297.250549 148.0
297.384369 116.0
297.55307 124.0
298.084961 40.0
298.133667 184.0
298.163849 104.0
298.263672 164.0
298.679718 100.0
298.934296 76.0
299.107849 308.0
299.137054 128.0
299.147369 132.0
299.333618 36.0
299.457581 32.0
299.485138 128.0
300.115356 1456.0
300.151917 524.0
300.216858 100.0
300.253693 48.0
300.284729 200.0
300.322693 32.0
300.474457 140.0
300.626282 152.0
300.702209 108.0
300.74707 168.0
300.822998 48.0
300.992188 120.0
301.118683 656.0
301.151886 372.0
301.297424 84.0
301.503418 80.0
301.551819 200.0
301.726868 168.0
301.894073 92.0
302.121704 124.0
302.1604 180.0
302.18808 164.0
302.397797 132.0
302.541077 76.0
302.575684 164.0
302.625275 88.0
303.043243 152.0
303.136627 160.0
303.483429 76.0
303.875336 156.0
303.916992 108.0
304.108887 132.0
304.291809 80.0
304.569611 80.0
304.62674 100.0
304.955292 148.0
305.111328 180.0
305.19516 212.0
305.417725 112.0
305.828278 120.0
305.939667 196.0
306.110291 140.0
306.354095 200.0
306.594482 108.0
306.625854 40.0
306.810608 144.0
307.586792 148.0
308.210388 164.0
309.073792 148.0
309.546326 88.0
309.574341 232.0
310.618744 88.0
310.759094 116.0
311.067902 144.0
311.138123 160.0
311.924988 40.0
312.035736 128.0
312.154663 212.0
312.185181 208.0
312.28717 228.0
312.325836 116.0
312.793823 92.0
313.116608 292.0
313.153107 280.0
313.197021 188.0
313.279785 100.0
313.322052 96.0
313.466492 148.0
314.002747 156.0
314.166992 5864.0
314.293213 132.0
314.326904 220.0
314.443359 40.0
314.482178 48.0
314.644531 140.0
314.782257 80.0
314.806976 36.0
314.877594 204.0
314.919983 120.0
314.955292 120.0
315.057739 56.0
315.167053 1368.0
315.25647 192.0
315.298004 144.0
315.326263 136.0
315.404022 28.0
315.545441 152.0
315.62674 88.0
315.704559 40.0
315.761139 140.0
315.803558 124.0
315.888458 264.0
315.95517 144.0
315.976288 116.0
316.038879 236.0
316.131042 224.0
316.182983 54300.0
316.261688 204.0
316.302979 144.0
316.326935 180.0
316.389648 96.0
316.431641 176.0
316.477539 44.0
316.514893 32.0
316.543213 100.0
316.6586 144.0
316.689087 64.0
316.716736 44.0
316.77182 164.0
316.831146 68.0
316.88678 36.0
316.975372 32.0
317.003723 76.0
317.076233 100.0
317.099396 128.0
317.185974 7856.0
317.273071 40.0
317.342896 80.0
317.379425 100.0
317.434204 72.0
317.574493 48.0
317.61438 52.0
317.670258 44.0
317.769592 152.0
317.812164 132.0
317.844086 40.0
317.879578 32.0
318.117371 68.0
318.187805 728.0
318.235809 212.0
318.28067 52.0
318.326843 36.0
318.380096 52.0
318.424652 88.0
318.465332 64.0
318.523682 76.0
318.671692 44.0
318.749542 80.0
318.834839 40.0
318.870361 76.0
318.923218 60.0
318.952118 96.0
318.991211 128.0
319.032684 84.0
319.086426 92.0
319.11676 64.0
319.181702 132.0
319.354034 112.0
319.414368 144.0
319.46048 120.0
319.506866 232.0
319.570892 104.0
319.634949 64.0
319.723907 48.0
320.050415 88.0
320.138367 124.0
320.17984 112.0
320.208069 56.0
320.233002 128.0
320.286438 180.0
320.350555 116.0
320.414673 92.0
320.457428 144.0
320.575012 116.0
320.728271 76.0
320.788849 100.0
320.967102 32.0
321.137665 140.0
321.187195 56.0
321.412994 32.0
321.673492 80.0
322.080566 196.0
322.156738 464.0
322.216309 100.0
322.337799 176.0
322.455719 80.0
322.705933 56.0
322.970581 32.0
323.127808 88.0
323.162018 116.0
323.439301 240.0
324.162933 208.0
324.944397 80.0
325.008972 56.0
325.217102 92.0
325.802399 52.0
326.025177 60.0
327.550659 40.0
328.578064 104.0
329.169983 68.0
329.531189 56.0
330.217987 128.0
330.362671 68.0
330.999664 80.0
331.148132 96.0
331.488678 128.0
331.803986 96.0
332.130371 164.0
332.732727 88.0
333.317505 100.0
333.593719 92.0
333.819122 176.0
334.102814 168.0
334.448517 108.0
334.53952 124.0
334.666931 140.0
335.869537 68.0
335.97168 48.0
336.051941 36.0
336.121246 160.0
336.716278 48.0
336.884308 72.0
337.308197 76.0
337.520233 36.0
339.508606 96.0
339.559937 172.0
339.655304 100.0
339.688324 68.0
339.860748 104.0
340.147003 124.0
340.176788 168.0
340.268127 64.0
340.454926 60.0
340.583954 88.0
340.668427 92.0
340.70517 112.0
340.756592 32.0
341.077484 136.0
341.157166 128.0
341.213196 116.0
341.286926 220.0
341.401245 148.0
341.427795 100.0
341.535919 132.0
341.594788 104.0
341.620514 180.0
341.701447 80.0
341.727203 132.0
341.778717 104.0
341.819183 128.0
341.87439 148.0
341.949463 80.0
342.065796 176.0
342.161499 23508.0
342.29187 96.0
342.325348 48.0
342.347687 56.0
342.378723 36.0
342.411896 40.0
342.47818 88.0
342.526123 248.0
342.562897 64.0
342.645935 96.0
342.742004 128.0
342.79361 84.0
342.839233 56.0
342.885895 96.0
342.942719 100.0
343.008759 136.0
343.049316 164.0
343.086182 216.0
343.164459 4572.0
343.369446 152.0
343.41803 48.0
343.539764 68.0
343.679962 32.0
343.731628 88.0
343.853394 56.0
343.893982 44.0
343.95639 88.0
344.011444 68.0
344.049011 84.0
344.097015 80.0
344.165497 1076.0
344.322266 72.0
344.38504 36.0
344.48645 136.0
344.588226 56.0
344.658417 48.0
344.798828 100.0
344.898621 84.0
344.983643 76.0
345.0354 116.0
345.064972 120.0
345.109344 180.0
345.146332 100.0
345.250153 76.0
345.371521 116.0
345.471771 116.0
345.567963 76.0
345.612366 136.0
345.863159 120.0
345.926941 112.0
346.738098 76.0
346.823334 40.0
347.064301 72.0
347.123627 104.0
347.15329 32.0
347.223755 124.0
347.591003 100.0
347.631836 144.0
348.110687 56.0
348.37439 80.0
348.459839 52.0
349.456238 116.0
350.934845 32.0
351.035522 128.0
351.292847 52.0
351.602539 108.0
351.994507 36.0
352.050537 32.0
352.259674 108.0
352.980988 92.0
355.37442 56.0
356.0914 72.0
356.820374 52.0
357.621613 112.0
358.050812 88.0
358.167572 148.0
358.273041 92.0
358.497711 108.0
358.61969 100.0
358.676239 28.0
358.842102 128.0
358.928833 80.0
358.958984 184.0
359.294678 52.0
359.362579 96.0
359.438049 52.0
359.738251 88.0
359.830566 152.0
359.940063 128.0
360.106567 116.0
360.172455 11152.0
360.292572 60.0
360.385773 68.0
360.434906 76.0
360.663635 68.0
360.704041 56.0
360.778809 60.0
360.903595 52.0
360.943787 136.0
361.048981 88.0
361.113159 152.0
361.174408 2916.0
361.25531 144.0
361.285553 112.0
361.327179 56.0
361.478516 96.0
361.535278 92.0
361.570953 148.0
362.008484 48.0
362.174347 516.0
362.375885 44.0
362.45166 48.0
362.591888 44.0
362.82309 48.0
362.860992 32.0
362.970947 84.0
363.232635 92.0
363.27594 68.0
363.342651 116.0
363.440521 136.0
363.589294 124.0
363.710724 36.0
363.919525 164.0
364.181549 52.0
364.360077 88.0
364.515869 76.0
364.557678 96.0
364.690674 124.0
365.017609 40.0
365.844025 96.0
366.757416 112.0
367.077667 40.0
367.34082 68.0
367.409485 80.0
369.24292 132.0
369.950806 48.0
371.452911 72.0
371.479767 48.0
372.87738 56.0
373.619507 96.0
379.168121 104.0
379.741913 44.0
386.348206 80.0
387.93811 40.0
389.209259 64.0
389.409515 100.0
389.939911 32.0
390.427399 92.0
392.325226 100.0
395.782196 52.0
396.289185 116.0
399.437286 116.0
399.731689 92.0
402.585876 108.0
405.261871 116.0
406.147827 84.0
406.268158 104.0
406.464752 64.0
412.081543 56.0
414.452515 60.0
414.667267 84.0
415.028046 124.0
416.643372 128.0
417.586395 88.0
418.103088 40.0
420.654541 88.0
422.730743 92.0
424.984375 36.0
427.198761 96.0
429.088989 72.0
430.946228 96.0
432.666687 76.0
432.869568 28.0
434.880219 140.0
435.773041 120.0
436.063904 128.0
439.153168 88.0
439.683044 56.0
441.207611 128.0
441.333038 124.0
441.500305 60.0
442.198944 40.0
444.226929 116.0
445.524078 64.0
446.116608 68.0
446.486603 88.0
447.917603 80.0
449.490143 76.0
449.663177 48.0
449.98819 76.0
451.890076 80.0
452.249756 96.0
452.694275 32.0
452.906036 48.0
453.931641 92.0
457.59848 108.0
457.913574 76.0
462.05835 156.0
466.243286 44.0
467.585083 60.0
467.7099 40.0
468.329926 60.0
469.528076 116.0
471.233093 64.0
471.928955 52.0
477.770844 56.0
479.538696 32.0
480.951843 68.0
484.169708 136.0
486.708649 100.0
487.371887 40.0
487.415833 68.0
497.836395 124.0
498.551636 52.0
501.466644 128.0
504.372253 40.0
506.197601 132.0
506.381195 72.0
507.178711 60.0
507.788483 40.0
508.102478 84.0
509.76825 120.0
510.240173 100.0
513.053894 64.0
515.188416 112.0
515.703552 64.0
517.07843 60.0
517.916016 44.0
519.098267 116.0
520.196838 36.0
528.042969 32.0
529.631775 60.0
530.15802 68.0
530.561401 60.0
531.87793 124.0
539.908447 52.0
540.296997 48.0
541.171692 104.0
543.015991 36.0
544.570801 108.0
547.063049 48.0
548.838135 80.0
550.041748 80.0
550.223816 92.0
550.513245 72.0
552.97229 52.0
555.071045 88.0
560.198547 88.0
566.486023 64.0
567.80365 88.0
572.251343 68.0
573.823547 52.0
585.241028 48.0
586.73938 96.0
593.954285 100.0
599.979309 76.0
601.891846 96.0
603.416199 112.0
605.843628 180.0
607.284729 80.0
610.801514 72.0
623.165405 80.0
638.360779 56.0
643.025696 68.0
646.730408 76.0
656.709229 88.0
659.716797 88.0
663.074524 100.0
666.040039 80.0
670.521362 68.0
674.169983 104.0
676.09375 52.0
682.604004 76.0
684.206543 64.0
690.57782 112.0
693.646118 112.0
693.855835 80.0
697.651367 68.0
703.118713 48.0
709.397034 52.0
712.097778 60.0
713.564392 168.0
724.515625 100.0
733.775391 64.0
734.341614 40.0
735.5448 64.0
740.876648 88.0
745.738525 40.0
746.162537 48.0
774.224365 28.0
781.618408 76.0
786.734741 100.0
787.689636 48.0
790.457092 40.0
791.324646 40.0
796.635498 132.0
800.099609 100.0
804.796021 28.0
809.506165 64.0
813.855225 68.0
815.156006 44.0
821.943481 40.0
826.543274 52.0
827.716675 76.0
841.198608 136.0
843.064148 208.0
865.090698 192.0
869.158081 40.0
871.442078 160.0
873.34668 152.0
877.67511 48.0
886.636658 80.0
887.276794 44.0
890.81366 124.0
902.949097 180.0
909.605713 80.0
910.986877 28.0
912.27887 40.0
915.299072 52.0
916.268738 60.0
926.496643 40.0
931.695679 40.0
938.122009 56.0
938.932922 168.0
940.232361 84.0
946.063477 72.0
955.317505 88.0
963.504211 40.0
964.023254 132.0
965.284302 52.0
970.163086 68.0
971.825195 60.0
973.768127 160.0
984.592224 108.0
1000.348755 200.0
1003.927429 156.0
1004.482422 80.0
1005.883301 156.0
1006.912476 208.0
1021.33783 72.0
1033.957764 96.0
1034.725952 104.0
1034.982056 200.0
1057.248169 76.0
1060.291992 156.0
1063.729492 56.0
1084.68811 40.0
1095.464722 156.0
1101.209839 60.0
1103.621826 132.0
1106.082886 84.0
1106.771362 80.0
1110.197144 36.0
1110.973145 80.0
1113.017334 84.0
1115.309326 60.0
1115.980713 28.0
1117.204468 44.0
1121.446045 144.0
1125.094727 160.0
1133.950928 52.0
1135.31189 160.0
1142.12207 236.0
1142.512207 56.0
1149.958008 124.0
1154.240967 204.0
1159.527954 180.0
1159.975342 112.0
1160.185425 192.0
1162.410034 72.0
1170.60791 192.0
1180.352173 116.0
1182.192261 144.0
1187.892578 160.0
1195.532837 240.0
1196.455078 244.0
1197.763428 156.0
1202.127563 56.0
1203.445923 76.0
1207.301758 60.0
1210.027954 184.0
1210.152588 184.0
1213.034546 76.0
1217.190186 140.0
1217.356934 144.0
1217.905518 164.0
1218.572388 152.0
1223.614624 60.0
1225.293091 160.0
1227.586182 228.0
1231.319824 144.0
1235.534668 184.0
1240.21228 168.0
1241.838989 164.0
1245.938354 36.0
1247.006348 168.0
1252.261963 124.0
1253.65686 152.0
1254.418091 164.0
1256.15979 160.0
1259.653931 160.0
1260.098999 44.0
1262.841797 156.0
1263.362427 156.0
1265.113159 204.0
1269.22937 240.0
1269.300293 184.0
1272.791382 80.0
1280.656738 44.0
1282.879883 124.0
1283.927979 252.0
1285.276123 44.0
1285.426025 40.0
1287.360474 180.0
1288.196167 200.0
1288.374756 252.0
1289.560913 120.0
1294.246582 32.0
1294.840942 144.0
1295.557129 212.0
1296.488647 52.0
1296.975952 124.0
1298.244995 168.0
1298.797241 108.0
1299.9021 68.0
1302.134644 208.0
1303.075684 156.0
1305.656128 180.0
1309.124878 156.0
1310.709595 176.0
1313.182251 96.0
1313.492432 124.0
1314.466309 220.0
1314.675659 196.0
1316.964233 208.0
1319.233154 132.0
1321.916382 212.0
1324.696655 148.0
1326.841675 60.0
1329.380249 136.0
1333.141846 204.0
1335.024658 48.0
1335.490112 156.0
1336.55957 52.0
1337.425537 160.0
1340.447876 88.0
1340.870483 168.0
1341.256836 132.0
1341.373413 168.0
1341.446289 104.0
1341.504639 180.0
1341.599365 212.0
1341.854614 188.0
1349.798462 172.0
1353.88916 208.0
1354.138062 64.0
1356.248169 156.0
1357.289185 220.0
1359.643921 176.0
1359.820068 108.0
1359.878784 196.0
1362.742676 132.0
1363.499512 68.0
1364.499268 144.0
1365.249268 148.0
1365.469849 144.0
1367.213379 140.0
1369.024414 92.0
1370.866089 64.0
1373.129272 104.0
1373.321045 76.0
1377.986328 116.0
1379.338745 180.0
1379.82666 156.0
1384.480835 180.0
1385.717773 188.0
1386.125244 100.0
1387.259277 176.0
1388.497437 60.0
1389.536011 208.0
1389.85498 80.0
1390.456055 80.0
1391.109253 172.0
1391.24292 156.0
1391.836792 204.0
1393.29248 136.0
1395.328857 192.0
1396.079834 200.0
1396.540894 132.0
1400.239868 84.0
1401.41687 48.0
1402.050293 172.0
1403.205566 48.0
1403.541138 128.0
1410.431763 40.0
1411.657837 176.0
1412.914429 48.0
1413.303467 192.0
1413.565308 160.0
1414.164062 140.0
1415.496582 172.0
1416.350342 68.0
1417.369263 96.0
1417.526611 128.0
1417.773926 212.0
1418.20105 112.0
1420.88562 208.0
1421.223267 240.0
1425.240234 168.0
1427.134277 100.0
1428.315063 124.0
1428.457886 228.0
1432.470093 76.0
1433.585205 160.0
1437.612061 120.0
1439.869263 136.0
1441.244141 144.0
1442.634766 140.0
1446.681885 104.0
1447.643433 160.0
1450.946899 124.0
1451.6521 224.0
1451.849243 200.0
1457.246216 196.0
1459.921753 192.0
1460.355225 176.0
1461.435547 120.0
1462.105103 168.0
1462.478027 240.0
1464.587158 88.0
1465.021362 136.0
1465.303223 152.0
1465.661255 136.0
1469.511719 164.0
1470.015259 120.0
1471.465454 192.0
1472.96228 40.0
1474.131226 152.0
1474.43689 108.0
1474.811401 56.0
1474.872559 112.0
1475.736328 152.0
1476.822266 64.0
1477.923828 192.0
1478.084473 108.0
1478.543701 84.0
1479.286133 136.0
1479.691772 232.0
1481.116211 204.0
1481.759644 160.0
1482.380249 196.0
1482.970337 36.0
1483.491577 92.0
1485.631104 180.0
1486.244873 156.0
1487.649414 52.0
1487.841309 84.0
1488.708862 160.0
1489.830322 92.0
1490.444946 44.0
1491.459351 148.0
1491.997437 140.0
1492.474121 136.0
1493.296875 68.0
1495.647095 184.0
1498.223267 220.0
1500.072754 176.0
1501.267822 152.0
1502.293579 168.0
1502.964844 176.0
1504.052979 172.0
1505.041138 44.0
