>compound Bindarit
>formula C19H20N2O3
>ionization [M+Na]+
>parentmass 347.137909
#inchi InChI=1S/C19H20N2O3/c1-19(2,18(22)23)24-13-16-15-10-6-7-11-17(15)21(20-16)12-14-8-4-3-5-9-14/h3-11H,12-13H2,1-2H3,(H,22,23)
#inchikey MTHORRSSURHQPZ
#Ion_Source LC-ESI
#Instrument qTof
#Compound_Source Commercial
#PI Dorrestein
#Data_Collector Garg_Neha
#Scan -1
#Precursor_MZ 347.137
#ExactMass 324.147
#Charge 1
#CAS_Number 130641-38-2, 1027630-15-4 (sodium salt)
#Pubmed_ID N/A
#Smiles C(C(C)(OCC1=NN(C2C=CC=CC1=2)CC3C=CC=CC=3)C)(=O)O
#INCHI_AUX N/A
#Library_Class 1
#SpectrumID CCMSLIB00000078548
#IonMode Positive
#UpdateWorkflowName UPDATE-SINGLE-ANNOTATED-GOLD
#LibraryQualityString Gold
#TaskID 77f51c88eb8b467eb4a01dd2d0cb90d2
##Scan# 1655
#SpectrumFile Plate9_1_20_GC4_01_15750.mzXML
#LibraryName FDALibrary_2_04302014.mgf
#MQScore -1
#Organism FDALibrary_2_04302014
#TIC_Query 0
#RT_Query -1
#MZErrorPPM -1
#SharedPeaks 0
#MassDiff 0
#LibMZ -1
#SpecMZ 347.137
#SpecCharge 0
#internalFilename spec-00000.mgf

>collision 10
47.530289 144.0
50.571529 172.0
57.120285 196.0
62.761639 184.0
64.019844 188.0
70.676262 244.0
74.188301 188.0
77.435699 140.0
78.521866 140.0
82.987495 148.0
90.676834 164.0
91.054169 2048.0
92.057426 312.0
95.084442 160.0
96.34623 156.0
97.665497 204.0
98.574356 200.0
105.808372 144.0
107.923462 148.0
113.962578 224.0
119.105911 212.0
128.726288 152.0
132.08548 152.0
132.972183 180.0
134.911682 156.0
135.103622 164.0
135.589874 156.0
141.37233 176.0
143.064667 180.0
145.056976 180.0
145.1241 144.0
149.652115 156.0
151.628342 164.0
157.619797 156.0
157.999832 164.0
158.726181 140.0
163.058243 152.0
164.145279 140.0
164.214127 144.0
168.015717 180.0
174.203964 188.0
174.34848 184.0
176.015991 140.0
178.08223 160.0
178.6026 248.0
180.744873 184.0
182.929535 184.0
183.004913 208.0
186.12793 168.0
190.901855 160.0
191.226486 140.0
194.373581 164.0
194.910095 140.0
195.368851 156.0
198.040649 160.0
198.208313 148.0
201.0457 172.0
201.782928 156.0
201.938461 172.0
204.079483 148.0
205.497894 152.0
206.283249 152.0
208.723083 180.0
209.108566 140.0
209.543381 184.0
211.715561 152.0
214.399902 184.0
217.042511 140.0
217.779099 288.0
219.583298 168.0
220.262161 160.0
220.7173 152.0
221.00853 148.0
221.062363 188.0
221.107437 36880.0
221.182617 112.0
221.355835 136.0
221.427185 104.0
221.467453 124.0
221.556396 128.0
221.596375 156.0
222.110168 5568.0
222.799103 100.0
223.111572 580.0
233.304901 172.0
243.094131 136.0
243.687195 188.0
244.100952 140.0
244.912872 180.0
249.057312 156.0
257.236603 152.0
259.078583 176.0
259.559326 172.0
259.889709 176.0
261.099915 8020.0
261.148987 160.0
261.667084 164.0
262.101166 968.0
263.105804 400.0
263.528046 148.0
267.556183 176.0
273.642517 140.0
277.127014 204.0
278.168335 228.0
282.065704 144.0
289.081635 144.0
290.097717 144.0
290.497864 140.0
295.070587 188.0
300.898438 228.0
307.270538 164.0
308.471863 144.0
309.703552 140.0
309.917236 164.0
311.446777 180.0
314.453644 140.0
315.555786 224.0
316.001404 152.0
316.167725 148.0
316.822754 144.0
319.236328 196.0
319.97287 156.0
329.700989 200.0
334.292084 192.0
334.339417 188.0
334.900085 196.0
341.157379 152.0
343.940063 104.0
346.153076 328.0
346.550476 180.0
346.799957 164.0
347.018311 164.0
347.042023 172.0
347.086853 316.0
347.137909 83568.0
347.238892 216.0
347.391541 152.0
347.70993 120.0
347.747223 652.0
347.839722 100.0
347.940582 188.0
347.971191 164.0
348.010773 140.0
348.092224 132.0
348.140503 17760.0
348.229858 220.0
348.284912 156.0
348.314758 192.0
349.141632 1852.0
349.659485 120.0
349.962311 96.0
350.08371 160.0
350.150757 348.0
350.207092 176.0
350.538605 132.0
350.597443 128.0
350.670563 144.0
351.138 124.0
351.406372 100.0
351.468597 116.0
361.112152 148.0
363.093323 232.0
364.100372 284.0
381.104919 156.0
1099.799927 176.0
1138.759277 148.0
1224.985718 160.0
1238.277832 172.0
1393.94812 236.0
1521.42749 140.0
1521.668091 148.0
1547.263672 196.0
1556.77478 160.0
1717.489746 168.0
1774.849609 144.0
1976.126221 200.0
