>compound Terazosin
>formula C19H25N5O4
>ionization [M+H]+
>parentmass 388.199646
#inchi InChI=1S/C19H25N5O4/c1-26-15-10-12-13(11-16(15)27-2)21-19(22-17(12)20)24-7-5-23(6-8-24)18(25)14-4-3-9-28-14/h10-11,14H,3-9H2,1-2H3,(H2,20,21,22)
#inchikey VCKUSRYTPJJLNI
#Ion_Source LC-ESI
#Instrument qTof
#Compound_Source Commercial
#PI Dorrestein
#Data_Collector Garg_Neha
#Scan -1
#Precursor_MZ 388.198
#ExactMass 387.191
#Charge 1
#CAS_Number N/A
#Pubmed_ID N/A
#Smiles COc1cc2nc(nc(N)c2cc1OC)N3CCN(CC3)C(=O)C4CCCO4
#INCHI_AUX N/A
#Library_Class 1
#SpectrumID CCMSLIB00000079158
#IonMode Positive
#UpdateWorkflowName UPDATE-SINGLE-ANNOTATED-GOLD
#LibraryQualityString Gold
#TaskID 278b19f5865741e282cec7349aa7e7a1
##Scan# 1027
#SpectrumFile NCP003592_A2_B11_BD8_01_15734.mzXML
#LibraryName NIHcollectionI_05062014.mgf
#MQScore -1
#Organism NIHcollectionI_05062014
#TIC_Query 0
#RT_Query -1
#MZErrorPPM -1
#SharedPeaks 0
#MassDiff 0
#LibMZ -1
#SpecMZ 388.198
#SpecCharge 0
#internalFilename spec-00000.mgf

>collision 10
45.76487 152.0
51.321907 176.0
54.036026 140.0
57.164154 160.0
60.619377 164.0
63.908588 164.0
63.978619 152.0
65.861244 156.0
66.604713 180.0
68.433083 144.0
68.622551 140.0
72.022118 180.0
73.328583 144.0
73.883537 248.0
74.867058 164.0
75.135948 180.0
76.025322 144.0
78.136124 188.0
79.22007 152.0
80.311493 152.0
80.450676 144.0
81.198608 156.0
83.414093 140.0
86.205513 232.0
89.682365 192.0
90.404007 160.0
92.694885 140.0
97.013367 160.0
97.85421 248.0
98.057106 152.0
98.339142 172.0
98.522781 188.0
98.961838 172.0
99.626221 212.0
101.125717 172.0
102.124901 176.0
103.626808 172.0
104.586494 144.0
105.372459 144.0
105.591179 236.0
105.6996 172.0
110.581741 140.0
112.163345 148.0
113.998299 164.0
114.093948 184.0
114.730476 152.0
115.929558 172.0
116.092484 160.0
117.771187 152.0
118.29879 148.0
120.082718 200.0
121.085884 156.0
121.304993 180.0
122.065491 184.0
122.634819 196.0
122.928131 228.0
123.712753 224.0
123.865295 176.0
124.076073 124.0
124.109329 188.0
124.719826 208.0
125.066811 168.0
128.315033 168.0
132.551865 156.0
133.812851 204.0
134.837036 152.0
136.701569 228.0
137.295593 180.0
139.60231 152.0
140.780579 160.0
141.109009 176.0
141.826294 172.0
142.086655 2392.0
142.20578 160.0
143.091736 148.0
143.621475 144.0
144.060684 184.0
144.333145 176.0
149.337311 148.0
150.088821 260.0
151.078949 176.0
152.176895 152.0
153.36261 160.0
158.544678 168.0
159.166794 152.0
160.096497 112.0
163.064789 148.0
164.179886 192.0
165.160614 148.0
166.080154 196.0
167.393402 248.0
168.104691 396.0
168.727356 204.0
168.856644 240.0
169.072433 136.0
169.110184 144.0
169.822693 180.0
170.01532 228.0
171.950928 212.0
172.462845 168.0
174.683792 160.0
176.033203 144.0
176.434814 144.0
176.678116 156.0
177.071564 144.0
177.273849 160.0
177.74585 212.0
180.403885 184.0
180.679337 192.0
181.879837 140.0
182.67128 164.0
183.949814 156.0
184.017166 160.0
184.728058 152.0
185.129684 152.0
186.112656 184.0
186.944717 196.0
187.029083 212.0
189.058304 140.0
189.215668 180.0
190.062576 168.0
190.493607 176.0
191.083847 296.0
192.473801 152.0
192.730682 144.0
193.793152 176.0
195.008209 144.0
196.280823 148.0
196.671402 148.0
198.041443 176.0
198.531891 156.0
200.249039 160.0
200.575882 140.0
201.072281 144.0
202.082825 324.0
203.093201 1320.0
203.132111 156.0
204.074615 308.0
204.120453 200.0
205.073013 748.0
205.327896 208.0
205.544693 148.0
205.641724 180.0
206.080734 1088.0
206.670486 160.0
207.086823 128.0
207.736237 180.0
208.416641 164.0
208.75296 176.0
209.610764 152.0
210.025909 140.0
210.072067 140.0
212.600845 200.0
212.882431 152.0
213.469421 144.0
213.85054 200.0
214.094482 192.0
216.381393 164.0
216.492661 184.0
217.074005 416.0
218.073685 172.0
218.106293 204.0
218.86824 144.0
219.090668 492.0
220.099487 308.0
220.422729 184.0
221.10321 11372.0
221.214874 188.0
222.036469 184.0
222.106003 1108.0
222.630524 144.0
223.106384 112.0
224.331497 236.0
224.403046 180.0
225.453751 164.0
225.791565 192.0
226.998413 152.0
227.427429 152.0
228.10025 160.0
229.070129 192.0
229.108047 236.0
230.076401 592.0
230.858963 176.0
231.087189 4436.0
231.134232 152.0
231.165359 124.0
232.096039 4472.0
233.100967 1068.0
233.366608 200.0
234.109741 196.0
234.825241 156.0
237.116302 228.0
239.333084 188.0
239.721207 152.0
240.48912 152.0
241.180984 160.0
243.087189 180.0
243.408463 144.0
243.66626 160.0
244.081024 108.0
244.126282 172.0
244.54155 108.0
244.779755 168.0
245.103195 1212.0
246.114502 208.0
246.430969 156.0
246.46579 204.0
246.817337 284.0
247.060211 172.0
247.085388 420.0
247.119522 46636.0
247.240845 204.0
247.504303 164.0
247.613327 100.0
247.648346 96.0
248.008362 252.0
248.12149 4544.0
248.209763 100.0
248.780624 100.0
249.124847 668.0
249.605759 176.0
249.920959 116.0
249.97551 216.0
250.00177 148.0
250.031906 292.0
251.040817 196.0
254.480957 120.0
255.739166 164.0
255.761444 164.0
256.009796 152.0
257.004303 140.0
257.102356 748.0
257.764252 160.0
258.108429 244.0
259.117401 476.0
259.349823 128.0
260.11676 500.0
261.112701 172.0
263.32193 204.0
266.516022 144.0
266.779266 172.0
267.462372 160.0
268.416931 160.0
270.069397 156.0
271.120239 260.0
271.535553 136.0
272.114319 172.0
272.896179 152.0
273.051819 144.0
273.135468 4296.0
273.176727 156.0
273.307312 180.0
274.131866 1632.0
274.770172 160.0
275.137817 1596.0
275.846741 172.0
276.136536 508.0
277.008209 148.0
280.274017 148.0
281.541595 148.0
282.674835 192.0
284.112183 288.0
284.13974 172.0
284.377289 180.0
285.032135 188.0
285.87616 200.0
286.127563 288.0
287.132111 144.0
288.144745 3792.0
288.87561 176.0
289.068451 204.0
289.099945 104.0
289.152191 684.0
289.190277 212.0
289.647369 148.0
289.721893 264.0
289.808929 128.0
289.912964 224.0
290.090179 200.0
290.162231 58684.0
290.227295 168.0
290.369568 108.0
290.864746 140.0
291.164429 6044.0
291.270569 120.0
292.169922 696.0
293.060547 128.0
293.163727 176.0
293.405792 156.0
294.079895 148.0
298.050262 200.0
299.139465 160.0
300.144165 920.0
300.253387 180.0
301.060944 200.0
301.135834 152.0
301.237579 144.0
302.115234 144.0
302.153198 232.0
303.684265 220.0
304.119171 176.0
305.278351 156.0
305.765381 140.0
308.09967 124.0
309.05899 152.0
309.514557 216.0
310.132629 948.0
311.136505 596.0
312.086395 148.0
312.132324 212.0
313.150452 276.0
314.169678 216.0
316.140259 892.0
317.1539 140.0
317.175049 380.0
318.431488 200.0
319.13855 696.0
320.143829 156.0
320.200806 256.0
322.187592 148.0
322.916779 140.0
324.149323 152.0
324.725433 140.0
324.865326 188.0
325.152374 212.0
326.125702 152.0
326.160309 120.0
327.032074 140.0
328.14209 156.0
329.153503 120.0
329.180725 156.0
332.104462 132.0
333.85907 172.0
334.342896 140.0
334.49942 164.0
334.918152 140.0
335.453796 172.0
337.765228 212.0
339.901093 140.0
340.178955 388.0
342.157288 616.0
343.159332 124.0
344.166046 264.0
344.843201 140.0
345.127838 156.0
345.170807 116.0
347.071747 172.0
348.842651 164.0
349.096619 156.0
351.184753 192.0
352.172913 380.0
354.15213 252.0
355.520844 164.0
356.158386 164.0
358.472839 224.0
358.932709 164.0
359.194427 164.0
360.200531 284.0
361.199982 224.0
362.016205 168.0
366.410828 164.0
366.559418 164.0
370.182892 1332.0
370.697845 188.0
371.196625 104.0
372.040253 148.0
372.167633 1784.0
373.173737 1504.0
374.172272 288.0
375.08139 168.0
375.175568 160.0
376.576233 144.0
380.246552 152.0
380.526031 200.0
382.458069 192.0
384.277924 156.0
384.502502 144.0
384.644775 176.0
385.105743 136.0
385.234406 164.0
385.803497 120.0
386.15033 108.0
386.190491 180.0
386.264496 100.0
386.377563 172.0
386.706085 96.0
386.755981 124.0
386.892487 160.0
387.143494 116.0
387.350006 172.0
387.474243 520.0
387.522369 296.0
387.585876 112.0
387.632965 140.0
387.718872 220.0
387.7565 264.0
387.791779 228.0
387.874756 388.0
387.916901 104.0
387.950378 180.0
388.027344 212.0
388.072388 180.0
388.199646 221696.0
388.3508 216.0
388.49231 344.0
388.565857 196.0
388.649109 188.0
388.722534 308.0
388.795258 244.0
388.844177 1908.0
388.895416 284.0
388.938477 160.0
388.997009 256.0
389.056 200.0
389.094177 300.0
389.134186 228.0
389.201324 58528.0
389.488434 240.0
389.521423 172.0
389.560577 228.0
389.656311 340.0
389.765289 212.0
389.790527 312.0
389.848114 180.0
389.930328 108.0
389.966736 120.0
390.021667 284.0
390.062561 176.0
390.133057 168.0
390.202484 7704.0
390.379852 112.0
390.466125 108.0
390.666687 140.0
390.786804 136.0
390.867432 168.0
390.934845 216.0
391.102966 116.0
391.202759 628.0
391.393707 212.0
391.448547 220.0
391.479492 124.0
391.656525 108.0
391.693573 308.0
391.743622 240.0
391.779663 244.0
391.83197 144.0
391.89621 220.0
392.01001 124.0
392.060638 180.0
392.242004 160.0
392.372681 108.0
392.586823 140.0
392.635895 188.0
392.701874 140.0
393.172791 132.0
395.546387 132.0
402.747681 108.0
452.737457 140.0
560.709106 156.0
569.096069 172.0
595.528809 140.0
657.910767 148.0
674.012329 140.0
694.833984 148.0
816.461426 152.0
1082.8396 140.0
1198.55542 164.0
1571.901367 172.0
1747.373169 188.0
1775.346924 188.0
1803.086426 192.0
1953.63855 176.0
1987.183716 152.0
