>compound MLS001140964-01!(2S)-3-(5-hydroxy-1H-indol-3-yl)-2-[[2-(2-oxo-4-phenylchromen-7-yl)oxyacetyl]amino]propanoic acid
>formula C28H22N2O7
>ionization [M+H]+
>parentmass 499.151
#inchi InChI=1S/C28H22N2O7/c31-18-6-9-23-22(11-18)17(14-29-23)10-24(28(34)35)30-26(32)15-36-19-7-8-20-21(16-4-2-1-3-5-16)13-27(33)37-25(20)12-19/h1-9,11-14,24,29,31H,10,15H2,(H,30,32)(H,34,35)/t24-/m0/s1
#inchikey ZKIUZXSOQMYIAW
#Ion_Source LC-ESI
#Instrument qTof
#Compound_Source NIH Natural Product Library
#PI Dorrestein
#Data_Collector VVP/LMS
#Scan -1
#Precursor_MZ 499.151
#ExactMass 498.143
#Charge 1
#CAS_Number N/A
#Pubmed_ID N/A
#Smiles OC(=O)[C@H](Cc1c[nH]c2ccc(O)cc12)NC(=O)COc3ccc4c(cc(=O)oc4c3)c5ccccc5
#INCHI_AUX N/A
#Library_Class 1
#SpectrumID CCMSLIB00000080448
#IonMode Positive
#UpdateWorkflowName UPDATE-SINGLE-ANNOTATED-GOLD
#LibraryQualityString Gold
#TaskID b1d8e8f6646f4e71acdff9ca3d919d08
##Scan# 1988
#SpectrumFile p2-B09_GB9_01_17997.mzXML
#LibraryName NIH_Natural_Products_Library.mgf
#MQScore -1
#Organism NIH_Natural_Products_Library
#TIC_Query 0
#RT_Query -1
#MZErrorPPM -1
#SharedPeaks 0
#MassDiff 0
#LibMZ -1
#SpecMZ 499.151
#SpecCharge 0
#internalFilename spec-00000.mgf

>collision 10
95.159843 216.0
96.031639 136.0
96.127235 184.0
96.318565 140.0
96.332237 60.0
96.469025 140.0
96.52964 248.0
96.594177 176.0
96.645042 192.0
96.680267 100.0
96.738983 136.0
96.901535 144.0
97.170135 140.0
97.276108 100.0
97.415527 100.0
97.439102 168.0
97.605782 100.0
97.667137 108.0
97.796997 180.0
97.897408 208.0
97.950584 212.0
98.122032 148.0
98.200912 84.0
98.236412 108.0
98.310875 168.0
98.564148 92.0
98.617508 256.0
98.684723 172.0
98.833069 144.0
98.866707 164.0
98.926086 92.0
98.967659 160.0
99.300583 120.0
99.570496 140.0
99.701614 196.0
99.787094 144.0
99.910393 72.0
100.067619 172.0
100.149269 160.0
100.165207 100.0
100.270805 164.0
100.340569 44.0
100.386429 184.0
100.428314 240.0
100.653824 228.0
100.711739 160.0
100.765678 152.0
100.969566 148.0
100.99157 240.0
101.051582 212.0
101.113609 68.0
101.181671 172.0
101.217712 200.0
101.568428 196.0
102.213326 144.0
102.247543 184.0
102.372353 168.0
102.517395 116.0
102.842102 164.0
102.904678 180.0
102.959206 180.0
103.053383 648.0
103.139023 60.0
103.225952 180.0
103.256287 116.0
103.406006 156.0
103.533546 120.0
104.043808 172.0
104.196838 160.0
104.341133 220.0
104.387901 148.0
104.444847 40.0
104.644279 176.0
104.905045 116.0
104.925888 196.0
105.031471 168.0
105.072418 324.0
105.174301 116.0
105.196762 172.0
105.266174 180.0
105.292725 156.0
105.433693 184.0
105.691345 160.0
106.027184 64.0
106.0653 612.0
106.152237 188.0
106.412827 212.0
106.575081 172.0
106.593575 232.0
106.630569 224.0
106.657288 132.0
106.821785 76.0
107.041275 192.0
107.068779 136.0
107.198563 144.0
107.305748 124.0
107.452179 168.0
107.516144 76.0
107.549171 148.0
107.588387 172.0
107.704025 80.0
107.729279 160.0
108.049248 60.0
108.092705 40.0
108.204468 140.0
108.264519 140.0
108.28109 156.0
108.455124 200.0
108.73513 116.0
108.919914 140.0
109.000938 164.0
109.269165 112.0
109.696083 176.0
110.249184 136.0
110.274261 204.0
110.573341 152.0
110.590088 188.0
110.615204 172.0
110.799492 172.0
110.887497 44.0
111.258774 124.0
111.508736 68.0
112.007401 164.0
112.127495 184.0
112.239227 200.0
112.393204 136.0
112.414307 128.0
112.467911 220.0
112.513512 120.0
113.088478 176.0
113.162567 168.0
113.2621 152.0
113.688988 184.0
113.747681 168.0
113.841103 120.0
113.904816 160.0
113.964302 244.0
114.014954 184.0
114.187508 148.0
114.204521 220.0
114.338562 124.0
114.385384 196.0
114.677193 184.0
114.770996 212.0
114.95871 140.0
115.055603 488.0
115.076111 200.0
115.097458 172.0
115.152985 64.0
115.225609 52.0
115.454323 212.0
115.556999 216.0
115.576256 140.0
115.687546 68.0
115.747498 124.0
115.910294 200.0
116.048897 144.0
116.139679 168.0
116.161133 128.0
116.253387 120.0
116.39077 188.0
116.4552 56.0
116.52179 160.0
116.551872 192.0
116.607742 204.0
116.639984 128.0
116.80986 196.0
116.915283 228.0
117.036491 156.0
117.058701 572.0
117.09182 136.0
117.134895 136.0
117.183372 184.0
117.210304 160.0
117.298668 76.0
117.404556 180.0
117.85331 212.0
117.881393 88.0
118.06469 756.0
118.083679 184.0
118.363777 72.0
118.387596 212.0
118.506737 152.0
118.589081 176.0
118.812431 116.0
118.933952 108.0
118.992561 120.0
119.029472 204.0
119.051193 132.0
119.068565 180.0
119.248886 160.0
119.529427 56.0
119.727524 100.0
120.010803 196.0
120.050056 176.0
120.082764 180.0
120.104576 168.0
120.311882 260.0
120.342445 92.0
120.377388 88.0
120.431984 92.0
120.521553 128.0
120.622086 152.0
120.670181 136.0
120.722656 56.0
120.779518 164.0
121.180138 136.0
121.241486 204.0
121.274361 168.0
121.307243 96.0
121.359856 64.0
121.454163 132.0
121.502419 196.0
121.522163 172.0
121.594582 116.0
121.732887 192.0
121.872108 176.0
121.961372 156.0
122.00753 204.0
122.069099 72.0
122.187874 136.0
122.326515 148.0
122.573181 44.0
122.652527 172.0
122.681183 128.0
122.901726 184.0
122.990005 204.0
123.027527 240.0
123.120262 176.0
123.24176 264.0
123.257225 196.0
123.423004 156.0
123.54686 140.0
123.577835 268.0
123.622093 148.0
123.668564 196.0
123.734978 136.0
123.765968 140.0
123.9188 144.0
124.065071 276.0
124.164848 112.0
124.218086 160.0
124.315704 148.0
124.408928 168.0
124.626579 176.0
124.719917 148.0
124.757706 244.0
124.80439 152.0
124.886673 116.0
125.177124 196.0
125.276215 176.0
125.291809 108.0
125.316315 124.0
125.387627 188.0
125.584801 164.0
125.713219 128.0
126.054886 152.0
126.108521 136.0
126.150986 148.0
126.184525 200.0
126.343307 136.0
126.654465 48.0
126.759766 200.0
126.777687 224.0
127.059341 220.0
127.215057 208.0
127.286903 156.0
127.37674 148.0
127.534027 136.0
127.581238 232.0
127.711655 220.0
127.923172 88.0
128.04921 988.0
128.063385 176.0
128.168655 152.0
128.423401 132.0
128.44371 164.0
129.206253 192.0
129.444901 108.0
129.519638 200.0
129.716782 76.0
129.805206 224.0
129.937866 312.0
130.066299 908.0
130.277298 188.0
130.320465 192.0
130.348633 232.0
130.387436 176.0
130.443176 172.0
130.47403 168.0
130.581879 224.0
130.636475 164.0
130.98703 260.0
131.049164 776.0
131.091827 68.0
131.112823 136.0
131.165863 192.0
131.263077 164.0
131.280838 228.0
131.447571 72.0
131.577667 160.0
131.611694 168.0
131.64389 188.0
131.842636 104.0
132.042664 308.0
132.079712 320.0
132.170807 156.0
132.302383 204.0
132.432907 184.0
132.455811 124.0
132.643707 176.0
132.676712 140.0
132.749176 68.0
132.790451 96.0
132.87532 152.0
132.933502 180.0
133.008423 68.0
133.053482 1348.0
133.088272 180.0
133.162262 144.0
133.371338 76.0
133.612793 164.0
133.902832 220.0
133.983459 120.0
134.029541 192.0
134.061279 3444.0
134.100967 156.0
134.13324 28.0
134.35463 52.0
134.393845 180.0
134.409988 184.0
134.633911 72.0
134.737854 204.0
134.786377 48.0
134.827972 140.0
134.918121 112.0
135.06189 160.0
135.197998 112.0
135.297516 68.0
135.424881 92.0
135.57547 168.0
135.69368 160.0
135.902435 104.0
135.955795 200.0
135.972046 52.0
135.992935 104.0
136.025421 228.0
136.050964 96.0
136.074173 176.0
136.204391 216.0
136.259979 56.0
136.366867 200.0
136.443588 108.0
136.483109 52.0
136.513336 112.0
136.620331 68.0
136.93689 172.0
137.024872 136.0
137.07901 192.0
137.235168 180.0
137.350433 188.0
137.447433 204.0
137.727585 168.0
138.106232 180.0
138.277039 132.0
138.34491 160.0
138.387054 272.0
138.429794 176.0
138.485413 136.0
138.647064 184.0
138.83696 176.0
138.853378 108.0
139.052795 196.0
139.254715 232.0
139.304031 136.0
139.920181 212.0
140.054398 172.0
140.497574 120.0
140.658035 164.0
140.754837 100.0
140.851669 156.0
140.889465 128.0
140.938004 184.0
141.050995 124.0
141.069901 204.0
141.118713 192.0
141.556458 180.0
141.59671 184.0
141.686722 124.0
141.727005 164.0
141.754333 164.0
141.883423 176.0
142.012161 228.0
142.037567 100.0
142.066269 1700.0
142.130096 176.0
142.184677 44.0
142.265366 132.0
142.509995 172.0
142.635941 92.0
142.780975 236.0
142.797638 140.0
142.940369 168.0
143.04985 136.0
143.072464 520.0
143.118896 220.0
143.411911 164.0
143.473892 112.0
143.49057 168.0
143.523956 72.0
144.048141 496.0
144.081085 200.0
144.156525 112.0
144.21991 76.0
144.328629 60.0
144.359711 160.0
144.500839 228.0
144.610916 128.0
144.632446 152.0
144.953369 180.0
145.065628 544.0
145.130753 32.0
145.154724 176.0
145.238663 56.0
145.409012 168.0
145.495438 188.0
145.526642 72.0
145.596283 204.0
145.632309 132.0
145.661133 112.0
145.711578 100.0
145.739899 132.0
145.846146 184.0
145.887009 180.0
145.917755 56.0
145.954971 120.0
146.002457 260.0
146.06102 40348.0
146.117889 64.0
146.142227 100.0
146.19075 200.0
146.230042 252.0
146.26709 148.0
146.288193 236.0
146.350739 64.0
146.368195 156.0
146.405365 92.0
146.462982 80.0
146.500671 72.0
146.536804 40.0
146.556076 132.0
146.635605 172.0
146.69104 56.0
146.719971 56.0
146.777832 152.0
146.814011 52.0
146.87851 140.0
147.064804 4576.0
147.093231 60.0
147.158829 108.0
147.204941 76.0
147.335373 116.0
147.359528 36.0
147.43927 64.0
147.51178 48.0
147.584305 40.0
147.802002 112.0
147.872177 52.0
147.891541 60.0
147.911606 160.0
147.95932 204.0
147.984772 172.0
148.03923 128.0
148.074982 2056.0
148.260696 76.0
148.279068 68.0
148.400269 88.0
148.659805 64.0
148.781174 48.0
149.022919 368.0
149.08017 156.0
149.233063 204.0
149.486023 60.0
149.510361 132.0
149.973923 60.0
150.053558 116.0
150.260864 108.0
150.282822 196.0
150.583084 148.0
150.639252 80.0
150.800522 52.0
150.908081 100.0
151.013245 148.0
151.103745 72.0
151.19429 136.0
151.216309 172.0
151.265259 152.0
151.843033 124.0
152.062775 396.0
152.29512 164.0
152.43515 116.0
152.526077 200.0
152.543289 124.0
153.05748 176.0
153.077179 184.0
153.809418 140.0
153.839035 176.0
154.065842 180.0
154.110703 128.0
154.528549 180.0
155.052399 224.0
155.074661 212.0
155.432922 296.0
155.872437 200.0
155.922134 88.0
156.068069 136.0
156.106094 136.0
156.222992 240.0
156.556519 168.0
156.61879 148.0
156.793198 68.0
156.882919 232.0
157.053741 532.0
157.08139 160.0
157.451828 144.0
157.521759 108.0
157.846664 120.0
157.916687 88.0
157.954208 220.0
158.06012 6864.0
158.114334 188.0
158.131851 140.0
158.231979 176.0
158.354675 44.0
158.437347 72.0
158.60524 160.0
158.665405 100.0
158.876068 156.0
158.908676 176.0
158.966385 156.0
159.067764 3496.0
159.127914 128.0
159.177246 76.0
159.267654 68.0
159.59938 144.0
159.637161 180.0
159.712555 164.0
159.737717 120.0
159.829086 200.0
159.871063 80.0
159.902908 116.0
160.042847 312.0
160.076187 10632.0
160.155548 264.0
160.185776 52.0
160.31427 160.0
160.341995 56.0
160.393738 68.0
160.412567 248.0
160.430222 48.0
160.458893 128.0
160.546204 92.0
160.594116 40.0
160.702591 104.0
160.742035 76.0
160.798477 112.0
160.884308 168.0
161.079468 1676.0
161.182327 164.0
161.235397 192.0
161.274704 124.0
161.280899 68.0
161.289627 124.0
161.344086 60.0
161.594467 132.0
161.695038 216.0
161.84758 40.0
161.888092 180.0
161.918488 76.0
161.964066 92.0
162.056 6448.0
162.10849 60.0
162.138901 52.0
162.166779 132.0
162.225922 48.0
162.55986 148.0
162.658844 112.0
162.905167 144.0
162.978836 36.0
163.016953 168.0
163.059799 880.0
163.227936 100.0
163.468735 176.0
163.505219 100.0
163.591766 164.0
163.815857 36.0
163.846436 48.0
164.060226 296.0
164.119141 36.0
164.254303 140.0
164.357834 240.0
164.435455 152.0
164.578415 144.0
164.897736 96.0
165.069763 3844.0
165.140625 36.0
165.166199 48.0
165.301804 224.0
165.399048 84.0
165.416977 40.0
165.473297 80.0
165.562912 80.0
165.611572 152.0
165.711487 72.0
165.892639 140.0
166.072021 504.0
166.131927 92.0
166.319244 164.0
166.380859 128.0
166.527222 200.0
166.594009 44.0
167.084808 772.0
167.131348 108.0
167.167374 32.0
167.54071 112.0
167.605118 188.0
167.656662 168.0
167.80101 40.0
168.061096 232.0
168.095047 144.0
168.25766 88.0
168.324783 176.0
168.497833 156.0
168.536591 232.0
168.575043 164.0
168.888184 220.0
169.040817 140.0
169.078156 660.0
169.108109 96.0
169.146927 44.0
169.170227 84.0
169.291916 164.0
169.400696 40.0
169.449921 40.0
169.659851 44.0
169.732437 60.0
169.805054 136.0
169.8284 144.0
169.991837 140.0
170.061188 2480.0
170.085693 408.0
170.116425 52.0
170.225464 216.0
170.256622 52.0
170.300781 176.0
170.347534 76.0
171.034012 236.0
171.065048 700.0
171.090958 260.0
171.390793 164.0
172.075027 1708.0
172.314438 116.0
172.390213 184.0
172.418945 176.0
172.447708 96.0
172.599319 68.0
172.774567 100.0
172.921097 44.0
172.989548 160.0
173.073898 2072.0
173.169815 76.0
173.196014 92.0
173.610107 176.0
173.678299 136.0
173.741257 180.0
173.771378 48.0
173.911819 124.0
173.995819 132.0
174.01683 80.0
174.079224 9000.0
174.119339 52.0
174.140244 28.0
174.184753 68.0
174.265259 164.0
174.30838 68.0
174.342545 44.0
174.360947 60.0
174.424026 64.0
174.584396 92.0
174.763275 36.0
175.000153 100.0
175.0858 3952.0
175.202942 152.0
175.22139 80.0
175.324982 64.0
175.466492 36.0
175.48494 112.0
175.666916 72.0
175.719681 112.0
175.827866 56.0
175.848984 204.0
175.959854 132.0
176.071594 1236.0
176.120346 144.0
176.247742 76.0
176.274582 128.0
176.34552 68.0
176.530579 100.0
176.673401 180.0
177.07373 472.0
177.128723 100.0
177.221344 204.0
177.55545 72.0
177.680115 164.0
178.076767 384.0
178.104843 68.0
178.245651 220.0
178.280197 196.0
178.583282 72.0
178.684372 88.0
179.089981 172.0
179.331451 88.0
179.419418 132.0
179.494064 144.0
179.630081 160.0
179.718124 48.0
180.049133 128.0
180.083282 224.0
180.222763 148.0
180.384552 232.0
180.661224 180.0
180.720078 192.0
180.859238 84.0
181.022552 184.0
181.063492 396.0
181.210052 168.0
181.880478 124.0
182.055496 280.0
182.073685 144.0
182.11676 72.0
182.602783 96.0
182.626587 176.0
183.078217 1128.0
183.311264 200.0
184.064606 200.0
184.08699 156.0
184.228607 188.0
184.290741 180.0
184.477219 64.0
184.528595 96.0
184.609711 96.0
185.047104 272.0
185.071609 488.0
185.134705 160.0
185.402893 104.0
185.486923 172.0
185.598068 116.0
185.619766 108.0
185.778214 180.0
186.056656 15824.0
186.143478 120.0
186.224945 164.0
186.276566 124.0
186.311096 56.0
186.355927 188.0
186.415115 80.0
186.461319 68.0
186.493439 108.0
186.638016 56.0
186.670654 68.0
186.891785 108.0
186.999832 88.0
187.058975 1524.0
187.087616 10064.0
187.163071 188.0
187.212173 36.0
187.242142 48.0
187.323013 144.0
187.40831 72.0
187.689056 68.0
187.789948 180.0
187.833588 92.0
187.863602 68.0
187.901794 48.0
187.980927 184.0
188.000015 128.0
188.04892 268.0
188.089996 2328.0
188.335831 68.0
188.491562 56.0
188.527084 172.0
188.562439 64.0
188.613174 56.0
188.846954 76.0
189.101715 660.0
189.402588 164.0
189.457367 212.0
189.846588 164.0
190.090134 148.0
190.096024 116.0
190.601471 104.0
190.824097 44.0
191.077133 132.0
191.12941 216.0
191.501053 116.0
191.652557 100.0
191.804138 164.0
191.923035 128.0
192.52977 100.0
192.701019 176.0
193.013351 128.0
193.067902 1372.0
194.069107 164.0
194.218048 72.0
195.07991 656.0
195.126114 168.0
196.085587 344.0
196.395935 124.0
196.672165 128.0
196.691711 192.0
196.825714 92.0
196.990494 84.0
197.067795 608.0
198.078354 1340.0
198.361664 44.0
198.381287 100.0
198.602814 96.0
198.793579 80.0
198.928299 40.0
198.95076 36.0
199.029373 184.0
199.064484 1432.0
199.086929 3728.0
199.131409 60.0
199.195068 124.0
199.27092 72.0
199.290588 52.0
199.399292 188.0
199.490128 164.0
199.726334 184.0
200.075455 1744.0
200.221695 220.0
200.345627 92.0
201.068649 1928.0
201.154953 72.0
201.451462 84.0
202.066681 612.0
203.067535 284.0
203.323044 84.0
203.73761 168.0
203.837051 116.0
203.953568 100.0
204.00531 160.0
204.066437 10608.0
204.129837 68.0
204.263504 60.0
204.309021 92.0
204.419983 68.0
204.573685 104.0
204.651199 104.0
204.727432 100.0
204.932526 52.0
205.070969 1828.0
205.197586 44.0
205.251755 72.0
205.623566 60.0
205.69397 64.0
205.733932 68.0
206.071075 156.0
206.208099 168.0
206.639893 80.0
206.697113 80.0
206.780106 116.0
207.085175 184.0
207.135147 144.0
207.209625 112.0
207.659668 76.0
207.886322 80.0
208.081696 140.0
208.311249 68.0
208.483627 52.0
208.506622 172.0
209.0634 320.0
209.099075 68.0
209.211334 156.0
209.677963 120.0
209.787491 64.0
209.963379 136.0
210.068253 508.0
210.552109 108.0
210.630096 48.0
210.670532 196.0
210.930618 180.0
211.040466 64.0
211.072922 132.0
212.091339 52.0
213.057648 92.0
213.170959 180.0
213.252335 116.0
213.816559 104.0
214.075653 104.0
214.536011 140.0
214.757614 164.0
214.801376 292.0
215.082214 2064.0
215.282944 40.0
215.449432 216.0
216.089798 2428.0
216.192108 32.0
216.481918 116.0
217.084106 456.0
217.164764 104.0
217.475784 32.0
217.666611 296.0
217.710648 60.0
217.801697 72.0
218.10141 104.0
218.124924 72.0
218.642578 132.0
218.701447 132.0
219.069519 152.0
219.520462 64.0
219.641861 124.0
219.759384 228.0
220.089966 92.0
220.49762 132.0
220.577423 68.0
220.784393 156.0
221.00972 228.0
221.059708 4044.0
221.095016 120.0
221.284454 56.0
221.4888 156.0
221.580627 64.0
221.749527 236.0
221.847351 44.0
222.008408 84.0
222.062241 656.0
222.096054 156.0
222.535629 60.0
223.075073 1564.0
223.222015 44.0
223.784378 76.0
223.927322 180.0
224.081024 832.0
224.105621 152.0
224.511444 156.0
225.323334 80.0
225.616211 120.0
225.735809 124.0
226.049911 56.0
226.073853 124.0
226.337265 44.0
228.131409 152.0
229.019073 148.0
229.24202 140.0
230.37648 172.0
230.482224 216.0
232.071289 84.0
233.063812 132.0
233.094193 148.0
233.282623 144.0
233.389038 72.0
233.802734 56.0
234.061493 100.0
235.07309 176.0
236.078537 176.0
236.145813 88.0
236.210052 220.0
236.990723 112.0
237.059265 144.0
238.031372 192.0
238.063278 140.0
238.41452 112.0
238.764999 76.0
238.823425 124.0
238.949554 80.0
239.071503 6584.0
239.149582 48.0
239.174194 32.0
239.331207 68.0
239.549866 52.0
239.84877 68.0
240.008621 296.0
240.07518 1132.0
240.184341 48.0
240.315125 68.0
240.360718 136.0
240.592194 68.0
241.079575 532.0
241.247116 52.0
241.58728 76.0
241.64772 112.0
241.704849 148.0
241.820145 124.0
242.358185 104.0
242.553421 76.0
243.07753 336.0
244.081848 460.0
244.13063 100.0
244.2146 80.0
245.076645 176.0
245.728561 156.0
246.071869 128.0
246.112457 196.0
248.061539 156.0
248.692017 136.0
249.046814 100.0
249.082047 168.0
249.728851 60.0
249.791763 80.0
250.179321 184.0
250.748947 64.0
250.821442 68.0
251.070435 3960.0
251.528 68.0
251.638489 40.0
251.796387 120.0
252.074875 568.0
252.153381 60.0
252.238724 60.0
252.346207 56.0
252.396805 44.0
252.615021 64.0
253.05481 116.0
253.08522 216.0
253.197418 48.0
253.631485 184.0
253.828033 140.0
254.062744 188.0
254.421356 40.0
254.608688 40.0
255.040771 120.0
255.155212 136.0
255.244247 104.0
255.349182 124.0
255.571869 48.0
255.750076 80.0
256.434875 160.0
258.968506 100.0
260.893799 220.0
261.077087 120.0
261.57901 88.0
263.064758 128.0
263.076752 116.0
263.08255 200.0
264.098083 196.0
265.085236 164.0
266.049805 144.0
266.084167 192.0
268.079376 120.0
269.188507 180.0
270.371887 120.0
271.138245 204.0
274.079315 224.0
275.075928 272.0
276.079712 128.0
276.185547 68.0
276.665375 84.0
277.076019 260.0
277.301361 44.0
278.078583 784.0
278.203583 28.0
278.429352 48.0
278.741638 52.0
279.068085 240.0
279.659515 36.0
279.905853 188.0
280.075714 176.0
280.932404 68.0
284.728088 20.0
286.645569 56.0
287.579742 56.0
288.082855 180.0
289.625336 132.0
291.074951 136.0
291.759766 76.0
291.827789 68.0
291.85498 116.0
292.095673 320.0
294.677094 72.0
294.779602 128.0
295.778259 148.0
296.092896 792.0
296.264526 116.0
297.008392 176.0
297.089355 384.0
297.900848 44.0
298.085114 152.0
300.065521 148.0
300.137939 148.0
300.455231 128.0
301.052368 44.0
302.078888 40.0
302.130768 36.0
304.157959 80.0
304.182251 132.0
305.078491 164.0
305.628021 92.0
306.070068 92.0
307.084625 124.0
307.75766 140.0
308.082458 104.0
308.173309 196.0
311.266144 72.0
313.644409 60.0
315.936157 160.0
316.516602 52.0
317.108215 144.0
318.080078 112.0
319.554871 108.0
320.06958 172.0
320.09024 176.0
320.117279 152.0
321.061615 120.0
322.493286 200.0
323.026062 148.0
325.865356 76.0
327.098846 76.0
331.33844 164.0
332.019897 192.0
332.981628 156.0
336.104645 112.0
337.118561 108.0
337.716095 168.0
337.763672 136.0
338.111237 144.0
340.138092 172.0
342.815582 36.0
343.058838 148.0
344.934052 96.0
345.130005 168.0
345.448059 140.0
346.106842 124.0
348.098053 160.0
350.132233 88.0
350.735809 48.0
351.369751 96.0
351.563782 168.0
352.136353 160.0
354.100037 392.0
355.883453 56.0
357.040833 92.0
358.064484 40.0
359.57251 196.0
362.101807 188.0
364.108063 168.0
364.19162 224.0
365.096161 128.0
365.130371 96.0
366.098663 316.0
366.1427 48.0
371.509216 88.0
372.057983 128.0
375.14325 124.0
376.50528 68.0
376.706116 80.0
378.09726 116.0
379.108826 96.0
381.367554 100.0
381.764099 60.0
382.103302 172.0
382.499451 88.0
383.114716 156.0
384.815094 92.0
390.10675 196.0
393.113007 148.0
393.49588 100.0
393.618286 96.0
394.108063 136.0
394.68515 176.0
396.116302 252.0
397.129028 288.0
398.235901 108.0
399.456177 140.0
400.291962 64.0
401.998108 112.0
402.089874 112.0
404.476013 52.0
406.107025 140.0
407.14682 164.0
407.857391 116.0
407.99408 68.0
408.030243 156.0
408.078491 96.0
408.12207 200.0
408.136688 76.0
408.152985 160.0
408.770325 64.0
409.129059 164.0
410.196045 44.0
411.139832 132.0
413.115631 164.0
415.968445 92.0
417.126282 92.0
418.098328 132.0
420.135468 164.0
421.098816 112.0
425.180603 212.0
426.162018 152.0
431.424927 124.0
432.446625 84.0
433.958649 60.0
434.282104 160.0
435.133636 516.0
436.096313 172.0
436.138123 380.0
436.441559 112.0
437.107086 112.0
437.145172 128.0
441.2948 140.0
445.124512 176.0
445.910095 116.0
446.110931 276.0
446.41037 76.0
447.660156 92.0
448.818939 68.0
449.038239 112.0
449.274445 92.0
451.420044 172.0
451.45813 168.0
452.01651 132.0
452.157806 204.0
452.270416 144.0
452.596405 136.0
452.994507 124.0
453.041107 156.0
453.146454 6576.0
453.244476 92.0
453.278351 72.0
453.350403 48.0
453.392761 68.0
453.422455 76.0
453.662811 124.0
453.753082 68.0
453.906403 48.0
453.96933 48.0
454.041412 40.0
454.075348 140.0
454.149536 2524.0
454.686249 92.0
454.724457 76.0
454.800842 84.0
455.145813 288.0
455.569427 76.0
455.798859 76.0
456.130341 160.0
456.253632 76.0
456.296143 68.0
456.776672 96.0
456.917053 68.0
457.053223 132.0
457.125549 68.0
457.159607 152.0
457.24472 40.0
459.341003 56.0
463.149933 172.0
463.509399 112.0
464.096619 140.0
464.152374 104.0
465.976501 108.0
467.929077 56.0
469.131042 168.0
472.65094 104.0
481.142578 128.0
493.356812 80.0
499.156067 104.0
503.314636 232.0
503.367004 44.0
506.381165 60.0
511.058716 72.0
525.129211 60.0
541.458984 92.0
543.818848 112.0
546.625854 28.0
552.654419 76.0
584.476257 132.0
595.333252 36.0
651.604492 64.0
686.901794 68.0
714.506958 48.0
742.151611 212.0
746.859924 48.0
771.525635 40.0
792.816101 120.0
795.222046 140.0
795.912537 68.0
819.459106 40.0
820.256958 116.0
826.241577 108.0
831.214783 144.0
880.338013 60.0
895.877686 196.0
898.894531 52.0
904.751831 80.0
913.020081 128.0
916.770508 44.0
932.870239 84.0
943.556885 136.0
948.067993 148.0
966.442627 120.0
970.059387 76.0
970.406494 124.0
971.541443 100.0
973.931274 188.0
996.77179 60.0
1003.481323 112.0
1026.421387 140.0
1040.689941 248.0
1045.832764 48.0
1059.742676 148.0
1065.256958 156.0
1074.709839 128.0
1078.876587 148.0
1095.894409 80.0
1099.171387 140.0
1107.309082 200.0
1108.726807 144.0
1111.518555 164.0
1125.977417 100.0
1127.955078 180.0
1132.411255 172.0
1135.111938 252.0
1137.59436 236.0
1139.239502 260.0
1144.276611 144.0
1144.586304 120.0
1149.770142 76.0
1150.755737 200.0
1151.349854 124.0
1159.014038 208.0
1160.301758 172.0
1164.033447 124.0
1168.512695 172.0
1171.991821 180.0
1174.13147 176.0
1176.902588 160.0
1179.033813 76.0
1182.966675 128.0
1183.192627 128.0
1184.411499 180.0
1185.939453 176.0
1186.645508 128.0
1193.889526 116.0
1194.639282 164.0
1198.115723 128.0
1199.466309 140.0
1200.652222 216.0
1203.723022 160.0
1206.417603 164.0
1206.67334 152.0
1212.563965 184.0
1213.922729 192.0
1219.587769 212.0
1221.757324 120.0
1224.625122 180.0
1226.987305 160.0
1231.70459 184.0
1236.521973 148.0
1237.992065 176.0
1238.384277 148.0
1240.184937 164.0
1241.299561 196.0
1244.386841 160.0
1244.612793 108.0
1247.238892 104.0
1247.484985 116.0
1248.553711 216.0
1249.207764 240.0
1249.418823 104.0
1251.241577 88.0
1251.714111 156.0
1254.499146 76.0
1258.785767 216.0
1259.040039 164.0
1265.757935 84.0
1268.7052 132.0
1269.003052 144.0
1273.239258 204.0
1275.42749 72.0
1277.78125 200.0
1278.663574 152.0
1280.763916 92.0
1281.027466 44.0
1282.994263 204.0
1288.396484 76.0
1289.446899 200.0
1292.321533 132.0
1295.851196 156.0
1296.517578 68.0
1297.521118 176.0
1299.048584 192.0
1303.420776 168.0
1303.693848 148.0
1307.145508 228.0
1311.963867 128.0
1313.874878 184.0
1314.538696 164.0
1318.047974 160.0
1319.428467 256.0
1319.912842 172.0
1320.693848 196.0
1322.256592 100.0
1323.429321 188.0
1323.537964 152.0
1326.23999 168.0
1328.103394 172.0
1330.120605 116.0
1333.919556 148.0
1334.064941 176.0
1342.233643 168.0
1345.684814 192.0
1348.541016 88.0
1348.643311 160.0
1352.183228 124.0
1356.291992 48.0
1358.873291 156.0
1361.655273 236.0
1362.948242 140.0
1363.697754 152.0
1366.138916 36.0
1368.015381 148.0
1368.339355 128.0
1369.922607 48.0
1370.932007 180.0
1372.502075 228.0
1372.620117 188.0
1373.084717 128.0
1377.660889 132.0
1378.473633 168.0
1378.680542 148.0
1378.739624 104.0
1380.839233 192.0
1384.058228 68.0
1386.599121 72.0
1387.029053 180.0
1389.869385 200.0
1390.693115 228.0
1391.286865 144.0
1392.757202 148.0
1394.674194 188.0
1395.51416 156.0
1400.351074 200.0
1400.753296 40.0
1402.750244 188.0
1405.188843 240.0
1405.673828 92.0
1410.692627 232.0
1410.789917 96.0
1413.833984 132.0
1416.199829 116.0
1419.047363 212.0
1419.459717 152.0
1420.029663 204.0
1420.562256 160.0
1420.719727 128.0
1422.55835 176.0
1427.351562 188.0
1427.644775 188.0
1429.585693 112.0
1429.758667 156.0
1430.36084 180.0
1430.692017 176.0
1432.280884 76.0
1432.845825 204.0
1434.880737 220.0
1435.498901 124.0
1435.823242 96.0
1436.041992 128.0
1439.268188 168.0
1439.551147 160.0
1439.648682 152.0
1440.109985 128.0
1441.522705 136.0
1446.514282 208.0
1446.627808 112.0
1449.513428 124.0
1450.870117 56.0
1454.587036 180.0
1454.966675 184.0
1456.933594 224.0
1458.194824 148.0
1460.072754 168.0
1461.140869 128.0
1463.161987 88.0
1463.854736 104.0
1467.176758 164.0
1467.405396 136.0
1467.786621 144.0
1468.526367 136.0
1470.578735 132.0
1475.253418 184.0
1476.905029 172.0
1478.970825 136.0
1479.223511 184.0
1479.966064 136.0
1481.66626 224.0
1485.65271 212.0
1486.404541 144.0
1487.363892 72.0
1488.891724 152.0
1494.687744 152.0
1496.281006 144.0
1499.431396 168.0
1499.585571 192.0
1500.757202 160.0
1500.865234 168.0
1502.91687 144.0
1503.071167 168.0
1503.233276 216.0
