>compound MLS001148387-01!
>formula C7H5N3O2
>ionization [M+H]+
>parentmass 164.044144
#inchi InChI=1S/C7H5N3O2/c11-10(12)6-2-1-5-4-8-9-7(5)3-6/h1-4H,(H,8,9)
#inchikey ORZRMRUXSPNQQL
#Ion_Source LC-ESI
#Instrument qTof
#Compound_Source NIH Pharmacologically Active Library
#PI Dorrestein
#Data_Collector VP/LMS
#Scan -1
#Precursor_MZ 164.044
#ExactMass 163.038
#Charge 1
#CAS_Number N/A
#Pubmed_ID N/A
#Smiles [O-][N+](=O)c1ccc2c[nH]nc2c1
#INCHI_AUX N/A
#Library_Class 1
#SpectrumID CCMSLIB00000085213
#IonMode Positive
#UpdateWorkflowName UPDATE-SINGLE-ANNOTATED-GOLD
#LibraryQualityString Gold
#TaskID d252d724072548979f1f6f1ced849daf
##Scan# 1641
#SpectrumFile p3-G02_GG2_01_18295.mzXML
#LibraryName Pharm_Active_Library.mgf
#MQScore -1
#Organism Pharm_Active_Library
#TIC_Query 0
#RT_Query -1
#MZErrorPPM -1
#SharedPeaks 0
#MassDiff 0
#LibMZ -1
#SpecMZ 164.044
#SpecCharge 0
#internalFilename spec-00000.mgf

>collision 10
46.783539 152.0
46.986618 140.0
47.221588 92.0
50.499138 148.0
51.171825 132.0
51.65852 136.0
53.075848 152.0
53.711441 148.0
53.74062 204.0
54.594681 156.0
54.836147 136.0
58.701859 252.0
59.574345 192.0
62.535408 64.0
64.625595 192.0
67.167099 216.0
69.465324 152.0
69.977226 248.0
70.168839 188.0
74.438568 140.0
80.686646 188.0
87.95948 184.0
88.597198 196.0
89.036873 168.0
91.042 488.0
91.347931 196.0
92.046463 236.0
92.347496 36.0
95.170944 184.0
97.989609 152.0
98.775368 188.0
99.615906 140.0
101.025383 392.0
103.027809 304.0
105.04377 220.0
105.068253 200.0
106.051834 480.0
107.052483 188.0
107.077202 196.0
109.975952 200.0
110.607239 96.0
110.984352 192.0
115.025551 156.0
115.151535 220.0
116.035355 116.0
117.04261 1264.0
117.103401 120.0
117.627388 124.0
117.787193 160.0
117.901711 180.0
118.0271 108.0
118.051712 3168.0
118.397156 60.0
119.052246 192.0
120.079407 160.0
127.229996 104.0
132.077621 236.0
134.042435 140.0
135.063461 132.0
137.521912 248.0
150.040329 1276.0
151.028519 160.0
151.045639 112.0
151.238953 76.0
152.989258 148.0
164.044144 388.0
166.053925 144.0
166.120621 168.0
832.16449 80.0
893.223938 276.0
900.370667 148.0
954.273254 216.0
998.371277 156.0
1006.513306 196.0
1011.533447 156.0
1032.039307 56.0
1041.588745 120.0
1071.321777 180.0
1088.09082 160.0
1102.622803 148.0
1123.793945 208.0
1141.350586 212.0
1237.524414 72.0
1266.151123 188.0
1280.248901 88.0
1302.867188 112.0
1306.742432 260.0
1317.477905 44.0
1400.805664 152.0
1409.78186 128.0
1414.553955 184.0
1417.9021 112.0
1438.323853 176.0
1445.087891 104.0
1489.544556 76.0
1491.342773 180.0
