>compound FORMOTEROL FUMARATE DIHYDRATE
>formula C19H24N2O4
>ionization [M+H]+
>parentmass 345.18088370009053
#inchi InChI=1S/C19H24N2O4/c1-13(9-14-3-6-16(25-2)7-4-14)20-11-19(24)15-5-8-18(23)17(10-15)21-12-22/h3-8,10,12-13,19-20,23-24H,9,11H2,1-2H3,(H,21,22)/t13-,19+/m0/s1
#inchikey BPZSYCZIITTYBL
#Ion_Source LC-ESI
#Instrument qTof
#Compound_Source Commercial
#PI Dorrestein
#Data_Collector Garg_Neha
#Scan -1
#Precursor_MZ 345.181
#ExactMass 344.174
#Charge 1
#CAS_Number N/A
#Pubmed_ID N/A
#Smiles COc1ccc(C[C@H](C)NC[C@@H](O)c2ccc(O)c(NC=O)c2)cc1
#INCHI_AUX N/A
#Library_Class 1
#SpectrumID CCMSLIB00000079144
#IonMode Positive
#UpdateWorkflowName UPDATE-SINGLE-ANNOTATED-GOLD
#LibraryQualityString Gold
#TaskID 278b19f5865741e282cec7349aa7e7a1
##Scan# 1040
#SpectrumFile NCP003512_G2_H11_BD7_01_15731.mzXML
#LibraryName NIHcollectionI_05062014.mgf
#MQScore -1
#Organism NIHcollectionI_05062014
#TIC_Query 0
#RT_Query -1
#MZErrorPPM -1
#SharedPeaks 0
#MassDiff 0
#LibMZ -1
#SpecMZ 345.181
#SpecCharge 0
#internalFilename spec-00000.mgf

>collision 10
45.533569 144.0
46.071018 180.0
46.326698 164.0
46.75032 208.0
46.926037 164.0
47.282562 164.0
47.371563 208.0
47.589622 176.0
47.633568 260.0
48.054832 176.0
48.072773 152.0
48.228836 196.0
48.469639 156.0
48.633282 200.0
48.838924 160.0
48.946083 148.0
49.074699 136.0
49.114716 156.0
49.344395 144.0
49.552269 156.0
49.714924 184.0
49.905964 140.0
50.205898 168.0
50.393635 176.0
50.438858 260.0
50.985954 168.0
51.163303 164.0
51.371819 188.0
51.500286 208.0
51.641785 152.0
51.749111 196.0
52.303249 144.0
52.578537 192.0
52.756756 208.0
53.050068 176.0
53.38401 276.0
53.662125 240.0
53.825546 248.0
53.84161 140.0
54.205868 184.0
54.23811 144.0
54.415615 184.0
54.590469 164.0
54.63018 200.0
54.830433 172.0
54.858437 156.0
55.019238 188.0
55.029572 216.0
55.041382 180.0
55.411152 140.0
55.525291 144.0
55.637413 144.0
56.088802 168.0
56.76157 148.0
56.778065 164.0
57.224354 188.0
58.041782 184.0
58.290726 172.0
58.312 156.0
58.351524 184.0
59.709408 176.0
60.045147 180.0
60.196384 212.0
60.268986 160.0
60.648136 168.0
60.753582 176.0
60.838932 168.0
61.246349 188.0
61.858452 180.0
61.928593 156.0
62.4044 240.0
63.403614 156.0
63.57806 264.0
63.589172 148.0
63.600281 152.0
63.69714 188.0
63.743214 176.0
63.887901 172.0
63.986568 276.0
64.161819 144.0
64.624985 176.0
64.735428 148.0
64.753044 160.0
64.971046 152.0
65.141205 180.0
65.754669 160.0
65.782707 152.0
65.822472 176.0
66.444 152.0
66.577095 200.0
66.664825 192.0
66.773743 160.0
67.050514 220.0
67.505981 164.0
67.553413 144.0
68.004021 164.0
68.186325 192.0
68.482475 152.0
68.566498 144.0
68.733055 152.0
69.414558 172.0
69.685112 204.0
69.892952 184.0
70.563454 196.0
71.65773 180.0
72.027176 160.0
72.789299 168.0
73.734764 164.0
74.584892 148.0
74.80162 156.0
75.284386 236.0
75.4226 180.0
75.439888 156.0
75.730583 200.0
76.543335 244.0
76.724541 140.0
76.797775 180.0
77.031677 160.0
77.096092 180.0
77.196991 120.0
77.528572 172.0
77.660065 184.0
77.923378 152.0
78.17482 200.0
78.187141 144.0
78.588913 168.0
78.617142 140.0
78.774284 144.0
78.804314 200.0
79.3778 176.0
79.412491 256.0
79.512627 148.0
79.946251 168.0
80.94413 152.0
81.742928 180.0
81.940987 184.0
81.98243 172.0
82.314354 200.0
83.261459 244.0
83.808998 160.0
84.290245 232.0
84.367477 152.0
84.735329 172.0
84.892563 184.0
85.100311 244.0
85.30423 156.0
85.370422 264.0
85.425598 196.0
85.486313 144.0
85.664909 140.0
85.77916 160.0
87.12265 148.0
87.381065 160.0
87.397331 156.0
88.407326 220.0
88.534622 148.0
88.969627 216.0
89.052246 168.0
89.633553 212.0
89.823967 208.0
89.842834 228.0
90.056137 164.0
90.095802 184.0
90.352913 140.0
90.780975 280.0
90.832184 164.0
90.930847 168.0
91.054878 1440.0
91.094139 140.0
91.194847 180.0
91.284203 176.0
91.415459 164.0
92.059471 340.0
92.094009 152.0
92.182037 184.0
93.024757 192.0
93.047791 144.0
93.069099 148.0
93.085716 256.0
93.222282 204.0
93.458054 184.0
94.044197 216.0
94.363678 168.0
95.912865 200.0
96.05127 164.0
96.181999 228.0
96.308922 172.0
96.510201 144.0
96.95668 192.0
97.769554 152.0
97.793175 156.0
97.838448 188.0
97.960541 140.0
98.587379 188.0
98.651215 176.0
98.740196 144.0
99.298698 168.0
99.948296 160.0
100.165298 168.0
100.50222 140.0
100.725815 188.0
101.063675 152.0
101.113701 168.0
101.388069 160.0
101.406105 168.0
102.096733 188.0
102.285858 180.0
102.376457 148.0
102.908791 152.0
103.053696 188.0
103.440483 144.0
104.062859 160.0
104.156273 180.0
104.58123 152.0
105.258064 160.0
105.298904 168.0
105.523682 184.0
106.042747 316.0
106.067345 388.0
106.87326 240.0
107.048225 552.0
107.095596 140.0
107.116196 180.0
107.223335 192.0
108.061119 412.0
108.115494 168.0
108.13826 216.0
108.363976 176.0
109.000969 156.0
109.064178 1144.0
109.312881 140.0
109.560646 176.0
110.034058 152.0
110.17189 156.0
110.362076 200.0
110.830933 152.0
111.113976 192.0
111.246185 172.0
112.268745 156.0
112.889603 156.0
113.177383 160.0
113.340477 148.0
113.408295 148.0
113.520653 184.0
113.9048 248.0
114.545074 248.0
114.909615 212.0
115.055115 596.0
115.302513 168.0
115.905975 156.0
116.298424 144.0
116.801216 160.0
116.865181 180.0
116.904488 188.0
116.923859 172.0
117.042252 148.0
117.069908 1268.0
117.231812 228.0
117.397804 140.0
117.773331 272.0
118.015366 216.0
118.074181 176.0
118.218697 160.0
118.351662 224.0
118.576027 148.0
119.020729 152.0
119.049316 828.0
119.082664 164.0
119.114746 152.0
119.183571 132.0
119.238396 196.0
119.917114 152.0
120.166191 160.0
120.358734 212.0
120.401337 184.0
120.612694 180.0
120.705093 164.0
120.845078 140.0
120.880013 324.0
120.954887 224.0
121.001587 204.0
121.019379 132.0
121.046165 368.0
121.066216 91868.0
121.101601 304.0
121.119148 228.0
121.139359 232.0
121.274216 124.0
121.309013 176.0
121.425491 440.0
121.501869 184.0
121.624718 120.0
121.687927 164.0
121.952499 164.0
122.068848 11048.0
122.395531 108.0
122.858154 96.0
122.916969 156.0
122.992119 200.0
123.070969 460.0
123.557831 184.0
123.84716 176.0
123.885468 184.0
124.670914 256.0
124.757141 116.0
125.013382 172.0
125.220421 144.0
125.503433 148.0
126.779808 140.0
127.001762 168.0
127.084763 148.0
127.203712 156.0
127.345169 164.0
127.365379 196.0
127.846512 160.0
128.142578 148.0
128.531555 168.0
128.845383 144.0
129.062363 148.0
129.295349 192.0
129.864014 160.0
129.934341 160.0
130.217072 180.0
130.788773 148.0
130.818359 200.0
131.021042 192.0
131.081711 168.0
131.32193 164.0
131.426865 160.0
131.575211 172.0
131.621933 112.0
132.045288 172.0
132.135147 288.0
132.402954 184.0
132.549561 200.0
132.822388 204.0
133.063828 308.0
133.097778 196.0
133.732269 156.0
133.969437 176.0
134.063263 3860.0
135.068207 320.0
135.112183 208.0
136.035324 376.0
136.074417 976.0
136.710861 144.0
137.078308 288.0
138.063904 176.0
138.117706 164.0
138.30957 160.0
138.339996 148.0
138.69371 192.0
138.726532 184.0
139.383682 144.0
139.51059 188.0
140.426559 160.0
140.820709 168.0
140.950638 160.0
141.221497 96.0
141.5112 156.0
141.577499 220.0
142.108475 156.0
142.690353 148.0
143.373505 160.0
143.414017 156.0
143.461685 144.0
143.690628 148.0
144.051056 204.0
144.230316 152.0
144.409653 140.0
144.505447 160.0
144.632172 144.0
144.648926 240.0
145.665634 140.0
145.682449 160.0
146.059708 196.0
146.308105 192.0
146.638977 184.0
147.080566 496.0
147.36647 152.0
147.792007 252.0
148.287689 184.0
148.510406 208.0
148.565552 140.0
148.607712 108.0
148.622177 192.0
148.671616 188.0
148.691025 184.0
148.761414 196.0
148.778412 164.0
148.817261 148.0
148.853882 144.0
148.896133 124.0
148.996811 288.0
149.020096 264.0
149.049805 108.0
149.071655 240.0
149.097183 192092.0
149.155579 244.0
149.179977 212.0
149.19928 144.0
149.243652 244.0
149.290695 128.0
149.322159 108.0
149.369415 208.0
149.403458 216.0
149.44278 120.0
149.470245 160.0
149.497574 172.0
149.555008 100.0
149.653641 148.0
149.712173 116.0
149.777847 160.0
150.10054 14872.0
150.280716 100.0
150.337189 104.0
150.545486 176.0
150.947769 108.0
151.018066 124.0
151.046585 144.0
151.09935 520.0
151.161636 320.0
151.20845 284.0
151.259079 136.0
151.293091 148.0
151.31926 140.0
151.355301 100.0
151.463257 140.0
151.708298 196.0
151.97316 164.0
152.069809 612.0
152.165939 104.0
152.636353 144.0
156.155441 184.0
157.761246 140.0
158.075623 132.0
158.594086 100.0
160.684494 172.0
161.077972 152.0
162.055801 728.0
162.090286 144.0
162.457916 144.0
163.062805 300.0
163.810287 212.0
164.069 144.0
164.108109 1448.0
165.105927 124.0
167.004791 160.0
171.598755 176.0
174.347229 184.0
175.763947 144.0
176.106888 476.0
176.688675 164.0
176.840759 116.0
177.109741 128.0
178.457672 148.0
179.019119 164.0
179.081833 3228.0
180.084106 440.0
180.160675 148.0
180.866623 168.0
181.268356 168.0
181.689301 152.0
182.460052 144.0
182.659058 164.0
186.438889 188.0
186.890274 272.0
187.258331 192.0
188.236801 212.0
189.593643 212.0
190.123871 116.0
190.206604 164.0
195.358932 192.0
196.685333 164.0
196.858429 196.0
197.05394 148.0
197.093872 472.0
197.624313 188.0
201.68515 172.0
205.847244 152.0
206.853622 176.0
208.135132 148.0
208.252869 164.0
208.939896 160.0
209.744492 216.0
209.772141 368.0
210.912323 236.0
212.105453 140.0
212.327072 156.0
213.577011 204.0
213.969864 164.0
214.777054 140.0
216.050659 180.0
216.49263 152.0
218.012222 140.0
220.387238 200.0
220.981522 144.0
221.46109 260.0
222.63765 152.0
226.207428 164.0
226.581772 176.0
226.905441 208.0
227.529465 176.0
230.26358 200.0
230.652939 208.0
231.282486 148.0
234.620911 236.0
235.7258 160.0
235.951981 164.0
237.544403 204.0
239.813629 244.0
242.555267 140.0
242.787796 220.0
244.390656 156.0
244.829559 152.0
245.409134 140.0
245.512665 220.0
248.229523 156.0
248.797409 152.0
249.900543 148.0
252.525101 180.0
252.619995 164.0
253.120056 164.0
255.777328 156.0
256.07663 200.0
256.140045 136.0
256.427094 156.0
256.812866 152.0
261.014557 288.0
261.480988 140.0
262.353912 172.0
263.244385 156.0
265.036407 160.0
265.937927 160.0
267.44931 192.0
267.758606 192.0
268.700653 140.0
269.95163 192.0
270.062836 152.0
270.138062 160.0
271.83847 140.0
271.930359 148.0
273.619934 192.0
274.218109 148.0
274.354614 144.0
274.585419 172.0
275.182678 144.0
276.792908 148.0
277.535126 148.0
277.966339 188.0
278.849701 228.0
279.165527 192.0
279.944214 148.0
280.753998 140.0
281.999268 164.0
282.153015 140.0
282.892334 176.0
283.371246 156.0
283.890778 168.0
284.131134 208.0
284.169189 164.0
285.96698 160.0
287.690643 144.0
288.005157 152.0
289.217316 156.0
290.644043 196.0
292.091309 176.0
292.125336 192.0
294.00769 180.0
295.506165 144.0
296.355255 160.0
297.284485 208.0
298.156769 164.0
299.529572 192.0
300.070618 212.0
300.456879 168.0
301.872986 184.0
302.963257 152.0
304.638794 164.0
305.17746 180.0
305.967224 240.0
307.518402 152.0
309.241486 220.0
309.98587 136.0
310.134613 200.0
310.811432 144.0
312.14975 164.0
313.723541 144.0
315.612366 164.0
316.5961 140.0
317.354401 192.0
319.044342 172.0
321.222198 172.0
324.384766 152.0
324.606598 124.0
324.640289 120.0
324.718231 140.0
324.750519 160.0
324.818665 172.0
325.037506 144.0
325.080566 160.0
325.152344 168.0
325.303101 172.0
325.690887 156.0
325.730408 188.0
326.016083 100.0
326.052948 264.0
326.102173 196.0
326.158661 256.0
326.40863 184.0
326.51532 156.0
326.562714 128.0
326.633484 128.0
326.657806 180.0
326.691193 128.0
326.733368 204.0
326.855896 204.0
326.932312 200.0
327.022278 180.0
327.066437 288.0
327.101898 276.0
327.172882 164868.0
327.258331 116.0
327.284729 416.0
327.324646 168.0
327.370911 176.0
327.413208 136.0
327.559814 240.0
327.594727 236.0
327.655762 228.0
327.688507 120.0
327.765167 1040.0
327.872589 248.0
327.99408 144.0
328.026855 192.0
328.070099 120.0
328.174683 27112.0
328.50119 192.0
328.562836 180.0
328.969604 144.0
329.177704 3752.0
329.485535 148.0
329.677429 116.0
329.72757 188.0
330.034149 236.0
330.074188 120.0
330.145538 152.0
330.190399 220.0
330.29184 156.0
330.397888 248.0
330.441132 160.0
330.496094 160.0
330.536346 112.0
330.817352 100.0
330.925446 104.0
331.059296 104.0
331.276947 120.0
331.353088 124.0
331.43219 108.0
331.484741 160.0
332.304382 156.0
333.859009 200.0
334.728729 148.0
336.641876 136.0
337.520142 172.0
337.754211 156.0
338.387299 264.0
338.731537 176.0
340.945465 136.0
341.420349 172.0
341.842255 164.0
342.13974 160.0
343.032074 120.0
343.414734 108.0
343.813477 132.0
343.927185 228.0
344.181915 196.0
344.300079 148.0
344.325928 144.0
344.406433 164.0
344.447052 116.0
344.537964 228.0
344.624451 192.0
344.674866 200.0
344.700958 112.0
344.768799 96.0
344.801483 116.0
344.88559 108.0
344.924225 176.0
344.990387 148.0
344.999023 264.0
345.057404 188.0
345.108612 212.0
345.183685 169464.0
345.29248 172.0
345.373047 180.0
345.408417 172.0
345.429993 140.0
345.483002 152.0
345.520508 128.0
345.552185 236.0
345.581146 260.0
345.644958 204.0
345.719421 108.0
345.791321 1044.0
345.846863 176.0
345.957703 264.0
346.100861 208.0
346.18515 33988.0
346.489441 120.0
346.616638 204.0
346.664581 168.0
346.726044 96.0
346.829529 108.0
347.186462 3912.0
347.305328 124.0
347.3526 140.0
347.666901 176.0
347.933258 148.0
348.05484 104.0
348.193665 816.0
348.231659 144.0
348.275757 160.0
348.356781 376.0
348.507935 140.0
348.671082 108.0
348.750183 116.0
349.126984 148.0
349.510712 124.0
349.691589 160.0
350.537384 112.0
350.865814 100.0
351.967834 108.0
357.117493 172.0
360.046509 96.0
360.673065 160.0
368.929535 144.0
461.148376 144.0
820.310242 152.0
1012.153503 248.0
1077.09021 160.0
1107.498901 168.0
1160.503418 148.0
1162.8573 160.0
1172.794312 228.0
1177.037598 180.0
1188.557617 152.0
1200.119873 184.0
1228.046143 208.0
1235.54834 180.0
1238.824585 216.0
1247.758301 144.0
1257.090942 220.0
1280.457153 168.0
1281.632568 212.0
1289.239258 168.0
1300.02063 168.0
1328.770874 148.0
1343.875 204.0
1344.283691 180.0
1351.649414 176.0
1354.804932 204.0
1369.665527 196.0
1372.112061 160.0
1394.318359 164.0
1396.556274 192.0
1400.843628 172.0
1412.810181 200.0
1415.017944 184.0
1420.991211 160.0
1439.635864 144.0
1445.494263 156.0
1447.772827 156.0
1455.925171 156.0
1456.540405 156.0
1456.593628 176.0
1468.993652 176.0
1470.817383 168.0
1472.817993 200.0
1488.794189 212.0
1496.275757 148.0
1497.677246 196.0
1500.577271 144.0
1510.977783 220.0
1513.415771 160.0
1514.492188 208.0
1518.894897 184.0
1527.244751 176.0
1528.302734 184.0
1532.390381 140.0
1535.165283 200.0
1537.045166 192.0
1541.792969 160.0
1546.141235 192.0
1558.821777 164.0
1559.859131 156.0
1562.163208 160.0
1570.457642 204.0
1573.669312 148.0
1574.743286 160.0
1575.959717 148.0
1584.963989 180.0
1589.277466 156.0
1589.642456 164.0
1590.515381 200.0
1590.97583 156.0
1591.547485 140.0
1592.119263 176.0
1593.223267 152.0
1597.22168 140.0
1601.958008 144.0
1610.884399 184.0
1615.056885 180.0
1618.602173 244.0
1619.97168 144.0
1627.711182 172.0
1628.618652 144.0
1630.880615 172.0
1635.742798 204.0
1637.731689 204.0
1639.09314 156.0
1640.640625 240.0
1655.782837 140.0
1657.937744 232.0
1661.68396 156.0
1666.043579 152.0
1666.70166 168.0
1672.760498 172.0
1678.463501 168.0
1680.135498 192.0
1683.849487 272.0
1689.407593 164.0
1689.988525 164.0
1691.248779 140.0
1696.737183 208.0
1705.356201 152.0
1710.538208 164.0
1710.686401 168.0
1715.225098 212.0
1726.925049 140.0
1727.313843 264.0
1738.04248 208.0
1739.88501 168.0
1742.43457 176.0
1747.963745 152.0
1748.155151 208.0
1750.460938 252.0
1758.51416 152.0
1760.826782 208.0
1763.65918 176.0
1769.858154 144.0
1771.013794 180.0
1774.558472 200.0
1774.92749 244.0
1775.30481 180.0
1777.200562 172.0
1780.054443 160.0
1784.406738 192.0
1790.338867 192.0
1793.742798 208.0
1796.230347 156.0
1807.830444 144.0
1809.794312 168.0
1815.36145 204.0
1819.11145 152.0
1823.273315 280.0
1826.504272 248.0
1828.307983 212.0
1828.878174 196.0
1831.671021 152.0
1832.471802 144.0
1834.23584 148.0
1835.557251 200.0
1842.180298 160.0
1844.564331 168.0
1848.652466 144.0
1851.263428 172.0
1851.666016 156.0
1854.029053 140.0
1856.679565 172.0
1856.936768 148.0
1861.176025 216.0
1868.01709 248.0
1869.849731 204.0
1870.391968 196.0
1871.037598 156.0
1872.854614 176.0
1878.776489 156.0
1878.888672 176.0
1881.805786 200.0
1883.50708 148.0
1885.70166 196.0
1888.035889 152.0
1890.319702 144.0
1890.830322 240.0
1892.65686 192.0
1892.899292 160.0
1897.23999 196.0
1899.295166 144.0
1903.435425 240.0
1904.711548 160.0
1906.318726 156.0
1907.822388 156.0
1911.588501 140.0
1912.38916 172.0
1918.73938 152.0
1920.003662 156.0
1922.280518 148.0
1923.807983 148.0
1923.903931 160.0
1925.196167 152.0
1925.554321 176.0
1927.528564 152.0
1929.669922 144.0
1931.016602 160.0
1931.97876 180.0
1933.737549 176.0
1934.849243 148.0
1936.294067 144.0
1936.530518 200.0
1950.05957 348.0
1950.323242 180.0
1956.199097 156.0
1958.321167 200.0
1960.276978 184.0
1961.651855 192.0
1961.951538 140.0
1964.050293 204.0
1964.447266 144.0
1971.227905 148.0
1972.792236 160.0
1976.436035 164.0
1978.462769 188.0
1985.365112 212.0
1988.150757 156.0
1989.730713 184.0
1990.059204 180.0
1995.870117 148.0
2001.351074 200.0
