>compound MLS001158368-01!
>formula C25H23ClN2O5
>ionization [M+H]+
>parentmass 467.136047
#inchi InChI=1S/C25H23ClN2O5/c26-19-8-18-16-3-1-4-17(16)25(31)33-21(18)9-22(19)32-13-24(30)27-10-14-7-15(12-27)20-5-2-6-23(29)28(20)11-14/h2,5-6,8-9,14-15H,1,3-4,7,10-13H2/t14-,15+/m1/s1
#inchikey SYYITVCAXCKXAU
#Ion_Source LC-ESI
#Instrument qTof
#Compound_Source NIH Natural Product Library
#PI Dorrestein
#Data_Collector VVP/LMS
#Scan -1
#Precursor_MZ 467.137
#ExactMass 466.13
#Charge 1
#CAS_Number N/A
#Pubmed_ID N/A
#Smiles Clc1cc2c3CCCc3c(=O)oc2cc1OCC(=O)N4C[C@H]5C[C@@H](C4)c6cccc(=O)n6C5
#INCHI_AUX N/A
#Library_Class 1
#SpectrumID CCMSLIB00000079471
#IonMode Positive
#UpdateWorkflowName UPDATE-SINGLE-ANNOTATED-GOLD
#LibraryQualityString Gold
#TaskID b1d8e8f6646f4e71acdff9ca3d919d08
##Scan# 1920
#SpectrumFile p1-G06_GG6_01_17950.mzXML
#LibraryName NIH_Natural_Products_Library.mgf
#MQScore -1
#Organism NIH_Natural_Products_Library
#TIC_Query 0
#RT_Query -1
#MZErrorPPM -1
#SharedPeaks 0
#MassDiff 0
#LibMZ -1
#SpecMZ 467.137
#SpecCharge 0
#internalFilename spec-00000.mgf

>collision 10
95.01252 140.0
95.031921 100.0
95.055206 136.0
95.073624 196.0
95.107605 144.0
95.137161 160.0
95.334938 160.0
95.486481 128.0
95.62851 184.0
95.745323 140.0
96.008423 136.0
96.038574 216.0
96.079201 152.0
96.111809 184.0
96.180115 312.0
96.20549 216.0
96.242584 168.0
96.266014 212.0
96.367592 208.0
96.412529 128.0
96.533737 192.0
96.598274 152.0
96.662842 136.0
96.77272 176.0
96.799866 72.0
96.882126 48.0
96.987946 212.0
97.10363 148.0
97.156586 184.0
97.335197 48.0
97.384293 116.0
97.537552 216.0
97.5867 72.0
97.600464 36.0
97.763733 216.0
97.826714 44.0
98.065056 128.0
98.118279 148.0
98.222794 112.0
98.382683 172.0
98.615723 132.0
98.63549 56.0
98.690849 180.0
98.775887 32.0
98.799622 212.0
98.825348 172.0
98.938156 124.0
98.961914 180.0
99.060936 120.0
99.219475 104.0
99.318626 208.0
99.372185 120.0
99.461487 204.0
99.58857 160.0
99.656113 180.0
99.84893 144.0
100.00412 204.0
100.077774 268.0
100.097687 140.0
100.113617 212.0
100.420532 76.0
100.497437 88.0
100.664009 176.0
100.771866 180.0
100.861801 76.0
101.01577 104.0
101.077789 148.0
101.193886 204.0
101.304031 156.0
101.386185 180.0
101.422256 224.0
101.452324 196.0
101.522499 164.0
101.636841 160.0
101.656906 104.0
101.966179 140.0
102.026482 76.0
102.058655 140.0
102.157196 148.0
102.179329 108.0
102.223595 200.0
102.364502 152.0
102.489304 180.0
102.50753 224.0
102.618385 88.0
102.737381 96.0
102.803963 132.0
102.919022 152.0
102.953346 220.0
103.050865 204.0
103.10891 168.0
103.136818 168.0
103.173592 176.0
103.20594 160.0
103.339432 132.0
103.53376 172.0
103.584396 244.0
103.600601 184.0
103.657333 180.0
103.734344 148.0
103.756645 124.0
103.785034 168.0
103.831673 36.0
103.929039 240.0
104.026459 36.0
104.050819 620.0
104.083305 148.0
104.229553 84.0
104.272232 136.0
104.347008 188.0
104.746315 116.0
104.793167 80.0
104.862457 44.0
104.884872 72.0
104.901184 132.0
104.929726 136.0
104.943184 188.0
104.994972 280.0
105.056168 192.0
105.158188 192.0
105.219429 72.0
105.346046 208.0
105.417557 140.0
105.534065 128.0
105.605644 192.0
105.662918 88.0
105.990517 156.0
106.065674 208.0
106.080696 140.0
106.171486 184.0
106.205772 144.0
106.236542 220.0
106.308357 128.0
106.425362 112.0
106.705017 176.0
106.789093 168.0
106.885788 168.0
106.920769 180.0
106.968109 200.0
107.046349 180.0
107.06076 112.0
107.182297 172.0
107.386391 96.0
107.402893 120.0
107.42971 196.0
107.634033 160.0
107.689789 56.0
107.819954 48.0
107.886093 136.0
107.979141 156.0
108.014542 176.0
108.037582 160.0
108.070168 152.0
108.107407 124.0
108.29995 224.0
108.559013 124.0
108.994934 160.0
109.052177 2828.0
109.215302 148.0
109.256905 160.0
109.342216 176.0
109.477539 168.0
109.617111 164.0
109.658791 144.0
109.690056 168.0
109.790138 60.0
109.846451 44.0
110.057907 400.0
110.126152 116.0
110.147041 208.0
110.245239 176.0
110.362297 140.0
110.404114 176.0
110.604973 208.0
110.749451 88.0
110.898209 144.0
110.954811 100.0
111.028198 228.0
111.070175 328.0
111.114197 156.0
111.269508 124.0
111.3451 104.0
111.385582 276.0
111.441727 40.0
111.672966 144.0
111.77816 256.0
111.794991 144.0
111.833893 144.0
111.849716 148.0
112.100075 140.0
112.300621 196.0
112.317177 184.0
112.425095 96.0
112.572868 120.0
112.672142 128.0
112.686928 164.0
112.701721 36.0
112.75666 148.0
112.807396 112.0
112.896194 204.0
112.982918 168.0
112.997726 148.0
113.071785 104.0
113.105652 124.0
113.139519 204.0
113.205162 176.0
113.296234 252.0
113.328018 164.0
113.361923 140.0
113.378876 104.0
113.414902 140.0
113.4785 108.0
113.655762 188.0
113.762787 196.0
113.801003 76.0
113.923981 168.0
114.243057 124.0
114.300499 104.0
114.426079 132.0
114.515518 176.0
114.541077 156.0
114.596985 264.0
114.639526 76.0
114.818161 116.0
114.852287 68.0
114.937622 184.0
115.018715 200.0
115.052582 208.0
115.138283 88.0
115.245087 52.0
115.270729 172.0
115.298515 48.0
115.362633 148.0
115.439072 80.0
115.524673 176.0
115.615028 216.0
115.666389 80.0
115.867142 204.0
115.89769 156.0
115.929832 148.0
115.970551 84.0
116.032715 212.0
116.069168 196.0
116.114197 52.0
116.180695 196.0
116.315887 148.0
116.408203 124.0
116.481819 160.0
116.7714 216.0
117.056282 1716.0
117.115768 48.0
117.182549 124.0
117.268745 160.0
117.33342 140.0
117.482964 152.0
117.540474 172.0
117.600906 144.0
117.654869 128.0
117.721802 188.0
117.790916 108.0
117.862213 200.0
117.933525 192.0
117.994057 164.0
118.063637 156.0
118.219009 64.0
118.290428 172.0
118.31424 136.0
118.338058 240.0
118.372704 136.0
118.433342 120.0
118.463669 152.0
118.643539 168.0
118.677277 200.0
118.85392 72.0
119.057411 172.0
119.074402 120.0
119.090546 132.0
119.192657 52.0
119.277412 148.0
119.301323 52.0
119.56234 84.0
119.618927 160.0
119.653763 176.0
119.712547 140.0
119.741417 188.0
119.843246 208.0
120.093941 140.0
120.148476 88.0
120.205208 140.0
120.397308 44.0
120.473755 216.0
120.520538 68.0
120.554604 192.0
120.6464 240.0
120.692314 164.0
120.786354 136.0
120.887321 136.0
120.946091 148.0
120.961411 108.0
120.983299 120.0
121.043915 204.0
121.052406 268.0
121.138786 96.0
121.24176 64.0
121.388641 84.0
121.518051 172.0
121.559746 268.0
121.594856 164.0
121.627777 116.0
121.726578 176.0
121.919891 140.0
121.972641 152.0
122.031998 136.0
122.059341 3056.0
122.089165 88.0
122.152443 172.0
122.222618 168.0
122.302582 124.0
122.500755 108.0
122.954971 80.0
123.065071 1180.0
123.140427 152.0
123.186813 116.0
123.22216 140.0
123.264137 100.0
123.290657 124.0
123.312759 116.0
123.3321 208.0
123.371826 116.0
123.416656 92.0
123.438766 108.0
123.544937 160.0
123.57148 136.0
123.615738 160.0
123.640076 144.0
123.679916 180.0
124.007729 176.0
124.04097 164.0
124.077217 240.0
124.160706 172.0
124.264961 216.0
124.351501 256.0
124.466942 172.0
124.482483 184.0
124.717979 136.0
124.82692 188.0
124.842484 208.0
124.889191 132.0
124.912079 180.0
125.016006 96.0
125.074837 304.0
125.138428 132.0
125.178513 164.0
125.249779 36.0
125.412437 220.0
125.439186 68.0
125.521675 208.0
125.561813 248.0
125.66066 180.0
125.6912 172.0
125.733604 156.0
125.764847 112.0
125.81842 220.0
126.178116 188.0
126.214714 216.0
126.242958 180.0
126.365982 116.0
126.576698 140.0
126.59877 172.0
126.728691 148.0
126.773506 200.0
126.825058 132.0
126.91024 152.0
126.95285 180.0
127.056023 136.0
127.152512 96.0
127.284958 136.0
127.325386 148.0
127.372551 152.0
127.457924 268.0
127.648987 40.0
127.734451 124.0
127.824402 192.0
127.909973 116.0
127.930229 120.0
128.05957 308.0
128.193756 152.0
128.292923 96.0
128.350952 152.0
128.572617 80.0
128.929443 184.0
129.068436 448.0
129.17363 216.0
129.266388 164.0
129.295807 48.0
129.438431 164.0
129.539062 176.0
129.674026 140.0
129.84407 232.0
129.878098 48.0
129.955215 272.0
130.059662 176.0
130.170853 180.0
130.211731 132.0
130.241257 100.0
130.288971 216.0
130.307144 164.0
130.341217 144.0
130.357132 208.0
130.393494 136.0
130.429855 140.0
130.552628 116.0
130.568542 60.0
130.686844 108.0
130.750549 136.0
130.818832 128.0
130.891693 188.0
130.914459 48.0
130.980515 184.0
131.046585 148.0
131.072784 192.0
131.076462 380.0
131.133179 168.0
131.209076 40.0
131.498093 184.0
131.587128 120.0
131.696732 152.0
131.838379 128.0
131.962784 208.0
132.044235 1624.0
132.075912 448.0
132.235489 88.0
132.275803 176.0
132.327881 100.0
132.411591 144.0
132.51799 244.0
132.595901 96.0
132.63028 52.0
132.648621 152.0
132.807877 160.0
132.877945 156.0
132.931625 236.0
132.981201 136.0
133.013336 84.0
133.051559 1644.0
133.217712 136.0
133.236099 56.0
133.348694 132.0
133.465927 176.0
133.494507 140.0
133.562515 148.0
133.624634 252.0
133.686752 180.0
133.769623 48.0
133.806686 160.0
133.942764 148.0
134.016037 220.0
134.059128 7096.0
134.133575 40.0
134.274231 196.0
134.366486 204.0
134.428787 160.0
134.465714 60.0
134.511871 60.0
134.650421 192.0
134.719711 144.0
134.798264 128.0
134.819687 296.0
134.936951 196.0
135.007996 116.0
135.024811 212.0
135.065964 2160.0
135.258499 136.0
135.281662 120.0
135.38884 152.0
135.425217 244.0
135.623749 176.0
135.661575 148.0
135.777512 144.0
135.861008 48.0
136.009521 220.0
136.025772 168.0
136.068802 352.0
136.113998 172.0
136.130249 64.0
136.185989 204.0
136.234772 92.0
136.331177 204.0
136.474152 188.0
136.576477 84.0
136.637741 328.0
136.660217 180.0
136.744003 140.0
136.823135 172.0
136.851074 208.0
136.955872 200.0
137.074692 124.0
137.286819 188.0
137.306717 144.0
137.384781 164.0
137.425003 84.0
137.706909 140.0
137.730515 184.0
137.844742 240.0
137.877457 144.0
137.905502 124.0
137.949921 120.0
137.970963 136.0
138.05513 112.0
138.208359 196.0
138.272415 96.0
138.497467 192.0
138.555969 136.0
138.60524 100.0
138.663834 132.0
138.71991 160.0
138.802139 48.0
138.84201 208.0
139.470749 176.0
139.687561 184.0
139.793442 176.0
139.994965 184.0
140.199478 172.0
140.245621 224.0
140.429535 192.0
140.533325 156.0
140.615921 116.0
140.990631 212.0
141.058853 296.0
141.147705 188.0
141.182922 172.0
141.282272 96.0
141.353241 120.0
141.481064 172.0
141.519791 176.0
141.630234 232.0
141.696564 180.0
141.743958 152.0
141.762909 240.0
141.800827 224.0
142.007111 156.0
142.059265 500.0
142.07402 208.0
142.227768 72.0
142.256256 64.0
142.42247 124.0
142.498489 124.0
142.519867 44.0
142.553146 180.0
142.586411 120.0
142.655472 188.0
142.935989 168.0
142.989639 204.0
143.073257 160.0
143.19548 48.0
143.319351 220.0
143.431351 168.0
143.533875 76.0
143.574417 180.0
143.715149 160.0
143.791519 180.0
143.810608 196.0
143.998779 312.0
144.054306 160.0
144.080536 524.0
144.221436 72.0
144.362488 228.0
144.62326 196.0
144.776489 56.0
144.972931 248.0
144.996902 136.0
145.02565 220.0
145.054825 568.0
145.085495 1040.0
145.157898 148.0
145.263046 80.0
145.294235 168.0
145.313416 140.0
145.372772 164.0
145.431015 44.0
145.53183 68.0
145.61348 116.0
145.723984 204.0
145.805679 108.0
145.858566 104.0
145.889816 164.0
145.921066 188.0
145.965607 168.0
145.98465 176.0
146.025192 252.0
146.059494 30224.0
146.106277 384.0
146.142334 116.0
146.173615 84.0
146.216934 172.0
146.282257 200.0
146.31424 104.0
146.386948 116.0
146.481796 60.0
146.529968 60.0
146.585388 152.0
146.652863 140.0
146.760742 124.0
146.822845 212.0
146.871078 96.0
146.899017 192.0
146.937668 232.0
146.96637 96.0
146.99028 128.0
147.067108 16340.0
147.142563 32.0
147.185593 68.0
147.209061 108.0
147.24881 56.0
147.285965 156.0
147.296509 64.0
147.302795 216.0
147.340607 92.0
147.364761 164.0
147.413086 28.0
147.433197 112.0
147.451752 196.0
147.495026 92.0
147.546021 112.0
147.642746 152.0
147.694366 152.0
147.719528 156.0
147.754013 132.0
147.794586 104.0
147.848373 204.0
147.87558 84.0
147.929047 204.0
147.962143 76.0
148.005722 120.0
148.033798 108.0
148.073547 8376.0
148.117126 100.0
148.146194 96.0
148.214035 80.0
148.232681 144.0
148.258972 184.0
148.295135 172.0
148.332794 128.0
148.36673 156.0
148.519501 176.0
148.56073 68.0
148.852905 96.0
148.881134 104.0
148.919983 156.0
148.939423 164.0
148.983139 68.0
149.07074 1048.0
149.134918 156.0
149.218887 96.0
149.242737 64.0
149.384247 68.0
149.415878 84.0
149.445068 112.0
149.778595 60.0
149.918259 136.0
149.941452 176.0
150.005219 216.0
150.046661 152.0
150.073471 164.0
150.100296 64.0
150.132874 144.0
150.16127 64.0
150.251526 88.0
150.585938 224.0
150.627457 68.0
150.862061 176.0
150.90361 128.0
151.064774 196.0
151.089493 216.0
151.128632 88.0
151.172745 168.0
151.224075 48.0
151.304855 128.0
151.52037 32.0
151.664948 172.0
151.697617 172.0
151.733597 196.0
151.794891 164.0
152.057388 104.0
152.113831 164.0
152.167847 152.0
152.335495 244.0
152.393799 40.0
152.54863 64.0
152.756134 204.0
152.797012 176.0
152.993896 192.0
153.045609 200.0
153.383118 168.0
153.412704 164.0
153.666718 172.0
153.765427 52.0
153.864166 152.0
153.911072 40.0
154.022202 104.0
154.03949 184.0
154.064133 388.0
154.165497 80.0
154.222351 184.0
154.405304 148.0
154.736893 72.0
155.068817 300.0
155.110962 148.0
155.562424 220.0
155.897736 48.0
155.947433 160.0
155.997147 184.0
156.034439 196.0
156.06279 184.0
156.096603 120.0
156.173706 156.0
156.193604 108.0
156.233398 208.0
156.532074 176.0
156.608932 144.0
156.641663 124.0
156.790253 188.0
156.900833 192.0
157.040466 92.0
157.066635 172.0
157.085373 148.0
157.195145 136.0
157.220108 132.0
157.237579 184.0
157.459778 176.0
157.586533 188.0
158.063187 388.0
158.117294 32.0
158.396439 148.0
158.425278 196.0
158.571121 176.0
158.641739 128.0
158.843842 132.0
158.941757 96.0
159.066528 2800.0
159.240143 144.0
159.356049 52.0
159.572205 68.0
159.693237 152.0
159.768372 184.0
159.793533 196.0
159.841339 144.0
160.02507 120.0
160.074203 10492.0
160.133362 44.0
160.150986 60.0
160.171143 28.0
160.239151 44.0
160.299637 48.0
160.387833 148.0
160.420609 160.0
160.498764 140.0
160.518936 80.0
160.637482 40.0
160.728302 104.0
160.876389 172.0
160.899933 260.0
161.077545 1252.0
161.180283 40.0
161.207108 176.0
161.359741 128.0
161.467255 124.0
161.518539 176.0
161.557007 120.0
161.807556 108.0
161.906723 220.0
161.977219 56.0
162.000015 48.0
162.090607 968.0
162.134308 84.0
162.311752 152.0
162.387833 172.0
162.414139 216.0
162.474091 92.0
162.600952 176.0
162.631409 192.0
162.768509 332.0
162.867554 176.0
162.981873 160.0
163.026443 148.0
163.053024 76.0
163.099243 1324.0
163.205551 88.0
163.490448 84.0
163.660995 80.0
163.705719 164.0
163.785782 156.0
163.827652 184.0
163.897888 60.0
163.928467 232.0
164.015121 244.0
164.040604 192.0
164.103378 168.0
164.150238 148.0
164.356857 80.0
164.487015 144.0
164.56105 196.0
164.589127 76.0
164.730377 144.0
164.767914 180.0
165.004395 136.0
165.015549 72.0
165.022064 128.0
165.065094 144.0
165.102768 128.0
165.125778 44.0
165.256241 208.0
165.422592 68.0
165.46611 224.0
165.525009 76.0
165.676117 144.0
165.852936 172.0
166.052917 192.0
166.135117 172.0
166.350571 184.0
166.371109 164.0
166.460968 240.0
166.561127 172.0
167.030655 260.0
167.085175 164.0
167.123016 92.0
167.152451 104.0
167.178177 152.0
167.203918 64.0
167.252823 64.0
167.377655 140.0
167.448502 128.0
167.566986 108.0
167.868561 228.0
167.951096 168.0
168.069763 96.0
168.126541 112.0
168.178162 76.0
168.253021 104.0
168.283997 52.0
168.358887 204.0
168.433777 116.0
168.480286 184.0
168.511276 48.0
168.561035 124.0
168.674088 168.0
168.82663 156.0
169.069809 160.0
169.093109 64.0
169.121582 140.0
169.275482 164.0
169.295044 208.0
169.618896 344.0
169.657791 64.0
169.740753 116.0
169.821152 92.0
170.057251 152.0
170.129929 88.0
170.196198 160.0
170.267548 152.0
170.39743 52.0
170.731308 116.0
170.77858 112.0
171.034622 168.0
171.089157 288.0
171.125671 144.0
171.235031 204.0
171.266296 148.0
171.315781 136.0
171.349655 52.0
171.469513 128.0
171.558136 200.0
171.691116 32.0
171.743286 108.0
171.889374 128.0
172.048203 624.0
172.073914 2964.0
172.13884 184.0
172.197433 156.0
172.26535 44.0
172.328049 120.0
172.484848 204.0
172.678329 156.0
172.796036 32.0
172.947815 116.0
172.976608 220.0
173.013901 132.0
173.035553 164.0
173.083084 24040.0
173.204422 32.0
173.243713 72.0
173.288254 100.0
173.327042 40.0
173.398315 176.0
173.421906 64.0
173.500549 64.0
173.621155 176.0
173.659195 184.0
173.733948 44.0
173.854507 76.0
173.874893 256.0
173.899261 204.0
173.930756 56.0
174.001022 204.0
174.041016 140.0
174.087296 4800.0
174.185455 148.0
174.319458 76.0
174.385162 104.0
174.433533 168.0
174.55867 236.0
174.587601 64.0
174.613892 132.0
174.634933 60.0
174.671753 44.0
174.824356 160.0
174.960114 108.0
175.000717 60.0
175.047668 1724.0
175.090775 332.0
175.124496 68.0
175.192978 156.0
175.294693 96.0
175.361618 168.0
175.38797 144.0
175.438065 136.0
175.52243 68.0
175.66748 92.0
175.915543 140.0
175.934021 144.0
176.05191 272.0
176.089813 148.0
176.158493 184.0
176.287949 156.0
176.314377 64.0
176.491486 152.0
176.630432 152.0
176.822159 124.0
176.943924 120.0
176.991577 152.0
177.057785 208.0
177.07814 128.0
177.088608 88.0
177.288269 88.0
177.540115 152.0
177.573563 216.0
177.60643 160.0
177.681824 152.0
177.72049 132.0
177.88504 184.0
177.988586 116.0
178.036377 112.0
178.397736 180.0
178.711563 196.0
178.85527 212.0
179.006607 156.0
179.332047 136.0
179.358704 44.0
179.401352 72.0
179.606674 92.0
179.701172 176.0
179.982971 140.0
180.071091 76.0
180.124512 60.0
180.343628 100.0
180.509369 84.0
180.560181 152.0
180.621704 136.0
180.691254 80.0
180.899994 256.0
181.00174 132.0
181.023163 268.0
181.240128 164.0
181.317841 180.0
181.398254 96.0
181.513535 152.0
181.584503 52.0
181.789841 236.0
181.961624 164.0
182.085144 136.0
182.367249 200.0
182.469406 172.0
182.70607 236.0
183.169083 132.0
183.217575 108.0
183.640793 160.0
184.048279 148.0
184.1698 148.0
184.204926 76.0
184.348526 236.0
184.385956 140.0
184.652618 264.0
184.964767 92.0
185.057922 284.0
185.094238 156.0
185.257217 88.0
185.300568 144.0
185.484848 120.0
185.625824 100.0
185.75058 120.0
185.943237 108.0
186.032806 124.0
186.065674 296.0
186.141983 152.0
186.17128 60.0
186.336975 32.0
186.491867 180.0
186.554382 140.0
186.592438 192.0
186.6577 64.0
186.948059 216.0
187.088699 312.0
187.116623 204.0
187.334427 180.0
187.477081 80.0
187.580643 176.0
187.752426 204.0
187.905182 224.0
188.008865 184.0
188.067734 1092.0
188.134415 208.0
188.164459 88.0
188.191757 128.0
188.240906 52.0
188.396591 52.0
188.467621 124.0
188.525558 140.0
188.549606 112.0
188.591629 132.0
188.620667 296.0
188.666946 168.0
188.674911 156.0
188.724548 196.0
188.777451 140.0
188.817917 168.0
188.854324 168.0
188.899582 120.0
188.918732 176.0
188.969788 356.0
188.996536 284.0
189.102325 105816.0
189.173355 92.0
189.194153 56.0
189.212265 80.0
189.233459 72.0
189.266907 92.0
189.289658 92.0
189.297531 80.0
189.327927 72.0
189.353882 128.0
189.385452 88.0
189.421326 40.0
189.429977 72.0
189.511383 136.0
189.553299 536.0
189.586533 108.0
189.619522 60.0
189.62677 124.0
189.698578 160.0
189.739319 264.0
189.769928 60.0
189.806122 88.0
189.830795 48.0
189.879578 208.0
189.913071 48.0
189.932266 104.0
189.94989 88.0
189.972275 56.0
190.017319 56.0
190.04155 176.0
190.071609 1632.0
190.105759 21708.0
190.194168 72.0
190.223129 60.0
190.269989 72.0
190.378922 92.0
190.432693 144.0
190.45929 40.0
190.500977 160.0
190.522461 56.0
190.574661 88.0
190.599396 92.0
190.661819 56.0
190.698334 44.0
190.722565 44.0
190.743027 112.0
190.801147 128.0
190.847198 112.0
190.887558 48.0
190.911011 100.0
190.989777 112.0
191.027603 376.0
191.048828 284.0
191.078903 1396.0
191.116425 8512.0
191.187134 60.0
191.294754 48.0
191.324036 128.0
191.353027 304.0
191.370804 140.0
191.382797 64.0
191.38858 140.0
191.430283 136.0
191.484787 128.0
191.531754 160.0
191.546448 152.0
191.558578 100.0
191.593552 240.0
191.668716 52.0
191.691818 120.0
191.733154 248.0
191.821365 96.0
191.934402 80.0
192.019226 152.0
192.044708 88.0
192.086227 240.0
192.119781 2036.0
192.181229 140.0
192.214264 164.0
192.310074 68.0
192.370316 76.0
192.437592 108.0
192.464172 96.0
192.556229 112.0
192.602264 172.0
192.736404 108.0
192.768021 288.0
192.933868 44.0
193.037186 548.0
193.102539 240.0
193.125641 292.0
193.166153 52.0
193.218719 64.0
193.260223 72.0
193.415192 48.0
193.528702 72.0
193.553619 208.0
193.631165 68.0
193.681015 156.0
193.82785 32.0
193.861099 164.0
194.028366 160.0
194.127228 64.0
194.288986 88.0
194.315842 72.0
194.368561 56.0
194.654465 48.0
194.698898 92.0
194.912796 164.0
195.006821 164.0
195.028656 284.0
195.052872 260.0
195.282547 56.0
195.950638 160.0
196.003571 124.0
196.039795 176.0
196.287888 112.0
196.418976 116.0
196.765015 56.0
196.915802 184.0
197.08342 128.0
197.273453 140.0
197.337753 180.0
198.43248 144.0
198.701721 76.0
198.724167 80.0
198.800537 92.0
198.886932 68.0
199.073822 116.0
199.254807 124.0
199.482437 108.0
199.623016 44.0
199.6427 172.0
199.803024 164.0
199.980835 108.0
200.016907 108.0
200.067566 36.0
200.146408 136.0
200.298477 148.0
200.543625 120.0
200.907379 148.0
200.997665 140.0
201.042816 156.0
201.09079 208.0
201.45787 196.0
201.740463 56.0
201.912109 68.0
201.997803 60.0
202.29776 96.0
202.946533 100.0
203.017426 156.0
203.079285 588.0
203.118118 712.0
203.235855 64.0
203.264221 128.0
203.765778 56.0
204.039627 188.0
204.085114 136.0
204.124924 144.0
204.355743 136.0
205.111206 280.0
205.326691 88.0
205.446487 52.0
205.714737 76.0
206.006012 164.0
206.146011 112.0
206.829559 188.0
206.935471 104.0
207.029968 340.0
207.1073 128.0
207.867035 232.0
208.024277 648.0
208.067947 220.0
208.441345 260.0
208.579285 72.0
208.654037 156.0
208.941635 36.0
209.024551 180.0
209.085495 52.0
209.114288 100.0
209.465561 96.0
209.612503 156.0
210.019638 324.0
210.068024 128.0
210.272888 112.0
210.492294 124.0
211.28978 212.0
211.886429 160.0
211.950165 156.0
212.425644 144.0
212.631653 184.0
213.054092 1064.0
213.413071 204.0
213.69519 68.0
213.865768 156.0
214.055222 52.0
214.1064 176.0
214.265839 64.0
214.396957 152.0
215.069672 188.0
215.106903 384.0
215.611008 112.0
216.081863 148.0
216.119827 92.0
216.330551 220.0
216.585297 152.0
216.848999 184.0
217.095108 1132.0
217.238983 120.0
217.641068 180.0
217.755585 116.0
218.099335 544.0
218.547958 44.0
218.781815 92.0
218.837753 96.0
219.01947 276.0
219.117554 164.0
219.388672 76.0
219.441742 40.0
219.485977 124.0
220.016235 160.0
220.03772 180.0
220.114487 232.0
220.226715 164.0
220.584244 236.0
220.732071 132.0
220.939102 100.0
220.966797 212.0
221.03566 3648.0
221.1492 88.0
221.498596 36.0
221.605255 92.0
221.685257 108.0
222.041077 504.0
222.070663 248.0
222.634552 76.0
222.836533 180.0
223.031891 1304.0
223.077255 120.0
223.377609 132.0
223.475784 64.0
224.037384 296.0
224.059326 160.0
224.288788 76.0
224.32753 72.0
224.986816 200.0
226.155609 132.0
226.251404 124.0
226.407104 160.0
226.48497 132.0
227.150421 160.0
227.26442 44.0
227.714706 44.0
227.925003 188.0
228.65274 120.0
229.761612 116.0
230.552719 156.0
230.882248 104.0
230.924576 124.0
231.072815 96.0
231.112518 3464.0
231.299774 128.0
231.72374 88.0
231.960129 84.0
232.045013 68.0
232.071564 116.0
232.118988 4260.0
232.214828 236.0
232.245148 84.0
232.331253 116.0
232.454483 56.0
232.572845 72.0
232.621414 104.0
232.694275 80.0
232.843063 184.0
233.013763 104.0
233.039215 540.0
233.123306 1348.0
233.393097 56.0
233.758118 136.0
233.786896 96.0
233.840286 80.0
233.870728 80.0
234.019882 152.0
234.129456 324.0
235.006653 80.0
235.025726 284.0
235.080643 52.0
235.114212 52.0
235.718872 220.0
235.801376 96.0
235.920593 68.0
236.025589 140.0
237.026962 208.0
237.439331 52.0
237.825912 112.0
238.016251 256.0
238.351059 88.0
238.415588 152.0
238.683029 196.0
239.055237 152.0
239.110641 164.0
239.230682 120.0
239.433899 116.0
241.050003 400.0
241.199905 204.0
241.452286 136.0
241.709045 172.0
241.770935 52.0
241.93808 116.0
242.055725 132.0
243.022812 160.0
243.193497 128.0
245.820175 60.0
246.654068 100.0
247.012085 308.0
247.031723 216.0
247.148193 76.0
247.636551 84.0
247.830765 132.0
248.02507 108.0
249.030212 3048.0
249.120224 160.0
249.183044 60.0
249.513046 144.0
249.836975 40.0
249.896744 80.0
249.918777 164.0
250.03302 1216.0
250.431915 44.0
250.636673 84.0
250.850983 100.0
250.955032 160.0
251.029068 764.0
251.078003 184.0
251.12532 140.0
251.617584 84.0
251.753357 108.0
251.794418 88.0
252.030472 324.0
252.552963 56.0
252.739609 160.0
252.787079 108.0
252.935822 140.0
253.040298 172.0
253.56929 92.0
253.626343 48.0
254.168655 136.0
255.210083 156.0
255.261368 192.0
255.624008 104.0
255.690826 52.0
257.603943 136.0
258.019379 132.0
258.064148 256.0
258.444763 56.0
259.043457 120.0
261.014038 156.0
261.393616 68.0
261.673645 136.0
262.911438 128.0
264.107483 928.0
264.139191 184.0
265.032715 140.0
265.078491 160.0
265.108215 208.0
265.788239 136.0
265.823914 32.0
266.077087 128.0
266.37912 172.0
266.969696 132.0
267.074738 132.0
267.12027 168.0
267.334991 76.0
267.504242 104.0
267.946991 88.0
269.379303 188.0
271.18222 104.0
271.756104 60.0
272.071167 148.0
273.03064 152.0
273.962128 196.0
275.107208 172.0
275.439972 176.0
275.585327 156.0
276.072632 172.0
277.024597 696.0
278.022491 136.0
278.683289 116.0
278.826172 96.0
279.021118 332.0
279.161957 168.0
280.228271 56.0
281.150757 124.0
281.401093 92.0
282.279877 68.0
283.119843 116.0
283.816833 116.0
283.977814 140.0
284.095215 148.0
284.444214 192.0
284.591919 228.0
285.526093 224.0
285.939911 116.0
287.247253 176.0
287.314728 132.0
288.101318 108.0
288.395294 72.0
289.77597 180.0
289.904724 148.0
290.009796 192.0
290.097931 164.0
290.732208 52.0
291.003754 108.0
292.065643 168.0
292.230713 228.0
292.809418 48.0
294.067474 104.0
294.115265 136.0
294.378143 100.0
295.304321 176.0
296.303864 48.0
297.202148 108.0
298.387085 132.0
298.992493 180.0
299.553741 160.0
300.191345 108.0
301.244049 156.0
302.052979 460.0
302.985046 164.0
303.06131 220.0
303.188568 56.0
304.055145 292.0
304.546021 168.0
305.128937 132.0
305.807251 96.0
306.065369 136.0
306.545563 64.0
306.754669 48.0
306.901093 128.0
307.120819 32.0
307.208008 184.0
307.403412 40.0
308.059784 196.0
308.468658 104.0
309.269653 144.0
310.05069 152.0
310.902893 92.0
312.512268 128.0
312.966339 60.0
313.149445 152.0
313.198761 164.0
314.019989 124.0
314.291626 100.0
314.976532 60.0
315.566711 140.0
315.71167 168.0
316.12558 108.0
316.348541 120.0
316.433533 164.0
316.667236 136.0
317.521393 148.0
317.67746 132.0
317.989685 140.0
318.653748 124.0
318.9487 44.0
318.998444 44.0
319.108673 144.0
319.631531 92.0
319.998138 220.0
322.073608 88.0
322.995819 64.0
323.740265 148.0
326.025452 104.0
326.201569 136.0
327.140472 200.0
327.20166 208.0
327.424927 156.0
328.264587 76.0
330.062866 180.0
330.685089 160.0
331.543427 128.0
333.441498 96.0
334.43808 112.0
334.780304 132.0
335.151855 52.0
335.235657 40.0
337.290436 108.0
337.495178 188.0
337.758484 128.0
338.834747 44.0
339.461517 84.0
339.923737 52.0
339.967773 144.0
341.205597 48.0
341.510803 184.0
341.955994 48.0
342.254181 76.0
342.335205 216.0
342.453064 116.0
342.821472 88.0
343.201141 144.0
344.862366 144.0
345.25058 48.0
346.138702 48.0
347.135498 180.0
347.202271 116.0
347.807037 188.0
348.6427 56.0
348.884308 128.0
349.341705 172.0
349.762207 84.0
350.585297 184.0
353.123993 104.0
353.228729 60.0
354.033417 172.0
354.760315 60.0
355.056519 72.0
355.382874 96.0
355.930878 140.0
356.88028 168.0
357.359192 40.0
357.449493 128.0
357.686615 148.0
357.792023 160.0
358.409698 72.0
358.583038 92.0
358.673492 152.0
358.869537 92.0
358.918549 136.0
360.22818 124.0
362.471741 76.0
364.258667 128.0
364.437225 140.0
364.600647 136.0
366.080475 76.0
366.667175 196.0
369.236572 128.0
369.730072 48.0
370.783264 108.0
370.902069 140.0
372.410004 92.0
372.698151 144.0
373.828644 124.0
374.140411 40.0
374.540894 200.0
375.168152 204.0
375.438934 72.0
375.570068 120.0
376.013763 184.0
376.171997 104.0
376.218323 164.0
376.419098 156.0
376.569733 176.0
376.786041 120.0
376.886505 124.0
377.733154 80.0
379.991699 56.0
380.09259 156.0
380.795258 32.0
381.074951 32.0
381.537415 152.0
381.654053 120.0
383.651337 108.0
384.037384 88.0
384.642181 136.0
385.083405 112.0
385.16153 164.0
385.227936 132.0
385.377991 164.0
386.522034 88.0
388.080963 100.0
388.379028 240.0
388.51239 180.0
388.947968 84.0
389.061798 124.0
389.293457 164.0
389.411285 236.0
389.643036 152.0
389.847351 108.0
390.295471 124.0
390.484253 148.0
390.791077 76.0
391.011444 176.0
391.088562 180.0
391.196442 80.0
391.771393 160.0
393.108002 120.0
393.167206 96.0
393.51062 124.0
394.438995 112.0
394.589203 144.0
395.028198 168.0
395.633667 68.0
395.780151 108.0
396.806335 272.0
397.663177 32.0
398.265717 184.0
398.576569 88.0
398.954132 196.0
399.180756 156.0
400.67334 132.0
401.442627 216.0
401.618103 200.0
401.837524 172.0
402.519745 160.0
403.031342 160.0
403.163666 796.0
404.050873 188.0
404.162567 188.0
404.202911 48.0
404.403015 40.0
404.903473 68.0
405.15451 160.0
408.013245 48.0
409.320892 148.0
409.554474 28.0
409.723663 212.0
410.683044 184.0
411.397278 152.0
411.942444 152.0
412.694153 52.0
412.803345 148.0
413.1633 248.0
415.034485 76.0
415.659149 128.0
416.572662 120.0
416.76767 144.0
416.844849 208.0
417.056183 88.0
418.072968 120.0
419.408844 176.0
420.028625 80.0
420.244843 180.0
420.83667 164.0
421.065338 144.0
421.137909 156.0
422.172852 84.0
422.242371 120.0
422.455078 136.0
422.57373 56.0
423.99054 96.0
424.089569 248.0
424.261047 104.0
424.441467 184.0
425.08136 64.0
425.327606 144.0
426.074982 84.0
426.465363 168.0
427.544769 152.0
428.683655 140.0
428.757812 92.0
428.955658 176.0
429.380341 108.0
429.656708 216.0
430.771332 196.0
431.159729 92.0
431.58136 100.0
431.899811 52.0
432.155151 228.0
432.702637 200.0
433.009033 156.0
433.220306 52.0
433.522766 168.0
434.787628 80.0
437.701721 152.0
439.13678 696.0
439.485718 124.0
439.731903 156.0
440.142303 452.0
440.638062 84.0
440.780121 112.0
441.142487 240.0
441.193909 76.0
442.141449 100.0
442.42804 168.0
443.010132 116.0
443.16095 148.0
443.542297 156.0
444.016113 80.0
444.494324 56.0
445.153381 112.0
445.317169 132.0
445.409576 44.0
446.477142 40.0
448.156708 196.0
449.10379 164.0
449.121643 108.0
449.139191 152.0
450.118103 236.0
450.270111 140.0
451.165924 40.0
451.233551 144.0
451.301208 100.0
451.584534 172.0
452.134552 104.0
452.189575 60.0
452.371582 88.0
453.040649 48.0
453.074554 104.0
453.447449 72.0
454.316681 136.0
454.876831 128.0
455.360901 196.0
455.52655 168.0
456.172455 84.0
456.236237 152.0
456.321259 48.0
457.04007 116.0
457.25708 32.0
458.990906 52.0
459.07193 136.0
459.161499 120.0
459.47287 96.0
460.24115 76.0
460.565704 208.0
460.924561 180.0
460.984863 184.0
461.446014 80.0
461.597809 176.0
461.792389 144.0
462.130341 144.0
462.383789 176.0
463.256317 184.0
463.354828 136.0
463.427673 88.0
464.203522 104.0
464.297852 128.0
464.433228 112.0
464.486572 44.0
464.52948 76.0
464.569519 108.0
464.718231 188.0
464.791168 112.0
464.868408 96.0
464.928497 144.0
465.012268 108.0
465.083008 80.0
465.121643 88.0
465.246124 96.0
465.293335 68.0
465.365906 204.0
465.432526 144.0
465.572449 60.0
465.675537 40.0
465.831421 136.0
465.957214 120.0
466.01178 72.0
466.139496 148.0
466.221161 108.0
466.304535 100.0
466.347931 168.0
466.448944 96.0
466.491364 120.0
466.564148 100.0
466.638702 112.0
466.704224 132.0
466.781586 184.0
466.831604 152.0
466.865662 52.0
466.930511 108.0
466.980988 212.0
467.031036 204.0
467.062408 148.0
467.136047 55424.0
467.294586 148.0
467.35675 96.0
467.391907 84.0
467.432495 160.0
467.518768 76.0
467.593231 116.0
467.631653 136.0
467.675262 104.0
467.730072 96.0
467.785522 112.0
467.853271 168.0
467.948853 116.0
467.957275 124.0
468.022034 136.0
468.138092 16984.0
468.20697 276.0
468.241669 116.0
468.305267 228.0
468.385284 64.0
468.440735 92.0
468.457672 80.0
468.46759 156.0
468.559845 116.0
468.609589 136.0
468.749573 80.0
468.795807 100.0
468.837677 120.0
468.927582 112.0
468.998596 96.0
469.133545 15220.0
469.268524 152.0
469.321716 132.0
469.379669 56.0
469.480042 92.0
469.529633 52.0
469.561584 44.0
469.578308 56.0
469.590149 88.0
469.663483 112.0
469.707642 88.0
469.806213 36.0
469.924255 156.0
469.993347 32.0
470.071594 60.0
470.133789 4876.0
470.329987 96.0
470.389587 64.0
470.444672 168.0
470.483215 104.0
470.554443 52.0
470.611084 68.0
470.69693 52.0
470.742432 116.0
470.783295 92.0
470.82489 116.0
470.880493 84.0
470.969025 80.0
471.053284 144.0
471.140137 844.0
471.202301 80.0
471.323456 124.0
471.36853 80.0
471.426971 44.0
471.457245 80.0
471.511078 104.0
471.552307 68.0
471.643066 72.0
471.809235 160.0
471.885162 112.0
472.438751 60.0
472.598816 120.0
472.707001 148.0
472.791626 172.0
473.006378 136.0
473.076965 116.0
473.261047 80.0
473.568512 56.0
473.611816 84.0
473.811096 32.0
473.863098 100.0
473.962738 96.0
474.040741 60.0
474.18808 144.0
474.222748 68.0
474.50885 100.0
474.760345 68.0
474.933838 92.0
475.055298 48.0
475.137726 48.0
475.706207 44.0
475.997101 28.0
477.692108 128.0
478.562531 128.0
480.153076 60.0
482.773376 88.0
483.035797 80.0
483.315796 72.0
483.740326 108.0
484.830933 108.0
485.028168 68.0
485.374512 60.0
486.796234 56.0
487.04657 112.0
488.255249 40.0
488.514771 92.0
488.937164 48.0
490.421417 32.0
491.40921 52.0
491.899078 64.0
492.261108 32.0
492.477509 56.0
494.259094 52.0
494.967346 156.0
495.14447 56.0
495.724823 200.0
496.123718 84.0
496.301056 96.0
497.747589 60.0
501.141388 56.0
503.242157 76.0
503.929993 108.0
505.101257 80.0
511.9953 80.0
518.528137 96.0
523.03833 136.0
524.108582 84.0
525.047607 72.0
531.681274 76.0
536.063843 128.0
539.97406 72.0
549.21228 108.0
549.823486 44.0
555.278564 56.0
556.071472 124.0
556.540894 56.0
565.128723 88.0
572.719604 92.0
576.469543 52.0
582.588074 108.0
584.578613 120.0
584.77594 88.0
588.24646 76.0
589.676147 96.0
596.47168 112.0
598.519836 88.0
605.410034 148.0
624.495422 64.0
625.296509 200.0
627.996887 104.0
636.133057 60.0
641.273743 88.0
641.748657 96.0
642.251892 92.0
646.74884 124.0
649.074219 80.0
654.908447 64.0
666.218384 104.0
670.422119 76.0
672.294128 108.0
676.087341 64.0
689.829163 36.0
691.25177 32.0
692.398193 116.0
698.413025 96.0
704.68634 144.0
707.791138 80.0
712.357544 48.0
712.516907 72.0
715.937073 92.0
724.654602 48.0
725.077942 60.0
730.269714 60.0
731.431946 52.0
738.727539 112.0
741.635315 120.0
747.908875 68.0
754.241638 100.0
766.07251 108.0
781.229797 72.0
784.883362 148.0
787.026001 60.0
791.062561 56.0
797.344604 236.0
811.388672 140.0
815.430298 68.0
827.266113 60.0
831.215027 136.0
838.904724 44.0
862.291443 56.0
864.929321 196.0
870.070435 160.0
878.662903 100.0
889.611267 60.0
899.140747 56.0
906.676208 76.0
907.125732 44.0
911.122498 116.0
911.440918 156.0
917.568115 88.0
920.566895 172.0
921.255493 160.0
925.997681 188.0
930.776428 88.0
934.642334 48.0
940.511108 168.0
962.983765 100.0
966.488892 40.0
968.346069 60.0
972.978149 52.0
975.096313 88.0
977.241638 128.0
980.317688 88.0
984.035278 180.0
988.710938 32.0
992.641174 52.0
992.983643 272.0
993.692505 76.0
999.353455 108.0
999.825378 36.0
1003.094299 180.0
1005.825623 184.0
1006.867432 68.0
1010.299622 76.0
1017.010193 188.0
1030.485229 184.0
1038.084106 124.0
1043.688843 144.0
1045.065308 180.0
1045.110352 72.0
1048.336426 260.0
1048.852051 176.0
1050.599487 88.0
1053.821167 88.0
1062.827637 140.0
1064.307495 84.0
1064.417969 60.0
1067.875244 188.0
1076.88916 60.0
1078.790649 80.0
1079.411865 144.0
1082.624878 152.0
1087.332031 176.0
1092.858398 76.0
1093.042725 180.0
1094.155029 140.0
1099.692139 144.0
1104.184814 48.0
1106.116943 48.0
1107.560425 176.0
1111.219727 80.0
1119.78833 44.0
1119.941528 140.0
1122.814087 180.0
1125.282959 72.0
1127.814819 136.0
1129.667114 208.0
1133.10144 132.0
1133.222046 152.0
1136.494019 164.0
1138.494385 44.0
1138.695801 52.0
1141.699951 104.0
1145.179443 124.0
1145.536499 56.0
1148.664307 104.0
1148.832886 76.0
1149.683105 40.0
1149.730347 48.0
1151.377563 100.0
1156.928833 156.0
1157.280884 112.0
1158.77771 152.0
1161.848877 152.0
1166.555054 192.0
1169.745483 144.0
1169.901978 188.0
1171.727173 144.0
1176.835571 236.0
1177.743896 136.0
1177.989746 140.0
1183.262451 148.0
1186.345337 188.0
1189.89209 112.0
1192.371826 124.0
1192.853027 216.0
1197.421753 160.0
1197.924561 180.0
1204.781738 208.0
1206.143066 140.0
1206.813599 240.0
1206.98645 236.0
1207.048462 152.0
1208.653442 128.0
1210.640137 216.0
1217.658569 224.0
1218.207275 160.0
1223.367188 208.0
1223.993774 160.0
1224.362915 112.0
1225.379883 56.0
1228.942627 128.0
1230.408325 60.0
1234.020386 112.0
1234.307007 52.0
1239.641113 116.0
1241.828369 188.0
1243.126221 156.0
1246.096436 192.0
1247.136475 40.0
1249.471069 68.0
1250.87146 176.0
1251.469849 208.0
1255.959717 192.0
1256.939575 152.0
1258.443115 112.0
1260.519775 224.0
1260.682251 148.0
1261.95459 32.0
1266.150757 168.0
1266.859131 76.0
1267.192139 240.0
1269.928345 192.0
1271.226685 84.0
1273.328003 108.0
1275.822144 100.0
1276.959839 112.0
1279.101562 172.0
1279.400513 112.0
1279.671021 116.0
1282.819946 40.0
1283.490112 156.0
1283.839478 192.0
1285.408936 180.0
1285.72998 60.0
1288.671997 136.0
1289.786865 116.0
1290.158569 272.0
1291.041138 164.0
1291.159668 152.0
1295.948486 136.0
1296.514648 80.0
1298.192139 144.0
1298.314087 380.0
1300.021484 68.0
1301.49292 120.0
1306.157104 164.0
1308.755127 172.0
1310.123535 120.0
1311.471069 176.0
1313.244751 176.0
1313.324097 128.0
1313.48999 148.0
1313.634277 176.0
1313.836304 64.0
1318.450195 192.0
1319.1875 92.0
1320.481689 216.0
1320.901245 108.0
1322.681274 260.0
1325.766724 116.0
1326.28125 192.0
1326.339233 192.0
1326.766968 136.0
1329.842651 180.0
1331.55603 164.0
1332.27002 68.0
1333.89563 68.0
1334.622681 156.0
1335.432861 148.0
1336.6521 208.0
1336.921387 180.0
1338.201538 156.0
1338.522827 152.0
1338.843262 156.0
1341.072632 48.0
1341.823486 156.0
1342.377563 196.0
1344.471313 176.0
1344.704834 192.0
1345.653809 188.0
1345.843628 192.0
1347.706177 120.0
1348.108032 36.0
1348.539307 176.0
1349.248291 180.0
1350.966919 152.0
1351.984009 144.0
1354.861572 224.0
1357.118896 144.0
1357.184937 176.0
1360.310181 168.0
1360.802124 152.0
1361.367554 188.0
1362.403198 188.0
1362.968872 144.0
1363.549438 68.0
1369.015503 136.0
1370.628784 112.0
1371.424683 52.0
1372.221436 220.0
1374.551636 64.0
1375.739868 140.0
1378.657471 88.0
1383.494751 168.0
1384.005615 152.0
1385.234985 188.0
1385.946289 220.0
1388.919067 128.0
1389.549683 220.0
1392.123901 88.0
1392.70459 148.0
1394.272217 300.0
1399.308105 156.0
1400.030396 180.0
1401.155151 200.0
1401.304077 176.0
1402.936279 104.0
1403.301636 240.0
1404.576782 116.0
1411.963623 144.0
1412.457275 136.0
1414.791992 120.0
1415.465942 212.0
1418.432739 184.0
1418.620117 156.0
1420.112305 44.0
1420.2323 144.0
1420.292358 28.0
1421.335083 176.0
1423.827393 156.0
1423.955078 172.0
1424.060181 184.0
1426.547363 228.0
1427.930908 172.0
1427.991089 168.0
1428.156494 140.0
1428.780884 72.0
1429.202271 228.0
1431.97998 188.0
1437.053345 212.0
1437.400391 152.0
1439.144043 148.0
1439.227051 132.0
1440.314575 56.0
1441.674561 224.0
1443.284668 220.0
1443.904663 164.0
1445.803589 132.0
1446.393921 64.0
1446.787598 96.0
1446.87085 96.0
1447.741699 180.0
1449.036865 68.0
1450.112915 84.0
1450.401001 148.0
1451.378906 140.0
1451.53064 276.0
1452.668213 136.0
1453.920166 180.0
1454.064331 216.0
1454.595703 164.0
1455.71936 156.0
1455.84082 160.0
1458.446777 120.0
1458.568481 148.0
1459.42749 228.0
1460.552979 160.0
1461.427856 168.0
1461.64856 188.0
1461.838745 60.0
1462.729248 192.0
1463.40686 120.0
1465.61084 32.0
1466.591064 184.0
1467.017944 144.0
1467.917603 188.0
1468.573486 236.0
1470.015381 208.0
1470.099365 180.0
1470.603027 140.0
1471.138428 152.0
1471.381714 180.0
1471.75647 224.0
1471.855103 180.0
1472.603516 136.0
1474.192505 208.0
1474.32251 200.0
1475.461304 176.0
1475.568359 180.0
1475.958374 132.0
1477.098633 176.0
1477.281494 180.0
1477.931763 136.0
1478.758179 152.0
1480.182129 192.0
1480.595703 152.0
1481.668091 72.0
1482.572144 136.0
1483.384644 136.0
1483.987061 176.0
1484.419678 192.0
1485.761963 168.0
1487.235229 140.0
1488.486694 116.0
1488.739014 140.0
1489.147095 164.0
1489.431274 168.0
1491.390625 188.0
1491.521362 232.0
1492.697632 128.0
1493.335938 112.0
1493.597412 160.0
1494.559082 168.0
1494.797607 144.0
1496.178223 180.0
1498.37793 260.0
1499.206177 116.0
1499.448975 144.0
1500.882812 124.0
1501.947144 120.0
1503.474731 204.0
1503.852905 176.0
