>compound MLS002454380-01!
>formula C12H8O4
>ionization [M+H]+
>parentmass 217.049774
#inchi InChI=1S/C12H8O4/c1-14-12-7-2-3-11(13)16-10(7)6-9-8(12)4-5-15-9/h2-6H,1H3
#inchikey BGEBZHIAGXMEMV
#Ion_Source LC-ESI
#Instrument qTof
#Compound_Source NIH Natural Product Library
#PI Dorrestein
#Data_Collector VVP/LMS
#Scan -1
#Precursor_MZ 217.05
#ExactMass 216.042
#Charge 1
#CAS_Number N/A
#Pubmed_ID N/A
#Smiles COc1c2ccoc2cc3oc(=O)ccc13
#INCHI_AUX N/A
#Library_Class 1
#SpectrumID CCMSLIB00000080227
#IonMode Positive
#UpdateWorkflowName UPDATE-SINGLE-ANNOTATED-GOLD
#LibraryQualityString Gold
#TaskID b1d8e8f6646f4e71acdff9ca3d919d08
##Scan# 1976
#SpectrumFile p2-G05_GG5_01_18053.mzXML
#LibraryName NIH_Natural_Products_Library.mgf
#MQScore -1
#Organism NIH_Natural_Products_Library
#TIC_Query 0
#RT_Query -1
#MZErrorPPM -1
#SharedPeaks 0
#MassDiff 0
#LibMZ -1
#SpecMZ 217.05
#SpecCharge 0
#internalFilename spec-00000.mgf

>collision 10
94.991074 216.0
95.115265 48.0
95.605057 184.0
95.912788 100.0
95.963478 200.0
96.907524 120.0
97.103554 228.0
97.732185 128.0
98.781776 156.0
99.318596 148.0
99.614365 164.0
99.745514 172.0
100.030251 352.0
101.388191 140.0
102.026505 168.0
102.047752 520.0
102.535767 220.0
102.955406 216.0
103.065254 232.0
103.807388 60.0
104.09758 176.0
104.406471 120.0
105.031761 168.0
105.067192 152.0
105.290977 60.0
105.804222 128.0
106.060287 160.0
106.292038 152.0
106.519936 208.0
107.097946 64.0
107.671326 116.0
108.018578 164.0
108.530121 48.0
108.922371 56.0
110.211975 164.0
110.456581 76.0
110.584221 168.0
111.473442 88.0
113.004295 148.0
114.260323 200.0
114.658524 120.0
114.951263 252.0
115.055534 560.0
115.525436 120.0
115.604599 100.0
115.831551 168.0
116.155235 300.0
116.333351 132.0
116.462189 148.0
116.670631 200.0
116.771698 68.0
116.984718 128.0
117.033089 152.0
117.355286 40.0
117.586105 120.0
117.866852 40.0
118.040382 2128.0
118.130623 140.0
118.230156 40.0
119.014473 128.0
119.042404 648.0
119.132164 124.0
119.258194 132.0
119.924232 128.0
120.019394 172.0
120.109573 148.0
120.260132 104.0
120.419518 156.0
120.758293 172.0
120.925751 164.0
120.981491 148.0
121.562325 84.0
122.276573 168.0
122.68187 168.0
124.176666 120.0
125.497612 108.0
126.348564 200.0
126.386604 100.0
126.771759 48.0
127.013901 172.0
127.220352 276.0
127.595535 104.0
127.872215 132.0
128.020813 160.0
129.029373 156.0
129.21489 116.0
130.496353 176.0
131.022095 100.0
131.049988 484.0
132.052536 292.0
133.030029 180.0
133.885376 180.0
134.91217 124.0
135.002625 164.0
136.017151 144.0
136.605072 44.0
140.432648 100.0
140.548248 144.0
140.982742 216.0
141.955719 160.0
143.016068 272.0
143.04776 160.0
143.167709 152.0
144.894699 68.0
145.028442 1128.0
145.091232 52.0
145.167953 80.0
145.239914 80.0
145.631149 124.0
146.035919 3500.0
146.179306 44.0
146.30687 132.0
146.550125 48.0
147.005341 184.0
147.040512 176.0
147.259369 108.0
147.394653 136.0
147.74765 52.0
148.231918 116.0
149.019791 256.0
149.061829 140.0
149.180923 196.0
150.025665 160.0
151.034195 132.0
152.866913 140.0
153.73465 168.0
154.980652 144.0
155.173981 192.0
156.01889 464.0
156.505753 228.0
156.752365 156.0
157.024094 208.0
157.211212 128.0
157.248642 144.0
158.041412 500.0
158.599304 164.0
159.052322 324.0
159.201447 84.0
159.362213 104.0
160.006088 168.0
161.061584 196.0
161.231995 44.0
161.5177 176.0
161.973343 108.0
162.024002 108.0
162.060516 196.0
162.350983 180.0
163.031357 120.0
166.05162 172.0
167.004517 120.0
168.484177 96.0
170.362411 176.0
171.272873 152.0
171.496964 176.0
171.942963 64.0
173.021683 172.0
173.064285 512.0
173.578003 288.0
173.714386 252.0
173.840317 176.0
173.879684 172.0
173.913803 216.0
173.932175 156.0
173.97879 180.0
174.031555 8996.0
174.134354 136.0
174.21579 80.0
174.454926 92.0
174.515396 96.0
174.536438 52.0
174.670563 92.0
175.032425 1156.0
175.29982 40.0
175.518616 216.0
175.617325 148.0
176.035507 168.0
176.12561 124.0
176.186371 116.0
177.260605 96.0
177.485931 108.0
177.560181 112.0
178.02417 588.0
178.080383 184.0
178.168045 208.0
179.02478 208.0
179.181686 136.0
179.840347 208.0
180.497559 72.0
181.501709 192.0
182.132385 64.0
183.64241 208.0
183.769196 188.0
184.341644 108.0
184.609268 184.0
184.879807 172.0
185.953033 36.0
189.05307 156.0
190.975037 152.0
191.371323 128.0
193.137543 156.0
194.950775 112.0
195.159256 92.0
196.041656 144.0
196.1866 108.0
196.457108 52.0
197.918839 152.0
199.624954 228.0
200.816254 28.0
201.12381 196.0
201.293198 104.0
201.872498 392.0
201.90361 168.0
201.948654 160.0
201.99324 168.0
202.026794 18472.0
202.062576 192.0
202.118607 52.0
202.138412 36.0
202.22049 36.0
202.294083 84.0
202.328735 84.0
202.432053 108.0
202.57608 76.0
202.667923 72.0
202.803955 84.0
203.029404 1844.0
203.153748 56.0
203.237854 40.0
203.317307 100.0
203.419495 164.0
203.772125 120.0
204.031647 456.0
204.220795 116.0
204.269165 80.0
204.37442 60.0
204.428482 76.0
204.468338 92.0
204.519562 92.0
205.03508 120.0
206.35675 88.0
206.40535 64.0
207.757233 92.0
216.848343 192.0
216.948013 116.0
217.049774 1192.0
218.05101 500.0
220.031204 112.0
221.93663 32.0
270.43222 112.0
274.423615 108.0
284.155823 128.0
304.809662 132.0
338.546326 76.0
349.383698 124.0
355.068909 60.0
362.707947 84.0
363.379181 56.0
370.156342 80.0
388.031555 80.0
392.24588 84.0
399.301758 36.0
473.35022 88.0
480.980347 56.0
565.231628 32.0
629.588135 140.0
776.483154 20.0
861.099548 204.0
908.217102 224.0
920.953491 192.0
933.18866 172.0
985.678101 68.0
992.908508 196.0
1001.720642 92.0
1006.343384 196.0
1011.046387 232.0
1025.310303 64.0
1027.599487 120.0
1038.204956 156.0
1056.251953 160.0
1071.058105 132.0
1074.376221 208.0
1083.463379 144.0
1096.783447 200.0
1110.324219 124.0
1111.8302 112.0
1120.227905 248.0
1128.603638 188.0
1132.980835 216.0
1142.103516 208.0
1151.431519 128.0
1156.360229 140.0
1164.618408 116.0
1172.149536 116.0
1183.228149 168.0
1195.012329 144.0
1195.693604 108.0
1210.446045 64.0
1211.963013 224.0
1217.567993 148.0
1218.040283 124.0
1250.406616 188.0
1250.505127 44.0
1259.050049 204.0
1270.552246 112.0
1271.318604 172.0
1273.405762 160.0
1276.390503 196.0
1278.467651 124.0
1279.948364 176.0
1280.119263 228.0
1280.980957 72.0
1288.428711 236.0
1288.61438 208.0
1293.219727 112.0
1295.532593 168.0
1308.819458 104.0
1323.1875 96.0
1324.795166 216.0
1329.174316 200.0
1336.73877 116.0
1345.492554 56.0
1373.805664 152.0
1379.868774 72.0
1382.169067 240.0
1382.583496 168.0
1391.018188 128.0
1394.984863 196.0
1396.643066 208.0
1399.314575 156.0
1406.605469 144.0
1411.117676 160.0
1413.02478 160.0
1416.603271 148.0
1426.320801 132.0
1432.687012 136.0
1433.056152 144.0
1436.954102 220.0
1439.248535 208.0
1447.452637 176.0
1452.894653 176.0
1455.353638 124.0
1460.186646 144.0
1461.982056 180.0
1469.685913 164.0
1475.827026 124.0
1489.483643 160.0
1489.621826 88.0
1491.673584 232.0
1495.727295 108.0
1499.116089 160.0
1500.1875 156.0
1503.542725 120.0
