>compound MLS002472930-01!7-methoxy-8-(7-methoxy-2-oxochromen-6-yl)chromen-2-one
>formula C20H14O6
>ionization [M+H]+
>parentmass 351.087555
#inchi InChI=1S/C20H14O6/c1-23-14-6-3-11-4-7-18(22)26-20(11)19(14)13-9-12-5-8-17(21)25-15(12)10-16(13)24-2/h3-10H,1-2H3
#inchikey NFNSSVSQSNJVCR
#Ion_Source LC-ESI
#Instrument qTof
#Compound_Source NIH Natural Product Library
#PI Dorrestein
#Data_Collector VVP/LMS
#Scan -1
#Precursor_MZ 351.087
#ExactMass 350.079
#Charge 1
#CAS_Number N/A
#Pubmed_ID N/A
#Smiles COc1ccc2ccc(=O)oc2c1c3cc4ccc(=O)oc4cc3OC
#INCHI_AUX N/A
#Library_Class 1
#SpectrumID CCMSLIB00000080212
#IonMode Positive
#UpdateWorkflowName UPDATE-SINGLE-ANNOTATED-GOLD
#LibraryQualityString Gold
#TaskID b1d8e8f6646f4e71acdff9ca3d919d08
##Scan# 1966
#SpectrumFile p2-F05_GF5_01_18041.mzXML
#LibraryName NIH_Natural_Products_Library.mgf
#MQScore -1
#Organism NIH_Natural_Products_Library
#TIC_Query 0
#RT_Query -1
#MZErrorPPM -1
#SharedPeaks 0
#MassDiff 0
#LibMZ -1
#SpecMZ 351.087
#SpecCharge 0
#internalFilename spec-00000.mgf

>collision 10
95.013512 132.0
95.114418 168.0
95.149361 224.0
95.170723 108.0
95.186256 136.0
95.600319 60.0
95.623672 196.0
95.643135 216.0
95.752167 132.0
95.902191 172.0
96.296326 216.0
96.845932 200.0
97.245918 164.0
97.621162 160.0
97.640831 104.0
97.66153 160.0
97.709679 224.0
97.752968 56.0
98.095673 124.0
98.302765 156.0
98.62767 260.0
98.867958 184.0
99.091721 164.0
99.244339 176.0
99.657188 100.0
100.453545 56.0
100.597221 192.0
100.619179 48.0
100.637154 88.0
100.691071 136.0
101.249062 108.0
101.617897 212.0
101.650002 156.0
101.909027 160.0
102.043694 240.0
102.102005 200.0
102.502617 164.0
102.587265 164.0
102.817207 164.0
102.912086 116.0
103.041351 152.0
103.055496 172.0
103.211136 148.0
103.583519 140.0
103.609856 136.0
103.658485 160.0
103.936295 164.0
104.045891 152.0
104.560165 116.0
104.613091 124.0
104.663986 88.0
104.975761 92.0
105.028488 160.0
105.16346 212.0
105.189995 224.0
105.288002 176.0
105.34111 204.0
105.629341 196.0
105.733688 132.0
105.948036 228.0
105.999916 132.0
106.33419 152.0
106.529259 72.0
106.666939 136.0
107.045509 136.0
107.129959 52.0
107.449509 104.0
107.589844 124.0
107.616684 156.0
107.670464 192.0
107.752998 144.0
107.790192 292.0
107.970047 84.0
108.021751 184.0
108.040375 160.0
108.135559 132.0
108.197662 164.0
108.245285 144.0
108.276344 164.0
108.444168 204.0
108.574013 204.0
108.95256 68.0
109.156891 196.0
109.177048 216.0
109.320595 268.0
109.372627 156.0
109.39344 240.0
109.491302 128.0
109.657982 156.0
110.054344 108.0
110.215179 88.0
110.254883 72.0
110.744461 176.0
110.964493 116.0
111.033302 224.0
111.060959 152.0
111.193146 120.0
111.268715 204.0
111.361107 220.0
111.539711 28.0
111.579651 124.0
112.019493 156.0
112.137489 132.0
112.152245 176.0
112.192291 148.0
112.297729 192.0
112.411652 144.0
112.6101 168.0
112.637566 140.0
112.677704 192.0
112.810844 152.0
112.86158 192.0
112.901764 180.0
112.946175 84.0
113.005409 104.0
113.15992 176.0
113.522255 56.0
113.634682 180.0
113.802353 172.0
113.861816 132.0
114.014778 164.0
114.261444 228.0
114.440224 52.0
114.651108 168.0
115.056488 160.0
115.387535 40.0
115.559647 212.0
115.614273 168.0
115.894798 148.0
115.920509 144.0
116.085571 160.0
116.109161 196.0
116.205696 116.0
116.285095 148.0
116.716896 172.0
117.067657 184.0
117.207672 116.0
117.660614 168.0
117.792351 204.0
117.861481 116.0
118.017113 228.0
118.045219 188.0
118.07103 176.0
118.133904 156.0
118.452118 136.0
118.692688 132.0
119.011658 148.0
119.037712 116.0
119.055084 220.0
119.415863 180.0
119.635635 192.0
120.043053 456.0
120.134682 116.0
120.337654 64.0
120.39006 100.0
120.858513 200.0
120.949768 84.0
121.026398 512.0
121.066483 336.0
121.291481 224.0
121.33094 176.0
121.464714 92.0
121.482262 164.0
121.64904 176.0
121.745651 196.0
121.862076 128.0
122.147873 120.0
122.326111 156.0
122.40097 88.0
122.489067 72.0
122.676376 136.0
122.82412 64.0
123.047012 148.0
123.32093 152.0
123.495605 84.0
123.712456 132.0
124.031448 112.0
124.293144 128.0
124.452957 208.0
124.539574 144.0
124.717323 200.0
124.787323 144.0
124.844055 208.0
124.890762 172.0
125.151138 48.0
125.255814 140.0
125.49427 204.0
125.608009 116.0
125.728493 172.0
126.065712 168.0
126.486191 164.0
126.685493 152.0
126.712372 176.0
126.813217 184.0
126.941002 240.0
126.958946 176.0
127.261879 180.0
127.801323 84.0
127.825714 176.0
127.970131 40.0
128.062576 224.0
128.109116 208.0
128.241409 76.0
128.592316 148.0
129.037323 164.0
129.225052 148.0
129.268051 136.0
129.435562 180.0
129.551529 232.0
129.621307 80.0
129.952347 104.0
130.02951 132.0
130.161179 100.0
130.224213 228.0
130.554306 76.0
130.602066 116.0
130.6362 212.0
130.706726 168.0
130.891098 220.0
131.047424 152.0
131.390259 124.0
131.476974 180.0
131.550018 128.0
131.641342 176.0
131.691193 140.0
131.888092 132.0
132.004684 164.0
132.05101 140.0
132.066437 196.0
132.130493 172.0
132.302124 132.0
132.499084 140.0
132.904907 128.0
133.033432 148.0
133.0495 152.0
133.08165 188.0
133.251617 204.0
133.637878 112.0
133.734528 224.0
133.812469 168.0
134.037003 308.0
134.080002 176.0
134.587509 116.0
134.629074 216.0
134.716858 160.0
134.816208 116.0
134.862427 120.0
135.031021 176.0
135.202408 236.0
135.248703 132.0
135.285736 172.0
135.355194 148.0
135.586853 196.0
135.816391 184.0
136.176163 204.0
136.28302 140.0
136.343445 100.0
136.366684 156.0
136.536407 120.0
136.792358 180.0
137.055527 88.0
137.58963 124.0
137.886459 224.0
138.172073 168.0
138.258148 76.0
138.32135 160.0
138.719574 156.0
139.031525 96.0
139.060104 208.0
139.08551 96.0
139.155945 148.0
139.235779 56.0
139.734924 140.0
139.835312 124.0
140.07077 228.0
140.094315 152.0
140.115524 156.0
140.846832 40.0
140.882263 76.0
141.067795 152.0
141.142242 120.0
141.428497 68.0
141.641617 232.0
141.738754 128.0
141.766464 212.0
142.035095 156.0
142.092026 216.0
142.40538 128.0
142.778519 160.0
143.040253 144.0
143.128342 232.0
143.183105 100.0
143.788681 128.0
144.051331 104.0
144.125397 168.0
144.443359 156.0
144.529495 100.0
145.03241 212.0
145.049194 228.0
145.145096 212.0
145.183456 96.0
145.632263 136.0
145.716339 80.0
146.012009 124.0
146.039795 224.0
146.074554 180.0
146.134689 136.0
146.362289 160.0
146.544006 100.0
146.724762 140.0
146.765762 144.0
146.811172 192.0
146.932175 164.0
147.042969 348.0
147.086624 124.0
147.105942 144.0
147.122833 220.0
147.24115 92.0
147.537903 228.0
147.564957 144.0
147.589142 52.0
147.661682 28.0
147.794739 180.0
147.864914 132.0
148.03923 136.0
148.346939 124.0
148.604004 128.0
148.654968 88.0
148.895309 140.0
149.554199 108.0
149.62236 168.0
149.671051 152.0
149.795258 224.0
149.882965 36.0
149.997513 128.0
150.053589 248.0
150.116989 96.0
150.297501 192.0
150.759018 112.0
150.791107 160.0
150.915466 104.0
150.935028 288.0
151.030411 92.0
151.049973 164.0
151.191895 176.0
151.510208 208.0
151.569016 76.0
151.966232 104.0
152.061218 428.0
152.410645 208.0
152.845871 132.0
152.941864 120.0
153.069565 300.0
153.109283 172.0
153.404953 108.0
153.594833 132.0
153.626907 56.0
154.06633 168.0
154.142929 148.0
154.182465 172.0
154.397552 188.0
154.494019 152.0
154.615265 140.0
154.70932 164.0
154.745255 188.0
154.949554 188.0
154.989197 144.0
155.01149 140.0
155.048676 364.0
155.083664 136.0
155.147812 192.0
155.425598 104.0
155.59935 180.0
155.721024 240.0
155.855179 152.0
155.944641 132.0
155.98938 60.0
156.257965 92.0
156.305237 164.0
156.606476 72.0
156.628891 200.0
157.067612 60.0
157.481949 180.0
157.84433 128.0
157.894348 116.0
157.956879 96.0
158.124512 180.0
158.197815 128.0
158.357361 176.0
158.61795 116.0
158.695663 84.0
158.999191 196.0
159.054626 212.0
159.077011 188.0
159.207565 60.0
159.285431 120.0
159.360794 92.0
159.421112 248.0
160.01265 160.0
160.065308 1032.0
160.117981 160.0
160.185989 152.0
160.274155 72.0
160.395126 152.0
160.55397 40.0
160.68515 124.0
161.047363 244.0
161.063843 280.0
161.417633 108.0
161.536514 92.0
161.627594 128.0
161.728821 192.0
161.769211 192.0
161.847809 172.0
162.070709 144.0
162.172073 60.0
162.23291 196.0
162.400269 132.0
162.994339 164.0
163.027374 172.0
163.050247 408.0
163.072083 156.0
163.101074 172.0
163.172256 176.0
163.218018 220.0
163.441864 84.0
163.580246 140.0
164.035278 136.0
164.063446 160.0
164.160217 172.0
164.359177 184.0
165.069702 1276.0
165.248352 224.0
165.330246 88.0
165.37886 96.0
165.409576 32.0
165.683594 160.0
165.862976 132.0
165.886047 192.0
165.973221 176.0
166.050156 128.0
166.081482 540.0
166.270798 144.0
166.291321 124.0
166.542953 196.0
166.596893 156.0
167.049332 88.0
167.084045 644.0
167.134247 188.0
167.211441 208.0
167.738983 236.0
167.989609 128.0
168.055405 340.0
168.147003 36.0
168.198624 196.0
168.299301 156.0
168.335464 84.0
168.376785 56.0
168.596375 204.0
168.738541 336.0
168.911819 48.0
169.020477 180.0
169.047409 204.0
169.069641 232.0
169.307816 72.0
169.424377 80.0
169.610962 224.0
169.903351 128.0
169.97757 56.0
170.002213 136.0
170.106415 128.0
170.147949 140.0
170.244019 72.0
170.288177 216.0
170.514206 100.0
170.677979 116.0
170.703995 124.0
170.748199 180.0
170.784088 200.0
170.83403 120.0
170.966736 144.0
171.049164 292.0
171.349503 100.0
171.370346 168.0
171.534531 144.0
172.004074 188.0
172.142456 88.0
172.286102 184.0
172.351425 168.0
172.557907 148.0
172.717438 172.0
172.788071 40.0
173.02623 216.0
173.047165 204.0
173.093506 160.0
173.188583 152.0
173.214783 192.0
173.597443 180.0
173.694473 184.0
173.788925 76.0
173.823029 144.0
173.904388 72.0
174.051041 200.0
174.061172 172.0
174.127563 92.0
174.230011 152.0
174.406067 152.0
174.498077 180.0
174.690063 148.0
175.036514 480.0
175.171799 92.0
175.612 136.0
175.641006 84.0
175.883774 80.0
176.059326 868.0
176.213867 192.0
176.338074 56.0
176.472885 192.0
176.634216 152.0
177.031219 140.0
177.06839 504.0
177.113327 128.0
177.211349 204.0
177.489655 124.0
177.688583 160.0
177.887619 76.0
178.023254 432.0
178.080872 712.0
178.118317 64.0
178.211624 44.0
178.272751 200.0
178.66951 148.0
178.924423 148.0
179.053818 108.0
179.085922 964.0
179.114944 176.0
179.139389 172.0
179.18808 176.0
179.214722 52.0
179.339981 180.0
179.409286 168.0
179.438614 36.0
179.595688 124.0
179.62262 172.0
179.649307 172.0
179.686646 220.0
179.961563 120.0
180.054581 196.0
180.089478 444.0
180.252716 84.0
180.271408 140.0
180.323898 176.0
180.463867 104.0
180.616302 208.0
180.972244 180.0
181.064377 1216.0
181.099777 180.0
181.395538 124.0
181.500259 128.0
181.537643 168.0
181.746872 176.0
181.8918 188.0
181.964279 216.0
182.06662 332.0
182.101227 164.0
182.146896 168.0
182.224792 208.0
182.340347 148.0
182.434433 72.0
182.48819 68.0
182.944992 224.0
183.037109 116.0
183.077332 132.0
183.115204 128.0
183.2957 48.0
183.343491 228.0
183.514023 84.0
183.724396 124.0
184.020981 108.0
184.049866 204.0
184.055481 120.0
184.066513 164.0
184.250839 160.0
184.66983 104.0
184.71312 80.0
184.8078 120.0
184.999954 140.0
185.058167 152.0
185.100143 120.0
185.308701 56.0
185.55806 192.0
185.72348 76.0
185.807571 156.0
185.875397 156.0
185.910675 160.0
185.981247 204.0
186.034348 176.0
186.062683 180.0
186.421219 116.0
186.502762 124.0
186.886215 36.0
187.041 312.0
187.082169 104.0
187.163849 200.0
187.280945 132.0
187.613403 224.0
187.711548 116.0
187.760635 96.0
187.779724 112.0
187.90155 176.0
187.935226 88.0
188.044388 140.0
188.118088 128.0
188.18634 172.0
188.344727 204.0
188.519577 144.0
188.552383 172.0
188.858597 152.0
189.006332 200.0
189.070328 844.0
189.647171 96.0
189.729401 84.0
189.85553 112.0
189.91861 80.0
190.076447 528.0
190.107925 152.0
190.46759 32.0
190.626938 160.0
190.784119 196.0
190.80835 124.0
190.885345 36.0
190.984344 180.0
191.047623 156.0
191.087357 928.0
191.132904 172.0
191.174179 176.0
191.287033 152.0
191.664352 248.0
191.857285 168.0
192.056213 648.0
192.090546 348.0
192.317947 72.0
192.348312 88.0
192.378677 68.0
192.549866 144.0
192.643784 36.0
192.828918 144.0
193.066116 684.0
193.146896 108.0
193.216049 192.0
193.33226 48.0
193.387619 152.0
193.473434 116.0
193.900009 104.0
194.069031 752.0
194.113464 108.0
194.273499 84.0
194.443588 96.0
194.654587 148.0
194.712906 96.0
194.97406 208.0
195.041992 296.0
195.082031 864.0
195.268753 184.0
195.313263 268.0
195.723251 224.0
195.881119 128.0
195.970261 116.0
196.034348 148.0
196.062134 184.0
196.087708 688.0
196.689774 40.0
196.801437 160.0
197.058899 772.0
197.095154 144.0
197.164597 48.0
197.226074 140.0
197.522476 96.0
197.998291 156.0
198.020706 132.0
198.064545 156.0
198.099136 252.0
198.690659 148.0
199.035965 180.0
199.471359 108.0
199.536011 124.0
199.555695 152.0
199.859467 148.0
200.033325 212.0
200.052078 220.0
200.205704 172.0
200.580444 164.0
200.942917 128.0
200.98938 156.0
201.051987 172.0
201.078552 168.0
201.119202 128.0
201.14743 92.0
201.419724 168.0
201.932938 132.0
201.96405 156.0
202.023453 116.0
202.075775 620.0
202.170578 168.0
202.615128 44.0
202.878693 156.0
203.040253 672.0
203.062149 216.0
203.084213 284.0
203.267273 160.0
203.304153 176.0
203.457428 56.0
203.775528 44.0
203.892029 184.0
203.957397 148.0
204.05661 232.0
204.110916 180.0
204.172028 132.0
204.295792 204.0
204.568985 104.0
204.675659 240.0
204.830963 192.0
205.027573 52.0
205.065475 3896.0
205.349731 104.0
205.498077 84.0
205.53801 32.0
205.829178 156.0
205.911987 192.0
206.036331 176.0
206.069366 836.0
206.354919 192.0
206.569412 60.0
206.643784 68.0
206.723907 52.0
206.778275 228.0
206.99585 76.0
207.0159 144.0
207.047272 236.0
207.083481 1664.0
207.182022 136.0
207.285172 40.0
207.342484 156.0
207.385483 120.0
207.574692 164.0
207.616394 104.0
207.852936 32.0
207.953384 176.0
207.999313 100.0
208.050446 256.0
208.085434 1124.0
208.191681 72.0
208.226135 68.0
208.326675 168.0
208.540497 88.0
208.622681 52.0
208.72905 104.0
208.812454 220.0
209.059753 1460.0
209.099152 776.0
209.198029 68.0
209.223938 52.0
209.264236 136.0
209.521927 224.0
209.58107 56.0
209.635635 184.0
209.730942 192.0
209.77417 56.0
209.840485 148.0
209.87796 68.0
210.065643 736.0
210.097885 180.0
210.472366 104.0
210.610992 88.0
210.839233 216.0
210.859467 80.0
210.937515 92.0
210.977982 144.0
211.02713 136.0
211.066101 152.0
211.113907 476.0
211.168839 148.0
211.437897 220.0
211.811401 80.0
212.047012 140.0
212.08725 160.0
212.106369 156.0
212.800323 156.0
213.008759 140.0
213.050812 144.0
213.721695 120.0
214.063049 136.0
214.161301 160.0
214.341507 220.0
214.499298 72.0
214.580933 140.0
214.630493 128.0
214.785065 128.0
214.928024 160.0
215.056427 132.0
215.100204 100.0
215.266632 136.0
215.409744 172.0
215.637146 140.0
215.813049 120.0
215.836441 120.0
216.085068 160.0
216.210892 176.0
216.292831 200.0
216.872803 176.0
216.928497 144.0
216.987137 208.0
217.061356 424.0
217.139618 100.0
217.321487 184.0
217.344971 168.0
218.073608 252.0
218.190857 176.0
218.617355 156.0
219.078766 1380.0
219.200424 36.0
219.330109 132.0
219.365479 120.0
219.68692 252.0
220.05542 544.0
220.088425 804.0
220.114883 28.0
220.141449 120.0
220.262543 64.0
220.289139 72.0
220.365952 44.0
220.395493 68.0
220.430954 68.0
220.652634 176.0
220.980927 180.0
221.059982 10808.0
221.134811 148.0
221.158493 32.0
221.224716 160.0
221.309464 176.0
221.424957 128.0
221.469391 36.0
221.667877 48.0
221.703445 144.0
221.899078 80.0
221.931686 292.0
221.970245 192.0
222.065643 2344.0
222.109924 160.0
222.225327 172.0
222.34465 76.0
222.630341 164.0
222.841187 120.0
222.975677 152.0
223.037949 596.0
223.074722 968.0
223.413727 88.0
223.547623 56.0
223.568451 40.0
223.616074 140.0
223.648804 140.0
223.6875 56.0
223.773834 160.0
223.967407 120.0
224.049423 288.0
224.081619 1020.0
224.301147 124.0
224.372681 68.0
224.497925 172.0
224.685837 72.0
224.845978 136.0
224.87085 220.0
225.002182 68.0
225.050812 140.0
225.089508 728.0
225.24707 104.0
225.273956 112.0
225.465179 156.0
225.590714 136.0
225.779083 76.0
226.02124 148.0
226.030853 176.0
226.057556 136.0
226.082245 132.0
226.203964 116.0
226.224915 208.0
226.35965 96.0
226.455475 108.0
227.099899 116.0
227.168884 108.0
227.583054 212.0
227.745224 80.0
227.880402 124.0
228.084763 120.0
228.620117 212.0
228.875992 92.0
228.897064 216.0
229.017532 136.0
229.043991 168.0
229.060349 168.0
229.086823 168.0
229.116943 144.0
229.228424 160.0
229.25856 148.0
229.28569 52.0
229.436401 116.0
229.484634 136.0
229.572083 124.0
229.603439 212.0
229.650497 168.0
229.843567 152.0
230.077866 192.0
230.196747 160.0
230.96138 104.0
231.075211 288.0
231.523468 180.0
231.578857 200.0
231.757584 116.0
232.013412 196.0
232.051651 448.0
232.09404 224.0
232.236572 48.0
232.26387 88.0
232.524811 120.0
232.628006 120.0
232.691772 160.0
232.76767 64.0
232.886124 164.0
233.022812 148.0
233.059479 1900.0
233.19133 176.0
233.213181 100.0
233.505188 140.0
233.779953 80.0
233.816483 132.0
234.066864 948.0
234.133102 112.0
234.2854 136.0
234.352432 192.0
234.392044 140.0
234.504791 112.0
234.544418 104.0
234.577957 116.0
234.648071 180.0
234.910339 76.0
234.931702 116.0
235.075165 3756.0
235.148346 72.0
235.288757 112.0
235.370956 204.0
235.404785 84.0
235.444489 64.0
235.468918 68.0
235.554443 60.0
235.575821 80.0
235.676651 240.0
235.713318 112.0
235.785675 124.0
235.926697 152.0
236.051926 360.0
236.082687 1716.0
236.21167 176.0
236.248367 68.0
236.281204 88.0
236.340164 120.0
236.407486 100.0
236.43808 156.0
236.529907 204.0
236.82692 272.0
236.857544 84.0
236.980087 120.0
237.004608 64.0
237.05452 3388.0
237.127182 72.0
237.314178 112.0
237.458298 44.0
237.532471 88.0
237.765106 68.0
237.998413 180.0
238.060104 404.0
238.096176 148.0
238.173462 56.0
238.253326 180.0
238.579086 52.0
238.665176 108.0
238.948151 116.0
239.028763 20.0
239.065781 104.0
239.10585 436.0
239.329803 52.0
239.396622 40.0
239.526901 40.0
239.597748 168.0
239.656296 176.0
239.69635 108.0
239.779556 72.0
239.852036 116.0
240.03447 268.0
240.077255 236.0
240.112778 132.0
240.198883 164.0
240.242081 116.0
240.596985 152.0
241.023209 216.0
241.053192 256.0
241.081924 176.0
241.122101 128.0
241.270462 84.0
241.313751 100.0
241.378677 192.0
241.660156 56.0
241.68837 168.0
241.759171 116.0
242.05777 744.0
242.183334 56.0
242.505569 152.0
242.828018 108.0
243.257339 156.0
243.318314 184.0
243.507721 176.0
243.585373 76.0
243.821518 160.0
244.063995 144.0
244.129288 208.0
244.228821 148.0
244.434158 152.0
244.845078 84.0
245.059326 512.0
245.14415 80.0
245.200241 48.0
245.306213 244.0
245.434052 148.0
245.474579 196.0
245.533829 168.0
245.708511 172.0
245.852051 196.0
245.939438 64.0
246.029968 104.0
246.073776 776.0
246.398483 168.0
246.742279 140.0
246.807938 140.0
247.039139 588.0
247.074066 876.0
247.189545 80.0
247.599655 192.0
247.662292 196.0
247.765671 112.0
247.919205 144.0
248.04567 2348.0
248.076828 432.0
248.201324 136.0
248.285995 56.0
248.386368 76.0
248.42041 244.0
248.45224 200.0
248.624817 184.0
248.690735 172.0
248.715836 152.0
248.778625 60.0
248.963867 148.0
248.991623 288.0
249.055084 20900.0
249.134842 176.0
249.204498 64.0
249.260132 108.0
249.301453 96.0
249.325165 48.0
249.369156 72.0
249.391159 76.0
249.419449 104.0
249.444595 116.0
249.48703 72.0
249.575592 24.0
249.620667 60.0
249.683563 52.0
249.859711 128.0
250.017761 52.0
250.059387 5100.0
250.141449 68.0
250.171265 40.0
250.196457 140.0
250.227936 40.0
250.253128 184.0
250.574387 208.0
250.624802 76.0
250.659454 108.0
250.713028 44.0
250.753998 96.0
250.832718 168.0
250.922119 120.0
251.067612 1652.0
251.108124 416.0
251.271149 164.0
251.365799 148.0
251.498352 72.0
251.580429 48.0
251.788834 84.0
251.880432 52.0
251.948578 264.0
251.990997 128.0
252.043976 508.0
252.078583 2084.0
252.297562 96.0
252.515747 172.0
252.885925 72.0
253.011322 244.0
253.051788 1012.0
253.08432 248.0
253.231033 184.0
253.291214 120.0
253.319733 156.0
253.341904 36.0
253.414764 96.0
253.449631 36.0
253.547867 28.0
253.589066 128.0
253.652451 64.0
253.79512 176.0
253.823654 120.0
253.852203 128.0
253.874405 124.0
253.969543 108.0
254.020294 112.0
254.050461 220.0
254.096436 200.0
254.242401 120.0
254.315399 92.0
254.521744 176.0
254.85527 92.0
255.052307 148.0
255.07785 108.0
255.500687 56.0
255.831665 180.0
255.904877 60.0
256.080536 172.0
256.644104 156.0
256.688721 32.0
256.784393 260.0
257.081543 740.0
257.49295 220.0
257.633484 64.0
258.078308 168.0
258.218445 132.0
258.244019 148.0
258.38797 96.0
259.438416 208.0
259.505737 108.0
259.576294 140.0
259.611572 60.0
260.002533 152.0
260.045135 272.0
260.083191 96.0
260.189117 184.0
260.221252 84.0
260.590607 100.0
260.62915 120.0
260.79306 160.0
260.818756 92.0
260.944153 96.0
261.056183 5648.0
261.111969 128.0
261.16925 164.0
261.249664 76.0
261.294708 160.0
261.490997 132.0
261.545715 168.0
261.683807 148.0
261.726013 60.0
261.767853 152.0
261.816162 204.0
261.861267 176.0
262.060242 2484.0
262.234985 104.0
262.270447 64.0
262.325256 168.0
262.370392 192.0
262.478333 156.0
262.618683 208.0
262.744476 176.0
262.800446 128.0
262.854187 68.0
263.028717 148.0
263.07074 4152.0
263.286774 48.0
263.506409 80.0
263.541962 128.0
263.650452 140.0
263.687378 68.0
263.748779 168.0
263.794037 156.0
263.834229 120.0
263.861938 116.0
263.93631 36.0
264.017151 160.0
264.07901 2496.0
264.217682 92.0
264.28241 36.0
264.382721 100.0
264.460388 72.0
264.515411 76.0
264.576935 44.0
264.661224 116.0
264.907257 44.0
265.005768 184.0
265.051727 2952.0
265.116455 68.0
265.169708 204.0
265.215088 84.0
265.256409 48.0
265.282501 180.0
265.351227 76.0
265.380402 52.0
265.500397 96.0
265.523102 176.0
265.837769 52.0
266.056061 1204.0
266.178619 116.0
266.282562 80.0
266.340424 108.0
266.743958 68.0
266.799225 60.0
266.903259 144.0
266.995392 144.0
267.02359 164.0
267.058197 176.0
267.103394 1316.0
267.150421 52.0
267.173218 100.0
267.553986 108.0
267.929993 192.0
267.980621 44.0
268.02951 172.0
268.055573 60.0
268.114105 196.0
268.606567 116.0
268.906738 100.0
269.047791 172.0
269.115662 112.0
269.341431 288.0
269.651398 208.0
270.040497 160.0
270.571838 116.0
270.796539 112.0
270.940674 116.0
271.068451 160.0
271.830811 100.0
272.827728 184.0
273.054291 132.0
273.353973 172.0
273.439545 112.0
273.475739 276.0
273.940033 112.0
274.061462 328.0
274.322296 68.0
274.431091 160.0
274.460754 124.0
274.873077 60.0
275.03714 400.0
275.069977 620.0
275.411224 208.0
275.74823 148.0
276.042786 2368.0
276.073547 820.0
276.128448 44.0
276.300446 100.0
276.498993 144.0
276.588348 132.0
276.626709 68.0
276.700928 84.0
276.730713 204.0
276.856537 64.0
276.919464 32.0
276.942657 128.0
277.049683 8600.0
277.108276 344.0
277.399933 180.0
277.423126 152.0
277.466217 64.0
277.525909 96.0
277.615448 88.0
277.738159 92.0
277.847626 44.0
277.898956 76.0
277.986969 128.0
278.053223 1208.0
278.09613 472.0
278.136322 76.0
278.209351 76.0
278.255829 88.0
278.318939 112.0
278.362091 128.0
278.414062 80.0
278.74411 60.0
278.79538 112.0
278.96347 136.0
279.033905 608.0
279.066101 2820.0
279.146332 120.0
279.172943 104.0
279.262726 72.0
279.42572 100.0
279.472321 68.0
279.572144 120.0
279.648682 44.0
279.816925 136.0
280.029694 304.0
280.07251 2200.0
280.391418 84.0
280.431396 60.0
280.68811 132.0
280.731445 40.0
280.788147 100.0
280.974945 80.0
281.043335 300.0
281.076904 612.0
281.355408 224.0
281.476898 120.0
281.562439 136.0
281.719421 176.0
281.943298 60.0
282.07312 312.0
282.337769 60.0
282.638855 52.0
283.068817 204.0
283.1008 116.0
283.161072 128.0
283.579895 72.0
283.838013 128.0
283.884979 168.0
284.149963 108.0
284.317719 160.0
284.673584 188.0
284.707153 84.0
285.446472 88.0
286.9617 104.0
287.08606 152.0
287.201111 32.0
287.859222 44.0
287.93692 140.0
288.180115 124.0
288.572205 80.0
288.800537 204.0
289.054047 984.0
289.560303 164.0
289.668701 52.0
289.726288 144.0
289.865204 68.0
290.00415 116.0
290.053986 504.0
290.092285 160.0
290.129578 36.0
290.340454 84.0
290.516174 44.0
290.753693 152.0
291.066956 2676.0
291.184875 252.0
291.276581 184.0
291.361511 48.0
291.776123 64.0
292.073517 2176.0
292.140015 60.0
292.170624 80.0
292.211456 56.0
292.378204 144.0
292.399933 88.0
292.582428 128.0
292.759491 64.0
293.044678 2740.0
293.321655 60.0
293.608063 144.0
294.048004 2056.0
294.379333 76.0
294.43396 40.0
294.731171 84.0
294.808777 152.0
294.919128 64.0
295.057922 688.0
295.095215 1516.0
295.373901 172.0
295.47995 112.0
295.51416 44.0
295.551788 68.0
295.654449 156.0
295.818756 52.0
296.061951 136.0
296.103394 440.0
296.253662 76.0
296.38385 128.0
297.07782 528.0
297.230804 128.0
297.347473 100.0
297.385223 44.0
297.560303 120.0
298.041168 112.0
298.140808 96.0
298.225861 124.0
298.56369 48.0
298.64621 40.0
299.090088 140.0
299.303528 104.0
299.896088 148.0
300.040863 136.0
300.437469 36.0
300.875763 96.0
300.95517 152.0
301.155457 136.0
302.023041 208.0
302.047241 368.0
302.112976 88.0
302.400177 192.0
302.912628 96.0
303.028931 360.0
303.120514 108.0
303.210632 48.0
303.35965 104.0
303.491394 180.0
303.692535 208.0
303.799408 104.0
303.869476 40.0
304.036774 672.0
304.098022 120.0
304.199158 36.0
304.358856 88.0
304.417908 96.0
304.522095 32.0
304.595032 76.0
304.647125 60.0
304.727051 132.0
304.765259 160.0
304.855591 148.0
304.928589 112.0
304.99527 308.0
305.045685 33188.0
305.144012 164.0
305.181549 52.0
305.194336 80.0
305.25885 24.0
305.304047 36.0
305.367065 104.0
305.40448 32.0
305.434418 92.0
305.493622 64.0
305.590576 140.0
305.662354 72.0
305.705933 168.0
305.739746 68.0
305.81897 56.0
305.85495 96.0
305.916443 32.0
306.048401 6876.0
306.094788 144.0
306.131134 212.0
306.188019 40.0
306.22287 76.0
306.341278 92.0
306.42334 152.0
306.484131 56.0
306.508514 64.0
306.5336 80.0
306.588684 80.0
306.633972 36.0
306.703674 48.0
306.742035 332.0
306.860565 56.0
306.897034 104.0
306.960663 68.0
307.056458 1852.0
307.097473 1352.0
307.152893 68.0
307.17337 184.0
307.237213 48.0
307.317474 36.0
307.415161 36.0
307.470795 68.0
307.616364 196.0
307.666473 112.0
307.739807 76.0
307.795654 56.0
307.873749 100.0
307.942627 96.0
307.9758 116.0
307.989014 84.0
308.000549 132.0
308.067444 3224.0
308.198151 104.0
308.22879 96.0
308.253265 104.0
308.306061 112.0
308.368591 136.0
308.455963 72.0
308.641266 92.0
308.749664 180.0
308.777649 28.0
308.851105 64.0
308.931549 136.0
308.98053 68.0
309.074127 1232.0
309.138 116.0
309.190491 124.0
309.291992 68.0
309.351501 64.0
309.477539 52.0
309.558075 96.0
309.673645 68.0
309.82077 68.0
310.009979 144.0
310.041504 104.0
310.083008 276.0
310.12561 28.0
310.325439 40.0
310.535858 44.0
310.581451 128.0
310.897217 76.0
311.065674 196.0
311.237701 44.0
311.638123 64.0
311.789246 112.0
312.073975 136.0
313.066284 160.0
313.644073 68.0
313.940247 196.0
314.109528 140.0
314.254181 152.0
314.571808 144.0
314.695374 184.0
316.020813 56.0
316.183594 244.0
317.040253 300.0
317.221375 168.0
317.734833 112.0
318.051392 552.0
318.168579 32.0
318.882568 232.0
318.950104 168.0
319.060516 3532.0
319.46463 104.0
319.632935 48.0
319.828674 80.0
319.988892 228.0
320.020416 116.0
320.067719 800.0
320.138428 32.0
320.801147 40.0
320.851074 108.0
320.943756 136.0
321.037933 2856.0
321.378906 208.0
321.6073 72.0
321.887695 60.0
322.041992 1312.0
322.546722 104.0
322.628937 64.0
322.702759 68.0
322.81488 68.0
322.904297 88.0
323.087585 1232.0
323.172577 56.0
324.060516 76.0
324.099945 256.0
324.289886 144.0
324.548004 64.0
325.093231 128.0
325.452179 112.0
326.167114 96.0
326.26059 184.0
326.483521 72.0
326.929596 48.0
327.059174 132.0
328.082214 100.0
328.374298 232.0
329.814941 100.0
330.180115 116.0
330.849518 64.0
331.102966 156.0
331.990875 140.0
332.100067 164.0
333.039764 100.0
333.087616 156.0
333.835693 84.0
334.075745 128.0
334.556122 40.0
334.756378 96.0
334.967621 136.0
335.057007 4604.0
335.134155 184.0
335.191132 216.0
335.448608 104.0
335.601746 44.0
335.669769 104.0
335.736664 32.0
335.762177 228.0
336.062408 4720.0
336.133514 152.0
336.192688 60.0
336.302155 164.0
336.554047 56.0
336.740295 44.0
336.937561 60.0
337.065125 1016.0
338.034271 144.0
338.040314 188.0
338.069702 440.0
338.722778 128.0
339.16983 152.0
339.301788 124.0
339.474121 36.0
340.531067 88.0
341.692688 64.0
342.520996 92.0
343.741333 80.0
343.804047 52.0
344.67926 136.0
346.529297 112.0
349.083038 148.0
349.187195 168.0
349.488495 108.0
349.533142 164.0
349.57782 48.0
349.860687 292.0
350.111328 64.0
350.154846 68.0
350.22934 144.0
350.65213 132.0
351.087555 14360.0
351.149841 264.0
351.188629 132.0
351.224548 56.0
351.302887 32.0
351.34021 52.0
351.377502 36.0
351.478943 64.0
351.549164 60.0
351.605133 56.0
351.713379 60.0
351.761902 48.0
351.817902 56.0
351.978424 96.0
352.090363 2248.0
352.378082 64.0
352.415466 64.0
352.49765 56.0
352.591095 56.0
352.658356 56.0
352.68454 48.0
352.755554 48.0
353.02475 88.0
353.09549 128.0
353.141998 68.0
353.245422 96.0
353.776794 40.0
353.995911 108.0
354.112518 104.0
354.302612 100.0
354.383514 72.0
354.42099 116.0
354.515015 80.0
354.5784 104.0
354.908264 44.0
355.778717 40.0
355.831268 56.0
356.409698 32.0
357.221771 72.0
357.985809 68.0
360.267731 56.0
365.051056 56.0
365.394836 32.0
368.695557 44.0
369.08548 148.0
371.835999 92.0
372.289032 64.0
372.477234 96.0
374.273254 116.0
379.780304 44.0
381.741608 164.0
387.072083 140.0
390.797089 100.0
395.509094 60.0
412.02951 124.0
415.941437 80.0
435.603851 116.0
442.08728 120.0
447.02652 72.0
451.058533 44.0
455.635315 88.0
461.033997 48.0
470.358551 32.0
472.891449 104.0
474.940887 96.0
477.186035 72.0
477.9646 88.0
478.656708 68.0
479.358032 44.0
483.414825 56.0
483.567993 40.0
484.89505 76.0
485.943085 40.0
492.13147 84.0
500.672089 44.0
504.102661 148.0
509.26825 104.0
511.327454 32.0
518.331726 68.0
521.208557 108.0
524.695007 60.0
531.441101 84.0
534.036682 136.0
538.872375 76.0
540.777588 108.0
548.57196 60.0
548.758423 92.0
556.412659 36.0
567.628235 60.0
572.161011 96.0
578.682739 116.0
586.58075 72.0
597.116882 92.0
602.806091 60.0
604.439331 64.0
606.937439 96.0
613.062378 104.0
621.220581 112.0
625.543884 100.0
626.07666 60.0
629.342834 136.0
635.925781 44.0
639.751038 76.0
641.564636 76.0
646.352661 44.0
662.774353 140.0
666.386475 128.0
674.33783 160.0
685.021606 108.0
687.414734 92.0
691.245056 32.0
702.240723 40.0
712.552612 80.0
731.215088 148.0
748.767578 72.0
748.936401 80.0
765.834106 48.0
772.286377 40.0
786.784302 48.0
796.460876 60.0
801.980652 56.0
804.208557 100.0
822.063232 88.0
824.107483 80.0
825.284912 64.0
844.423035 72.0
860.437927 100.0
871.536865 68.0
874.094666 80.0
875.407349 88.0
875.919739 88.0
889.698364 52.0
906.859985 64.0
932.523865 76.0
966.461853 168.0
980.520996 60.0
982.878174 160.0
988.771057 76.0
1001.195312 56.0
1030.329224 92.0
1072.742798 72.0
1073.499146 108.0
1079.036133 76.0
1090.073975 96.0
1104.492554 68.0
1120.35791 148.0
1125.720459 44.0
1148.613525 104.0
1162.035278 72.0
1164.282104 88.0
1169.102051 148.0
1169.598877 56.0
1192.966064 64.0
1204.05249 172.0
1207.355957 184.0
1211.910767 120.0
1211.97998 104.0
1229.915527 172.0
1237.164429 128.0
1258.099731 252.0
1267.067139 168.0
1270.87439 64.0
1273.742554 156.0
1277.005005 48.0
1278.299805 160.0
1310.738281 132.0
1319.956055 128.0
1321.894653 44.0
1356.182495 88.0
1368.236816 140.0
1370.755859 128.0
1378.747803 72.0
1379.69397 160.0
1388.452026 104.0
1388.57959 184.0
1404.585815 64.0
1412.608276 136.0
1413.633301 176.0
1416.463379 116.0
1426.50354 168.0
1435.553467 40.0
1440.829468 236.0
1463.742798 180.0
1466.995972 124.0
1470.634521 148.0
1470.756592 36.0
1476.066162 208.0
1487.581421 60.0
1489.946655 108.0
