>compound MLS001158986-01!(3S)-N-[(2S)-3-(1H-indol-3-yl)-1-[(2-methoxyphenyl)methylamino]-1-oxopropan-2-yl]-1,2,3,4-tetrahydroisoquinoline-3-carboxamide
>formula C29H30N4O3
>ionization [M+H]+
>parentmass 483.24
#inchi InChI=1S/C29H30N4O3/c1-36-27-13-7-4-10-21(27)17-32-28(34)26(15-22-18-30-24-12-6-5-11-23(22)24)33-29(35)25-14-19-8-2-3-9-20(19)16-31-25/h2-13,18,25-26,30-31H,14-17H2,1H3,(H,32,34)(H,33,35)/t25-,26-/m0/s1
#inchikey LODQYOITCVKOKK
#Ion_Source LC-ESI
#Instrument qTof
#Compound_Source NIH Natural Product Library
#PI Dorrestein
#Data_Collector VVP/LMS
#Scan -1
#Precursor_MZ 483.24
#ExactMass 482.232
#Charge 1
#CAS_Number N/A
#Pubmed_ID N/A
#Smiles COc1ccccc1CNC(=O)[C@H](Cc2c[nH]c3ccccc23)NC(=O)[C@@H]4Cc5ccccc5CN4
#INCHI_AUX N/A
#Library_Class 1
#SpectrumID CCMSLIB00000079627
#IonMode Positive
#UpdateWorkflowName UPDATE-SINGLE-ANNOTATED-GOLD
#LibraryQualityString Gold
#TaskID b1d8e8f6646f4e71acdff9ca3d919d08
##Scan# 1846
#SpectrumFile p1-A09_GA9_01_17881.mzXML
#LibraryName NIH_Natural_Products_Library.mgf
#MQScore -1
#Organism NIH_Natural_Products_Library
#TIC_Query 0
#RT_Query -1
#MZErrorPPM -1
#SharedPeaks 0
#MassDiff 0
#LibMZ -1
#SpecMZ 483.24
#SpecCharge 0
#internalFilename spec-00000.mgf

>collision 10
95.023102 160.0
95.077431 112.0
95.10479 188.0
95.2052 208.0
95.256058 128.0
95.304672 156.0
95.343491 84.0
95.374413 136.0
95.396553 120.0
95.447723 180.0
95.464012 152.0
95.504852 132.0
95.540703 140.0
95.570999 52.0
95.618408 176.0
95.646896 176.0
95.676094 168.0
95.691322 224.0
95.715034 164.0
95.736786 208.0
95.806572 156.0
95.845535 108.0
95.946884 120.0
95.960533 172.0
96.007324 160.0
96.030731 152.0
96.05291 252.0
96.077545 132.0
96.119255 132.0
96.16053 172.0
96.188774 156.0
96.208298 148.0
96.259056 180.0
96.280327 184.0
96.366486 48.0
96.40361 124.0
96.438789 184.0
96.461624 264.0
96.493523 120.0
96.509163 88.0
96.554138 152.0
96.567825 72.0
96.614769 128.0
96.691261 192.0
96.755264 248.0
96.779167 188.0
96.800705 52.0
96.861725 128.0
96.879051 68.0
97.010345 184.0
97.053474 140.0
97.0672 128.0
97.090179 184.0
97.107956 240.0
97.229416 168.0
97.247681 108.0
97.279091 164.0
97.296753 48.0
97.321465 308.0
97.397766 128.0
97.541771 160.0
97.563896 212.0
97.634712 160.0
97.650452 108.0
97.691757 156.0
97.713394 48.0
97.73259 164.0
97.762581 148.0
97.77636 220.0
97.808929 208.0
97.827538 132.0
97.853127 100.0
97.929924 136.0
97.957497 68.0
97.973259 136.0
98.000839 148.0
98.018578 56.0
98.123039 156.0
98.144669 152.0
98.16185 152.0
98.188103 156.0
98.209801 160.0
98.237411 180.0
98.262054 116.0
98.309509 244.0
98.328178 44.0
98.349884 432.0
98.383995 72.0
98.427643 196.0
98.448601 172.0
98.556351 192.0
98.616524 232.0
98.637184 152.0
98.659935 136.0
98.69326 220.0
98.77668 176.0
98.794487 156.0
98.811768 132.0
98.826141 44.0
98.861755 192.0
98.877586 176.0
98.895401 164.0
98.91124 176.0
98.933968 232.0
98.958786 192.0
98.994049 188.0
99.105309 100.0
99.150887 132.0
99.176857 220.0
99.198456 164.0
99.291641 160.0
99.343216 160.0
99.382889 188.0
99.419128 152.0
99.462273 180.0
99.533745 132.0
99.549271 332.0
99.591866 208.0
99.62709 148.0
99.682716 168.0
99.786072 92.0
99.817154 120.0
99.843559 132.0
99.865616 152.0
99.917336 48.0
99.943764 184.0
99.996124 168.0
100.030762 148.0
100.056641 60.0
100.076553 144.0
100.104927 192.0
100.120361 116.0
100.170151 112.0
100.247856 140.0
100.303658 52.0
100.317612 152.0
100.346214 184.0
100.361954 272.0
100.375427 168.0
100.393372 136.0
100.413315 152.0
100.44043 188.0
100.48114 136.0
100.495102 76.0
100.513062 132.0
100.550972 140.0
100.58091 152.0
100.604866 148.0
100.652786 140.0
100.682739 112.0
100.700653 140.0
100.772621 100.0
100.834572 128.0
100.858551 268.0
100.922523 152.0
100.945091 448.0
100.972519 44.0
101.078537 200.0
101.154587 112.0
101.186623 108.0
101.227509 208.0
101.236412 244.0
101.283615 128.0
101.334824 36.0
101.358864 140.0
101.386925 160.0
101.404816 172.0
101.458221 140.0
101.483139 128.0
101.497169 128.0
101.531258 84.0
101.563545 164.0
101.595444 152.0
101.614502 136.0
101.642464 212.0
101.663666 156.0
101.725883 160.0
101.755997 196.0
101.804184 196.0
101.86042 172.0
101.880508 100.0
101.89859 60.0
101.930733 136.0
101.978195 136.0
102.011909 200.0
102.033913 128.0
102.044296 104.0
102.0634 140.0
102.089539 116.0
102.18206 148.0
102.226326 180.0
102.259819 308.0
102.278656 140.0
102.377304 136.0
102.391403 80.0
102.431686 140.0
102.522346 176.0
102.544518 84.0
102.560707 128.0
102.625153 108.0
102.653381 176.0
102.66951 156.0
102.701782 80.0
102.747856 152.0
102.781578 288.0
102.857147 144.0
102.904404 176.0
102.982971 300.0
103.030807 160.0
103.054924 1644.0
103.077278 212.0
103.144501 136.0
103.173813 168.0
103.20462 172.0
103.279442 32.0
103.293602 168.0
103.309784 164.0
103.36441 144.0
103.41095 96.0
103.448669 240.0
103.566856 148.0
103.591164 84.0
103.620285 148.0
103.633926 72.0
103.664101 196.0
103.686386 60.0
103.714325 176.0
103.73909 100.0
103.761391 188.0
103.83033 136.0
103.860748 136.0
103.874947 172.0
103.929726 152.0
103.945961 216.0
103.988571 168.0
104.012932 128.0
104.057442 220.0
104.067482 156.0
104.070374 188.0
104.128662 260.0
104.144287 288.0
104.222107 132.0
104.262741 184.0
104.281036 124.0
104.339981 76.0
104.392845 64.0
104.415215 132.0
104.447762 152.0
104.514893 164.0
104.551521 200.0
104.604439 92.0
104.649223 196.0
104.665512 164.0
104.694298 148.0
104.753494 140.0
104.776505 164.0
104.797829 164.0
104.840576 132.0
104.878609 160.0
104.901924 168.0
104.971161 168.0
105.036423 180.0
105.069153 3196.0
105.165886 160.0
105.184021 200.0
105.197624 164.0
105.21804 124.0
105.252747 204.0
105.273956 248.0
105.336479 148.0
105.374825 452.0
105.428421 144.0
105.48156 172.0
105.502007 164.0
105.54435 140.0
105.600151 92.0
105.614471 168.0
105.64106 116.0
105.718811 164.0
105.768517 172.0
105.84552 124.0
105.876945 176.0
105.929688 176.0
105.962463 148.0
105.999344 204.0
106.045242 284.0
106.073395 468.0
106.134628 212.0
106.155136 120.0
106.183846 156.0
106.205406 156.0
106.237495 180.0
106.349068 200.0
106.374664 180.0
106.393135 132.0
106.465584 260.0
106.48143 128.0
106.51429 104.0
106.543465 180.0
106.61702 176.0
106.643959 224.0
106.670456 136.0
106.742416 152.0
106.775314 108.0
106.789711 72.0
106.816452 68.0
106.841141 272.0
106.925499 180.0
106.952255 192.0
107.050453 364.0
107.097786 200.0
107.131401 144.0
107.15612 148.0
107.195267 148.0
107.271034 184.0
107.301277 180.0
107.358124 156.0
107.41713 412.0
107.455292 180.0
107.469505 260.0
107.564438 120.0
107.578888 148.0
107.593338 160.0
107.609856 160.0
107.628433 96.0
107.676788 192.0
107.723434 144.0
107.744904 184.0
107.777153 164.0
107.853615 216.0
107.879753 192.0
107.885139 256.0
107.903229 108.0
107.930107 176.0
107.94458 180.0
107.959053 336.0
107.973526 104.0
107.994164 176.0
108.016335 184.0
108.052132 100.0
108.066612 348.0
108.085236 212.0
108.120415 112.0
108.157616 172.0
108.178368 116.0
108.196815 228.0
108.236336 112.0
108.288109 168.0
108.325386 296.0
108.388756 376.0
108.451782 160.0
108.481003 212.0
108.559593 192.0
108.596916 320.0
108.61351 96.0
108.628029 168.0
108.642555 156.0
108.673676 144.0
108.708946 184.0
108.725548 100.0
108.744225 156.0
108.764214 140.0
108.793968 228.0
108.810654 132.0
108.825813 172.0
108.856476 184.0
108.947716 116.0
108.966415 172.0
109.003815 244.0
109.020439 124.0
109.084869 156.0
109.111893 156.0
109.163872 208.0
109.188828 188.0
109.222885 192.0
109.244987 108.0
109.276192 152.0
109.303192 184.0
109.35318 196.0
109.369835 176.0
109.396896 204.0
109.419792 176.0
109.43853 148.0
109.471558 144.0
109.499336 180.0
109.531952 188.0
109.565491 100.0
109.626137 120.0
109.644753 228.0
109.690605 132.0
109.711449 244.0
109.750343 204.0
109.784424 72.0
109.830307 160.0
109.851166 160.0
109.865768 136.0
109.917931 88.0
109.934624 128.0
110.012527 148.0
110.120422 144.0
110.14669 132.0
110.214172 164.0
110.259689 124.0
110.277122 148.0
110.296227 292.0
110.331467 304.0
110.34819 168.0
110.364922 172.0
110.381981 200.0
110.395912 136.0
110.404778 128.0
110.534447 244.0
110.584572 148.0
110.615967 40.0
110.756256 176.0
110.854721 160.0
110.915497 156.0
110.963715 84.0
110.986778 216.0
111.004616 152.0
111.041298 96.0
111.076958 140.0
111.100029 188.0
111.139893 184.0
111.230133 144.0
111.295212 68.0
111.351913 108.0
111.416847 124.0
111.460335 228.0
111.486366 228.0
111.513359 156.0
111.559929 136.0
111.576485 224.0
111.597771 96.0
111.66716 160.0
111.702919 156.0
111.728165 256.0
111.808121 204.0
111.864571 180.0
111.8881 124.0
111.982857 116.0
112.035797 180.0
112.102936 116.0
112.173912 212.0
112.224258 172.0
112.299004 152.0
112.313766 140.0
112.360443 124.0
112.453018 60.0
112.505783 128.0
112.522675 132.0
112.579681 116.0
112.632484 180.0
112.674423 220.0
112.70005 144.0
112.725441 180.0
112.797302 164.0
112.814209 96.0
112.84346 148.0
112.891663 164.0
112.966461 100.0
112.990906 144.0
113.013008 332.0
113.042633 172.0
113.068024 156.0
113.127289 100.0
113.161163 180.0
113.271278 200.0
113.29174 152.0
113.328476 92.0
113.364502 120.0
113.386223 128.0
113.415367 84.0
113.434441 156.0
113.517128 104.0
113.54174 236.0
113.563782 188.0
113.5905 200.0
113.674095 92.0
113.72715 152.0
113.767487 160.0
113.814194 140.0
113.867279 204.0
113.89489 192.0
113.957504 208.0
113.98674 136.0
114.030869 164.0
114.04644 172.0
114.079758 204.0
114.115898 164.0
114.139282 124.0
114.183266 128.0
114.200958 144.0
114.239243 96.0
114.288177 180.0
114.320953 176.0
114.342384 76.0
114.366913 200.0
114.39093 212.0
114.462463 236.0
114.513458 164.0
114.571335 136.0
114.58625 144.0
114.644707 156.0
114.673668 152.0
114.699188 244.0
114.746086 192.0
114.760811 128.0
114.784218 172.0
114.801529 140.0
114.839912 112.0
114.856979 180.0
114.87191 168.0
114.906433 152.0
114.940178 128.0
114.961517 208.0
114.984993 140.0
115.054131 6936.0
115.083183 140.0
115.107948 160.0
115.122269 132.0
115.15152 136.0
115.181419 196.0
115.204918 104.0
115.273285 116.0
115.294655 184.0
115.419876 172.0
115.423935 100.0
115.432632 220.0
115.45285 168.0
115.510597 180.0
115.546967 124.0
115.570496 164.0
115.592903 144.0
115.610062 172.0
115.651817 96.0
115.675362 184.0
115.70105 176.0
115.731026 160.0
115.748238 200.0
115.771706 196.0
115.810257 148.0
115.844879 156.0
115.884789 192.0
115.928085 192.0
115.943085 128.0
115.98381 172.0
116.028824 384.0
116.057228 740.0
116.123177 164.0
116.165741 208.0
116.185379 144.0
116.247597 140.0
116.320572 92.0
116.382828 68.0
116.408592 184.0
116.44725 164.0
116.65567 148.0
116.694366 188.0
116.7257 216.0
116.761597 180.0
116.813896 172.0
116.85997 192.0
116.893242 200.0
116.913765 188.0
116.946053 232.0
116.97403 84.0
117.014748 140.0
117.05777 10188.0
117.112244 212.0
117.131721 144.0
117.162453 128.0
117.180275 136.0
117.212006 184.0
117.228493 160.0
117.261635 144.0
117.294983 140.0
117.333786 124.0
117.355347 204.0
117.390923 88.0
117.444763 224.0
117.519264 68.0
117.553787 140.0
117.605644 132.0
117.644402 160.0
117.671356 144.0
117.729057 204.0
117.745911 88.0
117.771088 140.0
117.803825 148.0
117.832314 160.0
117.925232 160.0
117.996567 64.0
118.062416 1108.0
118.139915 168.0
118.189056 160.0
118.204201 136.0
118.24099 60.0
118.359482 200.0
118.405525 124.0
118.433685 56.0
118.476936 128.0
118.492172 160.0
118.534729 280.0
118.615692 168.0
118.697044 84.0
118.716705 108.0
118.753372 216.0
118.810852 144.0
118.82695 72.0
118.867264 168.0
118.887878 120.0
118.936714 164.0
118.95842 164.0
119.001839 104.0
119.030067 244.0
119.050217 368.0
119.06781 324.0
119.103905 272.0
119.140831 152.0
119.160385 36.0
119.179939 68.0
119.27121 128.0
119.294159 244.0
119.319145 172.0
119.334251 200.0
119.39296 40.0
119.414711 196.0
119.462563 272.0
119.54306 72.0
119.584412 184.0
119.621414 112.0
119.63665 92.0
119.686729 36.0
119.715034 180.0
119.748375 232.0
119.775612 196.0
119.846367 136.0
119.901558 116.0
119.943794 176.0
119.98085 124.0
120.023346 188.0
120.028061 104.0
120.051949 184.0
120.100784 196.0
120.120415 284.0
120.263573 144.0
120.406334 168.0
120.461472 148.0
120.498077 148.0
120.527161 180.0
120.561844 132.0
120.600319 132.0
120.61554 112.0
120.623169 148.0
120.652939 200.0
120.659363 80.0
120.670212 184.0
120.673279 220.0
120.694786 120.0
120.71228 144.0
120.759872 68.0
120.784447 124.0
120.823822 160.0
120.841324 84.0
120.856644 156.0
120.895058 308.0
120.93116 156.0
120.950714 184.0
120.988556 284.0
121.039726 340.0
121.065407 80800.0
121.111572 132.0
121.135826 152.0
121.170303 152.0
121.201408 244.0
121.227516 164.0
121.259331 112.0
121.26474 100.0
121.283173 208.0
121.316216 92.0
121.336136 116.0
121.351753 204.0
121.407074 224.0
121.425697 536.0
121.459526 160.0
121.527008 148.0
121.567085 248.0
121.617065 136.0
121.634621 68.0
121.66246 176.0
121.702606 112.0
121.736511 216.0
121.772949 48.0
121.80854 188.0
121.830879 128.0
121.860451 168.0
121.919472 144.0
121.923569 100.0
121.9328 100.0
121.957504 72.0
121.983879 204.0
122.040459 152.0
122.068138 7724.0
122.115112 152.0
122.155029 76.0
122.18222 124.0
122.199799 68.0
122.249451 224.0
122.258179 168.0
122.26799 112.0
122.296219 96.0
122.315109 176.0
122.375465 148.0
122.396019 152.0
122.41951 44.0
122.434921 164.0
122.449059 124.0
122.474564 208.0
122.497292 160.0
122.524071 84.0
122.583817 224.0
122.626587 72.0
122.677574 248.0
122.706482 180.0
122.736649 224.0
122.768753 124.0
122.800865 84.0
122.840469 152.0
122.879807 168.0
122.897919 96.0
122.915771 212.0
122.95401 104.0
122.983887 224.0
123.008377 168.0
123.068832 624.0
123.095657 172.0
123.129227 140.0
123.159439 220.0
123.208488 208.0
123.288666 208.0
123.318687 96.0
123.361603 136.0
123.383713 180.0
123.40361 68.0
123.445618 32.0
123.472153 40.0
123.507416 144.0
123.553215 216.0
123.579803 140.0
123.604881 152.0
123.621353 216.0
123.706024 268.0
123.775322 236.0
123.79525 196.0
123.817398 116.0
123.843971 72.0
123.863907 112.0
123.913094 216.0
123.961388 92.0
124.032303 144.0
124.072205 144.0
124.151947 120.0
124.216347 88.0
124.231873 84.0
124.289558 112.0
124.333939 228.0
124.365868 136.0
124.382767 212.0
124.398308 48.0
124.422592 136.0
124.431396 128.0
124.541153 252.0
124.574196 116.0
124.603973 144.0
124.607765 88.0
124.624306 136.0
124.644829 200.0
124.692024 168.0
124.717934 156.0
124.780403 160.0
124.835991 388.0
124.892853 152.0
124.941528 80.0
124.998375 172.0
125.08239 160.0
125.104225 172.0
125.185364 136.0
125.261086 128.0
125.296234 164.0
125.352425 108.0
125.391289 164.0
125.423744 120.0
125.463867 116.0
125.495079 204.0
125.553055 156.0
125.6222 148.0
125.651199 108.0
125.669044 124.0
125.762077 168.0
125.791786 184.0
125.823044 204.0
125.938705 196.0
126.026283 44.0
126.128044 168.0
126.200615 160.0
126.28112 48.0
126.361877 236.0
126.460106 116.0
126.489204 148.0
126.513351 188.0
126.543358 208.0
126.567093 152.0
126.603081 148.0
126.636978 124.0
126.731064 160.0
126.760193 100.0
126.794807 144.0
126.829666 172.0
126.853477 232.0
126.870857 128.0
126.904625 192.0
126.939522 128.0
127.116592 332.0
127.134682 116.0
127.160133 140.0
127.224777 140.0
127.250435 228.0
127.30304 36.0
127.329994 192.0
127.350967 188.0
127.379402 148.0
127.401871 100.0
127.419838 144.0
127.478821 160.0
127.53894 140.0
127.556107 232.0
127.58165 140.0
127.66259 112.0
127.709114 192.0
127.732307 164.0
127.750305 104.0
127.796745 212.0
127.892067 108.0
127.940071 172.0
127.975357 48.0
128.04837 184.0
128.101471 232.0
128.201233 144.0
128.302032 140.0
128.338104 204.0
128.352707 128.0
128.374176 160.0
128.410263 184.0
128.428314 144.0
128.44635 172.0
128.543365 144.0
128.559158 100.0
128.615585 184.0
128.685562 108.0
128.70137 68.0
128.744263 76.0
128.762329 28.0
128.798477 172.0
128.830093 228.0
128.875275 112.0
128.893356 216.0
128.916962 224.0
128.945328 196.0
128.974716 124.0
129.053833 172.0
129.072479 400.0
129.09906 144.0
129.135498 212.0
129.157867 68.0
129.227997 176.0
129.288101 176.0
129.324493 260.0
129.366394 100.0
129.390945 120.0
129.411316 160.0
129.429031 244.0
129.482422 84.0
129.515488 48.0
129.544937 164.0
129.569855 76.0
129.654602 228.0
129.712616 44.0
129.739822 228.0
129.788803 160.0
129.797043 200.0
129.821442 228.0
129.837311 108.0
129.932526 168.0
129.946014 104.0
129.951492 156.0
129.973114 164.0
129.993607 236.0
130.016693 280.0
130.065781 86320.0
130.118729 176.0
130.147491 192.0
130.178192 172.0
130.208649 160.0
130.239563 156.0
130.261597 60.0
130.266586 164.0
130.304626 288.0
130.350616 372.0
130.377884 244.0
130.438034 612.0
130.466629 148.0
130.487534 68.0
130.50946 76.0
130.556091 192.0
130.570496 176.0
130.620285 144.0
130.64592 208.0
130.674271 52.0
130.706345 192.0
130.727829 140.0
130.755127 116.0
130.789322 204.0
130.838013 156.0
130.898911 228.0
130.955475 120.0
130.970901 52.0
130.984589 180.0
131.010147 52.0
131.042282 396.0
131.069122 9320.0
131.117859 308.0
131.136047 32.0
131.174225 144.0
131.189133 72.0
131.219818 104.0
131.234863 80.0
131.261719 392.0
131.307175 64.0
131.324417 160.0
131.34523 204.0
131.387344 156.0
131.405258 116.0
131.437576 168.0
131.47081 188.0
131.493851 176.0
131.532883 320.0
131.562607 200.0
131.579605 68.0
131.612244 216.0
131.62822 228.0
131.671829 176.0
131.688644 192.0
131.720001 64.0
131.748367 152.0
131.769379 180.0
131.80098 260.0
131.845337 276.0
131.863525 340.0
131.86879 132.0
131.898483 272.0
131.939102 380.0
131.957367 484.0
131.979401 424.0
132.034454 316.0
132.081589 183552.0
132.158813 104.0
132.192413 92.0
132.220474 220.0
132.237976 144.0
132.27182 180.0
132.297348 148.0
132.33223 80.0
132.365417 80.0
132.387115 32.0
132.39743 164.0
132.434341 332.0
132.457703 2136.0
132.488907 148.0
132.535522 204.0
132.573837 116.0
132.610901 60.0
132.619949 64.0
132.62796 132.0
132.692398 120.0
132.732437 148.0
132.768585 108.0
132.791351 168.0
132.828339 104.0
132.854797 148.0
132.879898 132.0
132.93013 100.0
132.945953 56.0
132.970383 216.0
132.997238 100.0
133.014603 64.0
133.046783 352.0
133.084259 21968.0
133.125336 96.0
133.145615 224.0
133.161072 216.0
133.183228 60.0
133.219254 64.0
133.238358 52.0
133.292389 132.0
133.34024 120.0
133.388229 184.0
133.420151 304.0
133.435226 96.0
133.465881 44.0
133.515137 80.0
133.560181 84.0
133.618729 132.0
133.638397 252.0
133.656799 28.0
133.677505 52.0
133.701157 100.0
133.735046 128.0
133.768066 220.0
133.786942 204.0
133.823257 296.0
133.840164 84.0
133.854355 140.0
133.862488 100.0
133.871353 104.0
133.881744 88.0
133.922836 100.0
133.960983 156.0
133.99324 120.0
134.016754 136.0
134.051987 160.0
134.087646 904.0
134.145096 148.0
134.179352 176.0
134.226578 92.0
134.232544 84.0
134.266083 152.0
134.311066 172.0
134.341049 52.0
134.384888 52.0
134.449997 72.0
134.471497 120.0
134.505722 176.0
134.548737 120.0
134.575745 144.0
134.604156 76.0
134.634171 96.0
134.673431 120.0
134.698837 56.0
134.740417 208.0
134.775085 112.0
134.822678 180.0
134.858276 88.0
134.879074 84.0
134.916061 72.0
134.950363 124.0
135.04808 292.0
135.063583 120.0
135.082092 224.0
135.114944 72.0
135.149643 188.0
135.208206 156.0
135.240677 52.0
135.283875 164.0
135.34639 228.0
135.390381 80.0
135.476089 176.0
135.520096 160.0
135.543274 148.0
135.584976 248.0
135.603531 52.0
135.684647 128.0
135.82283 184.0
135.867859 36.0
135.923538 84.0
135.967636 144.0
135.995483 136.0
136.030304 36.0
136.048874 232.0
136.073883 1088.0
136.199814 128.0
136.29274 60.0
136.388016 60.0
136.411255 152.0
136.43631 180.0
136.520142 192.0
136.686752 88.0
136.706635 116.0
136.750793 180.0
136.776459 56.0
136.818359 36.0
136.836975 216.0
136.869568 20.0
136.930115 60.0
137.0233 44.0
137.07222 348.0
137.198074 52.0
137.291351 132.0
137.349655 36.0
137.471039 148.0
137.496643 84.0
137.529312 96.0
137.576004 148.0
137.670151 124.0
137.797852 144.0
137.865189 160.0
137.881973 132.0
137.998856 92.0
138.038605 72.0
138.091339 1512.0
138.197662 128.0
138.309982 88.0
138.347443 108.0
138.366165 232.0
138.53009 52.0
138.658966 104.0
138.715759 156.0
138.794922 128.0
138.85495 148.0
138.950073 124.0
139.024796 140.0
139.094452 400.0
139.125046 148.0
139.177383 112.0
139.263092 96.0
139.315948 76.0
139.335587 100.0
139.407578 156.0
139.452225 164.0
139.525269 112.0
139.558014 120.0
139.633255 80.0
139.649719 60.0
139.710876 156.0
139.74852 156.0
139.790878 72.0
139.823822 244.0
139.849716 28.0
139.873108 196.0
139.915619 132.0
139.962708 88.0
140.048645 312.0
140.085175 68.0
140.188583 224.0
140.278397 172.0
140.309738 68.0
140.34021 92.0
140.367981 188.0
140.45369 180.0
140.523666 48.0
140.632202 132.0
140.691223 44.0
140.894318 52.0
141.048264 188.0
141.071548 56.0
141.166122 56.0
141.286743 160.0
141.317505 200.0
141.334061 152.0
141.41925 140.0
141.441772 84.0
141.468964 48.0
141.530518 48.0
141.603638 228.0
141.64328 180.0
141.684464 48.0
141.756195 160.0
141.824265 60.0
141.847626 236.0
141.888275 48.0
142.064011 2268.0
142.139679 124.0
142.251221 100.0
142.303452 160.0
142.33194 88.0
142.372314 92.0
142.481583 80.0
142.6194 116.0
142.688339 116.0
142.7668 68.0
142.795334 56.0
142.816742 128.0
142.860962 88.0
142.904755 84.0
143.0047 80.0
143.035126 164.0
143.07135 304.0
143.137222 60.0
143.186554 136.0
143.252335 52.0
143.289413 164.0
143.31427 164.0
143.358353 128.0
143.382095 140.0
143.450119 148.0
143.510605 128.0
143.533554 92.0
143.578873 176.0
143.636108 128.0
143.815063 52.0
143.939209 124.0
144.042572 248.0
144.080566 9384.0
144.155121 92.0
144.242615 64.0
144.274063 104.0
144.33107 124.0
144.352585 140.0
144.450638 28.0
144.503281 120.0
144.575058 76.0
144.649246 88.0
144.668396 140.0
144.713882 108.0
144.78598 152.0
144.85997 120.0
144.895905 116.0
144.927048 92.0
144.958893 56.0
144.986954 112.0
145.015717 40.0
145.081711 980.0
145.128387 36.0
145.195526 48.0
145.214722 80.0
145.428253 116.0
145.447449 184.0
145.494476 68.0
145.61586 144.0
145.661148 44.0
145.764465 144.0
145.834152 56.0
145.896652 208.0
145.954346 164.0
145.992828 204.0
146.027878 176.0
146.066833 140.0
146.115494 100.0
146.144363 204.0
146.303207 108.0
146.330093 120.0
146.351349 72.0
146.416367 52.0
146.616318 40.0
146.65007 120.0
146.780243 308.0
146.826065 108.0
146.863495 252.0
146.927368 224.0
147.021469 200.0
147.060699 280.0
147.079163 272.0
147.161469 216.0
147.288162 148.0
147.330521 180.0
147.364151 148.0
147.424759 176.0
147.52626 344.0
147.562531 180.0
147.5867 140.0
147.625397 128.0
147.647156 120.0
147.809235 60.0
147.864899 172.0
147.981155 132.0
148.012558 160.0
148.08136 176.0
148.218445 148.0
148.274185 108.0
148.354172 156.0
148.463272 244.0
148.502075 168.0
148.595993 168.0
148.689514 92.0
148.861252 60.0
148.963257 124.0
149.075455 132.0
149.118759 164.0
149.135773 148.0
149.177094 180.0
149.296219 160.0
149.313248 176.0
149.357025 144.0
149.423874 176.0
149.447037 48.0
149.825531 120.0
149.863373 124.0
149.914551 136.0
149.982788 112.0
150.048599 248.0
150.091309 132.0
150.194016 76.0
150.375473 128.0
150.407196 140.0
150.546356 156.0
150.751556 172.0
150.915329 132.0
150.961792 84.0
151.018036 208.0
151.14769 112.0
151.250473 228.0
151.316574 160.0
151.684555 184.0
151.745316 160.0
151.904709 140.0
152.024933 140.0
152.314636 264.0
152.336746 96.0
152.484177 216.0
152.518585 172.0
152.538239 196.0
152.557907 208.0
152.7202 100.0
152.784149 136.0
152.941635 228.0
152.961334 176.0
153.003174 112.0
153.054886 132.0
153.109055 80.0
153.441696 160.0
153.623749 156.0
153.856949 112.0
153.874802 80.0
154.062546 288.0
154.23056 208.0
154.288483 104.0
154.318146 96.0
154.435364 160.0
154.491272 108.0
154.533325 132.0
154.582962 128.0
154.773407 124.0
154.825409 64.0
154.907135 160.0
154.926956 144.0
154.951736 156.0
154.98642 144.0
155.006241 68.0
155.043411 272.0
155.061218 176.0
155.097931 92.0
155.182831 148.0
155.24173 144.0
155.412888 148.0
155.474915 124.0
155.539444 168.0
155.559311 64.0
155.58165 200.0
155.636261 144.0
155.782791 88.0
155.844894 108.0
156.041245 112.0
156.080917 1840.0
156.117844 164.0
156.140701 164.0
156.342224 80.0
156.360199 284.0
156.594742 120.0
156.635162 224.0
156.658417 48.0
156.693298 164.0
156.743134 48.0
156.86525 188.0
156.964981 188.0
157.014847 256.0
157.076797 492.0
157.114624 324.0
157.20195 112.0
157.378967 204.0
157.406631 44.0
157.429108 76.0
157.496536 132.0
157.529007 68.0
157.715729 72.0
157.773911 164.0
157.931442 140.0
158.049026 100.0
158.082993 1128.0
158.156631 208.0
158.204193 76.0
158.234238 240.0
158.285202 112.0
158.311844 180.0
158.349411 180.0
158.384476 188.0
158.41011 172.0
158.48468 76.0
158.514755 40.0
158.546112 140.0
158.606003 192.0
158.627533 68.0
158.672653 160.0
158.696152 172.0
158.73114 196.0
158.775467 196.0
158.800537 136.0
158.869293 156.0
158.913422 184.0
158.941025 172.0
158.973297 172.0
158.998062 104.0
159.006149 160.0
159.033646 224.0
159.092072 86908.0
159.164413 48.0
159.182983 236.0
159.20961 248.0
159.229706 52.0
159.258331 140.0
159.293579 112.0
159.328125 156.0
159.345932 104.0
159.382935 164.0
159.417725 76.0
159.456238 72.0
159.503967 576.0
159.537811 196.0
159.568924 112.0
159.596725 140.0
159.624252 48.0
159.646881 116.0
159.687973 132.0
159.716583 168.0
159.747482 68.0
159.78125 76.0
159.807861 56.0
159.855667 60.0
159.878311 64.0
159.90097 60.0
159.943146 136.0
159.972702 56.0
159.994095 172.0
160.046097 180.0
160.094513 8628.0
160.160706 72.0
160.216263 52.0
160.248322 48.0
160.283737 184.0
160.30014 80.0
160.359329 52.0
160.422348 96.0
160.460159 44.0
160.489334 84.0
160.543365 120.0
160.606415 156.0
160.692184 152.0
160.739838 68.0
160.748581 104.0
160.765366 136.0
160.84108 28.0
160.894089 56.0
161.012756 108.0
161.056396 276.0
161.097061 672.0
161.14917 96.0
161.192123 140.0
161.259232 288.0
161.292648 128.0
161.322617 120.0
161.35231 148.0
161.37558 204.0
161.424667 88.0
161.528366 92.0
161.553665 32.0
161.715012 184.0
161.808746 156.0
161.859894 148.0
161.983994 172.0
162.034668 52.0
162.067596 128.0
162.108139 148.0
162.13855 176.0
162.157135 180.0
162.165421 60.0
162.175598 156.0
162.293182 60.0
162.392075 80.0
162.409836 48.0
162.447876 36.0
162.496078 72.0
162.518906 144.0
162.721954 140.0
162.876862 68.0
162.953064 40.0
163.087753 132.0
163.214859 172.0
163.311493 80.0
163.354736 208.0
163.418335 72.0
163.624481 176.0
163.897003 100.0
164.022507 164.0
164.128952 204.0
164.179947 328.0
164.202896 144.0
164.312592 128.0
164.532059 168.0
164.649521 192.0
164.68782 156.0
164.705704 156.0
164.770355 200.0
165.03891 228.0
165.08139 160.0
165.117203 72.0
165.347443 80.0
165.373047 144.0
165.483109 96.0
165.547119 156.0
166.167404 224.0
166.406097 160.0
166.616684 136.0
166.770859 80.0
166.871124 112.0
166.899399 104.0
167.07428 196.0
167.115448 128.0
167.172058 72.0
167.280151 188.0
167.331635 52.0
167.414032 136.0
167.475845 112.0
167.666504 172.0
167.707733 204.0
167.77327 160.0
167.826309 136.0
167.862411 208.0
168.001221 112.0
168.048126 128.0
168.083511 352.0
168.1978 96.0
168.241684 120.0
168.373367 68.0
168.732529 120.0
168.88768 104.0
168.973053 116.0
169.0755 2464.0
169.164551 176.0
169.294006 68.0
169.431274 56.0
169.593552 32.0
169.624939 148.0
169.677475 100.0
169.728897 168.0
169.796753 152.0
169.822693 52.0
169.913483 56.0
169.962769 156.0
170.022461 180.0
170.059921 7588.0
170.136658 180.0
170.154831 160.0
170.209366 96.0
170.360001 60.0
170.40416 144.0
170.430145 72.0
170.609467 56.0
170.640671 44.0
170.687469 44.0
170.783691 132.0
171.062027 812.0
171.089798 1560.0
171.231339 56.0
171.286041 140.0
171.332932 132.0
171.426727 204.0
171.516724 136.0
171.611786 160.0
171.799561 108.0
172.021378 164.0
172.074326 256.0
172.104919 156.0
172.191284 52.0
172.222427 72.0
172.400085 52.0
172.509857 156.0
172.530762 88.0
172.590897 156.0
172.6772 172.0
172.872223 116.0
173.010986 156.0
173.073135 156.0
173.110428 132.0
173.26091 44.0
173.339508 208.0
173.436478 168.0
173.567551 196.0
173.790497 152.0
173.840363 84.0
174.094986 160.0
174.255051 124.0
174.407623 180.0
174.502258 204.0
174.723175 92.0
174.741592 48.0
174.76001 160.0
174.819366 176.0
174.896851 164.0
174.949493 84.0
175.088013 204.0
175.260269 192.0
175.320877 164.0
175.57132 196.0
175.932007 188.0
176.068741 164.0
176.218018 116.0
176.387146 40.0
176.852661 132.0
176.934723 76.0
177.037994 164.0
177.390366 92.0
177.43808 60.0
177.485809 116.0
177.549454 116.0
177.647583 208.0
177.666153 136.0
177.782898 172.0
177.801468 64.0
178.035095 124.0
178.0849 696.0
178.210403 128.0
178.337952 120.0
178.481506 124.0
178.662369 168.0
178.779434 108.0
178.806046 92.0
178.845963 144.0
178.909851 76.0
179.084976 156.0
179.176163 212.0
179.256088 128.0
179.296066 156.0
179.317383 64.0
179.493332 116.0
179.741394 96.0
180.200638 128.0
180.491974 128.0
180.517471 120.0
180.548126 64.0
180.755508 152.0
180.803406 152.0
180.909332 144.0
180.92807 148.0
180.992325 96.0
181.035172 44.0
181.093781 208.0
181.225342 176.0
181.249466 148.0
181.39418 188.0
181.482651 180.0
181.557724 88.0
181.64798 148.0
181.82869 136.0
181.866257 112.0
181.90921 160.0
182.060715 264.0
182.400879 108.0
182.494858 152.0
182.523254 200.0
182.804184 244.0
183.067017 364.0
183.092224 168.0
183.146103 132.0
183.627609 208.0
183.652817 172.0
183.717545 132.0
183.795792 76.0
183.901031 72.0
184.03331 232.0
184.057617 172.0
184.149429 180.0
184.239944 148.0
184.349335 148.0
184.7547 156.0
184.919968 120.0
185.006577 148.0
185.030945 180.0
185.070999 296.0
185.220505 164.0
185.282806 48.0
185.32074 56.0
185.402023 204.0
185.431839 144.0
185.887436 208.0
185.938995 188.0
186.012268 64.0
186.050278 288.0
186.073441 168.0
186.101852 140.0
186.188751 76.0
186.239059 176.0
186.294266 52.0
186.35173 192.0
186.433243 108.0
186.520218 164.0
186.558273 180.0
186.601028 236.0
186.620804 108.0
186.650711 136.0
186.673431 116.0
186.762436 144.0
186.832932 112.0
186.859329 120.0
186.900955 84.0
186.936325 200.0
186.960205 124.0
187.034592 396.0
187.086929 82188.0
187.155441 80.0
187.188858 120.0
187.231567 100.0
187.259659 52.0
187.298416 180.0
187.326828 104.0
187.333252 76.0
187.345535 40.0
187.351471 84.0
187.412827 52.0
187.432968 184.0
187.463852 72.0
187.500031 164.0
187.533401 252.0
187.592697 60.0
187.63475 160.0
187.666306 60.0
187.703079 160.0
187.726303 36.0
187.759018 40.0
187.797791 92.0
187.854477 92.0
187.88176 108.0
187.906555 92.0
187.944519 80.0
187.963608 36.0
187.985443 136.0
188.012726 124.0
188.089569 11452.0
188.139923 48.0
188.197037 108.0
188.2202 68.0
188.288467 60.0
188.310318 32.0
188.339539 108.0
188.404846 72.0
188.474213 36.0
188.501541 36.0
188.526138 64.0
188.547989 64.0
188.588989 36.0
188.616318 84.0
188.635452 68.0
188.668259 80.0
188.777634 44.0
188.868835 80.0
188.903183 112.0
189.040237 88.0
189.093872 848.0
189.127808 100.0
189.174347 92.0
189.220886 108.0
189.293961 108.0
189.356277 64.0
189.375168 140.0
189.409286 120.0
189.431747 100.0
189.455734 148.0
189.481873 164.0
189.530609 132.0
189.554688 64.0
189.587921 60.0
189.609848 180.0
189.637253 84.0
189.670135 100.0
189.722229 152.0
189.80722 132.0
189.875198 96.0
190.03212 212.0
190.088699 156.0
190.133652 124.0
190.279129 140.0
190.413681 132.0
190.435654 36.0
190.509811 40.0
190.577087 196.0
190.611465 120.0
190.658188 52.0
190.688416 128.0
190.759872 76.0
190.856094 232.0
190.952347 36.0
191.089874 168.0
191.469742 172.0
191.687363 248.0
192.81604 140.0
193.042725 108.0
193.096924 456.0
193.410675 128.0
193.765121 144.0
193.873184 48.0
194.056137 132.0
194.125443 176.0
194.461121 80.0
194.691559 136.0
194.78598 96.0
195.10556 64.0
195.328018 28.0
195.372528 100.0
195.639679 136.0
195.732986 140.0
195.990585 164.0
196.657089 56.0
196.899979 68.0
197.067581 196.0
197.212891 68.0
197.699509 76.0
197.817062 140.0
197.987854 192.0
198.041061 128.0
198.197937 64.0
198.531509 76.0
198.562363 92.0
198.643707 184.0
198.859756 40.0
198.899048 112.0
198.941147 116.0
198.985062 156.0
199.084885 864.0
199.22197 68.0
199.356827 64.0
199.629501 68.0
199.654816 128.0
199.823578 68.0
199.910812 144.0
200.012131 152.0
200.07074 280.0
200.079163 212.0
200.089188 340.0
200.136002 48.0
200.265533 132.0
200.392303 108.0
200.586746 140.0
200.772827 28.0
200.959 124.0
201.04364 112.0
201.103882 508.0
201.15654 100.0
201.388077 48.0
201.526489 40.0
201.761063 120.0
201.961838 176.0
202.024063 44.0
202.052353 228.0
202.797089 112.0
202.938812 388.0
203.026718 60.0
203.245148 60.0
203.662003 108.0
204.634995 40.0
204.774521 152.0
205.00528 44.0
205.095291 96.0
205.5271 56.0
205.80423 156.0
206.086716 160.0
207.100739 248.0
207.173874 88.0
207.213974 200.0
207.471909 60.0
207.501999 192.0
207.765808 132.0
208.318451 44.0
208.355804 124.0
208.407516 84.0
208.500717 180.0
209.901367 192.0
209.944626 132.0
210.261963 68.0
210.466919 48.0
211.182587 184.0
211.273254 160.0
212.1884 76.0
212.47551 92.0
212.730881 164.0
212.858627 184.0
213.082275 136.0
213.108414 152.0
213.396149 136.0
214.01297 164.0
214.074112 92.0
214.397461 104.0
214.671494 120.0
214.729813 200.0
215.058533 132.0
215.085022 352.0
215.304733 148.0
215.707932 180.0
215.915527 120.0
216.07933 104.0
216.113113 248.0
216.266602 128.0
216.37645 144.0
216.735153 132.0
217.097046 1448.0
217.339172 56.0
217.468292 88.0
217.776566 92.0
218.017487 152.0
218.099747 1168.0
218.305573 164.0
218.499695 112.0
218.864639 180.0
219.09993 840.0
219.226959 132.0
219.480453 140.0
219.669205 48.0
219.838364 208.0
219.99971 120.0
220.074371 448.0
220.105789 292.0
220.383636 88.0
220.523972 188.0
220.915787 128.0
221.077148 316.0
221.12883 88.0
221.472275 80.0
222.091736 120.0
222.676834 116.0
222.958664 136.0
223.041885 164.0
223.101227 120.0
223.134033 140.0
223.717117 168.0
223.768631 176.0
224.053635 132.0
224.151947 52.0
224.590195 152.0
224.891541 92.0
225.099518 168.0
225.617401 76.0
225.729172 52.0
226.033127 160.0
226.634964 152.0
227.03064 92.0
228.463333 136.0
228.661911 92.0
228.860596 92.0
229.155762 64.0
229.249161 176.0
229.402878 108.0
229.546387 140.0
229.960892 168.0
230.063507 76.0
230.098114 340.0
230.401749 176.0
230.749283 148.0
231.075912 176.0
231.109924 164.0
231.69957 36.0
232.099182 184.0
232.103928 136.0
232.220947 44.0
232.37262 164.0
233.077011 88.0
233.111526 200.0
233.3992 124.0
233.435699 176.0
233.898132 56.0
234.022949 64.0
234.065018 220.0
234.088882 136.0
234.623123 96.0
234.720688 176.0
234.867065 100.0
235.047058 160.0
235.097046 804.0
235.47139 52.0
235.523315 124.0
236.006149 180.0
236.106339 5224.0
236.14682 80.0
236.235672 108.0
236.311996 44.0
236.455826 52.0
236.538467 144.0
236.569077 44.0
236.694595 48.0
236.908981 236.0
236.958008 232.0
237.110092 840.0
237.583405 44.0
237.890274 92.0
238.12323 372.0
238.55072 40.0
238.652176 76.0
238.90744 76.0
239.064346 120.0
239.13205 196.0
239.621658 84.0
239.791138 76.0
240.031586 68.0
240.543732 204.0
240.69191 64.0
241.010056 100.0
241.331497 60.0
241.408798 56.0
241.646973 132.0
241.854294 188.0
242.678314 44.0
242.86438 124.0
243.258453 128.0
243.416992 180.0
243.444733 124.0
243.677689 128.0
243.857925 48.0
244.044434 164.0
244.100403 148.0
244.252792 136.0
244.619965 84.0
245.110489 192.0
245.309677 48.0
245.579651 124.0
245.632675 140.0
246.084824 140.0
246.128891 152.0
246.525604 240.0
246.550598 56.0
246.785034 124.0
246.914429 172.0
247.101059 384.0
247.20105 112.0
247.37944 92.0
247.442047 140.0
247.629929 204.0
247.968292 88.0
248.100906 344.0
248.158432 208.0
248.680237 140.0
248.859161 104.0
249.031876 140.0
249.063293 48.0
249.119873 268.0
249.207794 68.0
249.311493 156.0
249.333923 144.0
249.39949 120.0
249.462357 124.0
249.563873 164.0
249.624451 236.0
249.846008 120.0
250.050537 152.0
250.080505 152.0
250.121994 37556.0
250.198013 140.0
250.222778 200.0
250.252869 136.0
250.307266 40.0
250.343307 64.0
250.373047 72.0
250.425186 56.0
250.464691 96.0
250.508652 48.0
250.563782 48.0
250.619232 60.0
250.707932 144.0
250.743393 88.0
250.781204 68.0
250.857834 52.0
250.904144 204.0
250.926208 68.0
251.003067 96.0
251.027115 60.0
251.124802 7732.0
251.18541 84.0
251.228958 40.0
251.285751 108.0
251.317307 68.0
251.352005 52.0
251.446671 56.0
251.486023 60.0
251.519272 148.0
251.601349 140.0
251.661331 72.0
252.0056 40.0
252.135941 2020.0
252.179398 80.0
252.32164 112.0
252.410172 40.0
252.479736 40.0
252.653702 44.0
252.821396 104.0
252.868866 112.0
252.963623 124.0
253.007355 160.0
253.037537 140.0
253.074631 104.0
253.141724 520.0
253.185455 44.0
253.587799 44.0
253.629013 76.0
253.865601 64.0
254.034882 56.0
254.088806 152.0
254.142746 336.0
254.355377 68.0
254.561737 60.0
254.682419 104.0
255.070053 64.0
255.251266 104.0
255.696625 104.0
255.776199 68.0
255.843048 132.0
256.108856 328.0
257.019073 72.0
257.113403 164.0
257.146729 116.0
257.315918 48.0
257.373383 176.0
257.871704 208.0
258.09549 88.0
258.119812 340.0
258.565735 104.0
259.102417 188.0
259.196564 204.0
259.440155 112.0
259.571594 144.0
260.104797 140.0
260.267883 44.0
260.749725 156.0
261.569916 104.0
261.592438 104.0
261.711548 48.0
262.121002 4684.0
262.649323 44.0
262.804169 136.0
262.926788 148.0
263.12738 1260.0
263.646973 96.0
263.698669 144.0
263.77301 64.0
264.136261 1412.0
264.397217 60.0
264.633514 88.0
264.772766 68.0
265.135284 732.0
265.180969 100.0
265.492188 52.0
265.8685 84.0
266.011322 56.0
266.042053 92.0
266.129974 188.0
266.140625 64.0
266.790955 136.0
266.852722 68.0
267.151917 36.0
268.31778 44.0
268.360138 120.0
268.461243 108.0
268.934296 60.0
269.100769 140.0
269.741058 84.0
269.854889 112.0
269.999359 92.0
270.022247 56.0
270.372314 120.0
270.414856 116.0
271.124634 124.0
271.210724 128.0
271.466461 88.0
272.099701 52.0
272.128601 240.0
272.240875 120.0
272.704102 168.0
272.759979 112.0
272.797028 148.0
273.028442 140.0
273.059875 96.0
273.138885 4696.0
273.243378 60.0
273.305908 40.0
273.746979 80.0
274.108154 136.0
274.143646 1100.0
274.198303 76.0
274.277405 92.0
274.554352 132.0
275.103363 228.0
275.141663 164.0
275.554474 120.0
275.789093 64.0
276.834534 76.0
276.960388 172.0
277.722717 72.0
278.117584 3448.0
278.164001 232.0
278.565796 76.0
278.69162 152.0
279.146271 2896.0
279.237213 56.0
279.283783 56.0
279.313721 32.0
279.627686 140.0
279.836182 28.0
280.055969 128.0
280.148132 388.0
280.205872 104.0
280.805847 80.0
280.905914 68.0
281.157379 120.0
281.580139 72.0
281.770538 40.0
281.813965 96.0
281.907532 40.0
281.967682 28.0
282.111176 60.0
282.164886 52.0
282.981232 112.0
283.122742 164.0
283.85907 84.0
283.885895 68.0
284.120697 68.0
284.281738 60.0
284.734955 100.0
284.775238 88.0
284.862579 160.0
285.107849 76.0
286.113556 112.0
286.145813 168.0
286.211182 56.0
286.598511 120.0
286.858032 96.0
288.289062 92.0
289.117493 196.0
289.129242 208.0
289.13504 264.0
289.17511 92.0
289.737183 176.0
290.115997 1068.0
290.669586 148.0
290.808716 180.0
290.924133 76.0
291.119171 180.0
291.148956 160.0
291.175385 104.0
291.644226 40.0
291.916199 120.0
292.045441 64.0
292.125214 156.0
293.22345 124.0
293.578003 84.0
294.117035 84.0
294.297974 172.0
295.042755 40.0
297.797729 136.0
298.133179 100.0
298.340637 96.0
298.529755 104.0
298.904694 208.0
299.056122 36.0
299.12149 172.0
300.116302 216.0
300.139954 200.0
300.879578 64.0
301.131592 316.0
301.667236 84.0
301.764008 76.0
302.123688 64.0
302.975311 232.0
305.116547 84.0
305.854004 216.0
306.142487 176.0
306.240479 96.0
306.355408 128.0
306.425079 144.0
306.627197 176.0
307.049042 92.0
307.143829 9752.0
307.387421 148.0
307.542206 80.0
307.820251 60.0
307.925018 52.0
308.145721 2808.0
308.270874 68.0
308.298828 120.0
308.351257 28.0
308.463104 116.0
308.487549 48.0
308.550476 48.0
308.63089 88.0
309.147552 204.0
309.20459 60.0
309.267578 72.0
309.355103 72.0
309.407593 80.0
309.530151 140.0
309.854706 72.0
309.897919 104.0
310.146729 152.0
310.16864 120.0
310.290436 72.0
310.338898 152.0
310.5289 52.0
310.553436 36.0
310.690247 76.0
310.844604 132.0
311.119354 492.0
311.156982 116.0
311.220184 56.0
311.961487 100.0
312.323639 116.0
316.137726 296.0
316.902283 144.0
316.990845 164.0
317.058167 156.0
317.154297 120.0
317.96106 120.0
318.051239 32.0
318.158783 4372.0
318.233704 100.0
318.39563 52.0
318.811279 76.0
318.866547 72.0
319.017426 88.0
319.113403 100.0
319.16214 1468.0
319.383667 48.0
319.421265 212.0
319.458374 92.0
319.938782 44.0
320.166077 148.0
320.522858 60.0
321.203796 132.0
321.37146 76.0
321.428558 96.0
322.410583 76.0
322.474884 112.0
322.542816 68.0
323.297455 68.0
323.386902 104.0
323.415558 208.0
323.53009 120.0
323.805817 196.0
323.851379 72.0
324.121033 100.0
324.169159 4772.0
324.269653 68.0
324.375488 28.0
324.42569 48.0
324.475861 100.0
324.620239 76.0
324.888275 44.0
324.99234 44.0
325.173279 1240.0
325.239929 104.0
325.598969 68.0
325.688751 128.0
325.897125 60.0
326.130707 96.0
326.174988 304.0
326.436279 88.0
327.141449 100.0
327.195465 80.0
327.375488 88.0
327.454712 112.0
327.551971 76.0
327.64563 84.0
328.251129 56.0
328.65152 100.0
330.034851 56.0
330.447174 60.0
330.646179 56.0
333.420532 140.0
333.529572 76.0
333.765869 96.0
335.079773 80.0
335.338501 76.0
336.078735 96.0
336.173615 164.0
337.013458 76.0
337.956757 164.0
340.915863 64.0
341.91983 36.0
344.737274 88.0
346.154175 924.0
346.279938 64.0
346.598511 48.0
347.154175 652.0
348.011688 88.0
348.157471 144.0
349.617462 76.0
350.727325 44.0
351.111328 108.0
352.036835 80.0
352.175018 124.0
354.176056 72.0
356.325531 96.0
357.807281 72.0
363.453888 64.0
364.254944 120.0
368.162598 36.0
368.865601 80.0
368.972656 144.0
370.074493 100.0
371.780243 48.0
372.686432 88.0
376.164032 156.0
376.457458 84.0
376.815643 76.0
380.985199 136.0
382.396667 140.0
382.883301 88.0
384.333405 76.0
385.704132 60.0
387.026428 112.0
388.272522 92.0
389.292847 44.0
392.168701 56.0
393.193298 132.0
394.964142 116.0
395.735809 88.0
396.888794 136.0
397.035492 80.0
397.245728 68.0
400.234344 60.0
402.886536 64.0
405.759918 60.0
407.489685 96.0
409.601654 80.0
410.121429 128.0
410.327026 80.0
410.371368 52.0
412.523102 48.0
412.608002 56.0
412.660553 44.0
414.842621 76.0
415.775513 108.0
418.303558 64.0
418.763672 80.0
419.878143 136.0
420.194427 40.0
421.889252 60.0
424.743378 48.0
426.430878 80.0
427.043457 120.0
435.416779 96.0
436.339233 36.0
436.825775 52.0
436.988037 44.0
437.570709 56.0
438.099579 176.0
438.207245 292.0
439.938629 88.0
447.190155 116.0
449.676758 44.0
453.864716 140.0
455.315979 48.0
461.541748 56.0
465.222198 128.0
469.986176 104.0
473.816772 48.0
474.306458 96.0
474.510193 36.0
477.336761 80.0
477.993561 76.0
480.677734 68.0
483.295044 108.0
483.969604 100.0
484.253723 240.0
485.274719 184.0
485.814148 72.0
486.112488 100.0
489.294678 48.0
496.718719 84.0
498.561249 48.0
499.486023 72.0
501.208893 104.0
506.771637 100.0
506.99118 112.0
507.417023 96.0
515.74939 132.0
517.133423 96.0
521.54657 56.0
529.76001 132.0
531.965698 100.0
535.174622 124.0
538.222351 72.0
543.021179 100.0
559.327881 64.0
559.798706 92.0
561.575378 84.0
563.033691 52.0
563.865173 36.0
564.101501 56.0
564.810791 44.0
565.3927 68.0
570.016235 112.0
571.290405 20.0
575.188293 248.0
578.309448 64.0
581.741455 56.0
592.190308 156.0
594.003113 48.0
594.818298 52.0
595.167847 96.0
600.906128 224.0
603.812561 40.0
605.701782 56.0
606.681824 128.0
608.438049 156.0
616.945923 88.0
623.195374 208.0
625.726868 40.0
627.176453 216.0
633.858154 100.0
636.58197 64.0
646.588684 48.0
656.761169 104.0
666.584534 104.0
666.985352 20.0
668.718689 148.0
669.326111 80.0
670.918152 92.0
672.057922 64.0
673.828796 20.0
674.283508 136.0
674.454102 44.0
674.7901 68.0
676.81311 60.0
677.087524 36.0
680.348938 108.0
686.347656 180.0
688.403564 76.0
689.096069 48.0
693.216125 128.0
698.855408 72.0
699.902832 212.0
700.440002 208.0
702.179321 192.0
706.325439 40.0
708.543457 120.0
709.534485 80.0
715.70282 56.0
717.903503 132.0
718.933105 84.0
720.51355 128.0
722.042236 172.0
723.069458 168.0
724.241943 120.0
733.068787 180.0
735.306824 96.0
746.352234 76.0
747.625061 128.0
748.09314 100.0
749.024292 116.0
752.9021 52.0
753.388245 140.0
753.459229 140.0
753.60675 184.0
754.235229 48.0
757.189697 156.0
758.263489 108.0
758.482727 140.0
761.247803 124.0
761.291748 40.0
761.796997 104.0
762.467346 156.0
764.463562 64.0
765.735229 52.0
770.550781 192.0
771.573181 124.0
772.402649 192.0
775.198486 268.0
778.760132 168.0
778.87677 172.0
779.08783 156.0
782.174072 208.0
783.364197 164.0
784.290649 180.0
784.613953 188.0
786.198059 192.0
787.465332 132.0
788.090942 240.0
788.15802 64.0
788.241821 200.0
790.461731 148.0
792.219727 136.0
796.634521 44.0
799.378174 168.0
800.582825 136.0
801.275635 152.0
804.365967 72.0
804.953064 80.0
805.399231 200.0
809.001221 172.0
810.020447 240.0
810.632324 184.0
811.533569 236.0
813.138916 144.0
814.10968 136.0
816.701233 172.0
816.741028 200.0
816.945801 140.0
817.014099 188.0
817.275818 228.0
817.492004 168.0
817.725342 220.0
818.539429 60.0
819.097534 124.0
819.775513 220.0
821.879578 48.0
823.603638 208.0
824.340576 208.0
830.919373 76.0
830.959534 144.0
831.904602 172.0
832.199219 108.0
833.491577 104.0
833.601379 108.0
833.686951 140.0
833.813354 160.0
834.112244 148.0
835.733948 108.0
836.090759 72.0
837.075134 108.0
837.276672 56.0
840.406677 196.0
841.032532 88.0
842.438843 116.0
844.432983 164.0
844.658569 132.0
845.077271 224.0
845.67688 220.0
846.215271 160.0
846.267334 36.0
848.50946 136.0
849.327087 72.0
849.402527 172.0
849.53595 60.0
851.759155 108.0
852.927063 40.0
854.148132 152.0
854.549561 148.0
855.183838 236.0
856.225952 204.0
858.842834 104.0
860.675232 128.0
860.815369 128.0
865.803528 96.0
865.949951 140.0
866.0495 208.0
867.326843 124.0
867.590637 52.0
868.1828 80.0
868.528809 176.0
869.080261 196.0
869.514526 88.0
869.712769 164.0
870.629944 172.0
870.6828 140.0
872.76886 52.0
872.96875 172.0
873.168701 128.0
873.675232 172.0
876.294373 68.0
877.455383 32.0
879.313477 144.0
880.257996 160.0
880.305237 100.0
880.570984 168.0
880.754089 172.0
881.622559 176.0
882.361389 172.0
883.804504 152.0
884.698181 132.0
885.533081 164.0
885.912109 80.0
887.52417 152.0
889.024902 92.0
889.19696 196.0
889.749023 88.0
892.594971 60.0
893.772644 120.0
894.046387 64.0
895.379944 224.0
895.606262 44.0
898.568909 184.0
898.62854 220.0
900.41333 172.0
900.932983 176.0
902.480896 32.0
902.947327 80.0
903.383911 148.0
906.119751 168.0
906.575134 192.0
907.018677 152.0
910.504517 68.0
910.888916 84.0
912.25293 232.0
912.998474 156.0
913.99707 96.0
914.23175 108.0
915.212891 80.0
915.501892 56.0
916.845337 28.0
918.400757 196.0
920.362976 232.0
921.03241 164.0
921.122986 176.0
921.545898 152.0
923.139343 140.0
923.292786 204.0
924.018616 192.0
925.307678 180.0
926.403809 200.0
927.306641 188.0
927.446045 52.0
928.646545 156.0
931.298828 36.0
931.4021 220.0
932.61731 76.0
933.121826 140.0
933.758484 188.0
933.839417 200.0
936.736633 160.0
936.84021 128.0
937.24231 184.0
938.449097 148.0
939.065002 192.0
939.925171 192.0
942.11084 212.0
942.984619 52.0
944.806824 132.0
946.175659 184.0
947.139038 136.0
947.724915 156.0
947.874207 188.0
948.407349 168.0
949.842163 144.0
950.369751 192.0
952.149902 156.0
952.518372 108.0
952.714966 196.0
953.138855 168.0
953.827209 160.0
955.02002 96.0
955.395264 224.0
955.613342 160.0
956.595215 184.0
956.662964 76.0
956.884583 116.0
957.820557 180.0
957.999207 200.0
959.878967 52.0
960.834961 96.0
961.964294 116.0
962.760742 200.0
963.662598 136.0
964.873901 192.0
965.745789 172.0
966.147888 136.0
967.422668 124.0
968.630188 164.0
968.791199 128.0
968.908936 148.0
969.590515 64.0
969.943787 208.0
971.010193 200.0
972.680908 204.0
972.784729 84.0
972.989624 136.0
973.796814 204.0
973.883789 124.0
974.287537 208.0
978.012268 112.0
978.435547 76.0
980.946045 244.0
983.134399 156.0
984.009094 200.0
984.258789 156.0
984.596008 120.0
986.132935 152.0
986.207886 248.0
986.889282 156.0
987.87738 160.0
988.40918 60.0
988.453003 220.0
990.35614 164.0
990.794617 256.0
991.095337 72.0
992.079285 128.0
993.070007 116.0
993.289551 220.0
994.418945 280.0
994.669983 152.0
994.877136 228.0
995.021362 136.0
995.906921 136.0
997.377197 128.0
997.842346 120.0
998.100159 160.0
998.288757 176.0
998.647278 108.0
1000.157288 140.0
1000.478333 172.0
1001.023132 196.0
1001.347229 160.0
1001.555115 124.0
1002.147278 220.0
1002.56311 156.0
1003.255798 172.0
1003.773438 160.0
1004.549194 124.0
1004.934021 156.0
1006.644531 96.0
1006.846619 216.0
1006.998169 160.0
1007.737244 196.0
1010.2724 184.0
1010.500122 296.0
1011.455688 192.0
1011.512695 108.0
1011.626587 84.0
1012.443359 96.0
1012.576355 52.0
1012.754578 128.0
1012.804382 148.0
1012.867737 148.0
1013.273132 168.0
1014.724426 132.0
1015.415649 108.0
1016.214905 168.0
1018.67804 108.0
1019.008423 144.0
1019.160889 76.0
1020.171387 152.0
1020.48291 152.0
1020.559204 112.0
1020.947083 96.0
1021.093323 112.0
1024.422241 92.0
1025.919678 268.0
1026.066406 168.0
1026.946289 52.0
1027.067505 140.0
1028.579712 60.0
1028.656372 144.0
1028.8479 256.0
1029.198975 124.0
1029.665161 144.0
1030.322998 156.0
1030.853394 112.0
1030.987549 144.0
1031.601074 176.0
1031.952759 144.0
1032.73291 140.0
1032.825562 160.0
1033.405029 160.0
1034.127686 76.0
1034.473267 56.0
1034.876587 152.0
1035.748169 232.0
1035.856445 48.0
1037.112305 52.0
1037.952148 124.0
1039.055298 200.0
1040.582764 184.0
1041.282715 72.0
1041.565308 92.0
1041.835083 160.0
1042.753906 176.0
1042.901733 148.0
1043.486694 108.0
1043.737427 168.0
1043.837646 192.0
1044.05896 124.0
1045.036743 208.0
1045.154785 160.0
1046.645752 80.0
1047.090088 164.0
1047.367065 172.0
1048.739502 228.0
1049.560181 156.0
1050.177246 172.0
1050.841675 120.0
1051.028809 180.0
1052.003296 180.0
1052.397095 136.0
1052.674805 176.0
1053.091431 156.0
1053.184937 152.0
1054.018311 28.0
1054.166992 124.0
1054.464233 164.0
1055.026611 120.0
1055.288818 244.0
1055.951172 80.0
1056.533325 168.0
1057.17395 188.0
1057.329224 212.0
1057.762817 116.0
1058.559204 156.0
1060.943481 168.0
1062.052246 88.0
1063.090332 96.0
1064.070435 32.0
1065.24585 184.0
1066.428345 144.0
1067.052368 132.0
1068.977661 180.0
1073.055054 144.0
1073.237671 160.0
1073.654541 132.0
1074.385498 152.0
1074.620361 168.0
1074.861694 136.0
1074.907471 152.0
1075.599243 144.0
1075.690552 164.0
1076.095337 120.0
1076.515869 176.0
1076.56543 192.0
1076.859375 224.0
1077.166382 188.0
1077.257812 196.0
1077.499512 308.0
1077.760864 164.0
1078.381592 44.0
1079.322998 76.0
1079.55835 168.0
1079.630371 228.0
1080.294434 200.0
1080.345581 168.0
1081.246216 40.0
1082.070923 216.0
1082.634033 56.0
1083.053223 164.0
1083.577271 56.0
1083.845825 192.0
1084.009644 168.0
1084.730591 40.0
1085.344727 220.0
1085.556641 196.0
1086.665161 128.0
1086.960449 136.0
1087.058838 44.0
1087.177002 168.0
1087.46521 136.0
1087.603638 124.0
1087.845703 168.0
1088.122192 108.0
1088.555542 212.0
1088.719727 204.0
1089.691772 64.0
1090.059814 116.0
1090.394897 176.0
1091.367798 232.0
1092.091187 140.0
1092.73584 48.0
1093.472778 152.0
1093.604492 220.0
1093.683472 132.0
1094.973877 104.0
1095.270264 168.0
1095.75769 40.0
1095.8302 112.0
1096.627563 160.0
1096.706665 128.0
1096.851562 152.0
1096.983398 180.0
1097.754883 176.0
1099.120239 188.0
1099.232422 64.0
1099.542603 136.0
1099.621826 116.0
1099.720825 200.0
1100.116821 208.0
1100.519531 56.0
1100.961914 168.0
1101.049561 56.0
1102.269897 132.0
1102.752319 192.0
1103.400146 132.0
1103.472778 116.0
1103.856323 152.0
1103.929077 444.0
1105.351196 180.0
1105.56958 176.0
1105.907104 136.0
1107.814087 68.0
1108.145386 172.0
1108.482788 116.0
1108.702026 176.0
1108.841187 164.0
1110.074219 76.0
1110.757324 180.0
1110.901733 180.0
1111.064331 184.0
1111.785645 88.0
1111.963989 148.0
1112.728149 236.0
1113.219482 160.0
1113.339111 148.0
1113.425415 224.0
1114.209229 176.0
1114.361938 120.0
1114.840454 164.0
1115.897217 148.0
1116.136597 100.0
1116.362671 124.0
1117.42688 136.0
1117.932617 204.0
1118.38916 172.0
1119.18396 100.0
1119.496948 148.0
1120.450562 244.0
1120.922485 136.0
1121.542236 116.0
1121.922241 120.0
1122.122192 112.0
1122.255615 128.0
1122.442261 128.0
1122.502319 136.0
1122.962402 184.0
1123.80957 168.0
1124.456909 116.0
1124.597046 120.0
1125.052368 180.0
1125.491577 184.0
1126.793945 56.0
1126.920898 148.0
1127.001099 152.0
1127.44873 156.0
1127.609131 52.0
1128.010132 112.0
1128.404663 208.0
1128.578491 164.0
1128.83252 160.0
1129.247192 128.0
1129.53479 200.0
1129.768921 112.0
1129.835815 164.0
1131.480225 192.0
1132.191772 148.0
1132.23877 116.0
1132.543213 164.0
1132.854858 128.0
1133.142944 132.0
1133.330566 192.0
1134.141479 188.0
1134.443115 124.0
1135.905273 144.0
1135.978638 68.0
1136.421509 140.0
1136.844238 148.0
1138.307617 212.0
1138.535889 172.0
1139.187378 180.0
1139.704712 228.0
1139.980225 188.0
1140.517822 176.0
1140.83374 164.0
1141.14978 140.0
1141.795288 100.0
1141.902832 140.0
1142.118652 140.0
1142.299683 192.0
1142.568726 128.0
1142.743652 144.0
1143.140747 140.0
1143.409912 128.0
1143.813721 136.0
1145.133423 140.0
1145.524048 184.0
1145.793457 136.0
1145.862305 152.0
1146.042725 168.0
1147.228882 212.0
1147.498535 152.0
1147.545776 220.0
1147.768311 60.0
1147.876099 40.0
1148.422363 124.0
1148.537109 120.0
1148.597778 132.0
1148.641968 120.0
1148.762207 160.0
1149.015991 108.0
1149.45459 88.0
1149.555786 120.0
1150.480469 220.0
1150.959839 152.0
1151.756714 184.0
1151.803955 148.0
1152.661987 120.0
1153.331055 92.0
1153.39856 60.0
1153.452637 136.0
1153.858276 140.0
1154.182739 128.0
1154.865845 112.0
1155.041626 164.0
1155.43396 156.0
1156.157959 184.0
1156.205322 184.0
1156.388062 124.0
1156.618286 152.0
1156.949951 200.0
1157.051514 156.0
1157.288452 188.0
1157.498291 184.0
1157.813843 160.0
1158.270386 144.0
1158.446533 192.0
1158.94104 184.0
1159.849121 40.0
1160.994873 136.0
1161.089844 160.0
1161.272949 88.0
1161.829224 192.0
1162.1073 128.0
1162.392334 216.0
1162.446655 144.0
1162.751953 168.0
1162.996338 140.0
1163.654785 60.0
1163.939941 172.0
1164.028198 84.0
1164.102905 40.0
1164.306641 204.0
1164.408569 172.0
1164.870361 116.0
1164.97229 160.0
1165.291626 112.0
1165.352661 160.0
1165.413818 116.0
1165.559082 140.0
1165.72644 156.0
1166.235474 156.0
1166.304077 168.0
1166.5896 68.0
1166.949951 224.0
1167.024658 168.0
1167.786255 96.0
1167.833862 172.0
1167.99585 232.0
1168.049316 184.0
1168.86792 160.0
1168.963257 120.0
1169.072144 176.0
1169.221802 92.0
1169.269409 144.0
1169.378296 124.0
1169.616577 172.0
1169.841187 136.0
1170.25647 228.0
1170.624146 140.0
1170.712646 148.0
1170.937378 224.0
1171.264282 128.0
1171.611694 152.0
1171.67981 208.0
1172.471191 204.0
1172.592896 160.0
1172.647461 148.0
1172.858765 88.0
1172.92688 152.0
1173.085449 136.0
1173.131348 180.0
1173.635864 208.0
1173.710938 132.0
1173.942749 140.0
1174.590698 172.0
1174.645264 136.0
1175.258545 132.0
1175.866577 132.0
1176.917847 64.0
1176.99292 60.0
1177.272827 216.0
1177.634766 48.0
1177.967041 208.0
1178.154297 136.0
1178.290039 140.0
1179.11731 208.0
1179.268677 172.0
1179.342896 104.0
1179.459106 164.0
1180.026489 136.0
1180.306763 148.0
1180.833374 112.0
1181.051636 140.0
1181.599487 184.0
1181.647339 152.0
1181.968994 176.0
1182.283691 140.0
1182.420532 112.0
1182.530151 120.0
1182.701172 180.0
1182.749146 176.0
1183.036133 164.0
1183.378906 172.0
1183.632202 180.0
1184.0979 172.0
1184.173218 196.0
1184.734863 124.0
1184.974731 140.0
1185.399536 128.0
1185.844971 208.0
1185.995728 176.0
1186.074585 164.0
1186.379639 60.0
1186.578369 68.0
1186.811523 152.0
1186.880127 148.0
1186.968994 152.0
1187.209229 244.0
1187.428711 156.0
1187.682495 168.0
1187.867676 148.0
1188.032227 128.0
1188.14209 56.0
1188.286133 164.0
1188.766357 144.0
1188.828125 144.0
1188.903687 184.0
1189.109497 104.0
1189.857666 236.0
1190.194092 144.0
1190.455078 180.0
1190.757202 80.0
1191.009644 60.0
1191.540283 224.0
1191.822021 156.0
1192.488525 188.0
1192.557251 188.0
1193.031616 184.0
1193.169067 160.0
1193.224121 56.0
1193.526611 180.0
1193.808472 144.0
1194.565063 148.0
1195.438843 188.0
1195.604004 216.0
1195.677612 216.0
1195.796631 148.0
1196.567627 184.0
1197.318115 192.0
1197.822388 272.0
1198.103394 160.0
1198.261841 104.0
1198.40918 144.0
1198.799316 160.0
1198.847534 144.0
1199.081787 152.0
1199.267944 196.0
1199.385132 156.0
1199.460938 168.0
1199.651978 116.0
1199.9021 152.0
1199.971069 56.0
1200.19165 136.0
1200.357178 168.0
1200.453735 124.0
1200.639893 160.0
1200.957153 92.0
1201.012329 192.0
1201.229004 132.0
1201.426147 136.0
1201.805664 148.0
1202.095459 68.0
1202.330078 112.0
1202.79248 148.0
1203.351685 208.0
1203.524292 168.0
1203.855713 160.0
1204.415161 144.0
1204.504883 148.0
1204.65686 252.0
1204.712158 212.0
1204.843384 172.0
1205.195679 124.0
1205.38916 160.0
1205.51355 124.0
1205.575806 88.0
1206.13562 52.0
1206.28772 172.0
1206.343018 140.0
1206.688599 44.0
1207.283325 208.0
1207.428467 188.0
1207.705078 136.0
1207.774292 164.0
1207.843506 156.0
1208.237793 208.0
1208.971191 128.0
1209.054199 208.0
1209.421021 176.0
1209.558472 168.0
1209.85022 144.0
1210.507935 144.0
1210.611816 76.0
1211.124268 136.0
1211.352905 152.0
1211.851685 152.0
1212.00415 184.0
1212.080322 152.0
1212.918945 112.0
1213.015991 136.0
1213.341797 168.0
1213.418823 72.0
1213.477783 232.0
1213.72998 224.0
1213.814941 140.0
1214.028198 56.0
1214.25708 176.0
1214.437378 160.0
1215.054688 120.0
1215.186523 136.0
1215.505737 176.0
1215.623657 124.0
1215.734741 164.0
1215.977661 192.0
1216.102539 212.0
1216.984131 72.0
1217.623047 204.0
1218.130005 144.0
1218.324463 136.0
1218.560669 152.0
1218.803955 172.0
1218.935913 140.0
1219.290283 148.0
1219.49292 204.0
1219.637817 120.0
1219.762939 72.0
1220.604126 88.0
1220.708496 148.0
1220.872192 196.0
1221.00293 208.0
1221.099731 172.0
1221.285645 92.0
1221.334351 68.0
1221.536499 184.0
1222.169189 120.0
1222.572754 216.0
1223.477539 144.0
1224.006714 140.0
1224.222656 40.0
1224.501221 192.0
1224.605591 244.0
1224.682251 184.0
1224.807617 256.0
1224.932983 140.0
1225.030518 180.0
1225.692383 168.0
1225.852661 92.0
1226.138306 132.0
1226.765625 108.0
1226.863281 220.0
1227.232788 144.0
1227.776611 224.0
1227.888184 144.0
1228.087158 148.0
1228.481079 108.0
1228.836914 128.0
1229.234619 60.0
1229.953491 120.0
1230.30249 140.0
1230.442749 172.0
1230.5896 192.0
1230.91687 140.0
1231.070435 72.0
1231.41272 228.0
1231.608276 188.0
1231.747925 176.0
1232.306763 156.0
1232.404663 148.0
1232.935669 120.0
1233.075439 104.0
1233.145386 160.0
1233.243164 240.0
1233.613647 236.0
1233.725464 160.0
1234.130981 88.0
1234.256836 128.0
1235.075073 160.0
1235.19397 164.0
1235.501709 80.0
1236.642334 236.0
1236.71228 192.0
1236.950317 164.0
1237.066528 180.0
1237.215088 212.0
1237.42627 92.0
1237.762451 128.0
1237.825439 176.0
1238.126587 128.0
1238.210571 144.0
1238.266602 164.0
1238.632324 128.0
1238.749878 216.0
1238.819946 168.0
1238.896973 144.0
1239.667725 168.0
1240.039185 116.0
1240.291504 168.0
1240.585815 212.0
1241.293945 192.0
1241.449341 124.0
1241.72168 168.0
1242.177612 148.0
1242.314575 200.0
1242.54248 116.0
1242.878906 208.0
1243.09668 176.0
1243.391479 160.0
1243.517822 184.0
1243.573975 48.0
1243.658203 160.0
1243.791504 216.0
1244.914795 216.0
1245.202759 188.0
1245.666382 220.0
1245.905151 92.0
1246.00354 204.0
1246.158081 56.0
1246.375854 124.0
1247.119385 184.0
1247.605835 116.0
1247.888916 56.0
1248.006592 200.0
1248.143921 232.0
1248.224487 72.0
1248.372192 100.0
1248.780029 120.0
1248.87146 132.0
1248.927734 196.0
1249.47644 112.0
1249.638306 184.0
1250.405273 140.0
1250.755371 204.0
1250.848633 108.0
1250.936401 216.0
1251.116211 144.0
1251.376709 144.0
1251.954102 128.0
1252.330811 112.0
1252.594971 108.0
1253.475586 164.0
1253.785645 172.0
1254.215576 124.0
1254.730225 192.0
1254.899414 192.0
1254.997681 128.0
1255.075684 108.0
1255.296875 224.0
1255.611572 124.0
1255.745605 148.0
1256.210571 100.0
1256.557739 156.0
1257.015381 144.0
1257.551758 176.0
1258.081177 140.0
1258.194092 164.0
1258.497681 256.0
1258.780151 224.0
1258.977783 164.0
1259.029541 136.0
1259.295654 152.0
1259.677002 332.0
1259.994873 140.0
1260.242188 88.0
1260.690796 184.0
1260.920532 152.0
1261.06189 148.0
1261.903076 188.0
1262.129395 120.0
1262.419312 48.0
1262.518311 168.0
1263.140625 100.0
1263.572144 136.0
1263.635864 120.0
1263.833984 160.0
1264.301025 168.0
1264.661987 68.0
1264.782227 116.0
1265.249512 128.0
1265.426392 208.0
1265.865479 188.0
1265.99292 76.0
1266.254883 140.0
1266.61145 144.0
1266.842773 104.0
1266.945801 184.0
1267.026978 136.0
1267.359985 132.0
1267.433594 252.0
1267.55835 172.0
1267.671753 160.0
1268.075684 168.0
1268.196167 128.0
1268.345093 180.0
1268.791626 132.0
1269.103638 236.0
1269.266602 168.0
1269.401367 60.0
1269.45813 112.0
1270.018433 100.0
1270.224121 136.0
1270.358887 48.0
1270.42981 132.0
1270.649658 172.0
1271.486938 144.0
1271.699951 84.0
1271.948364 140.0
1272.24646 44.0
1272.338745 184.0
1272.864136 204.0
1273.233398 192.0
1273.403809 180.0
1273.496216 200.0
1273.943726 136.0
1274.142578 160.0
1274.227905 160.0
1274.31311 132.0
1274.407471 156.0
1274.924194 160.0
1275.143188 108.0
1275.386108 160.0
1275.464355 96.0
1275.64209 140.0
1275.706055 140.0
1276.210815 176.0
1277.498047 60.0
1277.647339 152.0
1277.697144 124.0
1277.86792 164.0
1277.946167 120.0
1278.389526 128.0
1278.857056 224.0
1279.19873 76.0
1279.29126 180.0
1279.497681 168.0
1279.853638 128.0
1279.960449 96.0
1280.534302 200.0
1280.815063 72.0
1280.993164 192.0
1281.285278 312.0
1281.413452 136.0
1281.776855 148.0
1281.876587 112.0
1282.268555 128.0
1282.339844 64.0
1282.446777 152.0
1282.881592 180.0
1283.138184 136.0
1283.535767 168.0
1283.737061 144.0
1284.116089 168.0
1284.414673 180.0
1284.696045 144.0
1285.349243 196.0
1285.499023 160.0
1285.606079 76.0
1285.784546 64.0
1285.898682 72.0
1285.955811 124.0
1286.048584 128.0
1286.319824 176.0
1286.426025 180.0
1286.534302 140.0
1286.840942 136.0
1286.898071 104.0
1287.026611 72.0
1287.140869 176.0
1287.312134 164.0
1287.397827 152.0
1287.602539 192.0
1287.926392 84.0
1287.976318 100.0
1288.040649 140.0
1288.183472 128.0
1288.512085 172.0
1288.911377 160.0
1289.012329 108.0
1289.148071 148.0
1289.576782 116.0
1289.855591 76.0
1289.998535 96.0
1290.191528 188.0
1290.398926 224.0
1290.484741 184.0
1290.591919 148.0
1290.724976 228.0
1290.752319 140.0
1290.920898 60.0
1290.99231 180.0
1291.296387 188.0
1291.428589 140.0
1291.70752 92.0
1292.322754 172.0
1292.480225 80.0
1292.709229 124.0
1292.965454 256.0
1293.024048 128.0
1293.117065 112.0
1293.281738 188.0
1293.435303 192.0
1293.553711 148.0
1293.811401 140.0
1293.875854 244.0
1294.088745 184.0
1294.162231 172.0
1294.663452 224.0
1294.713623 168.0
1294.849609 148.0
1295.234619 144.0
1295.537231 196.0
1295.601807 144.0
1295.721924 176.0
1295.787964 204.0
1296.045898 136.0
1296.203613 148.0
1296.37561 184.0
1296.741089 192.0
1296.812744 176.0
1297.056396 160.0
1297.11377 180.0
1297.16394 188.0
1297.228882 176.0
1297.357422 188.0
1297.407715 128.0
1297.486572 128.0
1298.053345 160.0
1298.332642 144.0
1298.429443 200.0
1298.561646 188.0
1299.186157 56.0
1299.250732 80.0
1299.796021 140.0
1299.989746 112.0
1300.104492 76.0
1300.413086 224.0
1300.477661 168.0
1301.109375 84.0
1301.231445 216.0
1301.375 140.0
1301.432495 96.0
1301.604736 188.0
1301.834595 144.0
1301.927979 224.0
1302.057251 128.0
1302.150513 144.0
1302.388428 176.0
1302.92627 116.0
1303.019775 128.0
1303.113159 112.0
1303.716675 148.0
1303.917969 172.0
1304.169434 256.0
1304.464111 208.0
1304.787598 136.0
1304.873901 128.0
1304.938599 148.0
1305.240601 72.0
1305.348511 316.0
1305.593018 116.0
1305.730103 124.0
1305.952515 160.0
1306.168335 160.0
1306.470459 128.0
1306.578369 164.0
1306.686279 84.0
1306.942627 160.0
1307.049072 132.0
1307.274536 180.0
1307.362671 212.0
1307.470581 188.0
1307.528198 160.0
1307.657715 184.0
1307.833984 172.0
1307.918457 176.0
1308.075195 40.0
1308.456665 184.0
1308.672729 216.0
1308.737427 104.0
1309.039917 188.0
1309.155151 164.0
1309.281128 152.0
1309.342407 120.0
1309.407227 192.0
1309.55127 136.0
1309.610962 68.0
1309.731323 124.0
1309.839355 108.0
1310.473267 120.0
1311.432861 196.0
1311.763306 156.0
1311.929077 148.0
1312.44812 216.0
1312.520264 136.0
1312.757324 200.0
1313.176514 160.0
1313.789551 200.0
1313.861206 188.0
1313.982056 192.0
1314.085327 160.0
1314.164673 148.0
1314.272949 148.0
1314.396606 148.0
1314.845581 228.0
1315.052368 132.0
1315.141724 204.0
1315.247192 116.0
1315.411743 176.0
1315.644165 196.0
1315.882446 196.0
1316.04126 184.0
1316.30542 216.0
1316.387817 136.0
1316.460083 132.0
1317.643921 128.0
1317.796387 96.0
1318.146484 164.0
1318.251587 120.0
1318.605713 240.0
1318.670776 148.0
1318.764038 172.0
1318.781372 156.0
1318.952637 44.0
1319.003174 184.0
1319.162231 136.0
1319.494751 44.0
1319.698486 228.0
1319.791382 136.0
1320.123779 128.0
1320.174438 200.0
1320.225098 160.0
1320.278198 192.0
1320.352661 340.0
1320.543213 216.0
1320.680664 324.0
1320.847046 108.0
1321.042358 208.0
1321.654419 228.0
1322.019043 144.0
1322.359253 196.0
1322.424316 236.0
1322.518433 184.0
1322.641479 160.0
1322.793457 212.0
1322.923828 148.0
1323.235107 108.0
1323.34375 188.0
1323.553711 248.0
1323.86499 188.0
1324.075073 132.0
1324.256104 80.0
1324.502319 136.0
1324.625488 92.0
1324.792114 176.0
1324.871826 148.0
1325.031128 248.0
1325.328247 120.0
1325.502075 144.0
1325.680664 144.0
1325.893433 136.0
1325.951416 80.0
1326.145508 196.0
1326.197876 216.0
1326.295654 188.0
1326.338379 152.0
1326.42981 108.0
1326.596436 132.0
1326.67627 180.0
1327.092773 116.0
1327.198242 68.0
1327.345093 156.0
1327.865356 180.0
1328.177246 44.0
1328.753296 164.0
1328.830078 236.0
1329.018799 148.0
1329.280029 52.0
1329.831543 128.0
1329.954956 160.0
1330.056519 160.0
1330.426758 136.0
1330.557373 120.0
1330.775146 80.0
1331.036621 188.0
1331.145508 56.0
1331.341553 148.0
1331.654175 168.0
1331.80542 176.0
1331.915283 200.0
1332.075073 152.0
1332.169556 76.0
1332.438354 168.0
1332.503784 128.0
1332.583618 104.0
1332.867065 184.0
1333.50647 152.0
1333.586426 132.0
1333.746338 172.0
1333.877197 176.0
1334.000732 160.0
1334.407837 128.0
1334.531494 136.0
1335.13501 136.0
1335.236816 224.0
1335.375 152.0
1335.985962 144.0
1336.048584 184.0
1336.226074 176.0
1336.393433 144.0
1336.466187 84.0
1336.524414 160.0
1336.589844 200.0
1336.83728 136.0
1337.244751 112.0
1337.528687 268.0
1337.95813 184.0
1338.052734 152.0
1338.169312 244.0
1338.477905 192.0
1338.62793 192.0
1339.902588 160.0
1340.077515 172.0
1340.157593 248.0
1340.237793 208.0
1340.347046 152.0
1340.440552 196.0
1340.798828 72.0
1341.199707 160.0
1341.418335 184.0
1341.529663 204.0
1341.578735 248.0
1341.658936 132.0
1341.994263 140.0
1342.052612 156.0
1342.169312 172.0
1342.271362 156.0
1342.322388 124.0
1342.468262 204.0
1342.730835 132.0
1342.900757 128.0
1343.040161 180.0
1343.124634 124.0
1343.241333 116.0
1343.496704 148.0
1344.116821 192.0
1344.421265 224.0
1344.871948 196.0
1345.415894 184.0
1345.474365 164.0
1345.613037 84.0
1345.824707 140.0
1345.927002 220.0
1346.211792 112.0
1346.555298 112.0
1346.708374 236.0
1346.825195 208.0
1347.007812 112.0
1347.493164 148.0
1347.584961 208.0
1347.650757 48.0
1347.767578 148.0
1348.067261 196.0
1348.12561 124.0
1348.563232 168.0
1348.65918 72.0
1349.01001 76.0
1349.13916 168.0
1349.22937 236.0
1349.434082 224.0
1349.664551 236.0
1349.794189 156.0
1350.121338 152.0
1351.525879 164.0
1351.781982 88.0
1351.840454 160.0
1352.264893 192.0
1352.638184 100.0
1352.741333 196.0
1353.048218 132.0
1353.157959 272.0
1353.524048 80.0
1354.043945 136.0
1354.182129 180.0
1354.263672 136.0
1354.527344 120.0
1354.72522 152.0
1354.783813 172.0
1354.901001 196.0
1355.091431 120.0
1355.164673 84.0
1355.251709 184.0
1355.298218 204.0
1355.465088 96.0
1355.626343 228.0
1356.549805 156.0
1356.689087 172.0
1356.901733 156.0
1357.180298 96.0
1357.260986 136.0
1357.341553 44.0
1357.466553 188.0
1357.678955 156.0
1357.818237 116.0
1357.898926 80.0
1357.994263 108.0
1358.067627 124.0
1358.493042 104.0
1358.81897 200.0
1358.969971 44.0
1359.131348 156.0
1359.278076 196.0
1359.329468 128.0
1359.432129 176.0
1359.505615 156.0
1359.64502 200.0
1360.834106 212.0
1360.922241 52.0
1361.142456 132.0
1361.333374 108.0
1361.759399 124.0
1361.908203 172.0
1362.08252 80.0
1362.288574 152.0
1362.361694 76.0
1362.449829 444.0
1362.670288 184.0
1362.949463 176.0
1363.044922 192.0
1363.544678 152.0
1363.868042 108.0
1364.037109 172.0
1364.220825 148.0
1364.875244 148.0
1365.07373 140.0
1365.434082 236.0
1365.588501 200.0
1365.81665 168.0
1365.897461 160.0
1365.956299 128.0
1366.206421 164.0
1366.37561 144.0
1366.787598 168.0
1367.496948 184.0
1367.854736 156.0
1367.951416 152.0
1368.06897 164.0
1368.797119 152.0
1369.38623 20.0
1369.437744 72.0
1369.828125 160.0
1369.90918 184.0
1370.041748 180.0
1370.284912 120.0
1370.365967 152.0
1370.528076 120.0
1370.774902 144.0
1370.992188 208.0
1371.130249 172.0
1371.250122 92.0
1371.301758 148.0
1371.854614 200.0
1371.957764 192.0
1372.068359 136.0
1372.282227 132.0
1372.392822 148.0
1372.93103 164.0
1373.071167 180.0
1373.218628 168.0
1373.35144 200.0
1373.882568 60.0
1374.165649 172.0
1374.354736 152.0
1374.561279 176.0
1374.612915 140.0
1374.856445 36.0
1374.914795 120.0
1375.380493 168.0
1375.542847 228.0
1375.742188 64.0
1376.15564 152.0
1376.221558 192.0
1376.834961 220.0
1377.064697 180.0
1377.171631 216.0
1377.980347 176.0
1378.053711 116.0
1378.14978 116.0
1378.282715 156.0
1378.630127 152.0
1378.814819 200.0
1379.151978 356.0
1379.287842 176.0
1379.784424 180.0
1379.886597 168.0
1380.019653 204.0
1380.200317 156.0
1380.271118 124.0
1380.529907 188.0
1380.662964 188.0
1380.796143 152.0
1380.914429 132.0
1381.182617 220.0
1381.935303 108.0
1382.016724 40.0
1382.438477 168.0
1382.490234 88.0
1382.675293 168.0
1383.289551 140.0
1383.407959 180.0
1383.55603 132.0
1383.733765 96.0
1383.800415 240.0
1384.081787 112.0
1384.398804 172.0
1384.526001 120.0
1384.607544 124.0
1384.888916 196.0
1384.977783 76.0
1385.244507 196.0
1385.644531 140.0
1385.814941 168.0
1385.985352 132.0
1386.052002 152.0
1386.385498 256.0
1386.600342 184.0
1386.73291 200.0
1386.970947 140.0
1387.045044 164.0
1387.10437 212.0
1387.215576 152.0
1387.294434 156.0
1387.393433 124.0
1387.693359 224.0
1387.860596 132.0
1387.979126 224.0
1388.164551 144.0
1388.468628 196.0
1388.980347 112.0
1389.121338 132.0
1389.202881 192.0
1389.521851 164.0
1389.581299 132.0
1389.870605 124.0
1390.100586 140.0
1390.298218 240.0
1390.538452 184.0
1390.679443 140.0
1390.761108 192.0
1390.961548 188.0
1391.199097 120.0
1391.317871 96.0
1391.518311 84.0
1391.644531 168.0
1391.696533 112.0
1391.822754 124.0
1391.926636 164.0
1392.2052 136.0
1392.467407 192.0
1392.632202 32.0
1392.750977 116.0
1392.973877 168.0
1393.460815 124.0
1393.791016 120.0
1393.947144 168.0
1394.43689 128.0
1394.526733 164.0
1394.615967 148.0
1395.151123 36.0
1395.411377 248.0
1395.599121 200.0
1395.738525 184.0
1396.080566 164.0
1396.184692 176.0
1396.409546 164.0
1396.854492 180.0
1397.047363 116.0
1397.129272 116.0
1397.238037 136.0
1397.434326 124.0
1397.575684 232.0
1397.96936 200.0
1398.196777 196.0
1398.431396 112.0
1398.535645 164.0
1398.662109 140.0
1398.833374 208.0
1399.823486 152.0
1400.237793 184.0
1400.318481 192.0
1400.590576 176.0
1401.007812 152.0
1401.076782 152.0
1401.685791 160.0
1401.901855 132.0
1402.11792 108.0
1402.319214 172.0
1402.668213 204.0
1402.766357 44.0
1402.908081 324.0
1403.511963 200.0
1403.598877 176.0
1403.713257 144.0
1404.185059 120.0
1404.533569 124.0
1404.839478 96.0
1405.040894 144.0
1405.302124 172.0
1405.448242 152.0
1405.595581 204.0
1405.805786 168.0
1405.906372 108.0
1406.003418 60.0
1406.197388 152.0
1406.354126 164.0
1406.436279 136.0
1406.525879 156.0
1406.660156 200.0
1407.018555 80.0
1407.317139 124.0
1407.376831 132.0
1407.563599 188.0
1407.630737 28.0
1407.765503 160.0
1407.974243 188.0
1408.071411 228.0
1408.131104 180.0
1408.287964 172.0
1408.571777 128.0
1408.661377 60.0
1408.892944 108.0
1409.401001 176.0
1409.572876 124.0
1409.647461 196.0
1409.766357 164.0
1409.894165 36.0
1410.297729 124.0
1410.544434 148.0
1411.015381 64.0
1411.067749 136.0
1411.194824 52.0
1411.269531 108.0
1411.34436 156.0
1411.501343 108.0
1411.561157 172.0
1411.62854 292.0
1411.680786 196.0
1411.871338 160.0
1411.942627 116.0
1412.069702 116.0
1412.137085 132.0
1412.533447 164.0
1412.615723 168.0
1412.832642 216.0
1413.333984 152.0
1413.41272 176.0
1413.439819 208.0
1413.730469 140.0
1413.969971 156.0
1414.119629 160.0
1414.202026 248.0
1414.426514 44.0
1414.621948 184.0
1414.696045 92.0
1414.868164 128.0
1415.257568 124.0
1415.5271 172.0
1415.646851 144.0
1415.859863 228.0
1416.343384 188.0
1416.478271 152.0
1416.557617 204.0
1416.717896 172.0
1416.770386 148.0
1417.131226 120.0
1417.24231 92.0
1417.999146 128.0
1418.133789 172.0
1418.388916 240.0
1418.48645 124.0
1418.943726 132.0
1418.996094 164.0
1419.183594 208.0
1419.475464 204.0
1419.776123 168.0
1419.880981 152.0
1419.993408 180.0
1420.488525 144.0
1420.85083 164.0
1421.019409 212.0
1421.088623 136.0
1421.145264 224.0
1421.471313 52.0
1421.6521 164.0
1421.936523 148.0
1422.094238 116.0
1422.236816 52.0
1422.608154 216.0
1422.679688 200.0
1422.844849 148.0
1422.897339 216.0
1422.97998 128.0
1423.032471 128.0
1423.122559 56.0
1423.3479 40.0
1423.460449 220.0
1423.54126 144.0
1424.091309 188.0
1424.143921 120.0
1424.211548 156.0
1424.421753 148.0
1424.552856 180.0
1424.693237 156.0
1424.827515 48.0
1425.052856 148.0
1425.112915 188.0
1425.210938 236.0
1425.45105 164.0
1425.526245 144.0
1425.63147 208.0
1425.706543 52.0
1425.849365 164.0
1425.938843 212.0
1426.089844 216.0
1426.210083 172.0
1426.29541 136.0
1426.833984 216.0
1426.946777 396.0
1427.172363 192.0
1427.375366 140.0
1427.773926 136.0
1427.931885 176.0
1428.413208 56.0
1428.46582 184.0
1428.608765 40.0
1428.852173 184.0
1429.792969 188.0
1429.917969 144.0
1430.008301 124.0
1430.143799 120.0
1430.294312 168.0
1430.422363 112.0
1430.607178 168.0
1430.708374 204.0
1430.896606 120.0
1430.994385 120.0
1431.24292 160.0
1431.718872 176.0
1431.785034 156.0
1432.372681 192.0
1432.470459 140.0
1432.538208 108.0
1432.809448 152.0
1433.156006 164.0
1433.284058 148.0
1433.55542 176.0
1433.984985 160.0
1434.113037 124.0
1435.070435 196.0
1435.130737 224.0
1435.245728 196.0
1435.756592 180.0
1435.847168 308.0
1436.02063 168.0
1436.420288 152.0
1436.556152 156.0
1436.624023 168.0
1436.729614 160.0
1436.812622 164.0
1437.106812 156.0
1437.484131 188.0
1437.612427 100.0
1438.170898 152.0
1438.50293 164.0
1438.58606 148.0
1438.865356 232.0
1439.198608 192.0
1439.310791 32.0
1439.582642 152.0
1439.997925 112.0
1440.265991 232.0
1440.405884 256.0
1440.575562 120.0
1440.826172 176.0
1440.869019 208.0
1440.972412 188.0
1441.486206 156.0
1441.542969 132.0
1441.644897 204.0
1441.818726 264.0
1441.916992 108.0
1442.509521 192.0
1442.808838 140.0
1443.050781 156.0
1443.118896 92.0
1443.345703 132.0
1443.557373 92.0
1444.130615 152.0
1444.343872 128.0
1444.631348 228.0
1444.858276 136.0
1445.403076 112.0
1446.356567 164.0
1446.430542 200.0
1446.62915 104.0
1446.770874 176.0
1446.961792 228.0
1447.09436 292.0
1447.171021 340.0
1447.34082 144.0
1447.562378 104.0
1447.643677 160.0
1447.764771 212.0
1447.840576 156.0
1448.052612 188.0
1448.188965 192.0
1448.401001 184.0
1448.702515 164.0
1448.779785 108.0
1448.878174 136.0
1449.25293 224.0
1449.408569 120.0
1449.726807 144.0
1449.860962 188.0
1450.143677 180.0
1450.206787 176.0
1450.894043 120.0
1451.248535 160.0
1451.720581 216.0
1452.001099 184.0
1452.200195 384.0
1452.850586 72.0
1453.009888 160.0
1453.554199 160.0
1453.892334 140.0
1454.026733 124.0
1454.780029 180.0
1454.831299 172.0
1455.096558 136.0
1455.220093 188.0
1455.331543 196.0
1455.446289 148.0
1455.598145 44.0
1455.909424 188.0
1455.970215 80.0
1456.376709 140.0
1456.524658 164.0
1456.593018 116.0
1456.919678 100.0
1457.132324 120.0
1457.48938 284.0
1457.740234 56.0
1458.082031 148.0
1458.241821 176.0
1458.58374 164.0
1458.681885 120.0
1458.986694 144.0
1459.196411 112.0
1459.29834 180.0
1459.397217 148.0
1459.686157 180.0
1459.779541 212.0
1459.861084 136.0
1460.041504 132.0
1460.309692 148.0
1460.435425 232.0
1460.644409 144.0
1460.712891 80.0
1460.863647 184.0
1461.02478 160.0
1461.526855 140.0
1461.5802 96.0
1461.78479 184.0
1461.838867 344.0
1461.953003 248.0
1462.179688 168.0
1462.351562 192.0
1462.431519 140.0
1462.569458 144.0
1462.676025 172.0
1462.835815 188.0
1462.957153 192.0
1463.064209 172.0
1463.321167 200.0
1463.39917 52.0
1464.252075 152.0
1464.549072 188.0
1464.602417 184.0
1464.678589 128.0
1464.884277 112.0
1465.447998 140.0
1465.663574 148.0
1465.737305 112.0
1465.957886 144.0
1466.179565 144.0
1466.373657 212.0
1466.606323 188.0
1466.694824 208.0
1467.063599 68.0
1467.16272 140.0
1467.462891 100.0
1467.56604 220.0
1467.696411 144.0
1467.780273 44.0
1467.83374 172.0
1468.074829 216.0
1468.230225 164.0
1468.283569 156.0
1468.420898 148.0
1468.481934 172.0
1468.748535 208.0
1469.191284 124.0
1469.366699 148.0
1469.61853 136.0
1469.977173 176.0
1470.35144 176.0
1470.68689 184.0
1471.091431 128.0
1471.144897 124.0
1471.251709 172.0
1471.54187 220.0
1471.776367 128.0
1471.900757 148.0
1472.0 192.0
1472.160889 172.0
1472.229004 336.0
1472.358887 116.0
1472.496338 116.0
1472.694946 196.0
1472.762451 176.0
1472.817139 220.0
1472.96228 156.0
1473.328857 100.0
1473.498047 192.0
1473.687988 144.0
1473.764404 168.0
1473.901978 100.0
1474.245728 152.0
1474.306885 168.0
1474.658447 156.0
1474.773071 168.0
1474.857178 140.0
1475.109375 172.0
1475.445801 228.0
1475.629272 116.0
1475.910522 284.0
1476.003906 196.0
1476.68457 108.0
1476.921631 96.0
1477.091675 132.0
1477.235229 64.0
1477.39502 176.0
1477.594727 132.0
1477.776855 160.0
1477.80249 128.0
1477.826538 180.0
1478.092041 132.0
1478.159912 148.0
1478.333862 204.0
1478.811401 168.0
1478.92627 172.0
1479.064819 124.0
1479.212036 208.0
1479.307129 204.0
1479.36377 180.0
1480.277588 180.0
1480.396118 48.0
1480.587646 112.0
1480.756104 168.0
1480.909302 136.0
1481.146729 128.0
1481.297363 180.0
1481.544434 236.0
1481.966431 100.0
1482.111938 140.0
1482.594727 160.0
1482.694336 112.0
1483.041992 148.0
1483.154175 132.0
1483.368774 156.0
1483.583496 144.0
1483.859497 104.0
1483.913086 112.0
1484.120117 124.0
1484.296509 248.0
1484.672241 168.0
1484.733643 148.0
1484.802612 168.0
1484.879272 192.0
1485.040405 132.0
1485.163086 176.0
1485.462158 156.0
1485.52356 172.0
1485.884155 200.0
1486.797241 140.0
1487.518677 156.0
1487.69519 124.0
1487.799683 208.0
1488.125122 144.0
1488.317139 116.0
1488.401611 148.0
1488.854614 172.0
1489.03125 80.0
1489.123413 176.0
1489.353882 176.0
1489.42981 172.0
1489.444946 152.0
1489.545898 196.0
1489.649536 156.0
1489.799316 200.0
1490.281494 132.0
1490.951904 184.0
1491.028687 156.0
1491.0979 176.0
1491.223267 196.0
1491.628174 120.0
1491.74353 152.0
1492.066406 184.0
1492.143311 136.0
1492.312378 172.0
1492.366211 208.0
1492.458496 176.0
1492.635376 100.0
1492.70459 176.0
1492.847412 168.0
1492.896851 212.0
1493.050659 112.0
1493.204468 40.0
1493.258301 148.0
1493.443726 208.0
1493.658203 160.0
1493.727417 64.0
1493.873535 148.0
1494.043823 204.0
1494.240845 168.0
1494.342896 64.0
1494.542847 196.0
1494.830688 140.0
1494.88147 188.0
1494.935303 176.0
1494.997559 176.0
1495.211548 156.0
1495.550415 104.0
1495.643433 252.0
1495.849365 164.0
1495.973755 164.0
1496.297729 48.0
1496.436279 32.0
1496.875122 120.0
1496.936768 48.0
1497.267944 176.0
1497.537476 120.0
1497.745361 144.0
1497.821167 152.0
1498.061157 160.0
1498.246094 44.0
1498.392456 156.0
1498.508057 172.0
1498.577393 176.0
1498.77771 188.0
1498.839355 184.0
1499.694702 80.0
1500.006226 176.0
1500.064697 104.0
1500.169312 388.0
1500.265137 208.0
1500.365356 112.0
1500.419312 80.0
1501.275146 232.0
1501.329224 132.0
1501.468018 128.0
1501.583618 76.0
1501.804443 196.0
1501.988037 180.0
1502.139038 244.0
1502.200684 196.0
1502.281738 344.0
1502.3396 44.0
1502.478394 124.0
1502.972168 92.0
1503.049316 196.0
1503.211426 200.0
1503.334839 92.0
1503.432739 88.0
1503.464111 176.0
1503.483032 220.0
1503.800659 200.0
1504.043823 152.0
