>compound MLS001332578-01!Salmeterol xinafoate94749-08-3
>formula C25H37NO4
>ionization [M+H]+
>parentmass 416.278503
#inchi InChI=1S/C25H37NO4/c27-20-23-18-22(13-14-24(23)28)25(29)19-26-15-7-1-2-8-16-30-17-9-6-12-21-10-4-3-5-11-21/h3-5,10-11,13-14,18,25-29H,1-2,6-9,12,15-17,19-20H2
#inchikey GIIZNNXWQWCKIB
#origInchi InChI=1S/C25H37NO4.C11H8O3/c27-20-23-18-22(13-14-24(23)28)25(29)19-26-15-7-1-2-8-16-30-17-9-6-12-21-10-4-3-5-11-21;12-10-8-4-2-1-3-7(8)5-6-9(10)11(13)14/h3-5,10-11,13-14,18,25-29H,1-2,6-9,12,15-17,19-20H2;1-6,12H,(H,13,14)
#Ion_Source LC-ESI
#Instrument qTof
#Compound_Source NIH Pharmacologically Active Library
#PI Dorrestein
#Data_Collector VP/LMS
#Scan -1
#Precursor_MZ 416.284
#ExactMass 415.272
#Charge 1
#CAS_Number N/A
#Pubmed_ID N/A
#Smiles OCc1cc(ccc1O)C(O)CNCCCCCCOCCCCc2ccccc2.Oc1c(C(O)=O)ccc2ccccc12
#INCHI_AUX N/A
#Library_Class 1
#SpectrumID CCMSLIB00000085122
#IonMode Positive
#UpdateWorkflowName UPDATE-SINGLE-ANNOTATED-GOLD
#LibraryQualityString Gold
#TaskID d252d724072548979f1f6f1ced849daf
##Scan# 1858
#SpectrumFile p3-F02_GF2_01_18283.mzXML
#LibraryName Pharm_Active_Library.mgf
#MQScore -1
#Organism Pharm_Active_Library
#TIC_Query 0
#RT_Query -1
#MZErrorPPM -1
#SharedPeaks 0
#MassDiff 0
#LibMZ -1
#SpecMZ 416.284
#SpecCharge 0
#internalFilename spec-00000.mgf

>collision 10
44.94381 52.0
44.954487 152.0
44.989189 76.0
45.05196 164.0
45.103729 152.0
45.114777 96.0
45.130821 132.0
45.154892 204.0
45.22715 152.0
45.241173 136.0
45.272675 128.0
45.292095 136.0
45.322239 56.0
45.472446 44.0
45.493923 208.0
45.515507 160.0
45.528835 224.0
45.620209 108.0
45.633774 164.0
45.665932 216.0
45.680729 200.0
45.699566 152.0
45.772255 40.0
45.80862 180.0
45.851742 160.0
45.929947 316.0
45.940739 96.0
46.010921 172.0
46.020374 172.0
46.047382 176.0
46.068996 116.0
46.100075 172.0
46.124405 192.0
46.156853 124.0
46.179844 128.0
46.224495 112.0
46.238026 192.0
46.248856 196.0
46.266453 72.0
46.279995 176.0
46.308208 144.0
46.336884 136.0
46.403297 124.0
46.454838 208.0
46.475159 176.0
46.492939 152.0
46.541702 176.0
46.609745 180.0
46.640884 152.0
46.669434 104.0
46.699356 172.0
46.727924 116.0
46.763306 188.0
46.783726 148.0
46.813683 168.0
46.857273 144.0
46.925423 36.0
46.97998 164.0
47.100273 172.0
47.114418 280.0
47.140175 200.0
47.169807 184.0
47.198521 140.0
47.214931 164.0
47.230877 140.0
47.2505 176.0
47.275131 188.0
47.3078 152.0
47.338104 48.0
47.353992 180.0
47.444984 172.0
47.455956 160.0
47.471039 148.0
47.491611 128.0
47.561596 172.0
47.578068 188.0
47.60553 60.0
47.638027 340.0
47.665977 120.0
47.70034 148.0
47.786606 200.0
47.829453 196.0
47.834732 168.0
47.86972 192.0
48.016918 212.0
48.046276 192.0
48.069473 172.0
48.128834 152.0
48.182701 140.0
48.264927 140.0
48.314049 172.0
48.338955 140.0
48.379097 180.0
48.390171 164.0
48.404018 72.0
48.425663 280.0
48.471729 196.0
48.499619 160.0
48.517639 160.0
48.571728 120.0
48.585602 96.0
48.616127 108.0
48.646805 200.0
48.699436 212.0
48.844002 188.0
48.891312 136.0
48.912746 80.0
48.962315 132.0
48.99157 148.0
49.013863 200.0
49.03249 240.0
49.054283 180.0
49.07938 160.0
49.111458 120.0
49.130985 156.0
49.142151 88.0
49.323711 156.0
49.364258 140.0
49.388035 100.0
49.399227 128.0
49.413216 164.0
49.425812 40.0
49.437004 192.0
49.449532 156.0
49.469154 120.0
49.4846 240.0
49.494404 136.0
49.563011 188.0
49.599483 184.0
49.631729 180.0
49.642948 140.0
49.683628 116.0
49.693447 136.0
49.706078 200.0
49.772057 52.0
49.781883 152.0
49.807167 136.0
49.825432 108.0
49.864872 240.0
49.880241 108.0
49.947739 196.0
50.030773 248.0
50.042187 188.0
50.08147 148.0
50.126179 240.0
50.153332 180.0
50.167671 212.0
50.185528 196.0
50.244999 244.0
50.271812 176.0
50.370403 160.0
50.374161 132.0
50.379704 224.0
50.400318 244.0
50.435654 132.0
50.482868 152.0
50.527576 168.0
50.557293 104.0
50.636581 172.0
50.655121 180.0
50.711678 204.0
50.748535 276.0
50.886169 252.0
50.89753 156.0
50.914574 176.0
50.934498 148.0
50.978004 216.0
51.004089 144.0
51.107193 176.0
51.149189 208.0
51.199024 172.0
51.23251 148.0
51.248882 208.0
51.287365 152.0
51.367764 116.0
51.384342 152.0
51.434292 156.0
51.44714 200.0
51.512833 64.0
51.551491 144.0
51.571423 128.0
51.602875 216.0
51.615746 144.0
51.628616 156.0
51.654362 152.0
51.707867 192.0
51.744526 112.0
51.763561 152.0
51.826172 168.0
51.843369 140.0
51.874901 120.0
51.963821 148.0
52.040905 188.0
52.072926 192.0
52.105968 32.0
52.136147 196.0
52.166332 56.0
52.193043 220.0
52.227798 140.0
52.301556 108.0
52.369232 176.0
52.405251 152.0
52.421101 152.0
52.510487 220.0
52.524914 180.0
52.537895 160.0
52.55954 236.0
52.576859 164.0
52.623051 160.0
52.654823 212.0
52.664932 136.0
52.680824 160.0
52.810928 176.0
52.822456 140.0
52.920696 132.0
52.938293 216.0
53.032471 84.0
53.044067 168.0
53.061462 224.0
53.116386 184.0
53.188202 136.0
53.209457 132.0
53.221073 172.0
53.267551 188.0
53.293701 172.0
53.303875 188.0
53.346024 200.0
53.38092 144.0
53.418739 136.0
53.490047 164.0
53.514824 208.0
53.537998 116.0
53.542843 108.0
53.554459 188.0
53.582588 156.0
53.624062 140.0
53.641552 148.0
53.720303 200.0
53.790352 228.0
53.856064 116.0
53.875053 152.0
53.895935 152.0
53.917385 124.0
53.967136 108.0
53.982502 228.0
54.031494 120.0
54.068077 156.0
54.094425 176.0
54.125538 128.0
54.157391 168.0
54.177902 120.0
54.214535 168.0
54.252647 160.0
54.277573 252.0
54.29388 200.0
54.318638 128.0
54.341923 216.0
54.36047 204.0
54.386333 216.0
54.418903 228.0
54.430798 144.0
54.447319 144.0
54.575665 260.0
54.615372 80.0
54.629581 164.0
54.694836 172.0
54.709557 108.0
54.731644 188.0
54.764042 144.0
54.822979 184.0
54.930618 80.0
54.980785 172.0
55.032913 116.0
55.047222 188.0
55.060513 164.0
55.103352 196.0
55.128475 180.0
55.202393 116.0
55.217182 128.0
55.268959 128.0
55.347416 136.0
55.45853 244.0
55.471874 128.0
55.550472 132.0
55.697437 168.0
55.762817 168.0
55.81485 148.0
55.89296 252.0
55.931042 168.0
55.977058 348.0
55.990459 208.0
56.106693 236.0
56.206627 164.0
56.263348 156.0
56.32159 192.0
56.342506 316.0
56.383377 104.0
56.393314 188.0
56.424709 176.0
56.45013 264.0
56.465084 168.0
56.481537 176.0
56.5369 108.0
56.559261 196.0
56.601273 84.0
56.635719 180.0
56.652199 228.0
56.740623 124.0
56.767616 108.0
56.785614 132.0
56.83662 124.0
56.955231 128.0
56.994293 84.0
57.016834 156.0
57.028858 116.0
57.111191 176.0
57.174755 160.0
57.222927 104.0
57.269615 116.0
57.281666 156.0
57.299744 72.0
57.334404 172.0
57.385658 172.0
57.456028 140.0
57.476162 120.0
57.488235 128.0
57.526619 180.0
57.581692 80.0
57.624142 116.0
57.664944 176.0
57.674809 156.0
57.740543 104.0
57.760204 100.0
57.834354 168.0
57.855549 132.0
57.879719 204.0
57.919151 152.0
58.00098 124.0
58.093487 112.0
58.23922 164.0
58.295673 128.0
58.465767 128.0
58.485554 208.0
58.557121 168.0
58.697334 100.0
58.749191 108.0
58.776657 156.0
58.798023 48.0
58.849926 96.0
58.952278 148.0
58.974525 172.0
58.99202 256.0
59.036362 60.0
59.056244 160.0
59.07613 176.0
59.105202 148.0
59.178677 60.0
59.244537 124.0
59.269051 192.0
59.281311 36.0
59.304302 80.0
59.345207 164.0
59.358574 172.0
59.413181 112.0
59.439266 156.0
59.465355 184.0
59.486847 152.0
59.516018 176.0
59.569775 180.0
59.606651 64.0
59.663521 172.0
59.71273 100.0
59.772732 128.0
59.817368 176.0
59.858688 196.0
59.914268 200.0
59.943813 168.0
60.019203 152.0
60.085529 188.0
60.119476 224.0
60.181225 176.0
60.198212 108.0
60.241459 164.0
60.257999 204.0
60.290905 184.0
60.331097 164.0
60.3992 204.0
60.414612 144.0
60.461033 100.0
60.476509 120.0
60.549282 132.0
60.59111 128.0
60.65155 140.0
60.69046 124.0
60.705814 80.0
60.767864 184.0
60.797348 152.0
60.865654 160.0
60.901821 140.0
60.94643 152.0
60.993332 68.0
61.02726 132.0
61.062908 152.0
61.133041 240.0
61.151718 196.0
61.167286 184.0
61.181293 136.0
61.234241 108.0
61.276302 148.0
61.313702 152.0
61.330849 48.0
61.542374 184.0
61.675823 220.0
61.694584 172.0
61.716473 160.0
61.840065 44.0
61.941845 156.0
61.957512 136.0
61.973183 248.0
62.018631 156.0
62.046848 204.0
62.069206 232.0
62.108009 204.0
62.12056 124.0
62.166061 92.0
62.200596 144.0
62.233562 396.0
62.291676 120.0
62.316814 120.0
62.404205 140.0
62.444149 204.0
62.464638 168.0
62.502361 196.0
62.518097 132.0
62.573193 176.0
62.61256 480.0
62.636189 180.0
62.658245 116.0
62.72533 184.0
62.78091 176.0
62.830097 148.0
62.850609 124.0
62.909008 220.0
62.934273 160.0
62.948483 184.0
63.064766 140.0
63.078045 96.0
63.169765 164.0
63.207741 40.0
63.242558 152.0
63.259972 208.0
63.285305 176.0
63.355587 280.0
63.394608 152.0
63.424721 208.0
63.486061 128.0
63.527802 212.0
63.550011 128.0
63.6008 64.0
63.632549 128.0
63.659542 176.0
63.675426 216.0
63.697662 108.0
63.719906 184.0
63.758045 144.0
63.883209 224.0
63.937763 232.0
64.015778 204.0
64.069931 196.0
64.119774 144.0
64.143242 132.0
64.179909 152.0
64.207024 128.0
64.301155 96.0
64.412933 200.0
64.438492 180.0
64.451279 156.0
64.59037 176.0
64.679985 164.0
64.710403 160.0
64.74884 164.0
64.76165 272.0
64.843369 72.0
64.907494 188.0
64.949814 160.0
64.963631 136.0
64.974861 52.0
65.011772 236.0
65.069557 176.0
65.106491 148.0
65.2481 160.0
65.366074 224.0
65.391075 152.0
65.445808 112.0
65.598869 212.0
65.710152 180.0
65.732742 204.0
65.800537 196.0
65.936234 132.0
65.96048 188.0
65.977577 180.0
65.995132 204.0
66.010605 168.0
66.026772 188.0
66.054184 148.0
66.12664 188.0
66.238815 100.0
66.306877 48.0
66.32795 188.0
66.381454 108.0
66.412094 184.0
66.477165 140.0
66.496643 164.0
66.511253 260.0
66.521317 140.0
66.548592 136.0
66.561584 212.0
66.676926 192.0
66.858177 236.0
66.903038 216.0
66.914436 140.0
66.9356 176.0
66.958405 128.0
67.007271 96.0
67.114853 136.0
67.141853 172.0
67.168129 216.0
67.184181 128.0
67.29924 60.0
67.326996 140.0
67.407051 212.0
67.467529 52.0
67.483879 144.0
67.519524 176.0
67.595894 192.0
67.673683 136.0
67.732643 400.0
67.74575 128.0
67.806381 176.0
67.829323 124.0
67.848999 84.0
67.88179 132.0
67.911316 180.0
67.926079 180.0
68.049171 204.0
68.124718 220.0
68.210175 168.0
68.226616 164.0
68.279236 148.0
68.31546 180.0
68.407578 200.0
68.433609 148.0
68.489922 168.0
68.50145 184.0
68.528412 208.0
68.568481 212.0
68.606926 148.0
68.625061 236.0
68.682785 236.0
68.738876 160.0
68.765282 176.0
68.822182 148.0
68.875916 212.0
68.900696 160.0
68.951927 88.0
68.980026 104.0
68.9916 124.0
69.024666 116.0
69.094139 188.0
69.107376 96.0
69.274597 176.0
69.302765 152.0
69.332588 68.0
69.38398 72.0
69.420456 132.0
69.446991 212.0
69.485153 48.0
69.511986 212.0
69.58474 52.0
69.624588 164.0
69.652824 184.0
69.682732 184.0
69.737572 208.0
69.804077 124.0
69.839005 196.0
69.867287 184.0
69.879761 176.0
69.912209 204.0
70.032089 200.0
70.112068 108.0
70.187218 148.0
70.229836 164.0
70.249863 204.0
70.32222 176.0
70.342247 304.0
70.369263 112.0
70.40316 200.0
70.41906 228.0
70.443909 160.0
70.482544 136.0
70.651421 204.0
70.676521 76.0
70.7155 164.0
70.726135 136.0
70.765236 176.0
70.823853 148.0
70.869087 148.0
70.978043 56.0
71.050163 148.0
71.135757 184.0
71.147507 168.0
71.221397 168.0
71.239876 156.0
71.253319 192.0
71.278526 156.0
71.339844 172.0
71.396202 176.0
71.419754 120.0
71.476952 132.0
71.535866 72.0
71.609955 156.0
71.798729 136.0
71.824028 136.0
71.975922 164.0
72.016457 160.0
72.090797 156.0
72.146576 176.0
72.161797 124.0
72.238327 112.0
72.364838 72.0
72.427498 80.0
72.446136 196.0
72.478813 208.0
72.513916 236.0
72.534256 136.0
72.547821 160.0
72.558838 132.0
72.578339 80.0
72.617348 176.0
72.676201 144.0
72.731033 144.0
72.810837 48.0
72.831215 184.0
72.937546 156.0
72.965469 148.0
73.010773 156.0
73.045403 148.0
73.091339 44.0
73.128914 156.0
73.152618 140.0
73.205399 124.0
73.217323 128.0
73.22924 164.0
73.307617 120.0
73.416725 128.0
73.432076 112.0
73.45314 284.0
73.483253 148.0
73.498611 72.0
73.546394 48.0
73.612984 160.0
73.643723 212.0
73.657387 220.0
73.720612 224.0
73.760437 172.0
73.824898 184.0
73.913849 228.0
73.975471 176.0
74.023788 164.0
74.05938 188.0
74.153618 176.0
74.167618 212.0
74.354294 140.0
74.379219 176.0
74.451302 180.0
74.475914 160.0
74.507401 224.0
74.541023 164.0
74.5793 160.0
74.599045 156.0
74.613419 212.0
74.645638 308.0
74.701393 128.0
74.802925 132.0
74.861465 128.0
74.890747 56.0
74.937019 204.0
74.983788 208.0
75.021713 120.0
75.045853 236.0
75.063095 148.0
75.147614 228.0
75.189896 288.0
75.225281 160.0
75.339264 216.0
75.389374 164.0
75.401474 204.0
75.444687 140.0
75.489647 164.0
75.581329 228.0
75.627258 156.0
75.647095 188.0
75.712898 140.0
75.780457 188.0
75.799515 148.0
75.872314 224.0
75.892967 176.0
75.934746 224.0
75.953827 216.0
75.981583 176.0
76.000671 80.0
76.045792 152.0
76.106552 200.0
76.143021 100.0
76.177765 108.0
76.193398 168.0
76.257271 180.0
76.349045 200.0
76.37072 212.0
76.417694 264.0
76.541824 332.0
76.61792 144.0
76.685883 104.0
76.720741 52.0
76.752129 40.0
76.767479 160.0
76.815865 140.0
76.846321 168.0
77.019157 228.0
77.038376 312.0
77.124001 176.0
77.158966 204.0
77.398682 152.0
77.463486 204.0
77.500275 156.0
77.527016 216.0
77.622986 168.0
77.684799 224.0
77.760216 200.0
77.821465 180.0
77.903275 168.0
77.908424 116.0
77.954773 168.0
78.00399 160.0
78.02684 128.0
78.042664 112.0
78.103355 160.0
78.165802 188.0
78.190437 172.0
78.220894 160.0
78.326019 280.0
78.387688 104.0
78.435707 212.0
78.456429 136.0
78.479355 144.0
78.496986 156.0
78.546371 136.0
78.579887 144.0
78.627533 200.0
78.664604 276.0
78.825333 200.0
78.851845 152.0
78.892502 208.0
78.973846 152.0
79.035767 228.0
79.048157 136.0
79.08886 88.0
79.10125 252.0
79.124268 136.0
79.161453 200.0
79.203964 128.0
79.319145 76.0
79.338646 184.0
79.395386 180.0
79.411354 216.0
79.452148 156.0
79.491188 136.0
79.512482 200.0
79.540886 180.0
79.55864 168.0
79.583496 160.0
79.643875 160.0
79.658875 180.0
79.677628 148.0
79.842018 268.0
79.889198 192.0
79.950302 216.0
79.967491 140.0
79.992416 204.0
80.026245 168.0
80.044052 32.0
80.068985 164.0
80.090034 228.0
80.106392 180.0
80.143806 140.0
80.177666 68.0
80.236488 176.0
80.261452 184.0
80.279282 88.0
80.293549 172.0
80.307823 164.0
80.325661 204.0
80.389938 156.0
80.452362 88.0
80.557457 156.0
80.5756 200.0
80.597038 148.0
80.658936 172.0
80.691772 256.0
80.707863 140.0
80.812729 160.0
80.852768 128.0
81.00676 212.0
81.026466 136.0
81.051552 168.0
81.120911 132.0
81.137589 188.0
81.187798 388.0
81.202148 200.0
81.27211 220.0
81.295441 48.0
81.327751 136.0
81.369209 208.0
81.432739 136.0
81.463165 88.0
81.503754 36.0
81.554077 216.0
81.575096 224.0
81.600685 228.0
81.649368 228.0
81.668137 156.0
81.710533 240.0
81.746521 104.0
81.762001 192.0
81.799927 196.0
81.904961 188.0
81.949997 164.0
81.982437 172.0
82.000206 140.0
82.031105 152.0
82.074379 204.0
82.130287 340.0
82.148323 144.0
82.195236 132.0
82.209045 196.0
82.301735 52.0
82.357727 160.0
82.378136 200.0
82.40992 208.0
82.440834 144.0
82.525795 172.0
82.55835 172.0
82.596329 136.0
82.688614 124.0
82.75016 192.0
82.781433 224.0
82.842529 180.0
82.881012 192.0
82.902321 192.0
82.949448 280.0
82.982086 220.0
83.010765 196.0
83.083649 180.0
83.112679 164.0
83.130829 188.0
83.173607 200.0
83.188911 68.0
83.221596 180.0
83.237465 280.0
83.31604 164.0
83.328758 200.0
83.365097 176.0
83.390541 168.0
83.408722 156.0
83.437813 180.0
83.548752 136.0
83.668869 208.0
83.787254 172.0
83.877861 156.0
83.880981 112.0
83.890106 204.0
83.960426 120.0
84.027924 88.0
84.091797 156.0
84.1064 72.0
84.183083 136.0
84.1968 156.0
84.21946 148.0
84.23307 216.0
84.268936 188.0
84.356659 140.0
84.374947 176.0
84.415955 140.0
84.510292 180.0
84.548721 148.0
84.603638 124.0
84.693176 344.0
84.810638 216.0
84.838142 60.0
84.867477 188.0
84.906067 188.0
84.932411 216.0
84.981201 48.0
85.00872 164.0
85.021568 76.0
85.045433 176.0
85.09436 196.0
85.173965 180.0
85.199684 168.0
85.234123 148.0
85.348061 188.0
85.378365 196.0
85.431335 92.0
85.457092 168.0
85.585938 200.0
85.60067 48.0
85.615402 176.0
85.628654 188.0
85.679878 140.0
85.89373 196.0
85.926933 216.0
85.969376 128.0
85.989677 204.0
86.011826 152.0
86.061676 124.0
86.179893 156.0
86.279701 108.0
86.318527 232.0
86.340721 216.0
86.369347 184.0
86.416565 140.0
86.531326 72.0
86.564651 188.0
86.64801 108.0
86.672096 96.0
86.829674 228.0
86.931717 168.0
86.955841 48.0
86.968834 132.0
87.069099 228.0
87.111824 196.0
87.132256 112.0
87.227036 172.0
87.250496 240.0
87.284225 176.0
87.308617 160.0
87.347916 184.0
87.480042 124.0
87.541084 180.0
87.554169 212.0
87.576874 184.0
87.593636 88.0
87.850899 108.0
87.906921 164.0
87.940468 212.0
87.981537 148.0
88.033821 164.0
88.136566 124.0
88.200111 52.0
88.228149 228.0
88.347847 92.0
88.392242 44.0
88.508812 104.0
88.615578 140.0
88.677422 244.0
88.69429 172.0
88.707413 108.0
88.759911 136.0
88.833061 116.0
88.859329 96.0
88.885597 332.0
88.966309 128.0
88.996346 208.0
89.033905 104.0
89.099648 116.0
89.154144 156.0
89.208305 172.0
89.25647 204.0
89.283867 132.0
89.370399 156.0
89.421211 176.0
89.451332 160.0
89.477692 132.0
89.547203 232.0
89.586922 88.0
89.707535 180.0
89.828232 64.0
89.869736 36.0
89.898041 172.0
89.986763 156.0
90.056633 220.0
90.13456 180.0
90.156242 228.0
90.192688 52.0
90.315598 204.0
90.338295 120.0
90.484024 144.0
90.508636 144.0
90.537048 120.0
90.601448 176.0
90.616608 52.0
90.635551 140.0
90.648819 156.0
90.68483 100.0
90.779625 208.0
90.80349 172.0
90.82769 116.0
90.850426 324.0
90.887756 116.0
90.901039 212.0
90.959877 148.0
90.983208 208.0
91.02253 176.0
91.053429 27188.0
91.111801 64.0
91.135513 100.0
91.188866 116.0
91.222321 132.0
91.240547 200.0
91.265762 160.0
91.296417 156.0
91.319008 56.0
91.343697 176.0
91.377983 124.0
91.522644 120.0
91.553543 196.0
91.579781 164.0
91.617874 292.0
91.63121 140.0
91.682663 188.0
91.708641 152.0
91.722687 64.0
91.741753 188.0
91.766541 40.0
91.781792 80.0
91.806137 188.0
91.892426 144.0
91.961128 176.0
92.001213 212.0
92.05687 2744.0
92.102425 32.0
92.188408 120.0
92.21653 112.0
92.249573 112.0
92.330391 176.0
92.372009 148.0
92.410828 268.0
92.484863 96.0
92.49826 44.0
92.546127 148.0
92.611237 44.0
92.643806 140.0
92.685959 192.0
92.712479 200.0
92.764542 172.0
92.823975 132.0
92.84903 192.0
92.879601 144.0
92.933212 144.0
92.959961 140.0
93.026123 196.0
93.067802 616.0
93.084961 40.0
93.13298 44.0
93.217514 144.0
93.252106 64.0
93.2752 172.0
93.294395 188.0
93.376373 76.0
93.397339 144.0
93.453102 132.0
93.523315 148.0
93.638847 80.0
93.66581 108.0
93.681221 148.0
93.713974 224.0
93.742882 208.0
93.756371 196.0
93.82962 220.0
93.866257 172.0
93.881683 136.0
93.919937 144.0
93.922981 136.0
93.930527 200.0
93.947266 204.0
94.065804 284.0
94.155739 228.0
94.256195 328.0
94.283257 104.0
94.319038 84.0
94.354774 276.0
94.447601 116.0
94.465012 144.0
94.478554 184.0
94.50177 56.0
94.565636 204.0
94.594673 112.0
94.629517 232.0
94.704941 236.0
94.737976 40.0
94.759293 188.0
94.865883 176.0
94.885277 48.0
94.910477 80.0
95.003578 164.0
95.084015 144.0
95.100609 360.0
95.125839 132.0
95.203506 200.0
95.221962 144.0
95.335617 248.0
95.361298 176.0
95.3881 100.0
95.473648 40.0
95.578697 256.0
95.619568 148.0
95.686188 232.0
95.709534 208.0
95.773392 156.0
95.880554 136.0
96.038483 164.0
96.063843 200.0
96.078461 152.0
96.139946 144.0
96.255119 396.0
96.301994 88.0
96.382095 144.0
96.425087 156.0
96.569778 244.0
96.665642 100.0
96.783394 180.0
96.843803 200.0
96.896111 160.0
96.920212 144.0
96.963326 172.0
96.987991 144.0
97.04174 164.0
97.069191 224.0
97.092072 288.0
97.108414 168.0
97.198662 176.0
97.216324 196.0
97.237915 164.0
97.306618 44.0
97.391068 140.0
97.416603 144.0
97.483406 168.0
97.595459 144.0
97.658386 364.0
97.676094 216.0
97.746925 128.0
97.760696 88.0
97.786285 136.0
97.813843 36.0
97.882751 112.0
97.938255 220.0
97.965034 160.0
97.983208 172.0
98.002914 184.0
98.05809 100.0
98.096161 2256.0
98.133003 96.0
98.148781 160.0
98.182304 164.0
98.20005 76.0
98.215836 60.0
98.2696 284.0
98.336197 204.0
98.350014 164.0
98.407265 192.0
98.456635 204.0
98.537628 128.0
98.565285 164.0
98.585052 336.0
98.602341 192.0
98.635277 212.0
98.679932 164.0
98.797295 132.0
98.810471 184.0
98.826302 204.0
98.871819 152.0
98.901505 212.0
99.008423 124.0
99.029579 176.0
99.098923 176.0
99.145126 152.0
99.327545 72.0
99.474396 212.0
99.494247 140.0
99.524025 316.0
99.539917 148.0
99.67897 152.0
99.808182 72.0
99.828415 152.0
99.875801 388.0
99.901657 148.0
99.915588 200.0
99.943443 172.0
100.036491 128.0
100.078796 124.0
100.100494 348.0
100.112679 564.0
100.144516 48.0
100.176392 168.0
100.248123 80.0
100.26207 164.0
100.311905 180.0
100.354469 140.0
100.387672 148.0
100.615143 188.0
100.651085 128.0
100.671051 104.0
100.716537 212.0
100.840874 200.0
100.892853 164.0
100.906845 128.0
101.098877 180.0
101.112892 184.0
101.186958 96.0
101.287094 172.0
101.323151 204.0
101.363487 152.0
101.450096 164.0
101.485504 44.0
101.515099 184.0
101.521767 140.0
101.526184 196.0
101.552376 104.0
101.587791 152.0
101.653999 92.0
101.706184 48.0
101.774445 180.0
101.88076 176.0
101.909027 164.0
101.936424 244.0
101.981377 140.0
102.009514 168.0
102.039673 156.0
102.122124 56.0
102.152298 196.0
102.200584 304.0
102.269012 64.0
102.288155 196.0
102.371689 104.0
102.430099 92.0
102.512711 188.0
102.54496 172.0
102.599388 140.0
102.617531 144.0
102.661896 144.0
102.702232 188.0
102.760735 176.0
102.774864 356.0
102.922218 304.0
102.946449 140.0
102.984505 180.0
103.021187 204.0
103.053223 2640.0
103.081802 132.0
103.099991 180.0
103.116158 168.0
103.189041 144.0
103.205109 188.0
103.326469 68.0
103.384605 180.0
103.449921 200.0
103.478264 44.0
103.49649 236.0
103.514709 160.0
103.581551 156.0
103.611938 436.0
103.661926 236.0
103.707886 220.0
103.746552 124.0
103.814644 140.0
103.887497 100.0
103.948532 72.0
104.051353 360.0
104.206161 160.0
104.236893 132.0
104.295837 92.0
104.336494 180.0
104.407661 196.0
104.425972 124.0
104.448341 144.0
104.495461 124.0
104.523621 80.0
104.660004 104.0
104.696663 124.0
104.739433 124.0
104.798515 60.0
104.829086 116.0
104.853539 152.0
104.888191 136.0
104.902458 180.0
104.91877 112.0
104.955383 192.0
104.979942 80.0
104.994217 468.0
105.01461 136.0
105.034302 196.0
105.068848 14176.0
105.173233 152.0
105.203018 208.0
105.226852 40.0
105.25544 152.0
105.322083 184.0
105.341217 152.0
105.365738 152.0
105.390251 88.0
105.41069 176.0
105.431122 176.0
105.464027 204.0
105.527199 96.0
105.545105 164.0
105.574234 60.0
105.624496 188.0
105.653664 212.0
105.668327 176.0
105.689835 180.0
105.705162 204.0
105.756332 96.0
105.789078 36.0
105.809555 152.0
105.858696 260.0
105.970505 96.0
106.029152 180.0
106.067451 620.0
106.127136 56.0
106.143547 152.0
106.164055 144.0
106.237892 156.0
106.274826 112.0
106.36718 132.0
106.410294 76.0
106.434937 76.0
106.463684 148.0
106.484222 180.0
106.51503 276.0
106.599274 180.0
106.632156 108.0
106.78019 96.0
106.800758 132.0
106.837791 200.0
106.876884 76.0
106.90818 172.0
106.923096 124.0
106.946442 140.0
107.047592 1888.0
107.083687 2412.0
107.167213 216.0
107.19606 232.0
107.257782 184.0
107.323868 52.0
107.379112 188.0
107.384178 148.0
107.453812 72.0
107.546677 196.0
107.571449 172.0
107.689156 168.0
107.749825 228.0
107.775925 132.0
107.79245 152.0
107.813828 232.0
107.831146 172.0
107.873062 152.0
108.05323 312.0
108.079781 192.0
108.125412 176.0
108.206146 112.0
108.284836 196.0
108.375992 52.0
108.415367 184.0
108.454742 148.0
108.47406 152.0
108.508644 212.0
108.541824 56.0
108.622711 196.0
108.701553 96.0
108.728119 180.0
108.788834 124.0
108.821945 252.0
108.886322 48.0
108.909172 228.0
109.02552 200.0
109.060959 160.0
109.102432 148.0
109.121147 112.0
109.137779 180.0
109.206406 120.0
109.395775 88.0
109.44928 252.0
109.470726 116.0
109.5299 216.0
109.570717 112.0
109.651985 228.0
109.672829 124.0
109.733284 112.0
109.766647 160.0
109.783333 172.0
109.802101 172.0
109.835472 148.0
109.872047 168.0
109.939796 52.0
109.95858 96.0
110.094475 3472.0
110.136063 132.0
110.215454 152.0
110.273102 184.0
110.447517 72.0
110.483078 216.0
110.501915 76.0
110.518654 244.0
110.61911 140.0
110.637955 188.0
110.709145 256.0
110.729431 228.0
110.758461 148.0
110.954353 184.0
110.979706 180.0
111.100845 600.0
111.14518 160.0
111.168266 104.0
111.325714 60.0
111.367722 92.0
111.447556 136.0
111.506401 168.0
111.523216 104.0
111.56105 184.0
111.598167 208.0
111.687225 220.0
111.729301 148.0
111.828201 176.0
111.89978 120.0
112.021935 108.0
112.055641 156.0
112.111031 2028.0
112.262215 184.0
112.352921 148.0
112.530205 160.0
112.574554 204.0
112.629471 152.0
112.687035 192.0
112.713974 168.0
112.741631 236.0
112.776115 200.0
112.896904 204.0
112.929619 184.0
112.952888 116.0
112.96981 156.0
113.109482 200.0
113.160294 236.0
113.264061 208.0
113.350929 160.0
113.490837 176.0
113.709343 164.0
113.752357 288.0
113.862213 260.0
113.966301 136.0
113.993927 272.0
114.055565 68.0
114.091827 208.0
114.142731 104.0
114.157623 144.0
114.395927 156.0
114.493874 144.0
114.557838 144.0
114.587601 160.0
114.660057 196.0
114.70269 128.0
114.728271 168.0
114.785835 292.0
114.896751 172.0
114.926628 204.0
114.953537 164.0
114.995987 104.0
115.024803 172.0
115.053558 3084.0
115.080826 216.0
115.105934 116.0
115.123016 196.0
115.161652 88.0
115.178551 216.0
115.211113 164.0
115.244781 236.0
115.308891 200.0
115.34523 132.0
115.413132 100.0
115.484161 148.0
115.527 176.0
115.598061 228.0
115.611237 76.0
115.762451 80.0
115.817116 172.0
115.92955 160.0
116.00457 156.0
116.026009 220.0
116.05896 1324.0
116.086044 104.0
116.103203 296.0
116.184715 160.0
116.199898 160.0
116.257668 84.0
116.294159 116.0
116.314194 180.0
116.427277 236.0
116.534683 112.0
116.55896 148.0
116.579811 120.0
116.64859 188.0
116.743195 176.0
116.844292 128.0
116.971268 76.0
117.012169 192.0
117.068321 3720.0
117.102615 184.0
117.130623 52.0
117.165085 176.0
117.186638 76.0
117.211006 232.0
117.226059 204.0
117.262062 120.0
117.307327 136.0
117.326729 220.0
117.38279 40.0
117.408669 208.0
117.48848 72.0
117.572639 40.0
117.60717 184.0
117.648186 60.0
117.700005 40.0
117.735573 128.0
117.758316 176.0
117.80584 172.0
117.825279 188.0
117.897102 184.0
117.920364 192.0
117.970078 104.0
117.98954 52.0
118.040321 192.0
118.063477 1624.0
118.093338 108.0
118.114967 180.0
118.238304 60.0
118.259514 180.0
118.366028 160.0
118.39418 60.0
118.416588 128.0
118.448334 44.0
118.476494 132.0
118.505951 148.0
118.550171 256.0
118.58918 216.0
118.636871 172.0
118.658554 168.0
118.786507 128.0
118.827728 120.0
118.871124 188.0
118.962288 160.0
118.997025 80.0
119.048363 1924.0
119.076141 1168.0
119.15992 164.0
119.220764 144.0
119.246849 148.0
119.301735 192.0
119.359894 184.0
119.392517 148.0
119.525215 160.0
119.677589 72.0
119.697189 84.0
119.746552 36.0
119.775597 76.0
119.825699 176.0
119.84967 164.0
119.904152 184.0
120.047287 216.0
120.079651 2804.0
120.104752 324.0
120.141838 100.0
120.209473 64.0
120.253128 60.0
120.294601 64.0
120.325645 72.0
120.388489 72.0
120.431519 228.0
120.587303 68.0
120.63102 196.0
120.701164 196.0
120.818192 144.0
120.954781 64.0
120.994186 164.0
121.064072 13332.0
121.120888 108.0
121.156258 116.0
121.184738 52.0
121.215416 80.0
121.286484 244.0
121.320625 88.0
121.335976 144.0
121.362282 88.0
121.391342 64.0
121.422958 132.0
121.447113 212.0
121.476334 92.0
121.507042 44.0
121.528839 60.0
121.568489 184.0
121.602028 156.0
121.618607 172.0
121.660675 156.0
121.735329 176.0
121.837166 144.0
121.972626 164.0
121.995911 148.0
122.018791 416.0
122.068382 2160.0
122.09285 324.0
122.11335 152.0
122.210144 296.0
122.247551 244.0
122.28717 136.0
122.366417 100.0
122.399452 40.0
122.488144 148.0
122.501869 80.0
122.553642 152.0
122.571274 136.0
122.714096 156.0
122.749825 120.0
122.793938 200.0
122.813789 56.0
122.835846 84.0
122.851288 76.0
122.904243 176.0
122.950584 72.0
122.992523 124.0
123.074753 300.0
123.118835 96.0
123.153709 160.0
123.261971 72.0
123.320793 136.0
123.39238 152.0
123.53614 164.0
123.558258 132.0
123.598091 244.0
123.719826 140.0
123.806183 140.0
123.821686 148.0
123.974556 216.0
124.01445 156.0
124.052132 148.0
124.085388 152.0
124.110168 220.0
124.156349 144.0
124.18074 92.0
124.260605 100.0
124.336769 248.0
124.378227 132.0
124.626968 144.0
124.653633 248.0
124.67363 128.0
124.693634 52.0
124.729202 112.0
124.822578 352.0
124.904869 144.0
124.931564 180.0
125.002769 192.0
125.1007 64.0
125.119255 464.0
125.143005 44.0
125.17131 208.0
125.188927 212.0
125.298912 204.0
125.396431 100.0
125.421486 168.0
125.474991 144.0
125.605804 140.0
125.753838 156.0
125.845367 168.0
125.979919 180.0
126.013496 204.0
126.054993 180.0
126.086304 192.0
126.111214 228.0
126.314697 240.0
126.366158 172.0
126.500443 48.0
126.594482 100.0
126.612396 48.0
126.679596 168.0
126.704239 168.0
126.719925 76.0
126.744568 68.0
127.030403 328.0
127.055298 276.0
127.168518 104.0
127.186394 128.0
127.260475 168.0
127.29641 168.0
127.433426 152.0
127.476128 72.0
127.500145 180.0
127.50396 124.0
127.515625 228.0
127.646973 116.0
127.71804 160.0
127.754936 188.0
127.804436 132.0
127.920525 172.0
128.02504 140.0
128.061234 1100.0
128.094864 144.0
128.110641 156.0
128.13768 68.0
128.177048 204.0
128.248093 124.0
128.335159 128.0
128.489395 176.0
128.710602 240.0
128.776093 88.0
128.80545 160.0
128.821274 160.0
128.843857 68.0
128.891312 64.0
128.916031 128.0
129.045013 104.0
129.068634 2236.0
129.110596 176.0
129.142258 52.0
129.278015 220.0
129.384399 208.0
129.402512 136.0
129.436478 140.0
129.613159 128.0
129.709122 156.0
129.730682 136.0
129.796768 64.0
129.846664 196.0
129.862625 244.0
129.892029 68.0
129.955551 124.0
129.996704 148.0
130.063644 3364.0
130.121704 180.0
130.230255 184.0
130.272186 192.0
130.371124 52.0
130.716537 144.0
130.773682 260.0
130.800995 136.0
130.84198 176.0
130.921631 184.0
130.949005 284.0
131.047134 2012.0
131.084488 10788.0
131.144501 60.0
131.163193 136.0
131.197388 144.0
131.248657 148.0
131.265793 152.0
131.288605 52.0
131.304565 32.0
131.321838 180.0
131.341644 140.0
131.41597 172.0
131.459702 172.0
131.594376 108.0
131.63092 164.0
131.65831 156.0
131.681152 84.0
131.709274 324.0
131.740555 200.0
131.765686 120.0
131.788284 164.0
131.957672 128.0
132.053436 792.0
132.081757 1796.0
132.144104 196.0
132.18335 140.0
132.202423 124.0
132.249527 152.0
132.298569 92.0
132.362671 148.0
132.468033 68.0
132.500107 80.0
132.525101 268.0
132.531174 244.0
132.56427 120.0
132.590042 212.0
132.621567 48.0
132.646347 248.0
132.694916 72.0
132.740784 220.0
132.760315 108.0
132.784363 128.0
132.823349 212.0
132.843994 316.0
132.926208 188.0
132.958725 144.0
132.976761 144.0
132.991287 152.0
133.063354 42168.0
133.098953 1472.0
133.1418 156.0
133.161575 260.0
133.187286 232.0
133.206711 72.0
133.228638 140.0
133.259552 48.0
133.277939 228.0
133.295074 156.0
133.320267 76.0
133.358368 44.0
133.390549 92.0
133.415176 112.0
133.422272 136.0
133.439774 180.0
133.480225 72.0
133.510666 216.0
133.527618 200.0
133.55777 156.0
133.574524 40.0
133.618225 52.0
133.673447 72.0
133.711105 88.0
133.747101 132.0
133.802139 168.0
133.894455 32.0
133.9198 200.0
133.949738 88.0
133.997849 128.0
134.065231 4588.0
134.097427 456.0
134.154388 100.0
134.16246 144.0
134.210175 52.0
134.237854 128.0
134.263214 140.0
134.302429 116.0
134.323196 168.0
134.357788 148.0
134.502365 148.0
134.573029 172.0
134.60939 152.0
134.671173 176.0
134.789566 168.0
134.812683 180.0
134.886551 148.0
134.910583 192.0
134.930573 204.0
134.9673 176.0
135.004562 108.0
135.079102 26900.0
135.141052 112.0
135.17421 36.0
135.191406 132.0
135.197021 64.0
135.204041 96.0
135.22435 100.0
135.274796 96.0
135.301773 100.0
135.363403 68.0
135.435059 48.0
135.530716 176.0
135.548584 40.0
135.568985 148.0
135.608841 136.0
135.683029 172.0
135.705658 152.0
135.713806 116.0
135.743317 56.0
135.785049 52.0
135.850006 56.0
135.908005 84.0
135.942825 148.0
136.005478 180.0
136.042633 172.0
136.081268 2528.0
136.107864 328.0
136.142731 72.0
136.202866 100.0
136.22377 112.0
136.242355 84.0
136.29277 200.0
136.323669 184.0
136.390427 72.0
136.435242 120.0
136.455185 156.0
136.521286 212.0
136.586914 216.0
136.628281 148.0
136.644562 148.0
136.71904 144.0
136.833099 76.0
136.937881 96.0
137.062149 196.0
137.08136 484.0
137.16391 192.0
137.203537 136.0
137.23851 160.0
137.30513 156.0
137.499786 152.0
137.516129 140.0
137.625122 124.0
137.656204 136.0
137.768326 160.0
137.850266 120.0
137.976334 168.0
138.025421 80.0
138.081558 184.0
138.10495 52.0
138.198517 92.0
138.217239 160.0
138.247391 236.0
138.284637 180.0
138.315536 224.0
138.67392 148.0
138.748932 56.0
138.915451 44.0
139.023376 64.0
139.04451 232.0
139.082062 200.0
139.10318 48.0
139.173615 72.0
139.305145 52.0
139.347427 140.0
139.434387 32.0
139.516647 148.0
139.650696 76.0
139.79892 112.0
139.918961 36.0
140.057907 172.0
140.121521 92.0
140.185135 152.0
140.327255 164.0
140.345428 180.0
140.372833 300.0
140.423248 196.0
140.458633 48.0
140.522339 76.0
140.553009 184.0
140.600204 32.0
140.669586 164.0
140.699356 128.0
140.727676 136.0
140.89537 52.0
140.952087 200.0
140.98703 188.0
141.006943 208.0
141.070892 392.0
141.117447 96.0
141.12146 92.0
141.130341 156.0
141.157745 144.0
141.188492 144.0
141.283112 172.0
141.43219 144.0
141.536362 128.0
141.593201 196.0
141.773254 72.0
141.818283 80.0
141.841995 160.0
141.858582 96.0
141.95105 112.0
142.072723 676.0
142.121323 180.0
142.16127 196.0
142.209869 204.0
142.276123 92.0
142.318863 84.0
142.33548 160.0
142.423798 180.0
142.492249 100.0
142.511261 128.0
142.549286 180.0
142.61821 52.0
142.813187 64.0
142.853622 152.0
142.903595 180.0
142.960693 184.0
143.039612 204.0
143.046387 172.0
143.085114 884.0
143.133316 180.0
143.161804 84.0
143.444214 40.0
143.541962 120.0
143.582504 132.0
143.663605 112.0
143.723251 60.0
143.829895 144.0
143.849747 68.0
144.016907 48.0
144.054352 456.0
144.07901 676.0
144.120834 152.0
144.148315 56.0
144.272598 44.0
144.387375 60.0
144.415176 148.0
144.453339 196.0
144.462448 104.0
144.466827 152.0
144.562027 108.0
144.595535 68.0
144.698471 100.0
144.774582 168.0
144.863724 168.0
144.894867 124.0
144.930084 204.0
145.063049 3128.0
145.099258 7324.0
145.172913 48.0
145.240067 96.0
145.356277 88.0
145.398438 120.0
145.416763 196.0
145.436829 56.0
145.662552 188.0
145.778107 132.0
145.994247 212.0
146.059372 4288.0
146.100098 1140.0
146.198746 128.0
146.232437 252.0
146.266144 248.0
146.332672 144.0
146.391037 192.0
146.427841 208.0
146.461182 112.0
146.490097 76.0
146.545502 68.0
146.654633 168.0
146.682877 140.0
146.709396 152.0
146.744125 148.0
146.784134 84.0
146.899765 200.0
146.926453 188.0
146.977127 220.0
147.01091 52.0
147.067871 14516.0
147.10553 564.0
147.174133 52.0
147.218521 32.0
147.247498 180.0
147.329636 48.0
147.356216 60.0
147.373703 200.0
147.406952 172.0
147.422806 136.0
147.439926 56.0
147.462997 212.0
147.484299 140.0
147.520554 60.0
147.551987 160.0
147.66806 188.0
147.689819 228.0
147.750305 176.0
147.855316 172.0
147.879669 156.0
147.919708 180.0
147.991394 248.0
147.999924 120.0
148.00618 84.0
148.074387 33700.0
148.104721 304.0
148.147354 224.0
148.16629 68.0
148.253754 96.0
148.319397 48.0
148.336365 104.0
148.360611 80.0
148.390091 100.0
148.413956 56.0
148.466187 200.0
148.491562 124.0
148.549774 60.0
148.603149 100.0
148.731781 196.0
148.747726 112.0
148.804611 120.0
148.828888 172.0
148.888245 144.0
148.928452 120.0
148.945465 148.0
148.967331 52.0
148.984329 52.0
149.080917 8592.0
149.198868 76.0
149.25412 76.0
149.300323 72.0
149.358704 96.0
149.383026 72.0
149.426819 52.0
149.473053 52.0
149.500381 52.0
149.516861 108.0
149.57283 72.0
149.631271 76.0
149.667786 104.0
149.700684 132.0
149.735977 48.0
149.860214 88.0
149.879715 112.0
149.89975 124.0
149.918701 92.0
149.965012 136.0
149.98938 216.0
150.025543 220.0
150.088791 9692.0
150.136841 160.0
150.191467 156.0
150.209381 128.0
150.242813 104.0
150.274719 112.0
150.295135 228.0
150.330704 72.0
150.344498 168.0
150.365021 36.0
150.391998 136.0
150.418716 52.0
150.465103 60.0
150.49176 200.0
150.548126 92.0
150.642014 136.0
150.670135 172.0
150.702011 64.0
150.731476 136.0
150.753326 36.0
150.863327 48.0
150.882889 56.0
150.961655 188.0
151.018875 112.0
151.073669 2188.0
151.114487 144.0
151.133057 140.0
151.167404 68.0
151.240051 208.0
151.305222 128.0
151.352524 68.0
151.422989 84.0
151.502075 160.0
151.70462 136.0
151.759415 68.0
151.85997 244.0
151.911484 160.0
151.950729 152.0
151.982635 68.0
152.029251 156.0
152.048889 160.0
152.073471 208.0
152.096085 140.0
152.119156 180.0
152.139709 204.0
152.164261 128.0
152.23056 96.0
152.27002 128.0
152.294418 104.0
152.554901 108.0
152.596695 232.0
152.628662 84.0
152.685226 40.0
152.761475 136.0
153.070541 736.0
153.138092 64.0
153.164474 180.0
153.261276 52.0
153.327805 172.0
153.406693 172.0
153.594101 160.0
153.742142 144.0
153.80632 184.0
153.976685 40.0
154.070419 284.0
154.117508 140.0
154.201523 116.0
154.490845 248.0
154.636841 128.0
154.725952 108.0
154.837387 60.0
155.055023 156.0
155.077728 328.0
155.164581 216.0
155.3629 192.0
155.414993 228.0
155.439819 220.0
155.469589 192.0
155.573837 128.0
155.731659 224.0
155.81723 156.0
155.864441 168.0
155.993683 100.0
156.03595 120.0
156.055847 184.0
156.083908 164.0
156.131592 184.0
156.177704 228.0
156.22496 180.0
156.431519 140.0
156.588394 140.0
156.643188 116.0
156.670593 88.0
156.912354 112.0
157.064468 616.0
157.088287 264.0
157.143677 176.0
157.276581 180.0
157.341476 172.0
157.428879 144.0
157.486313 128.0
157.588745 188.0
157.63623 136.0
157.863708 144.0
157.926239 108.0
157.991287 140.0
158.070358 948.0
158.087875 496.0
158.141418 48.0
158.346741 188.0
158.374008 140.0
158.546661 256.0
158.664978 124.0
158.68367 88.0
158.747726 112.0
158.782837 56.0
158.845551 196.0
158.940887 80.0
159.079697 3324.0
159.110703 104.0
159.115479 288.0
159.161789 88.0
159.244659 156.0
159.382843 168.0
159.405457 164.0
159.548721 44.0
159.578903 144.0
159.674454 268.0
159.756332 160.0
159.800232 344.0
159.848038 180.0
159.898376 168.0
159.918518 128.0
159.946198 120.0
159.966339 200.0
160.024979 208.0
160.042847 156.0
160.074844 11176.0
160.113312 500.0
160.331573 68.0
160.493576 100.0
160.518127 116.0
160.613647 160.0
160.756607 112.0
160.790588 152.0
160.818359 132.0
160.876419 160.0
160.896606 80.0
160.92691 48.0
161.036728 176.0
161.080078 2396.0
161.154236 124.0
161.189606 212.0
161.26004 92.0
161.309906 184.0
161.332489 204.0
161.36908 96.0
161.462646 184.0
161.553696 68.0
161.608658 188.0
161.682755 108.0
161.733368 168.0
161.858276 132.0
162.090103 11416.0
162.11821 432.0
162.153839 44.0
162.171585 92.0
162.222275 92.0
162.245087 68.0
162.279266 84.0
162.305939 136.0
162.341446 76.0
162.39856 60.0
162.453049 84.0
162.498718 116.0
162.549469 172.0
162.581711 176.0
162.699219 112.0
162.826187 148.0
162.864288 148.0
162.925262 132.0
163.011642 48.0
163.037064 128.0
163.098602 1088.0
163.128845 292.0
163.197205 176.0
163.235352 100.0
163.253159 88.0
163.372696 136.0
163.410873 64.0
163.443939 144.0
163.578842 164.0
163.614471 56.0
163.639938 44.0
163.830948 44.0
163.874268 108.0
163.940521 56.0
163.978745 156.0
164.04248 140.0
164.105087 3372.0
164.168167 104.0
164.203125 80.0
164.407227 148.0
164.435303 112.0
164.458267 104.0
164.488907 176.0
164.532303 160.0
164.624222 60.0
164.654877 104.0
164.786499 76.0
164.836258 76.0
164.897598 180.0
165.076279 780.0
165.111145 748.0
165.15329 180.0
165.194214 108.0
165.222351 212.0
165.273529 144.0
165.309357 92.0
165.422943 200.0
165.49295 244.0
165.606339 128.0
165.675507 80.0
165.716492 52.0
165.737 68.0
165.788254 92.0
165.879791 180.0
166.027695 140.0
166.081268 188.0
166.115402 240.0
166.460373 68.0
166.622208 88.0
166.81752 160.0
167.084778 300.0
167.118439 168.0
167.262558 188.0
167.458252 88.0
167.733963 128.0
167.767471 144.0
167.842239 136.0
168.036072 140.0
168.086624 260.0
168.138916 140.0
168.206024 120.0
168.25766 188.0
168.293808 68.0
168.768661 192.0
168.921844 156.0
169.020157 188.0
169.063019 300.0
169.079865 184.0
169.102356 116.0
169.284195 124.0
169.54068 172.0
169.941284 60.0
170.067474 164.0
170.09552 280.0
170.139877 176.0
170.235947 124.0
170.295685 200.0
170.438568 164.0
170.477554 200.0
170.508743 76.0
170.607513 116.0
170.664719 96.0
170.763535 168.0
170.788193 108.0
170.815567 76.0
170.846771 164.0
170.870193 96.0
170.924835 176.0
171.0793 2000.0
171.115982 136.0
171.190018 60.0
171.432632 160.0
171.560364 48.0
171.917709 152.0
172.08049 368.0
172.109573 424.0
172.142227 120.0
172.25769 76.0
172.301559 72.0
172.442673 156.0
172.562927 120.0
172.900375 88.0
173.03125 108.0
173.090988 1036.0
173.154266 160.0
173.358688 68.0
173.498199 88.0
173.591995 56.0
173.618225 84.0
173.652328 96.0
173.681168 120.0
173.728394 128.0
173.801865 96.0
173.930466 44.0
174.053848 148.0
174.090317 1812.0
174.116684 308.0
174.121506 164.0
174.216705 132.0
174.316544 108.0
174.371735 32.0
174.46373 184.0
174.674118 108.0
174.897873 160.0
174.935516 88.0
175.013626 152.0
175.096573 1052.0
175.22171 60.0
175.271774 140.0
175.366653 132.0
175.419373 100.0
175.532745 140.0
175.733215 196.0
175.880997 96.0
176.072678 176.0
176.106323 776.0
176.195267 176.0
176.404037 104.0
176.441055 100.0
176.53096 144.0
176.996704 168.0
177.036423 48.0
177.070847 120.0
177.108688 440.0
177.436539 100.0
177.529358 196.0
177.624832 100.0
177.967194 196.0
178.007034 180.0
178.028275 44.0
178.056702 204.0
178.082367 500.0
178.123062 264.0
178.309891 52.0
178.530563 148.0
178.60231 164.0
178.911072 136.0
178.996262 228.0
179.081329 216.0
179.475922 180.0
179.818527 172.0
180.074234 184.0
180.100327 980.0
180.129807 144.0
180.151169 44.0
180.180557 132.0
180.40773 200.0
180.514679 176.0
180.803604 124.0
180.822342 44.0
180.918716 196.0
181.062698 160.0
181.099869 388.0
181.229401 132.0
181.390198 184.0
181.449188 116.0
181.475998 96.0
181.634232 124.0
181.870361 168.0
182.059631 128.0
182.254547 148.0
182.278595 60.0
182.415665 112.0
182.458679 72.0
182.499008 148.0
182.590439 192.0
182.828629 216.0
182.945633 152.0
183.077927 184.0
183.112579 184.0
183.179932 116.0
183.254593 184.0
183.355072 76.0
183.40358 40.0
183.810837 168.0
183.99437 136.0
184.02948 72.0
184.088242 192.0
184.1483 204.0
184.172607 112.0
184.699707 204.0
184.978439 100.0
185.016327 68.0
185.095642 1308.0
185.128799 300.0
185.577179 108.0
185.601578 64.0
185.718201 96.0
185.805008 80.0
185.861984 100.0
186.049271 68.0
186.092361 1092.0
186.127228 284.0
186.299118 164.0
186.372482 40.0
186.570892 204.0
186.630707 112.0
186.685089 128.0
186.788452 144.0
187.027908 88.0
187.100861 568.0
187.128983 372.0
187.226669 128.0
187.305664 160.0
187.398285 168.0
187.480042 224.0
187.662674 128.0
187.706299 100.0
187.766296 56.0
188.105316 2144.0
188.181091 136.0
188.238434 212.0
188.407776 92.0
188.4496 196.0
188.563538 104.0
188.653748 64.0
188.741241 124.0
188.795929 44.0
188.828751 76.0
189.047623 48.0
189.10965 796.0
189.14003 368.0
189.2146 28.0
189.292877 88.0
189.34877 68.0
189.392593 120.0
189.44191 40.0
189.518616 128.0
189.622757 192.0
189.787247 180.0
190.009415 232.0
190.075272 228.0
190.120697 512.0
190.330551 188.0
190.495346 96.0
190.624481 52.0
190.643723 212.0
190.717926 128.0
190.816895 176.0
190.902145 96.0
190.932388 144.0
191.087067 208.0
191.12561 184.0
191.705994 180.0
191.830032 100.0
192.094772 100.0
192.202377 88.0
192.718735 228.0
192.767166 188.0
192.873489 112.0
193.097458 264.0
193.435043 108.0
193.482101 176.0
193.664871 316.0
193.964142 88.0
193.993027 224.0
194.068924 288.0
194.147141 300.0
194.271957 184.0
194.388489 140.0
194.510605 84.0
194.666092 168.0
194.702194 116.0
194.777191 192.0
194.829971 176.0
194.857758 160.0
195.079315 100.0
195.274734 72.0
195.694962 152.0
195.772919 208.0
195.901047 140.0
195.933823 152.0
195.992996 92.0
196.088318 156.0
196.129776 152.0
196.545105 52.0
196.843796 124.0
197.089401 108.0
197.128586 152.0
197.151093 204.0
197.777603 104.0
198.1035 336.0
198.194901 44.0
198.379883 224.0
198.413528 136.0
198.654709 228.0
198.744492 52.0
199.064499 152.0
199.107727 336.0
199.140335 136.0
199.410065 188.0
199.514069 196.0
199.609665 40.0
199.795319 64.0
200.017624 212.0
200.105789 936.0
200.14006 168.0
200.183746 152.0
200.268234 144.0
200.369659 108.0
200.513367 120.0
200.5923 148.0
200.894043 40.0
200.990814 188.0
201.046402 328.0
201.120728 692.0
201.191666 156.0
201.208832 156.0
201.300491 136.0
201.400162 192.0
201.571671 68.0
201.724304 132.0
201.919403 172.0
201.978806 64.0
202.032562 92.0
202.069336 184.0
202.120346 1464.0
202.1586 1420.0
202.292923 172.0
202.339859 76.0
202.417496 124.0
202.635605 92.0
202.655441 148.0
202.703613 52.0
202.747223 112.0
202.910522 48.0
203.035294 52.0
203.08667 464.0
203.131363 164.0
203.412674 172.0
203.463776 168.0
203.53476 212.0
203.793243 128.0
203.905212 80.0
204.026306 64.0
204.086014 144.0
204.137222 664.0
204.233902 200.0
204.256653 176.0
204.404602 116.0
204.613113 316.0
204.67218 136.0
204.754761 148.0
205.090973 156.0
205.136017 100.0
205.170792 124.0
205.284851 92.0
205.356155 92.0
205.601517 136.0
205.725449 156.0
205.812775 224.0
206.041275 184.0
206.075272 144.0
206.109848 144.0
206.1492 124.0
206.407135 132.0
206.547272 176.0
206.607346 36.0
206.736115 156.0
206.781906 180.0
207.079269 368.0
207.116913 236.0
207.257294 44.0
207.609894 204.0
207.638565 168.0
208.088089 68.0
208.261414 88.0
208.574615 180.0
209.049179 172.0
209.093933 596.0
209.132645 112.0
209.27948 188.0
209.35434 140.0
209.645309 128.0
210.011475 208.0
210.040329 88.0
210.094101 156.0
210.112869 216.0
210.222092 108.0
210.320221 84.0
210.585861 76.0
210.651474 196.0
210.811218 168.0
210.851685 132.0
210.874802 180.0
211.071396 160.0
211.106445 256.0
211.138947 100.0
211.166824 180.0
211.242035 104.0
211.409851 152.0
211.589325 132.0
211.661713 268.0
211.939789 152.0
211.960068 144.0
212.049911 148.0
212.114151 304.0
212.137619 656.0
212.203552 172.0
212.868042 148.0
212.917419 128.0
213.068466 160.0
213.125183 1292.0
213.356186 212.0
213.417252 52.0
213.501587 208.0
213.60112 144.0
213.626663 84.0
213.812881 96.0
213.897293 172.0
214.092377 148.0
214.122162 916.0
214.334167 44.0
214.745224 180.0
214.931931 104.0
215.072021 232.0
215.099625 152.0
215.133698 620.0
215.302689 60.0
215.475037 188.0
215.514252 104.0
215.533463 144.0
215.692902 152.0
215.954453 148.0
216.077316 120.0
216.139877 640.0
216.226562 148.0
216.437347 72.0
216.709747 60.0
216.944214 172.0
217.032181 64.0
217.055634 172.0
217.093994 148.0
217.103241 172.0
217.113403 188.0
217.142822 2216.0
217.175873 324.0
217.225571 136.0
217.232712 128.0
217.263885 108.0
217.357773 160.0
217.418686 232.0
217.45462 156.0
217.530945 76.0
217.671875 56.0
217.889236 128.0
217.971512 180.0
218.039093 152.0
218.106293 144.0
218.148849 1660.0
218.247818 164.0
218.474289 92.0
218.577271 64.0
218.924637 84.0
219.040512 148.0
219.068222 180.0
219.15448 644.0
219.221298 92.0
219.508133 96.0
219.714615 60.0
219.915924 128.0
219.971359 48.0
220.088898 212.0
220.137894 120.0
220.171219 252.0
220.479401 164.0
220.603546 96.0
220.804626 156.0
220.890396 132.0
221.07019 188.0
221.095123 568.0
221.122086 148.0
221.150482 148.0
221.172882 244.0
221.396545 220.0
221.609818 136.0
221.666122 168.0
221.695755 68.0
221.829132 176.0
221.953659 88.0
221.989243 120.0
222.098221 284.0
222.193695 156.0
222.351196 72.0
222.398682 128.0
222.486954 168.0
222.784729 136.0
222.963013 104.0
223.113007 804.0
223.209763 120.0
223.337646 140.0
223.507217 52.0
223.605423 52.0
223.626266 140.0
223.840622 128.0
224.111542 348.0
224.221954 140.0
224.881104 64.0
224.976624 60.0
225.018417 176.0
225.121368 340.0
225.376846 152.0
225.406738 132.0
225.505356 128.0
225.532257 128.0
225.562149 100.0
225.7565 216.0
225.865692 124.0
226.125793 184.0
226.148438 64.0
226.349014 176.0
226.492783 108.0
226.519745 196.0
226.636581 40.0
226.750458 116.0
226.921326 112.0
226.966309 212.0
227.176254 52.0
227.236267 124.0
227.265594 108.0
227.452347 164.0
227.49437 148.0
227.608459 212.0
227.80368 144.0
227.857758 100.0
227.929871 92.0
228.008011 168.0
228.136185 708.0
228.288376 172.0
228.356781 92.0
228.386856 216.0
228.411316 156.0
228.492142 52.0
228.778061 204.0
228.907532 164.0
229.073181 108.0
229.145355 332.0
229.241913 160.0
229.287903 124.0
229.353439 60.0
229.445877 132.0
229.521591 108.0
229.564484 64.0
229.591629 156.0
229.635422 376.0
229.685135 120.0
229.766586 112.0
229.817871 68.0
229.855637 140.0
229.887283 152.0
229.968765 128.0
230.015762 176.0
230.060059 132.0
230.093521 160.0
230.152679 53624.0
230.205215 176.0
230.235504 116.0
230.284637 52.0
230.306946 64.0
230.385483 112.0
230.428238 184.0
230.508438 188.0
230.537231 216.0
230.560745 96.0
230.58493 116.0
230.606079 84.0
230.630264 60.0
230.651077 156.0
230.70282 116.0
230.75882 76.0
230.797958 204.0
230.829803 180.0
230.857025 232.0
230.887268 228.0
230.992966 72.0
231.018188 196.0
231.086533 88.0
231.155289 7064.0
231.227631 48.0
231.276123 108.0
231.298767 104.0
231.318161 52.0
231.353256 76.0
231.418945 92.0
231.453674 48.0
231.476852 128.0
231.516769 184.0
231.589569 196.0
231.622772 44.0
231.643982 88.0
231.725784 68.0
231.767288 228.0
231.812439 120.0
231.846985 128.0
231.871231 104.0
231.904572 112.0
231.950043 280.0
231.985901 184.0
232.077789 132.0
232.12648 332.0
232.168594 65432.0
232.228043 172.0
232.272415 184.0
232.299438 52.0
232.339996 68.0
232.389236 152.0
232.415985 44.0
232.4216 60.0
232.454727 80.0
232.499954 120.0
232.540039 232.0
232.596771 60.0
232.634949 156.0
232.668259 40.0
232.719711 112.0
232.771439 132.0
232.826584 84.0
232.928452 192.0
233.009186 140.0
233.05719 116.0
233.097244 192.0
233.171494 10780.0
233.23407 160.0
233.294861 80.0
233.316147 48.0
233.340469 36.0
233.408371 56.0
233.471222 172.0
233.494492 128.0
233.527924 56.0
233.562668 60.0
233.608109 64.0
233.68721 132.0
233.714584 144.0
233.7724 56.0
233.830231 84.0
233.982437 136.0
234.040283 116.0
234.094269 176.0
234.141785 588.0
234.171967 576.0
234.235199 76.0
234.326599 108.0
234.376587 128.0
234.488113 68.0
234.597839 40.0
234.672379 72.0
234.696548 236.0
234.774704 52.0
234.843323 88.0
234.890594 112.0
234.983337 104.0
235.009583 56.0
235.0401 144.0
235.104568 192.0
235.153839 1072.0
235.20491 148.0
235.277222 88.0
235.308701 72.0
235.336182 80.0
235.381989 128.0
235.693558 96.0
235.714951 152.0
235.806641 48.0
235.849426 80.0
235.892227 68.0
235.968658 44.0
236.108246 192.0
236.161926 480.0
236.205627 132.0
236.461166 84.0
236.635666 36.0
236.745895 28.0
236.770401 68.0
237.107407 176.0
237.141129 44.0
237.175461 140.0
237.309738 168.0
237.441605 52.0
237.466141 40.0
237.78215 64.0
237.803635 60.0
237.898804 76.0
237.932571 68.0
238.111649 268.0
238.169037 360.0
239.118195 236.0
239.156067 88.0
239.738174 148.0
239.863525 96.0
239.950867 144.0
239.978622 160.0
240.049545 80.0
240.12973 316.0
240.231522 236.0
240.740814 176.0
240.889069 124.0
241.284653 112.0
241.835281 72.0
241.909576 88.0
241.962433 108.0
242.151108 144.0
242.271912 104.0
242.333878 176.0
242.600418 164.0
243.133942 144.0
243.30777 176.0
243.472351 124.0
243.997498 160.0
244.320938 164.0
244.408066 236.0
244.560562 84.0
244.610367 112.0
244.790939 160.0
244.850113 44.0
245.005859 168.0
245.189713 176.0
245.242706 192.0
245.263367 184.0
245.429749 136.0
245.466751 120.0
245.492126 108.0
245.535782 192.0
245.673035 144.0
245.762695 152.0
245.878983 96.0
246.145767 576.0
246.178986 392.0
246.334854 228.0
246.659851 32.0
246.809921 64.0
246.866211 64.0
246.947525 168.0
247.038239 80.0
247.113327 176.0
247.155151 2112.0
247.28273 152.0
247.30423 196.0
247.373093 64.0
247.407532 36.0
247.523376 76.0
247.598541 116.0
247.623596 48.0
247.71756 256.0
247.863251 184.0
247.960968 88.0
247.982117 84.0
248.02153 92.0
248.048676 172.0
248.163055 25580.0
248.286026 100.0
248.347626 124.0
248.382141 128.0
248.476242 152.0
248.573517 56.0
248.61235 176.0
248.730453 128.0
248.768951 76.0
248.824631 60.0
248.934525 80.0
249.003616 228.0
249.166382 4036.0
249.214096 36.0
249.283234 44.0
249.305237 32.0
249.342941 44.0
249.577667 60.0
249.664993 88.0
249.789444 36.0
249.868088 72.0
249.993958 144.0
250.127716 244.0
250.174606 1028.0
250.217438 28.0
250.318207 76.0
250.447327 72.0
250.595398 88.0
250.715149 152.0
250.862122 76.0
250.880493 88.0
250.951569 76.0
251.011475 60.0
251.093475 64.0
251.133682 164.0
251.145264 384.0
251.174774 516.0
251.427902 128.0
251.491028 148.0
251.822571 48.0
252.050034 28.0
252.078476 64.0
252.138519 168.0
252.175446 164.0
252.612808 120.0
252.653946 64.0
252.935593 168.0
253.112885 152.0
253.160385 340.0
253.375778 140.0
253.930527 40.0
254.124039 56.0
254.412857 60.0
254.670074 40.0
254.825745 152.0
255.073639 104.0
255.146744 116.0
255.359802 64.0
256.079132 68.0
256.139648 100.0
256.429626 96.0
256.455109 56.0
256.671906 56.0
257.182373 156.0
257.354767 108.0
257.750854 172.0
257.980988 88.0
258.128052 236.0
258.172821 204.0
258.419128 96.0
258.591949 116.0
259.101105 116.0
259.161987 112.0
259.703766 144.0
259.749512 140.0
259.871674 96.0
259.928345 100.0
260.204559 264.0
261.097717 164.0
261.126312 176.0
261.155609 124.0
261.870178 64.0
262.03125 68.0
262.140808 144.0
262.17453 372.0
262.534088 76.0
262.776031 96.0
262.85025 176.0
262.879303 64.0
262.927704 52.0
263.139587 432.0
263.182739 112.0
263.279602 68.0
264.139374 160.0
264.168488 200.0
264.563293 112.0
264.585968 120.0
264.728455 52.0
265.117188 204.0
265.159058 576.0
265.353821 164.0
265.551636 56.0
266.161621 388.0
266.200745 216.0
266.80835 160.0
266.840851 64.0
267.165771 160.0
267.250702 152.0
267.729218 192.0
267.810638 100.0
268.214691 44.0
268.498352 84.0
269.164093 144.0
269.356812 160.0
269.42215 212.0
270.432587 60.0
270.638855 52.0
272.242401 64.0
272.768097 76.0
272.896301 116.0
272.93576 140.0
273.212067 104.0
274.051636 144.0
274.2164 220.0
274.43399 64.0
275.128754 156.0
275.196075 128.0
276.190948 184.0
276.968811 132.0
277.151031 124.0
277.207367 88.0
277.260406 204.0
277.79425 140.0
278.162598 176.0
278.185822 108.0
278.401642 112.0
279.066254 128.0
279.158691 240.0
279.195953 212.0
279.219238 56.0
279.28241 208.0
279.911438 168.0
280.018005 112.0
280.16806 840.0
280.32785 64.0
280.391174 104.0
280.961365 52.0
281.051453 144.0
281.169128 212.0
281.225006 176.0
281.38858 48.0
281.936401 124.0
282.183594 148.0
282.551666 92.0
282.903076 184.0
283.006866 92.0
283.925079 48.0
284.008942 128.0
284.082733 96.0
284.408234 168.0
284.602936 64.0
284.723846 60.0
284.854828 156.0
285.147186 112.0
286.179932 64.0
286.617828 164.0
287.562103 100.0
289.204803 352.0
289.475647 92.0
290.709625 52.0
291.004944 104.0
291.562073 140.0
291.976837 204.0
292.033997 116.0
292.157135 136.0
292.180939 180.0
292.228577 192.0
292.902649 100.0
293.049133 128.0
293.171814 104.0
293.449829 84.0
293.540009 60.0
293.683228 144.0
293.881104 88.0
294.075623 44.0
294.187622 128.0
295.211212 240.0
295.658081 88.0
296.161377 120.0
296.195648 152.0
296.387512 64.0
296.850281 56.0
297.170563 1068.0
297.642975 80.0
297.876526 116.0
297.914307 108.0
298.010498 88.0
298.160187 288.0
298.182739 360.0
298.223572 128.0
298.330139 68.0
298.932068 84.0
299.018097 96.0
299.185028 148.0
300.186005 104.0
301.788239 120.0
302.137573 72.0
302.27597 128.0
302.355591 96.0
303.156036 124.0
303.186768 184.0
304.196136 180.0
305.388 100.0
306.125854 124.0
306.150238 156.0
306.188965 224.0
306.32785 132.0
306.453278 144.0
308.138519 152.0
308.169983 204.0
308.207703 136.0
308.246857 60.0
308.831787 168.0
308.897156 96.0
309.030121 180.0
309.203339 160.0
309.236572 176.0
309.754822 124.0
310.184692 124.0
310.557526 52.0
310.985596 184.0
311.175171 188.0
311.487732 64.0
312.193604 220.0
313.053711 156.0
315.604218 80.0
316.209167 76.0
317.903229 172.0
318.2724 132.0
319.000763 104.0
319.185638 196.0
319.228302 176.0
320.127563 180.0
320.209991 172.0
320.780701 152.0
320.843597 204.0
321.208618 136.0
322.193939 172.0
322.651398 132.0
324.000671 92.0
324.126068 136.0
324.215668 124.0
324.290924 64.0
325.044067 100.0
325.205566 156.0
326.254486 112.0
326.319214 132.0
327.18631 128.0
327.506805 208.0
327.921173 76.0
328.040131 76.0
329.028625 148.0
330.521393 112.0
332.667053 124.0
332.692474 52.0
333.200928 164.0
334.208069 176.0
335.191254 44.0
335.216736 132.0
335.588562 172.0
336.540894 52.0
337.710327 108.0
337.805878 140.0
337.845673 100.0
338.006683 88.0
338.207825 556.0
338.40567 56.0
339.215546 144.0
339.325317 112.0
339.582001 96.0
341.344849 52.0
341.488281 40.0
342.062317 96.0
342.689758 128.0
343.333496 96.0
343.654419 80.0
344.734894 120.0
344.858337 132.0
344.928558 148.0
345.220673 72.0
346.054932 156.0
346.334686 160.0
346.916504 96.0
347.673187 56.0
348.378662 108.0
349.244812 48.0
350.20462 116.0
350.242371 124.0
350.8349 52.0
351.237122 200.0
351.536133 192.0
352.226349 360.0
352.262299 176.0
353.247009 196.0
353.260468 176.0
353.419495 64.0
353.767548 88.0
354.067108 128.0
354.707855 100.0
355.266602 128.0
355.608093 128.0
356.208862 124.0
356.291534 120.0
356.956818 152.0
357.841064 156.0
357.90509 124.0
358.266663 168.0
358.654816 132.0
358.865936 56.0
359.295898 148.0
359.469452 148.0
359.560028 176.0
359.761658 156.0
359.899811 56.0
360.230347 100.0
362.02121 124.0
362.241943 828.0
362.52887 68.0
363.247223 140.0
363.3479 128.0
363.446564 156.0
364.243835 96.0
364.498413 116.0
364.8125 56.0
365.083832 140.0
365.243591 160.0
366.233276 40.0
367.006897 148.0
367.246552 540.0
367.499847 68.0
368.063873 180.0
368.124969 192.0
368.258087 788.0
368.56427 56.0
369.076477 88.0
369.114716 188.0
369.210327 124.0
369.252411 332.0
369.278809 164.0
369.363342 128.0
370.507965 140.0
370.691895 112.0
371.270782 144.0
372.403015 36.0
372.479828 32.0
373.113922 128.0
373.229279 76.0
373.42926 164.0
374.676483 164.0
375.017059 136.0
375.686554 152.0
375.894928 120.0
376.114899 132.0
376.435364 60.0
376.585999 68.0
377.153992 92.0
377.494232 140.0
377.857819 84.0
377.939087 60.0
378.151917 168.0
378.249237 280.0
378.360962 68.0
378.558441 80.0
378.597168 160.0
378.740479 112.0
378.810211 68.0
378.872192 116.0
378.972931 188.0
379.019409 76.0
379.131805 52.0
379.249054 140.0
379.275208 192.0
379.302338 72.0
379.412933 160.0
379.469849 152.0
379.506042 128.0
379.534973 132.0
379.670685 104.0
379.707001 164.0
379.763763 88.0
379.790924 136.0
379.849121 120.0
379.887909 96.0
379.930573 128.0
379.994293 160.0
380.039215 36.0
380.075409 300.0
380.110535 148.0
380.173004 236.0
380.201965 164.0
380.257111 44764.0
380.358521 248.0
380.396057 108.0
380.492859 76.0
380.543488 48.0
380.621826 100.0
380.72403 184.0
380.754272 68.0
380.813324 168.0
380.89975 160.0
380.954285 64.0
380.990448 40.0
381.048737 32.0
381.086121 96.0
381.141968 60.0
381.25885 12600.0
381.328522 92.0
381.379059 196.0
381.463867 152.0
381.53067 32.0
381.572357 132.0
381.65683 80.0
381.732849 36.0
381.805695 88.0
381.860992 80.0
381.927307 88.0
381.997345 88.0
382.028442 88.0
382.079041 52.0
382.114044 72.0
382.261261 1756.0
382.378662 48.0
382.437042 44.0
382.479858 28.0
382.647278 36.0
382.67453 56.0
382.764069 52.0
382.983215 108.0
383.028931 132.0
383.138 128.0
383.196442 84.0
383.262634 216.0
383.309448 36.0
383.38739 64.0
383.46286 120.0
383.512909 96.0
383.58902 148.0
383.654663 84.0
383.708588 140.0
383.720581 100.0
383.812286 68.0
383.886383 120.0
383.913513 84.0
383.97998 52.0
384.116516 72.0
384.175018 68.0
384.26474 124.0
384.319366 72.0
384.471558 144.0
384.591309 100.0
384.811188 100.0
384.854126 140.0
385.174377 44.0
385.27594 80.0
385.467407 32.0
385.565125 116.0
386.00296 120.0
386.077271 84.0
386.812866 68.0
386.962616 48.0
387.490387 96.0
387.850922 68.0
387.931091 220.0
388.27829 64.0
388.51947 100.0
388.67453 40.0
389.098419 96.0
389.314392 52.0
392.478302 116.0
392.549286 72.0
393.721375 76.0
394.673737 28.0
395.50061 112.0
395.734161 104.0
395.979706 108.0
396.490784 52.0
396.83963 84.0
397.196564 56.0
397.267975 84.0
397.331451 52.0
397.549683 40.0
397.609222 56.0
398.053864 80.0
398.184906 160.0
398.2677 8304.0
398.347778 52.0
398.40155 172.0
398.564392 84.0
398.613983 108.0
398.64505 44.0
398.681519 88.0
398.764984 72.0
398.872314 80.0
398.958435 72.0
399.007477 80.0
399.270721 2388.0
399.36142 80.0
399.619995 44.0
399.657806 40.0
399.974182 128.0
400.049835 116.0
400.269928 836.0
400.33609 112.0
400.997864 44.0
401.368622 72.0
401.528137 128.0
401.695679 112.0
401.739563 72.0
401.895142 68.0
402.266327 72.0
402.521851 60.0
403.049133 88.0
403.604767 148.0
404.536987 76.0
404.74118 68.0
406.830109 68.0
407.171417 76.0
408.634644 96.0
408.944519 72.0
409.713654 156.0
410.185181 48.0
411.980988 40.0
416.278503 148.0
417.249634 104.0
419.419464 104.0
420.247345 96.0
420.512604 84.0
421.419189 92.0
422.34314 80.0
425.888763 96.0
425.92572 44.0
436.18631 76.0
441.134521 92.0
448.876923 88.0
451.897125 72.0
454.413879 72.0
456.593109 64.0
462.519714 140.0
474.175415 84.0
476.988129 88.0
477.183777 56.0
480.602966 100.0
484.406647 96.0
491.207245 116.0
493.154572 100.0
499.241974 144.0
505.769501 88.0
506.808533 108.0
508.777527 108.0
511.434296 76.0
516.764038 36.0
517.370544 76.0
520.376465 88.0
521.61676 80.0
526.697632 96.0
530.078735 96.0
533.534973 124.0
534.086792 80.0
536.154114 80.0
536.269348 108.0
538.077698 36.0
540.772766 96.0
553.515259 224.0
554.386597 68.0
561.0 44.0
561.226318 96.0
568.060547 48.0
569.703125 128.0
571.338562 48.0
573.572021 112.0
573.667358 56.0
575.169983 164.0
589.478088 96.0
589.806702 124.0
601.826233 136.0
601.967834 96.0
603.101318 40.0
603.619568 60.0
605.053223 60.0
606.949402 32.0
608.244629 48.0
608.789673 140.0
617.251038 64.0
624.029358 68.0
625.292908 80.0
626.473083 52.0
627.400024 168.0
629.226013 164.0
630.894714 100.0
635.823669 132.0
648.067871 68.0
655.50708 64.0
657.598083 128.0
671.93103 124.0
674.528687 108.0
674.802734 148.0
675.749268 48.0
675.971741 108.0
678.02771 108.0
682.788635 172.0
685.136292 52.0
686.522766 76.0
695.826599 84.0
695.910583 104.0
699.669861 76.0
704.8125 156.0
706.726624 128.0
710.897034 40.0
711.066833 68.0
713.701782 96.0
717.471436 72.0
718.138 176.0
719.493469 148.0
723.042847 116.0
727.572388 172.0
728.093262 60.0
730.092529 224.0
734.671021 140.0
735.296997 96.0
741.722839 92.0
741.934265 80.0
743.018921 204.0
743.491028 228.0
744.017578 168.0
744.316162 204.0
745.435242 56.0
750.007019 164.0
753.112305 132.0
757.602905 220.0
760.053772 164.0
760.855103 116.0
764.433411 92.0
770.078979 140.0
771.714783 128.0
772.168213 132.0
772.804382 188.0
775.922729 172.0
779.625183 156.0
783.620544 80.0
784.24469 128.0
787.089966 168.0
788.240723 176.0
789.414673 112.0
791.737183 132.0
793.070679 168.0
793.838745 96.0
797.825378 96.0
798.213379 108.0
799.180847 68.0
802.227844 184.0
807.388794 216.0
807.434021 84.0
809.380798 104.0
813.854736 144.0
816.281128 232.0
818.215698 200.0
818.534546 168.0
820.300842 52.0
820.728455 76.0
821.104797 144.0
821.464172 140.0
825.319336 160.0
826.961243 144.0
827.327576 148.0
829.000122 124.0
831.517883 148.0
832.166565 184.0
832.470886 180.0
832.52832 204.0
832.643188 180.0
833.993408 48.0
834.234863 148.0
836.184875 44.0
836.357544 196.0
836.512939 180.0
837.728027 176.0
839.318787 188.0
840.207092 208.0
841.072693 200.0
842.083191 144.0
842.331543 80.0
842.65509 40.0
843.140442 172.0
845.309143 132.0
846.189026 140.0
846.408997 184.0
846.802856 196.0
847.098267 48.0
847.243103 136.0
851.855164 184.0
855.751831 84.0
859.213867 120.0
859.388916 168.0
860.363647 216.0
860.492065 176.0
863.612732 100.0
870.358276 96.0
871.374451 52.0
873.508545 48.0
873.790894 128.0
876.187134 208.0
876.358032 152.0
877.183105 172.0
878.055298 180.0
882.484802 160.0
883.082092 56.0
883.241821 32.0
884.194397 148.0
884.910706 188.0
885.929382 144.0
886.853821 140.0
886.895325 156.0
887.755005 80.0
888.39563 156.0
888.721924 80.0
888.858398 152.0
892.987366 140.0
895.254944 104.0
895.403809 68.0
897.459778 84.0
898.539368 144.0
899.440491 176.0
904.491638 172.0
905.509583 152.0
910.145264 192.0
910.829956 224.0
915.527466 216.0
916.033386 224.0
917.491821 56.0
917.552124 108.0
918.980774 128.0
922.091614 180.0
923.433838 196.0
924.522888 176.0
925.158447 168.0
925.25531 216.0
925.721558 148.0
927.466492 148.0
928.248596 144.0
930.026245 84.0
931.046265 232.0
934.286133 124.0
934.936401 148.0
936.483704 164.0
937.208618 108.0
938.8302 152.0
939.116821 212.0
939.251038 108.0
941.625427 180.0
943.244629 168.0
944.797974 180.0
944.920349 156.0
945.318054 60.0
946.879211 136.0
947.381531 136.0
948.073914 200.0
948.300659 120.0
952.21521 168.0
955.282471 164.0
955.682434 228.0
957.325989 148.0
957.960388 212.0
959.026489 136.0
960.679077 96.0
963.914429 136.0
964.025696 52.0
965.200256 176.0
966.431152 96.0
967.000488 72.0
969.595642 136.0
971.139465 144.0
972.7901 84.0
973.032227 156.0
976.2323 132.0
976.773438 156.0
977.538696 164.0
977.768982 120.0
982.972778 128.0
983.110046 208.0
984.065125 140.0
984.471008 132.0
985.258057 144.0
985.326782 192.0
986.064148 188.0
986.726807 208.0
986.908142 116.0
988.8349 208.0
989.680054 148.0
990.124695 168.0
990.168518 76.0
990.713501 64.0
991.158325 132.0
991.590759 188.0
992.060913 168.0
992.437073 172.0
994.080566 236.0
995.147705 172.0
996.642639 148.0
997.528809 160.0
998.226746 124.0
998.704712 192.0
998.767639 196.0
999.145081 248.0
999.428223 172.0
1000.133057 196.0
1000.196045 204.0
1000.6745 32.0
1001.770325 188.0
1001.946716 240.0
1002.658813 128.0
1002.8479 196.0
1003.553955 336.0
1003.743103 112.0
1005.585266 156.0
1005.894592 148.0
1006.147095 128.0
1007.119629 48.0
1007.353333 164.0
1008.36438 152.0
1009.75531 156.0
1010.754883 192.0
1010.913086 180.0
1011.824585 108.0
1012.052551 156.0
1014.796143 208.0
1016.565918 200.0
1016.730896 184.0
1017.09906 176.0
1017.759338 64.0
1017.937134 204.0
1018.051453 108.0
1019.735107 164.0
1019.919434 232.0
1021.025757 72.0
1022.2854 192.0
1023.297546 84.0
1024.01709 184.0
1024.577759 168.0
1024.800659 128.0
1025.508057 128.0
1026.547241 176.0
1027.708252 120.0
1029.553101 172.0
1030.025757 132.0
1030.153564 236.0
1032.704102 356.0
1032.755249 128.0
1033.279785 228.0
1033.612549 164.0
1033.670166 104.0
1033.855713 156.0
1034.124512 180.0
1034.867188 72.0
1035.763794 164.0
1036.449341 124.0
1037.673584 184.0
1037.910767 140.0
1038.738159 128.0
1038.917847 188.0
1039.322021 116.0
1040.958862 144.0
1041.061646 160.0
1041.299316 144.0
1041.915894 196.0
1042.487793 204.0
1043.959961 176.0
1044.159424 180.0
1044.500244 172.0
1044.609619 144.0
1044.712524 72.0
1044.924927 172.0
1045.188721 60.0
1045.259521 212.0
1046.166992 176.0
1046.566162 168.0
1048.885498 164.0
1049.040283 216.0
1049.498047 132.0
1049.581787 144.0
1050.091309 136.0
1050.207397 108.0
1050.381592 152.0
1050.871948 172.0
1051.852905 156.0
1054.00354 184.0
1055.199341 36.0
1055.555054 204.0
1056.285889 152.0
1057.120483 184.0
1057.19165 124.0
1057.269409 164.0
1057.554077 52.0
1058.013794 148.0
1059.267944 184.0
1059.548706 76.0
1059.794922 144.0
1059.963379 148.0
1060.118896 192.0
1060.436523 144.0
1063.374634 96.0
1064.926514 152.0
1066.232422 280.0
1066.651001 204.0
1071.301392 80.0
1072.7677 136.0
1074.169678 180.0
1074.639404 244.0
1075.024414 172.0
1075.089722 164.0
1075.3573 116.0
1075.664062 232.0
1075.827271 120.0
1076.068848 180.0
1076.930908 248.0
1077.061523 196.0
1078.662476 128.0
1078.76062 132.0
1079.015503 152.0
1079.100586 216.0
1079.388184 108.0
1080.454346 184.0
1080.526367 180.0
1083.230225 44.0
1083.466064 184.0
1084.075439 208.0
1084.442383 104.0
1085.5177 164.0
1085.937378 180.0
1088.963257 172.0
1089.554443 120.0
1090.322876 224.0
1091.131836 128.0
1091.546021 176.0
1092.401123 132.0
1092.664185 192.0
1093.203735 184.0
1093.63208 172.0
1094.540161 164.0
1094.731079 204.0
1094.836426 188.0
1096.95813 128.0
1098.257202 128.0
1098.329712 176.0
1099.860596 248.0
1099.992676 144.0
1100.124756 240.0
1100.230347 76.0
1101.695435 184.0
1102.377075 168.0
1102.985107 132.0
1104.148804 184.0
1106.30603 48.0
1106.544312 148.0
1107.193237 168.0
1107.630493 52.0
1107.690063 224.0
1108.829712 108.0
1109.552368 92.0
1110.911865 104.0
1111.071045 52.0
1111.190552 164.0
1112.564331 152.0
1113.892578 156.0
1114.164917 120.0
1115.354492 68.0
1115.462891 156.0
1115.514038 168.0
1115.946167 140.0
1116.265381 80.0
1117.116699 168.0
1117.921753 160.0
1118.194702 136.0
1118.434326 160.0
1118.520874 152.0
1118.814453 208.0
1119.959106 192.0
1121.878296 160.0
1121.958374 232.0
1122.498413 136.0
1123.498901 136.0
1124.473145 112.0
1124.760132 116.0
1125.441162 184.0
1125.507935 180.0
1125.593994 180.0
1125.963989 244.0
1127.465332 248.0
1127.852905 112.0
1128.37439 128.0
1128.976196 28.0
1129.203613 76.0
1129.584839 248.0
1130.133545 228.0
1130.220459 88.0
1132.71106 176.0
1132.865112 192.0
1133.588745 88.0
1134.621094 176.0
1134.68811 180.0
1135.237915 160.0
1135.834839 88.0
1136.177002 124.0
1136.317871 164.0
1137.230591 128.0
1140.293335 176.0
1140.340454 172.0
1140.683228 160.0
1140.804199 44.0
1140.878174 240.0
1141.079834 104.0
1141.833008 176.0
1142.344238 176.0
1142.721069 168.0
1142.78833 204.0
1144.780762 168.0
1145.003052 172.0
1145.205078 208.0
1145.575562 204.0
1145.710327 280.0
1145.87207 112.0
1145.984619 152.0
1146.072388 244.0
1146.141602 228.0
1146.215698 196.0
1147.037964 128.0
1147.260376 164.0
1147.442505 204.0
1147.934692 216.0
1148.015137 128.0
1148.400024 152.0
1148.636108 140.0
1149.438965 200.0
1150.012695 152.0
1151.011841 172.0
1151.099609 192.0
1151.815552 156.0
1152.018188 184.0
1154.850586 140.0
1154.97229 140.0
1155.134644 48.0
1155.730103 140.0
1156.267822 172.0
1156.5354 128.0
1156.765625 140.0
1156.975464 152.0
1157.171753 168.0
1157.246216 164.0
1157.760864 48.0
1157.882812 176.0
1158.004761 56.0
1159.115234 156.0
1159.468262 220.0
1159.695557 60.0
1161.170044 128.0
1162.146851 156.0
1162.472534 164.0
1162.805176 164.0
1163.402466 212.0
1165.365356 164.0
1167.705078 224.0
1170.140015 188.0
1170.283081 224.0
1170.899658 220.0
1171.2229 184.0
1171.509033 180.0
1171.556641 60.0
1172.040405 192.0
1172.244873 184.0
1173.076416 148.0
1173.23999 148.0
1173.376343 148.0
1173.908203 176.0
1174.051514 232.0
1174.126465 132.0
1174.290161 28.0
1174.801758 52.0
1175.170166 220.0
1176.296265 164.0
1176.412354 168.0
1176.865479 180.0
1176.931274 124.0
1177.231689 48.0
1177.545898 160.0
1178.085571 240.0
1178.242676 144.0
1178.704712 168.0
1180.306885 136.0
1181.086548 96.0
1182.05127 124.0
1182.434448 152.0
1184.187256 176.0
1185.330688 212.0
1185.879639 164.0
1186.606323 84.0
1186.887451 176.0
1187.669312 204.0
1187.765259 36.0
1190.009521 164.0
1190.394043 132.0
1190.586304 132.0
1191.156372 176.0
1191.391724 224.0
1191.760986 164.0
1191.905273 124.0
1192.001465 188.0
1192.592529 172.0
1192.79187 128.0
1192.87439 44.0
1193.080566 148.0
1193.231812 60.0
1193.280029 184.0
1193.415405 200.0
1194.160278 180.0
1194.435425 180.0
1195.31604 156.0
1195.467407 236.0
1195.859741 128.0
1196.526733 176.0
1197.154053 212.0
1197.581055 164.0
1197.849731 104.0
1198.035767 188.0
1198.346069 168.0
1198.490479 144.0
1198.593872 164.0
1198.862549 92.0
1199.517456 184.0
1200.268921 136.0
1200.468872 192.0
1201.041382 188.0
1201.57251 204.0
1201.682983 152.0
1202.007202 184.0
1202.303955 176.0
1202.794067 168.0
1204.499634 148.0
1204.808105 196.0
1205.294189 120.0
1206.434692 152.0
1206.48999 208.0
1206.593628 148.0
1206.794189 140.0
1206.960083 132.0
1207.755493 124.0
1209.284668 108.0
1209.416138 60.0
1210.572388 96.0
1210.994873 148.0
1211.126465 172.0
1211.853882 176.0
1212.144897 224.0
1212.415161 140.0
1213.62146 120.0
1213.808594 120.0
1214.072144 148.0
1214.932251 204.0
1215.001709 200.0
1215.459595 184.0
1215.973145 176.0
1216.049561 116.0
1217.521362 168.0
1217.708984 84.0
1218.35498 176.0
1219.668335 180.0
1220.022949 180.0
1220.120239 144.0
1220.252319 196.0
1220.718262 208.0
1223.494507 156.0
1224.225708 144.0
1224.351074 332.0
1224.824707 160.0
1224.984863 196.0
1225.723389 176.0
1225.897583 152.0
1226.246094 244.0
1226.587646 96.0
1227.515015 148.0
1228.128662 116.0
1228.26123 200.0
1228.619019 144.0
1228.9729 192.0
1229.238037 192.0
1229.579956 160.0
1229.970825 124.0
1230.17334 224.0
1230.361816 144.0
1230.564331 96.0
1230.843628 72.0
1231.576904 32.0
1233.848145 180.0
1234.001953 100.0
1234.295532 252.0
1235.001953 220.0
1235.505615 228.0
1235.799438 40.0
1235.967407 172.0
1236.051392 172.0
1236.534302 136.0
1236.751221 220.0
1237.647339 196.0
1237.752441 244.0
1238.207642 264.0
1238.284668 160.0
1238.459717 132.0
1238.67688 236.0
1238.725952 308.0
1239.81897 136.0
1240.169434 244.0
1240.232544 152.0
1240.541016 136.0
1240.63208 196.0
1241.066772 172.0
1242.006592 196.0
1242.139893 160.0
1242.666016 92.0
1243.00293 132.0
1243.443237 164.0
1243.985474 176.0
1244.161011 180.0
1244.589355 52.0
1245.347778 204.0
1245.464233 140.0
1245.755249 164.0
1245.818481 148.0
1245.973999 184.0
1246.261108 116.0
1246.879517 176.0
1247.828491 160.0
1249.502441 40.0
1249.685303 160.0
1249.783813 192.0
1250.001953 180.0
1250.065308 176.0
1250.60022 228.0
1250.69873 164.0
1251.093018 152.0
1251.536499 212.0
1251.64917 156.0
1251.712646 64.0
1251.853394 160.0
1252.116333 220.0
1252.283081 40.0
1252.445068 236.0
1253.797852 136.0
1254.439331 228.0
1255.306519 168.0
1256.315186 180.0
1256.62561 200.0
1257.154907 80.0
1257.458374 284.0
1257.641846 172.0
1257.811279 160.0
1258.962158 44.0
1259.011597 60.0
1259.357666 228.0
1259.689697 48.0
1260.092407 176.0
1260.375 124.0
1260.961548 228.0
1261.272583 76.0
1261.456421 164.0
1262.686768 152.0
1262.821167 84.0
1263.259644 112.0
1263.429443 188.0
1263.903564 140.0
1264.462646 60.0
1265.14209 140.0
1265.19873 52.0
1265.248291 176.0
1265.517334 144.0
1265.807739 172.0
1265.886475 176.0
1266.501831 168.0
1267.408691 120.0
1267.479492 164.0
1267.833862 164.0
1268.067749 156.0
1268.14563 132.0
1268.322876 156.0
1268.415039 200.0
1269.960815 144.0
1270.053101 152.0
1270.244629 200.0
1270.414795 180.0
1271.294678 140.0
1272.025757 164.0
1272.231689 96.0
1272.716309 184.0
1274.682129 188.0
1275.058716 144.0
1275.570557 180.0
1275.620361 112.0
1275.677124 136.0
1276.217529 180.0
1276.608643 80.0
1277.606934 116.0
1278.237671 116.0
1278.301758 168.0
1278.451416 172.0
1278.621948 152.0
1280.56958 208.0
1281.285278 188.0
1281.684204 208.0
1281.883789 152.0
1282.396851 336.0
1282.61792 224.0
1283.002808 168.0
1283.366455 160.0
1284.372925 160.0
1285.006958 144.0
1285.15686 164.0
1285.871704 208.0
1286.862793 132.0
1287.269775 176.0
1287.43396 152.0
1287.819702 240.0
1288.376831 168.0
1288.512573 196.0
1289.663208 228.0
1289.870483 144.0
1290.513916 160.0
1290.76416 168.0
1291.322021 132.0
1291.386353 224.0
1291.808472 236.0
1291.894287 96.0
1292.538208 164.0
1293.053467 196.0
1293.92688 156.0
1294.062866 48.0
1294.793335 152.0
1295.466553 204.0
1295.932251 188.0
1296.168823 168.0
1296.562988 196.0
1296.871094 180.0
1297.093384 204.0
1297.322754 164.0
1297.394409 188.0
1297.537842 152.0
1298.312256 120.0
1298.534546 156.0
1299.445679 48.0
1299.904907 156.0
1300.012573 180.0
1300.098633 140.0
1301.378296 188.0
1301.721069 148.0
1301.821655 156.0
1302.065796 228.0
1302.726685 176.0
1303.186523 160.0
1304.077637 196.0
1304.645508 140.0
1304.918701 188.0
1305.580322 76.0
1305.652222 184.0
1305.774414 164.0
1306.270752 224.0
1306.565674 168.0
1307.033447 140.0
1307.342896 132.0
1307.645142 236.0
1307.95459 116.0
1308.350586 228.0
1308.660156 172.0
1309.034668 108.0
1309.290283 136.0
1309.949341 212.0
1310.035767 156.0
1310.10791 152.0
1310.201538 156.0
1311.044556 176.0
1311.606812 340.0
1312.003296 120.0
1312.262817 68.0
1312.904663 160.0
1313.524902 132.0
1313.683594 132.0
1314.145386 172.0
1314.441162 148.0
1314.872803 180.0
1315.134033 184.0
1316.072632 180.0
1316.151978 148.0
1316.679199 192.0
1316.823608 152.0
1316.939209 168.0
1317.192993 152.0
1317.25708 188.0
1317.589355 212.0
1317.863892 236.0
1317.950684 240.0
1318.268555 152.0
1318.391479 176.0
1318.911865 200.0
1319.331177 216.0
1319.39624 64.0
1319.75769 36.0
1319.858887 176.0
1320.213257 152.0
1320.408569 208.0
1320.51709 148.0
1322.217285 124.0
1322.33313 132.0
1322.695068 72.0
1323.006348 84.0
1323.129395 172.0
1323.4552 100.0
1323.534912 100.0
1323.629028 228.0
1323.760986 180.0
1324.12146 40.0
1325.084961 104.0
1325.490723 52.0
1326.657593 204.0
1327.331909 152.0
1327.585815 188.0
1327.897583 184.0
1328.057251 160.0
1328.361816 156.0
1328.935059 176.0
1329.101929 136.0
1329.921997 140.0
1330.727783 400.0
1330.843994 180.0
1331.294189 172.0
1332.601807 196.0
1332.921509 156.0
1333.299438 152.0
1333.582886 72.0
1333.931763 148.0
1334.353394 132.0
1334.73877 152.0
1334.891479 144.0
1335.30603 120.0
1335.553345 184.0
1335.895264 164.0
1337.903809 200.0
1338.100464 184.0
1339.345703 204.0
1339.505981 132.0
1339.950439 144.0
1340.015991 196.0
1341.00708 152.0
1341.320557 204.0
1342.115234 92.0
1343.08667 136.0
1343.668823 176.0
1344.332886 284.0
1344.69043 196.0
1344.811035 208.0
1346.793335 116.0
1346.89563 192.0
1347.217041 168.0
1347.428833 196.0
1347.822021 144.0
1347.947632 80.0
1348.327637 220.0
1350.075073 192.0
1350.177368 216.0
1350.235962 80.0
1350.354004 220.0
1350.477295 48.0
1350.93811 176.0
1351.106445 116.0
1351.406372 248.0
1351.611084 176.0
1353.104492 180.0
1353.287476 204.0
1353.507202 32.0
1353.587769 160.0
1353.741455 168.0
1354.093018 164.0
1354.906128 88.0
1355.294434 144.0
1355.888062 140.0
1356.063965 156.0
1356.247192 248.0
1356.628418 188.0
1356.83374 36.0
1357.302979 212.0
1357.383667 92.0
1357.530273 148.0
1357.80896 72.0
1357.882324 164.0
1358.263794 164.0
1358.579224 172.0
1358.820557 192.0
1358.982666 160.0
1359.349609 184.0
1360.245117 208.0
1360.524048 212.0
1360.700195 128.0
1361.192139 124.0
1361.250977 172.0
1361.397827 144.0
1361.669556 132.0
1362.249878 208.0
1362.470215 152.0
1362.558472 64.0
1362.800903 140.0
1363.102173 204.0
1363.573608 120.0
1363.69751 176.0
1363.779907 224.0
1363.940063 156.0
1364.403198 164.0
1364.910522 156.0
1365.035522 196.0
1366.013794 192.0
1366.219727 192.0
1366.425781 184.0
1366.50354 300.0
1366.749512 136.0
1366.859863 32.0
1366.914307 152.0
1367.25708 144.0
1367.426514 164.0
1367.514893 92.0
1367.607788 148.0
1368.096436 128.0
1368.34668 188.0
1368.64856 188.0
1369.002075 112.0
1369.738647 168.0
1369.900635 156.0
1369.99646 224.0
1370.210083 128.0
1370.563843 176.0
1370.880615 128.0
1371.145996 124.0
1371.698853 180.0
1371.779907 172.0
1372.679443 200.0
1372.812134 176.0
1372.900635 176.0
1373.424316 56.0
1373.605591 180.0
1373.999756 132.0
1374.752441 184.0
1374.818848 156.0
1374.966431 128.0
1375.35022 60.0
1376.213989 160.0
1376.441406 184.0
1377.055908 116.0
1377.61731 168.0
1378.074829 124.0
1378.385742 140.0
1378.725586 36.0
1378.821777 200.0
1379.161743 148.0
1380.67749 196.0
1381.098999 160.0
1381.306152 168.0
1381.439331 108.0
1381.742676 188.0
1381.794434 120.0
1381.922241 148.0
1382.815674 164.0
1383.008057 68.0
1383.870239 144.0
1384.503662 168.0
1385.296265 128.0
1385.362915 152.0
1385.733398 160.0
1386.296509 160.0
1386.815308 156.0
1387.074829 160.0
1387.230469 148.0
1387.793945 204.0
1387.971924 120.0
1388.023804 248.0
1388.144043 184.0
1388.276001 160.0
1388.921265 44.0
1389.470215 68.0
1389.989624 160.0
1390.078613 168.0
1390.4646 120.0
1390.776367 204.0
1390.96936 144.0
1391.080688 144.0
1391.711792 144.0
1392.595459 184.0
1393.494385 156.0
1393.799072 84.0
1394.041016 200.0
1395.352539 36.0
1395.441772 184.0
1395.672241 188.0
1395.80603 164.0
1396.103516 128.0
1396.35437 216.0
1396.57959 384.0
1396.981201 80.0
1397.25647 232.0
1397.353271 76.0
1397.732788 164.0
1397.970825 196.0
1398.127197 108.0
1398.782104 116.0
1398.975708 56.0
1399.452148 176.0
1399.839478 128.0
1399.91394 120.0
1400.182007 228.0
1400.628906 176.0
1401.157837 140.0
1401.537842 88.0
1401.694336 196.0
1401.888062 212.0
1402.059448 164.0
1402.357666 144.0
1402.648315 192.0
1403.088135 92.0
1403.140381 128.0
1403.744385 176.0
1404.430542 216.0
1404.534912 160.0
1404.661743 128.0
1405.236206 152.0
1405.415283 84.0
1405.63916 168.0
1406.291016 196.0
1406.684082 216.0
1407.080566 176.0
1407.355957 180.0
1408.057983 184.0
1408.282104 52.0
1408.386597 148.0
1408.46875 136.0
1408.573364 216.0
1409.636963 160.0
1409.753906 128.0
1409.828613 196.0
1410.725586 292.0
1411.002197 244.0
1411.062012 180.0
1411.204102 196.0
1411.697632 180.0
1412.122192 192.0
1412.394409 144.0
1412.939331 196.0
1413.380737 192.0
1413.695068 184.0
1413.747437 220.0
1413.799805 140.0
1414.196533 148.0
1414.945068 124.0
1415.177246 140.0
1415.349487 144.0
1416.255615 116.0
1416.555298 104.0
1417.042236 168.0
1417.529297 204.0
1417.791626 184.0
1418.586182 224.0
1418.851929 228.0
1419.215942 136.0
1420.070923 180.0
1420.423462 56.0
1421.188721 200.0
1422.381958 112.0
1422.697266 152.0
1422.892456 136.0
1423.155273 116.0
1423.650879 248.0
1423.951294 116.0
1424.206665 128.0
1424.747559 124.0
1425.198364 116.0
1425.378662 112.0
1425.942383 200.0
1426.032593 116.0
1426.19043 188.0
1426.295654 172.0
1426.57373 156.0
1426.686523 168.0
1427.145142 44.0
1427.716675 172.0
1427.882202 212.0
1428.318481 136.0
1428.423706 92.0
1428.589233 164.0
1430.064087 184.0
1430.161987 140.0
1430.719116 152.0
1430.847046 152.0
1430.922363 84.0
1431.283813 104.0
1431.953979 80.0
1433.264893 188.0
1433.468384 88.0
1433.588867 208.0
1433.960449 120.0
1434.348145 196.0
1434.48584 156.0
1434.614014 180.0
1435.066406 140.0
1435.579102 108.0
1435.772827 248.0
1436.159912 168.0
1436.363525 180.0
1436.849609 180.0
1437.16333 192.0
1437.465088 212.0
1437.834961 104.0
1439.231567 72.0
1440.092407 160.0
1440.523071 204.0
1440.878052 160.0
1441.025269 148.0
1441.308838 100.0
1441.626221 112.0
1441.822632 184.0
1442.359375 212.0
1442.623901 208.0
1442.850708 176.0
1443.092651 172.0
1443.421631 164.0
1443.803467 160.0
1444.907837 180.0
1445.467773 172.0
1445.596436 164.0
1445.702393 168.0
1445.800781 188.0
1445.85376 156.0
1445.967285 160.0
1446.080811 144.0
1446.678833 184.0
1446.958984 184.0
1447.329956 200.0
1447.405762 176.0
1447.984009 196.0
1448.180176 212.0
1448.443359 184.0
1448.541748 168.0
1449.140259 220.0
1449.739014 36.0
1450.527222 100.0
1451.61145 244.0
1451.785889 180.0
1451.846558 152.0
1452.38501 152.0
1452.665771 108.0
1452.764404 148.0
1452.870605 188.0
1453.219604 164.0
1453.280273 140.0
1453.750732 204.0
1454.025757 168.0
1454.509766 132.0
1454.699585 164.0
1455.846069 112.0
1455.944824 132.0
1456.248657 160.0
1456.522095 156.0
1456.651245 144.0
1456.848145 232.0
1457.152588 124.0
1457.259033 164.0
1457.358643 164.0
1457.730103 132.0
1457.806152 88.0
1457.891357 180.0
1458.064453 156.0
1458.148071 156.0
1458.277344 64.0
1458.991821 176.0
1459.382568 200.0
1459.613037 180.0
1459.904297 112.0
1460.322632 164.0
1460.664917 140.0
1462.262817 156.0
1462.338989 96.0
1462.415039 260.0
1462.521606 136.0
1462.719604 144.0
1463.008789 72.0
1463.442871 148.0
1464.425171 124.0
1464.699463 156.0
1464.935547 188.0
1465.026978 72.0
1465.232666 208.0
1465.613647 92.0
1465.674683 192.0
1465.880371 156.0
1466.40625 148.0
1466.543457 192.0
1467.054199 156.0
1467.227783 400.0
1467.877686 80.0
1467.93103 152.0
1468.358154 264.0
1468.609863 228.0
1469.151489 148.0
1469.410889 220.0
1469.800049 164.0
1470.395264 176.0
1470.502075 212.0
1471.021118 168.0
1471.578491 156.0
1471.700684 112.0
1472.55603 168.0
1472.670532 196.0
1472.853882 164.0
1472.999023 140.0
1473.136475 176.0
1473.327515 208.0
1473.549072 128.0
1474.068726 148.0
1474.244507 160.0
1474.420288 148.0
1474.848267 136.0
1475.475098 220.0
1475.628052 108.0
1475.832031 160.0
1475.987427 156.0
1476.492188 160.0
1476.752197 176.0
1477.241699 112.0
1477.486572 184.0
1477.624268 196.0
1478.473633 136.0
1478.634399 148.0
1478.955811 116.0
1479.223755 44.0
1480.0354 160.0
1480.096558 160.0
1480.302979 184.0
1480.312988 176.0
1480.602051 60.0
1480.835815 136.0
1481.092285 196.0
1481.268433 172.0
1481.59021 200.0
1481.689819 228.0
1482.207031 160.0
1482.760376 152.0
1482.810669 148.0
1484.012207 132.0
1484.096436 120.0
1484.203857 200.0
1484.288208 100.0
1484.357178 200.0
1484.441528 116.0
1484.955444 152.0
1485.292969 172.0
1485.438721 188.0
1485.520264 200.0
1485.952637 184.0
1486.236572 180.0
1486.651001 132.0
1487.257324 192.0
1487.479858 232.0
1488.355225 216.0
1488.493408 140.0
1489.29834 192.0
1489.384277 160.0
1489.43811 252.0
1489.576294 160.0
1489.960449 172.0
1490.694092 212.0
1490.90564 80.0
1491.328369 200.0
1491.651245 72.0
1491.858765 340.0
1492.458496 144.0
1492.612305 120.0
1493.06604 176.0
1493.135254 196.0
1493.372681 164.0
1493.435181 160.0
1493.942871 92.0
1494.489136 176.0
1495.328003 148.0
1495.435791 156.0
1495.682007 56.0
1495.912964 256.0
1496.005371 216.0
1496.174683 64.0
1496.367188 108.0
1496.536621 100.0
1496.590454 184.0
1496.675171 200.0
1496.775269 152.0
1496.960083 104.0
1497.214233 160.0
1498.123169 172.0
1498.462158 40.0
1498.755005 140.0
1499.060425 176.0
1499.356079 68.0
1499.67981 108.0
1499.849731 160.0
1500.304199 116.0
1500.535522 200.0
1500.985718 168.0
1501.885132 156.0
1501.977661 168.0
1502.039307 204.0
1502.139648 140.0
1502.61792 236.0
1502.813477 192.0
1503.011475 124.0
1503.273804 216.0
1504.531982 124.0
1504.809937 172.0
1505.026123 172.0
1505.265503 188.0
