>compound MLS001157830-01!(2R)-2-[[2-[[2-(7-hydroxy-4-methyl-2-oxochromen-3-yl)acetyl]amino]acetyl]amino]-3-phenylpropanoic acid
>formula C23H22N2O7
>ionization [M+H]+
>parentmass 439.151
#inchi InChI=1S/C23H22N2O7/c1-13-16-8-7-15(26)10-19(16)32-23(31)17(13)11-20(27)24-12-21(28)25-18(22(29)30)9-14-5-3-2-4-6-14/h2-8,10,18,26H,9,11-12H2,1H3,(H,24,27)(H,25,28)(H,29,30)/t18-/m1/s1
#inchikey JTQLALMTODKNTM
#Ion_Source LC-ESI
#Instrument qTof
#Compound_Source NIH Natural Product Library
#PI Dorrestein
#Data_Collector VVP/LMS
#Scan -1
#Precursor_MZ 439.151
#ExactMass 438.143
#Charge 1
#CAS_Number N/A
#Pubmed_ID N/A
#Smiles Cc1c(CC(=O)NCC(=O)N[C@H](Cc2ccccc2)C(=O)O)c(=O)oc3cc(O)ccc13
#INCHI_AUX N/A
#Library_Class 1
#SpectrumID CCMSLIB00000080394
#IonMode Positive
#UpdateWorkflowName UPDATE-SINGLE-ANNOTATED-GOLD
#LibraryQualityString Gold
#TaskID b1d8e8f6646f4e71acdff9ca3d919d08
##Scan# 1708
#SpectrumFile p2-C08_GC8_01_18008.mzXML
#LibraryName NIH_Natural_Products_Library.mgf
#MQScore -1
#Organism NIH_Natural_Products_Library
#TIC_Query 0
#RT_Query -1
#MZErrorPPM -1
#SharedPeaks 0
#MassDiff 0
#LibMZ -1
#SpecMZ 439.151
#SpecCharge 0
#internalFilename spec-00000.mgf

>collision 10
95.068497 236.0
95.243225 68.0
95.495903 124.0
95.530914 156.0
95.620422 140.0
95.69828 76.0
95.809296 104.0
95.967155 124.0
96.054916 168.0
96.410263 108.0
96.506042 192.0
96.709488 136.0
97.052315 96.0
97.749619 192.0
98.037125 76.0
98.409935 100.0
98.573875 124.0
99.094261 188.0
99.16758 180.0
99.681572 176.0
100.097313 184.0
100.117226 44.0
100.491966 96.0
100.545845 44.0
100.561813 156.0
100.723541 212.0
100.737526 208.0
100.919388 164.0
101.199501 96.0
101.283607 48.0
101.40583 108.0
101.556206 208.0
101.917549 180.0
102.374168 192.0
102.856026 156.0
103.054474 624.0
103.076118 216.0
103.130722 228.0
103.257385 204.0
103.28035 112.0
103.298553 68.0
103.355202 124.0
103.776489 120.0
104.05851 136.0
104.546341 188.0
104.688843 64.0
105.070801 540.0
105.12101 268.0
105.139374 172.0
105.556107 164.0
105.627686 116.0
105.748405 208.0
105.791389 156.0
105.957275 184.0
106.072029 400.0
106.200562 204.0
106.679642 152.0
106.860619 116.0
106.877083 188.0
107.050041 184.0
107.866997 128.0
108.477654 200.0
108.508751 220.0
108.602066 120.0
108.642532 188.0
108.927948 196.0
109.110817 76.0
109.24807 164.0
109.42289 220.0
109.737488 232.0
110.044182 144.0
110.213364 208.0
110.376404 36.0
110.698647 160.0
110.849472 160.0
110.96685 64.0
111.287857 84.0
111.659798 100.0
111.931267 168.0
112.18409 144.0
112.745529 192.0
113.024658 156.0
113.29142 152.0
113.437645 160.0
113.509727 216.0
113.87899 220.0
114.021332 152.0
114.28289 184.0
115.056511 1628.0
115.124863 184.0
115.159035 216.0
115.700027 100.0
115.813522 152.0
115.886353 184.0
115.972076 136.0
116.014946 52.0
116.062523 524.0
116.203667 68.0
116.409729 160.0
116.674004 192.0
116.85466 204.0
117.061409 144.0
117.958809 184.0
118.155602 156.0
118.23999 116.0
118.595184 132.0
118.6819 172.0
118.940056 128.0
119.041847 172.0
119.459396 136.0
119.679207 256.0
119.785919 68.0
120.03437 136.0
120.056175 148.0
120.08168 4224.0
120.176147 36.0
120.215424 72.0
120.235069 64.0
120.588875 128.0
120.803154 84.0
121.084358 208.0
121.124931 120.0
121.273933 36.0
121.311195 180.0
121.361618 144.0
121.90818 92.0
122.093307 132.0
122.222633 224.0
122.784363 204.0
122.936577 36.0
123.411491 192.0
123.619415 116.0
123.685806 208.0
123.714584 160.0
124.11116 148.0
124.175468 128.0
124.20874 180.0
124.264198 120.0
124.281952 176.0
125.329201 84.0
125.371536 160.0
126.383087 184.0
126.615891 100.0
126.725647 124.0
127.003624 172.0
127.056366 504.0
127.120285 224.0
127.360222 156.0
127.39238 168.0
127.468346 196.0
128.650787 140.0
128.689163 32.0
128.881149 240.0
129.014496 112.0
129.068756 188.0
129.256485 184.0
129.4104 164.0
129.605194 184.0
129.686783 108.0
129.861359 164.0
129.967972 40.0
130.428986 160.0
130.993301 116.0
131.041153 120.0
131.307846 128.0
131.442444 64.0
131.986069 152.0
132.079834 156.0
132.162201 68.0
132.359039 188.0
132.558334 48.0
132.633957 124.0
133.06514 1052.0
133.095078 196.0
133.150192 68.0
133.92067 40.0
134.068115 88.0
134.224869 196.0
134.245621 244.0
134.716461 172.0
134.929062 128.0
135.030807 192.0
135.084015 160.0
135.137222 132.0
135.17424 184.0
136.073563 192.0
136.763962 176.0
137.136627 176.0
137.768982 180.0
137.850754 196.0
138.466019 176.0
138.606567 160.0
138.749542 108.0
139.157761 156.0
139.446701 88.0
139.742996 164.0
140.581833 200.0
140.699844 180.0
141.624435 48.0
142.252792 100.0
142.371506 168.0
142.837357 136.0
143.051514 172.0
143.103882 152.0
143.151505 212.0
144.058395 376.0
144.624527 192.0
145.026917 144.0
145.067337 320.0
145.11322 188.0
146.025726 56.0
146.064209 136.0
146.613144 52.0
146.673401 152.0
146.704742 164.0
146.830124 112.0
146.979675 136.0
147.051086 184.0
147.138977 152.0
147.180023 124.0
147.269379 220.0
147.566605 168.0
147.658493 196.0
147.951279 172.0
147.970642 160.0
148.089294 168.0
149.028091 172.0
149.061142 136.0
149.460892 40.0
149.52417 56.0
149.558243 92.0
149.633698 92.0
149.731094 168.0
149.748154 204.0
149.855331 132.0
150.023499 44.0
150.074692 172.0
150.208817 80.0
150.233215 68.0
150.518768 120.0
150.917038 208.0
151.306046 140.0
151.440735 68.0
151.489716 140.0
151.668594 104.0
151.874557 164.0
151.911362 68.0
152.21814 132.0
152.362839 232.0
152.441681 156.0
152.461334 76.0
152.940933 156.0
153.586487 68.0
154.055481 136.0
154.238342 236.0
154.42131 148.0
155.032806 176.0
155.06337 192.0
155.089813 148.0
155.21376 196.0
155.48912 176.0
155.712555 140.0
156.162415 128.0
156.565582 212.0
156.622864 28.0
156.73996 152.0
157.131409 156.0
157.171326 180.0
157.733246 192.0
157.883255 176.0
158.584259 136.0
158.714615 148.0
158.927826 180.0
159.095978 148.0
159.148697 204.0
159.206451 68.0
159.724197 204.0
160.05043 208.0
160.608307 188.0
161.060562 3540.0
161.363358 196.0
161.55809 64.0
161.63652 124.0
161.677002 84.0
161.864334 96.0
162.063568 1224.0
162.140457 112.0
162.219025 188.0
162.949905 64.0
163.046463 208.0
163.285446 100.0
163.466064 252.0
164.296661 104.0
164.674454 88.0
165.262405 56.0
165.354523 196.0
166.087006 456.0
166.495377 152.0
167.148315 152.0
167.174042 192.0
168.455444 108.0
168.887115 176.0
169.218338 128.0
169.619888 120.0
169.638031 180.0
170.003357 112.0
170.040054 96.0
170.445175 148.0
170.562119 224.0
170.725906 132.0
171.617462 176.0
172.117432 164.0
172.263672 148.0
172.344666 216.0
173.137268 220.0
173.286575 140.0
173.573563 220.0
173.989441 56.0
174.446533 172.0
174.512253 68.0
174.572739 80.0
174.633224 160.0
175.130661 160.0
176.354919 224.0
176.751602 140.0
177.111206 120.0
177.220261 120.0
177.2547 92.0
177.350113 244.0
178.475708 72.0
178.52356 84.0
179.071793 96.0
180.56369 208.0
181.041473 220.0
181.592133 192.0
182.483658 136.0
182.970612 136.0
183.051392 232.0
183.215683 148.0
183.239929 160.0
184.905991 144.0
184.954712 136.0
184.998032 224.0
185.217361 180.0
185.610321 144.0
187.14006 120.0
187.349762 180.0
187.390625 160.0
187.50235 220.0
188.031433 176.0
188.083282 184.0
188.222519 120.0
188.249832 120.0
188.35907 140.0
188.386383 152.0
188.424637 124.0
188.569458 84.0
188.673325 200.0
188.692459 180.0
188.725281 160.0
188.760818 124.0
188.822662 52.0
188.864746 164.0
188.930222 188.0
188.953796 276.0
189.009644 172.0
189.056488 61580.0
189.146759 76.0
189.167725 44.0
189.193115 152.0
189.218536 180.0
189.247406 236.0
189.281403 48.0
189.313583 104.0
189.332748 32.0
189.370605 108.0
189.391006 180.0
189.436829 104.0
189.484146 44.0
189.506943 664.0
189.535461 104.0
189.571091 72.0
189.584244 60.0
189.612198 68.0
189.655731 36.0
189.681381 148.0
189.770386 152.0
189.810883 108.0
189.856186 64.0
189.878128 32.0
189.908295 124.0
189.943527 240.0
189.979614 100.0
190.005966 132.0
190.016052 184.0
190.059845 9756.0
190.128418 68.0
190.168945 40.0
190.190735 64.0
190.256882 108.0
190.306519 68.0
190.330902 108.0
190.378418 160.0
190.410538 40.0
190.487289 68.0
190.51767 112.0
190.579758 80.0
190.649551 68.0
190.675385 60.0
190.767746 52.0
190.862595 48.0
190.954712 64.0
191.004227 104.0
191.059128 1176.0
191.13353 92.0
191.185806 36.0
191.207825 124.0
191.235352 108.0
191.275803 148.0
191.339951 56.0
191.389511 52.0
191.417038 44.0
191.473938 112.0
191.493179 148.0
191.537582 172.0
191.576782 112.0
191.596069 32.0
191.639053 140.0
191.684235 108.0
191.785187 152.0
191.893707 56.0
191.943344 48.0
192.068695 168.0
192.180557 124.0
192.230225 36.0
192.249542 44.0
192.288177 112.0
192.313019 100.0
192.35994 64.0
192.478653 64.0
192.622269 112.0
192.666458 96.0
193.053421 84.0
193.140396 80.0
193.302383 76.0
193.374329 36.0
193.51828 36.0
194.072418 144.0
194.599579 52.0
195.322113 92.0
195.383316 84.0
196.966675 72.0
197.788757 104.0
198.074356 64.0
198.113571 192.0
198.693878 108.0
199.0728 64.0
200.076569 124.0
200.572357 72.0
200.893814 96.0
201.062332 116.0
202.035095 100.0
202.14827 76.0
202.82515 40.0
203.415146 80.0
203.508835 48.0
205.244461 204.0
207.059052 132.0
210.166519 144.0
216.044052 236.0
216.538727 132.0
216.773102 156.0
216.978271 176.0
217.050629 6536.0
217.09053 176.0
217.124878 40.0
217.259796 132.0
217.75293 48.0
217.90567 40.0
218.052368 1096.0
218.249557 52.0
218.42012 72.0
218.543686 44.0
218.852722 56.0
219.394821 48.0
219.751678 128.0
219.798889 84.0
220.061569 88.0
224.384338 88.0
228.812363 52.0
233.35054 116.0
243.305084 36.0
245.498657 84.0
257.459778 76.0
261.003906 128.0
263.401642 72.0
263.695679 32.0
265.122894 144.0
272.56311 160.0
274.066803 100.0
275.085876 140.0
277.995087 76.0
280.296173 56.0
286.241882 92.0
292.365692 72.0
296.909332 44.0
297.990601 52.0
300.127991 52.0
307.977997 60.0
310.911896 128.0
316.995026 52.0
318.240051 60.0
333.152405 148.0
337.979492 104.0
344.956177 200.0
350.910858 144.0
352.777496 124.0
356.931549 192.0
358.192322 72.0
361.181824 52.0
378.678345 104.0
385.189453 48.0
406.723907 44.0
437.239105 212.0
439.27652 136.0
465.987915 60.0
480.134064 56.0
509.159729 36.0
517.325256 56.0
522.630676 76.0
523.536499 88.0
525.569458 48.0
547.675476 80.0
582.28595 64.0
594.737793 84.0
612.354126 116.0
636.845154 76.0
684.984375 80.0
691.186523 96.0
712.083618 108.0
786.03833 52.0
789.373047 64.0
823.057434 76.0
871.248596 20.0
873.447083 96.0
923.348999 92.0
951.862915 108.0
1000.718994 128.0
1046.988281 136.0
1076.481567 76.0
1081.181763 76.0
1082.549927 124.0
1096.839355 120.0
1104.015869 256.0
1122.776367 160.0
1123.583496 76.0
1127.12207 104.0
1128.211426 164.0
1145.133911 176.0
1172.552368 192.0
1180.881592 148.0
1215.422485 240.0
1216.407959 204.0
1223.930054 52.0
1225.385742 196.0
1232.2229 116.0
1232.935547 52.0
1240.676758 100.0
1245.771484 192.0
1258.334961 176.0
1260.058105 188.0
1261.245361 228.0
1262.383545 156.0
1264.973022 160.0
1274.113647 216.0
1276.515991 164.0
1281.918823 128.0
1292.851685 116.0
1299.472412 124.0
1312.324707 160.0
1317.571533 132.0
1327.407471 128.0
1339.034668 168.0
1351.897827 120.0
1357.178955 160.0
1359.320801 48.0
1364.697388 92.0
1378.717163 132.0
1382.621826 36.0
1383.399048 136.0
1388.496582 244.0
1403.07019 256.0
1408.390625 60.0
1410.019409 148.0
1411.275146 112.0
1411.746216 176.0
1423.72876 168.0
1429.441772 180.0
1431.045044 120.0
1431.210693 100.0
1433.289551 164.0
1437.338501 152.0
1442.965332 164.0
1457.699707 176.0
1461.531982 184.0
1461.760254 164.0
1463.084595 188.0
1465.110229 140.0
1471.249146 228.0
1477.714478 64.0
1479.1073 64.0
1479.819214 192.0
1482.025024 188.0
1486.333984 192.0
1491.679199 188.0
1493.024658 176.0
1493.355347 60.0
1493.901489 148.0
1494.124512 212.0
1497.195679 152.0
1500.370117 60.0
