>compound MLS002172464-01!L-703,606 oxalate salt hydrate
>formula C27H29IN2
>ionization [M+H]+
>parentmass 509.144348
#inchi InChI=1S/C27H29IN2/c28-24-14-8-7-13-23(24)19-29-26-22-15-17-30(18-16-22)27(26)25(20-9-3-1-4-10-20)21-11-5-2-6-12-21/h1-14,22,25-27,29H,15-19H2/t26-,27-/m1/s1
#inchikey WSLTYZVXORBNLB
#origInchi InChI=1S/C27H29IN2.C2H2O4.H2O/c28-24-14-8-7-13-23(24)19-29-26-22-15-17-30(18-16-22)27(26)25(20-9-3-1-4-10-20)21-11-5-2-6-12-21;3-1(4)2(5)6;/h1-14,22,25-27,29H,15-19H2;(H,3,4)(H,5,6);1H2/t26-,27-;;/m1../s1
#Ion_Source LC-ESI
#Instrument qTof
#Compound_Source NIH Pharmacologically Active Library
#PI Dorrestein
#Data_Collector VP/LMS
#Scan -1
#Precursor_MZ 509.151
#ExactMass 508.138
#Charge 1
#CAS_Number N/A
#Pubmed_ID N/A
#Smiles Ic1ccccc1CN[C@H]2[C@@H](C(c3ccccc3)c4ccccc4)N5CCC2CC5.O.OC(=O)C(=O)O
#INCHI_AUX N/A
#Library_Class 1
#SpectrumID CCMSLIB00000085744
#IonMode Positive
#UpdateWorkflowName UPDATE-SINGLE-ANNOTATED-GOLD
#LibraryQualityString Gold
#TaskID d252d724072548979f1f6f1ced849daf
##Scan# 2069
#SpectrumFile p4-E10_GE10_01_18382.mzXML
#LibraryName Pharm_Active_Library.mgf
#MQScore -1
#Organism Pharm_Active_Library
#TIC_Query 0
#RT_Query -1
#MZErrorPPM -1
#SharedPeaks 0
#MassDiff 0
#LibMZ -1
#SpecMZ 509.151
#SpecCharge 0
#internalFilename spec-00000.mgf

>collision 10
44.951553 136.0
44.967571 144.0
44.994244 208.0
45.002892 148.0
45.042076 220.0
45.07708 148.0
45.106487 140.0
45.147499 208.0
45.158005 148.0
45.190742 168.0
45.217506 52.0
45.226875 176.0
45.252312 200.0
45.271881 208.0
45.281044 224.0
45.30368 236.0
45.324535 152.0
45.366188 132.0
45.394348 176.0
45.417007 156.0
45.432049 148.0
45.450043 196.0
45.468132 164.0
45.477528 96.0
45.49836 168.0
45.529892 152.0
45.586315 344.0
45.597065 164.0
45.606857 168.0
45.638374 148.0
45.651489 116.0
45.678669 372.0
45.726181 112.0
45.743679 188.0
45.753105 108.0
45.778687 152.0
45.792156 92.0
45.801582 112.0
45.85548 92.0
45.883789 116.0
45.893227 144.0
45.902664 212.0
45.954655 156.0
45.974133 180.0
46.01601 220.0
46.064293 160.0
46.106453 168.0
46.136253 72.0
46.150009 208.0
46.161945 148.0
46.25951 256.0
46.285889 240.0
46.298626 128.0
46.335201 196.0
46.35273 128.0
46.373146 116.0
46.457218 188.0
46.466713 116.0
46.479603 156.0
46.517582 212.0
46.556873 248.0
46.571892 92.0
46.603848 140.0
46.618797 160.0
46.67432 180.0
46.741184 160.0
46.756153 52.0
46.772488 80.0
46.877964 36.0
46.923706 136.0
46.950977 144.0
47.082741 220.0
47.179012 176.0
47.25423 184.0
47.29718 168.0
47.317192 144.0
47.339325 196.0
47.374767 192.0
47.393894 76.0
47.411709 104.0
47.422485 176.0
47.448719 168.0
47.480255 120.0
47.509064 196.0
47.537743 164.0
47.543255 148.0
47.594158 256.0
47.639481 272.0
47.660091 288.0
47.680347 216.0
47.731571 212.0
47.765175 172.0
47.779709 168.0
47.795612 196.0
47.85128 112.0
47.878819 68.0
47.946327 180.0
48.00423 100.0
48.018307 192.0
48.081486 128.0
48.100811 176.0
48.138088 120.0
48.150517 60.0
48.233421 64.0
48.281815 44.0
48.309479 188.0
48.332569 232.0
48.35099 216.0
48.36898 128.0
48.409657 148.0
48.442375 120.0
48.475723 236.0
48.540783 148.0
48.551876 168.0
48.582394 156.0
48.643452 148.0
48.68372 116.0
48.71011 48.0
48.752487 136.0
48.757668 176.0
48.781918 316.0
48.803226 112.0
48.81361 188.0
48.835209 168.0
48.844948 188.0
48.875008 136.0
48.943764 176.0
48.960472 136.0
48.989723 188.0
49.077286 160.0
49.081978 148.0
49.086193 188.0
49.107891 192.0
49.110622 148.0
49.134716 160.0
49.15704 168.0
49.17239 220.0
49.185982 168.0
49.211479 120.0
49.270138 120.0
49.40715 120.0
49.442131 176.0
49.517735 84.0
49.531914 164.0
49.596199 160.0
49.615826 180.0
49.655087 180.0
49.75893 124.0
49.805958 288.0
49.837585 144.0
49.847424 172.0
49.879112 164.0
49.896618 188.0
49.912083 144.0
49.923336 168.0
49.937397 224.0
49.957092 132.0
50.009155 216.0
50.055614 148.0
50.080967 116.0
50.109142 184.0
50.131687 80.0
50.169743 176.0
50.210636 188.0
50.258598 216.0
50.29388 76.0
50.307999 212.0
50.323528 192.0
50.372959 160.0
50.398388 144.0
50.438786 192.0
50.467651 128.0
50.55394 160.0
50.568092 144.0
50.614544 148.0
50.650215 100.0
50.664383 176.0
50.695557 188.0
50.722485 136.0
50.748142 200.0
50.806152 128.0
50.836464 188.0
50.847904 360.0
50.871437 164.0
50.899521 172.0
50.96233 204.0
50.987911 160.0
51.016338 380.0
51.067532 148.0
51.077488 168.0
51.114479 208.0
51.142944 200.0
51.152908 116.0
51.241203 176.0
51.261875 300.0
51.315872 124.0
51.339561 56.0
51.368767 268.0
51.39122 148.0
51.395153 140.0
51.435154 316.0
51.454136 244.0
51.480843 136.0
51.518661 176.0
51.576569 176.0
51.595409 156.0
51.619461 132.0
51.683014 140.0
51.698143 184.0
51.707588 140.0
51.772587 156.0
51.792637 108.0
51.836025 156.0
51.862305 168.0
51.939022 196.0
52.053665 192.0
52.065544 172.0
52.076542 172.0
52.09819 196.0
52.118305 164.0
52.139862 208.0
52.171486 156.0
52.194489 88.0
52.236198 176.0
52.276485 144.0
52.318279 212.0
52.333488 168.0
52.384472 164.0
52.411846 100.0
52.521416 220.0
52.549587 188.0
52.56181 68.0
52.590675 68.0
52.60511 212.0
52.667202 196.0
52.687428 172.0
52.732224 164.0
52.781376 132.0
52.811749 180.0
52.823673 148.0
52.832855 88.0
52.901463 108.0
52.933826 148.0
52.965179 180.0
52.977993 128.0
52.983364 192.0
53.027485 148.0
53.049519 140.0
53.069527 84.0
53.088379 152.0
53.117386 140.0
53.153656 380.0
53.178329 176.0
53.216194 236.0
53.249802 108.0
53.275536 204.0
53.329388 188.0
53.385128 176.0
53.435543 160.0
53.451092 228.0
53.479202 168.0
53.512684 240.0
53.524334 88.0
53.534527 164.0
53.550549 112.0
53.571785 200.0
53.624855 140.0
53.643806 124.0
53.721886 236.0
53.759029 200.0
53.779018 112.0
53.816174 192.0
53.830563 204.0
53.929413 164.0
53.945049 224.0
53.96207 120.0
54.033424 172.0
54.037575 148.0
54.065929 212.0
54.108379 64.0
54.149384 152.0
54.232048 200.0
54.291546 112.0
54.334084 148.0
54.414806 124.0
54.43977 52.0
54.469463 128.0
54.502934 212.0
54.554375 132.0
54.570995 92.0
54.627907 180.0
54.654388 212.0
54.664688 212.0
54.81168 176.0
54.867958 156.0
54.990395 148.0
55.055355 112.0
55.067173 140.0
55.084896 124.0
55.122967 188.0
55.186874 148.0
55.212013 308.0
55.253429 164.0
55.263786 208.0
55.312626 144.0
55.336311 132.0
55.378448 136.0
55.401478 164.0
55.429253 224.0
55.451859 96.0
55.56456 64.0
55.585331 176.0
55.622437 148.0
55.721939 156.0
55.782871 68.0
55.808144 216.0
55.820042 160.0
55.870613 172.0
56.013523 204.0
56.026932 124.0
56.071636 200.0
56.110394 208.0
56.143448 120.0
56.184963 56.0
56.199883 172.0
56.222267 68.0
56.240177 148.0
56.320808 168.0
56.334858 168.0
56.343864 120.0
56.370113 132.0
56.426914 112.0
56.444855 64.0
56.461308 168.0
56.471775 144.0
56.497204 200.0
56.509174 140.0
56.543591 184.0
56.55407 152.0
56.597485 84.0
56.649906 156.0
56.670879 208.0
56.68137 88.0
56.699352 236.0
56.7687 156.0
56.795479 144.0
56.85833 140.0
56.879341 124.0
56.915722 172.0
56.952919 136.0
56.969444 148.0
57.041576 196.0
57.118267 68.0
57.143841 132.0
57.15588 132.0
57.195011 72.0
57.23867 172.0
57.253353 160.0
57.276321 180.0
57.313061 156.0
57.327549 144.0
57.402298 164.0
57.457706 176.0
57.473824 80.0
57.488911 176.0
57.522118 108.0
57.550804 116.0
57.570435 96.0
57.628109 132.0
57.662594 200.0
57.695847 236.0
57.724575 168.0
57.750286 40.0
57.760876 116.0
57.789749 224.0
57.809292 152.0
57.831196 152.0
57.869045 160.0
57.886497 140.0
57.898613 136.0
57.944054 100.0
57.955166 288.0
57.97739 104.0
57.991032 156.0
58.016804 120.0
58.03651 232.0
58.05471 132.0
58.074425 92.0
58.099331 172.0
58.144218 136.0
58.171539 144.0
58.201904 88.0
58.224686 124.0
58.247467 216.0
58.268738 100.0
58.341686 104.0
58.359932 236.0
58.403542 148.0
58.44511 324.0
58.483158 200.0
58.498379 220.0
58.513603 200.0
58.61261 204.0
58.630375 140.0
58.673786 152.0
58.699497 240.0
58.743729 140.0
58.789505 168.0
58.918217 196.0
58.95507 116.0
58.998528 128.0
59.121132 200.0
59.134907 112.0
59.154808 248.0
59.202271 144.0
59.246693 172.0
59.268929 140.0
59.294193 184.0
59.321785 72.0
59.336876 256.0
59.34938 56.0
59.365623 176.0
59.389256 48.0
59.436813 56.0
59.455231 88.0
59.507423 172.0
59.544277 120.0
59.580086 328.0
59.594971 156.0
59.614948 144.0
59.689823 176.0
59.706062 180.0
59.734875 148.0
59.774879 68.0
59.810276 96.0
59.859802 168.0
59.876484 116.0
59.888805 128.0
59.913452 40.0
60.005928 72.0
60.030598 100.0
60.1031 228.0
60.158661 116.0
60.181564 120.0
60.189949 136.0
60.280064 196.0
60.310818 248.0
60.340965 192.0
60.351788 152.0
60.370342 136.0
60.385811 160.0
60.418293 164.0
60.435314 168.0
60.494125 100.0
60.5158 100.0
60.554516 136.0
60.627331 92.0
60.703297 220.0
60.721905 196.0
60.811661 160.0
60.878654 116.0
60.891079 160.0
60.919037 152.0
60.933022 256.0
60.943897 168.0
60.968761 120.0
61.067814 124.0
61.096828 188.0
61.116493 180.0
61.152546 120.0
61.203297 120.0
61.222347 144.0
61.245708 148.0
61.29089 140.0
61.315823 96.0
61.350117 176.0
61.362587 164.0
61.388023 272.0
61.414051 124.0
61.424969 108.0
61.48114 276.0
61.512356 168.0
61.52953 176.0
61.545143 148.0
61.556072 332.0
61.581062 176.0
61.595119 52.0
61.631054 156.0
61.654491 124.0
61.667866 180.0
61.699825 152.0
61.729637 120.0
61.751427 48.0
61.763939 180.0
61.870354 60.0
61.89994 344.0
61.930916 184.0
61.948658 56.0
61.974468 228.0
62.030144 140.0
62.045822 48.0
62.078751 88.0
62.11953 88.0
62.171307 64.0
62.217945 180.0
62.235668 140.0
62.267078 132.0
62.296066 144.0
62.311062 108.0
62.347202 140.0
62.364845 160.0
62.432098 160.0
62.45097 292.0
62.478508 184.0
62.559193 124.0
62.605209 80.0
62.618572 180.0
62.661919 144.0
62.688705 156.0
62.722427 192.0
62.832195 172.0
62.857441 136.0
62.904789 40.0
62.944496 224.0
62.961632 100.0
62.989647 168.0
62.996281 124.0
62.998318 160.0
63.056427 180.0
63.121891 156.0
63.131145 184.0
63.144966 196.0
63.162365 136.0
63.20248 292.0
63.224422 144.0
63.260475 144.0
63.331734 116.0
63.352329 92.0
63.366199 180.0
63.410957 188.0
63.452171 180.0
63.536228 188.0
63.55051 148.0
63.593357 196.0
63.614017 276.0
63.629868 204.0
63.671154 168.0
63.69397 176.0
63.782375 100.0
63.803043 108.0
63.871426 120.0
63.882561 192.0
64.017853 100.0
64.094315 164.0
64.13575 112.0
64.158066 164.0
64.207497 192.0
64.226639 148.0
64.245071 144.0
64.407013 104.0
64.453346 232.0
64.470924 172.0
64.509285 76.0
64.534248 52.0
64.586037 132.0
64.60524 160.0
64.634033 152.0
64.658012 244.0
64.669441 232.0
64.686852 108.0
64.725281 168.0
64.754601 256.0
64.787743 124.0
64.834213 44.0
64.848633 144.0
64.86306 152.0
64.903145 184.0
64.966675 164.0
64.996178 148.0
65.010437 172.0
65.037903 180.0
65.140022 176.0
65.170441 144.0
65.200928 176.0
65.214378 180.0
65.253174 52.0
65.307846 148.0
65.322327 240.0
65.376045 104.0
65.391518 160.0
65.45108 116.0
65.462357 96.0
65.505844 180.0
65.52195 112.0
65.554176 136.0
65.597694 156.0
65.610596 156.0
65.657356 128.0
65.674919 180.0
65.695808 328.0
65.735291 168.0
65.775139 104.0
65.793304 112.0
65.830032 36.0
65.849419 188.0
65.872032 156.0
65.914909 104.0
65.95121 216.0
65.965759 76.0
66.030434 132.0
66.0644 108.0
66.106552 160.0
66.1437 180.0
66.201988 140.0
66.236 200.0
66.281364 176.0
66.305672 124.0
66.323502 216.0
66.349274 120.0
66.391594 140.0
66.430527 180.0
66.45723 216.0
66.488937 188.0
66.500298 96.0
66.54953 172.0
66.583099 124.0
66.675705 144.0
66.74073 104.0
66.758621 164.0
66.804161 176.0
66.838089 136.0
66.849815 208.0
66.897415 120.0
66.955544 204.0
67.033737 52.0
67.107094 204.0
67.131317 140.0
67.178848 132.0
67.200058 144.0
67.229431 132.0
67.294724 364.0
67.409065 152.0
67.427048 192.0
67.446663 160.0
67.463005 52.0
67.508789 192.0
67.545441 196.0
67.618401 172.0
67.63707 240.0
67.65461 164.0
67.674454 164.0
67.695351 172.0
67.711723 136.0
67.727913 236.0
67.773979 68.0
67.790359 136.0
67.810341 180.0
67.934647 128.0
67.957619 144.0
68.014862 136.0
68.017792 120.0
68.054459 156.0
68.093872 60.0
68.131653 164.0
68.154655 112.0
68.182594 116.0
68.207245 152.0
68.218758 56.0
68.273018 124.0
68.284531 120.0
68.307556 144.0
68.33223 196.0
68.343285 184.0
68.354401 152.0
68.376663 156.0
68.396416 36.0
68.417816 108.0
68.449387 208.0
68.486649 160.0
68.490631 128.0
68.497246 188.0
68.502991 172.0
68.54557 232.0
68.562767 160.0
68.575165 200.0
68.581345 104.0
68.587204 68.0
68.645195 144.0
68.699623 152.0
68.717773 104.0
68.784813 232.0
68.886169 180.0
68.919212 92.0
68.986977 184.0
69.053116 92.0
69.065262 152.0
69.084549 108.0
69.13253 164.0
69.159012 52.0
69.190468 180.0
69.240143 168.0
69.25174 140.0
69.268303 164.0
69.2799 164.0
69.324631 148.0
69.37104 152.0
69.400017 176.0
69.417465 204.0
69.440689 160.0
69.461533 216.0
69.47718 164.0
69.494881 248.0
69.624908 148.0
69.640457 312.0
69.717949 132.0
69.743065 252.0
69.766563 144.0
69.821358 200.0
69.842644 184.0
69.857613 76.0
69.992432 184.0
70.004089 172.0
70.067642 204.0
70.107376 180.0
70.127373 128.0
70.217407 100.0
70.232422 60.0
70.272453 148.0
70.30249 168.0
70.35257 208.0
70.384674 208.0
70.426468 140.0
70.439407 140.0
70.474869 160.0
70.507912 108.0
70.566422 176.0
70.579796 144.0
70.607819 180.0
70.631638 148.0
70.646698 60.0
70.678482 128.0
70.69857 152.0
70.822464 224.0
70.839211 140.0
70.886131 100.0
70.912292 176.0
70.948143 132.0
70.980545 136.0
71.016899 184.0
71.031998 132.0
71.134354 220.0
71.179955 200.0
71.193123 188.0
71.243446 208.0
71.275436 208.0
71.297287 216.0
71.403198 144.0
71.489006 72.0
71.546234 156.0
71.568123 88.0
71.60685 128.0
71.668419 248.0
71.733231 140.0
71.753456 148.0
71.829346 140.0
71.866463 104.0
71.923843 136.0
71.939034 148.0
71.999496 164.0
72.020088 132.0
72.052185 168.0
72.082603 96.0
72.109489 220.0
72.126991 180.0
72.177261 140.0
72.190788 144.0
72.212776 60.0
72.247749 160.0
72.271988 112.0
72.297371 84.0
72.349846 160.0
72.368469 168.0
72.382462 152.0
72.40403 72.0
72.453156 480.0
72.507378 132.0
72.519722 168.0
72.541992 136.0
72.558228 128.0
72.585625 76.0
72.600075 124.0
72.615883 172.0
72.631149 180.0
72.676956 116.0
72.737541 304.0
72.845497 132.0
72.865425 76.0
72.924904 44.0
72.9776 164.0
73.050728 124.0
73.12442 156.0
73.159645 148.0
73.248199 96.0
73.266937 124.0
73.285683 172.0
73.323174 140.0
73.356071 132.0
73.395645 156.0
73.401848 184.0
73.42205 140.0
73.524422 176.0
73.553375 172.0
73.585869 156.0
73.602943 200.0
73.622833 248.0
73.696892 132.0
73.746452 188.0
73.809708 192.0
73.825027 200.0
73.842201 164.0
73.896942 84.0
73.912521 188.0
73.940994 188.0
73.956841 156.0
73.968819 184.0
73.98423 144.0
74.090004 188.0
74.11692 220.0
74.16581 316.0
74.200096 68.0
74.222443 124.0
74.248772 144.0
74.265259 140.0
74.28756 136.0
74.315521 160.0
74.364777 40.0
74.459206 180.0
74.526207 96.0
74.541672 80.0
74.569489 108.0
74.623016 184.0
74.636215 236.0
74.651688 180.0
74.663727 72.0
74.710167 144.0
74.761787 68.0
74.880768 112.0
74.913315 160.0
74.958107 260.0
75.004646 132.0
75.02533 184.0
75.049469 116.0
75.087402 168.0
75.132256 148.0
75.146057 180.0
75.165039 44.0
75.178841 136.0
75.223717 188.0
75.280701 40.0
75.296242 200.0
75.313606 152.0
75.470779 188.0
75.484612 148.0
75.503639 132.0
75.559258 336.0
75.574059 180.0
75.647247 140.0
75.668022 220.0
75.719978 148.0
75.744225 172.0
75.811798 168.0
75.843925 216.0
75.87294 148.0
75.922752 88.0
75.94928 176.0
75.969582 184.0
76.008629 360.0
76.037254 128.0
76.131004 204.0
76.176163 136.0
76.190063 80.0
76.212646 164.0
76.245667 148.0
76.282166 152.0
76.306511 152.0
76.341286 128.0
76.384766 156.0
76.407379 36.0
76.430435 96.0
76.443031 84.0
76.4944 208.0
76.52169 112.0
76.562302 172.0
76.600624 144.0
76.631981 224.0
76.64418 204.0
76.682518 152.0
76.708351 156.0
76.797951 136.0
76.828621 132.0
76.846443 124.0
76.869125 208.0
76.931961 136.0
76.969093 208.0
77.013557 148.0
77.029755 148.0
77.058929 160.0
77.112389 164.0
77.202789 128.0
77.220284 180.0
77.23777 128.0
77.265762 252.0
77.349762 144.0
77.381874 184.0
77.414543 40.0
77.435562 60.0
77.447823 64.0
77.461838 160.0
77.497093 160.0
77.544754 136.0
77.564903 220.0
77.612556 72.0
77.656403 144.0
77.684471 136.0
77.696747 116.0
77.7687 208.0
77.819603 132.0
77.840324 200.0
77.874046 168.0
77.907425 96.0
77.942558 176.0
78.037964 248.0
78.057533 108.0
78.097267 184.0
78.234528 120.0
78.282066 160.0
78.299683 76.0
78.384239 160.0
78.412437 152.0
78.433586 164.0
78.481636 332.0
78.498825 168.0
78.520676 168.0
78.553116 148.0
78.578201 172.0
78.639999 172.0
78.722939 168.0
78.76973 228.0
78.854469 196.0
78.881958 176.0
78.906708 92.0
78.925423 164.0
78.93087 96.0
78.937248 132.0
78.975677 204.0
78.98806 128.0
79.008591 132.0
79.07299 192.0
79.097771 176.0
79.124321 128.0
79.140259 380.0
79.159737 184.0
79.232361 172.0
79.267799 120.0
79.306786 120.0
79.391891 240.0
79.41317 164.0
79.443329 152.0
79.49247 172.0
79.533455 188.0
79.610176 148.0
79.652802 204.0
79.670563 176.0
79.725647 140.0
79.748756 140.0
79.792633 152.0
79.846542 120.0
79.871445 112.0
79.974648 136.0
80.003128 208.0
80.022713 188.0
80.06189 136.0
80.106415 172.0
80.126015 192.0
80.15274 112.0
80.175911 164.0
80.193733 164.0
80.261833 100.0
80.313194 112.0
80.34301 168.0
80.357796 180.0
80.40419 180.0
80.442307 136.0
80.466667 176.0
80.545242 136.0
80.586334 208.0
80.611351 280.0
80.634583 112.0
80.671814 176.0
80.71888 132.0
80.83667 148.0
80.871262 208.0
80.915123 232.0
80.949196 168.0
80.969154 168.0
81.012138 132.0
81.04081 68.0
81.056435 156.0
81.082306 308.0
81.134933 80.0
81.162415 248.0
81.23085 88.0
81.246994 136.0
81.272194 172.0
81.353035 204.0
81.386986 132.0
81.417519 168.0
81.430687 156.0
81.455238 156.0
81.51313 252.0
81.699142 212.0
81.715912 176.0
81.746506 120.0
81.760902 128.0
81.787903 128.0
81.823906 116.0
81.843712 132.0
81.858116 148.0
81.900772 140.0
81.930756 212.0
82.004044 72.0
82.025673 156.0
82.045502 44.0
82.092384 156.0
82.124847 192.0
82.168144 136.0
82.213257 156.0
82.275734 208.0
82.375755 132.0
82.41008 172.0
82.429962 144.0
82.495026 124.0
82.51545 176.0
82.537582 84.0
82.58725 164.0
82.607147 208.0
82.639709 208.0
82.661423 132.0
82.676575 204.0
82.695808 148.0
82.712105 72.0
82.791771 172.0
82.814514 156.0
82.83886 124.0
82.856979 376.0
82.875481 132.0
82.891403 152.0
82.907951 152.0
82.963905 88.0
83.033783 172.0
83.06002 144.0
83.090858 208.0
83.141663 108.0
83.162186 196.0
83.19249 172.0
83.216087 164.0
83.246964 156.0
83.352318 140.0
83.379578 160.0
83.423203 160.0
83.461388 184.0
83.47789 156.0
83.566879 152.0
83.638496 172.0
83.737999 120.0
83.816338 144.0
83.85096 140.0
83.900177 108.0
83.963158 224.0
83.996506 156.0
84.021935 216.0
84.028648 164.0
84.076309 152.0
84.091713 180.0
84.128227 380.0
84.155609 152.0
84.168388 124.0
84.270569 192.0
84.306671 172.0
84.36937 156.0
84.382172 212.0
84.426208 96.0
84.471344 216.0
84.497398 208.0
84.510201 96.0
84.543144 176.0
84.595528 208.0
84.641785 176.0
84.663971 68.0
84.678619 116.0
84.719429 116.0
84.760544 164.0
84.863708 144.0
84.903069 224.0
84.933395 204.0
84.954788 188.0
84.983459 180.0
85.010017 184.0
85.03817 160.0
85.058174 192.0
85.096733 144.0
85.149986 156.0
85.18972 196.0
85.19561 204.0
85.26757 148.0
85.2929 184.0
85.306366 184.0
85.365005 84.0
85.412827 356.0
85.462502 164.0
85.509468 132.0
85.534271 104.0
85.577042 192.0
85.600067 196.0
85.607765 144.0
85.610161 184.0
85.624496 156.0
85.738724 168.0
85.751625 116.0
85.792175 104.0
85.819664 172.0
85.936035 140.0
85.972939 164.0
86.02462 204.0
86.043083 108.0
86.080009 164.0
86.104584 184.0
86.148354 136.0
86.179756 120.0
86.235199 112.0
86.292503 140.0
86.32579 64.0
86.340584 152.0
86.373878 48.0
86.420128 36.0
86.447517 120.0
86.481735 180.0
86.538544 208.0
86.619675 204.0
86.703453 144.0
86.768333 148.0
86.790581 300.0
86.822105 156.0
86.835091 84.0
86.864769 232.0
86.881462 204.0
86.909882 152.0
86.981674 124.0
87.016945 192.0
87.059654 140.0
87.081886 140.0
87.120384 328.0
87.184128 132.0
87.227982 200.0
87.280792 132.0
87.299393 128.0
87.333603 132.0
87.455673 228.0
87.495407 116.0
87.559937 352.0
87.583366 228.0
87.604645 124.0
87.669853 100.0
87.716919 176.0
87.796631 144.0
87.856316 168.0
87.919762 128.0
88.035507 220.0
88.10527 160.0
88.132645 156.0
88.170013 200.0
88.205528 204.0
88.248528 156.0
88.270576 192.0
88.287613 40.0
88.366364 124.0
88.393036 188.0
88.474586 68.0
88.53334 188.0
88.686592 200.0
88.72596 196.0
88.780342 124.0
88.851364 296.0
88.864754 40.0
88.898529 124.0
88.929596 224.0
88.984871 176.0
89.037254 1160.0
89.140778 148.0
89.178368 260.0
89.257324 36.0
89.279892 112.0
89.304344 40.0
89.317505 200.0
89.379593 56.0
89.402802 132.0
89.480904 160.0
89.491692 296.0
89.533958 128.0
89.581047 116.0
89.601768 140.0
89.633804 200.0
89.650764 88.0
89.687447 216.0
89.701653 88.0
89.716736 44.0
89.739357 228.0
89.767647 128.0
89.797821 140.0
89.860069 128.0
89.894035 176.0
89.914795 124.0
89.929893 100.0
89.943108 116.0
89.98275 124.0
90.016991 148.0
90.046631 260.0
90.092293 180.0
90.123421 344.0
90.156532 76.0
90.186775 120.0
90.275635 136.0
90.296654 208.0
90.345619 80.0
90.379234 224.0
90.404274 120.0
90.435028 208.0
90.470528 160.0
90.487564 80.0
90.584152 200.0
90.623932 200.0
90.663727 136.0
90.682716 220.0
90.790749 208.0
90.804024 88.0
90.851448 144.0
90.872314 116.0
90.890892 132.0
90.915962 140.0
90.929245 280.0
90.950127 136.0
90.9767 148.0
91.053215 1324.0
91.083954 160.0
91.140038 92.0
91.216064 116.0
91.244576 152.0
91.259789 180.0
91.341568 128.0
91.374626 232.0
91.392082 196.0
91.429092 200.0
91.485031 184.0
91.503326 172.0
91.516655 96.0
91.531891 80.0
91.547127 100.0
91.606171 192.0
91.705338 192.0
91.719131 228.0
91.744736 208.0
91.782654 192.0
91.86734 116.0
91.932213 168.0
91.955162 160.0
91.97802 224.0
92.042931 176.0
92.070663 292.0
92.13652 164.0
92.157944 188.0
92.176643 104.0
92.195755 128.0
92.233986 168.0
92.314285 192.0
92.390793 136.0
92.411842 68.0
92.440544 36.0
92.457764 148.0
92.499878 120.0
92.525452 188.0
92.570045 172.0
92.599442 200.0
92.621399 120.0
92.658829 220.0
92.700836 156.0
92.743149 132.0
92.766151 200.0
92.792992 112.0
92.815262 136.0
92.88475 184.0
92.931084 112.0
93.011688 128.0
93.059937 216.0
93.082726 172.0
93.098091 52.0
93.111534 140.0
93.136505 148.0
93.180687 180.0
93.232567 172.0
93.258247 200.0
93.286385 116.0
93.307533 92.0
93.370995 164.0
93.405617 140.0
93.430618 116.0
93.446014 124.0
93.468513 104.0
93.476479 72.0
93.505669 348.0
93.534538 156.0
93.580742 148.0
93.605774 168.0
93.736542 136.0
93.750824 144.0
93.852425 56.0
93.931496 224.0
94.022186 180.0
94.064308 1844.0
94.110985 84.0
94.126427 192.0
94.151535 108.0
94.201294 168.0
94.221077 40.0
94.234596 68.0
94.271309 192.0
94.334419 148.0
94.356361 48.0
94.381706 188.0
94.416306 196.0
94.458855 52.0
94.478889 204.0
94.542053 232.0
94.560371 140.0
94.573021 156.0
94.649063 228.0
94.731812 128.0
94.774429 176.0
94.813583 176.0
94.899063 148.0
94.964417 40.0
94.977997 148.0
95.072578 580.0
95.115768 140.0
95.153404 240.0
95.201019 132.0
95.218674 32.0
95.240044 124.0
95.271118 148.0
95.310562 228.0
95.346901 124.0
95.397743 180.0
95.541786 196.0
95.570534 176.0
95.591553 160.0
95.691216 172.0
95.721497 188.0
95.745163 232.0
95.829498 116.0
95.891861 132.0
95.944489 112.0
95.962036 124.0
96.053314 204.0
96.059029 164.0
96.08094 17444.0
96.111588 388.0
96.155647 112.0
96.186394 40.0
96.222427 96.0
96.233864 176.0
96.255432 132.0
96.291832 40.0
96.341553 88.0
96.362152 76.0
96.377785 60.0
96.40229 140.0
96.428596 140.0
96.455963 172.0
96.561546 216.0
96.588066 136.0
96.659363 64.0
96.684807 48.0
96.701653 184.0
96.733734 80.0
96.810097 52.0
96.842415 180.0
96.856361 200.0
96.884529 44.0
96.932632 124.0
96.959564 220.0
97.007996 128.0
97.08223 1772.0
97.110245 244.0
97.129723 156.0
97.164886 104.0
97.185951 200.0
97.219826 92.0
97.264969 168.0
97.31012 148.0
97.341537 108.0
97.364418 148.0
97.386116 172.0
97.406357 152.0
97.439751 124.0
97.484947 52.0
97.500664 112.0
97.524254 156.0
97.559631 148.0
97.594017 172.0
97.610756 188.0
97.661888 140.0
97.681557 184.0
97.722382 144.0
97.733925 280.0
97.783882 100.0
97.797653 192.0
97.815369 64.0
97.842674 184.0
97.855919 208.0
97.871925 116.0
97.903976 48.0
97.931549 96.0
97.968971 172.0
97.990044 184.0
98.055222 52.0
98.097488 1076.0
98.146362 212.0
98.194122 164.0
98.225876 308.0
98.243004 164.0
98.256813 148.0
98.286407 168.0
98.316704 136.0
98.37812 248.0
98.407631 184.0
98.426125 164.0
98.44368 156.0
98.503937 156.0
98.52729 192.0
98.545723 244.0
98.603767 148.0
98.647842 48.0
98.665634 132.0
98.691338 48.0
98.709129 60.0
98.724953 132.0
98.784294 80.0
98.825836 108.0
98.840988 152.0
98.904518 188.0
98.948555 196.0
98.987831 124.0
99.019836 104.0
99.085213 176.0
99.104858 340.0
99.119247 188.0
99.140503 124.0
99.158531 240.0
99.2005 152.0
99.227463 160.0
99.273514 124.0
99.317146 240.0
99.333015 124.0
99.364761 220.0
99.38063 164.0
99.438179 108.0
99.46508 196.0
99.511635 96.0
99.535461 112.0
99.555321 60.0
99.602989 80.0
99.622849 108.0
99.636757 144.0
99.650665 116.0
99.755997 176.0
99.770187 88.0
99.811668 88.0
99.835892 176.0
99.881279 84.0
99.901169 288.0
99.984741 148.0
100.024551 188.0
100.043694 208.0
100.074318 128.0
100.099907 108.0
100.126091 128.0
100.155968 112.0
100.177887 292.0
100.207764 156.0
100.257256 168.0
100.307411 136.0
100.331337 136.0
100.359245 40.0
100.423065 204.0
100.650688 72.0
100.668549 224.0
100.696503 228.0
100.732117 164.0
100.748444 212.0
100.762428 176.0
100.784409 68.0
100.858353 48.0
100.926323 200.0
101.024323 92.0
101.072342 372.0
101.122833 148.0
101.146393 252.0
101.160408 132.0
101.190437 192.0
101.214462 164.0
101.257149 152.0
101.426834 184.0
101.515854 180.0
101.548332 168.0
101.597282 112.0
101.613335 140.0
101.643433 208.0
101.665031 152.0
101.68959 104.0
101.71769 124.0
101.732002 216.0
101.748344 132.0
101.772018 284.0
101.793236 236.0
101.820091 236.0
101.836159 88.0
101.852234 128.0
101.874329 124.0
101.907364 204.0
101.976807 152.0
102.049706 184.0
102.079338 348.0
102.111519 68.0
102.158051 208.0
102.209534 172.0
102.217232 124.0
102.242294 196.0
102.264435 232.0
102.290596 108.0
102.350998 144.0
102.369125 96.0
102.422783 236.0
102.473869 148.0
102.534317 152.0
102.554474 128.0
102.645195 140.0
102.690315 172.0
102.707069 124.0
102.824745 68.0
102.899437 160.0
102.955978 48.0
102.978195 96.0
103.008972 184.0
103.023712 112.0
103.054276 1340.0
103.08123 144.0
103.147018 208.0
103.182083 116.0
103.203835 220.0
103.24295 180.0
103.279938 56.0
103.313751 256.0
103.333199 248.0
103.39064 72.0
103.412407 212.0
103.419884 160.0
103.461487 152.0
103.475655 136.0
103.520203 216.0
103.562164 212.0
103.6073 172.0
103.676819 156.0
103.696465 188.0
103.783333 188.0
103.836357 116.0
103.850555 172.0
103.893158 164.0
103.924095 160.0
103.968231 180.0
103.982437 124.0
104.025063 164.0
104.047348 164.0
104.09613 104.0
104.121582 156.0
104.140808 164.0
104.173309 52.0
104.194504 120.0
104.228165 108.0
104.273132 156.0
104.331673 164.0
104.358429 188.0
104.426079 148.0
104.45137 188.0
104.477028 240.0
104.491302 164.0
104.549469 84.0
104.572792 104.0
104.592209 116.0
104.626816 184.0
104.677719 124.0
104.702156 112.0
104.743286 180.0
104.826431 144.0
104.938538 272.0
104.986092 176.0
105.069283 540.0
105.087433 268.0
105.11396 40.0
105.142532 196.0
105.223969 196.0
105.265015 124.0
105.311989 108.0
105.369186 164.0
105.39045 112.0
105.416847 124.0
105.452972 96.0
105.489769 160.0
105.508163 72.0
105.533722 176.0
105.565964 188.0
105.587914 144.0
105.631317 200.0
105.657463 148.0
105.702774 192.0
105.727036 200.0
105.763474 204.0
105.825294 160.0
105.85601 124.0
105.909256 88.0
105.925644 52.0
105.957039 196.0
105.974403 220.0
106.064255 460.0
106.077705 284.0
106.099838 92.0
106.126434 148.0
106.169556 132.0
106.222878 132.0
106.265961 168.0
106.327522 116.0
106.368576 132.0
106.389107 224.0
106.434273 104.0
106.505127 208.0
106.586281 56.0
106.604774 216.0
106.666435 100.0
106.682884 184.0
106.699326 40.0
106.822723 116.0
106.89473 268.0
106.927658 180.0
106.944122 172.0
106.983238 160.0
107.045006 204.0
107.073105 160.0
107.105652 120.0
107.215996 148.0
107.25309 120.0
107.274933 188.0
107.280846 112.0
107.306694 156.0
107.329376 96.0
107.345871 156.0
107.366493 96.0
107.388283 156.0
107.494858 156.0
107.51297 140.0
107.636833 156.0
107.678139 176.0
107.742172 244.0
107.777298 172.0
107.86203 92.0
107.880592 200.0
107.93026 132.0
107.945267 176.0
107.973686 96.0
107.990234 184.0
108.027466 148.0
108.079971 1412.0
108.103516 148.0
108.147484 116.0
108.172325 120.0
108.190956 132.0
108.236504 160.0
108.278694 188.0
108.30899 100.0
108.360779 132.0
108.402222 144.0
108.416733 112.0
108.486069 160.0
108.532814 144.0
108.563919 96.0
108.603813 136.0
108.653114 136.0
108.669716 152.0
108.755791 92.0
108.919716 132.0
108.941689 148.0
108.983955 116.0
109.015259 128.0
109.028961 204.0
109.06221 116.0
109.086685 1028.0
109.14225 160.0
109.172409 192.0
109.19944 160.0
109.231606 148.0
109.253525 184.0
109.280571 156.0
109.330513 112.0
109.347168 116.0
109.376305 124.0
109.395042 52.0
109.512093 188.0
109.582359 144.0
109.655762 216.0
109.727646 344.0
109.751312 68.0
109.775902 212.0
109.830559 168.0
109.888969 80.0
109.936966 132.0
109.974533 160.0
110.027191 124.0
110.094513 1128.0
110.158287 128.0
110.180344 208.0
110.254402 120.0
110.281578 156.0
110.312927 140.0
110.366928 116.0
110.373756 152.0
110.390289 192.0
110.471863 148.0
110.487419 128.0
110.513702 120.0
110.530449 120.0
110.559128 176.0
110.605789 80.0
110.658127 164.0
110.699265 124.0
110.775406 128.0
110.79007 132.0
110.896942 136.0
110.925323 104.0
110.949348 124.0
110.988724 164.0
111.010155 112.0
111.060486 284.0
111.100174 200.0
111.224159 224.0
111.249352 140.0
111.274544 332.0
111.301834 160.0
111.358543 160.0
111.383743 100.0
111.411057 152.0
111.457275 140.0
111.536324 156.0
111.56237 144.0
111.606522 168.0
111.640167 120.0
111.665405 160.0
111.690643 120.0
111.732719 152.0
111.783218 124.0
111.861092 192.0
111.896881 164.0
111.92215 108.0
111.970909 156.0
112.002174 140.0
112.023239 128.0
112.092102 176.0
112.098808 120.0
112.103836 160.0
112.13533 144.0
112.175919 160.0
112.193939 68.0
112.227676 168.0
112.252983 156.0
112.271957 228.0
112.325768 160.0
112.396423 108.0
112.489288 124.0
112.504066 108.0
112.52095 136.0
112.549278 208.0
112.594864 196.0
112.613869 40.0
112.687805 200.0
112.721901 88.0
112.799812 168.0
112.842094 168.0
112.884384 48.0
112.930054 256.0
113.018646 204.0
113.02504 220.0
113.030975 312.0
113.111717 144.0
113.143257 220.0
113.167938 132.0
113.18911 168.0
113.212402 136.0
113.250526 288.0
113.282059 208.0
113.413681 140.0
113.446289 188.0
113.489998 52.0
113.51757 96.0
113.550629 172.0
113.578857 200.0
113.662521 168.0
113.683823 108.0
113.714867 108.0
113.742462 272.0
113.771027 88.0
113.796951 96.0
113.850746 144.0
113.89254 124.0
113.912346 148.0
113.999458 100.0
114.069595 128.0
114.105736 196.0
114.182289 140.0
114.326958 136.0
114.37278 136.0
114.416359 156.0
114.469589 124.0
114.493019 200.0
114.518578 124.0
114.573959 168.0
114.618706 156.0
114.648537 208.0
114.672112 132.0
114.70182 204.0
114.735931 124.0
114.787102 160.0
114.810562 108.0
114.825493 108.0
114.859901 184.0
115.002586 136.0
115.05365 1300.0
115.117874 120.0
115.145638 52.0
115.16272 184.0
115.194763 76.0
115.211739 148.0
115.25396 164.0
115.260414 176.0
115.288773 44.0
115.312286 144.0
115.354378 196.0
115.427544 232.0
115.49189 144.0
115.542885 148.0
115.621567 164.0
115.642204 160.0
115.671631 144.0
115.698631 164.0
115.780655 96.0
115.788231 88.0
115.796577 136.0
115.830093 192.0
115.905083 88.0
115.947945 384.0
116.027252 112.0
116.057182 304.0
116.083 140.0
116.108734 176.0
116.181671 172.0
116.230934 180.0
116.295403 92.0
116.411331 84.0
116.524979 172.0
116.607437 172.0
116.643379 224.0
116.665451 164.0
116.671722 172.0
116.697121 44.0
116.828316 48.0
116.871086 164.0
116.907928 228.0
116.940216 220.0
116.982903 168.0
117.015976 164.0
117.037086 112.0
117.067261 384.0
117.108154 152.0
117.125389 136.0
117.146927 124.0
117.250359 208.0
117.280624 92.0
117.319336 148.0
117.364609 324.0
117.386169 56.0
117.409897 260.0
117.466599 124.0
117.56218 224.0
117.602219 216.0
117.661423 212.0
117.696907 220.0
117.718498 160.0
117.735779 116.0
117.80793 148.0
117.839706 108.0
117.938873 156.0
117.967865 68.0
117.990082 144.0
118.064766 496.0
118.137413 216.0
118.19191 172.0
118.248177 168.0
118.269821 96.0
118.293633 68.0
118.313736 180.0
118.382401 176.0
118.4608 164.0
118.484795 176.0
118.540543 208.0
118.56871 204.0
118.601227 124.0
118.640244 148.0
118.746498 188.0
118.774696 72.0
118.816895 164.0
118.837608 92.0
118.891861 36.0
118.951759 124.0
118.978683 160.0
119.076401 172.0
119.099762 148.0
119.103783 112.0
119.169815 232.0
119.204582 160.0
119.226311 92.0
119.280647 132.0
119.298042 140.0
119.358917 224.0
119.376312 160.0
119.441559 52.0
119.493774 224.0
119.577484 168.0
119.610954 216.0
119.633064 48.0
119.676605 60.0
119.691849 116.0
119.731606 136.0
119.750648 160.0
119.7855 116.0
119.826889 124.0
119.855217 124.0
119.881363 180.0
119.898804 144.0
119.916237 68.0
119.97509 72.0
119.992531 36.0
120.0271 136.0
120.042686 152.0
120.077576 404.0
120.137886 192.0
120.165482 176.0
120.219391 180.0
120.365646 220.0
120.400589 148.0
120.461746 116.0
120.511993 180.0
120.559326 188.0
120.684669 96.0
120.746246 160.0
120.777199 116.0
120.822464 108.0
120.868408 204.0
120.914368 132.0
120.971275 108.0
121.030518 136.0
121.078568 112.0
121.104904 164.0
121.134872 68.0
121.149544 148.0
121.192482 152.0
121.249458 172.0
121.277946 52.0
121.361168 192.0
121.367584 140.0
121.374863 176.0
121.453362 132.0
121.473106 140.0
121.536736 64.0
121.560516 224.0
121.593788 120.0
121.653053 116.0
121.683792 68.0
121.773674 232.0
121.811913 188.0
121.83094 160.0
121.879272 132.0
121.895805 172.0
121.932014 212.0
122.013351 176.0
122.150986 212.0
122.237701 212.0
122.315636 156.0
122.367569 140.0
122.420418 120.0
122.444641 200.0
122.49971 144.0
122.535591 224.0
122.568008 132.0
122.594452 212.0
122.609879 156.0
122.628998 208.0
122.656166 152.0
122.684822 236.0
122.702461 180.0
122.722305 48.0
122.75351 132.0
122.77523 64.0
122.814171 128.0
122.843605 192.0
122.883316 212.0
122.924042 184.0
123.026772 312.0
123.097885 312.0
123.150429 144.0
123.171486 168.0
123.258682 128.0
123.308678 148.0
123.378036 196.0
123.406784 172.0
123.430702 132.0
123.443451 260.0
123.468697 232.0
123.54612 160.0
123.570457 112.0
123.605858 196.0
123.767731 156.0
123.815125 128.0
123.831673 180.0
123.869324 96.0
123.929146 192.0
124.02301 124.0
124.059906 56.0
124.100639 324.0
124.161903 156.0
124.221703 100.0
124.252136 124.0
124.27504 256.0
124.350487 224.0
124.376251 112.0
124.394882 196.0
124.421524 164.0
124.468147 156.0
124.553185 180.0
124.596779 180.0
124.625862 144.0
124.656868 176.0
124.663742 168.0
124.672142 184.0
124.741425 200.0
124.836525 200.0
124.857903 188.0
124.92778 140.0
125.030586 156.0
125.061745 176.0
125.107071 672.0
125.158691 124.0
125.1931 156.0
125.226509 80.0
125.242104 184.0
125.278137 224.0
125.37941 172.0
125.403236 164.0
125.430832 176.0
125.453941 120.0
125.476089 36.0
125.511765 176.0
125.548271 108.0
125.599457 176.0
125.637474 364.0
125.65789 148.0
125.666725 76.0
125.67144 184.0
125.708069 112.0
125.739639 164.0
125.761909 160.0
125.871025 116.0
125.900055 92.0
125.917923 168.0
125.940262 80.0
125.95813 160.0
125.998337 336.0
126.013977 156.0
126.046394 268.0
126.081017 160.0
126.103371 164.0
126.127953 124.0
126.201729 260.0
126.235275 256.0
126.284477 136.0
126.302368 152.0
126.338852 116.0
126.442719 176.0
126.492569 244.0
126.557495 56.0
126.591087 60.0
126.620201 108.0
126.637024 176.0
126.729965 160.0
126.749046 144.0
126.873405 152.0
126.907036 124.0
126.995247 156.0
127.034874 140.0
127.055664 728.0
127.141594 128.0
127.165024 160.0
127.259308 140.0
127.322182 196.0
127.395439 196.0
127.430382 192.0
127.501328 184.0
127.553322 156.0
127.613037 132.0
127.641296 220.0
127.740257 192.0
127.778503 204.0
127.807755 160.0
127.870766 120.0
127.883995 100.0
127.949547 60.0
127.97657 152.0
128.008087 200.0
128.061722 1184.0
128.086884 208.0
128.106171 308.0
128.211914 132.0
128.240143 232.0
128.273956 136.0
128.327133 224.0
128.357376 144.0
128.472412 164.0
128.497223 52.0
128.515274 64.0
128.56871 316.0
128.603226 160.0
128.631546 176.0
128.655197 40.0
128.716171 128.0
128.754562 172.0
128.856201 172.0
128.876541 148.0
128.905914 148.0
128.931061 156.0
128.980499 204.0
129.008408 184.0
129.067871 1432.0
129.125214 184.0
129.157303 188.0
129.20665 128.0
129.228973 212.0
129.360535 192.0
129.389969 124.0
129.469223 140.0
129.500931 172.0
129.521317 144.0
129.557556 148.0
129.601883 200.0
129.631058 192.0
129.730957 336.0
129.872971 144.0
129.92337 156.0
129.972473 36.0
130.041824 216.0
130.067993 860.0
130.120743 112.0
130.172226 140.0
130.190399 156.0
130.244904 188.0
130.272171 180.0
130.332535 116.0
130.360779 152.0
130.39032 136.0
130.451691 120.0
130.478973 148.0
130.581314 112.0
130.674576 160.0
130.690506 140.0
130.739624 224.0
130.766556 164.0
130.793793 72.0
130.815674 56.0
130.831619 180.0
130.883987 156.0
130.989288 236.0
131.00618 196.0
131.057785 160.0
131.082962 168.0
131.143692 128.0
131.159653 216.0
131.180161 144.0
131.280487 340.0
131.338211 180.0
131.364883 164.0
131.405945 136.0
131.448563 228.0
131.506363 140.0
131.529175 88.0
131.623917 124.0
131.670746 184.0
131.705002 172.0
131.908371 128.0
131.924377 188.0
131.960953 196.0
132.023972 172.0
132.078873 684.0
132.130203 148.0
132.161346 124.0
132.265228 112.0
132.306961 172.0
132.407181 220.0
132.452988 120.0
132.469025 96.0
132.514847 208.0
132.666107 108.0
132.732605 164.0
132.776016 120.0
132.783798 112.0
132.788284 156.0
132.810577 136.0
132.890869 200.0
132.969528 168.0
133.042343 168.0
133.085648 336.0
133.105377 160.0
133.184723 200.0
133.214584 308.0
133.260529 168.0
133.285126 136.0
133.322571 164.0
133.430618 40.0
133.527191 168.0
133.547897 140.0
133.616913 108.0
133.644516 124.0
133.677444 232.0
133.759583 76.0
133.817139 96.0
133.856293 204.0
133.87471 184.0
133.890823 208.0
133.916168 132.0
133.955322 160.0
134.006012 104.0
134.084351 148.0
134.100494 136.0
134.20192 136.0
134.231903 104.0
134.282639 256.0
134.298462 172.0
134.356445 300.0
134.43721 128.0
134.453369 184.0
134.531845 128.0
134.554932 172.0
134.582642 132.0
134.711975 160.0
134.767426 92.0
134.788223 232.0
134.891907 144.0
134.908401 152.0
134.968567 184.0
135.003204 220.0
135.058716 212.0
135.100357 108.0
135.125809 208.0
135.162827 92.0
135.211426 168.0
135.253082 148.0
135.314285 160.0
135.338745 140.0
135.388504 136.0
135.456863 160.0
135.481613 232.0
135.503189 212.0
135.53215 160.0
135.56575 120.0
135.595886 140.0
135.690933 192.0
135.721069 44.0
135.741943 112.0
135.776718 72.0
135.85791 76.0
135.922882 32.0
135.973907 160.0
136.036606 280.0
136.081741 120.0
136.152695 136.0
136.203796 156.0
136.238647 168.0
136.259552 200.0
136.319962 176.0
136.352509 216.0
136.380386 188.0
136.513397 136.0
136.52919 224.0
136.643173 164.0
136.778152 132.0
136.808411 140.0
136.83403 100.0
136.872269 140.0
136.929504 116.0
136.952789 116.0
137.022675 208.0
137.076263 152.0
137.195145 124.0
137.244873 204.0
137.265091 232.0
137.295395 144.0
137.400375 80.0
137.477371 104.0
137.573074 148.0
137.611053 208.0
137.62677 176.0
137.729523 228.0
137.811295 184.0
137.852524 192.0
137.886078 172.0
137.972565 196.0
137.991272 156.0
138.007629 224.0
138.063751 296.0
138.143433 124.0
138.208786 152.0
138.250702 172.0
138.33049 172.0
138.36795 132.0
138.405411 144.0
138.426483 156.0
138.445221 108.0
138.487381 80.0
138.556702 176.0
138.637329 136.0
138.671249 244.0
138.782227 212.0
138.848145 156.0
138.885849 152.0
138.911652 216.0
138.963272 156.0
139.048416 256.0
139.10173 160.0
139.120514 168.0
139.143997 100.0
139.188599 208.0
139.216782 148.0
139.241333 144.0
139.259064 180.0
139.283325 204.0
139.298996 244.0
139.327179 100.0
139.367447 144.0
139.410629 156.0
139.454071 108.0
139.472885 192.0
139.493713 148.0
139.536148 180.0
139.54306 208.0
139.573669 184.0
139.66098 112.0
139.67981 232.0
139.724503 128.0
139.834122 192.0
139.866684 156.0
139.90741 184.0
139.966934 116.0
140.004608 200.0
140.054077 180.0
140.075272 256.0
140.16716 164.0
140.219009 196.0
140.254364 60.0
140.322723 84.0
140.372238 96.0
140.486099 272.0
140.530289 152.0
140.586914 128.0
140.608154 192.0
140.804825 188.0
140.848999 124.0
140.917068 192.0
140.941132 160.0
140.976578 160.0
141.068512 1924.0
141.203537 152.0
141.230774 156.0
141.271072 180.0
141.401184 172.0
141.418854 112.0
141.451981 176.0
141.487503 148.0
141.520645 196.0
141.553802 68.0
141.577484 144.0
141.624847 172.0
141.669861 128.0
141.710129 168.0
141.745667 192.0
141.764633 364.0
141.800186 92.0
141.833359 220.0
141.859436 96.0
141.890671 116.0
141.911591 132.0
141.928192 148.0
141.954285 176.0
142.069565 448.0
142.144058 120.0
142.253235 120.0
142.276978 212.0
142.387314 136.0
142.411346 156.0
142.600037 140.0
142.663177 156.0
142.677887 192.0
142.814026 120.0
142.899658 168.0
142.925842 108.0
142.973434 40.0
143.04007 164.0
143.081955 584.0
143.138763 116.0
143.201996 36.0
143.30014 148.0
143.461731 128.0
143.571121 164.0
143.636932 144.0
143.778976 56.0
143.832855 132.0
143.857742 180.0
143.941299 220.0
143.990768 168.0
144.008179 200.0
144.0242 180.0
144.079926 660.0
144.139572 144.0
144.173019 60.0
144.192139 200.0
144.247116 124.0
144.312149 180.0
144.416901 176.0
144.434921 156.0
144.596344 48.0
144.636002 168.0
144.704056 120.0
144.763931 140.0
144.890869 88.0
144.972351 80.0
145.041855 112.0
145.098572 284.0
145.159332 80.0
145.192902 108.0
145.23848 88.0
145.257889 208.0
145.288849 172.0
145.341858 176.0
145.425629 176.0
145.452042 80.0
145.507248 212.0
145.531265 156.0
145.572083 120.0
145.609314 192.0
145.645782 200.0
145.668152 148.0
145.773865 96.0
145.848373 100.0
145.882034 44.0
145.898865 96.0
145.951752 180.0
146.062454 136.0
146.094666 404.0
146.165833 116.0
146.245255 136.0
146.278961 120.0
146.315063 208.0
146.384903 128.0
146.429749 148.0
146.454742 204.0
146.493286 192.0
146.522186 148.0
146.568741 168.0
146.654724 124.0
146.725601 208.0
146.755981 108.0
146.815399 256.0
146.854858 136.0
146.970657 184.0
147.047882 156.0
147.099197 92.0
147.134781 160.0
147.173416 208.0
147.204803 108.0
147.243439 116.0
147.344894 144.0
147.374222 172.0
147.538239 64.0
147.694199 168.0
147.741882 116.0
147.765762 112.0
147.820908 176.0
147.870316 200.0
148.01973 360.0
148.048798 100.0
148.07785 208.0
148.104507 140.0
148.201401 172.0
148.424408 200.0
148.497162 72.0
148.518997 148.0
148.567505 224.0
148.591766 140.0
148.618454 124.0
148.65094 104.0
148.717041 180.0
148.836914 264.0
148.879593 156.0
148.917053 56.0
148.953491 128.0
149.004517 164.0
149.070114 156.0
149.09198 132.0
149.133301 108.0
149.21109 128.0
149.393585 100.0
149.448334 148.0
149.498123 136.0
149.580872 84.0
149.605225 172.0
149.623703 112.0
149.657196 208.0
149.678268 136.0
149.719498 196.0
149.875565 240.0
149.960861 208.0
149.984573 148.0
150.046875 312.0
150.334015 156.0
150.368179 180.0
150.397461 140.0
150.519531 144.0
150.626999 76.0
150.648987 184.0
150.670425 216.0
150.714951 136.0
150.785812 196.0
150.827377 76.0
150.859146 116.0
150.903152 108.0
150.944733 172.0
150.968903 176.0
151.017242 148.0
151.052673 2284.0
151.162445 128.0
151.205475 136.0
151.267685 36.0
151.350922 120.0
151.38765 132.0
151.425552 188.0
151.45134 64.0
151.524826 216.0
151.556686 176.0
151.619675 176.0
151.669418 160.0
151.698135 152.0
151.720886 160.0
151.769485 200.0
151.791992 212.0
151.834595 120.0
151.876556 160.0
151.899918 308.0
151.936707 152.0
151.961243 96.0
151.990204 160.0
152.028458 348.0
152.061554 49352.0
152.096115 124.0
152.164764 152.0
152.198181 76.0
152.218979 84.0
152.264618 116.0
152.307693 100.0
152.327469 156.0
152.384949 176.0
152.43425 196.0
152.459381 160.0
152.499054 316.0
152.523636 132.0
152.550674 96.0
152.597382 68.0
152.645767 224.0
152.676071 144.0
152.700668 144.0
152.732635 140.0
152.786758 136.0
152.834595 228.0
152.853195 52.0
152.870422 60.0
152.899948 72.0
152.919647 48.0
152.950485 60.0
152.968353 152.0
153.003342 164.0
153.032883 60.0
153.064758 4836.0
153.141647 148.0
153.163406 144.0
153.189896 160.0
153.249634 132.0
153.306305 184.0
153.323563 272.0
153.399963 112.0
153.417221 184.0
153.446808 72.0
153.492294 188.0
153.607178 156.0
153.657089 116.0
153.713211 136.0
153.747757 128.0
153.769958 192.0
153.81131 144.0
153.898331 100.0
153.928833 200.0
153.965622 240.0
154.036331 224.0
154.072723 756.0
154.125961 124.0
154.136749 108.0
154.165924 256.0
154.198822 176.0
154.245483 108.0
154.250565 56.0
154.259872 84.0
154.318375 112.0
154.356766 112.0
154.375961 164.0
154.410721 116.0
154.503876 172.0
154.62265 112.0
154.709274 72.0
154.782608 148.0
154.827911 184.0
154.873474 144.0
154.937119 212.0
155.016418 256.0
155.056915 164.0
155.085114 1008.0
155.161942 172.0
155.182495 44.0
155.21225 148.0
155.243042 184.0
155.304001 176.0
155.370987 32.0
155.388351 140.0
155.429688 140.0
155.495056 136.0
155.611725 168.0
155.653946 56.0
155.685791 200.0
155.708572 228.0
155.909821 120.0
155.927216 200.0
155.957977 180.0
156.004272 144.0
156.056473 108.0
156.082825 400.0
156.170868 40.0
156.203201 128.0
156.221909 204.0
156.245499 104.0
156.29277 168.0
156.310196 180.0
156.393433 128.0
156.437134 52.0
156.531738 72.0
156.549179 156.0
156.58902 196.0
156.610504 192.0
156.636353 220.0
156.723541 176.0
156.778366 216.0
156.815247 176.0
156.831894 216.0
156.863739 80.0
156.893021 196.0
156.931 172.0
157.012711 128.0
157.090103 160.0
157.100845 132.0
157.269699 140.0
157.294662 196.0
157.312134 52.0
157.430237 76.0
157.454468 160.0
157.506912 172.0
157.583832 188.0
157.601852 156.0
157.680832 148.0
157.721817 156.0
157.749313 68.0
157.77681 204.0
157.812363 208.0
157.850433 180.0
157.89183 148.0
158.014404 156.0
158.051941 136.0
158.094696 368.0
158.132019 84.0
158.21463 60.0
158.258209 180.0
158.389923 300.0
158.419983 124.0
158.550278 204.0
158.670593 180.0
158.695877 168.0
158.847 128.0
158.893509 136.0
158.964218 364.0
159.059433 136.0
159.079361 60.0
159.08493 128.0
159.096588 80.0
159.107498 112.0
159.124542 60.0
159.133118 92.0
159.159866 116.0
159.220139 200.0
159.267853 204.0
159.303024 184.0
159.350754 180.0
159.395172 132.0
159.415939 140.0
159.458817 156.0
159.47641 132.0
159.546799 180.0
159.619705 68.0
159.652405 56.0
159.747986 228.0
159.77861 116.0
159.828491 284.0
159.884979 152.0
159.924118 224.0
160.065109 76.0
160.10289 184.0
160.125549 284.0
160.223785 124.0
160.24646 220.0
160.271667 244.0
160.288986 96.0
160.381271 220.0
160.395981 160.0
160.528778 128.0
160.551483 192.0
160.733109 148.0
160.793427 164.0
160.816391 196.0
160.841629 276.0
160.864349 152.0
160.883682 128.0
160.93573 172.0
161.056259 52.0
161.109314 140.0
161.144684 200.0
161.195221 124.0
161.336761 208.0
161.387329 140.0
161.432236 164.0
161.56691 160.0
161.592209 156.0
161.627625 84.0
161.673904 152.0
161.695953 100.0
161.744049 140.0
161.804962 196.0
161.863037 168.0
161.923019 176.0
162.06517 196.0
162.111389 220.0
162.120255 112.0
162.129883 168.0
162.159927 148.0
162.207611 148.0
162.22757 252.0
162.260849 120.0
162.324234 100.0
162.344528 168.0
162.466278 136.0
162.494186 84.0
162.552536 312.0
162.572769 124.0
162.68782 120.0
162.836884 52.0
162.862274 204.0
162.886917 132.0
162.948654 48.0
162.984222 144.0
163.002014 128.0
163.051682 416.0
163.108749 164.0
163.126556 72.0
163.155563 204.0
163.179947 204.0
163.198425 132.0
163.225708 144.0
163.296921 28.0
163.314728 72.0
163.375778 60.0
163.65065 164.0
163.673553 144.0
163.711761 188.0
163.901047 172.0
163.918106 132.0
163.961426 188.0
164.02005 172.0
164.061783 488.0
164.144974 144.0
164.167923 108.0
164.209656 120.0
164.233948 144.0
164.277603 156.0
164.298462 92.0
164.343933 200.0
164.387878 36.0
164.407761 168.0
164.460144 240.0
164.525146 140.0
164.543015 164.0
164.563446 148.0
164.591537 152.0
164.629837 72.0
164.650269 120.0
164.683472 200.0
164.728836 200.0
164.750519 216.0
164.770264 184.0
164.806091 80.0
164.83165 84.0
164.849533 296.0
164.867432 264.0
164.893402 240.0
164.934357 220.0
164.958328 360.0
164.981277 252.0
165.026489 344.0
165.069595 55140.0
165.135742 148.0
165.173279 132.0
165.218506 172.0
165.240753 52.0
165.297577 280.0
165.340561 48.0
165.376556 248.0
165.430145 176.0
165.464218 164.0
165.492996 76.0
165.523163 340.0
165.546219 180.0
165.579941 128.0
165.619629 44.0
165.682404 48.0
165.714417 72.0
165.768234 180.0
165.787399 108.0
165.881989 52.0
165.898956 116.0
165.922028 132.0
165.960449 192.0
165.990982 148.0
166.012451 180.0
166.075699 23864.0
166.130447 104.0
166.218918 176.0
166.301392 36.0
166.324783 172.0
166.356323 196.0
166.379501 128.0
166.409851 180.0
166.462112 156.0
166.490768 148.0
166.512894 152.0
166.543045 104.0
166.563141 112.0
166.603638 424.0
166.627304 80.0
166.656082 152.0
166.676086 148.0
166.701187 288.0
166.741699 168.0
166.796036 256.0
166.830109 176.0
166.838562 264.0
166.848724 176.0
166.865448 428.0
166.88356 96.0
166.926758 408.0
166.95401 384.0
166.974762 548.0
166.995575 548.0
167.031158 584.0
167.054535 920.0
167.085495 248820.0
167.150604 180.0
167.197388 76.0
167.212524 244.0
167.240494 268.0
167.257217 172.0
167.263626 160.0
167.305298 176.0
167.327332 356.0
167.343674 500.0
167.374359 296.0
167.403183 240.0
167.421906 160.0
167.431305 112.0
167.438538 100.0
167.476807 300.0
167.509567 3340.0
167.53981 256.0
167.588501 184.0
167.627548 224.0
167.695114 92.0
167.718674 156.0
167.744934 180.0
167.775665 84.0
167.829727 140.0
167.840668 292.0
167.85672 156.0
167.878693 92.0
167.90126 264.0
167.946716 84.0
167.984299 116.0
168.088425 48824.0
168.144775 292.0
168.174301 104.0
168.181747 136.0
168.224548 128.0
168.24649 104.0
168.297653 164.0
168.334915 148.0
168.361008 316.0
168.38858 76.0
168.414886 84.0
168.469238 156.0
168.486389 92.0
168.522217 72.0
168.558533 80.0
168.567657 76.0
168.579102 104.0
168.611923 124.0
168.632675 56.0
168.67868 60.0
168.704605 76.0
168.727356 52.0
168.781143 56.0
168.818695 52.0
168.852814 120.0
168.88504 40.0
168.895355 68.0
168.937515 184.0
168.958359 76.0
168.986313 48.0
169.023621 288.0
169.06369 1596.0
169.092697 2724.0
169.143967 52.0
169.179977 264.0
169.233246 152.0
169.271027 316.0
169.292908 116.0
169.301468 64.0
169.341354 240.0
169.366745 220.0
169.388 132.0
169.40567 192.0
169.438354 184.0
169.45845 76.0
169.481705 108.0
169.502243 136.0
169.525558 128.0
169.586166 136.0
169.597931 104.0
169.605331 128.0
169.64592 172.0
169.680664 100.0
169.709213 80.0
169.728226 176.0
169.799774 52.0
169.831497 84.0
169.878189 104.0
169.896347 108.0
169.963638 64.0
169.971069 60.0
169.995743 104.0
170.012115 84.0
170.036469 128.0
170.074799 204.0
170.096756 936.0
170.137695 76.0
170.200012 80.0
170.238968 140.0
170.296097 108.0
170.3293 108.0
170.393356 88.0
170.420883 132.0
170.480972 76.0
170.509155 44.0
170.532547 72.0
170.609482 100.0
170.644333 52.0
170.730133 68.0
171.065796 176.0
171.100494 432.0
171.138687 196.0
171.165253 160.0
171.248062 120.0
171.31839 44.0
171.422623 84.0
171.516449 36.0
171.59726 28.0
171.687378 192.0
171.779816 76.0
171.834412 148.0
171.881577 40.0
172.044296 184.0
172.054977 64.0
172.065765 148.0
172.109741 1140.0
172.145218 60.0
172.299332 32.0
172.335907 120.0
172.411697 224.0
172.429993 68.0
172.565918 140.0
172.731888 52.0
172.86673 168.0
172.905991 124.0
173.112686 92.0
173.24115 204.0
173.280441 112.0
173.364304 100.0
173.416718 164.0
173.482254 72.0
173.516327 56.0
173.644821 80.0
173.75499 60.0
173.967575 176.0
174.126175 504.0
174.222305 116.0
174.309021 128.0
174.347122 96.0
174.419403 180.0
174.498276 120.0
174.603455 140.0
174.732346 80.0
174.940262 76.0
174.998184 108.0
175.1306 112.0
175.198349 40.0
175.337997 92.0
175.471405 100.0
175.551544 176.0
175.57048 268.0
175.596375 120.0
175.614838 36.0
175.69133 156.0
176.212143 136.0
176.259003 112.0
176.327713 88.0
176.539215 108.0
176.595764 116.0
176.633102 88.0
176.661453 56.0
176.846115 104.0
176.918579 256.0
176.952011 72.0
177.047333 136.0
177.076675 52.0
177.13739 184.0
177.185074 188.0
177.214813 124.0
177.259262 128.0
177.285767 152.0
177.305557 136.0
177.38118 104.0
177.428894 44.0
177.505798 208.0
177.561493 108.0
177.664932 44.0
178.076279 780.0
178.134827 64.0
178.299561 116.0
178.374802 128.0
178.459625 112.0
178.538834 112.0
178.570755 88.0
178.721954 172.0
178.748993 68.0
178.914017 124.0
179.010605 176.0
179.059479 472.0
179.081879 892.0
179.131439 80.0
179.169693 76.0
179.238968 144.0
179.270935 72.0
179.366882 80.0
179.388657 120.0
179.433533 76.0
179.564194 184.0
179.601547 80.0
179.79097 128.0
179.847031 52.0
180.062119 604.0
180.088943 552.0
180.175491 48.0
180.21022 148.0
180.271851 64.0
180.306427 76.0
180.327072 116.0
180.346512 116.0
180.577316 188.0
180.818756 192.0
180.91362 44.0
180.963333 148.0
181.065521 164.0
181.100327 7476.0
181.16803 60.0
181.29129 124.0
181.409225 92.0
181.535233 64.0
181.554016 188.0
181.782043 120.0
181.822296 168.0
181.859863 40.0
181.943085 108.0
181.975296 116.0
182.103104 756.0
182.165985 144.0
182.22963 180.0
182.278824 128.0
182.380951 64.0
182.453537 36.0
182.614883 60.0
182.682129 216.0
182.757462 60.0
182.870483 120.0
182.910858 88.0
183.002396 52.0
183.058197 164.0
183.105118 300.0
183.244141 176.0
183.343628 100.0
183.646484 60.0
183.696335 116.0
183.751678 48.0
183.81221 120.0
183.921707 124.0
183.96489 88.0
183.999985 144.0
184.108826 712.0
184.340332 88.0
184.553879 120.0
184.891647 120.0
184.921783 172.0
185.119934 1040.0
185.149216 156.0
185.284653 196.0
185.31987 156.0
185.357803 192.0
185.463501 32.0
185.54715 112.0
185.593628 92.0
185.748215 72.0
185.865784 156.0
186.031479 140.0
186.124908 260.0
186.158051 84.0
186.185211 88.0
186.689713 88.0
186.7995 176.0
186.875671 104.0
187.132477 448.0
187.322159 48.0
187.373917 68.0
187.477463 64.0
187.881027 176.0
188.137283 492.0
188.167023 124.0
188.325974 216.0
188.364212 144.0
188.588287 80.0
188.637482 40.0
188.92189 136.0
188.973877 168.0
189.078354 132.0
189.143738 548.0
189.329727 176.0
189.403687 204.0
189.48587 248.0
189.507797 176.0
189.526978 148.0
189.568069 48.0
189.718826 252.0
189.949173 48.0
189.976608 76.0
190.039719 160.0
190.076477 496.0
190.119293 212.0
190.297714 48.0
190.366364 172.0
190.547653 120.0
190.778519 136.0
190.819748 188.0
191.084137 2336.0
191.155334 32.0
191.235138 152.0
191.298447 204.0
191.323227 176.0
191.381042 152.0
191.447144 36.0
191.513229 60.0
191.628937 164.0
191.904556 76.0
192.089874 308.0
192.299057 160.0
192.765778 140.0
192.84317 112.0
192.937149 124.0
193.099121 1740.0
193.280121 68.0
193.316101 44.0
193.376984 64.0
193.440643 52.0
193.57077 64.0
193.698181 132.0
193.756348 92.0
193.77887 160.0
193.942017 100.0
194.041824 152.0
194.0979 676.0
194.146957 184.0
194.18602 32.0
194.235947 160.0
194.266464 108.0
194.427399 120.0
194.460693 120.0
194.502335 92.0
194.657806 112.0
194.805023 80.0
194.855026 120.0
195.100464 596.0
195.12941 232.0
195.369354 200.0
195.472305 172.0
196.03923 200.0
196.106766 740.0
196.165817 124.0
196.210434 48.0
196.22995 132.0
196.259781 108.0
196.464218 108.0
196.575119 212.0
196.603729 40.0
196.768417 116.0
196.810303 148.0
197.120361 140.0
197.195816 100.0
197.220978 180.0
197.363556 88.0
197.492203 96.0
197.752411 96.0
197.802795 40.0
197.945587 76.0
198.126648 1656.0
198.225723 128.0
198.632248 80.0
198.663116 40.0
198.779266 80.0
198.811829 140.0
198.86795 168.0
198.887604 128.0
198.932526 168.0
199.050446 132.0
199.132385 420.0
199.202103 116.0
199.224579 200.0
199.410034 88.0
199.57872 124.0
199.620895 120.0
199.696823 140.0
199.736206 112.0
199.972565 132.0
200.12912 144.0
200.287918 124.0
200.40625 144.0
200.602081 180.0
200.744507 116.0
200.989914 28.0
201.145142 108.0
201.277847 128.0
201.306076 128.0
201.6875 136.0
201.746857 72.0
201.99855 120.0
202.080475 332.0
202.134354 64.0
202.377777 148.0
202.805557 64.0
203.052231 180.0
203.082748 188.0
203.182724 48.0
203.230957 48.0
203.316086 52.0
203.568741 88.0
203.753372 168.0
204.011993 148.0
204.089325 540.0
204.121658 420.0
204.302078 80.0
204.330521 68.0
204.424423 96.0
204.509232 160.0
204.575272 136.0
204.692017 140.0
204.820175 264.0
204.917038 152.0
204.965469 136.0
205.100616 1128.0
205.343124 136.0
205.678467 188.0
205.992584 68.0
206.096069 396.0
206.125641 140.0
206.16687 72.0
206.192596 120.0
206.278336 88.0
206.541428 60.0
206.71022 72.0
207.007935 216.0
207.114487 504.0
207.211304 80.0
207.945419 108.0
208.025787 112.0
208.048752 148.0
208.111221 2600.0
208.327316 116.0
208.422134 96.0
208.634552 84.0
208.694366 248.0
208.729706 60.0
208.810226 80.0
209.072037 132.0
209.11554 920.0
209.524109 40.0
209.555801 188.0
209.601913 52.0
209.66243 116.0
209.711426 80.0
209.731598 68.0
209.760422 180.0
210.122849 440.0
210.224792 156.0
210.331573 136.0
210.499039 76.0
210.715668 36.0
210.86235 252.0
210.891953 52.0
210.961319 172.0
210.984451 132.0
211.424118 88.0
211.48201 248.0
211.57753 108.0
211.641235 108.0
211.817902 116.0
211.965652 112.0
211.994629 144.0
212.136658 124.0
212.246826 144.0
212.44986 124.0
212.8591 80.0
212.914276 140.0
213.03212 116.0
213.140869 128.0
213.236771 100.0
213.323975 144.0
213.440277 160.0
213.51297 92.0
213.862122 128.0
213.882492 40.0
213.931015 204.0
214.103775 156.0
214.182419 56.0
214.208633 168.0
214.237762 220.0
214.258163 148.0
214.616653 96.0
214.826645 84.0
215.080917 380.0
215.153534 456.0
215.226486 88.0
215.334549 140.0
215.401733 156.0
215.524429 180.0
215.662766 216.0
215.723801 132.0
215.886917 124.0
215.93663 120.0
215.986359 120.0
216.035446 164.0
216.095978 596.0
216.13179 180.0
216.154633 140.0
216.396896 128.0
216.480988 144.0
216.507996 88.0
216.530777 236.0
216.577637 120.0
216.699234 156.0
216.742828 176.0
216.783554 184.0
216.847931 156.0
216.885376 144.0
216.950912 69972.0
217.008896 176.0
217.033417 184.0
217.101028 800.0
217.129944 148.0
217.154266 124.0
217.171707 64.0
217.215393 280.0
217.263855 44.0
217.302551 116.0
217.354935 92.0
217.433777 312.0
217.502548 112.0
217.553146 60.0
217.586426 60.0
217.609909 64.0
217.648087 60.0
217.710037 40.0
217.731735 148.0
217.806671 140.0
217.83017 64.0
217.883575 68.0
217.906555 48.0
217.953033 5584.0
217.994705 124.0
218.027039 28.0
218.106033 484.0
218.256332 52.0
218.336105 92.0
218.432785 84.0
218.525101 64.0
218.612274 164.0
218.679962 152.0
218.846878 120.0
218.894867 148.0
218.95549 332.0
218.995667 36.0
219.033295 128.0
219.053925 104.0
219.118866 664.0
219.147537 72.0
219.200485 172.0
219.238556 72.0
219.289642 92.0
219.3228 96.0
219.345657 88.0
219.386017 208.0
219.43515 80.0
219.522552 92.0
219.554703 124.0
219.567429 180.0
219.616928 104.0
219.637802 108.0
219.708374 200.0
219.750488 148.0
219.932648 40.0
220.06926 88.0
220.116165 404.0
220.210205 156.0
220.281097 120.0
220.322449 104.0
220.396317 104.0
220.514526 104.0
220.620941 88.0
220.70372 104.0
220.727386 32.0
220.807236 108.0
220.898926 128.0
221.116135 652.0
221.231796 216.0
221.262924 116.0
221.286621 100.0
221.577164 200.0
221.600571 96.0
221.819885 124.0
221.917709 144.0
221.938477 112.0
222.046951 124.0
222.122192 324.0
222.288498 52.0
222.374557 116.0
222.692261 192.0
222.959656 36.0
223.133408 176.0
223.200455 56.0
223.2603 220.0
223.593124 112.0
223.78067 140.0
223.902756 48.0
224.137329 308.0
224.519684 128.0
224.683746 172.0
224.898605 92.0
225.146408 120.0
225.262894 128.0
225.433212 120.0
225.472061 148.0
225.573685 84.0
225.669357 116.0
226.07019 72.0
226.20787 96.0
226.546265 128.0
226.705063 124.0
226.809967 92.0
226.839951 168.0
227.139816 76.0
227.225449 132.0
227.63504 52.0
227.860306 152.0
228.068436 140.0
228.410812 68.0
228.569916 44.0
228.606018 132.0
228.66922 100.0
229.096512 160.0
229.401184 140.0
229.425308 208.0
229.455444 120.0
229.672577 36.0
229.820404 68.0
229.98941 116.0
230.098434 168.0
230.134308 100.0
230.185654 80.0
230.21283 56.0
230.388016 136.0
230.898849 88.0
231.031952 100.0
231.11702 824.0
231.156006 144.0
231.928299 132.0
231.960266 552.0
231.991959 112.0
232.125824 272.0
232.474228 100.0
232.516724 96.0
232.559204 132.0
232.693771 160.0
232.972183 132.0
233.029907 124.0
233.107544 136.0
233.129623 800.0
233.974045 268.0
234.125519 396.0
234.643021 48.0
234.755829 40.0
234.886978 84.0
235.002914 132.0
235.137192 304.0
235.250122 152.0
235.2715 140.0
235.521896 152.0
235.75029 64.0
235.955841 40.0
236.142761 548.0
236.810059 140.0
236.995316 136.0
237.141449 172.0
237.444061 176.0
237.496201 68.0
237.520737 180.0
237.621979 132.0
237.907394 176.0
237.950378 92.0
237.981079 252.0
238.90004 184.0
239.429459 40.0
240.125992 168.0
240.16301 64.0
240.502274 168.0
241.191238 92.0
241.308716 132.0
241.53447 180.0
241.590149 204.0
241.670593 156.0
241.781998 44.0
242.113266 96.0
243.043259 120.0
243.106384 104.0
243.241882 124.0
243.369171 108.0
243.49649 72.0
243.844467 136.0
244.121155 164.0
244.310898 108.0
244.34201 120.0
244.469589 148.0
244.693695 160.0
244.724838 104.0
244.908569 140.0
244.995377 208.0
245.070572 36.0
245.134171 428.0
245.347961 64.0
245.834549 128.0
245.8564 76.0
245.973907 1304.0
246.003098 164.0
246.096756 44.0
246.13649 292.0
246.324738 44.0
246.590332 120.0
246.702866 240.0
246.969284 164.0
247.132645 416.0
247.34729 104.0
247.431808 100.0
247.525742 204.0
247.563324 212.0
247.61969 60.0
247.997192 156.0
248.141571 932.0
248.274719 128.0
249.148743 196.0
249.285583 140.0
249.511902 64.0
249.63768 172.0
249.892456 60.0
250.062393 168.0
250.153534 364.0
250.241837 168.0
250.566238 52.0
250.887695 96.0
251.169983 152.0
251.376587 124.0
251.40184 160.0
251.468109 152.0
251.518616 72.0
251.768051 144.0
251.919662 144.0
252.537094 184.0
252.57402 124.0
253.131042 176.0
253.993103 28.0
254.107315 128.0
254.945618 164.0
254.996475 80.0
255.044144 76.0
255.149048 116.0
255.317581 116.0
256.126007 132.0
256.377716 120.0
256.556213 128.0
256.734772 116.0
257.076141 116.0
257.328308 112.0
257.746735 160.0
257.848999 80.0
257.986542 124.0
258.360626 108.0
258.450195 48.0
258.81189 124.0
259.090546 144.0
259.154144 256.0
259.244354 144.0
259.404602 32.0
259.49118 72.0
259.766968 60.0
259.991455 528.0
260.03653 48.0
260.113556 96.0
260.202179 232.0
260.415375 136.0
260.736664 68.0
260.836304 116.0
260.894165 152.0
260.990051 156.0
261.154633 132.0
261.486053 72.0
261.531097 112.0
261.949707 56.0
262.156555 220.0
263.734161 120.0
263.837616 156.0
264.166718 188.0
264.32486 148.0
264.364838 52.0
264.659424 92.0
265.012482 64.0
265.469513 124.0
266.267883 176.0
266.88858 188.0
267.021912 148.0
267.82785 212.0
268.350525 120.0
268.862671 184.0
268.99649 136.0
269.277313 116.0
269.401428 184.0
269.577881 128.0
269.688995 108.0
269.718414 160.0
269.940735 124.0
269.963623 116.0
270.08136 224.0
270.392212 32.0
270.487122 56.0
270.598419 212.0
270.686829 196.0
270.775269 92.0
270.998016 76.0
271.030792 128.0
271.178253 164.0
271.460205 116.0
271.929352 92.0
271.976807 172.0
272.001556 80.0
272.083649 140.0
272.169006 104.0
272.343048 188.0
272.845856 108.0
272.905029 44.0
272.987244 68.0
273.105621 112.0
273.250366 88.0
273.358948 184.0
273.437958 84.0
273.503784 56.0
273.833038 164.0
274.157104 576.0
274.261383 64.0
274.445801 72.0
274.545807 116.0
274.739532 124.0
275.011505 120.0
275.092651 120.0
275.165985 280.0
275.198303 80.0
275.247833 164.0
275.558319 164.0
275.588043 76.0
275.650818 88.0
275.700409 64.0
275.786316 100.0
275.948303 60.0
276.073975 128.0
276.108765 176.0
276.173096 9392.0
276.292267 56.0
276.31543 116.0
276.341919 56.0
276.398163 40.0
276.447784 48.0
276.484192 44.0
276.587067 96.0
276.619904 72.0
276.662933 132.0
276.775513 52.0
276.845062 56.0
276.878174 52.0
276.959351 80.0
277.06366 68.0
277.178223 2412.0
277.282379 100.0
277.345337 56.0
277.577423 168.0
277.653687 68.0
277.741272 168.0
278.088318 100.0
278.126465 140.0
278.186859 676.0
278.37384 68.0
278.438354 132.0
278.539917 56.0
278.658569 112.0
278.752533 136.0
278.875519 84.0
278.934601 140.0
278.961945 84.0
279.065002 100.0
279.108215 120.0
279.158112 116.0
279.183868 144.0
279.311096 84.0
279.337708 80.0
279.557312 32.0
279.593933 52.0
279.677124 60.0
279.803619 116.0
280.060059 40.0
280.139008 132.0
280.189972 120.0
280.213287 44.0
280.263275 172.0
281.794769 68.0
281.948486 136.0
282.032043 108.0
282.125641 84.0
282.450012 68.0
283.300293 108.0
283.752747 180.0
283.856689 108.0
283.991669 412.0
284.44046 152.0
284.893799 152.0
285.102142 124.0
285.145813 108.0
286.006165 2128.0
286.158386 168.0
286.441254 100.0
286.552429 312.0
286.744507 96.0
287.008911 392.0
287.165985 56.0
287.206451 104.0
287.297516 128.0
287.445984 60.0
287.510101 196.0
287.807159 128.0
288.394989 144.0
288.885315 128.0
289.211212 180.0
289.487793 120.0
289.592773 140.0
289.907867 184.0
289.975647 164.0
290.342194 172.0
290.368927 92.0
291.180084 48.0
291.268402 60.0
291.48584 40.0
291.805359 40.0
292.029816 252.0
292.206696 156.0
292.529694 172.0
292.621918 28.0
292.659424 172.0
292.686615 60.0
292.747925 64.0
293.013611 208.0
293.040863 128.0
293.190796 124.0
293.589661 144.0
293.790924 92.0
294.179962 164.0
294.374573 156.0
294.617096 116.0
294.825531 52.0
295.325623 148.0
295.376007 96.0
295.954376 140.0
296.001526 268.0
296.146179 72.0
296.991608 176.0
297.126587 68.0
297.397675 116.0
297.57962 116.0
298.008087 1536.0
298.125793 36.0
298.61319 156.0
298.8479 136.0
299.013641 400.0
299.109467 60.0
299.398682 204.0
299.440033 120.0
300.024994 320.0
300.108551 184.0
300.180969 136.0
300.418976 160.0
300.522461 108.0
300.57077 92.0
300.856415 164.0
301.005707 96.0
301.033356 40.0
301.105865 152.0
301.174957 52.0
301.41333 112.0
301.686371 112.0
301.890381 80.0
302.046021 176.0
302.146332 96.0
302.485291 144.0
303.178223 176.0
303.403534 168.0
303.469391 80.0
303.764191 88.0
304.062592 80.0
304.525116 184.0
305.671631 72.0
305.7099 104.0
305.741211 132.0
306.149109 100.0
306.191437 184.0
306.988403 104.0
307.222107 140.0
307.302368 128.0
307.473358 76.0
308.126343 52.0
308.171753 132.0
308.262604 112.0
308.308044 104.0
308.341736 136.0
308.493286 112.0
309.056366 48.0
309.119354 112.0
309.770599 120.0
309.854675 100.0
310.004974 544.0
310.043884 56.0
310.440033 96.0
310.534729 40.0
310.576813 152.0
310.66452 96.0
310.825928 252.0
311.001404 120.0
311.219055 76.0
311.254181 148.0
311.309998 156.0
311.394653 172.0
311.638794 136.0
311.714355 88.0
311.76004 148.0
311.812744 104.0
311.84436 128.0
312.021606 10016.0
312.138672 124.0
312.174866 48.0
312.226074 64.0
312.252228 84.0
312.342651 68.0
312.402802 104.0
312.579407 48.0
312.670898 140.0
312.742645 188.0
312.815216 36.0
312.871552 172.0
312.910278 144.0
312.966614 68.0
313.024719 1996.0
313.084961 124.0
313.274048 164.0
313.296204 116.0
313.329376 72.0
313.484406 32.0
313.586609 108.0
314.006195 140.0
314.03656 248.0
314.182556 60.0
314.341339 124.0
314.408386 124.0
314.789673 148.0
314.971649 68.0
315.033356 128.0
315.125214 132.0
315.167633 128.0
315.213562 84.0
315.35141 96.0
315.407959 112.0
315.436218 128.0
315.559967 152.0
315.591797 52.0
316.065765 208.0
316.168396 136.0
316.232086 52.0
316.355988 36.0
316.469299 112.0
316.625092 152.0
317.213287 60.0
317.589142 180.0
318.000732 32.0
318.206635 44.0
318.241028 128.0
318.359314 116.0
318.689667 60.0
318.902893 112.0
319.1091 92.0
319.158875 112.0
319.201538 100.0
319.350922 128.0
319.831268 160.0
320.372528 128.0
320.458038 160.0
320.589905 52.0
320.643341 108.0
320.93924 108.0
321.135376 112.0
321.313721 156.0
321.37796 132.0
321.417206 180.0
321.467163 120.0
321.613495 136.0
321.674194 80.0
321.724152 108.0
321.881256 184.0
321.915283 228.0
322.007263 21316.0
322.064606 176.0
322.154205 96.0
322.209869 60.0
322.332855 160.0
322.374237 48.0
322.444122 108.0
322.513489 108.0
322.667328 144.0
322.7005 132.0
322.824677 80.0
322.923004 56.0
323.008331 3944.0
323.096497 48.0
323.304047 236.0
323.457947 56.0
323.508057 164.0
323.551025 140.0
323.633392 108.0
323.711121 112.0
323.747955 36.0
324.020935 392.0
324.088287 152.0
324.213684 44.0
324.278198 48.0
324.349884 60.0
324.4216 100.0
324.55426 88.0
324.59729 116.0
324.629547 32.0
324.690521 160.0
324.801697 32.0
324.873444 48.0
324.927277 44.0
325.026978 796.0
325.243073 100.0
325.307678 136.0
325.386658 88.0
325.530304 48.0
325.576965 80.0
325.627258 140.0
325.681152 112.0
325.727844 72.0
325.921844 88.0
325.97934 72.0
326.042999 156.0
326.119507 48.0
326.194122 180.0
326.42868 76.0
326.53656 60.0
326.791992 44.0
326.932312 72.0
327.030853 96.0
327.187897 296.0
327.645264 60.0
327.738953 68.0
327.897522 64.0
327.998444 128.0
328.506897 56.0
328.635803 164.0
328.748657 128.0
328.809998 92.0
328.874969 144.0
328.997711 148.0
329.048737 5496.0
329.127686 128.0
329.185455 100.0
329.34436 40.0
329.468933 64.0
329.698456 60.0
329.73819 56.0
329.871948 80.0
330.054504 1096.0
330.179291 40.0
330.378235 112.0
330.86319 168.0
331.015259 48.0
331.210815 40.0
331.333984 72.0
331.64563 84.0
331.69278 124.0
331.921173 88.0
332.004578 92.0
332.029968 96.0
332.156921 96.0
332.352814 104.0
333.39502 224.0
333.464081 52.0
333.489532 136.0
333.776733 168.0
334.275085 96.0
334.697357 48.0
334.861237 204.0
335.020996 312.0
335.087067 96.0
335.553589 64.0
335.61557 152.0
335.951111 176.0
336.018097 112.0
337.093964 68.0
337.569183 108.0
337.945953 28.0
338.041077 108.0
338.090851 96.0
338.670807 52.0
338.952911 48.0
339.215881 160.0
339.86795 212.0
339.976044 52.0
340.060455 148.0
340.699402 72.0
340.846344 196.0
340.993347 88.0
341.050568 248.0
341.162445 120.0
341.254364 180.0
341.441895 72.0
341.486023 92.0
341.945953 132.0
342.036499 160.0
342.047485 96.0
342.065216 120.0
343.11734 76.0
343.460327 40.0
343.663208 52.0
344.02121 176.0
344.611511 116.0
345.011292 144.0
345.451385 136.0
345.480988 96.0
345.547577 108.0
345.828827 48.0
346.632477 92.0
346.751068 136.0
346.851135 104.0
347.006836 52.0
347.793304 188.0
348.032562 152.0
348.72934 84.0
349.292908 148.0
349.506592 84.0
349.856445 32.0
349.923462 120.0
350.009094 84.0
350.035156 160.0
350.210205 220.0
350.325684 128.0
352.019043 76.0
352.373871 72.0
352.527069 92.0
352.766296 120.0
352.968201 100.0
353.091614 32.0
353.143951 104.0
353.252441 72.0
353.68277 40.0
353.873688 184.0
354.053436 96.0
354.248199 168.0
354.746613 172.0
355.252899 256.0
355.301666 100.0
355.436737 92.0
356.041138 108.0
356.322845 144.0
356.431824 88.0
356.751282 56.0
357.563782 76.0
357.793396 120.0
358.878479 116.0
359.263184 64.0
359.720154 216.0
359.874603 176.0
359.995453 60.0
360.6604 112.0
361.042267 116.0
361.549225 60.0
361.579498 80.0
361.628693 92.0
361.670319 132.0
361.799042 92.0
361.874756 152.0
362.037994 392.0
362.446716 124.0
362.753693 60.0
363.049438 176.0
363.277039 72.0
363.303589 72.0
363.398438 188.0
363.721008 84.0
364.036133 148.0
364.332397 112.0
364.499603 72.0
364.685822 176.0
365.807953 156.0
366.314423 68.0
366.382996 56.0
367.74054 132.0
368.397308 112.0
369.027924 80.0
369.471588 112.0
369.938477 152.0
370.214142 172.0
370.363525 28.0
370.926819 84.0
371.014984 64.0
371.505859 152.0
371.713043 152.0
372.016266 132.0
372.112244 160.0
372.43866 108.0
372.649963 188.0
373.580353 76.0
373.618835 180.0
374.034454 116.0
374.223083 152.0
374.284698 96.0
375.514038 120.0
375.730072 156.0
375.938446 84.0
376.254944 176.0
376.884521 40.0
377.773743 200.0
377.862732 176.0
377.901428 136.0
378.598206 112.0
378.842224 196.0
379.396393 80.0
379.702728 200.0
380.273071 128.0
380.342926 44.0
381.03418 124.0
381.115784 60.0
382.115051 108.0
382.18811 72.0
382.309601 100.0
382.371857 200.0
382.624878 44.0
383.023499 404.0
383.084442 52.0
383.248077 40.0
383.27536 48.0
383.419525 84.0
383.446808 104.0
384.027252 324.0
384.488159 56.0
385.57666 124.0
385.698944 92.0
385.734131 28.0
386.305084 200.0
386.410706 180.0
386.442017 100.0
386.618103 84.0
387.397278 188.0
387.532104 156.0
388.746063 100.0
388.777466 100.0
388.914825 68.0
389.111115 100.0
389.519562 96.0
389.700256 116.0
390.038239 152.0
390.69104 136.0
391.407379 128.0
392.999817 116.0
393.370819 96.0
393.409485 156.0
393.662994 136.0
393.828857 192.0
394.397858 140.0
394.429474 340.0
394.48877 68.0
394.611328 96.0
394.765533 44.0
395.169006 152.0
395.299591 148.0
395.453949 48.0
395.655823 172.0
396.927704 144.0
397.145813 136.0
397.522736 112.0
397.760864 112.0
397.820404 128.0
397.97525 116.0
398.034821 228.0
398.18573 116.0
400.059052 264.0
400.146149 144.0
400.831268 108.0
401.241821 144.0
401.552856 72.0
401.951782 128.0
402.398834 104.0
402.950012 156.0
403.201752 40.0
404.76593 148.0
406.014435 96.0
406.136597 88.0
406.654205 124.0
407.618042 128.0
408.200928 176.0
408.61142 156.0
409.033752 228.0
409.730469 48.0
409.839233 116.0
409.972229 128.0
410.072968 188.0
410.359192 112.0
410.43985 192.0
411.70697 132.0
411.761322 148.0
412.055298 1780.0
412.409973 36.0
413.05014 912.0
413.117615 124.0
413.384674 160.0
413.578918 112.0
414.065826 260.0
414.291626 116.0
414.798187 72.0
415.333435 96.0
415.378052 176.0
415.710754 60.0
416.201935 108.0
416.453735 104.0
417.469788 168.0
417.547058 80.0
417.669098 100.0
417.766724 180.0
417.799255 80.0
417.953888 92.0
418.169556 108.0
418.348663 68.0
418.935089 48.0
419.098053 132.0
419.395569 176.0
419.97049 120.0
420.048004 132.0
420.076538 40.0
421.701721 320.0
421.971497 148.0
422.004211 76.0
422.986084 28.0
423.248108 128.0
425.137909 160.0
425.889252 48.0
426.071136 364.0
427.075226 232.0
427.204651 184.0
427.554413 108.0
428.06488 140.0
428.312012 132.0
428.382019 60.0
428.452057 60.0
428.728149 192.0
429.202209 132.0
429.235199 52.0
429.678497 120.0
429.767303 80.0
430.386444 140.0
430.679688 144.0
430.712708 64.0
430.964722 84.0
431.094971 116.0
431.452423 76.0
431.621948 160.0
432.046936 144.0
432.101746 104.0
432.242432 168.0
432.714294 92.0
433.227844 136.0
434.26001 120.0
434.334656 104.0
434.513062 136.0
434.894836 176.0
435.264313 64.0
435.588287 168.0
437.159912 32.0
437.226501 112.0
437.680267 164.0
438.609314 92.0
438.834442 92.0
439.063782 112.0
439.280701 240.0
439.397491 180.0
439.981781 112.0
440.02771 96.0
440.566467 68.0
441.414948 56.0
442.029877 108.0
442.87558 112.0
442.925842 144.0
443.135315 184.0
443.457977 124.0
444.049164 116.0
445.518341 88.0
445.673798 152.0
445.804077 160.0
446.047852 60.0
446.14032 212.0
446.346344 164.0
446.49353 116.0
446.783783 144.0
446.846893 116.0
446.888947 168.0
447.490845 60.0
447.562408 164.0
448.211121 112.0
449.020508 136.0
449.092224 108.0
449.260956 116.0
450.261353 76.0
450.586609 84.0
451.389709 128.0
452.18927 60.0
452.218903 80.0
452.862488 72.0
453.214111 128.0
453.599762 176.0
453.7948 60.0
454.087402 180.0
455.250244 168.0
455.347931 76.0
455.530579 132.0
456.41037 128.0
457.290985 136.0
457.350555 84.0
457.9552 96.0
458.023346 60.0
458.355652 196.0
458.706909 184.0
459.29361 120.0
459.511169 96.0
459.613586 184.0
460.510101 76.0
460.800568 144.0
460.911682 56.0
461.629822 40.0
461.809448 120.0
461.903564 168.0
462.28006 76.0
462.459808 96.0
462.669586 172.0
462.712372 136.0
463.166321 144.0
463.389099 100.0
463.444794 104.0
463.547638 160.0
463.903381 44.0
464.082733 472.0
464.559509 80.0
464.610992 148.0
464.834106 80.0
465.095917 144.0
465.778656 124.0
465.903229 120.0
466.101166 120.0
466.418915 184.0
466.70697 100.0
466.840271 192.0
467.300537 116.0
467.524292 84.0
468.372467 80.0
468.6008 80.0
468.777466 104.0
468.928314 140.0
469.169708 116.0
470.718689 68.0
470.761871 172.0
470.934631 196.0
471.098785 136.0
471.427155 172.0
471.816193 176.0
472.036682 80.0
472.218323 108.0
472.560089 80.0
472.698547 84.0
472.938507 108.0
473.391174 136.0
473.438812 120.0
473.629395 144.0
474.366058 92.0
474.647552 56.0
474.795319 168.0
475.012177 76.0
475.237274 168.0
475.541565 96.0
476.105957 104.0
476.431732 108.0
476.692444 180.0
476.90976 204.0
477.09668 120.0
477.127106 104.0
477.279266 112.0
477.631561 40.0
477.666351 124.0
478.086914 184.0
478.723999 100.0
479.133453 104.0
480.111176 224.0
480.149078 104.0
480.179626 184.0
481.384155 64.0
481.55011 120.0
483.469421 72.0
483.626984 68.0
484.016632 32.0
484.476501 108.0
484.5336 140.0
484.73941 68.0
484.800751 116.0
485.84433 108.0
487.064728 156.0
487.104248 152.0
487.635925 68.0
487.675476 104.0
487.917267 92.0
488.317413 128.0
488.387787 152.0
488.81015 32.0
489.140228 36.0
489.369171 92.0
489.545319 180.0
490.757111 228.0
491.489288 216.0
492.115936 432.0
492.531219 64.0
492.650482 88.0
493.109375 356.0
493.124878 340.0
493.189606 128.0
493.260315 40.0
493.66037 116.0
493.786499 172.0
494.107574 144.0
494.175781 120.0
494.866272 108.0
494.950378 64.0
495.083221 128.0
495.127533 100.0
495.672424 80.0
496.361877 92.0
496.860718 68.0
496.94104 184.0
497.615204 152.0
497.832794 52.0
499.891052 32.0
500.1492 160.0
500.532074 92.0
500.634491 160.0
501.628113 164.0
501.6745 128.0
501.895599 132.0
502.377289 144.0
502.430817 116.0
502.676239 80.0
502.966339 56.0
503.051147 140.0
503.386017 120.0
503.805878 136.0
503.966705 52.0
504.176727 108.0
504.279541 124.0
504.413635 188.0
504.740021 32.0
504.898529 108.0
505.151489 120.0
505.214111 96.0
505.80481 80.0
505.845093 76.0
505.912262 92.0
505.952545 116.0
506.06366 112.0
506.257019 88.0
506.308838 148.0
506.322083 84.0
506.351624 132.0
506.495605 104.0
506.561462 148.0
506.72287 80.0
506.821625 112.0
506.893158 192.0
507.029419 156.0
507.135162 72.0
507.22226 140.0
507.323425 112.0
507.368256 60.0
507.404114 72.0
507.460541 96.0
507.520691 32.0
507.55658 68.0
507.610382 112.0
507.652161 152.0
507.731476 76.0
507.826172 68.0
507.875885 120.0
507.919861 108.0
507.960205 132.0
508.032593 180.0
508.076843 176.0
508.160522 136.0
508.245087 280.0
508.302094 144.0
508.356537 260.0
508.409851 132.0
508.490692 160.0
508.524811 68.0
508.600586 124.0
508.676788 100.0
508.728577 88.0
508.760864 292.0
508.801331 284.0
508.852478 352.0
508.892059 248.0
508.949005 268.0
509.025452 252.0
509.144348 105404.0
509.28186 216.0
509.338593 196.0
509.371918 200.0
509.407196 112.0
509.44516 116.0
509.475067 136.0
509.581573 256.0
509.632599 276.0
509.67746 304.0
509.724121 72.0
509.736237 76.0
509.753906 100.0
509.782837 120.0
509.832306 76.0
509.885681 148.0
509.957001 144.0
509.996765 232.0
510.04599 196.0
510.146545 33552.0
510.308044 212.0
510.360504 96.0
510.428925 184.0
510.490356 64.0
510.542206 164.0
510.611145 88.0
510.62915 96.0
510.671143 56.0
510.702423 76.0
510.737427 216.0
510.770233 72.0
510.789337 40.0
510.799927 104.0
510.848724 92.0
510.910706 172.0
510.930237 100.0
510.950684 132.0
510.972229 176.0
510.981506 88.0
511.002106 160.0
511.015869 52.0
511.062988 168.0
511.151123 4896.0
511.289673 68.0
511.321167 100.0
511.36618 84.0
511.454712 120.0
511.495697 132.0
511.571594 152.0
511.619934 76.0
511.678436 120.0
511.762329 96.0
511.793854 56.0
511.853271 124.0
511.902832 80.0
511.929962 88.0
512.037476 80.0
512.157166 588.0
512.293762 96.0
512.353333 108.0
512.415405 60.0
512.479248 124.0
512.550598 136.0
512.581116 88.0
512.607605 192.0
512.668945 120.0
512.717346 288.0
512.773132 172.0
512.809021 84.0
512.870605 112.0
512.932068 188.0
512.974243 52.0
513.027832 68.0
513.085449 200.0
513.150085 92.0
513.217224 72.0
513.257202 128.0
513.301941 124.0
513.416138 68.0
513.477417 116.0
513.537903 56.0
513.599243 100.0
513.682251 60.0
513.722839 80.0
513.835632 92.0
513.874146 164.0
513.914307 92.0
513.989075 88.0
514.048096 100.0
514.127258 64.0
514.200806 112.0
514.231934 140.0
514.258545 156.0
514.308105 140.0
514.359131 44.0
514.422852 144.0
514.476501 100.0
514.521667 72.0
514.571289 40.0
514.667847 96.0
514.879333 56.0
515.113281 36.0
515.20813 64.0
515.266846 68.0
515.338074 52.0
515.402405 44.0
515.835388 60.0
515.962891 100.0
516.220581 52.0
516.342712 52.0
516.451233 72.0
516.558594 76.0
517.089233 68.0
517.695862 92.0
518.207764 32.0
518.328247 72.0
519.014526 88.0
519.136963 36.0
519.840149 96.0
520.130615 56.0
520.857178 64.0
521.027405 84.0
522.671143 72.0
522.812256 92.0
522.903259 108.0
523.435913 112.0
523.486023 100.0
524.228577 100.0
524.37439 92.0
524.470093 68.0
524.830261 100.0
525.637634 116.0
526.034729 56.0
526.272156 68.0
526.715149 88.0
526.893311 40.0
527.299988 96.0
527.87146 104.0
528.017761 36.0
528.200745 136.0
528.412537 152.0
529.216736 72.0
529.551025 32.0
529.802979 84.0
529.972473 64.0
530.082458 68.0
531.081909 104.0
531.877808 80.0
533.607666 80.0
533.993958 88.0
534.15033 56.0
535.314819 84.0
535.614136 140.0
535.70166 68.0
537.375244 60.0
538.982056 44.0
539.393433 96.0
541.563599 96.0
543.097778 52.0
547.946472 48.0
550.334473 84.0
552.559265 144.0
556.85791 92.0
560.202332 84.0
566.324341 88.0
566.86438 96.0
567.750916 80.0
567.859985 84.0
570.909058 80.0
572.641479 44.0
574.61499 144.0
582.461426 92.0
586.387756 48.0
586.633606 108.0
591.856384 92.0
593.756042 112.0
593.954895 124.0
596.304993 60.0
599.560974 52.0
599.629211 52.0
600.477539 40.0
603.202148 84.0
604.097046 100.0
606.315186 68.0
613.777649 72.0
616.517395 48.0
616.902954 92.0
620.834351 60.0
620.898804 56.0
628.589966 76.0
629.868103 44.0
633.16925 92.0
638.876465 80.0
645.200745 80.0
645.448486 200.0
645.848022 104.0
646.996704 48.0
647.498047 152.0
647.857666 192.0
649.850159 120.0
652.58783 48.0
653.813782 52.0
654.229614 64.0
656.465027 68.0
659.015198 68.0
661.316467 124.0
661.946167 140.0
669.711548 32.0
671.469116 44.0
675.906799 116.0
676.010254 44.0
678.169983 72.0
686.952698 100.0
692.226379 104.0
692.844482 40.0
693.892639 44.0
697.073547 116.0
699.145508 112.0
700.008911 56.0
702.159058 76.0
703.013733 52.0
704.143555 128.0
706.887329 100.0
711.270447 164.0
711.955383 40.0
718.598633 92.0
719.062927 40.0
719.255066 128.0
719.39917 116.0
720.285645 52.0
720.835938 64.0
722.841248 100.0
725.320984 72.0
728.922302 84.0
735.746643 136.0
737.432007 100.0
741.0578 96.0
742.434631 76.0
743.438293 92.0
743.693359 80.0
747.573914 104.0
749.387207 60.0
759.605225 152.0
759.649109 44.0
760.444763 80.0
762.834167 68.0
763.692017 80.0
764.335693 156.0
772.180481 68.0
772.717041 48.0
773.652405 60.0
773.890442 100.0
774.123047 76.0
775.031494 116.0
775.419434 36.0
779.515137 68.0
779.848572 188.0
782.529907 104.0
783.331909 96.0
788.135559 168.0
790.24353 100.0
794.9729 52.0
795.214233 48.0
797.123657 76.0
797.193176 76.0
800.059753 36.0
800.31311 52.0
801.43396 144.0
802.177917 60.0
802.803772 52.0
805.592102 36.0
805.75592 68.0
805.9198 196.0
810.616394 100.0
813.946228 136.0
817.857666 76.0
818.193542 48.0
818.911072 68.0
821.424805 232.0
823.519714 240.0
827.288025 200.0
833.269775 88.0
834.321472 132.0
836.317627 180.0
837.204285 32.0
840.536255 152.0
841.823608 44.0
842.846069 104.0
843.979004 152.0
846.223999 104.0
852.447998 236.0
853.703674 132.0
856.922668 88.0
858.818848 168.0
859.406494 124.0
862.203674 208.0
864.408447 120.0
867.993469 140.0
868.298401 188.0
872.64978 144.0
873.514282 124.0
879.607483 124.0
879.743225 48.0
880.906616 148.0
881.792908 44.0
882.573303 56.0
884.975586 144.0
885.627014 108.0
886.065369 176.0
888.140259 180.0
888.413086 168.0
890.30658 96.0
890.419434 136.0
893.129761 124.0
894.486511 48.0
895.117615 132.0
895.911804 164.0
896.451965 44.0
899.720642 44.0
902.815857 152.0
903.802856 176.0
906.042175 176.0
906.473572 40.0
908.398193 156.0
911.219849 160.0
911.706543 172.0
912.001099 288.0
913.239685 96.0
918.027771 172.0
919.185974 116.0
919.385132 212.0
920.194031 32.0
920.948853 44.0
921.82489 56.0
924.425232 60.0
924.709717 204.0
924.818665 176.0
925.133423 128.0
925.866089 60.0
925.956909 136.0
929.758301 196.0
930.078491 80.0
933.397156 144.0
938.652344 96.0
939.939453 200.0
942.534607 172.0
945.690308 48.0
946.688232 64.0
949.090393 124.0
949.139465 136.0
950.372375 232.0
950.445984 76.0
952.834473 164.0
954.321838 260.0
955.090576 72.0
956.075012 152.0
957.928345 88.0
958.901917 84.0
959.185425 88.0
960.579102 188.0
960.856689 40.0
961.010925 172.0
962.572632 136.0
963.233459 40.0
963.678284 96.0
963.80188 116.0
965.87915 124.0
966.763916 56.0
968.726746 48.0
969.674744 160.0
970.703857 216.0
971.181458 156.0
972.46582 180.0
972.887939 140.0
974.129944 212.0
974.931519 196.0
975.714722 156.0
978.221802 112.0
980.071594 48.0
981.131104 256.0
981.237122 164.0
981.710999 164.0
985.981262 148.0
987.18158 156.0
987.700684 36.0
989.077332 160.0
991.087646 172.0
991.795837 168.0
992.755127 144.0
994.342346 160.0
996.207275 140.0
996.496277 68.0
996.929871 56.0
997.382385 140.0
998.79718 40.0
1001.976318 144.0
1002.442627 184.0
1004.069092 60.0
1005.046936 52.0
1008.431885 96.0
1009.184143 68.0
1012.373413 136.0
1013.577026 60.0
1015.396484 136.0
1016.601868 172.0
1017.309814 188.0
1018.335083 140.0
1019.961731 68.0
1021.53241 124.0
1022.626892 140.0
1023.429016 184.0
1023.499084 172.0
1023.8302 176.0
1024.594604 148.0
1025.353271 220.0
1025.913818 108.0
1027.304077 144.0
1028.376099 88.0
1028.58667 144.0
1031.064941 156.0
1032.823242 184.0
1035.434692 108.0
1036.1073 168.0
1036.523804 168.0
1037.626221 52.0
1039.935547 156.0
1041.380249 152.0
1043.417358 96.0
1044.118286 200.0
1045.456421 164.0
1045.964844 176.0
1047.014404 156.0
1047.078857 160.0
1048.683105 172.0
1048.728271 148.0
1049.095703 68.0
1049.263306 112.0
1049.779175 120.0
1051.237061 152.0
1051.643677 168.0
1052.166504 136.0
1052.224609 152.0
1052.418335 92.0
1052.960815 124.0
1053.064087 196.0
1059.474609 68.0
1060.103149 188.0
1060.388306 124.0
1061.899048 116.0
1062.755371 200.0
1063.689941 164.0
1064.118408 124.0
1065.956543 180.0
1066.39856 168.0
1066.547974 176.0
1067.276123 140.0
1067.932983 152.0
1068.394897 168.0
1069.0 164.0
1069.065063 148.0
1070.438599 216.0
1071.845703 64.0
1073.305786 196.0
1074.558105 152.0
1076.457642 208.0
1078.986328 140.0
1080.327026 164.0
1081.033691 32.0
1082.519653 180.0
1082.919189 76.0
1083.024048 136.0
1083.443237 152.0
1084.078857 140.0
1084.609741 168.0
1084.77356 152.0
1084.82605 192.0
1086.399902 40.0
1087.246338 92.0
1089.689209 84.0
1094.655396 192.0
1095.252441 260.0
1095.880493 36.0
1096.75708 152.0
1097.185547 120.0
1098.049316 160.0
1098.629883 40.0
1099.11145 236.0
1100.874634 200.0
1101.243896 160.0
1101.798828 120.0
1101.904419 40.0
1101.990356 164.0
1104.231323 156.0
1104.542236 176.0
1105.349365 168.0
1105.812622 204.0
1106.50769 200.0
1107.16333 184.0
1107.428223 160.0
1108.209961 172.0
1108.700317 156.0
1111.180298 156.0
1112.135864 176.0
1113.244629 128.0
1113.536865 100.0
1116.640747 248.0
1117.419067 144.0
1120.748169 76.0
1123.982178 208.0
1124.162354 148.0
1125.517456 140.0
1126.399048 80.0
1126.66626 196.0
1127.44812 84.0
1128.036255 88.0
1128.979004 180.0
1130.082764 172.0
1130.34375 200.0
1130.731934 184.0
1131.106689 40.0
1132.995239 160.0
1133.611694 120.0
1136.126099 136.0
1136.595703 192.0
1136.864136 136.0
1139.919678 104.0
1140.927979 236.0
1141.619751 152.0
1142.293091 148.0
1144.945068 220.0
1145.099976 144.0
1145.813965 140.0
1146.258789 128.0
1146.454102 156.0
1146.811401 128.0
1147.296753 196.0
1147.418091 48.0
1149.657471 148.0
1149.961182 80.0
1150.069214 172.0
1150.440552 160.0
1151.021118 160.0
1151.358765 116.0
1151.804565 132.0
1152.628906 52.0
1152.804565 88.0
1153.270874 212.0
1154.433716 156.0
1154.609619 192.0
1155.360474 144.0
1155.752808 152.0
1156.889893 200.0
1157.133667 140.0
1157.953003 156.0
1158.1427 184.0
1158.975952 204.0
1159.897705 208.0
1160.656982 232.0
1161.245361 188.0
1161.823608 196.0
1161.959229 168.0
1162.244263 180.0
1162.800781 200.0
1164.72229 212.0
1164.994019 108.0
1166.013306 164.0
1166.196777 160.0
1166.339478 248.0
1166.801758 52.0
1166.998901 92.0
1167.746948 96.0
1168.312988 188.0
1169.318726 164.0
1169.807251 184.0
1171.034424 156.0
1171.136597 100.0
1172.363037 200.0
1173.003662 136.0
1173.36499 136.0
1174.012817 172.0
1174.381104 132.0
1176.189331 124.0
1177.513916 200.0
1179.119507 240.0
1179.236084 180.0
1179.290405 160.0
1181.143433 108.0
1181.909668 124.0
1182.108032 172.0
1182.333984 120.0
1185.998291 120.0
1186.992188 184.0
1187.246094 172.0
1187.314697 152.0
1188.226929 120.0
1188.727905 72.0
1189.016113 132.0
1189.627075 180.0
1190.279297 116.0
1190.361694 148.0
1191.467529 112.0
1191.646118 92.0
1193.254517 152.0
1194.148438 172.0
1194.829468 152.0
1194.939575 116.0
1195.331787 172.0
1195.421265 204.0
1195.538208 140.0
1196.508789 112.0
1196.873657 160.0
1197.018311 156.0
1197.066528 160.0
1200.332886 172.0
1200.739746 200.0
1200.836304 180.0
1201.125977 164.0
1201.298462 184.0
1202.333496 172.0
1202.954712 168.0
1203.520874 56.0
1204.770996 176.0
1205.116333 116.0
1206.000977 296.0
1206.146118 64.0
1206.336548 152.0
1206.927368 212.0
1208.338379 84.0
1208.670532 176.0
1209.023438 144.0
1209.300293 44.0
1209.909424 152.0
1210.220947 128.0
1210.650269 68.0
1211.05896 180.0
1211.239014 96.0
1211.814087 112.0
1211.887695 188.0
1212.292236 192.0
1212.936768 208.0
1213.512207 80.0
1214.469238 156.0
1214.614868 128.0
1214.72583 180.0
1215.53064 132.0
1215.690308 188.0
1216.370483 160.0
1217.016113 108.0
1217.328613 128.0
1217.724487 272.0
1218.238525 156.0
1218.495605 208.0
1219.87854 188.0
1220.518188 156.0
1221.784058 176.0
1221.971924 120.0
1222.779175 232.0
1223.148193 196.0
1223.663208 228.0
1224.94458 144.0
1225.05603 76.0
1225.481079 108.0
1225.592529 176.0
1225.801636 176.0
1226.038574 112.0
1226.496826 188.0
1226.686768 172.0
1227.209717 192.0
1227.272461 248.0
1227.844238 164.0
1228.318481 124.0
1228.918579 140.0
1229.044067 216.0
1229.441895 136.0
1229.762939 176.0
1230.872925 176.0
1231.75293 188.0
1231.85083 184.0
1231.955566 216.0
1232.095337 140.0
1232.822021 184.0
1233.716675 128.0
1234.248047 164.0
1234.569702 212.0
1235.912842 160.0
1236.178711 220.0
1236.486694 188.0
1236.535645 236.0
1237.165649 192.0
1237.536743 64.0
1238.346924 64.0
1238.769287 128.0
1238.99353 112.0
1239.196655 132.0
1240.016602 132.0
1240.353027 148.0
1240.963013 152.0
1242.990112 156.0
1243.474365 140.0
1246.297485 140.0
1247.344604 44.0
1247.963257 64.0
1248.99707 164.0
1249.440308 36.0
1249.5177 108.0
1250.897095 152.0
1251.277222 184.0
1251.446167 120.0
1251.572876 40.0
1251.664429 120.0
1252.178589 212.0
1253.383179 124.0
1254.560303 204.0
1254.770142 172.0
1255.018555 36.0
1255.568604 196.0
1255.737915 200.0
1256.146973 80.0
1256.375244 176.0
1256.598511 84.0
1256.683105 192.0
1257.579468 92.0
1259.768433 196.0
1260.588013 164.0
1260.679932 128.0
1261.054443 172.0
1262.737183 116.0
1262.935303 96.0
1263.232422 148.0
1263.7771 176.0
1263.85498 116.0
1264.088501 104.0
1264.265381 124.0
1264.406982 76.0
1265.429932 168.0
1265.47583 224.0
1265.865356 164.0
1265.932129 156.0
1266.254883 52.0
1266.43396 216.0
1266.793213 224.0
1267.048218 112.0
1267.55127 208.0
1267.96228 72.0
1268.082764 184.0
1268.26709 52.0
1270.195801 140.0
1270.394409 108.0
1270.493774 220.0
1270.855591 120.0
1271.60791 216.0
1272.197021 148.0
1272.246704 120.0
1272.68689 200.0
1272.99231 156.0
1273.850464 160.0
1274.071899 168.0
1274.249512 172.0
1274.9104 116.0
1275.294189 96.0
1276.655029 164.0
1277.150024 180.0
1277.221069 184.0
1277.795532 144.0
1277.960938 48.0
1278.537354 212.0
1278.736694 180.0
1278.793579 152.0
1279.341675 76.0
1279.533936 216.0
1279.740356 176.0
1280.039429 128.0
1280.196167 52.0
1280.958252 188.0
1282.105469 124.0
1282.219482 148.0
1282.419067 212.0
1283.345825 192.0
1284.42981 176.0
1284.586792 164.0
1285.043335 204.0
1286.370728 200.0
1286.64917 96.0
1287.413208 156.0
1287.841797 96.0
1287.92749 224.0
1288.570435 184.0
1288.870483 92.0
1289.134888 108.0
1289.592285 112.0
1290.321533 88.0
1290.47168 144.0
1290.664673 156.0
1290.764771 204.0
1290.87915 80.0
1291.108032 80.0
1291.444214 196.0
1291.69458 112.0
1291.959229 172.0
1292.209717 172.0
1292.86731 184.0
1292.925293 88.0
1293.095581 200.0
1293.533691 116.0
1293.712646 128.0
1293.913086 116.0
1294.557495 172.0
1294.82959 68.0
1295.338257 164.0
1295.703613 136.0
1295.811035 112.0
1296.061768 184.0
1296.248169 160.0
1296.326904 120.0
1296.814331 168.0
1297.108154 44.0
1297.430786 132.0
1297.889648 168.0
1298.2052 200.0
1298.86499 104.0
1298.994141 92.0
1299.761841 52.0
1299.954468 132.0
1300.400513 28.0
1300.745117 56.0
1300.809692 208.0
1300.867188 116.0
1300.947144 168.0
1301.046631 88.0
1301.757446 168.0
1302.597778 200.0
1303.546387 164.0
1303.819214 60.0
1304.451782 200.0
1304.746582 140.0
1305.221069 184.0
1305.285767 160.0
1305.523071 28.0
1305.738892 136.0
1305.925903 180.0
1306.005005 156.0
1306.055298 152.0
1306.155151 132.0
1306.249512 164.0
1306.573242 44.0
1306.968994 196.0
1307.203857 184.0
1307.483521 164.0
1307.92627 176.0
1308.437378 224.0
1308.826172 240.0
1309.971313 132.0
1310.425171 144.0
1310.58374 132.0
1310.670166 92.0
1310.778198 176.0
1311.405273 152.0
1311.938721 152.0
1312.94812 172.0
1313.813721 212.0
1314.042358 176.0
1314.549683 116.0
1314.773438 168.0
1314.874512 92.0
1315.17041 132.0
1315.625122 80.0
1315.957275 96.0
1316.44104 200.0
1316.744385 128.0
1316.81665 176.0
1317.112793 200.0
1317.315063 184.0
1317.786377 184.0
1317.965332 160.0
1318.24707 108.0
1318.926514 140.0
1319.714478 200.0
1319.80127 96.0
1320.481079 136.0
1321.90625 212.0
1322.203003 188.0
1322.51416 56.0
1323.382935 120.0
1323.93335 120.0
1324.842285 132.0
1325.548828 120.0
1326.346069 188.0
1326.563477 88.0
1326.664917 76.0
1327.187012 164.0
1327.549561 180.0
1328.050049 200.0
1328.608521 216.0
1328.855225 148.0
1329.065674 48.0
1329.450317 76.0
1329.55188 120.0
1329.776855 52.0
1329.887207 176.0
1330.110718 168.0
1330.335815 136.0
1330.9021 148.0
1332.07251 188.0
1332.456421 136.0
1332.652588 152.0
1333.241211 164.0
1333.546509 216.0
1333.597412 168.0
1333.800903 180.0
1334.004395 56.0
1334.60791 136.0
1334.993286 116.0
1335.240601 144.0
1336.222534 212.0
1336.317139 200.0
1336.600952 148.0
1336.775635 180.0
1337.124878 116.0
1337.758179 184.0
1339.717163 168.0
1340.416626 216.0
1341.196411 156.0
1341.262085 44.0
1342.202515 124.0
1342.290039 76.0
1342.90271 36.0
1343.112183 172.0
1343.387085 176.0
1344.186646 164.0
1344.821655 116.0
1345.551636 160.0
1345.850952 144.0
1346.143066 188.0
1346.69812 164.0
1346.858765 128.0
1347.501709 56.0
1347.735474 156.0
1348.093628 104.0
1348.612427 152.0
1348.94873 140.0
1349.160767 164.0
1350.147827 160.0
1350.24292 148.0
1350.645264 148.0
1351.362183 184.0
1351.911011 108.0
1352.057373 124.0
1352.335449 140.0
1352.598999 188.0
1352.833252 188.0
1352.884521 160.0
1353.470215 140.0
1354.114624 204.0
1354.803223 176.0
1355.257446 92.0
1355.763184 112.0
1357.757202 64.0
1358.138672 128.0
1358.197388 212.0
1358.314697 180.0
1358.520142 164.0
1359.087646 256.0
1359.789551 136.0
1360.127197 172.0
1360.611694 212.0
1360.839355 152.0
1361.38269 236.0
1362.098755 200.0
1364.387939 96.0
1364.439453 156.0
1364.858521 128.0
1365.137939 124.0
1365.307129 172.0
1366.094116 156.0
1366.690063 216.0
1367.477539 120.0
1367.654175 188.0
1367.882324 152.0
1368.154785 164.0
1368.441895 108.0
1368.72168 108.0
1369.100586 184.0
1369.35498 248.0
1369.760132 248.0
1369.870605 148.0
1370.305298 188.0
1370.644287 168.0
1370.717896 36.0
1371.1427 164.0
1371.676025 124.0
1371.904663 72.0
1372.692627 172.0
1372.958984 184.0
1373.246704 164.0
1373.785156 172.0
1373.94751 52.0
1374.028564 108.0
1374.729614 76.0
1374.832886 224.0
1375.482422 160.0
1375.563599 108.0
1376.006592 152.0
1376.575195 168.0
1376.737671 72.0
1376.826294 36.0
1377.047852 136.0
1378.133789 156.0
1378.392334 176.0
1378.532837 120.0
1378.739746 140.0
1378.887573 200.0
1379.212769 104.0
1379.730225 168.0
1379.852783 216.0
1380.181274 196.0
1380.758057 72.0
1381.394165 176.0
1381.778931 128.0
1382.060059 196.0
1382.474487 220.0
1383.088745 128.0
1383.784668 172.0
1384.031738 192.0
1384.465942 112.0
1384.547607 136.0
1384.606567 64.0
1384.836182 140.0
1384.925049 152.0
1385.880737 152.0
1386.325317 128.0
1387.437256 144.0
1387.810303 172.0
1388.527222 156.0
1388.660767 92.0
1388.786865 164.0
1389.298706 148.0
1389.654785 68.0
1389.743896 152.0
1390.085205 224.0
1390.226196 212.0
1390.515625 328.0
1391.020386 124.0
1391.173828 244.0
1391.317261 80.0
1391.421265 164.0
1391.488037 136.0
1391.740479 188.0
1392.156372 156.0
1392.293213 104.0
1392.616821 112.0
1392.674561 220.0
1393.389404 44.0
1393.508301 124.0
1393.597412 220.0
1393.783203 40.0
1394.006104 156.0
1394.385132 128.0
1394.511475 124.0
1395.165649 172.0
1395.247437 116.0
1395.386719 180.0
1395.619263 108.0
1397.530762 64.0
1397.701904 176.0
1397.798706 104.0
1398.416382 224.0
1398.572754 120.0
1398.989624 104.0
1399.533081 172.0
1399.801147 88.0
1400.098999 172.0
1400.199707 156.0
1400.553345 128.0
1401.01123 124.0
1401.551636 176.0
1402.013672 104.0
1402.296875 120.0
1402.565186 192.0
1402.982666 180.0
1403.280884 208.0
1403.392822 180.0
1404.429321 264.0
1406.070801 184.0
1406.279785 188.0
1406.884521 60.0
1407.078613 160.0
1407.59375 164.0
1408.04187 172.0
1408.153931 164.0
1408.273438 112.0
1408.348145 80.0
1408.453125 124.0
1408.646851 180.0
1408.92334 108.0
1409.102661 204.0
1409.520996 160.0
1409.872314 164.0
1411.374878 104.0
1411.561768 152.0
1411.67395 152.0
1412.080933 96.0
1412.444336 216.0
1412.990479 120.0
1413.693848 200.0
1413.828491 204.0
1414.150391 64.0
1414.464722 96.0
1414.569458 160.0
1414.704224 176.0
1415.01123 116.0
1415.572754 200.0
1416.05896 212.0
1416.464111 32.0
1416.658813 108.0
1417.048462 116.0
1417.625366 108.0
1418.697266 168.0
1418.944702 156.0
1419.169556 152.0
1419.31958 152.0
1419.544556 136.0
1419.74707 204.0
1420.166992 116.0
1420.572144 88.0
1421.028687 176.0
1421.856201 152.0
1422.328003 76.0
1422.861084 140.0
1422.981201 88.0
1423.251465 164.0
1423.514282 128.0
1424.005249 148.0
1424.490723 144.0
1424.753662 40.0
1425.204468 224.0
1425.582886 188.0
1425.978516 136.0
1426.121338 100.0
1426.482056 132.0
1426.617432 136.0
1426.812866 220.0
1427.098633 68.0
1427.279053 148.0
1428.221802 196.0
1428.497437 124.0
1428.602783 144.0
1428.881104 32.0
1429.370239 196.0
1429.550903 52.0
1429.904541 144.0
1430.077637 92.0
1430.536865 192.0
1430.664795 192.0
1430.935913 144.0
1431.04126 168.0
1431.184326 200.0
1432.291382 40.0
1432.758423 40.0
1432.976929 204.0
1433.112549 216.0
1433.647583 48.0
1433.911377 148.0
1434.476685 112.0
1434.536987 168.0
1434.589844 200.0
1434.665161 192.0
1435.660522 144.0
1435.811279 104.0
1436.920166 112.0
1437.53894 156.0
1438.270996 196.0
1438.52771 144.0
1438.618286 192.0
1438.708862 156.0
1438.980713 164.0
1439.395996 128.0
1439.811279 116.0
1439.864136 148.0
1440.060547 156.0
1440.528931 140.0
1440.747925 40.0
1440.891479 104.0
1441.231567 112.0
1441.707642 108.0
1441.873901 132.0
1442.433228 180.0
1442.647583 232.0
1443.083374 128.0
1443.340454 216.0
1444.225342 164.0
1444.648926 40.0
1444.777466 144.0
1444.921265 136.0
1445.753662 156.0
1445.821777 168.0
1446.056396 204.0
1446.238037 224.0
1446.525635 92.0
1446.904175 164.0
1447.403931 308.0
1448.47937 60.0
1448.68396 196.0
1448.812744 252.0
1448.911255 144.0
1449.259766 232.0
1450.275269 172.0
1450.335815 140.0
1451.215332 44.0
1451.465454 128.0
1451.973633 164.0
1452.125244 136.0
1452.551758 164.0
1452.648682 156.0
1452.997681 380.0
1453.34668 108.0
1453.430176 112.0
1453.632446 216.0
1453.879883 208.0
1454.439575 144.0
1454.781128 88.0
1455.06958 176.0
1455.373291 100.0
1455.893677 212.0
1456.254272 144.0
1456.491089 116.0
1457.329712 244.0
1457.45459 176.0
1458.009277 176.0
1458.168945 92.0
1458.336182 136.0
1458.465332 188.0
1458.556641 152.0
1458.716187 176.0
1458.951904 152.0
1459.446045 148.0
1459.63623 144.0
1459.78833 200.0
1459.871948 104.0
1460.100098 180.0
1460.191284 208.0
1460.342529 164.0
1460.685791 176.0
1461.210693 132.0
1461.302002 136.0
1462.359741 188.0
1462.550049 104.0
1463.341797 180.0
1463.440796 148.0
1463.946167 160.0
1464.179443 164.0
1464.331787 204.0
1464.430786 168.0
1464.584229 184.0
1465.504883 204.0
1465.649658 208.0
1465.764038 160.0
1466.025513 240.0
1466.533691 116.0
1466.991089 152.0
1467.334229 108.0
1467.784058 148.0
1467.913696 132.0
1467.9823 52.0
1468.119629 140.0
1468.317871 196.0
1468.554321 60.0
1468.80603 180.0
1468.943359 52.0
1469.034912 216.0
1470.064941 136.0
1470.377808 124.0
1470.896851 32.0
1471.690796 108.0
1472.072632 176.0
1472.179565 124.0
1472.798218 200.0
1472.973877 204.0
1473.302368 140.0
1473.363525 84.0
1473.523926 84.0
1473.997681 156.0
1474.265137 152.0
1474.502075 192.0
1474.578491 184.0
1474.716064 188.0
1475.067749 196.0
1475.121216 196.0
1475.442261 148.0
1475.625732 144.0
1475.748169 172.0
1475.969849 52.0
1477.805664 64.0
1477.866821 208.0
1477.92041 136.0
1478.035156 204.0
1478.134644 88.0
1478.325928 212.0
1478.456055 160.0
1479.030151 204.0
1479.08374 140.0
1479.351562 136.0
1479.481812 140.0
1479.711426 148.0
1479.872192 108.0
1480.469482 172.0
1480.936768 196.0
1481.013306 172.0
1481.128174 184.0
1481.756348 124.0
1481.817627 196.0
1482.089111 196.0
1482.453735 192.0
1482.530029 184.0
1482.775513 164.0
1482.990112 152.0
1483.342773 148.0
1483.588135 200.0
1483.845459 104.0
1483.940796 124.0
1484.040405 148.0
1484.838013 168.0
1485.075684 168.0
1485.258057 228.0
1485.530151 188.0
1485.735474 88.0
1485.850464 120.0
1485.927246 124.0
1486.004028 72.0
1486.165039 84.0
1486.349243 156.0
1486.740601 120.0
1486.886475 200.0
1487.024658 144.0
1487.316284 120.0
1487.416016 40.0
1487.792236 136.0
1488.206787 176.0
1488.329712 148.0
1488.483276 192.0
1488.544678 132.0
1488.768799 168.0
1489.49707 188.0
1489.75061 108.0
1490.303711 96.0
1490.680298 220.0
1490.772461 136.0
1490.826294 120.0
1491.026123 188.0
1491.133667 128.0
1491.602539 164.0
1491.687134 128.0
1492.10791 140.0
1492.294434 184.0
1492.609741 132.0
1492.755859 84.0
1492.955811 112.0
1493.540283 220.0
1493.632568 120.0
1493.917236 164.0
1494.131836 192.0
1494.217285 172.0
1494.386597 188.0
1495.079102 184.0
1495.163818 168.0
1495.463989 132.0
1495.825684 192.0
1496.087524 44.0
1497.019165 184.0
1497.188599 176.0
1497.288696 212.0
1498.126465 148.0
1498.552002 192.0
1498.798584 152.0
1498.901611 200.0
1498.97583 152.0
1499.099121 108.0
1499.237793 248.0
1499.344238 188.0
1499.666016 224.0
1499.954712 164.0
1500.062622 168.0
1500.671631 144.0
1500.87207 184.0
1501.589355 60.0
1501.759033 132.0
1501.998047 100.0
1502.275757 168.0
1502.522705 84.0
1502.684692 164.0
1502.777344 200.0
1502.931641 104.0
1503.155396 200.0
1503.494995 156.0
1503.783691 136.0
1503.934937 128.0
1504.459839 88.0
1504.567871 76.0
1504.830444 148.0
1504.992554 192.0
1505.131592 176.0
