>compound MLS000766281-01!
>formula C17H21NO3
>ionization [M+H]+
>parentmass 288.1594199840905
#inchi InChI=1S/C17H21NO3/c1-18-8-7-17-6-5-12(19)9-14(17)21-16-13(20-2)4-3-11(10-18)15(16)17/h3-6,12,14,19H,7-10H2,1-2H3
#inchikey ASUTZQLVASHGKV
#Ion_Source LC-ESI
#Instrument qTof
#Compound_Source NIH Natural Product Library
#PI Dorrestein
#Data_Collector VVP/LMS
#Scan -1
#Precursor_MZ 288.16
#ExactMass 287.152
#Charge 1
#CAS_Number N/A
#Pubmed_ID N/A
#Smiles COc1ccc2CN(C)CCC34C=CC(O)CC4Oc1c23
#INCHI_AUX N/A
#Library_Class 1
#SpectrumID CCMSLIB00000080570
#IonMode Positive
#UpdateWorkflowName UPDATE-SINGLE-ANNOTATED-GOLD
#LibraryQualityString Gold
#TaskID b1d8e8f6646f4e71acdff9ca3d919d08
##Scan# 887
#SpectrumFile p2-G10_GG10_01_18058.mzXML
#LibraryName NIH_Natural_Products_Library.mgf
#MQScore -1
#Organism NIH_Natural_Products_Library
#TIC_Query 0
#RT_Query -1
#MZErrorPPM -1
#SharedPeaks 0
#MassDiff 0
#LibMZ -1
#SpecMZ 288.16
#SpecCharge 0
#internalFilename spec-00000.mgf

>collision 10
95.038139 148.0
95.741837 136.0
97.064842 72.0
97.204117 120.0
97.435814 164.0
97.959114 160.0
98.523323 284.0
98.626083 80.0
99.257637 124.0
99.648659 180.0
101.102341 48.0
101.272522 168.0
101.517029 36.0
102.021011 200.0
104.759155 92.0
105.069038 180.0
105.74337 192.0
106.97908 168.0
107.444832 168.0
108.168137 152.0
109.066322 144.0
109.795052 236.0
110.057983 72.0
110.241814 128.0
110.98703 132.0
111.020584 40.0
112.373154 160.0
113.305542 240.0
114.390747 192.0
115.054352 240.0
115.149834 164.0
115.288704 172.0
115.628754 136.0
115.752922 188.0
116.014313 164.0
116.238449 20.0
116.394081 168.0
116.78952 140.0
117.42923 140.0
117.675232 184.0
119.369705 236.0
120.409233 244.0
120.584015 44.0
120.916458 104.0
121.317314 120.0
123.081871 200.0
124.013252 192.0
124.08197 200.0
124.241653 176.0
125.949081 128.0
126.194908 152.0
127.053703 164.0
127.845886 172.0
128.060028 176.0
128.707001 156.0
129.068985 184.0
129.566498 220.0
129.659393 192.0
130.073639 164.0
131.027344 152.0
131.052399 136.0
132.061432 184.0
132.091766 124.0
133.062866 128.0
133.099609 132.0
134.098038 176.0
134.820419 188.0
134.874832 236.0
134.956802 140.0
135.079956 304.0
135.396484 148.0
136.187378 112.0
136.750061 88.0
137.059799 120.0
137.262589 136.0
137.881241 100.0
138.998291 144.0
139.331711 152.0
139.392792 168.0
140.716568 144.0
141.068893 60.0
142.076309 336.0
142.485779 96.0
143.049408 132.0
143.083786 148.0
143.537827 140.0
144.059326 208.0
144.091949 188.0
144.151321 152.0
144.423874 140.0
145.067123 308.0
146.07579 192.0
146.163223 56.0
147.078247 332.0
147.120087 204.0
147.139404 148.0
148.647354 212.0
149.958206 164.0
150.143494 48.0
150.934723 104.0
151.072968 160.0
151.676544 148.0
152.062607 256.0
153.071289 480.0
153.118835 200.0
153.19519 128.0
153.826492 116.0
154.021576 160.0
154.076447 320.0
154.169815 124.0
154.70903 172.0
155.04837 680.0
155.088043 220.0
155.388107 140.0
156.062836 128.0
156.215393 168.0
156.817993 132.0
157.192078 212.0
158.078262 192.0
159.044113 132.0
159.079254 152.0
159.858414 136.0
160.054764 176.0
160.089905 180.0
160.480591 132.0
161.061798 132.0
161.099899 292.0
161.898209 208.0
162.087753 224.0
162.628387 216.0
164.333435 120.0
164.429993 148.0
164.581024 172.0
165.067825 544.0
165.156036 160.0
165.767929 128.0
166.075027 788.0
166.291107 172.0
166.797119 172.0
167.028549 180.0
167.07486 188.0
167.091766 204.0
167.182922 52.0
167.82692 192.0
168.056793 184.0
168.852127 212.0
169.062851 596.0
169.105957 188.0
169.698914 84.0
170.071686 880.0
170.116608 48.0
170.495834 40.0
170.911896 52.0
171.078476 148.0
171.487442 48.0
171.696014 144.0
172.076996 144.0
172.390442 88.0
172.918732 160.0
173.058655 220.0
173.744156 76.0
173.817612 80.0
174.07225 164.0
174.9478 160.0
175.072617 552.0
175.08815 172.0
175.097717 384.0
175.110611 140.0
175.113998 344.0
175.306015 136.0
175.944336 52.0
176.071289 204.0
177.049515 208.0
177.05661 200.0
177.067535 136.0
178.086639 220.0
178.429428 144.0
178.674118 100.0
179.087204 176.0
179.745224 84.0
180.057571 120.0
180.093246 212.0
180.653641 148.0
180.961411 76.0
180.982834 128.0
181.066147 1260.0
181.102295 184.0
182.072098 1508.0
183.007385 144.0
183.044785 1472.0
183.077515 424.0
183.186844 164.0
183.495056 160.0
183.519318 40.0
183.759369 68.0
183.915894 44.0
184.048904 492.0
184.102783 196.0
185.052902 160.0
185.09613 828.0
185.289642 108.0
185.498322 128.0
186.069168 276.0
186.097366 164.0
187.073914 196.0
187.109314 196.0
187.250916 124.0
187.368042 100.0
188.08197 216.0
188.118011 204.0
189.085861 140.0
189.704666 132.0
190.08725 156.0
191.084442 428.0
191.248444 176.0
191.871017 112.0
192.055786 212.0
193.05835 152.0
194.072006 120.0
194.832596 196.0
195.015717 192.0
195.077362 172.0
195.474609 192.0
195.566452 52.0
196.014832 216.0
196.092865 576.0
197.061279 716.0
197.096146 456.0
197.665161 104.0
197.693146 132.0
197.737915 108.0
197.953491 152.0
198.031265 192.0
198.06752 6268.0
198.129944 112.0
198.452255 64.0
198.477493 84.0
198.828156 44.0
198.870255 48.0
199.01062 72.0
199.038696 48.0
199.070847 1140.0
199.435287 96.0
199.862289 56.0
200.042419 128.0
200.081757 160.0
200.309937 160.0
200.380371 144.0
200.515625 64.0
200.653641 100.0
201.062775 156.0
201.37616 192.0
203.106354 288.0
203.465988 88.0
204.099594 144.0
206.12059 56.0
207.080963 172.0
208.079758 308.0
209.067017 124.0
209.100037 280.0
209.488968 160.0
210.069519 376.0
210.101501 208.0
210.527328 220.0
211.080551 236.0
211.576935 92.0
211.825989 60.0
212.081009 352.0
212.437653 124.0
212.925293 160.0
213.006622 164.0
213.090698 7092.0
213.192001 184.0
213.21582 72.0
213.337906 84.0
213.809113 56.0
213.916809 68.0
214.066132 396.0
214.093857 984.0
214.29541 36.0
214.846451 64.0
215.068222 200.0
215.099518 160.0
215.249237 68.0
215.35437 44.0
215.85704 116.0
216.076416 224.0
224.08345 356.0
225.092438 780.0
225.348831 52.0
225.665665 92.0
226.098862 176.0
227.067108 304.0
227.112106 148.0
229.079666 116.0
229.086639 152.0
230.133575 180.0
231.101852 944.0
231.152222 240.0
231.194595 40.0
231.364105 168.0
232.100357 96.0
235.292084 32.0
237.118271 368.0
238.883331 100.0
239.111542 148.0
239.160782 80.0
239.807602 60.0
240.111954 236.0
241.131683 172.0
242.087646 44.0
253.123779 168.0
254.118042 148.0
255.11972 380.0
257.135803 140.0
269.462433 136.0
270.148926 312.0
271.154205 140.0
273.456573 96.0
276.512817 72.0
288.157135 216.0
289.171814 156.0
293.625854 100.0
294.100128 52.0
296.507996 36.0
334.870361 108.0
364.687439 124.0
387.939514 100.0
416.873352 84.0
538.002502 96.0
621.581665 80.0
689.677979 20.0
748.968811 20.0
821.110718 148.0
919.050659 128.0
1028.970703 32.0
1036.684692 48.0
1118.136353 108.0
1169.581421 72.0
1173.44397 148.0
1227.337646 100.0
1253.194824 184.0
1260.462402 20.0
1268.112549 236.0
1293.190674 144.0
1297.194702 144.0
1309.01355 144.0
1312.897705 204.0
1357.807251 112.0
1359.061646 140.0
1369.117676 224.0
1386.241699 180.0
1409.406006 248.0
1414.746094 192.0
1434.947876 176.0
1443.011353 200.0
1459.304688 172.0
1459.71521 192.0
1491.235596 164.0
1494.896362 60.0
1497.044067 184.0
1500.711914 172.0
