>compound Sildenafil citrate
>formula C22H30N6O4S
>ionization [M+H]+
>parentmass 475.21220089209055
#inchi InChI=1S/C22H30N6O4S/c1-5-7-17-19-20(27(4)25-17)22(29)24-21(23-19)16-14-15(8-9-18(16)32-6-2)33(30,31)28-12-10-26(3)11-13-28/h8-9,14H,5-7,10-13H2,1-4H3,(H,23,24,29)
#inchikey BNRNXUUZRGQAQC
#origInchi InChI=1S/C22H30N6O4S.C6H8O7/c1-5-7-17-19-20(27(4)25-17)22(29)24-21(23-19)16-14-15(8-9-18(16)32-6-2)33(30,31)28-12-10-26(3)11-13-28;7-3(8)1-6(13,5(11)12)2-4(9)10/h8-9,14H,5-7,10-13H2,1-4H3,(H,23,24,29);13H,1-2H2,(H,7,8)(H,9,10)(H,11,12)
#Ion_Source LC-ESI
#Instrument qTof
#Compound_Source Commercial
#PI Dorrestein
#Data_Collector Garg_Neha
#Scan -1
#Precursor_MZ 475.212
#ExactMass 474.205
#Charge 1
#CAS_Number 171599-83-0, 139755-83-2 (FREE BASE)
#Pubmed_ID N/A
#Smiles C1(=CC=C(C(=C1)C2=NC3=C(C(N2)=O)N(N=C3CCC)C)OCC)S(N4CCN(CC4)C)(=O)=O.C(C(O)=O)C(CC(O)=O)(O)C(O)=O
#INCHI_AUX N/A
#Library_Class 1
#SpectrumID CCMSLIB00000078143
#IonMode Positive
#UpdateWorkflowName UPDATE-SINGLE-ANNOTATED-GOLD
#LibraryQualityString Gold
#TaskID 77f51c88eb8b467eb4a01dd2d0cb90d2
##Scan# 1125
#SpectrumFile Plate2_61_88_GG8_01_16496.mzXML
#LibraryName FDALibrary_2_04302014.mgf
#MQScore -1
#Organism FDALibrary_2_04302014
#TIC_Query 0
#RT_Query -1
#MZErrorPPM -1
#SharedPeaks 0
#MassDiff 0
#LibMZ -1
#SpecMZ 475.212
#SpecCharge 0
#internalFilename spec-00000.mgf

>collision 10
45.4076 140.0
47.720348 152.0
48.057796 188.0
48.276047 220.0
48.956039 152.0
49.907585 156.0
50.410812 152.0
50.549397 140.0
51.097092 184.0
51.520512 160.0
51.849617 152.0
52.195583 196.0
52.964817 180.0
54.414402 208.0
55.04755 172.0
57.459751 164.0
58.545063 168.0
61.022579 176.0
61.349518 180.0
62.093815 160.0
62.447197 168.0
63.367516 184.0
64.798096 192.0
65.416557 160.0
66.134872 216.0
66.194771 204.0
68.660889 256.0
70.649185 168.0
71.85376 200.0
72.37603 148.0
73.300079 140.0
73.832703 176.0
76.140411 200.0
77.431007 188.0
78.43956 184.0
78.545364 152.0
81.333763 140.0
81.570877 140.0
82.26622 164.0
82.358307 196.0
82.698235 220.0
82.8853 180.0
82.924637 188.0
83.000778 156.0
83.414719 196.0
83.665756 144.0
83.753166 148.0
84.399208 160.0
84.825783 164.0
84.864281 152.0
85.178101 144.0
85.529312 172.0
86.607651 152.0
87.759857 160.0
89.227737 172.0
91.682838 196.0
92.268837 216.0
92.32811 140.0
92.768501 176.0
93.296425 216.0
93.325264 220.0
93.579239 172.0
94.277512 148.0
94.55407 176.0
94.68959 160.0
95.05793 200.0
97.075958 340.0
97.465637 164.0
98.085907 216.0
98.944908 216.0
99.093109 5404.0
99.839813 156.0
99.955193 156.0
100.019905 244.0
100.099747 4300.0
100.31295 152.0
100.780693 168.0
101.101959 340.0
101.425102 224.0
101.441132 148.0
103.059242 188.0
105.338745 252.0
106.190247 172.0
106.442665 228.0
106.868149 152.0
109.980904 152.0
110.145859 172.0
110.264954 148.0
111.787498 152.0
112.343735 168.0
113.167984 148.0
113.354378 212.0
113.948494 168.0
114.203583 184.0
114.625114 176.0
114.701836 176.0
115.220406 152.0
116.974625 220.0
118.148582 156.0
119.10022 180.0
120.160378 168.0
120.446358 148.0
121.140884 136.0
122.56678 152.0
122.635086 168.0
122.779495 156.0
123.703079 152.0
124.013184 232.0
124.239365 172.0
124.456871 176.0
125.794907 148.0
125.981682 196.0
127.911034 156.0
128.183548 172.0
129.421387 144.0
129.702301 188.0
129.913193 152.0
130.106216 140.0
132.239716 200.0
132.64743 168.0
132.830872 164.0
133.209625 144.0
133.729294 220.0
134.077072 236.0
134.143906 184.0
135.04213 152.0
135.685883 188.0
135.822693 144.0
136.057083 140.0
136.940704 176.0
137.285629 140.0
137.827194 168.0
138.707169 164.0
138.850418 216.0
138.981567 188.0
139.082474 168.0
139.236343 164.0
141.361526 176.0
141.71434 152.0
141.851791 320.0
142.661285 160.0
142.716019 176.0
142.815842 188.0
143.246689 204.0
143.282593 108.0
144.32782 204.0
144.703461 196.0
145.691559 188.0
146.042511 152.0
147.085846 220.0
147.346664 176.0
147.641556 172.0
148.072388 212.0
148.383057 212.0
148.629913 176.0
150.406509 160.0
150.58963 328.0
150.621384 180.0
151.112762 192.0
151.159256 204.0
151.218903 140.0
152.970551 168.0
153.123215 164.0
153.256241 164.0
153.317841 300.0
153.791382 220.0
154.064728 132.0
154.92392 196.0
155.065155 212.0
155.141998 148.0
155.221344 152.0
155.489258 172.0
155.582367 196.0
155.874176 152.0
155.892426 164.0
155.928848 164.0
156.062927 116.0
156.093323 152.0
156.121826 148.0
157.041779 196.0
157.543518 148.0
157.698441 184.0
159.058533 208.0
159.176529 196.0
159.276993 248.0
159.729446 152.0
160.684219 140.0
162.196487 140.0
162.361298 168.0
162.670837 148.0
163.051559 620.0
163.217072 200.0
163.634354 196.0
163.738754 144.0
164.021576 192.0
164.053589 180.0
164.083679 304.0
164.358902 152.0
164.53688 184.0
164.797394 144.0
164.927734 192.0
165.047882 176.0
165.385574 172.0
165.702621 124.0
165.78511 168.0
166.098557 624.0
166.367355 180.0
166.531693 148.0
167.573547 152.0
167.756516 360.0
168.004089 196.0
168.143417 192.0
168.205368 160.0
168.49202 156.0
168.911438 180.0
169.63327 176.0
169.817383 148.0
170.20665 144.0
170.331314 140.0
170.851562 180.0
171.322433 188.0
171.734283 168.0
172.177979 196.0
172.889069 180.0
173.536072 176.0
173.659332 176.0
174.56012 152.0
174.778458 160.0
175.110443 176.0
175.901169 156.0
177.183762 216.0
177.231445 148.0
177.565475 156.0
177.67688 160.0
178.181305 164.0
178.729019 172.0
178.875397 140.0
178.971237 152.0
179.77092 148.0
180.037888 140.0
180.411957 200.0
182.180679 236.0
183.111359 168.0
183.197556 144.0
183.855453 176.0
185.117935 168.0
185.415924 144.0
185.670776 148.0
186.029709 188.0
186.058533 172.0
186.338531 148.0
186.542358 184.0
186.855865 164.0
187.358765 148.0
187.505905 144.0
187.642197 184.0
187.928574 156.0
187.947678 156.0
187.991333 192.0
188.338074 160.0
189.084824 192.0
189.657394 140.0
190.087494 156.0
190.686188 180.0
191.007889 144.0
191.087662 160.0
191.123428 172.0
191.365646 152.0
191.406952 164.0
191.872589 148.0
192.07666 152.0
192.121002 212.0
192.57901 180.0
193.057144 164.0
193.082031 152.0
193.118668 228.0
193.696487 188.0
193.715881 148.0
194.029953 204.0
194.10112 140.0
194.175995 172.0
194.839417 168.0
195.061005 152.0
195.273056 200.0
195.955063 192.0
196.095764 152.0
196.119476 148.0
196.286743 204.0
197.333817 144.0
197.767426 204.0
198.030609 180.0
198.072632 164.0
198.1931 140.0
198.756699 184.0
199.082321 168.0
199.104797 172.0
199.172195 140.0
199.233994 148.0
199.349197 160.0
199.725937 148.0
200.204407 152.0
200.762665 160.0
200.909058 252.0
201.075546 176.0
201.109146 128.0
201.146103 128.0
201.858078 192.0
202.067383 148.0
202.224091 96.0
203.671906 160.0
203.927628 284.0
204.008011 144.0
204.641663 144.0
206.410736 144.0
206.539429 240.0
206.794571 116.0
206.816986 204.0
206.842743 156.0
207.584793 176.0
208.47757 280.0
208.618408 176.0
208.920364 156.0
210.064026 196.0
210.86673 176.0
211.060425 204.0
211.245605 124.0
212.357803 172.0
212.430313 156.0
213.067947 288.0
213.121292 208.0
213.205566 164.0
213.496277 184.0
214.89447 200.0
215.072495 212.0
215.09584 156.0
215.119186 160.0
216.355774 176.0
216.865479 160.0
217.110291 216.0
217.162979 188.0
217.666382 192.0
218.739487 144.0
219.007187 144.0
219.092865 164.0
219.123291 136.0
219.366943 160.0
219.492325 204.0
219.738739 164.0
220.004135 176.0
220.275818 216.0
220.736877 204.0
220.970551 148.0
221.130341 184.0
221.345413 204.0
221.64563 144.0
221.764175 192.0
222.173386 144.0
223.201035 168.0
223.524582 156.0
224.383072 188.0
224.421844 148.0
224.600769 172.0
224.741623 112.0
225.070251 116.0
225.26474 156.0
225.302277 152.0
225.55629 172.0
225.598145 144.0
225.795486 156.0
225.890289 144.0
225.962997 176.0
226.046783 204.0
226.082321 332.0
226.567764 140.0
226.906418 188.0
227.09549 196.0
227.13446 152.0
228.074173 144.0
228.110321 148.0
229.08223 156.0
229.66098 172.0
229.772598 152.0
230.255569 172.0
230.336121 188.0
231.023315 156.0
231.089874 196.0
231.123169 148.0
231.29567 144.0
231.331985 216.0
232.101532 164.0
232.344177 168.0
232.665878 148.0
232.860214 168.0
233.24913 208.0
233.459259 176.0
233.687057 192.0
233.858994 224.0
234.180206 148.0
234.722672 164.0
234.890244 148.0
234.956055 116.0
234.991089 156.0
235.131454 152.0
235.293243 188.0
235.931747 176.0
236.032639 140.0
236.222321 104.0
236.378296 188.0
236.465271 232.0
236.641541 140.0
236.941681 296.0
237.024414 152.0
237.080063 172.0
237.211365 184.0
238.093353 148.0
238.313751 136.0
238.540543 144.0
238.932007 176.0
239.070526 116.0
239.226532 148.0
239.65155 216.0
239.888855 156.0
240.09668 296.0
240.394684 152.0
240.536652 152.0
240.569366 160.0
240.598389 144.0
240.774399 164.0
240.935013 156.0
241.079086 140.0
241.110886 188.0
241.293518 208.0
241.347687 108.0
241.99585 212.0
242.221909 148.0
242.531784 180.0
242.578278 172.0
242.699188 176.0
242.813919 160.0
242.848038 160.0
243.180023 156.0
243.338348 148.0
243.667557 148.0
245.042816 132.0
245.095688 144.0
246.125687 116.0
246.531128 228.0
246.940674 172.0
246.968826 180.0
247.023514 124.0
247.281708 196.0
247.626114 176.0
247.795868 164.0
248.519531 152.0
248.704681 192.0
249.144867 148.0
249.276779 124.0
249.94606 148.0
250.22934 224.0
250.75293 128.0
250.875168 144.0
251.010742 176.0
251.096146 360.0
251.168442 168.0
251.196823 176.0
251.370361 196.0
253.079727 136.0
253.233063 120.0
253.305283 168.0
253.386292 160.0
253.84407 164.0
254.080688 1008.0
254.173965 156.0
254.20723 100.0
254.281876 184.0
254.712448 224.0
255.08699 764.0
255.124359 868.0
255.180847 164.0
255.502075 228.0
255.833038 164.0
255.877609 176.0
256.09552 268.0
257.138 100.0
257.216064 108.0
257.49762 128.0
257.717926 112.0
258.04715 160.0
258.136658 152.0
258.328583 156.0
258.658173 240.0
258.856659 188.0
259.045624 152.0
259.16098 164.0
259.500702 224.0
259.625763 140.0
259.997925 148.0
260.091003 140.0
260.612579 148.0
260.74942 140.0
261.271179 200.0
261.915436 108.0
262.026917 252.0
262.49292 132.0
262.607147 176.0
262.678101 180.0
263.168579 172.0
263.313324 100.0
263.62088 312.0
264.296722 140.0
264.7612 144.0
264.845337 180.0
264.930267 140.0
265.083588 208.0
265.109589 144.0
265.670441 188.0
265.955994 212.0
266.027161 120.0
266.093109 148.0
266.123383 100.0
266.149628 112.0
266.449585 172.0
266.614136 128.0
266.654297 180.0
267.084381 336.0
267.121643 440.0
267.542328 184.0
268.072327 144.0
268.094574 428.0
268.128113 300.0
268.173248 208.0
268.291595 152.0
268.735168 176.0
268.9021 168.0
269.137604 560.0
269.279907 164.0
269.315674 116.0
269.499176 160.0
269.553223 216.0
269.924103 144.0
269.95932 152.0
270.074554 200.0
271.072906 136.0
271.328735 140.0
271.492706 152.0
271.591095 216.0
271.922485 196.0
272.196228 216.0
272.347809 132.0
272.682281 128.0
272.717316 180.0
273.108582 176.0
273.201233 124.0
273.633148 128.0
273.693085 264.0
273.750366 148.0
273.791199 148.0
274.297272 168.0
274.366516 196.0
274.628082 308.0
274.690857 112.0
274.73587 172.0
275.102173 164.0
275.151703 296.0
275.392761 140.0
275.466339 128.0
275.53479 192.0
275.653748 164.0
275.947937 220.0
276.119873 196.0
276.143036 192.0
276.387817 148.0
276.924133 188.0
277.129517 220.0
277.424469 164.0
277.969971 136.0
278.114777 324.0
278.316956 156.0
279.129791 320.0
279.763214 148.0
279.873077 192.0
280.130035 152.0
280.309448 172.0
280.755371 104.0
280.789246 320.0
280.999634 176.0
281.056366 140.0
281.105835 208.0
281.139404 200.0
281.837708 176.0
282.110596 3256.0
282.225433 140.0
282.360687 356.0
282.397369 172.0
282.439453 204.0
282.583313 148.0
282.60672 196.0
282.731506 196.0
282.879852 132.0
283.057404 212.0
283.077026 96.0
283.119507 26844.0
283.207397 112.0
283.413208 148.0
283.681458 204.0
284.010406 160.0
284.123657 4652.0
284.436554 184.0
284.788055 140.0
284.847198 188.0
284.901001 104.0
285.001831 136.0
285.133331 1940.0
285.363739 164.0
285.620514 96.0
285.740448 220.0
286.069092 296.0
286.138092 640.0
286.225128 200.0
286.748962 100.0
287.07431 272.0
287.11261 368.0
287.24292 180.0
287.291595 164.0
287.630981 160.0
287.664734 176.0
287.906281 164.0
288.073364 156.0
288.117371 148.0
288.276062 144.0
289.514221 364.0
289.873322 144.0
290.025818 148.0
290.213959 168.0
290.368256 152.0
290.443634 164.0
290.80661 100.0
290.880615 148.0
291.128448 148.0
291.353973 132.0
291.869263 196.0
292.147186 140.0
292.492157 132.0
292.678253 172.0
292.856171 152.0
292.88623 112.0
292.999237 156.0
293.136383 392.0
293.557373 156.0
293.848175 164.0
294.056335 156.0
294.116974 216.0
294.127289 328.0
294.1409 272.0
294.281616 164.0
294.343079 184.0
294.368713 140.0
294.647064 164.0
294.720703 196.0
295.107239 172.0
295.149078 304.0
295.207642 140.0
295.724243 164.0
296.042633 148.0
296.131134 244.0
296.742218 116.0
296.95459 160.0
297.072357 120.0
297.136536 2112.0
297.22525 176.0
297.66452 112.0
297.960022 176.0
298.106018 140.0
298.140778 296.0
298.647552 148.0
298.707764 168.0
298.81955 140.0
298.924347 184.0
299.114868 5656.0
299.504608 160.0
299.687195 224.0
299.934906 104.0
300.079926 160.0
300.116394 868.0
300.424988 232.0
300.565491 116.0
300.75592 120.0
300.892426 188.0
301.066193 172.0
301.124329 340.0
301.457336 200.0
302.129181 328.0
302.245758 180.0
302.328918 152.0
302.512268 164.0
302.560028 156.0
302.682556 108.0
303.045593 164.0
303.149567 148.0
303.203064 136.0
303.475372 188.0
303.960999 152.0
304.329193 164.0
304.877777 144.0
304.921692 144.0
305.175232 136.0
305.681061 156.0
306.022186 172.0
306.095306 152.0
306.201538 160.0
306.245056 152.0
306.370453 188.0
306.544678 148.0
306.782562 132.0
306.935089 144.0
307.193176 152.0
307.367615 140.0
307.510712 156.0
307.706177 160.0
307.809814 136.0
307.976471 120.0
308.247589 172.0
308.471252 140.0
308.780975 112.0
309.002838 168.0
309.138733 176.0
309.303802 180.0
310.110718 296.0
310.426575 180.0
310.553223 196.0
310.775696 224.0
310.910645 132.0
311.070496 156.0
311.101318 264.0
311.151306 14652.0
311.210815 136.0
311.282684 120.0
311.386505 140.0
311.521881 140.0
311.704376 284.0
311.886505 212.0
311.997925 188.0
312.155518 4204.0
312.225464 148.0
312.329346 208.0
312.41449 116.0
312.66626 172.0
312.92865 96.0
313.163757 2176.0
313.497375 156.0
314.046661 144.0
314.125244 196.0
314.166382 372.0
314.481323 160.0
314.520172 168.0
314.659943 188.0
314.724915 180.0
314.954468 164.0
314.984436 148.0
315.027893 164.0
315.109283 564.0
315.191162 172.0
315.286591 172.0
315.673798 212.0
316.112549 444.0
316.209656 176.0
316.766296 136.0
316.804535 164.0
316.930664 172.0
317.102081 164.0
317.854004 196.0
318.08075 108.0
318.233795 172.0
318.276398 160.0
318.469604 168.0
319.388763 180.0
319.445679 228.0
319.629272 132.0
321.340973 284.0
321.590759 164.0
322.040649 140.0
322.258545 168.0
322.683868 176.0
322.817383 212.0
323.089447 168.0
323.281219 156.0
323.449432 148.0
323.479126 164.0
323.531769 156.0
323.642761 156.0
323.734375 204.0
323.87912 188.0
324.016266 168.0
324.269653 160.0
325.166992 556.0
325.737946 156.0
325.773132 284.0
326.158264 188.0
326.481201 180.0
326.646667 144.0
327.143188 752.0
327.651031 160.0
328.119934 292.0
328.136414 356.0
328.260162 176.0
328.631714 152.0
328.9198 188.0
329.073792 360.0
329.118164 396.0
329.159637 872.0
329.321198 144.0
329.487366 164.0
329.548798 212.0
329.613831 176.0
329.751617 144.0
329.828857 320.0
329.921051 188.0
330.158875 104.0
330.289886 172.0
330.347778 180.0
330.608276 140.0
330.6698 196.0
330.861664 148.0
330.995636 144.0
331.092438 152.0
331.170502 140.0
331.223022 152.0
331.53537 160.0
331.87558 132.0
332.070435 148.0
332.096466 168.0
332.162628 128.0
332.289612 168.0
332.522858 128.0
332.619843 156.0
332.750519 164.0
332.98938 124.0
333.10968 116.0
333.233582 140.0
333.43512 380.0
333.480682 148.0
333.7388 232.0
333.764252 204.0
333.876221 156.0
334.062469 160.0
334.090332 208.0
335.20575 196.0
335.50824 176.0
336.172058 184.0
336.993652 184.0
337.223877 148.0
337.596771 140.0
338.057709 212.0
338.150696 156.0
338.720398 140.0
339.158386 140.0
339.185089 196.0
339.21875 156.0
339.911926 188.0
340.649902 144.0
341.061462 148.0
341.102783 176.0
341.161591 140.0
341.337189 180.0
341.623413 132.0
341.776001 188.0
341.881622 228.0
341.977325 140.0
342.137604 184.0
342.293915 156.0
342.465698 280.0
342.758057 168.0
342.81665 160.0
342.892334 128.0
343.030792 164.0
343.095947 136.0
343.169373 196.0
343.65036 144.0
343.831177 168.0
344.060028 176.0
344.089569 256.0
344.148315 1632.0
344.340668 156.0
344.484711 168.0
344.717499 152.0
344.780762 216.0
344.82373 188.0
345.088165 112.0
345.150604 460.0
345.424591 204.0
346.156647 152.0
346.197205 168.0
346.250793 144.0
346.975311 208.0
347.090118 196.0
347.223755 148.0
347.800293 124.0
347.921356 192.0
348.055023 152.0
348.092377 180.0
348.303864 160.0
348.329865 148.0
348.541626 144.0
348.665924 140.0
349.006256 188.0
349.094757 476.0
349.367004 160.0
349.396759 168.0
349.605133 152.0
349.869415 160.0
349.977386 188.0
350.126343 160.0
350.442719 128.0
350.754364 164.0
351.091583 144.0
351.210907 164.0
352.398041 164.0
352.569946 184.0
352.749359 168.0
352.848175 140.0
352.891418 180.0
353.175018 124.0
353.280365 236.0
353.590942 364.0
353.841736 144.0
354.072205 120.0
354.192902 464.0
354.525177 184.0
354.654633 152.0
354.862091 244.0
354.977051 156.0
355.023193 132.0
355.09259 124.0
355.157074 168.0
355.19986 296.0
355.289825 180.0
355.382172 176.0
355.599823 160.0
356.369629 164.0
356.403442 168.0
356.937195 140.0
357.56546 156.0
357.697174 144.0
358.032288 148.0
358.058655 176.0
358.164093 472.0
358.314789 164.0
358.865051 156.0
358.931915 188.0
359.008362 168.0
359.049835 144.0
359.105591 124.0
359.173004 372.0
359.23465 148.0
359.487457 172.0
359.578003 140.0
360.121918 348.0
360.574127 112.0
360.778107 128.0
360.947296 184.0
361.13559 176.0
361.172485 156.0
361.458984 136.0
361.728699 144.0
361.770355 160.0
362.110687 132.0
362.385162 264.0
362.465668 116.0
362.547791 248.0
362.866852 100.0
363.106598 184.0
363.350677 140.0
363.794708 172.0
363.96936 148.0
364.237549 180.0
364.748169 176.0
364.801392 144.0
365.200653 140.0
365.523193 184.0
365.779022 152.0
365.908447 168.0
366.194061 164.0
366.521667 140.0
366.563599 292.0
366.68399 176.0
366.746979 140.0
367.194397 156.0
367.369751 192.0
367.452545 168.0
367.570282 168.0
367.606018 144.0
367.648254 148.0
368.187775 208.0
368.257477 148.0
368.402618 184.0
368.501953 148.0
368.532532 188.0
368.646057 256.0
368.99115 196.0
369.187469 132.0
370.370941 188.0
371.217438 148.0
371.373047 192.0
371.503448 180.0
371.614899 176.0
371.82193 148.0
371.929413 184.0
372.201996 172.0
372.382477 152.0
373.170258 192.0
373.433228 124.0
373.816467 264.0
373.945953 184.0
374.336121 196.0
374.794525 184.0
374.923035 140.0
375.114746 368.0
375.311035 164.0
375.3573 160.0
375.609497 152.0
375.688995 152.0
375.789307 324.0
376.111053 288.0
376.182953 144.0
376.437775 180.0
376.515015 156.0
376.821045 192.0
377.127472 1864.0
377.401794 116.0
377.666779 184.0
377.829224 164.0
378.124268 248.0
378.622742 220.0
379.08374 144.0
379.118347 380.0
379.190613 200.0
379.226044 168.0
379.552795 172.0
380.317047 168.0
380.39856 176.0
380.557739 144.0
380.790741 196.0
381.163666 140.0
381.198303 136.0
381.375488 100.0
381.513489 140.0
381.548462 176.0
381.667236 220.0
381.963623 132.0
382.021057 208.0
382.069611 184.0
382.131866 140.0
382.159088 140.0
382.208008 504.0
382.248596 152.0
382.559937 172.0
382.618347 168.0
383.151886 168.0
383.213806 196.0
383.453369 208.0
383.687378 108.0
383.922607 168.0
384.114777 176.0
384.145996 288.0
384.39444 148.0
384.481537 172.0
384.606445 156.0
384.688416 152.0
384.883636 296.0
384.973572 116.0
385.05545 196.0
385.090607 148.0
385.141785 116.0
385.489105 152.0
385.895599 148.0
386.071564 156.0
386.176361 196.0
386.31015 176.0
386.355652 140.0
386.517517 160.0
386.756256 164.0
387.272003 116.0
388.892426 160.0
389.328217 152.0
389.446045 156.0
389.56781 108.0
389.771851 176.0
389.897858 164.0
390.402466 136.0
390.566254 172.0
390.620026 260.0
391.428131 180.0
391.672333 200.0
392.138489 220.0
392.27829 164.0
392.657684 144.0
392.685303 152.0
392.720795 148.0
392.791779 140.0
393.292816 144.0
393.430725 216.0
393.604797 144.0
393.644287 156.0
393.683777 152.0
393.743011 160.0
393.88916 140.0
394.201294 180.0
394.307465 212.0
394.3396 176.0
394.390991 172.0
394.430084 144.0
394.576996 136.0
394.955048 220.0
395.094849 144.0
395.209595 172.0
395.245209 144.0
395.49057 204.0
395.580322 184.0
395.73999 260.0
395.792725 188.0
396.055573 144.0
396.778015 156.0
396.988159 144.0
397.043701 140.0
397.071442 160.0
397.407257 160.0
398.442841 184.0
398.591888 144.0
398.631622 400.0
398.742889 160.0
398.917786 192.0
399.303497 148.0
399.426788 164.0
399.621735 156.0
400.137085 180.0
400.254608 216.0
401.158997 268.0
401.485962 188.0
401.549744 144.0
401.585663 160.0
401.649933 136.0
402.835022 140.0
403.294556 148.0
403.878326 168.0
404.506561 164.0
404.532806 144.0
404.993042 132.0
405.475861 156.0
405.622284 180.0
405.732391 184.0
406.815552 148.0
407.510345 184.0
407.570618 140.0
407.602753 120.0
407.729065 132.0
407.853485 164.0
408.105194 168.0
408.849396 236.0
409.234528 184.0
409.521729 220.0
409.603912 200.0
409.658691 180.0
410.08609 120.0
410.368011 140.0
410.558472 188.0
410.650269 208.0
410.928619 180.0
411.138458 168.0
411.248871 180.0
411.342377 152.0
411.392731 152.0
411.52597 176.0
411.800568 180.0
411.87326 160.0
412.123749 236.0
412.164154 168.0
412.232849 200.0
412.268494 184.0
412.317474 140.0
412.361542 152.0
412.491516 196.0
412.519806 152.0
412.733307 144.0
413.165833 144.0
413.280151 240.0
413.76178 148.0
413.800201 252.0
413.846283 156.0
413.907532 156.0
414.022858 108.0
414.077606 224.0
414.387085 212.0
414.478668 168.0
414.624573 188.0
414.714355 140.0
414.89209 152.0
415.013885 100.0
415.463898 184.0
415.639587 148.0
416.14978 224.0
416.278015 124.0
416.489471 156.0
416.706238 196.0
417.043518 180.0
417.335968 132.0
417.523071 164.0
417.689819 164.0
417.820221 164.0
417.995178 160.0
418.14859 168.0
418.712982 172.0
418.748199 168.0
418.968262 200.0
419.134216 120.0
419.208649 144.0
419.53894 116.0
419.591797 164.0
419.687958 152.0
419.999603 160.0
420.456573 160.0
421.028137 140.0
421.628662 180.0
421.999054 264.0
422.229645 148.0
422.338196 200.0
422.646912 164.0
422.712372 180.0
423.568054 184.0
423.830261 196.0
424.220917 176.0
424.26059 140.0
424.477905 140.0
424.535309 164.0
424.568115 156.0
424.59967 204.0
424.641937 148.0
424.763153 152.0
425.203094 160.0
425.906128 176.0
426.00061 160.0
426.345734 156.0
426.386841 140.0
426.460815 176.0
426.666718 140.0
426.933624 156.0
427.071472 108.0
427.481384 132.0
427.558838 136.0
427.631439 204.0
428.815094 260.0
429.630066 152.0
429.6604 184.0
430.118469 144.0
430.21756 160.0
430.597443 140.0
430.766174 108.0
431.155182 148.0
431.506531 220.0
432.131042 176.0
432.383484 188.0
432.466248 172.0
432.5242 168.0
433.302734 172.0
433.594177 156.0
434.019775 140.0
434.119293 148.0
434.213348 188.0
434.321838 160.0
434.445557 140.0
434.629517 148.0
434.725311 144.0
435.00943 244.0
435.09436 248.0
435.715179 156.0
436.18692 200.0
436.245117 220.0
436.483673 112.0
436.561127 316.0
436.66925 148.0
436.985382 192.0
437.160156 176.0
437.38269 104.0
437.692993 204.0
438.134888 124.0
438.296967 192.0
438.567841 232.0
438.663727 216.0
439.168274 196.0
440.412079 192.0
440.483093 152.0
440.754669 208.0
440.932922 152.0
441.076477 152.0
441.263245 208.0
441.356567 188.0
441.720428 160.0
441.887604 100.0
442.444397 212.0
442.657928 156.0
443.101929 196.0
443.168945 180.0
443.30304 144.0
444.514954 248.0
444.678223 132.0
444.763397 120.0
444.823883 144.0
445.1698 192.0
446.10437 180.0
446.221283 148.0
446.301971 184.0
446.510406 152.0
446.548279 168.0
446.733337 148.0
446.963776 140.0
447.178986 260.0
447.309845 220.0
447.541412 160.0
447.781433 232.0
448.172089 164.0
448.3797 164.0
448.605957 160.0
449.123352 200.0
449.248291 152.0
449.836945 108.0
451.660339 172.0
452.151123 188.0
452.279266 160.0
452.515167 152.0
452.55246 104.0
452.654907 148.0
452.722656 140.0
452.949188 132.0
452.979797 180.0
453.302826 172.0
453.31543 164.0
453.896484 200.0
453.968567 196.0
454.379242 132.0
454.415466 120.0
454.526581 124.0
454.620483 172.0
454.80011 192.0
454.843903 152.0
454.88501 156.0
454.948669 156.0
455.445526 164.0
455.988953 168.0
456.282684 144.0
456.389343 132.0
457.217529 128.0
457.475067 156.0
457.567505 220.0
457.937988 176.0
458.03595 184.0
458.440704 140.0
458.801025 120.0
458.875488 176.0
458.999451 172.0
459.181061 164.0
459.737122 160.0
459.89212 136.0
460.223755 140.0
460.556854 180.0
460.718658 100.0
460.912598 132.0
461.00174 152.0
461.132599 208.0
461.190308 144.0
461.368774 156.0
461.467102 148.0
461.918976 224.0
462.215637 140.0
462.343994 180.0
462.964752 140.0
463.794922 152.0
463.993134 168.0
464.216553 152.0
464.267365 188.0
464.372131 156.0
464.743683 148.0
464.805847 144.0
464.868134 172.0
464.919617 164.0
465.061249 164.0
465.685883 168.0
466.184753 124.0
466.216583 144.0
466.262634 224.0
466.324005 148.0
466.955536 104.0
467.098175 236.0
467.186829 152.0
467.330292 156.0
467.407745 144.0
467.473541 152.0
467.591675 268.0
467.624298 144.0
467.695343 116.0
467.851044 168.0
467.980225 168.0
468.167816 212.0
468.280731 188.0
468.419128 148.0
468.505646 144.0
468.570282 148.0
468.686615 144.0
468.805145 132.0
468.925659 152.0
468.966705 140.0
469.094788 124.0
469.127563 148.0
469.30011 108.0
469.519226 196.0
469.602783 160.0
469.800537 120.0
469.886414 296.0
469.987885 96.0
470.100067 132.0
470.171661 116.0
470.204285 112.0
470.291473 144.0
470.354401 100.0
470.399506 192.0
470.53183 168.0
470.571075 168.0
470.63623 160.0
470.787384 144.0
470.991577 148.0
471.205109 180.0
471.373688 176.0
471.442078 196.0
471.492828 212.0
471.54718 124.0
471.612823 208.0
471.682709 140.0
471.754089 140.0
471.868286 156.0
471.985138 268.0
472.081848 220.0
472.138397 220.0
472.299835 432.0
472.369049 344.0
472.421844 112.0
472.502838 140.0
472.520477 120.0
472.586578 200.0
472.624023 124.0
472.759186 252.0
472.79599 288.0
472.851593 108.0
472.93454 640.0
472.987396 124.0
473.047272 212.0
473.103058 192.0
473.150665 156.0
473.202179 200.0
473.232422 224.0
473.286591 168.0
473.323059 304.0
473.385834 236.0
473.525024 216.0
473.579132 348.0
473.617554 496.0
473.674011 376.0
473.730988 228.0
473.811218 204.0
473.84433 204.0
473.888489 336.0
473.947174 228.0
474.091309 268.0
474.160706 368.0
474.250153 340.0
474.32193 572.0
474.397491 452.0
474.442657 208.0
474.494568 332.0
474.543091 360.0
474.652374 248.0
474.728424 804.0
474.788086 568.0
474.833557 344.0
474.867584 620.0
474.91861 576.0
474.994263 396.0
475.074829 724.0
475.129089 1004.0
475.214844 244648.0
475.322876 200.0
475.370636 276.0
475.505035 268.0
475.538879 240.0
475.618591 1092.0
475.666779 560.0
475.711761 464.0
475.74826 340.0
475.817322 240.0
475.86203 192.0
475.936066 9476.0
475.983063 528.0
476.083527 400.0
476.13974 496.0
476.217255 143252.0
476.332916 236.0
476.370667 456.0
476.444122 96.0
476.486542 96.0
476.606659 528.0
476.646942 340.0
476.69986 196.0
476.732452 148.0
476.819183 180.0
476.860291 156.0
476.903381 284.0
476.937347 468.0
476.981689 324.0
477.017212 248.0
477.084686 160.0
477.214203 44564.0
477.328766 452.0
477.388733 160.0
477.50296 164.0
477.607971 184.0
477.704193 132.0
477.760712 220.0
477.807281 104.0
477.91629 156.0
478.00177 128.0
478.087463 172.0
478.212494 5176.0
478.326996 372.0
478.392944 196.0
478.442505 136.0
478.477264 220.0
478.554138 232.0
478.625092 104.0
478.666321 480.0
478.701019 168.0
478.762604 300.0
478.800964 212.0
478.907074 132.0
478.995331 204.0
479.046417 256.0
479.093292 512.0
479.216858 828.0
479.382477 204.0
479.556671 248.0
479.614136 144.0
479.734467 180.0
479.804108 224.0
479.902313 96.0
479.982452 132.0
480.07251 208.0
480.163605 216.0
480.248596 324.0
480.365112 240.0
480.490204 164.0
480.666046 144.0
480.724457 136.0
480.931366 148.0
480.975067 136.0
481.104614 196.0
481.207092 160.0
481.255157 204.0
481.370972 108.0
481.478516 124.0
481.61087 136.0
481.725189 136.0
481.934204 108.0
481.989716 112.0
483.135101 112.0
484.476593 96.0
485.708069 152.0
486.301239 96.0
487.729187 132.0
488.343018 156.0
490.186462 124.0
490.897369 212.0
491.06662 180.0
491.459229 128.0
495.287109 152.0
497.163361 132.0
500.286163 152.0
503.956665 192.0
512.923401 148.0
525.549377 144.0
546.454529 140.0
614.430115 144.0
628.955383 140.0
634.819031 140.0
670.190979 152.0
697.144592 96.0
716.396118 156.0
737.452515 140.0
764.367004 172.0
768.259644 108.0
802.462891 196.0
829.889221 116.0
832.502563 144.0
835.433899 148.0
933.594849 148.0
1010.941406 148.0
1013.607361 144.0
1018.163574 108.0
1068.74353 160.0
1245.496582 160.0
1286.713135 100.0
1334.504028 152.0
1389.851685 200.0
1392.435059 140.0
1435.776611 160.0
1436.968384 192.0
1476.05603 164.0
1485.415039 188.0
1485.645142 176.0
1491.058472 172.0
1511.184937 180.0
1514.877808 148.0
1547.439453 184.0
1560.046875 172.0
1563.759644 176.0
1580.830078 184.0
1594.653198 196.0
1607.993774 168.0
1654.787476 148.0
1668.173584 172.0
1671.410522 160.0
1698.0177 168.0
1748.59021 168.0
1753.437378 164.0
1795.744141 232.0
1797.138916 176.0
1799.170044 240.0
1801.602295 212.0
1801.661377 184.0
1807.309204 152.0
1808.722534 212.0
1823.268433 208.0
1831.180664 184.0
1839.5625 184.0
1848.682251 188.0
1849.041626 160.0
1901.981323 168.0
1912.881714 188.0
1915.99939 152.0
1922.94043 148.0
1928.661377 212.0
1933.121704 184.0
1934.215698 236.0
1937.201782 152.0
1940.42688 164.0
1944.286377 172.0
1949.951172 172.0
1950.329102 232.0
1964.276855 176.0
1967.568481 156.0
1969.246338 192.0
1978.044189 452.0
1986.577881 148.0
2001.901001 180.0
