>compound MLS001401434-01!VINCRISTINE SULFATE
>formula C46H56N4O10
>ionization [M+H]+
>parentmass 825.4069204440905
#inchi InChI=1S/C46H56N4O10/c1-7-42(55)22-28-23-45(40(53)58-5,36-30(14-18-48(24-28)25-42)29-12-9-10-13-33(29)47-36)32-20-31-34(21-35(32)57-4)50(26-51)38-44(31)16-19-49-17-11-15-43(8-2,37(44)49)39(60-27(3)52)46(38,56)41(54)59-6/h9-13,15,20-21,26,28,37-39,47,55-56H,7-8,14,16-19,22-25H2,1-6H3/t28-,37-,38+,39+,42-,43+,44+,45-,46-/m0/s1
#inchikey OGWKCGZFUXNPDA
#origInchi InChI=1S/C46H56N4O10.H2O4S/c1-7-42(55)22-28-23-45(40(53)58-5,36-30(14-18-48(24-28)25-42)29-12-9-10-13-33(29)47-36)32-20-31-34(21-35(32)57-4)50(26-51)38-44(31)16-19-49-17-11-15-43(8-2,37(44)49)39(60-27(3)52)46(38,56)41(54)59-6;1-5(2,3)4/h9-13,15,20-21,26,28,37-39,47,55-56H,7-8,14,16-19,22-25H2,1-6H3;(H2,1,2,3,4)/t28-,37-,38+,39+,42-,43+,44+,45-,46-;/m0./s1
#Ion_Source LC-ESI
#Instrument qTof
#Compound_Source NIH Pharmacologically Active Library
#PI Dorrestein
#Data_Collector VP/LMS
#Scan -1
#Precursor_MZ 825.408
#ExactMass 824.4
#Charge 1
#CAS_Number N/A
#Pubmed_ID N/A
#Smiles CC[C@]1(O)C[C@@H]2CN(C1)CCc3c([nH]c4ccccc34)[C@@](C2)(C(=O)OC)c5cc6c(cc5OC)N(C=O)[C@@H]7[C@@]86CCN9CC=C[C@](CC)([C@H]98)[C@@H](OC(=O)C)[C@]7(O)C(=O)OC.OS(=O)(=O)O
#INCHI_AUX N/A
#Library_Class 1
#SpectrumID CCMSLIB00000084765
#IonMode Positive
#UpdateWorkflowName UPDATE-SINGLE-ANNOTATED-GOLD
#LibraryQualityString Gold
#TaskID d252d724072548979f1f6f1ced849daf
##Scan# 1597
#SpectrumFile p3-A05_GA5_01_18227.mzXML
#LibraryName Pharm_Active_Library.mgf
#MQScore -1
#Organism Pharm_Active_Library
#TIC_Query 0
#RT_Query -1
#MZErrorPPM -1
#SharedPeaks 0
#MassDiff 0
#LibMZ -1
#SpecMZ 825.408
#SpecCharge 0
#internalFilename spec-00000.mgf

>collision 10
45.295898 272.0
45.830608 160.0
46.304779 148.0
46.335934 60.0
48.017002 196.0
49.275051 32.0
51.940983 32.0
52.298775 204.0
57.498615 144.0
59.144718 176.0
60.941391 104.0
62.437393 124.0
62.550678 40.0
62.673519 172.0
63.194569 152.0
64.597778 136.0
64.608978 172.0
64.753044 148.0
67.785927 180.0
68.294868 152.0
70.786041 128.0
72.500984 192.0
74.552322 240.0
74.708786 180.0
77.259041 220.0
78.827408 84.0
85.269478 184.0
86.36467 188.0
86.509003 148.0
86.725723 176.0
90.147018 224.0
90.160248 220.0
90.237747 68.0
91.003189 132.0
91.054459 172.0
92.379181 108.0
92.950119 192.0
93.06913 144.0
95.084763 204.0
95.648148 120.0
96.287666 132.0
96.9254 128.0
98.059303 140.0
98.096756 184.0
100.939911 132.0
105.068527 216.0
107.075279 184.0
108.081131 388.0
110.095062 344.0
111.437599 72.0
111.527962 56.0
113.083618 196.0
115.05291 156.0
116.064903 192.0
116.937469 112.0
117.05764 184.0
121.09819 244.0
122.097534 1124.0
122.432449 112.0
123.524979 144.0
123.819359 144.0
123.921257 152.0
124.113968 220.0
125.118332 192.0
126.086395 192.0
126.126755 136.0
126.251831 32.0
128.112549 160.0
131.550461 172.0
132.078308 236.0
133.995148 72.0
134.061966 204.0
134.096527 280.0
135.080734 208.0
135.107849 148.0
136.074341 188.0
136.114609 172.0
137.553925 120.0
138.129501 872.0
139.510956 204.0
139.706146 152.0
140.108521 396.0
140.165253 124.0
140.825806 196.0
141.116959 208.0
142.123077 240.0
143.078522 212.0
144.081665 732.0
144.10643 48.0
144.646896 48.0
144.673233 44.0
146.093903 120.0
146.139618 92.0
148.08287 144.0
148.109512 192.0
149.084839 132.0
149.113998 180.0
150.129181 264.0
152.103607 96.0
152.518723 196.0
154.125122 172.0
154.917221 40.0
155.12291 144.0
156.078339 480.0
156.108582 172.0
156.13707 560.0
156.514175 136.0
157.094864 72.0
158.094284 124.0
160.112686 132.0
162.093216 156.0
162.116013 148.0
163.293976 56.0
164.10405 324.0
165.091934 172.0
166.116425 160.0
166.922882 232.0
167.073242 356.0
167.136368 248.0
168.084396 156.0
169.074722 184.0
170.092911 44.0
170.334396 112.0
171.088516 144.0
172.366516 96.0
172.790085 152.0
172.842407 32.0
173.97464 140.0
174.091202 176.0
176.199966 68.0
179.056793 188.0
179.725876 104.0
180.075592 60.0
180.094284 104.0
180.112976 196.0
181.148178 140.0
182.097687 148.0
182.436249 76.0
183.108932 216.0
185.07753 176.0
185.256287 168.0
186.094284 144.0
186.126877 156.0
187.699631 104.0
189.194122 164.0
190.090363 196.0
191.952637 204.0
192.107086 140.0
192.949371 80.0
193.073807 116.0
193.101456 156.0
193.965317 204.0
194.074738 160.0
194.098389 188.0
194.123352 148.0
194.575623 204.0
194.906128 148.0
195.091293 148.0
196.113907 172.0
197.554733 192.0
198.092209 156.0
198.125824 188.0
199.127213 180.0
199.441879 68.0
199.711807 128.0
201.083923 148.0
202.082306 152.0
202.121506 144.0
204.832291 128.0
205.080185 180.0
206.117096 152.0
207.103088 144.0
208.132629 228.0
210.184921 228.0
212.070267 196.0
212.125519 96.0
212.682434 148.0
214.090546 184.0
215.080856 196.0
217.610153 140.0
218.138947 84.0
219.37825 52.0
220.124695 204.0
221.112076 132.0
221.354813 136.0
222.116257 156.0
222.543823 144.0
223.054794 128.0
223.121719 140.0
224.129929 1608.0
224.290085 32.0
224.495789 40.0
224.991089 108.0
225.13765 1588.0
226.079071 144.0
226.145157 660.0
226.923767 116.0
227.09169 164.0
227.12468 196.0
228.102966 488.0
228.127609 160.0
229.102905 128.0
230.091797 160.0
231.105957 152.0
234.140274 180.0
236.151062 224.0
236.919357 124.0
237.504852 80.0
238.14476 272.0
240.683884 44.0
241.100906 112.0
242.115616 124.0
243.741104 148.0
246.086472 168.0
246.11145 128.0
246.927063 84.0
247.869339 144.0
247.979019 88.0
248.942139 72.0
249.121994 196.0
250.143143 148.0
252.104904 116.0
253.095001 76.0
253.132996 164.0
253.178009 168.0
254.106064 148.0
254.128265 204.0
254.179031 152.0
255.119141 192.0
255.150925 136.0
256.10556 72.0
256.395508 80.0
256.605865 44.0
257.384369 88.0
260.14093 208.0
260.176239 56.0
260.944061 88.0
261.130585 144.0
262.147888 132.0
263.151917 208.0
264.165039 124.0
265.172302 368.0
265.292694 44.0
266.12323 132.0
266.184296 128.0
267.137177 188.0
267.176239 60.0
267.199005 136.0
267.537445 72.0
268.120483 140.0
268.779205 96.0
270.167755 128.0
270.639038 116.0
271.100891 124.0
271.138885 164.0
271.17627 148.0
272.045502 52.0
273.58725 44.0
276.180908 220.0
277.170746 264.0
278.667145 152.0
279.115845 144.0
279.155762 120.0
279.188995 160.0
280.138519 200.0
280.194214 120.0
281.061096 132.0
281.101135 140.0
282.166626 112.0
283.173828 136.0
283.240814 56.0
284.191254 156.0
286.09848 88.0
291.489746 56.0
292.717712 68.0
294.952332 192.0
295.160858 132.0
296.125916 120.0
296.183319 184.0
298.036682 92.0
298.920349 148.0
299.360992 140.0
301.727936 120.0
301.942322 160.0
302.149841 76.0
303.147034 148.0
303.576874 128.0
304.163208 120.0
305.0177 176.0
305.158691 168.0
306.165863 184.0
306.329559 68.0
306.489807 84.0
307.256836 136.0
308.105164 96.0
308.951202 32.0
309.152924 140.0
309.183655 164.0
309.7388 192.0
312.118225 132.0
313.156372 100.0
313.209198 84.0
314.224457 44.0
314.676208 140.0
315.135345 156.0
317.122437 136.0
317.156006 72.0
318.149231 116.0
318.181183 208.0
318.859619 124.0
319.513885 88.0
319.787872 140.0
320.222229 48.0
321.145325 168.0
321.173859 80.0
322.677277 76.0
323.170471 168.0
323.403442 160.0
323.876068 44.0
324.151917 160.0
325.676605 160.0
326.129333 112.0
327.143707 120.0
329.159088 116.0
330.123901 104.0
332.173859 148.0
332.289948 120.0
333.074646 200.0
333.183014 176.0
334.055481 144.0
334.09787 184.0
334.150085 156.0
334.89267 80.0
335.140625 132.0
335.179291 272.0
335.373627 128.0
336.185425 188.0
337.129089 140.0
337.193298 128.0
338.189667 184.0
338.841492 72.0
341.124084 176.0
341.193939 216.0
342.179901 136.0
343.137787 120.0
345.164825 416.0
346.008392 124.0
346.115753 168.0
346.734406 172.0
347.142181 160.0
347.175568 148.0
348.158997 108.0
349.162384 180.0
350.168549 148.0
351.13623 148.0
351.964691 180.0
352.158691 172.0
352.188751 140.0
353.185974 716.0
353.381256 68.0
353.695587 148.0
353.957642 60.0
353.98761 64.0
354.14563 124.0
354.183502 424.0
355.040619 68.0
355.147736 244.0
355.196716 400.0
355.40448 48.0
355.524567 56.0
356.19577 208.0
357.170715 136.0
357.538879 56.0
358.152557 96.0
358.518005 48.0
359.472076 128.0
359.687195 96.0
360.151642 184.0
360.835602 64.0
361.032227 152.0
361.206207 136.0
362.160034 108.0
363.039307 152.0
363.172028 44.0
364.158752 172.0
364.534943 120.0
366.134766 176.0
366.19281 112.0
367.203613 104.0
368.14624 196.0
369.17038 176.0
370.138519 184.0
371.142395 176.0
372.136139 164.0
373.096619 144.0
373.21579 40.0
373.761993 112.0
375.001984 156.0
375.166748 216.0
375.441498 112.0
376.162994 140.0
376.556824 180.0
376.923828 48.0
377.186798 176.0
378.192291 48.0
378.641388 120.0
379.162567 168.0
379.703278 148.0
380.164307 120.0
381.151245 96.0
382.16217 132.0
383.137299 268.0
383.197815 176.0
384.162415 140.0
384.199768 132.0
385.177063 124.0
386.168457 116.0
388.483368 92.0
389.174103 140.0
389.378296 128.0
389.621826 196.0
390.187744 176.0
391.159424 112.0
391.289337 144.0
391.643738 104.0
393.137939 128.0
393.165985 228.0
394.378052 108.0
394.844574 36.0
395.197357 376.0
396.19519 268.0
396.772919 84.0
397.189178 144.0
397.788452 80.0
397.979034 44.0
398.106079 48.0
398.14978 164.0
398.195526 284.0
398.364258 92.0
398.686066 196.0
399.206848 112.0
399.338074 52.0
399.779663 232.0
400.137909 140.0
400.337006 136.0
400.759216 120.0
401.153778 192.0
403.17041 232.0
404.161041 156.0
404.209076 140.0
404.817505 88.0
405.165985 148.0
406.128021 168.0
407.123352 104.0
407.199646 92.0
408.200287 148.0
408.353119 132.0
409.201355 432.0
411.032043 44.0
411.194641 236.0
411.423553 68.0
411.500244 68.0
411.839447 92.0
412.158051 172.0
413.199982 244.0
413.707611 172.0
415.211792 512.0
415.283844 168.0
416.164429 160.0
416.213165 40.0
417.189178 196.0
418.164429 156.0
418.429016 104.0
419.194794 300.0
419.602356 96.0
421.197937 164.0
421.283722 168.0
422.174744 172.0
422.227905 136.0
423.184998 160.0
423.226349 236.0
424.16861 152.0
424.197296 92.0
424.237549 136.0
425.206299 220.0
426.220612 108.0
426.257599 128.0
427.125061 96.0
427.227905 120.0
427.421265 148.0
427.540588 40.0
427.841064 92.0
428.137512 60.0
428.178711 140.0
429.163574 120.0
430.174316 92.0
430.248627 152.0
431.144928 232.0
433.176544 156.0
434.113098 168.0
434.303864 56.0
435.009277 92.0
435.191467 176.0
435.461853 156.0
436.185486 124.0
437.199982 100.0
438.140656 196.0
438.197754 256.0
438.236481 128.0
438.924225 68.0
439.166107 84.0
439.218475 108.0
439.871246 48.0
440.213593 184.0
440.518494 128.0
440.861084 176.0
441.044983 36.0
441.203827 108.0
442.203552 260.0
443.392975 124.0
443.564819 76.0
444.210571 84.0
444.764435 80.0
444.873596 40.0
445.196869 120.0
445.327087 112.0
445.570709 88.0
446.190979 236.0
446.222137 92.0
447.004456 60.0
447.875916 72.0
448.191895 120.0
448.23822 108.0
449.174164 72.0
449.233215 136.0
451.192688 160.0
452.178009 128.0
452.220581 164.0
453.172882 148.0
453.208099 104.0
454.197876 108.0
454.241699 132.0
454.326538 72.0
455.217072 432.0
455.99527 176.0
456.165283 108.0
456.212158 168.0
456.947784 212.0
457.225342 140.0
457.271179 84.0
458.189758 144.0
458.28891 148.0
458.327271 52.0
458.416748 108.0
458.723633 132.0
459.184113 96.0
460.222229 244.0
460.285095 136.0
463.668854 196.0
463.883148 84.0
464.200439 80.0
464.239014 104.0
465.174347 184.0
466.157867 72.0
466.265289 112.0
467.176208 188.0
467.228455 128.0
469.193817 216.0
469.238068 212.0
470.237823 124.0
470.827606 84.0
471.181793 116.0
471.212036 108.0
471.268188 156.0
474.934875 172.0
475.164764 148.0
475.781036 44.0
476.228302 208.0
477.127777 80.0
477.214508 152.0
477.275757 108.0
477.475647 40.0
478.21524 140.0
478.264801 156.0
481.236176 180.0
482.262421 52.0
483.181061 92.0
483.235931 88.0
484.233276 228.0
484.26947 160.0
485.164917 164.0
486.274658 152.0
487.249481 148.0
488.278046 228.0
489.202057 88.0
489.263672 92.0
490.194672 148.0
490.223846 128.0
490.400146 132.0
491.265686 96.0
492.231537 232.0
492.273285 340.0
493.182739 104.0
493.23822 96.0
493.268372 88.0
494.202301 200.0
494.261536 128.0
494.304077 144.0
495.217041 284.0
496.197845 120.0
496.250824 124.0
496.439209 136.0
496.621033 36.0
497.024719 140.0
497.233307 60.0
498.2146 120.0
498.254578 188.0
500.188995 88.0
500.23349 116.0
501.213287 128.0
502.264771 112.0
503.215942 144.0
503.256104 92.0
504.214569 92.0
504.240051 164.0
505.200195 80.0
505.281708 164.0
506.050507 88.0
506.254517 116.0
506.305756 204.0
506.417725 156.0
507.206299 96.0
507.250702 164.0
507.295959 104.0
507.358704 144.0
508.210846 136.0
508.258453 124.0
508.933472 144.0
509.215698 184.0
509.270264 144.0
510.204926 100.0
510.239166 200.0
510.29483 144.0
511.131226 92.0
511.230438 92.0
511.284424 96.0
511.734558 108.0
512.225403 92.0
512.306519 176.0
512.599365 132.0
513.02301 104.0
513.198853 80.0
513.230408 200.0
513.266479 188.0
514.304077 196.0
514.872986 120.0
515.234314 280.0
515.265808 144.0
516.291748 272.0
517.079163 44.0
517.282837 308.0
518.279175 152.0
518.351685 108.0
519.199402 160.0
519.240234 136.0
519.335449 168.0
520.275513 140.0
521.259644 80.0
521.537537 52.0
521.755737 28.0
522.237732 152.0
522.469727 96.0
523.006714 136.0
523.218262 144.0
523.263611 112.0
524.228149 124.0
524.245605 120.0
524.482483 172.0
524.683044 60.0
525.184631 104.0
525.223267 144.0
526.267639 372.0
526.901001 44.0
527.303101 104.0
527.865417 32.0
528.235413 140.0
528.279175 188.0
529.613647 72.0
530.246094 112.0
530.28717 76.0
530.718079 92.0
531.27301 52.0
532.2453 84.0
532.254639 72.0
532.305664 148.0
532.512329 48.0
534.226196 92.0
534.238098 80.0
534.304871 108.0
535.09198 148.0
535.243958 60.0
535.276184 148.0
535.828857 48.0
536.119141 112.0
536.252075 276.0
536.96283 56.0
537.211914 112.0
537.295532 160.0
537.368774 124.0
537.40564 64.0
538.220764 272.0
538.267273 408.0
539.26532 96.0
539.377563 204.0
540.22522 156.0
540.272949 116.0
541.242004 124.0
542.252258 148.0
542.302856 116.0
543.244141 100.0
543.643127 108.0
544.221313 128.0
544.276245 128.0
545.277039 188.0
546.165894 188.0
546.215393 120.0
546.259399 116.0
548.233032 100.0
548.270264 136.0
548.349487 156.0
548.852966 68.0
549.19342 132.0
549.263367 156.0
549.314148 216.0
549.384644 116.0
550.256592 120.0
550.406738 100.0
551.224182 208.0
551.280273 220.0
551.850525 116.0
551.934692 60.0
552.234009 72.0
552.273193 292.0
552.332214 100.0
553.238892 120.0
553.338318 104.0
553.525635 136.0
554.270264 136.0
554.281555 220.0
555.198547 100.0
555.251221 120.0
555.292358 84.0
555.550293 96.0
556.262024 560.0
556.615723 56.0
557.285339 192.0
557.34375 112.0
557.700928 132.0
558.314697 132.0
559.008301 112.0
559.286011 144.0
559.323669 208.0
560.274841 124.0
560.32196 88.0
560.585815 152.0
561.179749 76.0
562.302002 124.0
563.076721 68.0
563.204224 92.0
563.262268 112.0
563.298706 248.0
563.345947 136.0
564.201294 52.0
564.26593 268.0
565.201477 172.0
565.260742 116.0
565.57782 160.0
566.283081 152.0
567.262817 112.0
567.292847 320.0
567.956421 96.0
568.2948 168.0
568.369141 112.0
569.249756 112.0
570.223267 312.0
570.274414 116.0
570.307556 152.0
571.297852 212.0
572.289062 192.0
572.819031 132.0
573.22876 164.0
573.28595 60.0
574.273682 132.0
575.282166 252.0
575.862122 116.0
576.244324 88.0
576.285461 144.0
576.317078 292.0
576.760376 72.0
576.961182 128.0
577.228943 88.0
577.301514 152.0
578.216187 140.0
578.252686 108.0
578.295715 160.0
579.248596 92.0
580.277222 172.0
580.892761 68.0
581.156616 68.0
581.233398 140.0
581.288513 172.0
581.473328 112.0
582.279114 128.0
582.447998 108.0
582.673157 64.0
583.298462 88.0
584.948364 60.0
585.208374 160.0
585.280579 64.0
585.723633 132.0
585.776611 148.0
587.294983 76.0
587.912537 96.0
588.269653 216.0
588.304138 168.0
589.312805 108.0
589.346619 116.0
590.066772 108.0
590.272217 132.0
590.313171 96.0
591.297241 108.0
592.281738 128.0
592.317444 180.0
593.228027 48.0
593.266418 148.0
593.303528 104.0
594.251282 432.0
594.285278 140.0
595.149231 68.0
595.260864 64.0
596.038086 128.0
596.241089 172.0
596.290771 116.0
596.485168 168.0
597.268066 124.0
598.265625 148.0
598.310852 120.0
599.291931 316.0
599.653809 160.0
600.282532 148.0
600.375366 112.0
601.295776 120.0
601.521912 92.0
601.687866 92.0
602.268982 120.0
603.23645 140.0
604.30188 204.0
604.380859 72.0
605.294739 204.0
605.326965 128.0
605.967224 140.0
606.26123 152.0
606.318848 136.0
606.383728 80.0
607.29187 160.0
608.291748 100.0
609.210022 72.0
609.296204 272.0
609.676758 56.0
609.834045 120.0
610.265503 312.0
610.468262 136.0
612.308777 172.0
612.372803 152.0
613.264587 116.0
613.312988 136.0
614.226074 88.0
614.325989 152.0
615.282104 152.0
615.484497 148.0
616.30426 240.0
617.270081 136.0
617.36438 172.0
618.314758 164.0
619.252747 156.0
619.295593 136.0
619.334656 136.0
619.847229 56.0
620.26355 64.0
620.302185 120.0
620.803955 112.0
622.05426 96.0
622.250671 224.0
622.299316 104.0
622.515991 104.0
623.077209 144.0
623.251648 80.0
623.327087 164.0
624.25177 208.0
624.269836 72.0
624.364624 60.0
624.568542 136.0
624.628235 56.0
625.289978 88.0
626.285706 104.0
627.295471 352.0
627.332153 128.0
628.314575 120.0
628.349487 120.0
628.823547 152.0
628.963257 104.0
629.152954 128.0
629.332703 64.0
630.076843 92.0
630.266724 104.0
630.331665 200.0
631.326416 104.0
631.370056 132.0
632.251953 104.0
633.288269 152.0
633.322693 120.0
634.31543 128.0
634.370605 128.0
634.957214 76.0
635.288269 112.0
635.33844 92.0
636.176514 44.0
636.31604 60.0
637.267334 196.0
637.323486 116.0
638.288025 116.0
638.362061 96.0
638.608459 152.0
639.247375 80.0
640.244141 148.0
640.969543 80.0
641.244873 132.0
641.493652 104.0
641.730591 152.0
642.317871 176.0
643.304626 156.0
643.681519 56.0
644.112549 152.0
644.324768 132.0
644.425781 60.0
645.332336 172.0
646.296509 124.0
646.339722 264.0
647.005066 136.0
647.268372 72.0
647.354431 144.0
648.306824 140.0
648.377747 64.0
649.284119 160.0
649.366394 136.0
650.355774 188.0
651.020813 36.0
651.336609 156.0
652.255432 36.0
652.296082 160.0
652.428223 60.0
654.277588 124.0
654.75354 36.0
655.296387 148.0
655.512573 196.0
656.312866 92.0
657.315613 144.0
658.31311 48.0
658.992493 116.0
659.288818 60.0
659.365173 116.0
659.376099 108.0
660.297058 112.0
660.346558 256.0
661.257812 100.0
661.380615 108.0
661.815796 100.0
662.314026 180.0
662.378784 136.0
663.328979 492.0
664.345825 324.0
665.337097 92.0
665.407715 136.0
666.363525 76.0
666.760803 192.0
667.300537 112.0
667.742737 100.0
668.339478 152.0
668.735718 144.0
669.338928 116.0
670.34021 160.0
671.271606 132.0
671.383789 36.0
671.574646 132.0
673.024719 168.0
673.324097 216.0
673.36908 292.0
673.711609 116.0
673.758118 136.0
673.897583 160.0
674.332031 56.0
674.378174 132.0
674.848633 44.0
675.272644 84.0
675.317078 248.0
676.330933 80.0
676.426453 156.0
677.362305 412.0
678.338379 140.0
679.317566 128.0
679.353271 84.0
680.347595 288.0
680.470032 40.0
681.493225 108.0
681.75824 76.0
681.929749 108.0
682.26239 104.0
682.306458 92.0
682.485962 160.0
683.125671 108.0
683.229675 44.0
683.321777 148.0
683.359741 172.0
683.401367 96.0
684.280945 112.0
684.348633 92.0
684.39032 164.0
684.624634 132.0
684.935425 184.0
685.239258 108.0
685.48938 100.0
685.546692 180.0
686.219055 48.0
686.281616 136.0
686.474548 92.0
686.735352 132.0
687.35675 516.0
687.430176 148.0
687.627502 96.0
687.726685 132.0
688.315613 108.0
688.366638 132.0
688.520264 148.0
689.05304 60.0
689.324707 120.0
689.758484 64.0
690.368042 96.0
690.694458 40.0
691.254272 52.0
691.361389 152.0
691.793335 96.0
691.902588 288.0
693.029297 108.0
693.315308 180.0
693.951782 44.0
694.339783 104.0
694.680725 140.0
695.06897 140.0
695.319519 140.0
695.593811 88.0
696.338074 272.0
697.353577 112.0
698.354919 132.0
699.309937 136.0
699.409912 96.0
700.410339 160.0
700.510437 124.0
700.826538 120.0
701.293335 180.0
702.31842 128.0
703.160461 80.0
703.34729 172.0
703.711548 140.0
704.218506 60.0
704.358459 176.0
704.783752 148.0
705.021545 88.0
705.169495 120.0
705.227661 120.0
705.264648 128.0
705.363708 1396.0
705.624146 40.0
706.19519 52.0
706.369263 764.0
706.539062 60.0
706.861816 136.0
706.935852 52.0
707.357849 268.0
707.370178 168.0
707.465149 164.0
708.232971 88.0
708.365112 244.0
709.345703 96.0
710.316101 104.0
710.522949 60.0
712.556335 140.0
714.613831 100.0
715.044861 128.0
715.335449 224.0
716.088379 148.0
716.346985 116.0
716.445251 136.0
716.86084 104.0
717.361816 224.0
717.809692 48.0
718.332336 132.0
718.684448 100.0
718.8125 60.0
719.282166 56.0
719.328491 148.0
719.445496 140.0
720.351868 148.0
720.392883 80.0
720.692017 104.0
721.269165 80.0
721.654114 60.0
721.712891 52.0
722.980652 92.0
723.023499 64.0
723.37207 1304.0
723.676514 68.0
724.381531 632.0
724.538818 44.0
725.128235 80.0
725.386719 396.0
726.372131 128.0
726.457947 136.0
726.924744 40.0
727.042786 44.0
727.203796 44.0
727.778198 84.0
728.245422 60.0
729.19635 56.0
730.368469 128.0
730.406128 140.0
731.202454 96.0
732.386902 84.0
733.350037 540.0
734.377319 368.0
734.575317 92.0
735.32666 316.0
735.370728 148.0
736.36731 112.0
737.382568 88.0
737.864136 112.0
738.374756 136.0
738.502197 148.0
739.449036 152.0
740.158203 96.0
740.667236 32.0
740.981445 88.0
741.447449 32.0
741.615479 168.0
742.572205 104.0
743.350891 44.0
743.665649 148.0
745.887146 128.0
746.653809 112.0
746.909424 160.0
747.370605 328.0
747.464294 156.0
747.638428 136.0
747.769043 92.0
748.302551 64.0
748.372742 168.0
748.656433 144.0
749.195679 136.0
749.379639 256.0
750.160217 92.0
750.416443 108.0
751.289062 164.0
752.35321 88.0
753.166809 56.0
754.15033 88.0
754.336182 112.0
754.543884 76.0
754.757141 88.0
755.703369 132.0
756.168518 116.0
757.066345 68.0
759.966003 84.0
761.415222 36.0
763.368774 156.0
763.95459 180.0
764.262695 108.0
764.317688 148.0
764.400208 36.0
765.060669 108.0
765.15979 76.0
765.384399 4584.0
765.526184 96.0
765.600281 48.0
765.815063 48.0
765.865295 68.0
765.952759 48.0
765.991333 152.0
766.162109 40.0
766.21167 60.0
766.391968 2116.0
766.619446 88.0
767.14856 44.0
767.258789 32.0
767.387939 804.0
767.51239 100.0
767.782593 40.0
767.931519 80.0
768.074951 40.0
768.218323 52.0
768.40271 120.0
768.742493 44.0
768.880432 44.0
770.288391 132.0
770.432007 40.0
771.104553 80.0
771.891113 104.0
775.359741 200.0
776.330383 156.0
776.373962 120.0
777.364014 192.0
777.41394 120.0
780.268921 96.0
780.391235 148.0
783.285095 96.0
783.382263 584.0
783.513489 144.0
784.402527 280.0
784.471985 92.0
785.400269 104.0
786.072693 68.0
786.424255 120.0
786.893127 104.0
788.149841 40.0
788.272766 152.0
790.179382 120.0
790.587891 80.0
791.405151 96.0
793.052124 156.0
793.354797 136.0
793.60144 48.0
794.050049 36.0
794.380981 148.0
794.700806 168.0
795.357361 128.0
796.008606 44.0
796.620789 80.0
797.368103 112.0
797.840271 100.0
798.267578 52.0
798.424988 52.0
803.872498 120.0
803.951477 92.0
805.346008 92.0
806.962158 124.0
807.393372 3032.0
807.539185 88.0
808.149902 128.0
808.405701 1056.0
808.698792 128.0
808.823303 88.0
808.869141 128.0
808.993164 56.0
809.40271 552.0
809.548035 32.0
809.712219 116.0
810.290039 176.0
810.40332 32.0
810.907654 104.0
811.007568 76.0
811.083374 52.0
811.293091 64.0
812.035889 40.0
812.364868 88.0
813.011719 104.0
813.562256 52.0
815.129822 72.0
815.408264 96.0
815.817566 88.0
817.171082 80.0
817.245056 68.0
818.332153 108.0
818.821838 140.0
820.27478 56.0
821.483643 52.0
821.5578 76.0
821.791748 84.0
821.974304 132.0
822.094116 108.0
822.168335 28.0
822.208252 48.0
822.290588 104.0
822.425171 132.0
822.624939 164.0
822.733398 136.0
823.007446 124.0
823.270142 32.0
823.392151 408.0
823.715576 168.0
823.867615 52.0
823.888977 80.0
824.0896 164.0
824.258362 136.0
824.315491 120.0
824.366943 148.0
824.416382 164.0
824.555481 104.0
824.664124 116.0
824.709839 124.0
824.761292 124.0
824.812683 96.0
824.872742 152.0
824.984192 60.0
825.087097 184.0
825.147156 200.0
825.15802 100.0
825.18335 140.0
825.40448 16600.0
825.575745 104.0
825.711548 104.0
825.811707 144.0
825.864807 80.0
825.92511 88.0
825.986267 128.0
826.070557 176.0
826.207703 156.0
826.22345 84.0
826.242981 108.0
826.316223 176.0
826.406921 7608.0
826.544861 208.0
826.662354 88.0
826.697327 76.0
826.847229 128.0
826.904846 112.0
827.011108 140.0
827.131104 168.0
827.27124 96.0
827.416382 2964.0
827.650269 56.0
827.778259 80.0
827.902222 56.0
827.961975 68.0
828.051147 68.0
828.159973 136.0
828.211487 68.0
828.2901 72.0
828.41217 908.0
828.572388 80.0
828.612488 36.0
828.818726 56.0
828.984924 40.0
829.323059 80.0
829.406128 196.0
829.430542 96.0
829.444641 172.0
829.535156 48.0
829.787354 52.0
830.033936 56.0
830.114197 76.0
830.160095 100.0
830.263306 140.0
830.5271 88.0
830.624634 60.0
830.825439 128.0
830.899963 64.0
830.980286 36.0
831.085999 48.0
831.146729 72.0
831.330322 68.0
831.462341 76.0
831.525452 64.0
831.904297 32.0
832.013367 96.0
832.197083 116.0
832.283203 60.0
832.880432 40.0
833.230835 44.0
833.506653 36.0
833.615845 48.0
833.742249 28.0
833.960632 52.0
834.368774 88.0
834.54126 44.0
834.742493 68.0
834.909302 68.0
836.65271 88.0
837.021179 80.0
838.190491 76.0
839.337524 52.0
839.723938 112.0
844.193848 52.0
844.448303 56.0
845.715393 76.0
847.215149 56.0
848.28717 96.0
849.272949 136.0
853.698364 48.0
859.465149 92.0
871.109802 48.0
874.049377 96.0
875.90387 72.0
876.428162 44.0
909.302429 140.0
922.789734 152.0
931.060913 80.0
948.179688 40.0
950.295227 68.0
963.958435 40.0
973.181458 128.0
993.195068 84.0
999.496216 112.0
1010.980896 88.0
1011.537842 80.0
1023.11676 100.0
1024.75354 108.0
1043.171997 124.0
1053.928345 64.0
1066.357544 80.0
1067.040039 52.0
1068.18457 108.0
1080.056152 32.0
1080.343994 108.0
1081.534912 60.0
1088.576172 148.0
1104.360107 208.0
1104.525391 36.0
1116.197754 64.0
1116.324097 80.0
1120.644043 32.0
1121.663574 88.0
1145.431396 56.0
1147.203735 64.0
1159.396973 100.0
1166.863525 104.0
1176.496704 68.0
1180.09021 92.0
1183.997437 52.0
1202.873413 56.0
1209.839111 116.0
1211.369507 100.0
1221.977295 180.0
1225.291138 124.0
1228.721313 140.0
1230.891968 96.0
1234.80542 48.0
1243.710449 80.0
1263.519165 196.0
1291.690063 168.0
1292.054932 104.0
1314.739136 148.0
1332.123413 72.0
1338.727417 200.0
1352.401733 64.0
1365.645264 52.0
1381.60791 76.0
1409.026001 64.0
1419.939697 48.0
1424.878906 156.0
1454.618042 104.0
1464.685669 120.0
1470.518555 96.0
1478.841797 168.0
1488.309326 128.0
1498.615967 180.0
1503.381226 96.0
