>compound NCGC00160348-01!13-(3-(2-methoxyphenyl)-1-azapropyl) isoalantolactone
>formula C24H33NO3
>ionization [M+H]+
>parentmass 384.253998
#inchi InChI=1S/C24H33NO3/c1-16-7-6-11-24(2)14-22-18(13-20(16)24)19(23(26)28-22)15-25-12-10-17-8-4-5-9-21(17)27-3/h4-5,8-9,18-20,22,25H,1,6-7,10-15H2,2-3H3/t18-,19-,20?,22-,24-/m1/s1
#inchikey LYFSZLNQEISTTA
#Ion_Source LC-ESI
#Instrument qTOF
#Compound_Source Prestwick Phytochem Lib
#PI Dorrestein
#Data_Collector VVP/LMS
#Scan -1
#Precursor_MZ 384.254
#ExactMass 383.246
#Charge 1
#CAS_Number N/A
#Pubmed_ID N/A
#Smiles COC1=C(CCNC[C@@H]2[C@H]3CC4C(=C)CCC[C@]4(C)C[C@H]3OC2=O)C=CC=C1
#INCHI_AUX N/A
#Library_Class 1
#SpectrumID CCMSLIB00000078803
#IonMode Positive
#UpdateWorkflowName UPDATE-SINGLE-ANNOTATED-GOLD
#LibraryQualityString Gold
#TaskID 67c915c6594c435cadc1fe2b5358144d
##Scan# 2090
#SpectrumFile p1-D04_GD4_01_17912.mzXML
#LibraryName phytochem_lib.mgf
#MQScore -1
#Organism phytochem_lib
#TIC_Query 0
#RT_Query -1
#MZErrorPPM -1
#SharedPeaks 0
#MassDiff 0
#LibMZ -1
#SpecMZ 384.254
#SpecCharge 0
#internalFilename spec-00000.mgf

>collision 10
94.976883 200.0
94.995895 172.0
95.050629 208.0
95.088242 348.0
95.114258 276.0
95.133675 108.0
95.146286 56.0
95.246292 200.0
95.355103 144.0
95.421188 92.0
95.45813 152.0
95.487831 148.0
95.530167 204.0
95.589905 140.0
95.816261 148.0
95.835747 168.0
95.90313 152.0
95.948784 152.0
96.032631 124.0
96.056038 156.0
96.083351 220.0
96.118874 172.0
96.153595 176.0
96.184822 240.0
96.207397 212.0
96.237534 200.0
96.276581 176.0
96.323456 172.0
96.401604 216.0
96.437111 144.0
96.470009 100.0
96.491516 196.0
96.5653 224.0
96.619156 168.0
96.692993 252.0
96.729156 200.0
96.771286 128.0
96.895401 204.0
96.924065 172.0
96.941696 196.0
96.959335 128.0
96.992706 140.0
97.035782 140.0
97.059311 216.0
97.139717 64.0
97.188347 132.0
97.261375 148.0
97.322418 204.0
97.371323 164.0
97.436142 344.0
97.457756 172.0
97.594719 140.0
97.618935 68.0
97.638596 228.0
97.68187 172.0
97.717278 180.0
97.744827 180.0
97.847168 192.0
97.862923 132.0
97.898361 108.0
97.929871 160.0
97.943665 224.0
97.971237 160.0
97.993568 144.0
98.069763 172.0
98.107216 204.0
98.128899 208.0
98.191032 180.0
98.257095 116.0
98.284714 76.0
98.31234 120.0
98.332077 132.0
98.385368 140.0
98.549805 152.0
98.604614 196.0
98.65062 116.0
98.677757 164.0
98.739548 184.0
98.774658 228.0
98.867645 132.0
98.895348 128.0
98.914017 160.0
98.950516 184.0
98.993179 164.0
99.067619 224.0
99.117523 128.0
99.156784 152.0
99.217583 160.0
99.250053 152.0
99.275726 164.0
99.323326 188.0
99.424515 168.0
99.482071 172.0
99.529716 232.0
99.704529 204.0
99.740303 124.0
99.774445 160.0
99.831291 120.0
99.915291 140.0
99.969017 248.0
100.014786 228.0
100.049065 220.0
100.084465 140.0
100.120308 72.0
100.216423 268.0
100.277695 180.0
100.32354 160.0
100.378716 160.0
100.401299 104.0
100.455154 172.0
100.487068 392.0
100.540947 72.0
100.590843 200.0
100.632919 256.0
100.670471 204.0
100.712639 144.0
100.751389 208.0
100.772568 196.0
100.89048 160.0
100.950462 224.0
100.996666 160.0
101.054474 436.0
101.094498 56.0
101.120514 272.0
101.184563 164.0
101.212593 136.0
101.239334 216.0
101.254646 64.0
101.278679 192.0
101.292702 228.0
101.33477 156.0
101.410919 140.0
101.430962 456.0
101.523186 132.0
101.659599 144.0
101.697731 164.0
101.837013 204.0
101.864632 164.0
101.904518 176.0
101.960823 132.0
102.006737 128.0
102.044342 336.0
102.061333 268.0
102.087471 128.0
102.128899 148.0
102.240364 168.0
102.280617 128.0
102.296715 92.0
102.31282 168.0
102.389336 76.0
102.405449 200.0
102.432495 440.0
102.54953 164.0
102.582764 72.0
102.626144 216.0
102.669456 128.0
102.688065 180.0
102.717865 92.0
102.738037 96.0
102.777618 84.0
102.820763 88.0
102.837723 196.0
102.872757 184.0
102.889389 156.0
102.909409 144.0
102.930443 168.0
102.958038 172.0
103.004761 152.0
103.054611 19484.0
103.146782 172.0
103.200523 112.0
103.259163 160.0
103.287476 152.0
103.309731 36.0
103.329956 172.0
103.356262 156.0
103.382568 124.0
103.412331 204.0
103.452888 156.0
103.467575 188.0
103.501999 176.0
103.578957 192.0
103.627487 192.0
103.67012 152.0
103.692413 196.0
103.711914 168.0
103.786545 140.0
103.820557 192.0
103.854614 156.0
103.905731 140.0
103.96376 240.0
104.006485 184.0
104.031143 116.0
104.058624 1248.0
104.10627 184.0
104.139847 188.0
104.173294 136.0
104.213921 136.0
104.244766 240.0
104.297241 228.0
104.327736 80.0
104.390762 52.0
104.437538 40.0
104.463982 104.0
104.520943 200.0
104.545364 228.0
104.561646 152.0
104.59008 136.0
104.611961 216.0
104.630089 60.0
104.675644 168.0
104.705849 312.0
104.758041 340.0
104.787666 156.0
104.804077 148.0
104.855476 188.0
104.884041 156.0
104.903999 140.0
104.92421 120.0
104.938484 100.0
104.966179 192.0
104.990112 360.0
105.041824 332.0
105.071068 84532.0
105.132584 100.0
105.162476 216.0
105.181549 188.0
105.205582 52.0
105.222595 232.0
105.252289 60.0
105.296616 212.0
105.318047 40.0
105.342743 124.0
105.382736 204.0
105.40612 180.0
105.427582 204.0
105.459557 184.0
105.483551 180.0
105.499901 104.0
105.526482 148.0
105.577286 180.0
105.63002 108.0
105.653191 92.0
105.688057 72.0
105.722847 116.0
105.74263 136.0
105.756538 208.0
105.771965 172.0
105.79097 180.0
105.814728 260.0
105.827271 240.0
105.876381 92.0
105.913506 204.0
105.959663 164.0
105.979446 76.0
106.028442 216.0
106.073425 5996.0
106.099022 352.0
106.146881 48.0
106.191994 148.0
106.223289 156.0
106.257637 88.0
106.28891 100.0
106.309998 100.0
106.335609 84.0
106.362289 188.0
106.413795 44.0
106.450569 48.0
106.481621 144.0
106.514725 168.0
106.549416 64.0
106.579979 184.0
106.596413 264.0
106.612854 72.0
106.656013 168.0
106.678291 68.0
106.701241 124.0
106.71563 180.0
106.734131 80.0
106.770462 144.0
106.785545 108.0
106.831139 288.0
106.877426 312.0
106.900749 60.0
106.935738 160.0
106.978409 120.0
107.049484 724.0
107.08567 1484.0
107.127228 84.0
107.172546 180.0
107.191093 116.0
107.224068 140.0
107.248528 184.0
107.282364 56.0
107.318336 60.0
107.356003 108.0
107.398163 136.0
107.426567 168.0
107.488022 176.0
107.508659 172.0
107.646599 204.0
107.734436 204.0
107.822556 160.0
107.846626 192.0
107.934181 140.0
108.006569 168.0
108.051826 320.0
108.086922 288.0
108.176239 136.0
108.208389 192.0
108.250778 180.0
108.298027 196.0
108.322144 148.0
108.35405 144.0
108.377129 64.0
108.413757 156.0
108.437218 168.0
108.46624 148.0
108.563683 264.0
108.596863 152.0
108.613457 128.0
108.64872 216.0
108.700592 40.0
108.72757 116.0
108.766312 240.0
108.798141 184.0
108.868736 132.0
108.906113 132.0
108.924812 28.0
108.994019 128.0
109.062111 256.0
109.100838 416.0
109.170052 176.0
109.186035 216.0
109.234528 184.0
109.252174 184.0
109.303185 88.0
109.340637 160.0
109.401512 244.0
109.505112 132.0
109.532188 216.0
109.565704 136.0
109.75309 92.0
109.776031 100.0
109.843994 148.0
109.899094 108.0
109.953056 144.0
110.003441 164.0
110.050011 116.0
110.084869 100.0
110.105751 148.0
110.128723 172.0
110.16423 124.0
110.254074 140.0
110.281242 244.0
110.366486 148.0
110.410866 120.0
110.486168 168.0
110.517509 224.0
110.548653 176.0
110.638931 164.0
110.749916 144.0
110.793907 184.0
110.812759 84.0
110.849899 204.0
110.957367 76.0
111.066414 104.0
111.102074 148.0
111.165016 360.0
111.219582 192.0
111.325409 256.0
111.341354 136.0
111.366554 172.0
111.381256 52.0
111.400162 176.0
111.450584 164.0
111.473694 232.0
111.509422 180.0
111.55777 176.0
111.595612 40.0
111.641869 144.0
111.683929 84.0
111.74073 148.0
111.77018 160.0
111.879623 156.0
111.894363 176.0
111.957527 180.0
111.984909 196.0
112.004356 208.0
112.104988 52.0
112.164734 196.0
112.195618 180.0
112.290504 332.0
112.309486 136.0
112.372772 124.0
112.402809 172.0
112.431854 128.0
112.509949 204.0
112.52684 180.0
112.583351 168.0
112.644325 164.0
112.748627 136.0
112.782448 84.0
112.804138 152.0
112.881805 180.0
112.976982 136.0
113.000252 312.0
113.025642 192.0
113.053154 256.0
113.131981 180.0
113.152634 160.0
113.22039 188.0
113.24157 152.0
113.281815 48.0
113.316971 128.0
113.323853 76.0
113.329155 116.0
113.385635 208.0
113.400467 136.0
113.422646 320.0
113.498787 116.0
113.52343 192.0
113.542519 176.0
113.570084 160.0
113.676163 212.0
113.731339 160.0
113.805641 124.0
113.873589 132.0
113.892708 236.0
113.920319 140.0
113.950287 152.0
113.977684 272.0
113.994682 88.0
114.024437 72.0
114.067009 132.0
114.126465 148.0
114.158363 264.0
114.30088 200.0
114.332008 172.0
114.549973 124.0
114.577667 64.0
114.605362 116.0
114.671425 188.0
114.696999 88.0
114.780144 68.0
114.843094 108.0
114.916649 196.0
115.053391 504.0
115.149712 152.0
115.221947 112.0
115.304909 116.0
115.358711 220.0
115.39933 92.0
115.415504 128.0
115.424637 72.0
115.430077 116.0
115.578835 156.0
115.632492 128.0
115.712219 164.0
115.735245 108.0
115.769508 236.0
115.793579 168.0
115.813393 148.0
115.850899 112.0
115.906601 160.0
116.05574 264.0
116.086655 200.0
116.170303 124.0
116.251831 204.0
116.287933 180.0
116.318367 156.0
116.355995 236.0
116.384918 140.0
116.414978 136.0
116.475113 204.0
116.516357 180.0
116.548157 204.0
116.599724 156.0
116.636261 68.0
116.666359 228.0
116.733009 96.0
116.780319 168.0
116.83625 160.0
116.870674 88.0
116.90374 360.0
117.068413 456.0
117.178551 196.0
117.206558 144.0
117.338036 228.0
117.380112 132.0
117.405502 208.0
117.439384 152.0
117.462486 248.0
117.48468 176.0
117.529991 176.0
117.57962 132.0
117.67028 100.0
117.692909 208.0
117.717781 140.0
117.739372 124.0
117.905724 132.0
117.961914 196.0
117.97921 240.0
118.042336 164.0
118.077438 164.0
118.145729 116.0
118.173851 160.0
118.201981 168.0
118.284218 144.0
118.376419 204.0
118.470444 208.0
118.500778 120.0
118.544113 104.0
118.576538 204.0
118.623772 180.0
118.685005 180.0
118.741386 192.0
118.849846 164.0
118.878052 140.0
118.906166 268.0
118.933464 388.0
118.969215 152.0
118.987495 208.0
119.006119 116.0
119.048218 528.0
119.084946 868.0
119.136421 192.0
119.15815 76.0
119.288536 180.0
119.360283 164.0
119.390724 132.0
119.503838 160.0
119.529945 192.0
119.556061 148.0
119.608292 228.0
119.630394 104.0
119.664894 148.0
119.68013 196.0
119.784668 208.0
119.808632 164.0
119.837029 116.0
119.852203 188.0
119.911606 184.0
119.944046 140.0
119.991692 56.0
120.057175 14984.0
120.113808 40.0
120.134895 48.0
120.196846 64.0
120.235992 36.0
120.288376 100.0
120.314568 172.0
120.399727 184.0
120.42424 124.0
120.461258 232.0
120.52494 124.0
120.573898 176.0
120.613838 44.0
120.699097 152.0
120.736267 200.0
120.760811 200.0
120.862671 92.0
120.890526 140.0
120.948494 152.0
120.963814 148.0
120.986237 180.0
121.011978 56.0
121.062653 1548.0
121.103783 424.0
121.128044 164.0
121.156517 184.0
121.215675 124.0
121.241974 148.0
121.262062 192.0
121.306351 108.0
121.472183 188.0
121.592171 64.0
121.617004 236.0
121.727722 184.0
121.816818 128.0
122.020432 116.0
122.068802 304.0
122.099976 140.0
122.133339 152.0
122.15094 148.0
122.205933 152.0
122.311562 192.0
122.34668 168.0
122.454681 140.0
122.511536 172.0
122.558212 204.0
122.608894 160.0
122.641953 36.0
122.679428 152.0
122.699265 240.0
122.749977 104.0
122.820549 156.0
122.915367 184.0
122.950722 188.0
122.974998 124.0
123.034599 164.0
123.078751 272.0
123.114082 188.0
123.151627 224.0
123.193596 160.0
123.310699 184.0
123.377014 144.0
123.465454 132.0
123.56057 180.0
123.630943 184.0
123.686707 112.0
123.768616 64.0
123.80072 240.0
123.880348 248.0
123.936951 112.0
124.003006 188.0
124.087662 156.0
124.214066 208.0
124.260651 180.0
124.304115 200.0
124.368355 112.0
124.41378 64.0
124.4505 104.0
124.515923 164.0
124.549232 156.0
124.57811 128.0
124.620323 108.0
124.72921 200.0
124.75589 144.0
124.794754 124.0
124.884857 176.0
124.936012 220.0
125.000542 184.0
125.018341 176.0
125.059296 176.0
125.146843 148.0
125.281067 148.0
125.298531 172.0
125.350136 52.0
125.392479 124.0
125.486099 176.0
125.524002 176.0
125.568604 64.0
125.590004 112.0
125.704681 248.0
125.731461 160.0
125.874329 128.0
125.892197 204.0
125.914528 156.0
126.010574 124.0
126.053032 112.0
126.075371 120.0
126.09549 48.0
126.209084 220.0
126.298943 156.0
126.34816 204.0
126.498093 92.0
126.649979 168.0
126.737724 188.0
126.758636 204.0
126.836327 196.0
126.856499 176.0
126.912544 152.0
126.942215 172.0
126.977531 196.0
127.148079 140.0
127.197456 112.0
127.25219 460.0
127.288292 132.0
127.311958 136.0
127.336662 140.0
127.446732 160.0
127.483032 220.0
127.528419 160.0
127.608559 180.0
127.660278 104.0
127.689507 156.0
127.738991 68.0
127.781738 196.0
127.862923 148.0
127.930801 100.0
128.020325 52.0
128.047348 136.0
128.103653 192.0
128.308731 76.0
128.385391 108.0
128.444031 136.0
128.581665 276.0
128.830032 180.0
128.884247 212.0
128.935425 180.0
129.077866 128.0
129.157791 56.0
129.198517 208.0
129.227921 104.0
129.286758 44.0
129.318436 120.0
129.431625 124.0
129.499557 88.0
129.576202 120.0
129.710281 176.0
129.730682 236.0
129.785095 132.0
129.856522 180.0
129.874283 244.0
129.973358 124.0
130.016464 140.0
130.032349 200.0
130.066406 144.0
130.118607 196.0
130.284668 228.0
130.386642 152.0
130.463928 156.0
130.511673 156.0
130.539597 80.0
130.561691 168.0
130.59581 216.0
130.610321 136.0
130.700455 104.0
130.737152 132.0
130.81424 120.0
130.830185 132.0
130.849579 104.0
130.8871 184.0
130.987305 124.0
131.057159 248.0
131.086365 552.0
131.174515 224.0
131.189651 180.0
131.215179 36.0
131.25029 236.0
131.279022 116.0
131.322357 128.0
131.356567 180.0
131.453735 88.0
131.477493 192.0
131.520859 168.0
131.637299 164.0
131.681503 184.0
131.698959 136.0
131.762909 228.0
131.810898 92.0
131.836029 216.0
131.912399 136.0
131.938889 136.0
131.976547 180.0
132.049606 176.0
132.08197 1672.0
132.108109 136.0
132.125244 164.0
132.217941 28.0
132.242111 212.0
132.282028 140.0
132.300339 272.0
132.33696 168.0
132.362152 60.0
132.458344 128.0
132.488113 104.0
132.531647 152.0
132.588928 52.0
132.652191 60.0
132.694382 140.0
132.765457 104.0
132.795273 176.0
132.928329 148.0
132.977142 160.0
133.06514 184.0
133.071289 184.0
133.100784 1148.0
133.126419 164.0
133.207031 236.0
133.270447 36.0
133.34169 80.0
133.450623 188.0
133.504913 76.0
133.631424 108.0
133.664825 168.0
133.730362 176.0
133.755692 116.0
133.800064 204.0
133.83165 180.0
133.903046 164.0
133.932983 144.0
133.995178 224.0
134.064163 344.0
134.102127 208.0
134.131134 48.0
134.174942 180.0
134.191086 168.0
134.294846 256.0
134.314438 236.0
134.334061 164.0
134.36554 148.0
134.39476 140.0
134.447159 220.0
134.474808 132.0
134.550461 304.0
134.606766 176.0
134.645508 128.0
134.679077 416.0
134.706512 360.0
134.731491 220.0
134.764679 300.0
134.782867 292.0
134.789612 288.0
134.803635 204.0
134.837646 188.0
134.860107 68.0
134.894485 176.0
134.937592 184.0
134.954376 348.0
134.985718 468.0
135.026901 480.0
135.081726 268316.0
135.155029 76.0
135.169098 312.0
135.199799 108.0
135.236801 188.0
135.316116 420.0
135.334 392.0
135.349884 164.0
135.379532 320.0
135.418549 240.0
135.429092 120.0
135.461716 4108.0
135.49057 332.0
135.512802 148.0
135.538727 220.0
135.569809 56.0
135.600098 116.0
135.622253 328.0
135.646683 164.0
135.680878 168.0
135.709457 88.0
135.73082 96.0
135.76503 64.0
135.782394 88.0
135.815018 80.0
135.834381 80.0
135.85733 412.0
135.909195 140.0
135.929123 168.0
135.947678 176.0
135.983734 128.0
136.00676 36.0
136.044296 348.0
136.084503 36604.0
136.126587 144.0
136.173462 76.0
136.193771 84.0
136.212067 168.0
136.230957 124.0
136.275818 160.0
136.321854 64.0
136.33699 52.0
136.396927 120.0
136.402603 96.0
136.422806 112.0
136.466599 196.0
136.525116 104.0
136.562454 76.0
136.604401 108.0
136.627457 68.0
136.650787 108.0
136.69725 64.0
136.725174 92.0
136.753113 144.0
136.809586 220.0
136.830368 212.0
136.858292 172.0
136.87825 196.0
136.89505 76.0
136.900818 72.0
136.910416 112.0
136.918884 96.0
136.937332 64.0
136.957443 84.0
136.986877 160.0
137.00618 264.0
137.025864 144.0
137.054993 140.0
137.063736 196.0
137.087784 1604.0
137.130722 196.0
137.152969 224.0
137.17421 288.0
137.223892 220.0
137.250565 184.0
137.28299 64.0
137.325287 96.0
137.39624 48.0
137.422012 84.0
137.515381 64.0
137.588913 56.0
137.744049 60.0
137.791443 56.0
137.83284 108.0
137.891251 96.0
137.914627 40.0
137.938004 44.0
137.972549 72.0
137.990097 196.0
138.036194 48.0
138.0802 160.0
138.168823 108.0
138.202271 132.0
138.218643 132.0
138.253738 28.0
138.333313 88.0
138.438675 124.0
138.528488 172.0
138.572189 184.0
138.670609 116.0
138.848785 68.0
138.902725 84.0
138.947296 144.0
138.973114 80.0
139.001266 96.0
139.078568 140.0
139.120956 68.0
139.163971 92.0
139.224274 60.0
139.257156 96.0
139.313522 76.0
139.478012 96.0
139.717392 176.0
139.783737 44.0
140.023865 52.0
140.078033 124.0
140.30661 136.0
140.353775 48.0
140.787949 68.0
140.847 92.0
140.934402 220.0
141.00293 92.0
141.066757 68.0
141.095123 224.0
141.192062 76.0
141.648865 40.0
141.817093 148.0
142.082672 164.0
142.357986 108.0
142.464874 60.0
142.495758 76.0
142.616943 160.0
142.750076 48.0
142.971313 112.0
142.987976 64.0
143.087952 176.0
143.133179 120.0
143.209381 160.0
143.452423 76.0
143.504883 88.0
143.664139 164.0
143.764877 132.0
143.881821 112.0
143.930634 36.0
143.977341 100.0
144.048981 36.0
144.139771 120.0
144.178009 204.0
144.247314 140.0
144.50798 48.0
144.541489 80.0
144.694656 40.0
144.821579 140.0
145.063995 116.0
145.102081 456.0
145.164276 160.0
145.281021 148.0
145.334579 40.0
145.368179 92.0
145.389771 112.0
145.610641 48.0
145.646667 100.0
145.72113 84.0
145.757172 120.0
145.819656 152.0
146.037231 64.0
146.054642 120.0
146.081741 48.0
146.103394 148.0
146.332016 96.0
146.693375 112.0
146.997253 204.0
147.078217 1104.0
147.118301 500.0
147.434341 144.0
147.543106 108.0
147.787384 128.0
147.843033 76.0
147.879333 232.0
148.034271 44.0
148.085175 316.0
148.12146 44.0
148.533524 212.0
148.618439 136.0
148.960739 152.0
149.026337 132.0
149.086456 492.0
149.128403 108.0
149.164856 64.0
149.249237 204.0
149.342361 76.0
149.463989 148.0
149.602722 76.0
149.619751 104.0
149.641663 116.0
149.780472 72.0
149.905991 52.0
149.936401 100.0
150.048523 200.0
150.090103 368.0
150.338791 112.0
150.657196 136.0
150.756363 68.0
151.07666 132.0
151.108459 112.0
151.172089 148.0
151.221191 60.0
151.858032 116.0
151.93898 188.0
151.983139 148.0
152.105194 312.0
152.140213 44.0
152.334213 192.0
152.474258 156.0
152.648804 224.0
152.742249 156.0
153.091736 152.0
153.404648 188.0
153.429291 136.0
153.606842 32.0
153.930145 88.0
154.056107 88.0
154.35022 32.0
154.775803 132.0
154.966522 160.0
155.127594 156.0
155.154877 52.0
155.216858 168.0
155.259003 104.0
155.286285 116.0
155.321014 128.0
155.407837 64.0
155.531921 212.0
155.700745 72.0
155.867188 124.0
155.931793 100.0
156.006363 164.0
156.130676 64.0
156.561203 84.0
156.882614 160.0
157.102066 308.0
157.124512 112.0
157.424026 52.0
157.461487 64.0
157.556412 200.0
157.656357 104.0
157.923859 152.0
157.998901 132.0
158.284225 88.0
158.331802 160.0
158.589859 120.0
158.692627 136.0
159.004517 144.0
159.113495 296.0
159.144241 136.0
159.478348 76.0
159.702118 124.0
159.971359 132.0
160.12999 164.0
160.553375 96.0
160.737518 144.0
160.91925 152.0
161.002579 176.0
161.038803 176.0
161.133728 580.0
162.004181 76.0
162.037109 124.0
162.093521 212.0
162.125793 216.0
162.391998 152.0
162.605103 116.0
162.938889 108.0
163.074951 276.0
163.108002 120.0
163.143097 292.0
163.171555 84.0
163.260544 92.0
163.469147 164.0
163.621857 112.0
163.68042 112.0
163.723709 72.0
163.76445 184.0
163.830673 52.0
163.88501 160.0
163.919846 196.0
163.958817 192.0
163.981018 144.0
164.018906 228.0
164.03302 220.0
164.107559 64964.0
164.177887 60.0
164.206161 168.0
164.230728 68.0
164.266724 76.0
164.317947 300.0
164.33934 108.0
164.363922 52.0
164.391602 208.0
164.442642 80.0
164.476456 112.0
164.50531 72.0
164.531616 92.0
164.586411 100.0
164.609589 80.0
164.70697 184.0
164.738831 160.0
164.782257 36.0
164.802704 80.0
164.847092 192.0
164.864029 100.0
164.887024 36.0
164.916702 124.0
164.966263 68.0
165.007156 136.0
165.048065 80.0
165.10994 6980.0
165.167282 64.0
165.20607 72.0
165.247574 120.0
165.288498 112.0
165.378067 80.0
165.457428 132.0
165.554718 44.0
165.631409 68.0
165.722931 84.0
165.795532 144.0
165.936508 32.0
165.96727 100.0
166.026245 68.0
166.063095 184.0
166.11084 640.0
166.136536 104.0
166.157059 104.0
166.192978 140.0
166.244308 124.0
166.287933 112.0
166.31752 68.0
166.346603 144.0
166.366257 116.0
166.456558 116.0
166.474152 80.0
166.49588 48.0
166.570358 128.0
166.598618 92.0
166.619171 112.0
166.650986 116.0
166.963593 60.0
167.084488 84.0
167.37532 76.0
167.437851 124.0
167.457733 56.0
167.510651 96.0
167.942276 88.0
168.262253 68.0
168.448181 56.0
168.666626 148.0
168.711761 68.0
168.822937 28.0
169.102341 196.0
169.358658 92.0
169.98085 48.0
170.014587 120.0
170.708176 108.0
170.822617 100.0
171.111481 152.0
171.137512 32.0
171.418823 132.0
172.274582 88.0
172.402603 152.0
173.132187 460.0
173.575333 96.0
174.812546 204.0
174.949402 80.0
175.009964 148.0
175.141632 196.0
175.394577 124.0
175.540268 76.0
175.608154 72.0
176.498093 144.0
176.619736 44.0
177.096161 160.0
177.634232 64.0
177.737701 132.0
177.782806 64.0
178.247513 96.0
178.904434 68.0
179.840042 204.0
180.133759 96.0
180.259323 240.0
180.7005 132.0
181.294922 192.0
182.354263 148.0
182.77449 136.0
182.949432 72.0
183.022125 128.0
183.108292 128.0
183.655411 128.0
183.98732 56.0
184.619568 52.0
185.868332 80.0
186.00946 156.0
186.050186 196.0
186.367935 124.0
186.666931 216.0
187.150818 496.0
187.938965 160.0
187.985352 116.0
188.116348 128.0
188.157639 164.0
188.561569 76.0
189.163895 928.0
189.338531 248.0
189.538498 172.0
190.081421 104.0
190.119827 236.0
190.164612 412.0
190.350418 48.0
190.932999 212.0
191.109039 108.0
191.918808 164.0
193.081329 136.0
193.111755 48.0
193.637604 168.0
195.247253 156.0
195.369644 68.0
195.486496 160.0
195.86235 152.0
197.033951 160.0
197.140121 176.0
197.17366 76.0
197.391708 108.0
197.864548 124.0
198.727768 200.0
199.089859 156.0
199.150253 140.0
199.595657 60.0
200.564087 84.0
200.668396 144.0
200.957092 132.0
201.159256 152.0
202.1577 120.0
203.143478 360.0
203.250717 76.0
203.270569 76.0
204.105682 168.0
204.146515 176.0
204.17392 172.0
205.721054 176.0
205.886658 132.0
206.661301 116.0
206.694107 112.0
206.976151 92.0
208.301117 44.0
209.587082 188.0
209.944519 120.0
210.37442 176.0
210.466797 200.0
210.793198 108.0
211.261581 148.0
211.519119 100.0
211.539383 136.0
211.936142 104.0
212.057846 88.0
212.967392 164.0
213.995392 180.0
214.872635 188.0
214.904724 36.0
215.144836 220.0
215.529556 128.0
215.912491 152.0
216.014862 104.0
216.176376 528.0
216.207962 80.0
217.154251 168.0
217.183578 264.0
218.176086 108.0
218.196671 144.0
218.481934 88.0
219.781204 56.0
219.86087 44.0
219.927368 204.0
220.141312 152.0
220.418976 152.0
220.961456 144.0
221.148621 148.0
221.324081 140.0
222.114609 160.0
223.112 216.0
223.136887 68.0
223.267715 200.0
223.986237 48.0
224.014786 44.0
224.107147 164.0
224.127991 188.0
224.566208 220.0
224.587097 88.0
227.26149 160.0
228.087326 148.0
228.481262 124.0
228.971741 80.0
229.393707 124.0
229.505264 80.0
229.734467 56.0
229.978882 108.0
230.18718 92.0
230.208313 148.0
230.573853 72.0
230.830811 96.0
231.72673 68.0
232.17836 124.0
232.414978 108.0
232.457458 96.0
232.581879 164.0
232.651703 128.0
233.013092 140.0
233.151367 316.0
233.557678 132.0
233.758011 132.0
234.165939 120.0
235.150696 160.0
235.178162 172.0
235.960175 72.0
236.459396 152.0
236.976257 68.0
237.028351 48.0
237.865601 116.0
238.839645 20.0
238.888855 120.0
239.729385 80.0
239.972885 100.0
240.43866 144.0
240.679443 144.0
241.093369 192.0
241.718002 128.0
242.111145 124.0
243.77388 128.0
244.172791 340.0
244.784851 96.0
245.180466 60.0
245.432968 48.0
245.570175 164.0
246.175613 188.0
246.856827 228.0
247.257248 56.0
247.351151 88.0
247.927429 100.0
248.526352 128.0
248.749161 72.0
249.327072 108.0
249.393066 92.0
249.427643 116.0
250.270752 120.0
250.985992 124.0
251.967545 152.0
253.134659 172.0
253.61937 180.0
253.768356 252.0
254.431427 44.0
254.526672 96.0
255.448318 128.0
255.492859 124.0
255.791977 144.0
255.826996 132.0
256.199585 108.0
257.532928 76.0
257.590424 192.0
258.056976 60.0
258.140106 96.0
259.37912 156.0
260.136139 116.0
261.138611 88.0
261.183655 112.0
261.460327 68.0
261.656677 52.0
262.178925 460.0
262.342865 196.0
262.862122 156.0
263.182983 184.0
263.20752 68.0
263.440033 180.0
263.520813 100.0
263.747009 116.0
263.816711 128.0
264.193237 132.0
264.675476 120.0
264.814728 88.0
265.803467 136.0
265.839172 144.0
266.231964 84.0
267.002167 256.0
267.373016 76.0
268.004761 144.0
269.169189 84.0
269.888031 144.0
270.028656 128.0
272.753265 40.0
273.588806 164.0
273.648041 108.0
274.35965 104.0
274.567383 108.0
274.686127 152.0
275.082092 144.0
275.557648 60.0
276.864197 116.0
277.105988 84.0
277.168945 128.0
278.097504 124.0
278.359741 152.0
280.255676 116.0
281.539917 52.0
281.940796 68.0
282.224945 212.0
282.425568 64.0
283.6008 156.0
283.697998 64.0
284.684418 104.0
284.93634 104.0
285.810486 40.0
286.999481 120.0
287.06015 80.0
287.66745 120.0
288.042267 220.0
288.197662 128.0
288.447754 152.0
288.620178 128.0
290.184387 132.0
290.394653 124.0
291.49115 156.0
292.647614 140.0
293.383484 80.0
293.424408 140.0
293.843903 152.0
294.316467 104.0
296.442474 144.0
296.833252 108.0
296.901855 216.0
297.001312 156.0
297.351257 120.0
297.560638 60.0
298.223633 48.0
298.653412 112.0
298.911407 60.0
299.179871 124.0
299.207397 136.0
299.300385 120.0
299.355469 136.0
299.872223 72.0
299.913574 104.0
300.230743 116.0
301.214386 128.0
301.867584 56.0
302.043976 120.0
302.431488 92.0
302.763855 108.0
303.5401 160.0
304.556915 128.0
304.866119 208.0
305.738983 64.0
306.930328 96.0
307.160492 172.0
308.085541 184.0
308.2742 116.0
308.553833 148.0
309.218414 164.0
309.866211 216.0
311.205994 100.0
311.356995 168.0
311.778534 148.0
312.312927 128.0
312.872437 176.0
312.911163 68.0
314.832855 84.0
315.624359 68.0
316.788727 68.0
317.628845 44.0
317.880737 204.0
318.242767 228.0
319.870972 136.0
321.514038 132.0
321.638947 196.0
321.753174 160.0
321.831726 140.0
321.98172 124.0
322.717804 112.0
322.889465 92.0
323.154144 188.0
323.23645 124.0
327.128418 112.0
327.18808 140.0
327.512177 80.0
328.110352 180.0
328.878693 160.0
329.45282 48.0
329.640686 60.0
329.938232 120.0
330.276978 156.0
330.30954 116.0
330.490417 44.0
330.783539 80.0
330.989899 92.0
331.809265 164.0
332.229431 216.0
332.686646 72.0
332.8573 88.0
332.889984 188.0
333.922058 140.0
334.595215 64.0
335.090515 60.0
335.447662 128.0
336.257385 164.0
336.874451 196.0
337.317108 144.0
337.382385 76.0
338.245514 168.0
339.924225 200.0
340.11911 156.0
340.214172 136.0
340.259369 208.0
341.286957 128.0
341.853394 156.0
343.068817 36.0
344.423065 104.0
345.180664 96.0
345.846588 132.0
345.924316 72.0
347.244934 152.0
347.695984 156.0
348.710541 152.0
349.289886 184.0
349.598694 192.0
350.384308 180.0
350.756958 152.0
351.428223 128.0
351.476746 180.0
352.219635 324.0
352.316772 116.0
353.187744 144.0
353.67041 64.0
353.7565 148.0
354.239563 144.0
354.385651 168.0
354.573029 136.0
354.947876 56.0
355.255432 68.0
359.869354 192.0
360.696686 180.0
361.244995 200.0
361.551453 108.0
361.608215 168.0
362.278412 136.0
362.566376 192.0
362.926483 220.0
363.172974 220.0
364.228149 112.0
365.421814 124.0
365.958466 116.0
366.225006 140.0
366.880432 128.0
368.632294 188.0
368.941864 104.0
369.320435 132.0
369.427521 224.0
370.288757 32.0
370.53006 124.0
372.021851 264.0
372.117828 84.0
373.174377 124.0
373.685883 124.0
374.586731 40.0
375.002838 116.0
375.064514 192.0
375.241852 80.0
375.345947 104.0
375.465485 120.0
375.592773 148.0
376.735352 128.0
378.107971 116.0
378.247314 132.0
378.305359 176.0
378.62674 92.0
378.928864 88.0
379.10321 136.0
380.161865 192.0
380.410278 120.0
380.767487 108.0
380.82962 108.0
380.930603 76.0
380.996643 116.0
381.070465 236.0
381.159821 112.0
381.229767 172.0
381.521271 152.0
381.626251 104.0
381.70401 92.0
381.786499 96.0
381.828461 96.0
381.90625 108.0
381.991821 92.0
382.092957 56.0
382.223419 204.0
382.327881 148.0
382.404236 116.0
382.435394 56.0
382.671265 100.0
382.703979 72.0
382.840271 108.0
382.906464 188.0
383.003845 212.0
383.093445 64.0
383.140198 144.0
383.233673 276.0
383.273285 120.0
383.325073 120.0
383.362274 48.0
383.552856 240.0
383.59613 176.0
383.621704 92.0
383.681885 140.0
383.732788 112.0
383.764893 176.0
383.791046 216.0
383.839905 144.0
383.88501 360.0
383.927704 244.0
383.974335 124.0
384.013336 176.0
384.047546 184.0
384.105377 136.0
384.12149 112.0
384.162598 164.0
384.253998 67432.0
384.329681 192.0
384.401215 136.0
384.437653 52.0
384.484009 80.0
384.522308 140.0
384.564331 176.0
384.608612 224.0
384.689117 104.0
384.71936 248.0
384.799561 140.0
384.831604 104.0
384.890717 56.0
384.92041 136.0
384.947449 156.0
384.989929 164.0
385.022736 184.0
385.050964 64.0
385.176697 204.0
385.255676 11768.0
385.386658 64.0
385.460083 132.0
385.518188 72.0
385.569275 136.0
385.690063 72.0
385.774292 116.0
385.85498 100.0
385.907227 208.0
385.950073 100.0
385.993256 176.0
386.130127 52.0
386.192688 64.0
386.259369 2608.0
386.401154 96.0
386.467499 112.0
386.532532 56.0
386.630859 72.0
386.740448 36.0
386.80307 60.0
386.874908 140.0
386.924438 80.0
386.974152 80.0
387.061676 152.0
387.092804 92.0
387.120209 68.0
387.17688 128.0
387.209717 56.0
387.217072 60.0
387.257965 276.0
387.293304 196.0
387.460968 188.0
387.51712 100.0
387.553192 192.0
387.632568 128.0
387.69165 132.0
387.73288 140.0
387.845795 116.0
387.93515 64.0
387.969696 100.0
388.009613 80.0
388.052734 36.0
388.174286 44.0
388.225281 44.0
388.384613 108.0
388.458649 104.0
388.495911 84.0
388.625366 116.0
388.982483 80.0
389.037445 72.0
389.10025 108.0
389.220581 112.0
389.382965 88.0
389.457611 64.0
389.697235 76.0
390.353638 68.0
390.499146 68.0
390.640747 40.0
390.691864 104.0
390.931885 84.0
390.990906 88.0
391.097168 96.0
391.266449 96.0
391.577515 112.0
391.880829 40.0
392.594269 40.0
392.716522 56.0
394.608032 56.0
394.789917 96.0
395.193359 108.0
395.347687 72.0
395.818024 88.0
396.615051 116.0
398.289459 36.0
400.720032 172.0
400.775818 64.0
401.149353 104.0
401.317871 60.0
401.513275 56.0
401.60498 32.0
402.187531 28.0
402.882324 48.0
404.870209 132.0
405.623413 40.0
407.123962 52.0
408.591034 76.0
413.967285 76.0
415.337097 32.0
416.550781 116.0
423.083557 80.0
427.586304 44.0
437.866119 64.0
438.486877 124.0
445.966003 116.0
457.790741 76.0
470.706757 60.0
471.251007 132.0
471.298523 44.0
474.770111 36.0
481.201263 84.0
482.476929 88.0
483.202911 92.0
484.476868 104.0
493.109955 76.0
493.865967 40.0
505.602661 80.0
510.438446 56.0
513.478149 80.0
517.979858 84.0
526.398193 108.0
528.372681 64.0
528.79364 36.0
532.355713 44.0
532.856384 80.0
539.899475 76.0
548.619202 56.0
552.56073 64.0
558.927612 48.0
559.035828 52.0
561.655273 84.0
564.90509 44.0
566.983643 88.0
567.215881 80.0
569.312927 64.0
571.0 44.0
572.503845 76.0
577.787598 48.0
578.576538 136.0
579.338623 52.0
581.400391 92.0
582.76886 48.0
584.620117 52.0
588.674194 112.0
590.945923 144.0
596.746582 88.0
606.867798 104.0
609.994995 116.0
615.50293 132.0
618.226624 44.0
619.07312 92.0
625.089478 172.0
626.154785 128.0
630.819946 60.0
634.078369 100.0
635.156311 56.0
637.103943 36.0
638.038696 108.0
639.593079 84.0
641.693726 140.0
647.023682 52.0
652.792603 52.0
655.266235 124.0
655.691101 128.0
658.648376 40.0
659.338135 184.0
660.662415 160.0
660.846558 76.0
665.366882 128.0
677.869446 124.0
691.482361 72.0
693.273376 56.0
699.744507 168.0
699.902466 96.0
702.004944 160.0
702.131531 232.0
708.447754 160.0
710.090881 116.0
712.033325 208.0
719.060791 80.0
719.717407 48.0
726.584106 40.0
732.179565 152.0
732.610474 60.0
734.923279 112.0
737.764038 160.0
738.472412 152.0
740.334106 152.0
740.9245 156.0
744.88446 176.0
745.389771 160.0
747.30365 72.0
747.499512 176.0
748.555542 168.0
753.546265 168.0
754.054443 184.0
754.945557 128.0
755.68396 116.0
755.880981 172.0
758.235657 188.0
758.73999 168.0
759.995911 220.0
763.896484 192.0
765.04657 152.0
766.583252 48.0
767.928345 196.0
769.015259 212.0
769.622498 144.0
774.14563 76.0
775.990173 200.0
783.315125 44.0
785.293823 40.0
788.263794 132.0
789.583069 152.0
789.784424 52.0
790.562073 184.0
795.101318 48.0
795.140564 60.0
795.70752 144.0
797.836731 140.0
799.208984 132.0
799.490356 172.0
802.013428 40.0
802.340393 56.0
803.344177 72.0
805.088196 200.0
806.50061 100.0
809.685913 144.0
809.986084 148.0
810.485291 96.0
811.107971 220.0
811.204346 40.0
811.5672 116.0
813.904846 204.0
815.637573 160.0
816.365295 132.0
816.706482 188.0
817.91272 20.0
822.843689 152.0
823.557495 136.0
830.221069 96.0
830.282288 44.0
834.140564 148.0
834.859192 180.0
836.832825 124.0
838.866455 84.0
839.990906 164.0
841.895508 196.0
844.062439 136.0
846.759094 160.0
846.851807 272.0
847.442627 136.0
847.63385 92.0
847.726562 88.0
850.986328 224.0
852.171204 84.0
853.228882 216.0
855.515137 140.0
856.021667 168.0
858.71991 100.0
859.519104 216.0
860.668945 48.0
861.241272 52.0
861.679382 176.0
862.444885 180.0
867.033325 96.0
868.012329 196.0
869.948425 216.0
870.059937 96.0
871.128723 208.0
872.933044 208.0
873.562317 108.0
874.0271 180.0
874.674438 184.0
874.99823 120.0
879.088745 88.0
879.259888 220.0
879.342529 156.0
881.627991 160.0
882.721619 248.0
883.301208 176.0
883.815857 192.0
884.561584 152.0
887.70752 68.0
888.620972 164.0
889.635742 116.0
890.419556 116.0
893.796021 44.0
896.71991 184.0
898.526672 196.0
899.451599 192.0
900.58606 48.0
900.72345 120.0
901.213318 228.0
902.253235 208.0
902.839172 208.0
903.65271 160.0
903.712524 48.0
904.837708 164.0
905.328674 88.0
906.826355 80.0
908.103394 124.0
909.525391 248.0
911.128723 188.0
912.697388 184.0
914.291443 144.0
915.591797 180.0
915.983276 224.0
916.525452 140.0
918.21936 148.0
918.840637 204.0
919.063904 152.0
922.391418 188.0
923.739868 164.0
925.210388 48.0
927.500122 204.0
927.942627 136.0
928.088135 144.0
928.773438 72.0
930.017273 188.0
931.6203 60.0
932.671509 216.0
933.578979 204.0
934.082214 268.0
936.876892 204.0
938.229187 112.0
938.308411 108.0
943.662659 108.0
944.427063 184.0
944.763489 104.0
945.601746 72.0
945.687439 100.0
946.140442 176.0
946.985413 152.0
948.259766 136.0
948.486572 88.0
949.087341 80.0
949.829407 196.0
949.970459 132.0
950.172913 156.0
952.567017 200.0
952.610046 76.0
953.519409 44.0
955.86853 108.0
956.754761 196.0
958.701111 148.0
959.853821 128.0
960.347168 224.0
960.513733 212.0
961.525574 56.0
962.16748 160.0
962.216919 164.0
962.85907 212.0
963.217285 156.0
963.93396 160.0
964.039001 116.0
964.292358 176.0
965.646362 176.0
966.419617 156.0
967.824585 156.0
968.152771 136.0
969.298767 204.0
969.515625 60.0
971.257812 160.0
971.723022 136.0
972.480103 164.0
973.492004 152.0
974.330505 164.0
975.772339 156.0
976.33197 164.0
977.439209 48.0
978.229614 172.0
979.02655 248.0
979.3255 80.0
979.605774 168.0
981.095154 152.0
982.198853 68.0
983.612732 196.0
983.662109 164.0
984.233337 188.0
984.639221 56.0
985.407532 164.0
985.682434 132.0
985.769958 148.0
985.944885 252.0
986.007385 64.0
986.50116 144.0
987.132629 176.0
987.263977 172.0
987.514099 140.0
988.496277 172.0
989.316162 120.0
990.411987 184.0
990.468384 156.0
992.486267 108.0
992.649292 36.0
992.981689 164.0
994.098328 272.0
994.493713 140.0
995.485657 156.0
995.656372 208.0
995.89386 112.0
996.075989 164.0
996.773376 152.0
997.483521 176.0
997.716125 128.0
998.030457 176.0
998.351135 216.0
998.936096 184.0
998.980103 172.0
999.02417 164.0
1000.106445 60.0
1001.516785 48.0
1001.86322 260.0
1002.064819 120.0
1003.21814 116.0
1003.56488 168.0
1003.949524 84.0
1004.081909 212.0
1005.526672 144.0
1006.170471 188.0
1006.915588 132.0
1007.244019 124.0
1007.901001 188.0
1009.158813 132.0
1009.215698 176.0
1009.505981 196.0
1009.841736 200.0
1010.071106 264.0
1010.39209 180.0
1010.50592 176.0
1011.936279 68.0
1013.418335 132.0
1013.925232 188.0
1014.153442 72.0
1014.343567 204.0
1014.532532 236.0
1014.781006 128.0
1015.047302 116.0
1015.682007 144.0
1016.372986 184.0
1018.004333 208.0
1018.531433 88.0
1018.721985 180.0
1018.973877 216.0
1020.914734 188.0
1021.239075 128.0
1023.600098 124.0
1023.676514 148.0
1024.014038 176.0
1024.090454 96.0
1024.243286 256.0
1025.364624 148.0
1025.530396 84.0
1025.68335 148.0
1026.320801 160.0
1026.690674 180.0
1027.338379 200.0
1027.807007 172.0
1028.157959 184.0
1028.30481 124.0
1028.483521 264.0
1029.651855 200.0
1029.734863 64.0
1030.150024 104.0
1031.076538 48.0
1032.476562 220.0
1032.937012 196.0
1033.647217 180.0
1034.280762 240.0
1034.472778 112.0
1034.703247 176.0
1034.831299 172.0
1035.593262 60.0
1035.657349 200.0
1035.875122 116.0
1038.15686 200.0
1038.304321 160.0
1039.536011 220.0
1040.402466 128.0
1040.827515 188.0
1041.648193 176.0
1042.123657 228.0
1042.547729 208.0
1043.068359 216.0
1043.871948 164.0
1044.039185 132.0
1045.359863 192.0
1045.994995 112.0
1047.269897 136.0
1047.414307 184.0
1048.049438 76.0
1048.165405 144.0
1049.53833 176.0
1049.686646 208.0
1050.789551 136.0
1050.886353 152.0
1051.13147 68.0
1053.223145 136.0
1054.127686 196.0
1054.399048 176.0
1054.599365 216.0
1054.806274 156.0
1055.906494 172.0
1055.976562 144.0
1056.241699 100.0
1056.358154 128.0
1057.309204 132.0
1057.606934 140.0
1057.780884 132.0
1061.980347 96.0
1062.655029 292.0
1062.940552 164.0
1063.245483 220.0
1063.518066 96.0
1064.076294 168.0
1064.212646 176.0
1064.556885 68.0
1064.621826 212.0
1065.024414 144.0
1065.173828 208.0
1065.492188 108.0
1066.271851 176.0
1066.479858 184.0
1066.661865 164.0
1066.765869 252.0
1066.993408 88.0
1067.194946 184.0
1067.468018 112.0
1067.565552 192.0
1067.877686 164.0
1068.313477 256.0
1068.835815 184.0
1069.211426 96.0
1069.810181 216.0
1070.142822 128.0
1070.357056 180.0
1070.643677 164.0
1072.761108 236.0
1073.100098 68.0
1073.869629 160.0
1074.247925 180.0
1074.430542 188.0
1074.508911 156.0
1074.756836 156.0
1075.180908 148.0
1075.389771 180.0
1075.585571 272.0
1075.703125 220.0
1075.983521 196.0
1076.107788 44.0
1076.414673 124.0
1076.845703 124.0
1077.538086 64.0
1077.773315 196.0
1077.851807 68.0
1077.949707 192.0
1078.054321 140.0
1078.171997 32.0
1078.35498 88.0
1078.453003 168.0
1078.58374 220.0
1078.917114 196.0
1079.198242 176.0
1082.076904 32.0
1082.987183 156.0
1083.255737 160.0
1083.354004 152.0
1083.622559 180.0
1083.75354 200.0
1083.956665 168.0
1084.0354 164.0
1084.218872 140.0
1085.188965 64.0
1086.251343 64.0
1086.428467 136.0
1087.05835 224.0
1087.150146 68.0
1087.340454 216.0
1087.609619 176.0
1088.49585 84.0
1088.711792 176.0
1089.008057 148.0
1089.119751 236.0
1089.487549 128.0
1091.314575 168.0
1091.577637 60.0
1091.873535 52.0
1092.294556 92.0
1094.13916 200.0
1095.276245 128.0
1095.44751 152.0
1096.297485 152.0
1096.547852 128.0
1097.286133 40.0
1097.8927 140.0
1098.143311 120.0
1098.512695 184.0
1098.776611 188.0
1099.185669 124.0
1099.693848 304.0
1100.241699 48.0
1100.320923 232.0
1101.450073 76.0
1102.441162 44.0
1102.576782 176.0
1102.648804 216.0
1103.174805 148.0
1103.498657 128.0
1103.643799 136.0
1103.723511 232.0
1104.570068 220.0
1105.263794 152.0
1105.509521 152.0
1105.9198 124.0
1106.469238 248.0
1106.800293 208.0
1106.952515 232.0
1107.114868 188.0
1107.132935 248.0
1107.747314 84.0
1107.914673 136.0
1108.191162 152.0
1108.403198 136.0
1108.734497 140.0
1108.880371 236.0
1109.205078 168.0
1110.00061 148.0
1111.108276 92.0
1111.479858 152.0
1112.329346 152.0
1112.813965 160.0
1113.019775 72.0
1114.554077 228.0
1114.92627 76.0
1115.511108 204.0
1115.564331 108.0
1115.823608 172.0
1115.949829 136.0
1116.175903 200.0
1116.395386 152.0
1116.721191 216.0
1117.013916 64.0
1117.526123 76.0
1118.431152 172.0
1118.650879 156.0
1118.923828 196.0
1119.203369 124.0
1120.412354 164.0
1120.868652 188.0
1121.168457 192.0
1121.415039 184.0
1121.70166 164.0
1121.881592 180.0
1123.328735 144.0
1124.876831 272.0
1124.943481 32.0
1125.564453 100.0
1126.218872 52.0
1126.305664 140.0
1126.947021 200.0
1127.953857 180.0
1128.043091 112.0
1128.424072 136.0
1128.743774 188.0
1129.433838 172.0
1129.835205 216.0
1129.9021 220.0
1130.243286 224.0
1130.397217 208.0
1130.959351 196.0
1131.26062 44.0
1132.097534 184.0
1132.526123 180.0
1132.847656 164.0
1132.974854 160.0
1133.062012 140.0
1133.135742 140.0
1133.376953 148.0
1133.424805 132.0
1133.47644 136.0
1133.88623 96.0
1134.161011 60.0
1134.323364 188.0
1134.375488 224.0
1134.59668 132.0
1134.85144 200.0
1134.965454 188.0
1135.501953 204.0
1135.656128 156.0
1136.695923 164.0
1136.796631 160.0
1137.212769 104.0
1137.588623 184.0
1137.685425 256.0
1138.689819 160.0
1138.911377 176.0
1138.971802 216.0
1139.092773 144.0
1139.247314 76.0
1139.327881 72.0
1139.617676 204.0
1139.811646 132.0
1139.979614 76.0
1140.100586 168.0
1140.490356 148.0
1141.182739 208.0
1142.144409 92.0
1142.406738 172.0
1142.494141 160.0
1142.595459 144.0
1143.930786 216.0
1144.270874 204.0
1144.425659 112.0
1144.802734 208.0
1144.914062 172.0
1144.966431 160.0
1146.183716 124.0
1146.331909 148.0
1146.961914 136.0
1147.686768 160.0
1147.814819 180.0
1148.091309 228.0
1148.266724 48.0
1148.320679 124.0
1148.689087 244.0
1149.130127 180.0
1150.128784 164.0
1150.5271 180.0
1150.709351 192.0
1151.384644 52.0
1151.823608 176.0
1151.918213 140.0
1152.033081 172.0
1152.161377 188.0
1152.222168 184.0
1152.904663 244.0
1152.972168 96.0
1153.425049 252.0
1154.046997 124.0
1155.593262 148.0
1156.549927 200.0
1156.62439 180.0
1158.290161 208.0
1158.486572 104.0
1158.764282 204.0
1158.818481 160.0
1159.028564 168.0
1159.238647 132.0
1159.814697 204.0
1159.936646 188.0
1160.030762 176.0
1160.417969 128.0
1161.109619 148.0
1161.19104 188.0
1162.283203 40.0
1162.459595 124.0
1162.853149 160.0
1162.916138 132.0
1163.280762 200.0
1164.496216 288.0
1164.747559 172.0
1164.978516 132.0
1165.488037 168.0
1165.589966 184.0
1165.956909 152.0
1166.466675 128.0
1166.639893 196.0
1166.928955 260.0
1167.241699 152.0
1167.887695 216.0
1168.506714 196.0
1168.581543 204.0
1168.778931 152.0
1169.282471 144.0
1170.269531 144.0
1170.582642 124.0
1171.515747 248.0
1171.869995 44.0
1172.028564 192.0
1172.251587 192.0
1172.640015 116.0
1172.728638 164.0
1173.394775 144.0
1173.580688 112.0
1173.655762 132.0
1174.269531 156.0
1174.317261 148.0
1174.610474 108.0
1174.67688 156.0
1176.725952 192.0
1177.046875 116.0
1177.1698 140.0
1177.941528 124.0
1178.494873 140.0
1178.672607 36.0
1178.836548 172.0
1179.396973 156.0
1179.547852 200.0
1180.504517 280.0
1180.572876 148.0
1180.873779 236.0
1181.995728 184.0
1182.235229 192.0
1182.300171 160.0
1183.125 184.0
1183.693237 164.0
1183.789185 116.0
1183.960327 160.0
1184.056152 100.0
1184.186279 80.0
1184.391846 176.0
1185.234497 180.0
1185.501709 160.0
1186.434814 132.0
1187.407471 132.0
1189.314819 140.0
1189.424683 108.0
1189.829712 140.0
1189.966919 144.0
1190.948975 128.0
1191.591431 208.0
1191.677124 108.0
1191.896973 100.0
1192.0 164.0
1192.144287 148.0
1192.719238 220.0
1192.934692 148.0
1193.161621 108.0
1193.684082 256.0
1193.866089 216.0
1194.144897 200.0
1195.032227 164.0
1195.348755 176.0
1195.479492 100.0
1196.009399 228.0
1197.186768 180.0
1197.290039 204.0
1197.386475 204.0
1197.482788 180.0
1197.813477 216.0
1197.930542 120.0
1198.213013 132.0
1198.28186 172.0
1198.357666 180.0
1198.688354 108.0
1198.880859 212.0
1199.191528 228.0
1199.308594 104.0
1199.493896 172.0
1199.570557 116.0
1199.894531 148.0
1200.28064 124.0
1200.363403 204.0
1200.411743 156.0
1201.584229 124.0
1201.798096 132.0
1202.771118 196.0
1202.90918 212.0
1203.750977 252.0
1204.428345 64.0
1204.642456 200.0
1204.697754 236.0
1204.863525 192.0
1206.262939 192.0
1207.006104 168.0
1207.095947 304.0
1207.808228 128.0
1209.032837 208.0
1209.28894 48.0
1209.434326 172.0
1209.939575 168.0
1209.994995 168.0
1210.157715 164.0
1210.292725 124.0
1210.618164 140.0
1211.546265 152.0
1211.858032 196.0
1212.22522 128.0
1212.36377 180.0
1212.973755 116.0
1213.361938 68.0
1213.44519 232.0
1213.567017 104.0
1213.881958 88.0
1213.951294 168.0
1214.11084 40.0
1214.28418 204.0
1215.380249 156.0
1216.046387 148.0
1216.400391 188.0
1216.518188 224.0
1216.726685 136.0
1216.816895 224.0
1216.914062 128.0
1217.088867 160.0
1217.358521 132.0
1217.51123 232.0
1217.615356 184.0
1217.664062 132.0
1217.997437 172.0
1218.282227 92.0
1218.719849 120.0
1219.345337 136.0
1219.421753 160.0
1219.908325 212.0
1220.144653 188.0
1220.374023 52.0
1220.422729 240.0
1221.201538 188.0
1221.820679 216.0
1222.022461 140.0
1222.126831 160.0
1222.189453 128.0
1222.544312 152.0
1222.850464 116.0
1223.454956 124.0
1223.651001 56.0
1223.762451 228.0
1224.026978 52.0
1224.333374 160.0
1224.750122 188.0
1224.848755 200.0
1225.057739 152.0
1225.182251 176.0
1225.496704 124.0
1225.608154 56.0
1225.761475 120.0
1225.977417 144.0
1226.109863 228.0
1226.444336 76.0
1226.855591 136.0
1227.094971 128.0
1227.177612 136.0
1227.42041 152.0
1227.587769 68.0
1227.880615 56.0
1227.999146 128.0
1228.131714 196.0
1228.473511 216.0
1229.025879 204.0
1229.115356 176.0
1229.192139 216.0
1229.741821 124.0
1230.81543 220.0
1231.572632 104.0
1232.369019 172.0
1232.592651 200.0
1232.948975 212.0
1233.326416 80.0
1234.154419 156.0
1235.081421 364.0
1235.270264 212.0
1236.172852 108.0
1236.229736 156.0
1236.403687 200.0
1236.487671 132.0
1236.536743 192.0
1237.308838 128.0
1237.369629 148.0
1237.495728 132.0
1238.027832 60.0
1238.39209 132.0
1238.602173 180.0
1238.980469 136.0
1239.192017 204.0
1239.344727 88.0
1239.477905 64.0
1239.891357 152.0
1240.05249 124.0
1240.332886 160.0
1240.529175 152.0
1240.599243 184.0
1241.012817 200.0
1241.300293 120.0
1241.405518 180.0
1241.594849 48.0
1242.113892 112.0
1242.576904 136.0
1243.201294 240.0
1243.285522 152.0
1243.341675 168.0
1245.125244 196.0
1245.286377 140.0
1245.623535 108.0
1245.756958 156.0
1245.82019 164.0
1245.869385 228.0
1246.037964 168.0
1246.564941 140.0
1246.740601 224.0
1247.176392 144.0
1247.309937 152.0
1247.584106 140.0
1248.164917 188.0
1248.498169 156.0
1249.088867 140.0
1249.26001 176.0
1249.546143 136.0
1250.045776 108.0
1250.932495 64.0
1250.981812 204.0
1251.164795 180.0
1251.270386 128.0
1252.192871 188.0
1252.509766 144.0
1253.425659 108.0
1254.560303 140.0
1254.905762 144.0
1255.293579 40.0
1255.592163 204.0
1255.660278 116.0
1255.956543 236.0
1256.075317 148.0
1256.094849 124.0
1256.121948 224.0
1256.499634 180.0
1256.887695 212.0
1257.621704 200.0
1258.22876 152.0
1258.602905 172.0
1258.652344 156.0
1258.758301 172.0
1259.259644 216.0
1259.35144 168.0
1259.503662 148.0
1259.598633 116.0
1259.690552 104.0
1259.796509 200.0
1259.909546 148.0
1260.234497 176.0
1260.396973 164.0
1260.488892 168.0
1260.692627 196.0
1260.806885 232.0
1260.998657 244.0
1261.379395 96.0
1261.511108 172.0
1261.605591 164.0
1262.4823 140.0
1262.588379 156.0
1262.637817 68.0
1263.147095 156.0
1263.606934 160.0
1263.727173 188.0
1263.812134 216.0
1263.932373 164.0
1264.102905 164.0
1264.165894 192.0
1264.477295 480.0
1264.576294 96.0
1265.142578 184.0
1265.411621 52.0
1265.701904 164.0
1266.990967 76.0
1267.444336 144.0
1267.855957 156.0
1268.046753 152.0
1268.145874 152.0
1269.542603 164.0
1270.01062 160.0
1270.237549 136.0
1270.407837 112.0
1270.69165 140.0
1271.174072 64.0
1271.450806 88.0
1271.720581 144.0
1271.777344 140.0
1271.940552 176.0
1272.018677 132.0
1272.345215 144.0
1272.756958 104.0
1272.991333 168.0
1274.070923 184.0
1274.255615 112.0
1274.383545 140.0
1274.45459 204.0
1274.937744 192.0
1276.16748 164.0
1276.359375 244.0
1276.515869 144.0
1276.935425 200.0
1277.276855 212.0
1277.40332 188.0
1277.554199 68.0
1277.639648 132.0
1278.016724 148.0
1278.372437 132.0
1278.813721 160.0
1279.141113 40.0
1279.190918 204.0
1279.30481 52.0
1279.418701 136.0
1279.603882 116.0
1279.767578 188.0
1280.088013 140.0
1280.216187 200.0
1280.543823 128.0
1280.62207 164.0
1281.334473 180.0
1281.455566 172.0
1281.598022 176.0
1281.861694 148.0
1282.203735 176.0
1282.267944 184.0
1282.567261 200.0
1282.823853 188.0
1283.187378 96.0
1284.11438 56.0
1284.285156 132.0
1284.613647 196.0
1284.791992 196.0
1284.906128 180.0
1285.020386 148.0
1285.355713 204.0
1285.455566 176.0
1285.662476 144.0
1285.776733 200.0
1285.976562 224.0
1286.140747 112.0
1286.397705 76.0
1286.592896 80.0
1287.511475 124.0
1287.854248 144.0
1287.954224 188.0
1288.125732 136.0
1288.290039 188.0
1288.432861 64.0
1288.504272 360.0
1288.747192 128.0
1288.990234 148.0
1289.118774 148.0
1289.318848 180.0
1290.14624 200.0
1290.312378 164.0
1290.419678 172.0
1290.927368 256.0
1290.980591 196.0
1291.077515 184.0
1291.363525 144.0
1291.578125 192.0
1291.785522 148.0
1292.100342 184.0
1292.953003 280.0
1293.006714 144.0
1293.19519 228.0
1293.332764 144.0
1293.696167 192.0
1293.746338 168.0
1293.820435 140.0
1294.104248 156.0
1295.486938 164.0
1295.594849 164.0
1295.658447 116.0
1296.217285 128.0
1296.410767 156.0
1296.518188 200.0
1296.697388 288.0
1297.521729 48.0
1297.70813 184.0
1297.772583 160.0
1298.518433 180.0
1298.668945 200.0
1298.776611 220.0
1298.934448 128.0
1300.197144 148.0
1300.340698 36.0
1300.398071 192.0
1300.606201 112.0
1300.685181 160.0
1300.812134 216.0
1301.010376 68.0
1301.205078 172.0
1301.403076 144.0
1301.62561 192.0
1301.69751 176.0
1301.841064 120.0
1301.89856 168.0
1302.035034 196.0
1302.501831 196.0
1302.573608 216.0
1302.65271 132.0
1303.148315 196.0
1303.486084 56.0
1303.578735 160.0
1303.636963 104.0
1303.967529 132.0
1304.190308 176.0
1304.578491 216.0
1305.448486 156.0
1305.617188 148.0
1305.779297 208.0
1305.944702 100.0
1306.174805 196.0
1306.65686 76.0
1307.05249 92.0
1307.131714 116.0
1307.196411 180.0
1307.467651 232.0
1307.549072 132.0
1307.685791 136.0
1308.218506 196.0
1309.579346 116.0
1310.213257 136.0
1310.400513 144.0
1310.530273 168.0
1311.121094 148.0
1311.222046 200.0
1311.445435 68.0
1311.539185 208.0
1311.611206 128.0
1311.921143 108.0
1312.151855 72.0
1312.469116 188.0
1312.671021 44.0
1312.750244 104.0
1313.118042 48.0
1313.471558 80.0
1313.609497 152.0
1313.672119 108.0
1313.796143 252.0
1314.077515 156.0
1314.358887 208.0
1314.451416 204.0
1314.560913 52.0
1314.957764 160.0
1315.535278 108.0
1315.704468 192.0
1315.910645 88.0
1316.156128 328.0
1316.307739 52.0
1316.510132 168.0
1316.776489 176.0
1316.805298 160.0
1316.895874 140.0
1317.058838 220.0
1317.15271 52.0
1317.217773 224.0
1317.564453 156.0
1317.846191 132.0
1317.997925 112.0
1318.099121 156.0
1318.315918 228.0
1318.641113 160.0
1318.944702 236.0
1319.038696 196.0
1319.139893 232.0
1319.371216 148.0
1319.573608 136.0
1319.724609 180.0
1319.855591 72.0
1320.130371 148.0
1320.441284 176.0
1320.745117 48.0
1320.839111 260.0
1321.106812 212.0
1322.044312 72.0
1322.126953 200.0
1322.387451 256.0
1322.568481 196.0
1322.713135 176.0
1323.053467 140.0
1323.275513 280.0
1324.139526 168.0
1324.523438 164.0
1325.284058 152.0
1325.356567 308.0
1325.479736 176.0
1326.058838 212.0
1326.138062 108.0
1326.298584 140.0
1326.479858 204.0
1326.617554 160.0
1326.788696 224.0
1327.258911 216.0
1327.357056 216.0
1327.473022 156.0
1327.871948 144.0
1328.031494 112.0
1328.176514 48.0
1328.328857 212.0
1328.459473 176.0
1328.633545 488.0
1329.409912 196.0
1329.787231 172.0
1329.954224 80.0
1330.222778 160.0
1330.94873 108.0
1331.188354 160.0
1331.258301 108.0
1331.31189 156.0
1331.871094 116.0
1331.936401 132.0
1332.009033 160.0
1332.2052 160.0
1332.386841 140.0
1332.873657 172.0
1333.23584 208.0
1333.680298 128.0
1334.101807 168.0
1334.327271 128.0
1334.820312 220.0
1335.130127 152.0
1335.410645 164.0
1335.628906 72.0
1335.76709 116.0
1336.408081 188.0
1337.273193 52.0
1337.404297 164.0
1338.052124 208.0
1338.146729 208.0
1338.459839 188.0
1338.817261 244.0
1338.984131 88.0
1339.428467 196.0
1339.501221 188.0
1339.93103 128.0
1340.180786 172.0
1340.52124 196.0
1341.115479 240.0
1341.253906 212.0
1341.413208 172.0
1341.505127 156.0
1341.680054 252.0
1341.938477 156.0
1342.022705 160.0
1342.095703 168.0
1342.175903 132.0
1342.321655 164.0
1342.501953 196.0
1342.584229 208.0
1342.853027 212.0
1342.992676 132.0
1343.269775 136.0
1343.517822 172.0
1344.184326 216.0
1344.262085 140.0
1344.386108 196.0
1344.73645 172.0
1345.057495 148.0
1345.188965 248.0
1345.292236 180.0
1345.634277 208.0
1345.860596 152.0
1346.203735 244.0
1346.736938 184.0
1346.809937 184.0
1347.051025 160.0
1347.138672 132.0
1347.226318 164.0
1347.502686 140.0
1347.62085 156.0
1347.785645 356.0
1348.015381 160.0
1348.146851 124.0
1348.490356 180.0
1348.724243 228.0
1349.002075 168.0
1349.082397 168.0
1349.140869 128.0
1349.206665 152.0
1349.272461 160.0
1349.374878 224.0
1350.149902 164.0
1350.442505 148.0
1350.500977 204.0
1350.969116 108.0
1351.122803 148.0
1351.320312 152.0
1351.810547 188.0
1352.125244 196.0
1353.318359 160.0
1353.867554 124.0
1353.922607 212.0
1354.028687 176.0
1354.079956 144.0
1354.490112 140.0
1354.658569 212.0
1354.717163 48.0
1355.176514 204.0
1355.689941 128.0
1355.810669 204.0
1355.926147 60.0
1356.263306 180.0
1356.468506 112.0
1356.541748 200.0
1356.725098 92.0
1356.996338 168.0
1357.480225 92.0
1357.568237 96.0
1357.700195 176.0
1357.912964 160.0
1358.015625 108.0
1358.184326 200.0
1358.668457 184.0
1358.815186 176.0
1359.292114 132.0
1360.126831 80.0
1360.32251 232.0
1360.591187 208.0
1360.649902 128.0
1360.790771 164.0
1361.08313 212.0
1362.956055 180.0
1363.022949 192.0
1363.293945 204.0
1363.492554 212.0
1363.600342 204.0
1363.727661 180.0
1363.779175 172.0
1363.852661 144.0
1364.07312 148.0
1364.337769 76.0
1364.470093 156.0
1364.55835 136.0
1364.881836 188.0
1365.13916 48.0
1365.205444 180.0
1365.565796 72.0
1365.661377 112.0
1365.757812 164.0
1365.815796 124.0
1365.970337 156.0
1366.194824 196.0
1366.338135 260.0
1366.457886 208.0
1366.816284 164.0
1367.00769 92.0
1367.288086 180.0
1367.434448 228.0
1367.957031 204.0
1368.136841 156.0
1368.27356 172.0
1368.428223 192.0
1368.630737 172.0
1368.774292 184.0
1368.973145 136.0
1369.179321 180.0
1369.31189 192.0
1369.664429 88.0
1369.967407 204.0
1370.107422 132.0
1370.711548 160.0
1370.984131 164.0
1371.140991 176.0
1371.426392 172.0
1371.654907 208.0
1372.310913 196.0
1372.745972 112.0
1372.841797 100.0
1372.967163 216.0
1373.070435 108.0
1373.586792 168.0
1373.87439 208.0
1374.464722 108.0
1374.64917 188.0
1374.841064 168.0
1375.524902 216.0
1375.815308 136.0
1375.999878 212.0
1376.22876 144.0
1376.70874 212.0
1376.901978 376.0
1377.872803 160.0
1378.008301 400.0
1378.304199 172.0
1378.496338 320.0
1378.66626 196.0
1378.769775 144.0
1378.998901 148.0
1379.107788 212.0
1379.242798 84.0
1379.343018 184.0
1379.501465 168.0
1379.730713 104.0
1379.967285 120.0
1380.144653 96.0
1380.513672 216.0
1380.677124 164.0
1380.839844 240.0
1381.083862 256.0
1381.371948 148.0
1381.390137 140.0
1381.842407 184.0
1381.971558 264.0
1382.097412 140.0
1382.430298 148.0
1382.600586 252.0
1382.770752 288.0
1382.824219 88.0
1383.125977 92.0
1383.296265 232.0
1383.533203 152.0
1383.932983 220.0
1384.051392 112.0
1384.325317 188.0
1384.429077 68.0
1384.532715 144.0
1384.96228 108.0
1385.065918 244.0
1385.473389 140.0
1386.473633 224.0
1386.740479 160.0
1386.977661 160.0
1387.474243 132.0
1387.704102 156.0
1388.000732 128.0
1388.42334 36.0
1388.994507 184.0
1389.350586 80.0
1389.654663 180.0
1389.819214 160.0
1389.995361 256.0
1390.359619 76.0
1390.456055 56.0
1390.530273 172.0
1390.671387 196.0
1390.728149 156.0
1390.82666 164.0
1391.027588 188.0
1391.250366 156.0
1391.376465 208.0
1391.487915 204.0
1391.562134 128.0
1391.747681 156.0
1391.87561 168.0
1392.067017 224.0
1392.60083 164.0
1392.987915 232.0
1393.12915 172.0
1393.270264 112.0
1393.485718 88.0
1393.619385 172.0
1394.170532 48.0
1394.258423 224.0
1394.623535 160.0
1394.711792 156.0
1394.830811 148.0
1395.061401 132.0
1395.172729 164.0
1395.365967 148.0
1395.633667 172.0
1395.693848 168.0
1395.85791 220.0
1395.968262 52.0
1396.29541 256.0
1396.421875 136.0
1396.711914 156.0
1396.860718 204.0
1396.97229 104.0
1397.344238 176.0
1397.478149 144.0
1397.85022 140.0
1398.445557 124.0
1398.706055 188.0
1398.989014 132.0
1399.041016 188.0
1399.398438 232.0
1399.612671 176.0
1399.692383 180.0
1399.838501 160.0
1399.956909 184.0
1400.589966 168.0
1400.709106 76.0
1400.813354 260.0
1400.915771 164.0
1401.141113 224.0
1401.25293 48.0
1401.305054 144.0
1401.573242 148.0
1402.057617 148.0
1402.154541 200.0
1402.534668 148.0
1402.67627 168.0
1402.84021 144.0
1402.959473 148.0
1403.205566 160.0
1403.354614 148.0
1403.652832 120.0
1403.943726 160.0
1404.119141 228.0
1404.331543 268.0
1404.503052 176.0
1404.644775 28.0
1405.62207 156.0
1406.263916 208.0
1406.465454 164.0
1406.584839 160.0
1406.637085 96.0
1406.75647 160.0
1407.032715 136.0
1407.21936 204.0
1407.301514 164.0
1407.801758 100.0
1407.943726 176.0
1408.048218 100.0
1408.219971 124.0
1408.550659 152.0
1408.645752 88.0
1408.765259 172.0
1408.966919 264.0
1409.497437 148.0
1409.945801 136.0
1410.334473 220.0
1410.424072 116.0
1410.588501 48.0
1411.149292 148.0
1411.276367 56.0
1412.009155 148.0
1412.158691 160.0
1413.557739 124.0
1413.744751 96.0
1413.969238 216.0
1414.11145 196.0
1414.223755 136.0
1414.395874 160.0
1414.523071 164.0
1414.698853 244.0
1415.024658 144.0
1415.114502 216.0
1415.181885 40.0
1415.339111 228.0
1415.728516 160.0
1415.87085 220.0
1416.575806 92.0
1416.799561 164.0
1417.03186 160.0
1417.41394 148.0
1418.335693 132.0
1418.545654 204.0
1418.942993 168.0
1419.00354 204.0
1419.086304 128.0
1419.242798 48.0
1419.302856 56.0
1419.437744 160.0
1419.775269 144.0
1420.041748 156.0
1420.41272 140.0
1420.570312 44.0
1420.810303 80.0
1421.080444 164.0
1421.177979 80.0
1421.590698 160.0
1421.776245 200.0
1421.845825 212.0
1422.176025 180.0
1422.27356 168.0
1422.461182 164.0
1423.129395 196.0
1423.196899 160.0
1423.249512 156.0
1423.752686 144.0
1424.150635 156.0
1424.526245 180.0
1424.661499 184.0
1424.739868 192.0
1424.860596 200.0
1425.188477 192.0
1425.352661 184.0
1425.653198 108.0
1425.765991 176.0
1425.893677 140.0
1426.389771 40.0
1426.547607 224.0
1426.60022 184.0
1427.190552 308.0
1427.757446 176.0
1428.758545 208.0
1428.863892 120.0
1429.085083 204.0
1430.138794 132.0
1430.459229 196.0
1430.662476 192.0
1430.760376 156.0
1431.053955 216.0
1431.288574 152.0
1431.377686 36.0
1431.475586 128.0
1431.708984 240.0
1431.882202 148.0
1432.462158 60.0
1432.99707 152.0
1433.087524 160.0
1433.24231 140.0
1433.64502 64.0
1433.771973 172.0
1434.014404 176.0
1434.361084 148.0
1434.602295 212.0
1434.707764 108.0
1434.768066 212.0
1435.009521 172.0
1435.122437 184.0
1435.197876 200.0
1435.289551 132.0
1435.401489 160.0
1435.635254 140.0
1436.027344 156.0
1436.125366 128.0
1436.449707 152.0
1436.547852 196.0
1437.196655 136.0
1437.302246 116.0
1437.441895 228.0
1437.588989 332.0
1437.81543 172.0
1438.056885 36.0
1438.487183 192.0
1439.100098 208.0
1439.373291 216.0
1439.800903 180.0
1440.065186 188.0
1440.390015 144.0
1440.97168 164.0
1441.077393 152.0
1441.311646 172.0
1441.523193 244.0
1441.818115 184.0
1441.893555 152.0
1441.946411 124.0
1442.059814 140.0
1442.271484 124.0
1442.331909 132.0
1442.568604 332.0
1442.740112 196.0
1442.875732 156.0
1442.974487 184.0
1443.103027 120.0
1443.685181 220.0
1444.222168 152.0
1444.30542 180.0
1444.789429 128.0
1444.978638 172.0
1445.307373 160.0
1445.742798 132.0
1445.909302 172.0
1446.121216 152.0
1446.244019 212.0
1446.560181 48.0
1446.863037 136.0
1447.42334 144.0
1447.640503 168.0
1447.726196 160.0
1447.926392 168.0
1448.157837 188.0
1448.218018 184.0
1448.604736 132.0
1449.14563 332.0
1449.907959 160.0
1450.150513 104.0
1450.362671 212.0
1450.650757 192.0
1450.741699 164.0
1450.7948 256.0
1450.90918 204.0
1450.999512 212.0
1451.37854 80.0
1451.431641 152.0
1451.643921 132.0
1451.992798 232.0
1452.174805 196.0
1452.569214 132.0
1452.64502 172.0
1452.81958 76.0
1452.948486 192.0
1453.069946 160.0
1453.130615 176.0
1453.374878 176.0
1453.571045 160.0
1453.745239 204.0
1453.813477 128.0
1453.918945 156.0
1454.155029 84.0
1454.314331 276.0
1454.429688 104.0
1454.701538 180.0
1454.769775 256.0
1455.020142 140.0
1455.225342 120.0
1455.319092 172.0
1455.453125 176.0
1455.825195 60.0
1455.931519 124.0
1456.296021 144.0
1456.501099 64.0
1456.588623 168.0
1456.660645 188.0
1456.751709 92.0
1456.878418 212.0
1457.298706 224.0
1457.54187 36.0
1457.709106 116.0
1457.876221 204.0
1458.256226 348.0
1458.446167 160.0
1458.560181 184.0
1458.719849 112.0
1458.871948 132.0
1459.449707 40.0
1459.731079 152.0
1459.898315 156.0
1460.172119 200.0
1460.225342 188.0
1460.379639 204.0
1460.622314 180.0
1460.637329 216.0
1460.909912 164.0
1461.039185 420.0
1461.341187 120.0
1461.450073 168.0
1461.625 192.0
1461.889648 200.0
1462.066406 204.0
1462.294678 144.0
1462.446899 156.0
1462.644775 216.0
1462.736206 140.0
1463.040649 180.0
1463.223389 148.0
1463.581177 244.0
1464.137085 168.0
1464.403687 152.0
1464.784424 212.0
1465.005371 168.0
1465.165405 216.0
1465.287231 140.0
1465.462524 184.0
1465.721558 148.0
1465.774902 200.0
1465.866333 132.0
1466.125366 96.0
1466.239746 132.0
1466.335449 208.0
1466.514038 64.0
1466.880005 236.0
1466.994263 184.0
1467.177246 128.0
1467.299194 172.0
1467.581299 60.0
1467.855835 192.0
1467.962524 104.0
1468.115112 164.0
1468.197388 20.0
1468.267578 180.0
1468.473511 124.0
1468.595581 152.0
1468.702271 140.0
1468.755737 188.0
1469.171265 152.0
1469.266846 140.0
1470.243408 176.0
1470.35791 84.0
1470.754761 216.0
1470.823486 108.0
1471.05249 244.0
1471.121216 148.0
1471.269409 176.0
1472.071167 204.0
1472.188843 240.0
1472.266479 136.0
1472.327515 136.0
1473.07605 208.0
1473.23645 68.0
1473.389282 76.0
1473.679565 156.0
1474.000488 152.0
1474.135864 216.0
1474.214478 196.0
1474.267944 128.0
1474.377319 156.0
1474.436035 208.0
1474.717407 172.0
1474.782349 204.0
1475.258911 136.0
1475.286743 192.0
1475.445068 128.0
1475.743164 104.0
1475.819702 200.0
1476.201904 60.0
1476.6073 140.0
1476.722046 124.0
1477.027954 44.0
1477.593994 204.0
1478.068359 128.0
1478.236694 172.0
1478.366821 104.0
1478.466309 52.0
1478.741821 216.0
1478.894897 224.0
1479.078613 52.0
1479.269897 196.0
1479.361816 124.0
1479.499634 224.0
1479.698608 172.0
1479.804932 172.0
1480.417603 340.0
1480.579224 128.0
1480.663452 260.0
1480.870239 164.0
1481.176636 144.0
1481.459961 208.0
1481.835449 220.0
1481.900757 156.0
1482.011597 164.0
1482.080566 216.0
1482.233765 32.0
1482.831543 188.0
1482.900513 144.0
1483.016846 196.0
1483.199463 176.0
1483.529053 224.0
1483.61145 156.0
1483.674683 172.0
1483.958374 144.0
1484.211426 144.0
1484.426025 232.0
1484.495117 308.0
1484.632324 180.0
1484.80188 68.0
1484.943481 100.0
1485.070312 160.0
1485.212646 204.0
1485.285034 136.0
1485.377075 388.0
1485.446167 220.0
1485.576538 136.0
1485.768311 204.0
1485.860352 112.0
1485.914062 172.0
1486.029175 336.0
1486.205566 76.0
1486.34375 168.0
1486.458862 56.0
1486.673706 128.0
1486.88855 128.0
1487.157227 56.0
1487.37207 36.0
1487.448853 168.0
1487.563965 144.0
1487.663818 116.0
1487.917114 168.0
1487.986206 132.0
1488.037598 52.0
1488.193481 156.0
1488.270264 172.0
1488.50061 204.0
1489.053589 148.0
1489.161011 200.0
1489.288696 160.0
1489.69104 124.0
1489.767822 168.0
1489.867676 148.0
1490.128906 188.0
1490.274902 108.0
1490.336426 72.0
1490.520752 196.0
1490.702515 172.0
1490.843506 164.0
1491.027954 220.0
1491.341797 196.0
1491.818359 168.0
1491.942627 176.0
1492.234741 132.0
1492.357788 156.0
1492.618896 100.0
1492.734497 140.0
1493.057495 48.0
1493.281494 176.0
1493.595947 68.0
1493.82666 216.0
1494.137451 148.0
1494.232788 576.0
1494.719116 188.0
1494.865356 164.0
1495.005127 204.0
1495.0802 172.0
1495.196167 124.0
1495.434814 132.0
1495.912354 400.0
1496.012085 148.0
1496.243042 164.0
1496.381592 172.0
1496.558716 192.0
1496.612549 140.0
1496.758911 192.0
1497.059204 120.0
1497.220947 192.0
1497.544434 164.0
1498.052734 64.0
1498.353149 176.0
1498.559937 136.0
1498.692139 164.0
1498.838623 192.0
1498.92334 164.0
1499.122803 168.0
1499.200684 136.0
1499.331787 312.0
1499.452637 204.0
1499.848145 140.0
1499.90979 124.0
1500.179565 84.0
1501.043091 144.0
1501.166504 156.0
1501.490356 144.0
1501.727173 212.0
1501.822021 124.0
1501.875977 168.0
1502.215332 144.0
1502.338745 140.0
1502.392822 208.0
1502.508545 104.0
1502.596802 180.0
1502.6698 180.0
1503.141235 52.0
1503.284424 268.0
1503.681396 168.0
1504.020996 256.0
1504.22937 152.0
