>compound zucapsaicin
>formula C18H27NO3
>ionization [M+H]+
>parentmass 306.207153
#inchi InChI=1S/C18H27NO3/c1-14(2)8-6-4-5-7-9-18(21)19-13-15-10-11-16(20)17(12-15)22-3/h6,8,10-12,14,20H,4-5,7,9,13H2,1-3H3,(H,19,21)/b8-6-
#inchikey YKPUWZUDDOIDPM
#Ion_Source LC-ESI
#Instrument qTof
#Compound_Source Commercial
#PI Dorrestein
#Data_Collector Garg_Neha
#Scan -1
#Precursor_MZ 306.206
#ExactMass 305.199
#Charge 1
#CAS_Number N/A
#Pubmed_ID N/A
#Smiles COc1cc(CNC(=O)CCCC/C=C\C(C)C)ccc1O
#INCHI_AUX N/A
#Library_Class 1
#SpectrumID CCMSLIB00000079192
#IonMode Positive
#UpdateWorkflowName UPDATE-SINGLE-ANNOTATED-GOLD
#LibraryQualityString Gold
#TaskID 278b19f5865741e282cec7349aa7e7a1
##Scan# 1673
#SpectrumFile NCP003592_E2_F11_BE2_01_15736.mzXML
#LibraryName NIHcollectionI_05062014.mgf
#MQScore -1
#Organism NIHcollectionI_05062014
#TIC_Query 0
#RT_Query -1
#MZErrorPPM -1
#SharedPeaks 0
#MassDiff 0
#LibMZ -1
#SpecMZ 306.206
#SpecCharge 0
#internalFilename spec-00000.mgf

>collision 10
45.396885 152.0
46.091488 220.0
46.372974 152.0
46.448631 256.0
46.664833 144.0
46.742363 208.0
47.112122 184.0
47.170612 156.0
47.18565 172.0
47.345749 164.0
47.37999 152.0
47.401062 116.0
47.559631 176.0
47.602188 212.0
47.802887 184.0
48.158581 144.0
48.34164 156.0
48.410286 188.0
48.55719 156.0
48.76545 208.0
49.16795 156.0
49.268486 216.0
49.308666 148.0
49.744621 148.0
50.138451 204.0
50.200478 152.0
50.410816 164.0
50.436256 156.0
50.518272 168.0
50.564964 152.0
51.013817 160.0
51.099937 220.0
51.219517 224.0
51.479092 184.0
51.530514 144.0
51.872547 212.0
51.929901 224.0
51.984417 228.0
52.10503 156.0
52.174011 204.0
52.330132 160.0
52.509518 240.0
52.788242 144.0
53.118458 156.0
53.812641 168.0
54.056744 176.0
54.589241 168.0
54.618656 164.0
54.820358 200.0
55.075592 164.0
55.103661 204.0
55.216003 168.0
55.389175 204.0
56.769318 160.0
56.976452 168.0
57.523106 160.0
57.639397 172.0
57.672646 216.0
57.932915 180.0
58.020813 152.0
58.313778 224.0
58.342659 200.0
58.353302 200.0
59.048653 160.0
59.221603 152.0
59.377934 148.0
59.43623 176.0
59.600525 156.0
59.789669 208.0
59.823532 148.0
60.074718 208.0
60.791088 212.0
60.97123 152.0
61.182774 180.0
61.519505 160.0
61.808643 144.0
61.860291 176.0
61.951118 168.0
62.051418 188.0
62.078072 148.0
62.236557 232.0
62.296238 144.0
62.396816 144.0
62.543114 180.0
62.64389 192.0
62.881985 164.0
63.237598 176.0
63.462543 140.0
63.757797 144.0
64.064888 172.0
64.337585 164.0
64.522911 152.0
64.839844 224.0
64.977745 180.0
65.037125 144.0
65.15435 176.0
65.260422 172.0
65.509872 148.0
66.595261 144.0
66.900955 188.0
66.992149 160.0
67.018219 152.0
67.057327 184.0
67.142105 248.0
67.175545 136.0
67.189415 252.0
67.311821 188.0
67.692833 144.0
68.032227 160.0
68.045357 180.0
68.328041 156.0
68.500893 212.0
68.51902 180.0
68.890205 164.0
69.27565 240.0
69.389999 180.0
69.790138 148.0
69.909897 152.0
69.963165 148.0
70.03643 144.0
70.059753 148.0
70.234779 196.0
70.617271 232.0
71.051125 144.0
71.072937 156.0
71.11657 156.0
71.419411 112.0
71.452652 164.0
71.624359 204.0
71.890739 224.0
72.291245 152.0
72.423302 152.0
72.655533 208.0
72.736992 168.0
72.837173 144.0
73.030945 168.0
73.098991 164.0
73.347015 232.0
73.429489 176.0
74.099571 180.0
74.246986 188.0
74.343056 140.0
74.531944 156.0
74.557716 160.0
74.863937 216.0
74.950066 148.0
75.272629 152.0
75.692818 200.0
75.96492 156.0
76.023918 180.0
76.075981 196.0
76.159332 144.0
76.280968 160.0
76.71965 152.0
76.86441 204.0
76.949936 176.0
76.984856 152.0
77.121132 140.0
77.444824 176.0
77.464943 156.0
77.504387 188.0
77.786743 176.0
78.192764 216.0
78.576904 272.0
79.0476 204.0
79.404755 176.0
79.911018 140.0
80.099724 156.0
80.613556 148.0
80.747955 156.0
80.792351 180.0
80.969559 164.0
81.134407 140.0
81.172058 144.0
82.51889 216.0
82.544205 232.0
82.574944 160.0
83.11116 140.0
83.39991 176.0
83.430809 148.0
83.683701 184.0
84.340431 208.0
84.495872 160.0
84.739372 172.0
85.227417 168.0
85.451736 160.0
86.069191 228.0
86.240997 156.0
86.44381 180.0
86.535126 256.0
86.967056 184.0
87.20665 140.0
87.71666 188.0
88.304817 172.0
88.523781 216.0
88.537537 152.0
88.604317 160.0
88.939987 196.0
89.528458 152.0
89.578682 192.0
89.601921 212.0
90.129158 176.0
90.357094 176.0
90.389259 264.0
90.536919 140.0
90.633781 148.0
90.802238 240.0
90.98497 200.0
91.016678 148.0
91.054131 352.0
91.180046 168.0
91.235168 144.0
91.825455 168.0
92.039185 176.0
92.180534 184.0
92.375549 172.0
92.679955 176.0
92.888924 164.0
93.059723 152.0
93.075081 340.0
93.238365 152.0
93.251823 192.0
93.505692 164.0
93.601944 156.0
94.000961 140.0
94.041656 1192.0
94.222366 96.0
94.464172 208.0
95.081802 152.0
95.261375 160.0
95.927391 156.0
96.410942 160.0
96.526276 144.0
96.614288 152.0
96.784561 180.0
96.813934 168.0
96.921669 160.0
96.937347 204.0
97.002022 188.0
97.068382 156.0
97.153023 148.0
97.455368 172.0
98.112717 184.0
98.215256 160.0
98.367195 148.0
98.823715 156.0
99.047989 124.0
99.07119 256.0
99.257866 192.0
99.708115 240.0
99.926849 212.0
99.988533 208.0
100.008438 188.0
100.075081 472.0
100.115944 180.0
100.646271 160.0
101.014107 228.0
101.64119 212.0
101.68132 152.0
101.96048 180.0
102.113274 256.0
102.330597 188.0
102.586456 180.0
103.192108 252.0
103.214348 188.0
103.335587 140.0
103.394386 144.0
103.4207 216.0
103.43689 204.0
103.497627 176.0
103.929359 220.0
104.161545 184.0
104.264412 252.0
104.726257 284.0
105.033028 156.0
105.071335 312.0
106.509857 184.0
107.047646 284.0
107.085663 464.0
107.384621 260.0
107.557938 140.0
107.882248 180.0
107.913261 200.0
107.985634 200.0
108.060356 168.0
108.087006 144.0
108.103561 152.0
108.147018 160.0
108.333382 160.0
108.555153 168.0
109.064606 512.0
109.101555 1812.0
109.54863 148.0
109.784157 140.0
109.990707 160.0
110.218346 156.0
110.251778 160.0
110.352882 152.0
110.896385 156.0
111.079834 364.0
111.123413 212.0
112.22496 208.0
112.765373 168.0
113.608116 168.0
113.656914 204.0
113.95417 188.0
114.092339 888.0
114.41568 144.0
114.837593 152.0
114.895187 176.0
115.067009 168.0
115.090179 252.0
116.009361 144.0
116.771622 224.0
117.750092 208.0
118.204071 328.0
119.171127 148.0
119.468979 156.0
119.667023 140.0
119.817299 148.0
119.919716 236.0
120.725304 168.0
121.029465 200.0
121.099541 156.0
121.86953 228.0
122.036026 6024.0
122.221329 176.0
122.386414 140.0
123.041924 816.0
123.116173 496.0
123.454414 140.0
123.933205 188.0
124.04557 152.0
124.127602 148.0
124.491524 180.0
124.744812 148.0
124.7826 204.0
125.134132 296.0
125.441559 196.0
125.901184 168.0
126.092529 1648.0
126.128799 164.0
126.446678 160.0
126.531738 204.0
126.688507 184.0
126.892441 144.0
127.065132 256.0
127.09481 264.0
127.446815 140.0
127.543457 188.0
127.885338 148.0
128.137543 168.0
129.029129 156.0
129.119461 192.0
129.26651 184.0
129.542725 184.0
129.968948 184.0
130.166428 200.0
130.402679 204.0
130.473145 168.0
130.49588 188.0
130.627792 180.0
130.873581 184.0
130.932785 184.0
130.985168 248.0
131.279175 156.0
131.365845 168.0
131.794998 144.0
132.087692 160.0
132.204376 148.0
132.24556 144.0
133.043259 140.0
133.101715 2944.0
133.12822 356.0
133.181046 156.0
133.539597 204.0
134.103531 376.0
134.336563 176.0
134.745178 160.0
134.769531 148.0
134.920822 180.0
135.044144 212.0
135.068817 188.0
135.116119 2456.0
135.665909 184.0
135.743439 168.0
135.816986 176.0
136.07225 148.0
136.118256 200.0
136.306244 204.0
136.451782 168.0
136.509079 164.0
136.54071 260.0
136.574188 168.0
136.612473 240.0
136.689407 100.0
136.775574 140.0
136.812515 220.0
136.85495 196.0
136.876617 156.0
136.905777 152.0
136.92691 316.0
136.974335 348.0
137.015381 492.0
137.060989 202412.0
137.127457 156.0
137.214355 188.0
137.300476 156.0
137.329971 132.0
137.369202 292.0
137.391388 252.0
137.420074 388.0
137.443604 4528.0
137.522659 140.0
137.55249 112.0
137.624725 148.0
137.649475 116.0
137.714584 220.0
137.76738 120.0
137.816742 200.0
137.834244 172.0
137.979706 232.0
138.063187 25704.0
138.129456 184.0
138.215851 180.0
138.396149 144.0
138.729309 108.0
138.756073 116.0
138.882202 156.0
138.907974 140.0
138.938904 132.0
139.008591 216.0
139.039734 164.0
139.064713 2040.0
139.088852 140.0
139.116165 96.0
139.145233 172.0
139.184448 180.0
140.067688 176.0
140.106079 320.0
144.1521 140.0
147.115784 476.0
148.043091 96.0
148.209122 144.0
149.72113 100.0
149.836975 148.0
149.958817 152.0
150.456421 152.0
151.0681 160.0
151.112808 3252.0
151.160919 204.0
152.069092 380.0
152.114212 272.0
152.863327 200.0
153.070099 152.0
153.102112 156.0
153.127121 6956.0
154.088776 156.0
154.128784 644.0
155.130646 192.0
161.923813 184.0
164.139786 148.0
165.129288 472.0
166.123917 184.0
168.135437 160.0
169.774155 168.0
170.043961 152.0
170.15448 10052.0
170.209122 200.0
171.157562 764.0
172.155304 172.0
172.489731 168.0
180.401993 148.0
180.49823 212.0
181.336151 148.0
181.649857 228.0
182.114716 164.0
182.154358 29340.0
183.157578 3500.0
184.156662 280.0
184.340302 148.0
184.549347 108.0
195.095612 144.0
210.326904 160.0
215.107727 156.0
221.139343 172.0
251.395218 144.0
276.671631 192.0
277.201569 148.0
281.914856 164.0
288.657013 164.0
289.174561 368.0
305.157867 728.0
305.206635 224.0
306.207153 10336.0
307.069702 200.0
307.210449 2888.0
308.214355 120.0
309.138611 188.0
309.165863 144.0
324.619263 164.0
405.408325 164.0
539.847534 140.0
903.346069 212.0
1038.753784 184.0
1087.125244 144.0
1113.140991 204.0
1146.138672 140.0
1156.640381 204.0
1194.973389 148.0
1199.132568 252.0
1219.501709 208.0
1235.064209 144.0
1242.552612 160.0
1292.663208 156.0
1295.935425 144.0
1304.957275 184.0
1337.518921 160.0
1355.822021 172.0
1356.04187 176.0
1363.491211 172.0
1371.933716 192.0
1376.781372 188.0
1384.976074 160.0
1396.294678 164.0
1396.755737 164.0
1400.522095 168.0
1416.447021 148.0
1425.19458 228.0
1425.833252 168.0
1427.735229 200.0
1430.511597 220.0
1432.635254 172.0
1434.707642 144.0
1437.747314 160.0
1451.454468 172.0
1453.290039 260.0
1454.906616 160.0
1464.274414 192.0
1474.887451 144.0
1475.575439 172.0
1475.789551 212.0
1497.637695 160.0
1505.141357 172.0
1511.897583 188.0
1517.901123 160.0
1519.762695 208.0
1527.150391 192.0
1534.306519 172.0
1557.524414 232.0
1560.652222 152.0
1562.64209 184.0
1566.932861 164.0
1572.200195 176.0
1575.808716 144.0
1578.749146 164.0
1581.05127 156.0
1585.232544 140.0
1589.554199 180.0
1596.87085 208.0
1599.194092 152.0
1599.552246 184.0
1609.621582 156.0
1611.115112 144.0
1614.368164 176.0
1642.115356 220.0
1644.463257 184.0
1644.858765 212.0
1647.951782 144.0
1654.567505 176.0
1659.817627 208.0
1673.313354 168.0
1675.536743 188.0
1679.155884 160.0
1685.580566 184.0
1688.310913 208.0
1693.368652 168.0
1694.236938 164.0
1701.338867 176.0
1707.082031 176.0
1714.680542 148.0
1719.175049 152.0
1719.728027 228.0
1728.107422 184.0
1733.249146 192.0
1736.540283 184.0
1736.706177 180.0
1738.921509 176.0
1739.27002 140.0
1743.06543 184.0
1743.713623 240.0
1748.612183 172.0
1749.303101 172.0
1750.34375 148.0
1751.901245 140.0
1752.992676 140.0
1755.960571 172.0
1756.561035 172.0
1758.037842 180.0
1761.160278 196.0
1764.854004 180.0
1769.288208 200.0
1771.633057 228.0
1771.825806 160.0
1782.120117 180.0
1782.422607 180.0
1785.036865 168.0
1786.887329 208.0
1788.166382 224.0
1789.125977 164.0
1789.614258 152.0
1792.478027 180.0
1796.231934 224.0
1796.963745 184.0
1798.153564 172.0
1798.626221 220.0
1802.604004 204.0
1804.294434 164.0
1804.996216 208.0
1805.368286 148.0
1805.715088 180.0
1807.364624 160.0
1807.432251 180.0
1807.550781 172.0
1808.295532 176.0
1812.461914 160.0
1813.402588 204.0
1817.668213 156.0
1820.749756 216.0
1823.383423 200.0
1830.333496 208.0
1830.767822 188.0
1832.684326 224.0
1836.435303 192.0
1840.130249 164.0
1840.78772 220.0
1844.487061 216.0
1847.308838 192.0
1853.421753 160.0
1855.855957 140.0
1861.888428 148.0
1862.231934 180.0
1863.812622 172.0
1865.084473 160.0
1866.89856 152.0
1867.319946 156.0
1867.707031 140.0
1869.453491 208.0
1870.262573 192.0
1872.432251 176.0
1884.249634 244.0
1884.854492 188.0
1888.649658 160.0
1891.782104 216.0
1893.791016 148.0
1894.362671 152.0
1895.038452 180.0
1903.43457 164.0
1908.135132 184.0
1908.291626 208.0
1910.674683 172.0
1911.127075 148.0
1912.188721 148.0
1912.754395 156.0
1913.973267 156.0
1917.466553 152.0
1919.680786 196.0
1919.832886 148.0
1919.907593 172.0
1920.116821 196.0
1925.519165 172.0
1926.637207 180.0
1928.472168 228.0
1930.614136 192.0
1932.06604 168.0
1937.625244 184.0
1938.895874 184.0
1939.579468 148.0
1940.526245 172.0
1942.008179 176.0
1948.512817 172.0
1949.743042 160.0
1950.244019 156.0
1951.097778 196.0
1952.802612 180.0
1955.204346 388.0
1958.743774 184.0
1959.633545 208.0
1961.775146 240.0
1962.515747 160.0
1965.223511 168.0
1968.957397 204.0
1969.955444 156.0
1971.33374 152.0
1973.446411 168.0
1978.055542 240.0
1982.519409 220.0
1983.095459 204.0
1984.008423 180.0
1984.744263 180.0
1985.861694 148.0
1990.352051 200.0
1990.680664 156.0
1991.666504 168.0
1992.43042 184.0
1996.501343 148.0
1999.321411 256.0
2001.733887 224.0
