>compound MLS001140885-01!3-(5-hydroxy-1H-indol-3-yl)-2-[2-(2-oxochromen-7-yl)oxypropanoylamino]propanoic acid
>formula C23H20N2O7
>ionization [M+H]+
>parentmass 437.135
#inchi InChI=1S/C23H20N2O7/c1-12(31-16-5-2-13-3-7-21(27)32-20(13)10-16)22(28)25-19(23(29)30)8-14-11-24-18-6-4-15(26)9-17(14)18/h2-7,9-12,19,24,26H,8H2,1H3,(H,25,28)(H,29,30)
#inchikey HQVRAAHWGUMKGD
#Ion_Source LC-ESI
#Instrument qTof
#Compound_Source NIH Natural Product Library
#PI Dorrestein
#Data_Collector VVP/LMS
#Scan -1
#Precursor_MZ 437.135
#ExactMass 436.127
#Charge 1
#CAS_Number N/A
#Pubmed_ID N/A
#Smiles CC(Oc1ccc2ccc(=O)oc2c1)C(=O)NC(Cc3c[nH]c4ccc(O)cc34)C(=O)O
#INCHI_AUX N/A
#Library_Class 1
#SpectrumID CCMSLIB00000080037
#IonMode Positive
#UpdateWorkflowName UPDATE-SINGLE-ANNOTATED-GOLD
#LibraryQualityString Gold
#TaskID b1d8e8f6646f4e71acdff9ca3d919d08
##Scan# 1686
#SpectrumFile p2-C03_GC3_01_18003.mzXML
#LibraryName NIH_Natural_Products_Library.mgf
#MQScore -1
#Organism NIH_Natural_Products_Library
#TIC_Query 0
#RT_Query -1
#MZErrorPPM -1
#SharedPeaks 0
#MassDiff 0
#LibMZ -1
#SpecMZ 437.135
#SpecCharge 0
#internalFilename spec-00000.mgf

>collision 10
95.013298 224.0
95.065277 176.0
95.23806 228.0
95.271088 56.0
95.866463 72.0
96.080948 184.0
96.594719 96.0
96.790428 124.0
96.849174 84.0
97.864464 108.0
99.301102 140.0
99.342758 140.0
99.430061 80.0
99.517403 104.0
99.6922 164.0
99.751831 52.0
100.012405 148.0
100.080086 184.0
100.139832 164.0
100.31916 168.0
100.347069 144.0
100.716255 168.0
101.813805 56.0
102.461487 164.0
102.632805 236.0
103.054466 588.0
103.101128 172.0
103.230507 124.0
103.424721 188.0
103.884705 192.0
103.982094 120.0
104.819946 168.0
105.027893 200.0
105.071182 536.0
105.736862 48.0
106.065498 144.0
106.080971 204.0
106.448219 68.0
106.571465 180.0
106.631058 140.0
107.048668 548.0
107.605385 140.0
107.878082 220.0
108.041458 120.0
108.625633 96.0
108.822792 124.0
108.849785 140.0
109.051758 196.0
109.194748 88.0
109.40699 188.0
109.642365 128.0
110.038689 168.0
110.057121 188.0
110.180702 140.0
110.814621 44.0
111.064087 176.0
111.439857 156.0
111.708954 168.0
113.057182 116.0
113.449028 180.0
113.485069 132.0
113.762993 212.0
113.813942 136.0
114.328369 124.0
114.829018 60.0
115.053047 660.0
116.059723 184.0
116.075783 28.0
116.36544 176.0
116.821045 160.0
117.031578 516.0
117.061234 456.0
117.542801 244.0
117.780281 88.0
117.81485 144.0
118.03994 220.0
118.064331 476.0
118.167236 168.0
118.325233 180.0
119.0522 200.0
119.30365 64.0
119.481979 252.0
119.558136 220.0
119.669151 184.0
119.7519 168.0
119.839035 260.0
120.058197 404.0
120.222809 96.0
120.301384 244.0
120.362511 56.0
121.032173 200.0
121.065399 348.0
121.314232 160.0
121.60157 104.0
122.007942 116.0
122.062035 144.0
122.309311 204.0
122.663948 140.0
122.908745 148.0
123.299614 172.0
123.963509 244.0
124.564766 124.0
124.698074 164.0
125.045029 144.0
125.869865 176.0
126.049202 112.0
126.283295 264.0
127.320969 168.0
128.049072 180.0
128.270447 148.0
128.30426 132.0
129.053818 176.0
129.433945 172.0
129.470184 140.0
130.065475 236.0
130.120941 88.0
130.618622 116.0
130.734665 200.0
131.048553 568.0
131.071732 164.0
131.219833 56.0
131.502686 148.0
131.644226 132.0
131.806412 128.0
132.058823 272.0
132.673843 152.0
133.02594 156.0
133.065903 472.0
133.291245 84.0
133.367081 240.0
134.061432 1640.0
135.074036 224.0
135.246918 212.0
135.374252 128.0
135.459946 212.0
135.83316 148.0
136.5811 148.0
136.834747 60.0
137.076996 92.0
137.172546 168.0
137.774612 152.0
137.868073 204.0
138.013 160.0
138.148651 84.0
139.776901 160.0
139.842789 144.0
139.946381 256.0
140.097107 140.0
140.530899 204.0
140.578094 160.0
140.757492 148.0
140.821259 124.0
141.225418 156.0
141.582794 228.0
142.066315 100.0
142.70993 200.0
142.74559 160.0
143.055603 500.0
143.071991 172.0
143.283508 168.0
143.385971 164.0
143.724594 104.0
143.822433 160.0
144.053528 200.0
145.027344 736.0
145.065033 308.0
145.10704 156.0
145.147797 152.0
145.630157 224.0
145.709442 144.0
145.791138 136.0
146.034149 144.0
146.061035 8324.0
146.098053 160.0
146.156631 100.0
146.175888 64.0
146.332336 160.0
146.397354 32.0
146.62381 132.0
146.729874 88.0
146.751572 164.0
147.064728 600.0
147.093658 200.0
147.345276 188.0
147.629059 228.0
147.952301 120.0
147.974091 128.0
148.052292 392.0
148.076889 1116.0
148.129089 80.0
148.146042 108.0
148.199905 172.0
148.799393 108.0
148.851822 76.0
149.007263 104.0
149.050995 188.0
149.081512 188.0
149.656647 128.0
149.695618 64.0
149.751633 120.0
150.026978 168.0
150.204987 120.0
150.935211 212.0
153.804688 164.0
154.017029 148.0
154.081268 232.0
154.298752 104.0
154.734177 96.0
155.061142 136.0
156.039154 92.0
156.079544 284.0
157.062653 128.0
157.234802 132.0
157.561905 144.0
157.71434 144.0
157.98941 220.0
158.060699 2164.0
158.101837 128.0
158.174576 200.0
158.228928 124.0
158.348969 160.0
158.422485 84.0
158.580353 100.0
158.903839 64.0
158.974091 40.0
159.067383 1132.0
159.182449 36.0
159.21257 108.0
160.0298 52.0
160.074936 1828.0
160.226257 172.0
160.646637 132.0
161.059799 1392.0
161.121857 44.0
161.233032 100.0
161.377121 88.0
161.422623 204.0
161.814819 184.0
161.992096 136.0
162.055756 1572.0
162.199875 168.0
162.338318 112.0
162.544785 120.0
162.671692 68.0
162.813873 240.0
162.910385 140.0
163.037216 324.0
163.075699 2724.0
163.322174 72.0
163.339981 212.0
163.650467 68.0
163.744675 108.0
164.055542 196.0
165.212372 100.0
165.45549 116.0
165.511826 136.0
165.552795 76.0
166.29628 188.0
167.070938 176.0
167.44809 44.0
168.080795 172.0
168.425613 108.0
169.059235 152.0
170.030869 188.0
170.060547 552.0
170.158051 120.0
170.950821 220.0
171.06871 508.0
171.161667 28.0
171.523804 60.0
171.73761 88.0
172.076675 300.0
172.476532 244.0
173.07843 684.0
174.051025 180.0
174.078903 2956.0
174.673889 76.0
174.910706 148.0
175.086914 2172.0
175.369019 64.0
176.012711 180.0
176.053741 304.0
176.06102 176.0
176.09169 280.0
176.320847 192.0
176.461884 100.0
176.879852 108.0
177.078445 176.0
177.330139 96.0
178.091614 96.0
178.171295 52.0
178.314789 72.0
178.36528 132.0
178.527466 88.0
178.585968 208.0
183.068848 184.0
183.281616 144.0
183.745361 220.0
183.807419 156.0
183.842499 168.0
184.07576 1048.0
184.166473 92.0
184.947876 64.0
185.052063 124.0
185.076141 276.0
185.123856 176.0
185.654999 168.0
186.005005 128.0
186.05658 2956.0
186.090012 916.0
186.246658 80.0
186.444992 84.0
186.493912 156.0
186.518372 100.0
186.621674 56.0
187.059891 508.0
187.091278 424.0
187.13591 44.0
187.315643 104.0
187.337448 72.0
187.367401 124.0
187.84993 40.0
188.064377 192.0
189.055649 5168.0
189.098618 52.0
189.183472 96.0
189.958984 80.0
190.016586 64.0
190.059845 972.0
190.101654 172.0
190.18399 92.0
190.909286 48.0
190.994705 144.0
191.072052 5008.0
191.120697 684.0
191.15686 72.0
191.231171 88.0
191.291733 92.0
191.481705 52.0
191.503189 120.0
191.790298 52.0
192.019135 48.0
192.070984 380.0
192.129471 136.0
192.620834 88.0
192.662277 44.0
192.852936 92.0
193.342468 116.0
193.442108 120.0
193.683014 156.0
194.903671 124.0
195.053741 192.0
196.510223 44.0
197.068619 124.0
198.050522 152.0
198.280273 160.0
199.054535 148.0
199.086929 136.0
200.06488 180.0
201.0672 480.0
201.103271 500.0
201.343994 64.0
202.07016 200.0
202.108841 280.0
202.990997 160.0
203.062454 176.0
203.087418 104.0
203.115112 356.0
203.288849 20.0
203.666443 224.0
204.06575 1852.0
204.479599 80.0
205.068451 136.0
205.354263 116.0
206.076477 164.0
206.608246 116.0
208.552414 68.0
211.077164 152.0
211.103867 192.0
212.072479 112.0
212.23317 68.0
212.404266 192.0
213.100632 328.0
213.429428 84.0
214.08522 700.0
214.110367 184.0
215.057907 160.0
215.083801 1016.0
216.068512 180.0
216.080276 152.0
216.086487 312.0
216.121628 204.0
218.057053 256.0
219.072189 104.0
223.014145 180.0
227.098129 144.0
227.728409 76.0
228.09198 120.0
229.100021 336.0
229.127167 52.0
230.069824 136.0
230.105576 916.0
230.705505 52.0
230.805283 44.0
231.110626 184.0
231.243912 80.0
232.865967 124.0
232.977966 128.0
233.076599 604.0
241.098297 120.0
244.024445 172.0
250.099945 144.0
258.068695 148.0
258.091064 116.0
259.080017 132.0
262.654602 64.0
263.093475 148.0
266.409607 112.0
274.98877 152.0
276.065735 148.0
282.39798 128.0
289.130157 168.0
306.065552 216.0
318.078949 208.0
320.086365 304.0
322.09552 168.0
344.090424 156.0
346.109161 168.0
360.212891 104.0
386.501831 52.0
390.003845 52.0
390.817902 200.0
391.128998 404.0
392.126526 284.0
399.287231 92.0
401.669037 128.0
438.145691 164.0
438.179016 156.0
438.724976 188.0
454.62442 52.0
492.121368 96.0
545.520203 40.0
548.238342 84.0
553.443359 68.0
596.359314 116.0
754.302673 36.0
831.38623 116.0
872.623962 180.0
878.513123 72.0
890.380554 180.0
919.422546 192.0
922.351746 208.0
949.948547 68.0
953.018127 164.0
1040.726074 148.0
1071.37561 128.0
1081.32019 168.0
1091.790649 144.0
1097.024902 84.0
1103.289673 156.0
1120.131592 172.0
1124.005005 152.0
1140.788574 144.0
1140.929688 160.0
1149.024536 68.0
1154.455078 180.0
1161.078003 152.0
1171.51123 160.0
1172.751343 160.0
1184.428345 72.0
1189.220947 220.0
1192.847656 76.0
1198.649292 128.0
1199.979492 192.0
1210.952759 248.0
1216.201294 144.0
1222.776123 152.0
1252.441406 144.0
1261.19043 224.0
1294.979736 192.0
1310.495972 96.0
1311.187744 108.0
1313.054932 184.0
1320.956543 232.0
1326.561279 188.0
1327.039673 156.0
1332.294067 108.0
1332.693604 204.0
1336.437988 188.0
1338.526978 128.0
1351.204712 44.0
1351.314453 124.0
1359.044067 160.0
1361.782227 272.0
1372.784302 44.0
1378.416382 172.0
1379.000244 220.0
1380.138672 144.0
1386.867798 64.0
1388.810303 156.0
1389.789551 204.0
1400.84436 32.0
1412.279541 164.0
1416.336304 200.0
1417.879639 152.0
1426.007568 192.0
1435.839844 188.0
1442.090942 176.0
1448.431519 112.0
1454.550537 132.0
1458.333008 220.0
1470.465576 144.0
1473.978271 248.0
1481.583252 168.0
1490.22937 192.0
1493.111938 100.0
1494.588867 148.0
