>compound Tolvaptan (OPC-41061)
>formula C26H25ClN2O3
>ionization [M+H]+
>parentmass 449.163361
#inchi InChI=1S/C26H25ClN2O3/c1-16-6-3-4-7-20(16)25(31)28-19-10-11-21(17(2)14-19)26(32)29-13-5-8-24(30)22-15-18(27)9-12-23(22)29/h3-4,6-7,9-12,14-15,24,30H,5,8,13H2,1-2H3,(H,28,31)
#inchikey GYHCTFXIZSNGJT
#Ion_Source LC-ESI
#Instrument qTof
#Compound_Source Commercial
#PI Dorrestein
#Data_Collector Garg_Neha
#Scan -1
#Precursor_MZ 449.163
#ExactMass 448.155
#Charge 1
#CAS_Number 150683-30-0
#Pubmed_ID N/A
#Smiles C(C1=C(C=C(C=C1)NC(=O)C2=CC=CC=C2C)C)(=O)N3CCCC(C4=C3C=CC(=C4)Cl)O
#INCHI_AUX N/A
#Library_Class 1
#SpectrumID CCMSLIB00000078524
#IonMode Positive
#UpdateWorkflowName UPDATE-SINGLE-ANNOTATED-GOLD
#LibraryQualityString Gold
#TaskID 77f51c88eb8b467eb4a01dd2d0cb90d2
##Scan# 1635
#SpectrumFile Plate8_61_80_GD1_01_15765.mzXML
#LibraryName FDALibrary_2_04302014.mgf
#MQScore -1
#Organism FDALibrary_2_04302014
#TIC_Query 0
#RT_Query -1
#MZErrorPPM -1
#SharedPeaks 0
#MassDiff 0
#LibMZ -1
#SpecMZ 449.163
#SpecCharge 0
#internalFilename spec-00000.mgf

>collision 10
47.188133 216.0
49.601341 168.0
52.666721 140.0
52.799694 184.0
53.982052 156.0
55.211514 168.0
58.219608 180.0
58.663906 152.0
59.460838 152.0
60.15041 152.0
60.544685 172.0
66.170639 180.0
67.752083 156.0
70.687904 200.0
71.808479 200.0
72.812126 192.0
75.235146 232.0
75.267952 248.0
76.854492 160.0
80.72863 148.0
81.551552 220.0
85.660576 148.0
85.948189 188.0
87.546127 232.0
91.056931 136.0
92.242722 144.0
98.463196 220.0
99.08342 140.0
103.452454 156.0
110.447838 164.0
113.226189 148.0
114.779648 168.0
118.061012 164.0
119.048264 6608.0
120.051857 1396.0
120.209534 164.0
121.055534 300.0
127.150352 200.0
131.208557 144.0
132.08548 144.0
134.062332 360.0
135.043381 1128.0
136.047012 176.0
136.835037 160.0
137.882401 148.0
138.083466 156.0
138.246536 148.0
139.487976 152.0
144.353302 184.0
156.049942 140.0
156.888962 236.0
157.148346 160.0
158.964981 160.0
160.043365 156.0
160.920807 152.0
164.347382 172.0
165.541122 224.0
167.995743 176.0
168.416504 168.0
170.626984 168.0
172.681824 188.0
176.958115 160.0
178.013458 232.0
178.041168 364.0
180.05661 740.0
180.098816 160.0
181.059998 276.0
181.07991 204.0
182.049866 396.0
183.059738 164.0
183.949478 212.0
184.411362 192.0
187.246658 160.0
189.032089 144.0
190.982742 144.0
192.523407 176.0
204.820816 164.0
208.037094 288.0
208.072342 176.0
208.414139 164.0
213.013626 140.0
217.936493 200.0
226.220322 176.0
231.643906 140.0
236.191727 196.0
242.268494 144.0
243.617981 144.0
244.392136 148.0
248.30011 176.0
250.506668 140.0
250.868515 136.0
250.951035 168.0
251.039322 140.0
251.746216 144.0
251.790436 176.0
252.064774 356.0
252.102097 75480.0
252.393845 152.0
252.462906 216.0
252.620895 228.0
252.707153 152.0
253.10495 13224.0
253.21109 132.0
253.311844 116.0
253.480026 96.0
254.072678 164.0
254.109222 732.0
254.994171 120.0
255.104446 112.0
255.568497 100.0
257.062561 160.0
273.787018 140.0
292.104553 164.0
337.868561 156.0
352.010864 208.0
358.282227 192.0
360.247711 200.0
368.075623 152.0
379.91507 152.0
389.294556 144.0
396.847198 208.0
399.154175 172.0
403.104553 192.0
405.421631 152.0
410.015198 164.0
413.142487 160.0
430.942474 172.0
431.106415 160.0
431.152618 6156.0
431.26123 148.0
432.151642 1460.0
433.148865 2300.0
433.218628 144.0
434.152191 744.0
434.996002 144.0
435.152435 116.0
443.917389 152.0
449.163361 4572.0
450.167694 1744.0
451.159058 2284.0
451.287231 192.0
452.162048 696.0
453.157135 188.0
460.777252 196.0
489.507751 176.0
818.659058 144.0
1114.767212 212.0
1466.240967 168.0
1631.47583 176.0
1633.518433 156.0
1736.4823 188.0
1790.221924 184.0
1869.723877 312.0
1877.365479 144.0
