>compound cyclic 3-(1,2-ethanediyl acetal) estra-5(10),9(11)-diene-3,17-dione
>formula C20H26O3
>ionization [M+H]+
>parentmass 315.1954711440905
#inchi InChI=1S/C20H26O3/c1-19-8-6-15-14-7-9-20(22-10-11-23-20)12-13(14)2-3-16(15)17(19)4-5-18(19)21/h6,16-17H,2-5,7-12H2,1H3/t16-,17+,19+/m1/s1
#inchikey XUOQKQRMICQUQC
#Ion_Source DI-ESI
#Instrument qTof
#Compound_Source Commercial
#PI Norberto Lopes
#Data_Collector Norberto Lopes
#Scan -1
#Precursor_MZ 315.187
#ExactMass 314.188
#Charge 1
#CAS_Number 5571-36-8
#Pubmed_ID N/A
#Smiles O=C1CC[C@@]2([H])[C@](C3=CC[C@@]21C)([H])CCC4=C3CCC5(OCCO5)C4
#INCHI_AUX N/A
#Library_Class 3
#SpectrumID CCMSLIB00000081583
#IonMode Positive
#UpdateWorkflowName UPDATE-SINGLE-ANNOTATED-BRONZE
#LibraryQualityString Bronze
#TaskID 4a07f16a650f4095b43fe6b0b09ff8bb
##Scan# 1
#SpectrumFile gnps_cyclic_3_1_2_ethanediyl_acetal_estra_5_10_9_11_diene_3_17_dione_pos_MpplusH.mgf
#LibraryName gnps_library.mgf
#MQScore -1
#Organism batch_27_05
#TIC_Query 0
#RT_Query -1
#MZErrorPPM -1
#SharedPeaks 0
#MassDiff 0
#LibMZ -1
#SpecMZ 315.187
#SpecCharge 0
#internalFilename spec-00000.mgf

>collision 10
129.06488 1919.0
131.080826 2185.0
141.064682 4619.0
143.080139 5806.0
145.095642 1794.0
155.080994 4594.0
156.087814 1296.0
157.096954 4282.0
159.074936 4884.0
167.080734 3016.0
169.094482 7425.0
170.102554 1901.0
171.110092 8920.0
172.115646 1423.0
175.106644 2553.0
178.073563 1825.0
179.081909 6391.0
180.084183 2341.0
181.093033 2863.0
183.112457 5944.0
185.126633 13415.0
186.130951 2531.0
193.094452 22842.0
194.100433 4698.0
195.112366 17003.0
196.115387 3778.0
197.122162 6981.0
198.1091 1462.0
207.108795 2232.0
209.125778 4872.0
210.129715 1394.0
211.121277 10676.0
212.123367 2284.0
213.122543 17334.0
214.126541 3162.0
225.154724 3814.0
227.136902 1856.0
229.152924 4704.0
235.141617 14835.0
236.146057 3630.0
253.152786 39163.0
254.156235 9038.0
255.143768 2391.0
257.14624 2207.0
269.148865 1887.0
271.161621 24605.0
272.166595 6041.0
297.179077 2256.0
314.168396 3051.0
315.187317 9072.0
