>compound MLS000859964-01!N6-2-(4-Aminophenyl)ethyladenosine
>formula C18H22N6O4
>ionization [M+H]+
>parentmass 387.1775296360905
#inchi InChI=1S/C18H22N6O4/c19-11-3-1-10(2-4-11)5-6-20-16-13-17(22-8-21-16)24(9-23-13)18-15(27)14(26)12(7-25)28-18/h1-4,8-9,12,14-15,18,25-27H,5-7,19H2,(H,20,21,22)/t12-,14-,15-,18-/m1/s1
#inchikey XTPOZVLRZZIEBW
#Ion_Source LC-ESI
#Instrument qTof
#Compound_Source NIH Pharmacologically Active Library
#PI Dorrestein
#Data_Collector VP/LMS
#Scan -1
#Precursor_MZ 387.181
#ExactMass 386.17
#Charge 1
#CAS_Number N/A
#Pubmed_ID N/A
#Smiles Nc1ccc(CCNc2ncnc3n(cnc23)[C@@H]4O[C@H](CO)[C@@H](O)[C@H]4O)cc1
#INCHI_AUX N/A
#Library_Class 1
#SpectrumID CCMSLIB00000085793
#IonMode Positive
#UpdateWorkflowName UPDATE-SINGLE-ANNOTATED-GOLD
#LibraryQualityString Gold
#TaskID d252d724072548979f1f6f1ced849daf
##Scan# 1118
#SpectrumFile p4-F07_GF7_01_18391.mzXML
#LibraryName Pharm_Active_Library.mgf
#MQScore -1
#Organism Pharm_Active_Library
#TIC_Query 0
#RT_Query -1
#MZErrorPPM -1
#SharedPeaks 0
#MassDiff 0
#LibMZ -1
#SpecMZ 387.181
#SpecCharge 0
#internalFilename spec-00000.mgf

>collision 10
45.140614 164.0
45.278458 112.0
45.732277 212.0
46.065346 108.0
46.123455 160.0
46.273621 228.0
46.506794 208.0
46.561104 128.0
46.619522 212.0
46.676617 132.0
46.686138 208.0
46.724224 284.0
46.794998 76.0
46.9408 180.0
47.082729 112.0
47.128384 208.0
47.353531 196.0
47.605885 100.0
47.663582 220.0
47.748817 132.0
47.829998 80.0
47.853401 152.0
48.245232 180.0
48.38081 120.0
48.699753 148.0
48.823395 196.0
49.075504 200.0
49.191303 116.0
49.296059 192.0
49.820095 208.0
50.163475 52.0
50.455196 176.0
50.7332 56.0
50.771484 48.0
51.06675 224.0
51.08255 120.0
51.106735 144.0
51.237728 176.0
51.250549 172.0
51.31897 156.0
51.460224 136.0
51.581661 184.0
51.931049 200.0
52.018581 172.0
52.048733 172.0
52.106186 168.0
52.144985 204.0
52.209682 188.0
52.350719 212.0
53.070351 184.0
53.235779 196.0
53.250301 208.0
53.6082 176.0
53.666508 168.0
53.678173 192.0
53.71172 180.0
53.844543 128.0
53.927826 148.0
54.398037 248.0
55.309044 164.0
55.500164 216.0
55.679726 212.0
56.003971 148.0
56.326168 168.0
56.525017 176.0
56.697239 56.0
56.827702 140.0
57.337486 136.0
57.405327 176.0
57.482262 224.0
57.739086 244.0
57.823811 180.0
58.058647 176.0
58.163338 220.0
58.41407 112.0
58.59684 152.0
58.938057 200.0
59.085331 136.0
59.371777 196.0
59.385578 220.0
59.419327 200.0
59.583607 152.0
60.131813 148.0
60.175037 144.0
60.57095 176.0
60.626728 56.0
61.260681 112.0
61.287167 228.0
61.316776 216.0
61.40097 96.0
62.009167 180.0
62.422062 172.0
62.494419 236.0
62.582565 140.0
62.717827 140.0
63.232967 36.0
63.391342 140.0
63.777012 120.0
63.805626 152.0
63.985409 188.0
64.041145 228.0
64.443161 196.0
64.680206 92.0
64.880104 136.0
65.189888 108.0
65.265442 140.0
65.739044 116.0
65.936073 44.0
65.947388 128.0
66.20787 148.0
66.678375 204.0
66.833687 204.0
66.850761 188.0
66.868668 100.0
67.034782 160.0
67.282715 184.0
67.401947 144.0
67.467323 164.0
67.838951 96.0
68.03746 28.0
68.065369 152.0
68.387604 160.0
68.710594 80.0
68.736992 216.0
68.753494 160.0
68.903763 212.0
69.284286 160.0
69.299202 60.0
69.546303 188.0
69.890312 128.0
70.061806 124.0
70.191818 184.0
70.520706 140.0
70.798439 140.0
71.02639 180.0
71.222786 196.0
71.520409 100.0
71.591125 204.0
71.837212 120.0
72.109077 188.0
72.144569 204.0
72.428871 204.0
72.542404 204.0
72.768051 128.0
72.849571 256.0
73.067177 128.0
73.523857 172.0
73.569946 80.0
73.691208 236.0
73.805725 224.0
73.976822 132.0
73.99736 172.0
74.077858 160.0
74.17382 176.0
74.266418 140.0
74.398552 52.0
74.477547 48.0
74.659729 144.0
74.719933 104.0
74.81115 132.0
74.936874 156.0
75.217987 104.0
75.273232 136.0
75.36306 224.0
75.494438 104.0
75.617271 220.0
75.665741 180.0
75.807777 64.0
76.528671 172.0
76.556526 144.0
76.612267 128.0
76.678482 188.0
76.877304 188.0
76.929665 112.0
76.978554 132.0
77.083366 68.0
77.359718 132.0
77.662872 156.0
78.154785 136.0
78.197021 140.0
78.225182 176.0
78.477119 104.0
78.664131 176.0
78.876114 112.0
79.157425 172.0
79.499573 212.0
79.604309 152.0
79.630951 148.0
79.984795 124.0
80.029305 192.0
80.104103 48.0
80.387596 148.0
80.419724 180.0
80.516136 188.0
81.138855 200.0
81.151405 52.0
81.433151 144.0
81.557129 216.0
81.603874 36.0
81.630844 204.0
81.656021 116.0
81.787369 244.0
82.041374 160.0
82.171227 144.0
82.196487 280.0
82.431244 136.0
82.494507 112.0
82.54332 204.0
82.662712 132.0
82.784004 192.0
83.123001 184.0
83.320915 132.0
83.371796 140.0
83.803062 176.0
83.859558 184.0
84.180656 160.0
84.292091 144.0
84.482246 92.0
84.916382 132.0
85.092545 188.0
85.211929 228.0
85.268532 160.0
85.519035 184.0
85.701355 176.0
86.265381 180.0
86.354874 160.0
86.517715 168.0
87.241249 176.0
87.579926 380.0
87.723412 172.0
88.22934 176.0
88.272339 132.0
88.298523 164.0
88.392067 152.0
88.62426 144.0
88.65049 48.0
88.77047 160.0
88.797821 144.0
88.896156 176.0
89.13089 248.0
89.846375 156.0
89.901093 204.0
89.916191 84.0
89.978485 168.0
90.029472 68.0
90.074799 136.0
90.364052 196.0
90.424606 32.0
90.530632 176.0
90.57798 140.0
91.048706 340.0
91.109161 208.0
91.40387 164.0
91.518082 176.0
91.916466 160.0
92.046768 220.0
92.717758 108.0
93.058434 400.0
93.135498 144.0
93.224411 136.0
93.659233 140.0
93.857742 208.0
93.917526 244.0
93.973473 108.0
94.064728 764.0
94.089279 140.0
94.11245 76.0
94.13176 128.0
94.294037 224.0
94.454529 164.0
94.468063 48.0
94.619019 180.0
95.070663 120.0
95.233757 164.0
95.365883 208.0
95.583702 120.0
95.673233 176.0
96.197647 220.0
96.443779 148.0
96.610001 144.0
96.731331 108.0
96.815521 176.0
96.987938 160.0
97.031067 180.0
97.103622 148.0
97.584747 164.0
97.883835 152.0
98.659264 196.0
98.713257 220.0
98.859039 160.0
99.499283 188.0
99.99028 176.0
100.404686 120.0
101.220047 168.0
101.284134 152.0
101.324203 112.0
101.394333 164.0
101.667091 244.0
101.767456 136.0
101.988449 76.0
102.040718 196.0
102.604454 144.0
102.664948 120.0
102.824326 180.0
103.052757 2420.0
103.071281 248.0
103.101021 88.0
103.323448 176.0
103.481003 204.0
104.056824 156.0
104.079475 248.0
104.41275 60.0
104.834175 152.0
105.053909 224.0
105.133965 152.0
106.064964 196.0
106.212227 196.0
106.653709 184.0
106.709213 180.0
108.126396 152.0
108.350037 216.0
108.482674 184.0
108.582207 192.0
108.768944 28.0
109.084702 204.0
109.236504 248.0
109.49044 180.0
110.032608 52.0
110.095253 80.0
110.412926 28.0
110.749901 52.0
110.768753 132.0
111.041245 188.0
111.293068 136.0
111.370773 172.0
111.421196 168.0
111.635597 208.0
111.913361 180.0
112.244186 188.0
112.520592 232.0
112.769867 124.0
112.991905 96.0
113.411209 176.0
113.608421 164.0
113.771835 156.0
113.820663 116.0
113.962982 208.0
114.416016 112.0
114.43602 164.0
114.748383 168.0
114.814484 160.0
114.855011 160.0
114.933945 224.0
114.968094 168.0
115.04493 144.0
115.087631 256.0
115.329041 248.0
115.354691 132.0
115.429527 184.0
115.579262 196.0
115.645607 120.0
116.007622 172.0
116.078377 140.0
116.247849 176.0
116.531288 172.0
116.903297 132.0
117.051834 168.0
117.135826 204.0
117.994751 164.0
118.063568 984.0
118.089905 96.0
118.224045 112.0
118.411301 156.0
118.939293 188.0
118.99791 216.0
119.032906 184.0
119.071289 820.0
119.534805 244.0
119.602272 168.0
119.634926 136.0
119.652344 152.0
119.736382 172.0
119.783005 144.0
119.813507 140.0
119.830933 112.0
119.867981 160.0
119.917244 160.0
119.955162 164.0
119.970421 136.0
119.990044 196.0
120.023666 200.0
120.03038 136.0
120.08049 52924.0
120.141075 228.0
120.204018 40.0
120.23526 116.0
120.286736 128.0
120.312454 68.0
120.329117 156.0
120.353218 80.0
120.387177 40.0
120.411293 96.0
120.438454 232.0
120.47673 112.0
120.533539 80.0
120.56842 104.0
120.614403 64.0
120.640633 64.0
120.689682 120.0
120.710602 56.0
120.756531 40.0
120.787155 104.0
120.802467 44.0
120.852982 44.0
120.872482 60.0
120.911873 92.0
120.97522 68.0
121.010376 44.0
121.026337 180.0
121.055443 172.0
121.082741 3872.0
121.213722 48.0
121.297371 88.0
121.422356 60.0
121.479385 40.0
121.53643 48.0
121.755486 56.0
121.784508 236.0
121.802078 144.0
121.870186 60.0
121.889961 120.0
121.905342 64.0
121.922928 108.0
121.949303 48.0
121.982269 48.0
122.004257 100.0
122.033905 132.0
122.049393 136.0
122.074615 184.0
122.092522 140.0
122.112877 240.0
122.1362 108.0
122.153801 136.0
122.169197 36.0
122.219803 64.0
122.241806 132.0
122.3937 96.0
122.468575 56.0
122.726418 112.0
122.84552 96.0
122.999992 80.0
123.23851 120.0
123.439659 40.0
123.57238 44.0
123.820312 40.0
124.252563 152.0
124.647797 28.0
125.21064 32.0
125.6297 204.0
125.897552 52.0
126.711777 100.0
130.063004 156.0
130.094788 96.0
130.174255 68.0
130.458282 100.0
130.851868 136.0
131.038635 48.0
131.061417 236.0
132.084229 160.0
132.675049 40.0
133.039825 84.0
133.655807 48.0
134.095657 164.0
134.485458 100.0
135.067764 184.0
135.479813 140.0
135.783478 128.0
135.857712 192.0
136.061249 3760.0
136.140884 176.0
136.198944 96.0
136.257034 108.0
136.429001 184.0
136.666245 104.0
137.060516 204.0
138.136078 136.0
138.384155 208.0
138.454407 204.0
138.949005 128.0
139.280014 128.0
139.790207 108.0
140.039764 220.0
142.637909 180.0
143.063736 128.0
143.180405 144.0
143.375763 124.0
145.346298 72.0
145.367889 212.0
145.519119 128.0
146.816147 64.0
148.053528 152.0
148.244904 160.0
148.492203 92.0
149.014114 116.0
149.072433 212.0
153.893326 164.0
154.325729 220.0
154.830551 68.0
154.96431 200.0
158.139481 244.0
160.66748 104.0
162.083801 612.0
162.435822 96.0
163.159592 92.0
163.925751 76.0
163.981827 92.0
164.394974 156.0
165.348251 100.0
165.77594 200.0
165.799011 120.0
166.964584 128.0
167.154953 128.0
167.706512 200.0
168.138443 64.0
171.915558 108.0
172.613052 212.0
172.725525 128.0
174.051682 272.0
175.12468 212.0
176.700668 196.0
179.492325 140.0
182.908325 104.0
183.072571 188.0
183.444397 56.0
183.751846 192.0
184.305359 208.0
185.073563 152.0
187.077271 48.0
187.946701 148.0
190.943726 108.0
192.095093 132.0
199.553711 220.0
200.854813 168.0
201.182159 192.0
202.372437 300.0
203.04689 136.0
203.15184 172.0
203.299377 208.0
203.648605 80.0
204.060669 192.0
204.089096 180.0
205.025665 156.0
205.510437 116.0
206.593262 72.0
207.638794 160.0
207.922821 172.0
209.118469 172.0
212.525696 212.0
214.570435 196.0
216.103821 128.0
218.966019 212.0
219.897705 96.0
220.225449 140.0
222.885864 148.0
230.24057 144.0
230.887329 132.0
233.039612 132.0
234.924194 164.0
235.925888 216.0
236.277603 196.0
236.837814 216.0
237.460022 156.0
238.829926 140.0
239.602615 108.0
239.661148 140.0
240.524689 132.0
242.188278 156.0
243.804749 176.0
245.523285 252.0
246.79425 176.0
247.874176 220.0
249.273758 168.0
252.976669 80.0
253.727509 152.0
253.968521 132.0
254.162033 140.0
254.663651 136.0
254.765289 156.0
254.797058 168.0
254.841553 244.0
254.959122 184.0
255.092239 168.0
255.133957 17840.0
255.192032 140.0
255.334274 52.0
255.404251 76.0
255.461517 120.0
255.504181 68.0
255.545822 36.0
255.572861 116.0
255.605606 80.0
255.646057 156.0
255.782913 136.0
255.823135 76.0
255.846588 100.0
255.913452 200.0
255.978607 52.0
256.031281 76.0
256.079041 80.0
256.135223 3212.0
256.247894 52.0
256.317993 64.0
256.435883 72.0
256.525146 44.0
257.060974 76.0
257.108856 60.0
257.147644 196.0
257.26474 48.0
257.29718 88.0
257.479218 100.0
257.56543 36.0
257.661285 48.0
257.789093 108.0
258.006439 56.0
258.041626 92.0
258.393433 60.0
258.928009 44.0
259.241974 48.0
260.486908 44.0
264.870819 144.0
265.642334 68.0
266.512421 68.0
266.860229 120.0
268.113495 112.0
271.779358 64.0
291.962921 164.0
292.235077 84.0
297.151794 184.0
298.161377 172.0
301.165833 116.0
314.250946 84.0
324.681244 52.0
332.220123 116.0
336.237335 96.0
340.972931 100.0
351.755676 88.0
355.802612 64.0
363.028564 40.0
364.626862 112.0
374.525452 112.0
376.504089 80.0
377.609436 100.0
387.164093 104.0
421.068298 88.0
433.209747 56.0
438.43692 100.0
440.74881 116.0
441.551483 104.0
442.953674 92.0
456.043335 112.0
466.869019 120.0
476.904144 44.0
477.069305 52.0
481.623108 120.0
558.069641 36.0
621.444275 88.0
627.347778 92.0
637.523804 80.0
638.931702 68.0
688.978516 128.0
725.160767 84.0
747.879456 120.0
753.68219 40.0
759.10144 40.0
762.142578 60.0
774.777588 172.0
779.888489 92.0
797.057434 44.0
798.102966 224.0
827.255127 164.0
843.818665 60.0
853.600647 128.0
866.641174 184.0
896.656616 128.0
932.48761 116.0
932.761169 176.0
965.009827 100.0
966.896606 140.0
990.758484 192.0
993.510742 176.0
1007.000671 224.0
1013.314026 152.0
1013.700562 104.0
1023.101135 160.0
1025.878784 112.0
1030.007568 220.0
1035.066528 200.0
1035.668579 112.0
1036.796265 184.0
1047.153076 148.0
1048.62207 148.0
1051.188843 140.0
1051.569702 132.0
1055.316528 140.0
1055.762695 208.0
1061.649658 196.0
1080.461548 164.0
1081.685425 176.0
1081.894897 168.0
1084.010498 136.0
1090.560425 152.0
1094.65918 120.0
1097.083984 124.0
1097.664185 236.0
1103.012085 160.0
1112.173096 40.0
1115.334961 176.0
1115.833618 152.0
1116.664795 144.0
1117.216919 176.0
1127.659424 88.0
1129.277588 132.0
1131.639893 172.0
1133.307617 156.0
1136.365112 200.0
1136.895264 164.0
1137.237549 148.0
1141.503784 84.0
1141.988037 96.0
1145.919434 156.0
1151.498291 136.0
1154.377319 140.0
1162.744141 60.0
1163.843994 220.0
1167.595093 172.0
1172.394897 96.0
1172.783325 144.0
1174.597168 176.0
1180.443604 160.0
1182.092285 156.0
1192.283203 184.0
1195.212769 276.0
1195.852783 168.0
1197.105835 160.0
1198.001221 152.0
1202.483276 184.0
1202.586914 188.0
1202.718018 208.0
1203.484375 168.0
1203.857178 192.0
1211.687378 44.0
1212.713013 180.0
1214.099731 144.0
1216.208984 208.0
1218.035156 156.0
1218.764648 88.0
1222.561523 280.0
1224.211426 128.0
1231.61853 168.0
1231.821045 156.0
1236.582886 116.0
1241.03833 180.0
1243.823608 220.0
1244.350098 172.0
1244.841675 188.0
1245.515991 180.0
1249.755249 168.0
1258.255493 72.0
1263.025635 164.0
1263.436035 192.0
1264.660278 176.0
1265.269043 56.0
1268.336426 64.0
1270.662598 204.0
1272.259399 188.0
1276.984863 200.0
1277.610962 236.0
1278.443481 152.0
1278.763672 116.0
1282.895264 132.0
1287.276123 240.0
1288.654785 56.0
1294.305542 188.0
1294.778198 236.0
1294.907104 228.0
1297.271729 208.0
1300.485352 200.0
1303.897095 40.0
1308.68811 136.0
1311.375244 164.0
1313.509521 144.0
1316.194458 84.0
1316.439941 60.0
1317.364502 156.0
1320.053223 168.0
1321.442017 164.0
1324.968018 212.0
1328.215698 92.0
1328.505981 144.0
1329.99353 76.0
1332.426392 232.0
1332.818726 56.0
1333.043945 76.0
1334.395996 76.0
1337.021973 112.0
1338.638184 196.0
1342.259888 168.0
1344.820679 108.0
1345.163696 220.0
1347.28894 72.0
1347.697998 188.0
1347.873413 148.0
1348.73584 96.0
1350.52002 248.0
1350.973511 96.0
1357.925049 152.0
1362.050171 140.0
1363.460938 212.0
1365.041504 120.0
1366.814331 220.0
1368.934448 152.0
1373.858154 128.0
1374.551758 148.0
1375.909912 152.0
1379.810791 220.0
1380.579834 56.0
1383.991333 156.0
1386.465576 116.0
1386.984375 192.0
1387.592285 48.0
1389.973267 124.0
1394.525757 128.0
1394.994141 136.0
1395.350952 200.0
1395.569946 184.0
1397.545166 172.0
1397.75354 172.0
1398.00647 160.0
1398.118164 148.0
1398.587036 172.0
1399.420898 96.0
1402.02063 296.0
1402.862915 132.0
1403.884399 108.0
1404.272217 152.0
1406.966064 188.0
1408.175781 156.0
1410.948242 180.0
1411.920288 168.0
1414.77124 168.0
1414.838623 208.0
1417.310303 144.0
1418.09314 172.0
1421.171875 164.0
1421.832275 128.0
1425.286743 96.0
1425.361938 176.0
1425.842896 244.0
1426.188599 80.0
1426.391602 132.0
1426.662231 152.0
1427.27124 156.0
1430.265503 180.0
1430.604248 144.0
1431.650879 140.0
1433.820679 140.0
1435.878906 72.0
1436.029785 184.0
1436.263672 116.0
1438.950195 188.0
1439.456177 220.0
1439.607178 232.0
1440.558838 180.0
1444.005737 152.0
1445.700439 36.0
1445.919922 144.0
1447.252319 140.0
1447.449219 136.0
1451.844482 64.0
1452.322388 160.0
1454.325562 164.0
1456.785889 152.0
1458.921387 160.0
1459.1875 160.0
1460.434692 192.0
1461.14978 152.0
1461.286743 172.0
1463.600586 192.0
1465.283936 188.0
1466.602295 128.0
1469.027222 196.0
1469.217896 148.0
1473.11145 188.0
1476.71167 136.0
1476.864746 124.0
1477.698608 52.0
1478.165283 48.0
1479.56604 208.0
1479.849365 244.0
1481.947754 208.0
1484.554321 176.0
1485.698608 108.0
1486.640991 64.0
1491.710327 172.0
1491.817993 188.0
1492.133179 160.0
1492.502197 168.0
1492.886719 148.0
1493.186646 184.0
1497.057861 156.0
1499.800659 256.0
1500.224731 132.0
1500.83374 156.0
1502.684937 112.0
