>compound MLS000876965-01!(6aR,9R,9aR)-9-acetyl-3-[(1E,3E,5S)-3,5-dimethylhepta-1,3-dienyl]-6a-methyl-9,9a-dihydrofuro[2,3-h]isochromene-6,8-dione
>formula C23H26O5
>ionization [M+H]+
>parentmass 383.185333
#inchi InChI=1S/C23H26O5/c1-6-13(2)9-14(3)7-8-17-10-16-11-19(25)23(5)21(18(16)12-27-17)20(15(4)24)22(26)28-23/h7-13,20-21H,6H2,1-5H3/b8-7+,14-9+/t13-,20-,21-,23-/m0/s1
#inchikey GAIVGINVGXHEIA
#Ion_Source LC-ESI
#Instrument qTof
#Compound_Source NIH Natural Product Library
#PI Dorrestein
#Data_Collector VVP/LMS
#Scan -1
#Precursor_MZ 383.186
#ExactMass 382.178
#Charge 1
#CAS_Number N/A
#Pubmed_ID N/A
#Smiles CC[C@H](C)/C=C(\C)/C=C/C1=CC2=CC(=O)[C@]3(C)OC(=O)[C@H]([C@@H]3C2=CO1)C(=O)C
#INCHI_AUX N/A
#Library_Class 1
#SpectrumID CCMSLIB00000080614
#IonMode Positive
#UpdateWorkflowName UPDATE-SINGLE-ANNOTATED-GOLD
#LibraryQualityString Gold
#TaskID b1d8e8f6646f4e71acdff9ca3d919d08
##Scan# 2629
#SpectrumFile p2-G11_GG11_01_18059.mzXML
#LibraryName NIH_Natural_Products_Library.mgf
#MQScore -1
#Organism NIH_Natural_Products_Library
#TIC_Query 0
#RT_Query -1
#MZErrorPPM -1
#SharedPeaks 0
#MassDiff 0
#LibMZ -1
#SpecMZ 383.186
#SpecCharge 0
#internalFilename spec-00000.mgf

>collision 10
94.987663 132.0
95.010948 124.0
95.05043 320.0
95.083527 360.0
95.127388 232.0
95.177864 36.0
95.212822 168.0
95.613319 176.0
95.751549 176.0
96.065369 72.0
96.080978 120.0
96.106346 176.0
96.250786 200.0
96.489159 96.0
96.547821 220.0
96.610413 144.0
96.643677 148.0
96.706299 260.0
97.029526 188.0
97.069077 208.0
97.102455 184.0
97.217827 48.0
97.245308 84.0
97.27475 168.0
97.463295 140.0
97.673058 212.0
97.76416 136.0
97.929543 232.0
98.043816 44.0
98.290314 156.0
98.38308 140.0
98.430466 184.0
98.475891 116.0
98.539101 76.0
98.665596 132.0
98.74469 176.0
98.794144 36.0
98.954453 124.0
99.047531 180.0
99.17038 136.0
99.192184 100.0
99.213989 156.0
99.374634 132.0
99.463943 200.0
99.569176 244.0
99.648636 108.0
99.736076 240.0
99.825539 176.0
99.879242 140.0
99.948875 152.0
100.012558 96.0
100.07029 120.0
100.110115 100.0
100.189789 184.0
100.32132 352.0
100.347237 140.0
100.407059 144.0
100.469231 192.0
100.508804 156.0
100.622574 172.0
100.651909 208.0
100.814331 164.0
100.902283 72.0
101.042282 28.0
101.066292 140.0
101.182381 116.0
101.232437 160.0
101.306549 148.0
101.410744 196.0
101.818031 140.0
101.860214 116.0
101.896378 180.0
102.044113 144.0
102.167786 124.0
102.193947 104.0
102.214066 88.0
102.232178 52.0
102.32074 160.0
102.447624 84.0
102.55442 52.0
102.575218 264.0
102.610863 176.0
103.000351 136.0
103.053925 232.0
103.190231 184.0
103.315712 168.0
103.370346 60.0
103.429039 172.0
103.465477 88.0
103.481674 148.0
103.639656 156.0
103.682213 176.0
103.720726 168.0
104.055405 156.0
104.07373 128.0
104.094032 132.0
104.169182 132.0
104.272812 184.0
104.329727 136.0
104.374458 92.0
104.671547 160.0
104.787651 72.0
104.816177 140.0
104.837677 152.0
104.869164 172.0
104.905853 136.0
104.952751 88.0
105.044525 160.0
105.070053 1868.0
105.117973 120.0
105.162437 56.0
105.183289 156.0
105.326225 100.0
105.36657 120.0
105.383423 196.0
105.432472 28.0
105.557175 120.0
105.675812 60.0
105.708549 204.0
105.753571 168.0
105.997284 92.0
106.07785 492.0
106.34182 80.0
106.380821 144.0
106.397247 196.0
106.569771 124.0
106.680756 204.0
106.832932 208.0
106.983162 96.0
107.048752 344.0
107.085571 592.0
107.148605 40.0
107.201492 120.0
107.257141 136.0
107.366417 104.0
107.407669 160.0
107.595467 148.0
107.729698 196.0
107.831223 212.0
107.853691 148.0
107.977745 208.0
108.054283 392.0
108.09153 116.0
108.159828 160.0
108.180527 148.0
108.586655 64.0
108.696609 136.0
108.893829 168.0
109.026329 88.0
109.062668 432.0
109.100708 1124.0
109.590729 104.0
109.605316 172.0
109.624069 136.0
109.665756 112.0
109.80545 180.0
109.849251 124.0
109.966103 160.0
110.039268 156.0
110.106422 364.0
110.160294 80.0
110.212524 140.0
110.248283 176.0
110.591049 152.0
110.656868 164.0
110.789986 172.0
110.808838 116.0
110.915718 180.0
110.968513 152.0
111.047813 240.0
111.076927 164.0
111.377357 208.0
111.608536 208.0
111.74321 136.0
111.806274 168.0
111.829422 196.0
111.856789 44.0
111.894684 204.0
112.06739 228.0
112.113754 116.0
112.234772 264.0
112.352509 156.0
112.480751 40.0
112.637009 108.0
112.725746 180.0
112.74147 136.0
112.780693 92.0
112.814522 132.0
113.250427 180.0
113.424179 120.0
113.479301 184.0
113.538673 180.0
113.559883 192.0
113.593826 152.0
113.668083 68.0
113.704163 156.0
114.022736 336.0
114.175812 152.0
114.27153 108.0
114.516342 136.0
114.544037 124.0
114.893646 148.0
115.006744 168.0
115.053139 224.0
115.097946 184.0
115.151939 168.0
115.228844 208.0
115.39341 200.0
115.478951 120.0
115.618019 172.0
115.682228 116.0
115.748604 92.0
115.821419 164.0
115.924263 136.0
115.960693 152.0
116.01857 152.0
116.06028 300.0
116.192284 156.0
116.2631 76.0
116.3554 80.0
116.421959 176.0
116.458473 96.0
116.553001 60.0
116.836815 152.0
117.071999 588.0
117.312752 176.0
117.399002 136.0
117.692474 136.0
117.845833 176.0
118.040367 136.0
118.073166 168.0
118.163658 72.0
118.351967 68.0
118.391068 140.0
118.410439 132.0
118.432098 84.0
118.568596 212.0
118.618446 40.0
118.659637 192.0
118.683487 216.0
118.791725 168.0
118.846169 184.0
118.913445 164.0
119.024925 136.0
119.05069 292.0
119.085716 3604.0
119.16317 32.0
119.195763 188.0
119.217499 136.0
119.25618 20.0
119.452316 84.0
119.561111 180.0
119.700432 116.0
119.72393 152.0
119.747475 380.0
119.772308 100.0
119.798447 52.0
120.051285 136.0
120.089218 540.0
120.188713 188.0
120.62114 132.0
120.855614 208.0
120.958015 84.0
121.064377 964.0
121.10154 1216.0
121.203308 64.0
121.376472 148.0
121.472977 80.0
121.716599 160.0
121.778084 44.0
121.872551 180.0
122.00882 164.0
122.035591 336.0
122.068932 332.0
122.101173 188.0
122.200165 168.0
122.324036 188.0
122.607544 36.0
122.708939 116.0
122.777298 196.0
122.989105 164.0
123.042091 216.0
123.078827 152.0
123.115898 940.0
123.152504 140.0
123.240868 192.0
123.276222 172.0
123.291695 72.0
123.4533 160.0
123.490677 68.0
123.537132 76.0
123.634483 124.0
123.663261 172.0
123.71196 92.0
123.878044 224.0
123.940079 188.0
124.008781 104.0
124.117874 288.0
124.293648 124.0
124.396957 124.0
124.492432 140.0
124.674606 160.0
124.725723 140.0
124.761292 168.0
124.792419 156.0
125.024841 136.0
125.09053 200.0
125.23082 140.0
125.346664 52.0
125.395691 128.0
125.51162 52.0
125.589676 128.0
125.611977 108.0
125.716843 228.0
125.995956 124.0
126.049583 168.0
126.130035 152.0
126.346954 168.0
126.431664 140.0
126.492416 156.0
126.707405 204.0
126.873253 92.0
127.032478 160.0
127.061768 212.0
127.504005 160.0
127.663628 188.0
127.708611 172.0
127.755844 92.0
127.800842 120.0
127.956146 76.0
128.06514 1140.0
128.08783 144.0
128.17012 168.0
128.185898 96.0
128.203918 144.0
128.4384 120.0
128.474503 136.0
128.508347 180.0
128.564758 252.0
128.926086 152.0
128.955475 108.0
129.068695 720.0
129.192902 176.0
129.281143 152.0
129.632156 120.0
129.650299 116.0
129.740967 96.0
129.881561 124.0
129.974579 116.0
130.075333 244.0
130.138 172.0
130.420502 136.0
130.633453 144.0
130.765427 48.0
130.781357 172.0
131.009933 32.0
131.048218 996.0
131.085831 864.0
131.107056 276.0
131.147629 288.0
131.195953 44.0
131.257507 188.0
131.280319 104.0
131.309967 184.0
131.474228 160.0
131.542709 72.0
131.691132 124.0
131.80307 184.0
131.855621 140.0
131.871628 228.0
131.887619 140.0
132.056137 332.0
132.090256 160.0
132.184937 192.0
132.246735 104.0
132.576538 124.0
132.624664 136.0
132.720963 160.0
132.918228 176.0
132.935364 108.0
133.023804 96.0
133.065323 996.0
133.101212 1280.0
133.18454 128.0
133.253464 216.0
133.287918 56.0
133.322388 128.0
133.556915 200.0
133.713364 260.0
133.922882 104.0
133.9897 184.0
134.070053 256.0
134.104553 520.0
134.155624 168.0
134.180984 140.0
134.277252 172.0
134.307816 188.0
134.379333 140.0
134.441635 128.0
134.538635 176.0
134.7164 200.0
134.959732 172.0
135.045456 336.0
135.080658 1008.0
135.116989 812.0
135.183456 124.0
135.243637 44.0
135.289932 60.0
135.336853 240.0
135.375595 188.0
135.410339 168.0
135.449493 212.0
135.468246 176.0
135.601013 148.0
135.618866 148.0
135.790451 40.0
135.962128 168.0
136.050339 128.0
136.083511 372.0
136.122314 148.0
136.438309 232.0
136.526672 212.0
136.559235 88.0
136.654602 152.0
136.90834 124.0
137.057419 160.0
137.129517 168.0
137.211258 196.0
137.274216 84.0
137.360504 180.0
137.386169 172.0
137.556519 180.0
137.610214 104.0
137.811096 64.0
137.832123 148.0
137.850815 152.0
137.897552 128.0
138.063553 152.0
138.098633 148.0
138.115005 60.0
138.220291 200.0
138.400528 132.0
138.586578 192.0
138.735565 160.0
138.751968 176.0
138.839661 104.0
139.005295 100.0
139.115723 164.0
139.171951 188.0
139.294083 108.0
139.456207 132.0
139.637253 136.0
139.656067 152.0
139.750168 192.0
139.816055 76.0
139.959656 184.0
140.049149 172.0
140.112747 52.0
140.844055 156.0
141.07016 944.0
141.096909 128.0
141.121521 160.0
141.158386 156.0
141.267181 132.0
141.33107 152.0
141.683838 320.0
141.721756 204.0
141.747818 132.0
141.77388 184.0
141.897141 44.0
141.965912 120.0
142.076782 936.0
142.108231 176.0
142.440613 172.0
142.528503 88.0
142.794769 172.0
142.930374 124.0
142.966064 120.0
142.99939 132.0
143.084686 2196.0
143.125549 92.0
143.142227 76.0
143.187469 156.0
143.204147 124.0
143.264465 148.0
143.30658 76.0
143.36377 168.0
143.440048 164.0
143.490097 48.0
143.525864 176.0
143.821701 80.0
143.862274 152.0
143.933899 64.0
144.057053 436.0
144.090271 1212.0
144.136948 120.0
144.610458 152.0
144.758896 76.0
144.847519 128.0
144.893036 176.0
144.940948 104.0
145.064697 3004.0
145.100098 604.0
145.178268 200.0
145.209457 172.0
145.394196 48.0
145.413254 144.0
145.564636 60.0
145.631882 228.0
146.070404 768.0
146.300385 84.0
146.324448 216.0
146.391876 232.0
146.582184 148.0
146.748505 100.0
146.907669 112.0
146.924561 132.0
147.042938 300.0
147.080154 2060.0
147.115219 636.0
147.158676 76.0
147.180405 100.0
147.264923 164.0
147.342224 136.0
147.412308 156.0
147.494476 168.0
147.775009 156.0
147.833084 44.0
148.051529 172.0
148.082092 720.0
148.128464 124.0
148.169647 132.0
148.231567 144.0
148.336868 160.0
148.455673 44.0
148.472656 160.0
149.057114 656.0
149.09671 916.0
149.129715 500.0
149.154922 220.0
149.242447 52.0
149.286209 112.0
149.347015 164.0
149.381073 176.0
149.870422 40.0
149.95816 156.0
150.028854 60.0
150.071304 396.0
150.106873 180.0
150.126389 164.0
150.177597 96.0
150.197113 116.0
150.463104 224.0
150.919998 108.0
151.125458 40.0
151.228241 72.0
151.469666 168.0
151.602966 104.0
151.681396 184.0
151.727982 184.0
152.027222 160.0
152.060287 144.0
152.191696 164.0
152.378357 152.0
152.422592 56.0
152.572525 104.0
152.720062 40.0
152.756958 216.0
153.020294 60.0
153.069199 484.0
153.234985 116.0
153.328201 172.0
153.382431 176.0
153.530365 144.0
153.621628 184.0
153.796829 68.0
153.947433 140.0
153.964722 124.0
154.076569 752.0
154.351471 216.0
154.580292 148.0
154.738693 220.0
154.810501 152.0
154.936829 136.0
155.049072 188.0
155.086807 1476.0
155.122696 132.0
155.343399 180.0
155.44017 152.0
155.56427 128.0
155.651169 84.0
155.971649 160.0
156.006653 232.0
156.023865 104.0
156.092545 704.0
156.275055 212.0
156.374603 44.0
156.748154 172.0
157.065201 764.0
157.100342 1896.0
157.286865 48.0
157.361771 136.0
157.469147 128.0
157.499115 44.0
157.699005 96.0
157.866516 88.0
158.071075 1092.0
158.103409 788.0
158.21431 136.0
158.306961 48.0
158.338257 152.0
158.3909 124.0
158.615128 76.0
158.64772 64.0
158.690338 184.0
158.790649 124.0
158.896011 148.0
158.913574 88.0
158.972565 156.0
159.044067 348.0
159.079636 2704.0
159.116959 296.0
159.163025 196.0
159.248825 196.0
159.302704 68.0
159.395676 104.0
159.466034 112.0
159.531387 100.0
159.58168 148.0
159.604309 116.0
159.621902 140.0
159.760239 104.0
159.806015 188.0
159.965729 116.0
160.046585 168.0
160.087601 368.0
160.120193 172.0
160.261261 168.0
160.314178 152.0
160.374664 168.0
160.699982 60.0
160.7883 160.0
160.8918 168.0
160.924622 188.0
161.023102 172.0
161.057892 1320.0
161.095749 1168.0
161.128525 260.0
161.197083 88.0
161.242905 84.0
161.518509 56.0
161.573364 176.0
161.652603 140.0
161.769028 80.0
162.067078 356.0
162.097778 292.0
162.440567 120.0
162.582657 132.0
162.61058 144.0
162.671494 96.0
162.828918 180.0
162.894974 220.0
162.955933 88.0
163.078888 504.0
163.110962 144.0
163.227921 132.0
163.495026 72.0
163.617203 184.0
163.66304 72.0
163.803116 156.0
164.07814 204.0
164.129333 156.0
164.319641 176.0
164.522781 140.0
164.560547 80.0
164.698837 112.0
164.882416 156.0
165.0 296.0
165.068436 736.0
165.10228 136.0
165.12529 164.0
165.235291 124.0
165.34021 216.0
165.483551 232.0
165.696136 188.0
165.716629 88.0
165.816574 84.0
165.858902 212.0
165.929367 128.0
166.019104 204.0
166.076996 588.0
166.275665 240.0
166.406586 40.0
166.519577 96.0
166.663437 72.0
166.707123 144.0
166.799637 204.0
167.049515 192.0
167.084503 828.0
167.66188 224.0
167.69281 132.0
167.976456 180.0
168.054077 136.0
168.091339 1024.0
168.366196 144.0
168.490189 100.0
168.589783 208.0
168.64006 124.0
168.694351 124.0
168.973648 56.0
169.067795 652.0
169.100342 1556.0
169.216949 84.0
169.24762 156.0
169.29007 116.0
169.439682 36.0
169.553818 84.0
169.60553 96.0
169.799988 156.0
169.82074 144.0
169.854462 204.0
169.875214 88.0
169.940079 60.0
170.004944 124.0
170.038681 56.0
170.074356 404.0
170.105499 736.0
170.158096 156.0
170.191849 144.0
170.228195 80.0
170.350281 192.0
170.643951 160.0
170.792175 40.0
170.828598 168.0
170.867615 28.0
171.010742 180.0
171.044983 288.0
171.080353 1236.0
171.116058 992.0
171.312805 72.0
171.333649 112.0
171.450897 76.0
171.518661 244.0
171.57341 60.0
171.612823 168.0
171.698578 144.0
171.724655 40.0
171.764404 248.0
171.831604 168.0
171.904663 72.0
171.980362 108.0
172.053284 148.0
172.085815 588.0
172.127701 204.0
172.163116 108.0
172.37471 144.0
172.536774 120.0
172.602127 104.0
172.866333 44.0
172.917374 48.0
172.963181 56.0
173.002441 256.0
173.059448 1168.0
173.094208 1176.0
173.13475 120.0
173.172653 104.0
173.190979 56.0
173.287918 132.0
173.371765 40.0
173.392731 212.0
173.673279 80.0
173.783463 180.0
173.875305 172.0
174.067902 852.0
174.099579 400.0
174.13887 248.0
174.193008 156.0
174.258698 152.0
174.539932 36.0
174.579376 176.0
174.976715 164.0
175.042542 108.0
175.075256 1000.0
175.108994 416.0
175.187393 92.0
175.261169 160.0
175.303329 216.0
175.559311 120.0
175.590683 128.0
175.630249 200.0
175.669815 152.0
175.83342 268.0
176.043777 212.0
176.078949 252.0
176.115921 132.0
176.451538 192.0
176.787476 180.0
176.80864 120.0
176.888046 132.0
176.975418 56.0
177.055618 172.0
177.08934 124.0
177.126114 164.0
177.211151 56.0
177.23764 152.0
177.415222 160.0
177.83168 120.0
177.895401 84.0
178.074417 444.0
178.113144 216.0
178.142365 192.0
178.36293 204.0
178.751221 120.0
178.812439 180.0
178.950851 180.0
178.982803 92.0
179.084335 1652.0
179.310486 152.0
179.395782 76.0
179.414444 192.0
179.555771 176.0
179.635788 208.0
179.758514 184.0
180.025467 40.0
180.090958 696.0
180.247192 52.0
180.456451 192.0
180.597412 240.0
180.618805 144.0
180.749908 172.0
180.796844 192.0
181.065079 668.0
181.10051 1596.0
181.162231 172.0
181.342331 192.0
181.379288 132.0
181.457748 208.0
181.529419 116.0
181.5616 120.0
181.64743 36.0
181.795013 60.0
181.867477 116.0
181.995239 236.0
182.071487 476.0
182.109299 1840.0
182.144043 184.0
182.205276 176.0
182.360855 124.0
182.393936 140.0
182.469223 232.0
182.789291 152.0
182.843124 128.0
183.001938 204.0
183.050415 108.0
183.081329 1784.0
183.116898 1820.0
183.319794 84.0
183.352142 148.0
183.398346 136.0
183.45726 112.0
183.527359 188.0
183.667587 108.0
183.708649 184.0
183.880753 92.0
183.986023 208.0
184.036453 136.0
184.045486 196.0
184.087112 940.0
184.122589 792.0
184.169647 148.0
184.280411 200.0
184.329056 124.0
184.356079 32.0
184.399323 40.0
184.891541 196.0
184.937561 164.0
185.026154 148.0
185.060562 320.0
185.095398 1656.0
185.133087 1072.0
185.204254 176.0
185.254379 80.0
185.322113 40.0
185.39798 88.0
185.423309 176.0
185.473877 36.0
185.56604 180.0
185.604004 40.0
185.663666 108.0
185.924103 72.0
185.9431 188.0
185.994675 120.0
186.0354 180.0
186.070267 976.0
186.103424 796.0
186.319763 164.0
186.353149 156.0
186.372177 96.0
186.440109 84.0
186.554276 48.0
186.585785 128.0
186.626099 176.0
186.763657 36.0
186.801743 76.0
187.034454 328.0
187.074265 1796.0
187.11116 264.0
187.14032 128.0
187.147781 80.0
187.159592 140.0
187.231277 168.0
187.294434 164.0
187.348923 88.0
187.40004 68.0
187.866898 128.0
187.885986 40.0
187.948746 68.0
188.039932 356.0
188.082016 772.0
188.197128 92.0
188.350067 180.0
188.434753 116.0
188.459351 44.0
188.552261 140.0
188.697296 132.0
188.822922 80.0
188.842072 156.0
188.904984 168.0
189.000137 164.0
189.056213 548.0
189.092392 1220.0
189.113632 160.0
189.570312 88.0
189.65802 200.0
189.6772 160.0
189.946854 188.0
190.049072 248.0
190.078568 340.0
190.099579 304.0
190.179169 56.0
190.212112 208.0
190.332916 192.0
190.544403 92.0
190.6763 200.0
191.034714 336.0
191.068451 204.0
191.090546 388.0
191.132812 136.0
191.165833 68.0
191.231873 100.0
191.431198 164.0
191.700073 128.0
191.810318 192.0
191.986771 112.0
192.092468 1020.0
192.174347 164.0
192.320999 248.0
192.389618 44.0
192.613312 104.0
192.798416 152.0
192.870285 172.0
192.950455 52.0
193.000229 88.0
193.063828 128.0
193.101242 1076.0
193.714264 104.0
194.072815 296.0
194.10994 1096.0
194.23819 56.0
194.310318 116.0
194.40744 236.0
194.476822 236.0
194.643387 152.0
194.673935 180.0
195.080139 1940.0
195.116562 1748.0
195.278168 88.0
195.32431 72.0
195.371597 48.0
195.407761 180.0
195.530212 124.0
195.558044 156.0
195.663818 76.0
195.733429 104.0
195.960983 224.0
196.014771 172.0
196.087173 636.0
196.123428 1728.0
196.268433 136.0
196.430511 176.0
196.550156 188.0
196.776245 48.0
196.820923 72.0
196.997238 156.0
197.058319 344.0
197.095566 2760.0
197.131821 1316.0
197.214828 116.0
197.23999 36.0
197.347839 76.0
197.473587 132.0
197.522415 88.0
197.583954 52.0
197.735062 52.0
197.855438 48.0
197.961838 148.0
197.995438 176.0
198.066879 652.0
198.100586 1548.0
198.137894 504.0
198.185928 40.0
198.362488 124.0
198.443787 152.0
198.648529 172.0
198.727081 84.0
198.934769 156.0
199.043152 232.0
199.073807 552.0
199.111267 1600.0
199.144379 272.0
199.209961 48.0
199.274582 40.0
199.342026 316.0
199.443207 52.0
199.521912 200.0
199.547211 44.0
200.03392 188.0
200.054001 208.0
200.081253 604.0
200.115356 324.0
200.24791 176.0
200.439484 100.0
200.509933 244.0
200.639603 144.0
200.707275 100.0
201.05307 548.0
201.089706 672.0
201.123627 424.0
201.147385 228.0
201.257492 60.0
201.364807 56.0
201.443893 156.0
201.534302 72.0
201.712357 68.0
201.771713 168.0
201.898956 148.0
202.062164 628.0
202.094696 944.0
202.346054 84.0
202.41684 148.0
202.439484 52.0
202.541458 108.0
202.646271 40.0
202.762451 168.0
203.029739 332.0
203.067566 856.0
203.10611 752.0
203.141983 316.0
203.253052 160.0
203.318329 180.0
203.556793 128.0
203.718689 120.0
203.921158 140.0
203.980118 68.0
204.042664 152.0
204.074753 636.0
204.140228 220.0
204.162094 196.0
204.335602 220.0
204.75975 200.0
204.919281 52.0
205.051392 172.0
205.099014 624.0
205.155823 224.0
205.595078 264.0
205.777771 256.0
205.812042 184.0
205.923416 44.0
206.000534 176.0
206.056 280.0
206.105423 1152.0
206.312027 160.0
206.572266 120.0
206.603729 164.0
206.721039 140.0
206.952911 56.0
207.027359 128.0
207.056 164.0
207.082489 368.0
207.11618 2156.0
207.256531 136.0
207.316696 116.0
207.345367 140.0
207.454285 108.0
207.766876 40.0
207.907471 172.0
208.015228 148.0
208.08757 400.0
208.12207 788.0
208.234772 128.0
208.296005 68.0
208.366913 104.0
208.389893 136.0
208.743454 40.0
208.795212 144.0
208.890137 68.0
208.985077 168.0
209.096558 2592.0
209.130829 820.0
209.275787 52.0
209.298813 96.0
209.344894 84.0
209.517715 84.0
209.569565 132.0
209.667542 156.0
209.687729 32.0
209.853226 136.0
210.069382 44.0
210.102951 3288.0
210.137268 828.0
210.177979 68.0
210.332306 220.0
210.429092 60.0
210.481064 96.0
210.530151 104.0
210.608139 120.0
210.660995 140.0
210.712128 124.0
210.769913 184.0
210.847946 152.0
210.873947 104.0
211.080872 372.0
211.111252 1796.0
211.146866 3112.0
211.180435 104.0
211.203568 196.0
211.330856 100.0
211.4431 260.0
211.495819 64.0
211.582672 152.0
211.846207 116.0
212.015961 136.0
212.076736 572.0
212.116287 652.0
212.151657 648.0
212.23674 192.0
212.297562 52.0
212.588715 48.0
212.68425 64.0
212.754395 240.0
212.835205 116.0
212.887482 192.0
212.960083 172.0
213.05722 224.0
213.090637 1896.0
213.125046 776.0
213.152573 140.0
213.164276 84.0
213.215759 84.0
213.239014 104.0
213.31459 96.0
213.439606 84.0
213.491821 188.0
213.529755 68.0
213.57338 84.0
213.640289 36.0
213.753754 44.0
213.788681 112.0
213.85376 136.0
213.931305 188.0
214.06955 340.0
214.096481 508.0
214.134781 660.0
214.28952 192.0
214.683044 80.0
214.90181 152.0
214.980606 208.0
215.038971 108.0
215.068893 284.0
215.105759 1416.0
215.136444 424.0
215.228729 72.0
215.392273 116.0
215.883301 112.0
216.0354 80.0
216.104126 532.0
216.143646 64.0
216.30687 244.0
216.330963 76.0
216.474426 56.0
216.562286 108.0
216.661896 176.0
216.705841 140.0
216.852356 168.0
217.042908 136.0
217.087479 536.0
217.122314 160.0
217.189209 168.0
217.50058 196.0
217.535812 44.0
217.981857 152.0
218.105133 168.0
218.123764 184.0
218.864716 112.0
219.05838 272.0
219.081909 388.0
219.125305 288.0
219.165161 164.0
219.221146 88.0
219.25946 76.0
219.45697 76.0
219.926025 168.0
220.023438 136.0
220.058411 152.0
220.087341 180.0
220.124573 192.0
220.312866 156.0
220.363083 96.0
220.6409 208.0
220.92186 172.0
221.054337 160.0
221.061783 124.0
221.095505 592.0
221.132217 1872.0
221.185226 136.0
221.318451 60.0
221.418121 140.0
221.593918 196.0
221.789505 228.0
221.890289 112.0
221.914017 132.0
221.955521 48.0
222.102875 1224.0
222.135162 748.0
222.320404 48.0
222.592773 176.0
222.638046 124.0
222.688538 128.0
222.753479 116.0
222.845993 156.0
223.076889 456.0
223.110153 2940.0
223.15213 312.0
223.395996 180.0
223.506073 96.0
223.538589 52.0
223.598328 136.0
223.685211 172.0
223.770981 172.0
224.079559 688.0
224.118256 1100.0
224.337036 160.0
224.372818 144.0
224.567307 180.0
224.793381 96.0
224.873962 136.0
224.912766 144.0
224.957535 52.0
225.091965 1572.0
225.128128 3564.0
225.164337 544.0
225.202179 224.0
225.235245 132.0
225.26535 52.0
225.333832 36.0
225.541748 84.0
225.689514 56.0
225.716431 88.0
225.77533 172.0
225.797165 72.0
225.851013 148.0
225.910828 60.0
225.985626 120.0
226.054443 160.0
226.100754 1012.0
226.131958 688.0
226.169617 308.0
226.521515 84.0
226.641357 116.0
226.713287 40.0
226.773224 160.0
226.944092 120.0
227.066467 392.0
227.107666 1296.0
227.140579 964.0
227.17926 136.0
227.208038 68.0
227.229034 88.0
227.340057 160.0
227.370071 96.0
227.46312 204.0
227.487122 92.0
227.544174 136.0
227.583206 132.0
227.703323 52.0
228.068909 160.0
228.108231 512.0
228.14389 260.0
228.274323 64.0
228.307404 40.0
228.349503 108.0
228.413925 116.0
228.542038 164.0
228.764755 76.0
228.843033 84.0
228.961792 100.0
229.091476 348.0
229.159286 140.0
229.361191 140.0
229.397369 160.0
229.524002 180.0
229.875885 116.0
229.955399 100.0
230.006714 32.0
230.093704 704.0
230.16069 140.0
230.296585 116.0
230.372101 252.0
230.680344 164.0
230.843613 52.0
231.060349 128.0
231.110336 288.0
231.818375 188.0
231.903229 160.0
232.081039 380.0
232.114029 300.0
232.285294 72.0
232.406647 204.0
232.616058 228.0
232.764832 140.0
232.822525 152.0
233.044678 180.0
233.091049 408.0
233.136444 192.0
233.193176 100.0
233.26918 128.0
233.314774 160.0
233.527634 32.0
233.649307 104.0
233.813629 28.0
234.10141 316.0
234.140854 152.0
234.322159 132.0
234.690948 128.0
235.073822 244.0
235.110962 524.0
235.147919 588.0
235.243179 112.0
235.576035 216.0
235.786865 76.0
235.829651 204.0
235.907089 60.0
236.019196 168.0
236.084946 416.0
236.117355 744.0
236.146652 504.0
236.41687 192.0
236.497528 68.0
236.634201 124.0
236.658707 80.0
236.69545 60.0
236.817947 56.0
236.906784 128.0
236.995621 128.0
237.050781 56.0
237.090652 1092.0
237.126587 1060.0
237.1689 200.0
237.40332 28.0
237.461594 48.0
237.529068 60.0
237.601776 272.0
237.704727 80.0
237.835922 112.0
237.891174 140.0
237.955643 72.0
238.054184 136.0
238.098648 2976.0
238.13472 540.0
238.163162 280.0
238.502472 104.0
238.773041 108.0
238.803802 192.0
238.966843 108.0
239.003754 240.0
239.107239 1916.0
239.140945 2452.0
239.177979 288.0
239.333115 72.0
239.41626 156.0
239.490173 64.0
239.527145 52.0
239.630508 108.0
239.816788 44.0
240.077728 200.0
240.11058 1152.0
240.146927 920.0
240.184341 204.0
240.328705 144.0
240.406906 128.0
240.449051 52.0
240.501526 88.0
240.533936 64.0
240.868973 108.0
241.035812 92.0
241.084549 232.0
241.119385 1280.0
241.153229 480.0
241.189636 100.0
241.416046 64.0
241.601624 68.0
241.75325 120.0
242.125519 796.0
242.163208 220.0
242.186691 128.0
242.741455 148.0
242.840683 52.0
243.071167 152.0
243.104919 296.0
243.138611 436.0
243.200607 96.0
243.514206 136.0
243.570114 64.0
243.714371 204.0
244.075043 284.0
244.139511 180.0
244.562027 216.0
244.680313 52.0
244.904526 124.0
245.091446 124.0
245.138199 216.0
245.406265 200.0
245.56218 92.0
245.786804 40.0
245.824249 160.0
245.964691 116.0
245.98967 172.0
246.089096 104.0
246.112595 192.0
246.251953 168.0
246.295685 80.0
246.877014 100.0
247.064697 168.0
247.11348 336.0
247.148972 132.0
247.415207 112.0
247.531052 144.0
247.581161 100.0
247.681381 92.0
247.769104 152.0
247.916367 56.0
248.010391 68.0
248.071411 240.0
248.100037 148.0
248.121078 272.0
248.143784 168.0
248.399216 76.0
248.549805 112.0
249.067398 144.0
249.090439 244.0
249.126312 2020.0
249.17778 108.0
249.382034 88.0
249.507782 28.0
249.645065 220.0
249.668152 48.0
249.71846 124.0
249.998474 60.0
250.067703 132.0
250.102783 596.0
250.125977 244.0
250.168442 140.0
250.215668 44.0
250.502243 84.0
250.536896 68.0
250.911926 104.0
250.990753 152.0
251.069809 284.0
251.105667 2396.0
251.140442 232.0
251.178146 192.0
251.445023 56.0
251.678635 124.0
251.773361 168.0
251.827057 144.0
251.975525 108.0
252.067795 180.0
252.115326 1468.0
252.147141 484.0
252.187775 240.0
252.36113 44.0
252.696396 120.0
252.743851 268.0
252.860947 168.0
252.911591 92.0
252.987549 76.0
253.091202 264.0
253.121704 2480.0
253.15831 1972.0
253.234543 28.0
253.405609 48.0
253.430954 44.0
253.579895 48.0
253.862061 164.0
253.893768 144.0
253.988922 184.0
254.124374 1048.0
254.162582 696.0
254.309402 176.0
254.423676 60.0
254.501282 108.0
254.750778 124.0
254.788895 48.0
254.944595 128.0
255.098358 400.0
255.138809 1592.0
255.272034 32.0
255.294296 52.0
255.322906 56.0
255.411972 120.0
255.494675 128.0
255.546829 144.0
255.773727 64.0
256.039001 136.0
256.074036 140.0
256.105042 316.0
256.120789 100.0
256.134094 300.0
256.154724 296.0
256.347992 192.0
256.587067 132.0
256.73056 148.0
256.794342 108.0
256.849487 232.0
256.92511 80.0
257.117859 256.0
257.155548 716.0
257.218719 128.0
257.343231 156.0
257.375153 96.0
257.470947 192.0
257.522064 196.0
257.553986 48.0
257.608307 124.0
257.678589 44.0
257.902283 196.0
258.062134 156.0
258.092133 220.0
258.115112 160.0
258.1539 336.0
258.385162 88.0
258.423553 80.0
258.455536 132.0
258.567535 108.0
258.609161 96.0
258.842865 124.0
259.098083 248.0
259.153564 120.0
259.265717 200.0
259.804413 136.0
260.091278 204.0
260.116119 152.0
260.353271 164.0
260.39505 100.0
260.48819 168.0
260.597412 32.0
260.90918 60.0
261.07962 384.0
261.129852 276.0
261.171173 184.0
261.623383 168.0
261.68927 128.0
261.906738 40.0
262.097321 260.0
262.139038 256.0
262.196716 60.0
262.435272 160.0
262.861053 92.0
263.051483 64.0
263.107513 312.0
263.146118 548.0
263.561768 60.0
263.626404 124.0
263.881744 160.0
263.920563 100.0
263.982758 188.0
264.072479 644.0
264.113617 180.0
264.147736 416.0
264.464844 116.0
264.519073 68.0
264.64212 148.0
265.011353 116.0
265.085205 336.0
265.118744 1548.0
265.157043 148.0
265.184814 392.0
265.410034 84.0
265.575439 56.0
265.65976 208.0
265.864197 148.0
266.090302 400.0
266.129852 968.0
266.162231 676.0
266.578644 176.0
266.650116 76.0
266.84024 120.0
266.890686 52.0
266.965485 264.0
267.098206 824.0
267.138702 19300.0
267.279144 76.0
267.393158 232.0
267.440491 92.0
267.580475 196.0
267.707458 76.0
267.865082 172.0
267.928955 72.0
268.012512 148.0
268.0495 108.0
268.108551 1228.0
268.142059 4396.0
268.179321 884.0
268.476562 136.0
268.49939 124.0
268.525482 32.0
268.60376 120.0
268.724457 36.0
268.845215 100.0
268.933319 72.0
269.076385 180.0
269.150024 3292.0
269.2146 184.0
269.246765 120.0
269.354553 48.0
269.377411 52.0
269.481964 72.0
269.711761 76.0
269.887238 168.0
270.00824 44.0
270.077271 152.0
270.119629 384.0
270.155487 992.0
270.198975 164.0
270.230682 132.0
270.341949 80.0
270.446686 52.0
270.502319 92.0
270.580902 84.0
271.109314 136.0
271.164307 920.0
271.334442 48.0
272.113953 168.0
272.161255 152.0
272.190796 148.0
272.680298 92.0
272.943298 148.0
273.038666 64.0
273.128265 200.0
273.160339 164.0
273.268921 152.0
273.291962 52.0
273.472961 116.0
273.56842 40.0
273.749512 60.0
273.927368 160.0
274.08255 612.0
274.15799 108.0
274.741608 84.0
274.774597 176.0
274.88678 204.0
275.11322 436.0
275.18927 88.0
275.434845 32.0
276.109528 616.0
276.284424 144.0
276.314667 56.0
276.436646 156.0
276.55246 100.0
276.631927 44.0
277.119629 264.0
277.165131 256.0
277.221466 160.0
277.335571 180.0
277.440247 76.0
277.476715 44.0
278.00412 116.0
278.094788 444.0
278.133636 160.0
278.174225 176.0
278.279633 172.0
278.787842 168.0
278.967316 180.0
279.103729 2508.0
279.138428 172.0
279.346436 100.0
280.106659 780.0
280.32196 152.0
280.685974 208.0
281.118774 536.0
281.153229 4100.0
281.252472 36.0
281.516235 64.0
281.546295 80.0
281.984863 104.0
282.119568 356.0
282.161682 2644.0
282.288177 156.0
282.85025 132.0
283.13147 936.0
283.170502 1144.0
283.202576 384.0
283.412903 68.0
283.473206 104.0
283.653137 188.0
283.758118 64.0
283.848663 108.0
283.914978 88.0
284.14325 448.0
284.16687 344.0
284.209442 180.0
284.482788 56.0
284.641022 152.0
284.9328 196.0
285.111847 168.0
285.17395 168.0
285.211731 156.0
285.258789 148.0
285.443695 232.0
285.514313 148.0
286.045929 60.0
286.100433 276.0
286.121796 112.0
286.167145 156.0
286.487091 164.0
286.749908 56.0
286.881378 96.0
287.09494 284.0
287.128937 260.0
287.319794 64.0
287.640381 48.0
287.816986 156.0
288.101379 140.0
288.535614 176.0
288.572815 188.0
289.114044 104.0
289.957336 168.0
290.129761 316.0
290.486267 156.0
290.611816 100.0
290.876526 48.0
291.143158 140.0
291.167725 220.0
291.837982 84.0
291.912781 156.0
291.94339 148.0
292.098267 144.0
292.145203 248.0
292.171265 100.0
292.606903 220.0
292.903198 88.0
293.11615 1216.0
293.193451 136.0
293.36322 128.0
294.121124 508.0
294.18457 136.0
294.800171 204.0
295.168793 1160.0
295.220673 48.0
295.271942 32.0
295.514832 60.0
295.696198 128.0
296.135925 252.0
296.177185 2896.0
296.871307 56.0
297.114044 400.0
297.149353 680.0
297.181732 836.0
297.248657 68.0
297.488892 56.0
297.688049 176.0
298.079651 152.0
298.117004 124.0
298.1492 268.0
298.189575 272.0
298.268677 44.0
298.612518 100.0
299.059814 56.0
299.096313 152.0
299.138641 288.0
299.170013 204.0
299.245697 56.0
300.100281 124.0
300.16571 120.0
300.541687 36.0
301.100922 196.0
301.15274 144.0
302.079102 148.0
302.307465 60.0
302.352631 144.0
302.404358 120.0
302.681335 44.0
303.103912 416.0
303.176697 264.0
303.918793 104.0
304.151306 96.0
304.856354 120.0
305.154785 188.0
305.395233 136.0
305.590057 88.0
305.750122 120.0
306.094757 164.0
306.795074 132.0
306.923157 152.0
307.039154 52.0
307.077515 104.0
307.115112 108.0
307.138672 268.0
307.174225 144.0
307.848816 80.0
307.887238 88.0
307.988525 124.0
308.132446 160.0
308.418304 100.0
308.977814 48.0
309.10379 64.0
309.151337 232.0
309.188873 980.0
309.327789 112.0
309.974548 72.0
310.049713 172.0
310.18396 176.0
310.256104 152.0
310.470001 180.0
310.583923 200.0
310.68396 64.0
310.785706 132.0
310.82431 116.0
310.912048 148.0
311.010315 176.0
311.064636 152.0
311.093719 152.0
311.125397 652.0
311.200989 21888.0
311.301941 152.0
311.337433 80.0
311.487885 80.0
311.515961 64.0
311.572174 60.0
311.631897 56.0
311.663849 44.0
311.69165 108.0
311.730286 44.0
311.825195 44.0
311.849792 48.0
311.941193 60.0
311.990387 36.0
312.022034 92.0
312.08374 152.0
312.203278 4068.0
312.431854 128.0
312.514435 76.0
312.619995 120.0
312.943848 48.0
313.067078 124.0
313.117004 216.0
313.134674 148.0
313.18515 1880.0
313.250244 80.0
313.468689 68.0
313.701294 72.0
313.773926 80.0
313.881104 76.0
313.986908 44.0
314.046661 72.0
314.114929 1364.0
314.185638 296.0
314.322052 76.0
314.385559 80.0
314.431458 100.0
314.526733 56.0
314.763306 28.0
314.959412 68.0
315.084717 72.0
315.120636 432.0
315.183655 200.0
315.45224 88.0
315.586578 56.0
316.120636 144.0
316.283539 136.0
316.492401 28.0
317.126526 56.0
317.151337 80.0
318.318573 28.0
319.381226 144.0
320.185608 124.0
321.023102 216.0
321.10611 128.0
321.131989 112.0
321.138458 172.0
321.858093 104.0
322.036652 112.0
322.476135 44.0
323.051819 124.0
323.164764 956.0
323.230713 184.0
323.391785 72.0
323.502747 56.0
323.756958 100.0
323.835754 80.0
324.115173 120.0
324.167542 324.0
324.177399 516.0
324.430573 100.0
325.136414 276.0
325.331024 196.0
325.629059 132.0
325.823059 192.0
326.145355 268.0
326.42691 92.0
326.585144 152.0
326.90274 112.0
326.984528 72.0
327.06369 200.0
327.125854 464.0
327.160889 196.0
327.193298 132.0
327.240112 72.0
327.33371 28.0
327.740753 44.0
328.115143 164.0
329.161957 40.0
330.593475 108.0
331.321289 124.0
332.434418 44.0
332.615906 144.0
332.957184 164.0
333.57489 160.0
333.622162 80.0
334.70639 112.0
335.019592 92.0
335.336609 196.0
335.938263 128.0
336.038544 108.0
336.168152 124.0
336.37619 168.0
336.858215 164.0
337.115387 176.0
337.17984 1100.0
337.775726 216.0
337.867188 132.0
338.072083 156.0
338.105042 200.0
338.13797 32.0
338.177795 160.0
338.38324 48.0
338.434479 72.0
338.507721 96.0
338.855682 100.0
338.928986 192.0
338.980286 112.0
339.122253 5732.0
339.198608 936.0
339.328491 100.0
339.375366 92.0
339.457855 72.0
339.497162 108.0
339.566833 84.0
339.658539 248.0
339.713562 56.0
339.768585 132.0
339.953247 208.0
340.065826 64.0
340.123322 1440.0
340.189209 224.0
340.410919 56.0
340.462341 68.0
340.627625 68.0
340.917877 132.0
341.127106 332.0
341.173218 984.0
341.204895 324.0
341.5466 132.0
341.693726 68.0
341.774689 56.0
341.83725 104.0
341.921875 76.0
341.980774 44.0
342.124329 172.0
342.187866 172.0
342.293701 200.0
342.479462 100.0
342.923676 100.0
343.200165 164.0
344.421722 88.0
344.528839 140.0
347.457275 116.0
347.75415 60.0
348.53772 52.0
348.846222 128.0
349.370575 112.0
349.500793 144.0
350.856506 80.0
351.035492 96.0
351.721985 120.0
352.861359 52.0
353.044586 68.0
353.139771 2708.0
353.216644 100.0
353.923981 152.0
354.000885 224.0
354.085022 168.0
354.146759 1640.0
354.238586 56.0
354.474609 92.0
354.557068 52.0
354.647003 68.0
354.691986 52.0
355.069183 60.0
355.15509 488.0
355.188904 1308.0
355.400818 64.0
355.490875 64.0
355.584686 160.0
355.922546 68.0
355.963867 112.0
356.194763 424.0
356.51355 64.0
356.64386 76.0
356.978485 104.0
357.151489 132.0
357.234222 48.0
357.932343 124.0
359.355316 48.0
359.740265 88.0
361.062714 40.0
362.039124 52.0
362.58847 60.0
362.963776 96.0
365.180176 220.0
366.190247 168.0
366.681732 104.0
366.944763 36.0
367.150665 76.0
368.112335 128.0
368.159454 536.0
368.918518 52.0
369.153442 200.0
369.166901 88.0
369.176819 196.0
369.465393 112.0
370.150513 40.0
373.301025 100.0
374.690552 60.0
374.894775 44.0
377.43866 132.0
377.852539 228.0
378.208557 204.0
379.366791 184.0
380.942322 100.0
381.109406 52.0
381.299805 96.0
381.451385 96.0
381.529144 112.0
381.556366 80.0
381.587463 100.0
381.641907 88.0
382.15921 44.0
382.29541 152.0
382.423828 40.0
382.563965 100.0
382.684662 108.0
382.770325 48.0
382.914398 232.0
383.037048 180.0
383.108978 172.0
383.123657 100.0
383.185333 13196.0
383.331268 188.0
383.422638 124.0
383.491058 48.0
383.530029 48.0
383.600189 84.0
383.961151 72.0
384.10321 160.0
384.188263 3236.0
384.244141 64.0
384.329193 52.0
384.434845 64.0
384.520721 44.0
384.680756 100.0
384.7276 84.0
384.778351 44.0
384.899384 28.0
385.18927 756.0
385.270813 128.0
385.411102 88.0
385.485321 40.0
385.66629 148.0
385.700287 136.0
385.774567 40.0
385.825378 112.0
386.017334 44.0
386.196564 196.0
386.268402 112.0
386.322052 52.0
386.372925 88.0
386.443329 68.0
386.541168 128.0
386.584198 164.0
386.635071 72.0
386.709442 44.0
387.614105 100.0
387.866241 60.0
388.135437 64.0
388.202087 92.0
388.629669 68.0
388.904358 60.0
389.619049 92.0
390.692322 88.0
391.625244 64.0
392.003479 52.0
394.561188 88.0
396.750519 100.0
399.836884 56.0
401.382538 52.0
401.897095 84.0
402.18045 104.0
403.930634 48.0
404.558899 76.0
405.893097 76.0
410.699036 128.0
413.187469 56.0
413.567841 72.0
414.527679 56.0
429.363922 76.0
434.862457 48.0
435.136444 104.0
435.501862 40.0
439.077087 104.0
440.705109 76.0
442.03064 116.0
448.532074 52.0
450.523895 80.0
458.411621 116.0
458.761108 100.0
460.502075 68.0
461.138702 60.0
464.581421 48.0
467.64093 56.0
475.997742 60.0
476.119324 104.0
478.271515 116.0
479.360291 104.0
485.291931 112.0
492.288422 48.0
495.907379 36.0
497.095917 88.0
497.788422 108.0
500.696838 80.0
501.868835 80.0
508.381866 56.0
510.088593 48.0
512.190002 128.0
512.829834 136.0
513.591858 84.0
518.619873 52.0
532.545654 64.0
533.984253 52.0
534.200439 72.0
545.060974 64.0
546.744385 56.0
547.587036 52.0
550.777405 48.0
559.014954 84.0
562.295044 36.0
563.995361 104.0
568.043945 28.0
570.808167 56.0
573.41217 88.0
576.050842 52.0
588.871155 124.0
590.383911 108.0
598.18103 48.0
602.951294 84.0
619.528809 60.0
623.83136 48.0
633.918518 100.0
636.361328 48.0
649.42157 92.0
652.412415 88.0
652.859863 88.0
655.104492 148.0
656.118652 140.0
677.068542 120.0
700.347717 32.0
712.371216 116.0
728.959473 104.0
730.014771 48.0
730.993835 64.0
740.045959 48.0
744.785706 96.0
756.668518 124.0
770.942505 84.0
775.53064 52.0
776.700562 68.0
778.376648 124.0
791.183838 120.0
801.140869 60.0
810.927734 168.0
811.81781 88.0
832.407349 44.0
835.03363 60.0
841.834106 236.0
857.131042 60.0
862.891968 112.0
863.675598 52.0
874.654114 64.0
882.181091 108.0
883.133118 92.0
906.566895 168.0
906.812622 132.0
907.951782 200.0
911.643799 80.0
923.641846 64.0
934.251587 84.0
944.114441 192.0
948.394043 56.0
954.225891 40.0
959.674805 148.0
960.279114 96.0
968.908447 84.0
971.487427 68.0
976.232727 140.0
982.561096 84.0
985.183167 168.0
988.371765 104.0
991.195801 92.0
994.582397 200.0
995.455078 156.0
1009.88092 80.0
1010.11499 188.0
1015.074036 100.0
1018.05658 84.0
1018.767944 172.0
1025.041382 216.0
1036.825439 184.0
1038.376953 68.0
1048.999146 56.0
1061.055908 92.0
1075.686646 196.0
1076.058838 144.0
1079.691895 144.0
1081.307861 100.0
1082.237427 160.0
1084.16333 172.0
1089.7146 120.0
1108.506714 216.0
1109.75293 44.0
1111.82251 152.0
1112.711914 260.0
1113.090454 184.0
1116.153687 184.0
1118.156006 176.0
1138.546997 252.0
1156.981934 188.0
1158.363403 148.0
1158.695435 108.0
1160.994019 160.0
1162.173462 48.0
1173.736816 140.0
1180.97583 40.0
1183.740723 204.0
1195.210938 80.0
1200.432251 160.0
1204.407593 108.0
1207.815308 140.0
1211.297119 216.0
1215.262573 32.0
1225.50415 216.0
1226.35437 152.0
1236.439575 124.0
1251.757446 80.0
1258.159546 184.0
1258.837402 248.0
1259.734375 164.0
1264.266602 200.0
1265.052246 132.0
1267.701172 148.0
1268.098022 96.0
1272.410889 132.0
1272.659424 120.0
1273.596802 176.0
1275.991577 72.0
1277.399658 148.0
1286.856689 68.0
1291.301514 72.0
1294.407349 180.0
1300.077637 232.0
1300.831299 216.0
1301.700073 112.0
1302.446899 192.0
1304.940552 76.0
1306.055298 76.0
1310.27771 184.0
1311.563599 212.0
1313.633057 184.0
1314.022583 224.0
1315.494873 160.0
1318.463501 228.0
1320.668579 120.0
1321.261719 172.0
1322.35437 184.0
1323.107178 156.0
1323.44751 96.0
1332.135864 168.0
1335.705078 212.0
1337.305786 48.0
1344.2146 176.0
1345.805908 148.0
1346.455811 120.0
1346.799072 144.0
1354.501343 200.0
1355.886108 172.0
1356.714355 152.0
1357.564941 148.0
1357.718872 112.0
1360.485107 196.0
1361.079834 144.0
1362.343018 204.0
1363.04834 132.0
1364.643433 172.0
1365.319946 144.0
1369.610718 216.0
1371.519165 184.0
1375.391602 144.0
1376.393921 200.0
1376.602417 64.0
1381.110718 208.0
1384.818848 152.0
1387.152954 220.0
1387.48645 128.0
1388.146362 148.0
1388.287231 108.0
1388.428223 132.0
1391.789795 184.0
1393.47583 36.0
1394.464111 164.0
1395.831909 172.0
1399.358765 136.0
1401.243164 128.0
1402.30127 188.0
1402.815552 76.0
1403.001953 200.0
1404.209961 20.0
1408.494141 156.0
1409.540161 168.0
1409.846558 204.0
1411.348999 164.0
1417.202148 156.0
1417.914062 192.0
1418.18396 140.0
1419.795898 120.0
1421.183594 184.0
1421.648804 132.0
1422.932373 120.0
1427.139771 48.0
1430.367188 220.0
1431.790283 164.0
1436.365234 128.0
1436.485962 124.0
1436.75 132.0
1439.029175 48.0
1443.199951 192.0
1443.283081 72.0
1443.388916 80.0
1444.508301 92.0
1444.712524 124.0
1445.49939 140.0
1446.301636 48.0
1447.702271 48.0
1449.520264 96.0
1454.374023 168.0
1455.808838 168.0
1458.217163 76.0
1458.44519 100.0
1460.057007 124.0
1462.895142 136.0
1463.854492 160.0
1465.667358 180.0
1466.170288 164.0
1468.747314 112.0
1469.296509 132.0
1469.540649 140.0
1472.769897 168.0
1473.021973 124.0
1475.352661 196.0
1477.937744 176.0
1478.075439 208.0
1479.223511 172.0
1480.571045 160.0
1480.953979 60.0
1481.482544 128.0
1488.039551 108.0
1489.84436 140.0
1491.565674 292.0
1497.012817 152.0
1499.054199 116.0
1503.766235 48.0
1504.22168 116.0
