>compound LINEZOLID
>formula C16H20FN3O4
>ionization [M+H]+
>parentmass 338.1510607920905
#inchi InChI=1S/C16H20FN3O4/c1-11(21)18-9-13-10-20(16(22)24-13)12-2-3-15(14(17)8-12)19-4-6-23-7-5-19/h2-3,8,13H,4-7,9-10H2,1H3,(H,18,21)/t13-/m0/s1
#inchikey TYZROVQLWOKYKF
#Ion_Source LC-ESI
#Instrument qTof
#Compound_Source Commercial
#PI Dorrestein
#Data_Collector Garg_Neha
#Scan -1
#Precursor_MZ 338.151
#ExactMass 337.144
#Charge 1
#CAS_Number N/A
#Pubmed_ID N/A
#Smiles CC(=O)NC[C@H]1CN(C(=O)O1)c2ccc(N3CCOCC3)c(F)c2
#INCHI_AUX N/A
#Library_Class 1
#SpectrumID CCMSLIB00000079102
#IonMode Positive
#UpdateWorkflowName UPDATE-SINGLE-ANNOTATED-GOLD
#LibraryQualityString Gold
#TaskID 278b19f5865741e282cec7349aa7e7a1
##Scan# 1070
#SpectrumFile NCP003512_C2_D11_BD5_01_15729.mzXML
#LibraryName NIHcollectionI_05062014.mgf
#MQScore -1
#Organism NIHcollectionI_05062014
#TIC_Query 0
#RT_Query -1
#MZErrorPPM -1
#SharedPeaks 0
#MassDiff 0
#LibMZ -1
#SpecMZ 338.151
#SpecCharge 0
#internalFilename spec-00000.mgf

>collision 10
45.242481 144.0
45.675884 128.0
46.210148 252.0
46.514637 172.0
46.690342 192.0
49.003063 140.0
49.622219 156.0
50.109917 144.0
51.187828 172.0
51.490154 168.0
51.632034 204.0
51.781914 152.0
51.89082 152.0
52.610153 180.0
52.692474 144.0
53.152905 176.0
53.606598 184.0
53.961288 176.0
54.032951 172.0
54.430157 148.0
54.904003 160.0
55.283669 144.0
55.789448 144.0
56.206474 152.0
56.445469 184.0
56.69846 172.0
56.785416 184.0
56.970043 144.0
58.375698 180.0
58.962624 192.0
59.147694 164.0
59.195152 160.0
59.397457 156.0
59.408195 160.0
60.576702 200.0
60.691387 180.0
61.583092 160.0
61.830116 140.0
61.974182 192.0
62.278522 188.0
62.363369 176.0
63.463684 156.0
64.139336 224.0
64.632812 180.0
64.80574 180.0
64.900307 152.0
65.333946 144.0
65.915993 144.0
66.181267 208.0
66.306 232.0
67.231361 176.0
67.301552 180.0
67.879166 208.0
69.002098 168.0
70.426239 168.0
70.777428 144.0
70.908096 140.0
71.223991 144.0
71.735069 196.0
72.101334 144.0
72.169106 132.0
72.515663 152.0
73.335205 196.0
73.348839 184.0
73.476738 188.0
73.85939 188.0
74.376862 188.0
75.137474 180.0
75.543449 260.0
76.094551 208.0
77.393494 164.0
77.716003 160.0
78.324272 164.0
78.855354 140.0
78.945518 144.0
78.976242 108.0
79.207458 228.0
79.492897 140.0
79.508873 144.0
80.629074 164.0
80.975708 160.0
81.21991 148.0
81.255791 140.0
81.329361 160.0
81.798508 144.0
81.842125 176.0
82.568939 172.0
83.016251 144.0
84.41114 168.0
85.050522 220.0
86.551186 144.0
86.862534 168.0
87.228348 196.0
88.128479 180.0
90.237312 232.0
91.016037 160.0
91.291573 156.0
91.518005 144.0
91.889664 156.0
92.01181 192.0
92.357689 188.0
92.374901 144.0
92.505028 212.0
93.039871 196.0
93.86528 156.0
93.97522 156.0
94.301575 160.0
94.607193 160.0
95.379387 160.0
95.819038 212.0
97.050354 144.0
98.058495 152.0
99.090302 148.0
100.051529 272.0
101.039398 168.0
101.650505 160.0
101.752869 152.0
102.553482 156.0
102.706726 148.0
102.849983 164.0
103.057991 244.0
103.426048 164.0
103.713669 188.0
104.058525 140.0
105.400772 148.0
105.515236 172.0
106.037209 176.0
106.195076 160.0
106.776306 156.0
107.381805 180.0
107.454002 200.0
107.64389 152.0
108.036591 152.0
109.046402 160.0
109.439568 160.0
109.706238 152.0
110.115211 220.0
111.044464 320.0
111.405495 236.0
112.576561 156.0
112.692734 160.0
113.026802 156.0
114.03624 144.0
114.074501 160.0
114.138283 156.0
115.055946 220.0
115.293663 252.0
115.377022 168.0
115.927101 172.0
116.049149 136.0
116.074562 340.0
116.3797 156.0
116.579468 156.0
116.729942 216.0
117.05912 296.0
117.242874 116.0
117.356735 124.0
117.604607 236.0
118.069122 160.0
118.125351 156.0
118.402397 176.0
118.486877 192.0
118.66893 140.0
119.139877 148.0
119.903618 180.0
120.191467 216.0
121.336937 144.0
121.732491 160.0
121.956581 144.0
122.040115 312.0
123.048645 144.0
124.054695 356.0
124.366325 176.0
124.788399 168.0
125.028633 164.0
125.053886 208.0
126.074554 200.0
126.896034 156.0
126.979004 140.0
127.06472 208.0
127.475136 192.0
127.54705 188.0
127.62574 148.0
128.26059 156.0
129.034882 208.0
129.295563 200.0
129.487457 156.0
130.067917 144.0
130.772491 172.0
131.063889 304.0
132.081619 140.0
133.649078 152.0
134.037247 264.0
134.077972 220.0
134.885208 188.0
135.048157 3656.0
135.470657 144.0
135.957565 180.0
136.055923 1848.0
136.110764 192.0
136.936325 196.0
137.061615 964.0
137.114792 152.0
137.376862 192.0
138.067184 668.0
138.159454 144.0
138.407532 152.0
138.545715 188.0
138.578522 180.0
139.066895 464.0
139.506683 116.0
139.96431 144.0
140.049088 168.0
140.073547 156.0
140.169235 164.0
140.716446 192.0
141.051895 196.0
142.050919 148.0
142.065857 252.0
142.661453 208.0
143.067352 452.0
143.230179 156.0
143.38504 140.0
144.041183 156.0
144.079956 420.0
144.761078 176.0
144.880829 144.0
145.078964 124.0
145.16481 116.0
145.87912 164.0
146.042053 308.0
146.081116 176.0
146.297699 152.0
146.486786 160.0
146.637329 172.0
146.904968 180.0
146.943573 148.0
147.051483 188.0
147.091492 340.0
147.750488 180.0
148.017242 148.0
148.05632 9672.0
148.273514 160.0
148.634827 184.0
148.800476 112.0
149.061813 6888.0
149.105942 144.0
149.33934 156.0
149.378067 100.0
150.035767 160.0
150.06958 1820.0
150.099152 180.0
150.868225 160.0
151.034515 180.0
151.068146 3844.0
151.377136 156.0
152.074127 1648.0
152.118927 124.0
152.451599 164.0
152.722031 148.0
153.022247 144.0
153.056931 160.0
153.083969 2712.0
153.502716 204.0
154.08847 540.0
154.176147 180.0
154.300232 156.0
154.371933 200.0
154.725754 216.0
154.963516 200.0
155.065384 296.0
156.069016 952.0
156.157516 140.0
157.077057 1332.0
157.128998 148.0
157.515945 152.0
158.060959 140.0
158.084824 300.0
158.253693 152.0
158.421478 176.0
159.090332 424.0
159.638779 192.0
160.026276 148.0
160.054123 424.0
160.557953 192.0
160.885971 168.0
161.054443 860.0
161.95813 180.0
162.016388 168.0
162.071091 4920.0
162.115204 140.0
162.135483 140.0
162.924591 164.0
162.947464 172.0
163.067505 8764.0
163.122818 152.0
163.337173 160.0
163.386948 120.0
163.617432 120.0
163.723267 176.0
163.868454 188.0
164.074585 1712.0
164.564743 180.0
164.999878 264.0
165.04599 160.0
165.082886 6176.0
165.707993 140.0
165.966858 176.0
166.087372 784.0
166.603348 144.0
167.070923 160.0
167.096649 1064.0
167.259079 160.0
168.069443 176.0
168.90274 168.0
168.941544 172.0
168.982925 148.0
169.076843 4468.0
169.365601 224.0
169.752213 140.0
170.054977 164.0
170.081024 1024.0
170.876892 144.0
171.093231 1364.0
171.311966 132.0
171.940033 144.0
171.966125 144.0
172.056122 1160.0
172.099487 308.0
172.752625 188.0
172.888672 160.0
173.061356 336.0
173.16095 160.0
173.525177 264.0
174.059616 4184.0
174.126083 212.0
174.588623 156.0
174.657013 168.0
175.067566 1168.0
175.537643 148.0
176.075272 1068.0
176.257248 140.0
177.047546 868.0
177.082382 4328.0
177.955994 96.0
178.033463 200.0
178.054153 588.0
178.090378 896.0
178.190353 148.0
178.276459 260.0
179.057404 472.0
179.09668 2196.0
179.229095 140.0
180.095123 592.0
180.162888 184.0
180.289856 208.0
180.333893 204.0
180.492599 96.0
181.087875 2644.0
181.342911 180.0
182.08905 792.0
182.155914 168.0
182.233826 160.0
183.059799 280.0
183.090836 272.0
184.098618 284.0
184.459839 144.0
185.075256 332.0
185.107559 1404.0
186.107529 416.0
186.636841 204.0
186.846252 140.0
187.066803 2080.0
187.097443 336.0
187.518829 180.0
188.075027 460.0
188.137253 228.0
188.605133 156.0
189.083099 7816.0
189.140991 172.0
189.49176 156.0
190.059036 116.0
190.090469 3848.0
191.055908 144.0
191.098145 9824.0
192.102478 1180.0
192.234131 120.0
193.079559 252.0
193.122711 156.0
193.258255 248.0
194.054321 180.0
194.088776 344.0
194.26207 136.0
195.05571 704.0
195.093063 15516.0
195.156662 124.0
196.062439 580.0
196.09877 4672.0
196.811386 188.0
197.072174 1740.0
197.107605 3020.0
197.512238 132.0
197.619049 136.0
198.07901 356.0
198.111816 544.0
198.484879 120.0
198.803467 148.0
199.069916 96.0
199.724991 148.0
200.078812 260.0
200.287933 204.0
200.987076 200.0
201.081711 316.0
201.608307 152.0
202.091034 220.0
203.099014 312.0
203.11908 1036.0
203.548752 196.0
204.10231 260.0
204.447037 144.0
204.521027 180.0
204.558029 248.0
205.002335 244.0
205.076294 860.0
205.114151 444.0
205.695389 176.0
205.752487 192.0
206.084503 460.0
206.115036 196.0
207.056366 288.0
207.089676 456.0
207.764359 188.0
208.11972 596.0
208.446747 172.0
208.657501 172.0
209.070984 128.0
209.109619 6288.0
209.201691 164.0
209.417877 100.0
210.111343 716.0
210.559296 140.0
211.11705 332.0
211.380493 228.0
211.997086 156.0
213.078583 164.0
213.101929 288.0
214.114899 164.0
214.139832 180.0
214.339203 140.0
214.651093 140.0
214.71817 160.0
215.117645 3328.0
215.35733 216.0
215.710892 140.0
216.067657 176.0
216.12175 988.0
217.074722 140.0
217.113495 2188.0
217.177872 204.0
217.57988 152.0
217.635666 160.0
217.673828 156.0
218.11557 664.0
218.761658 152.0
219.100327 148.0
219.18576 172.0
220.096619 140.0
220.806427 268.0
221.077713 188.0
221.106979 1688.0
221.297638 204.0
222.044373 152.0
222.105118 1008.0
223.024155 176.0
223.090363 1428.0
223.122452 3352.0
223.321472 148.0
223.351227 232.0
224.090042 296.0
224.129181 420.0
224.199753 196.0
225.10553 196.0
225.137238 172.0
226.581177 184.0
228.523666 248.0
229.095673 168.0
229.650299 184.0
230.317352 172.0
231.064011 208.0
231.100311 164.0
231.781586 236.0
232.08493 216.0
232.12468 160.0
233.107483 772.0
233.807053 156.0
234.084061 220.0
234.111084 880.0
234.137939 156.0
234.199799 144.0
234.248352 136.0
234.885605 180.0
235.088379 400.0
235.124756 10984.0
235.196838 144.0
235.337265 144.0
235.541885 152.0
236.067551 164.0
236.093124 488.0
236.127213 2352.0
236.995026 188.0
237.134583 156.0
238.098007 1772.0
239.090897 368.0
239.112839 248.0
239.162216 164.0
240.099731 148.0
240.933121 148.0
241.099701 4100.0
242.102036 556.0
244.144272 1200.0
244.303894 120.0
245.735992 156.0
246.12825 304.0
247.1362 180.0
248.124527 384.0
248.799911 156.0
249.128372 1476.0
250.09819 588.0
250.134995 328.0
250.772171 196.0
251.108124 1048.0
251.140045 540.0
251.36821 144.0
251.579666 160.0
251.674377 140.0
252.114578 3700.0
253.116852 976.0
253.174042 156.0
253.521698 188.0
253.550217 180.0
254.109772 300.0
254.762283 224.0
256.885559 144.0
256.987671 232.0
257.032318 152.0
258.131165 148.0
260.294098 156.0
261.882751 176.0
261.969727 148.0
262.106018 224.0
262.156616 172.0
263.909363 200.0
264.116302 160.0
265.162109 200.0
266.018402 180.0
266.103638 320.0
267.102051 184.0
267.181793 168.0
268.119171 180.0
268.980591 148.0
270.425293 176.0
271.084991 164.0
272.694916 200.0
273.500732 180.0
274.022552 184.0
274.433014 140.0
274.94101 200.0
275.535339 180.0
275.657593 180.0
275.703857 144.0
276.018768 140.0
276.118317 196.0
276.149445 160.0
277.151642 268.0
278.08847 120.0
278.130005 1624.0
279.116089 888.0
280.113495 452.0
281.126892 164.0
281.727875 184.0
282.041992 180.0
285.532257 236.0
285.872009 164.0
286.020111 180.0
286.488159 144.0
288.14798 192.0
288.675262 140.0
289.544983 144.0
292.145569 136.0
292.566956 144.0
293.118927 316.0
293.150299 448.0
294.121704 612.0
294.160645 5268.0
294.992401 148.0
295.163422 468.0
295.255676 176.0
295.774841 172.0
296.141296 28480.0
296.608337 112.0
296.712097 104.0
297.14447 3764.0
297.499969 184.0
298.146118 376.0
298.431885 108.0
298.701294 160.0
299.153442 208.0
299.227692 100.0
299.442688 144.0
301.720062 148.0
303.062927 148.0
304.315033 176.0
304.971588 140.0
308.143829 156.0
308.506134 188.0
309.058716 144.0
309.927032 140.0
311.663879 160.0
312.30368 256.0
312.40921 188.0
313.211792 156.0
313.542969 208.0
314.15686 156.0
314.527008 188.0
315.314606 152.0
315.827271 164.0
318.460754 176.0
319.708649 156.0
320.14151 172.0
322.665588 148.0
325.370453 224.0
327.992859 184.0
328.108215 184.0
329.335114 172.0
330.065125 200.0
330.98056 144.0
331.50943 140.0
333.581848 192.0
334.229187 176.0
334.624908 248.0
334.750732 128.0
335.61142 172.0
335.719055 152.0
336.006744 220.0
336.631714 112.0
336.84317 172.0
337.142761 520.0
337.181885 192.0
337.230316 172.0
337.30545 124.0
337.353912 188.0
337.382629 164.0
337.461151 196.0
337.500427 128.0
337.58548 172.0
337.651337 136.0
337.742371 268.0
337.77475 108.0
337.836121 132.0
337.888672 156.0
337.925934 112.0
337.964081 276.0
338.006531 244.0
338.09314 544.0
338.153351 212596.0
338.240448 136.0
338.2789 124.0
338.391479 260.0
338.462524 96.0
338.493469 216.0
338.535583 236.0
338.588501 200.0
338.620117 312.0
338.672821 120.0
338.754272 2104.0
338.796448 108.0
338.914917 140.0
338.942627 196.0
339.037872 208.0
339.097351 252.0
339.154907 41888.0
339.247925 148.0
339.398468 236.0
339.43277 160.0
339.495789 128.0
339.576447 148.0
339.653595 116.0
339.732239 172.0
339.93573 176.0
340.020844 140.0
340.101013 192.0
340.156494 5412.0
340.21402 124.0
340.434418 96.0
340.500885 196.0
340.53598 100.0
341.01123 140.0
341.077454 148.0
341.108368 160.0
341.165802 820.0
341.314331 112.0
341.360687 212.0
341.411377 216.0
341.51236 120.0
341.556732 288.0
341.651703 148.0
341.693787 112.0
342.066437 120.0
342.245087 96.0
342.556061 132.0
342.644623 100.0
342.970978 140.0
353.440186 160.0
394.128174 176.0
401.109009 148.0
412.266815 144.0
422.857056 192.0
458.386078 140.0
714.974915 144.0
1162.128174 164.0
1224.509399 208.0
1239.290771 144.0
1371.363892 172.0
1418.19043 192.0
1429.207153 184.0
1453.431641 152.0
1464.690674 208.0
1477.545898 148.0
1486.602539 160.0
1555.079468 192.0
1567.237061 212.0
1594.752686 244.0
1605.428833 172.0
1608.668213 172.0
1608.859741 164.0
1628.188843 164.0
1631.000854 144.0
1631.386719 152.0
1635.432739 208.0
1660.852173 168.0
1700.711182 156.0
1719.980103 168.0
1721.449707 184.0
1722.234253 172.0
1737.224854 216.0
1739.00061 156.0
1779.932251 168.0
1783.939819 160.0
1794.716064 176.0
1829.648071 212.0
1834.708496 200.0
1851.292847 240.0
1851.832397 156.0
1858.441772 208.0
1859.411377 236.0
1863.833984 168.0
1904.350464 168.0
1922.127197 164.0
1925.252319 160.0
1929.35022 144.0
1931.466431 144.0
1933.540039 204.0
1962.281494 192.0
1978.236328 148.0
1982.425659 152.0
1982.851074 152.0
1988.376343 164.0
1994.362427 156.0
