>compound Nimesulide
>formula C13H12N2O5S
>ionization [M+H]+
>parentmass 309.054169
#inchi InChI=1S/C13H12N2O5S/c1-21(18,19)14-12-8-7-10(15(16)17)9-13(12)20-11-5-3-2-4-6-11/h2-9,14H,1H3
#inchikey HYWYRSMBCFDLJT
#Ion_Source LC-ESI
#Instrument qTof
#Compound_Source Commercial
#PI Dorrestein
#Data_Collector Garg_Neha
#Scan -1
#Precursor_MZ 309.054
#ExactMass 308.047
#Charge 1
#CAS_Number 51803-78-2
#Pubmed_ID N/A
#Smiles C1=CC(=CC(=C1NS(=O)(=O)C)OC2=CC=CC=C2)[N+](=O)[O-]
#INCHI_AUX N/A
#Library_Class 1
#SpectrumID CCMSLIB00000078405
#IonMode Positive
#UpdateWorkflowName UPDATE-SINGLE-ANNOTATED-GOLD
#LibraryQualityString Gold
#TaskID 77f51c88eb8b467eb4a01dd2d0cb90d2
##Scan# 1614
#SpectrumFile Plate6_41_60_GD9_01_15776.mzXML
#LibraryName FDALibrary_2_04302014.mgf
#MQScore -1
#Organism FDALibrary_2_04302014
#TIC_Query 0
#RT_Query -1
#MZErrorPPM -1
#SharedPeaks 0
#MassDiff 0
#LibMZ -1
#SpecMZ 309.054
#SpecCharge 0
#internalFilename spec-00000.mgf

>collision 10
46.493565 144.0
47.652946 144.0
49.352348 168.0
51.713661 152.0
55.955273 144.0
58.015141 236.0
62.862087 176.0
64.386185 172.0
70.01075 168.0
76.571091 180.0
79.120895 172.0
83.878479 176.0
90.650719 156.0
91.058609 140.0
96.180855 204.0
110.895348 196.0
116.238022 212.0
118.062698 144.0
121.039772 160.0
122.568649 160.0
123.031837 160.0
124.031746 156.0
124.320084 144.0
128.046738 184.0
128.599487 204.0
129.067001 144.0
130.066315 184.0
138.179199 160.0
138.4039 180.0
141.308487 156.0
143.071777 156.0
143.534149 160.0
143.572311 148.0
144.044907 180.0
144.077698 540.0
145.054749 200.0
146.068115 244.0
151.491516 196.0
153.988251 144.0
154.064438 2512.0
155.068573 956.0
155.784134 204.0
156.076645 1028.0
157.06366 164.0
157.083603 144.0
158.058228 132.0
158.088043 148.0
160.075516 120.0
160.893219 148.0
161.466827 164.0
163.875916 160.0
166.064041 192.0
170.061325 144.0
171.068069 140.0
172.064331 180.0
173.08786 156.0
174.058105 156.0
176.772552 168.0
182.057999 756.0
183.037704 132.0
183.067307 3640.0
184.073486 1068.0
185.081436 148.0
186.075287 204.0
198.055099 260.0
199.065079 304.0
199.999451 232.0
200.068329 1144.0
201.073532 116.0
207.330444 160.0
208.133682 176.0
212.056168 248.0
213.066925 1088.0
214.071793 652.0
214.466782 220.0
214.99762 144.0
215.05806 1400.0
216.061172 280.0
216.094803 136.0
217.021912 148.0
226.913773 168.0
227.417755 148.0
229.057678 244.0
230.068008 3672.0
231.07106 732.0
232.076645 252.0
239.597824 232.0
243.032898 160.0
247.08223 192.0
250.25972 236.0
256.864594 144.0
258.068604 180.0
258.724487 208.0
261.054016 172.0
262.050568 168.0
263.058228 572.0
263.145264 212.0
263.578094 160.0
264.06723 172.0
266.868164 168.0
269.639069 152.0
280.069183 144.0
288.942047 148.0
290.049652 124.0
290.877106 140.0
292.050751 6664.0
292.422455 152.0
292.641571 148.0
293.052948 632.0
294.049225 896.0
295.046722 116.0
295.981018 156.0
302.765228 168.0
307.11676 140.0
307.179565 176.0
308.041412 196.0
308.073242 268.0
308.828308 200.0
308.964722 156.0
309.054169 30376.0
309.123871 336.0
309.173645 264.0
309.507233 140.0
309.902435 180.0
310.054657 3232.0
310.132233 200.0
310.171265 148.0
310.225494 160.0
310.590179 144.0
311.052582 2008.0
311.156494 248.0
311.985565 124.0
312.056244 304.0
313.145538 152.0
327.072113 140.0
1377.755493 184.0
1396.175537 148.0
1818.49353 176.0
1998.637329 200.0
