>compound Beclomethasone
>formula C22H29ClO5
>ionization [M+H]+
>parentmass 409.17762816009053
#inchi InChI=1S/C22H29ClO5/c1-12-8-16-15-5-4-13-9-14(25)6-7-19(13,2)21(15,23)17(26)10-20(16,3)22(12,28)18(27)11-24/h6-7,9,12,15-17,24,26,28H,4-5,8,10-11H2,1-3H3/t12?,15?,16?,17?,19?,20?,21-,22?/m0/s1
#inchikey NBMKJKDGKREAPL
#Ion_Source LC-ESI
#Instrument qTof
#Compound_Source Commercial
#PI Dorrestein
#Data_Collector Garg_Neha
#Scan -1
#Precursor_MZ 409.178
#ExactMass 408.17
#Charge 1
#CAS_Number N/A
#Pubmed_ID N/A
#Smiles CC1CC2C3CCC4=CC(=O)C=CC4(C)[C@@]3(Cl)C(O)CC2(C)C1(O)C(=O)CO
#INCHI_AUX N/A
#Library_Class 1
#SpectrumID CCMSLIB00000079063
#IonMode Positive
#UpdateWorkflowName UPDATE-SINGLE-ANNOTATED-GOLD
#LibraryQualityString Gold
#TaskID 278b19f5865741e282cec7349aa7e7a1
##Scan# 1226
#SpectrumFile NCP003432_C2_D11_BD1_01_15723.mzXML
#LibraryName NIHcollectionI_05062014.mgf
#MQScore -1
#Organism NIHcollectionI_05062014
#TIC_Query 0
#RT_Query -1
#MZErrorPPM -1
#SharedPeaks 0
#MassDiff 0
#LibMZ -1
#SpecMZ 409.178
#SpecCharge 0
#internalFilename spec-00000.mgf

>collision 10
46.943874 160.0
48.013565 156.0
49.572006 192.0
51.616169 196.0
52.234306 160.0
53.076294 148.0
53.783337 204.0
55.038563 160.0
55.102074 168.0
55.119804 164.0
56.400902 152.0
57.453571 184.0
60.008286 164.0
60.17028 196.0
62.758812 220.0
64.918266 140.0
65.065887 148.0
65.08194 140.0
67.221909 140.0
68.482635 156.0
68.84877 156.0
69.103333 172.0
69.728485 144.0
71.092926 184.0
71.511398 168.0
73.075027 144.0
73.611946 160.0
74.889618 156.0
75.83992 176.0
76.33297 204.0
78.175011 192.0
78.562637 172.0
79.788139 176.0
82.471725 160.0
82.562119 208.0
83.35067 220.0
86.805473 172.0
87.375694 232.0
91.048775 140.0
91.625122 192.0
93.075912 136.0
93.407379 184.0
93.910103 252.0
95.083801 136.0
97.937141 200.0
98.526955 240.0
99.118538 148.0
99.398125 228.0
101.171989 200.0
101.262093 144.0
101.51461 140.0
101.749367 188.0
104.000175 164.0
104.189026 228.0
104.618118 172.0
105.070396 424.0
105.086861 332.0
106.947609 168.0
107.048386 260.0
107.085121 636.0
107.126747 196.0
108.051186 156.0
108.08886 172.0
109.067406 176.0
109.101433 176.0
109.415131 208.0
111.081604 380.0
111.372444 196.0
111.649872 156.0
112.724991 140.0
114.6604 144.0
115.045776 232.0
115.073288 356.0
115.72419 180.0
116.060585 256.0
117.059715 184.0
117.072792 536.0
119.087494 804.0
119.762596 180.0
120.056824 156.0
120.087349 284.0
120.366692 204.0
120.447495 212.0
121.018272 152.0
121.065613 3056.0
121.10025 328.0
121.702354 216.0
122.069366 588.0
122.102997 256.0
122.265099 168.0
123.080009 812.0
123.106255 256.0
124.080788 184.0
124.929131 148.0
125.070686 280.0
125.096558 360.0
126.041367 152.0
126.067024 228.0
126.104233 148.0
126.356918 160.0
126.811157 136.0
127.07428 168.0
127.226463 208.0
127.604149 176.0
128.063705 368.0
129.028748 140.0
129.06781 444.0
129.092056 176.0
129.618011 104.0
130.075211 140.0
131.048615 124.0
131.09169 408.0
131.854202 180.0
132.057678 280.0
132.09082 312.0
132.398697 148.0
133.062164 368.0
133.100754 328.0
133.78093 212.0
134.071152 140.0
134.976044 140.0
135.080902 2856.0
135.438904 140.0
135.459747 160.0
136.084717 140.0
137.095871 908.0
138.095886 144.0
139.072922 328.0
140.115738 156.0
140.266556 164.0
140.304276 148.0
141.046143 184.0
141.070648 308.0
141.091675 272.0
142.084045 164.0
143.084457 1044.0
143.133255 160.0
143.319031 168.0
143.994125 260.0
144.061539 144.0
144.094452 176.0
145.035492 148.0
145.064346 724.0
145.104675 592.0
145.125717 160.0
145.906296 168.0
145.990448 168.0
146.071808 304.0
146.105911 176.0
146.13237 164.0
146.724136 164.0
146.770645 208.0
147.040817 140.0
147.081009 7504.0
147.122055 520.0
148.085266 656.0
149.095215 396.0
149.134445 188.0
149.245239 144.0
150.101196 140.0
150.173065 176.0
150.795654 148.0
151.0755 1068.0
151.111938 164.0
152.060623 136.0
152.077362 324.0
152.816269 152.0
153.067657 308.0
153.09082 512.0
154.074646 172.0
154.093399 184.0
154.394958 212.0
155.025558 184.0
155.055771 96.0
155.085373 340.0
155.137772 156.0
156.066299 180.0
156.090607 160.0
156.116028 140.0
156.359833 180.0
157.040985 312.0
157.060699 256.0
157.101273 624.0
157.222107 220.0
158.046738 156.0
158.071014 880.0
158.111954 184.0
158.429794 180.0
159.082077 1376.0
159.119064 208.0
160.084381 360.0
160.122253 140.0
160.476898 156.0
161.062302 248.0
161.096283 3420.0
161.125351 204.0
161.928543 156.0
162.097565 284.0
162.138824 176.0
162.473526 168.0
163.037216 300.0
163.059677 200.0
163.076935 268.0
163.112213 432.0
163.687759 136.0
164.085907 164.0
165.068039 132.0
165.088516 480.0
165.123657 220.0
165.506165 128.0
165.621719 164.0
166.043564 252.0
167.061783 160.0
167.090179 672.0
167.105789 352.0
168.057526 136.0
168.497726 144.0
169.042953 152.0
169.067413 916.0
169.085739 1540.0
170.068069 304.0
170.091049 280.0
170.110001 192.0
170.979218 148.0
171.080887 5328.0
171.11676 580.0
171.175339 168.0
171.382843 172.0
172.086716 680.0
173.096359 3340.0
173.132706 392.0
173.263977 164.0
174.100449 484.0
175.073349 144.0
175.111008 256.0
175.192245 152.0
176.082535 128.0
176.115479 300.0
176.525116 140.0
177.091415 776.0
177.255707 248.0
177.592392 152.0
178.083084 320.0
178.763992 152.0
179.086716 1220.0
179.878052 200.0
180.093704 152.0
181.044189 472.0
181.067703 344.0
181.101349 308.0
182.044022 168.0
182.072113 320.0
182.097733 180.0
183.054245 184.0
183.079529 1108.0
183.119217 564.0
183.308334 176.0
184.081375 332.0
184.577026 152.0
184.798813 168.0
185.095596 2396.0
185.223831 140.0
185.983047 164.0
186.099014 524.0
186.221008 144.0
186.515427 140.0
187.076462 644.0
187.110703 1372.0
187.149872 188.0
187.85788 188.0
188.114014 156.0
189.046402 164.0
189.072174 156.0
189.09259 352.0
189.126617 372.0
189.410522 140.0
189.769531 144.0
190.077393 148.0
190.133224 132.0
191.061752 144.0
191.106827 168.0
192.057526 140.0
192.095551 320.0
193.035172 160.0
193.099106 652.0
194.072006 384.0
194.105331 612.0
195.061478 584.0
195.080505 596.0
195.110153 516.0
195.971878 144.0
196.087494 1036.0
196.133102 136.0
196.484879 140.0
197.096268 2024.0
197.126434 204.0
197.247238 164.0
198.103394 568.0
198.801651 164.0
199.073959 128.0
199.111649 764.0
200.081116 140.0
200.119171 456.0
201.090637 284.0
201.128265 700.0
201.787399 168.0
202.273972 164.0
202.667633 216.0
203.055984 144.0
203.102097 408.0
204.091141 192.0
205.031586 160.0
205.09903 180.0
205.134476 100.0
205.314102 160.0
206.064819 256.0
206.108109 620.0
207.055939 468.0
207.081467 360.0
207.121124 152.0
207.401215 144.0
208.062042 256.0
208.087234 480.0
208.123322 336.0
209.055878 204.0
209.094391 2488.0
209.130722 560.0
210.075424 156.0
210.102432 1144.0
211.077988 340.0
211.111313 3436.0
211.142914 304.0
211.989456 184.0
212.079285 152.0
212.116638 956.0
212.148865 248.0
212.807419 176.0
213.094711 564.0
213.126465 756.0
214.095413 148.0
214.127289 360.0
214.978882 168.0
215.108505 904.0
215.291702 152.0
216.030701 148.0
216.094482 344.0
217.101501 268.0
217.127731 148.0
218.006866 144.0
218.056244 120.0
218.103851 152.0
218.592056 160.0
219.033661 148.0
219.082413 184.0
219.117233 652.0
219.853302 140.0
220.00679 164.0
220.082642 224.0
220.117676 156.0
220.310959 208.0
221.096191 1696.0
221.132462 652.0
221.503082 176.0
221.560928 144.0
222.102173 1132.0
222.31546 172.0
223.072418 176.0
223.112411 2392.0
223.154526 204.0
224.08168 192.0
224.117996 2156.0
225.045029 184.0
225.094727 276.0
225.12558 1072.0
225.540939 140.0
226.094238 136.0
226.129791 808.0
226.219955 144.0
227.110611 252.0
227.141983 564.0
227.659409 208.0
228.103775 148.0
228.145859 280.0
229.098282 264.0
229.121124 264.0
229.151047 348.0
230.109802 604.0
231.075836 288.0
231.119232 728.0
232.085846 428.0
232.125397 152.0
232.70784 176.0
233.072693 764.0
233.09491 592.0
233.132202 272.0
233.266815 140.0
234.074661 168.0
234.102859 1020.0
234.365463 152.0
235.069885 260.0
235.112762 1464.0
235.958664 176.0
236.064774 188.0
236.116547 1012.0
236.15007 308.0
237.128082 4436.0
238.094696 116.0
238.130463 516.0
238.875076 160.0
238.955063 144.0
239.059677 248.0
239.106628 188.0
239.142883 5680.0
240.08551 192.0
240.113266 216.0
240.146774 1112.0
241.121277 416.0
241.14653 196.0
241.857071 148.0
242.099899 144.0
242.162704 104.0
243.072601 148.0
243.113022 296.0
244.085724 236.0
244.126694 456.0
245.066879 176.0
245.098801 320.0
245.13356 344.0
246.080643 124.0
246.107742 420.0
246.131897 344.0
246.168472 120.0
246.849182 160.0
247.076019 144.0
247.111084 816.0
247.15155 544.0
248.085022 100.0
248.121338 1708.0
248.329575 196.0
249.09024 140.0
249.128113 2304.0
249.948334 148.0
250.130219 1096.0
250.171799 176.0
250.461487 144.0
251.016174 148.0
251.110962 320.0
251.140701 1080.0
251.176712 248.0
251.647217 164.0
252.108398 320.0
252.142517 368.0
252.813599 172.0
253.120651 296.0
253.157944 392.0
253.250504 160.0
253.722656 172.0
254.166672 204.0
254.404709 140.0
255.135422 548.0
256.13681 160.0
257.102173 400.0
258.090881 168.0
258.149078 360.0
259.111786 356.0
259.149017 280.0
259.980804 140.0
260.119232 556.0
260.163757 220.0
261.088684 144.0
261.12738 1480.0
261.160065 468.0
261.285339 188.0
262.015289 180.0
262.132782 1752.0
263.109375 164.0
263.143829 4344.0
263.209503 216.0
263.668213 160.0
264.148834 1540.0
265.128296 224.0
265.158173 692.0
266.032715 152.0
266.121338 148.0
266.167816 196.0
267.138489 1416.0
267.175049 416.0
267.674591 160.0
268.139893 284.0
268.1763 148.0
269.069977 124.0
269.117981 256.0
269.153625 120.0
269.198608 220.0
271.094513 116.0
271.113953 432.0
271.148285 132.0
271.619324 160.0
272.119598 312.0
273.118378 140.0
273.16098 108.0
273.828064 148.0
274.088287 164.0
274.131439 444.0
274.167847 144.0
274.725281 240.0
275.098694 480.0
275.141205 1728.0
275.493774 192.0
276.14978 784.0
277.093231 164.0
277.121613 508.0
277.158936 3516.0
277.208832 148.0
277.728149 204.0
278.134918 180.0
278.165558 1672.0
278.946747 160.0
279.061798 164.0
279.174622 9672.0
279.987213 156.0
280.178772 2284.0
281.154205 548.0
281.184448 296.0
282.072418 152.0
282.1604 244.0
282.190491 440.0
283.79422 172.0
285.127075 216.0
286.135345 300.0
287.07605 148.0
287.138611 520.0
288.14502 156.0
289.123138 368.0
289.1586 1520.0
290.078369 160.0
290.138611 196.0
290.162506 484.0
291.137329 360.0
291.174438 2748.0
292.139313 388.0
292.176575 1428.0
293.106537 176.0
293.155487 588.0
294.160919 452.0
294.822998 156.0
295.085846 152.0
295.131195 360.0
295.169067 1024.0
296.138092 160.0
296.175598 260.0
297.017609 260.0
297.112823 148.0
297.185486 2784.0
298.183167 676.0
299.122009 176.0
300.125 100.0
301.108551 152.0
301.160278 2236.0
302.163879 612.0
304.151337 176.0
306.03064 212.0
306.162964 596.0
306.225647 220.0
307.170471 2536.0
307.211731 124.0
308.173523 664.0
309.116241 164.0
309.185303 2208.0
310.188049 380.0
311.11673 184.0
311.165314 796.0
312.170929 388.0
313.134277 684.0
313.176422 112.0
314.14325 548.0
315.146271 1012.0
316.150604 176.0
317.149628 120.0
318.832825 332.0
319.170227 4964.0
320.172974 776.0
321.182007 176.0
322.165405 96.0
324.131104 152.0
325.138763 192.0
325.175995 1172.0
326.181702 560.0
327.156677 244.0
327.195831 980.0
328.151001 160.0
328.198486 148.0
328.510162 176.0
329.131134 252.0
330.508057 148.0
331.14743 1384.0
332.116547 156.0
332.160675 280.0
333.143738 592.0
334.147644 124.0
337.104248 160.0
337.130707 176.0
337.179962 7892.0
338.128113 152.0
338.139771 148.0
338.183075 2636.0
339.130249 128.0
339.189667 316.0
340.184479 180.0
342.854767 204.0
343.148163 464.0
343.186493 144.0
343.241455 212.0
343.503662 204.0
344.14212 176.0
345.160645 252.0
347.152008 112.0
347.223175 136.0
348.222931 288.0
351.170624 156.0
354.756531 144.0
355.190857 6412.0
355.499146 196.0
356.054749 176.0
356.148285 312.0
356.195129 2952.0
357.135986 140.0
357.192261 232.0
357.295166 144.0
357.785309 124.0
359.242798 180.0
361.160492 584.0
361.199524 188.0
362.156128 116.0
363.153076 464.0
364.15976 168.0
369.203979 3076.0
370.209625 964.0
370.67572 176.0
371.204071 172.0
371.765259 124.0
373.097565 200.0
373.156464 1644.0
373.202026 4900.0
374.160095 252.0
374.206421 876.0
375.160492 452.0
375.210205 168.0
376.206421 284.0
380.165924 164.0
381.890869 140.0
384.536346 204.0
387.210754 812.0
388.217529 208.0
389.063263 96.0
390.48407 196.0
390.790771 140.0
391.017731 120.0
391.090057 176.0
391.16803 40400.0
391.267609 200.0
391.349426 184.0
391.477295 188.0
391.503296 96.0
391.604431 112.0
391.855957 132.0
391.929626 128.0
392.092987 232.0
392.170837 8240.0
392.3078 136.0
392.354675 160.0
392.489777 116.0
393.055176 148.0
393.091644 160.0
393.164917 11648.0
393.45871 140.0
393.680847 108.0
393.95932 100.0
394.16687 2252.0
394.388702 140.0
394.4422 100.0
395.174194 264.0
395.857574 136.0
409.175415 2408.0
410.180878 536.0
411.174683 1408.0
412.176819 224.0
421.199158 204.0
448.17218 156.0
945.354126 188.0
1114.832642 148.0
1148.044067 144.0
1230.372803 176.0
1325.120117 184.0
1334.010132 140.0
1391.30603 152.0
1400.400146 176.0
1418.737183 140.0
1426.965454 236.0
1475.885986 148.0
1476.55127 172.0
1552.035645 152.0
1573.017822 168.0
1640.42688 152.0
1674.686157 188.0
1678.695801 152.0
1730.255737 192.0
1733.693237 180.0
1736.810547 148.0
1737.540527 164.0
1748.691895 188.0
1760.313232 268.0
1760.939575 176.0
1761.91687 192.0
1772.299805 176.0
1783.671265 164.0
1800.00708 176.0
1805.956665 176.0
1823.609253 188.0
1882.138428 164.0
1886.985474 188.0
1899.117554 196.0
1926.25769 176.0
1926.869141 180.0
1944.82959 152.0
1958.264282 168.0
1973.194824 188.0
1977.546997 168.0
1984.456543 172.0
1991.697998 172.0
1992.444214 208.0
