>compound MLS000877013-01!4-(2,3-dihydroxy-3-methylbutoxy)furo[3,2-g]chromen-7-one
>formula C16H16O6
>ionization [M+H]+
>parentmass 305.1019646840905
#inchi InChI=1S/C16H16O6/c1-16(2,19)13(17)8-21-15-9-3-4-14(18)22-12(9)7-11-10(15)5-6-20-11/h3-7,13,17,19H,8H2,1-2H3
#inchikey PEWFWDOPJISUOK
#Ion_Source LC-ESI
#Instrument qTof
#Compound_Source NIH Natural Product Library
#PI Dorrestein
#Data_Collector VVP/LMS
#Scan -1
#Precursor_MZ 305.103
#ExactMass 304.095
#Charge 1
#CAS_Number N/A
#Pubmed_ID N/A
#Smiles CC(C)(O)C(O)COc1c2ccoc2cc3oc(=O)ccc13
#INCHI_AUX N/A
#Library_Class 1
#SpectrumID CCMSLIB00000080147
#IonMode Positive
#UpdateWorkflowName UPDATE-SINGLE-ANNOTATED-GOLD
#LibraryQualityString Gold
#TaskID b1d8e8f6646f4e71acdff9ca3d919d08
##Scan# 1718
#SpectrumFile p2-G04_GG4_01_18052.mzXML
#LibraryName NIH_Natural_Products_Library.mgf
#MQScore -1
#Organism NIH_Natural_Products_Library
#TIC_Query 0
#RT_Query -1
#MZErrorPPM -1
#SharedPeaks 0
#MassDiff 0
#LibMZ -1
#SpecMZ 305.103
#SpecCharge 0
#internalFilename spec-00000.mgf

>collision 10
96.93895 196.0
98.73439 116.0
98.805595 188.0
98.938194 176.0
99.047112 92.0
99.852966 148.0
99.880814 140.0
100.348816 88.0
100.430573 96.0
100.498405 224.0
100.739983 104.0
101.46244 224.0
101.488503 160.0
101.755356 228.0
101.839699 156.0
101.950203 188.0
101.976334 152.0
102.040657 36.0
102.545929 88.0
103.054237 304.0
103.079727 204.0
103.647331 72.0
104.057487 196.0
104.158592 220.0
104.382156 80.0
104.858536 104.0
105.03389 148.0
105.284935 180.0
105.902603 148.0
106.676193 140.0
106.735825 196.0
107.557854 76.0
108.074524 152.0
108.103493 128.0
108.198708 160.0
108.623543 184.0
108.957771 156.0
109.809158 228.0
110.431572 220.0
110.659676 176.0
111.10006 136.0
111.276085 252.0
111.385292 120.0
111.669052 104.0
113.201248 132.0
114.098785 208.0
114.360435 144.0
114.707634 140.0
115.027611 268.0
115.41217 184.0
115.630379 196.0
115.653923 228.0
116.460136 204.0
116.481613 144.0
116.769638 236.0
116.950378 144.0
117.116173 168.0
117.625053 192.0
118.039429 192.0
118.787094 208.0
119.049095 1424.0
119.197441 144.0
119.362648 144.0
119.957024 156.0
120.051521 212.0
120.42617 128.0
120.747459 72.0
120.911545 48.0
121.242249 96.0
122.230453 132.0
122.265671 120.0
122.708427 160.0
122.728271 128.0
123.512283 168.0
123.569801 188.0
124.265503 104.0
124.320976 192.0
124.809685 164.0
126.102692 212.0
126.182938 196.0
126.299454 228.0
126.52771 164.0
128.056946 176.0
128.379227 192.0
128.744827 116.0
129.029541 148.0
129.849258 208.0
130.77626 128.0
130.796753 208.0
130.846832 64.0
131.048752 5140.0
131.127014 152.0
131.800232 128.0
131.852798 204.0
131.985382 48.0
132.051392 896.0
132.211853 36.0
132.525574 40.0
132.79837 88.0
132.975037 132.0
133.023239 100.0
133.04718 288.0
133.186279 40.0
133.344818 68.0
134.738953 124.0
135.544144 176.0
135.609024 176.0
135.734222 168.0
136.223938 116.0
136.270401 148.0
136.391251 180.0
137.296967 160.0
137.315613 104.0
138.053619 112.0
138.137817 96.0
138.411652 52.0
138.524078 152.0
139.030533 132.0
140.496445 160.0
141.382538 192.0
141.884705 56.0
142.200195 100.0
142.283279 184.0
142.383011 184.0
142.520782 152.0
142.65863 128.0
143.041626 60.0
143.115433 180.0
143.24881 160.0
143.286926 144.0
143.98584 72.0
144.727158 148.0
145.031418 180.0
145.809067 196.0
146.12648 172.0
146.386444 216.0
146.62825 184.0
146.736237 236.0
146.772003 144.0
146.984268 228.0
147.008408 156.0
147.044159 19800.0
147.126678 104.0
147.148407 44.0
147.302963 60.0
147.392349 108.0
147.4431 76.0
147.469696 88.0
147.532532 48.0
147.58815 68.0
147.626831 96.0
147.655853 44.0
147.694565 168.0
148.001907 168.0
148.047287 2156.0
148.093933 32.0
148.263535 44.0
148.515686 96.0
148.840897 36.0
148.894318 52.0
148.957474 48.0
149.043945 296.0
149.280731 104.0
149.30748 128.0
149.441269 60.0
149.947784 60.0
150.11113 168.0
151.913727 192.0
153.344818 140.0
154.438614 168.0
154.87674 124.0
154.93866 88.0
155.022903 108.0
156.730057 136.0
156.959381 180.0
157.044174 212.0
158.938004 144.0
158.958069 164.0
159.043884 4456.0
159.291992 96.0
159.392487 88.0
159.420135 44.0
159.505585 56.0
159.953339 80.0
160.047333 364.0
160.611023 128.0
160.8255 32.0
160.916367 112.0
161.02243 140.0
161.058975 232.0
163.883957 220.0
166.169754 152.0
166.313461 160.0
168.887573 168.0
169.558167 120.0
169.669632 144.0
170.066528 216.0
170.614639 180.0
170.77066 132.0
171.028839 196.0
172.387054 220.0
172.928421 184.0
174.032669 144.0
174.47348 64.0
174.544464 136.0
175.037979 1168.0
175.980515 248.0
176.043137 156.0
176.508972 128.0
177.038223 192.0
177.345566 68.0
180.006027 164.0
180.91777 68.0
181.531357 148.0
182.950027 120.0
183.041565 124.0
183.3918 80.0
183.772034 104.0
184.593201 220.0
184.790649 188.0
185.329468 132.0
185.557144 180.0
185.727982 156.0
185.931473 140.0
186.809113 176.0
187.089417 176.0
187.315445 208.0
190.214066 220.0
191.388 96.0
192.250809 156.0
192.664993 232.0
193.046417 152.0
193.730087 228.0
196.072479 188.0
198.117859 112.0
198.333633 100.0
198.695389 156.0
199.082748 72.0
200.387924 48.0
201.092926 152.0
201.299011 192.0
201.895294 68.0
201.920746 172.0
202.026276 564.0
202.200836 116.0
202.40184 96.0
202.475464 116.0
202.509445 124.0
202.756546 148.0
202.789948 108.0
202.890579 40.0
202.943039 220.0
203.03418 21128.0
203.110352 44.0
203.235901 176.0
203.345856 52.0
203.429291 112.0
203.539474 60.0
203.61882 56.0
203.66954 48.0
203.723511 36.0
203.757614 44.0
203.777496 56.0
203.841843 80.0
203.893997 60.0
204.036957 1876.0
204.092987 120.0
204.149872 88.0
204.169769 64.0
204.238037 48.0
204.479889 48.0
205.041275 712.0
205.163513 76.0
205.346008 164.0
205.385941 116.0
205.554276 136.0
205.619919 76.0
205.831161 116.0
205.966934 104.0
206.033951 144.0
206.952042 32.0
209.130966 100.0
209.571579 60.0
210.46286 44.0
213.055054 144.0
220.099289 104.0
225.763336 64.0
242.889297 196.0
245.081085 140.0
254.721115 128.0
260.573853 80.0
268.367828 40.0
270.101959 32.0
289.519073 68.0
302.842834 288.0
305.103973 344.0
306.11438 164.0
318.097107 76.0
320.177155 80.0
366.222992 96.0
366.672577 56.0
422.559662 72.0
517.96521 64.0
528.166138 56.0
542.538452 84.0
671.050903 64.0
681.760742 160.0
773.815613 64.0
777.707214 176.0
788.042969 60.0
891.530457 76.0
901.29126 80.0
910.378479 56.0
913.90094 204.0
946.239929 172.0
974.109253 196.0
987.666931 192.0
1019.697754 60.0
1026.120605 168.0
1031.745239 88.0
1082.448975 168.0
1091.872681 132.0
1107.302979 256.0
1108.243652 32.0
1108.40271 212.0
1111.864258 192.0
1112.873291 160.0
1115.253296 208.0
1120.588623 156.0
1127.52832 188.0
1129.433716 160.0
1131.628906 236.0
1157.078613 20.0
1157.857422 148.0
1163.580444 204.0
1166.875488 140.0
1179.753662 40.0
1188.081177 48.0
1199.179443 156.0
1212.553101 144.0
1217.839844 128.0
1233.007568 180.0
1239.78894 132.0
1247.783936 240.0
1252.090332 136.0
1253.900879 168.0
1266.363892 240.0
1269.808472 212.0
1271.262817 136.0
1279.956421 268.0
1288.572632 128.0
1293.385376 112.0
1299.412109 152.0
1300.51001 156.0
1304.913574 212.0
1305.963501 136.0
1310.729248 240.0
1310.8302 144.0
1314.464478 244.0
1324.224121 120.0
1342.895874 156.0
1351.376953 172.0
1354.224609 132.0
1356.364136 100.0
1369.612427 176.0
1369.811279 180.0
1372.169556 164.0
1374.581421 188.0
1377.512451 120.0
1390.180542 68.0
1395.491577 160.0
1396.911987 200.0
1400.700928 152.0
1402.317749 100.0
1403.234619 80.0
1403.875977 108.0
1405.345337 224.0
1411.739502 92.0
1415.106567 176.0
1430.986084 168.0
1431.098999 200.0
1431.498047 160.0
1432.703247 124.0
1438.4646 244.0
1439.944458 80.0
1440.526123 52.0
1442.778076 120.0
1446.91626 108.0
1451.287964 136.0
1454.474121 256.0
1458.249146 160.0
1459.115723 212.0
1459.86084 92.0
1464.708984 180.0
1465.112671 200.0
1467.208374 104.0
1468.52002 152.0
1469.49646 180.0
1472.343628 172.0
1475.445923 220.0
1477.373047 140.0
1486.045532 224.0
1487.933594 136.0
1488.570923 112.0
1493.8125 124.0
1494.435669 184.0
1495.990234 164.0
1498.231323 152.0
1502.301636 212.0
1504.061035 180.0
1504.331177 304.0
