>compound Cisapride
>formula C23H29ClFN3O4
>ionization [M+H]+
>parentmass 466.1903387600906
#inchi InChI=1S/C23H29ClFN3O4/c1-30-21-13-19(26)18(24)12-17(21)23(29)27-20-8-10-28(14-22(20)31-2)9-3-11-32-16-6-4-15(25)5-7-16/h4-7,12-13,20,22H,3,8-11,14,26H2,1-2H3,(H,27,29)/t20-,22+/m1/s1
#inchikey DCSUBABJRXZOMT
#Ion_Source LC-ESI
#Instrument qTof
#Compound_Source Commercial
#PI Dorrestein
#Data_Collector Garg_Neha
#Scan -1
#Precursor_MZ 466.19
#ExactMass 465.183
#Charge 1
#CAS_Number N/A
#Pubmed_ID N/A
#Smiles CO[C@H]1CN(CCCOc2ccc(F)cc2)CC[C@H]1NC(=O)c3cc(Cl)c(N)cc3OC
#INCHI_AUX N/A
#Library_Class 1
#SpectrumID CCMSLIB00000079161
#IonMode Positive
#UpdateWorkflowName UPDATE-SINGLE-ANNOTATED-GOLD
#LibraryQualityString Gold
#TaskID 278b19f5865741e282cec7349aa7e7a1
##Scan# 1170
#SpectrumFile NCP003592_A2_B11_BD8_01_15734.mzXML
#LibraryName NIHcollectionI_05062014.mgf
#MQScore -1
#Organism NIHcollectionI_05062014
#TIC_Query 0
#RT_Query -1
#MZErrorPPM -1
#SharedPeaks 0
#MassDiff 0
#LibMZ -1
#SpecMZ 466.19
#SpecCharge 0
#internalFilename spec-00000.mgf

>collision 10
45.388664 148.0
45.779701 172.0
45.968426 200.0
46.838844 176.0
47.597885 176.0
48.148724 192.0
48.206585 172.0
48.227478 148.0
48.591679 192.0
48.626369 172.0
49.127293 140.0
49.374523 188.0
49.556499 156.0
49.698112 188.0
51.646103 140.0
51.667561 224.0
51.946911 148.0
52.835766 152.0
53.108097 172.0
53.173389 140.0
53.38113 212.0
54.286518 232.0
54.640507 140.0
54.961704 160.0
55.248329 220.0
55.420071 160.0
56.296211 236.0
56.592281 140.0
56.698639 188.0
56.821594 220.0
56.845604 216.0
57.613487 140.0
57.693584 164.0
58.327229 160.0
59.022427 148.0
61.462616 256.0
61.766163 140.0
61.92268 176.0
62.255157 180.0
62.694065 172.0
62.828091 156.0
63.042828 188.0
63.508804 172.0
63.709881 232.0
64.441147 140.0
65.31002 144.0
65.474182 172.0
65.506401 172.0
66.085976 160.0
66.10701 204.0
67.941704 172.0
68.176498 152.0
68.620934 184.0
68.985779 176.0
69.520767 196.0
69.543999 168.0
69.575539 192.0
69.813141 184.0
70.152802 144.0
71.558403 152.0
72.045799 200.0
72.228363 200.0
72.470451 188.0
74.178116 144.0
74.908424 184.0
76.531189 192.0
76.620018 140.0
77.739052 168.0
79.800438 164.0
80.256241 228.0
81.367317 208.0
81.5793 168.0
81.816765 168.0
82.556541 236.0
82.681366 180.0
83.501404 204.0
83.708862 184.0
84.438835 184.0
85.401733 168.0
85.729439 148.0
86.64962 180.0
87.386688 140.0
87.809776 160.0
89.266533 172.0
90.133636 148.0
91.126488 160.0
91.495445 188.0
92.166801 216.0
92.719833 168.0
93.065117 188.0
93.960083 176.0
94.070076 192.0
95.642128 224.0
95.786217 192.0
96.081245 1972.0
96.117645 140.0
96.269905 144.0
97.083176 180.0
97.775513 224.0
98.469482 216.0
99.439613 156.0
99.78923 188.0
100.059807 168.0
102.04451 180.0
102.187302 220.0
102.225533 172.0
102.38475 220.0
102.864433 208.0
103.14521 212.0
105.435844 156.0
106.185692 152.0
106.875984 136.0
107.08329 184.0
107.276978 140.0
107.966606 184.0
108.047272 160.0
108.078308 160.0
108.48838 208.0
108.895073 140.0
108.992714 236.0
109.013489 244.0
109.088318 140.0
109.362885 144.0
111.090958 156.0
112.072769 176.0
112.809319 212.0
113.000221 160.0
114.391815 148.0
115.003563 184.0
115.816055 176.0
116.609917 172.0
116.769012 168.0
117.365517 168.0
118.257713 204.0
119.581657 140.0
120.04351 180.0
120.261673 148.0
121.009285 156.0
121.6231 212.0
122.095703 1644.0
122.300713 180.0
123.100632 256.0
123.177666 172.0
123.478264 176.0
125.034531 152.0
126.009552 404.0
126.544678 276.0
126.676811 172.0
126.993958 96.0
127.013046 172.0
128.007874 168.0
128.025116 476.0
128.107635 140.0
128.594803 216.0
128.929047 188.0
130.025269 288.0
130.488556 140.0
131.002884 160.0
131.26474 168.0
132.586304 156.0
132.843094 140.0
132.914215 160.0
133.868164 164.0
133.99025 172.0
134.432953 192.0
134.788559 180.0
136.087967 148.0
136.69696 156.0
140.113129 212.0
140.254517 192.0
140.998398 2616.0
141.223526 120.0
141.909317 144.0
142.00267 268.0
142.702316 176.0
142.864029 188.0
142.965256 96.0
142.994629 1300.0
144.002258 152.0
144.021011 196.0
144.723206 172.0
144.919617 204.0
145.742584 200.0
146.016632 140.0
146.185028 184.0
148.043823 200.0
148.997055 160.0
151.015411 140.0
151.059433 156.0
151.145065 172.0
151.458435 176.0
151.514771 144.0
153.073044 164.0
153.101517 180.0
153.177872 188.0
153.207428 164.0
153.524246 216.0
153.651184 148.0
154.002731 852.0
154.078293 332.0
154.123367 636.0
154.169434 164.0
156.002136 308.0
156.022903 680.0
156.386902 200.0
156.670776 164.0
156.848816 144.0
157.028595 136.0
157.384064 148.0
157.832367 220.0
158.015961 496.0
158.038925 244.0
158.828812 148.0
159.425598 200.0
160.502975 180.0
160.550888 156.0
161.654831 200.0
162.669296 120.0
163.054688 180.0
163.413239 192.0
165.29628 180.0
165.936615 188.0
166.626999 176.0
167.01001 164.0
167.455276 156.0
168.848953 144.0
168.992645 2392.0
169.125793 180.0
169.998062 412.0
170.027725 168.0
170.110779 152.0
170.992294 552.0
171.99234 124.0
172.440262 104.0
173.982208 188.0
175.164429 120.0
175.423813 148.0
175.484451 212.0
177.753891 144.0
178.013763 200.0
180.449402 160.0
181.84407 112.0
182.014145 188.0
182.075912 216.0
183.213684 184.0
183.264877 160.0
183.413101 176.0
183.572159 188.0
183.593735 208.0
183.752884 228.0
183.836533 188.0
183.888702 180.0
183.92775 120.0
183.952942 196.0
184.017181 171924.0
184.100479 260.0
184.123215 156.0
184.161331 232.0
184.229645 140.0
184.323441 140.0
184.390976 236.0
184.41774 172.0
184.460953 432.0
184.501007 256.0
184.68103 212.0
184.848801 128.0
184.889725 160.0
185.019409 18056.0
185.104111 100.0
185.20047 160.0
185.304062 108.0
185.497177 152.0
185.813354 108.0
185.90416 136.0
185.974838 236.0
186.013931 49684.0
186.125626 160.0
186.160889 116.0
186.203232 160.0
186.268814 108.0
186.305161 128.0
186.384628 176.0
186.40799 164.0
186.467972 144.0
186.503983 192.0
186.676987 108.0
186.712494 156.0
187.015289 5028.0
187.087143 120.0
187.246323 248.0
187.31752 100.0
187.421967 156.0
187.470367 148.0
187.776932 124.0
188.019745 140.0
188.084015 140.0
188.40918 104.0
188.440384 152.0
189.000717 168.0
190.374374 100.0
190.523895 168.0
191.021469 156.0
191.084732 148.0
191.117752 184.0
193.20076 180.0
200.697189 184.0
201.039398 212.0
201.733307 160.0
203.520996 180.0
206.081573 144.0
206.107285 204.0
207.716232 196.0
208.112411 308.0
209.111481 128.0
209.959656 208.0
215.068939 176.0
219.36586 160.0
224.078278 152.0
227.08548 164.0
227.745789 148.0
231.703522 152.0
232.118332 260.0
233.698227 172.0
234.129593 23976.0
234.293243 128.0
234.314636 96.0
234.409607 108.0
235.05719 216.0
235.132904 3576.0
235.210571 140.0
236.133743 228.0
236.374191 208.0
236.82814 100.0
244.487244 156.0
250.123444 192.0
250.807617 164.0
251.094528 148.0
251.157608 160.0
252.141953 356.0
253.076355 204.0
253.104355 220.0
253.150146 164.0
257.062958 184.0
261.545502 144.0
264.142761 516.0
264.903717 188.0
265.147583 136.0
266.156006 1264.0
267.16095 692.0
268.159485 144.0
270.877991 172.0
273.08371 156.0
273.913177 184.0
274.09436 248.0
277.124634 148.0
280.504059 140.0
281.16156 136.0
283.184814 1244.0
284.186432 492.0
288.321198 148.0
293.66507 164.0
296.550751 164.0
297.099762 912.0
298.096222 136.0
298.991119 128.0
299.102997 232.0
300.101654 104.0
302.928772 140.0
309.158508 236.0
310.419525 144.0
310.537964 144.0
314.076324 160.0
319.44635 148.0
326.402618 156.0
330.143433 224.0
331.354645 228.0
332.827209 148.0
333.891937 180.0
335.435699 160.0
335.869629 156.0
336.172424 156.0
337.483765 140.0
338.186127 148.0
339.688446 140.0
340.154449 144.0
340.227875 188.0
342.168976 148.0
342.297852 164.0
351.162506 140.0
356.17804 176.0
356.433502 172.0
359.842163 148.0
377.987427 188.0
380.864044 200.0
384.559052 156.0
385.402557 172.0
387.319489 148.0
389.865753 164.0
390.28241 160.0
391.156891 216.0
393.027771 148.0
394.908173 172.0
399.223083 160.0
399.334442 152.0
401.487091 104.0
403.273621 180.0
409.013336 140.0
409.879211 252.0
410.988037 196.0
411.658112 148.0
422.490112 168.0
422.956604 152.0
423.828888 180.0
427.45462 140.0
429.019714 148.0
429.089813 200.0
433.185181 176.0
433.877228 152.0
433.914551 160.0
433.943573 172.0
434.009918 200.0
434.16449 6096.0
434.371826 156.0
435.166809 1408.0
436.034149 136.0
436.08548 192.0
436.162811 2096.0
437.166321 444.0
438.091156 172.0
438.207794 208.0
439.112366 164.0
439.833862 104.0
440.652679 140.0
443.318054 152.0
448.177277 116.0
450.533966 196.0
453.572296 156.0
458.153168 172.0
458.604828 172.0
461.118713 160.0
461.204193 156.0
461.803375 140.0
463.790039 144.0
463.925812 152.0
464.308228 160.0
464.425354 128.0
464.587036 192.0
464.638519 188.0
464.797913 264.0
464.902924 148.0
465.02301 172.0
465.110535 144.0
465.19223 148.0
465.241974 148.0
465.309875 164.0
465.349304 132.0
465.467529 184.0
465.498077 224.0
465.63623 160.0
465.737183 188.0
465.790771 124.0
465.920959 160.0
466.023468 164.0
466.092987 228.0
466.192596 189428.0
466.29071 348.0
466.394836 180.0
466.450195 128.0
466.513123 172.0
466.544159 464.0
466.594788 132.0
466.650482 196.0
466.766998 192.0
466.822784 172.0
466.900848 688.0
467.026001 248.0
467.194763 46832.0
467.348053 148.0
467.505951 176.0
467.582367 184.0
467.656677 140.0
467.782196 144.0
467.861816 128.0
467.977753 104.0
468.105042 284.0
468.18924 47344.0
468.405243 164.0
468.46994 188.0
468.586945 128.0
468.655243 104.0
468.71814 152.0
468.77359 188.0
468.910614 148.0
468.947021 132.0
469.191681 10580.0
469.402924 172.0
469.463226 156.0
469.535461 200.0
469.629181 156.0
469.662231 316.0
469.704651 176.0
469.762299 176.0
469.806366 108.0
469.914185 128.0
469.945221 180.0
470.082642 248.0
470.129761 120.0
470.19101 908.0
470.288147 180.0
470.40509 256.0
470.434113 152.0
470.590332 140.0
470.762299 136.0
470.837158 172.0
471.385468 196.0
471.762817 168.0
471.825867 108.0
471.928467 216.0
472.026398 192.0
472.087616 120.0
472.191376 124.0
472.860138 148.0
472.912079 160.0
473.155853 96.0
483.36908 112.0
486.942688 192.0
487.663208 140.0
657.335876 104.0
685.063477 144.0
1216.107544 148.0
1333.629639 148.0
1362.45813 160.0
1431.258911 208.0
1451.994751 176.0
1484.643311 140.0
1488.203735 160.0
1521.464233 192.0
1567.171021 180.0
1582.794556 148.0
1632.420898 180.0
1682.756104 156.0
1698.509277 160.0
1700.133789 208.0
1705.825684 148.0
1729.101929 144.0
1747.115967 184.0
1747.556885 240.0
1823.775757 140.0
1848.41394 168.0
1849.800415 184.0
1850.759155 164.0
1858.507568 148.0
1864.32959 144.0
1881.383789 160.0
1892.770386 148.0
1895.161011 224.0
1903.192749 144.0
1910.188721 140.0
1914.453491 140.0
1918.670654 156.0
1933.694824 144.0
1942.062012 140.0
1953.560181 248.0
1985.907104 180.0
1992.546997 248.0
