>compound Minoxidil
>formula C9H15N5O 
>ionization [M+H]+
>parentmass 210.135
#inchi InChI=1S/C9H15N5O/c10-7-6-8(12-9(11)14(7)15)13-4-2-1-3-5-13/h6,11,15H,1-5,10H2
#inchikey ZIMGGGWCDYVHOY
#Ion_Source LC-ESI
#Instrument qTof
#Compound_Source Isolated
#PI Sirenas
#Data_Collector Ed Esquenazi 
#Scan -1
#Precursor_MZ 210.135
#ExactMass 0.0
#Charge 1
#CAS_Number N/A
#Pubmed_ID N/A
#Smiles N/A
#INCHI_AUX N/A
#Library_Class 3
#SpectrumID CCMSLIB00000005607
#IonMode Positive
#UpdateWorkflowName UPDATE-SINGLE-ANNOTATED-BRONZE
#LibraryQualityString Bronze
#TaskID d19310cd93df49b68e9fcbec27720eb5
##Scan# 3
#SpectrumFile Minoxidil.mgf
#LibraryName fda_library.mgf
#MQScore -1
#Organism fda_library
#TIC_Query 0
#RT_Query -1
#MZErrorPPM -1
#SharedPeaks 0
#MassDiff 0
#LibMZ -1
#SpecMZ 210.135
#SpecCharge 0
#internalFilename spec-00000.mgf

>collision 10
100.049263 9.191327
100.133301 3.149286
101.860283 3.954493
101.991508 3.280279
103.031258 111.010696
103.117706 3.714286
103.655334 2.331767
104.428909 6.011447
104.470016 4.915476
104.488853 2.040584
104.500061 7.00035
104.525093 4.057143
104.539154 3.305124
104.553413 4.287698
104.567642 7.286654
104.600113 4.904762
104.624573 5.202031
104.64592 4.287415
104.699333 8.431982
104.709991 4.430357
104.952202 4.429894
104.996445 16.449829
105.044662 6033.834961
105.087006 54.891109
105.103928 21.1486
105.116203 1.582143
105.123627 8.892612
105.145279 15.75014
105.163338 3.344048
105.169716 3.017857
105.176704 9.104983
105.198219 8.18891
105.214668 10.24578
105.223236 2.146429
105.233948 4.714827
105.241081 4.430357
105.249542 9.983589
105.259087 9.291429
105.275131 9.091451
105.281334 17.075951
105.291626 3.157467
105.306816 20.500071
105.316208 4.920068
105.326454 5.56805
105.341034 2.571429
105.347694 7.632653
105.355316 3.007936
105.362495 12.30399
105.375465 9.081522
105.3946 3.87576
105.412453 6.210084
105.426971 4.030678
105.438957 5.501517
105.47319 5.644345
105.530357 3.000541
105.548225 2.859244
105.645706 9.727466
105.70491 5.830952
105.737801 4.286565
105.929581 2.382936
106.021057 4.657857
106.051643 639.570679
106.063324 125.903503
106.142525 4.93397
106.189873 6.35119
106.239151 6.183625
106.389809 2.14881
106.472359 1.857143
106.658325 6.000458
106.813957 2.817177
106.885544 5.864662
107.007607 6.86413
107.059639 180.165405
107.090492 5.898469
107.180687 2.715336
107.188004 2.678571
107.202309 3.642857
107.245338 4.371428
107.28157 24.032591
107.338272 2.303571
107.364281 6.417274
107.386093 6.431851
107.404945 2.885714
107.433235 3.613095
107.451462 9.977729
107.465118 4.87406
107.488785 15.00052
107.497665 7.891483
107.526733 2.451531
107.577545 3.46367
107.598236 11.93641
107.660797 5.166354
107.669121 10.55366
107.689133 4.286111
107.848114 7.028846
107.923691 2.44898
108.055542 5668.473145
108.099747 63.94249
108.115524 25.159479
108.127731 2.333333
108.148109 1.142857
108.166771 34.668388
108.187904 1.75
108.202843 24.18733
108.223022 8.770075
108.231346 4.178571
108.249458 26.896959
108.260284 5.875
108.283165 5.760017
108.295204 1.845779
108.303719 8.630747
108.31459 4.666667
108.325127 13.65931
108.334503 4.178571
108.350342 5.860714
108.364906 24.286539
108.384621 4.846154
108.39064 2.430952
108.40683 4.609524
108.430679 16.186029
108.463493 44.433861
108.47757 6.000458
108.484825 5.147959
108.495697 3.355415
108.506569 4.532467
108.526474 8.90522
108.537659 5.315943
108.54953 3.008929
108.571335 11.77096
108.581329 10.52663
108.617805 2.682692
108.629936 5.049216
108.640694 6.903572
108.652542 3.56044
108.673347 10.57813
108.69381 3.793831
108.714142 6.572917
108.722458 11.16213
108.847122 7.641125
108.899124 8.063616
108.905556 1.428571
108.923279 6.446429
108.938232 5.142857
108.989189 2.628571
109.011131 3.909632
109.051018 5642.890137
109.073433 174.738098
109.127129 5.752193
109.134399 15.44393
109.171371 12.69174
109.179733 14.51905
109.18924 6.008754
109.257057 10.41071
109.264641 7.038073
109.295624 8.5
109.305717 36.36655
109.324371 5.36629
109.330734 7.003861
109.343231 3.429147
109.348923 4.469898
109.362633 42.00985
109.376915 10.41392
109.396416 12.4739
109.416367 22.66003
109.422478 5.88076
109.428162 18.10799
109.444183 15.25212
109.44986 13.87538
109.468216 46.79269
109.481544 35.236229
109.495018 18.16991
109.501617 18.54295
109.516037 115.780998
109.53447 18.63904
109.543777 45.544361
109.561081 14.9658
109.57988 11.30939
109.5914 37.401871
109.609596 36.26495
109.616318 23.365761
109.625763 18.016069
109.643608 45.2887
109.652298 10.90217
109.665825 19.707279
109.675797 19.653839
109.684288 9.032143
109.693619 13.09806
109.706436 39.941601
109.723251 24.77145
109.730057 9.667725
109.747765 5.858433
109.756287 20.48926
109.773148 13.37225
109.792442 25.524349
109.809128 12.32822
109.839523 25.729139
109.851357 4.572803
109.8741 4.317857
109.900116 6.429112
109.907829 4.288265
109.929993 15.22369
109.949936 11.3846
109.975372 18.13513
109.982841 2.470238
109.996468 9.762362
110.027275 7.777143
110.032898 45.20179
110.059067 65907.046875
110.289764 33.310532
110.314468 24.19536
110.33683 19.038731
110.370224 8.799513
110.381073 67.825684
110.3983 36.661449
110.408951 84.127602
110.422859 14.1595
110.448128 95.732582
110.463562 53.75631
110.472015 36.94891
110.484261 57.195992
110.516937 8.285714
110.527283 42.459709
110.543343 64.414513
110.557007 14.0978
110.56295 9.541353
110.57119 24.751671
110.585747 39.61301
110.593857 38.710331
110.610474 38.36161
110.625526 28.1772
110.65683 15.06867
110.667854 14.10255
110.673676 7.627976
110.6819 13.93669
110.711304 15.79727
110.717552 9.531463
110.734062 8.748419
110.740288 2.482143
110.76915 50.129971
110.792671 7.783614
110.820969 33.295601
110.849052 17.849791
110.863869 6.167702
110.8722 10.03912
110.895897 25.28443
110.934166 8.049948
110.99575 3.223214
111.041573 3.053571
111.091171 483.281189
111.138817 7.009499
111.145271 9.626051
111.153427 9.790742
111.183563 15.29113
111.193748 3.857143
111.213394 10.1261
111.223114 2.428571
111.240608 12.51043
111.253609 11.37327
111.30262 16.4727
111.36335 16.246519
111.373528 3.88955
111.432312 13.10468
111.515625 4.314076
111.563164 7.379643
111.73394 10.79548
111.807236 3.858696
111.832489 3.476852
111.964882 8.766986
112.127815 4.023618
112.145912 3.00188
112.282265 1.718254
112.352318 5.439655
112.412979 5.225759
112.468948 7.15
112.519859 8.323622
112.529152 1.726648
112.608589 8.190267
112.63562 2.653061
112.859215 8.063664
113.045631 16.442511
113.103371 3.440476
113.110237 13.49927
113.150223 3.195378
113.316811 3.012066
113.402069 7.164835
113.440437 2.20119
113.561363 4.858517
113.60997 6.691445
113.999031 2.892857
114.089294 31.472469
114.234489 2.8
114.281555 4.317085
115.8041 2.71627
116.010101 3.287338
116.048843 18.727421
116.400116 4.151968
117.04258 10.08812
117.054459 24.601259
117.601395 2.75487
117.729118 21.599319
118.04097 120.571098
118.050545 89.669037
118.072769 6.890781
118.325966 4.324807
118.416817 4.714683
118.496323 3.377165
118.579819 4.93397
118.621323 6.007832
118.72065 26.39773
118.956238 17.070169
119.059723 807.427612
119.103844 3.810185
119.162949 2.714286
119.171356 3.429029
119.184975 6.960481
119.195534 6.560559
119.336548 10.2616
119.414078 8.32582
119.430145 4.25463
119.456886 2.629762
119.472473 6.841428
119.498169 3.217365
119.536163 3.572368
119.573738 2.557143
119.58947 4.349924
119.612747 6.012363
119.623589 2.607143
119.634109 14.76844
119.649643 9.870067
119.666214 2.008929
119.863548 4.375
119.939735 4.857143
120.020088 8.419756
120.055511 4868.359863
120.101463 35.996189
120.118195 12.93589
120.130341 11.54615
120.144119 7.28121
120.157013 4.245879
120.168358 24.57012
120.179794 8.873949
120.194839 9.001323
120.210365 4.591518
120.231583 3.146104
120.240372 8.373918
120.272011 6.509771
120.279465 6.246753
120.299797 14.43462
120.319122 2.946429
120.335663 18.02812
120.360733 5.801785
120.370529 2.194328
120.385818 12.77473
120.393799 7.81404
120.401344 4.012987
120.412643 7.655149
120.421822 5.423137
120.449677 7.709975
120.481354 3.5
120.493988 3.513655
120.511795 7.619048
120.55159 6.365413
120.588295 11.14354
120.646118 14.29796
120.844391 3.612755
120.93605 13.62309
121.051216 680.315308
121.072891 5.065093
121.2286 5.001786
121.302147 9.229761
121.357399 6.698529
121.37764 4.880364
121.390213 55.137589
121.403946 11.38569
121.433876 15.85531
121.451584 12.78763
121.471504 36.662338
121.504745 7.316234
121.517097 2.36526
121.532913 38.942909
121.563995 11.59979
121.577354 11.38432
121.601311 11.53191
121.629646 5.236688
121.679474 16.353729
121.710228 6.028361
121.737595 8.082653
121.756294 2.169643
121.790413 8.176496
121.825195 3.001623
121.833351 3.02626
121.840797 7.597634
121.868614 6.210165
121.915474 5.663571
122.00634 3.166209
122.071228 19186.310547
122.118286 57.94157
122.133339 15.00108
122.175385 17.01807
122.185532 14.0467
122.193138 26.919889
122.205048 64.925034
122.226501 23.999319
122.237312 8.74071
122.25206 38.825508
122.265579 57.567501
122.278336 51.171669
122.299149 71.520554
122.321976 24.93899
122.333229 22.73123
122.35125 51.75523
122.360542 37.68959
122.366936 6.952018
122.394569 6.379546
122.408112 15.33403
122.417297 47.42358
122.434799 27.94409
122.442703 10.10073
122.459328 39.995098
122.480415 15.05405
122.486626 2.333333
122.495232 38.652142
122.505699 13.29261
122.534126 11.63445
122.545349 13.03929
122.570084 13.71657
122.589684 4.214286
122.609108 8.656915
122.626839 10.09204
122.6521 20.06291
122.714905 2.810714
122.722122 18.317329
122.739075 15.55966
122.963768 3.5
123.027191 15.0996
123.116623 10.259
123.127182 25.19562
123.170982 10.0971
123.216492 9.880952
123.233223 7.674755
123.285027 4.858259
123.303406 13.65143
123.37381 3.29778
123.462303 25.366079
123.516899 5.819965
123.541359 7.272727
123.554237 18.27354
123.571037 4.226191
123.578766 3.594388
123.586502 5.402922
123.594551 4.164115
123.675522 8.150176
123.714188 5.315789
123.736839 27.68713
123.814789 5.723396
123.869072 14.86288
123.930084 3.47449
124.001045 6.166209
124.041611 3.051587
124.073959 2345.9729
124.138306 16.09239
124.151794 1.715136
124.18367 23.01671
124.241074 17.74918
124.276237 9.612555
124.298912 25.36068
124.310822 34.795471
124.345894 9.574555
124.39006 17.134899
124.417465 3.196429
124.442764 36.197128
124.487061 13.23821
124.563728 13.78504
124.582535 6.290058
124.598007 6.96875
124.605736 3.728261
124.652336 2.87013
124.667877 3.0
124.702835 9.287406
124.963722 5.027311
125.043129 52.17474
125.069122 2082.106934
125.115288 9.03197
125.124756 29.90925
125.199768 7.210165
125.261673 17.96306
125.27932 4.445489
125.340195 5.174652
125.360497 6.0875
125.403938 9.527472
125.425858 3.517857
125.5084 9.46018
125.566841 6.908582
125.656517 8.554007
125.678871 20.17202
125.756546 6.128572
125.980331 5.745061
126.098854 30.582809
126.280891 1.638736
126.322227 2.517857
126.347618 2.160714
126.389893 1.621032
126.425873 3.520022
127.337784 2.380952
127.76722 1.183442
128.550949 3.104064
128.898178 1.595238
130.040054 332.729187
130.070007 2.00094
130.20842 3.040179
130.727478 2.285714
131.056244 10.06977
131.434448 3.571825
131.690277 7.042367
132.03978 50.17709
132.056152 62.537922
132.06575 23.82527
132.369431 2.342857
132.509857 6.58678
132.609619 2.160714
132.914291 2.755102
133.051666 577.720886
133.074677 318.829315
133.131622 8.028195
133.146896 1.772619
133.192902 4.127645
133.243576 3.772143
133.307785 8.091575
133.468414 7.904385
134.06839 144.172394
134.078476 39.726669
134.64772 5.571429
134.709091 6.44246
135.066772 295.328888
135.087448 25.280621
135.246643 5.796202
135.262833 21.30109
135.303543 5.625
135.319489 2.883658
135.327576 4.589286
135.347809 4.428908
135.435913 15.45076
135.679901 4.15
135.829865 4.00188
135.920563 7.777857
136.061584 661.473389
136.086227 641.901672
136.130066 8.067347
136.182846 7.143939
136.219376 2.892857
136.280212 28.294479
136.292908 5.860065
136.300674 8.685241
136.309433 7.924812
136.326157 11.31818
136.339005 14.01236
136.362411 94.584824
136.36998 7.445488
136.384201 3.240079
136.395874 12.5411
136.416367 20.53443
136.442871 8.280612
136.46344 10.34857
136.470123 25.83992
136.480911 3.508929
136.489258 15.05066
136.509064 20.333151
136.526138 29.781481
136.540054 11.14308
136.554153 16.397461
136.561905 55.440891
136.573059 13.2252
136.599228 8.818681
136.607376 4.339286
136.659195 15.40429
136.681046 6.342857
136.803162 6.627773
136.911072 19.849911
136.951782 5.557927
137.000687 15.06784
137.008224 11.57205
137.082199 32690.460938
137.19957 6.528368
137.212143 43.341339
137.232712 21.146191
137.240021 10.93878
137.288315 61.942051
137.325928 83.637329
137.358444 7.147727
137.37851 18.555559
137.391113 55.672119
137.406586 61.78899
137.425262 45.517471
137.441513 81.495407
137.458832 44.259411
137.4785 50.7626
137.502945 9.533731
137.511597 48.84166
137.532806 47.092571
137.542053 4.542857
137.57579 37.342041
137.604889 20.23695
137.625961 17.35339
137.638245 36.93042
137.651459 6.412698
137.665024 26.386551
137.683701 22.13063
137.700531 10.25714
137.711105 10.80575
137.746201 7.28615
137.756088 29.56958
137.773315 7.446429
137.795547 13.93967
137.806747 4.480042
137.842087 7.147959
138.129456 58.260509
138.143402 21.818199
138.156723 17.27836
138.189301 34.073551
138.203415 11.91599
138.237961 24.42469
138.264145 10.45994
138.278305 25.497
138.311676 28.91787
138.341583 14.18525
138.352936 16.396891
138.37059 12.1142
138.427872 6.668778
138.481812 20.913
138.545761 11.57507
138.551453 6.751374
138.56015 11.48469
138.586578 3.035714
138.611221 18.343611
138.666656 10.7646
138.720093 7.621335
138.777054 16.860901
138.80043 11.42175
138.82547 6.210317
138.843552 15.11573
138.860916 8.482142
138.921494 6.698571
138.957458 2.64011
139.387817 4.192857
139.398666 5.892857
139.467621 17.816999
139.487869 7.366071
139.544754 4.34949
139.758331 6.32582
139.815582 13.29521
139.861572 10.20467
139.885651 3.178571
140.033981 7.294643
140.114426 7.548701
140.215378 6.915476
140.340149 1.460714
140.430893 14.44643
140.541122 4.727273
140.627426 4.286111
140.916351 5.286111
140.986572 2.68254
141.10112 26.61603
141.135315 6.143237
141.150024 4.502976
141.222412 6.153061
141.466141 1.858083
141.536499 3.717857
143.838577 3.584416
144.053467 58.135841
144.197723 5.142857
144.23616 4.859127
144.253601 7.201428
144.335617 5.142857
144.406891 6.037202
144.5746 3.809524
144.950455 2.291667
145.050751 1007.971985
145.139191 3.806391
145.152756 7.109375
145.19368 2.429286
145.215149 4.151786
145.261185 2.933271
145.311081 7.236842
145.379288 2.017857
145.407822 7.277056
145.449493 2.486429
145.521118 5.851429
145.865158 1.142857
146.004181 5.116694
146.113159 5.364532
146.182602 3.285714
146.201569 35.90168
146.21492 3.452381
146.230072 48.916809
146.238068 3.285714
146.252411 51.401428
146.275269 54.030621
146.294037 3.652992
146.300507 8.31705
146.319794 10.21884
146.328781 7.587337
146.342072 9.56277
146.357513 60.898659
146.365891 9.946428
146.381058 11.57481
146.394852 4.67437
146.412659 6.330827
146.432098 29.57482
146.449768 4.721428
146.462402 5.298077
146.489182 24.4942
146.510376 2.825397
146.525665 4.257653
146.591751 3.303571
146.618881 9.09909
146.649216 16.952921
146.706543 4.297619
146.896362 3.443966
146.942642 12.32326
146.952576 3.280279
147.00769 2.68254
147.031326 4.77551
147.066422 14887.959961
147.117142 76.677002
147.148987 50.795422
147.17749 8.298701
147.197342 29.334129
147.233673 15.21748
147.281067 26.506041
147.290543 26.124281
147.304947 36.891609
147.317184 29.46207
147.331284 6.983543
147.341232 8.744655
147.373856 50.987129
147.399017 25.30163
147.445511 31.59502
147.466293 13.53795
147.47435 8.533613
147.499634 21.94104
147.514267 27.07143
147.538132 7.54533
147.5513 11.07675
147.571777 3.143433
147.592148 18.3234
147.605408 10.55881
147.624847 38.110222
147.639404 1.157468
147.657196 5.199534
147.668869 16.34778
147.837341 14.34658
147.846603 3.597944
147.876205 3.57197
147.889908 3.032143
147.968384 15.5414
148.096436 9.143132
148.337952 14.65964
148.41394 2.147959
148.540955 10.54858
148.596588 9.548579
148.676849 5.335165
148.723526 4.505952
148.819077 3.125
149.027725 5.081071
149.080719 2455.950928
149.13501 18.72518
149.155441 12.56755
149.173477 11.08279
149.190826 4.525922
149.228806 4.57458
149.241089 31.57155
149.269867 10.73384
149.293381 6.288265
149.322525 8.289452
149.334091 72.075562
149.35556 23.952869
149.393387 18.056971
149.412292 36.276989
149.423874 7.535714
149.466888 1.597689
149.482925 29.27001
149.524033 13.3297
149.547211 13.14139
149.573181 4.159391
149.580856 6.293591
149.599579 3.988354
149.678406 5.357143
149.750351 11.29167
149.803085 4.176471
149.8116 4.597403
149.88356 4.986498
149.971298 10.27734
150.055618 47.688751
150.077255 11689.780273
150.092621 6.894345
150.129959 68.976891
150.162903 10.92238
150.174286 9.895239
150.185089 14.52822
150.195786 40.508911
150.206177 16.3342
150.221756 9.429847
150.250763 49.89933
150.269623 41.506989
150.284988 11.71499
150.293045 44.0518
150.308411 29.857731
150.321625 21.7195
150.357224 7.715987
150.37207 18.72304
150.390549 40.454342
150.429596 22.00255
150.438187 5.438492
150.465042 14.89817
150.491287 24.28273
150.504669 7.586365
150.527298 6.632937
150.541519 9.714096
150.558929 23.37464
150.578278 26.62928
150.589005 6.842857
150.615234 2.73052
150.634445 31.175949
150.643066 3.033613
150.651596 7.353492
150.665939 10.80823
150.679413 9.349868
150.730988 9.743157
150.74971 3.860714
150.805176 12.01702
150.831116 7.309435
150.844177 6.008754
150.852341 14.7802
150.90123 10.01996
150.946686 3.290817
150.95665 7.288764
151.006226 3.859127
151.082809 29.199909
151.096222 969.155823
151.159286 5.30119
151.181244 8.552684
151.271439 13.03267
151.342499 12.33766
151.354858 7.87232
151.475876 8.865602
151.600433 9.34874
151.613937 3.240207
151.675415 8.698469
152.051758 13.04601
152.092087 1154.514038
152.144897 11.32243
152.158386 6.477183
152.184616 5.433163
152.252808 4.576299
152.321518 2.046053
152.364441 4.431723
152.385895 2.433036
152.394501 2.430952
152.409958 4.90873
152.428528 15.30031
152.521881 6.793719
152.570419 3.752329
152.710159 7.930317
152.892639 9.161765
153.23822 2.339286
153.349075 6.147959
153.607986 4.577381
153.64679 2.727814
153.892853 14.525
154.069687 3.944643
154.991333 1.96875
155.402542 4.321429
156.531693 3.175824
156.91983 8.027875
157.561035 5.01651
158.06929 40.152939
158.75943 4.966518
158.851654 12.30162
159.062881 26.354071
159.076065 6.294468
160.117172 2.007653
161.081909 323.946411
161.10585 7.785714
161.118454 1.878401
161.126831 1.715226
161.16217 2.764163
161.210754 4.778495
161.224915 14.60536
161.253479 10.17796
161.294998 2.577381
161.303879 2.860119
161.449692 8.267858
161.467041 5.603316
161.477371 4.914286
161.559891 2.286765
161.635986 1.765756
161.659164 15.2457
161.834152 10.72806
162.010422 5.931873
162.07695 3520.945068
162.131302 16.68285
162.139679 23.53178
162.154648 73.402588
162.17955 5.729637
162.197556 6.31746
162.206131 3.589286
162.232727 6.604497
162.244858 43.481411
162.27713 8.930323
162.29924 71.242126
162.3125 7.57266
162.325775 8.017858
162.35466 12.28896
162.37207 15.52396
162.387833 2.017857
162.401138 4.301108
162.418671 72.570427
162.442474 2.8
162.465027 6.607279
162.483749 2.619048
162.506012 59.969021
162.527344 9.355357
162.556351 5.571754
162.565094 7.858418
162.574081 4.641612
162.60408 14.09798
162.618683 5.090909
162.676117 2.897959
162.693863 3.142857
162.720978 4.600649
162.755402 10.90909
162.782623 5.864461
162.851257 9.183497
162.884735 5.353814
162.966644 5.09145
163.053345 3.87013
163.084915 1245.098022
163.155289 10.63
163.173996 47.72921
163.196915 8.291005
163.209091 6.430556
163.220245 25.888229
163.242569 14.38803
163.261047 30.890181
163.283066 45.145142
163.307861 16.628571
163.316696 25.565081
163.329132 40.918831
163.351517 21.399401
163.362122 33.128239
163.383469 15.55181
163.396088 49.477631
163.430801 13.72755
163.454086 23.326719
163.463211 17.36455
163.476135 7.866597
163.518066 13.72629
163.529556 15.61285
163.539566 19.967979
163.564194 15.86793
163.578156 5.22619
163.591324 1.760204
163.631653 8.293189
163.684906 7.152041
163.705246 4.06044
163.746231 16.959181
163.882126 14.25857
163.944183 16.381161
163.971085 10.54256
163.983246 1.740546
164.038467 27.118549
164.04982 7.653061
164.068604 10.84257
164.093246 47725.699219
164.210526 7.146617
164.469055 68.294006
164.481216 21.524851
164.500534 30.67078
164.5186 20.02566
164.539459 54.78936
164.55365 39.599701
164.576416 52.088589
164.587357 54.10461
164.626022 69.638687
164.641968 8.858517
164.659256 13.73691
164.668777 32.94405
164.682755 47.951981
164.707367 27.615049
164.726425 35.925869
164.737732 12.64378
164.751236 21.15247
164.761719 11.61736
164.7742 26.09474
164.785629 6.574405
164.796417 14.91176
164.806808 5.006988
164.821213 13.835
164.836151 19.790409
164.845581 22.47134
164.872849 13.90517
164.883484 33.98914
164.902069 37.459549
164.936218 21.974421
164.957672 16.31912
165.005005 2.734375
165.016617 9.92555
165.096695 240.057007
165.108856 117.289703
165.194672 2.956044
165.309021 4.147727
165.322449 6.740318
165.337753 32.324581
165.421005 9.662115
165.436523 8.630622
165.480438 11.00649
165.520935 11.63755
165.551025 5.833333
165.644745 19.469629
165.693924 7.001152
165.805878 7.00035
166.008972 4.158834
166.021622 20.731991
166.038498 4.892143
166.06543 3.777174
166.074875 3.415323
166.08403 3.48052
166.124146 2.43703
166.190842 7.046993
166.258636 4.606708
166.550461 5.769689
166.599289 5.796131
166.684143 3.460404
166.761414 3.286428
166.788376 8.379659
166.860275 2.144047
166.962967 4.88076
166.99205 2.858333
167.004639 7.636364
167.257828 6.746305
167.305466 5.796283
167.333145 5.12782
167.780289 7.612853
167.922501 7.372822
167.949783 2.545455
168.086487 6.725732
168.112091 8.117537
168.1483 3.017857
168.255707 4.397487
168.355606 4.307061
168.377853 2.46875
169.015213 4.438096
169.309341 4.883117
169.400177 2.70264
169.602005 9.349999
174.054642 4.041327
174.412582 2.0
175.097641 440.621307
175.153061 2.014286
175.242996 6.770161
175.341888 1.715226
175.378738 1.87013
175.599945 3.57764
175.932022 4.165714
175.964508 6.734634
176.002289 2.742857
176.095581 152.3405
176.291748 23.441879
177.018051 10.85739
177.113953 102.241898
177.129959 3.968318
177.149597 11.38712
177.226898 4.067227
177.389404 5.048077
177.5327 10.57777
177.585052 4.994565
177.792252 2.256579
178.108536 2476.180908
178.163101 34.047321
178.229813 5.481233
178.29599 15.65708
178.34404 2.480042
178.357971 2.085084
178.373795 7.920113
178.40477 11.01511
178.432617 7.571731
178.456085 10.05861
178.464203 24.875999
178.47908 1.458333
178.502472 6.966749
178.521072 6.093831
178.545059 24.984501
178.578491 10.04521
178.599792 8.579546
178.615723 4.857143
178.680511 8.157468
178.837128 3.335317
179.209641 2.206349
179.370483 4.681319
179.834106 1.597689
180.084198 18.759371
180.383987 2.625
182.530716 2.7
190.108002 35.158211
190.493713 4.935925
190.958176 4.594388
190.979599 2.441559
191.137405 11.01587
191.697739 4.081633
191.902878 2.480042
192.124039 2264.708008
192.18306 9.544047
192.226181 2.441559
192.240662 7.022959
192.255951 16.35252
192.269608 2.573661
192.293915 12.52609
192.313095 8.001489
192.327484 2.742512
192.341965 2.194805
192.372177 14.30835
192.407516 18.579321
192.419174 4.714286
192.437958 4.43797
192.453079 2.14448
192.469986 2.206633
192.481934 2.915
192.523727 4.914286
192.578445 1.903196
192.598053 3.148809
192.708817 4.179945
192.821091 6.003572
192.84288 4.031832
193.100143 4.189516
193.201736 3.002232
193.279449 7.845322
193.435303 2.380952
197.478546 2.257143
211.46698 3.573308
217.201721 3.0697
224.970886 4.286197
240.905807 2.664916
242.354675 14.01944
269.658234 37.329449
269.704895 2.504464
276.776886 7.726649
289.665558 3.026515
297.761963 5.290043
306.810181 1.605769
325.339111 6.035714
334.214325 4.388736
410.029419 2.916667
425.788483 3.857759
430.181885 5.734073
441.997192 4.107143
519.851013 2.142857
621.037292 14.29328
625.78009 6.093831
684.154114 4.127232
684.489319 10.71701
755.543091 3.429029
760.216797 2.857601
784.737183 14.33737
784.805786 5.459942
787.31134 4.932951
986.493408 9.022436
1061.402954 3.524471
1064.542236 5.043831
1075.524048 9.672269
1151.527222 2.612245
1172.850708 2.876553
1248.363281 16.89505
1307.616211 3.594388
1321.388184 14.07143
1324.654175 3.574405
1337.791382 2.876553
1434.622559 3.205745
1447.748169 2.933271
1488.094727 4.349924
1518.075806 2.754464
1542.997314 7.722689
1573.855591 4.008403
1619.995483 4.751488
