>compound MLS001158085-01!(2S)-2-[[(2S)-2-(1,2-dihydroimidazo[1,2-a]benzimidazole-3-carbonylamino)-3-methylbutanoyl]amino]-2-phenylacetic acid
>formula C23H25N5O4
>ionization [M+H]+
>parentmass 436.196136
#inchi InChI=1S/C23H25N5O4/c1-14(2)18(20(29)25-19(21(30)31)15-8-4-3-5-9-15)26-23(32)28-13-12-27-17-11-7-6-10-16(17)24-22(27)28/h3-11,14,18-19H,12-13H2,1-2H3,(H,25,29)(H,26,32)(H,30,31)/t18-,19-/m0/s1
#inchikey SDNXPMNXCUDQGQ
#Ion_Source LC-ESI
#Instrument qTof
#Compound_Source NIH Natural Product Library
#PI Dorrestein
#Data_Collector VVP/LMS
#Scan -1
#Precursor_MZ 436.198
#ExactMass 435.191
#Charge 1
#CAS_Number N/A
#Pubmed_ID N/A
#Smiles CC(C)[C@H](NC(=O)N1CCn2c1nc3ccccc23)C(=O)N[C@H](C(=O)O)c4ccccc4
#INCHI_AUX N/A
#Library_Class 1
#SpectrumID CCMSLIB00000079658
#IonMode Positive
#UpdateWorkflowName UPDATE-SINGLE-ANNOTATED-GOLD
#LibraryQualityString Gold
#TaskID b1d8e8f6646f4e71acdff9ca3d919d08
##Scan# 1948
#SpectrumFile p1-D09_GD9_01_17917.mzXML
#LibraryName NIH_Natural_Products_Library.mgf
#MQScore -1
#Organism NIH_Natural_Products_Library
#TIC_Query 0
#RT_Query -1
#MZErrorPPM -1
#SharedPeaks 0
#MassDiff 0
#LibMZ -1
#SpecMZ 436.198
#SpecCharge 0
#internalFilename spec-00000.mgf

>collision 10
94.953789 132.0
95.034966 164.0
95.062134 136.0
95.151413 124.0
95.178596 184.0
95.20578 244.0
95.244629 212.0
95.266815 208.0
95.280602 184.0
95.310677 160.0
95.372864 168.0
95.386467 100.0
95.446739 148.0
95.484428 168.0
95.510185 64.0
95.573166 80.0
95.614029 192.0
95.639336 144.0
95.677734 176.0
95.726936 376.0
95.768814 168.0
95.781807 208.0
95.804848 160.0
95.880966 180.0
95.902275 84.0
95.923714 136.0
96.029007 212.0
96.05127 192.0
96.087524 124.0
96.118744 200.0
96.300201 176.0
96.349129 280.0
96.394066 188.0
96.413605 124.0
96.435104 136.0
96.485924 220.0
96.527161 180.0
96.603264 152.0
96.622826 296.0
96.669785 216.0
96.688759 92.0
96.716751 176.0
96.804848 252.0
96.838142 156.0
96.863609 184.0
96.910622 68.0
96.947075 172.0
96.965492 204.0
97.002808 120.0
97.038071 156.0
97.069389 84.0
97.093307 164.0
97.130188 208.0
97.14563 156.0
97.178452 128.0
97.194923 48.0
97.228287 216.0
97.298615 164.0
97.393204 140.0
97.459999 284.0
97.479645 172.0
97.499298 104.0
97.5504 60.0
97.572021 196.0
97.605446 168.0
97.63298 88.0
97.664444 248.0
97.737236 200.0
97.768715 184.0
97.794304 164.0
97.829735 212.0
97.860497 160.0
97.91243 196.0
97.955536 212.0
97.985306 312.0
98.003044 244.0
98.026688 112.0
98.059891 1468.0
98.116791 140.0
98.19622 116.0
98.241592 152.0
98.259346 172.0
98.367882 164.0
98.435005 156.0
98.468582 164.0
98.486359 164.0
98.571304 124.0
98.585136 184.0
98.606339 236.0
98.627655 264.0
98.648384 164.0
98.683685 196.0
98.770981 48.0
98.803467 132.0
98.893654 140.0
98.951057 188.0
98.990425 204.0
98.996384 180.0
99.063705 172.0
99.111488 72.0
99.129318 216.0
99.142029 136.0
99.166977 84.0
99.186798 104.0
99.21653 116.0
99.264114 168.0
99.286171 164.0
99.35733 324.0
99.400986 188.0
99.482353 112.0
99.522614 188.0
99.57766 172.0
99.59951 144.0
99.665749 188.0
99.688911 116.0
99.708191 240.0
99.74456 248.0
99.807541 180.0
99.827042 132.0
99.848106 152.0
99.867836 132.0
99.902763 208.0
99.963333 160.0
99.993179 168.0
100.048805 228.0
100.114616 188.0
100.152458 136.0
100.178352 132.0
100.200264 180.0
100.224174 176.0
100.273994 244.0
100.311867 104.0
100.377991 168.0
100.397598 288.0
100.505966 208.0
100.547218 152.0
100.611885 332.0
100.654366 220.0
100.708939 164.0
100.81205 156.0
100.838799 260.0
100.86985 232.0
100.904762 188.0
100.95475 136.0
100.996643 152.0
101.072769 228.0
101.178848 172.0
101.194862 148.0
101.216888 104.0
101.242256 156.0
101.298683 204.0
101.333054 176.0
101.393173 128.0
101.4328 248.0
101.440559 112.0
101.448212 208.0
101.485382 164.0
101.50782 104.0
101.521469 168.0
101.589668 228.0
101.612083 136.0
101.639824 132.0
101.65387 144.0
101.675941 176.0
101.73214 172.0
101.781082 192.0
101.830528 232.0
101.852623 164.0
101.882751 132.0
101.91642 180.0
101.939011 184.0
102.007347 152.0
102.02343 164.0
102.069672 96.0
102.089775 196.0
102.117935 40.0
102.13958 168.0
102.212608 128.0
102.344772 204.0
102.367477 168.0
102.387611 156.0
102.431923 212.0
102.452621 388.0
102.503738 136.0
102.535774 236.0
102.556847 344.0
102.574989 100.0
102.644829 168.0
102.714119 92.0
102.756485 96.0
102.784729 184.0
102.849312 168.0
102.883629 212.0
102.934105 216.0
102.956314 128.0
103.012871 276.0
103.08358 120.0
103.128044 140.0
103.243279 176.0
103.28537 128.0
103.4618 116.0
103.550018 360.0
103.58503 136.0
103.599503 116.0
103.638 108.0
103.740395 132.0
103.765686 208.0
103.891418 56.0
103.919189 192.0
103.944168 148.0
104.054245 260.0
104.067986 200.0
104.14312 68.0
104.195938 212.0
104.258881 172.0
104.32193 188.0
104.360558 120.0
104.389023 156.0
104.409363 184.0
104.468346 156.0
104.528557 148.0
104.584328 148.0
104.608757 112.0
104.698341 152.0
104.772003 216.0
104.796112 132.0
104.81649 116.0
104.879669 176.0
104.947769 196.0
104.961212 228.0
104.99588 68.0
105.036446 696.0
105.105042 140.0
105.145454 176.0
105.182823 204.0
105.190285 128.0
105.196037 240.0
105.217194 224.0
105.244827 44.0
105.30201 36.0
105.338104 256.0
105.361244 168.0
105.384895 132.0
105.412323 204.0
105.469543 44.0
105.496712 192.0
105.532913 72.0
105.573814 236.0
105.604492 120.0
105.626991 188.0
105.661766 72.0
105.68222 108.0
105.71701 92.0
105.755562 104.0
105.781921 140.0
105.797455 144.0
105.824608 176.0
105.841873 144.0
105.868492 140.0
105.882828 224.0
105.915909 168.0
106.01445 160.0
106.065468 7340.0
106.092209 192.0
106.136932 36.0
106.157288 164.0
106.168655 68.0
106.196396 124.0
106.233322 100.0
106.262039 188.0
106.277878 184.0
106.296921 168.0
106.323601 148.0
106.352493 152.0
106.383125 120.0
106.420074 148.0
106.46537 68.0
106.487839 228.0
106.56179 176.0
106.585388 140.0
106.599884 148.0
106.620163 168.0
106.687607 180.0
106.800247 120.0
106.870193 164.0
106.890167 164.0
106.946335 60.0
106.984268 140.0
107.006027 144.0
107.049347 3540.0
107.151863 64.0
107.181099 180.0
107.201706 48.0
107.220253 172.0
107.261475 80.0
107.282082 132.0
107.296516 44.0
107.37487 60.0
107.391373 48.0
107.409935 252.0
107.490395 48.0
107.516037 168.0
107.541985 96.0
107.63282 136.0
107.668121 84.0
107.688576 176.0
107.713921 104.0
107.763214 144.0
107.858002 116.0
107.888725 232.0
107.922089 136.0
107.961372 108.0
107.982056 76.0
108.009445 172.0
108.052864 816.0
108.109665 152.0
108.133087 68.0
108.149643 180.0
108.216591 200.0
108.242798 152.0
108.311142 56.0
108.380707 180.0
108.413673 188.0
108.431313 148.0
108.568138 232.0
108.593025 140.0
108.667702 124.0
108.706459 212.0
108.73317 204.0
108.800575 176.0
108.83374 252.0
108.864891 192.0
108.908501 224.0
108.935509 84.0
108.964592 160.0
109.012383 148.0
109.031082 180.0
109.058098 188.0
109.128777 204.0
109.155807 56.0
109.209877 100.0
109.307655 140.0
109.415886 228.0
109.438789 128.0
109.560211 212.0
109.628334 180.0
109.646629 144.0
109.705452 76.0
109.730469 92.0
109.748138 164.0
109.763832 156.0
109.795113 200.0
109.825516 200.0
109.837357 156.0
109.864624 184.0
109.894142 160.0
110.007927 208.0
110.022545 148.0
110.058037 192.0
110.074371 228.0
110.091446 184.0
110.139481 28.0
110.18544 160.0
110.220955 184.0
110.246033 124.0
110.337997 208.0
110.375633 204.0
110.413277 176.0
110.490669 104.0
110.65181 228.0
110.689316 224.0
110.729919 112.0
110.829842 116.0
110.896896 204.0
110.938698 140.0
111.031624 184.0
111.073021 80.0
111.104485 128.0
111.15274 168.0
111.207306 160.0
111.247185 100.0
111.266083 232.0
111.301773 92.0
111.324867 112.0
111.370178 236.0
111.423431 320.0
111.456078 228.0
111.519325 164.0
111.5728 168.0
111.621155 104.0
111.644287 128.0
111.665321 100.0
111.703987 188.0
111.716759 132.0
111.741043 88.0
111.775627 184.0
111.86731 176.0
112.004181 152.0
112.078911 220.0
112.109924 168.0
112.134811 192.0
112.2845 172.0
112.384956 212.0
112.411072 212.0
112.438507 148.0
112.466339 172.0
112.533493 120.0
112.566612 164.0
112.59684 64.0
112.613739 120.0
112.636971 236.0
112.685562 40.0
112.702461 224.0
112.739059 148.0
112.839783 144.0
112.865211 128.0
112.890587 100.0
112.94558 128.0
112.966728 104.0
113.004807 248.0
113.04184 200.0
113.087334 172.0
113.119087 204.0
113.144485 108.0
113.239777 108.0
113.300362 252.0
113.30722 152.0
113.314621 228.0
113.379601 124.0
113.43895 132.0
113.455902 28.0
113.489403 300.0
113.520103 144.0
113.595863 144.0
113.617081 152.0
113.648903 232.0
113.692474 180.0
113.708321 164.0
113.731735 120.0
113.803841 156.0
113.865425 116.0
113.882416 112.0
113.898796 140.0
113.936905 220.0
114.000137 212.0
114.020508 56.0
114.035385 44.0
114.067268 108.0
114.086403 160.0
114.133171 148.0
114.205566 200.0
114.231003 128.0
114.245895 44.0
114.323586 140.0
114.34095 148.0
114.390594 332.0
114.409752 152.0
114.483612 244.0
114.520477 184.0
114.552429 160.0
114.595352 136.0
114.633392 136.0
114.661095 212.0
114.680275 192.0
114.797531 136.0
114.827385 124.0
114.864059 184.0
114.882843 140.0
114.986397 188.0
115.032219 124.0
115.086784 304.0
115.162468 220.0
115.203049 176.0
115.232956 136.0
115.254326 216.0
115.341942 120.0
115.408295 112.0
115.424583 152.0
115.450981 180.0
115.46595 192.0
115.504448 144.0
115.530121 220.0
115.611427 116.0
115.630684 88.0
115.812668 180.0
115.853592 192.0
115.892799 148.0
115.97551 216.0
116.001228 148.0
116.026955 148.0
116.048637 212.0
116.117012 148.0
116.153473 144.0
116.256454 164.0
116.275772 112.0
116.331573 56.0
116.368073 220.0
116.383163 136.0
116.490479 212.0
116.506889 144.0
116.56353 56.0
116.589317 144.0
116.668839 252.0
116.690338 120.0
116.718292 192.0
116.746246 144.0
116.797859 228.0
116.914558 116.0
117.015205 128.0
117.0495 76.0
117.097832 160.0
117.161652 192.0
117.189659 44.0
117.226288 148.0
117.258163 76.0
117.292793 196.0
117.301208 168.0
117.305557 200.0
117.380547 448.0
117.401428 180.0
117.448349 216.0
117.510902 148.0
117.545425 200.0
117.577797 156.0
117.60154 200.0
117.625282 184.0
117.66198 196.0
117.681412 104.0
117.726753 212.0
117.76545 148.0
117.785065 136.0
117.80883 196.0
117.830429 168.0
117.852036 244.0
117.877968 308.0
117.912544 180.0
117.947121 180.0
117.966576 132.0
117.992516 128.0
118.052216 2124.0
118.087326 204.0
118.120102 68.0
118.152557 156.0
118.257645 172.0
118.330017 108.0
118.386314 156.0
118.475113 136.0
118.52684 196.0
118.592125 136.0
118.655708 108.0
118.711365 148.0
118.7304 164.0
118.762207 180.0
118.795952 116.0
118.820786 168.0
118.838058 144.0
118.886742 52.0
118.890724 176.0
118.921074 180.0
118.944756 104.0
119.002983 152.0
119.060783 17624.0
119.096855 120.0
119.133408 88.0
119.162834 44.0
119.208466 52.0
119.225845 256.0
119.301514 312.0
119.370148 236.0
119.401939 80.0
119.45414 184.0
119.479706 128.0
119.507156 356.0
119.534126 136.0
119.546204 152.0
119.567284 152.0
119.585907 180.0
119.601227 168.0
119.6464 180.0
119.673943 36.0
119.700073 116.0
119.832268 72.0
119.900482 68.0
119.931 80.0
119.981133 88.0
120.022865 228.0
120.062698 892.0
120.138145 172.0
120.165054 204.0
120.253792 204.0
120.283569 156.0
120.300362 180.0
120.325829 116.0
120.376045 168.0
120.40786 176.0
120.439377 108.0
120.502731 44.0
120.52021 220.0
120.588463 136.0
120.611992 188.0
120.646965 164.0
120.664459 116.0
120.693718 136.0
120.782845 116.0
120.79052 124.0
120.805611 360.0
120.850357 212.0
120.885948 244.0
120.925346 60.0
120.951027 136.0
120.985176 160.0
121.03553 160.0
121.069252 92.0
121.106483 68.0
121.124008 164.0
121.184357 168.0
121.288445 168.0
121.312454 164.0
121.343147 248.0
121.371651 152.0
121.492271 172.0
121.531761 128.0
121.547127 180.0
121.564682 108.0
121.674423 268.0
121.694183 124.0
121.727119 240.0
121.817162 60.0
121.841331 136.0
121.862633 172.0
121.938011 108.0
121.957794 192.0
122.008347 128.0
122.083595 180.0
122.160088 132.0
122.197487 36.0
122.226089 200.0
122.261292 124.0
122.285347 212.0
122.321793 184.0
122.664345 144.0
122.705559 184.0
122.752533 148.0
122.802704 192.0
122.91497 248.0
122.955482 204.0
123.013702 156.0
123.070274 220.0
123.121063 144.0
123.227089 80.0
123.319893 128.0
123.344208 120.0
123.386208 80.0
123.443695 168.0
123.490135 176.0
123.576607 180.0
123.666649 236.0
123.70034 44.0
123.720787 152.0
123.828758 152.0
123.873055 148.0
123.959465 140.0
124.023727 44.0
124.070282 180.0
124.124077 168.0
124.178238 204.0
124.209984 40.0
124.296509 132.0
124.318695 68.0
124.378616 152.0
124.407478 48.0
124.429924 180.0
124.458542 64.0
124.506172 180.0
124.545151 224.0
124.574028 124.0
124.591797 156.0
124.651787 156.0
124.694008 172.0
124.748184 160.0
124.771805 220.0
124.794037 180.0
124.823761 208.0
124.903008 152.0
124.999992 148.0
125.04718 120.0
125.134445 76.0
125.164925 220.0
125.192337 164.0
125.248016 236.0
125.323753 152.0
125.349411 152.0
125.383224 116.0
125.408432 184.0
125.455246 124.0
125.504295 220.0
125.533279 128.0
125.557808 148.0
125.586807 100.0
125.623222 220.0
125.70443 200.0
125.767532 116.0
125.792084 180.0
125.831696 236.0
125.874687 184.0
125.968491 116.0
126.042213 104.0
126.060089 252.0
126.113731 220.0
126.156197 196.0
126.190872 172.0
126.22998 184.0
126.250107 156.0
126.335098 40.0
126.37616 180.0
126.397743 192.0
126.45369 168.0
126.579048 164.0
126.679832 136.0
126.715675 164.0
126.763527 248.0
126.779716 228.0
126.80307 144.0
126.829964 44.0
126.8591 136.0
126.894974 116.0
126.96785 200.0
126.990456 124.0
127.045227 140.0
127.101639 168.0
127.143448 284.0
127.16864 132.0
127.227005 88.0
127.271904 160.0
127.328041 164.0
127.442604 92.0
127.465561 204.0
127.501549 224.0
127.548225 156.0
127.604431 108.0
127.696625 152.0
127.72361 156.0
127.750053 180.0
127.75441 156.0
127.858521 324.0
127.896866 64.0
127.927391 200.0
127.975655 200.0
128.069016 136.0
128.115295 144.0
128.1745 200.0
128.196396 144.0
128.269608 132.0
128.320374 188.0
128.36348 196.0
128.430862 156.0
128.474533 156.0
128.49321 156.0
128.548172 196.0
128.58429 248.0
128.640717 132.0
128.79425 200.0
128.839432 148.0
128.860123 128.0
128.877838 164.0
128.898178 136.0
128.914001 228.0
128.952408 412.0
128.984055 168.0
129.011185 128.0
129.040573 136.0
129.060928 148.0
129.097107 100.0
129.142334 196.0
129.250488 192.0
129.316544 196.0
129.343704 56.0
129.402557 196.0
129.447617 80.0
129.502197 176.0
129.604141 200.0
129.631332 180.0
129.682114 148.0
129.718948 212.0
129.740128 112.0
129.787735 152.0
129.864838 172.0
129.932892 120.0
129.975998 132.0
129.994156 180.0
130.044083 128.0
130.103149 96.0
130.118988 136.0
130.146225 128.0
130.166672 168.0
130.184235 184.0
130.212082 184.0
130.248474 192.0
130.26886 172.0
130.346115 160.0
130.415344 156.0
130.424271 72.0
130.428741 112.0
130.44838 172.0
130.514313 204.0
130.537048 140.0
130.564346 120.0
130.592773 224.0
130.630295 80.0
130.675507 224.0
130.721741 168.0
130.775925 172.0
130.816895 160.0
130.8647 240.0
130.967178 184.0
131.028687 204.0
131.058792 540.0
131.1996 84.0
131.258881 108.0
131.287094 192.0
131.331467 196.0
131.404099 168.0
131.44873 260.0
131.487 60.0
131.631958 96.0
131.648819 172.0
131.719879 132.0
131.795273 220.0
131.852402 72.0
131.890289 132.0
131.916397 112.0
131.975845 200.0
132.002975 148.0
132.045441 12716.0
132.154236 44.0
132.203247 184.0
132.250351 76.0
132.277817 64.0
132.330475 48.0
132.424026 116.0
132.442688 152.0
132.511414 200.0
132.534149 216.0
132.554947 124.0
132.575562 160.0
132.61911 48.0
132.681 128.0
132.726212 184.0
132.750351 112.0
132.777847 220.0
132.823181 92.0
132.871353 112.0
132.92363 152.0
133.002151 88.0
133.074799 2980.0
133.121536 84.0
133.169754 176.0
133.229477 200.0
133.335388 124.0
133.369644 212.0
133.397232 52.0
133.4729 192.0
133.516785 140.0
133.554169 112.0
133.576355 152.0
133.603683 200.0
133.617996 256.0
133.636398 160.0
133.652512 56.0
133.749161 168.0
133.772629 104.0
133.845856 140.0
133.898819 300.0
133.926895 168.0
133.963318 160.0
134.049744 284.0
134.072266 1848.0
134.111404 176.0
134.151443 220.0
134.17804 160.0
134.218414 168.0
134.242188 52.0
134.274475 172.0
134.291046 172.0
134.408264 140.0
134.424423 120.0
134.454865 180.0
134.491348 156.0
134.547363 196.0
134.569839 168.0
134.618332 156.0
134.677322 212.0
134.743057 112.0
134.798737 428.0
134.921005 104.0
134.938217 180.0
134.971863 128.0
134.992676 52.0
135.043976 7384.0
135.081039 192.0
135.106003 168.0
135.149963 144.0
135.173996 96.0
135.19162 80.0
135.237137 120.0
135.254105 200.0
135.291382 236.0
135.299835 196.0
135.342072 140.0
135.368805 140.0
135.426392 172.0
135.516052 132.0
135.545914 140.0
135.575485 184.0
135.624695 152.0
135.654831 48.0
135.72438 88.0
135.779755 64.0
135.883194 152.0
135.91922 124.0
135.951706 200.0
135.969437 264.0
136.031143 252.0
136.048828 936.0
136.123489 172.0
136.146713 56.0
136.169937 112.0
136.204773 144.0
136.296722 164.0
136.41008 136.0
136.427856 72.0
136.472549 176.0
136.54982 144.0
136.590622 196.0
136.627838 160.0
136.648788 56.0
136.692993 128.0
136.745834 176.0
136.776779 204.0
136.814026 192.0
136.832535 176.0
136.841843 168.0
136.874557 44.0
136.900162 180.0
136.917831 176.0
137.002655 92.0
137.041855 164.0
137.063217 156.0
137.112152 60.0
137.156448 160.0
137.175095 144.0
137.193741 64.0
137.242279 176.0
137.263687 196.0
137.304443 100.0
137.35231 52.0
137.602005 160.0
137.632355 104.0
137.665039 156.0
137.683731 52.0
137.708389 172.0
137.728104 136.0
137.753799 160.0
137.786499 172.0
137.833221 108.0
137.854126 144.0
137.910339 232.0
137.943069 136.0
137.968781 168.0
138.057632 140.0
138.116104 112.0
138.133682 248.0
138.165222 128.0
138.208038 120.0
138.326691 160.0
138.385223 156.0
138.516357 144.0
138.62413 196.0
138.692093 40.0
138.769455 164.0
138.788208 152.0
138.809311 80.0
138.877655 172.0
138.910156 204.0
138.931274 180.0
139.084473 168.0
139.130753 68.0
139.173004 216.0
139.258057 164.0
139.391449 100.0
139.419647 56.0
139.516022 124.0
139.532471 148.0
139.551285 136.0
139.582275 156.0
139.626526 200.0
139.64299 112.0
139.715912 124.0
139.828857 136.0
139.958282 204.0
140.058609 192.0
140.11377 136.0
140.210373 132.0
140.24556 168.0
140.319794 220.0
140.337662 164.0
140.387177 124.0
140.481522 184.0
140.582977 200.0
140.683716 164.0
140.76474 224.0
140.891281 132.0
140.918274 152.0
140.986786 148.0
141.010422 68.0
141.074249 96.0
141.145279 180.0
141.183014 140.0
141.20192 52.0
141.251465 308.0
141.298965 160.0
141.39119 172.0
141.414856 196.0
141.447083 52.0
141.464569 112.0
141.507599 112.0
141.530853 192.0
141.552155 108.0
141.599518 104.0
141.637421 368.0
141.658737 64.0
141.684799 84.0
141.705795 236.0
141.779694 156.0
141.798538 128.0
141.862534 192.0
141.909683 144.0
141.952621 216.0
142.083069 164.0
142.140015 100.0
142.196976 132.0
142.232574 136.0
142.303787 128.0
142.322784 144.0
142.384369 184.0
142.467651 48.0
142.508041 112.0
142.587616 160.0
142.694366 236.0
142.711716 184.0
142.740982 148.0
142.871796 132.0
142.919525 184.0
143.026184 208.0
143.060608 1756.0
143.086288 732.0
143.21933 180.0
143.305084 64.0
143.33606 60.0
143.369415 96.0
143.390869 236.0
143.440918 224.0
143.474289 132.0
143.493362 100.0
143.519424 116.0
143.593521 172.0
143.655533 140.0
143.683167 192.0
143.750961 40.0
143.772446 156.0
143.859894 200.0
143.980133 272.0
144.023117 200.0
144.061096 108.0
144.087448 172.0
144.133011 216.0
144.173645 28.0
144.191299 204.0
144.212234 184.0
144.271637 180.0
144.305099 192.0
144.321838 200.0
144.353088 328.0
144.400696 160.0
144.467728 212.0
144.55864 160.0
144.596939 144.0
144.640015 172.0
144.678314 200.0
144.752533 180.0
144.771698 52.0
144.841156 196.0
144.869888 176.0
144.927399 148.0
144.960571 104.0
144.9897 76.0
145.010361 116.0
145.030441 196.0
145.054367 204.0
145.104752 164.0
145.164688 168.0
145.19194 148.0
145.246231 160.0
145.321228 152.0
145.332123 152.0
145.394989 160.0
145.454987 108.0
145.483795 136.0
145.503006 224.0
145.642273 180.0
145.824875 80.0
145.841705 224.0
145.918625 248.0
146.003387 192.0
146.038864 216.0
146.072281 144.0
146.17598 216.0
146.195236 212.0
146.216888 200.0
146.257812 176.0
146.336014 320.0
146.363434 128.0
146.385406 212.0
146.411896 140.0
146.450424 196.0
146.469696 56.0
146.505829 148.0
146.611847 124.0
146.659485 188.0
146.773804 148.0
146.821579 188.0
146.845703 76.0
146.910507 276.0
146.992859 184.0
147.061569 176.0
147.111115 128.0
147.135254 184.0
147.178711 64.0
147.212204 180.0
147.236664 84.0
147.255997 136.0
147.323624 88.0
147.367798 140.0
147.39772 204.0
147.425034 148.0
147.478271 116.0
147.521164 204.0
147.567703 240.0
147.611465 248.0
147.654755 164.0
147.729736 244.0
147.751511 176.0
147.86673 84.0
147.873672 148.0
147.936874 352.0
148.037125 160.0
148.06514 292.0
148.08223 192.0
148.180023 56.0
148.247864 176.0
148.30632 200.0
148.335526 212.0
148.361465 120.0
148.396027 184.0
148.516983 144.0
148.579407 272.0
148.601883 124.0
148.635849 48.0
148.667389 188.0
148.705414 132.0
148.737778 168.0
148.764313 172.0
148.800888 104.0
148.899902 176.0
148.970886 136.0
149.053497 168.0
149.126389 272.0
149.178696 240.0
149.211472 208.0
149.264969 172.0
149.345215 144.0
149.44252 208.0
149.515518 120.0
149.587097 180.0
149.60936 152.0
149.812576 88.0
149.844238 280.0
149.87912 176.0
149.910034 192.0
149.93927 160.0
150.009781 116.0
150.026169 308.0
150.051392 196.0
150.100159 136.0
150.122101 160.0
150.147629 188.0
150.268448 128.0
150.317245 216.0
150.336777 180.0
150.363724 176.0
150.471634 60.0
150.505203 196.0
150.59346 168.0
150.624863 104.0
150.707932 272.0
150.751907 176.0
150.769012 144.0
150.84877 144.0
150.910797 120.0
150.930344 108.0
151.013489 84.0
151.059967 192.0
151.113785 192.0
151.174957 132.0
151.236145 160.0
151.26062 212.0
151.297333 176.0
151.361099 204.0
151.424667 188.0
151.498154 168.0
151.515305 152.0
151.569199 136.0
151.591248 160.0
151.635361 176.0
151.66478 128.0
151.730957 176.0
151.755478 116.0
151.80748 76.0
151.870728 136.0
151.902618 224.0
151.953903 164.0
151.990814 168.0
152.0457 188.0
152.066788 356.0
152.089523 348.0
152.160294 136.0
152.197113 136.0
152.233948 160.0
152.274979 124.0
152.307632 96.0
152.324829 196.0
152.450119 124.0
152.541061 104.0
152.573074 156.0
152.628159 168.0
152.632599 220.0
152.686127 216.0
152.74762 192.0
152.766541 180.0
152.791885 152.0
152.880463 116.0
152.939529 188.0
152.971527 176.0
153.040466 92.0
153.0746 200.0
153.121735 168.0
153.173447 64.0
153.193161 180.0
153.237289 232.0
153.276978 164.0
153.296631 200.0
153.316345 156.0
153.376389 220.0
153.434174 180.0
153.461777 128.0
153.511093 184.0
153.535751 104.0
153.604813 184.0
153.629486 112.0
153.757263 224.0
153.799744 184.0
153.846649 112.0
153.866394 104.0
153.896027 48.0
153.947876 248.0
154.044205 144.0
154.066437 160.0
154.206482 224.0
154.25177 148.0
154.292053 216.0
154.349884 168.0
154.427322 220.0
154.464417 156.0
154.529358 204.0
154.605438 296.0
154.675201 192.0
154.716827 192.0
154.734161 184.0
154.845581 176.0
154.862915 180.0
154.907501 156.0
155.014038 140.0
155.033859 88.0
155.152832 216.0
155.187546 112.0
155.235107 108.0
155.380997 144.0
155.400848 104.0
155.440155 228.0
155.492661 160.0
155.61676 148.0
155.747391 140.0
155.850235 124.0
155.899933 156.0
155.962067 100.0
156.101288 132.0
156.153503 196.0
156.300278 120.0
156.367462 116.0
156.447113 136.0
156.483093 188.0
156.549194 168.0
156.683701 136.0
156.716705 276.0
156.835709 220.0
156.861923 200.0
156.942902 92.0
156.967834 200.0
157.000259 68.0
157.018921 148.0
157.057617 136.0
157.077576 144.0
157.132278 172.0
157.141312 160.0
157.187347 144.0
157.227264 248.0
157.29715 136.0
157.319122 336.0
157.354721 204.0
157.4095 116.0
157.429474 140.0
157.482025 200.0
157.501907 168.0
157.531876 164.0
157.571503 480.0
157.59433 180.0
157.630814 172.0
157.686798 224.0
157.740189 164.0
157.754913 168.0
157.794281 156.0
157.844284 236.0
157.896805 116.0
157.924789 208.0
157.959335 172.0
157.993134 180.0
158.026871 176.0
158.071533 2808.0
158.121338 160.0
158.182037 120.0
158.233109 208.0
158.25032 168.0
158.292191 176.0
158.379837 192.0
158.462173 120.0
158.475952 164.0
158.519699 116.0
158.533981 192.0
158.572769 156.0
158.675537 156.0
158.718155 200.0
158.805923 104.0
158.931366 180.0
158.956451 268.0
158.994095 132.0
159.016678 188.0
159.078629 1776.0
159.123978 388.0
159.179855 196.0
159.235107 204.0
159.259674 224.0
159.300415 60.0
159.334091 156.0
159.353058 96.0
159.36676 156.0
159.395874 124.0
159.43808 144.0
159.462387 336.0
159.476944 136.0
159.500916 156.0
159.531601 148.0
159.55481 388.0
159.586639 388.0
159.630417 216.0
159.64151 184.0
159.670013 360.0
159.700058 120.0
159.723953 384.0
159.770767 264.0
159.793015 172.0
159.811356 220.0
159.831207 248.0
159.880585 388.0
159.918945 608.0
159.944916 320.0
159.966293 448.0
160.002502 524.0
160.046219 1400.0
160.088135 363180.0
160.167969 176.0
160.17952 272.0
160.211044 104.0
160.260178 172.0
160.319611 372.0
160.349213 224.0
160.368561 332.0
160.425491 156.0
160.474762 560.0
160.502518 6316.0
160.524796 232.0
160.539963 192.0
160.55394 252.0
160.580917 140.0
160.630493 148.0
160.661804 136.0
160.688599 236.0
160.737976 160.0
160.756821 188.0
160.78566 176.0
160.819702 204.0
160.838104 308.0
160.873352 300.0
160.89859 76.0
160.903656 260.0
160.923874 556.0
160.943253 240.0
160.98558 368.0
161.007034 152.0
161.023911 196.0
161.043549 140.0
161.090256 52804.0
161.211365 76.0
161.234192 124.0
161.271347 72.0
161.323349 140.0
161.382294 76.0
161.43042 32.0
161.473816 228.0
161.508118 128.0
161.529587 84.0
161.549484 144.0
161.56694 124.0
161.592575 192.0
161.624161 28.0
161.639648 196.0
161.670425 120.0
161.689255 100.0
161.706619 88.0
161.733704 68.0
161.757141 152.0
161.791351 260.0
161.834091 76.0
161.865204 128.0
161.886917 312.0
161.90477 140.0
161.948059 384.0
161.968094 140.0
161.986465 232.0
162.017136 180.0
162.039825 72.0
162.056274 224.0
162.09314 2644.0
162.139267 176.0
162.17453 168.0
162.200684 300.0
162.208786 92.0
162.226974 188.0
162.249512 244.0
162.287643 152.0
162.316696 136.0
162.361572 252.0
162.385056 140.0
162.418961 376.0
162.452469 152.0
162.476654 228.0
162.497437 108.0
162.525208 96.0
162.548401 76.0
162.5793 180.0
162.615723 92.0
162.68425 112.0
162.724762 88.0
162.771927 64.0
162.818832 60.0
162.86499 112.0
162.915146 52.0
162.953445 56.0
162.985489 184.0
163.012573 104.0
163.059418 136.0
163.12117 96.0
163.187729 176.0
163.222366 232.0
163.278809 40.0
163.3246 144.0
163.350998 116.0
163.394608 212.0
163.436188 180.0
163.457596 120.0
163.496552 68.0
163.523056 108.0
163.54158 100.0
163.584137 104.0
163.693619 40.0
163.856628 52.0
163.910919 64.0
163.981476 48.0
164.029907 80.0
164.052856 160.0
164.231339 32.0
164.324509 92.0
164.435455 64.0
164.5401 164.0
164.58606 52.0
164.706085 84.0
164.741852 76.0
164.82872 48.0
164.87471 68.0
164.933502 116.0
165.090958 148.0
165.14827 144.0
165.317123 116.0
165.352951 64.0
165.639709 112.0
165.749878 52.0
165.775497 104.0
165.895966 164.0
165.965179 28.0
166.054932 204.0
166.375671 60.0
166.414185 104.0
166.563126 28.0
166.812378 64.0
166.98465 152.0
167.350052 44.0
167.623077 80.0
167.670761 40.0
167.870544 96.0
168.110291 64.0
168.226593 48.0
168.311783 84.0
168.337601 164.0
168.474503 128.0
168.585327 76.0
168.639862 108.0
168.681229 64.0
168.805328 160.0
168.867386 132.0
168.976028 140.0
169.00708 64.0
169.139053 108.0
169.164703 128.0
169.185654 84.0
169.242615 48.0
169.338425 60.0
169.37468 68.0
169.426498 56.0
169.45517 60.0
169.490143 212.0
169.600113 176.0
169.794556 116.0
169.898865 76.0
169.983932 64.0
170.059586 132.0
170.079956 144.0
170.111099 124.0
170.194183 72.0
170.23053 116.0
170.321426 40.0
170.339615 44.0
170.373383 100.0
170.394165 84.0
170.417542 84.0
170.487701 100.0
170.505905 84.0
170.547485 92.0
170.565674 48.0
170.62027 92.0
170.67746 132.0
170.698273 192.0
170.851395 164.0
170.884491 60.0
170.992233 52.0
171.080719 160.0
171.118378 104.0
171.155228 136.0
171.267303 76.0
171.29686 144.0
171.338547 124.0
171.535065 148.0
171.792145 120.0
171.815613 204.0
171.879654 140.0
171.913467 120.0
171.975449 96.0
172.080719 148.0
172.102707 76.0
172.243729 116.0
172.287369 176.0
172.463211 192.0
172.48674 296.0
172.507645 96.0
172.557312 60.0
172.596542 32.0
172.698517 52.0
172.845016 80.0
172.87381 36.0
172.973267 76.0
173.028229 44.0
173.083221 156.0
173.201065 52.0
173.253448 96.0
173.382019 60.0
173.552231 48.0
173.662369 112.0
173.698654 144.0
173.762054 36.0
173.817139 60.0
173.872253 140.0
174.00087 180.0
174.124283 32.0
174.692017 32.0
175.028885 168.0
175.227753 80.0
175.429352 100.0
175.468887 96.0
175.553268 108.0
175.674591 88.0
175.906799 164.0
176.012405 60.0
176.308273 168.0
176.51181 112.0
176.681076 80.0
176.988098 128.0
177.215866 40.0
177.245026 140.0
177.961166 40.0
178.232071 220.0
178.327744 152.0
178.346344 88.0
178.407486 60.0
178.515457 44.0
178.700027 76.0
179.062042 128.0
179.136627 112.0
179.299149 44.0
179.752487 180.0
180.003403 120.0
180.297256 56.0
180.364075 84.0
181.043625 68.0
181.067734 128.0
181.196304 72.0
181.507202 76.0
181.850586 148.0
182.301758 156.0
182.3367 144.0
182.401199 52.0
182.503357 92.0
182.567886 120.0
182.602859 44.0
182.729279 100.0
182.758881 128.0
182.804611 48.0
182.86113 140.0
182.890732 132.0
183.046875 76.0
183.103439 180.0
183.186935 52.0
183.324341 60.0
183.424057 48.0
183.682907 160.0
183.761139 100.0
183.863434 196.0
183.909561 56.0
184.049942 76.0
184.211975 144.0
184.414627 128.0
184.593765 108.0
185.063873 80.0
185.082825 116.0
185.109894 128.0
185.199188 144.0
185.288651 68.0
185.4133 76.0
185.532562 48.0
185.638306 216.0
185.820038 116.0
186.060028 164.0
186.132156 104.0
186.411942 156.0
186.528809 192.0
186.599487 112.0
187.119125 124.0
187.1409 136.0
187.418716 164.0
187.563156 184.0
187.789459 156.0
188.088257 236.0
188.187866 156.0
188.30867 84.0
188.417282 156.0
188.678162 164.0
188.77533 204.0
189.188477 152.0
190.257614 212.0
190.298798 132.0
190.562454 148.0
190.614655 80.0
190.922546 168.0
191.116638 384.0
191.285721 68.0
191.49498 144.0
191.674042 180.0
191.701599 116.0
191.734665 144.0
191.874863 232.0
191.949677 92.0
192.335907 180.0
192.529175 156.0
192.667282 92.0
192.750168 116.0
192.998932 144.0
193.209122 172.0
193.328094 164.0
193.353012 80.0
193.377914 100.0
193.865326 136.0
193.962326 192.0
194.275681 124.0
194.830887 268.0
194.875336 128.0
195.253372 104.0
195.281189 96.0
195.406494 92.0
195.436966 80.0
195.51767 144.0
196.074646 132.0
196.73291 104.0
197.093185 100.0
197.666397 176.0
198.098495 380.0
198.262863 132.0
198.383377 64.0
198.515152 120.0
198.65538 88.0
198.922806 160.0
199.112442 172.0
199.180298 52.0
200.11113 144.0
200.139282 132.0
200.3815 64.0
200.697159 184.0
201.188065 148.0
201.360306 104.0
201.795471 204.0
201.934021 180.0
202.282043 180.0
202.675705 180.0
202.743713 160.0
202.959137 112.0
203.055557 48.0
203.117416 3836.0
203.370483 104.0
203.430084 168.0
203.583405 44.0
203.643051 52.0
203.768036 120.0
203.830536 28.0
204.029495 168.0
204.08429 220.0
204.121933 512.0
204.217163 88.0
204.402832 200.0
204.829117 108.0
205.125 172.0
205.2509 120.0
205.384933 200.0
205.850128 64.0
206.024353 184.0
206.109055 276.0
206.128387 68.0
206.487396 40.0
206.930923 56.0
207.011093 84.0
207.2603 136.0
207.374924 220.0
207.409332 32.0
207.607147 180.0
207.73909 180.0
207.819412 160.0
208.00882 104.0
208.103546 120.0
208.156708 140.0
208.778809 248.0
209.001678 168.0
209.999908 152.0
210.441422 200.0
210.698822 156.0
210.718231 128.0
211.10022 64.0
211.317154 64.0
211.458939 108.0
211.496567 100.0
211.673157 128.0
211.699219 96.0
211.906326 40.0
211.933853 60.0
212.145065 172.0
212.342575 180.0
212.603668 124.0
212.812668 184.0
212.95903 20.0
212.995621 104.0
213.021759 92.0
213.556595 80.0
213.736954 112.0
213.867905 172.0
213.888916 72.0
214.133408 4972.0
214.191849 172.0
214.307632 140.0
214.727402 40.0
214.890747 76.0
215.057083 56.0
215.136963 632.0
215.280853 148.0
215.325684 76.0
215.457123 96.0
215.57692 132.0
216.132492 140.0
216.152985 144.0
216.176392 128.0
216.258331 204.0
216.492538 84.0
216.52475 104.0
216.545258 116.0
216.624344 48.0
216.65657 128.0
216.794281 84.0
217.122604 96.0
217.289795 220.0
217.371948 36.0
218.170822 144.0
218.297256 124.0
218.700302 104.0
218.744461 204.0
218.843994 172.0
218.897705 156.0
219.162643 60.0
219.286407 112.0
219.545837 132.0
219.595978 56.0
219.950043 288.0
220.147842 100.0
220.298477 140.0
220.588074 36.0
220.863052 124.0
220.883759 72.0
220.907425 104.0
221.167816 68.0
221.2211 168.0
221.42836 144.0
221.570541 100.0
221.644608 236.0
221.766113 192.0
221.983093 104.0
222.015717 104.0
222.097153 164.0
222.196487 144.0
222.394897 256.0
222.923523 208.0
223.060242 48.0
223.176178 172.0
223.533112 164.0
223.61644 124.0
223.672989 116.0
223.935013 140.0
224.47142 152.0
224.626511 64.0
225.2892 160.0
225.316086 196.0
225.638855 148.0
226.347946 184.0
227.688385 136.0
227.739441 108.0
228.090988 112.0
228.54509 88.0
228.879196 132.0
229.04483 84.0
229.698929 156.0
229.747192 96.0
230.057327 124.0
230.798203 56.0
231.034103 176.0
231.11264 6064.0
231.242889 224.0
231.560776 212.0
231.644073 56.0
231.730408 76.0
231.803131 112.0
231.915268 40.0
232.025787 104.0
232.113541 1060.0
232.148697 112.0
232.285187 92.0
232.436874 108.0
232.558258 204.0
232.749512 128.0
232.946915 72.0
233.126801 156.0
233.485413 116.0
233.518356 200.0
233.871277 128.0
233.898682 76.0
233.965652 76.0
234.090485 44.0
234.190979 160.0
234.218384 120.0
234.751724 40.0
234.861526 136.0
235.047607 148.0
235.126953 56.0
235.716324 200.0
235.869141 120.0
236.011871 124.0
236.790085 172.0
236.995316 232.0
237.133224 200.0
237.378464 160.0
237.841721 212.0
238.081192 212.0
238.649658 140.0
238.90184 212.0
239.117233 44.0
239.157242 112.0
239.412766 128.0
239.440491 144.0
239.637634 96.0
240.121582 76.0
240.149338 124.0
240.254211 68.0
240.445526 72.0
240.856155 156.0
241.035339 164.0
241.063156 196.0
241.137314 96.0
241.226959 128.0
241.424835 228.0
241.63826 52.0
241.669189 116.0
242.105637 128.0
242.155197 120.0
242.629288 128.0
243.107361 128.0
243.153488 176.0
243.25705 164.0
243.544693 108.0
243.85849 208.0
243.992157 156.0
244.169388 124.0
244.343582 84.0
244.387131 116.0
244.710815 132.0
246.013962 124.0
247.004532 172.0
247.148438 48.0
248.022156 52.0
248.111786 256.0
248.251022 68.0
248.508224 68.0
248.599228 160.0
248.778122 120.0
248.881729 196.0
249.114136 48.0
251.081314 120.0
251.150696 124.0
251.229553 28.0
251.485779 100.0
251.512421 56.0
251.725067 76.0
251.930359 184.0
252.170502 56.0
252.205276 208.0
252.942261 148.0
253.027725 120.0
253.06572 172.0
253.157547 172.0
253.556702 152.0
253.991074 180.0
254.041824 72.0
254.346451 180.0
254.422623 124.0
254.495651 56.0
254.59726 156.0
254.695709 92.0
255.05159 108.0
255.204178 100.0
255.27095 160.0
255.296387 156.0
255.398163 224.0
255.46814 112.0
255.685974 172.0
255.834091 192.0
256.020142 96.0
256.216248 76.0
256.276764 144.0
256.350067 72.0
256.458435 112.0
256.507446 184.0
256.573181 96.0
256.598694 136.0
256.639008 132.0
256.710266 160.0
256.8013 184.0
256.860748 204.0
256.927155 104.0
256.962372 168.0
256.997345 164.0
257.036011 360.0
257.069 124.0
257.139771 91268.0
257.2211 144.0
257.252411 212.0
257.312103 128.0
257.342682 108.0
257.380646 160.0
257.4263 100.0
257.453674 144.0
257.490143 152.0
257.544098 256.0
257.584503 100.0
257.634186 68.0
257.666931 468.0
257.687714 300.0
257.729919 104.0
257.763977 76.0
257.811615 80.0
257.844879 116.0
257.858124 72.0
257.892487 192.0
257.917236 236.0
257.949036 60.0
257.973541 120.0
258.011719 88.0
258.065491 112.0
258.096466 68.0
258.141357 13996.0
258.202972 196.0
258.260315 132.0
258.300781 36.0
258.358337 152.0
258.399933 80.0
258.441101 92.0
258.48465 92.0
258.529999 52.0
258.582336 96.0
258.614349 36.0
258.65274 48.0
258.703949 68.0
258.731934 60.0
258.782867 68.0
258.825287 40.0
258.961639 184.0
259.00177 92.0
259.081848 120.0
259.107452 96.0
259.147491 1480.0
259.197845 272.0
259.235626 48.0
259.277283 56.0
259.408691 80.0
259.45282 116.0
259.503235 132.0
259.527313 48.0
259.555878 44.0
259.576324 56.0
259.602844 72.0
259.616455 40.0
259.622284 104.0
259.668427 36.0
259.72934 132.0
259.761444 88.0
259.799347 108.0
259.864075 128.0
259.89502 56.0
259.957153 56.0
259.992889 248.0
260.044373 112.0
260.071869 96.0
260.152802 160.0
260.213928 144.0
260.252441 160.0
260.384094 60.0
260.416229 44.0
260.451538 52.0
260.539154 104.0
260.586456 92.0
260.633392 104.0
260.689575 92.0
260.740692 44.0
260.987366 184.0
261.075043 92.0
261.116852 68.0
261.149017 132.0
261.399933 48.0
261.541534 44.0
261.734711 68.0
261.786224 84.0
261.815216 72.0
262.011688 104.0
262.069672 72.0
262.098663 100.0
262.359741 72.0
262.485474 68.0
262.518677 48.0
262.772522 120.0
262.808014 72.0
262.85965 96.0
263.492493 92.0
264.171356 108.0
264.734528 60.0
264.935333 216.0
265.486328 84.0
266.590057 100.0
266.78183 28.0
268.36731 164.0
269.522736 36.0
269.561951 96.0
269.70575 92.0
270.641357 80.0
270.870605 88.0
270.89679 64.0
271.542511 144.0
271.686829 96.0
272.16272 128.0
272.724457 76.0
273.632385 116.0
274.848572 92.0
274.874969 112.0
275.109283 68.0
275.320618 148.0
276.162781 116.0
276.477661 76.0
276.523987 96.0
276.861664 44.0
277.122223 504.0
277.173065 48.0
277.199554 32.0
278.111572 180.0
279.750275 124.0
279.846832 72.0
280.806519 128.0
281.123444 56.0
281.517365 80.0
281.56076 52.0
281.99173 68.0
282.165558 116.0
282.476562 108.0
283.6586 56.0
283.987183 56.0
284.151978 124.0
285.131989 564.0
285.454773 88.0
286.134125 324.0
286.299408 104.0
287.42865 116.0
287.631134 56.0
288.465485 160.0
288.813751 80.0
289.094543 68.0
290.049622 108.0
290.141144 124.0
290.320862 84.0
293.002655 68.0
293.814026 84.0
294.86972 116.0
295.118652 148.0
298.905396 132.0
300.286804 76.0
301.128906 148.0
301.792389 92.0
302.149261 168.0
302.944824 128.0
303.073029 168.0
303.100739 52.0
303.144104 532.0
303.253204 36.0
303.308685 48.0
303.433472 60.0
303.513214 172.0
304.155243 148.0
305.322388 80.0
305.750305 64.0
305.920837 64.0
307.112549 148.0
313.373413 64.0
314.84433 108.0
315.307129 100.0
322.922546 100.0
323.56665 108.0
323.977234 80.0
326.107422 44.0
326.544922 44.0
327.801331 120.0
329.034851 48.0
329.128723 52.0
329.233429 48.0
331.066895 172.0
331.983734 92.0
333.065247 164.0
333.392242 60.0
334.286804 52.0
335.208069 92.0
335.915375 56.0
338.327179 56.0
338.913177 68.0
339.606018 52.0
341.802856 28.0
341.86911 84.0
342.572327 124.0
343.611908 88.0
344.139679 60.0
347.8974 116.0
357.108215 80.0
359.240143 64.0
366.542267 136.0
373.929382 112.0
375.04245 40.0
376.775055 56.0
377.041656 88.0
377.207855 144.0
380.617126 100.0
381.728424 88.0
381.961792 108.0
382.884216 40.0
383.881836 96.0
386.085846 100.0
386.123383 132.0
387.1409 68.0
389.71405 52.0
390.759857 96.0
392.552002 92.0
393.368683 64.0
395.257812 96.0
395.309265 96.0
395.768402 68.0
398.601227 84.0
402.124817 160.0
402.360321 60.0
403.123199 68.0
404.378937 72.0
405.796967 60.0
407.201416 96.0
409.236145 72.0
410.541687 52.0
412.608978 52.0
417.11792 72.0
418.785004 32.0
424.473694 56.0
426.666168 48.0
426.830627 100.0
428.048584 64.0
428.575836 48.0
432.821899 84.0
433.294067 80.0
434.0401 60.0
434.720367 116.0
435.035828 132.0
436.196136 444.0
436.302856 44.0
436.643799 76.0
437.202759 444.0
437.613342 60.0
438.208923 136.0
438.279755 92.0
440.570221 32.0
443.532867 64.0
452.074005 84.0
453.831848 72.0
455.644104 84.0
456.800385 84.0
457.112213 68.0
457.183319 52.0
460.991425 68.0
464.309113 64.0
466.107758 80.0
471.235046 84.0
471.943878 92.0
472.488831 112.0
475.639191 108.0
482.28598 140.0
482.675049 44.0
483.116791 128.0
484.570251 100.0
487.246429 48.0
487.681458 76.0
488.270569 112.0
492.373566 48.0
493.376556 92.0
495.624878 76.0
499.571716 64.0
500.194702 60.0
500.225861 68.0
501.78949 96.0
502.467377 108.0
502.55661 36.0
504.132843 112.0
511.362122 88.0
514.937378 56.0
518.121765 80.0
518.670044 116.0
526.888367 76.0
527.637878 36.0
531.852234 72.0
534.49469 48.0
538.385254 56.0
538.847168 124.0
542.581909 92.0
544.595825 72.0
551.795349 88.0
552.983459 52.0
553.821533 84.0
556.081421 52.0
559.997803 44.0
560.040222 84.0
563.592407 72.0
574.574097 60.0
576.746765 32.0
584.915344 116.0
588.477905 108.0
591.683289 84.0
592.448425 96.0
605.037231 96.0
605.296692 60.0
609.46106 84.0
610.773621 88.0
619.005554 60.0
620.164795 72.0
629.088379 72.0
630.86676 80.0
634.506226 40.0
635.097961 84.0
636.553284 88.0
637.950012 48.0
652.001404 52.0
652.835144 52.0
656.063171 80.0
656.537354 84.0
658.065125 48.0
665.414978 60.0
666.257263 60.0
682.080322 56.0
695.635559 80.0
699.330688 64.0
709.81189 36.0
712.189392 88.0
721.247314 96.0
734.450684 100.0
734.741943 96.0
764.377319 120.0
768.995361 112.0
771.105164 128.0
771.641357 56.0
783.618225 32.0
786.065979 64.0
790.704224 148.0
793.404053 128.0
793.780762 104.0
798.766846 72.0
799.678345 80.0
807.396179 60.0
810.934631 196.0
815.122681 144.0
815.384094 88.0
815.429565 168.0
816.794128 220.0
820.957397 76.0
822.235291 184.0
823.348511 144.0
827.001831 72.0
829.797241 72.0
835.822266 80.0
841.828613 172.0
841.874817 72.0
841.97876 100.0
843.631226 88.0
844.741516 80.0
846.147766 136.0
846.275146 112.0
846.999023 124.0
847.07428 184.0
848.140442 180.0
849.740967 84.0
852.394409 148.0
853.737183 188.0
857.63208 56.0
860.040955 148.0
861.109375 160.0
861.892151 188.0
863.026062 88.0
864.535217 148.0
865.009277 140.0
865.430786 84.0
871.072449 48.0
874.335632 156.0
879.339111 104.0
879.651978 188.0
880.6203 60.0
885.552917 172.0
885.807617 208.0
887.721924 104.0
888.231934 56.0
889.988586 108.0
891.247742 132.0
892.62677 136.0
895.828735 96.0
896.835754 152.0
897.336487 128.0
900.684204 132.0
903.421936 128.0
903.918518 80.0
904.421265 176.0
906.223755 172.0
908.909851 228.0
909.858154 220.0
911.197388 144.0
912.261108 72.0
914.781555 100.0
919.633789 228.0
921.378845 140.0
923.02887 188.0
924.371704 76.0
925.007202 168.0
925.219055 160.0
926.157654 148.0
928.782166 180.0
930.778748 144.0
932.145447 184.0
934.71759 220.0
937.933167 36.0
939.219666 116.0
940.116516 120.0
940.867249 212.0
943.408569 164.0
944.656067 188.0
945.604492 112.0
946.718689 56.0
946.84729 56.0
948.617981 92.0
948.660889 128.0
949.850525 36.0
951.82666 152.0
952.391663 144.0
954.242188 136.0
955.403625 40.0
956.535889 180.0
957.545654 200.0
963.738953 80.0
965.018372 168.0
966.638916 180.0
966.787415 116.0
967.272888 200.0
968.118408 64.0
969.896484 180.0
971.483887 180.0
972.395996 64.0
974.824158 160.0
975.451843 160.0
976.204163 104.0
976.832336 92.0
978.008301 196.0
979.060486 220.0
979.122742 176.0
979.645996 76.0
980.437256 164.0
980.586853 108.0
981.970886 112.0
982.887939 164.0
985.548584 140.0
989.89502 40.0
992.821472 148.0
992.99707 160.0
996.757324 176.0
997.863586 168.0
999.624695 192.0
1001.324402 192.0
1002.786072 120.0
1004.955322 140.0
1005.807251 116.0
1006.602722 148.0
1006.766907 104.0
1007.663818 152.0
1011.964478 220.0
1013.966187 152.0
1014.759277 176.0
1018.350159 200.0
1020.765076 220.0
1021.591858 172.0
1022.96637 268.0
1023.88324 156.0
1024.603027 112.0
1027.101807 156.0
1028.097046 156.0
1030.159424 128.0
1030.625732 196.0
1030.86853 192.0
1033.771729 148.0
1035.602661 156.0
1037.826294 108.0
1038.473999 148.0
1038.980713 116.0
1039.213379 188.0
1039.269409 144.0
1040.578735 196.0
1043.746338 168.0
1046.583862 68.0
1047.736694 216.0
1048.187744 160.0
1048.303711 108.0
1048.86438 228.0
1049.044922 112.0
1049.322021 136.0
1049.657349 92.0
1050.366699 232.0
1050.515137 120.0
1051.424927 84.0
1052.244629 120.0
1052.948486 116.0
1054.027222 136.0
1055.520386 176.0
1056.801025 136.0
1057.22168 184.0
1057.402832 96.0
1058.58374 124.0
1058.827148 60.0
1059.151001 108.0
1059.876587 124.0
1061.088623 156.0
1062.23645 236.0
1062.619141 152.0
1062.969482 56.0
1063.209595 72.0
1063.352417 144.0
1063.787231 180.0
1063.910645 148.0
1064.501465 204.0
1066.134399 148.0
1066.359375 116.0
1067.971802 176.0
1068.017334 124.0
1068.485718 160.0
1069.7677 132.0
1075.94873 188.0
1078.593262 204.0
1079.273193 116.0
1082.116699 236.0
1082.747925 172.0
1084.058105 144.0
1084.169556 172.0
1084.726562 232.0
1085.664185 88.0
1086.536499 204.0
1088.282349 172.0
1088.472656 180.0
1088.932373 228.0
1089.681274 96.0
1091.554443 316.0
1091.633423 224.0
1091.988525 176.0
1092.133179 192.0
1092.35022 128.0
1093.508301 200.0
1093.600464 160.0
1093.692505 136.0
1093.771484 136.0
1095.081787 212.0
1096.030396 268.0
1097.005859 184.0
1097.387329 148.0
1097.487061 36.0
1098.027832 96.0
1098.238892 252.0
1100.383423 172.0
1101.737305 196.0
1102.272461 172.0
1103.125 108.0
1105.922974 192.0
1105.995728 160.0
1106.922607 188.0
1108.254028 208.0
1109.446899 160.0
1111.449829 180.0
1113.30188 132.0
1113.720215 152.0
1113.992554 156.0
1114.138672 128.0
1114.391235 160.0
1114.696777 152.0
1116.006226 160.0
1116.052734 144.0
1116.92395 160.0
1116.977173 160.0
1117.828735 180.0
1117.908569 160.0
1118.514282 160.0
1119.599487 200.0
1119.752686 180.0
1119.992432 40.0
1121.528564 176.0
1123.265137 240.0
1123.592041 176.0
1124.693115 104.0
1125.394043 156.0
1125.94165 172.0
1126.088501 128.0
1126.591553 168.0
1127.658569 420.0
1128.942139 284.0
1129.376831 156.0
1130.621216 228.0
1132.301636 76.0
1132.870972 152.0
1132.978149 152.0
1134.619995 164.0
1135.35083 128.0
1135.397827 208.0
1135.679565 156.0
1136.981079 160.0
1137.779785 220.0
1138.014771 176.0
1139.700684 156.0
1140.036621 156.0
1142.362915 100.0
1142.96167 156.0
1143.311646 48.0
1143.362427 44.0
1144.078857 196.0
1145.533447 136.0
1146.085938 100.0
1149.248047 128.0
1149.477539 184.0
1150.921997 212.0
1150.996216 84.0
1151.414917 108.0
1152.178223 196.0
1152.934937 152.0
1152.9823 104.0
1153.063354 140.0
1153.137695 200.0
1153.24585 124.0
1153.401245 120.0
1154.963257 192.0
1156.269043 132.0
1156.903809 228.0
1158.63208 184.0
1159.269043 148.0
1160.190796 148.0
1160.244995 152.0
1161.377441 116.0
1161.546997 116.0
1162.172119 140.0
1162.551147 176.0
1163.72644 136.0
1164.01062 108.0
1164.764404 240.0
1164.920654 152.0
1165.525269 188.0
1166.007812 144.0
1166.170898 184.0
1166.70105 176.0
1166.775879 148.0
1167.80249 176.0
1168.632568 160.0
1169.449097 136.0
1169.55127 64.0
1169.651978 200.0
1170.320435 108.0
1171.771118 192.0
1172.622925 160.0
1172.800171 212.0
1173.407593 172.0
1173.693237 172.0
1173.740967 168.0
1174.15686 176.0
1174.627563 168.0
1175.261963 148.0
1175.480347 140.0
1175.862427 156.0
1176.72937 92.0
1177.214111 284.0
1177.309814 168.0
1177.707031 96.0
1178.491455 88.0
1178.552979 128.0
1179.803711 168.0
1180.391602 196.0
1180.843018 124.0
1182.92981 148.0
1183.586426 168.0
1185.169312 116.0
1185.929932 144.0
1186.841675 164.0
1187.301147 72.0
1187.349121 140.0
1187.719482 156.0
1188.103638 156.0
1189.695801 156.0
1189.949707 76.0
1190.224365 192.0
1191.577393 52.0
1191.714844 128.0
1192.037842 164.0
1192.202759 160.0
1193.103149 100.0
1193.226929 184.0
1193.598145 96.0
1193.77002 108.0
1194.052002 184.0
1194.946289 160.0
1195.455444 128.0
1195.992188 120.0
1196.439697 60.0
1196.72876 124.0
1197.47937 280.0
1197.754883 160.0
1198.519531 96.0
1199.167358 188.0
1200.649536 92.0
1201.111694 172.0
1201.753296 116.0
1201.815308 212.0
1202.001587 148.0
1202.208618 168.0
1202.415649 136.0
1202.526123 216.0
1203.665161 248.0
1204.132324 108.0
1204.438599 172.0
1204.58374 140.0
1204.949829 168.0
1205.848145 220.0
1205.908325 224.0
1206.456421 164.0
1206.73291 88.0
1206.968018 80.0
1207.59729 232.0
1207.887817 184.0
1208.351318 128.0
1209.271606 88.0
1209.735352 152.0
1209.859985 188.0
1210.116089 192.0
1211.425049 168.0
1211.83374 168.0
1211.965454 200.0
1213.074219 164.0
1213.157471 196.0
1213.309082 132.0
1214.232178 192.0
1214.28064 184.0
1214.384766 208.0
1214.717651 96.0
1214.988159 148.0
1216.167847 240.0
1216.938354 44.0
1217.473022 136.0
1218.139771 48.0
1218.792847 124.0
1218.980469 208.0
1219.557251 208.0
1219.932617 136.0
1220.084839 164.0
1220.553589 160.0
1221.344238 224.0
1221.935425 248.0
1222.345947 92.0
1223.348145 108.0
1223.668457 180.0
1223.98877 200.0
1224.629395 36.0
1224.796509 136.0
1225.444458 112.0
1226.482788 108.0
1227.172852 152.0
1227.270508 128.0
1228.442139 124.0
1228.546753 208.0
1228.623535 176.0
1228.874634 136.0
1231.359741 152.0
1231.604126 192.0
1231.653076 100.0
1232.065186 200.0
1233.287964 200.0
1233.74939 224.0
1233.861206 136.0
1233.966064 156.0
1234.252686 100.0
1234.966064 184.0
1235.078003 172.0
1235.378784 20.0
1235.616577 128.0
1237.023193 92.0
1237.086182 300.0
1237.996338 228.0
1238.178467 252.0
1238.570679 264.0
1238.879028 180.0
1239.341309 112.0
1239.89978 176.0
1240.511597 160.0
1240.665894 108.0
1240.862183 148.0
1240.988403 172.0
1241.19165 172.0
1242.790894 188.0
1243.296143 160.0
1243.871582 104.0
1244.313843 160.0
1245.554565 144.0
1245.648193 116.0
1247.236206 208.0
1247.440063 180.0
1247.496216 104.0
1248.973877 192.0
1249.542725 60.0
1250.295654 176.0
1250.450439 132.0
1250.584106 204.0
1251.098022 164.0
1251.534546 172.0
1252.696533 200.0
1253.253052 224.0
1253.887329 204.0
1254.169189 108.0
1255.522827 184.0
1256.432739 132.0
1256.905396 168.0
1257.674683 192.0
1259.432739 140.0
1259.581055 188.0
1259.814209 256.0
1260.026123 152.0
1260.711548 160.0
1261.72229 128.0
1262.56665 208.0
1263.768799 216.0
1264.042114 184.0
1264.183594 192.0
1265.507324 168.0
1265.692627 116.0
1266.215454 176.0
1267.398438 208.0
1267.717285 240.0
1268.107056 100.0
1268.404663 164.0
1268.489746 176.0
1269.035645 176.0
1269.092407 224.0
1269.241211 152.0
1269.652588 172.0
1270.042603 100.0
1270.255371 112.0
1270.751953 96.0
1271.234497 104.0
1271.738403 208.0
1271.908691 188.0
1272.59021 116.0
1272.817383 148.0
1273.009155 136.0
1273.39978 132.0
1274.543457 128.0
1274.777954 184.0
1276.626221 168.0
1276.768433 52.0
1276.839478 168.0
1276.932007 176.0
1277.372925 212.0
1277.621948 188.0
1278.326294 120.0
1278.817383 116.0
1278.916992 196.0
1279.023804 140.0
1279.942139 104.0
1280.084595 184.0
1280.219849 232.0
1280.511841 256.0
1281.160034 84.0
1281.217041 160.0
1281.922363 148.0
1282.007935 76.0
1282.114746 180.0
1282.2146 168.0
1282.285767 88.0
1282.499634 128.0
1283.490601 228.0
1284.203613 160.0
1284.374878 76.0
1284.710083 144.0
1284.85498 184.0
1285.873169 140.0
1286.287109 232.0
1286.444214 172.0
1286.786865 268.0
1288.993896 176.0
1289.386841 144.0
1289.85144 104.0
1290.022095 184.0
1291.460205 120.0
1291.517456 164.0
1291.782104 88.0
1292.848145 156.0
1292.905396 204.0
1293.442261 104.0
1293.692749 212.0
1293.757202 144.0
1293.85022 120.0
1293.993408 124.0
1294.222046 160.0
1294.358521 228.0
1294.437378 72.0
1294.623535 124.0
1294.816895 112.0
1295.060425 60.0
1295.260986 184.0
1296.321289 164.0
1296.502075 88.0
1296.650879 140.0
1297.088867 164.0
1297.525391 224.0
1297.668823 136.0
1297.848022 164.0
1298.041626 144.0
1298.163574 144.0
1298.543579 112.0
1298.830566 184.0
1299.02417 164.0
1300.12915 236.0
1300.351562 236.0
1300.645874 244.0
1300.798706 84.0
1300.904297 84.0
1301.277588 52.0
1301.650879 148.0
1302.246948 140.0
1302.785645 132.0
1303.094604 124.0
1303.403564 80.0
1303.568848 136.0
1303.834717 120.0
1304.165283 212.0
1304.227295 268.0
1304.582275 164.0
1304.76709 208.0
1305.200562 116.0
1305.603271 240.0
1306.020386 128.0
1306.32959 64.0
1306.387207 140.0
1307.516846 156.0
1307.688843 212.0
1307.840698 172.0
1308.60376 184.0
1309.395874 136.0
1309.518311 108.0
1310.469116 156.0
1311.816772 120.0
1311.923828 156.0
1312.039185 184.0
1312.328613 140.0
1312.797363 236.0
1313.165161 192.0
1313.302124 200.0
1313.69165 172.0
1313.922485 144.0
1314.283203 56.0
1315.286377 132.0
1315.567871 152.0
1315.618408 136.0
1315.863892 152.0
1316.70874 160.0
1318.428101 248.0
1318.673828 152.0
1318.947632 176.0
1319.035156 136.0
1319.143677 208.0
1319.215942 108.0
1319.483398 148.0
1319.645996 180.0
1320.170288 140.0
1320.329346 200.0
1320.633179 140.0
1320.734375 128.0
1320.900757 164.0
1320.987549 196.0
1322.065552 156.0
1322.203125 208.0
1322.463623 156.0
1322.687988 172.0
1322.941406 160.0
1323.057251 188.0
1323.353638 144.0
1323.433716 148.0
1324.47644 192.0
1324.628662 200.0
1324.676025 168.0
1324.80249 168.0
1325.157471 192.0
1325.396484 140.0
1325.545776 204.0
1326.012451 192.0
1326.45459 140.0
1326.780884 100.0
1327.099854 168.0
1327.235596 216.0
1327.795898 204.0
1328.775879 208.0
1329.158936 180.0
1329.32666 140.0
1329.471802 156.0
1329.718506 108.0
1330.004761 208.0
1330.38623 156.0
1331.765869 124.0
1332.071045 168.0
1332.883545 128.0
1333.262573 176.0
1333.444214 92.0
1333.495117 52.0
1333.655029 192.0
1334.018433 188.0
1334.54187 180.0
1334.745483 108.0
1334.876343 160.0
1335.08728 132.0
1335.494507 240.0
1335.603638 192.0
1335.850952 164.0
1336.08374 52.0
1336.527466 236.0
1336.74585 40.0
1337.378906 108.0
1337.458984 148.0
1337.721069 168.0
1338.048584 108.0
1338.820435 200.0
1338.983154 144.0
1340.051514 124.0
1340.408447 188.0
1341.506836 156.0
1341.960938 160.0
1342.274536 248.0
1342.325562 120.0
1342.478638 136.0
1342.544312 204.0
1342.776978 128.0
1342.967285 164.0
1343.404907 124.0
1343.50708 40.0
1343.595459 172.0
1343.644897 196.0
1343.893799 136.0
1344.360718 76.0
1344.645386 64.0
1344.762085 84.0
1345.448242 172.0
1345.857178 180.0
1346.653076 140.0
1346.777222 148.0
1346.945312 56.0
1348.691528 216.0
1349.226685 152.0
1349.824707 192.0
1349.970947 200.0
1350.168457 216.0
1350.731567 208.0
1351.98999 132.0
1352.66333 172.0
1353.322266 188.0
1355.121094 212.0
1355.491333 148.0
1355.724731 104.0
1355.966675 168.0
1356.164551 96.0
1356.758301 52.0
1356.890259 144.0
1357.014893 216.0
1357.073486 188.0
1357.271484 116.0
1357.440063 180.0
1358.730957 144.0
1359.74353 164.0
1359.890381 104.0
1360.081177 236.0
1360.580322 112.0
1360.712524 192.0
1360.940063 252.0
1361.123657 184.0
1361.747925 200.0
1361.981934 204.0
1362.115112 92.0
1362.276733 140.0
1362.555908 152.0
1363.452271 164.0
1364.055054 148.0
1364.234863 152.0
1364.584351 52.0
1365.093994 220.0
1365.312256 148.0
1366.010986 168.0
1366.128662 212.0
1366.231689 160.0
1366.798218 180.0
1367.307007 164.0
1367.541382 184.0
1367.799072 104.0
1367.850586 192.0
1368.299561 148.0
1368.792969 144.0
1369.271606 240.0
1369.350952 156.0
1370.347046 120.0
1370.53125 168.0
1370.920898 172.0
1371.761963 168.0
1372.078979 184.0
1372.137939 172.0
1372.521362 224.0
1372.820312 196.0
1373.376831 160.0
1373.553833 152.0
1373.605469 192.0
1374.025879 176.0
1374.225098 136.0
1374.837524 132.0
1375.00647 168.0
1375.90686 152.0
1376.312256 224.0
1376.616577 220.0
1377.702393 164.0
1377.90918 176.0
1378.556152 104.0
1378.96582 112.0
1379.158081 96.0
1379.468506 144.0
1379.682861 180.0
1379.793701 168.0
1379.956421 96.0
1380.022949 100.0
1380.170776 108.0
1380.555298 188.0
1380.639771 156.0
1380.703247 212.0
1380.806763 192.0
1380.999023 132.0
1381.509399 120.0
1381.760986 176.0
1383.818481 200.0
1383.88501 116.0
1383.944336 52.0
1384.307129 136.0
1384.44043 136.0
1384.855103 160.0
1385.084717 220.0
1385.188477 160.0
1385.277344 112.0
1385.425537 200.0
1385.573608 132.0
1385.699585 136.0
1386.025635 176.0
1386.099731 156.0
1386.255371 136.0
1386.433105 128.0
1387.085327 184.0
1388.086182 260.0
1388.158569 160.0
1388.353149 220.0
1388.412476 196.0
1388.494141 100.0
1389.525146 200.0
1389.703247 132.0
1390.779175 200.0
1391.766602 92.0
1391.907593 192.0
1392.568604 140.0
1393.021606 204.0
1393.103394 128.0
1393.159058 208.0
1393.289062 188.0
1393.4823 156.0
1393.630859 192.0
1393.868652 88.0
1394.195557 40.0
1394.313599 144.0
1394.524658 176.0
1394.701538 292.0
1395.028076 192.0
1395.362549 176.0
1395.518677 72.0
1395.853271 76.0
1395.987305 132.0
1396.708496 144.0
1397.206909 56.0
1397.504517 156.0
1397.645874 168.0
1398.524048 160.0
1398.620728 192.0
1399.378418 92.0
1399.46582 172.0
1399.715088 188.0
1399.849121 164.0
1400.050171 116.0
1400.698242 172.0
1400.832275 220.0
1401.040894 140.0
1401.435669 124.0
1401.636841 180.0
1402.270264 124.0
1403.060425 116.0
1403.120117 132.0
1403.59729 244.0
1404.302734 112.0
1404.84082 108.0
1405.626099 180.0
1405.812622 188.0
1406.275391 192.0
1406.715698 176.0
1406.887451 132.0
1406.969604 32.0
1407.295776 208.0
1407.447388 52.0
1407.626587 136.0
1408.183594 196.0
1408.240845 156.0
1408.866455 160.0
1409.038208 196.0
1409.247437 52.0
1409.508911 172.0
1409.762939 112.0
1409.919922 160.0
1411.091309 184.0
1411.116821 132.0
1411.140869 200.0
1411.362671 160.0
1411.705811 160.0
1411.781372 76.0
1412.102905 120.0
1412.334839 160.0
1412.492188 108.0
1412.619019 144.0
1412.776123 60.0
1413.179443 168.0
1413.33728 124.0
1413.67395 64.0
1413.748779 60.0
1414.1604 112.0
1414.302612 144.0
1415.171021 220.0
1415.222656 156.0
1415.503174 136.0
1415.69519 80.0
1416.107056 192.0
1416.570923 432.0
1416.638794 136.0
1416.894409 160.0
1417.411499 144.0
1417.95752 124.0
1418.302368 116.0
1418.392212 160.0
1418.647095 168.0
1419.261841 200.0
1419.441895 160.0
1419.561768 136.0
1419.629272 188.0
1420.191772 148.0
1420.514282 176.0
1420.964478 144.0
1421.069458 120.0
1421.279541 120.0
1421.57373 192.0
1421.6698 192.0
1422.457764 160.0
1422.645508 136.0
1422.998291 140.0
1423.298584 156.0
1423.411255 212.0
1423.501343 112.0
1423.741699 72.0
1424.229858 96.0
1424.387573 140.0
1424.725586 104.0
1424.934082 176.0
1424.960083 224.0
1425.048706 168.0
1425.890259 160.0
1426.356201 212.0
1426.468994 208.0
1426.664429 176.0
1427.296021 136.0
1428.160767 92.0
1428.845337 204.0
1429.519165 192.0
1430.252563 192.0
1430.395508 140.0
1430.666504 120.0
1430.847168 232.0
1431.080566 128.0
1431.901367 28.0
1432.707397 108.0
1432.880615 176.0
1432.940918 84.0
1433.830078 204.0
1434.538574 108.0
1434.683838 224.0
1435.058716 140.0
1435.322632 172.0
1435.382935 152.0
1436.567017 140.0
1437.079346 232.0
1437.21582 228.0
1438.023315 164.0
1439.200928 188.0
1439.548218 208.0
1439.872925 180.0
1439.963623 232.0
1440.212769 56.0
1440.681152 180.0
1440.794434 196.0
1441.066406 136.0
1441.70874 156.0
1441.869507 52.0
1442.018555 120.0
1442.653442 148.0
1443.417114 164.0
1443.613647 144.0
1444.619629 236.0
1445.088623 148.0
1445.209717 108.0
1446.057251 164.0
1447.003418 164.0
1447.260864 312.0
1447.328979 68.0
1447.601562 180.0
1447.889404 116.0
1448.553101 256.0
1448.677124 152.0
1448.767944 168.0
1448.836182 36.0
1449.442261 96.0
1449.533203 108.0
1449.715088 208.0
1449.836304 256.0
1449.995483 56.0
1450.268311 176.0
1450.677612 184.0
1450.927856 168.0
1450.980835 128.0
1451.193115 120.0
1451.65564 192.0
1452.080322 180.0
1452.512695 160.0
1452.800903 112.0
1452.975464 136.0
1453.043701 164.0
1453.149902 136.0
1454.068115 156.0
1454.531006 168.0
1454.735962 160.0
1454.940918 152.0
1455.070068 144.0
1456.041992 152.0
1456.429321 184.0
1456.56604 188.0
1456.672363 168.0
1457.249756 236.0
1457.530884 44.0
1457.660034 116.0
1457.753296 172.0
1458.321167 52.0
1459.491821 156.0
1459.598267 120.0
1459.780762 148.0
1460.145874 148.0
1460.275146 104.0
1460.625 132.0
1460.862549 244.0
1461.149902 80.0
1461.248779 136.0
1461.522705 84.0
1461.926025 108.0
1461.979248 196.0
1462.040161 40.0
1462.212769 192.0
1462.29126 196.0
1462.588135 176.0
1463.048096 180.0
1463.120972 148.0
1463.554932 180.0
1464.232666 172.0
1464.316406 372.0
1464.484009 48.0
1464.544922 148.0
1464.601807 196.0
1464.887695 128.0
1465.055298 252.0
1465.13147 160.0
1465.387085 136.0
1465.855225 136.0
1466.236328 32.0
1466.721924 156.0
1467.410156 192.0
1467.488647 160.0
1467.881714 224.0
1468.000977 392.0
1468.984985 184.0
1469.697998 140.0
1469.774536 228.0
1469.858521 212.0
1469.980591 152.0
1470.12561 148.0
1470.194214 124.0
1470.687622 220.0
1470.8125 176.0
1471.125366 156.0
1471.690308 160.0
1471.919434 148.0
1472.140869 160.0
1472.194336 180.0
1472.545654 132.0
1472.855835 180.0
1473.255981 96.0
1473.706665 196.0
1473.980469 116.0
1474.065796 108.0
1474.279785 136.0
1474.654297 156.0
1474.947632 156.0
1475.112915 172.0
1475.479858 184.0
1475.63269 184.0
1475.900269 152.0
1476.603882 140.0
1476.718506 220.0
1476.840942 108.0
1477.391724 184.0
1477.827759 116.0
1478.133789 156.0
1478.294556 224.0
1478.707764 188.0
1478.845581 64.0
1478.899048 120.0
1478.998657 64.0
1479.121094 204.0
1479.30481 144.0
1479.533203 124.0
1479.624023 212.0
1479.878906 184.0
1480.667603 132.0
1480.759521 184.0
1481.229492 80.0
1481.517822 76.0
1481.609741 148.0
1482.605835 224.0
1482.766846 156.0
1482.966064 60.0
1483.150024 136.0
1483.364624 132.0
1483.602295 212.0
1484.545288 144.0
1484.775391 148.0
1485.450317 216.0
1485.838257 168.0
1486.194458 168.0
1486.601196 152.0
1486.839111 180.0
1486.984863 200.0
1487.25354 216.0
1487.560547 80.0
1487.936768 160.0
1488.454224 188.0
1488.535645 128.0
1488.873535 160.0
1489.226807 236.0
1489.457153 268.0
1489.580078 168.0
1489.810547 180.0
1490.286865 208.0
1490.640259 188.0
1490.770996 156.0
1490.963013 220.0
1491.216675 108.0
1491.278198 320.0
1491.416504 124.0
1492.200562 72.0
1492.300537 136.0
1493.077148 140.0
1493.438599 120.0
1493.861206 200.0
1494.161743 48.0
1494.269409 184.0
1494.661865 176.0
1494.784912 176.0
1495.046631 192.0
1495.554565 196.0
1495.754639 160.0
1495.885498 176.0
1496.031738 176.0
1496.731201 120.0
1497.109619 188.0
1497.309937 172.0
1497.525513 148.0
1497.664185 140.0
1497.738892 208.0
1498.295776 160.0
1498.588623 152.0
1498.704224 132.0
1498.765747 224.0
1499.112549 124.0
1499.34375 72.0
1499.497925 104.0
1499.767578 148.0
1500.014282 112.0
1500.225586 156.0
1500.461426 60.0
1500.81604 44.0
1500.993408 176.0
1501.371216 160.0
1501.810791 184.0
1501.903442 64.0
1502.127075 164.0
1502.775146 120.0
1503.361572 136.0
1503.454102 104.0
1503.762817 96.0
1504.218262 112.0
