>compound MLS002153451-01!N-Oleoyldopamine105955-11-1
>formula C26H43NO3
>ionization [M+H]+
>parentmass 418.33157068809055
#inchi InChI=1S/C26H43NO3/c1-2-3-4-5-6-7-8-9-10-11-12-13-14-15-16-17-26(30)27-21-20-23-18-19-24(28)25(29)22-23/h9-10,18-19,22,28-29H,2-8,11-17,20-21H2,1H3,(H,27,30)/b10-9-
#inchikey QQBPLXNESPTPNU
#Ion_Source LC-ESI
#Instrument qTof
#Compound_Source NIH Pharmacologically Active Library
#PI Dorrestein
#Data_Collector VP/LMS
#Scan -1
#Precursor_MZ 418.338
#ExactMass 417.324
#Charge 1
#CAS_Number N/A
#Pubmed_ID N/A
#Smiles CCCCCCCC/C=C\CCCCCCCC(=O)NCCc1ccc(O)c(O)c1
#INCHI_AUX N/A
#Library_Class 1
#SpectrumID CCMSLIB00000086025
#IonMode Positive
#UpdateWorkflowName UPDATE-SINGLE-ANNOTATED-GOLD
#LibraryQualityString Gold
#TaskID d252d724072548979f1f6f1ced849daf
##Scan# 2988
#SpectrumFile p5-B04_GB4_01_18443.mzXML
#LibraryName Pharm_Active_Library.mgf
#MQScore -1
#Organism Pharm_Active_Library
#TIC_Query 0
#RT_Query -1
#MZErrorPPM -1
#SharedPeaks 0
#MassDiff 0
#LibMZ -1
#SpecMZ 418.338
#SpecCharge 0
#internalFilename spec-00000.mgf

>collision 10
44.952526 108.0
44.984558 164.0
45.011223 136.0
45.034523 204.0
45.071918 240.0
45.095871 368.0
45.172974 160.0
45.258766 192.0
45.288086 88.0
45.297462 200.0
45.314877 184.0
45.353741 152.0
45.381893 148.0
45.42749 156.0
45.534866 224.0
45.555283 140.0
45.6007 160.0
45.66927 292.0
45.681374 196.0
45.708282 108.0
45.744617 168.0
45.762119 192.0
45.832157 324.0
45.869892 196.0
45.903599 68.0
45.938663 140.0
45.974087 188.0
46.02639 48.0
46.042595 184.0
46.062851 144.0
46.157455 156.0
46.192009 180.0
46.226444 128.0
46.321213 128.0
46.33205 112.0
46.3456 168.0
46.422863 184.0
46.444759 192.0
46.471306 168.0
46.521908 140.0
46.553135 140.0
46.639923 268.0
46.678654 216.0
46.698547 128.0
46.710789 148.0
46.728027 360.0
46.759773 132.0
46.834656 220.0
46.874161 168.0
46.897331 160.0
46.906872 60.0
46.921898 180.0
46.94759 208.0
47.01189 184.0
47.062393 128.0
47.127953 148.0
47.140251 116.0
47.170319 228.0
47.230804 144.0
47.259212 148.0
47.278366 60.0
47.37558 96.0
47.397503 156.0
47.412575 164.0
47.423538 188.0
47.446842 152.0
47.474419 144.0
47.511299 140.0
47.5354 188.0
47.553833 228.0
47.567562 164.0
47.590897 140.0
47.662323 152.0
47.715923 148.0
47.7393 96.0
47.766804 252.0
47.843868 212.0
47.864517 96.0
47.896194 64.0
47.936146 180.0
47.950436 260.0
47.995419 196.0
48.083702 140.0
48.127876 136.0
48.185886 120.0
48.324139 220.0
48.360424 164.0
48.374771 136.0
48.389187 176.0
48.401649 140.0
48.479893 140.0
48.504169 112.0
48.515259 140.0
48.541039 188.0
48.572113 132.0
48.595764 160.0
48.684532 152.0
48.738705 164.0
48.792908 172.0
48.816547 220.0
48.849926 164.0
48.870422 180.0
48.945953 188.0
48.956631 72.0
48.993309 204.0
49.038776 228.0
49.054031 212.0
49.072746 200.0
49.124348 140.0
49.14946 148.0
49.196911 116.0
49.2388 120.0
49.290485 160.0
49.338005 124.0
49.400936 84.0
49.514309 168.0
49.559135 140.0
49.692329 104.0
49.711971 208.0
49.754078 136.0
49.856613 64.0
49.872585 176.0
49.912842 180.0
49.931122 188.0
49.945187 132.0
49.95644 116.0
49.974731 172.0
49.990208 88.0
50.101437 116.0
50.112709 148.0
50.145119 216.0
50.184589 128.0
50.202919 156.0
50.215611 128.0
50.335846 20.0
50.387821 144.0
50.502323 220.0
50.598545 156.0
50.615536 108.0
50.652359 228.0
50.662579 112.0
50.744473 84.0
50.839039 268.0
50.860794 188.0
50.874989 156.0
50.923111 180.0
50.970146 172.0
51.018471 72.0
51.086727 108.0
51.102379 196.0
51.116608 132.0
51.152187 168.0
51.179234 136.0
51.224808 56.0
51.241901 128.0
51.287502 144.0
51.309986 176.0
51.327419 100.0
51.353512 148.0
51.371632 192.0
51.398739 152.0
51.473892 252.0
51.49572 188.0
51.521523 144.0
51.548672 144.0
51.577255 208.0
51.655182 172.0
51.672009 184.0
51.806145 192.0
51.909397 64.0
51.922302 144.0
51.95816 112.0
51.993366 180.0
52.011154 168.0
52.048946 188.0
52.176453 84.0
52.193707 168.0
52.205429 148.0
52.278336 168.0
52.321754 160.0
52.389439 136.0
52.429783 160.0
52.471584 156.0
52.491768 136.0
52.517727 164.0
52.542252 28.0
52.585541 208.0
52.649063 284.0
52.659172 120.0
52.690948 132.0
52.715511 176.0
52.728519 116.0
52.793575 156.0
52.845646 52.0
52.865906 136.0
52.907879 172.0
52.952766 204.0
52.994774 244.0
53.023754 72.0
53.035351 72.0
53.084641 168.0
53.145561 164.0
53.165878 160.0
53.17894 112.0
53.196358 284.0
53.213882 252.0
53.263153 252.0
53.287849 112.0
53.311211 204.0
53.332897 192.0
53.421597 144.0
53.469612 204.0
53.517681 176.0
53.549133 232.0
53.583187 160.0
53.595554 168.0
53.626266 128.0
53.686676 180.0
53.710011 176.0
53.736271 136.0
53.759617 188.0
53.803402 176.0
53.815083 140.0
53.874962 192.0
53.889568 120.0
53.936333 152.0
53.959724 144.0
54.024071 200.0
54.043087 160.0
54.083206 244.0
54.149948 136.0
54.270111 164.0
54.341522 168.0
54.450947 204.0
54.546104 88.0
54.575508 180.0
54.647743 176.0
54.694702 160.0
54.757977 200.0
54.790382 132.0
54.819851 68.0
54.852276 100.0
54.881725 172.0
54.895031 144.0
55.019821 328.0
55.051449 172.0
55.085419 212.0
55.125309 204.0
55.143044 176.0
55.196697 136.0
55.245068 140.0
55.279099 128.0
55.394581 152.0
55.418282 208.0
55.458294 136.0
55.477562 160.0
55.544292 100.0
55.654148 152.0
55.722431 92.0
55.750664 52.0
55.785172 128.0
55.833687 184.0
55.917225 228.0
55.936573 192.0
56.007652 136.0
56.052742 192.0
56.166561 128.0
56.198864 180.0
56.219753 200.0
56.236168 140.0
56.266026 124.0
56.276474 204.0
56.294392 140.0
56.320816 208.0
56.341389 404.0
56.383457 84.0
56.43784 172.0
56.511127 116.0
56.523098 228.0
56.563503 156.0
56.593445 64.0
56.677322 184.0
56.716286 56.0
56.738773 188.0
56.789757 132.0
56.809254 140.0
56.829208 40.0
56.876778 52.0
56.890289 204.0
56.909973 180.0
57.044479 180.0
57.069279 172.0
57.097637 164.0
57.136497 240.0
57.208981 160.0
57.249634 144.0
57.281261 80.0
57.330982 124.0
57.398815 180.0
57.425541 216.0
57.474232 120.0
57.605579 148.0
57.616154 160.0
57.650906 248.0
57.685665 128.0
57.702259 164.0
57.723465 144.0
57.740097 132.0
57.87833 172.0
57.919933 156.0
57.955051 128.0
57.988388 156.0
58.127907 144.0
58.152187 132.0
58.167366 52.0
58.18161 156.0
58.22506 188.0
58.271553 204.0
58.30254 180.0
58.370945 168.0
58.392235 124.0
58.456127 52.0
58.481998 204.0
58.526146 184.0
58.557587 136.0
58.584087 204.0
58.648781 136.0
58.660213 92.0
58.678505 220.0
58.692226 108.0
58.727303 64.0
58.802063 92.0
58.832588 184.0
58.878395 140.0
58.979233 228.0
59.021755 108.0
59.086811 148.0
59.108006 176.0
59.124527 140.0
59.140163 232.0
59.162792 44.0
59.213322 140.0
59.328239 160.0
59.386509 88.0
59.443272 120.0
59.486244 176.0
59.582165 208.0
59.593746 248.0
59.630623 212.0
59.682892 156.0
59.698269 196.0
59.729027 116.0
59.755177 156.0
59.815193 36.0
59.838287 64.0
59.858303 172.0
59.909126 192.0
60.013927 260.0
60.081787 156.0
60.095131 228.0
60.140423 212.0
60.20681 164.0
60.223797 76.0
60.242332 204.0
60.263962 216.0
60.311867 116.0
60.330418 164.0
60.356701 128.0
60.412472 200.0
60.452606 184.0
60.52071 148.0
60.547035 120.0
60.564453 148.0
60.61388 212.0
60.756248 160.0
60.784267 228.0
60.87735 180.0
60.889774 164.0
60.90686 180.0
60.969006 168.0
61.011158 168.0
61.028072 68.0
61.130733 176.0
61.178982 164.0
61.203892 32.0
61.231922 124.0
61.273129 168.0
61.360561 144.0
61.38776 228.0
61.420513 132.0
61.453274 228.0
61.506332 52.0
61.524281 168.0
61.623451 100.0
61.690655 208.0
61.734432 160.0
61.761017 236.0
61.793869 144.0
62.011707 244.0
62.088348 132.0
62.115013 112.0
62.178371 168.0
62.193466 184.0
62.229946 168.0
62.254696 80.0
62.314384 152.0
62.333237 44.0
62.347382 176.0
62.380009 200.0
62.435417 136.0
62.457119 180.0
62.477886 172.0
62.616398 204.0
62.657352 124.0
62.682564 48.0
62.707779 300.0
62.75349 88.0
62.810265 208.0
62.884418 196.0
62.912014 224.0
62.942333 140.0
62.975994 184.0
63.023384 176.0
63.06131 108.0
63.077118 200.0
63.10083 204.0
63.116638 200.0
63.176739 220.0
63.224205 200.0
63.248043 132.0
63.330017 192.0
63.347702 252.0
63.39048 164.0
63.42416 240.0
63.468151 172.0
63.480835 172.0
63.56332 128.0
63.598236 200.0
63.615696 132.0
63.631569 136.0
63.662533 224.0
63.701447 172.0
63.730972 136.0
63.846081 60.0
63.858803 124.0
64.016357 120.0
64.067322 52.0
64.196426 144.0
64.274445 136.0
64.379936 244.0
64.421463 176.0
64.437439 40.0
64.486198 236.0
64.504623 196.0
64.617668 268.0
64.634102 204.0
64.683716 68.0
64.722137 144.0
64.741348 84.0
64.819847 164.0
64.831062 204.0
64.858307 152.0
64.887161 184.0
65.041161 120.0
65.057213 164.0
65.0746 164.0
65.089325 176.0
65.386719 140.0
65.476875 96.0
65.568954 204.0
65.59449 124.0
65.621834 204.0
65.650055 176.0
65.67511 148.0
65.705757 68.0
65.729958 136.0
65.744141 168.0
65.770309 144.0
65.844574 144.0
65.915657 212.0
65.928581 228.0
65.978691 224.0
66.009407 124.0
66.091904 208.0
66.121025 228.0
66.231125 200.0
66.287827 160.0
66.308891 156.0
66.424011 72.0
66.466194 188.0
66.529488 284.0
66.583626 128.0
66.633423 124.0
66.724434 168.0
66.773216 124.0
66.887108 116.0
66.909897 168.0
66.940834 144.0
67.023911 152.0
67.123337 180.0
67.136383 132.0
67.245689 132.0
67.276703 208.0
67.289764 124.0
67.358353 180.0
67.417168 140.0
67.448219 196.0
67.534874 64.0
67.552872 144.0
67.642075 156.0
67.665787 240.0
67.767334 200.0
67.790268 172.0
67.829605 120.0
67.878479 148.0
67.96244 124.0
68.104965 156.0
68.22686 172.0
68.272896 124.0
68.318954 120.0
68.337051 156.0
68.42263 172.0
68.460503 208.0
68.506615 184.0
68.531326 192.0
68.572525 96.0
68.641762 160.0
68.714333 172.0
68.748985 180.0
68.765671 180.0
68.811707 156.0
68.874733 168.0
68.887672 152.0
68.903381 168.0
68.914108 196.0
68.996742 200.0
69.06794 72.0
69.135277 132.0
69.163818 172.0
69.190125 148.0
69.206856 196.0
69.251572 120.0
69.284698 184.0
69.302925 60.0
69.385788 152.0
69.453102 260.0
69.50853 196.0
69.558769 264.0
69.626389 176.0
69.641335 168.0
69.654625 192.0
69.669571 184.0
69.726067 48.0
69.807999 212.0
69.837456 128.0
69.880707 200.0
69.943947 224.0
69.973915 188.0
70.030525 188.0
70.043854 92.0
70.058846 172.0
70.077171 172.0
70.102165 256.0
70.148834 136.0
70.190514 188.0
70.24054 144.0
70.313957 124.0
70.377388 184.0
70.437508 164.0
70.449203 136.0
70.531082 200.0
70.547798 116.0
70.582909 136.0
70.63475 116.0
70.708366 156.0
70.78035 232.0
70.837296 216.0
70.878342 180.0
70.888306 172.0
70.929451 140.0
70.96183 152.0
70.978073 144.0
71.028381 72.0
71.062119 216.0
71.12738 128.0
71.145844 220.0
71.218048 216.0
71.285248 144.0
71.327263 112.0
71.381065 144.0
71.441612 176.0
71.45475 172.0
71.525749 96.0
71.564468 40.0
71.603195 152.0
71.643623 128.0
71.69046 220.0
71.737991 192.0
71.822304 160.0
71.8881 76.0
71.906662 132.0
71.960678 200.0
72.019783 72.0
72.0485 164.0
72.116089 172.0
72.17157 200.0
72.20739 140.0
72.238052 128.0
72.271667 116.0
72.324127 172.0
72.447739 128.0
72.527382 160.0
72.552811 64.0
72.598587 168.0
72.734314 156.0
72.765511 160.0
72.812416 172.0
72.846382 164.0
72.897354 140.0
72.936447 144.0
73.080994 168.0
73.135452 140.0
73.191628 164.0
73.212059 216.0
73.232498 104.0
73.251816 176.0
73.262634 196.0
73.327911 124.0
73.508675 148.0
73.535927 128.0
73.53978 124.0
73.544861 156.0
73.575317 168.0
73.597595 192.0
73.669167 140.0
73.703964 152.0
73.799049 68.0
73.814438 152.0
73.834961 196.0
73.860611 104.0
73.88456 120.0
74.02491 188.0
74.064301 176.0
74.083145 220.0
74.172249 176.0
74.186386 224.0
74.233971 144.0
74.287132 268.0
74.338936 208.0
74.355766 232.0
74.477669 132.0
74.513741 84.0
74.549644 156.0
74.642647 72.0
74.671883 140.0
74.736824 176.0
74.816422 140.0
74.832939 268.0
74.852577 224.0
75.012802 140.0
75.10936 144.0
75.14386 156.0
75.195633 128.0
75.273315 60.0
75.352768 156.0
75.390778 120.0
75.468567 168.0
75.504875 160.0
75.529091 172.0
75.691826 120.0
75.743721 76.0
75.859825 136.0
76.069717 112.0
76.151321 192.0
76.27269 216.0
76.330322 104.0
76.380753 140.0
76.46949 152.0
76.509521 40.0
76.553055 196.0
76.598335 68.0
76.626205 124.0
76.655167 272.0
76.708542 244.0
76.749954 156.0
76.769135 140.0
76.889503 68.0
76.905212 196.0
76.92524 76.0
76.994255 112.0
77.120049 196.0
77.139275 160.0
77.247688 220.0
77.311676 196.0
77.425446 100.0
77.477013 208.0
77.569885 196.0
77.622292 168.0
77.638268 208.0
77.72422 156.0
77.755539 160.0
77.809944 204.0
77.831291 208.0
77.889244 204.0
77.913834 196.0
77.948975 64.0
78.049164 152.0
78.174057 152.0
78.193413 188.0
78.214531 192.0
78.228539 192.0
78.265587 176.0
78.299889 216.0
78.339714 176.0
78.390648 76.0
78.469963 104.0
78.609306 160.0
78.625381 184.0
78.748772 176.0
78.790352 156.0
78.883057 160.0
78.908348 144.0
78.939636 116.0
78.952011 120.0
79.013275 176.0
79.031082 112.0
79.12188 120.0
79.191292 216.0
79.236992 112.0
79.302498 128.0
79.410706 196.0
79.450157 216.0
79.491051 96.0
79.55088 68.0
79.595268 228.0
79.62368 212.0
79.685593 152.0
79.769028 164.0
79.854721 152.0
79.979263 120.0
80.017242 168.0
80.098564 164.0
80.123505 160.0
80.148445 148.0
80.184082 208.0
80.210068 228.0
80.407013 184.0
80.444496 164.0
80.542709 172.0
80.628464 192.0
80.81443 116.0
80.839485 140.0
80.86718 184.0
80.894966 200.0
80.927193 36.0
80.979866 212.0
81.063324 116.0
81.086617 128.0
81.12426 92.0
81.140388 160.0
81.21212 116.0
81.285675 184.0
81.321564 108.0
81.393372 140.0
81.461617 224.0
81.492645 192.0
81.590912 152.0
81.61438 112.0
81.684517 68.0
81.719101 212.0
81.734886 128.0
81.783478 180.0
81.844688 156.0
81.918694 172.0
81.95816 92.0
81.994202 148.0
82.048279 148.0
82.080727 116.0
82.111382 204.0
82.156479 108.0
82.270164 108.0
82.356842 132.0
82.374901 56.0
82.430069 224.0
82.454407 200.0
82.519478 152.0
82.654816 132.0
82.675034 228.0
82.818062 156.0
82.939461 208.0
82.984779 136.0
83.046432 144.0
83.146217 184.0
83.251511 100.0
83.389252 176.0
83.43866 164.0
83.60392 196.0
83.627838 104.0
83.660599 140.0
83.789902 176.0
83.827034 200.0
83.902893 116.0
83.922943 200.0
83.974007 100.0
84.028732 128.0
84.061569 108.0
84.101723 180.0
84.145531 164.0
84.225883 172.0
84.278862 56.0
84.317474 152.0
84.342819 140.0
84.370239 132.0
84.388527 132.0
84.412292 228.0
84.461868 152.0
84.479965 64.0
84.567795 160.0
84.58976 196.0
84.611725 204.0
84.63736 196.0
84.657501 188.0
84.679474 40.0
84.712448 232.0
84.728935 140.0
84.754585 124.0
84.772911 204.0
84.789398 132.0
84.824226 180.0
84.83889 108.0
84.873726 248.0
84.921402 196.0
84.947083 208.0
84.964577 172.0
84.986412 160.0
85.025978 164.0
85.074738 156.0
85.136124 164.0
85.158165 172.0
85.196739 176.0
85.244591 184.0
85.294128 220.0
85.347443 180.0
85.396797 200.0
85.441238 108.0
85.455963 180.0
85.485397 88.0
85.568069 140.0
85.64373 140.0
85.658463 196.0
85.734001 200.0
85.760628 116.0
85.829506 84.0
85.863052 152.0
85.905472 144.0
85.93499 212.0
86.073418 52.0
86.12513 160.0
86.192879 184.0
86.304382 192.0
86.336525 196.0
86.415359 120.0
86.428307 140.0
86.442589 368.0
86.474571 252.0
86.556023 136.0
86.572693 284.0
86.608734 144.0
86.77095 176.0
86.826576 152.0
86.891502 200.0
86.9524 156.0
86.984283 148.0
86.999138 224.0
87.028839 192.0
87.078407 156.0
87.117989 152.0
87.153282 240.0
87.229477 140.0
87.249931 156.0
87.31501 220.0
87.328026 64.0
87.391273 176.0
87.424324 168.0
87.459084 216.0
87.515976 120.0
87.544273 244.0
87.596054 168.0
87.616547 184.0
87.645287 188.0
87.689217 200.0
87.829056 112.0
87.860764 100.0
87.887596 136.0
87.92234 180.0
87.940445 40.0
87.967133 228.0
87.997002 136.0
88.062363 140.0
88.109055 200.0
88.129608 128.0
88.146049 60.0
88.168854 148.0
88.195015 148.0
88.269798 212.0
88.355301 212.0
88.447525 180.0
88.475601 200.0
88.496201 192.0
88.5093 136.0
88.52803 128.0
88.550499 116.0
88.593582 88.0
88.636673 204.0
88.657288 184.0
88.691025 168.0
88.77726 200.0
88.809143 148.0
88.90107 172.0
88.919838 192.0
88.94799 116.0
89.000252 220.0
89.100098 208.0
89.145195 164.0
89.40094 216.0
89.414116 108.0
89.451759 224.0
89.562851 152.0
89.602409 64.0
89.670242 84.0
89.775818 144.0
89.796562 156.0
89.915421 160.0
89.93618 132.0
89.97393 156.0
90.002251 144.0
90.053238 128.0
90.083458 176.0
90.14959 136.0
90.174156 192.0
90.200615 148.0
90.217628 156.0
90.244095 56.0
90.261116 172.0
90.28759 164.0
90.327309 168.0
90.34433 80.0
90.363251 140.0
90.436691 276.0
90.456429 220.0
90.474907 180.0
90.539284 164.0
90.558258 216.0
90.635895 152.0
90.690849 188.0
90.706017 204.0
90.743927 112.0
90.82547 212.0
90.861511 168.0
90.86602 160.0
90.873466 228.0
90.888077 260.0
90.907051 172.0
90.933624 164.0
90.998161 184.0
91.021896 156.0
91.055908 13860.0
91.122833 72.0
91.161514 116.0
91.198517 184.0
91.229683 184.0
91.261406 144.0
91.304085 236.0
91.331902 140.0
91.369881 40.0
91.395393 52.0
91.441154 172.0
91.490242 156.0
91.557198 36.0
91.583862 44.0
91.612434 212.0
91.635292 224.0
91.810699 188.0
91.825638 140.0
91.886955 180.0
91.934654 68.0
91.95565 116.0
91.991028 180.0
92.032005 88.0
92.058464 1312.0
92.137047 204.0
92.156151 52.0
92.2173 184.0
92.230682 152.0
92.28894 160.0
92.332008 152.0
92.356873 180.0
92.383652 172.0
92.425743 72.0
92.43914 148.0
92.454445 152.0
92.52993 176.0
92.68232 32.0
92.759239 148.0
92.78006 160.0
92.822243 152.0
92.960358 172.0
92.977005 136.0
93.012177 212.0
93.029449 84.0
93.070885 1252.0
93.094727 32.0
93.163872 120.0
93.234962 188.0
93.261871 204.0
93.313774 56.0
93.367615 112.0
93.402229 148.0
93.423889 160.0
93.438782 148.0
93.513489 228.0
93.563873 96.0
93.596603 168.0
93.644753 52.0
93.685196 96.0
93.735291 72.0
93.793106 60.0
93.816238 220.0
93.889511 80.0
93.943512 148.0
94.01104 136.0
94.0438 208.0
94.075714 152.0
94.123001 100.0
94.15197 176.0
94.205879 180.0
94.254349 184.0
94.275604 216.0
94.354851 88.0
94.368385 108.0
94.397148 128.0
94.459274 128.0
94.501839 96.0
94.548279 164.0
94.596664 144.0
94.629578 156.0
94.69735 112.0
94.718658 72.0
94.751587 196.0
94.765152 180.0
94.788399 184.0
94.85817 200.0
94.891129 136.0
95.00943 132.0
95.048286 132.0
95.086159 1940.0
95.116158 228.0
95.141388 208.0
95.205467 188.0
95.22683 44.0
95.329788 136.0
95.357925 128.0
95.436699 168.0
95.50087 228.0
95.520325 156.0
95.670158 172.0
95.783104 168.0
95.878571 144.0
95.903908 28.0
95.931198 140.0
95.970184 88.0
96.03064 200.0
96.055992 72.0
96.071602 196.0
96.086143 320.0
96.100861 164.0
96.161354 148.0
96.243347 188.0
96.266777 264.0
96.316025 188.0
96.344902 204.0
96.419151 40.0
96.448471 208.0
96.616554 180.0
96.673378 228.0
96.782997 200.0
96.841743 156.0
96.88092 120.0
96.902687 36.0
96.947098 180.0
96.988693 160.0
97.033783 180.0
97.063835 500.0
97.103523 528.0
97.174988 108.0
97.229927 56.0
97.259514 176.0
97.406639 160.0
97.440323 136.0
97.463608 112.0
97.514702 180.0
97.609062 284.0
97.652328 160.0
97.691666 212.0
97.754623 260.0
97.772087 160.0
97.8806 196.0
98.018486 144.0
98.059746 256.0
98.079582 132.0
98.094315 176.0
98.102768 84.0
98.108086 156.0
98.205765 160.0
98.219574 104.0
98.297554 160.0
98.345856 148.0
98.486038 192.0
98.503815 88.0
98.543327 240.0
98.57029 148.0
98.641022 160.0
98.675743 148.0
98.737038 156.0
98.818138 160.0
98.952721 92.0
98.966583 128.0
99.014107 132.0
99.059662 140.0
99.079468 112.0
99.095322 44.0
99.117111 160.0
99.134949 188.0
99.178551 168.0
99.198372 184.0
99.220177 184.0
99.263794 124.0
99.281647 100.0
99.394714 196.0
99.412575 172.0
99.485901 216.0
99.550697 216.0
99.589264 48.0
99.654816 196.0
99.778038 160.0
99.807861 224.0
99.823769 120.0
99.88343 96.0
99.904427 180.0
99.976944 52.0
99.996841 28.0
100.038643 132.0
100.076218 160.0
100.101967 280.0
100.129456 176.0
100.133873 92.0
100.141037 200.0
100.163223 120.0
100.233818 64.0
100.306992 172.0
100.457115 124.0
100.584824 120.0
100.735535 176.0
100.776878 212.0
100.820496 164.0
100.952438 36.0
101.068069 188.0
101.086464 244.0
101.178528 176.0
101.215546 172.0
101.267685 164.0
101.29377 132.0
101.459 60.0
101.475037 44.0
101.6138 64.0
101.656403 152.0
101.723793 220.0
101.827431 104.0
101.844269 136.0
101.916588 128.0
101.936684 108.0
101.962807 348.0
102.00502 224.0
102.067337 192.0
102.11158 188.0
102.228264 160.0
102.306755 164.0
102.328903 72.0
102.35508 164.0
102.459808 212.0
102.510643 208.0
102.559731 136.0
102.592583 176.0
102.751579 176.0
102.78038 196.0
102.871201 100.0
102.9459 132.0
103.002449 128.0
103.054977 132.0
103.176239 232.0
103.206566 140.0
103.275909 192.0
103.299492 160.0
103.342079 68.0
103.447311 172.0
103.485779 184.0
103.514122 156.0
103.589058 128.0
103.621651 92.0
103.735725 200.0
103.844452 140.0
103.921532 172.0
103.956032 128.0
104.002708 180.0
104.043304 140.0
104.195618 240.0
104.287056 140.0
104.344719 208.0
104.368317 148.0
104.394806 224.0
104.454926 156.0
104.504074 128.0
104.527031 180.0
104.547379 144.0
104.650589 176.0
104.720428 212.0
104.795799 112.0
104.899734 172.0
104.954773 180.0
105.007698 168.0
105.032272 184.0
105.050629 76.0
105.072533 172.0
105.156731 68.0
105.179184 96.0
105.197556 196.0
105.258804 156.0
105.277184 96.0
105.295563 152.0
105.315987 132.0
105.340492 208.0
105.444702 168.0
105.467186 228.0
105.522377 196.0
105.546646 184.0
105.63076 172.0
105.653259 176.0
105.677208 216.0
105.86203 112.0
105.883865 224.0
105.954201 180.0
106.007477 72.0
106.061836 124.0
106.081253 140.0
106.095604 180.0
106.239159 164.0
106.259674 184.0
106.292542 180.0
106.332085 192.0
106.376648 148.0
106.427139 168.0
106.503952 240.0
106.594345 76.0
106.627228 156.0
106.649834 104.0
106.74646 108.0
106.8349 204.0
106.946014 160.0
106.963943 152.0
107.050613 508.0
107.08622 1272.0
107.180779 168.0
107.246674 172.0
107.281769 192.0
107.298256 156.0
107.318878 168.0
107.512772 196.0
107.527222 36.0
107.578819 56.0
107.670624 56.0
107.82048 132.0
107.882484 64.0
107.946579 92.0
108.056206 296.0
108.093964 184.0
108.232132 72.0
108.257431 164.0
108.292183 116.0
108.416489 64.0
108.439285 96.0
108.457939 172.0
108.495255 144.0
108.528419 208.0
108.557449 176.0
108.588562 140.0
108.773224 120.0
108.796059 176.0
108.839653 136.0
108.908188 208.0
108.970505 156.0
109.030762 348.0
109.065933 2636.0
109.101852 1212.0
109.132622 44.0
109.15757 156.0
109.172127 196.0
109.201241 120.0
109.257401 248.0
109.288612 136.0
109.326065 132.0
109.376015 136.0
109.45929 204.0
109.511353 196.0
109.567596 48.0
109.615517 136.0
109.630104 220.0
109.715561 96.0
109.740578 116.0
109.759346 192.0
109.832336 188.0
109.940651 148.0
109.987846 136.0
110.036842 128.0
110.069733 672.0
110.109222 144.0
110.130806 60.0
110.233177 112.0
110.254074 52.0
110.318863 216.0
110.456879 68.0
110.480751 164.0
110.500809 80.0
110.68499 208.0
110.699654 192.0
110.720596 220.0
110.758293 196.0
110.813133 112.0
110.875618 136.0
110.953613 192.0
111.081116 364.0
111.118973 340.0
111.177605 180.0
111.231369 188.0
111.272057 136.0
111.339249 272.0
111.356056 92.0
111.388817 180.0
111.423271 180.0
111.444283 124.0
111.55146 176.0
111.578789 128.0
111.633453 188.0
111.648178 188.0
111.728104 180.0
111.742828 164.0
111.780701 180.0
111.827003 80.0
111.894363 144.0
111.918976 188.0
112.05619 148.0
112.083038 152.0
112.134491 264.0
112.164001 196.0
112.193512 216.0
112.216705 144.0
112.286293 68.0
112.358009 204.0
112.395981 184.0
112.425529 124.0
112.469849 236.0
112.493065 140.0
112.552177 268.0
112.588081 200.0
112.616295 144.0
112.64299 72.0
112.70256 204.0
112.732285 184.0
112.83107 176.0
112.850098 124.0
112.934685 144.0
113.055275 180.0
113.093369 212.0
113.144173 188.0
113.24369 160.0
113.351105 188.0
113.371864 132.0
113.451347 188.0
113.640099 128.0
113.712242 128.0
113.737595 212.0
113.788658 132.0
113.80777 208.0
113.825645 172.0
113.848114 208.0
113.918205 172.0
113.960365 200.0
113.99044 288.0
114.043571 168.0
114.183891 148.0
114.232811 120.0
114.298767 124.0
114.324295 140.0
114.452019 232.0
114.505257 128.0
114.540581 136.0
114.639465 56.0
114.665405 164.0
114.7034 112.0
114.74955 148.0
114.81427 104.0
114.869728 128.0
115.091675 176.0
115.113029 52.0
115.145058 212.0
115.162148 140.0
115.181374 168.0
115.224091 164.0
115.286057 164.0
115.339485 152.0
115.38652 176.0
115.437836 164.0
115.551193 96.0
115.585426 244.0
115.627831 172.0
115.642609 184.0
115.713844 132.0
115.73954 196.0
115.812355 152.0
115.863762 120.0
115.96447 184.0
115.99205 148.0
116.052361 160.0
116.125275 176.0
116.206787 188.0
116.309792 88.0
116.354874 168.0
116.420868 76.0
116.450455 336.0
116.496605 272.0
116.533127 156.0
116.556763 160.0
116.580399 180.0
116.664223 248.0
116.683571 136.0
116.713669 168.0
116.728722 152.0
116.862083 236.0
116.879295 276.0
116.935242 140.0
116.993362 196.0
117.029961 148.0
117.088097 120.0
117.126869 228.0
117.153748 184.0
117.182877 80.0
117.35099 160.0
117.367081 224.0
117.404892 164.0
117.419991 192.0
117.527847 144.0
117.620644 116.0
117.760986 116.0
117.827133 232.0
117.849556 108.0
117.877647 160.0
117.899254 204.0
117.918709 404.0
117.933838 220.0
117.979668 176.0
118.070038 76.0
118.16954 212.0
118.219307 164.0
118.240952 136.0
118.453674 144.0
118.556763 140.0
118.593979 192.0
118.617821 140.0
118.669846 120.0
118.687195 120.0
118.713211 152.0
118.737068 192.0
118.760925 224.0
118.807533 140.0
118.891304 168.0
118.925018 152.0
118.929024 124.0
118.940208 192.0
118.969833 148.0
118.987686 144.0
118.996605 104.0
119.00145 176.0
119.017174 340.0
119.050842 43656.0
119.079704 192.0
119.112785 148.0
119.179901 124.0
119.203438 168.0
119.23394 124.0
119.237846 116.0
119.284424 204.0
119.301605 60.0
119.316818 40.0
119.334213 48.0
119.3619 60.0
119.392601 136.0
119.407021 280.0
119.42337 152.0
119.487923 160.0
119.508209 304.0
119.549805 156.0
119.566963 172.0
119.593079 152.0
119.640968 112.0
119.686691 144.0
119.73024 28.0
119.756378 76.0
119.780212 72.0
119.802551 60.0
119.823906 168.0
119.853493 248.0
119.87883 96.0
119.994774 188.0
120.053741 3456.0
120.106163 56.0
120.131287 160.0
120.146553 108.0
120.177643 48.0
120.223236 164.0
120.275299 176.0
120.323326 72.0
120.338608 244.0
120.366997 120.0
120.430328 44.0
120.471825 108.0
120.524261 164.0
120.557037 80.0
120.592003 152.0
120.616051 104.0
120.755028 248.0
120.790977 36.0
120.817772 48.0
120.87114 112.0
120.889427 116.0
120.917877 100.0
120.950706 56.0
120.998871 108.0
121.028946 92.0
121.056343 148.0
121.102959 2128.0
121.132454 136.0
121.152168 132.0
121.224464 200.0
121.261726 108.0
121.285835 168.0
121.304878 192.0
121.324455 116.0
121.345024 208.0
121.441505 184.0
121.489761 188.0
121.549004 44.0
121.660934 116.0
121.722404 144.0
121.770721 100.0
121.970657 292.0
121.988243 32.0
122.043694 180.0
122.102821 280.0
122.131172 44.0
122.15757 124.0
122.267578 196.0
122.309509 236.0
122.395256 136.0
122.471733 176.0
122.679459 368.0
122.694893 52.0
122.768494 176.0
122.809555 164.0
122.833817 96.0
122.891174 156.0
122.924271 168.0
122.95517 72.0
122.975029 96.0
123.001518 120.0
123.045319 400.0
123.116737 644.0
123.423477 160.0
123.450012 192.0
123.53627 148.0
123.702232 164.0
123.726585 160.0
123.770866 196.0
123.851196 176.0
123.877167 52.0
123.901535 80.0
124.050415 164.0
124.072632 196.0
124.120529 228.0
124.167526 172.0
124.222977 108.0
124.299568 196.0
124.369423 172.0
124.418259 56.0
124.462662 176.0
124.611473 132.0
124.638138 152.0
124.661613 172.0
124.684799 164.0
124.762596 60.0
124.77816 108.0
124.798164 132.0
124.887115 132.0
124.967201 100.0
125.058739 180.0
125.090919 112.0
125.118538 124.0
125.209831 76.0
125.312294 120.0
125.472763 156.0
125.519585 120.0
125.541885 36.0
125.582024 176.0
125.622177 168.0
125.68824 108.0
125.800697 124.0
125.820786 128.0
125.907867 136.0
125.965942 80.0
125.999451 108.0
126.140236 196.0
126.206459 200.0
126.263206 100.0
126.319122 144.0
126.337013 172.0
126.4048 228.0
126.423004 176.0
126.67952 140.0
126.766891 176.0
126.809471 216.0
126.941742 156.0
126.959854 156.0
126.995567 164.0
127.056129 136.0
127.094269 88.0
127.110947 220.0
127.177299 184.0
127.197502 196.0
127.237 148.0
127.347939 124.0
127.415329 124.0
127.467003 204.0
127.481171 100.0
127.565895 196.0
127.666969 176.0
127.761536 172.0
127.903297 160.0
128.007233 96.0
128.058655 220.0
128.088486 216.0
128.109909 128.0
128.135239 172.0
128.207352 128.0
128.304276 132.0
128.380936 144.0
128.475662 164.0
128.564972 116.0
128.662964 272.0
128.69458 80.0
128.728439 120.0
128.760056 80.0
128.84816 180.0
129.015778 260.0
129.101303 160.0
129.187256 104.0
129.24382 48.0
129.270966 176.0
129.302643 156.0
129.347916 144.0
129.366028 64.0
129.39093 136.0
129.406769 168.0
129.443008 28.0
129.460312 156.0
129.559082 208.0
129.67337 260.0
129.703537 172.0
129.731079 160.0
129.757935 144.0
129.925766 148.0
130.027878 136.0
130.043762 160.0
130.109589 60.0
130.136826 112.0
130.168625 176.0
130.19133 128.0
130.224442 76.0
130.295807 248.0
130.352615 196.0
130.418518 156.0
130.554932 140.0
130.62088 116.0
130.698227 172.0
130.761948 196.0
130.814301 88.0
130.841614 168.0
130.866669 128.0
130.891708 240.0
130.945816 152.0
131.080765 116.0
131.117233 180.0
131.142303 104.0
131.17421 120.0
131.197006 212.0
131.265411 140.0
131.361191 100.0
131.479843 144.0
131.559723 56.0
131.59169 100.0
131.685303 164.0
131.820099 32.0
131.890945 60.0
131.933655 192.0
131.975525 160.0
132.006439 144.0
132.026947 164.0
132.080719 208.0
132.096725 56.0
132.128754 180.0
132.156219 160.0
132.187393 80.0
132.247742 164.0
132.314133 100.0
132.408005 148.0
132.484344 208.0
132.570663 52.0
132.593582 76.0
132.680679 348.0
132.779282 156.0
132.891678 172.0
132.914627 144.0
132.990356 144.0
133.006424 124.0
133.070694 136.0
133.10141 364.0
133.119614 196.0
133.164841 232.0
133.231461 128.0
133.291199 92.0
133.339447 68.0
133.47049 160.0
133.516479 224.0
133.592377 64.0
133.74884 176.0
133.813309 164.0
133.852448 160.0
133.89389 168.0
133.956741 140.0
134.012756 192.0
134.061417 212.0
134.184235 112.0
134.287994 112.0
134.320282 100.0
134.368729 212.0
134.394104 44.0
134.467957 144.0
134.508469 172.0
134.555664 164.0
134.592606 180.0
134.62262 164.0
134.724136 152.0
134.807434 156.0
134.835159 144.0
134.941498 40.0
134.990051 56.0
135.045059 756.0
135.070999 216.0
135.117966 1816.0
135.179535 48.0
135.207504 120.0
135.232956 72.0
135.304718 140.0
135.355652 32.0
135.39502 52.0
135.415863 244.0
135.503708 152.0
135.580353 136.0
135.603531 116.0
135.680023 124.0
135.719437 36.0
135.872498 172.0
135.909622 208.0
135.945007 48.0
135.973785 192.0
136.009415 112.0
136.042908 176.0
136.076538 168.0
136.122086 648.0
136.162643 104.0
136.220718 148.0
136.244766 140.0
136.276474 100.0
136.39563 212.0
136.413589 100.0
136.436829 100.0
136.457764 64.0
136.495819 168.0
136.521271 128.0
136.531464 40.0
136.538544 156.0
136.557739 120.0
136.576355 136.0
136.594955 164.0
136.611252 340.0
136.627533 160.0
136.660095 124.0
136.685699 92.0
136.723755 176.0
136.77005 132.0
136.806519 144.0
136.820328 448.0
136.836365 152.0
136.870071 324.0
136.90094 192.0
136.921448 220.0
136.961517 324.0
136.988312 308.0
137.030304 704.0
137.061752 198504.0
137.13588 232.0
137.185684 164.0
137.20639 128.0
137.243851 156.0
137.250977 112.0
137.258698 252.0
137.288025 168.0
137.324936 104.0
137.336441 220.0
137.341492 232.0
137.419128 308.0
137.445328 3472.0
137.48053 180.0
137.498062 72.0
137.514542 164.0
137.534058 164.0
137.565491 48.0
137.586838 72.0
137.622284 96.0
137.65097 72.0
137.670609 184.0
137.693604 112.0
137.703018 100.0
137.730118 80.0
137.768448 108.0
137.809647 228.0
137.849548 68.0
137.876678 148.0
137.916016 196.0
137.945145 172.0
137.97081 52.0
137.99057 220.0
138.016754 488.0
138.064331 35336.0
138.110077 172.0
138.144135 68.0
138.162567 72.0
138.183624 104.0
138.215088 36.0
138.253815 52.0
138.279572 60.0
138.309845 128.0
138.339645 72.0
138.385666 220.0
138.407959 132.0
138.445389 48.0
138.470551 120.0
138.488815 80.0
138.514359 72.0
138.539474 80.0
138.573273 84.0
138.614441 144.0
138.649277 144.0
138.705063 156.0
138.728119 48.0
138.748032 72.0
138.772247 124.0
138.81105 144.0
138.817749 120.0
138.835175 100.0
138.86528 60.0
138.897614 112.0
138.91304 212.0
138.941483 124.0
138.946152 128.0
138.965622 184.0
138.98909 68.0
138.996475 52.0
139.028915 80.0
139.032364 364.0
139.065186 2532.0
139.111176 192.0
139.148972 84.0
139.160095 116.0
139.169968 124.0
139.189957 312.0
139.218597 116.0
139.26181 84.0
139.304428 124.0
139.336441 124.0
139.442841 60.0
139.488281 72.0
139.5298 60.0
139.579178 52.0
139.682663 80.0
139.748535 128.0
139.825684 132.0
139.910919 76.0
139.938263 72.0
139.986267 60.0
140.038071 64.0
140.068939 316.0
140.105209 120.0
140.166733 132.0
140.219482 88.0
140.264267 48.0
140.554352 40.0
140.674713 76.0
140.842361 84.0
140.903778 56.0
141.185059 44.0
141.416901 56.0
141.452408 36.0
141.478455 64.0
141.537643 76.0
141.795853 124.0
141.82666 100.0
142.016342 136.0
142.118347 100.0
142.267868 36.0
143.095184 40.0
143.498154 140.0
143.86998 88.0
143.984589 116.0
144.539185 88.0
144.871979 100.0
144.98938 136.0
145.092453 128.0
145.166779 72.0
145.38028 80.0
145.63475 72.0
145.73085 88.0
145.769287 88.0
145.863022 64.0
146.276749 72.0
146.341751 96.0
146.705536 104.0
146.912918 60.0
146.956345 132.0
147.04805 92.0
147.089081 48.0
147.108383 100.0
147.207382 88.0
147.560135 100.0
147.780228 112.0
147.835876 28.0
148.24028 76.0
148.324768 28.0
148.504532 64.0
148.58548 108.0
148.635529 44.0
148.727753 52.0
149.036163 140.0
149.060989 392.0
149.132309 864.0
149.213593 44.0
149.235474 124.0
149.264648 56.0
149.293823 32.0
149.325439 40.0
149.498169 104.0
149.600388 84.0
149.785461 56.0
149.990143 132.0
150.007202 88.0
150.055954 116.0
150.134155 208.0
150.343781 52.0
150.883575 152.0
150.9496 80.0
151.149445 380.0
151.240723 124.0
151.272552 128.0
151.541931 116.0
151.757614 36.0
151.8974 72.0
152.07019 660.0
152.277847 92.0
152.503876 52.0
152.562866 28.0
152.958908 76.0
153.078506 232.0
153.126343 96.0
153.690842 40.0
153.710587 180.0
153.831512 208.0
154.029068 144.0
154.087646 13140.0
154.325607 56.0
154.345398 44.0
154.476471 64.0
154.600174 88.0
154.627396 32.0
154.753647 96.0
154.902237 232.0
155.090546 1240.0
155.193207 224.0
155.236816 40.0
155.308746 44.0
155.49234 64.0
155.842468 72.0
156.018921 68.0
156.091736 144.0
156.135788 168.0
156.217865 68.0
156.461746 36.0
156.566315 64.0
156.825424 60.0
157.007416 56.0
157.182037 68.0
157.246918 96.0
157.336777 28.0
158.101624 76.0
159.116776 184.0
162.053131 196.0
162.551971 76.0
162.917572 84.0
163.039536 128.0
163.151474 228.0
164.149429 104.0
164.917847 64.0
165.054291 140.0
165.089142 168.0
165.162109 308.0
166.06488 208.0
166.098221 108.0
167.143829 148.0
167.584122 152.0
168.117874 132.0
168.135941 184.0
169.146515 64.0
170.157867 180.0
171.089752 184.0
172.624985 56.0
173.0672 152.0
173.130035 164.0
174.644363 100.0
175.152359 196.0
175.713852 80.0
175.901215 104.0
175.930252 100.0
177.163605 272.0
177.292404 52.0
178.077682 180.0
178.513519 80.0
179.181076 180.0
179.952362 108.0
180.067703 352.0
181.161163 188.0
181.447906 92.0
181.960327 112.0
184.371078 96.0
184.795609 196.0
186.599182 84.0
190.386353 88.0
190.630844 108.0
191.139542 228.0
191.181229 428.0
192.081757 132.0
193.684937 64.0
193.848389 96.0
197.268951 88.0
198.178482 168.0
200.001038 100.0
202.278915 80.0
202.324203 44.0
205.199127 156.0
205.692795 56.0
205.895508 68.0
206.538574 84.0
206.75029 128.0
208.051575 72.0
208.100372 192.0
209.37709 68.0
209.849655 104.0
209.869843 40.0
216.820343 76.0
217.022598 144.0
217.327637 60.0
218.202866 168.0
219.218323 124.0
222.11525 164.0
224.232208 168.0
226.84198 100.0
226.934921 44.0
230.592346 88.0
232.039246 72.0
235.135818 200.0
236.125977 200.0
236.780594 128.0
237.399628 40.0
238.24675 180.0
238.458771 64.0
240.269348 204.0
245.495728 88.0
247.239517 396.0
248.246063 208.0
250.145248 168.0
250.245987 140.0
250.809875 48.0
251.270264 132.0
254.006638 96.0
254.181122 64.0
254.825668 108.0
261.213043 108.0
261.647491 56.0
261.831024 96.0
262.475494 44.0
265.254974 460.0
266.251923 176.0
266.810791 76.0
268.246368 88.0
268.764923 76.0
270.110901 148.0
270.673798 104.0
272.638733 84.0
277.530731 88.0
280.656158 48.0
282.280762 576.0
282.717163 120.0
283.272949 48.0
283.74881 104.0
286.23175 84.0
291.597046 124.0
294.281311 128.0
294.786804 56.0
301.10788 96.0
301.474091 112.0
303.297974 148.0
308.292816 616.0
309.058044 160.0
309.304199 176.0
312.83783 128.0
325.240417 36.0
329.695557 44.0
334.854431 76.0
335.284302 112.0
339.946899 92.0
344.324036 112.0
345.107422 60.0
352.526703 60.0
353.308136 72.0
359.79837 52.0
364.27829 112.0
365.974426 68.0
369.198822 208.0
370.477203 44.0
372.325928 232.0
372.725433 100.0
373.117462 80.0
373.26358 88.0
374.059967 44.0
374.333313 148.0
376.033386 36.0
376.396271 80.0
376.77475 92.0
378.704987 40.0
381.277191 184.0
383.398132 52.0
385.45462 112.0
385.888489 60.0
388.320221 112.0
392.673981 44.0
393.344727 72.0
394.29657 120.0
401.298584 516.0
402.292145 176.0
403.286743 96.0
406.241821 88.0
414.843292 128.0
416.238953 112.0
416.328278 148.0
417.982727 84.0
418.328308 256.0
418.377502 100.0
419.283264 192.0
419.340088 232.0
420.281769 64.0
420.317505 180.0
420.350159 136.0
422.396973 112.0
425.872803 128.0
430.24173 80.0
430.270599 68.0
430.32428 120.0
430.658783 36.0
443.90567 56.0
454.67569 120.0
465.725098 116.0
474.058899 80.0
492.580811 96.0
504.476654 88.0
513.722839 84.0
513.781494 80.0
538.860657 92.0
543.662292 44.0
552.061462 40.0
564.769165 188.0
585.781738 104.0
590.961792 64.0
594.314575 64.0
613.318848 68.0
615.622803 92.0
630.576416 172.0
633.288147 124.0
649.51825 80.0
659.032959 52.0
668.421326 204.0
668.555115 204.0
671.135803 108.0
680.417542 160.0
684.905212 140.0
688.660583 44.0
693.61554 172.0
714.293701 152.0
716.939819 164.0
717.430176 148.0
724.489563 68.0
731.454285 104.0
736.420166 160.0
737.868347 156.0
738.127869 92.0
739.951233 116.0
741.364929 88.0
741.771423 132.0
741.890686 60.0
745.125122 160.0
757.316895 180.0
762.809326 204.0
764.602356 140.0
766.254272 104.0
766.496704 176.0
769.546814 152.0
773.72644 88.0
773.992188 132.0
777.406799 164.0
777.556641 64.0
777.656494 208.0
777.767517 84.0
779.24469 160.0
779.733643 92.0
780.951233 200.0
783.784241 204.0
786.707214 144.0
792.484314 204.0
794.216492 60.0
795.108582 140.0
796.922302 248.0
799.840942 208.0
802.573242 224.0
805.654724 140.0
808.283691 60.0
810.514648 208.0
810.80365 140.0
812.039551 184.0
813.162903 80.0
815.485779 132.0
816.05426 116.0
816.884521 156.0
817.658325 160.0
818.290161 32.0
819.736877 148.0
821.002441 128.0
825.639526 184.0
827.09845 136.0
828.919678 56.0
831.207581 176.0
832.659912 176.0
835.447632 100.0
838.280334 108.0
840.252197 180.0
840.327209 124.0
840.990845 212.0
842.157104 176.0
842.573608 120.0
842.902344 104.0
846.025513 212.0
850.442444 188.0
856.518494 144.0
857.066101 160.0
857.497314 52.0
862.306396 144.0
864.11908 200.0
865.687744 176.0
869.950195 196.0
870.572571 268.0
871.17749 180.0
873.346497 132.0
873.75238 240.0
876.007019 216.0
876.266235 172.0
878.500549 148.0
881.742065 180.0
881.795288 228.0
883.859131 132.0
883.930115 104.0
884.699524 140.0
884.776489 212.0
885.34491 100.0
886.00238 108.0
886.511902 196.0
886.784485 60.0
888.041443 28.0
889.133057 104.0
889.981934 200.0
890.379761 52.0
890.433228 148.0
892.108765 200.0
892.637939 108.0
893.167236 144.0
893.583618 224.0
894.744141 152.0
896.840942 60.0
896.984009 92.0
898.146729 148.0
899.507141 140.0
899.632507 248.0
900.635681 192.0
900.958252 152.0
901.023987 148.0
902.649658 56.0
903.804077 140.0
904.181091 172.0
904.606018 44.0
906.490784 132.0
906.606445 160.0
906.912109 408.0
907.858032 196.0
908.753113 144.0
909.215149 256.0
912.530884 64.0
913.775818 204.0
913.896118 224.0
915.997131 168.0
916.141724 160.0
917.051575 152.0
918.595154 176.0
919.584717 172.0
920.568726 220.0
922.580688 124.0
927.380737 64.0
927.96875 164.0
930.717224 132.0
931.111938 196.0
932.041382 176.0
932.460693 96.0
932.855774 152.0
934.351746 120.0
934.430847 108.0
934.540344 200.0
935.891541 160.0
937.38385 192.0
938.572449 92.0
939.24939 204.0
943.022705 48.0
943.578979 164.0
944.392212 188.0
946.270874 100.0
947.024048 156.0
949.677917 116.0
952.25293 216.0
954.40033 180.0
955.039856 148.0
957.828125 156.0
958.006775 148.0
959.565918 152.0
961.811401 204.0
963.033875 188.0
963.15741 132.0
965.079346 72.0
965.716309 132.0
966.316284 192.0
968.210388 192.0
968.718323 148.0
969.872498 220.0
971.042603 164.0
972.202759 152.0
972.302002 228.0
972.35791 168.0
974.817078 176.0
976.563965 124.0
977.161133 208.0
977.316711 228.0
978.299988 152.0
978.629944 180.0
979.389709 48.0
980.33667 116.0
981.63324 136.0
982.618713 184.0
983.323853 192.0
985.846863 116.0
987.878845 152.0
988.460693 124.0
988.767334 184.0
988.961304 136.0
989.656189 104.0
992.889526 152.0
993.516785 208.0
994.169312 192.0
994.31366 72.0
994.552124 196.0
995.274048 148.0
996.5177 160.0
996.856995 180.0
997.353455 96.0
999.447571 168.0
999.541992 168.0
1000.404236 136.0
1000.763062 72.0
1002.09198 184.0
1003.592041 232.0
1003.888367 136.0
1006.740723 120.0
1008.326355 148.0
1012.601746 148.0
1012.672791 100.0
1013.578674 180.0
1013.870178 160.0
1014.307495 128.0
1014.725891 196.0
1015.214111 172.0
1016.432007 196.0
1017.834839 80.0
1018.558777 136.0
1020.535217 160.0
1021.730835 180.0
1022.04895 116.0
1022.360779 288.0
1022.710815 88.0
1022.91449 164.0
1023.646606 132.0
1024.2771 180.0
1024.958862 180.0
1025.806396 248.0
1026.463135 140.0
1027.349609 188.0
1027.757935 252.0
1028.032349 188.0
1028.140747 236.0
1028.657715 124.0
1029.015259 168.0
1029.136597 256.0
1030.829224 200.0
1031.033691 176.0
1032.101196 184.0
1033.322876 132.0
1034.666748 208.0
1034.775635 32.0
1034.910034 200.0
1035.934814 184.0
1036.043701 128.0
1037.581665 244.0
1038.120361 256.0
1039.313354 184.0
1039.371094 180.0
1039.942261 48.0
1040.160522 136.0
1040.34668 168.0
1041.072144 52.0
1041.900757 212.0
1042.485474 216.0
1044.600708 184.0
1045.295532 156.0
1046.132202 140.0
1046.193115 160.0
1046.447632 128.0
1047.11084 132.0
1048.728027 172.0
1049.166382 164.0
1049.282349 164.0
1049.333984 60.0
1049.462891 208.0
1050.094849 120.0
1050.230469 172.0
1054.245972 88.0
1055.635742 240.0
1056.325195 148.0
1057.667236 148.0
1057.906738 168.0
1059.519165 164.0
1060.439331 172.0
1060.542969 188.0
1060.666138 180.0
1061.651611 184.0
1063.247559 36.0
1064.234131 148.0
1065.185303 160.0
1066.397339 148.0
1067.574097 168.0
1068.47168 148.0
1070.307007 148.0
1070.860596 84.0
1071.0625 176.0
1071.153687 240.0
1071.524902 188.0
1071.883301 224.0
1072.841431 200.0
1075.078491 240.0
1075.326538 208.0
1077.180908 64.0
1077.252686 32.0
1078.206665 180.0
1078.328003 184.0
1078.552979 132.0
1078.762207 104.0
1079.030273 176.0
1079.29834 208.0
1079.409424 40.0
1079.599121 172.0
1079.899902 188.0
1080.37085 208.0
1080.475586 116.0
1080.697998 128.0
1081.764771 144.0
1081.862915 128.0
1082.380127 168.0
1082.956421 148.0
1083.919434 156.0
1084.692749 48.0
1084.902466 176.0
1085.636841 172.0
1085.912231 188.0
1086.325562 116.0
1087.001221 136.0
1087.047241 256.0
1087.125977 176.0
1087.191528 48.0
1087.79541 148.0
1088.340332 52.0
1088.675171 64.0
1088.721191 156.0
1088.865601 144.0
1089.023193 140.0
1089.075806 156.0
1089.180908 132.0
1089.305664 60.0
1090.205811 76.0
1090.47522 160.0
1090.65271 148.0
1091.033936 168.0
1092.053101 128.0
1093.099121 160.0
1093.17395 208.0
1093.401855 204.0
1094.376099 60.0
1095.021362 168.0
1095.298096 240.0
1095.416626 176.0
1095.871216 160.0
1096.470825 180.0
1096.734497 148.0
1097.288208 128.0
1097.439819 140.0
1097.919434 92.0
1098.574097 196.0
1099.326294 188.0
1101.135132 176.0
1101.240845 136.0
1104.724243 212.0
1104.830078 132.0
1105.604126 128.0
1106.762573 104.0
1106.80896 96.0
1107.782471 68.0
1108.153442 188.0
1108.266113 76.0
1109.008301 176.0
1109.538574 148.0
1112.112305 68.0
1112.218506 164.0
1112.354492 260.0
1112.563354 144.0
1113.134644 164.0
1113.798828 144.0
1113.971558 188.0
1114.635864 176.0
1114.921753 140.0
1114.974731 172.0
1115.459961 128.0
1115.835815 204.0
1116.690063 120.0
1117.235474 132.0
1117.707886 148.0
1118.246826 144.0
1118.366699 124.0
1120.466553 152.0
1121.60376 148.0
1121.730347 224.0
1121.916992 60.0
1122.897217 164.0
1125.132446 104.0
1125.906982 144.0
1126.240967 96.0
1126.89563 168.0
1127.223022 208.0
1128.359253 148.0
1128.4729 112.0
1128.66687 128.0
1128.713623 92.0
1129.054688 124.0
1129.221924 148.0
1129.690063 228.0
1130.01123 148.0
1130.231934 236.0
1131.155518 136.0
1131.450073 248.0
1131.771484 160.0
1132.762573 176.0
1133.017212 200.0
1133.09082 136.0
1133.177979 172.0
1133.251587 196.0
1133.801147 112.0
1135.316162 120.0
1135.8125 144.0
1137.261719 132.0
1138.10083 140.0
1138.463501 180.0
1138.759033 156.0
1139.793457 152.0
1139.981689 212.0
1140.176514 128.0
1140.237061 156.0
1140.470825 196.0
1141.393311 192.0
1141.837036 128.0
1142.68457 72.0
1143.323853 148.0
1143.45166 144.0
1143.640137 196.0
1144.474854 96.0
1144.784668 132.0
1145.23584 244.0
1145.505249 128.0
1146.172241 156.0
1146.657471 176.0
1146.745117 92.0
1146.940552 104.0
1148.039429 140.0
1148.100098 52.0
1148.238647 164.0
1148.484619 144.0
1149.172607 168.0
1149.746216 184.0
1150.414429 156.0
1151.143555 204.0
1151.21106 100.0
1151.947266 204.0
1152.19043 224.0
1152.244507 96.0
1152.717529 156.0
1152.974243 100.0
1153.122925 156.0
1153.298706 220.0
1154.184326 212.0
1154.285645 100.0
1154.495361 168.0
1154.644043 148.0
1155.009277 112.0
1155.631714 256.0
1156.03772 156.0
1157.080078 184.0
1157.520142 140.0
1158.06189 136.0
1158.671509 172.0
1159.315186 168.0
1159.362671 156.0
1159.532104 212.0
1159.701538 120.0
1159.803223 168.0
1159.904785 200.0
1160.42688 152.0
1161.315186 148.0
1161.518677 164.0
1162.339478 120.0
1163.119995 204.0
1163.710571 68.0
1164.518677 100.0
1165.721069 248.0
1165.816284 120.0
1166.604614 240.0
1167.461304 76.0
1167.814941 120.0
1168.325195 192.0
1169.856323 56.0
1169.924316 180.0
1170.087769 156.0
1170.27832 200.0
1170.543091 164.0
1170.64856 200.0
1170.956543 240.0
1171.109131 156.0
1171.163696 140.0
1171.272583 172.0
1171.697754 144.0
1172.090088 96.0
1172.901123 152.0
1173.139648 44.0
1173.316895 152.0
1173.405518 64.0
1173.453247 48.0
1173.514648 132.0
1173.739624 200.0
1173.964722 212.0
1174.162476 120.0
1174.217041 48.0
1174.687622 140.0
1175.042358 136.0
1175.262085 188.0
1177.376709 156.0
1178.484253 128.0
1178.69519 176.0
1179.993774 204.0
1180.280884 212.0
1181.286255 212.0
1181.888306 184.0
1182.586304 160.0
1182.846436 228.0
1183.092896 208.0
1183.414673 160.0
1183.476196 192.0
1183.880249 160.0
1184.71582 32.0
1185.092651 68.0
1185.209106 204.0
1185.380371 184.0
1185.56543 168.0
1187.06665 152.0
1187.279297 64.0
1187.629028 168.0
1187.827393 156.0
1189.618896 204.0
1190.477173 176.0
1190.614502 112.0
1190.985352 156.0
1192.146484 208.0
1193.246216 172.0
1193.349243 156.0
1194.016357 288.0
1194.133179 192.0
1194.435791 212.0
1194.573364 216.0
1194.862305 192.0
1194.972412 120.0
1195.666992 212.0
1195.931763 256.0
1195.984009 112.0
1198.283936 116.0
1198.552734 208.0
1199.213501 176.0
1199.634766 112.0
1199.924194 68.0
1201.578247 172.0
1201.717407 132.0
1202.01416 104.0
1203.795044 244.0
1203.933105 272.0
1204.361328 120.0
1204.685913 160.0
1205.273193 180.0
1205.535767 184.0
1206.019531 184.0
1206.074829 36.0
1206.351318 180.0
1207.068848 216.0
1207.312378 152.0
1207.782715 184.0
1208.578247 180.0
1209.214844 188.0
1210.170166 136.0
1210.488647 184.0
1210.751831 120.0
1211.479126 72.0
1211.74231 116.0
1211.873901 160.0
1212.213501 108.0
1212.268921 116.0
1212.324341 172.0
1212.442139 60.0
1212.788696 280.0
1213.072876 116.0
1213.12146 156.0
1213.599731 180.0
1214.244629 36.0
1214.355591 196.0
1214.459595 204.0
1214.508179 160.0
1214.709351 52.0
1215.777832 140.0
1215.881958 176.0
1216.199341 164.0
1216.943481 192.0
1217.256348 196.0
1217.69397 140.0
1218.035156 176.0
1218.339844 56.0
1218.569092 216.0
1219.298706 124.0
1219.51416 192.0
1219.569824 132.0
1219.986816 132.0
1220.04248 168.0
1220.139771 68.0
1220.251099 192.0
1220.327515 160.0
1220.862915 188.0
1221.029785 80.0
1221.42627 180.0
1221.76709 108.0
1222.344604 100.0
1222.539429 192.0
1222.643799 168.0
1222.734253 168.0
1222.782959 196.0
1222.866577 180.0
1223.005737 192.0
1223.089233 192.0
1223.346802 140.0
1223.486084 108.0
1224.175293 244.0
1224.395874 156.0
1224.481689 180.0
1224.641968 176.0
1224.795166 204.0
1224.920532 68.0
1225.252686 208.0
1225.714722 180.0
1225.875 160.0
1226.744141 92.0
1226.997192 100.0
1227.185425 148.0
1227.276001 172.0
1227.610718 144.0
1227.701416 164.0
1228.656982 160.0
1229.33374 136.0
1229.954956 188.0
1230.913208 164.0
1231.030029 152.0
1231.33728 64.0
1231.477051 144.0
1231.609741 164.0
1232.48999 204.0
1233.160767 164.0
1234.698853 164.0
1234.873657 160.0
1234.922607 132.0
1234.97168 136.0
1235.055542 144.0
1235.937012 244.0
1236.80481 108.0
1236.881714 172.0
1237.896973 132.0
1238.282104 140.0
1238.450195 120.0
1239.669189 244.0
1239.767334 192.0
1240.696533 196.0
1240.776611 168.0
1241.456665 196.0
1242.094971 164.0
1243.666626 84.0
1244.354614 136.0
1244.502075 164.0
1245.091919 176.0
1245.295532 184.0
1245.738037 200.0
1246.834106 196.0
1247.06604 192.0
1247.160156 156.0
1247.677612 280.0
1247.776001 160.0
1247.895508 220.0
1248.359009 188.0
1248.697144 144.0
1249.224731 164.0
1249.667847 92.0
1249.914185 180.0
1251.645752 212.0
1251.828735 124.0
1251.948486 124.0
1252.15979 192.0
1252.518921 168.0
1252.807739 156.0
1253.019165 148.0
1253.279785 248.0
1253.3573 160.0
1253.484131 148.0
1253.695557 152.0
1254.005615 180.0
1254.104248 164.0
1254.900879 56.0
1255.091187 160.0
1255.584839 48.0
1255.70874 224.0
1255.796387 184.0
1255.933716 156.0
1256.036255 144.0
1256.21582 192.0
1256.685181 132.0
1256.903931 204.0
1256.967529 148.0
1257.073364 196.0
1257.489624 148.0
1257.694336 112.0
1257.932373 212.0
1258.040283 168.0
1258.569702 120.0
1258.823975 184.0
1258.894531 156.0
1259.840942 124.0
1260.229492 260.0
1261.070435 52.0
1262.02478 208.0
1262.187378 172.0
1262.703613 60.0
1263.51001 172.0
1263.849609 208.0
1263.962769 136.0
1264.249268 140.0
1264.953613 168.0
1265.173096 140.0
1266.738037 224.0
1267.141846 208.0
1267.212646 188.0
1267.588257 212.0
1268.077148 172.0
1268.452881 224.0
1268.970337 180.0
1269.322021 152.0
1270.757568 152.0
1270.899536 212.0
1271.013062 192.0
1271.225952 112.0
1271.616211 184.0
1271.978149 88.0
1272.134399 224.0
1272.581665 132.0
1272.886963 136.0
1272.993408 212.0
1273.320068 288.0
1273.455078 140.0
1273.796021 136.0
1273.966431 152.0
1275.7146 172.0
1275.991821 152.0
1276.22644 176.0
1276.681519 148.0
1276.845093 172.0
1277.093994 108.0
1277.314575 184.0
1277.392822 68.0
1277.848022 256.0
1278.431519 100.0
1279.029297 148.0
1279.185913 188.0
1279.54187 192.0
1279.691406 152.0
1279.869385 120.0
1279.976196 168.0
1280.132812 180.0
1280.343384 276.0
1280.432007 120.0
1281.122803 148.0
1283.104004 188.0
1283.53894 168.0
1283.745728 168.0
1283.802734 144.0
1284.07373 160.0
1284.694336 76.0
1284.836914 148.0
1285.001099 112.0
1285.564697 140.0
1285.814453 160.0
1286.085693 92.0
1286.813843 148.0
1286.86377 124.0
1287.313599 180.0
1287.613647 188.0
1287.834961 384.0
1288.049316 152.0
1288.242188 120.0
1288.692261 316.0
1288.985107 144.0
1289.035156 188.0
1289.11377 72.0
1289.371094 160.0
1289.521118 140.0
1290.564819 40.0
1290.621948 220.0
1291.208374 72.0
1291.286987 80.0
1291.344238 180.0
1291.880737 156.0
1291.966553 88.0
1292.603271 180.0
1292.717773 172.0
1292.846558 124.0
1292.932495 156.0
1293.390503 68.0
1293.741333 208.0
1293.913086 68.0
1293.999023 196.0
1294.442871 84.0
1294.886963 200.0
1295.244995 172.0
1295.467041 216.0
1296.133423 184.0
1297.00769 144.0
1297.308716 76.0
1297.41626 292.0
1298.040039 140.0
1298.140381 144.0
1298.255127 156.0
1298.384277 128.0
1298.83606 156.0
1299.144531 180.0
1299.481689 168.0
1299.926636 180.0
1300.500732 132.0
1300.909912 172.0
1300.981689 80.0
1301.139526 84.0
1301.771362 172.0
1301.907837 200.0
1301.980957 276.0
1302.690674 136.0
1302.956543 120.0
1303.265503 164.0
1303.358887 332.0
1303.840332 144.0
1304.055908 128.0
1304.465576 92.0
1304.781982 192.0
1305.07666 148.0
1305.206177 144.0
1305.393066 148.0
1306.155396 160.0
1306.349609 120.0
1307.011475 136.0
1307.195068 152.0
1307.896729 156.0
1308.465332 160.0
1308.587769 172.0
1308.652588 128.0
1308.983765 180.0
1309.243042 140.0
1309.415894 216.0
1309.588745 184.0
1309.847046 164.0
1310.04248 128.0
1310.172119 176.0
1310.510742 160.0
1310.640503 140.0
1310.885376 68.0
1311.598877 176.0
1311.707031 128.0
1311.92334 144.0
1312.038696 136.0
1312.224243 216.0
1312.557739 80.0
1312.96875 224.0
1313.217163 188.0
1313.560181 112.0
1313.80542 232.0
1313.956909 212.0
1314.815674 156.0
1315.053833 84.0
1315.270264 164.0
1315.537354 152.0
1315.775635 124.0
1315.977783 196.0
1316.216064 200.0
1316.569824 128.0
1316.873169 148.0
1317.154907 120.0
1317.241577 168.0
1317.400513 68.0
1317.718384 132.0
1318.029053 92.0
1318.33252 220.0
1318.968506 152.0
1319.087158 172.0
1319.153564 180.0
1319.872192 224.0
1320.132446 208.0
1320.194946 236.0
1320.65918 160.0
1321.311401 140.0
1321.485107 160.0
1321.593628 168.0
1321.919189 156.0
1322.599487 148.0
1322.983154 136.0
1323.287231 164.0
1324.05481 208.0
1324.402466 156.0
1324.525513 200.0
1324.829834 156.0
1324.981934 68.0
1325.119507 112.0
1325.220947 168.0
1325.489136 160.0
1326.380493 188.0
1326.685303 160.0
1327.533203 204.0
1328.091675 52.0
1328.621216 172.0
1328.846069 144.0
1329.695068 144.0
1330.479004 168.0
1330.696777 148.0
1331.401123 192.0
1331.938599 224.0
1332.098389 204.0
1332.39917 128.0
1333.40625 148.0
1334.016724 152.0
1336.220215 168.0
1336.482178 184.0
1336.693237 172.0
1336.93335 204.0
1337.04248 100.0
1337.508301 136.0
1338.681396 148.0
1338.906128 68.0
1339.175659 140.0
1339.292114 180.0
1339.408691 164.0
1339.525269 188.0
1339.59082 48.0
1340.188232 164.0
1340.588989 168.0
1340.785767 88.0
1340.931519 56.0
1341.733276 108.0
1341.959229 192.0
1342.433228 120.0
1342.980225 148.0
1343.11145 176.0
1344.224854 124.0
1344.74585 240.0
1344.825073 196.0
1345.045044 192.0
1345.410034 196.0
1345.526855 180.0
1345.578003 224.0
1345.782349 108.0
1345.891968 264.0
1346.198608 184.0
1346.928955 172.0
1347.630249 152.0
1348.090576 132.0
1348.28064 112.0
1348.353638 160.0
1348.748291 124.0
1349.720581 164.0
1350.400757 132.0
1350.671387 208.0
1351.366333 292.0
1351.615112 224.0
1351.973633 240.0
1352.178589 128.0
1352.332275 36.0
1352.55188 124.0
1352.603027 160.0
1353.55481 160.0
1353.796387 156.0
1354.367676 336.0
1354.814575 184.0
1355.320068 176.0
1356.16272 132.0
1356.441284 156.0
1356.7052 32.0
1356.881104 60.0
1356.947144 120.0
1357.313721 168.0
1357.533691 232.0
1357.585083 176.0
1357.878418 152.0
1357.95874 184.0
1358.20105 164.0
1358.33313 36.0
1359.088745 152.0
1359.587769 156.0
1359.646484 156.0
1359.895996 136.0
1359.976685 120.0
1360.729736 256.0
1361.070557 228.0
1361.129272 160.0
1361.591919 76.0
1362.899414 128.0
1362.987671 176.0
1363.208008 156.0
1363.803345 64.0
1363.994385 152.0
1364.398804 96.0
1365.178101 136.0
1365.545776 120.0
1365.744385 184.0
1365.928345 152.0
1366.016602 216.0
1366.171021 32.0
1366.222534 52.0
1366.47998 140.0
1366.671265 200.0
1366.877319 188.0
1367.024536 152.0
1367.105469 120.0
1367.213989 172.0
1367.340942 144.0
1368.222534 224.0
1368.422974 212.0
1368.945801 96.0
1369.03125 196.0
1370.013794 208.0
1370.669434 180.0
1371.052612 164.0
1371.281128 44.0
1371.518311 192.0
1372.12146 88.0
1372.817505 120.0
1373.478271 168.0
1373.618408 160.0
1374.016724 192.0
1374.487305 160.0
1374.547974 144.0
1375.758423 156.0
1376.156982 184.0
1376.36377 220.0
1376.696045 144.0
1376.784668 88.0
1377.161377 152.0
1377.442017 64.0
1377.619263 136.0
1377.715332 96.0
1378.114258 188.0
1378.291626 232.0
1378.705444 144.0
1378.964111 160.0
1379.089722 236.0
1379.562744 168.0
1379.703247 140.0
1380.390869 168.0
1380.602661 192.0
1380.701416 156.0
1381.648193 164.0
1381.825806 192.0
1382.980103 120.0
1383.846191 108.0
1383.935059 188.0
1384.223877 216.0
1384.668213 104.0
1384.724854 224.0
1385.291382 180.0
1385.497803 180.0
1385.623657 128.0
1386.972412 144.0
1387.832275 168.0
1387.899048 52.0
1388.291992 136.0
1389.078247 84.0
1389.263672 228.0
1390.272705 236.0
1390.391479 124.0
1390.614136 196.0
1390.992676 152.0
1391.141113 108.0
1391.230225 104.0
1391.519775 140.0
1391.644897 116.0
1391.947388 160.0
1392.433105 192.0
1393.398682 140.0
1393.495239 148.0
1393.562134 52.0
1393.747925 176.0
1394.411133 172.0
1394.840332 180.0
1395.085693 184.0
1395.405273 148.0
1395.487061 128.0
1396.000122 160.0
1396.178589 148.0
1396.305054 124.0
1396.447754 172.0
1396.702271 184.0
1396.937256 40.0
1397.079712 156.0
1397.175293 88.0
1397.31665 132.0
1397.405884 108.0
1397.554688 148.0
1397.86731 268.0
1397.963989 160.0
1398.17981 196.0
1398.8125 200.0
1398.96875 160.0
1400.04834 204.0
1400.458008 196.0
1400.621826 208.0
1401.128418 200.0
1402.290771 256.0
1402.350464 168.0
1403.140625 172.0
1403.452148 236.0
1404.564819 200.0
1404.751343 164.0
1404.88562 52.0
1405.131836 192.0
1405.579468 176.0
1406.44519 140.0
1406.743774 216.0
1406.796021 188.0
1407.318604 120.0
1407.654541 264.0
1407.878662 200.0
1408.027954 112.0
1408.207153 220.0
1408.438721 72.0
1408.655396 72.0
1410.067505 144.0
1410.545898 148.0
1410.808716 172.0
1411.061646 96.0
1411.253052 240.0
1412.280518 152.0
1412.400269 200.0
1412.545166 160.0
1412.781738 124.0
1413.30542 240.0
1413.537354 120.0
1413.604736 144.0
1413.731934 136.0
1413.859131 192.0
1415.36377 148.0
1415.416138 180.0
1415.565918 180.0
1416.262451 160.0
1416.621948 156.0
1417.063965 176.0
1417.303711 136.0
1418.405396 120.0
1418.667725 228.0
1418.910034 188.0
1418.960083 144.0
1419.065063 60.0
1419.308838 296.0
1419.619873 120.0
1419.837402 216.0
1420.144897 132.0
1420.932495 176.0
1421.025757 184.0
1421.217651 120.0
1421.285156 128.0
1421.532715 180.0
1421.705322 264.0
1422.193115 136.0
1422.463379 68.0
1422.568481 188.0
1422.763672 152.0
1422.966309 224.0
1423.634644 156.0
1423.897461 160.0
1424.158936 200.0
1424.498291 156.0
1424.753784 180.0
1425.016724 180.0
1425.121826 220.0
1425.279663 36.0
1425.542603 84.0
1425.655396 184.0
1425.966675 220.0
1426.196533 124.0
1426.338379 228.0
1427.286499 108.0
1427.71521 116.0
1427.865601 28.0
1427.933228 156.0
1428.745605 120.0
1428.987793 208.0
1429.242188 292.0
1429.467896 184.0
1429.671021 172.0
1430.205444 168.0
1431.203369 100.0
1431.281982 136.0
1431.334717 160.0
1431.590698 288.0
1432.230835 136.0
1432.524658 228.0
1432.682861 124.0
1432.795776 172.0
1433.237061 280.0
1433.36084 208.0
1433.545776 224.0
1433.692383 52.0
1433.873291 156.0
1434.393311 188.0
1434.62793 160.0
1434.97229 156.0
1435.177368 132.0
1436.392944 152.0
1436.708374 80.0
1437.247925 204.0
1437.462891 144.0
1438.391113 148.0
1439.432251 192.0
1439.583984 228.0
1439.726196 168.0
1439.96167 52.0
1440.218384 60.0
1440.39209 184.0
1440.606201 212.0
1440.679199 148.0
1440.822754 192.0
1440.951172 164.0
1441.11731 152.0
1441.359131 64.0
1441.464966 152.0
1441.570679 112.0
1441.820068 188.0
1442.06189 184.0
1442.243286 176.0
1442.326538 56.0
1442.583496 144.0
1442.636353 108.0
1442.863159 168.0
1442.953857 152.0
1443.006836 188.0
1443.710083 180.0
1444.428589 44.0
1444.967529 224.0
1445.321289 148.0
1445.570923 84.0
1445.805542 144.0
1446.335327 200.0
1446.452759 184.0
1446.55481 160.0
1446.73645 216.0
1447.213501 180.0
1447.320557 212.0
1447.811646 124.0
1447.98584 164.0
1448.084351 200.0
1448.273682 176.0
1448.978149 236.0
1449.053833 144.0
1449.288696 48.0
1449.470581 152.0
1449.561523 148.0
1450.463379 188.0
1450.546753 204.0
1450.766602 196.0
1450.93335 140.0
1451.206299 196.0
1451.350342 148.0
1452.154175 148.0
1452.449951 116.0
1452.738281 200.0
1453.307251 156.0
1453.679077 116.0
1453.785278 220.0
1454.265259 180.0
1454.445557 176.0
1454.620117 168.0
1454.756714 200.0
1454.901001 180.0
1455.09082 132.0
1455.546387 156.0
1456.001953 168.0
1456.260132 208.0
1456.366577 148.0
1456.685547 124.0
1456.73877 164.0
1456.996948 188.0
1457.156494 52.0
1458.102417 180.0
1458.638428 124.0
1458.942505 172.0
1459.178101 112.0
1459.375854 28.0
1459.505005 212.0
1459.573486 112.0
1459.84729 144.0
1459.937744 224.0
1459.959351 204.0
1460.044922 256.0
1460.410034 148.0
1460.539307 96.0
1461.147827 120.0
1461.261963 164.0
1461.573975 120.0
1461.870728 124.0
1461.984863 136.0
1462.144653 112.0
1462.547974 208.0
1462.715454 36.0
1463.625 144.0
1463.811768 48.0
1463.918335 140.0
1464.017334 180.0
1464.083984 172.0
1465.457031 236.0
1465.548462 136.0
1465.744873 128.0
1465.952271 228.0
1466.386719 44.0
1466.523804 152.0
1466.706787 172.0
1466.760132 152.0
1467.240356 192.0
1467.453857 200.0
1467.618286 212.0
1467.880859 212.0
1468.338379 172.0
1469.185059 216.0
1469.246094 176.0
1469.490234 132.0
1469.642822 96.0
1469.869873 164.0
1470.215088 172.0
1470.665405 124.0
1470.734009 212.0
1470.848511 188.0
1471.214966 116.0
1471.327271 204.0
1471.505005 156.0
1471.848633 108.0
1471.909668 168.0
1472.070068 216.0
1472.444214 168.0
1472.646606 192.0
1473.185181 132.0
1473.276855 128.0
1473.597656 156.0
1473.781006 220.0
1473.994995 124.0
1474.315918 148.0
1474.369385 112.0
1474.537598 136.0
1474.606323 100.0
1474.843262 212.0
1474.987915 148.0
1475.416626 144.0
1475.526978 212.0
1476.252808 196.0
1476.467041 248.0
1476.647705 148.0
1477.098877 132.0
1477.244263 60.0
1477.519653 48.0
1477.726196 156.0
1477.894531 156.0
1478.476074 184.0
1479.333374 144.0
1480.014648 152.0
1480.711548 140.0
1480.82666 132.0
1480.926025 140.0
1481.3396 132.0
1481.400879 176.0
1481.515747 128.0
1481.57251 156.0
1481.722656 152.0
1481.799194 128.0
1481.868164 196.0
1482.082764 132.0
1482.304932 196.0
1482.396851 212.0
1482.50415 192.0
1482.71106 272.0
1482.810669 164.0
1482.925659 124.0
1483.370239 176.0
1484.136841 176.0
1484.313232 220.0
1484.727295 132.0
1485.266357 200.0
1485.402222 180.0
1485.593994 80.0
1485.724365 208.0
1485.923828 152.0
1486.292114 152.0
1486.368896 216.0
1486.683472 148.0
1487.688965 148.0
1488.095825 80.0
1488.226318 204.0
1488.487427 40.0
1488.640991 204.0
1488.786865 204.0
1488.971191 40.0
1489.2323 72.0
1489.385986 40.0
1489.462769 64.0
1489.52417 152.0
1490.054199 192.0
1490.296387 208.0
1490.392334 84.0
1490.645874 148.0
1490.937866 220.0
1491.091553 180.0
1491.191528 128.0
1491.283691 160.0
1491.399048 196.0
1491.460449 136.0
1491.69104 108.0
1491.814087 172.0
1492.050049 184.0
1492.252319 172.0
1492.313843 96.0
1492.398315 176.0
1492.513672 152.0
1492.605957 176.0
1492.828979 208.0
1493.436523 140.0
1493.86731 176.0
1493.967285 80.0
1494.074951 160.0
1495.044434 180.0
1495.118042 172.0
1496.075806 204.0
1496.206665 148.0
1496.522339 224.0
1496.93042 128.0
1496.992065 128.0
1497.18457 52.0
1497.638916 196.0
1498.124268 44.0
1498.415405 216.0
1498.555664 140.0
1498.82666 160.0
1499.07959 168.0
1499.171997 176.0
1499.264526 184.0
1499.541992 152.0
1499.910645 220.0
1500.428467 192.0
1500.621094 176.0
1500.698242 140.0
1501.045166 140.0
1501.46167 240.0
1502.171265 188.0
1502.317749 244.0
1502.387207 160.0
1503.058472 164.0
1504.084839 196.0
1504.524902 116.0
1504.856812 80.0
