>compound Exemestane
>formula C20H24O2
>ionization [M+H]+
>parentmass 297.185394
#inchi InChI=1S/C20H24O2/c1-12-10-14-15-4-5-18(22)20(15,3)9-7-16(14)19(2)8-6-13(21)11-17(12)19/h6,8,11,14-16H,1,4-5,7,9-10H2,2-3H3/t14-,15-,16+,19+,20+/m0/s1
#inchikey BFYIZQONLCFLEV
#Ion_Source LC-ESI
#Instrument qTof
#Compound_Source Commercial
#PI Dorrestein
#Data_Collector Garg_Neha
#Scan -1
#Precursor_MZ 297.185
#ExactMass 296.178
#Charge 1
#CAS_Number 107868-30-4
#Pubmed_ID N/A
#Smiles C1(C=C[C@@]2([C@@]3(CC[C@]4(C(CC[C@@]([C@](CC(C(=C1)2)=C)3[H])4[H])=O)C)[H])C)=O
#INCHI_AUX N/A
#Library_Class 1
#SpectrumID CCMSLIB00000078039
#IonMode Positive
#UpdateWorkflowName UPDATE-SINGLE-ANNOTATED-GOLD
#LibraryQualityString Gold
#TaskID 77f51c88eb8b467eb4a01dd2d0cb90d2
##Scan# 1555
#SpectrumFile Plate1_21_40_GG2_01_16489.mzXML
#LibraryName FDALibrary_2_04302014.mgf
#MQScore -1
#Organism FDALibrary_2_04302014
#TIC_Query 0
#RT_Query -1
#MZErrorPPM -1
#SharedPeaks 0
#MassDiff 0
#LibMZ -1
#SpecMZ 297.185
#SpecCharge 0
#internalFilename spec-00000.mgf

>collision 10
45.177212 152.0
45.666832 148.0
45.696426 224.0
45.793354 164.0
46.134754 216.0
46.662148 224.0
46.914017 156.0
47.375938 192.0
47.750679 156.0
47.965481 184.0
48.039948 212.0
48.306568 144.0
48.548962 168.0
48.818378 172.0
49.223907 208.0
49.875393 160.0
49.895073 164.0
50.096325 140.0
50.262695 152.0
50.45055 184.0
50.5439 188.0
50.708294 196.0
51.031845 192.0
51.795372 152.0
51.836922 192.0
51.978889 208.0
52.46793 232.0
52.661301 180.0
52.759563 156.0
52.814514 148.0
53.259518 148.0
53.365604 260.0
53.385963 236.0
53.458702 144.0
53.500916 160.0
54.289959 184.0
54.608665 184.0
54.667515 164.0
54.680759 140.0
54.705784 220.0
54.829514 252.0
54.912079 160.0
55.927048 176.0
56.350578 236.0
56.37299 156.0
56.58839 180.0
56.837212 148.0
57.226521 184.0
57.288269 152.0
57.328953 208.0
57.344021 152.0
57.473717 204.0
58.006088 180.0
58.728378 232.0
58.957397 140.0
59.637909 196.0
60.343967 228.0
60.690804 188.0
61.052628 148.0
61.071365 172.0
61.274483 172.0
61.491982 188.0
61.893761 144.0
61.925079 140.0
62.147694 164.0
62.42416 156.0
62.572067 212.0
62.606213 200.0
62.753258 176.0
62.899979 152.0
62.98999 140.0
63.596462 184.0
63.620274 204.0
63.672672 188.0
63.863403 220.0
64.97686 172.0
65.413155 200.0
65.838058 156.0
66.182503 172.0
66.490509 204.0
66.890366 144.0
67.507111 148.0
67.66256 192.0
68.103691 164.0
68.399666 160.0
69.0961 140.0
69.484322 200.0
70.349205 432.0
70.407646 176.0
70.865997 140.0
71.756821 192.0
71.942398 164.0
71.97448 212.0
72.676949 200.0
73.628563 172.0
74.160675 208.0
74.503876 204.0
75.235817 156.0
75.690552 140.0
77.331032 184.0
77.524948 152.0
77.809105 152.0
78.141289 204.0
78.670013 240.0
78.80954 232.0
79.278481 240.0
79.473541 184.0
79.517906 164.0
80.167053 176.0
80.513153 148.0
80.561386 192.0
81.012207 168.0
81.717781 180.0
83.009315 164.0
83.112709 200.0
83.716232 204.0
83.770874 224.0
85.639336 152.0
86.150307 200.0
86.325905 204.0
86.379539 168.0
86.488716 140.0
86.775864 244.0
88.480659 160.0
88.566811 172.0
88.61364 200.0
89.082672 144.0
89.144676 164.0
90.160461 180.0
90.538841 188.0
91.055046 852.0
91.530144 264.0
91.551094 216.0
92.059563 224.0
92.107079 128.0
92.234154 224.0
92.509621 228.0
93.036819 140.0
93.069984 1080.0
93.096344 188.0
93.548195 216.0
94.001144 220.0
94.018509 156.0
94.073448 192.0
94.394432 176.0
94.509354 144.0
94.710693 184.0
94.770752 140.0
95.048035 196.0
95.233223 124.0
95.277153 144.0
95.76931 176.0
96.106583 160.0
97.031738 200.0
97.067154 312.0
97.728592 168.0
98.136726 192.0
98.330055 252.0
98.36953 148.0
98.557159 140.0
98.758812 196.0
98.820137 152.0
98.841904 196.0
99.823845 160.0
99.955139 220.0
101.146652 188.0
102.041405 140.0
102.075592 204.0
102.940102 192.0
103.053093 532.0
103.188637 156.0
103.30999 204.0
103.362595 144.0
103.688644 220.0
103.784081 156.0
104.220329 176.0
104.237579 196.0
104.665802 188.0
104.820618 172.0
104.867493 212.0
104.883797 192.0
105.069672 3288.0
105.222443 184.0
105.332726 184.0
105.430801 200.0
106.403793 156.0
106.617424 176.0
107.050842 180.0
107.085159 1692.0
107.416328 168.0
107.542198 232.0
108.093117 344.0
108.385986 148.0
108.753067 224.0
108.962807 168.0
109.010605 172.0
109.06218 284.0
109.466187 180.0
110.025215 188.0
110.252678 140.0
110.834442 144.0
110.859589 152.0
111.079552 196.0
111.186752 168.0
112.183784 180.0
112.922844 216.0
113.070953 236.0
113.492516 152.0
113.543411 240.0
114.035233 168.0
114.272041 152.0
114.538155 244.0
115.470924 212.0
117.050446 220.0
117.07093 348.0
117.896095 164.0
118.239967 164.0
118.597351 144.0
118.80336 268.0
119.085304 1780.0
119.635712 156.0
119.788147 192.0
119.938507 144.0
120.087486 136.0
120.807632 256.0
121.019928 176.0
121.065063 5112.0
121.1017 8720.0
121.247314 144.0
121.278442 164.0
121.989662 152.0
122.066643 348.0
122.10601 1176.0
122.280022 180.0
122.315239 240.0
122.369621 108.0
122.420921 148.0
122.762505 184.0
123.08136 448.0
123.114174 500.0
123.279091 220.0
123.624077 160.0
124.122513 180.0
124.930794 184.0
125.594826 212.0
125.76664 192.0
126.11956 180.0
126.405838 144.0
127.048897 196.0
128.064209 348.0
128.714493 192.0
128.768692 176.0
128.958481 232.0
129.070251 832.0
129.290955 200.0
129.605728 204.0
129.743988 152.0
129.798401 216.0
130.078812 400.0
130.290939 148.0
130.759384 192.0
131.05191 168.0
131.08519 1580.0
131.413406 188.0
131.685059 152.0
132.057068 532.0
132.087112 164.0
132.217789 208.0
133.066101 1428.0
133.102982 1392.0
133.389877 188.0
134.068512 492.0
134.102081 204.0
134.405563 220.0
135.042679 268.0
135.080734 2912.0
135.120117 560.0
135.149597 156.0
135.476059 192.0
136.083237 340.0
136.118546 176.0
136.727631 160.0
136.913879 172.0
136.960464 140.0
137.072296 236.0
137.097137 628.0
137.416504 116.0
137.767593 140.0
138.076141 156.0
138.64975 228.0
138.788055 140.0
138.942856 172.0
139.060196 196.0
139.109482 188.0
139.151749 164.0
139.370193 152.0
139.593506 220.0
139.800522 140.0
139.824051 184.0
140.495621 172.0
141.072464 416.0
141.992981 188.0
142.072784 316.0
142.664978 176.0
143.085724 1404.0
143.286133 260.0
143.340942 236.0
144.051941 200.0
144.188141 160.0
144.302887 144.0
144.570801 196.0
144.628235 188.0
144.66655 180.0
144.829376 160.0
144.929993 152.0
144.975525 144.0
145.028259 140.0
145.064377 820.0
145.101517 3832.0
145.21048 172.0
145.338516 164.0
146.072433 404.0
146.106674 716.0
146.998016 200.0
147.03421 280.0
147.080887 3784.0
147.115921 1276.0
147.531815 164.0
147.565659 212.0
147.669647 204.0
147.863205 176.0
148.082718 548.0
148.121292 184.0
149.039368 188.0
149.066101 96.0
149.096466 17124.0
149.300323 208.0
150.099945 1556.0
150.142136 176.0
150.742691 180.0
151.078903 160.0
151.110504 512.0
151.146179 160.0
151.346909 172.0
152.060287 312.0
152.109375 152.0
152.583527 164.0
153.435379 224.0
154.713043 136.0
155.044601 148.0
155.085831 204.0
155.143753 180.0
155.23053 204.0
155.659836 140.0
156.052444 164.0
156.094711 340.0
156.243958 168.0
156.64975 140.0
157.06398 188.0
157.097153 340.0
157.992859 152.0
158.068909 652.0
158.30072 168.0
158.94754 180.0
159.079315 1072.0
159.114197 276.0
159.221115 172.0
159.46579 176.0
159.618179 196.0
160.085037 496.0
160.146698 144.0
160.920181 212.0
161.061691 348.0
161.096024 1916.0
161.128754 572.0
161.345352 140.0
161.621048 256.0
161.810883 144.0
162.062988 148.0
162.099823 336.0
162.774414 164.0
163.072098 268.0
163.112228 2376.0
164.109726 212.0
164.329681 144.0
164.738174 184.0
165.067886 284.0
165.090897 216.0
165.113846 156.0
165.30835 188.0
165.833374 180.0
167.086243 176.0
168.099182 140.0
169.033859 224.0
169.104126 152.0
170.076523 252.0
170.320618 148.0
170.575272 172.0
171.014877 220.0
171.079834 692.0
171.116852 2432.0
172.086044 584.0
172.121033 276.0
172.572311 140.0
172.716156 160.0
173.094818 1272.0
173.546356 160.0
173.974014 212.0
174.100449 132.0
175.073227 280.0
175.110489 224.0
176.117554 216.0
177.090942 160.0
177.126068 868.0
177.541504 160.0
178.027161 220.0
178.074966 148.0
178.742264 204.0
179.081299 332.0
180.032272 220.0
180.093369 208.0
180.711487 220.0
181.094315 164.0
181.117508 176.0
182.071991 336.0
182.102982 144.0
182.307007 144.0
183.081848 328.0
183.386261 200.0
183.558807 192.0
183.944626 200.0
184.091888 124.0
184.241684 248.0
184.541687 248.0
184.779709 148.0
185.023285 220.0
185.095306 4852.0
186.103897 748.0
186.387604 164.0
187.111282 1048.0
187.372574 148.0
187.612411 156.0
188.116104 196.0
189.071045 164.0
189.097931 168.0
189.126892 3276.0
189.465363 140.0
190.074051 164.0
190.13446 460.0
191.082474 232.0
191.143005 196.0
191.748871 140.0
191.897736 168.0
193.060272 188.0
193.100754 292.0
194.111038 180.0
195.07016 160.0
195.087372 192.0
195.119324 360.0
195.409805 172.0
196.088654 432.0
196.122726 172.0
196.602448 140.0
197.095276 1216.0
198.099228 308.0
198.64502 144.0
198.959335 188.0
199.110336 360.0
200.118179 276.0
201.031006 176.0
201.090271 196.0
201.127441 952.0
202.076523 148.0
202.134186 284.0
202.741974 236.0
203.109024 180.0
204.084686 152.0
204.104599 224.0
204.924362 152.0
205.101624 116.0
206.108215 152.0
206.402939 200.0
207.066879 164.0
207.089798 184.0
207.113983 184.0
207.436508 140.0
207.895432 148.0
208.089355 616.0
209.096664 636.0
209.13382 388.0
210.10141 520.0
210.757843 168.0
211.111664 496.0
211.145432 144.0
211.521362 148.0
212.119217 188.0
213.127029 808.0
213.526367 148.0
213.997803 156.0
214.088074 140.0
214.1241 196.0
214.996048 148.0
215.106384 184.0
216.101196 168.0
216.113525 156.0
216.118317 308.0
216.201736 172.0
217.558884 188.0
219.655548 156.0
219.828262 144.0
220.1241 220.0
221.093124 152.0
221.13118 252.0
221.338837 208.0
222.104111 244.0
222.186539 200.0
222.340836 232.0
222.637726 164.0
222.804062 152.0
223.110931 1416.0
224.119247 228.0
224.151947 156.0
224.700592 160.0
225.127731 648.0
226.123016 152.0
226.146957 144.0
227.106491 272.0
227.14418 348.0
228.147797 176.0
228.999405 188.0
229.056625 180.0
230.979523 140.0
231.11264 164.0
232.116684 232.0
232.461105 180.0
233.126862 140.0
233.186951 196.0
234.102707 200.0
234.89212 140.0
235.117569 176.0
235.918198 172.0
236.022156 192.0
236.114838 264.0
236.514725 176.0
236.664734 160.0
236.946518 168.0
237.127167 792.0
238.023132 144.0
238.128204 892.0
239.143356 2240.0
240.143921 492.0
240.878235 160.0
241.122513 284.0
241.156326 312.0
242.160065 160.0
245.23175 164.0
246.404236 172.0
246.883362 224.0
248.176666 184.0
248.556213 184.0
249.126358 360.0
250.134476 160.0
251.143372 516.0
251.17836 288.0
251.228775 184.0
252.183609 184.0
252.927612 140.0
253.159515 1160.0
254.165176 800.0
255.134628 560.0
255.172134 1292.0
256.150726 196.0
256.181 308.0
257.088135 216.0
257.245789 160.0
258.253174 464.0
258.683075 140.0
258.772736 144.0
258.84317 216.0
260.758453 180.0
261.167236 144.0
261.752533 184.0
262.169952 220.0
262.75174 204.0
263.478149 244.0
263.888641 244.0
264.145172 388.0
265.153748 192.0
265.514252 180.0
266.345154 148.0
267.128571 188.0
268.265106 148.0
269.186127 432.0
269.855072 192.0
270.187683 376.0
271.472687 148.0
271.964844 188.0
273.559113 160.0
276.165985 260.0
277.460785 140.0
278.61908 164.0
279.081238 304.0
279.173035 15332.0
280.177063 2952.0
280.322693 152.0
280.849487 236.0
281.180054 132.0
281.285889 204.0
283.52774 128.0
284.205017 228.0
284.873169 196.0
287.216095 208.0
287.610901 172.0
289.460236 144.0
289.768494 204.0
293.510834 144.0
295.211426 160.0
295.806793 204.0
296.140686 180.0
296.27948 136.0
296.334198 184.0
296.465393 140.0
296.543243 148.0
296.60495 276.0
296.936829 192.0
297.068848 196.0
297.131622 484.0
297.185394 57200.0
297.289124 188.0
297.551697 152.0
297.634644 104.0
297.75058 104.0
297.837616 140.0
298.022339 168.0
298.0961 164.0
298.141205 164.0
298.188232 8328.0
298.465332 128.0
298.691498 100.0
298.875092 160.0
298.989807 120.0
299.140106 204.0
299.190033 1052.0
299.270508 168.0
299.836853 132.0
299.996185 212.0
300.130737 128.0
300.176636 264.0
300.205505 184.0
300.323486 96.0
300.361359 180.0
311.450623 140.0
338.209503 148.0
488.51712 168.0
521.968262 140.0
1099.978394 168.0
1146.234497 152.0
1199.612061 148.0
1200.177368 204.0
1204.69812 196.0
1223.436768 184.0
1259.694336 200.0
1269.830688 148.0
1292.399536 172.0
1317.485352 164.0
1354.705078 172.0
1376.764282 180.0
1409.473511 200.0
1410.990845 172.0
1460.128052 144.0
1462.692261 212.0
1469.780151 144.0
1470.398315 156.0
1476.281006 168.0
1479.617188 180.0
1500.908447 148.0
1515.74231 208.0
1521.482056 236.0
1536.47168 140.0
1540.070435 156.0
1545.69165 200.0
1548.81543 180.0
1551.53479 180.0
1557.978027 172.0
1568.270996 164.0
1571.977783 160.0
1585.723145 148.0
1590.085327 148.0
1594.803223 164.0
1603.208008 208.0
1608.855347 164.0
1612.242188 208.0
1630.185669 168.0
1633.65918 160.0
1637.297485 156.0
1641.471924 160.0
1651.599854 184.0
1658.968872 160.0
1659.812134 156.0
1668.004028 156.0
1670.549438 172.0
1672.241943 144.0
1677.585571 220.0
1685.486206 164.0
1690.204468 192.0
1690.597168 176.0
1707.719971 188.0
1714.100342 228.0
1714.669067 140.0
1726.276611 168.0
1733.644531 216.0
1734.274414 180.0
1735.335571 164.0
1760.649536 148.0
1779.155029 164.0
1779.68396 192.0
1782.657593 180.0
1792.014771 316.0
1806.519287 156.0
1808.067749 180.0
1812.386719 172.0
1815.133179 196.0
1815.523193 176.0
1817.431885 180.0
1822.637085 232.0
1822.866455 176.0
1825.544312 208.0
1826.879761 180.0
1837.28186 220.0
1837.529297 168.0
1841.413452 192.0
1852.901855 180.0
1864.3573 156.0
1865.921753 180.0
1871.393921 204.0
1877.253418 256.0
1888.771606 96.0
1890.713257 164.0
1899.187012 172.0
1900.878784 216.0
1902.970703 224.0
1908.105591 144.0
1911.933105 200.0
1912.037476 140.0
1922.417114 228.0
1922.53064 176.0
1925.359253 172.0
1929.614868 200.0
1933.227417 144.0
1938.692139 176.0
1942.795776 180.0
1943.72583 184.0
1951.991943 164.0
1953.108887 204.0
1959.5354 148.0
1961.862183 140.0
1961.959106 172.0
1963.308228 180.0
1966.422729 216.0
1971.165161 160.0
1973.145142 152.0
1977.957764 176.0
1978.781006 172.0
1982.838135 212.0
1984.744141 156.0
1988.106323 148.0
1995.461304 144.0
2000.87085 148.0
