>compound MLS001360619-01!
>formula C20H20O5
>ionization [M+H]+
>parentmass 341.139
#inchi InChI=1S/C20H20O5/c1-11(2)3-8-14-15(22)9-16(23)19-17(24)10-18(25-20(14)19)12-4-6-13(21)7-5-12/h3-7,9,18,21-23H,8,10H2,1-2H3
#inchikey LPEPZZAVFJPLNZ
#Ion_Source LC-ESI
#Instrument qTof
#Compound_Source NIH Natural Product Library
#PI Dorrestein
#Data_Collector VVP/LMS
#Scan -1
#Precursor_MZ 341.139
#ExactMass 340.131
#Charge 1
#CAS_Number N/A
#Pubmed_ID N/A
#Smiles CC(=CCc1c(O)cc(O)c2C(=O)CC(Oc12)c3ccc(O)cc3)C
#INCHI_AUX N/A
#Library_Class 1
#SpectrumID CCMSLIB00000079634
#IonMode Positive
#UpdateWorkflowName UPDATE-SINGLE-ANNOTATED-GOLD
#LibraryQualityString Gold
#TaskID b1d8e8f6646f4e71acdff9ca3d919d08
##Scan# 2275
#SpectrumFile p1-A09_GA9_01_17881.mzXML
#LibraryName NIH_Natural_Products_Library.mgf
#MQScore -1
#Organism NIH_Natural_Products_Library
#TIC_Query 0
#RT_Query -1
#MZErrorPPM -1
#SharedPeaks 0
#MassDiff 0
#LibMZ -1
#SpecMZ 341.139
#SpecCharge 0
#internalFilename spec-00000.mgf

>collision 10
94.966972 100.0
95.013527 128.0
95.048447 180.0
95.08532 196.0
95.565285 184.0
96.017296 164.0
96.153763 136.0
96.243561 108.0
96.444778 52.0
96.476051 148.0
97.028313 604.0
97.328537 160.0
97.680481 176.0
97.711555 196.0
97.764679 176.0
98.0187 68.0
98.071907 148.0
98.142876 180.0
98.318436 204.0
98.509956 152.0
98.677933 120.0
98.70166 176.0
98.831673 228.0
99.008018 992.0
99.204529 52.0
99.674896 228.0
99.929398 108.0
99.977158 212.0
100.012436 176.0
100.096588 136.0
100.56308 84.0
100.682869 88.0
100.95665 160.0
101.004646 220.0
101.032654 176.0
101.139816 108.0
101.294891 152.0
101.399078 200.0
102.005226 160.0
102.101028 240.0
102.387505 96.0
102.707962 148.0
102.74427 80.0
103.057259 156.0
103.184532 160.0
103.33419 112.0
103.627762 200.0
103.645996 68.0
103.66626 144.0
103.704765 184.0
103.808151 92.0
103.871025 148.0
103.988335 108.0
104.293365 144.0
104.496719 140.0
104.645287 144.0
104.881592 208.0
105.031433 172.0
105.074951 212.0
105.205925 200.0
105.336617 164.0
105.663696 212.0
106.042519 188.0
106.185226 184.0
106.337852 48.0
106.703484 148.0
106.732269 184.0
106.787796 232.0
106.942345 172.0
107.007973 188.0
107.049156 3152.0
107.068237 180.0
107.222198 92.0
107.2696 188.0
107.550125 76.0
107.61412 148.0
107.779358 172.0
107.831017 192.0
108.054337 272.0
108.49131 236.0
108.688339 204.0
109.027962 1768.0
109.053825 52.0
109.076691 60.0
109.178566 104.0
109.452377 124.0
109.751205 224.0
109.947289 112.0
110.03054 224.0
110.185318 164.0
110.316978 208.0
110.498917 184.0
110.570061 116.0
110.622391 60.0
110.854866 176.0
110.986923 188.0
111.009117 768.0
111.198792 168.0
111.377258 160.0
111.465492 104.0
111.534843 120.0
111.613998 184.0
111.949158 168.0
111.991425 156.0
112.324455 104.0
112.43206 112.0
113.008919 148.0
113.104149 152.0
113.61908 44.0
113.644539 268.0
113.727303 144.0
113.765511 100.0
113.858932 88.0
113.898064 76.0
113.97789 128.0
114.220245 44.0
114.333008 120.0
114.929657 248.0
115.053558 300.0
115.239243 152.0
115.43589 156.0
115.86396 108.0
115.900902 180.0
116.005394 92.0
116.039696 184.0
116.209129 164.0
116.252045 152.0
116.267059 64.0
116.29467 148.0
116.310753 144.0
116.333603 152.0
116.939743 112.0
117.030151 192.0
117.109833 212.0
117.124908 96.0
117.16584 184.0
117.215393 184.0
117.869194 184.0
117.915131 140.0
118.115654 136.0
118.137283 128.0
118.156754 156.0
118.200027 104.0
118.368866 192.0
118.429504 180.0
118.481491 172.0
118.683052 176.0
118.828362 124.0
119.010674 52.0
119.047623 708.0
119.125778 100.0
119.293098 148.0
119.549744 200.0
119.699944 184.0
119.885101 144.0
120.052956 328.0
120.688377 156.0
120.920258 216.0
121.003433 204.0
121.028114 176.0
121.065933 900.0
121.154549 180.0
121.408798 124.0
121.571136 200.0
121.911507 104.0
122.02581 164.0
122.065384 264.0
122.358017 212.0
122.408653 184.0
122.477859 104.0
122.587082 112.0
122.639969 200.0
122.708305 144.0
123.008141 6632.0
123.078972 212.0
123.123138 40.0
123.198235 184.0
123.337448 156.0
123.363976 40.0
123.397133 112.0
123.582916 172.0
123.810913 96.0
123.934959 116.0
124.010643 504.0
124.041336 100.0
124.094536 168.0
124.181023 220.0
124.254219 84.0
124.339096 192.0
124.400688 268.0
124.425102 164.0
124.624092 168.0
124.689735 116.0
124.740555 144.0
124.918442 176.0
125.007439 180.0
125.548759 88.0
125.62236 152.0
126.095718 176.0
126.272331 52.0
126.424461 52.0
126.45517 188.0
126.4916 72.0
126.679703 192.0
126.731224 92.0
126.908295 92.0
126.993507 120.0
127.051826 124.0
127.172997 140.0
127.235847 176.0
127.671745 180.0
127.853966 120.0
128.047577 152.0
128.063339 112.0
128.230072 164.0
128.299942 160.0
128.31572 160.0
128.349548 104.0
128.381119 108.0
128.403671 240.0
128.4375 164.0
128.839523 200.0
129.072098 180.0
129.384323 64.0
129.506958 200.0
129.579086 204.0
129.851089 148.0
129.889648 92.0
130.093872 36.0
130.225571 112.0
131.005768 192.0
131.22226 100.0
131.322601 124.0
131.452637 152.0
131.477737 224.0
131.596436 208.0
131.847687 228.0
132.268524 88.0
132.460861 168.0
132.770279 152.0
132.859741 176.0
132.928574 164.0
132.981354 200.0
133.015778 156.0
133.256912 128.0
133.482162 192.0
133.512054 168.0
134.032288 176.0
134.073761 96.0
134.200546 244.0
134.269714 196.0
134.405823 116.0
134.491211 184.0
134.528137 160.0
134.565079 172.0
134.745224 124.0
134.957855 160.0
135.006805 96.0
135.024826 120.0
135.045746 468.0
135.416031 152.0
135.631516 200.0
135.782211 124.0
136.146561 68.0
136.406784 172.0
136.732407 224.0
136.858109 148.0
136.946594 184.0
137.022583 5732.0
137.068268 192.0
137.410477 76.0
137.557495 64.0
137.580841 60.0
137.716278 88.0
137.788696 196.0
137.884491 200.0
137.980331 32.0
138.025452 540.0
138.47171 168.0
138.492798 164.0
138.886566 80.0
139.034363 132.0
139.053146 180.0
139.154083 100.0
139.248001 52.0
139.475906 60.0
139.628738 156.0
139.81459 48.0
140.255005 184.0
140.403534 160.0
140.526199 156.0
140.736252 208.0
140.792923 136.0
140.86615 192.0
140.918121 124.0
140.939392 116.0
141.017792 896.0
141.068207 840.0
141.350525 68.0
141.387009 132.0
141.66095 52.0
142.021255 208.0
142.041504 156.0
142.07106 88.0
142.282272 188.0
142.779129 172.0
143.081055 100.0
143.138199 52.0
143.533752 120.0
143.629135 176.0
143.975204 228.0
144.120911 112.0
144.359955 148.0
144.929642 140.0
145.063629 528.0
145.138168 184.0
145.258072 208.0
145.517258 112.0
145.542755 192.0
145.630112 200.0
145.694977 144.0
145.764648 128.0
145.892029 40.0
146.031494 188.0
146.094025 196.0
146.146957 152.0
146.382843 144.0
146.983047 160.0
147.007217 544.0
147.044464 2068.0
147.120621 44.0
147.180969 40.0
147.209946 124.0
147.258255 144.0
147.468445 200.0
147.582062 108.0
147.68605 216.0
147.807251 200.0
147.865082 68.0
147.923172 204.0
147.976425 192.0
148.013428 132.0
148.043091 196.0
148.412537 68.0
148.504684 216.0
148.659958 48.0
148.827438 164.0
148.934296 68.0
148.956161 220.0
149.009598 184.0
149.049011 128.0
149.182144 124.0
149.473999 48.0
149.849731 176.0
149.926926 140.0
150.114624 164.0
150.541672 224.0
150.731476 176.0
150.773743 92.0
150.957092 44.0
150.996216 176.0
151.037796 180.0
151.054916 132.0
151.091614 124.0
151.224731 148.0
151.253113 80.0
151.321655 120.0
151.346146 184.0
151.446548 244.0
151.549438 188.0
151.81868 128.0
152.228882 192.0
152.27063 60.0
152.698257 120.0
152.767136 156.0
152.988129 184.0
153.014908 172.0
153.072311 140.0
153.138809 164.0
153.227478 52.0
153.294006 168.0
153.333435 88.0
153.42218 180.0
153.575058 80.0
153.737885 160.0
153.915619 140.0
154.073685 200.0
154.131332 132.0
154.199692 56.0
154.553314 212.0
154.719131 68.0
155.028351 168.0
155.086807 140.0
155.108047 204.0
155.187378 252.0
155.365952 212.0
155.581848 204.0
155.61412 100.0
155.720901 256.0
155.966873 152.0
156.091171 168.0
156.135941 136.0
156.265289 204.0
156.432022 228.0
156.86795 188.0
157.063675 872.0
157.119812 240.0
157.152252 76.0
157.25705 52.0
157.296982 64.0
157.591675 68.0
157.621658 96.0
157.671631 220.0
157.794113 172.0
157.856613 128.0
157.87413 192.0
157.999191 156.0
158.067307 160.0
158.512451 40.0
158.672867 88.0
158.723007 160.0
159.047821 144.0
159.076752 128.0
159.247498 28.0
159.282654 144.0
159.493729 188.0
159.73259 52.0
159.815613 100.0
159.878525 176.0
160.019485 164.0
160.198288 156.0
160.699966 44.0
161.07106 128.0
161.220123 76.0
161.445114 232.0
161.819595 208.0
161.905685 168.0
161.938614 36.0
161.976608 128.0
162.161575 132.0
162.199585 160.0
162.687851 216.0
162.740601 160.0
162.793259 148.0
163.008453 212.0
163.037277 172.0
163.209976 112.0
163.489792 168.0
163.625244 144.0
163.777481 152.0
163.805496 272.0
163.86409 236.0
163.968567 160.0
164.022095 184.0
164.04248 248.0
164.162308 48.0
164.180161 108.0
164.208221 284.0
164.249023 204.0
164.358719 84.0
164.387543 80.0
164.485458 188.0
164.534821 76.0
164.601212 148.0
164.688034 96.0
164.713577 152.0
164.734009 172.0
164.763763 208.0
164.810654 84.0
164.838562 208.0
164.889435 232.0
164.909317 184.0
164.933044 248.0
164.941711 284.0
164.947983 208.0
164.983154 296.0
165.018784 112648.0
165.067932 556.0
165.107513 60.0
165.124649 96.0
165.136948 100.0
165.144958 104.0
165.15329 96.0
165.196472 156.0
165.255203 156.0
165.310791 112.0
165.330246 132.0
165.355392 120.0
165.412369 100.0
165.439346 772.0
165.479858 56.0
165.498276 100.0
165.507706 84.0
165.549896 184.0
165.567825 88.0
165.608109 80.0
165.63829 72.0
165.702255 100.0
165.743576 112.0
165.777893 64.0
165.81633 140.0
165.867584 152.0
165.908691 248.0
165.970718 88.0
166.021484 9432.0
166.071213 124.0
166.126572 96.0
166.165054 92.0
166.211945 96.0
166.275391 56.0
166.3293 56.0
166.354843 144.0
166.425827 40.0
166.458679 100.0
166.491043 60.0
166.558731 112.0
166.670853 76.0
166.699921 64.0
166.727386 108.0
166.74794 28.0
166.776382 64.0
166.814774 56.0
166.866196 120.0
166.915039 64.0
166.942612 116.0
166.976761 80.0
167.023087 1300.0
167.086075 112.0
167.137222 156.0
167.158234 140.0
167.176514 68.0
167.191483 224.0
167.24617 200.0
167.264862 128.0
167.288086 40.0
167.31694 100.0
167.358292 136.0
167.383347 104.0
167.440002 252.0
167.470917 132.0
167.491516 56.0
167.514694 76.0
167.561066 84.0
167.638367 80.0
167.684753 112.0
167.774963 76.0
167.831696 92.0
167.989014 64.0
168.018082 88.0
168.057404 184.0
168.099945 68.0
168.174789 152.0
168.293533 72.0
168.343887 80.0
168.365829 44.0
168.518234 72.0
168.644852 52.0
168.668121 48.0
168.704315 144.0
168.750839 92.0
169.063431 828.0
169.224304 52.0
169.377106 88.0
169.913696 100.0
170.074814 176.0
170.368011 188.0
170.973831 72.0
171.043762 372.0
171.082962 184.0
172.021591 120.0
172.071198 184.0
172.831207 96.0
172.907639 28.0
172.954758 176.0
173.062088 192.0
173.101364 196.0
173.460281 48.0
173.504852 64.0
173.533691 148.0
173.696289 112.0
173.816956 124.0
173.866821 68.0
174.904968 136.0
175.587372 56.0
176.400589 52.0
177.101776 80.0
177.454224 72.0
177.533768 72.0
177.735367 176.0
178.753052 132.0
179.033463 2188.0
179.456238 48.0
179.589569 64.0
179.797668 100.0
180.036346 356.0
180.061966 200.0
180.556381 108.0
180.989883 108.0
181.038086 152.0
181.060745 276.0
181.201462 76.0
182.075912 196.0
182.53566 96.0
182.93631 244.0
183.027618 5504.0
183.080978 260.0
183.146332 36.0
183.340317 152.0
183.580231 84.0
183.698898 136.0
183.95256 48.0
184.030945 540.0
184.236557 48.0
184.319855 44.0
184.71727 48.0
185.057755 544.0
185.461884 132.0
185.711334 48.0
186.059433 192.0
187.075378 132.0
188.856598 112.0
189.040482 152.0
189.379944 120.0
190.592484 60.0
190.999344 52.0
191.03299 1764.0
191.789581 144.0
192.054276 144.0
193.020844 88.0
193.06778 144.0
193.870667 92.0
194.081329 112.0
195.040405 144.0
195.078003 152.0
195.097458 148.0
195.974121 40.0
196.04657 136.0
196.450851 124.0
197.060608 588.0
197.277435 184.0
197.70816 64.0
198.040802 64.0
198.059708 120.0
198.663589 60.0
199.070557 160.0
199.92514 44.0
200.065872 176.0
200.44046 88.0
201.87442 76.0
204.421783 64.0
205.213623 84.0
207.604065 36.0
207.641342 144.0
209.069138 112.0
210.086227 124.0
211.082642 492.0
212.078522 148.0
213.055847 696.0
213.085449 156.0
214.062744 128.0
215.711136 108.0
216.082535 144.0
218.658875 160.0
220.091507 116.0
220.933823 124.0
221.080719 364.0
221.167587 132.0
224.515915 156.0
225.051041 384.0
226.053589 140.0
226.713165 100.0
228.174911 184.0
228.313232 72.0
238.96312 80.0
239.066025 480.0
240.07637 180.0
243.064102 660.0
244.069626 332.0
244.134918 48.0
245.330521 80.0
248.253891 76.0
249.063614 140.0
257.083527 192.0
260.669739 148.0
263.017517 100.0
263.88974 128.0
264.65329 44.0
266.911591 40.0
267.067169 480.0
267.897736 56.0
268.076904 192.0
268.099731 196.0
268.839996 84.0
269.074982 120.0
270.860474 124.0
273.075989 188.0
274.841675 132.0
280.609497 100.0
281.550446 52.0
282.098389 76.0
282.536469 60.0
284.07074 164.0
285.074219 1548.0
285.521729 52.0
285.77063 112.0
285.918701 52.0
286.076477 336.0
286.113922 216.0
287.08609 180.0
291.607239 132.0
295.268799 116.0
298.035156 120.0
299.145996 180.0
302.272858 136.0
305.46814 136.0
306.937836 40.0
311.210052 56.0
316.442261 96.0
322.05014 72.0
329.449799 44.0
335.827484 164.0
336.024445 96.0
340.214783 112.0
341.128143 144.0
343.209534 184.0
351.537079 60.0
355.717621 136.0
358.840027 32.0
359.017242 164.0
359.552948 80.0
365.685028 60.0
365.715485 40.0
377.064453 208.0
403.802399 92.0
404.354492 56.0
407.409851 100.0
410.017181 108.0
423.809235 88.0
427.130402 72.0
435.479645 40.0
446.29892 80.0
498.957489 76.0
505.773651 64.0
637.014709 92.0
638.859558 44.0
644.90033 100.0
672.027832 196.0
695.078491 152.0
719.120789 64.0
722.487122 76.0
733.797363 68.0
793.380737 96.0
800.246033 36.0
821.298767 40.0
829.17157 160.0
839.992432 96.0
871.065674 196.0
877.710022 20.0
908.818909 20.0
911.917542 64.0
916.906738 40.0
922.767883 104.0
933.980469 72.0
936.957153 160.0
945.150635 128.0
960.299561 168.0
962.73114 128.0
970.323181 220.0
972.829468 240.0
974.158325 176.0
989.01123 272.0
989.405579 100.0
994.52063 196.0
996.3479 196.0
1001.128113 192.0
1006.09021 76.0
1014.446838 148.0
1016.653992 164.0
1032.561523 104.0
1040.044922 204.0
1054.155396 204.0
1054.711182 176.0
1058.715942 80.0
1061.77478 52.0
1063.734253 212.0
1064.286011 108.0
1076.932617 192.0
1083.486938 48.0
1092.881958 280.0
1092.954346 176.0
1093.908569 176.0
1096.628906 184.0
1097.980469 144.0
1099.425171 96.0
1099.52417 60.0
1101.518188 252.0
1101.987183 176.0
1102.350586 128.0
1113.420166 180.0
1116.610229 208.0
1132.963501 52.0
1136.181396 44.0
1138.678345 172.0
1140.331055 176.0
1141.063843 132.0
1142.577026 136.0
1143.936279 160.0
1148.774658 64.0
1151.21106 56.0
1152.453979 140.0
1153.379761 172.0
1155.124268 76.0
1156.389648 152.0
1157.736816 212.0
1159.308472 48.0
1159.755737 140.0
1165.524048 112.0
1167.542969 136.0
1167.590576 176.0
1169.039551 124.0
1174.960571 192.0
1178.210083 68.0
1183.941895 112.0
1185.668335 120.0
1191.465454 96.0
1196.665527 200.0
1197.044312 60.0
1197.285278 188.0
1204.567871 180.0
1204.983154 156.0
1206.406738 156.0
1207.118896 92.0
1209.740967 160.0
1210.066406 120.0
1210.862671 108.0
1213.246216 148.0
1218.895752 172.0
1220.146851 176.0
1222.964111 112.0
1226.314209 212.0
1233.06311 240.0
1240.853882 180.0
1252.279663 176.0
1258.407471 56.0
1258.689941 240.0
1262.703735 204.0
1262.894775 100.0
1265.782104 204.0
1266.114868 160.0
1268.077393 172.0
1272.659912 156.0
1272.901245 128.0
1280.289673 184.0
1280.731201 160.0
1281.016235 116.0
1281.172852 148.0
1281.821289 132.0
1282.020752 176.0
1285.015503 176.0
1285.393677 220.0
1286.057373 172.0
1288.099487 136.0
1289.792969 208.0
1289.892944 124.0
1290.729492 164.0
1291.737793 128.0
1293.691406 256.0
1294.815552 128.0
1298.233887 180.0
1299.840698 192.0
1303.430908 168.0
1303.977051 204.0
1304.825317 132.0
1308.105591 176.0
1308.782349 128.0
1308.890381 180.0
1309.365601 172.0
1310.100342 80.0
1311.245972 160.0
1314.722046 196.0
1316.66394 148.0
1320.176147 144.0
1323.164429 260.0
1324.685181 88.0
1324.764893 320.0
1326.286499 176.0
1327.591553 216.0
1329.056763 228.0
1329.884033 192.0
1330.500977 100.0
1331.532104 140.0
1332.185791 60.0
1336.26416 156.0
1336.460571 164.0
1344.826416 172.0
1345.439575 120.0
1346.396118 76.0
1349.538086 172.0
1352.618042 168.0
1353.445312 176.0
1355.899292 140.0
1357.48999 184.0
1358.1427 204.0
1358.97168 200.0
1360.210938 208.0
1362.767456 132.0
1367.723999 196.0
1368.761963 180.0
1369.277466 160.0
1369.542603 176.0
1370.971924 188.0
1374.887817 136.0
1375.09436 140.0
1375.49292 132.0
1376.172119 160.0
1378.461914 72.0
1379.370972 48.0
1383.720093 248.0
1385.927856 128.0
1393.116821 68.0
1394.68457 124.0
1395.688232 176.0
1395.807129 196.0
1397.748535 196.0
1406.37085 156.0
1407.595215 240.0
1408.797729 164.0
1409.925903 200.0
1411.428467 144.0
1411.779907 56.0
1413.934448 184.0
1414.181396 132.0
1416.869629 184.0
1417.776245 132.0
1419.200439 176.0
1420.010254 124.0
1420.707886 136.0
1420.767822 84.0
1423.04187 252.0
1423.297119 224.0
1424.979492 164.0
1427.437378 216.0
1428.302246 188.0
1429.332886 136.0
1430.687622 256.0
1439.071045 172.0
1440.959106 204.0
1441.510742 140.0
1444.049072 164.0
1444.701294 192.0
1445.102295 220.0
1445.949829 212.0
1449.039185 144.0
1449.092285 56.0
1452.298828 168.0
1454.347412 116.0
1454.491577 112.0
1456.009277 212.0
1456.91394 152.0
1457.985229 116.0
1463.583862 208.0
1464.490112 184.0
1465.838501 156.0
1467.919434 136.0
1467.988037 216.0
1468.056763 40.0
1469.746704 188.0
1471.169678 108.0
1471.245972 232.0
1471.780396 140.0
1472.322632 116.0
1473.254395 152.0
1473.827393 160.0
1475.944702 136.0
1476.296387 244.0
1479.203735 112.0
1480.114746 224.0
1480.918823 136.0
1481.500977 204.0
1482.443359 136.0
1482.765259 216.0
1484.123413 108.0
1486.935059 180.0
1488.894897 228.0
1488.94873 188.0
1489.332764 156.0
1489.647705 156.0
1489.770508 124.0
1490.216187 52.0
1490.377441 156.0
1490.638794 196.0
1490.82312 68.0
1492.737183 212.0
1493.767822 172.0
1496.130249 176.0
1497.878296 208.0
1498.725708 216.0
1498.795044 76.0
1499.003052 116.0
1499.966431 144.0
1500.097534 140.0
1500.48291 240.0
1502.156372 128.0
