>compound MLS001140563-01!1-[2-(3-benzyl-4-methyl-2-oxochromen-7-yl)oxyacetyl]piperidine-4-carboxamide
>formula C25H26N2O5
>ionization [M+H]+
>parentmass 435.1914483840905
#inchi InChI=1S/C25H26N2O5/c1-16-20-8-7-19(31-15-23(28)27-11-9-18(10-12-27)24(26)29)14-22(20)32-25(30)21(16)13-17-5-3-2-4-6-17/h2-8,14,18H,9-13,15H2,1H3,(H2,26,29)
#inchikey ZWOWPHCQMUUKMZ
#Ion_Source LC-ESI
#Instrument qTof
#Compound_Source NIH Natural Product Library
#PI Dorrestein
#Data_Collector VVP/LMS
#Scan -1
#Precursor_MZ 435.192
#ExactMass 434.184
#Charge 1
#CAS_Number N/A
#Pubmed_ID N/A
#Smiles Cc1c(Cc2ccccc2)c(=O)oc3cc(OCC(=O)N4CCC(CC4)C(=O)N)ccc13
#INCHI_AUX N/A
#Library_Class 1
#SpectrumID CCMSLIB00000079665
#IonMode Positive
#UpdateWorkflowName UPDATE-SINGLE-ANNOTATED-GOLD
#LibraryQualityString Gold
#TaskID b1d8e8f6646f4e71acdff9ca3d919d08
##Scan# 1983
#SpectrumFile p1-E09_GE9_01_17929.mzXML
#LibraryName NIH_Natural_Products_Library.mgf
#MQScore -1
#Organism NIH_Natural_Products_Library
#TIC_Query 0
#RT_Query -1
#MZErrorPPM -1
#SharedPeaks 0
#MassDiff 0
#LibMZ -1
#SpecMZ 435.192
#SpecCharge 0
#internalFilename spec-00000.mgf

>collision 10
95.073822 196.0
95.592316 224.0
95.925362 228.0
96.047401 340.0
96.080307 2032.0
96.102829 76.0
96.25312 180.0
96.51104 136.0
96.935799 252.0
96.986748 132.0
97.087097 448.0
97.12204 52.0
97.368004 212.0
97.493744 200.0
97.520622 152.0
98.059814 600.0
99.06665 176.0
99.509865 212.0
100.006836 100.0
100.062576 176.0
100.327538 196.0
100.932487 224.0
101.846336 64.0
102.173996 216.0
102.816765 204.0
102.947983 160.0
103.055038 148.0
103.832352 164.0
103.986542 108.0
105.032478 128.0
105.073151 172.0
105.526543 56.0
106.380836 144.0
106.684868 200.0
106.767113 148.0
106.944046 108.0
106.96257 48.0
107.04744 608.0
107.199417 160.0
107.601624 96.0
107.797844 164.0
107.816444 180.0
107.926003 300.0
108.081841 164.0
108.265366 168.0
108.358574 136.0
108.65712 132.0
109.261673 128.0
109.334503 84.0
109.724014 160.0
110.060234 868.0
110.110039 64.0
110.197769 224.0
110.270912 176.0
110.394249 168.0
111.066536 172.0
111.09024 344.0
111.917648 52.0
112.074837 1620.0
112.096695 204.0
112.284317 76.0
112.385567 108.0
113.081116 248.0
113.254425 72.0
113.884361 68.0
113.899231 96.0
114.473457 68.0
115.05278 340.0
115.085426 176.0
115.260574 108.0
115.7033 124.0
115.838219 152.0
116.703087 96.0
117.230453 208.0
118.524811 168.0
118.676537 104.0
118.719902 116.0
118.895622 148.0
118.945541 176.0
119.114914 188.0
119.188774 196.0
119.314835 288.0
119.545395 124.0
120.472023 164.0
120.531013 180.0
120.909325 92.0
120.93396 156.0
121.060326 164.0
121.22686 88.0
121.524727 152.0
121.579926 132.0
121.997246 132.0
122.014839 188.0
122.168777 200.0
122.424095 116.0
122.977455 136.0
123.042496 156.0
123.087372 228.0
123.260132 124.0
123.536491 220.0
124.025856 196.0
124.074913 2936.0
124.225418 188.0
124.320824 108.0
124.345383 188.0
125.083351 1424.0
125.118774 208.0
126.090294 440.0
126.200439 112.0
126.312653 252.0
126.652885 124.0
126.7649 252.0
126.848671 212.0
126.901634 160.0
127.058456 160.0
127.086029 5748.0
127.166328 36.0
127.294296 80.0
127.986855 64.0
128.090042 616.0
128.119736 36.0
128.300018 72.0
128.469162 60.0
128.651672 164.0
128.793076 20.0
128.882309 160.0
128.959137 88.0
129.017914 52.0
129.069763 528.0
129.102081 560.0
129.130035 96.0
129.241821 64.0
130.007721 148.0
130.080353 180.0
130.112137 168.0
130.227936 192.0
130.273376 192.0
130.577942 116.0
131.053711 76.0
132.053574 180.0
132.401443 152.0
133.064636 440.0
133.190414 76.0
133.815811 184.0
134.62294 52.0
134.909439 152.0
135.041245 216.0
135.861237 120.0
136.272156 152.0
136.31398 172.0
136.958405 124.0
137.268372 120.0
138.104431 148.0
138.291611 156.0
139.055664 164.0
139.572479 136.0
139.803009 120.0
139.913635 136.0
140.066696 156.0
140.432037 148.0
140.493362 68.0
140.91124 144.0
140.944305 136.0
141.07666 184.0
141.102524 3824.0
141.848373 48.0
142.076019 88.0
142.104263 656.0
142.427338 216.0
142.547287 172.0
143.003235 172.0
143.046173 160.0
143.107468 304.0
143.15271 80.0
143.41716 108.0
143.862625 80.0
144.281281 196.0
144.565903 84.0
144.802917 68.0
144.898727 76.0
145.013748 192.0
145.06282 272.0
145.155197 64.0
145.70723 160.0
146.072632 140.0
147.038803 156.0
147.084671 272.0
149.02446 176.0
149.381821 200.0
149.574066 92.0
150.446747 184.0
152.066925 608.0
152.472397 148.0
152.642014 120.0
152.693665 108.0
153.067825 320.0
153.259842 164.0
154.892822 216.0
155.056351 112.0
155.08609 76.0
155.507721 216.0
155.815643 168.0
156.113907 180.0
156.317886 108.0
156.501617 196.0
156.810974 160.0
156.925644 140.0
157.022888 176.0
157.060974 180.0
157.428101 152.0
158.064606 136.0
159.036972 160.0
159.077133 168.0
159.190109 148.0
159.856262 140.0
160.049866 180.0
160.596939 152.0
160.986206 196.0
161.058273 356.0
161.931427 264.0
162.735275 140.0
163.037842 176.0
163.324844 64.0
163.59967 72.0
164.101547 148.0
164.172943 92.0
165.030914 132.0
165.063934 480.0
166.024445 136.0
166.077042 180.0
166.119339 56.0
166.160385 148.0
166.776688 104.0
167.065887 136.0
167.085907 160.0
167.221634 52.0
167.275696 80.0
167.322021 64.0
168.097839 176.0
168.142517 192.0
168.456711 200.0
169.04361 100.0
169.096069 836.0
169.54599 192.0
169.685974 128.0
169.942734 152.0
170.01799 36.0
170.105743 172.0
171.075851 140.0
172.113495 140.0
172.711945 124.0
173.060257 248.0
173.117599 124.0
173.224991 136.0
173.497528 168.0
173.867355 100.0
174.040604 180.0
174.124634 200.0
174.776566 132.0
174.918686 28.0
175.667053 112.0
176.065598 108.0
176.337708 112.0
176.96199 156.0
176.98053 68.0
177.063995 156.0
178.077362 2612.0
178.176682 44.0
178.211212 52.0
178.25473 148.0
178.631256 136.0
178.668503 128.0
179.08136 864.0
179.200974 176.0
179.891678 104.0
180.096375 272.0
180.252243 96.0
180.961044 36.0
181.06076 248.0
181.097366 476.0
181.349472 176.0
181.553223 156.0
181.622955 68.0
181.714157 104.0
182.068481 172.0
182.10257 448.0
182.20546 68.0
182.770081 36.0
183.07695 168.0
183.113251 148.0
183.734619 232.0
184.07402 160.0
186.062042 160.0
186.083755 152.0
186.686981 144.0
186.945404 168.0
187.863602 180.0
188.032776 136.0
188.05188 128.0
188.248428 204.0
188.486084 100.0
188.587204 180.0
188.712952 212.0
189.052673 328.0
189.232788 140.0
189.262894 44.0
189.350525 144.0
189.490234 216.0
189.52037 104.0
189.665604 80.0
190.024857 128.0
190.05777 264.0
190.499786 84.0
190.741592 48.0
190.824066 204.0
191.078079 288.0
191.162384 76.0
191.184402 48.0
191.884033 176.0
192.088486 564.0
192.278488 172.0
193.099915 2688.0
193.336945 48.0
193.644241 152.0
194.076614 148.0
194.107147 240.0
194.775894 164.0
194.995392 172.0
195.075089 152.0
195.117386 36.0
195.379105 36.0
196.114243 120.0
196.36795 128.0
196.454422 144.0
197.093842 164.0
197.473953 168.0
199.138779 184.0
199.242706 236.0
199.433792 172.0
199.835922 144.0
200.235641 176.0
200.954453 172.0
201.054535 1672.0
201.089325 240.0
201.767822 108.0
202.05661 220.0
202.076477 284.0
203.019333 144.0
203.081299 204.0
203.203705 160.0
203.266129 120.0
203.513062 104.0
204.03299 152.0
204.05574 188.0
204.368729 156.0
204.972229 196.0
205.101196 456.0
205.160339 152.0
205.725174 164.0
206.069946 320.0
206.109665 172.0
207.08075 144.0
207.117859 308.0
207.564819 132.0
208.084488 168.0
208.117279 140.0
208.931961 36.0
209.061432 60.0
209.0961 580.0
209.634491 68.0
209.775726 88.0
210.100662 128.0
210.479675 56.0
211.074921 188.0
211.118439 156.0
211.381531 144.0
211.424942 128.0
211.997879 128.0
212.052505 156.0
213.054153 212.0
213.086426 148.0
213.615509 184.0
213.970551 188.0
214.94696 156.0
215.074783 588.0
215.793991 128.0
216.074753 252.0
216.130356 44.0
216.83902 128.0
217.017838 232.0
217.09993 156.0
217.363937 184.0
217.986465 148.0
218.065811 136.0
218.104019 196.0
219.076843 176.0
219.526016 120.0
219.593842 92.0
219.626282 112.0
220.090256 128.0
221.029556 156.0
221.094543 4484.0
221.411423 80.0
221.526947 68.0
221.695816 40.0
221.728424 128.0
221.796585 116.0
222.095337 1108.0
222.386841 216.0
222.573853 180.0
223.076996 740.0
223.108292 404.0
223.429825 64.0
223.638123 96.0
224.007355 152.0
224.069153 156.0
224.117767 288.0
224.940689 100.0
225.042191 148.0
225.091827 148.0
225.535095 60.0
225.657669 132.0
225.963486 156.0
226.061462 44.0
226.867157 140.0
227.10704 52.0
227.84848 160.0
227.923599 60.0
229.047272 2068.0
229.253632 172.0
229.322937 180.0
229.784302 128.0
230.052567 236.0
231.057419 240.0
231.08345 100.0
231.525375 160.0
231.934387 188.0
232.495483 52.0
233.092697 552.0
233.352066 164.0
233.452408 40.0
234.064041 168.0
234.093201 264.0
235.027237 176.0
235.077148 316.0
235.106567 148.0
235.222549 108.0
235.286652 156.0
235.781479 116.0
235.805939 184.0
236.026031 200.0
236.07785 136.0
237.088715 184.0
237.134216 48.0
238.094421 188.0
239.102859 128.0
239.524673 152.0
239.811218 84.0
240.056335 168.0
241.084061 376.0
242.074493 180.0
242.15625 96.0
243.06456 140.0
243.092484 92.0
243.663788 152.0
243.828476 48.0
244.214005 220.0
244.391327 192.0
245.893311 144.0
246.073456 164.0
246.105591 196.0
246.239868 108.0
246.714813 60.0
247.05513 136.0
247.340439 140.0
247.600311 76.0
248.088104 200.0
248.208237 120.0
248.445969 144.0
248.94252 88.0
249.091507 1992.0
249.310059 84.0
249.382339 96.0
249.438919 52.0
249.511215 64.0
249.712463 104.0
249.743912 156.0
249.904358 52.0
250.044647 172.0
250.054764 100.0
250.062775 152.0
250.097092 1052.0
250.162415 104.0
250.404861 100.0
250.496216 124.0
250.76088 124.0
251.074432 256.0
251.105042 3024.0
251.90625 52.0
251.985229 128.0
252.070297 156.0
252.109756 556.0
252.143219 236.0
252.190628 68.0
252.436157 84.0
252.598511 44.0
253.080444 152.0
253.117554 128.0
253.348755 36.0
253.859039 196.0
253.995422 128.0
254.090591 216.0
255.008286 128.0
255.094849 336.0
255.195831 176.0
256.058197 124.0
256.102783 176.0
256.172852 160.0
256.816742 136.0
257.16449 168.0
257.304962 152.0
258.076263 164.0
258.426758 44.0
259.073456 164.0
259.615143 64.0
260.086761 120.0
261.087494 356.0
261.455902 144.0
261.603973 224.0
262.048401 124.0
262.099945 108.0
263.096527 172.0
263.154663 64.0
263.270905 116.0
263.674713 40.0
263.749054 88.0
264.065918 140.0
264.432739 52.0
265.084045 424.0
265.348206 40.0
266.091461 436.0
267.094055 316.0
267.384888 104.0
269.383606 164.0
269.962097 140.0
270.073303 136.0
270.132172 160.0
271.070801 168.0
271.108307 296.0
271.314362 116.0
272.65683 132.0
273.103973 132.0
273.64035 20.0
273.81488 140.0
274.351959 64.0
275.213043 140.0
275.582977 196.0
275.688721 176.0
276.647888 92.0
277.086578 280.0
277.207611 128.0
278.036682 196.0
278.08313 208.0
278.132935 172.0
278.418457 144.0
278.909302 172.0
278.963348 216.0
279.10025 10280.0
279.189453 48.0
279.329132 48.0
279.515442 92.0
279.585327 60.0
279.646637 76.0
279.761719 104.0
279.848297 56.0
279.898224 68.0
280.101288 1880.0
280.149048 180.0
280.324615 40.0
280.462463 88.0
280.60791 68.0
281.083435 1028.0
281.42868 48.0
281.515503 72.0
281.563049 84.0
281.986542 144.0
282.038727 144.0
282.073334 308.0
282.140289 76.0
282.197144 40.0
282.267365 180.0
282.357635 108.0
282.695526 88.0
282.752411 108.0
283.09494 164.0
283.49588 136.0
284.085968 144.0
284.136292 52.0
284.43161 120.0
284.706909 48.0
285.029388 92.0
287.956818 108.0
288.027771 124.0
289.092743 172.0
291.081482 188.0
291.092346 128.0
291.100403 172.0
291.136902 164.0
291.455292 120.0
292.102142 100.0
292.724976 164.0
292.850983 72.0
293.112396 364.0
294.117493 204.0
294.829742 84.0
295.736053 104.0
296.040771 136.0
297.717682 112.0
299.123901 192.0
300.002289 152.0
300.61969 112.0
300.743927 92.0
303.12326 96.0
304.0896 148.0
304.903503 136.0
305.101624 204.0
305.125946 172.0
305.470215 56.0
306.027039 92.0
306.054901 88.0
306.111481 128.0
307.013153 204.0
307.093506 872.0
308.096558 280.0
309.088135 148.0
310.236908 40.0
311.040192 100.0
312.118317 500.0
313.072357 136.0
313.11264 160.0
314.136749 184.0
315.125244 128.0
316.58963 132.0
316.926147 148.0
317.00412 72.0
318.107117 216.0
318.256226 72.0
318.938324 92.0
319.094727 132.0
319.138977 224.0
320.124298 1884.0
320.803558 56.0
321.12558 524.0
321.164673 192.0
321.577576 180.0
322.138153 224.0
322.827972 184.0
324.122162 196.0
325.086517 124.0
325.100708 200.0
325.108978 140.0
325.562225 60.0
326.104706 124.0
328.052002 144.0
329.145203 180.0
330.120819 124.0
331.076202 116.0
331.119659 136.0
332.138123 108.0
333.143616 128.0
334.139709 104.0
334.958801 160.0
335.188324 124.0
336.119781 696.0
337.114502 116.0
338.109711 144.0
339.124207 96.0
340.113892 932.0
340.496368 64.0
341.110352 252.0
343.123627 152.0
344.12796 176.0
344.167755 80.0
344.311768 224.0
345.387268 40.0
347.125 196.0
347.172424 104.0
347.817993 144.0
348.121399 1200.0
348.352692 36.0
349.125641 360.0
349.17041 112.0
350.115692 116.0
350.853455 60.0
351.282288 96.0
351.438995 144.0
353.073853 188.0
353.39679 52.0
355.149994 208.0
356.636841 252.0
357.140717 788.0
357.656158 44.0
358.140625 148.0
359.156403 144.0
359.740662 164.0
360.110687 160.0
360.586731 136.0
361.138733 348.0
361.721436 68.0
361.859863 176.0
361.903137 120.0
362.174164 3116.0
362.312164 84.0
362.399323 48.0
362.503204 124.0
362.549927 156.0
362.6987 112.0
362.732819 36.0
362.954803 76.0
363.17337 676.0
363.207703 180.0
363.593781 60.0
364.167328 120.0
364.622986 32.0
365.117218 84.0
365.231293 44.0
366.129517 124.0
369.048645 96.0
370.112335 32.0
372.155212 284.0
372.724426 128.0
373.158752 140.0
373.497162 44.0
374.16864 112.0
375.870331 88.0
377.334167 144.0
378.076813 136.0
380.324707 116.0
381.054779 132.0
381.513367 108.0
382.143463 128.0
383.159546 188.0
383.521942 52.0
384.48526 84.0
385.094299 96.0
387.594086 44.0
388.115387 164.0
388.327148 120.0
389.194427 120.0
389.553802 172.0
389.779663 208.0
390.078369 184.0
390.16803 5664.0
390.243866 124.0
390.304199 76.0
390.403229 140.0
390.479401 32.0
390.680023 92.0
390.880676 36.0
391.172913 1568.0
391.213379 60.0
391.345123 140.0
391.396301 80.0
391.908356 72.0
392.166351 332.0
392.688873 52.0
393.375427 168.0
393.608368 80.0
393.679443 52.0
393.718933 44.0
393.884827 140.0
394.865021 28.0
395.232941 84.0
396.765686 64.0
400.142578 156.0
400.178436 136.0
401.158447 116.0
405.266846 68.0
409.786896 48.0
410.685822 96.0
413.364319 160.0
415.897247 68.0
416.762238 104.0
416.82724 152.0
417.177673 336.0
417.876251 96.0
418.163086 1200.0
418.228943 60.0
418.560059 108.0
418.725067 100.0
419.162689 716.0
419.31369 172.0
420.172974 304.0
420.373993 64.0
423.108398 40.0
426.661133 72.0
429.180817 216.0
432.870728 64.0
435.189117 1492.0
435.30899 136.0
436.190796 436.0
436.252106 44.0
436.410095 52.0
436.439209 60.0
437.179626 172.0
437.222656 180.0
438.012299 96.0
438.195801 184.0
438.242401 172.0
438.662354 36.0
439.083466 52.0
440.013977 76.0
443.519501 64.0
449.132812 124.0
452.20871 76.0
453.776031 72.0
458.144897 156.0
465.389832 116.0
468.034149 120.0
479.300476 100.0
482.989471 108.0
487.571136 120.0
492.152374 120.0
494.304993 112.0
506.414154 40.0
517.804504 92.0
524.726929 48.0
527.619507 128.0
528.447266 88.0
530.457703 56.0
535.290955 136.0
550.860779 92.0
566.525879 88.0
567.175049 148.0
571.601318 32.0
625.798828 100.0
628.714844 56.0
646.515259 132.0
657.477051 96.0
713.184509 96.0
713.896912 20.0
732.495789 40.0
736.228088 172.0
785.432251 152.0
786.207764 32.0
793.630676 208.0
799.675171 172.0
822.072449 76.0
834.168701 108.0
838.278076 104.0
882.195312 188.0
886.593018 140.0
927.203491 188.0
951.106262 144.0
974.673096 224.0
1013.273865 108.0
1045.674805 48.0
1070.170166 228.0
1070.912476 148.0
1072.547974 124.0
1074.165039 76.0
1087.434448 204.0
1091.822998 56.0
1098.422607 176.0
1125.960938 200.0
1133.935669 112.0
1136.195312 180.0
1166.435547 240.0
1167.074585 148.0
1170.551636 64.0
1188.316162 216.0
1188.741577 144.0
1191.838379 152.0
1200.477051 200.0
1212.214844 248.0
1217.931519 236.0
1224.309082 116.0
1225.103149 140.0
1242.798096 192.0
1248.656738 172.0
1249.092773 160.0
1260.973389 140.0
1261.022827 132.0
1261.107666 172.0
1266.357544 156.0
1266.966675 168.0
1269.213379 136.0
1272.044067 172.0
1272.299683 204.0
1275.858765 120.0
1276.348511 160.0
1280.946899 164.0
1284.767822 96.0
1300.754272 92.0
1304.525513 132.0
1305.107788 180.0
1309.274292 204.0
1311.240967 164.0
1318.732544 208.0
1326.535278 216.0
1329.421997 112.0
1330.859253 96.0
1332.384399 128.0
1339.069214 196.0
1343.026733 140.0
1344.682983 104.0
1347.377441 128.0
1349.379883 132.0
1350.352417 144.0
1354.60498 116.0
1356.634888 232.0
1363.740234 160.0
1365.218018 124.0
1365.468018 76.0
1365.828369 60.0
1367.447144 172.0
1370.400024 156.0
1375.75415 180.0
1379.440308 108.0
1380.719482 148.0
1388.006226 100.0
1396.762207 168.0
1404.449097 124.0
1407.411743 208.0
1408.830811 108.0
1409.592896 172.0
1411.020386 160.0
1411.723267 160.0
1412.246826 192.0
1414.790894 100.0
1414.903198 192.0
1416.685547 216.0
1420.861206 160.0
1423.135254 92.0
1425.07312 184.0
1425.734375 156.0
1428.200317 96.0
1429.554565 132.0
1438.878296 176.0
1443.033569 108.0
1446.437744 84.0
1451.513672 228.0
1452.932007 36.0
1461.220581 208.0
1467.618286 52.0
1471.265137 208.0
1472.471558 176.0
1475.657959 176.0
1481.144897 204.0
1485.353027 176.0
1487.693481 220.0
1489.313721 188.0
1490.181763 128.0
1495.110718 224.0
1496.642456 160.0
1499.284668 180.0
1499.400269 196.0
1501.327515 160.0
1502.723755 116.0
1503.541626 196.0
