>compound MLS002153145-01!WAY-100635 maleate salt
>formula C25H34N4O2
>ionization [M+H]+
>parentmass 423.274719
#inchi InChI=1S/C25H34N4O2/c1-31-23-12-6-5-11-22(23)28-18-15-27(16-19-28)17-20-29(24-13-7-8-14-26-24)25(30)21-9-3-2-4-10-21/h5-8,11-14,21H,2-4,9-10,15-20H2,1H3
#inchikey SBPRIAGPYFYCRT
#origInchi InChI=1S/C25H34N4O2.C4H4O4/c1-31-23-12-6-5-11-22(23)28-18-15-27(16-19-28)17-20-29(24-13-7-8-14-26-24)25(30)21-9-3-2-4-10-21;5-3(6)1-2-4(7)8/h5-8,11-14,21H,2-4,9-10,15-20H2,1H3;1-2H,(H,5,6)(H,7,8)/p-2/b;2-1-
#Ion_Source LC-ESI
#Instrument qTof
#Compound_Source NIH Pharmacologically Active Library
#PI Dorrestein
#Data_Collector VP/LMS
#Scan -1
#Precursor_MZ 423.279
#ExactMass 422.268
#Charge 1
#CAS_Number N/A
#Pubmed_ID N/A
#Smiles COc1ccccc1N2CCN(CCN(C(=O)C3CCCCC3)c4ccccn4)CC2.[O-]C(=O)/C=C\C(=O)[O-]
#INCHI_AUX N/A
#Library_Class 1
#SpectrumID CCMSLIB00000085425
#IonMode Positive
#UpdateWorkflowName UPDATE-SINGLE-ANNOTATED-GOLD
#LibraryQualityString Gold
#TaskID d252d724072548979f1f6f1ced849daf
##Scan# 1795
#SpectrumFile p4-A08_GA8_01_18332.mzXML
#LibraryName Pharm_Active_Library.mgf
#MQScore -1
#Organism Pharm_Active_Library
#TIC_Query 0
#RT_Query -1
#MZErrorPPM -1
#SharedPeaks 0
#MassDiff 0
#LibMZ -1
#SpecMZ 423.279
#SpecCharge 0
#internalFilename spec-00000.mgf

>collision 10
44.913765 128.0
44.927189 104.0
44.953079 188.0
45.019283 92.0
45.03442 192.0
45.051342 160.0
45.070427 336.0
45.092602 164.0
45.122169 108.0
45.138851 176.0
45.148277 232.0
45.164124 140.0
45.197071 216.0
45.20821 248.0
45.232742 104.0
45.264725 256.0
45.275902 188.0
45.30418 120.0
45.322277 108.0
45.333313 188.0
45.345718 92.0
45.35778 140.0
45.371937 364.0
45.404709 144.0
45.419502 184.0
45.457832 148.0
45.4659 320.0
45.488018 220.0
45.499977 92.0
45.512062 104.0
45.522804 136.0
45.540989 180.0
45.569817 236.0
45.59964 164.0
45.62492 304.0
45.63702 128.0
45.653339 116.0
45.676018 48.0
45.686779 100.0
45.724968 232.0
45.752399 100.0
45.801201 144.0
45.822754 192.0
45.837578 68.0
45.84956 148.0
45.882164 244.0
45.894745 204.0
45.91367 152.0
45.923141 128.0
45.934616 160.0
45.958931 148.0
45.968376 140.0
45.987881 328.0
46.020237 172.0
46.029789 372.0
46.052078 204.0
46.070992 96.0
46.111526 132.0
46.131008 132.0
46.148026 180.0
46.178337 204.0
46.189949 140.0
46.215023 92.0
46.22839 184.0
46.241364 144.0
46.253548 112.0
46.273689 164.0
46.302288 96.0
46.349701 92.0
46.370029 340.0
46.383759 156.0
46.416283 168.0
46.437752 160.0
46.450832 324.0
46.471699 156.0
46.515839 168.0
46.537918 168.0
46.542809 264.0
46.559967 164.0
46.572189 52.0
46.602077 208.0
46.619743 108.0
46.641487 36.0
46.670952 244.0
46.694267 284.0
46.710835 184.0
46.732601 164.0
46.746208 152.0
46.79039 200.0
46.847027 172.0
46.859222 156.0
46.89854 188.0
46.912357 224.0
46.924618 200.0
46.940056 176.0
46.958733 180.0
46.975101 176.0
47.007236 188.0
47.012272 248.0
47.046062 64.0
47.061523 160.0
47.075958 176.0
47.131077 160.0
47.141674 40.0
47.16354 80.0
47.179943 380.0
47.205101 120.0
47.238747 216.0
47.266804 124.0
47.291496 80.0
47.304176 152.0
47.31675 104.0
47.332748 152.0
47.373848 104.0
47.390709 164.0
47.409893 52.0
47.42223 60.0
47.434563 128.0
47.453274 216.0
47.471584 96.0
47.489975 68.0
47.523708 168.0
47.551151 152.0
47.57016 316.0
47.597553 180.0
47.622051 188.0
47.646759 160.0
47.678875 104.0
47.688496 96.0
47.705967 152.0
47.709576 108.0
47.72974 128.0
47.757244 212.0
47.766872 152.0
47.783379 188.0
47.799618 100.0
47.82254 192.0
47.837929 88.0
47.863209 48.0
47.890755 136.0
47.937382 156.0
47.967915 140.0
47.980324 328.0
48.028587 160.0
48.042652 192.0
48.060318 176.0
48.085155 148.0
48.126568 164.0
48.146194 188.0
48.155907 148.0
48.169144 184.0
48.172474 152.0
48.182201 200.0
48.210041 172.0
48.226032 136.0
48.241238 152.0
48.263653 132.0
48.309856 208.0
48.3256 128.0
48.352615 176.0
48.377861 200.0
48.403114 180.0
48.415577 164.0
48.426739 132.0
48.441891 380.0
48.455746 36.0
48.46756 160.0
48.484844 136.0
48.501385 168.0
48.517014 96.0
48.531975 136.0
48.565197 184.0
48.584679 84.0
48.602715 136.0
48.616695 160.0
48.63047 124.0
48.651291 176.0
48.668056 144.0
48.687393 172.0
48.724895 152.0
48.777412 152.0
48.811897 168.0
48.835125 148.0
48.87923 204.0
48.890362 176.0
48.917557 320.0
48.937511 156.0
48.960182 132.0
48.972504 168.0
49.014297 104.0
49.028599 168.0
49.050533 160.0
49.077023 176.0
49.113281 72.0
49.136993 108.0
49.152344 140.0
49.183456 144.0
49.201843 180.0
49.220741 188.0
49.231911 112.0
49.251465 176.0
49.261059 96.0
49.286388 180.0
49.332077 244.0
49.335541 168.0
49.34203 104.0
49.353985 100.0
49.363518 112.0
49.389843 180.0
49.410824 152.0
49.42202 92.0
49.437412 116.0
49.447395 412.0
49.483601 196.0
49.493958 164.0
49.503204 168.0
49.554607 132.0
49.579788 132.0
49.61179 152.0
49.640533 92.0
49.650352 180.0
49.666553 116.0
49.690308 264.0
49.713387 156.0
49.744358 208.0
49.776649 68.0
49.819618 236.0
49.845589 248.0
49.873585 252.0
49.886238 72.0
49.907188 320.0
49.955429 196.0
49.979061 108.0
50.008614 132.0
50.045216 160.0
50.058128 232.0
50.078094 252.0
50.09169 136.0
50.102837 140.0
50.121273 200.0
50.144459 212.0
50.166931 132.0
50.183292 188.0
50.193161 128.0
50.203033 136.0
50.212906 168.0
50.22842 92.0
50.238293 228.0
50.259457 96.0
50.289093 200.0
50.305378 304.0
50.322853 128.0
50.344704 280.0
50.363117 236.0
50.41552 216.0
50.430332 88.0
50.448204 112.0
50.46426 160.0
50.514042 172.0
50.530735 540.0
50.592945 92.0
50.608932 160.0
50.642567 108.0
50.658146 140.0
50.680241 152.0
50.700653 212.0
50.720497 196.0
50.735558 96.0
50.750267 140.0
50.818348 100.0
50.841053 104.0
50.856163 204.0
50.885056 236.0
50.902454 188.0
50.916294 180.0
50.979454 188.0
51.01149 208.0
51.029972 116.0
51.041348 132.0
51.093971 168.0
51.109623 64.0
51.133816 176.0
51.149471 168.0
51.181793 132.0
51.203407 100.0
51.207333 88.0
51.211319 156.0
51.242226 120.0
51.266624 220.0
51.324703 248.0
51.352386 188.0
51.37952 176.0
51.403721 172.0
51.447308 120.0
51.463108 168.0
51.500237 132.0
51.513092 164.0
51.543095 520.0
51.561672 164.0
51.581684 136.0
51.623932 128.0
51.657471 56.0
51.669167 148.0
51.685818 128.0
51.700394 180.0
51.729019 76.0
51.750458 156.0
51.802925 164.0
51.830154 188.0
51.850719 120.0
51.853733 116.0
51.859726 128.0
51.887478 180.0
51.910976 124.0
51.922451 372.0
52.007099 168.0
52.019756 348.0
52.032017 260.0
52.081741 140.0
52.095295 124.0
52.131451 184.0
52.153389 160.0
52.173264 172.0
52.193859 164.0
52.213993 160.0
52.238445 116.0
52.254864 184.0
52.273991 164.0
52.333801 200.0
52.355026 176.0
52.383835 128.0
52.398239 36.0
52.409767 160.0
52.434265 152.0
52.451561 152.0
52.464535 144.0
52.532578 152.0
52.561169 160.0
52.573174 100.0
52.578648 176.0
52.59869 160.0
52.642002 160.0
52.660812 172.0
52.673779 92.0
52.685333 116.0
52.712132 212.0
52.736134 196.0
52.768192 168.0
52.796631 268.0
52.81525 284.0
52.836788 220.0
52.856663 136.0
52.872505 188.0
52.887779 136.0
52.90295 108.0
52.921074 164.0
52.952934 144.0
52.977558 204.0
53.005085 332.0
53.032333 152.0
53.065964 148.0
53.090897 224.0
53.106567 188.0
53.121071 272.0
53.14362 200.0
53.157341 304.0
53.168861 128.0
53.205238 312.0
53.225124 144.0
53.227444 204.0
53.253742 160.0
53.270588 200.0
53.291908 184.0
53.336533 176.0
53.354877 200.0
53.367886 156.0
53.386864 164.0
53.418232 332.0
53.431957 216.0
53.469475 112.0
53.477489 124.0
53.50909 100.0
53.526562 108.0
53.553894 172.0
53.564915 224.0
53.584824 92.0
53.606964 184.0
53.621254 80.0
53.644573 136.0
53.664917 168.0
53.683723 116.0
53.749119 188.0
53.758492 180.0
53.797749 132.0
53.845932 80.0
53.8699 148.0
53.892612 248.0
53.923367 132.0
53.940907 80.0
53.951138 132.0
53.984768 152.0
54.007679 144.0
54.019871 212.0
54.03957 180.0
54.050594 176.0
54.074921 208.0
54.097145 212.0
54.113529 36.0
54.125244 164.0
54.148674 56.0
54.169239 196.0
54.193699 224.0
54.210442 272.0
54.223392 276.0
54.238678 112.0
54.280704 184.0
54.30843 68.0
54.331902 104.0
54.350975 108.0
54.374454 112.0
54.390549 116.0
54.424366 88.0
54.444199 204.0
54.471939 284.0
54.489594 68.0
54.503681 180.0
54.530586 156.0
54.585999 200.0
54.60767 348.0
54.62714 152.0
54.649246 72.0
54.66396 176.0
54.699909 244.0
54.731674 296.0
54.765583 144.0
54.783058 144.0
54.78664 212.0
54.8009 56.0
54.822037 152.0
54.841 132.0
54.853088 308.0
54.871296 320.0
54.896709 192.0
54.923256 84.0
54.933582 44.0
54.980755 140.0
54.992603 164.0
55.030678 132.0
55.044273 156.0
55.088581 220.0
55.099072 160.0
55.116364 132.0
55.143253 236.0
55.153599 260.0
55.174675 156.0
55.189713 96.0
55.212742 224.0
55.255638 140.0
55.267471 388.0
55.292629 136.0
55.314831 104.0
55.335052 140.0
55.354805 144.0
55.378502 164.0
55.400719 144.0
55.414368 132.0
55.427601 176.0
55.442207 148.0
55.484291 112.0
55.507656 132.0
55.522343 144.0
55.53828 80.0
55.55793 240.0
55.573246 140.0
55.605824 160.0
55.623154 148.0
55.648903 116.0
55.663239 96.0
55.67627 212.0
55.686802 400.0
55.708694 152.0
55.728596 140.0
55.756359 164.0
55.768719 196.0
55.789528 168.0
55.805882 140.0
55.839504 156.0
55.855019 164.0
55.893639 168.0
55.904819 148.0
55.92638 204.0
55.936798 148.0
55.94722 296.0
55.959129 208.0
55.981159 136.0
55.994869 112.0
56.012684 200.0
56.039558 300.0
56.051479 48.0
56.079266 192.0
56.089066 196.0
56.1077 104.0
56.123287 160.0
56.147903 316.0
56.155666 108.0
56.159424 276.0
56.175674 264.0
56.19014 188.0
56.223915 120.0
56.245064 184.0
56.281593 160.0
56.30191 160.0
56.321758 196.0
56.334953 124.0
56.363949 176.0
56.377785 180.0
56.396217 152.0
56.426113 56.0
56.459011 160.0
56.491982 180.0
56.508369 176.0
56.52457 92.0
56.544907 164.0
56.565784 88.0
56.583202 176.0
56.661079 120.0
56.685055 120.0
56.709633 168.0
56.725521 92.0
56.743511 112.0
56.761501 120.0
56.778 184.0
56.809498 96.0
56.8335 68.0
56.850006 52.0
56.88903 188.0
56.902359 132.0
56.925064 120.0
56.938614 192.0
56.956604 188.0
56.974632 96.0
57.000172 392.0
57.010693 128.0
57.02422 76.0
57.042255 192.0
57.081963 204.0
57.094681 152.0
57.116611 160.0
57.127045 176.0
57.152042 172.0
57.210339 264.0
57.239342 128.0
57.264946 212.0
57.284527 128.0
57.301098 192.0
57.320686 160.0
57.338768 168.0
57.379623 156.0
57.399563 196.0
57.439896 168.0
57.455929 200.0
57.480385 132.0
57.521275 112.0
57.546772 184.0
57.566566 68.0
57.578178 188.0
57.596268 192.0
57.623966 88.0
57.691971 68.0
57.716747 480.0
57.752338 152.0
57.7575 256.0
57.769592 208.0
57.7812 164.0
57.796329 140.0
57.810406 172.0
57.833675 260.0
57.858383 172.0
57.877991 496.0
57.888256 148.0
57.893795 248.0
57.919144 260.0
57.930149 164.0
57.960114 164.0
57.98584 180.0
58.001839 132.0
58.031273 144.0
58.071384 152.0
58.097031 196.0
58.153023 160.0
58.169151 156.0
58.193516 160.0
58.212074 148.0
58.222591 244.0
58.233742 104.0
58.255707 92.0
58.298252 60.0
58.316986 404.0
58.336563 136.0
58.351452 176.0
58.366657 172.0
58.389465 144.0
58.402058 172.0
58.422928 372.0
58.441185 168.0
58.458855 144.0
58.472355 176.0
58.48436 108.0
58.491104 40.0
58.495365 100.0
58.51881 236.0
58.550602 132.0
58.578659 160.0
58.590389 100.0
58.604103 152.0
58.662949 176.0
58.686409 128.0
58.721481 216.0
58.743374 68.0
58.762669 32.0
58.774281 216.0
58.790871 224.0
58.816135 164.0
58.849422 152.0
58.87104 124.0
58.894352 152.0
58.916065 252.0
58.931904 172.0
58.959034 220.0
58.980511 160.0
58.997681 272.0
59.019264 116.0
59.044598 300.0
59.066673 112.0
59.101334 368.0
59.120438 180.0
59.135143 48.0
59.160019 136.0
59.176292 108.0
59.207195 276.0
59.230457 96.0
59.26263 156.0
59.284081 152.0
59.309471 212.0
59.320866 140.0
59.341721 212.0
59.383881 168.0
59.400166 168.0
59.422081 36.0
59.441292 168.0
59.459171 412.0
59.479588 188.0
59.504959 124.0
59.516918 132.0
59.556343 104.0
59.570995 164.0
59.581749 180.0
59.62785 252.0
59.642448 152.0
59.653961 252.0
59.682209 232.0
59.701996 280.0
59.724712 124.0
59.757015 32.0
59.77702 212.0
59.787792 208.0
59.816505 140.0
59.86557 168.0
59.886326 156.0
59.89975 344.0
59.917606 328.0
59.955654 56.0
60.000816 160.0
60.024143 112.0
60.053402 168.0
60.069752 104.0
60.086845 196.0
60.126747 136.0
60.145008 148.0
60.156166 264.0
60.1702 220.0
60.185093 76.0
60.196308 192.0
60.207119 192.0
60.222561 136.0
60.245731 256.0
60.262726 148.0
60.285904 176.0
60.307541 144.0
60.321453 92.0
60.349281 224.0
60.377113 168.0
60.393448 300.0
60.42197 120.0
60.436565 176.0
60.465565 208.0
60.495529 168.0
60.51989 196.0
60.540962 212.0
60.570583 96.0
60.585522 236.0
60.592068 152.0
60.59428 216.0
60.607765 116.0
60.649609 136.0
60.662926 108.0
60.699219 200.0
60.725174 152.0
60.7299 112.0
60.735275 128.0
60.757675 168.0
60.783619 156.0
60.804344 172.0
60.825829 168.0
60.844265 256.0
60.860592 156.0
60.885437 124.0
60.91737 136.0
60.935863 224.0
60.962498 132.0
60.975544 88.0
60.990829 216.0
61.014404 116.0
61.048767 324.0
61.06572 224.0
61.082829 176.0
61.101067 160.0
61.127949 40.0
61.201107 156.0
61.213562 204.0
61.23848 164.0
61.263401 128.0
61.283657 116.0
61.330406 220.0
61.342972 196.0
61.403065 184.0
61.438492 220.0
61.467648 100.0
61.49118 152.0
61.544132 160.0
61.560005 336.0
61.586594 152.0
61.618217 92.0
61.625805 124.0
61.644836 212.0
61.664799 164.0
61.676922 112.0
61.694115 164.0
61.708969 184.0
61.729595 324.0
61.748158 164.0
61.772305 192.0
61.787949 104.0
61.799885 172.0
61.837528 164.0
61.847641 192.0
61.908302 184.0
61.934845 148.0
61.950912 168.0
61.965809 208.0
61.997768 152.0
62.013607 172.0
62.033775 160.0
62.085663 176.0
62.104378 136.0
62.123199 96.0
62.137321 132.0
62.149872 104.0
62.181854 84.0
62.197811 168.0
62.228146 212.0
62.259754 144.0
62.278145 152.0
62.295273 176.0
62.308296 168.0
62.314278 152.0
62.345512 156.0
62.357159 112.0
62.390331 192.0
62.410606 92.0
62.421616 176.0
62.437458 160.0
62.461346 168.0
62.481949 156.0
62.49284 156.0
62.509449 108.0
62.528179 164.0
62.580166 168.0
62.610455 188.0
62.626102 188.0
62.650803 156.0
62.675461 120.0
62.730686 260.0
62.744389 112.0
62.775013 120.0
62.789215 224.0
62.795639 96.0
62.809353 204.0
62.840954 176.0
62.870575 184.0
62.910477 172.0
62.944771 124.0
62.971195 180.0
62.976307 132.0
62.981297 172.0
63.015846 148.0
63.032246 148.0
63.061672 100.0
63.109097 160.0
63.125534 152.0
63.136665 156.0
63.154961 208.0
63.166031 184.0
63.183434 76.0
63.228252 184.0
63.254646 308.0
63.265724 360.0
63.292641 436.0
63.313229 132.0
63.338787 144.0
63.35355 140.0
63.395115 204.0
63.427162 136.0
63.461346 160.0
63.478035 52.0
63.499359 204.0
63.525597 316.0
63.546242 236.0
63.586933 224.0
63.612896 188.0
63.63512 304.0
63.646233 116.0
63.67268 136.0
63.700668 148.0
63.738361 36.0
63.755104 112.0
63.786041 136.0
63.813721 184.0
63.823383 188.0
63.848083 176.0
63.887814 124.0
63.926197 96.0
63.938728 112.0
63.975986 152.0
63.998749 108.0
64.002838 148.0
64.019958 164.0
64.039032 176.0
64.064423 132.0
64.087959 196.0
64.113914 164.0
64.147385 132.0
64.177673 192.0
64.219048 112.0
64.245377 408.0
64.258125 100.0
64.279762 60.0
64.319656 136.0
64.330833 80.0
64.34201 328.0
64.367256 260.0
64.381927 92.0
64.435509 440.0
64.458252 184.0
64.472984 192.0
64.486488 220.0
64.516823 124.0
64.552917 108.0
64.582932 52.0
64.613335 196.0
64.643906 164.0
64.717484 104.0
64.719666 132.0
64.736946 156.0
64.751358 124.0
64.783333 116.0
64.819427 260.0
64.86512 128.0
64.876335 144.0
64.905197 144.0
64.924019 440.0
64.943687 68.0
64.95652 180.0
64.972557 108.0
65.028496 372.0
65.039955 76.0
65.056503 204.0
65.108406 372.0
65.155197 204.0
65.182846 152.0
65.202171 124.0
65.22789 120.0
65.244469 140.0
65.260002 144.0
65.285721 136.0
65.325623 160.0
65.359009 296.0
65.374252 44.0
65.388733 144.0
65.403221 192.0
65.41436 184.0
65.43203 152.0
65.44664 132.0
65.478889 112.0
65.514328 148.0
65.538956 84.0
65.573471 184.0
65.586334 140.0
65.602959 156.0
65.636383 176.0
65.652946 160.0
65.664932 200.0
65.677589 184.0
65.694878 208.0
65.709938 180.0
65.742943 176.0
65.76265 112.0
65.778496 196.0
65.838531 140.0
65.870255 144.0
65.889687 284.0
65.90638 148.0
65.931557 140.0
65.943542 188.0
65.956474 296.0
65.971474 144.0
65.986938 180.0
65.999619 408.0
66.014679 192.0
66.043793 172.0
66.074524 156.0
66.087601 100.0
66.107498 200.0
66.132072 184.0
66.145683 132.0
66.174591 236.0
66.200775 116.0
66.234634 336.0
66.258919 188.0
66.261864 168.0
66.268852 140.0
66.272766 172.0
66.299599 120.0
66.319046 104.0
66.338493 152.0
66.353958 148.0
66.364433 252.0
66.388489 120.0
66.403351 200.0
66.414711 212.0
66.425148 144.0
66.45224 240.0
66.487717 168.0
66.509605 156.0
66.529404 188.0
66.583504 240.0
66.594872 180.0
66.605339 136.0
66.637108 140.0
66.671509 228.0
66.68261 248.0
66.69561 180.0
66.706985 208.0
66.724869 96.0
66.765984 168.0
66.785263 232.0
66.812119 364.0
66.828957 68.0
66.851006 240.0
66.857361 132.0
66.861855 168.0
66.900566 112.0
66.933701 148.0
66.939995 188.0
66.96006 400.0
67.010513 188.0
67.034256 152.0
67.066338 136.0
67.096062 124.0
67.117256 132.0
67.143585 84.0
67.163719 180.0
67.179558 260.0
67.194504 156.0
67.209503 164.0
67.224915 68.0
67.238991 180.0
67.263184 188.0
67.308762 164.0
67.328506 132.0
67.345367 132.0
67.363693 148.0
67.380035 204.0
67.414757 48.0
67.440498 172.0
67.465012 208.0
67.481361 120.0
67.493721 136.0
67.550049 304.0
67.588203 188.0
67.607162 176.0
67.638359 236.0
67.647728 116.0
67.653473 200.0
67.67881 124.0
67.716721 184.0
67.771065 164.0
67.782532 308.0
67.815025 160.0
67.841286 184.0
67.863983 144.0
67.913681 128.0
67.952087 68.0
67.995117 196.0
67.999588 248.0
68.032249 256.0
68.04422 204.0
68.078621 152.0
68.091385 172.0
68.109009 144.0
68.127075 136.0
68.150826 176.0
68.187874 108.0
68.225677 228.0
68.238831 140.0
68.280952 156.0
68.300774 180.0
68.335869 104.0
68.357391 148.0
68.379189 136.0
68.396759 184.0
68.421448 96.0
68.43956 140.0
68.45932 128.0
68.479088 180.0
68.51432 112.0
68.531799 208.0
68.557243 172.0
68.578621 204.0
68.600395 180.0
68.618637 128.0
68.636055 144.0
68.653778 200.0
68.690338 188.0
68.729301 112.0
68.75441 124.0
68.78154 184.0
68.802124 256.0
68.815483 244.0
68.827042 80.0
68.9086 360.0
68.941071 132.0
68.959984 144.0
68.983597 216.0
68.997223 196.0
69.016579 164.0
69.032959 208.0
69.050842 244.0
69.074944 180.0
69.09333 244.0
69.119995 192.0
69.137817 224.0
69.16153 256.0
69.196442 192.0
69.226158 176.0
69.247086 152.0
69.267563 288.0
69.288673 112.0
69.311691 120.0
69.323296 112.0
69.336128 188.0
69.363068 60.0
69.417778 176.0
69.445976 128.0
69.458832 112.0
69.464142 84.0
69.475395 168.0
69.524872 180.0
69.538139 204.0
69.544518 112.0
69.580093 184.0
69.596985 176.0
69.610275 84.0
69.640129 192.0
69.661911 176.0
69.708244 196.0
69.71312 188.0
69.734871 64.0
69.756477 44.0
69.77507 176.0
69.804771 188.0
69.81913 204.0
69.837952 128.0
69.906433 148.0
69.959389 192.0
69.983551 104.0
70.010719 208.0
70.051018 288.0
70.069344 148.0
70.086098 136.0
70.105995 168.0
70.123566 200.0
70.130013 108.0
70.133003 136.0
70.155998 180.0
70.208115 328.0
70.228188 160.0
70.249763 176.0
70.267738 232.0
70.311935 216.0
70.34343 180.0
70.381233 236.0
70.408707 204.0
70.435196 148.0
70.462067 232.0
70.486465 172.0
70.503174 204.0
70.525414 180.0
70.553322 156.0
70.5784 152.0
70.66613 132.0
70.692146 240.0
70.718925 312.0
70.739563 348.0
70.760612 196.0
70.789429 208.0
70.806862 136.0
70.834373 240.0
70.866287 56.0
70.88604 152.0
70.891815 120.0
70.919914 128.0
70.945549 136.0
70.96788 300.0
71.059097 176.0
71.082924 180.0
71.106079 168.0
71.156029 168.0
71.179947 72.0
71.213188 180.0
71.252823 252.0
71.271233 264.0
71.28241 300.0
71.303207 128.0
71.316154 312.0
71.335579 196.0
71.360245 184.0
71.400085 224.0
71.431725 168.0
71.434151 164.0
71.465691 120.0
71.47747 112.0
71.507599 164.0
71.520538 360.0
71.533012 188.0
71.562088 264.0
71.583519 64.0
71.602043 40.0
71.635727 188.0
71.659187 104.0
71.682137 236.0
71.720863 196.0
71.760437 104.0
71.812714 120.0
71.82621 140.0
71.83802 180.0
71.871758 184.0
71.904343 116.0
71.942642 144.0
71.962471 140.0
71.973663 136.0
72.020317 212.0
72.044182 160.0
72.069489 344.0
72.085426 112.0
72.101418 204.0
72.131844 132.0
72.157196 48.0
72.221458 172.0
72.24514 144.0
72.294205 56.0
72.323746 88.0
72.352692 184.0
72.390701 172.0
72.421181 100.0
72.441513 128.0
72.454819 192.0
72.472061 124.0
72.511909 168.0
72.535782 120.0
72.549965 104.0
72.57122 188.0
72.597443 140.0
72.629662 188.0
72.655113 216.0
72.681694 240.0
72.703888 360.0
72.734863 192.0
72.76033 124.0
72.801079 128.0
72.835571 156.0
72.850792 208.0
72.854904 128.0
72.861496 416.0
72.898598 148.0
72.915565 168.0
72.930199 172.0
72.961411 156.0
72.991402 104.0
73.009277 148.0
73.032364 180.0
73.051445 264.0
73.06794 124.0
73.091019 160.0
73.125023 144.0
73.136009 180.0
73.15303 176.0
73.166954 188.0
73.180267 192.0
73.196251 196.0
73.214462 604.0
73.2425 192.0
73.257965 204.0
73.297493 156.0
73.333961 148.0
73.348839 80.0
73.376198 156.0
73.411293 124.0
73.429062 124.0
73.457397 216.0
73.478416 120.0
73.49559 160.0
73.510902 160.0
73.534843 92.0
73.553101 264.0
73.568832 144.0
73.593437 268.0
73.615776 144.0
73.649193 156.0
73.664612 96.0
73.685112 180.0
73.697395 520.0
73.729538 60.0
73.74321 116.0
73.762009 92.0
73.804901 92.0
73.832108 144.0
73.844971 308.0
73.883789 168.0
73.906631 312.0
73.950157 176.0
73.983109 164.0
74.004936 184.0
74.016922 116.0
74.038811 164.0
74.059738 40.0
74.119698 76.0
74.146217 244.0
74.171112 120.0
74.185303 372.0
74.204399 172.0
74.220825 220.0
74.251694 136.0
74.285713 240.0
74.300598 188.0
74.340004 168.0
74.351547 160.0
74.377632 100.0
74.422966 208.0
74.427361 328.0
74.450775 76.0
74.49543 140.0
74.509171 136.0
74.534943 88.0
74.552475 220.0
74.573067 348.0
74.614006 176.0
74.676239 104.0
74.706871 80.0
74.757713 168.0
74.786026 72.0
74.809174 152.0
74.827339 132.0
74.841118 232.0
74.887321 120.0
74.91523 124.0
74.949631 100.0
74.963417 128.0
75.003639 164.0
75.026382 172.0
75.078285 284.0
75.098778 108.0
75.11441 260.0
75.125725 172.0
75.158264 136.0
75.17897 152.0
75.19278 136.0
75.213486 120.0
75.250206 324.0
75.294968 168.0
75.31324 192.0
75.320358 148.0
75.326004 176.0
75.342545 152.0
75.378746 180.0
75.399689 144.0
75.42495 228.0
75.445602 228.0
75.490967 92.0
75.502258 192.0
75.541801 108.0
75.576729 128.0
75.604332 320.0
75.617935 160.0
75.649094 200.0
75.669868 128.0
75.685448 148.0
75.701996 160.0
75.716621 156.0
75.756912 168.0
75.797035 216.0
75.821953 140.0
75.838783 212.0
75.869003 144.0
75.895149 164.0
75.912254 156.0
75.936729 112.0
75.964478 196.0
75.990501 176.0
76.021034 148.0
76.040825 188.0
76.063393 128.0
76.099457 132.0
76.127213 200.0
76.140587 144.0
76.15889 172.0
76.199966 168.0
76.216644 148.0
76.244019 148.0
76.28035 164.0
76.299644 112.0
76.333626 168.0
76.346588 188.0
76.367462 200.0
76.402771 80.0
76.416168 244.0
76.442589 196.0
76.457726 172.0
76.490738 240.0
76.513634 172.0
76.529297 148.0
76.568527 228.0
76.583244 212.0
76.600189 176.0
76.613106 132.0
76.653839 148.0
76.666626 188.0
76.677147 184.0
76.720978 204.0
76.735237 176.0
76.756454 120.0
76.782082 128.0
76.807213 124.0
76.848297 172.0
76.869194 128.0
76.916084 148.0
76.930283 116.0
76.979347 120.0
76.991577 408.0
77.004471 140.0
77.047287 76.0
77.07 96.0
77.090973 152.0
77.114609 116.0
77.187111 216.0
77.20285 136.0
77.215096 204.0
77.229088 152.0
77.244827 124.0
77.284966 160.0
77.313065 212.0
77.336349 228.0
77.37677 212.0
77.398842 276.0
77.418098 144.0
77.441879 152.0
77.509193 172.0
77.527725 132.0
77.554756 100.0
77.57579 68.0
77.600708 112.0
77.620323 232.0
77.649429 104.0
77.665215 116.0
77.684593 168.0
77.702057 200.0
77.733643 140.0
77.75119 148.0
77.777512 152.0
77.79525 116.0
77.833694 220.0
77.87233 136.0
77.900429 136.0
77.95121 120.0
77.9795 136.0
77.997879 360.0
78.018654 116.0
78.04541 124.0
78.058609 48.0
78.097565 132.0
78.152824 192.0
78.17823 160.0
78.207161 328.0
78.225754 164.0
78.245766 76.0
78.278572 176.0
78.290901 176.0
78.304985 128.0
78.351807 176.0
78.364326 152.0
78.386986 140.0
78.408936 52.0
78.428322 168.0
78.470589 188.0
78.500603 152.0
78.516472 120.0
78.534065 152.0
78.538734 148.0
78.587036 148.0
78.606445 160.0
78.620369 152.0
78.632126 204.0
78.720345 152.0
78.740608 376.0
78.761124 104.0
78.791962 172.0
78.818336 216.0
78.832474 160.0
78.854416 164.0
78.878426 108.0
78.8908 80.0
78.924347 144.0
78.948921 184.0
78.95507 160.0
78.981812 180.0
79.009285 448.0
79.041138 360.0
79.056862 184.0
79.125755 148.0
79.140259 220.0
79.161507 192.0
79.177444 148.0
79.207886 64.0
79.236389 400.0
79.255386 324.0
79.276649 212.0
79.297913 212.0
79.314232 176.0
79.331596 108.0
79.344002 132.0
79.369743 112.0
79.383011 128.0
79.399719 284.0
79.413162 76.0
79.441544 152.0
79.46283 156.0
79.480957 148.0
79.521385 120.0
79.556892 128.0
79.576546 168.0
79.595947 160.0
79.631813 224.0
79.648506 108.0
79.666992 84.0
79.705841 152.0
79.712975 176.0
79.717972 196.0
79.73243 164.0
79.801567 304.0
79.814972 176.0
79.838547 208.0
79.871414 76.0
79.912369 184.0
79.9356 104.0
79.967178 224.0
80.001541 156.0
80.04583 180.0
80.0672 136.0
80.095734 168.0
80.116478 120.0
80.135056 172.0
80.152702 132.0
80.182999 76.0
80.197258 144.0
80.220146 248.0
80.245331 128.0
80.247917 124.0
80.25486 180.0
80.279266 116.0
80.291748 204.0
80.352165 156.0
80.354912 156.0
80.37484 104.0
80.38578 208.0
80.399574 372.0
80.427345 152.0
80.441628 180.0
80.455856 256.0
80.512062 196.0
80.541618 84.0
80.568069 164.0
80.607727 280.0
80.656334 220.0
80.682114 136.0
80.701256 160.0
80.716766 112.0
80.755096 276.0
80.773247 164.0
80.792831 160.0
80.822296 136.0
80.859879 144.0
80.888374 308.0
80.890968 172.0
80.92762 328.0
80.956551 172.0
80.97757 268.0
81.017448 112.0
81.047783 236.0
81.087105 128.0
81.0942 104.0
81.099541 148.0
81.117218 172.0
81.127991 368.0
81.144691 56.0
81.171585 228.0
81.201286 100.0
81.21463 124.0
81.248024 156.0
81.268265 196.0
81.305946 156.0
81.336639 176.0
81.358185 148.0
81.383232 264.0
81.42202 312.0
81.440781 192.0
81.45623 200.0
81.471992 192.0
81.487488 108.0
81.518036 148.0
81.536926 180.0
81.554657 124.0
81.584404 164.0
81.60611 88.0
81.621475 152.0
81.637901 124.0
81.646233 180.0
81.684219 212.0
81.706345 208.0
81.730217 448.0
81.742813 164.0
81.764458 164.0
81.78241 136.0
81.815559 140.0
81.833855 152.0
81.852615 164.0
81.882004 176.0
81.939072 32.0
81.956573 200.0
81.989525 128.0
82.002144 44.0
82.037018 148.0
82.050812 112.0
82.095238 244.0
82.137367 184.0
82.158051 164.0
82.185387 204.0
82.216759 192.0
82.230576 244.0
82.257568 192.0
82.295609 160.0
82.330574 144.0
82.37912 52.0
82.389374 120.0
82.400932 180.0
82.413025 156.0
82.45665 72.0
82.485168 164.0
82.521645 188.0
82.557671 280.0
82.572693 132.0
82.605682 196.0
82.634399 236.0
82.652252 160.0
82.717407 188.0
82.735649 160.0
82.788803 240.0
82.827866 152.0
82.840546 128.0
82.860268 128.0
82.885559 104.0
82.906822 172.0
82.95369 164.0
82.974648 120.0
82.996361 128.0
83.038803 164.0
83.077209 288.0
83.101608 48.0
83.11554 212.0
83.136078 152.0
83.153465 180.0
83.166931 360.0
83.196068 156.0
83.258469 96.0
83.283089 172.0
83.308571 48.0
83.339363 160.0
83.372162 172.0
83.40509 116.0
83.438301 280.0
83.452141 148.0
83.477913 164.0
83.505943 192.0
83.520554 84.0
83.535797 232.0
83.555809 168.0
83.574005 96.0
83.63665 132.0
83.661362 152.0
83.67411 208.0
83.696083 172.0
83.723274 132.0
83.742752 148.0
83.764122 128.0
83.792229 192.0
83.816177 108.0
83.83622 136.0
83.87085 144.0
83.886444 140.0
83.907219 192.0
83.932831 96.0
83.956482 136.0
83.992691 156.0
84.053223 104.0
84.084099 204.0
84.091255 332.0
84.147896 188.0
84.152763 164.0
84.159088 164.0
84.181808 252.0
84.223724 196.0
84.261368 192.0
84.286942 188.0
84.318825 180.0
84.333382 136.0
84.384125 188.0
84.392685 132.0
84.39518 168.0
84.409416 140.0
84.441551 320.0
84.463112 200.0
84.488556 164.0
84.521477 144.0
84.529488 140.0
84.55027 108.0
84.579559 168.0
84.603477 300.0
84.634476 136.0
84.664406 152.0
84.678177 152.0
84.715065 152.0
84.731308 308.0
84.801186 148.0
84.820488 196.0
84.836006 128.0
84.848846 116.0
84.903854 148.0
84.928894 196.0
84.947632 152.0
84.982727 128.0
85.017593 100.0
85.056137 76.0
85.087341 152.0
85.102028 172.0
85.135086 144.0
85.15345 188.0
85.178154 168.0
85.18232 128.0
85.190979 184.0
85.220261 140.0
85.249847 152.0
85.267357 212.0
85.284599 176.0
85.300438 160.0
85.320663 152.0
85.366081 224.0
85.419434 148.0
85.424301 156.0
85.467796 104.0
85.480682 196.0
85.493561 120.0
85.511963 52.0
85.530128 184.0
85.572708 76.0
85.589279 136.0
85.602173 164.0
85.623734 164.0
85.64502 240.0
85.664795 88.0
85.692139 180.0
85.698387 236.0
85.731567 180.0
85.745865 136.0
85.766098 196.0
85.803009 152.0
85.832504 120.0
85.853424 220.0
85.894547 232.0
85.939484 80.0
85.965546 264.0
85.989311 176.0
86.010399 160.0
86.025612 144.0
86.059456 112.0
86.083359 144.0
86.095703 244.0
86.10511 72.0
86.114334 140.0
86.137024 216.0
86.149483 204.0
86.188751 124.0
86.205383 112.0
86.247887 140.0
86.291084 164.0
86.312294 188.0
86.354324 212.0
86.395096 336.0
86.414062 140.0
86.440659 224.0
86.486496 144.0
86.511375 200.0
86.54229 256.0
86.597054 180.0
86.618614 148.0
86.657753 144.0
86.683472 168.0
86.700943 168.0
86.723579 284.0
86.740257 132.0
86.752182 120.0
86.788147 176.0
86.817039 136.0
86.831116 164.0
86.850266 184.0
86.865814 152.0
86.892769 84.0
86.945366 48.0
86.985413 124.0
87.001213 172.0
87.023407 344.0
87.038956 104.0
87.064949 364.0
87.081665 180.0
87.098381 208.0
87.123367 204.0
87.136101 132.0
87.150398 100.0
87.181992 216.0
87.198715 188.0
87.232582 180.0
87.258202 176.0
87.303223 188.0
87.316818 84.0
87.353043 108.0
87.389336 128.0
87.406998 336.0
87.438911 160.0
87.460968 96.0
87.507507 232.0
87.520538 100.0
87.546608 160.0
87.56337 216.0
87.582764 232.0
87.598755 152.0
87.716621 128.0
87.742249 136.0
87.763786 196.0
87.81311 108.0
87.840271 364.0
87.85601 120.0
87.870941 128.0
87.93148 144.0
87.951111 104.0
87.988029 184.0
88.025856 216.0
88.053993 180.0
88.087494 136.0
88.102432 200.0
88.14328 204.0
88.162109 132.0
88.198402 184.0
88.231178 360.0
88.275993 112.0
88.279221 96.0
88.300224 184.0
88.349205 148.0
88.379883 140.0
88.416565 52.0
88.452126 152.0
88.476463 136.0
88.508118 88.0
88.553032 184.0
88.57196 188.0
88.587631 372.0
88.615051 144.0
88.639412 108.0
88.666374 144.0
88.70816 216.0
88.71463 148.0
88.720131 236.0
88.774521 156.0
88.806717 180.0
88.830452 116.0
88.846481 108.0
88.865265 148.0
88.892059 132.0
88.916954 148.0
88.945107 144.0
88.978897 152.0
89.001022 204.0
89.034637 228.0
89.06105 144.0
89.07476 220.0
89.089821 188.0
89.120415 240.0
89.142303 200.0
89.170494 80.0
89.189293 216.0
89.210045 100.0
89.234077 228.0
89.249451 172.0
89.269547 128.0
89.302101 76.0
89.343491 128.0
89.373589 188.0
89.388641 168.0
89.40213 96.0
89.433319 324.0
89.462044 172.0
89.495934 140.0
89.514687 200.0
89.520058 192.0
89.525192 164.0
89.544159 216.0
89.558083 328.0
89.596748 212.0
89.60994 212.0
89.625328 212.0
89.647446 92.0
89.653671 92.0
89.676544 160.0
89.69751 172.0
89.718246 172.0
89.827621 264.0
89.858002 176.0
89.880447 140.0
89.914413 152.0
89.950279 160.0
90.027229 180.0
90.050354 128.0
90.078926 220.0
90.11219 148.0
90.152367 172.0
90.165596 104.0
90.201637 184.0
90.219292 232.0
90.257324 160.0
90.29567 228.0
90.303024 256.0
90.316849 180.0
90.353523 176.0
90.367928 116.0
90.386642 184.0
90.412796 152.0
90.451195 164.0
90.494736 228.0
90.509888 88.0
90.578064 176.0
90.612167 240.0
90.670593 172.0
90.729904 128.0
90.75621 148.0
90.778831 116.0
90.816246 200.0
90.854958 176.0
90.907959 160.0
90.959198 148.0
90.972488 156.0
91.00782 184.0
91.057304 360.0
91.062332 172.0
91.069458 184.0
91.1007 196.0
91.123589 232.0
91.146629 188.0
91.192825 196.0
91.228798 156.0
91.267296 164.0
91.281639 196.0
91.312607 160.0
91.32782 184.0
91.344688 448.0
91.369911 224.0
91.386009 208.0
91.418167 156.0
91.432465 176.0
91.454086 184.0
91.499519 176.0
91.550499 132.0
91.572029 208.0
91.580467 112.0
91.585281 152.0
91.611496 152.0
91.647156 156.0
91.668602 64.0
91.702103 208.0
91.72197 64.0
91.809586 176.0
91.837486 164.0
91.859261 160.0
91.883972 260.0
91.912468 216.0
91.950844 136.0
91.97184 116.0
92.002983 152.0
92.029343 328.0
92.111229 116.0
92.12944 200.0
92.153259 92.0
92.202942 100.0
92.222054 108.0
92.250107 136.0
92.293068 164.0
92.311142 292.0
92.335861 228.0
92.360222 168.0
92.393333 192.0
92.453911 208.0
92.482735 192.0
92.512894 164.0
92.528122 148.0
92.572708 176.0
92.58744 204.0
92.604713 248.0
92.621674 136.0
92.628258 192.0
92.671761 44.0
92.698586 172.0
92.730316 180.0
92.744766 168.0
92.75856 124.0
92.778358 136.0
92.819351 112.0
92.851151 144.0
92.870682 148.0
92.878258 168.0
92.881439 308.0
92.915253 112.0
92.936607 272.0
92.961823 148.0
93.053329 152.0
93.070633 396.0
93.105278 124.0
93.119919 172.0
93.145615 160.0
93.163971 160.0
93.197487 128.0
93.230194 164.0
93.25898 120.0
93.274353 188.0
93.300446 196.0
93.330109 48.0
93.358948 160.0
93.419701 92.0
93.451393 136.0
93.499344 188.0
93.520561 352.0
93.586998 156.0
93.611237 160.0
93.635765 148.0
93.674599 188.0
93.709274 116.0
93.732399 212.0
93.75766 220.0
93.778648 152.0
93.795998 200.0
93.813347 60.0
93.912788 156.0
93.969223 196.0
93.986923 168.0
94.029381 216.0
94.065971 2268.0
94.09597 120.0
94.101242 156.0
94.127831 76.0
94.153847 176.0
94.185768 184.0
94.210678 144.0
94.250084 108.0
94.27961 160.0
94.295006 180.0
94.308571 156.0
94.328758 136.0
94.367599 180.0
94.387726 120.0
94.397995 204.0
94.444992 224.0
94.460251 40.0
94.484413 188.0
94.512489 200.0
94.533775 56.0
94.547318 40.0
94.562798 184.0
94.587967 240.0
94.622986 172.0
94.652641 128.0
94.680901 84.0
94.706078 152.0
94.727829 140.0
94.746758 152.0
94.776138 144.0
94.810249 144.0
94.835693 156.0
94.857216 436.0
94.87719 132.0
94.911949 140.0
94.927376 148.0
94.996277 416.0
95.021538 176.0
95.042793 168.0
95.06234 1216.0
95.083504 572.0
95.105499 100.0
95.121025 164.0
95.138496 248.0
95.159851 48.0
95.178467 184.0
95.210968 136.0
95.233566 160.0
95.25312 140.0
95.274002 144.0
95.295578 136.0
95.319214 168.0
95.343323 224.0
95.402695 140.0
95.449028 140.0
95.478996 144.0
95.53299 228.0
95.573845 148.0
95.589027 180.0
95.596382 144.0
95.600723 148.0
95.617218 184.0
95.647797 216.0
95.67421 212.0
95.692574 180.0
95.711105 216.0
95.717049 112.0
95.722427 168.0
95.754883 116.0
95.768517 148.0
95.784103 188.0
95.805527 212.0
95.838654 180.0
95.85096 88.0
95.908806 152.0
95.949745 92.0
95.987434 292.0
96.01799 152.0
96.033592 108.0
96.055862 96.0
96.099922 84.0
96.137848 192.0
96.166267 120.0
96.205078 168.0
96.224831 140.0
96.244354 152.0
96.265388 140.0
96.291542 168.0
96.318565 120.0
96.337112 268.0
96.376015 108.0
96.414299 124.0
96.446442 120.0
96.461212 152.0
96.506172 72.0
96.52182 180.0
96.54528 140.0
96.599625 296.0
96.619614 132.0
96.650032 180.0
96.676353 48.0
96.707664 136.0
96.73703 168.0
96.787933 72.0
96.801636 320.0
96.82122 164.0
96.840805 148.0
96.879562 168.0
96.926376 176.0
96.948654 164.0
96.991676 176.0
97.021713 284.0
97.070099 108.0
97.101479 192.0
97.148949 216.0
97.216553 200.0
97.239151 160.0
97.262428 124.0
97.317398 120.0
97.346458 144.0
97.372314 40.0
97.392891 84.0
97.413559 204.0
97.433205 116.0
97.458656 168.0
97.5177 120.0
97.535393 136.0
97.569176 108.0
97.590828 160.0
97.598984 184.0
97.632507 172.0
97.664566 212.0
97.699478 172.0
97.743858 120.0
97.759598 152.0
97.794029 144.0
97.831734 80.0
97.848175 172.0
97.871407 60.0
97.891495 144.0
97.927315 188.0
97.942146 100.0
97.967506 188.0
97.989975 176.0
98.017113 212.0
98.026024 108.0
98.031357 136.0
98.047119 236.0
98.064857 104.0
98.091782 472.0
98.108223 208.0
98.13636 148.0
98.164223 280.0
98.185448 168.0
98.199684 312.0
98.217339 180.0
98.265999 40.0
98.293617 348.0
98.321243 108.0
98.357231 312.0
98.389 208.0
98.406128 128.0
98.442223 100.0
98.449188 124.0
98.49894 108.0
98.528366 192.0
98.570068 352.0
98.612869 212.0
98.656464 236.0
98.67453 108.0
98.681206 140.0
98.737297 244.0
98.753922 76.0
98.771721 144.0
98.809311 148.0
98.825134 112.0
98.84864 200.0
98.900711 148.0
98.919106 164.0
98.93573 112.0
98.977501 168.0
98.993385 92.0
99.019791 204.0
99.044777 152.0
99.047798 144.0
99.065681 152.0
99.089729 136.0
99.13205 76.0
99.147339 308.0
99.150467 220.0
99.193489 112.0
99.217033 128.0
99.242241 88.0
99.254951 124.0
99.2714 312.0
99.295273 84.0
99.340233 148.0
99.362053 340.0
99.37632 228.0
99.389381 144.0
99.44738 136.0
99.482628 132.0
99.50489 136.0
99.551315 176.0
99.580406 116.0
99.598282 104.0
99.620132 252.0
99.638016 152.0
99.6698 168.0
99.690521 252.0
99.705574 104.0
99.727432 140.0
99.767189 84.0
99.787819 212.0
99.814903 124.0
99.846725 120.0
99.86525 132.0
99.883682 156.0
99.920319 128.0
99.947395 184.0
99.964096 128.0
99.981819 104.0
100.007835 176.0
100.013435 172.0
100.028137 180.0
100.059631 136.0
100.0895 260.0
100.103439 124.0
100.122879 152.0
100.156296 148.0
100.189087 72.0
100.218971 156.0
100.23896 128.0
100.254837 100.0
100.270302 216.0
100.28672 260.0
100.338554 180.0
100.366463 128.0
100.382416 108.0
100.414322 216.0
100.466187 160.0
100.492119 168.0
100.531403 152.0
100.553734 448.0
100.571945 144.0
100.607666 112.0
100.634514 128.0
100.661781 76.0
100.679688 228.0
100.716042 168.0
100.755783 132.0
100.798927 208.0
100.821175 148.0
100.852554 172.0
100.868332 136.0
100.899551 124.0
100.930557 276.0
100.960945 148.0
100.991264 204.0
101.075592 156.0
101.095573 64.0
101.135597 124.0
101.159615 128.0
101.187775 188.0
101.21946 232.0
101.228333 124.0
101.246857 344.0
101.272964 132.0
101.287773 124.0
101.322906 208.0
101.328079 236.0
101.349876 28.0
101.369919 96.0
101.39196 148.0
101.410728 264.0
101.426033 124.0
101.442673 172.0
101.471474 400.0
101.486176 164.0
101.502213 164.0
101.518257 124.0
101.546333 44.0
101.566284 192.0
101.602959 140.0
101.626045 124.0
101.652657 96.0
101.674736 236.0
101.694801 108.0
101.708855 100.0
101.746994 128.0
101.793175 184.0
101.823059 188.0
101.891594 96.0
101.932907 164.0
101.965271 168.0
101.980499 164.0
102.015823 156.0
102.098991 200.0
102.122765 168.0
102.138855 116.0
102.169304 204.0
102.196938 124.0
102.248314 208.0
102.275681 144.0
102.305244 116.0
102.328018 76.0
102.344124 60.0
102.375 132.0
102.389534 240.0
102.41333 104.0
102.432739 220.0
102.458923 280.0
102.490593 112.0
102.515343 36.0
102.534798 344.0
102.569435 248.0
102.574387 68.0
102.624191 32.0
102.64637 184.0
102.668724 144.0
102.698219 208.0
102.714943 168.0
102.740288 120.0
102.800278 108.0
102.806114 148.0
102.836006 104.0
102.872398 128.0
102.900604 68.0
102.934929 148.0
102.949059 100.0
102.962189 64.0
102.979042 208.0
102.993362 124.0
103.040314 136.0
103.060852 164.0
103.069923 120.0
103.076576 224.0
103.093544 384.0
103.122704 160.0
103.151726 168.0
103.160431 180.0
103.189514 144.0
103.211189 200.0
103.219193 124.0
103.224564 108.0
103.289085 264.0
103.345245 80.0
103.363457 88.0
103.377625 164.0
103.403931 144.0
103.424553 128.0
103.471275 104.0
103.487038 176.0
103.529495 212.0
103.547676 168.0
103.592239 104.0
103.612495 88.0
103.63681 140.0
103.676559 160.0
103.702385 200.0
103.728004 316.0
103.755951 248.0
103.782745 184.0
103.796936 156.0
103.811134 164.0
103.869904 176.0
103.940956 124.0
103.955162 180.0
103.98436 308.0
104.021408 324.0
104.051193 1876.0
104.126175 200.0
104.155945 104.0
104.182106 144.0
104.202744 176.0
104.227257 104.0
104.271965 132.0
104.311325 132.0
104.332947 112.0
104.353279 308.0
104.391914 48.0
104.41188 132.0
104.44072 200.0
104.457962 168.0
104.476364 168.0
104.499718 188.0
104.546829 180.0
104.575012 192.0
104.589256 156.0
104.615715 200.0
104.652367 168.0
104.691055 144.0
104.732742 140.0
104.754196 44.0
104.768456 36.0
104.791595 188.0
104.824417 308.0
104.836166 188.0
104.865356 152.0
104.896835 144.0
104.933876 140.0
104.974312 120.0
105.01049 108.0
105.047974 672.0
105.077255 204.0
105.092613 52.0
105.10894 168.0
105.12645 200.0
105.153831 192.0
105.180367 48.0
105.20871 168.0
105.227318 68.0
105.246574 196.0
105.276382 152.0
105.32534 100.0
105.341469 152.0
105.360069 132.0
105.400124 192.0
105.445602 172.0
105.462242 84.0
105.478592 108.0
105.498192 116.0
105.505272 160.0
105.542145 188.0
105.565399 188.0
105.58287 112.0
105.603317 48.0
105.633148 180.0
105.655594 196.0
105.672874 48.0
105.700874 140.0
105.735161 200.0
105.754425 164.0
105.787003 156.0
105.814087 180.0
105.834961 172.0
105.890648 72.0
105.916702 112.0
105.934364 152.0
105.950363 148.0
105.979988 196.0
106.016876 144.0
106.064964 604.0
106.087212 288.0
106.158073 132.0
106.190666 140.0
106.242416 176.0
106.26088 212.0
106.289925 136.0
106.307274 72.0
106.329758 152.0
106.363487 188.0
106.398041 456.0
106.433289 152.0
106.471642 112.0
106.513382 264.0
106.53598 112.0
106.559105 140.0
106.595886 188.0
106.620224 172.0
106.647964 192.0
106.671135 88.0
106.706551 248.0
106.733284 144.0
106.751373 180.0
106.79171 176.0
106.822418 152.0
106.851166 140.0
106.87249 280.0
106.895668 140.0
106.922539 156.0
106.958923 212.0
107.005539 136.0
107.030243 176.0
107.060043 1188.0
107.080658 184.0
107.084488 156.0
107.126381 168.0
107.157585 136.0
107.180946 136.0
107.206734 132.0
107.224083 124.0
107.255417 212.0
107.293304 144.0
107.329285 124.0
107.363411 132.0
107.410843 216.0
107.425285 132.0
107.443848 164.0
107.478569 116.0
107.485718 164.0
107.536926 224.0
107.563538 104.0
107.580055 200.0
107.593323 140.0
107.627686 172.0
107.685364 168.0
107.701996 216.0
107.729607 184.0
107.750885 128.0
107.756584 92.0
107.76973 152.0
107.786736 204.0
107.810417 128.0
107.825851 204.0
107.84938 208.0
107.87339 324.0
107.902588 168.0
107.913948 136.0
107.94265 240.0
107.970566 160.0
107.989334 160.0
108.061012 380.0
108.094688 232.0
108.122208 188.0
108.15065 204.0
108.1763 148.0
108.194733 320.0
108.232338 168.0
108.27272 196.0
108.289825 248.0
108.320358 180.0
108.334862 128.0
108.3908 120.0
108.42556 260.0
108.462433 120.0
108.503525 240.0
108.525711 184.0
108.564926 188.0
108.605507 148.0
108.62796 204.0
108.666565 160.0
108.680016 108.0
108.706322 148.0
108.741425 52.0
108.809769 180.0
108.830528 128.0
108.864761 132.0
108.920959 272.0
108.962189 144.0
108.989494 160.0
108.997162 196.0
109.025414 44.0
109.074493 328.0
109.103073 428.0
109.125412 108.0
109.140526 144.0
109.159386 136.0
109.194656 124.0
109.212906 104.0
109.235893 152.0
109.266991 188.0
109.285149 160.0
109.326782 180.0
109.360901 168.0
109.428253 124.0
109.431953 244.0
109.45002 128.0
109.462814 144.0
109.468765 132.0
109.476196 268.0
109.498444 168.0
109.543236 140.0
109.58802 124.0
109.604286 240.0
109.635635 184.0
109.65847 128.0
109.712662 116.0
109.754242 320.0
109.84404 208.0
109.863335 64.0
109.906464 204.0
109.927246 100.0
109.941994 156.0
109.956734 188.0
109.972595 184.0
109.993904 200.0
110.011421 208.0
110.027679 120.0
110.055138 132.0
110.102852 240.0
110.134178 252.0
110.156128 156.0
110.198898 180.0
110.213562 188.0
110.249092 100.0
110.267601 184.0
110.284615 324.0
110.313881 32.0
110.336876 76.0
110.363991 132.0
110.405876 92.0
110.439034 136.0
110.452385 188.0
110.474899 128.0
110.491241 120.0
110.543945 180.0
110.558594 116.0
110.603073 304.0
110.63401 136.0
110.711128 144.0
110.716095 188.0
110.734306 168.0
110.755234 152.0
110.814056 176.0
110.835007 360.0
110.856216 132.0
110.881111 116.0
110.910454 72.0
110.933395 144.0
110.964073 256.0
110.981682 176.0
111.011864 180.0
111.079399 144.0
111.113861 276.0
111.167091 208.0
111.195702 168.0
111.220688 216.0
111.254639 200.0
111.277565 56.0
111.313629 284.0
111.354652 192.0
111.387787 152.0
111.46637 164.0
111.490677 140.0
111.514938 152.0
111.547241 196.0
111.575897 120.0
111.613602 120.0
111.634773 108.0
111.657906 76.0
111.688499 160.0
111.714691 116.0
111.739937 280.0
111.774712 144.0
111.802971 276.0
111.825668 124.0
111.833351 92.0
111.839737 160.0
111.870087 188.0
111.900917 156.0
111.932755 164.0
111.950424 208.0
111.96846 92.0
111.988335 104.0
112.012794 180.0
112.040993 176.0
112.074905 128.0
112.099792 172.0
112.114571 148.0
112.150574 172.0
112.172554 224.0
112.187881 160.0
112.250221 224.0
112.265648 128.0
112.299553 188.0
112.317146 240.0
112.340347 164.0
112.363556 120.0
112.407959 360.0
112.432014 252.0
112.48806 184.0
112.521843 164.0
112.549286 56.0
112.574631 84.0
112.615005 136.0
112.637665 156.0
112.665916 180.0
112.689865 172.0
112.720383 104.0
112.737289 180.0
112.754196 144.0
112.79567 212.0
112.839737 208.0
112.928505 152.0
112.954292 88.0
112.995255 60.0
113.034157 124.0
113.062218 148.0
113.087143 152.0
113.11396 128.0
113.15052 132.0
113.177406 252.0
113.223183 400.0
113.280037 176.0
113.302643 184.0
113.333778 180.0
113.386696 176.0
113.427261 300.0
113.44313 228.0
113.469658 128.0
113.495102 144.0
113.539635 100.0
113.554474 188.0
113.612442 184.0
113.645332 184.0
113.668564 216.0
113.67247 168.0
113.711479 176.0
113.732704 120.0
113.747559 276.0
113.794266 116.0
113.81337 112.0
113.838852 172.0
113.883301 168.0
113.889664 156.0
113.920845 168.0
113.947701 164.0
113.966301 168.0
113.991798 196.0
114.017303 120.0
114.034302 168.0
114.054535 240.0
114.081879 200.0
114.104996 156.0
114.133888 204.0
114.188591 152.0
114.202271 352.0
114.227699 172.0
114.250473 212.0
114.286499 128.0
114.325668 164.0
114.381004 164.0
114.403084 128.0
114.427834 144.0
114.461403 136.0
114.481438 156.0
114.519402 124.0
114.570007 132.0
114.606743 168.0
114.649818 188.0
114.673279 216.0
114.704781 136.0
114.771095 160.0
114.794319 104.0
114.83522 136.0
114.862572 156.0
114.886757 256.0
114.918037 124.0
114.943176 164.0
114.967117 164.0
115.01738 152.0
115.035217 132.0
115.069023 140.0
115.112274 100.0
115.139503 128.0
115.162781 216.0
115.182755 144.0
115.204292 148.0
115.219353 512.0
115.259666 176.0
115.276756 96.0
115.295883 216.0
115.316177 144.0
115.346092 200.0
115.361641 168.0
115.43042 104.0
115.444633 224.0
115.462387 308.0
115.491364 304.0
115.51622 200.0
115.544029 200.0
115.570168 184.0
115.578049 152.0
115.584503 196.0
115.624062 208.0
115.652763 64.0
115.683128 160.0
115.719528 168.0
115.736656 164.0
115.76313 176.0
115.797279 208.0
115.848022 116.0
115.87587 276.0
115.890869 92.0
115.928215 168.0
115.972305 124.0
115.998695 320.0
116.037224 112.0
116.061813 148.0
116.103668 208.0
116.13311 216.0
116.191025 96.0
116.229645 116.0
116.273422 376.0
116.294029 136.0
116.320908 328.0
116.363976 80.0
116.455215 360.0
116.523918 144.0
116.551193 48.0
116.597145 148.0
116.62899 168.0
116.662933 160.0
116.689285 120.0
116.745193 44.0
116.794655 240.0
116.854836 144.0
116.8619 140.0
116.870667 180.0
116.883774 192.0
116.932358 180.0
116.960342 172.0
117.042061 192.0
117.058334 432.0
117.095772 184.0
117.111061 132.0
117.13475 32.0
117.157394 448.0
117.185844 112.0
117.222191 168.0
117.249146 132.0
117.278534 132.0
117.317108 152.0
117.395538 236.0
117.419052 124.0
117.441277 136.0
117.445625 196.0
117.457687 152.0
117.461006 124.0
117.495407 292.0
117.520416 164.0
117.538742 160.0
117.572044 132.0
117.596176 36.0
117.619919 196.0
117.660934 128.0
117.689003 104.0
117.720215 132.0
117.782524 184.0
117.819054 204.0
117.877174 204.0
117.898575 224.0
117.918701 120.0
117.923241 232.0
117.941734 176.0
117.956764 140.0
117.980293 184.0
118.002228 148.0
118.025406 136.0
118.03862 428.0
118.06366 540.0
118.129631 268.0
118.163605 204.0
118.205605 52.0
118.235901 164.0
118.258873 280.0
118.277023 156.0
118.307411 344.0
118.339806 100.0
118.366524 200.0
118.424263 100.0
118.450249 300.0
118.467148 168.0
118.49791 64.0
118.545578 368.0
118.586517 156.0
118.602715 132.0
118.627945 164.0
118.656891 124.0
118.693993 120.0
118.754829 180.0
118.781105 204.0
118.797859 340.0
118.801849 224.0
118.810646 160.0
118.829628 204.0
118.857834 144.0
118.883873 172.0
118.916969 156.0
118.9403 112.0
118.968582 144.0
119.000534 316.0
119.030983 132.0
119.062019 4888.0
119.122238 56.0
119.136658 160.0
119.158455 232.0
119.190056 128.0
119.233994 164.0
119.244072 168.0
119.292198 76.0
119.316116 128.0
119.343361 128.0
119.372406 108.0
119.390045 128.0
119.40744 132.0
119.424667 100.0
119.457245 176.0
119.487747 148.0
119.511856 116.0
119.552116 156.0
119.586838 132.0
119.591667 172.0
119.601501 188.0
119.620674 64.0
119.642349 128.0
119.663048 240.0
119.679367 204.0
119.725182 176.0
119.751244 120.0
119.823204 100.0
119.844986 152.0
119.882233 196.0
119.908913 96.0
119.934334 60.0
119.967033 168.0
119.997559 48.0
120.043571 348.0
120.064758 376.0
120.083084 164.0
120.121864 32.0
120.145859 112.0
120.240814 236.0
120.280334 192.0
120.298073 192.0
120.341698 100.0
120.362831 108.0
120.385948 92.0
120.41938 196.0
120.435211 288.0
120.468231 164.0
120.486427 236.0
120.503273 152.0
120.529953 260.0
120.554161 340.0
120.568588 184.0
120.586143 260.0
120.637413 424.0
120.641838 164.0
120.651588 344.0
120.671074 180.0
120.70842 268.0
120.722008 204.0
120.738808 212.0
120.755394 320.0
120.793564 296.0
120.822906 272.0
120.843765 272.0
120.859169 248.0
120.911072 308.0
120.919678 500.0
120.943253 188.0
120.958511 340.0
120.985512 520.0
121.008896 784.0
121.012413 460.0
121.040733 3496.0
121.07827 226364.0
121.130234 212.0
121.160156 116.0
121.198349 144.0
121.232468 84.0
121.236931 220.0
121.245453 232.0
121.283859 356.0
121.288513 240.0
121.347237 368.0
121.398201 208.0
121.414024 944.0
121.438965 5324.0
121.465027 304.0
121.48111 264.0
121.543777 300.0
121.559174 48.0
121.567169 88.0
121.581886 148.0
121.628624 240.0
121.653595 132.0
121.6707 100.0
121.690895 104.0
121.721512 288.0
121.743607 220.0
121.766579 244.0
121.781204 144.0
121.810371 316.0
121.826294 308.0
121.856407 168.0
121.8797 276.0
121.914154 84.0
121.934258 144.0
121.962288 256.0
122.018181 168.0
122.023842 172.0
122.042198 252.0
122.080162 42796.0
122.125313 304.0
122.152748 136.0
122.179886 44.0
122.198044 68.0
122.220688 88.0
122.24913 96.0
122.281395 188.0
122.321152 152.0
122.356583 96.0
122.360817 96.0
122.389488 64.0
122.409996 100.0
122.427612 76.0
122.445229 84.0
122.470314 60.0
122.485916 172.0
122.516212 160.0
122.551315 200.0
122.572586 468.0
122.589119 236.0
122.627037 276.0
122.643974 140.0
122.660713 148.0
122.704712 116.0
122.73761 208.0
122.759071 232.0
122.792793 180.0
122.812317 72.0
122.836433 188.0
122.879532 144.0
122.91227 124.0
122.933746 184.0
122.963593 232.0
122.98278 296.0
123.005264 172.0
123.019836 212.0
123.040276 244.0
123.052101 100.0
123.081161 1184.0
123.120079 272.0
123.150223 200.0
123.194809 136.0
123.22538 164.0
123.263664 132.0
123.316704 80.0
123.342201 172.0
123.365334 152.0
123.405128 136.0
123.437134 168.0
123.489159 116.0
123.509064 152.0
123.533905 156.0
123.568687 168.0
123.601311 184.0
123.624107 108.0
123.641815 52.0
123.663948 124.0
123.68293 88.0
123.701576 68.0
123.721497 56.0
123.741425 80.0
123.763992 208.0
123.77198 40.0
123.778618 200.0
123.809647 108.0
123.848618 108.0
123.878731 152.0
123.902405 128.0
123.925247 72.0
123.946098 108.0
123.983551 124.0
124.014313 292.0
124.029404 152.0
124.074539 224.0
124.091476 108.0
124.110893 164.0
124.151344 104.0
124.200142 120.0
124.231194 96.0
124.286659 120.0
124.302193 96.0
124.355453 52.0
124.413612 96.0
124.466454 132.0
124.489258 108.0
124.544182 156.0
124.571861 268.0
124.590828 168.0
124.61409 136.0
124.673042 120.0
124.690155 200.0
124.744164 72.0
124.761948 160.0
124.793961 100.0
124.824898 128.0
124.843681 200.0
124.884247 84.0
124.91539 140.0
124.937416 248.0
124.964333 256.0
124.988808 40.0
125.008835 128.0
125.037766 144.0
125.068924 96.0
125.097862 156.0
125.152077 200.0
125.218102 72.0
125.258186 288.0
125.29834 176.0
125.325027 136.0
125.371819 80.0
125.44091 128.0
125.472122 92.0
125.534828 192.0
125.574699 152.0
125.597 124.0
125.614845 124.0
125.637154 140.0
125.66169 104.0
125.687904 224.0
125.724174 236.0
125.750038 156.0
125.754448 92.0
125.826851 160.0
125.846619 164.0
125.86927 48.0
125.896065 56.0
125.967537 88.0
126.034561 116.0
126.053978 180.0
126.077019 188.0
126.100594 168.0
126.147774 152.0
126.166626 44.0
126.206673 176.0
126.233505 132.0
126.258102 136.0
126.313614 152.0
126.340858 76.0
126.396049 180.0
126.416702 312.0
126.434837 188.0
126.488556 136.0
126.539726 200.0
126.607216 172.0
126.628426 316.0
126.64753 176.0
126.679901 200.0
126.696815 220.0
126.722107 220.0
126.799324 72.0
126.845543 140.0
126.868835 168.0
126.900642 160.0
126.943359 176.0
126.997185 172.0
127.058067 200.0
127.098137 76.0
127.15873 52.0
127.199127 140.0
127.260048 116.0
127.280914 140.0
127.299271 172.0
127.326645 232.0
127.359673 96.0
127.398987 44.0
127.414711 168.0
127.443916 88.0
127.482117 116.0
127.522568 180.0
127.561676 320.0
127.625977 136.0
127.685394 180.0
127.72493 128.0
127.765633 108.0
127.781746 124.0
127.892258 208.0
127.91169 132.0
127.927452 144.0
127.958969 152.0
128.006256 36.0
128.028061 128.0
128.085541 156.0
128.101669 88.0
128.123367 212.0
128.139145 48.0
128.163925 48.0
128.199982 180.0
128.229279 96.0
128.253738 300.0
128.303116 100.0
128.326569 228.0
128.379425 132.0
128.392105 164.0
128.430679 164.0
128.459137 148.0
128.496811 160.0
128.550888 140.0
128.569824 180.0
128.596909 164.0
128.637527 128.0
128.691711 144.0
128.725586 124.0
128.765244 312.0
128.791794 152.0
128.843384 52.0
128.899521 116.0
128.917603 132.0
128.944977 140.0
128.969574 132.0
129.009003 128.0
129.042267 132.0
129.063004 256.0
129.09166 104.0
129.118805 100.0
129.145935 88.0
129.178864 108.0
129.222855 44.0
129.238693 48.0
129.30397 144.0
129.335999 172.0
129.374481 92.0
129.397125 148.0
129.424286 196.0
129.481171 104.0
129.523941 44.0
129.574738 264.0
129.596436 212.0
129.642593 172.0
129.673477 124.0
129.716888 108.0
129.741257 196.0
129.764145 144.0
129.811768 220.0
129.82991 96.0
129.856415 160.0
129.879684 144.0
129.896561 136.0
129.940445 120.0
129.948624 36.0
129.953323 148.0
129.988708 156.0
130.0056 188.0
130.040894 76.0
130.063919 132.0
130.088562 264.0
130.131699 40.0
130.185318 156.0
130.216644 108.0
130.258881 180.0
130.277054 88.0
130.315674 96.0
130.338394 100.0
130.412201 276.0
130.440659 276.0
130.465668 88.0
130.483856 116.0
130.509491 44.0
130.54863 172.0
130.595917 244.0
130.784073 160.0
130.867615 216.0
130.91362 160.0
130.941223 80.0
130.975861 152.0
131.0112 144.0
131.042297 248.0
131.063812 360.0
131.105255 112.0
131.154007 144.0
131.181061 332.0
131.226074 120.0
131.252594 116.0
131.269394 180.0
131.297958 152.0
131.328278 132.0
131.361603 48.0
131.4245 228.0
131.45665 180.0
131.495239 176.0
131.526581 208.0
131.641052 156.0
131.691589 72.0
131.757828 76.0
131.79361 152.0
131.83638 204.0
131.868942 64.0
131.92923 120.0
131.947525 176.0
132.042007 492.0
132.068649 524.0
132.130478 80.0
132.155731 108.0
132.179916 324.0
132.212708 120.0
132.275925 172.0
132.306702 364.0
132.357071 124.0
132.375397 116.0
132.409241 312.0
132.430359 168.0
132.455551 176.0
132.480743 72.0
132.515106 124.0
132.538025 88.0
132.593964 116.0
132.640884 128.0
132.715759 96.0
132.746613 204.0
132.78331 124.0
132.803955 96.0
132.844635 180.0
132.89711 148.0
132.954712 196.0
132.986465 140.0
133.053696 480.0
133.074463 332.0
133.195999 188.0
133.212524 156.0
133.240433 164.0
133.382568 200.0
133.449234 152.0
133.472229 168.0
133.52742 160.0
133.543518 160.0
133.621689 104.0
133.673889 84.0
133.699966 60.0
133.718384 212.0
133.741394 144.0
133.775925 296.0
133.832138 124.0
133.893356 160.0
133.922073 212.0
133.960144 192.0
133.998871 124.0
134.025635 120.0
134.060928 2056.0
134.085526 288.0
134.156082 152.0
134.183685 180.0
134.264389 140.0
134.282837 44.0
134.328979 136.0
134.373672 180.0
134.414337 180.0
134.517075 172.0
134.536667 136.0
134.55481 176.0
134.60611 152.0
134.698303 124.0
134.746826 228.0
134.804581 200.0
134.86467 172.0
134.89241 76.0
134.95668 180.0
135.012634 176.0
135.035767 124.0
135.071381 384.0
135.090424 120.0
135.116653 292.0
135.145325 56.0
135.277802 100.0
135.305664 200.0
135.327347 124.0
135.362076 88.0
135.399124 144.0
135.42923 160.0
135.461273 220.0
135.517258 136.0
135.563599 172.0
135.586777 84.0
135.614594 136.0
135.633133 212.0
135.649353 92.0
135.72818 132.0
135.744415 104.0
135.776886 84.0
135.795441 68.0
135.851105 192.0
135.892868 368.0
135.909103 168.0
135.963684 200.0
135.985687 144.0
136.024521 104.0
136.075562 140.0
136.113464 1152.0
136.138107 172.0
136.169098 124.0
136.196976 128.0
136.240036 216.0
136.299194 168.0
136.320099 52.0
136.357285 124.0
136.413071 204.0
136.459503 372.0
136.509979 176.0
136.531647 76.0
136.559555 124.0
136.606079 120.0
136.652603 208.0
136.682861 136.0
136.715439 60.0
136.837921 116.0
136.896561 124.0
136.916885 188.0
136.969574 128.0
137.029526 148.0
137.072021 3252.0
137.1138 424.0
137.143814 124.0
137.234879 48.0
137.274521 160.0
137.328232 132.0
137.352829 160.0
137.392563 236.0
137.429047 128.0
137.456467 100.0
137.488174 192.0
137.577835 132.0
137.650208 112.0
137.713272 284.0
137.745972 84.0
137.782486 76.0
137.841766 60.0
137.886154 112.0
137.911865 152.0
138.026428 96.0
138.07222 432.0
138.114655 220.0
138.185898 44.0
138.207962 144.0
138.237122 180.0
138.282211 224.0
138.317886 312.0
138.353455 376.0
138.412506 84.0
138.468704 244.0
138.485977 204.0
138.531952 168.0
138.583496 172.0
138.609711 172.0
138.625671 76.0
138.695786 96.0
138.730362 48.0
138.761795 332.0
138.79509 144.0
138.81189 100.0
138.871826 172.0
138.892944 148.0
138.949249 84.0
139.000275 176.0
139.026321 236.0
139.031708 276.0
139.05513 164.0
139.086197 2744.0
139.186615 148.0
139.216827 116.0
139.244461 192.0
139.283783 188.0
139.299377 176.0
139.317825 92.0
139.429153 84.0
139.450455 160.0
139.548141 52.0
139.574005 128.0
139.598282 172.0
139.648117 156.0
139.668793 236.0
139.683426 144.0
139.693451 84.0
139.697006 148.0
139.735184 204.0
139.786697 200.0
139.812515 192.0
139.889267 160.0
139.966507 192.0
139.972748 156.0
140.011063 220.0
140.091797 484.0
140.143616 136.0
140.169525 184.0
140.200165 80.0
140.219009 140.0
140.252014 120.0
140.320374 180.0
140.400543 144.0
140.424133 104.0
140.468948 108.0
140.499619 120.0
140.530289 156.0
140.590561 176.0
140.629395 128.0
140.661362 192.0
140.750763 128.0
140.810806 124.0
140.816391 160.0
140.860794 144.0
140.900101 44.0
140.943481 112.0
140.96814 36.0
141.03772 96.0
141.082443 208.0
141.125488 72.0
141.149658 136.0
141.183746 144.0
141.208252 68.0
141.257919 144.0
141.27684 184.0
141.312332 80.0
141.337173 200.0
141.422226 236.0
141.532837 168.0
141.557571 120.0
141.589279 96.0
141.617706 172.0
141.634277 56.0
141.657974 244.0
141.723999 124.0
141.809616 144.0
141.830948 40.0
141.848877 156.0
141.856812 88.0
141.864899 140.0
141.944748 156.0
141.96846 48.0
142.008774 68.0
142.075592 216.0
142.101288 208.0
142.129761 36.0
142.149734 96.0
142.170624 144.0
142.203323 144.0
142.26741 188.0
142.35289 272.0
142.388519 148.0
142.421768 32.0
142.443146 44.0
142.594177 244.0
142.637985 184.0
142.709305 124.0
142.742599 104.0
142.761063 220.0
142.842484 96.0
142.866272 160.0
142.885452 140.0
142.910126 176.0
143.001907 140.0
143.025711 112.0
143.060074 284.0
143.114349 208.0
143.13736 156.0
143.220963 116.0
143.264114 100.0
143.280518 168.0
143.335312 88.0
143.35675 212.0
143.375549 176.0
143.402039 140.0
143.424896 228.0
143.507996 160.0
143.540314 152.0
143.580841 164.0
143.60231 292.0
143.636841 84.0
143.646545 176.0
143.683975 204.0
143.709442 180.0
143.723785 104.0
143.729538 156.0
143.764542 164.0
143.824417 176.0
143.852844 164.0
143.911606 212.0
143.936417 256.0
143.965363 64.0
143.986557 136.0
144.018097 176.0
144.059753 332.0
144.08136 284.0
144.187241 244.0
144.232651 152.0
144.290024 96.0
144.330673 112.0
144.407196 136.0
144.511215 132.0
144.533981 164.0
144.598602 140.0
144.634491 100.0
144.687164 308.0
144.742233 132.0
144.779251 104.0
144.826843 120.0
144.857193 144.0
144.878754 172.0
144.915741 236.0
144.943436 104.0
144.969803 152.0
145.01799 188.0
145.076385 1100.0
145.171158 224.0
145.207138 168.0
145.226776 208.0
145.255112 60.0
145.271896 140.0
145.343872 160.0
145.372665 60.0
145.418259 160.0
145.437469 100.0
145.475876 172.0
145.610764 200.0
145.684799 196.0
145.706726 124.0
145.748825 212.0
145.802536 140.0
145.918167 132.0
145.950394 196.0
145.998093 232.0
146.059799 240.0
146.078064 552.0
146.096741 312.0
146.152222 200.0
146.170456 132.0
146.19809 160.0
146.220993 160.0
146.252289 156.0
146.28656 84.0
146.343491 144.0
146.366547 124.0
146.418411 168.0
146.454544 164.0
146.546204 128.0
146.577408 144.0
146.594666 172.0
146.649704 184.0
146.681839 72.0
146.697906 180.0
146.741302 56.0
146.777466 36.0
146.804001 124.0
146.898056 140.0
146.939072 80.0
146.955963 128.0
146.979324 164.0
147.006638 48.0
147.069183 332.0
147.08696 456.0
147.104721 212.0
147.127319 176.0
147.156281 124.0
147.184052 48.0
147.24321 104.0
147.279449 108.0
147.339828 172.0
147.370697 176.0
147.427933 304.0
147.471313 348.0
147.610535 140.0
147.651093 212.0
147.686615 324.0
147.712112 144.0
147.72905 104.0
147.78595 160.0
147.864548 212.0
147.891174 48.0
147.925293 124.0
147.942001 204.0
147.984497 216.0
148.012207 60.0
148.076462 556.0
148.111511 128.0
148.161072 184.0
148.22052 192.0
148.287537 344.0
148.346558 124.0
148.41687 56.0
148.436264 80.0
148.479813 200.0
148.557526 84.0
148.640015 88.0
148.676422 188.0
148.70311 108.0
148.792358 204.0
148.82692 124.0
148.846344 124.0
148.884277 336.0
148.921295 172.0
148.931015 148.0
148.998291 128.0
149.03389 260.0
149.071609 20556.0
149.099442 200.0
149.115311 300.0
149.173981 220.0
149.208359 64.0
149.242401 128.0
149.258621 108.0
149.301865 180.0
149.326843 172.0
149.379944 156.0
149.405045 128.0
149.457977 172.0
149.589722 168.0
149.614639 168.0
149.641418 276.0
149.680389 152.0
149.75885 128.0
149.843567 180.0
149.860626 52.0
149.906921 32.0
149.955658 120.0
150.009293 200.0
150.07547 2280.0
150.117599 188.0
150.153229 128.0
150.182602 156.0
150.23851 72.0
150.328796 68.0
150.380035 168.0
150.399567 136.0
150.470367 188.0
150.506989 100.0
150.563583 68.0
150.629089 180.0
150.648636 92.0
150.679596 196.0
150.698029 168.0
150.729263 224.0
150.752792 184.0
150.802582 144.0
150.827026 48.0
150.871811 116.0
150.907684 64.0
150.928894 184.0
150.957474 144.0
150.990829 172.0
151.010391 216.0
151.077332 260.0
151.093704 248.0
151.149841 152.0
151.172623 116.0
151.190338 80.0
151.217606 156.0
151.245285 156.0
151.262421 96.0
151.290741 196.0
151.331238 176.0
151.350555 128.0
151.42157 100.0
151.448517 184.0
151.477905 172.0
151.538406 184.0
151.575897 140.0
151.601273 148.0
151.678833 176.0
151.722214 172.0
151.754837 244.0
151.784256 164.0
151.914841 164.0
152.0811 160.0
152.105362 436.0
152.139175 176.0
152.195328 180.0
152.230042 156.0
152.275055 160.0
152.307709 192.0
152.365952 132.0
152.40239 288.0
152.432709 164.0
152.483902 204.0
152.515854 112.0
152.555176 236.0
152.592056 136.0
152.651062 92.0
152.702713 128.0
152.724838 112.0
152.745102 104.0
152.803558 76.0
152.821243 196.0
152.850311 100.0
152.869308 128.0
152.901993 128.0
152.941956 152.0
153.002914 56.0
153.034912 112.0
153.061996 168.0
153.106766 272.0
153.140808 128.0
153.161667 76.0
153.242828 364.0
153.419617 132.0
153.490753 60.0
153.542542 268.0
153.623718 216.0
153.798325 160.0
153.850967 72.0
153.888 192.0
154.021622 188.0
154.077301 140.0
154.120163 156.0
154.216553 168.0
154.298126 152.0
154.374771 136.0
154.419281 40.0
154.448975 132.0
154.523178 180.0
154.597412 144.0
154.646774 152.0
154.669189 96.0
154.691467 152.0
154.718689 176.0
154.814438 192.0
154.872726 140.0
154.934143 208.0
154.993607 212.0
155.014984 148.0
155.050613 124.0
155.082825 116.0
155.138672 212.0
155.167847 216.0
155.194382 200.0
155.237732 156.0
155.280975 192.0
155.340698 132.0
155.367584 144.0
155.415131 88.0
155.489578 192.0
155.524323 212.0
155.546661 44.0
155.574631 120.0
155.628586 108.0
155.782562 120.0
155.808716 84.0
155.883972 228.0
155.900009 148.0
156.011185 184.0
156.06517 148.0
156.151703 192.0
156.177795 168.0
156.195206 156.0
156.221405 196.0
156.241409 244.0
156.262375 132.0
156.307159 148.0
156.384308 28.0
156.416672 164.0
156.536163 124.0
156.583481 140.0
156.630814 84.0
156.648239 92.0
156.693085 192.0
156.7836 568.0
156.815186 196.0
156.87262 208.0
156.902435 88.0
156.962265 196.0
157.017136 144.0
157.037079 304.0
157.076828 248.0
157.109253 180.0
157.147507 236.0
157.206726 52.0
157.298203 216.0
157.383957 204.0
157.403931 80.0
157.44162 172.0
157.493835 228.0
157.538803 196.0
157.618759 152.0
157.643204 188.0
157.682098 208.0
157.727966 80.0
157.761215 392.0
157.783707 128.0
157.866028 52.0
157.913742 84.0
157.933746 176.0
158.013794 180.0
158.036804 572.0
158.080582 244.0
158.143784 148.0
158.170944 156.0
158.198395 308.0
158.218536 104.0
158.251572 164.0
158.286621 36.0
158.401825 64.0
158.431961 136.0
158.498627 152.0
158.5271 108.0
158.54715 180.0
158.608978 176.0
158.647766 112.0
158.669968 228.0
158.715103 132.0
158.787827 212.0
158.873108 128.0
158.898193 200.0
158.918259 180.0
158.949036 132.0
158.981308 156.0
159.016129 104.0
159.044571 120.0
159.091431 276.0
159.115524 292.0
159.137222 176.0
159.181824 84.0
159.199402 100.0
159.244598 112.0
159.263718 132.0
159.327332 240.0
159.40538 140.0
159.433029 56.0
159.474823 184.0
159.498367 140.0
159.541107 160.0
159.563736 124.0
159.583847 204.0
159.63916 204.0
159.674377 184.0
159.717133 152.0
159.82782 120.0
159.89325 180.0
159.933517 100.0
159.961212 132.0
159.989899 108.0
160.029175 152.0
160.061234 244.0
160.087082 2704.0
160.112106 2028.0
160.177765 180.0
160.213028 52.0
160.26651 124.0
160.28862 56.0
160.31633 112.0
160.336502 136.0
160.364212 164.0
160.386902 132.0
160.457489 300.0
160.583572 132.0
160.656342 140.0
160.770355 112.0
160.80603 136.0
160.846222 160.0
160.868118 124.0
160.92424 92.0
160.952011 72.0
160.977264 160.0
161.002518 200.0
161.031189 148.0
161.093933 436.0
161.117584 268.0
161.23999 176.0
161.308228 136.0
161.346146 196.0
161.376495 60.0
161.445663 224.0
161.466354 172.0
161.50293 248.0
161.520645 128.0
161.600693 188.0
161.647141 164.0
161.667236 208.0
161.700287 168.0
161.728119 280.0
161.766098 116.0
161.79393 32.0
161.836975 116.0
161.86203 148.0
161.877274 140.0
161.953476 60.0
161.982956 212.0
162.062393 116.0
162.091782 1716.0
162.166565 112.0
162.19165 132.0
162.234741 180.0
162.270233 224.0
162.292892 132.0
162.361435 124.0
162.424927 144.0
162.470581 160.0
162.507553 356.0
162.534012 144.0
162.554306 208.0
162.587296 156.0
162.625366 140.0
162.686295 84.0
162.792923 176.0
162.838638 244.0
162.919922 180.0
162.978363 168.0
163.002411 200.0
163.049515 220.0
163.089798 588.0
163.156662 184.0
163.18042 144.0
163.209656 40.0
163.251175 172.0
163.291031 136.0
163.319016 132.0
163.433487 132.0
163.458939 196.0
163.497101 220.0
163.525101 176.0
163.555649 40.0
163.579163 184.0
163.675293 128.0
163.69809 76.0
163.723679 260.0
163.769257 116.0
163.831161 248.0
163.8918 168.0
163.991196 152.0
164.011581 136.0
164.029419 76.0
164.071915 148.0
164.112305 504.0
164.251266 76.0
164.30278 184.0
164.321396 220.0
164.368622 168.0
164.429703 132.0
164.438675 116.0
164.445679 176.0
164.529419 124.0
164.602615 132.0
164.618546 128.0
164.669861 240.0
164.710159 180.0
164.759262 108.0
164.805771 216.0
164.856354 108.0
164.899796 116.0
164.968811 116.0
165.065964 84.0
165.088974 176.0
165.113098 148.0
165.152924 52.0
165.172394 156.0
165.193848 96.0
165.279556 144.0
165.287231 72.0
165.294479 108.0
165.324753 96.0
165.379578 244.0
165.432495 216.0
165.454865 200.0
165.472794 148.0
165.526566 108.0
165.553314 196.0
165.605957 140.0
165.664871 52.0
165.70842 136.0
165.822021 132.0
165.876953 204.0
165.889389 136.0
165.932617 92.0
165.962158 228.0
166.054306 252.0
166.063004 236.0
166.073639 304.0
166.098083 60.0
166.205627 156.0
166.26712 220.0
166.377792 52.0
166.411163 128.0
166.475357 96.0
166.541107 180.0
166.56781 92.0
166.633194 196.0
166.652588 124.0
166.673157 184.0
166.69371 156.0
166.770798 180.0
166.82222 220.0
166.845932 300.0
166.882385 136.0
166.913727 168.0
166.99707 188.0
167.082947 52.0
167.105103 164.0
167.125687 160.0
167.202881 164.0
167.22348 104.0
167.257965 176.0
167.298126 296.0
167.353592 184.0
167.388229 64.0
167.4758 128.0
167.524734 76.0
167.547058 248.0
167.556213 164.0
167.578842 192.0
167.627792 88.0
167.683411 172.0
167.707687 72.0
167.797913 120.0
167.818542 104.0
167.870102 152.0
168.024872 48.0
168.054626 60.0
168.094528 68.0
168.166794 116.0
168.193771 180.0
168.231323 168.0
168.262299 60.0
168.412079 120.0
168.432266 200.0
168.504211 136.0
168.56192 164.0
168.600677 80.0
168.650391 220.0
168.680801 136.0
168.73616 208.0
168.78421 52.0
168.85257 136.0
168.895416 136.0
168.962677 92.0
169.024765 88.0
169.045471 172.0
169.08844 152.0
169.128296 96.0
169.164536 264.0
169.244781 192.0
169.300217 176.0
169.350967 92.0
169.384628 248.0
169.420898 60.0
169.506485 136.0
169.555634 136.0
169.603043 168.0
169.669952 200.0
169.711166 176.0
169.744873 152.0
169.778595 52.0
169.823914 160.0
169.864182 52.0
169.918655 188.0
169.965363 84.0
169.993912 196.0
170.019852 148.0
170.052017 244.0
170.098022 260.0
170.190659 160.0
170.240509 92.0
170.352203 124.0
170.427536 124.0
170.476913 208.0
170.55748 248.0
170.588669 120.0
170.628113 116.0
170.697525 244.0
170.724609 176.0
170.757675 168.0
170.792358 108.0
170.809174 176.0
170.861725 168.0
170.908554 132.0
171.035919 124.0
171.064713 144.0
171.092453 428.0
171.212204 136.0
171.285385 156.0
171.295837 116.0
171.346436 188.0
171.400681 152.0
171.439774 136.0
171.481415 216.0
171.551849 136.0
171.588348 144.0
171.606598 196.0
171.637802 128.0
171.661346 76.0
171.696762 196.0
171.721329 104.0
171.802521 156.0
171.828278 108.0
171.854477 276.0
171.980682 140.0
172.008347 420.0
172.041565 132.0
172.068176 164.0
172.100586 580.0
172.131058 92.0
172.231628 208.0
172.303436 152.0
172.321518 104.0
172.326843 96.0
172.360992 128.0
172.417999 156.0
172.42688 132.0
172.471207 176.0
172.525574 172.0
172.577866 164.0
172.614716 84.0
172.638 112.0
172.668518 196.0
172.768784 164.0
172.828949 164.0
172.904846 132.0
172.925781 136.0
172.970276 156.0
173.006927 140.0
173.039932 164.0
173.076584 296.0
173.108444 124.0
173.16362 152.0
173.204391 128.0
173.229294 100.0
173.292389 136.0
173.3125 184.0
173.360519 168.0
173.407684 160.0
173.444382 196.0
173.462738 44.0
173.551865 52.0
173.590347 172.0
173.645462 204.0
173.666199 168.0
173.748581 124.0
173.80629 128.0
173.850281 168.0
173.860504 128.0
173.945389 288.0
174.094238 452.0
174.12207 164.0
174.159683 164.0
174.210022 88.0
174.219421 68.0
174.237869 180.0
174.39238 136.0
174.4366 48.0
174.476028 172.0
174.511887 160.0
174.554916 100.0
174.581207 112.0
174.698761 92.0
174.705444 120.0
174.728226 112.0
174.77626 212.0
174.801773 136.0
174.878494 116.0
174.915344 132.0
174.959198 164.0
174.985825 400.0
175.018021 156.0
175.087936 1916.0
175.121078 124.0
175.196518 232.0
175.228729 104.0
175.247177 60.0
175.362747 172.0
175.396927 140.0
175.404114 116.0
175.417267 88.0
175.463287 128.0
175.499863 128.0
175.507645 112.0
175.629425 196.0
175.638611 124.0
175.694214 160.0
175.740219 128.0
175.781525 140.0
175.816742 328.0
175.835892 108.0
176.009445 124.0
176.056763 148.0
176.090958 432.0
176.138855 132.0
176.191681 44.0
176.251266 188.0
176.300018 136.0
176.334366 216.0
176.377121 140.0
176.434814 148.0
176.532654 84.0
176.617279 100.0
176.662247 272.0
176.682236 188.0
176.701172 152.0
176.723099 160.0
176.757599 192.0
176.79718 232.0
176.858063 100.0
176.876587 192.0
176.990433 112.0
177.064575 188.0
177.106293 180.0
177.165222 232.0
177.218216 168.0
177.260605 120.0
177.284454 52.0
177.313614 64.0
177.369263 156.0
177.386215 132.0
177.422287 176.0
177.470001 172.0
177.496521 212.0
177.57077 120.0
177.678955 184.0
177.72464 128.0
177.756485 108.0
177.775055 148.0
177.839951 124.0
177.859985 180.0
177.919586 132.0
177.968826 80.0
177.998032 116.0
178.040527 144.0
178.104263 132.0
178.22879 128.0
178.292908 72.0
178.327454 148.0
178.38327 132.0
178.401871 156.0
178.457703 304.0
178.494934 204.0
178.586578 156.0
178.625244 128.0
178.657166 112.0
178.74231 140.0
178.760849 132.0
178.77951 188.0
178.829391 144.0
178.872711 100.0
178.93129 104.0
178.952591 144.0
178.973877 196.0
178.997849 196.0
179.0298 152.0
179.048447 124.0
179.18367 172.0
179.272217 148.0
179.297363 156.0
179.337692 168.0
179.406464 176.0
179.527313 104.0
179.559814 360.0
179.640167 88.0
179.66684 100.0
179.690842 160.0
179.754883 180.0
179.786911 152.0
179.805588 208.0
179.869644 220.0
179.96843 124.0
179.992447 76.0
180.016479 152.0
180.059219 148.0
180.138046 248.0
180.182083 96.0
180.20079 160.0
180.228088 284.0
180.355789 132.0
180.387863 124.0
180.427963 96.0
180.454697 156.0
180.473404 140.0
180.510849 144.0
180.575027 100.0
180.609802 280.0
180.682556 180.0
180.719482 228.0
180.756943 160.0
180.783691 152.0
180.802429 180.0
180.82457 192.0
180.882721 176.0
180.917526 332.0
180.94429 96.0
180.963043 140.0
180.989807 132.0
181.102295 108.0
181.273743 124.0
181.319809 176.0
181.359512 296.0
181.386307 140.0
181.450653 132.0
181.525726 156.0
181.549866 160.0
181.568634 64.0
181.696884 128.0
181.703674 104.0
181.714462 164.0
181.73494 112.0
181.783173 152.0
181.909393 76.0
181.962006 160.0
181.987244 164.0
182.030212 152.0
182.099152 316.0
182.159225 192.0
182.223602 64.0
182.255844 128.0
182.2948 120.0
182.378021 172.0
182.48967 108.0
182.511185 176.0
182.584503 300.0
182.610687 152.0
182.687408 108.0
182.792435 228.0
182.826096 208.0
182.895889 256.0
182.925491 128.0
182.957062 176.0
182.97934 136.0
183.017868 180.0
183.04126 140.0
183.092438 176.0
183.111282 168.0
183.197479 152.0
183.280991 48.0
183.365433 180.0
183.386093 100.0
183.445404 96.0
183.513367 188.0
183.597672 92.0
183.631821 144.0
183.715057 144.0
183.844574 80.0
183.888672 188.0
183.931015 136.0
184.095627 112.0
184.122635 188.0
184.163147 120.0
184.21196 172.0
184.27121 100.0
184.292816 184.0
184.317139 44.0
184.390945 204.0
184.46138 312.0
184.495514 120.0
184.60907 148.0
184.673981 140.0
184.895828 200.0
184.91478 184.0
184.952667 68.0
184.972244 156.0
185.013718 196.0
185.044708 212.0
185.108261 844.0
185.148514 176.0
185.257751 168.0
185.323685 168.0
185.375168 28.0
185.432068 236.0
185.510223 164.0
185.607788 152.0
185.653198 192.0
185.67746 124.0
185.711334 224.0
185.868683 80.0
185.903961 180.0
185.99733 160.0
186.049774 128.0
186.115936 1648.0
186.147659 148.0
186.240601 308.0
186.309982 156.0
186.331924 156.0
186.368286 192.0
186.404297 204.0
186.589813 212.0
186.623779 72.0
186.66185 96.0
186.716232 168.0
186.757034 100.0
186.778397 308.0
186.829437 196.0
186.856949 192.0
186.887283 132.0
186.918304 184.0
186.954422 108.0
187.001907 208.0
187.056335 164.0
187.086334 132.0
187.12294 2104.0
187.176132 172.0
187.236038 104.0
187.290512 284.0
187.355896 116.0
187.430893 172.0
187.541748 156.0
187.571167 84.0
187.624161 64.0
187.69252 180.0
187.729294 132.0
187.748398 140.0
187.831482 308.0
187.947525 204.0
187.968521 132.0
188.070328 48.0
188.121643 668.0
188.20311 136.0
188.302399 96.0
188.446243 160.0
188.488159 120.0
188.594742 164.0
188.690674 176.0
188.723236 116.0
188.761581 152.0
188.805267 76.0
188.827148 92.0
188.8992 140.0
188.933823 104.0
188.952972 68.0
188.983078 176.0
189.010437 136.0
189.070633 304.0
189.103088 1240.0
189.124893 488.0
189.169174 48.0
189.204758 76.0
189.226654 184.0
189.270462 80.0
189.300583 32.0
189.32225 184.0
189.329346 168.0
189.362213 168.0
189.371536 84.0
189.381317 160.0
189.415619 164.0
189.440277 184.0
189.475891 152.0
189.536163 204.0
189.563019 180.0
189.567825 96.0
189.599182 136.0
189.651566 288.0
189.683258 204.0
189.735062 220.0
189.757812 176.0
189.775421 200.0
189.830246 144.0
189.854141 356.0
189.87883 116.0
189.898026 208.0
189.929672 156.0
189.995728 304.0
190.06189 256.0
190.110611 26228.0
190.183777 160.0
190.208832 116.0
190.235519 88.0
190.27121 60.0
190.309647 156.0
190.331619 36.0
190.35083 196.0
190.379211 84.0
190.387787 88.0
190.409393 192.0
190.431763 144.0
190.452454 124.0
190.518967 112.0
190.557999 160.0
190.65242 144.0
190.691483 36.0
190.749023 60.0
190.777634 108.0
190.849503 124.0
190.890594 112.0
190.969131 220.0
191.002182 128.0
191.056763 152.0
191.115067 2956.0
191.217911 108.0
191.242172 172.0
191.279938 140.0
191.311676 128.0
191.389801 292.0
191.425781 184.0
191.456314 48.0
191.49762 264.0
191.533432 212.0
191.559738 116.0
191.595108 132.0
191.6073 132.0
191.662827 144.0
191.721985 136.0
191.731613 60.0
191.738815 132.0
191.817245 124.0
191.839294 84.0
191.91098 84.0
191.952332 164.0
192.034256 212.0
192.120178 420.0
192.163773 164.0
192.201614 164.0
192.231689 148.0
192.30545 160.0
192.376862 124.0
192.394211 128.0
192.437729 112.0
192.470612 92.0
192.484436 164.0
192.50824 184.0
192.528259 176.0
192.567749 32.0
192.595367 76.0
192.6147 56.0
192.645081 176.0
192.763214 184.0
192.849564 112.0
192.896545 132.0
193.050781 112.0
193.090103 164.0
193.132584 2008.0
193.189667 148.0
193.209915 188.0
193.256073 112.0
193.329712 156.0
193.350159 120.0
193.384399 128.0
193.422989 188.0
193.448334 136.0
193.513474 120.0
193.53801 144.0
193.577164 124.0
193.667526 184.0
193.713867 128.0
193.779358 148.0
193.798752 100.0
193.819366 164.0
193.86525 112.0
193.88974 144.0
193.907516 160.0
193.959488 128.0
194.010223 184.0
194.053741 188.0
194.111038 144.0
194.145325 308.0
194.206253 60.0
194.228455 72.0
194.269028 248.0
194.341263 60.0
194.419891 100.0
194.475388 100.0
194.530914 164.0
194.571411 204.0
194.603088 200.0
194.636414 56.0
194.684921 76.0
194.721756 136.0
194.762543 116.0
194.818405 264.0
194.901779 104.0
194.950302 108.0
195.010147 180.0
195.036453 68.0
195.133759 108.0
195.155792 204.0
195.230011 248.0
195.263611 156.0
195.445847 76.0
195.548157 148.0
195.578842 76.0
195.612244 208.0
195.659576 108.0
195.869202 172.0
195.893494 164.0
195.938065 112.0
196.004837 116.0
196.040054 180.0
196.116409 276.0
196.15567 48.0
196.194916 328.0
196.311234 132.0
196.342026 156.0
196.38559 132.0
196.440506 108.0
196.446106 112.0
196.542953 160.0
196.632385 160.0
196.674255 76.0
196.707748 152.0
196.73288 36.0
196.755203 108.0
196.81105 128.0
196.833389 28.0
196.91716 172.0
197.009338 164.0
197.036301 208.0
197.060303 200.0
197.20932 152.0
197.258041 176.0
197.277618 244.0
197.31395 76.0
197.395218 140.0
197.425797 148.0
197.478256 196.0
197.523697 300.0
197.614716 164.0
197.775513 180.0
197.811905 100.0
197.876297 136.0
197.895889 32.0
197.946747 196.0
198.049911 60.0
198.069519 176.0
198.109726 292.0
198.143753 112.0
198.235229 136.0
198.285202 168.0
198.346924 132.0
198.394287 156.0
198.423447 204.0
198.467468 208.0
198.492279 52.0
198.54039 196.0
198.578339 188.0
198.630127 132.0
198.812714 160.0
198.843369 176.0
198.921967 156.0
198.961273 100.0
199.00238 192.0
199.029861 336.0
199.129303 180.0
199.168427 176.0
199.179886 136.0
199.23819 172.0
199.306717 200.0
199.348877 144.0
199.38736 132.0
199.405991 136.0
199.427567 124.0
199.506271 124.0
199.525955 100.0
199.554062 124.0
199.583237 160.0
199.624359 40.0
199.649673 212.0
199.77623 180.0
199.815628 184.0
199.888138 248.0
199.978836 60.0
200.052017 124.0
200.134552 112.0
200.195969 220.0
200.32074 260.0
200.352463 180.0
200.414581 152.0
200.44632 172.0
200.516251 168.0
200.581604 116.0
200.640793 132.0
200.759216 64.0
200.795883 132.0
200.815628 244.0
200.846649 64.0
200.866394 80.0
200.891785 32.0
200.953857 116.0
200.998993 92.0
201.139923 404.0
201.190918 224.0
201.230438 64.0
201.267151 176.0
201.365982 128.0
201.397049 160.0
201.426636 144.0
201.529831 164.0
201.558075 212.0
201.589172 100.0
201.642853 144.0
201.741791 92.0
201.79834 168.0
201.823776 256.0
201.849228 180.0
201.924332 156.0
202.029175 128.0
202.078339 128.0
202.106155 72.0
202.142288 280.0
202.192612 104.0
202.276428 160.0
202.344376 108.0
202.380234 168.0
202.474625 152.0
202.494446 148.0
202.559601 184.0
202.604919 108.0
202.658752 100.0
202.705399 232.0
202.743759 220.0
202.802094 196.0
202.867935 168.0
202.942184 144.0
202.964081 116.0
202.999237 300.0
203.055618 124.0
203.119492 420.0
203.147491 360.0
203.257034 48.0
203.310944 132.0
203.382721 152.0
203.458542 124.0
203.552231 172.0
203.668671 68.0
203.691406 100.0
203.739685 112.0
203.765259 148.0
203.836288 180.0
203.86969 224.0
203.877396 172.0
204.007721 204.0
204.072205 192.0
204.125519 736.0
204.152832 136.0
204.226547 176.0
204.29689 88.0
204.322495 104.0
204.385086 188.0
204.450531 116.0
204.476151 148.0
204.501755 148.0
204.584305 92.0
204.621323 128.0
204.675415 124.0
204.723907 140.0
204.789322 136.0
204.890579 168.0
204.954559 148.0
204.991592 100.0
205.074249 124.0
205.132324 284.0
205.259552 200.0
205.285568 200.0
205.305176 252.0
205.365067 152.0
205.385025 128.0
205.499146 128.0
205.617462 180.0
205.701767 196.0
205.767426 84.0
205.818375 132.0
205.864502 172.0
205.930466 92.0
205.95018 124.0
205.981598 28.0
206.01236 156.0
206.058731 112.0
206.134094 112.0
206.174347 164.0
206.204468 172.0
206.230194 116.0
206.254974 196.0
206.298798 200.0
206.340546 332.0
206.393143 152.0
206.418869 212.0
206.457993 100.0
206.478928 176.0
206.504669 100.0
206.576172 148.0
206.607635 196.0
206.630524 244.0
206.70874 156.0
206.748734 168.0
206.761047 52.0
206.772858 200.0
206.805084 80.0
206.862335 152.0
206.889969 196.0
206.96254 172.0
207.031265 104.0
207.128632 144.0
207.26239 204.0
207.300537 172.0
207.33493 164.0
207.367996 192.0
207.438614 180.0
207.542694 92.0
207.616455 300.0
207.667496 148.0
207.724869 216.0
207.773636 148.0
207.822403 160.0
207.862579 56.0
207.919968 140.0
207.942932 232.0
207.971634 68.0
208.018295 140.0
208.063492 108.0
208.136749 224.0
208.218033 112.0
208.274841 80.0
208.307587 124.0
208.359299 192.0
208.448318 264.0
208.468475 164.0
208.505844 56.0
208.525955 124.0
208.553284 148.0
208.589188 60.0
208.620804 104.0
208.650864 144.0
208.67543 160.0
208.718567 128.0
208.744446 156.0
208.764572 160.0
208.790451 280.0
208.836472 112.0
208.865234 104.0
208.92598 104.0
208.97168 160.0
209.042068 144.0
209.082458 192.0
209.11116 204.0
209.121811 160.0
209.134811 180.0
209.142349 336.0
209.184631 168.0
209.224335 208.0
209.2854 176.0
209.338455 132.0
209.374664 80.0
209.394821 128.0
209.422455 128.0
209.439087 120.0
209.469711 32.0
209.604263 160.0
209.639694 204.0
209.700226 84.0
209.743454 244.0
209.815826 152.0
209.857941 180.0
209.88472 212.0
209.925095 176.0
209.973251 144.0
209.99263 180.0
210.046219 136.0
210.075073 168.0
210.124115 136.0
210.167618 152.0
210.193359 156.0
210.213562 160.0
210.239029 208.0
210.328995 132.0
210.447357 140.0
210.497314 228.0
210.53688 272.0
210.635117 264.0
210.669739 68.0
210.76059 180.0
210.857559 144.0
210.926926 144.0
210.961609 116.0
211.008621 200.0
211.108429 172.0
211.244995 144.0
211.297577 92.0
211.307739 64.0
211.318909 212.0
211.354935 136.0
211.375198 248.0
211.398346 160.0
211.470688 144.0
211.511215 196.0
211.577789 180.0
211.598068 148.0
211.655975 80.0
211.679138 120.0
211.733582 216.0
211.800766 220.0
211.863159 156.0
211.87294 184.0
211.977493 148.0
212.001877 164.0
212.084732 152.0
212.138779 260.0
212.205429 184.0
212.307968 168.0
212.390854 132.0
212.421082 160.0
212.476196 188.0
212.544479 172.0
212.606781 128.0
212.631332 164.0
212.651398 200.0
212.673523 172.0
212.714157 116.0
212.766418 188.0
212.797714 72.0
212.834778 176.0
212.902893 104.0
212.960968 160.0
213.065552 172.0
213.085876 56.0
213.138718 492.0
213.225357 140.0
213.260239 208.0
213.299332 168.0
213.324188 92.0
213.393738 236.0
213.440475 112.0
213.51088 240.0
213.565521 128.0
213.588791 180.0
213.678192 104.0
213.795319 128.0
213.825623 424.0
213.853577 236.0
213.891418 152.0
213.917618 200.0
213.952545 156.0
213.987488 140.0
214.016602 92.0
214.039886 156.0
214.138138 348.0
214.188416 128.0
214.223373 176.0
214.275818 168.0
214.371964 132.0
214.398193 268.0
214.433167 148.0
214.454086 136.0
214.497284 84.0
214.558502 192.0
214.670624 176.0
214.762634 168.0
214.791794 140.0
214.81221 324.0
214.920166 56.0
214.961014 116.0
215.055939 160.0
215.117401 192.0
215.150925 676.0
215.229553 120.0
215.28212 44.0
215.327911 100.0
215.37265 200.0
215.395721 156.0
215.40654 140.0
215.463211 96.0
215.50119 180.0
215.53334 160.0
215.588409 104.0
215.664841 140.0
215.720383 124.0
215.811005 56.0
215.857513 188.0
215.878265 420.0
215.933441 196.0
216.008484 176.0
216.103485 116.0
216.12851 168.0
216.150085 160.0
216.161377 148.0
216.17189 128.0
216.19754 196.0
216.223465 372.0
216.30835 52.0
216.366898 108.0
216.435471 132.0
216.486938 132.0
216.586517 152.0
216.630356 116.0
216.777725 212.0
216.820908 124.0
216.861786 76.0
216.905914 152.0
216.93927 356.0
216.961609 176.0
216.985062 160.0
217.008514 200.0
217.039856 192.0
217.097321 224.0
217.131149 668.0
217.172729 56.0
217.219666 60.0
217.265381 156.0
217.313538 160.0
217.344498 156.0
217.45166 120.0
217.51683 252.0
217.564987 160.0
217.645203 116.0
217.667633 224.0
217.733307 64.0
217.792313 156.0
217.853729 284.0
217.883102 84.0
217.971252 180.0
218.030029 164.0
218.078705 92.0
218.104828 160.0
218.137192 276.0
218.191696 316.0
218.327652 232.0
218.418121 108.0
218.46225 36.0
218.502792 148.0
218.52916 204.0
218.564545 156.0
218.571838 112.0
218.60347 144.0
218.630875 168.0
218.735916 96.0
218.76535 100.0
218.800674 104.0
218.895309 56.0
219.001816 144.0
219.022614 196.0
219.067657 224.0
219.113922 320.0
219.149231 9292.0
219.198303 128.0
219.287735 312.0
219.325027 240.0
219.354507 140.0
219.388062 104.0
219.466522 76.0
219.501907 56.0
219.546143 112.0
219.581543 232.0
219.613983 208.0
219.6577 68.0
219.697784 228.0
219.734924 100.0
219.829132 112.0
219.885101 188.0
219.938538 248.0
219.962158 180.0
220.015289 148.0
220.086075 148.0
220.152252 1480.0
220.21608 144.0
220.333984 140.0
220.367325 180.0
220.523361 52.0
220.544052 80.0
220.616791 56.0
220.649323 220.0
220.684937 164.0
220.709351 156.0
220.745087 136.0
220.902496 144.0
220.949173 176.0
220.97876 88.0
221.014252 236.0
221.120789 108.0
221.151611 116.0
221.279602 160.0
221.326233 160.0
221.420593 152.0
221.478851 192.0
221.508667 164.0
221.530838 116.0
221.555939 96.0
221.64624 128.0
221.680771 132.0
221.763489 120.0
221.929489 156.0
221.976944 140.0
222.000656 168.0
222.048111 52.0
222.090881 188.0
222.111923 128.0
222.18306 144.0
222.251312 160.0
222.281876 120.0
222.288025 96.0
222.298874 204.0
222.331711 148.0
222.350723 336.0
222.392273 88.0
222.549606 344.0
222.597122 176.0
222.668396 148.0
222.703308 164.0
222.723282 240.0
222.748581 140.0
222.818726 144.0
222.848022 136.0
222.883438 216.0
222.971878 160.0
222.999619 172.0
223.043549 232.0
223.103653 124.0
223.271591 112.0
223.281158 108.0
223.32225 228.0
223.399597 108.0
223.432312 120.0
223.459091 156.0
223.500687 184.0
223.572159 120.0
223.601929 120.0
223.661453 136.0
223.754898 144.0
223.786484 152.0
223.917511 168.0
223.950424 76.0
224.120071 188.0
224.147629 388.0
224.170731 132.0
224.215424 128.0
224.313782 192.0
224.379364 152.0
224.636871 204.0
224.749207 36.0
224.787994 160.0
224.83873 128.0
225.055389 144.0
225.104416 132.0
225.196991 184.0
225.247772 176.0
225.288361 156.0
225.376236 208.0
225.471863 132.0
225.507248 300.0
225.576462 260.0
225.672684 424.0
225.719971 84.0
225.740906 144.0
225.828812 184.0
225.849823 124.0
225.905838 196.0
225.956436 272.0
226.036896 152.0
226.066971 208.0
226.099884 64.0
226.126831 132.0
226.179199 88.0
226.226959 168.0
226.294464 84.0
226.336578 184.0
226.372314 136.0
226.45018 224.0
226.501099 76.0
226.593552 160.0
226.67186 184.0
226.711105 128.0
226.75885 140.0
226.794739 44.0
226.842422 132.0
226.979675 168.0
227.028107 124.0
227.038971 104.0
227.082565 148.0
227.121552 172.0
227.157547 88.0
227.23555 164.0
227.258453 120.0
227.283752 180.0
227.293564 132.0
227.306122 92.0
227.382584 112.0
227.430603 96.0
227.481888 248.0
227.544586 156.0
227.635849 176.0
227.683777 148.0
227.716415 148.0
227.754883 200.0
227.799942 100.0
227.857025 184.0
227.899231 164.0
227.941147 160.0
227.962189 60.0
228.086624 136.0
228.130341 148.0
228.148911 160.0
228.172592 80.0
228.210922 128.0
228.222443 96.0
228.245361 140.0
228.30188 104.0
228.353775 116.0
228.377075 140.0
228.412811 340.0
228.456543 124.0
228.493561 160.0
228.626785 192.0
228.689301 124.0
228.737595 156.0
228.798355 76.0
228.830063 120.0
228.873611 108.0
228.911575 112.0
228.960953 160.0
229.010788 124.0
229.048294 132.0
229.102509 152.0
229.133347 600.0
229.169388 120.0
229.25618 112.0
229.290909 184.0
229.339355 260.0
229.382767 208.0
229.407486 180.0
229.451401 208.0
229.503357 152.0
229.529434 140.0
229.566681 200.0
229.607819 56.0
229.644699 184.0
229.659409 80.0
229.665161 164.0
229.691925 324.0
229.714462 108.0
229.739807 192.0
229.777359 188.0
229.830536 140.0
229.879852 200.0
229.920853 132.0
229.960297 144.0
229.972717 188.0
230.002869 164.0
230.027771 152.0
230.049911 196.0
230.108231 412.0
230.133972 408.0
230.168594 152.0
230.178207 140.0
230.211578 224.0
230.245453 156.0
230.265839 292.0
230.292358 260.0
230.317383 248.0
230.330139 244.0
230.353867 196.0
230.387802 200.0
230.410034 136.0
230.437576 184.0
230.485336 336.0
230.543167 400.0
230.573273 156.0
230.597275 328.0
230.624268 180.0
230.652527 340.0
230.690964 276.0
230.740143 312.0
230.773895 436.0
230.838409 720.0
230.880493 560.0
230.914902 516.0
230.955307 380.0
230.964172 428.0
230.975342 288.0
231.008408 740.0
231.051437 560.0
231.082764 832.0
231.086395 572.0
231.151215 462812.0
231.248291 276.0
231.259644 248.0
231.268387 372.0
231.353302 304.0
231.404785 352.0
231.432877 748.0
231.479263 392.0
231.512253 332.0
231.545761 336.0
231.58046 408.0
231.61026 680.0
231.649536 13640.0
231.695831 836.0
231.726059 128.0
231.759766 244.0
231.791321 244.0
231.822449 404.0
231.843399 136.0
231.877243 252.0
231.901566 364.0
231.94838 448.0
231.980835 240.0
231.990204 128.0
232.003021 316.0
232.038422 436.0
232.098389 680.0
232.153427 130984.0
232.255554 184.0
232.281631 48.0
232.319977 164.0
232.350067 312.0
232.379517 256.0
232.417252 168.0
232.470428 224.0
232.495728 188.0
232.524338 220.0
232.580017 196.0
232.59024 128.0
232.653 548.0
232.698593 260.0
232.735535 252.0
232.770172 164.0
232.800003 208.0
232.831192 100.0
232.862335 220.0
232.874344 372.0
232.908218 80.0
232.944794 256.0
232.979828 120.0
232.996857 104.0
233.018066 180.0
233.06163 176.0
233.094727 208.0
233.154663 9532.0
233.247604 164.0
233.284409 52.0
233.311798 132.0
233.344955 172.0
233.371475 124.0
233.389618 64.0
233.415146 236.0
233.426041 204.0
233.449921 292.0
233.503845 156.0
233.526062 320.0
233.562881 244.0
233.592529 424.0
233.626907 284.0
233.658875 308.0
233.697662 228.0
233.729492 184.0
233.758636 452.0
233.793793 292.0
233.837723 532.0
233.885712 288.0
233.909958 240.0
233.939636 296.0
233.977478 60.0
234.001144 208.0
234.035034 156.0
234.085449 224.0
234.157196 400.0
234.233917 52.0
234.30249 68.0
234.359329 152.0
234.414917 64.0
234.436981 148.0
234.531815 112.0
234.552612 144.0
234.560318 60.0
234.609436 92.0
234.695786 184.0
234.719238 72.0
234.762451 140.0
234.792419 268.0
234.825516 144.0
234.862518 108.0
234.891006 212.0
234.943787 96.0
234.987137 52.0
235.014587 36.0
235.057907 144.0
235.086227 92.0
235.136658 132.0
235.173279 48.0
235.219345 128.0
235.246536 64.0
235.275192 52.0
235.310028 144.0
235.339645 40.0
235.358231 88.0
235.412689 192.0
235.438889 52.0
235.542496 52.0
235.564117 140.0
235.59671 48.0
235.620529 60.0
235.651901 60.0
235.715103 104.0
235.736938 120.0
235.764755 48.0
235.785233 88.0
235.83725 176.0
235.900253 120.0
235.930695 104.0
235.988922 156.0
236.060516 76.0
236.095032 96.0
236.218277 40.0
236.272583 48.0
236.323822 64.0
236.442932 76.0
236.499786 64.0
236.533463 80.0
236.564072 60.0
236.59404 76.0
236.610962 88.0
236.655914 44.0
236.717148 68.0
236.760025 44.0
236.824341 32.0
236.880661 52.0
237.017334 48.0
237.057175 60.0
237.081696 76.0
237.216553 72.0
237.241074 48.0
237.344437 112.0
237.397446 148.0
237.468155 72.0
237.49559 76.0
237.529327 44.0
237.553864 84.0
237.59375 112.0
237.615219 32.0
237.648972 60.0
237.796265 104.0
237.983521 36.0
238.072571 48.0
238.103287 68.0
238.287582 112.0
238.401276 72.0
238.70253 128.0
238.727127 56.0
238.767105 36.0
238.899368 60.0
238.93013 80.0
238.989609 72.0
239.159958 128.0
239.184586 80.0
239.234802 76.0
239.453415 88.0
239.564301 64.0
239.663666 64.0
239.85704 32.0
240.103699 172.0
240.242508 140.0
240.294952 64.0
240.458496 68.0
240.53566 124.0
240.637527 48.0
240.76413 100.0
240.807373 92.0
240.844437 32.0
240.927841 100.0
240.961823 96.0
241.118011 88.0
241.175049 48.0
241.236862 96.0
241.320343 48.0
241.372894 64.0
241.410004 80.0
241.502792 84.0
241.552277 56.0
241.619598 84.0
241.660553 80.0
241.700775 80.0
241.819122 148.0
241.976242 120.0
242.075333 84.0
242.097 36.0
242.208496 80.0
242.242569 108.0
242.28595 92.0
242.34671 132.0
242.540039 96.0
242.574142 32.0
242.605148 52.0
242.636139 152.0
242.707458 72.0
242.784241 116.0
242.849792 80.0
242.971085 92.0
243.017624 180.0
243.163467 76.0
243.188293 56.0
243.247269 88.0
243.402496 100.0
243.458405 56.0
243.517548 176.0
243.551575 112.0
243.59816 76.0
243.626129 76.0
243.710007 80.0
243.734863 88.0
243.778366 76.0
243.831192 76.0
243.862274 96.0
243.888916 84.0
243.939209 128.0
243.963577 176.0
244.101654 104.0
244.135864 60.0
244.20755 72.0
244.615005 92.0
244.825394 124.0
245.013611 40.0
245.119553 188.0
245.145645 96.0
245.220154 112.0
245.375122 112.0
245.531036 120.0
245.662033 36.0
245.727554 88.0
245.768112 52.0
245.819717 60.0
245.905426 96.0
246.010193 184.0
246.083099 96.0
246.123947 64.0
246.208252 80.0
246.395676 48.0
246.442535 96.0
246.620651 76.0
246.826996 128.0
246.855133 52.0
246.907822 104.0
246.958344 28.0
246.995865 100.0
247.049042 84.0
247.336929 56.0
247.480942 68.0
247.593674 52.0
247.65004 96.0
247.722092 100.0
247.759674 132.0
247.841141 68.0
247.890137 132.0
247.957092 72.0
248.038574 48.0
248.179657 128.0
248.258499 84.0
248.471329 128.0
248.766327 160.0
248.913895 56.0
249.605179 92.0
249.730972 116.0
250.033005 64.0
250.07077 76.0
250.136871 60.0
250.218719 136.0
250.631317 68.0
251.183029 40.0
252.010147 68.0
252.376801 60.0
252.607666 52.0
252.672577 92.0
252.756363 76.0
252.806992 80.0
252.832306 112.0
252.879776 136.0
253.101379 92.0
253.6241 68.0
253.744553 72.0
254.172745 76.0
254.77916 40.0
255.027023 92.0
255.173248 144.0
255.608994 36.0
255.834976 132.0
255.898636 64.0
255.997345 160.0
256.06424 72.0
256.500732 136.0
257.505798 96.0
257.665527 172.0
257.978699 60.0
258.097015 112.0
258.464844 72.0
258.624847 88.0
258.800934 60.0
258.906586 152.0
259.178894 92.0
259.214111 76.0
259.236572 48.0
259.39682 84.0
260.160278 136.0
260.314392 80.0
260.494263 80.0
260.777008 92.0
261.014893 160.0
261.304382 64.0
261.365509 48.0
261.536072 56.0
261.96756 36.0
262.035217 72.0
262.48645 132.0
262.538055 84.0
263.228638 140.0
263.425629 72.0
263.580719 124.0
263.651794 176.0
263.739075 80.0
264.172363 32.0
264.233826 56.0
264.421509 52.0
264.544525 88.0
264.628693 180.0
264.881287 56.0
265.166412 136.0
265.247437 104.0
265.360901 44.0
265.665771 76.0
266.155823 44.0
266.974701 68.0
267.020233 164.0
267.280487 68.0
268.153229 196.0
268.267303 160.0
268.368378 64.0
268.564026 160.0
268.665161 68.0
268.753265 40.0
269.213501 80.0
269.265747 128.0
269.402954 36.0
269.852295 184.0
270.200623 60.0
270.678497 88.0
270.796387 96.0
270.838959 116.0
270.970001 128.0
271.071564 92.0
271.330505 92.0
271.399353 40.0
271.583008 136.0
271.986572 116.0
272.482452 140.0
272.627014 56.0
272.87027 116.0
272.899841 68.0
273.232025 56.0
273.294525 140.0
273.699402 80.0
273.913452 128.0
273.972748 64.0
274.002411 76.0
274.754059 44.0
274.922333 88.0
275.787628 92.0
275.876892 96.0
275.919861 116.0
276.1745 92.0
276.518585 52.0
277.081512 192.0
277.472565 56.0
277.538879 128.0
277.807526 84.0
278.275452 56.0
278.335236 100.0
278.65741 212.0
279.784821 56.0
279.841431 92.0
280.764435 168.0
281.508636 64.0
281.685638 128.0
282.213684 96.0
282.802429 80.0
282.966461 104.0
283.281281 72.0
284.183105 184.0
284.344147 124.0
284.579132 116.0
284.777252 92.0
285.076263 80.0
285.752106 164.0
287.102844 140.0
287.328827 112.0
287.362579 216.0
287.713562 112.0
288.112061 164.0
288.159363 92.0
289.376923 192.0
290.759949 100.0
290.848175 104.0
290.956818 36.0
292.153046 192.0
294.095337 88.0
294.317261 56.0
295.537476 116.0
295.735962 60.0
296.787659 84.0
297.185516 100.0
297.683258 172.0
298.09201 88.0
298.597382 108.0
298.962036 60.0
299.378571 140.0
299.464691 88.0
299.557678 120.0
299.88501 60.0
300.191864 112.0
301.037292 84.0
301.061462 152.0
301.438019 64.0
301.96347 164.0
302.89801 164.0
303.147461 92.0
303.216766 144.0
303.421265 144.0
304.003998 128.0
304.038696 152.0
304.385834 144.0
304.58728 104.0
305.146759 76.0
305.223267 128.0
305.901672 128.0
306.180237 44.0
306.20459 76.0
306.281219 56.0
306.444946 108.0
306.674957 112.0
306.936401 188.0
307.463165 36.0
307.986877 104.0
308.385193 36.0
308.769775 72.0
308.888702 72.0
308.937653 160.0
309.168091 112.0
309.203583 112.0
309.410095 84.0
309.746277 36.0
309.84787 144.0
310.058105 136.0
310.850647 116.0
310.948914 80.0
310.97348 92.0
311.082306 100.0
311.117401 48.0
311.185974 2296.0
311.264862 256.0
311.349152 60.0
311.433441 292.0
311.526245 76.0
311.640686 28.0
311.741272 80.0
311.841003 132.0
312.05542 104.0
312.101135 56.0
312.191223 444.0
312.25235 116.0
312.488037 128.0
312.656921 112.0
312.702698 152.0
312.920227 80.0
312.929504 64.0
312.944794 108.0
312.987823 48.0
313.065308 112.0
313.101776 144.0
313.135742 48.0
313.202271 30320.0
313.274384 208.0
313.334167 60.0
313.371765 68.0
313.40564 208.0
313.554199 124.0
313.664246 28.0
313.710083 60.0
313.734741 72.0
313.781586 84.0
313.833618 96.0
313.918091 160.0
313.9646 64.0
314.043152 128.0
314.056396 56.0
314.099609 136.0
314.20517 5400.0
314.265015 68.0
314.298401 176.0
314.383759 84.0
314.475861 76.0
314.542572 40.0
314.613159 64.0
314.724304 96.0
314.928345 136.0
314.966278 76.0
315.031128 88.0
315.141388 192.0
315.204285 936.0
315.277191 96.0
315.453766 96.0
315.648376 68.0
316.023315 48.0
316.129456 140.0
316.157776 112.0
316.21579 260.0
316.236877 152.0
316.295807 92.0
316.333252 100.0
316.361847 152.0
316.391388 68.0
316.416168 172.0
316.448029 116.0
316.52594 148.0
316.926178 40.0
317.128174 92.0
317.152985 92.0
317.213257 156.0
317.400391 76.0
317.454346 88.0
317.503998 80.0
317.55365 100.0
318.018433 128.0
318.732239 116.0
318.88504 128.0
318.934814 68.0
319.254791 44.0
319.279663 140.0
319.372131 144.0
319.596252 72.0
319.763519 44.0
321.010376 76.0
321.03891 52.0
321.285034 116.0
321.870361 56.0
322.05249 48.0
323.944702 36.0
325.325317 120.0
326.511047 140.0
326.764648 80.0
327.021942 32.0
328.053833 100.0
329.112793 92.0
329.401703 88.0
330.023315 40.0
330.862671 92.0
330.945953 44.0
331.163239 64.0
331.271881 84.0
331.34436 40.0
331.387817 120.0
331.467529 52.0
331.554504 40.0
331.742981 60.0
332.05481 100.0
332.421234 68.0
332.980286 80.0
333.674316 124.0
335.126495 112.0
335.414398 28.0
335.563873 76.0
335.826416 72.0
335.855621 48.0
336.315338 96.0
336.483276 88.0
337.194122 204.0
337.308868 80.0
337.429504 140.0
337.853729 64.0
338.49057 168.0
339.043732 56.0
339.289307 52.0
339.39563 120.0
339.916504 88.0
340.114685 140.0
340.173401 44.0
341.06601 100.0
341.213043 68.0
341.683807 48.0
342.257965 64.0
342.515747 76.0
342.769958 96.0
342.924744 36.0
343.983337 60.0
344.234406 152.0
344.289795 36.0
344.529877 56.0
344.618561 64.0
344.681366 100.0
345.110138 68.0
345.779694 40.0
347.079956 56.0
347.654907 52.0
348.115234 84.0
348.45694 108.0
348.873169 116.0
349.27478 160.0
349.564972 220.0
350.69339 36.0
350.734406 108.0
352.305389 76.0
353.666504 88.0
355.161499 108.0
355.641785 104.0
356.013458 28.0
356.144897 64.0
356.208771 36.0
356.295166 68.0
356.546906 44.0
357.344086 108.0
358.025391 64.0
358.221252 80.0
358.797821 92.0
359.001434 116.0
360.246979 88.0
360.938599 84.0
362.16098 92.0
363.556152 108.0
363.635864 68.0
363.920563 44.0
364.247162 52.0
364.984436 68.0
365.37619 36.0
365.806213 112.0
365.962311 96.0
365.992767 92.0
367.189331 116.0
368.116669 32.0
368.487183 72.0
368.529205 64.0
368.662933 152.0
368.991669 96.0
369.397034 108.0
369.599792 68.0
369.814117 196.0
370.059113 56.0
370.323334 76.0
372.187073 76.0
372.594208 96.0
373.343719 40.0
373.786102 64.0
375.851227 76.0
376.206512 108.0
377.18512 84.0
378.270782 60.0
378.375305 48.0
378.630859 128.0
378.967865 68.0
379.043152 112.0
379.111237 80.0
379.246887 104.0
380.398895 44.0
381.261169 68.0
381.331116 76.0
382.062134 48.0
383.027557 64.0
383.639343 44.0
383.962952 120.0
384.579407 56.0
384.950287 76.0
385.008881 88.0
385.2276 92.0
386.502136 76.0
388.237457 48.0
388.806305 120.0
389.477661 100.0
390.008118 60.0
390.397339 64.0
391.597687 72.0
392.669678 56.0
393.916962 40.0
394.185608 52.0
394.640167 96.0
395.269073 88.0
395.300446 104.0
395.518402 88.0
395.629242 76.0
395.874725 76.0
396.314423 152.0
396.537903 192.0
398.298004 144.0
398.762848 144.0
398.917877 52.0
399.124603 68.0
399.446747 120.0
399.844635 108.0
399.912292 100.0
400.493591 100.0
400.617096 40.0
400.947784 92.0
401.581726 80.0
401.833008 120.0
401.996613 100.0
403.758362 36.0
404.258423 104.0
404.318451 96.0
404.514557 72.0
404.554596 104.0
404.672699 56.0
405.262268 244.0
406.021088 48.0
406.145416 128.0
406.614838 64.0
406.92392 68.0
407.040375 88.0
407.136749 84.0
407.188965 172.0
407.30542 132.0
407.401825 36.0
408.664215 60.0
408.889557 68.0
409.046539 72.0
410.811554 72.0
411.428986 44.0
413.215271 120.0
413.636139 60.0
414.348877 152.0
414.9487 140.0
415.61792 96.0
415.715302 100.0
416.031891 92.0
416.218658 88.0
416.389221 72.0
416.830994 80.0
416.868591 84.0
416.945801 76.0
417.696533 100.0
417.950226 116.0
418.047882 68.0
418.85083 72.0
419.069916 56.0
419.322571 84.0
419.693512 68.0
419.979004 156.0
420.015686 52.0
420.354309 112.0
420.484924 52.0
420.546143 68.0
420.803314 76.0
420.878784 68.0
421.260712 128.0
421.448639 172.0
421.654663 144.0
422.049469 124.0
422.093842 136.0
422.196686 60.0
422.29892 156.0
422.339844 48.0
422.634369 84.0
422.708038 152.0
422.871735 68.0
422.908569 156.0
423.002716 144.0
423.100952 88.0
423.274719 11120.0
423.440826 76.0
423.494049 44.0
423.56369 96.0
423.753204 132.0
423.985687 96.0
424.030182 56.0
424.192902 44.0
424.278107 3476.0
424.346405 168.0
424.416107 48.0
424.522736 52.0
424.588348 48.0
424.707275 56.0
425.101135 40.0
425.282745 808.0
425.429474 120.0
425.486969 76.0
425.733337 36.0
425.805237 148.0
426.111206 76.0
426.18927 100.0
426.234467 124.0
426.275574 100.0
426.431732 60.0
426.551697 64.0
426.962097 76.0
427.069031 60.0
427.196533 104.0
427.369659 48.0
429.105652 132.0
429.532166 36.0
429.833099 64.0
429.932373 60.0
430.060333 128.0
430.266724 116.0
430.88208 80.0
431.059753 56.0
431.092804 60.0
431.568146 104.0
432.300293 36.0
433.629669 84.0
433.754028 52.0
433.961304 32.0
434.612488 108.0
434.869781 92.0
437.426056 68.0
437.767456 100.0
439.055145 64.0
439.405548 72.0
439.509857 132.0
440.875336 64.0
441.778442 56.0
443.289917 56.0
444.837524 96.0
445.450623 52.0
446.450928 36.0
447.145081 116.0
447.431305 96.0
447.62738 92.0
450.79718 48.0
451.824615 44.0
452.374786 52.0
452.793945 88.0
453.836395 36.0
454.684784 76.0
455.406555 80.0
456.222412 52.0
458.36322 76.0
462.561432 28.0
463.036713 60.0
464.013702 68.0
466.585327 48.0
468.160126 76.0
469.99646 60.0
471.326355 80.0
474.403534 128.0
474.698364 136.0
474.772095 96.0
477.264618 68.0
482.10318 96.0
482.234283 52.0
482.824493 64.0
483.493835 80.0
484.115479 32.0
485.39505 96.0
486.961731 40.0
487.611969 60.0
489.547668 32.0
490.173187 72.0
491.623962 72.0
492.458374 48.0
493.09903 100.0
493.589722 64.0
494.979126 80.0
495.399872 100.0
498.225739 40.0
498.7901 96.0
503.128967 56.0
504.049042 56.0
504.393158 60.0
504.560181 88.0
504.795532 100.0
505.757416 72.0
506.496216 68.0
507.075592 64.0
507.473175 68.0
509.897186 108.0
511.241852 112.0
512.696411 80.0
517.335144 72.0
519.324341 60.0
519.770691 136.0
520.063904 36.0
522.931885 116.0
526.113525 44.0
529.062134 48.0
530.803223 56.0
530.982056 88.0
532.014465 68.0
532.680298 44.0
533.36499 56.0
533.65918 100.0
534.684998 56.0
534.901306 84.0
537.648315 68.0
537.860596 112.0
538.021545 92.0
538.516235 100.0
539.371033 52.0
540.08313 84.0
540.971558 152.0
542.059937 48.0
542.166565 76.0
542.490967 104.0
545.085449 80.0
545.262024 52.0
546.024475 40.0
546.824707 28.0
548.496826 52.0
548.67395 56.0
550.162109 52.0
554.554443 140.0
555.140442 72.0
555.496887 40.0
556.999023 72.0
557.257385 180.0
557.511108 100.0
558.724243 92.0
559.081848 88.0
559.411316 92.0
559.740845 76.0
559.872742 28.0
563.552063 52.0
564.218445 84.0
564.918335 32.0
568.704346 40.0
569.088867 76.0
570.138611 80.0
570.73761 60.0
571.31781 84.0
572.955505 52.0
577.911255 148.0
578.552551 44.0
580.747192 52.0
580.910278 80.0
583.051758 68.0
583.085388 92.0
583.816101 72.0
584.619507 68.0
586.35321 76.0
589.050354 36.0
589.345032 68.0
594.536011 72.0
595.026306 80.0
595.584717 112.0
596.726746 44.0
599.028625 72.0
602.384705 40.0
603.288757 52.0
605.074402 116.0
606.000061 72.0
606.441101 60.0
607.421753 40.0
607.470764 48.0
609.247864 84.0
609.788391 96.0
611.502686 72.0
611.834656 80.0
612.070984 112.0
615.705322 52.0
616.777466 76.0
620.153137 44.0
627.226135 76.0
627.475342 64.0
629.111694 96.0
630.455261 48.0
631.045105 68.0
635.352234 52.0
639.311584 72.0
640.409119 72.0
641.048889 52.0
641.230347 56.0
642.87793 92.0
643.944702 52.0
644.040649 88.0
644.940002 56.0
646.6698 80.0
647.728027 92.0
651.893433 64.0
653.91748 36.0
655.00708 84.0
655.06311 132.0
656.90332 216.0
656.939026 148.0
657.888245 108.0
660.913818 136.0
665.244507 68.0
666.893372 56.0
668.184082 64.0
671.037292 64.0
671.83667 160.0
672.347473 92.0
673.307739 80.0
674.046448 64.0
674.191162 44.0
674.925171 100.0
675.390625 44.0
675.659607 48.0
677.388611 80.0
680.074585 220.0
681.62738 176.0
681.845642 64.0
682.594238 128.0
685.900146 52.0
692.735046 68.0
692.771729 76.0
694.470093 52.0
696.406799 100.0
699.161743 120.0
699.924988 80.0
700.088257 76.0
701.985352 48.0
704.281128 112.0
706.432495 136.0
707.654968 40.0
707.972717 28.0
708.624207 40.0
709.053406 152.0
712.927551 76.0
715.177185 132.0
715.485962 188.0
716.902771 64.0
719.623169 36.0
720.926453 104.0
722.632202 80.0
725.025757 100.0
726.69873 56.0
728.099792 36.0
728.873352 60.0
729.46991 76.0
729.733337 56.0
730.351746 64.0
730.916626 192.0
731.217957 76.0
734.132507 64.0
734.936218 80.0
735.346375 92.0
735.815979 64.0
735.929382 164.0
737.798706 76.0
739.702881 48.0
745.120422 60.0
746.028015 92.0
746.87085 180.0
746.930664 144.0
748.57428 100.0
749.500305 40.0
749.745544 140.0
751.632324 44.0
755.06842 168.0
755.292664 48.0
755.598999 72.0
757.383606 48.0
757.449341 64.0
763.822205 128.0
767.655457 60.0
768.488342 116.0
768.642822 64.0
771.343506 76.0
773.727722 88.0
773.843994 60.0
774.979431 76.0
776.825562 28.0
779.946289 68.0
783.106628 208.0
785.230103 64.0
786.446411 44.0
788.976868 68.0
789.552795 208.0
795.755798 64.0
797.626526 44.0
799.831482 40.0
801.273132 88.0
802.016968 40.0
803.466187 100.0
804.956238 156.0
806.261169 176.0
806.447693 160.0
810.748962 216.0
811.582214 92.0
813.857483 48.0
814.794617 120.0
816.488525 60.0
816.590881 164.0
816.710327 92.0
818.161377 52.0
818.292297 160.0
818.451721 92.0
820.160828 32.0
821.928711 152.0
822.311096 124.0
825.161499 60.0
827.346924 52.0
830.057007 228.0
831.23291 92.0
832.547485 48.0
834.794434 40.0
839.585693 52.0
841.126221 180.0
843.471375 64.0
844.003235 104.0
847.053223 52.0
848.2005 144.0
848.536743 180.0
850.572937 88.0
852.756897 196.0
854.367554 124.0
855.00177 84.0
856.643738 48.0
862.379578 44.0
863.081055 160.0
864.350342 80.0
865.655701 172.0
872.602905 196.0
874.226379 216.0
874.279358 48.0
876.098694 124.0
877.029724 72.0
878.114624 104.0
879.164734 148.0
879.961609 176.0
882.35437 192.0
882.626343 140.0
883.986877 100.0
884.886536 48.0
886.859192 72.0
887.973816 168.0
891.036804 184.0
894.759766 136.0
896.391785 76.0
896.487122 116.0
897.089111 156.0
897.51239 172.0
901.954041 216.0
902.276855 92.0
902.354614 88.0
902.539917 100.0
903.293457 116.0
903.766113 72.0
903.993469 60.0
904.340576 80.0
905.621887 148.0
906.167053 136.0
907.018005 208.0
911.663391 92.0
912.763428 160.0
913.996521 108.0
915.338806 28.0
916.236267 200.0
916.90509 184.0
917.30896 72.0
920.331482 148.0
920.651489 216.0
921.249451 76.0
921.781128 88.0
923.492004 52.0
923.867065 108.0
927.428894 164.0
928.518921 32.0
930.08429 108.0
930.582092 72.0
930.648865 64.0
932.216003 148.0
932.744751 72.0
934.112976 196.0
936.499023 80.0
936.578186 148.0
936.992432 160.0
938.790527 148.0
939.967834 32.0
940.62085 144.0
940.700195 200.0
940.871155 64.0
941.347412 88.0
942.459106 48.0
942.837952 76.0
943.730469 180.0
943.791565 140.0
943.840515 144.0
945.498291 152.0
947.494446 204.0
947.5802 168.0
947.776245 96.0
950.437378 140.0
951.272034 128.0
951.879883 136.0
953.987244 140.0
956.59552 164.0
957.285095 132.0
957.833191 224.0
958.937378 180.0
959.059387 100.0
960.280212 192.0
960.971069 188.0
961.526428 164.0
962.890869 60.0
963.996643 128.0
965.140198 180.0
965.585449 184.0
965.783386 48.0
965.918579 164.0
966.550476 44.0
969.919556 124.0
970.427856 44.0
971.196838 44.0
971.395325 164.0
977.589783 120.0
978.286865 148.0
978.361572 164.0
980.105469 196.0
982.574463 124.0
982.705444 88.0
983.691528 124.0
983.922485 124.0
984.103516 48.0
985.134033 128.0
985.577576 156.0
986.708862 144.0
986.968201 232.0
987.515503 92.0
988.472656 120.0
988.879456 136.0
990.845703 192.0
992.03009 120.0
992.441528 148.0
992.744873 144.0
992.8703 220.0
993.140015 40.0
994.708679 48.0
994.821655 188.0
995.323914 124.0
995.386719 92.0
995.468384 148.0
995.939392 192.0
996.372803 136.0
996.624146 140.0
996.74353 172.0
996.844055 208.0
998.409363 168.0
999.19751 212.0
999.626831 172.0
1000.611694 108.0
1000.750183 164.0
1003.156799 140.0
1003.459412 200.0
1004.727051 124.0
1005.421143 140.0
1005.522095 176.0
1006.399536 144.0
1006.551086 160.0
1006.626892 172.0
1006.74054 180.0
1007.422668 180.0
1007.612183 168.0
1007.672119 152.0
1008.098755 192.0
1008.800293 60.0
1009.280762 144.0
1009.343994 204.0
1009.856262 156.0
1010.602722 152.0
1010.957092 148.0
1011.064636 96.0
1011.12793 72.0
1012.216797 204.0
1012.425781 136.0
1012.653748 128.0
1012.805786 148.0
1013.166809 100.0
1013.211182 128.0
1013.686401 128.0
1014.111023 32.0
1016.032349 96.0
1016.298828 176.0
1016.406677 120.0
1016.787415 68.0
1017.339661 200.0
1018.285767 136.0
1018.66687 72.0
1019.213257 180.0
1019.715271 40.0
1020.168518 132.0
1021.012207 140.0
1021.673706 172.0
1021.762817 192.0
1022.131836 124.0
1022.679138 132.0
1022.831909 72.0
1022.965576 176.0
1023.417603 224.0
1023.513062 188.0
1024.137207 124.0
1024.563965 212.0
1024.748779 128.0
1024.825195 156.0
1025.545288 48.0
1026.112671 120.0
1026.930176 156.0
1027.860229 112.0
1028.600586 172.0
1028.875122 36.0
1029.354004 132.0
1030.324829 156.0
1030.541992 164.0
1030.59314 156.0
1030.637817 64.0
1030.738159 136.0
1031.251343 176.0
1031.954468 184.0
1032.645142 80.0
1033.655884 88.0
1034.110352 156.0
1034.347168 152.0
1034.980957 116.0
1035.172974 40.0
1035.249878 176.0
1035.935181 148.0
1036.165771 168.0
1036.870728 180.0
1037.627075 168.0
1037.896362 136.0
1038.10791 140.0
1038.390137 160.0
1038.986694 36.0
1039.076538 96.0
1039.647583 124.0
1039.846558 152.0
1040.475586 128.0
1040.661743 196.0
1040.931396 116.0
1040.995605 184.0
1042.30603 176.0
1042.550293 128.0
1042.922974 160.0
1043.270142 152.0
1043.76123 172.0
1044.30542 200.0
1044.858643 76.0
1044.916504 120.0
1045.463379 124.0
1045.888184 92.0
1046.647827 148.0
1046.892578 140.0
1046.944092 32.0
1047.143677 208.0
1047.762085 196.0
1048.187378 248.0
1049.48291 168.0
1049.79248 104.0
1049.921387 84.0
1049.998779 180.0
1050.269653 116.0
1050.430908 128.0
1050.495483 108.0
1050.630981 160.0
1051.076172 164.0
1051.362427 212.0
1051.476196 164.0
1051.850586 112.0
1052.237915 144.0
1052.380005 108.0
1053.374512 112.0
1053.910767 136.0
1054.098145 120.0
1054.640991 132.0
1054.692627 116.0
1056.011719 56.0
1056.39978 168.0
1056.587402 204.0
1056.63269 60.0
1056.87207 196.0
1057.150269 124.0
1057.266846 168.0
1057.519165 180.0
1058.011108 168.0
1058.101807 148.0
1060.031372 168.0
1060.543945 32.0
1060.684814 136.0
1061.15979 44.0
1061.840698 200.0
1062.041748 160.0
1062.262207 72.0
1062.82666 80.0
1063.105713 200.0
1063.280884 56.0
1063.815796 244.0
1063.930054 140.0
1064.257812 176.0
1064.358521 164.0
1064.81958 112.0
1064.878052 148.0
1065.144409 112.0
1065.57312 152.0
1065.683594 148.0
1066.567383 96.0
1066.651855 160.0
1066.814453 228.0
1067.646606 256.0
1067.69873 140.0
1067.880737 56.0
1068.003418 144.0
1068.563843 224.0
1068.700439 188.0
1068.891479 204.0
1069.279541 252.0
1069.396729 124.0
1069.513916 128.0
1069.554443 104.0
1069.689697 112.0
1069.91748 156.0
1070.054199 184.0
1070.373291 172.0
1070.418823 76.0
1070.477417 132.0
1070.630615 204.0
1070.894287 92.0
1071.356689 152.0
1071.415405 120.0
1071.506592 128.0
1071.793213 128.0
1072.360229 152.0
1072.49707 128.0
1072.633911 72.0
1072.686157 128.0
1072.731689 132.0
1072.868652 200.0
1072.933838 156.0
1073.148926 28.0
1073.801025 128.0
1074.04895 112.0
1074.251099 244.0
1074.688232 112.0
1075.605103 164.0
1075.758545 140.0
1076.182861 64.0
1076.228638 280.0
1076.848999 148.0
1077.139038 88.0
1077.306274 120.0
1077.587158 132.0
1077.815796 76.0
1078.547729 160.0
1078.77002 64.0
1079.776978 184.0
1080.8302 152.0
1080.99939 164.0
1081.157349 156.0
1081.667847 72.0
1081.982056 160.0
1082.767822 124.0
1082.952881 160.0
1083.134644 116.0
1083.644165 140.0
1083.947021 152.0
1083.99292 128.0
1084.28125 220.0
1085.153076 144.0
1085.264526 160.0
1086.057983 64.0
1086.76001 48.0
1086.86499 164.0
1087.403076 60.0
1088.092285 160.0
1088.240112 108.0
1088.30896 148.0
1088.55188 120.0
1088.893433 172.0
1088.958496 188.0
1088.982422 172.0
1089.070801 176.0
1090.095581 136.0
1090.227051 288.0
1090.595093 164.0
1090.80542 196.0
1090.996094 180.0
1091.147339 148.0
1091.311646 172.0
1091.535156 136.0
1091.614136 112.0
1091.758789 128.0
1092.390259 104.0
1092.949463 96.0
1093.291626 144.0
1093.35083 132.0
1093.703735 216.0
1093.864258 240.0
1094.206543 192.0
1094.739868 120.0
1095.181152 88.0
1095.272461 156.0
1095.297974 136.0
1095.467285 104.0
1095.536865 80.0
1095.622437 116.0
1095.965088 140.0
1096.01123 148.0
1096.485229 188.0
1096.591064 100.0
1096.762451 104.0
1097.355835 128.0
1097.507446 108.0
1097.870117 148.0
1098.114136 228.0
1098.55603 124.0
1099.181519 136.0
1099.204346 184.0
1099.592041 144.0
1100.304932 64.0
1100.582153 152.0
1101.004761 124.0
1101.407715 200.0
1101.90979 216.0
1102.240112 96.0
1102.64978 144.0
1103.013306 92.0
1103.271118 224.0
1103.542236 160.0
1103.76709 148.0
1103.96228 200.0
1104.084473 100.0
1104.173218 56.0
1104.282837 116.0
1104.698608 144.0
1104.997314 128.0
1105.169312 104.0
1105.367798 212.0
1105.559692 136.0
1105.658447 224.0
1106.022949 192.0
1106.075928 176.0
1106.274536 52.0
1106.546021 80.0
1106.751221 92.0
1106.830688 152.0
1106.896851 92.0
1107.036011 56.0
1107.14856 72.0
1107.20813 152.0
1107.69165 164.0
1107.850586 200.0
1108.062622 152.0
1108.228271 212.0
1108.287842 124.0
1108.855591 136.0
1108.94397 248.0
1109.116333 152.0
1109.195801 88.0
1109.547119 160.0
1109.971558 140.0
1110.117065 180.0
1110.230103 108.0
1110.481689 116.0
1111.079102 132.0
1111.145508 104.0
1111.291504 128.0
1111.371094 124.0
1111.783813 136.0
1111.988159 220.0
1112.499268 192.0
1112.705078 80.0
1113.037109 224.0
1113.110107 240.0
1113.196411 188.0
1113.475342 156.0
1113.561768 160.0
1113.654663 60.0
1113.760986 136.0
1114.172852 144.0
1114.239258 88.0
1114.372192 56.0
1114.637939 116.0
1114.757568 148.0
1115.253418 164.0
1115.645508 120.0
1116.007202 48.0
1116.446045 184.0
1116.530396 116.0
1116.579102 132.0
1116.652222 60.0
1116.905029 176.0
1117.124512 184.0
1117.262329 184.0
1117.505737 168.0
1117.996094 48.0
1118.597534 256.0
1118.728271 124.0
1118.801514 180.0
1119.001221 152.0
1119.387451 136.0
1119.560547 36.0
1119.800293 148.0
1120.366455 140.0
1120.579712 144.0
1120.66626 136.0
1120.992798 136.0
1121.06604 68.0
1121.312622 180.0
1121.932617 148.0
1121.999268 160.0
1122.059204 92.0
1122.252563 124.0
1122.8927 100.0
1122.946167 116.0
1123.206177 132.0
1123.475342 184.0
1123.599854 184.0
1123.793335 76.0
1123.880005 148.0
1123.953491 200.0
1124.220337 120.0
1124.26709 44.0
1124.387207 88.0
1124.734253 188.0
1125.299805 152.0
1126.216553 124.0
1126.844482 92.0
1127.044922 160.0
1127.432495 192.0
1127.49939 320.0
1128.829712 128.0
1129.137329 160.0
1129.190796 60.0
1129.317871 164.0
1129.485107 88.0
1129.558716 72.0
1129.980103 108.0
1130.151855 204.0
1130.241089 156.0
1130.401611 136.0
1130.448486 92.0
1131.024048 160.0
1131.185059 176.0
1131.476318 136.0
1131.716309 120.0
1131.927856 120.0
1132.450195 160.0
1132.633179 164.0
1132.966064 216.0
1133.146851 56.0
1133.240723 144.0
1133.582397 124.0
1133.75 168.0
1134.145386 116.0
1134.453735 116.0
1134.762085 136.0
1134.956543 172.0
1135.010254 156.0
1135.057129 148.0
1135.117554 152.0
1135.519897 244.0
1135.607056 88.0
1136.281128 292.0
1136.499268 92.0
1136.57312 92.0
1136.989136 184.0
1137.482788 136.0
1137.831543 120.0
1138.620483 168.0
1138.835449 152.0
1138.953979 192.0
1139.030273 132.0
1139.339233 132.0
1139.473633 100.0
1140.0448 168.0
1140.595825 144.0
1140.710083 136.0
1141.024902 156.0
1141.069336 160.0
1141.113525 160.0
1141.453491 200.0
1141.530396 124.0
1142.041504 176.0
1142.202881 76.0
1142.848755 120.0
1142.990112 36.0
1143.11792 144.0
1143.494751 140.0
1143.703369 152.0
1143.878418 160.0
1143.986572 188.0
1144.140991 160.0
1144.336182 180.0
1144.659424 240.0
1144.746948 156.0
1144.975952 92.0
1145.245972 196.0
1145.993042 52.0
1146.046997 124.0
1146.229614 228.0
1146.92981 104.0
1147.111816 192.0
1147.712646 176.0
1148.224365 156.0
1148.639404 144.0
1148.898804 80.0
1149.25647 156.0
1149.533081 216.0
1149.829956 192.0
1150.256592 172.0
1150.430786 132.0
1150.687256 140.0
1150.761597 208.0
1151.05188 152.0
1151.099121 116.0
1151.281494 156.0
1151.916382 132.0
1152.193359 128.0
1152.240601 120.0
1152.67981 108.0
1152.727173 208.0
1152.821777 128.0
1152.989868 144.0
1153.328613 100.0
1153.436035 200.0
1153.47937 260.0
1153.720703 88.0
1153.984375 120.0
1154.359497 208.0
1154.498291 60.0
1154.701172 212.0
1154.858398 188.0
1155.11377 136.0
1155.22876 72.0
1155.621094 132.0
1155.891724 88.0
1156.088013 172.0
1156.151123 120.0
1156.243652 84.0
1156.412842 100.0
1156.697144 176.0
1157.049194 120.0
1157.489258 76.0
1157.543457 128.0
1157.80249 188.0
1157.86853 240.0
1158.340942 132.0
1158.796509 176.0
1158.891357 144.0
1159.216553 164.0
1159.365723 152.0
1159.840088 140.0
1160.640015 108.0
1160.796265 212.0
1161.080811 132.0
1161.250366 180.0
1161.69812 128.0
1162.030518 112.0
1162.498657 132.0
1162.600464 112.0
1162.994141 124.0
1163.310181 100.0
1163.362305 188.0
1164.12793 136.0
1164.610107 156.0
1164.692505 156.0
1165.20105 80.0
1165.379761 144.0
1165.955322 120.0
1166.084473 216.0
1166.267944 136.0
1166.342773 68.0
1166.526245 88.0
1166.723389 80.0
1167.08374 48.0
1167.212891 124.0
1167.348999 140.0
1167.423706 88.0
1167.736572 224.0
1167.831787 184.0
1167.893066 180.0
1168.07666 32.0
1168.227539 108.0
1169.219727 80.0
1169.593018 244.0
1169.668945 64.0
1169.739868 184.0
1169.825562 228.0
1169.920776 200.0
1170.220337 220.0
1170.574463 180.0
1170.765137 180.0
1171.160156 100.0
1171.766357 108.0
1171.848145 112.0
1171.957153 76.0
1172.052612 104.0
1172.141113 76.0
1172.216064 156.0
1172.291016 172.0
1172.543213 140.0
1172.747681 156.0
1172.890869 156.0
1173.504395 60.0
1173.664917 136.0
1173.763428 168.0
1173.862427 132.0
1173.93396 164.0
1174.206665 200.0
1174.390869 200.0
1174.506836 128.0
1174.636475 140.0
1174.684204 76.0
1174.793335 256.0
1175.032104 120.0
1175.301758 152.0
1175.494385 116.0
1176.294556 60.0
1176.444824 144.0
1176.547119 196.0
1176.765625 152.0
1176.943115 132.0
1177.004639 180.0
1177.250488 116.0
1177.325562 140.0
1177.492065 192.0
1177.762695 84.0
1177.94519 128.0
1178.029053 156.0
1178.818604 152.0
1178.965088 80.0
1179.170166 232.0
1179.323853 148.0
1179.395752 144.0
1179.587036 180.0
1180.056519 108.0
1180.77002 120.0
1180.858887 176.0
1181.029907 124.0
1181.392456 240.0
1181.488159 152.0
1181.577148 184.0
1181.775513 144.0
1181.843994 188.0
1181.891846 92.0
1182.186035 124.0
1182.795166 200.0
1182.849976 164.0
1183.466064 132.0
1184.137207 108.0
1184.185181 100.0
1184.383789 116.0
1185.062012 172.0
1185.116821 124.0
1185.260742 48.0
1185.726685 136.0
1185.904907 112.0
1185.959717 148.0
1186.00769 116.0
1186.252808 144.0
1186.487549 120.0
1186.679443 140.0
1187.11145 144.0
1187.241821 148.0
1187.474976 44.0
1187.838501 160.0
1188.064819 96.0
1188.27063 160.0
1188.439331 116.0
1188.684448 184.0
1188.847046 116.0
1188.922485 148.0
1189.06665 172.0
1189.40979 264.0
1189.567749 144.0
1190.151245 56.0
1190.37793 80.0
1190.493408 120.0
1190.673218 84.0
1190.817383 292.0
1190.934204 224.0
1191.19519 144.0
1191.359985 152.0
1191.909668 144.0
1192.308228 68.0
1193.538696 216.0
1193.621216 152.0
1193.765625 120.0
1193.93335 220.0
1194.013184 172.0
1194.068237 152.0
1194.302124 68.0
1194.38855 164.0
1194.542847 184.0
1194.590942 176.0
1194.72168 196.0
1195.015869 100.0
1195.088379 180.0
1195.161987 180.0
1195.262573 232.0
1195.423462 224.0
1195.619873 168.0
1195.678101 220.0
1195.836426 132.0
1196.751953 132.0
1196.820801 208.0
1197.034302 148.0
1197.137573 136.0
1197.523193 88.0
1197.957153 192.0
1198.170776 132.0
1198.379761 156.0
1198.494629 148.0
1198.708252 108.0
1198.770264 100.0
1199.073486 68.0
1199.149292 148.0
1199.204346 168.0
1199.259521 164.0
1199.569702 180.0
1199.817871 240.0
1199.879883 120.0
1200.06604 112.0
1200.4729 128.0
1200.638428 136.0
1201.059082 124.0
1201.507568 40.0
1201.789062 208.0
1201.869263 164.0
1201.976685 128.0
1202.12854 168.0
1202.294067 152.0
1202.556396 184.0
1202.756592 152.0
1203.080688 92.0
1203.13623 152.0
1203.315674 116.0
1203.412598 124.0
1203.543579 116.0
1203.812866 168.0
1203.913208 144.0
1204.123657 132.0
1204.199585 88.0
1204.310059 168.0
1204.60022 112.0
1205.371948 148.0
1205.615845 172.0
1205.671143 204.0
1206.05127 116.0
1206.161865 104.0
1206.445312 172.0
1206.50061 108.0
1206.936157 156.0
1207.185059 136.0
1207.440063 152.0
1207.510132 136.0
1207.613892 188.0
1207.800659 92.0
1208.229492 144.0
1208.464722 128.0
1208.568604 200.0
1208.630859 216.0
1208.755371 152.0
1208.845337 116.0
1209.052979 120.0
1209.108276 120.0
1209.30896 52.0
1209.371338 48.0
1209.544312 312.0
1209.620483 188.0
1209.710449 84.0
1210.153564 112.0
1210.686768 132.0
1211.296265 180.0
1211.677246 200.0
1212.016724 192.0
1212.141479 160.0
1212.286987 68.0
1212.44873 192.0
1212.856934 164.0
1213.257324 116.0
1213.47229 156.0
1213.702637 72.0
1213.811035 144.0
1214.144897 92.0
1214.450562 108.0
1214.803833 128.0
1214.894043 192.0
1214.977295 60.0
1215.086304 176.0
1215.254761 132.0
1216.03894 152.0
1216.233276 232.0
1216.517822 128.0
1216.906616 120.0
1217.139771 196.0
1217.269287 124.0
1217.333252 216.0
1217.394531 152.0
1217.934448 96.0
1218.341064 140.0
1218.635986 44.0
1218.809692 136.0
1219.025146 140.0
1219.226685 52.0
1219.351807 144.0
1219.907837 36.0
1219.977417 136.0
1220.241577 196.0
1220.300415 240.0
1220.380615 184.0
1221.082886 196.0
1221.34729 152.0
1221.500244 104.0
1221.630005 188.0
1221.820312 168.0
1221.987183 228.0
1222.328125 200.0
1222.683105 76.0
1222.870972 160.0
1222.926636 172.0
1223.111084 132.0
1223.205078 176.0
1223.274658 236.0
1223.490479 120.0
1223.727173 140.0
1223.852539 188.0
1224.013184 176.0
1224.806641 164.0
1224.893799 144.0
1225.329102 100.0
1225.406982 196.0
1225.496338 100.0
1225.717651 156.0
1225.791748 204.0
1225.872559 80.0
1226.011963 140.0
1226.426392 280.0
1226.7229 160.0
1226.827515 124.0
1226.973877 160.0
1227.085449 48.0
1227.231812 96.0
1227.378296 172.0
1228.403442 188.0
1228.598755 200.0
1228.669067 116.0
1229.010376 100.0
1229.129028 144.0
1229.219727 248.0
1229.277222 184.0
1229.436035 160.0
1229.701294 180.0
1229.750122 60.0
1229.900269 132.0
1230.179443 96.0
1230.490112 128.0
1230.574463 140.0
1230.811279 140.0
1231.07666 160.0
1231.258179 104.0
1231.425781 176.0
1231.722412 132.0
1231.844849 204.0
1232.054443 156.0
1232.174683 204.0
1232.264038 116.0
1232.389771 220.0
1232.473633 128.0
1232.550537 172.0
1232.739136 140.0
1232.873413 224.0
1233.500977 152.0
1233.693481 152.0
1233.815552 148.0
1234.039307 48.0
1234.338135 184.0
1234.46582 60.0
1234.549683 104.0
1234.675659 256.0
1234.759521 140.0
1234.913452 92.0
1235.515015 112.0
1235.738892 188.0
1235.80188 176.0
1235.932129 188.0
1236.011719 144.0
1236.116699 100.0
1236.235718 152.0
1236.347656 112.0
1236.655518 124.0
1236.928589 164.0
1237.303345 176.0
1237.6427 152.0
1237.710938 132.0
1237.901733 176.0
1238.335938 140.0
1238.398926 156.0
1238.470825 120.0
1238.777222 196.0
1238.861328 260.0
1238.926025 148.0
1239.498779 156.0
1240.087524 132.0
1240.16333 172.0
1240.511353 164.0
1240.689697 204.0
1240.80249 140.0
1240.907715 216.0
1241.13208 60.0
1241.433594 164.0
1241.752075 200.0
1241.994629 148.0
1242.38208 160.0
1242.52771 208.0
1242.625977 156.0
1242.731201 188.0
1242.954346 152.0
1243.110107 208.0
1243.201416 160.0
1243.257568 208.0
1243.340332 156.0
1243.538208 116.0
1243.629517 204.0
1243.910278 156.0
1243.959351 40.0
1244.008545 132.0
1244.157104 168.0
1244.338501 120.0
1244.655273 132.0
1244.911133 200.0
1244.998535 176.0
1245.054688 116.0
1245.167114 168.0
1245.216187 116.0
1245.36377 100.0
1245.602539 88.0
1245.890503 152.0
1246.045166 180.0
1246.276978 152.0
1246.368286 184.0
1246.649414 132.0
1246.874268 140.0
1247.120117 144.0
1247.232788 188.0
1247.513916 148.0
1247.731812 172.0
1247.8302 40.0
1248.013062 156.0
1248.434937 112.0
1248.484253 124.0
1248.589722 152.0
1248.752319 128.0
1248.920288 204.0
1249.046875 116.0
1249.19458 132.0
1249.419678 136.0
1249.651855 144.0
1249.771484 172.0
1250.03186 128.0
1250.228882 52.0
1251.017212 96.0
1251.143921 196.0
1251.228394 84.0
1251.362183 192.0
1251.594482 92.0
1251.643799 196.0
1251.699341 156.0
1251.777588 88.0
1251.946533 180.0
1252.045166 304.0
1252.630737 168.0
1252.707642 204.0
1252.798828 132.0
1252.924805 176.0
1253.114502 124.0
1253.348389 184.0
1253.50708 184.0
1253.609131 112.0
1253.671997 152.0
1253.872559 184.0
1253.954468 212.0
1254.116577 156.0
1254.172852 192.0
1254.461914 152.0
1254.553589 104.0
1254.68042 136.0
1254.726807 180.0
1254.828491 92.0
1255.159912 212.0
1255.484253 184.0
1255.604126 144.0
1255.877441 160.0
1255.954956 156.0
1256.177246 176.0
1256.380005 52.0
1256.436523 200.0
1256.528198 116.0
1256.662231 68.0
1256.866821 112.0
1257.029175 140.0
1257.427246 128.0
1257.551392 60.0
1257.636108 144.0
1257.720825 164.0
1258.187256 156.0
1258.260742 144.0
1258.724731 116.0
1259.132935 64.0
1259.215088 72.0
1259.436646 156.0
1259.532349 200.0
1259.874512 168.0
1260.135986 180.0
1260.906128 164.0
1261.153564 196.0
1261.2771 140.0
1261.450439 176.0
1261.645264 120.0
1261.931152 48.0
1262.194824 124.0
1262.390747 168.0
1262.533447 264.0
1262.673706 68.0
1262.900024 136.0
1262.977783 144.0
1263.253662 204.0
1263.402222 96.0
1264.499023 128.0
1264.543945 120.0
1264.857788 52.0
1264.946045 140.0
1265.126587 140.0
1265.19812 196.0
1265.277588 168.0
1265.808594 180.0
1266.098999 88.0
1266.19104 168.0
1266.615967 112.0
1267.090698 240.0
1267.699951 164.0
1267.799194 144.0
1267.870117 68.0
1267.96936 72.0
1268.430054 168.0
1268.503662 232.0
1268.578857 84.0
1268.64978 188.0
1268.784424 144.0
1268.876587 104.0
1269.011353 136.0
1269.280762 92.0
1269.401367 120.0
1269.98999 184.0
1270.153076 40.0
1270.253174 176.0
1270.685181 164.0
1270.905029 32.0
1271.075317 152.0
1271.210205 68.0
1271.32373 132.0
1271.472778 144.0
1271.593384 164.0
1271.820557 132.0
1272.345825 120.0
1272.669312 148.0
1272.75769 148.0
1272.821533 84.0
1272.878296 68.0
1273.013306 152.0
1273.148193 148.0
1273.354126 236.0
1273.482056 140.0
1273.545898 156.0
1274.102661 160.0
1274.270508 152.0
1274.391235 104.0
1274.618652 236.0
1274.824707 212.0
1275.094727 64.0
1275.148193 152.0
1275.329346 152.0
1275.494873 188.0
1275.63501 164.0
1275.720337 132.0
1276.097046 132.0
1276.182373 164.0
1276.353027 104.0
1276.452637 132.0
1276.765503 92.0
1277.064209 160.0
1277.12439 168.0
1277.177979 48.0
1277.576294 156.0
1277.647461 148.0
1277.73291 132.0
1278.063965 188.0
1278.242432 156.0
1278.600952 148.0
1278.757568 152.0
1279.141846 152.0
1279.232666 232.0
1279.46228 168.0
1279.569092 136.0
1279.673584 248.0
1279.732788 28.0
1280.032349 212.0
1280.095947 104.0
1280.380737 184.0
1280.501831 152.0
1280.796143 188.0
1280.907837 64.0
1281.000488 216.0
1281.174438 172.0
1281.242676 44.0
1281.342407 124.0
1281.406494 184.0
1281.477783 36.0
1281.613159 136.0
1282.297241 188.0
1282.914062 136.0
1283.307495 224.0
1283.437866 160.0
1283.630371 172.0
1283.723022 48.0
1283.865723 156.0
1284.172363 116.0
1284.322144 100.0
1284.37915 144.0
1284.592896 92.0
1284.885742 96.0
1284.971313 152.0
1285.197876 192.0
1285.299561 220.0
1285.50647 180.0
1285.606323 60.0
1285.902954 144.0
1286.163086 120.0
1286.489868 128.0
1286.569946 44.0
1286.677002 144.0
1286.876953 80.0
1286.962891 188.0
1287.148193 176.0
1287.253784 36.0
1287.348145 120.0
1287.405273 160.0
1288.169556 340.0
1288.312378 128.0
1288.369629 120.0
1288.476685 168.0
1288.576782 184.0
1288.948242 112.0
1289.216309 120.0
1289.260132 168.0
1289.427124 160.0
1289.498535 104.0
1289.641479 140.0
1289.734375 148.0
1289.984253 140.0
1290.299194 96.0
1290.427856 128.0
1290.484985 168.0
1290.585205 160.0
1290.689819 144.0
1290.756714 216.0
1290.864014 224.0
1290.914062 76.0
1291.085693 188.0
1291.450439 164.0
1291.557739 140.0
1291.61499 156.0
1291.665039 136.0
1291.908203 188.0
1292.10144 116.0
1292.20874 176.0
1292.364136 192.0
1292.494873 132.0
1292.593018 180.0
1292.695312 172.0
1292.78833 208.0
1292.845581 48.0
1292.952881 164.0
1293.103149 120.0
1293.181885 92.0
1293.368042 128.0
1293.568481 92.0
1293.797485 184.0
1293.976562 120.0
1294.141235 136.0
1294.205566 224.0
1294.341675 108.0
1294.51355 40.0
1294.649536 148.0
1294.771362 92.0
1294.928833 164.0
1295.043457 140.0
1295.154907 200.0
1295.387329 188.0
1295.520874 172.0
1295.63623 140.0
1295.759888 192.0
1295.953247 152.0
1296.223511 124.0
1296.268555 160.0
1296.318726 80.0
1296.516724 156.0
1296.671997 200.0
1297.193115 140.0
1297.336426 108.0
1297.408203 172.0
1297.508545 136.0
1297.587402 156.0
1297.910034 172.0
1298.053467 184.0
1298.146729 112.0
1298.244629 180.0
1298.372437 256.0
1299.224731 64.0
1299.423462 144.0
1299.817993 148.0
1299.910889 120.0
1300.069214 156.0
1300.23999 172.0
1300.261719 136.0
1300.358398 216.0
1300.456787 184.0
1300.51416 192.0
1300.621826 56.0
1301.059692 96.0
1301.208008 184.0
1301.301392 212.0
1301.456421 196.0
1301.562256 116.0
1301.792114 136.0
1302.014771 80.0
1302.474365 80.0
1302.553345 76.0
1303.149658 208.0
1303.286133 288.0
1303.419067 148.0
1303.580811 144.0
1303.713867 156.0
1304.033569 112.0
1304.11792 156.0
1304.349854 176.0
1304.400146 112.0
1304.518677 228.0
1304.6073 152.0
1304.764038 112.0
1304.962036 152.0
1305.119019 124.0
1305.169434 148.0
1305.406616 72.0
1305.464233 108.0
1305.679932 156.0
1305.759033 168.0
1305.902954 152.0
1306.053955 252.0
1306.104248 64.0
1306.183472 252.0
1306.269775 36.0
1306.37439 144.0
1306.564697 188.0
1306.748779 96.0
1306.866821 164.0
1307.140259 140.0
1307.387451 184.0
1307.516479 200.0
1307.586426 168.0
1307.640137 164.0
1308.018311 60.0
1308.239014 204.0
1308.299072 124.0
1308.589722 140.0
1308.846191 108.0
1308.918213 60.0
1309.055054 100.0
1309.105469 176.0
1309.199097 168.0
1309.327637 136.0
1309.606445 176.0
1309.868896 40.0
1310.070557 100.0
1310.149902 376.0
1310.286743 224.0
1310.60376 120.0
1310.740601 120.0
1310.932617 176.0
1311.014282 120.0
1311.38208 176.0
1311.439697 140.0
1311.641479 100.0
1311.785645 156.0
1311.951538 136.0
1312.0177 156.0
1312.102173 188.0
1312.730225 176.0
1312.939331 132.0
1313.261841 200.0
1313.307861 172.0
1313.458618 160.0
1313.671021 220.0
1314.122314 168.0
1314.208862 116.0
1314.389282 204.0
1314.511963 76.0
1314.815063 92.0
1315.334717 188.0
1315.717285 44.0
1315.854492 220.0
1315.972046 124.0
1316.219116 88.0
1316.518799 184.0
1316.634277 148.0
1316.706543 204.0
1316.916016 108.0
1317.334961 284.0
1317.443237 168.0
1317.638306 244.0
1317.898438 228.0
1318.006836 144.0
1318.057373 128.0
1318.122437 156.0
1318.490967 112.0
1318.902954 164.0
1318.97522 128.0
1319.41626 140.0
1319.567993 200.0
1319.750122 284.0
1319.94397 120.0
1320.305542 180.0
1320.696167 132.0
1320.913086 196.0
1321.126221 164.0
1321.506348 196.0
1321.745117 120.0
1321.839233 228.0
1322.114136 224.0
1322.173096 136.0
1322.273438 88.0
1322.533936 68.0
1322.683594 348.0
1322.886597 200.0
1322.953857 204.0
1323.004517 116.0
1323.076904 196.0
1323.24646 140.0
1323.475098 136.0
1323.641602 108.0
1323.706787 152.0
1323.858887 156.0
1323.931274 140.0
1324.068848 204.0
1324.141357 188.0
1324.228149 140.0
1324.517944 152.0
1324.655518 184.0
1325.003296 176.0
1325.235107 112.0
1325.539429 132.0
1325.669922 348.0
1325.720581 132.0
1326.467163 136.0
1326.539673 136.0
1326.68457 200.0
1326.863892 180.0
1327.050781 148.0
1327.17041 36.0
1327.786743 136.0
1327.844727 168.0
1327.975342 88.0
1328.076904 204.0
1328.258179 208.0
1328.493774 236.0
1328.71521 152.0
1328.838501 204.0
1328.940186 172.0
1329.188599 176.0
1329.999634 112.0
1330.086792 176.0
1330.137573 80.0
1330.229492 152.0
1330.28894 156.0
1330.366455 168.0
1330.427979 216.0
1330.594971 120.0
1330.703857 136.0
1331.001831 172.0
1331.23584 120.0
1331.437256 120.0
1331.597046 136.0
1332.033813 144.0
1332.163574 84.0
1332.534058 128.0
1332.62854 80.0
1332.737549 228.0
1332.839233 116.0
1332.904663 124.0
1333.049927 184.0
1333.638672 144.0
1333.740356 108.0
1333.885742 120.0
1334.234741 176.0
1334.566528 264.0
1334.692749 160.0
1334.896362 144.0
1335.456299 176.0
1335.525879 160.0
1335.698975 124.0
1335.827271 232.0
1335.936401 52.0
1336.041626 112.0
1336.072388 128.0
1336.140137 212.0
1336.212891 176.0
1336.394775 88.0
1336.525757 100.0
1336.802246 180.0
1337.075562 148.0
1337.537354 132.0
1337.664185 148.0
1337.966797 124.0
1338.173218 148.0
1338.236206 108.0
1338.335449 228.0
1338.770752 180.0
1338.821899 136.0
1339.220825 152.0
1339.791748 176.0
1339.814575 148.0
1339.970703 224.0
1340.035156 148.0
1340.093506 60.0
1340.278564 184.0
1340.414062 148.0
1340.479614 252.0
1340.61084 192.0
1340.714844 140.0
1340.800293 128.0
1340.982422 172.0
1341.427124 176.0
1341.485474 144.0
1341.599731 124.0
1341.71875 168.0
1341.782227 160.0
1342.077637 172.0
1342.367676 112.0
1342.506226 116.0
1342.651978 156.0
1343.242798 140.0
1343.534668 236.0
1343.636719 140.0
1343.746216 116.0
1343.804565 196.0
1343.943237 172.0
1343.994263 36.0
1344.307983 128.0
1344.373657 140.0
1344.462891 124.0
1344.599976 132.0
1344.747925 192.0
1344.982788 64.0
1345.067017 136.0
1345.459839 172.0
1345.519653 176.0
1345.599976 164.0
1345.658325 128.0
1345.950439 140.0
1346.04541 116.0
1346.202637 172.0
1346.476196 136.0
1346.863281 40.0
1347.10437 200.0
1347.492676 128.0
1347.645264 132.0
1347.855713 152.0
1347.951904 152.0
1348.0177 160.0
1348.163818 156.0
1348.236938 76.0
1348.295288 212.0
1348.543823 92.0
1348.711914 136.0
1348.77771 92.0
1348.828857 120.0
1348.93335 168.0
1349.057251 312.0
1349.135864 168.0
1349.245605 108.0
1349.32605 140.0
1349.508789 148.0
1349.713501 196.0
1349.788452 156.0
1349.969482 124.0
1350.210815 152.0
1350.466797 180.0
1350.920288 140.0
1350.971436 244.0
1351.037354 124.0
1351.103149 104.0
1351.376221 172.0
1351.564087 132.0
1351.622681 112.0
1351.795166 252.0
1352.280151 324.0
1352.639893 48.0
1352.889648 176.0
1353.030762 120.0
1353.174316 220.0
1353.371948 32.0
1353.523315 168.0
1353.796753 56.0
1353.945068 244.0
1354.009033 192.0
1354.426514 104.0
1354.555176 152.0
1355.034546 172.0
1355.195801 76.0
1355.261719 180.0
1355.364258 248.0
1355.459595 132.0
1355.558105 200.0
1355.752686 128.0
1355.979858 152.0
1356.089844 132.0
1356.163086 168.0
1356.295044 64.0
1356.595581 124.0
1356.778809 108.0
1357.116089 248.0
1357.220947 148.0
1357.372681 344.0
1357.554443 176.0
1357.600708 168.0
1357.732056 116.0
1357.922729 96.0
1358.120728 152.0
1358.201416 44.0
1358.311523 132.0
1358.516846 116.0
1358.845093 184.0
1358.935059 156.0
1359.074463 148.0
1359.353271 156.0
1359.43396 192.0
1359.500122 96.0
1359.742188 152.0
1359.815674 200.0
1359.896362 60.0
1360.161743 176.0
1360.358765 132.0
1360.410156 156.0
1360.806641 32.0
1361.276611 88.0
1361.430786 148.0
1361.763794 172.0
1361.810303 184.0
1361.952271 184.0
1362.297485 152.0
1362.413086 136.0
1362.466431 36.0
1362.708862 132.0
1362.789673 160.0
1362.966064 176.0
1363.054199 232.0
1363.311401 180.0
1363.473145 116.0
1363.719604 160.0
1363.811157 216.0
1363.980225 200.0
1364.156616 148.0
1364.465454 116.0
1364.78772 156.0
1365.016846 116.0
1365.090454 104.0
1365.296265 108.0
1365.553711 116.0
1365.649292 152.0
1365.914185 136.0
1366.188232 112.0
1366.270508 188.0
1366.370239 148.0
1366.445679 192.0
1366.568848 92.0
1366.708618 348.0
1366.803955 156.0
1366.892578 180.0
1367.150146 96.0
1367.378296 144.0
1367.437256 96.0
1367.731567 176.0
1367.87146 168.0
1367.958374 168.0
1368.055542 204.0
1368.126221 240.0
1368.269043 152.0
1368.317383 140.0
1368.467773 116.0
1368.548706 140.0
1368.677979 204.0
1369.078979 96.0
1369.235718 140.0
1369.29248 192.0
1369.520874 152.0
1369.609253 132.0
1369.675537 40.0
1369.955444 200.0
1370.478516 244.0
1370.633301 156.0
1371.206665 124.0
1371.281738 208.0
1371.495483 180.0
1371.576538 268.0
1371.672363 164.0
1371.968262 156.0
1372.033569 140.0
1372.254761 156.0
1372.483398 204.0
1372.711914 144.0
1372.881592 244.0
1373.117554 60.0
1373.228149 144.0
1373.279785 200.0
1373.449463 132.0
1373.560059 28.0
1373.626465 100.0
1374.187134 56.0
1374.260986 148.0
1374.437988 140.0
1375.013672 144.0
1375.139038 172.0
1375.412231 128.0
1375.493408 164.0
1375.61145 124.0
1375.828369 128.0
1376.032349 72.0
1376.209473 108.0
1376.386719 132.0
1376.60083 68.0
1376.652588 108.0
1376.947876 204.0
1377.058716 132.0
1377.442749 92.0
1377.58313 196.0
1377.723511 32.0
1377.807007 68.0
1378.070801 164.0
1378.188965 128.0
1378.344116 164.0
1378.469727 204.0
1378.765381 160.0
1378.935303 188.0
1379.090576 124.0
1379.27063 116.0
1379.378784 84.0
1379.696655 124.0
1379.947998 148.0
1380.05896 224.0
1380.51001 316.0
1380.613525 188.0
1380.983398 268.0
1381.530762 92.0
1381.612061 160.0
1382.033813 212.0
1382.374146 144.0
1382.538696 140.0
1382.810791 120.0
1383.032837 116.0
1383.166138 120.0
1383.536255 196.0
1383.647217 84.0
1383.839722 140.0
1384.353149 132.0
1384.4552 144.0
1384.535767 164.0
1384.772827 132.0
1384.913574 164.0
1385.076538 128.0
1385.469116 84.0
1385.550537 144.0
1385.694702 376.0
1385.995117 148.0
1386.158203 124.0
1386.282593 252.0
1386.46936 196.0
1386.543457 236.0
1386.654663 132.0
1386.743652 160.0
1386.884399 120.0
1386.988159 164.0
1387.225464 176.0
1387.432983 160.0
1387.521973 156.0
1387.633179 72.0
1387.707275 244.0
1387.922363 104.0
1388.100342 252.0
1388.159668 116.0
1388.263428 148.0
1388.541992 116.0
1388.715576 108.0
1388.841919 124.0
1389.012573 220.0
1389.232422 112.0
1389.31665 192.0
1389.43457 176.0
1389.516968 168.0
1389.598633 108.0
1389.794678 256.0
1389.875244 324.0
1390.177368 188.0
1390.340576 48.0
1390.555786 176.0
1390.622681 164.0
1390.807495 136.0
1390.912109 192.0
1390.964111 108.0
1391.053101 104.0
1391.269897 180.0
1391.379761 180.0
1391.468872 144.0
1391.642212 216.0
1391.693848 108.0
1391.750977 112.0
1391.970215 144.0
1392.092529 164.0
1392.3302 152.0
1392.497559 104.0
1392.59021 132.0
1392.798096 256.0
1392.952026 160.0
1393.080444 60.0
1393.318115 100.0
1393.439087 168.0
1393.511353 112.0
1393.763916 252.0
1393.815918 172.0
1393.914795 148.0
1394.07605 112.0
1394.165161 168.0
1394.232056 96.0
1394.340942 112.0
1394.417847 144.0
1394.611084 140.0
1394.764404 172.0
1395.03479 156.0
1395.116577 264.0
1395.290649 212.0
1395.41394 176.0
1395.576782 212.0
1395.837769 144.0
1395.934448 132.0
1396.231934 132.0
1396.289673 268.0
1396.373169 104.0
1396.462402 140.0
1396.75769 168.0
1396.916138 40.0
1396.968262 124.0
1397.046265 148.0
1397.704834 124.0
1397.80896 108.0
1398.203369 144.0
1398.352295 160.0
1398.503906 128.0
1398.642578 200.0
1398.761597 132.0
1398.821167 120.0
1398.873291 168.0
1399.081909 152.0
1399.407471 168.0
1399.483765 192.0
1399.602905 80.0
1399.97522 176.0
1400.03479 204.0
1400.377808 180.0
1400.536987 192.0
1400.689453 188.0
1400.898804 100.0
1400.988159 124.0
1401.166992 92.0
1401.22583 152.0
1401.688477 140.0
1401.740723 332.0
1401.800293 200.0
1401.889771 160.0
1402.083496 180.0
1402.155884 112.0
1402.336914 192.0
1402.52063 160.0
1402.702148 92.0
1402.895874 128.0
1402.98877 160.0
1403.188721 188.0
1403.358154 100.0
1403.469971 204.0
1403.537109 236.0
1403.619141 120.0
1403.812988 140.0
1404.014404 52.0
1404.081421 184.0
1404.238037 36.0
1404.760254 144.0
1405.125732 160.0
1405.216919 168.0
1405.431641 180.0
1405.76001 180.0
1405.834595 36.0
1406.103271 188.0
1406.197144 144.0
1406.424194 32.0
1406.643921 152.0
1406.715332 224.0
1406.931763 192.0
1407.200562 168.0
1407.499268 116.0
1407.737305 192.0
1407.977173 168.0
1408.044434 204.0
1408.246094 168.0
1408.474365 216.0
1408.739014 148.0
1408.910889 164.0
1409.052856 96.0
1409.127563 60.0
1409.202271 296.0
1409.314941 144.0
1409.59082 144.0
1409.72522 112.0
1409.919556 124.0
1410.397949 184.0
1411.227661 164.0
1411.380859 164.0
1411.504395 212.0
1411.683838 176.0
1411.900757 100.0
1412.132568 160.0
1412.252197 272.0
1412.356934 152.0
1412.416748 136.0
1412.924805 136.0
1413.088745 112.0
1413.329468 136.0
1413.389282 92.0
1413.523438 148.0
1413.60022 296.0
1413.875732 164.0
1414.190063 140.0
1414.242432 124.0
1414.332275 112.0
1414.504395 148.0
1414.628784 224.0
1414.755859 200.0
1414.938599 124.0
1415.01355 168.0
1415.305542 164.0
1415.455322 64.0
1416.001953 156.0
1416.286621 180.0
1416.338989 200.0
1416.48877 72.0
1416.593628 152.0
1416.773438 152.0
1417.026611 172.0
1417.095581 112.0
1417.170532 108.0
1417.282349 168.0
1417.415771 172.0
1417.680054 132.0
1417.73999 96.0
1417.867432 160.0
1417.972412 196.0
1418.092285 148.0
1418.294678 164.0
1418.377075 144.0
1418.459595 124.0
1418.624512 148.0
1418.699463 188.0
1418.831177 144.0
1419.041138 264.0
1419.461548 240.0
1419.599121 140.0
1419.81665 132.0
1420.067017 172.0
1420.122437 196.0
1420.551636 76.0
1420.604248 152.0
1420.814209 120.0
1420.911743 228.0
1421.016846 72.0
1421.069336 100.0
1421.429443 252.0
1421.617065 152.0
1421.864746 40.0
1421.939819 68.0
1422.172485 188.0
1422.435181 96.0
1422.510254 44.0
1422.637817 220.0
1422.878052 180.0
1423.013184 56.0
1423.125854 244.0
1423.393799 164.0
1423.551392 84.0
1423.596436 156.0
1423.700439 148.0
1423.959351 148.0
1424.266357 152.0
1424.721313 352.0
1424.995972 208.0
1425.056152 208.0
1425.123779 172.0
1425.213867 124.0
1425.646973 196.0
1425.727051 124.0
1426.06311 136.0
1426.198364 132.0
1426.258545 212.0
1426.348755 76.0
1426.401367 52.0
1426.491577 72.0
1426.905029 120.0
1427.153076 188.0
1427.2677 136.0
1427.32605 212.0
1427.521606 156.0
1427.687012 76.0
1427.890137 136.0
1427.965332 152.0
1428.09314 72.0
1428.194824 128.0
1428.42395 156.0
1428.650269 140.0
1428.849609 100.0
1428.988281 116.0
1429.123779 80.0
1429.206543 200.0
1429.31189 128.0
1429.394653 144.0
1429.507568 208.0
1429.604492 140.0
1429.733276 200.0
1429.786011 276.0
1430.03772 188.0
1430.18335 60.0
1430.423584 188.0
1430.508545 180.0
1430.606323 100.0
1430.726807 176.0
1430.900024 120.0
1431.118286 180.0
1431.194946 132.0
1431.60022 144.0
1431.803589 148.0
1431.886475 92.0
1431.939087 404.0
1432.617065 80.0
1432.85498 180.0
1432.933472 208.0
1433.023926 108.0
1433.242432 116.0
1433.385498 184.0
1433.438354 136.0
1433.506958 112.0
1433.595581 148.0
1433.852783 236.0
1433.92688 132.0
1434.312378 168.0
1434.52356 304.0
1434.654419 248.0
1434.795044 132.0
1434.874512 208.0
1435.023071 164.0
1435.141846 116.0
1435.229858 100.0
1435.413208 100.0
1435.536865 188.0
1435.745117 248.0
1435.837402 144.0
1436.070312 124.0
1436.378052 228.0
1436.838745 36.0
1436.983887 140.0
1437.133911 144.0
1437.293335 176.0
1437.397095 152.0
1437.880127 136.0
1438.09729 88.0
1438.174438 224.0
1438.310303 140.0
1438.517456 172.0
1438.619751 188.0
1439.041016 152.0
1439.178467 148.0
1439.374756 180.0
1439.63916 96.0
1439.846924 256.0
1439.933594 200.0
1440.462402 184.0
1440.755859 172.0
1440.83252 168.0
1441.044067 164.0
1441.240479 32.0
1441.369019 40.0
1441.527588 192.0
1441.663696 120.0
1441.723389 208.0
1442.230469 120.0
1442.328735 108.0
1442.593384 84.0
1442.708984 184.0
1442.763672 120.0
1442.835205 172.0
1442.960083 148.0
1443.016724 60.0
1443.077148 168.0
1443.471802 128.0
1443.742554 208.0
1443.878662 108.0
1443.977051 192.0
1444.082886 132.0
1444.362793 192.0
1444.529175 160.0
1444.809082 208.0
1445.087524 200.0
1445.194946 88.0
1445.318726 388.0
1445.452271 232.0
1445.580811 448.0
1445.641357 204.0
1445.777588 64.0
1446.110596 136.0
1446.314941 192.0
1446.36792 160.0
1446.489014 128.0
1446.754028 80.0
1446.814575 132.0
1446.875122 172.0
1446.935669 176.0
1447.011475 160.0
1447.101562 208.0
1447.329468 40.0
1447.397583 32.0
1447.480835 108.0
1447.767944 168.0
1447.96167 240.0
1448.268433 92.0
1448.616211 248.0
1448.844238 264.0
1448.928223 136.0
1449.041138 188.0
1449.13208 96.0
1449.22229 132.0
1449.571533 148.0
1449.662476 108.0
1449.762207 132.0
1449.84375 184.0
1450.170288 124.0
1450.253662 88.0
1450.427979 60.0
1450.602295 104.0
1450.725342 256.0
1451.172607 200.0
1451.398315 96.0
1451.457886 192.0
1451.54248 184.0
1451.64856 140.0
1451.785034 44.0
1451.883667 104.0
1452.118774 132.0
1452.331909 164.0
1452.437378 104.0
1452.64978 184.0
1452.76355 192.0
1452.854614 196.0
1453.006226 192.0
1453.169189 144.0
1453.242188 168.0
1453.359253 224.0
1453.469116 144.0
1453.590576 152.0
1453.814819 140.0
1453.992676 140.0
1454.114136 168.0
1454.254395 220.0
1454.432739 152.0
1454.561279 176.0
1454.589478 160.0
1454.759277 324.0
1454.827637 192.0
1454.998169 236.0
1455.070557 112.0
1455.154053 248.0
1455.267944 104.0
1455.443359 156.0
1455.708374 196.0
1455.928589 224.0
1456.150146 116.0
1456.247559 140.0
1456.36792 132.0
1456.442017 216.0
1456.695801 140.0
1456.794556 152.0
1456.91272 204.0
1457.014771 136.0
1457.136353 104.0
1457.257935 56.0
1457.333862 148.0
1457.447876 100.0
1457.736572 164.0
1457.789795 300.0
1457.888672 44.0
1458.002563 44.0
1458.078613 100.0
1458.390259 188.0
1458.578857 188.0
1458.648682 60.0
1458.932007 88.0
1459.22644 216.0
1459.300537 144.0
1459.479004 92.0
1459.568604 144.0
1459.845459 140.0
1459.926025 128.0
1460.162598 140.0
1460.26062 88.0
1460.313843 72.0
1460.566162 164.0
1460.67041 196.0
1460.7854 140.0
1461.106812 132.0
1461.221924 212.0
1461.409302 104.0
1461.751709 156.0
1461.825928 340.0
1462.033203 164.0
1462.109375 124.0
1462.231079 88.0
1462.294189 292.0
1462.505127 184.0
1462.748657 48.0
1463.416626 140.0
1463.544189 172.0
1463.669922 152.0
1463.799316 80.0
1463.852661 124.0
1464.069824 140.0
1464.180054 200.0
1464.352295 196.0
1464.507568 268.0
1464.74646 200.0
1464.858032 124.0
1464.934204 168.0
1465.078857 200.0
1465.216064 52.0
1465.345581 196.0
1465.432373 120.0
1465.480713 180.0
1465.6427 176.0
1465.894165 184.0
1465.985596 304.0
1466.160889 148.0
1466.269287 172.0
1466.366699 168.0
1466.427612 104.0
1466.564819 152.0
1466.65625 176.0
1466.762939 156.0
1466.854492 160.0
1467.003784 196.0
1467.036987 160.0
1467.046143 188.0
1467.119995 120.0
1467.578735 204.0
1467.786011 148.0
1467.906616 164.0
1468.104858 180.0
1468.157593 148.0
1468.516724 176.0
1468.576904 216.0
1468.90564 108.0
1469.153076 268.0
1469.218506 212.0
1469.355835 200.0
1469.447388 160.0
1469.813599 108.0
1470.172241 160.0
1470.424072 176.0
1470.546143 112.0
1470.727417 244.0
1470.790405 164.0
1470.865234 236.0
1470.977173 176.0
1471.054199 168.0
1471.212891 76.0
1471.347656 212.0
1471.462158 132.0
1471.576782 228.0
1471.65625 224.0
1471.730713 72.0
1471.866821 168.0
1472.027222 168.0
1472.126465 132.0
1472.84436 128.0
1473.012451 108.0
1473.142334 88.0
1473.234009 120.0
1473.325684 180.0
1473.509888 76.0
1473.799316 152.0
1473.883423 116.0
1473.965698 192.0
1474.10498 36.0
1474.414551 152.0
1474.532959 84.0
1474.586426 48.0
1474.640015 180.0
1474.800415 104.0
1474.892212 200.0
1474.987915 132.0
1475.401489 200.0
1475.503784 164.0
1475.649048 180.0
1475.796631 356.0
1475.939575 148.0
1476.130737 304.0
1476.230103 148.0
1476.428955 216.0
1476.574219 112.0
1476.750122 144.0
1476.811401 144.0
1476.887817 176.0
1477.216797 48.0
1477.331543 124.0
1477.561035 208.0
1477.657593 196.0
1477.828735 76.0
1477.951172 132.0
1478.004761 116.0
1478.268677 196.0
1478.531372 152.0
1478.581665 200.0
1478.984375 48.0
1479.1604 132.0
1479.213989 112.0
1479.369629 164.0
1479.584106 132.0
1479.644775 132.0
1479.803467 184.0
1479.880005 192.0
1480.09436 176.0
1480.146484 256.0
1480.278198 208.0
1480.354736 112.0
1480.584473 60.0
1481.078003 228.0
1481.476074 120.0
1481.779419 148.0
1482.166992 152.0
1482.377075 116.0
1482.421143 80.0
1482.58374 188.0
1482.821533 128.0
1482.928833 148.0
1483.02063 136.0
1483.089844 108.0
1483.419434 124.0
1483.473145 124.0
1483.63147 128.0
1483.726074 124.0
1483.802734 160.0
1484.040405 224.0
1484.147827 320.0
1484.408447 176.0
1484.615479 200.0
1484.899292 136.0
1485.279663 164.0
1485.359497 140.0
1485.443848 172.0
1485.577515 152.0
1485.827393 320.0
1485.904175 148.0
1486.042236 132.0
1486.137573 140.0
1486.21875 52.0
1486.310791 176.0
1486.372192 232.0
1486.502686 128.0
1486.717529 132.0
1486.786621 156.0
1486.886353 144.0
1486.984253 276.0
1487.073975 276.0
1487.259033 116.0
1487.323853 224.0
1487.509277 196.0
1487.653931 340.0
1487.761353 164.0
1488.010864 184.0
1488.129883 148.0
1488.191284 108.0
1488.306519 104.0
1488.36792 144.0
1488.427612 172.0
1488.721191 60.0
1488.805664 128.0
1488.983765 224.0
1489.163086 168.0
1489.450806 152.0
1489.535278 116.0
1489.682861 172.0
1489.980835 120.0
1490.119141 60.0
1490.218994 144.0
1490.395752 200.0
1490.457153 176.0
1490.580078 168.0
1490.752441 132.0
1490.859009 148.0
1490.918213 152.0
1491.018188 60.0
1491.102661 152.0
1491.210327 124.0
1491.28064 156.0
1491.456299 140.0
1491.548462 188.0
1491.68689 160.0
1491.79834 144.0
1492.294922 176.0
1492.420532 160.0
1492.443481 68.0
1492.503784 252.0
1492.609497 144.0
1492.686279 160.0
1492.840088 116.0
1492.901611 124.0
1492.955444 176.0
1493.172974 224.0
1493.286133 36.0
1493.655396 120.0
1493.886108 140.0
1493.957642 192.0
1494.109253 132.0
1494.301636 168.0
1494.479492 124.0
1494.600586 200.0
1494.770996 180.0
1494.950684 200.0
1495.224976 44.0
1495.378906 112.0
1495.463623 152.0
1495.643311 104.0
1495.809937 176.0
1495.910034 164.0
1496.010132 48.0
1496.418091 192.0
1496.782104 140.0
1496.93396 192.0
1497.349854 140.0
1497.575928 148.0
1497.704102 180.0
1497.781128 168.0
1498.081543 128.0
1498.227905 172.0
1498.296143 192.0
1498.38208 132.0
1498.574707 188.0
1498.667847 80.0
1498.84436 200.0
1498.978638 140.0
1499.114014 104.0
1499.244019 156.0
1499.383789 80.0
1499.514771 136.0
1499.703247 240.0
1499.987793 140.0
1500.376343 156.0
1500.547729 52.0
1500.629517 196.0
1500.809814 112.0
1501.087402 92.0
1501.15686 188.0
1501.503906 124.0
1501.604126 168.0
1501.696655 196.0
1501.828003 144.0
1501.912598 184.0
1502.128662 144.0
1502.182617 108.0
1502.367798 136.0
1502.529785 164.0
1502.76123 132.0
1502.830688 132.0
1502.93103 152.0
1503.000488 148.0
1503.193359 136.0
1503.316772 60.0
1503.640991 172.0
1503.741211 236.0
1503.907349 176.0
1504.127197 140.0
1504.181274 44.0
1504.304688 188.0
1504.397339 192.0
1504.528564 136.0
1504.607788 244.0
1504.72937 156.0
1504.797119 196.0
1504.906616 428.0
1505.277588 132.0
