>compound 2-[[(Guanidino) (imino)methyl]sulfanyl]ethanesulfonic Acid
>formula C4H10N4O3S2
>ionization [M+H]+
>parentmass 227.0267086320905
#inchi InChI=1S/C4H10N4O3S2/c5-3(6)8-4(7)12-1-2-13(9,10)11/h1-2H2,(H,9,10,11)(H5,5,6,7,8)
#inchikey MFFQNMFIVBUMBX
#Ion_Source DI-ESI
#Instrument qTof
#Compound_Source Commercial
#PI Norberto Lopes
#Data_Collector Norberto Lopes
#Scan -1
#Precursor_MZ 227.023
#ExactMass 226.019
#Charge 1
#CAS_Number 1391053-66-9
#Pubmed_ID N/A
#Smiles NC(NC(SCCS(=O)(O)=O)=N)=N
#INCHI_AUX N/A
#Library_Class 3
#SpectrumID CCMSLIB00000081570
#IonMode Positive
#UpdateWorkflowName UPDATE-SINGLE-ANNOTATED-BRONZE
#LibraryQualityString Bronze
#TaskID 4a07f16a650f4095b43fe6b0b09ff8bb
##Scan# 1
#SpectrumFile gnps_2_Guanidino_imino_methyl_sulfanyl_ethanesulfonic_Acid_pos_MplusH.mgf
#LibraryName gnps_library.mgf
#MQScore -1
#Organism batch_27_05
#TIC_Query 0
#RT_Query -1
#MZErrorPPM -1
#SharedPeaks 0
#MassDiff 0
#LibMZ -1
#SpecMZ 227.023
#SpecCharge 0
#internalFilename spec-00000.mgf

>collision 10
124.967239 1662.0
159.964462 911.0
166.988983 559.0
167.975067 3160.0
185.001175 64374.0
186.002777 3546.0
186.997147 3805.0
209.995972 2813.0
227.023056 9192.0
