>compound MLS001148085-01!85-79-0
>formula C20H29N3O2
>ionization [M+H]+
>parentmass 344.234406
#inchi InChI=1S/C20H29N3O2/c1-4-7-14-25-19-15-17(16-10-8-9-11-18(16)22-19)20(24)21-12-13-23(5-2)6-3/h8-11,15H,4-7,12-14H2,1-3H3,(H,21,24)
#inchikey PUFQVTATUTYEAL
#Ion_Source LC-ESI
#Instrument qTof
#Compound_Source NIH Pharmacologically Active Library
#PI Dorrestein
#Data_Collector VP/LMS
#Scan -1
#Precursor_MZ 344.229
#ExactMass 343.226
#Charge 1
#CAS_Number N/A
#Pubmed_ID N/A
#Smiles CCCCOc1cc(C(=O)NCCN(CC)CC)c2ccccc2n1
#INCHI_AUX N/A
#Library_Class 1
#SpectrumID CCMSLIB00000085301
#IonMode Positive
#UpdateWorkflowName UPDATE-SINGLE-ANNOTATED-GOLD
#LibraryQualityString Gold
#TaskID d252d724072548979f1f6f1ced849daf
##Scan# 1773
#SpectrumFile p3-H02_GH2_01_18307.mzXML
#LibraryName Pharm_Active_Library.mgf
#MQScore -1
#Organism Pharm_Active_Library
#TIC_Query 0
#RT_Query -1
#MZErrorPPM -1
#SharedPeaks 0
#MassDiff 0
#LibMZ -1
#SpecMZ 344.229
#SpecCharge 0
#internalFilename spec-00000.mgf

>collision 10
44.926094 308.0
44.942616 156.0
45.03764 160.0
45.070808 196.0
45.094357 252.0
45.124443 260.0
45.164768 188.0
45.18045 188.0
45.225952 148.0
45.255672 160.0
45.282188 148.0
45.311497 196.0
45.347206 176.0
45.38905 120.0
45.402817 124.0
45.456791 52.0
45.469902 228.0
45.537769 196.0
45.573311 116.0
45.586746 56.0
45.631107 96.0
45.650906 188.0
45.713165 204.0
45.741745 204.0
45.807961 348.0
45.842449 104.0
45.880501 192.0
45.89098 168.0
45.908508 160.0
45.926083 148.0
45.951874 192.0
45.986767 104.0
46.000195 152.0
46.026272 168.0
46.084003 156.0
46.110939 116.0
46.155643 148.0
46.183823 192.0
46.210331 328.0
46.231403 116.0
46.244617 220.0
46.272015 188.0
46.282848 64.0
46.297745 148.0
46.354645 152.0
46.4048 144.0
46.426495 124.0
46.462742 100.0
46.487549 140.0
46.521481 136.0
46.564938 160.0
46.604332 92.0
46.627171 184.0
46.65588 156.0
46.688469 180.0
46.704941 132.0
46.738956 116.0
46.751202 148.0
46.767773 160.0
46.826088 116.0
46.861507 220.0
46.924801 192.0
46.948475 204.0
46.978542 200.0
47.023792 128.0
47.062019 148.0
47.078407 152.0
47.10709 144.0
47.145351 172.0
47.19183 120.0
47.225044 240.0
47.235157 212.0
47.276646 160.0
47.330982 152.0
47.365646 156.0
47.388935 112.0
47.439648 180.0
47.476673 76.0
47.544704 136.0
47.569977 136.0
47.58371 188.0
47.602932 160.0
47.620567 176.0
47.635273 148.0
47.653759 136.0
47.666126 128.0
47.703236 148.0
47.730736 192.0
47.752743 132.0
47.821541 120.0
47.897274 184.0
47.920696 96.0
47.944122 80.0
47.97467 228.0
47.986858 148.0
48.026512 244.0
48.055824 208.0
48.092014 216.0
48.106892 188.0
48.134506 96.0
48.159489 164.0
48.175945 108.0
48.198051 96.0
48.250576 124.0
48.289867 196.0
48.337723 212.0
48.356342 132.0
48.387001 320.0
48.411095 104.0
48.429691 216.0
48.473434 152.0
48.545525 200.0
48.581589 148.0
48.612114 196.0
48.62183 60.0
48.635712 192.0
48.656536 188.0
48.67181 160.0
48.730469 104.0
48.746792 172.0
48.78886 232.0
48.80521 52.0
48.826069 148.0
48.84137 128.0
48.887287 144.0
48.909557 140.0
48.950562 248.0
49.005653 192.0
49.095516 204.0
49.139511 108.0
49.1744 208.0
49.199528 184.0
49.24448 148.0
49.283333 156.0
49.29591 252.0
49.308487 140.0
49.333649 264.0
49.346378 152.0
49.43576 96.0
49.496784 176.0
49.50996 128.0
49.554039 284.0
49.61142 336.0
49.632175 192.0
49.646442 120.0
49.664143 208.0
49.700619 144.0
49.72588 136.0
49.743061 240.0
49.787148 176.0
49.797489 164.0
49.829124 216.0
49.848068 148.0
49.857906 140.0
49.869095 208.0
49.906616 240.0
49.953522 144.0
49.963371 224.0
49.987629 184.0
49.997143 252.0
50.045338 204.0
50.067539 204.0
50.099297 176.0
50.125301 40.0
50.143623 76.0
50.158955 164.0
50.200123 264.0
50.209778 252.0
50.221172 96.0
50.240925 100.0
50.266323 48.0
50.290592 244.0
50.319962 196.0
50.342556 136.0
50.370899 120.0
50.423088 64.0
50.443893 156.0
50.468327 152.0
50.5051 212.0
50.55286 148.0
50.606163 156.0
50.616909 160.0
50.640129 172.0
50.657986 176.0
50.682072 160.0
50.728844 164.0
50.755783 152.0
50.772804 152.0
50.810463 204.0
50.836571 148.0
50.846657 148.0
50.874172 128.0
50.883492 224.0
50.902847 196.0
50.930355 132.0
50.941074 144.0
50.96756 192.0
50.985771 160.0
51.008511 172.0
51.039791 160.0
51.088154 156.0
51.150768 72.0
51.160736 148.0
51.175369 144.0
51.190636 276.0
51.268993 160.0
51.320312 120.0
51.336002 196.0
51.368809 208.0
51.380219 144.0
51.441589 152.0
51.454437 228.0
51.55616 252.0
51.590168 124.0
51.601604 180.0
51.624485 128.0
51.713192 156.0
51.756142 208.0
51.769032 128.0
51.796246 152.0
51.809551 180.0
51.833496 168.0
51.856426 184.0
51.902306 276.0
51.915211 196.0
51.93848 216.0
51.979767 184.0
51.998425 200.0
52.042931 164.0
52.060993 180.0
52.074684 180.0
52.107601 168.0
52.144932 184.0
52.201935 160.0
52.221138 164.0
52.24847 364.0
52.258541 92.0
52.27644 228.0
52.313232 192.0
52.339149 152.0
52.369396 160.0
52.392445 136.0
52.45153 136.0
52.474598 164.0
52.497669 136.0
52.507767 144.0
52.565475 132.0
52.620327 168.0
52.663654 176.0
52.676655 132.0
52.689655 104.0
52.705227 176.0
52.719261 336.0
52.812538 164.0
52.836288 212.0
52.882767 156.0
52.914536 184.0
52.942802 144.0
52.961632 168.0
53.002201 116.0
53.021038 212.0
53.039883 156.0
53.055828 140.0
53.068878 188.0
53.109692 228.0
53.125443 80.0
53.158009 156.0
53.174782 40.0
53.193653 172.0
53.208172 172.0
53.224533 164.0
53.237213 128.0
53.251736 140.0
53.288055 204.0
53.31197 172.0
53.33456 108.0
53.362556 188.0
53.379635 248.0
53.418907 60.0
53.439274 196.0
53.494579 200.0
53.513508 112.0
53.576946 80.0
53.591518 200.0
53.61694 164.0
53.638802 280.0
53.688377 168.0
53.774979 204.0
53.819717 120.0
53.848927 160.0
53.861675 160.0
53.877525 224.0
53.909473 236.0
53.9366 136.0
53.987141 92.0
53.99612 176.0
54.04044 176.0
54.05595 192.0
54.069706 124.0
54.084347 332.0
54.110619 148.0
54.132168 244.0
54.17807 92.0
54.233757 44.0
54.268944 176.0
54.35989 112.0
54.394009 148.0
54.433292 168.0
54.461201 128.0
54.47736 148.0
54.497177 164.0
54.561131 124.0
54.585007 168.0
54.632557 92.0
54.692062 140.0
54.718559 132.0
54.755375 156.0
54.776169 104.0
54.79073 156.0
54.801044 160.0
54.831993 144.0
54.865898 140.0
54.885063 104.0
54.910137 40.0
54.926361 196.0
55.014908 236.0
55.026718 184.0
55.106636 188.0
55.138992 80.0
55.152081 220.0
55.198128 328.0
55.225071 228.0
55.269131 188.0
55.278496 180.0
55.289852 100.0
55.303173 160.0
55.381653 148.0
55.399612 144.0
55.43045 128.0
55.44833 184.0
55.479458 132.0
55.489838 152.0
55.515045 140.0
55.531361 196.0
55.545761 124.0
55.55658 172.0
55.611485 236.0
55.658325 124.0
55.667904 212.0
55.698502 204.0
55.72435 180.0
55.744553 168.0
55.806103 192.0
55.855183 96.0
55.893578 144.0
56.00106 128.0
56.035324 48.0
56.065128 140.0
56.085995 80.0
56.102272 148.0
56.117302 112.0
56.14772 192.0
56.199341 140.0
56.226204 216.0
56.236652 140.0
56.252274 112.0
56.309738 152.0
56.333717 132.0
56.344173 68.0
56.42638 148.0
56.469746 148.0
56.481712 232.0
56.496586 136.0
56.516125 160.0
56.538956 204.0
56.565514 148.0
56.587673 200.0
56.603428 100.0
56.640118 132.0
56.652374 148.0
56.673351 188.0
56.692833 168.0
56.740803 136.0
56.760296 44.0
56.82222 268.0
56.835297 140.0
56.854809 184.0
56.881824 172.0
56.907349 124.0
56.952404 208.0
56.980946 116.0
56.992542 212.0
56.99712 152.0
57.002018 176.0
57.027534 212.0
57.053089 120.0
57.065117 104.0
57.075645 256.0
57.087673 240.0
57.099705 176.0
57.146313 208.0
57.164398 176.0
57.266968 192.0
57.330059 136.0
57.355682 92.0
57.375057 188.0
57.405437 224.0
57.419014 64.0
57.435314 200.0
57.458233 136.0
57.476341 116.0
57.505817 128.0
57.551445 212.0
57.557026 160.0
57.58202 176.0
57.59956 168.0
57.619785 288.0
57.634895 240.0
57.646988 196.0
57.663612 168.0
57.674191 168.0
57.689064 148.0
57.70594 196.0
57.722572 188.0
57.736183 160.0
57.749798 148.0
57.762604 172.0
57.790234 148.0
57.816372 116.0
57.842541 180.0
57.855728 108.0
57.903843 200.0
57.948116 124.0
57.990551 148.0
58.026936 92.0
58.037548 68.0
58.061813 152.0
58.113392 44.0
58.124012 180.0
58.234844 168.0
58.344097 152.0
58.35215 168.0
58.37619 176.0
58.402748 208.0
58.450733 136.0
58.534027 348.0
58.642632 112.0
58.656349 288.0
58.67366 192.0
58.685318 152.0
58.755478 68.0
58.781418 228.0
58.792103 100.0
58.814415 220.0
58.829033 216.0
58.851524 160.0
58.880653 84.0
58.894047 208.0
58.914261 116.0
58.953987 148.0
59.009018 108.0
59.045719 124.0
59.077843 192.0
59.099266 176.0
59.116096 56.0
59.163548 144.0
59.188049 144.0
59.220695 176.0
59.239189 144.0
59.266861 160.0
59.290691 120.0
59.345879 352.0
59.361214 136.0
59.376549 128.0
59.401714 148.0
59.437916 204.0
59.462166 160.0
59.494709 124.0
59.555603 116.0
59.560337 76.0
59.602226 216.0
59.640842 160.0
59.661182 168.0
59.674469 208.0
59.694427 176.0
59.722145 228.0
59.78677 88.0
59.82457 372.0
59.835583 180.0
59.898159 256.0
59.9174 144.0
60.028641 148.0
60.045921 160.0
60.081085 144.0
60.116577 128.0
60.12738 208.0
60.150536 268.0
60.189133 156.0
60.250145 132.0
60.303459 124.0
60.351383 136.0
60.403969 128.0
60.434914 152.0
60.459675 224.0
60.475182 212.0
60.496822 128.0
60.56496 152.0
60.597496 112.0
60.636238 180.0
60.668369 324.0
60.716862 224.0
60.746391 108.0
60.771122 188.0
60.817715 164.0
60.831688 224.0
60.86274 56.0
60.93885 200.0
60.960606 384.0
60.979256 180.0
61.005684 152.0
61.075943 156.0
61.089664 132.0
61.119225 244.0
61.167473 144.0
61.197056 144.0
61.247475 160.0
61.274933 160.0
61.320126 60.0
61.333958 156.0
61.369526 128.0
61.390285 60.0
61.4324 76.0
61.462368 156.0
61.476089 132.0
61.490139 160.0
61.511757 204.0
61.563519 128.0
61.576012 148.0
61.612602 228.0
61.624439 216.0
61.653694 200.0
61.68383 96.0
61.727692 152.0
61.822968 176.0
61.841969 172.0
61.885658 180.0
61.904449 140.0
61.96199 232.0
62.044903 176.0
62.099895 208.0
62.114479 120.0
62.145573 220.0
62.177242 152.0
62.188229 136.0
62.214916 212.0
62.238838 136.0
62.257313 172.0
62.291374 208.0
62.326893 224.0
62.409748 128.0
62.43491 64.0
62.469513 164.0
62.483372 164.0
62.533352 176.0
62.54977 208.0
62.562366 132.0
62.574963 152.0
62.621174 128.0
62.636383 84.0
62.708866 204.0
62.771931 120.0
62.806629 224.0
62.823139 92.0
62.906048 96.0
62.918678 108.0
62.966053 184.0
62.981846 116.0
63.032406 176.0
63.064014 92.0
63.125885 300.0
63.164623 180.0
63.200909 168.0
63.226929 112.0
63.244377 156.0
63.296585 196.0
63.367867 184.0
63.399357 188.0
63.418579 236.0
63.430775 196.0
63.443943 164.0
63.503773 236.0
63.518478 208.0
63.545147 188.0
63.562859 136.0
63.634335 172.0
63.694687 296.0
63.713749 216.0
63.772453 136.0
63.822872 104.0
63.839325 108.0
63.870823 164.0
63.887775 200.0
63.904545 104.0
63.925232 160.0
63.950699 132.0
63.990498 208.0
64.009605 228.0
64.023941 148.0
64.043053 148.0
64.10041 164.0
64.141846 132.0
64.157791 48.0
64.191963 260.0
64.210411 148.0
64.250587 188.0
64.267845 180.0
64.312576 144.0
64.349251 120.0
64.362022 164.0
64.416328 248.0
64.440292 96.0
64.462036 180.0
64.528198 44.0
64.554253 152.0
64.603371 184.0
64.630569 136.0
64.727409 168.0
64.753143 164.0
64.773064 156.0
64.793617 168.0
64.886856 216.0
64.984695 216.0
65.004944 180.0
65.019997 184.0
65.060127 100.0
65.142036 308.0
65.187019 48.0
65.222382 156.0
65.243279 176.0
65.303986 112.0
65.335777 180.0
65.376793 92.0
65.46534 228.0
65.487961 168.0
65.527809 164.0
65.55233 120.0
65.565224 188.0
65.578117 152.0
65.618423 152.0
65.668411 108.0
65.723267 124.0
65.74102 168.0
65.795898 144.0
65.81205 84.0
65.878777 240.0
65.983322 240.0
66.005959 140.0
66.020508 192.0
66.03183 168.0
66.048004 208.0
66.112732 160.0
66.129326 188.0
66.230927 204.0
66.279869 152.0
66.307083 124.0
66.342743 140.0
66.358955 88.0
66.39463 180.0
66.430321 144.0
66.451035 172.0
66.503342 148.0
66.580521 164.0
66.60865 216.0
66.625137 124.0
66.652756 96.0
66.682976 188.0
66.70237 88.0
66.729156 324.0
66.750298 164.0
66.849525 152.0
66.869232 192.0
66.935806 164.0
66.947212 148.0
66.994446 196.0
67.015625 120.0
67.047523 160.0
67.070717 224.0
67.137642 160.0
67.153725 152.0
67.178963 88.0
67.191719 140.0
67.204773 192.0
67.240105 216.0
67.268425 120.0
67.317413 232.0
67.33374 132.0
67.352562 192.0
67.395821 204.0
67.410294 156.0
67.470322 216.0
67.506981 124.0
67.529877 160.0
67.562599 224.0
67.592049 116.0
67.659157 152.0
67.672256 80.0
67.68689 124.0
67.706642 152.0
67.75972 160.0
67.777092 160.0
67.803314 116.0
67.83773 200.0
67.875443 196.0
67.888565 48.0
67.901047 256.0
67.91217 156.0
67.941055 52.0
67.962387 164.0
67.977974 152.0
68.002083 148.0
68.007484 108.0
68.014015 200.0
68.034599 172.0
68.153252 152.0
68.197235 112.0
68.216957 196.0
68.266289 148.0
68.277802 152.0
68.338669 164.0
68.38475 172.0
68.415115 172.0
68.44072 128.0
68.518066 180.0
68.572517 184.0
68.613182 120.0
68.63517 176.0
68.673096 192.0
68.688026 164.0
68.726074 180.0
68.745697 172.0
68.780357 68.0
68.801277 208.0
68.876129 216.0
68.905518 172.0
68.968666 240.0
69.001564 208.0
69.04142 156.0
69.056305 292.0
69.069534 160.0
69.085365 188.0
69.11573 152.0
69.163857 164.0
69.175446 232.0
69.23671 184.0
69.266525 152.0
69.335907 156.0
69.365959 80.0
69.404091 128.0
69.440575 108.0
69.485939 140.0
69.508598 136.0
69.553406 212.0
69.571487 184.0
69.613182 180.0
69.641418 92.0
69.654709 140.0
69.749428 276.0
69.762726 188.0
69.781723 216.0
69.855858 212.0
69.870827 68.0
69.882477 92.0
69.914093 184.0
69.93692 224.0
69.994003 236.0
70.014862 228.0
70.049278 232.0
70.075623 136.0
70.097282 236.0
70.137283 148.0
70.222328 144.0
70.268669 164.0
70.319572 156.0
70.334122 112.0
70.379196 352.0
70.408707 228.0
70.429306 212.0
70.447678 144.0
70.461044 100.0
70.479424 48.0
70.51619 144.0
70.531235 152.0
70.607323 204.0
70.619858 156.0
70.636589 120.0
70.660011 44.0
70.685104 224.0
70.721222 204.0
70.753304 124.0
70.760216 92.0
70.764702 204.0
70.788902 108.0
70.811447 164.0
70.845383 144.0
70.859253 144.0
70.909523 108.0
70.941376 100.0
70.954788 236.0
70.967247 196.0
71.018517 152.0
71.040581 208.0
71.083946 208.0
71.097374 124.0
71.122551 244.0
71.170341 232.0
71.211136 180.0
71.214355 136.0
71.24305 244.0
71.255219 176.0
71.273705 72.0
71.290512 116.0
71.310677 164.0
71.367836 180.0
71.414925 132.0
71.438721 168.0
71.467003 168.0
71.551239 192.0
71.574814 196.0
71.58828 140.0
71.611862 220.0
71.648468 208.0
71.701164 148.0
71.716331 152.0
71.738113 208.0
71.789635 176.0
71.822563 92.0
71.839432 132.0
71.869804 112.0
71.899658 212.0
71.928871 180.0
71.942383 172.0
71.972771 140.0
72.040329 132.0
72.052155 96.0
72.096092 60.0
72.143425 136.0
72.168785 200.0
72.204529 176.0
72.231361 104.0
72.255043 156.0
72.304123 268.0
72.355591 168.0
72.410789 196.0
72.44297 196.0
72.471771 224.0
72.512444 172.0
72.549736 148.0
72.624352 180.0
72.67186 184.0
72.71656 176.0
72.736351 108.0
72.81955 224.0
72.855225 132.0
72.886993 292.0
72.940201 112.0
72.989983 156.0
73.009911 172.0
73.026917 100.0
73.042229 164.0
73.108513 180.0
73.134117 184.0
73.15625 164.0
73.176674 84.0
73.203926 168.0
73.219254 212.0
73.258148 168.0
73.270638 168.0
73.290802 156.0
73.340225 116.0
73.353867 140.0
73.389664 164.0
73.546623 144.0
73.568817 152.0
73.616631 136.0
73.635414 68.0
73.647369 160.0
73.661034 192.0
73.698624 116.0
73.745941 128.0
73.775536 224.0
73.789215 124.0
73.825127 140.0
73.847359 140.0
73.867882 164.0
73.9021 136.0
73.948311 76.0
73.96714 80.0
73.979118 164.0
73.991104 64.0
74.030487 104.0
74.051689 180.0
74.069885 92.0
74.087013 208.0
74.119568 100.0
74.158989 136.0
74.20356 152.0
74.225853 156.0
74.28714 240.0
74.326637 96.0
74.359673 152.0
74.390976 236.0
74.432472 88.0
74.467667 192.0
74.479103 60.0
74.548592 264.0
74.672379 160.0
74.706787 160.0
74.723991 140.0
74.760124 136.0
74.785942 116.0
74.803566 168.0
74.863419 160.0
74.958168 260.0
75.02282 228.0
75.112991 156.0
75.144402 168.0
75.161171 128.0
75.179932 180.0
75.208252 152.0
75.222061 172.0
75.252686 156.0
75.308403 172.0
75.327408 116.0
75.374054 236.0
75.413803 156.0
75.436592 152.0
75.488152 164.0
75.515587 88.0
75.534851 76.0
75.559067 168.0
75.571182 88.0
75.597137 176.0
75.617905 152.0
75.669838 196.0
75.711403 140.0
75.751236 72.0
75.78936 144.0
75.804955 120.0
75.874672 164.0
75.88768 144.0
75.93325 292.0
75.988762 56.0
76.023468 64.0
76.072067 144.0
76.113739 236.0
76.233604 220.0
76.255661 232.0
76.277054 100.0
76.308022 168.0
76.335434 208.0
76.362625 168.0
76.453407 248.0
76.466652 264.0
76.489281 160.0
76.525848 160.0
76.588539 188.0
76.612701 152.0
76.656494 128.0
76.690018 152.0
76.712265 136.0
76.772911 164.0
76.870987 184.0
76.897171 132.0
76.922478 200.0
76.963509 148.0
76.985207 160.0
77.019096 256.0
77.056084 132.0
77.098267 172.0
77.124245 172.0
77.145218 212.0
77.189812 200.0
77.208168 72.0
77.262352 168.0
77.307892 136.0
77.324883 340.0
77.342896 104.0
77.377159 156.0
77.390976 168.0
77.435699 204.0
77.44796 72.0
77.488625 188.0
77.502274 116.0
77.535568 180.0
77.560104 196.0
77.59166 224.0
77.635704 204.0
77.656548 152.0
77.679352 192.0
77.714485 164.0
77.735497 160.0
77.756561 136.0
77.768845 176.0
77.837318 256.0
77.897034 308.0
77.939201 96.0
77.960289 204.0
77.988411 44.0
78.037636 60.0
78.06929 152.0
78.085114 188.0
78.114357 180.0
78.169563 180.0
78.183197 204.0
78.24173 184.0
78.268143 140.0
78.280205 224.0
78.292801 152.0
78.380882 144.0
78.421417 136.0
78.444107 200.0
78.46312 292.0
78.518394 56.0
78.55191 184.0
78.57933 176.0
78.669022 264.0
78.698395 236.0
78.724884 120.0
78.758438 156.0
78.809677 140.0
78.825623 156.0
78.843254 120.0
78.875069 196.0
78.957466 192.0
78.974091 56.0
79.023628 144.0
79.094421 136.0
79.128052 132.0
79.172844 192.0
79.186493 120.0
79.202438 128.0
79.315842 136.0
79.331802 140.0
79.351303 136.0
79.389977 168.0
79.416512 104.0
79.462532 188.0
79.49321 152.0
79.507317 156.0
79.540688 160.0
79.560661 160.0
79.601845 164.0
79.644127 148.0
79.658333 120.0
79.68129 148.0
79.694435 200.0
79.740074 148.0
79.773849 160.0
79.788376 188.0
79.807732 140.0
79.855644 188.0
79.875252 172.0
79.91613 188.0
79.955734 220.0
79.990883 148.0
80.012764 236.0
80.047348 140.0
80.067322 216.0
80.088821 48.0
80.11911 76.0
80.161873 132.0
80.176132 84.0
80.199081 160.0
80.217125 160.0
80.242088 228.0
80.286247 188.0
80.313423 108.0
80.338356 172.0
80.359802 148.0
80.381218 120.0
80.459679 152.0
80.482971 100.0
80.500824 196.0
80.515114 164.0
80.527618 40.0
80.541908 248.0
80.630554 176.0
80.665207 124.0
80.7183 128.0
80.736732 72.0
80.751762 188.0
80.781448 168.0
80.795761 48.0
80.829758 196.0
80.897774 204.0
80.940742 80.0
81.00164 172.0
81.03389 132.0
81.076897 92.0
81.123497 180.0
81.157562 216.0
81.173706 156.0
81.197021 128.0
81.245453 124.0
81.273621 292.0
81.308258 116.0
81.380264 144.0
81.423553 140.0
81.444717 132.0
81.482445 180.0
81.516586 96.0
81.534554 136.0
81.554329 176.0
81.597771 192.0
81.620399 112.0
81.649193 216.0
81.6838 136.0
81.712585 168.0
81.795372 112.0
81.807968 104.0
81.837189 176.0
81.872795 196.0
81.928635 216.0
81.980888 176.0
82.027756 136.0
82.048058 76.0
82.060204 112.0
82.116013 148.0
82.15358 192.0
82.198784 208.0
82.238716 328.0
82.269493 88.0
82.30957 184.0
82.328201 180.0
82.345924 172.0
82.379654 112.0
82.408562 248.0
82.433861 116.0
82.457359 128.0
82.492157 168.0
82.510788 160.0
82.566574 108.0
82.58754 164.0
82.636391 176.0
82.657692 228.0
82.662567 128.0
82.669319 208.0
82.68528 216.0
82.734123 132.0
82.748734 172.0
82.77034 176.0
82.793877 140.0
82.811577 208.0
82.851295 192.0
82.882645 168.0
82.938828 144.0
82.993217 140.0
83.014984 96.0
83.038261 172.0
83.043701 144.0
83.071213 176.0
83.083908 52.0
83.11554 172.0
83.152863 240.0
83.172836 64.0
83.225479 160.0
83.249092 120.0
83.299446 144.0
83.334465 76.0
83.361725 164.0
83.374443 88.0
83.422234 124.0
83.479889 140.0
83.505356 184.0
83.534454 180.0
83.549011 76.0
83.581764 208.0
83.597038 364.0
83.623619 180.0
83.640999 164.0
83.697227 244.0
83.7183 92.0
83.758369 76.0
83.776581 124.0
83.795967 256.0
83.825172 196.0
83.839134 184.0
83.886795 160.0
83.902336 60.0
83.931511 176.0
83.971634 152.0
83.988045 128.0
84.048256 56.0
84.07563 160.0
84.106621 220.0
84.184006 452.0
84.241791 132.0
84.307571 168.0
84.322189 128.0
84.366066 136.0
84.404465 72.0
84.422752 116.0
84.464813 48.0
84.599602 288.0
84.641235 184.0
84.679985 108.0
84.717445 184.0
84.752258 144.0
84.799911 144.0
84.821907 100.0
84.854904 148.0
84.873238 176.0
84.900749 112.0
84.933762 176.0
84.948441 96.0
84.981461 268.0
85.021835 168.0
85.054871 128.0
85.082024 132.0
85.119133 188.0
85.148521 176.0
85.16787 380.0
85.203751 176.0
85.249565 116.0
85.276749 152.0
85.30838 188.0
85.33596 196.0
85.378258 148.0
85.457359 120.0
85.476257 148.0
85.500313 140.0
85.542023 144.0
85.561409 188.0
85.590263 236.0
85.606461 64.0
85.704094 172.0
85.72805 136.0
85.750168 84.0
85.788879 216.0
85.809975 224.0
85.86264 176.0
85.90506 196.0
85.930893 52.0
85.956726 152.0
85.972847 196.0
85.978256 144.0
86.022346 224.0
86.065636 260.0
86.097031 144.0
86.146126 124.0
86.163528 176.0
86.217583 208.0
86.238121 176.0
86.261482 176.0
86.281189 176.0
86.370583 148.0
86.422386 128.0
86.472351 196.0
86.492714 204.0
86.513313 156.0
86.528069 84.0
86.542702 448.0
86.568626 188.0
86.581589 120.0
86.607521 80.0
86.625229 192.0
86.654587 268.0
86.718697 108.0
86.741676 132.0
86.77298 100.0
86.83551 180.0
86.922707 208.0
86.944977 316.0
86.976532 112.0
86.991379 120.0
87.017242 152.0
87.032227 156.0
87.047081 428.0
87.073082 164.0
87.100945 124.0
87.152969 228.0
87.18084 164.0
87.206863 144.0
87.230598 208.0
87.256798 200.0
87.271713 172.0
87.350044 116.0
87.379814 156.0
87.399155 140.0
87.433777 172.0
87.458107 164.0
87.500793 140.0
87.555023 160.0
87.599495 152.0
87.616928 324.0
87.640488 128.0
87.711189 100.0
87.763512 208.0
87.831543 192.0
87.840675 224.0
87.89222 196.0
87.935143 152.0
87.950073 108.0
87.972473 436.0
88.017288 244.0
88.040253 176.0
88.054642 160.0
88.06958 120.0
88.124016 204.0
88.140121 164.0
88.21534 208.0
88.304214 212.0
88.323799 228.0
88.346252 112.0
88.372223 148.0
88.439819 128.0
88.515144 204.0
88.584007 236.0
88.667213 164.0
88.713318 144.0
88.74144 52.0
88.763939 156.0
88.825836 128.0
88.852547 184.0
88.874611 220.0
88.932793 112.0
88.992867 152.0
89.03875 940.0
89.068871 128.0
89.09053 176.0
89.111198 216.0
89.139389 176.0
89.186371 148.0
89.259003 108.0
89.270981 164.0
89.286026 80.0
89.310387 324.0
89.344337 88.0
89.373177 220.0
89.432785 132.0
89.465668 172.0
89.481735 64.0
89.509979 196.0
89.53595 172.0
89.566483 148.0
89.632423 88.0
89.813416 72.0
89.851151 192.0
89.894547 180.0
89.924744 48.0
89.941734 216.0
89.964867 248.0
90.011589 140.0
90.039917 160.0
90.064468 160.0
90.096474 200.0
90.117371 184.0
90.157051 156.0
90.190178 344.0
90.215652 100.0
90.291763 144.0
90.323959 144.0
90.342361 108.0
90.376419 156.0
90.399124 172.0
90.441208 172.0
90.46537 104.0
90.524071 176.0
90.541115 120.0
90.577103 108.0
90.599838 108.0
90.618782 160.0
90.761337 212.0
90.81974 144.0
90.842499 60.0
90.884033 148.0
90.903221 220.0
90.920296 172.0
90.939278 164.0
90.962059 144.0
91.024567 264.0
91.045601 160.0
91.127289 300.0
91.152466 176.0
91.183723 120.0
91.279358 164.0
91.313591 88.0
91.329834 128.0
91.351089 176.0
91.395393 224.0
91.408714 172.0
91.439163 124.0
91.471519 140.0
91.570541 164.0
91.587685 116.0
91.620064 124.0
91.658173 180.0
91.681046 108.0
91.696289 136.0
91.721069 172.0
91.761101 248.0
91.778267 240.0
91.791611 156.0
91.866287 212.0
91.959503 152.0
92.064514 172.0
92.104622 112.0
92.121819 84.0
92.165764 144.0
92.179138 196.0
92.257927 144.0
92.31678 340.0
92.351295 176.0
92.381813 48.0
92.418167 188.0
92.47197 172.0
92.511948 132.0
92.536835 116.0
92.565559 208.0
92.580879 148.0
92.603867 92.0
92.627808 304.0
92.659416 128.0
92.69133 116.0
92.734154 148.0
92.808922 188.0
92.837692 132.0
92.894241 216.0
92.973907 216.0
93.079491 248.0
93.118393 124.0
93.144791 48.0
93.175529 128.0
93.315834 224.0
93.344681 252.0
93.360062 184.0
93.412003 152.0
93.433159 184.0
93.476875 172.0
93.497185 176.0
93.577515 192.0
93.610245 120.0
93.637207 172.0
93.66996 96.0
93.696236 212.0
93.783646 172.0
93.812561 120.0
93.849197 152.0
93.866547 124.0
93.886345 212.0
93.96846 204.0
94.003517 112.0
94.040184 168.0
94.059486 108.0
94.074936 108.0
94.089508 168.0
94.117409 52.0
94.150742 108.0
94.169556 152.0
94.191551 236.0
94.208191 160.0
94.252625 72.0
94.299011 180.0
94.318336 156.0
94.338364 352.0
94.3508 152.0
94.394295 168.0
94.441353 180.0
94.485832 184.0
94.506523 132.0
94.552383 164.0
94.651115 240.0
94.695602 144.0
94.707176 228.0
94.740211 192.0
94.864243 88.0
94.926292 124.0
94.971542 108.0
95.001938 144.0
95.091194 208.0
95.133904 112.0
95.166908 196.0
95.20089 128.0
95.213516 340.0
95.298988 156.0
95.340607 184.0
95.400055 132.0
95.429222 140.0
95.465485 136.0
95.490303 176.0
95.512848 184.0
95.537033 176.0
95.606239 152.0
95.647064 152.0
95.687996 164.0
95.70163 208.0
95.740578 184.0
95.787323 236.0
95.83213 140.0
95.901093 176.0
95.90905 232.0
95.957657 160.0
96.023178 68.0
96.062195 168.0
96.077751 172.0
96.097313 228.0
96.112923 216.0
96.126579 120.0
96.150002 184.0
96.163666 112.0
96.185135 152.0
96.220276 156.0
96.280807 184.0
96.312057 28.0
96.341362 132.0
96.38044 156.0
96.394119 172.0
96.417572 100.0
96.448845 108.0
96.491188 176.0
96.528259 200.0
96.587685 124.0
96.604134 160.0
96.624855 236.0
96.651443 196.0
96.683556 160.0
96.703133 244.0
96.751297 192.0
96.787315 152.0
96.822563 168.0
96.968742 204.0
97.000343 148.0
97.049889 184.0
97.074089 140.0
97.123764 172.0
97.167572 216.0
97.225441 228.0
97.250092 300.0
97.267578 188.0
97.312813 184.0
97.332451 156.0
97.34816 140.0
97.377617 64.0
97.40905 132.0
97.458168 176.0
97.47525 184.0
97.487991 156.0
97.505333 48.0
97.61557 220.0
97.652794 116.0
97.666565 144.0
97.70591 164.0
97.757065 176.0
97.834877 188.0
97.858177 176.0
97.89093 216.0
97.90818 132.0
97.965782 124.0
98.013069 204.0
98.020432 152.0
98.084023 124.0
98.113594 40.0
98.170776 132.0
98.226006 212.0
98.273933 176.0
98.293602 184.0
98.324661 168.0
98.367249 132.0
98.401276 128.0
98.427315 124.0
98.478668 156.0
98.573502 172.0
98.59919 112.0
98.615005 68.0
98.630814 192.0
98.654541 176.0
98.694084 212.0
98.719788 180.0
98.743523 168.0
98.802864 140.0
98.851624 380.0
98.905777 180.0
98.921608 128.0
98.992889 112.0
99.026558 220.0
99.056404 192.0
99.089951 192.0
99.151382 124.0
99.189041 148.0
99.21283 176.0
99.252983 160.0
99.296791 164.0
99.318687 168.0
99.335999 188.0
99.393326 160.0
99.435005 124.0
99.481201 444.0
99.524338 160.0
99.538239 148.0
99.581932 136.0
99.623642 164.0
99.65345 176.0
99.671333 136.0
99.744995 128.0
99.758781 320.0
99.823608 292.0
99.844284 116.0
99.878098 140.0
99.902985 100.0
99.964546 128.0
99.987534 328.0
100.062355 192.0
100.111237 3308.0
100.153214 328.0
100.212563 128.0
100.249969 176.0
100.293762 156.0
100.326469 188.0
100.41391 176.0
100.437683 148.0
100.485725 132.0
100.515656 180.0
100.543594 80.0
100.651398 188.0
100.69619 56.0
100.790138 176.0
100.841187 60.0
100.855179 152.0
100.919159 132.0
100.940239 324.0
100.957153 60.0
100.97715 56.0
101.009155 152.0
101.113968 136.0
101.131462 136.0
101.175262 164.0
101.227043 116.0
101.253677 100.0
101.267372 148.0
101.328598 128.0
101.337738 164.0
101.384171 68.0
101.531563 232.0
101.560829 220.0
101.635086 192.0
101.660339 144.0
101.676392 188.0
101.720551 116.0
101.735985 192.0
101.800339 168.0
101.80735 124.0
101.811646 196.0
101.828224 144.0
101.847061 128.0
101.925415 152.0
101.983704 140.0
102.037979 132.0
102.088249 124.0
102.16066 148.0
102.217346 188.0
102.251038 140.0
102.359924 120.0
102.420624 176.0
102.452286 192.0
102.463928 120.0
102.482803 208.0
102.530495 216.0
102.593704 160.0
102.620033 48.0
102.656166 140.0
102.67028 68.0
102.684395 164.0
102.734825 104.0
102.759041 196.0
102.785629 112.0
102.81958 132.0
102.899094 324.0
102.910736 180.0
102.942726 100.0
102.966965 72.0
103.003319 164.0
103.02446 236.0
103.040909 152.0
103.090202 208.0
103.140732 124.0
103.219582 80.0
103.274193 252.0
103.300484 116.0
103.322739 196.0
103.34095 104.0
103.363373 244.0
103.434189 248.0
103.508957 164.0
103.53186 180.0
103.552032 228.0
103.569717 196.0
103.615173 212.0
103.664268 200.0
103.684708 144.0
103.703011 200.0
103.708595 156.0
103.727623 160.0
103.76767 148.0
103.790627 212.0
103.818008 248.0
103.880684 220.0
103.910301 228.0
103.944794 140.0
103.975235 144.0
103.991859 256.0
104.047844 404.0
104.076363 172.0
104.095695 188.0
104.155952 80.0
104.203903 436.0
104.224556 172.0
104.257545 172.0
104.281082 172.0
104.298553 136.0
104.320557 112.0
104.385803 176.0
104.438499 180.0
104.542259 192.0
104.589073 144.0
104.686806 208.0
104.715317 112.0
104.73365 44.0
104.766243 172.0
104.784584 296.0
104.798988 168.0
104.862015 132.0
105.001411 164.0
105.031258 128.0
105.05574 132.0
105.090424 172.0
105.104706 96.0
105.192467 104.0
105.243515 56.0
105.264938 152.0
105.30069 140.0
105.347672 164.0
105.496979 144.0
105.588165 172.0
105.59494 112.0
105.599785 168.0
105.660477 224.0
105.682747 176.0
105.689644 156.0
105.693779 216.0
105.736191 116.0
105.766891 128.0
105.793503 124.0
105.824974 140.0
105.865173 168.0
105.883461 228.0
105.944496 248.0
105.988083 136.0
106.006523 196.0
106.100815 116.0
106.118477 248.0
106.145927 216.0
106.199249 56.0
106.222115 216.0
106.262848 264.0
106.319435 104.0
106.334366 108.0
106.385986 128.0
106.412674 148.0
106.434433 128.0
106.459908 168.0
106.521523 108.0
106.550285 56.0
106.589775 112.0
106.638649 132.0
106.655098 152.0
106.707306 192.0
106.734322 224.0
106.772293 196.0
106.852577 156.0
106.875153 116.0
106.893677 188.0
106.916313 192.0
106.95253 208.0
106.992477 152.0
107.008949 104.0
107.056313 128.0
107.103683 228.0
107.136642 32.0
107.197144 188.0
107.217003 180.0
107.234177 120.0
107.289154 140.0
107.332451 108.0
107.369568 48.0
107.425262 120.0
107.454147 120.0
107.472717 224.0
107.50161 244.0
107.542885 156.0
107.592987 164.0
107.613075 512.0
107.701881 156.0
107.716339 128.0
107.74733 140.0
107.790718 156.0
107.922668 72.0
107.951965 148.0
107.970581 152.0
107.98616 128.0
108.04184 80.0
108.101379 160.0
108.144379 208.0
108.185783 160.0
108.233643 136.0
108.264465 128.0
108.287247 156.0
108.33075 104.0
108.363899 120.0
108.409485 196.0
108.436424 136.0
108.471664 44.0
108.521423 224.0
108.635498 116.0
108.686958 164.0
108.720566 180.0
108.810745 208.0
108.849335 152.0
108.940666 144.0
108.993896 224.0
109.058701 180.0
109.094658 328.0
109.111092 200.0
109.138123 164.0
109.297745 168.0
109.317017 168.0
109.371132 148.0
109.412766 124.0
109.525223 164.0
109.548134 172.0
109.568451 192.0
109.625229 132.0
109.639816 252.0
109.766991 92.0
109.789177 200.0
109.835815 104.0
109.979797 248.0
110.075836 212.0
110.130554 200.0
110.16774 184.0
110.188629 56.0
110.226242 136.0
110.244217 180.0
110.377312 180.0
110.416489 80.0
110.45623 108.0
110.507805 196.0
110.579681 136.0
110.619453 88.0
110.6362 156.0
110.657143 168.0
110.675987 108.0
110.711586 44.0
110.766045 196.0
110.780708 28.0
110.818924 172.0
110.842117 192.0
110.885483 92.0
110.954659 120.0
111.000786 80.0
111.059509 60.0
111.105659 60.0
111.152985 208.0
111.191696 164.0
111.208488 264.0
111.263748 124.0
111.295326 592.0
111.329407 220.0
111.360611 196.0
111.460121 152.0
111.485138 356.0
111.49295 256.0
111.518433 208.0
111.552986 176.0
111.576118 184.0
111.594025 160.0
111.712814 60.0
111.748917 200.0
111.805397 112.0
111.842865 144.0
111.879074 176.0
111.908546 148.0
111.99836 124.0
112.020172 160.0
112.0746 120.0
112.100243 188.0
112.221016 188.0
112.294205 136.0
112.380699 124.0
112.418678 120.0
112.435562 148.0
112.466408 124.0
112.484116 168.0
112.509445 224.0
112.582054 128.0
112.606583 164.0
112.640984 120.0
112.70713 188.0
112.760818 144.0
112.815781 236.0
112.836922 148.0
112.866524 64.0
112.892654 192.0
112.913048 156.0
112.940544 152.0
112.963814 152.0
112.979637 192.0
113.054802 236.0
113.082314 124.0
113.128883 40.0
113.166992 56.0
113.202995 144.0
113.222054 188.0
113.277122 180.0
113.336449 276.0
113.357643 152.0
113.380951 148.0
113.423393 228.0
113.451385 176.0
113.49543 60.0
113.51239 128.0
113.537842 220.0
113.569656 200.0
113.648155 172.0
113.67688 216.0
113.694839 68.0
113.843452 156.0
113.871063 120.0
113.894424 120.0
113.937355 192.0
113.96241 180.0
113.987579 128.0
114.060173 140.0
114.077179 72.0
114.092056 248.0
114.125488 216.0
114.157974 156.0
114.245186 172.0
114.262207 232.0
114.341324 256.0
114.372101 156.0
114.567841 220.0
114.60714 124.0
114.692383 52.0
114.731735 140.0
114.749947 136.0
114.801125 132.0
114.82885 184.0
114.873642 112.0
114.920578 128.0
114.950455 164.0
115.001678 76.0
115.053978 720.0
115.095612 284.0
115.139252 240.0
115.155411 184.0
115.174797 156.0
115.222267 172.0
115.24086 156.0
115.30677 224.0
115.341309 212.0
115.384064 72.0
115.399033 220.0
115.426834 112.0
115.443939 152.0
115.471596 176.0
115.518799 356.0
115.539474 188.0
115.595825 248.0
115.62265 308.0
115.648926 168.0
115.679306 84.0
115.704994 92.0
115.792793 128.0
115.818451 212.0
115.84111 380.0
115.876335 164.0
115.900482 164.0
115.94062 208.0
115.979065 296.0
116.00106 144.0
116.050056 80980.0
116.105286 128.0
116.142799 120.0
116.176437 156.0
116.200096 124.0
116.253815 164.0
116.303909 132.0
116.382584 192.0
116.402191 480.0
116.422737 144.0
116.452148 116.0
116.468445 108.0
116.512512 164.0
116.541374 176.0
116.560562 148.0
116.585403 120.0
116.613739 116.0
116.644707 156.0
116.679214 108.0
116.701408 180.0
116.719902 92.0
116.743141 308.0
116.763992 88.0
116.791428 188.0
116.813568 180.0
116.840355 156.0
116.871796 184.0
116.903709 108.0
116.937943 172.0
116.981087 204.0
117.052681 6700.0
117.105133 60.0
117.144508 128.0
117.171257 52.0
117.215416 64.0
117.230095 200.0
117.249741 152.0
117.27536 148.0
117.308647 72.0
117.31942 136.0
117.366531 96.0
117.404724 232.0
117.429375 168.0
117.458641 68.0
117.482376 188.0
117.576836 188.0
117.6409 140.0
117.674461 124.0
117.700371 168.0
117.727867 392.0
117.786758 36.0
117.812057 192.0
117.818977 136.0
117.826729 180.0
117.858055 144.0
117.878448 256.0
117.910683 176.0
117.93087 104.0
117.938293 32.0
117.945152 148.0
117.992119 92.0
118.020172 164.0
118.063698 696.0
118.10788 116.0
118.173363 292.0
118.194496 136.0
118.242996 184.0
118.264641 112.0
118.304634 152.0
118.351242 200.0
118.407425 200.0
118.435707 76.0
118.4552 120.0
118.494194 144.0
118.596054 132.0
118.664742 396.0
118.683464 176.0
118.719635 116.0
118.754341 68.0
118.784706 160.0
118.809723 120.0
118.836777 324.0
118.860641 232.0
118.910561 88.0
118.934433 52.0
118.96917 144.0
119.006081 140.0
119.023453 56.0
119.038651 164.0
119.074776 244.0
119.140892 168.0
119.175499 72.0
119.190712 228.0
119.208099 68.0
119.312431 100.0
119.332001 156.0
119.362442 172.0
119.393974 144.0
119.431534 172.0
119.492012 200.0
119.510361 180.0
119.561974 128.0
119.62014 168.0
119.663445 72.0
119.698212 312.0
119.725868 124.0
119.74765 40.0
119.834793 168.0
119.936691 332.0
120.045731 172.0
120.102943 108.0
120.123611 168.0
120.212029 180.0
120.231674 160.0
120.246948 184.0
120.297745 192.0
120.321175 32.0
120.360191 92.0
120.396744 276.0
120.431168 336.0
120.559265 108.0
120.640533 112.0
120.686058 164.0
120.718262 176.0
120.762993 216.0
120.7976 140.0
120.822937 216.0
120.839813 136.0
120.874176 124.0
120.920135 140.0
120.942024 160.0
120.966103 184.0
120.98143 140.0
121.015602 184.0
121.049034 324.0
121.079964 184.0
121.115013 36.0
121.145676 168.0
121.163208 128.0
121.221275 136.0
121.242088 108.0
121.264008 108.0
121.27935 72.0
121.314423 84.0
121.462967 228.0
121.51712 152.0
121.540337 88.0
121.563225 204.0
121.636497 172.0
121.726921 184.0
121.751083 148.0
121.78183 112.0
121.845535 88.0
121.860916 100.0
121.911873 148.0
122.011864 272.0
122.054352 212.0
122.10273 184.0
122.131325 100.0
122.181923 76.0
122.244415 160.0
122.309563 192.0
122.39949 180.0
122.428459 236.0
122.45929 48.0
122.512161 60.0
122.52758 108.0
122.587074 204.0
122.681854 176.0
122.735725 120.0
122.761238 212.0
122.853874 72.0
122.884766 136.0
122.913452 140.0
122.944344 172.0
123.034843 152.0
123.087837 160.0
123.112129 188.0
123.244675 208.0
123.260139 208.0
123.329651 224.0
123.370659 120.0
123.417084 100.0
123.467949 72.0
123.498917 192.0
123.518822 160.0
123.565285 116.0
123.589622 124.0
123.682571 260.0
123.704712 224.0
123.733109 160.0
123.756958 188.0
123.802139 192.0
123.84285 200.0
123.878311 256.0
123.908463 228.0
123.944672 152.0
123.967529 152.0
124.003754 188.0
124.063599 116.0
124.107948 112.0
124.12471 200.0
124.161263 184.0
124.192642 84.0
124.275261 176.0
124.296494 156.0
124.343102 188.0
124.393532 144.0
124.431892 112.0
124.467422 188.0
124.498512 168.0
124.53627 136.0
124.558479 144.0
124.605133 176.0
124.680275 152.0
124.734032 168.0
124.758484 136.0
124.808815 220.0
124.956429 168.0
125.086929 144.0
125.110001 216.0
125.12558 132.0
125.152298 56.0
125.167885 44.0
125.207977 124.0
125.303764 112.0
125.430794 76.0
125.496651 216.0
125.534065 176.0
125.589722 208.0
125.667191 172.0
125.693016 272.0
125.725212 84.0
125.749763 148.0
125.775322 204.0
125.803337 60.0
125.851006 160.0
125.881485 236.0
125.897118 168.0
125.92392 188.0
125.950722 132.0
125.977531 292.0
126.051262 172.0
126.154083 52.0
126.171143 152.0
126.235199 172.0
126.283775 180.0
126.431442 156.0
126.447113 136.0
126.557381 124.0
126.606071 120.0
126.630707 176.0
126.670471 208.0
126.68895 144.0
126.787544 84.0
126.818077 180.0
126.843582 124.0
126.892754 60.0
126.961212 184.0
127.005028 152.0
127.083549 136.0
127.110603 144.0
127.215973 128.0
127.231689 172.0
127.26516 216.0
127.328247 132.0
127.375412 132.0
127.427086 180.0
127.530464 216.0
127.564178 140.0
127.615891 196.0
127.69973 144.0
127.759659 152.0
127.797302 104.0
127.820587 176.0
127.845337 144.0
127.892601 56.0
127.927086 176.0
127.936729 140.0
127.97245 200.0
128.005173 208.0
128.048828 2176.0
128.105972 176.0
128.138077 220.0
128.220169 80.0
128.277802 224.0
128.293579 228.0
128.365738 160.0
128.404892 120.0
128.437912 52.0
128.457535 188.0
128.501083 180.0
128.519699 144.0
128.601242 148.0
128.618423 160.0
128.749237 180.0
128.851837 444.0
128.882675 192.0
128.914307 80.0
128.93013 164.0
128.97876 148.0
129.068192 396.0
129.104218 164.0
129.130798 132.0
129.1698 252.0
129.271622 156.0
129.364426 184.0
129.387054 260.0
129.416489 132.0
129.466309 180.0
129.529739 120.0
129.563721 176.0
129.669128 200.0
129.717819 68.0
129.754089 164.0
129.803986 192.0
129.822128 148.0
129.903778 144.0
129.941544 204.0
129.958237 188.0
130.019501 144.0
130.065002 1704.0
130.112564 248.0
130.143967 208.0
130.195679 180.0
130.222382 168.0
130.240784 140.0
130.335159 212.0
130.380615 72.0
130.405975 148.0
130.44426 116.0
130.532928 184.0
130.648926 176.0
130.691345 212.0
130.719467 80.0
130.735397 56.0
130.835556 208.0
130.89476 128.0
130.956406 116.0
131.040588 180.0
131.069153 848.0
131.133972 248.0
131.184113 184.0
131.202362 48.0
131.250732 220.0
131.29982 188.0
131.373398 144.0
131.423599 100.0
131.441696 184.0
131.466949 132.0
131.510315 108.0
131.539993 180.0
131.617615 88.0
131.702118 160.0
131.745529 132.0
131.802643 152.0
131.859787 136.0
131.898636 112.0
131.951218 60.0
131.96843 204.0
132.010666 40.0
132.044708 1520.0
132.081848 172.0
132.106873 140.0
132.147995 116.0
132.173096 196.0
132.205124 72.0
132.246323 256.0
132.273788 168.0
132.333313 40.0
132.385986 68.0
132.40889 156.0
132.429504 284.0
132.450119 152.0
132.487946 164.0
132.560089 264.0
132.64949 160.0
132.713684 140.0
132.80249 156.0
132.871933 112.0
132.901764 176.0
132.940781 140.0
132.960815 176.0
133.039581 192.0
133.077408 324.0
133.1035 176.0
133.122894 280.0
133.14418 180.0
133.191589 152.0
133.209427 116.0
133.237732 200.0
133.35878 152.0
133.390564 116.0
133.487473 164.0
133.701477 120.0
133.726807 204.0
133.74292 140.0
133.782043 52.0
133.846512 128.0
133.950165 124.0
133.984421 184.0
134.01329 168.0
134.058411 308.0
134.098373 152.0
134.155258 48.0
134.173706 184.0
134.24057 112.0
134.274124 176.0
134.34668 156.0
134.395126 92.0
134.427597 176.0
134.462051 124.0
134.480515 144.0
134.602875 56.0
134.653687 92.0
134.679092 84.0
134.723953 148.0
134.813095 220.0
134.838318 132.0
134.877823 188.0
134.90094 112.0
134.92868 164.0
135.062805 52.0
135.106766 216.0
135.187744 108.0
135.210892 164.0
135.254868 172.0
135.345154 64.0
135.413681 144.0
135.455444 336.0
135.509613 208.0
135.542053 180.0
135.576813 136.0
135.609268 168.0
135.692719 204.0
135.766922 208.0
135.799393 184.0
135.843475 204.0
135.871307 48.0
135.94458 216.0
135.982697 212.0
136.043045 124.0
136.087158 136.0
136.105743 180.0
136.135254 204.0
136.15802 164.0
136.200958 164.0
136.221863 224.0
136.252075 244.0
136.279953 152.0
136.354309 120.0
136.388702 212.0
136.486832 132.0
136.536179 180.0
136.626968 144.0
136.647324 80.0
136.672913 164.0
136.700363 252.0
136.719452 172.0
136.763535 184.0
136.781433 216.0
136.815384 152.0
136.875427 96.0
136.915131 136.0
136.938309 108.0
136.963928 148.0
137.02684 148.0
137.054794 224.0
137.073441 140.0
137.149384 252.0
137.178024 160.0
137.2173 128.0
137.269363 180.0
137.292572 128.0
137.360214 176.0
137.453903 208.0
137.481552 68.0
137.541779 164.0
137.548523 132.0
137.578644 200.0
137.685562 216.0
137.697647 180.0
137.729034 172.0
137.748627 136.0
137.773422 152.0
137.8004 236.0
137.842422 188.0
137.882935 208.0
137.887009 144.0
137.959915 216.0
138.046539 128.0
138.088776 204.0
138.133728 168.0
138.182571 132.0
138.210648 76.0
138.252777 148.0
138.275101 148.0
138.315948 204.0
138.418137 164.0
138.516953 136.0
138.582962 124.0
138.608734 32.0
138.676971 104.0
138.696335 160.0
138.732956 112.0
138.824402 164.0
138.871307 40.0
138.925262 140.0
138.953415 144.0
138.969849 68.0
139.037903 48.0
139.063721 204.0
139.122406 156.0
139.227753 244.0
139.296188 184.0
139.314972 160.0
139.353531 216.0
139.380768 152.0
139.401917 248.0
139.446564 168.0
139.477036 112.0
139.483734 108.0
139.490265 200.0
139.51944 224.0
139.578217 172.0
139.667587 180.0
139.688522 120.0
139.721695 196.0
139.745224 192.0
139.767395 200.0
139.806412 208.0
139.84877 164.0
139.884079 168.0
139.91716 160.0
139.940582 116.0
140.029434 248.0
140.037827 180.0
140.098511 316.0
140.180862 176.0
140.25293 144.0
140.314194 120.0
140.407791 184.0
140.496826 160.0
140.539764 216.0
140.567383 208.0
140.593567 332.0
140.630051 104.0
140.650208 128.0
140.695068 148.0
140.732849 140.0
140.820557 56.0
140.843094 140.0
140.868073 172.0
140.907623 172.0
140.925064 184.0
141.016327 116.0
141.069885 124.0
141.09198 228.0
141.20549 284.0
141.243332 164.0
141.320129 148.0
141.387665 124.0
141.413696 128.0
141.450073 148.0
141.467667 100.0
141.513123 180.0
141.541534 124.0
141.577454 212.0
141.605484 176.0
141.622055 84.0
141.695496 128.0
141.748108 156.0
141.777893 260.0
141.847168 136.0
141.87088 204.0
141.977585 172.0
142.027618 164.0
142.062683 796.0
142.089462 140.0
142.11644 216.0
142.156937 96.0
142.172119 152.0
142.198227 112.0
142.226898 160.0
142.27182 156.0
142.340683 184.0
142.381058 172.0
142.478821 152.0
142.511703 104.0
142.592499 136.0
142.627182 184.0
142.659058 272.0
142.701859 200.0
142.732773 144.0
142.762924 176.0
142.772873 120.0
142.78093 160.0
142.801743 152.0
142.82077 136.0
142.842178 92.0
142.865967 224.0
142.892136 176.0
142.95401 220.0
142.975418 120.0
143.032837 268.0
143.063477 1204.0
143.173019 228.0
143.203995 104.0
143.223038 60.0
143.290176 132.0
143.333969 76.0
143.370773 180.0
143.389832 124.0
143.419632 176.0
143.441025 168.0
143.473267 200.0
143.48996 140.0
143.509033 192.0
143.530487 84.0
143.568649 92.0
143.594879 172.0
143.618973 116.0
143.647934 180.0
143.692688 184.0
143.747574 112.0
143.770615 140.0
143.794479 312.0
143.826187 140.0
143.870667 168.0
143.910217 180.0
143.977081 336.0
143.999542 260.0
144.044678 87924.0
144.080383 1196.0
144.108932 84.0
144.129471 112.0
144.137604 152.0
144.145813 76.0
144.203445 136.0
144.2099 112.0
144.221283 88.0
144.247818 68.0
144.266769 152.0
144.287979 304.0
144.308044 144.0
144.345337 172.0
144.388519 160.0
144.436783 748.0
144.470825 80.0
144.495468 196.0
144.525299 164.0
144.571213 160.0
144.599396 140.0
144.645203 184.0
144.65889 212.0
144.708633 220.0
144.746155 104.0
144.763565 128.0
144.808746 184.0
144.837234 88.0
144.857407 68.0
144.913956 92.0
144.927917 184.0
144.946411 108.0
144.966324 188.0
145.000885 248.0
145.047226 8908.0
145.083984 216.0
145.117477 116.0
145.160065 44.0
145.185364 52.0
145.211746 72.0
145.239624 148.0
145.259186 128.0
145.352722 68.0
145.396179 128.0
145.434891 168.0
145.455399 124.0
145.478104 52.0
145.504501 280.0
145.535721 36.0
145.59816 36.0
145.614975 140.0
145.642395 228.0
145.660614 164.0
145.687729 96.0
145.723572 76.0
145.790817 148.0
145.819519 60.0
145.84848 372.0
145.876282 96.0
145.931931 148.0
145.947083 164.0
145.968399 76.0
146.000839 92.0
146.025772 100.0
146.059402 7432.0
146.087082 128.0
146.116913 252.0
146.136566 116.0
146.161224 208.0
146.196793 176.0
146.222076 236.0
146.240112 124.0
146.270691 128.0
146.293915 92.0
146.308716 104.0
146.327789 124.0
146.369263 116.0
146.401749 148.0
146.425446 148.0
146.493042 112.0
146.543549 104.0
146.582108 64.0
146.679779 168.0
146.743607 88.0
146.772537 152.0
146.799072 176.0
146.893127 108.0
146.957886 152.0
146.982407 176.0
147.001709 116.0
147.0186 92.0
147.063477 564.0
147.091537 172.0
147.190002 68.0
147.214569 184.0
147.257629 168.0
147.315079 112.0
147.344589 104.0
147.421371 232.0
147.467834 172.0
147.492004 124.0
147.508926 68.0
147.542023 156.0
147.594452 172.0
147.620834 160.0
147.631317 148.0
147.663681 196.0
147.729813 332.0
147.828201 92.0
147.845139 120.0
147.87529 148.0
147.927429 148.0
148.038803 96.0
148.092087 84.0
148.111465 232.0
148.130844 120.0
148.152649 48.0
148.172028 140.0
148.205963 92.0
148.230194 280.0
148.247147 128.0
148.288361 336.0
148.36232 196.0
148.38884 120.0
148.41684 40.0
148.4617 120.0
148.593903 164.0
148.640015 84.0
148.727386 80.0
148.761368 56.0
148.80304 144.0
148.839066 208.0
148.862747 164.0
148.885208 188.0
148.911911 28.0
148.999374 140.0
149.048111 680.0
149.1306 160.0
149.154907 132.0
149.224915 176.0
149.39566 152.0
149.454041 108.0
149.524628 140.0
149.570862 120.0
149.600082 208.0
149.629288 196.0
149.646133 184.0
149.855804 132.0
149.885056 116.0
149.963043 128.0
149.988815 104.0
150.062988 140.0
150.091003 268.0
150.201996 176.0
150.277634 48.0
150.345963 184.0
150.375244 68.0
150.489975 196.0
150.545212 168.0
150.549713 104.0
150.594986 128.0
150.648727 132.0
150.685379 260.0
150.740875 192.0
150.80304 108.0
150.920029 64.0
150.949371 68.0
151.012955 152.0
151.141907 152.0
151.194016 144.0
151.247864 124.0
151.279373 192.0
151.295456 172.0
151.471375 244.0
151.506378 192.0
151.65448 220.0
151.713303 140.0
151.745178 160.0
151.786865 64.0
151.843277 76.0
151.900833 128.0
151.921631 152.0
151.957809 124.0
151.99736 168.0
152.04982 628.0
152.072632 144.0
152.120544 208.0
152.174561 96.0
152.191742 180.0
152.213852 56.0
152.400528 164.0
152.449677 228.0
152.49884 48.0
152.567673 148.0
152.622894 188.0
152.747192 192.0
152.813614 164.0
152.835754 116.0
152.897278 232.0
153.010788 180.0
153.044846 3208.0
153.222321 40.0
153.281464 96.0
153.348007 208.0
153.438934 140.0
153.560043 164.0
153.643921 108.0
153.667221 168.0
153.705612 116.0
153.777176 280.0
153.809265 104.0
153.996933 108.0
154.018097 140.0
154.064301 480.0
154.142685 220.0
154.190384 160.0
154.211029 148.0
154.261322 224.0
154.339828 132.0
154.387436 172.0
154.41217 144.0
154.433136 188.0
154.499603 160.0
154.521011 172.0
154.553177 104.0
154.581924 160.0
154.634842 48.0
154.671967 48.0
154.766052 180.0
154.792145 176.0
154.814621 88.0
154.875809 200.0
154.897308 160.0
154.951813 124.0
154.974121 164.0
155.017456 180.0
155.058884 176.0
155.063522 300.0
155.073685 468.0
155.135223 60.0
155.165817 200.0
155.183701 152.0
155.23085 140.0
155.268677 68.0
155.303848 84.0
155.331131 140.0
155.348495 164.0
155.377182 164.0
155.437958 184.0
155.502335 236.0
155.591705 68.0
155.632385 336.0
155.663712 104.0
155.72084 136.0
155.73822 148.0
155.760574 176.0
155.847534 148.0
155.879837 180.0
155.988205 80.0
156.010941 156.0
156.043289 948.0
156.080963 664.0
156.132309 208.0
156.19809 72.0
156.25531 176.0
156.419556 108.0
156.49176 48.0
156.55899 148.0
156.633713 160.0
156.681046 232.0
156.745056 152.0
156.83049 140.0
156.862976 128.0
157.00943 184.0
157.045517 224.0
157.088913 1140.0
157.182281 176.0
157.199692 220.0
157.273499 80.0
157.310898 188.0
157.334473 148.0
157.399399 136.0
157.464325 84.0
157.504288 44.0
157.542572 308.0
157.61673 136.0
157.646713 148.0
157.693954 124.0
157.763 172.0
157.858536 136.0
157.896713 192.0
157.948288 136.0
157.97879 148.0
158.02179 128.0
158.058884 4380.0
158.095642 1260.0
158.166946 168.0
158.18602 156.0
158.231155 68.0
158.383362 140.0
158.437836 164.0
158.469986 280.0
158.490021 144.0
158.537643 84.0
158.607819 140.0
158.640411 72.0
158.698074 148.0
158.728165 184.0
158.773026 144.0
158.778778 176.0
158.861099 132.0
158.919235 164.0
159.020813 216.0
159.064545 852.0
159.088684 284.0
159.290375 188.0
159.318008 148.0
159.349701 176.0
159.498947 96.0
159.533966 60.0
159.574356 76.0
159.60202 168.0
159.647293 188.0
159.747894 192.0
159.780609 216.0
159.866165 132.0
159.911255 152.0
159.971878 108.0
160.02475 220.0
160.044052 360.0
160.074783 2816.0
160.11235 360.0
160.183411 184.0
160.206085 184.0
160.270554 196.0
160.278015 116.0
160.289932 144.0
160.349716 132.0
160.429077 248.0
160.491135 148.0
160.538803 220.0
160.57663 156.0
160.624878 160.0
160.725479 168.0
160.821381 172.0
160.837784 124.0
160.859238 220.0
160.887009 128.0
160.912262 96.0
160.940033 152.0
160.969131 144.0
161.005692 88.0
161.027908 196.0
161.074615 252.0
161.114304 164.0
161.193756 100.0
161.245575 152.0
161.268463 128.0
161.293732 144.0
161.350601 196.0
161.379684 156.0
161.453033 180.0
161.4935 116.0
161.556732 40.0
161.640839 152.0
161.719421 356.0
161.744003 144.0
161.84021 160.0
161.894501 172.0
161.923782 72.0
161.959244 120.0
162.055344 424.0
162.136597 48.0
162.16954 148.0
162.321671 224.0
162.36731 188.0
162.433258 128.0
162.530685 192.0
162.633728 128.0
162.72258 216.0
162.765747 276.0
162.865112 188.0
162.885117 172.0
162.925766 140.0
162.94339 124.0
163.035019 156.0
163.105377 176.0
163.141785 116.0
163.208527 128.0
163.229858 172.0
163.25621 144.0
163.315811 256.0
163.525894 212.0
163.604248 232.0
163.637894 132.0
163.725891 180.0
163.846268 208.0
163.850082 168.0
163.997101 32.0
164.068695 184.0
164.15773 116.0
164.178131 160.0
164.22403 136.0
164.333725 132.0
164.365433 132.0
164.410294 116.0
164.522598 168.0
164.563446 132.0
164.665604 268.0
164.765671 160.0
164.803543 124.0
164.836777 176.0
164.900665 164.0
164.925186 128.0
164.972656 144.0
165.000351 92.0
165.063705 168.0
165.102158 192.0
165.123108 136.0
165.22287 88.0
165.276093 160.0
165.332901 204.0
165.412247 260.0
165.468567 124.0
165.514969 160.0
165.571854 168.0
165.673462 240.0
165.752884 104.0
165.829773 156.0
165.896423 112.0
165.929749 136.0
165.98616 184.0
166.024628 84.0
166.068222 376.0
166.217346 196.0
166.389008 212.0
166.440353 120.0
166.471176 144.0
166.558746 200.0
166.717804 132.0
166.771774 184.0
166.866882 144.0
166.905457 120.0
166.923462 156.0
167.031479 56.0
167.071335 964.0
167.175568 128.0
167.301697 180.0
167.332581 136.0
167.384079 152.0
167.412415 76.0
167.484528 112.0
167.552139 180.0
167.670044 216.0
167.742218 136.0
167.76799 160.0
167.796356 216.0
167.836044 112.0
167.87056 144.0
167.960831 196.0
167.98204 140.0
168.048737 208.0
168.077728 828.0
168.11879 88.0
168.152344 212.0
168.2556 124.0
168.35614 180.0
168.488052 208.0
168.506134 108.0
168.633942 184.0
168.762024 44.0
168.803391 56.0
168.878387 60.0
168.901672 212.0
168.927536 188.0
168.969757 200.0
169.012924 192.0
169.033615 144.0
169.075592 1380.0
169.109192 176.0
169.142319 196.0
169.17598 320.0
169.270294 140.0
169.434967 100.0
169.475067 160.0
169.537323 112.0
169.58786 180.0
169.611191 152.0
169.659561 296.0
169.694519 164.0
169.743286 160.0
169.808838 196.0
169.865311 136.0
169.953522 100.0
170.058807 2352.0
170.094055 1356.0
170.128647 76.0
170.155975 152.0
170.187134 184.0
170.291885 240.0
170.335175 152.0
170.426102 136.0
170.491074 136.0
170.551193 156.0
170.647049 176.0
170.717255 160.0
170.738052 108.0
170.769272 36.0
170.803085 96.0
170.829102 212.0
170.860626 168.0
170.909195 260.0
170.968857 192.0
171.008362 148.0
171.055557 25896.0
171.090057 556.0
171.125793 88.0
171.172668 240.0
171.2043 168.0
171.239227 168.0
171.280167 136.0
171.322495 144.0
171.357361 96.0
171.38887 128.0
171.42778 212.0
171.491119 156.0
171.525375 192.0
171.560898 104.0
171.599365 212.0
171.632446 72.0
171.660812 124.0
171.705032 100.0
171.768341 404.0
171.839966 80.0
171.880066 316.0
171.962753 144.0
171.980759 632.0
172.03949 92600.0
172.111053 1616.0
172.1698 76.0
172.198502 72.0
172.243835 68.0
172.292114 180.0
172.316895 60.0
172.339828 144.0
172.378983 132.0
172.411835 96.0
172.428726 56.0
172.468155 476.0
172.513779 100.0
172.534698 124.0
172.558228 52.0
172.582993 188.0
172.623596 64.0
172.643219 80.0
172.694962 168.0
172.738678 96.0
172.756989 60.0
172.781723 80.0
172.819794 200.0
172.837524 180.0
172.861649 192.0
172.886978 136.0
172.915573 80.0
172.942719 160.0
172.970505 200.0
173.041992 15236.0
173.082245 584.0
173.114807 120.0
173.161469 60.0
173.179672 60.0
173.215942 192.0
173.238693 28.0
173.263702 88.0
173.288467 124.0
173.321121 52.0
173.351318 180.0
173.411636 88.0
173.432617 72.0
173.477173 140.0
173.503311 144.0
173.509689 140.0
173.578705 144.0
173.652863 136.0
173.682526 116.0
173.726318 60.0
173.755173 104.0
173.799774 116.0
173.818146 80.0
173.86145 72.0
173.907379 232.0
173.929871 156.0
174.042755 664.0
174.088074 160.0
174.112717 112.0
174.139725 188.0
174.173645 188.0
174.219864 84.0
174.24614 132.0
174.282928 48.0
174.301315 140.0
174.351639 208.0
174.444122 132.0
174.474792 168.0
174.516861 164.0
174.550995 212.0
174.579971 112.0
174.609909 200.0
174.648361 96.0
174.75885 224.0
174.872757 156.0
174.964142 100.0
174.993103 48.0
175.057266 296.0
175.144821 264.0
175.209076 140.0
175.269745 232.0
175.288818 108.0
175.31369 160.0
175.337021 168.0
175.396194 160.0
175.423798 156.0
175.472641 212.0
175.543839 104.0
175.604492 164.0
175.623886 168.0
175.688904 120.0
175.710007 116.0
175.768066 156.0
175.812927 52.0
175.944901 184.0
175.987152 144.0
176.042603 68.0
176.079575 192.0
176.140335 116.0
176.222229 160.0
176.275085 192.0
176.35701 104.0
176.486557 128.0
176.505066 124.0
176.552658 116.0
176.687561 68.0
176.71402 100.0
176.737839 124.0
176.788116 160.0
176.843704 172.0
176.909882 160.0
176.973419 160.0
176.991959 160.0
177.041443 656.0
177.11908 176.0
177.144852 172.0
177.235657 76.0
177.267456 132.0
177.2966 104.0
177.315155 112.0
177.368164 128.0
177.421188 100.0
177.511337 272.0
177.598495 176.0
177.633347 156.0
177.784088 148.0
177.821747 172.0
177.845627 40.0
177.866867 184.0
177.943863 188.0
178.015549 144.0
178.043045 160.0
178.087265 84.0
178.108505 160.0
178.263107 312.0
178.307785 164.0
178.350311 112.0
178.645493 208.0
178.733292 144.0
178.894379 108.0
178.927597 136.0
178.956879 252.0
179.009552 184.0
179.060745 180.0
179.124664 40.0
179.180618 40.0
179.201935 104.0
179.281876 216.0
179.305862 224.0
179.340515 140.0
179.401825 48.0
179.428482 160.0
179.548477 152.0
179.57782 68.0
179.668518 48.0
179.697861 136.0
179.732544 156.0
179.814087 152.0
179.852646 172.0
179.872162 168.0
179.948486 40.0
180.03688 204.0
180.084946 188.0
180.133026 136.0
180.261276 144.0
180.29335 148.0
180.375351 188.0
180.424332 120.0
180.461761 40.0
180.568726 140.0
180.606171 184.0
180.656998 152.0
180.708542 168.0
180.768875 172.0
180.876434 220.0
180.921951 132.0
180.967209 164.0
181.004959 88.0
181.039764 168.0
181.064087 164.0
181.085739 484.0
181.146912 172.0
181.179062 96.0
181.246033 144.0
181.303543 244.0
181.334473 32.0
181.380051 136.0
181.422943 152.0
181.488678 208.0
181.535126 100.0
181.701859 68.0
181.730072 60.0
181.756622 192.0
181.85878 152.0
181.956833 172.0
181.986374 56.0
182.013794 188.0
182.094025 1460.0
182.165817 44.0
182.233475 124.0
182.265717 36.0
182.32753 160.0
182.400818 256.0
182.421616 172.0
182.451294 96.0
182.475372 48.0
182.4991 112.0
182.537231 164.0
182.593704 128.0
182.612534 176.0
182.655563 208.0
182.74704 156.0
182.790085 40.0
182.833145 136.0
182.860062 48.0
182.89505 108.0
182.924667 208.0
182.951584 196.0
183.06514 324.0
183.101547 680.0
183.142776 60.0
183.218872 160.0
183.255936 156.0
183.339462 152.0
183.358337 112.0
183.46077 84.0
183.495819 180.0
183.587494 140.0
183.621124 160.0
183.69809 164.0
183.770935 124.0
183.808701 48.0
183.970657 96.0
184.072708 440.0
184.096298 304.0
184.109818 188.0
184.167786 148.0
184.195969 128.0
184.227203 48.0
184.292053 64.0
184.348801 44.0
184.378525 152.0
184.470428 100.0
184.49205 148.0
184.519089 48.0
184.548828 236.0
184.581284 172.0
184.643478 84.0
184.710022 156.0
184.789566 108.0
184.924866 200.0
184.947525 216.0
184.968185 180.0
185.040146 156.0
185.075348 748.0
185.134125 180.0
185.16713 160.0
185.2146 124.0
185.269577 148.0
185.315231 192.0
185.445557 224.0
185.490997 156.0
185.531662 164.0
185.564194 124.0
185.62114 52.0
185.675385 132.0
185.699783 172.0
185.72139 216.0
185.810562 268.0
185.852249 324.0
185.890991 176.0
185.949402 112.0
185.99826 88.0
186.051727 352.0
186.081848 736.0
186.124237 84.0
186.226349 124.0
186.27626 216.0
186.32959 40.0
186.35675 220.0
186.582352 264.0
186.759109 104.0
186.807526 176.0
186.861069 228.0
186.883392 164.0
186.995834 104.0
187.047623 184.0
187.086121 7888.0
187.136063 132.0
187.162521 140.0
187.231491 180.0
187.303513 196.0
187.491516 52.0
187.523819 160.0
187.565109 124.0
187.589645 124.0
187.630539 220.0
187.745071 136.0
187.772339 84.0
187.835083 88.0
187.895096 196.0
187.915649 60.0
187.935654 240.0
187.982407 64.0
188.087906 616.0
188.121613 112.0
188.140717 136.0
188.16217 104.0
188.255402 116.0
188.356461 172.0
188.397079 184.0
188.454819 140.0
188.547729 96.0
188.741821 164.0
188.782852 152.0
188.892258 56.0
188.982529 144.0
189.012634 68.0
189.065689 976.0
189.115341 228.0
189.144012 116.0
189.182327 184.0
189.208847 140.0
189.25351 60.0
189.300064 112.0
189.3302 132.0
189.349365 104.0
189.450714 180.0
189.557571 188.0
189.653503 132.0
189.73848 140.0
189.787842 108.0
189.944168 176.0
190.046326 160.0
190.069443 224.0
190.144577 188.0
190.204849 164.0
190.358612 128.0
190.421768 200.0
190.440994 68.0
190.482208 108.0
190.539902 140.0
190.581116 152.0
190.608582 140.0
190.682785 148.0
190.839478 148.0
190.883484 176.0
190.930237 136.0
190.949478 44.0
190.97699 184.0
191.031433 212.0
191.090393 36.0
191.147568 184.0
191.177841 104.0
191.19986 56.0
191.312714 76.0
191.332352 152.0
191.466919 140.0
191.502716 124.0
191.538528 168.0
191.623932 164.0
191.703842 148.0
191.783768 188.0
191.816849 132.0
191.839294 112.0
191.892456 236.0
191.93013 136.0
191.987442 184.0
192.048477 136.0
192.164337 124.0
192.205734 88.0
192.387894 212.0
192.407227 152.0
192.575668 92.0
192.705521 136.0
192.727615 112.0
192.785645 44.0
192.838165 192.0
192.882385 136.0
192.906815 124.0
192.968094 208.0
193.001266 84.0
193.036957 164.0
193.083405 160.0
193.261276 180.0
193.286179 196.0
193.332504 260.0
193.460556 176.0
193.482712 68.0
193.613693 144.0
193.773514 124.0
193.884354 60.0
193.906738 104.0
194.07811 112.0
194.108917 44.0
194.205978 112.0
194.267014 132.0
194.319717 184.0
194.451263 120.0
194.486237 228.0
194.511215 116.0
194.569519 200.0
194.785721 124.0
194.988968 72.0
195.0112 132.0
195.082565 312.0
195.384109 168.0
195.461746 164.0
195.623169 112.0
195.664932 164.0
195.712265 112.0
195.757843 196.0
195.893311 232.0
195.935089 212.0
195.982178 200.0
196.089218 312.0
196.108673 188.0
196.155258 108.0
196.283508 160.0
196.303024 160.0
196.357529 228.0
196.392273 264.0
196.464813 120.0
196.683716 108.0
197.069794 1048.0
197.110641 280.0
197.135986 196.0
197.297058 48.0
197.316635 176.0
197.344589 84.0
197.434067 128.0
197.613556 124.0
197.680267 144.0
197.845413 132.0
197.867798 96.0
197.887405 104.0
197.965805 68.0
198.01062 76.0
198.088943 408.0
198.127335 404.0
198.181503 160.0
198.203918 248.0
198.316025 68.0
198.551544 144.0
198.607635 216.0
198.646759 144.0
198.777374 136.0
198.806839 92.0
198.865784 76.0
198.959595 228.0
199.031418 144.0
199.084549 432.0
199.11969 664.0
199.303299 96.0
199.41069 228.0
199.466904 124.0
199.523132 188.0
199.627167 180.0
199.716888 208.0
199.759354 160.0
199.843765 160.0
199.888779 176.0
199.992737 188.0
200.106934 5424.0
200.204086 168.0
200.226379 48.0
200.232758 44.0
200.266052 176.0
200.33165 208.0
200.366821 216.0
200.42099 44.0
200.449982 140.0
200.508362 64.0
200.567551 124.0
200.595734 128.0
200.646484 216.0
200.762405 176.0
200.858368 88.0
200.891846 172.0
200.920059 124.0
200.951096 244.0
200.99263 188.0
201.108856 904.0
201.133118 128.0
201.165588 128.0
201.188171 128.0
201.27005 112.0
201.301117 88.0
201.332169 160.0
201.371719 164.0
201.394318 172.0
201.511581 216.0
201.532745 232.0
201.597733 172.0
201.665573 124.0
201.723831 176.0
201.755478 228.0
201.789948 128.0
201.83519 72.0
201.894577 64.0
201.976608 104.0
202.016205 124.0
202.050156 132.0
202.077209 136.0
202.083221 76.0
202.118683 2588.0
202.262604 116.0
202.306015 128.0
202.325851 224.0
202.364319 184.0
202.41246 116.0
202.481888 140.0
202.52858 128.0
202.599396 48.0
202.671585 160.0
202.811935 136.0
202.936478 152.0
203.044434 88.0
203.0728 156.0
203.126129 160.0
203.177765 104.0
203.234497 96.0
203.265717 200.0
203.333832 232.0
203.600708 200.0
203.773987 148.0
203.850708 68.0
203.910385 208.0
203.938812 144.0
203.978348 44.0
204.000595 180.0
204.049683 84.0
204.083801 180.0
204.140671 132.0
204.185287 180.0
204.257294 36.0
204.302811 172.0
204.339798 148.0
204.379623 108.0
204.419464 168.0
204.610168 128.0
204.63295 192.0
204.695297 152.0
204.823303 224.0
204.900681 140.0
204.977615 184.0
205.028915 188.0
205.205643 172.0
205.371048 56.0
205.391022 120.0
205.425247 60.0
205.453781 152.0
205.516556 212.0
205.539383 184.0
205.578995 68.0
205.613571 188.0
205.642838 112.0
205.67923 212.0
205.781998 168.0
205.973343 192.0
206.076202 236.0
206.196213 60.0
206.230515 208.0
206.296265 40.0
206.379181 156.0
206.442093 192.0
206.484985 148.0
206.606903 148.0
206.670929 144.0
206.72139 120.0
207.002991 168.0
207.054321 152.0
207.092728 96.0
207.180573 108.0
207.205276 164.0
207.275879 168.0
207.320984 160.0
207.369705 136.0
207.447098 136.0
207.518768 248.0
207.550323 108.0
207.728134 76.0
207.906036 76.0
207.961838 180.0
208.10376 196.0
208.227585 40.0
208.250565 200.0
208.294861 132.0
208.409805 204.0
208.468918 208.0
208.592514 152.0
208.730515 176.0
208.773651 180.0
208.848434 132.0
208.903091 120.0
209.075439 152.0
209.105698 228.0
209.172943 140.0
209.192291 212.0
209.21907 116.0
209.265732 148.0
209.303162 212.0
209.381805 308.0
209.415482 208.0
209.634445 132.0
209.698257 112.0
209.731827 96.0
209.767334 148.0
209.792969 104.0
209.902542 64.0
209.963104 136.0
210.023666 108.0
210.085403 672.0
210.114243 368.0
210.233597 192.0
210.30864 64.0
210.49411 132.0
210.609634 192.0
210.725189 48.0
210.823441 192.0
210.887024 40.0
210.947723 76.0
211.089844 308.0
211.129883 188.0
211.161697 132.0
211.193512 80.0
211.262939 116.0
211.398621 148.0
211.430771 120.0
211.488663 104.0
211.549454 56.0
211.5755 116.0
211.665268 128.0
211.685532 156.0
211.708694 76.0
211.749252 136.0
211.804276 76.0
211.824554 80.0
211.95784 152.0
212.005676 204.0
212.056366 160.0
212.084564 156.0
212.137527 176.0
212.178116 48.0
212.221619 120.0
212.253922 200.0
212.295944 200.0
212.444931 220.0
212.473953 92.0
212.598907 244.0
212.70433 188.0
212.747116 132.0
212.912262 164.0
213.005219 72.0
213.04007 48.0
213.06427 184.0
213.181915 196.0
213.252213 164.0
213.278366 52.0
213.303284 56.0
213.358475 144.0
213.464188 140.0
213.534241 212.0
213.606964 156.0
213.628876 180.0
213.69133 136.0
213.731049 60.0
213.772903 216.0
213.80481 128.0
213.858795 124.0
213.888031 88.0
213.908554 144.0
213.932083 244.0
214.008591 116.0
214.054459 144.0
214.076355 148.0
214.110519 164.0
214.145462 144.0
214.165848 112.0
214.206635 268.0
214.238739 176.0
214.311874 224.0
214.361359 216.0
214.387283 92.0
214.415665 108.0
214.438126 208.0
214.460144 36.0
214.499283 340.0
214.555923 136.0
214.581818 288.0
214.612274 296.0
214.649307 140.0
214.719147 212.0
214.764923 248.0
214.803986 184.0
214.847992 192.0
214.888138 300.0
214.895554 120.0
214.943588 256.0
214.967178 168.0
214.998734 396.0
215.082047 204752.0
215.147476 140.0
215.182892 116.0
215.22525 308.0
215.243484 104.0
215.28804 136.0
215.312744 344.0
215.326141 152.0
215.333481 344.0
215.397491 200.0
215.42482 280.0
215.452332 56.0
215.477036 252.0
215.514847 112.0
215.562469 1216.0
215.604996 232.0
215.669724 60.0
215.695648 100.0
215.730957 104.0
215.79187 144.0
215.828949 92.0
215.88237 224.0
215.937195 188.0
215.969528 164.0
215.990051 148.0
216.017975 76.0
216.083847 24740.0
216.160843 304.0
216.229233 88.0
216.257751 84.0
216.299789 200.0
216.343445 96.0
216.38179 100.0
216.438019 52.0
216.466324 72.0
216.499512 92.0
216.529282 48.0
216.580322 88.0
216.604584 32.0
216.634247 52.0
216.686295 72.0
216.704987 148.0
216.734451 260.0
216.775574 52.0
216.810059 52.0
216.854996 68.0
216.888123 76.0
216.925354 104.0
216.952438 168.0
216.997437 136.0
217.041641 196.0
217.087204 2688.0
217.151093 164.0
217.186157 116.0
217.230728 232.0
217.266968 44.0
217.292358 116.0
217.339508 172.0
217.385223 32.0
217.416824 112.0
217.436844 204.0
217.480988 336.0
217.501007 88.0
217.512024 120.0
217.549515 328.0
217.59343 364.0
217.621201 224.0
217.650589 224.0
217.706314 312.0
217.750458 152.0
217.803909 232.0
217.82341 328.0
217.842422 72.0
217.879517 56.0
217.910843 32.0
217.961517 76.0
217.983414 112.0
218.052765 172.0
218.089584 300.0
218.125015 92.0
218.147125 96.0
218.204391 32.0
218.280838 104.0
218.327896 68.0
218.416138 44.0
218.455154 76.0
218.510269 84.0
218.556717 56.0
218.634445 204.0
218.675064 76.0
218.707794 172.0
218.746338 244.0
218.786926 120.0
218.807541 72.0
218.834976 164.0
218.881149 100.0
218.913544 152.0
218.954773 188.0
219.075546 112.0
219.113846 56.0
219.158035 224.0
219.205185 216.0
219.240555 108.0
219.325211 160.0
219.364349 104.0
219.415985 124.0
219.467545 72.0
219.488174 256.0
219.735947 112.0
219.836273 84.0
219.856934 60.0
219.89093 108.0
219.932846 172.0
219.980896 68.0
220.004517 164.0
220.087189 64.0
220.106598 48.0
220.134445 164.0
220.243713 132.0
220.312576 116.0
220.403259 92.0
220.434402 96.0
220.471222 168.0
220.548065 36.0
220.572769 56.0
220.604233 128.0
220.784607 156.0
220.84967 72.0
220.93251 148.0
220.965042 128.0
221.120621 160.0
221.175171 40.0
221.248337 156.0
221.409073 164.0
221.512741 204.0
221.726089 44.0
221.79425 168.0
221.823898 52.0
221.871338 64.0
222.120438 152.0
222.159012 64.0
222.267868 108.0
222.378601 116.0
222.58345 68.0
222.77092 200.0
222.806213 164.0
223.032059 124.0
223.114517 152.0
223.120224 140.0
223.243164 48.0
223.453278 172.0
223.665649 128.0
223.805588 88.0
223.894913 152.0
223.93364 168.0
224.073654 172.0
224.100464 196.0
224.1548 180.0
224.208694 176.0
224.535706 152.0
224.619217 104.0
224.649048 52.0
224.705734 156.0
224.869858 56.0
224.952255 192.0
225.025101 48.0
225.10199 552.0
225.135941 756.0
225.247589 80.0
225.27298 144.0
225.332733 80.0
225.356628 60.0
225.39682 152.0
225.53894 184.0
225.587692 64.0
225.622635 56.0
225.654999 160.0
225.666565 132.0
225.714783 232.0
225.832901 116.0
225.921707 160.0
225.964218 172.0
226.066315 188.0
226.118668 248.0
226.141647 580.0
226.17009 152.0
226.214996 40.0
226.241928 40.0
226.274872 128.0
226.340744 64.0
226.457535 112.0
226.517441 44.0
226.584946 128.0
226.655273 200.0
226.72908 152.0
226.76915 148.0
226.859085 204.0
226.901047 48.0
226.925858 172.0
227.116776 8712.0
227.203964 100.0
227.248795 136.0
227.299988 140.0
227.329987 124.0
227.365997 60.0
227.401672 68.0
227.597 148.0
227.631989 144.0
227.687256 116.0
227.717285 44.0
227.753326 112.0
227.876495 192.0
227.959396 156.0
227.98819 144.0
228.011734 200.0
228.045197 52.0
228.101639 21096.0
228.173798 72.0
228.221497 112.0
228.264252 72.0
228.331421 96.0
228.391953 140.0
228.4366 120.0
228.45845 92.0
228.523254 160.0
228.556046 112.0
228.592636 100.0
228.640305 60.0
228.67041 68.0
228.697495 96.0
228.733612 180.0
228.759506 120.0
228.807678 200.0
228.846573 208.0
228.918777 48.0
229.009415 148.0
229.043777 156.0
229.103699 2508.0
229.176331 32.0
229.197433 80.0
229.236603 76.0
229.27359 44.0
229.302902 288.0
229.370422 100.0
229.402252 92.0
229.409637 88.0
229.453629 172.0
229.507904 312.0
229.56218 156.0
229.608017 60.0
229.698944 176.0
229.720718 136.0
229.788422 124.0
229.830658 140.0
229.927231 36.0
230.005707 80.0
230.069092 124.0
230.105453 432.0
230.168732 84.0
230.223099 116.0
230.253296 48.0
230.286514 84.0
230.311386 224.0
230.460831 200.0
230.470459 140.0
230.47757 184.0
230.539459 184.0
230.61586 88.0
230.637024 92.0
230.666321 116.0
230.71701 288.0
230.807938 96.0
230.878906 160.0
230.906128 64.0
230.968674 100.0
230.979645 144.0
231.054352 116.0
231.099731 156.0
231.257111 68.0
231.366089 180.0
231.420578 68.0
231.526566 132.0
231.671967 88.0
231.693176 88.0
231.835587 36.0
231.881042 80.0
232.169067 192.0
232.247925 64.0
232.305573 84.0
232.454239 140.0
232.481552 84.0
232.648499 176.0
232.709213 108.0
232.791702 248.0
232.912689 76.0
233.037247 32.0
233.344238 72.0
233.402008 164.0
233.669678 168.0
233.708557 200.0
233.791397 128.0
233.876617 156.0
233.961853 68.0
234.104965 176.0
234.14151 132.0
234.741882 128.0
234.830322 72.0
234.885239 60.0
234.973709 108.0
235.007263 72.0
235.046936 40.0
235.129333 52.0
235.397995 136.0
235.724854 64.0
235.78598 160.0
235.810425 108.0
236.056076 180.0
236.079468 112.0
236.315018 56.0
236.449661 80.0
236.957993 92.0
236.997833 44.0
237.043793 180.0
237.088058 216.0
237.157196 96.0
237.187836 100.0
237.344208 176.0
237.365662 104.0
237.865768 136.0
238.11145 148.0
238.664581 104.0
238.771912 164.0
239.092178 172.0
239.279953 172.0
239.527527 124.0
239.694641 176.0
239.926956 80.0
240.062622 224.0
240.13356 136.0
240.451355 236.0
240.522339 44.0
240.590256 100.0
240.738464 148.0
240.828033 128.0
240.997955 120.0
241.058533 172.0
241.117188 140.0
241.294678 140.0
241.393616 172.0
241.588486 76.0
241.610138 52.0
241.684402 192.0
241.866989 144.0
242.070251 136.0
242.128662 104.0
242.216904 120.0
242.325333 212.0
242.412109 156.0
242.470993 148.0
242.613571 124.0
242.787216 96.0
242.932999 120.0
243.113724 160.0
243.148972 3748.0
243.237122 180.0
243.553055 108.0
243.799316 124.0
243.830383 68.0
243.866592 136.0
244.016907 128.0
244.057327 184.0
244.107086 132.0
244.154953 632.0
244.206604 80.0
244.383926 52.0
244.542648 144.0
244.595551 120.0
244.651596 64.0
244.744308 156.0
245.078293 80.0
245.126556 700.0
245.492889 124.0
245.52095 128.0
245.605164 60.0
245.839172 40.0
245.904709 56.0
246.134003 468.0
246.245041 56.0
246.276276 252.0
246.43248 188.0
246.535599 128.0
246.751282 184.0
246.820068 116.0
246.963928 52.0
247.032745 204.0
247.073425 124.0
247.182938 124.0
247.231613 176.0
247.405167 188.0
247.721466 68.0
247.819275 220.0
247.990952 60.0
248.266861 140.0
248.637054 168.0
248.775177 44.0
248.801743 216.0
248.830414 248.0
248.856796 108.0
248.938446 64.0
248.963562 156.0
249.236877 160.0
249.76358 180.0
249.869476 184.0
249.988434 112.0
250.164703 64.0
250.199326 76.0
250.381973 108.0
250.457565 76.0
250.586731 64.0
250.703323 108.0
250.835693 128.0
251.051224 180.0
251.450684 128.0
251.510757 52.0
251.54863 144.0
251.659134 120.0
251.728607 84.0
251.769653 168.0
252.038177 116.0
252.069778 128.0
252.145615 120.0
252.278381 68.0
252.328964 156.0
252.553497 180.0
252.604111 188.0
252.670547 48.0
252.847748 200.0
252.899979 220.0
252.936371 64.0
253.043808 124.0
253.134308 1544.0
253.31955 116.0
253.382904 64.0
253.474792 132.0
253.554031 184.0
253.731537 88.0
253.772766 120.0
253.883743 116.0
254.096283 44.0
254.131546 244.0
254.410477 80.0
254.473969 32.0
254.600998 124.0
254.902802 240.0
254.972717 144.0
255.055756 224.0
255.141525 300.0
255.494202 104.0
255.592834 180.0
255.634216 168.0
255.780624 68.0
255.866577 132.0
255.939804 148.0
256.095856 180.0
256.220093 116.0
256.408112 56.0
256.608948 168.0
256.691833 124.0
257.036346 104.0
257.149933 176.0
257.199127 152.0
257.381104 172.0
257.614258 156.0
257.652588 136.0
257.710114 184.0
257.774017 208.0
257.869904 140.0
257.949799 108.0
258.000946 104.0
258.096863 168.0
258.256775 60.0
258.65036 48.0
258.688782 148.0
258.972412 132.0
259.047455 88.0
259.220459 148.0
259.278137 140.0
259.323029 164.0
259.550629 120.0
259.577789 196.0
259.637238 168.0
259.800812 192.0
259.92276 56.0
260.102478 164.0
260.137787 176.0
260.179535 132.0
260.263 184.0
260.41394 72.0
260.79953 100.0
261.149994 96.0
261.25293 128.0
261.391296 152.0
261.603729 136.0
262.11261 152.0
262.389801 124.0
262.50589 252.0
262.667175 164.0
262.783295 224.0
262.886566 164.0
263.064087 144.0
263.374084 100.0
263.516235 160.0
263.671356 100.0
263.745697 120.0
264.037994 112.0
264.230774 140.0
264.298737 136.0
264.722778 204.0
264.784332 124.0
264.898865 164.0
264.978699 120.0
265.007446 152.0
265.043488 208.0
265.205536 124.0
265.588135 128.0
265.727661 56.0
265.756836 176.0
265.812012 144.0
265.850952 112.0
265.987274 120.0
266.032715 128.0
266.221039 88.0
266.376953 76.0
266.412689 180.0
266.497162 228.0
266.666138 172.0
266.809174 204.0
266.887207 128.0
266.95224 44.0
267.105133 156.0
267.287323 124.0
267.40448 224.0
267.531433 76.0
267.557465 132.0
267.619324 120.0
267.664917 120.0
267.769135 132.0
267.883148 68.0
268.000427 124.0
268.052582 192.0
268.127533 108.0
268.189453 116.0
268.244873 176.0
268.277466 152.0
268.335052 200.0
268.394836 120.0
268.645996 144.0
268.717773 132.0
268.747131 144.0
268.798035 140.0
268.964508 164.0
269.034332 48.0
269.104675 176.0
269.163452 200.0
269.194336 128.0
269.289032 96.0
269.323853 236.0
269.39032 76.0
269.639862 140.0
269.697083 164.0
269.77594 216.0
269.821014 228.0
269.870758 244.0
269.909973 172.0
270.008087 88.0
270.055695 204.0
270.074402 116.0
270.133301 100.0
270.174927 100.0
270.218597 136.0
270.26239 76.0
270.324677 156.0
270.387695 140.0
270.417084 52.0
270.439972 172.0
270.522095 176.0
270.569275 120.0
270.656952 132.0
270.692383 176.0
270.741211 192.0
270.811707 300.0
270.852325 228.0
270.888855 368.0
270.931122 188.0
270.954498 188.0
270.963379 92.0
270.98056 180.0
271.018921 448.0
271.030121 256.0
271.065308 356.0
271.076965 592.0
271.144562 207604.0
271.228424 100.0
271.27417 228.0
271.326569 256.0
271.357208 212.0
271.372009 40.0
271.383026 176.0
271.407227 272.0
271.457306 116.0
271.470978 184.0
271.480377 284.0
271.517181 224.0
271.542786 160.0
271.572754 136.0
271.625702 140.0
271.651855 140.0
271.685089 1320.0
271.745209 204.0
271.804779 288.0
271.839203 132.0
271.885895 172.0
271.917206 116.0
271.96402 168.0
271.996277 228.0
272.041962 152.0
272.076141 144.0
272.147034 30784.0
272.218719 60.0
272.264648 164.0
272.30658 104.0
272.368958 188.0
272.417542 224.0
272.442108 176.0
272.467346 160.0
272.500732 164.0
272.521423 128.0
272.585052 88.0
272.618408 112.0
272.62561 152.0
272.638306 108.0
272.669342 120.0
272.708252 60.0
272.742645 116.0
272.791809 172.0
272.874298 132.0
272.916901 60.0
272.960175 120.0
273.018829 80.0
273.052856 172.0
273.087616 96.0
273.148529 2996.0
273.212921 52.0
273.247955 68.0
273.284271 212.0
273.31781 116.0
273.36618 76.0
273.399506 68.0
273.453522 64.0
273.486053 108.0
273.517975 108.0
273.558472 112.0
273.587189 92.0
273.641296 156.0
273.725159 108.0
273.76236 52.0
273.773926 128.0
273.782349 108.0
273.794922 128.0
273.823517 56.0
273.845947 320.0
273.875732 292.0
273.916443 152.0
273.97583 104.0
274.006622 140.0
274.055847 100.0
274.141815 272.0
274.231781 236.0
274.265228 92.0
274.284515 184.0
274.30954 304.0
274.374207 132.0
274.39856 68.0
274.427521 168.0
274.489258 112.0
274.517059 128.0
274.553558 28.0
274.597412 68.0
274.626099 44.0
274.659088 52.0
274.725311 148.0
274.758057 68.0
274.797668 108.0
274.84021 40.0
274.880524 68.0
274.928589 228.0
275.00946 88.0
275.065521 96.0
275.097534 116.0
275.14917 72.0
275.181915 124.0
275.246307 152.0
275.296112 40.0
275.411713 52.0
275.475739 104.0
275.504211 28.0
275.603302 56.0
275.791687 44.0
275.862213 36.0
275.947083 84.0
276.049591 100.0
276.241425 84.0
276.294617 52.0
276.364502 60.0
276.678253 36.0
276.720001 132.0
276.811981 72.0
276.837189 60.0
276.900116 84.0
276.953125 64.0
277.165161 68.0
277.204926 88.0
277.254639 64.0
277.34079 40.0
277.596497 64.0
277.708862 56.0
277.935547 156.0
278.628387 64.0
278.664948 76.0
278.804504 52.0
279.170197 40.0
279.26001 72.0
279.539459 48.0
279.609344 56.0
279.68924 44.0
279.742493 44.0
279.779114 48.0
280.475372 28.0
280.603424 136.0
280.798798 52.0
280.828827 40.0
280.912201 68.0
282.529144 32.0
282.662964 60.0
282.816925 76.0
282.857086 44.0
283.15509 60.0
283.201996 128.0
283.37619 120.0
283.587311 140.0
283.885712 96.0
284.149689 156.0
284.405762 44.0
284.519897 156.0
284.814026 104.0
284.865814 124.0
285.03717 72.0
285.141327 92.0
285.181671 48.0
285.215271 116.0
285.289246 44.0
285.36322 108.0
285.592438 144.0
285.800476 64.0
286.032684 56.0
286.699585 180.0
286.962524 64.0
287.18512 92.0
287.222198 96.0
287.374023 92.0
287.829712 84.0
287.927643 48.0
288.169861 168.0
288.30603 68.0
288.67453 120.0
288.894379 96.0
289.033112 80.0
289.442688 112.0
290.164429 160.0
290.249176 104.0
290.659637 76.0
290.747864 88.0
291.172241 116.0
291.528992 124.0
292.797974 124.0
293.148865 60.0
294.342834 92.0
295.590546 88.0
296.227386 68.0
296.906067 100.0
296.978088 96.0
297.20108 100.0
298.097351 84.0
298.156586 84.0
299.170502 180.0
299.89389 96.0
300.669922 112.0
301.187836 140.0
303.423431 56.0
303.798004 104.0
304.065186 132.0
304.388031 80.0
304.978668 196.0
305.462006 76.0
305.649872 136.0
307.158478 36.0
307.196838 128.0
307.399231 64.0
307.832092 124.0
307.873993 112.0
308.254791 84.0
308.947113 68.0
309.612152 168.0
310.295471 52.0
310.341064 88.0
310.600586 124.0
310.681274 100.0
311.436005 116.0
312.420288 80.0
312.473083 108.0
315.721893 32.0
321.570007 64.0
321.619995 68.0
322.287842 116.0
322.90271 104.0
324.272339 60.0
325.030731 128.0
325.163513 108.0
326.136871 136.0
326.230347 160.0
327.280945 100.0
327.529419 84.0
328.75531 148.0
331.670502 120.0
332.867798 76.0
333.3909 72.0
333.848969 96.0
336.823151 76.0
337.682129 40.0
339.795837 44.0
340.052704 144.0
340.129791 96.0
341.426819 84.0
342.214325 36.0
343.087494 164.0
343.117004 40.0
344.189697 144.0
344.234406 2304.0
344.301514 72.0
344.379059 72.0
345.018372 64.0
345.073822 80.0
345.236481 788.0
345.462158 72.0
346.035797 152.0
346.235077 260.0
347.444183 72.0
348.064056 96.0
348.153168 52.0
348.468933 104.0
349.967896 68.0
351.0336 96.0
351.231293 100.0
351.429016 96.0
352.205536 52.0
352.732422 72.0
356.717285 44.0
359.089539 92.0
359.88205 56.0
360.69809 84.0
360.879547 40.0
363.129028 48.0
365.161041 76.0
365.891663 92.0
366.127747 40.0
368.11084 100.0
368.733582 120.0
372.673065 100.0
373.949829 160.0
374.280914 88.0
376.818939 52.0
378.854004 116.0
379.993835 64.0
382.61731 76.0
383.295044 56.0
383.965576 128.0
384.195709 52.0
384.236023 72.0
387.468079 48.0
389.197784 140.0
390.242981 40.0
390.349152 84.0
390.80545 120.0
391.514038 72.0
392.246887 56.0
393.718628 60.0
393.777893 44.0
393.931946 32.0
397.943909 60.0
398.055084 48.0
400.919403 52.0
401.1745 80.0
401.218353 100.0
402.650909 60.0
403.150299 112.0
405.595795 128.0
405.912537 56.0
405.944611 68.0
406.530334 84.0
408.28595 52.0
408.438812 72.0
408.583618 92.0
410.001038 48.0
412.281281 88.0
412.422729 72.0
412.628906 80.0
413.170868 80.0
413.369141 44.0
414.037109 52.0
414.162659 100.0
414.734009 48.0
414.790741 40.0
415.139435 72.0
415.865692 84.0
416.755066 92.0
417.6698 96.0
418.960266 136.0
421.0896 100.0
421.48996 64.0
422.021362 120.0
424.77356 72.0
425.06485 52.0
425.672394 96.0
426.695557 40.0
426.839447 120.0
427.789886 144.0
427.975159 112.0
430.226349 68.0
430.796234 72.0
436.769836 52.0
442.688202 60.0
443.454895 120.0
443.609985 100.0
444.008331 52.0
444.125793 128.0
444.482391 76.0
445.943909 68.0
447.256256 36.0
450.110504 80.0
450.596252 68.0
451.987366 36.0
452.478363 64.0
453.397583 52.0
455.119904 96.0
458.608429 48.0
458.693695 156.0
459.29068 64.0
459.713074 128.0
460.579803 80.0
461.30722 88.0
461.866455 60.0
462.345642 56.0
463.026398 40.0
465.174622 108.0
465.213257 116.0
466.050751 52.0
466.325806 68.0
466.514954 136.0
467.994965 104.0
468.274902 72.0
470.525909 124.0
471.225586 60.0
473.258514 76.0
476.324738 44.0
479.522919 48.0
479.941437 76.0
481.525574 36.0
481.962463 128.0
482.919861 124.0
483.055481 56.0
484.018372 44.0
485.166321 100.0
486.743256 100.0
487.334473 56.0
488.47757 76.0
488.666748 88.0
496.006744 112.0
497.368561 68.0
500.498444 48.0
502.843384 120.0
505.677094 56.0
506.272552 84.0
507.688721 104.0
511.24234 88.0
512.791626 76.0
514.695435 180.0
515.494995 128.0
517.512512 68.0
523.096802 84.0
523.36084 100.0
524.312927 44.0
525.443848 80.0
526.110168 116.0
526.142151 100.0
526.932251 84.0
528.111694 100.0
528.550903 88.0
529.306213 64.0
529.777954 44.0
529.997864 68.0
532.291443 56.0
534.171265 64.0
535.464722 72.0
538.458008 72.0
539.506958 40.0
540.135925 108.0
541.413391 32.0
544.265381 68.0
551.000549 68.0
563.923706 112.0
565.195862 56.0
567.464722 80.0
568.057556 88.0
568.237854 32.0
569.462646 44.0
570.541321 48.0
574.413086 60.0
575.54895 124.0
580.636047 68.0
581.144531 76.0
583.358643 48.0
585.721436 104.0
585.96228 76.0
586.140564 56.0
589.470276 52.0
590.867676 116.0
592.581604 100.0
599.82782 64.0
600.520203 60.0
600.715332 80.0
600.988525 72.0
606.269897 40.0
607.520264 56.0
611.067444 132.0
612.756287 44.0
615.972839 44.0
617.895996 48.0
620.659851 84.0
622.108582 68.0
623.49939 48.0
625.110718 68.0
629.088196 44.0
630.720276 96.0
634.67688 40.0
637.603577 96.0
638.729858 84.0
643.982239 56.0
644.532898 44.0
645.882812 52.0
647.760803 56.0
648.029358 64.0
654.41394 72.0
661.597595 84.0
667.904541 136.0
668.192627 52.0
669.036682 64.0
669.752441 96.0
677.045471 60.0
677.527222 68.0
678.864502 80.0
683.342163 168.0
690.787048 32.0
692.795776 68.0
693.646301 40.0
697.783264 48.0
701.199646 72.0
703.177551 40.0
707.019897 68.0
718.695068 96.0
724.046265 96.0
725.895203 84.0
738.395081 44.0
739.558411 68.0
743.417358 84.0
743.515015 112.0
744.611755 56.0
744.899658 132.0
745.83429 60.0
748.11908 52.0
748.494751 96.0
750.690857 52.0
753.234314 100.0
755.059937 88.0
757.824402 52.0
758.493042 52.0
760.85199 68.0
766.291504 48.0
767.653015 184.0
768.88324 80.0
772.237 100.0
773.244019 60.0
775.553711 144.0
787.354919 100.0
796.782532 128.0
799.110229 52.0
800.078247 52.0
802.957764 48.0
803.047974 64.0
804.707092 188.0
804.927307 96.0
811.440125 92.0
820.964783 120.0
823.241821 56.0
825.218994 56.0
825.693604 36.0
826.242798 88.0
827.375977 128.0
828.452637 192.0
830.625305 48.0
833.783325 72.0
835.387634 68.0
838.093628 76.0
841.294678 144.0
842.455505 176.0
848.509155 52.0
848.636719 96.0
853.008423 200.0
856.960144 120.0
860.518127 136.0
862.06604 220.0
862.516113 56.0
867.403992 204.0
872.758423 96.0
875.506592 44.0
877.345032 88.0
880.939087 88.0
881.707214 76.0
882.286499 172.0
888.267883 288.0
892.526306 96.0
897.438721 88.0
901.719055 96.0
904.703979 120.0
905.77594 68.0
917.193237 60.0
917.753906 192.0
919.370605 92.0
919.726746 92.0
921.272644 152.0
925.978821 56.0
927.432983 92.0
927.645142 140.0
927.717896 136.0
928.524353 200.0
929.68634 100.0
930.24762 168.0
930.466187 148.0
930.769775 224.0
932.756531 144.0
934.313354 216.0
936.40741 76.0
937.296875 48.0
941.695557 120.0
941.738281 256.0
943.339294 236.0
944.880432 232.0
946.43512 124.0
947.353821 52.0
952.279602 60.0
955.377747 216.0
955.457703 132.0
956.460815 72.0
959.066406 228.0
964.139954 136.0
965.814941 180.0
967.133484 80.0
967.393494 72.0
969.666809 196.0
971.210754 204.0
971.458862 164.0
973.674866 148.0
975.967957 140.0
976.023926 108.0
979.023438 136.0
979.253845 68.0
979.708618 124.0
981.129578 132.0
982.670105 248.0
984.605225 148.0
985.198669 120.0
986.517273 80.0
988.850525 152.0
990.152832 116.0
990.365784 40.0
990.459717 152.0
992.421326 156.0
992.540466 144.0
993.104919 184.0
996.878235 160.0
997.085632 104.0
997.619934 72.0
998.242432 72.0
1000.17395 140.0
1000.790955 164.0
1001.534058 168.0
1001.653748 176.0
1002.220764 180.0
1003.430969 104.0
1004.086792 208.0
1004.358032 180.0
1005.992432 72.0
1009.347412 196.0
1011.625122 80.0
1012.993042 96.0
1014.628113 176.0
1015.186096 132.0
1015.414429 192.0
1016.968933 88.0
1018.073669 184.0
1020.367615 180.0
1020.710938 140.0
1020.920776 156.0
1022.708679 108.0
1023.249756 136.0
1023.61908 120.0
1024.192261 108.0
1024.307007 220.0
1024.447144 240.0
1025.007812 120.0
1025.575073 144.0
1025.740723 128.0
1026.473999 160.0
1027.62854 80.0
1028.253906 184.0
1028.611328 188.0
1031.773682 36.0
1032.234009 176.0
1033.884521 172.0
1034.230225 56.0
1034.319824 116.0
1034.492676 152.0
1034.537476 60.0
1034.972778 168.0
1036.766479 180.0
1038.471924 136.0
1040.512695 220.0
1041.443848 176.0
1046.942993 120.0
1049.791504 108.0
1050.617065 148.0
1050.771973 192.0
1050.881592 68.0
1054.536743 40.0
1054.730713 136.0
1055.015137 160.0
1055.13147 196.0
1055.207397 132.0
1055.642334 148.0
1057.072021 148.0
1057.330933 124.0
1059.053223 52.0
1059.454834 116.0
1060.796265 112.0
1061.347412 184.0
1062.417603 116.0
1065.71582 48.0
1066.118774 100.0
1067.236816 164.0
1067.646484 256.0
1069.338135 164.0
1069.390259 96.0
1069.832886 36.0
1070.041138 52.0
1070.568604 40.0
1071.259033 144.0
1072.152344 212.0
1072.255981 104.0
1072.484131 104.0
1073.553467 164.0
1075.771851 152.0
1076.712158 176.0
1077.672485 36.0
1079.757812 256.0
1080.536255 72.0
1081.42627 196.0
1081.675049 164.0
1082.761963 164.0
1083.312134 112.0
1083.888794 180.0
1084.458862 112.0
1086.367188 184.0
1086.485229 44.0
1086.570557 124.0
1088.776123 36.0
1089.952026 136.0
1091.740112 44.0
1092.516357 152.0
1093.19397 128.0
1093.608643 72.0
1094.049683 216.0
1094.793823 100.0
1095.011108 228.0
1095.149414 128.0
1097.146118 156.0
1097.792358 196.0
1097.911011 228.0
1098.207886 216.0
1098.630005 156.0
1100.577148 128.0
1101.53479 156.0
1101.765991 176.0
1102.287964 180.0
1102.591919 56.0
1103.147217 124.0
1103.43811 64.0
1103.722412 140.0
1103.80835 128.0
1104.277954 176.0
1104.337524 168.0
1105.263672 72.0
1106.673584 224.0
1106.991455 112.0
1108.703735 128.0
1109.10498 116.0
1109.874023 188.0
1112.612915 192.0
1113.185303 140.0
1114.629761 144.0
1115.657104 148.0
1117.738892 188.0
1118.664062 184.0
1118.77063 220.0
1118.870483 160.0
1119.136841 196.0
1120.142456 40.0
1121.30188 144.0
1122.141846 164.0
1122.461914 172.0
1125.324463 172.0
1126.105835 68.0
1126.206055 180.0
1126.84729 136.0
1126.967651 140.0
1128.306641 252.0
1131.000366 108.0
1131.087402 184.0
1132.634155 156.0
1132.821777 108.0
1133.63916 148.0
1134.14856 116.0
1134.53064 112.0
1135.1073 176.0
1135.315186 72.0
1136.797852 128.0
1139.833252 84.0
1140.760742 20.0
1140.901855 96.0
1141.345703 160.0
1141.715576 168.0
1142.193115 128.0
1142.307495 84.0
1142.831421 160.0
1143.175415 160.0
1144.084106 172.0
1146.239502 192.0
1148.234985 128.0
1148.518311 148.0
1148.774658 144.0
1149.246948 152.0
1149.496582 220.0
1149.604492 160.0
1149.671997 188.0
1150.017212 204.0
1150.347046 116.0
1150.444824 152.0
1150.981689 192.0
1151.508423 224.0
1151.873169 220.0
1151.920532 132.0
1152.879883 164.0
1152.994873 176.0
1153.501831 224.0
1155.879395 220.0
1156.234497 116.0
1156.346313 188.0
1157.37854 184.0
1157.581665 96.0
1159.519287 132.0
1159.74292 176.0
1160.502197 200.0
1161.46521 188.0
1162.550903 144.0
1163.093872 92.0
1163.209229 152.0
1164.180176 148.0
1165.137939 164.0
1165.402954 176.0
1165.86499 252.0
1166.116455 152.0
1167.292603 124.0
1167.353882 176.0
1167.870728 144.0
1168.17688 116.0
1168.612305 164.0
1169.03418 252.0
1170.068848 164.0
1170.341187 204.0
1171.042603 200.0
1171.444458 172.0
1171.669312 44.0
1171.832886 180.0
1174.42981 136.0
1174.744019 64.0
1174.798584 124.0
1175.296631 108.0
1175.583252 156.0
1175.924561 68.0
1177.617798 140.0
1177.836426 148.0
1180.378906 164.0
1180.67981 68.0
1180.987549 148.0
1182.506592 172.0
1182.603271 164.0
1182.68457 188.0
1183.067871 140.0
1183.184326 176.0
1183.643066 244.0
1184.471802 136.0
1185.054077 172.0
1185.225342 228.0
1187.110596 160.0
1188.16687 168.0
1188.743286 156.0
1189.759155 168.0
1190.589966 208.0
1190.761719 128.0
1191.057007 188.0
1191.695923 132.0
1191.750977 172.0
1192.032715 164.0
1192.300659 52.0
1194.500977 220.0
1194.755493 108.0
1195.594971 116.0
1196.434814 156.0
1196.655151 176.0
1197.116455 80.0
1197.192261 56.0
1197.984375 44.0
1198.232422 152.0
1198.418457 140.0
1198.866333 68.0
1199.672852 196.0
1200.679565 156.0
1201.058838 192.0
1201.176147 192.0
1201.997192 172.0
1202.135254 148.0
1202.880615 76.0
1203.018677 48.0
1203.543457 160.0
1205.816284 260.0
1206.213501 164.0
1208.686279 148.0
1209.50293 192.0
1209.593018 168.0
1210.216064 136.0
1210.576172 232.0
1210.922485 220.0
1212.294189 180.0
1212.869507 112.0
1212.924927 180.0
1214.152222 172.0
1215.109497 220.0
1215.394043 152.0
1215.491089 116.0
1216.358765 160.0
1216.594727 100.0
1216.726685 128.0
1217.087646 180.0
1217.177979 156.0
1217.427979 208.0
1217.566895 176.0
1217.997559 96.0
1218.601929 152.0
1218.865967 228.0
1218.921509 200.0
1219.894653 84.0
1220.84021 152.0
1221.243652 148.0
1221.361938 164.0
1221.779297 164.0
1222.168945 200.0
1222.82312 64.0
1222.941406 192.0
1223.247681 160.0
1223.672363 188.0
1224.375732 156.0
1225.148926 184.0
1225.274292 140.0
1226.291748 120.0
1227.03064 92.0
1227.651245 152.0
1228.87207 184.0
1228.95459 124.0
1229.758301 132.0
1229.835083 184.0
1229.948242 164.0
1230.100342 196.0
1230.407471 188.0
1230.924194 180.0
1231.44104 80.0
1231.699463 184.0
1232.020874 228.0
1232.167603 116.0
1232.265381 164.0
1232.621704 44.0
1232.845337 144.0
1233.781982 216.0
1234.78894 132.0
1234.970825 52.0
1235.20166 124.0
1235.453491 136.0
1235.911987 172.0
1236.293213 68.0
1236.419189 128.0
1236.492065 196.0
1236.846069 160.0
1237.749268 52.0
1239.935059 184.0
1241.610718 152.0
1241.7229 60.0
1241.849121 96.0
1242.61377 352.0
1242.852417 184.0
1244.765259 148.0
1245.098755 184.0
1245.569458 192.0
1246.855225 148.0
1247.712891 128.0
1247.916748 56.0
1248.106567 152.0
1248.18396 140.0
1248.556641 188.0
1248.718384 192.0
1249.168579 172.0
1249.879272 152.0
1249.991821 128.0
1251.220093 192.0
1251.836182 148.0
1253.174561 136.0
1254.605347 160.0
1255.804199 104.0
1256.005249 152.0
1256.389648 92.0
1258.627075 136.0
1258.676514 176.0
1259.248535 164.0
1259.608765 152.0
1260.011475 184.0
1260.336548 164.0
1261.238281 120.0
1261.672363 56.0
1261.721924 184.0
1261.820801 52.0
1262.011719 124.0
1262.287476 200.0
1262.740112 128.0
1262.909912 152.0
1263.108032 148.0
1263.334351 128.0
1263.46875 108.0
1264.197632 192.0
1264.296631 148.0
1264.381592 112.0
1266.202393 156.0
1267.362915 92.0
1267.455078 156.0
1267.724365 156.0
1268.135498 160.0
1268.426025 180.0
1268.957764 152.0
1269.298096 152.0
1269.496704 128.0
1269.574707 196.0
1269.773315 64.0
1270.489746 124.0
1270.929688 136.0
1271.014771 112.0
1271.994263 136.0
1272.150391 248.0
1272.434448 196.0
1272.860474 144.0
1273.940063 136.0
1274.124756 48.0
1274.565308 156.0
1274.799805 196.0
1276.349487 84.0
1276.619751 140.0
1277.039307 52.0
1277.259888 136.0
1277.523071 172.0
1277.715088 136.0
1277.828979 108.0
1278.234619 216.0
1278.369751 140.0
1278.56189 132.0
1278.797974 188.0
1279.15271 172.0
1282.842896 148.0
1282.978271 196.0
1283.213623 128.0
1283.401611 200.0
1284.304688 104.0
1284.445557 92.0
1284.832642 68.0
1285.275024 280.0
1285.646118 164.0
1286.038574 76.0
1286.102905 124.0
1286.326904 52.0
1286.873901 144.0
1286.952393 132.0
1287.230957 64.0
1287.602295 148.0
1288.180908 164.0
1288.502319 76.0
1288.57373 152.0
1289.195435 156.0
1290.432129 192.0
1290.668091 204.0
1290.730957 100.0
1290.825439 184.0
1291.075684 240.0
1292.019897 132.0
1292.377686 120.0
1292.635254 172.0
1292.814209 60.0
1293.161377 132.0
1293.522827 152.0
1293.737549 152.0
1293.998413 172.0
1294.410645 52.0
1295.090942 212.0
1296.144165 84.0
1296.559814 224.0
1296.730347 140.0
1296.99707 148.0
1297.434326 56.0
1297.520386 96.0
1297.685303 144.0
1297.843018 176.0
1298.101196 156.0
1299.880249 156.0
1300.137329 144.0
1300.540527 132.0
1301.157837 184.0
1301.401978 36.0
1301.753906 172.0
1301.947754 76.0
1302.457764 188.0
1302.525635 252.0
1302.895996 44.0
1303.308838 180.0
1303.470825 144.0
1303.765381 156.0
1303.830078 164.0
1304.318848 132.0
1304.512939 136.0
1304.606445 44.0
1305.138428 204.0
1305.605957 52.0
1305.87207 64.0
1307.195801 136.0
1307.386597 196.0
1307.85791 140.0
1307.944336 192.0
1308.700317 172.0
1309.593262 204.0
1309.701294 116.0
1310.032715 112.0
1310.364136 220.0
1310.652344 92.0
1310.93335 168.0
1312.158813 172.0
1312.331787 172.0
1312.613037 188.0
1313.709351 116.0
1313.882446 160.0
1314.612671 192.0
1314.762939 200.0
1314.82666 124.0
1316.108643 204.0
1316.640015 148.0
1316.834961 116.0
1316.8927 172.0
1317.138306 116.0
1317.347778 64.0
1317.571777 112.0
1318.460571 112.0
1318.518433 148.0
1318.728027 148.0
1318.829224 212.0
1318.93042 144.0
1319.053345 104.0
1319.164673 128.0
1319.993164 76.0
1320.239136 84.0
1320.304199 60.0
1320.528442 176.0
1320.622437 196.0
1321.135986 100.0
1321.772705 172.0
1322.097168 148.0
1322.228638 136.0
1322.641235 156.0
1322.749878 240.0
1323.006348 192.0
1323.09729 164.0
1323.589722 176.0
1323.662109 196.0
1323.734497 176.0
1324.031494 168.0
1324.09668 84.0
1324.408081 156.0
1324.63269 160.0
1324.697876 204.0
1324.907959 112.0
1325.284668 144.0
1325.661499 184.0
1326.640015 104.0
1326.966309 220.0
1327.125854 128.0
1327.314331 120.0
1327.618896 140.0
1327.705933 196.0
1327.930786 160.0
1328.104858 168.0
1328.310425 144.0
1328.402222 176.0
1328.852051 76.0
1328.939209 156.0
1329.214844 132.0
1329.287476 88.0
1329.476196 120.0
1329.657593 156.0
1329.817261 152.0
1330.550415 176.0
1331.416504 184.0
1332.508911 288.0
1332.584106 88.0
1332.851074 212.0
1332.970093 184.0
1333.04187 80.0
1333.259888 152.0
1333.310791 172.0
1333.608765 200.0
1334.030396 120.0
1334.190308 192.0
1334.277588 180.0
1334.37207 220.0
1334.546631 172.0
1334.852051 124.0
1335.244751 192.0
1335.848511 156.0
1336.124878 168.0
1336.379639 412.0
1336.712769 112.0
1336.954468 96.0
1337.598633 200.0
1338.395874 176.0
1338.650757 100.0
1339.167847 48.0
1339.663208 64.0
1340.107544 148.0
1340.246094 196.0
1341.098755 144.0
1341.281006 208.0
1341.499634 168.0
1341.915161 208.0
1342.163086 152.0
1342.418335 76.0
1342.52771 132.0
1342.848633 204.0
1343.03833 136.0
1343.994019 84.0
1344.045166 196.0
1344.395386 168.0
1344.490234 244.0
1344.61438 84.0
1345.315063 156.0
1345.680176 172.0
1345.994141 160.0
1346.045288 180.0
1346.614868 160.0
1347.637695 200.0
1348.07605 276.0
1348.339233 72.0
1349.457642 216.0
1351.030151 168.0
1351.095947 124.0
1351.213013 500.0
1351.47644 68.0
1351.630127 152.0
1351.739868 52.0
1352.164307 252.0
1352.339966 164.0
1352.998779 52.0
1353.306396 168.0
1353.657837 160.0
1354.185181 236.0
1355.291382 220.0
1355.386597 208.0
1355.731079 184.0
1356.354126 52.0
1356.958496 196.0
1357.028564 164.0
1357.682617 144.0
1358.480713 84.0
1358.994263 164.0
1359.221802 100.0
1359.346558 192.0
1359.485962 188.0
1359.56665 128.0
1359.728149 196.0
1359.823608 220.0
1360.168579 172.0
1360.917358 148.0
1361.130127 116.0
1361.269897 72.0
1361.490234 120.0
1361.593018 132.0
1362.064819 168.0
1362.209961 272.0
1362.415771 188.0
1362.533325 132.0
1362.98877 120.0
1363.282715 240.0
1363.70166 180.0
1363.914917 172.0
1364.112061 200.0
1364.164795 196.0
1364.654663 268.0
1365.348633 72.0
1365.664917 92.0
1365.723755 84.0
1366.665405 172.0
1366.728516 196.0
1367.11438 124.0
1367.23938 172.0
1367.72522 248.0
1367.946045 128.0
1368.476196 40.0
1368.52771 48.0
1368.859009 168.0
1369.271484 108.0
1369.772339 148.0
1370.228394 212.0
1370.870239 148.0
1370.951294 176.0
1371.047119 136.0
1371.146362 180.0
1371.408203 128.0
1371.79895 172.0
1372.720581 212.0
1372.786865 120.0
1372.963867 164.0
1373.067139 156.0
1373.133545 200.0
1373.59082 64.0
1373.723633 144.0
1373.959717 244.0
1374.306519 148.0
1374.572144 28.0
1374.970825 152.0
1375.229004 152.0
1375.782715 100.0
1376.218262 76.0
1376.447144 140.0
1376.572754 160.0
1377.769287 56.0
1377.961426 112.0
1378.087036 220.0
1378.663452 200.0
1378.722534 140.0
1378.832275 176.0
1379.114258 104.0
1379.602173 144.0
1380.02356 76.0
1380.10498 144.0
1380.533813 176.0
1380.699951 148.0
1381.480591 104.0
1383.278931 80.0
1383.523193 132.0
1383.93042 120.0
1384.093262 248.0
1384.789429 128.0
1385.115356 200.0
1385.337646 136.0
1385.982178 152.0
1386.397217 132.0
1387.772705 168.0
1388.391479 176.0
1388.740112 200.0
1389.051636 200.0
1389.845581 180.0
1390.164673 128.0
1390.327881 156.0
1390.639648 168.0
1390.936523 64.0
1391.03064 164.0
1391.255737 132.0
1391.463623 132.0
1391.515625 136.0
1391.938843 236.0
1392.265625 264.0
1392.412354 156.0
1392.926636 228.0
1393.238647 160.0
1394.390503 156.0
1394.776978 192.0
1394.843872 180.0
1395.022339 172.0
1395.654297 44.0
1396.212036 164.0
1396.494629 200.0
1396.577271 176.0
1396.888916 224.0
1396.963257 124.0
1397.045166 164.0
1397.36499 164.0
1398.384521 136.0
1398.578125 144.0
1398.674805 168.0
1399.038452 180.0
1399.531006 180.0
1399.77002 176.0
1399.955444 240.0
1400.461914 164.0
1400.521484 144.0
1400.588623 128.0
1401.286377 176.0
1401.467651 116.0
1402.266602 204.0
1402.533447 176.0
1402.988159 156.0
1403.219604 112.0
1403.502563 180.0
1403.662598 168.0
1403.741211 156.0
1404.799438 196.0
1404.889893 68.0
1405.106323 32.0
1405.180908 192.0
1405.340576 192.0
1405.501709 144.0
1405.986816 164.0
1406.276367 180.0
1406.561523 184.0
1406.897461 132.0
1407.143799 100.0
1407.315552 176.0
1407.405151 132.0
1407.532104 176.0
1408.264038 128.0
1408.465698 196.0
1408.704712 184.0
1408.876587 160.0
1409.026001 72.0
1410.117065 196.0
1410.203491 176.0
1410.438477 284.0
1410.616333 220.0
1410.849609 116.0
1411.238403 76.0
1411.350586 224.0
1411.761841 168.0
1412.150757 156.0
1412.636963 168.0
1413.579712 160.0
1413.63208 164.0
1414.605103 140.0
1414.814697 156.0
1414.986938 144.0
1415.046875 208.0
1415.166626 144.0
1415.361328 156.0
1415.585938 112.0
1416.319946 208.0
1416.717041 152.0
1416.964233 248.0
1417.031738 140.0
1417.278931 216.0
1418.328247 172.0
1418.435913 160.0
1418.748047 160.0
1419.517456 148.0
1419.722778 188.0
1420.030273 176.0
1420.187744 92.0
1420.390381 204.0
1420.652832 160.0
1420.750366 140.0
1421.163086 180.0
1421.230591 220.0
1422.153687 96.0
1422.258789 164.0
1422.431396 208.0
1422.551514 140.0
1422.656616 212.0
1423.655273 172.0
1424.376343 108.0
1424.526611 360.0
1425.067505 180.0
1425.15979 152.0
1425.277954 188.0
1425.420776 124.0
1425.653687 176.0
1426.127197 180.0
1426.337646 156.0
1426.615845 168.0
1426.788696 132.0
1426.87146 164.0
1426.946655 120.0
1427.089478 160.0
1427.653442 124.0
1428.428223 184.0
1428.581909 252.0
1428.736572 68.0
1429.112793 100.0
1429.376221 236.0
1430.836426 76.0
1431.235474 216.0
1431.333374 148.0
1431.657227 148.0
1431.792725 104.0
1431.890625 128.0
1432.265381 160.0
1432.568604 184.0
1432.704224 116.0
1432.99707 176.0
1433.344727 184.0
1433.924927 208.0
1434.045532 212.0
1434.284912 224.0
1434.512939 40.0
1434.57605 192.0
1435.349854 76.0
1436.058716 212.0
1436.805542 156.0
1436.88855 184.0
1437.063843 316.0
1437.40918 168.0
1438.513672 184.0
1438.745239 140.0
1438.816162 180.0
1439.167969 136.0
1439.760498 156.0
1439.83728 96.0
1440.225342 200.0
1440.278198 164.0
1440.572876 68.0
1440.716309 144.0
1440.867432 148.0
1441.149658 248.0
1441.290649 108.0
1441.375977 192.0
1441.471924 92.0
1441.57019 140.0
1442.11438 56.0
1442.265503 188.0
1442.32605 132.0
1442.499878 176.0
1442.681274 168.0
1442.840088 152.0
1442.945923 152.0
1443.339111 156.0
1443.717163 132.0
1444.405518 208.0
1444.92749 160.0
1445.366333 96.0
1445.661499 56.0
1445.865845 192.0
1445.956665 176.0
1446.047485 192.0
1446.108032 152.0
1446.213989 232.0
1447.432983 140.0
1447.49353 112.0
1448.084229 220.0
1448.288696 184.0
1448.803833 228.0
1449.098022 176.0
1449.629761 176.0
1449.978394 72.0
1450.52417 116.0
1451.312622 232.0
1451.395996 104.0
1451.820679 224.0
1452.101318 144.0
1452.306152 148.0
1452.37439 184.0
1452.495728 204.0
1452.905396 144.0
1453.011597 84.0
1453.171021 208.0
1453.641479 184.0
1454.480713 244.0
1454.658569 60.0
1454.962158 72.0
1455.29541 172.0
1455.97522 204.0
1456.116455 84.0
1456.511353 136.0
1456.845703 220.0
1457.278687 132.0
1457.575073 160.0
1457.846924 140.0
1457.939819 112.0
1458.167847 208.0
1458.243896 120.0
1458.517456 200.0
1458.585938 128.0
1458.874756 140.0
1459.445923 164.0
1460.532593 132.0
1460.79126 124.0
1460.86731 164.0
1461.316162 180.0
1462.21875 232.0
1463.097168 140.0
1463.218994 48.0
1463.447388 160.0
1463.759521 176.0
1463.915649 352.0
1464.252441 140.0
1464.399292 80.0
1464.650635 180.0
1464.719238 208.0
1465.130615 104.0
1465.557251 120.0
1465.913208 188.0
1465.928589 132.0
1466.349854 136.0
1466.91394 208.0
1466.990112 192.0
1467.866943 208.0
1468.438965 80.0
1468.576294 208.0
1469.102661 152.0
1469.201782 172.0
1469.491699 188.0
1469.644287 196.0
1470.186157 84.0
1470.496948 128.0
1470.613525 200.0
1470.666992 116.0
1471.012939 224.0
1471.415161 80.0
1471.514404 108.0
1471.58313 48.0
1471.7052 164.0
1472.155762 144.0
1472.293213 212.0
1472.446045 64.0
1473.015503 92.0
1473.18689 60.0
1473.240479 76.0
1473.364624 160.0
1473.630127 180.0
1473.744751 164.0
1474.55481 204.0
1474.730591 108.0
1474.875732 132.0
1475.517944 68.0
1475.609741 204.0
1475.938477 60.0
1476.251953 120.0
1476.473755 140.0
1477.009155 136.0
1477.353516 144.0
1477.682495 112.0
1477.896729 136.0
1477.973145 224.0
1478.17981 60.0
1478.248657 184.0
1478.379395 100.0
1478.473755 188.0
1478.661987 172.0
1479.479248 160.0
1479.741333 100.0
1480.413208 140.0
1480.606689 316.0
1480.683228 212.0
1480.966675 228.0
1481.112183 120.0
1481.242432 148.0
1481.36499 176.0
1481.855347 148.0
1481.947266 268.0
1482.123535 84.0
1483.119751 132.0
1483.296143 168.0
1483.380371 192.0
1483.679443 164.0
1483.932373 160.0
1484.139404 148.0
1484.239136 140.0
1484.607178 140.0
1484.83728 160.0
1485.133911 148.0
1485.236206 168.0
1486.057007 160.0
1486.70166 60.0
1486.793701 56.0
1486.961792 184.0
1487.093018 112.0
1487.198242 136.0
1488.413574 128.0
1488.605591 136.0
1488.682373 116.0
1489.173828 144.0
1489.442749 164.0
1489.573242 148.0
1489.711548 256.0
1489.811401 176.0
1489.988159 40.0
1490.587524 188.0
1490.788696 220.0
1490.879517 176.0
1491.071655 204.0
1491.41748 180.0
1492.432373 168.0
1492.516968 136.0
1492.693848 184.0
1493.001465 96.0
1493.27063 100.0
1493.332153 220.0
1493.693604 160.0
1493.755249 244.0
1493.924438 160.0
1494.201416 80.0
1494.262939 44.0
1494.424561 96.0
1494.974854 124.0
1496.312622 120.0
1496.649048 152.0
1496.726074 156.0
1496.856934 120.0
1497.18042 196.0
1497.234375 180.0
1497.295898 112.0
1497.596313 188.0
1497.737915 148.0
1498.204956 144.0
1498.721436 204.0
1499.0448 212.0
1499.376221 172.0
1499.437866 40.0
1499.686035 208.0
1499.846313 120.0
1499.992798 152.0
1500.371704 140.0
1500.563354 152.0
1500.748413 140.0
1500.894897 160.0
1501.488647 180.0
1501.720093 200.0
1501.828003 140.0
1501.959229 120.0
1502.020874 200.0
1502.198364 124.0
1502.314087 208.0
1502.873047 160.0
1503.767944 156.0
1504.467163 92.0
1504.598511 136.0
1504.830078 164.0
1505.023071 136.0
1505.208496 168.0
