>compound Azilsartan (TAK-536)
>formula C25H20N4O5
>ionization [M+H]+
>parentmass 457.1506461920905
#inchi InChI=1S/C25H20N4O5/c1-2-33-24-26-20-9-5-8-19(23(30)31)21(20)29(24)14-15-10-12-16(13-11-15)17-6-3-4-7-18(17)22-27-25(32)34-28-22/h3-13H,2,14H2,1H3,(H,30,31)(H,27,28,32)
#inchikey KGSXMPPBFPAXLY
#Ion_Source LC-ESI
#Instrument qTof
#Compound_Source Commercial
#PI Dorrestein
#Data_Collector Garg_Neha
#Scan -1
#Precursor_MZ 457.151
#ExactMass 456.143
#Charge 1
#CAS_Number 147403-03-0, 147388-92-9 (disodium salt)
#Pubmed_ID N/A
#Smiles C1(=NC2C(N1CC3C=CC(=CC=3)C4C(=CC=CC=4)C5NOC(N=5)=O)=C(C=CC=2)C(=O)O)OCC
#INCHI_AUX N/A
#Library_Class 1
#SpectrumID CCMSLIB00000078557
#IonMode Positive
#UpdateWorkflowName UPDATE-SINGLE-ANNOTATED-GOLD
#LibraryQualityString Gold
#TaskID 77f51c88eb8b467eb4a01dd2d0cb90d2
##Scan# 1380
#SpectrumFile Plate9_1_20_GC4_01_15750.mzXML
#LibraryName FDALibrary_2_04302014.mgf
#MQScore -1
#Organism FDALibrary_2_04302014
#TIC_Query 0
#RT_Query -1
#MZErrorPPM -1
#SharedPeaks 0
#MassDiff 0
#LibMZ -1
#SpecMZ 457.151
#SpecCharge 0
#internalFilename spec-00000.mgf

>collision 10
45.206223 144.0
45.263783 224.0
45.29813 124.0
45.376335 172.0
45.643532 152.0
45.860279 204.0
45.944496 204.0
45.985718 152.0
46.352215 160.0
46.522839 160.0
46.622265 168.0
46.827702 144.0
46.854816 128.0
46.918999 140.0
46.958542 224.0
47.037682 188.0
47.051334 176.0
47.097763 140.0
47.330257 212.0
47.378193 144.0
47.746059 208.0
48.026035 188.0
48.078083 148.0
48.125015 160.0
48.198223 200.0
48.210659 192.0
48.240238 132.0
48.443108 176.0
48.563866 136.0
48.67334 168.0
48.873501 204.0
48.950481 184.0
49.398079 176.0
49.500252 156.0
49.616547 192.0
49.751225 184.0
49.960621 224.0
50.030987 184.0
50.145084 168.0
50.485329 256.0
50.690598 176.0
50.826725 172.0
50.850849 156.0
50.928944 164.0
50.949825 160.0
51.009781 148.0
51.178288 156.0
51.200596 208.0
51.451557 176.0
51.605862 200.0
51.718632 188.0
51.859245 196.0
52.141991 140.0
52.346413 124.0
52.48605 208.0
52.59425 172.0
52.936527 188.0
53.086239 144.0
53.37804 148.0
53.706833 200.0
53.740734 208.0
53.927658 160.0
54.070992 144.0
54.214512 160.0
54.359695 160.0
54.406662 140.0
54.418407 148.0
54.522701 168.0
54.812607 152.0
54.893684 168.0
55.015747 148.0
55.135792 188.0
55.185398 136.0
55.396206 232.0
55.462112 176.0
55.508846 168.0
55.538509 148.0
55.624573 188.0
55.645355 164.0
55.691349 144.0
55.898705 144.0
55.941204 176.0
55.982891 144.0
56.030556 160.0
56.108055 200.0
56.133404 156.0
56.143841 148.0
56.210972 152.0
56.269184 188.0
56.309502 216.0
56.342365 216.0
56.493675 188.0
56.524776 164.0
56.767448 152.0
57.046909 124.0
57.099342 152.0
57.121906 152.0
57.270927 168.0
57.295029 196.0
57.351707 164.0
57.367367 164.0
57.521233 152.0
57.551426 188.0
57.970432 168.0
58.003777 160.0
58.109932 156.0
58.273911 156.0
58.474636 152.0
58.491379 188.0
58.776379 152.0
59.144695 160.0
59.539371 196.0
59.600178 152.0
59.64782 196.0
59.734077 168.0
59.803173 140.0
59.861675 140.0
59.881699 196.0
59.954109 152.0
60.024467 112.0
60.080544 192.0
60.309086 216.0
60.343136 152.0
60.408051 176.0
60.480778 176.0
60.581429 148.0
60.596924 176.0
60.854553 188.0
61.157528 220.0
61.325043 124.0
61.658184 180.0
61.69101 140.0
61.717587 192.0
61.728535 148.0
61.781712 144.0
61.870914 208.0
61.974285 148.0
62.327328 180.0
62.51738 168.0
62.582451 184.0
62.792076 164.0
62.837475 152.0
62.859566 224.0
62.881176 196.0
63.023785 184.0
63.287933 140.0
63.389309 172.0
63.593212 168.0
63.644691 180.0
63.678043 148.0
63.822655 148.0
63.902184 164.0
64.018379 168.0
64.197556 148.0
64.214409 152.0
64.56897 172.0
64.680969 148.0
64.823509 148.0
64.900452 152.0
64.936615 224.0
64.991875 156.0
65.18084 176.0
65.451591 156.0
65.495071 280.0
65.65947 144.0
65.678825 180.0
65.80793 144.0
65.961403 184.0
66.102112 160.0
66.217056 160.0
66.299683 184.0
66.380737 152.0
66.497269 188.0
66.513771 240.0
66.538124 204.0
66.585213 252.0
66.648735 196.0
66.838814 160.0
66.89415 148.0
67.073334 184.0
67.214394 144.0
67.29847 252.0
67.88755 156.0
67.986031 132.0
68.178123 184.0
68.260323 204.0
68.271828 228.0
68.385353 148.0
68.663788 180.0
69.027107 172.0
69.121506 180.0
69.250526 152.0
69.354912 164.0
69.374802 140.0
69.512466 176.0
69.602104 204.0
69.738327 192.0
69.874687 180.0
70.002853 160.0
70.180504 124.0
70.419785 144.0
70.503319 152.0
70.652138 144.0
70.760918 156.0
71.252129 104.0
71.356522 140.0
71.48941 176.0
71.765663 168.0
71.812881 184.0
71.932678 260.0
72.050896 176.0
72.062721 168.0
72.404419 168.0
72.748619 216.0
72.768997 140.0
73.602776 216.0
73.62722 164.0
73.666191 152.0
73.766663 124.0
73.965759 192.0
74.023964 152.0
74.109489 172.0
74.326553 192.0
74.401176 208.0
74.593582 180.0
74.617645 196.0
74.641716 212.0
74.700195 148.0
74.739769 160.0
74.863708 240.0
75.149849 188.0
75.239594 172.0
75.420975 152.0
75.505699 144.0
75.782669 160.0
75.822525 172.0
76.129585 156.0
76.357254 144.0
76.388565 152.0
76.484238 108.0
76.610435 160.0
76.667145 140.0
76.740356 160.0
76.853729 192.0
76.879906 264.0
77.012589 184.0
77.028313 140.0
77.103348 152.0
77.208923 132.0
77.381569 140.0
77.44812 224.0
77.463882 140.0
77.551491 212.0
77.605835 240.0
77.668968 252.0
77.837456 168.0
78.085243 196.0
78.153847 144.0
78.372185 164.0
78.435631 148.0
78.486755 164.0
78.564926 228.0
79.291092 140.0
79.519882 180.0
79.556503 172.0
79.71524 148.0
79.777443 192.0
80.085289 152.0
80.097755 140.0
80.283119 312.0
80.383011 184.0
80.427635 192.0
80.68129 220.0
80.722366 144.0
80.851219 156.0
80.863747 148.0
81.173676 208.0
81.346527 100.0
81.378906 184.0
81.395325 96.0
81.532715 184.0
81.557877 164.0
81.669357 176.0
81.835747 168.0
82.139481 152.0
82.42112 180.0
82.45546 184.0
83.007607 148.0
83.083008 160.0
83.218086 144.0
83.285461 200.0
83.434288 184.0
83.492088 168.0
83.652122 124.0
83.754562 160.0
83.805573 212.0
83.838371 140.0
83.867538 240.0
84.015244 152.0
84.031662 152.0
84.263977 148.0
84.319321 136.0
84.398949 132.0
84.774467 172.0
84.95372 168.0
85.304474 160.0
85.365143 268.0
85.512321 156.0
85.877319 196.0
85.905647 108.0
86.076439 188.0
86.186256 152.0
86.222382 172.0
86.672058 140.0
86.725807 144.0
86.814568 192.0
86.903831 196.0
86.92981 144.0
87.178185 160.0
87.336685 140.0
87.455765 204.0
87.595421 176.0
87.875061 204.0
87.899315 172.0
87.965187 164.0
88.080414 196.0
88.132721 348.0
88.185051 144.0
88.198128 140.0
88.299095 156.0
88.357086 204.0
88.451782 172.0
88.538651 144.0
88.692284 232.0
88.801872 188.0
88.966164 144.0
88.999954 184.0
89.105133 164.0
89.204735 212.0
89.326118 228.0
89.370239 192.0
89.40332 124.0
89.451164 244.0
89.517128 116.0
89.577332 140.0
89.641388 160.0
89.709236 188.0
89.748833 164.0
89.845016 140.0
90.082886 168.0
90.49781 176.0
90.749054 192.0
90.764221 200.0
91.096359 164.0
91.350632 168.0
91.440521 164.0
91.516663 152.0
91.575699 148.0
91.596649 140.0
91.745285 144.0
92.000923 168.0
92.105759 120.0
92.427132 144.0
92.444359 176.0
92.578362 144.0
92.614746 200.0
92.975197 140.0
93.062286 176.0
93.113426 160.0
93.779121 196.0
93.81575 148.0
94.089691 212.0
94.476212 208.0
94.722061 140.0
94.809868 128.0
95.162285 164.0
95.268333 232.0
95.461525 232.0
95.681389 268.0
95.907364 188.0
95.995094 160.0
96.175499 196.0
96.299545 196.0
96.333023 172.0
96.48127 160.0
96.525406 216.0
96.555573 164.0
96.700356 156.0
97.094147 140.0
97.220985 184.0
97.60276 172.0
97.75029 140.0
97.767242 124.0
97.811302 176.0
98.24424 160.0
98.432335 152.0
98.964233 164.0
99.043449 152.0
99.182152 184.0
99.324913 140.0
99.503288 140.0
99.600571 216.0
99.68029 148.0
99.801544 156.0
99.944756 200.0
99.962669 144.0
100.030334 148.0
100.261383 148.0
100.534592 204.0
100.944115 164.0
101.118546 124.0
101.434631 172.0
101.684875 152.0
102.566322 156.0
102.616722 168.0
103.121391 264.0
103.285164 148.0
103.430855 168.0
103.599602 144.0
103.617821 208.0
103.708351 192.0
103.870567 148.0
103.91925 292.0
103.976074 160.0
104.076538 136.0
104.093819 164.0
104.319336 152.0
104.524963 196.0
104.577919 164.0
104.63427 124.0
105.044212 600.0
105.29126 140.0
105.558968 204.0
106.03801 200.0
106.053764 152.0
106.23896 176.0
106.583885 160.0
106.834717 192.0
106.978767 236.0
107.036415 160.0
107.35582 168.0
107.65712 184.0
107.735603 180.0
107.884399 164.0
108.039177 228.0
108.11438 128.0
108.891441 140.0
109.23024 144.0
109.290573 176.0
109.386307 176.0
109.74881 176.0
109.782173 152.0
110.09938 184.0
110.299362 224.0
110.375961 180.0
110.418472 164.0
110.446327 176.0
110.481888 256.0
110.536285 188.0
110.67234 152.0
110.756111 204.0
110.932129 176.0
110.986641 244.0
111.068428 160.0
111.154449 140.0
111.276184 152.0
111.587135 144.0
111.633392 184.0
111.755394 140.0
111.797745 160.0
111.965897 144.0
112.007675 172.0
112.121796 152.0
112.277809 192.0
112.41124 192.0
112.746483 140.0
113.012924 164.0
113.402008 164.0
113.527657 176.0
113.643188 144.0
113.69101 164.0
113.843857 156.0
113.894829 300.0
113.946281 184.0
114.198776 200.0
114.213669 208.0
114.307274 160.0
114.359428 156.0
114.637344 192.0
115.059669 212.0
115.20916 148.0
115.294632 156.0
115.353325 160.0
115.457108 164.0
115.658226 152.0
116.256187 148.0
116.430077 152.0
116.797607 148.0
117.044327 464.0
117.27346 204.0
117.290703 152.0
117.320885 208.0
117.392876 184.0
117.788116 120.0
118.00959 148.0
118.245377 176.0
118.562172 240.0
118.708984 168.0
118.993233 164.0
119.149605 208.0
119.175674 160.0
119.193054 156.0
119.571449 192.0
119.83493 172.0
120.15979 268.0
120.367142 164.0
121.178627 152.0
121.268471 140.0
121.332039 140.0
121.589638 184.0
121.722595 172.0
121.858772 184.0
121.891731 144.0
122.003822 148.0
122.16436 212.0
122.362427 156.0
122.402725 172.0
122.421883 208.0
122.776688 188.0
122.99511 152.0
123.187225 180.0
123.335945 184.0
123.377274 180.0
123.529129 180.0
123.686974 160.0
123.711319 152.0
123.742409 188.0
123.808746 180.0
123.96106 196.0
124.171471 204.0
124.318626 172.0
124.37101 140.0
124.54953 180.0
124.580627 156.0
124.971916 140.0
125.025246 112.0
125.207878 148.0
125.370506 148.0
125.439598 104.0
125.794289 172.0
126.234428 200.0
126.37188 148.0
126.532021 140.0
126.898895 208.0
126.919632 152.0
126.970436 212.0
127.054207 360.0
127.114784 160.0
127.20993 184.0
127.36174 176.0
127.4179 164.0
127.452545 124.0
127.548241 184.0
128.063751 152.0
128.46022 156.0
128.783005 172.0
128.823669 228.0
129.041214 168.0
129.289444 168.0
129.683609 108.0
129.76033 136.0
129.912537 172.0
130.046417 180.0
130.114517 216.0
130.144302 152.0
130.182648 148.0
130.712296 144.0
130.784698 128.0
131.113098 228.0
131.660629 160.0
131.770264 172.0
131.964539 176.0
132.235931 156.0
132.326035 156.0
132.575699 208.0
132.982864 136.0
133.039017 656.0
133.468658 156.0
133.852615 140.0
134.122482 164.0
134.389999 140.0
134.48822 176.0
134.678696 208.0
134.828751 164.0
134.909637 140.0
135.002136 144.0
135.092331 164.0
135.485886 176.0
135.608078 136.0
135.985931 228.0
136.153915 168.0
136.341827 212.0
136.616455 152.0
136.70488 164.0
136.727432 220.0
136.784012 156.0
136.844528 156.0
137.037857 316.0
137.170303 160.0
137.5159 156.0
137.632629 176.0
137.648972 144.0
137.733047 312.0
137.851166 100.0
138.008804 148.0
138.163177 104.0
138.547104 188.0
138.58226 176.0
138.645523 184.0
138.755692 180.0
139.055923 296.0
139.295441 144.0
139.372971 172.0
139.817413 144.0
139.865768 220.0
139.956894 144.0
140.050049 432.0
140.665939 140.0
140.805237 168.0
141.067749 164.0
141.316483 148.0
141.450729 176.0
141.478928 136.0
141.836838 168.0
142.009674 148.0
142.062103 196.0
142.121429 196.0
142.168884 180.0
142.349289 184.0
142.387299 140.0
143.458023 164.0
143.498932 128.0
143.653656 124.0
143.908936 204.0
144.279251 144.0
144.469574 152.0
144.543625 120.0
144.837387 152.0
145.040039 296.0
145.17955 152.0
145.288589 140.0
145.385864 140.0
145.701172 196.0
145.806137 160.0
146.021591 136.0
146.634048 220.0
146.785919 148.0
147.054993 1304.0
147.261337 168.0
147.298691 172.0
147.345886 160.0
147.440125 164.0
147.62912 112.0
147.648041 156.0
147.770386 124.0
147.802856 172.0
147.875458 192.0
147.902084 148.0
148.028732 140.0
149.244888 176.0
149.438232 156.0
149.981293 164.0
150.040421 192.0
150.195877 200.0
150.278809 172.0
150.295898 208.0
150.330292 208.0
150.365448 280.0
150.44722 172.0
150.636337 216.0
150.735413 244.0
150.769852 184.0
151.053131 648.0
151.141327 200.0
151.471832 148.0
151.545334 220.0
151.932709 164.0
152.061172 2436.0
152.308289 164.0
152.381989 168.0
152.455704 156.0
152.561386 196.0
152.925446 176.0
152.962357 164.0
152.984863 140.0
153.004211 192.0
153.036819 164.0
153.070023 7620.0
153.324432 200.0
154.005371 164.0
154.071152 1516.0
154.376099 148.0
154.635864 148.0
155.0784 112.0
155.222916 132.0
155.270111 144.0
155.468582 176.0
155.518219 156.0
155.538071 164.0
155.885773 164.0
155.958328 144.0
156.05278 208.0
156.248795 172.0
156.388138 176.0
156.41304 140.0
156.616547 120.0
156.674515 164.0
156.746765 140.0
156.82901 168.0
156.85643 140.0
157.032562 128.0
157.050919 180.0
157.128082 192.0
157.250519 148.0
157.670105 144.0
157.749512 188.0
157.807587 236.0
158.112762 160.0
158.220398 216.0
158.631241 164.0
158.944733 164.0
159.148056 204.0
159.318832 192.0
159.478271 156.0
159.888443 164.0
160.005402 144.0
160.052582 144.0
160.410995 172.0
160.496719 176.0
160.612717 164.0
160.796906 180.0
160.960999 220.0
160.981201 200.0
161.001404 192.0
161.034821 18668.0
161.100754 180.0
161.347565 176.0
161.39119 192.0
161.539764 148.0
161.63591 216.0
162.037109 1804.0
162.070709 256.0
162.226028 152.0
162.266586 224.0
162.484695 148.0
162.705048 180.0
162.85907 136.0
163.053543 1004.0
163.132828 132.0
163.152634 148.0
163.613098 172.0
163.705673 224.0
164.052979 132.0
164.264328 116.0
164.449081 184.0
164.579391 164.0
164.59726 176.0
164.615143 208.0
164.845047 160.0
165.069748 1892.0
165.208099 144.0
165.2388 192.0
165.263916 212.0
165.425629 168.0
165.903336 160.0
166.075821 884.0
166.210922 204.0
166.369354 176.0
166.684921 140.0
166.936844 156.0
166.995987 168.0
167.071213 980.0
167.132339 152.0
167.253281 192.0
167.38974 224.0
167.43866 164.0
167.506058 148.0
167.724655 172.0
168.073898 288.0
168.26123 220.0
168.28447 144.0
169.049515 136.0
169.067932 236.0
169.158295 152.0
169.437973 184.0
169.575317 160.0
169.686783 176.0
170.052567 144.0
170.498886 176.0
170.595413 144.0
170.752686 156.0
170.868484 140.0
171.055481 168.0
171.209473 148.0
171.464783 184.0
171.574265 232.0
171.956879 152.0
172.076263 144.0
172.200516 156.0
172.691879 184.0
172.935684 176.0
172.991791 136.0
173.034409 8576.0
173.116638 172.0
173.350128 148.0
173.540344 140.0
173.896072 172.0
174.037323 840.0
174.164917 152.0
174.29628 148.0
174.32518 148.0
174.535568 228.0
174.64743 148.0
174.864197 96.0
174.96434 192.0
175.039536 292.0
175.084595 184.0
175.149933 200.0
175.220322 280.0
175.570374 144.0
175.696823 152.0
175.894897 200.0
176.050964 188.0
176.10878 224.0
176.365067 140.0
176.486679 148.0
176.610977 308.0
176.767059 200.0
176.859695 144.0
176.90831 164.0
177.059448 348.0
177.198654 192.0
177.588669 136.0
177.694443 160.0
177.920029 196.0
178.06517 3784.0
178.111221 272.0
178.236084 228.0
178.403534 148.0
178.565735 216.0
178.653503 168.0
178.769211 140.0
178.913071 184.0
179.015427 168.0
179.045563 2332.0
179.070816 1260.0
179.218491 132.0
179.543411 160.0
179.729874 140.0
179.839294 180.0
179.883408 220.0
179.992813 160.0
180.081207 83368.0
180.152328 192.0
180.189102 164.0
180.269409 128.0
180.305786 132.0
180.45108 428.0
181.083496 9020.0
181.231445 112.0
181.623978 212.0
181.778168 144.0
181.913773 180.0
181.962097 156.0
182.086624 756.0
182.119217 100.0
182.264709 108.0
182.284882 244.0
182.322647 244.0
182.503647 172.0
182.529861 164.0
182.77919 148.0
182.812286 160.0
183.061234 196.0
183.123779 168.0
183.382721 180.0
183.8517 140.0
183.946167 148.0
183.981262 164.0
184.055405 136.0
184.07724 284.0
184.10817 172.0
184.238953 208.0
184.340485 140.0
185.067413 248.0
186.019073 136.0
186.101715 348.0
186.250519 188.0
186.391785 168.0
186.750641 224.0
186.84584 140.0
186.940125 160.0
186.997742 132.0
187.111954 108.0
187.169739 160.0
187.43396 200.0
187.502075 240.0
187.52388 140.0
188.932892 152.0
189.020554 96.0
189.065994 11808.0
189.310608 220.0
189.383804 220.0
189.600998 204.0
189.658554 188.0
189.708618 112.0
189.799835 148.0
190.025375 288.0
190.065643 13392.0
190.259308 184.0
190.291458 188.0
190.546585 152.0
190.897095 324.0
190.995758 152.0
191.045197 13456.0
191.069077 4468.0
191.448914 132.0
191.548187 152.0
191.609634 148.0
191.6427 228.0
191.700562 192.0
192.069611 10340.0
192.121521 208.0
192.243118 364.0
192.343185 192.0
192.478455 184.0
192.578506 108.0
192.619949 104.0
192.696655 152.0
192.732574 140.0
192.764038 136.0
192.840424 180.0
192.982498 144.0
193.017288 168.0
193.084152 3232.0
193.288361 176.0
193.5504 180.0
193.767365 200.0
193.860718 116.0
193.947495 160.0
194.033432 168.0
194.091827 1520.0
194.700531 116.0
194.76326 144.0
195.056534 124.0
195.09111 6688.0
195.447159 188.0
195.558472 304.0
196.077835 1128.0
196.145554 196.0
196.210297 216.0
196.322952 100.0
196.429092 192.0
196.799088 116.0
196.971786 188.0
197.077225 488.0
197.097855 196.0
197.120209 224.0
197.422119 236.0
197.475449 116.0
198.088257 244.0
198.163467 132.0
198.360275 208.0
198.438568 188.0
198.486221 172.0
198.842499 144.0
198.862152 148.0
198.915482 148.0
199.078323 164.0
199.124146 152.0
199.367676 140.0
199.468857 180.0
199.603806 160.0
199.871033 156.0
200.037079 160.0
200.096191 108.0
200.256699 168.0
200.577911 180.0
200.84169 212.0
200.93927 148.0
201.059128 104.0
201.161835 144.0
201.223938 168.0
201.721146 152.0
202.066162 152.0
202.111435 332.0
202.238785 168.0
202.694733 144.0
202.842117 164.0
202.955521 164.0
203.064178 196.0
203.229492 100.0
203.710449 184.0
203.990433 144.0
204.03772 140.0
204.096619 164.0
204.125397 164.0
204.200546 208.0
204.731537 192.0
204.797043 208.0
204.866241 136.0
205.076614 9680.0
205.116165 140.0
205.165665 188.0
205.404175 200.0
205.72377 164.0
205.800858 152.0
206.083069 7424.0
206.268814 160.0
206.383743 160.0
206.556824 128.0
206.595459 140.0
206.628143 96.0
206.659714 188.0
206.776459 112.0
206.866592 208.0
206.919281 244.0
206.991531 220.0
207.018005 244.0
207.092056 143152.0
207.186218 376.0
207.251175 136.0
207.312927 128.0
207.330505 284.0
207.420319 152.0
207.485504 152.0
207.560181 276.0
207.623657 164.0
207.644913 96.0
207.761337 180.0
207.80426 220.0
207.966003 124.0
208.016083 156.0
208.095078 21084.0
208.216537 124.0
208.237747 224.0
208.330597 136.0
208.374008 148.0
208.513809 144.0
208.655975 156.0
208.733414 108.0
208.788925 112.0
208.862549 136.0
208.950729 308.0
209.09848 2500.0
209.207489 184.0
209.33168 112.0
209.420929 152.0
209.453827 148.0
209.480286 120.0
209.52388 144.0
209.567337 188.0
209.615234 160.0
209.678497 128.0
209.702118 180.0
209.784897 168.0
209.831421 116.0
209.922226 140.0
210.042542 156.0
210.06546 132.0
210.090805 1544.0
210.271072 116.0
210.310638 136.0
210.364975 184.0
210.400162 108.0
210.526642 328.0
210.57074 204.0
210.817459 108.0
210.980942 108.0
211.033813 176.0
211.062286 412.0
211.089798 240.0
211.996536 124.0
212.177826 120.0
212.419235 164.0
212.558807 248.0
212.698944 168.0
213.151932 176.0
213.34375 148.0
213.544388 204.0
213.611298 196.0
213.643295 172.0
215.059479 140.0
215.096664 172.0
215.240479 144.0
215.421555 224.0
215.487564 148.0
215.605621 184.0
215.655319 144.0
215.96524 200.0
216.073471 164.0
216.222702 156.0
216.336868 140.0
216.840668 144.0
217.0849 192.0
217.318665 276.0
217.368546 172.0
217.683655 104.0
217.776611 140.0
218.012878 172.0
218.095871 968.0
218.390915 248.0
218.455627 172.0
218.632156 156.0
219.069427 940.0
219.091919 804.0
219.767197 108.0
219.819763 168.0
220.098648 2156.0
220.436157 100.0
221.070862 7400.0
221.207382 144.0
221.247971 96.0
221.315445 160.0
221.408463 164.0
221.522751 188.0
221.638306 204.0
221.756836 252.0
222.018448 140.0
222.073212 1116.0
222.112808 188.0
222.177902 260.0
222.362869 120.0
222.564529 228.0
222.78743 252.0
222.915558 172.0
222.958832 148.0
223.08371 492.0
223.120422 540.0
223.155014 172.0
223.315964 164.0
223.583359 148.0
223.607925 200.0
223.633957 160.0
223.654785 172.0
224.012009 104.0
224.071106 120.0
224.121689 164.0
224.381653 180.0
224.530746 164.0
225.100372 2048.0
225.806015 144.0
225.847885 152.0
225.886765 140.0
226.108643 596.0
226.446487 148.0
226.650208 144.0
226.704132 164.0
226.994919 176.0
227.063049 100.0
227.309891 164.0
227.393921 156.0
227.45694 140.0
227.71817 148.0
227.742203 144.0
228.128616 160.0
228.256104 252.0
228.5569 152.0
228.767578 180.0
228.825974 200.0
228.960281 252.0
229.131348 116.0
229.228394 160.0
229.330856 180.0
229.681564 216.0
230.065277 144.0
230.093491 132.0
230.644363 116.0
230.701279 156.0
230.742538 160.0
231.05806 180.0
231.099869 116.0
231.216995 176.0
231.57576 148.0
231.668564 176.0
231.943954 120.0
232.065384 364.0
232.088181 224.0
232.132782 248.0
232.154922 212.0
232.20871 172.0
232.412109 104.0
232.527771 180.0
232.627045 136.0
232.68866 144.0
232.717422 316.0
232.774597 156.0
232.81572 292.0
232.864731 224.0
232.932236 368.0
232.997864 492.0
233.037888 552.0
233.072388 335796.0
233.187119 456.0
233.310989 160.0
233.385544 168.0
233.42186 144.0
233.489655 224.0
233.529709 200.0
233.571335 2548.0
233.610565 236.0
233.623474 152.0
233.673935 136.0
233.754669 128.0
233.845978 160.0
233.931305 248.0
233.991394 212.0
234.031433 256.0
234.075119 76372.0
234.113327 1640.0
234.222641 176.0
234.269913 100.0
234.294968 140.0
234.356476 132.0
234.461288 160.0
234.509949 208.0
234.575043 104.0
234.679565 132.0
234.733185 104.0
234.802124 144.0
234.830078 184.0
234.869141 136.0
234.894547 140.0
235.07962 6580.0
235.122437 10092.0
235.199341 176.0
235.43692 240.0
235.482315 268.0
235.557785 220.0
235.592667 160.0
235.654343 340.0
235.685181 188.0
235.766113 228.0
235.798767 216.0
235.818787 200.0
235.862228 136.0
235.914444 140.0
235.949158 120.0
235.991272 116.0
236.085541 616.0
236.127808 1604.0
236.310562 128.0
236.361237 108.0
236.524979 176.0
236.563766 232.0
236.654343 128.0
236.740982 208.0
236.788147 96.0
236.840363 112.0
236.966858 144.0
237.094681 164.0
237.127731 580.0
237.274185 192.0
237.41217 200.0
237.52478 152.0
237.709732 104.0
237.904419 108.0
237.97139 136.0
238.108246 128.0
238.139526 176.0
238.200958 256.0
239.002625 108.0
239.082031 7288.0
239.770157 188.0
240.010605 144.0
240.083893 728.0
240.462723 180.0
241.563461 184.0
241.617722 160.0
242.039841 116.0
242.149078 144.0
243.526154 148.0
243.560318 200.0
243.812897 136.0
244.073105 144.0
244.125977 180.0
244.16951 148.0
244.280945 140.0
244.409042 140.0
244.620667 164.0
244.762375 156.0
244.798141 160.0
244.841736 176.0
244.866653 192.0
245.055115 136.0
245.190674 168.0
246.08905 164.0
246.710251 144.0
247.050186 120.0
247.078201 220.0
247.18689 156.0
247.389252 140.0
247.524002 156.0
247.749039 196.0
247.771683 192.0
248.085068 144.0
248.54924 140.0
248.591339 124.0
249.026413 220.0
249.062927 160.0
249.110291 436.0
249.219315 128.0
249.826019 204.0
250.023056 260.0
250.06604 140.0
250.095184 148.0
250.190994 112.0
250.277573 116.0
250.424957 128.0
250.496674 132.0
250.542587 224.0
250.645447 124.0
250.690674 236.0
250.811798 112.0
251.001892 160.0
251.082458 113136.0
251.172653 132.0
251.20256 124.0
251.273102 104.0
251.478607 236.0
251.543564 168.0
251.607407 100.0
251.707214 96.0
251.815613 132.0
251.943863 148.0
251.971741 148.0
252.009644 156.0
252.085114 20464.0
252.192108 212.0
252.264511 112.0
252.390198 140.0
252.431427 128.0
252.473007 144.0
253.087418 1824.0
253.407684 124.0
253.490494 152.0
253.589874 168.0
253.620438 180.0
253.886292 192.0
253.953049 128.0
254.02977 136.0
254.088959 112.0
254.436981 128.0
255.032883 144.0
255.520721 116.0
255.831314 176.0
256.493011 172.0
256.953094 168.0
257.216858 204.0
257.48938 172.0
258.51239 216.0
259.165192 180.0
259.364288 176.0
259.473297 176.0
260.191284 156.0
260.234283 128.0
260.294678 156.0
261.094025 152.0
261.269775 156.0
261.371521 144.0
261.509888 156.0
261.902832 132.0
262.655243 144.0
262.889252 152.0
263.540588 112.0
263.809753 328.0
264.498779 144.0
264.576477 188.0
265.292053 108.0
265.506409 152.0
266.028809 172.0
266.218994 104.0
266.557007 120.0
266.757172 128.0
266.910736 148.0
266.989166 168.0
267.029602 216.0
267.1138 53080.0
267.242126 104.0
267.327667 160.0
267.535767 188.0
267.751617 104.0
267.793518 180.0
268.116241 6712.0
268.174835 128.0
268.746338 144.0
268.96756 184.0
269.053864 176.0
269.093842 1736.0
269.307068 120.0
269.6651 140.0
269.706451 160.0
269.888641 144.0
270.043488 168.0
270.094025 436.0
270.922882 108.0
270.993896 148.0
271.100677 152.0
271.90744 156.0
272.827179 168.0
272.912659 188.0
273.205353 192.0
273.891235 156.0
274.6185 224.0
275.437164 144.0
275.608856 140.0
276.478546 160.0
277.087067 164.0
277.151581 128.0
277.762054 120.0
277.89679 188.0
277.937714 132.0
278.064331 132.0
278.109985 240.0
278.215393 164.0
278.348633 156.0
278.412109 120.0
278.449585 144.0
278.48526 160.0
278.69986 328.0
278.752869 200.0
278.780762 152.0
278.849152 316.0
278.913422 248.0
278.939301 192.0
278.995911 624.0
279.025818 412.0
279.115021 185596.0
279.235779 288.0
279.271271 116.0
279.401001 184.0
279.429352 160.0
279.486481 280.0
279.516998 140.0
279.559479 184.0
279.621246 112.0
279.661194 4780.0
279.729431 148.0
279.762878 136.0
279.860931 156.0
279.905823 128.0
280.053772 276.0
280.116882 61104.0
280.246002 236.0
280.499359 136.0
280.59552 344.0
280.656647 100.0
280.682404 128.0
280.718292 228.0
280.810059 136.0
281.119202 4800.0
281.174896 352.0
281.431549 160.0
281.568176 104.0
281.683472 100.0
281.764008 136.0
281.833832 204.0
281.867096 156.0
281.938202 152.0
281.999084 360.0
282.118073 728.0
282.232666 128.0
282.280029 104.0
282.306458 116.0
282.530609 108.0
282.62912 124.0
282.662628 144.0
282.804779 120.0
282.828033 156.0
282.932709 136.0
283.009796 180.0
283.122101 372.0
283.19635 148.0
283.279999 184.0
283.522217 172.0
283.999939 108.0
284.062042 292.0
284.112366 192.0
284.641632 116.0
286.400299 172.0
290.301727 160.0
291.306366 200.0
291.593018 108.0
293.092468 296.0
293.943481 108.0
294.076324 224.0
294.105865 540.0
294.472656 120.0
294.921722 168.0
295.097351 208.0
295.150787 180.0
295.412018 104.0
296.079132 168.0
296.11499 496.0
296.811493 164.0
297.010406 204.0
297.123749 1576.0
297.404877 116.0
298.126129 540.0
298.521545 140.0
298.607544 144.0
299.137207 192.0
299.205414 112.0
300.312927 136.0
300.659149 160.0
300.861053 164.0
301.437866 164.0
302.101685 144.0
303.823456 160.0
304.101044 232.0
304.763245 116.0
304.816437 148.0
305.066681 140.0
305.270386 188.0
306.094482 284.0
307.109436 144.0
307.968109 152.0
308.11792 640.0
309.109375 324.0
309.280518 176.0
310.115387 196.0
311.118652 276.0
312.109955 260.0
313.102173 164.0
315.30896 140.0
318.188812 144.0
318.856598 156.0
319.610504 144.0
320.105011 272.0
320.49353 164.0
320.548187 164.0
321.097321 212.0
321.402771 144.0
322.098602 1096.0
322.506287 140.0
323.099579 452.0
323.131073 856.0
323.479218 164.0
323.597351 164.0
324.109741 560.0
324.220612 140.0
324.475128 200.0
325.075104 148.0
325.121521 332.0
325.325378 140.0
326.111938 264.0
328.196381 144.0
329.210358 180.0
330.450165 180.0
332.1492 208.0
333.079346 280.0
333.862274 152.0
334.084381 200.0
335.099976 248.0
335.299072 200.0
337.045776 176.0
337.104736 304.0
338.09436 608.0
338.930298 160.0
338.977905 156.0
339.12204 1868.0
339.97171 180.0
340.121918 508.0
340.485657 160.0
341.102631 96.0
341.138947 216.0
341.202179 140.0
342.116211 136.0
342.631134 164.0
342.980225 200.0
343.385803 204.0
343.422668 212.0
343.998291 184.0
346.246368 164.0
346.67981 140.0
346.750214 184.0
347.970642 180.0
348.100647 824.0
349.108307 13644.0
349.732666 164.0
350.100525 5276.0
350.868835 176.0
351.097687 1844.0
351.45813 148.0
351.790283 172.0
352.105408 1680.0
352.331787 144.0
352.808197 100.0
353.106995 300.0
353.976837 112.0
355.180542 200.0
355.398132 140.0
356.787781 196.0
357.558868 140.0
357.841187 164.0
359.839417 152.0
361.101532 156.0
361.13559 180.0
361.816711 144.0
364.087433 108.0
364.96579 156.0
365.102692 456.0
366.106354 724.0
366.156494 200.0
366.608826 176.0
366.756958 120.0
366.983795 144.0
367.0448 144.0
367.11908 10164.0
367.239288 148.0
367.407135 112.0
368.119873 2752.0
368.182495 148.0
368.237213 104.0
369.041748 164.0
369.121521 752.0
369.54541 120.0
370.584503 112.0
370.705505 100.0
371.62326 188.0
373.154785 116.0
373.274933 172.0
374.360077 144.0
374.89447 112.0
375.084015 176.0
376.100189 188.0
377.137848 324.0
378.124054 164.0
378.321564 140.0
378.945068 156.0
379.08194 100.0
379.491577 144.0
382.377808 140.0
382.588013 140.0
383.078674 148.0
383.195557 216.0
383.873779 196.0
384.115845 160.0
385.129913 13628.0
385.30957 136.0
385.462036 144.0
385.697021 144.0
386.13089 3088.0
387.129822 524.0
388.202209 96.0
388.336029 144.0
390.97226 156.0
391.558838 144.0
391.839111 160.0
392.185303 172.0
392.788574 176.0
392.859589 172.0
393.097595 5308.0
393.804413 100.0
394.100006 2080.0
394.578705 144.0
395.104767 676.0
395.152435 1480.0
395.230499 160.0
395.645691 160.0
395.698517 104.0
396.150848 540.0
396.609924 112.0
396.745178 120.0
397.140991 204.0
399.137177 180.0
400.48941 172.0
400.644989 128.0
401.295227 144.0
402.556122 128.0
405.071838 192.0
405.10788 148.0
405.52887 124.0
406.442963 160.0
407.486877 148.0
408.364929 132.0
408.950653 152.0
409.083466 168.0
409.159973 160.0
409.693787 108.0
410.55307 108.0
410.650909 160.0
410.807281 136.0
410.912628 100.0
410.993622 96.0
411.038177 216.0
411.110138 59868.0
411.259949 164.0
411.395935 132.0
411.498474 116.0
411.556152 184.0
411.589691 256.0
411.70575 156.0
411.795258 192.0
411.928436 188.0
412.022705 144.0
412.112549 14204.0
412.407257 212.0
412.520416 100.0
412.758972 160.0
413.114471 2336.0
413.156525 1096.0
413.310394 124.0
413.547852 148.0
414.114868 356.0
414.161804 376.0
414.30423 192.0
414.591919 132.0
414.699341 240.0
414.764191 128.0
414.843353 120.0
414.911957 124.0
415.160736 184.0
416.222321 140.0
416.294769 100.0
416.498169 120.0
417.401978 132.0
418.176025 132.0
418.610413 148.0
420.934753 192.0
422.643372 216.0
422.849823 116.0
424.117676 140.0
426.083282 140.0
426.768005 140.0
428.012268 176.0
428.214081 148.0
428.394806 100.0
429.013458 196.0
429.119904 21960.0
429.236084 288.0
429.273376 200.0
429.336823 188.0
429.394043 120.0
429.815277 96.0
430.059906 140.0
430.123199 8692.0
430.87616 108.0
431.126556 1300.0
432.120972 148.0
432.538879 116.0
433.836182 100.0
434.33667 108.0
434.607849 108.0
435.217255 156.0
436.212311 168.0
436.666748 116.0
437.838196 136.0
437.921692 272.0
437.978638 216.0
438.02774 176.0
438.191284 152.0
438.373962 108.0
438.405762 144.0
438.58017 152.0
438.666931 168.0
438.745453 192.0
438.817017 96.0
438.84903 176.0
438.931793 148.0
439.141602 76276.0
439.256409 144.0
439.347382 156.0
439.528473 100.0
439.709167 104.0
439.74649 100.0
439.824982 188.0
439.917114 124.0
440.065247 152.0
440.144531 21472.0
440.565552 228.0
440.656128 128.0
440.726959 200.0
441.053955 140.0
441.146393 3204.0
441.251648 100.0
441.430603 100.0
441.840973 100.0
441.964417 144.0
442.070831 132.0
442.144226 340.0
442.560028 108.0
442.90387 272.0
442.956177 152.0
443.075165 124.0
443.152313 168.0
443.335388 136.0
443.450134 156.0
443.870819 148.0
444.221649 140.0
444.757874 152.0
449.544006 220.0
452.456268 180.0
453.248291 140.0
453.378937 120.0
453.672119 160.0
454.230042 196.0
454.784546 144.0
454.842896 228.0
454.916931 100.0
455.028595 124.0
455.099487 100.0
455.145355 132.0
455.535034 152.0
455.600311 112.0
455.668579 196.0
455.791107 236.0
455.842102 104.0
455.901794 200.0
455.993958 228.0
456.122223 148.0
456.220673 152.0
456.259155 144.0
456.292664 176.0
456.384491 96.0
456.437073 132.0
456.523956 184.0
456.633667 140.0
456.679016 124.0
456.720337 240.0
456.78125 120.0
456.823334 136.0
456.856689 120.0
456.88089 584.0
456.933258 156.0
457.010132 168.0
457.038422 284.0
457.152985 131412.0
457.421967 148.0
457.484436 188.0
457.526611 164.0
457.589539 164.0
457.851807 1160.0
457.894043 144.0
457.914886 140.0
457.958557 116.0
458.020172 404.0
458.155029 54788.0
458.258209 316.0
458.305328 236.0
458.486786 140.0
458.593842 96.0
458.623688 128.0
458.777588 104.0
458.816956 100.0
458.86087 176.0
458.904358 188.0
459.099487 148.0
459.156403 6384.0
459.249634 156.0
459.289551 156.0
459.870605 124.0
460.033722 228.0
460.076813 140.0
460.158539 1284.0
460.246948 208.0
460.319794 104.0
460.36496 200.0
460.415253 96.0
460.474823 176.0
460.536743 180.0
460.605743 172.0
460.652557 192.0
460.691162 156.0
460.774811 120.0
460.803741 188.0
460.93219 196.0
461.004944 276.0
461.047089 236.0
461.220154 184.0
461.446899 152.0
461.514435 140.0
461.788818 120.0
461.862091 112.0
462.048035 160.0
462.12442 116.0
462.883667 140.0
465.993378 144.0
467.688934 100.0
468.006775 104.0
513.578796 108.0
519.956604 140.0
551.78772 108.0
599.678894 152.0
650.885071 112.0
755.591614 140.0
772.80719 140.0
984.995789 160.0
997.87677 100.0
1220.408813 148.0
1240.61377 168.0
1260.397949 200.0
1341.938477 148.0
1364.010742 260.0
1447.39917 208.0
1480.81604 172.0
1521.019165 180.0
1525.648926 176.0
1530.472656 184.0
1542.088501 212.0
1558.78894 156.0
1583.299438 156.0
1588.245117 164.0
1589.839844 168.0
1620.780273 160.0
1670.091675 160.0
1670.962036 204.0
1676.588623 192.0
1685.687744 144.0
1694.123169 180.0
1722.218872 160.0
1724.131348 160.0
1731.486084 204.0
1732.703735 216.0
1732.985474 148.0
1733.26709 172.0
1734.667847 144.0
1736.890137 168.0
1762.983276 256.0
1772.011841 148.0
1781.945557 164.0
1788.732178 140.0
1790.264526 168.0
1796.046265 148.0
1799.455566 172.0
1800.527954 140.0
1803.890747 164.0
1825.238892 152.0
1831.885986 152.0
1833.155396 144.0
1834.152588 164.0
1845.284546 168.0
1847.927368 196.0
1848.132812 140.0
1850.289551 220.0
1853.78418 200.0
1855.918579 172.0
1856.578857 180.0
1856.981934 164.0
1859.058105 172.0
1872.19397 148.0
1874.633057 140.0
1888.791138 172.0
1888.894897 148.0
1890.166626 140.0
1891.698608 228.0
1895.33606 180.0
1925.836914 164.0
1930.372681 164.0
1934.773804 184.0
1936.069702 160.0
1943.862915 168.0
1945.07312 172.0
1947.682007 172.0
1950.335571 168.0
1960.333496 188.0
1961.056152 216.0
1961.637939 148.0
1964.221558 168.0
1964.345093 144.0
1965.377319 152.0
1966.462769 156.0
1972.362915 188.0
1972.9552 160.0
1982.89563 156.0
1983.675659 164.0
1988.518555 140.0
1992.239136 180.0
1994.878418 264.0
1997.795288 140.0
1999.316772 156.0
1999.690552 172.0
