>compound MLS001158023-01!4-phenyl-1-[2-(3,4,7-trimethyl-2-oxochromen-5-yl)oxyacetyl]piperidine-4-carboxylic acid
>formula C26H27NO6
>ionization [M+H]+
>parentmass 450.192
#inchi InChI=1S/C26H27NO6/c1-16-13-20(23-17(2)18(3)24(29)33-21(23)14-16)32-15-22(28)27-11-9-26(10-12-27,25(30)31)19-7-5-4-6-8-19/h4-8,13-14H,9-12,15H2,1-3H3,(H,30,31)
#inchikey PSTGDEARZKXXHK
#Ion_Source LC-ESI
#Instrument qTof
#Compound_Source NIH Natural Product Library
#PI Dorrestein
#Data_Collector VVP/LMS
#Scan -1
#Precursor_MZ 450.192
#ExactMass 449.184
#Charge 1
#CAS_Number N/A
#Pubmed_ID N/A
#Smiles Cc1cc(OCC(=O)N2CCC(CC2)(C(=O)O)c3ccccc3)c4c(C)c(C)c(=O)oc4c1
#INCHI_AUX N/A
#Library_Class 1
#SpectrumID CCMSLIB00000079516
#IonMode Positive
#UpdateWorkflowName UPDATE-SINGLE-ANNOTATED-GOLD
#LibraryQualityString Gold
#TaskID b1d8e8f6646f4e71acdff9ca3d919d08
##Scan# 2246
#SpectrumFile p1-E07_GE7_01_17927.mzXML
#LibraryName NIH_Natural_Products_Library.mgf
#MQScore -1
#Organism NIH_Natural_Products_Library
#TIC_Query 0
#RT_Query -1
#MZErrorPPM -1
#SharedPeaks 0
#MassDiff 0
#LibMZ -1
#SpecMZ 450.192
#SpecCharge 0
#internalFilename spec-00000.mgf

>collision 10
95.012077 164.0
95.110641 300.0
95.213982 60.0
95.355827 168.0
95.369431 184.0
95.395386 156.0
95.486107 200.0
95.501671 88.0
95.534744 136.0
95.739151 152.0
95.797592 140.0
95.817078 140.0
96.045197 224.0
96.088478 152.0
96.11544 136.0
96.316559 180.0
96.529617 164.0
96.680275 164.0
96.719421 148.0
96.740959 204.0
96.881981 184.0
96.909409 168.0
97.038788 236.0
97.087822 96.0
97.229095 192.0
97.311554 108.0
97.515884 172.0
97.553238 104.0
97.620094 172.0
97.714523 156.0
97.946854 240.0
98.224541 212.0
98.264297 160.0
98.284035 60.0
98.416298 148.0
98.584229 148.0
98.63958 216.0
98.675171 212.0
98.770569 256.0
98.991806 188.0
99.081856 176.0
99.105507 376.0
99.199173 136.0
99.321449 160.0
99.714043 200.0
99.777664 180.0
99.877106 132.0
99.930832 184.0
100.077507 284.0
100.092079 96.0
100.580605 192.0
101.008286 60.0
101.286568 128.0
101.378746 108.0
101.516129 148.0
101.542259 180.0
101.561218 56.0
101.830215 92.0
101.88446 184.0
101.952782 152.0
102.15992 184.0
102.182053 156.0
102.290741 180.0
102.448982 180.0
102.494186 164.0
102.629257 196.0
102.655472 176.0
102.738182 76.0
102.762398 196.0
103.043076 164.0
103.090118 1488.0
103.152222 160.0
103.200752 104.0
103.227043 72.0
103.350456 176.0
103.374741 120.0
103.532669 88.0
103.638016 88.0
103.698822 68.0
103.852943 116.0
103.974693 236.0
104.061989 144.0
104.090424 120.0
104.124954 180.0
104.141205 188.0
104.212318 60.0
104.236702 256.0
104.569305 176.0
104.602844 172.0
104.871819 152.0
104.898262 96.0
104.963516 184.0
104.987991 108.0
105.071632 136.0
105.10775 832.0
105.220642 168.0
105.281906 144.0
105.347282 168.0
105.388145 156.0
105.410629 108.0
105.490349 192.0
105.705139 120.0
105.778824 208.0
105.823875 172.0
105.854591 184.0
105.873024 168.0
105.889412 84.0
105.920143 180.0
106.0793 176.0
106.221954 168.0
106.405632 148.0
106.605515 84.0
106.624016 208.0
106.724419 244.0
106.747375 176.0
107.091599 172.0
107.122681 328.0
107.181778 216.0
107.573708 136.0
107.691422 228.0
108.067719 172.0
108.086342 180.0
108.251968 144.0
108.276825 188.0
108.616798 100.0
108.633392 172.0
108.685272 156.0
108.76207 168.0
108.901207 192.0
108.998863 76.0
109.061218 176.0
109.094482 152.0
109.16935 144.0
110.036293 52.0
110.098312 1560.0
110.224304 116.0
110.322556 156.0
110.35601 148.0
110.412483 124.0
110.504532 172.0
110.655251 212.0
110.697136 148.0
110.847984 48.0
110.975861 104.0
111.101723 148.0
111.219254 196.0
111.336845 160.0
111.557503 124.0
111.656342 128.0
111.692101 116.0
112.115135 1192.0
112.224998 224.0
112.495087 180.0
112.60701 176.0
112.792976 208.0
113.127014 156.0
113.320007 108.0
113.38385 164.0
113.44931 180.0
113.620766 192.0
113.674171 160.0
113.689026 140.0
113.780312 256.0
113.827034 336.0
113.873764 192.0
113.909874 176.0
114.118179 200.0
114.494881 116.0
114.567314 184.0
115.094879 740.0
115.307854 184.0
115.36985 112.0
115.583763 92.0
115.900719 104.0
116.100891 596.0
116.226692 128.0
116.475769 132.0
116.634804 176.0
116.910149 156.0
117.079002 104.0
117.110252 1708.0
117.151337 60.0
117.185814 40.0
117.209969 96.0
117.276337 184.0
117.3367 64.0
117.358215 168.0
117.442383 164.0
117.534271 164.0
117.552429 56.0
117.63662 184.0
117.824532 128.0
117.926109 204.0
117.980156 176.0
118.049355 144.0
118.077477 76.0
118.116913 680.0
118.160461 112.0
118.296051 128.0
118.335022 212.0
118.380501 192.0
118.475822 120.0
118.506157 208.0
118.614532 128.0
118.788033 140.0
118.809731 192.0
118.942123 112.0
119.011604 128.0
119.089798 160.0
119.127449 328.0
119.157654 172.0
119.222343 44.0
119.27887 112.0
119.324524 160.0
119.46373 132.0
119.805573 80.0
120.034462 116.0
120.127167 168.0
120.344353 104.0
120.366188 168.0
120.381584 160.0
120.497261 176.0
120.672134 148.0
120.873398 60.0
121.108543 444.0
121.208481 56.0
121.480385 156.0
121.570358 192.0
121.634018 176.0
121.66256 168.0
121.822899 184.0
122.018517 96.0
122.112244 52.0
122.172493 108.0
122.249512 204.0
122.33316 124.0
122.381607 52.0
122.436668 152.0
122.480721 140.0
122.531395 160.0
122.546822 116.0
122.641602 116.0
122.740822 76.0
122.784935 152.0
122.895248 124.0
123.051735 180.0
123.255211 184.0
123.759605 116.0
123.91246 144.0
123.987808 176.0
124.076485 136.0
124.119987 192.0
124.178505 228.0
124.265038 236.0
124.389328 156.0
124.75148 184.0
124.88047 140.0
125.042908 72.0
125.100792 148.0
125.207069 144.0
125.381485 144.0
125.658035 196.0
125.749542 44.0
125.96479 176.0
125.984032 208.0
126.099335 396.0
126.131546 84.0
126.203094 160.0
126.348495 32.0
126.460396 152.0
126.608185 152.0
126.82106 188.0
126.96682 164.0
127.036362 144.0
127.098732 584.0
127.123878 180.0
127.265556 184.0
127.615883 132.0
127.692352 156.0
127.708099 132.0
127.750839 236.0
127.773338 188.0
127.807098 132.0
127.831856 156.0
127.906136 180.0
127.969177 48.0
128.063782 136.0
128.109039 3644.0
128.147141 52.0
128.431229 204.0
128.582413 188.0
128.839874 28.0
128.914444 76.0
129.079498 164.0
129.115707 1892.0
129.1745 140.0
129.332916 196.0
129.403107 200.0
129.654587 108.0
129.686325 160.0
129.71579 208.0
129.770218 88.0
129.845047 124.0
129.931259 148.0
130.122314 348.0
130.246857 64.0
130.342285 136.0
130.362747 164.0
130.640182 140.0
130.740311 180.0
130.849579 136.0
130.952072 84.0
131.094086 780.0
131.130508 1716.0
131.225571 144.0
131.24382 52.0
131.275742 80.0
131.321365 144.0
131.351013 100.0
131.408066 76.0
131.458267 60.0
131.478806 116.0
131.595245 72.0
131.905991 116.0
131.927353 176.0
132.099197 200.0
132.13208 104.0
132.375092 144.0
132.44838 68.0
132.519409 116.0
132.945984 88.0
133.074554 164.0
133.112442 264.0
133.147385 1204.0
133.177902 116.0
133.29509 156.0
133.366348 76.0
133.437622 96.0
133.821915 164.0
134.148102 184.0
134.169861 152.0
134.264999 204.0
134.562134 188.0
134.927216 188.0
135.065994 112.0
135.086807 172.0
135.132233 152.0
135.17012 196.0
135.314011 232.0
135.346069 56.0
135.487366 180.0
135.515182 56.0
135.617157 204.0
135.821228 200.0
136.048676 200.0
136.092804 180.0
136.267029 204.0
136.287933 176.0
136.813644 268.0
137.037262 224.0
137.055908 104.0
137.104034 184.0
137.370697 28.0
137.60878 96.0
137.627457 52.0
137.739578 164.0
137.868103 196.0
138.076202 96.0
138.385132 132.0
138.525681 180.0
139.036896 204.0
139.12912 184.0
139.259979 220.0
140.373322 140.0
140.406342 148.0
140.446442 172.0
140.562073 176.0
140.580948 184.0
140.635239 84.0
140.680099 140.0
140.885147 172.0
141.120987 1032.0
141.178711 44.0
141.367996 64.0
141.396408 144.0
141.42955 56.0
141.609512 76.0
141.694809 176.0
142.074188 148.0
142.09317 28.0
142.126297 676.0
142.32106 116.0
142.508728 184.0
142.646591 148.0
142.858276 156.0
142.879684 108.0
142.958221 192.0
142.996307 196.0
143.041107 88.0
143.072479 172.0
143.098755 132.0
143.135941 9308.0
143.263031 60.0
143.279709 192.0
143.422714 96.0
143.506165 48.0
143.611115 168.0
143.649277 164.0
143.680298 52.0
143.794861 92.0
143.811569 68.0
143.852142 64.0
143.921402 112.0
143.983765 180.0
144.012161 220.0
144.106232 1648.0
144.133606 2228.0
144.276001 176.0
144.294174 48.0
144.315704 76.0
144.54776 156.0
144.638718 100.0
144.760834 120.0
144.777603 140.0
144.966888 56.0
144.993256 56.0
145.116257 792.0
145.148224 1168.0
145.192276 224.0
145.239426 152.0
145.53067 128.0
145.600266 172.0
145.684402 144.0
145.859848 160.0
146.122375 1004.0
146.1586 316.0
146.230331 120.0
146.861679 176.0
146.991989 172.0
147.018539 68.0
147.04509 68.0
147.131149 1096.0
147.240677 56.0
147.317978 176.0
147.547592 84.0
147.569366 244.0
147.593552 96.0
147.812851 204.0
147.862106 148.0
148.002197 172.0
148.089203 372.0
148.108826 172.0
148.134796 396.0
148.594025 292.0
148.762741 156.0
148.895065 208.0
149.113419 116.0
149.149231 308.0
149.366669 44.0
149.3983 116.0
149.729385 140.0
149.878006 188.0
150.170593 140.0
150.31456 136.0
150.495209 136.0
150.803055 176.0
150.964447 112.0
151.130814 216.0
151.427063 160.0
151.539764 204.0
151.61084 160.0
151.659866 88.0
152.111862 148.0
152.180023 176.0
152.226685 204.0
152.412018 332.0
152.742889 132.0
152.816696 104.0
153.139236 176.0
153.187607 176.0
153.767593 220.0
153.7771 180.0
153.975464 156.0
154.066864 112.0
154.116287 140.0
154.237396 144.0
154.264603 212.0
154.356094 100.0
154.724808 40.0
154.821396 172.0
154.897858 152.0
154.972519 132.0
155.114639 488.0
155.135757 308.0
155.4189 136.0
155.632401 152.0
155.684555 76.0
155.898224 100.0
156.025009 76.0
156.125793 648.0
156.520218 44.0
156.654739 44.0
156.717026 132.0
156.78183 180.0
157.118668 556.0
157.146561 156.0
157.170898 172.0
157.200851 84.0
157.765411 188.0
157.905457 168.0
157.930481 140.0
158.005539 128.0
158.085617 192.0
158.123581 144.0
158.152695 19860.0
158.189331 168.0
158.219757 48.0
158.229034 28.0
158.244324 92.0
158.327515 72.0
158.363556 72.0
158.401138 36.0
158.486328 104.0
158.536453 208.0
158.559006 104.0
158.599121 232.0
158.714462 80.0
158.829834 140.0
158.875 120.0
158.99295 244.0
159.07077 40.0
159.09993 204.0
159.138107 2612.0
159.158157 4480.0
159.187576 148.0
159.230026 48.0
159.407379 144.0
159.463318 108.0
159.608505 40.0
159.631134 128.0
159.666351 156.0
159.694016 120.0
159.729233 52.0
159.817307 152.0
159.957504 224.0
160.013657 160.0
160.038834 44.0
160.056473 156.0
160.138809 452.0
160.168167 4736.0
160.227768 108.0
160.283203 76.0
160.318481 160.0
160.394623 156.0
160.436966 64.0
160.542892 116.0
160.663986 104.0
160.792694 140.0
160.810364 48.0
160.870941 180.0
160.916397 44.0
160.934067 152.0
160.962601 212.0
161.062897 180.0
161.116425 3852.0
161.154617 2860.0
161.223724 68.0
161.287811 232.0
161.335114 148.0
161.366196 100.0
161.406647 88.0
161.42688 172.0
161.462296 80.0
161.497711 44.0
161.525223 164.0
161.545685 112.0
161.616623 56.0
161.70015 116.0
161.738129 160.0
161.953384 96.0
161.976181 144.0
162.03952 68.0
162.09021 48.0
162.119568 680.0
162.157394 372.0
162.183807 248.0
162.24231 100.0
162.414322 224.0
162.462967 164.0
162.485809 32.0
162.833633 192.0
163.122635 184.0
163.199615 80.0
163.219955 56.0
163.785034 96.0
164.090881 188.0
164.124039 132.0
164.240952 196.0
164.51445 128.0
164.570633 136.0
164.598724 196.0
164.685562 176.0
164.823532 140.0
164.874649 120.0
165.104782 116.0
165.14827 112.0
165.299438 144.0
165.352982 40.0
165.399063 36.0
165.442581 72.0
165.843964 108.0
165.978149 132.0
166.280899 216.0
166.558243 156.0
166.771545 188.0
166.804962 148.0
166.943832 188.0
167.13678 204.0
167.224304 164.0
167.306686 96.0
167.392487 112.0
167.419998 248.0
167.530762 192.0
168.143539 176.0
168.299454 48.0
168.915344 220.0
168.97673 176.0
169.670929 100.0
169.961472 184.0
170.155014 824.0
170.681091 44.0
170.777328 176.0
170.824158 136.0
170.852783 180.0
171.053192 52.0
171.071411 140.0
171.139603 796.0
171.165695 336.0
171.298004 132.0
171.443939 60.0
171.597748 200.0
171.686768 152.0
172.075272 148.0
172.093231 128.0
172.135406 332.0
172.172653 4356.0
172.279022 188.0
172.331268 60.0
172.427979 44.0
172.46196 264.0
172.634537 200.0
172.801971 40.0
172.835999 52.0
172.953781 112.0
173.053268 56.0
173.123108 168.0
173.157623 1304.0
173.178253 876.0
173.220901 108.0
173.278549 40.0
173.39447 256.0
173.501358 152.0
173.608871 240.0
173.716431 156.0
173.947388 144.0
173.981522 96.0
174.005157 32.0
174.034042 136.0
174.068726 96.0
174.099701 128.0
174.128448 364.0
174.156067 144.0
174.179504 200.0
174.190399 76.0
174.200165 164.0
174.2258 96.0
174.268158 164.0
174.328278 188.0
174.538605 44.0
174.567535 164.0
174.606995 52.0
174.964905 172.0
175.022842 136.0
175.103012 212.0
175.136185 2520.0
175.167389 192.0
175.348663 236.0
175.584229 200.0
175.771561 176.0
175.882431 148.0
176.027649 208.0
176.145477 11028.0
176.204651 124.0
176.326218 200.0
176.55098 36.0
176.59491 72.0
176.685898 208.0
176.823517 256.0
176.963837 160.0
177.074173 212.0
177.119415 136.0
177.150223 1172.0
177.53894 60.0
177.56546 124.0
177.68219 208.0
177.77774 36.0
177.830826 68.0
178.019348 32.0
178.11763 172.0
178.150909 156.0
178.57753 104.0
178.620102 144.0
178.931503 156.0
178.974121 224.0
179.137024 128.0
179.304489 68.0
179.573807 104.0
180.145126 96.0
180.407059 92.0
180.455185 236.0
180.572861 104.0
181.035919 200.0
181.132736 140.0
181.155319 148.0
181.386963 140.0
181.695404 152.0
181.805435 192.0
182.159302 696.0
183.10791 164.0
183.145126 152.0
183.508423 60.0
183.824066 204.0
184.185898 136.0
184.210205 180.0
184.294327 156.0
184.391266 208.0
184.439926 188.0
184.997757 160.0
185.224762 164.0
185.674759 80.0
185.720871 180.0
185.905396 148.0
186.073715 164.0
186.122589 116.0
186.157059 1472.0
186.383392 68.0
186.609024 120.0
186.821121 172.0
186.940933 224.0
186.962708 44.0
187.000809 116.0
187.019867 188.0
187.055252 172.0
187.087082 196.0
187.16539 29524.0
187.226822 284.0
187.24588 164.0
187.270401 88.0
187.311264 152.0
187.341232 64.0
187.380737 128.0
187.409363 48.0
187.458405 40.0
187.491119 88.0
187.572891 112.0
187.597443 88.0
187.747421 72.0
187.793793 188.0
187.851089 172.0
187.905655 76.0
187.932938 88.0
187.970734 132.0
188.047577 80.0
188.107635 112.0
188.16951 3056.0
188.205933 168.0
188.331573 76.0
188.454529 112.0
188.540527 112.0
188.563858 116.0
188.585724 52.0
188.615799 44.0
188.640396 180.0
188.695084 144.0
188.799011 232.0
188.97641 180.0
188.986847 152.0
189.026093 64.0
189.057541 204.0
189.121735 320.0
189.158234 11072.0
189.234161 76.0
189.276352 108.0
189.395584 64.0
189.443451 108.0
189.499786 124.0
189.532761 192.0
189.642395 88.0
189.713669 124.0
189.834335 232.0
189.867249 40.0
189.96875 168.0
190.161118 1304.0
190.188919 2712.0
190.223999 168.0
190.267334 56.0
190.476669 76.0
190.504135 148.0
190.614059 120.0
190.800995 44.0
191.106323 84.0
191.139343 116.0
191.167267 324.0
191.191254 596.0
191.670868 96.0
191.976898 32.0
192.170013 72.0
192.515121 68.0
193.192398 56.0
193.352905 80.0
193.715286 140.0
193.812668 184.0
194.342346 68.0
194.553314 116.0
195.314835 172.0
195.428909 52.0
195.654861 116.0
196.139877 64.0
196.465485 148.0
196.543625 148.0
197.146881 140.0
197.18602 64.0
197.306229 116.0
197.33699 156.0
198.194611 156.0
198.28891 88.0
198.647858 36.0
199.02681 96.0
199.094208 132.0
199.144806 348.0
199.200958 120.0
199.274017 148.0
199.524185 96.0
199.631668 92.0
200.143265 164.0
200.177872 1796.0
200.453171 108.0
200.611023 68.0
200.776566 80.0
201.073685 176.0
201.184097 1452.0
201.285446 96.0
201.344757 92.0
201.432327 84.0
201.505798 96.0
201.55101 44.0
202.082657 228.0
202.134918 328.0
202.193375 3008.0
202.493195 36.0
202.518036 208.0
202.578171 44.0
202.790726 104.0
202.870102 164.0
202.898468 144.0
203.141632 868.0
203.167923 212.0
203.197479 772.0
203.40918 164.0
203.605118 84.0
203.880737 128.0
203.926208 160.0
204.037094 88.0
204.153198 2704.0
204.174164 6452.0
204.221954 164.0
204.253769 80.0
204.338608 76.0
204.589096 56.0
204.691605 148.0
205.157776 2232.0
205.177048 1132.0
205.238785 164.0
205.575439 68.0
205.635376 168.0
205.715317 76.0
205.815262 100.0
206.100937 124.0
206.163147 216.0
206.190338 1840.0
206.261002 52.0
206.326767 52.0
206.371277 104.0
206.421127 96.0
206.641418 116.0
206.979218 80.0
207.148209 124.0
207.191589 396.0
207.245636 72.0
207.489288 108.0
207.512238 72.0
207.609741 112.0
207.715881 148.0
207.827789 112.0
208.097626 52.0
208.188812 176.0
208.703979 76.0
208.833984 200.0
208.893814 124.0
208.994537 76.0
209.101028 128.0
209.368805 144.0
209.435059 96.0
209.677124 64.0
210.103943 52.0
210.158768 140.0
210.591858 136.0
213.246277 88.0
213.615616 68.0
213.816406 204.0
214.160019 136.0
214.229935 120.0
214.597214 44.0
214.827652 240.0
215.142502 160.0
215.586914 136.0
215.61322 180.0
215.730148 80.0
215.967041 108.0
216.037262 76.0
216.180084 348.0
216.283096 128.0
216.344574 60.0
216.447067 112.0
216.581818 144.0
217.012665 96.0
217.036133 64.0
217.083054 156.0
217.115311 136.0
217.162323 15100.0
217.226212 100.0
217.245163 108.0
217.306015 76.0
217.355728 204.0
217.385254 96.0
217.457245 136.0
217.5056 72.0
217.540833 36.0
217.596619 32.0
217.634796 56.0
217.679779 104.0
217.822784 56.0
217.855103 172.0
217.9991 88.0
218.037308 148.0
218.194702 10504.0
218.33429 48.0
218.549057 96.0
218.752151 292.0
218.973022 28.0
219.083084 168.0
219.197281 1676.0
219.342331 156.0
219.46376 64.0
219.542587 76.0
219.565506 116.0
219.730728 100.0
219.825165 40.0
219.904846 100.0
219.966843 228.0
220.005234 44.0
220.20015 172.0
220.339005 56.0
220.48381 76.0
220.66832 64.0
220.712006 88.0
220.884583 160.0
220.915573 144.0
221.18959 212.0
221.273727 148.0
221.312225 64.0
221.404037 48.0
221.642593 124.0
222.154053 44.0
222.643875 216.0
222.836975 160.0
223.949722 56.0
224.085052 48.0
224.337158 64.0
224.683151 52.0
225.337097 192.0
227.150436 228.0
228.182846 172.0
229.16478 152.0
229.202301 220.0
229.238464 108.0
229.512817 52.0
230.153488 136.0
230.333832 44.0
230.968704 104.0
232.007538 80.0
232.190353 172.0
232.84819 60.0
233.459137 44.0
233.92778 172.0
234.19577 156.0
236.868912 60.0
238.85527 148.0
242.750488 188.0
243.231461 160.0
243.5327 144.0
243.58551 28.0
244.157501 108.0
244.213013 156.0
244.456192 104.0
244.683456 176.0
244.982468 180.0
245.113342 188.0
245.167221 8484.0
245.27951 72.0
245.309494 52.0
245.347137 144.0
245.496826 44.0
245.548294 80.0
245.621613 64.0
245.836411 124.0
245.902466 64.0
246.124146 136.0
246.173172 1420.0
246.199509 2216.0
246.408417 56.0
246.611572 52.0
246.839828 84.0
246.90863 76.0
247.021255 200.0
247.174057 484.0
247.201126 372.0
247.68811 72.0
247.778961 112.0
247.882385 120.0
247.919998 176.0
248.03598 124.0
248.083008 76.0
248.180206 48.0
248.210266 136.0
248.493912 56.0
249.533661 52.0
250.285767 100.0
251.322937 48.0
251.91658 52.0
251.970291 84.0
252.251602 36.0
253.318176 52.0
254.253693 36.0
254.3013 36.0
254.596603 68.0
255.862335 100.0
257.163116 188.0
257.233337 76.0
259.627014 152.0
259.758514 88.0
260.644775 48.0
262.199677 1024.0
262.250916 52.0
262.376648 60.0
263.180054 124.0
263.204681 276.0
264.195129 128.0
267.600159 152.0
271.253174 144.0
272.684479 36.0
273.454224 108.0
274.19696 276.0
275.21225 188.0
277.488281 40.0
277.92569 128.0
279.601227 52.0
281.795746 124.0
282.216949 136.0
284.156494 76.0
284.767548 100.0
285.039703 88.0
285.692078 48.0
286.205505 164.0
287.815735 48.0
288.430695 120.0
290.812256 64.0
292.345276 84.0
295.081329 52.0
297.342499 104.0
298.813446 64.0
301.842316 52.0
303.15448 80.0
307.355804 144.0
309.341248 68.0
309.849121 80.0
311.747711 96.0
314.220154 128.0
314.604675 96.0
314.869537 104.0
315.22287 224.0
317.630737 136.0
320.703369 40.0
324.324738 180.0
324.841187 120.0
326.263489 112.0
327.094604 44.0
327.865509 200.0
333.323517 112.0
334.298248 160.0
336.317627 152.0
341.815826 44.0
343.913147 76.0
344.481873 56.0
349.684967 48.0
350.698212 84.0
351.182983 36.0
354.308533 84.0
356.518951 68.0
358.525116 116.0
363.31662 188.0
363.407684 152.0
364.854919 128.0
365.273315 68.0
367.467987 120.0
370.293365 140.0
370.760834 56.0
375.841492 72.0
376.598267 136.0
377.038788 88.0
377.951569 60.0
381.275391 84.0
385.391083 108.0
386.290405 168.0
387.935364 68.0
389.355988 156.0
391.192505 80.0
392.820251 60.0
400.005737 124.0
400.431854 96.0
400.916504 108.0
402.270294 108.0
404.330963 1484.0
405.073944 44.0
405.338287 416.0
405.887665 100.0
406.338409 156.0
408.084351 132.0
410.008789 32.0
410.783051 160.0
412.863464 40.0
413.381378 48.0
422.353516 152.0
424.319794 76.0
425.304474 140.0
427.585938 56.0
431.426758 152.0
432.336884 96.0
433.310089 124.0
446.246582 44.0
448.048187 92.0
448.996765 152.0
449.874542 136.0
450.144806 104.0
450.351562 2972.0
450.436249 72.0
450.634857 64.0
450.740509 56.0
450.875732 52.0
450.985657 92.0
451.16745 64.0
451.355316 784.0
452.076965 64.0
452.357849 176.0
453.381531 192.0
453.483246 64.0
453.55957 32.0
455.562775 56.0
467.773804 68.0
469.238739 92.0
478.407471 84.0
483.239502 56.0
483.427673 80.0
501.302795 80.0
506.31601 188.0
526.19342 88.0
527.80658 48.0
543.980835 108.0
547.631531 72.0
555.246338 56.0
559.296997 60.0
578.822693 52.0
607.76239 116.0
631.636475 92.0
663.507019 128.0
669.653809 68.0
671.251648 96.0
675.063232 88.0
677.90564 64.0
691.359253 92.0
702.589722 76.0
704.511658 176.0
713.868164 92.0
726.700623 136.0
728.187866 128.0
731.522095 68.0
736.057068 20.0
736.132629 236.0
740.443481 48.0
740.925659 100.0
761.060181 40.0
792.588928 152.0
799.868652 40.0
805.943481 172.0
821.930176 192.0
861.990479 176.0
865.453857 48.0
867.053284 248.0
869.575623 124.0
871.684265 200.0
879.128845 112.0
879.41217 72.0
881.101257 112.0
884.064087 204.0
884.223938 40.0
900.320068 92.0
900.995117 128.0
901.389526 176.0
910.682922 40.0
913.267822 200.0
919.245178 176.0
929.831421 168.0
932.650024 224.0
947.628174 192.0
952.100647 196.0
966.267944 220.0
969.227966 224.0
975.758545 152.0
978.166443 172.0
981.93042 236.0
992.331238 184.0
992.557007 108.0
999.996277 124.0
1003.764221 152.0
1011.492188 196.0
1013.994446 132.0
1018.81134 208.0
1022.811829 180.0
1024.206543 60.0
1024.60791 80.0
1033.036011 160.0
1037.314331 160.0
1041.999878 136.0
1053.24939 132.0
1054.276855 48.0
1054.587158 192.0
1062.605347 240.0
1062.884399 204.0
1063.085571 172.0
1071.396484 132.0
1073.528198 36.0
1078.771973 132.0
1079.236206 128.0
1095.752441 152.0
1101.968506 120.0
1104.203125 224.0
1104.262695 140.0
1110.429688 36.0
1110.575684 136.0
1119.469482 200.0
1123.435913 128.0
1124.243286 36.0
1124.957642 92.0
1125.692139 152.0
1130.137939 64.0
1150.991821 120.0
1153.647461 116.0
1158.832397 76.0
1159.266113 180.0
1160.866211 112.0
1166.298462 76.0
1175.890015 216.0
1177.692749 120.0
1178.109497 96.0
1179.052612 228.0
1181.13147 156.0
1181.288818 136.0
1185.03418 224.0
1187.51416 224.0
1193.161499 148.0
1200.502686 124.0
1200.661377 172.0
1202.186157 196.0
1206.690552 160.0
1207.45813 140.0
1207.644897 208.0
1208.572144 208.0
1210.420532 140.0
1213.71936 128.0
1215.072021 84.0
1217.147705 156.0
1220.37915 148.0
1225.175171 68.0
1226.060303 160.0
1226.861938 216.0
1228.759277 220.0
1229.806152 208.0
1231.670776 116.0
1233.299072 76.0
1234.606689 124.0
1235.64209 140.0
1236.691895 160.0
1237.651123 80.0
1237.78418 152.0
1237.833252 148.0
1238.141357 180.0
1238.764893 140.0
1239.416504 236.0
1240.495972 188.0
1246.843994 196.0
1247.622437 148.0
1252.859253 228.0
1255.447388 144.0
1256.215332 156.0
1258.820068 156.0
1259.16626 188.0
1261.144775 144.0
1262.368042 192.0
1263.9104 32.0
1268.025513 196.0
1268.698975 36.0
1269.542847 164.0
1271.543823 212.0
1281.101807 216.0
1281.63623 156.0
1283.133301 156.0
1284.03894 160.0
1292.985229 152.0
1294.782471 136.0
1295.749634 48.0
1309.062256 176.0
1311.201416 124.0
1316.963135 200.0
1318.918213 144.0
1319.829224 140.0
1320.212524 200.0
1322.455688 56.0
1322.738037 176.0
1323.404175 176.0
1326.527222 52.0
1329.63208 92.0
1334.230713 140.0
1335.41626 80.0
1336.318359 204.0
1336.589722 244.0
1336.835083 228.0
1336.900635 84.0
1339.980469 208.0
1340.22168 184.0
1341.993042 92.0
1342.510864 52.0
1342.634888 172.0
1343.021484 148.0
1345.108765 152.0
1345.911865 168.0
1346.350098 120.0
1347.029541 252.0
1347.29248 148.0
1347.533691 196.0
1348.176758 132.0
1349.295288 236.0
1350.399658 48.0
1351.505005 160.0
1353.078369 176.0
1353.627563 180.0
1353.854614 120.0
1356.463379 132.0
1360.528076 72.0
1361.387207 148.0
1361.769165 84.0
1362.614136 176.0
1362.864014 152.0
1364.731201 96.0
1365.885986 120.0
1366.401001 188.0
1368.940796 168.0
1371.269165 304.0
1373.127441 188.0
1373.621704 176.0
1377.224365 120.0
1380.654297 192.0
1382.696533 80.0
1384.766235 148.0
1385.325439 124.0
1385.651489 160.0
1386.918945 132.0
1387.437866 168.0
1396.268066 196.0
1397.62207 148.0
1397.942139 204.0
1398.440918 164.0
1399.773682 180.0
1401.047485 164.0
1405.476929 192.0
1407.276001 156.0
1407.686768 56.0
1410.840332 188.0
1411.490845 168.0
1411.8125 144.0
1411.864868 132.0
1412.9646 92.0
1413.278809 176.0
1419.219482 184.0
1420.487183 200.0
1422.918945 168.0
1431.010132 108.0
1435.365967 108.0
1436.467285 172.0
1436.679932 100.0
1439.320557 128.0
1443.477173 152.0
1443.71167 176.0
1444.331909 236.0
1447.230835 204.0
1447.670166 212.0
1448.503418 152.0
1451.171387 152.0
1453.303101 160.0
1453.841919 156.0
1455.079346 172.0
1455.337524 192.0
1456.317383 116.0
1458.194336 100.0
1462.6521 64.0
1462.857666 164.0
1464.982666 160.0
1469.618774 192.0
1469.725586 116.0
1472.52771 124.0
1474.170532 156.0
1474.789673 92.0
1476.609619 232.0
1477.328735 112.0
1478.599121 164.0
1481.064819 172.0
1482.858032 180.0
1483.156982 160.0
1484.046387 72.0
1484.199829 144.0
1487.115479 176.0
1489.09668 192.0
1492.217041 156.0
1492.424561 152.0
1493.701416 264.0
1498.244019 188.0
1498.729492 164.0
1499.292114 148.0
1500.77356 132.0
1502.423096 136.0
1503.657959 60.0
1504.105713 112.0
