>compound Tolcapone
>formula C14H11NO5
>ionization [M+H]+
>parentmass 274.072205
#inchi InChI=1S/C14H11NO5/c1-8-2-4-9(5-3-8)13(17)10-6-11(15(19)20)14(18)12(16)7-10/h2-7,16,18H,1H3
#inchikey MIQPIUSUKVNLNT
#Ion_Source LC-ESI
#Instrument qTof
#Compound_Source Commercial
#PI Dorrestein
#Data_Collector Garg_Neha
#Scan -1
#Precursor_MZ 274.071
#ExactMass 273.064
#Charge 1
#CAS_Number 134308-13-7
#Pubmed_ID N/A
#Smiles C1(C(C2=CC=C(C=C2)C)=O)C=C(C(=C(C=1)O)O)[N+](=O)[O-]
#INCHI_AUX N/A
#Library_Class 1
#SpectrumID CCMSLIB00000078626
#IonMode Positive
#UpdateWorkflowName UPDATE-SINGLE-ANNOTATED-GOLD
#LibraryQualityString Gold
#TaskID 77f51c88eb8b467eb4a01dd2d0cb90d2
##Scan# 1493
#SpectrumFile Plate10_1_20_GC1_01_15743.mzXML
#LibraryName FDALibrary_2_04302014.mgf
#MQScore -1
#Organism FDALibrary_2_04302014
#TIC_Query 0
#RT_Query -1
#MZErrorPPM -1
#SharedPeaks 0
#MassDiff 0
#LibMZ -1
#SpecMZ 274.071
#SpecCharge 0
#internalFilename spec-00000.mgf

>collision 10
47.895828 196.0
50.015232 204.0
57.269112 160.0
58.869175 208.0
59.182648 200.0
65.030045 224.0
77.227158 148.0
80.754173 152.0
83.135956 196.0
84.486122 184.0
84.953262 164.0
85.429054 152.0
87.501831 140.0
91.057831 480.0
92.053886 180.0
95.957527 164.0
97.26825 188.0
97.94664 148.0
108.020287 620.0
108.132034 164.0
109.021736 232.0
110.176071 200.0
110.224121 160.0
111.378487 208.0
112.133835 228.0
113.957947 156.0
114.6623 156.0
114.856323 180.0
117.548874 144.0
119.049515 2736.0
119.298912 168.0
120.053047 416.0
120.781738 196.0
121.15168 160.0
122.291328 192.0
122.734123 188.0
123.007118 596.0
124.014122 100.0
135.584793 160.0
135.965134 148.0
136.016068 1780.0
137.039444 256.0
138.026779 140.0
138.340286 180.0
138.441315 132.0
141.076202 160.0
149.109146 156.0
151.002869 2604.0
151.040207 164.0
152.008957 164.0
153.067398 144.0
155.177521 164.0
160.0121 240.0
160.064972 216.0
161.75145 172.0
162.859528 168.0
163.093277 148.0
165.005096 184.0
165.990952 164.0
168.694336 176.0
170.0672 168.0
170.903992 180.0
170.987259 168.0
171.962006 160.0
172.076859 156.0
179.814301 220.0
181.899902 248.0
182.009506 21412.0
182.056274 176.0
182.384399 104.0
183.01207 1852.0
183.103928 156.0
184.013046 336.0
184.072067 164.0
184.216782 172.0
185.636154 140.0
188.117508 152.0
194.168259 160.0
196.423965 144.0
199.07164 152.0
203.479309 212.0
211.060333 172.0
211.836502 212.0
212.067978 192.0
212.543915 248.0
228.071487 164.0
228.603806 180.0
230.557968 304.0
234.47905 180.0
243.978516 140.0
248.008499 148.0
256.084656 152.0
258.751038 156.0
271.148376 148.0
272.198151 144.0
272.243073 164.0
273.459442 144.0
274.072205 29944.0
274.209656 152.0
275.07431 4384.0
276.023865 188.0
276.075867 656.0
277.142426 124.0
277.208923 152.0
1462.559814 144.0
1484.164551 192.0
1553.512329 172.0
1558.654785 140.0
1569.533081 148.0
1593.920898 156.0
1628.400513 172.0
1641.550537 204.0
1689.071533 216.0
1699.180542 224.0
1853.294434 148.0
1889.627441 144.0
1905.729248 180.0
1907.058838 232.0
1952.074585 196.0
1971.141479 236.0
1979.314819 212.0
