>compound MLS000515960-01!
>formula C9H14N2
>ionization [M+H]+
>parentmass 151.124
#inchi InChI=1S/C9H14N2/c1-4-8-9(5-2)11-7(3)6-10-8/h6H,4-5H2,1-3H3
#inchikey PSINWXIDJYEXLO
#Ion_Source LC-ESI
#Instrument qTof
#Compound_Source NIH Natural Product Library
#PI Dorrestein
#Data_Collector VVP/LMS
#Scan -1
#Precursor_MZ 151.124
#ExactMass 150.116
#Charge 1
#CAS_Number N/A
#Pubmed_ID N/A
#Smiles CCc1ncc(C)nc1CC
#INCHI_AUX N/A
#Library_Class 1
#SpectrumID CCMSLIB00000079938
#IonMode Positive
#UpdateWorkflowName UPDATE-SINGLE-ANNOTATED-GOLD
#LibraryQualityString Gold
#TaskID b1d8e8f6646f4e71acdff9ca3d919d08
##Scan# 1718
#SpectrumFile p2-A02_GA2_01_17979.mzXML
#LibraryName NIH_Natural_Products_Library.mgf
#MQScore -1
#Organism NIH_Natural_Products_Library
#TIC_Query 0
#RT_Query -1
#MZErrorPPM -1
#SharedPeaks 0
#MassDiff 0
#LibMZ -1
#SpecMZ 151.124
#SpecCharge 0
#internalFilename spec-00000.mgf

>collision 10
95.05706 140.0
95.389183 124.0
96.782188 204.0
101.071815 188.0
107.059029 540.0
107.809769 208.0
108.069595 232.0
108.310471 148.0
109.075768 208.0
111.934158 80.0
115.690239 180.0
116.961067 112.0
119.058334 140.0
120.050713 200.0
120.861137 108.0
121.074348 128.0
121.369316 188.0
122.6819 172.0
123.059166 168.0
123.096703 148.0
126.131676 136.0
133.043823 152.0
133.06897 152.0
134.035141 164.0
134.085831 284.0
134.63031 180.0
134.942245 60.0
135.091995 2636.0
135.148102 48.0
135.194382 36.0
135.418961 84.0
135.449066 60.0
136.100281 608.0
136.126312 84.0
140.053192 188.0
150.7995 116.0
151.117401 200.0
151.276489 60.0
152.139404 160.0
152.955551 184.0
181.308731 80.0
722.218567 188.0
1059.670288 128.0
1207.747314 212.0
1230.659668 20.0
1244.151001 216.0
1246.166626 212.0
1266.554443 156.0
1270.190674 152.0
1270.736938 164.0
1289.507935 204.0
1298.25647 176.0
1341.815796 136.0
1376.647583 192.0
1390.966431 204.0
