>compound Piroxicam
>formula C15H13N3O4S 
>ionization [M+H]+
>parentmass 332.069977
#inchi InChI=1S/C15H13N3O4S/c1-18-13(15(20)17-12-8-4-5-9-16-12)14(19)10-6-2-3-7-11(10)23(18,21)22/h2-9,19H,1H3,(H,16,17,20)
#inchikey QYSPLQLAKJAUJT
#Ion_Source LC-ESI
#Instrument qTof
#Compound_Source Isolated
#PI Sirenas
#Data_Collector Ed Esquenazi 
#Scan -1
#Precursor_MZ 332.071
#ExactMass 0.0
#Charge 1
#CAS_Number N/A
#Pubmed_ID N/A
#Smiles N/A
#INCHI_AUX N/A
#Library_Class 3
#SpectrumID CCMSLIB00000006204
#IonMode Positive
#UpdateWorkflowName UPDATE-SINGLE-ANNOTATED-BRONZE
#LibraryQualityString Bronze
#TaskID d19310cd93df49b68e9fcbec27720eb5
##Scan# 2
#SpectrumFile Piroxicam.mgf
#LibraryName fda_library.mgf
#MQScore -1
#Organism fda_library
#TIC_Query 0
#RT_Query -1
#MZErrorPPM -1
#SharedPeaks 0
#MassDiff 0
#LibMZ -1
#SpecMZ 332.071
#SpecCharge 0
#internalFilename spec-00000.mgf

>collision 10
105.044762 125.1632
107.059479 203.6073
107.51561 10.01042
109.009178 12.08844
120.324577 20.196079
120.339035 12.21689
120.383423 19.183661
120.430229 14.24534
120.44397 27.245649
120.475311 13.47016
120.54071 14.25566
120.608574 10.4289
120.667709 14.55435
120.839256 33.35125
120.863457 13.29574
120.980286 10.70032
121.039558 9826.066406
121.084473 11.2
121.099472 16.733801
121.166115 36.02179
121.211761 26.228239
121.252281 10.55075
121.26458 28.537621
121.279922 33.898811
121.332413 11.67544
121.362144 28.975451
121.393715 20.19943
121.475113 13.47405
121.6548 15.74083
122.411186 10.19112
122.462135 10.56019
122.49189 11.35929
123.056335 218.682693
133.040817 57.866669
135.055923 126.738403
136.087646 363.608795
136.350815 12.01571
136.577606 13.68532
137.006058 39.675072
138.721436 12.83333
140.023376 13.33356
146.057388 39.78698
149.035736 15.12591
149.059433 80.412132
149.843369 10.4037
152.99942 205.785202
162.000381 24.548531
162.065689 592.815979
163.334518 22.821779
164.013809 154.254898
164.081726 4339.708984
164.137863 35.37669
164.201126 16.691339
164.246735 15.01957
164.31543 18.917299
164.410461 19.61639
164.430344 20.23173
164.444275 11.30293
164.492706 11.55694
164.698776 11.52515
164.744644 11.75515
164.7883 10.57207
165.083847 36.507938
165.880203 14.84043
167.330566 13.49135
168.996323 186.079102
194.02713 314.90979
210.021484 331.365906
222.098129 12.78237
238.016052 49.531761
241.03923 17.91338
267.088745 10.20833
296.04538 14.00641
314.054474 38.502319
330.760468 10.27554
332.069977 835.145508
332.211914 17.496361
332.625336 10.43291
332.693604 10.0123
332.872589 14.73687
333.252472 10.91153
