>compound MLS001049018-01!5,7-dimethoxy-4-phenylchromen-2-one
>formula C17H14O4
>ionization [M+H]+
>parentmass 283.09726
#inchi InChI=1S/C17H14O4/c1-19-12-8-14(20-2)17-13(11-6-4-3-5-7-11)10-16(18)21-15(17)9-12/h3-10H,1-2H3
#inchikey YYLAUZVFWOZLCG
#Ion_Source LC-ESI
#Instrument qTof
#Compound_Source NIH Natural Product Library
#PI Dorrestein
#Data_Collector VVP/LMS
#Scan -1
#Precursor_MZ 283.097
#ExactMass 282.089
#Charge 1
#CAS_Number N/A
#Pubmed_ID N/A
#Smiles COc1cc(OC)c2c(cc(=O)oc2c1)c3ccccc3
#INCHI_AUX N/A
#Library_Class 1
#SpectrumID CCMSLIB00000079564
#IonMode Positive
#UpdateWorkflowName UPDATE-SINGLE-ANNOTATED-GOLD
#LibraryQualityString Gold
#TaskID b1d8e8f6646f4e71acdff9ca3d919d08
##Scan# 2424
#SpectrumFile p1-C08_GC8_01_17904.mzXML
#LibraryName NIH_Natural_Products_Library.mgf
#MQScore -1
#Organism NIH_Natural_Products_Library
#TIC_Query 0
#RT_Query -1
#MZErrorPPM -1
#SharedPeaks 0
#MassDiff 0
#LibMZ -1
#SpecMZ 283.097
#SpecCharge 0
#internalFilename spec-00000.mgf

>collision 10
95.285202 132.0
95.512642 68.0
95.65274 176.0
95.681938 136.0
95.892311 196.0
96.013184 172.0
96.223915 184.0
96.241486 204.0
96.262962 124.0
96.284447 136.0
96.393845 92.0
96.689125 60.0
96.957428 48.0
97.018188 168.0
97.067207 204.0
97.186852 176.0
97.237877 160.0
97.455841 160.0
97.556068 176.0
98.042221 192.0
98.097412 140.0
98.119095 212.0
98.170357 128.0
98.190079 228.0
98.343971 232.0
98.407135 308.0
98.652107 100.0
98.758888 160.0
98.839996 204.0
98.915199 80.0
99.15287 156.0
99.744331 140.0
100.08651 44.0
100.343529 148.0
100.487122 192.0
100.51506 156.0
100.810593 100.0
100.870552 152.0
101.010521 200.0
101.475121 212.0
101.707817 108.0
101.745956 176.0
101.858414 164.0
102.155914 160.0
102.264565 148.0
102.288719 172.0
102.377312 160.0
102.697746 100.0
102.824852 164.0
103.056465 376.0
103.589134 220.0
103.639786 204.0
103.716797 168.0
103.757339 168.0
103.797882 104.0
104.114449 172.0
104.24852 156.0
104.57798 116.0
104.779572 108.0
104.875351 144.0
105.033722 1068.0
105.136398 192.0
105.371216 92.0
105.749512 144.0
105.804779 140.0
105.876442 224.0
106.03009 140.0
106.767097 156.0
107.009895 112.0
107.051079 248.0
107.089455 164.0
107.10463 132.0
107.279778 132.0
107.325134 180.0
107.384933 116.0
107.432373 128.0
107.531418 140.0
107.669739 188.0
107.998352 96.0
108.346107 176.0
108.565811 136.0
108.592773 112.0
108.835571 164.0
108.889557 200.0
108.914482 128.0
108.947716 184.0
108.972649 164.0
109.03109 160.0
109.082794 196.0
109.553009 232.0
109.559029 224.0
109.682274 40.0
109.865776 88.0
109.945892 224.0
109.978455 176.0
110.053604 104.0
110.103722 164.0
110.523888 32.0
110.565735 80.0
110.632713 136.0
110.817009 192.0
111.024529 96.0
111.046104 148.0
111.123108 216.0
111.204948 204.0
111.459053 152.0
111.530502 144.0
111.595673 48.0
111.696609 136.0
111.831268 128.0
112.065018 180.0
112.088196 208.0
112.334862 40.0
112.545906 132.0
112.664177 188.0
112.934738 116.0
113.038399 132.0
113.061676 184.0
113.192924 104.0
113.226807 188.0
113.267052 140.0
113.684715 188.0
113.7314 140.0
113.90976 164.0
114.045753 92.0
114.115898 104.0
114.145668 208.0
114.309456 148.0
114.616081 208.0
114.950851 116.0
115.034088 208.0
115.056808 796.0
115.164337 124.0
115.202782 100.0
115.33313 204.0
115.397255 196.0
115.420776 40.0
115.514877 52.0
115.549103 88.0
115.673225 92.0
115.973099 148.0
116.059174 52.0
116.146767 140.0
116.181091 172.0
116.27121 152.0
116.34848 156.0
116.498802 116.0
116.586899 128.0
116.730927 108.0
117.068764 156.0
117.402786 152.0
117.480431 108.0
117.495529 180.0
117.562416 148.0
117.596947 188.0
117.61422 208.0
117.792969 276.0
117.983597 156.0
117.998734 88.0
118.016029 196.0
118.234505 92.0
118.269135 252.0
118.474838 172.0
118.581017 136.0
118.758797 184.0
118.895477 144.0
118.997498 116.0
119.01487 216.0
119.051781 180.0
119.069153 68.0
119.11911 168.0
119.232094 168.0
119.345131 112.0
119.48867 360.0
119.527832 180.0
119.614891 132.0
120.323364 164.0
120.782265 164.0
120.804138 152.0
120.843521 236.0
120.922295 164.0
121.022987 132.0
121.062401 320.0
121.142937 192.0
121.261765 164.0
121.689507 148.0
121.731224 204.0
121.748795 148.0
121.948715 220.0
122.014664 120.0
122.069626 176.0
122.107018 40.0
122.318237 152.0
122.569298 184.0
122.690514 180.0
122.778717 148.0
122.805176 236.0
122.875763 120.0
123.284248 152.0
123.325829 128.0
123.458893 156.0
123.607101 192.0
123.996849 172.0
124.036545 180.0
124.291779 200.0
124.42939 116.0
125.01841 56.0
125.058464 144.0
125.185364 160.0
125.261086 144.0
125.314552 136.0
125.642281 184.0
125.696686 52.0
125.760544 164.0
125.932465 236.0
125.981606 184.0
126.1492 52.0
126.265465 116.0
126.719864 44.0
126.840881 228.0
126.861053 96.0
127.053459 160.0
127.103271 228.0
127.242424 132.0
127.3255 172.0
127.669342 52.0
127.748062 192.0
127.856056 192.0
128.00914 168.0
128.031647 92.0
128.059509 292.0
128.105988 104.0
128.198349 140.0
128.579468 156.0
128.751053 144.0
128.999588 40.0
129.036987 212.0
129.068802 244.0
129.126205 128.0
129.549469 176.0
129.610641 168.0
129.635559 112.0
129.703552 152.0
130.074326 176.0
130.34581 92.0
130.584503 176.0
130.711899 156.0
130.752869 164.0
130.79155 164.0
130.834808 60.0
130.907669 104.0
130.973709 176.0
131.057999 196.0
131.226654 160.0
131.347107 112.0
131.495819 216.0
131.589417 92.0
131.625748 136.0
131.7173 96.0
131.841095 236.0
131.950394 192.0
132.028122 120.0
132.073868 204.0
132.355362 152.0
132.45285 180.0
132.8871 136.0
133.066513 188.0
133.518784 188.0
133.613083 76.0
133.771866 224.0
133.790283 212.0
133.815613 164.0
133.843246 128.0
134.03447 180.0
134.341049 116.0
134.583374 56.0
134.717331 176.0
135.044189 180.0
135.304718 132.0
135.371857 52.0
135.478409 156.0
135.531693 104.0
135.568771 144.0
135.761169 64.0
136.008911 128.0
136.076035 172.0
136.223038 216.0
136.318298 172.0
136.462402 132.0
136.841644 188.0
136.856339 156.0
137.300674 136.0
137.37532 172.0
137.508316 156.0
137.636703 144.0
138.032196 792.0
138.272537 136.0
138.443436 108.0
138.724594 172.0
138.81369 176.0
139.053406 428.0
139.626205 100.0
139.706177 72.0
139.795578 184.0
139.830887 180.0
139.847366 128.0
139.927399 140.0
140.057602 296.0
140.144623 120.0
140.514221 180.0
140.627487 36.0
140.669983 56.0
140.733719 160.0
141.017197 132.0
141.069794 3228.0
141.22052 60.0
141.40033 164.0
141.625244 216.0
141.667892 236.0
141.684464 68.0
141.819534 76.0
141.900131 32.0
142.040039 120.0
142.073227 160.0
142.127823 208.0
142.19722 160.0
142.367569 120.0
142.474457 112.0
142.761215 172.0
142.778702 168.0
142.800095 176.0
143.052307 308.0
143.085648 132.0
143.209473 144.0
143.445358 172.0
143.48349 236.0
143.531189 92.0
143.584427 192.0
143.67099 180.0
143.714844 184.0
143.984573 136.0
144.125519 188.0
144.158966 140.0
144.383682 44.0
144.546341 164.0
144.850403 96.0
144.916168 184.0
145.06366 176.0
145.19313 168.0
145.282028 204.0
145.526672 164.0
145.615524 180.0
146.040924 440.0
146.182861 112.0
146.377106 196.0
146.404327 124.0
146.77301 108.0
147.004578 164.0
147.048981 316.0
147.084229 172.0
147.156647 172.0
147.383682 196.0
147.535934 148.0
147.555283 128.0
147.770523 164.0
147.804398 104.0
147.847961 200.0
147.975494 156.0
148.155457 80.0
148.325089 172.0
148.674332 136.0
148.751999 180.0
148.934113 168.0
148.965759 128.0
149.024826 164.0
149.057205 184.0
149.870697 136.0
150.029572 128.0
150.063232 156.0
150.187607 172.0
150.277863 132.0
150.526825 80.0
150.736908 44.0
150.849319 200.0
150.890884 44.0
150.956894 168.0
151.000916 172.0
151.052429 296.0
151.074295 68.0
151.130783 132.0
151.206421 172.0
151.25293 212.0
151.321472 52.0
151.458603 116.0
151.52475 192.0
151.644821 148.0
151.688934 152.0
151.725708 172.0
151.757584 224.0
151.791901 128.0
152.061646 2856.0
152.162399 64.0
152.322021 116.0
152.491547 164.0
152.616913 56.0
152.64888 368.0
152.872726 164.0
152.909653 104.0
152.931793 168.0
152.953949 132.0
153.069839 2380.0
153.148468 132.0
153.242661 84.0
153.441696 72.0
153.542801 44.0
153.589661 36.0
154.026001 184.0
154.076935 1112.0
154.147614 136.0
154.174789 96.0
154.224213 72.0
154.357712 212.0
154.392334 140.0
154.619934 172.0
154.756073 128.0
154.813034 224.0
154.857605 84.0
154.919525 176.0
155.025772 200.0
155.049728 432.0
155.087234 472.0
155.259094 124.0
155.308701 180.0
155.326065 168.0
155.400482 180.0
155.47493 128.0
156.050278 152.0
156.076065 160.0
156.257629 160.0
156.426849 152.0
156.494064 172.0
156.632141 244.0
156.870239 260.0
157.039795 164.0
157.067169 184.0
157.336731 148.0
157.608963 96.0
157.936447 112.0
158.066544 172.0
158.50975 180.0
158.630051 228.0
158.712784 216.0
158.838165 52.0
159.224686 164.0
159.26738 160.0
159.305069 56.0
159.327667 84.0
159.513626 136.0
159.689636 172.0
159.732391 108.0
159.800323 36.0
159.873291 48.0
159.933685 132.0
160.014236 44.0
160.4879 188.0
160.838562 108.0
161.064331 384.0
161.291901 224.0
161.771301 200.0
161.859909 92.0
161.940948 144.0
162.032135 192.0
162.062531 232.0
162.265289 244.0
162.485931 204.0
162.686417 140.0
162.747345 76.0
163.000595 160.0
163.054459 1160.0
163.220947 164.0
163.347107 36.0
163.446945 164.0
163.790009 68.0
163.840958 140.0
164.057327 756.0
164.447693 144.0
164.695496 180.0
164.797684 180.0
164.963791 200.0
165.009811 224.0
165.070663 6240.0
165.106979 56.0
165.706879 192.0
165.810989 144.0
165.852005 156.0
165.895584 144.0
165.921219 44.0
166.026901 816.0
166.076385 1448.0
166.129883 184.0
166.295715 40.0
166.460022 60.0
166.727173 168.0
166.791428 208.0
166.835129 148.0
166.937973 120.0
167.042419 232.0
167.05011 180.0
167.083099 1036.0
167.161774 48.0
167.179779 52.0
167.226105 48.0
167.251846 192.0
167.365112 184.0
167.39859 96.0
167.435074 168.0
167.481003 76.0
167.514481 80.0
167.553131 56.0
167.834061 216.0
167.983917 72.0
168.057358 1972.0
168.200394 100.0
168.329468 100.0
168.355301 40.0
168.409531 116.0
168.461197 184.0
168.496841 260.0
168.611053 32.0
168.631729 148.0
168.742874 156.0
168.773911 120.0
168.804932 184.0
168.854065 128.0
168.913559 128.0
168.936829 140.0
168.975647 196.0
169.02739 44.0
169.065598 2080.0
169.094666 108.0
169.203064 144.0
169.452011 96.0
169.532333 144.0
169.846649 188.0
169.883392 180.0
170.027649 152.0
170.071945 480.0
170.297653 244.0
170.318436 140.0
170.40416 160.0
170.617279 140.0
170.71608 80.0
170.809708 80.0
170.924179 108.0
171.039642 172.0
171.077667 180.0
171.148026 48.0
171.361588 152.0
171.658722 244.0
171.843918 124.0
171.87262 164.0
171.984833 176.0
172.047485 156.0
172.167587 156.0
172.238953 208.0
172.316483 44.0
172.402695 144.0
172.465424 156.0
172.815842 164.0
172.975479 188.0
173.017365 160.0
173.034119 132.0
173.098526 124.0
173.153519 116.0
173.17186 124.0
173.633118 212.0
173.759018 120.0
173.945343 176.0
174.024094 76.0
174.270981 204.0
174.383972 124.0
174.641632 156.0
174.675827 252.0
174.694244 240.0
175.025848 104.0
175.067993 184.0
175.365677 196.0
175.42894 124.0
175.556778 256.0
175.996155 96.0
176.014648 116.0
176.061859 956.0
176.198273 132.0
176.307861 108.0
176.529907 208.0
176.908264 124.0
177.06871 844.0
177.220764 160.0
177.552109 168.0
178.078659 1768.0
178.252914 176.0
178.306076 72.0
178.618973 180.0
178.720901 136.0
179.053009 168.0
179.083649 1120.0
179.154297 192.0
179.701385 136.0
179.728058 124.0
179.832443 172.0
179.944244 156.0
179.962936 120.0
179.986969 140.0
180.057938 2684.0
180.149887 164.0
180.168579 56.0
180.195297 80.0
180.310196 140.0
180.390381 200.0
180.465027 152.0
180.496674 164.0
180.788895 28.0
180.877213 156.0
180.989655 128.0
181.016434 156.0
181.051941 10700.0
181.107864 228.0
181.134262 44.0
181.212753 176.0
181.278946 172.0
181.348618 48.0
181.386139 48.0
181.461212 260.0
181.488022 84.0
181.517517 108.0
181.541641 128.0
181.595276 132.0
181.642136 136.0
181.689163 184.0
181.799179 104.0
181.839432 124.0
181.941422 68.0
182.02594 168.0
182.066299 828.0
182.188492 48.0
182.212662 140.0
182.239532 60.0
182.266403 96.0
182.287903 64.0
182.333588 164.0
182.537888 176.0
182.572845 120.0
182.599747 68.0
182.776077 124.0
183.006073 92.0
183.05101 508.0
183.070084 160.0
183.081757 188.0
183.248474 32.0
183.286194 40.0
183.353561 68.0
183.426331 68.0
183.536865 160.0
183.760727 152.0
183.801193 104.0
183.833572 208.0
184.003616 96.0
184.052582 180.0
184.08284 164.0
184.135208 220.0
184.273697 108.0
184.381775 136.0
184.711624 48.0
184.77655 88.0
184.903732 204.0
185.036362 72.0
185.058029 148.0
185.093216 84.0
185.196136 152.0
185.225922 172.0
185.402023 88.0
185.678558 144.0
185.757202 200.0
185.816895 76.0
185.947144 192.0
186.028564 212.0
186.191467 156.0
186.234924 152.0
186.253937 108.0
186.359894 144.0
187.075134 168.0
187.265732 108.0
188.029114 152.0
188.250305 148.0
188.272079 340.0
188.712006 112.0
189.456406 208.0
189.727707 152.0
190.935852 72.0
191.047638 496.0
191.45047 104.0
191.789337 36.0
191.83345 168.0
191.987839 136.0
192.056213 1680.0
192.169891 144.0
192.310623 108.0
192.52597 156.0
192.661316 192.0
192.879608 48.0
193.015076 152.0
193.062988 604.0
193.096237 228.0
193.1633 136.0
193.286148 124.0
193.349792 92.0
193.413452 180.0
193.482651 132.0
193.535263 192.0
193.734665 144.0
193.887054 212.0
194.003464 160.0
194.036728 160.0
194.072403 780.0
194.23085 108.0
194.533295 56.0
194.760986 116.0
195.04718 376.0
195.081467 3060.0
195.116898 248.0
195.230682 60.0
195.44487 116.0
195.46434 196.0
195.584015 148.0
195.656387 140.0
195.700928 136.0
195.720932 176.0
195.764969 104.0
195.881943 128.0
195.940445 64.0
195.96553 72.0
196.051941 1860.0
196.086304 1708.0
196.263748 44.0
196.531509 100.0
196.59996 68.0
196.712906 40.0
197.014496 60.0
197.059662 1732.0
197.092239 948.0
197.129059 204.0
197.182144 36.0
197.263214 156.0
197.302338 68.0
197.419769 168.0
197.464523 72.0
197.4897 152.0
197.870255 112.0
197.945862 60.0
198.029861 100.0
198.070114 316.0
198.172729 160.0
198.321259 64.0
198.399734 64.0
198.499908 192.0
198.643707 164.0
198.783981 156.0
198.904663 188.0
199.075928 164.0
199.104004 180.0
199.286591 104.0
199.373703 48.0
199.826401 160.0
199.888306 192.0
200.155716 236.0
200.386673 184.0
200.600845 48.0
200.643127 208.0
200.744629 108.0
201.060577 124.0
201.211685 172.0
201.684753 136.0
202.522263 52.0
202.587402 132.0
202.638397 108.0
202.967178 100.0
203.091965 40.0
203.287704 128.0
203.31041 184.0
203.614182 180.0
203.63974 108.0
203.665298 108.0
204.541061 72.0
204.694794 120.0
205.064163 292.0
205.088745 184.0
205.381607 112.0
205.86705 200.0
206.538406 148.0
206.86174 152.0
206.924728 156.0
207.043808 380.0
207.082474 1168.0
207.369675 168.0
207.47583 164.0
207.615265 104.0
207.905014 80.0
207.953796 196.0
207.97963 176.0
208.051926 3276.0
208.085434 1016.0
208.217926 160.0
208.338562 52.0
208.404144 92.0
208.485107 128.0
208.522461 132.0
208.57132 68.0
208.611572 232.0
208.687836 136.0
208.724319 128.0
208.784073 92.0
208.807083 44.0
208.878998 88.0
208.927887 48.0
208.948029 120.0
209.058884 2060.0
209.099991 520.0
209.135071 120.0
209.227188 44.0
209.376907 100.0
209.467819 212.0
209.569916 108.0
209.610245 176.0
209.711105 128.0
209.771637 92.0
210.063141 544.0
210.103592 144.0
210.285049 164.0
210.360107 196.0
210.446701 104.0
210.475586 156.0
210.504456 152.0
210.599762 64.0
210.657532 84.0
210.680634 176.0
210.954147 148.0
210.995636 60.0
211.034378 168.0
211.075912 5792.0
211.153412 92.0
211.174088 180.0
211.19516 184.0
211.284836 192.0
211.461349 180.0
211.484497 176.0
211.652405 72.0
211.707413 160.0
211.727692 84.0
211.768234 40.0
211.944946 80.0
212.041077 140.0
212.078339 1128.0
212.266693 208.0
212.298584 68.0
212.339188 104.0
212.458115 56.0
212.577072 76.0
212.69606 44.0
212.951569 60.0
212.980606 152.0
213.029984 52.0
213.050323 156.0
213.081146 340.0
213.134583 188.0
213.364182 40.0
213.515381 76.0
213.550812 196.0
213.696945 228.0
213.730026 132.0
213.934372 72.0
214.980713 172.0
215.196701 156.0
215.436188 156.0
215.51506 92.0
215.801498 32.0
215.953552 120.0
216.026672 192.0
216.275391 156.0
216.348572 132.0
216.412979 92.0
216.465683 176.0
216.515472 136.0
216.535965 168.0
217.054657 220.0
217.166092 192.0
217.353851 100.0
217.832382 104.0
218.04393 40.0
218.114471 180.0
218.84404 60.0
219.047806 496.0
219.120895 140.0
219.613174 120.0
219.751816 20.0
220.049973 176.0
220.206406 156.0
220.442734 140.0
220.593475 148.0
220.614166 88.0
220.880295 168.0
220.96904 196.0
221.059967 372.0
221.199875 32.0
221.291641 128.0
221.380463 184.0
222.068024 188.0
222.154037 188.0
222.201508 244.0
222.296448 76.0
222.709106 176.0
222.77742 212.0
223.075882 3772.0
223.169724 36.0
223.202423 44.0
223.241074 120.0
223.321381 68.0
223.508789 60.0
223.753708 124.0
223.802414 228.0
223.973206 100.0
224.047806 3132.0
224.083694 3952.0
224.128113 108.0
224.27713 32.0
224.321838 68.0
224.441086 112.0
224.494766 132.0
224.572296 212.0
224.736877 116.0
224.81694 140.0
224.86058 148.0
224.951248 144.0
224.983246 172.0
225.014542 216.0
225.054749 14928.0
225.123932 200.0
225.172638 80.0
225.25148 48.0
225.303619 140.0
225.363373 68.0
225.402374 72.0
225.450027 64.0
225.476913 40.0
225.548645 92.0
225.576553 144.0
225.644302 112.0
225.726028 120.0
225.856628 172.0
225.994232 64.0
226.057724 2080.0
226.1259 80.0
226.176788 80.0
226.218689 56.0
226.314484 92.0
226.401321 112.0
226.473206 80.0
226.566055 56.0
226.661942 36.0
226.688904 64.0
226.712875 84.0
226.790802 64.0
226.949677 120.0
227.059189 340.0
227.106674 444.0
227.15361 76.0
227.239044 92.0
227.276611 84.0
227.498703 136.0
227.536697 92.0
227.591766 44.0
227.669846 36.0
227.738922 116.0
227.79187 108.0
227.925171 132.0
228.009308 116.0
228.060684 436.0
228.105484 124.0
228.288895 192.0
228.490417 240.0
228.634094 208.0
228.655899 104.0
228.737167 96.0
228.887695 76.0
229.032257 208.0
229.089478 136.0
229.372742 40.0
229.396851 32.0
229.435287 128.0
229.613937 212.0
229.653152 240.0
230.084656 128.0
230.365494 160.0
230.806747 64.0
231.030548 84.0
231.163666 148.0
231.408844 156.0
231.835938 132.0
231.896545 224.0
232.084488 228.0
232.321045 152.0
232.657898 144.0
232.721649 60.0
232.879562 176.0
233.253281 184.0
234.013809 120.0
234.172165 120.0
234.485962 140.0
234.519485 84.0
234.59874 108.0
234.775589 160.0
234.876236 244.0
234.900635 204.0
235.031891 184.0
235.14473 48.0
235.400726 228.0
235.645508 212.0
235.831909 132.0
236.045242 408.0
236.238586 48.0
236.403809 144.0
236.60582 200.0
236.633362 184.0
236.752792 156.0
237.047455 144.0
237.095901 148.0
237.239944 152.0
237.319656 256.0
237.495514 168.0
237.770584 48.0
237.957825 76.0
238.06218 176.0
238.102142 160.0
238.233749 184.0
238.329453 60.0
238.433929 264.0
238.621429 64.0
238.652176 96.0
238.799789 48.0
238.84285 52.0
238.86438 48.0
238.999741 56.0
239.030518 264.0
239.070786 6868.0
239.104446 1780.0
239.224411 44.0
239.245956 128.0
239.273666 252.0
239.3414 48.0
239.375259 56.0
239.436859 48.0
239.479965 36.0
239.501526 60.0
239.550812 60.0
239.690063 212.0
239.714111 64.0
239.77475 188.0
239.811096 124.0
239.843536 36.0
239.899033 32.0
240.009842 204.0
240.076996 7072.0
240.244415 48.0
240.361649 32.0
240.46286 104.0
240.58078 80.0
240.735153 116.0
240.772202 60.0
240.889572 68.0
241.040955 116.0
241.082596 1624.0
241.306778 40.0
241.337692 132.0
241.379669 188.0
241.53392 44.0
241.804794 76.0
241.829544 52.0
242.049347 96.0
242.082596 328.0
242.15773 92.0
242.464447 44.0
242.510071 144.0
242.762039 136.0
242.85199 140.0
242.926422 88.0
243.010193 76.0
243.284576 68.0
243.370224 56.0
243.733627 68.0
243.941849 112.0
244.063095 112.0
244.156387 176.0
245.102707 176.0
245.227356 80.0
245.258514 68.0
245.757477 144.0
246.363144 88.0
246.872604 188.0
247.611145 168.0
247.933838 260.0
248.827774 176.0
249.06015 124.0
249.29892 212.0
249.396347 44.0
249.43721 136.0
249.663589 140.0
249.81456 96.0
249.952988 84.0
250.041092 244.0
250.063873 288.0
250.126083 128.0
250.633102 72.0
250.844254 208.0
251.071976 2820.0
251.210037 176.0
251.58873 124.0
251.6203 32.0
251.669754 60.0
251.7901 72.0
251.896606 152.0
251.996124 60.0
252.041992 6436.0
252.069504 608.0
252.103561 140.0
252.233139 240.0
252.258423 56.0
252.35643 68.0
252.389511 120.0
252.457611 136.0
252.489227 228.0
252.536667 52.0
252.614395 84.0
252.647385 92.0
252.754959 60.0
253.044266 540.0
253.080154 140.0
253.251968 56.0
253.505417 100.0
253.568802 116.0
253.68924 68.0
253.835083 48.0
253.869965 44.0
253.917526 48.0
253.965103 40.0
254.040268 256.0
254.090012 168.0
254.30777 56.0
254.657013 56.0
254.717361 160.0
254.745956 120.0
254.901627 224.0
255.098206 640.0
255.273544 204.0
255.451645 236.0
256.110535 180.0
257.143555 36.0
258.229797 212.0
258.831421 88.0
258.911469 116.0
259.151733 52.0
259.590851 124.0
259.741577 92.0
260.078491 156.0
260.955475 84.0
261.399353 128.0
261.553833 192.0
261.772736 196.0
261.882233 48.0
262.062622 244.0
262.507446 40.0
262.700958 180.0
262.830017 164.0
263.385284 148.0
263.466034 40.0
263.850586 200.0
265.077454 76.0
265.456543 132.0
265.518158 112.0
265.566803 88.0
265.686829 56.0
265.996399 100.0
266.050293 128.0
266.085999 92.0
266.29187 20.0
266.459473 152.0
266.496582 104.0
266.57074 160.0
266.67395 108.0
266.716187 168.0
266.768188 52.0
266.818817 140.0
266.878876 208.0
266.900635 232.0
266.948029 216.0
267.001892 188.0
267.065643 64700.0
267.132904 312.0
267.187714 132.0
267.212921 48.0
267.242096 92.0
267.292755 56.0
267.342316 100.0
267.372955 160.0
267.417297 180.0
267.449829 236.0
267.475586 112.0
267.53772 144.0
267.562683 196.0
267.599579 72.0
267.620728 156.0
267.656372 48.0
267.695465 112.0
267.724091 176.0
267.755646 172.0
267.812683 36.0
267.881104 92.0
267.911987 132.0
267.946259 144.0
267.976166 268.0
268.068298 10904.0
268.154358 116.0
268.200409 64.0
268.247131 84.0
268.278656 132.0
268.307983 116.0
268.353638 48.0
268.402557 84.0
268.519928 52.0
268.595947 144.0
268.634094 52.0
268.683044 172.0
268.709137 60.0
268.751556 64.0
268.78418 44.0
268.823334 112.0
268.867676 88.0
268.963654 104.0
269.069977 1000.0
269.208527 52.0
269.289307 164.0
269.329376 80.0
269.497345 124.0
269.51001 176.0
269.584198 88.0
269.607056 68.0
269.656097 36.0
269.708374 112.0
269.75119 112.0
269.777039 192.0
269.80072 84.0
269.848297 60.0
269.881653 60.0
269.93396 80.0
269.963379 124.0
270.008331 80.0
270.035339 120.0
270.074738 136.0
270.123657 92.0
270.192352 76.0
270.676758 56.0
270.751404 60.0
270.822998 76.0
271.011841 132.0
271.351685 112.0
271.481262 140.0
271.696045 40.0
271.848846 84.0
271.89621 32.0
272.277008 52.0
272.396851 64.0
272.572662 60.0
272.710693 76.0
272.896881 56.0
273.720642 84.0
274.11261 48.0
274.402679 68.0
274.811646 160.0
274.89743 140.0
275.039337 140.0
277.242004 144.0
277.878632 188.0
278.144104 76.0
278.529266 84.0
279.270477 52.0
279.598145 116.0
280.03598 80.0
280.132568 132.0
280.155884 136.0
280.242523 136.0
280.762512 80.0
281.07608 176.0
281.45993 72.0
281.737152 180.0
281.860748 176.0
282.045074 104.0
282.556183 64.0
282.599701 56.0
282.803802 100.0
282.944397 96.0
282.971191 60.0
283.009216 188.0
283.051544 168.0
283.09726 29168.0
283.168762 116.0
283.201324 72.0
283.290009 20.0
283.355194 164.0
283.393188 108.0
283.430054 108.0
283.540619 84.0
283.570801 72.0
283.627777 88.0
283.662048 100.0
283.687042 64.0
283.800049 80.0
283.842316 96.0
283.899323 60.0
284.033478 284.0
284.098938 4600.0
284.15625 40.0
284.217255 72.0
284.280548 56.0
284.358948 52.0
284.546906 108.0
284.59729 44.0
284.681213 36.0
284.792053 48.0
284.902893 60.0
285.023834 44.0
285.098511 804.0
285.262451 72.0
285.420471 56.0
285.63089 184.0
285.696259 100.0
285.844299 100.0
285.914978 132.0
286.059692 88.0
286.106812 148.0
286.164062 88.0
286.20108 108.0
286.403137 48.0
286.692871 108.0
286.773773 76.0
287.083923 112.0
287.174988 124.0
287.697998 72.0
288.29245 68.0
288.718384 108.0
289.179779 64.0
290.930908 76.0
291.926422 44.0
293.591644 84.0
294.041962 92.0
295.473663 64.0
297.66037 60.0
298.340637 76.0
298.7258 72.0
299.145599 124.0
302.743256 180.0
307.558441 80.0
308.753296 96.0
310.171265 176.0
314.010742 144.0
319.106293 100.0
323.587372 48.0
324.242889 36.0
330.414612 112.0
338.919708 52.0
339.315552 124.0
339.385223 80.0
342.457336 72.0
342.86261 92.0
346.424408 104.0
349.963654 108.0
350.362152 84.0
352.387939 56.0
354.993073 140.0
355.82605 48.0
359.49588 92.0
366.510925 120.0
380.340607 112.0
382.408356 80.0
388.825714 104.0
389.956787 116.0
390.283081 112.0
392.511688 92.0
393.798157 140.0
397.698059 88.0
397.745697 32.0
402.028107 80.0
405.988495 148.0
407.112122 80.0
415.166992 80.0
417.197113 120.0
420.990387 72.0
423.407257 80.0
429.5849 124.0
436.372498 48.0
438.012115 140.0
446.407684 112.0
447.14386 48.0
450.082031 84.0
456.20401 136.0
459.474609 44.0
462.260376 88.0
470.858154 40.0
472.970215 20.0
481.764893 76.0
483.299408 48.0
490.695679 56.0
502.483002 84.0
510.713043 108.0
515.405945 72.0
516.495483 124.0
519.004333 76.0
528.624573 100.0
534.521057 124.0
541.950378 52.0
573.004272 112.0
592.006287 68.0
607.368347 40.0
608.192627 152.0
615.695862 60.0
632.956604 72.0
633.20697 44.0
656.795898 52.0
693.216125 48.0
702.400879 88.0
725.324341 60.0
734.497498 56.0
761.297241 128.0
764.672729 104.0
767.167847 140.0
768.541138 168.0
785.015442 64.0
807.094604 112.0
808.07312 124.0
813.547607 88.0
837.921814 68.0
839.21283 36.0
840.949158 76.0
841.330139 220.0
855.847473 52.0
864.047607 80.0
869.403015 56.0
873.039368 40.0
897.525208 128.0
899.905823 180.0
930.120972 144.0
930.879822 108.0
954.392822 176.0
968.109924 136.0
974.9151 152.0
976.599915 144.0
988.140198 68.0
1023.848999 84.0
1030.725586 40.0
1031.281616 60.0
1044.239014 48.0
1048.591309 96.0
1053.333496 36.0
1055.899536 92.0
1062.195068 72.0
1063.921143 204.0
1064.057495 172.0
1071.881836 128.0
1075.860352 160.0
1079.643433 192.0
1081.187378 192.0
1083.734497 148.0
1087.531372 304.0
1089.685303 80.0
1093.130615 188.0
1099.846191 148.0
1104.134155 228.0
1107.489624 168.0
1110.425659 180.0
1118.272095 144.0
1123.843018 144.0
1130.859619 188.0
1134.496704 100.0
1138.159912 228.0
1139.100098 72.0
1141.237183 152.0
1151.128662 32.0
1152.040405 140.0
1156.103882 200.0
1160.283081 204.0
1168.922485 84.0
1170.324585 136.0
1173.260986 176.0
1173.540527 48.0
1173.738159 60.0
1175.859741 208.0
1177.976318 140.0
1179.165283 200.0
1183.413208 116.0
1189.981323 136.0
1192.825439 168.0
1197.359497 244.0
1197.931152 212.0
1201.17334 60.0
1207.795044 48.0
1211.546875 176.0
1211.886353 136.0
1214.160034 160.0
1232.740112 432.0
1235.907593 104.0
1237.951538 204.0
1241.939209 184.0
1247.535522 136.0
1250.482666 168.0
1251.158447 248.0
1252.461182 20.0
1253.698242 256.0
1258.123535 224.0
1259.931396 248.0
1260.291748 96.0
1261.486084 136.0
1267.260864 224.0
1267.990723 100.0
1271.160645 136.0
1274.973999 216.0
1276.303223 76.0
1279.974731 200.0
1281.306641 140.0
1284.157959 92.0
1284.321899 196.0
1286.976685 224.0
1288.769409 168.0
1304.162354 164.0
1304.71582 104.0
1306.312256 96.0
1307.369873 120.0
1310.05542 172.0
1312.513062 156.0
1320.203369 20.0
1329.229248 88.0
1330.760742 204.0
1331.254517 160.0
1332.663574 68.0
1336.371582 44.0
1339.45105 200.0
1343.671753 164.0
1349.134399 144.0
1349.726562 56.0
1351.928345 224.0
1352.338135 160.0
1355.172119 168.0
1356.887085 176.0
1357.686279 200.0
1358.991943 196.0
1362.156006 148.0
1362.457275 172.0
1367.825317 168.0
1368.716064 140.0
1369.423096 152.0
1378.430542 224.0
1378.703979 168.0
1379.125244 140.0
1381.009644 148.0
1381.136353 164.0
1381.728149 140.0
1382.223877 196.0
1386.296631 136.0
1402.867554 148.0
1407.690552 168.0
1408.317871 156.0
1409.812012 236.0
1413.498535 184.0
1414.299316 160.0
1417.197388 152.0
1417.2948 176.0
1417.981934 184.0
1419.026245 160.0
1420.233521 140.0
1424.744873 152.0
1425.451172 176.0
1430.234131 116.0
1432.478027 208.0
1432.824585 180.0
1435.09314 48.0
1435.492676 188.0
1441.516479 148.0
1441.697876 148.0
1443.527222 232.0
1447.416504 128.0
1448.181396 92.0
1450.583374 148.0
1452.259033 76.0
1452.676147 88.0
1453.252808 148.0
1455.097046 260.0
1455.203369 160.0
1457.071655 152.0
1457.519897 160.0
1462.242188 80.0
1462.706543 212.0
1464.808105 128.0
1465.554688 56.0
1466.316772 224.0
1466.766357 124.0
1467.528809 36.0
1467.765137 204.0
1470.159302 148.0
1470.267212 124.0
1474.261108 180.0
1476.455078 140.0
1476.730469 120.0
1478.398193 104.0
1480.35791 60.0
1480.449829 224.0
1481.705933 192.0
1482.564087 200.0
1484.557251 188.0
1488.056152 188.0
1488.271118 140.0
1492.3125 128.0
1492.819946 144.0
1493.096802 244.0
1494.058228 156.0
1495.012329 160.0
1495.235474 144.0
1496.667358 156.0
1499.810425 196.0
1500.28833 108.0
1500.70459 192.0
1502.493896 100.0
1503.165161 192.0
