>compound MLS002153949-01!Delsoline509-18-2
>formula C25H41NO7
>ionization [M+H]+
>parentmass 468.297363
#inchi InChI=1S/C25H41NO7/c1-6-26-11-22(12-30-2)8-7-16(27)24-14-9-13-15(31-3)10-23(28,17(14)18(13)32-4)25(29,21(24)26)20(33-5)19(22)24/h13-21,27-29H,6-12H2,1-5H3/t13-,14-,15+,16+,17-,18+,19-,20+,21?,22+,23-,24+,25-/m1/s1
#inchikey JVBLTQQBEQQLEV
#Ion_Source LC-ESI
#Instrument qTof
#Compound_Source NIH Pharmacologically Active Library
#PI Dorrestein
#Data_Collector VP/LMS
#Scan -1
#Precursor_MZ 468.304
#ExactMass 467.288
#Charge 1
#CAS_Number N/A
#Pubmed_ID N/A
#Smiles CCN1C[C@]2(COC)CC[C@H](O)[C@]3([C@@H]4C[C@H]5[C@H](OC)[C@@H]4[C@](O)(C[C@@H]5OC)[C@@]6(O)[C@@H](OC)[C@@H]32)C16
#INCHI_AUX N/A
#Library_Class 1
#SpectrumID CCMSLIB00000085468
#IonMode Positive
#UpdateWorkflowName UPDATE-SINGLE-ANNOTATED-GOLD
#LibraryQualityString Gold
#TaskID d252d724072548979f1f6f1ced849daf
##Scan# 1311
#SpectrumFile p4-B04_GB4_01_18340.mzXML
#LibraryName Pharm_Active_Library.mgf
#MQScore -1
#Organism Pharm_Active_Library
#TIC_Query 0
#RT_Query -1
#MZErrorPPM -1
#SharedPeaks 0
#MassDiff 0
#LibMZ -1
#SpecMZ 468.304
#SpecCharge 0
#internalFilename spec-00000.mgf

>collision 10
44.918896 120.0
44.991627 120.0
45.04237 88.0
45.066418 140.0
45.096996 136.0
45.132576 172.0
45.178307 104.0
45.216183 144.0
45.241615 212.0
45.255005 180.0
45.281116 144.0
45.290573 164.0
45.309914 104.0
45.3442 184.0
45.402401 168.0
45.415733 204.0
45.417603 192.0
45.455349 136.0
45.488594 100.0
45.505131 372.0
45.540638 164.0
45.567505 176.0
45.578255 108.0
45.642216 164.0
45.681774 156.0
45.707336 96.0
45.719448 188.0
45.738716 164.0
45.783581 200.0
45.797535 188.0
45.826683 232.0
45.856842 232.0
45.874126 176.0
45.909397 136.0
45.966465 144.0
45.979546 172.0
46.016937 240.0
46.055153 212.0
46.06596 228.0
46.106495 236.0
46.122135 152.0
46.145695 160.0
46.178146 276.0
46.202511 204.0
46.286438 184.0
46.302952 204.0
46.335171 144.0
46.363346 176.0
46.412426 164.0
46.421917 148.0
46.43819 136.0
46.462753 224.0
46.523674 124.0
46.537251 156.0
46.560337 180.0
46.583427 200.0
46.619293 260.0
46.682983 192.0
46.730251 60.0
46.756104 136.0
46.766991 152.0
46.810555 168.0
46.868206 148.0
46.881393 100.0
46.89502 124.0
46.912739 76.0
46.956371 60.0
46.99184 92.0
47.056328 128.0
47.141155 160.0
47.156502 96.0
47.189877 172.0
47.210388 100.0
47.226589 156.0
47.240479 128.0
47.273315 132.0
47.291107 80.0
47.39286 180.0
47.412998 96.0
47.44178 216.0
47.452408 176.0
47.484287 152.0
47.498005 184.0
47.508709 184.0
47.5135 148.0
47.537792 132.0
47.55014 252.0
47.589951 168.0
47.60231 104.0
47.616043 160.0
47.627029 156.0
47.644341 292.0
47.66621 112.0
47.688011 208.0
47.701229 168.0
47.710854 152.0
47.760357 168.0
47.782364 144.0
47.796124 116.0
47.816765 128.0
47.838444 176.0
47.852554 112.0
47.867702 144.0
47.882378 164.0
47.916229 248.0
47.986359 172.0
47.997227 168.0
48.00964 272.0
48.020672 160.0
48.059296 356.0
48.121407 124.0
48.226627 140.0
48.293728 200.0
48.309357 152.0
48.320423 116.0
48.348099 136.0
48.361938 132.0
48.440865 120.0
48.454716 140.0
48.466675 108.0
48.485203 184.0
48.556812 116.0
48.600296 104.0
48.622498 164.0
48.683582 180.0
48.712986 376.0
48.730808 72.0
48.756653 160.0
48.760914 96.0
48.764507 128.0
48.821159 136.0
48.8536 148.0
48.906025 64.0
48.927303 140.0
48.977036 96.0
49.004898 196.0
49.019634 196.0
49.038342 100.0
49.067616 140.0
49.080162 120.0
49.112236 152.0
49.123394 192.0
49.140137 112.0
49.160053 132.0
49.187584 112.0
49.223885 160.0
49.266857 104.0
49.311184 116.0
49.321678 124.0
49.341248 300.0
49.374352 184.0
49.411175 248.0
49.425167 156.0
49.434963 72.0
49.475552 308.0
49.488152 160.0
49.518982 228.0
49.549778 136.0
49.564266 164.0
49.610973 72.0
49.646492 56.0
49.678661 64.0
49.713993 136.0
49.737125 180.0
49.800869 64.0
49.821774 368.0
49.851448 148.0
49.876743 148.0
49.903419 164.0
49.934391 148.0
49.965336 112.0
49.979462 196.0
50.034294 136.0
50.070908 112.0
50.098724 208.0
50.158356 184.0
50.203861 128.0
50.228764 160.0
50.320492 124.0
50.330376 108.0
50.343082 152.0
50.364269 160.0
50.375568 136.0
50.472916 200.0
50.48864 180.0
50.499485 144.0
50.53532 152.0
50.554722 180.0
50.580246 188.0
50.624496 148.0
50.637886 256.0
50.666988 156.0
50.685097 164.0
50.709496 180.0
50.735012 104.0
50.821526 156.0
50.84539 176.0
50.899593 168.0
50.924431 220.0
50.943619 40.0
50.959293 124.0
51.003887 116.0
51.030312 196.0
51.075817 112.0
51.104267 176.0
51.126072 248.0
51.13842 196.0
51.155434 164.0
51.201065 156.0
51.230976 48.0
51.266598 148.0
51.294895 192.0
51.325039 112.0
51.343578 28.0
51.354988 160.0
51.382092 224.0
51.413483 112.0
51.426888 176.0
51.449165 88.0
51.463444 96.0
51.486237 108.0
51.495514 192.0
51.520569 172.0
51.531998 160.0
51.545773 156.0
51.574871 192.0
51.621613 288.0
51.625164 200.0
51.652241 128.0
51.668331 128.0
51.690712 140.0
51.720764 224.0
51.739372 88.0
51.759605 152.0
51.789494 44.0
51.826439 192.0
51.869732 84.0
51.891235 132.0
51.944298 152.0
51.96151 148.0
51.976662 200.0
52.007431 76.0
52.034706 148.0
52.068592 60.0
52.151062 208.0
52.197063 212.0
52.210007 96.0
52.295338 180.0
52.394741 140.0
52.420986 132.0
52.443237 160.0
52.466301 192.0
52.48793 104.0
52.505234 304.0
52.533794 80.0
52.553886 132.0
52.574482 168.0
52.632835 244.0
52.665436 48.0
52.730453 156.0
52.769482 180.0
52.779602 200.0
52.808441 140.0
52.866394 72.0
52.901039 128.0
52.919754 236.0
52.951809 180.0
52.996716 244.0
53.010479 128.0
53.027145 112.0
53.124641 200.0
53.141705 188.0
53.158028 144.0
53.179531 176.0
53.189911 164.0
53.231903 140.0
53.291248 176.0
53.397366 216.0
53.435741 188.0
53.468651 192.0
53.513779 132.0
53.544357 156.0
53.573486 124.0
53.586601 52.0
53.62886 164.0
53.652184 192.0
53.669678 148.0
53.683224 152.0
53.704678 116.0
53.751362 176.0
53.770332 144.0
53.782009 136.0
53.792225 100.0
53.817043 228.0
53.827263 208.0
53.855011 132.0
53.890072 200.0
53.903221 120.0
53.935375 64.0
53.962715 216.0
54.030426 128.0
54.050907 160.0
54.070408 160.0
54.127022 140.0
54.150455 56.0
54.179749 128.0
54.235432 168.0
54.258888 100.0
54.29261 80.0
54.33075 132.0
54.346886 140.0
54.387978 176.0
54.426147 176.0
54.486362 244.0
54.528976 180.0
54.5648 172.0
54.576015 172.0
54.595131 124.0
54.619049 212.0
54.654697 252.0
54.680679 188.0
54.693707 116.0
54.718121 164.0
54.790894 136.0
54.811523 144.0
54.911404 212.0
54.950947 164.0
54.969299 108.0
54.992912 148.0
55.007671 52.0
55.078548 180.0
55.090504 172.0
55.133217 132.0
55.147995 112.0
55.170166 172.0
55.265102 188.0
55.285114 168.0
55.309216 292.0
55.331421 172.0
55.402256 212.0
55.446957 84.0
55.485497 216.0
55.525986 100.0
55.555199 124.0
55.630051 96.0
55.652924 132.0
55.68227 236.0
55.704273 132.0
55.718498 188.0
55.733356 180.0
55.808258 148.0
55.841331 208.0
55.873756 120.0
55.879406 156.0
55.896915 152.0
55.929657 116.0
55.957348 120.0
55.976059 120.0
56.038368 132.0
56.051537 124.0
56.093506 148.0
56.117359 148.0
56.139725 200.0
56.172539 152.0
56.184471 116.0
56.202984 108.0
56.219658 156.0
56.248535 172.0
56.288948 88.0
56.317612 124.0
56.365131 212.0
56.478104 176.0
56.502682 120.0
56.543083 84.0
56.595478 164.0
56.624229 160.0
56.638905 68.0
56.653885 196.0
56.686653 180.0
56.699162 184.0
56.712326 104.0
56.732639 116.0
56.748302 156.0
56.772293 216.0
56.788792 164.0
56.800789 176.0
56.842342 92.0
56.863808 204.0
56.877056 184.0
56.929863 184.0
56.940376 52.0
56.960682 192.0
57.027515 152.0
57.045551 136.0
57.09066 128.0
57.114723 192.0
57.13578 124.0
57.153835 192.0
57.165874 188.0
57.235115 180.0
57.275539 212.0
57.322483 40.0
57.357143 96.0
57.394833 180.0
57.44762 132.0
57.458179 132.0
57.479301 248.0
57.491375 128.0
57.506592 144.0
57.539677 152.0
57.550243 144.0
57.598572 84.0
57.634827 132.0
57.646915 168.0
57.657494 68.0
57.683189 144.0
57.701328 228.0
57.722496 148.0
57.758213 116.0
57.813259 104.0
57.827225 140.0
57.913181 64.0
57.937416 104.0
57.975296 120.0
58.029865 116.0
58.05397 116.0
58.090282 168.0
58.121365 196.0
58.140594 152.0
58.164879 192.0
58.183098 80.0
58.245358 152.0
58.284855 136.0
58.329777 192.0
58.350212 132.0
58.362804 220.0
58.410378 156.0
58.456684 160.0
58.511478 228.0
58.546879 176.0
58.578484 48.0
58.628761 108.0
58.659245 128.0
58.685669 240.0
58.698441 176.0
58.727859 112.0
58.75045 148.0
58.794991 144.0
58.81794 108.0
58.877426 188.0
58.888119 256.0
58.91544 176.0
58.937 160.0
58.950752 148.0
59.048595 200.0
59.071537 144.0
59.097546 88.0
59.108257 192.0
59.147015 160.0
59.183258 136.0
59.228706 124.0
59.244518 176.0
59.284897 192.0
59.298149 196.0
59.308876 144.0
59.431561 148.0
59.472996 196.0
59.49295 140.0
59.536762 224.0
59.577412 152.0
59.631191 116.0
59.661045 152.0
59.687302 116.0
59.71114 180.0
59.841934 128.0
59.886593 252.0
59.912498 176.0
59.948517 124.0
60.068474 100.0
60.0839 152.0
60.103958 148.0
60.120934 100.0
60.144081 144.0
60.154888 100.0
60.19194 184.0
60.219738 72.0
60.232212 52.0
60.255268 152.0
60.340267 140.0
60.357723 208.0
60.382019 132.0
60.39439 260.0
60.450603 180.0
60.479492 276.0
60.492947 196.0
60.510452 148.0
60.57859 204.0
60.589436 108.0
60.615776 132.0
60.660721 132.0
60.67157 104.0
60.682812 176.0
60.700676 176.0
60.75349 204.0
60.759857 168.0
60.766594 192.0
60.772182 220.0
60.777718 164.0
60.885696 164.0
60.90744 40.0
60.973324 148.0
61.021011 144.0
61.08931 148.0
61.179565 144.0
61.208717 188.0
61.232082 176.0
61.274563 96.0
61.322872 172.0
61.375874 164.0
61.386787 196.0
61.403942 244.0
61.422657 104.0
61.44762 76.0
61.467583 196.0
61.473022 156.0
61.47625 240.0
61.487671 156.0
61.51004 92.0
61.549068 208.0
61.572495 180.0
61.608418 212.0
61.677174 156.0
61.736584 64.0
61.769428 132.0
61.787201 144.0
61.819103 160.0
61.842968 144.0
61.855492 108.0
61.883316 388.0
61.914989 108.0
61.927517 84.0
61.937981 144.0
61.949448 192.0
62.00272 64.0
62.019218 152.0
62.023338 180.0
62.074829 136.0
62.096786 144.0
62.116638 164.0
62.1231 108.0
62.125378 140.0
62.209759 128.0
62.2286 152.0
62.249008 60.0
62.268845 348.0
62.303982 184.0
62.35112 104.0
62.36998 152.0
62.414673 260.0
62.434441 208.0
62.45583 160.0
62.493767 168.0
62.52726 96.0
62.541428 104.0
62.565189 124.0
62.618622 136.0
62.675285 164.0
62.749363 192.0
62.760399 40.0
62.791939 164.0
62.838043 140.0
62.857834 228.0
62.951328 176.0
62.978779 188.0
63.008606 136.0
63.096691 168.0
63.107758 120.0
63.149055 172.0
63.2169 136.0
63.235889 56.0
63.292881 148.0
63.316631 84.0
63.370491 132.0
63.397427 136.0
63.454491 192.0
63.465588 132.0
63.486202 52.0
63.517303 144.0
63.554409 84.0
63.58456 348.0
63.611542 192.0
63.629005 140.0
63.646679 152.0
63.701752 208.0
63.721119 128.0
63.74427 156.0
63.762432 116.0
63.77356 64.0
63.787804 104.0
63.808529 72.0
63.857826 116.0
63.879883 120.0
63.899185 56.0
63.948513 128.0
63.997337 188.0
64.033676 180.0
64.055191 164.0
64.117172 164.0
64.190659 144.0
64.220963 192.0
64.297546 132.0
64.406113 116.0
64.450844 112.0
64.46682 156.0
64.489273 160.0
64.524864 140.0
64.534645 120.0
64.557938 160.0
64.574768 276.0
64.649124 128.0
64.685936 104.0
64.710747 112.0
64.764397 164.0
64.775604 132.0
64.793228 128.0
64.838097 216.0
64.862823 224.0
64.881104 144.0
64.896149 128.0
64.910233 148.0
64.929474 136.0
65.042503 232.0
65.054626 152.0
65.072289 128.0
65.089951 96.0
65.128494 76.0
65.175079 72.0
65.19735 188.0
65.232933 144.0
65.268829 180.0
65.311729 108.0
65.334244 68.0
65.350471 188.0
65.405472 228.0
65.477814 188.0
65.529236 104.0
65.571838 144.0
65.608757 208.0
65.621628 208.0
65.643486 96.0
65.667679 52.0
65.67897 148.0
65.699936 80.0
65.717682 216.0
65.7435 116.0
65.783852 100.0
65.87751 104.0
65.892052 160.0
65.90889 200.0
65.927597 156.0
65.956894 144.0
65.973381 148.0
66.001854 184.0
66.022308 204.0
66.057472 184.0
66.08477 120.0
66.107101 148.0
66.121666 140.0
66.162132 144.0
66.173462 88.0
66.186417 92.0
66.239861 116.0
66.260254 224.0
66.290085 112.0
66.304672 88.0
66.33448 124.0
66.353294 104.0
66.43763 76.0
66.473579 324.0
66.531754 176.0
66.580467 104.0
66.610794 148.0
66.642189 116.0
66.658035 160.0
66.724152 204.0
66.730392 112.0
66.737335 164.0
66.768982 36.0
66.819244 216.0
66.839127 208.0
66.856827 180.0
66.877991 184.0
66.890602 128.0
66.913803 116.0
66.946053 104.0
66.974052 136.0
67.100266 140.0
67.132141 268.0
67.204544 156.0
67.221855 120.0
67.259392 60.0
67.275719 156.0
67.28878 152.0
67.378242 220.0
67.421082 156.0
67.476662 160.0
67.506088 248.0
67.524994 136.0
67.554626 172.0
67.586243 120.0
67.640923 184.0
67.647919 76.0
67.654205 160.0
67.668076 348.0
67.709015 160.0
67.729431 224.0
67.771263 128.0
67.794205 172.0
67.834373 128.0
67.889282 152.0
67.910599 224.0
67.986069 108.0
68.050087 100.0
68.061577 136.0
68.094421 136.0
68.146988 176.0
68.204506 132.0
68.22094 100.0
68.265335 148.0
68.276848 136.0
68.334419 208.0
68.367523 144.0
68.382141 176.0
68.401421 200.0
68.429878 108.0
68.441399 216.0
68.481628 140.0
68.561653 96.0
68.581429 96.0
68.595741 216.0
68.62429 168.0
68.648979 148.0
68.670464 80.0
68.685303 52.0
68.705101 36.0
68.723251 176.0
68.763222 160.0
68.786484 152.0
68.81237 160.0
68.838791 376.0
68.849678 156.0
68.868523 96.0
68.892044 204.0
68.969307 112.0
68.995209 132.0
69.033783 180.0
69.063553 112.0
69.104912 164.0
69.133087 144.0
69.167793 208.0
69.183517 216.0
69.18705 108.0
69.193268 176.0
69.222427 104.0
69.258865 180.0
69.28286 152.0
69.311562 168.0
69.341095 232.0
69.360214 152.0
69.437866 60.0
69.452011 184.0
69.476555 220.0
69.527451 308.0
69.545708 172.0
69.563965 120.0
69.648651 164.0
69.688522 128.0
69.728683 164.0
69.770958 300.0
69.792175 168.0
69.864235 208.0
69.913002 164.0
69.944626 80.0
69.977921 136.0
70.050888 176.0
70.067848 128.0
70.086182 140.0
70.09951 336.0
70.125023 180.0
70.182854 164.0
70.20002 132.0
70.219063 140.0
70.249565 48.0
70.266243 40.0
70.289604 184.0
70.345352 228.0
70.378067 84.0
70.396439 132.0
70.413139 160.0
70.428169 96.0
70.468262 52.0
70.504173 172.0
70.540977 140.0
70.596962 128.0
70.627068 196.0
70.665543 92.0
70.712402 184.0
70.734161 284.0
70.806152 120.0
70.853737 264.0
70.870262 176.0
70.891594 40.0
70.918404 156.0
70.947197 228.0
70.96534 36.0
70.984726 172.0
71.038361 244.0
71.06411 100.0
71.07045 84.0
71.112701 172.0
71.137062 156.0
71.166679 124.0
71.240578 108.0
71.252335 88.0
71.279221 120.0
71.299385 148.0
71.363258 84.0
71.39521 84.0
71.420433 176.0
71.451317 100.0
71.464172 180.0
71.497826 144.0
71.524757 184.0
71.539909 104.0
71.55674 40.0
71.605576 148.0
71.617363 100.0
71.646004 192.0
71.704247 168.0
71.740662 176.0
71.767349 72.0
71.785896 264.0
71.818817 192.0
71.843239 180.0
71.877594 224.0
71.89048 144.0
71.903984 184.0
71.93943 100.0
71.953644 200.0
71.981636 224.0
72.009781 144.0
72.032303 92.0
72.060043 144.0
72.112808 192.0
72.131996 192.0
72.151917 148.0
72.207901 184.0
72.232765 196.0
72.246986 188.0
72.275635 172.0
72.281166 160.0
72.307899 128.0
72.375618 108.0
72.408409 180.0
72.467079 80.0
72.500969 224.0
72.53656 128.0
72.585724 168.0
72.623138 200.0
72.652489 120.0
72.695419 84.0
72.715797 136.0
72.740112 136.0
72.770668 124.0
72.78595 140.0
72.802933 188.0
72.814819 136.0
72.918457 156.0
72.930351 176.0
73.033203 156.0
73.107224 136.0
73.140533 168.0
73.162354 144.0
73.182121 116.0
73.203247 176.0
73.221283 64.0
73.268982 228.0
73.383163 148.0
73.398186 152.0
73.458206 136.0
73.475662 136.0
73.492325 216.0
73.575951 176.0
73.637421 84.0
73.65963 136.0
73.68013 60.0
73.702339 112.0
73.72113 100.0
73.763863 144.0
73.779243 100.0
73.839096 212.0
73.861328 172.0
73.888695 128.0
73.921829 188.0
73.948586 140.0
74.054741 160.0
74.082146 156.0
74.10099 196.0
74.132225 140.0
74.159256 124.0
74.176262 104.0
74.20211 56.0
74.226112 280.0
74.241547 120.0
74.282707 128.0
74.3153 116.0
74.370216 164.0
74.394249 124.0
74.430222 164.0
74.49305 164.0
74.519615 120.0
74.531647 164.0
74.562576 168.0
74.58773 160.0
74.600441 140.0
74.631332 96.0
74.653687 172.0
74.69043 176.0
74.702675 124.0
74.731094 152.0
74.768951 160.0
74.78553 220.0
74.815422 212.0
74.837807 124.0
74.963547 148.0
74.982498 112.0
74.994568 368.0
75.00663 48.0
75.039848 208.0
75.0625 148.0
75.079041 104.0
75.098015 96.0
75.111816 176.0
75.139412 124.0
75.153214 52.0
75.1791 112.0
75.205025 176.0
75.24469 48.0
75.265411 88.0
75.308578 48.0
75.358681 152.0
75.400146 164.0
75.458923 44.0
75.47448 140.0
75.510796 192.0
75.524498 156.0
75.563087 156.0
75.582405 220.0
75.717613 124.0
75.750389 208.0
75.867493 108.0
75.879623 220.0
75.900429 148.0
75.926445 168.0
75.940315 128.0
75.969803 116.0
76.009712 144.0
76.021858 84.0
76.075661 100.0
76.115593 148.0
76.127747 248.0
76.152061 120.0
76.198959 116.0
76.218071 156.0
76.233711 144.0
76.268845 132.0
76.287109 188.0
76.322365 164.0
76.362358 180.0
76.386711 240.0
76.405846 348.0
76.416862 80.0
76.481316 272.0
76.496338 168.0
76.525932 228.0
76.543694 120.0
76.571472 132.0
76.619194 300.0
76.728661 184.0
76.744362 240.0
76.778786 184.0
76.836159 144.0
76.871513 136.0
76.885902 156.0
76.907051 204.0
76.9496 88.0
77.02993 124.0
77.083618 192.0
77.165932 204.0
77.181976 136.0
77.20388 144.0
77.24144 204.0
77.314674 144.0
77.335922 64.0
77.384941 148.0
77.411201 116.0
77.445915 200.0
77.502441 140.0
77.624985 80.0
77.651291 140.0
77.67234 104.0
77.734398 140.0
77.781128 224.0
77.804771 136.0
77.833794 124.0
77.868919 60.0
77.883965 192.0
77.94973 92.0
78.006668 168.0
78.058716 224.0
78.079811 196.0
78.100723 180.0
78.132584 112.0
78.20369 216.0
78.220573 120.0
78.244545 104.0
78.26458 160.0
78.280434 80.0
78.312134 204.0
78.326218 168.0
78.354408 120.0
78.389648 68.0
78.410789 192.0
78.451332 124.0
78.470726 240.0
78.49807 144.0
78.520096 212.0
78.557137 168.0
78.588898 240.0
78.74424 76.0
78.764091 148.0
78.814644 84.0
78.859077 124.0
78.876755 148.0
78.896194 144.0
78.961067 344.0
79.014687 132.0
79.058228 156.0
79.076614 236.0
79.099625 144.0
79.112022 128.0
79.133263 112.0
79.185738 152.0
79.193176 96.0
79.197533 136.0
79.216499 56.0
79.266106 220.0
79.284615 324.0
79.324318 156.0
79.340546 168.0
79.360046 120.0
79.398987 104.0
79.457291 140.0
79.477699 132.0
79.491302 156.0
79.512604 132.0
79.567627 128.0
79.652863 168.0
79.669098 204.0
79.70697 164.0
79.809624 192.0
79.84304 156.0
79.857269 92.0
79.903519 176.0
80.002151 208.0
80.037003 72.0
80.063713 60.0
80.10112 140.0
80.113586 116.0
80.136749 140.0
80.158577 112.0
80.190804 120.0
80.218445 108.0
80.246803 128.0
80.265076 128.0
80.292839 200.0
80.332558 168.0
80.353821 180.0
80.373886 160.0
80.386375 48.0
80.425636 148.0
80.448845 92.0
80.464912 136.0
80.522049 80.0
80.547058 76.0
80.575104 120.0
80.604225 148.0
80.618523 136.0
80.656746 144.0
80.67955 204.0
80.706108 192.0
80.75618 112.0
80.775818 188.0
80.822372 64.0
80.878502 104.0
80.903824 148.0
80.936928 68.0
80.971756 204.0
80.990646 120.0
81.00856 160.0
81.103531 176.0
81.131989 160.0
81.187798 148.0
81.211113 120.0
81.236221 76.0
81.336708 56.0
81.35466 160.0
81.369019 280.0
81.412117 140.0
81.435463 156.0
81.467072 188.0
81.511589 180.0
81.541466 148.0
81.564827 176.0
81.587372 148.0
81.616592 116.0
81.688904 176.0
81.735954 132.0
81.751556 180.0
81.855415 164.0
81.894249 148.0
81.988907 96.0
82.027435 172.0
82.041466 148.0
82.067093 160.0
82.085129 172.0
82.123001 116.0
82.153664 328.0
82.171707 164.0
82.189743 180.0
82.222229 216.0
82.236664 288.0
82.310684 140.0
82.344994 120.0
82.359444 92.0
82.388344 40.0
82.444962 84.0
82.466042 132.0
82.479202 228.0
82.507622 144.0
82.53112 160.0
82.568237 136.0
82.59539 224.0
82.652969 240.0
82.677643 160.0
82.713387 208.0
82.720291 156.0
82.751854 188.0
82.766342 216.0
82.788071 80.0
82.822479 108.0
82.840599 120.0
82.869583 184.0
82.962585 152.0
82.983025 284.0
83.005524 156.0
83.052673 32.0
83.098022 76.0
83.124504 128.0
83.141571 108.0
83.154282 48.0
83.239601 132.0
83.257759 184.0
83.324966 100.0
83.353157 248.0
83.410378 148.0
83.455826 108.0
83.496841 180.0
83.554039 136.0
83.668869 160.0
83.728775 116.0
83.74881 148.0
83.78524 144.0
83.839905 168.0
83.859955 116.0
83.874535 156.0
83.916466 136.0
83.947464 152.0
83.965698 156.0
84.024063 160.0
84.046883 184.0
84.073334 60.0
84.093407 208.0
84.11779 220.0
84.136589 128.0
84.188072 136.0
84.228523 216.0
84.270111 136.0
84.303429 192.0
84.385681 112.0
84.418594 180.0
84.43322 112.0
84.453339 140.0
84.491753 140.0
84.535667 196.0
84.577759 88.0
84.608879 128.0
84.623466 120.0
84.629654 116.0
84.635841 44.0
84.646919 72.0
84.707054 196.0
84.731583 124.0
84.763214 76.0
84.789619 196.0
84.825043 96.0
84.847038 172.0
84.875984 188.0
84.957077 160.0
84.980606 140.0
84.983063 168.0
85.028633 172.0
85.053497 204.0
85.109406 92.0
85.131439 100.0
85.166336 184.0
85.22879 164.0
85.254517 100.0
85.294952 116.0
85.316612 184.0
85.340912 96.0
85.368965 188.0
85.40284 124.0
85.428833 188.0
85.449425 144.0
85.469666 104.0
85.526711 68.0
85.539597 80.0
85.596672 176.0
85.626137 200.0
85.674026 212.0
85.702179 128.0
85.721931 220.0
85.744286 180.0
85.772774 136.0
85.80761 156.0
85.839905 88.0
85.854652 156.0
85.889381 164.0
85.911835 116.0
85.96418 204.0
85.980103 168.0
86.014679 144.0
86.028091 68.0
86.052094 192.0
86.109337 164.0
86.124115 144.0
86.148582 208.0
86.23497 132.0
86.249756 132.0
86.279335 208.0
86.292274 132.0
86.313614 160.0
86.336655 104.0
86.388443 240.0
86.419403 152.0
86.453674 208.0
86.499466 96.0
86.512428 184.0
86.536491 180.0
86.549454 132.0
86.574516 172.0
86.602417 360.0
86.636497 64.0
86.664291 116.0
86.721596 156.0
86.740623 148.0
86.806458 216.0
86.864983 156.0
86.897903 160.0
86.920166 140.0
86.955421 104.0
86.979553 104.0
87.000801 260.0
87.020393 52.0
87.039467 192.0
87.10228 172.0
87.119324 108.0
87.139259 88.0
87.181152 212.0
87.243332 192.0
87.304688 180.0
87.329979 228.0
87.383163 148.0
87.417458 188.0
87.43119 144.0
87.447937 124.0
87.477913 192.0
87.51123 92.0
87.577515 128.0
87.582619 192.0
87.611801 336.0
87.760895 148.0
87.773949 148.0
87.800056 124.0
87.851067 240.0
87.902657 192.0
87.917587 44.0
87.95491 68.0
87.967979 124.0
88.010918 132.0
88.065071 84.0
88.085617 84.0
88.156616 172.0
88.17717 120.0
88.194572 116.0
88.248207 56.0
88.263161 212.0
88.337975 96.0
88.392227 156.0
88.446503 136.0
88.487686 152.0
88.513428 176.0
88.543602 116.0
88.604881 132.0
88.620667 136.0
88.655434 156.0
88.691406 436.0
88.707886 148.0
88.740616 172.0
88.785614 160.0
88.827171 104.0
88.856323 204.0
88.877533 148.0
88.89817 80.0
89.029579 220.0
89.05674 164.0
89.084045 148.0
89.125381 284.0
89.168602 176.0
89.34951 228.0
89.377335 192.0
89.46579 116.0
89.548645 124.0
89.563713 112.0
89.605156 72.0
89.61834 220.0
89.660301 188.0
89.70385 172.0
89.717339 136.0
89.771019 156.0
89.83326 280.0
89.853363 152.0
89.899879 156.0
89.916283 56.0
89.937042 120.0
89.964348 284.0
90.010666 148.0
90.061661 180.0
90.093773 164.0
90.115036 140.0
90.151222 192.0
90.184471 36.0
90.216133 80.0
90.248138 252.0
90.267654 48.0
90.31115 140.0
90.36853 156.0
90.384933 32.0
90.444191 128.0
90.44783 168.0
90.481461 180.0
90.50473 164.0
90.523109 128.0
90.564774 80.0
90.578033 108.0
90.651772 104.0
90.728119 188.0
90.816864 40.0
90.859474 160.0
90.904129 72.0
90.925697 308.0
90.939034 112.0
91.009384 168.0
91.056061 1256.0
91.114883 100.0
91.168976 60.0
91.308769 116.0
91.324646 160.0
91.348122 168.0
91.367729 340.0
91.388657 140.0
91.430519 92.0
91.489525 92.0
91.525703 112.0
91.601883 80.0
91.622833 156.0
91.641884 292.0
91.687622 180.0
91.700958 188.0
91.716209 92.0
91.731461 108.0
91.753571 208.0
91.851646 124.0
91.874481 100.0
91.933189 156.0
91.948181 140.0
91.967979 180.0
91.982483 184.0
92.051804 220.0
92.091919 172.0
92.139839 132.0
92.157036 108.0
92.182007 172.0
92.218185 152.0
92.258324 120.0
92.276489 140.0
92.300865 224.0
92.329071 52.0
92.359673 132.0
92.389137 188.0
92.470642 176.0
92.505005 164.0
92.528069 80.0
92.57402 32.0
92.594429 220.0
92.658302 180.0
92.71003 148.0
92.763702 132.0
92.797028 156.0
92.848137 212.0
92.928627 84.0
92.957405 124.0
92.987083 224.0
93.03994 144.0
93.058701 352.0
93.072586 480.0
93.111237 92.0
93.12561 208.0
93.189743 168.0
93.228851 204.0
93.255074 164.0
93.281982 40.0
93.32386 336.0
93.458351 136.0
93.53463 304.0
93.585945 128.0
93.601349 152.0
93.641792 100.0
93.687431 196.0
93.759315 56.0
93.781784 164.0
93.844131 152.0
93.861992 180.0
93.895485 208.0
93.96756 120.0
93.990768 248.0
94.01387 112.0
94.034271 140.0
94.066032 1032.0
94.089149 152.0
94.110382 160.0
94.135757 364.0
94.18084 180.0
94.199791 176.0
94.264595 172.0
94.286171 160.0
94.361549 172.0
94.396355 124.0
94.419563 144.0
94.440834 172.0
94.458244 160.0
94.491135 152.0
94.510483 108.0
94.537567 100.0
94.559998 184.0
94.616928 96.0
94.633514 288.0
94.677856 164.0
94.69632 136.0
94.71685 100.0
94.723694 60.0
94.728172 108.0
94.746681 108.0
94.768456 168.0
94.800262 104.0
94.806633 68.0
94.811775 168.0
94.85714 308.0
94.903664 108.0
94.938568 152.0
94.969185 188.0
95.004517 104.0
95.029739 152.0
95.049828 384.0
95.067833 284.0
95.0933 196.0
95.119003 140.0
95.170273 216.0
95.227005 128.0
95.271065 432.0
95.29184 160.0
95.308403 164.0
95.341454 180.0
95.349167 96.0
95.35585 68.0
95.376823 216.0
95.397697 216.0
95.422058 132.0
95.445389 252.0
95.516113 120.0
95.564705 208.0
95.624359 116.0
95.639931 164.0
95.669128 124.0
95.688591 160.0
95.727539 172.0
95.760948 216.0
95.834663 76.0
95.889229 116.0
95.957451 156.0
95.986137 124.0
96.009583 212.0
96.047157 144.0
96.080597 584.0
96.107635 200.0
96.218727 152.0
96.261032 116.0
96.302002 120.0
96.320427 196.0
96.371216 92.0
96.410301 124.0
96.423981 44.0
96.449387 196.0
96.495872 204.0
96.537369 112.0
96.56279 32.0
96.589195 136.0
96.614143 204.0
96.660561 180.0
96.691589 168.0
96.723228 192.0
96.736931 76.0
96.757523 356.0
96.811333 212.0
96.838753 172.0
96.879883 112.0
96.901436 92.0
96.926903 108.0
96.952682 128.0
96.977859 176.0
96.992348 168.0
97.017059 120.0
97.065971 748.0
97.081581 128.0
97.117065 160.0
97.154335 156.0
97.216927 160.0
97.2603 212.0
97.331245 200.0
97.360428 164.0
97.383995 88.0
97.410118 200.0
97.427208 124.0
97.440956 252.0
97.454712 140.0
97.484184 148.0
97.523491 96.0
97.539215 232.0
97.590332 124.0
97.65522 136.0
97.682762 188.0
97.747681 112.0
97.76429 148.0
97.809578 176.0
97.841644 92.0
97.905167 196.0
97.918953 124.0
97.983711 216.0
98.059914 440.0
98.097015 3816.0
98.133743 228.0
98.167259 132.0
98.192894 220.0
98.214592 80.0
98.255867 200.0
98.302299 140.0
98.354683 124.0
98.388245 128.0
98.41124 136.0
98.439575 140.0
98.459328 148.0
98.4991 228.0
98.524506 140.0
98.540314 64.0
98.685982 180.0
98.713562 208.0
98.737976 140.0
98.769623 60.0
98.815125 144.0
98.857643 184.0
98.881409 200.0
98.911469 152.0
98.933868 188.0
98.953041 204.0
98.977425 240.0
98.997223 48.0
99.036606 104.0
99.070877 108.0
99.100479 540.0
99.124001 164.0
99.146027 172.0
99.177513 208.0
99.191383 48.0
99.218231 332.0
99.246895 184.0
99.270782 176.0
99.300438 168.0
99.32225 240.0
99.378181 208.0
99.39109 132.0
99.417488 36.0
99.441299 204.0
99.498863 164.0
99.513611 216.0
99.529144 144.0
99.55645 188.0
99.584251 172.0
99.598152 112.0
99.648949 148.0
99.711403 128.0
99.725311 48.0
99.743202 96.0
99.769524 100.0
99.788925 164.0
99.808807 96.0
99.828697 200.0
99.864494 164.0
99.884384 56.0
99.953018 192.0
99.975899 136.0
100.003761 168.0
100.021225 176.0
100.043571 68.0
100.07489 304.0
100.156837 168.0
100.206879 148.0
100.276619 152.0
100.40023 188.0
100.444107 152.0
100.48999 204.0
100.523911 168.0
100.550438 96.0
100.631691 180.0
100.657646 124.0
100.689598 88.0
100.71257 304.0
100.760376 152.0
100.783485 212.0
100.816216 180.0
100.849434 216.0
100.881958 44.0
100.931396 332.0
100.975395 80.0
101.031395 100.0
101.059441 592.0
101.087418 204.0
101.184845 184.0
101.20752 164.0
101.22554 140.0
101.286041 192.0
101.313667 168.0
101.345718 136.0
101.376869 312.0
101.393814 164.0
101.413857 152.0
101.431892 140.0
101.516098 140.0
101.550194 184.0
101.581436 180.0
101.626419 220.0
101.662537 148.0
101.708702 352.0
101.727097 172.0
101.75634 164.0
101.781174 196.0
101.823143 104.0
101.843231 172.0
101.875999 240.0
101.899475 188.0
101.983871 152.0
101.999954 120.0
102.019806 160.0
102.064285 32.0
102.092812 1052.0
102.13266 152.0
102.14875 172.0
102.166855 132.0
102.207092 156.0
102.273506 112.0
102.295647 132.0
102.309738 184.0
102.360077 60.0
102.414452 80.0
102.456749 176.0
102.479446 136.0
102.519272 132.0
102.559517 160.0
102.642174 180.0
102.694603 156.0
102.747543 204.0
102.771896 140.0
102.792542 228.0
102.825745 56.0
102.845932 112.0
102.864098 208.0
102.922646 144.0
103.033867 112.0
103.055717 816.0
103.089378 44.0
103.126419 156.0
103.153992 172.0
103.203499 212.0
103.225975 236.0
103.255074 180.0
103.270226 84.0
103.284386 152.0
103.299576 144.0
103.344063 80.0
103.378983 132.0
103.411858 128.0
103.434967 112.0
103.454361 80.0
103.476631 64.0
103.490807 80.0
103.513077 200.0
103.535355 176.0
103.571808 112.0
103.608269 196.0
103.654869 176.0
103.671188 148.0
103.701485 172.0
103.725807 172.0
103.75824 168.0
103.778511 116.0
103.796761 128.0
103.817039 120.0
103.890053 124.0
103.921677 124.0
103.934692 192.0
103.971214 116.0
104.04023 124.0
104.054436 164.0
104.075127 212.0
104.139725 56.0
104.161224 116.0
104.21489 128.0
104.23114 204.0
104.259666 108.0
104.290077 156.0
104.312325 144.0
104.36515 172.0
104.407997 48.0
104.4263 176.0
104.501564 96.0
104.515808 300.0
104.582573 124.0
104.605354 60.0
104.669312 176.0
104.72345 140.0
104.772339 140.0
104.828003 256.0
104.849487 160.0
104.882378 112.0
104.920151 180.0
104.929916 112.0
104.975021 216.0
105.00843 160.0
105.038765 184.0
105.069496 2456.0
105.091751 208.0
105.165886 148.0
105.182381 152.0
105.257751 176.0
105.28022 380.0
105.333321 160.0
105.36396 176.0
105.394608 160.0
105.419128 168.0
105.443649 140.0
105.484428 160.0
105.517235 112.0
105.564262 120.0
105.580627 148.0
105.640511 172.0
105.666534 132.0
105.69825 376.0
105.716499 188.0
105.80365 196.0
105.839417 180.0
105.882217 204.0
105.901939 164.0
105.928864 28.0
105.989456 128.0
106.003128 172.0
106.028969 152.0
106.070824 128.0
106.101547 184.0
106.115059 244.0
106.154015 164.0
106.170906 156.0
106.199135 124.0
106.229904 204.0
106.307632 176.0
106.350967 68.0
106.422813 84.0
106.455666 140.0
106.500847 252.0
106.5522 184.0
106.599464 124.0
106.625999 92.0
106.703773 272.0
106.728088 132.0
106.828979 196.0
106.857208 168.0
106.893593 204.0
106.930557 156.0
106.971718 184.0
106.994362 184.0
107.023186 132.0
107.050606 1988.0
107.083702 356.0
107.11174 152.0
107.12822 92.0
107.168198 220.0
107.187973 132.0
107.244095 192.0
107.297211 120.0
107.396187 172.0
107.435379 156.0
107.458771 120.0
107.497276 132.0
107.550987 152.0
107.602539 96.0
107.627319 56.0
107.647964 204.0
107.670151 116.0
107.732132 192.0
107.76683 72.0
107.790497 76.0
107.815292 136.0
107.838028 172.0
107.869034 180.0
107.886055 220.0
107.900375 124.0
107.927422 164.0
107.959625 132.0
107.978615 172.0
108.011711 84.0
108.052307 640.0
108.082024 37664.0
108.127571 40.0
108.166763 60.0
108.178284 148.0
108.20002 56.0
108.220505 240.0
108.235832 164.0
108.260941 180.0
108.322205 100.0
108.33741 336.0
108.380211 32.0
108.40905 188.0
108.430031 132.0
108.469322 200.0
108.503288 104.0
108.525299 144.0
108.564697 116.0
108.595741 144.0
108.62899 96.0
108.65181 48.0
108.670425 148.0
108.694611 188.0
108.711983 316.0
108.740646 64.0
108.74913 200.0
108.75386 244.0
108.782547 104.0
108.872032 160.0
108.940369 112.0
108.981918 140.0
109.022629 128.0
109.065392 2988.0
109.086746 3508.0
109.117531 160.0
109.130463 128.0
109.149979 56.0
109.178871 112.0
109.217865 136.0
109.241219 132.0
109.301537 156.0
109.34166 104.0
109.368721 56.0
109.386635 164.0
109.414513 100.0
109.451241 144.0
109.485306 80.0
109.506134 188.0
109.532333 372.0
109.576958 140.0
109.595642 76.0
109.610298 224.0
109.643639 96.0
109.778168 136.0
109.785088 108.0
109.791306 120.0
109.799805 88.0
109.887604 108.0
109.909805 156.0
109.935593 164.0
109.962723 164.0
109.983597 188.0
110.041138 156.0
110.06366 336.0
110.097107 2836.0
110.133926 96.0
110.148827 60.0
110.164276 136.0
110.187546 180.0
110.217491 232.0
110.242249 104.0
110.259285 132.0
110.274887 112.0
110.388893 60.0
110.434906 384.0
110.543694 128.0
110.57299 212.0
110.746765 180.0
110.766609 164.0
110.815895 184.0
110.843132 264.0
110.872467 60.0
110.887138 176.0
110.914383 100.0
110.962601 160.0
110.97937 160.0
110.99482 76.0
111.043884 336.0
111.078224 472.0
111.097229 348.0
111.187042 104.0
111.214325 132.0
111.27623 208.0
111.314438 204.0
111.354996 140.0
111.385803 168.0
111.424316 128.0
111.476845 160.0
111.506645 136.0
111.539894 152.0
111.573524 136.0
111.603188 148.0
111.63707 108.0
111.669594 264.0
111.819633 92.0
111.88488 132.0
111.924889 268.0
111.969109 224.0
112.015442 116.0
112.07605 1764.0
112.115417 176.0
112.179039 132.0
112.20932 144.0
112.363998 192.0
112.394928 120.0
112.412949 148.0
112.425468 152.0
112.441353 228.0
112.459862 140.0
112.492004 120.0
112.542679 204.0
112.565903 88.0
112.59758 340.0
112.614471 136.0
112.644043 132.0
112.675735 164.0
112.692635 172.0
112.722214 132.0
112.760254 100.0
112.796188 128.0
112.812119 104.0
112.859604 156.0
112.92939 112.0
112.967468 180.0
113.011894 96.0
113.06218 152.0
113.078865 68.0
113.1101 168.0
113.124802 148.0
113.185455 124.0
113.215103 76.0
113.244751 232.0
113.293472 192.0
113.308296 52.0
113.378418 128.0
113.40789 64.0
113.446045 68.0
113.491341 132.0
113.501068 160.0
113.560547 140.0
113.598732 104.0
113.613579 200.0
113.637871 124.0
113.709061 132.0
113.728165 100.0
113.747269 224.0
113.81073 136.0
113.874283 180.0
113.885773 192.0
113.920547 232.0
113.951134 184.0
113.973618 108.0
114.004257 196.0
114.034004 180.0
114.059059 168.0
114.092377 1960.0
114.114662 212.0
114.136047 200.0
114.176453 184.0
114.204987 208.0
114.23037 160.0
114.261536 176.0
114.289284 188.0
114.365799 36.0
114.416893 92.0
114.497803 184.0
114.512711 152.0
114.535835 164.0
114.552849 180.0
114.573418 188.0
114.627747 60.0
114.651192 140.0
114.666107 140.0
114.754288 196.0
114.783356 152.0
114.807709 152.0
114.86013 148.0
114.902992 256.0
114.928398 76.0
114.946701 136.0
115.007355 152.0
115.022301 168.0
115.05542 924.0
115.076988 368.0
115.101212 264.0
115.131187 84.0
115.14817 156.0
115.167496 156.0
115.182442 176.0
115.218758 100.0
115.226616 124.0
115.28624 124.0
115.353256 128.0
115.387596 72.0
115.426079 72.0
115.451134 184.0
115.482422 104.0
115.50293 188.0
115.52446 136.0
115.545853 80.0
115.596672 112.0
115.648903 152.0
115.698418 180.0
115.719208 120.0
115.824013 132.0
115.845558 216.0
115.879837 48.0
115.959122 132.0
115.997093 240.0
116.009003 236.0
116.025574 88.0
116.064163 172.0
116.109192 196.0
116.134933 208.0
116.182121 116.0
116.237907 28.0
116.278679 144.0
116.295853 148.0
116.319458 148.0
116.37957 128.0
116.420372 100.0
116.437553 104.0
116.454735 120.0
116.542809 204.0
116.578445 232.0
116.609787 164.0
116.650261 72.0
116.669609 108.0
116.699707 144.0
116.751518 84.0
116.787491 112.0
116.81369 60.0
116.86747 192.0
116.895447 120.0
116.916962 136.0
116.975075 136.0
117.032974 152.0
117.069885 2864.0
117.104332 124.0
117.141922 224.0
117.171501 132.0
117.211914 128.0
117.23999 152.0
117.29969 136.0
117.330521 172.0
117.347763 172.0
117.412109 332.0
117.445427 376.0
117.46035 136.0
117.479317 104.0
117.552673 148.0
117.576416 148.0
117.602501 232.0
117.690079 128.0
117.718895 124.0
117.746964 112.0
117.764244 156.0
117.818245 192.0
117.854973 188.0
117.87442 144.0
117.889549 100.0
117.904671 116.0
117.956543 136.0
118.00293 148.0
118.036537 152.0
118.070923 524.0
118.170639 164.0
118.222206 212.0
118.250702 104.0
118.277023 200.0
118.30265 88.0
118.330795 144.0
118.352448 120.0
118.458565 120.0
118.493225 112.0
118.585175 220.0
118.601288 148.0
118.666611 132.0
118.686127 72.0
118.727325 136.0
118.766304 144.0
118.783562 132.0
118.797539 216.0
118.844696 148.0
118.87484 136.0
118.903259 164.0
119.022446 128.0
119.049828 2244.0
119.086304 764.0
119.15596 144.0
119.189697 208.0
119.225693 120.0
119.276627 188.0
119.317924 164.0
119.373688 232.0
119.446846 240.0
119.481033 312.0
119.519585 212.0
119.56916 160.0
119.629013 112.0
119.644257 200.0
119.685623 100.0
119.730598 116.0
119.748077 176.0
119.792336 88.0
119.85334 52.0
119.87513 136.0
119.932091 144.0
119.981926 212.0
120.003731 104.0
120.02771 132.0
120.053703 236.0
120.083961 372.0
120.112762 136.0
120.147125 176.0
120.151039 192.0
120.16053 116.0
120.165901 180.0
120.205818 172.0
120.23056 344.0
120.254593 172.0
120.333176 132.0
120.358826 112.0
120.409599 180.0
120.479645 120.0
120.504227 112.0
120.567116 160.0
120.60405 188.0
120.687119 140.0
120.711174 52.0
120.770218 132.0
120.816154 144.0
120.884743 112.0
120.932129 128.0
120.973717 152.0
121.025558 400.0
121.066017 2192.0
121.08844 4584.0
121.180168 104.0
121.195084 152.0
121.245316 168.0
121.331894 332.0
121.409729 120.0
121.432526 172.0
121.456734 200.0
121.499664 140.0
121.528183 72.0
121.56768 272.0
121.604988 152.0
121.625107 240.0
121.655472 116.0
121.678925 88.0
121.727921 152.0
121.777878 252.0
121.81797 152.0
121.865311 284.0
121.907059 156.0
121.946968 96.0
121.979561 168.0
122.020882 132.0
122.066902 308.0
122.097481 20104.0
122.184036 56.0
122.223732 128.0
122.260498 164.0
122.312729 220.0
122.336937 56.0
122.367157 132.0
122.436928 176.0
122.458267 196.0
122.491081 84.0
122.534195 84.0
122.557175 88.0
122.594635 156.0
122.618874 52.0
122.648163 152.0
122.700195 172.0
122.722481 44.0
122.751144 104.0
122.780075 144.0
122.832748 128.0
122.861427 124.0
122.885689 128.0
122.926094 64.0
122.944733 148.0
122.960526 92.0
123.044334 176.0
123.08046 1344.0
123.10173 2336.0
123.148979 148.0
123.183723 128.0
123.210388 220.0
123.232323 252.0
123.274307 40.0
123.294197 116.0
123.355965 152.0
123.455574 132.0
123.484261 148.0
123.515289 96.0
123.539619 156.0
123.568001 116.0
123.59272 80.0
123.621483 292.0
123.663528 64.0
123.71666 276.0
123.741005 80.0
123.789391 160.0
123.829224 148.0
123.882874 132.0
123.924698 128.0
123.931877 192.0
123.978668 152.0
124.01532 192.0
124.04007 200.0
124.076218 1236.0
124.112297 8500.0
124.199104 72.0
124.242577 188.0
124.266273 168.0
124.28846 132.0
124.303993 32.0
124.329247 104.0
124.357254 168.0
124.380585 260.0
124.414963 248.0
124.480141 180.0
124.519325 56.0
124.537094 144.0
124.580963 88.0
124.610397 104.0
124.694839 256.0
124.719284 176.0
124.768188 100.0
124.806297 200.0
124.824562 160.0
124.83934 116.0
124.87397 112.0
124.927277 156.0
124.963905 184.0
125.059608 848.0
125.076729 348.0
125.11676 692.0
125.155312 116.0
125.190941 76.0
125.228798 160.0
125.297852 168.0
125.312706 96.0
125.331276 108.0
125.389214 128.0
125.411499 148.0
125.431564 132.0
125.460541 140.0
125.5252 28.0
125.554184 92.0
125.621101 116.0
125.670181 204.0
125.696953 328.0
125.717041 68.0
125.745003 168.0
125.790688 176.0
125.859901 156.0
125.916817 180.0
125.950165 76.0
126.031883 120.0
126.06086 128.0
126.068428 124.0
126.092239 544.0
126.130219 144.0
126.145866 116.0
126.178726 120.0
126.250946 92.0
126.295219 124.0
126.347122 180.0
126.388367 168.0
126.407539 104.0
126.450058 252.0
126.500183 104.0
126.551704 196.0
126.584373 152.0
126.612938 296.0
126.667236 180.0
126.684868 152.0
126.777023 176.0
126.803917 152.0
126.828568 128.0
126.907028 172.0
126.963089 212.0
126.990448 188.0
127.016914 228.0
127.051041 488.0
127.074577 272.0
127.094391 172.0
127.177452 184.0
127.226807 196.0
127.260193 144.0
127.287819 124.0
127.387291 84.0
127.407509 60.0
127.435249 188.0
127.472672 76.0
127.49926 144.0
127.517265 128.0
127.562569 176.0
127.618767 184.0
127.636757 180.0
127.712288 176.0
127.744713 116.0
127.776207 152.0
127.850456 140.0
127.870712 152.0
127.893219 88.0
128.028305 156.0
128.062805 2284.0
128.106964 3656.0
128.200638 236.0
128.237823 44.0
128.258102 120.0
128.27388 108.0
128.289673 44.0
128.458862 140.0
128.515198 192.0
128.535492 196.0
128.5513 156.0
128.588654 208.0
128.618256 144.0
128.657379 188.0
128.681335 216.0
128.713348 96.0
128.752655 320.0
128.800888 152.0
128.82901 208.0
128.871933 196.0
128.910034 108.0
128.964951 48.0
128.998489 156.0
129.017731 180.0
129.039169 92.0
129.070389 3232.0
129.109329 496.0
129.133621 144.0
129.162552 72.0
129.199753 40.0
129.222 124.0
129.269882 184.0
129.290253 180.0
129.326691 204.0
129.347397 176.0
129.410217 180.0
129.428329 216.0
129.443115 160.0
129.462296 148.0
129.487289 124.0
129.530243 84.0
129.557434 228.0
129.605072 156.0
129.650269 88.0
129.722855 100.0
129.750061 144.0
129.771133 96.0
129.799942 136.0
129.833054 100.0
129.870239 152.0
129.908798 148.0
129.93602 104.0
129.956451 48.0
130.013519 204.0
130.081711 1016.0
130.124832 636.0
130.165268 56.0
130.181168 176.0
130.204483 164.0
130.281097 48.0
130.342438 180.0
130.376526 128.0
130.435974 128.0
130.460617 108.0
130.503159 96.0
130.560364 180.0
130.642548 128.0
130.710434 228.0
130.770187 108.0
130.797287 112.0
130.8246 112.0
130.865585 116.0
130.904282 88.0
130.932831 120.0
130.988556 72.0
131.026184 184.0
131.049393 912.0
131.086533 3200.0
131.184525 40.0
131.223282 68.0
131.257751 68.0
131.300812 80.0
131.333176 228.0
131.396606 124.0
131.437683 140.0
131.465057 44.0
131.487213 176.0
131.528961 156.0
131.59288 236.0
131.661392 36.0
131.700211 128.0
131.723053 112.0
131.752747 236.0
131.775604 200.0
131.833832 124.0
131.869843 152.0
131.911575 128.0
131.931 160.0
131.981308 200.0
132.0495 272.0
132.056046 176.0
132.086395 568.0
132.137024 92.0
132.173431 208.0
132.200974 108.0
132.242096 208.0
132.284653 288.0
132.31076 172.0
132.349686 156.0
132.380417 196.0
132.404724 140.0
132.435715 184.0
132.456024 92.0
132.537506 172.0
132.571869 148.0
132.593887 112.0
132.686478 92.0
132.70253 176.0
132.740082 180.0
132.775909 228.0
132.812592 136.0
132.883713 132.0
132.900955 164.0
132.94487 116.0
132.996155 136.0
133.015488 104.0
133.037476 168.0
133.065781 2292.0
133.093369 240.0
133.202042 180.0
133.237274 144.0
133.261841 172.0
133.292343 148.0
133.298401 144.0
133.305496 236.0
133.316544 104.0
133.325577 184.0
133.347565 184.0
133.561508 144.0
133.591293 104.0
133.611938 172.0
133.66951 200.0
133.701736 124.0
133.731659 132.0
133.752365 44.0
133.776093 116.0
133.81546 88.0
133.942459 172.0
134.003937 180.0
134.026413 176.0
134.064041 416.0
134.096146 1392.0
134.133972 144.0
134.206314 76.0
134.222336 172.0
134.240784 180.0
134.261536 108.0
134.277679 84.0
134.304672 180.0
134.344574 120.0
134.360397 84.0
134.392685 136.0
134.469177 240.0
134.511261 204.0
134.600754 180.0
134.681595 92.0
134.760132 144.0
134.797104 224.0
134.883286 168.0
134.903412 112.0
134.941345 196.0
134.970627 172.0
135.002838 128.0
135.042435 176.0
135.0811 2248.0
135.102448 756.0
135.183273 120.0
135.264282 84.0
135.294373 176.0
135.315201 276.0
135.445129 188.0
135.461105 284.0
135.574631 56.0
135.787918 132.0
135.820389 216.0
135.838943 132.0
135.889984 184.0
135.927109 64.0
135.982803 72.0
136.010651 80.0
136.045471 144.0
136.077026 1144.0
136.111176 1120.0
136.19664 76.0
136.234497 120.0
136.252029 184.0
136.287003 136.0
136.363693 152.0
136.413834 104.0
136.421646 60.0
136.429703 100.0
136.519455 44.0
136.538055 144.0
136.554337 148.0
136.575272 52.0
136.619003 152.0
136.636581 56.0
136.670639 160.0
136.689255 96.0
136.705551 80.0
136.747437 108.0
136.793991 152.0
136.824249 60.0
136.859177 116.0
136.879379 184.0
136.926437 140.0
137.001251 184.0
137.024963 196.0
137.034576 108.0
137.060089 3808.0
137.116043 208.0
137.220306 88.0
137.269272 188.0
137.292587 128.0
137.32991 128.0
137.350906 188.0
137.472778 232.0
137.49556 80.0
137.558578 176.0
137.632339 128.0
137.661301 148.0
137.717346 148.0
137.743927 160.0
137.836502 116.0
137.871506 204.0
137.912384 296.0
137.999008 144.0
138.029755 212.0
138.061401 148.0
138.092209 2440.0
138.126846 320.0
138.169907 120.0
138.216827 220.0
138.299545 120.0
138.407227 116.0
138.444687 96.0
138.550095 64.0
138.575867 176.0
138.601639 152.0
138.629761 200.0
138.650192 196.0
138.657669 92.0
138.663528 68.0
138.738739 256.0
138.816757 192.0
138.874939 144.0
138.918823 156.0
138.981491 164.0
139.005737 96.0
139.05423 168.0
139.07605 1100.0
139.091599 360.0
139.152817 64.0
139.197433 128.0
139.218567 128.0
139.25145 164.0
139.271149 136.0
139.345398 108.0
139.439392 116.0
139.498154 76.0
139.529602 128.0
139.56868 216.0
139.658051 224.0
139.676865 348.0
139.715775 104.0
139.752151 152.0
139.78273 104.0
139.810974 176.0
139.838486 312.0
139.855698 168.0
139.91571 80.0
139.968689 160.0
139.997589 236.0
140.027557 132.0
140.072159 348.0
140.107941 25052.0
140.140869 88.0
140.18335 152.0
140.219894 144.0
140.223587 180.0
140.250565 272.0
140.275803 136.0
140.33316 200.0
140.363647 104.0
140.391708 140.0
140.498413 136.0
140.557968 112.0
140.581573 120.0
140.633484 152.0
140.68306 236.0
140.713745 40.0
140.735001 224.0
140.753891 104.0
140.777496 36.0
140.864105 168.0
140.909775 140.0
141.069855 3368.0
141.111252 2712.0
141.165039 192.0
141.20816 52.0
141.269104 284.0
141.284149 128.0
141.318787 28.0
141.339111 132.0
141.377945 96.0
141.394516 196.0
141.421951 168.0
141.460785 156.0
141.477356 156.0
141.513962 164.0
141.646774 176.0
141.666809 128.0
141.683395 56.0
141.815521 132.0
141.870605 320.0
141.908859 88.0
141.927505 88.0
141.963074 92.0
142.033798 220.0
142.07869 628.0
142.123657 764.0
142.171417 152.0
142.26915 144.0
142.290009 96.0
142.311874 112.0
142.335617 108.0
142.361923 184.0
142.413086 368.0
142.435364 236.0
142.513763 136.0
142.535141 152.0
142.585541 116.0
142.620697 136.0
142.637344 136.0
142.687256 320.0
142.722931 160.0
142.739563 164.0
142.772858 164.0
142.791885 52.0
142.829941 80.0
142.846588 92.0
142.875137 84.0
142.977448 136.0
143.021332 156.0
143.048203 308.0
143.0858 2768.0
143.10965 276.0
143.131119 196.0
143.189331 144.0
143.206009 192.0
143.253647 48.0
143.315582 40.0
143.368011 196.0
143.389465 92.0
143.40921 124.0
143.432358 116.0
143.541428 128.0
143.604034 56.0
143.660477 144.0
143.720917 108.0
143.805634 44.0
143.837585 156.0
143.86412 204.0
143.886719 84.0
143.910492 184.0
143.95723 132.0
144.004868 148.0
144.031265 144.0
144.057053 1476.0
144.098221 1636.0
144.163589 188.0
144.186569 108.0
144.21286 120.0
144.229584 204.0
144.273209 156.0
144.318787 268.0
144.358688 128.0
144.406525 92.0
144.487854 136.0
144.557236 92.0
144.616135 164.0
144.653641 240.0
144.674515 196.0
144.691269 80.0
144.739151 88.0
144.821442 188.0
144.866089 176.0
144.935562 96.0
144.969116 192.0
145.030975 392.0
145.06604 3148.0
145.102737 2492.0
145.148895 104.0
145.177673 112.0
145.211243 68.0
145.247223 60.0
145.28096 196.0
145.392883 136.0
145.409409 208.0
145.431976 96.0
145.463181 88.0
145.500717 164.0
145.524506 132.0
145.580826 100.0
145.621658 136.0
145.643265 84.0
145.676895 76.0
145.71727 204.0
145.745575 224.0
145.894714 252.0
145.922028 152.0
145.943665 180.0
145.985245 108.0
145.993332 104.0
146.001633 120.0
146.030228 180.0
146.072189 1180.0
146.097595 1208.0
146.162537 112.0
146.188599 164.0
146.222549 64.0
146.241531 144.0
146.268433 72.0
146.303802 144.0
146.326202 88.0
146.412888 136.0
146.439392 28.0
146.506836 172.0
146.531219 132.0
146.593567 124.0
146.646591 112.0
146.692383 248.0
146.712372 164.0
146.729584 84.0
146.797638 116.0
146.910416 96.0
146.957657 120.0
147.010056 152.0
147.048141 144.0
147.080231 3068.0
147.105057 648.0
147.138672 40.0
147.189651 140.0
147.22406 328.0
147.256989 156.0
147.287781 144.0
147.340698 128.0
147.387146 160.0
147.435776 36.0
147.472687 172.0
147.551788 56.0
147.682892 92.0
147.803329 224.0
147.834793 192.0
147.880768 140.0
147.943695 108.0
148.001801 60.0
148.055084 132.0
148.080521 496.0
148.111954 928.0
148.156036 100.0
148.188309 68.0
148.224655 112.0
148.251297 140.0
148.334412 164.0
148.384613 104.0
148.403152 192.0
148.433105 116.0
148.491302 128.0
148.663559 96.0
148.72908 48.0
148.746078 108.0
148.772781 60.0
148.893127 148.0
148.938187 136.0
148.967041 84.0
148.993759 92.0
149.010544 84.0
149.061295 404.0
149.096207 868.0
149.117538 108.0
149.156448 144.0
149.222214 156.0
149.259415 160.0
149.29686 132.0
149.302353 92.0
149.31044 128.0
149.334076 120.0
149.374039 168.0
149.407913 112.0
149.506805 148.0
149.557922 176.0
149.58226 208.0
149.599289 200.0
149.690704 132.0
149.701233 148.0
149.764877 180.0
149.791672 52.0
149.810745 208.0
149.947601 68.0
150.044174 156.0
150.091904 1284.0
150.128448 248.0
150.181656 120.0
150.208344 128.0
150.21727 120.0
150.223221 128.0
150.306137 168.0
150.396378 60.0
150.435791 136.0
150.454956 200.0
150.523315 104.0
150.550186 136.0
150.567276 60.0
150.618561 120.0
150.660095 112.0
150.698074 124.0
150.721176 88.0
150.774933 56.0
150.875153 156.0
150.945038 164.0
150.977844 164.0
151.075745 2652.0
151.105743 268.0
151.149536 84.0
151.175995 200.0
151.20047 80.0
151.24707 328.0
151.281235 60.0
151.322189 160.0
151.352234 128.0
151.39386 132.0
151.420807 156.0
151.443069 88.0
151.491837 372.0
151.511429 200.0
151.538376 28.0
151.604782 164.0
151.651108 96.0
151.675613 120.0
151.700134 116.0
151.736282 192.0
151.788391 260.0
151.844788 200.0
151.94046 168.0
151.968613 84.0
152.007538 164.0
152.031235 56.0
152.070343 496.0
152.107712 19280.0
152.186111 232.0
152.215347 92.0
152.262543 144.0
152.291473 104.0
152.328323 36.0
152.355347 64.0
152.406937 128.0
152.442505 260.0
152.478973 204.0
152.496872 160.0
152.519974 72.0
152.547012 104.0
152.571609 48.0
152.620575 144.0
152.642899 288.0
152.663849 132.0
152.69455 100.0
152.734894 148.0
152.785553 320.0
152.811661 112.0
152.839676 140.0
152.866592 204.0
152.891357 92.0
152.956085 204.0
153.070175 1624.0
153.112335 3596.0
153.137878 152.0
153.179428 164.0
153.206528 52.0
153.232361 164.0
153.365112 216.0
153.406769 124.0
153.443115 184.0
153.480087 164.0
153.514618 160.0
153.55368 232.0
153.580826 320.0
153.600937 92.0
153.654388 180.0
153.71936 140.0
153.74025 112.0
153.759964 136.0
153.784393 148.0
153.830414 76.0
153.903824 104.0
153.979553 120.0
154.021973 168.0
154.077423 1468.0
154.123566 27580.0
154.171127 116.0
154.17514 124.0
154.196671 196.0
154.222092 148.0
154.243347 172.0
154.264084 180.0
154.274673 100.0
154.278503 164.0
154.321884 208.0
154.356186 392.0
154.385391 168.0
154.436462 372.0
154.459671 128.0
154.51001 112.0
154.53772 40.0
154.579285 84.0
154.604034 144.0
154.656006 72.0
154.759781 156.0
154.787216 140.0
154.804535 128.0
154.911041 80.0
154.928375 76.0
154.966171 152.0
155.025253 120.0
155.057053 380.0
155.086029 5680.0
155.127563 3728.0
155.181168 124.0
155.23642 56.0
155.265472 152.0
155.294388 240.0
155.340042 64.0
155.363495 132.0
155.378174 120.0
155.401901 136.0
155.444092 72.0
155.475113 152.0
155.490952 208.0
155.509979 116.0
155.54747 220.0
155.622803 136.0
155.677429 96.0
155.754822 140.0
155.791672 84.0
155.831253 164.0
155.840836 152.0
155.84845 132.0
155.905807 120.0
155.929916 124.0
155.968109 104.0
156.035217 48.0
156.061768 124.0
156.090607 1092.0
156.138992 828.0
156.180786 104.0
156.197479 200.0
156.244064 316.0
156.265305 260.0
156.286423 156.0
156.330215 80.0
156.357574 128.0
156.383469 156.0
156.413345 132.0
156.456787 160.0
156.495193 212.0
156.57019 80.0
156.595108 56.0
156.620544 172.0
156.654877 196.0
156.682281 88.0
156.721664 204.0
156.743134 92.0
156.786942 96.0
156.844254 260.0
156.866699 212.0
156.894119 92.0
156.930328 220.0
156.941055 116.0
156.947067 132.0
157.018784 352.0
157.065735 1700.0
157.101639 2120.0
157.144257 200.0
157.173935 144.0
157.211472 68.0
157.230576 76.0
157.260788 36.0
157.284927 212.0
157.324249 76.0
157.354935 180.0
157.372604 76.0
157.398102 104.0
157.443039 128.0
157.478012 136.0
157.516647 136.0
157.552948 204.0
157.570435 192.0
157.600418 176.0
157.672882 96.0
157.694397 112.0
157.738892 204.0
157.777252 148.0
157.866165 100.0
157.926971 108.0
157.945404 128.0
157.993195 156.0
158.031952 164.0
158.069412 1020.0
158.098083 832.0
158.190628 208.0
158.225204 108.0
158.283264 48.0
158.323318 84.0
158.353378 56.0
158.385941 148.0
158.438843 132.0
158.458023 208.0
158.508698 124.0
158.563828 148.0
158.616455 92.0
158.665787 148.0
158.695465 188.0
158.744324 72.0
158.781509 140.0
158.819016 148.0
158.874741 92.0
158.936111 212.0
158.980621 240.0
159.046524 140.0
159.080109 3988.0
159.111725 424.0
159.160858 216.0
159.180954 108.0
159.217972 284.0
159.237137 184.0
159.292831 168.0
159.321335 224.0
159.353867 128.0
159.384415 72.0
159.446976 140.0
159.466705 48.0
159.525146 116.0
159.570404 184.0
159.658401 44.0
159.695038 148.0
159.728836 140.0
159.764053 132.0
159.827789 144.0
159.843399 192.0
159.864685 212.0
159.899918 116.0
159.96109 164.0
159.982986 216.0
160.084915 684.0
160.111374 1916.0
160.21553 164.0
160.257492 72.0
160.277649 344.0
160.302856 28.0
160.333679 136.0
160.365692 192.0
160.453781 180.0
160.471725 80.0
160.491898 76.0
160.517105 44.0
160.567551 184.0
160.624435 108.0
160.653305 132.0
160.701233 132.0
160.718903 160.0
160.826965 68.0
160.841248 108.0
160.862747 56.0
160.915771 160.0
161.014252 164.0
161.06308 616.0
161.094849 1796.0
161.11644 664.0
161.183502 120.0
161.231506 76.0
161.260849 336.0
161.287109 136.0
161.307343 124.0
161.371857 84.0
161.443863 224.0
161.461563 200.0
161.507095 56.0
161.532379 52.0
161.555145 104.0
161.628525 104.0
161.657791 200.0
161.690781 184.0
161.795471 104.0
161.815811 44.0
161.833542 40.0
161.875137 244.0
161.906967 112.0
161.933502 80.0
161.970596 200.0
161.990402 136.0
162.015884 148.0
162.035217 204.0
162.043915 128.0
162.050873 104.0
162.069138 620.0
162.091125 988.0
162.128174 1300.0
162.161636 100.0
162.198837 204.0
162.240067 52.0
162.264755 260.0
162.309891 164.0
162.381912 120.0
162.401184 184.0
162.475021 144.0
162.494537 180.0
162.509918 180.0
162.548325 192.0
162.58165 152.0
162.695526 128.0
162.731079 204.0
162.76123 196.0
162.794556 136.0
162.891068 176.0
162.97998 72.0
163.073395 520.0
163.107666 432.0
163.131424 424.0
163.183563 128.0
163.241791 76.0
163.26976 176.0
163.297745 36.0
163.335892 44.0
163.361328 140.0
163.389313 56.0
163.452927 84.0
163.486893 92.0
163.547073 108.0
163.725296 96.0
163.824631 156.0
163.873032 168.0
163.898514 44.0
163.959091 136.0
164.031036 112.0
164.082932 280.0
164.108032 1936.0
164.184021 104.0
164.20697 32.0
164.229919 152.0
164.260529 192.0
164.32431 288.0
164.404236 160.0
164.441681 80.0
164.566772 40.0
164.640823 208.0
164.742981 68.0
164.781311 80.0
164.854752 188.0
164.881836 188.0
164.903961 188.0
164.924408 164.0
164.942764 112.0
165.00621 140.0
165.071823 1856.0
165.155869 84.0
165.198013 176.0
165.279877 172.0
165.433441 60.0
165.594757 40.0
165.633163 156.0
165.661346 124.0
165.692947 180.0
165.726547 168.0
165.768036 156.0
165.775009 100.0
165.784546 192.0
165.818604 160.0
165.848404 144.0
165.924911 168.0
165.953506 128.0
166.022736 116.0
166.080704 948.0
166.123428 368.0
166.158218 180.0
166.274155 204.0
166.314865 148.0
166.358688 128.0
166.432709 144.0
166.455582 236.0
166.494934 120.0
166.546295 104.0
166.610519 184.0
166.692947 148.0
166.766464 232.0
166.783463 172.0
166.835587 116.0
166.852097 144.0
166.90303 128.0
166.965225 168.0
167.086014 4044.0
167.160736 132.0
167.193558 296.0
167.225067 40.0
167.281693 176.0
167.366516 76.0
167.410431 112.0
167.432648 108.0
167.46347 256.0
167.495422 56.0
167.521179 56.0
167.587845 132.0
167.60437 164.0
167.636017 128.0
167.755676 148.0
167.822708 180.0
167.845917 160.0
167.869125 224.0
167.917419 88.0
168.055405 412.0
168.093353 1564.0
168.1306 100.0
168.163223 104.0
168.196777 76.0
168.226913 136.0
168.273834 212.0
168.336182 204.0
168.394943 164.0
168.442078 92.0
168.465317 188.0
168.512924 132.0
168.553162 72.0
168.573837 72.0
168.617767 120.0
168.700485 148.0
168.726334 116.0
168.765121 164.0
168.801315 160.0
168.829758 112.0
168.8582 92.0
168.881485 60.0
168.969955 216.0
169.006973 188.0
169.016785 268.0
169.064423 940.0
169.101929 2100.0
169.134705 148.0
169.260895 144.0
169.312271 168.0
169.334412 40.0
169.374634 136.0
169.379776 124.0
169.495163 80.0
169.543793 88.0
169.653122 84.0
169.699783 132.0
169.725723 124.0
169.767212 160.0
169.795731 56.0
169.85878 172.0
169.882904 260.0
169.934372 172.0
169.967728 224.0
170.070312 616.0
170.112335 880.0
170.161606 176.0
170.200546 220.0
170.262863 72.0
170.288528 136.0
170.364166 208.0
170.390152 80.0
170.455109 176.0
170.475891 120.0
170.501389 168.0
170.526093 180.0
170.54866 64.0
170.633255 184.0
170.671661 140.0
170.724686 136.0
170.771362 184.0
170.858093 204.0
170.940689 108.0
170.980392 124.0
171.041611 152.0
171.080963 3764.0
171.118454 932.0
171.162613 256.0
171.196472 160.0
171.24791 212.0
171.271988 52.0
171.29126 152.0
171.32373 200.0
171.35022 140.0
171.443939 100.0
171.483032 136.0
171.503891 204.0
171.559326 120.0
171.576324 152.0
171.629028 44.0
171.649887 100.0
171.707916 140.0
171.738556 108.0
171.764633 56.0
171.795929 124.0
171.830566 132.0
171.924515 144.0
171.955093 136.0
171.973373 160.0
172.08432 1564.0
172.113403 812.0
172.234467 36.0
172.263199 88.0
172.323288 120.0
172.359863 60.0
172.387344 232.0
172.422577 140.0
172.463638 124.0
172.597733 132.0
172.638809 152.0
172.681412 52.0
172.723251 92.0
172.744186 108.0
172.779053 220.0
172.817429 188.0
172.854065 168.0
172.872391 104.0
172.919495 76.0
172.960373 148.0
173.060364 600.0
173.096161 3308.0
173.203979 240.0
173.2686 180.0
173.297119 152.0
173.356201 216.0
173.41449 168.0
173.445938 112.0
173.478806 192.0
173.524582 160.0
173.551071 80.0
173.580841 132.0
173.70816 88.0
173.726517 148.0
173.744888 112.0
173.813095 124.0
173.838348 92.0
173.89183 164.0
173.925949 108.0
173.946945 40.0
173.967941 200.0
173.986328 112.0
174.038834 60.0
174.065094 136.0
174.097061 2264.0
174.127228 2224.0
174.162598 144.0
174.192795 140.0
174.220718 204.0
174.24176 224.0
174.262512 188.0
174.304123 92.0
174.337326 180.0
174.361938 76.0
174.403992 140.0
174.448944 156.0
174.475357 168.0
174.535431 48.0
174.574829 176.0
174.619583 144.0
174.668289 148.0
174.690598 276.0
174.736588 100.0
174.759003 424.0
174.832489 172.0
174.861618 152.0
175.006409 112.0
175.042038 212.0
175.074966 892.0
175.106354 884.0
175.136688 1124.0
175.165466 192.0
175.219742 32.0
175.252991 148.0
175.316879 148.0
175.370071 200.0
175.414749 72.0
175.437424 120.0
175.578217 76.0
175.648041 212.0
175.667892 168.0
175.9133 180.0
175.944977 140.0
175.966278 116.0
176.007797 156.0
176.03299 148.0
176.058517 152.0
176.107407 960.0
176.145096 860.0
176.177368 88.0
176.201157 56.0
176.246063 108.0
176.296265 36.0
176.323639 136.0
176.36763 84.0
176.426071 108.0
176.471481 304.0
176.491882 76.0
176.510391 84.0
176.5354 96.0
176.564453 108.0
176.602951 132.0
176.666428 92.0
176.72464 104.0
176.751099 120.0
176.809311 152.0
176.841064 84.0
176.872833 140.0
176.94696 204.0
176.984024 180.0
177.029037 208.0
177.092712 848.0
177.145752 120.0
177.154022 188.0
177.211807 120.0
177.243591 36.0
177.262146 128.0
177.296249 124.0
177.329758 132.0
177.430923 124.0
177.479492 64.0
177.503357 108.0
177.54274 136.0
177.567001 72.0
177.635971 136.0
177.763321 60.0
177.848236 232.0
177.880096 180.0
177.926498 232.0
177.957077 156.0
177.988937 200.0
178.010178 128.0
178.036743 196.0
178.078354 1620.0
178.122238 864.0
178.157593 116.0
178.188141 80.0
178.22464 76.0
178.354172 168.0
178.374161 140.0
178.45314 164.0
178.512421 148.0
178.581558 128.0
178.62944 28.0
178.653381 76.0
178.677322 116.0
178.706589 284.0
178.74649 184.0
178.775772 160.0
178.810364 128.0
178.882233 232.0
178.935471 128.0
179.002747 300.0
179.051743 316.0
179.086243 3168.0
179.15271 84.0
179.179749 200.0
179.220169 148.0
179.260422 172.0
179.279068 116.0
179.323578 120.0
179.449661 124.0
179.495911 104.0
179.572327 116.0
179.59494 176.0
179.65834 180.0
179.735062 144.0
179.75827 228.0
179.783081 188.0
179.807114 156.0
179.82579 268.0
179.863159 112.0
179.908539 164.0
179.937897 48.0
180.009995 84.0
180.047379 220.0
180.066071 176.0
180.095657 1200.0
180.139908 788.0
180.220032 164.0
180.25412 172.0
180.303848 152.0
180.41864 148.0
180.464401 312.0
180.544449 128.0
180.59259 100.0
180.62326 376.0
180.699585 52.0
180.737045 140.0
180.806625 196.0
180.82515 180.0
180.938843 240.0
180.988647 212.0
181.019119 168.0
181.065994 748.0
181.101303 4740.0
181.133316 340.0
181.189514 172.0
181.235062 184.0
181.280624 148.0
181.323502 80.0
181.389771 200.0
181.441437 68.0
181.493591 176.0
181.647919 136.0
181.674744 148.0
181.723038 104.0
181.776871 64.0
181.835739 92.0
181.86145 124.0
181.894791 132.0
181.978012 136.0
182.04245 180.0
182.07338 900.0
182.10582 1028.0
182.147842 196.0
182.174057 156.0
182.206299 144.0
182.236099 348.0
182.397095 152.0
182.501938 252.0
182.567688 204.0
182.641769 132.0
182.671722 180.0
182.766373 76.0
182.790741 148.0
182.87854 148.0
182.91362 132.0
182.96199 164.0
183.04007 148.0
183.079468 1944.0
183.117065 1744.0
183.153183 264.0
183.19751 152.0
183.226044 84.0
183.284332 264.0
183.312134 76.0
183.395676 76.0
183.438812 124.0
183.457672 40.0
183.495422 136.0
183.522446 176.0
183.597885 60.0
183.629715 184.0
183.703918 128.0
183.765778 212.0
183.86496 184.0
183.886551 196.0
183.949066 172.0
183.983719 160.0
184.04776 240.0
184.091537 928.0
184.114288 1716.0
184.280792 140.0
184.3228 128.0
184.356461 52.0
184.414413 72.0
184.430481 144.0
184.459152 144.0
184.480789 92.0
184.510529 92.0
184.553787 124.0
184.671783 112.0
184.694397 84.0
184.716049 172.0
184.77417 188.0
184.832382 164.0
184.862137 88.0
184.915894 116.0
184.939194 136.0
184.959732 264.0
185.014221 132.0
185.040649 160.0
185.057465 492.0
185.096634 3072.0
185.155304 164.0
185.265564 136.0
185.28891 116.0
185.299881 72.0
185.310562 92.0
185.320511 128.0
185.368515 32.0
185.390198 172.0
185.411743 156.0
185.424637 104.0
185.552826 224.0
185.578583 160.0
185.609756 116.0
185.682983 68.0
185.707397 156.0
185.726379 80.0
185.75621 112.0
185.843033 264.0
185.870163 112.0
185.964661 320.0
185.985153 200.0
186.057434 156.0
186.098236 472.0
186.128708 2128.0
186.209488 168.0
186.244797 100.0
186.275314 136.0
186.306076 136.0
186.345306 140.0
186.386063 84.0
186.476776 180.0
186.519226 80.0
186.54097 64.0
186.600784 80.0
186.652451 36.0
186.68779 116.0
186.791138 148.0
186.842834 156.0
186.875473 60.0
186.974152 76.0
187.000656 132.0
187.042206 224.0
187.077896 708.0
187.109085 1008.0
187.134644 860.0
187.188492 80.0
187.317902 164.0
187.35463 68.0
187.37915 124.0
187.452728 168.0
187.495026 184.0
187.542648 120.0
187.569916 132.0
187.616257 180.0
187.643509 312.0
187.687134 100.0
187.73349 72.0
187.768585 148.0
187.828949 140.0
187.856232 208.0
187.880783 160.0
187.899872 128.0
187.98732 172.0
188.000092 176.0
188.032623 252.0
188.079315 232.0
188.108551 1768.0
188.143829 1744.0
188.246979 120.0
188.292938 180.0
188.380997 212.0
188.440445 136.0
188.563416 64.0
188.601547 172.0
188.646164 144.0
188.680954 68.0
188.700089 56.0
188.744812 144.0
188.806808 132.0
188.847748 156.0
188.889755 156.0
188.922867 104.0
189.003189 132.0
189.036514 156.0
189.087845 876.0
189.115417 992.0
189.176727 176.0
189.212494 176.0
189.266449 168.0
189.29657 140.0
189.329422 148.0
189.375992 60.0
189.440842 172.0
189.469116 56.0
189.551315 36.0
189.592422 56.0
189.630783 260.0
189.721237 176.0
189.777267 184.0
189.867722 212.0
189.891251 148.0
189.940613 52.0
189.979019 120.0
190.008926 160.0
190.086105 376.0
190.123062 4428.0
190.155899 448.0
190.209518 208.0
190.231476 156.0
190.30249 60.0
190.367386 296.0
190.392471 132.0
190.412704 92.0
190.437424 128.0
190.481369 148.0
190.539047 44.0
190.558289 64.0
190.603134 136.0
190.662704 160.0
190.749451 108.0
190.780899 48.0
190.835876 136.0
190.871613 56.0
190.897278 104.0
190.954117 48.0
190.989868 52.0
191.035507 88.0
191.087097 1416.0
191.128571 1012.0
191.158279 152.0
191.192459 104.0
191.215485 84.0
191.234756 48.0
191.254013 136.0
191.278793 260.0
191.336594 28.0
191.391663 228.0
191.443893 148.0
191.479782 100.0
191.617508 312.0
191.650574 148.0
191.702927 76.0
191.766312 44.0
191.799393 116.0
191.862793 64.0
191.889801 196.0
191.90831 172.0
191.945496 64.0
192.006165 408.0
192.033752 160.0
192.093185 1804.0
192.138168 748.0
192.268967 160.0
192.348984 176.0
192.372513 236.0
192.413498 200.0
192.511185 164.0
192.580353 84.0
192.599564 172.0
192.685196 140.0
192.744736 124.0
192.785873 140.0
192.857986 164.0
192.917068 172.0
192.935898 212.0
192.972626 76.0
193.008575 44.0
193.060959 212.0
193.100967 3796.0
193.143005 124.0
193.225677 208.0
193.303757 128.0
193.332214 132.0
193.406937 172.0
193.431854 104.0
193.451233 116.0
193.492752 172.0
193.523209 36.0
193.554672 176.0
193.608276 116.0
193.653351 108.0
193.73613 172.0
193.76416 80.0
193.819565 80.0
193.850052 140.0
193.963684 104.0
193.998886 120.0
194.048233 160.0
194.078644 592.0
194.104111 1276.0
194.14743 156.0
194.178894 176.0
194.223236 152.0
194.270782 80.0
194.312103 112.0
194.379684 144.0
194.457382 124.0
194.532333 44.0
194.582199 108.0
194.635056 152.0
194.666504 304.0
194.702499 180.0
194.743362 104.0
194.781036 84.0
194.798904 168.0
194.821136 156.0
194.842209 68.0
194.862808 76.0
194.901703 104.0
194.935043 116.0
195.017334 92.0
195.080933 1836.0
195.117508 3288.0
195.184067 68.0
195.2603 196.0
195.300934 92.0
195.338181 48.0
195.37265 204.0
195.391617 116.0
195.429977 96.0
195.449463 120.0
195.493988 136.0
195.527374 68.0
195.566345 204.0
195.657043 168.0
195.68782 132.0
195.812836 164.0
195.839203 88.0
195.860046 156.0
195.908829 144.0
195.947845 176.0
196.017487 152.0
196.04425 192.0
196.086121 1300.0
196.120163 1416.0
196.170776 128.0
196.228317 132.0
196.303635 164.0
196.324127 52.0
196.358505 216.0
196.405014 120.0
196.435684 180.0
196.519379 148.0
196.552872 72.0
196.575195 160.0
196.603088 148.0
196.657639 132.0
196.69455 224.0
196.717529 124.0
196.745438 188.0
196.826416 44.0
196.873886 160.0
196.904602 140.0
196.954025 196.0
196.994247 204.0
197.031815 120.0
197.059097 296.0
197.095505 2232.0
197.127899 1096.0
197.171646 96.0
197.207489 156.0
197.273422 204.0
197.292984 252.0
197.323746 120.0
197.365677 104.0
197.450348 212.0
197.480331 140.0
197.527069 96.0
197.558655 160.0
197.577377 156.0
197.59938 72.0
197.659378 176.0
197.72934 148.0
197.768524 76.0
197.804901 164.0
197.876755 132.0
197.886749 188.0
197.922485 168.0
197.962189 68.0
197.992035 144.0
198.0289 48.0
198.061295 92.0
198.098801 504.0
198.13089 932.0
198.187622 292.0
198.225769 148.0
198.237335 80.0
198.249329 100.0
198.332047 144.0
198.439606 108.0
198.510925 212.0
198.530029 188.0
198.567017 44.0
198.641418 160.0
198.682022 64.0
198.787567 136.0
198.817825 196.0
198.840912 160.0
198.846893 100.0
198.856735 136.0
198.889664 40.0
198.999146 160.0
199.03566 64.0
199.076157 528.0
199.113022 1516.0
199.225433 156.0
199.308105 64.0
199.327774 76.0
199.347443 88.0
199.426132 164.0
199.503708 188.0
199.579483 160.0
199.611679 156.0
199.663452 156.0
199.676193 64.0
199.68396 216.0
199.712921 128.0
199.794327 132.0
199.822632 92.0
199.853577 92.0
199.881714 48.0
199.912674 124.0
199.992172 192.0
200.028061 168.0
200.081314 548.0
200.106613 1396.0
200.14357 760.0
200.295563 64.0
200.377258 120.0
200.444885 112.0
200.557281 176.0
200.582977 140.0
200.620758 252.0
200.681641 200.0
200.797089 128.0
200.8452 368.0
200.912903 164.0
200.958054 104.0
200.986267 120.0
201.00795 180.0
201.016205 124.0
201.02858 256.0
201.091599 3104.0
201.115555 896.0
201.143723 476.0
201.20076 100.0
201.275085 108.0
201.29393 120.0
201.319351 188.0
201.381485 48.0
201.412552 112.0
201.517075 172.0
201.535767 168.0
201.610321 44.0
201.641403 212.0
201.673599 132.0
201.726196 112.0
201.757294 104.0
201.779907 84.0
201.808182 84.0
201.8405 112.0
201.874908 120.0
201.908493 144.0
201.933899 176.0
201.966553 88.0
202.006149 156.0
202.025955 140.0
202.084106 820.0
202.123367 3128.0
202.158524 960.0
202.242416 88.0
202.306107 112.0
202.371216 84.0
202.405197 128.0
202.44072 184.0
202.478821 200.0
202.524139 188.0
202.549637 120.0
202.577957 132.0
202.621429 104.0
202.713943 60.0
202.765503 124.0
202.820908 124.0
202.881088 128.0
202.904739 180.0
202.988907 196.0
203.031448 132.0
203.087494 1260.0
203.129166 3188.0
203.249878 76.0
203.303055 124.0
203.337845 136.0
203.405518 180.0
203.456375 216.0
203.570633 56.0
203.601868 40.0
203.667191 128.0
203.696365 312.0
203.727737 140.0
203.809235 100.0
203.829117 124.0
203.891632 152.0
203.917221 112.0
203.937119 120.0
204.016708 108.0
204.095078 1904.0
204.137039 1832.0
204.17601 132.0
204.226517 168.0
204.267914 188.0
204.440491 108.0
204.473068 108.0
204.540115 72.0
204.575211 112.0
204.597046 132.0
204.652832 168.0
204.67392 152.0
204.728012 116.0
204.782135 84.0
204.813461 48.0
204.853333 108.0
204.917374 96.0
204.954193 180.0
205.003571 104.0
205.10173 4512.0
205.178909 176.0
205.235229 156.0
205.317917 156.0
205.343597 252.0
205.363556 152.0
205.432007 84.0
205.466248 176.0
205.489075 112.0
205.509735 336.0
205.583237 124.0
205.611771 120.0
205.637451 212.0
205.660294 104.0
205.688828 96.0
205.731644 188.0
205.82016 124.0
205.920105 48.0
205.956757 144.0
206.00943 132.0
206.11264 1808.0
206.153183 824.0
206.208664 128.0
206.253098 44.0
206.300842 176.0
206.330368 236.0
206.376389 148.0
206.432892 248.0
206.468948 88.0
206.611176 184.0
206.638245 172.0
206.711975 204.0
206.808533 260.0
206.828217 188.0
206.852219 148.0
206.883698 100.0
206.912338 48.0
206.940964 112.0
207.006821 52.0
207.041428 188.0
207.07962 724.0
207.117447 4656.0
207.15773 560.0
207.214951 132.0
207.247421 72.0
207.293472 224.0
207.327042 204.0
207.376373 124.0
207.416504 140.0
207.439438 60.0
207.508865 204.0
207.591385 144.0
207.624924 208.0
207.829468 112.0
207.849548 128.0
207.890961 112.0
207.913452 196.0
207.963882 124.0
208.027054 364.0
208.049286 108.0
208.091873 1036.0
208.128662 852.0
208.168762 448.0
208.285919 148.0
208.377487 344.0
208.466583 200.0
208.564636 80.0
208.599136 164.0
208.639374 116.0
208.668732 136.0
208.825073 176.0
208.852173 180.0
208.878052 68.0
208.906464 128.0
208.912369 112.0
208.984497 112.0
209.019028 140.0
209.096527 4548.0
209.133194 2472.0
209.221909 280.0
209.271912 168.0
209.321259 176.0
209.350067 56.0
209.381744 108.0
209.453751 240.0
209.550507 168.0
209.610184 120.0
209.700119 188.0
209.759186 128.0
209.794495 200.0
209.869949 216.0
209.90889 56.0
209.955231 52.0
209.981079 104.0
210.061951 248.0
210.101166 1172.0
210.129227 1320.0
210.214783 132.0
210.250336 96.0
210.317184 88.0
210.373596 92.0
210.4198 36.0
210.463104 120.0
210.575729 116.0
210.609421 84.0
210.633484 108.0
210.673935 212.0
210.720154 148.0
210.751938 164.0
210.896896 124.0
210.945572 104.0
210.983139 88.0
211.007126 176.0
211.073975 332.0
211.112061 2148.0
211.184753 260.0
211.214478 60.0
211.295486 100.0
211.318619 132.0
211.350449 176.0
211.373596 156.0
211.492249 120.0
211.526215 256.0
211.578766 156.0
211.617401 172.0
211.645691 104.0
211.680374 204.0
211.715179 40.0
211.735458 168.0
211.796356 140.0
211.871582 72.0
211.944016 136.0
211.999069 128.0
212.022263 104.0
212.112854 1408.0
212.144333 792.0
212.184586 128.0
212.284683 176.0
212.304642 168.0
212.362305 152.0
212.43573 172.0
212.48172 132.0
212.526688 280.0
212.650742 100.0
212.67482 160.0
212.713531 176.0
212.725708 60.0
212.734589 148.0
212.766647 176.0
212.860611 204.0
212.892563 116.0
212.947739 72.0
213.010361 164.0
213.091812 960.0
213.129181 776.0
213.184555 164.0
213.258621 104.0
213.296402 144.0
213.331284 108.0
213.361954 116.0
213.447571 428.0
213.476654 156.0
213.526093 152.0
213.55809 40.0
213.624985 152.0
213.654022 128.0
213.686081 192.0
213.715179 120.0
213.755905 136.0
213.913071 120.0
213.947998 160.0
213.988754 184.0
214.00914 112.0
214.041168 172.0
214.081451 164.0
214.087158 136.0
214.091354 260.0
214.122253 1596.0
214.157806 564.0
214.207169 60.0
214.256699 148.0
214.305435 152.0
214.518967 132.0
214.574356 140.0
214.63559 88.0
214.682236 148.0
214.7108 152.0
214.816406 188.0
214.839737 116.0
214.886414 124.0
214.906845 140.0
214.927261 176.0
215.006058 120.0
215.104202 1040.0
215.126984 980.0
215.242508 32.0
215.334808 152.0
215.38269 156.0
215.448639 160.0
215.475769 120.0
215.572586 160.0
215.707031 176.0
215.730255 144.0
215.774261 112.0
215.859055 92.0
215.920471 120.0
215.948624 108.0
215.961243 136.0
215.97171 100.0
215.983261 188.0
216.011139 144.0
216.050903 364.0
216.094681 1484.0
216.137405 2168.0
216.233505 132.0
216.379868 100.0
216.510651 60.0
216.648788 184.0
216.653992 152.0
216.685165 148.0
216.784073 96.0
216.836823 124.0
216.868835 104.0
216.895432 132.0
216.927689 148.0
216.980453 40.0
217.002853 156.0
217.036148 140.0
217.10022 1976.0
217.143143 956.0
217.181076 96.0
217.349503 116.0
217.388153 148.0
217.408157 132.0
217.469925 208.0
217.548233 96.0
217.56897 112.0
217.590668 116.0
217.646454 136.0
217.672882 200.0
217.704742 160.0
217.749237 52.0
217.799164 268.0
217.875549 124.0
217.969559 152.0
218.007767 116.0
218.031265 196.0
218.074051 424.0
218.107254 1192.0
218.155167 780.0
218.212418 160.0
218.269897 68.0
218.312317 156.0
218.337021 168.0
218.366425 44.0
218.421219 108.0
218.454666 136.0
218.58168 184.0
218.63414 132.0
218.674393 124.0
218.698883 144.0
218.722443 128.0
218.868912 212.0
218.925583 172.0
219.018738 184.0
219.049286 176.0
219.080048 596.0
219.117157 2840.0
219.166214 576.0
219.217224 136.0
219.255524 148.0
219.314468 96.0
219.357986 204.0
219.421906 216.0
219.527985 132.0
219.603409 144.0
219.637299 140.0
219.664703 304.0
219.7155 108.0
219.765656 112.0
219.838699 112.0
220.021423 152.0
220.046051 160.0
220.088623 1052.0
220.121841 1724.0
220.161743 160.0
220.217316 116.0
220.237991 92.0
220.274658 136.0
220.439423 176.0
220.460648 132.0
220.481308 124.0
220.512772 96.0
220.568924 68.0
220.604401 112.0
220.648743 36.0
220.69487 132.0
220.739075 188.0
220.764053 84.0
220.808411 144.0
220.848267 176.0
220.942749 164.0
221.058563 172.0
221.068268 88.0
221.096634 1984.0
221.132126 3300.0
221.177368 308.0
221.204895 136.0
221.243378 72.0
221.2789 144.0
221.435837 136.0
221.465454 96.0
221.509888 136.0
221.583939 80.0
221.646164 160.0
221.669662 112.0
221.673859 104.0
221.729141 140.0
221.82991 96.0
221.892166 128.0
221.93367 76.0
221.990021 48.0
222.03746 176.0
222.060852 304.0
222.104095 1508.0
222.128036 952.0
222.191711 104.0
222.215439 36.0
222.254013 156.0
222.299194 212.0
222.337097 216.0
222.418137 144.0
222.441513 180.0
222.497375 132.0
222.582367 100.0
222.654755 100.0
222.720093 92.0
222.839737 72.0
222.862686 148.0
222.936966 104.0
223.029099 160.0
223.110504 3916.0
223.146866 784.0
223.183517 208.0
223.20549 120.0
223.274902 116.0
223.332382 60.0
223.376999 60.0
223.406738 72.0
223.448959 168.0
223.502136 128.0
223.531708 72.0
223.585266 172.0
223.635864 68.0
223.717651 176.0
223.740356 156.0
223.821335 200.0
223.874039 160.0
223.897858 192.0
223.92627 172.0
223.99913 136.0
224.079559 248.0
224.113007 1452.0
224.140472 852.0
224.216629 112.0
224.287415 176.0
224.376846 48.0
224.417007 148.0
224.447815 108.0
224.478958 132.0
224.532639 64.0
224.601242 96.0
224.657913 60.0
224.754135 128.0
224.775574 156.0
224.866577 144.0
224.932449 100.0
225.004745 164.0
225.088898 860.0
225.127518 2720.0
225.186234 68.0
225.22905 60.0
225.281815 244.0
225.365463 132.0
225.41925 104.0
225.443863 120.0
225.52684 108.0
225.588028 184.0
225.646042 120.0
225.688263 140.0
225.739105 164.0
225.781631 164.0
225.804108 136.0
225.852753 128.0
225.963425 156.0
225.990356 144.0
226.032242 212.0
226.052368 160.0
226.124725 1096.0
226.184875 52.0
226.205826 48.0
226.248962 128.0
226.361893 128.0
226.391464 40.0
226.42572 164.0
226.477692 156.0
226.548492 112.0
226.574173 156.0
226.597061 100.0
226.704086 144.0
226.744965 112.0
226.771927 48.0
226.917648 164.0
226.987778 144.0
227.050751 104.0
227.105026 816.0
227.140671 940.0
227.211502 104.0
227.251724 84.0
227.299728 72.0
227.374756 132.0
227.41507 120.0
227.518829 200.0
227.577286 128.0
227.616669 68.0
227.662949 144.0
227.719055 124.0
227.829941 248.0
227.918198 140.0
227.971497 152.0
228.065109 152.0
228.084381 180.0
228.108582 380.0
228.139969 940.0
228.176956 244.0
228.219925 136.0
228.251923 188.0
228.332779 140.0
228.411316 132.0
228.486526 136.0
228.513596 80.0
228.597855 136.0
228.621918 52.0
228.670074 156.0
228.694153 176.0
228.732437 212.0
228.785538 100.0
228.813873 140.0
228.848679 132.0
228.931992 44.0
228.962112 40.0
229.022339 160.0
229.056656 132.0
229.106644 680.0
229.143509 1056.0
229.249878 76.0
229.301819 168.0
229.374878 228.0
229.444214 56.0
229.537674 72.0
229.570602 48.0
229.610046 60.0
229.652267 64.0
229.685455 88.0
229.739746 112.0
229.781982 72.0
229.809143 140.0
229.854141 140.0
229.883224 164.0
229.978134 180.0
230.029449 92.0
230.053589 68.0
230.118149 564.0
230.155563 800.0
230.207565 52.0
230.239441 64.0
230.270996 204.0
230.313278 140.0
230.410583 152.0
230.467346 68.0
230.591248 168.0
230.666504 120.0
230.724243 164.0
230.793777 136.0
230.839127 208.0
230.898834 200.0
230.948013 60.0
231.034988 196.0
231.116165 2060.0
231.214249 364.0
231.292938 40.0
231.347427 160.0
231.38678 176.0
231.489731 112.0
231.5242 104.0
231.592697 84.0
231.638672 288.0
231.69014 136.0
231.79567 84.0
231.82901 32.0
231.963394 108.0
232.088882 1036.0
232.123779 648.0
232.169769 444.0
232.271652 56.0
232.300385 148.0
232.328094 136.0
232.380264 124.0
232.448517 160.0
232.490097 96.0
232.519165 200.0
232.578232 200.0
232.689621 184.0
232.726852 116.0
232.751144 132.0
232.802765 136.0
232.871002 180.0
232.96402 176.0
232.977249 72.0
232.983398 136.0
233.035614 164.0
233.102356 1252.0
233.128677 1800.0
233.172485 664.0
233.219437 136.0
233.246338 148.0
233.308731 84.0
233.380112 144.0
233.419632 144.0
233.481155 172.0
233.590912 156.0
233.622269 64.0
233.689331 132.0
233.781616 40.0
233.815094 116.0
233.859161 152.0
233.89119 284.0
233.912491 36.0
234.06398 256.0
234.108643 948.0
234.146103 3968.0
234.184814 548.0
234.232224 176.0
234.25354 108.0
234.30838 120.0
234.341888 164.0
234.416962 108.0
234.475967 136.0
234.515579 140.0
234.536926 60.0
234.563446 120.0
234.619217 28.0
234.686295 88.0
234.767029 88.0
234.803345 188.0
234.841827 160.0
234.905869 132.0
234.963837 172.0
234.987259 148.0
235.076355 160.0
235.111542 3224.0
235.153931 1400.0
235.186661 220.0
235.223221 132.0
235.262115 92.0
235.316071 116.0
235.36293 84.0
235.374542 64.0
235.38768 120.0
235.395065 168.0
235.443054 80.0
235.473587 92.0
235.527985 104.0
235.5354 136.0
235.575699 76.0
235.619888 184.0
235.62767 164.0
235.659927 68.0
235.684372 132.0
235.775299 132.0
235.856354 88.0
235.907471 144.0
235.949661 160.0
236.032822 124.0
236.07991 176.0
236.116714 1640.0
236.147919 976.0
236.227371 164.0
236.28363 116.0
236.312439 144.0
236.333725 112.0
236.430496 208.0
236.464157 60.0
236.494766 92.0
236.520493 168.0
236.558044 252.0
236.601898 88.0
236.649673 212.0
236.857849 72.0
236.900116 116.0
236.941833 60.0
237.01384 128.0
237.043808 184.0
237.087967 384.0
237.126953 3828.0
237.194931 196.0
237.240082 100.0
237.278961 152.0
237.343338 120.0
237.423111 188.0
237.459869 68.0
237.507248 188.0
237.519165 84.0
237.525391 132.0
237.558029 52.0
237.607101 116.0
237.665405 36.0
237.723694 132.0
237.754898 72.0
237.806564 180.0
237.89537 60.0
237.947769 184.0
238.016281 216.0
238.054169 128.0
238.126984 1540.0
238.152115 960.0
238.217819 132.0
238.244583 92.0
238.273911 144.0
238.323593 152.0
238.359329 144.0
238.405426 132.0
238.440704 136.0
238.543732 52.0
238.574997 48.0
238.628281 48.0
238.666718 112.0
238.731277 48.0
238.75589 156.0
238.86969 204.0
238.906937 148.0
238.973969 80.0
239.069672 112.0
239.10762 684.0
239.139374 868.0
239.208176 96.0
239.275894 148.0
239.371338 44.0
239.497604 208.0
239.537659 132.0
239.593094 52.0
239.845779 180.0
239.879318 132.0
239.934097 308.0
239.972183 84.0
240.039062 104.0
240.077011 220.0
240.112869 636.0
240.140915 1288.0
240.169296 228.0
240.173645 472.0
240.246658 100.0
240.274414 124.0
240.349243 144.0
240.480728 140.0
240.50621 104.0
240.58165 152.0
240.631561 232.0
240.69577 124.0
240.765198 72.0
240.90419 124.0
240.969055 44.0
241.05249 172.0
241.122025 952.0
241.145447 864.0
241.183014 228.0
241.213196 96.0
241.27121 172.0
241.307709 56.0
241.336853 64.0
241.366699 128.0
241.507553 60.0
241.537872 144.0
241.578079 168.0
241.692551 100.0
241.732773 116.0
241.794662 80.0
241.859665 180.0
241.906097 256.0
241.96376 140.0
242.051605 192.0
242.079468 120.0
242.117432 660.0
242.152817 1124.0
242.204254 152.0
242.231232 124.0
242.252914 140.0
242.293198 196.0
242.31488 48.0
242.341553 196.0
242.386139 172.0
242.422516 152.0
242.432617 112.0
242.439636 152.0
242.479111 304.0
242.503906 136.0
242.545914 144.0
242.572098 84.0
242.599991 168.0
242.649063 164.0
242.696091 180.0
242.745712 244.0
242.799271 184.0
242.820129 132.0
242.848053 100.0
242.879059 132.0
242.969025 196.0
243.001419 236.0
243.102539 380.0
243.138367 728.0
243.184677 56.0
243.285568 44.0
243.356964 116.0
243.381805 40.0
243.499817 68.0
243.561935 112.0
243.605377 168.0
243.673767 320.0
243.701141 128.0
243.732086 124.0
243.76387 92.0
243.801163 244.0
243.962784 120.0
244.017517 172.0
244.091492 364.0
244.130783 756.0
244.165161 528.0
244.290939 144.0
244.349823 88.0
244.409836 156.0
244.465576 176.0
244.534256 176.0
244.566238 220.0
244.630127 228.0
244.652832 44.0
244.657822 76.0
244.696976 88.0
244.728104 140.0
244.756134 124.0
244.837097 120.0
244.908722 152.0
244.999069 160.0
245.034195 172.0
245.114807 524.0
245.143845 400.0
245.155487 512.0
245.360565 96.0
245.387451 152.0
245.441635 128.0
245.472809 108.0
245.494644 152.0
245.550766 48.0
245.578842 204.0
245.60379 88.0
245.74585 52.0
245.803452 168.0
245.862747 136.0
245.897079 128.0
245.925171 52.0
245.959503 116.0
245.990707 56.0
246.034424 164.0
246.059387 92.0
246.10704 848.0
246.113083 376.0
246.150848 996.0
246.180252 248.0
246.228012 96.0
246.254471 204.0
246.320755 144.0
246.359192 192.0
246.421677 72.0
246.444946 116.0
246.616135 176.0
246.662308 116.0
246.687317 72.0
246.740463 136.0
246.765472 180.0
246.815491 48.0
246.862396 180.0
246.884293 116.0
246.91243 100.0
246.942322 200.0
246.984375 52.0
247.07045 108.0
247.112259 2444.0
247.199921 160.0
247.228409 100.0
247.34964 112.0
247.382812 108.0
247.490738 272.0
247.536118 112.0
247.600937 124.0
247.647476 144.0
247.81395 120.0
247.857803 144.0
247.882874 56.0
247.929886 120.0
247.970901 296.0
248.04068 148.0
248.080322 148.0
248.11998 1364.0
248.144577 1064.0
248.223083 128.0
248.268448 136.0
248.29982 60.0
248.334625 204.0
248.359253 84.0
248.40332 140.0
248.43364 80.0
248.551575 172.0
248.582764 144.0
248.611557 172.0
248.654327 188.0
248.710815 152.0
248.735931 52.0
248.770462 48.0
248.827805 232.0
248.943146 148.0
248.999664 88.0
249.031082 204.0
249.092239 284.0
249.127533 3836.0
249.202179 96.0
249.25412 120.0
249.279266 96.0
249.345261 76.0
249.375259 88.0
249.42511 108.0
249.483551 140.0
249.562149 128.0
249.628189 104.0
249.722534 252.0
249.753983 88.0
249.785431 128.0
249.83075 148.0
249.960144 196.0
250.021408 36.0
250.06546 36.0
250.133118 1532.0
250.159744 1380.0
250.264084 84.0
250.358246 80.0
250.450073 208.0
250.557343 76.0
250.62175 184.0
250.673264 52.0
250.716125 180.0
250.726898 116.0
250.767258 136.0
250.778137 188.0
250.82048 208.0
250.852905 104.0
250.878799 112.0
250.951874 92.0
250.972031 168.0
250.995804 136.0
251.035767 60.0
251.067307 108.0
251.107986 1176.0
251.14325 2440.0
251.197647 404.0
251.234482 104.0
251.303879 116.0
251.385925 156.0
251.439575 160.0
251.467972 36.0
251.490067 120.0
251.517212 60.0
251.554596 76.0
251.619492 128.0
251.659729 140.0
251.664658 104.0
251.715546 208.0
251.793991 56.0
251.840302 212.0
251.868958 116.0
251.891068 76.0
251.919495 144.0
251.944778 104.0
251.976364 188.0
251.998489 160.0
252.048737 172.0
252.055237 108.0
252.140839 1296.0
252.213364 128.0
252.251297 112.0
252.305038 64.0
252.332153 124.0
252.456802 128.0
252.531616 196.0
252.592804 44.0
252.640137 200.0
252.708374 128.0
252.779465 56.0
252.804779 40.0
252.86174 108.0
252.931381 52.0
253.02951 200.0
253.124863 848.0
253.155518 928.0
253.273346 56.0
253.377884 192.0
253.434906 128.0
253.48877 68.0
253.539474 52.0
253.601547 168.0
253.659912 100.0
253.682114 52.0
253.812088 116.0
253.83429 140.0
253.857681 116.0
253.908478 152.0
253.93576 192.0
253.967651 156.0
254.010468 168.0
254.15773 936.0
254.229828 144.0
254.297455 160.0
254.322845 156.0
254.38324 164.0
254.440735 144.0
254.487915 136.0
254.548248 140.0
254.575104 96.0
254.647583 172.0
254.725296 300.0
254.850006 44.0
254.909271 128.0
254.954865 132.0
255.051376 120.0
255.137329 896.0
255.213333 160.0
255.317276 64.0
255.364975 36.0
255.407593 176.0
255.431763 92.0
255.476303 264.0
255.510925 104.0
255.543243 160.0
255.737228 84.0
255.774841 164.0
255.816803 176.0
256.007843 160.0
256.052429 240.0
256.099854 76.0
256.136993 804.0
256.170593 1188.0
256.267975 184.0
256.298645 228.0
256.332764 136.0
256.356171 116.0
256.390106 144.0
256.425171 72.0
256.493408 292.0
256.516113 68.0
256.555389 120.0
256.600494 88.0
256.634705 132.0
256.708893 140.0
256.734406 160.0
256.967468 124.0
257.005219 120.0
257.094543 108.0
257.146667 740.0
257.171722 504.0
257.225739 224.0
257.266449 128.0
257.29599 176.0
257.410919 60.0
257.446045 64.0
257.493958 52.0
257.519501 48.0
257.54187 88.0
257.596161 44.0
257.634491 92.0
257.658966 152.0
257.707153 156.0
257.762115 156.0
257.803192 192.0
257.854523 168.0
257.880524 216.0
257.906097 116.0
257.944458 144.0
257.970032 56.0
258.014801 116.0
258.043549 140.0
258.109406 216.0
258.147675 1264.0
258.235413 40.0
258.264221 164.0
258.299377 120.0
258.334595 76.0
258.388977 100.0
258.479706 128.0
258.539337 140.0
258.566498 140.0
258.587952 128.0
258.621735 108.0
258.628632 80.0
258.64035 180.0
258.719421 140.0
258.760223 148.0
258.817841 56.0
258.857178 156.0
258.897888 136.0
258.944 168.0
259.014893 168.0
259.042023 160.0
259.108978 748.0
259.151215 676.0
259.186829 244.0
259.252991 152.0
259.359253 72.0
259.388092 60.0
259.480042 96.0
259.580444 124.0
259.644592 204.0
259.695892 128.0
259.735565 132.0
259.783752 156.0
259.830627 76.0
259.882874 196.0
259.946136 176.0
260.00885 148.0
260.049591 308.0
260.114716 692.0
260.163635 1564.0
260.233704 276.0
260.302368 288.0
260.361145 188.0
260.385925 48.0
260.430908 104.0
260.463013 232.0
260.544495 132.0
260.588318 156.0
260.649353 200.0
260.68692 144.0
260.73291 132.0
260.855042 100.0
260.885925 112.0
260.897614 148.0
260.952606 116.0
260.980408 184.0
261.00293 208.0
261.0383 64.0
261.128143 852.0
261.167603 1068.0
261.20874 112.0
261.240936 132.0
261.30426 204.0
261.340668 112.0
261.387543 196.0
261.450439 136.0
261.67984 104.0
261.763062 208.0
261.852478 76.0
261.915924 80.0
261.971649 64.0
262.134369 1212.0
262.161499 964.0
262.170471 936.0
262.251984 176.0
262.319672 124.0
262.352936 64.0
262.38739 152.0
262.419617 76.0
262.451874 152.0
262.532471 108.0
262.617126 176.0
262.687286 124.0
262.713104 136.0
262.774384 44.0
262.826019 112.0
262.906677 136.0
262.945404 132.0
263.024384 120.0
263.104614 284.0
263.142273 912.0
263.290863 148.0
263.332825 180.0
263.357208 184.0
263.381287 72.0
263.455566 36.0
263.55896 148.0
263.581573 56.0
263.630066 164.0
263.704468 168.0
263.77475 252.0
263.82074 148.0
263.851715 148.0
263.941406 148.0
263.963013 184.0
264.004639 132.0
264.058624 112.0
264.141937 1044.0
264.173248 588.0
264.21637 236.0
264.26059 32.0
264.302643 124.0
264.356628 104.0
264.406189 156.0
264.464447 128.0
264.513 140.0
264.54538 40.0
264.636017 296.0
264.691071 104.0
264.755829 148.0
264.798462 148.0
264.942963 88.0
265.021454 92.0
265.068268 116.0
265.124084 2444.0
265.226318 148.0
265.254669 160.0
265.283844 116.0
265.37796 88.0
265.507416 104.0
265.625122 148.0
265.679565 132.0
265.757446 248.0
265.778076 144.0
265.822632 128.0
265.845184 108.0
265.922607 196.0
266.017059 232.0
266.093201 340.0
266.153809 1152.0
266.189056 700.0
266.316864 148.0
266.374268 116.0
266.443726 84.0
266.520447 68.0
266.570892 100.0
266.812195 188.0
266.876007 228.0
267.055939 112.0
267.105499 272.0
267.13974 1884.0
267.23056 60.0
267.258545 120.0
267.303131 108.0
267.389496 132.0
267.463562 128.0
267.492004 136.0
267.528473 72.0
267.584015 100.0
267.638275 84.0
267.665405 104.0
267.694702 124.0
267.749268 148.0
267.857544 140.0
267.922699 76.0
267.963806 104.0
268.006958 168.0
268.051483 204.0
268.168457 988.0
268.205536 320.0
268.268127 44.0
268.310516 184.0
268.372253 60.0
268.393951 136.0
268.447449 56.0
268.475891 152.0
268.584442 96.0
268.617035 40.0
268.764313 168.0
268.789948 316.0
268.845428 252.0
268.878082 168.0
268.904175 128.0
268.930298 104.0
269.008636 140.0
269.053009 128.0
269.120636 500.0
269.151184 1192.0
269.209076 168.0
269.313995 180.0
269.400085 188.0
269.54425 220.0
269.605774 120.0
269.643524 144.0
269.696686 172.0
269.72583 264.0
269.791199 128.0
269.813568 120.0
269.850159 168.0
269.871979 136.0
269.962646 180.0
269.985535 144.0
270.047699 100.0
270.151459 688.0
270.185822 1260.0
270.29129 232.0
270.360809 124.0
270.389282 108.0
270.483215 140.0
270.531952 60.0
270.561432 72.0
270.633453 84.0
270.790619 76.0
270.945862 184.0
271.000275 108.0
271.126404 420.0
271.164154 388.0
271.287903 188.0
271.357513 152.0
271.518097 140.0
271.6297 156.0
271.675629 36.0
271.731415 116.0
271.813446 164.0
271.86264 76.0
271.916138 148.0
271.999664 192.0
272.053009 116.0
272.098969 168.0
272.137604 300.0
272.165741 792.0
272.199921 540.0
272.299286 112.0
272.427368 112.0
272.506226 112.0
272.545654 136.0
272.61795 164.0
272.683685 84.0
272.729248 212.0
272.822906 160.0
272.85788 196.0
272.953247 132.0
273.02887 84.0
273.071625 68.0
273.151489 388.0
273.183929 232.0
273.215179 224.0
273.255829 36.0
273.27887 148.0
273.354553 60.0
273.431854 204.0
273.502563 148.0
273.532257 224.0
273.598114 80.0
273.686981 104.0
273.736389 140.0
273.768646 256.0
273.835175 88.0
273.861542 116.0
274.145081 936.0
274.174896 180.0
274.211212 356.0
274.392059 140.0
274.42041 80.0
274.527954 56.0
274.688843 84.0
274.728455 104.0
274.791107 160.0
274.843903 108.0
274.941986 128.0
274.996033 164.0
275.063843 56.0
275.134003 1096.0
275.186981 136.0
275.268707 92.0
275.304199 128.0
275.352264 48.0
275.418335 116.0
275.461273 56.0
275.523376 332.0
275.600037 92.0
275.652802 248.0
275.69339 112.0
275.718994 156.0
275.765259 144.0
275.798157 160.0
275.839417 136.0
275.853851 60.0
275.863342 184.0
275.887543 148.0
275.917297 92.0
275.94046 180.0
276.013184 40.0
276.046265 88.0
276.069397 208.0
276.170319 1156.0
276.231476 116.0
276.28772 48.0
276.334015 172.0
276.382202 128.0
276.407745 148.0
276.436584 160.0
276.46637 148.0
276.52594 96.0
276.689728 224.0
276.721893 104.0
276.784149 76.0
276.822327 152.0
276.880188 152.0
276.947906 248.0
277.006958 160.0
277.064392 148.0
277.12149 2080.0
277.166718 592.0
277.185699 672.0
277.23465 64.0
277.30426 120.0
277.346649 120.0
277.410309 212.0
277.460052 108.0
277.555603 176.0
277.672272 92.0
277.702118 148.0
277.748535 168.0
277.804932 176.0
277.827423 168.0
277.980774 124.0
278.012451 152.0
278.043823 136.0
278.157135 1332.0
278.201782 192.0
278.256256 136.0
278.299438 232.0
278.349243 156.0
278.38028 92.0
278.47876 128.0
278.50531 120.0
278.536499 156.0
278.604706 96.0
278.661469 56.0
278.711304 132.0
278.838593 180.0
278.89093 148.0
278.927307 136.0
278.953888 140.0
279.023712 128.0
279.13974 2160.0
279.311646 236.0
279.352936 200.0
279.396179 76.0
279.419464 104.0
279.499329 44.0
279.555878 64.0
279.58252 264.0
279.640808 132.0
279.699005 116.0
279.741089 136.0
279.818848 184.0
279.865448 124.0
280.048615 128.0
280.169739 1944.0
280.24057 160.0
280.340546 108.0
280.388428 88.0
280.419525 148.0
280.488434 136.0
280.56842 88.0
280.645447 156.0
280.728485 164.0
280.757782 180.0
280.798492 92.0
280.845184 144.0
280.874023 168.0
280.935272 148.0
281.083771 160.0
281.10788 172.0
281.155121 1856.0
281.275635 136.0
281.365753 136.0
281.395813 192.0
281.422516 132.0
281.455902 160.0
281.516022 156.0
281.576111 96.0
281.642914 32.0
281.734192 148.0
281.773743 120.0
281.896118 260.0
281.957764 120.0
282.003754 132.0
282.070618 32.0
282.148285 812.0
282.185425 1288.0
282.274811 156.0
282.341431 40.0
282.391602 120.0
282.449249 168.0
282.464508 40.0
282.477722 160.0
282.511566 172.0
282.702728 140.0
282.736206 116.0
282.807068 92.0
282.860016 112.0
282.983887 140.0
283.008301 196.0
283.091034 104.0
283.138855 700.0
283.166809 1556.0
283.245483 272.0
283.286499 168.0
283.345612 96.0
283.432709 36.0
283.486328 104.0
283.58194 68.0
283.70752 144.0
283.747772 68.0
283.822083 216.0
283.850098 192.0
283.875183 148.0
284.062988 140.0
284.164124 1304.0
284.198914 836.0
284.230286 144.0
284.329437 212.0
284.396851 44.0
284.462311 168.0
284.492523 152.0
284.537018 48.0
284.564056 248.0
284.593231 184.0
284.646973 152.0
284.73938 44.0
284.808167 176.0
284.888794 224.0
284.919006 108.0
284.979492 232.0
285.005798 96.0
285.15625 564.0
285.168304 896.0
285.204468 208.0
285.258423 140.0
285.302124 80.0
285.369354 128.0
285.423157 192.0
285.480316 32.0
285.530762 116.0
285.582428 100.0
285.63504 160.0
285.672028 48.0
285.715088 160.0
285.772949 152.0
285.83017 164.0
285.874908 148.0
285.916138 152.0
285.941223 100.0
285.987274 168.0
286.047791 56.0
286.071777 212.0
286.106415 156.0
286.17868 852.0
286.30481 112.0
286.376465 232.0
286.495636 104.0
286.504639 156.0
286.533844 68.0
286.59787 40.0
286.655151 196.0
286.6922 52.0
286.730865 132.0
286.786591 76.0
286.868103 148.0
286.934906 164.0
287.066406 180.0
287.094818 84.0
287.122314 140.0
287.179108 820.0
287.282257 76.0
287.338287 124.0
287.396942 136.0
287.491425 52.0
287.562317 120.0
287.596069 188.0
287.622467 152.0
287.697937 156.0
287.867676 52.0
287.947205 328.0
287.984833 108.0
288.026855 156.0
288.095795 96.0
288.161011 484.0
288.185791 428.0
288.230957 48.0
288.261353 108.0
288.299774 88.0
288.3526 36.0
288.398773 192.0
288.45401 156.0
288.518219 92.0
288.562195 160.0
288.663605 124.0
288.893616 68.0
288.924042 96.0
288.984955 148.0
289.015411 128.0
289.062775 76.0
289.149567 180.0
289.178925 260.0
289.32959 136.0
289.397858 44.0
289.550995 164.0
289.648468 168.0
289.758057 68.0
289.916138 148.0
290.02417 136.0
290.065857 152.0
290.099152 196.0
290.157501 548.0
290.199921 172.0
290.244934 112.0
290.398651 108.0
290.508118 120.0
290.587494 68.0
290.645172 132.0
290.702789 172.0
290.715546 168.0
290.768646 104.0
290.789246 192.0
290.843353 120.0
290.892914 168.0
290.960815 108.0
291.017548 28.0
291.136108 856.0
291.173126 288.0
291.236725 128.0
291.369537 148.0
291.44989 160.0
291.490662 224.0
291.592621 176.0
291.640198 128.0
291.680023 196.0
291.827148 136.0
291.907593 140.0
291.920288 92.0
291.95639 116.0
292.037994 76.0
292.063843 180.0
292.167084 1080.0
292.24054 140.0
292.327179 76.0
292.378693 172.0
292.403534 128.0
292.506714 112.0
292.56543 132.0
292.613068 92.0
292.65033 72.0
292.661987 76.0
292.725433 92.0
292.776672 156.0
292.825958 100.0
292.888916 120.0
292.91275 76.0
293.014954 128.0
293.069458 220.0
293.106934 60.0
293.148773 1260.0
293.227814 120.0
293.296783 80.0
293.331879 188.0
293.381409 240.0
293.429382 80.0
293.451202 196.0
293.545685 140.0
293.592072 176.0
293.661591 148.0
293.751648 164.0
293.782013 76.0
293.809296 84.0
293.836578 144.0
293.869568 192.0
293.94339 212.0
294.099335 140.0
294.18277 2920.0
294.259796 108.0
294.293915 112.0
294.324646 232.0
294.379303 168.0
294.468872 120.0
294.56012 72.0
294.608124 216.0
294.638885 120.0
294.683289 152.0
294.710632 44.0
294.737946 44.0
294.799469 128.0
294.833618 36.0
294.858612 128.0
294.963501 112.0
295.005829 180.0
295.0466 128.0
295.135406 940.0
295.160583 452.0
295.166687 516.0
295.193634 1396.0
295.278961 160.0
295.360138 96.0
295.407776 160.0
295.466187 44.0
295.512909 116.0
295.55426 156.0
295.680023 156.0
295.714935 92.0
295.756836 176.0
295.818665 112.0
295.849487 104.0
295.924408 176.0
295.976166 32.0
296.011993 120.0
296.054932 76.0
296.096375 236.0
296.16803 1044.0
296.195404 692.0
296.280975 240.0
296.332367 56.0
296.39621 160.0
296.420135 128.0
296.469421 272.0
296.522491 132.0
296.615021 132.0
296.625153 64.0
296.639435 160.0
296.699066 180.0
296.732788 96.0
296.87738 144.0
296.95282 196.0
296.997406 72.0
297.059875 132.0
297.147705 1960.0
297.202728 312.0
297.207092 384.0
297.285583 100.0
297.316467 92.0
297.361908 272.0
297.444214 168.0
297.505249 56.0
297.618927 152.0
297.674957 144.0
297.725006 92.0
297.749023 48.0
297.792816 124.0
297.917328 136.0
297.965424 124.0
298.023834 140.0
298.075378 56.0
298.180084 1924.0
298.21051 1044.0
298.252594 172.0
298.289001 104.0
298.378082 120.0
298.447754 136.0
298.508484 36.0
298.560089 56.0
298.594482 72.0
298.628876 152.0
298.71106 116.0
298.804291 100.0
298.859344 156.0
298.921265 204.0
299.021088 132.0
299.089905 120.0
299.117249 164.0
299.168091 432.0
299.177429 512.0
299.215179 312.0
299.298462 76.0
299.342194 72.0
299.399841 212.0
299.555939 164.0
299.599457 140.0
299.689117 96.0
299.720123 108.0
299.753937 148.0
299.824463 116.0
299.850342 148.0
299.889008 48.0
299.92691 80.0
299.99939 160.0
300.083954 108.0
300.113068 128.0
300.161407 492.0
300.197754 888.0
300.301788 176.0
300.361359 100.0
300.486816 76.0
300.526947 124.0
300.564911 76.0
300.58905 116.0
300.668427 120.0
300.713287 112.0
300.761627 116.0
300.789246 116.0
300.815918 132.0
300.858276 120.0
300.899689 88.0
300.94458 44.0
300.998352 148.0
301.022766 100.0
301.168915 120.0
301.194916 332.0
301.402679 140.0
301.451111 180.0
301.47998 36.0
301.542175 140.0
301.594757 108.0
301.642426 112.0
301.678864 132.0
301.749603 140.0
301.794525 112.0
301.822205 216.0
301.846405 48.0
301.886108 124.0
301.920288 196.0
302.005493 232.0
302.105804 124.0
302.177124 872.0
302.210449 500.0
302.289154 68.0
302.358368 128.0
302.428467 144.0
302.455292 192.0
302.502563 116.0
302.648773 220.0
302.694153 140.0
302.753021 68.0
302.822296 88.0
302.856934 132.0
302.946991 176.0
303.031525 160.0
303.064789 152.0
303.099426 208.0
303.171387 200.0
303.20752 292.0
303.296753 164.0
303.342041 44.0
303.425232 120.0
303.466827 92.0
303.491119 56.0
303.522308 56.0
303.60553 116.0
303.799774 140.0
303.834473 180.0
303.865692 52.0
303.900391 120.0
303.948944 144.0
303.99408 116.0
304.089264 140.0
304.170044 1844.0
304.296051 112.0
304.355072 120.0
304.39325 96.0
304.448822 156.0
304.47467 72.0
304.520386 172.0
304.546051 252.0
304.730164 112.0
304.817047 120.0
304.893494 68.0
304.987335 120.0
305.056854 104.0
305.114319 160.0
305.174194 928.0
305.293274 132.0
305.36795 84.0
305.449768 44.0
305.519348 192.0
305.543701 88.0
305.644592 56.0
305.712219 112.0
305.804688 100.0
305.846436 32.0
306.06427 168.0
306.18219 780.0
306.275635 136.0
306.354828 92.0
306.389679 188.0
306.446289 152.0
306.497681 48.0
306.671936 168.0
306.72995 224.0
306.842743 208.0
306.927765 124.0
307.006622 132.0
307.065887 176.0
307.161407 296.0
307.247284 96.0
307.373627 88.0
307.456726 132.0
307.538696 204.0
307.575287 208.0
307.617188 68.0
307.64859 160.0
307.858093 104.0
307.964355 140.0
307.980072 52.0
307.997375 136.0
308.055237 96.0
308.163147 1392.0
308.199036 2780.0
308.29126 64.0
308.322723 100.0
308.376953 200.0
308.453369 156.0
308.514954 108.0
308.545197 120.0
308.569061 148.0
308.619843 48.0
308.647827 324.0
308.700256 76.0
308.735229 136.0
308.787567 148.0
308.829651 128.0
308.881042 156.0
309.001068 52.0
309.04306 96.0
309.081543 212.0
309.151825 1312.0
309.176544 660.0
309.204285 832.0
309.284515 104.0
309.32547 160.0
309.456055 176.0
309.48407 180.0
309.533081 128.0
309.645142 64.0
309.680176 60.0
309.7117 216.0
309.79953 156.0
309.844788 48.0
309.897339 48.0
309.936401 164.0
309.972473 164.0
310.091431 244.0
310.179321 1708.0
310.286377 108.0
310.367004 32.0
310.407349 80.0
310.437134 72.0
310.508453 48.0
310.584442 156.0
310.640564 140.0
310.854584 72.0
310.931091 200.0
310.970398 72.0
311.034729 204.0
311.099396 64.0
311.165588 1556.0
311.318665 60.0
311.421387 116.0
311.479797 192.0
311.549866 132.0
311.612915 168.0
311.679749 200.0
311.719177 112.0
311.852661 168.0
311.874603 332.0
312.080444 168.0
312.194366 2628.0
312.259796 100.0
312.358276 44.0
312.398315 104.0
312.435028 180.0
312.445374 148.0
312.515167 120.0
312.529877 72.0
312.543304 176.0
312.619202 148.0
312.67688 128.0
312.715942 128.0
312.762909 96.0
312.857971 148.0
312.917816 220.0
312.970612 92.0
312.99527 160.0
313.076263 32.0
313.100922 64.0
313.142181 308.0
313.19397 1152.0
313.273041 180.0
313.295654 164.0
313.343964 184.0
313.372131 128.0
313.468994 132.0
313.5448 128.0
313.594147 100.0
313.668152 32.0
313.692841 116.0
313.770386 208.0
313.812714 164.0
313.874908 112.0
313.927094 136.0
313.942749 136.0
314.008118 152.0
314.040863 68.0
314.176239 1236.0
314.203278 1604.0
314.3284 96.0
314.394714 128.0
314.429993 112.0
314.471954 132.0
314.50766 144.0
314.532349 168.0
314.58609 196.0
314.659454 32.0
314.747711 228.0
314.828918 104.0
314.864227 48.0
314.903076 76.0
314.9505 332.0
315.088989 152.0
315.174561 380.0
315.209167 360.0
315.290222 172.0
315.420166 176.0
315.489655 112.0
315.533783 228.0
315.694702 92.0
315.793732 128.0
315.823914 128.0
315.868011 124.0
315.905212 116.0
315.995148 132.0
316.022186 220.0
316.19165 1104.0
316.320953 168.0
316.417847 156.0
316.448395 112.0
316.505035 96.0
316.617188 108.0
316.699829 168.0
316.7565 60.0
316.813171 132.0
316.859222 116.0
316.896027 216.0
316.926544 296.0
316.978516 60.0
317.006683 104.0
317.093079 104.0
317.177643 344.0
317.228119 292.0
317.314911 132.0
317.396545 184.0
317.413666 84.0
317.529144 140.0
317.574402 132.0
317.617828 56.0
317.702972 68.0
317.770355 84.0
317.811157 112.0
317.89325 164.0
317.919403 172.0
317.951843 164.0
318.064911 64.0
318.112457 264.0
318.209045 1256.0
318.238464 132.0
318.288574 200.0
318.341827 204.0
318.395111 40.0
318.576233 252.0
318.611755 172.0
318.66861 168.0
318.788879 188.0
318.819977 200.0
318.865601 252.0
319.05954 160.0
319.194336 148.0
319.268127 164.0
319.379578 220.0
319.481537 176.0
319.536102 76.0
319.564575 48.0
319.777679 144.0
319.899109 196.0
319.941803 56.0
320.062866 108.0
320.162476 136.0
320.195587 152.0
320.236572 180.0
320.28009 164.0
320.305023 160.0
320.372711 176.0
320.479584 160.0
320.584808 84.0
320.643524 136.0
320.680664 152.0
320.725494 124.0
320.773987 92.0
320.841583 144.0
320.92157 64.0
320.982178 144.0
321.017822 104.0
321.095947 208.0
321.165924 204.0
321.274628 104.0
321.338837 164.0
321.45578 208.0
321.654694 308.0
321.688568 156.0
321.727234 140.0
321.842102 116.0
321.881378 72.0
321.927399 360.0
321.958435 240.0
322.014587 120.0
322.052795 96.0
322.181366 2604.0
322.246582 128.0
322.276093 148.0
322.313568 148.0
322.404816 200.0
322.486908 168.0
322.524414 140.0
322.578888 84.0
322.685303 152.0
322.724609 52.0
322.83905 144.0
322.881958 236.0
322.924866 112.0
322.952759 120.0
323.01178 40.0
323.085846 108.0
323.189941 1224.0
323.250427 76.0
323.290344 204.0
323.340118 128.0
323.368347 160.0
323.490204 148.0
323.51886 44.0
323.634674 188.0
323.841125 56.0
323.916321 176.0
323.948578 248.0
323.980804 188.0
324.027374 188.0
324.070374 60.0
324.192505 1340.0
324.28537 88.0
324.33197 88.0
324.357056 124.0
324.436798 116.0
324.486115 64.0
324.536316 112.0
324.572174 136.0
324.622375 132.0
324.669006 160.0
324.703156 152.0
324.746399 252.0
324.810211 140.0
324.893768 156.0
324.955963 248.0
325.002594 48.0
325.199097 908.0
325.260193 184.0
325.321991 140.0
325.365082 120.0
325.426117 76.0
325.454834 168.0
325.504883 188.0
325.581604 92.0
325.616425 140.0
325.650879 136.0
325.709808 88.0
325.749329 148.0
325.80957 280.0
325.91098 44.0
325.966614 232.0
326.06192 168.0
326.2117 8684.0
326.283905 168.0
326.35202 132.0
326.426514 88.0
326.489716 112.0
326.539551 56.0
326.579651 60.0
326.644379 140.0
326.673157 68.0
326.823059 168.0
326.885437 160.0
326.967194 128.0
327.011383 212.0
327.036591 124.0
327.161011 636.0
327.215332 2844.0
327.268311 140.0
327.30658 76.0
327.367798 108.0
327.393005 168.0
327.418213 292.0
327.455017 108.0
327.497437 160.0
327.594696 156.0
327.734894 136.0
327.789246 120.0
327.877899 100.0
327.926208 96.0
327.973053 60.0
328.009094 136.0
328.063171 80.0
328.18927 780.0
328.223328 940.0
328.430969 220.0
328.477844 92.0
328.543793 144.0
328.595398 172.0
328.645874 204.0
328.734009 108.0
328.783905 68.0
328.794861 56.0
328.817261 124.0
329.004883 164.0
329.040802 92.0
329.067932 84.0
329.107788 168.0
329.179504 972.0
329.194794 820.0
329.286346 136.0
329.316864 304.0
329.373901 124.0
329.405121 232.0
329.459747 208.0
329.492249 152.0
329.533966 116.0
329.582581 244.0
329.647461 172.0
329.69458 164.0
329.745178 180.0
329.828308 192.0
329.907837 108.0
329.933136 184.0
329.980133 128.0
330.025513 80.0
330.037994 44.0
330.053894 80.0
330.125366 172.0
330.203522 1180.0
330.241974 1136.0
330.29184 148.0
330.345398 100.0
330.369812 108.0
330.405334 196.0
330.519073 216.0
330.55014 232.0
330.580566 228.0
330.623993 132.0
330.710846 92.0
330.750671 112.0
330.801361 76.0
330.935303 104.0
331.036591 312.0
331.101868 52.0
331.130829 248.0
331.214478 324.0
331.308105 136.0
331.391663 148.0
331.483795 224.0
331.561951 76.0
331.614655 96.0
331.693878 80.0
331.7323 172.0
331.786682 152.0
331.862823 140.0
331.913574 180.0
331.944641 200.0
332.011505 180.0
332.036896 136.0
332.112091 164.0
332.180115 472.0
332.224213 392.0
332.269012 180.0
332.319824 128.0
332.363373 164.0
332.445496 196.0
332.537537 188.0
332.595612 200.0
332.66095 120.0
332.782715 112.0
332.936157 120.0
333.038574 56.0
333.064026 176.0
333.141998 76.0
333.190094 488.0
333.217468 336.0
333.289246 112.0
333.368286 144.0
333.427338 28.0
333.467316 160.0
333.508392 212.0
333.639465 128.0
333.834503 152.0
333.861969 136.0
333.913879 140.0
333.953156 224.0
334.065033 136.0
334.080231 100.0
334.094482 192.0
334.121826 156.0
334.147308 140.0
334.191498 348.0
334.26062 168.0
334.292847 176.0
334.356293 128.0
334.412933 100.0
334.518127 152.0
334.580383 80.0
334.766083 168.0
334.790405 164.0
334.835266 112.0
334.951813 184.0
335.073273 128.0
335.104828 128.0
335.137604 140.0
335.191132 240.0
335.226105 196.0
335.257843 220.0
335.283356 156.0
335.367096 176.0
335.413422 184.0
335.4729 128.0
335.602509 128.0
335.7099 120.0
335.741882 244.0
335.782837 108.0
335.844818 84.0
335.876068 100.0
335.90683 148.0
336.02356 80.0
336.080963 132.0
336.107483 144.0
336.148834 104.0
336.195251 4472.0
336.251709 116.0
336.344696 128.0
336.395813 148.0
336.455475 176.0
336.514221 176.0
336.552094 132.0
336.651367 120.0
336.713165 96.0
336.740112 132.0
336.782867 164.0
336.826691 56.0
336.866882 48.0
336.917999 120.0
337.023132 192.0
337.073303 144.0
337.108002 44.0
337.198212 2100.0
337.24707 156.0
337.345856 148.0
337.397705 100.0
337.458893 76.0
337.553955 132.0
337.607391 144.0
337.63678 248.0
337.791687 128.0
337.846558 136.0
337.889252 48.0
337.934357 112.0
338.058777 72.0
338.213684 664.0
338.260071 112.0
338.297577 92.0
338.347931 128.0
338.398926 120.0
338.404297 112.0
338.41864 164.0
338.447266 152.0
338.500305 52.0
338.594604 88.0
338.662079 212.0
338.727295 140.0
338.758087 168.0
338.816681 44.0
338.871643 48.0
338.904633 120.0
338.963257 120.0
339.025543 60.0
339.051208 156.0
339.164673 108.0
339.190369 216.0
339.217255 316.0
339.262177 100.0
339.293121 156.0
339.366425 152.0
339.392883 164.0
339.428772 132.0
339.502106 108.0
339.536102 228.0
339.611542 196.0
339.733185 72.0
339.832397 92.0
339.941803 144.0
339.990112 284.0
340.034058 108.0
340.102753 112.0
340.194458 2576.0
340.226379 6696.0
340.281433 164.0
340.364441 32.0
340.452576 120.0
340.537048 72.0
340.617859 332.0
340.663055 144.0
340.715179 48.0
340.758728 80.0
340.811188 108.0
340.856659 232.0
340.882355 76.0
340.933807 156.0
340.963226 72.0
341.033813 188.0
341.084503 172.0
341.119629 200.0
341.195984 1640.0
341.225311 1712.0
341.278809 84.0
341.319794 124.0
341.360229 88.0
341.459991 96.0
341.507355 108.0
341.551483 92.0
341.57724 112.0
341.658142 36.0
341.683899 120.0
341.720703 120.0
341.751801 92.0
341.802246 100.0
341.845795 148.0
341.913666 144.0
341.961792 92.0
342.011505 140.0
342.096069 76.0
342.125519 56.0
342.204559 1260.0
342.299316 136.0
342.337219 120.0
342.38327 36.0
342.420105 108.0
342.485443 108.0
342.565826 156.0
342.593201 88.0
342.671265 212.0
342.726013 164.0
342.840057 128.0
342.906403 148.0
342.939941 364.0
343.046478 100.0
343.151733 144.0
343.206024 484.0
343.289795 76.0
343.337219 140.0
343.421295 172.0
343.488983 356.0
343.548981 44.0
343.627899 152.0
343.684509 116.0
343.763489 204.0
343.832001 136.0
343.841827 132.0
343.887451 88.0
343.924377 68.0
344.00528 144.0
344.046173 160.0
344.104309 140.0
344.138489 72.0
344.220337 4380.0
344.274811 104.0
344.334198 124.0
344.382202 64.0
344.409302 212.0
344.435577 132.0
344.46347 64.0
344.507782 136.0
344.543365 76.0
344.592773 112.0
344.626007 36.0
344.659271 48.0
344.735016 96.0
344.779968 120.0
344.862518 48.0
344.895782 124.0
344.962311 56.0
345.016968 168.0
345.065826 100.0
345.11557 136.0
345.169342 140.0
345.223572 1144.0
345.271271 100.0
345.339386 152.0
345.509918 100.0
345.604187 236.0
345.653351 104.0
345.803589 208.0
345.835266 144.0
345.883362 100.0
345.927795 112.0
346.001831 72.0
346.031433 60.0
346.108063 144.0
346.200745 616.0
346.231567 328.0
346.380188 212.0
346.502106 96.0
346.538849 132.0
346.818756 140.0
346.939087 160.0
347.022552 188.0
347.068848 160.0
347.190094 156.0
347.221344 180.0
347.288116 132.0
347.338715 104.0
347.525177 128.0
347.595581 100.0
347.63269 108.0
347.662354 124.0
347.75885 140.0
347.85907 100.0
347.989014 60.0
348.037689 140.0
348.130096 68.0
348.184235 140.0
348.213928 140.0
348.233643 96.0
348.287689 152.0
348.364105 124.0
348.408691 140.0
348.453735 64.0
348.559601 160.0
348.59964 84.0
348.656525 148.0
348.761688 100.0
348.80304 280.0
348.834778 108.0
348.876923 44.0
348.954987 56.0
349.032043 44.0
349.076324 248.0
349.15506 104.0
349.186768 440.0
349.282257 128.0
349.323151 148.0
349.352905 136.0
349.386414 124.0
349.43103 104.0
349.581207 300.0
349.739899 132.0
349.806915 176.0
349.92923 200.0
350.011658 148.0
350.113983 144.0
350.207397 392.0
350.25174 120.0
350.302155 176.0
350.339417 172.0
350.384125 180.0
350.454895 64.0
350.533142 128.0
350.609497 188.0
350.723206 72.0
350.782867 200.0
350.81366 136.0
350.863586 152.0
351.002838 148.0
351.0625 148.0
351.125885 136.0
351.221802 232.0
351.297455 48.0
351.390717 144.0
351.435486 104.0
351.58847 52.0
351.700439 128.0
351.732635 116.0
351.786316 112.0
352.021515 152.0
352.058868 100.0
352.118622 176.0
352.203827 172.0
352.301056 204.0
352.358978 132.0
352.44281 112.0
352.514618 120.0
352.660614 180.0
352.737366 120.0
352.806122 140.0
352.89212 136.0
352.979462 244.0
353.026733 100.0
353.094055 108.0
353.191925 572.0
353.330536 180.0
353.362335 176.0
353.410461 136.0
353.509277 140.0
353.627594 104.0
353.67395 52.0
353.710236 52.0
353.740417 144.0
353.779388 48.0
353.852478 160.0
353.949982 88.0
353.955627 116.0
353.992188 96.0
354.040863 92.0
354.20636 16632.0
354.329285 64.0
354.390533 260.0
354.452911 32.0
354.496796 68.0
354.544647 168.0
354.610931 96.0
354.644043 68.0
354.698029 80.0
354.726501 72.0
354.767303 176.0
354.821655 168.0
354.855011 188.0
354.891907 68.0
355.00705 68.0
355.091797 104.0
355.147491 192.0
355.209595 4796.0
355.257721 424.0
355.344482 188.0
355.372406 120.0
355.396057 60.0
355.43158 68.0
355.47168 152.0
355.521637 144.0
355.549133 176.0
355.589203 148.0
355.705536 100.0
355.79187 124.0
355.859467 124.0
355.913055 144.0
355.946564 160.0
355.974396 140.0
356.028931 88.0
356.058472 104.0
356.09671 132.0
356.141113 64.0
356.217682 2440.0
356.268829 116.0
356.295105 192.0
356.330933 112.0
356.362732 236.0
356.402618 52.0
356.460419 160.0
356.498016 120.0
356.523376 112.0
356.533447 84.0
356.550415 148.0
356.620117 116.0
356.655853 140.0
356.732635 128.0
356.809967 136.0
356.858856 64.0
356.956604 104.0
357.026825 120.0
357.093506 140.0
357.221802 256.0
357.321106 208.0
357.374115 144.0
357.404236 112.0
357.477142 160.0
357.493713 180.0
357.502472 108.0
357.555786 116.0
357.633789 56.0
357.667419 128.0
357.711273 240.0
357.757996 84.0
357.79187 116.0
357.834259 156.0
357.851959 92.0
357.861145 152.0
357.981689 424.0
358.034912 256.0
358.143097 104.0
358.238464 29896.0
358.365753 172.0
358.42453 164.0
358.458252 156.0
358.550812 200.0
358.583191 60.0
358.611359 184.0
358.67453 244.0
358.702637 120.0
358.71051 56.0
358.788605 120.0
358.828766 88.0
358.859406 204.0
358.909027 172.0
358.978729 84.0
359.033295 168.0
359.081543 232.0
359.109009 132.0
359.240234 8500.0
359.315948 124.0
359.329956 104.0
359.342163 160.0
359.404968 64.0
359.436798 128.0
359.547119 72.0
359.584747 156.0
359.652222 140.0
359.703125 176.0
359.729523 172.0
359.757355 144.0
359.797913 148.0
359.87677 156.0
359.913574 160.0
359.966034 56.0
360.046692 104.0
360.137329 40.0
360.245544 1380.0
360.329987 52.0
360.394226 152.0
360.443329 232.0
360.487457 112.0
360.538879 212.0
360.632294 44.0
360.747131 184.0
360.836426 160.0
360.86908 132.0
360.898041 48.0
360.967072 248.0
361.013397 228.0
361.074585 204.0
361.135681 60.0
361.209961 344.0
361.239716 128.0
361.255829 204.0
361.358337 164.0
361.440155 212.0
361.470367 124.0
361.559326 100.0
361.608093 164.0
361.645935 196.0
361.689453 168.0
361.736786 112.0
361.778412 216.0
361.846558 52.0
361.889069 156.0
361.975281 240.0
362.043457 100.0
362.085114 64.0
362.172211 108.0
362.221283 396.0
362.263977 180.0
362.352417 168.0
362.408539 84.0
362.475739 140.0
362.509399 164.0
362.578796 224.0
362.612793 100.0
362.644318 180.0
362.676147 92.0
362.725433 104.0
362.805023 136.0
362.858093 144.0
362.888428 136.0
362.956696 168.0
362.994598 96.0
363.066437 140.0
363.205719 132.0
363.238464 176.0
363.33493 208.0
363.36911 76.0
363.415619 184.0
363.506683 96.0
363.634247 124.0
363.6875 156.0
363.795135 52.0
363.871063 84.0
363.917328 192.0
363.992584 36.0
364.070099 96.0
364.171051 128.0
364.222504 288.0
364.236359 248.0
364.463562 200.0
364.539551 176.0
364.623169 116.0
364.695374 116.0
364.721985 180.0
364.869202 220.0
364.922333 148.0
364.954681 120.0
365.010925 104.0
365.041351 100.0
365.094574 232.0
365.140198 168.0
365.226166 160.0
365.2565 132.0
365.35321 68.0
365.406494 128.0
365.52063 280.0
365.64621 44.0
365.761871 236.0
365.802246 76.0
365.892395 100.0
365.902832 152.0
365.976837 56.0
366.130951 132.0
366.180084 292.0
366.236328 116.0
366.354431 56.0
366.395447 140.0
366.51062 264.0
366.571594 32.0
366.720215 152.0
366.794922 180.0
366.857452 84.0
366.956543 180.0
366.983246 216.0
367.059509 120.0
367.171631 216.0
367.263031 292.0
367.309479 48.0
367.375732 136.0
367.467621 144.0
367.531189 140.0
367.660034 104.0
367.760925 116.0
367.88559 116.0
367.917969 56.0
368.001953 88.0
368.070679 156.0
368.150879 212.0
368.221741 8312.0
368.28598 180.0
368.335388 140.0
368.38385 168.0
368.422058 224.0
368.50531 172.0
368.674927 88.0
368.785065 168.0
368.842377 244.0
368.88089 112.0
368.951752 148.0
368.986328 152.0
369.016663 116.0
369.029694 68.0
369.03894 116.0
369.100586 52.0
369.140076 148.0
369.146149 132.0
369.163544 76.0
369.174011 132.0
369.2258 2544.0
369.320801 32.0
369.366241 196.0
369.427429 40.0
369.5224 44.0
369.545166 160.0
369.588135 92.0
369.618744 200.0
369.687622 124.0
369.745026 76.0
369.779449 144.0
369.880402 192.0
369.895142 40.0
369.905487 104.0
369.956879 124.0
370.051239 132.0
370.093353 52.0
370.233246 816.0
370.280609 124.0
370.292908 220.0
370.365265 132.0
370.407379 120.0
370.484009 248.0
370.609558 88.0
370.641083 140.0
370.683228 96.0
370.759888 204.0
370.795715 148.0
370.874847 40.0
370.909363 140.0
370.991577 96.0
371.056061 148.0
371.212738 288.0
371.249817 404.0
371.342621 112.0
371.448303 132.0
371.513824 100.0
371.571136 152.0
371.613312 84.0
371.627808 128.0
371.678009 112.0
371.722412 164.0
371.810883 72.0
371.844818 188.0
371.959656 144.0
372.011475 100.0
372.05249 116.0
372.113892 76.0
372.25296 11376.0
372.314575 136.0
372.373413 124.0
372.389099 72.0
372.395294 100.0
372.449982 132.0
372.480255 140.0
372.560944 40.0
372.573944 76.0
372.588654 200.0
372.62854 68.0
372.666962 132.0
372.761597 76.0
372.833801 152.0
372.879364 160.0
372.949982 140.0
373.053711 132.0
373.089722 96.0
373.171234 136.0
373.224091 2484.0
373.251465 2708.0
373.335297 124.0
373.345062 108.0
373.439636 256.0
373.524261 116.0
373.558868 152.0
373.647339 84.0
373.778656 160.0
373.81665 172.0
373.859833 200.0
373.895538 168.0
374.02832 84.0
374.070648 100.0
374.116852 160.0
374.230957 908.0
374.266815 568.0
374.348816 164.0
374.376373 128.0
374.432587 88.0
374.519165 116.0
374.53186 72.0
374.636719 112.0
374.717621 72.0
374.806244 180.0
374.902588 208.0
374.951355 196.0
375.014343 148.0
375.074585 176.0
375.17746 96.0
375.222168 280.0
375.249969 236.0
375.303467 160.0
375.362579 192.0
375.38916 144.0
375.438416 76.0
375.469879 104.0
375.521057 180.0
375.59848 96.0
375.731567 84.0
375.8396 268.0
375.88446 96.0
375.966949 48.0
376.028687 80.0
376.053864 40.0
376.113129 164.0
376.24762 6168.0
376.334351 156.0
376.414734 84.0
376.449493 148.0
376.499695 152.0
376.553253 60.0
376.620758 80.0
376.740601 192.0
376.832275 116.0
376.878235 48.0
376.927948 184.0
376.95166 272.0
377.067322 112.0
377.117828 108.0
377.181793 360.0
377.251221 1700.0
377.326569 32.0
377.371674 48.0
377.492828 40.0
377.546967 92.0
377.616577 156.0
377.703796 124.0
377.865417 196.0
378.255005 408.0
378.324677 164.0
378.433075 172.0
378.483398 68.0
378.514404 96.0
378.541504 132.0
378.680908 172.0
378.71405 100.0
378.755463 144.0
378.810669 176.0
378.89856 168.0
379.018127 76.0
379.056671 184.0
379.083801 76.0
379.153564 48.0
379.238464 128.0
379.254211 116.0
379.320221 92.0
379.354462 72.0
379.375305 76.0
379.483032 96.0
379.572235 92.0
379.624268 160.0
379.715698 152.0
379.847595 208.0
379.894989 172.0
379.93222 156.0
379.97171 164.0
380.057068 176.0
380.239471 272.0
380.289917 124.0
380.390839 72.0
380.460693 44.0
380.58493 40.0
380.790741 52.0
380.938354 188.0
380.984955 172.0
381.11319 168.0
381.168701 152.0
381.218079 100.0
381.274933 140.0
381.286102 88.0
381.301727 184.0
381.33078 120.0
381.389099 40.0
381.441071 108.0
381.509583 128.0
381.563477 140.0
381.637878 176.0
381.688446 128.0
381.727325 144.0
381.770081 72.0
381.863434 52.0
381.958069 156.0
382.095917 192.0
382.187958 132.0
382.235962 236.0
382.318604 188.0
382.435364 116.0
382.505432 108.0
382.57193 96.0
382.624817 228.0
382.72345 140.0
382.859222 128.0
382.922485 68.0
383.006775 180.0
383.062256 96.0
383.236725 92.0
383.299927 172.0
383.360962 192.0
383.446381 164.0
383.490875 164.0
383.541534 152.0
383.600006 104.0
383.650696 100.0
383.704987 172.0
383.798828 108.0
383.875214 176.0
383.929901 156.0
383.973145 160.0
384.021454 88.0
384.106934 104.0
384.155579 68.0
384.224457 532.0
384.3479 156.0
384.529663 116.0
384.57782 192.0
384.633698 128.0
384.658478 96.0
384.688354 84.0
384.719574 124.0
384.746887 240.0
384.774231 116.0
384.843018 220.0
384.904419 116.0
384.957733 124.0
385.004608 36.0
385.058044 116.0
385.068787 100.0
385.11972 92.0
385.209717 120.0
385.311188 108.0
385.366577 248.0
385.406952 152.0
385.472656 260.0
385.520264 156.0
385.574982 92.0
385.621857 148.0
385.667389 136.0
385.701141 84.0
385.759979 140.0
385.794495 216.0
385.825134 96.0
385.907227 188.0
385.940765 296.0
385.98288 184.0
386.048645 72.0
386.100128 136.0
386.135864 176.0
386.233521 52676.0
386.315369 248.0
386.392181 72.0
386.451965 212.0
386.501587 128.0
386.570709 176.0
386.595917 168.0
386.625977 80.0
386.644562 72.0
386.657532 124.0
386.702362 164.0
386.732635 108.0
386.792969 200.0
386.831757 168.0
386.883606 56.0
386.92691 216.0
386.979248 156.0
387.009277 256.0
387.051697 96.0
387.157349 184.0
387.235748 14284.0
387.28949 196.0
387.351746 60.0
387.418793 152.0
387.456146 156.0
387.495758 120.0
387.522644 92.0
387.5448 112.0
387.585297 192.0
387.672546 64.0
387.70285 188.0
387.740509 260.0
387.807098 72.0
387.879181 96.0
387.975769 100.0
388.026733 44.0
388.068451 160.0
388.115509 104.0
388.148346 128.0
388.18399 128.0
388.239044 1548.0
388.303131 172.0
388.33963 196.0
388.391022 144.0
388.493256 80.0
388.523376 40.0
388.566528 60.0
388.615448 172.0
388.648926 88.0
388.711029 120.0
388.776733 56.0
388.852234 124.0
388.891449 100.0
388.946289 164.0
388.977386 108.0
388.992432 144.0
389.028076 92.0
389.035095 152.0
389.070099 128.0
389.119904 48.0
389.16391 120.0
389.243988 680.0
389.354614 256.0
389.441559 132.0
389.506989 112.0
389.55719 160.0
389.613434 128.0
389.660187 128.0
389.70462 96.0
389.713531 84.0
389.729706 108.0
389.776855 280.0
389.832336 212.0
389.889343 176.0
389.939758 72.0
389.988037 128.0
390.035217 156.0
390.144684 188.0
390.264618 24224.0
390.348114 156.0
390.389038 52.0
390.418121 56.0
390.453003 108.0
390.483521 108.0
390.524719 152.0
390.577209 52.0
390.615417 100.0
390.672241 100.0
390.722504 200.0
390.738068 108.0
390.773407 120.0
390.818665 92.0
390.871094 120.0
390.903381 60.0
390.934631 192.0
390.989777 68.0
391.054749 132.0
391.088074 136.0
391.132629 128.0
391.178223 96.0
391.187134 184.0
391.265686 5668.0
391.372131 148.0
391.409973 160.0
391.462891 112.0
391.494843 28.0
391.526337 40.0
391.573608 36.0
391.609039 136.0
391.681 132.0
391.735107 52.0
391.845398 64.0
391.89267 52.0
391.924194 48.0
391.975433 136.0
392.019135 224.0
392.070007 88.0
392.101532 68.0
392.198517 216.0
392.268738 1148.0
392.383026 116.0
392.45813 260.0
392.491791 48.0
392.519379 104.0
392.597015 128.0
392.645569 180.0
392.727753 48.0
392.776581 204.0
392.838837 32.0
392.866455 164.0
392.94931 152.0
393.003174 128.0
393.047699 64.0
393.113281 252.0
393.155334 132.0
393.219025 68.0
393.247803 204.0
393.371246 100.0
393.44281 84.0
393.522186 100.0
393.562744 140.0
393.653473 148.0
393.681702 140.0
393.719482 84.0
393.758514 76.0
393.838348 132.0
393.895538 92.0
393.944153 88.0
393.973694 140.0
394.005188 124.0
394.062653 64.0
394.098236 32.0
394.1763 200.0
394.219208 108.0
394.256287 80.0
394.317627 84.0
394.367157 96.0
394.405151 84.0
394.481567 120.0
394.529022 176.0
394.566284 148.0
394.671326 120.0
394.699005 68.0
394.835693 164.0
394.932343 276.0
394.973877 112.0
395.025391 188.0
395.094513 100.0
395.12616 72.0
395.258057 168.0
395.336487 132.0
395.470428 116.0
395.507172 156.0
395.601044 124.0
395.703979 76.0
395.751495 92.0
395.844849 92.0
395.965332 68.0
396.000977 168.0
396.060394 140.0
396.123749 48.0
396.195068 160.0
396.23468 152.0
396.282227 56.0
396.567535 100.0
396.623047 192.0
396.772461 172.0
396.840088 180.0
396.929688 124.0
397.098816 80.0
397.188904 100.0
397.23172 112.0
397.299347 188.0
397.463776 92.0
397.499481 60.0
397.555054 196.0
397.602661 124.0
397.642365 152.0
397.745544 84.0
397.789215 56.0
397.850983 220.0
397.932922 20.0
397.965393 84.0
398.065735 136.0
398.074341 88.0
398.089264 208.0
398.138184 256.0
398.195038 116.0
398.235443 148.0
398.345154 84.0
398.388824 64.0
398.468292 72.0
398.523926 120.0
398.606018 144.0
398.780273 132.0
398.82196 156.0
398.849792 36.0
398.893494 108.0
398.94519 92.0
399.020721 112.0
399.08432 56.0
399.180084 140.0
399.25531 100.0
399.295074 72.0
399.356537 136.0
399.470093 68.0
399.522644 188.0
399.581482 260.0
399.613312 156.0
399.757812 176.0
399.808289 60.0
399.899811 108.0
399.96701 136.0
400.06427 120.0
400.113678 116.0
400.152771 116.0
400.248505 14960.0
400.332092 132.0
400.3479 292.0
400.389526 64.0
400.483398 64.0
400.532898 40.0
400.5914 128.0
400.648407 104.0
400.759888 212.0
400.795837 60.0
400.872223 160.0
400.903412 244.0
400.941284 56.0
401.073364 156.0
401.118652 56.0
401.16449 144.0
401.249573 3548.0
401.348938 104.0
401.428162 76.0
401.501404 64.0
401.581146 72.0
401.622833 168.0
401.706085 224.0
401.74469 100.0
401.780609 44.0
401.831055 224.0
401.88269 68.0
402.001251 40.0
402.063904 32.0
402.107788 56.0
402.143707 40.0
402.256592 864.0
402.323334 264.0
402.407166 88.0
402.43692 116.0
402.495026 136.0
402.52298 112.0
402.562897 52.0
402.650146 52.0
402.738617 128.0
402.790558 104.0
402.854462 144.0
402.882416 120.0
402.9104 52.0
402.950348 100.0
402.994293 48.0
403.026245 100.0
403.066223 180.0
403.094177 116.0
403.176636 88.0
403.258179 328.0
403.312744 148.0
403.388794 168.0
403.529846 112.0
403.62442 104.0
403.654541 108.0
403.810425 144.0
403.845764 112.0
403.891541 192.0
403.988068 216.0
404.035828 140.0
404.073761 404.0
404.138702 172.0
404.16922 120.0
404.243713 3644.0
404.343506 52.0
404.410095 84.0
404.436279 136.0
404.630066 68.0
404.766205 32.0
404.802246 100.0
404.850281 72.0
405.046173 136.0
405.246033 1356.0
405.3172 164.0
405.331787 236.0
405.380737 96.0
405.419128 84.0
405.492828 52.0
405.609222 272.0
405.647583 116.0
405.693787 92.0
405.790985 104.0
405.844025 84.0
405.966736 60.0
406.060577 136.0
406.088654 80.0
406.172882 92.0
406.240112 256.0
406.309265 124.0
406.415375 72.0
406.473785 68.0
406.50589 124.0
406.558044 52.0
406.622253 148.0
406.69278 176.0
406.742676 184.0
406.804993 152.0
406.867096 32.0
407.003601 36.0
407.260193 324.0
407.30423 204.0
407.353729 100.0
407.409241 128.0
407.45343 116.0
407.489594 140.0
407.594055 80.0
407.644775 168.0
407.734863 208.0
407.820557 144.0
407.923615 52.0
407.992676 132.0
408.045288 60.0
408.152771 100.0
408.241241 128.0
408.268036 156.0
408.348145 172.0
408.458435 176.0
408.522797 304.0
408.563477 136.0
408.661865 112.0
408.733673 112.0
408.796387 92.0
408.826477 124.0
409.070068 76.0
409.237366 144.0
409.271362 164.0
409.315643 100.0
409.441528 188.0
409.56131 84.0
409.613678 136.0
409.725067 92.0
409.896271 56.0
409.960144 100.0
410.157654 48.0
410.447906 140.0
410.657593 80.0
410.728485 196.0
410.768158 176.0
410.863312 152.0
410.907715 184.0
410.939972 112.0
411.091034 100.0
411.201874 164.0
411.315277 92.0
411.343536 36.0
411.408112 168.0
411.480804 140.0
411.513092 96.0
411.674591 60.0
411.714996 36.0
411.848267 128.0
411.891449 104.0
411.934174 120.0
411.981567 272.0
412.050232 40.0
412.080872 200.0
412.11084 68.0
412.167419 156.0
412.211853 168.0
412.268433 48.0
412.337921 104.0
412.375092 132.0
412.61441 184.0
412.730408 140.0
412.814178 172.0
412.86673 160.0
413.000214 144.0
413.141785 48.0
413.17569 116.0
413.216034 180.0
413.25354 172.0
413.315735 96.0
413.360779 124.0
413.39444 40.0
413.464325 84.0
413.477753 120.0
413.647614 40.0
413.866211 100.0
413.898621 168.0
413.971497 76.0
414.037567 192.0
414.082184 108.0
414.108307 164.0
414.250946 84.0
414.322601 76.0
414.367035 160.0
414.441101 116.0
414.530518 172.0
414.58725 92.0
414.763275 184.0
414.814209 104.0
414.846649 56.0
414.882141 216.0
414.947998 76.0
415.040405 136.0
415.085846 236.0
415.134521 144.0
415.215607 72.0
415.250305 116.0
415.27713 144.0
415.395569 132.0
415.463043 128.0
415.544586 124.0
415.584747 140.0
415.67807 116.0
415.775146 220.0
415.81604 96.0
415.88504 84.0
415.966217 168.0
416.028137 112.0
416.114166 216.0
416.173279 216.0
416.242401 524.0
416.303223 64.0
416.345428 172.0
416.359344 68.0
416.379974 160.0
416.39032 116.0
416.473022 300.0
416.575317 48.0
416.637268 168.0
416.705322 128.0
416.817474 324.0
416.859741 72.0
416.913696 156.0
416.944794 180.0
417.008301 224.0
417.126923 128.0
417.17691 192.0
417.211761 124.0
417.248322 332.0
417.261444 168.0
417.348145 100.0
417.383942 200.0
417.44101 232.0
417.514404 376.0
417.546753 84.0
417.607758 84.0
417.654877 48.0
417.747345 188.0
417.813995 128.0
417.8974 240.0
417.95282 224.0
418.003235 140.0
418.02124 88.0
418.033417 136.0
418.095795 388.0
418.140228 216.0
418.175354 436.0
418.259277 100416.0
418.386292 332.0
418.404785 148.0
418.416504 288.0
418.482086 56.0
418.505585 152.0
418.54541 84.0
418.575409 108.0
418.592194 152.0
418.624634 140.0
418.655487 112.0
418.686951 152.0
418.716644 104.0
418.75473 68.0
418.79071 172.0
418.839844 152.0
418.881775 136.0
418.926056 68.0
418.969055 204.0
419.025879 200.0
419.066315 120.0
419.127289 120.0
419.195831 168.0
419.261932 25652.0
419.395599 224.0
419.486816 112.0
419.500885 128.0
419.514832 64.0
419.567566 128.0
419.598816 88.0
419.609894 76.0
419.668304 40.0
419.696838 228.0
419.729004 236.0
419.759094 156.0
419.807526 56.0
419.847717 76.0
419.879486 168.0
419.925781 116.0
419.958923 100.0
420.005676 104.0
420.072113 120.0
420.130127 84.0
420.194092 96.0
420.266632 4736.0
420.361725 52.0
420.425232 64.0
420.493958 128.0
420.550049 92.0
420.602509 68.0
420.644012 144.0
420.707794 140.0
420.769257 184.0
420.791565 196.0
420.83847 200.0
420.880402 216.0
420.920319 80.0
421.001312 140.0
421.051605 52.0
421.100616 72.0
421.129211 76.0
421.165985 68.0
421.206268 144.0
421.223663 96.0
421.273804 312.0
421.364716 104.0
421.393433 100.0
421.459259 80.0
421.467987 116.0
421.519104 144.0
421.578186 152.0
421.584076 136.0
421.643982 68.0
421.682831 104.0
421.717987 236.0
421.750458 172.0
421.789215 92.0
421.838287 60.0
421.851807 216.0
421.880371 96.0
421.915955 128.0
421.959045 108.0
422.007812 132.0
422.090698 108.0
422.14624 204.0
422.193604 128.0
422.286102 240.0
422.327393 164.0
422.371765 48.0
422.41452 124.0
422.494476 48.0
422.558167 276.0
422.625397 216.0
422.679993 140.0
422.729858 76.0
422.813049 112.0
422.845245 212.0
422.880188 152.0
422.920044 72.0
423.027222 124.0
423.160736 140.0
423.198425 260.0
423.23056 132.0
423.314911 116.0
423.354004 72.0
423.411346 64.0
423.4646 60.0
423.503754 100.0
423.614349 172.0
423.730835 116.0
423.804596 48.0
423.957245 176.0
424.025879 40.0
424.075043 52.0
424.169312 180.0
424.214417 60.0
424.258514 160.0
424.29892 72.0
424.349701 48.0
424.419403 64.0
424.499634 64.0
424.556976 116.0
424.602081 88.0
424.671448 200.0
424.800812 64.0
425.099487 140.0
425.153992 96.0
425.211121 136.0
425.243958 40.0
425.330139 32.0
425.440979 80.0
425.551819 116.0
425.659851 116.0
425.76944 128.0
425.917297 100.0
426.036438 36.0
426.114502 128.0
426.180237 124.0
426.250092 180.0
426.291168 112.0
426.324036 84.0
426.461029 76.0
426.509003 128.0
426.640533 96.0
426.743317 96.0
426.920135 52.0
427.040436 140.0
427.076416 72.0
427.142212 124.0
427.195679 136.0
427.332367 168.0
427.374603 196.0
427.475464 160.0
427.691437 148.0
427.829437 60.0
427.858246 52.0
427.940582 124.0
427.969391 128.0
428.177551 176.0
428.201996 264.0
428.290955 144.0
428.467743 68.0
428.613739 92.0
428.739685 256.0
428.797394 100.0
428.838593 32.0
429.254974 132.0
429.352783 100.0
429.446075 164.0
429.605804 68.0
429.661011 72.0
429.721069 160.0
429.799469 68.0
429.921844 188.0
429.981018 204.0
430.020416 88.0
430.094238 80.0
430.127808 192.0
430.151093 136.0
430.183258 200.0
430.214661 100.0
430.381439 92.0
430.507111 120.0
430.753113 76.0
430.835754 120.0
430.875061 224.0
430.928009 128.0
431.043365 172.0
431.074097 156.0
431.13324 116.0
431.188843 212.0
431.259796 148.0
431.376068 160.0
431.391418 120.0
431.401886 120.0
431.443237 108.0
431.678894 184.0
431.910492 84.0
431.9935 124.0
432.166138 116.0
432.275482 5280.0
432.386719 184.0
432.417572 108.0
432.434601 60.0
432.451385 88.0
432.527039 104.0
432.761536 124.0
432.820953 120.0
432.871979 100.0
432.937531 108.0
433.003174 64.0
433.057007 148.0
433.131561 32.0
433.160553 220.0
433.280365 1336.0
433.406921 180.0
433.444946 136.0
433.632904 140.0
433.850525 104.0
433.894043 164.0
433.931366 104.0
434.013947 48.0
434.030334 96.0
434.047028 132.0
434.138672 252.0
434.170776 168.0
434.21701 196.0
434.27951 496.0
434.350189 52.0
434.528564 136.0
434.574219 172.0
434.702576 128.0
434.765076 164.0
434.802429 188.0
434.835632 164.0
434.868835 52.0
434.947693 52.0
435.009277 120.0
435.041687 156.0
435.076385 108.0
435.142822 100.0
435.176025 188.0
435.234161 88.0
435.266846 184.0
435.311066 100.0
435.361145 76.0
435.445953 112.0
435.485992 56.0
435.525024 136.0
435.58316 100.0
435.655792 200.0
435.803192 208.0
435.832275 116.0
435.894592 168.0
435.95517 188.0
436.037598 248.0
436.126617 216.0
436.19931 152.0
436.268616 22800.0
436.352753 260.0
436.430145 104.0
436.476532 128.0
436.513123 40.0
436.598175 168.0
436.630005 136.0
436.718018 168.0
436.792816 160.0
436.819244 128.0
436.863312 128.0
436.92157 240.0
436.986877 152.0
437.047241 152.0
437.089783 148.0
437.183685 124.0
437.273346 5812.0
437.388153 228.0
437.441742 56.0
437.487518 192.0
437.532166 204.0
437.616577 80.0
437.666534 72.0
437.720673 184.0
437.820618 164.0
437.900146 128.0
437.963318 136.0
438.002777 136.0
438.041107 64.0
438.055237 60.0
438.138153 176.0
438.1651 40.0
438.27594 1120.0
438.43454 132.0
438.48288 112.0
438.514526 100.0
438.562195 68.0
438.628906 148.0
438.687256 40.0
438.728943 180.0
438.796173 32.0
438.847565 176.0
438.983276 116.0
439.219543 104.0
439.297852 76.0
439.408722 60.0
439.472809 100.0
439.510895 228.0
439.583954 56.0
439.654907 52.0
439.716095 236.0
439.800964 144.0
439.871948 132.0
439.903809 120.0
439.942902 132.0
439.972565 68.0
440.109894 60.0
440.207611 100.0
440.251373 100.0
440.305389 88.0
440.34375 56.0
440.427277 52.0
440.486542 84.0
440.597229 204.0
440.652863 80.0
440.682098 104.0
440.731476 216.0
440.856323 156.0
440.920288 92.0
441.008057 136.0
441.166901 72.0
441.260529 160.0
441.334137 228.0
441.362091 64.0
441.421936 140.0
441.643585 60.0
441.718872 76.0
441.835815 180.0
442.003357 52.0
442.066132 44.0
442.202148 144.0
442.283752 96.0
442.325623 48.0
442.354919 140.0
442.467926 76.0
442.656342 116.0
442.73172 56.0
442.762634 168.0
442.832245 104.0
442.940765 136.0
443.024933 40.0
443.091949 120.0
443.121277 72.0
443.179932 116.0
443.221466 132.0
443.235931 120.0
443.248322 176.0
443.305634 92.0
443.402039 136.0
443.478455 68.0
443.527771 180.0
443.654236 140.0
443.708008 196.0
443.770905 100.0
443.808624 44.0
443.984741 44.0
444.045563 136.0
444.131561 76.0
444.169312 164.0
444.374847 196.0
444.408417 120.0
444.454559 160.0
444.488129 152.0
444.697968 128.0
444.753967 244.0
444.865875 140.0
445.012787 100.0
445.113586 108.0
445.162018 112.0
445.226959 56.0
445.398407 92.0
445.454437 148.0
445.541962 40.0
445.58017 136.0
445.739441 40.0
445.76886 168.0
445.86972 128.0
445.957977 148.0
446.046234 80.0
446.100891 96.0
446.128357 88.0
446.176544 92.0
446.243134 96.0
446.277466 160.0
446.369965 152.0
446.437256 92.0
446.5466 132.0
446.599396 144.0
446.681183 84.0
446.727448 76.0
446.908356 56.0
446.949677 112.0
446.996704 136.0
447.034576 180.0
447.07666 40.0
447.157013 128.0
447.291168 108.0
447.396545 104.0
447.641418 76.0
447.723145 152.0
447.781006 156.0
447.821838 180.0
447.91748 232.0
447.955688 124.0
448.002197 88.0
448.054718 84.0
448.137787 40.0
448.171478 40.0
448.361755 208.0
448.420105 120.0
448.483337 44.0
448.635071 160.0
448.70755 64.0
448.772552 172.0
448.851746 124.0
448.908661 144.0
448.922058 124.0
449.060944 168.0
449.098907 132.0
449.212799 120.0
449.261047 212.0
449.328094 168.0
449.484833 128.0
449.600525 296.0
449.655243 112.0
449.833099 180.0
449.88974 220.0
449.934418 88.0
449.966949 232.0
450.039978 88.0
450.127625 236.0
450.162323 148.0
450.214661 144.0
450.285919 30960.0
450.397369 196.0
450.445129 68.0
450.595245 68.0
450.631256 64.0
450.761597 52.0
450.793854 100.0
450.885712 184.0
450.94809 172.0
451.011597 52.0
451.088745 96.0
451.12854 144.0
451.166199 188.0
451.224304 188.0
451.287842 10908.0
451.425903 124.0
451.489349 120.0
451.547913 52.0
451.587738 120.0
451.617737 116.0
451.652771 128.0
451.725128 32.0
451.740692 56.0
451.773163 136.0
451.802338 176.0
451.853119 112.0
451.895416 148.0
451.932068 120.0
451.961823 92.0
451.991119 168.0
452.056213 148.0
452.105804 128.0
452.223572 92.0
452.289703 1512.0
452.384399 96.0
452.445587 96.0
452.500641 176.0
452.568359 72.0
452.646423 92.0
452.699646 60.0
452.773529 80.0
452.822449 32.0
452.887817 120.0
452.976868 140.0
453.068115 208.0
453.148621 128.0
453.18512 124.0
453.283173 592.0
453.373505 172.0
453.410065 132.0
453.421295 92.0
453.671356 92.0
453.758911 180.0
453.792847 172.0
453.920044 152.0
453.989441 152.0
454.038788 132.0
454.080658 96.0
454.199951 88.0
454.299896 64.0
454.344177 128.0
454.382355 140.0
454.471436 68.0
454.518127 308.0
454.68927 84.0
454.728973 140.0
454.756866 140.0
454.815186 136.0
454.917053 116.0
455.103851 140.0
455.172791 52.0
455.210022 104.0
455.284973 148.0
455.367157 80.0
455.406006 100.0
455.452087 56.0
455.494568 112.0
455.545532 164.0
455.583771 44.0
455.636719 156.0
455.756104 92.0
455.817444 84.0
455.919434 124.0
455.987427 180.0
456.153198 116.0
456.208466 140.0
456.333069 132.0
456.408264 104.0
456.531586 84.0
456.654938 120.0
456.705963 140.0
456.735748 92.0
456.816559 208.0
456.922913 52.0
457.046295 92.0
457.186707 156.0
457.250549 176.0
457.344177 60.0
457.399506 120.0
457.635376 136.0
457.663452 140.0
457.772675 148.0
457.897675 160.0
457.995636 44.0
458.25769 116.0
458.392181 200.0
458.826569 120.0
458.914551 236.0
459.127289 152.0
459.203766 88.0
459.355377 152.0
459.419342 108.0
459.645477 48.0
459.730835 104.0
459.764954 52.0
459.807648 136.0
459.854584 184.0
459.914337 108.0
459.968475 140.0
460.02533 116.0
460.078094 88.0
460.157654 52.0
460.23877 132.0
460.298553 124.0
460.383972 152.0
460.435211 52.0
460.493561 164.0
460.584686 72.0
460.713867 84.0
460.823914 72.0
460.905121 72.0
460.947845 60.0
460.994843 152.0
461.033295 64.0
461.127319 116.0
461.189941 148.0
461.262329 116.0
461.336761 308.0
461.439362 104.0
461.482117 60.0
461.760071 88.0
461.817291 64.0
461.870575 148.0
461.982483 176.0
462.21637 36.0
462.31723 264.0
462.376129 76.0
462.406097 56.0
462.461731 48.0
462.517365 52.0
462.58139 84.0
462.632965 48.0
462.776215 120.0
462.810333 84.0
462.876984 108.0
462.958344 92.0
463.026886 160.0
463.079773 204.0
463.125366 60.0
463.185333 76.0
463.215332 204.0
463.288147 96.0
463.322418 52.0
463.369537 92.0
463.428009 208.0
463.486115 172.0
463.532379 108.0
463.575226 108.0
463.65918 176.0
463.738739 176.0
463.78949 68.0
463.836639 120.0
463.870239 120.0
463.941925 196.0
463.999542 60.0
464.073303 140.0
464.109955 64.0
464.210785 132.0
464.256805 172.0
464.351166 48.0
464.425201 260.0
464.471802 96.0
464.541687 72.0
464.627686 156.0
464.687988 108.0
464.704193 40.0
464.745819 96.0
464.814484 104.0
464.843353 88.0
464.908875 40.0
464.963409 96.0
465.016174 104.0
465.080261 112.0
465.123077 44.0
465.24765 108.0
465.325867 188.0
465.385345 152.0
465.428284 140.0
465.475677 212.0
465.556396 232.0
465.615845 100.0
465.626953 136.0
465.670074 108.0
465.70697 156.0
465.758423 32.0
465.830139 372.0
465.890839 80.0
465.969452 232.0
466.018188 200.0
466.08429 84.0
466.121002 124.0
466.178741 96.0
466.216583 76.0
466.276886 124.0
466.304993 244.0
466.358917 176.0
466.403137 164.0
466.455048 184.0
466.518158 76.0
466.59317 152.0
466.620544 96.0
466.635986 184.0
466.716614 248.0
466.768066 280.0
466.80896 176.0
466.8396 492.0
466.894043 80.0
466.942627 140.0
466.985565 136.0
467.029266 88.0
467.103699 156.0
467.11203 132.0
467.160278 124.0
467.196259 112.0
467.228149 148.0
467.269531 300.0
467.319458 288.0
467.376404 228.0
467.452301 256.0
467.516937 328.0
467.548096 388.0
467.606934 256.0
467.65332 168.0
467.687775 168.0
467.698181 448.0
467.754639 220.0
467.77301 208.0
467.782959 148.0
467.856903 324.0
467.92514 208.0
467.977478 500.0
468.023285 716.0
468.059296 212.0
468.084259 376.0
468.150879 472.0
468.224609 1808.0
468.297363 271712.0
468.428864 152.0
468.523468 112.0
468.600311 132.0
468.623627 220.0
468.655396 252.0
468.703491 224.0
468.747803 336.0
468.789948 324.0
468.818085 376.0
468.908966 276.0
469.009552 3276.0
469.052856 364.0
469.083954 492.0
469.123413 232.0
469.154022 244.0
469.163269 372.0
469.177917 408.0
469.210876 408.0
469.30069 120480.0
469.470734 240.0
469.514832 232.0
469.587311 196.0
469.634399 116.0
469.674042 336.0
469.756866 320.0
469.828552 216.0
469.840729 152.0
469.908081 140.0
469.956085 196.0
470.025208 92.0
470.103638 236.0
470.140442 260.0
470.183136 176.0
470.237183 84.0
470.30188 17596.0
470.419708 52.0
470.480499 112.0
470.53186 44.0
470.604645 92.0
470.66684 64.0
470.708954 124.0
470.752014 68.0
470.767487 64.0
470.835876 164.0
470.90509 40.0
470.969238 92.0
471.024536 44.0
471.085938 192.0
471.099365 108.0
471.132355 160.0
471.209564 84.0
471.246338 132.0
471.301331 1872.0
471.38501 72.0
471.435608 228.0
471.517914 144.0
471.579956 100.0
471.625732 240.0
471.655609 188.0
471.700104 80.0
471.759735 264.0
471.809113 256.0
471.873047 180.0
471.966949 220.0
472.016968 236.0
472.028687 96.0
472.066406 252.0
472.127655 296.0
472.142975 268.0
472.202728 448.0
472.236145 196.0
472.25238 228.0
472.301819 232.0
472.338226 240.0
472.375977 388.0
472.432617 120.0
472.504242 108.0
472.546234 160.0
472.598846 124.0
472.636993 108.0
472.689941 212.0
472.751373 116.0
472.766205 180.0
472.857086 200.0
472.914337 116.0
472.986847 168.0
473.005341 208.0
473.097778 40.0
473.132843 112.0
473.19455 128.0
473.228699 324.0
473.299713 52.0
473.326996 176.0
473.376587 164.0
473.458954 168.0
473.49408 100.0
473.535675 124.0
473.594818 80.0
473.622375 172.0
473.697815 112.0
473.733154 32.0
473.76944 72.0
473.824738 100.0
473.87149 116.0
473.901062 172.0
473.92746 116.0
474.052704 116.0
474.157379 104.0
474.237427 76.0
474.297852 268.0
474.313965 260.0
474.361206 112.0
474.428162 36.0
474.458496 48.0
474.488831 48.0
474.575562 48.0
474.644928 72.0
474.709625 52.0
474.80014 80.0
474.871429 80.0
474.968414 108.0
475.000549 52.0
475.110962 80.0
475.182739 48.0
475.219269 96.0
475.265198 88.0
475.334442 188.0
475.434418 56.0
475.518311 72.0
475.651428 92.0
475.686157 40.0
475.753204 200.0
475.844147 112.0
475.920593 76.0
475.968353 28.0
476.033478 68.0
476.281036 116.0
476.388397 28.0
476.459137 48.0
476.624237 56.0
476.719421 84.0
476.771973 84.0
476.847168 80.0
476.971893 32.0
477.083862 100.0
477.222351 56.0
477.254486 32.0
477.319702 56.0
477.393616 64.0
477.515381 88.0
477.561218 60.0
477.769531 56.0
478.115753 44.0
478.224579 68.0
478.272461 44.0
478.324677 44.0
478.529022 64.0
478.703461 52.0
478.860229 48.0
479.278412 28.0
479.518097 64.0
479.56604 32.0
479.805786 32.0
480.049957 96.0
480.202606 52.0
480.315186 88.0
480.359619 104.0
480.486115 40.0
480.621368 80.0
480.708649 92.0
480.931213 88.0
481.031616 100.0
481.332855 68.0
481.424561 48.0
481.453705 92.0
481.686615 72.0
481.787079 68.0
482.057953 36.0
482.1716 56.0
482.206543 96.0
482.24588 56.0
482.315826 52.0
482.47757 80.0
482.639313 76.0
482.674316 76.0
483.07666 56.0
483.164154 52.0
483.365417 44.0
483.4617 96.0
483.592987 80.0
483.728668 80.0
483.965088 72.0
484.027618 112.0
484.13147 120.0
484.166504 88.0
484.274689 80.0
484.359222 80.0
484.613312 56.0
484.659058 60.0
485.007721 48.0
485.04538 128.0
485.187439 36.0
485.34964 28.0
485.383301 148.0
485.585815 112.0
485.645538 68.0
485.726807 48.0
485.946167 96.0
485.990021 104.0
486.13385 72.0
486.244537 112.0
486.297211 72.0
486.433289 68.0
486.477173 108.0
486.705475 40.0
486.744995 44.0
486.863556 148.0
486.968079 60.0
487.063446 124.0
487.315979 48.0
487.410126 56.0
487.452179 76.0
487.5242 72.0
487.584015 84.0
487.759827 52.0
487.816986 48.0
487.87851 104.0
487.967987 68.0
488.001617 148.0
488.085144 40.0
488.217072 68.0
488.362213 52.0
488.744934 180.0
488.837341 56.0
489.112213 88.0
489.145416 60.0
489.246674 132.0
489.374329 88.0
489.75885 76.0
489.920441 52.0
489.955688 76.0
490.173676 44.0
490.250885 52.0
490.475677 68.0
490.618805 104.0
490.772003 72.0
490.918427 96.0
491.000336 48.0
491.062073 84.0
491.119415 104.0
491.189972 80.0
491.419373 128.0
491.820953 56.0
491.93573 40.0
492.275696 64.0
492.721802 44.0
492.779236 88.0
492.929443 76.0
493.013428 128.0
493.088531 112.0
493.234406 164.0
493.676514 36.0
493.963989 84.0
494.030334 76.0
494.216156 100.0
494.306854 88.0
494.56134 48.0
495.544434 48.0
495.579865 68.0
495.903809 80.0
496.249115 80.0
496.488556 80.0
497.167297 56.0
498.952881 84.0
500.202911 84.0
500.274139 116.0
501.022278 36.0
501.552551 140.0
502.671967 56.0
502.819214 104.0
502.877228 120.0
503.087036 84.0
504.67749 84.0
505.263397 104.0
505.581085 44.0
505.661621 56.0
505.867523 92.0
506.109283 60.0
506.915558 40.0
507.166534 76.0
507.417542 40.0
507.996063 60.0
508.31012 88.0
508.462677 32.0
509.104645 144.0
509.230408 40.0
510.070618 64.0
510.646149 92.0
510.902527 76.0
511.023987 108.0
515.031555 84.0
515.957947 128.0
516.039307 32.0
517.437317 48.0
517.491638 96.0
518.030579 48.0
518.139282 72.0
518.266113 64.0
518.35675 112.0
518.728394 56.0
518.977722 140.0
519.281555 80.0
520.647583 52.0
521.433533 52.0
521.61084 72.0
522.229187 104.0
522.838806 104.0
522.907104 112.0
523.248474 76.0
523.394165 60.0
524.045532 40.0
524.501221 44.0
525.235901 100.0
525.367615 80.0
525.559265 100.0
526.330627 52.0
527.509338 56.0
528.026001 36.0
529.270691 88.0
531.273499 44.0
531.672668 96.0
532.223511 44.0
532.365906 68.0
533.413391 40.0
534.080139 80.0
534.830139 44.0
536.115051 92.0
536.797302 68.0
537.064819 80.0
538.172363 40.0
539.008362 48.0
539.609192 108.0
539.780273 68.0
540.219666 96.0
541.057251 56.0
541.205444 112.0
541.390625 36.0
542.136475 136.0
542.859619 64.0
543.578674 108.0
543.727173 44.0
543.768921 76.0
543.987061 40.0
544.242432 68.0
544.957703 120.0
545.203979 104.0
545.771057 80.0
545.803589 112.0
545.975647 48.0
546.2547 136.0
546.30127 36.0
547.371704 48.0
548.022888 80.0
548.410583 32.0
548.77887 60.0
549.753723 164.0
550.183105 136.0
550.220459 104.0
551.304077 80.0
551.346191 72.0
551.991272 48.0
552.080139 128.0
552.608704 76.0
553.128113 72.0
553.821106 92.0
555.536682 136.0
556.775818 92.0
556.968384 96.0
557.142212 56.0
557.847107 88.0
557.967102 116.0
558.152649 120.0
558.223206 80.0
558.793579 68.0
559.248779 44.0
560.859619 44.0
561.010498 112.0
561.085876 52.0
561.302795 52.0
561.401794 80.0
561.669739 108.0
563.351074 160.0
563.577881 144.0
564.490112 40.0
564.646179 104.0
565.767578 60.0
565.805481 44.0
566.070618 100.0
566.501587 116.0
566.67688 84.0
566.762207 104.0
566.94696 84.0
567.146057 112.0
567.269287 64.0
567.558472 116.0
567.857239 128.0
567.942627 120.0
569.527893 92.0
569.83667 64.0
570.178833 72.0
570.530518 56.0
570.720703 100.0
570.901428 160.0
572.195618 116.0
572.967163 144.0
573.148193 36.0
573.892761 112.0
574.560486 124.0
574.602356 96.0
574.941162 120.0
575.42804 52.0
575.475769 64.0
575.547363 44.0
575.962891 140.0
577.109802 68.0
577.635864 64.0
578.095154 72.0
578.803589 92.0
578.947266 124.0
582.1026 84.0
582.674194 72.0
583.154663 40.0
583.385437 52.0
584.770691 68.0
585.232849 96.0
586.200989 68.0
586.388916 136.0
586.962585 116.0
587.6427 76.0
588.743225 80.0
588.820496 108.0
589.641785 92.0
592.394897 72.0
593.673828 88.0
594.620483 48.0
594.78064 108.0
595.513794 80.0
596.908508 80.0
597.049561 64.0
599.537231 52.0
601.224548 40.0
601.820068 60.0
603.515503 72.0
604.821655 60.0
605.095825 72.0
605.428772 88.0
605.717712 68.0
606.442871 64.0
606.854675 72.0
607.521667 48.0
608.694641 72.0
608.748657 120.0
609.338074 52.0
609.411804 40.0
610.355469 48.0
611.117859 60.0
612.314026 120.0
612.520874 68.0
612.609558 104.0
613.284607 196.0
613.536011 108.0
614.196777 124.0
614.675354 100.0
615.149109 80.0
615.474976 124.0
615.568787 28.0
615.657654 72.0
617.174683 76.0
618.896545 104.0
620.070557 120.0
620.278748 52.0
620.615845 84.0
620.943115 72.0
621.265564 32.0
621.404419 120.0
622.009888 100.0
623.142151 92.0
624.827515 40.0
626.300964 96.0
626.345825 52.0
626.953613 96.0
627.651489 68.0
628.304871 44.0
628.699036 80.0
629.14325 64.0
629.238098 76.0
629.592651 40.0
630.971741 32.0
631.426758 48.0
633.72937 64.0
634.832153 104.0
635.479187 44.0
635.644775 56.0
636.774292 40.0
637.547974 128.0
637.929932 56.0
638.322083 68.0
639.252686 124.0
640.823669 80.0
641.821655 40.0
642.61853 116.0
642.850647 72.0
642.901123 124.0
643.2948 112.0
643.925964 72.0
644.375549 64.0
644.45636 92.0
644.547302 92.0
644.840393 48.0
645.057739 64.0
645.133545 44.0
645.189209 92.0
645.618958 68.0
645.710022 96.0
645.998291 108.0
646.995239 48.0
647.932129 144.0
647.99292 104.0
648.185425 80.0
648.377991 92.0
648.661865 88.0
650.990601 76.0
651.823669 80.0
652.021851 44.0
652.072693 76.0
652.164185 76.0
652.550476 88.0
652.799622 92.0
653.918823 84.0
654.601013 80.0
656.60376 60.0
656.914917 132.0
657.297546 80.0
657.685364 96.0
657.935486 80.0
658.037598 80.0
658.650391 72.0
659.064209 100.0
659.340149 40.0
659.46283 152.0
660.27063 88.0
660.403564 76.0
660.582581 108.0
660.997009 76.0
661.73407 84.0
662.087402 116.0
662.353699 100.0
662.855774 96.0
664.234863 28.0
667.17218 56.0
668.360229 88.0
668.535217 96.0
669.13739 100.0
669.858398 72.0
670.301453 120.0
670.60553 172.0
670.796204 96.0
671.14679 112.0
671.270508 128.0
672.493225 40.0
672.720337 100.0
673.123047 68.0
673.267639 84.0
673.908142 80.0
674.419739 104.0
674.993591 60.0
675.660767 96.0
677.793884 56.0
677.970093 64.0
678.306946 48.0
678.643921 52.0
678.742432 80.0
679.696838 108.0
680.283325 80.0
681.02063 60.0
682.01825 76.0
682.096191 72.0
682.200195 100.0
682.959351 52.0
683.332336 96.0
684.484192 108.0
684.941833 96.0
685.927307 100.0
686.302673 116.0
686.422546 116.0
686.803284 116.0
689.39801 92.0
689.868408 92.0
690.244873 76.0
690.783508 100.0
691.52655 112.0
691.65741 72.0
691.913879 52.0
692.280396 36.0
692.736084 56.0
693.663574 80.0
693.805115 100.0
693.978088 96.0
694.843506 84.0
695.042847 44.0
695.60968 60.0
696.013916 32.0
696.313232 56.0
697.159058 56.0
697.337708 92.0
697.526978 92.0
697.868652 96.0
697.994873 40.0
700.5 76.0
700.647522 44.0
701.991516 92.0
703.357971 128.0
703.410767 60.0
704.366516 56.0
705.751099 148.0
705.925598 88.0
707.232361 76.0
707.48645 100.0
707.75116 92.0
709.117859 44.0
709.276855 72.0
710.77771 88.0
711.15448 80.0
711.202271 140.0
711.812805 60.0
713.103699 80.0
713.879883 200.0
714.32666 52.0
715.162048 52.0
715.476074 128.0
715.699707 124.0
715.859436 76.0
716.935486 108.0
718.135071 60.0
720.889771 100.0
721.734375 104.0
721.942871 140.0
723.435669 40.0
723.596252 72.0
724.388855 96.0
725.267578 88.0
725.637512 44.0
725.943115 100.0
727.643982 172.0
727.778259 80.0
728.454895 60.0
729.024414 60.0
729.712463 68.0
730.01355 116.0
730.395386 64.0
731.643799 104.0
731.880737 52.0
732.09613 80.0
732.742432 92.0
733.265137 72.0
733.669434 72.0
734.338013 36.0
735.206604 72.0
735.746399 28.0
736.345703 92.0
737.096619 72.0
737.177673 60.0
741.92981 44.0
742.265991 68.0
742.59137 52.0
743.464844 52.0
743.643921 56.0
744.702637 80.0
744.957947 120.0
745.131775 88.0
745.256714 44.0
746.702698 80.0
749.037659 48.0
749.89856 108.0
750.263794 120.0
750.841736 108.0
751.496338 92.0
752.921021 52.0
753.99176 100.0
754.456421 60.0
754.724304 40.0
755.052368 48.0
755.790894 28.0
756.119202 80.0
757.822205 68.0
759.05542 112.0
759.51062 32.0
759.882751 72.0
761.146057 40.0
761.244873 44.0
761.335876 84.0
761.739197 72.0
761.986389 44.0
762.513916 60.0
763.272522 116.0
763.536499 88.0
764.647766 56.0
765.225769 84.0
765.501099 80.0
766.531189 164.0
766.784668 80.0
767.10437 116.0
768.361694 40.0
769.597961 100.0
770.492676 100.0
770.75238 60.0
771.758301 112.0
772.720703 92.0
772.798157 72.0
773.052673 96.0
774.137634 112.0
774.569641 56.0
775.184631 36.0
775.871887 104.0
777.769043 76.0
778.374146 52.0
780.94165 68.0
781.225342 48.0
781.41449 56.0
783.05658 92.0
783.284912 64.0
783.396362 100.0
784.455139 72.0
785.681946 72.0
787.825623 76.0
787.915039 80.0
790.363892 52.0
790.660461 212.0
790.747498 112.0
791.836121 60.0
793.051941 64.0
793.169617 64.0
793.270508 64.0
794.263062 56.0
794.302307 44.0
794.375244 144.0
794.560364 48.0
796.317322 84.0
796.407166 204.0
797.233032 60.0
798.256104 132.0
799.31366 76.0
799.983398 60.0
800.242371 96.0
801.571594 112.0
801.881592 28.0
802.698975 68.0
803.195251 108.0
803.341919 48.0
805.616882 88.0
805.831604 52.0
806.594482 76.0
806.639709 48.0
807.182434 92.0
808.551453 56.0
809.457153 128.0
809.598755 116.0
810.794067 56.0
811.020813 156.0
812.55188 56.0
812.699402 188.0
813.283875 44.0
814.220703 128.0
815.879822 116.0
816.402954 148.0
817.68866 88.0
818.070007 96.0
818.155396 68.0
818.519775 148.0
818.810181 72.0
819.049438 108.0
819.63623 80.0
819.824219 76.0
820.519653 92.0
820.992859 80.0
821.375 48.0
823.64679 84.0
824.000977 88.0
824.371826 132.0
824.715271 36.0
826.345032 236.0
827.63855 196.0
827.684326 52.0
828.732544 104.0
828.795532 104.0
828.984619 132.0
831.048889 172.0
831.381653 44.0
832.018799 36.0
832.219727 56.0
832.501099 48.0
833.920105 180.0
834.345459 208.0
834.50647 208.0
835.15625 64.0
835.346069 76.0
836.214905 204.0
836.318542 96.0
837.608276 148.0
838.041138 132.0
838.138306 64.0
838.334229 136.0
842.424927 144.0
842.858215 48.0
843.072021 64.0
843.239624 104.0
843.332092 164.0
843.794556 48.0
844.517334 84.0
844.92804 132.0
846.577637 52.0
847.521851 72.0
847.695679 68.0
847.92749 60.0
848.605713 128.0
848.884033 84.0
850.189209 108.0
850.241455 44.0
850.328491 92.0
850.736633 144.0
850.916809 68.0
851.663879 36.0
851.849792 92.0
851.902039 40.0
851.948547 80.0
852.57019 60.0
853.215393 76.0
854.256348 44.0
855.053467 72.0
856.078064 168.0
856.509033 76.0
857.103271 44.0
857.680237 240.0
858.350647 176.0
858.910522 44.0
859.406372 100.0
860.597046 64.0
861.981384 76.0
862.747009 36.0
862.787964 72.0
862.992554 88.0
863.893188 60.0
864.250061 148.0
865.567078 108.0
865.906738 72.0
866.445618 60.0
868.518677 68.0
869.482971 84.0
869.535767 80.0
870.545532 60.0
870.821533 76.0
871.0271 92.0
872.361023 120.0
872.478577 64.0
872.731384 80.0
873.095947 28.0
873.381958 176.0
874.672729 204.0
875.261475 44.0
876.480713 80.0
876.698792 124.0
876.975769 112.0
877.217407 160.0
877.276367 40.0
877.913147 100.0
878.066467 84.0
878.278809 96.0
879.187378 44.0
879.458862 112.0
880.480286 120.0
880.64563 56.0
881.797729 76.0
884.690125 48.0
885.142456 120.0
885.18158 184.0
885.85083 168.0
887.439087 36.0
887.848206 136.0
888.328613 88.0
888.387939 100.0
889.598511 132.0
890.132874 192.0
890.364502 76.0
891.546692 164.0
891.784424 96.0
893.032959 28.0
893.544556 88.0
895.425537 56.0
896.843506 52.0
896.921021 156.0
897.111755 36.0
897.159485 168.0
898.161255 200.0
898.745911 96.0
899.300842 188.0
900.835449 68.0
901.223755 84.0
901.77948 92.0
901.827332 60.0
903.160645 80.0
903.818726 172.0
905.009827 184.0
907.550232 188.0
909.722046 48.0
912.840271 56.0
913.778564 56.0
915.813232 116.0
916.048096 80.0
916.102356 132.0
917.03894 216.0
917.542664 56.0
917.904419 40.0
919.762573 76.0
920.529297 68.0
920.722534 208.0
920.801025 112.0
922.459961 72.0
924.773193 48.0
925.057678 84.0
925.744568 180.0
926.020447 136.0
926.226379 144.0
926.3172 180.0
927.832214 96.0
927.911011 164.0
928.135376 52.0
928.559875 108.0
929.518311 192.0
929.779297 120.0
930.295166 84.0
930.878052 148.0
930.920532 72.0
931.21814 60.0
932.639893 100.0
934.318176 224.0
935.46228 64.0
937.33197 164.0
938.514465 172.0
938.886475 44.0
939.166992 144.0
939.411011 140.0
940.09906 176.0
940.954956 48.0
941.486206 104.0
941.809875 68.0
942.530762 160.0
942.62854 60.0
942.885193 52.0
944.309692 152.0
945.068237 88.0
945.594482 68.0
946.537231 68.0
948.767395 164.0
949.944824 120.0
950.184021 164.0
952.25885 180.0
954.661743 88.0
956.02124 216.0
956.327148 180.0
956.550537 148.0
957.006104 156.0
957.129272 88.0
957.209351 76.0
957.43103 60.0
957.64978 168.0
958.053101 256.0
959.149963 104.0
959.526001 148.0
959.735596 60.0
960.272095 40.0
960.574341 76.0
960.703918 132.0
960.74707 144.0
960.907471 108.0
961.055542 56.0
961.487488 144.0
961.722046 108.0
961.987427 52.0
962.357849 188.0
962.678955 68.0
963.704346 116.0
964.34082 176.0
966.257751 184.0
968.641052 44.0
968.981812 52.0
969.310181 156.0
969.998108 100.0
970.190308 68.0
970.320496 156.0
970.636658 64.0
970.797913 196.0
971.790344 184.0
971.92157 164.0
972.367432 48.0
973.453857 60.0
975.622253 60.0
975.80249 180.0
976.903259 88.0
978.645813 100.0
979.091064 144.0
980.215454 180.0
980.489685 156.0
981.01947 184.0
981.773926 148.0
982.297791 148.0
983.514587 164.0
984.063904 212.0
985.163086 188.0
985.29425 172.0
986.262817 196.0
986.619141 124.0
988.7771 88.0
989.665955 36.0
989.985352 140.0
991.580017 184.0
992.286194 96.0
992.886841 120.0
993.024841 48.0
993.451355 116.0
993.746216 148.0
994.40509 188.0
994.480408 104.0
994.844482 196.0
995.13324 76.0
995.949646 216.0
996.313965 64.0
997.0177 116.0
997.155945 72.0
997.375916 112.0
998.193237 96.0
1000.200134 108.0
1001.138245 80.0
1001.26416 40.0
1002.889648 204.0
1003.595703 112.0
1005.841553 84.0
1007.677795 120.0
1008.108887 168.0
1009.303589 68.0
1009.588135 52.0
1009.954956 184.0
1010.176392 60.0
1010.423096 56.0
1011.245728 184.0
1012.480225 164.0
1012.619568 160.0
1013.265686 200.0
1014.222534 140.0
1014.457092 196.0
1015.294006 60.0
1015.515991 116.0
1015.680908 60.0
1016.390869 208.0
1016.905457 100.0
1017.451355 156.0
1017.889465 128.0
1018.677002 76.0
1018.829468 160.0
1019.007324 184.0
1020.214844 48.0
1021.295837 92.0
1021.601135 84.0
1021.887451 164.0
1022.148315 60.0
1023.173035 36.0
1023.255798 56.0
1023.465881 60.0
1024.127197 100.0
1024.561279 68.0
1024.726929 116.0
1025.000977 84.0
1025.185791 92.0
1025.574463 104.0
1025.969727 172.0
1026.887939 100.0
1028.514893 72.0
1028.693604 192.0
1028.96814 188.0
1029.662598 84.0
1030.111328 116.0
1030.366821 152.0
1030.456299 64.0
1031.11438 88.0
1031.44043 56.0
1031.581055 156.0
1031.702515 68.0
1031.84314 56.0
1032.213989 148.0
1032.380249 64.0
1033.368652 152.0
1034.587646 172.0
1034.914185 136.0
1034.999756 128.0
1036.130981 92.0
1036.842285 164.0
1037.149902 168.0
1037.496094 40.0
1038.015381 120.0
1038.246216 136.0
1038.573364 72.0
1038.688721 180.0
1038.977417 144.0
1039.548462 116.0
1040.594727 172.0
1040.883667 56.0
1041.044189 140.0
1041.814941 84.0
1041.872681 180.0
1042.579468 200.0
1042.945801 84.0
1043.331543 68.0
1043.562988 120.0
1044.270386 100.0
1045.441284 152.0
1045.756592 172.0
1046.065552 40.0
1046.14917 44.0
1046.23291 64.0
1047.102173 216.0
1049.428467 196.0
1049.512207 156.0
1050.408691 172.0
1050.62793 120.0
1050.721069 116.0
1050.840942 44.0
1051.092529 60.0
1051.292603 52.0
1051.524902 48.0
1051.576538 208.0
1051.634644 60.0
1051.712036 128.0
1051.789551 60.0
1051.866943 32.0
1051.918579 180.0
1052.002563 120.0
1055.012817 180.0
1055.452515 132.0
1055.808228 108.0
1056.228516 72.0
1057.153687 96.0
1057.580933 220.0
1057.813965 100.0
1058.25415 140.0
1058.310791 204.0
1059.134888 128.0
1059.374512 152.0
1059.497559 136.0
1059.944702 36.0
1060.450073 56.0
1060.566772 180.0
1060.9104 136.0
1061.150269 36.0
1061.551514 136.0
1061.688721 152.0
1061.805176 128.0
1062.925537 140.0
1063.875 64.0
1064.095703 136.0
1064.894409 144.0
1064.939941 44.0
1066.005371 188.0
1066.102783 124.0
1066.895752 180.0
1067.337891 176.0
1067.780029 176.0
1068.248413 168.0
1068.619141 168.0
1069.478149 80.0
1070.643555 40.0
1071.627563 188.0
1072.141968 28.0
1072.285278 144.0
1072.806763 120.0
1072.913574 160.0
1073.321777 128.0
1074.469727 124.0
1074.580566 36.0
1075.122192 52.0
1075.29187 200.0
1075.533325 104.0
1075.709595 60.0
1075.807495 148.0
1076.029541 148.0
1076.088257 40.0
1076.434326 160.0
1077.407471 180.0
1078.871338 80.0
1078.936646 116.0
1078.982422 164.0
1079.028198 124.0
1080.866089 172.0
1081.245728 120.0
1081.559814 100.0
1081.749634 64.0
1081.887085 136.0
1083.039551 120.0
1083.681641 184.0
1084.343384 268.0
1084.553101 108.0
1084.769409 100.0
1085.280762 132.0
1085.503784 132.0
1085.556274 152.0
1085.654541 44.0
1085.955811 172.0
1086.835327 204.0
1089.133057 164.0
1089.284058 116.0
1089.330078 64.0
1089.934448 60.0
1090.223633 108.0
1090.30249 144.0
1090.821655 160.0
1091.525146 176.0
1091.84314 164.0
1092.005249 140.0
1092.156494 68.0
1092.452515 72.0
1092.844482 180.0
1092.906494 92.0
1093.775146 64.0
1094.440063 188.0
1095.447754 92.0
1096.205322 108.0
1096.41626 272.0
1096.941528 168.0
1097.391846 40.0
1097.490723 144.0
1097.563232 156.0
1097.662109 116.0
1098.888916 156.0
1099.014282 84.0
1099.304688 96.0
1099.35083 48.0
1099.522461 100.0
1099.62146 88.0
1099.674194 136.0
1099.740234 84.0
1100.552246 124.0
1100.664429 172.0
1101.417358 160.0
1102.276123 96.0
1102.725586 144.0
1103.201416 100.0
1103.414429 132.0
1104.484253 56.0
1104.815063 112.0
1105.264893 92.0
1105.873779 128.0
1106.039185 184.0
1106.396729 80.0
1106.469482 100.0
1106.727661 72.0
1106.952881 76.0
1107.780762 140.0
1108.191528 116.0
1108.376953 116.0
1109.223022 188.0
1110.451904 40.0
1110.670776 192.0
1110.743774 160.0
1112.037598 148.0
1112.927124 164.0
1113.099731 88.0
1113.969849 88.0
1114.315308 136.0
1114.381714 116.0
1114.654175 100.0
1114.76709 164.0
1114.966431 136.0
1116.302612 88.0
1116.7948 108.0
1116.947754 96.0
1117.286255 144.0
1117.386841 80.0
1117.566406 144.0
1118.065552 200.0
1118.165405 180.0
1118.604614 144.0
1118.857544 208.0
1119.323608 208.0
1119.889771 112.0
1120.082886 132.0
1121.182251 112.0
1121.842041 44.0
1121.935425 152.0
1122.195435 232.0
1122.722168 264.0
1123.362427 40.0
1123.942871 140.0
1124.00293 100.0
1124.116455 212.0
1124.283203 100.0
1124.443359 48.0
1124.950684 52.0
1125.204346 120.0
1125.271118 164.0
1126.399658 160.0
1126.633545 108.0
1127.656982 92.0
1128.063599 100.0
1129.407593 172.0
1130.116699 148.0
1130.437866 144.0
1130.644165 112.0
1130.812622 156.0
1131.535522 104.0
1131.73645 36.0
1132.419434 108.0
1132.870361 228.0
1133.3573 72.0
1133.538208 144.0
1133.880005 192.0
1133.960449 80.0
1134.074341 152.0
1134.370972 160.0
1135.126953 72.0
1135.535156 120.0
1136.54895 80.0
1136.853149 164.0
1137.018677 120.0
1137.240112 80.0
1137.434814 160.0
1137.663086 124.0
1137.897949 184.0
1138.180054 136.0
1138.858276 176.0
1139.563599 144.0
1140.047363 156.0
1140.181763 172.0
1141.136353 128.0
1141.546509 100.0
1142.12561 116.0
1142.596436 112.0
1142.703369 140.0
1142.844727 212.0
1142.952271 120.0
1143.167603 140.0
1143.255127 56.0
1143.517578 204.0
1143.739746 140.0
1144.264771 156.0
1144.588013 132.0
1145.423096 124.0
1145.74646 36.0
1145.908081 208.0
1146.332642 156.0
1147.559326 148.0
1147.930176 52.0
1148.415771 104.0
1148.753052 68.0
1148.840698 120.0
1149.128784 208.0
1149.184814 200.0
1149.23877 72.0
1149.339966 104.0
1149.576172 144.0
1149.738159 52.0
1149.927124 168.0
1150.386108 124.0
1151.432617 32.0
1151.500122 144.0
1151.932495 56.0
1152.324219 152.0
1152.452637 112.0
1152.743164 160.0
1152.891846 120.0
1153.26355 220.0
1153.892212 36.0
1154.067993 224.0
1154.237061 68.0
1154.588745 136.0
1154.89978 68.0
1155.290527 252.0
1155.589844 68.0
1155.769653 132.0
1155.907837 164.0
1156.029663 60.0
1156.719971 44.0
1157.248047 164.0
1157.369873 156.0
1157.545898 160.0
1157.620361 128.0
1157.830322 136.0
1157.931885 132.0
1158.033569 148.0
1158.087646 108.0
1158.189331 104.0
1158.399292 136.0
1158.541504 80.0
1158.620361 132.0
1159.320679 112.0
1159.537598 148.0
1159.612183 144.0
1159.978149 200.0
1160.999878 156.0
1161.127197 100.0
1161.381714 216.0
1161.948364 140.0
1162.433228 160.0
1162.806519 124.0
1163.023682 76.0
1163.13916 116.0
1163.186646 140.0
1163.770508 172.0
1164.456299 160.0
1164.612549 136.0
1165.855835 192.0
1166.059692 172.0
1166.338379 196.0
1166.385986 100.0
1167.052124 180.0
1167.161011 156.0
1167.578857 164.0
1167.650513 224.0
1167.725342 140.0
1168.255981 184.0
1168.432861 196.0
1168.494019 128.0
1169.290161 92.0
1169.766602 156.0
1169.855103 168.0
1170.040039 128.0
1170.447388 200.0
1170.658569 192.0
1171.823242 116.0
1172.116211 220.0
1172.327515 80.0
1172.927246 104.0
1173.390747 80.0
1173.663574 112.0
1173.85022 124.0
1174.099976 92.0
1174.229492 136.0
1175.395996 176.0
1175.498413 168.0
1175.750854 108.0
1176.037476 164.0
1176.092163 184.0
1176.201294 124.0
1176.542725 152.0
1177.65564 168.0
1177.926147 172.0
1178.079224 148.0
1178.21582 160.0
1178.502808 236.0
1178.666748 340.0
1178.803467 112.0
1179.001587 176.0
1179.090454 224.0
1179.350098 180.0
1179.862793 152.0
1179.931152 36.0
1180.567139 140.0
1180.642334 144.0
1181.107422 72.0
1181.257812 160.0
1181.449463 148.0
1181.996704 124.0
1182.640015 188.0
1183.523193 96.0
1183.906616 160.0
1184.16687 156.0
1184.37915 76.0
1184.509277 188.0
1185.166992 212.0
1185.332764 184.0
1185.523315 96.0
1185.951294 220.0
1187.086304 152.0
1187.776123 124.0
1187.950439 116.0
1188.787476 88.0
1188.888306 156.0
1189.315918 136.0
1189.988647 60.0
1190.043579 188.0
1190.634155 184.0
1190.915771 224.0
1191.396606 152.0
1191.712646 184.0
1191.797974 132.0
1192.043091 216.0
1192.104248 100.0
1192.509766 132.0
1193.16272 104.0
1193.348389 100.0
1193.492798 144.0
1193.664673 144.0
1193.788452 176.0
1194.373047 132.0
1195.742188 160.0
1196.354858 192.0
1196.524658 208.0
1196.75415 120.0
1197.029541 116.0
1197.132812 164.0
1197.911133 168.0
1198.124634 56.0
1198.255493 160.0
1198.496704 92.0
1199.006592 32.0
1199.83374 172.0
1200.013062 192.0
1200.337036 124.0
1200.792236 188.0
1201.116333 108.0
1201.726929 148.0
1201.882202 132.0
1202.075317 136.0
1202.579102 88.0
1202.917358 52.0
1203.883911 124.0
1204.291382 128.0
1204.471069 164.0
1205.044434 144.0
1205.403687 40.0
1205.631714 108.0
1206.046387 148.0
1206.449463 144.0
1207.035034 64.0
1207.636719 236.0
1207.78186 124.0
1208.681274 136.0
1209.234863 128.0
1209.435547 168.0
1209.555786 292.0
1209.740112 136.0
1210.615234 168.0
1210.792603 220.0
1210.979614 152.0
1211.894043 72.0
1212.191895 164.0
1213.065186 100.0
1213.224609 28.0
1213.675293 172.0
1213.989624 344.0
1214.049805 104.0
1214.264771 72.0
1214.382324 108.0
1214.472778 216.0
1214.590698 184.0
1214.743286 156.0
1214.868164 64.0
1215.381592 140.0
1215.47876 80.0
1215.582764 148.0
1215.950562 112.0
1216.02002 48.0
1216.758545 212.0
1216.866943 148.0
1216.957153 132.0
1217.082153 88.0
1217.387695 144.0
1217.686279 128.0
1218.040527 104.0
1218.524658 184.0
1218.655151 128.0
1219.262207 188.0
1219.41626 168.0
1219.958374 104.0
1220.00708 172.0
1220.577148 140.0
1220.897095 116.0
1221.926514 176.0
1222.128296 40.0
1222.302246 116.0
1222.872803 172.0
1223.109497 196.0
1223.917114 120.0
1224.407593 136.0
1224.529907 124.0
1224.697021 168.0
1224.841919 140.0
1225.421509 148.0
1226.187988 140.0
1226.236816 132.0
1226.689819 52.0
1226.96228 208.0
1227.533447 84.0
1227.603149 200.0
1227.666016 132.0
1227.784546 52.0
1227.96582 136.0
1228.021606 168.0
1228.279663 100.0
1228.447144 76.0
1228.508789 204.0
1228.754028 68.0
1228.891235 164.0
1229.193604 140.0
1229.305298 80.0
1229.389038 84.0
1229.486694 88.0
1230.059082 32.0
1230.682251 172.0
1231.609131 108.0
1232.063232 132.0
1232.133057 176.0
1232.349609 52.0
1232.692017 200.0
1233.160278 100.0
1233.593628 180.0
1233.999146 200.0
1234.11792 84.0
1234.217163 152.0
1234.537476 148.0
1234.61438 72.0
1234.789307 188.0
1234.892822 148.0
1234.931274 172.0
1235.376831 180.0
1235.63562 72.0
1235.894531 104.0
1236.020508 60.0
1236.132446 64.0
1236.328369 92.0
1236.685303 132.0
1237.238281 208.0
1237.336304 32.0
1238.027832 168.0
1238.771973 104.0
1239.087158 192.0
1239.199219 232.0
1239.591675 160.0
1239.956055 108.0
1240.446655 180.0
1240.509766 276.0
1241.273926 148.0
1242.347046 148.0
1242.557495 136.0
1242.901245 56.0
1243.266235 84.0
1243.329346 120.0
1243.645142 100.0
1244.297974 136.0
1244.368164 212.0
1244.515625 156.0
1245.10791 160.0
1245.358398 72.0
1245.821899 136.0
1245.97644 104.0
1246.222412 152.0
1246.819702 176.0
1246.946167 176.0
1247.037598 140.0
1247.417114 120.0
1247.789673 156.0
1247.943848 152.0
1248.153931 196.0
1248.520996 160.0
1248.712769 192.0
1249.210205 144.0
1249.794189 140.0
1249.88562 96.0
1250.244507 208.0
1250.483765 120.0
1250.87793 212.0
1251.370728 184.0
1252.286255 208.0
1252.624268 120.0
1252.71582 176.0
1252.779297 144.0
1252.874512 160.0
1253.300659 88.0
1253.483765 236.0
1253.6521 164.0
1253.689087 164.0
1253.758667 132.0
1253.8573 104.0
1254.244995 44.0
1255.591553 156.0
1256.224365 192.0
1256.355957 132.0
1256.452148 64.0
1256.579102 112.0
1257.447021 124.0
1257.870605 152.0
1257.934082 208.0
1258.724854 200.0
1259.78418 120.0
1259.904297 172.0
1260.834839 244.0
1260.985474 108.0
1261.8125 148.0
1262.342773 124.0
1263.446167 148.0
1263.566406 88.0
1263.927246 236.0
1264.005005 32.0
1264.351807 144.0
1264.540894 128.0
1264.84021 184.0
1265.314453 140.0
1265.760498 148.0
1266.135864 44.0
1266.249146 112.0
1266.322388 112.0
1266.582031 48.0
1266.814453 152.0
1267.198364 116.0
1267.340088 120.0
1267.392822 172.0
1267.495972 96.0
1267.87854 168.0
1268.22583 100.0
1269.154541 48.0
1269.39563 148.0
1269.473633 168.0
1269.594238 100.0
1269.806885 60.0
1270.36731 160.0
1270.466553 84.0
1271.23291 128.0
1271.722534 52.0
1271.828979 124.0
1272.943604 132.0
1273.298706 44.0
1273.6521 128.0
1273.774536 116.0
1273.902466 216.0
1274.108398 56.0
1274.307373 168.0
1274.54187 172.0
1274.918457 76.0
1275.017944 168.0
1275.426636 160.0
1275.556519 208.0
1275.678955 116.0
1275.814087 128.0
1276.36145 68.0
1277.131226 172.0
1277.848022 120.0
1278.104126 84.0
1278.25354 204.0
1278.445679 116.0
1278.55249 68.0
1278.751709 84.0
1278.808716 116.0
1279.204102 188.0
1279.780029 96.0
1280.068726 120.0
1280.396362 176.0
1280.503174 132.0
1280.780884 128.0
1281.144165 172.0
1282.483887 148.0
1282.590698 136.0
1282.868774 40.0
1283.246582 152.0
1283.346436 164.0
1283.61731 216.0
1284.116577 128.0
1284.180786 96.0
1284.5802 88.0
1284.644409 156.0
1285.158081 164.0
1285.472046 204.0
1285.543335 156.0
1285.621826 144.0
1286.13147 176.0
1286.449829 240.0
1286.749634 144.0
1287.070923 28.0
1287.256592 156.0
1287.777954 132.0
1287.927856 64.0
1288.042236 72.0
1288.270752 156.0
1289.299683 124.0
1289.742798 160.0
1289.814209 136.0
1290.007202 164.0
1290.064453 132.0
1290.321777 120.0
1290.471924 168.0
1291.630005 180.0
1291.852173 252.0
1292.302856 196.0
1292.460327 168.0
1292.73938 152.0
1292.982666 220.0
1293.490845 108.0
1293.956177 140.0
1294.292725 200.0
1294.686523 168.0
1294.95874 124.0
1295.897095 168.0
1295.954468 160.0
1296.033203 208.0
1296.599365 224.0
1296.864502 76.0
1297.015015 120.0
1297.214966 192.0
1298.126221 132.0
1298.305542 36.0
1298.484863 44.0
1298.592407 116.0
1298.778931 184.0
1299.29541 192.0
1299.539307 112.0
1299.654175 208.0
1299.876587 156.0
1300.264038 152.0
1300.393311 180.0
1300.758423 160.0
1300.917236 168.0
1300.989014 76.0
1301.067993 156.0
1301.125366 116.0
1301.771606 120.0
1301.922485 112.0
1301.987061 144.0
1302.178589 300.0
1302.81311 136.0
1302.870483 200.0
1303.43811 60.0
1303.502808 228.0
1303.574707 108.0
1303.646484 60.0
1303.790283 196.0
1304.04895 176.0
1304.440918 164.0
1304.940308 144.0
1305.544312 196.0
1305.947144 192.0
1306.249146 100.0
1306.37146 168.0
1306.47937 72.0
1306.860718 104.0
1306.990234 184.0
1307.177246 80.0
1307.270874 56.0
1307.757568 184.0
1307.896973 60.0
1308.508789 172.0
1309.790649 212.0
1310.013916 124.0
1310.172485 168.0
1310.237305 188.0
1310.727173 208.0
1311.137939 52.0
1311.668945 228.0
1312.017334 144.0
1312.457153 156.0
1312.839355 84.0
1313.495605 124.0
1313.604126 180.0
1313.841919 56.0
1314.318115 144.0
1314.613892 72.0
1315.530518 60.0
1315.602783 320.0
1316.303101 84.0
1316.613525 160.0
1317.400879 36.0
1317.71875 164.0
1317.928223 188.0
1318.108887 152.0
1318.217285 168.0
1318.694214 140.0
1318.990112 164.0
1319.590576 92.0
1319.643799 68.0
1320.291992 128.0
1320.740479 180.0
1320.974121 236.0
1321.239502 64.0
1321.362549 132.0
1321.630249 120.0
1321.796631 164.0
1322.190674 228.0
1322.252563 140.0
1322.303223 252.0
1322.621704 216.0
1322.708496 164.0
1323.164551 144.0
1323.280396 120.0
1323.395142 128.0
1323.895874 172.0
1324.058716 188.0
1324.229004 72.0
1324.924438 80.0
1325.250488 92.0
1325.815674 128.0
1325.931641 152.0
1326.076538 164.0
1326.359253 112.0
1326.409912 120.0
1326.569458 92.0
1326.707153 92.0
1326.830444 204.0
1326.953613 52.0
1327.011719 76.0
1327.105957 76.0
1327.526489 64.0
1327.681396 224.0
1327.758545 44.0
1328.048706 156.0
1328.454834 144.0
1328.70874 168.0
1328.853882 212.0
1329.027954 136.0
1329.231201 204.0
1329.296509 136.0
1329.543213 136.0
1329.797241 136.0
1330.842529 128.0
1331.307251 84.0
1331.866455 156.0
1332.135254 136.0
1332.839966 144.0
1333.108887 184.0
1333.581177 132.0
1333.682983 108.0
1333.871948 168.0
1335.471558 36.0
1335.544312 196.0
1335.893433 124.0
1336.184448 56.0
1336.308105 80.0
1336.628296 192.0
1336.963013 148.0
1337.16687 144.0
1337.348755 156.0
1337.596191 192.0
1338.200439 124.0
1338.389771 60.0
1338.536621 208.0
1338.651855 144.0
1338.739258 132.0
1338.914062 136.0
1339.059692 132.0
1339.671631 108.0
1339.890137 64.0
1339.99939 32.0
1340.32251 92.0
1340.531372 160.0
1340.946655 156.0
1341.303833 112.0
1341.529785 92.0
1342.207886 156.0
1342.543335 156.0
1343.068359 160.0
1343.287231 168.0
1343.666626 228.0
1343.827026 212.0
1343.936523 104.0
1344.093018 180.0
1344.542236 148.0
1344.81958 168.0
1345.038452 40.0
1345.206421 160.0
1345.613281 152.0
1345.863403 36.0
1345.994873 128.0
1346.995361 88.0
1347.083008 200.0
1347.387329 172.0
1348.055542 156.0
1348.433716 136.0
1348.734497 228.0
1349.173096 144.0
1349.304688 224.0
1349.502075 124.0
1349.702881 180.0
1350.123535 88.0
1350.811157 224.0
1350.876953 136.0
1351.359741 72.0
1351.645142 180.0
1351.879272 136.0
1352.728516 112.0
1352.999146 108.0
1353.174805 144.0
1353.299316 100.0
1353.35791 148.0
1353.431152 84.0
1353.652344 184.0
1354.112183 128.0
1354.185425 176.0
1354.4198 48.0
1354.485718 140.0
1354.881226 128.0
1355.262207 136.0
1355.48938 152.0
1355.709229 120.0
1355.958374 136.0
1356.192993 32.0
1356.302856 128.0
1356.603394 172.0
1356.991943 176.0
1357.578613 200.0
1357.699951 116.0
1358.913574 160.0
1359.371704 208.0
1359.603271 160.0
1359.845459 52.0
1360.33728 72.0
1360.652954 80.0
1360.887817 144.0
1361.335815 136.0
1361.519409 144.0
1361.584351 164.0
1361.66626 192.0
1362.62854 48.0
1362.753418 120.0
1363.091431 128.0
1363.569092 168.0
1364.073242 160.0
1364.359741 92.0
1364.848145 220.0
1365.413818 196.0
1365.590942 156.0
1365.752686 116.0
1365.94397 68.0
1366.20874 96.0
1366.451538 112.0
1366.503052 176.0
1366.664917 164.0
1366.723755 192.0
1367.154907 168.0
1367.181152 200.0
1367.400757 236.0
1367.459717 156.0
1367.614258 108.0
1367.768799 100.0
1368.080566 112.0
1368.221924 228.0
1368.383301 196.0
1368.708252 120.0
1368.961548 168.0
1369.152954 144.0
1369.219238 160.0
1369.314941 140.0
1369.734863 88.0
1369.793701 144.0
1369.911621 188.0
1370.383057 84.0
1370.456787 112.0
1370.618896 144.0
1370.739014 104.0
1370.839966 128.0
1371.002075 156.0
1371.473755 124.0
1371.55481 116.0
1371.694824 152.0
1372.048706 132.0
1372.159302 204.0
1372.285645 140.0
1372.741821 188.0
1372.837646 204.0
1373.270386 136.0
1373.359497 176.0
1373.516235 48.0
1373.722778 56.0
1373.82605 108.0
1374.091553 172.0
1374.224365 256.0
1374.335083 120.0
1374.792603 100.0
1375.065552 172.0
1375.301758 164.0
1375.567505 176.0
1375.685669 116.0
1375.980957 160.0
1376.121216 60.0
1376.195068 84.0
1376.723999 156.0
1376.800537 160.0
1377.287964 124.0
1377.376587 160.0
1377.613037 80.0
1377.915894 76.0
1378.152344 176.0
1378.248413 72.0
1378.32959 68.0
1378.433105 200.0
1378.542847 160.0
1378.787842 136.0
1378.906006 208.0
1379.002075 116.0
1379.135132 160.0
1379.280029 208.0
1379.296143 124.0
1379.322266 180.0
1379.748657 84.0
1380.081421 100.0
1380.140503 72.0
1380.399414 196.0
1380.5177 64.0
1380.998413 148.0
1381.279419 40.0
1381.353394 156.0
1381.47229 176.0
1381.967407 132.0
1382.344849 128.0
1382.929443 160.0
1383.033081 60.0
1383.417969 156.0
1383.906616 48.0
1384.202759 188.0
1384.321289 164.0
1385.017456 112.0
1385.187866 92.0
1386.247314 128.0
1386.453247 160.0
1387.299683 116.0
1387.61853 172.0
1387.848389 52.0
1388.099976 124.0
1388.193604 108.0
1388.248779 152.0
1388.552856 136.0
1389.145996 188.0
1389.309448 124.0
1389.561646 104.0
1390.236816 136.0
1390.800903 104.0
1391.595215 104.0
1391.647217 100.0
1391.914551 196.0
1392.077881 172.0
1392.53833 180.0
1392.984009 196.0
1393.043335 48.0
1393.325684 256.0
1393.758179 164.0
1393.830933 128.0
1393.889526 200.0
1394.016724 160.0
1394.640991 92.0
1394.826782 112.0
1394.945679 136.0
1395.198486 172.0
1395.324829 160.0
1395.428955 168.0
1395.964233 116.0
1396.313843 224.0
1397.451904 112.0
1398.032349 116.0
1398.196045 92.0
1398.263062 168.0
1398.9552 80.0
1400.019897 132.0
1400.258301 104.0
1400.355103 156.0
1400.437012 120.0
1400.511475 116.0
1401.338379 216.0
1401.420288 136.0
1401.524658 180.0
1401.748169 136.0
1402.277344 160.0
1402.731934 220.0
1403.089722 192.0
1403.216553 244.0
1403.803223 196.0
1404.335083 64.0
1404.611084 140.0
1405.394409 88.0
1405.633179 204.0
1406.551147 184.0
1406.663086 64.0
1406.737671 188.0
1406.952148 120.0
1407.026733 124.0
1407.394653 188.0
1407.544067 160.0
1408.410278 120.0
1408.723999 116.0
1409.511597 144.0
1410.046631 88.0
1410.275269 212.0
1410.524902 44.0
1410.80896 44.0
1411.122925 164.0
1411.242554 200.0
1411.324829 64.0
1411.407104 140.0
1411.758545 144.0
1412.035278 220.0
1412.241333 248.0
1412.36438 156.0
1413.025757 132.0
1413.209717 160.0
1413.404175 140.0
1414.047729 132.0
1414.444458 104.0
1414.957764 160.0
1415.140625 120.0
1415.462646 144.0
1416.069214 88.0
1416.220825 132.0
1416.571045 192.0
1416.714478 148.0
1416.908203 152.0
1416.960571 124.0
1417.147949 108.0
1417.260376 104.0
1417.515137 144.0
1417.86731 164.0
1418.002197 164.0
1418.054688 112.0
1418.819214 64.0
1419.006714 156.0
1419.224121 160.0
1419.370605 144.0
1419.839966 124.0
1420.004028 216.0
1420.23645 60.0
1420.694092 136.0
1420.791626 216.0
1421.046631 184.0
1421.099121 132.0
1421.451782 124.0
1421.639404 192.0
1421.699463 188.0
1421.771606 204.0
1421.894531 40.0
1422.146729 144.0
1422.2323 124.0
1422.397461 128.0
1422.555054 164.0
1422.775879 164.0
1423.118164 144.0
1423.688843 72.0
1423.793945 148.0
1424.01001 188.0
1424.469971 148.0
1424.725342 100.0
1425.055908 88.0
1425.356445 108.0
1425.574341 164.0
1425.653076 236.0
1425.829834 176.0
1426.040283 152.0
1426.431152 172.0
1427.626587 124.0
1427.897339 156.0
1427.980103 76.0
1428.153076 192.0
1428.311035 116.0
1428.506592 136.0
1428.672119 140.0
1429.033203 156.0
1429.243896 160.0
1429.531738 92.0
1429.597534 136.0
1430.643799 48.0
1430.869629 152.0
1431.200928 136.0
1431.283691 196.0
1431.599976 140.0
1431.75061 112.0
1432.167236 176.0
1432.722168 144.0
1432.857788 144.0
1432.918091 52.0
1433.025513 144.0
1433.249634 76.0
1433.317383 184.0
1433.445557 108.0
1433.558594 228.0
1433.875122 52.0
1433.995605 80.0
1434.372559 184.0
1434.764526 136.0
1434.8927 192.0
1434.955322 152.0
1435.058594 184.0
1435.299805 116.0
1435.533569 152.0
1435.756714 212.0
1436.099243 168.0
1436.272705 140.0
1436.355713 156.0
1436.612183 148.0
1436.91748 152.0
1437.155273 96.0
1437.298462 144.0
1437.811768 148.0
1437.9552 88.0
1438.03064 140.0
1438.415649 84.0
1438.692749 180.0
1438.876099 128.0
1439.140381 60.0
1439.21582 164.0
1439.314087 64.0
1439.782227 44.0
1440.2052 160.0
1440.594116 128.0
1440.673462 160.0
1440.869751 156.0
1441.005859 148.0
1441.081421 96.0
1441.708618 136.0
1441.890015 200.0
1442.328369 136.0
1442.562744 120.0
1442.630737 200.0
1442.706299 112.0
1442.78186 112.0
1443.560669 168.0
1443.764893 100.0
1444.021973 180.0
1444.150635 104.0
1444.286743 224.0
1444.642212 148.0
1445.05835 160.0
1445.353394 48.0
1445.459351 140.0
1445.702271 188.0
1446.29187 128.0
1446.402222 176.0
1446.473511 72.0
1446.685425 116.0
1446.783813 176.0
1446.897461 144.0
1447.147217 124.0
1447.828735 80.0
1448.116699 164.0
1448.714966 168.0
1448.874023 184.0
1449.275513 104.0
1449.836304 72.0
1450.381958 220.0
1450.548706 168.0
1450.609375 56.0
1450.685181 164.0
1450.776123 116.0
1451.056641 120.0
1451.177979 84.0
1451.322021 236.0
1451.784546 120.0
1452.418213 160.0
1452.542969 156.0
1452.831299 176.0
1453.498901 156.0
1453.794922 208.0
1453.893555 168.0
1454.257812 60.0
1454.500732 144.0
1454.614624 172.0
1454.81958 84.0
1454.880249 140.0
1455.889648 212.0
1456.026855 248.0
1456.543335 104.0
1457.812012 112.0
1457.948853 224.0
1458.640503 192.0
1458.701294 152.0
1458.921753 100.0
1459.119385 188.0
1459.385498 112.0
1459.796143 80.0
1460.046997 204.0
1460.214355 164.0
1460.33606 96.0
1461.842407 144.0
1462.740479 128.0
1462.885132 172.0
1462.984009 136.0
1463.24292 64.0
1463.364746 100.0
1463.912964 204.0
1464.163574 180.0
1464.826904 120.0
1464.910645 148.0
1465.009644 152.0
1465.489624 176.0
1465.984985 136.0
1466.099243 132.0
1466.160278 128.0
1466.221191 104.0
1466.510742 132.0
1466.724487 120.0
1466.85376 136.0
1467.074829 76.0
1467.151123 132.0
1467.326416 240.0
1467.684814 184.0
1468.119385 120.0
1468.271973 68.0
1468.41687 164.0
1468.470215 128.0
1468.760132 108.0
1468.889771 140.0
1469.171997 112.0
1469.5 280.0
1469.637329 92.0
1469.828125 76.0
1470.286011 88.0
1470.42334 112.0
1470.682861 196.0
1470.782104 52.0
1471.12561 124.0
1471.316406 128.0
1471.873779 176.0
1472.026489 64.0
1472.125732 144.0
1472.209839 148.0
1472.446533 120.0
1473.302002 140.0
1473.813843 164.0
1475.243042 112.0
1475.912964 208.0
1475.99231 168.0
1476.045898 160.0
1476.107056 68.0
1476.168213 88.0
1476.432251 228.0
1476.925293 64.0
1476.994141 72.0
1477.491333 172.0
1477.606079 72.0
1478.792236 76.0
1479.121338 164.0
1479.289795 92.0
1479.603638 128.0
1479.94812 176.0
1480.667969 144.0
1480.721558 120.0
1480.890015 36.0
1481.372559 68.0
1481.464478 120.0
1481.755615 164.0
1482.146362 124.0
1482.772583 112.0
1482.981689 152.0
1483.193481 140.0
1483.32666 140.0
1483.456909 112.0
1483.717529 160.0
1484.100952 148.0
1484.668335 40.0
1485.12085 60.0
1485.788208 132.0
1485.915405 184.0
1486.018433 248.0
1486.072144 140.0
1486.148804 244.0
1486.210205 68.0
1486.317627 136.0
1486.639893 176.0
1486.96228 168.0
1487.047485 156.0
1487.507202 116.0
1487.583984 156.0
1488.052246 112.0
1488.343994 132.0
1488.428467 164.0
1488.543579 208.0
1488.789429 152.0
1488.888184 184.0
1489.219482 148.0
1489.327637 92.0
1489.849365 56.0
1490.00293 152.0
1490.156616 28.0
1490.389282 140.0
1490.5177 152.0
1490.871216 160.0
1491.047974 152.0
1491.301636 120.0
1491.40918 136.0
1491.532227 160.0
1491.635742 152.0
1492.531616 116.0
1492.646973 276.0
1492.737305 228.0
1492.877686 64.0
1493.031494 132.0
1493.383911 208.0
1493.592896 48.0
1493.715942 116.0
1493.838989 144.0
1494.292969 128.0
1494.523804 268.0
1494.723755 188.0
1494.896606 168.0
1494.928711 76.0
1494.95813 140.0
1495.123901 100.0
1495.254761 36.0
1495.582764 248.0
1495.708862 164.0
1495.924438 112.0
1496.324707 216.0
1496.524902 148.0
1496.809814 120.0
1497.055176 208.0
1497.248779 32.0
1497.317993 128.0
1497.410522 208.0
1497.826416 112.0
1498.250122 92.0
1498.589111 192.0
1499.071899 164.0
1499.251709 96.0
1499.536865 140.0
1499.637085 36.0
1499.744507 136.0
1500.134277 180.0
1500.42334 96.0
1500.654663 136.0
1501.433472 152.0
1501.72644 76.0
1501.819092 192.0
1502.081299 188.0
1502.217651 196.0
1502.366699 172.0
1502.906738 156.0
1503.068848 152.0
1503.305908 156.0
1503.348511 148.0
1503.477783 152.0
1503.686157 204.0
1503.979492 48.0
1504.811401 188.0
1504.952148 192.0
1505.183838 112.0
