>compound MLS001401365-01!VARDENAFIL CITRATE
>formula C23H32N6O4S
>ionization [M+H]+
>parentmass 489.227417
#inchi InChI=1S/C23H32N6O4S/c1-5-8-20-24-16(4)21-23(30)25-22(26-29(20)21)18-15-17(9-10-19(18)33-7-3)34(31,32)28-13-11-27(6-2)12-14-28/h9-10,15H,5-8,11-14H2,1-4H3,(H,25,26,30)
#inchikey SECKRCOLJRRGGV
#origInchi InChI=1S/C23H32N6O4S.C6H8O7/c1-5-8-20-24-16(4)21-23(30)25-22(26-29(20)21)18-15-17(9-10-19(18)33-7-3)34(31,32)28-13-11-27(6-2)12-14-28;7-3(8)1-6(13,5(11)12)2-4(9)10/h9-10,15H,5-8,11-14H2,1-4H3,(H,25,26,30);13H,1-2H2,(H,7,8)(H,9,10)(H,11,12)
#Ion_Source LC-ESI
#Instrument qTof
#Compound_Source NIH Pharmacologically Active Library
#PI Dorrestein
#Data_Collector VP/LMS
#Scan -1
#Precursor_MZ 489.233
#ExactMass 488.221
#Charge 1
#CAS_Number N/A
#Pubmed_ID N/A
#Smiles CCCc1nc(C)c2c(O)nc(nn12)c3cc(ccc3OCC)S(=O)(=O)N4CCN(CC)CC4.OC(=O)CC(O)(CC(=O)O)C(=O)O
#INCHI_AUX N/A
#Library_Class 1
#SpectrumID CCMSLIB00000085102
#IonMode Positive
#UpdateWorkflowName UPDATE-SINGLE-ANNOTATED-GOLD
#LibraryQualityString Gold
#TaskID d252d724072548979f1f6f1ced849daf
##Scan# 1685
#SpectrumFile p3-E10_GE10_01_18279.mzXML
#LibraryName Pharm_Active_Library.mgf
#MQScore -1
#Organism Pharm_Active_Library
#TIC_Query 0
#RT_Query -1
#MZErrorPPM -1
#SharedPeaks 0
#MassDiff 0
#LibMZ -1
#SpecMZ 489.233
#SpecCharge 0
#internalFilename spec-00000.mgf

>collision 10
44.953979 116.0
45.027409 132.0
45.118279 140.0
45.137001 208.0
45.17445 92.0
45.26413 176.0
45.396801 204.0
45.501469 112.0
45.522953 84.0
45.863358 112.0
45.934826 220.0
45.952366 84.0
45.988804 52.0
46.002304 28.0
46.164448 248.0
46.56834 168.0
46.652596 48.0
46.69883 76.0
46.762783 172.0
46.792732 140.0
46.862198 112.0
46.890816 92.0
47.109146 172.0
47.362225 108.0
47.626972 172.0
48.033058 196.0
48.048237 140.0
48.157295 132.0
48.195976 148.0
48.345329 116.0
48.654449 164.0
48.751682 108.0
48.807289 92.0
48.830933 76.0
48.89772 188.0
49.025627 124.0
49.038399 160.0
49.218369 196.0
49.251888 112.0
49.321758 176.0
49.360905 108.0
49.405666 180.0
49.523258 144.0
49.5793 104.0
49.806606 64.0
49.871246 40.0
49.986576 136.0
50.252899 200.0
50.339008 208.0
50.367256 228.0
50.385201 240.0
50.423779 204.0
50.483158 92.0
50.738041 144.0
50.77491 208.0
50.807537 80.0
50.851528 148.0
50.90406 136.0
51.090263 208.0
51.105915 92.0
51.171391 128.0
51.188004 200.0
51.256859 172.0
51.356842 92.0
51.40374 124.0
51.49654 212.0
51.507969 164.0
51.720383 180.0
51.89439 92.0
52.068031 188.0
52.078087 244.0
52.122623 192.0
52.313923 172.0
52.347038 156.0
52.377285 132.0
52.48394 124.0
52.600803 116.0
52.625347 48.0
52.647011 172.0
52.791531 136.0
53.044918 172.0
53.120331 52.0
53.307632 112.0
53.390503 128.0
53.412319 160.0
53.437054 172.0
53.457424 148.0
53.557888 156.0
54.000164 124.0
54.190479 84.0
54.335632 192.0
54.542706 180.0
54.616421 184.0
54.800259 168.0
54.826782 104.0
54.841087 220.0
54.850368 292.0
55.333466 304.0
55.360123 148.0
55.745842 184.0
55.934738 192.0
55.97345 160.0
56.092644 108.0
56.113518 80.0
56.204506 112.0
56.258236 128.0
56.335896 124.0
56.69202 136.0
56.705963 184.0
56.738487 156.0
56.777477 212.0
56.906532 144.0
57.151539 132.0
57.275585 112.0
57.368427 176.0
57.635582 196.0
57.894268 164.0
57.979107 164.0
58.0261 144.0
58.115593 176.0
58.126213 212.0
58.159603 108.0
58.279583 132.0
58.442284 180.0
58.474243 224.0
58.600639 216.0
58.647884 120.0
59.020405 112.0
59.090767 184.0
59.193325 156.0
59.368031 148.0
59.409443 132.0
59.466221 108.0
59.487713 204.0
59.621349 92.0
59.641331 152.0
59.707447 156.0
59.778214 208.0
59.813614 48.0
59.845947 220.0
60.010818 208.0
60.033951 80.0
60.189812 144.0
60.228424 116.0
60.316505 44.0
60.361343 164.0
60.396915 220.0
60.461903 124.0
60.512985 152.0
60.578033 148.0
60.684975 108.0
60.743908 164.0
60.832367 204.0
60.916225 136.0
61.144806 56.0
61.24913 152.0
61.261593 160.0
61.336391 136.0
61.425278 132.0
61.447121 232.0
61.568882 164.0
61.790855 176.0
61.806503 200.0
61.884769 140.0
61.944283 132.0
61.961517 192.0
62.182629 184.0
62.276836 128.0
62.341255 164.0
62.619732 244.0
62.674873 108.0
62.700089 120.0
62.79311 76.0
63.061527 92.0
63.124767 192.0
63.169056 152.0
63.420837 180.0
63.641483 204.0
63.727135 180.0
63.776402 176.0
64.0485 160.0
64.089928 120.0
64.112236 216.0
64.266922 196.0
64.278091 160.0
64.316399 140.0
64.4953 180.0
64.59285 204.0
64.719284 124.0
64.818596 148.0
65.121819 208.0
65.194122 152.0
65.226273 176.0
65.24395 92.0
65.456345 192.0
65.572342 156.0
65.586845 120.0
65.694893 116.0
65.73362 164.0
66.005013 96.0
66.066475 140.0
66.259132 156.0
66.28344 168.0
66.491028 116.0
66.830864 168.0
67.070076 48.0
67.182602 136.0
67.231552 144.0
67.264763 220.0
67.650002 160.0
67.705673 216.0
67.89579 164.0
67.961411 172.0
68.053329 220.0
68.140381 180.0
68.424919 148.0
68.438095 180.0
68.518555 188.0
68.586372 44.0
68.77607 136.0
68.789268 184.0
68.832199 64.0
68.858627 172.0
69.042084 64.0
69.066895 164.0
69.086189 132.0
69.097672 224.0
69.157898 184.0
69.220818 152.0
69.355019 108.0
69.492668 168.0
69.794975 64.0
69.923073 220.0
69.984673 188.0
70.204636 156.0
70.253014 240.0
70.266357 244.0
70.349808 208.0
70.500137 128.0
70.590416 88.0
70.60881 180.0
70.747696 176.0
70.759415 84.0
70.806305 144.0
70.878342 112.0
70.965508 132.0
71.000725 48.0
71.074539 116.0
71.386993 144.0
71.526642 88.0
71.647896 140.0
71.659691 156.0
72.321701 64.0
72.367409 80.0
72.480904 92.0
72.784538 160.0
73.019066 128.0
73.093925 152.0
73.248863 116.0
73.291451 188.0
73.32383 212.0
73.369858 176.0
73.407372 196.0
73.658272 164.0
73.733452 120.0
73.853142 112.0
73.904465 44.0
74.296829 120.0
74.597366 192.0
74.635193 152.0
74.654106 168.0
74.68335 180.0
74.800751 248.0
74.833069 116.0
74.886459 184.0
74.993286 160.0
75.04673 136.0
75.236519 156.0
75.296959 120.0
75.340141 152.0
75.407539 104.0
75.438652 60.0
75.88707 124.0
75.935623 184.0
76.173431 132.0
76.270256 212.0
76.444672 188.0
76.650421 116.0
76.86116 108.0
77.18782 140.0
77.205315 132.0
77.233299 184.0
77.539711 240.0
77.729118 124.0
77.880104 220.0
77.969711 176.0
77.992561 132.0
78.036514 172.0
78.057961 184.0
78.112137 100.0
78.159645 132.0
78.397377 92.0
78.582535 48.0
79.089745 52.0
79.119835 148.0
79.141083 116.0
79.284576 176.0
79.314705 164.0
79.328888 128.0
79.424644 88.0
79.48497 204.0
79.866951 124.0
79.909645 132.0
80.021782 68.0
80.289078 44.0
80.497887 84.0
80.522888 248.0
80.549683 216.0
80.606857 56.0
80.841125 140.0
81.067322 168.0
81.506432 160.0
81.569336 168.0
81.639458 152.0
81.662842 188.0
81.732277 148.0
81.757912 252.0
82.461594 32.0
82.637009 80.0
82.649681 116.0
82.694923 92.0
82.731125 176.0
82.863342 204.0
83.184349 48.0
83.258789 156.0
83.324188 160.0
83.833687 132.0
84.204048 148.0
84.240585 216.0
84.255196 188.0
84.326469 56.0
84.383133 104.0
84.465431 88.0
84.602852 176.0
84.637474 52.0
84.78791 136.0
84.866524 184.0
84.96006 128.0
85.04998 120.0
85.074684 152.0
85.128929 140.0
85.395424 124.0
85.737877 164.0
85.865097 168.0
85.953644 140.0
86.127197 164.0
86.153061 124.0
86.321259 176.0
86.336052 180.0
86.502579 148.0
86.612389 228.0
86.627792 176.0
86.706337 92.0
87.014267 160.0
87.320992 140.0
87.403313 144.0
87.516289 200.0
87.639229 120.0
87.674637 176.0
87.70446 176.0
87.758522 224.0
87.879761 272.0
87.904022 240.0
87.933884 208.0
88.012291 128.0
88.08139 120.0
88.128098 116.0
88.160393 100.0
88.307571 148.0
88.464752 128.0
88.736412 192.0
88.818932 52.0
88.884598 156.0
88.99472 144.0
89.021637 84.0
89.117439 84.0
89.13623 116.0
89.410797 144.0
89.439034 80.0
89.491745 128.0
89.50869 124.0
89.531288 100.0
89.604759 52.0
89.665054 124.0
89.798927 152.0
90.031067 112.0
90.280533 128.0
90.369446 144.0
90.483009 160.0
90.801361 48.0
91.093681 192.0
91.129776 64.0
91.150681 176.0
91.287552 172.0
91.306572 156.0
91.401695 156.0
91.42643 196.0
91.445465 100.0
91.552086 152.0
91.849419 180.0
91.881851 156.0
91.948639 196.0
92.026909 172.0
92.116676 80.0
92.315453 64.0
92.573807 296.0
92.650574 52.0
92.684914 240.0
92.765411 60.0
92.788422 132.0
92.935638 160.0
93.009041 196.0
93.061333 184.0
93.339493 172.0
93.356804 164.0
93.371223 68.0
93.414505 224.0
93.437592 140.0
93.470299 196.0
93.587723 168.0
93.857491 228.0
93.875626 164.0
94.233887 216.0
94.359512 100.0
94.398186 128.0
94.485229 188.0
94.527802 60.0
94.576187 164.0
94.614906 184.0
94.795044 112.0
94.880333 64.0
94.932686 120.0
95.064087 180.0
95.109245 104.0
95.175255 136.0
95.285965 48.0
95.385078 132.0
95.439514 188.0
95.460907 84.0
95.480354 168.0
95.51342 116.0
95.527039 132.0
95.684677 188.0
95.715836 152.0
95.795692 204.0
95.83271 124.0
96.064827 228.0
96.081993 168.0
96.318489 220.0
96.447243 160.0
96.64418 220.0
96.80159 132.0
97.072464 364.0
97.091637 120.0
97.113213 52.0
97.452835 152.0
97.486244 136.0
97.547173 164.0
97.588463 188.0
97.661369 216.0
97.775345 116.0
97.895439 132.0
98.082161 2416.0
98.151619 44.0
98.210785 48.0
98.273018 176.0
98.374573 156.0
98.708481 172.0
98.765839 44.0
98.779686 72.0
98.862793 124.0
98.890495 160.0
98.957809 200.0
98.987556 164.0
99.048904 176.0
99.068626 176.0
99.091072 21564.0
99.126175 220.0
99.145996 36.0
99.159866 48.0
99.195549 64.0
99.281677 64.0
99.324448 168.0
99.348251 52.0
99.387932 56.0
99.463348 40.0
99.501068 104.0
99.562622 56.0
99.616257 56.0
99.689774 36.0
99.719582 56.0
99.785187 64.0
99.880646 112.0
99.998039 44.0
100.031883 36.0
100.073181 204.0
100.092033 1432.0
100.207138 68.0
100.466324 40.0
100.480293 100.0
100.526184 224.0
100.631981 72.0
100.669922 164.0
100.689156 140.0
100.753815 84.0
100.826866 72.0
100.868179 176.0
100.890427 124.0
100.906738 140.0
100.965706 128.0
101.189827 72.0
101.332031 40.0
101.680954 204.0
101.723106 44.0
101.761253 188.0
102.064667 96.0
102.094826 140.0
102.116951 88.0
102.249748 100.0
102.265846 108.0
102.346375 216.0
102.368523 200.0
102.382622 32.0
102.416862 236.0
102.503494 132.0
102.666786 132.0
102.693726 192.0
102.906921 96.0
102.957405 144.0
103.052353 172.0
103.234283 56.0
103.272705 72.0
103.347557 248.0
103.845924 164.0
103.86824 136.0
103.916924 128.0
103.933159 56.0
103.981865 120.0
104.046822 144.0
104.193054 160.0
104.249947 104.0
104.428864 160.0
104.502098 128.0
104.524483 100.0
104.719925 64.0
104.935944 196.0
104.952255 72.0
105.056274 148.0
105.242004 80.0
105.450378 108.0
105.474907 148.0
105.548508 160.0
105.624184 196.0
105.736717 196.0
105.755142 140.0
105.90052 76.0
105.976082 208.0
105.992706 108.0
106.031097 180.0
106.450165 148.0
106.939476 136.0
106.976532 188.0
107.05938 224.0
107.201042 136.0
107.869781 84.0
108.010399 144.0
108.18837 276.0
108.428658 156.0
108.5187 192.0
108.596596 52.0
108.887177 200.0
108.945335 160.0
109.036766 188.0
109.071304 168.0
109.354988 184.0
109.496574 200.0
109.517403 48.0
109.602821 116.0
109.657005 192.0
109.873878 176.0
110.059639 148.0
110.157799 136.0
110.312447 132.0
110.331261 200.0
110.354256 148.0
110.737221 160.0
111.005486 160.0
111.091156 1476.0
111.118752 88.0
111.135536 128.0
111.23838 212.0
111.549286 176.0
111.624977 192.0
111.79538 128.0
111.989075 132.0
112.096649 1036.0
112.216675 124.0
112.304298 156.0
112.345329 152.0
112.393852 104.0
112.459282 100.0
112.516273 172.0
112.560616 204.0
112.700035 192.0
112.814163 76.0
112.828964 72.0
112.869133 168.0
112.931961 168.0
113.061867 188.0
113.081696 216.0
113.106369 24356.0
113.156898 100.0
113.178604 48.0
113.192902 120.0
113.226784 108.0
113.273384 84.0
113.41748 52.0
113.476372 184.0
113.613205 108.0
113.663498 56.0
113.697449 72.0
113.977768 192.0
114.033028 32.0
114.060661 52.0
114.113121 7508.0
114.16272 100.0
114.183983 176.0
114.207382 36.0
114.286095 144.0
114.377609 88.0
114.41806 152.0
114.539444 116.0
114.568634 40.0
114.605492 148.0
114.637459 144.0
114.701401 160.0
114.825066 140.0
114.884308 228.0
114.912529 76.0
114.98082 104.0
115.012321 100.0
115.038452 116.0
115.059799 100.0
115.083282 120.0
115.121582 780.0
115.145218 164.0
115.21357 228.0
116.05043 68.0
116.129982 168.0
116.277824 112.0
116.625778 116.0
116.675224 136.0
116.692421 120.0
117.234879 152.0
117.324295 168.0
117.457703 144.0
117.485001 80.0
118.024971 128.0
118.085526 196.0
118.349541 116.0
118.546669 152.0
118.741791 160.0
118.806862 72.0
118.973976 180.0
119.055336 148.0
119.238983 60.0
119.256371 52.0
119.465126 208.0
119.532578 148.0
119.661003 104.0
119.796036 56.0
119.994789 204.0
120.057487 160.0
120.144844 152.0
120.190666 96.0
120.288879 132.0
120.424263 68.0
120.485428 180.0
120.577209 64.0
120.611427 140.0
120.655899 100.0
120.693069 100.0
121.122032 104.0
121.194328 128.0
121.323647 124.0
121.343376 176.0
121.3675 124.0
121.442062 208.0
121.703217 184.0
121.872353 188.0
122.061226 156.0
122.12957 108.0
122.426834 68.0
122.510399 136.0
122.536842 164.0
122.763885 200.0
122.955818 64.0
123.041908 188.0
123.090492 200.0
123.108154 184.0
123.306992 192.0
123.794693 192.0
124.033005 140.0
124.066254 116.0
124.14608 80.0
124.23037 200.0
124.330215 148.0
124.454529 192.0
124.614037 148.0
124.816727 160.0
125.023621 156.0
125.515945 96.0
125.654236 72.0
125.752426 152.0
125.879677 116.0
125.962318 168.0
126.304329 156.0
126.371445 120.0
126.507973 180.0
126.543793 144.0
126.904533 124.0
126.940407 108.0
127.106407 84.0
127.384819 184.0
127.476936 144.0
127.70401 144.0
127.755753 124.0
127.987572 144.0
128.048386 136.0
128.125504 204.0
128.206085 164.0
128.377426 108.0
128.537598 132.0
128.733994 56.0
128.75206 224.0
128.870651 264.0
128.939575 116.0
129.036789 168.0
129.167953 184.0
129.281082 100.0
129.412369 128.0
129.568649 172.0
129.833862 120.0
129.926285 92.0
130.076645 220.0
130.142487 132.0
130.196991 104.0
130.219696 116.0
130.246964 172.0
130.731049 136.0
130.756287 180.0
130.927032 160.0
131.057938 200.0
131.138931 72.0
131.184509 80.0
131.405746 120.0
131.469635 96.0
131.84874 80.0
132.246719 108.0
132.365768 116.0
132.425308 116.0
132.466537 184.0
132.537262 148.0
132.670502 160.0
132.991653 172.0
133.025467 156.0
133.124817 164.0
133.225891 148.0
133.433487 124.0
134.067932 148.0
134.164856 264.0
135.065491 60.0
135.343216 168.0
135.373322 188.0
135.445114 56.0
135.519257 72.0
136.008591 220.0
136.048996 532.0
136.087936 160.0
136.163437 128.0
136.181702 196.0
136.231522 156.0
136.452316 124.0
136.623123 136.0
136.889771 104.0
137.055237 240.0
137.687363 68.0
137.7621 188.0
138.072983 128.0
138.089355 180.0
138.105164 160.0
138.220367 76.0
138.674713 156.0
138.871658 84.0
139.348221 128.0
139.479828 172.0
139.500977 84.0
139.519791 100.0
140.039841 192.0
140.174133 156.0
140.431107 128.0
141.045029 188.0
141.267319 84.0
141.286255 156.0
141.343033 204.0
141.819061 112.0
142.098892 136.0
142.329132 124.0
143.085251 176.0
143.659607 56.0
143.805176 120.0
144.053513 144.0
144.230347 116.0
144.567581 132.0
144.883652 192.0
144.967514 92.0
145.001068 112.0
145.039062 488.0
145.058533 148.0
145.082565 208.0
145.195267 132.0
145.509613 164.0
145.548035 96.0
145.627289 128.0
145.937302 160.0
146.05397 116.0
146.117447 152.0
146.471588 104.0
146.57518 112.0
146.647476 184.0
146.84761 132.0
146.883789 108.0
146.982712 176.0
147.054214 232.0
147.110626 204.0
147.175812 80.0
147.364212 144.0
147.499557 104.0
148.012466 124.0
148.041931 120.0
148.063385 600.0
148.082581 168.0
148.109543 152.0
148.361374 188.0
148.397736 92.0
148.625748 252.0
148.676697 84.0
148.887924 148.0
148.972931 108.0
149.02153 128.0
149.047531 304.0
149.213547 84.0
149.237854 156.0
149.432434 144.0
149.775696 104.0
149.9487 148.0
149.968201 112.0
150.265717 84.0
150.353561 116.0
150.597717 168.0
150.627029 84.0
150.969208 184.0
151.080643 352.0
151.231003 160.0
151.387695 92.0
151.765076 136.0
151.799408 120.0
152.042267 272.0
152.086456 228.0
152.332016 92.0
152.361496 180.0
152.381149 144.0
152.981171 240.0
153.46907 84.0
153.503586 188.0
153.681198 144.0
154.059631 200.0
154.212143 124.0
154.251694 84.0
154.320923 184.0
154.469315 192.0
154.578171 44.0
154.724213 124.0
154.776215 268.0
154.934723 76.0
155.130508 108.0
155.964584 128.0
156.054092 188.0
156.073975 160.0
156.337662 40.0
156.559235 144.0
156.585938 244.0
156.798416 200.0
157.202621 156.0
157.342209 52.0
157.699432 224.0
157.736923 132.0
157.771927 168.0
157.974503 132.0
158.042053 200.0
158.074753 368.0
158.234772 100.0
158.48024 120.0
159.053558 396.0
159.12735 232.0
159.597214 220.0
159.685242 120.0
159.843735 224.0
160.009857 224.0
160.037796 172.0
160.087921 156.0
160.171036 172.0
160.223938 168.0
160.286926 176.0
160.420517 188.0
160.528931 128.0
160.690369 52.0
160.720642 96.0
161.028641 124.0
161.064682 148.0
161.357147 136.0
161.397598 172.0
161.607544 156.0
162.075989 108.0
162.103867 148.0
162.273697 164.0
162.324402 148.0
162.456299 84.0
162.595856 176.0
162.870071 148.0
163.091141 292.0
163.208084 196.0
163.233521 104.0
163.457382 96.0
163.574448 120.0
163.627914 176.0
164.002396 180.0
164.040634 128.0
164.081589 704.0
164.609604 120.0
164.801178 60.0
164.903412 120.0
165.036346 136.0
165.081207 192.0
165.230728 76.0
165.343323 128.0
165.3638 164.0
165.417557 116.0
165.519958 108.0
165.560944 40.0
165.683884 136.0
165.709503 136.0
165.771011 132.0
166.096512 2928.0
166.209503 40.0
166.309601 52.0
166.553543 88.0
166.633179 124.0
166.759094 164.0
167.098892 284.0
167.263245 76.0
167.299286 28.0
167.402283 56.0
167.587753 44.0
167.672791 140.0
167.695984 96.0
167.763016 152.0
167.806839 164.0
167.832626 40.0
167.868729 196.0
168.063141 368.0
168.105316 124.0
168.291916 148.0
168.338394 80.0
168.361633 132.0
168.42363 176.0
168.503708 100.0
168.555389 152.0
168.700134 212.0
169.070007 156.0
169.308197 44.0
169.354813 220.0
169.717636 96.0
169.87326 56.0
170.026337 96.0
170.04451 164.0
170.073059 56.0
170.317139 112.0
170.376892 148.0
170.400284 76.0
170.545807 112.0
170.623795 140.0
170.838486 188.0
170.961945 92.0
171.057098 172.0
171.115524 156.0
171.188431 208.0
171.274384 120.0
171.43071 192.0
171.521942 140.0
171.978409 164.0
172.07724 136.0
172.242142 124.0
172.320526 136.0
172.712662 132.0
173.029312 128.0
173.092148 160.0
173.149765 40.0
173.414398 124.0
173.624146 56.0
174.060837 264.0
174.188477 136.0
174.359253 172.0
174.401321 152.0
174.751083 188.0
174.77739 52.0
175.001129 212.0
175.051163 188.0
175.067474 184.0
175.483307 156.0
175.570328 112.0
175.681107 176.0
176.079941 176.0
176.10347 128.0
176.219696 168.0
176.47345 176.0
176.592453 152.0
176.613602 68.0
176.788223 252.0
176.822632 76.0
177.067719 564.0
177.116531 56.0
177.238403 176.0
177.264908 52.0
177.458405 200.0
177.564484 236.0
177.604263 152.0
177.710388 92.0
177.864319 88.0
177.95723 68.0
178.070297 268.0
178.188309 128.0
178.388565 192.0
178.555145 148.0
178.853149 200.0
179.0681 192.0
179.10878 48.0
179.372589 132.0
179.994232 188.0
180.063675 140.0
180.165176 152.0
180.306259 144.0
180.69722 132.0
180.782837 248.0
181.047882 180.0
181.06517 164.0
181.120193 172.0
181.519531 92.0
181.725647 148.0
182.064316 152.0
182.281921 116.0
182.400177 216.0
182.728271 212.0
183.035126 180.0
183.068466 220.0
183.105133 208.0
183.53093 164.0
183.738617 84.0
183.832443 176.0
183.873535 236.0
184.064865 188.0
184.105942 140.0
184.527267 152.0
185.058838 160.0
185.085098 168.0
185.101456 212.0
185.152359 176.0
185.179199 180.0
185.212906 236.0
185.241745 144.0
185.520874 96.0
185.870758 164.0
185.927734 120.0
185.982025 192.0
186.036316 28.0
186.06514 156.0
186.10231 144.0
186.229568 196.0
186.519867 56.0
186.653076 128.0
186.840759 100.0
186.941437 184.0
187.001312 96.0
187.04364 160.0
187.063919 128.0
187.087341 160.0
187.230011 132.0
187.374374 52.0
187.595139 60.0
187.911499 152.0
188.064316 188.0
188.200821 104.0
188.244507 136.0
188.705338 148.0
188.892273 168.0
188.927841 152.0
189.009918 88.0
189.122131 116.0
189.37677 108.0
189.46991 112.0
189.565811 148.0
189.656265 160.0
189.752213 188.0
189.782364 184.0
189.919495 308.0
190.103317 196.0
190.336655 192.0
190.798904 136.0
190.842239 196.0
191.08429 136.0
191.128311 148.0
191.234589 168.0
191.343002 96.0
191.516495 144.0
191.573135 164.0
191.59494 176.0
191.626694 60.0
191.75621 128.0
191.783768 176.0
192.104248 184.0
192.122162 152.0
192.200684 164.0
192.316116 40.0
192.680649 76.0
192.705505 32.0
192.730377 132.0
192.818817 100.0
192.865799 68.0
192.992767 108.0
193.102356 476.0
193.156143 172.0
193.19487 128.0
193.471619 116.0
193.906525 204.0
193.942551 128.0
194.083939 148.0
194.118759 244.0
194.366882 136.0
194.652802 100.0
194.916702 148.0
195.097366 192.0
195.119598 96.0
195.351608 152.0
195.559128 168.0
195.648209 116.0
195.717819 80.0
195.78743 184.0
195.92392 132.0
195.94899 116.0
196.04039 80.0
196.088455 148.0
196.129105 184.0
196.548477 168.0
196.615448 124.0
197.070267 276.0
197.087585 184.0
197.266266 164.0
197.291428 144.0
197.436829 164.0
197.50499 152.0
197.971375 100.0
198.0858 160.0
198.11792 192.0
198.259918 52.0
198.559906 52.0
198.789505 148.0
198.933105 200.0
199.022949 80.0
199.07132 264.0
199.094543 344.0
199.202698 88.0
199.379715 136.0
199.42749 52.0
199.472473 112.0
199.961899 132.0
200.043533 184.0
200.081589 432.0
200.251907 124.0
200.389938 140.0
200.460388 104.0
200.721741 168.0
200.818436 164.0
200.897415 176.0
200.973602 108.0
201.007462 128.0
201.068085 168.0
201.09166 220.0
201.125992 132.0
201.275635 140.0
201.38295 128.0
201.457581 124.0
201.730515 124.0
201.849258 160.0
201.891678 64.0
201.95108 176.0
202.308411 148.0
202.339691 172.0
202.593658 192.0
202.613495 208.0
202.633331 236.0
202.834534 156.0
202.906448 220.0
203.015991 140.0
203.123779 100.0
203.430252 112.0
203.523956 136.0
203.614822 48.0
204.103622 156.0
204.197464 200.0
204.669876 116.0
204.712585 128.0
204.929077 56.0
205.051254 124.0
205.058792 108.0
205.069855 180.0
205.134277 172.0
205.194153 116.0
205.379517 160.0
205.402344 68.0
205.987534 84.0
206.324753 128.0
206.413391 180.0
206.459152 96.0
206.645081 136.0
206.670837 124.0
207.011475 184.0
207.060165 172.0
207.108856 132.0
207.169235 204.0
207.295074 80.0
207.323746 132.0
207.578888 160.0
207.647705 116.0
207.710815 192.0
207.819839 160.0
208.083893 220.0
208.158554 164.0
208.428574 176.0
208.463058 104.0
208.716019 112.0
208.831055 160.0
209.105682 116.0
209.358551 72.0
209.418228 164.0
209.441269 200.0
209.780838 168.0
209.827438 152.0
209.908173 128.0
210.062073 188.0
210.097519 160.0
210.257248 156.0
210.647049 236.0
210.707718 88.0
210.762619 64.0
211.057205 144.0
211.103409 228.0
211.575363 172.0
212.070312 480.0
212.111298 136.0
212.192474 84.0
212.238861 156.0
212.572449 224.0
212.830811 164.0
212.856934 84.0
212.955688 216.0
213.072754 504.0
213.121277 152.0
213.161957 104.0
213.222992 200.0
213.519547 240.0
213.551529 60.0
213.804657 180.0
213.903625 200.0
213.964752 204.0
214.065933 732.0
214.086792 144.0
214.471649 192.0
214.634903 132.0
214.745728 148.0
214.824493 56.0
214.98497 68.0
215.087128 92.0
215.113388 144.0
215.449234 192.0
215.767792 316.0
216.07489 204.0
216.19487 176.0
216.262177 76.0
216.36171 140.0
216.461258 116.0
216.645782 184.0
216.91539 48.0
217.105988 184.0
217.141174 148.0
217.290787 60.0
217.425766 184.0
217.472717 64.0
217.728165 100.0
217.819214 80.0
217.963181 188.0
218.112396 124.0
218.333588 140.0
218.71019 96.0
219.120758 280.0
219.243301 168.0
219.352356 156.0
219.384781 124.0
219.683945 216.0
219.962982 188.0
220.07518 112.0
220.128326 472.0
220.152817 192.0
220.178528 144.0
220.39122 208.0
220.429642 156.0
220.51535 92.0
220.950043 192.0
220.976669 124.0
221.003296 40.0
221.026978 248.0
221.130554 124.0
221.945236 144.0
222.161758 156.0
222.250763 84.0
222.431793 120.0
222.580246 180.0
222.746567 56.0
222.865402 104.0
223.069321 316.0
223.320251 56.0
223.370819 132.0
223.433304 192.0
223.513641 76.0
224.077118 336.0
224.243271 52.0
224.338654 112.0
224.407227 112.0
224.621964 208.0
224.708481 156.0
225.072525 420.0
225.31456 120.0
225.371323 40.0
225.410172 88.0
225.813766 204.0
225.837708 144.0
225.891541 36.0
226.088501 780.0
226.274612 64.0
226.36145 268.0
226.583099 188.0
226.756897 152.0
227.090363 888.0
227.129639 168.0
227.227707 200.0
227.476807 120.0
227.500824 116.0
227.608902 108.0
227.717026 96.0
227.789108 116.0
227.9814 108.0
228.06131 232.0
228.069366 136.0
228.091568 252.0
228.108887 508.0
228.134705 176.0
228.236923 164.0
228.782684 92.0
229.019409 68.0
229.040497 200.0
229.096252 196.0
229.236328 128.0
229.353867 136.0
229.49556 124.0
229.676514 76.0
229.833389 152.0
230.059753 132.0
230.086929 116.0
230.116943 272.0
230.558151 40.0
230.582336 152.0
230.636734 144.0
231.178116 156.0
231.847412 112.0
231.898941 132.0
231.941376 156.0
232.053543 76.0
232.092957 208.0
232.129349 144.0
232.372009 44.0
232.578369 72.0
232.684631 172.0
232.748383 156.0
232.79393 68.0
232.827347 108.0
232.863785 48.0
232.891129 60.0
233.10379 372.0
233.234482 68.0
233.274002 88.0
233.304398 100.0
233.377365 48.0
233.998077 192.0
234.148682 140.0
234.17775 112.0
234.351395 80.0
234.445847 188.0
234.643982 128.0
234.783295 152.0
234.80986 172.0
234.915421 108.0
235.116806 116.0
235.211426 156.0
235.238358 252.0
235.63591 100.0
236.019318 188.0
236.115845 120.0
236.268784 124.0
236.581406 108.0
236.761612 160.0
237.080704 200.0
237.208954 220.0
237.601501 192.0
237.925537 152.0
238.006653 112.0
238.040436 132.0
238.061935 144.0
238.095001 548.0
238.132568 136.0
238.218582 48.0
238.516663 196.0
238.722656 76.0
238.91951 168.0
238.953354 108.0
239.087204 704.0
239.130569 148.0
239.153381 140.0
239.205719 56.0
239.251892 96.0
239.362732 196.0
239.590668 40.0
240.025253 380.0
240.100281 816.0
240.272003 120.0
240.353668 232.0
240.52507 220.0
240.549759 140.0
240.704132 120.0
240.929611 176.0
241.072464 792.0
241.110062 484.0
241.148117 156.0
241.255661 176.0
241.507675 128.0
241.687119 204.0
241.829468 116.0
241.981171 68.0
242.090759 384.0
242.131958 132.0
242.266098 144.0
242.290878 52.0
242.507797 124.0
242.557388 196.0
242.628693 148.0
242.941925 84.0
243.06604 132.0
243.087753 112.0
243.118057 288.0
243.696381 72.0
243.87973 140.0
244.038284 176.0
244.098572 112.0
244.1409 156.0
244.187546 64.0
244.556824 140.0
244.654312 132.0
244.78508 124.0
244.922119 60.0
245.02803 204.0
245.04985 76.0
245.143326 220.0
245.364639 160.0
245.492477 108.0
245.791946 184.0
245.99794 76.0
246.072876 164.0
246.211426 76.0
246.488312 172.0
246.516434 136.0
246.544556 72.0
246.566437 148.0
247.103958 112.0
247.132446 192.0
247.664658 128.0
247.824432 208.0
248.075165 188.0
248.115921 120.0
248.175491 148.0
248.363663 204.0
248.401306 68.0
248.523651 72.0
248.834396 196.0
249.060501 296.0
249.104477 160.0
249.239578 132.0
249.494171 176.0
249.58078 220.0
249.852692 188.0
250.096619 148.0
250.222702 228.0
250.55162 120.0
250.841553 184.0
250.8983 164.0
251.074493 128.0
251.100922 124.0
251.279922 44.0
251.305161 172.0
251.406143 164.0
251.440857 128.0
251.772354 172.0
251.882904 100.0
252.065674 132.0
252.114685 260.0
252.233658 80.0
252.372772 104.0
252.429688 104.0
252.787155 88.0
253.069641 896.0
253.096497 280.0
253.198715 152.0
253.629623 76.0
253.693024 164.0
253.715225 144.0
253.851562 104.0
253.956223 144.0
254.019669 176.0
254.079376 4940.0
254.112228 600.0
254.14975 52.0
254.232254 128.0
254.295731 52.0
254.33699 64.0
254.404419 132.0
254.498901 136.0
254.698975 152.0
254.806992 88.0
254.91185 64.0
255.04158 264.0
255.083618 1408.0
255.121719 7224.0
255.309235 48.0
255.341034 60.0
255.372833 40.0
255.404648 116.0
255.447845 172.0
255.566895 156.0
255.598724 124.0
255.782654 116.0
255.911667 76.0
255.961609 56.0
256.095856 2084.0
256.122864 1100.0
256.343872 172.0
256.385315 76.0
256.426727 48.0
256.454224 148.0
256.490479 108.0
256.67395 164.0
256.814178 116.0
256.972046 88.0
256.994385 84.0
257.098877 264.0
257.109558 288.0
257.117249 276.0
257.132538 508.0
257.220978 124.0
257.335907 184.0
257.434906 112.0
257.577057 96.0
257.760742 120.0
257.933319 152.0
257.955688 124.0
258.106323 180.0
258.148468 136.0
258.205109 40.0
258.278656 144.0
258.337677 124.0
258.397034 44.0
258.441833 148.0
258.758698 112.0
258.857971 164.0
259.02771 72.0
259.078979 128.0
259.1091 140.0
259.14624 88.0
259.296875 72.0
259.575775 136.0
259.651093 304.0
259.902985 48.0
260.091339 272.0
260.156525 224.0
260.256042 132.0
260.307434 108.0
260.464813 168.0
260.602966 72.0
260.850433 172.0
260.969391 116.0
261.397186 124.0
261.448669 188.0
261.503387 180.0
261.625732 156.0
261.667572 188.0
261.731964 116.0
261.934875 120.0
262.086304 108.0
262.195862 128.0
262.218414 148.0
262.30545 144.0
262.447296 148.0
262.705322 176.0
262.854675 136.0
263.03125 168.0
263.075806 196.0
263.086792 156.0
263.094086 156.0
263.175446 176.0
263.502747 28.0
263.683716 128.0
263.910004 108.0
264.013489 120.0
264.068481 124.0
264.098297 164.0
264.149353 112.0
264.252869 28.0
264.317596 164.0
264.343475 52.0
264.550629 104.0
264.688721 116.0
264.754608 132.0
264.777283 132.0
264.942474 140.0
265.007294 64.0
265.029968 156.0
265.107788 392.0
265.140137 152.0
265.247101 40.0
265.33139 124.0
265.60379 112.0
265.641937 164.0
265.830902 68.0
266.097015 232.0
266.125122 272.0
266.200989 236.0
266.25946 152.0
266.529083 152.0
266.55661 44.0
266.613586 76.0
266.915894 104.0
267.084717 816.0
267.122681 864.0
267.237915 92.0
267.530853 92.0
267.563385 252.0
267.595947 200.0
267.648041 172.0
267.726196 52.0
268.091797 728.0
268.128754 552.0
268.37796 48.0
268.420349 216.0
268.668213 124.0
268.818329 128.0
268.893372 132.0
269.01416 124.0
269.059875 148.0
269.099396 636.0
269.137848 1312.0
269.24057 172.0
269.301514 124.0
269.749176 48.0
269.772064 44.0
269.814575 156.0
269.883209 124.0
269.968231 112.0
270.036926 116.0
270.105225 224.0
270.112366 168.0
270.141937 156.0
270.501556 48.0
270.707855 156.0
270.730774 128.0
270.79953 148.0
270.835571 156.0
270.940399 168.0
271.048523 72.0
271.077332 476.0
271.109375 124.0
271.144043 196.0
271.225494 116.0
271.274689 48.0
271.356628 148.0
271.500916 52.0
271.550598 140.0
271.743652 104.0
271.812561 116.0
271.920868 36.0
272.05545 184.0
272.088043 156.0
272.125275 324.0
272.216339 56.0
272.344421 136.0
272.40683 168.0
272.577698 92.0
272.663147 144.0
272.755157 192.0
272.906403 140.0
273.044525 100.0
273.133514 152.0
273.31427 168.0
273.53479 144.0
273.666473 172.0
273.801483 76.0
273.859222 132.0
274.094696 124.0
274.120026 180.0
274.444092 228.0
274.764008 96.0
274.876221 156.0
274.929016 168.0
275.064331 48.0
275.140259 192.0
275.305359 88.0
275.490326 140.0
275.536591 148.0
275.67868 76.0
275.741455 92.0
276.115051 132.0
276.591522 180.0
276.942505 144.0
277.021057 208.0
277.141296 68.0
277.336334 164.0
277.907227 180.0
278.059875 196.0
278.114014 408.0
278.292267 200.0
278.345398 124.0
278.408478 100.0
278.454987 72.0
278.510071 68.0
278.79718 160.0
279.120453 1352.0
279.731842 132.0
279.808411 88.0
279.924957 164.0
280.134674 344.0
280.378021 152.0
280.444672 120.0
280.544678 180.0
280.694733 128.0
280.87149 44.0
280.90152 168.0
281.099762 660.0
281.141754 736.0
281.211884 220.0
281.340973 116.0
281.478912 128.0
281.584991 168.0
281.729401 68.0
281.816284 140.0
281.981598 152.0
282.109711 3492.0
282.170868 176.0
282.236847 88.0
282.284271 172.0
282.314362 56.0
282.337769 80.0
282.376617 116.0
282.388794 156.0
282.421387 132.0
282.518402 168.0
282.648895 400.0
282.689026 44.0
282.723938 108.0
282.745941 140.0
282.769348 100.0
282.792786 184.0
282.886505 84.0
282.9133 76.0
282.950134 296.0
282.981934 112.0
283.025635 284.0
283.067291 296.0
283.118622 57920.0
283.194366 116.0
283.199646 284.0
283.229401 176.0
283.253204 88.0
283.293396 116.0
283.338928 136.0
283.381805 92.0
283.4086 64.0
283.445251 68.0
283.489227 116.0
283.493988 120.0
283.546783 92.0
283.572327 92.0
283.583527 96.0
283.610413 76.0
283.634644 156.0
283.66864 120.0
283.726959 124.0
283.757568 68.0
283.829498 156.0
283.865143 48.0
283.896362 132.0
283.935303 48.0
283.985596 76.0
284.043274 188.0
284.122742 11264.0
284.209747 64.0
284.230438 200.0
284.28421 64.0
284.324463 84.0
284.354675 72.0
284.411743 136.0
284.438232 72.0
284.498657 68.0
284.586639 204.0
284.638611 84.0
284.77774 136.0
284.820648 144.0
284.883026 92.0
284.915466 136.0
284.95578 64.0
285.013214 256.0
285.034302 88.0
285.130157 3376.0
285.187653 140.0
285.240845 132.0
285.456635 164.0
285.480164 48.0
285.554321 88.0
285.584412 36.0
285.607971 60.0
285.652344 164.0
285.688721 136.0
285.735809 80.0
285.772827 140.0
285.840118 108.0
285.875793 92.0
285.940155 132.0
286.015747 196.0
286.067352 812.0
286.135712 636.0
286.183441 136.0
286.205444 96.0
286.233978 36.0
286.301331 104.0
286.346008 44.0
286.422577 64.0
286.456268 100.0
286.483215 96.0
286.50769 148.0
286.557312 80.0
286.847168 84.0
286.938171 172.0
287.065979 168.0
287.108246 436.0
287.210449 60.0
287.28894 64.0
287.451874 96.0
287.538635 56.0
287.579132 104.0
287.646637 52.0
287.697266 216.0
287.855988 52.0
287.920135 108.0
287.96405 104.0
288.085754 432.0
288.116943 332.0
288.153229 68.0
288.247833 136.0
289.16095 120.0
289.445312 52.0
289.482574 136.0
289.529968 52.0
289.601105 96.0
290.043549 244.0
290.207733 44.0
290.434937 100.0
290.500427 144.0
291.056 156.0
291.474884 64.0
291.496399 56.0
291.606354 168.0
291.653961 76.0
291.718536 176.0
292.010956 136.0
292.127472 144.0
292.487335 112.0
293.093567 188.0
293.137329 676.0
293.240082 88.0
293.395599 136.0
293.439972 88.0
293.517731 212.0
293.939209 260.0
294.109131 180.0
294.14386 540.0
294.277161 92.0
294.495697 116.0
294.639191 176.0
294.792938 120.0
294.970673 36.0
295.118011 544.0
295.147003 188.0
295.186066 76.0
295.210022 68.0
295.483673 100.0
295.514465 124.0
295.54007 72.0
295.819061 76.0
296.12149 1152.0
296.178619 136.0
296.692627 64.0
296.754364 212.0
297.131653 2360.0
297.286041 92.0
297.430206 40.0
297.46109 92.0
297.667084 88.0
297.75296 112.0
297.814758 128.0
297.934662 156.0
298.051819 100.0
298.091309 188.0
298.132324 1360.0
298.178986 120.0
298.306152 72.0
298.337097 160.0
298.498077 204.0
298.615631 96.0
298.667236 232.0
298.791077 120.0
298.941406 180.0
299.113129 12332.0
299.180664 196.0
299.201935 136.0
299.231598 56.0
299.312836 176.0
299.403778 68.0
299.512268 80.0
299.633759 68.0
299.669037 132.0
299.7276 80.0
299.768524 128.0
299.796539 204.0
299.865601 92.0
299.965424 76.0
300.11499 1772.0
300.337067 124.0
300.38269 48.0
300.415375 116.0
300.465485 40.0
300.499969 76.0
300.524139 148.0
300.572449 72.0
300.617706 68.0
300.658722 60.0
300.803192 176.0
300.9245 72.0
301.127625 1208.0
301.209778 84.0
301.299103 96.0
301.491028 116.0
301.529053 128.0
301.580902 76.0
301.622375 72.0
301.656921 76.0
301.684601 176.0
301.760651 44.0
302.04303 360.0
302.133118 252.0
302.177277 116.0
302.287262 120.0
302.327942 68.0
302.352173 40.0
302.508911 228.0
302.750305 116.0
303.058258 464.0
303.138763 172.0
303.172974 152.0
303.21109 100.0
303.287354 140.0
303.356659 60.0
303.460693 148.0
303.505768 152.0
303.755463 96.0
303.904663 108.0
303.991394 84.0
304.039001 184.0
304.081635 160.0
304.239258 136.0
304.446167 132.0
304.651123 144.0
305.064667 132.0
305.214172 116.0
305.819916 132.0
306.115448 156.0
306.449829 164.0
306.474243 44.0
306.627563 84.0
306.982422 144.0
307.195923 212.0
308.113251 124.0
308.904175 92.0
309.075623 104.0
309.139618 192.0
309.660248 168.0
309.7435 168.0
309.845917 120.0
310.106598 712.0
310.139313 752.0
310.277008 44.0
310.585602 164.0
310.655762 88.0
310.690857 52.0
310.729431 140.0
310.841736 112.0
310.971588 84.0
311.048798 116.0
311.104523 224.0
311.148346 17684.0
311.234863 36.0
311.267944 180.0
311.299011 112.0
311.34726 56.0
311.403442 28.0
311.466675 32.0
311.510864 144.0
311.572052 44.0
311.72052 80.0
311.76181 48.0
311.84967 56.0
311.998596 268.0
312.03598 164.0
312.095764 328.0
312.153198 6856.0
312.289185 40.0
312.348969 60.0
312.394714 92.0
312.458038 68.0
312.575836 124.0
312.586823 60.0
312.605103 100.0
312.647095 120.0
312.718445 60.0
312.7677 80.0
312.825592 72.0
312.874878 72.0
313.034271 164.0
313.076508 136.0
313.104492 80.0
313.119263 52.0
313.162384 3784.0
313.313049 56.0
313.384033 124.0
313.422791 72.0
313.503845 80.0
313.549652 116.0
313.581909 52.0
313.651855 52.0
313.756104 120.0
313.937439 56.0
314.028107 68.0
314.111206 148.0
314.168549 1144.0
314.251404 80.0
314.277893 180.0
314.420776 48.0
314.473724 116.0
314.57608 88.0
314.639648 64.0
314.666504 144.0
314.756165 60.0
314.794983 104.0
314.869171 172.0
314.91861 128.0
315.003387 68.0
315.049133 80.0
315.105652 2460.0
315.174957 272.0
315.207947 40.0
315.331177 68.0
315.35437 156.0
315.512268 44.0
315.791626 52.0
315.880066 160.0
315.950836 124.0
316.05777 144.0
316.112976 1848.0
316.198517 96.0
316.318878 56.0
316.343658 132.0
316.390472 88.0
316.584412 72.0
316.651703 44.0
316.690674 160.0
317.071625 184.0
317.121338 416.0
317.250763 76.0
317.52359 92.0
317.761261 176.0
317.842865 164.0
317.956451 232.0
318.10907 136.0
318.133911 172.0
318.339844 108.0
318.396667 96.0
318.424835 56.0
318.762604 84.0
318.819458 76.0
319.178497 72.0
319.452362 192.0
319.92923 56.0
319.954163 80.0
320.048523 132.0
320.20697 124.0
320.70224 100.0
321.015991 84.0
321.169159 156.0
321.315613 32.0
321.429779 168.0
321.519012 164.0
321.940277 84.0
322.079559 176.0
322.129578 152.0
322.452209 96.0
322.504791 116.0
322.687103 164.0
323.230804 176.0
323.696136 104.0
323.749878 172.0
324.116425 160.0
324.143646 356.0
324.462921 100.0
324.904053 108.0
325.130066 232.0
325.152527 440.0
325.295227 144.0
325.399353 244.0
325.438843 28.0
325.525024 152.0
325.582489 112.0
325.70462 168.0
325.862671 68.0
326.105988 204.0
326.156769 484.0
326.189728 184.0
326.700378 148.0
326.858673 92.0
326.959442 120.0
326.999023 112.0
327.144775 1136.0
327.25824 156.0
327.293976 52.0
327.387878 88.0
327.787567 84.0
327.83313 140.0
327.924683 176.0
327.975159 72.0
328.029236 120.0
328.118896 920.0
328.14859 1124.0
328.371765 52.0
328.436707 148.0
328.47998 180.0
328.573792 72.0
328.746979 112.0
329.074951 196.0
329.119537 220.0
329.159424 1156.0
329.230743 92.0
329.299377 88.0
329.396881 36.0
329.812439 72.0
329.8974 96.0
330.070892 172.0
330.125854 268.0
330.157959 352.0
330.186249 184.0
330.2789 144.0
330.398285 72.0
330.474243 124.0
330.579193 76.0
330.713104 124.0
330.966522 72.0
331.035339 212.0
331.082581 1036.0
331.124847 128.0
331.16037 144.0
331.343201 48.0
331.397552 124.0
331.430176 132.0
331.792633 44.0
331.867218 104.0
332.017456 188.0
332.053711 232.0
332.088928 444.0
332.162537 132.0
332.202423 160.0
332.274994 140.0
333.062775 184.0
333.087433 192.0
333.69873 48.0
334.066071 148.0
334.117004 124.0
334.164307 108.0
334.207947 84.0
334.455444 52.0
334.604675 132.0
334.721191 168.0
334.772186 56.0
335.364471 176.0
336.048004 160.0
336.380127 124.0
336.846924 144.0
336.986359 132.0
337.172729 128.0
337.589508 212.0
337.878479 196.0
338.161163 324.0
338.412842 136.0
338.643555 188.0
339.105225 240.0
339.174347 744.0
339.446167 36.0
339.493835 92.0
339.585541 64.0
339.978088 116.0
340.057281 160.0
340.110229 176.0
340.179108 388.0
340.235046 116.0
340.444336 124.0
340.532471 192.0
340.757751 112.0
341.103302 172.0
341.196075 228.0
341.238068 96.0
341.315277 44.0
341.59848 56.0
341.856018 164.0
341.914917 64.0
342.126282 1004.0
342.205719 240.0
342.500336 144.0
342.685944 148.0
342.786102 128.0
342.839294 176.0
342.898285 88.0
342.927765 176.0
343.151581 168.0
343.27063 116.0
343.405853 104.0
343.764954 160.0
343.945801 212.0
344.045471 200.0
344.078705 68.0
344.146332 6528.0
344.301849 104.0
344.333496 80.0
344.743591 52.0
345.1492 1464.0
345.281067 116.0
345.315704 176.0
345.364716 76.0
345.564484 48.0
345.642181 28.0
345.727295 136.0
345.816132 52.0
345.971619 128.0
346.152802 192.0
346.701324 192.0
346.875854 132.0
346.908875 40.0
347.082153 516.0
347.150513 160.0
347.22406 40.0
347.394684 84.0
347.53476 144.0
348.069183 368.0
348.610626 92.0
348.984283 176.0
349.096008 924.0
349.33017 84.0
349.389679 148.0
349.42688 76.0
349.531067 124.0
349.880951 128.0
350.026154 44.0
350.096924 136.0
350.42099 84.0
350.59613 88.0
350.722839 152.0
350.879425 140.0
351.114349 164.0
351.177765 188.0
351.431427 160.0
351.696411 120.0
351.927856 128.0
352.062286 120.0
352.114594 84.0
353.181702 104.0
353.636322 204.0
354.187042 432.0
354.336578 184.0
355.189789 224.0
356.092194 100.0
356.151764 204.0
356.182343 164.0
356.57309 60.0
357.125793 220.0
357.194946 180.0
357.381622 32.0
357.554718 76.0
357.709045 116.0
357.799408 168.0
358.371887 208.0
358.594238 148.0
359.031586 128.0
359.069305 84.0
359.108978 124.0
359.397491 124.0
359.831573 104.0
360.04303 136.0
360.121735 468.0
360.150726 172.0
360.209229 52.0
361.123962 140.0
361.960358 64.0
362.085327 56.0
362.157288 256.0
362.479309 172.0
363.116211 196.0
363.23468 120.0
363.537354 196.0
364.101562 216.0
364.175171 168.0
364.920013 76.0
365.075928 196.0
365.163391 116.0
365.296539 224.0
365.471558 180.0
365.608551 80.0
365.920685 184.0
366.175812 176.0
367.174377 356.0
367.403259 104.0
367.567322 48.0
367.616943 68.0
368.187347 220.0
368.659485 140.0
368.732117 236.0
368.999695 176.0
369.202789 140.0
369.252075 64.0
369.313263 40.0
369.370667 92.0
369.512207 80.0
370.319946 184.0
370.354401 92.0
370.979034 128.0
371.03653 268.0
371.174561 68.0
371.811371 120.0
371.865112 108.0
371.980255 92.0
372.072418 152.0
372.176544 164.0
372.391144 144.0
373.044373 144.0
373.121246 120.0
373.178741 304.0
374.029144 116.0
374.22934 128.0
374.341003 64.0
374.387238 56.0
374.687683 164.0
374.884186 88.0
374.918884 124.0
375.109589 1116.0
375.539612 152.0
376.072083 144.0
376.116547 468.0
376.238068 152.0
376.431122 124.0
376.589478 176.0
376.812286 124.0
377.002869 176.0
377.127472 3652.0
377.633087 52.0
377.691101 36.0
377.749115 48.0
377.803284 60.0
377.871735 196.0
378.1297 1552.0
378.201874 152.0
378.35672 104.0
378.47287 92.0
378.685852 152.0
378.729797 196.0
378.767212 96.0
378.865875 144.0
378.926025 44.0
379.123566 264.0
379.367859 128.0
379.561829 132.0
380.137909 276.0
380.178528 148.0
380.318237 128.0
380.434692 92.0
381.164886 104.0
381.20871 160.0
381.989136 52.0
382.098083 164.0
382.221954 276.0
382.642975 32.0
382.670227 56.0
383.211609 128.0
383.386963 32.0
383.632538 88.0
384.030273 112.0
384.133301 136.0
384.226166 184.0
384.955231 88.0
387.215729 56.0
388.035309 136.0
388.250397 96.0
388.493591 124.0
388.626984 52.0
388.725098 212.0
388.988068 68.0
389.66748 180.0
390.689697 76.0
391.146179 68.0
391.177673 52.0
391.217041 96.0
391.469025 140.0
391.575378 160.0
391.898407 116.0
392.1716 184.0
392.221558 52.0
392.450226 116.0
392.635559 104.0
393.116882 140.0
393.227386 188.0
393.96579 48.0
394.068512 100.0
394.115936 180.0
394.211456 144.0
394.277954 100.0
394.546753 124.0
394.772125 124.0
395.10437 188.0
395.223083 124.0
395.840607 104.0
395.876251 92.0
396.089752 132.0
396.227142 572.0
396.418976 168.0
397.092926 156.0
397.227814 92.0
397.374603 88.0
397.43808 128.0
397.521423 144.0
397.649902 180.0
397.84494 136.0
397.934235 148.0
398.230865 132.0
398.359192 108.0
398.394928 96.0
398.740631 56.0
399.47229 128.0
399.679169 108.0
400.117004 140.0
400.734344 64.0
400.778168 196.0
401.220581 136.0
403.34436 100.0
403.700195 72.0
404.108215 164.0
404.140228 112.0
404.488403 68.0
404.844757 104.0
405.156219 340.0
405.193237 168.0
406.027039 196.0
406.141815 84.0
406.652924 108.0
406.737213 184.0
406.797424 100.0
407.448029 56.0
407.504272 120.0
407.673035 96.0
408.223785 84.0
408.384674 136.0
409.24588 160.0
409.632507 108.0
409.777557 96.0
409.970978 128.0
410.023346 84.0
410.108002 56.0
410.862335 188.0
411.039612 44.0
411.212311 112.0
411.326172 84.0
411.370575 96.0
411.548218 164.0
411.988464 160.0
412.214722 164.0
412.24707 40.0
412.558289 48.0
413.711273 160.0
414.301697 204.0
414.416016 44.0
414.614563 168.0
415.076721 88.0
416.172302 164.0
416.221039 84.0
416.277893 244.0
417.025421 140.0
417.114838 68.0
417.314056 52.0
417.444183 108.0
418.050323 108.0
418.1539 352.0
418.31488 60.0
418.44516 124.0
418.481812 116.0
419.035736 104.0
419.14563 124.0
419.194672 108.0
419.414734 92.0
419.667511 60.0
419.777588 56.0
419.904022 68.0
420.038635 136.0
420.165009 172.0
421.684174 204.0
422.166595 188.0
422.19931 120.0
423.021759 116.0
423.243042 300.0
423.4599 180.0
423.717957 140.0
424.24118 152.0
424.427063 384.0
424.816681 96.0
425.013611 156.0
425.263519 252.0
425.419952 124.0
425.473328 108.0
425.933258 64.0
425.982544 104.0
426.483887 156.0
426.57431 84.0
427.096558 44.0
427.133575 72.0
427.261108 116.0
427.820801 100.0
428.71463 148.0
428.900085 156.0
429.580505 44.0
430.083923 180.0
430.484406 116.0
431.153687 188.0
431.319 184.0
431.604279 108.0
432.022003 120.0
432.249573 148.0
433.14801 204.0
433.268158 72.0
433.790314 148.0
434.312805 112.0
434.731842 108.0
435.02655 100.0
436.098267 96.0
436.696991 72.0
436.755249 36.0
436.946594 156.0
437.025665 64.0
437.113037 208.0
437.354431 68.0
437.398529 196.0
437.533417 76.0
437.566742 68.0
438.41925 148.0
438.624908 132.0
438.712433 112.0
438.983459 132.0
439.225372 56.0
439.571655 128.0
439.7052 96.0
440.281342 76.0
440.435883 80.0
440.486023 44.0
441.443146 52.0
441.819611 56.0
442.208771 104.0
442.45993 140.0
442.648346 140.0
442.983429 76.0
443.477875 76.0
443.557526 120.0
444.182343 132.0
444.950317 120.0
445.156067 144.0
445.294647 152.0
446.038391 184.0
446.187012 168.0
446.349487 112.0
446.542938 108.0
446.702789 48.0
446.740662 136.0
446.778503 164.0
447.603485 148.0
447.632965 148.0
448.184784 148.0
449.306335 72.0
449.652344 128.0
449.686096 144.0
449.762085 112.0
450.05835 180.0
450.382812 176.0
451.688965 100.0
451.930115 64.0
452.222107 84.0
452.886871 168.0
453.658112 148.0
453.823456 92.0
454.514862 104.0
455.291718 128.0
455.487122 88.0
455.695282 96.0
455.729279 156.0
456.01825 256.0
456.728333 136.0
456.826172 164.0
456.924011 72.0
457.102722 184.0
457.741272 160.0
458.653015 108.0
458.764221 140.0
458.802216 112.0
458.947174 72.0
459.149628 128.0
459.403534 136.0
459.535797 136.0
459.697937 236.0
460.18457 136.0
460.321198 128.0
460.457855 84.0
460.607361 148.0
460.637268 184.0
460.799591 196.0
461.077362 204.0
461.192902 4536.0
461.372314 84.0
461.526215 112.0
461.616028 172.0
461.65451 48.0
461.928253 52.0
462.069427 80.0
462.196777 2024.0
462.317627 80.0
462.968353 60.0
463.002594 40.0
463.194977 380.0
463.263885 108.0
463.392426 140.0
463.478394 60.0
463.546692 184.0
463.615234 92.0
463.899841 152.0
463.945312 168.0
464.149536 196.0
464.203827 188.0
464.262604 112.0
464.532806 32.0
465.193695 76.0
465.822418 108.0
465.897095 172.0
467.286682 156.0
467.432983 100.0
467.566376 76.0
467.648163 68.0
467.768677 96.0
468.612793 112.0
469.099792 64.0
469.298126 116.0
469.380066 108.0
469.569824 92.0
470.152252 44.0
470.782562 140.0
470.892395 84.0
471.504028 116.0
472.09201 96.0
472.194366 144.0
472.338531 172.0
472.883728 112.0
473.576508 148.0
473.771454 180.0
474.018402 188.0
475.080688 132.0
476.183258 84.0
476.861053 176.0
476.891479 168.0
476.934937 76.0
477.213196 92.0
477.822083 300.0
478.858154 72.0
479.102081 108.0
479.479462 224.0
480.013763 100.0
480.126434 152.0
480.462311 120.0
480.549561 136.0
480.734436 184.0
480.817871 116.0
480.853058 124.0
481.365814 156.0
481.636597 28.0
481.955536 76.0
482.073517 120.0
482.235229 116.0
482.296417 212.0
482.353241 100.0
482.43631 120.0
482.87796 164.0
482.952301 92.0
483.083527 108.0
483.573608 164.0
483.604248 144.0
483.744324 80.0
483.851105 92.0
483.941345 96.0
484.401215 156.0
484.475677 84.0
484.515106 100.0
484.558929 144.0
484.598358 68.0
484.664093 84.0
484.826233 44.0
484.935791 84.0
485.058533 148.0
485.220734 76.0
485.29306 80.0
485.343506 52.0
485.475067 88.0
485.546753 68.0
485.606628 40.0
485.733826 148.0
485.944427 80.0
485.995911 152.0
486.146271 188.0
486.27124 120.0
486.306335 144.0
486.339386 64.0
486.422791 76.0
486.457886 148.0
486.572052 88.0
486.670532 104.0
486.778412 68.0
486.846893 148.0
486.933716 112.0
486.972198 148.0
487.211487 988.0
487.36264 116.0
487.4151 188.0
487.451843 188.0
487.50531 120.0
487.560394 88.0
487.591156 80.0
487.644745 144.0
487.727417 48.0
487.802155 140.0
487.868073 164.0
487.912048 52.0
487.94281 76.0
488.021973 152.0
488.055542 152.0
488.10376 172.0
488.201538 416.0
488.268219 108.0
488.312195 88.0
488.38208 140.0
488.437622 228.0
488.540955 132.0
488.587677 148.0
488.68161 196.0
488.715607 132.0
488.755768 140.0
488.838867 284.0
488.883179 180.0
488.901215 256.0
488.952454 240.0
488.997253 384.0
489.051392 316.0
489.073059 320.0
489.085022 176.0
489.133209 236.0
489.227417 119780.0
489.332336 108.0
489.408478 160.0
489.479065 56.0
489.527039 112.0
489.582245 316.0
489.655609 92.0
489.78772 268.0
489.898438 268.0
489.954041 252.0
490.000244 272.0
490.065277 116.0
490.114075 196.0
490.229645 37600.0
490.336029 204.0
490.343109 288.0
490.43454 204.0
490.463135 128.0
490.546448 352.0
490.57428 112.0
490.62616 116.0
490.675964 132.0
490.748535 84.0
490.795258 144.0
490.833008 96.0
490.876038 108.0
490.956329 40.0
491.004242 140.0
491.044312 168.0
491.126373 48.0
491.22644 9012.0
491.324005 124.0
491.4198 64.0
491.477112 124.0
491.573822 48.0
491.615753 92.0
491.688416 188.0
491.701965 76.0
491.793823 92.0
491.835327 48.0
491.852783 104.0
491.89444 144.0
491.958466 56.0
492.042999 160.0
492.147552 84.0
492.228333 1564.0
492.388947 72.0
492.419769 76.0
492.44696 196.0
492.512756 100.0
492.568268 132.0
492.59726 224.0
492.645538 68.0
492.688782 96.0
492.705322 88.0
492.764221 104.0
492.780762 48.0
492.799164 88.0
492.903076 184.0
492.962891 104.0
493.029297 148.0
493.103302 140.0
493.153381 124.0
493.230377 452.0
493.306732 136.0
493.364716 140.0
493.430359 188.0
493.461121 72.0
493.490845 60.0
493.546906 100.0
493.605835 124.0
493.65918 104.0
493.788361 120.0
493.825043 96.0
493.890411 88.0
493.898254 72.0
493.965698 116.0
494.00827 116.0
494.039795 64.0
494.082092 44.0
494.147705 116.0
494.243591 72.0
494.301361 36.0
494.399506 252.0
494.438812 72.0
494.526917 44.0
494.589233 60.0
494.737091 72.0
494.79364 124.0
494.847565 88.0
494.892059 68.0
494.962891 128.0
495.002747 72.0
495.09259 84.0
495.233063 68.0
495.2995 172.0
495.330505 120.0
495.547577 32.0
495.724823 68.0
495.769135 104.0
495.933136 36.0
496.256744 56.0
496.531708 72.0
496.824463 76.0
497.04187 72.0
497.272644 44.0
497.383606 88.0
497.570068 40.0
497.698822 84.0
497.759583 76.0
497.951965 48.0
498.049072 60.0
498.276245 40.0
498.58728 48.0
498.742859 52.0
498.928375 60.0
499.200806 48.0
499.492859 64.0
499.601105 48.0
501.302002 116.0
501.524841 48.0
501.850281 84.0
502.541656 104.0
502.787079 52.0
503.237946 56.0
503.367432 52.0
503.907898 108.0
504.922638 32.0
505.056824 120.0
505.262604 44.0
505.826477 60.0
506.740112 76.0
507.040344 56.0
507.30481 128.0
508.269104 76.0
508.623657 128.0
508.740356 88.0
508.789764 108.0
508.875061 120.0
508.915466 48.0
509.126526 116.0
509.379974 80.0
510.861542 120.0
510.911041 88.0
511.415039 60.0
511.568085 76.0
511.851746 84.0
511.88324 60.0
512.842896 104.0
513.478638 112.0
513.541748 76.0
514.904846 100.0
515.916992 44.0
518.053101 104.0
519.884888 64.0
520.134521 88.0
521.584839 116.0
522.365723 108.0
524.442139 88.0
526.239563 112.0
526.626404 136.0
528.337402 96.0
529.060486 68.0
529.545898 112.0
532.669617 60.0
532.853394 48.0
533.722107 48.0
534.237244 60.0
536.383179 108.0
540.026367 44.0
541.373169 80.0
541.69281 76.0
544.680176 100.0
557.073608 64.0
557.703308 60.0
560.00885 44.0
562.80542 64.0
563.310791 96.0
570.623474 116.0
571.78894 32.0
573.641846 72.0
576.773315 84.0
577.136658 116.0
579.568237 60.0
583.850281 108.0
583.97052 84.0
589.007629 112.0
592.447144 116.0
594.391418 48.0
596.557617 92.0
598.912842 128.0
601.980591 72.0
603.050537 52.0
609.66217 72.0
609.731018 44.0
612.624329 100.0
615.035706 40.0
616.112244 80.0
618.297852 88.0
623.893066 112.0
626.241882 64.0
628.086121 76.0
631.292664 144.0
633.179382 108.0
638.263062 48.0
644.099243 76.0
645.701538 228.0
646.845093 64.0
647.321045 116.0
647.786987 60.0
654.088928 68.0
656.845764 124.0
657.090637 120.0
657.468201 60.0
660.856201 68.0
665.104736 104.0
667.13385 128.0
669.691345 104.0
670.335327 112.0
670.618774 108.0
671.732605 104.0
672.088562 72.0
675.638184 80.0
676.989136 88.0
679.0 96.0
680.19342 148.0
681.128113 56.0
684.987915 68.0
685.847717 160.0
689.992676 96.0
694.616943 28.0
695.661255 76.0
699.898926 92.0
706.227661 108.0
706.295471 104.0
709.37207 128.0
709.478088 60.0
710.347839 132.0
712.816711 76.0
713.066467 44.0
716.8078 124.0
717.223511 76.0
720.014038 88.0
730.751343 72.0
731.49939 116.0
733.762085 104.0
739.093201 132.0
742.978027 72.0
746.39447 88.0
747.553162 48.0
747.92865 64.0
749.431763 44.0
754.781128 100.0
759.694092 44.0
760.056213 52.0
760.934387 92.0
761.901001 140.0
764.397339 40.0
767.901184 52.0
769.667175 48.0
773.365723 68.0
773.515198 76.0
775.736572 64.0
778.488647 60.0
779.588623 128.0
780.350159 116.0
782.575745 76.0
784.263733 72.0
788.075378 208.0
795.277344 64.0
798.255005 100.0
808.375366 52.0
812.369934 112.0
817.887207 44.0
817.925354 104.0
823.047302 76.0
824.321167 136.0
825.292908 60.0
827.942444 40.0
828.005432 132.0
837.470947 76.0
839.851501 28.0
845.93634 60.0
847.152466 104.0
856.982849 172.0
859.472656 96.0
861.305847 152.0
864.609375 88.0
865.364502 60.0
869.732056 96.0
871.928772 156.0
872.287292 60.0
874.952271 116.0
877.846802 84.0
882.950562 244.0
893.726929 164.0
894.43512 32.0
897.765747 152.0
898.481567 36.0
899.000671 84.0
899.460266 56.0
901.102539 40.0
901.736023 120.0
903.715454 104.0
905.816833 84.0
920.419922 224.0
924.488281 156.0
924.681946 28.0
929.093384 272.0
935.212769 188.0
940.314331 76.0
943.221802 196.0
946.507263 92.0
948.265503 156.0
948.36969 52.0
952.235229 156.0
953.125977 84.0
958.96637 40.0
959.527344 164.0
961.464294 100.0
964.132263 180.0
965.343994 204.0
969.882263 44.0
970.02478 164.0
982.687195 136.0
984.928406 160.0
985.755615 180.0
989.888123 120.0
1002.395447 48.0
1004.204834 40.0
1006.135803 164.0
1007.948547 80.0
1008.081238 168.0
1011.927185 228.0
1012.440125 52.0
1013.244568 84.0
1013.586731 212.0
1015.53302 172.0
1015.640869 72.0
1015.964417 208.0
1016.287964 104.0
1024.387817 188.0
1025.075928 192.0
1030.327271 180.0
1031.125977 140.0
1032.084961 192.0
1032.698853 60.0
1033.722534 60.0
1034.266479 160.0
1034.509766 156.0
1035.720093 128.0
1039.034424 284.0
1043.388916 60.0
1043.517456 156.0
1047.237061 128.0
1047.365845 180.0
1047.597778 180.0
1048.635254 164.0
1049.473267 48.0
1049.563599 172.0
1050.292358 180.0
1051.634521 160.0
1053.10022 116.0
1053.726807 188.0
1054.237305 136.0
1054.566895 232.0
1054.883667 164.0
1055.98938 144.0
1057.72998 204.0
1058.604004 80.0
1058.727051 92.0
1060.100464 176.0
1060.230103 116.0
1061.649902 148.0
1063.057617 204.0
1067.878418 152.0
1069.544067 120.0
1071.374023 208.0
1071.452148 172.0
1072.983765 80.0
1074.777466 48.0
1075.423584 260.0
1075.4823 48.0
1080.088989 164.0
1081.005005 152.0
1081.49585 116.0
1083.689697 140.0
1084.640015 164.0
1084.797363 44.0
1090.205811 216.0
1090.567261 212.0
1092.349365 184.0
1093.724609 164.0
1093.974731 212.0
1094.639771 212.0
1095.608032 64.0
1097.684204 232.0
1098.706665 120.0
1098.957397 80.0
1099.973755 52.0
1103.607422 108.0
1105.750732 172.0
1106.094971 136.0
1107.24707 208.0
1108.585327 128.0
1108.797363 176.0
1110.454956 80.0
1111.25769 200.0
1111.506958 160.0
1118.375122 192.0
1118.494995 72.0
1119.873291 204.0
1119.933228 148.0
1123.206055 108.0
1123.306152 52.0
1124.473877 68.0
1127.706543 68.0
1130.682861 132.0
1131.405884 160.0
1132.43042 144.0
1133.361572 84.0
1133.482178 112.0
1138.832764 184.0
1139.171875 172.0
1141.739502 104.0
1144.801636 152.0
1144.869019 120.0
1144.996948 140.0
1145.11145 184.0
1150.262939 40.0
1150.479004 168.0
1150.74231 32.0
1150.850342 152.0
1151.032715 56.0
1151.147461 160.0
1151.68103 180.0
1152.005249 136.0
1157.422852 128.0
1157.822388 92.0
1158.194946 172.0
1159.821167 188.0
1161.896362 72.0
1163.973267 72.0
1164.088745 76.0
1164.693237 92.0
1165.719116 128.0
1169.230957 236.0
1170.399292 128.0
1171.972778 192.0
1172.722412 144.0
1175.580078 216.0
1178.577881 172.0
1179.98584 220.0
1180.731201 160.0
1180.915894 180.0
1184.67395 200.0
1185.345459 136.0
1186.47644 136.0
1186.538086 128.0
1188.630127 168.0
1188.685059 196.0
1189.700806 36.0
1190.112793 184.0
1192.44165 180.0
1192.599731 220.0
1193.699829 172.0
1194.002319 84.0
1194.476929 156.0
1194.95105 180.0
1195.01355 228.0
1195.103027 32.0
1196.658569 44.0
1198.284058 188.0
1198.773315 156.0
1199.793457 204.0
1201.917847 224.0
1204.769409 188.0
1205.2323 92.0
1207.741943 180.0
1208.039307 216.0
1208.980347 136.0
1209.527222 200.0
1221.226074 200.0
1222.193115 208.0
1225.096558 128.0
1225.695679 188.0
1225.848999 120.0
1227.026978 152.0
1227.396606 120.0
1229.238159 180.0
1229.873291 152.0
1229.950073 60.0
1232.855591 180.0
1233.72937 104.0
1237.003296 176.0
1237.122314 196.0
1238.102661 156.0
1238.768066 160.0
1240.32373 120.0
1240.800415 96.0
1242.925781 232.0
1246.078369 140.0
1246.127563 68.0
1246.415649 196.0
1246.514038 72.0
1247.125488 156.0
1247.828491 200.0
1248.974854 128.0
1251.269043 248.0
1254.509766 36.0
1255.870728 132.0
1259.143555 172.0
1260.608154 228.0
1260.685913 176.0
1263.719482 52.0
1264.250244 224.0
1264.427124 56.0
1265.234131 144.0
1266.013062 148.0
1266.416748 184.0
1269.528076 188.0
1270.719849 120.0
1271.94043 140.0
1272.806641 196.0
1274.980469 192.0
1277.853271 108.0
1278.863892 84.0
1279.248291 56.0
1279.597046 104.0
1281.185303 164.0
1282.4823 280.0
1283.544556 240.0
1285.013916 148.0
1285.292236 156.0
1286.141479 72.0
1286.327148 76.0
1287.19104 140.0
1290.721069 140.0
1291.629395 68.0
1292.273193 248.0
1292.459229 148.0
1293.117676 184.0
1294.39917 252.0
1294.542358 184.0
1295.043701 184.0
1295.545166 88.0
1296.698853 168.0
1297.974976 136.0
1299.524292 236.0
1300.414185 212.0
1301.103271 212.0
1301.728027 164.0
1302.503662 144.0
1308.400635 168.0
1308.530273 104.0
1309.682495 148.0
1310.59021 124.0
1311.613647 180.0
1316.613892 96.0
1317.19165 144.0
1317.668457 140.0
1318.586182 128.0
1319.186157 112.0
1319.598267 136.0
1320.26355 112.0
1322.933594 84.0
1327.61438 180.0
1327.802979 72.0
1328.419434 40.0
1335.225586 156.0
1335.291016 132.0
1335.887451 128.0
1336.047607 140.0
1336.680542 120.0
1340.656738 196.0
1342.056396 232.0
1342.224121 80.0
1343.442139 120.0
1344.930786 180.0
1348.195557 188.0
1349.847778 44.0
1351.961914 136.0
1352.349854 56.0
1352.415771 256.0
1355.279297 140.0
1355.91687 180.0
1355.990112 44.0
1356.180664 32.0
1356.473877 48.0
1356.608887 144.0
1356.906372 180.0
1357.603027 108.0
1359.055542 100.0
1360.692261 144.0
1361.470703 156.0
1363.696777 172.0
1363.983521 132.0
1364.939331 44.0
1365.020142 180.0
1365.108398 132.0
1365.608521 180.0
1366.71936 220.0
1367.602539 44.0
1368.957275 204.0
1370.349487 144.0
1371.432739 184.0
1373.947388 212.0
1376.220703 92.0
1376.360962 108.0
1377.010864 160.0
1377.291504 140.0
1379.153564 92.0
1379.286621 52.0
1380.321777 224.0
1381.068726 148.0
1381.312866 48.0
1384.399292 152.0
1386.784912 152.0
1387.652344 136.0
1387.733887 128.0
1387.793213 132.0
1389.878174 184.0
1390.567749 152.0
1391.532715 56.0
1391.822388 176.0
1392.401611 44.0
1393.709106 140.0
1393.85022 172.0
1394.868408 116.0
1395.240234 116.0
1395.475464 136.0
1396.273804 108.0
1399.250366 140.0
1399.927979 200.0
1401.827637 176.0
1403.430298 200.0
1404.429565 104.0
1404.638428 140.0
1405.700806 84.0
1406.899658 132.0
1407.840454 120.0
1410.125488 184.0
1411.105957 172.0
1411.621948 160.0
1412.534424 304.0
1413.357422 196.0
1414.300415 164.0
1416.91394 112.0
1417.416016 120.0
1417.640747 64.0
1417.753174 176.0
1419.005005 176.0
1420.482422 220.0
1420.872559 204.0
1422.140747 244.0
1424.303345 188.0
1426.4375 192.0
1428.287354 144.0
1430.815918 184.0
1432.766479 120.0
1434.401855 172.0
1436.015503 144.0
1437.116943 184.0
1437.192383 132.0
1437.463989 200.0
1437.788574 196.0
1439.804321 152.0
1440.907227 84.0
1441.368164 176.0
1442.993286 172.0
1445.300171 176.0
1448.305786 160.0
1450.328979 144.0
1451.883301 188.0
1453.628174 176.0
1454.569336 208.0
1457.128662 52.0
1457.371826 200.0
1457.713745 72.0
1458.306519 148.0
1458.86145 116.0
1459.332764 108.0
1460.694214 176.0
1460.914795 168.0
1461.470215 64.0
1461.888672 212.0
1466.534546 240.0
1470.004761 160.0
1470.157349 56.0
1470.584839 232.0
1471.050415 192.0
1471.455078 208.0
1471.752808 144.0
1473.242188 144.0
1473.570679 184.0
1473.9375 88.0
1475.970825 36.0
1476.284302 84.0
1477.783691 136.0
1478.380493 180.0
1479.161255 144.0
1479.536377 152.0
1480.531738 100.0
1481.037354 68.0
1481.849365 136.0
1483.504761 164.0
1484.240845 176.0
1484.547607 164.0
1485.514038 120.0
1485.598389 80.0
1486.457764 172.0
1487.969849 52.0
1488.707031 40.0
1489.528931 60.0
1490.012817 232.0
1492.203369 196.0
1499.038696 192.0
1499.709229 60.0
1500.950439 168.0
1502.83252 192.0
1503.982422 160.0
1504.885742 160.0
1505.209961 84.0
