>compound N-[3-(3-cyanopyrazolo[1,5-a]pyrimidin-7-yl)phenyl]-N-ethylacetamide
>formula C17H15N5O
>ionization [M+H]+
>parentmass 306.135742
#inchi InChI=1S/C17H15N5O/c1-3-21(12(2)23)15-6-4-5-13(9-15)16-7-8-19-17-14(10-18)11-20-22(16)17/h4-9,11H,3H2,1-2H3
#inchikey HUNXMJYCHXQEGX
#Ion_Source LC-ESI
#Instrument qTof
#Compound_Source Commercial
#PI Dorrestein
#Data_Collector Garg_Neha
#Scan -1
#Precursor_MZ 306.135
#ExactMass 305.128
#Charge 1
#CAS_Number N/A
#Pubmed_ID N/A
#Smiles CCN(C(=O)C)c1cccc(c1)c2ccnc3c(C#N)cnn23
#INCHI_AUX N/A
#Library_Class 1
#SpectrumID CCMSLIB00000079240
#IonMode Positive
#UpdateWorkflowName UPDATE-SINGLE-ANNOTATED-GOLD
#LibraryQualityString Gold
#TaskID 278b19f5865741e282cec7349aa7e7a1
##Scan# 1197
#SpectrumFile NCP003672_E27F27G26H26_BE5_01_15741.mzXML
#LibraryName NIHcollectionI_05062014.mgf
#MQScore -1
#Organism NIHcollectionI_05062014
#TIC_Query 0
#RT_Query -1
#MZErrorPPM -1
#SharedPeaks 0
#MassDiff 0
#LibMZ -1
#SpecMZ 306.135
#SpecCharge 0
#internalFilename spec-00000.mgf

>collision 10
47.322811 176.0
48.665779 156.0
49.273033 160.0
50.30666 216.0
51.039146 148.0
51.342461 232.0
51.448051 200.0
52.203148 148.0
53.18269 144.0
60.00267 160.0
67.051292 144.0
67.075745 156.0
67.706421 172.0
68.026154 208.0
73.501671 160.0
74.286972 192.0
75.899567 220.0
76.099106 184.0
80.598053 172.0
84.227753 160.0
85.452347 164.0
86.22683 176.0
88.376541 184.0
89.966545 184.0
91.05439 216.0
91.812767 164.0
92.466148 180.0
92.709366 200.0
93.057732 216.0
93.864685 156.0
94.244942 140.0
94.951508 148.0
99.075867 160.0
100.070869 168.0
102.613403 180.0
103.673622 140.0
109.441124 184.0
110.966362 156.0
112.015022 208.0
114.152664 200.0
114.418633 180.0
115.543343 252.0
115.633217 236.0
116.220375 180.0
116.482292 160.0
117.056694 168.0
117.228867 140.0
117.688316 164.0
118.063934 672.0
118.518898 140.0
119.036758 248.0
119.062439 120.0
121.391891 144.0
122.733231 160.0
124.63237 148.0
126.1054 176.0
126.288742 236.0
127.663536 348.0
129.073502 136.0
130.042496 176.0
130.068878 180.0
130.508194 148.0
131.280121 140.0
134.406754 188.0
135.060547 164.0
136.073669 148.0
136.777618 144.0
136.991852 176.0
138.198853 192.0
138.617981 148.0
139.366501 160.0
139.425247 144.0
140.048721 160.0
140.348022 184.0
142.048447 312.0
142.986969 184.0
143.036957 144.0
143.06041 348.0
144.00502 156.0
144.046249 200.0
144.077835 248.0
145.051926 184.0
145.075516 364.0
146.097504 836.0
147.068726 168.0
147.096497 336.0
147.750168 148.0
151.004868 224.0
152.416901 184.0
152.82753 180.0
154.05777 236.0
155.060455 1224.0
155.268143 168.0
156.076004 512.0
156.991562 144.0
157.074585 196.0
158.089935 164.0
158.466324 184.0
159.398544 200.0
159.666199 152.0
160.184692 188.0
160.247665 216.0
160.572845 148.0
161.047348 172.0
161.745209 180.0
161.952835 156.0
162.693283 148.0
163.374344 148.0
165.047791 348.0
166.45163 164.0
166.901291 144.0
167.060883 144.0
167.343842 284.0
168.051117 124.0
169.06218 292.0
169.327026 160.0
170.071564 608.0
170.361969 200.0
171.062012 204.0
171.100067 176.0
173.024628 156.0
175.43103 220.0
175.700027 200.0
179.074463 208.0
179.114426 156.0
179.917084 168.0
180.598495 144.0
181.071487 188.0
182.070374 932.0
183.075577 116.0
184.094421 116.0
185.401657 184.0
186.077072 176.0
187.088409 216.0
188.076141 288.0
188.110672 148.0
188.788254 168.0
189.480759 152.0
192.057938 204.0
192.528488 200.0
193.060257 164.0
193.083969 148.0
193.565491 180.0
194.063721 276.0
194.233398 180.0
195.069214 188.0
196.083939 296.0
197.094986 208.0
198.107773 120.0
199.099472 148.0
200.538727 228.0
200.853622 188.0
201.741196 176.0
202.43364 120.0
202.723343 164.0
203.066376 140.0
203.884018 140.0
204.697617 216.0
205.107864 164.0
205.672638 200.0
207.600952 168.0
207.798874 172.0
208.07373 784.0
208.678055 180.0
209.082062 5984.0
209.76593 140.0
210.084488 804.0
210.582504 140.0
210.906113 140.0
210.935013 144.0
211.10849 204.0
211.279144 184.0
211.519318 156.0
211.675659 140.0
212.072556 200.0
216.149734 148.0
218.064087 148.0
218.12056 164.0
219.065918 7488.0
220.070099 988.0
220.366165 180.0
221.001846 148.0
221.081131 820.0
221.250458 152.0
221.570312 144.0
222.08989 3464.0
223.092651 684.0
224.06572 152.0
225.035172 144.0
225.274094 156.0
227.06546 124.0
227.097 164.0
228.088211 200.0
228.788757 160.0
230.091125 152.0
232.07103 288.0
234.076523 1336.0
234.215317 156.0
235.08551 7244.0
235.136093 156.0
235.856262 96.0
235.983246 184.0
236.04599 192.0
236.09346 39312.0
236.348877 108.0
236.818634 228.0
236.961395 100.0
237.094971 5512.0
237.202347 168.0
237.468918 156.0
237.830627 128.0
238.080551 736.0
238.106857 408.0
238.338333 100.0
238.409943 148.0
239.082092 120.0
239.525131 164.0
239.634613 148.0
240.100464 156.0
243.056824 148.0
243.483078 96.0
245.939209 144.0
246.081711 220.0
247.095963 208.0
248.091003 812.0
249.100052 908.0
251.056335 184.0
251.12886 200.0
251.169876 188.0
251.624802 148.0
253.094711 124.0
254.073853 336.0
254.121429 160.0
259.079712 160.0
259.105957 148.0
260.092987 4760.0
260.715942 224.0
261.096313 1856.0
261.793091 160.0
262.073425 784.0
262.104919 756.0
262.157104 164.0
263.073578 156.0
263.114105 412.0
263.402496 160.0
264.075775 144.0
264.124146 17388.0
264.385376 172.0
264.990906 144.0
265.127716 3232.0
266.12793 420.0
268.074066 152.0
268.745911 132.0
271.090698 140.0
273.992004 148.0
274.1073 144.0
275.235413 244.0
277.096405 124.0
277.61795 200.0
277.85675 168.0
278.10321 1044.0
279.112213 236.0
279.697754 184.0
280.108765 140.0
281.087494 164.0
285.939392 116.0
286.102295 308.0
287.121399 116.0
288.123718 1216.0
288.594849 140.0
289.136261 136.0
289.203766 148.0
290.233612 152.0
291.275513 164.0
292.019867 200.0
292.690277 184.0
298.531525 152.0
302.132446 140.0
303.884338 132.0
304.402679 148.0
304.565918 144.0
304.711731 156.0
304.937683 164.0
305.031708 148.0
305.326355 116.0
305.389099 96.0
305.446136 168.0
305.509186 208.0
305.578522 140.0
305.670532 200.0
305.697327 112.0
305.860474 268.0
305.965637 352.0
306.055908 136.0
306.135742 132272.0
306.351715 272.0
306.384003 148.0
306.426178 116.0
306.457153 176.0
306.496094 216.0
306.548065 156.0
306.614014 264.0
306.673859 168.0
306.708527 596.0
306.782898 144.0
307.044006 148.0
307.137878 16496.0
307.195557 148.0
307.282715 112.0
307.335449 120.0
307.628448 100.0
307.800507 148.0
308.071167 160.0
308.141876 2132.0
308.886353 100.0
308.95636 220.0
308.99231 132.0
309.031616 152.0
309.056122 140.0
309.135803 120.0
309.20932 272.0
309.357483 120.0
309.585876 140.0
310.223663 128.0
311.79834 188.0
348.170441 148.0
388.170319 164.0
429.187317 300.0
466.082001 140.0
545.230042 308.0
550.376404 156.0
1358.61084 172.0
1583.730835 268.0
1642.409546 168.0
1862.357056 164.0
1888.914185 224.0
