>compound anagrelide hydrochloride
>formula C10H7Cl2N3O
>ionization [M+H]+
>parentmass 256.005676
#inchi InChI=1S/C10H7Cl2N3O/c11-6-1-2-7-5(9(6)12)3-15-4-8(16)14-10(15)13-7/h1-2H,3-4H2,(H,13,14,16)
#inchikey OTBXOEAOVRKTNQ
#Ion_Source LC-ESI
#Instrument qTof
#Compound_Source Commercial
#PI Dorrestein
#Data_Collector Garg_Neha
#Scan -1
#Precursor_MZ 256.004
#ExactMass 254.997
#Charge 1
#CAS_Number N/A
#Pubmed_ID N/A
#Smiles Clc1ccc2N=C3NC(=O)CN3Cc2c1Cl
#INCHI_AUX N/A
#Library_Class 1
#SpectrumID CCMSLIB00000079114
#IonMode Positive
#UpdateWorkflowName UPDATE-SINGLE-ANNOTATED-GOLD
#LibraryQualityString Gold
#TaskID 278b19f5865741e282cec7349aa7e7a1
##Scan# 1103
#SpectrumFile NCP003512_C2_D11_BD5_01_15729.mzXML
#LibraryName NIHcollectionI_05062014.mgf
#MQScore -1
#Organism NIHcollectionI_05062014
#TIC_Query 0
#RT_Query -1
#MZErrorPPM -1
#SharedPeaks 0
#MassDiff 0
#LibMZ -1
#SpecMZ 256.004
#SpecCharge 0
#internalFilename spec-00000.mgf

>collision 10
45.253208 148.0
46.421471 228.0
46.608795 220.0
46.648209 152.0
46.725723 184.0
46.744774 184.0
47.078758 216.0
47.409821 196.0
47.918232 160.0
48.455673 232.0
48.505562 180.0
48.565186 156.0
48.84716 164.0
49.926262 272.0
50.588692 180.0
50.833889 144.0
50.994366 156.0
51.338898 164.0
51.437344 232.0
51.533028 168.0
51.744701 152.0
51.840668 208.0
52.337681 240.0
52.575531 148.0
53.44062 144.0
55.537033 140.0
55.915901 224.0
56.302032 200.0
56.538239 144.0
57.834103 152.0
58.015877 148.0
58.099285 188.0
58.246536 172.0
58.524841 140.0
58.666531 228.0
58.849606 220.0
58.964172 108.0
59.225803 140.0
59.250313 200.0
59.564793 164.0
59.943268 144.0
60.790684 144.0
60.921104 144.0
60.972378 164.0
61.045444 176.0
62.159229 212.0
63.074261 228.0
63.579506 292.0
64.129791 184.0
64.472931 196.0
65.113754 148.0
65.925713 160.0
66.066376 180.0
66.39357 152.0
66.432495 160.0
67.342407 152.0
67.61544 148.0
68.13195 212.0
68.83194 196.0
69.048424 180.0
70.668663 152.0
71.022133 228.0
71.728348 148.0
72.11657 204.0
72.228165 164.0
72.33815 184.0
73.302849 152.0
73.580872 212.0
73.998032 188.0
74.081947 164.0
74.861717 148.0
75.158203 144.0
75.737343 172.0
75.749466 160.0
75.877708 176.0
76.50312 156.0
76.553612 176.0
76.703445 184.0
77.162575 260.0
77.882805 172.0
78.055031 196.0
78.59066 176.0
78.754677 184.0
78.892502 212.0
78.973846 176.0
80.66127 156.0
80.949318 156.0
81.085472 204.0
81.449692 176.0
82.182404 240.0
82.71553 228.0
83.084435 160.0
83.108788 156.0
83.427155 164.0
84.281387 200.0
84.411171 160.0
84.720482 172.0
86.886681 148.0
86.929359 148.0
88.169624 196.0
88.337898 164.0
88.74054 232.0
90.006836 168.0
90.057823 144.0
90.328117 212.0
90.809219 144.0
90.852852 180.0
92.025208 172.0
92.665924 172.0
93.630211 176.0
93.832535 148.0
94.880386 208.0
95.529007 224.0
96.365356 196.0
98.218552 196.0
98.404053 188.0
98.461311 156.0
99.021004 176.0
99.757141 140.0
99.960007 140.0
100.01606 148.0
100.133202 172.0
100.561859 208.0
101.337746 196.0
101.443962 236.0
101.626465 184.0
101.730621 212.0
103.219727 244.0
103.531364 152.0
105.255783 156.0
106.698204 236.0
107.006805 156.0
107.465019 100.0
108.986176 148.0
109.139992 208.0
109.562485 160.0
109.927361 252.0
110.44339 144.0
110.621246 172.0
110.702904 152.0
111.99662 160.0
112.123032 212.0
112.56604 168.0
113.821724 160.0
113.94001 248.0
114.023529 168.0
115.084106 132.0
115.972145 156.0
116.635391 212.0
118.32016 180.0
118.866348 272.0
120.864494 228.0
120.960793 188.0
121.675446 208.0
121.725945 160.0
122.427437 144.0
122.612488 172.0
122.96315 304.0
123.288345 160.0
124.06691 160.0
124.615082 192.0
125.104355 160.0
125.162239 196.0
125.717293 164.0
126.132706 156.0
126.360802 152.0
126.497314 184.0
126.564484 144.0
126.999237 192.0
127.035332 132.0
127.394295 180.0
127.737595 256.0
127.825974 176.0
127.877731 140.0
127.994797 176.0
128.02182 160.0
128.134445 236.0
128.335022 180.0
128.377869 164.0
128.551575 260.0
128.657654 188.0
129.044174 328.0
129.5849 164.0
129.673782 236.0
130.133774 156.0
130.329102 176.0
132.361435 184.0
132.962036 172.0
133.111252 176.0
134.790497 184.0
135.095688 148.0
135.574966 168.0
135.625946 200.0
135.993469 292.0
136.075989 180.0
136.433762 184.0
137.002121 688.0
138.007996 404.0
138.101013 148.0
139.003128 168.0
139.056946 180.0
139.075714 160.0
139.898438 148.0
140.009094 152.0
140.681076 192.0
141.108688 144.0
141.264771 248.0
142.267166 160.0
142.428635 156.0
142.6306 156.0
142.894562 172.0
143.232605 164.0
143.747574 176.0
144.261078 180.0
144.970062 180.0
145.968124 140.0
146.415726 168.0
146.760315 192.0
146.827835 188.0
147.30574 152.0
148.829071 160.0
149.957809 140.0
150.753403 252.0
150.785172 200.0
150.88295 160.0
151.01889 4644.0
151.0737 204.0
151.149551 196.0
151.565811 188.0
152.02475 176.0
152.137863 196.0
153.014404 1488.0
154.018646 132.0
154.426392 144.0
154.984406 204.0
155.705246 192.0
155.903992 176.0
156.01088 244.0
156.685287 172.0
157.141541 192.0
157.983459 148.0
158.020981 148.0
158.832642 248.0
158.955566 156.0
159.840073 152.0
161.885605 184.0
163.007477 400.0
163.133041 144.0
164.009872 728.0
164.633743 164.0
164.850876 172.0
165.004486 172.0
165.275345 140.0
165.922256 144.0
166.00441 136.0
166.068436 212.0
166.644516 152.0
167.045563 168.0
167.073761 5200.0
167.17421 172.0
167.604233 160.0
168.077332 1044.0
168.207718 212.0
168.530533 192.0
169.887146 144.0
169.91568 176.0
170.009094 144.0
170.424561 152.0
171.937485 176.0
171.972519 2964.0
172.640213 144.0
172.970367 636.0
173.968704 2272.0
174.337372 196.0
174.68074 192.0
174.966553 328.0
174.993011 140.0
175.386429 208.0
175.985611 152.0
176.812637 184.0
177.376801 168.0
177.623474 140.0
178.940247 204.0
180.024063 212.0
180.079208 208.0
180.360687 148.0
180.628082 160.0
181.372467 212.0
181.697922 164.0
181.755966 176.0
182.03244 192.0
182.051239 168.0
182.096481 7960.0
182.435455 196.0
182.715134 196.0
183.101334 1672.0
183.143143 144.0
183.509644 148.0
183.970123 192.0
184.107178 188.0
184.454498 184.0
185.176926 140.0
185.987732 1720.0
186.128784 172.0
186.419098 224.0
186.975128 140.0
187.984131 972.0
188.050735 172.0
188.132629 224.0
188.720016 276.0
188.829391 176.0
189.095886 168.0
190.051147 140.0
190.490402 144.0
190.701981 140.0
191.031937 152.0
191.315384 156.0
191.990051 116.0
192.608673 172.0
192.713638 148.0
192.854584 160.0
193.094666 148.0
193.366241 204.0
193.496353 148.0
194.577576 164.0
195.085968 188.0
195.544922 172.0
195.895752 172.0
196.132599 152.0
196.970062 120.0
197.047913 200.0
197.237946 192.0
197.302231 248.0
197.702209 164.0
198.220276 184.0
198.539841 184.0
198.758804 136.0
198.781097 156.0
198.822418 312.0
198.894928 164.0
198.91861 144.0
198.983582 108268.0
199.067017 172.0
199.18074 136.0
199.222122 284.0
199.278809 260.0
199.387299 120.0
199.557556 136.0
199.603806 176.0
199.683777 124.0
199.872116 136.0
199.894699 204.0
199.986664 5560.0
200.11261 100.0
200.80452 184.0
200.886871 192.0
200.945831 136.0
200.980087 57600.0
201.079361 160.0
201.21489 176.0
201.305176 108.0
201.38118 132.0
201.435364 120.0
201.630447 104.0
201.852905 152.0
201.984131 2264.0
202.065033 176.0
202.629852 184.0
202.972366 276.0
203.021011 156.0
203.255096 100.0
203.311264 132.0
203.502869 152.0
203.611298 156.0
203.77037 160.0
205.906754 168.0
207.707062 192.0
209.558411 212.0
210.14946 144.0
210.689346 144.0
210.978333 184.0
211.470078 232.0
211.51059 140.0
212.789017 160.0
214.706573 204.0
216.993195 176.0
217.192612 144.0
218.99292 172.0
220.839035 184.0
220.898193 180.0
222.317383 204.0
224.712692 204.0
226.59024 164.0
227.780136 136.0
227.812744 112.0
227.882278 244.0
227.90799 236.0
227.958466 152.0
228.009644 42312.0
228.093903 184.0
228.167297 144.0
228.48613 96.0
229.012283 4036.0
229.089737 188.0
229.267502 180.0
229.50885 176.0
229.933151 188.0
229.974014 184.0
230.006912 19348.0
230.458435 160.0
230.531937 160.0
230.667755 196.0
231.009567 976.0
231.039886 300.0
232.007309 160.0
232.840363 168.0
233.019577 148.0
233.521149 172.0
233.931915 160.0
234.202927 140.0
235.370941 160.0
236.909332 168.0
237.10849 180.0
237.22496 192.0
238.701736 144.0
240.000107 112.0
240.028885 200.0
241.764954 216.0
242.688034 160.0
243.156433 152.0
246.015182 212.0
246.244888 152.0
246.769867 152.0
248.483017 172.0
250.189514 196.0
251.999786 156.0
253.290497 160.0
253.613693 184.0
254.119965 160.0
254.172836 128.0
254.374954 216.0
254.571808 144.0
255.070618 140.0
255.12326 164.0
255.18187 140.0
255.293167 188.0
255.52536 188.0
255.601181 212.0
255.699371 140.0
255.757202 136.0
255.830994 112.0
255.883942 172.0
255.908447 160.0
255.945923 464.0
256.005676 146800.0
256.224396 112.0
256.277283 228.0
256.363647 104.0
256.42511 108.0
256.449738 192.0
256.488525 228.0
256.529327 244.0
256.620056 208.0
256.734802 176.0
256.770844 160.0
257.007446 11704.0
257.164459 192.0
257.246429 148.0
257.393829 196.0
257.502686 140.0
257.605652 160.0
257.718903 212.0
257.803284 108.0
257.841064 148.0
257.863464 168.0
257.895569 144.0
258.002197 72840.0
258.087341 196.0
258.274597 100.0
258.470581 236.0
258.580414 124.0
258.629089 152.0
258.672668 232.0
258.726349 132.0
258.780365 224.0
258.841888 144.0
258.863708 188.0
258.962341 208.0
259.004639 5116.0
259.09256 184.0
259.574982 108.0
260.007111 168.0
260.384094 200.0
260.456818 132.0
260.613068 172.0
260.709778 140.0
260.766571 160.0
260.814178 140.0
261.879639 112.0
274.011261 152.0
297.043671 176.0
452.118317 168.0
1136.999146 176.0
1401.846313 180.0
1475.9021 196.0
1493.794434 192.0
1501.026245 208.0
1514.148071 208.0
1526.782471 172.0
1589.480103 140.0
1616.245239 176.0
1624.248535 144.0
1631.282715 208.0
1648.926636 220.0
1814.551758 148.0
1815.993408 140.0
1818.250122 144.0
1847.39917 152.0
1849.238892 152.0
1863.044189 200.0
1887.287964 260.0
1890.410645 152.0
1910.052979 164.0
1922.878418 176.0
1952.367432 160.0
1957.973267 144.0
1968.652832 176.0
1970.04834 180.0
1970.136719 204.0
1970.304565 152.0
1975.617676 176.0
1977.989258 256.0
1978.520386 156.0
