>compound Eltrombopag (SB-497115-GR)
>formula C25H22N4O4
>ionization [M+H]+
>parentmass 443.173126
#inchi InChI=1S/C25H22N4O4/c1-14-10-11-19(12-15(14)2)29-24(31)22(16(3)28-29)27-26-21-9-5-8-20(23(21)30)17-6-4-7-18(13-17)25(32)33/h4-13,26,30H,1-3H3,(H,32,33)/b27-22+
#inchikey XDXWLKQMMKQXPV
#Ion_Source LC-ESI
#Instrument qTof
#Compound_Source Commercial
#PI Dorrestein
#Data_Collector Garg_Neha
#Scan -1
#Precursor_MZ 443.171
#ExactMass 442.164
#Charge 1
#CAS_Number 496775-61-2
#Pubmed_ID N/A
#Smiles C1=C(C(=C(C=C1)C2=CC=CC(=C2)C(O)=O)O)N/N=C3/C(N(N=C3C)C4=CC=C(C(=C4)C)C)=O
#INCHI_AUX N/A
#Library_Class 1
#SpectrumID CCMSLIB00000078458
#IonMode Positive
#UpdateWorkflowName UPDATE-SINGLE-ANNOTATED-GOLD
#LibraryQualityString Gold
#TaskID 77f51c88eb8b467eb4a01dd2d0cb90d2
##Scan# 3095
#SpectrumFile Plate7_21_40_GD3_01_15768.mzXML
#LibraryName FDALibrary_2_04302014.mgf
#MQScore -1
#Organism FDALibrary_2_04302014
#TIC_Query 0
#RT_Query -1
#MZErrorPPM -1
#SharedPeaks 0
#MassDiff 0
#LibMZ -1
#SpecMZ 443.171
#SpecCharge 0
#internalFilename spec-00000.mgf

>collision 10
45.850365 144.0
55.395916 240.0
65.276131 232.0
76.578506 168.0
85.676659 216.0
87.065819 152.0
88.293777 164.0
94.74794 288.0
102.698311 180.0
103.764038 208.0
104.904564 184.0
105.069618 312.0
108.247559 160.0
112.017639 180.0
120.075401 148.0
120.735725 152.0
121.061806 176.0
121.084732 488.0
123.078323 140.0
128.056183 164.0
129.071732 168.0
130.073135 164.0
131.10347 144.0
132.042984 240.0
132.080688 320.0
133.076004 208.0
139.053085 344.0
140.064331 176.0
141.068359 348.0
141.284805 160.0
141.618576 220.0
145.532104 164.0
146.092102 180.0
147.067703 588.0
147.75676 208.0
148.074509 480.0
151.038528 156.0
153.067078 184.0
154.064774 324.0
155.051331 152.0
155.08371 296.0
156.055984 188.0
156.081146 928.0
157.048523 168.0
157.085098 312.0
158.09787 264.0
159.062515 124.0
159.165771 200.0
159.728745 168.0
160.092468 228.0
160.898071 152.0
161.110245 484.0
162.117264 168.0
165.070297 196.0
166.063339 196.0
168.057938 132.0
169.070618 144.0
170.052963 160.0
170.081512 192.0
171.053696 188.0
171.091324 144.0
171.189087 196.0
172.080872 180.0
172.969727 152.0
173.096863 144.0
174.028885 176.0
175.091629 180.0
180.046036 340.0
180.189789 160.0
181.072144 256.0
182.059311 624.0
183.038361 148.0
183.067017 1320.0
184.075455 1348.0
185.077713 524.0
185.567474 180.0
187.084579 208.0
188.085068 128.0
188.184937 144.0
189.136307 172.0
193.109573 152.0
195.04361 244.0
195.072769 152.0
196.370361 168.0
198.053833 404.0
198.156647 164.0
199.058823 132.0
199.090195 432.0
199.498169 200.0
200.066437 324.0
200.087494 140.0
200.545319 184.0
201.090546 300.0
203.119904 392.0
204.078384 144.0
204.126724 256.0
206.084991 184.0
207.063354 144.0
208.058365 236.0
209.068695 196.0
210.054428 1256.0
210.687775 144.0
211.062241 5196.0
211.132919 160.0
211.41066 152.0
212.067337 1312.0
212.622055 192.0
213.070618 160.0
214.297043 152.0
214.798477 160.0
215.058136 520.0
216.064453 160.0
216.113297 596.0
216.716339 176.0
217.061798 140.0
217.112885 244.0
219.063766 160.0
220.031082 140.0
226.049301 204.0
227.056854 220.0
228.026611 196.0
228.065292 1228.0
229.073654 3880.0
229.311783 164.0
230.077057 416.0
231.07692 276.0
232.093048 168.0
233.068787 144.0
235.049728 144.0
235.773483 140.0
237.055756 168.0
238.212463 164.0
240.06102 480.0
241.075211 252.0
242.078766 244.0
248.106445 256.0
248.755829 160.0
250.053497 124.0
252.062897 244.0
253.065598 164.0
253.39183 140.0
255.076324 248.0
256.05899 260.0
261.191101 212.0
265.068604 148.0
266.103333 152.0
267.076447 180.0
271.071228 304.0
271.133453 152.0
277.074677 156.0
278.094086 260.0
279.087189 172.0
281.059204 100.0
286.196472 148.0
289.499023 184.0
294.086487 160.0
296.098877 172.0
297.110504 168.0
303.605713 200.0
304.080811 336.0
318.62326 164.0
319.334198 148.0
322.083038 3520.0
322.232391 148.0
323.086578 648.0
324.09491 392.0
324.892456 272.0
325.103333 288.0
329.183746 224.0
330.549347 164.0
331.139465 168.0
333.468781 152.0
340.090149 1264.0
341.100464 284.0
341.671051 144.0
349.091034 144.0
352.138062 156.0
355.84317 144.0
363.756226 204.0
368.096649 164.0
372.117157 200.0
377.558197 140.0
380.611877 204.0
381.054657 160.0
382.014923 204.0
382.155792 272.0
384.123749 352.0
386.161377 156.0
397.171051 256.0
397.964386 176.0
398.150665 324.0
399.18869 284.0
402.146484 952.0
403.152527 440.0
406.671265 140.0
407.46637 204.0
408.135864 204.0
415.17688 136.0
416.182648 156.0
425.159302 508.0
426.145416 664.0
427.137909 220.0
427.329071 148.0
429.149597 144.0
434.75058 140.0
438.397736 288.0
439.023071 184.0
441.305145 128.0
441.785095 112.0
442.009796 112.0
442.106201 200.0
442.290344 144.0
442.405365 120.0
442.510712 132.0
442.614166 264.0
442.796265 140.0
442.849091 200.0
442.952789 164.0
442.998596 124.0
443.04483 164.0
443.088226 196.0
443.173126 46928.0
443.304779 104.0
443.337067 288.0
443.368469 168.0
443.438446 120.0
443.569702 232.0
443.70932 112.0
443.837097 112.0
444.176666 12840.0
444.834808 140.0
445.095123 144.0
445.181549 2124.0
445.255859 128.0
445.827728 152.0
446.107574 156.0
446.185883 304.0
446.248901 160.0
446.289764 140.0
446.361755 140.0
446.860474 156.0
446.91098 152.0
446.969727 120.0
447.976654 100.0
448.728577 104.0
457.330231 156.0
458.923523 140.0
462.169769 140.0
463.934326 180.0
1819.09082 272.0
1831.8125 188.0
1996.744263 152.0
