>compound MLS001143521-01!
>formula C20H28O5
>ionization [M+H]+
>parentmass 349.201
#inchi InChI=1S/C20H28O5/c1-12-15(21)9-20-11-25-18(23)14(20)4-3-5-16(20)19(12,2)7-6-13-8-17(22)24-10-13/h4,12-13,15-16,21H,3,5-11H2,1-2H3/t12-,13?,15-,16?,19+,20-/m1/s1
#inchikey HDHVLYXLWIMGEO
#Ion_Source LC-ESI
#Instrument qTof
#Compound_Source NIH Natural Product Library
#PI Dorrestein
#Data_Collector VVP/LMS
#Scan -1
#Precursor_MZ 349.201
#ExactMass 348.194
#Charge 1
#CAS_Number N/A
#Pubmed_ID N/A
#Smiles C[C@@H]1[C@H](O)C[C@]23COC(=O)C3=CCCC2[C@@]1(C)CCC4COC(=O)C4
#INCHI_AUX N/A
#Library_Class 1
#SpectrumID CCMSLIB00000080473
#IonMode Positive
#UpdateWorkflowName UPDATE-SINGLE-ANNOTATED-GOLD
#LibraryQualityString Gold
#TaskID b1d8e8f6646f4e71acdff9ca3d919d08
##Scan# 1871
#SpectrumFile p2-E09_GE9_01_18033.mzXML
#LibraryName NIH_Natural_Products_Library.mgf
#MQScore -1
#Organism NIH_Natural_Products_Library
#TIC_Query 0
#RT_Query -1
#MZErrorPPM -1
#SharedPeaks 0
#MassDiff 0
#LibMZ -1
#SpecMZ 349.201
#SpecCharge 0
#internalFilename spec-00000.mgf

>collision 10
95.08577 1208.0
95.277534 144.0
95.839821 136.0
96.090225 192.0
96.120605 172.0
96.202576 148.0
97.096786 248.0
97.228233 192.0
97.267487 200.0
97.371552 168.0
97.526764 56.0
97.6054 128.0
97.774582 192.0
98.589073 44.0
99.107521 160.0
99.359322 160.0
100.114647 132.0
100.263382 200.0
100.533287 88.0
100.80088 172.0
100.936806 148.0
101.180908 188.0
101.353157 160.0
102.448135 208.0
102.520668 112.0
103.05423 316.0
104.435951 160.0
104.50309 140.0
104.959343 136.0
105.026642 160.0
105.040916 140.0
105.069901 1700.0
105.265427 44.0
105.909653 180.0
106.073578 164.0
106.112526 40.0
106.566116 44.0
106.621597 212.0
106.707932 132.0
107.059792 168.0
107.083237 896.0
107.108429 104.0
107.136002 84.0
107.575256 208.0
107.903732 188.0
108.090263 220.0
108.156113 148.0
108.344299 192.0
108.738533 68.0
108.784203 168.0
109.037605 96.0
109.064453 284.0
109.1008 396.0
109.120758 52.0
109.405777 168.0
109.426598 52.0
109.726608 200.0
109.843658 156.0
110.029121 128.0
110.31324 216.0
110.434517 124.0
110.449158 180.0
110.551682 68.0
111.027229 76.0
111.048203 224.0
111.100639 108.0
111.274391 228.0
111.855057 228.0
112.265907 164.0
112.726105 156.0
112.772598 120.0
113.541145 208.0
113.736343 140.0
113.999695 180.0
114.529449 100.0
114.655159 116.0
114.928108 148.0
115.054169 764.0
115.180023 236.0
115.477127 172.0
115.931 188.0
116.062416 416.0
116.226921 160.0
116.607025 204.0
116.630669 96.0
116.706734 52.0
116.80526 204.0
116.869377 60.0
117.069038 1252.0
117.768341 192.0
117.80938 116.0
117.964973 168.0
118.075249 140.0
118.547455 164.0
119.04847 372.0
119.085091 880.0
119.900253 196.0
120.090782 160.0
120.641052 56.0
120.811623 132.0
121.054573 132.0
121.101128 316.0
121.418358 212.0
121.6707 140.0
121.93869 176.0
121.973854 160.0
122.035416 156.0
122.068398 144.0
122.098 168.0
122.20697 192.0
123.080437 420.0
124.028908 56.0
124.086548 192.0
124.190773 200.0
124.386032 200.0
124.590332 208.0
125.05513 180.0
125.237656 120.0
125.404762 124.0
126.483604 168.0
126.608986 152.0
127.058556 148.0
127.371567 48.0
127.409752 200.0
127.875221 148.0
127.942749 200.0
128.061707 664.0
128.113907 224.0
128.400162 168.0
128.42923 176.0
128.531006 128.0
128.582916 212.0
129.070877 1436.0
129.104782 164.0
129.195267 160.0
129.251816 192.0
129.747849 140.0
129.854416 100.0
130.006424 64.0
130.07634 784.0
130.715424 52.0
130.792801 136.0
130.927139 104.0
130.947632 232.0
130.96814 140.0
131.05014 364.0
131.085327 2652.0
131.191452 32.0
131.97226 148.0
132.015701 192.0
132.059158 152.0
132.090668 404.0
132.569702 44.0
132.911377 136.0
133.067764 252.0
133.100235 1324.0
133.315521 216.0
134.101501 208.0
134.513199 136.0
135.044296 128.0
135.0793 380.0
135.111725 384.0
135.60495 140.0
135.783463 136.0
136.482452 140.0
137.06105 280.0
137.09494 184.0
137.239182 88.0
137.645187 136.0
138.0401 76.0
138.065826 120.0
138.901993 120.0
139.043777 244.0
139.075439 160.0
139.113174 220.0
139.649368 256.0
139.910126 136.0
140.412018 168.0
141.069565 1236.0
141.241043 136.0
141.522675 172.0
142.074814 560.0
142.12471 56.0
142.66124 192.0
143.051605 156.0
143.085281 2740.0
143.284988 68.0
143.389832 52.0
143.428467 172.0
143.637802 156.0
143.67836 60.0
143.900314 128.0
144.055542 64.0
144.087692 308.0
144.615082 188.0
144.888062 48.0
145.064438 408.0
145.101212 2168.0
145.170898 132.0
146.070129 256.0
146.101395 260.0
146.191864 72.0
147.078064 328.0
147.116348 1304.0
147.255051 96.0
148.113693 64.0
148.414215 72.0
148.918976 140.0
149.020996 180.0
149.058105 176.0
149.094284 180.0
149.140076 168.0
149.157089 56.0
149.448929 204.0
149.556 56.0
149.806808 168.0
149.894531 144.0
150.101715 128.0
150.3237 216.0
150.577591 120.0
151.109116 164.0
151.156982 84.0
151.55365 192.0
151.595306 264.0
152.065842 500.0
152.260147 180.0
152.896881 152.0
153.017502 224.0
153.068771 480.0
153.241623 164.0
153.433868 116.0
153.93721 144.0
154.074127 196.0
154.189194 220.0
154.839874 208.0
155.060364 172.0
155.085632 896.0
155.184311 292.0
155.206619 64.0
155.742676 40.0
155.770004 144.0
156.090332 448.0
156.165222 196.0
156.678009 120.0
157.039444 188.0
157.062012 168.0
157.10199 1488.0
157.288971 36.0
157.988663 180.0
158.104599 288.0
158.915649 156.0
159.041122 160.0
159.080429 1040.0
159.116776 1272.0
159.166641 36.0
159.289703 132.0
159.749725 176.0
159.807587 32.0
160.083801 180.0
160.117889 136.0
160.180191 80.0
160.396896 60.0
161.102386 480.0
161.128082 224.0
161.176727 32.0
161.396637 124.0
161.687546 152.0
162.102875 140.0
162.594849 80.0
162.924942 240.0
163.041824 168.0
163.072769 724.0
163.11264 292.0
163.194336 52.0
163.212143 212.0
163.52504 56.0
163.78476 100.0
163.881561 76.0
164.082703 148.0
164.838425 116.0
165.065826 448.0
166.076263 436.0
166.349533 108.0
166.503586 80.0
166.732239 140.0
166.757935 52.0
166.778503 120.0
166.865906 100.0
167.084717 1084.0
167.125671 76.0
167.308411 136.0
167.694794 60.0
168.055817 116.0
168.091202 616.0
168.190018 72.0
168.288116 80.0
168.471481 116.0
168.580002 52.0
168.779053 88.0
169.02478 244.0
169.042892 72.0
169.066177 184.0
169.102264 1744.0
169.200775 76.0
169.480499 84.0
170.066589 144.0
170.106445 564.0
170.54097 176.0
170.695297 84.0
171.081802 292.0
171.118301 1388.0
171.187119 56.0
171.228775 36.0
171.348602 60.0
171.598816 88.0
171.723984 40.0
172.050156 172.0
172.076263 132.0
172.126587 176.0
172.170258 64.0
172.266907 68.0
172.957245 48.0
173.054108 160.0
173.096252 388.0
173.133408 224.0
173.281967 84.0
173.460175 64.0
173.932327 64.0
174.096741 168.0
174.218567 64.0
174.831207 156.0
175.038223 112.0
175.110962 288.0
175.14978 140.0
175.980484 120.0
176.064987 328.0
177.093338 752.0
177.128464 192.0
177.738007 196.0
178.043289 188.0
178.077423 268.0
178.417938 132.0
178.71582 80.0
179.086533 744.0
179.450943 64.0
180.090302 420.0
181.040833 68.0
181.099106 1616.0
181.198868 104.0
182.070648 284.0
182.110229 356.0
183.03476 100.0
183.073502 128.0
183.114548 1252.0
183.24614 40.0
183.391357 104.0
183.626236 196.0
184.085007 84.0
184.122543 700.0
184.452454 80.0
185.094589 476.0
185.128906 520.0
185.166763 292.0
185.459381 36.0
186.096878 148.0
186.213654 64.0
186.594086 32.0
186.879669 56.0
187.07605 176.0
187.112549 588.0
187.454193 136.0
189.087296 172.0
189.111923 140.0
189.131088 480.0
189.577515 104.0
190.136963 156.0
190.373062 120.0
190.875931 52.0
190.999283 132.0
191.086502 204.0
191.123489 132.0
192.090149 420.0
192.108414 196.0
192.805634 40.0
193.1035 232.0
194.11055 152.0
194.356369 32.0
194.509003 104.0
195.085892 140.0
195.116638 1160.0
196.091644 104.0
196.121979 160.0
196.320251 88.0
196.373245 84.0
197.055725 116.0
197.092911 208.0
197.133408 1620.0
197.219254 64.0
197.893433 72.0
198.103531 140.0
198.134857 196.0
198.322052 88.0
199.083923 208.0
199.110275 776.0
199.146454 468.0
200.126373 144.0
200.156555 168.0
201.092758 172.0
201.117386 240.0
201.166092 176.0
201.900513 132.0
202.129654 200.0
202.225876 56.0
202.341934 76.0
203.024826 80.0
203.105957 164.0
203.478821 108.0
204.110184 208.0
204.52211 68.0
205.09671 148.0
205.114578 356.0
205.451065 60.0
206.104599 488.0
206.216339 44.0
206.256348 48.0
206.536575 44.0
207.101395 192.0
207.15773 140.0
208.084045 128.0
208.127274 268.0
209.093002 136.0
209.132034 200.0
209.141418 112.0
209.148773 180.0
209.651703 112.0
210.003433 156.0
210.101517 368.0
210.14386 200.0
211.07486 120.0
211.109024 380.0
211.148743 644.0
211.891083 152.0
211.969315 220.0
212.118057 224.0
212.151901 164.0
213.131912 204.0
213.164856 164.0
213.664963 132.0
213.717331 92.0
214.938202 152.0
215.069534 176.0
215.106537 324.0
215.834946 48.0
216.092346 148.0
216.112823 92.0
217.079453 180.0
217.115479 112.0
217.440292 120.0
219.116806 316.0
219.838791 136.0
220.124359 292.0
221.097733 120.0
221.131668 388.0
221.98645 124.0
222.099152 128.0
222.140686 116.0
223.082031 76.0
223.114532 184.0
223.149872 592.0
223.218796 48.0
224.099869 136.0
224.146149 180.0
224.599197 40.0
225.039383 192.0
225.091751 148.0
225.129135 388.0
225.166901 1208.0
226.17038 236.0
226.600632 124.0
227.105225 160.0
227.143967 180.0
227.186325 88.0
228.062057 256.0
228.137207 148.0
229.122208 572.0
230.28566 212.0
231.150284 168.0
231.428757 128.0
231.683167 44.0
233.13147 328.0
233.519623 152.0
234.475616 116.0
235.146271 456.0
236.127304 148.0
236.154831 300.0
237.082489 64.0
238.127838 132.0
238.152023 112.0
239.112823 336.0
239.14418 276.0
239.174606 508.0
240.962662 176.0
241.121948 276.0
241.163528 72.0
243.138367 336.0
243.173645 156.0
244.127411 112.0
244.180283 148.0
245.11705 256.0
245.154709 104.0
246.115479 168.0
246.56218 128.0
247.146942 136.0
247.644699 136.0
247.829529 96.0
248.155487 88.0
249.131531 256.0
249.164169 136.0
249.228928 164.0
249.835724 72.0
250.147263 220.0
250.173172 156.0
251.14032 152.0
252.140671 156.0
252.251297 56.0
253.158157 232.0
253.777252 152.0
254.15152 204.0
254.465744 100.0
255.134216 212.0
255.179291 120.0
256.140167 148.0
257.115692 248.0
257.154053 156.0
257.190735 152.0
258.107635 140.0
258.19397 152.0
259.151093 132.0
259.172333 108.0
261.167114 176.0
261.440582 188.0
262.097504 176.0
263.662598 60.0
264.710724 36.0
266.079041 164.0
266.884796 216.0
267.170105 688.0
267.581055 48.0
268.18222 256.0
269.155884 144.0
270.162537 112.0
271.123962 216.0
271.16449 176.0
275.141418 136.0
277.142365 156.0
277.165558 252.0
278.157196 132.0
279.24704 68.0
282.057831 96.0
283.279205 80.0
283.832214 116.0
284.182343 244.0
285.186401 2112.0
285.292694 56.0
285.408447 56.0
285.477631 28.0
285.62561 36.0
286.186035 348.0
286.258331 40.0
287.182465 168.0
292.634308 76.0
294.257202 84.0
295.168823 292.0
295.237885 144.0
296.03183 80.0
296.175659 96.0
296.984589 64.0
298.127838 116.0
303.189758 160.0
311.621216 120.0
313.17984 1240.0
314.189606 248.0
331.191528 464.0
332.196411 132.0
349.176331 148.0
349.218964 232.0
350.199829 172.0
378.331055 120.0
385.612793 68.0
388.873352 20.0
389.845367 112.0
398.785126 144.0
405.8591 92.0
442.944885 136.0
452.432587 20.0
704.723267 260.0
732.96106 108.0
737.791565 80.0
745.68927 144.0
746.477539 76.0
760.737671 84.0
764.904358 64.0
777.151001 140.0
802.697083 76.0
819.916504 20.0
827.797119 152.0
829.842651 204.0
861.547424 176.0
896.359314 100.0
900.720459 188.0
915.625122 64.0
925.794983 52.0
932.152344 72.0
935.412231 176.0
938.366821 192.0
938.818054 176.0
939.806213 140.0
940.318787 168.0
949.060364 116.0
969.872925 180.0
976.037537 60.0
991.963989 156.0
995.333008 176.0
1016.707581 200.0
1020.614197 204.0
1035.361206 212.0
1043.613281 164.0
1050.123779 152.0
1057.96814 56.0
1059.651978 180.0
1067.109253 204.0
1073.816284 132.0
1080.400513 176.0
1092.661987 84.0
1099.494995 208.0
1108.919312 192.0
1115.018555 132.0
1119.788696 124.0
1120.248291 212.0
1120.328247 44.0
1120.648071 180.0
1121.866455 208.0
1136.816284 52.0
1145.853149 144.0
1148.967773 152.0
1150.621216 232.0
1151.053345 128.0
1152.944824 48.0
1161.4552 276.0
1161.658813 44.0
1164.5979 180.0
1171.079712 148.0
1171.236328 180.0
1171.897095 124.0
1172.087891 200.0
1175.831665 228.0
1177.121948 84.0
1186.261719 196.0
1190.296509 140.0
1192.206177 156.0
1194.089844 176.0
1207.262085 192.0
1212.994751 52.0
1213.043213 176.0
1216.185425 160.0
1223.922852 52.0
1224.828247 200.0
1225.510864 228.0
1225.573608 240.0
1226.040527 80.0
1226.911743 128.0
1229.499512 164.0
1232.16687 72.0
1232.704834 120.0
1241.315552 184.0
1242.682617 128.0
1244.359985 232.0
1251.46106 196.0
1254.4552 168.0
1265.391113 192.0
1267.02002 144.0
1268.125366 188.0
1278.999512 164.0
1283.772949 152.0
1297.730591 248.0
1302.818848 136.0
1304.241699 208.0
1305.679565 160.0
1306.111084 180.0
1306.63623 164.0
1307.19751 172.0
1310.942017 180.0
1321.954468 176.0
1324.239868 64.0
1335.35376 252.0
1339.007202 136.0
1341.50647 144.0
1348.52832 140.0
1352.859253 188.0
1355.597778 176.0
1356.110718 152.0
1359.454956 240.0
1359.535645 164.0
1360.680664 76.0
1362.641602 44.0
1364.383423 188.0
1369.328125 188.0
1369.423828 312.0
1370.32251 228.0
1370.410889 244.0
1375.046631 228.0
1377.086914 148.0
1379.392212 188.0
1380.501221 140.0
1382.646606 240.0
1384.001221 140.0
1400.383057 136.0
1403.714355 136.0
1406.116455 208.0
1407.53479 204.0
1408.423462 20.0
1409.932617 176.0
1416.022461 124.0
1419.567139 84.0
1423.82959 200.0
1424.528198 164.0
1424.595703 120.0
1426.158691 184.0
1432.464111 48.0
1432.629883 152.0
1434.702271 128.0
1441.109741 128.0
1443.445312 156.0
1449.902466 68.0
1451.175903 180.0
1453.383057 220.0
1459.140137 228.0
1460.356812 104.0
1461.087036 116.0
1469.711548 172.0
1477.336182 92.0
1477.649902 140.0
1481.385742 160.0
1481.52356 160.0
1484.834839 100.0
1486.507202 224.0
1488.257324 212.0
1491.222412 164.0
1495.852783 196.0
1497.338867 180.0
1502.472412 160.0
1503.498535 84.0
