>compound Biapenem
>formula C15H18N4O4S 
>ionization [M+H]+
>parentmass 351.113
#inchi InChI=1S/C15H18N4O4S/c1-7-11-10(8(2)20)14(21)19(11)12(15(22)23)13(7)24-9-3-17-5-16-6-18(17)4-9/h5-11,20H,3-4H2,1-2H3/t7-,8-,10-,11-/m1/s1
#inchikey MRMBZHPJVKCOMA
#Ion_Source LC-ESI
#Instrument qTof
#Compound_Source Isolated
#PI Sirenas
#Data_Collector Ed Esquenazi 
#Scan -1
#Precursor_MZ 351.113
#ExactMass 0.0
#Charge 1
#CAS_Number N/A
#Pubmed_ID N/A
#Smiles N/A
#INCHI_AUX N/A
#Library_Class 3
#SpectrumID CCMSLIB00000006471
#IonMode Positive
#UpdateWorkflowName UPDATE-SINGLE-ANNOTATED-BRONZE
#LibraryQualityString Bronze
#TaskID d19310cd93df49b68e9fcbec27720eb5
##Scan# 5
#SpectrumFile Biapenem.mgf
#LibraryName fda_library.mgf
#MQScore -1
#Organism fda_library
#TIC_Query 0
#RT_Query -1
#MZErrorPPM -1
#SharedPeaks 0
#MassDiff 0
#LibMZ -1
#SpecMZ 351.113
#SpecCharge 0
#internalFilename spec-00000.mgf

>collision 10
108.05452 54.025002
110.073128 401.39621
110.28286 28.004311
119.415245 16.03879
120.045921 230.557098
120.28717 17.20833
124.020462 145.530899
126.572449 42.281979
138.998474 75.720589
140.015854 38.882351
152.019333 22.44643
156.007874 73.840912
165.937378 85.609779
169.269699 41.632809
170.027328 383.755493
170.567505 11.77885
186.164841 42.008621
198.020065 57.077591
198.056747 52.26667
247.060791 18.796049
265.074829 175.800705
272.982056 326.866394
273.441132 18.004629
273.60849 60.090912
273.924957 94.173851
290.989624 72.020447
351.12262 222.688095
