>compound MLS001304041-01!
>formula C20H24N2O2
>ionization [M+H]+
>parentmass 325.189728
#inchi InChI=1S/C20H24N2O2/c1-3-13-12-22-9-7-14(13)10-19(22)20(23)16-6-8-21-18-5-4-15(24-2)11-17(16)18/h3-6,8,11,13-14,19-20,23H,1,7,9-10,12H2,2H3/t13-,14?,19-,20+/m0/s1
#inchikey LOUPRKONTZGTKE
#Ion_Source LC-ESI
#Instrument qTof
#Compound_Source NIH Pharmacologically Active Library
#PI Dorrestein
#Data_Collector VP/LMS
#Scan -1
#Precursor_MZ 325.195
#ExactMass 324.184
#Charge 1
#CAS_Number N/A
#Pubmed_ID N/A
#Smiles COc1ccc2nccc([C@@H](O)[C@@H]3CC4CCN3C[C@@H]4C=C)c2c1
#INCHI_AUX N/A
#Library_Class 1
#SpectrumID CCMSLIB00000085673
#IonMode Positive
#UpdateWorkflowName UPDATE-SINGLE-ANNOTATED-GOLD
#LibraryQualityString Gold
#TaskID d252d724072548979f1f6f1ced849daf
##Scan# 1232
#SpectrumFile p4-E02_GE2_01_18374.mzXML
#LibraryName Pharm_Active_Library.mgf
#MQScore -1
#Organism Pharm_Active_Library
#TIC_Query 0
#RT_Query -1
#MZErrorPPM -1
#SharedPeaks 0
#MassDiff 0
#LibMZ -1
#SpecMZ 325.195
#SpecCharge 0
#internalFilename spec-00000.mgf

>collision 10
44.91584 140.0
45.331642 180.0
45.582584 240.0
45.594681 68.0
45.621563 176.0
45.71706 160.0
45.90836 188.0
46.000107 220.0
46.309757 104.0
46.869476 156.0
47.041321 208.0
47.071358 216.0
47.265465 216.0
47.571102 216.0
47.690609 184.0
47.961769 84.0
47.986584 168.0
48.029335 116.0
48.228168 192.0
48.462048 184.0
48.507782 180.0
48.527191 224.0
48.790985 144.0
48.902271 128.0
48.959354 88.0
49.371052 148.0
49.618896 252.0
49.704456 144.0
49.752178 156.0
49.878609 240.0
49.988312 168.0
50.409954 180.0
50.442463 264.0
50.721325 168.0
51.220089 160.0
51.549664 124.0
51.729881 180.0
51.742764 156.0
51.801479 216.0
52.082634 212.0
52.098434 148.0
52.134357 176.0
52.37463 136.0
52.601021 168.0
52.710785 196.0
52.990044 160.0
53.143646 192.0
53.158245 164.0
53.180016 136.0
53.232281 188.0
53.44305 152.0
53.864384 116.0
53.95499 132.0
54.177441 228.0
54.42384 160.0
54.46349 180.0
54.475243 188.0
54.95372 184.0
55.15752 140.0
55.258083 232.0
55.512856 216.0
55.545486 196.0
55.569221 128.0
55.638977 168.0
56.206059 176.0
56.454033 108.0
56.557266 100.0
56.683071 164.0
57.699062 148.0
58.130749 200.0
58.169933 132.0
58.181377 168.0
58.200573 160.0
58.217278 164.0
58.579273 132.0
58.589939 204.0
58.670712 204.0
58.803421 88.0
58.913364 84.0
59.041759 72.0
59.199387 128.0
59.452335 252.0
59.713512 92.0
59.805832 48.0
60.027683 124.0
60.681747 200.0
60.919197 172.0
60.936287 128.0
61.107315 156.0
61.314419 136.0
61.479733 160.0
61.606209 156.0
61.818851 164.0
61.900253 108.0
62.141644 96.0
62.229534 164.0
62.289215 164.0
62.485725 180.0
62.512474 100.0
62.775551 128.0
63.164085 52.0
63.281193 112.0
63.377811 152.0
63.576031 52.0
63.892235 96.0
64.078506 196.0
64.328896 132.0
64.40554 156.0
64.586166 128.0
64.747818 136.0
64.853561 120.0
64.91198 156.0
65.094215 252.0
65.274193 184.0
65.287056 164.0
65.504341 168.0
65.752655 52.0
65.809151 204.0
65.961014 120.0
66.025688 212.0
66.414406 176.0
66.531242 184.0
66.555595 104.0
66.667686 204.0
66.696938 124.0
66.981697 176.0
67.07132 188.0
67.299721 40.0
67.531776 160.0
67.613579 148.0
67.667603 172.0
67.995445 228.0
68.062752 188.0
68.100525 168.0
68.204041 152.0
68.342186 188.0
68.82679 44.0
69.018463 176.0
69.331337 136.0
69.563545 152.0
69.595093 168.0
69.774529 192.0
69.934227 240.0
69.977509 144.0
70.172447 184.0
70.406059 188.0
70.504631 168.0
70.718704 236.0
70.75386 168.0
71.4617 172.0
71.999863 48.0
72.020134 192.0
72.064056 124.0
72.131653 184.0
72.158707 160.0
72.175613 148.0
72.248337 188.0
72.582001 132.0
72.631187 104.0
72.687172 136.0
72.911339 80.0
73.275482 152.0
73.66787 152.0
73.838799 224.0
73.869591 172.0
74.601837 240.0
74.982246 140.0
75.21682 60.0
75.441391 212.0
75.470779 96.0
75.484619 120.0
75.508827 68.0
75.610672 220.0
75.65937 120.0
75.709587 196.0
75.773674 132.0
75.926216 172.0
76.223068 140.0
76.351715 188.0
76.403526 208.0
76.5205 168.0
76.698196 128.0
76.769676 172.0
76.928833 204.0
76.95639 196.0
77.169548 176.0
77.453056 200.0
77.528397 108.0
77.549423 148.0
77.675674 168.0
77.770432 144.0
78.375397 76.0
78.405357 128.0
78.731735 168.0
78.788261 196.0
78.899597 72.0
79.03933 104.0
79.200432 200.0
79.445061 112.0
79.590599 28.0
79.634995 100.0
79.663414 224.0
79.682961 144.0
79.841164 188.0
80.029785 64.0
80.083214 156.0
80.605934 152.0
81.123184 180.0
81.363579 152.0
81.598938 136.0
81.73024 164.0
81.805832 40.0
82.312462 156.0
82.391937 148.0
82.404587 220.0
82.603447 152.0
82.636009 252.0
82.809799 208.0
83.343147 36.0
83.745193 144.0
83.810776 240.0
84.007683 84.0
84.279716 172.0
84.511932 84.0
85.103966 112.0
85.537842 96.0
85.694382 152.0
85.873192 124.0
85.934067 208.0
86.007889 60.0
86.151924 156.0
87.092957 136.0
87.157974 168.0
87.195145 192.0
87.218323 212.0
87.366211 140.0
87.409004 104.0
87.563522 176.0
87.606361 208.0
87.682762 172.0
88.134361 52.0
88.675194 100.0
88.864594 176.0
88.888985 112.0
89.183846 140.0
89.216774 200.0
89.247765 224.0
89.302299 156.0
89.612907 164.0
89.958038 132.0
90.092117 140.0
90.201721 204.0
90.305725 180.0
90.349228 180.0
90.430595 68.0
90.612389 128.0
90.753685 196.0
90.870239 168.0
90.987907 184.0
91.051292 216.0
91.080963 168.0
91.449837 84.0
91.691719 76.0
91.99691 180.0
92.258636 172.0
92.346596 200.0
93.019157 124.0
93.061562 232.0
93.293869 124.0
93.382317 184.0
93.40155 200.0
93.684532 168.0
94.023895 236.0
94.04512 108.0
94.063576 456.0
94.590218 196.0
94.81102 96.0
95.006859 124.0
95.055367 156.0
95.072304 324.0
95.301971 64.0
95.428307 136.0
95.874077 168.0
96.081825 396.0
96.139297 196.0
96.502632 168.0
96.97245 216.0
97.09597 160.0
97.25882 172.0
98.096794 164.0
98.388763 60.0
98.6614 224.0
98.695015 124.0
98.764626 200.0
99.033417 52.0
99.243484 136.0
99.41011 56.0
99.429955 180.0
99.457741 164.0
99.48156 112.0
99.65435 236.0
99.73185 152.0
100.556442 204.0
101.052025 36.0
101.163025 152.0
101.190125 156.0
101.366394 160.0
101.492676 168.0
101.580917 172.0
101.749496 132.0
102.012665 176.0
102.794144 128.0
102.814323 72.0
102.842575 148.0
103.051224 300.0
103.216324 168.0
103.623169 104.0
103.730576 32.0
103.99427 196.0
104.053139 156.0
104.099838 160.0
104.290817 80.0
104.305046 128.0
104.508415 216.0
104.526726 148.0
105.068047 544.0
105.38517 224.0
105.454651 116.0
105.614136 116.0
105.794212 136.0
106.066559 168.0
106.218399 176.0
106.86554 196.0
107.013733 204.0
107.074944 276.0
107.341354 104.0
107.415718 208.0
107.665344 144.0
107.884369 192.0
108.000168 192.0
108.079597 596.0
108.24231 168.0
108.46302 272.0
108.501305 60.0
108.553146 180.0
108.62574 172.0
108.833275 200.0
108.980751 144.0
109.061798 204.0
109.086685 156.0
109.61956 128.0
109.782166 136.0
109.80719 216.0
110.00959 152.0
110.095245 416.0
110.609543 104.0
110.837822 220.0
111.097809 164.0
111.114586 228.0
111.564018 184.0
112.022789 168.0
112.05439 232.0
112.107063 148.0
113.040459 136.0
113.072205 124.0
113.113899 212.0
113.250053 108.0
113.28183 156.0
113.5383 136.0
113.735619 152.0
114.041481 180.0
115.053665 372.0
116.065338 128.0
116.496735 156.0
116.956909 172.0
117.057953 876.0
117.31234 200.0
117.640244 148.0
117.921043 240.0
118.059578 156.0
118.262787 148.0
118.667885 108.0
118.863098 144.0
118.956429 200.0
119.12146 136.0
119.177948 168.0
119.34314 76.0
119.532379 128.0
119.752266 120.0
119.900421 32.0
119.924393 196.0
120.078201 352.0
120.332329 288.0
120.568237 236.0
120.664421 116.0
120.826263 96.0
121.060471 188.0
121.090019 376.0
121.117416 112.0
121.369446 176.0
121.529564 176.0
121.573448 140.0
121.648079 44.0
121.707352 180.0
121.766647 160.0
121.95121 132.0
122.098137 408.0
122.200279 212.0
122.668793 256.0
122.728317 88.0
122.816536 112.0
122.97319 168.0
123.034996 52.0
123.07695 156.0
123.105652 372.0
124.109917 616.0
124.190117 136.0
124.225609 124.0
124.292168 64.0
124.378723 60.0
124.543037 124.0
125.003242 160.0
125.085594 136.0
125.110085 128.0
125.188011 108.0
125.569107 124.0
126.00663 164.0
126.024506 148.0
126.223442 72.0
126.277115 172.0
126.299477 144.0
126.58371 124.0
127.047676 92.0
127.236191 148.0
127.357452 148.0
127.447319 132.0
127.575424 116.0
127.640625 216.0
127.694595 224.0
127.964638 152.0
128.050217 392.0
128.318359 156.0
128.419846 112.0
128.460449 256.0
128.674835 96.0
128.993378 184.0
129.038025 208.0
129.058105 308.0
129.190109 72.0
129.217911 196.0
129.25148 128.0
129.420975 100.0
129.974045 188.0
130.035568 176.0
130.061966 576.0
130.09433 212.0
130.419159 44.0
130.844559 144.0
131.071274 276.0
131.327667 152.0
131.361877 156.0
131.836792 184.0
131.882507 132.0
132.051697 164.0
132.078262 224.0
132.330872 72.0
132.534729 28.0
132.908478 164.0
132.933731 164.0
133.052109 276.0
133.080627 216.0
133.101303 152.0
133.58165 140.0
133.636856 152.0
133.685181 112.0
134.095917 1092.0
134.274948 52.0
134.397217 120.0
134.67424 236.0
134.695038 232.0
134.750473 56.0
135.102997 184.0
135.281601 184.0
135.534851 204.0
135.592789 200.0
135.766663 220.0
136.003311 204.0
136.072433 208.0
136.111023 1088.0
136.140289 148.0
136.556305 180.0
136.702866 84.0
137.063812 168.0
137.080124 164.0
137.117569 292.0
137.572266 36.0
137.6353 152.0
137.697067 168.0
138.094177 200.0
138.124802 852.0
138.177551 68.0
138.222015 148.0
138.570892 124.0
138.765427 96.0
138.967133 204.0
139.125824 204.0
139.728363 160.0
139.942551 164.0
140.049515 244.0
140.279434 224.0
140.989899 152.0
141.041901 160.0
141.059158 144.0
141.276001 172.0
141.346985 180.0
141.408508 180.0
141.834854 180.0
141.951035 88.0
142.064423 440.0
142.411453 164.0
142.463699 136.0
142.606277 128.0
143.034424 344.0
143.072449 1432.0
143.277328 132.0
143.298767 160.0
143.560562 140.0
143.634903 148.0
143.758972 96.0
143.868774 144.0
143.902191 252.0
144.078262 484.0
144.143448 112.0
144.169724 60.0
144.356201 52.0
144.401627 160.0
144.746246 48.0
144.808517 184.0
144.957047 140.0
145.051285 1356.0
145.086472 264.0
145.215958 32.0
145.86908 304.0
145.984482 88.0
146.057739 340.0
146.09906 640.0
146.290054 116.0
146.345428 188.0
146.46344 48.0
146.668243 156.0
146.756744 128.0
147.06189 364.0
147.346359 132.0
147.609818 140.0
148.034897 304.0
148.068665 164.0
148.096268 184.0
148.11377 196.0
148.144714 80.0
148.25618 108.0
148.59079 72.0
148.714554 120.0
149.112885 168.0
149.521469 56.0
149.677277 204.0
149.760071 168.0
149.869705 240.0
150.130524 344.0
150.208572 36.0
150.225662 184.0
150.401352 48.0
150.491669 136.0
150.706619 128.0
150.841034 148.0
151.134506 184.0
151.185898 144.0
151.376846 108.0
151.447876 72.0
151.626724 160.0
151.685562 144.0
151.732132 128.0
151.85524 156.0
151.957779 116.0
152.105255 164.0
152.124649 136.0
152.220413 156.0
152.269531 228.0
152.498016 112.0
152.591431 44.0
153.034302 216.0
153.055328 164.0
153.113113 180.0
153.852844 192.0
154.065186 756.0
154.532501 104.0
154.59436 176.0
154.616638 132.0
154.801071 48.0
154.879089 216.0
155.070511 992.0
155.104568 56.0
155.322784 72.0
155.392242 124.0
155.484055 88.0
155.516312 168.0
155.752213 180.0
155.839157 60.0
156.080307 216.0
156.333984 212.0
156.463425 180.0
156.533142 48.0
156.665146 128.0
156.702515 112.0
156.769791 100.0
156.956757 44.0
157.031494 124.0
157.054947 220.0
157.085464 160.0
157.735703 116.0
157.885727 148.0
157.975769 152.0
158.027466 156.0
158.038025 104.0
158.059891 1696.0
158.473984 184.0
158.549149 124.0
158.599289 176.0
158.619339 232.0
158.74971 208.0
158.855057 128.0
159.066345 776.0
159.268051 168.0
159.495377 108.0
159.553207 236.0
159.767548 156.0
159.842453 156.0
159.90033 164.0
159.993469 228.0
160.013611 92.0
160.031235 188.0
160.07489 14104.0
160.145065 40.0
160.197449 108.0
160.282135 92.0
160.309402 48.0
160.368805 132.0
160.598251 108.0
160.615906 60.0
160.651215 48.0
160.855621 128.0
160.888443 64.0
160.954086 112.0
161.052643 188.0
161.078049 1828.0
161.161209 152.0
161.378586 72.0
161.446381 128.0
161.537918 44.0
161.689728 116.0
161.768188 152.0
161.856812 80.0
162.062866 248.0
162.090179 684.0
162.127869 160.0
162.170944 108.0
162.208969 56.0
162.2901 52.0
162.493607 152.0
163.211807 64.0
163.305893 176.0
163.993362 200.0
164.059631 112.0
164.10553 152.0
164.444809 148.0
164.472885 112.0
165.395645 80.0
165.659393 240.0
166.066055 576.0
166.121841 2436.0
166.164062 216.0
166.208054 112.0
166.277344 96.0
166.323547 100.0
166.431366 204.0
166.480164 188.0
166.500702 156.0
166.701813 184.0
166.927307 164.0
167.037903 176.0
167.071655 948.0
167.124329 128.0
167.904068 140.0
167.929123 76.0
167.97995 68.0
168.076675 572.0
168.300735 28.0
168.39415 164.0
168.734802 56.0
168.89772 52.0
169.050934 932.0
169.082352 296.0
169.293716 68.0
169.39473 140.0
169.770554 92.0
169.897644 60.0
170.059906 812.0
170.089355 160.0
170.307785 92.0
170.752243 104.0
170.80426 244.0
170.869293 132.0
170.895309 172.0
171.03064 48.0
171.063736 748.0
171.100922 172.0
171.541199 96.0
171.87764 176.0
172.074249 7120.0
172.11969 140.0
172.151733 68.0
172.185684 132.0
172.250977 140.0
172.33197 140.0
172.42865 48.0
172.454788 52.0
172.724121 148.0
173.009354 200.0
173.081985 3404.0
173.20575 48.0
173.242432 144.0
173.357712 64.0
173.394836 48.0
173.454681 40.0
173.483521 40.0
173.829742 136.0
173.916718 84.0
174.053146 1252.0
174.088669 1632.0
174.319794 104.0
174.412781 120.0
174.48114 72.0
174.849396 100.0
174.875717 36.0
174.899399 92.0
174.997498 160.0
175.059647 504.0
175.091049 396.0
175.165359 272.0
175.223312 56.0
175.312912 84.0
175.423599 60.0
175.451813 80.0
175.550171 52.0
175.639832 196.0
175.858841 116.0
176.038361 92.0
176.070801 300.0
176.10968 128.0
176.191559 64.0
176.449478 184.0
176.506088 204.0
176.542175 124.0
177.120087 176.0
177.618423 160.0
177.812119 124.0
177.96344 148.0
178.084702 144.0
178.138718 36.0
178.194504 232.0
178.505493 136.0
178.832733 212.0
179.061707 204.0
180.051163 220.0
180.082489 576.0
180.112595 44.0
180.248856 60.0
180.302292 72.0
180.387833 64.0
180.56163 100.0
180.682007 32.0
180.722137 76.0
181.003189 128.0
181.054062 432.0
181.086441 352.0
181.407745 136.0
181.504272 192.0
181.598129 196.0
181.909393 144.0
182.063232 328.0
182.085953 344.0
182.228989 104.0
182.573059 64.0
182.672577 120.0
182.960526 160.0
183.067093 1356.0
183.105347 204.0
183.224457 88.0
183.404999 116.0
183.655762 60.0
183.823029 80.0
183.84462 68.0
183.952591 212.0
184.073868 4716.0
184.104126 188.0
184.438812 56.0
184.463135 188.0
184.541534 68.0
184.73085 128.0
184.904022 64.0
184.966278 148.0
185.078842 1040.0
185.26416 152.0
185.659897 60.0
185.749405 68.0
186.051529 732.0
186.090057 3992.0
186.191818 40.0
186.2733 52.0
186.455353 40.0
186.754425 172.0
187.057755 160.0
187.09642 216.0
187.323334 80.0
187.435745 76.0
187.734894 136.0
188.070663 1532.0
188.101273 324.0
188.409088 152.0
189.078598 2712.0
189.196716 148.0
189.224091 56.0
189.438507 68.0
189.678848 204.0
189.788513 108.0
189.922897 68.0
189.955811 160.0
190.080917 304.0
190.367508 44.0
190.801636 64.0
190.84288 36.0
191.054382 168.0
191.090424 216.0
191.183975 132.0
191.497833 96.0
191.530899 136.0
191.919479 100.0
192.084 288.0
192.325012 192.0
193.026749 200.0
193.084366 424.0
193.391937 56.0
193.94313 72.0
194.055679 180.0
194.088287 280.0
194.206543 92.0
194.239822 156.0
194.728348 212.0
194.89502 96.0
195.064651 504.0
195.096252 212.0
195.456711 208.0
195.740631 44.0
196.016403 184.0
196.072311 840.0
196.476456 176.0
196.769501 48.0
196.903534 44.0
196.945435 124.0
197.078644 576.0
197.111877 244.0
197.297531 168.0
197.593979 176.0
197.789886 100.0
197.95787 204.0
197.983063 136.0
198.089752 2844.0
198.187561 60.0
198.30806 160.0
198.661377 48.0
198.753967 228.0
198.933578 168.0
199.089111 932.0
199.13295 108.0
199.205978 64.0
199.239685 76.0
199.495422 60.0
199.773834 140.0
200.071793 724.0
200.10228 316.0
200.350952 68.0
200.54538 140.0
201.105576 252.0
201.35231 128.0
201.575485 144.0
202.056168 192.0
202.086441 1224.0
202.113434 184.0
202.322189 180.0
202.392975 28.0
202.44014 200.0
202.460938 132.0
202.540237 156.0
202.674301 88.0
203.090958 356.0
203.348328 184.0
203.552734 80.0
203.811218 60.0
203.893631 164.0
204.07756 440.0
204.408371 180.0
205.057678 188.0
205.077225 144.0
205.093704 344.0
205.166 180.0
206.053574 100.0
206.087418 276.0
207.077194 160.0
207.105377 752.0
208.067261 156.0
208.080414 164.0
208.10141 148.0
208.117996 284.0
208.500702 48.0
209.089066 316.0
209.565414 96.0
210.012253 252.0
210.089035 1840.0
210.450912 180.0
210.842392 152.0
210.921814 40.0
211.0504 176.0
211.086243 788.0
211.361404 112.0
211.494537 112.0
212.027466 76.0
212.102188 940.0
212.389877 132.0
212.819397 204.0
213.046005 168.0
213.099869 392.0
213.28421 168.0
213.595352 80.0
213.886337 144.0
213.985321 64.0
214.084396 1328.0
214.109314 316.0
214.212479 140.0
214.538864 140.0
214.85965 140.0
215.072678 164.0
215.09346 272.0
215.118088 304.0
215.198212 96.0
215.525345 60.0
216.034073 44.0
216.098114 372.0
216.130615 192.0
217.089523 168.0
217.666595 172.0
217.919205 132.0
218.08876 496.0
218.533707 124.0
218.663193 136.0
218.942871 136.0
219.088058 324.0
219.108658 200.0
220.075165 348.0
220.101181 268.0
220.243561 156.0
220.751907 100.0
221.080734 192.0
221.112656 188.0
221.142426 168.0
222.08931 732.0
222.132095 208.0
222.80896 52.0
222.939697 180.0
223.100281 568.0
223.582062 164.0
224.022736 96.0
224.105988 1192.0
224.156815 100.0
224.374405 128.0
224.586121 28.0
225.072174 204.0
225.108612 568.0
225.156189 144.0
225.83165 128.0
225.897461 152.0
226.117371 392.0
226.445236 132.0
226.666916 60.0
226.771805 180.0
227.117615 792.0
227.55777 64.0
227.83107 76.0
228.098526 300.0
228.118103 296.0
228.784393 104.0
228.819016 184.0
229.035797 72.0
229.100616 108.0
230.077728 172.0
230.101883 140.0
230.252853 44.0
231.096985 280.0
232.07457 112.0
232.114334 132.0
233.111221 356.0
233.249466 92.0
233.711746 60.0
233.733032 360.0
234.091354 496.0
234.126892 316.0
234.256714 120.0
234.375534 84.0
235.012802 88.0
235.091599 428.0
235.130966 128.0
235.852631 96.0
236.106918 752.0
236.583725 36.0
237.103104 584.0
237.145386 224.0
237.432495 112.0
238.120438 968.0
238.338089 40.0
238.605484 48.0
238.697723 188.0
238.885345 28.0
239.112381 460.0
239.260788 100.0
240.124664 184.0
240.660538 120.0
241.093002 168.0
241.134369 176.0
241.581543 116.0
241.968384 112.0
242.114777 312.0
243.096649 156.0
243.152512 192.0
243.640015 160.0
243.702164 160.0
243.932144 44.0
244.078262 32.0
244.136292 388.0
244.572922 136.0
245.08989 232.0
245.11171 176.0
245.944397 32.0
246.09877 128.0
246.127884 568.0
246.425323 92.0
247.094009 236.0
247.133545 112.0
248.106094 572.0
248.617264 80.0
249.104889 952.0
249.305023 172.0
249.75148 100.0
249.937088 60.0
250.118225 864.0
250.59201 100.0
251.117661 2652.0
251.197311 148.0
251.351913 196.0
251.396088 104.0
251.541275 52.0
251.999191 116.0
252.125443 1032.0
252.378494 64.0
252.852997 64.0
252.973282 136.0
253.135315 2928.0
253.222015 152.0
253.299438 104.0
253.4832 40.0
253.511719 64.0
253.575104 52.0
253.68605 84.0
254.13562 712.0
254.438736 204.0
254.850815 60.0
255.127228 136.0
255.154495 272.0
255.566223 104.0
255.594864 84.0
255.839935 76.0
255.881317 60.0
255.90361 64.0
256.016785 176.0
257.734436 152.0
258.108429 252.0
258.866821 148.0
259.065399 40.0
259.9375 72.0
260.106964 144.0
260.122498 44.0
260.146118 168.0
260.846436 208.0
260.910706 176.0
261.02005 48.0
261.115082 96.0
261.136749 208.0
261.888977 64.0
262.12326 556.0
262.749664 124.0
262.878723 72.0
263.12674 440.0
263.80246 180.0
264.135895 1328.0
264.4487 72.0
264.591827 192.0
264.763458 188.0
265.006409 64.0
265.067963 112.0
265.134644 1480.0
265.375916 176.0
265.62561 96.0
265.735931 44.0
265.933868 160.0
266.083191 164.0
266.146362 856.0
266.830444 124.0
266.947998 80.0
267.146057 272.0
267.220734 48.0
267.673187 68.0
268.125763 160.0
268.174896 468.0
268.474823 208.0
269.120941 112.0
269.173187 136.0
270.052307 116.0
270.978729 132.0
271.024597 168.0
272.225159 144.0
273.833374 92.0
274.875122 80.0
275.143951 316.0
275.211823 32.0
275.277863 84.0
276.130188 276.0
276.15921 544.0
276.633453 44.0
277.13443 256.0
277.21637 168.0
278.148438 944.0
279.035339 164.0
279.146881 1368.0
279.189606 132.0
279.341309 80.0
279.417816 44.0
279.514313 36.0
279.607483 72.0
279.75061 44.0
279.8172 68.0
280.157349 520.0
280.350159 64.0
281.080444 96.0
281.166687 568.0
281.801697 60.0
282.148682 764.0
282.694489 52.0
282.717896 40.0
283.147034 292.0
283.193329 148.0
283.970917 192.0
284.152985 116.0
284.961212 96.0
287.226807 196.0
289.095734 144.0
289.154114 172.0
289.399902 52.0
290.153717 148.0
290.236816 180.0
291.14093 224.0
291.319489 96.0
291.679688 120.0
291.771484 148.0
291.975494 144.0
292.157135 124.0
292.417786 128.0
293.161957 160.0
293.999146 76.0
294.142639 124.0
295.037537 136.0
295.123016 152.0
295.172821 140.0
295.179688 132.0
296.07431 200.0
296.160034 288.0
296.194916 136.0
296.910553 180.0
297.169769 192.0
297.196533 688.0
298.191711 168.0
298.308014 76.0
298.947754 100.0
300.346558 88.0
303.306458 136.0
304.059113 244.0
304.538239 68.0
305.160278 264.0
305.212433 116.0
306.0336 200.0
306.242554 176.0
306.535187 84.0
306.667633 44.0
306.834961 176.0
306.894226 76.0
307.033691 52.0
307.110443 156.0
307.178772 8060.0
307.263916 48.0
307.368591 148.0
307.403503 76.0
307.469788 112.0
307.516846 104.0
307.564026 44.0
307.742096 44.0
308.059906 96.0
308.126282 36.0
308.180817 1040.0
308.61908 76.0
308.661041 56.0
308.838226 84.0
308.954834 64.0
309.017822 44.0
309.182098 404.0
309.343292 56.0
309.93869 52.0
309.980743 48.0
310.019287 92.0
310.160339 76.0
310.804779 40.0
310.959198 104.0
311.039917 92.0
311.32431 120.0
311.451111 116.0
311.563141 68.0
311.798584 88.0
312.375214 136.0
316.157623 84.0
318.952484 76.0
319.048462 168.0
321.481232 156.0
323.010406 120.0
323.622406 160.0
324.177612 120.0
324.238525 108.0
324.381897 68.0
324.690277 84.0
324.758423 120.0
324.866028 152.0
324.901917 232.0
324.948547 164.0
325.070526 120.0
325.189728 18008.0
325.282288 140.0
325.369415 236.0
325.49411 120.0
325.565948 60.0
325.670105 80.0
325.841644 64.0
325.87027 172.0
325.917969 124.0
326.029388 44.0
326.190948 3108.0
326.324127 60.0
326.349304 76.0
326.467957 48.0
326.80249 52.0
326.83847 48.0
326.942841 40.0
327.058014 52.0
327.19986 644.0
327.392853 52.0
327.572937 32.0
327.846771 92.0
327.940491 120.0
327.976532 48.0
328.019775 56.0
328.06665 52.0
328.106293 56.0
328.250519 68.0
328.535309 104.0
328.647308 44.0
328.723083 52.0
328.791656 48.0
329.015442 112.0
329.210419 64.0
329.708984 100.0
330.225983 92.0
330.631195 44.0
330.757874 40.0
330.899048 72.0
335.761078 36.0
343.481964 52.0
343.614777 60.0
344.940552 88.0
349.915466 48.0
351.160095 60.0
352.055786 112.0
363.371155 60.0
365.616882 92.0
370.477631 108.0
375.424469 56.0
376.223175 108.0
378.87616 52.0
381.480164 72.0
384.3974 72.0
396.145752 64.0
396.462738 104.0
398.79245 72.0
402.828918 96.0
432.439484 52.0
451.12146 60.0
454.437592 92.0
458.392059 60.0
462.256653 32.0
468.952057 88.0
469.361633 100.0
484.452301 68.0
489.899689 32.0
492.568542 128.0
493.673492 72.0
503.316467 112.0
524.294006 48.0
533.954163 60.0
534.892761 64.0
545.62085 132.0
594.285767 68.0
609.633545 96.0
620.09137 100.0
652.333984 52.0
658.182861 80.0
667.833008 76.0
668.110779 72.0
673.771484 32.0
679.274475 60.0
684.841492 96.0
696.022766 68.0
725.508118 48.0
732.063293 96.0
765.744019 64.0
772.256836 40.0
774.603821 200.0
788.967041 96.0
792.386597 68.0
796.470581 160.0
812.979614 72.0
814.319458 80.0
815.194397 88.0
837.225464 180.0
845.064453 76.0
863.908875 144.0
873.488464 196.0
879.546021 192.0
883.736084 140.0
886.222839 128.0
945.203552 128.0
986.064941 72.0
988.560242 76.0
988.672913 128.0
989.373962 156.0
999.296509 136.0
1000.486023 32.0
1000.53009 172.0
1013.408142 160.0
1015.11322 180.0
1019.410889 112.0
1054.564941 196.0
1061.271606 116.0
1063.431885 172.0
1064.210938 160.0
1070.576904 92.0
1074.076904 168.0
1081.925293 68.0
1082.619385 84.0
1084.525879 148.0
1085.19458 148.0
1089.894165 44.0
1089.966431 188.0
1094.195801 152.0
1097.562622 148.0
1110.053833 132.0
1131.770386 116.0
1133.505371 196.0
1136.717407 120.0
1144.47168 216.0
1146.71106 120.0
1149.894409 104.0
1155.388184 108.0
1160.725342 120.0
1164.824707 160.0
1165.239136 36.0
1170.210938 192.0
1171.212036 68.0
1173.699585 204.0
1176.148682 264.0
1178.532227 140.0
1188.090088 196.0
1189.338989 208.0
1194.224365 116.0
1211.024292 180.0
1215.905396 136.0
1221.345703 180.0
1221.519531 132.0
1222.646729 136.0
1225.627197 152.0
1241.481567 172.0
1242.695068 176.0
1248.258179 212.0
1253.206543 164.0
1255.391846 144.0
1263.161011 200.0
1273.66626 188.0
1280.829224 152.0
1283.929688 236.0
1285.906006 120.0
1286.626953 184.0
1293.704468 132.0
1296.47644 120.0
1314.050659 176.0
1317.552246 212.0
1317.805054 32.0
1319.199951 164.0
1319.568604 212.0
1321.210327 92.0
1321.289917 192.0
1324.388306 256.0
1325.663452 176.0
1326.888428 144.0
1329.202148 84.0
1330.784546 144.0
1330.973267 156.0
1332.600342 216.0
1335.239136 76.0
1340.589966 192.0
1346.440918 204.0
1347.536621 124.0
1349.042114 156.0
1353.197632 232.0
1357.777588 40.0
1360.676025 220.0
1360.74939 188.0
1361.241455 40.0
1363.467285 176.0
1365.009033 68.0
1366.828125 132.0
1378.279541 164.0
1382.901733 120.0
1386.115845 60.0
1388.06543 164.0
1390.424438 168.0
1391.693848 216.0
1391.775513 128.0
1394.665405 192.0
1401.087524 36.0
1402.540649 348.0
1402.794067 180.0
1403.174316 172.0
1404.151123 84.0
1408.666992 116.0
1409.35437 176.0
1414.394897 80.0
1414.55957 176.0
1416.424194 160.0
1416.896118 100.0
1417.135864 44.0
1423.39917 100.0
1429.224731 44.0
1434.247925 156.0
1435.167725 112.0
1435.944458 256.0
1436.902466 92.0
1437.241943 124.0
1440.926514 208.0
1441.123047 208.0
1441.772827 116.0
1442.800903 60.0
1444.146851 188.0
1445.463257 232.0
1446.257935 168.0
1448.605347 164.0
1449.734253 152.0
1451.174561 184.0
1453.799072 240.0
1456.07666 180.0
1467.651367 232.0
1468.749512 48.0
1469.558228 124.0
1472.802734 160.0
1473.94873 160.0
1478.299805 64.0
1479.532104 116.0
1483.646118 164.0
1485.678467 156.0
1486.744995 184.0
1487.113403 120.0
1487.182495 200.0
1488.894653 268.0
1489.101929 128.0
1490.884399 164.0
1491.875977 176.0
1494.136963 200.0
1496.091797 176.0
1497.331421 184.0
1498.417603 196.0
1500.783813 192.0
1505.313354 236.0
