>compound MLS001158271-01!N-cyclopropyl-3-(2,3,5-trimethyl-7-oxofuro[3,2-g]chromen-6-yl)propanamide
>formula C20H21NO4
>ionization [M+H]+
>parentmass 340.155
#inchi InChI=1S/C20H21NO4/c1-10-12(3)24-17-9-18-16(8-15(10)17)11(2)14(20(23)25-18)6-7-19(22)21-13-4-5-13/h8-9,13H,4-7H2,1-3H3,(H,21,22)
#inchikey QFWCMDWDFUWPFL
#Ion_Source LC-ESI
#Instrument qTof
#Compound_Source NIH Natural Product Library
#PI Dorrestein
#Data_Collector VVP/LMS
#Scan -1
#Precursor_MZ 340.155
#ExactMass 339.147
#Charge 1
#CAS_Number N/A
#Pubmed_ID N/A
#Smiles Cc1oc2cc3oc(=O)c(CCC(=O)NC4CC4)c(C)c3cc2c1C
#INCHI_AUX N/A
#Library_Class 1
#SpectrumID CCMSLIB00000079684
#IonMode Positive
#UpdateWorkflowName UPDATE-SINGLE-ANNOTATED-GOLD
#LibraryQualityString Gold
#TaskID b1d8e8f6646f4e71acdff9ca3d919d08
##Scan# 2166
#SpectrumFile p1-G09-2_GG9_01_17969.mzXML
#LibraryName NIH_Natural_Products_Library.mgf
#MQScore -1
#Organism NIH_Natural_Products_Library
#TIC_Query 0
#RT_Query -1
#MZErrorPPM -1
#SharedPeaks 0
#MassDiff 0
#LibMZ -1
#SpecMZ 340.155
#SpecCharge 0
#internalFilename spec-00000.mgf

>collision 10
95.020424 188.0
95.055626 140.0
95.070877 184.0
95.204826 116.0
95.232018 28.0
95.286407 136.0
95.307785 92.0
95.332603 124.0
95.339203 96.0
95.343376 140.0
95.362198 176.0
95.434128 148.0
95.451622 148.0
95.469124 132.0
95.492462 84.0
95.53331 148.0
95.578064 128.0
95.618179 228.0
95.659805 236.0
95.755211 160.0
95.809753 136.0
95.831184 232.0
95.893547 144.0
95.977371 192.0
96.006622 204.0
96.031975 164.0
96.047585 116.0
96.065956 228.0
96.094398 172.0
96.227119 48.0
96.264221 264.0
96.344299 168.0
96.388031 220.0
96.442009 144.0
96.459602 200.0
96.483055 140.0
96.50988 128.0
96.545631 156.0
96.580833 176.0
96.618904 156.0
96.684532 248.0
96.759224 176.0
96.778488 84.0
96.801987 156.0
96.858223 180.0
96.884254 92.0
96.927361 104.0
96.941071 204.0
96.98027 184.0
97.062614 124.0
97.119484 92.0
97.16008 164.0
97.195274 448.0
97.211693 112.0
97.288246 172.0
97.323586 40.0
97.347145 136.0
97.362854 136.0
97.378571 208.0
97.41082 220.0
97.514137 124.0
97.533791 80.0
97.555412 132.0
97.572807 156.0
97.636032 104.0
97.685204 104.0
97.716682 128.0
97.740128 140.0
97.744347 156.0
97.769814 92.0
97.791458 80.0
97.811142 120.0
97.826889 232.0
97.850517 168.0
97.872177 196.0
97.88858 144.0
97.926682 200.0
97.943069 224.0
97.964745 164.0
97.986816 156.0
98.014 160.0
98.077065 460.0
98.102684 156.0
98.149017 72.0
98.163811 184.0
98.189445 176.0
98.203255 100.0
98.233063 140.0
98.276505 208.0
98.301895 384.0
98.333473 176.0
98.349266 56.0
98.374924 164.0
98.388741 136.0
98.417419 252.0
98.441803 124.0
98.455032 252.0
98.47168 136.0
98.536865 188.0
98.667305 196.0
98.790894 260.0
98.856285 140.0
98.873024 164.0
98.902054 144.0
98.941734 168.0
99.11264 148.0
99.148308 192.0
99.162178 120.0
99.213722 136.0
99.246719 184.0
99.297005 152.0
99.320953 160.0
99.33667 160.0
99.420006 212.0
99.444435 168.0
99.471611 100.0
99.525215 188.0
99.576843 124.0
99.624519 120.0
99.670212 168.0
99.757668 120.0
99.819298 148.0
99.833694 152.0
99.878967 116.0
99.910118 200.0
99.924721 148.0
99.952576 228.0
99.990387 108.0
100.006973 132.0
100.111824 132.0
100.13282 108.0
100.176231 144.0
100.201462 112.0
100.265228 88.0
100.282745 228.0
100.311111 180.0
100.350945 204.0
100.364899 160.0
100.382851 40.0
100.44651 248.0
100.504135 164.0
100.57238 164.0
100.620293 88.0
100.704163 220.0
100.726128 76.0
100.746109 148.0
100.790062 240.0
100.841026 160.0
100.945984 204.0
100.975983 160.0
101.04599 156.0
101.080009 104.0
101.147957 288.0
101.163712 156.0
101.187225 200.0
101.206116 120.0
101.243927 172.0
101.298241 116.0
101.314262 60.0
101.357605 228.0
101.384392 156.0
101.414345 144.0
101.48262 140.0
101.506676 176.0
101.538765 76.0
101.558823 208.0
101.655121 168.0
101.669174 156.0
101.706505 180.0
101.735405 112.0
101.749458 148.0
101.8097 128.0
101.825714 160.0
101.892059 112.0
101.937485 184.0
101.978462 88.0
102.080994 180.0
102.131279 156.0
102.193642 128.0
102.315117 108.0
102.347374 248.0
102.382858 120.0
102.411186 120.0
102.433212 180.0
102.446426 172.0
102.475426 168.0
102.538551 200.0
102.609764 132.0
102.630722 224.0
102.714905 376.0
102.741646 172.0
102.909164 164.0
102.991959 96.0
103.053619 276.0
103.092606 108.0
103.107666 120.0
103.137444 140.0
103.21022 184.0
103.262802 88.0
103.289101 240.0
103.319443 172.0
103.337128 200.0
103.372398 152.0
103.409241 212.0
103.442886 156.0
103.537453 216.0
103.639336 216.0
103.67379 32.0
103.710266 196.0
103.758919 160.0
103.815697 32.0
103.842857 136.0
103.938553 184.0
104.010071 184.0
104.061218 132.0
104.076553 152.0
104.122139 160.0
104.370064 180.0
104.394463 152.0
104.420906 108.0
104.443275 200.0
104.461586 180.0
104.532791 200.0
104.561287 196.0
104.634567 204.0
104.796371 308.0
104.830109 148.0
104.891251 172.0
104.925903 116.0
104.997276 100.0
105.045174 132.0
105.069374 128.0
105.084991 176.0
105.152328 164.0
105.217651 128.0
105.246956 148.0
105.285034 304.0
105.342285 140.0
105.372871 156.0
105.42395 132.0
105.468918 84.0
105.487312 136.0
105.622696 136.0
105.652962 152.0
105.712296 116.0
105.726624 212.0
105.760048 156.0
105.779839 112.0
105.855286 132.0
105.863495 112.0
105.880165 208.0
105.914253 168.0
105.931931 148.0
105.974396 148.0
105.997002 188.0
106.011284 220.0
106.056374 64.0
106.093269 196.0
106.175285 76.0
106.212204 264.0
106.232719 148.0
106.274117 168.0
106.29998 204.0
106.384575 176.0
106.415375 200.0
106.470818 108.0
106.50779 244.0
106.594078 140.0
106.635178 68.0
106.656319 396.0
106.672173 108.0
106.777039 136.0
106.836693 140.0
106.863434 136.0
106.940674 248.0
106.959358 216.0
107.000587 272.0
107.046143 152.0
107.071342 100.0
107.120995 116.0
107.230263 120.0
107.314362 176.0
107.4692 180.0
107.518723 144.0
107.544708 204.0
107.59716 108.0
107.613678 144.0
107.649879 128.0
107.669434 148.0
107.692154 144.0
107.710739 124.0
107.776855 160.0
107.799583 104.0
107.840919 204.0
107.87606 140.0
107.898796 164.0
107.925674 56.0
107.994423 148.0
108.03672 168.0
108.068398 140.0
108.132545 160.0
108.157379 32.0
108.180153 184.0
108.202927 32.0
108.232033 136.0
108.275398 208.0
108.310608 136.0
108.360329 92.0
108.41835 136.0
108.488823 92.0
108.534439 332.0
108.552292 208.0
108.567612 176.0
108.602875 240.0
108.673409 224.0
108.82547 168.0
108.858147 144.0
108.886803 160.0
108.98278 188.0
109.013 176.0
109.036812 224.0
109.074219 148.0
109.104538 192.0
109.130356 168.0
109.167778 124.0
109.224304 136.0
109.302818 188.0
109.421005 212.0
109.459114 104.0
109.484215 152.0
109.548676 160.0
109.6511 204.0
109.71122 136.0
109.759178 172.0
109.786285 176.0
109.80088 136.0
109.835541 52.0
109.894753 140.0
109.944839 100.0
110.019981 192.0
110.059647 216.0
110.120499 172.0
110.203773 152.0
110.268555 208.0
110.285271 184.0
110.340088 144.0
110.377258 188.0
110.40094 160.0
110.423271 172.0
110.442787 120.0
110.481834 128.0
110.524864 200.0
110.604836 144.0
110.624916 216.0
110.663918 176.0
110.712082 120.0
110.743668 120.0
110.803398 128.0
110.837769 156.0
110.913216 516.0
110.951775 224.0
110.973358 140.0
110.980392 96.0
110.985199 144.0
111.02784 36.0
111.095657 316.0
111.122932 128.0
111.166992 56.0
111.198036 192.0
111.328995 332.0
111.385345 164.0
111.399353 176.0
111.427361 140.0
111.490402 204.0
111.519821 140.0
111.538742 92.0
111.591301 184.0
111.63546 244.0
111.69014 148.0
111.73011 148.0
111.804718 192.0
111.859947 132.0
111.91111 172.0
111.939316 132.0
111.99324 104.0
112.011963 180.0
112.098656 116.0
112.24192 172.0
112.284103 176.0
112.304047 128.0
112.328392 44.0
112.372696 188.0
112.406982 80.0
112.446556 36.0
112.516212 36.0
112.57164 192.0
112.624695 184.0
112.716866 164.0
112.740112 168.0
112.814095 176.0
112.855576 180.0
112.913475 188.0
112.950829 212.0
113.013817 156.0
113.089081 164.0
113.203094 164.0
113.237289 196.0
113.263138 176.0
113.338974 148.0
113.362282 212.0
113.390541 160.0
113.425865 188.0
113.493713 144.0
113.523399 160.0
113.54248 184.0
113.589149 128.0
113.614601 148.0
113.660278 76.0
113.678253 52.0
113.697357 176.0
113.760323 180.0
113.82048 136.0
113.84449 196.0
113.935745 148.0
113.958542 164.0
114.098816 144.0
114.184998 288.0
114.213654 144.0
114.326416 136.0
114.344742 196.0
114.379623 112.0
114.487297 280.0
114.528679 144.0
114.579803 112.0
114.671547 192.0
114.719063 220.0
114.743912 140.0
114.7631 172.0
114.814278 128.0
114.835999 212.0
114.865524 152.0
114.903641 152.0
114.938004 172.0
115.004166 176.0
115.053261 1596.0
115.074608 172.0
115.125854 212.0
115.142944 192.0
115.162163 128.0
115.185234 168.0
115.24762 184.0
115.283943 272.0
115.307449 140.0
115.330963 172.0
115.405785 68.0
115.42289 88.0
115.459244 156.0
115.484909 124.0
115.510582 204.0
115.532532 92.0
115.560303 148.0
115.617561 212.0
115.671066 188.0
115.716026 40.0
115.745232 156.0
115.787758 148.0
115.86499 224.0
115.888336 180.0
115.921654 180.0
115.942215 128.0
115.990242 196.0
116.060631 340.0
116.114601 116.0
116.191818 164.0
116.215424 172.0
116.385071 104.0
116.415314 188.0
116.453712 124.0
116.481636 180.0
116.498817 104.0
116.527626 180.0
116.567574 152.0
116.593361 156.0
116.627747 176.0
116.651398 140.0
116.675423 180.0
116.713745 164.0
116.749939 212.0
116.788887 132.0
116.828751 192.0
116.855705 172.0
116.877327 160.0
116.908272 176.0
117.025734 188.0
117.068932 816.0
117.103264 180.0
117.135361 124.0
117.163574 172.0
117.187271 184.0
117.256233 132.0
117.299339 36.0
117.346771 184.0
117.441658 60.0
117.458908 44.0
117.489113 144.0
117.549522 164.0
117.59053 200.0
117.611015 236.0
117.737343 60.0
117.774055 156.0
117.823189 188.0
117.89505 124.0
117.965958 188.0
118.074348 124.0
118.12207 188.0
118.145866 212.0
118.174698 184.0
118.210777 216.0
118.228088 104.0
118.269211 144.0
118.284363 96.0
118.321167 112.0
118.355812 200.0
118.42511 116.0
118.448936 180.0
118.479942 192.0
118.496597 156.0
118.533432 224.0
118.709015 376.0
118.807899 172.0
118.882561 128.0
118.91777 108.0
118.965042 116.0
118.98024 144.0
119.046791 172.0
119.088814 144.0
119.131119 160.0
119.206131 132.0
119.279198 168.0
119.30394 156.0
119.336548 164.0
119.40831 160.0
119.443115 132.0
119.510681 136.0
119.547546 184.0
119.571609 212.0
119.621552 36.0
119.671623 116.0
119.693398 128.0
119.74131 92.0
119.800117 136.0
119.821907 208.0
119.842964 112.0
119.915604 188.0
119.943939 164.0
120.055962 232.0
120.096573 104.0
120.155472 96.0
120.17511 124.0
120.22287 216.0
120.275497 200.0
120.351906 224.0
120.391212 72.0
120.408684 112.0
120.430527 128.0
120.557243 80.0
120.57254 196.0
120.719017 156.0
120.756195 164.0
120.7715 100.0
120.80175 164.0
120.854637 228.0
120.881721 160.0
120.902779 152.0
120.948738 140.0
120.975006 196.0
121.004105 180.0
121.080109 108.0
121.152969 168.0
121.224701 204.0
121.31237 68.0
121.341385 152.0
121.358406 92.0
121.391304 188.0
121.426674 156.0
121.455215 196.0
121.492195 220.0
121.51194 188.0
121.544853 204.0
121.615814 216.0
121.678047 152.0
121.720459 88.0
121.76516 180.0
121.792931 216.0
121.83345 140.0
121.852249 60.0
121.883011 152.0
121.920143 116.0
122.108063 212.0
122.177628 188.0
122.215492 172.0
122.267845 112.0
122.29734 172.0
122.363968 36.0
122.399925 220.0
122.457184 56.0
122.474808 204.0
122.500298 220.0
122.518867 60.0
122.575279 152.0
122.602592 120.0
122.640709 164.0
122.699585 140.0
122.728249 48.0
122.754707 184.0
122.801018 116.0
122.838516 108.0
122.862785 200.0
122.913528 176.0
122.957664 208.0
123.04155 180.0
123.087914 184.0
123.187302 124.0
123.225655 156.0
123.259956 176.0
123.348618 188.0
123.3862 144.0
123.410515 128.0
123.448105 144.0
123.678154 180.0
123.702065 164.0
123.737968 168.0
123.771919 192.0
123.842049 124.0
123.861099 160.0
123.926231 180.0
123.958611 144.0
123.981628 160.0
124.019119 184.0
124.054779 48.0
124.107986 160.0
124.292091 76.0
124.314278 100.0
124.357597 116.0
124.376427 152.0
124.420822 160.0
124.479279 208.0
124.547401 132.0
124.589767 164.0
124.701416 164.0
124.76638 140.0
124.816315 64.0
124.869682 168.0
124.920784 144.0
124.967567 160.0
125.003166 156.0
125.024628 216.0
125.052124 76.0
125.08329 72.0
125.162323 344.0
125.236931 144.0
125.299004 88.0
125.360771 328.0
125.39859 216.0
125.475372 136.0
125.512764 140.0
125.606949 116.0
125.756447 76.0
125.801086 156.0
125.835945 124.0
125.851883 112.0
125.886963 192.0
125.903801 64.0
125.990913 92.0
126.045998 232.0
126.11158 124.0
126.193428 124.0
126.241989 292.0
126.315056 76.0
126.390533 172.0
126.518967 136.0
126.553558 184.0
126.606026 208.0
126.626183 128.0
126.713547 92.0
126.765083 144.0
126.861458 168.0
126.883881 160.0
126.939934 216.0
127.055359 936.0
127.096954 128.0
127.15081 120.0
127.256134 148.0
127.325928 100.0
127.343895 76.0
127.471603 104.0
127.53038 168.0
127.593651 196.0
127.613564 204.0
127.631546 148.0
127.703514 164.0
127.737251 128.0
127.777748 188.0
127.806999 92.0
127.881668 156.0
127.973557 156.0
128.0186 96.0
128.062042 3544.0
128.094482 176.0
128.110947 184.0
128.180786 144.0
128.203323 184.0
128.261917 136.0
128.311661 180.0
128.428772 128.0
128.568665 176.0
128.643143 212.0
128.683792 216.0
128.708618 100.0
128.724426 204.0
128.740234 176.0
128.7854 176.0
128.821793 148.0
128.910767 168.0
128.927124 188.0
128.96701 204.0
129.009003 160.0
129.069489 10748.0
129.108597 160.0
129.135742 160.0
129.166809 76.0
129.190033 52.0
129.21492 132.0
129.233017 48.0
129.260178 64.0
129.316742 168.0
129.361969 172.0
129.395981 48.0
129.423691 152.0
129.441681 164.0
129.484283 136.0
129.511475 96.0
129.534119 180.0
129.679138 92.0
129.70047 136.0
129.715408 156.0
129.738205 136.0
129.75676 76.0
129.787949 176.0
129.917236 44.0
129.933105 72.0
129.982651 188.0
130.026031 148.0
130.073135 1620.0
130.128708 132.0
130.200958 204.0
130.216858 108.0
130.232758 96.0
130.315216 68.0
130.341812 136.0
130.359985 116.0
130.409271 188.0
130.475906 48.0
130.514557 112.0
130.530472 148.0
130.654465 188.0
130.681595 56.0
130.723297 212.0
130.788025 204.0
130.810318 188.0
130.828537 224.0
130.896835 220.0
130.915726 96.0
130.962891 48.0
130.983383 68.0
131.046417 392.0
131.081863 184.0
131.129822 228.0
131.186203 104.0
131.211273 152.0
131.270554 120.0
131.357224 52.0
131.38916 120.0
131.430237 136.0
131.475876 128.0
131.514664 204.0
131.532928 244.0
131.603699 112.0
131.626541 116.0
131.680298 208.0
131.779572 124.0
131.82756 100.0
131.866409 196.0
131.882416 48.0
131.948746 196.0
132.057648 416.0
132.092575 184.0
132.145401 196.0
132.163696 80.0
132.179718 136.0
132.218628 220.0
132.29187 196.0
132.317047 120.0
132.351395 196.0
132.419785 180.0
132.452164 180.0
132.495697 180.0
132.557556 180.0
132.585052 244.0
132.63768 108.0
132.676743 156.0
132.702255 156.0
132.723526 196.0
132.786148 148.0
132.837265 128.0
132.888718 164.0
132.956589 80.0
132.993301 100.0
133.017044 124.0
133.032333 184.0
133.075409 204.0
133.112686 124.0
133.174698 216.0
133.255096 188.0
133.335526 132.0
133.427109 200.0
133.44397 204.0
133.530945 148.0
133.57695 176.0
133.643661 172.0
133.740326 128.0
133.889984 148.0
133.929138 140.0
133.960693 140.0
134.02359 280.0
134.040741 152.0
134.068954 168.0
134.097336 204.0
134.207977 28.0
134.313629 144.0
134.360214 232.0
134.475586 164.0
134.523285 204.0
134.531464 136.0
134.575287 288.0
134.62796 176.0
134.674149 88.0
134.729599 72.0
134.884369 152.0
134.926041 168.0
134.949158 160.0
134.970657 332.0
135.040268 112.0
135.111053 104.0
135.161957 188.0
135.298264 156.0
135.361023 176.0
135.398071 124.0
135.513901 228.0
135.55072 180.0
135.555145 160.0
135.634415 224.0
135.659912 128.0
135.727142 96.0
135.754974 176.0
135.780487 164.0
135.866302 152.0
135.968399 180.0
136.091431 84.0
136.161285 196.0
136.242401 116.0
136.260986 188.0
136.372528 224.0
136.391129 172.0
136.417816 140.0
136.439941 148.0
136.474823 128.0
136.513275 196.0
136.567841 148.0
136.59343 104.0
136.646927 48.0
136.751648 244.0
136.786438 144.0
136.816833 144.0
136.83313 168.0
136.882019 112.0
136.92627 100.0
136.954224 168.0
136.998474 172.0
137.070709 156.0
137.097382 268.0
137.226868 132.0
137.297745 136.0
137.34581 464.0
137.458633 212.0
137.490463 116.0
137.553604 160.0
137.672562 200.0
137.721603 160.0
137.794022 336.0
137.871536 184.0
137.892166 164.0
137.928131 144.0
137.979782 276.0
138.054565 252.0
138.076874 124.0
138.159134 100.0
138.220428 444.0
138.239975 172.0
138.316666 172.0
138.334625 128.0
138.376389 48.0
138.408386 192.0
138.43631 256.0
138.507126 180.0
138.542679 140.0
138.584839 164.0
138.696304 244.0
138.720779 140.0
138.760635 208.0
138.809875 148.0
138.860718 164.0
138.943909 256.0
138.97406 136.0
139.013321 192.0
139.053848 172.0
139.164185 136.0
139.236984 116.0
139.294998 148.0
139.330811 144.0
139.429626 192.0
139.447647 144.0
139.551865 148.0
139.605469 116.0
139.633362 196.0
139.688278 164.0
139.740021 168.0
139.784729 120.0
139.829453 148.0
139.845917 108.0
139.969437 156.0
140.006027 140.0
140.048218 148.0
140.152069 260.0
140.170929 108.0
140.193588 136.0
140.272263 132.0
140.295837 180.0
140.328568 156.0
140.380356 208.0
140.449112 108.0
140.475067 212.0
140.505249 264.0
140.553802 140.0
140.628448 120.0
140.649689 168.0
140.692169 160.0
140.71814 104.0
140.765366 176.0
140.810242 216.0
140.850388 244.0
140.909882 180.0
140.93544 156.0
140.961502 300.0
141.022888 48.0
141.041046 204.0
141.069244 7180.0
141.141083 268.0
141.167511 160.0
141.18602 136.0
141.209671 88.0
141.235382 156.0
141.24118 136.0
141.306656 112.0
141.356339 168.0
141.37764 144.0
141.401306 80.0
141.420242 168.0
141.448654 52.0
141.467255 112.0
141.503098 176.0
141.519669 180.0
141.666504 28.0
141.699677 152.0
141.718628 108.0
141.822906 80.0
141.858459 136.0
141.873993 156.0
141.920105 132.0
142.041397 168.0
142.076035 5996.0
142.135956 60.0
142.171555 172.0
142.255112 248.0
142.335342 120.0
142.35672 128.0
142.375717 172.0
142.394714 92.0
142.443359 156.0
142.482605 168.0
142.499237 152.0
142.596664 144.0
142.631042 208.0
142.725037 32.0
142.746445 284.0
142.805893 236.0
142.884399 128.0
142.908188 68.0
142.927216 212.0
143.020035 76.0
143.043839 408.0
143.059494 120.0
143.083633 3644.0
143.129547 84.0
143.186707 144.0
143.2444 216.0
143.336792 188.0
143.374908 124.0
143.46106 56.0
143.497314 208.0
143.528946 188.0
143.556091 260.0
143.57756 224.0
143.629929 200.0
143.661041 140.0
143.720688 144.0
143.747925 280.0
143.792282 180.0
143.823303 40.0
143.848816 124.0
143.933868 168.0
143.976105 76.0
144.056534 1172.0
144.089493 508.0
144.119446 176.0
144.198303 112.0
144.238937 180.0
144.2724 28.0
144.316956 172.0
144.396133 188.0
144.441055 160.0
144.48764 140.0
144.506775 132.0
144.573776 180.0
144.607285 208.0
144.624039 96.0
144.668549 228.0
144.705429 128.0
144.72937 236.0
144.772476 188.0
144.813919 132.0
144.851517 92.0
144.877869 52.0
144.916199 204.0
145.028839 124.0
145.062149 2056.0
145.100464 336.0
145.129517 204.0
145.146301 80.0
145.210556 76.0
145.224197 168.0
145.259033 136.0
145.298615 220.0
145.331009 104.0
145.405396 128.0
145.475006 220.0
145.50621 116.0
145.544632 92.0
145.566238 108.0
145.58786 148.0
145.647385 152.0
145.675095 148.0
145.763214 120.0
145.794464 72.0
145.816086 96.0
145.862961 152.0
145.884567 164.0
145.943497 244.0
145.979568 172.0
146.013229 140.0
146.067993 440.0
146.087799 112.0
146.144653 108.0
146.164795 100.0
146.232178 100.0
146.256241 68.0
146.309204 92.0
146.327881 164.0
146.44165 108.0
146.463318 128.0
146.669601 204.0
146.716354 172.0
146.740463 120.0
146.762161 160.0
146.81279 152.0
146.886627 336.0
146.938232 152.0
146.969589 116.0
146.991318 80.0
147.008209 148.0
147.043228 148.0
147.070724 128.0
147.155441 148.0
147.249619 208.0
147.268951 164.0
147.307587 184.0
147.343826 204.0
147.429565 100.0
147.592773 116.0
147.614548 136.0
147.795959 164.0
147.843521 240.0
147.95813 132.0
147.98233 164.0
148.115524 148.0
148.159134 208.0
148.238113 184.0
148.265747 208.0
148.287567 156.0
148.309372 140.0
148.343307 56.0
148.373474 228.0
148.394806 132.0
148.416046 40.0
148.521393 236.0
148.551865 64.0
148.737167 164.0
148.886826 188.0
148.902695 124.0
149.015564 192.0
149.18811 116.0
149.214859 108.0
149.241608 188.0
149.291412 124.0
149.320068 272.0
149.370499 168.0
149.392395 140.0
149.457413 160.0
149.499451 52.0
149.518921 168.0
149.5457 160.0
149.650375 152.0
149.720993 160.0
149.820862 156.0
149.859833 156.0
149.996307 196.0
150.045074 188.0
150.099503 84.0
150.118225 204.0
150.173767 196.0
150.203583 100.0
150.223099 148.0
150.276764 180.0
150.303604 48.0
150.491562 172.0
150.582123 96.0
150.630768 180.0
150.656372 352.0
150.701614 152.0
150.738266 204.0
150.770035 180.0
150.794479 136.0
150.884918 144.0
150.965607 156.0
150.997406 140.0
151.068329 304.0
151.173538 208.0
151.189529 168.0
151.295929 160.0
151.325302 168.0
151.366928 64.0
151.397644 140.0
151.469803 116.0
151.486938 160.0
151.523697 180.0
151.575317 388.0
151.626602 48.0
151.663376 144.0
151.682892 124.0
151.729568 192.0
151.798218 200.0
151.859528 176.0
151.908722 144.0
151.972305 136.0
152.059372 2028.0
152.14418 148.0
152.169464 188.0
152.208008 172.0
152.301331 52.0
152.399597 124.0
152.443832 148.0
152.460007 152.0
152.534775 192.0
152.561813 172.0
152.583939 68.0
152.601151 228.0
152.691071 204.0
152.778229 168.0
152.802826 152.0
152.912659 164.0
153.019409 144.0
153.06752 1812.0
153.117905 180.0
153.140076 196.0
153.174454 92.0
153.183624 88.0
153.265717 220.0
153.300476 212.0
153.329132 164.0
153.386475 340.0
153.403732 216.0
153.477692 104.0
153.512451 124.0
153.60347 148.0
153.758926 180.0
153.791 140.0
153.82843 160.0
153.874939 128.0
153.9021 136.0
153.951492 192.0
153.995941 132.0
154.026779 264.0
154.037079 128.0
154.041428 220.0
154.076981 3668.0
154.129349 148.0
154.161469 192.0
154.245499 152.0
154.270752 92.0
154.292816 200.0
154.396332 104.0
154.424057 204.0
154.474243 40.0
154.569382 176.0
154.631195 184.0
154.659897 192.0
154.743591 268.0
154.777725 192.0
154.829422 88.0
154.861618 156.0
154.878952 124.0
154.896301 132.0
154.958237 120.0
154.992752 116.0
155.027618 168.0
155.04985 340.0
155.084137 2040.0
155.108948 200.0
155.193924 220.0
155.23584 136.0
155.300323 32.0
155.323959 336.0
155.344971 188.0
155.486404 140.0
155.545975 164.0
155.584076 140.0
155.603073 220.0
155.685013 180.0
155.707367 104.0
155.727234 168.0
155.749252 176.0
155.78685 116.0
155.905334 152.0
155.929916 188.0
155.953339 72.0
155.973221 252.0
156.056503 268.0
156.091797 1624.0
156.128784 52.0
156.14859 212.0
156.254242 120.0
156.274139 64.0
156.321426 64.0
156.378662 352.0
156.396088 148.0
156.433426 172.0
156.48819 140.0
156.513092 84.0
156.535294 192.0
156.612717 204.0
156.658981 292.0
156.732803 232.0
156.764679 92.0
156.817017 160.0
156.849426 156.0
156.881836 60.0
156.916733 152.0
156.967621 176.0
157.00618 156.0
157.015823 136.0
157.025131 256.0
157.064133 5168.0
157.10054 11888.0
157.150955 132.0
157.182037 132.0
157.200562 224.0
157.28511 132.0
157.328384 88.0
157.363602 332.0
157.381516 144.0
157.400787 164.0
157.490692 124.0
157.53566 196.0
157.558151 196.0
157.58812 104.0
157.632233 172.0
157.663925 216.0
157.68309 100.0
157.774338 240.0
157.798065 80.0
157.841141 248.0
157.88559 156.0
157.935608 232.0
157.985641 244.0
158.019775 168.0
158.06871 1844.0
158.102386 916.0
158.175827 40.0
158.200867 272.0
158.226547 232.0
158.285233 132.0
158.338577 184.0
158.368637 132.0
158.397263 208.0
158.478683 172.0
158.504593 148.0
158.593887 116.0
158.689407 140.0
158.744568 156.0
158.777161 204.0
158.80986 120.0
158.902588 192.0
158.946701 220.0
158.980377 164.0
159.00296 164.0
159.047104 184.0
159.078476 1304.0
159.120941 124.0
159.142395 88.0
159.256546 152.0
159.289581 52.0
159.339447 60.0
159.362061 128.0
159.517868 172.0
159.543015 168.0
159.618439 88.0
159.653656 196.0
159.733704 116.0
159.784454 144.0
159.809601 128.0
159.841034 180.0
159.918335 156.0
159.958099 140.0
160.051758 196.0
160.085648 260.0
160.131836 128.0
160.353546 148.0
160.392532 164.0
160.416565 168.0
160.471237 160.0
160.49472 188.0
160.514893 120.0
160.532547 168.0
160.582977 100.0
160.635956 152.0
160.668747 132.0
160.706589 284.0
160.769684 152.0
160.810059 144.0
160.890839 132.0
160.933762 152.0
160.970184 56.0
161.001938 148.0
161.063736 112.0
161.159531 144.0
161.166595 176.0
161.196457 152.0
161.284912 192.0
161.331909 128.0
161.41304 112.0
161.449249 84.0
161.466949 60.0
161.649109 144.0
161.674789 340.0
161.714905 208.0
161.778183 168.0
161.803497 128.0
161.868103 176.0
162.011169 108.0
162.056732 204.0
162.062393 200.0
162.13533 152.0
162.231644 180.0
162.253967 124.0
162.556305 116.0
162.599442 204.0
162.627914 200.0
162.644135 112.0
162.722931 236.0
162.766998 156.0
162.789841 56.0
162.845718 160.0
162.909225 52.0
162.937164 52.0
162.984116 176.0
163.127762 176.0
163.173523 104.0
163.369354 216.0
163.521347 392.0
163.574509 168.0
163.591553 152.0
163.636581 180.0
163.70787 144.0
163.743134 180.0
163.825043 240.0
163.855606 264.0
163.881088 116.0
163.980011 240.0
164.041656 184.0
164.068222 180.0
164.097733 192.0
164.192093 232.0
164.22525 168.0
164.311981 116.0
164.329834 132.0
164.411484 180.0
164.493164 164.0
164.555435 224.0
164.702621 168.0
164.98877 124.0
165.039902 152.0
165.068924 1648.0
165.106339 204.0
165.136703 200.0
165.192398 108.0
165.244522 168.0
165.296005 132.0
165.357117 116.0
165.387817 156.0
165.510712 48.0
165.554245 152.0
165.577286 132.0
165.615707 172.0
165.665421 332.0
165.815552 152.0
165.841187 100.0
165.933472 176.0
165.956543 44.0
165.984756 148.0
166.020752 104.0
166.041168 136.0
166.075958 660.0
166.166183 88.0
166.222229 152.0
166.251541 164.0
166.284912 100.0
166.420837 156.0
166.449203 116.0
166.600739 300.0
166.65213 204.0
166.690674 160.0
166.71637 60.0
166.806808 212.0
166.842316 96.0
166.896301 120.0
167.014603 172.0
167.037766 164.0
167.084381 2832.0
167.147507 152.0
167.174118 84.0
167.200653 232.0
167.238464 164.0
167.266785 180.0
167.316925 184.0
167.354309 132.0
167.429184 104.0
167.48822 136.0
167.57991 216.0
167.671158 252.0
167.722702 228.0
167.754166 160.0
167.77684 196.0
167.802628 172.0
167.872238 216.0
168.022339 84.0
168.053635 180.0
168.090897 1164.0
168.155533 188.0
168.184265 68.0
168.313507 188.0
168.338852 132.0
168.413742 172.0
168.4478 120.0
168.52272 136.0
168.564072 140.0
168.595078 192.0
168.618134 216.0
168.657104 96.0
168.688019 184.0
168.719147 168.0
168.737244 136.0
168.788956 128.0
168.845856 92.0
168.902756 148.0
168.926041 148.0
168.96225 200.0
168.988129 56.0
169.02121 188.0
169.064438 2312.0
169.09935 1716.0
169.262497 180.0
169.285797 88.0
169.335007 152.0
169.366089 256.0
169.38681 228.0
169.433441 132.0
169.490448 228.0
169.538376 200.0
169.622482 156.0
169.643356 68.0
169.661499 372.0
169.690018 76.0
169.806717 148.0
169.848206 76.0
169.868958 40.0
169.913071 156.0
169.977936 36.0
169.998688 212.0
170.071136 4368.0
170.10347 132.0
170.175201 28.0
170.20636 60.0
170.243011 172.0
170.388901 228.0
170.434937 112.0
170.525894 52.0
170.588287 164.0
170.613785 148.0
170.692276 132.0
170.737823 132.0
170.848633 176.0
170.895172 196.0
171.012268 112.0
171.078506 2312.0
171.115341 1260.0
171.155457 56.0
171.220566 144.0
171.241394 88.0
171.328293 168.0
171.353409 104.0
171.381805 144.0
171.405518 160.0
171.452423 108.0
171.567123 140.0
171.619263 236.0
171.650558 52.0
171.687057 336.0
171.736618 176.0
171.765305 156.0
171.888763 160.0
171.936264 156.0
172.000153 164.0
172.034454 140.0
172.051407 132.0
172.085968 284.0
172.1194 328.0
172.19046 104.0
172.228088 164.0
172.290939 136.0
172.324829 184.0
172.394531 68.0
172.433899 184.0
172.543518 176.0
172.569672 156.0
172.631714 148.0
172.639542 144.0
172.687347 164.0
172.715591 180.0
172.737045 140.0
172.759201 144.0
172.788208 236.0
172.861877 220.0
172.886185 164.0
172.920197 148.0
172.94899 176.0
172.96994 140.0
173.005493 152.0
173.059296 280.0
173.096451 172.0
173.153473 124.0
173.195129 80.0
173.244293 156.0
173.313019 152.0
173.379868 164.0
173.435242 148.0
173.485992 44.0
173.547287 184.0
173.585632 168.0
173.666443 108.0
173.703644 392.0
173.769241 128.0
173.795471 96.0
173.894012 136.0
173.918823 196.0
173.952942 236.0
174.058151 108.0
174.097351 232.0
174.117126 200.0
174.160385 144.0
174.207672 132.0
174.252335 120.0
174.491501 164.0
174.517792 160.0
174.636139 148.0
174.655457 172.0
174.770294 144.0
174.843979 172.0
174.902008 176.0
174.991547 140.0
175.074783 144.0
175.117554 132.0
175.162567 128.0
175.241608 264.0
175.288406 100.0
175.31012 180.0
175.349655 156.0
175.407791 212.0
175.44455 112.0
175.478973 140.0
175.515732 144.0
175.568146 128.0
175.707245 248.0
175.758408 156.0
175.776871 192.0
175.863968 116.0
175.894943 196.0
176.009171 68.0
176.061981 176.0
176.09903 160.0
176.120087 132.0
176.270676 136.0
176.421326 192.0
176.476974 176.0
176.535019 124.0
176.569397 208.0
176.722824 152.0
176.790192 140.0
176.852509 140.0
176.878967 172.0
176.897507 228.0
176.925766 184.0
177.035187 196.0
177.066971 100.0
177.111984 156.0
177.133179 184.0
177.165604 188.0
177.202057 172.0
177.2789 204.0
177.337845 128.0
177.376968 160.0
177.471054 80.0
177.509537 172.0
177.539886 180.0
177.654968 100.0
177.732346 164.0
177.843811 72.0
177.867706 140.0
177.944687 140.0
177.966156 184.0
178.021011 328.0
178.042938 152.0
178.076538 716.0
178.226227 140.0
178.311264 204.0
178.351135 112.0
178.42836 168.0
178.486725 140.0
178.546982 148.0
178.603745 176.0
178.637222 176.0
178.702866 148.0
178.769958 132.0
178.803299 228.0
178.837036 168.0
178.973373 108.0
179.050888 332.0
179.085266 836.0
179.17598 104.0
179.216049 160.0
179.242691 136.0
179.333313 124.0
179.461273 144.0
179.517029 184.0
179.526093 168.0
179.567932 128.0
179.597275 180.0
179.623947 152.0
179.685303 172.0
179.717331 148.0
179.76268 212.0
179.868057 160.0
179.925507 200.0
179.96666 136.0
179.98822 156.0
180.024307 160.0
180.090759 244.0
180.133804 124.0
180.176544 68.0
180.21579 140.0
180.221634 96.0
180.230652 128.0
180.262054 68.0
180.312836 80.0
180.395691 168.0
180.451828 200.0
180.506729 208.0
180.549316 108.0
180.588211 92.0
180.647064 164.0
180.720535 148.0
180.778168 36.0
180.854721 256.0
180.93367 168.0
180.973572 172.0
180.991425 168.0
181.065704 2276.0
181.097244 356.0
181.131577 32.0
181.179794 112.0
181.222672 32.0
181.262863 116.0
181.317261 188.0
181.42099 144.0
181.4478 108.0
181.532394 160.0
181.573837 40.0
181.611389 232.0
181.638199 132.0
181.662354 204.0
181.773285 220.0
181.815292 236.0
181.858231 128.0
181.8797 208.0
181.947784 100.0
181.997025 148.0
182.037079 156.0
182.071014 5976.0
182.101089 380.0
182.164337 136.0
182.207626 176.0
182.333618 144.0
182.361694 188.0
182.39006 196.0
182.478775 120.0
182.530502 136.0
182.564819 196.0
182.615921 128.0
182.683167 152.0
182.716675 220.0
182.774643 164.0
182.809296 184.0
182.886673 236.0
182.911896 28.0
182.973816 32.0
183.076706 1288.0
183.117676 436.0
183.181183 52.0
183.210815 140.0
183.232376 132.0
183.275482 132.0
183.321289 80.0
183.347198 280.0
183.453354 208.0
183.521301 140.0
183.58548 116.0
183.687973 140.0
183.935455 56.0
183.976028 172.0
184.038681 168.0
184.086487 2124.0
184.121216 132.0
184.234528 64.0
184.262985 68.0
184.30011 92.0
184.368378 100.0
184.430542 180.0
184.517166 212.0
184.595459 160.0
184.644135 148.0
184.673889 124.0
184.705612 192.0
184.760452 188.0
184.804947 188.0
184.860565 124.0
184.887619 200.0
184.90657 256.0
184.926575 204.0
184.961105 212.0
185.058945 584.0
185.095657 17064.0
185.134171 228.0
185.16713 148.0
185.190979 212.0
185.237396 124.0
185.276917 160.0
185.309311 224.0
185.337143 176.0
185.38533 92.0
185.410309 156.0
185.437302 104.0
185.472595 188.0
185.498871 208.0
185.53038 212.0
185.666718 104.0
185.711258 196.0
185.754654 192.0
185.851089 52.0
185.902649 352.0
185.977158 44.0
186.012451 84.0
186.067505 352.0
186.097672 3328.0
186.188934 128.0
186.222992 104.0
186.256836 128.0
186.286713 88.0
186.324753 96.0
186.370941 80.0
186.452469 108.0
186.479645 56.0
186.558472 144.0
186.612839 56.0
186.632675 136.0
186.721619 120.0
186.770569 184.0
186.844025 264.0
186.87561 216.0
186.903885 180.0
186.956833 148.0
186.97464 208.0
187.042679 100.0
187.072189 824.0
187.10408 164.0
187.135498 172.0
187.191193 124.0
187.235992 148.0
187.366745 124.0
187.404327 232.0
187.443039 96.0
187.483002 144.0
187.534317 232.0
187.698914 240.0
187.723038 168.0
187.85553 192.0
187.901871 128.0
187.944763 124.0
188.03656 172.0
188.101395 164.0
188.124893 176.0
188.163116 128.0
188.255692 212.0
188.307846 128.0
188.346085 28.0
188.376968 196.0
188.425308 184.0
188.455353 68.0
188.479568 144.0
188.50589 140.0
188.554962 188.0
188.61113 228.0
188.756027 184.0
188.889557 112.0
188.9944 220.0
189.051544 124.0
189.080063 152.0
189.128601 132.0
189.150009 156.0
189.221176 180.0
189.295105 128.0
189.33345 132.0
189.401917 152.0
189.456833 180.0
189.486847 120.0
189.636017 196.0
189.744476 132.0
189.892548 124.0
189.922714 208.0
189.941925 172.0
189.99678 148.0
190.035202 208.0
190.054398 112.0
190.095566 108.0
190.120255 156.0
190.150452 228.0
190.197113 96.0
190.235535 32.0
190.265732 196.0
190.318527 244.0
190.381058 148.0
190.482254 152.0
190.526642 60.0
190.664032 56.0
190.68602 68.0
190.743744 172.0
190.886703 116.0
191.036911 72.0
191.088821 100.0
191.142532 120.0
191.179291 100.0
191.225082 256.0
191.311447 208.0
191.346207 152.0
191.379257 156.0
191.412292 136.0
191.503174 176.0
191.532043 200.0
191.55275 64.0
191.591324 100.0
191.618866 108.0
191.66571 116.0
191.712555 204.0
191.902756 176.0
192.037033 220.0
192.061325 168.0
192.090286 172.0
192.120636 272.0
192.214447 152.0
192.36348 96.0
192.389206 152.0
192.494354 160.0
192.53743 144.0
192.556763 176.0
192.59819 140.0
192.642395 148.0
192.694885 76.0
192.731079 164.0
192.888336 192.0
192.932312 256.0
192.97403 184.0
193.09758 196.0
193.181458 152.0
193.228485 48.0
193.427734 204.0
193.458191 144.0
193.507202 204.0
193.537521 196.0
193.598083 168.0
193.726807 116.0
193.832092 44.0
193.898605 152.0
193.960785 148.0
194.069946 336.0
194.106522 120.0
194.181396 156.0
194.266022 124.0
194.317719 144.0
194.381149 200.0
194.422775 188.0
194.481049 292.0
194.571869 112.0
194.589905 152.0
194.650406 152.0
194.686508 220.0
194.719833 44.0
194.769821 128.0
194.870087 136.0
194.945419 140.0
195.01712 84.0
195.078812 1612.0
195.119476 132.0
195.164459 80.0
195.192261 104.0
195.231201 164.0
195.256836 220.0
195.30542 216.0
195.336655 188.0
195.347672 128.0
195.357498 216.0
195.423141 304.0
195.442612 104.0
195.492355 160.0
195.559494 164.0
195.629089 212.0
195.679199 68.0
195.726532 220.0
195.810074 112.0
195.856232 328.0
195.946564 224.0
195.985977 168.0
196.027374 232.0
196.087692 2548.0
196.175781 372.0
196.196564 152.0
196.288788 196.0
196.562775 144.0
196.705109 92.0
196.77211 112.0
196.841919 208.0
196.889389 208.0
196.917328 168.0
196.959229 288.0
197.006714 52.0
197.057907 3536.0
197.094131 3920.0
197.174362 40.0
197.196716 216.0
197.230255 212.0
197.304031 72.0
197.336487 148.0
197.370529 96.0
197.404175 292.0
197.453934 80.0
197.486603 168.0
197.532257 260.0
197.563965 144.0
197.609238 132.0
197.645981 128.0
197.729477 156.0
197.767303 116.0
197.828888 120.0
197.88768 60.0
197.922745 184.0
198.013687 108.0
198.066605 15532.0
198.149475 76.0
198.183929 140.0
198.210938 52.0
198.236465 52.0
198.283401 120.0
198.315216 136.0
198.34465 240.0
198.389175 152.0
198.411591 84.0
198.440445 180.0
198.503128 168.0
198.568573 240.0
198.61911 40.0
198.682968 220.0
198.722916 244.0
198.752716 180.0
198.783508 236.0
198.815506 72.0
198.894104 60.0
198.928085 228.0
198.981125 196.0
199.070709 2756.0
199.111221 3468.0
199.146805 64.0
199.198929 116.0
199.231079 80.0
199.261978 68.0
199.299286 72.0
199.368759 88.0
199.394058 48.0
199.413727 300.0
199.448486 152.0
199.468063 84.0
199.517731 172.0
199.570114 76.0
199.624573 220.0
199.731812 100.0
199.790527 316.0
199.821472 128.0
199.897812 156.0
199.922775 216.0
200.074844 412.0
200.114044 456.0
200.190216 88.0
200.211105 144.0
200.260803 124.0
200.284485 144.0
200.325226 128.0
200.352585 180.0
200.38176 152.0
200.421204 168.0
200.502914 144.0
200.524689 116.0
200.632584 144.0
200.664703 228.0
200.694611 116.0
200.779205 104.0
200.801773 104.0
200.832794 72.0
200.858643 164.0
200.87793 120.0
200.965393 48.0
201.072708 124.0
201.121704 184.0
201.15448 120.0
201.21376 176.0
201.289993 68.0
201.345779 148.0
201.414261 72.0
201.470764 172.0
201.507492 40.0
201.56073 104.0
201.600739 180.0
201.666855 172.0
201.761841 124.0
201.821228 108.0
201.913605 180.0
202.058624 128.0
202.070267 208.0
202.097855 204.0
202.146515 128.0
202.237076 180.0
202.316345 120.0
202.438095 120.0
202.480576 148.0
202.59407 116.0
202.642044 144.0
202.678879 108.0
202.724213 200.0
202.775223 244.0
202.817734 120.0
202.923706 212.0
202.965164 56.0
203.087311 168.0
203.15802 168.0
203.197739 184.0
203.22612 44.0
203.245972 100.0
203.301468 148.0
203.376526 100.0
203.490082 120.0
203.615021 204.0
203.640579 176.0
203.668991 152.0
203.720123 176.0
203.758774 132.0
203.805984 180.0
203.850815 148.0
203.92186 192.0
203.978714 120.0
204.00145 72.0
204.095276 120.0
204.118027 136.0
204.217117 208.0
204.263077 116.0
204.357254 76.0
204.402481 44.0
204.45993 148.0
204.561859 148.0
204.590332 56.0
204.727005 88.0
204.746933 52.0
204.778275 80.0
204.832016 152.0
204.96344 116.0
205.03978 188.0
205.064987 172.0
205.106934 240.0
205.232803 176.0
205.269714 176.0
205.339737 76.0
205.41391 160.0
205.448135 164.0
205.475067 200.0
205.50235 208.0
205.757614 172.0
205.858246 164.0
205.898758 184.0
205.923477 196.0
205.964828 120.0
206.007675 152.0
206.056244 60.0
206.087936 168.0
206.116241 208.0
206.163651 68.0
206.193405 184.0
206.310593 88.0
206.493607 180.0
206.518906 208.0
206.582275 152.0
206.642349 168.0
206.733917 88.0
206.76503 124.0
206.805466 176.0
206.842682 112.0
206.922318 112.0
206.988693 124.0
207.014465 164.0
207.034515 152.0
207.129028 156.0
207.174942 152.0
207.227066 236.0
207.269409 148.0
207.295197 196.0
207.335312 160.0
207.369705 164.0
207.541718 156.0
207.570389 72.0
207.677338 152.0
207.831421 88.0
207.860107 168.0
207.992126 120.0
208.029449 60.0
208.051971 176.0
208.078247 108.0
208.13855 180.0
208.183105 176.0
208.288086 60.0
208.330078 76.0
208.402802 244.0
208.480392 148.0
208.517746 104.0
208.569489 140.0
208.687363 148.0
208.71611 164.0
208.741989 216.0
208.787994 192.0
208.811005 140.0
208.84552 116.0
208.903061 140.0
208.982498 144.0
209.03183 164.0
209.056076 152.0
209.09581 764.0
209.210983 216.0
209.236893 132.0
209.272171 140.0
209.299408 140.0
209.326141 224.0
209.350098 172.0
209.45575 184.0
209.498962 184.0
209.533524 284.0
209.5681 196.0
209.588272 100.0
209.661316 172.0
209.689133 356.0
209.728348 192.0
209.78714 196.0
209.827499 176.0
209.908234 152.0
209.94928 208.0
210.009171 40.0
210.042358 396.0
210.069748 168.0
210.1008 752.0
210.189911 80.0
210.237091 216.0
210.265961 148.0
210.286163 176.0
210.358994 224.0
210.384308 168.0
210.435425 124.0
210.46637 216.0
210.577042 128.0
210.641312 156.0
210.707764 152.0
210.737411 136.0
210.759766 204.0
210.885437 132.0
211.01123 352.0
211.031464 196.0
211.072418 1328.0
211.107544 272.0
211.159821 156.0
211.180695 152.0
211.204987 208.0
211.305603 184.0
211.372787 112.0
211.408875 112.0
211.459595 140.0
211.491974 196.0
211.540649 176.0
211.560913 156.0
211.711472 176.0
211.747299 120.0
211.769394 164.0
211.812851 48.0
211.838913 144.0
211.934525 132.0
211.96666 180.0
212.022247 104.0
212.082489 4992.0
212.17215 164.0
212.243866 164.0
212.311371 144.0
212.357605 68.0
212.401291 108.0
212.436188 120.0
212.478424 108.0
212.548508 116.0
212.589066 200.0
212.600113 144.0
212.633408 48.0
212.700241 152.0
212.728333 108.0
212.737747 76.0
212.751297 180.0
212.763779 140.0
212.770325 168.0
212.792496 372.0
212.813065 96.0
212.847443 176.0
212.862106 128.0
212.867203 276.0
212.888336 348.0
212.905304 220.0
212.943954 372.0
212.974945 400.0
213.020966 204.0
213.053635 696.0
213.090912 111888.0
213.157211 132.0
213.180435 136.0
213.20784 56.0
213.240417 80.0
213.286072 104.0
213.314346 92.0
213.339249 92.0
213.358978 240.0
213.395187 288.0
213.449677 124.0
213.484177 208.0
213.502884 88.0
213.533325 188.0
213.568832 1260.0
213.608383 164.0
213.643936 140.0
213.699478 172.0
213.707031 184.0
213.729797 220.0
213.759521 392.0
213.818405 184.0
213.859253 152.0
213.882767 52.0
213.912323 204.0
213.932709 172.0
213.962006 152.0
213.999832 72.0
214.024796 108.0
214.03392 68.0
214.055511 188.0
214.093735 21748.0
214.149246 88.0
214.183136 32.0
214.221237 168.0
214.246552 68.0
214.265381 120.0
214.29805 72.0
214.339249 144.0
214.37558 152.0
214.419464 180.0
214.448242 156.0
214.501785 68.0
214.507553 156.0
214.575455 60.0
214.619919 132.0
214.646774 144.0
214.696365 264.0
214.747803 192.0
214.767242 112.0
214.801102 68.0
214.841324 56.0
214.848755 120.0
214.876236 196.0
214.886581 148.0
214.926559 164.0
214.96106 68.0
215.031067 128.0
215.096268 1896.0
215.160049 288.0
215.19075 156.0
215.242706 164.0
215.278854 180.0
215.289551 160.0
215.295349 108.0
215.330963 68.0
215.392593 172.0
215.415909 196.0
215.479416 300.0
215.504684 128.0
215.538971 208.0
215.56102 172.0
215.594498 156.0
215.643127 100.0
215.678986 168.0
215.701355 96.0
215.738937 212.0
215.773224 164.0
215.784302 120.0
215.830963 64.0
215.860123 200.0
215.910721 80.0
215.943451 144.0
215.972427 136.0
216.005905 108.0
216.030334 108.0
216.059708 200.0
216.096115 244.0
216.136261 184.0
216.203568 28.0
216.235199 144.0
216.329956 176.0
216.360336 136.0
216.396759 100.0
216.420197 120.0
216.440689 188.0
216.481247 216.0
216.590973 160.0
216.768768 160.0
216.844955 188.0
216.871338 188.0
216.909439 140.0
216.958954 144.0
217.023163 152.0
217.084335 152.0
217.132278 348.0
217.35817 108.0
217.494797 216.0
217.519592 128.0
217.637024 56.0
217.733932 60.0
217.836731 200.0
217.8573 120.0
217.904297 84.0
218.02478 112.0
218.074738 148.0
218.148224 220.0
218.192322 156.0
218.212601 152.0
218.259949 156.0
218.300537 180.0
218.412872 144.0
218.518784 112.0
218.577637 40.0
218.600616 64.0
218.704483 136.0
218.727737 88.0
218.80722 140.0
218.874939 148.0
219.016953 140.0
219.134628 192.0
219.210739 116.0
219.263794 164.0
219.310944 32.0
219.355164 92.0
219.427933 204.0
219.561554 192.0
219.596954 176.0
219.726578 148.0
219.833359 212.0
219.868378 60.0
219.924454 180.0
220.042542 88.0
220.101593 60.0
220.196091 184.0
220.219727 80.0
220.273697 248.0
220.346741 184.0
220.450165 80.0
220.476761 172.0
220.56839 152.0
220.597946 168.0
220.976501 80.0
221.094864 140.0
221.139252 128.0
221.186615 36.0
221.316879 136.0
221.346481 68.0
221.429398 168.0
221.453094 92.0
221.509384 148.0
221.573273 176.0
221.719025 164.0
221.850174 176.0
221.900574 112.0
222.081467 212.0
222.182312 132.0
222.291504 140.0
222.329056 44.0
222.384094 216.0
222.412537 212.0
222.591919 56.0
222.618637 152.0
222.651642 144.0
222.720322 84.0
222.755264 192.0
222.794495 136.0
223.016754 116.0
223.071655 396.0
223.13269 76.0
223.216599 128.0
223.434235 156.0
223.453903 204.0
223.519363 64.0
223.581879 184.0
223.617569 228.0
223.655182 156.0
223.715179 216.0
223.825958 164.0
223.959976 164.0
224.004654 140.0
224.034439 92.0
224.072845 136.0
224.097916 156.0
224.111267 148.0
224.121811 124.0
224.130798 188.0
224.189377 240.0
224.228119 64.0
224.305618 160.0
224.338409 120.0
224.383133 168.0
224.424866 96.0
224.511353 68.0
224.609772 204.0
224.64856 196.0
224.779831 56.0
224.84549 108.0
224.902359 72.0
224.951859 100.0
224.995102 164.0
225.057434 116.0
225.081787 128.0
225.128952 160.0
225.40094 128.0
225.427826 92.0
225.493576 72.0
225.568298 84.0
225.76564 156.0
226.013931 184.0
226.059448 336.0
226.097946 276.0
226.145599 152.0
226.16655 36.0
226.230499 132.0
226.298279 160.0
226.343185 216.0
226.412064 132.0
226.534866 172.0
226.5858 232.0
226.633743 168.0
226.778992 140.0
226.804565 124.0
226.9142 396.0
226.936462 204.0
226.975449 100.0
227.063065 184.0
227.105438 9604.0
227.194397 148.0
227.223175 76.0
227.279114 152.0
227.308411 36.0
227.338425 56.0
227.371429 64.0
227.39357 132.0
227.431458 140.0
227.470474 164.0
227.625183 136.0
227.776764 52.0
227.884918 44.0
227.920181 180.0
227.963043 128.0
228.041977 132.0
228.108673 1844.0
228.167435 116.0
228.201675 176.0
228.278839 176.0
228.351303 168.0
228.386368 192.0
228.429077 168.0
228.528351 152.0
228.563675 92.0
228.693863 152.0
228.729996 68.0
228.830475 200.0
228.865463 104.0
228.937195 88.0
228.988937 180.0
229.082306 184.0
229.109421 364.0
229.145584 68.0
229.223923 80.0
229.257065 56.0
229.294205 136.0
229.350494 52.0
229.3927 108.0
229.41983 116.0
229.465057 200.0
229.515045 72.0
229.537415 92.0
229.573608 84.0
229.639954 140.0
229.730453 64.0
229.768661 132.0
229.817947 124.0
229.869232 116.0
229.917526 144.0
229.941666 132.0
230.062408 192.0
230.107697 172.0
230.12883 128.0
230.18837 272.0
230.234512 176.0
230.322098 76.0
230.406693 124.0
230.427841 104.0
230.485245 144.0
230.5224 160.0
230.587326 144.0
230.621246 140.0
230.7603 148.0
230.803772 184.0
230.829849 136.0
230.881256 176.0
230.92778 156.0
231.114288 112.0
231.226151 160.0
231.27681 92.0
231.484833 200.0
231.618088 144.0
231.642853 180.0
231.737915 160.0
232.192612 68.0
232.332153 248.0
232.432266 148.0
232.551147 188.0
232.706482 176.0
232.880997 188.0
233.01828 60.0
233.063858 144.0
233.087128 200.0
233.121597 224.0
233.146835 156.0
233.293106 280.0
233.3526 152.0
233.462067 176.0
233.60199 112.0
233.671402 196.0
233.708466 172.0
233.921509 188.0
234.001038 64.0
234.038208 108.0
234.152908 112.0
234.253433 216.0
234.29303 136.0
234.32045 140.0
234.35701 160.0
234.393585 188.0
234.463669 124.0
234.542923 160.0
234.577713 280.0
234.649689 152.0
234.820374 196.0
234.979004 148.0
235.021713 188.0
235.076645 120.0
235.151413 152.0
235.403275 324.0
235.634644 204.0
235.707321 160.0
235.736252 148.0
235.775986 128.0
235.812653 184.0
235.846283 144.0
235.873795 136.0
235.90741 136.0
236.054169 68.0
236.096985 124.0
236.13063 200.0
236.179565 136.0
236.210159 116.0
236.270966 160.0
236.350891 164.0
236.504486 192.0
236.573929 160.0
236.617172 108.0
236.683151 168.0
236.779465 120.0
236.816223 140.0
236.895859 52.0
236.935684 144.0
236.963257 160.0
237.003098 200.0
237.049057 140.0
237.088821 188.0
237.278946 172.0
237.324936 152.0
237.567215 40.0
237.594833 228.0
237.63472 56.0
237.665588 196.0
237.75354 144.0
237.892517 132.0
237.969269 60.0
238.008835 140.0
238.095169 252.0
238.153519 84.0
238.310196 104.0
238.368576 100.0
238.520401 180.0
238.65773 136.0
238.722092 156.0
238.809311 144.0
238.820267 52.0
238.828598 140.0
238.857422 96.0
238.894333 140.0
238.915863 196.0
238.937408 128.0
238.962021 148.0
239.035858 124.0
239.078949 100.0
239.100494 168.0
239.202469 120.0
239.245163 112.0
239.288254 64.0
239.408783 144.0
239.434082 180.0
239.482269 140.0
239.513062 28.0
239.534637 108.0
239.664032 120.0
239.723221 188.0
239.750305 84.0
239.793457 116.0
239.85202 100.0
239.879761 176.0
239.939667 148.0
239.967468 124.0
240.0 48.0
240.077438 756.0
240.107452 240.0
240.17836 72.0
240.213608 148.0
240.243057 120.0
240.326263 164.0
240.344009 208.0
240.378876 260.0
240.418121 160.0
240.443314 356.0
240.507492 216.0
240.532486 140.0
240.557159 108.0
240.59343 176.0
240.616516 580.0
240.647949 112.0
240.687592 196.0
240.69487 240.0
240.728104 256.0
240.768646 400.0
240.7948 384.0
240.813553 264.0
240.829697 136.0
240.847427 356.0
240.869019 252.0
240.943802 612.0
240.954239 516.0
240.977127 312.0
241.028549 648.0
241.085876 352196.0
241.171478 384.0
241.203674 288.0
241.26062 196.0
241.30011 452.0
241.33934 380.0
241.366318 292.0
241.412918 412.0
241.432892 256.0
241.440704 148.0
241.501587 120.0
241.548767 176.0
241.595123 3896.0
241.635773 340.0
241.725113 304.0
241.75647 152.0
241.765976 92.0
241.784744 96.0
241.789398 208.0
241.816467 112.0
241.847626 172.0
241.889389 308.0
241.920792 188.0
241.998001 384.0
242.088943 62944.0
242.145721 168.0
242.19046 124.0
242.257706 80.0
242.301208 172.0
242.353683 168.0
242.380325 56.0
242.436127 192.0
242.462112 56.0
242.475845 40.0
242.489914 104.0
242.541245 148.0
242.565704 36.0
242.596924 200.0
242.610565 100.0
242.641998 64.0
242.662567 120.0
242.703339 44.0
242.730942 116.0
242.76796 64.0
242.794296 208.0
242.833359 192.0
242.869675 56.0
242.92218 52.0
242.950928 108.0
242.985855 172.0
243.015427 40.0
243.02095 68.0
243.038223 68.0
243.090912 5800.0
243.146057 200.0
243.166809 88.0
243.188522 52.0
243.216675 48.0
243.25914 144.0
243.278854 68.0
243.309418 96.0
243.340866 252.0
243.383759 84.0
243.404388 320.0
243.418472 160.0
243.424683 160.0
243.476517 308.0
243.569778 280.0
243.599594 132.0
243.644623 124.0
243.68515 96.0
243.705246 96.0
243.734177 144.0
243.775162 460.0
243.796234 148.0
243.805664 256.0
243.856903 180.0
243.866272 252.0
243.874115 480.0
243.929718 256.0
243.94191 124.0
243.983704 120.0
243.990845 180.0
244.002747 304.0
244.047485 88.0
244.091339 812.0
244.135544 80.0
244.173386 48.0
244.195572 72.0
244.224182 88.0
244.254608 204.0
244.322403 140.0
244.346451 148.0
244.371185 112.0
244.402893 108.0
244.469971 72.0
244.511017 192.0
244.547485 84.0
244.61937 44.0
244.647385 116.0
244.679901 144.0
244.71788 56.0
244.740982 132.0
244.771011 60.0
244.800522 188.0
244.850098 80.0
244.89801 140.0
244.923096 104.0
244.942444 224.0
244.965027 136.0
244.989944 68.0
245.02916 96.0
245.096756 100.0
245.142624 156.0
245.208069 72.0
245.233002 100.0
245.266357 80.0
245.295349 96.0
245.326843 184.0
245.431793 188.0
245.492249 52.0
245.546738 128.0
245.671478 136.0
245.807877 36.0
245.884857 84.0
245.912949 124.0
246.007339 252.0
246.037811 112.0
246.134598 60.0
246.20018 60.0
246.231415 48.0
246.265762 104.0
246.353226 40.0
246.488678 68.0
246.543823 80.0
246.584457 64.0
246.629517 76.0
246.682907 208.0
246.712616 68.0
246.80954 40.0
246.868942 96.0
247.02359 136.0
247.059738 72.0
247.272003 72.0
247.45932 172.0
247.598129 64.0
247.626312 64.0
247.673294 64.0
247.939621 180.0
248.143372 80.0
248.224884 64.0
248.359741 80.0
248.635849 36.0
248.682922 44.0
248.715881 56.0
248.767685 48.0
249.056564 88.0
249.204224 48.0
249.248093 104.0
249.411636 100.0
249.549957 176.0
249.575119 200.0
249.685181 168.0
249.766953 172.0
249.795258 160.0
249.823578 232.0
249.987183 64.0
250.065872 100.0
250.094193 104.0
250.116226 56.0
250.160294 40.0
250.223267 76.0
250.475189 124.0
250.506699 176.0
250.560257 80.0
250.816742 112.0
251.238068 80.0
251.414764 88.0
251.480225 160.0
251.645203 128.0
251.714661 136.0
251.777832 60.0
251.847305 36.0
251.875732 172.0
251.919968 64.0
252.010025 120.0
252.058975 64.0
252.137985 216.0
252.337128 64.0
252.428833 132.0
252.478516 84.0
252.500214 84.0
252.542679 132.0
252.567978 68.0
252.656708 84.0
252.738815 48.0
252.817932 112.0
252.897049 176.0
253.05217 68.0
253.080444 56.0
253.113312 116.0
253.173553 84.0
253.204163 116.0
253.226334 48.0
253.400558 60.0
253.425919 116.0
253.498795 60.0
253.685791 96.0
253.771393 152.0
253.834808 96.0
253.863358 224.0
253.945816 80.0
254.002899 60.0
254.04097 68.0
254.085388 104.0
254.118744 140.0
254.209137 148.0
254.231339 68.0
254.327744 100.0
254.378296 188.0
254.433167 144.0
254.468918 128.0
254.500183 104.0
254.512283 72.0
254.524933 140.0
254.604797 120.0
254.611465 76.0
254.644073 152.0
254.672653 100.0
254.742691 80.0
254.764771 180.0
254.836792 128.0
254.887558 336.0
254.920456 132.0
254.965866 152.0
255.00676 128.0
255.05069 168.0
255.101044 71960.0
255.177399 80.0
255.184937 136.0
255.236954 156.0
255.279312 68.0
255.286957 176.0
255.297699 156.0
255.334732 204.0
255.390991 128.0
255.418823 96.0
255.449615 140.0
255.481812 44.0
255.50676 112.0
255.529373 48.0
255.567413 44.0
255.618713 224.0
255.720886 200.0
255.753235 52.0
255.777603 64.0
255.804657 184.0
255.843445 132.0
255.88446 120.0
255.914978 160.0
255.954025 140.0
256.01236 152.0
256.047852 232.0
256.104462 12016.0
256.183624 136.0
256.21228 76.0
256.237762 52.0
256.266449 60.0
256.301483 64.0
256.337433 104.0
256.374268 48.0
256.397949 76.0
256.44809 52.0
256.522705 120.0
256.56604 80.0
256.608978 128.0
256.629791 56.0
256.711487 84.0
256.743256 76.0
256.786072 64.0
256.837097 56.0
256.888123 84.0
256.910461 72.0
256.993408 76.0
257.062012 192.0
257.106903 1332.0
257.14978 36.0
257.175323 76.0
257.263947 68.0
257.347687 40.0
257.429993 52.0
257.495575 52.0
257.516937 100.0
257.552094 80.0
257.589661 128.0
257.676788 108.0
257.756561 144.0
257.792694 184.0
257.812927 84.0
257.871613 196.0
257.893982 116.0
257.935699 72.0
257.981964 144.0
258.031433 132.0
258.053802 84.0
258.076202 84.0
258.11203 284.0
258.155975 92.0
258.492035 80.0
258.517639 64.0
258.559235 68.0
258.636047 52.0
258.658447 72.0
258.716064 88.0
258.812134 72.0
258.834534 104.0
258.924194 132.0
258.946625 56.0
258.991455 40.0
259.097168 80.0
259.132416 60.0
259.154846 60.0
259.344147 56.0
259.414459 68.0
259.747955 92.0
259.847382 64.0
259.950073 52.0
259.982178 96.0
260.030304 140.0
260.097717 76.0
260.247803 48.0
260.656525 48.0
261.035858 36.0
261.121399 112.0
261.2789 72.0
261.405792 28.0
261.650391 148.0
262.478455 72.0
262.69455 124.0
262.810699 40.0
263.336914 64.0
263.488739 144.0
263.63736 60.0
263.740784 192.0
263.992981 96.0
264.332642 124.0
264.883026 28.0
265.020294 108.0
265.203827 92.0
265.703217 64.0
266.082916 124.0
266.358948 128.0
266.479736 156.0
266.882202 100.0
267.930206 52.0
267.995361 76.0
268.174622 60.0
268.203949 100.0
268.231293 124.0
268.409332 56.0
268.523468 84.0
268.90976 116.0
268.950897 192.0
269.06842 72.0
269.179443 64.0
269.437469 44.0
269.754456 88.0
269.937561 84.0
269.96698 56.0
270.238495 184.0
270.840851 148.0
270.993927 164.0
271.643951 124.0
272.553375 56.0
272.582947 172.0
272.790009 92.0
273.875885 80.0
273.981323 96.0
275.274261 64.0
275.921875 56.0
276.934479 84.0
277.342041 72.0
278.164673 52.0
278.297455 192.0
278.476776 84.0
278.639038 100.0
278.951935 48.0
279.500702 72.0
279.813568 60.0
280.086639 160.0
280.129944 128.0
280.636536 44.0
280.876648 144.0
281.036774 64.0
281.102112 576.0
281.567566 60.0
281.808075 88.0
281.851501 204.0
282.101807 124.0
282.249298 160.0
282.272705 124.0
282.312805 152.0
282.534271 176.0
282.640656 48.0
282.761536 128.0
282.832184 52.0
282.978699 132.0
283.00885 164.0
283.042328 200.0
283.09552 15968.0
283.136841 156.0
283.187988 48.0
283.316071 120.0
283.450989 36.0
283.514648 60.0
283.595093 72.0
283.762695 40.0
284.007507 116.0
284.097778 1532.0
284.457153 56.0
284.598145 132.0
285.099365 500.0
285.283539 56.0
285.320526 88.0
285.794739 156.0
285.983215 120.0
286.010132 40.0
286.060638 108.0
286.128082 108.0
286.161621 88.0
286.235718 68.0
286.559052 80.0
287.418854 108.0
288.726196 72.0
290.447083 92.0
290.555328 40.0
291.839172 76.0
293.469177 72.0
294.101227 136.0
295.187653 100.0
297.164062 100.0
297.18808 28.0
297.472931 84.0
299.310394 72.0
299.649872 96.0
300.532532 48.0
300.922546 72.0
302.658264 108.0
303.216003 64.0
304.034485 40.0
305.121704 48.0
306.179535 132.0
306.38504 36.0
306.81369 36.0
307.752228 108.0
309.045471 104.0
311.861511 64.0
312.216614 72.0
312.881653 104.0
312.987274 32.0
313.071777 104.0
313.205627 76.0
316.008667 56.0
321.334564 80.0
321.852112 88.0
322.138397 472.0
322.963562 52.0
324.105591 40.0
324.295532 52.0
326.126038 44.0
328.217712 80.0
328.27179 40.0
328.934784 116.0
333.067291 100.0
333.114532 112.0
333.536041 56.0
333.881439 76.0
333.976013 68.0
334.059692 140.0
334.565521 112.0
336.019684 100.0
336.819153 104.0
337.601318 80.0
339.197632 164.0
339.670685 104.0
339.945862 52.0
340.70224 80.0
342.203644 84.0
342.910065 92.0
343.651276 60.0
343.787811 120.0
344.921692 124.0
347.013336 72.0
349.13736 80.0
349.922485 52.0
350.440216 80.0
351.76416 80.0
352.825104 84.0
353.502106 64.0
354.119843 84.0
354.269653 124.0
354.408295 108.0
356.622437 60.0
358.798218 80.0
359.930145 96.0
360.53833 44.0
360.742432 44.0
362.040253 64.0
362.233398 92.0
366.271332 52.0
367.369171 56.0
370.182251 92.0
370.515503 52.0
370.848877 76.0
371.715607 120.0
374.33728 56.0
375.713287 108.0
377.354706 68.0
378.2677 112.0
379.779633 88.0
379.968994 112.0
380.508453 108.0
380.838562 68.0
381.417511 116.0
382.144745 64.0
382.576752 60.0
382.790894 116.0
383.15863 144.0
383.878113 76.0
383.917114 92.0
384.650604 84.0
386.413116 100.0
387.133362 124.0
389.078186 60.0
389.620148 32.0
389.965942 104.0
390.492798 28.0
390.752441 80.0
392.974579 92.0
395.515656 120.0
396.276001 112.0
397.493286 100.0
398.935059 44.0
399.877747 64.0
399.937469 60.0
401.467377 116.0
401.602966 112.0
402.00592 104.0
402.321259 120.0
402.86438 36.0
404.27179 60.0
404.563995 80.0
406.652405 56.0
407.322937 80.0
409.402344 72.0
409.821289 72.0
411.353821 88.0
412.521271 92.0
413.945435 36.0
419.638184 92.0
420.66217 88.0
423.024994 72.0
425.250732 104.0
426.610382 76.0
426.770721 128.0
427.807495 96.0
428.437592 84.0
429.37326 80.0
430.334747 68.0
430.376038 80.0
430.793182 60.0
431.979584 116.0
432.256805 52.0
434.988068 60.0
436.213501 100.0
437.540588 44.0
438.723755 48.0
440.108917 120.0
440.184082 92.0
440.267609 88.0
444.235565 56.0
444.323639 116.0
444.697113 96.0
445.406738 56.0
446.146332 48.0
446.697235 84.0
446.861298 56.0
446.953857 72.0
447.370544 120.0
451.573303 124.0
451.873627 72.0
453.436188 92.0
454.093353 84.0
454.296967 88.0
455.226471 108.0
457.254333 92.0
461.126984 72.0
462.007843 68.0
462.688293 72.0
464.942993 56.0
465.127533 48.0
465.325012 104.0
465.947754 96.0
466.91922 92.0
468.27066 80.0
468.490326 40.0
469.279022 92.0
469.39975 100.0
469.904419 76.0
470.741791 80.0
473.106903 136.0
473.752167 68.0
475.738342 56.0
476.359344 88.0
476.733002 80.0
479.269928 56.0
481.12793 56.0
482.189362 64.0
485.218536 116.0
486.692749 36.0
489.951813 44.0
493.60199 36.0
496.635681 32.0
496.817566 120.0
499.06488 36.0
499.53183 92.0
500.582214 44.0
505.295746 44.0
505.953644 120.0
506.347687 84.0
507.131744 64.0
508.073425 96.0
509.981903 56.0
514.026123 128.0
516.298462 52.0
517.570007 52.0
518.045593 108.0
519.069885 96.0
520.181458 84.0
521.839661 48.0
522.854065 92.0
523.209106 52.0
523.309265 84.0
523.965149 32.0
524.890381 88.0
525.862122 60.0
527.986572 104.0
531.082703 132.0
532.478027 156.0
537.279053 72.0
539.195312 64.0
540.411499 52.0
540.7771 84.0
544.843872 92.0
547.914368 68.0
555.290771 108.0
559.011536 92.0
562.560669 56.0
567.784424 80.0
568.391602 52.0
569.991882 60.0
571.247009 104.0
572.113159 76.0
576.133423 72.0
576.300598 68.0
580.867859 52.0
584.25946 60.0
586.3396 44.0
586.585449 68.0
589.292847 60.0
594.342957 76.0
597.218933 72.0
599.916626 68.0
600.066895 44.0
601.438599 48.0
606.349243 116.0
608.119812 76.0
609.529236 56.0
610.20752 108.0
612.417114 40.0
615.484558 100.0
616.798706 28.0
621.409302 60.0
621.885681 48.0
622.230103 84.0
622.51123 84.0
622.555908 44.0
623.544556 32.0
629.452942 96.0
630.781921 108.0
631.461975 116.0
634.185669 44.0
640.320435 68.0
646.297424 164.0
651.519653 92.0
651.809265 56.0
655.508667 48.0
655.656433 88.0
663.082397 92.0
670.436829 104.0
678.583374 64.0
680.66925 84.0
684.40271 76.0
685.82489 72.0
685.970886 100.0
687.572144 144.0
692.15155 96.0
701.609009 72.0
703.539856 28.0
703.576843 104.0
704.59613 84.0
704.712341 48.0
705.01355 100.0
705.838196 44.0
706.859131 32.0
717.705994 128.0
718.660706 112.0
719.370544 44.0
720.310364 100.0
732.23407 120.0
739.430908 76.0
741.526917 60.0
747.462646 104.0
749.052429 124.0
761.172241 56.0
763.012939 44.0
766.958923 104.0
770.911621 60.0
775.776855 48.0
775.932068 136.0
779.22876 88.0
788.199524 92.0
791.471802 92.0
794.156189 44.0
798.672119 44.0
800.478699 56.0
809.723511 72.0
813.08551 168.0
814.840149 64.0
817.284973 112.0
818.320923 116.0
819.927307 40.0
821.723511 76.0
824.818726 108.0
827.352966 148.0
834.375122 96.0
836.889404 104.0
840.318787 48.0
840.699646 88.0
842.056335 72.0
849.024475 40.0
851.398132 164.0
854.950195 132.0
855.025879 212.0
863.403625 44.0
863.731201 52.0
865.779724 56.0
868.463989 180.0
871.58136 124.0
871.886902 60.0
873.639099 124.0
877.490784 76.0
880.653809 128.0
884.739868 144.0
886.149414 100.0
887.738037 52.0
891.329407 120.0
899.232056 68.0
899.661865 56.0
902.912354 112.0
908.78894 152.0
912.999817 200.0
919.699585 48.0
924.639099 80.0
928.630249 36.0
928.751587 56.0
931.987366 80.0
935.094849 132.0
936.574402 60.0
937.098328 48.0
937.378601 80.0
937.561462 60.0
939.012451 28.0
944.631958 128.0
947.778809 84.0
951.151917 56.0
955.133911 116.0
957.558777 48.0
960.782593 44.0
961.239197 100.0
966.497742 72.0
970.213867 88.0
971.956726 176.0
973.322327 64.0
976.591248 136.0
980.63208 92.0
981.23053 156.0
985.337158 132.0
987.368713 48.0
989.596436 72.0
994.403259 96.0
995.779541 64.0
997.005249 216.0
999.910217 80.0
1003.79718 248.0
1003.967468 184.0
1007.521118 68.0
1012.980591 192.0
1013.221313 180.0
1017.11499 152.0
1021.397827 120.0
1030.852905 164.0
1035.529541 40.0
1046.066406 76.0
1046.884155 204.0
1049.751831 248.0
1053.185303 192.0
1056.203857 36.0
1057.420288 224.0
1058.877075 216.0
1061.884277 64.0
1065.740356 136.0
1068.549194 116.0
1068.763916 204.0
1070.117676 72.0
1079.494263 60.0
1079.808228 64.0
1085.387817 92.0
1087.887451 140.0
1091.441895 240.0
1092.625854 116.0
1094.402832 72.0
1095.621338 136.0
1097.796387 104.0
1100.343384 152.0
1107.617798 64.0
1112.46521 160.0
1115.833496 248.0
1119.706299 76.0
1121.005371 212.0
1121.498535 92.0
1128.885498 92.0
1131.304565 100.0
1131.82019 160.0
1132.650635 44.0
1133.635498 96.0
1134.949341 156.0
1135.713867 276.0
1141.2677 28.0
1143.312622 108.0
1145.197876 132.0
1145.393188 164.0
1145.783813 52.0
1146.471191 144.0
1147.104736 48.0
1148.325195 200.0
1148.831055 172.0
1149.310059 172.0
1149.755493 76.0
1150.146973 180.0
1153.950317 108.0
1154.558838 80.0
1155.302979 80.0
1155.675049 104.0
1156.013428 56.0
1157.015137 124.0
1158.139282 108.0
1160.592529 184.0
1164.779907 180.0
1165.51355 156.0
1168.165161 176.0
1168.927124 88.0
1173.177246 104.0
1175.776001 84.0
1176.963867 152.0
1178.329834 172.0
1179.122559 84.0
1185.281494 184.0
1188.209229 196.0
1188.874878 100.0
1190.238647 132.0
1191.834473 152.0
1193.896729 168.0
1194.295654 108.0
1197.372192 184.0
1200.484863 196.0
1202.550049 200.0
1205.36084 108.0
1207.033691 196.0
1208.553223 240.0
1209.026001 60.0
1210.777466 128.0
1213.070923 80.0
1216.116089 44.0
1217.588013 136.0
1219.422119 52.0
1224.640381 108.0
1225.35791 140.0
1226.4729 136.0
1226.626343 148.0
1227.016724 76.0
1228.830078 100.0
1229.841919 92.0
1232.139404 148.0
1232.733276 172.0
1233.187622 88.0
1233.690918 124.0
1235.033447 172.0
1235.425171 36.0
1235.670044 156.0
1236.586792 196.0
1237.342773 52.0
1238.140991 176.0
1239.647217 160.0
1241.084229 180.0
1245.596802 100.0
1246.053467 140.0
1248.126953 180.0
1248.956787 140.0
1251.377686 136.0
1253.378052 108.0
1254.13916 164.0
1254.653687 72.0
1256.896606 160.0
1257.75061 208.0
1258.392944 216.0
1258.767212 148.0
1258.98877 212.0
1259.466431 164.0
1260.632202 172.0
1261.353027 92.0
1262.597412 164.0
1263.594849 180.0
1264.564331 156.0
1266.81604 44.0
1267.198608 180.0
1267.630859 132.0
1267.893066 68.0
1268.318359 108.0
1268.594727 84.0
1268.857056 60.0
1269.055542 188.0
1272.099121 100.0
1272.716797 164.0
1273.341797 196.0
1273.583252 188.0
1273.654297 180.0
1274.428589 160.0
1278.325317 104.0
1279.036987 92.0
1280.560791 164.0
1281.672119 80.0
1282.812378 124.0
1283.083252 44.0
1283.261597 156.0
1283.489746 132.0
1283.59668 172.0
1283.832031 112.0
1286.357788 80.0
1287.007446 180.0
1289.393433 120.0
1290.222534 180.0
1290.880371 120.0
1291.545532 152.0
1292.189331 156.0
1298.25647 112.0
1299.576294 232.0
1301.370728 92.0
1304.136475 148.0
1304.275635 120.0
1305.085449 116.0
1305.610352 168.0
1307.270142 72.0
1308.503052 208.0
1308.65686 156.0
1309.410278 168.0
1310.166626 40.0
1310.714233 180.0
1310.894409 256.0
1314.766968 128.0
1316.976318 120.0
1317.07019 116.0
1317.142456 164.0
1317.395264 144.0
1317.619263 148.0
1318.768188 188.0
1319.505493 212.0
1319.765869 68.0
1320.250366 204.0
1320.452759 104.0
1320.894043 116.0
1321.928711 204.0
1323.296753 156.0
1323.347412 156.0
1324.151245 216.0
1326.077759 208.0
1326.614868 108.0
1329.632202 152.0
1329.777344 152.0
1330.684814 164.0
1331.912842 168.0
1333.663208 104.0
1336.448486 124.0
1337.07605 152.0
1338.071655 104.0
1338.260864 84.0
1338.661377 180.0
1338.799805 192.0
1339.30957 168.0
1339.440674 136.0
1340.161987 176.0
1340.693848 60.0
1341.211426 84.0
1342.10083 136.0
1343.501099 168.0
1346.099487 236.0
1346.851807 116.0
1347.129272 132.0
1347.786865 156.0
1347.947632 180.0
1348.744263 232.0
1349.387573 176.0
1350.996582 48.0
1351.106201 276.0
1352.5625 112.0
1352.767456 156.0
1353.0896 112.0
1353.148193 120.0
1354.590942 184.0
1354.883911 132.0
1355.19165 160.0
1356.122314 184.0
1356.694092 128.0
1357.859985 148.0
1359.327148 156.0
1363.175049 156.0
1363.895386 192.0
1363.961548 184.0
1365.034912 220.0
1365.610962 84.0
1365.748291 200.0
1366.616333 72.0
1367.867554 220.0
1368.390137 80.0
1368.640503 60.0
1369.288574 128.0
1369.435913 32.0
1369.494751 124.0
1370.467163 184.0
1373.829102 196.0
1374.146362 224.0
1375.821777 216.0
1376.345947 168.0
1376.60437 136.0
1379.042358 180.0
1379.626343 176.0
1380.173462 144.0
1382.829224 108.0
1383.843384 28.0
1387.466431 72.0
1387.533081 64.0
1388.14856 116.0
1388.637939 40.0
1388.689941 212.0
1392.371216 152.0
1392.89856 172.0
1392.957886 184.0
1393.143677 132.0
1394.964355 160.0
1396.391968 228.0
1396.734131 184.0
1397.530151 32.0
1397.656616 244.0
1399.361084 136.0
1400.679321 164.0
1401.096436 76.0
1401.603027 60.0
1401.968262 128.0
1402.130981 168.0
1403.45166 128.0
1403.570923 132.0
1404.152588 68.0
1405.293945 144.0
1405.346191 100.0
1406.211792 164.0
1407.264404 200.0
1407.31665 136.0
1407.421143 140.0
1411.000122 148.0
1411.42627 144.0
1412.787476 96.0
1413.120728 180.0
1413.715332 156.0
1414.134399 112.0
1415.339722 188.0
1417.377075 172.0
1417.631836 220.0
1417.759277 64.0
1418.508789 104.0
1418.981079 204.0
1419.063599 232.0
1419.206055 68.0
1419.663452 96.0
1419.978394 48.0
1420.263428 104.0
1421.23877 136.0
1422.777344 200.0
1423.723389 192.0
1425.233276 180.0
1425.887085 152.0
1427.089844 156.0
1427.736572 152.0
1428.08252 216.0
1428.541382 32.0
1428.616577 188.0
1430.38501 88.0
1431.830688 188.0
1433.970337 148.0
1434.279419 56.0
1435.101074 140.0
1435.636475 40.0
1436.911255 200.0
1437.484741 120.0
1440.096924 132.0
1441.373657 144.0
1442.303223 80.0
1442.514893 100.0
1442.960938 156.0
1444.851685 128.0
1445.578003 136.0
1446.032104 192.0
1446.085083 152.0
1446.614868 164.0
1447.924805 140.0
1448.545898 176.0
1449.121704 192.0
1449.841553 184.0
1450.576782 156.0
1451.388062 100.0
1451.516968 76.0
1451.77478 160.0
1453.40564 132.0
1453.663696 148.0
1453.716797 148.0
1454.156982 180.0
1455.318481 104.0
1455.538696 176.0
1456.176514 116.0
1456.731079 184.0
1456.875366 220.0
1457.817505 124.0
1459.505127 196.0
1460.744751 248.0
1461.490356 144.0
1462.091553 128.0
1462.175171 124.0
1462.807007 176.0
1463.850098 128.0
1464.977295 52.0
1465.731567 168.0
1465.929688 196.0
1466.028809 180.0
1466.280273 180.0
1466.546997 168.0
1466.661377 172.0
1467.411743 124.0
1467.667725 120.0
1468.041382 92.0
1468.262451 188.0
1468.903198 132.0
1469.215942 136.0
1470.1698 92.0
1472.009521 128.0
1472.261475 204.0
1472.643433 144.0
1473.743408 44.0
1473.972656 188.0
1474.094971 168.0
1475.126709 204.0
1475.401978 124.0
1475.509033 120.0
1475.868286 152.0
1476.296509 92.0
1476.365356 140.0
1476.556519 92.0
1476.992554 304.0
1477.74231 180.0
1477.887573 200.0
1478.224365 184.0
1478.553345 208.0
1478.905396 188.0
1479.227173 152.0
1479.709229 160.0
1480.2146 148.0
1480.834961 160.0
1481.240845 124.0
1481.669922 184.0
1482.259888 92.0
1482.351807 180.0
1482.664551 104.0
1482.727295 112.0
1482.842285 208.0
1482.903564 72.0
1484.076538 128.0
1484.536621 192.0
1484.682251 164.0
1484.735962 136.0
1485.272827 140.0
1486.734009 180.0
1487.19873 92.0
1488.711304 40.0
1488.995361 96.0
1489.448608 128.0
1489.712524 196.0
1489.909546 92.0
1490.401245 96.0
1491.730835 224.0
1491.907593 112.0
1492.161377 60.0
1492.484253 80.0
1493.053345 44.0
1493.269775 104.0
1493.576294 192.0
1494.053223 152.0
1495.484497 208.0
1496.261963 196.0
1497.678955 136.0
1498.133423 108.0
1498.279785 80.0
1498.44165 220.0
1499.797852 128.0
1500.059937 56.0
1501.347656 128.0
1502.13147 128.0
1502.666626 120.0
1502.981201 168.0
1503.731567 156.0
