>compound Chloroxine
>formula C9H5Cl2NO 
>ionization [M+H]+
>parentmass 213.983368
#inchi InChI=1S/C9H5Cl2NO/c10-6-4-7(11)9(13)8-5(6)2-1-3-12-8/h1-4,13H
#inchikey WDFKMLRRRCGAKS
#Ion_Source LC-ESI
#Instrument qTof
#Compound_Source Commercial
#PI Dorrestein
#Data_Collector Garg_Neha
#Scan -1
#Precursor_MZ 213.983
#ExactMass 212.975
#Charge 1
#CAS_Number N/A
#Pubmed_ID N/A
#Smiles N/A
#INCHI_AUX N/A
#Library_Class 1
#SpectrumID CCMSLIB00000076980
#IonMode Positive
#UpdateWorkflowName UPDATE-SINGLE-ANNOTATED-GOLD
#LibraryQualityString Gold
#TaskID 48f7f52fc6d249b5abbcc6e7b3df5969
##Scan# 1844
#SpectrumFile NCP002928_C2_D11_BA3_01_15697.mzXML
#LibraryName NIH_Clinical_Collection_2.mgf
#MQScore -1
#Organism NIHcollection2_04212014_2_mgf
#TIC_Query 0
#RT_Query -1
#MZErrorPPM -1
#SharedPeaks 0
#MassDiff 0
#LibMZ -1
#SpecMZ 213.983
#SpecCharge 0
#internalFilename spec-00000.mgf

>collision 10
45.122639 164.0
45.382385 156.0
45.485298 208.0
45.746475 168.0
46.457314 156.0
46.674625 176.0
46.786194 196.0
47.041126 192.0
47.805939 200.0
47.910587 216.0
47.924362 164.0
48.232121 144.0
48.335846 144.0
48.517292 348.0
49.239479 176.0
49.695839 152.0
49.874191 216.0
49.92762 172.0
50.580891 152.0
50.668694 188.0
51.138535 128.0
51.415222 164.0
51.450909 256.0
52.953629 156.0
52.992741 212.0
53.959171 160.0
54.36364 136.0
55.167664 200.0
55.745716 152.0
56.453827 256.0
56.474766 164.0
56.859821 240.0
58.282387 208.0
58.362949 144.0
58.988033 212.0
59.996632 156.0
60.523491 140.0
60.585445 288.0
61.312645 208.0
61.721649 180.0
62.067703 168.0
62.119461 168.0
62.317272 176.0
62.422588 176.0
62.609859 168.0
63.080055 160.0
63.662487 220.0
63.958847 156.0
64.669144 152.0
64.927094 168.0
65.053848 216.0
65.328651 184.0
66.145195 144.0
66.45311 152.0
66.542183 168.0
66.794273 156.0
66.922836 152.0
66.934235 232.0
67.472672 168.0
68.902534 204.0
69.160507 204.0
69.344353 164.0
69.679558 140.0
70.095528 180.0
70.83065 144.0
71.060326 164.0
71.419823 156.0
72.00975 176.0
72.997787 184.0
73.282051 152.0
73.641998 176.0
73.9412 188.0
74.539711 176.0
76.096008 188.0
76.314934 180.0
76.344498 168.0
76.762444 176.0
76.879318 272.0
77.288223 212.0
77.989723 168.0
78.049492 248.0
79.473236 216.0
79.919159 140.0
80.543236 136.0
80.807709 168.0
82.299545 144.0
82.746132 140.0
83.311974 204.0
83.695732 148.0
83.861511 156.0
84.076729 172.0
85.008217 192.0
85.574364 148.0
86.21814 152.0
87.022079 160.0
88.341583 148.0
89.03698 152.0
89.467575 144.0
89.70871 200.0
89.799225 200.0
90.036942 280.0
90.739052 208.0
90.788353 160.0
91.491394 172.0
91.57708 140.0
91.826759 152.0
92.040497 220.0
93.736214 156.0
93.826805 164.0
95.28997 164.0
96.478821 176.0
96.77816 160.0
97.050514 156.0
97.117195 216.0
97.333069 152.0
98.757935 140.0
98.856857 192.0
99.008141 220.0
99.898521 140.0
101.002785 252.0
101.153717 164.0
101.25383 160.0
101.540428 204.0
101.704956 296.0
102.030388 148.0
102.497337 192.0
102.981514 160.0
103.286209 188.0
103.999969 140.0
104.310753 156.0
106.092911 196.0
108.722839 156.0
110.264 184.0
110.634239 208.0
110.866737 152.0
111.103676 144.0
111.147736 168.0
111.298866 184.0
111.35347 168.0
112.315361 196.0
113.438202 184.0
114.032539 376.0
114.568764 144.0
114.7883 140.0
115.040932 1064.0
115.951263 168.0
116.041725 444.0
116.056358 304.0
116.601562 152.0
117.458511 148.0
117.581497 204.0
117.801735 188.0
118.03083 212.0
118.066475 200.0
118.589371 192.0
119.088409 148.0
119.240494 196.0
119.998032 148.0
121.044655 180.0
121.092834 180.0
121.191414 196.0
121.731018 152.0
121.748589 260.0
121.926544 200.0
121.961708 192.0
122.023262 152.0
122.144211 204.0
122.654388 160.0
122.999588 3224.0
123.186882 192.0
123.242111 140.0
124.194046 144.0
124.375992 148.0
124.693611 140.0
124.99588 312.0
125.236496 172.0
125.936867 152.0
126.011604 352.0
126.724312 188.0
127.013504 192.0
127.664833 148.0
128.008575 148.0
128.694626 140.0
128.719467 176.0
129.381943 184.0
129.472519 140.0
130.028992 272.0
130.56868 176.0
130.68924 180.0
131.034363 216.0
131.783676 152.0
133.907776 116.0
133.988556 152.0
134.057907 256.0
134.33667 180.0
134.819229 140.0
135.024979 148.0
135.055206 176.0
135.675659 180.0
136.225647 252.0
136.413879 244.0
137.005905 432.0
137.092056 176.0
138.000275 184.0
140.330704 172.0
140.708191 140.0
141.157501 180.0
141.268295 196.0
141.628098 140.0
141.793945 152.0
141.834244 140.0
141.891129 168.0
143.036575 224.0
144.046112 1168.0
145.373657 172.0
145.563309 148.0
145.829971 172.0
146.017334 164.0
148.037109 340.0
148.437317 168.0
148.755157 180.0
149.170547 152.0
149.777588 172.0
150.010498 15216.0
150.481232 140.0
150.681808 196.0
150.923477 140.0
151.017654 9336.0
151.515778 184.0
151.893295 180.0
152.009094 2752.0
152.179352 196.0
153.014938 1296.0
153.086349 192.0
153.263123 196.0
153.321823 144.0
153.657166 172.0
154.003693 172.0
154.328979 152.0
154.769409 180.0
154.787918 128.0
155.552841 176.0
155.985062 148.0
156.136734 148.0
156.609619 188.0
156.961014 140.0
157.637497 204.0
158.28038 172.0
159.575089 140.0
159.703339 156.0
159.997025 260.0
160.330246 184.0
160.459412 148.0
160.854874 156.0
161.001984 552.0
161.243851 156.0
162.850159 172.0
162.99826 336.0
163.511215 208.0
164.890976 140.0
164.996857 5716.0
165.387177 152.0
166.005203 1564.0
166.995148 1144.0
167.688538 224.0
168.003082 664.0
168.643509 176.0
169.000381 152.0
170.265411 220.0
170.514816 184.0
170.569397 160.0
170.790421 144.0
171.03241 176.0
171.136536 144.0
171.576859 188.0
172.156113 164.0
172.801743 184.0
175.011749 192.0
176.032211 296.0
176.214462 140.0
176.320602 160.0
177.01062 192.0
177.143051 172.0
177.535324 164.0
178.005051 1116.0
178.140488 176.0
178.54184 180.0
178.946304 196.0
179.013687 33416.0
179.064758 108.0
179.103973 116.0
179.289917 140.0
179.389694 140.0
179.62854 188.0
179.920212 204.0
180.0177 2188.0
180.046906 340.0
180.111694 192.0
180.478653 128.0
181.010345 6428.0
181.323746 120.0
181.349014 112.0
181.428284 208.0
181.605255 196.0
181.63208 244.0
181.744766 160.0
181.855682 132.0
182.012726 468.0
182.8573 156.0
183.96785 152.0
184.200089 156.0
184.540604 196.0
184.975647 168.0
184.999268 160.0
185.547775 180.0
188.933014 196.0
190.25119 172.0
190.322586 192.0
191.483063 164.0
192.432068 140.0
193.767532 184.0
194.028046 176.0
194.474655 188.0
195.984726 248.0
196.313644 144.0
196.338745 144.0
196.843857 172.0
196.86348 144.0
197.120407 192.0
197.685272 168.0
197.965683 288.0
198.267776 208.0
198.514465 184.0
198.783768 148.0
199.609634 200.0
200.789597 152.0
200.92218 208.0
201.400009 208.0
201.44162 148.0
201.503769 148.0
201.608322 156.0
202.162598 204.0
204.156921 200.0
204.401566 168.0
205.08075 164.0
205.139221 160.0
206.258209 176.0
206.41832 168.0
206.870361 144.0
207.105179 188.0
208.235245 156.0
208.442093 184.0
209.333832 172.0
209.962067 192.0
210.210175 188.0
212.60051 200.0
212.803314 124.0
212.912079 184.0
212.974274 852.0
213.050552 180.0
213.09584 148.0
213.346985 144.0
213.403152 196.0
213.438843 168.0
213.499435 112.0
213.684341 200.0
213.752991 108.0
213.783279 140.0
213.804428 376.0
213.858536 448.0
213.881134 200.0
213.903168 332.0
213.983368 159916.0
214.085953 264.0
214.142349 140.0
214.164551 116.0
214.212769 240.0
214.250214 500.0
214.461182 2200.0
214.487244 204.0
214.53714 112.0
214.583572 112.0
214.687027 176.0
214.729523 128.0
214.881332 100.0
214.985626 14140.0
215.285873 120.0
215.32988 128.0
215.35762 180.0
215.397568 148.0
215.466553 240.0
215.619766 216.0
215.794647 144.0
215.910797 312.0
215.97995 105516.0
216.165222 116.0
216.205994 152.0
216.234665 144.0
216.298218 160.0
216.322464 332.0
216.38559 236.0
216.420578 152.0
216.459183 348.0
216.508881 156.0
216.583176 176.0
216.624557 148.0
216.652313 168.0
216.724182 136.0
216.776886 160.0
216.983047 4892.0
217.110336 192.0
217.579681 124.0
217.972351 324.0
218.18338 180.0
218.374649 108.0
218.417221 160.0
218.490982 116.0
218.587814 124.0
218.627197 96.0
218.716217 128.0
218.804184 100.0
219.93988 108.0
300.016937 188.0
311.160675 184.0
351.209747 140.0
372.33136 164.0
520.050659 156.0
870.393738 228.0
1262.134766 160.0
1422.518188 148.0
1454.47937 160.0
1502.484985 164.0
1505.062866 152.0
1515.900024 168.0
1516.109253 160.0
1528.798828 180.0
1535.132202 208.0
1546.178711 176.0
1590.48291 208.0
1591.28479 160.0
1603.495361 176.0
1615.440552 212.0
1621.56604 200.0
1626.467651 184.0
1647.54895 140.0
1676.288086 180.0
1698.222778 180.0
1721.166992 160.0
1740.343872 172.0
1798.959351 224.0
1799.043823 140.0
1805.516113 144.0
1814.390137 204.0
1815.026001 212.0
1831.930664 164.0
1839.776367 144.0
1851.773315 160.0
1855.586548 152.0
1870.000977 220.0
1882.329102 200.0
1888.023926 160.0
1902.342285 188.0
1902.737183 160.0
1922.190674 140.0
1929.10791 140.0
1937.859619 196.0
1956.766479 220.0
1958.134277 216.0
1965.265869 156.0
1974.65625 148.0
1975.523071 188.0
1976.381348 220.0
1990.164307 184.0
2000.646484 180.0
2001.723877 172.0
