>compound MLS000776800-01!2-[(2-ethoxybenzoyl)amino]acetic acid
>formula C11H13NO4
>ionization [M+H]+
>parentmass 224.092
#inchi InChI=1S/C11H13NO4/c1-2-16-9-6-4-3-5-8(9)11(15)12-7-10(13)14/h3-6H,2,7H2,1H3,(H,12,15)(H,13,14)
#inchikey OOWLKCOFLNMDFW
#Ion_Source LC-ESI
#Instrument qTof
#Compound_Source NIH Natural Product Library
#PI Dorrestein
#Data_Collector VVP/LMS
#Scan -1
#Precursor_MZ 224.092
#ExactMass 223.084
#Charge 1
#CAS_Number N/A
#Pubmed_ID N/A
#Smiles CCOc1ccccc1C(=O)NCC(=O)O
#INCHI_AUX N/A
#Library_Class 1
#SpectrumID CCMSLIB00000080210
#IonMode Positive
#UpdateWorkflowName UPDATE-SINGLE-ANNOTATED-GOLD
#LibraryQualityString Gold
#TaskID b1d8e8f6646f4e71acdff9ca3d919d08
##Scan# 1604
#SpectrumFile p2-F05_GF5_01_18041.mzXML
#LibraryName NIH_Natural_Products_Library.mgf
#MQScore -1
#Organism NIH_Natural_Products_Library
#TIC_Query 0
#RT_Query -1
#MZErrorPPM -1
#SharedPeaks 0
#MassDiff 0
#LibMZ -1
#SpecMZ 224.092
#SpecCharge 0
#internalFilename spec-00000.mgf

>collision 10
96.70092 272.0
100.070763 44.0
100.575134 160.0
100.962738 168.0
102.047577 160.0
103.000809 48.0
103.052139 720.0
104.059967 152.0
104.822739 192.0
105.13475 108.0
105.191895 40.0
106.814857 120.0
107.050499 188.0
109.303802 212.0
111.006287 92.0
111.526955 216.0
113.070862 144.0
114.305969 160.0
115.0541 236.0
116.448112 192.0
120.311295 124.0
120.684898 156.0
120.989014 108.0
121.028976 3628.0
121.063469 1296.0
121.322014 32.0
121.556702 56.0
121.771851 244.0
122.032684 212.0
122.066338 172.0
122.220314 52.0
122.665192 48.0
122.828369 124.0
125.077507 200.0
127.073174 176.0
128.064545 152.0
131.048737 908.0
131.216751 88.0
132.055511 192.0
144.68248 212.0
149.060715 864.0
149.106476 144.0
149.218292 48.0
149.293671 100.0
149.639206 52.0
158.507462 100.0
180.980042 168.0
194.096161 136.0
225.913391 180.0
268.952087 20.0
285.799286 104.0
294.037537 196.0
332.2117 20.0
881.943115 40.0
1028.010132 132.0
1084.677734 72.0
1089.323608 140.0
1113.730957 188.0
1173.112183 256.0
1189.358154 228.0
1209.796753 156.0
1230.221069 172.0
1238.542236 112.0
1242.243408 212.0
1268.759277 76.0
1287.401245 224.0
1338.057129 168.0
1359.510376 204.0
1391.32312 84.0
1391.954224 164.0
1412.217529 128.0
1422.490356 116.0
1476.737183 152.0
