>compound MLS002637763-01!
>formula C20H20O6
>ionization [M+H]+
>parentmass 357.134
#inchi InChI=1S/C20H20O6/c1-24-17-6-10(3-4-15(17)21)19-12-8-16(22)18(25-2)7-11(12)5-13-14(19)9-26-20(13)23/h3-4,6-8,13-14,19,21-22H,5,9H2,1-2H3
#inchikey CAYMSCGTKZIVTN
#Ion_Source LC-ESI
#Instrument qTof
#Compound_Source NIH Natural Product Library
#PI Dorrestein
#Data_Collector VVP/LMS
#Scan -1
#Precursor_MZ 357.134
#ExactMass 356.126
#Charge 1
#CAS_Number N/A
#Pubmed_ID N/A
#Smiles COc1cc(ccc1O)C2C3COC(=O)C3Cc4cc(OC)c(O)cc24
#INCHI_AUX N/A
#Library_Class 1
#SpectrumID CCMSLIB00000080231
#IonMode Positive
#UpdateWorkflowName UPDATE-SINGLE-ANNOTATED-GOLD
#LibraryQualityString Gold
#TaskID b1d8e8f6646f4e71acdff9ca3d919d08
##Scan# 1793
#SpectrumFile p2-H05_GH5_01_18065.mzXML
#LibraryName NIH_Natural_Products_Library.mgf
#MQScore -1
#Organism NIH_Natural_Products_Library
#TIC_Query 0
#RT_Query -1
#MZErrorPPM -1
#SharedPeaks 0
#MassDiff 0
#LibMZ -1
#SpecMZ 357.134
#SpecCharge 0
#internalFilename spec-00000.mgf

>collision 10
95.623337 152.0
98.02243 180.0
98.162392 224.0
98.533478 208.0
100.766678 264.0
100.954575 168.0
103.057236 192.0
104.63929 64.0
105.067284 148.0
106.86412 160.0
107.047272 344.0
107.37912 120.0
107.521477 168.0
109.065567 920.0
109.222572 40.0
110.02906 156.0
111.262192 104.0
111.388199 248.0
112.8508 124.0
114.1315 180.0
115.060196 188.0
115.363831 160.0
115.419418 200.0
116.052757 92.0
118.601471 136.0
119.091843 144.0
121.550133 200.0
122.035873 1204.0
122.116943 80.0
122.145538 76.0
123.036339 196.0
123.393753 112.0
126.043259 184.0
127.295464 164.0
128.061218 304.0
128.811249 136.0
129.068863 316.0
129.132217 36.0
130.074829 224.0
130.390549 156.0
130.736237 132.0
131.05162 280.0
131.17128 112.0
132.16246 116.0
133.0242 136.0
134.384354 196.0
135.366745 184.0
135.73288 68.0
135.967178 152.0
136.683975 144.0
136.731812 156.0
136.78302 144.0
136.867035 216.0
137.013565 176.0
137.059387 8616.0
137.086334 184.0
137.118439 56.0
137.181366 48.0
137.21167 56.0
137.335266 44.0
137.5336 52.0
137.640991 164.0
137.683029 100.0
137.86525 60.0
137.975113 48.0
138.061874 560.0
138.438416 136.0
138.843842 44.0
139.064392 196.0
139.127762 208.0
139.148895 136.0
139.242828 140.0
140.377167 36.0
140.669739 240.0
142.153748 100.0
143.733826 196.0
144.052734 152.0
145.06842 188.0
146.064987 128.0
147.074631 124.0
147.192932 168.0
147.565033 100.0
147.700455 108.0
149.053299 248.0
150.039062 132.0
150.996277 124.0
155.053772 156.0
155.07608 196.0
155.381088 60.0
156.059143 156.0
157.056641 180.0
159.042969 140.0
159.076035 184.0
159.197708 208.0
160.049759 400.0
162.068375 216.0
164.063538 188.0
165.058731 212.0
169.059479 132.0
170.075546 212.0
171.084152 188.0
172.050446 412.0
173.071045 152.0
173.957199 160.0
174.069077 312.0
175.024643 76.0
175.073761 896.0
176.076248 316.0
176.140244 124.0
177.063339 144.0
183.083282 168.0
185.051224 184.0
187.075272 444.0
189.091187 180.0
189.883423 124.0
190.061737 36.0
190.152298 72.0
190.624664 76.0
195.083221 180.0
196.065536 160.0
198.038055 116.0
199.508469 108.0
202.074951 76.0
204.353302 120.0
205.088028 48.0
207.042313 156.0
211.033585 212.0
211.076019 340.0
212.957825 116.0
213.05368 100.0
213.076935 156.0
214.065887 168.0
215.061493 196.0
215.084824 148.0
215.102722 200.0
217.433731 180.0
218.07695 192.0
219.091354 188.0
219.8116 132.0
220.077255 192.0
221.06456 148.0
222.071854 116.0
222.867462 232.0
225.056747 180.0
226.064117 140.0
227.067734 88.0
228.004456 60.0
228.07814 196.0
229.090683 88.0
231.080246 180.0
233.079437 312.0
237.097473 168.0
237.965576 132.0
239.072006 132.0
240.082855 168.0
241.085617 132.0
242.897263 136.0
246.671417 48.0
249.081146 144.0
251.101898 336.0
255.069321 164.0
255.098267 188.0
256.077972 196.0
261.087128 204.0
261.546906 216.0
263.058746 104.0
264.086304 176.0
266.101959 112.0
267.102905 144.0
271.090332 156.0
272.125946 112.0
273.092102 92.0
284.091003 144.0
321.031189 204.0
358.217834 128.0
446.247498 60.0
529.185852 20.0
582.538818 116.0
676.045532 160.0
679.657349 112.0
724.804688 176.0
784.755615 180.0
1031.963623 144.0
1034.605957 168.0
1060.800537 180.0
1085.110474 144.0
1086.894531 112.0
1112.868042 244.0
1162.292358 236.0
1163.928223 184.0
1179.618652 184.0
1191.99646 144.0
1286.175293 200.0
1303.535767 76.0
1304.067505 212.0
1321.866333 196.0
1324.661011 200.0
1355.663086 136.0
1379.281128 204.0
1381.758423 248.0
1384.452759 184.0
1386.875488 124.0
1393.346313 120.0
1403.483398 76.0
1404.758667 76.0
1429.829712 152.0
1440.181396 196.0
1444.671509 132.0
1462.450439 176.0
1462.557007 216.0
1467.737427 140.0
1476.710571 188.0
1485.672729 72.0
1498.889282 164.0
