>compound MLS001333211-01!Beclomethasone
>formula C22H29ClO5
>ionization [M+H]+
>parentmass 409.17762816009053
#inchi InChI=1S/C22H29ClO5/c1-12-8-16-15-5-4-13-9-14(25)6-7-19(13,2)21(15,23)17(26)10-20(16,3)22(12,28)18(27)11-24/h6-7,9,12,15-17,24,26,28H,4-5,8,10-11H2,1-3H3/t12?,15?,16?,17?,19?,20?,21-,22?/m0/s1
#inchikey NBMKJKDGKREAPL
#Ion_Source LC-ESI
#Instrument qTof
#Compound_Source NIH Pharmacologically Active Library
#PI Dorrestein
#Data_Collector VP/LMS
#Scan -1
#Precursor_MZ 409.169
#ExactMass 408.17
#Charge 1
#CAS_Number N/A
#Pubmed_ID N/A
#Smiles CC1CC2C3CCC4=CC(=O)C=CC4(C)[C@@]3(Cl)C(O)CC2(C)C1(O)C(=O)CO
#INCHI_AUX N/A
#Library_Class 1
#SpectrumID CCMSLIB00000085370
#IonMode Positive
#UpdateWorkflowName UPDATE-SINGLE-ANNOTATED-GOLD
#LibraryQualityString Gold
#TaskID d252d724072548979f1f6f1ced849daf
##Scan# 1850
#SpectrumFile p3-H10_GH10_01_18315.mzXML
#LibraryName Pharm_Active_Library.mgf
#MQScore -1
#Organism Pharm_Active_Library
#TIC_Query 0
#RT_Query -1
#MZErrorPPM -1
#SharedPeaks 0
#MassDiff 0
#LibMZ -1
#SpecMZ 409.169
#SpecCharge 0
#internalFilename spec-00000.mgf

>collision 10
44.966946 124.0
45.012337 160.0
45.029701 40.0
45.048401 172.0
45.113888 128.0
45.200829 156.0
45.210194 124.0
45.357533 112.0
45.460812 64.0
45.56152 68.0
45.669067 156.0
45.702702 164.0
45.887234 204.0
45.900719 204.0
46.005962 112.0
46.23576 228.0
46.275021 88.0
46.359005 108.0
46.390182 184.0
46.483772 128.0
46.521778 128.0
46.553009 60.0
46.842724 120.0
47.015896 196.0
47.029545 160.0
47.164776 168.0
47.293358 120.0
47.4701 248.0
47.519485 208.0
47.660915 112.0
47.692524 168.0
47.768158 60.0
47.905823 220.0
47.976109 136.0
48.035412 164.0
48.090607 48.0
48.22459 96.0
48.360146 112.0
48.465401 172.0
48.820782 208.0
48.901482 200.0
48.932106 188.0
49.113277 180.0
49.139786 112.0
49.159321 208.0
49.223537 120.0
49.573277 184.0
49.776691 208.0
49.924252 152.0
49.938316 208.0
50.073437 212.0
50.13966 196.0
50.183361 168.0
50.224258 132.0
50.544975 104.0
50.689419 168.0
50.736191 152.0
50.77306 164.0
51.121136 120.0
51.203709 140.0
51.225075 116.0
51.245022 124.0
51.384636 220.0
51.409012 212.0
51.514675 140.0
51.80751 188.0
51.947018 56.0
52.020206 68.0
52.293327 64.0
52.373962 52.0
52.450333 204.0
52.637897 156.0
52.685562 172.0
52.73325 96.0
52.793976 68.0
52.8041 112.0
52.842934 128.0
52.885128 172.0
52.999538 184.0
53.153248 228.0
53.311543 244.0
53.337704 164.0
53.352242 80.0
53.381325 200.0
53.43951 184.0
53.523933 168.0
53.611343 212.0
53.635197 164.0
53.746964 152.0
53.760098 344.0
53.776154 116.0
53.80389 148.0
53.852081 228.0
53.988007 192.0
54.102142 176.0
54.118248 160.0
54.174721 116.0
54.261837 192.0
54.330772 252.0
54.396812 144.0
54.420303 128.0
54.433517 140.0
54.449673 40.0
54.611355 212.0
54.684925 36.0
54.720257 184.0
54.889709 156.0
55.093399 192.0
55.149555 180.0
55.356689 188.0
55.454624 196.0
55.525906 204.0
55.573112 280.0
55.595375 144.0
55.770592 132.0
55.849445 132.0
55.932774 108.0
56.026596 124.0
56.068317 200.0
56.172695 188.0
56.221935 112.0
56.284634 156.0
56.350357 224.0
56.37875 92.0
56.429577 116.0
56.570213 244.0
56.628613 184.0
56.696033 180.0
56.741005 72.0
56.779499 244.0
56.894039 124.0
57.157074 204.0
57.169918 156.0
57.300121 116.0
57.336285 144.0
57.571644 220.0
57.665318 156.0
57.695549 144.0
57.746967 188.0
58.033192 104.0
58.204659 112.0
58.271492 116.0
58.309483 124.0
58.327724 176.0
58.405739 236.0
58.545303 116.0
58.590622 208.0
58.825867 84.0
58.951015 184.0
59.079556 116.0
59.099445 196.0
59.140026 116.0
59.194351 296.0
59.290871 164.0
59.373661 84.0
59.617767 212.0
59.668495 112.0
59.680798 204.0
59.820805 200.0
59.873158 236.0
59.913208 112.0
60.005684 196.0
60.021103 192.0
60.297443 140.0
60.470673 140.0
60.532604 244.0
60.734085 96.0
60.777527 148.0
60.850479 176.0
60.971649 112.0
61.027611 192.0
61.314053 96.0
61.357697 124.0
61.390446 72.0
61.558987 188.0
61.663666 180.0
61.687111 100.0
61.744968 128.0
61.764969 208.0
62.091099 236.0
62.172684 184.0
62.227627 112.0
62.284164 188.0
62.321869 156.0
62.342297 228.0
62.446064 120.0
62.672764 124.0
62.74527 212.0
62.861996 160.0
62.899876 148.0
63.024643 140.0
63.045189 212.0
63.068897 104.0
63.147957 168.0
63.272972 144.0
63.360081 152.0
63.507511 164.0
63.604305 132.0
63.710705 284.0
63.774269 160.0
64.141975 140.0
64.172272 132.0
64.242447 144.0
64.36055 176.0
64.48037 156.0
64.552315 208.0
64.576828 196.0
64.619492 148.0
64.91423 224.0
64.957542 40.0
64.991234 248.0
65.190353 216.0
65.217682 164.0
65.246613 180.0
65.296463 64.0
65.357597 100.0
65.386566 188.0
65.484779 144.0
65.496056 204.0
65.510551 156.0
65.623787 204.0
65.708855 152.0
65.87999 164.0
65.944633 124.0
66.004448 180.0
66.093414 200.0
66.208359 132.0
66.238319 144.0
66.250473 144.0
66.282875 184.0
66.31205 52.0
66.680489 180.0
67.043205 148.0
67.067879 80.0
67.213028 144.0
67.237511 172.0
67.268524 92.0
67.307983 188.0
67.407356 208.0
67.440041 176.0
67.467834 240.0
67.497261 88.0
67.8116 196.0
67.832909 176.0
68.070816 160.0
68.118446 164.0
68.14473 172.0
68.263084 248.0
68.302559 60.0
68.427635 192.0
68.574547 156.0
68.659988 164.0
68.795296 144.0
68.869705 132.0
68.899338 144.0
68.943954 172.0
69.101044 124.0
69.139107 164.0
69.575066 72.0
69.608269 184.0
69.639824 176.0
69.658096 192.0
69.742844 160.0
69.754486 148.0
69.830971 140.0
69.849792 76.0
70.170692 200.0
70.219055 176.0
70.244072 96.0
70.287453 224.0
70.352547 184.0
70.372581 88.0
70.389656 216.0
70.489365 184.0
70.763031 116.0
70.793983 176.0
70.928024 192.0
70.985023 208.0
71.261993 132.0
71.293922 84.0
71.54792 188.0
71.612358 196.0
71.906975 308.0
72.040375 172.0
72.10405 76.0
72.12825 204.0
72.202652 164.0
72.238167 160.0
72.349815 136.0
72.370186 132.0
72.595558 212.0
72.614212 208.0
72.755058 68.0
72.834877 144.0
72.965729 148.0
73.011642 176.0
73.076286 236.0
73.129044 168.0
73.169899 80.0
73.244835 176.0
73.415459 184.0
73.497162 116.0
73.794365 176.0
73.887375 256.0
73.994553 88.0
74.412903 56.0
74.42836 76.0
74.579544 164.0
74.625961 72.0
74.722282 124.0
74.765305 64.0
74.784592 96.0
74.818665 116.0
74.928886 104.0
74.953011 224.0
75.01506 236.0
75.052994 144.0
75.234154 72.0
75.247971 156.0
75.341232 84.0
75.431099 120.0
75.515823 172.0
75.63176 160.0
75.71833 160.0
75.739113 232.0
75.862152 44.0
75.954063 168.0
76.007843 156.0
76.026932 176.0
76.238815 176.0
76.273575 216.0
76.372688 152.0
76.522354 192.0
76.611977 208.0
76.625114 152.0
76.745384 140.0
77.008904 192.0
77.0718 52.0
77.717926 108.0
77.879448 136.0
77.89257 136.0
77.940933 160.0
77.963783 164.0
77.990143 100.0
78.072784 164.0
78.097404 168.0
78.259315 212.0
78.384377 124.0
78.599518 156.0
78.638344 148.0
78.687767 248.0
78.751343 168.0
79.168747 116.0
79.253777 120.0
79.401886 208.0
79.50737 180.0
79.597908 184.0
79.690269 188.0
79.898293 200.0
79.985497 152.0
80.015762 136.0
80.114357 188.0
80.161827 188.0
80.193588 204.0
80.39901 136.0
80.506134 148.0
80.523994 160.0
80.582939 164.0
80.683029 148.0
80.731308 152.0
80.795708 156.0
80.829697 116.0
81.220718 212.0
81.293839 180.0
81.394363 192.0
81.611794 156.0
81.764702 148.0
81.923164 188.0
82.222488 52.0
82.330811 192.0
82.37114 140.0
82.513321 180.0
82.583847 180.0
82.692413 160.0
82.76664 180.0
82.801048 180.0
83.042107 168.0
83.141891 192.0
83.250824 116.0
83.45253 148.0
83.578033 120.0
83.594414 200.0
83.621002 216.0
83.683609 196.0
83.720024 148.0
83.967888 172.0
84.04451 168.0
84.093788 220.0
84.115692 128.0
84.144897 164.0
84.243523 76.0
84.296509 84.0
84.353172 52.0
84.651405 120.0
84.816299 204.0
84.840134 148.0
85.087814 172.0
85.106171 92.0
85.624763 44.0
85.807198 180.0
85.821953 84.0
85.95845 120.0
86.119072 116.0
86.509254 184.0
86.575912 60.0
86.620361 136.0
86.633331 180.0
86.733261 208.0
86.766769 196.0
86.87619 232.0
86.915154 168.0
86.941139 172.0
87.191864 156.0
87.204872 300.0
87.237846 168.0
87.29969 184.0
87.346191 92.0
87.364792 56.0
87.495071 144.0
87.539757 148.0
87.57328 160.0
87.836105 140.0
87.865959 208.0
88.177811 152.0
88.364815 112.0
88.505196 116.0
88.542648 148.0
88.59697 116.0
88.730034 144.0
88.782539 188.0
88.812935 156.0
88.957039 156.0
89.003983 144.0
89.049049 108.0
89.253899 244.0
89.334778 100.0
89.423218 140.0
89.497551 164.0
89.521782 136.0
89.883057 44.0
90.198463 148.0
90.275986 156.0
90.338409 28.0
90.39138 188.0
90.406525 252.0
90.520111 184.0
90.684937 92.0
90.705788 172.0
90.806282 140.0
90.92202 212.0
90.946693 160.0
90.986557 172.0
91.052094 644.0
91.073914 100.0
91.231636 108.0
91.477051 156.0
91.536072 188.0
91.628517 240.0
91.804771 120.0
91.917328 112.0
91.930687 112.0
91.945953 204.0
91.961876 208.0
92.058922 208.0
92.146461 36.0
92.326096 160.0
92.341446 96.0
92.463898 156.0
92.582596 132.0
92.784462 104.0
92.799133 172.0
92.904625 108.0
93.068443 424.0
93.473358 156.0
93.633148 184.0
93.706345 176.0
93.754524 212.0
94.012947 176.0
94.083565 48.0
94.124916 140.0
94.138435 108.0
94.223427 180.0
94.29879 216.0
94.364517 188.0
94.391586 152.0
94.490234 196.0
94.565704 176.0
94.693497 188.0
94.707054 104.0
94.871773 52.0
94.931877 168.0
94.967995 184.0
95.015289 96.0
95.048271 208.0
95.085571 888.0
95.18998 240.0
95.238533 176.0
95.285156 188.0
95.611847 140.0
95.664398 68.0
95.732544 112.0
95.843582 168.0
96.049606 232.0
96.093163 200.0
96.286423 212.0
96.616776 120.0
96.691132 128.0
96.830147 168.0
96.879112 56.0
97.070564 136.0
97.141808 172.0
97.379326 68.0
97.691872 172.0
97.725319 196.0
97.762703 100.0
97.809944 204.0
98.286896 220.0
98.49617 172.0
98.824356 164.0
98.867889 44.0
99.117409 88.0
99.323601 152.0
99.351372 108.0
99.444641 148.0
99.492279 44.0
99.667068 68.0
99.72271 132.0
99.865875 172.0
100.373726 104.0
100.409622 196.0
100.537308 164.0
100.625137 212.0
100.677055 156.0
100.796921 180.0
100.982849 240.0
101.026855 176.0
101.1129 176.0
101.199982 200.0
101.251045 204.0
101.285095 184.0
101.343193 84.0
101.409325 216.0
101.483498 144.0
101.621902 124.0
101.637955 168.0
101.704178 92.0
101.820633 172.0
101.927109 160.0
101.983383 208.0
102.12413 184.0
102.176437 76.0
102.365646 244.0
102.379738 36.0
102.437195 176.0
102.623573 156.0
102.637688 164.0
102.663902 172.0
102.754677 212.0
102.776871 40.0
102.827324 152.0
102.940376 136.0
103.01915 76.0
103.050636 536.0
103.168701 164.0
103.304199 200.0
103.530899 44.0
103.609894 212.0
103.772041 128.0
103.843018 220.0
103.879524 112.0
103.968803 268.0
104.057693 264.0
104.249062 120.0
104.308006 224.0
104.417809 144.0
104.869812 176.0
104.92984 180.0
104.992149 168.0
105.006424 124.0
105.068565 1900.0
105.124756 252.0
105.243149 168.0
105.312584 204.0
105.326248 128.0
105.570107 124.0
105.590561 140.0
105.860703 204.0
105.989761 132.0
106.006157 192.0
106.076645 164.0
106.131195 104.0
106.256317 124.0
106.33429 104.0
106.445152 144.0
106.527313 40.0
106.823334 168.0
107.01268 156.0
107.047798 452.0
107.085648 1452.0
107.104614 100.0
107.112083 136.0
107.193947 108.0
107.212494 176.0
107.323814 196.0
107.81926 112.0
107.856461 148.0
108.001205 176.0
108.04879 152.0
108.090172 112.0
108.25164 108.0
108.290985 92.0
108.639236 216.0
108.784508 152.0
108.821877 192.0
108.882095 172.0
109.064079 524.0
109.099564 484.0
109.424843 224.0
109.460243 140.0
109.533134 128.0
109.708183 44.0
109.958496 196.0
110.069145 120.0
110.098557 188.0
110.662987 64.0
110.736282 100.0
110.811699 128.0
110.869392 164.0
111.000351 160.0
111.04229 136.0
111.077965 328.0
111.117813 72.0
111.155579 144.0
111.497894 104.0
111.567261 236.0
111.756554 32.0
111.920731 204.0
112.028145 148.0
112.084328 212.0
112.420334 172.0
112.508987 148.0
112.593452 192.0
112.887207 148.0
113.016243 164.0
113.139008 116.0
113.368057 232.0
113.427116 208.0
113.651268 260.0
113.721954 96.0
113.75592 92.0
113.830231 200.0
114.042686 164.0
114.089455 100.0
114.308533 184.0
114.329819 148.0
114.368126 184.0
114.689766 76.0
114.711082 164.0
114.749695 180.0
115.013992 160.0
115.054306 1700.0
115.080177 124.0
115.33226 52.0
115.460548 92.0
115.481941 240.0
115.693787 116.0
116.006569 144.0
116.061089 816.0
116.081612 76.0
116.096619 40.0
116.12236 144.0
116.169548 124.0
116.221039 208.0
116.48082 168.0
116.919456 168.0
117.069633 1496.0
117.108398 180.0
117.128311 128.0
117.205872 212.0
117.255432 152.0
117.363228 184.0
117.392677 188.0
117.427917 76.0
117.561684 188.0
117.665298 64.0
117.777588 144.0
117.909393 188.0
118.074875 444.0
118.099083 164.0
118.158066 196.0
118.283592 204.0
118.48716 156.0
118.643204 168.0
118.7603 224.0
118.994675 216.0
119.03376 156.0
119.050522 312.0
119.085785 3372.0
119.11412 52.0
119.200485 176.0
119.242317 76.0
119.342323 144.0
119.594681 144.0
119.618622 184.0
119.947563 256.0
120.023865 148.0
120.057449 236.0
120.088814 680.0
120.180916 132.0
120.226746 176.0
120.578369 124.0
120.792656 140.0
120.860474 32.0
120.96553 240.0
120.997124 204.0
121.06414 11704.0
121.101227 520.0
121.241516 128.0
121.262482 92.0
121.294121 100.0
121.310669 160.0
121.324081 120.0
121.343811 168.0
121.377434 192.0
121.392784 132.0
121.410324 180.0
121.445038 184.0
121.476128 168.0
121.774658 60.0
121.891098 224.0
122.030243 224.0
122.070961 760.0
122.10289 324.0
122.128532 208.0
122.165932 152.0
122.27375 64.0
122.348076 68.0
122.412453 148.0
122.48513 144.0
122.560036 68.0
122.705513 120.0
122.853279 72.0
122.943741 116.0
123.079117 712.0
123.213135 160.0
123.414268 188.0
123.429749 204.0
123.542549 148.0
123.666046 104.0
123.706314 196.0
123.907845 168.0
124.049683 112.0
124.080719 144.0
124.128632 172.0
124.158333 124.0
124.271469 172.0
124.495667 168.0
124.644508 148.0
124.735634 148.0
124.766754 60.0
124.795654 152.0
124.833458 76.0
124.917976 208.0
125.058411 172.0
125.094429 284.0
125.122726 220.0
125.222931 184.0
125.25386 176.0
125.300362 280.0
125.341003 124.0
125.521568 200.0
125.628624 188.0
125.646477 272.0
125.691101 244.0
125.713417 160.0
125.866631 208.0
125.925514 124.0
126.025314 148.0
126.04615 132.0
126.064026 56.0
126.289841 144.0
126.321159 144.0
126.533409 228.0
126.566231 200.0
126.60318 172.0
126.691536 228.0
126.744308 212.0
126.889999 308.0
126.921394 216.0
127.055489 148.0
127.181641 140.0
127.291649 128.0
127.374748 64.0
127.725426 360.0
127.754669 156.0
127.94371 64.0
128.038284 152.0
128.061371 2708.0
128.398895 128.0
128.453018 132.0
128.48912 156.0
128.511688 148.0
128.626785 172.0
128.694504 56.0
128.746445 132.0
128.823242 64.0
128.87973 224.0
129.024384 180.0
129.042465 56.0
129.070679 956.0
129.402222 128.0
129.452042 176.0
129.526779 108.0
129.59021 204.0
129.729797 136.0
129.789673 68.0
129.848648 88.0
129.88266 116.0
129.908585 84.0
129.971146 124.0
129.996109 128.0
130.018799 60.0
130.077072 620.0
130.100525 188.0
130.175446 144.0
130.632172 204.0
130.684631 232.0
130.766556 116.0
130.802979 148.0
130.818909 176.0
130.848495 112.0
130.889481 124.0
131.046417 428.0
131.085129 1428.0
131.128693 212.0
131.154922 220.0
131.258636 204.0
131.447983 196.0
131.701401 144.0
131.797348 64.0
131.831635 192.0
131.932205 160.0
131.998505 104.0
132.055939 1560.0
132.092377 200.0
132.15863 176.0
132.422028 136.0
132.456253 216.0
132.53186 212.0
132.653336 128.0
132.751083 184.0
132.884964 144.0
132.99971 160.0
133.063721 912.0
133.100922 1092.0
133.125992 164.0
133.213272 140.0
133.257919 200.0
133.355743 68.0
133.390213 240.0
133.521286 80.0
133.62709 208.0
133.643204 124.0
133.850372 136.0
134.069244 344.0
134.104904 148.0
134.154495 132.0
134.357452 68.0
134.585953 240.0
134.622894 132.0
134.717606 48.0
134.870117 220.0
135.042053 200.0
135.0802 3536.0
135.116364 336.0
135.156891 140.0
135.233978 220.0
135.295761 44.0
135.490311 260.0
135.505341 84.0
135.543594 176.0
135.587631 112.0
135.622391 44.0
135.656372 152.0
135.807892 128.0
135.94014 164.0
136.081314 1248.0
136.174622 84.0
136.195526 168.0
136.248962 120.0
136.488358 132.0
136.700043 96.0
136.746597 152.0
136.777664 236.0
136.998077 196.0
137.058136 216.0
137.095963 904.0
137.177521 68.0
137.364075 68.0
137.429398 60.0
137.534424 80.0
137.564774 132.0
137.590454 164.0
137.749252 72.0
137.821686 152.0
138.022705 60.0
138.05545 128.0
138.099289 164.0
138.174744 144.0
138.266464 200.0
138.369003 252.0
138.486084 136.0
138.556366 204.0
138.577454 168.0
138.830612 64.0
139.055847 184.0
139.076004 432.0
139.186325 208.0
139.302399 140.0
139.432144 204.0
139.63147 164.0
139.796982 252.0
139.885605 172.0
140.172592 136.0
140.276642 172.0
140.559677 160.0
140.724899 144.0
140.824097 188.0
140.909134 164.0
141.007416 196.0
141.041916 184.0
141.071152 732.0
141.107666 124.0
141.599884 104.0
141.704117 68.0
141.846313 220.0
142.017029 188.0
142.076874 656.0
142.147522 180.0
142.591629 196.0
142.655807 116.0
142.891251 212.0
142.929321 192.0
142.988815 172.0
143.007858 192.0
143.050705 148.0
143.085846 1828.0
143.122131 148.0
143.203094 56.0
143.434235 216.0
143.627121 36.0
143.777008 208.0
143.881531 152.0
143.963913 112.0
144.014069 28.0
144.030792 104.0
144.055405 520.0
144.089722 332.0
144.212387 124.0
144.367188 48.0
144.520889 116.0
144.705185 148.0
144.757874 100.0
145.064789 2184.0
145.10112 1424.0
145.15567 44.0
145.194031 76.0
145.213226 128.0
145.287582 92.0
145.335449 80.0
145.390762 132.0
145.443573 148.0
145.539597 48.0
145.803848 156.0
145.916824 160.0
146.071335 1088.0
146.110229 308.0
146.265656 156.0
146.487198 156.0
146.532608 180.0
146.559479 64.0
146.593216 168.0
146.836639 136.0
146.894608 132.0
146.938034 212.0
146.957336 260.0
147.01506 156.0
147.044205 104.0
147.080704 11608.0
147.114716 808.0
147.155243 156.0
147.175659 80.0
147.19075 120.0
147.239761 44.0
147.287277 96.0
147.350891 148.0
147.408875 60.0
147.480621 76.0
147.515228 48.0
147.539398 64.0
147.643372 128.0
147.740875 156.0
147.788528 52.0
147.861115 64.0
147.892578 96.0
148.083084 1520.0
148.129883 44.0
148.168655 116.0
148.265579 68.0
148.282547 100.0
148.440125 168.0
148.478928 56.0
148.546692 188.0
148.646317 192.0
148.728836 124.0
148.823517 168.0
148.896378 176.0
148.94252 164.0
149.034836 168.0
149.06282 160.0
149.093246 588.0
149.13205 136.0
149.190399 48.0
149.236588 208.0
149.419724 108.0
149.747635 120.0
149.891373 216.0
150.042496 176.0
150.093262 192.0
150.198563 152.0
150.271759 116.0
150.35228 216.0
150.405975 172.0
150.559799 180.0
150.681946 76.0
150.708817 88.0
150.828568 104.0
151.002167 140.0
151.074051 1376.0
151.11499 416.0
151.136719 172.0
151.325195 84.0
151.408447 76.0
151.565231 184.0
151.844711 160.0
151.974731 176.0
152.060196 280.0
152.109711 136.0
152.131805 164.0
152.175995 152.0
152.225113 228.0
152.335632 108.0
152.436371 156.0
152.637939 240.0
152.716644 132.0
152.851959 156.0
153.019333 152.0
153.041489 136.0
153.069595 840.0
153.164627 124.0
153.561478 164.0
153.59848 256.0
153.741577 104.0
154.037872 360.0
154.077087 496.0
154.114456 188.0
154.136703 64.0
154.482849 96.0
154.648636 160.0
154.66597 76.0
154.773148 164.0
154.893784 128.0
154.98793 136.0
155.019455 160.0
155.055527 156.0
155.083221 2224.0
155.111847 44.0
155.18869 76.0
155.263092 120.0
155.603043 140.0
155.776901 200.0
155.945862 112.0
156.055756 176.0
156.093704 1256.0
156.194519 188.0
156.348785 168.0
156.4832 160.0
156.518066 176.0
156.749725 200.0
156.789719 84.0
156.807053 160.0
156.979065 92.0
157.020523 200.0
157.042404 292.0
157.064621 376.0
157.10054 1384.0
157.223557 112.0
157.313416 192.0
157.40329 84.0
157.460739 64.0
157.775589 40.0
157.795593 180.0
158.028198 200.0
158.074081 2204.0
158.104385 612.0
158.218414 172.0
158.291016 136.0
158.343613 108.0
158.388702 80.0
158.604202 48.0
158.915176 128.0
158.958527 72.0
158.98494 204.0
159.028107 192.0
159.080063 2620.0
159.116302 548.0
159.173721 40.0
159.241516 136.0
159.311859 124.0
159.472672 128.0
159.609985 176.0
159.629654 192.0
159.67131 88.0
159.712906 96.0
159.955627 192.0
160.013535 116.0
160.084274 336.0
160.119888 292.0
160.341003 148.0
160.63855 68.0
161.060883 276.0
161.095779 6100.0
161.129532 124.0
161.156113 144.0
161.358307 196.0
161.606171 56.0
161.846634 68.0
161.945404 120.0
162.067017 164.0
162.099319 680.0
162.13797 44.0
162.17598 140.0
162.198792 200.0
162.254562 56.0
162.29007 68.0
162.439697 160.0
162.805191 196.0
162.972855 92.0
163.041473 256.0
163.073639 848.0
163.110901 296.0
163.25502 52.0
163.293167 116.0
163.333862 72.0
163.458527 176.0
163.539978 204.0
163.6418 44.0
163.998459 144.0
164.082977 128.0
164.112747 120.0
164.233032 52.0
164.70015 164.0
164.919907 120.0
165.032379 156.0
165.068817 764.0
165.093124 596.0
165.126999 136.0
165.242126 108.0
165.265152 44.0
165.462234 156.0
165.736282 140.0
166.075577 372.0
166.133698 108.0
166.195267 200.0
166.449387 216.0
166.485352 188.0
166.642044 132.0
166.678009 160.0
166.806519 164.0
166.999374 208.0
167.059967 316.0
167.083954 1196.0
167.251541 108.0
167.686829 136.0
167.844345 200.0
167.936935 236.0
168.062622 328.0
168.090942 416.0
168.15625 168.0
168.401535 164.0
168.579803 176.0
168.615982 108.0
168.67543 184.0
168.900406 108.0
168.952133 140.0
168.983185 132.0
169.04097 316.0
169.067474 656.0
169.098618 1256.0
169.350784 44.0
169.635834 104.0
169.944458 112.0
170.071823 1080.0
170.100403 312.0
170.237778 88.0
170.365051 156.0
170.507965 168.0
170.617142 124.0
170.640549 164.0
170.718552 172.0
171.043503 148.0
171.079544 7904.0
171.11705 892.0
171.241684 40.0
171.371933 88.0
171.541336 36.0
171.596085 48.0
171.859512 44.0
171.896057 80.0
172.005676 104.0
172.083847 1836.0
172.168121 92.0
172.196274 244.0
172.300766 232.0
172.415741 140.0
172.59761 152.0
172.700729 92.0
172.797531 184.0
172.925751 144.0
173.030457 216.0
173.095444 2756.0
173.234741 52.0
173.26355 144.0
173.281891 108.0
173.344788 40.0
173.423401 56.0
173.444382 40.0
173.47583 112.0
173.842819 144.0
174.016281 140.0
174.068802 208.0
174.100174 892.0
174.137085 132.0
174.163345 64.0
174.205383 40.0
174.278946 40.0
174.473434 92.0
174.673309 96.0
174.725922 92.0
174.791702 224.0
174.865234 200.0
174.949615 128.0
175.077682 212.0
175.109894 1012.0
175.239334 184.0
175.571472 128.0
175.706009 116.0
175.819473 60.0
175.959366 200.0
176.049149 40.0
176.115234 648.0
176.202362 68.0
176.602036 240.0
176.882019 60.0
176.940247 152.0
177.040878 176.0
177.087479 416.0
177.117569 176.0
177.160065 100.0
177.300507 48.0
177.431564 96.0
177.669083 132.0
177.788483 108.0
178.074661 824.0
178.125687 60.0
178.197418 368.0
178.976761 136.0
179.048599 156.0
179.084747 2020.0
179.669754 148.0
179.944641 128.0
180.084488 284.0
180.134262 40.0
180.672256 148.0
180.896408 116.0
181.065659 760.0
181.099777 728.0
181.199036 156.0
181.391983 76.0
181.622589 168.0
181.893616 152.0
181.920456 188.0
181.939255 104.0
182.073242 852.0
182.102814 416.0
182.205139 188.0
182.288437 80.0
182.312622 128.0
182.637939 204.0
183.035965 112.0
183.045197 100.0
183.07872 1992.0
183.110764 628.0
183.399963 128.0
183.540161 116.0
183.634552 124.0
183.788315 60.0
183.92865 52.0
183.950256 180.0
184.08699 616.0
184.11496 192.0
184.171677 56.0
184.344589 144.0
184.522995 88.0
184.72583 172.0
184.745728 216.0
184.861115 136.0
185.095352 2880.0
185.196823 60.0
185.261841 108.0
185.467789 40.0
185.489471 104.0
185.554535 144.0
185.638596 160.0
185.768784 156.0
185.839325 220.0
185.999451 128.0
186.032028 140.0
186.072754 192.0
186.101364 1012.0
186.16507 72.0
186.219391 44.0
186.270996 60.0
186.499252 156.0
186.795639 204.0
186.923523 120.0
186.948013 176.0
186.967056 164.0
187.03096 148.0
187.070938 260.0
187.113403 1496.0
187.389145 48.0
187.511765 140.0
187.694427 60.0
187.806244 64.0
188.029968 168.0
188.078339 156.0
188.115311 152.0
188.180115 72.0
188.245651 160.0
188.548889 200.0
188.633621 240.0
188.717133 308.0
189.078842 588.0
189.08844 816.0
189.119766 284.0
189.139694 160.0
189.399826 172.0
190.044083 168.0
190.077026 696.0
190.444885 152.0
190.656448 120.0
190.947876 144.0
190.994629 192.0
191.035904 96.0
191.081665 924.0
191.11293 200.0
191.206497 148.0
191.779388 216.0
191.851059 60.0
192.040375 184.0
192.089569 864.0
192.68454 192.0
193.05217 144.0
193.101212 1164.0
193.530899 100.0
193.558578 232.0
193.813431 52.0
193.863297 40.0
193.921509 208.0
194.029617 176.0
194.074036 604.0
194.107468 768.0
194.354126 180.0
194.820572 52.0
194.912262 64.0
195.079498 2356.0
195.112869 616.0
195.159012 172.0
195.357117 68.0
196.046799 208.0
196.087753 1856.0
196.115326 484.0
196.323639 44.0
196.630539 160.0
196.731018 204.0
196.895767 152.0
197.035431 184.0
197.09581 4544.0
197.160477 96.0
197.181335 112.0
197.286957 80.0
197.552643 64.0
197.611389 100.0
197.773697 60.0
197.821289 60.0
198.100723 1172.0
198.162964 36.0
198.216202 40.0
198.295456 216.0
198.709702 156.0
198.7995 60.0
198.848022 208.0
199.06514 160.0
199.110474 1088.0
199.157837 120.0
199.293716 60.0
199.425018 144.0
199.515762 56.0
199.898285 152.0
200.078262 216.0
200.118744 392.0
200.269928 156.0
200.692657 56.0
201.084778 188.0
201.129944 320.0
201.282394 60.0
201.44339 104.0
201.468811 132.0
201.511185 44.0
202.045547 192.0
202.076691 376.0
202.101929 204.0
202.122879 228.0
202.487137 148.0
202.696777 56.0
202.716614 48.0
203.082108 404.0
203.106384 368.0
203.641495 68.0
203.681259 116.0
204.095444 724.0
204.343658 168.0
204.389191 112.0
204.494492 196.0
205.040909 316.0
205.064041 532.0
205.102676 932.0
205.152496 140.0
205.22377 40.0
205.394882 56.0
205.794434 168.0
205.865829 204.0
205.982925 164.0
206.070831 508.0
206.106537 1120.0
206.322998 192.0
206.417358 120.0
206.448059 136.0
206.749207 192.0
206.892319 152.0
206.99826 216.0
207.04863 528.0
207.056488 348.0
207.079208 772.0
207.114212 752.0
207.19017 160.0
207.333939 92.0
207.826675 148.0
207.996002 196.0
208.061188 376.0
208.086197 2016.0
208.121231 292.0
208.855179 144.0
208.875305 76.0
208.901199 212.0
209.013412 192.0
209.051773 376.0
209.094955 5224.0
209.130371 548.0
209.184433 164.0
209.39917 80.0
209.488464 88.0
209.90062 136.0
210.010223 188.0
210.104034 1764.0
210.211899 172.0
210.243912 60.0
210.454651 32.0
210.679932 84.0
210.705933 140.0
210.772385 104.0
211.074997 436.0
211.111038 3840.0
211.149185 260.0
211.182907 44.0
211.208939 92.0
211.239899 40.0
211.394104 48.0
211.50119 104.0
211.519943 84.0
211.588043 72.0
211.712555 48.0
211.758896 168.0
211.789474 100.0
211.900833 56.0
212.118469 1304.0
212.384964 96.0
212.422684 60.0
212.553238 104.0
212.590973 152.0
212.94516 184.0
213.049622 192.0
213.093323 480.0
213.128616 728.0
213.622437 88.0
214.096878 160.0
214.131836 460.0
214.408615 156.0
214.78183 44.0
215.012329 76.0
215.104523 688.0
215.140762 144.0
215.219589 40.0
215.524994 164.0
215.862457 196.0
216.089981 568.0
216.251572 256.0
216.283768 176.0
216.488708 56.0
216.664459 112.0
217.033752 168.0
217.100418 304.0
217.162796 44.0
217.344681 36.0
217.649963 88.0
218.072769 188.0
218.103531 808.0
218.496246 112.0
218.770157 132.0
218.831985 120.0
219.082153 684.0
219.115845 1128.0
219.391769 208.0
219.878479 100.0
220.088898 440.0
220.117157 616.0
220.312546 72.0
220.560776 80.0
220.584412 48.0
220.619888 208.0
220.690857 140.0
220.741119 120.0
220.803223 128.0
220.999283 144.0
221.096085 1992.0
221.132553 608.0
221.211563 200.0
221.255966 160.0
221.386246 124.0
221.411453 188.0
221.592056 104.0
221.878128 220.0
222.103561 3724.0
222.237 48.0
222.311188 52.0
222.414948 92.0
222.507095 40.0
222.703094 36.0
222.780334 164.0
222.813004 136.0
222.989349 128.0
223.045746 216.0
223.070419 444.0
223.109634 4396.0
223.217255 132.0
223.238068 68.0
223.467102 60.0
223.505783 76.0
223.666504 160.0
223.708176 32.0
223.839188 64.0
223.949371 64.0
224.053635 84.0
224.081451 188.0
224.118637 2256.0
224.244354 112.0
224.309921 84.0
224.354645 80.0
224.545486 116.0
224.581284 104.0
224.664795 168.0
224.721481 116.0
224.892929 160.0
225.04982 116.0
225.089447 288.0
225.128571 1768.0
225.764008 88.0
225.91954 188.0
225.979385 128.0
226.099075 116.0
226.129974 644.0
226.467346 60.0
226.719009 112.0
226.835907 52.0
226.913864 108.0
227.008881 116.0
227.105453 312.0
227.148514 164.0
227.522903 244.0
227.676041 140.0
227.8022 164.0
228.024551 40.0
228.094849 200.0
229.041565 144.0
229.073944 180.0
229.103439 420.0
229.234375 192.0
229.466476 176.0
230.006485 204.0
230.03064 84.0
230.10881 1100.0
230.19368 36.0
230.474609 160.0
230.731522 80.0
230.819199 80.0
230.858521 148.0
231.086517 300.0
231.117188 504.0
231.200378 52.0
231.703033 64.0
231.736359 64.0
231.76059 112.0
232.018219 200.0
232.085602 328.0
232.117752 352.0
232.297226 96.0
232.483154 232.0
232.728195 164.0
233.0289 176.0
233.094971 1700.0
233.402756 76.0
233.464935 224.0
234.103424 1868.0
234.134918 196.0
234.161926 196.0
234.203171 180.0
234.401199 60.0
234.480438 84.0
234.623703 64.0
234.684677 88.0
234.901215 68.0
235.052673 156.0
235.076706 168.0
235.109818 2024.0
235.148743 468.0
235.502563 68.0
235.568298 160.0
235.591141 152.0
235.658356 68.0
235.725586 64.0
235.750031 44.0
235.801987 68.0
236.11673 2020.0
236.153137 544.0
236.214783 128.0
236.471802 184.0
236.588135 92.0
236.728973 68.0
236.823914 84.0
236.909698 112.0
236.978592 148.0
237.019989 100.0
237.041443 164.0
237.085968 144.0
237.12764 4816.0
237.171158 364.0
237.23761 112.0
237.360245 108.0
237.390915 32.0
237.590286 52.0
237.660858 32.0
238.035339 68.0
238.090057 220.0
238.130417 1060.0
238.305649 48.0
238.677582 56.0
238.757538 104.0
239.067078 240.0
239.105957 384.0
239.142502 4912.0
239.268326 224.0
239.305283 92.0
239.332993 44.0
239.450012 104.0
239.511612 144.0
239.69339 104.0
239.724197 144.0
239.841324 96.0
239.881393 132.0
240.047897 44.0
240.111069 248.0
240.147537 1600.0
240.188416 140.0
240.47673 40.0
240.624893 100.0
240.933746 140.0
241.094833 196.0
241.123718 308.0
241.146957 132.0
241.47287 176.0
241.808853 120.0
242.107025 116.0
242.163651 164.0
242.19899 104.0
243.083389 188.0
243.117142 280.0
243.163284 172.0
243.464432 156.0
243.650803 108.0
243.840363 120.0
244.011337 176.0
244.057968 184.0
244.079742 208.0
244.122391 236.0
244.462357 240.0
245.094589 900.0
245.129837 600.0
245.549652 68.0
245.930313 44.0
246.036438 192.0
246.066498 148.0
246.104553 872.0
246.139008 264.0
246.248779 40.0
246.905121 200.0
246.930145 176.0
247.112137 2036.0
247.147461 244.0
247.264923 220.0
247.512238 132.0
247.599915 32.0
247.906937 76.0
248.119034 2784.0
248.3992 56.0
248.964157 156.0
249.094116 372.0
249.127426 2652.0
249.221756 68.0
249.493332 156.0
249.536072 188.0
249.558075 40.0
249.831696 84.0
249.895523 112.0
250.014206 136.0
250.042526 92.0
250.095291 136.0
250.133148 1036.0
250.672379 68.0
251.104294 164.0
251.143753 1636.0
251.177811 328.0
251.425308 96.0
251.779694 96.0
252.041901 176.0
252.115829 620.0
252.149384 732.0
252.196762 224.0
252.598343 108.0
252.633133 120.0
252.750198 40.0
252.997086 224.0
253.071518 156.0
253.100189 148.0
253.120911 316.0
253.150314 252.0
253.263077 68.0
253.65918 164.0
253.68454 80.0
253.751114 32.0
253.7733 128.0
254.103165 44.0
254.125381 112.0
254.157104 120.0
255.100388 128.0
255.124985 276.0
255.158813 160.0
255.174149 40.0
255.182297 168.0
255.787506 84.0
256.089996 132.0
256.125061 152.0
256.156158 156.0
256.268402 104.0
257.076172 128.0
257.103424 280.0
257.12262 112.0
257.127563 96.0
257.276245 56.0
257.723389 156.0
257.906433 204.0
258.10025 392.0
258.140747 220.0
258.180511 56.0
258.362854 176.0
258.494019 124.0
258.727692 184.0
259.110809 924.0
259.139343 196.0
259.164978 120.0
259.275421 52.0
260.064423 172.0
260.117157 460.0
260.15274 220.0
261.044342 216.0
261.078064 352.0
261.126404 1600.0
261.1586 216.0
261.716858 124.0
261.91333 160.0
261.964874 116.0
262.085297 144.0
262.134338 2068.0
262.216187 108.0
262.283875 120.0
262.993988 168.0
263.058075 196.0
263.105316 448.0
263.142731 5376.0
263.297028 28.0
263.33255 48.0
263.448822 40.0
263.477905 56.0
263.652405 64.0
263.849579 40.0
264.014496 184.0
264.059753 96.0
264.110077 312.0
264.150238 2724.0
264.415649 100.0
264.800934 84.0
265.037994 68.0
265.1185 432.0
265.156372 740.0
265.491272 156.0
265.831909 48.0
265.880585 112.0
265.926025 136.0
266.111053 220.0
266.156097 368.0
266.637299 48.0
266.764069 148.0
267.137573 656.0
267.174988 172.0
268.125946 112.0
268.170288 224.0
268.264832 160.0
269.150574 184.0
269.639038 52.0
270.126221 132.0
270.649872 40.0
271.098175 304.0
271.117859 84.0
271.256744 88.0
271.485504 128.0
272.114624 456.0
272.151642 180.0
273.068512 108.0
273.12735 560.0
273.16394 308.0
274.096741 276.0
274.133484 448.0
274.214294 60.0
274.563782 60.0
274.682526 64.0
274.731995 52.0
274.764984 52.0
275.099976 176.0
275.144897 1404.0
275.286499 52.0
275.316223 168.0
275.388885 48.0
275.43515 120.0
275.544159 40.0
275.808533 48.0
276.109955 280.0
276.150482 1144.0
276.236755 56.0
276.410461 156.0
276.58255 60.0
276.6297 116.0
276.787811 64.0
276.820038 104.0
277.126404 868.0
277.15686 2884.0
277.208527 36.0
277.460449 48.0
277.500214 52.0
277.559906 72.0
277.62149 84.0
277.659393 88.0
277.818604 96.0
277.984528 80.0
278.129272 668.0
278.16507 2288.0
278.236786 44.0
278.48584 216.0
278.552277 76.0
278.781525 44.0
278.857971 80.0
279.082489 156.0
279.13562 628.0
279.172028 4416.0
279.240326 36.0
279.54306 108.0
279.706146 40.0
280.032471 52.0
280.144348 384.0
280.176117 1608.0
281.035919 140.0
281.146576 216.0
281.182556 140.0
281.456482 128.0
281.533295 112.0
281.600098 60.0
281.633911 136.0
282.023041 48.0
282.081268 132.0
282.156464 196.0
282.633087 184.0
283.151978 188.0
283.252472 128.0
283.872528 120.0
284.868042 60.0
285.023926 96.0
285.108765 180.0
285.115509 128.0
285.128906 168.0
285.153412 196.0
285.222229 32.0
285.286102 36.0
285.376862 68.0
286.005981 132.0
286.131104 940.0
286.298889 144.0
286.383087 32.0
286.423523 68.0
287.142914 300.0
287.51593 148.0
287.620575 68.0
288.116974 124.0
288.146271 152.0
288.32312 108.0
289.115326 228.0
289.158508 668.0
290.121185 260.0
290.160431 316.0
290.839661 68.0
291.137695 656.0
291.173584 1252.0
291.508728 152.0
291.603882 96.0
292.140656 244.0
292.171692 272.0
292.331696 104.0
292.498474 56.0
292.920715 48.0
292.94455 44.0
293.158752 396.0
293.431915 68.0
293.790009 48.0
294.160919 116.0
295.136902 224.0
295.170837 1232.0
295.369232 140.0
296.131561 116.0
296.174805 448.0
296.371368 48.0
296.457031 72.0
297.087952 132.0
297.134796 152.0
297.18158 472.0
297.832855 44.0
297.898132 120.0
298.052734 136.0
298.186768 40.0
298.730042 80.0
299.117126 132.0
299.170532 132.0
300.135254 136.0
300.349091 44.0
301.122253 164.0
301.157349 532.0
302.167664 220.0
302.29425 96.0
303.132263 32.0
303.700867 68.0
304.143738 328.0
305.14386 96.0
305.792542 200.0
306.167694 396.0
306.527374 104.0
306.649353 84.0
307.06076 136.0
307.129547 172.0
307.167175 988.0
307.755219 52.0
308.125458 96.0
308.171539 344.0
308.583313 116.0
309.11499 152.0
309.185669 140.0
309.591095 84.0
310.155182 116.0
310.186401 176.0
310.319946 44.0
310.474243 60.0
311.081268 100.0
311.162994 128.0
311.235748 128.0
312.042786 116.0
312.156403 208.0
313.132782 128.0
313.146301 176.0
315.145569 108.0
316.146301 144.0
318.141876 92.0
319.165497 512.0
319.214905 96.0
320.186462 184.0
320.464325 140.0
320.492828 48.0
320.781494 60.0
321.723297 60.0
322.158966 160.0
324.180603 128.0
325.190338 88.0
325.200348 188.0
326.168976 76.0
327.14386 164.0
327.197845 124.0
330.153137 184.0
331.144806 132.0
333.128967 112.0
333.15802 112.0
335.567352 120.0
337.085815 172.0
337.176788 608.0
338.182037 320.0
338.344055 52.0
338.428284 52.0
339.197632 124.0
341.239563 120.0
343.140259 176.0
345.152496 128.0
345.228638 120.0
350.868988 44.0
352.085449 96.0
355.186981 260.0
356.190582 112.0
356.479889 76.0
359.02478 48.0
361.158722 116.0
362.430786 56.0
365.883301 40.0
367.621429 80.0
371.578003 60.0
373.137329 140.0
373.16864 196.0
375.17395 260.0
376.791016 48.0
379.062317 48.0
380.959625 76.0
384.280579 104.0
385.600494 60.0
387.16153 144.0
391.163544 588.0
392.127563 112.0
392.174866 128.0
393.141144 156.0
393.172729 252.0
395.484894 108.0
397.256165 84.0
400.320648 88.0
408.968658 44.0
410.378662 136.0
411.157196 140.0
413.663239 80.0
418.962921 52.0
425.362976 104.0
436.485352 100.0
438.354431 36.0
446.577026 48.0
450.51416 80.0
455.211426 52.0
458.640594 84.0
461.791748 80.0
462.420685 36.0
463.285675 96.0
464.80777 60.0
472.118286 104.0
472.15213 116.0
476.817902 96.0
478.244507 60.0
479.281006 60.0
479.398651 96.0
497.574707 92.0
499.42337 64.0
500.518188 40.0
502.323242 56.0
505.079376 80.0
505.267273 40.0
507.856537 100.0
515.582642 76.0
517.473511 96.0
519.131958 112.0
519.376892 36.0
522.475037 116.0
526.42688 72.0
529.967468 108.0
541.521423 84.0
544.355103 44.0
546.172363 72.0
551.964844 76.0
562.168152 92.0
569.953186 92.0
570.808838 60.0
573.541626 44.0
580.277527 40.0
604.811218 124.0
611.402893 56.0
615.726624 92.0
626.958984 108.0
638.735413 104.0
643.922058 76.0
658.800415 136.0
673.197876 32.0
676.403503 56.0
681.761414 92.0
688.53418 88.0
693.473206 136.0
698.009155 180.0
705.607239 88.0
719.943848 72.0
740.310303 76.0
761.273865 108.0
773.984741 112.0
785.450378 148.0
811.540649 72.0
834.799133 156.0
846.004395 220.0
863.051819 84.0
867.759399 108.0
871.145752 80.0
875.798767 116.0
895.922302 104.0
898.038452 32.0
911.875488 132.0
913.523071 84.0
922.176147 180.0
938.87262 164.0
950.8396 116.0
951.705139 180.0
952.890564 156.0
954.790039 184.0
964.000488 156.0
989.610474 172.0
1000.868835 164.0
1001.246643 224.0
1005.862122 128.0
1008.546753 176.0
1009.665833 180.0
1010.399597 72.0
1013.388062 192.0
1025.749146 192.0
1026.5271 144.0
1027.987915 148.0
1036.97998 40.0
1037.871094 180.0
1040.745728 204.0
1046.609985 192.0
1048.213867 180.0
1049.103394 76.0
1049.541748 172.0
1055.818726 76.0
1056.756714 60.0
1059.605469 128.0
1064.665161 200.0
1067.270996 172.0
1069.066406 140.0
1070.11438 256.0
1071.749268 40.0
1072.479248 176.0
1079.19043 88.0
1101.687988 76.0
1107.105225 200.0
1109.285156 160.0
1110.206787 108.0
1112.46936 152.0
1118.092773 108.0
1125.953247 196.0
1128.225098 148.0
1132.494507 208.0
1133.238037 216.0
1133.633423 48.0
1134.303711 148.0
1135.745361 128.0
1136.362549 148.0
1143.499268 120.0
1144.71106 164.0
1147.568115 140.0
1149.558105 176.0
1150.435547 208.0
1151.921143 60.0
1153.461914 228.0
1155.829102 160.0
1158.130859 140.0
1159.397949 76.0
1167.327148 32.0
1169.762939 200.0
1172.855591 148.0
1177.160645 164.0
1177.768555 200.0
1180.994873 148.0
1181.138428 120.0
1181.713989 168.0
1191.984863 156.0
1199.955688 184.0
1203.647095 208.0
1203.944092 180.0
1204.904297 164.0
1213.035889 52.0
1213.978882 192.0
1215.602173 180.0
1215.921387 196.0
1218.503662 136.0
1220.548096 144.0
1220.784546 32.0
1224.215454 188.0
1226.877197 168.0
1234.886719 116.0
1235.27832 84.0
1235.642212 196.0
1240.187012 132.0
1241.659424 44.0
1242.746826 208.0
1242.873047 156.0
1244.922852 136.0
1248.598511 132.0
1249.569214 196.0
1250.730469 168.0
1251.842773 200.0
1253.286865 212.0
1253.82251 208.0
1254.11145 84.0
1255.556885 124.0
1257.04541 68.0
1257.384155 136.0
1258.513672 96.0
1258.866699 196.0
1268.588501 268.0
1268.82251 148.0
1270.340088 200.0
1271.97229 120.0
1272.916626 164.0
1273.392456 184.0
1274.877319 224.0
1275.289551 160.0
1276.825195 120.0
1277.131104 192.0
1277.870972 164.0
1279.130615 84.0
1279.714355 128.0
1282.421509 232.0
1283.733398 204.0
1284.096802 184.0
1284.453735 140.0
1289.823608 212.0
1290.475708 228.0
1296.415527 184.0
1298.093018 188.0
1300.963013 124.0
1305.367554 112.0
1305.719971 180.0
1309.052002 172.0
1310.442261 128.0
1315.468994 128.0
1315.974365 184.0
1316.205444 164.0
1316.357178 228.0
1316.494385 184.0
1318.423218 160.0
1319.608765 176.0
1322.676147 188.0
1323.284302 200.0
1324.45752 68.0
1325.522583 96.0
1330.273193 168.0
1334.385254 136.0
1334.712524 172.0
1335.585205 236.0
1335.83252 160.0
1337.739136 128.0
1338.132324 144.0
1338.722168 156.0
1339.501465 232.0
1340.798462 168.0
1343.029541 160.0
1344.474121 44.0
1345.474243 208.0
1345.970703 148.0
1348.10376 200.0
1348.264526 160.0
1348.600708 200.0
1350.004517 176.0
1350.94812 180.0
1355.047974 216.0
1355.897949 228.0
1357.151489 156.0
1359.616333 124.0
1361.57666 60.0
1362.465454 140.0
1362.891602 172.0
1365.096802 52.0
1366.582764 164.0
1366.774048 180.0
1367.547974 204.0
1371.185303 168.0
1373.736572 156.0
1374.016846 168.0
1376.216431 100.0
1377.686157 192.0
1379.548462 176.0
1381.138306 188.0
1382.159302 216.0
1383.410156 124.0
1383.691528 168.0
1386.67688 192.0
1387.017822 124.0
1387.091919 120.0
1387.796265 104.0
1389.695068 216.0
1390.177368 216.0
1392.523438 208.0
1393.949829 32.0
1394.544434 140.0
1395.116821 88.0
1397.355469 176.0
1398.769409 108.0
1401.140625 168.0
1402.933716 204.0
1403.656982 120.0
1407.5896 108.0
1408.224365 68.0
1417.269043 184.0
1417.703735 136.0
1418.115967 136.0
1420.312866 152.0
1420.372925 204.0
1421.265747 188.0
1423.037109 40.0
1423.57019 208.0
1425.102661 164.0
1427.04187 148.0
1428.877075 184.0
1430.171387 216.0
1430.660767 216.0
1431.23291 92.0
1431.941772 164.0
1433.628418 188.0
1433.907349 172.0
1434.842041 120.0
1436.508789 188.0
1438.425537 136.0
1439.625977 120.0
1440.04895 104.0
1440.849731 156.0
1442.247681 144.0
1442.88269 152.0
1444.99292 200.0
1445.295532 136.0
1447.331787 160.0
1451.757202 204.0
1455.225098 148.0
1455.376953 48.0
1455.695801 112.0
1457.853394 76.0
1458.674805 192.0
1460.004883 188.0
1460.430786 148.0
1460.5448 280.0
1460.598145 220.0
1462.127441 132.0
1463.353027 172.0
1463.642334 184.0
1465.196167 208.0
1467.360718 104.0
1468.611328 92.0
1469.275024 232.0
1471.908325 108.0
1475.560669 68.0
1477.266113 140.0
1478.169067 136.0
1478.643555 272.0
1478.78894 156.0
1481.507324 76.0
1481.936401 184.0
1483.795044 188.0
1485.815918 52.0
1488.625244 208.0
1489.016968 172.0
1490.046265 168.0
1490.484253 176.0
1491.706299 132.0
1492.19751 188.0
1492.352173 176.0
1494.298096 152.0
1495.236938 164.0
1495.660278 104.0
1497.130615 164.0
1497.616089 196.0
1498.116821 228.0
1498.817871 156.0
1501.037964 176.0
1503.160767 192.0
