>compound MLS000860026-01!R()-Propylnorapomorphine hydrochloride
>formula C19H21NO2
>ionization [M+H]+
>parentmass 296.16450536409053
#inchi InChI=1S/C19H21NO2/c1-2-9-20-10-8-12-4-3-5-14-17(12)15(20)11-13-6-7-16(21)19(22)18(13)14/h3-7,15,21-22H,2,8-11H2,1H3/t15-/m1/s1
#inchikey BTGAJCKRXPNBFI
#origInchi InChI=1S/C19H21NO2.ClH/c1-2-9-20-10-8-12-4-3-5-14-17(12)15(20)11-13-6-7-16(21)19(22)18(13)14;/h3-7,15,21-22H,2,8-11H2,1H3;1H/t15-;/m1./s1
#Ion_Source LC-ESI
#Instrument qTof
#Compound_Source NIH Pharmacologically Active Library
#PI Dorrestein
#Data_Collector VP/LMS
#Scan -1
#Precursor_MZ 296.167
#ExactMass 295.157
#Charge 1
#CAS_Number N/A
#Pubmed_ID N/A
#Smiles CCCN1CCc2cccc-3c2[C@H]1Cc4ccc(O)c(O)c43.Cl
#INCHI_AUX N/A
#Library_Class 1
#SpectrumID CCMSLIB00000085096
#IonMode Positive
#UpdateWorkflowName UPDATE-SINGLE-ANNOTATED-GOLD
#LibraryQualityString Gold
#TaskID d252d724072548979f1f6f1ced849daf
##Scan# 1410
#SpectrumFile p3-E10_GE10_01_18279.mzXML
#LibraryName Pharm_Active_Library.mgf
#MQScore -1
#Organism Pharm_Active_Library
#TIC_Query 0
#RT_Query -1
#MZErrorPPM -1
#SharedPeaks 0
#MassDiff 0
#LibMZ -1
#SpecMZ 296.167
#SpecCharge 0
#internalFilename spec-00000.mgf

>collision 10
44.896568 120.0
45.015385 136.0
45.036716 104.0
45.047401 160.0
45.131607 208.0
45.142303 192.0
45.175743 156.0
45.600834 136.0
45.658646 132.0
45.759575 120.0
45.771694 120.0
45.821533 176.0
45.901062 212.0
46.10627 148.0
46.1306 184.0
46.158993 136.0
46.236107 152.0
46.301094 184.0
46.516693 172.0
46.539776 220.0
46.691982 172.0
46.706944 176.0
46.814472 128.0
47.05447 136.0
47.140526 64.0
47.173332 156.0
47.196575 160.0
47.206749 188.0
47.412876 172.0
47.42247 160.0
47.473198 120.0
47.680511 160.0
47.778145 192.0
47.809795 148.0
47.819427 176.0
47.871746 96.0
47.891029 48.0
47.904804 108.0
48.136528 120.0
48.728012 136.0
48.87262 200.0
48.890713 40.0
49.02441 188.0
49.039043 168.0
49.060654 196.0
49.108067 124.0
49.408413 140.0
49.476994 120.0
49.493797 164.0
49.687229 144.0
49.930248 164.0
49.994968 68.0
50.169636 148.0
50.213348 156.0
50.316364 116.0
50.388397 200.0
50.61047 168.0
50.793301 68.0
50.804649 208.0
50.930992 156.0
51.09306 100.0
51.206944 124.0
51.265358 204.0
51.309544 160.0
51.336639 204.0
51.557926 160.0
51.627983 68.0
51.728142 144.0
51.745323 140.0
51.858498 148.0
52.049313 108.0
52.321068 76.0
52.357067 172.0
52.476677 64.0
52.511288 136.0
52.671513 172.0
52.842106 192.0
52.889866 204.0
53.008633 180.0
53.22768 216.0
53.291595 140.0
53.410812 220.0
53.65839 124.0
53.908001 144.0
53.948929 188.0
54.042538 124.0
54.106937 172.0
54.199215 180.0
54.262245 156.0
54.315041 232.0
54.470646 164.0
54.630886 140.0
54.660313 184.0
54.739807 204.0
54.772209 168.0
54.857681 128.0
55.102676 248.0
55.157627 200.0
55.183971 144.0
55.25053 172.0
55.386726 160.0
55.451923 76.0
55.474159 236.0
55.558693 180.0
55.684872 128.0
55.890846 208.0
55.915333 72.0
55.959991 136.0
56.605072 92.0
56.660496 212.0
56.789417 180.0
56.871944 188.0
56.935009 184.0
56.997215 440.0
57.095821 148.0
57.149979 52.0
57.178574 140.0
57.448299 220.0
57.51017 116.0
57.59322 176.0
57.63401 108.0
57.720177 160.0
57.771603 216.0
57.813969 184.0
58.038174 164.0
58.09581 52.0
58.29472 448.0
58.504314 212.0
58.53965 108.0
58.644779 188.0
58.77441 40.0
58.875168 164.0
58.890442 188.0
58.934746 108.0
58.976009 164.0
59.020348 64.0
59.066227 200.0
59.133556 164.0
59.158047 168.0
59.275986 80.0
59.321968 156.0
59.756611 140.0
59.902874 120.0
60.07708 148.0
60.134174 188.0
60.200562 56.0
60.248447 192.0
60.413872 128.0
60.573326 212.0
60.60741 296.0
60.903736 180.0
61.000084 160.0
61.252182 200.0
61.376869 156.0
61.553204 152.0
61.584438 136.0
61.642246 116.0
61.743343 120.0
61.767326 136.0
61.844002 52.0
62.165844 208.0
62.283058 76.0
62.303482 132.0
62.50317 160.0
62.515759 116.0
62.528351 176.0
62.655308 180.0
62.827751 176.0
62.862465 124.0
62.995098 160.0
63.051983 136.0
63.1595 160.0
63.224373 48.0
63.362141 160.0
63.412849 128.0
63.457237 152.0
63.507988 136.0
63.522263 92.0
63.711182 124.0
63.7668 152.0
63.85902 148.0
64.089859 96.0
64.19986 204.0
64.319527 236.0
64.418533 152.0
64.476059 56.0
64.780083 68.0
65.229416 144.0
65.314644 136.0
65.451447 180.0
65.667404 52.0
65.706123 156.0
66.006561 52.0
66.084206 144.0
66.135994 120.0
66.220192 212.0
66.273651 184.0
66.379013 144.0
66.494202 156.0
66.689117 52.0
66.710243 148.0
66.773666 148.0
66.812706 144.0
66.910355 180.0
66.968979 152.0
67.24617 168.0
67.483055 204.0
67.695778 164.0
67.753113 128.0
67.894081 108.0
68.030273 148.0
68.06311 168.0
68.077896 92.0
68.378761 168.0
68.439674 104.0
68.601135 172.0
68.732788 156.0
68.794159 240.0
68.908112 212.0
68.926292 124.0
69.088661 180.0
69.265465 112.0
69.595505 200.0
69.608711 168.0
69.829834 188.0
69.931404 176.0
70.241264 148.0
70.277969 276.0
70.592018 144.0
70.807907 196.0
70.83136 248.0
70.86319 168.0
70.901733 100.0
70.941963 164.0
71.106354 100.0
71.155029 184.0
71.326393 140.0
71.50132 220.0
71.585503 164.0
71.652878 132.0
71.716919 160.0
71.824837 96.0
71.912575 144.0
71.929459 156.0
72.110199 112.0
72.147385 188.0
72.182892 176.0
72.215027 184.0
72.326706 132.0
72.355484 52.0
72.448639 136.0
72.570663 176.0
72.787865 164.0
73.007271 184.0
73.042809 144.0
73.241974 200.0
73.518188 68.0
73.536964 172.0
73.654778 100.0
73.887283 164.0
73.976273 140.0
74.322487 220.0
74.382561 64.0
74.492462 172.0
74.722839 76.0
74.743492 172.0
74.783073 152.0
74.834717 220.0
75.04493 292.0
75.174309 56.0
75.298615 168.0
75.414375 140.0
75.433388 200.0
75.497368 240.0
75.578003 124.0
75.699844 136.0
75.80899 152.0
75.989326 172.0
76.281097 76.0
76.620468 176.0
76.843636 132.0
76.94487 160.0
77.15802 160.0
77.268204 68.0
77.315453 36.0
77.385475 136.0
77.672897 192.0
77.799248 188.0
77.816803 120.0
77.858948 100.0
77.92395 196.0
77.976669 172.0
78.113823 144.0
78.17012 152.0
78.235252 132.0
78.343918 244.0
78.488968 72.0
78.510132 216.0
79.291588 168.0
79.40683 120.0
79.424568 88.0
79.559441 268.0
79.610931 64.0
79.626915 176.0
79.639351 108.0
79.715744 152.0
79.801071 112.0
79.827744 148.0
80.069786 184.0
80.173119 168.0
80.233727 228.0
80.34787 164.0
80.481735 164.0
80.501373 132.0
80.571037 212.0
80.601418 128.0
80.64431 144.0
80.656822 132.0
80.831604 176.0
80.87326 124.0
81.016518 172.0
81.176048 200.0
81.192184 160.0
81.217293 136.0
81.240616 76.0
81.283676 224.0
81.680748 132.0
82.013878 160.0
82.039116 184.0
82.051735 112.0
82.095009 184.0
82.215881 220.0
82.31337 216.0
82.349487 188.0
82.372536 148.0
82.485016 176.0
82.584465 144.0
82.984695 124.0
83.098961 120.0
83.191521 200.0
83.204231 144.0
83.324104 44.0
83.604141 176.0
83.760727 188.0
83.90834 264.0
84.183876 116.0
84.342834 116.0
84.38488 132.0
84.454376 212.0
84.469009 200.0
84.49279 120.0
84.760117 48.0
84.837097 64.0
85.051735 68.0
85.064583 108.0
85.11232 116.0
85.143539 156.0
85.422928 148.0
85.568321 160.0
85.629089 196.0
85.739639 128.0
85.772812 156.0
85.813377 100.0
85.83181 212.0
86.001549 188.0
86.136345 172.0
86.286041 148.0
86.4226 168.0
86.483986 220.0
86.508049 136.0
86.613602 116.0
86.650658 180.0
86.748878 136.0
86.938072 236.0
86.986336 136.0
87.095894 208.0
87.384048 84.0
87.436157 104.0
87.538551 196.0
87.749115 32.0
87.991661 220.0
88.017807 76.0
88.292519 192.0
88.389801 156.0
88.48526 128.0
88.548927 72.0
88.572739 124.0
88.601379 200.0
88.633232 188.0
88.803833 200.0
88.839478 176.0
88.880753 100.0
88.899521 112.0
89.525551 192.0
89.606552 232.0
89.634819 88.0
89.697014 136.0
89.864861 188.0
90.021538 48.0
90.036644 128.0
90.328064 184.0
90.465874 204.0
90.598442 176.0
90.698883 232.0
90.784203 224.0
91.30838 140.0
91.342621 164.0
91.445374 192.0
91.54818 236.0
91.582466 136.0
91.631996 168.0
91.795929 168.0
92.017273 140.0
92.093658 148.0
92.16626 208.0
92.633095 116.0
92.840103 52.0
92.959045 124.0
93.022385 140.0
93.233665 172.0
93.470207 56.0
93.562599 228.0
93.620369 100.0
93.735954 188.0
93.824615 168.0
93.917183 228.0
93.932617 156.0
94.106308 168.0
94.247314 84.0
94.432907 200.0
94.504486 156.0
94.680649 152.0
94.709702 152.0
94.787193 184.0
94.965561 96.0
95.047043 156.0
95.089737 140.0
95.247017 116.0
95.392761 184.0
95.495819 120.0
95.526947 156.0
95.553642 116.0
95.608665 168.0
95.690422 200.0
96.010002 36.0
96.02951 180.0
96.699684 176.0
96.742752 148.0
96.852417 136.0
97.164116 172.0
97.195511 168.0
97.309357 112.0
97.458633 204.0
97.506134 188.0
97.519554 216.0
97.615891 132.0
97.775246 144.0
97.814613 128.0
97.887459 164.0
97.974129 212.0
97.989891 204.0
98.06675 196.0
98.240273 244.0
98.479126 188.0
98.66291 148.0
98.67675 92.0
98.92009 208.0
99.084465 160.0
99.197823 184.0
99.227173 136.0
99.272346 184.0
99.360054 176.0
99.40966 196.0
99.43943 168.0
99.469208 56.0
99.699608 56.0
99.958138 56.0
100.103836 128.0
100.220985 188.0
100.308678 216.0
100.330612 204.0
100.554024 120.0
100.619904 32.0
100.678474 216.0
100.787682 172.0
100.897614 132.0
100.945602 192.0
100.971603 180.0
101.063622 48.0
101.115654 92.0
101.235779 144.0
101.502838 212.0
101.642723 228.0
101.837463 180.0
101.905769 176.0
101.923851 156.0
101.986153 156.0
102.074615 188.0
102.408707 172.0
102.495331 72.0
102.561844 164.0
102.692909 128.0
102.86644 192.0
102.894707 180.0
102.92701 128.0
102.973465 248.0
103.137131 192.0
103.240242 188.0
103.71402 188.0
103.750801 140.0
104.111694 112.0
104.132011 148.0
104.213264 188.0
104.272202 196.0
104.39418 116.0
104.999504 144.0
105.064323 168.0
105.221481 108.0
105.395096 228.0
105.423706 152.0
105.529999 48.0
105.671127 48.0
105.705917 168.0
106.011047 136.0
106.291992 116.0
106.326881 180.0
106.567146 136.0
106.865288 236.0
107.029953 172.0
107.194748 164.0
107.306061 160.0
107.36792 188.0
107.675438 204.0
107.704361 120.0
107.764267 160.0
107.863472 60.0
107.88208 260.0
107.898613 148.0
107.925499 160.0
107.960648 112.0
108.011711 420.0
108.173767 160.0
108.225525 100.0
108.420258 40.0
108.438911 128.0
108.777016 156.0
108.947304 140.0
108.961853 180.0
109.001328 144.0
109.074974 240.0
109.092781 180.0
109.25708 144.0
109.340309 160.0
109.498543 128.0
109.824913 200.0
109.990631 368.0
110.090851 160.0
110.197388 224.0
110.370872 204.0
110.634506 224.0
110.680565 36.0
110.774818 284.0
110.940376 116.0
111.049416 188.0
111.196632 172.0
111.395767 132.0
111.505035 160.0
111.65641 156.0
111.810295 196.0
111.839462 152.0
111.911041 224.0
112.028984 84.0
112.043732 100.0
112.083771 164.0
112.11116 212.0
112.463387 176.0
112.514053 88.0
112.73584 132.0
113.084816 172.0
113.186432 160.0
113.372856 48.0
113.4534 200.0
113.876526 312.0
114.173439 128.0
114.207268 204.0
114.311516 152.0
114.422203 140.0
114.456268 140.0
114.490303 204.0
114.722603 40.0
114.775902 44.0
114.846283 124.0
115.13015 44.0
115.164322 120.0
115.189957 168.0
115.207756 208.0
115.250923 224.0
115.337402 172.0
115.459274 204.0
115.598335 172.0
115.658264 176.0
115.891701 136.0
116.144676 40.0
116.160553 160.0
116.176071 176.0
116.247665 68.0
116.262688 168.0
116.361427 188.0
116.42585 108.0
116.505325 152.0
116.690155 120.0
116.737465 200.0
116.795532 192.0
117.083954 132.0
117.13279 196.0
117.161499 216.0
117.323135 140.0
117.497833 224.0
117.782501 120.0
117.832481 176.0
117.84977 188.0
117.903793 148.0
118.495499 136.0
118.592064 228.0
118.67878 184.0
118.702637 144.0
118.728661 60.0
118.923927 152.0
119.052025 168.0
119.215477 152.0
119.425858 212.0
119.538986 96.0
119.88089 108.0
120.05748 180.0
120.105461 100.0
120.234192 148.0
120.349892 180.0
120.601128 188.0
120.714821 152.0
121.012413 140.0
121.07811 72.0
121.141632 152.0
121.198593 164.0
121.281731 120.0
121.376144 152.0
121.393692 88.0
121.450714 208.0
121.48362 160.0
121.650406 128.0
121.85685 252.0
122.006302 52.0
122.074463 164.0
122.138252 220.0
122.155846 132.0
122.177849 124.0
122.250458 172.0
122.371529 148.0
122.68438 120.0
122.803459 120.0
122.982185 188.0
123.167664 96.0
123.233223 208.0
123.373184 180.0
123.421829 144.0
123.523567 144.0
123.572235 188.0
123.939796 176.0
124.099976 180.0
124.23024 132.0
124.256866 128.0
124.332314 168.0
124.376701 188.0
124.434425 152.0
124.496597 164.0
124.632103 116.0
124.649887 244.0
124.783249 96.0
124.823273 136.0
124.8722 176.0
125.144356 136.0
125.348633 48.0
125.462303 156.0
125.484596 288.0
125.529198 92.0
125.686852 196.0
125.765694 144.0
125.790245 188.0
126.047096 132.0
126.116379 196.0
126.163322 184.0
126.348946 144.0
126.38475 84.0
126.485596 192.0
126.512321 100.0
126.864052 124.0
127.148926 56.0
127.276886 160.0
127.393677 132.0
127.609436 248.0
127.766869 152.0
127.895142 108.0
127.935661 68.0
128.244278 208.0
128.305145 172.0
128.347977 128.0
128.367752 272.0
128.699982 136.0
128.803391 224.0
129.007263 96.0
129.247894 164.0
129.294525 44.0
129.382812 132.0
129.400925 136.0
129.450745 188.0
129.486969 112.0
129.643295 172.0
129.959183 240.0
130.010696 120.0
130.267273 148.0
130.676498 100.0
130.699265 176.0
130.758423 172.0
130.801682 192.0
130.840378 132.0
130.920074 128.0
131.03624 144.0
131.134232 336.0
131.177551 224.0
131.375946 156.0
131.814331 180.0
131.97435 160.0
132.278625 228.0
132.434341 176.0
132.592438 160.0
132.6483 140.0
132.892838 164.0
132.983307 144.0
133.087952 200.0
133.345245 152.0
133.363632 184.0
133.384323 216.0
133.483185 108.0
133.522278 104.0
133.545273 236.0
133.667221 232.0
133.708633 96.0
133.920456 92.0
133.987274 220.0
134.346924 216.0
134.367691 136.0
134.698929 168.0
134.774063 164.0
134.889618 220.0
134.938171 132.0
135.665131 180.0
135.720779 92.0
135.869217 204.0
136.061859 192.0
136.461472 28.0
136.521942 164.0
136.875656 232.0
136.921631 168.0
136.934799 204.0
136.952515 188.0
137.062012 136.0
137.32312 220.0
137.341782 160.0
137.474762 120.0
137.558792 140.0
137.67984 172.0
137.703568 56.0
137.806351 184.0
138.049469 184.0
138.079865 140.0
138.15004 172.0
138.355988 172.0
138.487015 180.0
138.698013 168.0
138.988831 196.0
139.042801 88.0
139.202438 56.0
139.24472 96.0
139.804108 176.0
139.943146 152.0
140.093887 164.0
140.133942 72.0
140.235275 68.0
140.275345 48.0
140.341354 252.0
140.373322 108.0
140.685822 160.0
140.716522 164.0
140.780273 92.0
140.810974 124.0
140.910187 92.0
140.926727 192.0
141.075897 208.0
141.212769 160.0
141.309769 204.0
141.513321 44.0
141.968292 132.0
142.006241 188.0
142.196045 188.0
142.398285 180.0
142.41687 176.0
142.497635 88.0
142.623596 140.0
142.906601 200.0
142.956573 216.0
143.044632 200.0
143.511597 188.0
143.568832 212.0
143.666626 204.0
143.695251 196.0
143.807419 124.0
144.086807 168.0
144.223022 132.0
144.356918 80.0
144.596161 200.0
144.847565 112.0
145.135162 80.0
145.202316 152.0
145.324661 168.0
145.411057 176.0
145.610336 68.0
146.144012 156.0
146.276382 140.0
146.449753 172.0
146.58226 168.0
146.618408 228.0
146.666611 120.0
147.02359 36.0
147.071854 180.0
147.233627 264.0
147.552597 184.0
147.600952 128.0
147.76059 172.0
147.806168 184.0
148.17218 140.0
148.378189 164.0
148.460632 160.0
148.683838 116.0
148.732574 172.0
148.810074 208.0
148.919342 96.0
148.970352 212.0
149.179352 96.0
149.29364 172.0
149.422562 88.0
149.463501 188.0
149.588043 152.0
150.053375 188.0
150.461121 156.0
150.536514 112.0
150.624435 172.0
150.640213 56.0
150.947052 148.0
151.047058 212.0
151.086472 148.0
151.128067 28.0
151.177002 108.0
151.252884 100.0
151.434082 156.0
151.514923 48.0
151.583527 184.0
151.779633 140.0
151.887543 188.0
151.973404 180.0
152.059418 544.0
152.077423 232.0
152.182053 232.0
152.223785 132.0
152.376083 40.0
152.850632 120.0
152.919556 172.0
153.066086 508.0
153.227371 228.0
153.276642 144.0
153.301285 124.0
153.320999 120.0
153.365372 200.0
153.407272 176.0
153.493576 100.0
153.562622 144.0
153.592224 136.0
153.629227 180.0
153.752609 156.0
153.890839 196.0
153.925415 172.0
154.03064 224.0
154.076187 192.0
154.751297 72.0
154.778534 200.0
154.815674 164.0
154.956879 212.0
155.159515 156.0
155.445358 184.0
155.902954 168.0
155.999237 128.0
156.280273 116.0
156.407196 64.0
156.551605 92.0
156.823639 212.0
156.915421 216.0
157.050735 184.0
157.45192 212.0
157.666779 120.0
157.906799 120.0
158.014374 152.0
158.121964 128.0
158.19957 236.0
158.227112 52.0
158.407425 116.0
158.660538 140.0
158.69313 216.0
159.029297 168.0
159.087021 124.0
159.413559 168.0
159.546768 200.0
159.710236 104.0
159.825958 144.0
160.022293 260.0
160.047363 188.0
160.184937 212.0
160.211182 172.0
160.377502 140.0
160.546417 268.0
160.70282 68.0
160.912308 180.0
161.038574 168.0
161.058792 44.0
161.121948 132.0
161.268509 132.0
161.531494 168.0
161.655472 188.0
161.766037 128.0
161.863037 204.0
161.880768 60.0
161.982086 188.0
162.055557 132.0
162.336929 100.0
162.405396 176.0
162.599106 140.0
162.707382 172.0
162.748688 208.0
163.050308 260.0
163.141815 152.0
163.637939 204.0
163.851883 124.0
163.933411 124.0
163.995239 188.0
164.055771 168.0
164.295486 188.0
164.42308 156.0
164.589005 172.0
164.714157 216.0
164.775467 140.0
165.015717 132.0
165.068283 1584.0
165.1129 192.0
165.194748 128.0
165.222885 64.0
165.2715 68.0
165.550522 168.0
165.791336 128.0
165.850296 160.0
165.952835 168.0
166.071426 184.0
166.317139 72.0
166.349091 248.0
166.427536 116.0
166.553375 244.0
166.626297 156.0
166.740936 36.0
166.895187 192.0
167.084381 512.0
167.129257 176.0
167.242493 68.0
167.350616 172.0
167.652008 216.0
167.670044 116.0
167.775726 120.0
168.524216 148.0
168.815979 220.0
168.906845 200.0
168.968933 176.0
169.054184 224.0
169.13237 128.0
169.24588 48.0
169.356033 180.0
169.548965 188.0
169.621536 144.0
169.722656 136.0
169.849731 168.0
169.896439 152.0
170.044342 212.0
170.065109 232.0
170.122208 132.0
170.166351 220.0
170.288406 204.0
170.401291 176.0
170.589828 60.0
170.8759 120.0
171.094528 124.0
171.18306 172.0
171.222122 216.0
171.35498 200.0
171.40448 152.0
171.547836 228.0
171.798187 140.0
171.98085 52.0
172.006958 152.0
172.064392 172.0
172.419647 188.0
172.704636 128.0
172.801437 140.0
172.974167 184.0
173.02652 140.0
173.097214 196.0
173.144363 156.0
173.230789 60.0
173.27533 152.0
173.317261 168.0
173.395874 164.0
173.566269 132.0
173.739304 256.0
173.8181 140.0
173.860092 44.0
174.096359 132.0
174.169907 132.0
174.643051 120.0
174.740387 248.0
174.790375 176.0
174.835602 152.0
175.124725 108.0
175.277527 132.0
175.343414 96.0
175.401398 144.0
175.551697 60.0
175.572144 180.0
175.678299 116.0
176.005569 164.0
176.062515 696.0
176.214249 228.0
176.248596 176.0
176.34108 160.0
176.372803 180.0
176.428314 176.0
176.534088 216.0
176.727188 124.0
177.028961 200.0
177.072296 600.0
177.198486 108.0
177.248825 144.0
177.604095 136.0
177.678375 128.0
177.856171 216.0
177.901306 144.0
178.07637 1384.0
178.201416 48.0
178.783768 204.0
178.847641 116.0
179.086136 476.0
179.193848 72.0
179.372406 40.0
179.519058 148.0
179.692429 192.0
179.719116 132.0
180.085693 304.0
180.608749 164.0
180.798309 184.0
180.865631 36.0
180.970047 72.0
181.031631 116.0
181.065826 416.0
181.095093 172.0
181.184311 196.0
181.227173 136.0
181.315613 68.0
181.465729 176.0
181.615906 68.0
181.720535 72.0
181.814453 184.0
181.838608 116.0
181.956726 124.0
181.994308 144.0
182.120529 208.0
182.185013 180.0
182.389236 172.0
182.446381 204.0
182.737503 152.0
182.932632 184.0
182.951477 164.0
183.110336 176.0
183.129196 224.0
183.150742 180.0
183.18576 56.0
183.724945 116.0
183.787003 156.0
183.881454 120.0
184.040726 116.0
184.097427 116.0
184.146042 48.0
184.200073 104.0
184.329758 264.0
184.621719 108.0
184.775909 88.0
185.043854 224.0
185.065506 244.0
185.130508 88.0
185.219604 160.0
185.347214 180.0
185.661682 192.0
185.800018 68.0
186.046982 136.0
186.101288 128.0
186.563171 148.0
186.611237 100.0
186.704559 224.0
186.799545 152.0
186.922195 124.0
187.028336 168.0
187.051132 192.0
187.129074 104.0
187.180801 172.0
187.360565 148.0
187.668564 116.0
187.71492 164.0
188.05867 208.0
188.211548 132.0
188.337189 160.0
188.421875 180.0
188.502182 184.0
188.536636 92.0
188.572159 100.0
188.769012 96.0
188.85379 136.0
188.913971 104.0
188.944061 124.0
188.99176 120.0
189.028519 232.0
189.069244 11964.0
189.165741 64.0
189.217758 48.0
189.299652 180.0
189.364822 216.0
189.458771 60.0
189.488907 168.0
189.61496 140.0
189.636047 208.0
189.669769 132.0
189.730087 160.0
189.749283 40.0
189.779434 156.0
189.836945 140.0
189.875412 28.0
189.897354 196.0
189.937302 192.0
189.960449 40.0
189.991089 164.0
190.01532 172.0
190.076675 23288.0
190.153854 212.0
190.198074 148.0
190.239182 224.0
190.33371 164.0
190.37561 156.0
190.412674 228.0
190.447922 176.0
190.494263 120.0
190.523239 384.0
190.556198 132.0
190.6147 152.0
190.647003 180.0
190.671616 100.0
190.722336 212.0
190.756821 76.0
190.814743 120.0
190.836548 140.0
190.864059 192.0
190.906586 172.0
190.948914 196.0
190.96785 336.0
190.974091 160.0
190.983154 208.0
191.015778 352.0
191.084839 101300.0
191.154327 364.0
191.186829 108.0
191.214172 60.0
191.257019 104.0
191.289978 148.0
191.328568 116.0
191.35257 184.0
191.377747 192.0
191.420792 88.0
191.455551 136.0
191.498306 112.0
191.53801 172.0
191.605042 92.0
191.626495 64.0
191.678635 52.0
191.701691 140.0
191.731216 52.0
191.801971 208.0
191.867889 172.0
191.908264 88.0
191.936829 116.0
191.964737 68.0
192.030823 244.0
192.054794 152.0
192.087601 17200.0
192.147049 20.0
192.175125 160.0
192.21933 28.0
192.252792 32.0
192.299377 68.0
192.340775 56.0
192.371826 72.0
192.401505 104.0
192.420837 48.0
192.463974 160.0
192.517487 164.0
192.59903 84.0
192.63269 56.0
192.697037 64.0
192.778793 68.0
192.824142 32.0
192.854553 64.0
192.937485 68.0
193.01767 44.0
193.062592 116.0
193.091446 1576.0
193.136581 56.0
193.160797 212.0
193.199127 112.0
193.230652 92.0
193.272079 144.0
193.293961 100.0
193.394348 288.0
193.440979 252.0
193.486923 328.0
193.518494 84.0
193.540649 52.0
193.564285 176.0
193.587067 68.0
193.599335 152.0
193.640289 180.0
193.677658 68.0
193.856445 68.0
193.98671 140.0
194.029602 68.0
194.067795 196.0
194.087402 252.0
194.189133 48.0
194.325058 48.0
194.346466 56.0
194.413864 108.0
194.44162 156.0
194.55542 140.0
194.612747 160.0
194.974854 48.0
194.997101 168.0
195.076447 292.0
195.155548 44.0
195.225845 72.0
195.319641 60.0
195.41423 44.0
195.55336 68.0
195.717621 120.0
195.806732 92.0
196.085342 140.0
196.425522 64.0
196.654327 180.0
197.057953 180.0
197.11235 152.0
197.19899 60.0
197.243713 164.0
197.842361 112.0
198.845886 84.0
199.033981 148.0
199.239014 100.0
199.334549 148.0
199.458221 168.0
199.787231 60.0
199.922302 84.0
200.057877 528.0
200.108078 92.0
200.50528 152.0
200.62648 56.0
200.848801 120.0
201.068771 4380.0
201.120148 60.0
201.348846 92.0
201.668121 84.0
201.755753 120.0
201.800995 36.0
202.072998 1616.0
202.109299 40.0
202.317169 108.0
202.498535 96.0
202.763474 92.0
202.853958 100.0
202.910873 72.0
202.984604 48.0
203.074921 228.0
203.367599 96.0
203.415863 116.0
203.495346 40.0
203.567383 96.0
203.679947 32.0
203.711197 56.0
204.057922 128.0
204.080673 88.0
204.214325 64.0
204.252731 104.0
204.387863 136.0
204.484634 100.0
204.680038 144.0
205.062454 2256.0
205.145477 48.0
205.345078 40.0
205.573318 100.0
205.598999 136.0
205.630402 140.0
205.926834 184.0
206.041611 164.0
206.064285 420.0
206.20163 136.0
206.235931 212.0
206.516144 32.0
206.770782 148.0
207.079422 300.0
207.240433 52.0
207.326401 44.0
207.607346 100.0
207.71347 64.0
207.799545 208.0
207.940155 232.0
208.047775 136.0
208.083649 388.0
208.253113 172.0
208.370895 44.0
208.520325 152.0
208.664062 188.0
209.095825 380.0
209.392105 144.0
209.446823 172.0
209.763809 80.0
209.913727 148.0
210.099136 400.0
210.418686 68.0
210.528412 168.0
210.872223 148.0
211.117966 84.0
211.311783 112.0
211.332031 68.0
211.543304 204.0
212.09079 108.0
212.148773 80.0
212.221252 120.0
213.597855 96.0
213.775345 132.0
214.52681 164.0
214.617203 72.0
214.722183 156.0
214.754257 156.0
215.259171 128.0
215.598038 192.0
215.840683 244.0
216.282455 164.0
216.627991 104.0
216.815521 180.0
217.062576 344.0
217.366852 132.0
217.428482 104.0
217.910065 56.0
217.977646 64.0
218.015854 132.0
218.071259 1700.0
218.127548 156.0
218.29808 212.0
218.330429 88.0
218.368668 80.0
218.5952 220.0
218.627563 144.0
218.673645 152.0
218.701889 176.0
218.733521 168.0
218.852112 72.0
218.939438 120.0
218.945633 112.0
219.010315 108.0
219.0793 34800.0
219.159454 148.0
219.197571 108.0
219.319122 60.0
219.331009 48.0
219.347931 76.0
219.375565 116.0
219.427231 40.0
219.460419 108.0
219.499557 60.0
219.540543 40.0
219.570328 48.0
219.623428 36.0
219.708969 40.0
219.841751 164.0
219.891922 76.0
219.912582 76.0
219.986389 48.0
220.009995 72.0
220.082092 5812.0
220.194977 56.0
220.361465 60.0
220.391006 80.0
220.435333 60.0
220.577194 56.0
220.778259 100.0
220.816711 72.0
220.926147 44.0
221.058014 276.0
221.090363 672.0
221.130325 180.0
221.230972 104.0
221.262146 104.0
221.333038 76.0
221.352371 104.0
221.376053 92.0
221.40863 64.0
221.479721 80.0
221.512299 52.0
221.615753 112.0
221.669342 132.0
221.696014 140.0
221.838287 88.0
221.918335 100.0
221.97467 88.0
222.063644 144.0
222.087372 116.0
222.487976 80.0
222.594879 124.0
222.793884 32.0
223.073227 180.0
223.340851 204.0
224.073196 140.0
224.09404 148.0
224.28775 68.0
224.356323 124.0
226.094788 80.0
227.344513 64.0
228.381058 120.0
228.937851 108.0
229.034241 156.0
229.073257 2028.0
229.19693 40.0
229.739639 36.0
229.881439 60.0
230.074554 272.0
230.107834 48.0
230.279968 124.0
230.55188 124.0
230.724182 72.0
230.823959 60.0
231.047775 160.0
231.081055 148.0
231.592682 56.0
231.825974 96.0
233.066086 252.0
233.252487 52.0
233.298492 212.0
233.48053 84.0
234.090729 164.0
235.079941 132.0
236.084625 124.0
236.109497 348.0
236.143127 72.0
236.390945 108.0
236.476639 188.0
236.556229 100.0
236.609467 184.0
236.66951 100.0
236.877762 176.0
236.957352 180.0
237.089828 18224.0
237.127975 176.0
237.184204 52.0
237.211792 36.0
237.252579 92.0
237.282303 144.0
237.306824 88.0
237.426422 76.0
237.569489 56.0
237.613541 48.0
237.828354 72.0
237.948074 76.0
237.97879 204.0
238.093109 2064.0
238.350449 100.0
238.445724 32.0
238.47554 112.0
238.56868 68.0
238.737793 40.0
238.802383 28.0
238.888504 80.0
239.048508 136.0
239.100235 628.0
239.156219 132.0
239.251648 72.0
239.445648 44.0
239.538055 128.0
239.624313 180.0
239.655121 48.0
239.732162 88.0
239.949844 112.0
240.102112 164.0
240.210068 48.0
240.268692 60.0
240.290283 88.0
240.706985 60.0
240.855225 88.0
241.491974 48.0
245.763626 92.0
246.016434 108.0
246.225647 64.0
247.642487 44.0
248.463791 52.0
250.155762 168.0
251.462708 32.0
253.110901 240.0
256.193848 32.0
256.952637 96.0
257.188782 48.0
259.844971 48.0
287.828674 56.0
288.325256 148.0
291.908661 36.0
293.492065 76.0
296.159729 408.0
296.428406 68.0
296.898071 40.0
297.169128 180.0
308.742981 80.0
311.048492 156.0
311.821228 112.0
312.524567 72.0
314.653442 64.0
320.370514 44.0
320.848083 128.0
326.753998 108.0
327.971222 44.0
328.927124 64.0
333.916595 96.0
339.05722 64.0
342.139099 156.0
353.766968 72.0
354.433655 52.0
355.085968 144.0
356.125641 168.0
357.125458 92.0
358.537354 96.0
360.647186 56.0
366.522125 60.0
366.560242 84.0
369.049042 60.0
374.132721 64.0
388.913086 60.0
391.370178 96.0
396.799103 84.0
401.41156 84.0
413.658234 88.0
413.739197 36.0
417.878998 88.0
421.324158 104.0
427.787445 80.0
439.329224 48.0
451.658905 92.0
451.688507 64.0
453.975677 104.0
462.278625 96.0
466.795868 116.0
467.79837 108.0
471.339355 116.0
480.466187 60.0
481.299835 40.0
500.423981 108.0
502.532227 100.0
504.153168 92.0
508.443604 32.0
511.495544 64.0
515.532288 48.0
520.710693 84.0
525.983398 72.0
544.470642 56.0
546.711487 60.0
549.670654 96.0
550.6651 60.0
550.978027 68.0
551.562195 88.0
559.758728 64.0
560.823425 68.0
567.072083 48.0
567.313782 116.0
596.309143 44.0
597.821655 28.0
602.175354 64.0
607.672852 48.0
628.225159 92.0
649.190308 92.0
653.523376 96.0
687.255127 64.0
703.478149 76.0
703.979797 152.0
717.686584 100.0
750.613892 104.0
764.314026 60.0
806.112549 76.0
808.980225 124.0
813.963989 116.0
823.075012 36.0
839.63147 100.0
871.35791 76.0
874.80426 48.0
907.727905 112.0
930.998413 136.0
937.879761 124.0
971.214417 60.0
1006.191589 132.0
1028.372192 228.0
1038.924316 124.0
1065.524048 116.0
1080.244873 64.0
1083.865601 272.0
1089.297974 160.0
1093.730103 152.0
1095.883667 144.0
1115.480469 124.0
1115.633301 176.0
1121.424683 160.0
1125.554199 100.0
1129.724976 152.0
1129.945679 112.0
1131.726074 228.0
1135.398438 192.0
1151.03833 172.0
1162.648315 140.0
1170.091675 244.0
1177.456299 104.0
1180.196655 140.0
1186.296997 160.0
1191.739502 216.0
1198.985718 164.0
1201.578491 164.0
1205.645752 164.0
1205.866943 192.0
1206.993774 208.0
1229.648682 52.0
1236.309204 180.0
1236.610107 104.0
1240.203369 160.0
1247.243774 140.0
1249.247925 124.0
1252.190308 144.0
1264.298462 200.0
1267.258545 200.0
1268.300293 156.0
1269.044678 196.0
1270.718506 116.0
1273.558228 96.0
1275.633179 212.0
1277.297119 132.0
1278.649048 220.0
1286.946899 208.0
1287.354004 80.0
1296.762085 124.0
1303.486694 48.0
1311.590698 104.0
1319.220947 60.0
1320.038086 160.0
1322.562988 132.0
1326.5979 164.0
1326.91687 188.0
1328.621338 180.0
1329.230713 200.0
1330.922119 132.0
1339.285645 188.0
1343.93689 148.0
1351.806885 152.0
1352.458374 192.0
1352.568115 172.0
1355.138672 120.0
1356.054688 136.0
1360.734985 144.0
1365.202637 104.0
1366.924072 148.0
1367.660034 144.0
1372.824829 200.0
1374.167358 44.0
1374.669189 48.0
1375.488403 48.0
1386.220337 180.0
1386.74646 128.0
1387.072632 112.0
1387.784424 192.0
1391.353149 160.0
1391.486816 48.0
1392.429932 124.0
1393.440186 140.0
1399.248901 108.0
1408.705566 316.0
1412.054321 160.0
1413.303589 164.0
1418.343872 76.0
1419.75354 148.0
1420.233521 204.0
1420.833618 128.0
1422.814941 260.0
1422.980225 200.0
1426.669067 144.0
1428.428833 60.0
1429.421997 68.0
1429.527344 176.0
1430.483276 124.0
1432.501465 148.0
1433.013794 200.0
1433.345337 128.0
1433.985474 176.0
1434.114014 140.0
1435.071411 164.0
1436.579834 192.0
1437.138184 188.0
1438.028687 236.0
1441.495117 172.0
1445.609009 120.0
1452.53418 140.0
1452.814819 168.0
1453.292847 128.0
1454.013794 132.0
1454.87915 140.0
1455.251099 124.0
1464.315918 160.0
1467.608032 128.0
1467.913086 204.0
1472.27832 80.0
1473.874878 248.0
1477.483765 196.0
1479.749268 208.0
1481.250244 136.0
1488.567261 116.0
1489.711792 168.0
1492.34021 120.0
1493.839966 140.0
1493.978394 160.0
1494.06311 188.0
1494.324707 144.0
1495.97168 136.0
1496.603027 176.0
1496.833984 176.0
1500.663574 128.0
1504.428711 76.0
