>compound MLS001195620-01!tolterodine
>formula C22H31NO
>ionization [M+H]+
>parentmass 326.247437
#inchi InChI=1S/C22H31NO/c1-16(2)23(17(3)4)14-13-20(19-9-7-6-8-10-19)21-15-18(5)11-12-22(21)24/h6-12,15-17,20,24H,13-14H2,1-5H3/t20-/m1/s1
#inchikey OOGJQPCLVADCPB
#Ion_Source LC-ESI
#Instrument qTof
#Compound_Source NIH Pharmacologically Active Library
#PI Dorrestein
#Data_Collector VP/LMS
#Scan -1
#Precursor_MZ 326.251
#ExactMass 325.241
#Charge 1
#CAS_Number N/A
#Pubmed_ID N/A
#Smiles CC(C)N(CC[C@H](c1ccccc1)c2cc(C)ccc2O)C(C)C
#INCHI_AUX N/A
#Library_Class 1
#SpectrumID CCMSLIB00000084795
#IonMode Positive
#UpdateWorkflowName UPDATE-SINGLE-ANNOTATED-GOLD
#LibraryQualityString Gold
#TaskID d252d724072548979f1f6f1ced849daf
##Scan# 1793
#SpectrumFile p3-A10_GA10_01_18231.mzXML
#LibraryName Pharm_Active_Library.mgf
#MQScore -1
#Organism Pharm_Active_Library
#TIC_Query 0
#RT_Query -1
#MZErrorPPM -1
#SharedPeaks 0
#MassDiff 0
#LibMZ -1
#SpecMZ 326.251
#SpecCharge 0
#internalFilename spec-00000.mgf

>collision 10
44.893166 92.0
44.931847 156.0
45.039978 128.0
45.1469 416.0
45.162952 232.0
45.18034 136.0
45.227177 164.0
45.264664 160.0
45.302166 176.0
45.312885 64.0
45.379898 132.0
45.507362 220.0
45.548992 148.0
45.635006 184.0
45.78841 196.0
45.853081 56.0
45.867908 164.0
45.929798 156.0
45.942078 176.0
45.958267 120.0
46.033859 108.0
46.043312 96.0
46.056816 164.0
46.082485 68.0
46.166294 124.0
46.198757 244.0
46.281315 172.0
46.321945 132.0
46.405972 256.0
46.424953 152.0
46.43716 204.0
46.488712 184.0
46.519932 148.0
46.725143 208.0
46.73875 180.0
46.87492 108.0
46.932297 172.0
47.033123 120.0
47.166988 180.0
47.321575 176.0
47.554623 160.0
47.564228 168.0
47.60257 160.0
47.637009 132.0
47.661617 180.0
47.679604 300.0
47.691082 184.0
47.870827 172.0
47.924549 228.0
47.986572 212.0
48.007256 164.0
48.029324 56.0
48.107979 92.0
48.123165 152.0
48.264103 68.0
48.279312 140.0
48.304211 200.0
48.41909 116.0
48.459263 128.0
48.56601 180.0
48.677036 152.0
48.708981 132.0
48.718704 136.0
48.7729 136.0
48.857723 116.0
48.896687 188.0
48.906429 128.0
48.931488 48.0
48.941235 132.0
48.989979 252.0
49.013664 208.0
49.028992 132.0
49.065235 136.0
49.123806 152.0
49.203354 172.0
49.287155 120.0
49.399006 204.0
49.421391 96.0
49.54789 228.0
49.571217 48.0
49.651127 144.0
49.948891 136.0
49.960148 80.0
50.031918 216.0
50.074162 216.0
50.08543 172.0
50.100925 120.0
50.151657 144.0
50.244728 224.0
50.298351 252.0
50.317696 188.0
50.336472 244.0
50.366131 152.0
50.438194 236.0
50.456573 224.0
50.486267 168.0
50.518799 168.0
50.6292 160.0
50.670586 148.0
50.764236 196.0
50.778011 144.0
50.806381 168.0
50.827663 172.0
50.85463 216.0
51.03429 172.0
51.141743 204.0
51.241425 132.0
51.48106 136.0
51.491058 156.0
51.513912 192.0
51.52874 168.0
51.628254 120.0
51.688339 116.0
51.75275 64.0
51.762772 172.0
51.791416 92.0
51.83112 160.0
51.903202 80.0
51.9534 176.0
52.000751 180.0
52.026592 196.0
52.038074 108.0
52.082596 168.0
52.144379 260.0
52.214825 168.0
52.272369 76.0
52.337143 156.0
52.437984 184.0
52.46249 116.0
52.497093 180.0
52.566338 128.0
52.600975 112.0
52.686176 136.0
52.806156 200.0
52.920475 204.0
52.96537 64.0
53.007385 132.0
53.017529 124.0
53.039268 108.0
53.13353 144.0
53.153843 140.0
53.182869 216.0
53.195934 128.0
53.210449 116.0
53.240944 212.0
53.269993 100.0
53.309223 148.0
53.36882 144.0
53.378998 132.0
53.390633 132.0
53.454639 44.0
53.483749 140.0
53.523804 144.0
53.539074 196.0
53.662933 136.0
53.786938 208.0
53.817596 116.0
53.953594 192.0
53.973942 112.0
54.031052 172.0
54.058784 168.0
54.131752 208.0
54.309311 180.0
54.35017 188.0
54.384212 164.0
54.407627 148.0
54.436993 176.0
54.467834 216.0
54.510445 208.0
54.766434 204.0
54.869587 248.0
54.884331 60.0
54.927097 80.0
54.940376 108.0
55.009735 52.0
55.071751 168.0
55.089478 120.0
55.259495 124.0
55.386806 224.0
55.422363 156.0
55.440144 168.0
55.456448 160.0
55.517235 192.0
55.569149 32.0
55.683453 132.0
55.772598 164.0
55.799358 128.0
55.849331 192.0
55.903481 168.0
55.921337 156.0
55.933247 140.0
56.009186 200.0
56.044941 120.0
56.076237 172.0
56.113503 136.0
56.168682 152.0
56.205978 220.0
56.283596 128.0
56.33139 104.0
56.359776 144.0
56.486855 40.0
56.549698 140.0
56.573647 188.0
56.593113 52.0
56.663506 148.0
56.684483 176.0
56.720451 176.0
56.754932 196.0
56.769928 184.0
56.886959 204.0
56.922993 140.0
57.15749 124.0
57.520706 52.0
57.641529 156.0
57.679314 140.0
57.763992 144.0
57.819977 192.0
57.836624 176.0
57.853275 164.0
57.916878 208.0
57.968388 144.0
58.033566 164.0
58.069962 232.0
58.343288 224.0
58.442223 156.0
58.484756 192.0
58.55175 132.0
58.60659 124.0
58.661453 156.0
58.73465 116.0
58.780418 140.0
58.878117 140.0
58.94228 148.0
59.075294 92.0
59.093651 112.0
59.191612 152.0
59.223774 156.0
59.334106 64.0
59.438404 168.0
59.598095 196.0
59.751846 244.0
59.807243 56.0
59.88269 228.0
60.061485 132.0
60.19421 132.0
60.228188 180.0
60.285355 248.0
60.311626 212.0
60.498798 84.0
60.695568 188.0
60.707973 156.0
60.787086 180.0
60.842964 192.0
60.878677 108.0
60.894207 152.0
60.982765 48.0
61.024738 140.0
61.136738 152.0
61.172535 128.0
61.188103 208.0
61.200558 148.0
61.213017 128.0
61.255066 168.0
61.314274 112.0
61.342331 112.0
61.368835 96.0
61.385986 184.0
61.404869 184.0
61.447819 172.0
61.520168 148.0
61.538902 148.0
61.595123 80.0
61.613869 160.0
61.62793 180.0
61.698261 236.0
61.757683 176.0
61.931419 216.0
61.975285 164.0
62.058357 200.0
62.10854 44.0
62.16188 124.0
62.329903 116.0
62.364475 252.0
62.388054 152.0
62.524899 120.0
62.573696 128.0
62.589443 136.0
62.661896 104.0
62.70129 140.0
62.739117 180.0
62.764343 208.0
62.808502 40.0
62.934753 60.0
63.022446 208.0
63.156002 184.0
63.220867 184.0
63.277851 184.0
63.3507 172.0
63.601246 160.0
63.644108 188.0
63.707638 60.0
63.806168 100.0
63.819138 208.0
63.939785 180.0
64.016197 80.0
64.035309 204.0
64.129311 152.0
64.194679 168.0
64.240929 124.0
64.304756 212.0
64.322319 180.0
64.426117 44.0
64.466057 152.0
64.477242 104.0
64.558723 116.0
64.766838 168.0
64.907867 136.0
64.952774 172.0
65.023376 136.0
65.071533 92.0
65.142189 160.0
65.185509 212.0
65.219322 120.0
65.351189 120.0
65.397858 192.0
65.409126 88.0
65.434883 116.0
65.452599 120.0
65.526688 152.0
65.565361 140.0
65.603951 208.0
65.629486 256.0
65.704033 168.0
65.802475 144.0
65.817047 156.0
65.845886 200.0
65.933319 176.0
65.951096 164.0
65.96241 200.0
66.027084 124.0
66.093414 96.0
66.307167 104.0
66.396339 132.0
66.56366 148.0
66.599213 136.0
66.652824 180.0
66.732468 140.0
66.763496 204.0
66.89679 88.0
66.922836 168.0
67.023819 148.0
67.082497 184.0
67.136299 188.0
67.237442 184.0
67.250336 200.0
67.2603 256.0
67.304375 164.0
67.322334 120.0
67.346832 172.0
67.395844 148.0
67.464485 144.0
67.516808 144.0
67.544617 164.0
67.569153 80.0
67.714844 376.0
67.850845 188.0
67.885277 96.0
67.909882 52.0
68.00016 156.0
68.037872 112.0
68.05265 252.0
68.111771 156.0
68.161057 212.0
68.174202 136.0
68.399529 164.0
68.443977 236.0
68.597313 168.0
68.692841 176.0
68.768738 76.0
68.800186 164.0
68.836426 104.0
68.879372 40.0
68.89093 152.0
68.948761 160.0
68.970963 260.0
68.993393 156.0
69.034729 164.0
69.049614 212.0
69.099236 180.0
69.327744 148.0
69.375809 160.0
69.395706 152.0
69.423889 164.0
69.453743 164.0
69.481949 32.0
69.554962 136.0
69.573219 108.0
69.716064 140.0
69.785881 140.0
69.863388 196.0
69.908974 144.0
69.9356 180.0
70.093811 132.0
70.248863 216.0
70.302254 176.0
70.318947 212.0
70.404091 192.0
70.437492 152.0
70.449188 224.0
70.470909 188.0
70.484276 116.0
70.522713 172.0
70.559486 140.0
70.580276 192.0
70.779648 164.0
70.791061 160.0
70.870796 100.0
70.946213 184.0
70.96801 108.0
71.033417 152.0
71.118988 172.0
71.199577 60.0
71.303741 124.0
71.344078 168.0
71.503876 136.0
71.70092 132.0
71.738007 132.0
71.967453 116.0
72.016426 160.0
72.062035 124.0
72.107658 188.0
72.149918 168.0
72.293686 152.0
72.332619 48.0
72.347443 148.0
72.424858 164.0
72.463013 212.0
72.544365 208.0
72.573181 176.0
72.588448 56.0
72.600311 148.0
72.627449 144.0
72.836227 100.0
72.858315 84.0
72.870209 212.0
72.885498 164.0
72.91494 160.0
73.094643 168.0
73.137192 152.0
73.181458 148.0
73.280243 112.0
73.292168 204.0
73.378838 160.0
73.443039 216.0
73.486542 180.0
73.626511 156.0
73.846985 164.0
73.898308 124.0
73.929863 216.0
73.973602 44.0
74.069496 124.0
74.20488 312.0
74.290627 208.0
74.410759 152.0
74.422783 132.0
74.627243 92.0
74.776901 104.0
74.831985 160.0
74.855927 124.0
74.883652 44.0
74.997368 72.0
75.119789 60.0
75.192261 152.0
75.225052 168.0
75.330391 204.0
75.517075 136.0
75.558586 248.0
75.65377 156.0
75.85125 48.0
75.887657 184.0
75.943146 172.0
76.017395 156.0
76.05072 144.0
76.066345 220.0
76.134056 144.0
76.29454 188.0
76.480042 156.0
76.622276 212.0
76.807617 84.0
76.847702 176.0
76.917549 116.0
77.001358 164.0
77.054688 180.0
77.083466 44.0
77.162117 72.0
77.182747 220.0
77.205833 232.0
77.254013 212.0
77.27755 148.0
77.293297 120.0
77.356346 164.0
77.421089 172.0
77.443855 156.0
77.501663 88.0
77.52269 72.0
77.594559 124.0
77.726105 84.0
77.751549 164.0
77.769974 164.0
77.805084 84.0
77.827911 164.0
77.892891 164.0
78.033478 152.0
78.075676 160.0
78.100304 164.0
78.175957 140.0
78.218193 124.0
78.258682 140.0
78.339699 252.0
78.358803 180.0
78.475403 192.0
78.711655 192.0
78.890282 116.0
78.922905 172.0
79.169838 164.0
79.196404 176.0
79.210999 152.0
79.222656 200.0
79.284988 120.0
79.315125 176.0
79.394905 180.0
79.485374 180.0
79.527702 184.0
79.532341 156.0
79.714447 216.0
79.778473 172.0
79.792648 120.0
79.842438 76.0
79.869118 220.0
79.885124 156.0
79.970535 124.0
80.180695 184.0
80.232391 176.0
80.257347 76.0
80.362579 80.0
80.378639 232.0
80.403625 204.0
80.433968 224.0
80.524643 148.0
80.737701 192.0
80.802094 184.0
80.868309 128.0
80.94796 132.0
81.058136 200.0
81.085014 124.0
81.195435 184.0
81.233841 124.0
81.388184 60.0
81.5065 152.0
81.524704 128.0
81.578232 184.0
81.658066 144.0
81.675728 136.0
81.799881 104.0
82.07386 160.0
82.107986 128.0
82.162102 184.0
82.181946 188.0
82.207207 116.0
82.438354 208.0
82.482315 124.0
82.521507 48.0
82.537781 220.0
82.666206 164.0
82.724129 160.0
82.765762 204.0
82.805603 76.0
82.850891 140.0
82.901627 128.0
83.012199 232.0
83.09745 168.0
83.113785 148.0
83.137375 172.0
83.154434 156.0
83.29715 160.0
83.360733 352.0
83.417076 196.0
83.466164 144.0
83.520721 140.0
83.597137 200.0
83.647346 232.0
83.742783 204.0
83.88308 128.0
83.906784 100.0
83.925011 72.0
84.005257 124.0
84.048462 112.0
84.11174 124.0
84.145782 180.0
84.260239 268.0
84.374153 236.0
84.426849 200.0
84.447296 136.0
84.509491 192.0
84.584526 144.0
84.815315 208.0
84.839149 60.0
84.853813 180.0
85.121696 148.0
85.2117 144.0
85.241096 136.0
85.51696 140.0
85.605324 164.0
85.675316 140.0
85.796944 80.0
85.888535 192.0
85.974014 112.0
86.110634 172.0
86.138344 40.0
86.19931 180.0
86.235153 152.0
86.321312 120.0
86.39344 208.0
86.460739 140.0
86.600761 64.0
86.741585 112.0
86.781273 224.0
86.884369 124.0
87.005005 132.0
87.272537 212.0
87.311592 160.0
87.456711 132.0
87.52639 204.0
87.609398 60.0
87.634842 128.0
87.702568 168.0
87.82563 100.0
87.842422 132.0
87.909584 68.0
87.969315 64.0
88.002914 156.0
88.030922 104.0
88.049599 68.0
88.064545 108.0
88.176643 152.0
88.200935 172.0
88.221504 164.0
88.240196 160.0
88.333702 148.0
88.371117 196.0
88.49839 172.0
88.625755 140.0
88.648239 212.0
88.726967 132.0
88.815102 40.0
88.893898 188.0
88.916847 132.0
88.968971 128.0
89.154922 44.0
89.200027 152.0
89.320374 168.0
89.385551 180.0
89.418213 108.0
89.489746 168.0
89.516106 116.0
89.536819 212.0
89.60463 148.0
89.62159 120.0
89.674355 184.0
89.702629 136.0
89.768616 236.0
89.89312 148.0
89.925201 144.0
89.970505 168.0
89.991272 164.0
90.049812 132.0
90.076256 168.0
90.11026 136.0
90.134819 124.0
90.173965 232.0
90.189629 100.0
90.272812 144.0
90.306618 160.0
90.32766 212.0
90.390091 192.0
90.403656 180.0
90.497986 64.0
90.545998 124.0
90.795235 120.0
90.848595 192.0
90.930183 232.0
91.054932 3452.0
91.085876 120.0
91.112473 44.0
91.173279 64.0
91.195656 160.0
91.209854 164.0
91.271057 228.0
91.27816 276.0
91.310753 128.0
91.344398 184.0
91.369125 64.0
91.456657 136.0
91.506157 224.0
91.532814 132.0
91.548042 128.0
91.62001 128.0
91.652809 44.0
91.66996 140.0
91.736671 128.0
91.770988 240.0
91.847267 48.0
91.932625 184.0
91.94648 212.0
91.978928 76.0
92.05928 136.0
92.141251 56.0
92.320923 148.0
92.359169 52.0
92.405083 136.0
92.481628 184.0
92.640556 56.0
92.665466 204.0
92.734451 164.0
92.903191 84.0
92.943481 44.0
93.020248 152.0
93.070114 1080.0
93.218704 72.0
93.275726 232.0
93.300713 196.0
93.34494 44.0
93.510384 164.0
93.539253 92.0
93.602783 192.0
93.781952 148.0
93.795441 180.0
93.859062 212.0
93.936203 116.0
93.959358 212.0
94.042336 196.0
94.07708 156.0
94.10202 196.0
94.129204 44.0
94.19873 120.0
94.277946 136.0
94.330132 160.0
94.378464 104.0
94.492584 192.0
94.57579 256.0
94.750069 176.0
94.82177 200.0
95.016541 164.0
95.04866 156.0
95.083588 188.0
95.130173 216.0
95.344696 152.0
95.387321 116.0
95.512978 80.0
95.662811 136.0
95.680328 128.0
95.760162 160.0
95.879005 160.0
95.958931 148.0
95.999878 196.0
96.11618 180.0
96.159851 220.0
96.319954 124.0
96.339485 72.0
96.384422 164.0
96.454781 120.0
96.56427 64.0
96.853951 212.0
96.881371 152.0
96.951912 188.0
97.007263 148.0
97.061684 156.0
97.14994 164.0
97.255905 64.0
97.322647 160.0
97.381561 212.0
97.416916 84.0
97.458176 144.0
97.680328 200.0
97.782646 52.0
97.894859 212.0
97.932274 228.0
97.961823 192.0
98.038666 136.0
98.062309 172.0
98.097794 176.0
98.233856 136.0
98.334488 104.0
98.419373 128.0
98.462814 100.0
98.510216 228.0
98.541824 136.0
98.559608 192.0
98.583321 104.0
98.658394 208.0
98.717743 152.0
98.769165 188.0
98.790924 164.0
98.818626 140.0
98.949249 208.0
98.978943 164.0
99.089867 132.0
99.224632 36.0
99.315849 220.0
99.512306 132.0
99.621536 176.0
99.643394 132.0
99.718155 256.0
99.850121 184.0
99.907799 148.0
100.061043 144.0
100.096878 88.0
100.154633 192.0
100.20842 192.0
100.460907 96.0
100.495529 152.0
100.847702 168.0
100.928955 224.0
100.968948 104.0
101.088982 76.0
101.263145 276.0
101.291191 172.0
101.347282 148.0
101.617958 96.0
101.63401 140.0
101.656082 208.0
101.899033 128.0
101.983437 136.0
102.019615 52.0
102.036636 224.0
102.075493 196.0
102.128494 568.0
102.204643 180.0
102.220741 80.0
102.244896 48.0
102.271057 44.0
102.315346 164.0
102.443512 180.0
102.558228 228.0
102.720398 240.0
102.791008 224.0
102.807152 148.0
102.906059 136.0
103.027237 132.0
103.052856 196.0
103.132309 48.0
103.220589 180.0
103.372978 144.0
103.476204 160.0
103.498474 64.0
103.585556 196.0
103.666603 272.0
103.802414 188.0
103.942383 188.0
103.980934 52.0
104.029655 196.0
104.061501 680.0
104.088531 32.0
104.125084 140.0
104.161644 92.0
104.344536 144.0
104.434013 224.0
104.456383 96.0
104.523521 140.0
104.537766 92.0
104.714882 188.0
104.871765 64.0
104.914574 104.0
104.990013 192.0
105.070976 1116.0
105.124649 140.0
105.181801 56.0
105.230789 140.0
105.291855 164.0
105.322685 64.0
105.398277 104.0
105.514359 248.0
105.674301 156.0
105.708305 188.0
105.785789 176.0
105.917915 212.0
106.028549 248.0
106.072311 172.0
106.126945 148.0
106.17411 200.0
106.215126 56.0
106.27462 144.0
106.288986 172.0
106.319763 128.0
106.3526 124.0
106.416245 92.0
106.465523 36.0
106.545631 76.0
106.79641 68.0
106.936317 124.0
107.049957 1220.0
107.085487 204.0
107.150635 260.0
107.348343 124.0
107.484489 204.0
107.513382 172.0
107.527824 156.0
107.569107 64.0
107.626915 76.0
107.668213 40.0
107.682671 132.0
107.746704 124.0
107.815834 156.0
107.841759 56.0
107.883095 164.0
107.947189 192.0
107.974854 200.0
108.172707 32.0
108.280373 160.0
108.402603 224.0
108.641037 136.0
108.72403 176.0
108.771767 136.0
108.867271 56.0
109.027237 148.0
109.065781 396.0
109.191475 116.0
109.328773 196.0
109.364159 48.0
109.434937 180.0
109.491158 184.0
109.622398 244.0
109.70369 116.0
109.726616 172.0
109.868431 148.0
109.889297 156.0
109.951897 152.0
110.012428 144.0
110.237999 52.0
110.355049 216.0
110.419876 88.0
110.697823 152.0
110.721245 116.0
110.903519 208.0
111.027214 192.0
111.211838 152.0
111.251724 180.0
111.274818 168.0
111.321007 28.0
111.392418 192.0
111.589958 172.0
111.789787 148.0
111.960297 124.0
112.050873 92.0
112.06562 172.0
112.088799 200.0
112.116196 128.0
112.212288 68.0
112.275909 184.0
112.421974 180.0
112.476852 168.0
112.531738 196.0
112.588753 112.0
112.660072 188.0
112.779778 96.0
112.876144 124.0
113.142731 164.0
113.168137 108.0
113.244377 172.0
113.316399 172.0
113.333542 200.0
113.430832 32.0
113.528358 60.0
113.587746 208.0
113.628052 236.0
113.743042 172.0
113.812706 132.0
113.859421 208.0
113.900551 220.0
113.931641 152.0
114.016632 160.0
114.063393 132.0
114.091026 80.0
114.129593 396.0
114.163315 144.0
114.26754 196.0
114.367561 152.0
114.480392 168.0
114.70623 124.0
114.772324 264.0
114.791512 196.0
114.846962 216.0
115.000587 136.0
115.054916 8128.0
115.134087 164.0
115.184212 88.0
115.220528 28.0
115.291039 216.0
115.331642 184.0
115.364563 100.0
115.427849 224.0
115.611816 232.0
115.933044 84.0
116.059464 1144.0
116.134567 172.0
116.151726 236.0
116.209648 144.0
116.233253 148.0
116.289558 140.0
116.39209 228.0
116.557487 196.0
116.785362 128.0
116.902039 208.0
116.929512 56.0
116.968254 148.0
117.012672 184.0
117.034996 236.0
117.070755 13524.0
117.140526 52.0
117.161034 156.0
117.201111 68.0
117.250404 48.0
117.302139 44.0
117.325851 40.0
117.362503 100.0
117.390533 164.0
117.593323 132.0
117.630013 240.0
117.649445 128.0
117.740128 48.0
117.79023 184.0
117.839493 56.0
117.854614 112.0
117.906479 44.0
118.025787 188.0
118.042671 188.0
118.073494 1048.0
118.114037 232.0
118.129181 76.0
118.19841 124.0
118.319618 180.0
118.345596 52.0
118.396873 188.0
118.490707 96.0
118.529144 200.0
118.551376 224.0
118.592552 132.0
118.612061 212.0
118.640244 180.0
118.670593 212.0
118.755165 152.0
118.785538 212.0
118.822411 180.0
118.854614 192.0
118.87883 104.0
118.914825 108.0
118.96347 152.0
119.009064 172.0
119.047768 196.0
119.051498 140.0
119.086403 22596.0
119.150238 68.0
119.213249 144.0
119.228073 68.0
119.28714 72.0
119.313232 48.0
119.34584 184.0
119.435005 40.0
119.465462 84.0
119.572075 140.0
119.683098 104.0
119.759315 176.0
119.778915 176.0
119.83992 48.0
119.859528 112.0
119.887856 68.0
119.955421 72.0
120.0588 164.0
120.08889 1148.0
120.160416 100.0
120.219322 152.0
120.345924 204.0
120.411438 160.0
120.470413 76.0
120.631439 232.0
120.772064 152.0
120.826752 84.0
120.849113 36.0
120.890205 148.0
120.923027 204.0
120.941513 160.0
120.986511 204.0
121.00621 116.0
121.022537 308.0
121.065826 42864.0
121.147659 136.0
121.165756 116.0
121.214294 152.0
121.239494 64.0
121.30101 148.0
121.343613 108.0
121.358955 140.0
121.402809 140.0
121.421043 64.0
121.435066 68.0
121.459831 84.0
121.56295 36.0
121.611229 176.0
121.679283 128.0
121.711609 188.0
121.756134 136.0
121.824219 56.0
121.859375 196.0
121.887093 104.0
121.912109 32.0
121.962654 60.0
122.026405 108.0
122.068542 2312.0
122.118767 168.0
122.156158 104.0
122.178154 56.0
122.21048 116.0
122.259567 140.0
122.295624 156.0
122.308868 100.0
122.348503 108.0
122.473122 184.0
122.5326 48.0
122.603111 64.0
122.682465 72.0
122.722694 96.0
122.813271 124.0
122.947144 112.0
122.982452 116.0
123.075745 532.0
123.108292 172.0
123.132584 108.0
123.185593 160.0
123.226547 104.0
123.288589 180.0
123.364586 72.0
123.486198 120.0
123.573494 104.0
123.680908 112.0
123.997627 224.0
124.07299 28.0
124.097382 76.0
124.135078 104.0
124.201607 232.0
124.274818 156.0
124.292564 212.0
124.430176 188.0
124.643402 132.0
124.698952 180.0
125.030327 224.0
125.239609 208.0
125.279709 188.0
125.295303 76.0
125.32872 108.0
125.3666 148.0
125.400032 136.0
125.433685 200.0
125.513725 144.0
125.529335 68.0
125.567245 140.0
125.660934 108.0
126.096367 100.0
126.147774 228.0
126.170128 188.0
126.226028 104.0
126.54599 164.0
126.58989 192.0
126.673637 220.0
126.725166 188.0
126.794632 156.0
127.214066 180.0
127.306122 212.0
127.411682 212.0
127.510551 200.0
127.528534 100.0
127.56588 204.0
127.66922 208.0
127.737648 88.0
127.829887 144.0
127.892906 120.0
128.034744 128.0
128.062668 784.0
128.129349 84.0
128.237503 112.0
128.334442 184.0
128.35022 224.0
128.384048 272.0
128.399841 72.0
128.456223 136.0
128.634491 124.0
128.704468 168.0
128.835464 64.0
128.939407 80.0
129.045654 148.0
129.071198 3024.0
129.12706 188.0
129.147415 56.0
129.197174 36.0
129.337463 92.0
129.493698 172.0
129.520874 216.0
129.650024 132.0
129.718018 164.0
129.738419 40.0
129.906219 212.0
129.958405 124.0
129.983368 160.0
130.074478 380.0
130.099548 148.0
130.135437 120.0
130.201294 176.0
130.261047 156.0
130.294418 140.0
130.414856 220.0
130.47168 140.0
130.660446 212.0
130.694565 232.0
130.782211 148.0
130.799255 116.0
130.857285 140.0
130.910812 32.0
130.979141 152.0
130.995087 164.0
131.049637 808.0
131.086105 1160.0
131.104767 196.0
131.356094 248.0
131.394028 112.0
131.46933 192.0
131.558334 196.0
131.706757 168.0
131.759308 144.0
131.928421 108.0
132.058334 4644.0
132.09407 264.0
132.171173 152.0
132.193726 52.0
132.257812 180.0
132.34938 124.0
132.459305 76.0
132.491379 116.0
132.580734 68.0
132.605942 152.0
132.732025 104.0
132.936188 184.0
133.062759 524.0
133.1017 612.0
133.160538 132.0
133.200211 92.0
133.297134 128.0
133.321991 204.0
133.354156 124.0
133.462204 196.0
133.535797 136.0
133.742859 132.0
133.802719 164.0
133.867188 132.0
133.910934 164.0
133.938583 156.0
133.959305 192.0
134.033035 112.0
134.056076 164.0
134.074509 232.0
134.100098 312.0
134.228958 212.0
134.269989 212.0
134.360428 72.0
134.554291 196.0
134.616623 184.0
134.690536 112.0
134.787567 184.0
134.82222 96.0
134.937805 148.0
135.002548 192.0
135.081146 428.0
135.118958 136.0
135.189926 120.0
135.481659 124.0
135.5952 188.0
135.674011 184.0
135.945374 84.0
136.083023 276.0
136.172882 212.0
136.230957 216.0
136.254181 100.0
137.387939 156.0
137.513947 196.0
137.587921 208.0
137.625992 180.0
138.200974 120.0
138.327347 156.0
138.381195 60.0
138.409286 160.0
138.554504 144.0
138.657593 152.0
138.751358 160.0
138.812317 164.0
138.889709 164.0
138.971817 112.0
139.023438 128.0
139.070374 140.0
139.124359 104.0
139.168976 208.0
139.298141 224.0
139.650711 48.0
139.709518 300.0
139.959 132.0
140.003738 136.0
140.142715 252.0
140.16156 168.0
140.383133 144.0
140.593094 120.0
140.653366 208.0
140.70639 104.0
140.810287 96.0
141.020554 160.0
141.069489 3800.0
141.164764 96.0
141.193146 156.0
141.443939 184.0
141.562317 168.0
141.616791 176.0
141.785004 112.0
141.884552 124.0
141.922485 160.0
142.029205 128.0
142.074219 760.0
142.159729 224.0
142.188171 72.0
142.266495 176.0
142.31398 188.0
142.370972 140.0
142.51825 160.0
142.582397 140.0
142.722656 128.0
142.996216 136.0
143.060486 116.0
143.086563 368.0
143.248611 48.0
143.27243 168.0
143.312927 156.0
143.424942 128.0
143.494064 184.0
143.522675 48.0
143.541763 192.0
143.601318 164.0
143.651459 180.0
143.73735 52.0
144.002335 48.0
144.090729 208.0
144.181519 136.0
144.236496 68.0
144.585693 112.0
144.638336 140.0
144.67424 132.0
144.793961 168.0
144.820312 72.0
145.065155 488.0
145.103607 200.0
145.256546 144.0
145.278137 28.0
145.32132 148.0
145.534943 144.0
145.777405 140.0
145.931381 264.0
146.017944 44.0
146.075943 176.0
146.156403 72.0
146.333176 76.0
146.407822 176.0
146.455978 160.0
146.525391 152.0
146.531509 124.0
146.561981 200.0
146.583664 156.0
146.711411 88.0
146.839203 72.0
146.939484 168.0
146.986359 196.0
147.047852 316.0
147.081573 44760.0
147.142181 100.0
147.176575 204.0
147.210846 92.0
147.256195 72.0
147.278931 104.0
147.346878 76.0
147.374573 128.0
147.40834 232.0
147.448334 104.0
147.541855 48.0
147.563614 76.0
147.62648 148.0
147.648254 60.0
147.691788 64.0
147.711639 212.0
147.735321 60.0
147.752258 80.0
147.776459 124.0
147.793396 56.0
147.836945 112.0
147.904709 64.0
147.936188 152.0
147.960312 120.0
148.023346 232.0
148.083771 5264.0
148.183884 144.0
148.270432 140.0
148.316483 48.0
148.48378 140.0
148.529861 88.0
148.599365 196.0
148.62204 132.0
148.665726 72.0
148.755524 80.0
148.772522 44.0
148.811356 128.0
148.833206 40.0
148.864777 136.0
148.881775 176.0
148.910919 40.0
148.994324 48.0
149.015381 96.0
149.089752 484.0
149.132019 168.0
149.207367 48.0
149.236542 136.0
149.253265 128.0
149.303818 180.0
149.479782 188.0
149.655029 60.0
149.786545 72.0
149.85231 124.0
149.947357 184.0
149.976593 68.0
149.998535 128.0
150.032669 108.0
150.049728 172.0
150.186279 192.0
150.247269 120.0
150.286301 140.0
150.371719 28.0
150.391235 300.0
150.703812 84.0
150.740463 216.0
150.948242 88.0
150.987366 68.0
151.056992 300.0
151.121902 72.0
151.219788 176.0
151.459732 128.0
151.50383 80.0
151.668015 188.0
151.977005 140.0
152.062607 736.0
152.138992 32.0
152.217545 52.0
152.281403 44.0
152.346039 164.0
152.566437 220.0
152.615601 144.0
152.726273 168.0
152.925568 80.0
153.069458 2384.0
153.134842 132.0
153.275253 296.0
153.689499 164.0
153.728973 112.0
153.805481 164.0
153.882019 184.0
153.946213 120.0
154.042542 132.0
154.077988 5048.0
154.130859 32.0
154.178421 88.0
154.195724 44.0
154.250107 120.0
154.297073 160.0
154.348999 56.0
154.371246 176.0
154.438019 52.0
154.48996 128.0
154.50975 28.0
154.618637 76.0
154.653275 104.0
154.905838 204.0
155.022293 232.0
155.084183 1768.0
155.235474 76.0
155.340683 76.0
155.508362 128.0
155.617584 56.0
155.657318 88.0
155.744232 88.0
155.801376 180.0
155.914978 200.0
155.947983 48.0
156.067932 156.0
156.091232 172.0
156.146881 124.0
156.176727 112.0
156.311066 136.0
156.353363 188.0
156.622253 132.0
156.706955 180.0
156.834045 188.0
157.033508 164.0
157.060944 280.0
157.088379 144.0
157.207733 72.0
157.248077 52.0
157.327942 168.0
157.385376 44.0
157.472778 200.0
157.670135 164.0
157.842621 104.0
157.912643 152.0
158.075256 356.0
158.107788 148.0
158.365662 80.0
158.405731 140.0
158.567917 180.0
159.080521 176.0
159.116547 252.0
159.146194 172.0
159.268616 112.0
159.477158 156.0
159.587006 212.0
159.884247 132.0
160.11348 160.0
160.272369 108.0
160.395859 80.0
160.521927 48.0
160.673248 216.0
160.718674 32.0
160.741379 88.0
160.950882 184.0
160.998856 72.0
161.079681 92.0
161.107559 380.0
161.317215 180.0
161.522034 124.0
161.901672 176.0
161.932068 144.0
161.970062 124.0
161.997925 44.0
162.130539 344.0
162.238663 140.0
162.294434 248.0
162.487198 132.0
162.65976 96.0
162.82225 164.0
163.058517 204.0
163.112854 916.0
163.236481 216.0
163.386536 140.0
163.579941 28.0
163.691956 176.0
163.763275 76.0
164.060684 276.0
164.108002 156.0
164.193985 52.0
164.415939 236.0
164.444016 196.0
164.896072 64.0
164.939514 132.0
165.040588 180.0
165.07103 892.0
165.133835 164.0
165.172195 88.0
165.343628 56.0
165.407608 52.0
165.502335 148.0
165.666245 176.0
165.968658 172.0
166.04303 144.0
166.07431 544.0
166.356064 40.0
166.374023 188.0
166.534592 196.0
166.56662 152.0
166.715637 248.0
166.777313 88.0
166.995865 124.0
167.037018 184.0
167.084183 1696.0
167.211975 188.0
167.314941 84.0
167.42308 80.0
167.526108 184.0
167.672974 176.0
167.786392 92.0
167.948853 124.0
168.056396 508.0
168.088852 372.0
168.137192 196.0
168.28949 100.0
168.532272 84.0
168.552948 68.0
168.591705 60.0
168.658127 216.0
168.741623 148.0
168.870911 108.0
169.067108 160.0
169.101501 7268.0
169.146561 112.0
169.171066 168.0
169.217667 52.0
169.2565 88.0
169.292755 192.0
169.384384 168.0
169.406723 112.0
169.435211 64.0
169.471481 48.0
169.519211 84.0
169.897217 168.0
169.943359 172.0
170.080902 184.0
170.10321 676.0
170.184753 136.0
170.241867 132.0
170.717422 132.0
170.941132 108.0
170.990585 124.0
171.088562 236.0
171.108276 184.0
171.136353 80.0
171.19104 180.0
171.258743 92.0
171.287292 188.0
171.316055 180.0
171.347321 140.0
171.389008 84.0
171.501068 76.0
172.038406 136.0
172.102493 204.0
172.140228 36.0
172.252533 164.0
172.30217 124.0
172.388397 152.0
172.681183 64.0
172.728271 176.0
172.762268 60.0
172.869553 120.0
173.026596 176.0
173.094666 160.0
173.225616 92.0
173.68335 172.0
174.059616 192.0
174.133148 140.0
174.159409 144.0
174.703537 212.0
175.132584 164.0
175.1642 128.0
175.187912 136.0
175.332825 152.0
175.496262 108.0
175.591187 204.0
175.841827 184.0
175.873489 136.0
176.105835 160.0
176.141434 520.0
176.311905 132.0
176.681824 164.0
176.692307 148.0
176.827621 156.0
176.982437 172.0
177.010284 104.0
177.067352 196.0
177.132111 76.0
177.161255 84.0
177.238083 164.0
177.325531 164.0
177.741867 156.0
177.890503 212.0
178.077454 3340.0
178.121521 124.0
178.273422 204.0
178.395218 52.0
178.419144 144.0
178.541458 96.0
178.587982 180.0
178.621246 152.0
178.722336 72.0
178.807495 156.0
178.889999 160.0
178.948563 128.0
179.031113 124.0
179.053909 372.0
179.08606 12704.0
179.166946 68.0
179.191833 224.0
179.280045 172.0
179.310837 104.0
179.408447 84.0
179.478775 244.0
179.553452 40.0
179.633469 72.0
179.660141 72.0
179.797546 64.0
179.846924 44.0
179.881622 140.0
180.009781 52.0
180.036484 88.0
180.088303 1780.0
180.195892 84.0
180.231476 48.0
180.255524 96.0
180.338379 136.0
180.413223 140.0
180.434601 52.0
180.538879 116.0
180.720779 68.0
180.900085 40.0
180.924179 104.0
180.983078 152.0
181.065872 5712.0
181.130966 196.0
181.339355 72.0
181.401733 296.0
181.442276 184.0
181.470718 136.0
181.56189 132.0
181.714783 92.0
181.807114 164.0
181.924103 188.0
181.949127 148.0
181.999283 200.0
182.07338 24368.0
182.113266 132.0
182.14595 92.0
182.201462 144.0
182.249069 44.0
182.418381 52.0
182.480209 76.0
182.512482 68.0
182.535248 128.0
182.579697 48.0
182.677429 60.0
182.765305 52.0
182.800293 36.0
182.875641 124.0
182.899872 36.0
183.076279 4164.0
183.2742 44.0
183.33078 60.0
183.352341 40.0
183.373901 88.0
183.435898 100.0
183.46286 68.0
183.568008 80.0
183.708252 36.0
183.732529 36.0
183.818878 116.0
183.851883 104.0
183.983505 64.0
184.047623 152.0
184.080154 424.0
184.212234 160.0
184.30069 100.0
184.358948 120.0
184.394073 104.0
184.440033 80.0
184.513016 136.0
184.588715 100.0
184.642075 148.0
184.748291 88.0
184.813217 56.0
184.864639 136.0
184.913345 48.0
185.032455 152.0
185.4198 124.0
185.739731 80.0
186.038223 100.0
186.089798 172.0
186.269043 132.0
186.383133 164.0
186.402161 88.0
186.519028 76.0
186.842621 152.0
187.092987 140.0
187.114777 144.0
187.218246 100.0
187.569702 64.0
187.651489 44.0
187.95697 72.0
188.221725 56.0
188.309113 180.0
188.420181 152.0
188.459366 144.0
188.505814 156.0
188.847549 188.0
189.073853 144.0
189.12941 448.0
189.180801 136.0
189.383987 124.0
190.028198 128.0
190.126236 164.0
190.324615 60.0
190.857666 44.0
191.036423 116.0
191.087845 324.0
191.113464 124.0
191.270325 156.0
191.30336 80.0
191.341904 36.0
191.369431 88.0
191.595261 168.0
191.959076 32.0
192.02803 164.0
192.055603 40.0
192.091583 532.0
192.199051 72.0
192.29689 132.0
192.44194 156.0
192.546875 152.0
192.665649 52.0
192.91713 144.0
193.0056 32.0
193.093887 356.0
193.141098 136.0
193.492538 184.0
193.545609 216.0
194.110413 152.0
194.190826 40.0
194.218567 164.0
194.257401 64.0
194.448853 64.0
194.648727 36.0
194.670944 76.0
194.959854 120.0
195.080154 3800.0
195.113892 180.0
195.288986 176.0
195.388046 64.0
195.602325 216.0
195.627365 212.0
195.82785 60.0
195.905838 120.0
195.942062 60.0
196.057419 208.0
196.087036 528.0
196.173355 40.0
196.393646 160.0
196.421539 196.0
196.477325 192.0
196.629135 168.0
196.672653 128.0
196.696045 116.0
196.751541 232.0
196.787109 216.0
196.817184 172.0
196.856918 168.0
196.88205 52.0
196.92659 152.0
196.953796 192.0
196.964828 132.0
196.997055 68.0
197.043533 164.0
197.097137 69544.0
197.160843 140.0
197.179718 88.0
197.216736 96.0
197.257584 108.0
197.295578 48.0
197.374207 64.0
197.429596 172.0
197.435455 184.0
197.459427 60.0
197.502502 104.0
197.524887 184.0
197.554672 240.0
197.591217 56.0
197.624054 116.0
197.667572 108.0
197.731934 32.0
197.767868 76.0
197.790955 100.0
197.835495 56.0
197.869598 128.0
197.908279 48.0
197.947479 60.0
197.97699 140.0
198.034302 44.0
198.100296 6420.0
198.214615 264.0
198.247223 40.0
198.26683 116.0
198.331345 164.0
198.377701 108.0
198.429413 112.0
198.471466 32.0
198.538757 64.0
198.676208 152.0
198.806076 108.0
198.838943 76.0
198.942795 40.0
199.052292 108.0
199.103699 388.0
199.142166 96.0
199.212387 60.0
199.253418 92.0
199.292511 92.0
199.313522 96.0
199.352859 140.0
199.380966 84.0
199.414078 184.0
199.441101 80.0
199.49205 84.0
199.549622 32.0
199.591797 132.0
199.634277 108.0
199.644363 92.0
199.655365 172.0
199.867447 108.0
200.117996 204.0
200.179886 132.0
200.368607 84.0
200.507858 124.0
200.571487 56.0
200.689896 180.0
201.01709 84.0
201.129562 80.0
201.733978 188.0
201.841904 148.0
202.107788 152.0
202.178528 64.0
202.283249 40.0
202.478622 80.0
202.974533 44.0
203.12767 104.0
203.275208 124.0
203.524994 76.0
203.732315 148.0
203.817551 124.0
204.133072 40.0
204.178574 104.0
204.844589 96.0
205.070938 172.0
205.140945 164.0
205.177994 132.0
205.277786 132.0
205.414688 44.0
205.540222 212.0
205.591583 76.0
206.114151 124.0
206.168442 80.0
206.683151 224.0
206.708908 144.0
206.929306 44.0
207.029526 232.0
207.091751 1220.0
207.158401 68.0
207.207108 164.0
207.419159 48.0
207.510895 64.0
207.542435 104.0
208.096542 296.0
208.311569 116.0
208.509827 48.0
208.811691 112.0
208.831833 124.0
209.078796 192.0
209.096832 404.0
209.122421 100.0
209.413208 40.0
209.520859 140.0
209.995407 100.0
210.050201 168.0
210.102692 204.0
210.66217 68.0
210.792175 60.0
210.88176 44.0
211.095703 172.0
211.119858 136.0
211.177322 196.0
211.532562 76.0
212.181473 140.0
212.599152 56.0
212.712341 124.0
212.816849 52.0
213.313629 152.0
213.674225 48.0
213.816803 72.0
214.145798 96.0
214.340973 124.0
214.953323 96.0
215.201416 88.0
215.747742 152.0
215.964127 176.0
216.382584 84.0
216.819016 72.0
216.936264 140.0
217.423157 92.0
217.916458 80.0
218.039871 96.0
218.348572 128.0
219.196381 116.0
219.476395 96.0
219.827408 188.0
219.957275 148.0
220.261414 220.0
220.432755 132.0
220.734268 184.0
220.8703 100.0
221.130676 204.0
221.571884 76.0
221.874161 64.0
223.116318 536.0
223.263763 148.0
223.412476 132.0
223.989975 184.0
224.117462 560.0
224.150848 132.0
224.37439 76.0
224.460846 84.0
225.036713 128.0
225.127563 1052.0
226.112686 168.0
226.133224 348.0
226.166702 132.0
226.2565 144.0
226.394241 128.0
226.762726 76.0
226.789703 176.0
227.608688 100.0
227.990189 128.0
228.155502 132.0
228.519394 192.0
228.657822 40.0
228.907684 48.0
229.30835 48.0
230.146957 172.0
230.279831 48.0
230.373474 100.0
230.941742 128.0
231.507675 136.0
231.695465 156.0
231.904541 176.0
232.037918 120.0
232.207733 132.0
232.259293 112.0
232.550568 52.0
232.945297 152.0
233.112396 192.0
233.270432 40.0
234.804993 92.0
235.143646 140.0
235.256577 184.0
235.323746 100.0
236.506775 176.0
236.543518 200.0
236.613922 168.0
236.782333 108.0
237.116272 168.0
239.095657 196.0
239.144791 1692.0
239.460419 148.0
239.509705 96.0
239.549744 44.0
239.608276 132.0
240.143906 232.0
240.308121 88.0
240.36058 132.0
241.330444 52.0
241.550003 104.0
241.958481 104.0
242.156677 1036.0
242.407593 112.0
242.444229 180.0
242.488174 168.0
242.788895 80.0
243.156708 120.0
243.241867 132.0
243.751205 160.0
244.416626 224.0
245.25354 200.0
245.625397 76.0
245.703384 76.0
246.849655 116.0
247.725983 124.0
248.472092 172.0
248.95546 100.0
251.104904 116.0
251.145905 164.0
251.729752 160.0
252.01088 216.0
253.837204 140.0
253.878433 52.0
254.157578 196.0
254.986389 140.0
255.810181 124.0
256.16684 44.0
257.107391 280.0
257.742859 136.0
261.054108 44.0
261.494843 144.0
261.906982 92.0
265.598206 76.0
266.162903 192.0
266.338257 208.0
266.650177 148.0
267.987579 140.0
268.169098 524.0
268.913696 192.0
269.553772 144.0
270.26004 256.0
270.508759 56.0
270.597168 40.0
271.019653 88.0
271.747528 108.0
272.519104 92.0
272.634094 120.0
273.617584 188.0
273.93042 204.0
274.108337 184.0
274.33902 124.0
274.609406 204.0
275.470917 176.0
275.907104 108.0
276.002991 144.0
276.373444 44.0
277.17804 116.0
280.09494 148.0
280.798218 188.0
280.981659 108.0
281.195221 144.0
281.806305 116.0
281.960022 88.0
282.023529 60.0
282.140533 76.0
282.183075 360.0
282.448151 96.0
282.491638 44.0
282.635498 100.0
282.966858 84.0
283.074005 104.0
283.11084 72.0
283.184509 172.0
283.264893 128.0
283.318512 108.0
283.445831 52.0
283.512848 48.0
283.536285 124.0
283.566467 152.0
283.697174 180.0
283.747467 200.0
283.774292 40.0
283.9133 52.0
283.955353 180.0
284.11615 220.0
284.20108 39396.0
284.270203 124.0
284.322174 48.0
284.330566 72.0
284.371063 84.0
284.444702 136.0
284.480438 308.0
284.52243 92.0
284.557281 128.0
284.611481 176.0
284.636597 32.0
284.663452 108.0
284.71048 84.0
284.746155 32.0
284.791077 92.0
284.851532 124.0
284.885132 72.0
284.948944 60.0
284.994659 140.0
285.030548 152.0
285.066559 180.0
285.141113 128.0
285.20343 5912.0
285.272552 164.0
285.352264 92.0
285.389648 64.0
285.473297 60.0
285.570831 92.0
285.607819 60.0
285.671722 160.0
285.739014 52.0
285.786133 64.0
285.920715 176.0
285.954376 72.0
285.997833 44.0
286.032623 48.0
286.10791 104.0
286.139496 120.0
286.204437 544.0
286.533539 60.0
286.611115 104.0
286.654846 88.0
286.759308 140.0
286.789642 64.0
286.836823 48.0
286.91098 68.0
286.944702 60.0
287.126801 80.0
287.150391 124.0
287.184113 128.0
287.234711 140.0
287.308929 100.0
287.342682 72.0
287.528259 64.0
287.61264 60.0
288.112396 92.0
288.321899 44.0
288.473969 72.0
288.629486 88.0
288.798584 72.0
288.896667 48.0
289.214752 112.0
289.417877 72.0
289.53302 136.0
289.563477 48.0
289.661713 36.0
290.051392 116.0
290.69577 168.0
292.132935 88.0
292.565094 32.0
295.205933 116.0
296.637054 32.0
298.305328 180.0
298.742035 136.0
298.783325 80.0
298.831482 144.0
299.530334 48.0
299.733582 56.0
300.033447 96.0
301.072021 84.0
301.120361 72.0
301.310333 132.0
301.766541 124.0
302.49649 72.0
303.237701 52.0
303.667633 180.0
306.110687 128.0
306.67157 136.0
308.923767 84.0
309.406677 148.0
311.201721 180.0
312.389587 48.0
315.397369 52.0
315.811066 72.0
318.735748 40.0
318.881439 160.0
319.293854 92.0
319.823975 36.0
320.457855 156.0
320.685913 124.0
320.810669 52.0
322.084564 132.0
323.40036 164.0
323.55069 68.0
323.586487 48.0
324.424805 136.0
324.934052 68.0
324.962738 68.0
325.041687 104.0
325.091919 124.0
325.278534 100.0
325.34317 120.0
325.526276 84.0
325.558594 60.0
325.594513 144.0
325.637604 160.0
325.772552 160.0
325.803558 196.0
325.849518 156.0
325.964508 96.0
326.026367 56.0
326.079498 60.0
326.128662 216.0
326.190918 180.0
326.247437 29036.0
326.368591 96.0
326.40155 96.0
326.431793 56.0
326.514526 64.0
326.587921 88.0
326.654785 68.0
326.748322 144.0
326.780701 80.0
326.81308 40.0
326.85733 100.0
326.948181 176.0
326.975006 84.0
327.046387 48.0
327.100037 180.0
327.15683 140.0
327.250366 5756.0
327.298523 120.0
327.367401 44.0
327.446625 116.0
327.655548 48.0
327.698792 104.0
327.815704 116.0
327.91861 76.0
328.116364 60.0
328.156494 48.0
328.199768 52.0
328.255524 548.0
328.362061 56.0
328.495514 28.0
328.551971 80.0
328.619537 84.0
328.78775 124.0
328.823853 36.0
329.119843 160.0
329.183228 180.0
329.269958 144.0
329.333496 136.0
329.385559 76.0
329.422119 92.0
329.607483 96.0
329.817078 28.0
330.001434 52.0
330.037598 52.0
330.448059 104.0
330.489716 68.0
330.598267 116.0
331.137695 96.0
332.250488 76.0
333.60141 48.0
336.93222 40.0
338.563538 128.0
339.7034 52.0
339.949219 72.0
340.441132 76.0
340.690887 108.0
341.304657 88.0
341.764435 96.0
343.407379 48.0
347.357697 80.0
349.605469 64.0
351.431305 60.0
352.977661 80.0
368.91452 184.0
370.51416 68.0
373.377594 84.0
379.870331 108.0
384.722931 80.0
400.026611 88.0
406.814301 88.0
413.62674 40.0
423.160919 72.0
425.834503 76.0
434.075806 40.0
440.877777 96.0
442.680756 84.0
447.610565 40.0
454.385834 92.0
455.990936 108.0
462.469513 112.0
470.469055 60.0
475.212311 60.0
480.398041 80.0
483.088959 72.0
484.897308 60.0
486.524628 104.0
490.836304 116.0
492.981598 56.0
494.405548 40.0
498.809753 64.0
504.792847 100.0
510.375397 76.0
518.070374 88.0
520.510437 80.0
520.660278 44.0
525.106628 56.0
527.512939 108.0
530.162964 76.0
531.125732 32.0
537.598938 60.0
540.130737 152.0
555.812439 116.0
556.103394 48.0
556.882751 64.0
561.245117 88.0
562.45282 60.0
564.484314 44.0
570.576965 116.0
572.056458 44.0
578.070068 104.0
584.374939 64.0
586.113098 88.0
588.114441 56.0
589.3797 52.0
590.128845 128.0
590.626953 64.0
603.480042 48.0
614.856689 48.0
615.207092 88.0
619.449951 76.0
619.791809 148.0
619.950378 36.0
620.773254 120.0
623.190552 68.0
626.957336 108.0
635.302307 72.0
641.316162 116.0
642.72821 108.0
656.398376 124.0
693.913696 80.0
694.988892 100.0
713.98999 96.0
718.848328 92.0
729.732361 184.0
733.399109 124.0
734.239319 168.0
734.606079 124.0
735.296753 40.0
745.054077 60.0
749.929626 104.0
761.276123 48.0
762.00116 92.0
768.608276 64.0
773.150574 88.0
778.055969 88.0
778.205811 76.0
779.444458 80.0
792.02478 64.0
798.451172 52.0
801.913574 48.0
813.236633 104.0
830.616699 172.0
831.322388 188.0
842.538513 76.0
843.931396 200.0
844.232056 160.0
847.056458 136.0
847.24762 228.0
862.271606 76.0
865.366028 88.0
877.639893 204.0
882.570068 168.0
882.777039 124.0
883.824036 268.0
892.543274 164.0
893.066589 108.0
900.236084 236.0
900.905029 192.0
902.704041 60.0
903.996155 76.0
912.24292 56.0
917.775635 212.0
918.939697 80.0
919.724243 52.0
920.02002 164.0
921.257996 40.0
921.348572 112.0
926.272705 180.0
928.121094 200.0
929.789246 100.0
929.940979 116.0
943.879456 176.0
952.588318 148.0
954.290649 208.0
954.85022 144.0
957.465759 208.0
958.21106 180.0
958.574585 160.0
958.851929 104.0
959.795105 176.0
962.386536 168.0
966.039001 92.0
967.542786 156.0
971.285645 204.0
976.919678 92.0
977.031677 172.0
980.06366 200.0
981.964966 140.0
987.179565 244.0
992.295166 160.0
992.909668 96.0
993.856873 172.0
995.093323 200.0
995.608215 180.0
997.524536 104.0
998.121765 236.0
1000.613342 212.0
1000.890381 136.0
1003.454712 136.0
1004.198792 128.0
1006.60321 108.0
1010.313232 156.0
1011.135803 144.0
1012.927612 180.0
1014.061768 52.0
1014.987305 224.0
1015.551758 176.0
1017.753784 116.0
1017.817261 156.0
1021.153564 152.0
1021.815125 60.0
1026.126709 56.0
1027.94458 76.0
1031.131226 220.0
1031.693726 68.0
1032.838379 48.0
1035.033447 116.0
1035.968506 224.0
1037.359009 128.0
1043.88208 176.0
1044.325806 184.0
1044.711792 48.0
1045.065674 124.0
1045.149292 144.0
1046.024536 228.0
1046.571777 180.0
1048.762085 116.0
1051.503174 144.0
1054.041016 180.0
1060.201416 216.0
1062.068604 204.0
1062.224365 124.0
1063.723267 132.0
1065.665039 116.0
1066.113403 160.0
1066.535767 84.0
1068.005249 180.0
1068.098877 240.0
1069.695312 224.0
1072.713013 144.0
1073.03894 52.0
1073.89978 152.0
1074.71521 84.0
1078.463623 192.0
1079.3396 72.0
1079.882446 88.0
1080.837524 116.0
1081.184326 160.0
1082.338013 192.0
1084.242676 132.0
1084.649048 224.0
1086.819702 136.0
1087.082153 172.0
1087.823853 164.0
1088.060181 116.0
1088.335938 172.0
1089.124023 152.0
1090.760132 124.0
1092.338257 220.0
1093.54895 156.0
1096.446777 180.0
1097.369507 180.0
1098.490723 208.0
1102.082031 224.0
1104.746338 180.0
1105.28894 112.0
1106.963623 208.0
1109.182983 164.0
1109.667603 204.0
1111.205688 164.0
1114.558594 208.0
1117.071655 212.0
1118.828491 232.0
1118.948242 192.0
1120.047119 176.0
1122.419556 160.0
1122.953125 184.0
1123.913696 152.0
1124.020508 124.0
1124.145386 128.0
1124.274048 176.0
1124.627808 156.0
1125.475586 208.0
1127.011841 88.0
1127.29248 196.0
1128.756348 108.0
1132.919312 188.0
1134.467285 204.0
1137.405396 132.0
1139.675293 160.0
1141.019531 152.0
1141.308594 216.0
1142.26355 208.0
1146.997314 160.0
1147.057983 192.0
1148.622314 180.0
1149.148438 164.0
1151.058594 204.0
1151.403076 116.0
1152.078491 204.0
1152.240601 180.0
1152.362183 188.0
1153.044678 168.0
1156.109741 208.0
1158.803223 128.0
1160.572144 260.0
1160.707764 184.0
1160.755249 40.0
1161.297729 132.0
1161.745483 116.0
1161.901489 220.0
1163.17041 152.0
1163.883301 128.0
1164.161743 128.0
1164.908813 92.0
1166.716431 164.0
1167.069946 172.0
1167.403198 120.0
1168.559448 84.0
1169.008545 104.0
1169.192261 208.0
1174.015503 164.0
1174.165527 68.0
1174.220093 112.0
1174.411133 160.0
1175.025024 204.0
1175.195557 40.0
1175.707397 156.0
1176.369385 196.0
1176.526367 188.0
1177.400391 156.0
1178.158569 176.0
1181.200562 56.0
1181.522095 208.0
1183.322021 176.0
1186.171753 160.0
1187.076782 160.0
1189.279785 176.0
1189.615356 200.0
1190.610962 152.0
1190.981812 168.0
1191.414551 112.0
1191.730591 204.0
1193.276978 104.0
1193.325073 160.0
1193.482056 212.0
1194.803833 128.0
1196.421021 192.0
1197.116455 148.0
1198.170288 144.0
1199.272827 156.0
1201.120605 52.0
1206.182007 116.0
1207.217285 200.0
1209.841309 188.0
1210.381348 152.0
1210.956177 216.0
1212.515015 80.0
1212.930908 96.0
1215.712036 196.0
1216.746216 132.0
1217.57251 140.0
1217.801758 68.0
1218.628296 200.0
1221.826416 152.0
1222.891113 140.0
1223.684692 128.0
1225.55127 184.0
1225.767212 148.0
1227.614502 172.0
1230.440308 196.0
1230.496216 88.0
1231.159546 168.0
1234.464966 124.0
1235.115356 140.0
1236.157715 160.0
1237.361694 160.0
1237.410645 212.0
1238.173828 200.0
1240.065552 208.0
1243.249512 128.0
1243.656494 104.0
1244.758789 128.0
1245.369751 224.0
1247.280884 152.0
1247.976807 156.0
1249.446777 188.0
1249.678955 220.0
1250.671143 184.0
1250.854126 48.0
1251.142822 148.0
1252.712402 152.0
1254.792114 164.0
1255.172852 160.0
1255.595947 148.0
1256.992676 164.0
1257.077393 60.0
1259.393066 116.0
1261.067505 144.0
1261.98645 232.0
1263.30896 132.0
1263.938721 164.0
1264.518921 160.0
1265.000244 144.0
1265.694092 212.0
1266.919312 152.0
1267.833374 144.0
1269.584351 132.0
1269.747437 152.0
1270.478027 176.0
1270.747681 132.0
1271.194702 116.0
1271.797974 112.0
1272.65686 192.0
1272.791748 64.0
1274.681274 144.0
1275.491455 176.0
1276.109863 140.0
1276.515259 152.0
1277.233521 196.0
1278.592407 176.0
1278.642212 84.0
1279.517822 96.0
1279.574707 56.0
1279.738525 180.0
1280.848389 220.0
1282.780518 80.0
1283.514771 220.0
1285.112549 192.0
1285.483521 132.0
1287.146729 180.0
1287.275269 212.0
1289.304077 228.0
1290.769531 188.0
1291.091309 40.0
1291.413086 224.0
1291.727905 200.0
1293.244751 152.0
1293.466675 192.0
1294.554932 152.0
1296.352905 112.0
1296.625244 180.0
1297.585815 100.0
1297.759766 136.0
1298.395996 120.0
1299.680054 196.0
1300.046021 176.0
1300.742188 236.0
1301.366821 108.0
1301.661133 164.0
1303.471313 164.0
1303.679688 108.0
1303.787476 184.0
1304.21875 104.0
1304.714722 52.0
1305.203613 172.0
1305.886841 244.0
1306.678101 204.0
1306.879517 180.0
1308.131714 180.0
1308.650146 148.0
1309.046143 236.0
1309.528687 116.0
1310.66687 172.0
1310.789307 176.0
1311.783936 164.0
1312.084717 204.0
1313.478516 156.0
1314.618408 72.0
1316.307495 188.0
1316.875977 212.0
1317.268066 104.0
1317.997803 204.0
1318.236206 100.0
1319.681885 192.0
1319.840942 220.0
1320.283203 152.0
1321.526245 112.0
1321.772217 156.0
1322.076172 172.0
1322.799927 132.0
1323.777344 64.0
1325.298462 148.0
1325.617188 204.0
1326.697144 220.0
1326.77124 188.0
1327.828369 208.0
1329.054321 120.0
1329.177612 104.0
1329.446655 164.0
1329.513428 232.0
1329.692871 168.0
1332.36499 160.0
1333.113281 164.0
1334.625244 144.0
1334.676147 164.0
1336.865723 196.0
1338.641846 196.0
1339.464844 144.0
1340.040405 188.0
1342.642578 184.0
1343.13855 120.0
1343.437622 192.0
1344.52478 168.0
1344.597778 184.0
1345.948242 192.0
1346.035889 212.0
1346.123535 172.0
1346.547119 160.0
1347.270264 60.0
1348.402832 120.0
1348.892456 160.0
1350.274414 188.0
1350.705933 140.0
1350.815674 76.0
1350.866821 180.0
1350.947266 124.0
1351.057007 128.0
1352.915894 44.0
1354.468262 168.0
1356.072876 236.0
1356.168213 148.0
1357.047852 152.0
1357.282471 108.0
1357.575806 192.0
1357.781128 184.0
1358.529297 156.0
1360.033569 184.0
1360.275757 148.0
1360.730957 244.0
1360.914429 108.0
1361.149414 188.0
1363.941162 136.0
1364.771851 160.0
1365.580811 116.0
1365.69104 276.0
1366.051514 176.0
1366.654785 120.0
1366.728394 244.0
1367.022705 156.0
1368.535522 128.0
1368.5979 164.0
1369.098633 116.0
1369.326904 228.0
1370.358276 164.0
1370.424561 60.0
1370.697144 184.0
1371.036133 72.0
1371.109863 164.0
1371.994385 116.0
1372.178589 188.0
1372.598877 176.0
1373.63147 56.0
1374.214233 108.0
1375.07019 88.0
1376.664795 152.0
1377.09314 184.0
1377.757935 192.0
1378.282471 252.0
1378.334229 156.0
1378.496826 128.0
1378.666748 116.0
1379.23584 164.0
1379.531494 176.0
1380.063843 120.0
1380.951172 144.0
1381.026733 172.0
1382.445679 164.0
1382.808228 196.0
1383.222778 96.0
1383.526245 140.0
1385.362793 168.0
1385.592407 176.0
1385.871338 148.0
1386.414917 64.0
1387.096802 120.0
1387.741821 104.0
1388.016113 120.0
1389.321411 100.0
1391.651855 92.0
1392.513184 176.0
1392.869751 272.0
1394.125366 136.0
1394.444946 128.0
1395.06189 164.0
1395.455811 116.0
1396.4375 144.0
1397.664917 172.0
1399.309814 172.0
1399.808594 168.0
1399.950073 120.0
1400.300171 144.0
1401.305786 216.0
1401.782593 228.0
1401.857178 188.0
1403.631226 48.0
1406.145264 160.0
1406.466187 164.0
1407.279907 72.0
1407.981812 180.0
1408.295532 184.0
1408.795898 136.0
1409.109741 76.0
1409.834473 220.0
1409.886841 148.0
1410.477295 184.0
1410.544556 152.0
1410.798706 192.0
1410.888428 160.0
1412.039917 248.0
1412.331665 176.0
1413.184448 128.0
1413.678223 200.0
1414.187134 160.0
1414.920776 68.0
1415.864258 228.0
1416.628174 176.0
1417.017822 240.0
1418.793945 172.0
1418.943848 316.0
1419.558716 156.0
1420.023682 200.0
1420.86377 184.0
1420.983887 156.0
1421.824219 116.0
1423.813721 172.0
1423.896362 116.0
1424.172485 176.0
1424.747925 172.0
1424.842773 140.0
1425.210938 36.0
1426.292358 180.0
1426.691528 180.0
1426.924561 144.0
1427.450806 184.0
1427.876953 144.0
1429.015381 148.0
1429.504395 136.0
1429.760254 120.0
1430.038818 168.0
1430.164551 208.0
1430.520508 208.0
1432.7948 256.0
1433.088623 164.0
1433.299561 216.0
1434.897461 136.0
1436.09021 184.0
1436.789673 204.0
1436.903564 176.0
1437.990112 196.0
1438.314697 188.0
1438.714722 128.0
1438.911011 36.0
1439.794556 140.0
1439.990845 168.0
1440.980469 168.0
1441.411133 136.0
1441.78894 172.0
1442.295288 72.0
1442.552368 148.0
1442.718628 144.0
1443.194946 44.0
1443.4823 136.0
1443.936035 108.0
1444.049438 152.0
1444.548706 100.0
1445.812256 208.0
1446.18042 108.0
1447.280762 172.0
1447.613892 196.0
1448.734863 84.0
1448.924194 168.0
1449.090942 168.0
1449.86377 160.0
1449.914551 316.0
1450.720337 192.0
1450.894653 160.0
1451.379883 136.0
1451.622559 160.0
1451.819702 196.0
1452.684326 184.0
1452.790527 64.0
1452.874023 224.0
1452.957397 156.0
1453.321655 56.0
1454.012207 148.0
1455.158325 136.0
1455.613892 100.0
1456.305054 220.0
1458.386841 196.0
1459.146973 208.0
1459.260986 192.0
1459.800903 172.0
1460.143066 128.0
1461.466675 220.0
1462.32666 148.0
1462.768066 184.0
1463.176514 164.0
1463.255249 240.0
1463.506592 188.0
1464.062378 136.0
1464.633667 84.0
1464.793579 148.0
1464.97644 168.0
1465.494507 192.0
1467.262573 112.0
1468.71167 176.0
1468.79541 192.0
1468.871704 208.0
1468.993774 244.0
1469.309204 184.0
1469.512451 152.0
1470.023682 144.0
1471.30603 144.0
1471.932007 116.0
1472.387085 176.0
1472.672852 80.0
1472.843018 208.0
1473.169312 236.0
1474.391846 128.0
1474.468262 152.0
1474.682251 184.0
1474.781616 220.0
1475.270874 148.0
1475.683716 144.0
1475.951294 204.0
1476.387085 136.0
1476.55542 192.0
1476.853638 140.0
1477.373779 184.0
1477.496216 80.0
1477.717529 124.0
1478.177124 208.0
1478.30481 172.0
1478.460327 128.0
1479.072632 204.0
1479.271606 48.0
1481.581177 148.0
1481.974976 84.0
1482.151245 140.0
1482.381104 252.0
1483.241699 68.0
1483.331421 168.0
1483.553833 96.0
1484.105713 60.0
1484.826538 224.0
1485.263794 52.0
1487.642578 184.0
1487.980347 160.0
1488.387207 168.0
1490.468872 236.0
1490.622559 168.0
1490.737793 84.0
1492.567261 164.0
1493.182373 224.0
1494.104858 216.0
1495.488281 232.0
1495.744507 132.0
1495.859985 132.0
1498.131714 44.0
1498.470703 188.0
1498.817383 124.0
1499.834595 152.0
1500.613281 112.0
1501.122192 216.0
1501.631104 160.0
1501.870239 296.0
1502.456421 276.0
1502.919434 216.0
1503.06604 180.0
1503.258911 192.0
1504.092407 60.0
