>compound Bilirubin
>formula C33H36N4O6 
>ionization [M+H]+
>parentmass 585.271
#inchi InChI=1S/C33H36N4O6/c1-7-20-19(6)32(42)37-27(20)14-25-18(5)23(10-12-31(40)41)29(35-25)15-28-22(9-11-30(38)39)17(4)24(34-28)13-26-16(3)21(8-2)33(43)36-26/h7-8,13-14,34-35H,1-2,9-12,15H2,3-6H3,(H,36,43)(H,37,42)(H,38,39)(H,40,41)/b26-13-,27-14-
#inchikey BPYKTIZUTYGOLE
#Ion_Source DI-ESI
#Instrument LTQ-FT-ICR
#Compound_Source Crude
#PI Dorrestein
#Data_Collector J Watrous
#Scan -1
#Precursor_MZ 585.271
#ExactMass 0.0
#Charge 1
#CAS_Number N/A
#Pubmed_ID N/A
#Smiles N/A
#INCHI_AUX N/A
#Library_Class 3
#SpectrumID CCMSLIB00000072068
#IonMode Positive
#UpdateWorkflowName UPDATE-SINGLE-ANNOTATED-BRONZE
#LibraryQualityString Bronze
#TaskID 3bbf0c46eeeb406782b2f3cd0ad9b2b3
##Scan# 1
#SpectrumFile Bilirubin_1H_LTQ_585_271.mzXML
#LibraryName gnps_library.mgf
#MQScore -1
#Organism GNPS_JDW_Batch_Library_Centroid
#TIC_Query 0
#RT_Query -1
#MZErrorPPM -1
#SharedPeaks 0
#MassDiff 0
#LibMZ -1
#SpecMZ 585.271
#SpecCharge 0
#internalFilename spec-00000.mgf

>collision 10
165.0 0.163741
166.0 0.215501
167.090912 0.500559
168.090912 0.358036
169.181824 0.283773
170.090912 0.232334
171.0 3.074624
172.090912 0.208506
179.181824 0.332848
180.090912 0.547748
181.090912 0.884757
182.0 1.283551
183.090912 1.193343
184.090912 0.687924
185.181824 0.398473
186.181824 0.194602
187.181824 0.200009
189.090912 0.407769
190.090912 0.234606
191.090912 0.335223
192.090912 0.392379
193.090912 0.844074
194.0 1.155908
195.090912 2.280486
196.181824 2.12258
197.090912 1.961892
198.090912 1.339263
199.181824 1.337951
200.090912 0.622849
201.272736 0.263107
202.090912 0.466785
203.0 0.169823
203.909088 0.260775
204.181824 0.184614
205.0 0.325542
206.090912 0.276598
207.090912 0.667654
208.090912 1.232601
209.181824 7.942482
210.090912 9.606271
211.090912 5.116402
212.090912 3.009073
213.090912 2.155559
214.181824 1.091717
214.909088 0.572193
216.181824 0.825248
217.090912 0.442947
219.0 0.420181
219.181824 0.397892
220.272736 0.354992
221.181824 0.732619
222.090912 1.1218
223.090912 2.180153
224.090912 2.665993
225.181824 4.099361
226.181824 3.324199
227.090912 7.157665
228.090912 3.167587
229.181824 1.32434
230.090912 0.356068
230.454544 0.165772
231.090912 0.456652
231.818192 0.1854
232.181824 0.324104
233.0 0.521476
234.0 0.3154
235.090912 0.696106
236.090912 1.094741
237.090912 7.735802
238.181824 10.3131
239.181824 7.769334
240.181824 4.544185
241.181824 3.936258
242.181824 2.453216
243.090912 1.484398
244.090912 0.510205
245.0 0.333462
246.090912 0.28769
247.181824 0.335526
248.090912 0.292403
249.272736 0.273871
250.181824 0.541035
251.090912 2.832127
252.181824 3.347696
253.181824 8.594054
254.181824 7.447068
255.090912 5.570103
256.090912 2.856698
257.181824 2.689738
258.181824 1.445452
259.090912 0.95287
260.090912 0.518448
261.181824 0.464374
262.181824 0.183167
263.181824 0.458816
264.272736 0.464522
265.181824 0.890813
266.181824 0.596076
267.181824 2.10416
268.181824 1.60936
269.181824 15.504271
270.181824 21.022793
271.181824 18.960468
272.181824 5.262552
273.181824 2.082863
274.181824 1.310115
275.090912 5.028092
276.090912 1.685501
277.090912 0.980524
278.181824 0.400549
279.181824 3.068051
280.090912 3.015206
281.181824 1.829085
282.181824 1.577383
283.090912 2.399518
284.090912 11.770099
285.181824 12.110807
286.181824 39.948689
287.181824 16.389109
288.181824 3.420804
289.090912 1.403183
290.090912 0.463935
290.454559 0.216226
291.090912 0.713163
292.181824 0.316578
293.0 1.012724
294.090912 0.285614
295.090912 1.393342
296.181824 1.611182
297.181824 249.217468
298.181824 276.572021
299.181824 670.27594
300.181824 50.085785
301.181824 15.535126
302.181824 2.953119
303.181824 1.055365
304.181824 0.284652
305.090912 0.593482
306.090912 0.338373
307.181824 0.776577
308.090912 0.493777
309.090912 6.516335
310.181824 3.546581
311.090912 2.481007
312.181824 2.135788
313.181824 2.0011
314.181824 0.936783
315.181824 0.935512
316.090912 0.592947
317.090912 0.893705
318.090912 0.254276
318.272736 0.240105
319.090912 0.948447
320.181824 0.377212
321.181824 0.709871
322.181824 0.378449
322.454559 0.238791
323.090912 0.853522
324.181824 0.767563
325.090912 1.840535
326.090912 2.113485
326.727264 0.23997
327.090912 1.219929
328.090912 0.571232
329.090912 0.858856
330.181824 0.413386
331.181824 2.49344
332.090912 0.513313
333.090912 2.033976
334.090912 0.936666
335.181824 4.545558
336.181824 2.45991
337.090912 1.475743
337.909088 0.225733
338.181824 0.325137
339.090912 0.625361
340.363647 2.554508
341.363647 3.251378
342.272736 0.777202
342.636383 0.261182
343.090912 0.771387
344.181824 0.862114
345.090912 2.642655
346.0 0.614592
346.272736 0.604317
347.090912 1.063497
348.090912 0.677955
349.0 1.408836
350.181824 1.332691
351.181824 1.476068
352.181824 0.559451
352.636383 0.23848
353.090912 0.685287
354.0 0.294024
354.272736 0.27856
355.0 1.339673
356.0 0.634991
357.0 1.259757
358.090912 0.765822
359.0 0.783498
359.909088 0.358413
360.181824 0.590288
361.0 0.678082
362.272736 0.298584
363.0 0.925483
364.181824 0.417362
364.909088 1.103376
366.181824 0.381963
367.090912 0.774872
368.090912 0.27331
368.636383 0.296036
369.090912 0.94373
370.181824 0.568849
371.090912 2.816416
371.909088 0.531864
372.363647 0.623384
373.0 0.959201
373.818176 0.408203
374.181824 0.826984
375.0 1.423009
376.181824 0.861469
377.090912 0.830914
378.181824 0.591801
379.0 0.77725
380.090912 0.408477
381.0 0.585134
382.181824 0.211849
383.090912 1.074139
384.181824 1.469285
385.181824 1.269727
386.181824 0.537882
387.090912 0.892502
388.090912 1.163896
389.090912 1.776686
390.181824 1.429584
391.090912 1.289527
392.181824 1.615617
393.181824 2.574597
394.181824 3.2652
395.181824 1.659128
396.090912 1.202955
397.090912 1.198339
397.909088 0.291692
398.181824 0.271655
399.0 1.00205
400.090912 0.605621
401.090912 1.709108
402.181824 1.78827
403.090912 3.547581
404.181824 2.49012
405.090912 2.279346
405.909088 0.507164
406.272736 0.44512
406.909088 0.600704
408.0 0.280121
408.272736 0.290692
408.818176 0.500143
409.181824 0.610793
410.272736 0.541845
411.0 1.31496
411.454559 0.594406
412.0 0.379046
412.272736 0.409572
412.909088 1.656234
414.0 0.843125
414.272736 0.676842
415.0 1.914122
416.181824 1.931114
417.090912 2.856266
418.181824 2.238488
419.181824 2.384824
420.0 0.459455
420.272736 0.435345
420.909088 1.624757
422.272736 0.63691
423.0 1.053549
424.0 0.317518
424.363647 0.357078
425.090912 0.86004
426.0 0.43993
427.0 1.226758
428.181824 0.609629
429.0 1.394995
430.181824 1.568802
431.181824 3.040757
432.090912 1.565934
433.090912 1.643697
434.090912 0.841669
435.090912 1.509956
436.272736 0.505484
437.090912 1.151952
438.0 0.523204
438.272736 0.496824
438.818176 0.699321
439.090912 0.74489
440.181824 0.279796
440.454559 0.3208
440.909088 1.061259
441.909088 0.869987
442.181824 0.833657
443.181824 2.132373
444.090912 1.483055
445.181824 2.219435
446.181824 1.613409
447.181824 3.418545
448.272736 3.412581
449.181824 3.820133
450.181824 2.404466
451.0 12.206219
452.090912 4.11827
453.090912 3.171999
454.181824 1.195494
455.272736 0.986305
456.181824 0.575518
457.181824 0.83941
458.0 0.8616
459.181824 2.180617
460.181824 3.529905
461.181824 6.593914
462.181824 70.306709
463.181824 20.494902
464.181824 5.146073
465.0 2.120506
466.181824 1.84896
467.272736 10.964271
468.272736 6.395077
469.090912 1.66136
469.545471 0.77942
470.181824 2.391061
471.0 51.760975
472.0 7.342196
473.0 1.87675
473.454559 0.425537
474.0 0.619976
474.454559 0.34814
474.818176 0.832617
475.181824 0.991438
476.090912 1.655006
476.818176 10.843493
478.090912 1.664194
479.181824 1.413786
480.272736 1.028798
481.181824 3.926627
482.272736 2.163402
483.090912 1.57796
483.636383 0.316253
484.181824 0.840764
484.909088 1.99229
486.0 0.982536
486.272736 0.798836
487.0 4.471824
489.0 28.280504
490.0 5.890261
491.0 72.69503
492.0 13.127549
493.090912 2.973454
494.090912 2.802299
495.0 2.5691
496.272736 2.97446
497.181824 3.172973
498.090912 1.258234
498.909088 1.654071
499.818207 0.65684
500.090912 0.762449
500.818207 1.46259
502.090912 0.608342
502.909088 1.661678
504.818207 11.147176
506.818207 72.928391
507.909088 11.09791
509.181824 4.700463
510.181824 2.064672
511.181824 23.486977
512.181824 14.482664
513.090942 3.312245
514.0 1.42963
514.181824 1.379004
515.090942 0.956429
515.545471 0.646863
516.0 0.688763
516.454529 0.41259
517.090942 0.885304
517.454529 1.114333
517.636353 1.137891
518.090942 2.130835
518.818176 4.533679
519.818176 0.924029
520.181824 1.143569
521.0 1.846305
522.181824 3.610847
523.181824 5.95569
524.363647 14.030111
525.272766 21.084969
526.272766 11.889625
527.181824 3.753577
528.090942 5.423699
529.0 9.814489
530.090942 1.499371
530.818176 1.218596
531.545471 0.599183
532.090942 0.654062
532.545471 0.304368
533.090942 0.603588
533.454529 0.321489
534.181824 0.453229
535.0 0.655156
535.454529 0.883204
536.636353 5.272064
537.090942 8.713126
537.545471 4.723103
538.090942 4.183708
539.0 10.148421
540.272766 39.787743
541.181824 28.711014
542.090942 6.121552
543.0 2.2849
544.0 1.570701
544.363647 1.132747
545.454529 3.495344
545.909119 5.571332
546.545471 2.499518
546.909119 1.721586
548.272766 3.801919
549.181824 5.133917
550.181824 1.711684
551.0 0.599119
551.272766 0.733574
552.181824 3.387927
553.181824 2.98801
553.909119 0.975794
554.363647 1.419637
555.181824 4.249196
556.272766 8.154462
557.181824 9.445417
558.090942 2.627728
558.909119 0.977443
559.818176 0.582634
560.363647 0.254382
560.818176 0.236302
561.0 0.224238
561.727295 0.378761
562.090942 0.739809
562.636353 1.458608
563.0 1.761873
563.636353 1.398354
564.090942 1.007806
565.090942 2.431561
566.272766 99.847862
567.181824 89.664757
568.181824 26.034815
569.272766 8.81387
570.090942 7.379446
571.090942 2.891239
572.272766 0.274418
572.636353 0.256955
574.454529 0.300114
575.545471 3.119215
576.0 3.152057
576.545471 2.194425
577.0 1.215109
578.090942 0.305905
578.727295 0.191596
582.272766 0.175277
582.545471 0.24776
583.090942 0.968999
584.272766 67.613991
585.090942 25.633993
586.0 8.250647
586.818176 2.313793
588.0 0.163881
588.181824 0.168225
594.818176 0.245412
600.818176 0.21954
601.636353 0.571665
601.909119 0.777189
602.363647 1.310331
602.636353 1.557295
602.909119 1.540511
603.818176 0.812937
604.090942 0.760677
604.909119 0.313939
621.0 0.190044
755.181824 0.341324
771.0 0.310536
794.818176 0.167404
867.363647 0.458566
868.181824 0.528715
869.272766 0.576626
869.909119 0.188541
870.181824 0.354565
871.0 0.238044
889.0 0.178717
979.181824 0.191014
980.090942 0.233554
980.909119 0.433197
981.272766 0.248831
981.909119 0.255412
982.909119 0.304717
1068.909058 0.163024
1069.909058 0.201334
