>compound MLS001158389-01!1-[2-(4-butyl-8-methyl-2-oxochromen-7-yl)oxyacetyl]-4-phenylpiperidine-4-carboxylic acid
>formula C28H31NO6
>ionization [M+H]+
>parentmass 478.222748
#inchi InChI=1S/C28H31NO6/c1-3-4-8-20-17-25(31)35-26-19(2)23(12-11-22(20)26)34-18-24(30)29-15-13-28(14-16-29,27(32)33)21-9-6-5-7-10-21/h5-7,9-12,17H,3-4,8,13-16,18H2,1-2H3,(H,32,33)
#inchikey KMRZMOYMAAVHNA
#Ion_Source LC-ESI
#Instrument qTof
#Compound_Source NIH Natural Product Library
#PI Dorrestein
#Data_Collector VVP/LMS
#Scan -1
#Precursor_MZ 478.223
#ExactMass 477.215
#Charge 1
#CAS_Number N/A
#Pubmed_ID N/A
#Smiles CCCCc1cc(=O)oc2c(C)c(OCC(=O)N3CCC(CC3)(C(=O)O)c4ccccc4)ccc12
#INCHI_AUX N/A
#Library_Class 1
#SpectrumID CCMSLIB00000079997
#IonMode Positive
#UpdateWorkflowName UPDATE-SINGLE-ANNOTATED-GOLD
#LibraryQualityString Gold
#TaskID b1d8e8f6646f4e71acdff9ca3d919d08
##Scan# 2345
#SpectrumFile p2-G02_GG2_01_18050.mzXML
#LibraryName NIH_Natural_Products_Library.mgf
#MQScore -1
#Organism NIH_Natural_Products_Library
#TIC_Query 0
#RT_Query -1
#MZErrorPPM -1
#SharedPeaks 0
#MassDiff 0
#LibMZ -1
#SpecMZ 478.223
#SpecCharge 0
#internalFilename spec-00000.mgf

>collision 10
95.066658 64.0
95.220032 144.0
95.336594 88.0
95.410461 136.0
95.587456 148.0
95.675041 148.0
95.713982 68.0
95.749039 76.0
95.858131 140.0
95.881523 220.0
96.002388 172.0
96.025795 164.0
96.039452 144.0
96.078598 176.0
96.105774 216.0
96.12529 40.0
96.37719 172.0
96.469048 172.0
96.486069 124.0
96.517921 112.0
96.620758 228.0
96.639198 176.0
96.717659 172.0
96.809494 136.0
96.842789 180.0
96.877609 160.0
96.925072 92.0
97.082947 184.0
97.101509 156.0
97.123085 220.0
97.227066 128.0
97.280067 208.0
97.329147 160.0
97.39592 136.0
97.431236 184.0
97.58065 160.0
97.627846 160.0
97.657341 40.0
97.758942 256.0
97.871857 172.0
97.956543 204.0
98.056488 188.0
98.167435 164.0
98.206879 200.0
98.283821 156.0
98.315392 196.0
98.380531 68.0
98.394348 224.0
98.516792 212.0
98.542473 200.0
98.652077 196.0
98.684784 164.0
98.868752 132.0
98.888542 156.0
98.933937 236.0
99.046883 580.0
99.063454 168.0
99.142052 156.0
99.235214 140.0
99.270905 144.0
99.296684 152.0
99.425644 72.0
99.475266 148.0
99.497108 144.0
99.558662 136.0
99.657982 172.0
99.683815 192.0
99.924408 128.0
99.976654 188.0
100.046875 180.0
100.069702 200.0
100.153343 76.0
100.242996 188.0
100.328705 192.0
100.442375 76.0
100.492249 80.0
100.509315 152.0
100.524178 116.0
100.558098 60.0
100.837723 168.0
100.857712 220.0
100.895691 156.0
101.051689 52.0
101.217827 120.0
101.295937 168.0
101.319977 208.0
101.47921 112.0
101.532448 220.0
101.692955 196.0
101.709015 224.0
102.076675 84.0
102.235603 148.0
102.277863 128.0
102.295982 208.0
102.348328 136.0
102.372498 196.0
102.513512 208.0
102.63446 180.0
102.707062 124.0
102.755478 184.0
102.840233 168.0
102.872528 108.0
102.896759 140.0
102.979286 152.0
103.000786 152.0
103.053963 3104.0
103.086624 164.0
103.159386 84.0
103.242287 184.0
103.262512 248.0
103.41021 104.0
103.460815 200.0
103.497116 164.0
103.588554 156.0
103.622841 124.0
103.657288 116.0
103.826424 240.0
103.866112 192.0
103.924942 152.0
103.947266 36.0
103.989883 68.0
104.055992 684.0
104.113983 64.0
104.148262 248.0
104.181839 136.0
104.214218 120.0
104.229523 232.0
104.245781 100.0
104.316917 112.0
104.343346 112.0
104.378418 176.0
104.410446 84.0
104.518478 76.0
104.61438 180.0
104.666862 100.0
104.707588 196.0
104.782234 236.0
104.806305 148.0
104.840012 176.0
104.88485 160.0
104.964363 112.0
104.986794 144.0
105.032349 608.0
105.06955 1008.0
105.114708 148.0
105.137764 168.0
105.22554 60.0
105.256699 432.0
105.288841 256.0
105.30722 184.0
105.341949 204.0
105.460464 76.0
105.589272 36.0
105.622002 112.0
105.636314 172.0
105.744766 220.0
105.810272 48.0
105.920853 88.0
105.953636 92.0
105.982315 112.0
106.033546 168.0
106.068558 452.0
106.084152 192.0
106.140152 184.0
106.392517 140.0
106.452065 164.0
106.566154 140.0
106.686295 120.0
106.708908 184.0
106.815063 188.0
106.830246 148.0
106.848763 140.0
106.881683 124.0
106.955772 200.0
106.979393 84.0
107.07283 136.0
107.087555 148.0
107.214676 176.0
107.295677 132.0
107.343102 112.0
107.545288 156.0
107.603088 224.0
107.654709 136.0
107.669167 120.0
107.762123 132.0
107.782784 108.0
107.831268 156.0
108.006065 156.0
108.022614 36.0
108.045113 492.0
108.081291 156.0
108.130211 152.0
108.18644 172.0
108.29792 168.0
108.384933 160.0
108.432838 136.0
108.463684 52.0
108.490181 184.0
108.513443 60.0
108.538322 164.0
108.627502 216.0
108.685593 72.0
108.756157 56.0
108.826736 304.0
108.938889 136.0
108.976288 116.0
109.005379 176.0
109.05941 152.0
109.152969 96.0
109.192482 236.0
109.222198 180.0
109.250725 152.0
109.27153 188.0
109.313141 160.0
109.336037 184.0
109.365173 64.0
109.448448 120.0
109.504913 176.0
109.538002 188.0
109.579666 128.0
109.654686 148.0
109.681717 132.0
109.704216 184.0
109.710312 140.0
109.771431 160.0
109.82618 176.0
109.861122 88.0
109.898674 168.0
109.927788 160.0
110.016068 184.0
110.061203 1732.0
110.088631 124.0
110.130867 108.0
110.174271 88.0
110.19516 152.0
110.278748 148.0
110.362373 200.0
110.381195 204.0
110.41256 96.0
110.483681 184.0
110.534439 184.0
110.586212 80.0
110.70974 148.0
110.854286 148.0
111.00544 116.0
111.04451 376.0
111.062515 176.0
111.099602 180.0
111.121559 216.0
111.229713 64.0
111.254906 108.0
111.271103 120.0
111.290596 124.0
111.325157 140.0
111.345192 184.0
111.378799 72.0
111.393501 120.0
111.441826 144.0
111.456535 60.0
111.479652 192.0
111.519577 44.0
111.540604 56.0
111.721451 40.0
111.795097 148.0
111.828339 156.0
111.918442 184.0
111.957199 128.0
111.982468 116.0
112.074333 1152.0
112.133255 120.0
112.157356 152.0
112.172112 128.0
112.193192 152.0
112.275421 156.0
112.292297 172.0
112.406219 108.0
112.433655 124.0
112.524422 84.0
112.585808 172.0
112.69339 100.0
112.777924 176.0
112.839226 128.0
112.953423 208.0
112.997498 120.0
113.076057 376.0
113.194702 136.0
113.211029 168.0
113.379005 216.0
113.395958 36.0
113.421394 212.0
113.508316 124.0
113.534355 144.0
113.599518 56.0
113.622559 124.0
113.72007 148.0
113.79689 128.0
113.979561 188.0
114.041191 208.0
114.055603 196.0
114.079453 160.0
114.099312 184.0
114.106033 56.0
114.112434 136.0
114.145676 136.0
114.17939 152.0
114.249588 192.0
114.28788 72.0
114.313416 76.0
114.445396 132.0
114.461456 196.0
114.698914 144.0
114.726631 212.0
114.78846 108.0
114.965523 132.0
114.988998 208.0
115.053932 3280.0
115.08429 144.0
115.181168 148.0
115.196121 172.0
115.326462 60.0
115.426949 200.0
115.459023 152.0
115.518913 148.0
115.565979 92.0
115.660141 116.0
115.683693 100.0
115.874298 196.0
115.919296 188.0
116.015747 160.0
116.061638 652.0
116.11438 192.0
116.133682 140.0
116.165863 128.0
116.28817 128.0
116.391212 100.0
116.406242 228.0
116.47068 152.0
116.563057 96.0
116.618935 160.0
116.655479 100.0
116.717827 196.0
116.743637 188.0
116.788406 196.0
116.872559 184.0
116.952332 112.0
117.069214 4276.0
117.098648 184.0
117.122437 148.0
117.187065 108.0
117.202148 136.0
117.240936 76.0
117.26033 40.0
117.510475 136.0
117.532051 144.0
117.586006 204.0
117.620537 208.0
117.650757 172.0
117.665871 164.0
117.696098 136.0
117.739288 100.0
117.87323 120.0
117.920212 136.0
117.979134 40.0
118.040871 152.0
118.059113 292.0
118.075615 1392.0
118.19326 204.0
118.230049 80.0
118.301476 80.0
118.365891 176.0
118.404572 248.0
118.474724 92.0
118.500725 172.0
118.60041 112.0
118.63076 140.0
118.810753 160.0
118.851982 232.0
118.888206 208.0
118.934448 64.0
119.046181 336.0
119.085777 996.0
119.101646 188.0
119.115356 132.0
119.129883 156.0
119.155952 156.0
119.188545 104.0
119.214622 144.0
119.249397 184.0
119.328636 168.0
119.445091 128.0
119.590874 188.0
119.741112 100.0
119.782494 100.0
119.848198 176.0
119.928482 184.0
119.963364 152.0
120.051598 128.0
120.083351 324.0
120.325516 156.0
120.377914 156.0
120.452171 148.0
120.48494 172.0
120.560181 324.0
120.609505 116.0
120.806313 160.0
120.825996 144.0
120.876328 40.0
121.066055 356.0
121.100174 192.0
121.260406 356.0
121.334099 160.0
121.375763 120.0
121.423347 140.0
121.476646 60.0
121.577583 184.0
121.61792 148.0
121.676361 112.0
121.7071 136.0
121.786522 120.0
121.849861 100.0
121.983917 124.0
122.012497 168.0
122.03009 96.0
122.049812 144.0
122.057541 140.0
122.061615 212.0
122.102654 236.0
122.206047 168.0
122.408554 148.0
122.523087 196.0
122.636276 132.0
122.668533 52.0
122.697609 192.0
122.741905 72.0
122.816277 124.0
122.831718 152.0
122.85598 156.0
122.878044 188.0
122.964134 160.0
123.044342 1008.0
123.103195 156.0
123.171448 168.0
123.199577 132.0
123.237938 132.0
123.29229 188.0
123.344627 232.0
123.48774 92.0
123.569588 132.0
123.631546 184.0
123.73558 104.0
123.872887 176.0
123.888397 144.0
123.943787 68.0
123.97702 80.0
124.011353 188.0
124.050461 192.0
124.075829 372.0
124.22979 40.0
124.358498 204.0
124.431747 116.0
124.547226 172.0
124.564278 136.0
124.642502 184.0
124.818367 160.0
124.856171 68.0
124.882858 144.0
124.974068 32.0
125.011902 136.0
125.076447 144.0
125.214493 168.0
125.243446 212.0
125.280296 196.0
125.397186 160.0
125.440407 180.0
125.466286 112.0
125.577782 240.0
125.606781 148.0
125.649162 188.0
125.702248 172.0
125.816551 136.0
125.881302 144.0
125.9282 176.0
125.968407 180.0
126.053925 1260.0
126.102478 204.0
126.136002 284.0
126.171768 124.0
126.263451 212.0
126.384247 156.0
126.448402 236.0
126.655144 96.0
126.759544 144.0
126.794052 196.0
126.838882 208.0
126.894928 188.0
126.960762 156.0
127.011543 188.0
127.056969 484.0
127.096794 128.0
127.429916 188.0
127.453819 160.0
127.496513 144.0
127.524521 356.0
127.566109 176.0
127.624649 188.0
127.645935 180.0
127.7416 44.0
127.761841 144.0
127.800095 96.0
127.824577 204.0
127.874352 196.0
127.95089 156.0
128.030838 260.0
128.064316 4036.0
128.159164 144.0
128.184433 192.0
128.218948 140.0
128.395859 188.0
128.419601 148.0
128.448929 56.0
128.478256 120.0
128.509842 36.0
128.527893 160.0
128.577545 108.0
128.65654 132.0
128.743317 112.0
128.905487 228.0
128.997665 184.0
129.034851 160.0
129.069046 2384.0
129.350555 116.0
129.486404 196.0
129.52771 200.0
129.59967 68.0
129.801422 108.0
129.851303 176.0
129.898941 424.0
129.939774 156.0
129.965546 80.0
130.071487 900.0
130.123611 160.0
130.154068 188.0
130.186356 140.0
130.216721 80.0
130.24852 204.0
130.305313 76.0
130.323486 204.0
130.357574 124.0
130.409851 72.0
130.448486 72.0
130.625854 76.0
130.725967 160.0
130.751007 196.0
130.839783 80.0
130.930862 68.0
131.048782 1168.0
131.083511 5364.0
131.111649 124.0
131.197464 108.0
131.24762 168.0
131.265106 108.0
131.27359 72.0
131.28624 64.0
131.332001 232.0
131.38446 92.0
131.455597 180.0
131.480301 128.0
131.569321 44.0
131.662949 104.0
131.786301 176.0
131.847992 64.0
131.971939 108.0
132.026321 80.0
132.051346 532.0
132.084351 860.0
132.168152 156.0
132.288895 212.0
132.365005 88.0
132.401642 36.0
132.446945 180.0
132.488693 240.0
132.562012 96.0
132.809616 128.0
132.869263 48.0
132.910553 160.0
132.931213 48.0
133.066666 680.0
133.100464 1476.0
133.360687 168.0
133.381363 172.0
133.587692 188.0
133.643539 116.0
133.671158 220.0
133.767822 56.0
133.816177 116.0
133.843796 96.0
133.874481 236.0
133.926712 80.0
134.069183 136.0
134.105515 292.0
134.242447 188.0
134.267822 156.0
134.317642 156.0
134.472153 156.0
134.644012 92.0
134.72023 144.0
134.935165 176.0
134.990234 176.0
135.043045 148.0
135.080795 124.0
135.116364 264.0
135.166473 280.0
135.191925 140.0
135.280655 204.0
135.523056 72.0
135.589813 144.0
135.629654 140.0
135.678345 188.0
135.696884 144.0
135.840683 140.0
135.985443 216.0
136.04924 160.0
136.107574 232.0
136.174927 132.0
136.195831 112.0
136.25856 204.0
136.288757 192.0
136.337555 180.0
136.502609 96.0
136.565399 84.0
136.672424 156.0
136.71431 104.0
136.777145 72.0
136.821381 116.0
136.855133 72.0
136.923828 124.0
137.13353 180.0
137.152176 120.0
137.208115 160.0
137.357376 236.0
137.481125 180.0
137.520706 144.0
138.052734 144.0
138.069748 228.0
138.106171 224.0
138.226486 164.0
138.317764 172.0
138.408646 108.0
138.446548 340.0
138.480637 180.0
138.528519 144.0
138.657394 160.0
138.699585 192.0
138.783981 180.0
138.838638 236.0
138.880127 116.0
138.911606 172.0
139.098358 224.0
139.119492 64.0
139.154709 136.0
139.34259 160.0
139.361389 100.0
139.434235 192.0
139.638123 172.0
139.721115 148.0
139.782913 196.0
139.798843 236.0
139.822296 160.0
139.947067 188.0
139.993942 136.0
140.128418 60.0
140.159058 168.0
140.175552 148.0
140.211823 184.0
140.234467 132.0
140.314621 140.0
140.364136 160.0
140.449036 140.0
140.496216 84.0
140.545761 176.0
140.585876 160.0
140.607056 172.0
140.675568 112.0
140.739319 104.0
140.80307 108.0
140.845581 216.0
140.999161 128.0
141.030518 240.0
141.069626 2136.0
141.100815 104.0
141.138641 68.0
141.190659 40.0
141.209579 96.0
141.235611 176.0
141.266357 168.0
141.313675 228.0
141.417801 56.0
141.521957 152.0
141.606613 240.0
141.638 216.0
141.661697 120.0
141.6996 124.0
141.739883 92.0
141.768311 268.0
141.796753 180.0
141.813339 100.0
141.910538 64.0
142.043625 200.0
142.076324 2100.0
142.116623 216.0
142.337646 72.0
142.361389 96.0
142.460907 160.0
142.470062 96.0
142.475922 184.0
142.501541 76.0
142.57283 204.0
142.708313 128.0
142.806717 212.0
142.858154 88.0
142.89859 124.0
142.915253 128.0
142.969131 224.0
142.996292 272.0
143.02948 224.0
143.0466 192.0
143.085236 17796.0
143.177109 92.0
143.210449 140.0
143.231888 72.0
143.255707 52.0
143.290924 92.0
143.312225 136.0
143.391525 96.0
143.453506 60.0
143.484497 80.0
143.572723 148.0
143.591797 60.0
143.617371 184.0
143.641891 88.0
143.705505 108.0
143.789825 104.0
143.851883 64.0
143.926666 116.0
143.942612 140.0
143.985321 176.0
144.007095 152.0
144.057495 3836.0
144.082474 5976.0
144.148041 36.0
144.183899 172.0
144.205795 96.0
144.242401 92.0
144.280975 52.0
144.347137 112.0
144.352539 88.0
144.417862 276.0
144.442123 104.0
144.475616 208.0
144.528244 144.0
144.547394 72.0
144.628769 168.0
144.647446 164.0
144.719742 72.0
144.762833 68.0
144.798767 112.0
144.817032 148.0
144.844269 108.0
144.892181 80.0
144.920929 52.0
144.94249 40.0
145.009598 100.0
145.063873 1412.0
145.089951 1348.0
145.157761 40.0
145.203796 28.0
145.26857 44.0
145.330948 36.0
145.355331 184.0
145.414307 184.0
145.479752 68.0
145.50856 144.0
145.609406 96.0
145.654465 164.0
145.722305 120.0
145.753555 128.0
145.797394 112.0
145.936234 136.0
145.95546 128.0
146.034821 36.0
146.07225 864.0
146.094009 204.0
146.128647 128.0
146.191208 244.0
146.210464 56.0
146.246567 188.0
146.277008 160.0
146.316376 176.0
146.369339 84.0
146.451218 52.0
146.506317 188.0
146.5522 144.0
146.585236 128.0
146.589386 80.0
146.786224 160.0
146.803101 144.0
146.832031 140.0
146.86937 200.0
147.044373 260.0
147.08197 512.0
147.10228 248.0
147.119186 204.0
147.136078 164.0
147.239914 140.0
147.314789 128.0
147.360687 356.0
147.411438 188.0
147.529877 152.0
147.603546 76.0
147.873199 192.0
147.9944 64.0
148.037613 320.0
148.081879 192.0
148.117905 196.0
148.149399 60.0
148.193008 196.0
148.214813 164.0
148.27298 160.0
148.319031 44.0
148.498459 44.0
148.556671 200.0
148.578506 120.0
148.665863 44.0
148.697403 168.0
148.843063 132.0
148.935745 164.0
148.981506 152.0
149.058731 980.0
149.093277 80.0
149.119614 200.0
149.178345 144.0
149.261017 148.0
149.363159 84.0
149.426422 128.0
149.489685 136.0
149.506714 36.0
149.526184 192.0
149.563644 340.0
149.699036 148.0
149.871979 120.0
150.0186 176.0
150.06311 160.0
150.083801 124.0
150.149887 196.0
150.272095 324.0
150.288147 160.0
150.332169 156.0
150.435364 152.0
150.486633 172.0
150.545242 156.0
150.598969 156.0
150.64389 156.0
150.672256 172.0
150.840881 144.0
150.943573 76.0
151.037384 112.0
151.226059 192.0
151.276321 172.0
151.295471 208.0
151.337524 272.0
151.423233 36.0
151.646194 124.0
151.692764 116.0
151.778564 100.0
151.886475 72.0
151.989517 88.0
152.058426 196.0
152.080322 156.0
152.203079 108.0
152.271835 164.0
152.335709 156.0
152.423401 184.0
152.4561 140.0
152.580536 276.0
152.608505 188.0
152.633087 60.0
152.724091 144.0
152.760986 192.0
152.856934 104.0
152.933228 220.0
152.979996 52.0
153.07164 360.0
153.147446 148.0
153.199173 100.0
153.231201 160.0
153.381531 56.0
153.431778 64.0
153.460419 116.0
153.571396 208.0
153.677475 128.0
153.694748 144.0
153.909485 96.0
154.02063 132.0
154.075409 264.0
154.267731 132.0
154.569473 212.0
154.63382 136.0
154.683884 180.0
154.76503 164.0
154.787308 148.0
155.055283 160.0
155.084793 1152.0
155.166412 120.0
155.211044 204.0
155.342484 104.0
155.40451 96.0
155.595627 144.0
155.692459 96.0
155.739655 172.0
155.834061 124.0
155.871323 168.0
155.921021 168.0
155.978195 88.0
156.085938 404.0
156.152252 160.0
156.250092 192.0
156.428436 256.0
156.689926 172.0
156.755814 172.0
156.966599 160.0
157.045639 208.0
157.065811 1072.0
157.101059 784.0
157.188614 28.0
157.348358 144.0
157.433258 180.0
157.488205 144.0
157.533157 140.0
157.570633 244.0
157.668091 196.0
157.713074 108.0
157.733078 172.0
157.772293 192.0
157.795334 124.0
157.843079 168.0
157.869583 180.0
157.918106 108.0
157.945145 168.0
158.029617 400.0
158.096817 43984.0
158.127411 704.0
158.163635 136.0
158.208374 108.0
158.23175 60.0
158.266144 164.0
158.337296 184.0
158.358627 136.0
158.406219 100.0
158.437973 172.0
158.478165 72.0
158.507278 156.0
158.589142 44.0
158.631042 180.0
158.654312 92.0
158.72702 60.0
158.75209 148.0
158.824829 212.0
158.844238 204.0
158.888184 176.0
158.920166 60.0
158.94902 120.0
158.996994 156.0
159.029984 152.0
159.038971 128.0
159.047821 60.0
159.102798 12460.0
159.14325 204.0
159.176193 52.0
159.193771 48.0
159.241486 228.0
159.286697 48.0
159.384689 56.0
159.437454 124.0
159.478577 188.0
159.511444 120.0
159.553085 28.0
159.600861 152.0
159.649963 128.0
159.736664 40.0
159.774399 96.0
159.812134 56.0
159.847366 124.0
159.881454 88.0
159.890778 48.0
159.896484 100.0
159.915314 160.0
159.945526 132.0
159.96402 284.0
160.012161 196.0
160.043579 152.0
160.05336 144.0
160.077637 828.0
160.111481 12152.0
160.146484 64.0
160.153885 256.0
160.192291 44.0
160.220703 136.0
160.243546 124.0
160.311417 116.0
160.332504 108.0
160.410629 212.0
160.454391 100.0
160.472046 60.0
160.489685 40.0
160.588638 68.0
160.643539 44.0
160.661194 156.0
160.788467 128.0
160.810074 56.0
160.860565 204.0
160.948929 44.0
161.021957 280.0
161.025665 164.0
161.061142 1372.0
161.087662 444.0
161.115173 1300.0
161.183838 184.0
161.206589 84.0
161.248657 80.0
161.284927 36.0
161.351578 104.0
161.446747 124.0
161.478577 68.0
161.574936 188.0
161.656723 160.0
161.678665 156.0
161.699738 124.0
161.778625 72.0
161.87442 124.0
161.892151 200.0
161.940262 48.0
161.988388 180.0
162.040833 132.0
162.06691 3556.0
162.126053 368.0
162.190674 208.0
162.333099 128.0
162.349533 116.0
162.381271 184.0
162.678162 80.0
162.716232 140.0
162.74025 96.0
162.884247 76.0
162.975311 52.0
163.038834 212.0
163.072433 756.0
163.112686 504.0
163.240448 128.0
163.300705 104.0
163.3638 248.0
163.443176 120.0
163.499161 224.0
163.550064 156.0
163.674805 88.0
163.705948 244.0
163.741013 76.0
163.906601 224.0
163.972092 240.0
164.074829 364.0
164.113586 100.0
164.146225 172.0
164.332428 148.0
164.379852 120.0
164.63887 160.0
164.677048 76.0
164.792007 180.0
164.983688 136.0
165.047607 32.0
165.080856 180.0
165.126877 136.0
165.226639 184.0
165.328995 184.0
165.44162 168.0
165.517288 116.0
165.692596 168.0
165.772034 132.0
165.869431 208.0
166.02272 208.0
166.06105 140.0
166.081451 192.0
166.115601 108.0
166.13356 168.0
166.187439 120.0
166.205399 32.0
166.385056 60.0
166.660263 136.0
166.749832 176.0
167.071381 160.0
167.163879 128.0
167.341492 84.0
167.496002 84.0
167.524338 200.0
167.601639 156.0
167.644348 160.0
167.89035 188.0
167.990936 140.0
168.019318 116.0
168.071259 172.0
168.089279 136.0
168.135437 184.0
168.194702 112.0
168.370377 76.0
168.499527 156.0
168.677841 160.0
168.729553 156.0
168.77092 204.0
168.957138 40.0
168.985596 128.0
169.029587 152.0
169.062515 176.0
169.09256 136.0
169.141647 132.0
169.259964 120.0
169.428314 56.0
169.531967 80.0
169.837906 104.0
169.863846 160.0
169.920914 176.0
169.977997 180.0
170.073242 672.0
170.095581 1200.0
170.219406 184.0
170.242783 36.0
170.34407 160.0
170.406738 292.0
170.424622 112.0
170.531509 180.0
170.585754 156.0
170.614349 160.0
170.655945 124.0
170.715744 132.0
170.733963 188.0
170.824997 76.0
170.9655 200.0
170.986313 60.0
171.004532 112.0
171.080505 1980.0
171.110947 772.0
171.160736 124.0
171.262299 56.0
171.337845 180.0
171.37056 172.0
171.397766 56.0
171.461899 164.0
171.554153 68.0
171.681915 160.0
171.730164 248.0
171.762772 152.0
171.783646 76.0
172.052719 264.0
172.112701 12368.0
172.214096 84.0
172.277023 80.0
172.376312 188.0
172.412903 76.0
172.452103 120.0
172.538376 140.0
172.572357 64.0
172.701294 176.0
172.731888 60.0
172.773743 112.0
172.823456 68.0
172.844818 72.0
172.901337 236.0
172.941956 144.0
173.004044 44.0
173.027603 124.0
173.059906 596.0
173.094543 3220.0
173.11412 2256.0
173.175156 128.0
173.218781 196.0
173.239731 76.0
173.539902 120.0
173.698181 176.0
173.756195 224.0
173.83754 124.0
173.966156 136.0
174.021286 92.0
174.062912 600.0
174.100922 848.0
174.120972 656.0
174.187027 148.0
174.223511 104.0
174.244537 104.0
174.328613 140.0
174.34964 192.0
174.38118 244.0
174.449524 164.0
174.759857 156.0
174.853699 140.0
174.936188 92.0
174.962524 108.0
175.030975 172.0
175.075256 1060.0
175.111893 472.0
175.194275 176.0
175.281219 212.0
175.314713 96.0
175.355011 188.0
175.457809 124.0
175.49472 124.0
175.608124 76.0
175.629227 68.0
175.676697 112.0
175.85878 168.0
175.901016 128.0
176.043579 116.0
176.080887 528.0
176.137634 144.0
176.178284 44.0
176.241699 160.0
176.260193 152.0
176.30777 52.0
176.342316 164.0
176.371201 136.0
176.512436 116.0
176.582718 164.0
176.794373 64.0
176.947906 148.0
177.057526 592.0
177.098846 224.0
177.286957 164.0
177.395126 128.0
177.405411 104.0
177.415451 200.0
177.607758 144.0
177.644897 268.0
177.703262 32.0
177.820023 132.0
177.865143 120.0
177.90004 196.0
177.981964 200.0
178.000549 60.0
178.05101 132.0
178.446945 200.0
178.816711 180.0
178.872604 208.0
178.899216 136.0
178.928513 120.0
179.04567 152.0
179.074966 180.0
179.200165 164.0
179.253281 184.0
179.554703 236.0
179.58548 168.0
179.624054 180.0
179.656067 44.0
179.805496 160.0
180.005722 184.0
180.081711 424.0
180.112549 88.0
180.259491 128.0
180.296906 148.0
180.550888 144.0
180.735458 152.0
180.962982 40.0
180.997787 164.0
181.056702 128.0
181.099396 268.0
181.281738 216.0
181.501541 184.0
181.539093 176.0
181.590897 188.0
181.71344 192.0
181.784241 176.0
182.095306 608.0
182.188644 140.0
182.283203 164.0
182.782837 36.0
182.872864 204.0
182.973938 188.0
183.062805 152.0
183.091064 324.0
183.181305 132.0
183.45079 144.0
183.469666 48.0
184.03624 212.0
184.082489 156.0
184.103226 164.0
184.112198 200.0
184.181061 224.0
184.233398 124.0
184.252319 92.0
184.557373 152.0
184.67131 260.0
184.696442 192.0
184.784927 84.0
184.810867 136.0
184.844452 152.0
184.985199 160.0
185.047455 84.0
185.066422 100.0
185.100998 556.0
185.171967 160.0
185.191559 120.0
185.545975 84.0
185.833466 196.0
185.923019 128.0
185.966446 200.0
185.993591 56.0
186.023438 248.0
186.048813 220.0
186.091797 4608.0
186.175491 140.0
186.228317 116.0
186.2854 60.0
186.31131 48.0
186.354782 232.0
186.384033 148.0
186.44989 104.0
186.468903 160.0
186.537201 196.0
186.580856 132.0
186.653748 504.0
186.658798 160.0
186.713348 400.0
186.735352 192.0
186.770721 132.0
186.81424 156.0
186.836685 192.0
186.861908 176.0
186.892853 184.0
186.903732 152.0
186.930786 180.0
186.950287 140.0
186.974411 204.0
187.000366 140.0
187.031204 436.0
187.047363 252.0
187.100204 90756.0
187.160675 28.0
187.191345 168.0
187.223877 60.0
187.265945 72.0
187.274765 68.0
187.280945 80.0
187.319855 176.0
187.332565 180.0
187.365524 168.0
187.386108 120.0
187.407364 56.0
187.44046 104.0
187.511307 212.0
187.546951 340.0
187.573257 44.0
187.62262 340.0
187.64679 56.0
187.675232 120.0
187.734863 72.0
187.763657 100.0
187.786682 80.0
187.818344 164.0
187.837204 92.0
187.848831 56.0
187.876694 192.0
187.949738 156.0
187.994537 264.0
188.037689 80.0
188.103485 17812.0
188.14444 76.0
188.187836 116.0
188.215134 116.0
188.2332 52.0
188.2836 56.0
188.307983 64.0
188.343948 64.0
188.365784 76.0
188.396423 128.0
188.422089 104.0
188.45369 120.0
188.465012 92.0
188.488007 76.0
188.507065 60.0
188.558441 96.0
188.576904 76.0
188.649475 80.0
188.704224 80.0
188.753448 52.0
188.778061 56.0
188.816345 44.0
188.835495 32.0
188.85463 44.0
188.945633 168.0
188.983215 152.0
189.056305 1148.0
189.127228 2068.0
189.172058 60.0
189.207062 76.0
189.243744 172.0
189.288574 72.0
189.335083 156.0
189.365585 132.0
189.425919 140.0
189.457596 164.0
189.486191 104.0
189.503845 112.0
189.53717 128.0
189.564331 96.0
189.603394 168.0
189.635208 224.0
189.670609 80.0
189.689789 156.0
189.720215 204.0
189.755585 120.0
189.848816 36.0
189.882675 176.0
189.996933 60.0
190.016144 188.0
190.062485 2040.0
190.124588 7656.0
190.17012 216.0
190.267563 132.0
190.331787 56.0
190.362 228.0
190.403183 56.0
190.440079 112.0
190.463623 84.0
190.495728 116.0
190.54039 76.0
190.547989 56.0
190.58725 64.0
190.63945 56.0
190.664185 60.0
190.721909 108.0
190.760391 112.0
190.790024 72.0
190.908859 164.0
190.928116 36.0
191.013382 192.0
191.032639 248.0
191.065155 428.0
191.083984 120.0
191.12558 1956.0
191.194977 28.0
191.255524 84.0
191.291306 84.0
191.398682 56.0
191.42897 48.0
191.594238 92.0
191.630051 68.0
191.661911 156.0
191.80368 44.0
191.900162 80.0
191.919952 68.0
191.985641 56.0
192.13681 404.0
192.187012 28.0
192.371933 64.0
192.414719 128.0
192.435425 112.0
192.543121 48.0
192.57074 84.0
192.644577 104.0
192.708435 156.0
192.805588 76.0
192.824921 128.0
192.971436 132.0
193.115234 144.0
193.173325 148.0
193.308899 180.0
193.333801 84.0
193.45993 204.0
193.623077 140.0
193.732529 140.0
193.757462 136.0
193.810104 120.0
194.18158 40.0
194.220398 140.0
194.248581 100.0
194.495102 68.0
194.74501 192.0
195.384369 52.0
195.406616 220.0
195.428879 64.0
195.551315 84.0
195.665451 80.0
195.721146 36.0
195.813034 164.0
195.885452 48.0
196.158554 152.0
196.442993 140.0
196.468094 116.0
196.724838 124.0
196.918976 76.0
197.029236 44.0
197.127045 124.0
198.019485 76.0
198.054092 192.0
198.120316 28.0
198.165146 108.0
198.238007 44.0
198.260422 100.0
198.350113 184.0
198.523941 196.0
198.846573 144.0
198.885864 140.0
198.927979 96.0
198.967285 116.0
199.071167 88.0
199.110977 696.0
199.172287 172.0
199.560104 32.0
199.737274 72.0
199.863876 160.0
199.987701 124.0
200.107498 3564.0
200.207153 132.0
200.334061 80.0
200.455215 40.0
200.482513 192.0
200.5905 40.0
200.728653 64.0
200.940201 52.0
201.063034 188.0
201.082916 148.0
201.114075 5144.0
201.261963 48.0
201.315613 28.0
201.338211 112.0
201.387924 192.0
201.462479 76.0
201.53595 244.0
201.680069 36.0
201.711166 32.0
201.762054 192.0
202.05867 136.0
202.121628 7112.0
202.192001 56.0
202.220306 36.0
202.395828 164.0
202.560089 124.0
202.650742 76.0
202.727249 52.0
202.747086 192.0
202.860474 152.0
202.981628 164.0
203.01358 36.0
203.069824 664.0
203.101974 812.0
203.12439 1400.0
203.178101 60.0
203.416473 120.0
203.453384 96.0
203.484604 196.0
203.514221 224.0
203.677292 132.0
203.724777 156.0
203.856705 76.0
203.889755 172.0
204.032944 100.0
204.07164 216.0
204.101974 11996.0
204.152359 124.0
204.186493 60.0
204.259964 48.0
204.32872 48.0
204.399857 76.0
204.425461 48.0
204.45961 52.0
204.552567 128.0
204.604782 64.0
204.727219 72.0
204.75 68.0
204.832596 148.0
205.108215 5072.0
205.151764 92.0
205.220703 180.0
205.29718 84.0
205.317139 72.0
205.366882 100.0
205.496857 72.0
205.696625 116.0
205.810822 60.0
205.913635 48.0
206.067886 156.0
206.11734 4700.0
206.441986 64.0
206.516708 192.0
206.651703 104.0
206.738098 104.0
206.771347 48.0
206.81427 156.0
206.968872 80.0
207.087814 224.0
207.120987 1312.0
207.180817 32.0
207.206604 68.0
207.226654 84.0
207.338409 44.0
207.46167 68.0
207.559143 108.0
207.584961 172.0
207.659515 64.0
207.728363 116.0
207.989487 68.0
208.133041 96.0
208.305359 80.0
208.612839 92.0
208.664581 108.0
208.868027 232.0
209.087433 116.0
209.368134 72.0
209.418533 144.0
209.444458 140.0
209.487671 124.0
209.519363 152.0
209.669205 100.0
209.689377 136.0
210.093674 188.0
210.45961 252.0
210.598221 52.0
210.630936 136.0
210.90451 76.0
210.982559 156.0
211.575638 172.0
212.163742 92.0
212.845566 180.0
212.868805 72.0
213.048889 172.0
213.156387 132.0
213.36235 116.0
213.732132 124.0
214.055237 180.0
214.227081 204.0
214.620544 148.0
214.708023 52.0
214.973495 124.0
214.999771 104.0
215.037704 40.0
215.108521 380.0
215.160309 68.0
215.265427 140.0
215.300461 92.0
215.510788 68.0
215.607224 68.0
215.77092 48.0
215.890808 76.0
216.114716 248.0
216.657684 120.0
216.686981 88.0
216.730927 100.0
216.89505 184.0
216.961777 100.0
217.046387 656.0
217.122681 9208.0
217.258682 32.0
217.337891 120.0
217.502243 120.0
217.534531 108.0
217.572693 252.0
217.600266 144.0
217.722443 44.0
217.760635 52.0
217.85463 48.0
217.904617 248.0
217.952347 260.0
218.004471 156.0
218.027985 148.0
218.058258 344.0
218.079315 164.0
218.118317 33240.0
218.177887 52.0
218.219376 84.0
218.300034 96.0
218.32785 100.0
218.351379 52.0
218.377853 36.0
218.398438 32.0
218.470505 72.0
218.505493 92.0
218.533981 56.0
218.598495 72.0
218.619095 80.0
218.748611 64.0
218.778046 132.0
218.804535 60.0
218.851654 60.0
218.998901 184.0
219.121735 4464.0
219.156128 200.0
219.211014 52.0
219.236176 52.0
219.396713 88.0
219.512146 80.0
219.579529 88.0
219.600174 40.0
219.629669 56.0
219.66507 132.0
219.685715 148.0
219.781281 112.0
219.825958 120.0
219.88855 108.0
219.963104 56.0
220.124939 492.0
220.220001 36.0
220.252487 48.0
220.296799 72.0
220.317474 72.0
220.376572 44.0
220.488861 56.0
220.545288 44.0
220.571625 172.0
220.605713 120.0
220.716064 84.0
220.734467 108.0
220.78894 96.0
220.812775 128.0
221.098099 124.0
221.308273 52.0
221.491882 84.0
221.568909 80.0
221.642975 168.0
221.853409 68.0
221.909744 60.0
222.601105 252.0
223.480957 92.0
223.522614 148.0
223.689285 112.0
223.748825 120.0
225.281723 132.0
226.172836 172.0
226.334503 80.0
226.720932 104.0
226.825836 212.0
227.106262 756.0
227.263702 52.0
227.326721 60.0
227.497803 112.0
228.092194 192.0
228.42337 132.0
228.483322 112.0
228.871796 192.0
229.058517 28.0
229.112259 336.0
229.215179 84.0
229.763947 108.0
229.854462 172.0
230.108002 180.0
230.183487 92.0
230.277115 152.0
230.358658 152.0
230.570175 160.0
230.595779 136.0
230.675964 96.0
230.745499 76.0
231.065338 212.0
231.10228 716.0
231.217377 144.0
232.107925 2244.0
232.186874 124.0
232.423492 280.0
232.51149 68.0
232.569153 76.0
232.648087 40.0
232.681473 60.0
232.751312 44.0
232.906204 64.0
233.024673 116.0
233.117188 3196.0
233.292114 148.0
233.638809 48.0
233.663147 88.0
233.7453 116.0
234.116913 448.0
234.168472 128.0
234.686523 240.0
235.065109 156.0
235.118973 208.0
235.186844 48.0
235.22348 140.0
235.672409 72.0
235.971954 100.0
236.066742 68.0
237.779282 128.0
239.42717 188.0
239.947922 172.0
240.108276 124.0
240.373581 28.0
240.410614 60.0
240.515549 44.0
240.605072 152.0
240.666824 152.0
241.083847 92.0
242.163589 68.0
242.597397 188.0
243.596649 44.0
243.848328 160.0
244.031738 80.0
244.160767 156.0
244.252533 108.0
244.283646 172.0
244.398758 160.0
244.504562 88.0
244.716248 72.0
244.781631 116.0
244.843918 52.0
244.899979 156.0
245.009689 128.0
245.037781 288.0
245.07019 100.0
245.117798 25856.0
245.204758 200.0
245.261414 40.0
245.323761 40.0
245.382996 60.0
245.423523 48.0
245.448471 36.0
245.535797 64.0
245.585693 100.0
245.626678 204.0
245.76976 40.0
245.928909 108.0
245.960129 80.0
245.985107 44.0
246.035049 216.0
246.117538 6364.0
246.291107 68.0
246.358383 60.0
246.428574 76.0
246.541061 136.0
246.741119 48.0
246.901978 72.0
247.117783 684.0
247.163361 224.0
247.263504 68.0
247.285416 72.0
247.332352 88.0
247.46698 52.0
247.611023 96.0
247.78331 36.0
247.808365 120.0
247.839203 100.0
247.874176 120.0
247.899246 80.0
248.055954 48.0
248.124298 628.0
248.215851 36.0
248.253479 44.0
248.322479 48.0
248.347565 136.0
248.611115 32.0
248.92189 160.0
249.016113 176.0
249.053802 68.0
249.094635 156.0
249.124191 372.0
250.088272 112.0
250.195297 168.0
250.598434 48.0
250.680359 60.0
251.011353 92.0
251.238449 80.0
251.509827 84.0
252.103607 112.0
253.385101 48.0
253.873245 152.0
253.949371 112.0
254.793747 92.0
255.445465 192.0
255.671371 172.0
256.123932 84.0
257.951904 96.0
258.079803 132.0
258.281281 84.0
259.092712 284.0
259.116791 192.0
259.607239 44.0
260.107727 188.0
260.528412 60.0
260.583038 52.0
260.679443 64.0
260.820831 112.0
261.084503 96.0
261.180969 136.0
261.32254 60.0
263.460052 60.0
263.789673 204.0
264.100098 112.0
266.099579 132.0
266.934631 96.0
267.393341 108.0
267.832916 52.0
268.931732 60.0
269.081909 128.0
269.277832 108.0
270.376343 180.0
271.22464 72.0
272.136658 168.0
272.219299 168.0
272.619537 116.0
273.112061 4312.0
273.19046 100.0
273.379181 40.0
273.539307 80.0
273.658997 52.0
273.741302 60.0
273.958679 144.0
274.11554 1460.0
274.156372 56.0
274.370636 64.0
274.443176 64.0
275.070007 56.0
275.117035 508.0
275.42334 124.0
275.661194 56.0
275.707458 68.0
275.889252 68.0
275.971924 64.0
276.891876 108.0
277.156891 104.0
277.226471 48.0
278.112 136.0
278.364319 136.0
280.99054 144.0
281.337616 172.0
282.30658 68.0
283.555328 144.0
284.118683 164.0
284.373688 124.0
285.630371 148.0
286.020691 136.0
286.140106 164.0
286.17218 172.0
286.411285 128.0
287.112335 100.0
287.156189 60.0
287.628571 100.0
288.094574 48.0
288.645508 124.0
288.746948 72.0
290.036957 192.0
290.139526 1568.0
291.139832 540.0
291.428375 32.0
291.540527 120.0
291.615295 188.0
292.132141 136.0
295.916962 80.0
297.597015 56.0
298.456024 96.0
298.686432 212.0
298.868774 60.0
299.020203 144.0
299.305908 176.0
300.343262 124.0
301.285675 76.0
301.714203 96.0
302.140259 1116.0
302.440674 96.0
302.489136 52.0
302.651855 140.0
302.707245 72.0
302.779968 80.0
302.821533 80.0
302.946228 72.0
303.138763 296.0
303.185303 160.0
303.317017 40.0
303.382874 72.0
306.800262 120.0
307.232697 152.0
307.55722 60.0
310.699677 104.0
311.029541 100.0
314.1409 428.0
314.687286 92.0
314.757904 152.0
314.938019 28.0
315.146454 152.0
315.171173 176.0
316.122406 160.0
316.147186 144.0
316.242737 128.0
317.592682 132.0
320.490082 136.0
322.68515 100.0
322.857574 216.0
324.912842 108.0
325.386566 100.0
326.399811 144.0
326.446564 144.0
326.921417 64.0
328.849548 80.0
330.142944 40.0
331.3302 124.0
336.732025 180.0
337.821289 120.0
340.427277 52.0
341.320251 148.0
341.614471 128.0
341.775299 56.0
343.319824 144.0
344.319977 104.0
344.434479 44.0
346.472778 40.0
347.091736 96.0
348.171631 124.0
348.888763 148.0
349.483856 88.0
351.011047 120.0
351.932709 100.0
353.64267 88.0
353.832031 40.0
355.008606 60.0
356.138275 96.0
356.889893 84.0
357.356293 44.0
357.446594 100.0
357.826752 56.0
359.168335 152.0
359.300385 48.0
359.406006 180.0
360.013763 108.0
360.312164 104.0
360.576691 68.0
361.170288 136.0
361.385925 48.0
362.196075 136.0
362.50296 76.0
367.159943 116.0
368.232391 184.0
369.317871 112.0
370.163269 188.0
376.227142 160.0
377.285675 196.0
378.477325 208.0
379.694153 68.0
380.804138 56.0
381.682434 68.0
382.760284 100.0
383.531677 76.0
386.223145 176.0
386.314575 60.0
389.149414 124.0
389.749542 96.0
389.801453 92.0
389.954712 44.0
390.94577 104.0
395.211456 96.0
396.538086 68.0
397.954285 124.0
398.498413 120.0
398.561981 124.0
399.357086 116.0
403.171631 132.0
403.856262 72.0
404.072266 152.0
404.218201 632.0
405.101135 80.0
405.219604 308.0
405.273407 32.0
405.898712 172.0
406.24765 68.0
406.444244 52.0
408.529449 36.0
410.636108 92.0
411.116211 76.0
413.92572 72.0
415.222534 168.0
415.376678 204.0
416.261444 92.0
416.687927 68.0
416.78952 76.0
417.179688 132.0
417.903595 136.0
419.194397 148.0
422.092682 68.0
422.640778 32.0
422.718536 48.0
425.119934 164.0
427.256531 84.0
428.026215 100.0
428.14975 132.0
429.584137 176.0
429.992645 180.0
430.607819 160.0
431.020905 80.0
431.058105 136.0
431.107697 48.0
431.198608 136.0
431.537598 120.0
431.868408 144.0
432.216095 5744.0
432.319366 132.0
432.640137 108.0
433.057648 136.0
433.122589 56.0
433.219879 2484.0
433.289185 208.0
433.338013 68.0
433.420868 44.0
433.851929 48.0
433.934845 60.0
434.042633 48.0
434.150452 132.0
434.222382 452.0
434.847443 52.0
434.971985 76.0
435.237213 212.0
435.437012 148.0
435.495148 56.0
435.977112 116.0
436.031128 132.0
436.430206 48.0
436.534149 64.0
436.667236 60.0
437.42453 176.0
437.95752 68.0
439.583466 120.0
439.76709 156.0
441.944336 68.0
442.237274 84.0
443.913086 108.0
445.016663 76.0
446.230896 84.0
446.420105 136.0
450.23822 124.0
450.491669 104.0
451.222778 168.0
458.370575 48.0
459.23172 160.0
460.209045 112.0
460.84967 48.0
461.080414 212.0
461.217194 60.0
461.790131 192.0
462.243622 52.0
462.740143 88.0
464.13266 108.0
465.986877 96.0
467.814667 56.0
471.792175 96.0
472.981781 100.0
473.704926 156.0
474.285583 60.0
476.346741 124.0
477.106567 132.0
477.546417 100.0
477.681244 52.0
477.916199 176.0
477.946655 80.0
478.088287 124.0
478.222748 8460.0
478.341064 64.0
478.564301 40.0
478.795502 56.0
478.841888 80.0
478.867371 104.0
478.91745 100.0
479.035065 304.0
479.122192 132.0
479.22757 4108.0
479.414124 44.0
479.518738 40.0
479.706177 56.0
479.884918 60.0
480.228943 1440.0
480.351562 80.0
480.408264 52.0
480.560944 76.0
480.892609 76.0
480.993011 72.0
481.210297 184.0
481.276764 56.0
481.311707 92.0
481.831451 160.0
481.923218 80.0
482.01059 124.0
482.248657 204.0
482.3078 32.0
482.504517 56.0
482.648804 40.0
482.688141 56.0
483.047058 124.0
483.221771 48.0
483.287415 64.0
483.99649 112.0
484.592163 40.0
485.644287 56.0
486.921478 60.0
487.026886 92.0
487.119141 40.0
488.213562 96.0
488.970276 40.0
489.450104 48.0
491.420349 52.0
495.403748 68.0
506.061432 80.0
506.881104 116.0
508.0289 84.0
511.412537 88.0
511.795197 88.0
515.607056 88.0
518.453674 88.0
518.79364 120.0
520.513184 68.0
522.836182 60.0
524.03833 100.0
524.648987 68.0
526.629456 60.0
533.516724 36.0
534.151306 84.0
535.573669 120.0
537.842224 100.0
538.257751 124.0
542.815735 116.0
543.613586 72.0
549.453064 120.0
551.993958 104.0
553.350891 172.0
558.545898 80.0
559.397644 48.0
561.381226 72.0
565.075012 92.0
567.39093 76.0
567.661194 68.0
569.497864 88.0
573.318298 48.0
591.207703 84.0
599.010193 60.0
605.222412 52.0
606.937378 40.0
621.597656 60.0
623.708374 84.0
637.759155 156.0
645.523193 112.0
647.385437 96.0
649.803284 56.0
654.759399 92.0
657.869751 36.0
658.50293 56.0
661.842285 48.0
664.861572 88.0
666.160645 36.0
675.392822 128.0
675.930847 92.0
688.062195 84.0
694.357117 88.0
696.572144 136.0
696.619385 32.0
698.112122 88.0
707.567627 184.0
712.388306 140.0
715.185303 76.0
722.881165 48.0
730.053528 184.0
773.936157 40.0
784.659424 184.0
784.982788 100.0
792.19281 64.0
793.431274 176.0
793.840637 80.0
794.053711 108.0
795.613647 128.0
799.689026 204.0
803.36853 60.0
804.643982 100.0
805.067444 104.0
813.57196 144.0
827.281616 136.0
834.235229 188.0
835.650024 136.0
836.542053 132.0
838.356323 96.0
838.996155 68.0
839.526611 56.0
839.751526 80.0
847.21405 164.0
850.484497 228.0
856.071655 92.0
860.993652 100.0
866.09375 56.0
868.766785 96.0
872.601746 132.0
875.726501 140.0
876.525208 48.0
877.641724 176.0
882.867676 144.0
886.34845 148.0
887.895691 92.0
888.429504 132.0
889.153442 228.0
890.233887 48.0
893.663635 176.0
903.448059 76.0
912.149353 160.0
916.500549 240.0
928.954895 48.0
939.893921 64.0
941.75592 156.0
942.715088 76.0
948.860474 168.0
948.958618 176.0
951.013672 92.0
960.076111 188.0
965.523132 192.0
966.85321 204.0
969.888062 76.0
972.797302 204.0
980.441528 160.0
989.918335 100.0
993.8172 132.0
994.011719 136.0
995.631348 172.0
996.680359 152.0
997.164246 128.0
998.849365 208.0
999.711304 168.0
1000.819153 180.0
1004.556458 132.0
1013.483398 92.0
1013.540466 172.0
1015.569092 228.0
1018.901733 120.0
1019.155884 136.0
1019.76593 120.0
1021.132935 72.0
1023.073669 168.0
1024.805908 140.0
1026.456787 84.0
1028.255859 144.0
1029.654053 388.0
1031.043091 148.0
1032.964844 216.0
1035.480347 128.0
1042.511597 76.0
1045.502075 160.0
1048.103516 168.0
1049.289551 184.0
1052.44458 164.0
1052.819092 152.0
1053.070923 148.0
1053.839722 100.0
1057.758789 72.0
1057.881714 240.0
1058.263672 52.0
1059.008423 88.0
1060.505127 188.0
1061.691528 136.0
1065.300293 160.0
1074.349121 136.0
1076.522583 228.0
1079.855591 176.0
1080.627563 104.0
1081.151001 148.0
1083.337891 116.0
1084.025879 164.0
1085.487671 164.0
1087.40979 152.0
1089.353394 176.0
1090.220703 212.0
1091.62085 140.0
1093.561646 184.0
1093.745972 156.0
1097.07251 100.0
1097.613159 156.0
1099.605469 176.0
1099.902466 148.0
1102.828491 164.0
1103.562378 148.0
1103.886353 192.0
1104.660156 76.0
1105.440918 136.0
1106.36084 176.0
1110.787598 180.0
1111.689819 172.0
1114.026978 168.0
1118.409058 168.0
1118.728516 196.0
1118.908325 128.0
1123.126587 180.0
1123.233276 160.0
1124.988281 156.0
1125.302002 196.0
1130.596069 144.0
1131.312256 128.0
1136.747925 180.0
1137.130493 192.0
1140.952515 160.0
1142.008301 200.0
1148.08313 164.0
1149.067993 120.0
1149.439087 52.0
1151.44397 128.0
1152.612671 168.0
1155.235962 196.0
1157.923096 164.0
1161.332275 148.0
1161.543213 192.0
1163.232178 236.0
1163.320435 48.0
1163.449463 172.0
1163.605591 176.0
1165.391846 140.0
1165.51416 180.0
1165.582031 152.0
1165.894653 112.0
1166.798706 172.0
1169.016113 104.0
1171.93042 136.0
1173.757202 204.0
1178.193604 168.0
1179.731201 192.0
1182.104492 120.0
1184.137817 212.0
1187.269775 196.0
1187.585205 152.0
1191.903442 140.0
1192.370728 136.0
1193.59436 108.0
1195.623657 176.0
1196.119263 108.0
1196.546021 184.0
1197.696045 148.0
1197.946533 184.0
1198.577881 176.0
1199.659912 232.0
1202.287842 208.0
1203.87561 140.0
1204.255493 156.0
1205.865356 136.0
1206.701782 92.0
1206.839966 224.0
1207.330933 132.0
1208.126343 184.0
1209.178101 200.0
1209.967285 116.0
1210.715088 156.0
1210.915894 124.0
1213.81958 48.0
1214.554688 176.0
1215.970215 100.0
1216.226929 68.0
1218.734009 192.0
1218.785767 72.0
1219.651367 40.0
1223.038696 44.0
1224.597534 164.0
1225.970825 116.0
1227.371948 104.0
1228.801758 180.0
1229.394897 168.0
1230.253418 160.0
1230.337158 136.0
1231.859497 116.0
1232.355591 144.0
1232.697998 48.0
1232.788818 176.0
1233.403809 160.0
1234.431519 176.0
1234.718262 60.0
1234.970093 176.0
1235.158936 100.0
1235.445679 96.0
1237.762329 112.0
1239.297852 152.0
1239.702759 244.0
1240.719116 52.0
1241.139771 144.0
1241.749878 152.0
1241.92627 136.0
1242.500366 192.0
1244.82373 132.0
1246.657104 204.0
1246.748535 184.0
1247.310791 204.0
1248.5271 148.0
1248.703003 140.0
1250.672974 200.0
1251.362915 128.0
1254.237061 224.0
1257.291016 152.0
1257.622681 76.0
1257.856934 236.0
1259.818848 76.0
1260.758545 196.0
1260.836304 136.0
1262.865356 172.0
1264.485596 216.0
1265.22876 56.0
1267.970093 144.0
1269.118408 172.0
1270.962646 100.0
1271.792969 40.0
1272.119507 248.0
1273.227051 172.0
1274.38501 88.0
1274.68335 96.0
1275.259033 168.0
1275.550415 192.0
1278.253052 176.0
1278.509277 140.0
1278.665771 236.0
1280.538208 184.0
1280.616577 120.0
1281.670898 212.0
1282.369263 160.0
1282.697144 112.0
1286.185303 92.0
1287.063354 64.0
1287.570435 156.0
1289.778076 64.0
1290.042603 144.0
1290.321411 56.0
1290.59314 148.0
1290.836182 56.0
1291.522827 100.0
1292.910767 128.0
1293.089722 120.0
1294.113403 156.0
1294.614624 84.0
1297.179565 152.0
1298.606445 212.0
1299.452881 176.0
1299.991089 120.0
1300.379395 180.0
1300.715942 164.0
1301.175415 196.0
1301.225708 116.0
1301.570312 216.0
1302.216675 200.0
1302.618896 56.0
1302.676392 128.0
1303.183105 192.0
1303.272583 180.0
1304.06311 212.0
1305.220581 188.0
1305.306763 176.0
1305.393066 224.0
1305.910889 160.0
1306.313721 96.0
1306.579834 200.0
1307.699219 236.0
1309.380005 108.0
1309.560059 212.0
1311.411743 152.0
1311.613525 160.0
1311.671143 200.0
1312.406494 128.0
1313.170898 184.0
1314.426147 148.0
1315.313843 128.0
1316.115234 160.0
1316.606323 176.0
1318.231689 116.0
1319.330322 40.0
1320.602905 128.0
1321.376953 88.0
1321.724243 124.0
1322.216309 104.0
1322.802612 128.0
1323.236938 184.0
1324.931641 104.0
1325.149048 204.0
1325.207031 152.0
1325.525757 152.0
1325.58374 120.0
1328.114014 164.0
1329.01355 32.0
1329.325562 172.0
1330.05127 144.0
1331.241943 84.0
1331.626831 136.0
1332.375122 116.0
1332.981323 184.0
1333.741211 160.0
1334.119263 184.0
1336.526611 204.0
1337.749268 144.0
1338.302612 104.0
1338.433594 176.0
1339.140015 128.0
1340.269165 112.0
1340.429443 156.0
1341.019775 148.0
1341.455444 120.0
1341.814331 180.0
1342.798706 172.0
1342.973755 96.0
1343.024902 164.0
1343.827271 52.0
1344.440186 220.0
1345.038696 192.0
1345.089844 68.0
1346.002441 172.0
1347.974609 120.0
1348.161255 152.0
1348.435059 120.0
1349.158691 184.0
1349.458496 160.0
1351.016235 60.0
1352.384521 180.0
1352.948242 252.0
1353.079956 136.0
1354.061157 120.0
1354.236938 44.0
1355.379761 192.0
1357.204956 172.0
1357.424927 204.0
1358.554443 88.0
1359.831177 132.0
1360.675293 144.0
1361.277466 172.0
1362.327759 116.0
1363.532715 192.0
1364.341309 64.0
1364.951538 260.0
1366.106201 132.0
1367.062744 212.0
1368.174194 132.0
1370.057129 44.0
1370.648804 160.0
1371.452148 160.0
1372.336792 156.0
1376.262085 164.0
1376.498291 220.0
1377.362427 172.0
1377.724365 248.0
1378.935181 140.0
1379.165283 200.0
1380.444336 104.0
1380.799316 168.0
1380.910278 180.0
1382.217651 160.0
1382.574829 164.0
1382.715454 28.0
1382.830688 168.0
1383.159546 208.0
1383.581543 64.0
1385.795898 200.0
1385.944092 128.0
1386.055298 52.0
1386.685181 132.0
1387.181763 176.0
1388.86499 76.0
1389.725586 172.0
1390.679565 168.0
1390.786743 216.0
1391.202515 172.0
1392.316284 148.0
1392.902954 156.0
1393.31897 184.0
1393.638428 128.0
1394.076904 140.0
1394.686279 220.0
1394.976196 100.0
1396.098877 116.0
1398.152222 184.0
1399.477173 196.0
1400.169678 152.0
1400.221802 32.0
1400.758057 200.0
1401.860718 204.0
1403.038452 176.0
1403.172607 296.0
1403.642334 144.0
1403.709473 192.0
1403.821289 156.0
1404.149414 184.0
1404.358276 100.0
1405.216187 140.0
1405.529541 56.0
1407.171631 116.0
1407.26123 148.0
1407.500122 168.0
1407.686768 160.0
1408.799683 152.0
1408.866943 80.0
1409.673828 244.0
1409.830811 160.0
1410.750122 172.0
1411.153809 136.0
1411.340698 216.0
1411.422974 124.0
1413.906494 148.0
1414.078613 184.0
1414.782227 144.0
1416.032715 112.0
1416.437256 128.0
1416.691895 112.0
1418.932739 184.0
1419.877441 104.0
1420.357544 176.0
1421.610474 216.0
1423.652344 116.0
1424.403442 36.0
1425.252319 132.0
1425.928711 172.0
1426.665283 220.0
1426.845703 160.0
1427.28186 120.0
1427.981201 172.0
1429.004272 144.0
1429.124634 44.0
1429.515869 216.0
1429.681396 128.0
1430.506836 228.0
1431.422974 136.0
1433.386353 260.0
1434.2229 184.0
1435.008301 184.0
1435.376343 228.0
1436.077759 88.0
1436.417114 176.0
1436.50769 180.0
1437.201782 140.0
1438.341309 212.0
1439.292603 156.0
1440.259277 240.0
1440.908936 136.0
1440.999512 196.0
1441.400024 76.0
1441.566284 152.0
1442.019653 140.0
1443.032593 160.0
1444.2229 168.0
1444.318237 124.0
1445.392456 140.0
1445.445435 100.0
1447.133423 88.0
1447.678589 136.0
1447.860352 156.0
1447.989014 108.0
1448.549561 128.0
1449.231445 132.0
1450.034668 104.0
1451.02002 200.0
1451.581177 172.0
1452.210571 196.0
1452.518921 212.0
1453.378906 152.0
1453.790283 256.0
1454.046631 140.0
1454.934814 112.0
1455.071411 96.0
1455.519409 160.0
1458.527832 196.0
1458.81665 140.0
1459.098022 84.0
1459.151245 196.0
1459.896362 88.0
1461.661133 128.0
1462.817993 192.0
1463.251953 168.0
1463.655518 112.0
1464.150391 124.0
1464.858765 140.0
1465.666382 148.0
1465.841675 160.0
1466.344604 120.0
1467.465088 156.0
1468.197144 80.0
1468.288696 56.0
1468.753906 116.0
1469.272705 108.0
1469.38916 148.0
1470.608032 144.0
1472.44043 188.0
1472.990356 172.0
1473.181274 136.0
1475.061157 64.0
1475.244629 164.0
1475.955688 160.0
1477.50061 208.0
1478.579468 180.0
1479.046387 160.0
1481.374268 160.0
1481.619385 188.0
1481.879883 208.0
1481.964111 48.0
1482.293579 56.0
1482.546509 204.0
1483.581177 144.0
1483.719238 136.0
1484.93689 204.0
1485.29126 140.0
1485.452271 220.0
1485.728516 244.0
1486.57251 204.0
1486.917847 160.0
1487.339966 128.0
1488.660522 124.0
1489.098267 124.0
1490.02002 184.0
1490.582886 136.0
1491.287964 180.0
1491.449341 168.0
1492.348755 140.0
1492.787109 144.0
1494.448486 208.0
1494.941406 160.0
1495.133423 164.0
1495.495117 176.0
1495.926147 140.0
1496.449707 160.0
1497.419922 136.0
1497.473877 184.0
1497.951416 136.0
1498.452148 148.0
1498.690918 164.0
1499.777588 60.0
1499.900879 144.0
1500.055054 204.0
1501.581787 132.0
1501.952026 92.0
1502.437988 128.0
1502.754272 212.0
1502.854614 212.0
1503.996704 172.0
