>compound N-[4-[1-hydroxy-2-(propan-2-ylamino)ethyl]phenyl]methanesulfonamide
>formula C12H20N2O3S
>ionization [M+H]+
>parentmass 273.125488
#inchi InChI=1S/C12H20N2O3S/c1-9(2)13-8-12(15)10-4-6-11(7-5-10)14-18(3,16)17/h4-7,9,12-15H,8H2,1-3H3
#inchikey ZBMZVLHSJCTVON
#Ion_Source LC-ESI
#Instrument qTof
#Compound_Source Commercial
#PI Dorrestein
#Data_Collector Garg_Neha
#Scan -1
#Precursor_MZ 273.127
#ExactMass 272.119
#Charge 1
#CAS_Number N/A
#Pubmed_ID N/A
#Smiles CC(C)NCC(O)c1ccc(NS(=O)(=O)C)cc1
#INCHI_AUX N/A
#Library_Class 1
#SpectrumID CCMSLIB00000079012
#IonMode Positive
#UpdateWorkflowName UPDATE-SINGLE-ANNOTATED-GOLD
#LibraryQualityString Gold
#TaskID 278b19f5865741e282cec7349aa7e7a1
##Scan# 708
#SpectrumFile NCP003352_E2_F11_BC6_01_15720.mzXML
#LibraryName NIHcollectionI_05062014.mgf
#MQScore -1
#Organism NIHcollectionI_05062014
#TIC_Query 0
#RT_Query -1
#MZErrorPPM -1
#SharedPeaks 0
#MassDiff 0
#LibMZ -1
#SpecMZ 273.127
#SpecCharge 0
#internalFilename spec-00000.mgf

>collision 10
45.565971 164.0
57.366173 168.0
77.718239 172.0
80.24044 172.0
106.063232 544.0
106.210091 184.0
107.070992 248.0
116.048637 340.0
116.517876 156.0
117.060234 176.0
118.064384 160.0
119.06459 168.0
119.357956 144.0
127.5411 148.0
128.123917 144.0
131.064804 168.0
132.06752 344.0
133.075958 3512.0
134.083099 1036.0
134.127213 172.0
135.088959 344.0
141.604065 168.0
146.086838 160.0
149.126297 164.0
154.318497 204.0
174.897522 184.0
176.127563 1492.0
185.595337 156.0
198.067337 148.0
200.565292 200.0
202.467056 184.0
210.606796 200.0
213.069794 4580.0
213.40329 144.0
215.076096 508.0
228.886261 188.0
234.951126 176.0
244.270187 148.0
245.597122 152.0
248.437408 188.0
254.922714 148.0
254.967209 236.0
255.116486 13448.0
256.119904 1324.0
256.692596 168.0
257.113373 816.0
258.113464 132.0
273.125488 1096.0
274.132538 292.0
275.139099 176.0
434.148071 148.0
1647.83728 144.0
1768.692383 196.0
1894.915527 232.0
1923.448242 140.0
