>compound Ticlopidine hydrochloride
>formula C14H14ClNS
>ionization [M+H]+
>parentmass 264.061279
#inchi InChI=1S/C14H14ClNS/c15-13-4-2-1-3-11(13)9-16-7-5-14-12(10-16)6-8-17-14/h1-4,6,8H,5,7,9-10H2
#inchikey PHWBOXQYWZNQIN
#origInchi InChI=1S/C14H14ClNS.ClH/c15-13-4-2-1-3-11(13)9-16-7-5-14-12(10-16)6-8-17-14;/h1-4,6,8H,5,7,9-10H2;1H
#Ion_Source LC-ESI
#Instrument qTof
#Compound_Source Commercial
#PI Dorrestein
#Data_Collector Garg_Neha
#Scan -1
#Precursor_MZ 264.061
#ExactMass 263.054
#Charge 1
#CAS_Number 53885-35-1
#Pubmed_ID N/A
#Smiles C12(=C(CN(CC1)CC3=C(Cl)C=CC=C3)C=CS2).Cl
#INCHI_AUX N/A
#Library_Class 1
#SpectrumID CCMSLIB00000078369
#IonMode Positive
#UpdateWorkflowName UPDATE-SINGLE-ANNOTATED-GOLD
#LibraryQualityString Gold
#TaskID 77f51c88eb8b467eb4a01dd2d0cb90d2
##Scan# 1069
#SpectrumFile Plate6_1_20_GD7_01_15774.mzXML
#LibraryName FDALibrary_2_04302014.mgf
#MQScore -1
#Organism FDALibrary_2_04302014
#TIC_Query 0
#RT_Query -1
#MZErrorPPM -1
#SharedPeaks 0
#MassDiff 0
#LibMZ -1
#SpecMZ 264.061
#SpecCharge 0
#internalFilename spec-00000.mgf

>collision 10
46.101929 168.0
46.743378 244.0
48.035435 180.0
49.184296 152.0
49.325531 180.0
50.645466 140.0
51.101177 196.0
51.116829 148.0
51.14814 156.0
51.343346 152.0
52.071846 148.0
52.513718 208.0
55.01059 164.0
55.653149 176.0
57.591129 204.0
59.467072 148.0
60.346718 224.0
60.619156 164.0
61.145634 168.0
61.316959 220.0
63.29015 176.0
64.665642 176.0
65.790894 212.0
66.183784 152.0
66.44149 200.0
67.289444 144.0
67.539482 140.0
67.593475 216.0
67.739189 188.0
68.220024 172.0
68.806526 148.0
70.057022 172.0
70.50087 164.0
71.396118 152.0
71.64019 180.0
72.051842 144.0
72.764877 152.0
72.866783 156.0
73.37056 148.0
73.466064 160.0
74.634163 164.0
75.449707 156.0
75.503311 208.0
75.72831 224.0
75.899887 172.0
75.951912 164.0
76.106377 144.0
77.270699 140.0
77.587708 164.0
77.995789 164.0
78.644958 176.0
78.704979 164.0
79.489166 168.0
79.503365 184.0
79.704033 200.0
79.775124 184.0
80.829231 144.0
80.976028 156.0
81.286186 136.0
81.713837 180.0
84.56118 192.0
85.509834 144.0
87.429375 344.0
87.598816 148.0
88.585175 148.0
89.03669 156.0
89.054123 292.0
89.307877 164.0
90.099625 160.0
90.131744 180.0
90.470306 172.0
91.672646 208.0
91.695518 164.0
92.22422 148.0
92.578171 180.0
92.69503 172.0
92.76403 196.0
93.026848 156.0
93.340912 268.0
93.852844 188.0
94.087616 152.0
94.789749 172.0
95.115578 180.0
95.154411 184.0
95.322357 148.0
95.383652 140.0
95.473091 144.0
95.599541 180.0
96.516823 200.0
96.75901 164.0
97.174522 152.0
97.278542 164.0
97.378685 152.0
97.767967 156.0
97.905777 160.0
97.994423 232.0
98.262566 140.0
98.315842 140.0
98.363213 192.0
98.998253 188.0
100.000511 168.0
100.177734 236.0
100.854202 188.0
102.518921 160.0
103.621353 148.0
103.905205 180.0
104.427277 180.0
104.797783 188.0
104.95269 184.0
105.275116 176.0
105.806755 168.0
107.72348 152.0
108.072884 140.0
108.391769 148.0
109.999496 160.0
111.00798 228.0
111.025421 292.0
111.959984 168.0
112.303528 140.0
112.480774 140.0
113.052238 140.0
113.142464 168.0
113.854942 144.0
114.356705 152.0
114.569649 160.0
114.733749 176.0
114.795586 184.0
114.851036 156.0
117.125351 200.0
117.383987 148.0
117.554405 216.0
119.580803 216.0
119.74192 152.0
119.933662 200.0
121.714531 180.0
121.751862 188.0
122.720108 140.0
122.808319 148.0
123.024574 164.0
123.378052 168.0
124.548119 200.0
124.860382 180.0
124.977295 144.0
125.014877 39224.0
126.017685 3204.0
126.041992 380.0
126.819641 148.0
126.919891 240.0
127.011505 9660.0
127.091003 140.0
127.905205 132.0
127.963097 156.0
128.015961 656.0
130.349472 176.0
131.458496 144.0
133.347931 144.0
133.656097 192.0
133.826431 200.0
134.640457 160.0
134.774445 152.0
135.021805 148.0
136.371201 144.0
136.941238 196.0
137.484482 148.0
137.949295 148.0
138.036758 344.0
138.098953 148.0
140.029266 156.0
140.063614 180.0
140.219131 140.0
141.104355 176.0
141.206039 168.0
141.260437 164.0
143.006897 164.0
143.996384 152.0
144.292694 216.0
144.960526 152.0
145.207458 164.0
145.4151 136.0
145.488205 156.0
147.66658 172.0
147.889175 212.0
149.084885 220.0
150.480667 168.0
153.07988 212.0
153.728226 148.0
153.899811 136.0
153.935379 144.0
153.965225 144.0
154.002274 208.0
154.041702 65628.0
154.370529 192.0
154.532303 100.0
154.970673 160.0
155.043594 4448.0
155.903259 108.0
155.99791 348.0
156.038193 13904.0
156.172958 136.0
156.243301 368.0
157.04155 1164.0
157.342331 152.0
157.559616 140.0
157.919586 176.0
158.129761 144.0
158.961807 164.0
160.609756 188.0
165.068802 288.0
166.078751 160.0
170.600464 192.0
172.169067 184.0
176.955017 192.0
177.296738 160.0
178.228195 144.0
178.733414 148.0
178.799942 232.0
179.962204 248.0
183.339539 244.0
185.041779 144.0
185.109863 392.0
185.266113 144.0
188.695343 204.0
189.052994 192.0
189.089264 164.0
190.375061 140.0
191.037476 148.0
191.414551 216.0
191.916061 188.0
196.637726 156.0
197.979156 124.0
200.071655 152.0
200.996094 160.0
207.90007 148.0
212.180817 164.0
212.758087 188.0
213.950058 140.0
214.631851 156.0
216.402557 144.0
218.356964 156.0
220.745773 176.0
221.02269 296.0
222.007339 188.0
222.75531 204.0
223.087952 184.0
223.760498 200.0
224.094086 200.0
227.924118 184.0
229.745697 140.0
230.038422 200.0
234.025253 196.0
235.034073 756.0
235.690689 172.0
235.984116 164.0
236.028717 300.0
237.024277 156.0
238.338165 144.0
241.084351 148.0
241.538361 144.0
241.615692 144.0
244.619797 192.0
246.103821 172.0
247.033203 120.0
248.035217 344.0
249.204727 216.0
249.408997 140.0
250.434769 144.0
251.917358 180.0
253.321945 152.0
254.80986 216.0
258.387115 192.0
258.838409 168.0
260.043854 192.0
260.686157 176.0
260.805084 180.0
261.274597 144.0
262.044067 148.0
262.456635 176.0
263.043823 140.0
263.182159 184.0
263.407715 136.0
263.547638 216.0
263.815918 156.0
263.841766 144.0
263.886414 112.0
263.92511 108.0
263.965881 208.0
264.061279 91200.0
264.160675 140.0
264.224854 160.0
264.595337 120.0
264.676697 168.0
264.94397 148.0
265.06366 10836.0
265.13443 228.0
265.254913 108.0
265.510895 112.0
265.54306 124.0
265.63913 136.0
265.74942 152.0
266.0578 24832.0
266.371246 136.0
266.535889 120.0
266.645996 132.0
266.732422 160.0
266.821899 128.0
266.856171 124.0
266.99942 288.0
267.061157 2304.0
267.137512 156.0
267.180145 96.0
268.910309 120.0
269.030121 176.0
278.207733 96.0
340.212341 140.0
399.913055 156.0
781.3927 144.0
969.741333 160.0
1107.367188 208.0
1159.523438 156.0
1171.101196 144.0
1255.454468 236.0
1272.209961 172.0
1314.194824 208.0
1336.243164 148.0
1350.339844 116.0
1357.418701 164.0
1362.887329 172.0
1379.603271 168.0
1391.397827 156.0
1397.797485 140.0
1398.519409 184.0
1426.105103 144.0
1436.768188 156.0
1456.746826 144.0
1491.528564 220.0
1532.465088 168.0
1537.393311 144.0
1586.548218 248.0
1599.998657 156.0
1601.774536 144.0
1610.588867 168.0
1612.370605 192.0
1618.922852 176.0
1624.854492 196.0
1633.177002 160.0
1659.917969 168.0
1664.291626 164.0
1668.63855 196.0
1671.404053 176.0
1672.934204 176.0
1674.978271 184.0
1688.405029 196.0
1708.11499 168.0
1708.657959 240.0
1711.464722 144.0
1726.103149 168.0
1729.428955 172.0
1731.913086 164.0
1743.587036 144.0
1744.46814 168.0
1755.158569 224.0
1759.26355 148.0
1760.941895 188.0
1761.451416 220.0
1766.98584 140.0
1769.237183 176.0
1788.031616 212.0
1788.115723 160.0
1791.601807 256.0
1825.24646 144.0
1831.859619 184.0
1834.79126 172.0
1840.610352 176.0
1841.344849 152.0
1849.090942 152.0
1860.912354 156.0
1879.469971 144.0
1879.910156 208.0
1893.266846 168.0
1896.895996 196.0
1904.290161 144.0
1910.505493 168.0
1914.300415 212.0
1918.508911 168.0
1925.218872 172.0
1951.718628 192.0
1959.07666 172.0
1964.983521 176.0
1969.309082 200.0
1987.368896 188.0
1989.800903 152.0
1991.248291 184.0
1994.509277 212.0
1995.478271 172.0
1995.833984 192.0
2001.983032 228.0
