>compound Tryptmanine
>formula C10H12N2
>ionization [M+H]+
>parentmass 161.106
#inchi InChI=1S/C10H12N2/c11-6-5-8-7-12-10-4-2-1-3-9(8)10/h1-4,7,12H,5-6,11H2
#inchikey APJYDQYYACXCRM
#Ion_Source ESI
#Instrument Q-TOF
#Compound_Source Commercial standard
#PI Dorrestein
#Data_Collector Amina
#Scan -1
#Precursor_MZ 161.106
#ExactMass 160.1
#Charge 1
#CAS_Number 61-54-1
#Pubmed_ID N/A
#Smiles C1=CC=C2C(=C1)C(=CN2)CCN
#INCHI_AUX N/A
#Library_Class 2
#SpectrumID CCMSLIB00000077203
#IonMode Positive
#UpdateWorkflowName UPDATE-SINGLE-ANNOTATED-SILVER
#LibraryQualityString Silver
#TaskID 9bb88c04c6204bd4ae13def29ea30c87
##Scan# 400
#SpectrumFile Tryptmanine.mzXML
#LibraryName gnps_library.mgf
#MQScore -1
#Organism Standards_Silver
#TIC_Query 0
#RT_Query -1
#MZErrorPPM -1
#SharedPeaks 0
#MassDiff 0
#LibMZ -1
#SpecMZ 161.106
#SpecCharge 0
#internalFilename spec-00000.mgf

>collision 10
89.036446 192.0
103.052063 176.0
115.052803 372.0
116.05584 144.0
117.065216 452.0
117.937454 240.0
118.063354 188.0
118.937401 148.0
121.953773 160.0
126.82 88.0
126.961136 104.0
127.051682 388.0
127.829849 140.0
128.047745 196.0
128.952087 120.0
129.117004 80.0
130.56282 184.0
132.080658 176.0
142.062988 156.0
143.071274 800.0
144.078827 5492.0
144.159317 84.0
144.675552 88.0
145.082504 1036.0
145.360504 92.0
145.780426 96.0
145.830856 144.0
146.078339 164.0
154.249084 128.0
154.874619 104.0
155.05925 928.0
161.053253 168.0
162.099838 112.0
