>compound MLS001076814-01!(2S)-2-[[2-(3-hexyl-4-methyl-2-oxochromen-7-yl)oxyacetyl]amino]-3-phenylpropanoic acid
>formula C27H31NO6
>ionization [M+H]+
>parentmass 466.22241416409054
#inchi InChI=1S/C27H31NO6/c1-3-4-5-9-12-22-18(2)21-14-13-20(16-24(21)34-27(22)32)33-17-25(29)28-23(26(30)31)15-19-10-7-6-8-11-19/h6-8,10-11,13-14,16,23H,3-5,9,12,15,17H2,1-2H3,(H,28,29)(H,30,31)/t23-/m0/s1
#inchikey TZBDNQFYNGKIER
#Ion_Source LC-ESI
#Instrument qTof
#Compound_Source NIH Natural Product Library
#PI Dorrestein
#Data_Collector VVP/LMS
#Scan -1
#Precursor_MZ 466.223
#ExactMass 465.215
#Charge 1
#CAS_Number N/A
#Pubmed_ID N/A
#Smiles CCCCCCc1c(C)c2ccc(OCC(=O)N[C@@H](Cc3ccccc3)C(=O)O)cc2oc1=O
#INCHI_AUX N/A
#Library_Class 1
#SpectrumID CCMSLIB00000079451
#IonMode Positive
#UpdateWorkflowName UPDATE-SINGLE-ANNOTATED-GOLD
#LibraryQualityString Gold
#TaskID b1d8e8f6646f4e71acdff9ca3d919d08
##Scan# 2625
#SpectrumFile p1-E06_GE6_01_17926.mzXML
#LibraryName NIH_Natural_Products_Library.mgf
#MQScore -1
#Organism NIH_Natural_Products_Library
#TIC_Query 0
#RT_Query -1
#MZErrorPPM -1
#SharedPeaks 0
#MassDiff 0
#LibMZ -1
#SpecMZ 466.223
#SpecCharge 0
#internalFilename spec-00000.mgf

>collision 10
95.032349 112.0
95.053696 144.0
95.086884 184.0
95.288628 152.0
95.378021 116.0
95.457733 152.0
95.51413 188.0
95.572739 288.0
95.800278 208.0
95.851471 156.0
95.874146 224.0
95.9133 112.0
95.932793 160.0
95.99128 136.0
96.018578 172.0
96.338692 180.0
96.364082 160.0
96.397301 140.0
96.629982 144.0
96.718529 192.0
96.815933 204.0
96.855103 48.0
96.917793 184.0
96.965515 180.0
96.994225 196.0
97.054077 120.0
97.063759 128.0
97.389786 180.0
97.416107 172.0
97.433784 168.0
97.4888 200.0
97.74247 200.0
97.82119 116.0
97.90979 248.0
98.053612 156.0
98.113571 124.0
98.148232 156.0
98.250786 60.0
98.278412 48.0
98.302086 156.0
98.427948 200.0
98.847473 132.0
98.891479 152.0
98.977989 64.0
99.025642 156.0
99.043472 196.0
99.120735 52.0
99.402306 204.0
99.648514 156.0
99.747879 136.0
99.813484 80.0
99.883087 104.0
99.899002 216.0
99.988541 116.0
100.022377 124.0
100.061165 148.0
100.105995 144.0
100.139847 168.0
100.283302 104.0
100.392952 124.0
100.464752 152.0
100.486702 236.0
100.596458 172.0
100.718262 108.0
100.84214 224.0
100.934799 200.0
100.988098 272.0
101.044106 72.0
101.138161 112.0
101.168182 28.0
101.24292 172.0
101.348434 172.0
101.370476 116.0
101.65522 184.0
101.72747 164.0
101.766747 184.0
101.787704 156.0
101.857994 128.0
101.918266 152.0
101.962471 152.0
102.014732 176.0
102.044891 204.0
102.235977 116.0
102.360786 196.0
102.40509 144.0
102.471275 140.0
102.663048 164.0
102.749786 200.0
102.788116 180.0
102.808296 52.0
102.899132 76.0
102.941528 168.0
102.971825 168.0
102.996056 180.0
103.054512 3332.0
103.082199 144.0
103.173882 204.0
103.266899 152.0
103.297241 188.0
103.35054 180.0
103.394356 192.0
103.4571 220.0
103.499619 104.0
103.525948 224.0
103.548218 112.0
103.635323 240.0
103.815727 72.0
103.840065 200.0
103.878601 172.0
103.921204 68.0
103.942757 148.0
104.014557 160.0
104.058723 748.0
104.132324 184.0
104.160759 96.0
104.179039 164.0
104.211548 184.0
104.284698 204.0
104.305023 184.0
104.388382 52.0
104.445328 200.0
104.459564 48.0
104.577583 84.0
104.602005 128.0
104.679367 188.0
104.864754 196.0
104.94426 72.0
105.038124 284.0
105.070015 12028.0
105.111511 56.0
105.137817 144.0
105.184982 216.0
105.334045 52.0
105.403503 96.0
105.417809 220.0
105.468903 44.0
105.493431 52.0
105.552727 40.0
105.638618 108.0
105.66317 56.0
105.740929 72.0
105.966171 104.0
106.07338 1896.0
106.10759 124.0
106.222427 116.0
106.442024 40.0
106.456398 128.0
106.554993 228.0
106.594032 116.0
106.686516 56.0
106.719414 168.0
106.748199 100.0
106.883957 68.0
106.941582 208.0
107.048767 1648.0
107.084076 372.0
107.330933 204.0
107.541351 104.0
107.582634 160.0
107.603279 164.0
107.69001 152.0
107.714798 128.0
107.824303 188.0
107.878036 132.0
107.954536 176.0
107.98349 168.0
108.014519 168.0
108.039337 224.0
108.066238 60.0
108.10762 132.0
108.171776 52.0
108.267021 72.0
108.28566 152.0
108.336456 176.0
108.420319 192.0
108.447639 176.0
108.494942 156.0
108.557144 172.0
108.714798 196.0
108.812355 180.0
108.874649 60.0
108.903725 184.0
109.028374 48.0
109.064499 324.0
109.097176 160.0
109.320526 148.0
109.359055 60.0
109.481888 176.0
109.629799 124.0
109.646469 152.0
109.859146 156.0
109.967651 152.0
110.027275 184.0
110.107529 32.0
110.228966 184.0
110.318565 148.0
110.427292 244.0
110.623978 80.0
110.638634 192.0
110.902565 52.0
111.001099 128.0
111.049332 168.0
111.083153 160.0
111.210884 160.0
111.349449 36.0
111.483902 152.0
111.671013 136.0
111.803551 148.0
111.847755 124.0
111.868805 180.0
111.999352 68.0
112.136307 228.0
112.254364 144.0
112.271233 124.0
112.334503 152.0
112.387245 104.0
112.735657 168.0
112.758904 172.0
112.824432 144.0
113.097305 108.0
113.260345 104.0
113.294235 164.0
113.410782 204.0
113.546471 192.0
113.614349 136.0
113.688606 160.0
113.720444 80.0
113.879684 164.0
113.924286 28.0
114.119812 184.0
114.215508 48.0
114.409149 168.0
114.532654 176.0
114.588043 136.0
114.690331 164.0
114.74575 120.0
114.773468 144.0
114.848106 164.0
114.909134 184.0
115.054382 3600.0
115.08712 68.0
115.168266 84.0
115.202446 80.0
115.319969 212.0
115.399063 128.0
115.583008 188.0
115.609039 120.0
115.657906 196.0
115.711426 128.0
115.822777 124.0
115.852768 128.0
116.058762 1464.0
116.090332 172.0
116.19149 152.0
116.273026 152.0
116.300926 164.0
116.353287 112.0
116.37606 64.0
116.42115 72.0
116.466637 180.0
116.792961 36.0
116.82093 156.0
116.883316 232.0
116.933701 156.0
117.008156 168.0
117.058929 7856.0
117.09552 160.0
117.158241 52.0
117.182602 156.0
117.210609 36.0
117.273109 144.0
117.398148 72.0
117.523254 116.0
117.549149 204.0
117.652748 52.0
117.771515 72.0
117.799591 28.0
117.83416 120.0
117.89682 144.0
117.948692 160.0
118.017868 152.0
118.075073 1884.0
118.115189 64.0
118.21904 144.0
118.274422 168.0
118.348915 160.0
118.416046 148.0
118.463692 184.0
118.619804 96.0
118.697762 184.0
118.714211 196.0
118.749809 124.0
118.890823 32.0
118.917938 116.0
118.975479 176.0
119.04731 352.0
119.08429 784.0
119.136177 148.0
119.183975 36.0
119.346992 112.0
119.42688 152.0
119.520927 124.0
119.631996 180.0
119.666824 148.0
119.703842 40.0
119.74086 80.0
119.75901 120.0
119.90583 144.0
119.958748 160.0
120.081329 13932.0
120.108086 140.0
120.111916 208.0
120.163742 28.0
120.212418 100.0
120.244484 156.0
120.29126 204.0
120.331795 80.0
120.414772 84.0
120.516258 228.0
120.569885 168.0
120.593925 176.0
120.655136 80.0
120.670433 144.0
120.7929 92.0
120.847458 64.0
120.939507 84.0
120.991348 104.0
121.064514 820.0
121.084473 1124.0
121.125618 168.0
121.171623 120.0
121.263657 92.0
121.314072 80.0
121.574623 196.0
121.594826 136.0
121.637726 220.0
121.749931 196.0
121.777054 64.0
121.805603 100.0
122.00338 76.0
122.040749 68.0
122.062737 52.0
122.082405 140.0
122.100121 160.0
122.196907 144.0
122.278328 176.0
122.335106 176.0
122.474281 128.0
122.66404 168.0
122.729912 240.0
122.877182 184.0
122.963745 160.0
123.042099 676.0
123.080742 172.0
123.115349 180.0
123.172714 204.0
123.266289 160.0
123.286179 212.0
123.42765 48.0
123.797188 168.0
123.943382 148.0
124.046341 152.0
124.063065 228.0
124.131798 48.0
124.198326 120.0
124.220512 240.0
124.466858 96.0
124.705299 192.0
124.786804 128.0
124.804596 84.0
124.935814 48.0
124.984756 176.0
125.162827 132.0
125.307602 92.0
125.633087 148.0
125.671013 52.0
125.932198 132.0
126.093056 144.0
126.289803 168.0
126.319504 260.0
126.336777 188.0
126.370338 120.0
126.401665 188.0
126.609848 156.0
126.856308 84.0
126.961685 144.0
127.031319 176.0
127.159004 224.0
127.305038 192.0
127.482498 200.0
127.55442 124.0
127.653847 324.0
127.760582 128.0
127.862556 188.0
127.913132 176.0
128.060623 156.0
128.063248 444.0
128.121506 196.0
128.362656 88.0
128.536346 176.0
128.744034 104.0
128.870514 84.0
128.964508 156.0
128.982513 208.0
129.010635 268.0
129.068054 512.0
129.094131 224.0
129.153091 172.0
129.207382 196.0
129.27301 36.0
129.424667 124.0
129.465424 136.0
129.590012 64.0
129.668365 172.0
129.739578 108.0
129.780273 152.0
130.065002 9656.0
130.103226 148.0
130.138885 68.0
130.159317 180.0
130.19252 96.0
130.236526 84.0
130.280792 196.0
130.304672 64.0
130.325119 80.0
130.391022 84.0
130.46376 112.0
130.489487 140.0
130.511505 88.0
130.531967 48.0
130.550156 92.0
130.668442 116.0
130.732147 204.0
130.785309 144.0
130.843674 176.0
130.966644 160.0
131.048355 940.0
131.080673 1500.0
131.146637 48.0
131.178558 80.0
131.28508 204.0
131.304733 152.0
131.36554 136.0
131.413452 116.0
131.536682 124.0
131.584015 196.0
131.623428 180.0
131.654541 32.0
131.669449 188.0
131.723465 216.0
131.771896 64.0
131.806168 160.0
131.824448 280.0
131.853531 204.0
131.913589 272.0
131.941116 192.0
131.9702 152.0
131.997253 192.0
132.020554 200.0
132.055176 492.0
132.0811 58180.0
132.161285 88.0
132.189667 84.0
132.247543 48.0
132.275009 64.0
132.292175 152.0
132.3358 108.0
132.375076 164.0
132.394058 52.0
132.415924 44.0
132.437576 88.0
132.457474 192.0
132.483383 72.0
132.513168 48.0
132.593369 28.0
132.636917 200.0
132.697479 144.0
132.735504 64.0
132.798004 208.0
132.904465 48.0
132.955978 140.0
133.024582 168.0
133.064362 1680.0
133.08432 5600.0
133.137085 44.0
133.160049 104.0
133.189911 36.0
133.25882 76.0
133.302475 44.0
133.343842 76.0
133.420334 160.0
133.51384 68.0
133.599457 72.0
133.711823 48.0
133.771927 104.0
133.82692 168.0
133.900604 112.0
133.92305 48.0
133.944366 136.0
133.96048 48.0
133.992737 108.0
134.008865 92.0
134.033661 100.0
134.072464 180.0
134.090424 164.0
134.158661 128.0
134.174805 216.0
134.204254 124.0
134.271652 64.0
134.292404 132.0
134.428513 80.0
134.500061 192.0
134.643448 80.0
134.834961 152.0
134.865005 196.0
134.927414 88.0
134.945908 144.0
134.962097 56.0
134.989853 100.0
135.04361 864.0
135.080276 836.0
135.123993 76.0
135.142502 120.0
135.237381 304.0
135.355453 44.0
135.387878 116.0
135.589417 180.0
135.705322 172.0
135.781845 180.0
135.944244 116.0
136.046356 156.0
136.411072 44.0
136.434311 148.0
136.464539 192.0
136.848434 104.0
137.002136 72.0
137.057892 128.0
137.113983 184.0
137.162933 208.0
137.377457 152.0
137.809357 180.0
137.91452 140.0
138.058914 200.0
138.365982 64.0
138.518204 148.0
138.705658 68.0
138.83696 124.0
138.862762 184.0
139.076263 128.0
139.355713 144.0
139.39566 172.0
139.564896 296.0
139.717773 84.0
140.070877 168.0
140.18396 100.0
140.358398 180.0
140.587204 60.0
140.922501 132.0
141.065323 160.0
141.116318 236.0
141.206177 112.0
141.558777 128.0
141.577728 40.0
141.658249 80.0
141.715118 48.0
141.8573 176.0
142.02803 236.0
142.065872 168.0
142.203613 168.0
142.274826 236.0
142.407791 116.0
142.448166 136.0
142.742874 84.0
142.866547 172.0
142.916519 152.0
142.975998 176.0
143.083694 684.0
143.183121 104.0
143.447601 148.0
143.492889 176.0
143.538193 120.0
143.647903 124.0
143.876984 64.0
144.054825 572.0
144.081024 160.0
144.371582 88.0
144.493576 180.0
144.553391 172.0
144.635712 140.0
145.063385 3188.0
145.101227 1820.0
145.308136 88.0
145.363327 200.0
145.416122 60.0
145.661026 124.0
145.971054 68.0
146.071609 684.0
146.105576 296.0
146.150787 200.0
146.165894 240.0
146.3685 256.0
146.389206 188.0
146.406616 92.0
146.531876 180.0
146.589706 204.0
146.671646 64.0
146.719849 64.0
146.804245 96.0
146.852478 116.0
146.958618 108.0
147.044907 692.0
147.080475 3404.0
147.113251 392.0
147.402893 224.0
147.512817 188.0
147.697845 180.0
147.765579 52.0
147.944656 128.0
148.052414 400.0
148.082932 512.0
148.225616 52.0
148.373459 52.0
148.449249 248.0
148.560196 56.0
148.793167 180.0
148.93158 128.0
148.96315 204.0
148.985016 192.0
149.002014 56.0
149.028198 228.0
149.059357 1128.0
149.096786 176.0
149.206161 176.0
149.471268 172.0
149.646515 148.0
149.841354 116.0
149.90715 52.0
149.92421 76.0
150.03389 168.0
150.05574 176.0
150.089294 760.0
150.190964 184.0
150.531616 124.0
151.03508 400.0
151.090683 180.0
151.409531 148.0
151.931625 136.0
152.076401 132.0
152.258072 240.0
152.368607 128.0
152.518509 192.0
153.074509 92.0
153.141006 128.0
153.355362 144.0
154.083298 380.0
155.026016 160.0
155.058228 200.0
155.086075 260.0
155.162338 168.0
155.254074 44.0
155.281357 184.0
155.375626 116.0
155.546738 176.0
155.579117 116.0
155.678436 152.0
155.836899 192.0
155.889587 144.0
156.043686 180.0
156.08783 424.0
156.222748 128.0
156.307343 48.0
156.47908 112.0
157.017303 140.0
157.065872 144.0
157.096481 448.0
157.216888 140.0
157.763885 176.0
158.070572 288.0
158.10643 440.0
158.28595 192.0
158.314331 40.0
158.356903 120.0
158.406998 136.0
158.815567 188.0
158.994415 140.0
159.016281 112.0
159.043777 184.0
159.080017 2588.0
159.115021 316.0
159.259827 184.0
159.372879 76.0
159.470871 92.0
159.523666 32.0
159.677032 88.0
159.825455 56.0
159.936188 76.0
159.973938 168.0
160.052429 204.0
160.078064 660.0
160.114944 144.0
160.253494 92.0
160.34169 184.0
160.412262 208.0
160.465195 56.0
160.492935 184.0
160.861267 152.0
161.059769 6124.0
161.088593 836.0
161.18454 28.0
161.209808 80.0
161.240128 92.0
161.284164 156.0
161.3564 28.0
161.5056 40.0
161.61438 68.0
161.678879 228.0
161.789017 40.0
161.854843 56.0
161.892822 228.0
161.940933 100.0
162.066818 1964.0
162.094269 76.0
162.42865 72.0
162.600128 56.0
162.648346 76.0
162.694031 96.0
162.861633 156.0
162.887024 64.0
162.970871 116.0
163.006439 36.0
163.035461 432.0
163.075012 1204.0
163.113174 208.0
163.200806 68.0
163.352615 100.0
163.492142 164.0
163.601593 44.0
163.90976 108.0
163.927597 156.0
164.082123 144.0
164.202927 136.0
164.228424 96.0
164.259033 92.0
164.458054 148.0
165.076309 204.0
165.176056 188.0
165.380753 192.0
165.746964 144.0
165.77771 188.0
166.062271 204.0
166.084213 460.0
166.418961 140.0
166.452347 116.0
166.77861 228.0
167.083862 136.0
167.110352 136.0
167.175049 140.0
167.215851 188.0
167.316238 132.0
167.339401 176.0
167.540283 76.0
167.617584 212.0
168.019791 148.0
168.055908 164.0
168.0914 192.0
168.257217 204.0
168.324356 116.0
169.014496 128.0
169.058487 164.0
169.105179 512.0
169.187912 76.0
169.472794 60.0
169.532394 84.0
170.045883 172.0
170.068878 124.0
170.108398 172.0
170.3237 148.0
170.653732 252.0
170.796707 168.0
171.081177 532.0
171.116425 128.0
171.223602 132.0
171.273087 32.0
171.314774 112.0
171.426804 228.0
171.514526 152.0
171.757904 192.0
171.778778 228.0
171.875305 240.0
171.966644 184.0
172.057999 124.0
172.083405 164.0
172.12468 160.0
172.536087 176.0
172.68251 112.0
172.758362 48.0
172.894424 84.0
173.059845 1848.0
173.093948 492.0
173.12648 480.0
173.237427 76.0
173.26886 68.0
173.383469 160.0
173.486374 96.0
173.586868 148.0
173.775208 60.0
174.064331 496.0
174.103653 152.0
174.591766 84.0
174.63385 160.0
174.696976 56.0
174.775909 56.0
174.889069 184.0
174.925919 64.0
174.975937 124.0
174.994354 200.0
175.033859 64.0
175.075272 3180.0
175.117477 212.0
175.128098 160.0
175.146606 172.0
175.168976 92.0
175.195923 60.0
175.223495 108.0
175.452774 152.0
175.471222 72.0
175.605576 76.0
176.055969 184.0
176.077957 596.0
176.145721 184.0
176.241913 196.0
176.265686 52.0
176.331757 148.0
176.35025 156.0
176.593491 112.0
176.842194 40.0
176.963974 76.0
177.019577 80.0
177.055115 1652.0
177.089371 672.0
177.114914 56.0
177.137543 140.0
177.173187 104.0
177.25798 64.0
177.327759 84.0
177.382538 52.0
177.523438 120.0
178.05928 284.0
178.086716 1120.0
178.497604 148.0
178.582703 156.0
178.65451 228.0
178.872726 188.0
178.981873 180.0
179.0298 44.0
179.08812 168.0
179.370834 144.0
179.514801 236.0
179.565475 48.0
179.600708 76.0
179.7202 104.0
180.067215 128.0
180.24086 204.0
180.698059 132.0
180.882721 188.0
181.062103 140.0
181.437225 164.0
181.598114 76.0
182.051666 48.0
182.110901 352.0
182.465454 220.0
182.661758 180.0
183.078934 108.0
183.315994 172.0
184.100998 136.0
184.295486 140.0
184.490601 164.0
184.519806 192.0
184.598221 172.0
185.041962 168.0
185.095001 136.0
185.131317 292.0
185.19632 48.0
185.296539 160.0
186.012466 52.0
186.058624 96.0
186.102524 208.0
186.126495 124.0
186.294876 136.0
186.616837 120.0
186.980072 100.0
187.040558 144.0
187.075195 352.0
187.107071 488.0
187.147797 27400.0
187.200851 84.0
187.25618 48.0
187.314819 76.0
187.353104 172.0
187.388519 76.0
187.41304 36.0
187.476166 48.0
187.508423 28.0
187.532944 44.0
187.560196 48.0
187.621216 136.0
187.723785 128.0
187.827423 76.0
187.909256 96.0
187.942001 76.0
188.044754 196.0
188.054947 92.0
188.081512 356.0
188.115738 188.0
188.150543 3504.0
188.188431 180.0
188.208572 48.0
188.234055 88.0
188.281784 76.0
188.315994 84.0
188.343307 56.0
188.433456 52.0
188.466232 80.0
188.490829 112.0
188.559143 40.0
188.616547 136.0
188.641144 204.0
188.684891 44.0
188.78009 132.0
188.848953 184.0
188.974792 128.0
189.022537 224.0
189.053955 6312.0
189.090164 564.0
189.157303 620.0
189.229324 40.0
189.327896 40.0
189.371719 52.0
189.390884 60.0
189.437454 140.0
189.51416 44.0
189.540192 128.0
189.571274 76.0
189.637482 128.0
189.660767 152.0
189.811615 84.0
189.892456 144.0
189.982971 188.0
190.0159 204.0
190.060471 3644.0
190.100357 56.0
190.164093 252.0
190.218964 260.0
190.251907 56.0
190.273865 60.0
190.51004 132.0
190.881638 120.0
190.996582 92.0
191.068283 1324.0
191.106628 152.0
191.147903 208.0
191.197433 48.0
191.271744 48.0
191.346069 88.0
191.416794 140.0
191.475494 80.0
191.497528 56.0
191.66832 64.0
191.778549 84.0
192.029449 144.0
192.067657 164.0
192.321915 80.0
192.617355 120.0
192.758255 92.0
192.785889 180.0
193.004257 76.0
193.078934 204.0
193.195099 168.0
193.350052 116.0
193.507828 68.0
194.344849 44.0
194.405899 140.0
195.075241 184.0
195.123108 204.0
195.306046 96.0
195.333862 180.0
195.943512 128.0
196.015945 96.0
196.085617 120.0
196.135788 52.0
196.397888 104.0
196.998032 152.0
197.09581 172.0
197.132904 772.0
197.274673 48.0
197.568298 148.0
198.105789 164.0
198.983566 140.0
199.011642 124.0
199.06781 68.0
199.113159 132.0
199.148453 156.0
199.379623 276.0
199.643875 140.0
200.07576 348.0
200.113785 164.0
200.61525 124.0
200.671646 64.0
201.054062 376.0
201.090317 212.0
201.117355 160.0
201.204865 144.0
201.402527 172.0
201.789673 52.0
202.055511 152.0
202.230957 144.0
202.298889 100.0
202.936325 176.0
203.069397 3136.0
203.106537 172.0
203.124557 192.0
203.131104 176.0
203.256836 60.0
203.54068 124.0
204.07074 496.0
204.191437 40.0
204.441788 124.0
204.527176 128.0
205.04863 296.0
205.084564 1836.0
205.15918 332.0
205.37056 180.0
205.473251 72.0
205.598801 68.0
205.670151 52.0
206.007095 84.0
206.052811 368.0
206.096863 180.0
206.152802 144.0
206.324295 64.0
206.590256 204.0
206.618866 176.0
207.168518 140.0
207.561157 44.0
207.693085 232.0
207.718903 44.0
207.848007 132.0
207.893906 96.0
207.91687 76.0
208.117813 212.0
208.479736 188.0
208.772964 140.0
209.086533 144.0
209.172882 52.0
211.111694 148.0
211.6586 140.0
212.000412 204.0
212.11055 168.0
212.220718 48.0
213.056351 164.0
213.091415 184.0
213.128159 192.0
213.699066 72.0
214.016312 56.0
214.096252 380.0
214.161926 156.0
214.360031 128.0
214.706924 96.0
214.751572 196.0
214.852768 172.0
215.022003 188.0
215.057831 144.0
215.141891 9372.0
215.194229 152.0
215.252625 32.0
215.311035 36.0
215.430786 88.0
215.489212 72.0
215.57103 72.0
215.652847 64.0
215.687927 232.0
215.87796 96.0
216.075394 188.0
216.145447 2820.0
216.442719 92.0
216.785431 60.0
217.019928 152.0
217.049042 376.0
217.081497 600.0
217.120026 148.0
217.158081 776.0
217.289764 92.0
217.448212 56.0
217.589111 140.0
217.609665 72.0
217.636093 200.0
217.779984 164.0
217.826981 228.0
217.903351 60.0
218.055023 128.0
218.094849 196.0
218.162567 120.0
218.247238 80.0
218.297226 180.0
218.32074 44.0
218.350159 80.0
218.411926 84.0
218.479568 196.0
219.058182 204.0
219.103882 904.0
219.135544 108.0
219.165558 152.0
219.749344 180.0
219.955917 64.0
220.066589 164.0
220.104614 304.0
220.428452 188.0
220.52597 76.0
220.593964 136.0
221.087891 196.0
222.000305 56.0
222.1931 140.0
223.036453 148.0
223.104828 248.0
223.167252 84.0
223.408157 180.0
223.735504 196.0
223.812912 52.0
224.766739 144.0
225.076309 196.0
225.117905 332.0
225.238434 48.0
225.573105 92.0
225.884079 156.0
225.952881 192.0
226.096512 116.0
226.152023 160.0
226.288086 140.0
227.138641 332.0
228.109924 564.0
228.148499 332.0
228.214279 172.0
228.400726 56.0
228.539261 80.0
229.059586 144.0
229.093063 124.0
229.123184 300.0
229.159424 148.0
229.689911 96.0
230.052017 168.0
230.079956 164.0
230.181839 112.0
230.674301 140.0
231.099106 480.0
231.818344 28.0
232.094177 120.0
232.141769 328.0
232.467285 160.0
232.722244 156.0
233.090637 436.0
233.11409 176.0
233.151505 248.0
233.205261 132.0
233.746582 128.0
233.877441 112.0
233.937088 184.0
234.099686 156.0
234.121002 36.0
234.151459 148.0
234.611557 188.0
234.751801 120.0
235.111771 132.0
235.175858 108.0
235.46286 32.0
236.070999 192.0
236.25145 116.0
236.875931 52.0
237.124115 124.0
237.439896 48.0
237.924698 124.0
238.09581 228.0
238.839798 156.0
238.957321 104.0
239.108093 184.0
240.101532 176.0
240.874802 56.0
241.245621 136.0
242.26683 108.0
242.458939 200.0
242.883698 164.0
242.955032 188.0
243.072937 160.0
243.137115 4236.0
243.3647 48.0
243.457855 80.0
244.140106 548.0
244.312607 144.0
244.804382 124.0
244.882233 96.0
244.925842 120.0
245.047333 200.0
245.081604 184.0
245.117065 428.0
245.151642 3052.0
245.256119 116.0
245.365219 88.0
245.402634 200.0
245.502411 104.0
245.967285 48.0
246.079666 156.0
246.116608 192.0
246.154099 1308.0
246.210815 132.0
246.298264 72.0
246.767014 36.0
246.801407 172.0
247.051605 116.0
247.07518 200.0
247.101654 48.0
247.129898 148.0
247.161377 136.0
247.298798 120.0
247.342621 52.0
247.539856 216.0
247.862503 120.0
247.981583 164.0
248.44252 96.0
248.828522 132.0
250.098511 212.0
251.037338 108.0
251.108383 264.0
251.952667 224.0
252.300293 60.0
253.445999 100.0
254.391098 80.0
254.854767 68.0
255.023193 176.0
255.134445 164.0
255.668808 252.0
256.079498 100.0
256.790222 192.0
257.061401 236.0
257.138794 140.0
258.12027 180.0
258.416168 128.0
258.464172 72.0
259.13797 108.0
259.245483 76.0
259.517944 60.0
260.101227 608.0
260.139862 880.0
260.201324 108.0
260.297638 104.0
260.397186 68.0
260.426117 176.0
260.62207 144.0
260.68634 148.0
261.033508 32.0
261.09137 120.0
261.147675 12128.0
261.190369 248.0
261.364807 192.0
261.448486 76.0
261.480652 48.0
261.528931 60.0
261.583649 116.0
261.627777 144.0
261.834808 44.0
261.98941 140.0
262.073181 120.0
262.104156 256.0
262.151825 2052.0
262.609985 68.0
262.682465 124.0
262.764526 68.0
262.992249 60.0
263.09491 124.0
263.145935 148.0
263.260193 56.0
263.302185 92.0
263.483063 36.0
263.544464 56.0
263.890289 64.0
263.919373 76.0
263.945251 56.0
264.029327 44.0
264.07785 36.0
264.11908 128.0
264.702423 84.0
264.864349 80.0
265.091125 280.0
265.1203 168.0
265.439789 36.0
265.7948 152.0
266.086914 180.0
267.130066 108.0
267.803864 164.0
269.101715 168.0
270.199829 160.0
270.226013 108.0
271.131439 1000.0
271.418243 136.0
271.490356 152.0
271.723267 120.0
271.959534 76.0
272.153198 172.0
272.281281 172.0
272.303741 128.0
272.346954 256.0
272.471771 184.0
272.553925 88.0
272.692596 180.0
272.731384 136.0
272.918762 44.0
273.015198 244.0
273.147064 17584.0
273.221344 196.0
273.24765 88.0
273.277283 72.0
273.305298 108.0
273.339783 68.0
273.448395 128.0
273.475891 112.0
273.53952 76.0
273.616272 32.0
273.731506 104.0
273.787476 68.0
273.853363 88.0
273.889923 140.0
273.958771 124.0
273.981812 80.0
274.089172 68.0
274.149963 3132.0
274.301453 68.0
274.64801 80.0
274.707062 72.0
274.819214 68.0
274.865417 56.0
275.037018 68.0
275.074158 160.0
275.156036 440.0
275.337463 48.0
275.562103 200.0
275.671143 40.0
275.707489 76.0
275.797211 80.0
275.856232 136.0
275.905792 80.0
275.958801 120.0
276.131165 536.0
276.286743 64.0
276.491272 60.0
276.706421 84.0
277.040894 104.0
277.100525 132.0
277.134033 140.0
277.538025 72.0
277.734985 76.0
278.125214 184.0
278.480499 84.0
278.867065 80.0
279.052032 112.0
279.101044 488.0
280.102814 424.0
280.800262 72.0
281.140533 172.0
282.824982 56.0
284.04129 60.0
285.151062 596.0
287.074921 224.0
287.127441 132.0
287.165985 68.0
289.111938 84.0
290.467163 252.0
291.102997 188.0
291.157837 168.0
291.400726 124.0
292.148651 112.0
293.112183 168.0
293.555298 172.0
293.746307 64.0
294.108002 84.0
295.201233 180.0
296.341064 48.0
297.030121 104.0
297.165436 36.0
299.40506 128.0
300.159302 240.0
301.141327 1352.0
301.66156 72.0
301.94165 80.0
302.138519 296.0
302.325653 52.0
303.161255 180.0
303.936951 168.0
305.726532 56.0
306.179108 120.0
307.182892 100.0
312.14917 136.0
313.254303 60.0
315.184113 148.0
317.293549 76.0
318.098816 148.0
318.166107 300.0
318.294067 128.0
318.677673 76.0
319.153046 272.0
319.837006 160.0
320.132477 104.0
321.894073 52.0
322.126221 180.0
322.76236 92.0
324.954346 88.0
326.398224 184.0
327.042175 176.0
327.337402 52.0
328.15509 152.0
331.07132 80.0
331.206421 128.0
332.383545 88.0
333.160492 124.0
333.187164 280.0
333.832916 68.0
334.178467 112.0
335.20462 188.0
337.139313 108.0
337.168549 204.0
337.673065 208.0
337.7901 100.0
338.518433 128.0
340.619934 76.0
345.167755 44.0
347.189636 132.0
352.539185 52.0
356.207123 96.0
359.18457 76.0
360.196198 144.0
361.176025 108.0
363.193817 1872.0
363.433014 84.0
363.72522 72.0
364.142883 72.0
364.197906 764.0
364.317627 44.0
364.735596 180.0
365.19516 116.0
365.385864 48.0
366.091858 108.0
366.672882 92.0
373.161194 140.0
375.202209 136.0
375.652832 40.0
376.189209 164.0
377.305664 92.0
378.175995 96.0
378.210846 120.0
380.210693 164.0
380.983398 108.0
381.877411 64.0
382.254761 48.0
385.17749 272.0
386.175476 108.0
387.808136 108.0
388.906342 40.0
392.217041 256.0
394.133636 208.0
401.168884 164.0
402.205566 140.0
403.144562 88.0
403.205566 228.0
404.187134 116.0
407.014069 76.0
408.70224 136.0
411.180511 84.0
412.169891 188.0
412.493195 116.0
414.237244 136.0
416.338196 188.0
418.09845 196.0
418.896484 152.0
419.136841 44.0
419.181671 116.0
419.214264 80.0
419.38443 112.0
419.60965 52.0
420.033752 92.0
420.139801 132.0
420.214233 6948.0
420.396851 88.0
420.429504 72.0
420.511139 84.0
420.674408 48.0
420.825439 60.0
421.054138 64.0
421.219391 1752.0
421.307373 216.0
421.401337 68.0
421.863129 48.0
422.034851 80.0
422.221069 460.0
422.738403 80.0
423.222382 132.0
423.614563 88.0
423.745667 104.0
423.777283 136.0
423.934143 116.0
424.04068 116.0
424.635162 108.0
424.676178 112.0
425.078217 92.0
426.499207 88.0
427.473877 92.0
429.669983 60.0
432.479919 68.0
436.071716 100.0
437.194611 160.0
439.700134 92.0
440.27536 48.0
448.216248 160.0
449.196594 104.0
453.469086 32.0
464.314362 92.0
465.259277 84.0
466.225159 336.0
467.218658 136.0
467.253357 180.0
468.540588 48.0
477.631256 56.0
478.928345 80.0
484.42337 72.0
496.198792 56.0
504.161896 116.0
504.367462 108.0
518.72229 168.0
529.498108 136.0
540.828918 48.0
561.914368 32.0
563.812561 60.0
566.338989 48.0
571.294617 76.0
571.670471 88.0
607.892944 44.0
612.99231 72.0
623.856201 88.0
642.147827 148.0
669.377808 36.0
680.884033 160.0
682.70813 96.0
689.574097 116.0
692.476501 80.0
701.663025 64.0
707.183105 128.0
725.887878 112.0
727.30957 76.0
729.834473 124.0
736.4953 192.0
744.130798 176.0
750.78009 96.0
761.067505 56.0
764.123352 184.0
768.172424 48.0
771.154663 188.0
778.672363 236.0
779.505615 48.0
784.119019 68.0
788.539185 164.0
789.696472 124.0
794.945801 44.0
797.484253 108.0
798.400635 48.0
798.754944 232.0
803.34021 208.0
812.935974 156.0
817.362549 40.0
818.956543 52.0
835.816101 152.0
837.577759 76.0
839.975647 172.0
848.261902 68.0
858.570496 220.0
860.548584 252.0
867.739014 208.0
868.812256 140.0
870.56134 64.0
870.737549 44.0
881.766357 92.0
884.197083 164.0
888.344604 116.0
889.175293 212.0
891.111084 228.0
894.619873 140.0
896.913208 72.0
899.14386 140.0
899.430359 220.0
907.842224 196.0
913.97522 152.0
914.396484 200.0
916.347473 188.0
923.089539 52.0
923.137878 156.0
930.663635 144.0
932.71698 176.0
934.620483 216.0
934.985596 196.0
939.726318 172.0
942.412781 152.0
942.767151 128.0
942.901611 80.0
944.723694 208.0
946.639404 172.0
947.398865 140.0
952.926453 112.0
953.639282 144.0
962.985779 140.0
963.720886 64.0
964.493408 36.0
966.589905 208.0
968.756836 156.0
972.309631 84.0
972.756531 204.0
979.09845 208.0
984.005737 124.0
990.622192 72.0
998.285522 156.0
1000.701721 104.0
1000.903198 156.0
1001.696777 208.0
1004.615356 164.0
1010.243896 136.0
1012.205933 112.0
1014.892517 120.0
1016.097534 204.0
1016.979614 196.0
1018.77655 128.0
1021.592712 96.0
1026.866699 156.0
1029.77063 156.0
1030.121948 156.0
1031.09314 192.0
1037.474731 116.0
1037.917114 160.0
1038.192871 168.0
1040.509155 168.0
1041.6073 212.0
1044.866455 160.0
1045.406982 72.0
1045.889648 232.0
1047.879517 172.0
1048.414307 76.0
1048.968628 136.0
1049.297363 136.0
1049.684204 68.0
1053.046387 200.0
1054.971924 264.0
1055.948364 172.0
1058.977295 144.0
1061.751099 136.0
1062.062378 156.0
1064.671509 204.0
1064.924683 184.0
1065.502808 248.0
1067.940552 160.0
1068.792725 212.0
1069.163574 176.0
1071.188477 164.0
1071.51416 44.0
1073.613037 44.0
1074.67627 160.0
1075.655151 228.0
1076.752075 252.0
1076.869629 184.0
1078.522705 164.0
1079.987305 212.0
1081.230347 168.0
1081.76709 200.0
1084.36084 80.0
1090.556519 156.0
1094.806641 180.0
1096.124023 168.0
1096.736938 172.0
1099.480591 104.0
1099.936035 100.0
1100.259521 144.0
1101.699097 164.0
1102.829102 76.0
1107.129395 84.0
1107.983887 124.0
1110.728271 124.0
1112.752197 176.0
1114.578735 104.0
1116.779175 216.0
1118.34729 244.0
1119.534424 272.0
1122.4198 204.0
1126.631226 204.0
1130.796997 148.0
1132.022095 192.0
1132.330078 188.0
1132.557861 184.0
1132.604736 116.0
1133.421997 148.0
1133.803955 192.0
1138.439575 180.0
1138.761841 156.0
1139.453735 196.0
1141.665161 164.0
1143.118164 168.0
1143.602783 156.0
1145.373535 104.0
1145.669922 112.0
1148.858643 244.0
1156.264038 180.0
1157.47583 124.0
1157.821167 164.0
1158.166626 184.0
1158.525635 144.0
1158.965942 108.0
1164.216187 72.0
1165.051636 164.0
1165.180664 152.0
1165.853394 168.0
1167.09729 196.0
1169.314941 84.0
1170.145386 188.0
1170.567627 116.0
1170.713867 156.0
1172.182007 164.0
1175.216187 212.0
1179.942383 164.0
1180.174805 184.0
1183.137329 120.0
1184.308228 204.0
1184.917847 120.0
1185.294678 84.0
1185.849854 152.0
1186.487305 128.0
1186.54895 148.0
1187.042603 128.0
1188.537964 140.0
1188.757568 140.0
1189.086914 148.0
1189.652344 128.0
1189.814575 212.0
1189.862671 136.0
1191.009399 84.0
1191.181152 148.0
1191.634521 228.0
1193.167114 100.0
1193.730957 64.0
1196.063232 152.0
1196.545044 88.0
1196.903076 136.0
1201.162109 188.0
1202.0625 20.0
1202.894165 168.0
1203.467163 152.0
1206.002441 160.0
1206.244385 144.0
1206.45166 216.0
1206.67981 124.0
1207.309082 244.0
1207.378174 184.0
1208.132202 148.0
1209.356934 212.0
1209.529907 164.0
1209.896851 172.0
1210.32605 112.0
1210.755371 104.0
1211.067139 152.0
1211.171021 176.0
1214.109619 264.0
1214.386963 92.0
1214.518799 28.0
1214.699097 52.0
1215.677368 124.0
1215.809204 44.0
1216.114624 156.0
1216.174438 180.0
1216.221313 180.0
1221.103149 128.0
1222.188354 124.0
1222.918945 188.0
1223.343628 140.0
1223.782227 148.0
1224.388062 128.0
1224.548218 216.0
1224.624634 180.0
1226.401489 144.0
1227.858643 168.0
1228.786377 104.0
1229.225952 80.0
1229.728394 140.0
1230.084351 180.0
1230.335693 196.0
1230.61499 152.0
1230.691772 132.0
1231.257324 232.0
1232.766235 160.0
1233.052856 192.0
1234.206299 244.0
1235.55603 188.0
1238.342041 32.0
1238.62915 132.0
1239.848267 160.0
1240.163696 176.0
1241.292358 164.0
1241.664062 212.0
1242.407593 236.0
1242.814453 196.0
1243.396851 240.0
1243.768921 152.0
1244.309448 312.0
1244.576172 36.0
1245.615601 184.0
1245.699829 148.0
1246.683472 136.0
1247.224609 204.0
1247.372314 240.0
1248.757446 164.0
1249.318481 248.0
1249.369385 168.0
1250.298218 132.0
1250.910522 176.0
1251.141602 136.0
1251.515991 208.0
1252.480713 88.0
1253.819336 220.0
1253.988525 60.0
1254.876709 204.0
1255.518433 176.0
1256.407104 188.0
1256.661133 208.0
1257.112671 196.0
1257.444336 264.0
1258.058472 180.0
1258.326782 316.0
1260.622314 160.0
1260.81311 116.0
1261.33606 180.0
1264.342041 188.0
1265.56665 220.0
1266.182739 160.0
1267.075195 212.0
1267.422363 180.0
1269.442505 152.0
1269.591431 164.0
1269.726196 164.0
1269.938965 140.0
1270.960449 156.0
1271.36499 152.0
1272.032104 144.0
1272.834351 128.0
1273.253296 188.0
1273.778931 132.0
1274.07019 32.0
1274.48938 196.0
1275.143066 176.0
1276.202271 96.0
1276.287598 136.0
1276.564941 180.0
1277.802612 124.0
1278.457153 196.0
1279.119141 236.0
1279.233032 220.0
1280.251099 172.0
1280.578491 228.0
1281.077271 208.0
1281.241211 128.0
1282.388428 172.0
1283.671631 120.0
1286.896729 184.0
1287.853638 168.0
1288.446533 220.0
1288.646606 148.0
1288.925293 200.0
1289.761353 176.0
1289.97583 164.0
1290.469116 180.0
1293.802979 232.0
1293.996338 212.0
1294.440186 176.0
1294.970215 120.0
1296.202393 144.0
1298.611084 168.0
1301.187134 156.0
1301.862183 160.0
1302.537231 112.0
1302.889282 64.0
1304.017334 168.0
1304.233032 120.0
1304.736206 160.0
1306.25354 168.0
1306.325439 172.0
1306.440552 140.0
1306.742676 216.0
1307.706909 196.0
1307.764526 144.0
1309.125244 148.0
1309.571655 204.0
1310.962158 132.0
1311.538696 176.0
1312.439819 160.0
1312.591309 196.0
1312.785889 56.0
1312.922974 132.0
1313.586548 196.0
1314.32959 176.0
1314.892456 116.0
1316.264038 168.0
1316.509521 180.0
1316.581787 68.0
1317.029541 120.0
1317.094604 108.0
1318.077148 140.0
1318.236084 104.0
1319.20459 116.0
1320.513306 140.0
1321.359619 144.0
1321.540527 96.0
1322.869385 140.0
1324.762085 240.0
1325.22583 204.0
1325.573608 144.0
1325.906982 184.0
1327.226196 232.0
1329.25 228.0
1331.464111 120.0
1331.572998 108.0
1331.848999 152.0
1332.212158 236.0
1332.437378 96.0
1332.946045 144.0
1333.948975 156.0
1334.486938 184.0
1335.177734 200.0
1336.952759 136.0
1337.986328 120.0
1338.248413 148.0
1339.260742 96.0
1339.377197 140.0
1340.393433 224.0
1341.096802 220.0
1341.203979 112.0
1343.860596 140.0
1344.787354 208.0
1345.137695 184.0
1345.72168 236.0
1347.321167 164.0
1347.774048 136.0
1349.228516 140.0
1349.806152 108.0
1350.12793 168.0
1350.508057 196.0
1350.705688 188.0
1350.990967 120.0
1352.154419 196.0
1353.655029 96.0
1354.050537 184.0
1354.262939 92.0
1354.81958 204.0
1355.376465 124.0
1355.486328 148.0
1355.838135 128.0
1356.336426 140.0
1357.414185 160.0
1358.081543 172.0
1359.071899 176.0
1359.321411 120.0
1359.7323 144.0
1360.789307 156.0
1361.141846 184.0
1361.362061 152.0
1361.927612 204.0
1362.074463 204.0
1362.889893 144.0
1363.962891 220.0
1364.867188 140.0
1365.32312 96.0
1368.766968 128.0
1368.825806 60.0
1369.429688 180.0
1370.851562 52.0
1371.183228 108.0
1371.772827 248.0
1371.935059 188.0
1372.222534 200.0
1373.122192 144.0
1373.542603 172.0
1373.985229 188.0
1374.804199 152.0
1374.929688 164.0
1378.792114 132.0
1379.087646 240.0
1379.383301 64.0
1380.248291 148.0
1380.447998 164.0
1380.891724 148.0
1381.1875 172.0
1382.71167 176.0
1383.022583 152.0
1384.925415 128.0
1385.325439 152.0
1385.414307 180.0
1385.799561 88.0
1385.866211 80.0
1386.170044 176.0
1387.111206 104.0
1388.141846 152.0
1388.979858 276.0
1389.410034 200.0
1389.706909 72.0
1391.12439 160.0
1391.77771 220.0
1392.022705 100.0
1393.277954 144.0
1395.202637 160.0
1395.306763 144.0
1396.28833 216.0
1397.151123 136.0
1397.694214 160.0
1398.423584 188.0
1399.033936 168.0
1399.852905 236.0
1400.031616 172.0
1401.32019 80.0
1401.439453 172.0
1402.33374 196.0
1402.855469 132.0
1405.629883 124.0
1405.719482 164.0
1406.025391 116.0
1406.779297 172.0
1407.413818 200.0
1409.475342 168.0
1410.289917 132.0
1410.793213 132.0
1411.269287 208.0
1413.790039 164.0
1413.999634 188.0
1414.792969 176.0
1415.466919 180.0
1415.698975 164.0
1416.283203 212.0
1416.410522 44.0
1417.833984 256.0
1418.807373 148.0
1418.853394 224.0
1418.99585 228.0
1419.168335 212.0
1419.325806 204.0
1419.955688 164.0
1420.585693 160.0
1422.754517 148.0
1423.287598 72.0
1423.430176 124.0
1424.466675 48.0
1425.052612 116.0
1425.443359 140.0
1426.164795 116.0
1426.698486 164.0
1428.077515 208.0
1428.713867 216.0
1429.496338 168.0
1430.376953 80.0
1430.595215 188.0
1430.903931 148.0
1431.942993 84.0
1432.153931 92.0
1433.962158 140.0
1437.5896 124.0
1437.800903 60.0
1438.178223 184.0
1438.38208 132.0
1439.393677 140.0
1439.514526 224.0
1439.85437 228.0
1440.760742 176.0
1441.554077 200.0
1441.773193 188.0
1442.135986 172.0
1442.421631 252.0
1443.103638 160.0
1444.808105 148.0
1445.372681 168.0
1445.849487 236.0
1446.629028 248.0
1448.029785 232.0
1448.166138 244.0
1448.628174 200.0
1449.582764 116.0
1450.348267 112.0
1451.083618 148.0
1452.213501 168.0
1455.916992 104.0
1456.463867 196.0
1457.147583 92.0
1457.246338 152.0
1457.390625 192.0
1458.713013 104.0
1460.78894 132.0
1463.358765 240.0
1463.498291 176.0
1464.739624 52.0
1465.547119 192.0
1465.920532 200.0
1466.179565 160.0
1466.370117 56.0
1466.690186 148.0
1466.937012 116.0
1467.033203 148.0
1468.512451 132.0
1469.595703 192.0
1469.786499 112.0
1469.931519 124.0
1470.007812 136.0
1470.297729 144.0
1471.541992 160.0
1472.511719 52.0
1473.038818 220.0
1473.153931 148.0
1473.71106 228.0
1477.64856 60.0
1478.283569 272.0
1478.520752 156.0
1479.42395 136.0
1481.445679 44.0
1481.935913 132.0
1482.90918 48.0
1483.997681 152.0
1484.082031 164.0
1485.209351 152.0
1485.408813 216.0
1485.477783 180.0
1485.577515 148.0
1487.204224 140.0
1487.994873 232.0
1488.156128 184.0
1488.401855 220.0
1488.501709 224.0
1488.624512 152.0
1488.678223 216.0
1489.331055 200.0
1491.236572 72.0
1491.882202 120.0
1493.212402 76.0
1493.789307 136.0
1494.674072 144.0
1495.458984 196.0
1497.006348 164.0
1498.300415 68.0
1498.796997 112.0
1499.895508 204.0
1500.226929 216.0
1500.997925 96.0
1503.011108 180.0
