>compound Zafirlukast (Accolate)
>formula C31H33N3O6S
>ionization [M+H]+
>parentmass 576.217224
#inchi InChI=1S/C31H33N3O6S/c1-20-8-4-7-11-29(20)41(37,38)33-30(35)22-13-12-21(28(17-22)39-3)16-23-19-34(2)27-15-14-24(18-26(23)27)32-31(36)40-25-9-5-6-10-25/h4,7-8,11-15,17-19,25H,5-6,9-10,16H2,1-3H3,(H,32,36)(H,33,35)
#inchikey YEEZWCHGZNKEEK
#Ion_Source LC-ESI
#Instrument qTof
#Compound_Source Commercial
#PI Dorrestein
#Data_Collector Garg_Neha
#Scan -1
#Precursor_MZ 576.216
#ExactMass 575.209
#Charge 1
#CAS_Number 107753-78-6
#Pubmed_ID N/A
#Smiles C12=C(C=C(C=C1)NC(OC3CCCC3)=O)C(=CN2C)CC4=CC=C(C=C4OC)C(=O)NS(C5=CC=CC=C5C)(=O)=O
#INCHI_AUX N/A
#Library_Class 1
#SpectrumID CCMSLIB00000078216
#IonMode Positive
#UpdateWorkflowName UPDATE-SINGLE-ANNOTATED-GOLD
#LibraryQualityString Gold
#TaskID 77f51c88eb8b467eb4a01dd2d0cb90d2
##Scan# 2844
#SpectrumFile Plate3_61_88_GH1_01_16501.mzXML
#LibraryName FDALibrary_2_04302014.mgf
#MQScore -1
#Organism FDALibrary_2_04302014
#TIC_Query 0
#RT_Query -1
#MZErrorPPM -1
#SharedPeaks 0
#MassDiff 0
#LibMZ -1
#SpecMZ 576.216
#SpecCharge 0
#internalFilename spec-00000.mgf

>collision 10
45.70998 168.0
46.519558 160.0
47.229492 192.0
47.968235 176.0
48.951935 152.0
49.457993 144.0
50.642883 168.0
50.732056 176.0
51.259449 184.0
52.864937 160.0
53.266544 184.0
53.398811 160.0
54.598072 236.0
55.22636 160.0
55.310699 144.0
56.802307 172.0
57.554794 176.0
57.678677 140.0
58.236271 224.0
59.439266 172.0
60.457867 176.0
60.601875 152.0
61.724129 224.0
65.745003 160.0
66.081299 172.0
68.293404 184.0
68.537048 180.0
69.229172 152.0
69.323601 180.0
70.161308 172.0
70.940331 140.0
71.061081 152.0
71.247437 184.0
71.836639 152.0
72.3927 156.0
73.272545 144.0
73.557335 180.0
73.728134 144.0
74.318901 148.0
75.315674 188.0
77.175179 144.0
78.657936 140.0
78.739151 164.0
78.838089 272.0
79.797035 148.0
80.677742 176.0
81.689148 224.0
82.254967 176.0
82.902458 152.0
84.108284 140.0
84.404243 160.0
84.603668 164.0
84.935349 164.0
86.453499 168.0
86.772087 148.0
87.132133 168.0
88.577904 184.0
88.881615 204.0
89.893974 192.0
90.020454 140.0
90.105453 196.0
90.885506 192.0
91.054123 492.0
91.23307 188.0
92.058075 184.0
92.102005 148.0
93.898514 152.0
94.185822 168.0
95.156296 164.0
95.208725 160.0
95.52359 204.0
95.642288 188.0
96.463493 156.0
97.039055 144.0
97.093956 168.0
97.172424 164.0
98.534836 236.0
100.09581 148.0
101.280098 172.0
102.55397 144.0
102.840378 152.0
103.177719 200.0
104.550926 164.0
105.37471 208.0
105.638435 192.0
105.980331 156.0
107.050224 216.0
108.057793 176.0
108.331062 164.0
110.747368 240.0
112.16568 192.0
112.264771 168.0
112.915222 148.0
113.990028 160.0
114.013405 156.0
115.381851 176.0
115.747719 176.0
116.433945 156.0
118.065361 152.0
118.68251 152.0
119.052269 340.0
119.832283 200.0
120.115685 152.0
120.637581 200.0
121.061623 408.0
121.801163 216.0
121.849487 176.0
122.201263 216.0
123.500587 172.0
123.95665 212.0
124.366928 188.0
124.604713 204.0
125.100464 140.0
126.037178 192.0
126.565048 164.0
127.325241 180.0
128.380707 152.0
129.064301 164.0
129.775879 164.0
130.320602 160.0
131.062347 324.0
131.317673 200.0
133.054474 176.0
134.059616 168.0
134.304794 220.0
135.043106 336.0
135.063522 208.0
135.557053 144.0
136.051086 188.0
136.26474 148.0
137.060196 1680.0
137.461548 184.0
138.063232 304.0
138.579208 204.0
138.688797 100.0
138.780777 200.0
139.315887 256.0
140.280716 168.0
140.314285 140.0
140.337296 276.0
141.473679 140.0
142.992798 176.0
143.440598 152.0
143.912949 196.0
144.421967 176.0
144.764206 184.0
145.076187 336.0
145.745285 180.0
146.007309 172.0
146.060303 1144.0
146.083664 2136.0
146.194946 148.0
146.630844 156.0
147.046356 660.0
147.088745 256.0
147.419998 144.0
148.339706 172.0
148.822495 148.0
149.056686 284.0
149.807465 148.0
149.902481 212.0
150.053604 188.0
150.680832 180.0
150.949692 168.0
151.216568 176.0
152.248489 180.0
153.261963 156.0
153.308777 148.0
154.032547 192.0
155.019791 456.0
155.241943 180.0
155.65387 144.0
155.840149 160.0
157.047516 180.0
157.079941 200.0
157.262085 160.0
158.08432 156.0
159.092499 1740.0
160.100891 892.0
161.885544 148.0
162.057632 188.0
162.143951 160.0
163.059937 148.0
164.068329 152.0
164.277237 164.0
165.05426 1796.0
166.055695 468.0
167.813858 156.0
167.904114 180.0
169.084778 192.0
169.545746 244.0
170.210983 208.0
171.026154 140.0
171.053818 140.0
171.087479 144.0
171.197983 192.0
171.60968 212.0
172.019272 200.0
172.037552 144.0
173.075653 192.0
173.646759 140.0
174.339844 240.0
175.092255 212.0
179.963593 200.0
180.097122 144.0
180.260086 308.0
180.522049 176.0
180.64241 164.0
181.09935 152.0
182.29129 148.0
182.710724 204.0
182.917938 184.0
183.092957 236.0
183.783035 184.0
184.071854 156.0
184.096146 148.0
185.071045 6364.0
185.500366 144.0
185.697632 232.0
186.073807 492.0
186.836441 184.0
186.904465 160.0
188.917938 164.0
189.295639 176.0
189.375061 176.0
189.418884 140.0
189.44902 152.0
190.97522 156.0
192.057678 152.0
193.347931 152.0
193.38945 168.0
193.459518 128.0
194.420441 176.0
195.101486 164.0
196.178284 272.0
196.348373 224.0
196.861862 240.0
197.099304 164.0
198.025269 176.0
198.072876 140.0
199.640808 188.0
200.384888 164.0
200.531433 148.0
201.22818 212.0
201.459763 156.0
202.296814 252.0
202.752838 148.0
203.079025 1048.0
203.966278 156.0
203.998871 156.0
204.089401 128.0
204.881058 188.0
205.09317 300.0
205.611008 180.0
206.093597 172.0
206.556732 164.0
207.392838 176.0
207.668076 192.0
208.105667 188.0
208.661652 160.0
208.80542 212.0
208.877319 144.0
209.091049 160.0
209.323425 140.0
209.836288 228.0
213.067352 212.0
213.883286 172.0
215.110458 156.0
215.355728 184.0
217.739792 156.0
217.968918 208.0
218.071777 168.0
218.09668 364.0
218.695312 160.0
219.06633 156.0
219.101685 212.0
219.443558 164.0
220.102478 272.0
220.172394 184.0
220.193069 248.0
220.568314 232.0
220.636307 144.0
221.10556 328.0
221.233887 140.0
222.079376 156.0
222.118973 112.0
222.918564 176.0
223.084991 168.0
223.126099 136.0
224.105637 348.0
225.093094 172.0
226.018295 192.0
226.103516 172.0
227.128036 152.0
228.982666 156.0
229.941406 124.0
231.537689 172.0
232.219604 216.0
232.416779 176.0
232.823547 164.0
233.104248 436.0
234.114151 716.0
234.675034 148.0
234.78952 232.0
235.091202 264.0
235.128159 232.0
235.149521 176.0
235.332672 152.0
235.460922 156.0
236.09935 404.0
237.100601 260.0
237.135681 140.0
237.517715 140.0
237.701447 172.0
238.086823 272.0
239.454086 212.0
239.745712 188.0
240.116699 168.0
241.772629 164.0
244.102341 220.0
244.824295 180.0
244.936417 172.0
245.640884 188.0
245.693924 152.0
245.728241 176.0
247.089294 164.0
247.126419 172.0
247.619415 160.0
247.779175 252.0
248.033035 304.0
248.088623 320.0
248.2995 164.0
248.408157 212.0
248.905167 216.0
249.108627 392.0
249.187851 144.0
250.110413 892.0
250.150162 180.0
250.194244 148.0
251.084824 156.0
251.113419 280.0
252.103592 320.0
253.098907 208.0
254.10257 176.0
254.919678 152.0
255.103119 156.0
257.139374 156.0
257.420288 168.0
257.484161 176.0
258.504883 140.0
259.086884 184.0
260.093597 240.0
260.665253 160.0
261.06601 176.0
261.100647 1712.0
261.211823 300.0
262.00174 128.0
262.111115 400.0
262.329193 156.0
262.506531 204.0
263.120178 424.0
263.573364 128.0
263.807678 192.0
264.024323 232.0
264.066376 212.0
264.122742 392.0
264.192505 212.0
264.848267 192.0
264.969482 148.0
265.133789 7280.0
265.39856 136.0
265.477264 96.0
265.916351 144.0
266.080109 196.0
266.135651 2064.0
267.068054 144.0
267.108795 148.0
267.138824 264.0
267.317017 148.0
268.095306 140.0
269.098724 284.0
269.132019 296.0
270.597382 144.0
270.846252 160.0
271.416504 176.0
271.460724 172.0
272.075958 188.0
272.81842 140.0
273.571747 204.0
274.434906 148.0
275.113556 304.0
276.084778 304.0
276.123444 144.0
276.704712 224.0
277.098145 152.0
277.125336 204.0
277.58609 176.0
278.102936 1160.0
278.51532 180.0
278.844269 176.0
279.108124 296.0
279.18335 164.0
279.286469 148.0
279.739014 160.0
279.794342 164.0
279.852203 184.0
280.119781 3304.0
281.015411 156.0
281.124115 768.0
281.622955 176.0
281.683075 144.0
282.130951 288.0
282.645935 156.0
283.097839 180.0
284.586639 188.0
285.850494 224.0
287.086761 152.0
287.775116 180.0
288.526123 140.0
289.035889 180.0
289.178009 148.0
289.201691 172.0
290.092468 336.0
290.550354 208.0
291.068085 148.0
291.111572 908.0
292.111359 376.0
292.245728 164.0
292.872101 188.0
293.128479 8336.0
293.785645 200.0
294.131378 1908.0
295.097076 164.0
295.135193 548.0
295.273926 112.0
296.111145 288.0
296.495972 112.0
296.732361 184.0
296.82962 160.0
297.124268 11376.0
297.386169 148.0
297.510681 144.0
298.074158 248.0
298.126831 2000.0
299.127777 400.0
299.207245 144.0
300.118835 188.0
300.755035 160.0
301.186646 180.0
302.113037 192.0
305.095459 152.0
305.546661 172.0
306.095215 116.0
306.254211 156.0
306.8013 232.0
307.108154 192.0
307.980743 156.0
308.137695 636.0
308.309143 196.0
309.011993 148.0
309.123322 3632.0
309.892853 128.0
310.020416 160.0
310.126923 828.0
311.137299 1344.0
311.205353 208.0
311.929749 144.0
312.138794 768.0
312.738739 156.0
313.139465 128.0
314.109406 140.0
314.166687 200.0
315.585602 176.0
316.625946 228.0
317.458771 264.0
318.08017 3528.0
318.289093 164.0
318.956055 164.0
319.006775 140.0
319.046021 208.0
319.107605 16108.0
319.19574 208.0
319.358643 100.0
319.829742 144.0
320.111969 4076.0
321.115204 916.0
321.15036 164.0
321.253784 172.0
321.765381 112.0
321.811523 132.0
322.131958 288.0
322.871826 164.0
323.064972 160.0
323.104706 812.0
323.303253 120.0
324.110657 164.0
324.196411 144.0
324.429382 188.0
325.107269 168.0
326.09848 152.0
327.253204 180.0
327.990021 144.0
328.312622 144.0
328.489349 140.0
329.525452 212.0
330.096527 176.0
330.328003 204.0
330.95047 160.0
334.333618 144.0
335.123779 148.0
335.30069 132.0
335.499176 196.0
336.141083 384.0
336.316254 180.0
337.118134 26572.0
337.202393 120.0
337.230225 180.0
337.345062 124.0
338.12262 5772.0
338.191315 204.0
339.124451 652.0
339.793701 128.0
340.090179 168.0
340.131744 160.0
340.35257 212.0
341.11084 776.0
341.570709 124.0
342.107147 204.0
342.15213 156.0
345.643707 192.0
347.577942 200.0
348.305573 192.0
349.856232 248.0
350.172729 152.0
350.977661 140.0
351.350647 180.0
351.798462 164.0
352.138245 160.0
352.384796 168.0
354.311554 164.0
354.566345 144.0
354.644562 188.0
354.723114 132.0
354.772491 140.0
354.873016 148.0
354.918701 204.0
354.952026 208.0
354.982361 148.0
355.04245 152.0
355.130066 46144.0
355.235687 100.0
355.533905 156.0
355.579834 256.0
355.784363 144.0
355.819519 136.0
355.963409 164.0
356.0354 164.0
356.134003 6688.0
356.235443 200.0
356.268494 100.0
356.741272 116.0
356.899353 128.0
357.136444 1540.0
357.830719 108.0
357.868225 160.0
358.139679 288.0
358.45401 108.0
359.159576 132.0
360.406616 160.0
361.147583 192.0
362.42334 144.0
365.98996 192.0
368.075653 188.0
377.200287 144.0
377.304688 148.0
385.959473 156.0
390.835022 192.0
393.088898 200.0
405.080261 180.0
405.179016 2236.0
406.186157 1112.0
406.882172 96.0
407.189392 172.0
409.075806 184.0
415.193085 144.0
419.935242 140.0
420.579895 144.0
420.861572 152.0
420.943237 176.0
422.048645 236.0
422.975159 140.0
423.190247 7268.0
424.105682 168.0
424.194763 2372.0
424.255219 116.0
425.202637 364.0
426.198059 144.0
427.186768 124.0
433.701263 172.0
433.860626 260.0
442.788361 224.0
446.510956 140.0
448.649994 144.0
452.680786 192.0
456.346863 168.0
462.145569 424.0
463.161621 132.0
463.774841 168.0
463.881165 164.0
464.096924 148.0
464.164948 22112.0
465.009979 104.0
465.085419 216.0
465.167206 4764.0
465.249878 272.0
465.778625 200.0
466.160126 1400.0
466.676819 148.0
467.17392 680.0
467.840576 144.0
467.875671 140.0
490.141235 760.0
490.1875 128.0
491.142883 256.0
508.157562 1192.0
509.160919 204.0
510.064728 168.0
510.154846 180.0
516.856689 144.0
517.046692 148.0
529.223694 204.0
532.233337 252.0
533.22937 152.0
534.235352 284.0
547.803833 144.0
558.471558 144.0
575.20343 484.0
575.364746 168.0
576.024231 160.0
576.217224 1020.0
576.363403 156.0
577.201721 468.0
577.36731 168.0
578.171021 168.0
581.348267 140.0
716.755066 140.0
734.617432 144.0
734.788696 104.0
1213.68811 204.0
1223.735107 140.0
1371.613892 216.0
1546.520874 140.0
1557.663086 212.0
1573.373413 152.0
1671.601318 212.0
1755.765991 248.0
1756.199707 164.0
1769.452881 228.0
1804.638306 188.0
1846.938354 204.0
1858.443481 196.0
1873.876587 156.0
1919.276978 180.0
1949.256958 192.0
1959.630859 164.0
