>compound MLS000028617-01!CLOFAZIMINE
>formula C27H22Cl2N4
>ionization [M+H]+
>parentmass 473.13092
#inchi InChI=1S/C27H22Cl2N4/c1-17(2)30-24-16-27-25(15-23(24)31-20-11-7-18(28)8-12-20)32-22-5-3-4-6-26(22)33(27)21-13-9-19(29)10-14-21/h3-17,31H,1-2H3
#inchikey WDQPAMHFFCXSNU
#Ion_Source LC-ESI
#Instrument qTof
#Compound_Source NIH Pharmacologically Active Library
#PI Dorrestein
#Data_Collector VP/LMS
#Scan -1
#Precursor_MZ 473.121
#ExactMass 472.122
#Charge 1
#CAS_Number N/A
#Pubmed_ID N/A
#Smiles CC(C)N=c1cc2n(c3ccc(Cl)cc3)c4ccccc4nc2cc1Nc5ccc(Cl)cc5
#INCHI_AUX N/A
#Library_Class 1
#SpectrumID CCMSLIB00000085368
#IonMode Positive
#UpdateWorkflowName UPDATE-SINGLE-ANNOTATED-GOLD
#LibraryQualityString Gold
#TaskID d252d724072548979f1f6f1ced849daf
##Scan# 2257
#SpectrumFile p3-H10_GH10_01_18315.mzXML
#LibraryName Pharm_Active_Library.mgf
#MQScore -1
#Organism Pharm_Active_Library
#TIC_Query 0
#RT_Query -1
#MZErrorPPM -1
#SharedPeaks 0
#MassDiff 0
#LibMZ -1
#SpecMZ 473.121
#SpecCharge 0
#internalFilename spec-00000.mgf

>collision 10
44.953609 100.0
45.105572 212.0
45.133949 80.0
45.234299 96.0
45.279823 48.0
45.320015 176.0
45.397766 100.0
45.417885 120.0
45.480171 144.0
45.509148 44.0
45.615288 128.0
45.656971 52.0
45.694775 192.0
45.708092 116.0
45.720921 120.0
45.739048 152.0
45.795605 120.0
45.830631 144.0
45.923656 96.0
46.054588 76.0
46.108635 132.0
46.128876 160.0
46.231712 128.0
46.25066 60.0
46.275028 108.0
46.28857 164.0
46.350883 68.0
46.363903 152.0
46.403175 104.0
46.43494 128.0
46.46207 100.0
46.54351 100.0
46.562523 152.0
46.589691 76.0
46.611431 168.0
46.638615 132.0
46.678043 48.0
46.735176 136.0
46.800514 212.0
46.840012 124.0
46.947689 120.0
46.961395 80.0
46.974968 60.0
47.006351 84.0
47.04311 148.0
47.077343 160.0
47.116955 48.0
47.163334 128.0
47.253681 140.0
47.278313 92.0
47.302952 156.0
47.43309 76.0
47.483826 188.0
47.515377 112.0
47.638943 120.0
47.673294 124.0
47.684288 184.0
47.735157 120.0
47.762665 144.0
47.772293 180.0
47.805317 120.0
47.82394 68.0
47.847988 100.0
47.864513 84.0
47.889305 52.0
47.944416 128.0
47.97612 152.0
48.024387 44.0
48.065777 116.0
48.118717 192.0
48.152752 112.0
48.184525 124.0
48.322788 180.0
48.409016 152.0
48.448784 28.0
48.556908 104.0
48.587425 136.0
48.640163 176.0
48.674873 144.0
48.694317 72.0
48.818012 140.0
48.915409 156.0
48.934902 68.0
48.980385 240.0
49.000366 124.0
49.010117 52.0
49.047749 148.0
49.067265 120.0
49.187244 72.0
49.19981 148.0
49.21796 168.0
49.26545 184.0
49.339523 128.0
49.438839 116.0
49.453686 92.0
49.479435 224.0
49.515842 136.0
49.576088 124.0
49.601753 180.0
49.6133 124.0
49.670033 108.0
49.775295 104.0
49.803387 72.0
49.823051 112.0
49.858185 136.0
49.922855 188.0
49.994606 104.0
50.024162 128.0
50.042465 144.0
50.122757 212.0
50.203941 172.0
50.261127 64.0
50.311764 144.0
50.327293 176.0
50.426186 128.0
50.47567 56.0
50.485569 156.0
50.553474 136.0
50.580368 64.0
50.63559 140.0
50.666756 64.0
50.678093 116.0
50.770237 64.0
50.882339 160.0
50.895119 128.0
50.9221 160.0
50.96188 152.0
51.022995 156.0
51.040058 72.0
51.06139 196.0
51.088417 164.0
51.170967 72.0
51.240757 60.0
51.273533 144.0
51.324856 104.0
51.342445 144.0
51.374779 48.0
51.391899 120.0
51.416672 136.0
51.44899 88.0
51.494686 224.0
51.536118 40.0
51.584709 44.0
51.654785 116.0
51.66766 104.0
51.677673 128.0
51.693935 88.0
51.757999 104.0
51.817993 128.0
51.881058 80.0
51.895393 156.0
51.908298 132.0
51.919773 40.0
51.94846 100.0
51.971416 84.0
52.049793 120.0
52.095989 168.0
52.110069 216.0
52.123631 180.0
52.13369 112.0
52.143749 140.0
52.211327 120.0
52.396553 160.0
52.4244 156.0
52.435928 112.0
52.559956 44.0
52.604698 132.0
52.66246 156.0
52.704357 92.0
52.720253 108.0
52.759064 132.0
52.793987 140.0
52.814236 144.0
52.832424 124.0
52.859085 64.0
52.922779 112.0
52.93726 100.0
53.006798 84.0
53.016941 180.0
53.027084 136.0
53.119888 160.0
53.15036 56.0
53.163418 88.0
53.247627 164.0
53.371155 104.0
53.39006 28.0
53.43079 104.0
53.452858 144.0
53.468765 84.0
53.554531 176.0
53.592407 140.0
53.602337 208.0
53.623013 96.0
53.66185 156.0
53.773243 152.0
53.856472 56.0
53.885693 80.0
53.897381 140.0
53.9795 160.0
54.015808 228.0
54.042145 92.0
54.059704 128.0
54.072876 32.0
54.090439 32.0
54.106544 176.0
54.13876 32.0
54.195892 104.0
54.20615 176.0
54.231377 244.0
54.250122 124.0
54.294109 216.0
54.405632 136.0
54.421783 72.0
54.483471 108.0
54.524799 160.0
54.546013 144.0
54.631962 88.0
54.701099 208.0
54.767391 100.0
54.814541 112.0
54.895618 48.0
54.932495 260.0
54.967907 128.0
54.978237 80.0
55.025002 100.0
55.046501 232.0
55.085285 112.0
55.183571 168.0
55.305492 252.0
55.340412 96.0
55.372993 120.0
55.43692 108.0
55.459282 168.0
55.518238 156.0
55.61171 180.0
55.662796 128.0
55.70229 164.0
55.727547 128.0
55.773705 144.0
55.801865 80.0
55.820343 160.0
55.884396 132.0
55.993835 84.0
56.063858 112.0
56.09409 100.0
56.1563 112.0
56.313023 252.0
56.324974 172.0
56.37727 92.0
56.407162 128.0
56.423607 80.0
56.437065 108.0
56.481297 152.0
56.541782 96.0
56.611324 80.0
56.646599 56.0
56.709534 108.0
56.828011 44.0
56.841515 168.0
56.855911 108.0
56.939098 108.0
56.978157 144.0
57.010746 64.0
57.050297 88.0
57.136021 88.0
57.18568 60.0
57.256447 48.0
57.273014 188.0
57.306599 220.0
57.333282 168.0
57.345341 108.0
57.384537 132.0
57.395092 116.0
57.411682 32.0
57.440338 264.0
57.5173 128.0
57.558491 172.0
57.58223 92.0
57.628349 128.0
57.787823 160.0
57.807495 128.0
57.840794 156.0
57.851391 64.0
57.865017 84.0
57.884701 144.0
57.898331 60.0
57.951351 68.0
58.005913 152.0
58.032936 136.0
58.052917 156.0
58.071117 156.0
58.140907 96.0
58.172783 68.0
58.212261 140.0
58.239601 144.0
58.268467 88.0
58.457016 84.0
58.482891 180.0
58.519428 128.0
58.546841 120.0
58.583397 128.0
58.610821 180.0
58.627586 100.0
58.69466 168.0
58.709911 116.0
58.745956 304.0
58.766354 80.0
58.791916 176.0
58.797382 132.0
58.850304 164.0
58.993141 180.0
59.010742 72.0
59.02383 100.0
59.030075 56.0
59.099457 84.0
59.136189 132.0
59.150005 152.0
59.220402 60.0
59.252571 136.0
59.364471 96.0
59.37674 112.0
59.462048 180.0
59.568344 184.0
59.706181 184.0
59.720795 164.0
59.790031 108.0
59.806965 100.0
59.830055 172.0
59.862389 216.0
59.873169 188.0
59.893963 92.0
59.922466 164.0
59.985653 132.0
60.027916 244.0
60.065842 108.0
60.129105 160.0
60.195492 148.0
60.232559 56.0
60.244919 108.0
60.274277 184.0
60.30872 140.0
60.343834 164.0
60.377853 132.0
60.408791 40.0
60.44128 456.0
60.479973 68.0
60.500099 100.0
60.586826 48.0
60.644165 132.0
60.669571 208.0
60.727894 68.0
60.740185 168.0
60.74995 184.0
60.766678 156.0
60.837399 120.0
60.873783 164.0
60.898636 172.0
60.949902 144.0
60.991531 148.0
61.020058 120.0
61.054062 140.0
61.138073 36.0
61.180099 92.0
61.215912 88.0
61.247063 176.0
61.259525 128.0
61.302418 116.0
61.31562 144.0
61.340302 120.0
61.370186 168.0
61.38266 148.0
61.445053 104.0
61.505917 88.0
61.534016 116.0
61.568371 112.0
61.608986 180.0
61.621483 180.0
61.682434 132.0
61.696503 108.0
61.773136 184.0
61.798168 88.0
61.848248 88.0
61.879559 80.0
61.913841 112.0
61.943771 136.0
61.955597 156.0
61.997044 172.0
62.055046 272.0
62.09425 156.0
62.109936 124.0
62.122128 176.0
62.149158 172.0
62.187336 220.0
62.229065 88.0
62.259045 124.0
62.317955 72.0
62.35017 40.0
62.395256 120.0
62.447792 176.0
62.483089 112.0
62.503532 208.0
62.532616 52.0
62.559654 180.0
62.590866 132.0
62.619049 192.0
62.633389 184.0
62.676693 144.0
62.702721 104.0
62.718483 64.0
62.762028 200.0
62.779972 132.0
62.806786 104.0
62.836761 36.0
62.869198 108.0
62.906204 60.0
63.002537 68.0
63.076065 152.0
63.092621 136.0
63.146046 92.0
63.15818 132.0
63.174862 100.0
63.214989 188.0
63.264763 144.0
63.290401 164.0
63.305424 148.0
63.322075 92.0
63.356926 52.0
63.385723 184.0
63.42725 96.0
63.46312 56.0
63.51387 84.0
63.552685 156.0
63.6278 172.0
63.648773 144.0
63.669418 144.0
63.701187 188.0
63.820389 100.0
63.855057 100.0
63.882416 76.0
63.920101 140.0
64.014526 160.0
64.051155 76.0
64.151558 76.0
64.178284 220.0
64.218529 108.0
64.30629 156.0
64.358536 176.0
64.386116 84.0
64.405632 184.0
64.44043 60.0
64.477188 100.0
64.494766 92.0
64.629745 140.0
64.653114 108.0
64.702858 156.0
64.723549 140.0
64.75238 116.0
64.794685 108.0
64.917458 108.0
64.939911 160.0
64.956604 108.0
65.034576 76.0
65.058655 96.0
65.084343 92.0
65.122887 92.0
65.172691 144.0
65.18277 140.0
65.246628 148.0
65.261101 148.0
65.343994 108.0
65.359222 144.0
65.436485 184.0
65.465469 136.0
65.521843 48.0
65.597588 132.0
65.610489 132.0
65.645958 56.0
65.657249 120.0
65.721779 176.0
65.74437 108.0
65.768585 188.0
65.780853 140.0
65.799904 160.0
65.834778 68.0
65.942696 116.0
66.013176 124.0
66.062691 172.0
66.107277 172.0
66.120941 184.0
66.132271 112.0
66.177605 64.0
66.214851 112.0
66.256531 148.0
66.278908 140.0
66.316055 104.0
66.334755 60.0
66.40448 168.0
66.433678 120.0
66.4459 136.0
66.475868 136.0
66.495346 84.0
66.557037 108.0
66.610603 212.0
66.672379 40.0
66.693504 160.0
66.706413 204.0
66.737404 100.0
66.758537 88.0
66.778694 92.0
66.819885 152.0
66.875687 120.0
66.911499 168.0
66.925026 108.0
66.963608 104.0
66.975014 52.0
66.990967 136.0
67.077675 124.0
67.102127 108.0
67.151047 84.0
67.196205 100.0
67.253845 156.0
67.291389 144.0
67.302826 116.0
67.332214 112.0
67.425346 144.0
67.486824 172.0
67.498909 80.0
67.518539 100.0
67.539803 64.0
67.579063 164.0
67.594498 120.0
67.700203 164.0
67.742043 96.0
67.782112 160.0
67.834908 132.0
67.873909 108.0
67.934593 100.0
67.951492 80.0
68.022308 176.0
68.044556 132.0
68.065903 128.0
68.099922 168.0
68.176682 92.0
68.191917 108.0
68.221992 84.0
68.240074 144.0
68.273926 144.0
68.41777 112.0
68.439171 144.0
68.472107 212.0
68.587448 164.0
68.602287 80.0
68.676491 116.0
68.701691 176.0
68.754044 152.0
68.790352 92.0
68.811813 100.0
68.83493 76.0
68.889442 244.0
68.983635 140.0
69.046471 120.0
69.1474 84.0
69.171707 128.0
69.195312 148.0
69.393349 120.0
69.460571 124.0
69.520302 80.0
69.531914 140.0
69.570099 28.0
69.600723 108.0
69.616585 172.0
69.629875 88.0
69.648148 100.0
69.694664 84.0
69.712944 52.0
69.774445 152.0
69.829323 128.0
69.913223 112.0
69.92749 132.0
69.962448 108.0
70.007408 108.0
70.069038 104.0
70.097366 104.0
70.137367 188.0
70.160706 268.0
70.172371 132.0
70.214066 108.0
70.232414 184.0
70.275787 128.0
70.304153 184.0
70.355904 144.0
70.372597 112.0
70.432724 36.0
70.45945 92.0
70.532982 164.0
70.705261 132.0
70.725349 180.0
70.783951 168.0
70.817444 120.0
70.872726 124.0
70.886131 112.0
70.899544 148.0
70.912949 104.0
70.931389 412.0
70.960144 132.0
71.001808 96.0
71.055489 96.0
71.131012 100.0
71.157875 192.0
71.19146 128.0
71.214973 140.0
71.278816 128.0
71.303772 108.0
71.334274 148.0
71.349411 44.0
71.373177 176.0
71.433495 152.0
71.457047 32.0
71.468826 28.0
71.542885 168.0
71.611923 64.0
71.637192 64.0
71.655724 96.0
71.695488 228.0
71.71302 188.0
71.758537 108.0
71.814194 192.0
71.825996 52.0
71.927246 56.0
71.945816 156.0
71.979584 192.0
72.010086 132.0
72.030899 136.0
72.035065 52.0
72.041397 128.0
72.054314 176.0
72.09108 116.0
72.114746 168.0
72.134438 128.0
72.158699 112.0
72.211121 124.0
72.261871 176.0
72.314255 88.0
72.337959 220.0
72.396408 252.0
72.46711 168.0
72.487076 104.0
72.634583 168.0
72.680397 308.0
72.724434 156.0
72.78054 100.0
72.79583 116.0
72.812813 112.0
72.851242 64.0
72.861504 120.0
72.967445 92.0
72.991249 144.0
73.013977 140.0
73.054184 116.0
73.093315 104.0
73.140976 160.0
73.164803 88.0
73.188644 68.0
73.222702 156.0
73.234627 88.0
73.348793 108.0
73.384598 88.0
73.474991 72.0
73.531303 152.0
73.607384 148.0
73.639839 92.0
73.661079 160.0
73.708916 240.0
73.745461 168.0
73.85424 132.0
73.879898 196.0
73.956909 156.0
73.97522 80.0
74.017784 172.0
74.052795 112.0
74.065224 140.0
74.097336 124.0
74.150452 76.0
74.165878 104.0
74.18338 156.0
74.211464 156.0
74.352837 132.0
74.421509 32.0
74.440392 60.0
74.45929 84.0
74.503952 164.0
74.521126 96.0
74.542526 160.0
74.607063 104.0
74.645264 112.0
74.679291 56.0
74.697014 212.0
74.744667 112.0
74.830734 84.0
74.851395 132.0
74.882393 108.0
74.896172 72.0
74.927185 124.0
75.054733 248.0
75.09095 148.0
75.116821 80.0
75.192741 88.0
75.223816 100.0
75.25489 124.0
75.292885 112.0
75.325699 120.0
75.342972 176.0
75.360458 152.0
75.392815 164.0
75.427658 132.0
75.465034 148.0
75.512383 152.0
75.543518 68.0
75.569473 132.0
75.624847 108.0
75.668129 160.0
75.78244 80.0
75.803864 100.0
75.828926 148.0
75.966225 112.0
75.997452 76.0
76.099861 72.0
76.266556 164.0
76.278809 136.0
76.313576 120.0
76.353577 104.0
76.390099 124.0
76.424515 144.0
76.485809 124.0
76.569389 176.0
76.656502 124.0
76.6931 76.0
76.71402 192.0
76.751381 116.0
76.76284 172.0
76.804695 132.0
76.820396 236.0
76.888451 100.0
76.909393 140.0
76.925102 176.0
76.940819 144.0
76.979233 132.0
76.997429 152.0
77.094528 116.0
77.143471 44.0
77.245705 140.0
77.269394 124.0
77.283394 136.0
77.300888 56.0
77.316643 120.0
77.348145 232.0
77.404175 108.0
77.456619 144.0
77.482994 68.0
77.617958 100.0
77.647774 132.0
77.696892 92.0
77.722794 136.0
77.733047 264.0
77.79818 164.0
77.809586 140.0
77.873405 124.0
78.030594 188.0
78.058731 84.0
78.088623 96.0
78.161407 172.0
78.178352 144.0
78.201233 140.0
78.230392 144.0
78.271652 104.0
78.394966 128.0
78.414352 164.0
78.428459 156.0
78.442558 120.0
78.474289 44.0
78.513306 128.0
78.55542 104.0
78.587181 168.0
78.610115 132.0
78.636589 248.0
78.684258 120.0
78.723099 112.0
78.735466 116.0
78.783157 112.0
78.873283 156.0
78.945015 224.0
79.051918 160.0
79.074928 200.0
79.117409 120.0
79.170532 156.0
79.211517 116.0
79.363693 72.0
79.436409 128.0
79.457695 120.0
79.489639 144.0
79.509155 76.0
79.532234 144.0
79.563065 184.0
79.651207 136.0
79.715164 132.0
79.729385 52.0
79.747154 80.0
79.773819 148.0
79.811157 128.0
79.848503 124.0
79.862427 116.0
79.903648 128.0
79.919662 152.0
79.958817 88.0
79.986809 192.0
80.006874 108.0
80.095917 68.0
80.112656 172.0
80.151146 120.0
80.185005 172.0
80.199265 68.0
80.243835 144.0
80.313385 120.0
80.361557 116.0
80.379402 172.0
80.402596 156.0
80.436516 148.0
80.450798 100.0
80.569801 276.0
80.61512 212.0
80.637688 128.0
80.662666 72.0
80.69735 80.0
80.729538 100.0
80.763519 176.0
80.789864 232.0
80.826958 140.0
80.852982 64.0
80.879829 112.0
80.924583 116.0
80.955025 92.0
80.981895 84.0
81.01593 144.0
81.030258 152.0
81.044594 172.0
81.092407 112.0
81.123459 64.0
81.136009 76.0
81.2472 88.0
81.264168 184.0
81.292061 44.0
81.37104 152.0
81.433891 68.0
81.453651 64.0
81.520134 80.0
81.562317 136.0
81.57666 168.0
81.613609 136.0
81.635185 136.0
81.656769 168.0
81.669357 128.0
81.725128 44.0
81.761116 148.0
81.77372 228.0
81.79892 152.0
81.827721 152.0
81.843925 132.0
81.858337 108.0
81.8825 192.0
81.931213 108.0
81.950806 168.0
81.967171 128.0
82.000664 84.0
82.146721 152.0
82.208069 128.0
82.233337 128.0
82.256798 128.0
82.286476 156.0
82.303741 120.0
82.33625 44.0
82.392242 96.0
82.426575 36.0
82.448265 212.0
82.498871 100.0
82.525993 76.0
82.547691 56.0
82.610291 164.0
82.629799 112.0
82.652107 128.0
82.674332 112.0
82.686996 68.0
82.719582 196.0
82.731232 184.0
82.786575 92.0
82.84272 108.0
82.855408 88.0
82.907951 36.0
82.922455 36.0
82.993156 212.0
83.036682 92.0
83.068741 124.0
83.08432 212.0
83.111061 52.0
83.301804 136.0
83.345299 64.0
83.390732 108.0
83.417999 156.0
83.534386 112.0
83.594429 156.0
83.641548 72.0
83.678421 120.0
83.696373 92.0
83.714684 208.0
83.738258 64.0
83.75647 76.0
83.774689 140.0
83.811127 44.0
83.840286 60.0
83.856689 64.0
83.88221 84.0
83.895836 124.0
83.933258 224.0
83.960609 108.0
83.993446 36.0
84.031754 200.0
84.05365 116.0
84.070076 180.0
84.126663 176.0
84.154045 124.0
84.227097 76.0
84.239883 156.0
84.256325 40.0
84.282455 160.0
84.299522 156.0
84.318275 80.0
84.34285 128.0
84.357407 116.0
84.36898 100.0
84.395241 72.0
84.464737 92.0
84.486725 200.0
84.5383 96.0
84.556221 128.0
84.581848 160.0
84.627617 176.0
84.650551 164.0
84.677063 124.0
84.694534 56.0
84.711868 32.0
84.730186 156.0
84.751205 160.0
84.783325 144.0
84.819984 148.0
84.883377 132.0
84.918999 116.0
84.950188 76.0
85.007408 136.0
85.022629 100.0
85.102516 56.0
85.136353 188.0
85.153938 76.0
85.166794 116.0
85.235474 168.0
85.300941 276.0
85.322998 136.0
85.34874 192.0
85.376328 108.0
85.481186 152.0
85.534317 152.0
85.584267 44.0
85.604523 40.0
85.657944 72.0
85.732529 204.0
85.7556 112.0
85.918633 196.0
85.965851 96.0
85.989845 104.0
86.018494 184.0
86.045227 212.0
86.079308 192.0
86.147896 216.0
86.160934 148.0
86.1856 188.0
86.200211 84.0
86.206223 76.0
86.212242 96.0
86.236267 116.0
86.283562 148.0
86.306862 96.0
86.418579 68.0
86.520378 120.0
86.553703 148.0
86.592598 40.0
86.651878 156.0
86.703766 168.0
86.764931 128.0
86.785332 116.0
86.82708 132.0
86.848381 104.0
86.870026 152.0
86.911461 120.0
86.973633 120.0
87.071953 168.0
87.115555 160.0
87.127304 112.0
87.151924 272.0
87.173294 148.0
87.19931 72.0
87.21418 124.0
87.233192 160.0
87.258797 128.0
87.285507 232.0
87.309006 104.0
87.370392 64.0
87.422493 80.0
87.461578 184.0
87.48764 96.0
87.517723 152.0
87.534187 80.0
87.560265 84.0
87.58744 104.0
87.695198 208.0
87.714912 136.0
87.749336 92.0
87.779297 136.0
87.811874 152.0
87.858513 148.0
87.92382 120.0
87.945068 104.0
87.99662 120.0
88.026566 116.0
88.068573 76.0
88.097473 56.0
88.114288 132.0
88.189476 188.0
88.243256 176.0
88.261955 116.0
88.301224 152.0
88.320541 148.0
88.362961 128.0
88.396637 124.0
88.432198 136.0
88.471512 80.0
88.49131 108.0
88.559525 60.0
88.582001 80.0
88.621346 96.0
88.64196 96.0
88.671944 168.0
88.700058 116.0
88.727112 56.0
88.745056 80.0
88.758179 120.0
88.773186 68.0
88.786308 92.0
88.818199 152.0
88.872604 128.0
88.960815 68.0
89.010254 72.0
89.024658 104.0
89.050949 152.0
89.099792 116.0
89.133614 116.0
89.163277 204.0
89.22007 164.0
89.253914 144.0
89.278625 144.0
89.295288 132.0
89.325233 144.0
89.377495 92.0
89.430763 80.0
89.485016 164.0
89.549171 108.0
89.575752 136.0
89.600632 336.0
89.626625 120.0
89.641701 76.0
89.656776 100.0
89.683167 40.0
89.749146 68.0
89.780533 112.0
89.817047 100.0
89.830246 132.0
89.842583 108.0
89.875526 176.0
89.903099 164.0
89.929199 200.0
89.951019 92.0
89.981232 124.0
90.011436 48.0
90.032211 108.0
90.049095 128.0
90.066208 132.0
90.184082 220.0
90.201164 212.0
90.349556 140.0
90.354965 124.0
90.381943 136.0
90.410324 108.0
90.448181 116.0
90.499298 176.0
90.51255 88.0
90.531395 156.0
90.56179 44.0
90.578842 80.0
90.611046 152.0
90.635681 144.0
90.664108 156.0
90.678612 92.0
90.704567 196.0
90.760788 108.0
90.808197 256.0
90.825272 172.0
90.846962 156.0
90.865112 108.0
90.919014 108.0
90.954628 164.0
90.976555 144.0
91.01506 120.0
91.064438 124.0
91.125221 184.0
91.180336 84.0
91.213264 136.0
91.239258 108.0
91.25753 68.0
91.286797 96.0
91.307716 92.0
91.35717 64.0
91.381737 132.0
91.425674 96.0
91.454224 108.0
91.478973 132.0
91.53038 68.0
91.553719 188.0
91.567963 76.0
91.589005 148.0
91.621803 92.0
91.65229 56.0
91.688499 64.0
91.846756 112.0
91.902077 176.0
91.949791 272.0
92.008965 96.0
92.045959 224.0
92.061249 136.0
92.096085 132.0
92.178963 48.0
92.227722 160.0
92.265137 188.0
92.302612 216.0
92.337639 44.0
92.398857 76.0
92.471245 116.0
92.48497 144.0
92.502197 152.0
92.520279 216.0
92.596024 148.0
92.611755 132.0
92.674568 120.0
92.723244 276.0
92.778061 180.0
92.825996 180.0
92.861481 160.0
92.883865 140.0
92.923828 152.0
92.987457 76.0
93.026772 156.0
93.098511 84.0
93.181107 88.0
93.277199 116.0
93.298752 152.0
93.361801 160.0
93.377182 48.0
93.400269 144.0
93.438774 132.0
93.458733 196.0
93.511871 92.0
93.525345 104.0
93.558067 88.0
93.579247 124.0
93.629311 148.0
93.690315 168.0
93.733345 128.0
93.784309 108.0
93.801994 220.0
93.846916 100.0
93.883713 132.0
93.904922 176.0
93.919395 120.0
93.943504 120.0
93.96666 76.0
93.991737 160.0
94.042175 160.0
94.0952 180.0
94.212578 128.0
94.231171 112.0
94.248558 128.0
94.360672 112.0
94.378952 88.0
94.397408 160.0
94.427719 160.0
94.452988 136.0
94.536697 76.0
94.559921 196.0
94.59272 120.0
94.631546 112.0
94.656715 60.0
94.672211 176.0
94.685768 200.0
94.699326 76.0
94.738068 316.0
94.779854 120.0
94.827202 160.0
94.890434 156.0
94.90435 156.0
94.939651 124.0
94.970688 156.0
95.042473 168.0
95.069641 144.0
95.096046 132.0
95.131752 64.0
95.163521 164.0
95.178345 88.0
95.208572 128.0
95.232727 156.0
95.254272 132.0
95.269638 168.0
95.314323 204.0
95.343475 128.0
95.41655 148.0
95.434166 204.0
95.472923 96.0
95.537338 196.0
95.607971 124.0
95.632492 160.0
95.649719 196.0
95.679993 112.0
95.693619 144.0
95.709198 100.0
95.722832 112.0
95.765678 48.0
95.804634 80.0
95.851402 196.0
95.919617 148.0
95.943008 156.0
95.957886 76.0
95.999557 176.0
96.030762 148.0
96.065872 132.0
96.120506 116.0
96.211555 160.0
96.247726 68.0
96.274727 112.0
96.306679 148.0
96.328751 152.0
96.334259 100.0
96.368492 132.0
96.388626 144.0
96.403664 132.0
96.417343 164.0
96.44725 172.0
96.50531 116.0
96.519974 128.0
96.536049 156.0
96.549576 88.0
96.576309 172.0
96.618752 112.0
96.640274 132.0
96.726387 124.0
96.757713 132.0
96.857864 144.0
96.877174 112.0
96.909447 156.0
96.973671 260.0
96.998177 172.0
97.035927 104.0
97.149673 76.0
97.189209 108.0
97.277237 136.0
97.29937 164.0
97.319496 76.0
97.334175 108.0
97.387199 88.0
97.43631 224.0
97.512955 88.0
97.538246 152.0
97.587654 120.0
97.654907 60.0
97.680092 132.0
97.784904 164.0
97.844948 156.0
97.867058 124.0
97.884064 132.0
97.904945 100.0
97.939926 144.0
97.985497 92.0
98.01873 196.0
98.040413 48.0
98.093628 108.0
98.10743 148.0
98.14785 160.0
98.236153 88.0
98.28418 248.0
98.302696 120.0
98.348091 212.0
98.373268 184.0
98.39389 100.0
98.435371 176.0
98.470512 136.0
98.551506 96.0
98.573242 108.0
98.662193 116.0
98.683937 128.0
98.701736 132.0
98.717079 132.0
98.752762 120.0
98.782829 64.0
98.840874 236.0
98.919373 112.0
98.933228 124.0
98.987373 128.0
99.087708 124.0
99.107521 44.0
99.134476 120.0
99.164551 216.0
99.257401 216.0
99.283951 148.0
99.309738 184.0
99.344231 152.0
99.363297 96.0
99.399017 52.0
99.474434 96.0
99.494286 116.0
99.555847 68.0
99.587624 192.0
99.62735 120.0
99.643242 128.0
99.667091 152.0
99.720749 68.0
99.753708 124.0
99.804245 132.0
99.822372 288.0
99.87355 160.0
99.881577 136.0
99.921593 124.0
99.937897 136.0
99.983383 156.0
100.04084 188.0
100.058922 120.0
100.082611 152.0
100.123756 236.0
100.144554 100.0
100.168457 116.0
100.182404 68.0
100.228226 108.0
100.256126 92.0
100.292931 164.0
100.33387 192.0
100.359787 116.0
100.37973 104.0
100.411743 152.0
100.496071 148.0
100.5513 56.0
100.583237 84.0
100.627518 88.0
100.647125 116.0
100.67308 112.0
100.727013 132.0
100.764168 192.0
100.794853 92.0
100.82975 144.0
100.844902 136.0
100.860893 144.0
100.890884 156.0
101.09285 140.0
101.160957 108.0
101.217018 120.0
101.239044 248.0
101.28511 64.0
101.340263 136.0
101.365257 204.0
101.402618 124.0
101.44342 44.0
101.46347 140.0
101.539673 88.0
101.555717 152.0
101.593834 180.0
101.633957 148.0
101.680115 128.0
101.700325 140.0
101.748367 104.0
101.790535 84.0
101.90728 100.0
101.926788 140.0
101.949234 144.0
102.006073 172.0
102.033661 108.0
102.149498 220.0
102.171448 212.0
102.226761 104.0
102.252922 84.0
102.321365 100.0
102.355598 80.0
102.401917 80.0
102.41803 116.0
102.488541 152.0
102.531036 140.0
102.549576 196.0
102.585289 300.0
102.599396 248.0
102.633675 96.0
102.661903 64.0
102.685188 176.0
102.744041 156.0
102.785751 132.0
102.800095 72.0
102.841469 192.0
102.859634 172.0
102.881096 172.0
102.892593 124.0
102.91819 56.0
102.948479 92.0
103.005028 192.0
103.02523 28.0
103.043419 160.0
103.059578 92.0
103.099998 72.0
103.143906 240.0
103.20916 116.0
103.244064 108.0
103.306244 48.0
103.344193 200.0
103.416092 112.0
103.449928 64.0
103.472198 72.0
103.488396 88.0
103.507332 136.0
103.526871 224.0
103.545097 100.0
103.641487 220.0
103.68692 32.0
103.715294 120.0
103.766243 132.0
103.843971 148.0
103.903893 96.0
103.927261 124.0
103.972382 96.0
103.99115 100.0
104.041901 104.0
104.056114 176.0
104.086571 136.0
104.10762 240.0
104.155075 104.0
104.171875 120.0
104.200317 148.0
104.25518 124.0
104.273476 96.0
104.313065 184.0
104.338524 96.0
104.373085 248.0
104.391006 216.0
104.428001 100.0
104.450371 88.0
104.471085 176.0
104.497162 108.0
104.521584 252.0
104.555344 176.0
104.581619 64.0
104.646492 208.0
104.667015 108.0
104.6978 128.0
104.774063 116.0
104.825859 76.0
104.855736 136.0
104.912643 112.0
104.943054 96.0
104.975853 152.0
104.983498 128.0
105.039078 68.0
105.055405 128.0
105.10437 88.0
105.126816 176.0
105.171715 128.0
105.187119 88.0
105.227821 208.0
105.251343 40.0
105.281975 112.0
105.298309 180.0
105.324509 160.0
105.385895 192.0
105.4104 120.0
105.427025 140.0
105.452606 216.0
105.471985 116.0
105.503311 160.0
105.531593 236.0
105.561951 132.0
105.586082 80.0
105.635582 136.0
105.67775 72.0
105.690819 112.0
105.717422 156.0
105.739449 168.0
105.755608 140.0
105.771393 196.0
105.841248 148.0
105.86364 76.0
105.887894 76.0
105.911926 68.0
105.957001 120.0
105.977974 68.0
106.018471 184.0
106.052391 160.0
106.067665 36.0
106.117737 160.0
106.13327 168.0
106.165733 188.0
106.189629 100.0
106.276855 112.0
106.295319 56.0
106.313789 52.0
106.33226 120.0
106.354843 152.0
106.381523 68.0
106.402054 44.0
106.441071 92.0
106.455444 132.0
106.481979 172.0
106.562256 136.0
106.591026 52.0
106.617744 96.0
106.642403 120.0
106.669838 208.0
106.720642 140.0
106.736977 128.0
106.753426 128.0
106.769203 316.0
106.798676 96.0
106.817184 92.0
106.837761 164.0
106.870682 152.0
106.926239 184.0
106.946823 196.0
106.990051 80.0
107.008583 104.0
107.04921 208.0
107.099197 72.0
107.210518 140.0
107.229965 180.0
107.266052 140.0
107.28492 96.0
107.323837 216.0
107.380058 124.0
107.435211 108.0
107.476479 168.0
107.495049 108.0
107.517746 132.0
107.591156 192.0
107.608017 140.0
107.623032 88.0
107.654007 136.0
107.680855 84.0
107.728195 148.0
107.748383 116.0
107.80275 144.0
107.828735 132.0
107.868889 88.0
107.965775 84.0
107.992439 112.0
108.013641 108.0
108.029083 112.0
108.072189 120.0
108.090195 40.0
108.133942 144.0
108.158493 172.0
108.20121 176.0
108.24752 136.0
108.267677 340.0
108.28244 88.0
108.305511 28.0
108.323059 152.0
108.353157 152.0
108.386307 108.0
108.413246 104.0
108.444336 160.0
108.465515 128.0
108.593292 176.0
108.622665 116.0
108.645485 124.0
108.668304 56.0
108.706413 180.0
108.832283 132.0
108.857445 168.0
108.878525 148.0
108.925743 64.0
108.974541 172.0
109.031708 64.0
109.054573 168.0
109.114761 116.0
109.146736 108.0
109.183479 184.0
109.204277 116.0
109.223816 148.0
109.252121 96.0
109.280174 108.0
109.312462 84.0
109.358246 84.0
109.37793 88.0
109.441521 96.0
109.464539 76.0
109.497452 168.0
109.522743 168.0
109.569565 40.0
109.593575 140.0
109.614777 92.0
109.666519 140.0
109.689445 84.0
109.720451 156.0
109.726418 136.0
109.761505 192.0
109.810387 112.0
109.827072 60.0
109.866707 140.0
109.8834 148.0
109.929306 68.0
109.94809 92.0
109.985657 60.0
110.066536 216.0
110.098404 152.0
110.112144 188.0
110.156746 124.0
110.181961 96.0
110.213303 172.0
110.227928 52.0
110.30735 176.0
110.321983 88.0
110.372162 176.0
110.424446 64.0
110.44635 136.0
110.452553 184.0
110.478836 64.0
110.525909 80.0
110.554642 52.0
110.577179 108.0
110.616951 176.0
110.650452 96.0
110.732117 76.0
110.755157 36.0
110.794388 176.0
110.816856 160.0
110.845245 48.0
110.915649 88.0
110.941666 96.0
110.989883 136.0
111.00666 164.0
111.044411 104.0
111.109444 140.0
111.132851 76.0
111.286201 160.0
111.341835 176.0
111.428574 80.0
111.457512 132.0
111.484062 88.0
111.560974 220.0
111.593819 180.0
111.706078 136.0
111.753014 104.0
111.765648 192.0
111.793633 188.0
111.809181 116.0
111.828125 168.0
111.851494 80.0
111.890495 216.0
111.918648 136.0
111.933388 100.0
111.948135 56.0
111.9851 152.0
112.026962 172.0
112.074989 108.0
112.098831 112.0
112.167259 112.0
112.21785 156.0
112.236832 36.0
112.279007 80.0
112.331741 84.0
112.346504 132.0
112.403473 152.0
112.44017 124.0
112.500565 68.0
112.517456 124.0
112.595688 84.0
112.648392 172.0
112.683052 316.0
112.735245 152.0
112.766724 160.0
112.812042 156.0
112.828026 144.0
112.842102 128.0
112.874542 84.0
112.908928 108.0
112.950462 76.0
112.976067 120.0
113.003334 200.0
113.041664 108.0
113.064438 152.0
113.086105 140.0
113.109085 156.0
113.136246 328.0
113.19902 132.0
113.255501 92.0
113.297539 156.0
113.336006 116.0
113.384743 172.0
113.419609 160.0
113.447823 116.0
113.453232 168.0
113.480141 96.0
113.504105 184.0
113.53315 144.0
113.55648 132.0
113.581932 192.0
113.604012 216.0
113.651047 92.0
113.683777 256.0
113.711365 80.0
113.751694 88.0
113.775047 168.0
113.800529 148.0
113.82225 156.0
113.868484 60.0
113.889725 84.0
113.966438 72.0
113.98011 160.0
114.001427 160.0
114.055305 112.0
114.089478 72.0
114.118263 148.0
114.130989 168.0
114.16758 120.0
114.187294 52.0
114.234093 88.0
114.257668 144.0
114.300049 108.0
114.336227 144.0
114.35112 104.0
114.383049 60.0
114.409073 108.0
114.436272 120.0
114.47168 172.0
114.519325 64.0
114.574715 264.0
114.598984 212.0
114.636185 112.0
114.656441 140.0
114.67218 152.0
114.7239 184.0
114.746109 124.0
114.752922 52.0
114.762108 104.0
114.778496 132.0
114.794258 208.0
114.813454 52.0
114.828384 116.0
114.862747 128.0
114.891457 100.0
114.94648 188.0
114.979866 68.0
114.998131 156.0
115.014191 144.0
115.027893 152.0
115.076942 172.0
115.146591 132.0
115.172028 72.0
115.21048 76.0
115.231537 140.0
115.274582 224.0
115.306641 56.0
115.330147 144.0
115.362213 68.0
115.402031 148.0
115.451813 196.0
115.477684 68.0
115.498047 148.0
115.538765 152.0
115.602394 124.0
115.625313 248.0
115.649223 140.0
115.693497 108.0
115.723785 116.0
115.826584 196.0
115.847946 176.0
115.901573 88.0
115.948647 120.0
115.965866 112.0
115.995872 184.0
116.083778 100.0
116.115952 136.0
116.135628 92.0
116.157875 160.0
116.184402 136.0
116.212486 140.0
116.244667 96.0
116.266586 188.0
116.291885 116.0
116.311325 240.0
116.338554 124.0
116.377754 92.0
116.409004 152.0
116.501007 104.0
116.524483 244.0
116.553894 88.0
116.579681 92.0
116.605469 100.0
116.667809 120.0
116.739586 208.0
116.774994 104.0
116.815216 264.0
116.838547 144.0
116.857071 120.0
116.887436 144.0
116.913025 148.0
117.057259 144.0
117.076965 132.0
117.108948 132.0
117.131027 160.0
117.156342 100.0
117.171417 148.0
117.189423 56.0
117.225288 204.0
117.256287 176.0
117.288116 184.0
117.329971 136.0
117.356781 172.0
117.371872 48.0
117.399689 120.0
117.436569 96.0
117.561783 120.0
117.604874 140.0
117.641457 372.0
117.689072 100.0
117.719299 120.0
117.738739 96.0
117.786255 220.0
117.818825 104.0
117.907257 212.0
117.946159 100.0
117.967781 92.0
117.993721 156.0
118.008858 44.0
118.04129 176.0
118.082382 180.0
118.119156 80.0
118.26413 48.0
118.287193 104.0
118.324745 112.0
118.348564 140.0
118.376648 128.0
118.430855 152.0
118.459015 104.0
118.487183 124.0
118.517517 80.0
118.542282 192.0
118.569527 152.0
118.584694 124.0
118.608543 84.0
118.627701 148.0
118.686699 84.0
118.706108 184.0
118.762497 152.0
118.826614 216.0
118.887123 200.0
118.906242 64.0
118.93174 132.0
119.004997 156.0
119.059456 180.0
119.083733 132.0
119.110695 252.0
119.135872 168.0
119.160889 124.0
119.178543 128.0
119.261406 224.0
119.321457 112.0
119.351044 156.0
119.370613 84.0
119.394539 56.0
119.40976 180.0
119.432854 84.0
119.450081 112.0
119.472839 96.0
119.490608 120.0
119.519897 172.0
119.539253 144.0
119.566048 72.0
119.59906 148.0
119.628807 96.0
119.636833 148.0
119.682426 172.0
119.702591 152.0
119.769539 164.0
119.81675 112.0
119.837189 116.0
119.856667 196.0
119.884377 148.0
119.908348 128.0
119.993362 104.0
120.015167 144.0
120.055305 148.0
120.189339 128.0
120.233315 156.0
120.251747 244.0
120.292191 132.0
120.365005 148.0
120.387642 116.0
120.417076 260.0
120.447296 132.0
120.466957 36.0
120.499725 72.0
120.532501 204.0
120.567467 120.0
120.648697 124.0
120.672394 152.0
120.735809 124.0
120.849564 144.0
120.875816 48.0
120.903831 60.0
120.962128 92.0
120.990662 136.0
121.050468 256.0
121.101318 132.0
121.116653 108.0
121.138145 172.0
121.162651 124.0
121.184052 136.0
121.234108 164.0
121.2966 132.0
121.344826 180.0
121.392807 112.0
121.421318 140.0
121.456413 96.0
121.484932 92.0
121.500282 52.0
121.523178 120.0
121.537582 204.0
121.567024 144.0
121.59903 100.0
121.631958 48.0
121.667084 148.0
121.781273 68.0
121.801666 140.0
121.823006 280.0
121.869087 176.0
121.907532 120.0
121.927177 140.0
121.959251 140.0
121.992226 204.0
122.012009 136.0
122.110077 148.0
122.145706 116.0
122.17469 260.0
122.218758 364.0
122.242966 56.0
122.264809 108.0
122.286987 180.0
122.32 148.0
122.346016 44.0
122.385803 180.0
122.392197 160.0
122.489563 132.0
122.542435 96.0
122.562263 88.0
122.57769 68.0
122.608543 120.0
122.645439 108.0
122.675476 208.0
122.712639 144.0
122.77169 184.0
122.811386 112.0
122.906258 164.0
122.928322 108.0
122.952599 108.0
123.035088 172.0
123.068581 156.0
123.101341 128.0
123.164558 136.0
123.182236 108.0
123.239937 200.0
123.274101 152.0
123.282829 136.0
123.298592 200.0
123.347969 128.0
123.384537 52.0
123.412361 160.0
123.440826 128.0
123.516899 132.0
123.52655 180.0
123.576904 224.0
123.595673 108.0
123.642677 168.0
123.665657 164.0
123.695267 256.0
123.712227 164.0
123.774971 96.0
123.808006 48.0
123.822411 152.0
123.831902 108.0
123.835938 228.0
123.869141 160.0
123.985428 188.0
124.00367 156.0
124.023109 308.0
124.056511 120.0
124.082962 160.0
124.099449 224.0
124.116226 168.0
124.131744 80.0
124.187195 132.0
124.202721 52.0
124.271492 40.0
124.320312 112.0
124.34407 180.0
124.369141 116.0
124.384674 116.0
124.458511 172.0
124.520004 152.0
124.556862 192.0
124.683281 192.0
124.722252 136.0
124.762337 124.0
124.786789 128.0
124.83857 224.0
124.864624 88.0
124.886864 100.0
124.906021 124.0
124.924683 144.0
124.959976 148.0
124.984749 56.0
125.013176 248.0
125.080452 64.0
125.096031 120.0
125.1213 160.0
125.180458 48.0
125.227783 192.0
125.247459 76.0
125.281601 196.0
125.316521 96.0
125.349457 128.0
125.361572 128.0
125.397423 184.0
125.416809 100.0
125.465012 180.0
125.505051 248.0
125.550583 140.0
125.58622 192.0
125.619728 64.0
125.674095 196.0
125.706749 88.0
125.747765 116.0
125.800491 72.0
125.854073 160.0
125.871941 80.0
125.925537 180.0
125.96463 160.0
125.983612 124.0
126.013824 176.0
126.01825 112.0
126.027725 140.0
126.077461 84.0
126.095345 100.0
126.153458 128.0
126.188515 188.0
126.229179 148.0
126.237381 128.0
126.244522 88.0
126.28743 136.0
126.339302 80.0
126.421867 104.0
126.466507 140.0
126.502663 168.0
126.558418 172.0
126.576332 92.0
126.600967 64.0
126.646851 72.0
126.689484 116.0
126.816048 148.0
126.862755 72.0
126.867531 112.0
126.940636 176.0
126.986626 160.0
127.01091 256.0
127.02739 240.0
127.058243 100.0
127.089653 120.0
127.126175 84.0
127.145752 152.0
127.163933 80.0
127.214569 164.0
127.237518 132.0
127.266975 140.0
127.291679 96.0
127.311829 152.0
127.354103 188.0
127.440437 160.0
127.49836 112.0
127.518585 124.0
127.588272 116.0
127.621407 184.0
127.656113 116.0
127.708481 96.0
127.742416 140.0
127.757973 140.0
127.828941 184.0
127.866898 148.0
127.923477 148.0
127.944145 232.0
127.979759 116.0
128.004349 100.0
128.01001 176.0
128.052094 200.0
128.119812 156.0
128.14418 124.0
128.269592 168.0
128.29744 164.0
128.319992 104.0
128.338028 92.0
128.365082 76.0
128.410187 108.0
128.444031 144.0
128.46637 204.0
128.493652 136.0
128.509445 316.0
128.562485 152.0
128.615738 124.0
128.665192 52.0
128.686325 168.0
128.715897 96.0
128.737442 96.0
128.757538 120.0
128.78035 208.0
128.857162 160.0
128.903336 148.0
128.935059 152.0
128.95433 128.0
129.008591 48.0
129.032104 124.0
129.049286 188.0
129.076416 132.0
129.108597 144.0
129.141998 116.0
129.162354 76.0
129.18045 44.0
129.223434 168.0
129.252655 180.0
129.300385 80.0
129.316223 156.0
129.359238 152.0
129.392059 144.0
129.408569 344.0
129.467911 148.0
129.539673 124.0
129.574371 216.0
129.643799 176.0
129.667221 144.0
129.739822 200.0
129.789703 128.0
129.805573 100.0
129.858093 104.0
129.969986 88.0
130.026047 184.0
130.075195 120.0
130.079254 192.0
130.101578 272.0
130.132324 124.0
130.170929 104.0
130.198181 128.0
130.218628 160.0
130.259506 164.0
130.337265 200.0
130.359482 144.0
130.376266 148.0
130.395248 136.0
130.436752 140.0
130.457214 140.0
130.493591 132.0
130.522781 96.0
130.554993 148.0
130.593658 156.0
130.618683 124.0
130.645401 180.0
130.706726 200.0
130.739777 212.0
130.796707 168.0
130.803818 176.0
130.812668 160.0
130.857635 160.0
130.884262 92.0
130.970749 204.0
131.006882 96.0
131.044403 100.0
131.065262 132.0
131.107071 152.0
131.124161 116.0
131.14476 112.0
131.181152 96.0
131.208511 128.0
131.231308 168.0
131.265503 100.0
131.295151 56.0
131.322327 136.0
131.40921 132.0
131.4617 172.0
131.568527 120.0
131.596375 40.0
131.612366 64.0
131.674011 36.0
131.699142 112.0
131.733414 164.0
131.774414 152.0
131.789185 68.0
131.793228 172.0
131.837906 164.0
131.855698 140.0
131.89566 132.0
131.915192 220.0
131.951065 232.0
131.987106 104.0
132.010208 156.0
132.028259 312.0
132.048843 176.0
132.067154 52.0
132.092316 160.0
132.147217 116.0
132.177155 156.0
132.221252 136.0
132.249939 140.0
132.289108 156.0
132.330322 144.0
132.367096 284.0
132.401306 180.0
132.421921 140.0
132.452744 160.0
132.48378 116.0
132.524033 140.0
132.534714 120.0
132.544006 168.0
132.568649 160.0
132.617523 176.0
132.675247 168.0
132.691635 176.0
132.735901 124.0
132.758835 108.0
132.795059 156.0
132.835175 128.0
132.89035 72.0
132.931519 44.0
132.990555 172.0
133.02948 120.0
133.077789 124.0
133.100586 104.0
133.121429 116.0
133.158173 148.0
133.242401 96.0
133.269745 112.0
133.304092 160.0
133.325882 108.0
133.361588 120.0
133.395416 184.0
133.443115 148.0
133.481308 132.0
133.502914 116.0
133.521301 104.0
133.548386 176.0
133.574203 160.0
133.601822 168.0
133.631226 92.0
133.6577 164.0
133.719177 276.0
133.760605 88.0
133.790527 120.0
133.83313 248.0
133.8573 120.0
133.878036 144.0
133.903366 88.0
133.947052 124.0
134.005295 160.0
134.086487 112.0
134.107529 92.0
134.153839 132.0
134.209869 104.0
134.235229 116.0
134.251373 120.0
134.272125 68.0
134.348358 172.0
134.391632 140.0
134.407166 176.0
134.473984 148.0
134.538361 256.0
134.634476 40.0
134.668091 144.0
134.688934 152.0
134.719589 424.0
134.776657 116.0
134.810043 124.0
134.837723 328.0
134.879807 224.0
134.929565 108.0
134.983429 104.0
135.001923 108.0
135.033524 208.0
135.057175 172.0
135.073624 92.0
135.13147 188.0
135.161545 36.0
135.186996 136.0
135.286102 132.0
135.307373 84.0
135.327881 152.0
135.344406 148.0
135.388931 144.0
135.45224 148.0
135.543625 168.0
135.580002 144.0
135.603882 144.0
135.640198 228.0
135.766174 152.0
135.818069 204.0
135.834534 144.0
135.888321 108.0
135.92392 220.0
135.956329 120.0
135.976974 312.0
136.016754 216.0
136.035324 128.0
136.068954 116.0
136.100342 172.0
136.144455 88.0
136.183823 164.0
136.196548 84.0
136.228073 120.0
136.248978 156.0
136.280273 208.0
136.302826 116.0
136.374924 228.0
136.41864 92.0
136.511642 124.0
136.549469 172.0
136.578049 80.0
136.588654 116.0
136.606842 168.0
136.624283 140.0
136.660522 152.0
136.701035 136.0
136.730331 144.0
136.755936 224.0
136.790695 124.0
136.81604 136.0
136.847137 136.0
136.867676 108.0
136.895325 168.0
136.934555 112.0
136.958038 60.0
137.010971 100.0
137.028397 144.0
137.058685 108.0
137.077332 160.0
137.109955 232.0
137.196198 72.0
137.219513 116.0
137.242828 80.0
137.266144 108.0
137.314728 240.0
137.392105 52.0
137.414032 140.0
137.497101 116.0
137.531235 100.0
137.576996 204.0
137.627838 192.0
137.662811 184.0
137.699982 152.0
137.738434 136.0
137.810684 172.0
137.819366 48.0
137.828064 172.0
137.852081 80.0
137.877792 120.0
137.906494 72.0
137.936035 96.0
138.011154 452.0
138.06366 156.0
138.105057 60.0
138.125122 176.0
138.145233 292.0
138.24263 128.0
138.270905 200.0
138.312225 76.0
138.329224 184.0
138.35498 132.0
138.378387 88.0
138.421387 88.0
138.441071 144.0
138.468567 204.0
138.486115 40.0
138.521255 112.0
138.544449 84.0
138.581558 244.0
138.603256 144.0
138.621994 120.0
138.682022 276.0
138.719894 120.0
138.753265 88.0
138.772018 48.0
138.86113 156.0
138.877548 172.0
138.939636 132.0
138.978424 100.0
139.009628 108.0
139.028946 136.0
139.046082 140.0
139.106003 124.0
139.156097 184.0
139.163559 128.0
139.171463 168.0
139.195053 220.0
139.250748 140.0
139.301727 108.0
139.347061 152.0
139.382858 208.0
139.422256 192.0
139.443405 144.0
139.485718 148.0
139.535095 204.0
139.562744 100.0
139.571243 160.0
139.665665 184.0
139.702072 84.0
139.721222 140.0
139.741882 148.0
139.786774 56.0
139.811188 128.0
139.833847 140.0
139.866791 152.0
139.909164 112.0
140.009094 328.0
140.033188 132.0
140.054657 200.0
140.080612 140.0
140.182404 64.0
140.19957 272.0
140.241776 124.0
140.271957 76.0
140.300247 116.0
140.328918 180.0
140.407486 236.0
140.455902 112.0
140.47702 92.0
140.533752 196.0
140.582077 100.0
140.624084 216.0
140.72493 64.0
140.778671 284.0
140.800827 172.0
140.840652 148.0
140.938644 260.0
140.963516 44.0
141.020386 172.0
141.043991 156.0
141.173904 300.0
141.211746 124.0
141.282715 88.0
141.311111 48.0
141.344238 68.0
141.370255 160.0
141.436539 88.0
141.493347 124.0
141.519394 80.0
141.542313 276.0
141.583328 160.0
141.616272 88.0
141.644943 160.0
141.666061 172.0
141.720718 272.0
141.772339 108.0
141.798859 140.0
141.83461 144.0
141.86734 116.0
141.89212 76.0
141.897003 120.0
141.980957 124.0
142.114334 140.0
142.223877 360.0
142.243958 104.0
142.307129 140.0
142.339828 132.0
142.371933 132.0
142.460968 88.0
142.491852 140.0
142.515533 128.0
142.531479 124.0
142.565506 100.0
142.594803 136.0
142.634445 72.0
142.684357 128.0
142.732712 120.0
142.774033 88.0
142.85083 140.0
142.88652 128.0
142.903183 80.0
142.923248 128.0
142.945694 92.0
142.979324 96.0
143.002182 140.0
143.026932 80.0
143.057144 444.0
143.094238 180.0
143.120483 136.0
143.164047 224.0
143.188843 152.0
143.236542 152.0
143.265945 108.0
143.296692 144.0
143.316086 136.0
143.355606 88.0
143.465256 132.0
143.496307 164.0
143.519333 88.0
143.575089 128.0
143.616409 196.0
143.643097 160.0
143.707886 164.0
143.737152 96.0
143.770569 128.0
143.787277 228.0
143.825806 112.0
143.885147 184.0
143.911407 160.0
143.928116 164.0
143.951996 104.0
143.992905 124.0
144.021255 52.0
144.060562 88.0
144.08815 92.0
144.107269 48.0
144.141708 116.0
144.167007 176.0
144.190842 140.0
144.217194 68.0
144.243484 132.0
144.272171 164.0
144.293701 112.0
144.335724 160.0
144.366745 84.0
144.417831 136.0
144.44812 216.0
144.505142 264.0
144.530487 52.0
144.563995 212.0
144.640823 120.0
144.671707 136.0
144.700424 76.0
144.779144 128.0
144.82016 84.0
144.862442 136.0
144.894424 44.0
144.91983 120.0
144.995071 176.0
145.032944 196.0
145.064301 104.0
145.110138 112.0
145.150726 116.0
145.179672 60.0
145.203659 116.0
145.282822 56.0
145.299606 52.0
145.327896 96.0
145.362732 144.0
145.390793 128.0
145.414795 180.0
145.477203 124.0
145.537231 160.0
145.573242 92.0
145.647705 248.0
145.666687 84.0
145.696487 108.0
145.737076 140.0
145.788544 176.0
145.831726 116.0
145.847717 160.0
145.875839 64.0
145.900024 148.0
145.919266 168.0
145.943314 152.0
145.996216 44.0
146.016739 156.0
146.068375 128.0
146.087616 136.0
146.116486 140.0
146.133331 152.0
146.15979 84.0
146.191071 136.0
146.224991 140.0
146.251251 132.0
146.290848 116.0
146.322281 128.0
146.357178 124.0
146.388794 212.0
146.427017 124.0
146.556046 72.0
146.582565 68.0
146.614929 200.0
146.663147 132.0
146.696457 88.0
146.785324 236.0
146.818649 120.0
146.859879 128.0
146.901627 40.0
146.919632 100.0
146.934036 84.0
146.96701 68.0
146.987 140.0
147.005981 116.0
147.056305 88.0
147.120392 152.0
147.200821 264.0
147.227722 128.0
147.264359 120.0
147.305008 116.0
147.344757 124.0
147.370132 80.0
147.406158 116.0
147.457245 96.0
147.475891 212.0
147.501251 232.0
147.529755 160.0
147.578583 84.0
147.621704 144.0
147.645828 156.0
147.691177 148.0
147.724228 164.0
147.764648 200.0
147.841782 132.0
147.868515 100.0
147.964203 272.0
148.062103 108.0
148.098251 160.0
148.159119 220.0
148.188065 108.0
148.209869 116.0
148.282471 88.0
148.303116 124.0
148.323776 212.0
148.345596 156.0
148.41507 128.0
148.431641 364.0
148.462601 188.0
148.486237 124.0
148.567581 128.0
148.686676 300.0
148.709091 80.0
148.753143 112.0
148.796844 96.0
148.818481 176.0
148.853607 128.0
148.883362 140.0
148.969269 172.0
148.986282 164.0
149.010574 108.0
149.027588 124.0
149.083481 120.0
149.12236 148.0
149.173401 112.0
149.262894 104.0
149.285248 104.0
149.346054 112.0
149.389847 104.0
149.419235 156.0
149.43985 144.0
149.475479 80.0
149.492233 144.0
149.522797 156.0
149.547256 128.0
149.578568 180.0
149.610565 144.0
149.68042 248.0
149.758224 80.0
149.777542 320.0
149.794693 184.0
149.823181 64.0
149.854858 36.0
149.896271 76.0
149.93158 180.0
149.964523 52.0
149.988388 200.0
150.011475 120.0
150.037643 44.0
150.079102 168.0
150.106125 132.0
150.134277 168.0
150.205917 128.0
150.3013 128.0
150.328003 112.0
150.371185 148.0
150.535416 332.0
150.588516 164.0
150.631561 176.0
150.651154 104.0
150.673676 152.0
150.723511 72.0
150.767441 164.0
150.800598 88.0
150.822235 204.0
150.851074 228.0
150.897049 44.0
150.934982 144.0
150.970413 104.0
151.0215 124.0
151.056702 156.0
151.09761 104.0
151.12207 164.0
151.171021 100.0
151.190598 100.0
151.23465 128.0
151.322784 292.0
151.344666 68.0
151.391235 176.0
151.466171 116.0
151.526062 156.0
151.551544 180.0
151.583694 104.0
151.655945 96.0
151.717224 124.0
151.743042 204.0
151.774033 72.0
151.795685 156.0
151.816971 148.0
151.864197 120.0
151.8927 152.0
151.927521 144.0
151.969498 112.0
151.978241 96.0
152.021362 424.0
152.05278 268.0
152.088303 196.0
152.112198 92.0
152.156509 140.0
152.195663 80.0
152.229691 96.0
152.249725 156.0
152.269348 132.0
152.306396 140.0
152.337051 92.0
152.397079 112.0
152.43428 88.0
152.448761 148.0
152.47081 100.0
152.519958 152.0
152.551926 60.0
152.601089 80.0
152.684708 280.0
152.755219 104.0
152.78801 108.0
152.819992 80.0
152.860184 180.0
152.881714 104.0
152.923355 144.0
152.940826 124.0
152.96521 304.0
153.020844 232.0
153.044815 144.0
153.075623 160.0
153.134705 124.0
153.159653 112.0
153.2164 132.0
153.238571 112.0
153.295242 48.0
153.334671 120.0
153.365692 288.0
153.39975 200.0
153.433273 80.0
153.493866 160.0
153.568726 160.0
153.593567 68.0
153.613312 112.0
153.645386 172.0
153.665115 156.0
153.690765 180.0
153.739273 76.0
153.791382 124.0
153.81636 300.0
153.87352 200.0
153.911942 100.0
153.939102 44.0
153.964371 52.0
154.003326 108.0
154.022537 124.0
154.033859 88.0
154.080475 156.0
154.115021 168.0
154.159134 176.0
154.18927 108.0
154.216095 168.0
154.245483 124.0
154.312225 140.0
154.34375 112.0
154.385696 136.0
154.475449 160.0
154.498672 196.0
154.549469 148.0
154.58432 88.0
154.621445 112.0
154.648392 144.0
154.683838 116.0
154.720688 128.0
154.746246 184.0
154.792267 144.0
154.841797 132.0
154.858444 116.0
154.898758 116.0
154.937302 108.0
154.959991 140.0
154.989563 172.0
155.019287 112.0
155.059448 116.0
155.087479 100.0
155.111877 72.0
155.140274 132.0
155.169464 176.0
155.197311 148.0
155.253876 104.0
155.280487 76.0
155.316208 168.0
155.399551 108.0
155.434296 136.0
155.472549 180.0
155.522736 132.0
155.546951 244.0
155.590668 100.0
155.62767 124.0
155.637131 112.0
155.699921 48.0
155.765076 228.0
155.79184 140.0
155.834076 184.0
155.882523 188.0
155.94838 128.0
155.967224 152.0
156.020416 332.0
156.059006 104.0
156.063934 164.0
156.097549 104.0
156.119934 100.0
156.166534 152.0
156.216934 104.0
156.23436 76.0
156.259079 124.0
156.294968 144.0
156.333786 108.0
156.40152 136.0
156.451447 312.0
156.490707 136.0
156.550476 64.0
156.590317 164.0
156.640137 100.0
156.664474 140.0
156.692444 104.0
156.806656 144.0
156.844315 132.0
156.871887 96.0
156.891052 128.0
156.943146 84.0
156.981598 188.0
157.004044 164.0
157.053818 88.0
157.072128 132.0
157.104202 104.0
157.130569 160.0
157.180557 264.0
157.208252 120.0
157.22905 148.0
157.25853 136.0
157.293991 156.0
157.36264 204.0
157.43718 324.0
157.483246 208.0
157.514221 100.0
157.565689 140.0
157.59317 60.0
157.625656 124.0
157.64537 144.0
157.698563 136.0
157.73996 136.0
157.757462 168.0
157.79715 164.0
157.8172 120.0
157.82457 144.0
157.853134 120.0
157.880646 148.0
157.90065 104.0
157.939987 176.0
157.989182 112.0
158.025726 180.0
158.055283 148.0
158.066742 112.0
158.077698 140.0
158.103241 168.0
158.111664 164.0
158.173386 84.0
158.208435 108.0
158.293564 56.0
158.320343 116.0
158.342606 112.0
158.368698 96.0
158.41217 100.0
158.463882 188.0
158.503571 96.0
158.586517 184.0
158.639328 132.0
158.674973 164.0
158.694489 116.0
158.714539 72.0
158.752151 168.0
158.774796 136.0
158.81485 252.0
158.837433 116.0
158.861511 156.0
158.901978 160.0
158.910645 196.0
158.940292 120.0
158.981567 152.0
159.004059 156.0
159.033157 176.0
159.059601 160.0
159.091873 136.0
159.131058 136.0
159.165497 168.0
159.185883 96.0
159.216446 76.0
159.235703 204.0
159.266678 136.0
159.326599 140.0
159.374695 112.0
159.394806 156.0
159.424957 76.0
159.447571 152.0
159.533081 128.0
159.570755 180.0
159.604095 108.0
159.641159 56.0
159.687439 224.0
159.710083 188.0
159.794601 144.0
159.829819 140.0
159.85936 136.0
159.895264 112.0
159.922424 156.0
159.957153 216.0
159.988388 64.0
160.026154 116.0
160.085327 184.0
160.144516 68.0
160.162842 116.0
160.181534 104.0
160.283081 96.0
160.309875 152.0
160.335495 100.0
160.372574 124.0
160.419189 152.0
160.47377 164.0
160.492294 132.0
160.514999 252.0
160.543533 168.0
160.56543 80.0
160.600739 144.0
160.648666 140.0
160.687057 296.0
160.781723 104.0
160.807648 88.0
160.868225 44.0
160.890945 108.0
160.914871 92.0
160.959808 132.0
161.00061 124.0
161.045914 76.0
161.072769 92.0
161.107971 60.0
161.130875 56.0
161.223282 140.0
161.264267 132.0
161.305679 136.0
161.34317 116.0
161.386154 100.0
161.439255 76.0
161.464554 136.0
161.535034 148.0
161.605362 144.0
161.658875 128.0
161.735275 112.0
161.766891 148.0
161.820511 156.0
161.844147 128.0
161.894989 148.0
161.945435 84.0
162.036636 92.0
162.0569 80.0
162.089203 188.0
162.128433 212.0
162.180145 140.0
162.231781 140.0
162.250824 172.0
162.31546 36.0
162.337296 104.0
162.358307 264.0
162.40274 144.0
162.42836 124.0
162.436249 64.0
162.44664 100.0
162.482864 144.0
162.507477 80.0
162.553909 216.0
162.574203 164.0
162.614975 128.0
162.657974 188.0
162.680817 112.0
162.711273 136.0
162.741425 156.0
162.773804 80.0
162.792526 104.0
162.889816 132.0
162.949265 108.0
162.983047 128.0
163.045929 124.0
163.123718 128.0
163.16478 164.0
163.182663 156.0
163.220383 164.0
163.252518 276.0
163.309128 148.0
163.364426 152.0
163.39241 72.0
163.422943 192.0
163.447678 144.0
163.524734 52.0
163.578766 192.0
163.601578 148.0
163.629517 148.0
163.652023 52.0
163.671875 188.0
163.734848 260.0
163.762177 140.0
163.798523 160.0
163.832855 204.0
163.883804 32.0
163.924576 324.0
163.957703 108.0
163.98494 140.0
164.006134 260.0
164.027603 252.0
164.07135 124.0
164.10704 216.0
164.166763 108.0
164.209595 252.0
164.230515 124.0
164.261124 92.0
164.282913 120.0
164.326797 264.0
164.348175 136.0
164.356857 100.0
164.409271 136.0
164.458191 88.0
164.488251 112.0
164.506119 80.0
164.545502 176.0
164.563629 136.0
164.582703 96.0
164.618851 104.0
164.636337 264.0
164.65448 216.0
164.67868 172.0
164.756393 56.0
164.787048 104.0
164.810043 52.0
164.836945 292.0
164.856567 192.0
164.889267 88.0
164.909714 136.0
164.967163 176.0
165.010483 180.0
165.031311 156.0
165.07077 88.0
165.098907 156.0
165.122772 128.0
165.224243 84.0
165.256714 188.0
165.277969 220.0
165.376373 212.0
165.416962 104.0
165.422882 136.0
165.444733 136.0
165.470062 168.0
165.52623 132.0
165.553543 340.0
165.597015 288.0
165.616913 200.0
165.638962 100.0
165.668228 188.0
165.713257 120.0
165.736328 120.0
165.763474 128.0
165.773407 76.0
165.818771 264.0
165.897797 132.0
165.925995 84.0
166.0186 140.0
166.037872 116.0
166.055786 196.0
166.084213 160.0
166.123459 128.0
166.165878 136.0
166.185043 108.0
166.234009 172.0
166.258331 192.0
166.276993 168.0
166.315369 148.0
166.351868 184.0
166.379303 336.0
166.410904 104.0
166.46077 208.0
166.503357 244.0
166.536743 92.0
166.575272 160.0
166.599106 116.0
166.645798 188.0
166.668381 304.0
166.693466 152.0
166.722244 100.0
166.747437 144.0
166.780853 352.0
166.811691 88.0
166.829697 264.0
166.860535 128.0
166.916916 156.0
166.932114 148.0
166.935913 140.0
166.971115 144.0
167.038773 132.0
167.059036 176.0
167.073151 164.0
167.110031 172.0
167.156342 160.0
167.192276 104.0
167.228409 136.0
167.305634 84.0
167.327393 44.0
167.347626 200.0
167.378952 160.0
167.423553 140.0
167.428589 112.0
167.462128 88.0
167.49411 104.0
167.539993 136.0
167.581955 204.0
167.616623 172.0
167.650787 68.0
167.746155 60.0
167.764206 188.0
167.813889 88.0
167.872498 148.0
167.916336 92.0
167.945618 160.0
167.964844 104.0
167.977722 60.0
167.983109 104.0
168.016174 68.0
168.066956 396.0
168.11348 144.0
168.124969 60.0
168.137085 196.0
168.243011 140.0
168.285355 152.0
168.311035 120.0
168.326309 96.0
168.362823 56.0
168.388657 84.0
168.422226 108.0
168.473892 108.0
168.507553 140.0
168.56691 152.0
168.605682 44.0
168.626358 144.0
168.649612 116.0
168.699265 96.0
168.747849 108.0
168.781647 116.0
168.8125 84.0
168.846115 124.0
168.894394 96.0
168.901138 132.0
168.954636 164.0
168.96405 156.0
169.030502 132.0
169.050293 156.0
169.070999 176.0
169.090607 100.0
169.11261 156.0
169.165909 176.0
169.234695 176.0
169.300339 360.0
169.330109 116.0
169.389679 156.0
169.424896 128.0
169.503418 204.0
169.562378 104.0
169.583633 136.0
169.632324 140.0
169.685944 176.0
169.73204 84.0
169.778473 80.0
169.799225 128.0
169.835175 116.0
169.851944 148.0
169.900391 188.0
169.934113 168.0
169.973038 136.0
169.995239 180.0
170.023254 192.0
170.048294 64.0
170.070053 124.0
170.095016 132.0
170.147018 156.0
170.184647 92.0
170.21312 164.0
170.236389 176.0
170.310547 192.0
170.345215 192.0
170.388474 132.0
170.406662 84.0
170.432648 80.0
170.450836 152.0
170.485535 184.0
170.554611 200.0
170.573135 224.0
170.606308 132.0
170.628815 144.0
170.682297 92.0
170.746338 228.0
170.781876 156.0
170.825226 88.0
170.855011 64.0
170.90329 80.0
170.929306 92.0
170.982513 108.0
171.017426 140.0
171.032181 144.0
171.062042 84.0
171.088074 60.0
171.116714 68.0
171.137115 140.0
171.161423 204.0
171.195908 204.0
171.244324 132.0
171.27037 124.0
171.326233 152.0
171.35791 172.0
171.38588 116.0
171.434509 116.0
171.484024 188.0
171.538757 72.0
171.557007 224.0
171.609161 44.0
171.632919 108.0
171.689987 88.0
171.712753 132.0
171.73172 148.0
171.756348 108.0
171.781998 88.0
171.809982 200.0
171.835159 172.0
171.881256 176.0
171.901306 152.0
171.922562 112.0
171.967773 112.0
171.990036 124.0
172.021973 104.0
172.069748 216.0
172.094467 72.0
172.123199 120.0
172.197433 112.0
172.266846 100.0
172.292969 124.0
172.322571 132.0
172.381592 148.0
172.471909 132.0
172.553146 168.0
172.570923 240.0
172.623535 128.0
172.653687 120.0
172.67984 100.0
172.702271 188.0
172.73494 248.0
172.797562 148.0
172.817673 124.0
172.860199 128.0
172.883224 144.0
172.920547 96.0
172.947632 116.0
172.973938 192.0
173.019058 120.0
173.04039 144.0
173.049667 112.0
173.064697 192.0
173.08548 92.0
173.118805 308.0
173.157898 224.0
173.204681 132.0
173.254684 100.0
173.363785 272.0
173.39592 88.0
173.431427 84.0
173.49144 120.0
173.523056 48.0
173.570999 156.0
173.638443 260.0
173.693527 140.0
173.717133 144.0
173.748611 124.0
173.772232 228.0
173.811584 148.0
173.879822 72.0
173.923126 120.0
173.976944 304.0
174.02121 200.0
174.050064 132.0
174.100357 256.0
174.14238 152.0
174.181976 152.0
174.217865 152.0
174.25322 144.0
174.278107 152.0
174.297379 124.0
174.31839 120.0
174.342041 92.0
174.362625 132.0
174.389923 132.0
174.526062 148.0
174.594437 124.0
174.61409 128.0
174.654083 184.0
174.691223 60.0
174.711777 296.0
174.729645 196.0
174.757324 104.0
174.801697 132.0
174.810669 104.0
174.816254 152.0
174.851471 132.0
174.88121 180.0
174.910172 96.0
174.933868 148.0
174.974945 132.0
175.023376 132.0
175.105927 120.0
175.177261 188.0
175.198456 148.0
175.220917 148.0
175.244629 44.0
175.303589 436.0
175.356354 152.0
175.388794 160.0
175.440094 124.0
175.467194 116.0
175.502945 100.0
175.541031 108.0
175.563599 56.0
175.589966 136.0
175.646927 128.0
175.687805 176.0
175.715698 220.0
175.742981 60.0
175.776505 164.0
175.814224 96.0
175.840622 108.0
175.879318 248.0
175.936356 208.0
175.968536 184.0
176.004974 140.0
176.067673 120.0
176.088028 164.0
176.170685 120.0
176.215149 116.0
176.247314 108.0
176.28598 132.0
176.335922 128.0
176.359528 196.0
176.397949 88.0
176.45369 144.0
176.49968 160.0
176.562256 144.0
176.593628 104.0
176.613983 132.0
176.6707 208.0
176.761368 168.0
176.794708 120.0
176.86882 104.0
176.889984 100.0
176.956177 80.0
176.974716 100.0
177.006104 284.0
177.047363 328.0
177.099182 92.0
177.12085 132.0
177.149506 304.0
177.219864 140.0
177.2724 240.0
177.327927 108.0
177.366806 188.0
177.398621 144.0
177.494064 180.0
177.536255 228.0
177.573959 160.0
177.603363 132.0
177.642593 68.0
177.673767 144.0
177.708923 112.0
177.732803 188.0
177.767288 120.0
177.812531 92.0
177.857529 164.0
177.95694 180.0
177.98497 124.0
178.035172 84.0
178.051727 88.0
178.086929 164.0
178.151703 144.0
178.181519 160.0
178.224625 108.0
178.330124 152.0
178.360901 64.0
178.460602 136.0
178.496262 108.0
178.52533 336.0
178.568436 80.0
178.602173 124.0
178.641449 100.0
178.689377 284.0
178.741669 156.0
178.76265 116.0
178.819443 196.0
178.846344 64.0
178.883621 120.0
178.904907 136.0
178.94751 168.0
178.968811 88.0
179.008759 180.0
179.035385 120.0
179.061569 120.0
179.123276 88.0
179.216522 136.0
179.239517 184.0
179.259888 160.0
179.280334 76.0
179.296539 144.0
179.321167 324.0
179.368439 124.0
179.411942 176.0
179.449539 124.0
179.472412 104.0
179.518585 128.0
179.540451 256.0
179.56134 116.0
179.595093 140.0
179.635101 96.0
179.665115 156.0
179.688736 156.0
179.739151 60.0
179.800308 144.0
179.835236 136.0
179.864594 148.0
179.887817 212.0
179.934006 144.0
179.966751 120.0
179.995422 116.0
180.021469 140.0
180.043488 108.0
180.065109 84.0
180.144043 124.0
180.20845 132.0
180.232559 72.0
180.285233 196.0
180.334702 108.0
180.374435 196.0
180.438965 116.0
180.481735 148.0
180.500458 120.0
180.51918 232.0
180.55394 108.0
180.575348 140.0
180.592575 96.0
180.610107 104.0
180.691513 84.0
180.735855 92.0
180.780411 148.0
180.82222 192.0
180.858963 144.0
180.888412 92.0
180.909821 120.0
180.933914 108.0
180.980743 220.0
181.00354 64.0
181.030197 92.0
181.075134 1036.0
181.12941 212.0
181.151962 172.0
181.182999 208.0
181.195236 56.0
181.204376 120.0
181.335983 176.0
181.365219 220.0
181.437592 40.0
181.464401 248.0
181.493835 148.0
181.521362 184.0
181.564819 180.0
181.627991 180.0
181.669128 96.0
181.695068 188.0
181.783615 108.0
181.821182 136.0
181.858765 148.0
181.896744 156.0
181.918518 160.0
182.01178 96.0
182.037918 164.0
182.074799 440.0
182.111145 76.0
182.132645 160.0
182.155838 132.0
182.186096 200.0
182.231766 156.0
182.272141 156.0
182.346634 112.0
182.378311 112.0
182.441681 136.0
182.504776 128.0
182.541168 76.0
182.559982 176.0
182.588104 132.0
182.637985 88.0
182.678421 116.0
182.703873 164.0
182.735565 176.0
182.756363 100.0
182.789597 136.0
182.871353 296.0
182.899536 216.0
182.966293 180.0
183.019974 252.0
183.077438 976.0
183.125412 176.0
183.203293 72.0
183.240356 164.0
183.312408 176.0
183.333817 124.0
183.390884 164.0
183.413208 120.0
183.452957 168.0
183.480881 108.0
183.505142 120.0
183.534805 228.0
183.588623 52.0
183.61705 80.0
183.664261 228.0
183.690826 208.0
183.7164 96.0
183.726974 80.0
183.779495 112.0
183.817001 52.0
183.879898 156.0
183.88678 144.0
183.942184 76.0
183.963791 84.0
183.998367 192.0
184.008057 120.0
184.039383 112.0
184.083511 380.0
184.141998 148.0
184.193893 108.0
184.236542 108.0
184.284103 80.0
184.350037 296.0
184.389893 112.0
184.420303 108.0
184.439224 36.0
184.463547 124.0
184.488998 116.0
184.533844 136.0
184.559738 188.0
184.612259 120.0
184.636597 176.0
184.681015 116.0
184.743866 152.0
184.769241 124.0
184.790787 152.0
184.820557 124.0
184.839493 76.0
184.879639 120.0
184.901733 252.0
184.935898 136.0
184.969406 156.0
184.993774 76.0
185.107483 84.0
185.12915 136.0
185.150818 120.0
185.196869 116.0
185.246124 152.0
185.268326 176.0
185.418381 164.0
185.441437 152.0
185.482681 116.0
185.500351 196.0
185.543076 132.0
185.600662 144.0
185.628418 156.0
185.660324 108.0
185.683975 100.0
185.733566 76.0
185.760681 112.0
185.792267 112.0
185.855576 168.0
185.894989 48.0
185.941269 148.0
185.985474 172.0
186.019196 184.0
186.049179 164.0
186.106308 116.0
186.151535 112.0
186.21376 92.0
186.243866 84.0
186.283798 112.0
186.348618 180.0
186.370117 256.0
186.423187 140.0
186.480103 140.0
186.558105 100.0
186.583145 176.0
186.616394 208.0
186.689606 140.0
186.707367 140.0
186.75322 124.0
186.785782 244.0
186.816528 148.0
186.841934 84.0
186.907227 224.0
187.013367 132.0
187.050705 184.0
187.081619 172.0
187.105576 176.0
187.144043 52.0
187.177917 156.0
187.212112 152.0
187.242081 180.0
187.272034 224.0
187.297882 72.0
187.321075 56.0
187.357712 208.0
187.40596 184.0
187.426575 116.0
187.48317 144.0
187.539062 84.0
187.57431 120.0
187.586975 76.0
187.592316 164.0
187.632706 172.0
187.6689 160.0
187.712067 96.0
187.741623 136.0
187.792557 148.0
187.8591 132.0
187.912674 108.0
187.948135 128.0
187.972702 140.0
188.025482 128.0
188.070953 140.0
188.09552 72.0
188.120087 184.0
188.161041 104.0
188.191071 92.0
188.215652 168.0
188.24382 252.0
188.332382 124.0
188.337173 312.0
188.400101 132.0
188.444931 136.0
188.500824 116.0
188.519501 104.0
188.55986 168.0
188.584457 92.0
188.608597 140.0
188.618103 116.0
188.674973 108.0
188.707474 176.0
188.742477 172.0
188.762558 168.0
188.821167 260.0
188.860626 116.0
188.901367 76.0
188.939957 64.0
188.965439 292.0
189.006058 76.0
189.027924 448.0
189.122864 224.0
189.152588 132.0
189.188339 152.0
189.212631 116.0
189.264023 220.0
189.317688 228.0
189.35878 128.0
189.383423 188.0
189.408081 128.0
189.451416 112.0
189.512863 96.0
189.551788 116.0
189.562958 136.0
189.639725 168.0
189.672562 232.0
189.745148 124.0
189.781082 76.0
189.802734 56.0
189.839035 100.0
189.886063 124.0
189.917328 128.0
189.941696 196.0
190.013931 164.0
190.040817 300.0
190.081787 236.0
190.112717 144.0
190.136978 100.0
190.181335 148.0
190.206787 200.0
190.244476 136.0
190.309784 152.0
190.356522 128.0
190.393921 128.0
190.421432 108.0
190.453171 168.0
190.498169 144.0
190.627472 236.0
190.66214 136.0
190.722458 104.0
190.760941 48.0
190.815918 112.0
190.840668 76.0
190.862228 148.0
190.898102 244.0
190.952255 152.0
190.986252 196.0
191.018112 100.0
191.057495 124.0
191.098602 112.0
191.146271 124.0
191.230988 156.0
191.261581 76.0
191.29538 160.0
191.317444 68.0
191.361694 208.0
191.41684 328.0
191.480698 104.0
191.556229 152.0
191.597549 120.0
191.653625 192.0
191.682968 112.0
191.710526 56.0
191.751556 140.0
191.79689 156.0
191.82077 124.0
191.913025 144.0
191.930862 124.0
191.957855 200.0
191.999084 96.0
192.040176 240.0
192.05072 140.0
192.057388 132.0
192.169189 136.0
192.209656 140.0
192.278656 128.0
192.310715 156.0
192.365601 88.0
192.38768 128.0
192.421509 128.0
192.460846 40.0
192.492599 148.0
192.531982 116.0
192.596176 192.0
192.626556 156.0
192.667923 144.0
192.699738 156.0
192.767395 164.0
192.804184 172.0
192.85585 116.0
192.890945 196.0
192.947128 136.0
192.974777 92.0
193.001999 116.0
193.061981 204.0
193.083771 312.0
193.14563 144.0
193.154846 112.0
193.160858 156.0
193.199356 224.0
193.243698 88.0
193.272247 184.0
193.345459 268.0
193.382599 96.0
193.416885 176.0
193.450638 92.0
193.489166 188.0
193.522629 84.0
193.550308 164.0
193.575409 124.0
193.59819 124.0
193.661743 188.0
193.68541 144.0
193.75528 108.0
193.79129 108.0
193.810699 124.0
193.841171 140.0
193.860565 112.0
193.892929 148.0
193.916 56.0
193.943512 156.0
193.950424 144.0
193.982086 176.0
194.014587 144.0
194.072617 708.0
194.135025 96.0
194.157211 112.0
194.186066 112.0
194.235489 144.0
194.281555 140.0
194.3181 68.0
194.337524 184.0
194.372955 140.0
194.404114 152.0
194.427765 116.0
194.469879 228.0
194.525253 72.0
194.648712 216.0
194.712463 164.0
194.744751 152.0
194.820618 160.0
194.848404 112.0
194.887299 168.0
194.914459 124.0
194.95015 136.0
194.974457 132.0
195.023926 320.0
195.084274 392.0
195.126328 72.0
195.148575 148.0
195.173599 84.0
195.199707 204.0
195.218094 284.0
195.248672 44.0
195.282059 128.0
195.309967 212.0
195.355026 204.0
195.382202 196.0
195.424667 244.0
195.458221 124.0
195.499619 60.0
195.534363 76.0
195.56308 188.0
195.59874 64.0
195.641983 128.0
195.680969 108.0
195.703629 132.0
195.74733 132.0
195.799103 212.0
195.830368 100.0
195.866592 148.0
195.961258 216.0
196.030655 244.0
196.038086 216.0
196.08609 236.0
196.106766 164.0
196.124435 216.0
196.143906 108.0
196.195419 128.0
196.226089 116.0
196.267914 164.0
196.29126 128.0
196.348206 116.0
196.354904 144.0
196.376678 216.0
196.398987 108.0
196.438049 196.0
196.461639 108.0
196.489227 276.0
196.532898 60.0
196.57016 124.0
196.591507 240.0
196.636337 124.0
196.664886 164.0
196.692535 100.0
196.706406 212.0
196.732025 104.0
196.830536 172.0
196.841507 108.0
196.879166 192.0
196.901398 164.0
196.920944 120.0
196.970154 84.0
196.999161 116.0
197.035477 168.0
197.069 164.0
197.095795 348.0
197.144714 128.0
197.171829 128.0
197.211533 112.0
197.253464 156.0
197.28421 152.0
197.303253 108.0
197.336105 184.0
197.414169 100.0
197.47052 116.0
197.539307 164.0
197.585587 152.0
197.648422 108.0
197.707382 116.0
197.748703 156.0
197.814819 168.0
197.84433 176.0
197.887131 128.0
197.946884 176.0
197.992142 60.0
198.043076 172.0
198.055283 124.0
198.065033 136.0
198.112579 232.0
198.136688 224.0
198.166565 160.0
198.249878 160.0
198.289795 164.0
198.313126 104.0
198.34108 192.0
198.385651 128.0
198.415253 212.0
198.446777 136.0
198.516205 112.0
198.557434 176.0
198.605774 128.0
198.636246 120.0
198.645218 96.0
198.653168 120.0
198.672302 220.0
198.738632 68.0
198.791367 92.0
198.841751 152.0
198.900864 156.0
198.96759 124.0
198.978867 108.0
199.011703 144.0
199.052185 112.0
199.081863 156.0
199.09108 80.0
199.147675 132.0
199.194885 144.0
199.230865 196.0
199.258957 156.0
199.338715 296.0
199.387222 100.0
199.39949 96.0
199.419174 96.0
199.479248 116.0
199.517242 140.0
199.576248 96.0
199.611588 184.0
199.658218 148.0
199.687973 124.0
199.718277 100.0
199.77356 128.0
199.834625 188.0
199.884262 148.0
199.935593 100.0
200.018967 168.0
200.085007 100.0
200.162949 280.0
200.199554 112.0
200.22081 176.0
200.320663 212.0
200.374191 100.0
200.416809 228.0
200.476181 124.0
200.524902 208.0
200.556473 164.0
200.596008 364.0
200.652512 184.0
200.683609 108.0
200.707993 112.0
200.740631 68.0
200.772812 156.0
200.817764 148.0
200.850632 148.0
200.914001 240.0
200.950226 208.0
200.987366 136.0
201.028961 252.0
201.083618 104.0
201.131958 296.0
201.169067 132.0
201.206207 120.0
201.233429 112.0
201.245911 176.0
201.288086 52.0
201.329132 268.0
201.405243 376.0
201.446243 160.0
201.504135 172.0
201.551392 168.0
201.618118 116.0
201.622589 176.0
201.65921 176.0
201.680786 148.0
201.7211 136.0
201.791275 148.0
201.823166 188.0
201.842545 352.0
201.879944 164.0
201.928772 144.0
201.971298 168.0
201.976395 96.0
202.013687 148.0
202.041245 120.0
202.089172 148.0
202.120926 160.0
202.164429 96.0
202.189896 156.0
202.209717 56.0
202.263153 204.0
202.328033 264.0
202.36824 184.0
202.396561 212.0
202.420883 180.0
202.512665 84.0
202.580185 148.0
202.615707 108.0
202.659973 108.0
202.696823 76.0
202.719482 92.0
202.768326 136.0
202.825684 264.0
202.858368 120.0
202.87822 88.0
202.9021 120.0
202.926407 160.0
202.949097 360.0
202.98645 92.0
203.012573 124.0
203.037949 344.0
203.117661 192.0
203.156052 124.0
203.175003 136.0
203.19783 176.0
203.302643 340.0
203.327866 108.0
203.335281 124.0
203.374634 148.0
203.396774 160.0
203.413925 172.0
203.472229 148.0
203.484543 168.0
203.521759 148.0
203.582764 144.0
203.606293 224.0
203.627335 136.0
203.66214 112.0
203.704041 152.0
203.738129 88.0
203.78476 220.0
203.811722 168.0
203.8461 84.0
203.899261 124.0
203.931351 180.0
203.959778 120.0
204.011383 284.0
204.023224 88.0
204.030762 140.0
204.069916 268.0
204.132309 68.0
204.150269 136.0
204.170181 196.0
204.210007 216.0
204.249451 124.0
204.298019 136.0
204.309387 128.0
204.355957 148.0
204.377853 168.0
204.421402 208.0
204.483139 120.0
204.528687 112.0
204.565018 84.0
204.593979 240.0
204.618393 132.0
204.663605 168.0
204.696655 140.0
204.786011 64.0
204.824829 128.0
204.875092 132.0
204.951187 136.0
204.975876 104.0
205.001358 292.0
205.027115 288.0
205.091049 300.0
205.125458 200.0
205.181046 148.0
205.218109 116.0
205.252182 220.0
205.282181 60.0
205.323334 200.0
205.383514 72.0
205.434875 200.0
205.500595 112.0
205.525284 116.0
205.557556 156.0
205.589523 216.0
205.611786 204.0
205.634613 164.0
205.660294 132.0
205.716324 140.0
205.760208 224.0
205.794479 104.0
205.863007 128.0
205.915085 228.0
205.940125 216.0
205.960114 100.0
205.985825 84.0
206.017242 48.0
206.061691 188.0
206.084351 376.0
206.116989 88.0
206.142151 112.0
206.151535 160.0
206.185837 156.0
206.208694 112.0
206.296356 88.0
206.330154 172.0
206.361115 176.0
206.446426 112.0
206.468872 152.0
206.488892 196.0
206.514511 152.0
206.572281 104.0
206.618484 120.0
206.647064 124.0
206.684387 156.0
206.717773 244.0
206.778687 180.0
206.817398 168.0
206.865585 180.0
206.886063 140.0
206.923859 256.0
206.954376 188.0
206.993088 136.0
207.041702 104.0
207.070908 140.0
207.118591 104.0
207.147247 148.0
207.181244 124.0
207.224167 132.0
207.24205 128.0
207.28389 300.0
207.304825 104.0
207.330627 100.0
207.366547 172.0
207.402496 136.0
207.433807 68.0
207.466934 172.0
207.515656 108.0
207.600403 76.0
207.632309 140.0
207.660339 132.0
207.707657 72.0
207.75621 120.0
207.800201 132.0
207.820984 104.0
207.848389 264.0
207.869766 108.0
207.889847 112.0
207.932159 140.0
207.960526 160.0
207.993179 76.0
208.036652 116.0
208.064941 44.0
208.096527 100.0
208.122375 164.0
208.153961 140.0
208.219147 272.0
208.257843 92.0
208.297867 148.0
208.375122 92.0
208.40242 172.0
208.471695 152.0
208.522446 136.0
208.557571 132.0
208.586761 132.0
208.613663 72.0
208.659668 212.0
208.684509 168.0
208.717163 56.0
208.755447 128.0
208.796783 164.0
208.821075 136.0
208.879211 256.0
208.918503 168.0
208.970291 228.0
209.022079 128.0
209.080673 296.0
209.108414 164.0
209.157349 148.0
209.244141 108.0
209.283203 168.0
209.317429 140.0
209.323792 84.0
209.333908 124.0
209.383682 224.0
209.414001 152.0
209.436661 116.0
209.47699 148.0
209.508682 136.0
209.54985 420.0
209.592239 176.0
209.6297 92.0
209.676498 148.0
209.776688 84.0
209.814163 160.0
209.847961 144.0
209.897903 100.0
209.949783 140.0
209.990509 136.0
210.027573 120.0
210.099426 208.0
210.164871 196.0
210.176102 116.0
210.2117 148.0
210.253983 112.0
210.327667 120.0
210.411377 100.0
210.454697 172.0
210.477798 148.0
210.506393 164.0
210.527054 160.0
210.563187 112.0
210.616959 108.0
210.672775 172.0
210.700195 172.0
210.719452 304.0
210.746323 124.0
210.77243 128.0
210.819824 100.0
210.84642 164.0
210.879364 168.0
210.922714 132.0
210.956436 152.0
210.995636 108.0
211.031387 180.0
211.064377 104.0
211.099823 136.0
211.165604 96.0
211.211884 132.0
211.237915 132.0
211.258163 148.0
211.287094 100.0
211.307343 96.0
211.345703 156.0
211.397873 84.0
211.449112 292.0
211.474365 84.0
211.486633 184.0
211.530182 112.0
211.567825 168.0
211.592911 156.0
211.614151 72.0
211.659164 168.0
211.679047 188.0
211.690399 132.0
211.758942 116.0
211.785004 260.0
211.849106 156.0
211.877792 272.0
211.918274 96.0
211.94725 216.0
211.980301 88.0
212.019684 112.0
212.066071 132.0
212.095047 140.0
212.117416 220.0
212.144333 164.0
212.171127 244.0
212.207001 216.0
212.268219 140.0
212.309601 132.0
212.32991 120.0
212.373795 192.0
212.401596 184.0
212.471878 144.0
212.535278 216.0
212.573654 212.0
212.640182 144.0
212.672272 60.0
212.698395 116.0
212.753677 96.0
212.776779 196.0
212.803879 192.0
212.826141 104.0
212.870636 160.0
212.944077 92.0
212.981995 60.0
213.002396 128.0
213.059433 136.0
213.099167 140.0
213.183228 140.0
213.214462 148.0
213.253799 116.0
213.276443 72.0
213.322952 164.0
213.343933 160.0
213.379303 156.0
213.410172 104.0
213.440903 232.0
213.480881 140.0
213.516342 236.0
213.544586 296.0
213.579605 152.0
213.623734 260.0
213.657486 132.0
213.683578 124.0
213.705643 192.0
213.733047 100.0
213.791245 80.0
213.820343 108.0
213.849457 116.0
213.942413 124.0
213.996201 156.0
214.027863 352.0
214.070724 104.0
214.10553 168.0
214.203217 308.0
214.253006 96.0
214.265411 124.0
214.277222 132.0
214.290787 116.0
214.341278 176.0
214.38826 248.0
214.422836 92.0
214.446548 200.0
214.468445 164.0
214.496109 116.0
214.536911 92.0
214.560242 56.0
214.583557 128.0
214.615021 172.0
214.636581 260.0
214.668121 116.0
214.724319 444.0
214.755997 272.0
214.787933 104.0
214.825882 224.0
214.928329 100.0
214.98439 144.0
215.035522 1384.0
215.092545 240.0
215.126205 140.0
215.156769 180.0
215.212265 136.0
215.263306 200.0
215.287842 124.0
215.352417 172.0
215.422165 152.0
215.494202 180.0
215.564331 120.0
215.609528 288.0
215.629913 172.0
215.63768 276.0
215.660767 136.0
215.719376 164.0
215.777298 172.0
215.806946 304.0
215.844955 180.0
215.974991 108.0
216.041946 948.0
216.072083 80.0
216.095612 168.0
216.150101 168.0
216.180298 88.0
216.207703 140.0
216.229095 144.0
216.292587 104.0
216.318756 132.0
216.336823 156.0
216.373138 148.0
216.393494 100.0
216.41449 100.0
216.421402 64.0
216.433929 100.0
216.474106 140.0
216.504318 216.0
216.550262 160.0
216.636185 120.0
216.699661 124.0
216.733246 180.0
216.744949 44.0
216.768097 184.0
216.812088 120.0
216.88089 100.0
216.900345 132.0
216.928253 64.0
216.967026 124.0
217.002823 120.0
217.011307 160.0
217.037003 256.0
217.076294 128.0
217.12471 56.0
217.165771 72.0
217.188568 140.0
217.268448 140.0
217.30658 80.0
217.332993 136.0
217.36821 148.0
217.400482 88.0
217.427383 160.0
217.455734 92.0
217.517883 56.0
217.548325 132.0
217.569107 180.0
217.600098 92.0
217.63533 108.0
217.676437 40.0
217.710358 80.0
217.752792 124.0
217.777039 172.0
217.817307 124.0
217.874557 132.0
217.923172 152.0
217.96431 48.0
217.990936 192.0
218.046127 252.0
218.084656 452.0
218.131836 144.0
218.153778 88.0
218.183853 144.0
218.231796 68.0
218.256317 200.0
218.277237 124.0
218.347214 144.0
218.377151 112.0
218.404449 164.0
218.440613 132.0
218.464142 52.0
218.514053 112.0
218.542023 128.0
218.567825 268.0
218.638 136.0
218.673752 288.0
218.713882 236.0
218.749603 124.0
218.788269 136.0
218.839447 156.0
218.886154 168.0
218.964615 368.0
219.005783 80.0
219.041122 72.0
219.097458 300.0
219.129517 140.0
219.164871 124.0
219.219345 156.0
219.237473 100.0
219.258514 180.0
219.282333 144.0
219.316406 180.0
219.362335 140.0
219.382965 132.0
219.405273 392.0
219.442154 108.0
219.465515 132.0
219.5009 68.0
219.54274 124.0
219.614761 252.0
219.658615 108.0
219.704422 72.0
219.739822 172.0
219.763428 276.0
219.807693 72.0
219.833267 156.0
219.869659 148.0
219.914169 148.0
219.923248 180.0
219.967072 248.0
220.032013 156.0
220.085709 312.0
220.143921 160.0
220.176712 84.0
220.200333 64.0
220.222916 136.0
220.264618 84.0
220.329773 156.0
220.383499 116.0
220.409409 88.0
220.429947 72.0
220.475098 188.0
220.507385 216.0
220.542267 160.0
220.575592 120.0
220.63472 136.0
220.675095 104.0
220.699768 44.0
220.720459 232.0
220.750031 76.0
220.770737 64.0
220.800308 76.0
220.840286 132.0
220.848846 68.0
220.886093 76.0
220.930618 152.0
221.008957 128.0
221.017166 184.0
221.048813 92.0
221.08609 288.0
221.163284 336.0
221.202728 80.0
221.27536 104.0
221.347794 124.0
221.402466 344.0
221.43602 148.0
221.460709 96.0
221.519577 196.0
221.544495 156.0
221.569946 88.0
221.601181 132.0
221.628891 112.0
221.673889 100.0
221.719391 156.0
221.747162 264.0
221.795166 76.0
221.881256 104.0
221.913757 140.0
221.952301 144.0
221.995407 104.0
222.0383 60.0
222.063934 124.0
222.076706 80.0
222.086746 120.0
222.111588 160.0
222.198486 80.0
222.244476 104.0
222.336517 124.0
222.397308 156.0
222.419815 156.0
222.508011 152.0
222.597076 304.0
222.618576 76.0
222.649673 80.0
222.67662 160.0
222.717987 68.0
222.796951 316.0
222.821838 96.0
222.851685 116.0
222.887329 168.0
222.923599 176.0
222.955688 64.0
222.995636 168.0
223.021072 144.0
223.071609 40.0
223.119171 144.0
223.160477 112.0
223.223541 160.0
223.272171 228.0
223.330307 96.0
223.351135 108.0
223.381592 132.0
223.446976 92.0
223.456345 184.0
223.480774 176.0
223.520477 104.0
223.544525 164.0
223.595779 144.0
223.618301 116.0
223.637634 168.0
223.697235 168.0
223.748749 300.0
223.79158 88.0
223.823624 124.0
223.858032 152.0
223.90332 140.0
223.933273 248.0
223.966827 128.0
224.010712 120.0
224.048645 100.0
224.095398 64.0
224.129333 112.0
224.181808 96.0
224.202667 128.0
224.237274 72.0
224.287247 192.0
224.32869 100.0
224.348724 156.0
224.369598 176.0
224.408875 168.0
224.457291 116.0
224.465927 196.0
224.516418 184.0
224.545532 140.0
224.611847 252.0
224.634018 228.0
224.650925 228.0
224.697662 48.0
224.718552 140.0
224.742416 48.0
224.77356 232.0
224.795319 176.0
224.818863 212.0
224.852509 144.0
224.862854 168.0
224.871155 204.0
224.95134 252.0
224.982361 112.0
225.02597 172.0
225.090454 136.0
225.123199 136.0
225.154373 104.0
225.175278 64.0
225.22905 120.0
225.342575 108.0
225.40831 92.0
225.435608 148.0
225.457123 156.0
225.490601 184.0
225.522369 212.0
225.545792 128.0
225.572693 276.0
225.622025 120.0
225.651245 116.0
225.681671 104.0
225.71489 408.0
225.755081 232.0
225.776016 124.0
225.796951 108.0
225.904633 144.0
225.939178 124.0
226.005554 164.0
226.037994 380.0
226.059113 184.0
226.105042 120.0
226.166519 100.0
226.206787 128.0
226.251709 160.0
226.257309 104.0
226.296036 164.0
226.335617 152.0
226.373383 236.0
226.398499 124.0
226.430267 224.0
226.470978 288.0
226.522614 192.0
226.55127 236.0
226.575226 108.0
226.631302 112.0
226.636124 248.0
226.663681 232.0
226.710236 144.0
226.737411 160.0
226.77002 68.0
226.815247 132.0
226.836731 140.0
226.88092 156.0
226.952881 144.0
226.997864 64.0
227.033142 144.0
227.066833 108.0
227.135071 224.0
227.156204 192.0
227.167984 100.0
227.210831 40.0
227.246826 148.0
227.277985 104.0
227.30014 176.0
227.360931 164.0
227.387314 112.0
227.441284 252.0
227.458496 128.0
227.589005 64.0
227.644638 144.0
227.710754 140.0
227.75824 136.0
227.79924 96.0
227.828751 68.0
227.871338 140.0
227.891602 124.0
227.902435 92.0
227.961487 112.0
228.00885 232.0
228.016632 172.0
228.056381 144.0
228.091324 112.0
228.142822 180.0
228.172302 120.0
228.222305 136.0
228.245941 140.0
228.253891 192.0
228.281067 168.0
228.345764 172.0
228.389038 192.0
228.442566 160.0
228.497803 144.0
228.520782 368.0
228.572845 176.0
228.605606 344.0
228.674255 100.0
228.718353 240.0
228.746506 128.0
228.843613 172.0
228.900055 88.0
228.930161 120.0
228.968338 172.0
229.010086 60.0
229.04982 248.0
229.08757 268.0
229.141022 124.0
229.165131 116.0
229.190796 108.0
229.230179 296.0
229.250977 116.0
229.303741 132.0
229.328857 216.0
229.357086 144.0
229.408112 180.0
229.425537 188.0
229.457489 96.0
229.499695 132.0
229.554916 128.0
229.575272 156.0
229.619598 272.0
229.656326 192.0
229.702148 92.0
229.740982 132.0
229.778214 228.0
229.855316 112.0
229.864075 100.0
229.872162 192.0
229.897873 68.0
229.938995 160.0
229.992386 120.0
230.020065 124.0
230.055481 120.0
230.091263 272.0
230.157486 40.0
230.181641 156.0
230.21788 132.0
230.264679 232.0
230.297775 112.0
230.350784 120.0
230.4384 116.0
230.509903 124.0
230.5298 160.0
230.568329 260.0
230.613159 140.0
230.635986 188.0
230.708679 140.0
230.749313 92.0
230.795578 116.0
230.88446 192.0
230.918777 132.0
230.981735 116.0
231.001724 96.0
231.057693 192.0
231.094284 540.0
231.131989 172.0
231.185989 224.0
231.219925 108.0
231.260956 116.0
231.33699 132.0
231.365005 184.0
231.394882 148.0
231.435272 144.0
231.482193 152.0
231.503769 140.0
231.544693 168.0
231.58931 80.0
231.621277 108.0
231.645508 136.0
231.672775 128.0
231.712158 132.0
231.736404 252.0
231.766708 120.0
231.790939 120.0
231.829773 340.0
231.863678 116.0
231.893982 48.0
231.918228 112.0
231.943832 144.0
231.979202 248.0
232.010193 216.0
232.034637 144.0
232.056885 160.0
232.09819 516.0
232.183624 132.0
232.205627 148.0
232.234238 92.0
232.247849 68.0
232.259399 140.0
232.279068 208.0
232.310623 160.0
232.353149 192.0
232.413727 132.0
232.452515 384.0
232.500565 72.0
232.533386 148.0
232.570374 108.0
232.591629 116.0
232.634827 120.0
232.679657 104.0
232.732315 140.0
232.770752 108.0
232.825958 180.0
232.924774 100.0
232.96817 48.0
233.009811 68.0
233.041794 148.0
233.091568 292.0
233.145569 188.0
233.186966 128.0
233.220108 128.0
233.25383 124.0
233.303864 96.0
233.315353 184.0
233.390396 192.0
233.484909 116.0
233.509247 172.0
233.551834 84.0
233.604996 184.0
233.649933 144.0
233.682648 92.0
233.73259 212.0
233.75502 112.0
233.795319 140.0
233.825363 160.0
233.897125 172.0
233.955429 164.0
233.985687 116.0
234.014282 100.0
234.047073 132.0
234.095734 152.0
234.146286 104.0
234.193985 124.0
234.227585 84.0
234.286758 172.0
234.342499 168.0
234.402374 184.0
234.432373 192.0
234.507919 68.0
234.552505 164.0
234.61319 300.0
234.662338 140.0
234.699051 148.0
234.747177 92.0
234.828995 104.0
234.86467 72.0
234.898224 92.0
234.947723 124.0
235.094742 252.0
235.203369 132.0
235.249161 164.0
235.271439 188.0
235.291901 160.0
235.331589 100.0
235.369919 164.0
235.432358 136.0
235.472229 384.0
235.502609 180.0
235.56456 328.0
235.614502 172.0
235.625259 68.0
235.636322 148.0
235.676743 40.0
235.785004 112.0
235.806473 124.0
235.818848 80.0
235.860107 128.0
235.887527 120.0
235.924454 168.0
235.958923 148.0
235.999359 160.0
236.031082 252.0
236.120468 264.0
236.156204 48.0
236.161682 128.0
236.187302 124.0
236.20871 100.0
236.245544 92.0
236.292404 164.0
236.327682 108.0
236.384323 100.0
236.435989 172.0
236.461594 136.0
236.532944 152.0
236.556564 160.0
236.631042 64.0
236.652466 104.0
236.674973 184.0
236.73822 124.0
236.762817 220.0
236.807785 336.0
236.839111 292.0
236.875214 132.0
236.907043 136.0
236.962723 136.0
236.992401 120.0
237.064453 116.0
237.106583 156.0
237.11969 116.0
237.130844 176.0
237.149612 216.0
237.184723 192.0
237.215973 116.0
237.23877 220.0
237.269775 120.0
237.303741 180.0
237.406296 128.0
237.458054 132.0
237.465622 116.0
237.510574 80.0
237.53511 96.0
237.593399 48.0
237.672668 220.0
237.699738 208.0
237.765244 248.0
237.79953 92.0
237.850159 84.0
237.856079 148.0
237.915649 200.0
237.952484 240.0
237.9832 176.0
238.038834 132.0
238.083817 156.0
238.155258 140.0
238.166138 56.0
238.208649 144.0
238.245697 224.0
238.27652 172.0
238.303864 220.0
238.342743 224.0
238.367157 204.0
238.412186 332.0
238.437973 180.0
238.487015 148.0
238.533386 132.0
238.579239 208.0
238.609985 140.0
238.635376 168.0
238.671478 88.0
238.702225 48.0
238.767456 172.0
238.816025 188.0
238.857544 168.0
238.884613 120.0
238.935043 148.0
238.969833 224.0
238.999817 124.0
239.011719 196.0
239.017151 180.0
239.046082 244.0
239.081757 140.0
239.114471 160.0
239.142166 136.0
239.169327 204.0
239.218094 100.0
239.273834 132.0
239.297104 120.0
239.328217 120.0
239.338486 52.0
239.357895 168.0
239.407043 248.0
239.430344 96.0
239.485001 120.0
239.496964 88.0
239.506821 164.0
239.534195 128.0
239.64035 212.0
239.688614 240.0
239.709702 200.0
239.745819 76.0
239.788971 128.0
239.825165 108.0
239.844009 168.0
239.879135 156.0
239.905029 184.0
239.916321 140.0
239.924698 268.0
239.950455 124.0
239.972336 172.0
239.998596 480.0
240.050964 104.0
240.078781 124.0
240.121948 104.0
240.151749 164.0
240.213348 68.0
240.263458 160.0
240.290298 212.0
240.358032 152.0
240.436905 148.0
240.491562 192.0
240.557037 128.0
240.617096 148.0
240.660583 136.0
240.682327 220.0
240.711548 252.0
240.774582 192.0
240.783386 104.0
240.825684 140.0
240.865753 148.0
240.889511 132.0
240.952332 52.0
240.991043 264.0
241.03656 92.0
241.070267 140.0
241.08078 144.0
241.11441 196.0
241.159378 152.0
241.19191 176.0
241.218109 92.0
241.254272 172.0
241.323044 140.0
241.354141 144.0
241.409805 52.0
241.43602 284.0
241.466705 128.0
241.489944 264.0
241.585449 132.0
241.634506 156.0
241.69104 96.0
241.727829 160.0
241.799622 120.0
241.839035 76.0
241.864624 72.0
241.922745 380.0
241.955521 164.0
241.987823 108.0
242.016312 208.0
242.084244 520.0
242.124695 116.0
242.149475 132.0
242.171631 80.0
242.226913 184.0
242.248596 104.0
242.291977 144.0
242.346817 120.0
242.419006 156.0
242.463516 192.0
242.511032 180.0
242.563141 104.0
242.610901 132.0
242.622864 120.0
242.648315 148.0
242.708435 132.0
242.758255 152.0
242.804779 140.0
242.885239 172.0
242.922897 148.0
242.984177 60.0
243.011276 240.0
243.057434 128.0
243.090103 740.0
243.126801 140.0
243.181534 148.0
243.223343 156.0
243.272995 260.0
243.305908 116.0
243.323547 280.0
243.368225 96.0
243.405731 408.0
243.45694 112.0
243.486771 160.0
243.540634 108.0
243.578918 240.0
243.619797 124.0
243.650864 136.0
243.708939 260.0
243.779037 132.0
243.852844 124.0
243.916962 164.0
243.942322 112.0
243.954712 140.0
243.967697 80.0
243.985382 172.0
244.026932 100.0
244.052811 144.0
244.096313 688.0
244.150345 204.0
244.175095 124.0
244.200623 136.0
244.220276 140.0
244.269791 172.0
244.303299 116.0
244.310074 100.0
244.3535 236.0
244.400177 44.0
244.421967 188.0
244.464966 176.0
244.486023 300.0
244.524658 264.0
244.549561 60.0
244.601959 168.0
244.650864 140.0
244.684738 160.0
244.757767 348.0
244.824051 24.0
244.884521 152.0
244.906494 104.0
244.941238 172.0
244.985504 220.0
245.015793 328.0
245.02211 112.0
245.033798 176.0
245.090347 200.0
245.102264 84.0
245.110641 228.0
245.147186 144.0
245.192169 140.0
245.225204 132.0
245.297653 48.0
245.354691 208.0
245.408264 236.0
245.480881 148.0
245.512756 156.0
245.55571 160.0
245.575363 196.0
245.630798 76.0
245.680618 128.0
245.713928 228.0
245.759476 208.0
245.80011 136.0
245.850174 156.0
245.881165 152.0
245.94136 428.0
245.967819 116.0
245.997574 120.0
246.021637 116.0
246.064148 196.0
246.100143 296.0
246.153717 140.0
246.175476 120.0
246.205109 272.0
246.261765 200.0
246.285294 172.0
246.334366 136.0
246.357101 144.0
246.396973 152.0
246.421509 132.0
246.435577 36.0
246.44162 124.0
246.464386 128.0
246.526886 312.0
246.605179 664.0
246.644089 104.0
246.689896 264.0
246.715958 156.0
246.751953 124.0
246.829102 116.0
246.873901 144.0
246.895248 140.0
246.936447 124.0
246.9646 140.0
247.006561 192.0
247.042252 68.0
247.083527 256.0
247.107758 152.0
247.152313 156.0
247.187668 188.0
247.21489 128.0
247.254318 160.0
247.266403 96.0
247.318176 40.0
247.352615 264.0
247.413101 168.0
247.434006 120.0
247.45459 152.0
247.476105 128.0
247.510437 136.0
247.554932 180.0
247.587433 112.0
247.610092 292.0
247.643814 156.0
247.665741 84.0
247.722061 132.0
247.786591 104.0
247.795227 60.0
247.805191 124.0
247.828644 112.0
247.947723 44.0
247.994034 172.0
248.032364 264.0
248.071686 132.0
248.114532 132.0
248.158737 164.0
248.189407 160.0
248.209091 180.0
248.248688 84.0
248.282272 192.0
248.308273 64.0
248.330231 176.0
248.369003 200.0
248.396103 32.0
248.446304 120.0
248.491379 184.0
248.569458 176.0
248.598938 124.0
248.666763 236.0
248.693115 224.0
248.726456 188.0
248.733871 144.0
248.775818 144.0
248.818329 96.0
248.848846 124.0
248.89827 76.0
248.948517 44.0
248.973923 160.0
249.02951 112.0
249.050583 80.0
249.112915 128.0
249.160339 248.0
249.197113 140.0
249.231232 128.0
249.280594 124.0
249.347916 172.0
249.38913 196.0
249.408798 104.0
249.471664 160.0
249.550705 116.0
249.575836 232.0
249.626556 236.0
249.667831 208.0
249.721176 132.0
249.759399 92.0
249.799133 120.0
249.867676 144.0
249.891525 148.0
249.943069 136.0
249.965347 96.0
250.001862 124.0
250.015945 52.0
250.022614 152.0
250.056458 116.0
250.081802 208.0
250.101273 272.0
250.159042 64.0
250.187378 112.0
250.239853 260.0
250.303864 108.0
250.351151 244.0
250.380157 108.0
250.390121 176.0
250.412216 188.0
250.430862 112.0
250.474854 152.0
250.527023 180.0
250.573227 144.0
250.604553 160.0
250.634613 108.0
250.675583 196.0
250.698547 120.0
250.719711 104.0
250.747253 184.0
250.785645 208.0
250.817886 160.0
250.849426 156.0
250.88707 204.0
250.927155 256.0
250.973312 312.0
251.017807 168.0
251.046387 276.0
251.139038 188.0
251.163315 132.0
251.187408 104.0
251.229584 108.0
251.266876 236.0
251.303421 148.0
251.366196 140.0
251.452454 116.0
251.460999 96.0
251.473587 232.0
251.501312 128.0
251.53978 56.0
251.574509 64.0
251.612396 72.0
251.640015 144.0
251.682495 148.0
251.728012 168.0
251.759216 68.0
251.78363 308.0
251.8228 108.0
251.872757 224.0
251.966049 188.0
251.997711 100.0
252.052551 280.0
252.078079 160.0
252.105911 300.0
252.155716 140.0
252.179535 304.0
252.230286 200.0
252.256866 176.0
252.297958 132.0
252.354874 176.0
252.411453 148.0
252.46199 108.0
252.50293 88.0
252.528168 80.0
252.57843 220.0
252.623703 92.0
252.667984 136.0
252.747131 152.0
252.836884 172.0
252.863464 124.0
252.871231 160.0
252.905334 104.0
252.955002 116.0
252.986572 156.0
253.053055 972.0
253.089355 316.0
253.122711 272.0
253.15506 160.0
253.176254 168.0
253.212448 120.0
253.253891 148.0
253.268204 80.0
253.284546 116.0
253.289459 168.0
253.334518 152.0
253.370834 220.0
253.395218 52.0
253.439758 208.0
253.458221 76.0
253.463959 124.0
253.51152 188.0
253.628052 144.0
253.722748 172.0
253.805069 72.0
253.834244 100.0
253.877579 156.0
253.929901 164.0
253.952728 128.0
253.993454 284.0
254.053879 332.0
254.094849 96.0
254.122589 188.0
254.148804 120.0
254.204208 116.0
254.289139 68.0
254.332916 84.0
254.371506 112.0
254.41507 124.0
254.493774 100.0
254.541718 160.0
254.582092 176.0
254.621979 104.0
254.638535 152.0
254.644287 108.0
254.683914 204.0
254.734161 244.0
254.741974 200.0
254.769165 116.0
254.821884 180.0
254.900833 180.0
254.932617 132.0
255.049759 208.0
255.097519 304.0
255.138596 208.0
255.206558 180.0
255.230789 96.0
255.271423 108.0
255.282364 160.0
255.327454 132.0
255.370728 52.0
255.431168 76.0
255.470993 108.0
255.507507 124.0
255.534698 176.0
255.560165 280.0
255.602966 104.0
255.635193 372.0
255.698044 128.0
255.710403 232.0
255.738693 224.0
255.792816 136.0
255.822586 132.0
255.878937 240.0
255.925461 212.0
255.968872 116.0
256.026367 156.0
256.087189 1016.0
256.120667 112.0
256.156952 160.0
256.202301 104.0
256.251038 108.0
256.284119 92.0
256.338562 180.0
256.363586 136.0
256.376251 116.0
256.387451 132.0
256.401093 96.0
256.427277 156.0
256.450958 136.0
256.483948 140.0
256.524506 164.0
256.56488 136.0
256.595245 204.0
256.625275 76.0
256.645355 116.0
256.670074 104.0
256.840698 144.0
256.871002 84.0
256.906097 140.0
256.96283 160.0
256.998627 180.0
257.020966 136.0
257.092163 540.0
257.144562 252.0
257.188873 184.0
257.219666 124.0
257.254974 112.0
257.311218 204.0
257.344696 104.0
257.357422 176.0
257.420563 132.0
257.485779 240.0
257.527954 144.0
257.54068 116.0
257.547424 120.0
257.572266 136.0
257.640381 104.0
257.669128 60.0
257.724152 108.0
257.763611 84.0
257.788879 212.0
257.819305 188.0
257.883453 124.0
257.920105 104.0
257.947052 100.0
257.988556 144.0
258.053314 232.0
258.101074 1036.0
258.161377 44.0
258.240204 168.0
258.284302 188.0
258.310394 352.0
258.362915 108.0
258.392944 236.0
258.435272 140.0
258.500488 124.0
258.531219 112.0
258.581635 156.0
258.60611 132.0
258.654114 132.0
258.704803 124.0
258.741425 132.0
258.791321 232.0
258.864563 104.0
258.892944 188.0
258.930573 164.0
258.975037 204.0
259.015747 292.0
259.106079 984.0
259.138458 136.0
259.169739 120.0
259.242798 320.0
259.28894 104.0
259.368866 184.0
259.40036 148.0
259.431488 120.0
259.453003 200.0
259.48941 120.0
259.516174 96.0
259.581299 256.0
259.606781 132.0
259.672852 280.0
259.705109 64.0
259.730774 128.0
259.779205 168.0
259.813873 84.0
259.869354 168.0
259.908997 204.0
259.935852 112.0
259.974365 204.0
260.027863 180.0
260.067688 372.0
260.113098 264.0
260.179688 68.0
260.220673 104.0
260.250702 96.0
260.296051 128.0
260.361511 116.0
260.390869 116.0
260.402771 180.0
260.446594 236.0
260.488708 120.0
260.523224 112.0
260.545074 92.0
260.567017 160.0
260.651215 200.0
260.715424 156.0
260.741516 116.0
260.789764 260.0
260.85791 92.0
260.883636 144.0
260.908295 256.0
260.940887 140.0
261.037964 164.0
261.066895 188.0
261.099976 112.0
261.124146 156.0
261.133087 104.0
261.153961 128.0
261.195007 208.0
261.242249 180.0
261.278259 124.0
261.32312 128.0
261.380371 136.0
261.42868 164.0
261.449738 204.0
261.47226 164.0
261.512207 156.0
261.544647 140.0
261.594574 124.0
261.616852 100.0
261.646088 220.0
261.695709 108.0
261.727173 268.0
261.765076 140.0
261.817169 124.0
261.855408 116.0
261.87796 88.0
261.906097 116.0
261.971375 44.0
261.998871 148.0
262.042145 240.0
262.064758 272.0
262.105286 120.0
262.147064 112.0
262.175751 268.0
262.227386 124.0
262.279572 264.0
262.339325 132.0
262.377441 68.0
262.438629 104.0
262.447083 100.0
262.45871 120.0
262.492126 196.0
262.49823 112.0
262.511383 248.0
262.556244 124.0
262.635406 164.0
262.65799 104.0
262.691833 196.0
262.746368 92.0
262.812042 96.0
262.846313 132.0
262.906433 48.0
262.937836 44.0
262.946533 76.0
262.966095 196.0
263.02832 68.0
263.033051 344.0
263.066895 56.0
263.09256 260.0
263.128174 156.0
263.244263 296.0
263.28244 376.0
263.307159 160.0
263.385468 140.0
263.417328 176.0
263.4758 132.0
263.553162 44.0
263.593262 268.0
263.600037 92.0
263.657593 184.0
263.691803 116.0
263.75882 220.0
263.778961 220.0
263.818787 224.0
263.869629 88.0
263.901367 84.0
263.934387 112.0
263.944397 92.0
263.960114 140.0
263.997284 204.0
264.00296 124.0
264.041779 152.0
264.114441 144.0
264.143921 80.0
264.194916 192.0
264.235565 404.0
264.265778 228.0
264.290955 152.0
264.333984 272.0
264.413147 332.0
264.471588 140.0
264.523132 156.0
264.588745 160.0
264.624512 100.0
264.68866 140.0
264.723267 128.0
264.799347 188.0
264.830139 92.0
264.871063 140.0
264.912933 144.0
264.960297 380.0
265.050323 420.0
265.101288 148.0
265.157013 160.0
265.22403 108.0
265.246918 156.0
265.283539 140.0
265.324768 260.0
265.388214 156.0
265.436188 144.0
265.458893 60.0
265.486542 176.0
265.531342 164.0
265.611328 156.0
265.639099 120.0
265.682434 100.0
265.694794 88.0
265.711792 128.0
265.719666 212.0
265.747681 156.0
265.789764 152.0
265.814301 136.0
265.839783 120.0
265.913086 152.0
265.955353 212.0
265.983307 224.0
266.011627 148.0
266.057465 376.0
266.130371 180.0
266.171814 116.0
266.205292 100.0
266.244263 180.0
266.314148 208.0
266.324585 240.0
266.337952 104.0
266.349365 312.0
266.406647 236.0
266.483765 220.0
266.543121 188.0
266.565857 68.0
266.604858 40.0
266.669861 48.0
266.715363 148.0
266.76709 132.0
266.795624 116.0
266.805298 144.0
266.822449 124.0
266.840576 248.0
266.894318 192.0
266.978729 156.0
267.011261 92.0
267.067017 520.0
267.104065 128.0
267.182251 164.0
267.235565 172.0
267.269043 268.0
267.282318 124.0
267.28894 120.0
267.336578 72.0
267.407623 136.0
267.440399 148.0
267.509186 144.0
267.546051 212.0
267.593872 108.0
267.635223 272.0
267.701569 140.0
267.745605 120.0
267.808014 232.0
267.8703 52.0
267.891327 256.0
267.919434 116.0
267.996643 120.0
268.020447 236.0
268.050385 212.0
268.086426 544.0
268.146027 148.0
268.176849 144.0
268.212769 120.0
268.275055 136.0
268.363647 428.0
268.388763 280.0
268.425323 176.0
268.480438 180.0
268.488922 112.0
268.525635 124.0
268.571411 280.0
268.600769 40.0
268.631378 184.0
268.689789 152.0
268.737793 316.0
268.817627 188.0
268.826843 164.0
268.920532 80.0
268.985809 216.0
269.023773 160.0
269.093353 1292.0
269.184967 124.0
269.235291 248.0
269.261017 140.0
269.337402 212.0
269.381042 128.0
269.407837 212.0
269.438019 152.0
269.46106 192.0
269.537781 76.0
269.60968 100.0
269.64801 120.0
269.724182 352.0
269.744629 136.0
269.7742 140.0
269.831299 124.0
269.858093 244.0
269.892975 108.0
269.901215 172.0
269.929413 188.0
269.938202 168.0
270.001343 328.0
270.034698 124.0
270.101807 3388.0
270.158508 80.0
270.224213 192.0
270.251801 120.0
270.284973 168.0
270.328857 148.0
270.388977 272.0
270.427307 80.0
270.451996 140.0
270.457977 76.0
270.47641 68.0
270.549805 232.0
270.634216 168.0
270.684937 208.0
270.713379 296.0
270.741577 224.0
270.769623 188.0
270.905243 160.0
270.914368 152.0
270.924072 172.0
270.973297 216.0
270.978149 104.0
270.99527 144.0
271.023346 124.0
271.047638 136.0
271.102386 1032.0
271.157227 168.0
271.200317 60.0
271.232544 140.0
271.289673 76.0
271.297638 76.0
271.31134 184.0
271.365723 72.0
271.393738 128.0
271.429047 140.0
271.434662 100.0
271.475708 104.0
271.51178 108.0
271.559387 148.0
271.593109 124.0
271.618225 156.0
271.659393 180.0
271.704193 152.0
271.734192 40.0
271.769409 136.0
271.807037 72.0
271.832184 172.0
271.88089 148.0
271.94632 128.0
272.003052 276.0
272.059265 108.0
272.103424 440.0
272.150238 116.0
272.181122 136.0
272.219452 100.0
272.281342 228.0
272.287628 164.0
272.320801 244.0
272.414825 208.0
272.464417 180.0
272.519257 204.0
272.618164 88.0
272.663391 304.0
272.726776 76.0
272.756195 136.0
272.817627 116.0
272.8461 116.0
272.876678 188.0
272.904053 140.0
272.94986 168.0
272.962097 128.0
272.985535 96.0
273.015961 144.0
273.052063 112.0
273.095673 152.0
273.140015 148.0
273.179321 96.0
273.200226 188.0
273.23114 136.0
273.264099 156.0
273.292267 84.0
273.32962 180.0
273.367249 200.0
273.423431 140.0
273.44986 224.0
273.494263 180.0
273.542389 72.0
273.60495 108.0
273.682861 268.0
273.753326 248.0
273.789337 120.0
273.819214 224.0
273.877167 232.0
273.921875 132.0
273.961731 132.0
273.993011 252.0
274.025116 280.0
274.069336 152.0
274.09494 224.0
274.157562 236.0
274.23288 276.0
274.328033 180.0
274.334656 208.0
274.359253 100.0
274.439575 176.0
274.487976 148.0
274.537445 140.0
274.592407 72.0
274.599854 104.0
274.68103 176.0
274.720428 184.0
274.785828 108.0
274.837982 224.0
274.872162 192.0
274.924194 204.0
274.960632 232.0
275.048615 112.0
275.070526 120.0
275.105957 124.0
275.143097 144.0
275.196686 160.0
275.237488 176.0
275.261169 168.0
275.318176 144.0
275.339417 192.0
275.40332 68.0
275.431885 132.0
275.500732 192.0
275.56073 152.0
275.613892 92.0
275.668121 144.0
275.709442 132.0
275.751099 172.0
275.775543 152.0
275.848694 132.0
275.874146 256.0
275.960785 128.0
275.987122 100.0
276.04361 388.0
276.088531 84.0
276.154663 296.0
276.177795 240.0
276.211334 116.0
276.219452 336.0
276.271179 72.0
276.331116 208.0
276.357574 80.0
276.394501 100.0
276.415894 120.0
276.450226 108.0
276.483337 96.0
276.542908 132.0
276.613831 116.0
276.633209 176.0
276.655304 144.0
276.740417 184.0
276.776581 144.0
276.788422 172.0
276.824036 220.0
276.85379 128.0
276.863129 160.0
276.92099 300.0
276.963409 148.0
276.992218 220.0
277.052765 944.0
277.08725 296.0
277.124329 148.0
277.16861 132.0
277.214111 144.0
277.261597 132.0
277.284821 64.0
277.3302 96.0
277.367889 120.0
277.40744 128.0
277.499359 124.0
277.62439 160.0
277.644379 160.0
277.680573 144.0
277.723633 92.0
277.777527 60.0
277.838562 144.0
277.885529 272.0
277.917419 168.0
277.954193 156.0
277.976044 164.0
278.059967 12456.0
278.124786 236.0
278.209106 148.0
278.260071 172.0
278.29538 164.0
278.330078 192.0
278.358307 116.0
278.418335 164.0
278.437439 184.0
278.469299 224.0
278.49585 164.0
278.546906 172.0
278.588867 376.0
278.610474 152.0
278.633942 132.0
278.668152 120.0
278.703125 112.0
278.751678 132.0
278.774933 184.0
278.797913 140.0
278.832581 172.0
278.857025 212.0
278.904602 264.0
278.971039 100.0
279.065613 4008.0
279.12619 200.0
279.137299 168.0
279.175049 108.0
279.263672 368.0
279.291016 228.0
279.324554 160.0
279.416748 176.0
279.465759 280.0
279.526489 108.0
279.553101 84.0
279.592407 84.0
279.613953 140.0
279.642975 108.0
279.66626 68.0
279.699188 140.0
279.748596 196.0
279.772522 148.0
279.869354 100.0
279.904877 120.0
279.914978 80.0
279.962585 128.0
280.00708 324.0
280.059814 2460.0
280.173462 196.0
280.220184 184.0
280.250977 112.0
280.297974 160.0
280.354187 192.0
280.398529 120.0
280.410614 92.0
280.435272 124.0
280.468597 92.0
280.492615 104.0
280.515686 164.0
280.542358 148.0
280.620392 168.0
280.677032 184.0
280.749756 100.0
280.794769 112.0
280.833099 128.0
280.863739 172.0
280.948212 376.0
281.000061 132.0
281.063812 1744.0
281.121094 172.0
281.156158 144.0
281.193176 72.0
281.20459 152.0
281.242218 144.0
281.269592 68.0
281.296295 144.0
281.322418 164.0
281.371338 92.0
281.395905 128.0
281.439575 148.0
281.496613 72.0
281.523346 208.0
281.546722 44.0
281.583435 204.0
281.626862 272.0
281.684052 140.0
281.734131 152.0
281.823975 148.0
281.853668 140.0
281.877716 196.0
281.919464 156.0
281.950958 96.0
282.017883 148.0
282.074524 496.0
282.097137 324.0
282.15097 72.0
282.183746 200.0
282.223785 308.0
282.265198 144.0
282.291473 168.0
282.371979 232.0
282.434906 252.0
282.4758 156.0
282.508606 140.0
282.559875 120.0
282.571259 56.0
282.608215 88.0
282.636932 184.0
282.684235 108.0
282.732178 196.0
282.800262 60.0
282.842072 200.0
282.867432 92.0
282.892792 180.0
282.920685 168.0
282.957733 136.0
282.998016 104.0
283.023193 76.0
283.064423 200.0
283.097168 1172.0
283.243591 288.0
283.307343 144.0
283.351318 108.0
283.41333 68.0
283.446838 52.0
283.47348 76.0
283.520569 108.0
283.547394 128.0
283.577545 96.0
283.611084 104.0
283.645844 160.0
283.72171 204.0
283.767944 176.0
283.879303 80.0
283.906128 40.0
283.940735 248.0
283.968353 332.0
283.995117 220.0
284.039062 148.0
284.103668 6620.0
284.167206 120.0
284.197754 200.0
284.212982 400.0
284.222839 232.0
284.268311 216.0
284.333862 148.0
284.401001 128.0
284.438934 128.0
284.460358 104.0
284.519104 152.0
284.559021 424.0
284.602112 268.0
284.647003 108.0
284.763885 156.0
284.79126 116.0
284.801788 200.0
284.852844 132.0
284.934784 196.0
284.976929 128.0
285.002991 176.0
285.112488 11488.0
285.18866 156.0
285.213165 168.0
285.270844 196.0
285.302948 48.0
285.336578 36.0
285.372345 172.0
285.386658 156.0
285.424927 132.0
285.434631 96.0
285.476379 156.0
285.52301 208.0
285.586914 148.0
285.642395 264.0
285.677948 160.0
285.732697 212.0
285.774719 104.0
285.820923 124.0
285.859711 144.0
285.903107 152.0
285.913605 152.0
285.929291 184.0
285.979095 148.0
286.021423 216.0
286.058319 164.0
286.114899 2696.0
286.178406 188.0
286.246796 148.0
286.287231 84.0
286.329254 124.0
286.376404 136.0
286.437683 148.0
286.463989 148.0
286.490936 100.0
286.528381 136.0
286.58316 168.0
286.627533 156.0
286.692902 188.0
286.729004 80.0
286.795502 164.0
286.82312 136.0
286.859924 196.0
286.902435 280.0
286.953156 224.0
286.977722 168.0
287.024872 308.0
287.060577 204.0
287.111328 384.0
287.176575 140.0
287.240631 164.0
287.264191 272.0
287.305756 116.0
287.350647 136.0
287.389343 112.0
287.420227 340.0
287.450195 104.0
287.470306 92.0
287.498383 188.0
287.532867 160.0
287.563263 52.0
287.644257 220.0
287.685913 148.0
287.71106 124.0
287.72467 112.0
287.736176 160.0
287.796173 156.0
287.861176 256.0
287.916748 108.0
287.922089 128.0
287.971283 160.0
287.975952 136.0
287.991577 56.0
288.004089 128.0
288.052856 196.0
288.083252 152.0
288.129364 128.0
288.19751 156.0
288.245209 276.0
288.270142 132.0
288.360352 44.0
288.408722 104.0
288.458374 136.0
288.49057 124.0
288.52597 104.0
288.55304 120.0
288.588593 108.0
288.612915 124.0
288.645172 176.0
288.669464 92.0
288.709412 144.0
288.777191 184.0
288.817017 140.0
288.862701 176.0
288.89801 84.0
288.93454 80.0
288.96228 124.0
289.016541 300.0
289.052338 656.0
289.148499 280.0
289.213684 180.0
289.252197 192.0
289.277008 76.0
289.33252 244.0
289.388733 152.0
289.424988 124.0
289.465057 112.0
289.525909 220.0
289.560211 240.0
289.613159 60.0
289.664612 300.0
289.751038 116.0
289.7948 180.0
289.835693 84.0
289.886688 108.0
289.946198 116.0
289.960999 56.0
289.977783 132.0
290.055115 1004.0
290.110382 216.0
290.156891 128.0
290.191071 200.0
290.241699 316.0
290.284851 152.0
290.380646 136.0
290.41394 148.0
290.457489 116.0
290.520721 220.0
290.554657 232.0
290.61853 260.0
290.675903 152.0
290.711823 276.0
290.749969 188.0
290.814148 188.0
290.824036 212.0
290.834015 268.0
290.916016 164.0
290.949921 112.0
290.963867 140.0
290.987915 172.0
291.065308 2256.0
291.140747 224.0
291.164307 100.0
291.250183 208.0
291.313477 124.0
291.368988 268.0
291.381561 108.0
291.436676 144.0
291.441254 180.0
291.466217 120.0
291.512604 192.0
291.547791 140.0
291.570648 140.0
291.676727 116.0
291.750336 120.0
291.794617 44.0
291.841827 144.0
291.861481 208.0
291.923523 104.0
291.954132 48.0
291.977936 116.0
292.005157 188.0
292.064209 1060.0
292.127899 132.0
292.156189 120.0
292.216064 208.0
292.239868 76.0
292.269928 116.0
292.342407 188.0
292.374084 156.0
292.43045 140.0
292.456146 168.0
292.49173 80.0
292.519897 184.0
292.59726 88.0
292.658539 228.0
292.699921 192.0
292.765991 132.0
292.811432 276.0
292.920776 192.0
292.982422 116.0
293.001221 72.0
293.071777 5376.0
293.14679 84.0
293.179108 204.0
293.305847 200.0
293.34314 208.0
293.355164 136.0
293.36264 376.0
293.410187 256.0
293.431519 120.0
293.439148 196.0
293.492371 160.0
293.522522 100.0
293.590027 180.0
293.629913 184.0
293.676788 132.0
293.688934 104.0
293.741638 140.0
293.746765 144.0
293.778778 64.0
293.800751 188.0
293.855591 148.0
293.884918 156.0
293.954773 464.0
293.978577 316.0
294.006653 172.0
294.013824 108.0
294.079071 61116.0
294.193787 432.0
294.232147 120.0
294.264191 48.0
294.313934 80.0
294.344116 160.0
294.383575 68.0
294.419281 168.0
294.430939 56.0
294.456848 144.0
294.492126 48.0
294.500275 160.0
294.548035 172.0
294.575104 124.0
294.608368 172.0
294.656555 236.0
294.703583 104.0
294.728058 44.0
294.745422 104.0
294.7836 160.0
294.83493 144.0
294.880554 172.0
294.915527 188.0
294.925751 96.0
294.939148 220.0
294.97583 280.0
295.001526 336.0
295.080627 10644.0
295.137115 200.0
295.165527 136.0
295.171783 152.0
295.194977 192.0
295.234436 324.0
295.261536 128.0
295.287231 228.0
295.314453 268.0
295.380035 208.0
295.408722 260.0
295.438721 132.0
295.499115 276.0
295.525696 52.0
295.571747 136.0
295.5784 140.0
295.631775 88.0
295.679443 180.0
295.715424 136.0
295.751556 88.0
295.78833 220.0
295.852753 116.0
295.902191 288.0
295.962952 156.0
295.988312 104.0
296.076508 19412.0
296.179901 224.0
296.224121 120.0
296.26236 48.0
296.320374 84.0
296.353027 152.0
296.42627 76.0
296.463348 156.0
296.486298 160.0
296.549652 120.0
296.603149 224.0
296.64743 144.0
296.714172 124.0
296.746765 64.0
296.773407 88.0
296.821289 272.0
296.854767 44.0
296.896942 80.0
296.927429 128.0
296.949371 96.0
296.959869 108.0
296.973663 96.0
296.985718 132.0
296.996857 204.0
297.078857 2620.0
297.110352 512.0
297.208832 244.0
297.251587 228.0
297.302765 132.0
297.337738 132.0
297.374634 220.0
297.402344 160.0
297.427155 48.0
297.444092 52.0
297.44928 128.0
297.478729 116.0
297.528778 84.0
297.588013 368.0
297.623718 104.0
297.631805 108.0
297.647644 320.0
297.711853 284.0
297.744385 192.0
297.782745 212.0
297.808228 108.0
297.813568 88.0
297.8414 296.0
297.871948 124.0
297.940643 144.0
297.964264 328.0
297.9888 116.0
298.032715 100.0
298.113525 368.0
298.195404 136.0
298.243439 100.0
298.271576 280.0
298.326294 164.0
298.377808 100.0
298.426025 124.0
298.447906 76.0
298.473541 356.0
298.555847 48.0
298.647064 116.0
298.740417 176.0
298.767944 116.0
298.812317 152.0
298.883362 168.0
298.966492 384.0
299.012024 136.0
299.057007 180.0
299.136932 144.0
299.203949 152.0
299.315216 140.0
299.35022 116.0
299.397858 184.0
299.470184 84.0
299.511841 208.0
299.56665 104.0
299.597656 72.0
299.647034 160.0
299.674683 132.0
299.73941 144.0
299.776917 124.0
299.811279 56.0
299.868347 204.0
299.914276 100.0
299.987061 144.0
300.057343 116.0
300.091797 124.0
300.115753 220.0
300.196045 216.0
300.23761 180.0
300.274017 164.0
300.338501 188.0
300.419464 344.0
300.487152 164.0
300.539795 124.0
300.574158 148.0
300.620544 180.0
300.646362 196.0
300.683014 212.0
300.728699 120.0
300.77652 188.0
300.860748 176.0
300.918579 96.0
300.942749 112.0
300.970367 68.0
301.002258 152.0
301.044403 248.0
301.073425 52.0
301.10849 208.0
301.136139 108.0
301.181458 188.0
301.248108 192.0
301.28363 200.0
301.306885 124.0
301.342285 124.0
301.37561 160.0
301.405579 112.0
301.443604 60.0
301.491974 152.0
301.543823 296.0
301.607147 176.0
301.655579 200.0
301.700256 136.0
301.733948 204.0
301.756531 200.0
301.799316 316.0
301.874451 120.0
301.922699 128.0
301.957001 72.0
301.998505 88.0
302.045746 276.0
302.142059 56.0
302.186371 148.0
302.214722 92.0
302.25589 164.0
302.282715 80.0
302.296295 156.0
302.302826 148.0
302.337769 160.0
302.395233 280.0
302.437805 196.0
302.480103 148.0
302.525085 144.0
302.549255 200.0
302.645996 80.0
302.654572 156.0
302.666229 100.0
302.707794 264.0
302.753845 148.0
302.77655 348.0
302.817078 204.0
302.839111 140.0
302.886353 96.0
302.914062 108.0
302.95813 156.0
303.055664 1912.0
303.098175 408.0
303.169373 288.0
303.207672 288.0
303.252625 68.0
303.322968 136.0
303.358856 180.0
303.395752 120.0
303.456451 128.0
303.519958 136.0
303.574341 152.0
303.643219 176.0
303.65509 76.0
303.667542 212.0
303.693604 140.0
303.720184 232.0
303.732056 148.0
303.744812 228.0
303.801758 56.0
303.858398 232.0
303.870575 120.0
303.910095 284.0
303.959564 172.0
303.987152 104.0
304.064575 14788.0
304.11972 192.0
304.150146 52.0
304.205902 292.0
304.259827 156.0
304.290771 144.0
304.333588 128.0
304.385498 136.0
304.446838 200.0
304.498291 128.0
304.537445 92.0
304.572174 84.0
304.61554 136.0
304.654816 132.0
304.669708 52.0
304.699127 320.0
304.747284 176.0
304.775116 120.0
304.82074 124.0
304.872589 132.0
304.93985 132.0
304.945251 108.0
304.987183 272.0
305.019958 116.0
305.068451 12852.0
305.170197 140.0
305.226837 120.0
305.249023 100.0
305.265839 68.0
305.279083 132.0
305.30423 180.0
305.336243 204.0
305.341309 140.0
305.379364 96.0
305.424652 264.0
305.484894 120.0
305.538635 208.0
305.571777 104.0
305.610443 176.0
305.680542 80.0
305.72998 52.0
305.76825 100.0
305.799561 80.0
305.823944 80.0
305.906006 248.0
305.947174 168.0
306.021637 144.0
306.071838 7984.0
306.124664 564.0
306.17749 144.0
306.230103 256.0
306.286285 352.0
306.325073 132.0
306.369934 76.0
306.39798 128.0
306.421326 192.0
306.485413 196.0
306.518616 120.0
306.548706 160.0
306.615967 248.0
306.6409 208.0
306.658203 92.0
306.663818 272.0
306.705658 148.0
306.730164 272.0
306.752228 212.0
306.796692 64.0
306.869873 320.0
306.950806 156.0
306.967621 168.0
307.066376 3380.0
307.148041 232.0
307.179443 128.0
307.215302 144.0
307.241974 116.0
307.369934 80.0
307.419861 144.0
307.47287 160.0
307.529053 272.0
307.565521 100.0
307.603424 168.0
307.617371 152.0
307.632263 144.0
307.639038 120.0
307.689636 60.0
307.753876 108.0
307.800323 40.0
307.871857 152.0
307.905457 180.0
307.951477 92.0
308.00592 184.0
308.069489 1040.0
308.177155 348.0
308.23996 144.0
308.266876 136.0
308.303986 160.0
308.333832 104.0
308.360016 232.0
308.400513 196.0
308.460052 220.0
308.488983 168.0
308.564087 132.0
308.603027 200.0
308.651367 224.0
308.68335 132.0
308.709167 136.0
308.721619 164.0
308.75943 196.0
308.791016 160.0
308.859222 168.0
308.915619 124.0
308.968292 152.0
309.001801 132.0
309.058472 604.0
309.093018 300.0
309.148651 232.0
309.173431 112.0
309.206421 252.0
309.234039 164.0
309.26004 100.0
309.28656 32.0
309.352264 124.0
309.390839 368.0
309.418091 108.0
309.453918 152.0
309.490631 108.0
309.513214 124.0
309.566345 116.0
309.577148 44.0
309.58905 140.0
309.614502 240.0
309.71817 272.0
309.790802 188.0
309.84021 128.0
309.892853 152.0
309.93277 84.0
309.960083 128.0
310.007965 208.0
310.02121 132.0
310.055359 712.0
310.117554 144.0
310.141541 156.0
310.193817 96.0
310.222595 76.0
310.289917 112.0
310.323517 192.0
310.347961 120.0
310.404968 340.0
310.434448 120.0
310.468414 136.0
310.509155 120.0
310.544037 256.0
310.606201 112.0
310.653198 120.0
310.720184 204.0
310.775085 124.0
310.852142 148.0
310.933899 104.0
310.9776 132.0
311.014526 244.0
311.043335 188.0
311.127228 688.0
311.199127 224.0
311.256866 124.0
311.295502 76.0
311.349701 220.0
311.388855 164.0
311.44043 104.0
311.485168 88.0
311.516785 176.0
311.552307 152.0
311.606812 136.0
311.650299 212.0
311.677277 216.0
311.691315 148.0
311.696899 136.0
311.746338 204.0
311.80011 176.0
311.850586 68.0
311.92099 144.0
311.952637 136.0
311.992218 172.0
312.025391 268.0
312.069061 208.0
312.128754 188.0
312.189911 228.0
312.230316 144.0
312.335846 88.0
312.376282 212.0
312.423767 80.0
312.448395 80.0
312.478363 92.0
312.52179 172.0
312.571777 128.0
312.597656 140.0
312.644531 268.0
312.68869 112.0
312.753571 196.0
312.795319 124.0
312.817932 244.0
312.850861 224.0
312.894623 76.0
312.934113 172.0
312.973633 108.0
313.003571 104.0
313.045563 128.0
313.07016 200.0
313.0979 132.0
313.15448 124.0
313.230896 152.0
313.286285 132.0
313.327881 128.0
313.37085 188.0
313.403961 152.0
313.467834 168.0
313.535675 88.0
313.579376 168.0
313.634338 208.0
313.682312 312.0
313.785156 140.0
313.827026 116.0
313.86676 284.0
313.935944 152.0
313.977753 92.0
314.02124 228.0
314.063507 172.0
314.090027 208.0
314.132111 108.0
314.20047 500.0
314.228027 136.0
314.266449 68.0
314.298431 308.0
314.358093 288.0
314.442871 188.0
314.465332 156.0
314.491394 220.0
314.514923 80.0
314.569946 168.0
314.611084 104.0
314.669098 92.0
314.744293 124.0
314.782959 184.0
314.834778 404.0
314.866486 176.0
314.901276 48.0
314.924957 208.0
314.956604 140.0
314.984131 144.0
315.04422 128.0
315.094421 132.0
315.1633 60.0
315.198639 128.0
315.278656 280.0
315.304657 68.0
315.3862 264.0
315.408966 164.0
315.45932 168.0
315.508026 156.0
315.551056 136.0
315.61087 96.0
315.635803 208.0
315.677063 116.0
315.689484 112.0
315.750763 180.0
315.801361 204.0
315.828796 148.0
315.864594 160.0
315.902222 100.0
315.934052 136.0
315.979004 148.0
316.026062 112.0
316.072449 216.0
316.113159 156.0
316.137512 80.0
316.151367 136.0
316.208313 228.0
316.252014 160.0
316.271271 192.0
316.302094 112.0
316.333954 92.0
316.358734 64.0
316.385681 164.0
316.488403 148.0
316.546387 84.0
316.574341 152.0
316.584106 136.0
316.5961 240.0
316.666809 88.0
316.705627 116.0
316.769531 128.0
316.831085 144.0
316.872253 120.0
316.925415 140.0
316.972839 52.0
317.055237 332.0
317.128876 112.0
317.292511 96.0
317.325195 116.0
317.393036 248.0
317.403107 248.0
317.414581 108.0
317.481842 124.0
317.535156 112.0
317.559998 180.0
317.598999 172.0
317.66098 284.0
317.730682 240.0
317.813293 176.0
317.895111 148.0
317.936798 84.0
317.980438 160.0
318.063873 2104.0
318.144196 160.0
318.215515 160.0
318.250092 104.0
318.326721 304.0
318.354706 164.0
318.404083 288.0
318.436615 192.0
318.46228 132.0
318.489929 192.0
318.545135 124.0
318.607178 144.0
318.644836 140.0
318.676422 100.0
318.735291 148.0
318.767273 112.0
318.808563 100.0
318.852356 188.0
318.907593 252.0
318.946442 160.0
318.990601 296.0
319.074432 16248.0
319.200409 216.0
319.228912 156.0
319.25827 200.0
319.322968 208.0
319.391174 52.0
319.429626 232.0
319.461029 308.0
319.523315 180.0
319.559998 176.0
319.588409 280.0
319.605438 68.0
319.618835 136.0
319.653748 152.0
319.707672 52.0
319.76001 232.0
319.793488 196.0
319.816986 76.0
319.827972 136.0
319.851837 184.0
319.878601 196.0
319.942261 364.0
319.978912 136.0
320.079224 11428.0
320.188019 96.0
320.219635 144.0
320.260101 164.0
320.294159 120.0
320.321869 196.0
320.361328 228.0
320.407654 204.0
320.446564 32.0
320.488892 132.0
320.517822 60.0
320.562134 212.0
320.587311 144.0
320.62854 128.0
320.659363 428.0
320.698456 276.0
320.730194 156.0
320.780365 184.0
320.819 124.0
320.860016 32.0
320.898438 200.0
320.937469 164.0
321.002502 244.0
321.08725 12012.0
321.154755 152.0
321.178955 328.0
321.217377 136.0
321.28833 140.0
321.347168 80.0
321.373474 124.0
321.423248 188.0
321.437836 88.0
321.497498 172.0
321.546814 68.0
321.588287 156.0
321.619263 144.0
321.677216 156.0
321.721313 132.0
321.733826 56.0
321.747284 184.0
321.787872 176.0
321.834045 104.0
321.877228 136.0
321.92334 112.0
321.955475 136.0
321.981445 144.0
322.082672 4072.0
322.182007 124.0
322.219788 64.0
322.29834 232.0
322.345093 160.0
322.392609 220.0
322.421783 76.0
322.453186 168.0
322.480652 116.0
322.59787 56.0
322.641663 156.0
322.681366 164.0
322.720093 96.0
322.759216 92.0
322.842346 204.0
322.870361 368.0
322.93515 280.0
322.977631 244.0
323.084595 3132.0
323.145294 188.0
323.245636 152.0
323.26535 204.0
323.298645 124.0
323.358215 184.0
323.417786 64.0
323.452301 140.0
323.480835 172.0
323.509613 112.0
323.557709 296.0
323.586487 140.0
323.687073 112.0
323.730316 260.0
323.752838 124.0
323.787598 268.0
323.824829 188.0
323.873688 156.0
323.901215 136.0
323.957428 332.0
324.037811 88.0
324.088654 612.0
324.179688 188.0
324.212219 280.0
324.253998 268.0
324.292633 148.0
324.322968 380.0
324.349701 116.0
324.441254 212.0
324.468536 252.0
324.553375 164.0
324.565033 140.0
324.592285 116.0
324.705597 252.0
324.763519 116.0
324.790161 152.0
324.857605 80.0
324.868225 184.0
324.914734 164.0
324.97876 120.0
325.014801 128.0
325.064758 224.0
325.142548 132.0
325.19104 160.0
325.238708 160.0
325.311157 216.0
325.400513 140.0
325.475647 148.0
325.566986 176.0
325.594147 108.0
325.639801 152.0
325.671936 232.0
325.697205 52.0
325.720123 220.0
325.75116 148.0
325.774628 172.0
325.8367 240.0
325.864868 188.0
325.914307 336.0
325.941772 120.0
325.980438 140.0
326.07019 204.0
326.149536 252.0
326.182098 256.0
326.228271 144.0
326.266113 120.0
326.295166 224.0
326.357697 152.0
326.41925 288.0
326.5466 104.0
326.58432 80.0
326.623535 208.0
326.722534 92.0
326.79657 184.0
326.836365 176.0
326.909943 180.0
326.991638 92.0
327.02951 144.0
327.063538 256.0
327.120697 116.0
327.166534 108.0
327.210083 136.0
327.241364 124.0
327.338989 200.0
327.37323 276.0
327.410614 236.0
327.445679 120.0
327.516388 128.0
327.54895 92.0
327.604889 136.0
327.669708 192.0
327.698547 112.0
327.73819 100.0
327.783325 188.0
327.79425 100.0
327.804138 144.0
327.857727 164.0
327.93689 180.0
327.995453 104.0
328.046509 172.0
328.081848 344.0
328.144745 208.0
328.157227 140.0
328.170776 144.0
328.252319 108.0
328.27417 276.0
328.339172 180.0
328.429352 84.0
328.500763 124.0
328.552399 136.0
328.602509 84.0
328.623596 136.0
328.652924 156.0
328.70816 276.0
328.754852 104.0
328.802002 48.0
328.876038 124.0
328.938263 128.0
328.96817 128.0
329.004028 116.0
329.074677 232.0
329.134125 60.0
329.266541 176.0
329.351624 124.0
329.413116 128.0
329.444458 108.0
329.501709 176.0
329.545898 196.0
329.586334 192.0
329.635223 200.0
329.700745 108.0
329.707581 92.0
329.779327 328.0
329.840363 152.0
329.865845 136.0
329.894592 100.0
329.916901 116.0
329.952759 100.0
329.986847 212.0
330.07843 3972.0
330.164032 104.0
330.205566 184.0
330.234131 168.0
330.296448 160.0
330.35202 116.0
330.36795 128.0
330.417236 80.0
330.460541 104.0
330.504028 244.0
330.511139 80.0
330.571808 592.0
330.599762 164.0
330.624603 172.0
330.638092 124.0
330.649902 176.0
330.688141 56.0
330.739105 152.0
330.821716 280.0
330.84903 172.0
330.899231 140.0
330.992462 144.0
331.006165 120.0
331.077545 1844.0
331.133636 156.0
331.184692 84.0
331.235413 104.0
331.264404 36.0
331.315125 160.0
331.363525 144.0
331.409302 156.0
331.445404 100.0
331.495087 60.0
331.532532 108.0
331.567566 60.0
331.574341 112.0
331.658478 112.0
331.694336 272.0
331.732819 364.0
331.79895 128.0
331.828796 76.0
331.858765 152.0
331.882019 148.0
331.913422 136.0
331.969147 148.0
332.021942 60.0
332.084473 2652.0
332.136017 372.0
332.166565 156.0
332.181244 96.0
332.186615 132.0
332.241394 144.0
332.277588 108.0
332.379395 232.0
332.409943 176.0
332.423767 168.0
332.480438 116.0
332.508636 108.0
332.580933 212.0
332.620636 236.0
332.674988 220.0
332.68399 140.0
332.725891 88.0
332.762207 124.0
332.79126 180.0
332.83847 128.0
332.905334 252.0
332.967926 276.0
333.02005 240.0
333.089691 844.0
333.167297 132.0
333.204712 132.0
333.243622 88.0
333.270721 64.0
333.311066 112.0
333.357788 188.0
333.396515 84.0
333.463318 140.0
333.497711 148.0
333.544983 256.0
333.600067 212.0
333.657074 172.0
333.717804 128.0
333.754852 232.0
333.881012 136.0
333.924133 124.0
334.021637 116.0
334.087006 636.0
334.127136 80.0
334.178711 180.0
334.276459 96.0
334.390778 176.0
334.442291 168.0
334.518188 148.0
334.598145 124.0
334.649261 60.0
334.686951 136.0
334.745667 108.0
334.796692 288.0
334.885956 188.0
334.936951 76.0
334.966095 40.0
335.029388 232.0
335.085693 92.0
335.121735 260.0
335.197449 140.0
335.213593 112.0
335.267761 156.0
335.307953 168.0
335.358276 144.0
335.394897 160.0
335.441132 56.0
335.4953 128.0
335.543579 148.0
335.58725 256.0
335.614838 168.0
335.673157 180.0
335.746918 108.0
335.789856 112.0
335.823853 172.0
335.873749 60.0
335.917542 148.0
335.961853 184.0
336.030701 148.0
336.12854 256.0
336.187531 28.0
336.22641 160.0
336.255066 192.0
336.318939 48.0
336.390106 96.0
336.432098 116.0
336.463654 164.0
336.537231 300.0
336.581787 244.0
336.665649 112.0
336.738831 96.0
336.774139 184.0
336.803497 208.0
336.846252 136.0
336.873962 252.0
336.939728 168.0
337.012451 168.0
337.018005 152.0
337.059113 1344.0
337.106689 308.0
337.200287 132.0
337.273071 132.0
337.308319 140.0
337.378693 180.0
337.430481 148.0
337.462891 296.0
337.490662 136.0
337.522308 144.0
337.535797 104.0
337.572083 112.0
337.632111 116.0
337.666443 140.0
337.715424 104.0
337.78421 48.0
337.809814 240.0
337.854126 148.0
337.970886 204.0
338.04007 168.0
338.056458 148.0
338.063507 120.0
338.122559 304.0
338.18689 176.0
338.24707 124.0
338.392029 152.0
338.427063 172.0
338.454254 188.0
338.497925 108.0
338.542114 132.0
338.567505 132.0
338.59314 128.0
338.63504 172.0
338.673706 120.0
338.70993 172.0
338.746979 40.0
338.778076 196.0
338.839813 384.0
338.875214 156.0
338.908386 132.0
338.994232 380.0
339.028961 112.0
339.063446 260.0
339.131348 268.0
339.189911 340.0
339.253235 84.0
339.308197 112.0
339.381226 144.0
339.451111 168.0
339.482819 152.0
339.525665 136.0
339.556091 124.0
339.595062 44.0
339.65033 156.0
339.722656 216.0
339.749146 120.0
339.765991 112.0
339.778687 160.0
339.812897 176.0
339.871857 132.0
339.903595 148.0
339.93396 124.0
339.971619 120.0
340.016541 184.0
340.067474 136.0
340.129303 188.0
340.202209 68.0
340.25058 120.0
340.32373 104.0
340.382507 56.0
340.438293 136.0
340.503357 100.0
340.551697 124.0
340.583588 188.0
340.625183 256.0
340.707825 212.0
340.745392 132.0
340.776489 160.0
340.824249 108.0
340.900879 188.0
340.937469 112.0
340.963196 92.0
341.021057 108.0
341.055725 172.0
341.093384 336.0
341.137299 224.0
341.164642 184.0
341.192444 100.0
341.203888 84.0
341.31015 144.0
341.425751 104.0
341.478516 124.0
341.547821 80.0
341.57724 108.0
341.618164 128.0
341.691284 64.0
341.736938 176.0
341.781616 232.0
341.896484 68.0
341.906189 272.0
341.996735 36.0
342.042114 48.0
342.07193 140.0
342.08429 132.0
342.095551 132.0
342.145538 132.0
342.317047 176.0
342.375641 144.0
342.447479 192.0
342.468719 148.0
342.503662 160.0
342.591553 136.0
342.641174 248.0
342.700134 100.0
342.754761 160.0
342.793457 168.0
342.8862 132.0
342.925781 152.0
342.997925 124.0
343.031525 124.0
343.099548 188.0
343.170807 144.0
343.222626 128.0
343.250122 76.0
343.290894 152.0
343.320679 160.0
343.36084 184.0
343.416382 68.0
343.448517 128.0
343.48111 148.0
343.598114 180.0
343.634308 144.0
343.71347 204.0
343.765808 136.0
343.8396 56.0
343.897552 224.0
343.955811 224.0
344.002411 152.0
344.118286 888.0
344.193756 112.0
344.203094 104.0
344.213776 160.0
344.244171 280.0
344.330658 156.0
344.353882 96.0
344.422974 144.0
344.452545 184.0
344.493164 128.0
344.522736 76.0
344.558807 168.0
344.592926 80.0
344.703766 140.0
344.749298 164.0
344.870087 40.0
344.914429 164.0
344.961792 124.0
345.047363 128.0
345.087494 596.0
345.121155 644.0
345.18277 132.0
345.241302 80.0
345.293488 152.0
345.354553 144.0
345.394501 156.0
345.43158 108.0
345.509827 140.0
345.558197 212.0
345.5979 100.0
345.638153 244.0
345.730408 132.0
345.786865 292.0
345.841553 124.0
345.934814 144.0
345.987244 248.0
346.015991 260.0
346.106445 1332.0
346.203827 172.0
346.243591 296.0
346.36499 232.0
346.41684 60.0
346.456848 120.0
346.501862 148.0
346.547424 148.0
346.59491 68.0
346.69104 144.0
346.720673 156.0
346.757538 280.0
346.827148 232.0
346.864716 140.0
346.90448 144.0
346.955841 100.0
346.993713 116.0
347.004547 76.0
347.105072 4328.0
347.180725 168.0
347.226746 88.0
347.26651 108.0
347.292419 188.0
347.335571 124.0
347.3797 164.0
347.416443 204.0
347.431824 112.0
347.437744 228.0
347.527069 228.0
347.600037 168.0
347.610229 92.0
347.626801 228.0
347.677521 80.0
347.713898 140.0
347.783875 128.0
347.840851 72.0
347.870544 124.0
347.91507 152.0
347.948486 128.0
347.97821 168.0
348.01123 160.0
348.106445 1348.0
348.232391 196.0
348.266266 44.0
348.296844 152.0
348.342163 124.0
348.379303 144.0
348.442444 116.0
348.488495 144.0
348.548584 312.0
348.589325 176.0
348.63736 124.0
348.676575 36.0
348.712006 132.0
348.769165 132.0
348.821533 148.0
348.851257 132.0
348.892151 156.0
348.918182 132.0
348.948975 220.0
349.028229 228.0
349.103638 1468.0
349.176727 136.0
349.244568 224.0
349.296417 164.0
349.423981 120.0
349.487061 76.0
349.531891 184.0
349.562897 168.0
349.671539 100.0
349.699371 80.0
349.734863 232.0
349.815399 192.0
349.873627 84.0
349.901703 148.0
349.948578 68.0
350.004639 160.0
350.091583 272.0
350.119812 140.0
350.189758 256.0
350.233643 148.0
350.283447 204.0
350.29599 176.0
350.34552 184.0
350.373962 124.0
350.422424 124.0
350.479401 140.0
350.550842 160.0
350.576538 84.0
350.632263 204.0
350.671509 88.0
350.725067 216.0
350.779602 132.0
350.817566 108.0
350.880249 252.0
350.907715 112.0
350.985352 128.0
351.036346 132.0
351.085327 84.0
351.147797 180.0
351.223328 112.0
351.252441 120.0
351.330566 236.0
351.394318 144.0
351.452789 164.0
351.498474 240.0
351.568573 144.0
351.607635 108.0
351.670685 108.0
351.701355 144.0
351.779633 100.0
351.812958 36.0
351.846222 140.0
351.924835 316.0
352.015839 176.0
352.060272 260.0
352.094452 196.0
352.159637 256.0
352.229034 180.0
352.28949 184.0
352.343597 188.0
352.371704 196.0
352.429199 44.0
352.510803 176.0
352.553528 208.0
352.624603 160.0
352.654938 256.0
352.765656 188.0
352.800507 244.0
352.832855 180.0
352.866516 204.0
352.92572 228.0
352.971191 168.0
353.068054 356.0
353.151337 96.0
353.180634 244.0
353.224792 40.0
353.257721 116.0
353.291229 184.0
353.343414 316.0
353.391846 260.0
353.422974 36.0
353.464172 128.0
353.471893 228.0
353.519714 96.0
353.534546 136.0
353.595551 36.0
353.637115 196.0
353.671906 144.0
353.732208 112.0
353.76001 140.0
353.794342 112.0
353.839478 152.0
353.880981 168.0
353.929199 112.0
353.989044 136.0
354.017548 136.0
354.091766 284.0
354.182556 276.0
354.375854 172.0
354.431061 88.0
354.479797 68.0
354.520996 216.0
354.606873 92.0
354.650177 148.0
354.700806 124.0
354.742157 40.0
354.772919 116.0
354.827515 224.0
354.896698 108.0
354.966339 76.0
355.002777 156.0
355.045868 100.0
355.080994 356.0
355.131989 100.0
355.156525 160.0
355.168518 224.0
355.218414 96.0
355.252167 332.0
355.289276 144.0
355.36087 148.0
355.406006 44.0
355.449524 120.0
355.493317 88.0
355.547333 156.0
355.626526 152.0
355.63739 116.0
355.652039 228.0
355.694977 136.0
355.762756 152.0
355.792572 104.0
355.835938 120.0
355.891998 132.0
355.926483 164.0
355.96701 168.0
356.006836 128.0
356.043671 124.0
356.057556 120.0
356.086456 452.0
356.149811 92.0
356.182617 140.0
356.209076 84.0
356.252197 120.0
356.322144 116.0
356.374725 252.0
356.408569 112.0
356.44873 180.0
356.472687 248.0
356.527069 120.0
356.565796 292.0
356.595306 144.0
356.634033 136.0
356.663147 216.0
356.724884 192.0
356.734711 108.0
356.798309 252.0
356.828278 96.0
356.839905 152.0
356.888672 164.0
356.94519 100.0
356.994843 112.0
357.083282 140.0
357.113129 264.0
357.166473 276.0
357.215637 120.0
357.267456 100.0
357.311218 104.0
357.408752 96.0
357.471741 152.0
357.527435 172.0
357.572083 108.0
357.604462 224.0
357.633484 316.0
357.735321 144.0
357.826569 108.0
357.854431 112.0
357.909393 228.0
357.95694 96.0
357.973175 60.0
357.978485 92.0
358.023041 148.0
358.052765 224.0
358.118774 468.0
358.167816 208.0
358.20694 112.0
358.262878 168.0
358.32373 112.0
358.352112 124.0
358.394104 136.0
358.452271 152.0
358.515167 268.0
358.585022 140.0
358.624542 156.0
358.674866 196.0
358.754944 76.0
358.797302 164.0
358.8396 84.0
358.883087 144.0
358.907928 252.0
358.946564 164.0
359.007019 148.0
359.043976 132.0
359.126892 1244.0
359.210907 188.0
359.249908 168.0
359.295624 92.0
359.334076 172.0
359.394531 124.0
359.424713 184.0
359.474365 328.0
359.517334 156.0
359.564331 68.0
359.620972 76.0
359.647369 148.0
359.68338 120.0
359.730438 112.0
359.76062 140.0
359.80246 52.0
359.864075 120.0
359.916168 104.0
359.962341 132.0
360.018738 128.0
360.073242 152.0
360.132843 1164.0
360.22522 172.0
360.29007 104.0
360.315796 216.0
360.391357 108.0
360.417816 204.0
360.482056 188.0
360.526001 204.0
360.572052 152.0
360.596832 116.0
360.676086 144.0
360.705048 60.0
360.754181 184.0
360.794861 168.0
360.867859 128.0
360.924316 128.0
361.011292 72.0
361.138977 956.0
361.19809 176.0
361.247986 124.0
361.275085 156.0
361.346466 92.0
361.397156 84.0
361.442535 84.0
361.483185 184.0
361.57193 108.0
361.632904 80.0
361.694611 176.0
361.72171 104.0
361.73587 168.0
361.786987 192.0
361.852844 216.0
361.880554 188.0
361.914581 108.0
361.972961 156.0
362.022827 124.0
362.057495 72.0
362.065887 152.0
362.138458 452.0
362.211121 144.0
362.26413 120.0
362.293243 112.0
362.30722 76.0
362.322693 140.0
362.408447 44.0
362.423798 280.0
362.455719 192.0
362.503662 228.0
362.564087 148.0
362.612457 132.0
362.63913 280.0
362.651093 316.0
362.688568 92.0
362.745941 128.0
362.798492 52.0
362.830017 176.0
362.89328 312.0
362.932343 136.0
362.948029 136.0
362.9617 196.0
363.018402 96.0
363.055176 156.0
363.116302 508.0
363.181488 232.0
363.223206 160.0
363.299377 104.0
363.337921 136.0
363.377594 196.0
363.407104 68.0
363.417908 100.0
363.462982 100.0
363.505157 124.0
363.530548 188.0
363.568481 144.0
363.623657 172.0
363.678558 308.0
363.708923 140.0
363.781036 124.0
363.834198 108.0
363.872162 132.0
363.914185 120.0
363.988342 120.0
364.122925 148.0
364.196655 144.0
364.259735 208.0
364.29599 80.0
364.326782 120.0
364.448395 292.0
364.490265 88.0
364.503784 124.0
364.565186 132.0
364.604156 148.0
364.680145 260.0
364.754242 120.0
364.7836 140.0
364.837158 312.0
364.867584 120.0
364.911591 188.0
364.976532 204.0
365.019165 148.0
365.030823 128.0
365.043579 140.0
365.08728 128.0
365.123291 84.0
365.1651 136.0
365.225037 68.0
365.29007 128.0
365.360779 136.0
365.374634 196.0
365.422852 116.0
365.466034 160.0
365.509338 208.0
365.579773 68.0
365.618073 132.0
365.674072 344.0
365.699249 244.0
365.765259 124.0
365.927856 132.0
366.009583 304.0
366.041565 96.0
366.105316 112.0
366.163666 192.0
366.237549 84.0
366.327362 112.0
366.37088 96.0
366.462311 76.0
366.536011 128.0
366.572815 84.0
366.614716 160.0
366.651184 184.0
366.683319 156.0
366.755035 108.0
366.801483 164.0
366.844788 208.0
366.873413 248.0
366.923492 240.0
366.951385 300.0
367.018524 260.0
367.024292 200.0
367.055115 352.0
367.066467 80.0
367.172302 180.0
367.265198 184.0
367.3078 88.0
367.318756 236.0
367.424866 172.0
367.462921 136.0
367.487976 108.0
367.545197 228.0
367.593079 116.0
367.632965 124.0
367.70166 120.0
367.732208 56.0
367.776031 164.0
367.836853 196.0
367.896851 116.0
367.960205 140.0
367.974304 200.0
368.052246 96.0
368.096436 1212.0
368.143524 152.0
368.205627 44.0
368.252472 164.0
368.312927 176.0
368.345673 84.0
368.359741 128.0
368.426666 188.0
368.489014 128.0
368.514587 292.0
368.548309 280.0
368.614899 132.0
368.671326 260.0
368.68222 120.0
368.696442 280.0
368.744354 240.0
368.769379 260.0
368.820587 156.0
368.854004 116.0
368.866333 92.0
368.878876 132.0
368.916351 64.0
368.94693 140.0
368.97937 272.0
369.015747 156.0
369.049316 108.0
369.097321 936.0
369.161072 140.0
369.19754 208.0
369.223724 288.0
369.262329 180.0
369.334808 124.0
369.373047 168.0
369.41095 72.0
369.448425 132.0
369.492615 136.0
369.504822 92.0
369.540894 196.0
369.595062 116.0
369.631592 80.0
369.671936 156.0
369.714722 364.0
369.811707 212.0
369.89566 52.0
369.944824 200.0
370.002747 284.0
370.097137 688.0
370.20105 84.0
370.240265 280.0
370.264984 252.0
370.299866 284.0
370.364594 148.0
370.438873 264.0
370.450562 144.0
370.464874 180.0
370.530182 152.0
370.61795 224.0
370.673157 144.0
370.707642 152.0
370.745911 232.0
370.773102 100.0
370.785278 140.0
370.845856 136.0
370.885437 216.0
370.915955 220.0
370.996674 108.0
371.096161 892.0
371.132477 180.0
371.141663 444.0
371.228638 160.0
371.262665 112.0
371.322571 232.0
371.382416 304.0
371.553558 104.0
371.588287 132.0
371.646759 208.0
371.703339 176.0
371.738159 116.0
371.784119 160.0
371.887299 352.0
371.984863 72.0
372.024323 228.0
372.056458 160.0
372.105164 248.0
372.164215 140.0
372.216187 64.0
372.272827 156.0
372.299713 140.0
372.3461 152.0
372.413666 96.0
372.458557 68.0
372.486572 192.0
372.512939 116.0
372.549988 124.0
372.584167 140.0
372.647888 168.0
372.707794 156.0
372.749908 120.0
372.776917 184.0
372.842987 136.0
372.881256 116.0
372.910583 80.0
372.998993 232.0
373.025909 76.0
373.066986 76.0
373.104034 184.0
373.134552 216.0
373.173676 128.0
373.202759 104.0
373.241425 72.0
373.325195 100.0
373.39447 220.0
373.473633 156.0
373.502747 152.0
373.546997 196.0
373.597656 148.0
373.627686 112.0
373.675842 168.0
373.720032 232.0
373.761322 172.0
373.813599 140.0
373.847595 172.0
373.897736 128.0
373.910034 112.0
373.999115 44.0
374.098785 152.0
374.113251 136.0
374.153107 80.0
374.194977 160.0
374.242401 148.0
374.360443 184.0
374.435822 192.0
374.447113 148.0
374.511383 156.0
374.561523 208.0
374.642212 120.0
374.736359 280.0
374.77713 152.0
374.820831 160.0
374.893372 192.0
374.936707 140.0
374.989014 160.0
375.026917 276.0
375.059723 272.0
375.096924 164.0
375.181732 124.0
375.23584 236.0
375.274261 76.0
375.314911 216.0
375.378662 160.0
375.42514 188.0
375.509521 52.0
375.54422 276.0
375.602814 128.0
375.632935 128.0
375.737091 128.0
375.805389 80.0
375.851746 168.0
375.932343 168.0
375.958221 160.0
375.982605 68.0
376.031982 112.0
376.06778 116.0
376.123016 136.0
376.200226 116.0
376.238831 300.0
376.267456 356.0
376.333862 52.0
376.370087 168.0
376.416595 264.0
376.45282 208.0
376.525696 180.0
376.56604 144.0
376.591431 76.0
376.616516 288.0
376.716339 88.0
376.764069 160.0
376.793365 240.0
376.891418 120.0
376.931946 116.0
376.972717 96.0
377.012085 152.0
377.061371 424.0
377.070435 320.0
377.115295 184.0
377.187225 120.0
377.266449 216.0
377.306671 188.0
377.365204 156.0
377.412659 300.0
377.457794 156.0
377.498444 272.0
377.53714 112.0
377.578064 144.0
377.635376 96.0
377.669556 132.0
377.699585 176.0
377.72644 148.0
377.779022 164.0
377.815613 136.0
377.841614 180.0
377.905273 112.0
377.930115 240.0
377.966431 168.0
378.032227 180.0
378.079651 2516.0
378.158295 116.0
378.185455 296.0
378.256439 128.0
378.301147 144.0
378.368469 180.0
378.431091 108.0
378.465057 76.0
378.492371 148.0
378.514587 68.0
378.524414 88.0
378.570404 116.0
378.647858 240.0
378.695221 144.0
378.740723 156.0
378.747772 96.0
378.777466 140.0
378.825562 124.0
378.870453 124.0
378.934479 236.0
378.982147 156.0
379.024719 276.0
379.084015 3712.0
379.146881 144.0
379.192322 168.0
379.229034 104.0
379.26889 72.0
379.308319 276.0
379.368591 132.0
379.439606 116.0
379.466309 192.0
379.484375 116.0
379.494995 292.0
379.535309 176.0
379.577576 128.0
379.641541 224.0
379.721252 132.0
379.72641 172.0
379.74527 168.0
379.753143 168.0
379.784607 116.0
379.815796 148.0
379.872742 116.0
379.906006 196.0
379.957794 160.0
380.019745 172.0
380.09317 8556.0
380.212616 100.0
380.268097 272.0
380.371704 96.0
380.44165 140.0
380.451508 84.0
380.464355 152.0
380.498383 240.0
380.604095 136.0
380.615265 124.0
380.658752 124.0
380.745392 164.0
380.753998 96.0
380.798248 120.0
380.874237 264.0
380.912231 108.0
380.970856 100.0
380.99054 124.0
380.997894 116.0
381.092163 3776.0
381.188934 144.0
381.237854 168.0
381.305542 32.0
381.355072 156.0
381.377441 396.0
381.432037 92.0
381.464325 132.0
381.503448 92.0
381.560913 92.0
381.575012 100.0
381.642639 228.0
381.68689 124.0
381.731171 116.0
381.807068 76.0
381.856262 148.0
381.899445 64.0
381.938416 176.0
381.952454 136.0
381.96637 92.0
381.99585 248.0
382.038971 228.0
382.091156 2248.0
382.193512 128.0
382.236145 228.0
382.337891 112.0
382.426849 108.0
382.470886 176.0
382.47818 108.0
382.493896 228.0
382.534668 64.0
382.561554 40.0
382.595276 180.0
382.629211 156.0
382.686035 192.0
382.727509 144.0
382.841187 152.0
382.873474 360.0
382.91864 112.0
382.972107 132.0
383.004761 156.0
383.097748 1324.0
383.199402 100.0
383.21817 156.0
383.288025 104.0
383.330933 160.0
383.364319 164.0
383.413116 212.0
383.446136 52.0
383.477325 56.0
383.504608 156.0
383.547333 192.0
383.576263 160.0
383.617401 204.0
383.630951 108.0
383.647034 52.0
383.689331 156.0
383.716309 248.0
383.748627 188.0
383.787933 304.0
383.837189 136.0
383.94519 128.0
383.988007 164.0
384.100952 480.0
384.169312 208.0
384.234955 84.0
384.270782 136.0
384.319672 232.0
384.406616 344.0
384.439667 48.0
384.493622 152.0
384.546753 108.0
384.571228 248.0
384.637329 164.0
384.697754 124.0
384.703735 200.0
384.759674 148.0
384.808685 140.0
384.864441 240.0
384.896606 172.0
384.962311 64.0
385.028076 120.0
385.096344 268.0
385.1297 188.0
385.221771 72.0
385.248535 160.0
385.286316 264.0
385.343903 100.0
385.392151 112.0
385.444641 192.0
385.493103 272.0
385.508392 164.0
385.570862 120.0
385.602875 116.0
385.648376 176.0
385.681549 152.0
385.712006 172.0
385.769531 132.0
385.798859 160.0
385.835693 204.0
385.88385 268.0
385.956482 120.0
386.020996 200.0
386.075684 276.0
386.110321 84.0
386.21994 196.0
386.277039 56.0
386.348389 132.0
386.390472 92.0
386.441223 120.0
386.51178 112.0
386.574371 80.0
386.605682 144.0
386.633087 156.0
386.671143 264.0
386.718323 108.0
386.786194 136.0
386.820343 124.0
386.862335 212.0
386.93103 120.0
386.975891 136.0
387.007172 180.0
387.068695 116.0
387.125793 112.0
387.157288 188.0
387.214417 128.0
387.28302 28.0
387.322205 76.0
387.349609 144.0
387.440552 340.0
387.533081 100.0
387.555054 112.0
387.588409 156.0
387.651306 104.0
387.701538 108.0
387.740723 132.0
387.784546 48.0
387.846161 84.0
387.874695 152.0
387.919861 176.0
387.969482 92.0
388.016113 128.0
388.053162 392.0
388.10199 224.0
388.145325 156.0
388.218903 172.0
388.278168 128.0
388.355042 272.0
388.403564 124.0
388.436646 144.0
388.46582 80.0
388.522339 160.0
388.569244 256.0
388.604156 152.0
388.678711 192.0
388.708405 132.0
388.760651 100.0
388.790131 236.0
388.845764 84.0
388.964966 124.0
389.006805 148.0
389.047577 268.0
389.09198 192.0
389.12442 152.0
389.173279 140.0
389.227081 192.0
389.275391 132.0
389.32251 272.0
389.368988 128.0
389.44693 164.0
389.462921 212.0
389.473633 404.0
389.525757 156.0
389.56134 104.0
389.573059 96.0
389.589111 84.0
389.604309 124.0
389.646912 68.0
389.686951 416.0
389.692902 208.0
389.740204 72.0
389.769226 140.0
389.833221 156.0
389.861542 96.0
389.890198 136.0
389.934448 132.0
390.054779 192.0
390.109009 240.0
390.21756 200.0
390.292755 168.0
390.34671 100.0
390.381104 240.0
390.474152 128.0
390.517303 200.0
390.584656 164.0
390.616272 96.0
390.648499 148.0
390.678833 120.0
390.713379 104.0
390.74884 164.0
390.795685 288.0
390.851685 132.0
390.932159 260.0
390.96582 92.0
391.054291 172.0
391.06604 332.0
391.139008 76.0
391.170502 96.0
391.207367 88.0
391.239716 96.0
391.258087 144.0
391.327972 132.0
391.374939 160.0
391.384369 160.0
391.439209 284.0
391.479431 172.0
391.515411 260.0
391.554291 312.0
391.623108 140.0
391.681549 112.0
391.752045 76.0
391.8172 128.0
391.865448 164.0
391.905853 320.0
391.964539 112.0
392.055511 240.0
392.063599 172.0
392.083496 280.0
392.154022 180.0
392.202545 160.0
392.227936 136.0
392.315643 180.0
392.352356 268.0
392.377502 232.0
392.448273 60.0
392.502167 128.0
392.577026 180.0
392.583374 176.0
392.614777 464.0
392.647888 80.0
392.711182 72.0
392.766327 200.0
392.821289 160.0
392.868835 116.0
392.901093 156.0
392.940002 148.0
392.996979 272.0
393.086639 1048.0
393.168854 184.0
393.213257 224.0
393.251282 172.0
393.298004 312.0
393.337372 180.0
393.409424 232.0
393.451141 96.0
393.483887 144.0
393.537567 196.0
393.574127 192.0
393.613922 124.0
393.654327 136.0
393.704437 188.0
393.733551 256.0
393.772705 140.0
393.80368 160.0
393.818787 328.0
393.898102 156.0
393.960693 308.0
393.99939 168.0
394.039276 148.0
394.097382 6260.0
394.210999 240.0
394.240784 144.0
394.28653 256.0
394.32312 156.0
394.339905 152.0
394.374176 296.0
394.399078 136.0
394.465179 244.0
394.499176 176.0
394.532196 296.0
394.54422 192.0
394.587494 184.0
394.613922 112.0
394.673492 480.0
394.724884 104.0
394.739258 304.0
394.774567 168.0
394.857574 380.0
394.903046 420.0
394.918762 124.0
394.959625 192.0
394.975861 124.0
394.988068 248.0
395.043701 660.0
395.106354 116312.0
395.22348 228.0
395.264923 300.0
395.312805 112.0
395.34375 328.0
395.436859 248.0
395.470795 140.0
395.511505 200.0
395.59671 116.0
395.637573 48.0
395.649384 156.0
395.680725 116.0
395.754883 336.0
395.85849 216.0
395.870758 112.0
395.888062 412.0
395.970001 252.0
396.00882 240.0
396.025299 100.0
396.108551 32656.0
396.20993 172.0
396.257172 120.0
396.312469 88.0
396.326202 112.0
396.369415 140.0
396.409271 112.0
396.457062 144.0
396.489258 252.0
396.539307 224.0
396.56839 100.0
396.610779 84.0
396.653656 296.0
396.682831 180.0
396.708405 80.0
396.718475 164.0
396.768738 256.0
396.815613 120.0
396.872986 152.0
396.90387 148.0
396.93689 212.0
396.973389 140.0
396.988708 212.0
397.032471 120.0
397.043915 224.0
397.103577 27984.0
397.200287 104.0
397.229218 152.0
397.247864 136.0
397.256866 212.0
397.289795 256.0
397.355164 176.0
397.413055 272.0
397.443726 152.0
397.481079 48.0
397.511658 204.0
397.537842 132.0
397.606964 148.0
397.664642 144.0
397.672913 128.0
397.706543 180.0
397.714325 140.0
397.794434 192.0
397.8302 176.0
397.875214 108.0
397.91806 256.0
397.976227 148.0
398.01532 148.0
398.106689 8448.0
398.211548 84.0
398.242828 152.0
398.250122 100.0
398.267853 156.0
398.28421 176.0
398.323273 416.0
398.364716 420.0
398.422394 292.0
398.449829 224.0
398.526306 268.0
398.584198 212.0
398.694702 88.0
398.761108 184.0
398.775391 104.0
398.791168 164.0
398.844666 120.0
398.899384 68.0
398.939117 316.0
399.019348 108.0
399.11203 1328.0
399.167206 316.0
399.219757 140.0
399.250305 144.0
399.304749 172.0
399.330261 184.0
399.373505 64.0
399.411011 112.0
399.451538 148.0
399.479401 84.0
399.538818 244.0
399.621613 272.0
399.710052 104.0
399.759033 316.0
399.812378 208.0
399.913727 124.0
399.954437 192.0
399.9823 36.0
400.016602 84.0
400.044159 52.0
400.051361 80.0
400.109924 228.0
400.200287 216.0
400.239441 252.0
400.281586 136.0
400.326538 96.0
400.380646 164.0
400.43042 120.0
400.455963 152.0
400.503937 152.0
400.55957 108.0
400.565063 348.0
400.593414 156.0
400.635406 104.0
400.671265 36.0
400.70105 92.0
400.783691 188.0
400.87262 272.0
400.944824 152.0
400.992584 136.0
401.033112 180.0
401.111816 160.0
401.146881 160.0
401.200745 128.0
401.338348 96.0
401.426971 192.0
401.504364 204.0
401.563232 136.0
401.595032 60.0
401.618195 140.0
401.659912 56.0
401.701111 196.0
401.714111 176.0
401.763275 44.0
401.790161 92.0
401.856598 184.0
401.887299 108.0
401.980499 56.0
401.997406 124.0
402.059143 312.0
402.141632 128.0
402.184784 112.0
402.230103 108.0
402.272034 172.0
402.314606 68.0
402.350281 132.0
402.390228 96.0
402.438141 96.0
402.48114 180.0
402.518005 148.0
402.565918 140.0
402.595795 180.0
402.640045 292.0
402.723358 136.0
402.771973 176.0
402.819489 88.0
402.851593 92.0
402.903687 100.0
402.947266 80.0
402.980225 212.0
403.030609 152.0
403.065582 412.0
403.127838 228.0
403.156097 60.0
403.16745 140.0
403.218079 200.0
403.259003 408.0
403.282806 420.0
403.317749 176.0
403.374817 88.0
403.389618 76.0
403.452881 132.0
403.465332 128.0
403.479279 212.0
403.523956 132.0
403.550995 84.0
403.597778 424.0
403.63855 96.0
403.703308 176.0
403.742554 88.0
403.768768 208.0
403.81012 232.0
403.864563 444.0
403.911133 112.0
403.940826 80.0
403.974518 304.0
404.001678 196.0
404.071075 44884.0
404.170044 344.0
404.213104 240.0
404.253815 184.0
404.287689 100.0
404.314758 160.0
404.352112 92.0
404.391754 108.0
404.447266 172.0
404.531281 44.0
404.575012 60.0
404.626251 172.0
404.722443 68.0
404.790039 204.0
404.859467 136.0
404.887604 188.0
404.903229 120.0
404.960999 204.0
405.019897 180.0
405.07428 11472.0
405.193604 104.0
405.219269 128.0
405.237396 140.0
405.257324 188.0
405.268463 296.0
405.304016 392.0
405.336731 160.0
405.366516 144.0
405.424957 144.0
405.50415 132.0
405.56842 120.0
405.600677 268.0
405.658203 108.0
405.743713 216.0
405.788116 200.0
405.854889 192.0
405.952148 160.0
405.966827 224.0
405.98407 340.0
406.069397 22308.0
406.204498 356.0
406.262329 348.0
406.319092 160.0
406.355713 260.0
406.404938 96.0
406.444244 160.0
406.535675 124.0
406.585236 100.0
406.645416 76.0
406.675079 168.0
406.700897 284.0
406.740204 144.0
406.792664 104.0
406.900116 232.0
406.937592 120.0
407.006531 200.0
407.070251 4744.0
407.26651 124.0
407.297821 212.0
407.306061 116.0
407.330719 136.0
407.388092 184.0
407.460236 96.0
407.508209 236.0
407.54245 176.0
407.582245 236.0
407.635803 168.0
407.646423 184.0
407.679352 208.0
407.726196 120.0
407.800476 224.0
407.928101 240.0
407.999908 132.0
408.063843 2608.0
408.111328 1260.0
408.200317 136.0
408.244598 200.0
408.330261 76.0
408.376648 160.0
408.459869 156.0
408.524933 152.0
408.57724 248.0
408.641602 164.0
408.730103 272.0
408.783417 72.0
408.794189 120.0
408.847992 156.0
408.885406 224.0
408.914185 296.0
408.951965 144.0
408.9953 208.0
409.044342 192.0
409.116486 956.0
409.22934 180.0
409.272705 32.0
409.283813 112.0
409.363861 200.0
409.437103 168.0
409.500214 40.0
409.552704 124.0
409.60495 100.0
409.646851 60.0
409.683411 80.0
409.767181 196.0
409.806396 104.0
409.843506 76.0
409.918396 236.0
409.968933 212.0
410.028015 112.0
410.107788 416.0
410.15509 76.0
410.221436 124.0
410.234741 168.0
410.288208 140.0
410.344727 260.0
410.378754 140.0
410.416382 72.0
410.483795 72.0
410.524384 136.0
410.589142 180.0
410.64212 116.0
410.688354 144.0
410.767426 176.0
410.801697 96.0
410.814575 64.0
410.828674 100.0
410.88446 104.0
410.927612 104.0
410.996918 324.0
411.03833 84.0
411.092255 136.0
411.125916 348.0
411.199493 164.0
411.257629 128.0
411.292053 72.0
411.341888 120.0
411.352234 268.0
411.377441 80.0
411.455414 136.0
411.504761 104.0
411.536499 64.0
411.590546 196.0
411.698578 212.0
411.738647 212.0
411.773071 108.0
411.811096 148.0
411.894501 212.0
411.975952 156.0
412.035858 164.0
412.075623 208.0
412.156921 296.0
412.199707 96.0
412.257141 164.0
412.315796 172.0
412.376251 212.0
412.382507 172.0
412.400635 76.0
412.44339 76.0
412.505859 64.0
412.546783 248.0
412.612915 156.0
412.64267 112.0
412.680969 152.0
412.728729 116.0
412.75705 144.0
412.807526 296.0
412.845337 72.0
412.854095 112.0
412.944855 136.0
413.047119 804.0
413.168823 148.0
413.274811 60.0
413.315887 360.0
413.374573 104.0
413.416443 72.0
413.456299 108.0
413.528198 156.0
413.566956 288.0
413.613251 132.0
413.693787 192.0
413.776672 288.0
413.827606 132.0
413.868561 144.0
413.881317 100.0
413.906342 160.0
413.972046 224.0
414.054901 11380.0
414.189758 172.0
414.232513 252.0
414.294647 104.0
414.334595 132.0
414.380829 120.0
414.441223 304.0
414.50769 188.0
414.544678 232.0
414.582153 172.0
414.622681 136.0
414.655701 276.0
414.727966 136.0
414.779907 100.0
414.852356 172.0
414.927094 148.0
414.952057 200.0
415.057526 3636.0
415.15033 116.0
415.216034 120.0
415.276062 124.0
415.32312 112.0
415.421356 208.0
415.460785 104.0
415.517303 208.0
415.54953 68.0
415.583435 276.0
415.598114 212.0
415.715302 136.0
415.741028 256.0
415.792572 336.0
415.892792 144.0
415.951385 152.0
415.985779 84.0
416.058075 8432.0
416.177399 228.0
416.21936 64.0
416.293671 220.0
416.322144 128.0
416.394653 252.0
416.424713 56.0
416.487671 76.0
416.505371 116.0
416.522919 112.0
416.535919 136.0
416.547241 164.0
416.587982 60.0
416.642761 100.0
416.688751 156.0
416.787079 80.0
416.899292 152.0
416.989777 160.0
417.06073 3044.0
417.138885 152.0
417.199677 304.0
417.250977 96.0
417.326416 148.0
417.341156 140.0
417.381622 128.0
417.435303 144.0
417.478455 108.0
417.536285 152.0
417.605927 212.0
417.647552 248.0
417.714844 168.0
417.757599 152.0
417.772888 96.0
417.787018 232.0
417.855194 116.0
417.918701 112.0
417.993958 84.0
418.060944 3672.0
418.197449 48.0
418.260803 164.0
418.292969 180.0
418.352142 104.0
418.425598 180.0
418.513641 408.0
418.549164 264.0
418.57608 124.0
418.594238 112.0
418.604279 108.0
418.639832 116.0
418.730835 32.0
418.788116 240.0
418.86145 120.0
418.894562 144.0
418.970551 188.0
419.06601 828.0
419.146606 80.0
419.181244 256.0
419.225128 120.0
419.254059 168.0
419.305786 68.0
419.354218 32.0
419.402527 216.0
419.474579 136.0
419.545807 108.0
419.567413 80.0
419.637421 132.0
419.697144 240.0
419.775513 188.0
419.822906 120.0
419.870911 164.0
419.882111 160.0
419.913574 148.0
419.945404 100.0
419.985413 164.0
420.05661 464.0
420.124146 152.0
420.134308 124.0
420.184753 76.0
420.20929 276.0
420.254089 108.0
420.327179 152.0
420.386047 140.0
420.466705 276.0
420.501465 168.0
420.557465 200.0
420.61026 312.0
420.667664 108.0
420.727203 260.0
420.739441 152.0
420.756561 196.0
420.800049 112.0
420.887817 148.0
420.945312 76.0
420.987091 276.0
421.001709 148.0
421.015137 164.0
421.078583 292.0
421.134369 176.0
421.245911 180.0
421.337067 180.0
421.370972 148.0
421.419739 108.0
421.458832 84.0
421.472931 172.0
421.509277 180.0
421.546661 168.0
421.603027 60.0
421.640442 76.0
421.694733 128.0
421.719788 56.0
421.75116 116.0
421.760956 88.0
421.779755 84.0
421.82373 220.0
421.885803 180.0
421.938202 116.0
421.983032 256.0
422.048615 32.0
422.127716 740.0
422.195831 92.0
422.271362 196.0
422.310333 84.0
422.362579 120.0
422.393707 116.0
422.427155 100.0
422.467438 108.0
422.552368 72.0
422.62854 164.0
422.655701 172.0
422.729248 196.0
422.774567 256.0
422.817688 112.0
422.846344 200.0
422.898224 184.0
422.940216 192.0
423.019653 224.0
423.134033 3368.0
423.303986 132.0
423.31488 160.0
423.327667 204.0
423.360535 60.0
423.419525 144.0
423.452271 148.0
423.487488 256.0
423.558777 132.0
423.588959 156.0
423.630341 136.0
423.665283 192.0
423.697296 316.0
423.747986 128.0
423.793762 304.0
423.894745 216.0
423.922546 148.0
423.992035 96.0
424.070831 120.0
424.140717 1080.0
424.259521 160.0
424.327972 180.0
424.365051 444.0
424.448608 248.0
424.483887 184.0
424.516449 264.0
424.567657 140.0
424.651703 100.0
424.694214 128.0
424.748627 208.0
424.79892 152.0
424.846588 136.0
424.890472 52.0
424.94101 176.0
424.975403 88.0
425.034454 184.0
425.13446 1016.0
425.239838 276.0
425.245148 176.0
425.343658 160.0
425.405548 188.0
425.516327 96.0
425.555511 124.0
425.612427 92.0
425.628418 164.0
425.640686 116.0
425.695435 124.0
425.802948 100.0
425.82016 96.0
425.838654 140.0
425.883972 232.0
425.927399 112.0
425.975311 248.0
426.027466 208.0
426.058075 460.0
426.12265 340.0
426.174866 144.0
426.217804 140.0
426.283295 140.0
426.321411 360.0
426.348816 32.0
426.389526 120.0
426.438873 140.0
426.482574 140.0
426.544983 100.0
426.598419 104.0
426.648285 192.0
426.705139 240.0
426.795685 228.0
426.843079 104.0
426.949615 212.0
426.978302 260.0
427.008118 144.0
427.053162 344.0
427.108612 164.0
427.190216 256.0
427.202637 136.0
427.246155 52.0
427.260406 168.0
427.293488 136.0
427.371735 296.0
427.408051 280.0
427.419525 284.0
427.487793 176.0
427.5224 276.0
427.561249 324.0
427.59198 104.0
427.649445 52.0
427.708282 224.0
427.761261 260.0
427.81012 140.0
427.875977 248.0
427.930359 200.0
427.96402 124.0
428.057312 840.0
428.109802 252.0
428.145111 168.0
428.182373 252.0
428.2146 536.0
428.276031 200.0
428.318909 296.0
428.36734 232.0
428.417694 128.0
428.451202 212.0
428.502289 216.0
428.538757 132.0
428.569214 476.0
428.634491 244.0
428.690094 132.0
428.695007 380.0
428.750763 232.0
428.758118 392.0
428.787994 268.0
428.882507 308.0
428.944397 584.0
428.994476 732.0
429.005188 544.0
429.06723 164092.0
429.210846 196.0
429.26889 184.0
429.305756 124.0
429.396515 492.0
429.446014 356.0
429.492004 380.0
429.529297 408.0
429.601746 244.0
429.67569 160.0
429.681519 244.0
429.747253 712.0
429.782623 384.0
429.801117 360.0
429.809906 236.0
429.864319 264.0
429.881866 180.0
429.895721 188.0
429.905212 440.0
429.924377 324.0
429.93927 320.0
429.999481 368.0
430.070526 55984.0
430.18454 304.0
430.220032 372.0
430.322937 196.0
430.389648 276.0
430.466309 536.0
430.503326 244.0
430.510712 352.0
430.565521 292.0
430.635223 340.0
430.66275 560.0
430.72995 276.0
430.804718 324.0
430.813416 612.0
430.863251 756.0
430.930725 1276.0
431.006958 880.0
431.080475 315432.0
431.211578 364.0
431.313324 260.0
431.361176 408.0
431.425018 380.0
431.470825 344.0
431.529297 324.0
431.542816 436.0
431.628784 476.0
431.680756 468.0
431.711639 472.0
431.766998 3688.0
431.815399 476.0
431.830322 208.0
431.862915 460.0
431.91687 516.0
431.946381 492.0
432.000763 640.0
432.083374 121064.0
432.216797 496.0
432.274475 112.0
432.281128 408.0
432.313293 376.0
432.363525 408.0
432.4086 596.0
432.469574 384.0
432.53656 460.0
432.619232 200.0
432.661346 232.0
432.691925 480.0
432.767914 556.0
432.81543 604.0
432.849579 396.0
432.861755 540.0
432.900787 660.0
432.930817 252.0
433.080292 235980.0
433.197083 148.0
433.275848 92.0
433.328186 232.0
433.36203 136.0
433.393494 244.0
433.438568 580.0
433.491211 404.0
433.522186 292.0
433.539398 252.0
433.604736 256.0
433.651459 264.0
433.67453 96.0
433.681641 124.0
433.706635 192.0
433.764709 1000.0
433.84845 224.0
433.913574 368.0
433.954437 232.0
433.998383 284.0
434.082611 56996.0
434.175262 308.0
434.202179 348.0
434.303711 240.0
434.387299 340.0
434.425171 396.0
434.441772 348.0
434.490479 264.0
434.539978 308.0
434.580414 204.0
434.609192 240.0
434.636322 208.0
434.648163 244.0
434.680908 384.0
434.740387 304.0
434.791443 488.0
434.807129 544.0
434.866852 536.0
434.905975 152.0
434.963379 280.0
434.974579 108.0
435.005035 256.0
435.077026 18444.0
435.200012 208.0
435.25235 144.0
435.292084 80.0
435.332794 216.0
435.382996 444.0
435.442902 180.0
435.502197 328.0
435.609558 176.0
435.674072 208.0
435.737701 224.0
435.784515 232.0
435.836121 104.0
435.894928 348.0
435.929993 204.0
435.990387 56.0
435.996429 248.0
436.027222 148.0
436.074951 368.0
436.124146 308.0
436.155212 296.0
436.228455 404.0
436.266479 204.0
436.276184 72.0
436.295349 164.0
436.326202 164.0
436.419098 280.0
436.468781 300.0
436.507599 120.0
436.538879 196.0
436.579712 304.0
436.625061 312.0
436.662567 184.0
436.696564 96.0
436.742157 192.0
436.781952 124.0
436.815002 212.0
436.841858 224.0
436.879944 276.0
436.938324 120.0
436.990662 220.0
437.032471 208.0
437.07135 136.0
437.151886 876.0
437.235443 112.0
437.265289 44.0
437.311371 108.0
437.382141 136.0
437.42215 104.0
437.47757 164.0
437.5242 84.0
437.576385 80.0
437.606415 100.0
437.64093 96.0
437.68515 116.0
437.715515 100.0
437.747223 72.0
437.828064 148.0
437.876221 120.0
437.922607 208.0
437.976227 300.0
438.014954 168.0
438.096619 120.0
438.154968 424.0
438.231812 152.0
438.273254 56.0
438.348267 104.0
438.362854 92.0
438.381927 136.0
438.471771 336.0
438.507996 100.0
438.580963 84.0
438.596649 88.0
438.612396 92.0
438.684021 76.0
438.735382 120.0
438.792053 180.0
438.849823 108.0
438.86554 68.0
438.900848 128.0
438.953827 68.0
438.960358 88.0
439.006378 100.0
439.07019 84.0
439.15802 304.0
439.204041 188.0
439.255768 172.0
439.35498 140.0
439.401672 148.0
439.491425 112.0
439.562805 96.0
439.579346 80.0
439.5914 80.0
439.684753 216.0
439.787537 120.0
439.847656 168.0
439.885406 92.0
439.971283 136.0
440.069336 4472.0
440.132538 156.0
440.154816 144.0
440.201904 132.0
440.230011 76.0
440.27771 32.0
440.312592 44.0
440.355255 104.0
440.391418 88.0
440.458069 88.0
440.508881 128.0
440.569366 68.0
440.630096 44.0
440.680511 172.0
440.74231 128.0
440.818573 88.0
440.8862 184.0
440.920135 140.0
440.956635 96.0
440.986664 80.0
440.997711 84.0
441.012817 116.0
441.073456 2144.0
441.161438 112.0
441.209229 80.0
441.237274 100.0
441.273254 116.0
441.39621 92.0
441.443207 72.0
441.489685 80.0
441.555817 208.0
441.611694 92.0
441.699097 172.0
441.717285 108.0
441.776337 164.0
441.857025 112.0
441.899628 40.0
441.957031 72.0
442.070038 3764.0
442.147919 216.0
442.179993 92.0
442.294678 60.0
442.355804 120.0
442.416779 168.0
442.546173 192.0
442.569611 216.0
442.644623 128.0
442.683319 140.0
442.766388 172.0
442.907501 456.0
442.956818 332.0
443.003998 160.0
443.080566 15048.0
443.222748 32.0
443.262787 252.0
443.313416 120.0
443.394562 84.0
443.447052 92.0
443.478912 100.0
443.527557 100.0
443.564484 164.0
443.593262 100.0
443.659363 72.0
443.708679 128.0
443.742493 84.0
443.815216 268.0
443.89624 224.0
443.942352 164.0
443.95932 108.0
443.9758 132.0
444.08139 5404.0
444.176453 80.0
444.238953 32.0
444.282135 136.0
444.338074 332.0
444.417786 52.0
444.496277 108.0
444.51178 80.0
444.525543 176.0
444.566498 108.0
444.629059 116.0
444.664612 152.0
444.679993 124.0
444.698212 88.0
444.718231 108.0
444.727997 152.0
444.775208 80.0
444.835388 96.0
444.888214 164.0
444.929138 72.0
445.0065 228.0
445.078644 8068.0
445.155945 148.0
445.195862 68.0
445.20816 128.0
445.269958 80.0
445.324432 120.0
445.379181 176.0
445.438538 260.0
445.471588 40.0
445.503204 144.0
445.572418 92.0
445.635254 96.0
445.695831 140.0
445.77655 124.0
445.814514 84.0
445.859985 212.0
445.893036 132.0
445.938019 56.0
445.987152 204.0
446.017609 108.0
446.084961 2944.0
446.19693 108.0
446.291138 148.0
446.342407 208.0
446.416992 56.0
446.492645 296.0
446.59024 196.0
446.656708 52.0
446.7117 240.0
446.762207 140.0
446.797394 152.0
446.888428 156.0
446.943451 172.0
446.99292 172.0
447.075409 436.0
447.154938 168.0
447.212524 276.0
447.287933 128.0
447.337463 160.0
447.344452 212.0
447.361145 124.0
447.418732 168.0
447.475769 140.0
447.535156 104.0
447.593842 68.0
447.648102 92.0
447.661804 44.0
447.706451 96.0
447.736816 200.0
447.753265 108.0
447.766541 84.0
447.80484 92.0
447.855896 240.0
447.911438 80.0
448.10672 200.0
448.146301 136.0
448.193726 280.0
448.230988 204.0
448.276184 204.0
448.312592 80.0
448.391785 196.0
448.449493 92.0
448.478912 112.0
448.519226 84.0
448.589355 96.0
448.63205 100.0
448.673401 136.0
448.720581 32.0
448.819946 188.0
448.863953 144.0
448.90567 104.0
448.96936 132.0
449.038696 128.0
449.072968 144.0
449.110596 108.0
449.12381 104.0
449.176056 116.0
449.260132 196.0
449.308472 132.0
449.344543 92.0
449.386688 96.0
449.433411 92.0
449.533966 48.0
449.597961 56.0
449.707703 40.0
449.757935 312.0
449.805328 64.0
449.851227 56.0
449.905731 212.0
449.948334 32.0
449.988953 84.0
450.046967 188.0
450.140381 132.0
450.210144 44.0
450.246979 128.0
450.298828 40.0
450.336823 28.0
450.383148 260.0
450.442444 212.0
450.470673 184.0
450.507568 124.0
450.541718 72.0
450.558472 68.0
450.624084 108.0
450.659882 176.0
450.722137 136.0
450.799469 24.0
450.856506 36.0
450.928345 128.0
450.978363 188.0
451.031738 104.0
451.050232 48.0
451.057983 144.0
451.109192 148.0
451.120178 116.0
451.154846 148.0
451.192657 176.0
451.270782 68.0
451.300354 100.0
451.329956 168.0
451.411224 312.0
451.490662 128.0
451.554321 80.0
451.609802 80.0
451.642914 116.0
451.714844 68.0
451.812134 44.0
451.882874 128.0
451.920319 84.0
451.933563 40.0
451.961853 108.0
452.00589 76.0
452.082001 156.0
452.176056 56.0
452.246582 204.0
452.319946 140.0
452.365967 120.0
452.549805 132.0
452.582458 100.0
452.701019 152.0
452.764526 224.0
452.794189 48.0
452.848724 132.0
452.888 108.0
452.955139 148.0
452.997498 112.0
453.033813 112.0
453.09494 172.0
453.147888 40.0
453.200867 56.0
453.245361 88.0
453.296692 72.0
453.400024 84.0
453.468597 160.0
453.498718 128.0
453.544128 148.0
453.583069 112.0
453.65863 248.0
453.705231 128.0
453.868744 128.0
454.007416 164.0
454.095947 84.0
454.158966 56.0
454.251221 112.0
454.262207 124.0
454.306335 200.0
454.343719 116.0
454.417755 44.0
454.572083 76.0
454.617188 96.0
454.654083 156.0
454.719421 224.0
454.907166 100.0
454.95163 136.0
454.993774 196.0
455.071381 212.0
455.103729 156.0
455.147827 196.0
455.232758 100.0
455.262482 48.0
455.30069 116.0
455.420502 76.0
455.57254 48.0
455.657501 76.0
455.703461 300.0
455.799469 196.0
455.96347 220.0
455.993225 84.0
456.02948 172.0
456.098358 256.0
456.154755 104.0
456.256775 40.0
456.30545 116.0
456.365936 196.0
456.397064 60.0
456.444763 56.0
456.503204 172.0
456.547821 152.0
456.617371 120.0
456.658905 92.0
456.715546 68.0
456.792603 128.0
456.822388 140.0
456.894714 156.0
456.941498 104.0
456.996826 112.0
457.094238 3036.0
457.243317 124.0
457.357819 164.0
457.47348 76.0
457.518402 108.0
457.55011 168.0
457.586945 104.0
457.678986 168.0
457.799652 100.0
457.843933 176.0
457.896454 84.0
457.915741 28.0
457.966949 172.0
458.018555 76.0
458.104431 3076.0
458.269928 116.0
458.31073 256.0
458.375092 176.0
458.462524 40.0
458.504303 52.0
458.568237 124.0
458.687775 88.0
458.746063 172.0
458.828247 88.0
458.897308 132.0
458.953369 220.0
458.97998 184.0
459.099518 2104.0
459.186249 88.0
459.2547 148.0
459.392853 72.0
459.433868 160.0
459.471344 148.0
459.504791 140.0
459.634399 104.0
459.711212 128.0
459.774689 128.0
460.044128 104.0
460.101227 1824.0
460.148895 340.0
460.203583 248.0
460.296051 124.0
460.492493 112.0
460.565094 36.0
460.641998 84.0
460.697754 72.0
460.748779 124.0
460.780334 108.0
460.842804 184.0
460.949615 164.0
460.993256 112.0
461.02655 188.0
461.10202 540.0
461.190063 124.0
461.271942 116.0
461.355927 68.0
461.462555 152.0
461.597748 136.0
461.665527 264.0
461.868835 116.0
461.907318 100.0
461.965363 148.0
461.9729 84.0
461.999237 132.0
462.06134 64.0
462.112671 168.0
462.172577 48.0
462.241028 64.0
462.341156 152.0
462.384949 180.0
462.484833 132.0
462.570587 44.0
462.609131 144.0
462.711884 168.0
462.760559 140.0
462.819885 160.0
463.055908 132.0
463.11441 148.0
463.192291 180.0
463.242371 124.0
463.311462 48.0
463.367157 88.0
463.5 96.0
463.544769 188.0
463.615692 72.0
463.654419 120.0
463.693878 100.0
463.796814 148.0
463.85144 192.0
464.007996 160.0
464.148987 100.0
464.237305 108.0
464.273193 120.0
464.335968 100.0
464.40741 152.0
464.477509 72.0
464.631927 72.0
464.710938 96.0
464.773529 132.0
464.829315 56.0
464.980865 144.0
465.112091 104.0
465.176971 168.0
465.212738 60.0
465.258514 136.0
465.331512 160.0
465.361572 64.0
465.426605 112.0
465.606354 100.0
465.652283 120.0
465.700836 124.0
465.795197 124.0
465.829712 100.0
466.031464 104.0
466.137115 160.0
466.212097 152.0
466.262695 196.0
466.309357 108.0
466.375427 148.0
466.428711 240.0
466.474304 84.0
466.517273 168.0
466.571075 148.0
466.676361 68.0
466.780304 140.0
466.839752 40.0
466.874176 116.0
466.932678 220.0
467.050507 160.0
467.095581 108.0
467.122284 164.0
467.223816 124.0
467.285553 88.0
467.390381 244.0
467.467834 100.0
467.566833 76.0
467.622772 360.0
467.687347 176.0
467.727753 176.0
467.746338 104.0
467.784882 236.0
467.915497 108.0
467.976288 100.0
468.068512 176.0
468.106201 164.0
468.177795 112.0
468.216125 108.0
468.2276 108.0
468.327728 188.0
468.371979 108.0
468.406433 76.0
468.48761 232.0
468.531372 108.0
468.559998 56.0
468.647705 88.0
468.693329 164.0
469.011871 136.0
469.025848 172.0
469.087708 116.0
469.134735 128.0
469.262787 164.0
469.273712 116.0
469.287323 192.0
469.328735 48.0
469.368317 160.0
469.460266 152.0
469.544373 108.0
469.585724 180.0
469.618286 84.0
469.717499 144.0
469.763794 192.0
469.793365 160.0
469.844147 104.0
469.892578 116.0
469.932587 56.0
469.975403 260.0
470.00766 112.0
470.026642 156.0
470.132538 136.0
470.171478 100.0
470.206787 88.0
470.27179 80.0
470.333344 112.0
470.348175 96.0
470.362 140.0
470.392731 208.0
470.432281 36.0
470.453949 160.0
470.54776 152.0
470.655914 180.0
470.675354 52.0
470.686768 184.0
470.76178 88.0
470.799194 132.0
470.847748 64.0
470.883575 116.0
470.97583 120.0
471.021057 200.0
471.055084 60.0
471.114105 236.0
471.174133 160.0
471.231476 116.0
471.284973 96.0
471.322968 128.0
471.357117 244.0
471.438568 208.0
471.480042 272.0
471.518341 228.0
471.557434 320.0
471.646149 576.0
471.687164 212.0
471.722229 336.0
471.756348 144.0
471.811127 372.0
471.850098 276.0
471.86203 88.0
471.934021 316.0
471.978363 568.0
472.065186 292.0
472.100403 344.0
472.108795 188.0
472.157837 304.0
472.217346 280.0
472.23291 288.0
472.268555 368.0
472.319977 144.0
472.348083 260.0
472.420227 56.0
472.489441 448.0
472.523712 392.0
472.582642 512.0
472.676727 384.0
472.726501 448.0
472.767426 552.0
472.85025 472.0
472.895569 492.0
472.975555 752.0
473.013 584.0
473.13092 284540.0
473.28299 324.0
473.377502 224.0
473.423218 484.0
473.49707 224.0
473.526794 452.0
473.562531 468.0
473.591858 584.0
473.634308 324.0
473.674469 252.0
473.726562 320.0
473.787109 376.0
473.845154 4692.0
473.899078 428.0
473.917297 596.0
473.970062 576.0
474.013153 620.0
474.133392 180908.0
474.28421 392.0
474.338318 160.0
474.433289 292.0
474.483215 232.0
474.535431 244.0
474.613708 248.0
474.648438 156.0
474.714203 376.0
474.749786 232.0
474.783112 516.0
474.850006 684.0
474.898254 740.0
474.9729 756.0
475.017273 1128.0
475.128021 256624.0
475.278625 176.0
475.326385 196.0
475.365662 200.0
475.415436 292.0
475.426117 184.0
475.539978 276.0
475.587341 248.0
475.597595 276.0
475.690948 244.0
475.751251 288.0
475.846191 816.0
475.903137 444.0
475.94577 172.0
476.029327 256.0
476.130035 67164.0
476.288757 388.0
476.358551 224.0
476.430603 180.0
476.49588 176.0
476.506683 328.0
476.523407 176.0
476.537354 272.0
476.580688 292.0
476.611816 388.0
476.679016 224.0
476.724976 200.0
476.793884 200.0
476.847229 260.0
476.92926 360.0
476.987762 424.0
477.125031 24716.0
477.250305 276.0
477.30719 468.0
477.370056 176.0
477.439484 220.0
477.478333 176.0
477.495422 80.0
477.573181 108.0
477.644073 244.0
477.690826 76.0
477.697601 140.0
477.757629 344.0
477.794769 156.0
477.812225 80.0
477.873322 232.0
477.922058 252.0
477.934448 64.0
477.983551 288.0
478.028076 256.0
478.085876 264.0
478.125336 436.0
478.23053 376.0
478.34375 144.0
478.381836 236.0
478.430267 156.0
478.481201 92.0
478.537872 252.0
478.595764 192.0
478.656036 140.0
478.666229 128.0
478.705597 136.0
478.769562 268.0
478.822937 176.0
478.88031 100.0
478.890503 264.0
478.950958 364.0
478.965179 148.0
478.977661 160.0
479.018524 132.0
479.027405 224.0
479.066345 388.0
479.109131 248.0
479.176056 260.0
479.217407 160.0
479.260406 144.0
479.3078 72.0
479.349396 212.0
479.411469 140.0
479.46225 232.0
479.510193 148.0
479.543854 140.0
479.645508 156.0
479.699036 112.0
479.734894 52.0
479.780884 156.0
479.845062 96.0
479.920654 144.0
480.028137 180.0
480.045288 208.0
480.11676 128.0
480.189972 92.0
480.224182 112.0
480.266388 28.0
480.381378 100.0
480.447205 140.0
480.484253 76.0
480.55481 60.0
480.588135 64.0
480.632843 40.0
480.683289 80.0
480.756958 140.0
480.78363 40.0
480.819641 96.0
480.834045 116.0
480.888641 132.0
480.995667 156.0
481.032104 56.0
481.079041 156.0
481.157257 56.0
481.210144 92.0
481.255493 140.0
481.300293 72.0
481.362213 92.0
481.396759 108.0
481.427338 68.0
481.494049 164.0
481.562073 108.0
481.625458 100.0
481.698151 116.0
481.754944 56.0
481.800812 32.0
481.864166 68.0
481.969025 68.0
482.106537 68.0
482.122528 32.0
482.135315 36.0
482.16568 72.0
482.201874 56.0
482.233734 56.0
482.414825 104.0
482.464355 48.0
482.565216 80.0
482.663361 52.0
482.718262 88.0
482.766296 84.0
482.817871 68.0
482.871582 52.0
482.903107 72.0
483.011566 104.0
483.048615 60.0
483.107422 96.0
483.241425 76.0
483.377045 84.0
483.434357 44.0
483.521484 64.0
483.628998 68.0
483.670288 32.0
483.705322 32.0
483.740326 100.0
483.77536 84.0
483.825928 84.0
483.880432 40.0
483.934418 36.0
484.006866 64.0
484.042419 48.0
484.077454 52.0
484.125854 76.0
484.178192 84.0
484.217621 48.0
484.251312 52.0
484.301849 68.0
484.418793 56.0
484.454132 52.0
484.53302 64.0
484.651306 96.0
484.743317 88.0
484.782776 56.0
484.835358 28.0
484.927399 100.0
484.986694 68.0
485.01944 44.0
485.072052 96.0
485.136932 164.0
485.186035 48.0
485.247406 128.0
485.422791 52.0
485.512024 92.0
485.545593 60.0
485.6026 104.0
485.721039 52.0
485.760529 60.0
485.835083 36.0
485.922852 40.0
486.045685 64.0
486.291473 72.0
486.326569 44.0
486.377777 60.0
486.471436 52.0
486.528503 80.0
486.559235 32.0
486.648956 148.0
486.686554 64.0
486.765594 40.0
486.897339 120.0
486.972015 92.0
487.09903 92.0
487.1521 88.0
487.218018 32.0
487.257538 124.0
487.354218 40.0
487.387787 64.0
487.455292 44.0
487.587128 72.0
487.648651 96.0
487.683807 48.0
487.758545 40.0
487.824493 56.0
487.947571 128.0
487.98172 68.0
488.116211 68.0
488.193817 48.0
488.242188 60.0
488.27298 72.0
488.437195 96.0
488.500458 84.0
488.528656 92.0
488.59848 124.0
488.756897 88.0
489.02533 84.0
489.076691 60.0
489.119965 88.0
489.157379 28.0
489.28067 80.0
489.324677 104.0
489.390717 104.0
489.456787 100.0
489.543823 120.0
489.62854 76.0
489.7034 72.0
489.839966 44.0
489.9039 148.0
490.033264 76.0
490.139557 60.0
490.218872 68.0
490.249725 96.0
490.284973 48.0
490.329041 100.0
490.4216 100.0
490.52298 40.0
490.611145 88.0
490.646423 76.0
490.755737 88.0
490.789062 68.0
490.875702 120.0
490.91098 192.0
490.941864 36.0
491.087402 64.0
491.171204 60.0
491.217041 72.0
491.306183 88.0
491.337646 108.0
491.374146 44.0
491.422668 76.0
491.466797 156.0
491.541809 104.0
491.599182 112.0
491.652283 116.0
491.672272 64.0
491.762482 56.0
491.833099 124.0
491.894897 56.0
491.958801 92.0
492.014099 68.0
492.075562 52.0
492.155365 76.0
492.270081 168.0
492.318756 88.0
492.362915 112.0
492.482178 88.0
492.579346 84.0
492.670074 96.0
492.716309 56.0
492.756073 112.0
492.795837 80.0
492.860413 64.0
492.928406 56.0
493.00351 80.0
493.158661 40.0
493.23288 76.0
493.330597 60.0
493.385193 92.0
493.433441 76.0
493.539185 108.0
493.697601 36.0
493.808563 128.0
493.878937 120.0
493.981384 76.0
494.038177 68.0
494.069153 76.0
494.130554 96.0
494.210724 68.0
494.254974 92.0
494.427582 72.0
494.462982 44.0
494.524933 132.0
494.741699 80.0
494.794983 124.0
494.892609 80.0
495.00061 72.0
495.101624 64.0
495.339691 76.0
495.379547 132.0
495.48587 64.0
495.62619 104.0
495.791626 68.0
496.004395 28.0
496.070862 52.0
496.208313 88.0
496.253601 56.0
496.323608 124.0
496.372375 52.0
496.492096 60.0
496.536469 52.0
496.594116 44.0
496.660645 48.0
496.718323 52.0
496.913513 56.0
496.953461 80.0
497.024445 88.0
497.082123 32.0
497.250763 72.0
497.36618 56.0
497.397247 44.0
497.43277 56.0
497.552612 108.0
497.663635 92.0
497.779083 52.0
497.827911 120.0
497.878601 88.0
498.072205 128.0
498.281006 68.0
498.352081 60.0
498.463165 40.0
498.694275 108.0
498.796509 48.0
498.943207 120.0
499.186127 76.0
499.323151 100.0
499.490204 48.0
499.570282 68.0
499.619202 36.0
499.663696 48.0
499.979645 72.0
500.07309 88.0
500.193298 84.0
500.371368 60.0
500.500488 108.0
500.602905 64.0
500.813293 84.0
500.865692 52.0
500.932495 60.0
500.977051 76.0
501.04834 48.0
501.097351 44.0
501.360229 64.0
501.380859 64.0
501.444916 128.0
501.502869 92.0
502.06076 120.0
502.202911 84.0
502.251709 68.0
502.354553 120.0
502.566437 112.0
502.69812 60.0
503.086456 76.0
503.166809 68.0
503.251648 40.0
503.287354 64.0
503.376678 32.0
503.59549 48.0
503.649109 72.0
503.709167 80.0
503.89035 36.0
503.943939 64.0
504.055664 120.0
504.626526 56.0
504.922943 100.0
505.106323 56.0
505.3703 52.0
505.5448 52.0
505.652222 40.0
506.023773 104.0
506.135712 36.0
506.529816 88.0
506.601501 80.0
506.959961 32.0
507.139221 36.0
507.233368 40.0
507.300598 48.0
507.771423 112.0
508.570068 36.0
508.731659 56.0
508.933716 112.0
508.983093 48.0
509.261536 76.0
509.441223 36.0
509.643402 116.0
510.299622 72.0
510.650391 120.0
510.8573 132.0
510.897797 88.0
511.059784 60.0
511.221771 84.0
511.757446 128.0
512.009644 92.0
512.153748 44.0
512.299744 80.0
512.626831 80.0
512.737 108.0
512.863342 76.0
512.9198 68.0
513.131653 48.0
513.456299 68.0
513.659302 120.0
513.695374 64.0
513.902893 60.0
514.277466 72.0
514.372253 40.0
514.778625 56.0
515.079224 80.0
515.289062 64.0
515.551147 80.0
515.591797 76.0
515.835876 56.0
516.4599 64.0
516.50061 100.0
516.545837 52.0
516.640869 84.0
516.677063 56.0
517.088806 120.0
517.310608 88.0
517.763428 104.0
517.994446 108.0
518.125793 76.0
518.368835 88.0
519.163818 96.0
519.572021 76.0
519.667358 80.0
520.121155 116.0
520.702332 80.0
520.76001 76.0
520.947632 112.0
521.120239 40.0
521.565613 108.0
521.879333 48.0
521.911133 56.0
522.466064 72.0
522.679871 144.0
522.948425 136.0
522.998474 64.0
523.046082 24.0
523.125916 108.0
523.177734 52.0
523.348999 48.0
523.399109 60.0
523.440063 40.0
523.512939 76.0
523.654114 56.0
524.173462 124.0
524.360352 44.0
524.437805 128.0
524.734131 44.0
524.819519 72.0
525.742249 96.0
526.828979 72.0
527.002563 76.0
527.075684 76.0
527.528137 72.0
527.665283 92.0
527.701904 92.0
527.976257 80.0
528.479431 96.0
528.625854 64.0
529.765991 52.0
529.995056 48.0
530.572571 92.0
530.622986 64.0
530.815979 48.0
531.232971 76.0
531.269653 44.0
531.439392 100.0
531.476135 56.0
531.586243 92.0
531.783569 48.0
532.104919 52.0
532.55957 100.0
532.646851 56.0
532.775085 104.0
532.862732 68.0
532.973022 56.0
533.257935 88.0
533.506165 56.0
534.01709 72.0
534.504272 116.0
534.591675 88.0
534.771179 112.0
535.152344 80.0
535.420349 88.0
535.572388 80.0
535.802673 72.0
536.139099 88.0
536.443298 124.0
536.59082 88.0
536.710693 32.0
537.637939 32.0
537.836365 116.0
537.993347 52.0
538.085693 44.0
538.362732 68.0
538.658325 28.0
539.957153 64.0
540.091309 112.0
540.151428 124.0
540.577087 64.0
540.69281 40.0
540.757568 64.0
541.072388 32.0
541.169617 40.0
541.303894 40.0
541.419678 48.0
541.697571 112.0
541.764648 76.0
542.083252 100.0
542.666199 124.0
542.772827 108.0
542.995422 60.0
543.116028 88.0
543.296936 60.0
543.408264 68.0
543.473267 128.0
543.765625 64.0
544.359863 84.0
544.945129 64.0
545.228577 32.0
545.716675 32.0
545.870117 52.0
545.921265 104.0
546.109802 144.0
546.726135 52.0
546.83783 88.0
546.986755 100.0
547.233521 64.0
547.312683 48.0
547.478333 112.0
547.825012 108.0
547.899536 76.0
548.350647 64.0
549.228149 84.0
549.340088 96.0
549.43335 112.0
549.615356 52.0
549.886047 52.0
550.1521 144.0
550.236145 56.0
550.744141 204.0
550.843262 92.0
551.679749 52.0
551.726501 72.0
551.768555 124.0
552.007019 104.0
552.371826 116.0
552.493469 52.0
552.708679 116.0
552.839722 80.0
553.450439 208.0
553.621521 76.0
554.300476 92.0
554.558533 80.0
555.078979 44.0
555.369751 96.0
555.712219 64.0
556.221497 40.0
556.294128 80.0
556.359863 60.0
556.434998 80.0
556.634827 72.0
556.946838 40.0
557.473083 56.0
558.079468 60.0
558.114807 108.0
558.21582 112.0
558.332825 68.0
558.446289 40.0
558.483887 164.0
558.521545 96.0
559.302673 80.0
559.442871 92.0
559.495667 68.0
559.646301 56.0
559.719727 68.0
559.796997 76.0
560.258606 120.0
560.301025 64.0
560.649719 100.0
561.182373 84.0
561.904846 92.0
562.191833 92.0
562.253174 52.0
562.375916 116.0
562.70166 56.0
562.881042 104.0
563.131348 52.0
563.206909 48.0
563.61322 116.0
563.693542 44.0
563.788086 76.0
564.18689 32.0
564.279663 68.0
564.461365 104.0
564.941833 56.0
565.235168 44.0
565.296692 40.0
565.386597 92.0
565.471802 64.0
565.552246 88.0
565.594849 72.0
566.072998 84.0
566.342957 60.0
566.432983 100.0
566.646179 72.0
567.229065 32.0
567.380798 100.0
567.627319 32.0
567.835999 72.0
567.883423 68.0
568.357849 92.0
568.414795 80.0
569.03186 80.0
569.12207 108.0
569.668274 148.0
569.758484 48.0
570.167175 100.0
570.409546 60.0
570.575989 72.0
570.799438 80.0
570.937317 40.0
571.046753 116.0
571.122864 104.0
571.831787 108.0
571.883606 144.0
571.960327 60.0
572.1698 96.0
573.060425 92.0
573.236694 96.0
573.713379 76.0
573.794434 76.0
573.961304 56.0
573.99469 68.0
574.156799 104.0
574.538391 76.0
574.700623 112.0
574.743591 72.0
574.939209 108.0
575.101501 76.0
575.316345 92.0
575.994446 28.0
577.165344 48.0
577.691467 108.0
577.839783 40.0
578.461914 56.0
579.141907 100.0
579.228088 92.0
579.505981 80.0
580.109863 136.0
580.574951 48.0
580.838745 84.0
580.891479 108.0
580.987427 64.0
581.246521 92.0
581.299316 80.0
581.553711 28.0
581.851318 80.0
582.000183 92.0
582.110596 68.0
582.326721 84.0
582.432373 76.0
582.705139 72.0
583.648315 96.0
584.740356 60.0
584.793274 40.0
584.961792 72.0
586.146606 48.0
586.238159 52.0
586.368286 52.0
586.426086 80.0
586.532166 64.0
586.638184 40.0
586.749084 64.0
586.874451 76.0
587.036255 72.0
587.11554 100.0
587.424255 36.0
587.670288 40.0
587.718567 92.0
588.514954 28.0
588.635681 108.0
588.906128 80.0
589.249146 120.0
589.413391 56.0
589.505249 76.0
590.544678 40.0
590.675293 92.0
590.78656 64.0
590.830078 52.0
590.980469 104.0
591.062317 96.0
591.110718 112.0
591.16394 96.0
591.502747 96.0
591.706116 44.0
592.025696 68.0
592.124268 88.0
592.175842 52.0
592.253296 80.0
592.558533 76.0
592.82019 92.0
592.892883 108.0
593.198242 68.0
593.266113 48.0
593.309753 116.0
593.707336 64.0
593.978943 40.0
594.134216 76.0
594.449585 76.0
594.600037 56.0
594.716492 88.0
594.799011 72.0
594.871826 56.0
595.109741 104.0
595.430237 96.0
595.605103 100.0
595.702271 120.0
595.838257 100.0
596.013184 120.0
596.134705 32.0
596.397156 100.0
597.01947 104.0
597.063232 80.0
597.223755 120.0
597.384277 52.0
597.554565 36.0
597.783264 68.0
597.919495 100.0
598.133667 152.0
598.747192 144.0
598.868958 116.0
599.234314 64.0
599.590027 76.0
599.770386 76.0
599.916626 128.0
599.96051 100.0
600.062866 136.0
600.526123 56.0
600.989563 128.0
601.25238 112.0
601.311646 76.0
601.482483 72.0
601.760803 92.0
601.936584 28.0
602.073303 84.0
602.13678 96.0
602.317505 40.0
602.424988 92.0
603.136902 44.0
603.314453 84.0
603.363342 56.0
603.514893 88.0
603.637146 104.0
603.803406 72.0
604.385559 60.0
604.444275 116.0
605.060974 64.0
605.129517 44.0
605.638855 76.0
605.736267 72.0
605.957275 108.0
606.21698 120.0
606.280701 96.0
606.81012 72.0
607.516296 92.0
607.580078 64.0
607.884338 92.0
608.501038 92.0
609.067566 92.0
609.151062 36.0
609.775085 72.0
609.896545 56.0
610.129028 72.0
610.187988 36.0
610.271606 56.0
610.748657 36.0
610.807678 108.0
610.866699 36.0
610.940491 56.0
611.019226 44.0
611.329224 100.0
611.629456 64.0
611.760254 88.0
612.151306 160.0
612.367981 144.0
612.486206 112.0
613.097168 84.0
613.33252 64.0
613.959961 104.0
614.058594 88.0
614.142395 48.0
614.484436 72.0
614.64563 60.0
615.287292 108.0
615.351501 96.0
615.814148 104.0
616.635864 64.0
616.912659 56.0
616.981873 48.0
617.199463 56.0
617.387329 80.0
617.595093 132.0
617.837463 116.0
618.317444 56.0
618.468018 48.0
618.797607 80.0
618.926331 64.0
619.19873 68.0
619.318298 84.0
619.67926 84.0
619.813049 104.0
619.93689 60.0
620.150024 84.0
620.363159 76.0
620.556519 104.0
620.670593 76.0
621.126831 96.0
621.265747 76.0
621.523743 56.0
621.717285 120.0
621.955505 40.0
622.064758 72.0
622.203735 64.0
622.298096 56.0
622.501648 72.0
622.774841 72.0
622.819519 64.0
623.043091 156.0
623.167297 80.0
623.261658 108.0
623.356079 36.0
623.679138 72.0
624.017212 108.0
624.052612 136.0
624.128418 88.0
625.171204 76.0
625.225952 84.0
625.275757 84.0
625.335449 64.0
625.599304 36.0
625.828308 108.0
626.012573 120.0
626.196838 68.0
626.540527 76.0
626.650146 56.0
626.989014 108.0
627.113586 92.0
627.198364 48.0
627.342896 144.0
627.681946 108.0
628.085938 104.0
628.130798 64.0
628.529968 92.0
628.57489 56.0
628.639709 52.0
628.694641 96.0
629.093933 84.0
629.148865 120.0
629.243713 120.0
629.29364 64.0
629.383545 112.0
629.553284 88.0
629.78302 96.0
629.857971 72.0
629.947876 108.0
630.218811 144.0
630.470642 116.0
630.752441 84.0
631.332397 104.0
631.377441 144.0
631.437439 96.0
631.577515 80.0
631.762573 108.0
632.297974 84.0
632.48822 36.0
632.633362 48.0
632.718445 80.0
632.973816 52.0
633.203003 84.0
633.61499 92.0
633.730225 68.0
633.855469 96.0
634.629211 112.0
634.908203 96.0
635.153992 104.0
635.852966 44.0
635.906616 40.0
635.941772 36.0
636.333313 64.0
636.423706 84.0
636.594421 76.0
636.709961 76.0
637.297668 76.0
637.393188 52.0
637.689697 56.0
638.011414 44.0
638.287903 80.0
638.594727 60.0
638.755676 48.0
638.896545 60.0
639.05249 96.0
639.747009 64.0
639.948425 72.0
640.069275 84.0
640.522522 52.0
640.749268 68.0
640.829834 72.0
641.071716 88.0
641.364075 76.0
641.459839 32.0
641.550598 84.0
641.636292 92.0
641.807678 76.0
642.004395 88.0
642.296936 36.0
642.778931 88.0
642.831726 40.0
643.291016 48.0
643.341492 128.0
643.386963 76.0
643.715149 32.0
644.321594 116.0
644.583984 92.0
644.993408 88.0
645.089417 108.0
645.220886 92.0
645.38269 72.0
645.418091 132.0
645.792297 112.0
646.546143 64.0
646.961243 96.0
647.796814 72.0
648.359253 48.0
648.436584 92.0
648.658325 92.0
649.025696 68.0
649.114624 108.0
649.155151 84.0
649.789246 68.0
649.951599 60.0
650.017578 108.0
650.124146 104.0
650.331116 56.0
650.533508 108.0
651.39801 72.0
651.439209 56.0
651.886353 40.0
652.084534 72.0
652.223572 80.0
652.291504 84.0
652.4505 52.0
652.526794 112.0
652.572571 120.0
652.722534 112.0
652.821716 36.0
652.8573 104.0
653.330383 72.0
653.584778 48.0
653.93811 88.0
654.083496 56.0
654.159851 44.0
654.302429 76.0
655.565674 100.0
655.861267 72.0
656.498596 32.0
656.717896 72.0
656.759949 80.0
656.814819 92.0
657.156616 40.0
657.207642 72.0
657.549561 76.0
658.008972 84.0
658.044678 56.0
658.233643 56.0
658.47876 28.0
658.749512 96.0
659.023376 80.0
659.648865 144.0
659.694885 80.0
660.057922 76.0
660.855896 44.0
661.219177 104.0
661.63385 52.0
661.698669 180.0
661.956421 76.0
662.17804 132.0
663.124512 76.0
663.309021 60.0
663.41156 64.0
663.489624 88.0
663.944824 76.0
664.042236 80.0
664.339783 68.0
664.457764 40.0
664.642456 84.0
664.924744 76.0
664.986328 68.0
665.037659 64.0
665.2276 76.0
665.263489 44.0
665.4021 72.0
665.442993 112.0
665.494568 100.0
666.033813 116.0
666.239258 96.0
666.624634 160.0
666.819946 72.0
667.143738 108.0
667.541992 88.0
667.760803 108.0
667.834473 76.0
667.956299 68.0
668.022522 64.0
668.380249 68.0
668.43988 36.0
668.51709 68.0
668.903137 40.0
669.340759 92.0
669.407715 48.0
669.471497 92.0
669.640686 84.0
670.133972 48.0
670.371033 124.0
670.623535 80.0
670.865845 56.0
671.097839 88.0
671.216431 84.0
671.463989 68.0
671.546509 76.0
671.684143 76.0
672.000488 96.0
672.276978 88.0
672.372009 128.0
672.43396 96.0
672.501038 88.0
673.032776 72.0
673.203186 76.0
673.451111 32.0
673.730042 64.0
673.817871 100.0
674.401855 120.0
674.525879 84.0
674.582764 88.0
674.680969 84.0
674.743042 100.0
675.141174 32.0
675.198059 104.0
675.249756 44.0
675.394592 48.0
675.535278 124.0
675.580811 100.0
676.289795 176.0
676.973206 64.0
677.164795 76.0
677.268372 104.0
677.656921 56.0
677.729492 52.0
677.786499 68.0
678.278809 56.0
678.47583 52.0
678.735046 40.0
678.849182 112.0
679.30188 112.0
680.047607 60.0
680.229309 104.0
680.362427 68.0
680.514832 56.0
680.738098 48.0
681.122437 104.0
681.426697 100.0
681.512085 72.0
681.766724 72.0
681.912231 40.0
681.990234 44.0
682.094177 76.0
682.165527 72.0
682.296936 108.0
682.697327 68.0
683.243469 112.0
684.3573 64.0
684.452026 80.0
684.742615 48.0
684.779114 68.0
685.013489 48.0
685.393799 44.0
686.024475 104.0
686.076599 80.0
686.144409 44.0
686.285156 48.0
686.519836 64.0
686.644958 44.0
687.312744 56.0
687.364929 80.0
687.552795 84.0
687.834656 52.0
687.959229 124.0
688.100891 60.0
688.539551 56.0
689.124573 44.0
689.344055 60.0
689.419067 112.0
689.526978 40.0
689.67334 48.0
689.835388 128.0
689.872253 76.0
690.473267 60.0
690.635437 84.0
690.891724 68.0
691.158569 96.0
691.289429 104.0
691.425476 124.0
691.617615 68.0
691.786682 48.0
691.954163 52.0
692.495728 72.0
692.682129 80.0
692.839294 36.0
692.917908 72.0
693.080322 112.0
693.153687 120.0
693.337097 76.0
694.034302 80.0
694.086731 44.0
694.621704 48.0
694.962708 56.0
695.167358 68.0
695.33136 120.0
695.660767 52.0
695.886475 68.0
695.981018 108.0
696.459412 124.0
696.674316 112.0
696.900208 108.0
697.297119 68.0
697.609741 84.0
697.862061 68.0
698.177612 88.0
698.298584 72.0
699.166687 108.0
699.33783 92.0
699.489929 48.0
699.666748 108.0
699.935242 80.0
700.361877 52.0
700.625244 44.0
700.683228 64.0
700.862366 84.0
700.957214 72.0
700.99408 60.0
701.046753 32.0
702.718323 76.0
702.813293 44.0
703.008545 72.0
703.098267 48.0
703.198547 108.0
703.33136 104.0
703.958801 88.0
704.197998 56.0
704.312683 76.0
704.468506 112.0
704.962524 76.0
705.242615 136.0
705.871765 68.0
705.977539 108.0
706.437683 68.0
706.485352 72.0
706.612732 52.0
706.649353 92.0
706.739258 60.0
706.823975 48.0
706.887451 96.0
706.981079 52.0
707.088562 76.0
707.628479 52.0
707.760864 100.0
708.269287 56.0
708.587158 164.0
708.682495 44.0
709.127686 84.0
709.249573 80.0
709.557068 56.0
709.601685 60.0
710.389709 108.0
710.702698 44.0
710.750488 40.0
711.254639 40.0
711.679382 44.0
711.875854 40.0
711.934265 44.0
712.061707 36.0
712.203064 32.0
712.683289 96.0
712.736389 60.0
712.980835 64.0
713.12439 108.0
713.384827 56.0
713.570923 100.0
714.092041 44.0
715.049744 72.0
715.124268 76.0
715.225403 80.0
715.305237 84.0
715.427673 40.0
715.542603 68.0
715.59137 156.0
716.11853 76.0
716.327637 48.0
716.626038 52.0
717.196228 36.0
717.249573 96.0
717.97467 48.0
718.188049 84.0
718.412048 60.0
718.497437 112.0
718.568848 124.0
718.625488 76.0
718.733887 128.0
719.5979 64.0
719.93866 84.0
720.609253 132.0
720.814758 84.0
720.873535 108.0
722.525757 100.0
722.90564 64.0
723.25354 88.0
723.355225 100.0
723.511292 52.0
723.601501 40.0
723.6604 60.0
723.72998 104.0
723.785645 104.0
724.099487 48.0
724.410217 96.0
724.501282 40.0
724.560181 64.0
724.651306 32.0
724.940613 84.0
725.1604 52.0
725.33728 68.0
726.093262 36.0
726.189819 80.0
726.356079 132.0
726.5224 60.0
727.203918 64.0
727.338074 80.0
727.434692 60.0
727.681641 60.0
727.746094 68.0
727.853516 36.0
727.917908 180.0
728.197205 112.0
728.285706 84.0
728.530212 36.0
728.643066 36.0
728.691406 72.0
729.427673 112.0
730.067505 84.0
730.470886 44.0
730.686096 76.0
731.229614 100.0
731.299561 48.0
731.622559 76.0
731.871399 92.0
732.020996 36.0
732.257935 92.0
732.430298 44.0
732.53595 76.0
732.651184 68.0
732.79126 48.0
733.288757 64.0
733.545776 124.0
733.766785 48.0
734.138855 52.0
734.225159 64.0
734.975037 88.0
735.16925 64.0
735.703674 196.0
736.44342 160.0
736.600098 40.0
736.762146 40.0
737.177429 80.0
737.686279 32.0
737.789001 104.0
738.067261 128.0
738.88147 48.0
739.000488 64.0
739.693237 80.0
739.758179 60.0
740.407959 84.0
741.567383 60.0
741.659546 40.0
741.74231 60.0
742.50293 80.0
743.172607 76.0
743.254028 68.0
743.367981 52.0
743.541626 76.0
743.585083 100.0
744.144165 108.0
744.25824 80.0
744.535156 68.0
744.584045 108.0
744.621399 68.0
745.067505 40.0
745.176147 44.0
745.589111 40.0
745.681519 100.0
745.93158 76.0
747.155151 96.0
747.514282 72.0
747.737427 68.0
747.857178 64.0
747.911621 144.0
748.559509 40.0
748.695618 72.0
748.856506 92.0
749.647766 52.0
749.725281 60.0
750.150452 28.0
750.406677 80.0
750.488464 64.0
750.613892 48.0
751.053894 108.0
751.145996 76.0
751.9505 80.0
752.021423 96.0
752.299805 104.0
752.72467 84.0
752.93866 104.0
753.009705 60.0
753.091614 88.0
753.211792 60.0
753.769043 76.0
754.353882 84.0
754.512451 96.0
754.769409 84.0
754.944397 72.0
755.105652 52.0
755.961914 48.0
756.334106 96.0
756.826843 76.0
757.59906 64.0
757.763428 84.0
758.305969 48.0
758.607422 60.0
758.684204 88.0
759.040588 36.0
759.177673 104.0
760.082825 36.0
760.170593 92.0
760.384644 72.0
760.565796 116.0
762.400269 96.0
762.444214 72.0
762.570618 84.0
763.076355 68.0
763.307312 68.0
763.351318 56.0
763.675781 120.0
764.071838 76.0
764.132385 60.0
764.363464 80.0
764.512085 56.0
764.963379 104.0
765.078979 56.0
765.717773 40.0
766.527588 92.0
767.426086 28.0
767.552917 64.0
767.883789 32.0
768.143066 48.0
768.429932 52.0
768.545776 96.0
768.783081 92.0
768.827209 64.0
769.370728 96.0
769.522766 60.0
769.660828 80.0
769.920349 60.0
769.975586 100.0
770.030823 52.0
770.141296 80.0
770.295959 72.0
770.467224 64.0
770.572144 76.0
770.831848 40.0
771.285095 88.0
771.334839 44.0
771.7052 76.0
771.942993 120.0
772.247192 68.0
772.982971 68.0
773.049377 32.0
773.392517 64.0
773.58075 56.0
773.901855 72.0
774.278442 108.0
774.433533 52.0
774.677246 108.0
774.760315 96.0
774.909912 100.0
775.054016 116.0
775.297791 52.0
775.408691 76.0
775.547241 76.0
775.671936 120.0
775.879822 28.0
776.184814 44.0
776.389954 40.0
776.661743 84.0
776.883667 108.0
777.310852 112.0
778.010254 112.0
778.532166 100.0
778.737671 28.0
779.771118 76.0
779.821106 56.0
780.271423 84.0
780.527161 80.0
780.788574 52.0
780.905334 68.0
781.483887 44.0
781.628601 48.0
781.683228 132.0
781.973633 80.0
782.034851 88.0
782.53772 72.0
783.638672 40.0
783.961853 116.0
784.062195 76.0
784.273987 56.0
784.312988 28.0
784.536011 32.0
785.04895 68.0
785.1828 100.0
785.338989 100.0
785.590027 72.0
785.645813 88.0
786.326538 136.0
786.7229 68.0
786.784302 68.0
787.219788 96.0
788.141541 144.0
788.180664 44.0
788.51593 76.0
788.610962 60.0
789.438416 48.0
789.695679 32.0
789.902649 76.0
790.09845 92.0
790.210327 80.0
790.406189 60.0
790.525269 124.0
790.679016 60.0
790.820312 152.0
791.397888 96.0
791.643311 96.0
791.90094 56.0
793.486816 52.0
793.627014 104.0
793.772766 32.0
793.845703 64.0
795.169739 32.0
795.607544 60.0
795.714233 76.0
795.933228 48.0
796.006226 112.0
796.202759 40.0
796.640869 72.0
796.691467 56.0
796.865601 40.0
796.927429 40.0
797.124084 36.0
797.208374 100.0
797.318604 84.0
797.663635 40.0
798.540833 92.0
798.720825 168.0
799.142761 68.0
799.249634 80.0
799.3172 60.0
799.682983 28.0
800.099548 52.0
800.521851 136.0
800.730225 80.0
801.575317 112.0
801.727417 60.0
801.964172 36.0
802.107788 84.0
802.471497 48.0
802.555847 92.0
802.719604 52.0
803.580261 76.0
803.661621 108.0
803.989319 64.0
804.12439 64.0
804.84137 96.0
805.112427 64.0
805.728088 104.0
806.383606 60.0
807.169434 84.0
807.288208 60.0
807.887756 56.0
808.561096 116.0
808.69928 48.0
808.821472 72.0
809.149841 84.0
809.778381 84.0
809.999329 84.0
810.339233 112.0
810.803894 68.0
810.955139 64.0
811.710938 44.0
812.87384 40.0
812.992981 60.0
813.095154 104.0
813.211731 104.0
813.725281 40.0
813.867188 100.0
813.918335 80.0
814.253357 64.0
815.24762 68.0
815.935364 100.0
816.105957 32.0
816.327698 120.0
816.5495 104.0
817.129761 36.0
817.437012 96.0
818.712219 108.0
819.709167 72.0
819.754761 52.0
819.931396 48.0
820.153687 64.0
821.408203 68.0
821.813232 64.0
822.264099 68.0
822.463867 60.0
822.629395 44.0
822.863464 108.0
823.114685 68.0
823.25177 116.0
823.440247 40.0
823.640137 84.0
823.760132 32.0
823.914368 104.0
824.091492 80.0
824.137207 72.0
824.188599 72.0
824.817261 112.0
824.874451 72.0
825.792297 124.0
826.664673 80.0
827.45459 56.0
827.523254 36.0
827.84967 76.0
828.038635 68.0
828.565674 112.0
829.476868 88.0
829.815125 68.0
830.331238 84.0
830.737427 44.0
830.795044 76.0
831.277832 56.0
831.536072 96.0
831.748413 36.0
832.36853 128.0
832.454651 60.0
832.856689 48.0
833.172607 104.0
833.367981 60.0
833.41394 40.0
833.735718 52.0
833.89093 48.0
834.391052 48.0
834.759033 72.0
834.874023 60.0
834.994812 80.0
835.098328 36.0
835.138611 60.0
835.253662 80.0
835.460754 40.0
835.894836 36.0
836.485107 48.0
837.366089 124.0
837.423706 88.0
837.665588 108.0
837.717468 60.0
837.792358 68.0
838.103455 104.0
838.558777 100.0
839.273621 68.0
839.521545 92.0
840.675354 80.0
841.044739 72.0
841.194824 56.0
841.45459 52.0
842.060974 104.0
842.153381 40.0
842.274658 40.0
842.384399 28.0
842.852417 96.0
843.465027 96.0
843.615356 40.0
843.730957 60.0
843.794556 80.0
843.99115 60.0
845.419983 52.0
845.628296 96.0
846.213013 92.0
846.288269 88.0
846.392517 96.0
847.390137 84.0
847.608948 68.0
848.113159 68.0
848.716125 72.0
848.779907 80.0
849.609314 132.0
850.224365 56.0
850.340454 60.0
851.460999 48.0
851.617798 84.0
851.815308 88.0
852.349854 44.0
853.960205 36.0
854.157959 48.0
854.41925 92.0
854.623413 88.0
856.107788 44.0
856.381531 48.0
858.088989 108.0
858.631287 96.0
858.841248 32.0
858.893799 64.0
859.062927 48.0
859.640564 44.0
860.019958 80.0
860.107483 88.0
860.329346 68.0
860.854797 52.0
863.098755 72.0
863.320984 52.0
863.432129 56.0
863.502258 84.0
863.964417 40.0
864.672424 136.0
864.795349 68.0
866.306091 36.0
866.739685 68.0
868.668579 72.0
869.179016 64.0
869.589844 36.0
869.936157 96.0
869.983154 64.0
870.993164 48.0
871.333923 32.0
871.71814 52.0
871.968567 84.0
872.074341 124.0
872.203674 72.0
872.333008 64.0
872.438843 92.0
873.133911 76.0
873.414978 160.0
873.473816 56.0
873.773865 84.0
873.979797 124.0
874.652832 112.0
874.756653 48.0
875.325867 68.0
875.645813 68.0
875.698792 52.0
876.52356 92.0
878.380737 56.0
878.722961 52.0
878.982544 40.0
879.218628 60.0
879.714417 60.0
880.925049 76.0
881.504089 56.0
881.988708 60.0
882.497131 80.0
883.668274 60.0
883.899048 68.0
884.331055 44.0
884.632935 56.0
885.40271 44.0
886.40979 56.0
886.97876 68.0
887.269226 72.0
887.488647 64.0
887.708008 40.0
888.188416 84.0
888.342651 140.0
888.384216 68.0
888.455383 72.0
888.716797 72.0
888.906311 48.0
889.173401 56.0
889.3396 88.0
889.95105 60.0
891.174622 36.0
891.352905 92.0
892.036377 64.0
892.143433 44.0
892.399048 48.0
893.0354 120.0
893.184082 44.0
893.267334 104.0
894.046814 96.0
894.325623 100.0
894.808716 48.0
894.903992 76.0
895.106445 60.0
895.25531 76.0
895.785461 84.0
896.095215 84.0
896.685181 68.0
896.732849 96.0
896.780579 44.0
897.188049 144.0
898.748596 96.0
898.802246 68.0
899.339417 80.0
900.658997 88.0
900.844177 136.0
901.244507 60.0
901.44165 88.0
901.531311 100.0
901.907837 64.0
902.170898 104.0
902.314392 92.0
902.523621 64.0
902.81665 64.0
903.031982 68.0
903.14563 100.0
904.318359 52.0
904.50824 156.0
904.719421 52.0
904.928955 68.0
905.312195 56.0
905.665588 52.0
906.264648 116.0
906.983826 44.0
907.193665 48.0
908.945007 68.0
909.167053 80.0
909.62323 68.0
910.259644 68.0
910.722046 92.0
910.932312 76.0
911.106506 48.0
911.17865 68.0
911.49707 44.0
912.314514 100.0
913.920349 108.0
914.811096 44.0
915.075989 96.0
915.238586 40.0
916.099854 76.0
916.328796 144.0
916.690308 104.0
917.449768 60.0
917.510071 72.0
917.648743 104.0
918.324158 52.0
918.56543 72.0
919.911133 80.0
921.378662 84.0
921.503052 68.0
922.696228 76.0
923.827148 72.0
924.286987 36.0
924.698486 32.0
924.93457 76.0
925.267517 100.0
926.266785 72.0
926.309143 104.0
927.854553 56.0
928.388123 64.0
929.134216 68.0
929.213074 76.0
929.492188 80.0
930.311584 120.0
930.802673 104.0
931.720581 76.0
932.036499 44.0
932.498352 88.0
932.571289 72.0
932.863098 28.0
932.960327 52.0
933.25824 64.0
934.115784 56.0
935.010254 64.0
935.326782 76.0
936.789246 124.0
937.409729 76.0
937.770447 104.0
938.244751 68.0
938.756958 32.0
938.854553 56.0
939.660828 104.0
939.983154 148.0
940.544617 48.0
940.892578 164.0
940.971985 72.0
941.271179 80.0
941.533752 128.0
942.291199 108.0
942.578369 60.0
944.021057 104.0
944.32074 108.0
945.354675 116.0
946.223877 68.0
946.376953 132.0
947.154724 104.0
947.54071 52.0
947.871582 92.0
948.692871 108.0
949.453186 68.0
949.667847 36.0
950.195435 44.0
951.646179 76.0
951.963257 148.0
952.067627 56.0
953.228699 44.0
955.522217 48.0
955.974365 76.0
956.039124 92.0
956.149902 92.0
956.248352 56.0
956.389954 80.0
956.716187 52.0
957.479736 72.0
958.397644 84.0
958.954651 96.0
959.057068 52.0
960.111389 96.0
960.351929 64.0
960.999695 40.0
961.190979 76.0
961.703186 96.0
961.771057 44.0
962.388428 116.0
963.043091 84.0
963.31488 52.0
963.376648 100.0
963.765869 80.0
964.019226 44.0
964.241699 44.0
965.014465 52.0
965.564819 44.0
965.973022 52.0
966.072021 40.0
966.622681 92.0
968.040283 48.0
969.948608 108.0
970.314331 64.0
970.419739 80.0
970.62439 112.0
972.051147 80.0
972.758667 48.0
973.44165 32.0
974.597046 40.0
975.902344 132.0
977.140076 48.0
977.444946 92.0
977.886841 64.0
980.234741 68.0
980.658508 68.0
980.970215 76.0
981.394165 96.0
982.367065 60.0
982.473145 72.0
982.866211 92.0
982.941101 116.0
983.203186 44.0
983.340515 52.0
984.077148 56.0
984.220764 84.0
985.00769 60.0
986.013672 76.0
986.813843 88.0
986.945129 40.0
987.314087 88.0
987.557983 180.0
987.720642 64.0
987.789429 64.0
988.258667 80.0
989.360229 120.0
989.923767 88.0
990.286987 80.0
991.182861 76.0
991.652893 40.0
992.831604 52.0
993.132629 80.0
993.377258 60.0
993.612366 68.0
994.010986 100.0
995.549011 64.0
996.089172 104.0
996.365601 68.0
996.434692 84.0
996.855652 48.0
999.188477 84.0
1000.157593 48.0
1000.346436 48.0
1000.579407 44.0
1001.177612 100.0
1001.442139 120.0
1002.223328 100.0
1002.267395 84.0
1002.368225 56.0
1002.41864 140.0
1003.603699 56.0
1004.095581 84.0
1005.030884 108.0
1005.079712 40.0
1005.57196 52.0
1005.938049 128.0
1006.184265 56.0
1006.291626 116.0
1006.417908 96.0
1006.601013 52.0
1007.055725 68.0
1007.099976 80.0
1007.175781 84.0
1009.096924 48.0
1010.115112 84.0
1011.152832 76.0
1012.811768 96.0
1013.109497 88.0
1014.161377 92.0
1016.038452 72.0
1016.368408 132.0
1017.758545 68.0
1021.940918 76.0
1022.010925 84.0
1022.806458 48.0
1023.347595 116.0
1023.799683 120.0
1024.016235 84.0
1024.902954 44.0
1025.230713 72.0
1025.475342 36.0
1025.532715 68.0
1025.755737 72.0
1027.477661 76.0
1027.822266 48.0
1031.309204 64.0
1031.475464 76.0
1032.696777 28.0
1032.946167 64.0
1033.48999 44.0
1034.110718 80.0
1034.328369 56.0
1034.789307 72.0
1035.993408 44.0
1036.609009 88.0
1036.743042 36.0
1037.281494 56.0
1037.65332 68.0
1038.734619 68.0
1039.628906 100.0
1040.57251 120.0
1041.77356 44.0
1041.882812 56.0
1042.165405 72.0
1043.071655 116.0
1043.933228 40.0
1044.222656 80.0
1044.460571 44.0
1044.878784 92.0
1045.026733 140.0
1046.19812 76.0
1046.990112 36.0
1048.233398 92.0
1049.36792 60.0
1049.941772 88.0
1050.070801 136.0
1050.638428 128.0
1050.844971 56.0
1051.490234 28.0
1051.748413 56.0
1051.929199 116.0
1053.382202 84.0
1053.743896 64.0
1056.427002 40.0
1057.002808 108.0
1057.099854 100.0
1057.973633 116.0
1058.122559 92.0
1058.277954 68.0
1058.614746 64.0
1058.685913 72.0
1060.026978 156.0
1061.615234 84.0
1062.082153 60.0
1062.134033 48.0
1063.217651 32.0
1063.625122 96.0
1064.43811 72.0
1068.864868 72.0
1069.691406 148.0
1069.737061 116.0
1070.63562 76.0
1070.830933 28.0
1071.189209 92.0
1072.270874 108.0
1072.991699 88.0
1073.079224 48.0
1074.350952 60.0
1075.884644 80.0
1076.977173 212.0
1077.105835 72.0
1077.282227 44.0
1077.72644 36.0
1077.9552 52.0
1080.596924 116.0
1080.884766 72.0
1081.846924 52.0
1082.521362 36.0
1083.084595 72.0
1084.873535 76.0
1085.175171 84.0
1085.745605 48.0
1088.698975 64.0
1088.744873 92.0
1089.421509 96.0
1089.631714 44.0
1090.709473 76.0
1092.794189 48.0
1093.215332 88.0
1093.267944 44.0
1095.638428 80.0
1096.007446 80.0
1096.409424 108.0
1097.484009 92.0
1097.615845 44.0
1098.202759 76.0
1098.690918 104.0
1099.143066 124.0
1099.370605 44.0
1100.037231 108.0
1100.974854 60.0
1101.926025 64.0
1103.836304 56.0
1104.570435 72.0
1105.000488 76.0
1105.728394 52.0
1105.927002 76.0
1106.741211 40.0
1107.410156 48.0
1108.741821 28.0
1108.834595 40.0
1109.776001 56.0
1111.122437 96.0
1112.396606 52.0
1113.565308 64.0
1113.990356 72.0
1114.515259 40.0
1115.352661 40.0
1115.572021 112.0
1116.236938 76.0
1116.290039 48.0
1116.542847 44.0
1117.414185 132.0
1117.673706 72.0
1118.6521 64.0
1118.725342 76.0
1119.537598 68.0
1120.043823 56.0
1120.996582 52.0
1121.109863 48.0
1121.856445 48.0
1122.196411 76.0
1122.803223 64.0
1125.900024 36.0
1127.449951 200.0
1127.78418 136.0
1129.84375 164.0
1130.073608 92.0
1130.30957 132.0
1130.66687 72.0
1133.419189 80.0
1134.047119 52.0
1134.297241 60.0
1134.585449 108.0
1134.867065 40.0
1135.906616 76.0
1136.785522 104.0
1137.40979 60.0
1137.476807 96.0
1137.618164 92.0
1137.953491 44.0
1140.708008 68.0
1141.010498 52.0
1141.269409 72.0
1141.494629 64.0
1142.74585 68.0
1143.59375 76.0
1143.876465 140.0
1145.72168 48.0
1146.496582 76.0
1149.07251 48.0
1150.064453 76.0
1151.381104 60.0
1151.840332 108.0
1152.759277 60.0
1153.049805 52.0
1153.212036 80.0
1153.61084 60.0
1153.861084 84.0
1154.401978 88.0
1154.949829 116.0
1155.606079 108.0
1155.883423 80.0
1156.682129 64.0
1157.83313 76.0
1157.927979 64.0
1159.343872 60.0
1160.055664 76.0
1160.977783 84.0
1164.921387 80.0
1165.349365 36.0
1166.497925 52.0
1166.899048 76.0
1166.960205 68.0
1167.150635 76.0
1168.123169 48.0
1171.356689 76.0
1172.855835 60.0
1173.885376 44.0
1174.540039 52.0
1178.554443 64.0
1179.101196 116.0
1181.049805 60.0
1181.371338 88.0
1182.473022 48.0
1183.198608 124.0
1184.650513 56.0
1185.671387 56.0
1187.488281 112.0
1188.853638 68.0
1189.828369 80.0
1190.260864 48.0
1191.373535 100.0
1191.442261 128.0
1191.50415 100.0
1191.565918 92.0
1192.376831 104.0
1192.734253 92.0
1194.219482 40.0
1194.425781 88.0
1194.769775 60.0
1195.155029 96.0
1195.265137 76.0
1195.313354 176.0
1196.490356 148.0
1197.171997 92.0
1197.598999 72.0
1198.206543 64.0
1198.687622 32.0
1199.562866 64.0
1200.066162 108.0
1200.293701 108.0
1201.07312 72.0
1204.117065 64.0
1204.876831 44.0
1205.12561 104.0
1205.34668 108.0
1206.307373 76.0
1206.936523 108.0
1207.151001 120.0
1207.870239 44.0
1208.38916 88.0
1209.399536 92.0
1210.181763 68.0
1210.396362 44.0
1211.400757 84.0
1212.557861 80.0
1214.721313 40.0
1214.991821 60.0
1215.539917 40.0
1215.900879 116.0
1217.025391 76.0
1217.706055 44.0
1218.574341 100.0
1220.52063 48.0
1220.979492 48.0
1221.848999 36.0
1223.025146 56.0
1223.700439 56.0
1223.98584 68.0
1226.284912 64.0
1227.016846 80.0
1227.260864 72.0
1227.986206 80.0
1230.798584 96.0
1231.063965 104.0
1231.189697 140.0
1233.150269 84.0
1233.229858 60.0
1233.439453 88.0
1234.14563 80.0
1235.20166 60.0
1235.25061 96.0
1235.593384 52.0
1236.188232 48.0
1236.853149 36.0
1239.500488 120.0
1239.689697 72.0
1240.972534 40.0
1241.355835 60.0
1241.666748 80.0
1242.262939 100.0
1242.445312 72.0
1243.224243 80.0
1243.631348 56.0
1246.145386 80.0
1248.479126 80.0
1249.407715 76.0
1250.259033 60.0
1250.526489 60.0
1250.582886 68.0
1253.991943 44.0
1257.723145 124.0
1257.934937 116.0
1259.135376 48.0
1261.474121 84.0
1261.735718 100.0
1262.209473 48.0
1264.77771 36.0
1265.577637 56.0
1266.144165 116.0
1267.880005 48.0
1271.731201 84.0
1272.859985 56.0
1272.994995 140.0
1273.328735 80.0
1273.428223 76.0
1274.664307 44.0
1275.915283 52.0
1280.426758 64.0
1283.733643 68.0
1284.489258 72.0
1285.174561 72.0
1286.744751 80.0
1288.158813 56.0
1288.787598 108.0
1290.166992 56.0
1291.661621 60.0
1292.565552 132.0
1292.856445 88.0
1295.154785 88.0
1297.663086 112.0
1300.101929 60.0
1300.633057 60.0
1301.193115 108.0
1302.536011 52.0
1303.31189 36.0
1303.441284 64.0
1304.411499 52.0
1304.634399 56.0
1305.346191 52.0
1305.95752 40.0
1308.188232 112.0
1308.591431 48.0
1308.771484 48.0
1309.606812 88.0
1310.075073 68.0
1310.175903 52.0
1311.011841 108.0
1311.573975 48.0
1313.239624 112.0
1313.715698 28.0
1317.693726 52.0
1319.218628 188.0
1320.050171 64.0
1320.512939 132.0
1321.012085 112.0
1322.994995 64.0
1323.161499 56.0
1323.88562 80.0
1324.291138 100.0
1325.90686 40.0
1325.97937 148.0
1327.871704 56.0
1328.952637 64.0
1330.614746 116.0
1331.616821 148.0
1331.674927 84.0
1332.139893 96.0
1334.247437 84.0
1335.549072 104.0
1336.356567 64.0
1337.29541 36.0
1342.931274 40.0
1343.051636 80.0
1343.131958 84.0
1343.518555 72.0
1343.584229 100.0
1344.569336 104.0
1345.810303 76.0
1345.9198 80.0
1346.255737 68.0
1348.359863 112.0
1349.49292 60.0
1349.997437 72.0
1350.319214 100.0
1350.538696 40.0
1351.519043 104.0
1352.177612 72.0
1353.356323 68.0
1354.865112 88.0
1355.868896 104.0
1356.543335 68.0
1357.958496 68.0
1358.66272 52.0
1360.005615 68.0
1360.61499 44.0
1360.736816 96.0
1362.098389 76.0
1365.964966 68.0
1366.215088 88.0
1367.002441 100.0
1367.789917 64.0
1368.415771 100.0
1368.666016 136.0
1369.358276 96.0
1369.675049 36.0
1372.106934 88.0
1373.832764 188.0
1375.127808 160.0
1375.404541 96.0
1380.362061 116.0
1380.426514 84.0
1385.083984 56.0
1385.602661 72.0
1385.987915 44.0
1386.136108 164.0
1388.033813 52.0
1388.738403 104.0
1390.519043 44.0
1390.622925 44.0
1390.994141 40.0
1393.615845 96.0
1395.860596 88.0
1397.616211 60.0
1398.159424 64.0
1398.665527 92.0
1398.717651 80.0
1400.556885 64.0
1401.30188 80.0
1401.480713 108.0
1403.224854 88.0
1404.865601 52.0
1405.70874 84.0
1405.969849 180.0
1408.433838 40.0
1409.031494 52.0
1410.242065 96.0
1412.560059 68.0
1413.001465 112.0
1413.368164 72.0
1413.495361 116.0
1415.351807 120.0
1416.505127 184.0
1418.026245 104.0
1418.895874 72.0
1419.150757 56.0
1420.823242 124.0
1420.920776 176.0
1421.641235 60.0
1422.211548 88.0
1423.210083 76.0
1423.555542 76.0
1423.998657 36.0
1424.847534 88.0
1428.486084 64.0
1428.629028 92.0
1428.960083 92.0
1429.343872 124.0
1430.126587 64.0
1431.248291 132.0
1431.602173 120.0
1433.373779 96.0
1438.071045 160.0
1440.200317 136.0
1440.615723 108.0
1440.963257 64.0
1441.386475 76.0
1441.552734 64.0
1443.782837 48.0
1443.858521 100.0
1443.918945 72.0
1444.592163 84.0
1445.553101 92.0
1445.749878 40.0
1446.196411 48.0
1448.475586 108.0
1448.627197 192.0
1448.983276 96.0
1450.104736 104.0
1450.279053 64.0
1451.787842 48.0
1452.083618 48.0
1452.432617 64.0
1453.411255 48.0
1454.056274 52.0
1454.838135 28.0
1457.066528 76.0
1459.815063 44.0
1465.60791 72.0
1465.943237 84.0
1468.497314 132.0
1469.420288 36.0
1469.531982 56.0
1469.725464 180.0
1470.084229 104.0
1470.88562 40.0
1470.984863 84.0
1472.664673 52.0
1473.428589 64.0
1473.894775 124.0
1474.834717 32.0
1476.050415 36.0
1476.70813 64.0
1484.650269 92.0
1485.325317 36.0
1490.231079 112.0
1490.453857 44.0
1490.569092 72.0
1495.360352 60.0
1495.414185 56.0
1496.876953 64.0
1497.108032 120.0
1500.560181 148.0
1501.223389 96.0
1502.318604 116.0
1502.766113 76.0
1504.000854 52.0
1504.904175 48.0
1505.182129 132.0
