>compound Torsemide
>formula C16H20N4O3S 
>ionization [M+H]+
>parentmass 349.133
#inchi InChI=1S/C16H20N4O3S/c1-11(2)18-16(21)20-24(22,23)15-10-17-8-7-14(15)19-13-6-4-5-12(3)9-13/h4-11H,1-3H3,(H,17,19)(H2,18,20,21)
#inchikey NGBFQHCMQULJNZ
#Ion_Source LC-ESI
#Instrument qTof
#Compound_Source Isolated
#PI Sirenas
#Data_Collector Ed Esquenazi 
#Scan -1
#Precursor_MZ 349.133
#ExactMass 0.0
#Charge 1
#CAS_Number N/A
#Pubmed_ID N/A
#Smiles N/A
#INCHI_AUX N/A
#Library_Class 3
#SpectrumID CCMSLIB00000005204
#IonMode Positive
#UpdateWorkflowName UPDATE-SINGLE-ANNOTATED-BRONZE
#LibraryQualityString Bronze
#TaskID d19310cd93df49b68e9fcbec27720eb5
##Scan# 3
#SpectrumFile Torsemide.mgf
#LibraryName fda_library.mgf
#MQScore -1
#Organism fda_library
#TIC_Query 0
#RT_Query -1
#MZErrorPPM -1
#SharedPeaks 0
#MassDiff 0
#LibMZ -1
#SpecMZ 349.133
#SpecCharge 0
#internalFilename spec-00000.mgf

>collision 10
107.04821 131.335205
114.046547 339.873199
115.053528 371.662415
116.048454 135.1315
117.058075 559.663574
120.044418 377.135193
122.059883 3671.780029
125.01683 20205.119141
126.000122 883.583618
127.008736 399.683685
127.052658 221.133499
128.017288 521.922424
128.059799 433.790894
129.070084 2097.312988
137.016006 3075.663086
140.048401 814.882812
141.056503 1316.972046
144.080536 148.665497
150.032089 309.266296
152.016495 125.858704
153.010681 1029.963989
154.064072 598.177429
155.068039 188.995407
156.080002 2891.593994
162.052597 155.7883
163.032364 139.800797
167.033966 112.347504
167.060562 1018.354004
168.06842 55795.171875
171.090363 645.30481
175.033646 435.031403
176.039642 807.383911
177.047363 470.420288
178.030243 141.754898
181.075455 3988.034912
181.314972 128.003204
182.032654 122.100304
182.083801 15918.879883
182.252823 163.491592
182.344803 113.664299
183.057266 869.328491
183.091934 107077.203125
183.533142 129.627304
183.596634 115.104599
185.070557 2215.177002
187.034561 120.5578
187.085602 124.097801
188.043015 108.676003
189.046982 116.989502
191.027069 233.244995
191.063278 5064.995117
197.070892 521.382629
198.03743 169.159805
198.078278 7132.184082
198.13887 117.6912
199.086197 7292.09082
200.03978 245.589005
201.047607 5579.952148
202.03064 480.625488
205.04277 156.639404
214.073349 765.761719
219.058624 7933.404785
228.05748 530.433228
229.043442 1756.129028
230.050674 9927.575195
232.028336 227.504303
247.053497 7469.565918
264.080017 22856.439453
264.328827 107.773201
290.058258 1655.98999
