>compound NCGC00160263-01!2-(3-Methyl-5-oxo-2,5-dihydro-furan-2-ylmethyl)-quinoline
>formula C15H13NO2
>ionization [M+H]+
>parentmass 240.100098
#inchi InChI=1S/C15H13NO2/c1-10-8-15(17)18-14(10)9-12-7-6-11-4-2-3-5-13(11)16-12/h2-8,14H,9H2,1H3
#inchikey TUHWOPISQPWMOH
#Ion_Source LC-ESI
#Instrument qTOF
#Compound_Source Prestwick Phytochem Lib
#PI Dorrestein
#Data_Collector VVP/LMS
#Scan -1
#Precursor_MZ 240.102
#ExactMass 239.095
#Charge 1
#CAS_Number N/A
#Pubmed_ID N/A
#Smiles CC1=CC(=O)OC1CC2=CC=C3C=CC=CC3=N2
#INCHI_AUX N/A
#Library_Class 1
#SpectrumID CCMSLIB00000078733
#IonMode Positive
#UpdateWorkflowName UPDATE-SINGLE-ANNOTATED-GOLD
#LibraryQualityString Gold
#TaskID 67c915c6594c435cadc1fe2b5358144d
##Scan# 1423
#SpectrumFile p1-H02_GH2_01_17958.mzXML
#LibraryName phytochem_lib.mgf
#MQScore -1
#Organism phytochem_lib
#TIC_Query 0
#RT_Query -1
#MZErrorPPM -1
#SharedPeaks 0
#MassDiff 0
#LibMZ -1
#SpecMZ 240.102
#SpecCharge 0
#internalFilename spec-00000.mgf

>collision 10
94.964981 152.0
95.040642 152.0
95.306656 84.0
95.573036 164.0
95.602226 148.0
95.667877 208.0
95.734604 48.0
95.770638 172.0
95.793037 156.0
95.826157 264.0
95.880714 128.0
95.964539 124.0
96.004837 204.0
96.06205 72.0
96.104973 128.0
96.204506 176.0
96.311905 128.0
96.3881 172.0
96.429138 152.0
96.524933 144.0
96.593384 132.0
96.650116 92.0
96.755051 176.0
96.857635 112.0
96.959526 152.0
97.029655 160.0
97.096756 104.0
97.122253 196.0
97.181107 164.0
97.41217 208.0
97.442238 116.0
97.459923 172.0
97.483505 212.0
97.524773 192.0
97.542465 136.0
97.571953 180.0
97.59948 160.0
97.615211 216.0
97.630943 104.0
97.650612 164.0
97.676178 40.0
97.853294 164.0
97.893303 164.0
97.936005 176.0
98.05619 140.0
98.08181 164.0
98.141769 116.0
98.198143 172.0
98.217865 140.0
98.271133 172.0
98.305458 172.0
98.423119 144.0
98.547554 204.0
98.573242 188.0
98.602882 212.0
98.63253 416.0
98.745232 156.0
98.780838 116.0
98.802597 176.0
98.838211 204.0
98.858002 140.0
98.903519 68.0
98.951027 204.0
98.968849 108.0
99.127319 64.0
99.179771 196.0
99.234352 148.0
99.339462 152.0
99.4347 132.0
99.510139 64.0
99.531975 120.0
99.563751 184.0
99.589569 152.0
99.680954 120.0
99.788628 188.0
99.845955 108.0
99.907623 124.0
99.927513 84.0
99.971291 176.0
100.034981 184.0
100.063835 244.0
100.123665 208.0
100.214218 236.0
100.240128 104.0
100.281975 64.0
100.33181 120.0
100.440887 180.0
100.497353 188.0
100.541252 120.0
100.616058 152.0
100.681 128.0
100.700966 340.0
100.804855 124.0
100.826836 192.0
100.898796 136.0
100.935379 188.0
100.992424 180.0
101.034355 148.0
101.048645 228.0
101.162872 152.0
101.224937 176.0
101.250969 192.0
101.378136 160.0
101.52037 160.0
101.579681 188.0
101.726173 200.0
101.846657 140.0
101.947113 56.0
101.963188 140.0
101.993332 148.0
102.029518 112.0
102.045486 312.0
102.093864 100.0
102.12001 112.0
102.136101 120.0
102.170296 136.0
102.18438 148.0
102.242737 148.0
102.278961 188.0
102.32325 152.0
102.373413 224.0
102.397758 116.0
102.53476 224.0
102.556114 148.0
102.700089 108.0
102.722275 176.0
102.805 188.0
102.883713 176.0
102.948326 132.0
103.053162 284.0
103.108147 72.0
103.169579 136.0
103.215607 180.0
103.237968 172.0
103.276527 92.0
103.302032 160.0
103.417374 148.0
103.522652 136.0
103.563156 184.0
103.656349 164.0
103.697571 152.0
103.72728 136.0
103.7658 176.0
103.781746 176.0
103.81649 64.0
103.844887 168.0
103.907768 184.0
104.05513 204.0
104.102631 144.0
104.169655 160.0
104.234673 156.0
104.250923 192.0
104.425766 156.0
104.511208 164.0
104.59465 176.0
104.621109 140.0
104.731071 176.0
104.781998 240.0
104.808487 204.0
104.880821 244.0
104.957283 328.0
105.0513 204.0
105.07354 128.0
105.135399 152.0
105.152573 176.0
105.216408 156.0
105.249069 124.0
105.293167 256.0
105.324638 180.0
105.351189 164.0
105.376823 352.0
105.416321 192.0
105.457451 284.0
105.510597 164.0
105.559669 196.0
105.659454 248.0
105.694672 136.0
105.727417 140.0
105.919876 156.0
105.975189 168.0
106.012077 148.0
106.050919 204.0
106.102264 156.0
106.178131 216.0
106.463394 76.0
106.478104 124.0
106.662689 220.0
106.687355 164.0
106.804573 104.0
106.81897 100.0
106.866287 164.0
106.899208 92.0
106.932137 88.0
107.068016 112.0
107.082436 176.0
107.177193 144.0
107.226654 176.0
107.274063 160.0
107.373032 148.0
107.428726 160.0
107.507133 136.0
107.536026 136.0
107.571114 188.0
107.637184 112.0
107.68055 128.0
108.011253 156.0
108.108498 120.0
108.25341 120.0
108.301041 172.0
108.343361 132.0
108.430412 200.0
108.450226 160.0
108.470955 140.0
108.491684 68.0
108.535225 116.0
108.576698 136.0
108.605736 88.0
108.638924 168.0
108.686646 204.0
108.755127 56.0
108.798721 168.0
108.858932 108.0
109.03344 176.0
109.054222 136.0
109.116585 176.0
109.237206 184.0
109.320427 96.0
109.339157 116.0
109.415909 216.0
109.480721 148.0
109.520294 136.0
109.553627 104.0
109.628632 156.0
109.649475 92.0
109.676567 136.0
109.724518 188.0
109.784981 200.0
109.824608 44.0
109.857986 216.0
109.922668 160.0
109.956055 136.0
109.987366 132.0
110.010323 264.0
110.127258 168.0
110.210823 120.0
110.269333 148.0
110.357132 120.0
110.391846 300.0
110.476341 164.0
110.643768 168.0
110.727524 112.0
110.769417 200.0
110.817894 200.0
110.85511 164.0
110.858208 148.0
110.866478 220.0
110.897232 164.0
110.920288 164.0
110.976891 188.0
111.020927 140.0
111.048195 212.0
111.083847 64.0
111.106926 124.0
111.132103 172.0
111.266426 212.0
111.291626 80.0
111.312431 136.0
111.350418 192.0
111.423943 116.0
111.561226 152.0
111.718269 176.0
111.762451 108.0
111.823479 88.0
111.873993 172.0
111.89505 124.0
111.964539 120.0
112.017189 160.0
112.177345 176.0
112.244812 180.0
112.293221 184.0
112.339722 200.0
112.367149 76.0
112.386139 132.0
112.41568 60.0
112.491661 172.0
112.521767 184.0
112.538109 96.0
112.770782 196.0
112.836014 92.0
112.912674 172.0
112.931168 96.0
112.97982 76.0
113.036545 168.0
113.136429 48.0
113.178772 172.0
113.225357 144.0
113.377892 120.0
113.456322 184.0
113.498726 156.0
113.517807 260.0
113.58992 144.0
113.640839 112.0
113.746948 100.0
113.777489 208.0
113.806389 124.0
113.831871 88.0
113.891342 124.0
113.906204 200.0
113.997566 52.0
114.054955 148.0
114.08046 168.0
114.097466 108.0
114.15062 192.0
114.178268 136.0
114.250587 104.0
114.278908 180.0
114.299522 156.0
114.316551 244.0
114.335701 180.0
114.374016 64.0
114.401688 220.0
114.430527 168.0
114.457039 192.0
114.486855 156.0
114.514542 172.0
114.548622 52.0
114.714836 152.0
114.742546 64.0
114.778793 140.0
114.800117 212.0
114.840645 152.0
114.913025 176.0
114.977188 168.0
115.023354 188.0
115.0308 136.0
115.053802 8408.0
115.085663 172.0
115.091606 140.0
115.097763 116.0
115.145851 104.0
115.167206 36.0
115.235893 132.0
115.284714 160.0
115.327461 220.0
115.579811 128.0
115.605492 108.0
115.639732 68.0
115.708229 176.0
115.774612 92.0
115.892426 132.0
115.927818 180.0
115.973618 140.0
116.008156 48.0
116.060326 4448.0
116.120262 184.0
116.189171 128.0
116.23217 116.0
116.297844 168.0
116.353554 216.0
116.375023 136.0
116.426559 136.0
116.514626 188.0
116.546852 72.0
116.61132 164.0
116.654312 172.0
116.70591 104.0
116.796234 104.0
116.839256 160.0
116.869377 124.0
116.903809 180.0
116.933937 140.0
116.972679 220.0
117.011429 140.0
117.028656 56.0
117.05719 2224.0
117.096085 180.0
117.198814 144.0
117.276398 128.0
117.30442 176.0
117.346893 180.0
117.373405 132.0
117.412224 280.0
117.640205 212.0
117.662529 120.0
117.681961 124.0
117.711174 136.0
117.80159 132.0
117.826973 168.0
117.96714 184.0
118.042809 164.0
118.06221 416.0
118.112015 144.0
118.173309 180.0
118.309479 208.0
118.360504 196.0
118.475693 32.0
118.544861 208.0
118.662079 224.0
118.714119 192.0
118.865967 88.0
118.963631 176.0
119.046143 156.0
119.111298 352.0
119.133018 184.0
119.24601 200.0
119.41777 140.0
119.450401 132.0
119.472153 52.0
119.543953 164.0
119.567894 152.0
119.661499 40.0
119.750778 104.0
119.881493 156.0
119.912003 208.0
119.938164 124.0
119.968681 132.0
120.044991 136.0
120.236214 208.0
120.357033 208.0
120.481522 228.0
120.529594 176.0
120.571114 124.0
120.610451 184.0
120.732895 180.0
120.771652 116.0
120.808098 156.0
120.835976 128.0
120.877274 196.0
120.892593 76.0
120.913872 160.0
120.928833 264.0
121.008598 104.0
121.072105 108.0
121.177246 52.0
121.203537 140.0
121.2649 276.0
121.314186 192.0
121.51384 140.0
121.537544 208.0
121.626808 76.0
121.683884 168.0
121.703644 80.0
121.78051 200.0
121.881561 220.0
121.900154 196.0
121.94529 152.0
121.971672 204.0
121.993263 160.0
122.090393 220.0
122.110313 216.0
122.136581 152.0
122.15638 60.0
122.18351 216.0
122.209183 88.0
122.224586 192.0
122.24659 180.0
122.356644 224.0
122.424698 128.0
122.463585 144.0
122.48217 172.0
122.541649 72.0
122.671677 172.0
122.755455 140.0
122.784126 212.0
122.819412 176.0
122.91256 232.0
123.108536 156.0
123.163963 168.0
123.181427 124.0
123.238861 104.0
123.289688 60.0
123.307365 148.0
123.333893 140.0
123.369263 200.0
123.484245 148.0
123.767502 80.0
123.820648 176.0
123.884888 236.0
123.991241 200.0
124.130905 136.0
124.146431 176.0
124.297272 172.0
124.34166 128.0
124.372726 188.0
124.614792 136.0
124.645897 136.0
124.701454 172.0
124.833954 220.0
124.87265 64.0
124.952736 108.0
125.003914 132.0
125.110748 120.0
125.177544 168.0
125.340157 72.0
125.382492 136.0
125.46051 132.0
125.482803 140.0
125.507332 48.0
125.59523 240.0
125.817459 152.0
125.987183 132.0
126.04081 160.0
126.058685 36.0
126.101143 156.0
126.119026 216.0
126.190559 156.0
126.244225 180.0
126.293427 68.0
126.340408 160.0
126.376205 196.0
126.398575 156.0
126.418671 180.0
126.571083 180.0
126.933945 172.0
127.041603 104.0
127.075615 316.0
127.127884 148.0
127.198685 184.0
127.256569 148.0
127.335648 124.0
127.376076 120.0
127.409775 120.0
127.480659 168.0
127.48465 248.0
127.55809 152.0
127.580574 228.0
127.596313 244.0
127.686256 168.0
127.713303 156.0
127.787483 156.0
127.86174 208.0
127.884247 116.0
127.909004 172.0
127.934608 140.0
127.978798 184.0
128.049622 16220.0
128.089142 32.0
128.111679 80.0
128.219833 112.0
128.296463 60.0
128.32933 228.0
128.366989 100.0
128.400192 76.0
128.479141 196.0
128.566071 136.0
128.625824 40.0
128.642654 48.0
128.734192 112.0
128.824966 168.0
128.876495 276.0
128.899094 48.0
129.021149 64.0
129.051895 2212.0
129.129684 212.0
129.147781 216.0
129.176147 140.0
129.202072 148.0
129.263168 128.0
129.360489 56.0
129.378601 172.0
129.403503 80.0
129.455582 168.0
129.523529 72.0
129.567291 200.0
129.630005 172.0
129.657196 176.0
129.690582 192.0
129.713867 124.0
129.761475 120.0
129.83403 92.0
129.860367 144.0
129.956528 136.0
129.990067 240.0
130.062576 460.0
130.113129 140.0
130.131302 156.0
130.21077 176.0
130.231216 120.0
130.265289 176.0
130.308456 28.0
130.331177 156.0
130.423355 228.0
130.442535 148.0
130.550781 144.0
130.677078 152.0
130.724823 212.0
130.815598 56.0
130.881622 172.0
131.051453 136.0
131.059357 132.0
131.214279 236.0
131.300934 64.0
131.32724 148.0
131.348831 196.0
131.376205 352.0
131.584747 148.0
131.622696 168.0
131.654663 164.0
131.743744 188.0
131.917419 48.0
132.043182 176.0
132.096313 196.0
132.123245 112.0
132.214767 120.0
132.244522 240.0
132.271988 152.0
132.379593 192.0
132.487106 64.0
132.572021 220.0
132.604111 128.0
132.622452 184.0
132.654541 280.0
132.757706 104.0
132.782944 60.0
132.865524 128.0
132.925171 280.0
132.950409 168.0
132.984848 232.0
133.056 120.0
133.078278 176.0
133.143265 192.0
133.235138 108.0
133.459274 168.0
133.490265 208.0
133.545471 72.0
133.621384 124.0
133.649445 160.0
133.704208 288.0
133.727234 200.0
133.766357 180.0
133.817001 184.0
133.869965 156.0
133.980789 176.0
134.024307 144.0
134.10173 264.0
134.121445 132.0
134.275574 160.0
134.330933 128.0
134.420914 164.0
134.447586 200.0
134.473297 200.0
134.635605 132.0
134.672775 164.0
134.707352 184.0
134.744171 144.0
134.806549 180.0
134.880508 152.0
134.899002 176.0
135.049301 168.0
135.100189 196.0
135.243668 180.0
135.271439 180.0
135.389526 180.0
135.49144 140.0
135.628159 164.0
135.723221 176.0
135.77887 32.0
135.797424 180.0
136.008575 152.0
136.403458 64.0
136.442978 184.0
136.864105 160.0
137.152985 168.0
137.194946 144.0
137.234573 124.0
137.269547 172.0
137.486496 216.0
137.512177 184.0
137.645248 152.0
137.834442 168.0
137.932602 200.0
138.001755 168.0
138.056519 168.0
138.072891 148.0
138.089264 180.0
138.121384 180.0
138.138382 164.0
138.238998 136.0
138.302185 76.0
138.370071 144.0
138.653503 108.0
138.676941 108.0
138.714447 164.0
138.803543 240.0
138.838715 108.0
138.946609 48.0
138.985916 192.0
139.059631 192.0
139.096802 152.0
139.261169 76.0
139.284653 140.0
139.380981 104.0
139.847427 152.0
140.003052 208.0
140.048096 500.0
140.110352 144.0
140.265884 124.0
140.287109 48.0
140.305969 180.0
140.371979 188.0
140.397919 164.0
140.5401 176.0
140.6315 96.0
140.697586 156.0
140.832184 188.0
140.895966 188.0
140.995209 128.0
141.054886 644.0
141.177246 188.0
141.229279 184.0
141.520355 124.0
141.735901 160.0
141.773819 76.0
141.840179 124.0
141.860214 116.0
141.899445 188.0
141.918427 176.0
141.980072 280.0
142.065277 14452.0
142.146347 136.0
142.167496 132.0
142.218857 192.0
142.241074 168.0
142.25769 176.0
142.298035 92.0
142.319412 88.0
142.359772 64.0
142.378784 132.0
142.426285 36.0
142.472961 172.0
142.487091 60.0
142.508362 328.0
142.524307 320.0
142.603546 112.0
142.62825 204.0
142.656769 176.0
142.707321 172.0
142.73761 128.0
142.760666 196.0
142.790802 208.0
142.819504 172.0
142.837494 160.0
142.871948 312.0
142.908249 216.0
142.927063 180.0
142.945038 180.0
142.961319 212.0
142.983231 204.0
143.01387 560.0
143.041687 468.0
143.073395 191884.0
143.147522 164.0
143.157043 92.0
143.162582 56.0
143.194534 60.0
143.202927 76.0
143.239197 56.0
143.262894 80.0
143.296066 248.0
143.327286 392.0
143.345428 244.0
143.369476 196.0
143.402908 96.0
143.427078 120.0
143.464691 1728.0
143.487625 76.0
143.508118 108.0
143.51535 64.0
143.524948 148.0
143.543472 304.0
143.575165 216.0
143.599045 188.0
143.623718 60.0
143.652618 148.0
143.702454 56.0
143.742432 96.0
143.773163 68.0
143.807175 96.0
143.831146 120.0
143.858475 116.0
143.887741 284.0
143.926483 120.0
143.930313 72.0
143.943665 96.0
143.969025 112.0
143.999695 88.0
144.029343 92.0
144.046799 244.0
144.075974 20064.0
144.156708 180.0
144.203766 96.0
144.245117 176.0
144.30336 76.0
144.35437 96.0
144.390244 52.0
144.409378 112.0
144.447647 60.0
144.464401 40.0
144.577667 116.0
144.60408 64.0
144.62233 100.0
144.651932 164.0
144.744415 76.0
144.801346 88.0
144.838791 88.0
144.868362 48.0
144.919281 112.0
144.946167 192.0
144.969604 92.0
144.992676 264.0
145.032471 104.0
145.079239 1236.0
145.13826 256.0
145.172348 152.0
145.208893 64.0
145.229691 360.0
145.266022 108.0
145.29686 140.0
145.324478 68.0
145.346893 152.0
145.373779 44.0
145.434113 76.0
145.485275 112.0
145.577866 72.0
145.610138 148.0
145.706223 168.0
145.732559 92.0
145.835999 80.0
145.86145 176.0
145.908112 128.0
145.965805 32.0
145.982651 140.0
146.057922 1916.0
146.187119 96.0
146.212051 108.0
146.268951 48.0
146.394913 76.0
146.468811 76.0
146.598907 120.0
146.688095 48.0
146.907532 104.0
147.037827 116.0
147.064346 448.0
147.235443 80.0
147.264786 76.0
147.426651 40.0
147.466568 140.0
147.531799 80.0
147.765182 244.0
147.8806 120.0
147.934296 136.0
148.055649 184.0
148.278534 136.0
148.310043 148.0
148.387619 208.0
148.423981 116.0
148.453079 156.0
148.491882 104.0
148.763657 188.0
148.950638 180.0
148.983414 176.0
149.013794 188.0
149.041687 252.0
149.254425 160.0
149.327377 108.0
149.651031 80.0
149.721649 168.0
149.858063 184.0
149.884857 172.0
149.926285 164.0
149.943344 192.0
150.048172 116.0
150.172058 144.0
150.389679 220.0
150.494659 152.0
150.528839 100.0
150.741364 116.0
150.844009 72.0
150.946701 184.0
151.049423 156.0
151.575806 144.0
152.01474 68.0
152.060898 904.0
152.087799 188.0
152.13501 100.0
152.154648 76.0
152.189026 80.0
152.331467 76.0
152.363403 120.0
152.545258 160.0
152.707535 64.0
152.749664 156.0
152.803482 120.0
153.061676 124.0
153.293472 40.0
153.374802 100.0
153.431503 88.0
153.520264 152.0
153.757095 76.0
154.062088 124.0
154.238724 92.0
154.283218 88.0
154.580032 68.0
154.60231 68.0
154.679031 152.0
154.790436 28.0
154.810257 56.0
154.839249 232.0
155.06572 328.0
155.49202 48.0
155.524918 172.0
155.623581 144.0
155.668274 120.0
156.082779 752.0
156.188156 44.0
156.27478 60.0
156.374313 68.0
156.391739 188.0
156.531158 68.0
156.969727 160.0
156.987183 104.0
157.081955 180.0
157.144333 156.0
157.453857 112.0
157.488831 172.0
157.686218 156.0
157.723709 72.0
158.021301 148.0
158.060333 980.0
158.271591 156.0
158.780304 152.0
158.803955 168.0
158.848022 72.0
159.056305 132.0
159.279785 48.0
159.327515 168.0
159.651657 188.0
159.923477 192.0
160.072586 952.0
160.318878 76.0
160.344086 52.0
160.417175 184.0
160.770294 68.0
161.040436 136.0
161.072586 232.0
161.53334 172.0
161.821838 84.0
162.062454 196.0
162.095398 152.0
162.260147 216.0
162.364105 124.0
162.567062 116.0
163.446289 156.0
163.958145 56.0
164.032059 164.0
164.060104 128.0
164.951019 64.0
165.070511 468.0
165.147903 44.0
165.296295 168.0
165.316757 184.0
165.749527 144.0
166.07103 276.0
166.111023 128.0
166.408722 104.0
167.072266 5024.0
167.208878 116.0
167.282822 96.0
167.406403 168.0
167.502991 112.0
167.76712 188.0
167.865097 68.0
167.932144 56.0
168.009537 232.0
168.079559 3880.0
168.123062 108.0
168.316681 152.0
168.36058 128.0
168.422562 88.0
168.544907 236.0
168.582748 172.0
168.606003 60.0
168.820572 72.0
169.050003 216.0
169.057602 148.0
169.085846 1108.0
169.12587 40.0
169.213882 48.0
169.439209 64.0
169.623199 64.0
169.724304 48.0
169.770981 108.0
170.059891 820.0
170.095612 256.0
170.175781 92.0
170.258881 148.0
170.290039 84.0
170.458908 196.0
170.62265 120.0
170.867126 132.0
170.911362 72.0
171.064041 144.0
171.150818 92.0
171.270615 40.0
171.437363 124.0
171.645905 136.0
171.690247 108.0
171.844147 136.0
172.071045 128.0
172.088196 244.0
172.452606 56.0
172.648682 124.0
172.834412 164.0
172.923386 160.0
173.148544 92.0
173.219269 136.0
173.303101 196.0
173.331924 104.0
173.397446 144.0
173.518021 132.0
173.935135 228.0
173.953506 92.0
173.992889 96.0
174.071655 196.0
174.342239 232.0
174.59198 108.0
174.886658 156.0
175.068314 176.0
175.542648 212.0
175.991241 132.0
176.059387 148.0
176.074554 268.0
176.13121 36.0
176.258011 52.0
176.346619 220.0
176.609634 200.0
177.059052 228.0
177.319214 160.0
177.419937 100.0
177.61882 152.0
177.724945 116.0
177.958725 152.0
178.031189 140.0
178.065063 3012.0
178.133789 56.0
178.237411 184.0
178.346375 116.0
178.84642 104.0
179.071884 5416.0
179.219254 48.0
179.264557 120.0
179.299194 144.0
179.497971 160.0
179.515137 220.0
179.619156 180.0
179.643158 184.0
179.779236 124.0
179.928711 52.0
179.966095 196.0
180.019501 232.0
180.079926 9376.0
180.155716 56.0
180.179764 64.0
180.207565 164.0
180.23587 120.0
180.286636 56.0
180.471085 60.0
180.529907 156.0
180.561996 104.0
180.655624 88.0
180.703186 144.0
180.751938 36.0
180.79158 64.0
180.826874 68.0
180.888428 136.0
180.916702 100.0
180.944656 64.0
180.979462 68.0
181.086411 5612.0
181.185684 64.0
181.300903 44.0
181.346466 52.0
181.3974 68.0
181.432251 72.0
181.45369 72.0
181.501953 148.0
181.676285 88.0
181.783615 196.0
181.802399 40.0
181.831924 32.0
181.971512 48.0
182.059845 376.0
182.092804 1572.0
182.127258 80.0
182.154129 48.0
182.172928 60.0
182.19809 88.0
182.331451 104.0
182.48468 112.0
182.508881 80.0
182.823608 172.0
182.99472 176.0
183.030884 140.0
183.068588 152.0
183.100098 256.0
183.146683 80.0
183.23558 52.0
183.373016 68.0
183.456238 156.0
183.612961 168.0
183.745148 100.0
183.858475 72.0
183.925949 160.0
183.94754 140.0
184.013779 180.0
184.058228 156.0
184.11145 10512.0
184.217575 80.0
184.241898 112.0
184.277023 36.0
184.341873 160.0
184.39592 132.0
184.479599 188.0
184.613144 68.0
184.839432 76.0
185.115936 1844.0
185.288879 176.0
185.372879 144.0
185.456894 40.0
185.622269 164.0
185.684647 48.0
186.118835 132.0
186.162292 60.0
186.416016 100.0
186.442108 108.0
186.569855 96.0
186.665009 76.0
186.689484 116.0
186.986023 84.0
187.334564 168.0
187.367249 108.0
187.389038 176.0
188.718246 192.0
188.98082 72.0
189.133713 184.0
189.273697 112.0
189.325729 164.0
189.840927 80.0
190.139969 120.0
190.52713 48.0
190.612305 128.0
190.832199 204.0
191.071075 1588.0
191.148514 84.0
191.294388 160.0
191.605576 56.0
191.9832 224.0
192.046646 160.0
192.08075 5752.0
192.126633 304.0
192.223206 132.0
192.325317 68.0
192.455063 136.0
192.521347 128.0
192.618011 208.0
192.716354 160.0
192.830765 188.0
193.029816 172.0
193.08812 7984.0
193.181931 32.0
193.375626 164.0
193.469742 132.0
193.48912 44.0
193.5168 52.0
193.550873 92.0
193.641418 172.0
193.677429 168.0
193.737335 176.0
193.766068 192.0
193.78685 48.0
193.865829 200.0
193.888733 208.0
193.910172 256.0
193.93425 176.0
194.001633 168.0
194.034912 252.0
194.06189 232.0
194.095749 36432.0
194.177979 204.0
194.217926 164.0
194.290054 44.0
194.327408 160.0
194.414917 40.0
194.487259 60.0
194.612 128.0
194.65921 112.0
194.689758 132.0
194.753204 52.0
194.806412 56.0
194.842529 92.0
194.906433 76.0
194.928665 56.0
194.9991 172.0
195.09935 4960.0
195.159363 80.0
195.235718 88.0
195.267822 100.0
195.299118 96.0
195.381866 36.0
195.640686 52.0
195.711212 84.0
195.799393 68.0
195.821686 120.0
195.963745 72.0
196.002762 256.0
196.072739 416.0
196.107681 896.0
196.253616 96.0
196.33728 56.0
196.359589 56.0
196.423737 120.0
196.471161 88.0
196.513016 112.0
196.535339 148.0
196.621841 112.0
196.710098 84.0
196.875885 124.0
197.02951 52.0
197.085403 184.0
197.116394 172.0
197.25029 108.0
197.272644 52.0
197.317383 52.0
197.356522 72.0
197.40686 36.0
197.504745 52.0
197.639023 76.0
197.784546 60.0
198.002945 120.0
198.06456 104.0
198.088089 236.0
198.221451 52.0
198.586273 120.0
198.748611 76.0
198.911392 32.0
199.060196 120.0
199.097778 192.0
199.672836 68.0
200.382202 48.0
201.073059 40.0
202.257324 136.0
202.430038 64.0
203.521744 184.0
203.547287 88.0
203.905243 152.0
204.063965 224.0
204.306168 100.0
204.589783 292.0
205.103516 212.0
205.468521 100.0
205.779617 32.0
206.054764 412.0
206.082367 180.0
206.900345 52.0
207.066971 1488.0
207.335724 128.0
208.072571 296.0
208.167664 32.0
209.085693 180.0
209.574265 140.0
209.666473 108.0
210.089554 316.0
211.03186 160.0
211.059509 248.0
211.141739 144.0
211.329773 136.0
211.439728 156.0
211.561295 148.0
211.761093 108.0
212.069672 136.0
212.106415 13984.0
212.214447 76.0
212.311752 64.0
212.387161 52.0
212.407471 52.0
212.543823 68.0
212.590256 80.0
212.616379 84.0
212.767319 224.0
213.110901 1252.0
213.200104 88.0
213.232071 96.0
213.336716 52.0
213.400681 100.0
213.470459 64.0
213.583893 52.0
213.944733 80.0
214.106674 116.0
214.203903 84.0
214.230118 52.0
214.416595 112.0
214.594421 100.0
214.664398 92.0
215.011551 64.0
215.16626 52.0
215.569336 160.0
215.700867 60.0
216.306381 52.0
217.173706 40.0
217.654999 104.0
218.348526 64.0
220.071213 220.0
220.686981 184.0
221.085052 208.0
221.385315 228.0
221.794174 88.0
221.889038 84.0
222.090057 2332.0
222.138153 76.0
222.874435 72.0
223.0961 688.0
223.156799 152.0
223.754822 140.0
223.796509 212.0
224.070511 160.0
224.142029 184.0
225.072311 520.0
225.198105 56.0
225.619446 48.0
225.759979 112.0
225.810822 56.0
226.083069 144.0
226.142929 76.0
226.547165 28.0
226.646027 88.0
227.071716 168.0
227.38974 92.0
227.704987 68.0
228.78447 76.0
228.986221 60.0
229.480423 40.0
232.004898 60.0
232.138306 48.0
232.447723 56.0
234.92131 64.0
235.040298 60.0
235.192886 36.0
235.397446 44.0
235.968826 156.0
236.406235 88.0
236.963516 72.0
237.138184 180.0
238.086594 1264.0
238.276642 72.0
238.971497 68.0
239.0896 672.0
239.787537 104.0
239.932404 204.0
239.972488 120.0
240.100098 5736.0
240.324097 100.0
240.373474 140.0
240.401245 64.0
240.444458 40.0
240.490753 52.0
240.608047 36.0
241.101227 416.0
241.198532 80.0
241.785751 48.0
242.106445 264.0
242.374115 44.0
242.600372 124.0
242.665482 68.0
242.786407 96.0
243.348053 100.0
244.753464 80.0
245.052475 128.0
247.275848 64.0
248.174911 112.0
250.604538 60.0
251.219315 80.0
259.228668 120.0
259.84433 156.0
261.331909 32.0
262.452789 104.0
262.852753 48.0
264.530151 44.0
265.064545 132.0
265.297913 76.0
266.437012 76.0
266.91806 56.0
267.75766 120.0
268.761688 128.0
271.263611 104.0
277.375214 52.0
281.016785 120.0
285.283508 84.0
285.354126 136.0
286.3367 36.0
287.722595 128.0
290.507782 44.0
295.933533 104.0
308.594116 68.0
309.601898 60.0
313.497864 68.0
313.741058 140.0
319.962189 56.0
320.515015 96.0
320.653229 68.0
320.799377 192.0
327.237366 32.0
328.542023 144.0
329.53125 80.0
331.811371 136.0
333.081512 52.0
333.67749 104.0
333.808411 76.0
343.049744 20.0
347.547028 80.0
350.272125 36.0
352.241699 128.0
362.589081 108.0
363.309509 60.0
369.1026 84.0
372.279358 68.0
374.876007 68.0
382.630615 36.0
396.810333 84.0
402.939514 64.0
415.992065 68.0
434.713135 60.0
441.13562 76.0
447.73996 48.0
448.418274 80.0
462.319 64.0
464.671417 64.0
466.427856 88.0
472.292084 36.0
473.235504 96.0
483.005676 36.0
486.686981 108.0
490.607056 36.0
510.848206 84.0
513.844055 120.0
523.375916 96.0
523.658264 76.0
547.418823 120.0
551.62262 116.0
555.471802 132.0
555.93158 88.0
557.871399 48.0
559.984131 96.0
578.431519 96.0
597.557251 108.0
622.305237 92.0
626.816711 44.0
634.834961 104.0
644.393738 80.0
644.55542 64.0
652.996155 100.0
657.214172 56.0
660.934021 92.0
690.646606 56.0
699.93573 48.0
700.97345 84.0
718.74292 84.0
720.141602 72.0
728.787964 152.0
729.717773 52.0
730.535217 36.0
745.969055 108.0
749.566589 204.0
758.765503 92.0
759.675903 204.0
770.405212 112.0
779.730774 148.0
780.803772 108.0
784.22229 164.0
790.292542 136.0
792.633118 140.0
795.948242 64.0
797.24585 280.0
797.352661 68.0
798.010315 132.0
798.31958 208.0
805.7995 156.0
811.272156 136.0
820.766968 148.0
821.00647 88.0
833.393921 144.0
833.865112 160.0
835.831909 176.0
837.679993 128.0
840.401123 144.0
841.307251 120.0
843.513977 216.0
853.561401 228.0
855.394043 108.0
863.030884 156.0
864.276733 164.0
873.093506 108.0
876.560852 96.0
877.468567 68.0
882.368835 72.0
885.036743 216.0
892.460083 64.0
893.06665 104.0
895.288696 300.0
901.078552 140.0
901.980896 212.0
906.349792 152.0
910.428894 52.0
915.191406 136.0
917.818542 88.0
921.512451 204.0
921.85083 160.0
923.755371 232.0
925.468079 188.0
928.789124 176.0
931.763672 164.0
932.584045 176.0
932.71167 208.0
936.076111 300.0
937.233459 132.0
938.269592 148.0
940.874634 152.0
942.945374 124.0
948.919861 252.0
952.270386 56.0
954.777954 256.0
956.616272 212.0
959.377502 96.0
960.259277 128.0
960.666382 132.0
961.005676 172.0
961.270996 72.0
966.275879 132.0
968.504456 196.0
969.464783 152.0
969.917236 188.0
971.281372 192.0
976.368164 240.0
976.952881 40.0
980.720215 152.0
982.559753 148.0
984.401062 68.0
984.956909 68.0
986.625427 172.0
996.754028 184.0
997.621399 196.0
999.130676 216.0
1001.352722 160.0
1006.378662 136.0
1006.915405 224.0
1007.161743 156.0
1009.32312 136.0
1015.630859 92.0
1015.922668 204.0
1020.444519 128.0
1021.977356 156.0
1022.250977 128.0
1025.957886 240.0
1026.920776 148.0
1030.144287 116.0
1035.38916 168.0
1036.119385 128.0
1037.46521 148.0
1042.413696 180.0
1050.294067 196.0
1051.661987 68.0
1053.159912 148.0
1054.639526 164.0
1055.68042 192.0
1058.035645 76.0
1061.378906 204.0
1062.286865 168.0
1065.065063 248.0
1066.904175 156.0
1069.343384 164.0
1070.482666 148.0
1071.64209 164.0
1074.112915 64.0
1074.908936 236.0
1075.907471 68.0
1077.664429 172.0
1078.147949 248.0
1078.566162 152.0
1082.393433 124.0
1084.771729 56.0
1087.237915 168.0
1087.539795 260.0
1089.371826 64.0
1092.349731 308.0
1098.093384 176.0
1101.109497 180.0
1102.516724 232.0
1103.098389 60.0
1104.559814 160.0
1107.366211 148.0
1109.015991 216.0
1110.872681 96.0
1114.637085 136.0
1115.221924 136.0
1115.627441 188.0
1116.797729 152.0
1117.243408 200.0
1118.301514 208.0
1119.866211 212.0
1120.412354 180.0
1121.425293 168.0
1121.498535 140.0
1123.238892 168.0
1124.172974 208.0
1124.259766 152.0
1124.506592 36.0
1125.100708 64.0
1125.681641 148.0
1126.59668 200.0
1127.879639 248.0
1129.156738 232.0
1129.233643 40.0
1133.588501 192.0
1137.907837 204.0
1138.888672 168.0
1140.420532 188.0
1141.973755 188.0
1144.430054 176.0
1147.630493 200.0
1149.870117 92.0
1153.443115 164.0
1153.517456 164.0
1153.578369 56.0
1153.943359 164.0
1155.025391 196.0
1157.272217 116.0
1157.59729 140.0
1158.531982 184.0
1158.592896 76.0
1159.439941 152.0
1160.877075 92.0
1161.060181 176.0
1161.121216 232.0
1162.567139 168.0
1162.783447 104.0
1163.333252 180.0
1163.387573 200.0
1164.270264 204.0
1165.173706 128.0
1166.233765 124.0
1167.260254 176.0
1168.369019 88.0
1170.676392 144.0
1171.166748 88.0
1172.297729 180.0
1174.431641 172.0
1175.830322 44.0
1177.284424 156.0
1177.332275 192.0
1180.250122 128.0
1180.783569 136.0
1181.200806 152.0
1182.802002 156.0
1183.883789 160.0
1185.00708 208.0
1185.712891 232.0
1185.795166 132.0
1186.254395 180.0
1186.55603 132.0
1187.221191 148.0
1190.168701 184.0
1192.782593 128.0
1194.398438 80.0
1195.602539 184.0
1196.063599 196.0
1196.63501 140.0
1199.059814 152.0
1199.783569 212.0
1200.107544 220.0
1200.286865 140.0
1200.473022 44.0
1201.038574 212.0
1202.494385 204.0
1202.818848 172.0
1202.984497 180.0
1203.371094 152.0
1204.317139 152.0
1204.738525 180.0
1204.869751 144.0
1206.480103 156.0
1208.084473 220.0
1212.578369 36.0
1212.987305 232.0
1213.250732 148.0
1213.694458 112.0
1217.038818 148.0
1217.434692 152.0
1217.649902 240.0
1217.969482 116.0
1219.532837 284.0
1220.234863 176.0
1220.33728 172.0
1220.99292 224.0
1222.140625 96.0
1222.537354 172.0
1223.456055 168.0
1224.173218 184.0
1224.827881 176.0
1226.291138 148.0
1226.576904 236.0
1226.799927 160.0
1227.518066 120.0
1230.008789 176.0
1230.071655 176.0
1230.811646 200.0
1231.524048 112.0
1231.859375 140.0
1232.85144 196.0
1234.26355 168.0
1234.892944 144.0
1235.263672 64.0
1236.625122 200.0
1237.02002 128.0
1237.113037 196.0
1237.370117 120.0
1237.811279 80.0
1238.539551 164.0
1238.805786 132.0
1239.022949 148.0
1239.394287 176.0
1239.492432 76.0
1240.480591 116.0
1242.991455 180.0
1244.149536 36.0
1244.233765 40.0
1245.834961 136.0
1246.017578 196.0
1247.289551 204.0
1247.662109 124.0
1248.393433 80.0
1248.498901 88.0
1249.539917 180.0
1252.116333 132.0
1252.827515 136.0
1252.863159 136.0
1253.574585 152.0
1253.750732 208.0
1253.877563 172.0
1254.695312 64.0
1257.693359 116.0
1258.236816 188.0
1259.147827 164.0
1260.228516 196.0
1260.454712 200.0
1260.687866 212.0
1261.03418 68.0
1263.332275 228.0
1265.501709 152.0
1266.935669 92.0
1266.99939 124.0
1267.141113 36.0
1267.863892 160.0
1269.026367 148.0
1269.948242 240.0
1272.82959 112.0
1273.610718 240.0
1274.456177 152.0
1274.598267 116.0
1274.726196 144.0
1275.792358 176.0
1278.836792 208.0
1278.900879 96.0
1278.964966 116.0
1279.135742 124.0
1279.491699 156.0
1279.96875 60.0
1280.987183 116.0
1281.265015 108.0
1282.996826 224.0
1283.467407 80.0
1284.059204 164.0
1284.4729 164.0
1284.522949 164.0
1286.271118 224.0
1286.599487 144.0
1287.163574 132.0
1287.470703 112.0
1287.692017 128.0
1287.870605 176.0
1288.313477 140.0
1288.699341 248.0
1288.942261 232.0
1289.978516 52.0
1290.071533 168.0
1290.175781 244.0
1290.278809 172.0
1290.521851 112.0
1291.773438 160.0
1292.839478 168.0
1293.522949 260.0
1293.683594 188.0
1295.825439 212.0
1296.176514 192.0
1296.749878 120.0
1297.488159 160.0
1297.567017 120.0
1298.707275 140.0
1298.822021 248.0
1300.26416 148.0
1300.458008 156.0
1300.852783 124.0
1301.168579 52.0
1301.254761 256.0
1301.513306 200.0
1302.102051 148.0
1303.244263 196.0
1303.675415 136.0
1304.386963 192.0
1304.473267 180.0
1304.710449 208.0
1305.594849 92.0
1306.940063 140.0
1307.206299 228.0
1307.782104 160.0
1307.904419 44.0
1309.337158 176.0
1310.023071 204.0
1310.641113 180.0
1312.075317 124.0
1312.817993 160.0
1313.294067 84.0
1313.43103 168.0
1313.928833 144.0
1314.592651 212.0
1314.650391 80.0
1316.89563 140.0
1317.528076 232.0
1317.885376 160.0
1318.109375 108.0
1318.311768 160.0
1318.448975 116.0
1320.596313 92.0
1320.929077 196.0
1322.137329 148.0
1322.810425 100.0
1323.925415 140.0
1324.497681 80.0
1324.736694 160.0
1325.562622 116.0
1326.019165 68.0
1326.773071 144.0
1326.918091 244.0
1329.253662 84.0
1329.630981 144.0
1330.748901 152.0
1330.879639 152.0
1333.542114 176.0
1333.676514 128.0
1334.287109 184.0
1334.432495 112.0
1335.217896 132.0
1335.46106 208.0
1335.61792 44.0
1336.170776 132.0
1336.236206 156.0
1337.07312 180.0
1337.830078 120.0
1338.507202 172.0
1338.594604 136.0
1338.900391 188.0
1339.781738 120.0
1340.160645 216.0
1340.765503 196.0
1340.903931 140.0
1341.924438 224.0
1342.661011 200.0
1342.763062 160.0
1342.952637 176.0
1343.492432 184.0
1343.791626 208.0
1344.681885 144.0
1345.338867 228.0
1345.616211 124.0
1345.718506 180.0
1346.112793 164.0
1346.324585 192.0
1346.806519 116.0
1346.901489 164.0
1347.053101 180.0
1347.686646 212.0
1348.24585 104.0
1349.320435 180.0
1349.583618 204.0
1350.453857 100.0
1351.031738 136.0
1351.551147 192.0
1352.37085 92.0
1352.561157 168.0
1353.81311 188.0
1353.944946 208.0
1354.377075 92.0
1355.00708 100.0
1356.956543 56.0
1357.660522 148.0
1359.817505 224.0
1360.250488 44.0
1361.190308 188.0
1361.351807 192.0
1361.462036 88.0
1362.269897 84.0
1364.151123 188.0
1365.989624 176.0
1366.806274 120.0
1367.770264 96.0
1367.821899 180.0
1367.97644 160.0
1368.175171 172.0
1369.147095 176.0
1369.382812 224.0
1369.67749 100.0
1371.379517 104.0
1371.571167 136.0
1372.736084 156.0
1373.134277 92.0
1373.894043 208.0
1374.056396 124.0
1374.35144 164.0
1375.067261 192.0
1375.177979 200.0
1375.539673 172.0
1375.908813 164.0
1376.447754 204.0
1376.617554 212.0
1376.698853 128.0
1377.141968 220.0
1377.400513 176.0
1377.688599 160.0
1377.880615 176.0
1378.072754 136.0
1378.464355 108.0
1379.173828 120.0
1380.157104 168.0
1380.223633 184.0
1381.227783 144.0
1382.339233 104.0
1382.583496 48.0
1383.701172 216.0
1383.80481 28.0
1384.338013 220.0
1384.678589 188.0
1385.09729 136.0
1385.382324 152.0
1385.886108 164.0
1386.745728 220.0
1387.042236 156.0
1387.531494 152.0
1388.094971 200.0
1388.762451 40.0
1389.066528 240.0
1389.771118 144.0
1389.942017 128.0
1390.194336 212.0
1390.320435 168.0
1390.446655 184.0
1391.471069 148.0
1391.871948 56.0
1392.912964 48.0
1394.42749 148.0
1394.63562 152.0
1395.044434 240.0
1395.223633 200.0
1395.46167 156.0
1395.654053 132.0
1397.207031 224.0
1400.461548 112.0
1401.005371 168.0
1401.631226 116.0
1401.7229 248.0
1402.137939 188.0
1402.190063 180.0
1402.331665 168.0
1402.40625 164.0
1402.726807 128.0
1402.894287 204.0
1403.474487 152.0
1403.904785 176.0
1404.404419 216.0
1404.693237 192.0
1404.934692 140.0
1405.225098 144.0
1405.829468 128.0
1406.23999 136.0
1407.62854 136.0
1407.9198 168.0
1408.16626 168.0
1408.77124 56.0
1408.853394 152.0
1408.935547 160.0
1409.016846 148.0
1409.264282 128.0
1409.570679 144.0
1410.205933 92.0
1410.295654 172.0
1410.496094 212.0
1411.039429 168.0
1411.274902 156.0
1413.017578 136.0
1413.092407 216.0
1413.286987 128.0
1413.676025 152.0
1413.749878 164.0
1415.128174 140.0
1415.255493 140.0
1415.555054 172.0
1415.88562 140.0
1416.192749 156.0
1416.723389 124.0
1416.865845 200.0
1417.075562 136.0
1419.654053 180.0
1420.479126 188.0
1420.689209 248.0
1421.379395 156.0
1421.987305 72.0
1422.05481 152.0
1423.398682 176.0
1423.796631 164.0
1424.217285 112.0
1424.743042 236.0
1426.005493 192.0
1426.629395 188.0
1427.178223 108.0
1427.366211 212.0
1427.832397 156.0
1427.915161 84.0
1428.464233 256.0
1428.938232 152.0
1429.036011 92.0
1429.720825 152.0
1429.893921 124.0
1430.458374 44.0
1430.706787 196.0
1431.309204 144.0
1431.919189 128.0
1432.288208 220.0
1432.634766 160.0
1433.240112 68.0
1433.410767 176.0
1434.518677 176.0
1435.89856 148.0
1436.434082 80.0
1436.599976 152.0
1436.969727 192.0
1437.218628 204.0
1437.618652 116.0
1437.920532 156.0
1438.320557 136.0
1438.773438 204.0
1438.977295 232.0
1439.173584 212.0
1439.309448 164.0
1439.392578 172.0
1440.049561 140.0
1440.940918 116.0
1442.422119 208.0
1442.648926 124.0
1443.019409 44.0
1443.147949 64.0
1443.344482 184.0
1443.873901 196.0
1444.55957 184.0
1444.811768 176.0
1445.326294 168.0
1445.386841 152.0
1446.226929 216.0
1446.847656 224.0
1446.999023 64.0
1448.604492 200.0
1450.165283 164.0
1450.605103 124.0
1451.052368 92.0
1451.901611 168.0
1452.002319 224.0
1452.144287 120.0
1452.371094 184.0
1452.766357 108.0
1453.133301 176.0
1453.494629 188.0
1453.600952 92.0
1455.020264 196.0
1455.589722 184.0
1455.870728 136.0
1456.011597 216.0
1456.577026 208.0
1457.222778 128.0
1457.671143 172.0
1457.830688 216.0
1457.937012 232.0
1458.887207 224.0
1459.366089 208.0
1459.617065 200.0
1459.997314 148.0
1461.929565 184.0
1462.013306 204.0
1462.424316 208.0
1462.637451 140.0
1462.934326 140.0
1463.002808 148.0
1463.269287 208.0
1464.670532 112.0
1465.112305 132.0
1465.508423 164.0
1465.996216 108.0
1466.301025 212.0
1466.384888 112.0
1466.529663 216.0
1467.550415 188.0
1467.879028 172.0
1468.069702 96.0
1468.206909 184.0
1468.763794 224.0
1468.908691 132.0
1469.229126 108.0
1469.335815 184.0
1469.412109 148.0
1469.961548 156.0
1470.411743 132.0
1470.717041 184.0
1470.801025 132.0
1470.961304 144.0
1471.068237 184.0
1471.877563 124.0
1472.106567 212.0
1472.450317 200.0
1472.793945 196.0
1473.061279 216.0
1473.641968 156.0
1473.710693 180.0
1473.894043 132.0
1474.375488 136.0
1474.772949 200.0
1474.864624 208.0
1475.88147 196.0
1476.126099 188.0
1476.179688 140.0
1477.005615 56.0
1477.326904 168.0
1477.780518 156.0
1477.984863 100.0
1478.92041 192.0
1479.385498 208.0
1479.814209 124.0
1480.62207 152.0
1481.085449 204.0
1482.441528 164.0
1482.541138 72.0
1482.717407 132.0
1482.924316 60.0
1483.090454 60.0
1483.177246 144.0
1483.292236 36.0
1483.468628 76.0
1483.997559 156.0
1484.181641 196.0
1484.31958 56.0
1484.695312 88.0
1484.833374 100.0
1484.933105 220.0
1485.155518 64.0
1485.792236 44.0
1485.845947 104.0
1486.59021 148.0
1487.188843 188.0
1487.710815 164.0
1487.772217 44.0
1488.23291 144.0
1488.624512 160.0
1489.323364 208.0
1489.492432 56.0
1490.705444 188.0
1491.159668 204.0
1491.613159 68.0
1491.80542 188.0
1491.859131 192.0
1493.081787 152.0
1493.235596 144.0
1495.212769 192.0
1495.289795 160.0
1495.874756 208.0
1496.775513 160.0
1497.229858 88.0
1497.452148 168.0
1498.146484 196.0
1499.849487 112.0
1500.250366 220.0
1500.350586 132.0
1500.712891 188.0
1501.869751 160.0
1502.157104 180.0
1502.386475 136.0
1502.926636 112.0
1503.088623 72.0
1503.358765 144.0
1504.254028 168.0
