>compound Eriodictyol 7,3'-dimethyl ether
>formula C17H16O6
>ionization [M+H]+
>parentmass 317.1019646840905
#inchi InChI=1S/C17H16O6/c1-21-10-6-12(19)17-13(20)8-14(23-16(17)7-10)9-3-4-11(18)15(5-9)22-2/h3-7,14,18-19H,8H2,1-2H3/t14-/m0/s1
#inchikey QZJVBGCZOLNWHW
#Ion_Source DI-ESI
#Instrument qTof
#Compound_Source Isolated
#PI Norberto Lopes
#Data_Collector Denise Silva
#Scan -1
#Precursor_MZ 317.095
#ExactMass 316.095
#Charge 1
#CAS_Number 54352-60-2
#Pubmed_ID N/A
#Smiles OC1=C(OC)C=C([C@@H]2CC(C3=C(O)C=C(OC)C=C3O2)=O)C=C1
#INCHI_AUX N/A
#Library_Class 3
#SpectrumID CCMSLIB00000081732
#IonMode Positive
#UpdateWorkflowName UPDATE-SINGLE-ANNOTATED-BRONZE
#LibraryQualityString Bronze
#TaskID 52bd5f0db6314c93924d5ce5c86348eb
##Scan# 1
#SpectrumFile gnps_Eriodictyol_7_3_dimethyl_ether_pos_MplusH.mgf
#LibraryName gnps_library.mgf
#MQScore -1
#Organism batch_27_05_V02
#TIC_Query 0
#RT_Query -1
#MZErrorPPM -1
#SharedPeaks 0
#MassDiff 0
#LibMZ -1
#SpecMZ 317.095
#SpecCharge 0
#internalFilename spec-00000.mgf

>collision 10
117.029053 350.0
137.054596 879.0
145.025192 8313.0
146.025909 513.0
149.055817 857.0
153.051514 427.0
163.035019 330.0
165.048859 445.0
167.030121 30907.0
168.034149 1873.0
171.192383 556.0
177.048874 22340.0
178.054291 1542.0
185.038849 4980.0
186.0439 453.0
193.045105 2137.0
219.058487 516.0
301.059631 1095.0
302.052521 511.0
317.095398 6567.0
