>compound MLS002154064-01!Xamoterol hemifumarate73210-73-8
>formula C16H25N3O5
>ionization [M+H]+
>parentmass 340.186646
#inchi InChI=1S/C16H25N3O5/c20-13-1-3-15(4-2-13)24-12-14(21)11-17-5-6-18-16(22)19-7-9-23-10-8-19/h1-4,14,17,20-21H,5-12H2,(H,18,22)/p-2
#inchikey DXPOSRCHIDYWHW
#origInchi InChI=1S/C16H25N3O5.C4H4O4/c20-13-1-3-15(4-2-13)24-12-14(21)11-17-5-6-18-16(22)19-7-9-23-10-8-19;5-3(6)1-2-4(7)8/h1-4,14,17,20-21H,5-12H2,(H,18,22);1-2H,(H,5,6)(H,7,8)/p-2/b;2-1+
#Ion_Source LC-ESI
#Instrument qTof
#Compound_Source NIH Pharmacologically Active Library
#PI Dorrestein
#Data_Collector VP/LMS
#Scan -1
#Precursor_MZ 340.194
#ExactMass 339.179
#Charge 1
#CAS_Number N/A
#Pubmed_ID N/A
#Smiles OC(CNCCNC(=O)N1CCOCC1)COc2ccc(O)cc2.[O-]C(=O)/C=C/C(=O)[O-]
#INCHI_AUX N/A
#Library_Class 1
#SpectrumID CCMSLIB00000085566
#IonMode Positive
#UpdateWorkflowName UPDATE-SINGLE-ANNOTATED-GOLD
#LibraryQualityString Gold
#TaskID d252d724072548979f1f6f1ced849daf
##Scan# 1080
#SpectrumFile p4-C08_GC8_01_18356.mzXML
#LibraryName Pharm_Active_Library.mgf
#MQScore -1
#Organism Pharm_Active_Library
#TIC_Query 0
#RT_Query -1
#MZErrorPPM -1
#SharedPeaks 0
#MassDiff 0
#LibMZ -1
#SpecMZ 340.194
#SpecCharge 0
#internalFilename spec-00000.mgf

>collision 10
45.647327 128.0
45.791325 224.0
46.02327 152.0
46.332989 196.0
46.598606 148.0
46.617924 180.0
46.929634 136.0
47.012161 232.0
47.041504 168.0
47.061985 204.0
47.206825 124.0
47.247856 128.0
47.306702 228.0
47.316288 196.0
47.401207 196.0
47.594612 176.0
47.611092 104.0
47.648178 108.0
47.72102 44.0
47.765026 196.0
47.95031 216.0
48.022598 84.0
48.04467 236.0
48.27948 128.0
48.312675 168.0
48.355568 216.0
48.467739 132.0
48.509315 164.0
48.788345 92.0
48.849533 168.0
48.951134 140.0
48.987347 160.0
49.070961 176.0
49.171398 76.0
49.202106 188.0
49.242599 136.0
49.470516 128.0
49.729832 212.0
49.749485 200.0
49.825317 60.0
49.84499 200.0
50.099648 140.0
50.213821 200.0
50.731339 32.0
50.806499 84.0
50.848278 180.0
51.270031 176.0
51.30994 228.0
51.364132 200.0
51.425488 316.0
51.495445 164.0
51.609768 112.0
51.741394 132.0
51.764305 140.0
51.926243 168.0
52.148781 104.0
52.28973 136.0
52.4669 184.0
52.607937 220.0
52.719494 180.0
52.785988 128.0
52.954994 92.0
53.036446 180.0
53.403793 128.0
53.512932 68.0
53.646965 152.0
53.730087 72.0
53.753433 188.0
53.810356 204.0
53.887764 104.0
53.909683 128.0
54.007637 160.0
54.028114 92.0
54.048599 156.0
54.088112 212.0
54.218464 168.0
54.428234 204.0
54.517841 208.0
54.564877 76.0
54.669312 264.0
54.697273 268.0
54.800362 220.0
55.052593 152.0
55.102814 112.0
55.218113 164.0
55.228466 152.0
55.339455 140.0
55.357224 152.0
55.386845 188.0
55.422398 80.0
55.563248 188.0
55.942204 136.0
56.101601 196.0
56.249283 240.0
56.261223 148.0
56.407619 208.0
56.427055 156.0
56.723465 224.0
56.738457 108.0
56.942528 124.0
57.013138 188.0
57.056728 232.0
57.437717 80.0
57.489014 148.0
57.526745 180.0
57.573551 156.0
57.714085 156.0
57.871441 240.0
58.209572 248.0
58.276405 232.0
58.525848 116.0
58.605049 164.0
58.618763 204.0
58.657822 376.0
58.696503 120.0
58.813976 220.0
59.177807 176.0
59.372414 200.0
59.382854 188.0
59.461395 192.0
59.619579 48.0
59.764122 224.0
59.84108 208.0
59.965855 116.0
60.101559 184.0
60.135509 152.0
60.174099 132.0
60.274494 172.0
60.393536 40.0
60.453869 132.0
60.569988 224.0
60.650562 180.0
60.818077 168.0
60.85223 48.0
60.888634 144.0
60.912796 156.0
60.996143 144.0
61.153801 148.0
61.205173 160.0
61.257729 188.0
61.270851 168.0
61.771698 164.0
61.806118 96.0
61.97052 172.0
61.984623 180.0
62.249722 196.0
62.356548 216.0
62.378551 196.0
62.403706 212.0
62.554733 196.0
62.617714 228.0
62.713821 224.0
62.939415 204.0
63.170155 132.0
63.22237 108.0
63.31102 228.0
63.458385 76.0
63.636082 188.0
63.647198 164.0
63.661488 92.0
63.725025 132.0
63.787003 200.0
63.841061 248.0
63.961975 124.0
64.030441 48.0
64.105316 152.0
64.154724 140.0
64.384483 128.0
64.555481 260.0
64.686676 160.0
64.715492 116.0
64.869286 200.0
64.891731 136.0
64.959084 208.0
65.067024 184.0
65.161362 144.0
65.220818 136.0
65.388092 196.0
65.428604 188.0
65.671654 256.0
65.889572 36.0
65.902496 88.0
66.041527 168.0
66.472458 184.0
66.537384 200.0
66.629951 148.0
66.953644 160.0
67.240578 136.0
67.279747 140.0
67.304237 76.0
67.315674 168.0
67.403877 200.0
67.469254 132.0
67.613197 220.0
68.078773 184.0
68.376335 136.0
68.448769 232.0
68.643211 132.0
68.699287 188.0
69.033371 176.0
69.087502 156.0
69.105698 132.0
69.190102 136.0
69.236465 204.0
69.742493 156.0
69.837265 160.0
69.908806 192.0
69.957077 68.0
70.451775 156.0
70.479088 152.0
70.552628 64.0
70.567673 60.0
70.604462 192.0
70.843811 144.0
71.293472 152.0
71.365753 136.0
71.387611 152.0
71.444969 160.0
71.473404 128.0
71.502007 148.0
71.522209 176.0
71.665352 124.0
71.726021 140.0
71.925056 148.0
71.996078 184.0
72.141273 128.0
72.225822 152.0
72.237663 220.0
72.491623 116.0
72.511963 208.0
72.919289 256.0
73.012794 88.0
73.111465 140.0
73.146667 216.0
73.177849 92.0
73.189766 184.0
73.215309 180.0
73.324341 112.0
73.503403 28.0
73.636559 132.0
73.9888 164.0
74.057297 140.0
74.247536 228.0
74.278412 176.0
74.391663 196.0
74.597801 172.0
74.84272 212.0
74.98336 152.0
75.240372 68.0
75.328438 224.0
75.375092 228.0
75.48745 188.0
75.504738 44.0
75.688171 96.0
75.837158 224.0
75.854485 160.0
75.890892 80.0
75.909966 260.0
76.04702 136.0
76.067848 164.0
76.427597 196.0
76.485023 60.0
76.8004 120.0
77.214333 180.0
77.272057 228.0
77.293053 176.0
77.485649 44.0
77.699539 232.0
77.771484 244.0
77.890884 156.0
78.107086 160.0
78.158104 192.0
78.309502 164.0
78.392303 216.0
78.453987 144.0
78.552742 284.0
78.67804 68.0
78.84407 224.0
78.983742 100.0
79.059822 108.0
79.637787 204.0
79.657326 204.0
79.863518 160.0
80.146568 132.0
80.572983 204.0
80.710609 260.0
80.789299 116.0
80.991104 168.0
81.190514 220.0
81.212036 212.0
81.235352 140.0
81.274826 136.0
81.445374 144.0
81.461731 112.0
81.61969 144.0
81.8032 28.0
81.880623 148.0
81.977905 116.0
82.169037 152.0
82.492287 188.0
82.537491 148.0
82.638779 40.0
82.684013 72.0
82.76004 176.0
82.807129 112.0
82.984711 68.0
83.182457 112.0
83.311386 176.0
83.374977 132.0
83.39315 128.0
83.686028 180.0
83.707878 152.0
83.757057 200.0
83.92836 168.0
84.076118 160.0
84.212128 152.0
84.418922 184.0
84.461624 124.0
84.558594 52.0
84.619003 164.0
84.703239 200.0
84.745377 128.0
84.81501 156.0
84.853508 200.0
84.915855 204.0
85.251816 132.0
85.266518 200.0
85.314308 128.0
85.465118 192.0
85.503761 108.0
85.517838 140.0
85.557144 184.0
85.610535 172.0
85.645531 48.0
85.713692 124.0
85.802162 44.0
86.126938 132.0
86.422729 132.0
86.49305 44.0
86.541183 116.0
86.589325 208.0
86.730141 88.0
86.808006 56.0
86.969406 192.0
87.311264 60.0
87.58564 380.0
87.605347 40.0
87.715294 56.0
87.941475 152.0
88.075417 116.0
88.092232 184.0
88.391365 180.0
88.445641 160.0
88.707886 220.0
88.762253 216.0
88.889915 212.0
88.946106 28.0
88.981773 196.0
89.07943 160.0
89.15834 176.0
89.449875 160.0
89.478111 160.0
89.521416 144.0
89.547783 148.0
89.772049 136.0
89.794678 128.0
89.813538 220.0
90.367043 200.0
90.503319 52.0
90.645378 176.0
90.753418 104.0
90.825485 124.0
90.844452 168.0
90.87291 152.0
90.889984 192.0
91.041847 168.0
91.066536 192.0
91.106422 172.0
91.250862 148.0
91.555313 92.0
91.747757 152.0
91.791603 144.0
91.915596 120.0
92.00721 116.0
92.339684 48.0
92.62104 64.0
92.78009 240.0
93.040749 212.0
93.054436 136.0
93.069412 160.0
93.413811 128.0
93.485001 180.0
93.527336 148.0
93.577393 136.0
93.65992 196.0
93.716064 152.0
94.101807 208.0
94.34523 172.0
94.401711 152.0
94.505753 172.0
94.652855 252.0
94.79039 248.0
94.941589 196.0
95.049072 540.0
95.069626 100.0
95.219116 148.0
95.269615 216.0
95.398064 184.0
95.458145 148.0
95.617661 112.0
95.781212 72.0
96.225838 164.0
96.450485 112.0
96.75174 156.0
96.81649 224.0
96.855522 256.0
97.073067 172.0
97.39296 132.0
97.424393 128.0
97.70945 196.0
97.78392 156.0
97.857056 160.0
97.87281 132.0
98.026451 336.0
98.282791 116.0
98.395287 156.0
98.418983 160.0
98.478226 140.0
98.778664 152.0
98.856216 100.0
98.899361 188.0
98.917175 164.0
98.952812 140.0
98.998352 32.0
99.016174 232.0
99.05629 9960.0
99.080132 180.0
99.137024 80.0
99.210358 72.0
99.291656 56.0
99.31942 96.0
99.471283 156.0
99.5 76.0
99.597305 112.0
99.726456 148.0
99.744339 80.0
99.766205 84.0
99.819893 232.0
100.06208 292.0
100.124359 292.0
100.162201 184.0
100.194077 176.0
100.351524 228.0
100.365479 120.0
100.479164 308.0
100.622856 88.0
100.744682 140.0
100.878571 232.0
100.894562 196.0
100.990547 176.0
101.008545 120.0
101.152618 120.0
101.183372 188.0
101.232704 180.0
101.306808 216.0
101.366913 136.0
101.429047 88.0
101.451096 176.0
101.743988 180.0
102.049362 176.0
102.089722 168.0
102.216309 176.0
102.274673 160.0
102.594955 200.0
102.839027 148.0
102.92382 136.0
103.054306 736.0
103.12381 120.0
103.291634 264.0
103.340187 184.0
103.437325 200.0
103.85067 208.0
103.899353 148.0
104.063179 328.0
104.08416 220.0
104.230301 196.0
104.256714 180.0
104.425461 160.0
104.439697 140.0
104.549561 104.0
104.712425 168.0
104.999786 180.0
105.040581 52.0
105.399895 52.0
105.465294 120.0
105.530708 76.0
105.64933 132.0
105.804863 216.0
105.913391 148.0
105.974846 168.0
106.126518 160.0
106.192139 60.0
106.22496 128.0
106.37886 236.0
106.590401 204.0
106.913254 204.0
107.050354 588.0
107.131508 152.0
107.191254 152.0
107.415977 192.0
107.665909 216.0
107.967438 148.0
108.039833 144.0
108.066727 228.0
108.145363 136.0
108.267517 320.0
108.495438 228.0
108.860611 100.0
108.895912 196.0
109.02784 160.0
109.057976 136.0
109.828362 144.0
109.959808 116.0
110.070442 52.0
110.128922 80.0
110.8423 220.0
111.042847 452.0
111.11277 292.0
111.625259 176.0
111.713593 104.0
111.789337 104.0
111.936691 116.0
112.033577 132.0
112.174767 156.0
112.254883 216.0
112.373001 108.0
112.603088 172.0
112.647446 172.0
112.869354 160.0
112.987793 168.0
113.051033 216.0
113.071388 2972.0
113.207924 224.0
113.458153 160.0
113.525795 180.0
113.890831 156.0
113.93119 120.0
113.971558 140.0
113.99913 176.0
114.05542 11792.0
114.096245 248.0
114.11821 56.0
114.196892 40.0
114.216034 44.0
114.247742 128.0
114.281982 48.0
114.330925 52.0
114.396904 108.0
114.420326 168.0
114.543839 40.0
114.675941 44.0
114.707916 156.0
114.744156 56.0
114.82518 92.0
114.87851 152.0
115.012939 132.0
115.060081 1604.0
115.2799 32.0
115.40815 144.0
115.497025 136.0
115.527916 164.0
115.845337 144.0
115.883301 184.0
115.926155 48.0
115.945442 84.0
115.984024 120.0
116.393784 208.0
116.436729 44.0
116.535545 60.0
116.67524 204.0
116.765198 172.0
116.89032 124.0
117.411636 116.0
117.433205 64.0
117.560493 140.0
117.653305 128.0
117.830391 208.0
117.996803 164.0
118.098442 152.0
118.122231 132.0
118.169823 164.0
118.210938 132.0
118.256386 188.0
118.310501 208.0
118.62027 144.0
118.667969 200.0
118.795921 152.0
118.982552 140.0
119.171501 140.0
119.310593 200.0
119.441071 188.0
119.976753 164.0
120.037804 44.0
120.22541 176.0
120.25975 196.0
120.428444 120.0
120.603241 164.0
121.024086 180.0
121.042969 160.0
121.065483 1748.0
121.139336 32.0
121.253273 140.0
121.531761 40.0
121.58223 132.0
121.787498 212.0
121.916039 32.0
122.069107 344.0
122.21949 184.0
122.56739 156.0
122.609253 64.0
122.66436 128.0
123.044281 2240.0
123.116661 60.0
123.233727 184.0
123.346436 108.0
123.406128 44.0
123.4216 72.0
123.490158 196.0
123.855362 140.0
123.990509 100.0
124.04673 624.0
124.116478 160.0
124.172302 164.0
124.673103 76.0
124.725159 236.0
124.758499 148.0
124.851883 180.0
124.91861 228.0
124.995949 152.0
125.034309 128.0
125.071091 3108.0
125.107765 180.0
125.179985 216.0
125.259186 176.0
125.495415 64.0
125.535553 152.0
125.593536 156.0
125.624763 64.0
125.825615 168.0
125.856873 184.0
125.952896 164.0
125.968536 32.0
126.05439 224.0
126.071922 272.0
126.433594 136.0
126.630608 96.0
126.803123 36.0
126.88382 72.0
127.091599 440.0
127.332596 208.0
127.70118 84.0
127.833916 148.0
128.090576 132.0
128.473785 160.0
128.550507 88.0
128.570816 96.0
128.708511 188.0
128.807877 164.0
129.382263 148.0
129.427551 148.0
129.527191 176.0
129.619705 244.0
130.516678 108.0
131.046997 184.0
131.062958 124.0
131.099411 208.0
131.279495 52.0
131.297745 40.0
131.414078 84.0
131.729126 184.0
131.788528 192.0
132.060562 164.0
132.088013 236.0
132.168076 120.0
132.440506 204.0
132.811813 112.0
133.004562 192.0
133.344482 96.0
133.457123 144.0
133.608917 204.0
133.746994 180.0
134.103989 204.0
134.392258 216.0
134.509949 184.0
134.56073 192.0
134.599991 84.0
134.694672 120.0
135.025192 156.0
135.143158 224.0
135.268127 84.0
135.415314 124.0
135.768585 40.0
135.914734 184.0
136.021484 88.0
136.047028 156.0
136.072556 188.0
136.490784 188.0
136.574493 144.0
137.058533 192.0
137.385132 76.0
137.464203 184.0
137.555481 180.0
137.690903 164.0
137.856766 204.0
137.910507 228.0
138.011032 144.0
138.120956 256.0
138.43457 168.0
138.936142 228.0
139.088669 148.0
139.210754 192.0
139.455093 112.0
139.909073 100.0
140.092758 140.0
140.217636 64.0
140.989365 116.0
141.00827 220.0
141.117004 92.0
141.336975 76.0
141.4198 56.0
141.682632 168.0
142.121246 220.0
142.228043 48.0
142.308746 116.0
142.46312 164.0
142.671539 152.0
142.745956 152.0
142.869629 168.0
142.969559 64.0
143.080948 5352.0
143.291016 68.0
143.329132 36.0
143.367264 44.0
143.643829 168.0
143.682007 100.0
143.765518 104.0
143.870529 120.0
144.028137 56.0
144.083206 480.0
144.206146 40.0
144.341202 188.0
144.360336 72.0
144.384247 140.0
145.042664 28.0
145.061844 132.0
145.21051 232.0
145.318451 64.0
145.388031 56.0
145.532059 100.0
145.632919 140.0
145.945328 152.0
146.433838 156.0
146.747101 168.0
147.038971 168.0
147.967178 176.0
148.110046 120.0
148.266037 168.0
148.388733 112.0
148.442078 148.0
148.526962 144.0
148.728348 132.0
148.757477 136.0
148.789032 244.0
148.91774 172.0
148.946884 180.0
149.027054 156.0
149.061096 3584.0
149.124252 56.0
149.146133 52.0
149.209335 148.0
149.520676 148.0
149.554749 132.0
149.703262 136.0
149.727615 40.0
149.963943 60.0
150.064743 572.0
150.461563 164.0
150.642273 60.0
151.461716 76.0
151.694504 92.0
152.411133 168.0
152.701202 116.0
152.792221 48.0
153.60022 204.0
153.864273 148.0
153.918579 144.0
154.175491 152.0
154.197739 136.0
154.254578 260.0
154.694901 228.0
154.754303 156.0
154.945007 88.0
155.049088 212.0
155.125916 140.0
155.321808 164.0
155.485565 192.0
155.53273 76.0
155.589813 104.0
155.64444 136.0
155.848114 192.0
156.082977 172.0
156.255859 152.0
156.303131 136.0
156.47139 180.0
156.497284 264.0
156.552063 172.0
156.591904 168.0
156.621796 176.0
156.666626 144.0
156.689056 160.0
156.813644 64.0
156.843552 124.0
156.876907 200.0
156.895905 188.0
156.930801 172.0
156.97641 236.0
157.026627 160.0
157.098129 89928.0
157.163071 164.0
157.186264 96.0
157.216949 28.0
157.241791 64.0
157.276093 68.0
157.293961 64.0
157.342712 80.0
157.374924 36.0
157.413666 288.0
157.472702 96.0
157.508163 500.0
157.545319 96.0
157.578812 44.0
157.602219 80.0
157.656494 72.0
157.712173 96.0
157.752167 68.0
157.803558 72.0
157.809662 40.0
157.819656 72.0
157.874023 80.0
157.911911 96.0
157.935455 128.0
157.958618 276.0
157.977036 52.0
157.996323 76.0
158.015808 180.0
158.100494 6340.0
158.126312 184.0
158.18927 148.0
158.28006 104.0
158.309311 168.0
158.411484 92.0
158.440353 36.0
158.470413 48.0
158.523041 76.0
158.593811 164.0
158.635818 68.0
158.846451 100.0
158.920319 72.0
158.966888 64.0
158.994003 204.0
159.027115 120.0
159.044678 40.0
159.102295 584.0
159.161804 104.0
159.241623 100.0
159.283325 100.0
159.310791 140.0
159.326874 96.0
159.348755 96.0
159.395248 108.0
159.431458 116.0
159.476364 60.0
159.773422 52.0
159.821213 52.0
159.939392 96.0
159.977249 160.0
160.287033 72.0
160.501297 72.0
160.864594 36.0
160.947906 36.0
161.182816 64.0
161.82019 52.0
162.471527 68.0
163.0784 148.0
163.365738 124.0
163.65332 88.0
164.124695 84.0
164.183334 52.0
164.63504 132.0
164.867508 60.0
164.974854 120.0
165.031097 56.0
165.197342 36.0
165.274094 80.0
166.093887 100.0
166.224716 144.0
166.555908 76.0
166.607285 44.0
166.934341 64.0
167.044296 84.0
167.142059 40.0
167.363419 72.0
167.453552 60.0
167.953568 100.0
168.27356 64.0
168.547333 132.0
168.955841 72.0
169.095566 132.0
169.136978 168.0
171.073441 92.0
173.188522 32.0
173.526566 76.0
175.730576 96.0
176.454239 100.0
179.113266 52.0
181.921021 84.0
182.047211 172.0
184.096527 264.0
184.442337 72.0
184.999573 64.0
185.533249 48.0
187.427612 212.0
190.816055 160.0
191.063568 116.0
198.451508 200.0
200.636002 48.0
203.107513 176.0
205.360199 136.0
205.537064 204.0
206.06813 36.0
209.274704 148.0
210.111145 516.0
210.24324 92.0
210.731232 124.0
210.878601 196.0
211.109207 204.0
212.375488 112.0
212.578568 144.0
213.758347 56.0
215.881989 128.0
217.094345 136.0
218.733765 40.0
222.29512 140.0
226.301224 136.0
226.735565 64.0
229.730301 172.0
229.872101 32.0
233.845154 196.0
235.107193 472.0
235.393829 72.0
236.10585 276.0
236.653595 80.0
237.965836 120.0
238.46347 68.0
239.993408 160.0
240.286407 224.0
241.896469 88.0
242.15657 124.0
249.451828 168.0
252.437561 188.0
252.864639 140.0
253.01973 128.0
253.118759 5700.0
253.273071 112.0
253.361755 68.0
253.483337 172.0
253.624771 100.0
253.707199 40.0
254.112961 220.0
254.116699 128.0
254.29718 56.0
255.117523 212.0
255.845184 108.0
255.889755 92.0
256.960632 52.0
261.343628 48.0
271.16394 44.0
273.874542 104.0
287.214691 144.0
294.071991 60.0
313.386292 116.0
323.152496 152.0
332.77002 64.0
338.893829 128.0
340.186646 256.0
365.304138 72.0
368.08252 76.0
397.718323 72.0
406.59079 108.0
414.810852 152.0
434.824005 100.0
438.679749 72.0
445.975677 60.0
468.056488 36.0
479.362335 116.0
533.934448 52.0
543.431763 76.0
587.852051 52.0
597.883423 60.0
616.964172 36.0
679.849915 84.0
691.900818 68.0
746.422974 184.0
755.126648 152.0
792.696716 148.0
794.530151 204.0
801.039917 60.0
829.28064 204.0
855.680237 180.0
860.92804 100.0
879.280029 180.0
880.732483 84.0
889.810547 108.0
890.707214 72.0
890.98645 212.0
907.554626 236.0
912.327576 128.0
920.123169 140.0
924.705078 124.0
926.667053 120.0
939.092346 220.0
939.252197 112.0
947.399353 92.0
948.195923 152.0
954.463562 188.0
955.429199 140.0
957.220215 188.0
968.782227 160.0
971.106689 80.0
971.503662 148.0
974.6203 176.0
975.129883 180.0
990.522705 140.0
998.512756 68.0
1004.408081 144.0
1012.846497 92.0
1017.672485 208.0
1022.204529 204.0
1022.586365 92.0
1022.987366 204.0
1025.414185 140.0
1031.688599 48.0
1032.065918 160.0
1034.18335 132.0
1041.8396 136.0
1042.46936 144.0
1044.623169 148.0
1048.080444 156.0
1050.968994 148.0
1059.166382 232.0
1061.298462 172.0
1071.32019 144.0
1071.8479 176.0
1084.532715 92.0
1086.250732 140.0
1087.293945 200.0
1087.523682 184.0
1089.329346 168.0
1090.426636 148.0
1092.879517 184.0
1098.010986 68.0
1100.782715 204.0
1100.974121 128.0
1101.390259 88.0
1103.511597 132.0
1105.476074 52.0
1109.343994 228.0
1109.87439 164.0
1111.234131 212.0
1113.158936 196.0
1114.328003 200.0
1116.667847 172.0
1117.466064 144.0
1118.171509 156.0
1119.516235 196.0
1121.44165 156.0
1122.708374 180.0
1126.198853 112.0
1127.561768 80.0
1128.250244 148.0
1130.042603 136.0
1131.756104 180.0
1132.130981 216.0
1136.501465 208.0
1140.497314 100.0
1143.624878 208.0
1146.776978 128.0
1147.383667 152.0
1148.192871 116.0
1149.805176 48.0
1150.844727 96.0
1153.472778 172.0
1157.437256 116.0
1157.505005 156.0
1158.77832 192.0
1158.83252 140.0
1163.532593 144.0
1163.967041 168.0
1172.545288 172.0
1173.574585 148.0
1180.942993 44.0
1182.236084 260.0
1186.160522 160.0
1194.242188 140.0
1195.177856 184.0
1198.510376 120.0
1202.37207 116.0
1203.020874 212.0
1208.09314 112.0
1209.013428 84.0
1209.290161 176.0
1209.421753 228.0
1212.205811 140.0
1213.037476 176.0
1216.533691 192.0
1216.880737 320.0
1216.936279 176.0
1218.582397 192.0
1222.789429 176.0
1224.773682 144.0
1224.899048 176.0
1226.229858 64.0
1227.958984 176.0
1228.091431 132.0
1228.656494 172.0
1229.277466 156.0
1229.807861 232.0
1230.149902 160.0
1236.671387 200.0
1238.652954 144.0
1246.110107 160.0
1252.969727 84.0
1253.385376 156.0
1254.336792 128.0
1255.584717 160.0
1260.7948 140.0
1264.670532 100.0
1266.702759 52.0
1269.984497 148.0
1270.154785 252.0
1270.764893 136.0
1272.319092 52.0
1273.774902 224.0
1275.01123 204.0
1277.414429 164.0
1280.354004 176.0
1286.435913 104.0
1289.557373 120.0
1294.0354 52.0
1294.47937 60.0
1295.711304 140.0
1296.592651 156.0
1296.685791 56.0
1298.808105 152.0
1298.96582 44.0
1301.18335 232.0
1303.359619 164.0
1309.250977 68.0
1312.47937 188.0
1313.092285 196.0
1316.953613 148.0
1324.106567 204.0
1326.004761 124.0
1326.925293 188.0
1330.233398 172.0
1330.63269 172.0
1331.140869 136.0
1331.569336 220.0
1332.28125 188.0
1337.771606 156.0
1339.555786 164.0
1341.989868 200.0
1343.171265 208.0
1351.24353 136.0
1353.66626 184.0
1354.867432 156.0
1355.006592 28.0
1358.202759 224.0
1358.899658 140.0
1359.618774 148.0
1360.932739 200.0
1361.813965 156.0
1362.078369 200.0
1363.018799 196.0
1364.966675 116.0
1367.755005 176.0
1369.868286 228.0
1372.764771 180.0
1372.875488 136.0
1373.148315 164.0
1374.542603 172.0
1374.594238 48.0
1375.479858 160.0
1376.011353 188.0
1377.178101 144.0
1377.362793 140.0
1380.917969 108.0
1382.878662 140.0
1383.108032 180.0
1383.722534 212.0
1383.848389 172.0
1383.92981 136.0
1384.670288 184.0
1386.618774 84.0
1386.678101 156.0
1387.108032 184.0
1389.510742 124.0
1390.779663 228.0
1391.091431 112.0
1391.173096 168.0
1392.576416 188.0
1394.277832 124.0
1394.805542 136.0
1396.389282 188.0
1398.733032 220.0
1400.728638 196.0
1401.82373 52.0
1404.671875 196.0
1404.947876 44.0
1406.10437 176.0
1407.209106 104.0
1407.836426 104.0
1408.717773 116.0
1413.989136 236.0
1414.520508 76.0
1414.715088 236.0
1417.328979 124.0
1417.920898 204.0
1418.423096 236.0
1419.780151 188.0
1419.866699 212.0
1424.734131 212.0
1425.275024 152.0
1426.026489 152.0
1426.439941 76.0
1427.89856 204.0
1430.486938 92.0
1433.341309 140.0
1436.877441 52.0
1437.637207 248.0
1440.841064 184.0
1442.79834 68.0
1443.630127 188.0
1443.98645 144.0
1444.97644 156.0
1446.497559 116.0
1449.754272 140.0
1451.892212 104.0
1453.371338 196.0
1453.515503 176.0
1454.395874 192.0
1454.851318 204.0
1455.063843 88.0
1456.453613 208.0
1456.99292 192.0
1458.003418 200.0
1458.13269 76.0
1460.147339 168.0
1460.946045 160.0
1461.668823 132.0
1461.823242 188.0
1462.665771 204.0
1465.229614 148.0
1465.552124 168.0
1465.994019 144.0
1469.150635 104.0
1469.631226 192.0
1470.050903 224.0
1470.401978 152.0
1471.463013 132.0
1472.081543 56.0
1472.272461 208.0
1472.447998 192.0
1474.319824 148.0
1475.703369 164.0
1476.322632 76.0
1479.028809 196.0
1480.095215 176.0
1481.504395 196.0
1481.787842 128.0
1482.11731 116.0
1485.736084 224.0
1485.920288 84.0
1486.334595 132.0
1487.247803 92.0
1487.485718 156.0
1487.785156 208.0
1489.482178 64.0
1489.812134 168.0
1490.580811 136.0
1490.842163 116.0
1490.965088 172.0
1491.44165 48.0
1492.002808 160.0
1492.387207 68.0
1492.910034 96.0
1496.095459 196.0
1497.096436 108.0
1498.051514 260.0
1498.182373 220.0
1499.184082 128.0
1500.409668 140.0
1501.589355 156.0
1502.785034 172.0
1503.116821 188.0
1503.317505 136.0
1503.417725 152.0
