>compound CGS 12066B
>formula C17H17F3N4
>ionization [M+H]+
>parentmass 335.14780765609055
#inchi InChI=1S/C17H17F3N4/c1-22-7-9-23(10-8-22)16-15-3-2-6-24(15)14-5-4-12(17(18,19)20)11-13(14)21-16/h2-6,11H,7-10H2,1H3
#inchikey LXFHSCDLMBZYKY
#Ion_Source LC-ESI
#Instrument qTof
#Compound_Source Commercial
#PI Dorrestein
#Data_Collector Garg_Neha
#Scan -1
#Precursor_MZ 335.148
#ExactMass 334.141
#Charge 1
#CAS_Number N/A
#Pubmed_ID N/A
#Smiles CN1CCN(CC1)c2nc3cc(ccc3n4cccc24)C(F)(F)F
#INCHI_AUX N/A
#Library_Class 1
#SpectrumID CCMSLIB00000079252
#IonMode Positive
#UpdateWorkflowName UPDATE-SINGLE-ANNOTATED-GOLD
#LibraryQualityString Gold
#TaskID 278b19f5865741e282cec7349aa7e7a1
##Scan# 1151
#SpectrumFile NCP003672_E27F27G26H26_BE5_01_15741.mzXML
#LibraryName NIHcollectionI_05062014.mgf
#MQScore -1
#Organism NIHcollectionI_05062014
#TIC_Query 0
#RT_Query -1
#MZErrorPPM -1
#SharedPeaks 0
#MassDiff 0
#LibMZ -1
#SpecMZ 335.148
#SpecCharge 0
#internalFilename spec-00000.mgf

>collision 10
47.243458 216.0
49.280045 164.0
49.499649 140.0
50.56303 124.0
51.789841 156.0
52.099689 172.0
52.736607 232.0
53.150791 208.0
53.738625 148.0
54.216785 176.0
54.430962 180.0
56.123775 140.0
56.716217 140.0
58.519596 156.0
58.761932 180.0
63.826653 180.0
64.212036 184.0
64.704193 176.0
64.811508 148.0
64.845161 232.0
65.037628 208.0
66.586029 216.0
68.707497 180.0
69.107315 168.0
71.36911 168.0
71.449844 148.0
72.895508 184.0
75.066139 184.0
75.374847 172.0
77.112991 188.0
77.83651 152.0
78.10627 164.0
78.966141 148.0
79.098846 188.0
79.122803 160.0
79.291908 156.0
79.45327 176.0
79.584602 244.0
80.10569 152.0
80.153793 140.0
81.695343 248.0
84.443481 204.0
86.297127 160.0
86.520988 220.0
86.716675 212.0
86.839706 164.0
87.019707 196.0
87.700569 196.0
88.599388 188.0
89.152908 176.0
89.216812 200.0
89.410553 200.0
90.017578 204.0
90.87693 184.0
91.8853 196.0
92.537025 140.0
93.872452 148.0
95.108719 160.0
95.89061 184.0
95.934296 136.0
96.16951 148.0
96.810768 140.0
98.024788 168.0
98.05632 148.0
99.194824 172.0
100.872917 160.0
101.419373 152.0
101.579781 160.0
101.764412 148.0
102.041679 192.0
102.18045 140.0
102.552986 188.0
102.732452 184.0
103.002945 144.0
103.59362 168.0
104.293678 156.0
104.347618 128.0
105.735664 220.0
106.512741 140.0
107.602127 180.0
108.885963 172.0
109.03347 176.0
109.320457 188.0
109.999908 156.0
110.375969 180.0
110.606102 196.0
110.749641 232.0
111.140511 176.0
112.823318 188.0
113.959305 192.0
114.135719 140.0
116.175392 140.0
116.79834 152.0
117.334549 156.0
118.866516 168.0
119.317673 152.0
119.500366 220.0
119.539528 164.0
120.082344 196.0
120.274612 160.0
120.479256 140.0
121.945198 160.0
122.247849 168.0
122.866852 152.0
123.899078 208.0
124.231247 148.0
124.479172 168.0
124.985977 148.0
126.19265 144.0
126.39843 144.0
128.127274 216.0
128.172348 192.0
128.494766 224.0
128.618881 244.0
129.763565 180.0
129.870132 156.0
130.340073 196.0
131.002136 204.0
131.636185 180.0
132.205399 148.0
133.044296 148.0
133.57283 172.0
133.632645 168.0
133.829819 200.0
134.203857 212.0
134.636215 108.0
134.944992 148.0
135.155472 168.0
135.597778 172.0
135.653412 168.0
135.773972 160.0
135.959579 172.0
136.145294 144.0
136.563629 208.0
136.705551 200.0
137.15271 192.0
138.311264 204.0
138.611038 152.0
138.782135 168.0
139.263214 160.0
139.547516 196.0
140.053513 140.0
142.027176 140.0
142.737274 160.0
143.472977 148.0
143.945389 152.0
144.770401 204.0
145.376907 196.0
145.433823 200.0
146.104935 144.0
147.073639 160.0
147.170212 172.0
147.801071 144.0
148.246017 156.0
148.998795 152.0
149.078979 176.0
149.314804 144.0
149.723663 172.0
150.528397 180.0
152.360474 184.0
152.82515 176.0
152.864517 160.0
153.759079 172.0
156.88443 200.0
157.658188 204.0
157.895691 144.0
158.040771 320.0
158.436356 160.0
158.82991 168.0
159.073318 148.0
159.563187 176.0
160.081512 160.0
160.30571 168.0
161.158585 216.0
161.320328 200.0
162.358444 148.0
162.985443 144.0
163.560196 152.0
164.473602 140.0
166.051559 112.0
167.52562 144.0
167.580887 268.0
167.823166 172.0
168.067886 420.0
168.26178 148.0
169.07341 144.0
169.389282 140.0
170.278946 168.0
170.754562 304.0
171.025146 232.0
171.116257 180.0
171.553925 184.0
171.653 176.0
172.235001 196.0
172.433563 184.0
172.956665 144.0
173.913376 148.0
174.11554 196.0
174.26001 156.0
175.708038 236.0
177.079956 216.0
179.058594 168.0
180.315186 188.0
181.023392 252.0
181.720978 200.0
182.089676 180.0
182.782776 152.0
183.046188 188.0
183.614761 168.0
183.763123 160.0
184.303131 156.0
184.941345 172.0
184.960297 164.0
185.550842 176.0
186.876236 156.0
186.914322 156.0
187.216476 160.0
187.349945 176.0
187.807892 140.0
188.031616 252.0
188.11351 192.0
188.230911 148.0
188.307373 140.0
189.337967 140.0
189.683655 156.0
190.21582 204.0
190.987946 192.0
191.059464 208.0
191.353058 224.0
192.068802 340.0
192.465088 156.0
193.078552 220.0
193.396713 148.0
193.56282 148.0
193.83429 164.0
194.066788 148.0
194.372223 188.0
194.624817 144.0
194.924805 144.0
197.070328 196.0
197.71347 160.0
197.987823 156.0
198.133469 160.0
199.31749 140.0
200.792587 196.0
200.987228 192.0
201.577393 196.0
201.826996 184.0
204.233841 204.0
204.37323 160.0
204.763229 212.0
206.3069 144.0
206.793167 196.0
207.086075 160.0
207.382599 124.0
207.535126 168.0
208.036896 584.0
208.085953 428.0
208.637604 212.0
208.844635 148.0
209.037338 340.0
209.090286 212.0
209.786453 104.0
209.866959 164.0
210.498871 184.0
211.040482 296.0
211.14151 116.0
213.966644 160.0
214.040344 116.0
214.42688 140.0
214.908035 140.0
215.031891 172.0
215.468597 156.0
216.045715 180.0
216.255203 184.0
217.054565 116.0
217.985489 160.0
218.061478 140.0
218.600082 140.0
218.641281 192.0
220.700287 144.0
221.730438 156.0
221.878647 164.0
222.382935 160.0
223.054916 264.0
223.559814 152.0
224.337189 152.0
225.057816 156.0
225.620865 196.0
225.731491 160.0
226.548584 152.0
226.841263 144.0
227.409164 172.0
227.697388 148.0
228.409714 172.0
229.427551 192.0
229.487839 160.0
229.864883 184.0
230.198303 212.0
230.317734 144.0
231.072433 176.0
232.285248 252.0
232.386902 164.0
232.798172 288.0
233.515396 152.0
234.058838 104.0
234.469482 152.0
235.047958 2008.0
235.374344 192.0
236.051895 236.0
236.487122 220.0
237.063736 5696.0
237.13031 172.0
237.449158 156.0
238.065735 996.0
238.106766 156.0
239.068176 140.0
239.927521 144.0
240.052017 120.0
240.334641 144.0
240.705048 140.0
241.233353 156.0
241.527115 176.0
242.074905 284.0
242.180206 144.0
242.217377 140.0
242.347488 168.0
243.059952 124.0
246.414001 140.0
246.613998 200.0
246.795319 188.0
247.577606 172.0
248.063248 140.0
248.094589 176.0
249.06485 812.0
249.177322 168.0
249.221313 140.0
249.274719 164.0
250.065323 840.0
250.39151 200.0
250.502258 124.0
250.646667 168.0
250.684494 148.0
250.939804 240.0
251.078552 8064.0
251.170013 140.0
251.627365 112.0
252.075729 1452.0
252.610428 156.0
253.057816 1380.0
256.242218 212.0
256.793671 208.0
257.013794 244.0
257.180023 188.0
258.0802 272.0
258.67569 148.0
259.33551 212.0
259.466949 168.0
259.890289 140.0
260.060181 196.0
260.095703 200.0
260.234222 108.0
261.065887 964.0
261.252502 212.0
262.060791 976.0
262.437714 140.0
262.939301 120.0
263.070099 940.0
263.134613 152.0
263.354187 200.0
264.029663 148.0
264.07486 2204.0
264.158386 156.0
264.364502 208.0
264.612122 164.0
265.075195 320.0
265.519409 148.0
265.828796 108.0
267.494904 208.0
267.596222 160.0
267.625122 176.0
267.787933 236.0
269.134766 164.0
269.552856 152.0
270.128265 196.0
271.677734 188.0
271.838531 164.0
271.946808 172.0
272.078125 168.0
272.347382 180.0
272.567505 192.0
272.796997 140.0
273.304047 164.0
273.356689 164.0
273.602173 164.0
273.643036 196.0
275.071503 508.0
275.605499 152.0
275.909576 140.0
276.075562 1164.0
276.308777 108.0
276.644104 124.0
276.702911 116.0
277.049896 148.0
277.083893 280.0
277.161682 140.0
277.188354 140.0
277.213684 148.0
277.246796 152.0
277.334167 200.0
277.390442 204.0
277.446472 152.0
277.477997 112.0
277.574799 132.0
277.649384 128.0
277.712006 156.0
277.750763 172.0
277.828156 228.0
277.874359 152.0
277.931976 340.0
277.968842 164.0
278.017731 168.0
278.091583 244972.0
278.21637 256.0
278.252838 132.0
278.28476 204.0
278.341034 228.0
278.385681 172.0
278.436798 388.0
278.465424 184.0
278.515869 188.0
278.572937 108.0
278.637421 1188.0
278.722626 196.0
278.76532 100.0
278.808502 344.0
278.891846 96.0
278.96759 144.0
279.04538 108.0
279.093109 36468.0
279.227264 244.0
279.260376 164.0
279.431702 240.0
279.47406 104.0
279.585327 156.0
279.630798 112.0
279.89212 132.0
280.095123 1752.0
280.178894 120.0
280.308929 144.0
280.349792 132.0
280.430786 128.0
280.539215 108.0
280.609283 160.0
280.641937 172.0
280.680939 116.0
280.743286 464.0
280.818665 108.0
280.860596 212.0
281.009644 160.0
281.047821 244.0
281.103241 296.0
281.123718 440.0
281.161377 228.0
281.21521 120.0
281.242767 164.0
281.270935 156.0
281.440918 96.0
281.507019 160.0
281.704254 136.0
281.788177 180.0
281.929169 156.0
282.092377 244.0
282.158691 96.0
282.321411 200.0
282.656891 104.0
284.035675 124.0
286.57663 196.0
287.077942 284.0
288.070526 432.0
289.082031 388.0
289.115936 140.0
290.0896 368.0
291.088226 128.0
291.856812 188.0
292.108368 360.0
293.101715 260.0
293.50824 172.0
293.781067 236.0
293.873199 208.0
294.122314 168.0
294.829285 172.0
295.102753 148.0
298.315094 152.0
298.868774 168.0
299.009888 164.0
299.488464 144.0
300.450195 160.0
301.251007 144.0
302.094574 516.0
302.925385 200.0
304.106506 12028.0
304.205658 156.0
305.108429 1644.0
305.282043 220.0
306.112823 396.0
306.566589 164.0
307.141846 216.0
307.94812 168.0
309.056274 168.0
310.264587 164.0
313.648438 176.0
313.914246 192.0
314.71524 164.0
314.835297 168.0
315.300537 208.0
315.98407 160.0
317.794525 144.0
318.437073 100.0
319.218903 192.0
320.033752 168.0
324.869263 152.0
327.568939 204.0
328.816467 160.0
331.411102 156.0
331.967468 180.0
332.000305 160.0
332.166962 148.0
333.130127 212.0
333.551697 200.0
333.601715 108.0
333.692596 108.0
333.955872 180.0
334.05835 180.0
334.143707 208.0
334.203522 144.0
334.259613 140.0
334.407898 188.0
334.445587 228.0
334.530212 160.0
334.576263 156.0
334.63913 208.0
334.690155 164.0
334.77179 172.0
334.825073 108.0
334.888245 124.0
334.94986 304.0
335.010864 224.0
335.048401 360.0
335.090851 556.0
335.150085 199224.0
335.252686 172.0
335.299835 280.0
335.420959 216.0
335.489349 100.0
335.523224 240.0
335.593658 356.0
335.749329 2980.0
335.811005 100.0
335.871429 108.0
335.945068 112.0
335.977448 164.0
336.007233 228.0
336.036926 308.0
336.151978 36452.0
336.319489 120.0
336.398193 120.0
336.514893 120.0
336.831726 148.0
337.153351 3868.0
337.364258 104.0
337.610199 136.0
337.743469 152.0
337.81485 116.0
337.931091 196.0
338.001373 132.0
338.032837 216.0
338.154602 212.0
338.186371 288.0
338.272278 188.0
338.309479 124.0
338.38208 144.0
338.432922 220.0
338.477203 300.0
338.544189 100.0
338.602386 276.0
338.646484 324.0
338.960632 100.0
339.340332 140.0
339.45224 108.0
340.397064 144.0
341.182526 120.0
341.979187 160.0
348.875854 100.0
349.676331 156.0
405.090942 140.0
420.203125 172.0
450.37027 140.0
453.403809 176.0
532.880005 128.0
542.497681 100.0
549.494629 144.0
904.555908 144.0
1389.968872 180.0
1822.930176 168.0
1888.309814 164.0
1903.38855 172.0
