>compound MLS001139335-01!2-imino-N-[2-(4-methoxyphenyl)ethyl]-5-oxo-1-(oxolan-2-ylmethyl)dipyrido[1,2-d:3',4'-f]pyrimidine-3-carboxamide
>formula C26H27N5O4
>ionization [M+H]+
>parentmass 474.214539
#inchi InChI=1S/C26H27N5O4/c1-34-18-9-7-17(8-10-18)11-12-28-25(32)20-15-21-24(29-22-6-2-3-13-30(22)26(21)33)31(23(20)27)16-19-5-4-14-35-19/h2-3,6-10,13,15,19,27H,4-5,11-12,14,16H2,1H3,(H,28,32)
#inchikey NHANKPYHANHANT
#Ion_Source LC-ESI
#Instrument qTof
#Compound_Source NIH Natural Product Library
#PI Dorrestein
#Data_Collector VVP/LMS
#Scan -1
#Precursor_MZ 474.214
#ExactMass 473.206
#Charge 1
#CAS_Number N/A
#Pubmed_ID N/A
#Smiles COc1ccc(CCNC(=O)c2cc3c(=O)n4ccccc4nc3n(CC5CCCO5)c2=N)cc1
#INCHI_AUX N/A
#Library_Class 1
#SpectrumID CCMSLIB00000079717
#IonMode Positive
#UpdateWorkflowName UPDATE-SINGLE-ANNOTATED-GOLD
#LibraryQualityString Gold
#TaskID b1d8e8f6646f4e71acdff9ca3d919d08
##Scan# 1872
#SpectrumFile p1-B10_GB10_01_17894.mzXML
#LibraryName NIH_Natural_Products_Library.mgf
#MQScore -1
#Organism NIH_Natural_Products_Library
#TIC_Query 0
#RT_Query -1
#MZErrorPPM -1
#SharedPeaks 0
#MassDiff 0
#LibMZ -1
#SpecMZ 474.214
#SpecCharge 0
#internalFilename spec-00000.mgf

>collision 10
94.973633 84.0
95.024063 132.0
95.040733 124.0
95.052727 212.0
95.095932 120.0
95.117218 188.0
95.130806 76.0
95.144394 108.0
95.23954 176.0
95.262299 140.0
95.352226 160.0
95.367775 68.0
95.385269 144.0
95.400826 104.0
95.482483 216.0
95.519302 168.0
95.63813 176.0
95.679008 108.0
95.706268 212.0
95.734352 180.0
95.817284 140.0
95.866188 164.0
95.891327 68.0
95.939514 144.0
96.096077 48.0
96.12056 124.0
96.19561 108.0
96.261597 180.0
96.265457 144.0
96.293236 188.0
96.330345 168.0
96.351364 116.0
96.376648 148.0
96.40654 188.0
96.431946 160.0
96.445549 96.0
96.513611 160.0
96.541428 128.0
96.564896 184.0
96.585899 152.0
96.624359 140.0
96.680321 164.0
96.762527 168.0
96.782112 124.0
96.833023 96.0
96.883949 76.0
96.942734 196.0
97.010185 208.0
97.027016 68.0
97.068184 244.0
97.133926 92.0
97.158409 52.0
97.179985 116.0
97.217888 216.0
97.232971 148.0
97.270264 144.0
97.380264 156.0
97.461281 180.0
97.505951 60.0
97.547226 208.0
97.645538 48.0
97.702583 88.0
97.722252 136.0
97.792725 148.0
97.812782 280.0
97.899406 172.0
97.919098 116.0
98.057014 280.0
98.076721 128.0
98.110703 200.0
98.155579 168.0
98.183189 180.0
98.202911 312.0
98.234467 168.0
98.254196 112.0
98.27787 60.0
98.300613 304.0
98.341019 204.0
98.368652 128.0
98.412086 104.0
98.439728 176.0
98.461449 140.0
98.488945 152.0
98.51873 192.0
98.553772 152.0
98.56469 152.0
98.593811 144.0
98.607193 140.0
98.633339 108.0
98.65403 368.0
98.690674 172.0
98.742081 120.0
98.777794 184.0
98.818474 136.0
98.842972 112.0
98.860779 128.0
98.896408 160.0
98.988777 176.0
98.997169 116.0
99.001915 164.0
99.05481 164.0
99.108299 224.0
99.175674 108.0
99.199463 176.0
99.241096 144.0
99.317139 104.0
99.43351 120.0
99.477509 144.0
99.572479 88.0
99.602272 136.0
99.667831 176.0
99.703606 220.0
99.761032 188.0
99.793053 152.0
99.82959 192.0
99.852707 232.0
99.977654 164.0
100.023819 164.0
100.039742 164.0
100.094231 272.0
100.24688 136.0
100.280754 184.0
100.382431 204.0
100.408356 96.0
100.432968 216.0
100.458214 160.0
100.488777 164.0
100.532722 140.0
100.540184 48.0
100.545341 144.0
100.563972 212.0
100.582787 168.0
100.621857 148.0
100.671776 228.0
100.713715 144.0
100.763657 144.0
100.785637 72.0
100.895752 164.0
100.911552 72.0
100.93261 160.0
100.947403 184.0
100.970833 136.0
101.009399 172.0
101.076683 164.0
101.090981 208.0
101.137604 156.0
101.157616 160.0
101.188339 104.0
101.227692 72.0
101.27739 300.0
101.299789 120.0
101.345932 124.0
101.383942 104.0
101.419563 124.0
101.484169 112.0
101.510231 120.0
101.526276 220.0
101.546333 48.0
101.610519 196.0
101.64463 200.0
101.664696 180.0
101.696808 60.0
101.71286 52.0
101.749962 208.0
101.769073 224.0
101.813248 148.0
101.833336 144.0
101.857437 148.0
101.883553 148.0
101.93177 80.0
101.953873 140.0
101.971962 112.0
102.046341 152.0
102.074486 72.0
102.205231 48.0
102.249504 164.0
102.281708 108.0
102.309883 116.0
102.323982 192.0
102.499207 36.0
102.517342 116.0
102.557648 172.0
102.579826 128.0
102.599983 124.0
102.642166 160.0
102.69072 208.0
102.703842 136.0
102.763344 108.0
102.792465 208.0
102.809753 68.0
102.828499 96.0
102.900581 48.0
102.926826 136.0
102.945 120.0
102.958702 176.0
103.024109 120.0
103.054688 2624.0
103.108635 136.0
103.134033 156.0
103.149055 180.0
103.175339 148.0
103.1996 280.0
103.225883 132.0
103.260262 104.0
103.278465 112.0
103.305862 180.0
103.349274 244.0
103.387718 244.0
103.440338 152.0
103.462402 196.0
103.490952 120.0
103.513222 208.0
103.541573 100.0
103.616524 100.0
103.650963 68.0
103.687439 148.0
103.742165 184.0
103.800964 84.0
103.844795 208.0
103.867889 96.0
103.922661 84.0
103.989632 140.0
104.009979 156.0
104.031898 184.0
104.059036 124.0
104.080978 160.0
104.113472 96.0
104.220802 216.0
104.237389 152.0
104.263802 160.0
104.284126 180.0
104.341042 200.0
104.357307 152.0
104.38781 140.0
104.438652 120.0
104.469162 56.0
104.501213 164.0
104.52816 88.0
104.558685 156.0
104.603073 184.0
104.701195 172.0
104.721916 160.0
104.745178 184.0
104.772484 136.0
104.787231 184.0
104.849915 128.0
104.877701 196.0
104.923294 112.0
104.964073 72.0
104.992622 124.0
105.028595 276.0
105.043716 140.0
105.069969 9344.0
105.135773 116.0
105.212982 100.0
105.23629 188.0
105.251778 44.0
105.290573 120.0
105.333466 60.0
105.423363 152.0
105.455833 240.0
105.507164 160.0
105.552139 176.0
105.586525 216.0
105.602234 176.0
105.642136 120.0
105.683601 164.0
105.728065 112.0
105.75058 160.0
105.773468 284.0
105.830414 128.0
105.844749 112.0
105.885704 160.0
105.924622 124.0
105.95089 136.0
105.984032 144.0
106.00042 168.0
106.018867 176.0
106.074234 396.0
106.107002 144.0
106.139153 88.0
106.172615 188.0
106.230049 44.0
106.277229 208.0
106.303909 160.0
106.334694 136.0
106.355217 180.0
106.371193 148.0
106.52359 192.0
106.556732 152.0
106.636597 84.0
106.677948 172.0
106.719055 108.0
106.74144 44.0
106.811043 152.0
106.84481 200.0
106.884415 244.0
106.919792 176.0
106.975014 196.0
106.999939 120.0
107.056519 176.0
107.08577 348.0
107.136612 88.0
107.170532 60.0
107.239639 112.0
107.307663 200.0
107.353027 220.0
107.401299 128.0
107.419022 136.0
107.433464 72.0
107.456154 200.0
107.538696 160.0
107.559853 80.0
107.576927 192.0
107.588829 140.0
107.619202 244.0
107.654305 148.0
107.714203 180.0
107.778244 196.0
107.827843 148.0
107.861626 196.0
107.914757 164.0
107.951874 176.0
107.97876 72.0
108.007301 100.0
108.057365 248.0
108.100815 84.0
108.117371 200.0
108.145744 160.0
108.203575 88.0
108.269775 188.0
108.311989 92.0
108.345131 268.0
108.369995 128.0
108.40522 140.0
108.444595 56.0
108.475685 120.0
108.517326 92.0
108.556541 204.0
108.57019 128.0
108.593872 148.0
108.618767 108.0
108.655083 212.0
108.72422 140.0
108.729149 176.0
108.778542 172.0
108.871971 224.0
108.923897 188.0
108.969597 96.0
109.006996 140.0
109.023621 104.0
109.066208 260.0
109.096367 200.0
109.11467 164.0
109.188744 272.0
109.252556 148.0
109.28978 152.0
109.310852 220.0
109.32724 104.0
109.358452 152.0
109.384842 148.0
109.388168 204.0
109.411606 164.0
109.450722 84.0
109.516304 128.0
109.524544 104.0
109.53231 208.0
109.587517 92.0
109.667091 108.0
109.706741 176.0
109.750549 276.0
109.829338 144.0
109.854584 308.0
109.929482 148.0
109.971214 224.0
110.035927 272.0
110.071426 116.0
110.180031 224.0
110.201523 168.0
110.274757 180.0
110.378586 40.0
110.483162 132.0
110.506172 84.0
110.54174 140.0
110.563873 132.0
110.593048 172.0
110.642212 300.0
110.679893 160.0
110.721039 200.0
110.749001 128.0
110.780426 60.0
110.828606 196.0
110.85585 76.0
110.878899 140.0
110.957726 192.0
111.026161 164.0
111.071793 204.0
111.105354 128.0
111.239662 216.0
111.280487 232.0
111.296341 76.0
111.321541 136.0
111.348724 228.0
111.445251 240.0
111.506409 148.0
111.563423 156.0
111.579979 252.0
111.611519 28.0
111.626236 204.0
111.655464 80.0
111.710365 84.0
111.733505 152.0
111.76506 128.0
111.78054 56.0
111.805504 184.0
111.823982 136.0
111.874504 172.0
111.906082 128.0
111.929718 264.0
111.971359 176.0
112.011513 120.0
112.057678 224.0
112.080078 208.0
112.118828 180.0
112.135689 172.0
112.166306 152.0
112.249527 128.0
112.276199 68.0
112.323341 124.0
112.339294 256.0
112.3592 144.0
112.396278 168.0
112.460487 156.0
112.509041 384.0
112.525932 220.0
112.584549 192.0
112.606171 128.0
112.65638 260.0
112.677986 124.0
112.69278 44.0
112.790634 196.0
112.808434 180.0
112.832268 72.0
112.876671 140.0
112.89225 152.0
112.905212 112.0
112.927422 48.0
112.961266 136.0
112.988762 108.0
113.06543 156.0
113.143257 172.0
113.206772 140.0
113.225838 124.0
113.257607 144.0
113.285141 140.0
113.316605 188.0
113.403053 208.0
113.431763 188.0
113.461029 120.0
113.528381 188.0
113.610634 220.0
113.675255 164.0
113.727974 204.0
113.762268 108.0
113.77713 116.0
113.791992 140.0
113.85569 108.0
113.88118 140.0
113.910149 144.0
113.972527 104.0
114.002525 300.0
114.0299 104.0
114.049026 124.0
114.07666 240.0
114.112801 164.0
114.135582 140.0
114.174469 156.0
114.208496 136.0
114.231895 160.0
114.261673 280.0
114.293594 120.0
114.320778 356.0
114.35743 88.0
114.387436 124.0
114.418266 200.0
114.459709 92.0
114.48304 196.0
114.595932 100.0
114.610847 136.0
114.661987 160.0
114.700356 124.0
114.73233 104.0
114.781364 172.0
114.796295 144.0
114.867172 136.0
114.908348 180.0
114.928291 172.0
114.953682 184.0
114.990425 132.0
115.028847 172.0
115.056595 512.0
115.099297 116.0
115.144142 88.0
115.202461 120.0
115.272316 56.0
115.335709 184.0
115.366356 104.0
115.404839 124.0
115.42836 120.0
115.485229 128.0
115.560974 120.0
115.605904 144.0
115.635048 52.0
115.647774 156.0
115.695801 208.0
115.79644 96.0
115.871414 128.0
115.902634 380.0
115.948318 168.0
115.98275 92.0
115.986061 88.0
116.054703 200.0
116.100647 152.0
116.104836 160.0
116.143654 152.0
116.180122 140.0
116.195137 136.0
116.253075 160.0
116.300285 104.0
116.326042 72.0
116.358246 124.0
116.382332 220.0
116.401184 112.0
116.431252 160.0
116.465614 188.0
116.493538 144.0
116.512871 28.0
116.540802 136.0
116.568733 124.0
116.594521 236.0
116.613869 124.0
116.633209 216.0
116.674721 132.0
116.710602 52.0
116.761978 220.0
116.787613 84.0
116.841293 204.0
116.930016 168.0
116.945084 100.0
116.966606 112.0
116.983528 172.0
117.033348 160.0
117.074257 228.0
117.125946 104.0
117.141022 108.0
117.158257 112.0
117.188423 144.0
117.211235 312.0
117.244446 132.0
117.270309 128.0
117.312813 128.0
117.341446 148.0
117.391037 172.0
117.416916 104.0
117.472992 176.0
117.544189 84.0
117.598137 168.0
117.647827 220.0
117.719032 156.0
117.801109 128.0
117.865921 132.0
117.935074 116.0
117.982628 168.0
118.013657 328.0
118.053978 184.0
118.078239 204.0
118.097237 180.0
118.125351 28.0
118.159966 44.0
118.263832 144.0
118.283318 104.0
118.356918 188.0
118.374245 100.0
118.42189 68.0
118.456543 104.0
118.543205 180.0
118.58783 224.0
118.608223 132.0
118.625565 180.0
118.64724 176.0
118.664589 152.0
118.679764 152.0
118.702965 224.0
118.725304 212.0
118.746986 196.0
118.776268 180.0
118.78891 140.0
118.816864 88.0
118.898857 144.0
118.917877 120.0
118.982201 120.0
119.01638 256.0
119.055511 148.0
119.092079 220.0
119.115974 160.0
119.137695 76.0
119.17028 188.0
119.209396 144.0
119.226776 144.0
119.244164 132.0
119.274597 152.0
119.317017 272.0
119.338974 156.0
119.381126 108.0
119.483925 168.0
119.513817 96.0
119.529045 196.0
119.572571 152.0
119.59433 128.0
119.626984 160.0
119.661812 148.0
119.677055 132.0
119.697548 136.0
119.704742 56.0
119.713379 176.0
119.779411 48.0
119.799011 104.0
119.818619 208.0
119.839233 104.0
119.910141 124.0
119.972038 160.0
119.99733 116.0
120.056198 6596.0
120.160904 180.0
120.190155 64.0
120.217545 192.0
120.22979 168.0
120.25473 92.0
120.278427 56.0
120.306526 236.0
120.336464 200.0
120.379173 132.0
120.401009 60.0
120.431313 224.0
120.445168 128.0
120.494934 140.0
120.510223 172.0
120.546837 180.0
120.575783 172.0
120.642532 160.0
120.698196 56.0
120.717873 176.0
120.761612 156.0
120.787865 304.0
120.816299 132.0
120.833801 144.0
120.86451 116.0
120.916954 52.0
120.943214 100.0
120.971672 120.0
120.993561 180.0
121.043213 428.0
121.057571 864.0
121.135902 140.0
121.186295 240.0
121.219162 88.0
121.258606 248.0
121.291481 32.0
121.324364 160.0
121.339706 136.0
121.394524 76.0
121.418648 152.0
121.44175 152.0
121.47348 32.0
121.497612 176.0
121.517357 164.0
121.532715 132.0
121.574402 96.0
121.701111 188.0
121.710411 196.0
121.718407 180.0
121.802742 44.0
121.821373 132.0
121.839485 236.0
121.868645 116.0
121.941162 88.0
121.957809 108.0
122.004906 120.0
122.035583 88.0
122.054817 148.0
122.103851 72.0
122.140656 120.0
122.198441 160.0
122.26104 176.0
122.283249 140.0
122.321671 160.0
122.343689 172.0
122.385521 124.0
122.475807 100.0
122.528679 128.0
122.563927 196.0
122.608002 372.0
122.64547 92.0
122.698616 180.0
122.793839 176.0
122.85054 144.0
122.885834 116.0
123.002792 120.0
123.022659 168.0
123.044739 128.0
123.09552 60.0
123.110977 224.0
123.164787 160.0
123.179443 212.0
123.362122 132.0
123.367996 196.0
123.433601 136.0
123.475616 128.0
123.502159 288.0
123.580719 156.0
123.644615 196.0
123.679169 128.0
123.705734 148.0
123.742081 204.0
123.793419 172.0
123.866295 184.0
123.933838 128.0
124.026917 144.0
124.077904 264.0
124.139984 188.0
124.159943 100.0
124.242882 184.0
124.261444 100.0
124.278725 168.0
124.335205 416.0
124.384033 136.0
124.477272 84.0
124.508751 228.0
124.557228 180.0
124.603584 120.0
124.628319 156.0
124.668312 128.0
124.757927 100.0
124.795013 168.0
124.837257 80.0
124.877289 380.0
124.897842 232.0
124.970718 256.0
124.987564 128.0
125.02977 148.0
125.053055 132.0
125.084221 128.0
125.142097 164.0
125.16214 220.0
125.177048 184.0
125.228943 100.0
125.253448 164.0
125.28363 196.0
125.313591 116.0
125.344788 124.0
125.39827 180.0
125.478516 140.0
125.49852 148.0
125.534264 268.0
125.582626 180.0
125.610092 140.0
125.701561 116.0
125.779671 116.0
125.827339 136.0
125.863449 128.0
125.944901 112.0
125.965004 40.0
126.039963 168.0
126.07225 132.0
126.12719 168.0
126.164459 344.0
126.191711 140.0
126.228729 148.0
126.298401 156.0
126.338318 172.0
126.406616 164.0
126.426201 188.0
126.452438 84.0
126.468102 168.0
126.508018 216.0
126.546455 84.0
126.570114 168.0
126.633789 148.0
126.652481 172.0
126.678581 128.0
126.712189 48.0
126.752518 124.0
126.781647 160.0
126.797333 160.0
126.832077 128.0
126.889236 68.0
126.916145 140.0
126.936325 128.0
126.974449 228.0
127.068657 116.0
127.10231 92.0
127.138214 152.0
127.19989 216.0
127.236977 88.0
127.27739 68.0
127.324547 152.0
127.364975 140.0
127.395378 172.0
127.499252 120.0
127.524498 120.0
127.549225 96.0
127.573952 184.0
127.607674 152.0
127.634064 168.0
127.652641 36.0
127.762848 224.0
127.832314 188.0
127.857353 44.0
127.893364 148.0
127.927124 340.0
127.947388 80.0
127.978905 96.0
128.091736 160.0
128.118973 188.0
128.158432 164.0
128.197403 128.0
128.215424 148.0
128.242477 192.0
128.272995 208.0
128.298828 32.0
128.3349 88.0
128.37323 136.0
128.45668 240.0
128.497284 208.0
128.5215 120.0
128.562714 168.0
128.612366 148.0
128.675583 116.0
128.72525 152.0
128.754608 44.0
128.792999 156.0
128.859406 92.0
128.874329 208.0
128.903702 120.0
128.935349 164.0
128.953415 180.0
129.045074 132.0
129.061935 108.0
129.100372 256.0
129.115402 152.0
129.15918 152.0
129.184052 136.0
129.231567 156.0
129.254196 152.0
129.270615 184.0
129.344009 180.0
129.43074 380.0
129.548508 164.0
129.614212 92.0
129.634613 152.0
129.673141 176.0
129.761536 176.0
129.806137 192.0
129.840897 224.0
129.94664 196.0
129.992889 140.0
130.011047 148.0
130.042816 160.0
130.149521 156.0
130.196716 192.0
130.247162 156.0
130.263062 92.0
130.300552 104.0
130.333496 156.0
130.414703 164.0
130.452957 292.0
130.479584 148.0
130.524429 44.0
130.55336 372.0
130.572174 80.0
130.658615 228.0
130.792877 120.0
130.81337 116.0
130.851425 144.0
130.906677 232.0
130.926666 168.0
131.029526 148.0
131.060059 148.0
131.114014 164.0
131.153778 152.0
131.202911 188.0
131.248291 264.0
131.291824 240.0
131.330597 160.0
131.424133 176.0
131.444672 92.0
131.476624 64.0
131.519974 160.0
131.54509 100.0
131.590744 256.0
131.611298 192.0
131.647827 128.0
131.684372 88.0
131.731949 116.0
131.812302 120.0
131.851151 100.0
131.885742 272.0
131.960556 148.0
132.006592 300.0
132.102661 152.0
132.160797 96.0
132.18959 268.0
132.204453 132.0
132.226212 128.0
132.273849 148.0
132.333801 136.0
132.386459 124.0
132.420807 68.0
132.466629 92.0
132.519623 148.0
132.55368 136.0
132.59494 96.0
132.656815 92.0
132.704956 128.0
132.794388 132.0
132.865189 204.0
132.90451 224.0
133.01651 144.0
133.068146 120.0
133.101898 136.0
133.140945 160.0
133.175385 64.0
133.193771 156.0
133.209839 376.0
133.228226 140.0
133.258087 112.0
133.287964 100.0
133.352295 112.0
133.382187 256.0
133.411713 208.0
133.485962 84.0
133.524734 200.0
133.642044 220.0
133.676559 60.0
133.701874 140.0
133.726868 152.0
133.747574 56.0
133.753571 104.0
133.865326 80.0
133.883743 76.0
133.902161 132.0
133.980484 112.0
133.996613 192.0
134.03862 188.0
134.068039 140.0
134.097992 92.0
134.134872 176.0
134.17868 208.0
134.210953 352.0
134.226349 132.0
134.29628 124.0
134.321274 172.0
134.347122 208.0
134.372406 164.0
134.41481 148.0
134.450424 236.0
134.494705 180.0
134.5224 172.0
134.573776 96.0
134.673279 256.0
134.690979 136.0
134.737167 240.0
134.771927 380.0
134.796143 212.0
134.827286 180.0
134.878128 172.0
134.908188 164.0
134.95137 468.0
135.000519 388.0
135.026108 196.0
135.081161 51032.0
135.123993 100.0
135.17392 208.0
135.194046 128.0
135.203781 60.0
135.225845 136.0
135.230804 168.0
135.256561 128.0
135.29895 96.0
135.355957 60.0
135.371582 196.0
135.394073 72.0
135.417236 80.0
135.463638 112.0
135.483139 80.0
135.549957 192.0
135.599304 96.0
135.632202 108.0
135.688354 212.0
135.727768 120.0
135.753265 160.0
135.795914 104.0
135.851883 132.0
135.878525 52.0
135.905533 124.0
135.934204 76.0
135.954773 168.0
135.967072 156.0
136.001511 212.0
136.048355 348.0
136.083862 4836.0
136.137222 88.0
136.154739 140.0
136.187256 136.0
136.207535 180.0
136.249969 324.0
136.266235 44.0
136.28569 192.0
136.331299 228.0
136.385941 172.0
136.438492 176.0
136.557846 80.0
136.605652 160.0
136.642532 120.0
136.672516 200.0
136.703369 116.0
136.727951 220.0
136.746231 256.0
136.785873 168.0
136.804443 216.0
136.828278 156.0
136.842285 148.0
136.875626 68.0
136.915771 112.0
136.933838 188.0
136.952469 260.0
136.9944 72.0
137.012848 144.0
137.04892 48.0
137.08638 660.0
137.158829 124.0
137.178223 136.0
137.184158 120.0
137.192474 120.0
137.234573 76.0
137.259064 128.0
137.263458 72.0
137.301819 112.0
137.386032 108.0
137.402359 272.0
137.448349 72.0
137.481705 276.0
137.500366 104.0
137.523712 56.0
137.584396 156.0
137.610077 112.0
137.640427 144.0
137.757202 124.0
137.826401 84.0
137.852997 92.0
137.964325 184.0
137.986221 176.0
138.021378 556.0
138.057098 116.0
138.093796 140.0
138.150589 84.0
138.188065 132.0
138.243515 100.0
138.267136 196.0
138.290329 40.0
138.348083 160.0
138.369904 160.0
138.396469 164.0
138.433136 220.0
138.472946 160.0
138.538528 180.0
138.559616 176.0
138.599442 60.0
138.631393 244.0
138.667404 164.0
138.768463 140.0
138.798676 212.0
138.832642 192.0
138.849426 232.0
138.883102 220.0
138.932358 56.0
138.982773 180.0
139.004364 144.0
139.09967 176.0
139.128769 184.0
139.146469 196.0
139.171753 184.0
139.20462 44.0
139.260986 172.0
139.418396 152.0
139.469681 112.0
139.484192 172.0
139.517105 56.0
139.535919 140.0
139.565186 132.0
139.690811 184.0
139.745239 84.0
139.86525 200.0
139.881424 156.0
139.964127 176.0
139.982666 128.0
140.032425 128.0
140.052933 152.0
140.130524 156.0
140.190262 148.0
140.279816 176.0
140.370773 104.0
140.396805 176.0
140.425491 164.0
140.487015 148.0
140.521957 208.0
140.602524 196.0
140.666687 144.0
140.698883 192.0
140.716263 180.0
140.761124 176.0
140.796539 220.0
140.844208 108.0
140.926392 148.0
140.996628 192.0
141.037994 180.0
141.080078 216.0
141.145721 136.0
141.172012 140.0
141.409103 196.0
141.470398 216.0
141.49408 100.0
141.547134 156.0
141.655563 184.0
141.687454 128.0
141.773575 164.0
141.820969 104.0
141.889709 152.0
141.965591 112.0
142.004532 180.0
142.054642 172.0
142.083405 352.0
142.145874 176.0
142.259796 84.0
142.288284 148.0
142.314667 108.0
142.348953 236.0
142.416458 168.0
142.445007 44.0
142.528168 44.0
142.551926 56.0
142.592331 156.0
142.616089 152.0
142.746841 80.0
142.791016 112.0
142.882416 148.0
142.965698 156.0
143.025192 132.0
143.065659 152.0
143.165039 200.0
143.182343 156.0
143.220612 168.0
143.28714 136.0
143.313354 164.0
143.34671 128.0
143.382446 216.0
143.425354 172.0
143.525482 140.0
143.560547 148.0
143.606567 148.0
143.704361 152.0
143.765289 132.0
143.811279 208.0
143.933502 100.0
143.964539 144.0
143.986038 176.0
144.03891 200.0
144.060944 356.0
144.099258 204.0
144.126572 72.0
144.160431 172.0
144.205841 172.0
144.299606 212.0
144.33812 108.0
144.361221 96.0
144.37796 240.0
144.413834 360.0
144.435013 212.0
144.485596 176.0
144.514313 164.0
144.535843 240.0
144.563156 160.0
144.729355 128.0
144.796768 172.0
144.859055 84.0
144.880615 140.0
144.904572 112.0
144.959671 172.0
144.998016 176.0
145.051712 140.0
145.154892 272.0
145.276154 192.0
145.319336 104.0
145.357727 176.0
145.376923 132.0
145.422516 108.0
145.502533 156.0
145.528885 208.0
145.534302 64.0
145.544098 180.0
145.566559 160.0
145.601486 120.0
145.656754 196.0
145.701462 268.0
145.773148 132.0
145.789963 112.0
145.840439 164.0
145.890915 152.0
145.920853 204.0
145.970261 112.0
146.006332 96.0
146.023163 104.0
146.124191 76.0
146.160278 176.0
146.177124 84.0
146.196381 188.0
146.227661 176.0
146.266174 192.0
146.292099 88.0
146.350433 44.0
146.409683 132.0
146.453979 68.0
146.547928 64.0
146.646729 68.0
146.663605 88.0
146.714218 140.0
146.753128 296.0
146.781845 176.0
146.866135 176.0
146.887848 132.0
146.909561 160.0
146.967453 116.0
146.987793 112.0
147.01413 176.0
147.050461 204.0
147.07605 284.0
147.109848 120.0
147.142548 212.0
147.165283 148.0
147.20401 168.0
147.269211 96.0
147.320847 204.0
147.339264 96.0
147.361008 104.0
147.475952 160.0
147.496338 48.0
147.51326 132.0
147.634155 136.0
147.665588 152.0
147.711548 204.0
147.759918 104.0
147.815567 112.0
147.946274 120.0
147.997116 112.0
148.025131 128.0
148.080978 132.0
148.090973 84.0
148.097 112.0
148.133789 220.0
148.159378 156.0
148.279129 152.0
148.318405 216.0
148.35965 212.0
148.383789 188.0
148.440536 220.0
148.544815 56.0
148.704956 136.0
148.763214 232.0
148.789291 188.0
148.868515 248.0
148.950317 148.0
148.976913 172.0
149.001205 148.0
149.03035 48.0
149.059509 108.0
149.099945 200.0
149.137283 112.0
149.159409 152.0
149.198044 172.0
149.234039 180.0
149.283157 72.0
149.3172 140.0
149.339081 136.0
149.424866 120.0
149.468018 128.0
149.485046 100.0
149.504517 184.0
149.538345 124.0
149.556274 220.0
149.668182 120.0
149.687088 180.0
149.738235 104.0
149.851379 192.0
149.918503 136.0
149.942535 264.0
149.97406 196.0
150.064758 108.0
150.09935 148.0
150.1306 256.0
150.217148 172.0
150.258469 152.0
150.31842 184.0
150.348312 128.0
150.419022 176.0
150.438019 140.0
150.48082 136.0
150.519638 212.0
150.591843 128.0
150.614838 200.0
150.691269 80.0
150.806854 44.0
150.831177 164.0
150.902191 140.0
150.919296 168.0
150.995102 100.0
151.012222 116.0
151.057343 156.0
151.095398 144.0
151.180161 256.0
151.205872 216.0
151.261795 164.0
151.337692 96.0
151.359726 132.0
151.376877 156.0
151.398911 132.0
151.416046 100.0
151.463837 116.0
151.487076 108.0
151.523224 176.0
151.555679 88.0
151.656876 316.0
151.675766 148.0
151.700272 96.0
151.746857 152.0
151.786087 112.0
151.869461 188.0
151.940598 152.0
151.970047 80.0
152.001938 132.0
152.024033 188.0
152.102554 204.0
152.122192 140.0
152.14183 104.0
152.264603 56.0
152.328964 176.0
152.365311 144.0
152.405548 172.0
152.50322 184.0
152.559464 156.0
152.620926 168.0
152.719437 132.0
152.763565 136.0
152.809418 212.0
152.846985 132.0
152.903809 188.0
152.938263 128.0
153.110611 100.0
153.142624 164.0
153.236237 104.0
153.255219 136.0
153.290436 132.0
153.317551 180.0
153.361084 192.0
153.366989 128.0
153.375122 200.0
153.391495 432.0
153.433395 100.0
153.453827 236.0
153.511459 224.0
153.518967 148.0
153.52507 180.0
153.571487 200.0
153.617935 316.0
153.697388 100.0
153.756516 152.0
153.798477 148.0
153.82254 72.0
153.852783 148.0
153.963898 84.0
154.009399 180.0
154.043747 132.0
154.075043 160.0
154.146698 156.0
154.166458 152.0
154.186234 140.0
154.229202 156.0
154.272751 88.0
154.322189 88.0
154.339493 172.0
154.420181 388.0
154.449448 180.0
154.487885 140.0
154.512619 100.0
154.598328 288.0
154.686493 156.0
154.737839 108.0
154.823029 216.0
154.964417 132.0
155.000381 140.0
155.027634 104.0
155.05986 96.0
155.131729 176.0
155.191193 244.0
155.220993 124.0
155.268112 100.0
155.290421 108.0
155.382202 144.0
155.474014 140.0
155.495605 148.0
155.541977 136.0
155.569183 104.0
155.617035 188.0
155.660187 204.0
155.676498 116.0
155.697449 64.0
155.744629 128.0
155.762024 128.0
155.804245 172.0
155.831573 192.0
155.89006 176.0
155.933914 216.0
155.968246 144.0
155.985657 276.0
156.055923 324.0
156.127792 144.0
156.154434 68.0
156.174423 152.0
156.199493 152.0
156.244476 144.0
156.311447 180.0
156.35376 136.0
156.406021 160.0
156.440552 164.0
156.545441 164.0
156.565369 84.0
156.588425 384.0
156.756989 156.0
156.763687 144.0
156.793121 116.0
156.819489 92.0
156.864349 120.0
156.966568 152.0
157.055511 232.0
157.240982 48.0
157.316208 144.0
157.370773 244.0
157.465668 140.0
157.523117 140.0
157.553101 164.0
157.594772 176.0
157.818481 192.0
157.844238 164.0
157.915543 156.0
157.945557 132.0
158.030609 164.0
158.085663 112.0
158.128799 100.0
158.155731 44.0
158.218307 336.0
158.293427 164.0
158.346008 196.0
158.388596 188.0
158.424255 136.0
158.461243 128.0
158.581528 160.0
158.621628 140.0
158.752686 116.0
158.759933 220.0
158.792114 36.0
158.844788 156.0
158.925873 100.0
159.003952 176.0
159.030472 160.0
159.060181 168.0
159.095734 200.0
159.118332 156.0
159.186676 164.0
159.205963 360.0
159.291611 76.0
159.342651 176.0
159.366974 92.0
159.395691 140.0
159.456497 172.0
159.463394 108.0
159.555466 48.0
159.573059 180.0
159.595184 476.0
159.634445 388.0
159.666718 248.0
159.688736 108.0
159.727249 180.0
159.781143 200.0
159.824585 152.0
159.897552 56.0
159.920212 152.0
159.947449 160.0
160.074509 748.0
160.136734 112.0
160.201584 144.0
160.260162 160.0
160.323212 204.0
160.373566 100.0
160.443558 104.0
160.489532 192.0
160.56517 188.0
160.597961 124.0
160.65094 152.0
160.710464 148.0
160.7509 176.0
160.769516 156.0
160.802322 140.0
160.872391 220.0
160.981567 212.0
161.014404 124.0
161.052277 136.0
161.079391 268.0
161.088165 196.0
161.129333 88.0
161.14682 156.0
161.230362 116.0
161.239609 56.0
161.248215 124.0
161.289795 128.0
161.337814 188.0
161.411148 136.0
161.443527 184.0
161.469299 160.0
161.509766 164.0
161.56543 200.0
161.608429 168.0
161.635025 112.0
161.751816 164.0
161.800781 176.0
161.856476 152.0
161.900314 180.0
161.929916 112.0
162.000839 40.0
162.041367 144.0
162.107254 140.0
162.12944 196.0
162.178055 128.0
162.226379 256.0
162.25679 80.0
162.389877 240.0
162.439163 120.0
162.543396 112.0
162.581802 148.0
162.616989 192.0
162.644913 132.0
162.682724 156.0
162.74646 172.0
162.770767 176.0
162.802322 228.0
162.901367 48.0
163.029465 244.0
163.102112 216.0
163.130081 72.0
163.152954 144.0
163.22403 172.0
163.269867 132.0
163.297897 120.0
163.323318 156.0
163.341125 156.0
163.364761 192.0
163.380219 88.0
163.41745 168.0
163.447983 144.0
163.468338 192.0
163.5345 304.0
163.572693 184.0
163.643967 132.0
163.710175 56.0
163.727997 144.0
163.79422 172.0
163.819687 64.0
163.8573 192.0
163.908783 132.0
163.973526 100.0
164.033569 180.0
164.069427 156.0
164.123566 152.0
164.14592 160.0
164.209671 96.0
164.23262 120.0
164.285461 196.0
164.329559 140.0
164.429077 228.0
164.52475 152.0
164.554153 116.0
164.591324 172.0
164.615433 104.0
164.643524 172.0
164.67804 172.0
164.697159 192.0
164.733612 164.0
164.766129 92.0
164.794342 172.0
164.870895 52.0
164.944077 176.0
164.996017 180.0
165.023392 188.0
165.029617 124.0
165.03801 200.0
165.066254 236.0
165.088089 116.0
165.121429 40.0
165.153671 204.0
165.235535 288.0
165.290268 64.0
165.31842 92.0
165.354248 252.0
165.446396 176.0
165.559052 148.0
165.580597 196.0
165.607712 132.0
165.627823 160.0
165.653809 160.0
165.699921 176.0
165.730667 52.0
165.777695 228.0
165.825485 104.0
165.85881 92.0
165.931686 204.0
165.991211 168.0
166.012634 104.0
166.035721 104.0
166.081879 200.0
166.102402 152.0
166.162277 188.0
166.310638 100.0
166.394943 40.0
166.463211 148.0
166.489883 164.0
166.499008 160.0
166.508835 248.0
166.577271 168.0
166.76741 132.0
166.787979 44.0
166.81369 88.0
166.862534 120.0
166.883102 156.0
166.939667 164.0
166.972198 208.0
167.050262 164.0
167.099136 108.0
167.163467 68.0
167.240662 244.0
167.271561 136.0
167.351364 140.0
167.465866 124.0
167.515259 168.0
167.554825 156.0
167.645004 180.0
167.704285 160.0
167.723541 264.0
167.738312 156.0
167.789352 72.0
167.985336 156.0
168.05368 292.0
168.095383 136.0
168.142731 124.0
168.189178 112.0
168.212418 204.0
168.250717 196.0
168.336334 292.0
168.380005 220.0
168.423126 140.0
168.470642 168.0
168.491318 252.0
168.522308 116.0
168.548157 200.0
168.60759 100.0
168.682541 136.0
168.705811 60.0
168.742004 80.0
168.780777 88.0
168.806641 256.0
168.827332 308.0
168.860947 152.0
168.903915 112.0
168.93483 136.0
168.9776 244.0
169.013565 144.0
169.036484 376.0
169.07843 184.0
169.101562 160.0
169.127441 128.0
169.158493 40.0
169.352692 164.0
169.381866 212.0
169.450577 188.0
169.477036 160.0
169.500366 124.0
169.529861 188.0
169.572922 136.0
169.604019 220.0
169.712906 144.0
169.756989 76.0
169.821823 52.0
169.84613 256.0
169.904831 124.0
169.922989 148.0
169.947876 156.0
169.967102 132.0
169.993042 132.0
170.024185 80.0
170.05014 56.0
170.090942 116.0
170.152222 196.0
170.219498 152.0
170.26651 188.0
170.286392 184.0
170.317566 120.0
170.405884 84.0
170.447464 144.0
170.468246 156.0
170.491638 128.0
170.52153 160.0
170.580841 324.0
170.709244 196.0
170.772415 220.0
170.800568 112.0
170.902481 144.0
170.938919 160.0
170.978394 284.0
171.087265 308.0
171.136734 152.0
171.186203 176.0
171.205765 244.0
171.261734 172.0
171.397202 140.0
171.441498 188.0
171.494598 148.0
171.504761 204.0
171.535324 160.0
171.584854 84.0
171.655258 180.0
171.702194 224.0
171.725662 176.0
171.772614 156.0
171.804352 180.0
171.858704 184.0
171.924789 172.0
171.944809 96.0
171.967819 212.0
172.038254 204.0
172.050308 144.0
172.077942 36.0
172.114487 120.0
172.148438 80.0
172.202667 220.0
172.209564 168.0
172.233505 316.0
172.292099 124.0
172.348557 176.0
172.371277 216.0
172.47522 100.0
172.511612 196.0
172.542984 228.0
172.571732 172.0
172.613495 128.0
172.642334 48.0
172.712952 200.0
172.773117 64.0
172.812363 112.0
172.833282 116.0
172.883011 216.0
172.917984 124.0
172.945816 144.0
172.982468 144.0
173.021545 316.0
173.063614 180.0
173.110748 112.0
173.131699 192.0
173.15004 136.0
173.178848 184.0
173.226837 160.0
173.294327 144.0
173.341263 156.0
173.402451 220.0
173.472305 56.0
173.540466 152.0
173.574554 172.0
173.611267 132.0
173.673691 100.0
173.758163 88.0
173.894608 168.0
173.927567 168.0
173.947098 180.0
173.965469 140.0
174.04274 168.0
174.062851 252.0
174.089523 180.0
174.131363 136.0
174.208069 136.0
174.3069 148.0
174.439972 184.0
174.47081 132.0
174.523987 204.0
174.53392 120.0
174.567139 164.0
174.611847 304.0
174.656555 156.0
174.74614 152.0
174.832825 180.0
174.877304 176.0
174.90126 188.0
174.964432 152.0
174.985504 216.0
175.014465 36.0
175.038162 120.0
175.067078 208.0
175.109253 112.0
175.148666 204.0
175.196182 132.0
175.260239 144.0
175.327927 132.0
175.386154 132.0
175.427902 120.0
175.493988 160.0
175.524536 300.0
175.570465 116.0
175.596832 108.0
175.64592 164.0
175.703644 112.0
175.765198 92.0
175.794693 176.0
175.828995 204.0
175.921371 80.0
175.990021 424.0
176.026993 208.0
176.070572 136.0
176.108521 192.0
176.132248 144.0
176.159042 72.0
176.19603 144.0
176.248871 144.0
176.280579 164.0
176.357208 356.0
176.394226 136.0
176.415359 180.0
176.441803 172.0
176.468246 92.0
176.540024 160.0
176.559753 144.0
176.604904 336.0
176.736694 160.0
176.802185 176.0
176.85556 316.0
176.925934 160.0
176.951324 304.0
177.048706 184.0
177.083511 148.0
177.108643 188.0
177.137787 180.0
177.193405 128.0
177.267593 88.0
177.296753 76.0
177.317947 184.0
177.344452 152.0
177.376266 124.0
177.415649 176.0
177.44519 200.0
177.478485 92.0
177.50087 148.0
177.583069 160.0
177.667953 260.0
177.701187 156.0
177.749695 164.0
177.832474 136.0
177.869629 136.0
177.893524 152.0
177.914764 200.0
177.946625 200.0
177.973175 108.0
177.999725 172.0
178.018311 44.0
178.042206 152.0
178.136627 164.0
178.185638 208.0
178.217529 132.0
178.270676 188.0
178.305222 108.0
178.329132 56.0
178.358368 124.0
178.414413 144.0
178.459396 100.0
178.50885 80.0
178.550308 184.0
178.588913 48.0
178.624268 164.0
178.68486 216.0
178.815338 260.0
178.861099 172.0
178.940948 128.0
179.117355 392.0
179.182205 164.0
179.228607 260.0
179.289383 124.0
179.313873 112.0
179.388504 116.0
179.495148 124.0
179.520721 136.0
179.598572 72.0
179.667068 188.0
179.689423 296.0
179.735214 48.0
179.756561 164.0
179.801559 160.0
179.857971 100.0
179.94046 116.0
179.980774 144.0
180.047379 140.0
180.129959 140.0
180.17041 240.0
180.194443 116.0
180.249908 196.0
180.310486 168.0
180.384186 220.0
180.421616 156.0
180.440323 72.0
180.56868 80.0
180.630188 56.0
180.659622 100.0
180.678345 88.0
180.737106 228.0
180.796082 160.0
180.82283 144.0
180.865662 176.0
180.908493 244.0
180.951324 160.0
180.9888 104.0
181.010223 56.0
181.075684 212.0
181.139069 152.0
181.214111 164.0
181.244034 196.0
181.28389 200.0
181.310928 176.0
181.336868 176.0
181.394745 160.0
181.468018 168.0
181.493484 248.0
181.546158 168.0
181.567612 188.0
181.614105 304.0
181.636551 148.0
181.704803 168.0
181.748367 168.0
181.77417 72.0
181.792969 76.0
182.015762 156.0
182.078293 152.0
182.12999 148.0
182.194092 140.0
182.230957 220.0
182.254807 140.0
182.311172 168.0
182.31871 164.0
182.378433 124.0
182.398392 172.0
182.437576 176.0
182.467148 172.0
182.489441 176.0
182.513519 396.0
182.573166 176.0
182.62915 228.0
182.687668 168.0
182.742416 304.0
182.762985 300.0
182.832947 80.0
182.881393 160.0
182.902924 80.0
182.967056 112.0
182.987808 196.0
183.024078 236.0
183.067444 1244.0
183.118332 180.0
183.161819 136.0
183.199127 124.0
183.226074 40.0
183.258743 160.0
183.282654 56.0
183.415039 64.0
183.508484 112.0
183.53212 196.0
183.571075 164.0
183.597427 156.0
183.625015 196.0
183.665466 136.0
183.684341 80.0
183.722107 112.0
183.751785 56.0
183.780563 128.0
183.807571 136.0
183.845444 152.0
183.886703 124.0
183.937988 292.0
183.956894 192.0
183.979446 144.0
184.01088 164.0
184.050369 12268.0
184.143188 348.0
184.164795 268.0
184.22963 64.0
184.27684 76.0
184.299866 144.0
184.384445 148.0
184.407959 124.0
184.432297 168.0
184.513382 60.0
184.563614 104.0
184.695557 152.0
184.729736 196.0
184.769791 168.0
184.824417 176.0
184.870422 176.0
184.943787 180.0
185.05397 1404.0
185.104233 204.0
185.143845 28.0
185.17363 112.0
185.271133 104.0
185.306366 152.0
185.335266 60.0
185.396179 160.0
185.429382 220.0
185.500809 32.0
185.593658 196.0
185.628906 120.0
185.66687 108.0
185.691284 176.0
185.710266 160.0
185.835052 164.0
185.870316 108.0
185.892029 192.0
185.931244 168.0
185.959869 144.0
186.062027 152.0
186.106461 56.0
186.158051 160.0
186.238266 120.0
186.359055 164.0
186.457809 128.0
186.527161 168.0
186.606384 180.0
186.644455 152.0
186.677002 140.0
186.770477 176.0
186.805756 140.0
186.832108 76.0
186.8974 116.0
186.940353 180.0
186.981766 152.0
187.022491 108.0
187.026138 172.0
187.031403 136.0
187.06839 252.0
187.159058 124.0
187.180481 252.0
187.269958 136.0
187.277115 116.0
187.382034 208.0
187.409286 176.0
187.5728 224.0
187.602783 132.0
187.673676 136.0
187.751831 204.0
187.762131 136.0
187.790924 176.0
187.87822 168.0
187.905502 72.0
187.98053 120.0
188.044662 180.0
188.069229 136.0
188.093719 140.0
188.123825 88.0
188.216644 248.0
188.282181 196.0
188.3013 148.0
188.334076 172.0
188.35173 164.0
188.375046 72.0
188.396896 148.0
188.418747 196.0
188.494614 320.0
188.560837 244.0
188.593643 140.0
188.6483 152.0
188.670181 40.0
188.692047 184.0
188.730331 128.0
188.771347 200.0
188.793411 112.0
188.878006 88.0
188.910019 108.0
189.033951 136.0
189.066788 48.0
189.092621 192.0
189.12973 104.0
189.16922 224.0
189.270523 224.0
189.310425 104.0
189.370667 128.0
189.450104 144.0
189.474762 140.0
189.618332 172.0
189.650131 100.0
189.691254 160.0
189.770752 104.0
189.792694 152.0
189.828339 100.0
189.88974 148.0
189.93956 144.0
189.980133 184.0
190.065094 204.0
190.094421 152.0
190.123123 148.0
190.168518 100.0
190.215179 124.0
190.24263 164.0
190.334625 228.0
190.362366 144.0
190.428955 140.0
190.460648 176.0
190.546234 120.0
190.57933 48.0
190.605164 132.0
190.654617 176.0
190.701172 128.0
190.826675 128.0
190.837341 76.0
190.845764 164.0
190.987289 132.0
191.014801 184.0
191.047806 132.0
191.117966 216.0
191.177124 88.0
191.226654 160.0
191.245926 136.0
191.345551 208.0
191.366135 120.0
191.386322 176.0
191.422119 144.0
191.47168 172.0
191.568085 112.0
191.601425 156.0
191.633514 176.0
191.658997 168.0
191.694824 132.0
191.721283 140.0
191.777496 224.0
191.816086 124.0
191.898788 156.0
191.964966 156.0
192.023453 144.0
192.051178 400.0
192.097351 160.0
192.119415 148.0
192.215988 132.0
192.236374 196.0
192.268417 192.0
192.304291 208.0
192.323608 164.0
192.353973 96.0
192.434036 216.0
192.467163 188.0
192.525162 144.0
192.544495 52.0
192.58316 84.0
192.610779 140.0
192.821243 188.0
192.859451 136.0
192.892624 164.0
192.942383 112.0
192.982819 128.0
193.019913 96.0
193.050217 124.0
193.087982 352.0
193.135941 164.0
193.183746 184.0
193.261978 156.0
193.304703 216.0
193.351746 144.0
193.374359 108.0
193.445862 132.0
193.531677 140.0
193.595367 116.0
193.614746 120.0
193.645218 40.0
193.689529 112.0
193.712875 56.0
193.758789 156.0
193.831802 112.0
193.852325 168.0
193.883469 160.0
193.963852 84.0
194.093536 92.0
194.14061 196.0
194.165802 224.0
194.203308 252.0
194.224487 224.0
194.349319 196.0
194.490326 232.0
194.579681 148.0
194.674454 156.0
194.707413 52.0
194.755035 136.0
194.831451 220.0
194.890747 200.0
194.910202 128.0
194.940521 136.0
195.001907 200.0
195.035263 144.0
195.126999 112.0
195.288345 176.0
195.310532 128.0
195.357819 140.0
195.388412 148.0
195.427368 184.0
195.471893 44.0
195.544235 136.0
195.587708 352.0
195.683426 116.0
195.85051 40.0
195.892288 116.0
195.962021 136.0
196.05011 7456.0
196.084549 172.0
196.113022 332.0
196.157013 140.0
196.202255 216.0
196.236282 64.0
196.310349 208.0
196.354965 136.0
196.396805 116.0
196.42691 212.0
196.491653 108.0
196.540482 68.0
196.564362 196.0
196.58931 160.0
196.639542 120.0
196.673035 76.0
196.72049 248.0
196.746307 176.0
196.801453 108.0
196.869797 292.0
196.890808 44.0
196.927109 76.0
197.011063 144.0
197.055969 952.0
197.12825 136.0
197.218369 164.0
197.309494 180.0
197.363052 164.0
197.418976 208.0
197.486099 188.0
197.557404 152.0
197.597992 184.0
197.631561 172.0
197.757492 80.0
197.791077 44.0
197.841461 228.0
197.861069 48.0
197.919861 112.0
197.959061 80.0
198.017868 124.0
198.059357 416.0
198.097916 104.0
198.145645 116.0
198.292435 128.0
198.345688 104.0
198.388168 108.0
198.415176 172.0
198.467148 160.0
198.49147 136.0
198.548309 88.0
198.592422 84.0
198.616348 168.0
198.638031 124.0
198.690063 168.0
198.743912 244.0
198.766357 128.0
198.819672 116.0
198.839325 144.0
198.884232 100.0
198.9151 140.0
198.961807 324.0
199.018967 336.0
199.067749 476.0
199.098969 188.0
199.134613 176.0
199.212753 136.0
199.249283 164.0
199.268936 208.0
199.358856 140.0
199.403824 132.0
199.475433 200.0
199.507828 332.0
199.549988 68.0
199.571045 172.0
199.636292 144.0
199.641586 216.0
199.803101 132.0
199.851608 168.0
199.87175 192.0
199.909714 268.0
199.92337 124.0
199.932724 140.0
200.025848 156.0
200.069641 152.0
200.093475 180.0
200.115509 44.0
200.150162 116.0
200.28299 160.0
200.366165 124.0
200.431122 176.0
200.590118 116.0
200.618286 180.0
200.707184 164.0
200.834091 60.0
200.858215 164.0
200.894928 204.0
200.930008 192.0
200.956573 152.0
200.989258 144.0
201.012619 356.0
201.056488 184.0
201.098297 100.0
201.155762 92.0
201.248917 88.0
201.323563 184.0
201.375183 124.0
201.409256 160.0
201.491806 136.0
201.590973 164.0
201.634567 168.0
201.672668 84.0
201.706573 68.0
201.79715 320.0
201.904495 108.0
201.949738 148.0
201.985474 172.0
202.043091 172.0
202.06572 168.0
202.14212 136.0
202.181107 72.0
202.200378 136.0
202.221359 116.0
202.292114 216.0
202.355713 172.0
202.394043 188.0
202.460037 196.0
202.51297 72.0
202.587311 180.0
202.626282 112.0
202.654617 76.0
202.685791 168.0
202.833817 136.0
202.855835 124.0
202.883667 180.0
202.939713 408.0
203.011765 144.0
203.031616 264.0
203.088333 124.0
203.119537 160.0
203.193298 48.0
203.261398 148.0
203.35112 136.0
203.399719 184.0
203.451553 92.0
203.567963 128.0
203.613403 204.0
203.692917 124.0
203.715271 152.0
203.749588 152.0
203.759445 144.0
203.7677 212.0
203.809402 40.0
203.832565 132.0
203.928009 152.0
203.95787 164.0
204.002655 132.0
204.033936 204.0
204.117722 128.0
204.158188 228.0
204.244354 128.0
204.309784 180.0
204.363846 80.0
204.427582 248.0
204.464447 112.0
204.508972 156.0
204.597214 148.0
204.619995 204.0
204.752396 144.0
204.787994 76.0
204.847809 84.0
204.867752 168.0
204.981079 180.0
205.169083 184.0
205.212585 176.0
205.266769 120.0
205.338058 132.0
205.358017 176.0
205.42363 144.0
205.606232 180.0
205.656601 184.0
205.690781 148.0
205.714691 168.0
205.737534 68.0
205.784973 136.0
205.834595 116.0
205.894562 148.0
205.940262 120.0
205.983109 152.0
206.015305 220.0
206.056198 212.0
206.134537 156.0
206.189865 208.0
206.246231 96.0
206.283142 164.0
206.323166 156.0
206.36972 168.0
206.446121 200.0
206.490158 192.0
206.511887 144.0
206.535477 148.0
206.644928 244.0
206.684326 172.0
206.743622 124.0
206.801819 132.0
206.832352 112.0
206.947647 232.0
206.993546 104.0
207.090958 136.0
207.121552 120.0
207.17955 160.0
207.238998 120.0
207.264786 96.0
207.290573 232.0
207.310638 156.0
207.334473 208.0
207.438889 160.0
207.46254 152.0
207.491211 164.0
207.517731 96.0
207.539948 128.0
207.646057 176.0
207.67186 124.0
207.753647 148.0
207.764557 216.0
207.806686 164.0
207.892761 124.0
207.921463 28.0
207.967392 160.0
208.010437 128.0
208.064987 144.0
208.092773 200.0
208.103653 136.0
208.159729 116.0
208.205673 160.0
208.240143 132.0
208.29184 140.0
208.311951 156.0
208.337799 156.0
208.391525 172.0
208.412506 152.0
208.481461 104.0
208.504456 80.0
208.544693 152.0
208.609802 200.0
208.648178 200.0
208.734436 152.0
208.866318 144.0
208.938644 172.0
209.046478 196.0
209.059402 272.0
209.066406 188.0
209.094025 128.0
209.114166 268.0
209.134079 148.0
209.226425 324.0
209.266724 80.0
209.307037 128.0
209.347351 68.0
209.383957 324.0
209.508652 128.0
209.553558 68.0
209.626495 168.0
209.741226 152.0
209.779526 136.0
209.811234 160.0
209.860245 104.0
209.909271 264.0
209.937332 164.0
209.990021 44.0
210.057602 212.0
210.098114 132.0
210.128479 212.0
210.202805 100.0
210.327591 200.0
210.358841 92.0
210.369232 160.0
210.448746 248.0
210.557693 96.0
210.596115 128.0
210.633667 120.0
210.655167 108.0
210.679886 104.0
210.735138 156.0
210.757889 80.0
210.785782 208.0
210.824341 88.0
210.927032 204.0
210.980423 152.0
211.015121 132.0
211.061584 17156.0
211.140152 84.0
211.220062 92.0
211.298538 64.0
211.324585 96.0
211.350616 40.0
211.382446 60.0
211.42746 144.0
211.451904 168.0
211.478882 112.0
211.512299 152.0
211.559006 44.0
211.595215 196.0
211.66687 300.0
211.692047 176.0
211.724045 132.0
211.889145 72.0
211.916992 144.0
211.958679 60.0
211.987656 64.0
212.016632 188.0
212.065933 2872.0
212.12088 116.0
212.167358 28.0
212.239838 64.0
212.271332 200.0
212.315231 128.0
212.379868 156.0
212.429153 116.0
212.547211 140.0
212.600769 116.0
212.686096 184.0
212.740295 128.0
212.773682 76.0
212.810196 188.0
212.878464 184.0
212.906082 304.0
212.98436 128.0
213.014709 44.0
213.073898 1344.0
213.150513 188.0
213.158157 140.0
213.217957 168.0
213.22821 324.0
213.407043 112.0
213.468933 184.0
213.497177 180.0
213.527161 168.0
213.55574 60.0
213.587341 136.0
213.610611 168.0
213.652237 124.0
213.699234 104.0
213.772888 160.0
213.782379 220.0
213.834656 168.0
213.860855 100.0
213.887039 180.0
213.933151 208.0
214.031631 216.0
214.061127 1188.0
214.089767 336.0
214.213165 120.0
214.236481 272.0
214.262695 104.0
214.379242 124.0
214.44751 208.0
214.475418 92.0
214.497421 132.0
214.51915 156.0
214.568283 192.0
214.59494 100.0
214.621048 180.0
214.704361 108.0
214.789032 252.0
214.814896 180.0
214.907013 132.0
214.997482 112.0
215.061447 148.0
215.18721 84.0
215.228882 204.0
215.289398 208.0
215.309845 72.0
215.350739 140.0
215.382858 40.0
215.426682 172.0
215.454224 168.0
215.534866 124.0
215.584457 248.0
215.7453 124.0
215.784592 156.0
215.815369 404.0
215.860352 240.0
215.868378 188.0
215.878632 252.0
215.916138 108.0
215.961288 160.0
216.059128 476.0
216.101089 116.0
216.121368 244.0
216.166367 144.0
216.204269 160.0
216.238388 148.0
216.365402 36.0
216.390091 120.0
216.562546 160.0
216.583557 88.0
216.754944 284.0
216.793228 184.0
216.824051 140.0
216.880585 160.0
216.971832 164.0
217.033401 124.0
217.09198 208.0
217.133102 84.0
217.164536 156.0
217.188828 160.0
217.235672 140.0
217.289642 184.0
217.320831 92.0
217.413406 132.0
217.449951 196.0
217.523331 36.0
217.599655 120.0
217.636581 132.0
217.727081 132.0
217.755295 36.0
217.792923 108.0
217.816971 64.0
217.840469 212.0
217.899216 140.0
217.972672 128.0
217.995697 220.0
218.054962 136.0
218.081406 212.0
218.10199 112.0
218.125504 292.0
218.146072 204.0
218.221207 160.0
218.270309 156.0
218.301895 120.0
218.331619 152.0
218.41954 160.0
218.475433 176.0
218.496033 164.0
218.523407 144.0
218.554688 132.0
218.649033 100.0
218.678101 168.0
218.72261 28.0
218.790314 108.0
218.809738 124.0
218.869812 132.0
218.952271 144.0
218.978775 128.0
219.072296 204.0
219.114273 116.0
219.161407 176.0
219.193817 328.0
219.221283 212.0
219.302856 328.0
219.414871 80.0
219.447296 276.0
219.556671 132.0
219.579224 112.0
219.624237 116.0
219.674377 140.0
219.709778 152.0
219.748138 96.0
219.785553 144.0
219.83075 160.0
219.87207 40.0
219.951752 156.0
220.021667 276.0
220.078705 136.0
220.130127 164.0
220.155472 44.0
220.205673 140.0
220.253632 168.0
220.329742 144.0
220.353378 192.0
220.379166 140.0
220.415421 152.0
220.462708 220.0
220.489304 140.0
220.559921 152.0
220.606445 176.0
220.637085 100.0
220.728745 104.0
220.752396 168.0
220.808151 164.0
220.864777 232.0
220.891403 136.0
221.04454 5188.0
221.122192 68.0
221.23941 120.0
221.276108 28.0
221.302765 56.0
221.361984 180.0
221.394562 124.0
221.415283 88.0
221.463135 128.0
221.492294 100.0
221.529312 208.0
221.631531 56.0
221.677322 168.0
221.714493 80.0
221.767059 196.0
221.812302 112.0
221.865662 84.0
221.89917 80.0
221.942749 68.0
222.051941 248.0
222.084259 252.0
222.110382 152.0
222.188919 156.0
222.325409 128.0
222.369675 144.0
222.41095 152.0
222.435226 172.0
222.531082 164.0
222.571777 212.0
222.626999 164.0
222.697372 180.0
222.761856 80.0
222.797501 84.0
222.856918 208.0
222.933792 156.0
222.985123 172.0
223.008667 404.0
223.059799 520.0
223.090759 76.0
223.171982 92.0
223.276047 172.0
223.324661 140.0
223.362305 128.0
223.403198 200.0
223.481308 136.0
223.516998 212.0
223.55867 120.0
223.579498 196.0
223.638641 96.0
223.648651 84.0
223.6577 116.0
223.686646 220.0
223.775955 148.0
223.817642 112.0
223.847412 124.0
223.92186 128.0
223.951645 148.0
224.046982 1216.0
224.084091 208.0
224.151245 100.0
224.20787 136.0
224.246613 204.0
224.28833 128.0
224.322952 104.0
224.364288 244.0
224.428452 172.0
224.493164 160.0
224.532822 112.0
224.553696 136.0
224.634232 72.0
224.723724 144.0
224.744614 184.0
224.840103 208.0
224.871643 168.0
224.911728 112.0
224.959488 92.0
224.987946 156.0
225.052994 396.0
225.078369 648.0
225.133301 112.0
225.228409 208.0
225.28418 104.0
225.291656 156.0
225.350708 132.0
225.407486 200.0
225.503113 156.0
225.544952 196.0
225.565872 172.0
225.598145 156.0
225.64061 76.0
225.676483 132.0
225.700409 128.0
225.777542 176.0
225.817032 100.0
225.843948 132.0
225.918732 40.0
225.951645 144.0
225.996063 180.0
226.023453 236.0
226.058731 268.0
226.084778 624.0
226.122208 112.0
226.146149 32.0
226.244919 152.0
226.300659 228.0
226.318481 176.0
226.397629 172.0
226.469498 116.0
226.49646 168.0
226.53241 156.0
226.592316 64.0
226.645142 184.0
226.679214 136.0
226.893372 124.0
226.928864 152.0
226.990952 128.0
227.056976 444.0
227.094849 196.0
227.119919 152.0
227.220276 208.0
227.245911 84.0
227.269913 100.0
227.302917 96.0
227.329926 216.0
227.350937 68.0
227.416962 88.0
227.44133 200.0
227.498001 148.0
227.54303 40.0
227.606079 88.0
227.651123 164.0
227.683258 268.0
227.729202 56.0
227.791122 176.0
227.861374 140.0
227.906448 140.0
227.95752 152.0
227.978561 192.0
228.065048 396.0
228.088028 184.0
228.110809 192.0
228.21904 80.0
228.282181 264.0
228.309235 72.0
228.404007 188.0
228.440582 204.0
228.471664 136.0
228.492722 192.0
228.540787 168.0
228.589005 168.0
228.642075 132.0
228.724442 52.0
228.745499 164.0
228.769592 180.0
228.82077 88.0
228.866272 176.0
228.924774 100.0
228.955978 312.0
229.006973 148.0
229.051178 164.0
229.08078 132.0
229.191315 136.0
229.236908 200.0
229.275925 144.0
229.326828 168.0
229.378067 64.0
229.419678 324.0
229.480576 152.0
229.528809 272.0
229.565002 104.0
229.674515 140.0
229.707108 136.0
229.797256 216.0
229.860001 236.0
229.915634 212.0
229.93605 144.0
229.966232 300.0
230.044724 188.0
230.077927 220.0
230.123215 72.0
230.181198 156.0
230.23494 84.0
230.268158 108.0
230.295029 120.0
230.380493 192.0
230.431274 220.0
230.462234 144.0
230.487198 184.0
230.51889 76.0
230.573288 64.0
230.666992 84.0
230.703262 196.0
230.790939 292.0
230.812103 164.0
230.870544 160.0
230.900986 192.0
230.930038 192.0
231.09642 104.0
231.138779 112.0
231.162979 92.0
231.264816 136.0
231.3022 72.0
231.351395 208.0
231.386963 152.0
231.473053 92.0
231.529282 188.0
231.556534 172.0
231.632248 72.0
231.665573 112.0
231.744339 160.0
231.771606 176.0
231.835663 148.0
231.914047 56.0
232.086838 156.0
232.192978 184.0
232.223297 68.0
232.269684 96.0
232.359802 168.0
232.384079 200.0
232.41745 96.0
232.453857 124.0
232.623825 96.0
232.672394 124.0
232.715469 168.0
232.736786 172.0
232.843521 168.0
232.942856 184.0
233.0 188.0
233.058105 184.0
233.091537 160.0
233.184341 140.0
233.216125 176.0
233.256577 144.0
233.325562 136.0
233.46994 116.0
233.498886 216.0
233.574921 136.0
233.666183 108.0
233.775558 148.0
233.870071 132.0
233.915726 252.0
233.985535 60.0
234.055511 132.0
234.095352 104.0
234.162247 128.0
234.288223 160.0
234.351212 216.0
234.412155 148.0
234.55957 152.0
234.589203 128.0
234.613235 148.0
234.652939 88.0
234.704773 36.0
234.732224 176.0
234.788025 176.0
234.847763 180.0
234.873718 100.0
234.889709 100.0
234.903961 164.0
234.939621 204.0
234.970123 232.0
234.994522 92.0
235.061813 284.0
235.113525 112.0
235.157837 140.0
235.19899 100.0
235.233124 304.0
235.296677 248.0
235.363846 152.0
235.384201 136.0
235.401215 124.0
235.424911 148.0
235.452393 140.0
235.53157 52.0
235.553192 188.0
235.5979 228.0
235.629562 200.0
235.701538 180.0
235.747528 264.0
235.788452 256.0
235.825134 72.0
235.959625 136.0
236.070511 1128.0
236.155334 132.0
236.216507 168.0
236.253876 168.0
236.296051 172.0
236.316803 92.0
236.372543 84.0
236.430679 208.0
236.461288 124.0
236.497162 156.0
236.546982 196.0
236.59903 132.0
236.667267 180.0
236.709244 112.0
236.752121 208.0
236.776611 140.0
236.800171 52.0
236.82869 228.0
236.911392 128.0
236.948151 216.0
236.997177 172.0
237.04007 216.0
237.076096 4672.0
237.1436 336.0
237.21637 160.0
237.266876 124.0
237.303665 124.0
237.366745 252.0
237.406158 376.0
237.482208 160.0
237.512665 292.0
237.545319 140.0
237.622635 132.0
237.677856 140.0
237.699829 196.0
237.717957 120.0
237.760117 264.0
237.813446 196.0
237.859253 176.0
237.904465 172.0
237.909897 108.0
237.937347 220.0
237.982483 384.0
238.015106 124.0
238.020203 128.0
238.079575 1336.0
238.085052 940.0
238.128616 308.0
238.149918 104.0
238.200928 212.0
238.224716 180.0
238.274933 212.0
238.331863 244.0
238.397537 200.0
238.440582 188.0
238.464111 164.0
238.48645 196.0
238.514633 208.0
238.558609 216.0
238.58461 456.0
238.607315 148.0
238.635162 540.0
238.664902 312.0
238.714905 600.0
238.738907 540.0
238.771805 416.0
238.805542 308.0
238.828766 300.0
238.858276 324.0
238.893234 576.0
238.926865 444.0
238.973923 620.0
239.05777 343444.0
239.129166 208.0
239.145935 128.0
239.15242 144.0
239.174896 140.0
239.26796 300.0
239.293701 144.0
239.344223 488.0
239.378418 288.0
239.428802 248.0
239.46347 176.0
239.471161 244.0
239.531189 216.0
239.566055 5872.0
239.608047 376.0
239.652191 196.0
239.673645 176.0
239.70108 272.0
239.755478 256.0
239.794525 276.0
239.836121 432.0
239.869431 308.0
239.895706 348.0
239.921921 244.0
239.933121 220.0
239.968765 148.0
239.998886 216.0
240.059891 71500.0
240.113541 212.0
240.138199 256.0
240.150482 100.0
240.163422 96.0
240.171356 224.0
240.18132 240.0
240.19223 148.0
240.224136 240.0
240.286499 184.0
240.31987 208.0
240.340347 196.0
240.372147 156.0
240.397827 508.0
240.490982 100.0
240.522354 232.0
240.56308 100.0
240.594955 200.0
240.643341 208.0
240.695541 300.0
240.721176 76.0
240.744736 124.0
240.756851 124.0
240.806564 204.0
240.840515 120.0
240.867249 160.0
240.870819 236.0
240.907455 84.0
240.946136 224.0
240.963989 148.0
241.018372 352.0
241.066833 7152.0
241.145386 140.0
241.168564 132.0
241.212402 56.0
241.233353 148.0
241.267975 164.0
241.304001 204.0
241.315125 164.0
241.324402 92.0
241.351654 160.0
241.394394 80.0
241.424805 168.0
241.452515 332.0
241.492905 284.0
241.546249 172.0
241.616287 260.0
241.647675 140.0
241.672806 244.0
241.716904 480.0
241.74295 196.0
241.763397 208.0
241.791382 184.0
241.81868 472.0
241.827347 264.0
241.838852 396.0
241.86998 236.0
241.901611 200.0
241.965683 116.0
241.98616 196.0
242.00206 132.0
242.029007 112.0
242.067871 928.0
242.127884 84.0
242.183517 136.0
242.234512 72.0
242.277267 60.0
242.289505 48.0
242.353668 156.0
242.375092 236.0
242.400864 96.0
242.425598 128.0
242.464081 184.0
242.491684 136.0
242.572571 144.0
242.58963 84.0
242.596664 120.0
242.678528 192.0
242.729431 192.0
242.761261 88.0
242.807922 100.0
242.846909 108.0
242.866776 240.0
242.886795 120.0
242.8992 56.0
242.921722 292.0
242.950592 64.0
242.957458 132.0
243.021957 96.0
243.056046 288.0
243.090057 180.0
243.138611 136.0
243.175903 144.0
243.197189 132.0
243.220245 84.0
243.264023 164.0
243.298172 80.0
243.383118 64.0
243.405624 132.0
243.434784 36.0
243.458984 96.0
243.496231 168.0
243.565216 124.0
243.591751 104.0
243.617538 80.0
243.66774 100.0
243.700928 140.0
243.729874 64.0
243.751633 52.0
243.804642 132.0
243.853012 140.0
243.880402 52.0
243.990952 72.0
244.03447 48.0
244.057175 488.0
244.130859 172.0
244.193069 60.0
244.457489 108.0
244.507294 88.0
244.693512 92.0
244.73764 84.0
244.80925 64.0
244.852859 52.0
244.903824 80.0
244.933838 76.0
244.995422 52.0
245.050247 108.0
245.094788 72.0
245.130112 88.0
245.200775 112.0
245.223602 168.0
245.282822 56.0
245.316757 72.0
245.401291 40.0
245.487 160.0
245.63829 36.0
245.693527 204.0
245.754425 92.0
245.822372 164.0
245.915985 128.0
246.041122 136.0
246.072815 152.0
246.08699 84.0
246.09523 144.0
246.121109 224.0
246.231323 228.0
246.346893 112.0
246.371887 168.0
246.40625 84.0
246.462479 200.0
246.596863 80.0
246.643738 196.0
246.722595 124.0
246.765656 168.0
246.810577 76.0
246.843826 96.0
246.876617 180.0
246.898285 164.0
246.956604 168.0
247.075058 116.0
247.144104 100.0
247.184784 132.0
247.451279 84.0
247.531189 96.0
247.662659 68.0
247.707626 84.0
247.735809 52.0
247.889328 132.0
247.941971 140.0
247.97081 60.0
247.999023 172.0
248.067734 104.0
248.130676 152.0
248.152618 248.0
248.285812 160.0
248.297363 76.0
248.306778 104.0
248.372147 76.0
248.438019 176.0
248.463104 68.0
248.485077 52.0
248.516449 48.0
248.64035 148.0
248.684052 88.0
248.720428 144.0
248.751816 120.0
248.786346 164.0
248.812805 84.0
248.899368 260.0
248.957733 144.0
249.018707 164.0
249.07695 1492.0
249.114365 400.0
249.167969 108.0
249.239792 84.0
249.323441 180.0
249.529861 60.0
249.569534 84.0
249.596924 40.0
249.623001 156.0
249.653534 108.0
249.691269 136.0
249.729004 48.0
249.756027 68.0
249.889435 48.0
249.911469 132.0
249.964951 164.0
250.049927 92.0
250.085831 1592.0
250.241943 116.0
250.273178 52.0
250.328125 224.0
250.391159 124.0
250.485428 164.0
250.603378 84.0
250.623352 188.0
250.645096 144.0
250.686066 176.0
250.82814 208.0
250.933731 132.0
250.985519 84.0
251.055862 10484.0
251.091461 920.0
251.169739 96.0
251.196808 76.0
251.247284 68.0
251.2883 64.0
251.329483 76.0
251.344254 60.0
251.398743 56.0
251.433456 64.0
251.455536 96.0
251.487106 68.0
251.509201 164.0
251.572327 44.0
251.624268 80.0
251.668564 64.0
251.692307 164.0
251.736511 164.0
251.761765 68.0
251.837036 80.0
251.874512 120.0
251.9039 120.0
251.967087 56.0
252.057648 1560.0
252.100464 700.0
252.175629 72.0
252.207428 196.0
252.235687 100.0
252.303772 52.0
252.390594 32.0
252.444351 180.0
252.527756 160.0
252.579803 132.0
252.615143 80.0
252.657318 144.0
252.700562 36.0
252.725189 56.0
252.80632 132.0
252.83345 176.0
252.97905 44.0
253.002441 188.0
253.029709 300.0
253.070816 2024.0
253.278687 96.0
253.314713 40.0
253.384033 200.0
253.473129 236.0
253.572861 76.0
253.597809 196.0
253.628006 156.0
253.66011 60.0
253.714005 88.0
253.742538 52.0
253.777405 84.0
253.812286 316.0
253.903992 172.0
254.077377 600.0
254.105698 100.0
254.112442 176.0
254.170715 116.0
254.231003 76.0
254.256393 76.0
254.291306 120.0
254.332565 100.0
254.380173 100.0
254.417648 164.0
254.430679 132.0
254.438553 72.0
254.650055 116.0
254.679916 120.0
254.840652 136.0
254.866074 156.0
254.894424 152.0
254.958237 32.0
255.029083 244.0
255.077652 324.0
255.121033 164.0
255.163086 116.0
255.205261 140.0
255.276123 68.0
255.317459 196.0
255.365173 44.0
255.393799 64.0
255.475296 132.0
255.591034 176.0
255.613312 68.0
255.721512 184.0
255.817001 108.0
255.861557 56.0
255.896576 56.0
255.928421 112.0
255.97937 120.0
256.023956 104.0
256.102234 400.0
256.24054 44.0
256.374359 76.0
256.396667 84.0
256.418976 76.0
256.441315 44.0
256.484772 100.0
256.503876 176.0
256.568176 200.0
256.616638 120.0
256.641602 212.0
256.71228 104.0
256.743713 56.0
256.843048 124.0
256.874939 76.0
256.967499 212.0
257.021698 132.0
257.067719 5636.0
257.102417 120.0
257.130188 44.0
257.176056 40.0
257.245087 52.0
257.267426 84.0
257.302551 160.0
257.344055 128.0
257.430267 124.0
257.532471 92.0
257.567596 160.0
257.650665 104.0
257.755096 104.0
257.944641 140.0
257.992523 172.0
258.070435 916.0
258.117523 892.0
258.155396 300.0
258.197235 112.0
258.235626 68.0
258.328918 152.0
258.357178 88.0
258.621979 152.0
258.648376 136.0
258.699585 72.0
258.818024 148.0
258.898102 176.0
258.923706 188.0
259.013397 192.0
259.081024 108.0
259.107361 152.0
259.121155 88.0
259.130402 188.0
259.199188 100.0
259.244049 88.0
259.333801 136.0
259.356232 100.0
259.487671 168.0
259.563599 128.0
259.590271 68.0
259.622345 164.0
259.684174 84.0
259.765686 104.0
259.789429 168.0
259.827606 124.0
260.013733 68.0
260.070862 188.0
260.123718 124.0
260.159119 172.0
260.17865 84.0
260.316254 140.0
260.395782 116.0
260.418243 156.0
260.485718 228.0
260.521027 104.0
260.562805 132.0
260.692932 64.0
260.733093 120.0
260.778107 116.0
260.893799 160.0
260.987732 132.0
261.088013 140.0
261.194122 240.0
261.241119 196.0
261.304718 148.0
261.360168 80.0
261.451752 208.0
261.527496 260.0
261.582214 244.0
261.797943 116.0
261.946075 64.0
262.006287 180.0
262.095154 396.0
262.142609 148.0
262.184509 188.0
262.313416 192.0
262.345673 100.0
262.433044 76.0
262.490753 56.0
262.603607 108.0
262.710175 124.0
262.748779 40.0
262.803619 88.0
262.845581 84.0
262.955292 92.0
263.054016 944.0
263.096619 216.0
263.31366 108.0
263.349182 128.0
263.688416 172.0
263.833862 392.0
264.031097 40.0
264.059692 528.0
264.088898 180.0
264.144318 132.0
264.192841 108.0
264.218719 68.0
264.244598 204.0
264.280182 96.0
264.341675 132.0
264.370789 104.0
264.417542 124.0
264.548798 188.0
264.590881 64.0
264.62973 140.0
264.897491 92.0
264.960083 112.0
265.070984 1352.0
265.142303 132.0
265.170715 68.0
265.258209 116.0
265.387878 52.0
265.420319 92.0
265.621399 184.0
265.7771 148.0
265.858215 128.0
265.906555 148.0
265.916534 132.0
265.930359 144.0
265.971832 100.0
266.07193 204.0
266.192596 72.0
266.221802 84.0
266.375549 220.0
266.481659 112.0
266.572632 160.0
266.656464 96.0
266.795776 176.0
266.829407 132.0
266.855438 120.0
266.930206 92.0
266.956238 228.0
266.988739 140.0
267.087341 460.0
267.121155 436.0
267.169006 96.0
267.545135 148.0
267.636292 128.0
267.851227 48.0
267.902069 152.0
267.968506 164.0
267.99295 120.0
268.023163 220.0
268.0802 796.0
268.128174 92.0
268.21582 176.0
268.258545 112.0
268.329254 128.0
268.482635 164.0
268.514221 88.0
268.577454 140.0
268.627045 84.0
268.67923 204.0
269.068115 908.0
269.092468 484.0
269.202148 148.0
269.263489 136.0
269.291382 228.0
269.374542 180.0
269.469299 200.0
269.498688 108.0
269.547699 112.0
269.688232 112.0
269.812439 156.0
269.857361 180.0
269.966125 48.0
270.072632 128.0
270.10675 192.0
270.17218 108.0
270.198364 116.0
270.323181 52.0
270.371765 92.0
270.424133 88.0
270.496155 184.0
270.551788 124.0
270.607452 128.0
270.650024 168.0
270.702393 36.0
270.741699 80.0
270.853058 152.0
270.909027 156.0
270.938934 148.0
271.016846 52.0
271.049622 216.0
271.210205 156.0
271.351166 124.0
271.438263 232.0
271.485596 200.0
271.564301 160.0
271.746948 204.0
271.800232 144.0
271.91864 164.0
272.010529 164.0
272.049286 112.0
272.094055 152.0
272.263367 64.0
272.471436 168.0
272.641144 76.0
272.687164 124.0
272.723297 152.0
272.752899 128.0
272.833466 132.0
272.902252 184.0
272.936981 152.0
273.111298 140.0
273.246155 152.0
273.318542 76.0
273.397186 160.0
273.427124 72.0
273.54892 196.0
273.802429 60.0
273.963837 56.0
274.082672 156.0
274.174316 132.0
274.230194 124.0
274.286774 112.0
274.386047 140.0
274.497772 112.0
274.610168 188.0
274.646179 40.0
274.715454 108.0
274.763733 144.0
274.818817 192.0
274.87381 188.0
274.926605 104.0
274.969513 68.0
275.055328 76.0
275.090851 160.0
275.296326 144.0
275.42514 56.0
275.831573 152.0
276.010071 84.0
276.058929 356.0
276.09436 436.0
276.13327 132.0
276.185364 152.0
276.221741 136.0
276.254059 172.0
276.400391 112.0
276.549316 220.0
276.728058 156.0
276.810852 136.0
276.916809 148.0
277.011536 176.0
277.072449 3844.0
277.104462 960.0
277.411041 176.0
277.450317 76.0
277.52655 76.0
277.569672 200.0
277.596191 64.0
277.735474 124.0
277.868164 140.0
277.927887 100.0
277.994263 140.0
278.076477 1216.0
278.153564 48.0
278.181549 84.0
278.209991 92.0
278.297546 144.0
278.413635 244.0
278.454102 200.0
278.535431 64.0
278.679993 52.0
278.761322 132.0
278.884308 104.0
278.987335 60.0
279.087891 400.0
279.122986 2740.0
279.193481 252.0
279.233398 84.0
279.270905 72.0
279.350525 112.0
279.376434 104.0
279.429657 40.0
279.479553 44.0
279.516174 52.0
279.597748 144.0
279.870239 204.0
279.938904 84.0
280.038818 124.0
280.123291 836.0
280.192047 144.0
280.378632 72.0
280.430664 196.0
280.465302 112.0
280.491974 180.0
280.558624 48.0
280.601959 128.0
280.641968 120.0
280.669891 140.0
280.939819 192.0
281.015533 36.0
281.066864 1560.0
281.102814 288.0
281.116302 236.0
281.279175 116.0
281.369293 180.0
281.439423 108.0
281.480957 172.0
281.586334 108.0
281.661377 208.0
281.993073 156.0
282.065948 252.0
282.09198 240.0
282.120972 64.0
282.161072 44.0
282.211212 192.0
282.434296 96.0
282.549011 148.0
282.572449 52.0
282.726349 108.0
282.76651 148.0
282.830109 96.0
282.860229 112.0
282.967346 136.0
283.073029 136.0
283.144836 136.0
283.185028 104.0
283.288849 84.0
283.369263 128.0
283.403137 208.0
283.483185 92.0
283.523376 88.0
283.603821 136.0
283.721161 52.0
283.747955 100.0
283.82843 68.0
283.860687 128.0
284.076965 76.0
284.150421 136.0
284.32489 124.0
284.687469 252.0
284.779907 236.0
284.956177 76.0
285.120728 124.0
285.19812 108.0
285.309052 208.0
285.406555 220.0
285.470428 128.0
285.59314 128.0
285.625153 148.0
285.813538 84.0
285.91449 88.0
286.116455 72.0
286.170319 112.0
286.193878 28.0
286.456573 88.0
286.550903 156.0
286.689056 108.0
286.733826 196.0
286.887909 212.0
286.992401 124.0
287.04718 200.0
287.097229 372.0
287.154266 100.0
287.204865 180.0
287.248718 164.0
287.306061 192.0
287.329681 80.0
287.383667 156.0
287.407288 152.0
287.498383 104.0
287.552399 60.0
287.580933 192.0
287.606567 132.0
287.788696 168.0
287.984558 156.0
288.071381 108.0
288.08902 168.0
288.151245 148.0
288.173706 180.0
288.254822 128.0
288.28183 160.0
288.335907 212.0
288.36972 124.0
288.429596 184.0
288.660431 72.0
288.737335 140.0
288.785583 160.0
288.832916 88.0
288.870117 92.0
289.067993 280.0
289.157745 168.0
289.205109 72.0
289.26944 44.0
289.298035 132.0
289.323578 192.0
289.401459 116.0
289.425171 140.0
289.594482 48.0
289.630859 296.0
289.883972 200.0
289.953613 112.0
289.977325 120.0
290.021912 104.0
290.06015 356.0
290.080048 224.0
290.17392 176.0
290.221405 124.0
290.279053 72.0
290.343475 168.0
290.533417 124.0
290.608063 116.0
290.730225 176.0
290.882935 116.0
290.920288 80.0
290.967804 160.0
291.089783 224.0
291.208893 56.0
291.293823 104.0
291.433105 56.0
291.493073 180.0
291.589417 108.0
291.647186 132.0
291.753571 204.0
291.834167 196.0
292.031403 188.0
292.103485 164.0
292.136841 52.0
292.201477 80.0
292.283142 124.0
292.310364 120.0
292.364807 120.0
292.392029 64.0
292.429474 184.0
292.497559 156.0
292.52478 84.0
292.59967 160.0
292.712036 120.0
292.773315 188.0
292.916382 56.0
292.967468 312.0
293.059448 132.0
293.102814 2084.0
293.16507 296.0
293.188934 128.0
293.22641 112.0
293.263916 136.0
293.325256 140.0
293.363342 140.0
293.536652 168.0
293.615997 164.0
293.703766 124.0
293.806091 180.0
293.850433 68.0
293.874329 124.0
293.908447 204.0
294.003998 120.0
294.066254 148.0
294.103821 732.0
294.410217 124.0
294.487457 144.0
294.72287 328.0
294.789398 184.0
294.994476 192.0
295.083099 568.0
295.115814 880.0
295.186951 136.0
295.230377 44.0
295.36377 48.0
295.432556 148.0
295.538239 192.0
295.699707 216.0
295.808624 120.0
295.890778 172.0
295.918152 104.0
296.024292 160.0
296.08429 524.0
296.12561 2516.0
296.38739 132.0
296.425079 28.0
296.524475 84.0
296.630402 168.0
296.990753 148.0
297.086792 168.0
297.134125 468.0
297.177063 116.0
297.258331 56.0
297.381897 128.0
297.440247 100.0
297.653076 76.0
297.697723 128.0
297.742371 40.0
297.800751 136.0
297.90036 72.0
297.927856 148.0
297.97937 104.0
298.010315 160.0
298.033051 112.0
298.066742 300.0
298.086792 136.0
298.147217 100.0
298.195862 76.0
298.274933 188.0
298.350555 112.0
298.570587 104.0
298.642822 204.0
298.724731 64.0
298.832031 112.0
298.983429 72.0
299.119812 256.0
299.203705 136.0
299.238159 108.0
299.307007 120.0
299.331116 176.0
299.413757 104.0
299.437866 80.0
299.473083 192.0
299.618011 188.0
299.668671 120.0
299.86853 168.0
299.899536 136.0
299.999512 220.0
300.120392 408.0
300.158081 236.0
300.189117 128.0
300.233948 48.0
300.309845 52.0
300.351227 68.0
300.563049 160.0
300.693695 112.0
300.734222 44.0
300.800018 156.0
300.836243 172.0
300.914856 180.0
300.998383 108.0
301.033325 180.0
301.079468 168.0
301.129639 232.0
301.170563 164.0
301.200165 160.0
301.22879 200.0
301.393799 128.0
301.417999 180.0
301.63916 84.0
301.66684 212.0
301.770538 84.0
301.808563 152.0
301.873108 132.0
301.898376 148.0
301.933075 124.0
302.048859 120.0
302.199402 100.0
302.28244 172.0
302.323975 84.0
302.410492 108.0
302.526611 148.0
302.573181 180.0
302.677063 116.0
302.846741 60.0
303.028717 220.0
303.080536 256.0
303.110046 96.0
303.144684 96.0
303.250427 132.0
303.283325 112.0
303.314514 116.0
303.422485 204.0
303.529938 120.0
303.623077 176.0
303.695923 44.0
303.727753 136.0
303.824249 112.0
303.872833 172.0
303.935272 140.0
304.008148 108.0
304.042847 100.0
304.087982 156.0
304.121399 172.0
304.181702 92.0
304.209442 132.0
304.404694 104.0
304.563629 60.0
304.685211 92.0
304.737335 132.0
304.775543 176.0
304.8013 136.0
304.870117 56.0
304.948853 124.0
305.021301 128.0
305.103271 8420.0
305.237854 128.0
305.280426 132.0
305.310883 184.0
305.418671 48.0
305.505646 64.0
305.597351 100.0
305.656586 136.0
305.897034 80.0
306.002197 152.0
306.013916 84.0
306.026154 92.0
306.040527 156.0
306.089661 2736.0
306.156525 184.0
306.187866 148.0
306.239655 96.0
306.286987 164.0
306.348083 96.0
306.392731 108.0
306.426849 172.0
306.452606 212.0
306.490906 208.0
306.522278 108.0
306.581512 56.0
306.632538 144.0
306.676727 144.0
306.707977 204.0
306.783661 112.0
306.818542 116.0
306.850616 140.0
306.933594 44.0
306.96701 144.0
307.010315 80.0
307.098145 744.0
307.15329 96.0
307.359131 168.0
307.394012 156.0
307.421936 164.0
307.509186 116.0
307.704681 104.0
307.797241 120.0
307.882751 32.0
307.913086 180.0
307.97168 156.0
308.079407 144.0
308.12027 164.0
308.190125 136.0
308.233978 88.0
308.335022 176.0
308.395081 192.0
308.728455 68.0
308.990784 152.0
309.06424 64.0
309.095734 76.0
309.256714 64.0
309.291718 56.0
309.534058 164.0
309.571808 116.0
309.613831 84.0
309.733337 132.0
309.760925 64.0
309.845001 188.0
309.929108 88.0
310.093781 120.0
310.137787 452.0
310.209473 36.0
310.283081 160.0
310.321655 188.0
310.374237 92.0
310.51413 256.0
310.600464 180.0
310.675842 104.0
310.844269 144.0
310.903931 164.0
310.935516 64.0
311.011993 76.0
311.110443 2396.0
311.15451 232.0
311.247925 40.0
311.400513 160.0
311.51001 200.0
311.809998 116.0
311.908386 136.0
311.941895 112.0
312.003326 88.0
312.034943 132.0
312.111511 296.0
312.189667 36.0
312.235931 152.0
312.336792 120.0
312.428833 176.0
312.4617 156.0
312.510925 108.0
312.604767 108.0
312.67514 180.0
312.731445 52.0
312.763123 160.0
312.79129 108.0
312.873077 156.0
312.936096 60.0
313.091217 108.0
313.119904 180.0
313.182129 40.0
313.492157 116.0
313.559113 148.0
313.696564 172.0
313.721252 48.0
313.901062 56.0
314.091492 96.0
314.11618 164.0
314.262573 204.0
314.423157 148.0
314.451385 188.0
314.484344 164.0
314.5961 120.0
314.683411 176.0
314.730255 172.0
314.769104 140.0
314.846802 132.0
314.91037 128.0
315.009277 108.0
315.044586 124.0
315.210632 176.0
315.245972 108.0
315.270721 224.0
315.472168 152.0
315.496918 112.0
315.631287 132.0
315.701996 104.0
315.726746 164.0
315.755035 80.0
315.808105 80.0
315.843353 128.0
316.101715 216.0
316.262268 156.0
316.338867 68.0
316.387634 152.0
316.476929 32.0
316.630585 68.0
316.735443 64.0
316.763794 140.0
316.880676 132.0
316.963531 116.0
317.10675 116.0
317.160645 56.0
317.274078 204.0
317.536469 92.0
317.56839 148.0
317.662994 184.0
317.741577 184.0
317.841553 28.0
317.908966 72.0
317.972839 132.0
318.061584 144.0
318.107391 88.0
318.260376 108.0
318.494751 132.0
318.589569 116.0
318.62265 152.0
318.768311 76.0
318.878479 120.0
319.082642 148.0
319.173523 44.0
319.280212 192.0
319.319336 92.0
319.429596 64.0
319.519165 264.0
319.571899 136.0
319.711792 176.0
319.774719 108.0
319.806 92.0
319.838806 112.0
319.931335 148.0
319.956268 168.0
320.027466 224.0
320.112915 104.0
320.15567 108.0
320.269623 76.0
320.397858 116.0
320.426361 88.0
320.622345 96.0
320.842682 168.0
320.90036 136.0
320.946899 80.0
321.0159 160.0
321.04071 100.0
321.089355 112.0
321.174805 108.0
321.214203 100.0
321.264862 60.0
321.324799 132.0
321.368134 112.0
321.435394 148.0
321.488922 92.0
321.553162 212.0
321.594208 120.0
321.629395 132.0
321.641479 48.0
321.654633 120.0
321.724487 184.0
321.752319 100.0
321.809021 156.0
321.846222 200.0
321.903015 168.0
321.935547 140.0
321.986969 92.0
322.046844 176.0
322.136627 360.0
322.241516 312.0
322.273499 72.0
322.29541 128.0
322.323975 212.0
322.393616 92.0
322.431 140.0
322.463867 316.0
322.503204 108.0
322.537476 128.0
322.58136 380.0
322.706268 288.0
322.73288 176.0
322.769257 240.0
322.808228 248.0
322.840485 228.0
322.857147 136.0
322.902252 352.0
322.966095 388.0
323.007263 364.0
323.059143 792.0
323.114777 219472.0
323.224792 104.0
323.265503 144.0
323.312439 128.0
323.352386 112.0
323.381531 236.0
323.406372 112.0
323.460175 340.0
323.470093 124.0
323.486694 392.0
323.532257 228.0
323.559418 232.0
323.599457 260.0
323.638611 176.0
323.672028 168.0
323.703491 1056.0
323.731384 264.0
323.763092 268.0
323.830872 148.0
323.863922 76.0
323.901825 184.0
323.939819 260.0
323.98172 148.0
324.117401 46132.0
324.198853 140.0
324.225372 88.0
324.252502 224.0
324.293121 72.0
324.316437 152.0
324.369476 100.0
324.45108 56.0
324.460327 112.0
324.473083 188.0
324.51181 120.0
324.567017 220.0
324.62384 184.0
324.656647 88.0
324.730408 124.0
324.776276 116.0
324.825836 128.0
324.86853 84.0
324.8992 104.0
324.945709 192.0
324.972168 148.0
325.01767 184.0
325.056274 104.0
325.120941 7008.0
325.177643 180.0
325.226776 196.0
325.242645 172.0
325.309998 100.0
325.346954 36.0
325.397858 116.0
325.449615 132.0
325.514679 264.0
325.551117 92.0
325.588562 164.0
325.629822 108.0
325.669464 96.0
325.704468 80.0
325.74173 128.0
325.780182 204.0
325.840546 156.0
325.87616 96.0
325.895294 116.0
325.943207 84.0
325.954315 124.0
326.000488 256.0
326.026978 128.0
326.060089 244.0
326.124695 864.0
326.186859 152.0
326.214691 156.0
326.249786 168.0
326.287628 128.0
326.351868 172.0
326.383118 244.0
326.434601 192.0
326.461029 180.0
326.535522 232.0
326.666168 108.0
326.704651 164.0
326.756104 164.0
326.792084 48.0
326.868835 108.0
326.898041 72.0
326.939606 40.0
326.979156 160.0
327.004395 104.0
327.034302 144.0
327.105713 192.0
327.135254 68.0
327.174377 72.0
327.242432 128.0
327.316895 100.0
327.350006 96.0
327.382111 48.0
327.391296 120.0
327.402985 84.0
327.445038 132.0
327.508453 148.0
327.534912 336.0
327.586212 96.0
327.77182 80.0
327.872345 84.0
327.905548 76.0
327.935425 72.0
328.054077 84.0
328.116028 620.0
328.222015 156.0
328.307281 124.0
328.5466 56.0
328.629578 64.0
328.687317 84.0
328.719788 48.0
328.748657 32.0
328.781128 60.0
328.814301 104.0
328.866821 184.0
329.041016 136.0
329.129547 200.0
329.402161 44.0
329.627869 108.0
329.707184 60.0
329.777924 60.0
329.861053 160.0
330.07074 48.0
330.096069 52.0
330.225159 80.0
330.262421 116.0
330.36731 68.0
330.399872 52.0
330.595245 76.0
330.678497 124.0
330.743652 48.0
330.811249 272.0
330.837769 164.0
330.863098 64.0
330.913788 48.0
330.978943 84.0
331.141907 196.0
331.228851 104.0
331.257812 64.0
331.283173 136.0
331.355621 160.0
331.406342 148.0
331.663666 80.0
331.754272 128.0
331.950073 124.0
332.018951 168.0
332.073364 88.0
332.105988 104.0
332.269226 88.0
332.294647 132.0
332.378082 124.0
332.592194 144.0
332.751923 136.0
332.842682 52.0
332.95285 120.0
333.031525 144.0
333.25943 164.0
333.34198 132.0
333.376678 76.0
333.478424 56.0
333.696411 108.0
333.747437 108.0
333.896515 152.0
333.925629 92.0
334.046539 164.0
334.095917 176.0
334.220276 204.0
334.50415 56.0
334.533264 356.0
334.617004 56.0
334.79541 76.0
334.826965 48.0
335.010315 136.0
335.134094 152.0
335.180298 128.0
335.362 100.0
335.395386 196.0
335.484039 144.0
335.673645 120.0
335.764801 36.0
335.81723 156.0
335.888794 60.0
335.928925 312.0
336.290161 96.0
336.366821 112.0
336.468018 144.0
336.48349 104.0
336.48822 140.0
336.520142 184.0
336.613556 72.0
336.869141 88.0
336.978821 108.0
337.009552 92.0
337.064362 168.0
337.089935 128.0
337.130127 176.0
337.173981 152.0
337.287292 40.0
337.371368 176.0
337.429871 48.0
337.464447 156.0
337.623657 88.0
337.696808 40.0
337.91629 116.0
337.960175 140.0
338.029724 276.0
338.073608 40.0
338.205383 124.0
338.242218 64.0
338.386902 232.0
338.421356 48.0
338.49826 96.0
338.61911 96.0
338.648407 52.0
338.686707 52.0
338.915833 44.0
339.277771 116.0
339.417969 60.0
339.465637 116.0
339.494629 84.0
339.63501 44.0
339.667358 100.0
339.693024 128.0
339.861786 100.0
339.902161 76.0
339.935181 168.0
339.960876 80.0
340.120361 88.0
340.349976 84.0
340.551941 216.0
340.654785 76.0
340.724579 128.0
340.779694 112.0
340.842163 92.0
341.055298 212.0
341.118286 260.0
341.242798 128.0
341.375153 52.0
341.474457 164.0
341.540649 72.0
341.709869 108.0
341.750336 172.0
341.776093 48.0
341.854584 48.0
341.898865 140.0
342.079834 92.0
342.129211 136.0
342.17099 152.0
342.265625 32.0
342.420288 124.0
342.5242 96.0
342.622894 64.0
342.65802 128.0
342.703949 80.0
342.729736 100.0
342.840271 108.0
342.950836 120.0
343.04599 152.0
343.118469 76.0
343.149902 104.0
343.183075 72.0
343.249451 44.0
343.312134 164.0
343.411713 60.0
343.500244 140.0
343.577698 80.0
343.640442 140.0
343.88028 104.0
343.917206 120.0
344.083313 120.0
344.120239 128.0
344.452606 84.0
344.648376 160.0
344.766632 116.0
344.802185 148.0
344.877502 96.0
344.944031 52.0
345.066315 256.0
345.117706 144.0
345.125946 140.0
345.139801 172.0
345.239838 160.0
345.298981 108.0
345.354462 64.0
345.454346 108.0
345.576416 184.0
345.74295 52.0
345.813049 140.0
345.890991 104.0
345.979828 176.0
346.159485 104.0
346.327911 144.0
346.413086 160.0
346.527954 80.0
346.622986 80.0
346.661346 84.0
347.350922 200.0
347.388824 112.0
347.625458 108.0
347.655151 40.0
347.694336 216.0
347.933533 72.0
347.959534 176.0
348.13031 132.0
348.24173 116.0
348.368011 88.0
348.479462 96.0
348.572357 180.0
348.72937 112.0
349.24527 108.0
349.416382 52.0
349.494507 180.0
349.554047 176.0
349.829437 136.0
349.866669 72.0
350.015594 96.0
350.116333 84.0
350.153381 188.0
350.253937 156.0
350.384338 152.0
350.71225 72.0
350.753265 116.0
351.017944 136.0
351.096252 100.0
351.316315 48.0
351.346161 56.0
351.469299 144.0
351.607361 116.0
351.67453 180.0
351.756653 28.0
352.137909 1324.0
352.234619 64.0
352.264496 48.0
352.580231 116.0
352.716614 72.0
352.77594 88.0
352.79657 124.0
352.880402 104.0
352.989532 124.0
353.136841 456.0
353.178955 196.0
353.303711 80.0
353.356079 108.0
353.504395 76.0
353.584351 152.0
353.741547 88.0
353.891296 76.0
353.928741 40.0
354.145935 136.0
354.355713 148.0
354.408173 60.0
354.558044 44.0
354.68924 156.0
354.824188 88.0
354.850433 148.0
354.906677 132.0
355.052917 76.0
355.142914 112.0
355.656952 188.0
355.713257 64.0
355.874695 144.0
356.066193 136.0
356.118774 68.0
356.177704 180.0
356.321625 104.0
356.377991 112.0
356.404266 76.0
356.501984 192.0
356.588745 132.0
356.873413 132.0
356.986908 148.0
357.291565 164.0
357.340485 188.0
357.697968 392.0
357.78833 88.0
358.093323 140.0
358.161133 188.0
358.40976 48.0
358.745178 104.0
358.982727 124.0
359.338257 196.0
360.080902 56.0
360.171539 148.0
360.201752 144.0
360.243317 160.0
360.41333 40.0
360.613617 44.0
360.980316 104.0
361.113159 152.0
361.175507 136.0
361.309357 144.0
361.426636 128.0
361.706696 64.0
361.78241 92.0
361.871094 180.0
362.009583 120.0
362.358063 208.0
362.650574 120.0
362.778717 216.0
362.979645 48.0
363.044098 160.0
363.074463 80.0
363.165466 152.0
363.366516 180.0
363.560028 132.0
364.057343 100.0
364.16748 156.0
364.668976 184.0
364.881866 52.0
365.011139 88.0
365.505615 120.0
365.612152 128.0
365.874786 92.0
366.202271 164.0
366.240356 108.0
366.44986 80.0
366.480347 64.0
366.510834 92.0
366.960571 136.0
367.059723 108.0
367.349579 96.0
367.513611 100.0
367.605194 172.0
367.712036 144.0
367.773102 40.0
368.273285 72.0
368.334412 140.0
368.559784 56.0
368.880829 108.0
368.959015 240.0
369.167572 136.0
369.209625 204.0
369.358795 48.0
369.442963 172.0
369.69165 128.0
369.764374 128.0
369.798798 92.0
369.844025 108.0
370.005493 164.0
370.066772 60.0
370.143341 176.0
370.208435 140.0
370.269714 76.0
370.361633 116.0
370.668121 148.0
370.898071 136.0
371.009216 128.0
371.246948 92.0
371.454041 72.0
371.492401 40.0
371.574982 152.0
371.680389 48.0
371.810883 144.0
371.935852 120.0
372.145447 2892.0
372.244659 116.0
372.367554 168.0
372.440521 148.0
372.471252 44.0
372.516449 180.0
372.567291 56.0
372.598022 100.0
372.659485 156.0
372.817017 92.0
372.909271 136.0
373.055328 208.0
373.14566 1172.0
373.308289 192.0
373.539856 52.0
373.693726 184.0
373.809174 128.0
374.022705 132.0
374.070862 160.0
374.152863 124.0
374.16925 144.0
374.228699 96.0
374.274902 96.0
374.410767 144.0
374.633087 64.0
374.748657 180.0
374.968292 56.0
375.129547 168.0
375.135284 232.0
375.272827 88.0
375.311401 128.0
375.361511 168.0
375.535065 44.0
375.666199 140.0
376.044342 160.0
376.117676 136.0
376.171722 200.0
376.272583 152.0
376.689148 44.0
376.727783 64.0
376.859131 140.0
376.897766 64.0
377.06781 32.0
377.319061 128.0
377.349548 148.0
377.670929 56.0
377.721222 96.0
377.810181 64.0
378.228851 200.0
378.363586 128.0
378.653992 204.0
378.715973 88.0
379.100342 116.0
379.16153 192.0
379.18866 64.0
379.250671 84.0
379.308807 68.0
379.359192 52.0
379.525909 76.0
379.576294 192.0
379.840027 144.0
379.913727 116.0
379.999084 152.0
380.037872 216.0
380.119354 108.0
380.286224 64.0
380.54245 64.0
380.58902 100.0
380.705536 120.0
380.763763 148.0
380.853119 184.0
380.895844 96.0
381.000702 140.0
381.148346 128.0
381.179443 140.0
381.398804 128.0
381.540894 136.0
381.649414 132.0
381.781982 36.0
382.034546 200.0
382.719757 164.0
382.883301 120.0
383.035187 84.0
383.436523 100.0
383.506653 160.0
383.752258 144.0
384.204651 200.0
384.462158 216.0
384.692444 104.0
384.719788 128.0
384.875946 56.0
384.934509 76.0
385.145416 144.0
385.325104 88.0
385.371979 56.0
385.593079 72.0
385.774506 96.0
385.840973 52.0
386.125427 128.0
386.498047 100.0
386.54718 100.0
386.655151 132.0
386.693695 140.0
386.771973 112.0
387.127228 92.0
387.208649 68.0
387.378906 208.0
387.60614 164.0
387.671692 152.0
387.704102 32.0
387.898712 172.0
388.013763 56.0
388.143158 160.0
388.233337 96.0
388.300476 132.0
388.340698 108.0
388.430664 152.0
388.507904 64.0
388.562805 136.0
388.645203 36.0
388.684448 72.0
388.73465 192.0
388.802185 104.0
388.856232 124.0
388.904205 128.0
388.963074 64.0
389.003815 96.0
389.084778 164.0
389.142914 192.0
389.177307 168.0
389.282257 164.0
389.320374 172.0
389.355347 88.0
389.414612 80.0
389.44339 172.0
389.501038 64.0
389.555511 120.0
389.56842 104.0
389.577637 64.0
389.630676 112.0
389.677795 212.0
389.705322 32.0
389.758881 152.0
389.801086 204.0
389.874329 240.0
389.940918 112.0
389.998108 356.0
390.047333 348.0
390.156647 89580.0
390.237854 152.0
390.30304 52.0
390.371094 140.0
390.411407 76.0
390.458405 116.0
390.490631 36.0
390.517456 232.0
390.563202 132.0
390.66217 136.0
390.696442 196.0
390.72467 100.0
390.765167 204.0
390.798035 52.0
390.872772 184.0
390.886688 176.0
390.923309 164.0
390.974426 124.0
391.019531 276.0
391.073944 316.0
391.159363 23428.0
391.232605 108.0
391.295624 68.0
391.320404 240.0
391.354736 76.0
391.399078 108.0
391.407074 76.0
391.505157 120.0
391.541687 44.0
391.571838 64.0
391.620056 128.0
391.646149 68.0
391.706055 72.0
391.723114 44.0
391.739075 80.0
391.766022 252.0
391.819824 44.0
391.908051 84.0
392.04657 92.0
392.085266 100.0
392.160309 2172.0
392.208954 320.0
392.253357 68.0
392.310303 56.0
392.321472 48.0
392.430481 40.0
392.482697 56.0
392.512817 76.0
392.564941 148.0
392.627502 148.0
392.670593 68.0
392.752258 48.0
392.802002 152.0
392.865875 224.0
392.923523 116.0
392.948273 152.0
392.992828 228.0
393.030701 76.0
393.083649 148.0
393.163818 256.0
393.206757 124.0
393.275146 92.0
393.316498 116.0
393.35202 112.0
393.398682 112.0
393.41153 160.0
393.428314 80.0
393.458618 116.0
393.498108 252.0
393.535217 112.0
393.596802 56.0
393.624451 208.0
393.655365 96.0
393.66571 80.0
393.694336 172.0
393.731079 44.0
393.765472 196.0
393.79834 112.0
393.849548 100.0
394.035217 92.0
394.094971 96.0
394.284149 88.0
394.382965 48.0
394.438293 144.0
394.494507 144.0
394.612244 52.0
394.679443 48.0
394.715027 48.0
394.800842 40.0
394.847565 132.0
394.891693 108.0
394.936493 80.0
395.003754 84.0
395.060822 48.0
395.089081 136.0
395.193634 112.0
395.328156 40.0
395.408966 116.0
395.496185 140.0
395.548523 116.0
395.585419 132.0
395.617096 48.0
395.644806 52.0
395.698883 132.0
395.910095 52.0
395.95639 180.0
396.020996 56.0
396.135864 36.0
396.179413 64.0
396.329987 140.0
396.540009 36.0
396.597748 192.0
396.658905 152.0
396.75061 88.0
396.833344 72.0
397.233887 160.0
397.408447 100.0
397.69812 140.0
397.928375 144.0
398.011749 64.0
398.103058 124.0
398.230164 176.0
398.285767 112.0
398.57373 76.0
398.667175 84.0
398.846008 104.0
398.881775 32.0
398.921539 124.0
399.889893 140.0
400.150818 136.0
400.278229 148.0
400.325989 96.0
400.449463 148.0
400.672516 164.0
400.915588 132.0
401.134796 68.0
401.350067 104.0
401.420258 100.0
401.661133 164.0
401.71698 80.0
401.800751 124.0
401.83667 64.0
401.896515 104.0
402.156097 164.0
402.690887 96.0
402.842682 116.0
402.958527 92.0
403.050415 120.0
403.090393 36.0
403.130341 180.0
403.158569 124.0
403.214264 144.0
403.25824 96.0
403.290192 132.0
403.498077 136.0
403.717987 152.0
403.757965 132.0
403.787659 172.0
403.82251 116.0
403.857971 112.0
404.142181 176.0
404.266022 116.0
404.338074 180.0
404.494171 84.0
404.522186 120.0
404.673737 140.0
404.998688 80.0
405.062775 144.0
405.178925 128.0
405.213043 148.0
405.279083 200.0
405.584808 84.0
405.707916 92.0
405.908386 112.0
405.950653 140.0
406.036713 124.0
406.233246 120.0
406.26535 68.0
406.518127 40.0
406.78952 128.0
406.915466 96.0
407.07309 80.0
407.176483 136.0
407.284912 72.0
407.365265 132.0
407.457672 68.0
407.583282 120.0
407.721252 120.0
407.771088 116.0
407.851471 92.0
408.072571 84.0
408.128845 60.0
408.225342 176.0
408.494812 220.0
408.730743 100.0
408.990936 48.0
409.291687 108.0
409.440674 44.0
409.573578 140.0
409.650116 56.0
409.696503 76.0
409.873505 152.0
409.964386 36.0
410.109467 104.0
410.202179 132.0
410.593262 56.0
410.694092 184.0
410.865906 196.0
411.00473 188.0
411.242828 228.0
411.425354 92.0
411.993164 156.0
412.054474 56.0
412.208008 48.0
412.466675 44.0
412.806274 132.0
412.919495 28.0
413.097076 160.0
413.15744 152.0
413.206696 72.0
413.247162 64.0
413.372589 36.0
413.51828 96.0
413.587097 44.0
413.672089 68.0
413.821869 76.0
413.890717 64.0
414.34433 116.0
414.457764 96.0
414.510437 152.0
414.810364 92.0
415.167145 128.0
415.268524 104.0
415.406433 44.0
415.824371 132.0
415.917725 128.0
415.990784 124.0
416.03949 132.0
416.07196 40.0
416.108521 96.0
416.169403 160.0
416.587708 148.0
417.197784 156.0
417.250122 52.0
417.41275 160.0
417.498138 84.0
417.685242 100.0
417.803192 156.0
418.218262 136.0
418.800507 148.0
418.934906 48.0
419.252716 128.0
419.411682 52.0
419.472809 92.0
419.51358 44.0
419.713348 68.0
419.90094 88.0
420.227264 96.0
420.272125 132.0
420.459839 68.0
420.489441 60.0
420.56189 212.0
420.700653 120.0
420.790131 92.0
420.921143 44.0
421.362244 176.0
421.40979 200.0
421.476654 192.0
421.562469 140.0
421.972778 52.0
422.314697 124.0
422.60675 132.0
422.740173 148.0
422.977539 108.0
423.103394 140.0
423.33783 104.0
423.370575 76.0
423.456573 160.0
423.608124 176.0
423.669586 76.0
423.886719 56.0
424.005585 112.0
424.176117 164.0
424.378601 152.0
424.427795 152.0
424.57132 96.0
424.65744 80.0
424.895355 160.0
425.063568 196.0
425.201843 184.0
425.490417 128.0
425.638245 88.0
425.683411 80.0
426.220337 28.0
426.511047 44.0
426.574951 116.0
426.784607 92.0
426.825745 104.0
426.932648 112.0
427.043701 164.0
427.693787 200.0
427.953125 52.0
428.084869 164.0
428.167236 176.0
428.36496 132.0
428.422607 176.0
428.525604 44.0
428.706909 132.0
429.230438 112.0
429.543854 120.0
429.62381 168.0
429.71106 168.0
429.869781 56.0
429.985352 32.0
430.183472 132.0
430.228882 96.0
430.348602 68.0
430.538544 188.0
430.691345 92.0
430.840057 112.0
430.889648 148.0
431.129303 124.0
431.286346 104.0
431.497162 148.0
431.541412 216.0
431.732849 156.0
431.956177 104.0
432.161041 208.0
432.225098 108.0
432.916382 120.0
433.21875 184.0
433.454895 108.0
433.612366 104.0
433.67038 116.0
433.740845 164.0
433.938507 160.0
434.364929 308.0
434.761108 112.0
435.153107 192.0
435.205261 60.0
435.433655 40.0
435.549957 88.0
435.583191 164.0
435.699493 92.0
435.745209 124.0
435.890625 160.0
436.277161 136.0
436.381073 52.0
436.539093 92.0
436.580688 276.0
436.609772 148.0
436.738708 104.0
436.855194 68.0
437.26712 84.0
437.471069 132.0
437.512695 96.0
437.602997 116.0
437.845795 124.0
437.895782 116.0
438.062378 148.0
438.095703 184.0
438.158203 172.0
438.344299 156.0
439.137756 152.0
439.258728 68.0
440.11618 156.0
440.189423 216.0
440.239532 140.0
440.423279 148.0
440.502655 128.0
440.611267 152.0
440.861969 84.0
441.171265 132.0
441.254852 148.0
441.721924 152.0
441.869659 80.0
442.129089 156.0
442.183472 160.0
442.229523 92.0
442.623047 188.0
442.861755 28.0
443.092133 92.0
443.167542 48.0
443.24295 192.0
443.371704 116.0
443.418976 52.0
443.582428 64.0
443.963959 168.0
444.039459 176.0
444.198853 56.0
444.286926 88.0
444.90802 164.0
445.176727 264.0
445.218719 104.0
445.311127 108.0
445.554749 108.0
445.869904 120.0
446.18515 124.0
446.384369 176.0
447.148376 180.0
447.796753 40.0
447.84845 72.0
448.192719 116.0
448.386566 184.0
448.517242 172.0
449.665283 140.0
449.867065 180.0
449.943024 244.0
450.956818 104.0
451.240051 168.0
451.472595 140.0
451.502197 172.0
451.616394 136.0
452.708282 124.0
452.801453 152.0
452.894623 120.0
453.153046 180.0
453.479309 132.0
453.589508 108.0
454.003082 96.0
454.187378 128.0
454.441925 80.0
454.514038 92.0
454.734711 84.0
455.053101 148.0
455.248413 176.0
455.384308 156.0
455.545715 124.0
455.666779 224.0
455.830353 124.0
456.202057 3184.0
456.310669 168.0
456.689117 160.0
456.901794 136.0
457.123047 156.0
457.199158 884.0
457.280518 64.0
457.374146 108.0
457.472046 100.0
457.638092 116.0
457.876556 156.0
457.910614 64.0
458.201019 444.0
458.234253 192.0
458.306793 164.0
458.364502 100.0
458.460175 228.0
458.592316 108.0
458.681824 128.0
458.856598 124.0
458.937592 52.0
459.014343 148.0
459.108154 52.0
459.180664 96.0
459.21051 140.0
459.304352 136.0
459.509125 56.0
459.8078 92.0
460.025482 60.0
460.14502 100.0
460.196259 108.0
460.329865 68.0
460.473816 84.0
460.636139 108.0
460.939453 100.0
460.96936 116.0
461.294189 136.0
461.507935 68.0
462.158081 80.0
462.277863 92.0
462.607422 92.0
462.682739 132.0
463.211212 128.0
463.304688 112.0
463.446838 52.0
463.712524 76.0
463.845398 80.0
464.171204 100.0
464.317017 52.0
464.46286 132.0
464.582947 96.0
464.866119 124.0
465.102173 116.0
465.136505 100.0
465.343719 120.0
465.561554 96.0
466.119995 196.0
466.644379 148.0
466.781952 80.0
466.823029 80.0
466.915253 168.0
467.078705 84.0
467.247833 188.0
467.306702 84.0
467.422882 104.0
467.494202 104.0
467.539062 256.0
467.582092 96.0
467.659576 40.0
467.999634 104.0
468.0513 152.0
468.369995 132.0
468.546631 76.0
468.645721 44.0
468.869781 84.0
468.912872 96.0
468.986145 112.0
469.287903 40.0
469.339661 64.0
469.387085 40.0
469.451752 196.0
469.53009 160.0
469.77066 68.0
469.782501 64.0
469.826935 144.0
469.870148 156.0
469.965057 80.0
470.016846 116.0
470.078247 136.0
470.120392 156.0
470.366394 64.0
470.399719 112.0
470.476044 80.0
470.539093 60.0
470.569305 148.0
470.664276 76.0
470.763611 92.0
470.828369 136.0
470.862946 72.0
471.018433 116.0
471.052979 108.0
471.130737 48.0
471.19986 116.0
471.231445 168.0
471.270844 140.0
471.281952 60.0
471.297363 140.0
471.346252 112.0
471.36145 60.0
471.37149 44.0
471.404327 144.0
471.467743 64.0
471.515289 92.0
471.566742 128.0
471.631989 108.0
471.697968 164.0
471.745544 148.0
471.810852 84.0
471.856781 144.0
471.891357 144.0
471.964844 124.0
472.003784 96.0
472.038361 84.0
472.077118 104.0
472.130676 196.0
472.172424 124.0
472.224518 180.0
472.320038 124.0
472.411896 164.0
472.472687 212.0
472.532257 124.0
472.564758 120.0
472.602173 140.0
472.648132 136.0
472.76944 76.0
472.847015 152.0
472.892578 280.0
472.911896 116.0
472.92215 244.0
472.992035 120.0
473.043243 280.0
473.134521 148.0
473.180359 96.0
473.26416 160.0
473.310974 76.0
473.342224 248.0
473.397064 196.0
473.45105 220.0
473.478394 312.0
473.515564 196.0
473.551514 104.0
473.578888 124.0
473.617432 140.0
473.623444 196.0
473.677185 160.0
473.746735 180.0
473.796783 88.0
473.842285 208.0
473.876801 124.0
473.973328 172.0
473.98587 148.0
474.031342 328.0
474.077942 656.0
474.097015 320.0
474.214539 192764.0
474.298248 160.0
474.336487 112.0
474.343231 144.0
474.403412 236.0
474.475983 148.0
474.539856 196.0
474.598663 348.0
474.647095 164.0
474.670319 160.0
474.67688 256.0
474.725922 296.0
474.770081 160.0
474.784668 192.0
474.869812 212.0
474.929169 1004.0
474.975952 136.0
474.994781 88.0
475.0271 196.0
475.046967 200.0
475.065063 512.0
475.070801 148.0
475.216431 66320.0
475.336121 356.0
475.357666 176.0
475.420166 176.0
475.435822 108.0
475.449646 68.0
475.47287 180.0
475.487366 160.0
475.530701 172.0
475.601898 184.0
475.635742 264.0
475.666351 148.0
475.736389 92.0
475.80365 164.0
475.888367 72.0
475.946289 140.0
475.960999 188.0
476.027313 204.0
476.086548 152.0
476.137299 272.0
476.217834 9520.0
476.33783 176.0
476.37619 172.0
476.447845 72.0
476.499542 76.0
476.548157 116.0
476.611237 212.0
476.680084 176.0
476.743561 104.0
476.837067 72.0
476.881775 116.0
476.92038 244.0
476.950195 132.0
477.009003 56.0
477.04007 104.0
477.112305 88.0
477.160736 48.0
477.223877 1056.0
477.29071 104.0
477.331268 60.0
477.381195 112.0
477.465088 140.0
477.539276 276.0
477.58078 80.0
477.644836 272.0
477.701508 108.0
477.713318 60.0
477.732208 124.0
477.800995 128.0
477.863037 232.0
477.918854 56.0
477.947144 100.0
478.014069 128.0
478.072144 200.0
478.119568 100.0
478.16626 120.0
478.19632 156.0
478.249878 128.0
478.263062 104.0
478.34613 76.0
478.354279 152.0
478.402771 84.0
478.511414 84.0
478.579651 60.0
478.613861 108.0
478.660065 120.0
478.724396 96.0
478.742035 68.0
478.825531 48.0
478.865631 104.0
478.907043 100.0
478.96582 188.0
478.999756 200.0
479.066528 172.0
479.103485 136.0
479.195587 96.0
479.254913 168.0
479.306763 68.0
479.370087 104.0
479.422363 60.0
479.516388 96.0
479.575897 108.0
479.649017 76.0
479.810303 60.0
479.888763 68.0
479.923645 44.0
479.997772 72.0
480.075653 76.0
480.230865 60.0
480.25946 84.0
480.311798 40.0
480.354523 60.0
480.403381 60.0
480.447021 52.0
480.51535 84.0
480.599701 44.0
480.652069 32.0
480.700439 96.0
480.805298 72.0
480.924927 76.0
481.031769 96.0
481.284973 44.0
481.398499 52.0
481.437805 48.0
481.560089 32.0
481.695496 56.0
481.739166 92.0
481.782867 68.0
481.850677 100.0
481.922668 52.0
481.979462 52.0
482.0625 108.0
482.193604 32.0
482.272247 60.0
482.351837 92.0
482.473328 88.0
482.517059 32.0
482.59137 44.0
482.735687 72.0
482.901855 68.0
483.168671 32.0
483.221191 32.0
483.4487 56.0
483.496857 40.0
483.628662 100.0
483.671906 60.0
483.755096 64.0
483.785736 68.0
483.864532 48.0
483.908325 36.0
483.991486 64.0
484.122864 52.0
484.45575 68.0
484.660858 44.0
485.240204 88.0
485.468201 48.0
485.591003 92.0
485.709412 120.0
485.810303 88.0
485.871704 52.0
486.060394 72.0
486.161316 80.0
486.494873 68.0
486.657318 76.0
486.776917 100.0
487.017426 80.0
487.065735 108.0
487.171143 48.0
487.302948 72.0
487.544617 56.0
487.821533 128.0
488.204041 84.0
488.272705 84.0
488.921082 104.0
489.110352 72.0
489.695953 124.0
489.810455 56.0
490.189331 56.0
490.286285 60.0
490.427338 64.0
490.691803 84.0
491.198944 72.0
491.507782 100.0
492.143372 56.0
492.195007 92.0
492.244934 108.0
492.565948 64.0
492.761688 88.0
493.000305 68.0
493.066589 40.0
493.384827 92.0
493.583801 84.0
493.654541 92.0
493.729706 80.0
493.831451 116.0
493.884521 144.0
493.931213 100.0
494.36676 52.0
494.871338 60.0
495.321106 92.0
495.387787 76.0
495.486969 76.0
496.218231 108.0
496.741516 104.0
496.918976 92.0
497.318329 76.0
497.415985 92.0
497.482574 44.0
497.899933 76.0
498.068726 44.0
498.3797 108.0
499.684479 68.0
501.124878 72.0
501.316467 44.0
502.24826 80.0
502.502533 96.0
503.908905 76.0
504.753632 44.0
506.378082 64.0
506.772308 96.0
507.260773 184.0
507.848175 48.0
507.964783 84.0
508.866791 60.0
508.96109 76.0
509.104797 48.0
509.221558 116.0
510.335968 76.0
510.704742 52.0
511.154602 84.0
512.406311 88.0
513.343811 100.0
513.997864 68.0
514.412415 80.0
514.729126 120.0
515.17627 96.0
516.536865 100.0
516.699768 44.0
518.112244 100.0
518.225464 72.0
519.236328 88.0
520.179077 72.0
520.443359 104.0
520.865723 48.0
521.024719 76.0
522.206543 40.0
524.291687 52.0
524.975464 124.0
525.212646 100.0
525.983765 80.0
526.650391 60.0
526.76001 88.0
528.03064 40.0
528.46521 68.0
529.600525 100.0
530.182373 60.0
530.576538 44.0
530.622375 76.0
534.61853 120.0
535.889343 120.0
537.111023 52.0
537.526245 88.0
537.867737 76.0
538.269409 60.0
538.601929 76.0
538.805176 92.0
541.219421 76.0
542.544434 40.0
544.567566 108.0
544.864868 36.0
545.083191 96.0
545.501526 88.0
546.226929 116.0
546.56189 136.0
547.986572 84.0
548.564453 64.0
548.597107 52.0
548.909485 64.0
551.131287 72.0
554.898987 64.0
555.546143 64.0
556.789978 60.0
556.865112 28.0
558.886475 52.0
559.663147 52.0
561.401855 52.0
561.882996 76.0
562.402039 40.0
562.652222 84.0
562.883606 48.0
562.978027 56.0
566.534851 92.0
566.885437 48.0
566.970703 72.0
568.099182 60.0
569.124329 128.0
569.74646 124.0
570.302429 36.0
571.890991 80.0
572.386108 32.0
572.826477 120.0
573.338867 48.0
575.542664 188.0
576.909058 48.0
576.975952 80.0
577.966003 100.0
578.377563 68.0
579.402344 56.0
580.82605 56.0
581.627319 88.0
582.059387 44.0
582.26593 36.0
582.347534 44.0
582.847168 144.0
584.371338 72.0
585.11731 72.0
585.550659 36.0
586.297424 92.0
590.255737 108.0
590.773254 72.0
591.136108 64.0
591.784729 116.0
593.083008 36.0
593.446594 68.0
594.683594 52.0
596.198792 68.0
596.611938 72.0
599.786011 92.0
600.55127 124.0
601.336792 152.0
601.820068 120.0
602.625977 100.0
603.901794 20.0
604.263794 64.0
604.51825 36.0
604.988098 84.0
609.785217 40.0
610.68988 88.0
612.003784 128.0
612.161377 84.0
612.614441 60.0
613.077637 68.0
613.176147 68.0
613.817017 92.0
614.892456 52.0
615.233032 104.0
618.312378 116.0
618.931152 80.0
622.238159 40.0
622.764526 60.0
623.171875 112.0
623.415344 156.0
624.603638 104.0
625.817871 40.0
627.337341 64.0
628.080322 76.0
629.652527 40.0
629.747437 80.0
631.061646 72.0
632.207092 56.0
633.413696 116.0
633.64917 44.0
634.546265 60.0
635.072815 52.0
635.614624 104.0
636.252014 48.0
636.749084 108.0
637.361938 76.0
640.793396 44.0
641.267029 96.0
645.285156 52.0
647.709167 92.0
647.876282 132.0
648.327271 72.0
648.773254 76.0
649.503479 96.0
649.584656 40.0
650.239136 76.0
651.193665 48.0
651.757507 64.0
652.230164 80.0
654.2547 84.0
654.748596 116.0
654.977783 96.0
655.619751 64.0
656.516968 128.0
657.409668 52.0
657.48114 88.0
658.139648 72.0
658.200867 48.0
659.687622 56.0
660.352295 68.0
661.145325 72.0
663.562988 100.0
666.164856 52.0
666.236755 84.0
666.627258 48.0
667.161804 100.0
668.14917 44.0
669.374146 100.0
670.002502 44.0
671.40448 88.0
671.548889 120.0
674.398926 84.0
674.796936 96.0
675.231323 48.0
675.474365 104.0
675.567505 128.0
675.733032 28.0
676.266052 68.0
676.312622 108.0
677.125488 80.0
677.472534 32.0
677.705688 88.0
679.245361 104.0
680.496033 72.0
681.425659 40.0
682.153259 56.0
685.140259 84.0
685.442444 88.0
687.069153 108.0
687.225647 56.0
688.118164 32.0
688.227783 120.0
688.332214 72.0
689.873474 72.0
691.254211 60.0
691.547302 96.0
694.80658 56.0
694.984985 44.0
695.189575 80.0
695.871948 32.0
697.169373 64.0
697.269226 60.0
699.367737 60.0
701.200562 88.0
703.431641 84.0
707.849487 152.0
710.06665 88.0
710.17804 80.0
710.598022 116.0
710.841187 96.0
710.979126 72.0
714.028564 68.0
714.597717 80.0
714.709473 88.0
715.731384 68.0
716.034912 28.0
718.385498 72.0
718.428162 116.0
719.596924 56.0
719.735779 36.0
720.355286 104.0
720.894897 52.0
726.409485 92.0
726.624023 88.0
728.282776 56.0
729.07251 56.0
729.185364 116.0
729.970276 72.0
730.497314 92.0
736.167236 68.0
736.340027 56.0
736.442627 76.0
736.583069 100.0
736.750549 104.0
738.80481 76.0
740.011658 132.0
741.262878 60.0
741.544678 48.0
741.745239 60.0
743.421082 96.0
743.638184 72.0
744.262451 52.0
745.414001 100.0
745.816162 180.0
746.283691 72.0
748.846741 108.0
748.955627 72.0
749.184448 76.0
750.825073 116.0
750.994141 112.0
751.414124 112.0
751.506897 56.0
754.139038 120.0
754.603638 120.0
757.493164 104.0
757.641052 92.0
758.117737 84.0
758.561646 64.0
764.185181 64.0
765.170349 68.0
766.216736 56.0
767.732483 132.0
770.624878 104.0
771.879578 88.0
772.333069 40.0
772.875183 92.0
772.924988 56.0
773.744141 68.0
775.162048 68.0
780.540833 72.0
781.058044 28.0
781.158142 56.0
784.727844 164.0
785.709412 48.0
785.910278 80.0
787.679993 112.0
787.763794 104.0
792.266968 68.0
792.754456 92.0
793.169189 92.0
794.099915 84.0
795.738464 32.0
795.867615 88.0
797.451721 48.0
799.633911 100.0
802.106567 72.0
802.531799 108.0
803.544556 136.0
804.667664 180.0
804.927368 68.0
806.243591 48.0
806.305725 96.0
809.17926 40.0
811.660889 104.0
811.802673 44.0
812.579712 60.0
812.659119 176.0
815.970276 84.0
816.101013 104.0
819.043213 112.0
819.259644 128.0
822.405334 96.0
823.044556 56.0
823.177917 188.0
824.760437 132.0
825.732422 100.0
825.818176 84.0
829.643188 36.0
831.461426 72.0
832.632629 84.0
832.949707 76.0
833.270203 20.0
833.798828 80.0
834.896851 104.0
835.10968 92.0
840.755676 68.0
840.830688 88.0
842.620728 112.0
844.586121 104.0
844.643982 104.0
846.56543 104.0
846.82605 56.0
847.405334 80.0
847.955811 112.0
849.968079 76.0
851.303162 44.0
852.819458 72.0
856.263794 56.0
856.543335 48.0
858.367493 40.0
861.647644 40.0
862.915894 48.0
863.085449 192.0
863.986145 36.0
865.906006 124.0
866.228149 76.0
866.526917 60.0
867.740112 68.0
869.024536 156.0
870.26886 84.0
876.120605 44.0
877.051636 208.0
878.207275 124.0
878.915222 44.0
880.272827 32.0
882.246216 120.0
884.66571 64.0
884.831482 64.0
885.168945 60.0
885.388062 100.0
886.892944 60.0
887.71106 64.0
888.699524 56.0
890.607178 60.0
890.939819 120.0
891.409241 96.0
894.73999 52.0
895.275879 196.0
896.091858 156.0
896.306396 88.0
899.30603 128.0
900.476257 60.0
905.068848 88.0
907.837219 56.0
908.095093 164.0
909.481079 240.0
909.703186 92.0
913.043823 28.0
917.770874 84.0
919.224548 40.0
919.321106 216.0
921.525024 84.0
927.231201 204.0
929.129089 172.0
930.992493 64.0
934.153015 216.0
935.290894 56.0
936.666992 96.0
939.812683 52.0
940.85022 80.0
943.923401 44.0
944.741821 84.0
946.168884 104.0
946.291321 176.0
948.282166 48.0
951.091248 52.0
952.16571 36.0
952.435913 92.0
952.761475 176.0
957.054321 56.0
959.173584 324.0
960.055237 48.0
960.493103 68.0
961.04834 132.0
961.554321 64.0
970.170593 60.0
971.16272 92.0
971.392212 84.0
971.950562 56.0
975.453247 88.0
975.571411 80.0
975.69574 116.0
977.499451 116.0
980.295349 88.0
982.290405 60.0
985.124451 40.0
987.62262 204.0
990.05304 172.0
990.178284 32.0
995.194885 64.0
1000.341492 92.0
1002.314941 128.0
1003.695374 72.0
1006.585327 92.0
1007.608521 68.0
1011.117859 44.0
1012.195496 168.0
1015.781128 120.0
1018.199341 60.0
1018.777344 192.0
1019.685974 124.0
1026.280762 68.0
1027.173584 84.0
1028.175293 128.0
1035.23291 180.0
1037.969116 76.0
1038.462891 144.0
1040.342896 56.0
1043.12439 72.0
1044.185303 120.0
1048.653442 84.0
1052.769409 220.0
1053.525024 60.0
1053.854614 124.0
1057.385254 36.0
1057.883667 120.0
1061.304321 120.0
1062.42627 212.0
1067.297363 84.0
1067.641968 92.0
1068.617676 184.0
1070.082031 92.0
1070.352783 48.0
1071.169556 152.0
1071.475708 48.0
1072.472778 148.0
1073.685425 152.0
1073.835449 88.0
1074.226807 96.0
1076.008301 84.0
1076.824585 60.0
1078.346802 76.0
1078.961304 76.0
1079.294678 60.0
1081.368408 68.0
1083.247559 60.0
1083.824097 96.0
1083.922363 92.0
1084.19104 156.0
1086.446655 72.0
1086.997681 48.0
1087.187988 48.0
1088.336792 92.0
1089.650269 60.0
1090.379639 156.0
1091.00415 192.0
1093.786621 44.0
1097.541748 168.0
1098.361694 96.0
1101.158081 200.0
1102.214966 148.0
1109.568237 48.0
1110.237915 184.0
1110.795044 160.0
1111.259521 136.0
1111.803589 52.0
1112.414185 52.0
1113.164429 76.0
1113.768799 204.0
1114.233765 116.0
1116.094727 172.0
1116.334106 128.0
1116.91272 84.0
1118.922363 100.0
1120.187622 80.0
1121.726929 40.0
1122.293579 100.0
1122.627075 176.0
1122.720337 40.0
1125.623169 40.0
1126.738525 168.0
1127.460205 168.0
1127.640625 128.0
1127.781006 108.0
1128.248901 44.0
1128.543091 212.0
1130.094727 148.0
1133.268433 116.0
1138.869873 120.0
1140.610107 140.0
1141.174805 100.0
1141.235229 56.0
1141.322632 56.0
1147.220337 136.0
1149.803589 116.0
1151.349609 92.0
1153.957886 212.0
1155.581055 108.0
1156.548706 112.0
1159.129028 104.0
1159.400024 164.0
1160.837158 228.0
1161.29834 104.0
1161.684937 116.0
1162.166626 124.0
1166.247925 136.0
1166.61499 76.0
1168.430786 108.0
1169.914307 112.0
1170.533936 40.0
1172.025635 124.0
1172.816162 176.0
1175.66687 136.0
1177.380371 156.0
1180.312012 212.0
1181.919312 52.0
1185.32251 164.0
1185.863892 140.0
1186.830444 136.0
1187.46814 148.0
1187.982544 148.0
1190.07019 196.0
1192.693115 80.0
1193.20874 92.0
1193.318726 152.0
1197.654053 120.0
1198.274048 92.0
1199.156006 164.0
1199.362793 108.0
1202.147095 172.0
1202.618286 204.0
1203.336304 172.0
1206.265381 136.0
1207.30249 212.0
1208.941895 156.0
1209.343384 140.0
1210.748779 52.0
1211.178223 192.0
1212.750977 188.0
1212.896606 84.0
1213.159912 276.0
1213.562012 68.0
1213.679932 108.0
1214.331787 48.0
1214.775757 268.0
1215.941406 132.0
1217.836792 48.0
1220.095093 84.0
1222.125977 188.0
1222.933105 188.0
1223.141968 136.0
1223.671021 104.0
1224.040039 148.0
1225.440063 100.0
1228.510742 192.0
1228.849365 204.0
1229.28894 264.0
1229.67981 68.0
1230.259155 52.0
1230.517456 216.0
1230.866455 188.0
1232.095703 88.0
1232.319336 48.0
1235.038696 100.0
1235.52832 176.0
1236.787842 192.0
1238.0271 228.0
1239.147827 116.0
1239.36499 76.0
1239.645264 60.0
1240.016724 100.0
1240.871826 132.0
1242.814575 112.0
1243.558472 52.0
1244.962524 184.0
1245.687378 200.0
1246.016113 172.0
1246.18689 204.0
1246.332275 68.0
1247.042114 136.0
1247.238892 116.0
1247.80127 76.0
1248.180908 28.0
1248.680176 84.0
1249.615723 184.0
1249.770508 180.0
1250.319458 184.0
1251.248535 156.0
1252.044189 120.0
1252.114624 140.0
1252.988037 80.0
1253.763184 136.0
1254.883911 96.0
1255.518555 128.0
1255.708984 76.0
1259.484985 116.0
1259.612061 144.0
1261.873535 152.0
1262.460327 180.0
1263.662842 48.0
1264.667725 108.0
1264.887085 116.0
1266.005737 156.0
1267.727173 136.0
1269.215698 64.0
1270.591675 76.0
1271.208984 112.0
1271.563721 220.0
1271.805054 160.0
1272.372925 100.0
1272.749268 56.0
1274.46106 180.0
1275.185913 112.0
1276.266357 88.0
1276.735718 200.0
1279.645996 108.0
1279.809692 156.0
1280.457764 56.0
1281.440674 152.0
1281.618896 224.0
1282.980103 204.0
1284.570312 124.0
1286.418457 76.0
1287.910889 92.0
1288.039429 184.0
1288.403809 188.0
1288.560913 136.0
1288.880493 196.0
1289.747192 116.0
1290.433472 128.0
1291.813721 76.0
1293.595459 104.0
1293.74585 60.0
1296.93335 92.0
1297.098267 228.0
1298.073242 164.0
1298.338623 120.0
1299.450439 120.0
1299.515015 144.0
1300.00293 156.0
1300.060303 164.0
1301.251831 148.0
1302.048828 224.0
1302.206909 140.0
1302.810181 48.0
1303.600586 236.0
1303.967041 216.0
1304.139526 108.0
1305.074097 72.0
1308.145996 88.0
1308.22522 196.0
1308.851562 160.0
1309.557251 144.0
1309.67981 132.0
1312.886841 168.0
1314.791382 140.0
1315.296631 156.0
1315.809204 208.0
1316.899536 116.0
1317.60022 160.0
1317.990356 128.0
1318.293823 164.0
1321.099121 80.0
1321.381348 152.0
1322.278564 196.0
1322.510132 76.0
1322.741821 88.0
1322.79248 120.0
1323.722534 192.0
1323.813232 100.0
1324.175415 156.0
1325.102539 148.0
1326.015625 148.0
1327.639526 148.0
1328.713013 156.0
1329.104858 48.0
1329.634521 128.0
1330.113525 156.0
1330.563599 68.0
1333.45459 128.0
1334.719482 104.0
1334.872192 232.0
1335.189331 184.0
1336.137817 168.0
1336.516113 144.0
1337.476685 152.0
1337.622314 204.0
1338.532349 148.0
1339.275146 168.0
1341.28418 144.0
1341.935059 148.0
1343.145508 184.0
1346.466431 184.0
1347.123779 72.0
1348.05896 48.0
1349.484253 228.0
1350.625122 156.0
1351.012817 88.0
1351.364014 68.0
1354.724243 28.0
1355.720703 40.0
1356.248413 208.0
1356.453613 108.0
1357.135376 160.0
1357.458008 168.0
1357.971436 128.0
1359.416626 112.0
1361.964111 164.0
1362.015625 136.0
1362.235962 108.0
1362.368164 144.0
1362.50769 64.0
1362.669434 104.0
1364.800781 104.0
1364.991943 164.0
1366.220215 116.0
1367.515259 176.0
1367.772949 80.0
1368.560669 156.0
1371.780029 156.0
1373.121948 140.0
1373.763672 148.0
1374.00708 136.0
1374.280151 84.0
1374.427734 172.0
1374.575195 112.0
1375.099243 132.0
1375.202515 204.0
1375.305908 36.0
1375.446167 112.0
1375.601074 192.0
1375.674927 196.0
1375.955444 64.0
1377.166504 136.0
1378.732788 172.0
1379.41272 120.0
1379.531006 116.0
1380.736206 96.0
1382.030762 52.0
1382.348877 128.0
1382.615234 128.0
1382.985352 172.0
1385.214111 188.0
1386.036377 124.0
1386.325439 152.0
1387.689331 68.0
1389.521118 124.0
1390.864258 228.0
1391.369141 172.0
1392.921143 108.0
1394.146973 152.0
1394.332764 56.0
1395.923706 64.0
1396.362427 252.0
1397.552612 80.0
1397.69397 192.0
1398.706177 128.0
1399.748413 144.0
1400.333008 180.0
1401.020752 168.0
1401.41687 104.0
1401.565918 176.0
1402.88501 156.0
1403.600708 120.0
1404.286865 60.0
1405.137207 188.0
1405.189453 156.0
1405.331177 152.0
1406.420654 60.0
1406.726685 152.0
1407.234375 140.0
1408.369507 92.0
1408.810181 132.0
1409.191162 56.0
1409.310669 44.0
1410.334473 64.0
1411.082031 140.0
1412.091553 60.0
1412.158813 160.0
1412.929321 48.0
1413.707397 76.0
1415.084717 136.0
1415.324341 160.0
1416.597412 200.0
1418.036133 56.0
1418.43335 204.0
1418.703125 228.0
1419.475464 216.0
1420.36792 64.0
1420.878052 52.0
1421.275635 136.0
1422.371338 140.0
1423.429932 184.0
1423.767822 176.0
1423.827881 136.0
1424.00061 116.0
1425.022217 144.0
1425.796143 88.0
1426.029175 164.0
1426.720703 64.0
1427.337158 68.0
1427.412354 164.0
1427.592896 184.0
1428.653442 164.0
1430.226074 124.0
1430.542236 52.0
1430.790649 184.0
1431.008911 108.0
1431.076782 124.0
1431.182129 172.0
1432.319336 176.0
1433.117798 196.0
1433.440552 232.0
1434.383911 136.0
1438.049561 148.0
1438.676147 176.0
1439.20459 220.0
1439.604736 48.0
1439.816284 188.0
1441.145752 56.0
1441.251465 100.0
1442.150391 96.0
1442.72522 168.0
1444.10144 152.0
1444.8125 48.0
1445.099976 144.0
1445.364746 176.0
1445.818848 108.0
1446.656738 68.0
1447.567505 164.0
1448.55957 56.0
1448.635376 160.0
1450.726807 100.0
1451.348511 44.0
1451.40918 200.0
1452.524048 80.0
1453.950439 128.0
1455.931763 136.0
1456.65332 140.0
1457.079346 148.0
1458.401001 152.0
1458.720215 104.0
1459.320801 152.0
1460.111572 44.0
1460.605957 176.0
1460.773315 60.0
1461.085205 152.0
1461.347412 140.0
1462.378784 172.0
1462.919189 188.0
1463.178101 180.0
1463.368408 160.0
1463.916626 124.0
1464.533447 128.0
1464.754395 164.0
1464.853394 76.0
1466.66687 144.0
1468.016357 180.0
1468.229858 272.0
1469.091797 164.0
1469.447266 80.0
1469.93103 236.0
1470.19043 40.0
1470.533936 100.0
1470.770508 168.0
1470.900269 128.0
1471.205566 204.0
1474.749878 124.0
1475.139648 104.0
1475.682495 52.0
1476.110596 96.0
1476.355347 132.0
1477.540894 124.0
1478.252441 80.0
1478.573853 92.0
1479.974731 160.0
1481.307251 108.0
1483.382324 180.0
1483.690552 140.0
1483.836182 184.0
1483.935791 140.0
1484.257935 188.0
1484.349854 164.0
1484.480225 112.0
1485.02478 148.0
1485.201172 224.0
1487.080933 108.0
1488.409058 124.0
1489.330566 168.0
1490.398438 192.0
1491.920166 112.0
1492.243042 124.0
1494.288818 104.0
1494.48877 172.0
1494.819702 56.0
1495.66626 144.0
1495.904907 120.0
1495.981812 92.0
1496.30603 188.0
1496.574951 116.0
1496.655884 192.0
1497.26001 156.0
1497.675903 240.0
1497.791382 140.0
1498.908447 136.0
1499.363159 168.0
1499.555786 64.0
1500.164795 156.0
1500.272705 160.0
1502.069336 172.0
1502.493652 164.0
1502.732788 164.0
1502.817749 128.0
1502.887207 124.0
1503.658813 184.0
1503.890381 132.0
