>compound Nicorandil (Ikorel)
>formula C8H9N3O4
>ionization [M+H]+
>parentmass 212.067
#inchi InChI=1S/C8H9N3O4/c12-8(7-2-1-3-9-6-7)10-4-5-15-11(13)14/h1-3,6H,4-5H2,(H,10,12)
#inchikey LBHIOVVIQHSOQN
#Ion_Source LC-ESI
#Instrument qTof
#Compound_Source Commercial
#PI Dorrestein
#Data_Collector Garg_Neha
#Scan -1
#Precursor_MZ 212.067
#ExactMass 211.059
#Charge 1
#CAS_Number 65141-46-0
#Pubmed_ID N/A
#Smiles C1=CN=CC(=C1)C(=O)NCCO[N+]([O-])=O
#INCHI_AUX N/A
#Library_Class 1
#SpectrumID CCMSLIB00000078364
#IonMode Positive
#UpdateWorkflowName UPDATE-SINGLE-ANNOTATED-GOLD
#LibraryQualityString Gold
#TaskID 77f51c88eb8b467eb4a01dd2d0cb90d2
##Scan# 602
#SpectrumFile Plate6_1_20_GD7_01_15774.mzXML
#LibraryName FDALibrary_2_04302014.mgf
#MQScore -1
#Organism FDALibrary_2_04302014
#TIC_Query 0
#RT_Query -1
#MZErrorPPM -1
#SharedPeaks 0
#MassDiff 0
#LibMZ -1
#SpecMZ 212.067
#SpecCharge 0
#internalFilename spec-00000.mgf

>collision 10
47.111519 184.0
93.055641 156.0
94.062515 188.0
107.036293 820.0
125.983704 164.0
130.454025 176.0
131.940659 168.0
135.052612 560.0
136.062927 2212.0
137.065369 164.0
160.927719 152.0
163.470184 212.0
168.052185 880.0
168.982086 160.0
169.132187 164.0
177.93866 176.0
184.916779 148.0
188.968842 156.0
194.947205 164.0
207.151703 212.0
253.081223 176.0
1549.348999 156.0
1938.630005 236.0
