>compound MLS002172495-01!2-Chloro-N6-cyclopentyladenosine hemihydrate
>formula C15H20ClN5O4
>ionization [M+H]+
>parentmass 370.12765825209055
#inchi InChI=1S/C15H20ClN5O4/c16-15-19-12(18-7-3-1-2-4-7)9-13(20-15)21(6-17-9)14-11(24)10(23)8(5-22)25-14/h6-8,10-11,14,22-24H,1-5H2,(H,18,19,20)/t8-,10-,11-,14-/m1/s1
#inchikey XSMYYYQVWPZWIZ
#origInchi InChI=1S/C15H20ClN5O4.H2O/c16-15-19-12(18-7-3-1-2-4-7)9-13(20-15)21(6-17-9)14-11(24)10(23)8(5-22)25-14;/h6-8,10-11,14,22-24H,1-5H2,(H,18,19,20);1H2/t8-,10-,11-,14-;/m1./s1
#Ion_Source LC-ESI
#Instrument qTof
#Compound_Source NIH Pharmacologically Active Library
#PI Dorrestein
#Data_Collector VP/LMS
#Scan -1
#Precursor_MZ 370.129
#ExactMass 369.12
#Charge 1
#CAS_Number N/A
#Pubmed_ID N/A
#Smiles OC[C@H]1O[C@H]([C@H](O)[C@@H]1O)n2cnc3c(NC4CCCC4)nc(Cl)nc23.O
#INCHI_AUX N/A
#Library_Class 1
#SpectrumID CCMSLIB00000085906
#IonMode Positive
#UpdateWorkflowName UPDATE-SINGLE-ANNOTATED-GOLD
#LibraryQualityString Gold
#TaskID d252d724072548979f1f6f1ced849daf
##Scan# 1664
#SpectrumFile p4-G09_GG9_01_18405.mzXML
#LibraryName Pharm_Active_Library.mgf
#MQScore -1
#Organism Pharm_Active_Library
#TIC_Query 0
#RT_Query -1
#MZErrorPPM -1
#SharedPeaks 0
#MassDiff 0
#LibMZ -1
#SpecMZ 370.129
#SpecCharge 0
#internalFilename spec-00000.mgf

>collision 10
44.92215 160.0
44.931488 172.0
44.966183 44.0
45.040165 180.0
45.141197 280.0
45.157249 48.0
45.257618 56.0
45.326603 224.0
45.443932 164.0
45.544621 120.0
45.62122 124.0
45.64925 184.0
45.676353 108.0
45.699226 228.0
45.727486 116.0
45.761143 196.0
45.794807 196.0
45.825794 192.0
45.9296 224.0
45.983574 172.0
46.04298 148.0
46.101334 188.0
46.155148 228.0
46.180843 172.0
46.236317 256.0
46.333813 188.0
46.567139 168.0
46.628281 136.0
46.692226 128.0
46.826927 144.0
46.949589 104.0
47.056026 188.0
47.173523 164.0
47.207703 144.0
47.225819 180.0
47.271999 184.0
47.313065 168.0
47.413059 176.0
47.460342 220.0
47.616116 120.0
47.632599 168.0
47.854691 212.0
47.958721 168.0
47.976643 136.0
47.989052 116.0
48.005112 136.0
48.066296 220.0
48.238945 76.0
48.294254 132.0
48.323307 128.0
48.393898 176.0
48.404198 356.0
48.433662 208.0
48.482555 156.0
48.495029 76.0
48.572681 136.0
48.606865 232.0
48.695221 184.0
48.707333 68.0
48.760132 220.0
48.775894 176.0
48.949337 68.0
48.970226 156.0
48.984158 160.0
49.059818 184.0
49.07893 176.0
49.116013 204.0
49.140301 176.0
49.200317 112.0
49.251987 132.0
49.270149 208.0
49.293903 200.0
49.373589 184.0
49.383377 36.0
49.436543 84.0
49.582195 40.0
49.619789 220.0
49.685963 100.0
49.722446 148.0
49.802479 204.0
49.872738 212.0
49.885387 188.0
49.924759 160.0
50.144394 44.0
50.188095 104.0
50.199375 216.0
50.247398 180.0
50.275558 180.0
50.382874 164.0
50.404243 188.0
50.462727 96.0
50.498791 168.0
50.621918 164.0
50.682831 136.0
50.695583 60.0
50.776398 164.0
50.801929 112.0
50.862949 96.0
50.946735 180.0
51.074677 104.0
51.147415 152.0
51.164333 76.0
51.235382 176.0
51.326763 140.0
51.372406 228.0
51.428059 236.0
51.47089 144.0
51.695324 108.0
51.721088 84.0
51.741131 176.0
51.778358 200.0
51.801277 108.0
51.834232 160.0
51.857162 148.0
51.871498 184.0
51.947502 172.0
52.075256 140.0
52.085312 144.0
52.154285 192.0
52.23769 100.0
52.285172 104.0
52.349957 192.0
52.560425 140.0
52.573414 140.0
52.655708 152.0
52.673038 184.0
52.742401 176.0
52.7771 164.0
52.931931 168.0
53.004547 220.0
53.021751 164.0
53.113098 120.0
53.293121 124.0
53.329453 204.0
53.364346 172.0
53.375977 120.0
53.479271 112.0
53.524403 228.0
53.550617 208.0
53.591408 152.0
53.60598 188.0
53.638046 224.0
53.706581 148.0
53.732841 84.0
53.747433 192.0
53.757645 184.0
53.884686 76.0
53.991394 172.0
54.041134 104.0
54.136284 160.0
54.153858 188.0
54.290977 140.0
54.36058 156.0
54.420765 264.0
54.532413 176.0
54.62064 200.0
54.64859 240.0
54.719242 152.0
54.754581 164.0
54.772259 128.0
54.834145 44.0
54.927036 176.0
54.965397 208.0
54.997868 200.0
55.101242 124.0
55.22448 208.0
55.262405 148.0
55.411949 176.0
55.460854 112.0
55.496433 144.0
55.637386 104.0
55.690845 152.0
55.769596 160.0
55.802303 136.0
55.836506 144.0
55.909405 128.0
55.923645 188.0
55.967464 152.0
56.080593 192.0
56.109013 132.0
56.128395 160.0
56.232372 192.0
56.283585 244.0
56.305984 192.0
56.344826 192.0
56.415066 60.0
56.591614 136.0
56.659012 96.0
56.68898 148.0
56.83894 224.0
56.849445 168.0
56.86145 144.0
56.873459 160.0
56.983089 156.0
57.048538 204.0
57.132385 160.0
57.327679 220.0
57.362347 108.0
57.374405 208.0
57.431709 200.0
57.489044 84.0
57.505646 184.0
57.51923 152.0
57.564526 136.0
57.594124 220.0
57.652145 196.0
57.679352 132.0
57.741348 168.0
57.761009 208.0
57.85635 204.0
57.869976 104.0
58.095802 80.0
58.136772 96.0
58.305748 276.0
58.323589 128.0
58.358555 204.0
58.682877 136.0
58.711849 272.0
58.782024 204.0
58.821709 204.0
58.916389 132.0
58.940838 180.0
59.089153 120.0
59.406292 100.0
59.487625 68.0
59.540489 196.0
59.615112 172.0
59.716583 168.0
59.853554 236.0
59.932919 168.0
60.06316 84.0
60.078587 168.0
60.183537 88.0
60.217823 160.0
60.266949 128.0
60.376705 180.0
60.398361 72.0
60.415379 80.0
60.495853 164.0
60.513638 164.0
60.624413 112.0
60.684868 68.0
60.699844 176.0
60.743801 212.0
60.804317 64.0
60.819839 32.0
60.935837 236.0
61.061317 184.0
61.107018 172.0
61.29887 216.0
61.448563 208.0
61.47509 216.0
61.49226 144.0
61.531284 220.0
61.564075 36.0
61.631248 148.0
61.682526 184.0
61.752632 196.0
61.889343 164.0
61.960041 204.0
62.047592 192.0
62.108753 216.0
62.129147 140.0
62.238503 232.0
62.258152 172.0
62.330124 168.0
62.367844 128.0
62.389851 124.0
62.405575 132.0
62.512539 148.0
62.6511 120.0
62.748817 140.0
62.772469 192.0
62.804012 180.0
62.815811 152.0
62.83083 200.0
62.865543 168.0
62.974483 128.0
63.012848 168.0
63.118301 48.0
63.202137 232.0
63.24012 168.0
63.263866 180.0
63.276775 208.0
63.289196 112.0
63.31295 152.0
63.338295 148.0
63.350967 240.0
63.393749 176.0
63.415936 160.0
63.460323 124.0
63.571365 128.0
63.64756 112.0
63.682499 204.0
63.773067 248.0
63.790554 256.0
63.807262 232.0
63.836666 148.0
63.866882 60.0
63.927341 132.0
64.072243 224.0
64.100922 152.0
64.118454 192.0
64.389687 212.0
64.424355 148.0
64.541504 220.0
64.586281 272.0
64.626282 244.0
64.731171 144.0
64.775169 132.0
64.893768 200.0
64.970757 88.0
64.983589 176.0
65.267899 164.0
65.324188 180.0
65.343498 92.0
65.37085 180.0
65.385262 168.0
65.435234 28.0
65.446724 128.0
65.46479 228.0
65.504486 200.0
65.67704 180.0
65.704254 136.0
65.878754 204.0
65.899757 132.0
65.917534 144.0
65.984192 216.0
66.032555 192.0
66.087318 212.0
66.116447 128.0
66.181206 176.0
66.268669 144.0
66.309746 196.0
66.455132 168.0
66.466492 180.0
66.489212 164.0
66.550758 136.0
66.604492 156.0
66.623985 152.0
66.677612 200.0
66.688988 112.0
66.768654 188.0
66.890694 136.0
67.068245 152.0
67.140472 204.0
67.221558 92.0
67.274666 172.0
67.301544 136.0
67.337471 164.0
67.446953 116.0
67.554878 144.0
67.574509 204.0
67.590454 252.0
67.608871 208.0
67.743141 144.0
67.772629 112.0
67.866066 192.0
68.005508 192.0
68.016998 228.0
68.153313 160.0
68.214127 56.0
68.395073 160.0
68.454346 164.0
68.505402 84.0
68.533417 160.0
68.558136 184.0
68.584503 140.0
68.612526 192.0
68.638908 152.0
68.691689 240.0
68.864105 132.0
68.896393 160.0
69.022011 252.0
69.088173 64.0
69.175888 128.0
69.258682 192.0
69.353134 136.0
69.535583 188.0
69.625237 172.0
69.655136 168.0
69.861275 220.0
69.90287 176.0
69.921173 200.0
70.014412 32.0
70.077713 160.0
70.089378 108.0
70.111038 232.0
70.154381 160.0
70.231087 168.0
70.267792 104.0
70.336212 120.0
70.374611 168.0
70.512573 116.0
70.529984 252.0
70.683846 68.0
70.859665 88.0
70.906586 68.0
71.040733 180.0
71.074287 136.0
71.106796 128.0
71.158211 124.0
71.178253 192.0
71.230431 140.0
71.294273 132.0
71.331253 120.0
71.398514 204.0
71.474213 168.0
71.519653 140.0
71.539856 164.0
71.57016 144.0
71.63269 220.0
71.74202 144.0
71.765625 132.0
71.821274 68.0
71.858391 184.0
71.887077 188.0
71.956284 156.0
72.081276 128.0
72.243263 204.0
72.301521 224.0
72.360374 60.0
72.384079 164.0
72.543724 232.0
72.633224 104.0
72.662804 200.0
72.682426 216.0
72.713768 140.0
72.792763 188.0
72.809746 244.0
72.97628 228.0
72.994987 136.0
73.076637 96.0
73.177055 184.0
73.197487 68.0
73.432678 180.0
73.798134 112.0
74.066826 172.0
74.092522 76.0
74.349731 208.0
74.44416 156.0
74.471642 204.0
74.490532 132.0
74.530052 168.0
74.801788 156.0
74.880295 116.0
74.92923 196.0
75.089546 176.0
75.241402 100.0
75.372673 160.0
75.41053 168.0
75.474663 124.0
75.511528 176.0
75.555954 176.0
75.578445 148.0
75.692696 68.0
75.761902 176.0
75.7845 160.0
75.848625 32.0
75.950935 136.0
75.990837 144.0
76.01339 232.0
76.127968 288.0
76.326073 68.0
76.37999 228.0
76.392166 172.0
76.41478 164.0
76.435127 196.0
76.468727 108.0
76.525246 216.0
76.646362 100.0
76.679474 208.0
76.74572 184.0
76.841652 176.0
76.94812 108.0
77.222481 240.0
77.283714 176.0
77.316963 168.0
77.490326 168.0
77.590225 180.0
77.60601 172.0
77.621788 180.0
77.688438 144.0
77.756874 288.0
77.790222 116.0
77.839386 128.0
77.934662 216.0
77.961273 168.0
77.990433 156.0
78.062561 44.0
78.10302 184.0
78.214394 176.0
78.256126 176.0
78.430534 48.0
78.543388 128.0
78.585777 164.0
78.649429 192.0
78.679276 216.0
78.788773 124.0
78.825882 132.0
78.946915 152.0
79.064629 176.0
79.146057 120.0
79.177933 84.0
79.200958 176.0
79.277145 176.0
79.489952 128.0
79.511253 196.0
79.552078 92.0
79.653297 220.0
79.683113 164.0
79.754585 232.0
79.903969 124.0
79.928879 188.0
79.953789 60.0
79.971588 40.0
79.984047 140.0
80.023216 116.0
80.085548 200.0
80.124741 240.0
80.369553 224.0
80.44754 176.0
80.534279 108.0
80.556007 168.0
80.582291 152.0
80.808563 140.0
80.828239 208.0
80.849716 112.0
80.928482 136.0
80.941017 200.0
81.010872 248.0
81.055664 188.0
81.364174 112.0
81.441391 244.0
81.493492 188.0
81.558189 48.0
81.62291 144.0
81.70385 32.0
81.734009 168.0
81.781113 120.0
81.864052 44.0
81.90007 132.0
81.934303 108.0
81.946915 152.0
81.961327 188.0
82.017197 172.0
82.055054 172.0
82.213799 192.0
82.25531 116.0
82.316696 140.0
82.408821 96.0
82.622169 132.0
82.652924 124.0
82.748863 156.0
82.848473 120.0
82.897392 176.0
83.036995 96.0
83.169449 148.0
83.241226 128.0
83.263863 204.0
83.40377 192.0
83.476494 80.0
83.513901 184.0
83.547432 248.0
83.642067 136.0
83.668983 168.0
83.835129 116.0
83.869759 180.0
83.975517 164.0
84.097763 164.0
84.179924 192.0
84.242027 176.0
84.320442 144.0
84.33522 164.0
84.472366 128.0
84.554703 184.0
84.602295 180.0
84.668221 120.0
84.723167 92.0
84.946831 112.0
84.97068 36.0
85.016556 220.0
85.029396 92.0
85.051422 128.0
85.086304 136.0
85.134048 120.0
85.161598 128.0
85.24427 152.0
85.326576 160.0
85.353592 188.0
85.378479 152.0
85.435501 212.0
85.475975 160.0
85.496223 160.0
85.544075 144.0
85.608521 104.0
85.647202 144.0
85.67411 236.0
85.73748 172.0
85.772499 168.0
85.85363 132.0
85.884987 240.0
85.990158 156.0
86.160049 144.0
86.193306 208.0
86.217331 156.0
86.259842 180.0
86.296257 172.0
86.341202 160.0
86.533653 128.0
86.548462 180.0
86.57254 132.0
86.604019 172.0
86.882088 224.0
86.898788 196.0
86.974876 120.0
87.03614 188.0
87.116005 132.0
87.16803 148.0
87.188477 120.0
87.277702 160.0
87.307457 184.0
87.333496 188.0
87.400475 116.0
87.474998 184.0
87.780487 124.0
87.817787 84.0
87.855095 132.0
87.912933 144.0
87.927864 204.0
87.955864 132.0
88.034279 92.0
88.29644 184.0
88.327728 148.0
88.34082 172.0
88.376366 116.0
88.418198 148.0
88.518631 120.0
88.564606 132.0
88.577316 108.0
88.614166 40.0
88.661011 160.0
88.839142 208.0
88.976143 156.0
89.075684 200.0
89.109497 60.0
89.182785 156.0
89.250465 136.0
89.476257 236.0
89.555 152.0
89.613747 220.0
89.696671 240.0
89.755119 200.0
89.877731 136.0
89.938126 28.0
90.14399 208.0
90.183678 108.0
90.198799 192.0
90.247955 44.0
90.273514 140.0
90.439034 144.0
90.510971 160.0
90.556427 152.0
90.58593 160.0
90.624626 136.0
90.715599 112.0
90.732658 184.0
90.757309 204.0
90.805603 172.0
90.918556 240.0
90.952721 92.0
91.125542 96.0
91.239578 160.0
91.26429 172.0
91.34417 192.0
91.426895 164.0
91.465958 248.0
91.566879 140.0
91.593544 160.0
91.7155 220.0
91.804008 180.0
91.848976 116.0
91.863846 196.0
91.908119 164.0
91.961555 128.0
92.00737 172.0
92.045555 260.0
92.08757 152.0
92.152527 88.0
92.183098 76.0
92.397255 132.0
92.565697 220.0
92.728539 176.0
92.761124 116.0
92.812897 28.0
93.116112 140.0
93.262138 188.0
93.367889 132.0
93.394814 204.0
93.427513 204.0
93.637337 188.0
93.725952 176.0
93.961189 184.0
94.059608 196.0
94.098221 92.0
94.216034 216.0
94.274002 184.0
94.341652 172.0
94.404884 188.0
94.529274 144.0
94.560898 188.0
94.693832 144.0
94.726761 56.0
94.82946 208.0
95.044731 148.0
95.067505 100.0
95.167015 156.0
95.266068 180.0
95.304123 188.0
95.339905 164.0
95.357399 136.0
95.409882 100.0
95.429329 160.0
95.477943 112.0
95.622253 160.0
95.699783 176.0
95.785164 176.0
95.93943 168.0
96.019035 248.0
96.022591 204.0
96.030502 176.0
96.210609 140.0
96.267235 120.0
96.318016 264.0
96.333641 168.0
96.362953 64.0
96.435257 172.0
96.464577 60.0
96.48999 160.0
96.574081 116.0
96.775658 184.0
96.78936 196.0
96.838326 132.0
96.87162 160.0
96.932358 164.0
96.951958 124.0
97.026222 368.0
97.267746 148.0
97.326645 184.0
97.344315 92.0
97.358063 132.0
97.468071 216.0
97.746078 160.0
97.785583 116.0
97.873291 116.0
97.924492 116.0
98.125496 180.0
98.143753 388.0
98.496513 164.0
98.652634 128.0
98.702065 208.0
98.76535 144.0
98.787109 132.0
98.880112 140.0
98.917717 204.0
99.271454 188.0
99.435066 192.0
99.450943 156.0
99.476562 128.0
99.558159 112.0
99.637611 120.0
99.653511 168.0
99.752884 56.0
99.834404 184.0
99.907997 188.0
99.938866 156.0
100.081154 156.0
100.101067 132.0
100.190704 176.0
100.248489 160.0
100.278381 256.0
100.300308 208.0
100.326225 196.0
100.421944 184.0
100.436874 216.0
100.461838 184.0
100.479538 156.0
100.559616 232.0
100.639465 204.0
100.829247 140.0
100.875221 188.0
101.023209 172.0
101.099243 72.0
101.194862 120.0
101.267418 92.0
101.345551 56.0
101.39164 88.0
101.497894 144.0
101.580124 144.0
101.68045 104.0
101.716583 136.0
101.816971 164.0
101.85112 76.0
101.959564 136.0
102.233131 160.0
102.464699 160.0
102.573524 140.0
102.618523 176.0
102.654175 160.0
102.670311 180.0
102.700562 120.0
102.72731 124.0
102.815567 44.0
102.829697 168.0
102.886223 244.0
102.90641 112.0
102.96093 212.0
102.977089 136.0
103.015472 176.0
103.040535 116.0
103.144806 216.0
103.158951 48.0
103.191299 144.0
103.324791 176.0
103.389542 204.0
103.434067 116.0
103.521133 160.0
103.579872 188.0
103.648758 144.0
103.677124 172.0
103.800789 148.0
103.928581 148.0
103.96714 180.0
104.099098 252.0
104.286011 228.0
104.308372 136.0
104.325157 196.0
104.340897 224.0
104.420204 224.0
104.477165 52.0
104.566696 64.0
104.696999 164.0
104.711258 160.0
104.739769 212.0
104.802933 72.0
104.978241 124.0
105.03331 232.0
105.118996 156.0
105.319763 192.0
105.345634 204.0
105.402847 148.0
105.472336 160.0
105.515266 108.0
105.61956 212.0
105.646156 164.0
105.990128 132.0
106.086464 92.0
106.105614 140.0
106.133621 128.0
106.178734 132.0
106.519463 160.0
106.550285 80.0
106.620148 228.0
106.675644 128.0
106.963646 120.0
106.978058 184.0
107.034058 996.0
107.072777 160.0
107.132507 208.0
107.196381 176.0
107.233482 124.0
107.30117 196.0
107.425247 156.0
107.507782 72.0
107.577965 156.0
107.610321 172.0
107.778305 160.0
107.829971 192.0
107.910591 132.0
108.038643 328.0
108.063652 248.0
108.12159 36.0
108.17955 212.0
108.206467 120.0
108.264442 116.0
108.303795 212.0
108.504814 144.0
108.612648 120.0
108.755829 116.0
108.893906 80.0
109.092346 176.0
109.115219 148.0
109.267044 196.0
109.350288 168.0
109.364853 176.0
109.460625 48.0
109.550186 180.0
109.604355 44.0
109.724586 200.0
109.917145 140.0
109.933838 204.0
109.99437 164.0
110.027771 176.0
110.057007 52.0
110.136368 224.0
110.171875 84.0
110.223648 180.0
110.238625 140.0
110.351616 144.0
110.372528 168.0
110.399712 208.0
110.445724 168.0
110.527321 176.0
110.684319 84.0
110.778564 80.0
110.870766 184.0
110.967186 140.0
111.101418 132.0
111.340279 192.0
111.447853 212.0
111.487869 192.0
111.55294 172.0
111.56765 72.0
111.732941 168.0
111.799034 184.0
112.01899 148.0
112.09597 160.0
112.154984 168.0
112.218224 204.0
112.289673 164.0
112.590057 156.0
112.631866 176.0
112.669891 180.0
112.932022 104.0
113.030136 224.0
113.14576 160.0
113.166931 68.0
113.182854 200.0
113.32579 120.0
113.414795 152.0
113.539894 140.0
113.603531 192.0
113.701134 212.0
113.722359 152.0
113.821106 164.0
113.864822 164.0
113.904976 128.0
113.942635 236.0
113.968712 176.0
114.006958 128.0
114.04734 112.0
114.088074 176.0
114.12175 172.0
114.14994 172.0
114.211075 204.0
114.22596 176.0
114.242981 120.0
114.311066 196.0
114.342995 168.0
114.408981 176.0
114.50267 136.0
114.523972 152.0
114.696144 144.0
114.822372 220.0
114.861801 156.0
114.937569 116.0
114.971718 156.0
115.014404 148.0
115.035683 492.0
115.084854 216.0
115.133972 148.0
115.257874 256.0
115.277107 148.0
115.469521 160.0
115.484489 164.0
115.542252 188.0
115.576485 196.0
115.794846 84.0
115.964111 268.0
116.042297 160.0
116.092751 192.0
116.197853 144.0
116.253647 84.0
116.391037 124.0
116.48983 256.0
116.584373 232.0
116.635956 112.0
116.670357 228.0
116.711205 96.0
116.803688 144.0
116.840256 160.0
116.858055 140.0
116.87468 180.0
117.223534 160.0
117.318344 228.0
117.380898 128.0
117.506004 184.0
117.628464 248.0
117.642525 248.0
117.76384 196.0
117.782333 312.0
117.836342 108.0
117.85363 112.0
117.873077 276.0
117.920624 204.0
117.937912 212.0
118.123878 144.0
118.149841 120.0
118.194 216.0
118.245056 168.0
118.409599 180.0
118.47242 28.0
118.658806 172.0
118.710846 144.0
118.730423 152.0
118.756393 96.0
118.788933 116.0
118.890915 208.0
118.99511 160.0
119.108032 124.0
119.32753 236.0
119.347099 168.0
119.455849 124.0
119.601646 180.0
119.714859 164.0
119.743172 144.0
119.791092 140.0
119.832489 164.0
119.852097 76.0
120.079422 204.0
120.180847 172.0
120.277382 176.0
120.303581 184.0
120.353798 152.0
120.386551 196.0
120.419312 120.0
120.576622 184.0
120.648758 152.0
120.876236 164.0
121.044792 136.0
121.130211 152.0
121.176216 128.0
121.248535 180.0
121.353317 200.0
121.38665 140.0
121.41954 184.0
121.437088 96.0
121.548981 188.0
121.603844 228.0
121.702629 192.0
121.898132 120.0
121.979454 160.0
122.047615 172.0
122.252197 136.0
122.298416 136.0
122.432716 136.0
122.503204 96.0
122.705605 172.0
122.794174 200.0
122.884621 156.0
123.023659 168.0
123.070023 220.0
123.087692 172.0
123.21801 168.0
123.352821 216.0
123.372719 136.0
123.456741 112.0
123.518669 152.0
123.62709 156.0
123.739983 116.0
123.766548 180.0
123.901657 180.0
123.963699 204.0
124.025757 204.0
124.152138 176.0
124.196503 184.0
124.294121 104.0
124.358475 128.0
124.485023 192.0
124.509453 128.0
124.544991 116.0
124.598312 156.0
124.631638 248.0
124.667191 168.0
124.751099 144.0
124.809464 184.0
124.827255 176.0
124.860245 120.0
124.896202 140.0
124.956268 200.0
124.976288 80.0
125.132095 212.0
125.225624 148.0
125.301369 188.0
125.428398 188.0
125.452919 160.0
125.484131 176.0
125.510887 132.0
125.527161 256.0
125.655869 148.0
125.762985 44.0
125.952789 140.0
126.135811 212.0
126.216515 92.0
126.238876 132.0
126.328339 144.0
126.344002 180.0
126.40889 48.0
126.574547 120.0
126.617393 208.0
126.672562 152.0
126.687187 164.0
126.859093 104.0
126.986908 28.0
127.02504 156.0
127.060936 168.0
127.119278 124.0
127.144867 228.0
127.298866 56.0
127.332558 172.0
127.420166 204.0
127.507805 160.0
127.548264 164.0
127.579735 136.0
127.611206 112.0
127.723656 136.0
127.761902 196.0
127.953201 104.0
127.977966 156.0
127.99897 212.0
128.045532 88.0
128.063553 132.0
128.124374 188.0
128.182953 216.0
128.214508 136.0
128.241547 176.0
128.284378 76.0
128.302414 84.0
128.324966 132.0
128.35701 168.0
128.403885 116.0
128.467041 188.0
128.523453 140.0
128.568588 152.0
128.613724 64.0
128.701767 156.0
128.819214 120.0
128.835037 188.0
128.900558 196.0
128.974304 232.0
129.0 200.0
129.047485 224.0
129.174133 184.0
129.205811 176.0
129.248795 48.0
129.334793 172.0
129.407242 192.0
129.45253 128.0
129.484238 120.0
129.586182 240.0
129.692688 140.0
129.800201 244.0
129.871826 128.0
129.892242 40.0
129.935333 160.0
129.998871 312.0
130.041992 124.0
130.064697 176.0
130.121964 140.0
130.303146 168.0
130.325867 236.0
130.350861 152.0
130.378143 104.0
130.475876 144.0
130.600952 176.0
130.767059 176.0
130.804932 144.0
130.842178 72.0
130.90593 84.0
130.951477 240.0
130.985031 204.0
131.042603 176.0
131.060837 128.0
131.142883 136.0
131.209503 196.0
131.256866 84.0
131.300201 160.0
131.370911 192.0
131.443573 180.0
131.526093 176.0
131.854996 124.0
131.914429 180.0
132.00589 60.0
132.133972 216.0
132.152283 176.0
132.179733 200.0
132.216354 164.0
132.349136 60.0
132.429291 156.0
132.50946 216.0
132.773087 160.0
132.809784 176.0
132.883194 204.0
132.910721 168.0
132.988754 112.0
133.011703 180.0
133.048569 144.0
133.126511 192.0
133.239059 136.0
133.312592 140.0
133.344772 104.0
133.432129 108.0
133.489609 144.0
133.513855 132.0
133.73085 172.0
133.752274 196.0
133.770309 180.0
133.786423 132.0
133.818665 148.0
133.961456 36.0
134.013885 132.0
134.045959 51204.0
134.112122 52.0
134.180389 244.0
134.247192 96.0
134.275925 80.0
134.301544 52.0
134.333206 108.0
134.367203 88.0
134.401398 120.0
134.473358 56.0
134.556458 56.0
134.584167 36.0
134.611877 136.0
134.782303 192.0
134.808243 56.0
134.944519 88.0
134.970062 28.0
135.048309 2352.0
135.127609 240.0
135.156372 88.0
135.197571 172.0
135.21759 104.0
135.245377 48.0
135.275467 72.0
135.307877 60.0
135.377335 220.0
135.437561 52.0
135.551086 52.0
135.619492 224.0
135.666977 52.0
135.683212 52.0
135.701752 88.0
135.748123 136.0
135.780594 204.0
135.799149 68.0
135.817703 112.0
135.884979 144.0
135.923325 160.0
135.987091 140.0
136.014954 124.0
136.038284 148.0
136.107971 120.0
136.14032 76.0
136.162949 108.0
136.203033 136.0
136.250809 128.0
136.316879 72.0
136.363358 168.0
136.430771 120.0
136.477875 156.0
136.528442 72.0
136.557129 196.0
136.605194 92.0
136.666718 116.0
136.735504 160.0
136.840256 192.0
136.91011 40.0
136.977661 200.0
137.049881 148.0
137.250351 176.0
137.401962 184.0
137.448441 156.0
137.527969 88.0
137.684402 172.0
137.712433 172.0
137.803543 156.0
137.826904 164.0
137.890015 164.0
138.046646 204.0
138.088745 176.0
138.175293 36.0
138.217422 144.0
138.240814 148.0
138.343811 148.0
138.481964 152.0
138.594406 72.0
138.636597 216.0
138.717621 48.0
138.746765 156.0
138.812424 136.0
138.934967 112.0
138.976532 104.0
139.103348 312.0
139.204315 136.0
139.345047 136.0
139.378143 180.0
139.458847 188.0
139.52388 204.0
139.561493 128.0
139.603821 164.0
139.707321 224.0
139.836746 320.0
139.994476 40.0
140.046295 80.0
140.333801 256.0
140.399841 176.0
140.564972 120.0
140.602737 208.0
140.628693 188.0
140.737289 156.0
140.978241 124.0
141.059799 148.0
141.164993 60.0
141.214661 40.0
141.434723 180.0
141.583878 68.0
141.60994 152.0
141.664413 36.0
141.737869 136.0
141.816071 120.0
141.891937 192.0
141.993896 156.0
142.028534 184.0
142.092972 216.0
142.240677 60.0
142.275589 176.0
142.326141 132.0
142.459152 68.0
142.499542 196.0
142.544693 44.0
142.589844 116.0
142.675415 64.0
142.858536 184.0
142.946579 152.0
143.029877 208.0
143.096542 168.0
143.125107 164.0
143.182266 248.0
143.260864 136.0
143.346649 180.0
143.384781 116.0
143.451523 204.0
143.487274 116.0
143.554047 148.0
143.611282 172.0
143.759201 108.0
143.79364 160.0
143.841278 188.0
143.978851 120.0
144.093506 132.0
144.124573 124.0
144.184311 160.0
144.401886 196.0
144.5215 132.0
144.552597 160.0
144.636368 128.0
144.839905 160.0
144.909378 140.0
144.947723 44.0
145.185059 48.0
145.228226 144.0
145.275909 132.0
145.364975 180.0
145.494598 220.0
145.547424 144.0
145.60025 144.0
145.660294 144.0
145.756409 200.0
145.842926 132.0
146.028061 116.0
146.208511 148.0
146.326462 116.0
146.444473 128.0
146.514435 180.0
146.538422 68.0
146.707718 212.0
146.728821 192.0
146.774643 48.0
146.826675 180.0
146.941071 204.0
146.957962 160.0
146.974854 208.0
147.008636 244.0
147.167953 204.0
147.225906 184.0
147.452347 132.0
147.472351 100.0
147.714157 164.0
147.760117 64.0
147.837555 208.0
147.854492 216.0
147.871429 104.0
147.890793 136.0
147.948898 248.0
148.060287 264.0
148.13295 80.0
148.154755 208.0
148.197998 160.0
148.225021 176.0
148.241989 80.0
148.412903 228.0
148.465012 160.0
148.581451 96.0
148.71492 172.0
148.739197 236.0
148.863022 116.0
148.929123 92.0
149.011276 124.0
149.033066 108.0
149.126556 212.0
149.154572 104.0
149.266418 84.0
149.45372 112.0
149.553497 164.0
149.631393 108.0
149.77063 92.0
149.870102 144.0
150.009018 152.0
150.051895 224.0
150.089478 164.0
150.113861 244.0
150.143127 216.0
150.167511 96.0
150.19191 188.0
150.210342 176.0
150.2285 184.0
150.287048 44.0
150.318771 176.0
150.350494 168.0
150.396881 180.0
150.457901 212.0
150.496964 184.0
150.55069 72.0
150.795013 192.0
150.863449 76.0
150.941696 180.0
151.132492 108.0
151.252411 248.0
151.384628 120.0
151.693359 148.0
151.720322 136.0
151.747284 156.0
151.820847 212.0
151.852737 240.0
151.879547 172.0
151.945953 176.0
152.019562 136.0
152.055237 5064.0
152.098114 68.0
152.116974 104.0
152.184036 52.0
152.265076 124.0
152.30928 128.0
152.330673 120.0
152.350037 176.0
152.540268 296.0
152.55748 180.0
152.655838 188.0
152.693268 144.0
152.734543 188.0
152.926468 136.0
152.996078 528.0
153.058228 500.0
153.293427 196.0
153.320541 184.0
153.342728 216.0
153.399414 156.0
153.468445 164.0
153.530106 64.0
153.655899 172.0
153.705246 168.0
153.727463 224.0
153.74498 124.0
153.816315 112.0
153.853348 68.0
153.994644 292.0
154.023743 168.0
154.053391 128.0
154.095383 172.0
154.312881 156.0
154.34256 60.0
154.399445 88.0
154.604782 240.0
154.723602 56.0
154.770645 184.0
154.882095 176.0
154.901901 120.0
154.963837 72.0
154.994583 188.0
155.038177 84.0
155.085281 212.0
155.167084 144.0
155.350601 180.0
155.407669 200.0
155.442413 172.0
155.564026 64.0
155.755249 188.0
155.785049 160.0
155.854614 64.0
155.951538 104.0
156.078339 208.0
156.12558 144.0
156.381851 128.0
156.434128 180.0
156.561111 60.0
156.660751 124.0
156.710571 60.0
156.766129 164.0
156.790314 128.0
156.860107 168.0
156.997238 164.0
157.034653 116.0
157.077057 92.0
157.35408 132.0
157.386536 156.0
157.43399 140.0
157.511414 56.0
157.531403 156.0
157.606354 152.0
157.673828 144.0
157.718811 160.0
157.741318 232.0
157.853821 224.0
157.936356 184.0
157.986389 52.0
158.048935 176.0
158.33934 156.0
158.376907 196.0
158.457077 196.0
158.564819 176.0
158.604935 152.0
158.757874 188.0
158.82309 148.0
158.986176 168.0
159.033859 196.0
159.079041 168.0
159.099121 164.0
159.139297 120.0
159.20961 184.0
159.39299 152.0
159.418121 164.0
159.458344 164.0
159.49855 240.0
159.643127 168.0
159.699707 52.0
159.727386 180.0
159.752533 204.0
159.843124 196.0
159.860733 172.0
160.087311 120.0
160.132645 116.0
160.215759 120.0
160.321594 32.0
160.460236 236.0
160.498062 200.0
160.656952 204.0
160.712463 128.0
160.730133 72.0
160.815933 184.0
160.873993 144.0
160.911865 88.0
161.111389 120.0
161.164444 188.0
161.214981 180.0
161.237732 216.0
161.366653 172.0
161.447571 144.0
161.513336 160.0
161.574814 212.0
161.725876 184.0
161.817017 204.0
161.844864 180.0
161.979095 176.0
162.00444 132.0
162.12352 216.0
162.209702 120.0
162.240128 96.0
162.470917 116.0
162.498825 120.0
162.6698 228.0
162.709473 228.0
162.75264 204.0
162.780579 168.0
162.803436 320.0
162.874542 240.0
163.03775 228.0
163.105789 160.0
163.210022 128.0
163.255798 232.0
163.433868 216.0
163.461853 36.0
163.724075 132.0
163.764816 52.0
163.795395 108.0
163.848969 120.0
163.940613 196.0
164.183548 112.0
164.199738 188.0
164.332062 212.0
164.420074 140.0
164.476227 172.0
164.504318 28.0
164.586014 92.0
164.915359 144.0
164.942398 112.0
164.961594 144.0
164.997375 208.0
165.058746 112.0
165.135468 164.0
165.209656 104.0
165.235245 160.0
165.332474 156.0
165.570572 108.0
165.60643 160.0
165.702591 208.0
165.744781 204.0
165.780655 168.0
165.937012 172.0
165.985733 180.0
166.04216 272.0
166.072937 192.0
166.124237 208.0
166.285889 84.0
166.437363 148.0
166.478455 120.0
166.545227 136.0
166.668549 252.0
166.691666 124.0
166.996384 208.0
167.067062 368.0
167.095367 172.0
167.154556 168.0
167.198303 164.0
167.254929 128.0
167.298691 156.0
167.329575 220.0
167.39653 124.0
167.460922 240.0
167.532562 208.0
167.636108 140.0
168.056427 64.0
168.077072 100.0
168.120941 116.0
168.177719 84.0
168.213867 172.0
168.271851 188.0
168.311966 136.0
168.373947 112.0
168.448853 128.0
168.466934 132.0
168.611649 192.0
168.678848 132.0
168.715042 152.0
168.738312 176.0
168.805542 36.0
168.884018 128.0
168.915619 200.0
168.943878 248.0
169.002136 228.0
169.071899 100.0
169.125275 212.0
169.188492 140.0
169.257172 128.0
169.32457 116.0
169.387894 136.0
169.426758 160.0
169.446289 184.0
169.482574 124.0
169.532944 216.0
169.563065 172.0
169.572937 252.0
169.628891 160.0
169.68074 148.0
169.787872 320.0
169.821411 196.0
169.86647 176.0
169.895676 160.0
169.91333 308.0
169.939194 68.0
169.965759 276.0
169.991943 636.0
170.022461 170996.0
170.099823 96.0
170.133469 144.0
170.171875 168.0
170.208771 96.0
170.214111 216.0
170.231934 140.0
170.255371 168.0
170.289886 220.0
170.322601 72.0
170.341766 68.0
170.388397 256.0
170.403839 108.0
170.427856 188.0
170.436798 192.0
170.447571 112.0
170.456848 72.0
170.495819 48.0
170.532211 100.0
170.565781 184.0
170.589157 84.0
170.668579 88.0
170.693405 52.0
170.732407 112.0
170.768875 120.0
170.815643 64.0
170.839645 196.0
170.917419 68.0
170.971497 196.0
170.980759 128.0
171.023605 10388.0
171.099823 196.0
171.142273 80.0
171.209076 52.0
171.258804 64.0
171.292221 108.0
171.33194 100.0
171.383209 76.0
171.419693 100.0
171.445053 68.0
171.482239 48.0
171.514389 184.0
171.553207 176.0
171.583755 128.0
171.602478 208.0
171.636047 104.0
171.666351 220.0
171.724731 52.0
171.756027 44.0
171.810806 44.0
171.835724 116.0
171.899521 76.0
171.930832 140.0
171.963898 120.0
172.019119 38552.0
172.059937 184.0
172.101974 80.0
172.120377 228.0
172.142303 104.0
172.164474 136.0
172.188782 244.0
172.232712 52.0
172.308014 236.0
172.330948 200.0
172.366287 108.0
172.400787 108.0
172.432007 132.0
172.49556 116.0
172.542084 108.0
172.565613 64.0
172.598053 148.0
172.61908 108.0
172.671906 148.0
172.704224 128.0
172.730942 92.0
172.791779 76.0
172.846115 128.0
172.875748 100.0
172.925232 68.0
172.953949 64.0
173.021896 2100.0
173.082703 52.0
173.151321 132.0
173.257812 76.0
173.295868 76.0
173.330215 152.0
173.361389 96.0
173.437393 140.0
173.507431 72.0
173.55275 100.0
173.633835 104.0
173.788818 100.0
173.897461 60.0
173.922256 128.0
173.954163 152.0
174.093323 40.0
174.12381 92.0
174.156357 104.0
174.22728 56.0
174.251541 172.0
174.311203 132.0
174.340271 96.0
174.399139 120.0
174.414307 132.0
174.474335 160.0
174.542694 48.0
174.56163 196.0
174.724182 192.0
174.758377 112.0
175.037399 152.0
175.19281 72.0
175.250763 152.0
175.477448 60.0
176.063263 172.0
176.124008 132.0
176.219116 196.0
176.261398 108.0
176.433197 336.0
176.454346 120.0
176.499298 60.0
176.681793 96.0
176.782349 140.0
176.99147 144.0
177.333237 52.0
177.43927 116.0
177.582474 184.0
177.659393 192.0
177.691223 224.0
177.780212 224.0
177.9832 216.0
178.195694 140.0
178.323257 176.0
178.575836 136.0
178.623718 156.0
178.671616 44.0
178.807327 88.0
178.86322 80.0
178.929764 128.0
178.947372 168.0
179.062912 208.0
179.121521 76.0
179.209442 44.0
179.257401 128.0
179.292038 108.0
179.388 220.0
179.489319 80.0
179.50798 116.0
179.678696 176.0
179.713379 180.0
179.750732 44.0
180.333298 180.0
180.415817 68.0
180.525452 180.0
180.672562 92.0
180.715363 184.0
180.759766 64.0
180.958939 112.0
180.991074 36.0
181.406357 84.0
181.551147 172.0
181.62088 120.0
181.685257 136.0
181.891907 112.0
182.028824 192.0
182.152374 72.0
182.216858 128.0
182.52597 156.0
182.579742 164.0
182.622787 112.0
182.797653 172.0
182.910706 52.0
183.352432 120.0
183.670593 176.0
183.708359 28.0
183.871613 72.0
183.951248 164.0
184.037643 192.0
184.237503 92.0
184.483429 104.0
184.551025 76.0
184.740356 88.0
184.853989 156.0
185.317032 212.0
185.409164 52.0
185.555542 72.0
186.024887 176.0
186.09819 120.0
186.345367 152.0
186.380692 104.0
186.587265 144.0
187.093307 44.0
187.174423 176.0
187.253967 140.0
187.692734 112.0
187.788177 200.0
188.631927 72.0
189.00116 168.0
189.631042 176.0
190.196075 180.0
190.303085 156.0
190.330612 96.0
190.459686 120.0
190.553101 156.0
190.575073 120.0
190.970947 228.0
191.089249 184.0
191.160782 56.0
191.323181 148.0
191.356216 32.0
191.380997 228.0
191.783218 136.0
192.025864 220.0
192.242645 160.0
192.58342 160.0
193.014542 64.0
193.119644 116.0
193.440628 184.0
193.651077 160.0
193.847778 216.0
194.119446 104.0
194.210983 44.0
194.627274 140.0
194.691132 68.0
194.945419 184.0
195.002304 120.0
195.030106 216.0
195.244202 176.0
195.313736 60.0
195.379303 140.0
195.519623 240.0
195.603134 136.0
195.928955 152.0
196.341507 100.0
196.386139 176.0
196.746124 176.0
196.891327 80.0
197.276917 120.0
197.427917 124.0
197.783249 92.0
197.819641 104.0
198.222961 188.0
198.374313 104.0
198.497681 120.0
199.025024 112.0
199.095444 160.0
199.820679 124.0
200.16127 132.0
200.231674 180.0
200.550049 128.0
200.913834 176.0
201.009766 168.0
201.063385 128.0
201.165009 168.0
201.419159 92.0
201.585846 108.0
201.721512 120.0
202.182571 164.0
202.222198 188.0
202.471344 44.0
202.666809 160.0
202.743332 124.0
203.262283 164.0
203.488144 204.0
203.710892 112.0
203.730774 144.0
203.764877 164.0
203.881378 184.0
204.16568 152.0
204.228256 176.0
204.618118 176.0
204.726334 192.0
204.95137 236.0
204.971313 176.0
205.110977 120.0
205.190796 136.0
205.518814 372.0
206.001312 48.0
206.035599 184.0
206.08989 116.0
206.590225 172.0
206.650299 144.0
206.6875 104.0
206.862091 48.0
207.031021 184.0
207.351898 148.0
207.397766 36.0
207.423569 176.0
207.61853 188.0
207.710327 192.0
207.790649 196.0
207.928391 60.0
208.04895 124.0
208.135086 60.0
208.18103 136.0
208.201141 60.0
208.318909 204.0
208.373489 196.0
208.497055 248.0
208.52005 132.0
208.698288 112.0
208.879471 156.0
208.957138 208.0
209.043472 124.0
209.167236 156.0
209.293915 184.0
209.386063 160.0
209.550262 176.0
209.619415 40.0
210.245224 240.0
211.025162 192.0
211.135056 208.0
212.033524 292.0
212.571976 140.0
212.682266 172.0
212.963928 72.0
213.001694 148.0
213.034241 156.0
213.300995 160.0
213.353317 128.0
213.615051 56.0
213.719803 72.0
214.05455 200.0
214.182693 52.0
214.235138 168.0
214.305054 100.0
214.436203 108.0
214.698593 148.0
214.88237 88.0
215.396194 164.0
215.705948 144.0
215.76149 96.0
215.863831 140.0
215.893066 92.0
215.948639 44.0
216.200256 164.0
216.46373 60.0
216.622787 184.0
217.880463 252.0
217.942154 140.0
217.992111 140.0
218.042068 136.0
218.262558 164.0
218.439026 44.0
218.544937 156.0
218.730347 236.0
218.977692 152.0
219.260544 132.0
219.384338 128.0
219.776611 92.0
219.800217 192.0
219.838577 212.0
220.328735 96.0
220.520813 56.0
220.603592 72.0
220.710022 112.0
221.257401 120.0
221.559494 44.0
221.761169 136.0
221.820282 204.0
221.885498 260.0
221.962601 188.0
222.039703 180.0
222.113861 184.0
222.208786 196.0
222.446213 256.0
222.538254 148.0
222.93927 200.0
223.108704 84.0
223.566772 112.0
223.617371 56.0
223.840652 108.0
223.900223 144.0
224.0849 108.0
224.183243 48.0
224.326309 192.0
224.362091 220.0
224.61557 132.0
224.687164 168.0
224.785629 40.0
225.035339 184.0
225.481476 80.0
225.780457 128.0
225.867188 152.0
226.07663 236.0
226.253235 48.0
226.61264 108.0
226.732513 156.0
226.768478 132.0
226.906372 128.0
227.006851 208.0
227.047318 96.0
227.083298 136.0
227.140289 136.0
227.440369 212.0
227.572464 128.0
227.938934 140.0
228.098221 176.0
228.88649 212.0
228.937683 68.0
228.982864 124.0
229.091293 56.0
229.214828 48.0
229.74852 152.0
229.799805 164.0
229.836014 196.0
230.787506 76.0
231.498627 160.0
231.644012 228.0
231.901581 144.0
232.041992 188.0
232.371628 88.0
233.463715 100.0
233.78157 188.0
233.833313 232.0
233.891144 192.0
234.137772 120.0
234.238281 152.0
234.482056 156.0
234.887589 196.0
234.908936 148.0
234.939453 120.0
235.330109 84.0
235.525574 136.0
235.614166 80.0
235.977859 136.0
236.029846 152.0
236.060425 120.0
236.257431 168.0
236.406113 136.0
236.467331 240.0
236.49794 124.0
236.810257 144.0
236.859253 104.0
236.97261 144.0
236.997131 108.0
237.046158 196.0
237.076797 164.0
237.113571 92.0
237.138092 104.0
237.208603 88.0
237.254578 144.0
237.279114 124.0
237.306702 200.0
237.334305 112.0
237.370163 196.0
237.419357 184.0
237.446228 96.0
237.514893 276.0
237.54715 168.0
237.603012 92.0
237.688126 128.0
237.72403 260.0
237.764114 216.0
237.827469 80.0
237.879211 380.0
237.917389 192.0
237.950043 368.0
238.022873 184.0
238.085175 125152.0
238.155151 316.0
238.192734 256.0
238.235626 100.0
238.291519 200.0
238.323441 128.0
238.352722 116.0
238.400314 72.0
238.440796 124.0
238.494644 140.0
238.55928 112.0
238.590988 708.0
238.642456 220.0
238.679245 108.0
238.71666 72.0
238.746902 72.0
238.809326 140.0
238.847427 88.0
238.870544 80.0
238.914185 104.0
238.954971 84.0
238.964539 64.0
238.990768 132.0
239.029068 104.0
239.086044 16224.0
239.156113 44.0
239.241333 128.0
239.291565 184.0
239.377045 84.0
239.42868 68.0
239.470169 96.0
239.492615 28.0
239.516373 92.0
239.564316 92.0
239.623581 100.0
239.632767 36.0
239.675064 208.0
239.708557 92.0
239.743225 64.0
239.80452 116.0
239.845428 132.0
239.883087 184.0
239.904663 100.0
239.937378 164.0
239.981445 128.0
240.010315 104.0
240.081757 40004.0
240.136917 192.0
240.158386 100.0
240.168076 76.0
240.267914 60.0
240.309967 116.0
240.348679 108.0
240.397919 104.0
240.443954 108.0
240.464081 116.0
240.534424 168.0
240.586456 68.0
240.634827 260.0
240.655655 80.0
240.698029 60.0
240.725403 92.0
240.745544 92.0
240.797668 108.0
240.83844 100.0
240.873474 68.0
240.880493 56.0
240.92308 116.0
240.933685 116.0
240.94458 192.0
240.984055 96.0
241.084885 2468.0
241.150879 112.0
241.209198 96.0
241.244492 140.0
241.32045 68.0
241.352432 100.0
241.39061 216.0
241.454758 60.0
241.513519 76.0
241.576691 124.0
241.605042 48.0
241.613037 72.0
241.625519 60.0
241.657425 124.0
241.689865 52.0
241.723907 112.0
241.754852 64.0
241.810562 80.0
241.835327 116.0
241.91272 76.0
242.07991 152.0
242.28125 44.0
242.408051 52.0
242.479568 72.0
242.536209 124.0
242.57988 100.0
242.646957 72.0
242.671768 48.0
242.702774 64.0
242.78772 92.0
242.826828 112.0
242.848526 72.0
242.87645 140.0
242.929184 72.0
243.14949 56.0
243.211578 64.0
243.351913 96.0
243.574875 96.0
243.595108 96.0
243.677399 84.0
243.922913 40.0
244.400787 148.0
244.601059 32.0
244.653976 36.0
244.856384 32.0
245.485916 100.0
245.545181 64.0
245.582611 68.0
246.044464 108.0
246.105133 120.0
246.366135 76.0
247.789658 44.0
248.034103 100.0
249.975113 60.0
250.003433 76.0
250.038055 144.0
250.085266 112.0
250.265244 120.0
250.482025 120.0
250.916931 40.0
251.121902 64.0
251.150284 84.0
251.367981 44.0
251.60788 240.0
251.838394 96.0
252.198608 48.0
252.287125 96.0
252.416763 72.0
252.464188 40.0
253.369492 132.0
253.781525 72.0
253.981323 104.0
254.009872 60.0
254.149033 88.0
254.676468 84.0
254.886154 96.0
256.096405 136.0
256.295807 28.0
257.096222 60.0
260.808411 48.0
262.869659 60.0
264.107086 144.0
266.035187 328.0
271.566345 76.0
272.99173 80.0
273.781555 60.0
274.022034 136.0
276.052094 212.0
276.214142 100.0
278.418335 68.0
278.973236 84.0
279.741699 96.0
280.107819 308.0
282.086884 136.0
284.052612 108.0
284.683594 88.0
284.989288 32.0
285.463257 44.0
290.876007 112.0
293.6185 88.0
298.928711 84.0
299.131775 116.0
304.090302 164.0
305.979706 128.0
306.160767 112.0
307.443726 44.0
309.975647 84.0
312.109924 104.0
312.261139 92.0
313.183319 72.0
313.507446 96.0
313.648438 116.0
316.198639 108.0
316.807709 60.0
319.972107 124.0
320.388794 92.0
322.019012 52.0
323.427795 72.0
324.111847 112.0
330.091064 32.0
334.091797 108.0
336.730927 44.0
337.088959 96.0
338.219086 124.0
338.449738 48.0
340.984711 116.0
341.492096 108.0
341.558319 108.0
343.21933 60.0
352.129913 140.0
354.112244 108.0
354.494385 132.0
356.652466 92.0
358.884949 104.0
359.118774 68.0
359.24704 116.0
366.881287 52.0
369.535675 160.0
370.121765 612.0
370.171112 128.0
370.902893 88.0
371.135803 80.0
371.347687 56.0
371.597046 64.0
372.124268 388.0
372.341736 48.0
373.133362 148.0
373.714142 52.0
382.499542 32.0
383.12265 108.0
384.112823 84.0
385.885895 148.0
386.265228 128.0
387.43576 112.0
389.079041 124.0
391.698181 60.0
396.605988 60.0
400.42041 104.0
400.56778 80.0
400.639496 120.0
406.870514 88.0
407.97937 84.0
408.763702 72.0
411.197876 40.0
413.392426 60.0
413.704071 56.0
417.09137 80.0
419.110016 64.0
429.140228 48.0
433.037231 44.0
437.084991 124.0
438.446777 52.0
448.434601 68.0
452.248749 92.0
456.593475 128.0
458.266479 100.0
460.173035 28.0
460.232819 64.0
468.592621 76.0
471.289368 64.0
472.443756 44.0
474.765472 104.0
476.097839 100.0
480.415802 120.0
484.862793 80.0
485.349396 120.0
488.634888 68.0
493.513123 68.0
496.089905 92.0
497.181061 88.0
499.171326 112.0
500.136749 68.0
500.475128 52.0
513.259399 120.0
517.26239 56.0
517.932556 72.0
521.558167 136.0
526.191284 68.0
530.973267 64.0
542.144287 44.0
546.20697 136.0
548.036621 32.0
553.202148 80.0
570.573486 88.0
588.536804 80.0
589.048767 72.0
597.192322 56.0
606.940369 132.0
607.440613 72.0
607.838013 40.0
619.949768 112.0
624.776184 136.0
625.567505 48.0
635.006653 76.0
640.138 48.0
640.903625 56.0
646.078918 80.0
672.009338 48.0
680.949646 132.0
683.975891 96.0
692.785645 56.0
693.765686 32.0
716.731567 76.0
717.760376 36.0
724.966492 124.0
728.550842 76.0
749.479431 176.0
753.364136 64.0
756.536072 144.0
761.13623 148.0
775.951538 104.0
780.727051 156.0
786.114197 156.0
796.635132 68.0
807.310791 108.0
807.921692 76.0
814.588562 56.0
840.83728 140.0
841.125854 64.0
843.054993 80.0
843.500061 168.0
844.18811 36.0
846.288696 76.0
847.302246 40.0
847.62677 72.0
854.484253 208.0
855.95105 260.0
857.477417 44.0
859.588623 48.0
867.818848 200.0
874.392456 180.0
879.898193 60.0
885.889221 200.0
894.17865 200.0
895.971069 184.0
897.007996 40.0
900.982605 52.0
910.669128 40.0
915.245789 52.0
915.890198 92.0
927.449646 52.0
927.8255 120.0
934.147583 92.0
942.146057 184.0
942.280457 88.0
944.652527 56.0
947.009277 80.0
964.601929 112.0
965.708801 200.0
968.265015 108.0
972.91571 184.0
993.260132 180.0
998.517517 28.0
1006.742126 176.0
1007.266418 124.0
1007.891846 228.0
1008.043518 48.0
1008.397461 164.0
1008.764099 192.0
1012.072998 208.0
1017.77356 164.0
1030.078369 104.0
1031.471436 228.0
1035.797363 112.0
1046.947632 152.0
1055.34314 172.0
1055.543579 52.0
1056.293823 140.0
1058.118896 60.0
1064.363037 132.0
1068.887329 56.0
1071.289917 76.0
1071.791504 192.0
1077.272095 68.0
1079.612183 152.0
1082.622559 160.0
1083.441406 184.0
1088.104492 180.0
1088.590454 60.0
1089.010742 176.0
1091.633057 192.0
1093.363281 204.0
1094.607544 152.0
1099.888672 68.0
1103.799927 136.0
1104.395142 208.0
1105.109619 200.0
1106.175171 124.0
1107.612183 96.0
1109.527344 56.0
1110.356323 160.0
1113.767944 156.0
1115.661865 108.0
1116.739136 84.0
1117.397705 156.0
1119.634399 104.0
1120.613647 124.0
1121.593262 292.0
1124.374634 184.0
1127.600586 140.0
1128.409424 160.0
1131.755005 64.0
1134.099731 132.0
1135.52124 124.0
1136.091431 96.0
1136.614746 196.0
1136.742188 76.0
1138.010986 140.0
1140.362183 172.0
1142.009521 136.0
1142.231567 156.0
1143.563843 140.0
1143.651367 160.0
1144.062012 156.0
1145.004639 208.0
1146.857544 44.0
1148.786133 68.0
1151.810425 176.0
1155.921143 236.0
1158.453491 188.0
1158.50769 224.0
1160.947754 124.0
1161.246216 224.0
1161.822876 180.0
1162.888184 180.0
1167.161499 112.0
1170.815796 112.0
1172.914429 200.0
1173.378052 112.0
1173.957642 96.0
1178.251099 160.0
1183.052124 176.0
1183.949219 136.0
1184.058716 52.0
1185.518066 184.0
1188.562744 128.0
1188.645142 136.0
1188.926514 180.0
1195.957764 160.0
1196.246826 168.0
1196.446533 204.0
1197.396729 124.0
1199.470825 240.0
1200.774048 160.0
1202.367798 136.0
1202.429932 40.0
1205.164551 64.0
1205.53772 160.0
1205.931641 176.0
1206.014648 124.0
1207.805542 100.0
1209.83313 132.0
1211.377563 180.0
1211.973389 204.0
1214.316528 64.0
1216.203857 148.0
1220.907715 220.0
1222.911499 44.0
1223.036743 140.0
1223.106323 212.0
1227.865356 164.0
1228.151245 200.0
1230.754517 128.0
1231.536621 40.0
1233.395386 188.0
1233.640015 204.0
1241.608521 192.0
1242.927368 156.0
1245.41272 160.0
1245.756836 204.0
1246.853027 144.0
1246.958496 160.0
1247.492676 112.0
1252.136841 72.0
1253.820679 128.0
1254.976807 184.0
1255.759644 124.0
1257.636475 36.0
1257.728271 172.0
1260.821899 136.0
1264.011353 156.0
1269.983765 216.0
1275.309204 180.0
1275.63623 252.0
1276.724121 124.0
1277.307373 168.0
1277.82666 124.0
1278.730469 308.0
1281.343872 156.0
1285.222656 160.0
1285.486694 140.0
1288.628662 124.0
1289.378906 56.0
1290.215332 164.0
1291.817261 128.0
1292.074829 100.0
1292.332397 152.0
1293.885498 56.0
1294.558594 108.0
1295.50415 156.0
1295.912476 192.0
1303.396484 236.0
1303.978638 148.0
1304.21582 140.0
1304.891602 132.0
1305.065308 208.0
1305.143311 48.0
1306.603394 160.0
1309.821411 208.0
1310.023071 48.0
1312.891846 136.0
1314.435669 184.0
1316.673706 124.0
1317.699463 196.0
1318.154663 128.0
1318.544922 168.0
1324.992432 132.0
1325.41272 224.0
1326.103638 140.0
1326.528809 136.0
1326.82605 168.0
1327.181396 172.0
1331.535522 124.0
1331.920532 216.0
1335.249512 152.0
1336.529907 216.0
1337.869141 148.0
1338.699219 144.0
1339.733521 144.0
1344.537476 144.0
1345.755005 176.0
1346.495483 192.0
1347.98584 192.0
1348.380493 204.0
1350.171753 84.0
1351.90564 172.0
1352.110596 152.0
1352.447266 60.0
1353.274536 60.0
1354.329102 116.0
1355.391479 116.0
1356.256226 156.0
1356.695068 152.0
1356.820679 32.0
1357.033325 68.0
1357.370605 208.0
1357.839966 52.0
1358.060059 152.0
1359.087158 160.0
1360.054077 176.0
1360.129272 196.0
1361.832886 184.0
1362.170776 152.0
1362.494019 184.0
1366.743774 116.0
1367.229492 164.0
1367.77417 28.0
1367.987671 220.0
1368.27478 180.0
1370.80127 60.0
1371.081299 204.0
1372.799072 168.0
1374.02356 156.0
1374.08252 100.0
1374.473633 172.0
1376.673462 108.0
1377.471191 216.0
1377.567261 164.0
1378.032715 216.0
1379.222534 136.0
1379.836182 132.0
1380.583008 152.0
1383.150391 60.0
1383.379883 100.0
1383.527954 196.0
1384.223999 212.0
1386.364868 80.0
1387.992554 208.0
1388.566895 140.0
1392.612061 216.0
1393.718994 72.0
1394.960205 208.0
1395.867188 132.0
1397.154053 204.0
1397.384644 140.0
1397.838623 84.0
1398.37439 96.0
1398.49353 132.0
1401.442627 200.0
1401.636353 132.0
1402.78418 112.0
1403.209106 144.0
1403.425415 164.0
1404.55896 184.0
1406.596191 152.0
1408.799194 208.0
1409.523926 180.0
1410.368408 196.0
1412.013428 52.0
1412.200317 96.0
1412.552002 176.0
1412.761475 76.0
1413.891357 132.0
1415.11145 100.0
1415.575806 196.0
1415.658081 96.0
1416.219849 232.0
1418.925171 128.0
1419.405029 148.0
1420.320068 84.0
1421.167847 196.0
1422.068359 200.0
1422.286011 116.0
1422.68396 176.0
1424.118164 112.0
1424.463745 268.0
1424.583984 148.0
1424.937012 60.0
1425.778687 168.0
1427.793579 60.0
1428.598389 220.0
1429.584106 164.0
1429.648315 168.0
1431.722168 120.0
1432.256958 172.0
1432.354858 224.0
1432.558228 180.0
1433.515137 188.0
1435.022827 144.0
1435.452637 164.0
1436.417969 172.0
1436.915894 60.0
1436.976318 220.0
1438.531006 144.0
1439.376587 176.0
1439.572998 68.0
1441.227295 168.0
1441.590088 192.0
1441.915039 136.0
1442.07373 48.0
1443.774902 32.0
1444.274048 252.0
1446.027954 96.0
1446.703247 100.0
1446.877319 152.0
1446.990845 168.0
1447.248291 212.0
1447.569092 216.0
1448.460083 144.0
1450.801758 116.0
1453.342651 136.0
1454.997314 224.0
1456.105957 156.0
1457.815308 124.0
1457.876099 56.0
1460.86438 96.0
1462.150269 180.0
1462.835327 176.0
1464.518311 160.0
1465.523926 104.0
1465.904907 156.0
1466.057251 112.0
1467.871704 188.0
1468.695312 176.0
1468.748779 84.0
1469.267578 128.0
1469.85498 184.0
1470.503784 192.0
1471.954346 216.0
1472.634033 120.0
1473.466675 172.0
1473.74939 168.0
1474.391235 148.0
1475.170898 132.0
1476.287231 184.0
1476.570312 160.0
1478.337524 116.0
1478.635986 128.0
1478.865601 116.0
1479.202393 212.0
1479.38623 152.0
1479.92981 168.0
1481.34668 192.0
1481.553467 172.0
1481.683716 268.0
1482.181763 80.0
1482.326294 140.0
1482.90979 176.0
1483.515381 76.0
1484.558228 144.0
1485.501709 84.0
1487.343384 76.0
1487.665771 164.0
1489.746948 228.0
1491.652832 236.0
1491.975708 216.0
1493.282959 156.0
1494.429199 164.0
1495.137207 156.0
1495.545044 92.0
1495.776001 144.0
1496.014648 220.0
1497.123413 132.0
1499.103394 128.0
1499.658325 128.0
1499.835571 60.0
1500.760742 168.0
1500.884033 184.0
1501.23877 140.0
1501.856201 168.0
1502.473022 184.0
1505.390747 148.0
