>compound Chlorpromazine
>formula C17H19ClN2S 
>ionization [M+H]+
>parentmass 319.104187
#inchi InChI=1S/C17H19ClN2S/c1-19(2)10-5-11-20-14-6-3-4-7-16(14)21-17-9-8-13(18)12-15(17)20/h3-4,6-9,12H,5,10-11H2,1-2H3
#inchikey ZPEIMTDSQAKGNT
#Ion_Source LC-ESI
#Instrument qTof
#Compound_Source Isolated
#PI Sirenas
#Data_Collector Ed Esquenazi 
#Scan -1
#Precursor_MZ 319.104
#ExactMass 0.0
#Charge 1
#CAS_Number N/A
#Pubmed_ID N/A
#Smiles N/A
#INCHI_AUX N/A
#Library_Class 3
#SpectrumID CCMSLIB00000006518
#IonMode Positive
#UpdateWorkflowName UPDATE-SINGLE-ANNOTATED-BRONZE
#LibraryQualityString Bronze
#TaskID d19310cd93df49b68e9fcbec27720eb5
##Scan# 2
#SpectrumFile Chlorpromazine.mgf
#LibraryName fda_library.mgf
#MQScore -1
#Organism fda_library
#TIC_Query 0
#RT_Query -1
#MZErrorPPM -1
#SharedPeaks 0
#MassDiff 0
#LibMZ -1
#SpecMZ 319.104
#SpecCharge 0
#internalFilename spec-00000.mgf

>collision 10
101.545227 5.5
106.064148 51.418091
106.089218 1.540064
106.22184 9.230159
106.343781 5.000443
106.386833 4.602083
106.519913 11.36232
106.666893 3.515152
107.290009 2.5625
115.050041 8.160256
117.07061 254.208893
117.103088 1.724537
117.273193 1.880208
117.338074 5.372024
117.440056 2.893518
120.146255 1.868055
121.286499 5.273438
122.576027 3.675
124.019028 15.58681
127.041489 1.854167
129.03952 4.568056
131.074768 8.714578
136.021317 6.50399
139.327957 11.07843
140.024063 28.91375
147.331894 2.884615
150.239685 3.78125
151.051483 25.884411
152.059448 52.27454
154.060989 24.59598
156.169907 3.291667
159.392654 4.44079
160.673386 3.802778
162.951279 20.5376
162.972321 199.354797
163.024658 1.446759
163.690018 16.228741
164.029556 15.78926
166.062668 12.42181
167.075439 19.890051
168.261841 2.544384
169.984528 17.65992
177.058899 50.09325
178.065475 46.354389
180.071686 12.35507
180.12471 11.05648
184.68631 4.109601
186.552185 4.442402
196.017822 16.83333
196.261307 4.217948
196.349136 2.842262
198.035492 67.772614
198.367615 5.14685
199.050797 14.83333
201.032761 37.119141
204.079987 22.153151
205.084457 28.99387
205.127167 6.571428
206.09404 33.672218
209.032013 5.595158
209.78273 1.541667
209.897934 2.0
209.913345 9.144121
210.036911 119.963997
210.52063 23.299629
211.043976 295.736115
211.24025 2.765931
211.31662 7.589863
211.463303 5.862938
211.604965 1.002976
211.690521 13.05103
212.027618 36.897461
212.496582 2.334105
212.705536 3.000992
212.726059 2.14881
212.810944 4.508929
212.899612 5.190373
213.031357 64.474747
213.06015 1.6875
213.377609 7.539773
213.685501 3.62004
213.786636 4.180743
213.862473 3.913691
214.000397 10.41565
214.017883 43.201111
214.041779 1294.781982
214.103821 5.502193
214.183578 3.682449
214.234344 2.183712
214.254868 6.016304
214.351532 4.241071
214.368851 5.510417
214.382248 5.697601
214.41275 3.513889
214.4384 4.009868
214.484009 10.6681
214.537521 3.333896
214.569519 5.648438
214.594528 3.277778
214.769485 7.05255
214.815369 3.680556
215.060181 9.350428
215.407272 5.160714
215.75972 7.668561
216.726578 1.843202
217.397766 6.719203
217.516006 2.53125
223.03981 16.951389
224.050812 43.73328
227.054047 14.77253
228.053284 43.940361
228.281143 2.740036
231.030487 16.23918
231.753906 5.334167
231.791031 6.840517
231.996796 28.4538
232.798874 32.57045
233.006119 1086.776978
233.223267 2.339286
233.341354 10.69977
233.372223 1.5625
233.390686 11.50955
233.451797 5.668478
233.479767 2.707108
233.549408 7.840868
233.570908 3.504167
233.645187 6.270202
233.714752 6.6075
234.053009 8.502885
234.116699 1.173611
234.637741 7.724856
237.251785 8.362268
237.466248 5.717803
237.579102 3.345834
237.600266 6.406666
237.62645 4.173611
237.649033 12.21667
237.702118 13.55848
237.731934 3.668561
237.770905 9.055952
237.797913 7.459615
237.858383 17.04583
237.93306 6.643282
237.965439 6.487305
237.985458 8.208964
238.067703 286.209595
238.14151 14.44357
238.165054 7.291667
238.197327 3.080044
238.389328 6.9375
238.475128 5.183435
238.56105 0.847222
238.811218 43.37458
238.845886 3.000718
238.960358 8.450618
238.996475 8.167109
239.041336 14.50833
239.076462 6966.333008
239.144318 60.088261
239.196152 45.067719
239.23819 14.54445
239.263107 21.45966
239.314621 31.07736
239.344925 14.26178
239.362305 4.561237
239.38414 9.193334
239.405411 14.16692
239.440994 34.38485
239.472809 34.19593
239.488678 16.718719
239.52832 43.297039
239.557297 12.675
239.576294 34.90741
239.663818 4.930556
239.724472 15.79519
239.754791 14.27475
239.77298 28.77931
239.793091 6.507246
239.830338 9.857879
239.855011 9.499166
239.876328 23.01289
239.897644 10.00779
239.949432 13.46331
239.962067 7.560818
240.055466 65.954582
240.113739 2.145833
240.170334 5.013889
240.380951 15.20833
240.418961 5.817581
240.867996 13.97413
241.11058 11.92696
241.135452 1.680555
241.220108 1.6875
241.2388 7.751736
241.263901 2.820076
241.411957 5.415
241.433578 6.598766
241.562851 4.677778
241.708115 7.9
241.762833 5.008333
241.963623 1.854167
242.45134 4.040948
242.939911 10.98355
243.237 2.046875
243.589813 10.50676
244.035217 4.882936
244.421478 9.566945
244.453888 6.359509
244.49411 8.620193
244.521622 18.63426
244.553894 2.741071
244.599701 17.51783
244.626755 49.050911
244.669159 21.19451
244.709579 4.374492
244.762161 21.478781
244.784348 4.547348
244.797897 12.26875
244.848785 24.41717
244.883118 4.906703
244.900085 1.501894
244.943741 14.75585
244.970734 24.254869
245.002365 31.642611
245.070343 10.48847
245.2043 22.16885
245.231613 7.476616
245.244949 3.640152
245.278015 28.61039
245.553833 4.280093
245.649231 6.6875
245.822067 2.920139
245.892166 3.172619
245.913757 5.5
245.980911 109.6119
246.014267 13221.469727
246.105164 11.34545
246.141663 12.075
246.169266 48.41481
246.195984 62.47707
246.214203 23.943001
246.240768 45.363979
246.27327 38.09787
246.297913 21.066669
246.325165 27.688219
246.345383 33.30056
246.38295 28.63868
246.414566 39.03587
246.448685 6.56835
246.464142 11.00399
246.504135 20.273849
246.536438 9.226679
246.553207 23.0096
246.57663 40.863899
246.62207 13.22222
246.645966 8.339336
246.718857 19.501829
246.749146 3.178571
246.794083 35.555809
246.855347 6.796875
246.952209 4.761364
247.520798 1.928571
247.547684 11.9078
247.59436 5.002315
247.629288 7.010417
247.646179 4.175438
247.916733 3.255208
247.969299 2.503472
248.062515 10.71123
248.29924 2.14881
248.3255 2.027412
248.381241 1.592803
248.474258 8.631071
248.672394 8.74138
248.731964 11.77174
248.896591 11.34186
249.561859 3.375
250.150452 11.35188
250.413101 5.500534
251.024536 0.833333
251.181656 4.791667
251.489914 2.901389
253.069092 42.509979
253.117889 2.670455
253.162079 0.833333
259.02475 7.078947
268.094452 6.75
272.022736 67.718727
272.324005 2.407738
272.33847 5.852083
272.377228 12.74155
272.401611 4.159314
272.45636 13.18561
272.574799 3.040441
272.683807 6.201316
272.7388 3.517045
272.818207 1.870833
272.859802 2.799342
273.291534 2.839382
273.326111 29.68313
273.34436 8.198413
273.366638 4.898148
273.429565 14.0
273.665497 4.061275
273.941803 10.17014
273.997101 58.0741
274.017548 14.56776
274.045746 5145.097168
274.114807 14.06481
274.130371 14.02668
274.149139 2.33443
274.174225 16.05279
274.219025 5.667201
274.250824 15.39156
274.294281 12.86097
274.315491 17.43355
274.356781 10.13455
274.378082 20.697109
274.419006 4.555556
274.43576 10.5942
274.469055 56.488392
274.52359 14.88826
274.545624 13.86852
274.581299 2.0
274.652954 5.979167
274.695221 7.915674
274.709869 13.99175
274.759583 23.489811
274.86554 8.046073
274.898468 7.177083
274.921143 3.580357
275.342377 1.180556
275.496338 21.9174
275.655151 5.598684
275.677704 5.70673
275.825928 8.666667
275.952362 7.190374
276.223083 2.568056
277.360809 3.4
277.610291 2.345833
278.555969 7.511574
280.912445 2.001096
285.30365 12.4288
286.27417 1.074405
304.079102 134.644897
304.373627 6.5
311.264404 5.839798
312.776428 10.83472
313.547577 4.713362
315.285339 4.006944
315.511566 2.69391
316.435333 2.841486
316.921326 2.893518
317.015076 14.93414
317.041077 141.408203
317.072266 41.83099
317.104675 22.81889
317.145325 54.779442
317.180908 46.19952
317.215912 40.664669
317.23526 28.04743
317.252167 38.734909
317.286804 53.057571
317.319611 59.964939
317.35202 17.288219
317.374512 20.704941
317.4133 37.365211
317.426483 3.334936
317.443634 57.03791
317.473358 34.086029
317.505981 31.611361
317.520081 3.483333
317.597168 32.442669
317.659271 62.824299
317.856445 32.37463
317.885101 2.166667
318.164154 4.670455
318.303833 25.897039
318.388855 46.86105
318.49295 10.68006
318.680634 5.989719
318.716522 32.325249
318.940674 9.913837
318.996979 10.57317
319.048218 53.530418
319.104187 37558.78125
319.272125 33.448158
319.462128 56.749401
319.508209 38.68634
319.547363 80.471184
319.577301 92.971939
319.621582 48.051128
319.694458 106.625298
319.741028 20.509029
319.77298 78.992531
319.806671 71.532089
319.82962 10.06607
319.885925 71.002472
319.93927 43.607101
319.987457 24.11837
320.032959 55.31168
320.170624 20.82605
320.24585 90.40332
320.324371 9.745879
320.352753 4.328305
320.934204 35.120529
321.043854 3.547619
321.141693 14.63234
321.212189 3.334105
321.264648 12.88616
321.305695 1.166667
321.380554 4.694257
321.405487 3.0625
321.467865 2.900833
321.493866 3.740833
321.573914 3.891523
321.699646 19.208429
321.723663 5.668982
321.786041 7.170204
322.042938 12.87537
322.22464 13.80139
322.242401 7.448333
322.325562 3.316886
322.397919 3.760417
322.422455 1.911859
322.45343 13.6965
322.891846 4.7075
322.975555 4.815587
323.00412 2.834167
323.054138 5.192842
323.091644 3.172024
323.642578 6.174819
324.4375 4.506465
325.235596 1.5625
327.224976 7.522727
327.694672 4.0625
328.012787 3.173611
331.867371 2.213542
464.147552 2.690476
478.360565 8.235043
482.279053 4.516667
484.184052 4.531863
510.678528 39.172951
558.747864 5.446908
575.188965 3.5
583.505859 8.001263
671.395996 7.145833
708.335083 2.841486
713.557434 4.245614
726.751709 3.433333
801.906982 6.630401
820.626343 5.667201
824.966797 4.273809
884.725464 1.837963
902.456238 2.691468
905.594177 4.381547
927.225159 6.388889
942.253906 7.666667
945.525269 16.92178
953.426758 42.560219
989.400879 6.186531
1072.499268 2.3375
1098.327026 1.8125
1114.008545 4.213542
1159.341553 8.17742
1178.553101 5.086693
1211.694336 6.205883
1230.524658 6.606667
1352.63269 7.517045
1355.898315 21.46731
1397.2771 9.8
1449.137207 5.183435
1464.766235 3.348214
1470.564209 8.760417
1492.508545 5.661638
1501.448486 3.645833
1632.985352 3.0625
1657.000244 5.347757
1664.016968 4.586925
1693.102905 44.5625
