>compound MLS000069734-01!HYDROCORTISONE ACETATE
>formula C23H32O6
>ionization [M+H]+
>parentmass 405.228
#inchi InChI=1S/C23H32O6/c1-13(24)29-12-19(27)23(28)9-7-17-16-5-4-14-10-15(25)6-8-21(14,2)20(16)18(26)11-22(17,23)3/h10,16-18,20,26,28H,4-9,11-12H2,1-3H3/t16-,17-,18-,20+,21-,22-,23-/m0/s1
#inchikey ALEXXDVDDISNDU
#Ion_Source LC-ESI
#Instrument qTof
#Compound_Source NIH Pharmacologically Active Library
#PI Dorrestein
#Data_Collector VP/LMS
#Scan -1
#Precursor_MZ 405.228
#ExactMass 404.22
#Charge 1
#CAS_Number N/A
#Pubmed_ID N/A
#Smiles CC(=O)OCC(=O)[C@@]1(O)CC[C@H]2[C@@H]3CCC4=CC(=O)CC[C@]4(C)[C@H]3[C@@H](O)C[C@@]21C
#INCHI_AUX N/A
#Library_Class 1
#SpectrumID CCMSLIB00000084950
#IonMode Positive
#UpdateWorkflowName UPDATE-SINGLE-ANNOTATED-GOLD
#LibraryQualityString Gold
#TaskID d252d724072548979f1f6f1ced849daf
##Scan# 1960
#SpectrumFile p3-D02_GD2_01_18259.mzXML
#LibraryName Pharm_Active_Library.mgf
#MQScore -1
#Organism Pharm_Active_Library
#TIC_Query 0
#RT_Query -1
#MZErrorPPM -1
#SharedPeaks 0
#MassDiff 0
#LibMZ -1
#SpecMZ 405.228
#SpecCharge 0
#internalFilename spec-00000.mgf

>collision 10
44.898678 240.0
44.912018 208.0
45.078907 248.0
45.21666 136.0
45.238075 156.0
45.262177 108.0
45.579166 216.0
45.605633 100.0
45.710537 216.0
45.822716 232.0
45.846554 200.0
45.994919 136.0
46.020573 144.0
46.098919 68.0
46.258526 268.0
46.30727 140.0
46.58807 144.0
46.692738 116.0
47.007442 164.0
47.030647 200.0
47.045662 68.0
47.06068 220.0
47.085632 176.0
47.122143 156.0
47.228779 220.0
47.27393 64.0
47.319099 140.0
47.421844 48.0
47.583721 52.0
47.600197 84.0
47.667507 80.0
47.772007 68.0
48.057201 180.0
48.193901 136.0
48.898396 140.0
48.934025 200.0
49.086472 128.0
49.111576 236.0
49.191116 132.0
49.446915 148.0
49.497314 196.0
49.547737 160.0
49.57296 220.0
49.664093 228.0
49.832558 144.0
49.85223 156.0
49.949245 196.0
50.071705 128.0
50.126648 168.0
50.136513 160.0
50.233803 140.0
50.295895 140.0
50.411709 84.0
50.423016 188.0
50.468254 156.0
50.548885 120.0
50.803928 144.0
50.847916 100.0
51.154949 168.0
51.268898 80.0
51.328773 112.0
51.361576 180.0
51.424358 124.0
51.837681 108.0
52.219574 156.0
52.284317 180.0
52.343342 188.0
52.375027 176.0
52.428337 184.0
52.527828 352.0
52.597092 152.0
52.649071 104.0
52.676517 124.0
52.770458 140.0
53.075977 36.0
53.327137 120.0
53.396927 132.0
53.412926 160.0
53.590542 220.0
53.608028 192.0
53.673626 64.0
53.835609 88.0
53.914501 248.0
54.008076 52.0
54.144196 144.0
54.205727 196.0
54.235039 196.0
54.433102 136.0
54.512428 164.0
54.620583 188.0
54.705109 60.0
54.728668 184.0
54.744865 104.0
55.35181 232.0
55.483681 128.0
55.566738 60.0
55.823715 144.0
55.998375 56.0
56.206558 156.0
56.568253 148.0
56.688076 156.0
56.712055 156.0
57.179173 152.0
57.227345 232.0
57.441353 68.0
57.451916 160.0
57.486618 304.0
57.519825 168.0
57.707161 252.0
57.802456 148.0
57.875114 140.0
58.17683 168.0
58.280109 148.0
58.569168 156.0
58.668221 84.0
58.94907 180.0
59.033154 44.0
59.085159 224.0
59.206085 104.0
59.218338 144.0
59.310272 144.0
59.333267 116.0
59.669502 120.0
59.761787 192.0
59.921917 180.0
59.966606 144.0
60.071465 84.0
60.094604 128.0
60.164059 76.0
60.282993 124.0
60.337093 136.0
60.402046 132.0
60.432987 116.0
60.583168 96.0
60.656002 148.0
60.891853 176.0
61.014614 60.0
61.034828 172.0
61.343102 152.0
61.394554 132.0
61.456955 160.0
61.592777 320.0
61.670906 148.0
61.946312 212.0
61.990185 176.0
62.07954 176.0
62.450191 296.0
62.508404 48.0
62.635933 184.0
62.818794 60.0
62.916641 88.0
62.976978 152.0
63.069874 36.0
63.190063 144.0
63.356304 132.0
63.408592 164.0
63.562424 152.0
63.630676 168.0
63.65926 132.0
63.684669 164.0
63.722797 144.0
63.795906 232.0
63.842018 160.0
64.090347 184.0
64.262558 220.0
64.299095 196.0
64.364708 168.0
64.550079 92.0
64.705284 200.0
64.774147 164.0
64.847855 148.0
64.871902 144.0
65.005531 140.0
65.025894 116.0
65.082077 152.0
65.133469 180.0
65.455132 116.0
65.642059 148.0
65.750298 172.0
65.772743 124.0
65.90033 48.0
66.069504 188.0
66.10569 192.0
66.20768 128.0
66.272484 216.0
66.616432 172.0
66.778984 156.0
66.835922 156.0
67.148712 360.0
67.17318 128.0
67.264557 116.0
67.427902 180.0
67.511276 140.0
67.624168 100.0
67.76664 128.0
67.94371 60.0
68.227837 112.0
68.287033 100.0
68.359421 196.0
68.448318 196.0
68.52903 128.0
68.573524 132.0
68.680695 68.0
68.771454 164.0
68.935684 208.0
69.032486 168.0
69.526176 192.0
69.549416 140.0
69.657349 108.0
69.742096 148.0
69.833542 248.0
69.943359 204.0
70.036728 168.0
70.066597 212.0
70.487068 208.0
70.751343 220.0
70.82 180.0
70.836754 144.0
70.865234 156.0
71.006042 136.0
71.093285 224.0
71.574066 160.0
71.66629 144.0
71.742554 52.0
71.855553 116.0
71.885925 184.0
72.113922 188.0
72.286423 180.0
72.357521 72.0
72.391495 188.0
72.606613 140.0
72.642235 136.0
72.808571 212.0
72.873123 48.0
72.947906 96.0
72.978508 164.0
73.148636 112.0
73.359879 104.0
73.462196 88.0
73.795235 160.0
73.90641 156.0
74.175293 64.0
74.201012 140.0
74.278183 128.0
74.417198 116.0
74.580399 228.0
74.599312 172.0
74.625099 156.0
74.717972 148.0
74.788528 140.0
75.017632 72.0
75.138359 116.0
75.198753 164.0
75.461334 164.0
75.572029 68.0
75.880333 196.0
76.182312 136.0
76.347435 188.0
76.51622 164.0
76.582397 172.0
76.723549 148.0
76.897987 184.0
77.041176 172.0
77.153023 200.0
77.532867 212.0
77.555649 168.0
77.590065 228.0
77.627533 120.0
78.050735 192.0
78.140434 160.0
78.158035 112.0
78.224915 148.0
78.293579 140.0
78.369331 48.0
78.526222 180.0
78.755684 164.0
78.866997 36.0
79.049164 204.0
79.066864 176.0
79.174858 192.0
79.208511 172.0
79.298882 184.0
79.38398 100.0
79.405258 44.0
79.605804 168.0
79.641327 168.0
79.682182 224.0
79.721275 92.0
79.852837 120.0
79.874184 132.0
80.005013 200.0
80.087784 108.0
80.605164 196.0
80.624825 192.0
80.850166 192.0
81.179802 156.0
81.42028 88.0
81.54245 120.0
81.713287 112.0
81.936539 88.0
82.172722 212.0
82.255737 116.0
82.300873 168.0
82.566521 152.0
82.651543 168.0
82.776161 228.0
82.821724 148.0
82.865204 124.0
82.905067 136.0
83.05011 104.0
83.158974 156.0
83.258835 132.0
83.429634 168.0
83.491463 196.0
83.549667 152.0
83.578781 124.0
83.693451 148.0
83.839188 212.0
83.873817 168.0
83.890221 120.0
83.952217 112.0
84.12738 144.0
84.163895 104.0
84.224167 132.0
84.442833 164.0
84.610023 116.0
84.928879 92.0
85.081192 176.0
85.12159 64.0
85.25753 160.0
85.277748 96.0
85.334732 180.0
85.721283 176.0
85.750771 152.0
85.783951 144.0
86.020073 100.0
86.056999 172.0
86.129021 192.0
86.230644 176.0
86.36747 68.0
86.595139 188.0
86.717422 120.0
86.773033 176.0
87.049507 80.0
87.134956 208.0
87.205566 164.0
87.25576 180.0
87.28923 188.0
87.333862 232.0
87.346848 184.0
87.475281 100.0
88.057053 176.0
88.253273 96.0
88.352394 104.0
88.599525 172.0
88.783218 140.0
89.042213 76.0
89.17112 164.0
89.224487 252.0
89.367424 176.0
89.384361 220.0
89.663078 220.0
89.862961 156.0
90.390144 208.0
90.479103 224.0
90.507507 156.0
90.638206 136.0
90.789864 192.0
90.884712 164.0
91.017586 128.0
91.053253 608.0
91.082153 228.0
91.135353 220.0
91.209465 64.0
91.500534 124.0
91.658356 172.0
92.057312 88.0
92.070679 100.0
92.177658 136.0
92.602371 144.0
92.648346 180.0
92.759499 208.0
92.880302 124.0
93.012703 64.0
93.068062 652.0
93.231667 176.0
93.28933 208.0
93.345085 148.0
93.370087 112.0
93.46627 136.0
93.516312 188.0
93.633759 112.0
93.651093 208.0
93.693466 40.0
93.853439 204.0
93.928658 148.0
93.998116 156.0
94.073387 120.0
94.094627 44.0
94.22596 136.0
94.245277 100.0
94.481155 176.0
94.709587 148.0
94.965439 168.0
95.045685 364.0
95.07991 316.0
95.379021 172.0
95.622154 112.0
95.816887 140.0
96.058624 152.0
96.273323 116.0
96.480446 160.0
96.525414 136.0
96.711273 168.0
96.756294 172.0
96.781754 144.0
97.018822 36.0
97.064201 2140.0
97.095291 92.0
97.25618 140.0
97.417198 132.0
97.4506 212.0
97.464355 64.0
97.48597 104.0
97.643814 152.0
97.664886 124.0
97.944389 216.0
97.970001 172.0
98.066254 180.0
98.094154 176.0
98.12767 188.0
98.157242 40.0
98.188797 180.0
98.242058 172.0
98.623169 180.0
98.688408 148.0
98.850609 156.0
98.921867 136.0
99.041794 276.0
99.080292 148.0
99.098129 200.0
99.29438 228.0
99.343964 112.0
99.387611 120.0
99.518616 228.0
99.73317 92.0
99.882309 160.0
99.92408 100.0
100.049469 180.0
100.067383 140.0
100.49791 156.0
100.655594 204.0
100.779442 136.0
100.831398 164.0
101.018364 204.0
101.333672 172.0
101.39579 172.0
101.461945 136.0
101.648476 128.0
101.674568 224.0
101.772926 140.0
101.926987 132.0
102.038147 196.0
102.321281 176.0
102.626068 180.0
102.751114 100.0
102.765236 120.0
102.799545 120.0
102.813667 204.0
102.868164 196.0
102.961044 124.0
102.981247 108.0
103.050858 456.0
103.092361 32.0
103.138847 180.0
103.187363 212.0
103.250053 192.0
103.348083 196.0
104.058578 180.0
104.166214 216.0
104.347084 220.0
104.365387 224.0
104.705231 224.0
105.033379 108.0
105.068924 2060.0
105.18438 192.0
105.468315 168.0
105.842705 168.0
106.076912 192.0
106.135727 100.0
106.38398 152.0
106.448997 144.0
106.721809 148.0
106.74765 188.0
106.924576 104.0
106.973976 64.0
107.049118 712.0
107.084579 1368.0
107.103706 204.0
107.144905 184.0
107.429405 180.0
107.507812 172.0
107.786591 76.0
108.06031 200.0
108.090149 180.0
108.140236 140.0
108.272743 124.0
108.623032 72.0
108.735077 164.0
108.828491 168.0
109.064934 1824.0
109.099892 444.0
109.158882 108.0
109.242073 140.0
109.260796 156.0
109.618935 240.0
109.775276 172.0
109.969299 188.0
110.067421 492.0
110.100174 228.0
110.297234 96.0
110.339043 88.0
110.399681 152.0
110.41851 32.0
110.749207 156.0
110.816238 184.0
110.866531 92.0
111.042442 300.0
111.080322 664.0
111.124451 188.0
111.145439 48.0
111.219101 120.0
111.452003 172.0
111.504539 168.0
111.851593 208.0
112.085365 116.0
112.157028 176.0
112.188644 236.0
112.228706 196.0
112.367912 60.0
112.712074 148.0
112.866386 140.0
112.991173 184.0
113.031372 180.0
113.052963 140.0
113.099098 168.0
113.147789 140.0
113.180893 132.0
113.36808 176.0
113.588585 164.0
113.745613 160.0
113.864517 88.0
113.881508 176.0
113.977104 184.0
114.172684 60.0
114.481262 148.0
114.525986 48.0
114.615463 128.0
114.809456 112.0
114.888374 128.0
114.975861 72.0
115.054024 900.0
115.088997 232.0
115.163742 96.0
115.289795 196.0
115.7099 116.0
115.747589 160.0
115.807556 212.0
116.062485 184.0
116.35009 184.0
116.386589 168.0
116.478935 248.0
116.618607 96.0
116.758354 64.0
117.003662 116.0
117.06974 1336.0
117.356117 136.0
117.423851 184.0
117.477783 56.0
117.59214 68.0
117.78524 196.0
117.870735 88.0
117.989609 192.0
118.072021 216.0
118.218887 88.0
118.297554 268.0
118.372589 156.0
118.420235 60.0
118.454895 220.0
118.545891 124.0
118.608742 132.0
118.706306 164.0
118.721489 164.0
118.745346 92.0
118.821266 168.0
118.869003 152.0
118.884193 52.0
118.899384 136.0
119.085182 3776.0
119.155617 44.0
119.242538 192.0
119.379501 68.0
119.401253 156.0
119.425179 216.0
119.564423 188.0
119.797966 124.0
119.821365 232.0
120.054604 244.0
120.087135 572.0
120.218216 132.0
120.261864 172.0
120.312073 208.0
120.405968 156.0
120.556709 180.0
120.674751 144.0
120.698799 196.0
120.926315 180.0
120.962852 232.0
121.016075 28.0
121.064865 8656.0
121.097893 644.0
121.121826 180.0
121.195679 56.0
121.221619 248.0
121.401733 148.0
121.537743 56.0
121.553101 156.0
121.635574 76.0
121.752869 52.0
121.798996 48.0
121.851715 124.0
122.001167 188.0
122.067032 796.0
122.10891 196.0
122.303352 148.0
122.320145 64.0
122.463264 128.0
122.520126 128.0
122.835785 116.0
123.041946 156.0
123.07959 2448.0
123.127663 168.0
123.288414 48.0
123.460854 48.0
123.607803 188.0
124.003273 84.0
124.054253 152.0
124.086113 324.0
124.249413 136.0
124.449165 120.0
124.555763 76.0
124.64463 156.0
124.702415 96.0
124.920326 204.0
125.062157 412.0
125.088203 220.0
125.604202 168.0
125.675591 100.0
125.869789 196.0
125.889885 96.0
125.907753 152.0
126.064133 132.0
126.127258 148.0
126.492241 168.0
126.506996 200.0
126.569687 168.0
126.80043 88.0
126.858704 136.0
126.950638 156.0
126.966331 152.0
127.056053 52.0
127.127861 112.0
127.500046 176.0
127.543358 204.0
127.631042 84.0
127.757812 228.0
127.842491 204.0
127.961792 160.0
127.993317 212.0
128.059692 832.0
128.117188 168.0
128.342377 188.0
128.523026 132.0
128.640381 172.0
128.681015 104.0
128.744247 192.0
128.973892 244.0
129.024429 124.0
129.068161 1752.0
129.096786 52.0
129.25061 60.0
129.375092 92.0
129.431702 64.0
129.461136 160.0
129.621979 156.0
129.676376 96.0
130.056778 156.0
130.076599 1392.0
130.136871 172.0
130.278809 220.0
130.407211 196.0
130.523148 164.0
130.780228 64.0
130.805267 144.0
130.821213 144.0
130.978333 200.0
131.042236 148.0
131.084915 2664.0
131.121872 176.0
131.141464 64.0
131.187408 144.0
131.340759 40.0
131.475372 176.0
131.491348 40.0
131.591797 168.0
131.91391 56.0
132.051117 168.0
132.067123 188.0
132.087479 328.0
132.330292 176.0
132.405853 120.0
132.718903 204.0
132.84137 200.0
132.953796 188.0
133.064392 456.0
133.101273 1724.0
133.3741 172.0
133.587967 48.0
133.627075 116.0
133.76976 128.0
133.85495 160.0
133.879349 184.0
134.032318 44.0
134.057663 196.0
134.104645 344.0
134.159073 148.0
134.179825 208.0
134.225937 152.0
134.657501 220.0
135.00647 204.0
135.043472 124.0
135.081085 1932.0
135.115067 196.0
135.219315 108.0
135.244781 52.0
135.358215 48.0
135.436966 68.0
135.460129 140.0
135.682602 128.0
135.761444 168.0
135.858856 52.0
135.923828 172.0
136.051483 164.0
136.084198 512.0
136.11882 140.0
136.320908 28.0
136.341827 236.0
136.399933 164.0
136.555725 160.0
136.672043 100.0
136.918793 116.0
136.958389 148.0
136.979858 188.0
136.997986 184.0
137.060928 336.0
137.096405 776.0
137.12616 244.0
137.200745 180.0
137.333664 120.0
137.419983 104.0
137.788864 176.0
137.81691 56.0
137.959473 236.0
138.067032 136.0
138.181656 168.0
138.22377 120.0
138.521118 168.0
138.558594 160.0
138.905548 212.0
138.926666 56.0
139.018173 204.0
139.074387 396.0
139.121445 156.0
139.191879 212.0
139.290527 60.0
139.344559 204.0
139.807785 168.0
139.967865 152.0
140.026733 152.0
140.104477 168.0
140.427414 148.0
140.538284 48.0
140.750732 136.0
141.070694 1456.0
141.329849 228.0
141.832977 188.0
142.005005 148.0
142.075836 1876.0
142.154465 144.0
142.211426 68.0
142.273148 184.0
142.289764 108.0
142.560547 196.0
142.712677 204.0
142.743591 68.0
142.826828 144.0
142.910095 132.0
143.024323 76.0
143.084808 5208.0
143.174698 52.0
143.214813 92.0
143.410202 192.0
143.453094 104.0
143.577087 36.0
143.596176 188.0
143.710678 92.0
143.913559 76.0
143.985199 32.0
144.059204 276.0
144.091125 1060.0
144.169159 36.0
144.200226 96.0
144.259979 104.0
144.28627 156.0
144.523056 228.0
144.623566 224.0
144.652298 240.0
144.721725 136.0
144.750458 132.0
144.94928 128.0
145.013992 112.0
145.064072 524.0
145.09964 4240.0
145.229782 156.0
145.306549 104.0
145.400131 180.0
145.457733 116.0
145.537628 72.0
145.801208 264.0
146.070724 376.0
146.10556 796.0
146.214859 132.0
146.424316 164.0
146.553329 268.0
146.735168 180.0
146.805099 56.0
147.051178 136.0
147.079437 1584.0
147.115921 1888.0
147.331284 88.0
147.369949 128.0
147.626175 80.0
148.086456 824.0
148.119827 324.0
148.158676 144.0
148.19986 120.0
148.396194 76.0
148.548981 160.0
148.670288 168.0
148.687286 92.0
148.917938 76.0
149.056412 96.0
149.093384 712.0
149.135971 288.0
149.438156 112.0
149.596359 120.0
149.727844 52.0
149.805786 188.0
149.981232 124.0
150.09906 136.0
150.32756 216.0
150.872238 252.0
150.938248 192.0
151.076324 464.0
151.109467 224.0
151.129044 180.0
151.273438 52.0
151.535492 96.0
151.589386 184.0
151.800217 296.0
151.83699 76.0
151.868881 132.0
152.059235 248.0
152.595779 140.0
153.018951 76.0
153.043579 180.0
153.066177 204.0
153.089432 168.0
153.198746 176.0
153.265259 236.0
153.344116 220.0
153.644958 36.0
153.736252 92.0
153.77327 148.0
153.820175 168.0
154.077225 820.0
154.108795 184.0
154.168427 60.0
154.203033 36.0
154.455231 76.0
154.544296 192.0
154.794998 172.0
154.935486 152.0
155.0569 160.0
155.085236 2536.0
155.195724 48.0
155.235397 52.0
155.287476 92.0
155.659729 44.0
155.7715 96.0
155.83609 136.0
155.858459 68.0
156.091446 492.0
156.171692 200.0
156.243835 128.0
156.318481 236.0
156.744293 124.0
156.80162 96.0
156.819061 216.0
156.888855 160.0
157.063858 668.0
157.100601 3940.0
157.184769 56.0
157.300476 148.0
157.335419 188.0
157.405334 192.0
157.605164 48.0
157.625153 40.0
157.790131 72.0
157.87175 56.0
158.070953 560.0
158.105087 592.0
158.157852 224.0
158.631287 212.0
158.801804 100.0
158.826889 44.0
158.997498 52.0
159.037659 196.0
159.079437 1668.0
159.116501 3228.0
159.205521 172.0
159.318893 68.0
159.404327 100.0
159.557648 108.0
160.081985 440.0
160.119965 820.0
160.400986 72.0
160.910583 104.0
161.056778 184.0
161.096939 1960.0
161.133591 500.0
161.21875 168.0
161.317322 88.0
161.519623 48.0
161.782806 128.0
161.805588 76.0
161.833435 40.0
162.008194 32.0
162.080719 160.0
162.099716 656.0
162.205856 120.0
162.243881 156.0
162.649765 104.0
162.81987 188.0
162.890991 48.0
162.962128 160.0
163.023117 116.0
163.110748 3032.0
163.175629 72.0
163.198517 68.0
163.239197 180.0
163.328217 92.0
163.501221 60.0
163.590317 68.0
163.694702 120.0
164.117035 312.0
164.426361 172.0
164.464645 68.0
164.59996 172.0
164.771088 180.0
165.071686 560.0
165.126999 184.0
165.261978 168.0
165.528183 228.0
165.753616 64.0
165.945847 76.0
166.07605 372.0
166.263931 148.0
166.304993 148.0
166.546356 116.0
166.628555 40.0
166.890717 188.0
167.08403 1360.0
167.176254 256.0
167.256042 60.0
167.657837 80.0
167.768661 128.0
167.815079 216.0
167.835709 44.0
167.941437 104.0
168.00592 156.0
168.06105 132.0
168.091553 796.0
168.240768 184.0
168.449951 160.0
168.969574 140.0
169.101089 2992.0
169.383774 100.0
169.515915 60.0
169.557373 144.0
169.580704 80.0
169.679214 64.0
169.865936 164.0
170.074234 200.0
170.106186 904.0
170.574844 120.0
170.798233 128.0
170.86351 136.0
171.033951 104.0
171.078766 1136.0
171.116486 2540.0
171.155014 128.0
171.370407 52.0
171.412491 128.0
171.697052 48.0
171.882263 84.0
172.083221 612.0
172.121948 756.0
173.095535 2288.0
173.131577 1064.0
173.176346 104.0
173.252319 36.0
173.290359 108.0
173.440994 68.0
173.482941 64.0
173.530121 48.0
173.713699 76.0
174.065308 112.0
174.100433 776.0
174.136292 492.0
174.321838 124.0
174.388535 48.0
174.409561 92.0
174.456879 84.0
174.698822 128.0
174.717239 224.0
174.804062 84.0
175.026978 152.0
175.072586 148.0
175.110321 1972.0
175.146332 192.0
175.177933 40.0
175.301773 84.0
175.520569 92.0
175.647156 76.0
175.760605 64.0
175.990234 76.0
176.093231 128.0
176.118942 684.0
176.553101 152.0
176.590118 96.0
176.936768 160.0
177.00827 140.0
177.089371 128.0
177.124847 204.0
177.342072 32.0
177.729263 96.0
178.075073 160.0
178.129044 136.0
178.183777 88.0
178.358673 56.0
178.842773 92.0
179.08342 632.0
179.10701 372.0
179.141373 232.0
179.991821 152.0
180.093811 692.0
180.178787 108.0
180.20282 64.0
180.341782 144.0
180.444977 160.0
180.531616 40.0
180.783081 108.0
181.059204 112.0
181.100601 2312.0
181.190079 316.0
181.259735 168.0
181.891464 232.0
181.975906 120.0
182.07074 160.0
182.106308 656.0
182.155838 160.0
182.33049 124.0
182.448761 204.0
182.784973 104.0
182.91954 76.0
182.959915 108.0
183.076691 412.0
183.114029 2428.0
183.223846 200.0
183.2939 148.0
183.582336 148.0
183.752274 76.0
183.922287 116.0
184.083496 264.0
184.120956 256.0
184.149094 96.0
184.581497 60.0
184.722137 92.0
185.094543 2428.0
185.13327 3052.0
185.252716 44.0
185.304184 36.0
185.370392 184.0
185.461365 52.0
185.502029 124.0
185.643021 100.0
185.729797 100.0
185.846451 68.0
186.102325 312.0
186.137054 556.0
186.199356 36.0
186.359634 120.0
186.598816 140.0
186.696701 128.0
186.832703 192.0
186.995972 224.0
187.077881 216.0
187.111038 1960.0
187.146255 332.0
187.339066 76.0
187.420792 92.0
187.63443 136.0
188.074814 88.0
188.114594 740.0
188.153442 208.0
188.271896 64.0
188.605225 244.0
188.86499 60.0
189.09494 204.0
189.126862 968.0
189.41243 92.0
189.519287 40.0
189.653564 128.0
189.829025 36.0
190.081406 160.0
190.130447 372.0
190.44104 60.0
190.611374 60.0
190.677322 152.0
190.845016 92.0
190.875259 144.0
191.084198 280.0
191.087967 156.0
191.102921 344.0
191.150467 136.0
191.309982 76.0
191.764481 100.0
192.090652 672.0
192.14502 144.0
192.506607 44.0
192.650238 152.0
192.752457 156.0
192.777328 48.0
192.954239 200.0
193.060547 268.0
193.102829 968.0
193.233582 68.0
193.430069 164.0
194.070023 180.0
194.108353 560.0
194.247528 112.0
194.674957 60.0
194.833267 228.0
194.952759 188.0
195.050034 44.0
195.079285 164.0
195.117081 1792.0
195.603577 64.0
196.046432 56.0
196.082901 164.0
196.119507 480.0
196.235977 92.0
196.5121 60.0
196.665588 48.0
196.73259 144.0
196.847061 96.0
196.981125 124.0
197.062134 60.0
197.094971 788.0
197.130859 992.0
197.30809 44.0
197.470276 184.0
197.631607 164.0
197.72168 112.0
197.97403 104.0
198.101868 836.0
198.138474 344.0
198.220551 172.0
198.93576 168.0
199.076141 192.0
199.109634 1452.0
199.147003 1244.0
199.25029 60.0
199.292435 148.0
199.387985 64.0
199.517288 68.0
199.621323 140.0
199.787262 76.0
199.874481 36.0
200.116669 556.0
200.150345 708.0
200.203842 68.0
201.125275 1032.0
201.185074 48.0
201.939545 88.0
202.100784 180.0
202.132507 360.0
202.335709 120.0
202.635925 164.0
202.681259 64.0
202.925018 64.0
203.102219 188.0
203.13768 320.0
203.194458 148.0
203.404449 128.0
203.898666 84.0
204.091553 320.0
204.114731 140.0
204.144577 160.0
204.191513 88.0
204.305283 112.0
205.104294 364.0
205.119904 344.0
205.159653 80.0
205.422012 84.0
205.531921 76.0
205.761612 112.0
205.861542 92.0
206.111084 480.0
206.973907 172.0
207.117554 1364.0
208.077362 160.0
208.121658 1004.0
208.439697 192.0
208.484238 128.0
208.735779 52.0
208.853699 164.0
209.095078 388.0
209.131577 2248.0
209.582047 64.0
209.685791 112.0
210.100922 548.0
210.137131 536.0
211.01944 144.0
211.065704 216.0
211.113068 1420.0
211.15062 1572.0
211.305771 120.0
211.395477 172.0
211.644409 124.0
211.792114 124.0
211.936966 64.0
212.118027 480.0
212.150864 324.0
212.653259 120.0
212.798401 92.0
213.039459 108.0
213.12677 1928.0
213.164429 432.0
213.274826 40.0
213.335876 64.0
213.361618 84.0
213.443451 48.0
213.84491 56.0
214.131485 448.0
214.179764 44.0
214.386612 84.0
214.616913 132.0
214.780228 52.0
215.085739 312.0
215.110931 128.0
215.142456 656.0
215.457474 104.0
215.758499 124.0
215.85498 92.0
215.948563 128.0
216.012924 92.0
216.082657 180.0
216.11647 172.0
216.460709 68.0
216.738998 44.0
217.102692 424.0
217.123795 464.0
217.158127 284.0
217.586639 140.0
218.107285 492.0
218.16246 200.0
218.197739 88.0
218.315353 196.0
218.488892 104.0
219.012878 196.0
219.077438 148.0
219.116577 544.0
219.136993 320.0
219.34584 152.0
219.732178 164.0
220.056824 28.0
220.124283 288.0
220.449692 144.0
220.496979 108.0
220.721649 132.0
221.088013 188.0
221.132675 1904.0
221.43782 92.0
221.926773 40.0
222.097595 120.0
222.140579 612.0
222.169968 188.0
223.004379 172.0
223.075729 172.0
223.111542 328.0
223.14679 1928.0
223.28981 76.0
223.492096 108.0
223.566483 40.0
223.665649 164.0
224.081635 164.0
224.114975 784.0
224.152298 396.0
224.311096 52.0
224.343887 72.0
224.364761 92.0
224.540695 48.0
224.925583 40.0
225.059937 64.0
225.083817 136.0
225.126129 1668.0
225.162064 448.0
225.218216 92.0
225.433319 72.0
225.744217 36.0
226.049347 148.0
226.085266 180.0
226.132965 956.0
226.168671 136.0
226.294952 76.0
226.345703 72.0
227.022934 88.0
227.108627 192.0
227.139435 1920.0
227.181915 240.0
227.202911 192.0
227.554047 52.0
227.593094 52.0
227.7883 68.0
228.112839 152.0
228.147659 600.0
228.75058 92.0
228.884598 140.0
229.116974 160.0
229.157135 844.0
229.689423 100.0
229.832535 48.0
230.010605 120.0
230.119278 168.0
230.163223 160.0
230.487778 76.0
230.663071 196.0
230.929153 40.0
231.133926 440.0
231.995026 96.0
232.1241 252.0
232.222458 56.0
232.468185 80.0
233.060318 128.0
233.093155 104.0
233.132767 268.0
233.358185 48.0
233.857086 140.0
234.006256 92.0
234.101242 124.0
234.143051 340.0
234.304718 80.0
234.338242 168.0
234.679611 188.0
234.920547 68.0
234.960205 116.0
235.112701 204.0
235.147629 916.0
235.271484 112.0
235.531052 72.0
236.108521 184.0
236.115753 160.0
236.129929 248.0
236.14296 144.0
236.149811 92.0
236.224945 32.0
236.252487 56.0
236.827972 116.0
237.008713 164.0
237.126236 288.0
237.159897 548.0
237.631149 80.0
237.707855 168.0
237.781509 28.0
238.088516 136.0
238.128113 500.0
238.171127 156.0
239.106506 312.0
239.142715 2188.0
239.174118 320.0
239.229263 64.0
239.417084 76.0
240.095093 152.0
240.146255 728.0
240.173813 288.0
240.227722 196.0
240.335693 60.0
240.520874 248.0
241.005737 136.0
241.157745 5672.0
241.268448 100.0
241.339554 152.0
241.367386 36.0
241.426132 56.0
241.546753 36.0
241.671143 176.0
241.750961 52.0
241.918106 116.0
242.160843 1332.0
242.261841 36.0
242.754654 200.0
243.129745 400.0
243.171509 444.0
243.29454 104.0
243.92276 88.0
244.052628 124.0
244.114716 144.0
244.146088 212.0
244.17453 228.0
244.998779 80.0
245.119537 268.0
245.149353 456.0
245.31041 40.0
245.759521 168.0
245.990463 124.0
246.14032 136.0
246.34021 44.0
246.740234 36.0
246.843414 72.0
247.110718 296.0
247.139114 436.0
247.17012 252.0
247.841949 212.0
248.00177 100.0
248.127518 300.0
248.156616 276.0
248.456467 68.0
249.128738 760.0
249.162277 1000.0
249.206833 112.0
249.27597 160.0
249.747559 36.0
249.99295 68.0
250.131302 480.0
250.164871 456.0
250.477814 188.0
251.060898 120.0
251.101898 148.0
251.1436 916.0
251.176193 484.0
251.243851 48.0
251.420547 132.0
251.669922 60.0
251.862564 100.0
252.001572 76.0
252.148666 492.0
252.170746 188.0
252.251236 40.0
252.678177 140.0
252.906021 220.0
252.953491 220.0
253.12085 232.0
253.158432 1540.0
253.190567 160.0
253.266983 112.0
253.729645 32.0
253.767685 124.0
254.002365 88.0
254.119751 384.0
254.162003 632.0
254.294281 36.0
254.668945 100.0
255.129227 132.0
255.169754 324.0
255.280472 124.0
255.90918 128.0
256.128845 176.0
256.177734 248.0
256.422058 140.0
256.610138 112.0
256.881195 80.0
257.148102 184.0
257.187317 172.0
257.420593 76.0
257.855072 192.0
258.134247 168.0
258.197174 208.0
259.144684 220.0
259.165527 136.0
259.208771 132.0
259.333771 72.0
259.612701 156.0
260.11322 196.0
260.17099 320.0
260.810242 84.0
261.112396 140.0
261.155487 252.0
261.756104 132.0
262.133209 192.0
263.154724 376.0
263.160278 240.0
263.18158 268.0
263.189484 464.0
263.250763 44.0
264.01181 136.0
264.145569 292.0
264.172302 180.0
264.707581 32.0
264.756165 120.0
265.112518 156.0
265.155823 920.0
265.936279 120.0
266.162506 504.0
266.520844 108.0
267.138306 772.0
267.172394 3128.0
267.23291 68.0
267.294739 32.0
267.369568 88.0
268.181396 1624.0
268.52536 180.0
268.901367 68.0
268.934021 68.0
269.154175 792.0
269.18808 1864.0
269.466309 36.0
269.534912 64.0
269.577393 60.0
269.626404 52.0
269.678711 116.0
269.757172 32.0
269.799652 52.0
269.901001 68.0
270.022003 64.0
270.100525 48.0
270.160004 316.0
270.196289 444.0
270.843536 44.0
271.163147 480.0
271.204926 116.0
271.676178 32.0
271.997772 32.0
272.145508 104.0
272.332703 52.0
272.838745 80.0
272.973541 72.0
273.105103 160.0
273.157715 412.0
273.829193 76.0
274.1604 128.0
275.135162 152.0
275.174133 108.0
275.293488 96.0
276.151031 400.0
276.235474 120.0
278.170715 160.0
278.230469 96.0
278.333405 56.0
278.958008 132.0
279.129486 184.0
279.140228 64.0
279.176422 656.0
279.353729 152.0
280.186005 128.0
281.099579 60.0
281.153809 1044.0
281.187531 1344.0
282.044739 76.0
282.108246 60.0
282.155609 364.0
282.194061 596.0
282.375763 164.0
282.435974 56.0
282.663452 60.0
282.760529 76.0
283.172241 184.0
284.140717 140.0
284.180969 144.0
284.258514 76.0
284.483398 136.0
284.7789 88.0
285.104797 160.0
285.14801 144.0
285.181946 144.0
286.192719 512.0
286.956146 72.0
287.026947 60.0
287.197174 252.0
287.296783 48.0
287.522858 68.0
287.718628 136.0
288.198242 100.0
288.233154 204.0
288.837189 144.0
289.159882 192.0
290.14679 144.0
291.172211 1796.0
291.213867 160.0
292.174988 376.0
292.580261 144.0
292.985504 148.0
293.155884 152.0
293.200195 168.0
293.561554 64.0
293.902679 132.0
293.940186 48.0
294.163025 276.0
294.319092 76.0
294.735809 56.0
295.164948 276.0
295.63858 80.0
295.912415 40.0
296.180054 148.0
297.138519 140.0
297.184387 924.0
297.245758 128.0
297.359009 48.0
297.661133 52.0
298.135193 148.0
298.180176 192.0
298.447998 48.0
299.156921 80.0
299.196625 524.0
299.249695 144.0
300.20282 144.0
300.290405 76.0
300.7901 96.0
300.928802 64.0
301.179504 388.0
302.124603 84.0
302.474121 36.0
303.087128 220.0
304.144897 132.0
304.255981 108.0
304.780426 164.0
305.218384 188.0
306.199738 68.0
306.844391 232.0
307.168732 68.0
309.182007 3752.0
309.230255 52.0
309.475311 48.0
309.524353 68.0
310.105896 80.0
310.185089 504.0
310.968689 132.0
311.165283 164.0
311.190094 176.0
311.741333 72.0
311.839722 104.0
312.171204 300.0
313.164642 168.0
313.514984 80.0
314.181396 120.0
315.1987 324.0
315.763885 52.0
316.203979 208.0
317.212646 120.0
318.137939 108.0
318.500153 60.0
319.595123 88.0
319.652069 184.0
320.702667 112.0
323.170349 92.0
324.560089 80.0
325.920502 48.0
326.136108 144.0
326.297882 68.0
326.952545 192.0
327.10733 136.0
327.136108 68.0
327.193207 4468.0
327.301727 40.0
327.337738 44.0
327.37735 112.0
327.585114 112.0
327.628723 96.0
328.197174 792.0
328.37204 32.0
329.193573 476.0
329.707855 108.0
329.772919 100.0
330.174225 152.0
330.315308 64.0
330.50705 88.0
330.868988 44.0
331.216644 56.0
333.197327 188.0
335.122009 100.0
335.4245 108.0
336.445923 48.0
344.640045 232.0
344.721344 64.0
345.094666 156.0
345.206177 1256.0
345.241852 200.0
345.283264 116.0
345.564392 60.0
346.202606 372.0
346.727142 56.0
347.298096 116.0
349.422974 68.0
352.200256 116.0
360.715149 172.0
363.901245 40.0
368.028595 136.0
369.207184 124.0
370.208221 324.0
374.956665 44.0
377.168274 80.0
380.573608 104.0
385.970245 60.0
387.191193 108.0
387.228149 284.0
402.691681 56.0
405.220123 332.0
406.009521 96.0
411.998993 132.0
412.249481 68.0
414.539948 76.0
430.29245 52.0
434.32312 96.0
434.352142 36.0
445.998138 28.0
465.280945 68.0
478.188782 76.0
480.655365 108.0
494.317413 32.0
508.359375 68.0
514.336304 68.0
521.515625 68.0
523.563049 96.0
526.764954 72.0
527.418335 68.0
611.48999 84.0
633.287292 100.0
643.374634 56.0
648.88916 72.0
653.857117 104.0
657.511353 124.0
658.317932 48.0
659.968445 100.0
666.827515 60.0
671.481873 76.0
680.153687 80.0
681.08313 48.0
684.869812 168.0
721.18512 80.0
722.249146 164.0
727.726135 108.0
747.292358 44.0
748.310181 152.0
758.986694 44.0
768.756287 40.0
792.652039 52.0
792.836975 216.0
795.119568 84.0
804.378601 172.0
804.694763 108.0
818.666626 176.0
832.494568 48.0
848.889465 84.0
861.514038 100.0
887.771973 128.0
902.737366 120.0
905.125 116.0
908.967346 68.0
909.477478 84.0
911.200989 212.0
918.153442 104.0
918.642029 80.0
925.562256 128.0
938.858398 168.0
973.140747 92.0
985.654358 160.0
990.064575 164.0
1000.878235 140.0
1003.259827 152.0
1006.079773 200.0
1013.720459 228.0
1023.331055 240.0
1029.031006 84.0
1036.187866 52.0
1037.783813 148.0
1038.027466 276.0
1040.305176 144.0
1043.549561 164.0
1046.728271 52.0
1048.016479 116.0
1052.615601 140.0
1055.420044 136.0
1063.264893 156.0
1066.22644 100.0
1067.175537 156.0
1067.799805 224.0
1069.042358 148.0
1083.583984 144.0
1083.747803 184.0
1087.065796 196.0
1087.715576 60.0
1092.374634 220.0
1094.467529 220.0
1100.289307 160.0
1106.768921 192.0
1107.358276 44.0
1108.07373 164.0
1110.168335 160.0
1111.150024 144.0
1111.262817 232.0
1114.715698 172.0
1115.852295 184.0
1122.724121 136.0
1123.451172 176.0
1125.253174 176.0
1125.373291 196.0
1126.983032 216.0
1127.744873 68.0
1130.768066 108.0
1133.10498 212.0
1135.397583 92.0
1135.592041 148.0
1136.350098 200.0
1138.048218 180.0
1140.836304 188.0
1142.214844 188.0
1148.03418 124.0
1161.330688 172.0
1164.486816 176.0
1165.302002 160.0
1174.867554 168.0
1176.123169 176.0
1176.389404 256.0
1181.384888 72.0
1181.60376 104.0
1182.212769 168.0
1188.970093 120.0
1195.41626 224.0
1197.986816 56.0
1199.921021 56.0
1200.258789 176.0
1201.548584 168.0
1205.553467 216.0
1205.636475 188.0
1210.887451 200.0
1214.977295 100.0
1220.957886 148.0
1222.077881 160.0
1222.446655 136.0
1222.968628 92.0
1230.623047 120.0
1231.111816 100.0
1233.165894 144.0
1237.447021 144.0
1238.546509 176.0
1238.952881 204.0
1240.242188 152.0
1241.672607 168.0
1241.890015 148.0
1244.584839 64.0
1248.801392 192.0
1249.230469 68.0
1254.462769 156.0
1256.860718 156.0
1259.44458 204.0
1259.932007 184.0
1260.087402 80.0
1267.403564 128.0
1269.76416 260.0
1270.338745 204.0
1270.537354 168.0
1275.771362 176.0
1276.546387 124.0
1276.852173 164.0
1278.85144 52.0
1279.883667 128.0
1282.56958 40.0
1282.697876 176.0
1283.995483 136.0
1285.408081 176.0
1295.582397 112.0
1296.019531 136.0
1296.62146 236.0
1298.671997 168.0
1299.052124 112.0
1299.28479 172.0
1300.46582 140.0
1301.592896 84.0
1301.865723 56.0
1302.792358 228.0
1303.352783 212.0
1304.969971 196.0
1305.998413 168.0
1307.214233 140.0
1307.415771 132.0
1310.159058 96.0
1311.232788 160.0
1315.019287 72.0
1315.878296 48.0
1316.665405 228.0
1317.604492 140.0
1318.124634 68.0
1318.897949 240.0
1321.863281 84.0
1324.469604 84.0
1324.650635 40.0
1325.701294 152.0
1326.541992 176.0
1327.281616 200.0
1328.804688 116.0
1331.686646 120.0
1332.362183 148.0
1333.597534 164.0
1335.342529 60.0
1337.976807 72.0
1343.610352 200.0
1343.697876 152.0
1347.74292 108.0
1351.771973 120.0
1352.781982 184.0
1353.265137 144.0
1355.389404 56.0
1355.645874 192.0
1356.745239 176.0
1357.415527 172.0
1357.727905 152.0
1363.160278 108.0
1364.873047 152.0
1367.418457 48.0
1370.570312 152.0
1375.083618 88.0
1376.087524 80.0
1377.091797 148.0
1382.655151 224.0
1383.029175 156.0
1383.83606 164.0
1387.340454 96.0
1387.963257 180.0
1388.563843 136.0
1389.268555 180.0
1392.802002 240.0
1393.188354 72.0
1393.870361 152.0
1394.644775 148.0
1397.277344 100.0
1398.692749 140.0
1399.048584 152.0
1399.830322 156.0
1400.58252 160.0
1401.849121 144.0
1401.960938 280.0
1402.53479 104.0
1405.226929 220.0
1405.61499 164.0
1405.758423 164.0
1407.45874 228.0
1407.645386 200.0
1409.251343 176.0
1410.192993 268.0
1412.638062 208.0
1413.393677 156.0
1413.925049 112.0
1415.646973 176.0
1416.096313 140.0
1417.070068 164.0
1417.392334 176.0
1417.871948 68.0
1421.494141 32.0
1423.145508 196.0
1425.722046 172.0
1426.180542 128.0
1426.661621 176.0
1427.323242 188.0
1428.301025 176.0
1429.12854 128.0
1429.391846 44.0
1431.108032 212.0
1431.763184 140.0
1433.036255 56.0
1433.970703 180.0
1434.528442 76.0
1435.003418 100.0
1435.863159 120.0
1436.511841 136.0
1438.488892 176.0
1438.994751 276.0
1439.62146 160.0
1442.825195 280.0
1443.430054 160.0
1444.239258 152.0
1444.609985 164.0
1445.101685 232.0
1445.154663 124.0
1446.448853 168.0
1449.470703 140.0
1452.055786 168.0
1454.09668 120.0
1454.802612 116.0
1454.946899 76.0
1455.508789 124.0
1455.850464 136.0
1457.909302 220.0
1459.931396 124.0
1461.650635 232.0
1463.500366 108.0
1463.751587 120.0
1463.957275 36.0
1466.661865 176.0
1466.959229 92.0
1468.591064 68.0
1470.880127 192.0
1472.078857 180.0
1474.813965 236.0
1475.486694 56.0
1476.0448 172.0
1476.610718 160.0
1477.811768 132.0
1478.439209 156.0
1478.622925 144.0
1479.186401 136.0
1480.18457 240.0
1482.574707 92.0
1483.325806 148.0
1484.652344 132.0
1484.813354 136.0
1490.102295 160.0
1491.493286 60.0
1492.115967 180.0
1493.2771 32.0
1494.923462 140.0
1495.062012 232.0
1497.872314 160.0
1498.257446 144.0
1499.898926 208.0
1501.240479 148.0
1501.710938 52.0
1501.818848 120.0
1502.9375 208.0
