>compound Sinapinic acid
>formula C11H12O5
>ionization [M+H]+
>parentmass 225.07574993609052
#inchi InChI=1S/C11H12O5/c1-15-8-5-7(3-4-10(12)13)6-9(16-2)11(8)14/h3-6,14H,1-2H3,(H,12,13)/b4-3+
#inchikey PCMORTLOPMLEFB
#Ion_Source DI-ESI
#Instrument qTof
#Compound_Source Commercial
#PI Norberto Lopes
#Data_Collector Denise Silva
#Scan -1
#Precursor_MZ 225.08
#ExactMass 224.068
#Charge 1
#CAS_Number 530-59-6
#Pubmed_ID  
#Smiles OC(/C=C/C1=CC(OC)=C(O)C(OC)=C1)=O
#INCHI_AUX  
#Library_Class 3
#SpectrumID CCMSLIB00000078855
#IonMode Positive
#UpdateWorkflowName UPDATE-SINGLE-ANNOTATED-BRONZE
#LibraryQualityString Bronze
#TaskID 51daf0954ab44ee9b2bfeb804978a957
##Scan# 1
#SpectrumFile sinapinic_acid_pos_MSMS_225.mgf
#LibraryName gnps_library.mgf
#MQScore -1
#Organism gnps_library
#TIC_Query 0
#RT_Query -1
#MZErrorPPM -1
#SharedPeaks 0
#MassDiff 0
#LibMZ -1
#SpecMZ 225.08
#SpecCharge 0
#internalFilename spec-00000.mgf

>collision 10
117.031792 874.0
118.039009 6043.0
119.0467 40430.0
120.050629 1555.0
121.026711 2224.0
123.041283 3003.0
129.030365 2387.0
130.038239 521.0
131.046173 1141.0
132.018097 7706.0
133.024017 2860.0
134.032913 1496.0
135.040375 4024.0
136.047592 4371.0
137.056519 1356.0
138.027313 377.0
140.043488 2146.0
145.024353 3852.0
146.033783 4857.0
147.041855 82266.0
148.04628 3823.0
149.018906 22094.0
150.026855 1681.0
151.034866 599.0
153.04985 1976.0
155.066116 1793.0
157.035751 10737.0
158.037338 506.0
160.010834 1332.0
161.018188 550.0
162.026947 2052.0
163.033813 3760.0
164.04184 18814.0
165.049988 1578.0
166.058167 550.0
170.056702 325.0
173.022766 1597.0
174.026871 3545.0
175.034729 54101.0
176.038376 3173.0
177.015106 7277.0
178.023514 1074.0
179.06636 19088.0
180.069687 1551.0
183.060013 1328.0
188.066055 420.0
192.036743 57357.0
193.041565 2769.0
207.060745 19628.0
208.065811 1006.0
