>compound MLS000069552-01!MAPROTILINE HYDROCHLORIDE
>formula C20H23N
>ionization [M+H]+
>parentmass 278.188385
#inchi InChI=1S/C20H23N/c1-21-14-6-12-20-13-11-15(16-7-2-4-9-18(16)20)17-8-3-5-10-19(17)20/h2-5,7-10,15,21H,6,11-14H2,1H3
#inchikey QSLMDECMDJKHMQ
#origInchi InChI=1S/C20H23N.ClH/c1-21-14-6-12-20-13-11-15(16-7-2-4-9-18(16)20)17-8-3-5-10-19(17)20;/h2-5,7-10,15,21H,6,11-14H2,1H3;1H/t15-,20+;
#Ion_Source LC-ESI
#Instrument qTof
#Compound_Source NIH Pharmacologically Active Library
#PI Dorrestein
#Data_Collector VP/LMS
#Scan -1
#Precursor_MZ 278.195
#ExactMass 277.183
#Charge 1
#CAS_Number N/A
#Pubmed_ID N/A
#Smiles CNCCC[C@]1(CC[C@H]2c3ccccc31)c4ccccc24.Cl
#INCHI_AUX N/A
#Library_Class 1
#SpectrumID CCMSLIB00000085784
#IonMode Positive
#UpdateWorkflowName UPDATE-SINGLE-ANNOTATED-GOLD
#LibraryQualityString Gold
#TaskID d252d724072548979f1f6f1ced849daf
##Scan# 1762
#SpectrumFile p4-F06_GF6_01_18390.mzXML
#LibraryName Pharm_Active_Library.mgf
#MQScore -1
#Organism Pharm_Active_Library
#TIC_Query 0
#RT_Query -1
#MZErrorPPM -1
#SharedPeaks 0
#MassDiff 0
#LibMZ -1
#SpecMZ 278.195
#SpecCharge 0
#internalFilename spec-00000.mgf

>collision 10
44.895508 124.0
44.909492 208.0
44.922226 132.0
44.927055 72.0
44.932873 144.0
44.950329 204.0
44.968201 192.0
44.977543 120.0
45.008251 132.0
45.020294 224.0
45.03051 144.0
45.035801 172.0
45.04805 180.0
45.050087 160.0
45.05917 284.0
45.07272 76.0
45.076511 316.0
45.101425 124.0
45.124496 148.0
45.136532 108.0
45.167183 452.0
45.184486 108.0
45.193974 280.0
45.203323 228.0
45.220951 344.0
45.232861 172.0
45.261009 164.0
45.265751 92.0
45.271122 216.0
45.284355 88.0
45.289425 116.0
45.318577 336.0
45.333317 336.0
45.354759 48.0
45.365894 144.0
45.388512 152.0
45.417603 120.0
45.438473 208.0
45.457333 192.0
45.46822 292.0
45.500988 128.0
45.518921 236.0
45.52877 104.0
45.556992 376.0
45.589348 104.0
45.619213 236.0
45.63496 84.0
45.646046 92.0
45.647957 148.0
45.664932 116.0
45.678574 204.0
45.710239 124.0
45.753063 180.0
45.768139 168.0
45.777405 168.0
45.793682 168.0
45.817043 184.0
45.82917 52.0
45.845341 104.0
45.856125 168.0
45.865559 260.0
45.888477 64.0
45.931286 220.0
45.959652 172.0
45.964859 136.0
45.974937 320.0
45.995693 152.0
46.010494 192.0
46.017288 128.0
46.036911 100.0
46.065273 172.0
46.076084 172.0
46.097645 196.0
46.112854 152.0
46.136749 144.0
46.152576 148.0
46.177731 296.0
46.191093 164.0
46.226463 432.0
46.234764 80.0
46.240227 104.0
46.24575 120.0
46.252834 160.0
46.264732 320.0
46.275105 240.0
46.284 128.0
46.303341 212.0
46.326366 32.0
46.34127 148.0
46.36702 144.0
46.386395 136.0
46.396839 120.0
46.417179 152.0
46.448456 156.0
46.468723 152.0
46.500877 196.0
46.517578 124.0
46.529797 132.0
46.552498 212.0
46.561176 260.0
46.572445 168.0
46.600426 36.0
46.611721 140.0
46.622166 148.0
46.643654 188.0
46.654789 32.0
46.667419 152.0
46.702217 252.0
46.718513 56.0
46.729095 236.0
46.743343 76.0
46.761639 204.0
46.787811 124.0
46.813511 148.0
46.84259 148.0
46.86319 268.0
46.88253 132.0
46.90612 168.0
46.928452 116.0
46.939362 124.0
46.961292 148.0
46.990383 316.0
47.028603 252.0
47.040325 200.0
47.059135 192.0
47.082653 80.0
47.103142 300.0
47.122295 216.0
47.139576 108.0
47.17477 128.0
47.191196 112.0
47.219326 36.0
47.231598 140.0
47.241215 168.0
47.260551 120.0
47.275253 288.0
47.331547 76.0
47.34935 140.0
47.376747 120.0
47.391815 156.0
47.405521 112.0
47.417305 156.0
47.430016 124.0
47.452126 228.0
47.482292 176.0
47.509727 140.0
47.526413 160.0
47.538544 196.0
47.557323 152.0
47.575077 188.0
47.593597 152.0
47.60569 120.0
47.625477 240.0
47.638775 76.0
47.65807 188.0
47.668064 168.0
47.691257 308.0
47.714134 144.0
47.728977 196.0
47.750313 168.0
47.766624 120.0
47.776974 84.0
47.795517 168.0
47.812031 144.0
47.828369 176.0
47.840336 172.0
47.872604 152.0
47.890102 108.0
47.905102 128.0
47.914883 248.0
47.932114 148.0
47.940323 128.0
47.945145 104.0
47.949287 176.0
47.961773 200.0
47.99176 368.0
48.028347 176.0
48.046093 116.0
48.067768 112.0
48.083538 180.0
48.106728 240.0
48.119431 176.0
48.134762 124.0
48.149811 72.0
48.182259 220.0
48.209343 132.0
48.220577 128.0
48.243061 380.0
48.25898 148.0
48.280567 184.0
48.285175 140.0
48.292534 216.0
48.309982 160.0
48.317303 168.0
48.353504 164.0
48.379559 196.0
48.404274 132.0
48.413555 160.0
48.443054 128.0
48.458294 104.0
48.482105 220.0
48.501255 132.0
48.522049 180.0
48.537304 204.0
48.556717 108.0
48.602497 128.0
48.641697 164.0
48.657532 228.0
48.680756 172.0
48.701107 140.0
48.719128 132.0
48.739967 88.0
48.756744 152.0
48.779602 240.0
48.801094 172.0
48.813644 184.0
48.824242 212.0
48.864796 192.0
48.868145 284.0
48.888283 220.0
48.901291 48.0
48.945885 128.0
48.995579 128.0
49.017311 208.0
49.045464 332.0
49.064941 148.0
49.101673 156.0
49.114189 212.0
49.138004 148.0
49.154137 320.0
49.177502 120.0
49.192623 264.0
49.210579 316.0
49.241493 140.0
49.26664 160.0
49.286751 184.0
49.298775 120.0
49.32114 164.0
49.331055 180.0
49.344517 188.0
49.367279 92.0
49.39463 216.0
49.43996 176.0
49.467945 148.0
49.49353 144.0
49.506489 244.0
49.529915 140.0
49.553497 212.0
49.571667 72.0
49.594593 180.0
49.61512 108.0
49.629341 168.0
49.65123 164.0
49.664856 68.0
49.688122 152.0
49.716953 396.0
49.741001 164.0
49.777882 84.0
49.797401 120.0
49.8176 124.0
49.836258 196.0
49.85815 200.0
49.872013 116.0
49.887032 132.0
49.894413 136.0
49.920036 152.0
49.931065 160.0
49.943726 172.0
49.957096 376.0
49.986565 172.0
50.00275 140.0
50.030476 340.0
50.05024 172.0
50.064766 104.0
50.096127 340.0
50.118153 116.0
50.129162 196.0
50.143013 164.0
50.163063 404.0
50.186722 424.0
50.204288 172.0
50.222866 280.0
50.251385 108.0
50.279987 292.0
50.293175 268.0
50.312729 240.0
50.341179 108.0
50.366821 232.0
50.371368 160.0
50.390663 128.0
50.412174 340.0
50.433014 200.0
50.449829 152.0
50.476372 228.0
50.511581 128.0
50.548988 144.0
50.570217 188.0
50.585884 116.0
50.602581 180.0
50.618549 144.0
50.63818 200.0
50.65601 172.0
50.666473 152.0
50.675148 164.0
50.69096 228.0
50.706188 248.0
50.72308 96.0
50.734539 92.0
50.74662 148.0
50.761478 284.0
50.781914 244.0
50.787685 100.0
50.793358 192.0
50.80307 160.0
50.807304 52.0
50.812122 176.0
50.838348 188.0
50.856644 156.0
50.873932 140.0
50.88485 188.0
50.907127 132.0
50.93605 108.0
50.945995 80.0
50.979881 164.0
50.996464 144.0
51.015633 164.0
51.03455 144.0
51.05341 132.0
51.094814 220.0
51.110928 152.0
51.126579 88.0
51.139389 236.0
51.153961 168.0
51.197765 320.0
51.213753 160.0
51.246197 256.0
51.273285 296.0
51.298931 168.0
51.317463 204.0
51.328289 236.0
51.347664 112.0
51.371395 152.0
51.38702 188.0
51.402264 160.0
51.43483 328.0
51.454582 116.0
51.465122 132.0
51.484421 64.0
51.495808 140.0
51.511559 320.0
51.53442 116.0
51.579296 144.0
51.6036 120.0
51.642574 116.0
51.663517 204.0
51.681694 144.0
51.703159 96.0
51.716042 140.0
51.733425 84.0
51.737907 204.0
51.758442 164.0
51.771511 232.0
51.796963 164.0
51.812275 80.0
51.87656 184.0
51.889381 136.0
51.916351 208.0
51.929535 156.0
51.948181 96.0
51.961136 132.0
51.972572 132.0
51.987854 148.0
52.006138 144.0
52.018501 196.0
52.074261 72.0
52.091736 164.0
52.108341 172.0
52.124783 152.0
52.149216 176.0
52.172215 72.0
52.198097 160.0
52.21484 224.0
52.226566 176.0
52.241409 212.0
52.28474 176.0
52.31176 184.0
52.333412 120.0
52.364544 292.0
52.376598 168.0
52.385468 176.0
52.409298 172.0
52.434196 240.0
52.4561 204.0
52.46735 196.0
52.491383 132.0
52.519176 128.0
52.531696 136.0
52.542347 152.0
52.558548 224.0
52.584824 92.0
52.615189 208.0
52.626911 136.0
52.636681 124.0
52.654388 104.0
52.67083 148.0
52.693947 156.0
52.700672 116.0
52.71003 152.0
52.719955 228.0
52.740189 100.0
52.759972 368.0
52.771996 328.0
52.799248 156.0
52.802101 132.0
52.808018 264.0
52.824112 112.0
52.855988 120.0
52.89399 172.0
52.899002 188.0
52.928516 140.0
52.940269 148.0
52.975883 128.0
52.999985 188.0
53.012325 152.0
53.02322 124.0
53.05999 220.0
53.083321 28.0
53.097824 44.0
53.110878 96.0
53.12487 136.0
53.138149 100.0
53.149597 64.0
53.152397 136.0
53.181351 204.0
53.192688 148.0
53.219723 100.0
53.232349 328.0
53.248768 192.0
53.262138 388.0
53.282917 132.0
53.295254 100.0
53.314144 208.0
53.325771 144.0
53.350204 160.0
53.371853 224.0
53.388912 196.0
53.403046 164.0
53.420532 168.0
53.445023 68.0
53.462486 132.0
53.475586 140.0
53.487701 276.0
53.520714 96.0
53.532997 184.0
53.562199 132.0
53.581516 172.0
53.60083 216.0
53.638725 268.0
53.656158 188.0
53.67194 164.0
53.697758 132.0
53.706783 196.0
53.717472 156.0
53.748112 72.0
53.758324 152.0
53.791294 168.0
53.809414 152.0
53.825134 188.0
53.843807 196.0
53.872215 148.0
53.885365 136.0
53.897053 120.0
53.90728 356.0
53.920433 144.0
53.939438 228.0
53.978912 184.0
54.020679 216.0
54.025288 164.0
54.041813 68.0
54.063404 148.0
54.097427 140.0
54.113533 208.0
54.144112 344.0
54.162613 140.0
54.181614 132.0
54.200928 156.0
54.226398 168.0
54.258152 192.0
54.29084 196.0
54.329617 140.0
54.341305 148.0
54.35392 156.0
54.364468 128.0
54.377399 184.0
54.42144 276.0
54.436127 120.0
54.457245 168.0
54.49263 120.0
54.514702 88.0
54.521751 116.0
54.534561 64.0
54.550732 296.0
54.561707 160.0
54.581429 132.0
54.608498 168.0
54.624081 144.0
54.636978 124.0
54.646694 240.0
54.666927 92.0
54.683117 116.0
54.700413 208.0
54.726135 36.0
54.740044 168.0
54.779537 228.0
54.797737 144.0
54.812717 128.0
54.831875 152.0
54.84219 220.0
54.870842 156.0
54.890842 152.0
54.926666 152.0
54.961575 240.0
54.963917 252.0
54.969807 516.0
54.991318 156.0
55.007401 56.0
55.023136 212.0
55.049652 156.0
55.06942 128.0
55.094532 208.0
55.119652 160.0
55.158077 88.0
55.177032 156.0
55.20015 132.0
55.229053 32.0
55.23941 76.0
55.271111 184.0
55.292679 44.0
55.319859 176.0
55.338379 124.0
55.341915 108.0
55.346401 152.0
55.357479 140.0
55.379139 152.0
55.425034 160.0
55.444027 104.0
55.463013 180.0
55.506535 240.0
55.532703 152.0
55.555447 224.0
55.572781 144.0
55.590565 136.0
55.612076 236.0
55.62553 136.0
55.640926 112.0
55.659931 108.0
55.706173 152.0
55.719582 88.0
55.740551 100.0
55.756752 124.0
55.770538 148.0
55.790047 172.0
55.808926 88.0
55.867386 184.0
55.886753 236.0
55.904465 196.0
55.925526 64.0
55.949871 192.0
55.972607 36.0
55.990154 172.0
56.0 132.0
56.0158 328.0
56.028816 168.0
56.04911 112.0
56.06086 260.0
56.093365 156.0
56.105217 144.0
56.121616 128.0
56.147182 208.0
56.159264 164.0
56.179867 256.0
56.202778 148.0
56.225082 156.0
56.248245 168.0
56.272011 156.0
56.303749 272.0
56.338032 176.0
56.35297 120.0
56.379269 192.0
56.413548 192.0
56.434631 144.0
56.459106 120.0
56.476021 196.0
56.512081 116.0
56.528866 216.0
56.543034 164.0
56.557858 144.0
56.575989 160.0
56.602795 156.0
56.619354 108.0
56.651646 76.0
56.675037 164.0
56.70422 188.0
56.734898 176.0
56.755615 160.0
56.776978 212.0
56.796108 192.0
56.806606 132.0
56.819271 172.0
56.833569 132.0
56.850628 156.0
56.874134 148.0
56.892147 52.0
56.903706 152.0
56.937965 176.0
56.946892 484.0
56.965736 172.0
56.985489 136.0
57.001797 104.0
57.029682 144.0
57.055676 104.0
57.076988 180.0
57.091557 124.0
57.115665 92.0
57.146328 232.0
57.161999 184.0
57.188286 104.0
57.210564 40.0
57.216763 96.0
57.231945 204.0
57.246548 132.0
57.259235 164.0
57.274113 144.0
57.290684 224.0
57.305748 124.0
57.317631 148.0
57.345081 160.0
57.379269 172.0
57.404716 128.0
57.408051 120.0
57.44133 172.0
57.451996 336.0
57.462555 160.0
57.479153 96.0
57.491226 184.0
57.52066 172.0
57.548298 248.0
57.560814 124.0
57.583324 148.0
57.618065 108.0
57.634365 132.0
57.680126 180.0
57.710262 168.0
57.734459 116.0
57.75412 144.0
57.776814 112.0
57.797997 168.0
57.808586 216.0
57.825596 84.0
57.861179 204.0
57.866028 152.0
57.869476 196.0
57.887848 156.0
57.900059 172.0
57.91457 180.0
57.92701 188.0
57.941837 64.0
57.962406 384.0
57.990852 216.0
58.014084 212.0
58.025494 280.0
58.042233 204.0
58.048698 216.0
58.06805 92.0
58.094433 92.0
58.116199 132.0
58.148067 184.0
58.162773 128.0
58.179947 144.0
58.199306 204.0
58.2136 196.0
58.234615 188.0
58.263477 128.0
58.297241 216.0
58.319195 156.0
58.32193 180.0
58.339462 36.0
58.3652 108.0
58.369629 100.0
58.400291 228.0
58.421585 164.0
58.432236 148.0
58.446354 288.0
58.473324 300.0
58.483978 104.0
58.499519 324.0
58.511906 104.0
58.538357 296.0
58.548553 136.0
58.567188 128.0
58.598072 252.0
58.602531 176.0
58.608097 136.0
58.611839 92.0
58.614605 280.0
58.647808 140.0
58.671391 156.0
58.690037 204.0
58.731556 108.0
58.74844 204.0
58.768478 88.0
58.773663 152.0
58.810169 152.0
58.82914 112.0
58.860207 148.0
58.891525 156.0
58.906704 340.0
58.929287 164.0
58.939705 132.0
58.952148 208.0
58.963093 184.0
58.991844 148.0
59.005222 180.0
59.018993 172.0
59.047424 128.0
59.067657 108.0
59.084435 144.0
59.104614 244.0
59.117371 140.0
59.133926 168.0
59.171249 296.0
59.184727 208.0
59.198505 68.0
59.211941 140.0
59.226738 176.0
59.264648 112.0
59.304222 336.0
59.31955 100.0
59.331726 136.0
59.359413 156.0
59.370148 116.0
59.387482 292.0
59.42844 48.0
59.443787 92.0
59.471413 84.0
59.486179 232.0
59.502113 228.0
59.534393 104.0
59.547359 112.0
59.565926 116.0
59.598545 168.0
59.609123 140.0
59.625927 172.0
59.638107 244.0
59.658867 156.0
59.677147 100.0
59.690159 112.0
59.715504 160.0
59.717999 132.0
59.725082 136.0
59.741867 96.0
59.786457 188.0
59.821388 124.0
59.835747 268.0
59.850521 196.0
59.878864 128.0
59.910789 164.0
59.93914 64.0
59.954441 148.0
59.966686 336.0
59.984158 192.0
60.010315 160.0
60.037609 184.0
60.090054 188.0
60.11467 168.0
60.135296 164.0
60.154873 176.0
60.167835 232.0
60.190384 112.0
60.223682 164.0
60.229767 144.0
60.233955 76.0
60.257721 128.0
60.261749 144.0
60.266575 148.0
60.281746 168.0
60.317074 212.0
60.327866 204.0
60.343136 140.0
60.366783 176.0
60.401726 124.0
60.418327 160.0
60.432373 116.0
60.443192 184.0
60.466187 288.0
60.490005 172.0
60.494881 136.0
60.499844 180.0
60.512005 140.0
60.551586 200.0
60.567757 124.0
60.635319 156.0
60.670879 220.0
60.687088 116.0
60.708694 316.0
60.720509 80.0
60.726669 168.0
60.749126 176.0
60.770451 172.0
60.776756 256.0
60.784283 152.0
60.789864 204.0
60.819096 132.0
60.858376 184.0
60.886623 260.0
60.913677 92.0
60.949413 120.0
60.964954 76.0
60.979671 140.0
61.002544 152.0
61.019234 200.0
61.033352 156.0
61.047058 172.0
61.049614 140.0
61.056938 96.0
61.079113 224.0
61.108013 136.0
61.13065 372.0
61.17165 144.0
61.194584 176.0
61.207962 132.0
61.232883 336.0
61.246567 128.0
61.2719 184.0
61.278877 216.0
61.302574 152.0
61.311867 240.0
61.322136 192.0
61.349693 180.0
61.372803 156.0
61.39082 280.0
61.408428 204.0
61.440922 208.0
61.474197 68.0
61.485123 144.0
61.497608 132.0
61.533058 232.0
61.547565 160.0
61.558498 172.0
61.590324 348.0
61.613167 96.0
61.638466 152.0
61.664082 192.0
61.700871 136.0
61.716324 88.0
61.73196 108.0
61.746037 104.0
61.762184 136.0
61.777237 160.0
61.788071 156.0
61.819794 276.0
61.835217 260.0
61.855564 116.0
61.875626 108.0
61.908802 168.0
61.924381 156.0
61.929966 148.0
61.936615 232.0
61.951744 188.0
61.986084 108.0
61.999123 104.0
62.032047 152.0
62.034477 192.0
62.052963 80.0
62.085312 140.0
62.10392 156.0
62.116741 192.0
62.136089 356.0
62.16972 148.0
62.181595 76.0
62.214561 80.0
62.227882 136.0
62.245781 208.0
62.268791 172.0
62.28706 136.0
62.32111 256.0
62.343037 228.0
62.357506 128.0
62.385174 200.0
62.407902 480.0
62.418945 152.0
62.438549 172.0
62.464096 188.0
62.493797 192.0
62.510712 164.0
62.52737 48.0
62.541489 140.0
62.562 144.0
62.581604 184.0
62.604515 156.0
62.627499 148.0
62.654324 148.0
62.683281 112.0
62.694313 104.0
62.710705 80.0
62.723866 156.0
62.746349 316.0
62.766094 416.0
62.781868 104.0
62.792976 324.0
62.825188 372.0
62.856491 200.0
62.878284 80.0
62.898331 80.0
62.915142 120.0
62.934811 192.0
62.964302 152.0
62.991539 128.0
63.028233 140.0
63.049255 84.0
63.065212 164.0
63.082317 224.0
63.085678 184.0
63.092319 180.0
63.109478 244.0
63.124802 320.0
63.155342 208.0
63.172741 108.0
63.196472 300.0
63.220284 168.0
63.242546 212.0
63.262947 160.0
63.280361 140.0
63.316784 120.0
63.353214 104.0
63.364788 144.0
63.392292 236.0
63.405849 200.0
63.421707 344.0
63.451477 152.0
63.463879 112.0
63.476845 144.0
63.500633 72.0
63.521992 232.0
63.564095 200.0
63.581551 128.0
63.59811 120.0
63.635174 364.0
63.645939 136.0
63.660637 108.0
63.695873 172.0
63.717373 232.0
63.729237 148.0
63.753071 112.0
63.792809 52.0
63.808987 272.0
63.828831 128.0
63.833042 184.0
63.864365 84.0
63.877117 252.0
63.894592 160.0
63.905952 256.0
63.9412 412.0
63.976257 228.0
63.990799 188.0
64.006012 200.0
64.021935 344.0
64.060684 208.0
64.087143 64.0
64.10318 200.0
64.121964 132.0
64.124756 104.0
64.136528 156.0
64.156258 212.0
64.174408 176.0
64.203911 160.0
64.215645 196.0
64.254227 144.0
64.276199 128.0
64.330597 124.0
64.334633 72.0
64.339973 132.0
64.375275 352.0
64.396736 124.0
64.417778 412.0
64.42878 192.0
64.462822 164.0
64.484612 200.0
64.499001 200.0
64.52298 96.0
64.565964 136.0
64.582146 80.0
64.599739 120.0
64.614143 216.0
64.644547 148.0
64.658096 128.0
64.681358 120.0
64.730988 136.0
64.742195 184.0
64.761421 68.0
64.774231 188.0
64.828606 124.0
64.833046 96.0
64.883209 120.0
64.907257 296.0
64.924637 220.0
64.942543 292.0
64.977051 184.0
64.995293 308.0
65.008049 164.0
65.035812 156.0
65.069321 180.0
65.085373 136.0
65.101288 132.0
65.110062 144.0
65.128128 280.0
65.146408 144.0
65.160995 148.0
65.187256 208.0
65.228844 248.0
65.240234 196.0
65.25544 152.0
65.266068 124.0
65.289391 180.0
65.295181 128.0
65.327492 348.0
65.372932 140.0
65.390823 104.0
65.407661 156.0
65.427795 116.0
65.441185 112.0
65.473427 260.0
65.485634 144.0
65.536293 132.0
65.546417 176.0
65.559601 328.0
65.571213 156.0
65.600227 128.0
65.619576 44.0
65.632469 160.0
65.652107 136.0
65.672409 220.0
65.690323 120.0
65.694443 208.0
65.707581 184.0
65.737183 144.0
65.762901 156.0
65.784561 136.0
65.814003 200.0
65.82473 192.0
65.842262 184.0
65.87162 204.0
65.892838 180.0
65.917137 164.0
65.933586 252.0
65.961151 304.0
65.977997 144.0
66.003136 204.0
66.017326 112.0
66.034592 80.0
66.049568 156.0
66.067284 252.0
66.092033 324.0
66.108162 348.0
66.128159 188.0
66.144188 204.0
66.158073 116.0
66.177002 140.0
66.188339 140.0
66.200829 208.0
66.227745 168.0
66.250748 180.0
66.264465 160.0
66.284409 104.0
66.30822 136.0
66.32856 200.0
66.347328 188.0
66.36496 136.0
66.395256 164.0
66.41124 164.0
66.428207 160.0
66.464401 128.0
66.494629 184.0
66.546547 140.0
66.561546 156.0
66.575912 76.0
66.593781 172.0
66.608398 116.0
66.622307 424.0
66.634735 196.0
66.662811 136.0
66.672791 200.0
66.69545 168.0
66.698853 144.0
66.721451 304.0
66.739586 184.0
66.743935 132.0
66.750519 236.0
66.766953 228.0
66.793945 168.0
66.836014 176.0
66.84903 148.0
66.866936 96.0
66.878326 124.0
66.892509 168.0
66.898293 196.0
66.911522 164.0
66.931572 232.0
66.944946 100.0
66.974396 84.0
67.024902 272.0
67.057106 184.0
67.127602 228.0
67.143074 216.0
67.16674 100.0
67.207321 144.0
67.228188 152.0
67.263016 184.0
67.292404 372.0
67.323395 204.0
67.356133 176.0
67.389839 176.0
67.416397 180.0
67.439163 196.0
67.480301 104.0
67.542442 196.0
67.555321 124.0
67.564651 252.0
67.589592 132.0
67.599762 256.0
67.613129 80.0
67.658638 204.0
67.68251 144.0
67.719757 208.0
67.73349 168.0
67.781479 160.0
67.802498 208.0
67.822456 136.0
67.852646 100.0
67.878197 132.0
67.904434 108.0
67.923103 256.0
67.94873 204.0
67.975716 332.0
67.994614 108.0
68.006874 116.0
68.018532 288.0
68.031654 68.0
68.050491 128.0
68.072052 120.0
68.086121 168.0
68.101395 180.0
68.121109 224.0
68.131577 200.0
68.144112 132.0
68.174339 252.0
68.196693 224.0
68.214188 224.0
68.243065 204.0
68.255882 116.0
68.27858 180.0
68.301361 196.0
68.330681 160.0
68.34967 148.0
68.367813 104.0
68.392876 300.0
68.430725 108.0
68.454178 180.0
68.46653 188.0
68.486488 132.0
68.499031 120.0
68.535805 148.0
68.556816 124.0
68.588348 216.0
68.611664 100.0
68.632942 140.0
68.657494 172.0
68.668404 172.0
68.692284 232.0
68.706345 196.0
68.718384 132.0
68.735237 116.0
68.750832 340.0
68.755386 152.0
68.760506 220.0
68.773781 152.0
68.788506 120.0
68.801262 168.0
68.8508 180.0
68.880005 188.0
68.884766 92.0
68.921967 148.0
68.935051 108.0
68.949928 176.0
68.964798 216.0
68.995789 188.0
69.014809 188.0
69.030052 352.0
69.049126 128.0
69.064285 108.0
69.087097 284.0
69.10791 300.0
69.131844 112.0
69.150223 192.0
69.166603 208.0
69.181503 96.0
69.207664 280.0
69.210625 176.0
69.236145 192.0
69.249397 124.0
69.264305 260.0
69.29689 188.0
69.310692 48.0
69.327827 176.0
69.356705 196.0
69.399742 144.0
69.428391 160.0
69.44709 388.0
69.465881 100.0
69.493721 156.0
69.500114 136.0
69.506363 108.0
69.511681 136.0
69.527176 156.0
69.54287 140.0
69.567772 112.0
69.578819 136.0
69.600204 252.0
69.669518 196.0
69.701317 208.0
69.726799 144.0
69.764275 120.0
69.794464 164.0
69.825134 136.0
69.840523 296.0
69.884354 168.0
69.943466 228.0
69.964211 268.0
69.975731 260.0
69.990082 176.0
70.022705 136.0
70.030243 204.0
70.05233 180.0
70.073135 116.0
70.090027 164.0
70.113358 96.0
70.13002 116.0
70.145714 164.0
70.164513 116.0
70.179634 208.0
70.226028 248.0
70.245911 128.0
70.258423 48.0
70.275108 172.0
70.293518 120.0
70.315163 108.0
70.340179 324.0
70.347878 220.0
70.350464 288.0
70.369118 220.0
70.383606 88.0
70.396027 128.0
70.411011 284.0
70.426208 144.0
70.450417 48.0
70.484604 156.0
70.505554 136.0
70.518814 180.0
70.552933 128.0
70.577309 156.0
70.587738 168.0
70.600418 180.0
70.615135 252.0
70.645714 224.0
70.719574 108.0
70.747017 252.0
70.76033 196.0
70.782288 304.0
70.805351 204.0
70.819313 76.0
70.842598 168.0
70.860481 200.0
70.875534 144.0
70.91526 268.0
70.927345 104.0
70.947945 140.0
70.973709 116.0
70.993729 176.0
71.016212 40.0
71.052063 224.0
71.076614 172.0
71.108498 192.0
71.132919 160.0
71.155632 152.0
71.179962 216.0
71.205879 104.0
71.254341 188.0
71.259552 160.0
71.288788 184.0
71.305801 148.0
71.318451 112.0
71.331902 108.0
71.351311 172.0
71.373405 216.0
71.405403 84.0
71.438675 132.0
71.46981 120.0
71.484955 204.0
71.497963 440.0
71.523666 120.0
71.535454 92.0
71.547234 124.0
71.565033 316.0
71.598145 144.0
71.619087 132.0
71.644676 268.0
71.683105 184.0
71.703896 48.0
71.739288 60.0
71.754364 188.0
71.813484 28.0
71.842308 140.0
71.85627 260.0
71.884422 256.0
71.915085 196.0
71.940041 204.0
71.951859 164.0
71.968742 108.0
72.007332 160.0
72.028465 148.0
72.042892 204.0
72.056259 380.0
72.085304 156.0
72.127556 64.0
72.140656 120.0
72.17392 180.0
72.210403 176.0
72.245026 164.0
72.269524 72.0
72.277657 80.0
72.282127 132.0
72.294998 184.0
72.319702 336.0
72.349525 208.0
72.374565 168.0
72.394386 136.0
72.432625 112.0
72.448494 416.0
72.462639 64.0
72.506241 164.0
72.532173 192.0
72.562981 224.0
72.580948 264.0
72.594086 96.0
72.610306 144.0
72.63279 152.0
72.65213 120.0
72.671188 136.0
72.688759 124.0
72.700615 200.0
72.715958 168.0
72.734421 252.0
72.749229 204.0
72.764542 44.0
72.781517 152.0
72.801552 164.0
72.820435 228.0
72.867065 208.0
72.879044 164.0
72.89518 156.0
72.910629 160.0
72.937004 284.0
72.959801 168.0
72.998741 168.0
73.055161 176.0
73.093353 172.0
73.116066 244.0
73.147842 120.0
73.164078 96.0
73.181633 136.0
73.199837 132.0
73.211754 168.0
73.227081 84.0
73.252632 152.0
73.265602 156.0
73.283951 252.0
73.322746 136.0
73.336128 124.0
73.356583 168.0
73.376617 80.0
73.393982 184.0
73.452629 124.0
73.471802 144.0
73.499199 188.0
73.511795 136.0
73.533447 128.0
73.53701 196.0
73.600563 140.0
73.622467 304.0
73.638016 60.0
73.657852 140.0
73.687675 48.0
73.712692 212.0
73.729088 152.0
73.742355 128.0
73.75547 132.0
73.7892 236.0
73.802849 176.0
73.852036 136.0
73.868637 160.0
73.891136 116.0
73.902756 292.0
73.937332 96.0
73.96347 148.0
73.982109 152.0
73.997139 124.0
74.01004 180.0
74.036636 128.0
74.066322 248.0
74.092735 96.0
74.121056 228.0
74.151421 116.0
74.195992 60.0
74.235603 228.0
74.250862 36.0
74.276588 48.0
74.296089 220.0
74.319221 132.0
74.352615 156.0
74.367332 272.0
74.396851 256.0
74.424187 240.0
74.435478 188.0
74.453514 160.0
74.477028 172.0
74.497368 92.0
74.548119 152.0
74.585678 284.0
74.611465 100.0
74.642418 92.0
74.663223 128.0
74.669189 92.0
74.675743 148.0
74.701591 168.0
74.704613 420.0
74.720238 176.0
74.753242 104.0
74.785271 120.0
74.80751 252.0
74.813698 168.0
74.852356 156.0
74.877716 316.0
74.910622 208.0
74.938484 148.0
74.949509 72.0
74.971123 204.0
75.014313 112.0
75.033279 260.0
75.050407 184.0
75.09536 28.0
75.116058 136.0
75.131584 152.0
75.160912 196.0
75.176445 108.0
75.201363 156.0
75.230087 252.0
75.243256 108.0
75.249321 172.0
75.266212 124.0
75.282158 456.0
75.296906 196.0
75.332657 152.0
75.37516 172.0
75.402916 172.0
75.419106 184.0
75.449356 108.0
75.467415 172.0
75.505585 136.0
75.537117 332.0
75.554489 208.0
75.575623 104.0
75.59108 184.0
75.636787 232.0
75.643265 144.0
75.648598 152.0
75.662758 140.0
75.686378 268.0
75.705452 124.0
75.721794 164.0
75.74118 140.0
75.762611 64.0
75.779404 144.0
75.800552 152.0
75.846466 196.0
75.871422 240.0
75.887398 192.0
75.918907 116.0
75.941154 164.0
75.972382 36.0
75.984528 112.0
76.009285 372.0
76.042725 52.0
76.066353 216.0
76.079979 124.0
76.10968 112.0
76.133507 92.0
76.137283 188.0
76.152214 188.0
76.192741 244.0
76.199585 152.0
76.202339 160.0
76.24604 120.0
76.253029 180.0
76.275536 168.0
76.316742 208.0
76.333801 236.0
76.348221 96.0
76.36795 128.0
76.387581 172.0
76.400665 132.0
76.418068 76.0
76.421249 124.0
76.450218 72.0
76.476807 160.0
76.519142 328.0
76.540741 128.0
76.566078 80.0
76.579048 160.0
76.605179 160.0
76.63131 144.0
76.669647 160.0
76.68615 128.0
76.705872 128.0
76.741119 160.0
76.762047 156.0
76.77803 144.0
76.809135 176.0
76.845909 148.0
76.924477 164.0
76.944725 156.0
76.979141 392.0
77.091103 164.0
77.135681 140.0
77.151413 112.0
77.165405 120.0
77.184586 136.0
77.209122 196.0
77.22187 164.0
77.267395 128.0
77.287842 148.0
77.332466 140.0
77.346611 160.0
77.375359 140.0
77.390823 216.0
77.432587 176.0
77.451759 220.0
77.47168 40.0
77.48394 120.0
77.530449 156.0
77.553185 180.0
77.578583 48.0
77.601013 156.0
77.628563 156.0
77.655739 160.0
77.670784 152.0
77.707901 256.0
77.732933 80.0
77.751678 112.0
77.77076 144.0
77.813675 156.0
77.828827 152.0
77.850166 220.0
77.88549 196.0
77.899841 260.0
77.921127 176.0
77.96064 156.0
77.984077 116.0
78.001289 156.0
78.025009 196.0
78.067444 124.0
78.074936 104.0
78.081245 196.0
78.102066 156.0
78.147408 132.0
78.170502 180.0
78.193192 112.0
78.22506 176.0
78.254456 132.0
78.295876 184.0
78.315277 120.0
78.329384 448.0
78.35186 184.0
78.366814 140.0
78.398888 116.0
78.427635 180.0
78.443504 160.0
78.473473 80.0
78.50618 68.0
78.552444 144.0
78.582695 156.0
78.595825 132.0
78.626945 148.0
78.653419 172.0
78.668373 196.0
78.681931 224.0
78.705757 112.0
78.728088 124.0
78.749573 212.0
78.769966 268.0
78.794601 148.0
78.821205 120.0
78.840645 32.0
78.858315 92.0
78.889984 144.0
78.923828 136.0
78.93808 236.0
78.9562 112.0
78.969116 180.0
79.000664 60.0
79.025803 328.0
79.058167 140.0
79.077171 168.0
79.097717 104.0
79.114746 112.0
79.14563 148.0
79.162621 164.0
79.189705 204.0
79.216812 168.0
79.23233 236.0
79.247643 272.0
79.27533 96.0
79.297264 196.0
79.309669 144.0
79.327461 116.0
79.351463 188.0
79.393005 192.0
79.418495 172.0
79.43557 200.0
79.466255 204.0
79.483627 144.0
79.521004 108.0
79.55619 120.0
79.577553 92.0
79.589981 88.0
79.615875 192.0
79.668129 96.0
79.701202 304.0
79.732674 148.0
79.757996 112.0
79.788979 44.0
79.80854 136.0
79.831337 200.0
79.854774 208.0
79.874222 176.0
79.880203 164.0
79.904587 252.0
79.917786 72.0
79.948265 168.0
79.972649 140.0
79.989456 136.0
80.006035 72.0
80.050545 184.0
80.071213 112.0
80.083344 116.0
80.100899 148.0
80.107544 160.0
80.145401 192.0
80.172997 264.0
80.20295 148.0
80.23259 144.0
80.245758 148.0
80.272202 272.0
80.285782 148.0
80.305771 164.0
80.332695 120.0
80.351242 92.0
80.366058 124.0
80.396873 148.0
80.416023 212.0
80.435661 96.0
80.462585 184.0
80.505295 128.0
80.532059 164.0
80.551735 60.0
80.576286 184.0
80.615967 160.0
80.637756 240.0
80.662529 116.0
80.705437 112.0
80.725105 252.0
80.745445 160.0
80.761391 180.0
80.774788 148.0
80.794861 28.0
80.811462 348.0
80.844742 220.0
80.862198 148.0
80.881493 280.0
80.910088 284.0
80.928223 180.0
80.950508 92.0
80.974693 340.0
81.009697 488.0
81.03009 116.0
81.05526 372.0
81.08316 276.0
81.099411 120.0
81.107002 172.0
81.112755 172.0
81.131561 200.0
81.147308 192.0
81.162041 104.0
81.176384 208.0
81.197586 124.0
81.211807 208.0
81.235168 256.0
81.286407 72.0
81.307343 120.0
81.325294 180.0
81.337486 228.0
81.353058 276.0
81.382744 168.0
81.415962 160.0
81.434822 396.0
81.464401 180.0
81.470406 84.0
81.477013 164.0
81.5644 212.0
81.576439 128.0
81.608322 300.0
81.63903 180.0
81.654099 168.0
81.699562 176.0
81.710442 100.0
81.716911 148.0
81.742554 212.0
81.786598 156.0
81.812836 192.0
81.828651 60.0
81.843056 164.0
81.861885 176.0
81.889877 100.0
81.913864 140.0
81.929512 104.0
81.943924 204.0
81.996391 168.0
82.043045 108.0
82.067574 156.0
82.091576 324.0
82.095947 296.0
82.111572 304.0
82.123039 200.0
82.149406 164.0
82.184898 136.0
82.207535 168.0
82.214935 164.0
82.243286 144.0
82.261337 168.0
82.286613 136.0
82.334976 168.0
82.358849 324.0
82.394897 176.0
82.418236 128.0
82.459015 164.0
82.475609 200.0
82.482651 124.0
82.516068 172.0
82.539619 160.0
82.572075 144.0
82.59935 332.0
82.617439 168.0
82.640869 116.0
82.665894 140.0
82.679657 120.0
82.694077 140.0
82.736794 412.0
82.767319 224.0
82.792931 160.0
82.811981 148.0
82.848511 152.0
82.872253 168.0
82.878357 168.0
82.905518 248.0
82.939651 192.0
82.955055 140.0
82.979568 156.0
83.002426 152.0
83.034935 200.0
83.047546 116.0
83.058983 264.0
83.080498 148.0
83.120445 132.0
83.151482 136.0
83.171875 144.0
83.186394 192.0
83.205872 132.0
83.21286 104.0
83.222542 132.0
83.239212 132.0
83.271736 216.0
83.288086 132.0
83.303757 216.0
83.316208 100.0
83.321342 144.0
83.368195 132.0
83.388779 232.0
83.399406 352.0
83.430222 112.0
83.451645 200.0
83.475983 104.0
83.504387 152.0
83.529526 160.0
83.553497 132.0
83.568054 180.0
83.590225 152.0
83.611725 180.0
83.637207 192.0
83.659058 88.0
83.675438 40.0
83.704849 116.0
83.724602 44.0
83.746719 216.0
83.774033 152.0
83.812912 160.0
83.841202 156.0
83.864899 316.0
83.885544 232.0
83.903854 140.0
83.929436 60.0
83.950142 376.0
83.979767 72.0
83.998009 132.0
84.014824 148.0
84.050919 208.0
84.063423 108.0
84.070915 92.0
84.076508 196.0
84.103081 124.0
84.136131 152.0
84.145248 124.0
84.149361 120.0
84.173637 332.0
84.188545 236.0
84.209747 160.0
84.235321 164.0
84.265091 312.0
84.307381 308.0
84.320625 204.0
84.339897 156.0
84.376038 108.0
84.392494 260.0
84.419884 168.0
84.450974 168.0
84.456215 244.0
84.461296 200.0
84.467857 252.0
84.482712 160.0
84.526207 120.0
84.568123 160.0
84.603264 192.0
84.644096 124.0
84.684174 168.0
84.715195 264.0
84.75473 276.0
84.777679 156.0
84.80291 172.0
84.828766 168.0
84.870621 168.0
84.892403 132.0
84.910744 172.0
84.949265 84.0
84.964622 140.0
85.022659 140.0
85.064354 140.0
85.092415 128.0
85.10527 100.0
85.125465 124.0
85.140976 144.0
85.178726 196.0
85.206161 120.0
85.229637 256.0
85.24202 196.0
85.266357 52.0
85.30619 112.0
85.327591 160.0
85.387909 204.0
85.390678 156.0
85.415451 132.0
85.441895 240.0
85.464111 176.0
85.489456 188.0
85.52227 116.0
85.544678 232.0
85.558403 144.0
85.572922 140.0
85.593071 224.0
85.609886 96.0
85.640427 284.0
85.667397 156.0
85.693855 180.0
85.71965 148.0
85.757614 132.0
85.777664 152.0
85.78344 172.0
85.816071 228.0
85.841316 120.0
85.857918 120.0
85.898499 256.0
85.910782 188.0
85.91819 124.0
85.923485 272.0
85.946465 128.0
85.992599 92.0
86.018333 132.0
86.047028 232.0
86.071983 148.0
86.112617 140.0
86.128227 204.0
86.161598 108.0
86.186508 148.0
86.203903 116.0
86.21608 184.0
86.238846 220.0
86.251198 212.0
86.277168 320.0
86.314056 96.0
86.335808 172.0
86.354744 156.0
86.367691 168.0
86.380638 196.0
86.40654 92.0
86.428986 304.0
86.47686 212.0
86.489815 84.0
86.511185 192.0
86.536095 160.0
86.566185 288.0
86.59433 172.0
86.605598 148.0
86.629814 216.0
86.652786 112.0
86.675743 112.0
86.722 160.0
86.762131 316.0
86.782219 168.0
86.789047 140.0
86.792953 160.0
86.821114 208.0
86.851143 148.0
86.877113 112.0
86.901237 200.0
86.925911 148.0
86.950195 168.0
86.959976 116.0
86.964386 128.0
87.006302 184.0
87.031166 132.0
87.046379 188.0
87.077591 204.0
87.104507 112.0
87.146164 188.0
87.177917 148.0
87.226601 248.0
87.246529 200.0
87.267143 172.0
87.297432 124.0
87.319275 128.0
87.347115 144.0
87.3899 172.0
87.404732 156.0
87.424347 392.0
87.472328 152.0
87.508621 148.0
87.570389 164.0
87.595299 196.0
87.613762 168.0
87.628227 100.0
87.649902 200.0
87.666489 172.0
87.722008 264.0
87.74192 196.0
87.801392 172.0
87.812515 392.0
87.831429 92.0
87.84449 212.0
87.864075 312.0
87.891869 112.0
87.910957 160.0
87.962746 220.0
88.018929 88.0
88.033005 128.0
88.055412 76.0
88.074921 136.0
88.088379 68.0
88.101868 268.0
88.115196 164.0
88.139038 168.0
88.162094 164.0
88.180794 156.0
88.199287 140.0
88.230148 168.0
88.249763 200.0
88.270805 128.0
88.286148 316.0
88.298134 176.0
88.316078 152.0
88.339539 120.0
88.369629 160.0
88.393799 116.0
88.45295 200.0
88.459732 372.0
88.485519 192.0
88.502365 100.0
88.530945 244.0
88.548019 168.0
88.56575 248.0
88.569717 108.0
88.575897 124.0
88.597885 192.0
88.624809 120.0
88.653023 160.0
88.689713 380.0
88.710335 44.0
88.76239 356.0
88.776161 184.0
88.826836 156.0
88.841606 308.0
88.855347 136.0
88.915382 224.0
88.929802 172.0
88.944817 120.0
88.963593 144.0
88.982368 128.0
88.998322 284.0
89.020256 332.0
89.066757 192.0
89.068993 240.0
89.085655 184.0
89.106628 180.0
89.121353 104.0
89.139091 192.0
89.18428 208.0
89.209694 132.0
89.23362 472.0
89.249176 208.0
89.286514 192.0
89.31321 248.0
89.338448 124.0
89.384743 224.0
89.412804 132.0
89.450485 92.0
89.480141 484.0
89.499435 116.0
89.517128 152.0
89.53952 164.0
89.549431 80.0
89.569115 176.0
89.618805 96.0
89.638824 152.0
89.663788 148.0
89.710449 148.0
89.740616 40.0
89.762085 172.0
89.78157 156.0
89.80542 232.0
89.81723 160.0
89.841537 180.0
89.846069 92.0
89.854134 172.0
89.90638 100.0
89.934929 112.0
89.952034 64.0
89.983162 296.0
90.007736 156.0
90.042755 404.0
90.05072 172.0
90.05571 120.0
90.068459 156.0
90.091667 148.0
90.106781 112.0
90.120003 132.0
90.15538 184.0
90.167244 252.0
90.182625 176.0
90.213692 56.0
90.231522 296.0
90.244255 196.0
90.281837 244.0
90.323257 212.0
90.344017 264.0
90.363914 168.0
90.390404 112.0
90.41835 120.0
90.431282 100.0
90.450737 132.0
90.468002 96.0
90.497322 232.0
90.504791 112.0
90.5084 168.0
90.524529 164.0
90.54837 316.0
90.589211 228.0
90.613838 120.0
90.637466 180.0
90.653625 136.0
90.666893 164.0
90.696877 200.0
90.714279 52.0
90.740822 96.0
90.760468 232.0
90.781982 136.0
90.796349 152.0
90.810989 312.0
90.842888 144.0
90.865189 224.0
90.880043 160.0
90.905533 256.0
90.942795 188.0
90.961998 140.0
90.976646 160.0
91.024178 212.0
91.028435 104.0
91.05368 13520.0
91.101677 200.0
91.119781 132.0
91.173149 112.0
91.186279 164.0
91.217339 200.0
91.2537 356.0
91.27607 116.0
91.321854 388.0
91.345703 120.0
91.366051 184.0
91.403008 84.0
91.432274 180.0
91.4589 312.0
91.484749 176.0
91.497284 184.0
91.551903 144.0
91.565681 172.0
91.607452 160.0
91.650894 164.0
91.671661 80.0
91.684242 80.0
91.711754 316.0
91.755814 156.0
91.773262 172.0
91.798691 48.0
91.839737 180.0
91.859726 132.0
91.874939 232.0
91.897247 88.0
91.917 68.0
91.936157 112.0
91.971947 220.0
91.997963 140.0
92.025581 308.0
92.057205 1784.0
92.103806 60.0
92.138107 180.0
92.162491 144.0
92.167114 132.0
92.196709 112.0
92.21315 160.0
92.23719 128.0
92.25248 136.0
92.274635 292.0
92.309837 160.0
92.322136 140.0
92.361481 112.0
92.382042 32.0
92.416153 184.0
92.436096 140.0
92.451408 204.0
92.472458 116.0
92.518593 196.0
92.553429 276.0
92.56897 220.0
92.590927 128.0
92.598442 260.0
92.6129 156.0
92.627647 336.0
92.643814 148.0
92.690216 324.0
92.716499 228.0
92.73761 148.0
92.776665 176.0
92.792763 184.0
92.821136 180.0
92.843735 168.0
92.859489 140.0
92.876755 152.0
92.893127 112.0
92.924446 132.0
92.947739 68.0
92.969757 160.0
92.997955 124.0
93.022591 188.0
93.071434 264.0
93.112228 152.0
93.135643 156.0
93.186348 164.0
93.236954 160.0
93.266144 152.0
93.28109 276.0
93.301155 172.0
93.31942 304.0
93.34153 124.0
93.358673 140.0
93.394302 128.0
93.42231 104.0
93.458099 140.0
93.47123 148.0
93.490906 156.0
93.523117 104.0
93.544731 280.0
93.580627 228.0
93.598618 160.0
93.620537 236.0
93.641754 188.0
93.661018 128.0
93.688316 164.0
93.728394 148.0
93.795898 196.0
93.810875 120.0
93.818787 92.0
93.836388 80.0
93.856171 248.0
93.921814 188.0
93.939804 160.0
93.961273 180.0
93.995674 176.0
94.020844 264.0
94.046661 96.0
94.073044 308.0
94.092445 156.0
94.116165 132.0
94.13092 172.0
94.15493 164.0
94.164261 172.0
94.168304 148.0
94.217728 308.0
94.249962 252.0
94.290024 44.0
94.330811 172.0
94.350601 220.0
94.371216 80.0
94.386909 348.0
94.459709 128.0
94.502747 144.0
94.531296 244.0
94.555382 144.0
94.569427 208.0
94.59951 136.0
94.619019 160.0
94.626724 144.0
94.651985 136.0
94.681015 216.0
94.716934 276.0
94.75808 128.0
94.763596 100.0
94.789749 144.0
94.815506 184.0
94.831963 120.0
94.845528 108.0
94.85994 240.0
94.895935 136.0
94.940048 192.0
94.96328 232.0
94.98214 108.0
95.019196 188.0
95.04335 100.0
95.074242 296.0
95.07888 156.0
95.115158 152.0
95.151642 252.0
95.182068 208.0
95.197929 136.0
95.228432 200.0
95.255013 380.0
95.30674 372.0
95.332695 184.0
95.367676 108.0
95.405952 240.0
95.438683 200.0
95.472664 84.0
95.492683 204.0
95.518623 172.0
95.540749 132.0
95.55529 176.0
95.584923 180.0
95.589584 160.0
95.595581 196.0
95.623558 144.0
95.657677 92.0
95.673088 216.0
95.689095 196.0
95.716713 88.0
95.731697 116.0
95.758919 100.0
95.772697 156.0
95.786888 192.0
95.799789 128.0
95.808479 92.0
95.81588 176.0
95.848557 132.0
95.880623 256.0
95.902184 132.0
95.927681 180.0
95.947014 132.0
95.977348 172.0
95.998482 136.0
96.013062 344.0
96.035347 152.0
96.059807 76.0
96.088211 132.0
96.128578 244.0
96.186409 188.0
96.200279 320.0
96.204277 136.0
96.212044 248.0
96.226784 116.0
96.253967 152.0
96.283417 40.0
96.304901 236.0
96.337563 184.0
96.383728 644.0
96.421783 256.0
96.456024 140.0
96.48468 204.0
96.50032 196.0
96.524818 204.0
96.538208 260.0
96.555321 148.0
96.586571 132.0
96.591125 84.0
96.631325 180.0
96.652512 344.0
96.686157 180.0
96.707024 180.0
96.740967 260.0
96.766129 160.0
96.785583 188.0
96.815865 124.0
96.82019 104.0
96.866295 176.0
96.915276 184.0
96.931908 172.0
96.963913 176.0
96.977249 148.0
96.997589 116.0
97.076912 140.0
97.082428 192.0
97.143311 144.0
97.170059 212.0
97.201569 140.0
97.219231 192.0
97.252594 220.0
97.270256 124.0
97.287849 208.0
97.303635 100.0
97.334267 256.0
97.373413 172.0
97.381569 64.0
97.386475 152.0
97.395081 92.0
97.402664 112.0
97.426697 196.0
97.485367 108.0
97.505348 204.0
97.531395 132.0
97.558182 240.0
97.581718 60.0
97.609436 160.0
97.625008 160.0
97.654732 160.0
97.706116 168.0
97.709953 168.0
97.759605 128.0
97.786964 344.0
97.803062 208.0
97.828552 76.0
97.877777 88.0
97.923851 132.0
97.954308 284.0
97.959007 120.0
97.984093 168.0
98.016922 144.0
98.041283 136.0
98.085854 240.0
98.11528 420.0
98.161469 112.0
98.193092 180.0
98.212814 112.0
98.238457 172.0
98.256271 136.0
98.277916 132.0
98.31739 124.0
98.334305 204.0
98.361206 176.0
98.379532 164.0
98.395241 148.0
98.420738 124.0
98.440933 172.0
98.503853 156.0
98.53093 224.0
98.561325 236.0
98.582024 100.0
98.630684 196.0
98.657494 324.0
98.68679 60.0
98.70063 156.0
98.720406 296.0
98.740074 152.0
98.749672 100.0
98.754128 120.0
98.781715 88.0
98.825516 204.0
98.865639 116.0
98.890549 128.0
98.913605 176.0
98.970612 100.0
98.976242 140.0
98.997459 200.0
99.018486 136.0
99.039055 192.0
99.061188 160.0
99.084618 56.0
99.102898 124.0
99.119728 200.0
99.138115 52.0
99.169777 424.0
99.195534 148.0
99.21991 168.0
99.239212 252.0
99.285034 188.0
99.322952 196.0
99.361702 344.0
99.387978 120.0
99.441559 132.0
99.458298 132.0
99.479057 108.0
99.496956 172.0
99.509331 200.0
99.517342 184.0
99.521713 128.0
99.541718 196.0
99.556602 152.0
99.622147 136.0
99.647057 180.0
99.675903 140.0
99.714104 144.0
99.733261 172.0
99.744057 216.0
99.771088 280.0
99.834938 80.0
99.862663 148.0
99.897522 112.0
99.904266 108.0
99.91217 116.0
99.923698 348.0
99.937271 380.0
99.9589 296.0
99.985741 140.0
100.000076 156.0
100.019981 420.0
100.043167 148.0
100.074013 360.0
100.080009 184.0
100.107254 144.0
100.126221 256.0
100.158813 144.0
100.16275 132.0
100.180801 248.0
100.228653 144.0
100.251694 320.0
100.287804 296.0
100.318924 236.0
100.351952 88.0
100.383003 96.0
100.407448 112.0
100.437248 168.0
100.466362 152.0
100.480629 132.0
100.496292 180.0
100.511208 328.0
100.541519 108.0
100.545067 72.0
100.568001 60.0
100.589294 224.0
100.603691 172.0
100.629074 116.0
100.647987 80.0
100.673668 140.0
100.707901 116.0
100.743561 132.0
100.762886 136.0
100.784225 128.0
100.826874 132.0
100.842598 136.0
100.856941 136.0
100.897141 224.0
100.915741 148.0
100.941338 80.0
100.964615 208.0
100.970413 176.0
100.978661 164.0
100.984436 356.0
101.013741 180.0
101.035744 164.0
101.061752 148.0
101.081871 416.0
101.113815 296.0
101.148552 284.0
101.173782 140.0
101.209778 248.0
101.275963 100.0
101.292191 40.0
101.320641 84.0
101.344078 176.0
101.36396 100.0
101.368912 92.0
101.376732 136.0
101.418228 156.0
101.440277 136.0
101.479668 124.0
101.502434 164.0
101.52449 148.0
101.562599 144.0
101.584663 144.0
101.598709 212.0
101.618774 152.0
101.658905 92.0
101.676964 176.0
101.705925 84.0
101.728539 52.0
101.74218 180.0
101.768829 100.0
101.800461 156.0
101.846794 144.0
101.855423 132.0
101.862686 260.0
101.893837 124.0
101.911919 152.0
101.959358 352.0
101.996201 340.0
102.027267 296.0
102.045769 472.0
102.071617 232.0
102.095444 304.0
102.1483 160.0
102.175308 140.0
102.212334 272.0
102.236885 140.0
102.274673 64.0
102.296059 132.0
102.334801 116.0
102.355164 204.0
102.376144 124.0
102.416595 168.0
102.461197 156.0
102.489067 220.0
102.518372 204.0
102.554642 76.0
102.576195 128.0
102.593063 224.0
102.610344 212.0
102.624458 124.0
102.640587 120.0
102.662773 152.0
102.678276 128.0
102.69706 184.0
102.713196 284.0
102.734528 140.0
102.774208 136.0
102.798203 60.0
102.810638 176.0
102.854446 208.0
102.874634 148.0
102.892799 104.0
102.917923 208.0
102.934151 200.0
102.958916 140.0
102.980644 216.0
103.001854 148.0
103.029137 164.0
103.052925 2124.0
103.072388 436.0
103.127136 116.0
103.142532 220.0
103.171608 216.0
103.191826 264.0
103.205978 300.0
103.232269 152.0
103.276886 132.0
103.290924 176.0
103.305908 176.0
103.346695 240.0
103.367805 100.0
103.397591 184.0
103.415024 48.0
103.421791 148.0
103.449257 180.0
103.467751 244.0
103.49128 120.0
103.539215 244.0
103.560135 56.0
103.585602 56.0
103.608749 144.0
103.652428 320.0
103.699326 172.0
103.764114 128.0
103.806503 128.0
103.824936 92.0
103.830597 100.0
103.83786 168.0
103.864182 252.0
103.888428 132.0
103.905769 108.0
103.921028 124.0
103.961754 132.0
103.977806 140.0
104.004837 188.0
104.032616 148.0
104.057556 204.0
104.077278 192.0
104.093521 140.0
104.107925 132.0
104.137947 156.0
104.160545 212.0
104.178833 124.0
104.201088 184.0
104.21785 136.0
104.242439 184.0
104.273003 104.0
104.298729 188.0
104.314987 80.0
104.330406 236.0
104.359718 128.0
104.373947 40.0
104.415916 308.0
104.441658 176.0
104.50563 152.0
104.573433 148.0
104.609962 168.0
104.637733 168.0
104.653793 200.0
104.688766 188.0
104.713806 40.0
104.735306 144.0
104.750984 128.0
104.790749 208.0
104.811592 208.0
104.857666 228.0
104.879028 92.0
104.90831 112.0
104.935928 156.0
104.963997 136.0
104.989655 220.0
105.014236 180.0
105.06916 5952.0
105.109802 216.0
105.125511 132.0
105.147583 164.0
105.172577 168.0
105.201157 256.0
105.231598 132.0
105.245506 312.0
105.268539 196.0
105.292091 248.0
105.308815 192.0
105.311974 164.0
105.327599 48.0
105.338615 164.0
105.354431 156.0
105.379272 260.0
105.415398 184.0
105.438103 112.0
105.445969 160.0
105.452805 144.0
105.468681 204.0
105.476425 48.0
105.483986 240.0
105.511459 108.0
105.538269 176.0
105.553444 76.0
105.569244 188.0
105.618027 80.0
105.648018 172.0
105.671173 100.0
105.706001 104.0
105.732895 144.0
105.761139 128.0
105.792397 116.0
105.817268 168.0
105.875923 144.0
105.8964 124.0
105.914841 184.0
105.937744 132.0
105.962112 156.0
105.996788 136.0
106.013184 128.0
106.045486 184.0
106.070709 568.0
106.139015 344.0
106.179512 156.0
106.218216 116.0
106.25071 124.0
106.279762 132.0
106.306404 132.0
106.320808 156.0
106.343384 160.0
106.361855 132.0
106.409073 216.0
106.435242 220.0
106.482933 128.0
106.544479 168.0
106.575447 140.0
106.599144 120.0
106.631866 164.0
106.666977 172.0
106.706993 168.0
106.720596 136.0
106.746056 60.0
106.767365 120.0
106.807762 40.0
106.82711 184.0
106.850044 180.0
106.904465 188.0
106.922981 180.0
106.940727 212.0
106.966209 116.0
107.006004 208.0
107.034813 124.0
107.065002 216.0
107.069817 212.0
107.07682 100.0
107.116531 196.0
107.139198 116.0
107.165169 296.0
107.187546 240.0
107.208099 148.0
107.241821 344.0
107.26078 100.0
107.279335 168.0
107.295052 276.0
107.317337 148.0
107.341187 440.0
107.367996 148.0
107.405128 152.0
107.425751 220.0
107.448448 220.0
107.483521 156.0
107.512413 256.0
107.538155 204.0
107.573753 156.0
107.594978 124.0
107.611496 124.0
107.642471 196.0
107.682106 188.0
107.7117 108.0
107.730141 368.0
107.754013 108.0
107.785469 124.0
107.799286 132.0
107.831299 160.0
107.854446 192.0
107.877296 252.0
107.911285 340.0
107.934555 92.0
107.954735 76.0
107.983627 156.0
108.000717 140.0
108.015938 184.0
108.03022 164.0
108.045906 176.0
108.087883 136.0
108.112701 144.0
108.146927 104.0
108.185387 104.0
108.206223 180.0
108.250923 192.0
108.290565 172.0
108.343651 160.0
108.368042 124.0
108.409958 128.0
108.443939 116.0
108.4674 196.0
108.490662 184.0
108.519821 116.0
108.536415 300.0
108.551834 180.0
108.582039 84.0
108.616585 164.0
108.679535 132.0
108.696617 208.0
108.739716 60.0
108.77092 128.0
108.805916 240.0
108.868294 128.0
108.889206 124.0
108.909981 116.0
108.934906 68.0
108.97477 148.0
108.998581 248.0
109.023773 140.0
109.043999 168.0
109.06282 200.0
109.107735 208.0
109.145493 136.0
109.163841 300.0
109.22065 176.0
109.248817 132.0
109.266533 152.0
109.302238 124.0
109.316772 140.0
109.355591 204.0
109.401726 228.0
109.421555 156.0
109.457283 404.0
109.479858 164.0
109.553215 220.0
109.56852 252.0
109.584793 32.0
109.602715 160.0
109.626305 176.0
109.65387 192.0
109.683075 96.0
109.703529 116.0
109.712608 40.0
109.725372 152.0
109.749817 176.0
109.799316 184.0
109.823753 108.0
109.895638 184.0
109.939613 256.0
109.974266 120.0
110.003212 176.0
110.030029 236.0
110.043877 224.0
110.08812 132.0
110.105522 32.0
110.121063 336.0
110.152962 124.0
110.1651 260.0
110.2071 132.0
110.226143 76.0
110.268486 96.0
110.301933 184.0
110.320747 132.0
110.341652 164.0
110.370926 132.0
110.416931 120.0
110.432411 144.0
110.478348 188.0
110.509995 164.0
110.546021 176.0
110.573853 276.0
110.591499 148.0
110.621132 184.0
110.649429 112.0
110.689827 120.0
110.721855 160.0
110.741104 204.0
110.74894 32.0
110.787437 124.0
110.81311 140.0
110.831436 188.0
110.848122 108.0
110.871246 192.0
110.901749 176.0
110.921555 92.0
110.949257 148.0
110.970589 388.0
110.990074 88.0
111.048622 220.0
111.099686 144.0
111.137573 152.0
111.181366 116.0
111.205109 396.0
111.231079 180.0
111.245186 160.0
111.2929 216.0
111.3097 140.0
111.3349 200.0
111.362038 208.0
111.398849 152.0
111.43573 372.0
111.460945 68.0
111.479858 128.0
111.509491 160.0
111.536789 156.0
111.564133 224.0
111.613022 172.0
111.643829 128.0
111.674477 84.0
111.694313 68.0
111.71328 268.0
111.753922 108.0
111.772156 144.0
111.81395 144.0
111.835899 196.0
111.870171 260.0
111.893517 220.0
111.912621 164.0
111.932137 100.0
111.953255 140.0
111.976364 164.0
111.99025 128.0
112.033287 176.0
112.057541 284.0
112.096451 104.0
112.13295 212.0
112.158325 112.0
112.182617 168.0
112.216599 108.0
112.244011 388.0
112.272018 172.0
112.3106 244.0
112.334702 180.0
112.364014 224.0
112.396812 184.0
112.442131 324.0
112.471733 196.0
112.475334 180.0
112.499306 80.0
112.518311 152.0
112.565445 204.0
112.584274 360.0
112.644821 148.0
112.649246 208.0
112.695724 304.0
112.711182 192.0
112.739487 172.0
112.754066 112.0
112.759865 240.0
112.766365 196.0
112.804901 128.0
112.843681 112.0
112.860596 152.0
112.884857 120.0
112.920845 124.0
112.938583 128.0
112.943718 184.0
112.987312 224.0
113.02314 104.0
113.059441 160.0
113.095421 136.0
113.114479 136.0
113.139877 308.0
113.166733 240.0
113.210548 200.0
113.251389 176.0
113.302002 116.0
113.318604 104.0
113.336594 192.0
113.377449 188.0
113.396164 428.0
113.494164 168.0
113.537354 132.0
113.57412 168.0
113.581406 276.0
113.598244 208.0
113.614296 164.0
113.636696 188.0
113.652802 144.0
113.680382 148.0
113.727585 140.0
113.765289 256.0
113.792366 392.0
113.807861 380.0
113.820854 168.0
113.837479 168.0
113.87027 164.0
113.937309 192.0
113.962807 172.0
113.983391 204.0
114.018921 296.0
114.041733 316.0
114.056557 140.0
114.064476 112.0
114.094917 176.0
114.132851 192.0
114.149864 84.0
114.171761 176.0
114.185822 172.0
114.217926 116.0
114.260468 192.0
114.282738 156.0
114.305153 192.0
114.320053 168.0
114.334946 48.0
114.366875 88.0
114.401375 116.0
114.452507 288.0
114.466064 156.0
114.490158 204.0
114.509529 76.0
114.549553 172.0
114.573433 124.0
114.601135 132.0
114.620232 104.0
114.649239 132.0
114.688507 140.0
114.719955 176.0
114.743866 232.0
114.770752 180.0
114.80484 192.0
114.820503 84.0
114.855415 296.0
114.886513 136.0
114.927368 160.0
114.946571 72.0
114.96151 72.0
114.979012 60.0
115.005074 232.0
115.020004 344.0
115.028671 168.0
115.053917 37248.0
115.132401 156.0
115.157928 128.0
115.192108 300.0
115.228531 108.0
115.268723 324.0
115.296036 120.0
115.330444 184.0
115.346207 240.0
115.367897 92.0
115.406067 176.0
115.425072 164.0
115.444099 80.0
115.476395 112.0
115.51017 300.0
115.527901 152.0
115.537895 64.0
115.542023 200.0
115.582466 220.0
115.630447 116.0
115.673965 212.0
115.686005 92.0
115.711792 160.0
115.743904 80.0
115.780235 428.0
115.813797 192.0
115.836182 224.0
115.853485 184.0
115.877991 180.0
115.935799 292.0
115.975182 220.0
115.991295 132.0
115.999245 160.0
116.018463 84.0
116.037399 408.0
116.058578 4724.0
116.098717 204.0
116.126381 120.0
116.14254 80.0
116.163391 188.0
116.180504 96.0
116.195267 76.0
116.210945 248.0
116.214111 176.0
116.259468 176.0
116.294884 96.0
116.330177 344.0
116.36187 136.0
116.378609 76.0
116.411781 220.0
116.438019 84.0
116.458855 120.0
116.481697 192.0
116.500954 108.0
116.515167 156.0
116.541855 336.0
116.565437 136.0
116.573952 132.0
116.587082 188.0
116.640709 316.0
116.66436 140.0
116.699898 348.0
116.733162 152.0
116.771873 360.0
116.790382 264.0
116.80719 356.0
116.823738 144.0
116.849319 248.0
116.864174 88.0
116.872391 72.0
116.886803 180.0
116.925827 192.0
116.952286 156.0
116.966316 272.0
117.009453 132.0
117.034973 328.0
117.069626 75412.0
117.116821 192.0
117.136108 112.0
117.177574 216.0
117.197098 108.0
117.209587 124.0
117.23484 188.0
117.264252 356.0
117.288841 160.0
117.325813 348.0
117.350822 160.0
117.388474 100.0
117.421173 256.0
117.451202 180.0
117.470207 120.0
117.502136 36.0
117.536385 224.0
117.552422 216.0
117.574425 136.0
117.599571 444.0
117.627312 204.0
117.660942 168.0
117.681084 132.0
117.709351 260.0
117.733597 228.0
117.768204 128.0
117.795746 100.0
117.817101 148.0
117.843636 96.0
117.869492 152.0
117.890274 64.0
117.919685 112.0
117.953499 128.0
117.968628 148.0
117.991585 200.0
118.006096 304.0
118.023712 192.0
118.071968 6144.0
118.135147 160.0
118.150291 192.0
118.174088 128.0
118.190285 192.0
118.21817 188.0
118.240791 236.0
118.246323 232.0
118.254669 152.0
118.290695 364.0
118.347298 180.0
118.375397 96.0
118.399277 152.0
118.448708 52.0
118.467644 292.0
118.498352 124.0
118.52195 276.0
118.546783 216.0
118.570374 124.0
118.587326 304.0
118.609848 172.0
118.614044 244.0
118.651711 92.0
118.678329 180.0
118.705803 156.0
118.750839 68.0
118.769783 136.0
118.777664 120.0
118.786003 216.0
118.804558 144.0
118.82843 124.0
118.854805 316.0
118.894142 248.0
118.910034 160.0
118.925323 80.0
118.947495 204.0
118.995552 36.0
119.031113 148.0
119.049835 136.0
119.08284 2292.0
119.113892 240.0
119.121727 248.0
119.137863 152.0
119.162895 164.0
119.1987 364.0
119.225807 156.0
119.262756 124.0
119.29319 48.0
119.316628 184.0
119.337761 112.0
119.358353 132.0
119.364563 208.0
119.40551 116.0
119.413422 164.0
119.438225 276.0
119.464989 144.0
119.479431 132.0
119.510681 84.0
119.54567 300.0
119.572983 140.0
119.601501 168.0
119.63829 216.0
119.662231 160.0
119.690765 164.0
119.71312 304.0
119.746109 248.0
119.754333 156.0
119.76178 236.0
119.800995 128.0
119.821724 140.0
119.848534 324.0
119.882072 128.0
119.931732 296.0
119.959679 404.0
119.978951 168.0
120.011009 228.0
120.01973 160.0
120.025276 180.0
120.03746 204.0
120.084305 236.0
120.142464 156.0
120.159973 108.0
120.216705 80.0
120.235321 220.0
120.252571 204.0
120.271271 136.0
120.31781 156.0
120.346855 132.0
120.372231 280.0
120.408134 228.0
120.45356 240.0
120.477257 140.0
120.496208 176.0
120.522423 208.0
120.546463 136.0
120.563568 248.0
120.582558 116.0
120.609848 176.0
120.628151 160.0
120.661972 256.0
120.697296 264.0
120.71479 136.0
120.730095 148.0
120.75634 184.0
120.786156 156.0
120.801277 192.0
120.820732 156.0
120.86573 92.0
120.884331 136.0
120.91658 152.0
120.980789 48.0
120.997055 112.0
121.020988 116.0
121.03759 264.0
121.086838 164.0
121.101418 140.0
121.116325 172.0
121.143784 100.0
121.184372 176.0
121.226517 116.0
121.253349 80.0
121.279648 148.0
121.302353 112.0
121.34037 332.0
121.387886 164.0
121.419975 320.0
121.446297 168.0
121.46743 112.0
121.530464 188.0
121.577499 60.0
121.613052 76.0
121.636581 100.0
121.642685 200.0
121.654556 128.0
121.662651 316.0
121.702759 176.0
121.727066 172.0
121.761063 292.0
121.792442 172.0
121.798012 120.0
121.807159 200.0
121.841187 176.0
121.859009 152.0
121.897583 252.0
121.967918 144.0
122.023849 104.0
122.039246 104.0
122.058144 168.0
122.081024 188.0
122.140411 104.0
122.158798 236.0
122.177658 120.0
122.22197 296.0
122.264061 140.0
122.301041 128.0
122.334061 176.0
122.362679 120.0
122.447357 168.0
122.474991 132.0
122.50322 156.0
122.530067 104.0
122.574165 192.0
122.60482 160.0
122.613625 148.0
122.655678 164.0
122.673317 320.0
122.699928 156.0
122.729744 236.0
122.754097 376.0
122.768997 156.0
122.806404 68.0
122.829659 348.0
122.84758 196.0
122.903572 180.0
122.942215 140.0
122.950653 152.0
122.991158 92.0
123.021782 188.0
123.040459 356.0
123.057968 184.0
123.079941 80.0
123.098709 140.0
123.129128 48.0
123.145531 148.0
123.167618 132.0
123.215599 100.0
123.255112 180.0
123.311241 232.0
123.335556 132.0
123.363411 140.0
123.376968 172.0
123.397415 208.0
123.421776 52.0
123.452736 120.0
123.488556 184.0
123.556702 128.0
123.596733 212.0
123.606064 168.0
123.669556 112.0
123.691696 156.0
123.711418 136.0
123.731102 148.0
123.734795 188.0
123.75811 216.0
123.782471 100.0
123.797966 36.0
123.814301 148.0
123.842262 132.0
123.882141 176.0
123.906509 160.0
123.93531 100.0
123.955254 164.0
123.993164 152.0
124.023956 172.0
124.055809 152.0
124.107773 124.0
124.113701 100.0
124.122437 172.0
124.199135 200.0
124.24572 56.0
124.2696 300.0
124.308434 168.0
124.327934 184.0
124.347458 132.0
124.369987 208.0
124.385345 148.0
124.42498 280.0
124.441704 140.0
124.465248 128.0
124.527634 132.0
124.54985 220.0
124.585396 152.0
124.640236 168.0
124.655685 132.0
124.700089 52.0
124.736504 172.0
124.765404 120.0
124.789497 192.0
124.812096 96.0
124.827667 156.0
124.847679 196.0
124.908943 132.0
124.92482 100.0
124.945885 160.0
124.964706 164.0
124.991516 140.0
125.024101 140.0
125.06572 148.0
125.094658 124.0
125.121376 164.0
125.136963 88.0
125.194855 128.0
125.210449 152.0
125.233322 264.0
125.267319 224.0
125.317184 140.0
125.328957 160.0
125.351395 104.0
125.39537 144.0
125.412735 96.0
125.452866 292.0
125.503059 232.0
125.5345 340.0
125.545944 148.0
125.555008 200.0
125.610985 200.0
125.651817 160.0
125.689522 120.0
125.712875 132.0
125.754463 76.0
125.776466 312.0
125.819199 136.0
125.853371 132.0
125.885193 80.0
125.950958 116.0
125.971451 208.0
125.995636 144.0
126.015144 172.0
126.045151 336.0
126.0755 276.0
126.141891 252.0
126.1502 176.0
126.18103 164.0
126.21244 224.0
126.252495 136.0
126.292122 140.0
126.325829 92.0
126.34436 204.0
126.422302 128.0
126.490181 144.0
126.500725 80.0
126.508614 152.0
126.530167 176.0
126.550507 188.0
126.575493 164.0
126.602936 184.0
126.662086 348.0
126.677727 144.0
126.7071 336.0
126.733986 104.0
126.749672 104.0
126.805695 196.0
126.841942 236.0
126.908821 284.0
126.937965 76.0
126.962685 176.0
126.987305 156.0
127.004387 212.0
127.053474 1796.0
127.094467 188.0
127.120018 104.0
127.162376 96.0
127.184761 104.0
127.208069 192.0
127.24955 144.0
127.285789 172.0
127.323967 300.0
127.357658 96.0
127.414505 136.0
127.431793 104.0
127.461006 148.0
127.505524 132.0
127.580132 100.0
127.598114 84.0
127.62072 144.0
127.647186 160.0
127.730797 108.0
127.780296 228.0
127.812302 88.0
127.834297 132.0
127.852684 164.0
127.872559 32.0
127.897514 136.0
127.909897 124.0
127.914268 188.0
127.947441 152.0
127.993095 184.0
128.026779 188.0
128.061096 17500.0
128.104874 156.0
128.133484 56.0
128.168976 180.0
128.219406 68.0
128.235184 188.0
128.262222 68.0
128.291931 112.0
128.310516 252.0
128.329361 164.0
128.359177 220.0
128.376831 116.0
128.411179 184.0
128.439438 116.0
128.462921 160.0
128.509674 168.0
128.529648 76.0
128.546402 148.0
128.575745 180.0
128.611984 312.0
128.652496 184.0
128.681015 76.0
128.707001 140.0
128.775528 264.0
128.804489 116.0
128.847412 164.0
128.875351 220.0
128.903198 88.0
128.937103 144.0
128.983521 160.0
129.013931 200.0
129.033371 168.0
129.068039 18588.0
129.11731 164.0
129.14624 128.0
129.16774 108.0
129.21434 140.0
129.257172 152.0
129.274902 148.0
129.305496 208.0
129.326859 348.0
129.352005 252.0
129.368103 332.0
129.402435 124.0
129.423477 96.0
129.454376 56.0
129.498215 108.0
129.530685 72.0
129.574692 184.0
129.604691 112.0
129.633392 176.0
129.743423 192.0
129.761078 204.0
129.781494 184.0
129.806229 192.0
129.838867 148.0
129.860565 344.0
129.920822 176.0
129.962479 372.0
129.988144 120.0
130.032852 140.0
130.073761 1596.0
130.124359 224.0
130.148254 176.0
130.179855 224.0
130.196915 132.0
130.220901 332.0
130.249008 120.0
130.296036 236.0
130.353516 36.0
130.378265 176.0
130.412445 172.0
130.446701 104.0
130.480911 176.0
130.52858 364.0
130.577957 344.0
130.583511 248.0
130.621933 224.0
130.649109 104.0
130.674133 112.0
130.702393 332.0
130.719086 132.0
130.776733 228.0
130.818649 140.0
130.862656 92.0
130.931366 96.0
130.972229 148.0
131.004791 256.0
131.04921 488.0
131.084625 33208.0
131.120529 432.0
131.164383 176.0
131.182007 108.0
131.198486 172.0
131.25032 184.0
131.277176 140.0
131.316803 68.0
131.347641 284.0
131.367294 228.0
131.386765 216.0
131.438614 144.0
131.45462 140.0
131.503632 112.0
131.523422 288.0
131.563522 184.0
131.586273 340.0
131.63237 184.0
131.653839 280.0
131.677155 124.0
131.705917 148.0
131.742783 104.0
131.7724 156.0
131.808838 160.0
131.8508 228.0
131.904205 208.0
131.93277 176.0
131.965088 96.0
131.993713 148.0
132.021957 92.0
132.057831 396.0
132.086975 2932.0
132.143372 144.0
132.168671 184.0
132.186966 188.0
132.20256 172.0
132.217743 188.0
132.253204 288.0
132.299973 108.0
132.327011 132.0
132.347214 288.0
132.372391 192.0
132.404938 152.0
132.439606 148.0
132.481888 120.0
132.532745 144.0
132.58667 180.0
132.623917 128.0
132.661087 160.0
132.684708 200.0
132.712509 112.0
132.775742 192.0
132.796387 64.0
132.821854 76.0
132.845474 188.0
132.865997 128.0
132.888138 148.0
132.918762 140.0
132.945511 164.0
132.966171 64.0
132.986816 140.0
133.002457 64.0
133.01825 168.0
133.035034 40.0
133.090927 428.0
133.129379 180.0
133.15802 164.0
133.198715 144.0
133.23024 44.0
133.278992 192.0
133.296143 348.0
133.315247 92.0
133.335938 112.0
133.361435 176.0
133.411789 144.0
133.454758 228.0
133.470963 224.0
133.506699 188.0
133.513535 180.0
133.538269 192.0
133.574066 92.0
133.583908 192.0
133.636978 208.0
133.672852 136.0
133.694717 124.0
133.764099 136.0
133.793198 136.0
133.829178 156.0
133.848206 184.0
133.885223 156.0
133.92894 104.0
133.947113 168.0
133.964111 224.0
134.002396 128.0
134.023453 200.0
134.058884 124.0
134.07634 68.0
134.091095 144.0
134.121719 404.0
134.146622 404.0
134.192017 160.0
134.19545 160.0
134.222244 44.0
134.245819 144.0
134.275986 160.0
134.298981 228.0
134.31987 380.0
134.353729 140.0
134.392944 148.0
134.41832 92.0
134.434479 36.0
134.498581 140.0
134.524506 108.0
134.584534 168.0
134.605988 184.0
134.621475 116.0
134.662094 204.0
134.675842 184.0
134.697693 116.0
134.730042 104.0
134.750824 152.0
134.779282 268.0
134.800583 180.0
134.831253 164.0
134.862213 180.0
134.888992 184.0
134.930771 260.0
134.937881 176.0
134.964264 240.0
134.99353 168.0
135.019913 416.0
135.095306 328.0
135.139572 148.0
135.162399 136.0
135.180923 228.0
135.205887 168.0
135.226212 96.0
135.254974 124.0
135.282455 272.0
135.310303 196.0
135.362381 144.0
135.391037 68.0
135.394791 136.0
135.467865 196.0
135.503464 564.0
135.52594 100.0
135.550827 136.0
135.577072 160.0
135.609283 140.0
135.640747 164.0
135.662689 208.0
135.692825 156.0
135.717484 220.0
135.743835 104.0
135.772446 84.0
135.806458 80.0
135.841248 64.0
135.862137 176.0
135.89386 172.0
135.957275 72.0
135.982803 148.0
136.004745 96.0
136.027893 92.0
136.054764 196.0
136.087143 244.0
136.130722 196.0
136.157776 152.0
136.196487 316.0
136.215225 124.0
136.233032 196.0
136.298645 184.0
136.35762 200.0
136.375565 156.0
136.396301 192.0
136.412521 228.0
136.442886 152.0
136.486069 184.0
136.535858 188.0
136.571808 232.0
136.591583 96.0
136.628799 96.0
136.653748 128.0
136.679199 152.0
136.726532 100.0
136.747162 144.0
136.775696 132.0
136.807999 120.0
136.887756 152.0
136.91864 180.0
136.949295 248.0
136.964355 172.0
136.979431 404.0
137.007828 204.0
137.03624 260.0
137.092422 144.0
137.139511 116.0
137.201294 192.0
137.235229 172.0
137.260742 168.0
137.322891 156.0
137.344986 204.0
137.368637 244.0
137.396439 156.0
137.411621 200.0
137.456421 144.0
137.486298 140.0
137.528 152.0
137.606598 112.0
137.628693 164.0
137.655319 200.0
137.677917 196.0
137.697586 176.0
137.720428 252.0
137.754166 100.0
137.769043 136.0
137.844055 104.0
137.885666 144.0
137.924545 184.0
137.949844 184.0
137.954346 156.0
137.970795 272.0
138.011703 136.0
138.04245 284.0
138.072235 176.0
138.113159 184.0
138.160431 300.0
138.208298 108.0
138.236115 132.0
138.283279 116.0
138.31604 60.0
138.373825 360.0
138.434753 148.0
138.444305 104.0
138.453705 176.0
138.477524 124.0
138.497482 128.0
138.523804 156.0
138.620514 84.0
138.656418 304.0
138.672241 120.0
138.690399 156.0
138.695328 100.0
138.749435 184.0
138.838547 168.0
138.872665 124.0
138.901413 144.0
138.945984 120.0
138.978531 160.0
139.054688 276.0
139.074005 232.0
139.091919 276.0
139.124817 172.0
139.14743 196.0
139.205887 136.0
139.261002 148.0
139.290665 288.0
139.339066 192.0
139.401978 84.0
139.467316 184.0
139.513077 120.0
139.557114 196.0
139.581131 156.0
139.624588 104.0
139.628281 108.0
139.644485 156.0
139.666763 128.0
139.68486 140.0
139.721161 120.0
139.742935 228.0
139.766159 180.0
139.785416 216.0
139.830002 144.0
139.87915 196.0
139.917099 108.0
139.933578 88.0
139.960052 148.0
140.011948 144.0
140.039551 104.0
140.062363 164.0
140.086655 84.0
140.121841 124.0
140.226639 236.0
140.251923 156.0
140.281525 204.0
140.32251 108.0
140.361221 136.0
140.386093 104.0
140.466202 144.0
140.49617 148.0
140.514191 116.0
140.551132 160.0
140.619568 140.0
140.650314 260.0
140.679825 212.0
140.706909 144.0
140.738647 128.0
140.78775 136.0
140.813171 132.0
140.833282 172.0
140.854355 168.0
140.902145 232.0
140.927475 104.0
140.933426 40.0
140.942429 140.0
140.97438 156.0
140.995102 248.0
141.041718 536.0
141.06897 72320.0
141.131287 248.0
141.175751 68.0
141.20163 56.0
141.246643 176.0
141.284286 160.0
141.311966 52.0
141.334564 92.0
141.362045 328.0
141.40007 88.0
141.46048 172.0
141.483505 284.0
141.507812 124.0
141.542892 196.0
141.561096 244.0
141.602783 132.0
141.621307 96.0
141.64975 172.0
141.693161 176.0
141.709351 188.0
141.747665 120.0
141.769928 172.0
141.789902 92.0
141.796631 48.0
141.824829 200.0
141.863983 100.0
141.903168 132.0
141.937302 192.0
141.958633 172.0
141.977036 164.0
142.001328 136.0
142.040756 340.0
142.072052 7900.0
142.130417 116.0
142.159622 316.0
142.195877 360.0
142.226089 120.0
142.248581 104.0
142.266113 68.0
142.280716 152.0
142.325623 180.0
142.344452 104.0
142.362671 164.0
142.400223 132.0
142.421448 192.0
142.44046 88.0
142.479065 236.0
142.530273 184.0
142.578964 192.0
142.631409 156.0
142.648376 112.0
142.665543 184.0
142.675079 132.0
142.742996 136.0
142.768463 104.0
142.802689 268.0
142.842194 136.0
142.859802 236.0
142.907074 112.0
142.951324 180.0
142.982574 136.0
143.008759 120.0
143.031769 120.0
143.084305 13252.0
143.15625 164.0
143.182922 132.0
143.200241 180.0
143.236938 92.0
143.259537 92.0
143.300873 172.0
143.316162 148.0
143.363876 228.0
143.402481 200.0
143.444229 44.0
143.473099 56.0
143.504272 236.0
143.541672 140.0
143.578186 120.0
143.615753 256.0
143.658554 116.0
143.663727 172.0
143.70224 408.0
143.754929 288.0
143.841171 188.0
143.869308 172.0
143.899673 128.0
143.910706 164.0
143.942108 236.0
143.964249 68.0
143.979263 112.0
144.003021 140.0
144.022141 136.0
144.057968 152.0
144.088272 1348.0
144.140747 192.0
144.190109 240.0
144.22229 192.0
144.245087 188.0
144.268265 148.0
144.285004 104.0
144.307144 232.0
144.34816 240.0
144.380646 40.0
144.416336 152.0
144.452881 100.0
144.476334 224.0
144.528961 128.0
144.560074 104.0
144.584015 136.0
144.605545 44.0
144.652023 116.0
144.678726 112.0
144.701309 80.0
144.752289 96.0
144.80188 96.0
144.821045 168.0
144.837814 208.0
144.898254 148.0
144.937042 76.0
144.975266 216.0
144.99498 180.0
145.008789 168.0
145.062378 344.0
145.092773 484.0
145.140533 200.0
145.214127 176.0
145.244415 140.0
145.274094 136.0
145.295685 164.0
145.318756 104.0
145.348465 136.0
145.367676 56.0
145.391663 172.0
145.441406 124.0
145.45842 168.0
145.465164 136.0
145.495377 188.0
145.512314 172.0
145.532196 208.0
145.53656 112.0
145.548981 136.0
145.553574 108.0
145.593338 64.0
145.632263 152.0
145.653229 120.0
145.659088 96.0
145.696625 148.0
145.71344 56.0
145.778442 164.0
145.811523 188.0
145.829071 136.0
145.884628 156.0
145.915329 208.0
145.945511 180.0
145.995773 164.0
146.037979 236.0
146.064941 124.0
146.093307 304.0
146.120865 148.0
146.158951 196.0
146.187134 176.0
146.211212 184.0
146.242371 160.0
146.269012 228.0
146.292679 220.0
146.343597 252.0
146.37439 260.0
146.390289 72.0
146.399536 160.0
146.451477 196.0
146.491806 208.0
146.545929 140.0
146.565826 196.0
146.61145 208.0
146.636429 108.0
146.673401 156.0
146.69223 68.0
146.699738 176.0
146.73848 140.0
146.749878 164.0
146.788345 116.0
146.832794 128.0
146.881516 160.0
146.953415 116.0
146.972717 84.0
147.030624 148.0
147.063705 208.0
147.117523 188.0
147.136841 124.0
147.2117 124.0
147.237228 224.0
147.252747 116.0
147.293045 168.0
147.326431 72.0
147.344543 168.0
147.390228 172.0
147.415298 156.0
147.464828 180.0
147.542725 64.0
147.569321 172.0
147.593506 168.0
147.642487 204.0
147.681229 160.0
147.71582 244.0
147.759216 188.0
147.777328 84.0
147.794266 124.0
147.81604 80.0
147.864197 156.0
147.891068 132.0
147.916794 180.0
147.939362 124.0
147.976578 288.0
148.016968 152.0
148.053391 108.0
148.088348 152.0
148.167145 128.0
148.205902 164.0
148.225296 116.0
148.242249 140.0
148.267258 176.0
148.347519 144.0
148.368301 140.0
148.414368 148.0
148.474533 144.0
148.518784 72.0
148.56073 200.0
148.594788 124.0
148.625397 152.0
148.649521 144.0
148.705475 200.0
148.734055 452.0
148.773453 120.0
148.812286 144.0
148.837784 224.0
148.923996 184.0
148.958008 192.0
148.98764 180.0
149.038177 108.0
149.103394 220.0
149.130539 136.0
149.182587 192.0
149.199066 204.0
149.216675 184.0
149.251282 120.0
149.291 168.0
149.351807 112.0
149.397659 80.0
149.4478 212.0
149.49678 376.0
149.563385 84.0
149.604874 148.0
149.624359 124.0
149.662247 188.0
149.699844 116.0
149.724197 184.0
149.752441 140.0
149.792389 132.0
149.81189 144.0
149.842163 176.0
149.870361 152.0
149.921524 196.0
149.938263 180.0
149.947083 156.0
149.955353 100.0
150.009033 120.0
150.014664 152.0
150.054474 176.0
150.114517 296.0
150.156876 120.0
150.166885 176.0
150.170853 108.0
150.209457 140.0
150.237198 104.0
150.25853 156.0
150.284866 144.0
150.304123 240.0
150.323242 144.0
150.33136 152.0
150.354706 324.0
150.381607 176.0
150.390686 112.0
150.426285 220.0
150.47052 64.0
150.511871 144.0
150.555832 132.0
150.575119 152.0
150.599197 180.0
150.628387 160.0
150.653229 340.0
150.710175 408.0
150.780045 160.0
150.846008 132.0
150.860397 284.0
150.905548 180.0
150.93811 380.0
150.968658 168.0
151.012878 172.0
151.049759 508.0
151.094162 140.0
151.167007 184.0
151.193924 124.0
151.223297 180.0
151.247147 172.0
151.280869 160.0
151.299179 196.0
151.325165 260.0
151.345413 628.0
151.367737 188.0
151.394669 144.0
151.431412 180.0
151.455902 264.0
151.50116 128.0
151.545609 144.0
151.577698 148.0
151.61026 112.0
151.634445 152.0
151.671539 164.0
151.723633 228.0
151.749771 436.0
151.786255 152.0
151.799713 172.0
151.825027 132.0
151.87291 332.0
151.89563 196.0
151.911163 272.0
151.936386 88.0
151.958466 208.0
151.975647 100.0
152.007538 52.0
152.061523 1880.0
152.090897 220.0
152.140366 312.0
152.171463 216.0
152.196884 152.0
152.226028 188.0
152.25795 196.0
152.308929 164.0
152.340622 176.0
152.349594 116.0
152.359283 144.0
152.389038 224.0
152.417633 180.0
152.437286 76.0
152.487534 272.0
152.507584 132.0
152.532257 176.0
152.550201 132.0
152.588715 216.0
152.61467 76.0
152.668381 208.0
152.723038 108.0
152.756424 196.0
152.777298 204.0
152.845734 208.0
152.877579 108.0
152.885345 164.0
152.910721 220.0
152.966095 124.0
152.995636 80.0
153.068222 1912.0
153.113831 172.0
153.136002 64.0
153.159821 336.0
153.19339 172.0
153.241928 336.0
153.303528 212.0
153.325912 140.0
153.360214 116.0
153.381256 120.0
153.439102 156.0
153.473434 140.0
153.553558 144.0
153.598053 220.0
153.637634 136.0
153.666 164.0
153.684845 196.0
153.721115 96.0
153.777527 124.0
153.809143 156.0
153.83989 44.0
153.868759 108.0
153.891769 144.0
153.940002 208.0
153.960968 188.0
153.985001 256.0
154.075897 7152.0
154.138306 160.0
154.187759 296.0
154.219177 348.0
154.261307 104.0
154.316711 160.0
154.338669 84.0
154.406937 188.0
154.476242 200.0
154.484131 192.0
154.516205 184.0
154.560577 188.0
154.646027 112.0
154.678513 352.0
154.695541 180.0
154.704819 124.0
154.710953 120.0
154.744247 132.0
154.777191 116.0
154.808014 108.0
154.829498 172.0
154.847641 500.0
154.883469 104.0
154.927444 260.0
154.956635 176.0
154.993973 60.0
155.032486 204.0
155.08432 5840.0
155.130768 172.0
155.164825 116.0
155.182724 56.0
155.209457 40.0
155.235229 164.0
155.290222 176.0
155.401993 180.0
155.434937 156.0
155.462494 208.0
155.479019 108.0
155.529022 144.0
155.559296 160.0
155.585693 120.0
155.612747 196.0
155.661087 68.0
155.6884 108.0
155.715729 128.0
155.759583 260.0
155.808762 116.0
155.838516 288.0
155.905838 144.0
155.948746 148.0
155.964783 152.0
155.994675 76.0
156.037186 144.0
156.063202 116.0
156.088623 1168.0
156.128723 204.0
156.202454 172.0
156.24527 196.0
156.286758 160.0
156.305237 296.0
156.346832 128.0
156.379211 160.0
156.423447 96.0
156.444305 184.0
156.475037 104.0
156.503922 188.0
156.544052 64.0
156.573776 124.0
156.590881 136.0
156.623596 136.0
156.657654 184.0
156.700821 200.0
156.725739 44.0
156.755646 80.0
156.780563 196.0
156.81546 160.0
156.876236 104.0
156.893234 180.0
156.915543 152.0
156.939499 148.0
157.000412 128.0
157.031555 232.0
157.064804 252.0
157.090439 300.0
157.136169 276.0
157.164597 160.0
157.181259 192.0
157.220062 264.0
157.246552 124.0
157.270706 92.0
157.309357 100.0
157.343018 172.0
157.352386 84.0
157.358185 192.0
157.376755 148.0
157.409225 76.0
157.439194 84.0
157.484299 196.0
157.508606 96.0
157.538651 180.0
157.564529 148.0
157.601562 184.0
157.618866 156.0
157.625305 144.0
157.659042 104.0
157.676529 176.0
157.696533 332.0
157.720474 152.0
157.781525 148.0
157.802444 216.0
157.826019 20.0
157.830017 192.0
157.869034 160.0
157.895065 128.0
157.926559 148.0
157.950592 124.0
157.996597 116.0
158.078842 164.0
158.104309 188.0
158.125504 164.0
158.182114 192.0
158.206833 72.0
158.251892 152.0
158.273651 312.0
158.291687 108.0
158.396255 168.0
158.4263 284.0
158.454773 108.0
158.476944 132.0
158.498352 132.0
158.528214 116.0
158.562668 140.0
158.584564 216.0
158.634384 216.0
158.643707 144.0
158.651276 128.0
158.660339 196.0
158.67865 176.0
158.712997 264.0
158.751282 152.0
158.768692 172.0
158.793182 120.0
158.825134 248.0
158.872696 212.0
158.898621 124.0
158.926147 132.0
158.960602 364.0
158.998917 140.0
159.024017 240.0
159.048096 176.0
159.084686 196.0
159.110886 312.0
159.194443 224.0
159.257523 96.0
159.282654 196.0
159.29921 176.0
159.306519 104.0
159.3423 148.0
159.378113 84.0
159.405762 100.0
159.449722 228.0
159.469406 196.0
159.486862 136.0
159.506287 80.0
159.529129 148.0
159.559082 144.0
159.591766 200.0
159.629166 188.0
159.673965 152.0
159.707245 144.0
159.712341 132.0
159.720917 136.0
159.752731 152.0
159.838287 192.0
159.944366 208.0
159.969681 188.0
159.978714 156.0
159.985474 164.0
160.034454 176.0
160.039566 108.0
160.086914 256.0
160.118118 180.0
160.180984 376.0
160.210922 68.0
160.237717 176.0
160.292282 136.0
160.313492 152.0
160.346985 116.0
160.388412 148.0
160.420135 212.0
160.482224 168.0
160.531036 176.0
160.561295 132.0
160.631699 136.0
160.665985 160.0
160.722748 120.0
160.758179 412.0
160.798462 156.0
160.821167 36.0
160.846939 192.0
160.890884 168.0
160.92215 124.0
160.977707 312.0
161.002609 148.0
161.064041 188.0
161.131699 220.0
161.213745 288.0
161.232224 80.0
161.263184 68.0
161.285934 204.0
161.315582 176.0
161.38707 156.0
161.40477 172.0
161.437637 80.0
161.480698 156.0
161.546402 144.0
161.569168 108.0
161.593536 196.0
161.626617 192.0
161.647614 160.0
161.685562 136.0
161.758972 152.0
161.787064 124.0
161.850113 176.0
161.87291 112.0
161.895691 128.0
161.933914 116.0
162.008575 128.0
162.015717 140.0
162.042221 120.0
162.073029 176.0
162.128769 132.0
162.237823 204.0
162.284149 108.0
162.329697 168.0
162.34108 164.0
162.34996 196.0
162.416718 92.0
162.424667 120.0
162.433319 244.0
162.449554 304.0
162.473633 124.0
162.51387 304.0
162.550949 116.0
162.5793 148.0
162.615723 64.0
162.666504 88.0
162.734451 104.0
162.76329 224.0
162.807083 168.0
162.867096 148.0
162.929367 116.0
162.956024 124.0
163.010895 128.0
163.055908 272.0
163.123749 76.0
163.176163 260.0
163.230545 188.0
163.261047 136.0
163.288712 148.0
163.311813 96.0
163.337357 100.0
163.366074 296.0
163.390778 184.0
163.428223 160.0
163.494476 220.0
163.542664 188.0
163.618637 152.0
163.662552 284.0
163.696732 204.0
163.733521 216.0
163.789948 144.0
163.838501 212.0
163.855652 136.0
163.935684 128.0
163.979019 192.0
164.014511 108.0
164.047897 276.0
164.067398 380.0
164.106476 328.0
164.126877 120.0
164.181503 132.0
164.227798 244.0
164.238251 196.0
164.257751 152.0
164.297043 184.0
164.311752 132.0
164.318863 252.0
164.383087 184.0
164.416962 28.0
164.439224 172.0
164.471298 120.0
164.521454 296.0
164.57019 208.0
164.629593 160.0
164.677567 148.0
164.684464 116.0
164.691986 204.0
164.717224 52.0
164.752197 164.0
164.770081 112.0
164.787964 128.0
164.805847 136.0
164.837296 196.0
164.860397 128.0
164.898743 128.0
164.918304 112.0
164.968094 116.0
164.989868 96.0
165.007767 92.0
165.036835 272.0
165.067963 9284.0
165.115173 112.0
165.140747 156.0
165.172745 292.0
165.214935 128.0
165.232834 184.0
165.262894 376.0
165.29689 136.0
165.337402 172.0
165.373581 172.0
165.394058 164.0
165.421021 128.0
165.459915 252.0
165.486053 204.0
165.560486 84.0
165.59581 232.0
165.662949 172.0
165.705826 136.0
165.73703 232.0
165.785065 212.0
165.81076 128.0
165.864304 132.0
165.898254 68.0
165.942993 108.0
165.978195 172.0
166.005081 124.0
166.032043 124.0
166.072784 1796.0
166.131058 120.0
166.166031 132.0
166.205612 200.0
166.255646 128.0
166.298874 152.0
166.323746 116.0
166.357864 172.0
166.366425 268.0
166.401566 64.0
166.424667 252.0
166.450348 40.0
166.496582 192.0
166.535095 180.0
166.568497 68.0
166.657135 128.0
166.707245 164.0
166.752991 120.0
166.765686 132.0
166.802246 116.0
166.853287 136.0
166.882034 148.0
166.911758 236.0
166.942123 240.0
166.98233 152.0
167.084564 1312.0
167.121826 140.0
167.146042 208.0
167.170135 88.0
167.203598 104.0
167.226562 156.0
167.255066 176.0
167.300598 212.0
167.343307 116.0
167.378647 280.0
167.409546 204.0
167.442978 204.0
167.484238 180.0
167.501038 112.0
167.541412 168.0
167.57489 148.0
167.616928 200.0
167.687119 152.0
167.751984 164.0
167.787491 208.0
167.814117 84.0
167.865692 220.0
167.894058 120.0
167.914978 180.0
167.948212 156.0
168.001633 268.0
168.051208 92.0
168.057175 216.0
168.093048 556.0
168.126389 148.0
168.150848 128.0
168.198517 172.0
168.24118 148.0
168.272461 124.0
168.301788 60.0
168.338821 232.0
168.374084 180.0
168.437531 168.0
168.460785 188.0
168.485336 120.0
168.518143 204.0
168.581894 212.0
168.660889 152.0
168.678986 180.0
168.70993 152.0
168.7258 168.0
168.759125 252.0
168.783081 92.0
168.874222 144.0
168.893616 172.0
168.920853 160.0
168.963455 36.0
168.98674 132.0
169.019882 508.0
169.067856 300.0
169.099854 37472.0
169.165207 92.0
169.168503 120.0
169.193802 124.0
169.224869 76.0
169.270172 144.0
169.300461 292.0
169.318939 136.0
169.386688 156.0
169.416519 56.0
169.444885 160.0
169.452179 152.0
169.462158 124.0
169.504608 100.0
169.536438 172.0
169.578873 160.0
169.606979 208.0
169.617981 140.0
169.626907 172.0
169.657166 112.0
169.696426 144.0
169.740234 152.0
169.768127 148.0
169.778137 164.0
169.788223 324.0
169.860016 148.0
169.904999 152.0
169.93161 156.0
169.957169 144.0
169.978516 160.0
170.002518 124.0
170.019577 124.0
170.067398 168.0
170.102936 4760.0
170.160004 220.0
170.205948 76.0
170.233566 196.0
170.286942 180.0
170.32515 152.0
170.371231 172.0
170.407593 132.0
170.431488 164.0
170.451767 176.0
170.478821 172.0
170.54245 156.0
170.563477 204.0
170.612915 136.0
170.644699 188.0
170.668365 164.0
170.753342 116.0
170.772354 308.0
170.799255 260.0
170.824524 152.0
170.843124 116.0
170.881989 44.0
170.962845 164.0
170.983353 128.0
171.003113 120.0
171.044037 204.0
171.077927 168.0
171.114944 448.0
171.139297 204.0
171.182755 188.0
171.228607 112.0
171.274979 104.0
171.330643 240.0
171.345551 112.0
171.356934 156.0
171.36084 248.0
171.400589 180.0
171.439606 160.0
171.471527 336.0
171.523193 248.0
171.560562 168.0
171.60228 80.0
171.643997 92.0
171.696152 84.0
171.727448 92.0
171.756134 112.0
171.792175 256.0
171.822708 176.0
171.897171 224.0
171.957733 168.0
171.999741 180.0
172.036346 180.0
172.069305 204.0
172.090195 120.0
172.147522 88.0
172.176361 136.0
172.215546 112.0
172.25473 108.0
172.278229 124.0
172.354004 180.0
172.396561 168.0
172.419342 140.0
172.452103 184.0
172.492371 144.0
172.518051 80.0
172.544479 268.0
172.581406 68.0
172.618027 72.0
172.754761 144.0
172.816818 140.0
172.85083 36.0
172.896194 144.0
172.94368 176.0
172.960754 224.0
173.029938 160.0
173.062042 216.0
173.103241 124.0
173.144043 136.0
173.167618 152.0
173.212189 256.0
173.247849 308.0
173.267151 144.0
173.332825 180.0
173.370773 132.0
173.427017 116.0
173.453217 32.0
173.47496 296.0
173.518768 124.0
173.542358 92.0
173.575729 236.0
173.60791 132.0
173.646179 224.0
173.67305 144.0
173.725952 48.0
173.7603 88.0
173.796783 36.0
173.82991 212.0
173.8759 208.0
173.961487 224.0
173.999557 188.0
174.028152 112.0
174.131607 108.0
174.185349 416.0
174.231293 236.0
174.308792 108.0
174.341461 288.0
174.370392 200.0
174.50412 128.0
174.549194 128.0
174.573257 188.0
174.632202 320.0
174.676392 148.0
174.721649 152.0
174.740067 192.0
174.759949 176.0
174.784653 148.0
174.842224 204.0
174.849274 40.0
174.892731 148.0
174.932175 196.0
174.954041 128.0
174.990997 188.0
175.060745 188.0
175.116501 116.0
175.146805 404.0
175.177094 88.0
175.226852 108.0
175.29039 148.0
175.310196 100.0
175.349792 192.0
175.373596 244.0
175.393173 160.0
175.477539 264.0
175.522354 132.0
175.565491 124.0
175.605896 100.0
175.697235 224.0
175.762405 156.0
175.852127 132.0
175.923401 148.0
175.941879 76.0
175.960358 64.0
175.98941 76.0
176.018448 128.0
176.060013 1480.0
176.13913 152.0
176.160355 160.0
176.190979 228.0
176.211105 124.0
176.23819 196.0
176.262482 92.0
176.285324 180.0
176.318954 180.0
176.346039 132.0
176.377762 172.0
176.412125 140.0
176.459717 148.0
176.49144 144.0
176.545883 144.0
176.567703 204.0
176.594589 96.0
176.63855 152.0
176.66925 88.0
176.707153 292.0
176.732407 164.0
176.793503 176.0
176.846222 468.0
176.896393 280.0
176.933746 144.0
176.972137 276.0
177.027969 148.0
177.069107 956.0
177.109329 188.0
177.127487 120.0
177.153305 268.0
177.204163 136.0
177.242401 92.0
177.282333 220.0
177.30571 116.0
177.312729 168.0
177.365753 184.0
177.393753 124.0
177.431763 188.0
177.456726 36.0
177.46225 148.0
177.480911 112.0
177.514572 236.0
177.563553 124.0
177.577652 252.0
177.602707 152.0
177.624985 192.0
177.652542 320.0
177.687347 276.0
177.73616 304.0
177.75795 216.0
177.799881 96.0
177.81102 132.0
177.84375 224.0
177.873001 164.0
177.927155 148.0
177.962845 144.0
177.994354 324.0
178.006027 284.0
178.041412 612.0
178.077377 198396.0
178.124771 124.0
178.133438 244.0
178.187149 172.0
178.214996 200.0
178.238724 308.0
178.263046 396.0
178.293427 64.0
178.323029 180.0
178.339096 144.0
178.346436 160.0
178.394318 212.0
178.436478 84.0
178.486023 268.0
178.514114 1800.0
178.548584 216.0
178.566986 188.0
178.587555 120.0
178.62616 300.0
178.650711 92.0
178.673935 160.0
178.700104 204.0
178.733673 244.0
178.767471 64.0
178.777145 136.0
178.812485 300.0
178.839767 144.0
178.863953 336.0
178.886215 208.0
178.908203 296.0
178.917816 164.0
178.925018 284.0
178.943573 224.0
178.971832 332.0
178.987701 216.0
179.009506 152.0
179.027725 132.0
179.082336 49980.0
179.163345 180.0
179.190277 56.0
179.215042 272.0
179.245285 84.0
179.299347 156.0
179.318542 100.0
179.356888 248.0
179.394409 124.0
179.419006 172.0
179.427338 104.0
179.437607 248.0
179.462708 56.0
179.496384 120.0
179.517456 68.0
179.55571 84.0
179.573959 108.0
179.595398 200.0
179.632645 200.0
179.673279 188.0
179.733643 132.0
179.771896 172.0
179.820724 100.0
179.849716 184.0
179.862793 148.0
179.867218 304.0
179.945007 116.0
179.977341 68.0
180.030823 312.0
180.085678 5140.0
180.138824 120.0
180.166138 164.0
180.194504 336.0
180.220016 268.0
180.240677 48.0
180.283661 244.0
180.308777 188.0
180.335419 124.0
180.373093 136.0
180.429016 328.0
180.461426 268.0
180.489136 108.0
180.521851 200.0
180.551498 348.0
180.594727 100.0
180.623383 248.0
180.656021 140.0
180.678421 192.0
180.704239 156.0
180.72612 176.0
180.748032 212.0
180.773636 72.0
180.784561 124.0
180.825134 396.0
180.849228 88.0
180.867966 60.0
180.903259 128.0
180.912857 104.0
180.957947 92.0
180.98175 48.0
181.004227 152.0
181.02861 288.0
181.063583 316.0
181.091797 620.0
181.128601 180.0
181.173248 180.0
181.191574 128.0
181.224152 72.0
181.264343 140.0
181.291138 68.0
181.317245 160.0
181.399429 160.0
181.443939 84.0
181.481308 68.0
181.502106 156.0
181.567139 144.0
181.600723 192.0
181.615204 64.0
181.619537 232.0
181.653122 84.0
181.679947 52.0
181.699997 92.0
181.721725 112.0
181.754059 192.0
181.82753 232.0
181.848145 176.0
181.865967 228.0
181.892838 216.0
181.94664 128.0
181.970734 184.0
182.064941 168.0
182.098038 164.0
182.15242 128.0
182.17659 100.0
182.257782 116.0
182.296967 40.0
182.347122 128.0
182.387589 132.0
182.415771 128.0
182.449463 176.0
182.4655 64.0
182.511597 112.0
182.531387 76.0
182.565094 52.0
182.586426 232.0
182.624069 104.0
182.649719 156.0
182.745728 180.0
182.811157 132.0
182.846146 104.0
182.899612 152.0
182.952286 204.0
182.999924 192.0
183.036011 128.0
183.083374 100.0
183.110367 172.0
183.156372 144.0
183.18692 136.0
183.241989 32.0
183.280792 120.0
183.31427 208.0
183.349777 104.0
183.382111 128.0
183.418381 120.0
183.454895 132.0
183.522369 168.0
183.542801 112.0
183.632874 152.0
183.673325 40.0
183.715942 216.0
183.741577 80.0
183.841843 200.0
183.871628 136.0
183.93277 328.0
184.017303 208.0
184.126785 56.0
184.148392 80.0
184.1754 148.0
184.197388 144.0
184.251038 160.0
184.329391 172.0
184.364532 116.0
184.386154 168.0
184.432098 76.0
184.462921 144.0
184.514252 216.0
184.563309 120.0
184.629471 124.0
184.667343 148.0
184.756607 344.0
184.824249 128.0
184.862137 52.0
184.91835 140.0
184.960052 180.0
185.019119 132.0
185.086044 184.0
185.126266 84.0
185.149094 52.0
185.180588 96.0
185.205978 48.0
185.253265 188.0
185.322464 208.0
185.35228 120.0
185.375122 168.0
185.411896 164.0
185.429367 116.0
185.455795 160.0
185.520325 52.0
185.669449 124.0
185.701996 84.0
185.766205 136.0
185.849319 132.0
185.891907 164.0
185.921417 268.0
185.97876 184.0
186.05748 72.0
186.139572 104.0
186.173279 124.0
186.177963 196.0
186.206833 396.0
186.280182 120.0
186.30191 72.0
186.326355 228.0
186.37146 140.0
186.407867 100.0
186.427658 172.0
186.581833 136.0
186.600708 176.0
186.620605 108.0
186.641647 116.0
186.674286 140.0
186.722046 156.0
186.844971 144.0
186.927551 80.0
186.968094 48.0
186.993805 64.0
187.01564 184.0
187.053711 336.0
187.084518 124.0
187.136444 164.0
187.179092 160.0
187.243073 248.0
187.275269 196.0
187.38472 100.0
187.417419 44.0
187.44194 100.0
187.466476 224.0
187.52916 152.0
187.548233 156.0
187.5755 144.0
187.624557 212.0
187.642761 136.0
187.712723 144.0
187.790222 80.0
187.808731 120.0
187.845383 256.0
187.897293 56.0
187.958282 148.0
187.995529 184.0
188.065598 572.0
188.088333 172.0
188.108994 196.0
188.168091 192.0
188.238281 52.0
188.280197 176.0
188.302414 108.0
188.325302 204.0
188.350464 144.0
188.375046 144.0
188.402435 156.0
188.443359 128.0
188.483246 120.0
188.519058 124.0
188.555389 80.0
188.577042 224.0
188.597076 144.0
188.635483 148.0
188.664734 144.0
188.70575 56.0
188.743301 160.0
188.799438 168.0
188.808502 152.0
188.850677 124.0
188.880768 152.0
188.902649 152.0
188.957367 140.0
188.995682 160.0
189.068085 14220.0
189.117371 60.0
189.140305 136.0
189.167572 164.0
189.208008 244.0
189.253784 68.0
189.283096 152.0
189.303894 128.0
189.339676 232.0
189.372894 284.0
189.424835 244.0
189.447876 136.0
189.502228 148.0
189.535324 104.0
189.64035 140.0
189.670898 204.0
189.702301 112.0
189.726425 164.0
189.79422 224.0
189.829559 444.0
189.862289 160.0
189.889603 112.0
189.935379 272.0
190.003815 420.0
190.036697 244.0
190.076279 27504.0
190.143997 196.0
190.164688 196.0
190.18898 144.0
190.245483 76.0
190.291565 204.0
190.324234 172.0
190.345627 208.0
190.386765 280.0
190.417908 276.0
190.44902 284.0
190.47226 164.0
190.505081 144.0
190.537689 196.0
190.582794 44.0
190.608673 244.0
190.653702 132.0
190.694611 452.0
190.735916 160.0
190.764114 200.0
190.774704 112.0
190.781845 196.0
190.821518 204.0
190.839905 480.0
190.850937 196.0
190.861465 436.0
190.887222 340.0
190.894836 216.0
190.925705 184.0
190.951065 188.0
190.959076 256.0
190.970367 324.0
191.04924 1008.0
191.085312 304776.0
191.173691 296.0
191.257797 284.0
191.305084 208.0
191.34053 408.0
191.373474 264.0
191.383331 240.0
191.392487 196.0
191.403809 136.0
191.416702 256.0
191.423004 120.0
191.454605 276.0
191.504944 492.0
191.539337 3320.0
191.567383 440.0
191.586685 276.0
191.627747 424.0
191.660095 132.0
191.69313 112.0
191.721954 72.0
191.729721 100.0
191.75412 80.0
191.776093 248.0
191.810715 368.0
191.828827 144.0
191.865463 256.0
191.906601 456.0
191.957077 120.0
191.994461 76.0
192.035843 324.0
192.088211 65204.0
192.154388 240.0
192.178116 88.0
192.226089 180.0
192.271225 268.0
192.287476 180.0
192.329147 332.0
192.350647 168.0
192.358917 84.0
192.382584 56.0
192.407654 152.0
192.435074 264.0
192.452393 144.0
192.458649 84.0
192.499237 112.0
192.550964 404.0
192.597488 112.0
192.627396 364.0
192.646103 216.0
192.66832 48.0
192.694839 172.0
192.728073 300.0
192.766556 212.0
192.796127 72.0
192.830887 180.0
192.870529 292.0
192.906067 200.0
192.929169 208.0
192.952423 168.0
192.973038 136.0
193.001389 148.0
193.098862 37952.0
193.150711 336.0
193.206055 120.0
193.235153 156.0
193.255829 264.0
193.264801 160.0
193.276642 292.0
193.319473 384.0
193.370361 376.0
193.406357 304.0
193.441849 120.0
193.485535 356.0
193.544205 228.0
193.555435 276.0
193.567245 428.0
193.607132 136.0
193.629456 324.0
193.655914 196.0
193.661133 68.0
193.69043 244.0
193.72113 144.0
193.738464 236.0
193.804398 228.0
193.835541 88.0
193.880173 136.0
193.917023 132.0
193.966064 156.0
194.04454 28.0
194.06395 32.0
194.102951 4660.0
194.142426 92.0
194.183868 212.0
194.217819 100.0
194.246521 236.0
194.279602 132.0
194.314957 88.0
194.355194 44.0
194.39769 216.0
194.428192 236.0
194.495392 132.0
194.552246 60.0
194.592789 60.0
194.638031 76.0
194.661713 176.0
194.707153 56.0
194.719864 100.0
194.778702 48.0
194.807755 76.0
194.835022 208.0
194.864944 120.0
194.903381 104.0
194.949448 80.0
194.999481 40.0
195.023911 164.0
195.105621 572.0
195.169052 108.0
195.195557 196.0
195.231445 92.0
195.271957 56.0
195.305328 192.0
195.318451 56.0
195.326721 136.0
195.372101 116.0
195.399918 112.0
195.430527 52.0
195.463913 84.0
195.519333 48.0
195.554962 140.0
195.591599 64.0
195.619781 92.0
195.650406 100.0
195.681152 180.0
195.705719 400.0
195.778488 88.0
195.799042 160.0
195.844238 112.0
195.873184 152.0
195.905441 228.0
195.937256 184.0
195.970688 44.0
196.048721 56.0
196.082169 40.0
196.126038 124.0
196.165787 36.0
196.199753 128.0
196.220825 224.0
196.304031 144.0
196.363754 152.0
196.42894 316.0
196.478134 84.0
196.553467 120.0
196.651016 168.0
196.70697 32.0
196.732086 128.0
196.765594 52.0
196.818649 28.0
196.853973 176.0
196.874405 128.0
196.930359 148.0
197.020096 180.0
197.087662 144.0
197.125809 104.0
197.167847 64.0
197.212555 88.0
197.271271 28.0
197.324387 52.0
197.430649 120.0
197.481598 144.0
197.506165 88.0
197.612473 72.0
197.668427 140.0
197.693619 88.0
197.75798 44.0
197.805573 56.0
197.855377 152.0
197.862564 156.0
197.903564 144.0
198.026779 108.0
198.049194 44.0
198.102417 40.0
198.169647 96.0
198.197678 48.0
198.248337 152.0
198.282578 148.0
198.312576 124.0
198.360229 104.0
198.401169 292.0
198.452744 188.0
198.475174 224.0
198.500412 228.0
198.522842 116.0
198.576141 172.0
198.679932 136.0
198.703827 200.0
198.744461 88.0
198.839874 252.0
198.928406 140.0
198.963379 48.0
198.983032 52.0
199.047607 116.0
199.086929 84.0
199.131866 184.0
199.158676 76.0
199.193665 168.0
199.232758 48.0
199.270981 184.0
199.339767 80.0
199.387543 196.0
199.410019 176.0
199.446564 120.0
199.500977 124.0
199.539337 148.0
199.561829 132.0
199.598389 76.0
199.646194 136.0
199.685562 112.0
199.728317 140.0
199.771271 68.0
199.851105 52.0
199.91626 200.0
199.938782 144.0
199.96608 120.0
200.06134 244.0
200.138641 192.0
200.161179 100.0
200.182083 104.0
200.23439 172.0
200.25975 208.0
200.287918 224.0
200.332977 64.0
200.36174 172.0
200.386505 84.0
200.466766 116.0
200.533051 160.0
200.603516 140.0
200.648621 112.0
200.710663 160.0
200.733215 36.0
200.75296 108.0
200.789627 108.0
200.87706 100.0
200.91655 48.0
200.956055 140.0
201.010162 112.0
201.065506 312.0
201.099976 84.0
201.157562 160.0
201.201599 136.0
201.223312 168.0
201.24794 40.0
201.306076 112.0
201.385529 152.0
201.41745 176.0
201.451279 108.0
201.506638 64.0
201.560318 92.0
201.645096 92.0
201.677536 144.0
201.715759 120.0
201.750885 104.0
201.760391 116.0
201.814713 140.0
201.876923 172.0
201.936325 124.0
201.973083 160.0
201.997574 152.0
202.018356 144.0
202.076431 9032.0
202.138 180.0
202.187485 88.0
202.261093 164.0
202.319305 116.0
202.357971 140.0
202.377792 156.0
202.44487 64.0
202.489853 224.0
202.581985 336.0
202.615707 68.0
202.663864 156.0
202.687805 192.0
202.728394 192.0
202.797073 44.0
202.819748 44.0
202.88324 60.0
202.9133 216.0
202.962708 168.0
202.985107 204.0
203.005432 336.0
203.08429 38888.0
203.145844 144.0
203.192474 304.0
203.275925 128.0
203.299973 200.0
203.347076 112.0
203.373611 116.0
203.396423 212.0
203.438156 36.0
203.462509 180.0
203.480072 120.0
203.548813 124.0
203.587692 64.0
203.620483 244.0
203.629211 184.0
203.639664 112.0
203.649353 180.0
203.682373 324.0
203.702255 56.0
203.740387 180.0
203.778488 144.0
203.829498 204.0
203.892059 220.0
203.929443 232.0
203.987213 160.0
204.016785 244.0
204.092529 90240.0
204.143433 180.0
204.189545 156.0
204.231171 112.0
204.28479 108.0
204.313477 168.0
204.36055 124.0
204.389954 64.0
204.431839 200.0
204.489243 104.0
204.512238 104.0
204.52121 188.0
204.560898 340.0
204.605988 184.0
204.656479 116.0
204.678543 288.0
204.697815 124.0
204.720215 156.0
204.764908 120.0
204.819931 128.0
204.860077 256.0
204.875458 220.0
204.901093 100.0
204.955338 140.0
204.985443 180.0
205.02037 188.0
205.098358 41980.0
205.16066 156.0
205.20871 100.0
205.240814 184.0
205.249496 60.0
205.257492 192.0
205.284683 116.0
205.329559 92.0
205.363037 120.0
205.395874 220.0
205.423431 104.0
205.440506 164.0
205.464462 96.0
205.494934 112.0
205.536697 88.0
205.594589 40.0
205.652161 124.0
205.695465 280.0
205.733612 168.0
205.765472 180.0
205.800018 92.0
205.81839 220.0
205.866928 40.0
205.894867 156.0
205.924271 52.0
205.942108 88.0
205.975464 96.0
206.005157 152.0
206.067139 136.0
206.102997 7568.0
206.169083 204.0
206.207077 208.0
206.231018 92.0
206.279739 92.0
206.307434 220.0
206.35556 84.0
206.392731 196.0
206.439041 104.0
206.470398 196.0
206.498428 200.0
206.557663 24.0
206.60759 172.0
206.639893 184.0
206.677399 120.0
206.723953 228.0
206.753189 320.0
206.776276 88.0
206.826187 144.0
206.867676 56.0
206.948318 48.0
207.039474 56.0
207.075272 120.0
207.108551 776.0
207.142349 48.0
207.166885 116.0
207.194153 124.0
207.214218 56.0
207.238235 52.0
207.259033 112.0
207.293701 124.0
207.346024 92.0
207.380417 84.0
207.429153 260.0
207.465195 160.0
207.487595 120.0
207.516663 76.0
207.546692 84.0
207.567108 104.0
207.615005 156.0
207.675018 144.0
207.699631 204.0
207.74173 72.0
207.763702 100.0
207.800461 76.0
207.825729 116.0
207.913895 132.0
207.939728 104.0
208.040756 60.0
208.107681 148.0
208.209595 136.0
208.269913 64.0
208.323334 168.0
208.359787 160.0
208.379089 116.0
208.404938 48.0
208.450806 100.0
208.531387 60.0
208.620499 52.0
208.718262 152.0
208.741257 52.0
208.778641 104.0
208.821793 48.0
208.850555 44.0
208.899445 120.0
208.94548 164.0
209.084991 132.0
209.189148 96.0
209.369797 88.0
209.426224 128.0
209.467667 72.0
209.558746 144.0
209.714371 88.0
209.763367 64.0
209.855957 152.0
209.942139 60.0
210.045959 208.0
210.074814 84.0
210.15271 264.0
210.187332 104.0
210.27269 292.0
210.313644 212.0
210.345413 332.0
210.415359 204.0
210.452896 200.0
210.542419 44.0
210.582855 76.0
210.681061 64.0
210.730179 184.0
210.77063 144.0
210.802414 148.0
210.897797 120.0
210.964279 216.0
210.987411 200.0
211.024368 148.0
211.068924 168.0
211.343155 68.0
211.418396 196.0
211.468903 84.0
211.494263 208.0
211.539963 48.0
211.586288 128.0
211.652878 56.0
211.676041 132.0
211.757141 80.0
211.80928 108.0
211.832443 128.0
211.858429 240.0
211.954132 160.0
212.006302 76.0
212.075851 156.0
212.133835 76.0
212.20163 208.0
212.249802 108.0
212.368713 116.0
212.412216 44.0
212.682083 148.0
212.763367 44.0
212.804016 144.0
212.946304 144.0
213.034515 168.0
213.114807 108.0
213.147842 144.0
213.196167 132.0
213.242676 160.0
213.26593 104.0
213.309525 108.0
213.440353 100.0
213.478775 188.0
213.515976 84.0
213.652679 56.0
213.681778 52.0
213.710876 136.0
213.748703 48.0
213.905869 56.0
213.961868 136.0
214.00119 240.0
214.073807 176.0
214.112595 76.0
214.2565 96.0
214.325256 148.0
214.357315 60.0
214.384735 224.0
214.447662 184.0
214.473892 184.0
214.538025 100.0
214.575851 156.0
214.650391 84.0
214.692566 188.0
214.739227 172.0
214.785904 128.0
214.829651 84.0
214.885086 128.0
214.966797 84.0
215.025162 148.0
215.083466 992.0
215.144836 204.0
215.182785 84.0
215.235352 176.0
215.298111 180.0
215.355087 80.0
215.408798 104.0
215.431046 148.0
215.451492 32.0
215.474854 40.0
215.548004 128.0
215.580048 28.0
215.611649 168.0
215.717422 64.0
215.757401 244.0
215.784668 72.0
215.80806 136.0
215.910416 44.0
215.939651 116.0
215.98645 188.0
216.022964 208.0
216.064743 196.0
216.091095 720.0
216.175323 160.0
216.217087 136.0
216.238098 108.0
216.365158 128.0
216.396164 128.0
216.440613 204.0
216.492798 76.0
216.532608 176.0
216.598251 88.0
216.689774 132.0
216.715424 72.0
216.763977 204.0
216.817993 48.0
216.905991 168.0
216.96521 144.0
217.014465 172.0
217.046219 216.0
217.099731 14276.0
217.150955 192.0
217.196228 52.0
217.254898 136.0
217.294922 144.0
217.322525 208.0
217.369019 76.0
217.395737 64.0
217.457367 120.0
217.546692 84.0
217.573166 72.0
217.596634 180.0
217.620651 168.0
217.740204 60.0
217.819138 200.0
217.846344 172.0
217.865387 76.0
217.891861 168.0
217.945099 52.0
217.971878 104.0
218.021988 180.0
218.059052 188.0
218.10704 16312.0
218.175735 124.0
218.202332 184.0
218.24762 112.0
218.333908 152.0
218.428452 320.0
218.466873 68.0
218.50322 120.0
218.552307 172.0
218.592926 136.0
218.605209 128.0
218.630707 160.0
218.671509 176.0
218.719589 208.0
218.754776 256.0
218.83638 128.0
218.875854 156.0
218.903488 208.0
218.916946 180.0
218.953415 216.0
219.01329 244.0
219.037003 328.0
219.116455 223588.0
219.185303 184.0
219.228699 72.0
219.25946 72.0
219.284225 380.0
219.307358 148.0
219.339417 116.0
219.37677 356.0
219.417511 184.0
219.439774 228.0
219.459885 324.0
219.494537 176.0
219.54628 156.0
219.600967 952.0
219.634872 144.0
219.656143 64.0
219.683365 272.0
219.72728 44.0
219.78125 348.0
219.823059 88.0
219.828674 44.0
219.879288 160.0
219.925369 172.0
219.992828 228.0
220.015564 256.0
220.038712 140.0
220.059555 324.0
220.118896 36796.0
220.184479 192.0
220.206558 144.0
220.229965 172.0
220.270828 100.0
220.292374 196.0
220.325027 80.0
220.376953 60.0
220.404572 100.0
220.443726 208.0
220.483917 60.0
220.507751 280.0
220.539276 204.0
220.559784 120.0
220.60704 76.0
220.639557 32.0
220.66629 124.0
220.708466 72.0
220.726624 164.0
220.776337 100.0
220.814423 52.0
220.886246 132.0
220.922455 44.0
220.946594 60.0
220.955536 44.0
220.977692 152.0
221.018097 68.0
221.073105 76.0
221.122375 3400.0
221.168335 36.0
221.197403 44.0
221.241394 124.0
221.310226 68.0
221.349777 296.0
221.371155 80.0
221.416122 76.0
221.426468 124.0
221.476898 148.0
221.514145 124.0
221.549957 104.0
221.573837 112.0
221.60939 56.0
221.654404 164.0
221.685562 228.0
221.705826 76.0
221.716415 92.0
221.750885 168.0
221.783478 608.0
221.820114 136.0
221.858353 228.0
221.909851 108.0
221.930511 136.0
221.964066 192.0
222.021957 76.0
222.047348 92.0
222.075027 112.0
222.135117 432.0
222.304337 84.0
222.336838 60.0
222.393402 112.0
222.417984 76.0
222.449753 172.0
222.527969 96.0
222.560959 244.0
222.633011 128.0
222.659744 96.0
222.697723 96.0
222.788284 72.0
222.845444 116.0
222.88678 132.0
222.909286 92.0
222.959167 160.0
223.013306 120.0
223.263046 104.0
223.298737 32.0
223.364182 32.0
223.39035 80.0
223.444504 36.0
223.471283 96.0
223.509964 72.0
223.58139 112.0
223.688538 216.0
223.816559 72.0
223.885056 188.0
223.941635 80.0
224.031006 80.0
224.102509 68.0
224.35585 36.0
224.409515 44.0
224.621262 80.0
224.663025 128.0
224.68689 56.0
224.776398 188.0
224.944122 104.0
225.155533 36.0
225.215271 164.0
225.272034 96.0
225.334763 52.0
225.549942 32.0
225.597763 136.0
225.732315 64.0
225.819046 84.0
225.881866 60.0
225.911774 104.0
226.252945 208.0
226.276901 60.0
226.42363 116.0
226.443176 40.0
226.501511 160.0
226.585388 88.0
226.633331 84.0
226.675491 164.0
226.768188 124.0
226.804153 52.0
226.864105 180.0
226.924072 80.0
227.136993 128.0
227.266006 60.0
227.401047 56.0
227.584167 164.0
227.656235 32.0
227.764374 244.0
227.905563 84.0
228.06485 64.0
228.099625 140.0
228.121964 120.0
228.320419 120.0
228.398621 36.0
228.518951 132.0
228.723465 180.0
228.922318 92.0
229.095291 220.0
229.145218 104.0
229.205475 100.0
229.268753 112.0
229.356171 104.0
229.564209 60.0
229.838715 212.0
229.859833 140.0
229.905106 36.0
230.037903 100.0
230.106186 604.0
230.155609 220.0
230.178253 140.0
230.205231 172.0
230.228134 176.0
230.321762 76.0
230.385193 144.0
230.444473 116.0
230.472824 52.0
230.560455 76.0
230.599747 116.0
230.725449 144.0
230.923264 140.0
231.114197 332.0
231.203812 44.0
231.286362 84.0
231.316635 64.0
231.340851 72.0
231.419571 184.0
231.483154 48.0
231.592178 52.0
231.698212 144.0
231.740631 36.0
231.889114 164.0
231.922455 84.0
232.122482 1416.0
232.195343 56.0
232.313644 132.0
232.476166 68.0
232.513901 72.0
232.593979 188.0
232.658218 96.0
232.720337 76.0
232.767899 108.0
232.820541 116.0
232.954193 56.0
233.011917 60.0
233.066605 48.0
233.126236 640.0
233.258514 84.0
233.297592 120.0
233.367523 52.0
233.607788 84.0
233.656464 152.0
233.756882 36.0
233.805573 84.0
233.906006 168.0
233.948624 56.0
234.049103 104.0
234.070419 68.0
234.131332 92.0
234.244019 88.0
234.295807 164.0
234.442078 56.0
234.649353 84.0
234.804871 96.0
234.873062 180.0
234.949173 192.0
235.035202 160.0
235.137436 84.0
235.207626 44.0
235.274796 56.0
235.42746 56.0
235.46106 72.0
235.717682 92.0
235.745178 160.0
235.894958 56.0
235.953033 56.0
236.286407 96.0
236.399628 56.0
236.42717 84.0
236.451645 120.0
236.494507 160.0
236.834381 184.0
236.880325 120.0
237.281799 84.0
237.720428 116.0
237.768173 108.0
237.904587 120.0
238.638885 80.0
238.68808 144.0
238.743439 96.0
238.848007 124.0
238.98645 124.0
239.186493 92.0
239.312714 36.0
239.361496 124.0
239.372269 188.0
239.64537 136.0
240.264954 180.0
240.662979 140.0
240.762054 36.0
240.845444 184.0
240.931946 116.0
241.361572 92.0
241.454346 72.0
241.630661 200.0
241.689453 128.0
241.906113 108.0
242.218872 84.0
242.256042 164.0
242.296326 208.0
242.383072 88.0
242.544235 36.0
242.761276 112.0
242.94632 152.0
243.189423 152.0
243.242188 136.0
243.297379 200.0
243.903839 72.0
244.336105 120.0
244.631744 128.0
244.821686 28.0
245.024155 120.0
245.089584 188.0
245.133102 300.0
245.270355 108.0
245.463654 28.0
245.532257 40.0
245.660141 184.0
245.837997 32.0
245.884811 140.0
246.072113 52.0
246.129837 88.0
246.265717 188.0
246.293839 92.0
246.470444 240.0
246.546921 128.0
246.822006 144.0
246.981506 72.0
247.102982 164.0
247.146561 3060.0
247.23494 84.0
247.388702 200.0
247.782928 180.0
248.148697 568.0
248.185165 144.0
248.209213 100.0
248.28447 92.0
248.332764 172.0
248.375427 108.0
248.460129 88.0
248.541702 100.0
248.667236 264.0
248.70491 120.0
248.75827 108.0
248.83989 88.0
248.978058 116.0
249.029526 104.0
249.116272 124.0
249.155319 144.0
249.178101 180.0
249.201096 72.0
249.264679 136.0
249.389648 216.0
249.430511 152.0
249.474533 92.0
249.528992 320.0
249.600296 112.0
249.631744 72.0
249.653748 120.0
249.681244 232.0
249.726089 144.0
249.804733 72.0
249.833038 160.0
249.911972 140.0
249.969666 176.0
250.000397 228.0
250.045975 328.0
250.051117 164.0
250.089233 356.0
250.118561 596.0
250.158356 143984.0
250.265732 196.0
250.335175 68.0
250.376144 136.0
250.406189 140.0
250.428589 260.0
250.478287 136.0
250.502533 120.0
250.513031 100.0
250.535889 232.0
250.56395 252.0
250.603989 60.0
250.615311 52.0
250.621353 84.0
250.677521 720.0
250.727615 232.0
250.751968 164.0
250.794739 212.0
250.840485 44.0
250.872299 136.0
250.901672 76.0
250.931519 232.0
250.964417 148.0
250.99527 40.0
251.02861 108.0
251.05098 100.0
251.08931 68.0
251.160431 24084.0
251.221329 252.0
251.279816 56.0
251.315277 44.0
251.364853 48.0
251.385742 56.0
251.408508 112.0
251.433701 140.0
251.468903 180.0
251.499817 56.0
251.558441 88.0
251.584732 132.0
251.629471 116.0
251.662811 36.0
251.682281 72.0
251.734055 164.0
251.758942 120.0
251.78421 32.0
251.841064 60.0
251.868973 64.0
251.901077 76.0
251.929504 64.0
251.974731 64.0
251.998276 68.0
252.033768 100.0
252.081177 56.0
252.162781 2140.0
252.212524 76.0
252.273972 52.0
252.330887 96.0
252.356171 68.0
252.419418 84.0
252.441559 76.0
252.466858 68.0
252.508881 180.0
252.532486 208.0
252.569168 92.0
252.61145 56.0
252.68512 136.0
252.714813 124.0
252.749664 84.0
252.848831 280.0
252.883255 196.0
252.916672 116.0
252.942169 124.0
252.970642 104.0
253.013214 104.0
253.064926 96.0
253.107391 256.0
253.165054 348.0
253.191681 232.0
253.242264 140.0
253.299286 52.0
253.327789 40.0
253.368988 64.0
253.405411 88.0
253.448196 56.0
253.498047 196.0
253.593979 48.0
253.657364 36.0
253.698578 40.0
253.736618 116.0
253.774673 128.0
253.815887 32.0
253.860291 108.0
253.90152 88.0
253.933228 72.0
253.964951 120.0
253.991455 56.0
254.03978 68.0
254.062119 108.0
254.082321 200.0
254.118713 168.0
254.172638 164.0
254.279068 80.0
254.323502 84.0
254.415558 160.0
254.49176 44.0
254.720428 72.0
254.780777 64.0
254.850677 52.0
254.961792 120.0
255.041367 52.0
255.111298 28.0
255.203491 72.0
255.496109 40.0
255.553375 68.0
255.852554 60.0
256.072266 56.0
256.113678 36.0
256.269775 76.0
256.311218 36.0
256.674591 96.0
256.721375 48.0
256.96167 92.0
257.063782 36.0
257.223358 72.0
258.089172 104.0
258.149933 84.0
258.53064 60.0
258.725891 44.0
259.270416 52.0
259.485199 52.0
259.831573 112.0
260.223145 96.0
260.319458 80.0
260.341949 108.0
260.402985 112.0
260.865692 40.0
261.077911 68.0
261.203339 64.0
261.325592 56.0
261.348114 76.0
261.412476 172.0
261.756927 56.0
261.876068 120.0
262.030701 100.0
262.08548 96.0
262.22406 120.0
262.427155 84.0
262.552917 60.0
262.840027 72.0
263.130524 72.0
263.411499 44.0
263.644135 112.0
263.821899 40.0
264.103241 88.0
264.452698 76.0
264.501251 72.0
264.721405 100.0
264.802368 48.0
264.9935 80.0
265.113403 92.0
265.583527 68.0
265.635406 144.0
265.807373 44.0
266.141724 200.0
266.174194 56.0
266.375549 104.0
266.707001 212.0
266.954102 48.0
267.315186 64.0
267.995758 104.0
268.087006 144.0
268.412994 176.0
268.768555 76.0
269.294159 84.0
269.852966 84.0
270.176758 92.0
270.782349 76.0
271.041138 32.0
271.234497 96.0
271.306641 244.0
271.893768 48.0
272.350159 64.0
272.40271 120.0
272.4487 100.0
272.652435 80.0
273.524078 112.0
273.78418 64.0
274.149872 100.0
275.426727 84.0
275.65799 104.0
275.733246 184.0
275.932343 200.0
276.173767 48.0
276.200226 100.0
276.22998 72.0
276.269684 92.0
276.474823 112.0
276.521179 68.0
276.64035 44.0
276.670135 48.0
276.696625 76.0
276.880554 124.0
276.96817 116.0
277.292877 84.0
277.451996 92.0
277.548157 44.0
277.581299 116.0
277.921478 196.0
278.06131 204.0
278.138702 80.0
278.188385 19252.0
278.30426 92.0
278.370911 68.0
278.429474 84.0
278.46286 128.0
278.497314 100.0
278.53717 140.0
278.567078 212.0
278.593658 40.0
278.653442 52.0
278.703857 116.0
278.735229 52.0
278.796326 92.0
278.819611 36.0
278.91925 164.0
279.042328 196.0
279.131561 128.0
279.19043 3976.0
279.251831 112.0
279.287445 56.0
279.328308 56.0
279.667725 44.0
279.69104 52.0
279.990692 76.0
280.123932 72.0
280.193512 240.0
280.247192 68.0
280.593842 48.0
280.627167 76.0
280.670532 48.0
280.746246 68.0
280.783905 52.0
280.917328 104.0
280.95871 180.0
281.107513 76.0
281.197632 72.0
281.291077 132.0
281.347839 64.0
281.389221 100.0
281.70517 56.0
281.852173 100.0
281.902313 56.0
281.992554 60.0
282.471649 132.0
282.818695 60.0
282.905731 104.0
283.351166 64.0
283.605865 60.0
284.40152 56.0
285.176697 128.0
285.257385 88.0
286.084961 60.0
286.374542 84.0
286.947418 68.0
287.048584 40.0
287.240845 96.0
287.662659 80.0
287.753815 52.0
287.959808 72.0
288.067871 68.0
288.121948 48.0
288.284119 36.0
288.615417 76.0
288.666138 52.0
289.651031 96.0
289.749268 84.0
290.281433 120.0
290.427277 44.0
291.228333 76.0
291.354034 80.0
292.057709 108.0
292.311737 72.0
292.506866 108.0
292.980225 140.0
293.962219 92.0
294.580231 120.0
295.270691 92.0
295.404083 108.0
295.438293 96.0
295.585419 36.0
295.763397 60.0
295.948273 32.0
296.157166 88.0
296.664337 80.0
296.78775 56.0
296.935211 64.0
297.216522 60.0
297.755493 96.0
298.607849 48.0
298.759216 120.0
298.8349 56.0
299.803802 120.0
300.158691 76.0
300.243805 116.0
300.302429 68.0
300.336945 48.0
300.6026 84.0
300.771698 88.0
301.421021 52.0
301.59726 72.0
301.949951 100.0
302.167877 100.0
302.74942 64.0
302.773651 84.0
303.092377 84.0
303.28299 28.0
303.83783 64.0
305.634155 100.0
306.313049 72.0
306.825348 40.0
307.048523 32.0
307.334564 116.0
307.585846 40.0
307.725494 92.0
307.969971 96.0
309.039703 76.0
309.358215 64.0
309.407227 52.0
309.44574 44.0
309.568298 76.0
309.876526 108.0
310.016693 124.0
310.854828 120.0
312.629517 72.0
312.981537 64.0
313.358429 80.0
313.49234 48.0
313.675629 88.0
313.973022 104.0
315.306335 60.0
315.99942 32.0
316.048981 84.0
316.728699 52.0
316.944824 76.0
317.501373 76.0
317.661011 52.0
317.700012 56.0
318.260803 40.0
318.449036 32.0
318.967804 88.0
319.483459 76.0
319.536804 48.0
319.785919 160.0
320.15976 136.0
320.801117 104.0
320.961548 68.0
321.864349 144.0
322.986572 28.0
323.047363 100.0
323.924438 64.0
324.279175 40.0
324.817017 56.0
324.964111 96.0
325.251221 52.0
325.556396 100.0
326.566315 104.0
327.873291 40.0
328.360016 32.0
328.504272 56.0
329.229797 120.0
329.731964 96.0
330.415405 64.0
330.603577 124.0
331.05249 48.0
331.30603 44.0
332.009247 100.0
332.854797 72.0
333.410614 76.0
333.828674 100.0
334.629211 84.0
334.782166 80.0
334.884125 40.0
335.547363 44.0
335.908417 88.0
335.97406 56.0
336.042053 108.0
336.627441 32.0
336.755249 92.0
337.690948 36.0
337.859222 108.0
338.195892 76.0
338.397217 124.0
338.675537 72.0
340.278137 48.0
340.895233 96.0
342.322571 116.0
342.495667 148.0
343.738159 116.0
343.786133 56.0
344.554169 128.0
344.820221 28.0
345.948425 60.0
346.470612 64.0
346.626221 52.0
346.933868 108.0
347.011719 72.0
347.582947 40.0
348.875488 72.0
349.001526 84.0
349.191559 104.0
349.384979 92.0
349.500336 80.0
349.58963 76.0
349.820404 88.0
349.865082 60.0
350.516876 44.0
350.792694 100.0
351.404327 40.0
351.549866 112.0
351.97168 96.0
352.345184 48.0
352.801147 64.0
352.9021 44.0
353.380859 132.0
353.650299 88.0
354.18576 124.0
354.361816 80.0
354.537933 64.0
354.920319 64.0
355.775757 76.0
356.147522 104.0
356.263977 100.0
356.808563 40.0
356.978119 80.0
358.058228 80.0
358.438721 100.0
358.732727 44.0
359.349792 84.0
361.070007 52.0
361.512665 64.0
361.879822 96.0
362.512421 104.0
362.899078 68.0
363.688141 48.0
364.421112 60.0
365.337372 112.0
365.497162 48.0
365.706482 120.0
367.642639 104.0
367.726593 64.0
367.974731 60.0
368.188568 84.0
369.18222 72.0
369.553284 72.0
369.656586 84.0
370.433838 52.0
370.602417 64.0
370.966492 88.0
371.231079 68.0
372.881927 80.0
373.500977 52.0
373.797211 84.0
374.363098 100.0
374.6828 76.0
375.203094 52.0
375.689026 52.0
375.955292 56.0
376.310425 60.0
376.994141 68.0
377.63205 60.0
378.398285 48.0
378.591888 108.0
378.948273 56.0
379.455994 32.0
379.696411 36.0
379.750732 108.0
380.185242 84.0
382.046478 92.0
382.357758 80.0
382.54071 76.0
383.627594 68.0
383.892731 56.0
385.420624 84.0
386.78006 88.0
387.614288 44.0
388.602417 48.0
389.340393 84.0
390.338593 88.0
390.999512 28.0
391.590088 160.0
392.228394 76.0
392.449188 112.0
392.524109 52.0
393.1474 92.0
393.317108 72.0
393.696136 96.0
393.865997 64.0
394.186005 96.0
394.257141 68.0
397.615601 76.0
398.127747 44.0
399.988556 32.0
400.100006 104.0
400.673523 68.0
400.836884 84.0
401.083984 112.0
402.332611 68.0
402.887726 100.0
403.723145 128.0
404.223206 104.0
406.222504 28.0
406.282684 64.0
406.342865 52.0
407.153717 88.0
407.94931 108.0
408.234802 64.0
409.192474 32.0
410.281036 64.0
410.554474 104.0
412.039917 36.0
413.916718 76.0
414.471649 124.0
414.678345 72.0
414.913452 88.0
416.646423 64.0
417.109711 156.0
417.951599 64.0
420.078339 128.0
420.310913 152.0
421.634064 52.0
423.061615 136.0
423.970947 60.0
424.499786 60.0
424.553101 136.0
425.287506 48.0
427.025543 76.0
427.157166 88.0
427.687988 68.0
428.239746 92.0
429.954895 96.0
430.243835 68.0
432.914978 80.0
434.118866 72.0
434.340759 72.0
436.799896 68.0
437.157715 36.0
437.61145 136.0
437.74054 60.0
438.853088 64.0
441.672089 88.0
441.994232 80.0
442.844086 56.0
443.518707 68.0
445.314545 48.0
445.818726 64.0
446.874176 72.0
447.177185 76.0
447.947754 28.0
449.102722 116.0
449.246155 48.0
449.862305 68.0
450.483063 28.0
451.544037 76.0
452.699432 76.0
453.262817 76.0
453.847809 56.0
455.154724 112.0
455.290619 36.0
455.422272 124.0
457.48468 64.0
458.686005 84.0
459.027069 136.0
459.547485 72.0
461.473816 68.0
461.82019 120.0
462.539062 80.0
463.644135 28.0
463.957031 56.0
464.819153 80.0
465.252686 100.0
467.104858 44.0
468.486725 104.0
469.45697 84.0
470.034607 36.0
471.036255 84.0
471.217712 164.0
472.428253 72.0
473.428131 100.0
475.786957 40.0
476.025787 36.0
476.355865 52.0
477.986298 84.0
480.482971 72.0
480.701141 84.0
481.486969 44.0
482.382721 68.0
482.627533 56.0
483.616241 44.0
487.440582 120.0
487.862549 88.0
488.095581 108.0
488.355042 80.0
488.724579 60.0
492.105316 68.0
493.948242 56.0
494.016022 100.0
495.719238 80.0
496.069397 96.0
497.005219 68.0
497.036285 68.0
497.20047 40.0
497.710999 172.0
498.168457 48.0
498.892853 80.0
499.026215 80.0
500.637054 108.0
504.067627 64.0
504.250854 56.0
504.773926 76.0
506.326813 64.0
506.591095 168.0
508.972687 64.0
510.392609 64.0
510.88736 64.0
511.63443 68.0
515.423157 92.0
515.664429 84.0
515.924866 32.0
521.05072 84.0
521.577881 88.0
522.055298 72.0
525.083862 68.0
525.932556 92.0
525.973633 36.0
528.198975 80.0
529.105103 56.0
531.387573 68.0
532.397461 48.0
532.709778 88.0
532.843018 52.0
532.97168 48.0
536.331299 68.0
537.327393 64.0
537.650391 100.0
538.458374 20.0
539.567383 84.0
539.872559 92.0
540.321289 52.0
541.673096 32.0
543.722534 68.0
543.755005 72.0
544.627869 124.0
545.092468 148.0
545.222595 88.0
547.525574 72.0
549.520691 56.0
549.553345 72.0
551.407288 44.0
552.071167 44.0
553.45636 44.0
554.328003 100.0
554.501038 44.0
554.590088 52.0
556.175476 40.0
558.567322 88.0
558.604919 52.0
559.842834 56.0
560.48822 48.0
561.36969 76.0
561.43103 116.0
561.596069 36.0
561.91687 48.0
562.752319 44.0
565.304871 68.0
567.792053 68.0
568.560669 48.0
570.798218 56.0
571.335632 80.0
571.997131 60.0
572.55426 112.0
573.049622 60.0
573.72644 92.0
573.960083 80.0
574.112671 36.0
576.208191 124.0
576.992004 52.0
577.508484 52.0
579.624512 56.0
581.398926 80.0
582.239075 80.0
582.863586 72.0
586.289978 100.0
586.444153 44.0
587.644958 40.0
588.489624 48.0
589.136841 100.0
589.803711 112.0
591.085327 64.0
592.654236 80.0
593.0177 48.0
593.453979 112.0
593.759521 68.0
594.58429 104.0
598.653503 68.0
599.374451 56.0
599.525513 44.0
602.726746 68.0
603.655579 88.0
604.012573 36.0
606.264832 148.0
607.314087 88.0
608.1875 40.0
611.003357 36.0
611.249329 52.0
613.505188 108.0
614.758057 104.0
617.559387 88.0
617.757202 92.0
618.667786 84.0
624.906433 112.0
626.250549 104.0
627.36676 96.0
628.114807 68.0
631.441406 32.0
633.719116 84.0
634.084961 72.0
634.942322 92.0
634.982422 52.0
635.047607 56.0
635.393738 40.0
636.648682 32.0
637.362 36.0
637.894714 76.0
637.945007 76.0
639.801392 88.0
643.73938 96.0
643.885864 96.0
644.426392 68.0
644.714417 96.0
647.223511 36.0
648.145447 48.0
648.971619 60.0
651.763367 36.0
653.344666 48.0
653.568542 128.0
654.566223 76.0
655.977539 52.0
656.569031 52.0
657.206665 48.0
661.986206 68.0
665.108582 104.0
666.17157 68.0
669.422241 48.0
669.849731 40.0
670.207397 76.0
671.674561 152.0
672.355652 120.0
673.605164 80.0
674.943787 92.0
677.593872 72.0
679.366943 48.0
679.97406 148.0
681.142334 72.0
682.374023 64.0
688.470764 56.0
689.912964 112.0
691.738708 72.0
693.855225 88.0
695.56543 64.0
698.224121 52.0
699.307983 52.0
700.474609 96.0
703.23999 60.0
704.454468 108.0
704.924744 104.0
705.009277 168.0
705.236572 76.0
707.251831 64.0
712.650635 112.0
713.107666 32.0
714.905273 40.0
715.182068 112.0
717.184814 204.0
718.043274 76.0
719.767029 92.0
721.610413 64.0
722.230774 80.0
722.450134 68.0
723.504395 52.0
723.857788 44.0
724.039856 60.0
724.468384 60.0
724.784485 56.0
726.248108 244.0
726.510925 32.0
729.8302 80.0
730.49707 76.0
733.280945 124.0
734.278381 136.0
737.593689 116.0
742.954956 152.0
743.644104 124.0
744.355286 116.0
744.784363 88.0
745.778687 92.0
747.312317 216.0
748.825684 248.0
748.934631 60.0
749.88269 96.0
750.367859 52.0
751.236816 124.0
753.855896 112.0
757.42865 68.0
757.664185 168.0
757.773804 52.0
760.971436 76.0
761.042786 216.0
761.372314 44.0
766.488464 76.0
766.664795 108.0
767.877686 44.0
769.273743 120.0
769.400696 36.0
772.478943 144.0
773.026672 80.0
773.225952 108.0
774.444031 96.0
776.733337 80.0
776.944092 112.0
777.898621 140.0
781.522339 104.0
781.917419 112.0
782.012024 192.0
782.117798 68.0
783.214783 140.0
785.734558 152.0
785.779175 116.0
785.92981 64.0
785.996765 108.0
786.443237 104.0
786.96521 176.0
787.654968 64.0
789.68396 128.0
792.707214 176.0
794.31073 116.0
794.624878 68.0
796.398865 104.0
796.707825 104.0
798.821594 56.0
799.406738 160.0
800.436951 156.0
801.563538 48.0
801.6875 132.0
803.435486 76.0
803.932068 44.0
805.47345 84.0
806.450989 164.0
806.631897 128.0
806.886292 124.0
809.18335 132.0
809.591064 120.0
809.681702 180.0
812.850708 176.0
813.673767 48.0
814.03717 68.0
814.241577 36.0
815.44043 148.0
816.230652 184.0
817.191956 160.0
817.39679 164.0
818.774475 116.0
819.395386 116.0
821.613159 132.0
822.452026 128.0
823.468384 104.0
824.336792 96.0
824.462524 212.0
824.754028 128.0
824.885498 68.0
825.028381 152.0
825.365723 140.0
825.60022 124.0
827.912292 44.0
828.880432 172.0
828.937744 144.0
829.72876 80.0
829.992493 124.0
830.761047 48.0
831.466858 120.0
831.593079 60.0
831.707886 140.0
831.771057 128.0
832.684021 232.0
833.011414 56.0
834.724182 248.0
835.897705 52.0
838.466187 232.0
841.182922 72.0
843.852051 140.0
844.233704 72.0
845.541199 36.0
845.894287 184.0
846.965576 76.0
847.974304 168.0
849.504578 180.0
850.270508 60.0
851.28064 176.0
851.425842 156.0
851.780518 64.0
852.000916 52.0
853.118652 136.0
853.430725 100.0
856.014343 160.0
856.346313 168.0
857.097839 44.0
857.488281 52.0
859.156006 100.0
859.406921 64.0
859.698669 68.0
859.978821 36.0
861.613892 192.0
862.537231 40.0
862.741882 160.0
862.858765 112.0
863.02832 84.0
863.560547 28.0
863.742554 164.0
865.316101 224.0
866.587097 112.0
867.255188 124.0
867.706543 60.0
868.539307 76.0
869.789185 104.0
870.000549 92.0
870.200134 52.0
870.828491 112.0
873.314758 36.0
873.7854 80.0
874.573975 240.0
874.844727 64.0
875.103821 64.0
876.629456 116.0
876.776794 60.0
876.829834 132.0
877.378052 44.0
877.684631 76.0
880.414795 68.0
880.978027 48.0
884.265747 108.0
884.468994 180.0
884.881409 128.0
884.970215 156.0
886.522217 180.0
886.883728 140.0
887.192017 128.0
888.063721 96.0
888.467102 108.0
889.499695 48.0
889.849976 164.0
891.483459 44.0
891.828186 144.0
892.095703 84.0
892.404846 108.0
893.701538 52.0
894.766907 132.0
895.457703 72.0
896.029541 160.0
897.859558 76.0
898.593323 152.0
899.005005 148.0
900.216919 200.0
901.160706 84.0
902.134888 92.0
903.103638 32.0
903.271118 112.0
904.581604 80.0
905.982971 172.0
906.504272 88.0
906.726013 144.0
907.481323 144.0
908.117004 104.0
908.398926 92.0
909.19696 48.0
909.56012 164.0
909.875244 84.0
910.878174 132.0
910.950256 48.0
911.046387 188.0
911.190552 168.0
913.450989 112.0
914.845093 236.0
916.859009 168.0
917.148315 160.0
920.001648 180.0
920.339722 76.0
920.557129 132.0
920.822876 228.0
921.022217 160.0
922.91217 156.0
923.524658 68.0
923.712158 164.0
924.515137 180.0
924.704529 140.0
927.04834 104.0
927.260437 96.0
927.478638 72.0
928.121277 72.0
928.946106 148.0
930.627258 148.0
930.821594 76.0
931.234558 56.0
931.386414 160.0
933.43457 112.0
934.334778 152.0
934.906799 148.0
935.107605 148.0
935.217163 56.0
936.258301 68.0
936.390564 152.0
937.519409 196.0
937.811951 104.0
938.116882 152.0
939.065002 104.0
939.263184 56.0
939.835205 152.0
940.056335 48.0
940.184509 124.0
941.124634 76.0
941.655884 64.0
941.991882 172.0
942.615051 80.0
942.792297 200.0
943.348511 180.0
943.800964 236.0
943.862061 96.0
944.56543 56.0
944.877441 108.0
945.721924 80.0
947.17926 164.0
947.283386 72.0
947.57135 100.0
947.859314 160.0
948.472229 108.0
948.6745 176.0
948.987183 96.0
949.257019 76.0
950.085022 184.0
950.238403 88.0
950.342896 152.0
950.416382 104.0
950.582031 132.0
951.515015 100.0
952.184387 80.0
952.620483 72.0
952.681946 112.0
953.013672 60.0
954.058533 144.0
955.423828 60.0
957.214966 184.0
958.145081 104.0
958.428528 148.0
958.5271 148.0
958.748962 96.0
958.872192 52.0
959.58728 200.0
959.809265 104.0
959.864746 92.0
960.129944 148.0
960.395142 152.0
960.493835 96.0
960.728271 132.0
961.326782 128.0
961.955566 120.0
962.437927 124.0
962.765198 196.0
962.925781 188.0
962.987549 108.0
964.192322 28.0
964.309753 140.0
965.410278 80.0
965.886536 96.0
966.573242 200.0
967.012695 168.0
967.198364 72.0
967.637878 100.0
967.780334 148.0
968.028015 196.0
969.006714 160.0
969.328918 80.0
969.496216 28.0
970.252441 176.0
970.835327 208.0
971.635498 56.0
971.883667 184.0
972.119507 128.0
972.796021 168.0
974.039673 60.0
974.649109 208.0
975.199951 80.0
976.207153 76.0
977.264648 120.0
977.519775 140.0
977.58197 136.0
977.644226 68.0
977.712708 128.0
978.366272 52.0
978.422302 52.0
978.770996 140.0
979.231812 72.0
979.449829 104.0
979.5495 76.0
979.867249 120.0
980.247314 104.0
980.353271 120.0
980.571411 112.0
981.12616 76.0
981.1698 108.0
981.606262 160.0
982.410889 48.0
982.492004 164.0
982.604309 96.0
982.760925 192.0
983.109741 88.0
984.399597 148.0
985.101562 192.0
985.776306 144.0
986.276306 148.0
986.332581 128.0
986.509094 224.0
986.601074 84.0
987.082825 132.0
987.23291 172.0
987.464355 204.0
987.770813 156.0
988.190002 104.0
989.610779 48.0
990.53772 104.0
990.606628 100.0
991.364746 104.0
991.496338 28.0
992.367737 160.0
992.856812 136.0
993.007385 96.0
993.540527 168.0
993.615845 72.0
994.16803 172.0
994.525757 152.0
994.758057 128.0
994.914978 36.0
995.241455 128.0
996.039062 152.0
997.635254 148.0
997.918152 156.0
998.257751 164.0
998.364624 112.0
998.792358 68.0
998.886719 192.0
999.364807 120.0
999.66687 144.0
1000.308899 240.0
1000.629944 32.0
1000.762146 88.0
1001.36676 72.0
1001.650208 200.0
1001.98407 144.0
1002.393616 220.0
1002.532288 84.0
1002.689819 92.0
1002.815918 120.0
1003.471497 140.0
1003.660278 136.0
1003.799377 164.0
1003.931824 116.0
1004.915894 116.0
1005.004211 116.0
1005.079956 120.0
1005.395447 84.0
1005.969849 100.0
1006.121338 140.0
1006.575989 152.0
1006.695984 108.0
1006.759094 96.0
1008.370178 100.0
1008.578735 112.0
1008.63562 116.0
1009.147705 184.0
1009.388 184.0
1009.976196 80.0
1010.109009 144.0
1010.64679 112.0
1010.988525 168.0
1011.317627 188.0
1011.862061 72.0
1012.463623 124.0
1012.748657 184.0
1012.875305 164.0
1013.464539 112.0
1013.882751 68.0
1014.269409 160.0
1014.345459 140.0
1014.415161 148.0
1014.503967 228.0
1014.713135 96.0
1014.827271 148.0
1015.33075 144.0
1016.038696 160.0
1016.210022 160.0
1016.692261 152.0
1016.768433 124.0
1017.092163 144.0
1017.161987 140.0
1017.377808 184.0
1017.434937 160.0
1017.534302 228.0
1017.650818 140.0
1017.981018 128.0
1018.692383 108.0
1018.825806 100.0
1019.250427 220.0
1019.531128 124.0
1019.715454 76.0
1020.052307 144.0
1020.961548 204.0
1021.521301 120.0
1022.507568 104.0
1022.585022 120.0
1023.239624 76.0
1023.691711 164.0
1023.914612 32.0
1024.66626 108.0
1025.13147 128.0
1025.443726 188.0
1026.718872 132.0
1027.299316 164.0
1027.42688 72.0
1028.064941 76.0
1028.526611 124.0
1029.124634 148.0
1029.233154 60.0
1029.865479 128.0
1029.942139 100.0
1030.798218 132.0
1030.996338 192.0
1031.06665 240.0
1031.59082 88.0
1032.019165 36.0
1032.070312 156.0
1032.268555 132.0
1032.345215 204.0
1032.415649 232.0
1032.760986 96.0
1032.837769 124.0
1033.21521 208.0
1033.656616 124.0
1033.887085 148.0
1033.931885 176.0
1034.091797 156.0
1034.162231 172.0
1034.667969 168.0
1034.853638 168.0
1034.962524 84.0
1035.077759 184.0
1035.577271 184.0
1035.743774 140.0
1036.070557 120.0
1036.211548 180.0
1036.371704 164.0
1036.999756 120.0
1037.185547 92.0
1037.608765 184.0
1037.83313 164.0
1038.128052 128.0
1038.346191 152.0
1038.44873 164.0
1038.583496 236.0
1038.820801 84.0
1038.87854 80.0
1039.058228 92.0
1039.154419 280.0
1039.481689 176.0
1039.930908 148.0
1040.046509 152.0
1040.483032 64.0
1041.427002 108.0
1041.658203 80.0
1041.883057 128.0
1043.290527 128.0
1043.708496 184.0
1044.107178 120.0
1044.216553 160.0
1044.505981 44.0
1044.769653 184.0
1044.814697 172.0
1044.898438 68.0
1044.967651 176.0
1045.335938 172.0
1046.011719 80.0
1046.237061 64.0
1046.378662 140.0
1046.655518 68.0
1047.112793 176.0
1047.338257 132.0
1047.531494 104.0
1047.814941 112.0
1048.021118 296.0
1048.182251 232.0
1048.265991 116.0
1048.414185 144.0
1048.904053 124.0
1049.136108 144.0
1049.265137 152.0
1049.355347 236.0
1050.374268 204.0
1050.548462 100.0
1050.755005 192.0
1051.14209 152.0
1051.464722 36.0
1051.516357 100.0
1051.72937 140.0
1052.426636 168.0
1053.686157 72.0
1053.763672 216.0
1054.067383 148.0
1054.351685 156.0
1054.429321 208.0
1054.78479 72.0
1054.959351 40.0
1055.871094 116.0
1056.162109 176.0
1056.420898 140.0
1056.770264 104.0
1056.912598 208.0
1057.346191 140.0
1057.825195 136.0
1057.973999 68.0
1058.258911 152.0
1058.351318 140.0
1058.420776 96.0
1058.67334 200.0
1058.783447 32.0
1058.964844 128.0
1059.191528 136.0
1059.651489 172.0
1059.729248 188.0
1059.968994 116.0
1060.169922 148.0
1060.351318 140.0
1061.596069 164.0
1062.439331 104.0
1062.491211 180.0
1062.861084 172.0
1062.945435 48.0
1063.042725 192.0
1063.172607 144.0
1063.41272 152.0
1063.49707 92.0
1063.725708 180.0
1063.808716 184.0
1063.919067 148.0
1063.996948 64.0
1064.380005 168.0
1064.509888 184.0
1064.6073 188.0
1065.04248 204.0
1065.302246 184.0
1065.588135 168.0
1066.472656 152.0
1066.940063 108.0
1067.284668 124.0
1067.382202 92.0
1067.616211 184.0
1067.726807 148.0
1068.178711 188.0
1068.396851 160.0
1069.333862 92.0
1069.671875 160.0
1071.013794 248.0
1071.528442 116.0
1071.906372 144.0
1071.956665 188.0
1072.030151 128.0
1072.180054 84.0
1072.235229 176.0
1072.49292 336.0
1072.590698 164.0
1072.668945 116.0
1073.431763 56.0
1073.516479 156.0
1073.588257 144.0
1073.705688 84.0
1074.220947 100.0
1074.540649 180.0
1075.186646 184.0
1075.297607 104.0
1075.447754 172.0
1075.558716 148.0
1075.695801 144.0
1075.760986 80.0
1075.943848 236.0
1076.05481 52.0
1076.766602 84.0
1076.812378 204.0
1076.969116 144.0
1077.295654 136.0
1077.694214 164.0
1077.766113 52.0
1077.988281 84.0
1078.092896 84.0
1078.184326 120.0
1078.28894 132.0
1078.36145 76.0
1078.616577 176.0
1078.720337 176.0
1078.844482 216.0
1079.112549 172.0
1079.393799 100.0
1079.491821 248.0
1079.642212 156.0
1079.897339 148.0
1080.479492 100.0
1080.544922 156.0
1080.734741 112.0
1080.813232 44.0
1080.91626 220.0
1081.157593 104.0
1081.461182 200.0
1081.631348 152.0
1081.919312 36.0
1082.353882 164.0
1082.764038 152.0
1083.628784 180.0
1083.707397 64.0
1084.159546 140.0
1084.506958 216.0
1085.031372 52.0
1085.221436 208.0
1085.402466 60.0
1086.100342 56.0
1086.15271 100.0
1086.419434 272.0
1087.058228 108.0
1087.143555 52.0
1087.366577 84.0
1087.62915 108.0
1088.673096 156.0
1088.758545 156.0
1088.889893 148.0
1089.001465 80.0
1089.303711 48.0
1089.586182 140.0
1089.743896 152.0
1089.881836 44.0
1090.979492 116.0
1091.051758 108.0
1091.128418 204.0
1091.229248 56.0
1091.656738 120.0
1092.367065 100.0
1092.80127 104.0
1093.130249 124.0
1093.985962 140.0
1094.038574 136.0
1094.282227 156.0
1094.644409 144.0
1094.69043 88.0
1095.638916 172.0
1095.836548 168.0
1096.442871 116.0
1096.528564 124.0
1097.293213 136.0
1097.78772 88.0
1098.117554 96.0
1098.407715 164.0
1098.730957 52.0
1099.146729 116.0
1099.443604 220.0
1099.575684 128.0
1099.70105 164.0
1100.650757 120.0
1100.717773 56.0
1100.810181 140.0
1100.856445 152.0
1100.929077 168.0
1101.021484 88.0
1101.239502 180.0
1101.424438 160.0
1101.516968 152.0
1101.886841 224.0
1102.514648 96.0
1102.619019 172.0
1102.858276 32.0
1103.056641 100.0
1103.155762 136.0
1103.929443 284.0
1104.035156 152.0
1104.914917 104.0
1105.07373 216.0
1105.490601 80.0
1105.603149 216.0
1105.716187 184.0
1105.874512 192.0
1106.139282 128.0
1106.271729 124.0
1106.761597 204.0
1106.973511 268.0
1107.635864 120.0
1108.101562 156.0
1108.318237 188.0
1108.404419 156.0
1108.642944 128.0
1108.695923 128.0
1108.788696 108.0
1109.10022 248.0
1109.604126 80.0
1109.716797 160.0
1110.194214 128.0
1110.432983 104.0
1110.831055 148.0
1111.16272 116.0
1111.487793 72.0
1111.540894 160.0
1111.6073 108.0
1112.77063 216.0
1112.908325 208.0
1113.180542 132.0
1113.479492 40.0
1113.72522 84.0
1113.771729 56.0
1113.871338 132.0
1114.409424 80.0
1114.914551 160.0
1115.326538 108.0
1115.404297 160.0
1115.632324 156.0
1115.838501 128.0
1116.037964 184.0
1116.170898 196.0
1117.075439 108.0
1117.394775 92.0
1117.468018 180.0
1117.640991 152.0
1117.827271 112.0
1118.106812 164.0
1118.266602 168.0
1118.641968 208.0
1118.759155 96.0
1119.125366 152.0
1119.185303 140.0
1119.278442 152.0
1119.471802 104.0
1119.771362 100.0
1120.177612 128.0
1120.510742 200.0
1121.063843 120.0
1121.157104 104.0
1121.523682 44.0
1121.937866 96.0
1122.256958 132.0
1122.497192 140.0
1123.003906 92.0
1123.104004 144.0
1123.159668 152.0
1123.277466 236.0
1123.324097 172.0
1123.697754 88.0
1124.138062 72.0
1124.73877 120.0
1124.840942 116.0
1125.426392 60.0
1125.633423 60.0
1125.960693 172.0
1126.047485 156.0
1126.107666 160.0
1126.214478 56.0
1126.488403 116.0
1126.722168 156.0
1128.326172 220.0
1128.459961 136.0
1128.71814 96.0
1128.867554 196.0
1129.162109 164.0
1129.911255 164.0
1130.058472 124.0
1131.149414 208.0
1131.276611 132.0
1131.345459 192.0
1132.100098 136.0
1132.25415 72.0
1132.689575 188.0
1132.813354 320.0
1133.634277 80.0
1133.801758 88.0
1133.888916 124.0
1134.532471 148.0
1134.76709 136.0
1134.934692 40.0
1135.296875 200.0
1135.384033 96.0
1135.665771 164.0
1135.846802 96.0
1136.034668 192.0
1136.168823 112.0
1136.21582 152.0
1136.423828 72.0
1136.598267 116.0
1136.692139 48.0
1136.759277 128.0
1136.893555 180.0
1137.074707 116.0
1137.645264 128.0
1137.786255 316.0
1138.151001 152.0
1138.3302 156.0
1138.41748 60.0
1139.384644 136.0
1139.458618 96.0
1139.545898 84.0
1139.740845 228.0
1139.828125 88.0
1139.928955 128.0
1140.184326 164.0
1140.312012 160.0
1140.961304 132.0
1141.098511 176.0
1141.293579 156.0
1141.343628 220.0
1141.515503 164.0
1141.663452 152.0
1141.838257 156.0
1141.939209 124.0
1142.282227 160.0
1142.698975 216.0
1142.836914 216.0
1143.393433 128.0
1143.695312 116.0
1143.823242 144.0
1143.896118 144.0
1144.092529 96.0
1144.463013 136.0
1144.543579 116.0
1144.947632 224.0
1145.001587 124.0
1145.553833 52.0
1145.654907 96.0
1145.762695 156.0
1145.917725 180.0
1146.157593 72.0
1147.009399 120.0
1147.724731 172.0
1147.798218 112.0
1148.101685 84.0
1148.432251 180.0
1148.61438 152.0
1148.661499 36.0
1148.904419 148.0
1148.965088 108.0
1149.039307 128.0
1149.19458 104.0
1149.646606 120.0
1149.92334 128.0
1150.024658 128.0
1150.233887 172.0
1150.335083 72.0
1150.848267 224.0
1150.895508 68.0
1151.297729 148.0
1151.428955 176.0
1151.550537 140.0
1151.753174 124.0
1151.922119 140.0
1152.151733 48.0
1152.340942 160.0
1152.435547 136.0
1152.570679 124.0
1152.648315 144.0
1152.834229 172.0
1153.219482 104.0
1153.604736 124.0
1153.685913 80.0
1153.807617 160.0
1153.922485 256.0
1154.138916 44.0
1154.362061 160.0
1154.416138 144.0
1154.700195 164.0
1154.801636 240.0
1154.903076 152.0
1155.139893 48.0
1155.240234 120.0
1155.301514 188.0
1155.471313 104.0
1155.660767 184.0
1155.978882 108.0
1156.046509 140.0
1156.154785 120.0
1157.353027 116.0
1157.544067 160.0
1157.725464 76.0
1157.973755 152.0
1158.118286 244.0
1158.287598 104.0
1158.704956 140.0
1158.863403 128.0
1159.24292 96.0
1159.324219 120.0
1159.527588 96.0
1159.852905 124.0
1159.920654 132.0
1160.218994 128.0
1160.788574 76.0
1160.898804 140.0
1161.263306 216.0
1161.446411 132.0
1161.575317 116.0
1161.683838 168.0
1162.172363 228.0
1162.267334 120.0
1162.531982 136.0
1162.599854 152.0
1162.966309 76.0
1163.170044 68.0
1163.217529 148.0
1163.577271 72.0
1163.713135 152.0
1163.869263 192.0
1163.950806 160.0
1164.168091 172.0
1164.487305 72.0
1164.792969 132.0
1164.867676 140.0
1164.996704 68.0
1165.044312 152.0
1165.499512 108.0
1165.669434 184.0
1165.839355 244.0
1165.891113 180.0
1166.348999 204.0
1166.627808 84.0
1166.886963 60.0
1167.294067 132.0
1167.358887 144.0
1167.559326 108.0
1167.749756 208.0
1168.103516 184.0
1168.171509 76.0
1168.225952 160.0
1168.361938 84.0
1168.647705 364.0
1168.844604 132.0
1168.975586 136.0
1169.144531 112.0
1169.341919 116.0
1169.403076 104.0
1169.886475 132.0
1170.084595 104.0
1170.238525 124.0
1170.560547 160.0
1170.621826 152.0
1170.94873 104.0
1171.103271 156.0
1171.221191 124.0
1171.370117 180.0
1171.486816 124.0
1171.718506 152.0
1171.820679 240.0
1171.984131 196.0
1172.508057 152.0
1172.577026 164.0
1173.17688 52.0
1173.224609 228.0
1173.464233 148.0
1173.517822 120.0
1173.695068 112.0
1174.104248 124.0
1174.247437 204.0
1174.343018 128.0
1174.520264 148.0
1174.615845 156.0
1174.881836 44.0
1175.182129 168.0
1175.461792 180.0
1175.550537 172.0
1176.048218 156.0
1176.151123 180.0
1176.833862 92.0
1177.004517 204.0
1177.236694 100.0
1177.31189 112.0
1177.578247 176.0
1177.947144 144.0
1178.124756 120.0
1178.93103 148.0
1179.006104 88.0
1179.238525 152.0
1179.313721 200.0
1179.710205 124.0
1179.956299 200.0
1180.106689 100.0
1180.332397 68.0
1180.694824 112.0
1180.804321 152.0
1181.057373 152.0
1181.329834 120.0
1181.378906 160.0
1182.117798 144.0
1182.199951 68.0
1182.322266 180.0
1182.784546 204.0
1182.898071 188.0
1183.05835 144.0
1183.507446 176.0
1183.863525 152.0
1183.945679 120.0
1184.137451 236.0
1184.233276 112.0
1184.575806 68.0
1184.685425 128.0
1184.788208 56.0
1185.911987 156.0
1186.016968 80.0
1186.104004 248.0
1186.343872 128.0
1186.775879 104.0
1186.898682 92.0
1187.098145 136.0
1187.221558 112.0
1187.468506 184.0
1187.533325 104.0
1188.044678 124.0
1188.106445 112.0
1188.223022 108.0
1188.614136 40.0
1188.83374 180.0
1188.950439 80.0
1189.115112 52.0
1189.259277 124.0
1189.369141 112.0
1189.437744 64.0
1189.575073 112.0
1189.73291 148.0
1189.844238 220.0
1190.007568 144.0
1190.076172 124.0
1190.172363 48.0
1190.879761 260.0
1191.044556 92.0
1191.195679 124.0
1191.497925 180.0
1191.841553 104.0
1191.96521 52.0
1192.020142 132.0
1192.086426 136.0
1192.810547 184.0
1192.934326 156.0
1193.064941 104.0
1193.172852 144.0
1193.35376 124.0
1193.436157 128.0
1193.511841 140.0
1193.61499 92.0
1193.762329 200.0
1193.814453 48.0
1193.924438 168.0
1194.082642 240.0
1194.130737 148.0
1194.295898 164.0
1194.509155 128.0
1194.591675 140.0
1194.749878 232.0
1194.798096 112.0
1195.320923 112.0
1195.505981 96.0
1195.644409 108.0
1195.754517 196.0
1195.857788 104.0
1196.064331 136.0
1196.387817 196.0
1196.487793 148.0
1196.917969 104.0
1197.299072 240.0
1197.579102 164.0
1197.689331 100.0
1198.157837 280.0
1198.69519 112.0
1199.122559 72.0
1199.212158 96.0
1199.287964 80.0
1199.411987 108.0
1199.480957 240.0
1199.549927 264.0
1199.867065 152.0
1199.949707 132.0
1200.094604 52.0
1200.274658 200.0
1200.432495 80.0
1200.570312 148.0
1200.770386 140.0
1200.927124 240.0
1201.115234 72.0
1201.204956 48.0
1201.329102 212.0
1201.515381 112.0
1201.621582 152.0
1201.680908 212.0
1201.756836 84.0
1201.864258 172.0
1202.046631 144.0
1202.139771 164.0
1202.405518 128.0
1202.467651 212.0
1202.529785 104.0
1202.640259 144.0
1202.792114 180.0
1202.881836 152.0
1203.053101 148.0
1203.523926 184.0
1203.731079 120.0
1203.855347 132.0
1204.255859 88.0
1204.71875 184.0
1204.76709 204.0
1205.071045 120.0
1205.167847 176.0
1206.322021 100.0
1206.461914 188.0
1206.584717 120.0
1206.743896 164.0
1207.156372 160.0
1207.220825 72.0
1207.290039 120.0
1207.352295 152.0
1207.458374 180.0
1207.474487 60.0
1207.50708 160.0
1207.725708 176.0
1207.884888 96.0
1207.967896 56.0
1208.016357 164.0
1208.154663 108.0
1208.57666 144.0
1208.839722 116.0
1208.89502 152.0
1209.282593 348.0
1209.82251 112.0
1210.182617 60.0
1210.90271 112.0
1211.249146 112.0
1211.366821 40.0
1211.819946 152.0
1211.907227 88.0
1212.108154 36.0
1212.271362 200.0
1212.57251 72.0
1212.641846 180.0
1212.778687 176.0
1212.884399 192.0
1213.016113 244.0
1213.154785 164.0
1213.238037 108.0
1213.342529 56.0
1213.598511 172.0
1213.744141 152.0
1213.813477 224.0
1213.889771 220.0
1214.276123 152.0
1214.395996 124.0
1214.749756 196.0
1215.048096 108.0
1215.30481 168.0
1215.610107 168.0
1216.116821 100.0
1216.290283 96.0
1216.949829 140.0
1217.047119 36.0
1217.109619 132.0
1217.192871 184.0
1217.276245 140.0
1217.401245 216.0
1218.332397 140.0
1218.501831 204.0
1218.616821 88.0
1218.860107 144.0
1219.073486 180.0
1219.464722 56.0
1219.555054 96.0
1219.63147 84.0
1219.694092 116.0
1219.756592 140.0
1220.173706 76.0
1220.222412 48.0
1220.32666 332.0
1220.444946 104.0
1220.570068 84.0
1220.743896 152.0
1220.876099 136.0
1221.168213 88.0
1221.355957 112.0
1221.731567 116.0
1221.905518 144.0
1221.962891 180.0
1222.1073 252.0
1222.237549 128.0
1222.48999 112.0
1223.167114 56.0
1223.290527 112.0
1223.415771 120.0
1223.722168 80.0
1223.840454 104.0
1224.205933 120.0
1224.313965 148.0
1224.502075 104.0
1224.864258 80.0
1225.177734 136.0
1225.508789 340.0
1225.623657 136.0
1225.951172 200.0
1226.032837 72.0
1226.550659 176.0
1226.752808 144.0
1226.829468 164.0
1226.979858 120.0
1227.275635 152.0
1227.533691 148.0
1227.805664 188.0
1228.063721 140.0
1228.272949 144.0
1228.55896 124.0
1228.663696 100.0
1228.838013 112.0
1229.410278 164.0
1229.480103 108.0
1229.828979 184.0
1229.891846 152.0
1230.036133 188.0
1230.192017 172.0
1230.401489 148.0
1230.603882 156.0
1230.827393 132.0
1230.994995 148.0
1231.066406 152.0
1231.344116 140.0
1231.483887 164.0
1231.609619 156.0
1231.840088 64.0
1232.007812 180.0
1232.259277 296.0
1232.559692 128.0
1232.940674 144.0
1233.062866 72.0
1233.650024 208.0
1233.768921 100.0
1233.838867 64.0
1234.195435 220.0
1234.279297 108.0
1234.503052 196.0
1234.61499 128.0
1234.712891 176.0
1234.761841 136.0
1235.351562 108.0
1235.437866 196.0
1235.517334 36.0
1235.58728 108.0
1235.748169 136.0
1236.035156 208.0
1236.468994 152.0
1236.559937 140.0
1236.657959 112.0
1237.036011 176.0
1237.161987 88.0
1237.310669 168.0
1237.411621 92.0
1237.477051 88.0
1237.645142 160.0
1237.694092 120.0
1238.093262 88.0
1238.142334 120.0
1238.583496 228.0
1238.695679 176.0
1238.758667 92.0
1238.814697 196.0
1238.912842 360.0
1239.017212 156.0
1239.144043 52.0
1239.424316 200.0
1239.508423 40.0
1239.627441 116.0
1239.76062 116.0
1239.844727 128.0
1240.026978 156.0
1240.07605 132.0
1240.286255 100.0
1240.356445 172.0
1241.134644 196.0
1241.28894 204.0
1241.429199 80.0
1241.499268 84.0
1241.667603 168.0
1242.025269 116.0
1242.123535 148.0
1242.34314 200.0
1242.418213 220.0
1242.565552 108.0
1242.888306 108.0
1242.965454 156.0
1243.028564 44.0
1243.309326 124.0
1243.955078 116.0
1244.081421 152.0
1244.249878 116.0
1244.376343 76.0
1244.998779 204.0
1245.190918 60.0
1245.482666 156.0
1245.638916 196.0
1245.733398 204.0
1245.942505 136.0
1246.097046 156.0
1246.223511 228.0
1246.385132 204.0
1246.771729 60.0
1246.912231 200.0
1246.961426 128.0
1247.066895 164.0
1247.253174 172.0
1247.404297 84.0
1247.530762 108.0
1247.713623 96.0
1248.177612 40.0
1248.416748 52.0
1248.782471 164.0
1248.862549 188.0
1248.945435 184.0
1249.014648 204.0
1249.450806 92.0
1249.577393 176.0
1249.795532 108.0
1249.985474 192.0
1250.112183 108.0
1250.379639 132.0
1250.737427 224.0
1250.956787 80.0
1251.548218 132.0
1251.604614 124.0
1251.731323 136.0
1252.301392 164.0
1252.583496 160.0
1252.956909 36.0
1253.09082 44.0
1253.147095 104.0
1253.372559 180.0
1253.713257 212.0
1253.80249 120.0
1253.908203 156.0
1254.302979 76.0
1254.375977 252.0
1254.796387 156.0
1254.993652 212.0
1255.215454 220.0
1255.311523 160.0
1255.376831 140.0
1255.903564 148.0
1255.967041 84.0
1256.284546 72.0
1256.841919 76.0
1256.940674 196.0
1256.997192 148.0
1257.095947 56.0
1257.409668 132.0
1257.696045 156.0
1257.865234 68.0
1257.914673 92.0
1258.136597 56.0
1258.302979 136.0
1258.50769 76.0
1258.677246 144.0
1258.938477 116.0
1259.12207 44.0
1259.291626 76.0
1259.411743 184.0
1259.581177 136.0
1259.694214 104.0
1259.906128 124.0
1259.962769 52.0
1260.209961 152.0
1260.386597 216.0
1260.564941 196.0
1260.831909 180.0
1260.923706 176.0
1261.029785 80.0
1261.672974 104.0
1261.821533 168.0
1262.108765 184.0
1262.542725 168.0
1262.620605 44.0
1262.695801 220.0
1262.776123 148.0
1263.016602 120.0
1263.28125 240.0
1263.419922 256.0
1263.61084 160.0
1263.674561 128.0
1263.780762 108.0
1263.865601 200.0
1264.274048 240.0
1264.360962 172.0
1264.902832 96.0
1265.26709 116.0
1265.479492 108.0
1265.557373 40.0
1265.878174 180.0
1265.968018 144.0
1266.042114 212.0
1266.227295 80.0
1266.690552 80.0
1266.924316 76.0
1267.037598 236.0
1267.236084 176.0
1267.292725 188.0
1267.654053 80.0
1267.838379 108.0
1267.944702 88.0
1268.008423 120.0
1268.143066 140.0
1268.270752 208.0
1268.405396 152.0
1268.462036 188.0
1268.511719 72.0
1268.747314 192.0
1268.958374 132.0
1269.036377 160.0
1269.305786 144.0
1269.447632 112.0
1269.561157 164.0
1269.688721 44.0
1270.036255 324.0
1270.317627 144.0
1270.376831 224.0
1270.5896 156.0
1270.986938 164.0
1271.208984 208.0
1271.299194 88.0
1271.462402 144.0
1271.512085 128.0
1271.58313 72.0
1271.646973 72.0
1271.732178 160.0
1271.86377 264.0
1272.087036 88.0
1272.158081 116.0
1272.250366 172.0
1272.349365 140.0
1272.449097 60.0
1272.603149 164.0
1272.806641 80.0
1272.953247 152.0
1273.47168 84.0
1274.018677 92.0
1274.267334 132.0
1274.470215 152.0
1274.565796 140.0
1274.821655 184.0
1275.049072 88.0
1275.363525 96.0
1275.418701 160.0
1275.880737 80.0
1276.155396 136.0
1276.278931 76.0
1276.442383 104.0
1276.684204 188.0
1276.997192 124.0
1277.160767 156.0
1277.395508 188.0
1277.950439 120.0
1278.04248 140.0
1278.149658 156.0
1278.249268 88.0
1278.299072 136.0
1278.437744 196.0
1278.526855 92.0
1278.678955 192.0
1278.845459 152.0
1279.117554 188.0
1279.193604 208.0
1279.26709 144.0
1279.367188 144.0
1279.39856 60.0
1279.419922 112.0
1279.523438 200.0
1279.576782 200.0
1279.672852 64.0
1279.785278 132.0
1279.993286 136.0
1280.29248 36.0
1280.406372 128.0
1280.541748 244.0
1280.805298 44.0
1280.884521 184.0
1281.09729 136.0
1281.182861 88.0
1281.482056 172.0
1281.671143 184.0
1281.759888 236.0
1281.859741 188.0
1281.923828 128.0
1282.055542 132.0
1282.337158 112.0
1282.551025 204.0
1282.600952 132.0
1282.811768 204.0
1282.950195 152.0
1283.042969 184.0
1283.13269 192.0
1283.378052 172.0
1283.467529 168.0
1283.541992 172.0
1283.969971 144.0
1284.312256 280.0
1284.612427 148.0
1284.78064 148.0
1285.047119 100.0
1285.13269 104.0
1285.510864 284.0
1285.589355 168.0
1285.717896 120.0
1285.860596 92.0
1285.946289 188.0
1286.003296 192.0
1286.224609 104.0
1286.274536 72.0
1286.347168 200.0
1286.431641 212.0
1286.510132 240.0
1286.781494 76.0
1287.063599 148.0
1287.14563 156.0
1287.217041 172.0
1287.309814 160.0
1287.421387 124.0
1288.195557 140.0
1288.259888 128.0
1288.309814 224.0
1288.371948 184.0
1288.515747 224.0
1288.588501 160.0
1288.657227 160.0
1288.795654 124.0
1288.974365 212.0
1289.24585 116.0
1289.824829 136.0
1289.949097 72.0
1290.053589 72.0
1290.275269 64.0
1290.435425 132.0
1290.804321 84.0
1291.479858 212.0
1291.533813 176.0
1291.791382 152.0
1291.898682 164.0
1292.367554 136.0
1292.420898 180.0
1292.578369 108.0
1292.700073 88.0
1292.921875 188.0
1293.074219 140.0
1293.20813 164.0
1293.286865 92.0
1294.002808 160.0
1294.110229 88.0
1294.578979 116.0
1294.718872 148.0
1295.091309 200.0
1295.164917 120.0
1295.994019 96.0
1296.173096 156.0
1296.256592 160.0
1296.396729 252.0
1296.574463 160.0
1296.631836 212.0
1296.717773 60.0
1296.822144 128.0
1296.904175 144.0
1297.018799 116.0
1297.112061 268.0
1297.190918 152.0
1297.413086 100.0
1297.470459 88.0
1297.695679 144.0
1297.95459 188.0
1298.177124 108.0
1298.53894 100.0
1299.087036 164.0
1299.256226 108.0
1299.335205 184.0
1299.521729 144.0
1299.747559 212.0
1299.950439 128.0
1300.127197 232.0
1300.244263 188.0
1300.270508 128.0
1300.784912 116.0
1300.842285 144.0
1301.079224 228.0
1301.208374 108.0
1301.258667 120.0
1301.323364 128.0
1301.540405 136.0
1302.113281 160.0
1302.27124 72.0
1302.364624 120.0
1302.46521 84.0
1302.759766 148.0
1303.312988 160.0
1303.772827 228.0
1303.866333 140.0
1304.067505 116.0
1304.398193 84.0
1304.743286 152.0
1304.97522 156.0
1305.23938 120.0
1305.663696 248.0
1305.807495 160.0
1305.872192 180.0
1305.984985 176.0
1306.208008 160.0
1306.318237 208.0
1306.440552 112.0
1306.634766 80.0
1306.742676 88.0
1306.915405 36.0
1307.210449 112.0
1307.296753 164.0
1307.577393 140.0
1307.631836 80.0
1307.714233 68.0
1307.973389 68.0
1308.11731 152.0
1308.246826 196.0
1308.729248 152.0
1309.185303 208.0
1309.298218 108.0
1309.453735 112.0
1309.859985 48.0
1310.004028 196.0
1310.198608 108.0
1310.277832 144.0
1310.486816 220.0
1310.710205 148.0
1310.832642 72.0
1310.947998 36.0
1311.02002 40.0
1311.128174 56.0
1311.207397 120.0
1311.329956 88.0
1311.401978 108.0
1311.856079 144.0
1312.151733 196.0
1312.202148 104.0
1312.495117 136.0
1312.584351 132.0
1312.800659 148.0
1313.01709 128.0
1313.312744 196.0
1313.39209 172.0
1313.504395 168.0
1313.630127 136.0
1313.922607 204.0
1314.019775 144.0
1314.178467 148.0
1314.279541 88.0
1314.820679 124.0
1314.907349 132.0
1315.320923 108.0
1315.398193 184.0
1315.535278 172.0
1315.701416 124.0
1315.759155 116.0
1315.834839 296.0
1315.957397 140.0
1315.984253 172.0
1316.289673 160.0
1316.835083 252.0
1317.068359 172.0
1317.160156 252.0
1317.456299 152.0
1317.947632 92.0
1318.345093 172.0
1318.609375 184.0
1318.706421 156.0
1318.838257 180.0
1319.294678 32.0
1319.364258 100.0
1319.414917 116.0
1319.769165 128.0
1319.877563 180.0
1319.964355 136.0
1320.032715 124.0
1320.289795 120.0
1320.437256 156.0
1320.649536 136.0
1320.823853 176.0
1321.288086 152.0
1321.734009 216.0
1321.895874 160.0
1322.156372 160.0
1322.272217 196.0
1322.33728 104.0
1322.395264 72.0
1322.445923 164.0
1322.532715 132.0
1322.945312 72.0
1323.017822 152.0
1323.119141 132.0
1323.372559 104.0
1323.423218 124.0
1323.579956 180.0
1323.683838 120.0
1324.028931 132.0
1324.103882 100.0
1324.223389 128.0
1324.458862 96.0
1324.639893 132.0
1324.690674 192.0
1324.99292 176.0
1325.093994 188.0
1325.190552 204.0
1325.422363 88.0
1325.567383 88.0
1325.744385 104.0
1326.18335 36.0
1326.313843 136.0
1326.940308 136.0
1327.072388 132.0
1327.176636 72.0
1327.355347 252.0
1327.437622 60.0
1327.517456 172.0
1327.618896 80.0
1327.849976 216.0
1327.923584 112.0
1328.017822 192.0
1328.068604 200.0
1328.264526 72.0
1328.576416 60.0
1328.670776 96.0
1328.765015 96.0
1328.837646 156.0
1328.902954 212.0
1329.055298 148.0
1329.265747 52.0
1329.345581 156.0
1329.635864 288.0
1329.693848 128.0
1329.744751 136.0
1329.984253 144.0
1330.114624 96.0
1330.238281 180.0
1330.325439 32.0
1330.448853 48.0
1330.56897 136.0
1330.840942 148.0
1331.036987 120.0
1331.117432 48.0
1331.201294 172.0
1331.29834 80.0
1331.443604 160.0
1331.623901 184.0
1331.719604 64.0
1331.995605 200.0
1332.177246 56.0
1332.249878 132.0
1332.382935 244.0
1332.547729 72.0
1332.647339 188.0
1332.823853 164.0
1332.918335 112.0
1333.04187 168.0
1333.201782 152.0
1333.358398 96.0
1333.550659 88.0
1334.359619 192.0
1334.662964 116.0
1334.96106 168.0
1335.186523 132.0
1335.28833 164.0
1335.501953 144.0
1335.625122 196.0
1335.678101 160.0
1335.924194 148.0
1336.01001 148.0
1336.154053 172.0
1336.314087 244.0
1336.568726 152.0
1336.628906 304.0
1336.757935 148.0
1336.859863 156.0
1336.932617 148.0
1337.092651 204.0
1337.231567 92.0
1337.40564 208.0
1337.597046 228.0
1337.733276 144.0
1337.861328 188.0
1338.177368 68.0
1338.250122 104.0
1338.337524 132.0
1338.409668 240.0
1338.505005 180.0
1338.553589 120.0
1338.650635 168.0
1338.723511 180.0
1338.818115 128.0
1338.951294 80.0
1339.120117 120.0
1339.175415 152.0
1339.480957 96.0
1339.553833 136.0
1339.663086 132.0
1339.845215 176.0
1340.027344 248.0
1340.12207 168.0
1340.202271 64.0
1340.267822 84.0
1340.610352 92.0
1340.683228 180.0
1340.761353 256.0
1340.832642 176.0
1341.011108 196.0
1341.105957 128.0
1341.171509 136.0
1341.390259 124.0
1341.448486 64.0
1341.499512 84.0
1341.601562 136.0
1341.659912 156.0
1342.137939 196.0
1342.396362 168.0
1342.479614 236.0
1342.542236 156.0
1342.863159 156.0
1343.25708 92.0
1343.33728 108.0
1343.470459 76.0
1343.519653 128.0
1343.731201 120.0
1343.848022 216.0
1343.913696 124.0
1344.066895 180.0
1344.256592 188.0
1344.32959 156.0
1344.438354 208.0
1344.652588 112.0
1344.701782 148.0
1345.154297 120.0
1345.210938 132.0
1345.306885 188.0
1345.417114 152.0
1345.490234 108.0
1345.555908 180.0
1345.652466 248.0
1346.359131 96.0
1346.490601 180.0
1346.762939 152.0
1346.899658 216.0
1347.064697 136.0
1347.133423 120.0
1347.213745 120.0
1347.391235 108.0
1347.54248 164.0
1347.637451 156.0
1347.6875 104.0
1347.885986 40.0
1347.958984 172.0
1348.053955 172.0
1348.163574 124.0
1348.551025 128.0
1348.792236 168.0
1349.022339 160.0
1349.150391 132.0
1349.312378 128.0
1349.372559 188.0
1349.464844 152.0
1349.577393 136.0
1349.998535 92.0
1350.064453 176.0
1350.261841 144.0
1350.422729 52.0
1350.690796 216.0
1350.986938 168.0
1351.067993 176.0
1351.17627 188.0
1351.348145 240.0
1351.474609 164.0
1352.06897 88.0
1352.272583 188.0
1352.300293 152.0
1352.553101 116.0
1352.661865 136.0
1352.95874 192.0
1353.14502 132.0
1353.203613 76.0
1353.328125 144.0
1353.394043 128.0
1353.547729 144.0
1354.042358 60.0
1354.192261 56.0
1354.250854 88.0
1354.338745 108.0
1354.492554 172.0
1354.770996 168.0
1354.855225 192.0
1355.151978 172.0
1355.294678 140.0
1355.532959 156.0
1355.87207 164.0
1355.983398 120.0
1356.119263 88.0
1356.192627 156.0
1356.295044 160.0
1356.679199 124.0
1356.734619 152.0
1356.778198 184.0
1357.057617 196.0
1357.152954 108.0
1357.695557 116.0
1357.857178 152.0
1358.018311 236.0
1358.064331 140.0
1358.200073 140.0
1358.275024 172.0
1358.473145 44.0
1359.207031 172.0
1359.412231 136.0
1359.683838 132.0
1359.735229 188.0
1359.904053 80.0
1360.303101 140.0
1360.52063 164.0
1360.596069 156.0
1360.724609 164.0
1360.836304 184.0
1360.97583 136.0
1361.193359 312.0
1361.335693 108.0
1361.519287 92.0
1361.842407 140.0
1362.10083 188.0
1362.290527 160.0
1362.532959 176.0
1362.672607 140.0
1362.8396 200.0
1362.887451 128.0
1362.981201 96.0
1363.088623 48.0
1363.10791 164.0
1363.488281 108.0
1363.566406 312.0
1363.716064 172.0
1363.848022 176.0
1364.03894 172.0
1364.204224 168.0
1364.583496 216.0
1364.755005 132.0
1364.877686 164.0
1365.458618 96.0
1365.510132 152.0
1366.00293 28.0
1366.054443 152.0
1366.119873 148.0
1366.223633 72.0
1366.454346 168.0
1366.639282 156.0
1366.854614 212.0
1366.937012 152.0
1366.974854 160.0
1367.091919 124.0
1367.245239 96.0
1367.272583 80.0
1367.301147 140.0
1367.401001 96.0
1367.717529 168.0
1367.813232 136.0
1368.063477 180.0
1368.11499 188.0
1368.358032 28.0
1368.420532 116.0
1368.486328 160.0
1368.578857 236.0
1368.762939 136.0
1369.054443 124.0
1369.204834 68.0
1369.359497 160.0
1369.707031 68.0
1369.786743 64.0
1369.867798 140.0
1369.958862 96.0
1370.00769 128.0
1370.06665 100.0
1370.22876 92.0
1370.390869 104.0
1370.538208 76.0
1370.618042 144.0
1370.759277 140.0
1370.825562 164.0
1371.230957 248.0
1371.449829 196.0
1371.702637 148.0
1371.767334 140.0
1371.842773 176.0
1371.894287 104.0
1371.982422 152.0
1372.056519 180.0
1372.211426 128.0
1372.340698 156.0
1372.395752 184.0
1372.483521 184.0
1372.67395 188.0
1372.897095 84.0
1372.963501 108.0
1373.044678 120.0
1373.295044 72.0
1373.393555 212.0
1373.649536 116.0
1373.828125 164.0
1373.885498 84.0
1374.438965 116.0
1374.645508 152.0
1374.77832 104.0
1374.837402 116.0
1374.906494 304.0
1375.066162 148.0
1375.297974 132.0
1375.367188 240.0
1375.529175 132.0
1375.604492 108.0
1375.848633 268.0
1376.144043 264.0
1376.646118 128.0
1376.697876 140.0
1376.838135 52.0
1377.133545 40.0
1377.302734 112.0
1377.443848 232.0
1377.510254 168.0
1377.658081 176.0
1377.717163 60.0
1377.828003 148.0
1377.946167 156.0
1378.322998 96.0
1378.481079 100.0
1378.589111 156.0
1378.685181 120.0
1378.794067 336.0
1378.993652 176.0
1379.019287 132.0
1379.049927 204.0
1379.12854 148.0
1379.217285 120.0
1379.420654 144.0
1379.549927 96.0
1379.712524 200.0
1379.88269 120.0
1379.980835 100.0
1380.185791 112.0
1380.28186 240.0
1380.341064 128.0
1380.555542 76.0
1380.673828 160.0
1380.991943 132.0
1381.198364 140.0
1381.290283 124.0
1381.391357 148.0
1381.500366 108.0
1381.614136 136.0
1381.694702 96.0
1381.970337 180.0
1382.168213 124.0
1382.323608 64.0
1382.43457 184.0
1382.508667 132.0
1382.612183 172.0
1382.671387 96.0
1382.723267 216.0
1382.968994 156.0
1383.04895 144.0
1383.148071 172.0
1383.300537 228.0
1383.412598 160.0
1383.559692 200.0
1383.759644 184.0
1383.841064 88.0
1384.041016 252.0
1384.18457 184.0
1384.307495 96.0
1384.421021 152.0
1384.507446 132.0
1384.640869 180.0
1384.744507 92.0
1384.900024 108.0
1384.988892 200.0
1385.418579 176.0
1385.514038 172.0
1385.670532 192.0
1386.094482 140.0
1386.199707 28.0
1386.315186 136.0
1386.433716 116.0
1386.552368 112.0
1386.811768 208.0
1387.034058 92.0
1387.20459 64.0
1387.501465 108.0
1387.787231 192.0
1387.902954 228.0
1387.968262 124.0
1388.092773 232.0
1388.287109 68.0
1388.379517 216.0
1388.457764 256.0
1388.51709 116.0
1388.613403 116.0
1388.695068 180.0
1388.858276 144.0
1388.925049 164.0
1389.459106 140.0
1389.770752 136.0
1389.841675 188.0
1390.134399 192.0
1390.356934 168.0
1390.423828 76.0
1390.498047 112.0
1390.549927 200.0
1390.609375 96.0
1390.661255 152.0
1390.809692 176.0
1390.944946 148.0
1391.118652 176.0
1391.170776 156.0
1391.43335 44.0
1391.629761 168.0
1391.693237 156.0
1391.893677 168.0
1392.03479 164.0
1392.141724 140.0
1392.524902 156.0
1392.599243 128.0
1392.655151 76.0
1392.836914 104.0
1392.989014 208.0
1393.141479 104.0
1393.304932 192.0
1393.564941 136.0
1393.828003 188.0
1394.319214 128.0
1394.389893 212.0
1394.479004 144.0
1394.598999 164.0
1394.672241 48.0
1394.79126 124.0
1394.873047 136.0
1395.155518 148.0
1395.296753 168.0
1395.356201 184.0
1395.439209 124.0
1395.518433 212.0
1395.616455 212.0
1395.794922 176.0
1396.025513 100.0
1396.270874 108.0
1396.389893 176.0
1396.464233 164.0
1396.754395 136.0
1397.002808 152.0
1397.089111 184.0
1397.20813 92.0
1397.312256 56.0
1397.379272 220.0
1397.474121 160.0
1397.602539 140.0
1397.795898 80.0
1397.907593 144.0
1398.04895 180.0
1398.108521 48.0
1398.257324 204.0
1398.514893 100.0
1398.569946 168.0
1398.674683 160.0
1398.838013 176.0
1398.934692 84.0
1399.113403 76.0
1399.231201 236.0
1399.493164 120.0
1399.559082 196.0
1399.725098 192.0
1400.245239 348.0
1400.416626 164.0
1400.696533 96.0
1400.781616 48.0
1401.005005 92.0
1401.183838 136.0
1401.390625 228.0
1401.623291 128.0
1401.704834 108.0
1402.052734 168.0
1402.137695 188.0
1402.406006 268.0
1402.495483 120.0
1402.659424 84.0
1402.748901 228.0
1402.848145 180.0
1402.935303 92.0
1402.998901 144.0
1403.062012 128.0
1403.255859 140.0
1403.363281 168.0
1403.501953 188.0
1403.590332 196.0
1403.725586 176.0
1403.800171 136.0
1403.86731 212.0
1403.986694 128.0
1404.170532 208.0
1404.309326 92.0
1404.552734 196.0
1404.643066 200.0
1404.829468 152.0
1405.172363 212.0
1405.292114 156.0
1405.359253 144.0
1405.418945 264.0
1405.545776 324.0
1405.645874 116.0
1405.715942 200.0
1405.821899 112.0
1405.920044 192.0
1406.114014 144.0
1406.221069 132.0
1406.366699 104.0
1406.465332 76.0
1406.67395 176.0
1406.739014 96.0
1406.81189 232.0
1407.031128 52.0
1407.12439 212.0
1407.367065 132.0
1407.466187 196.0
1407.620972 76.0
1407.830078 176.0
1408.039185 136.0
1408.143799 124.0
1408.225952 120.0
1408.303589 152.0
1408.367798 132.0
1408.420166 124.0
1408.494873 144.0
1408.634155 220.0
1408.808594 60.0
1408.890747 192.0
1408.958008 52.0
1409.210571 124.0
1409.36377 140.0
1409.421265 156.0
1409.504761 176.0
1409.669678 148.0
1409.794922 180.0
1409.914429 108.0
1410.036255 160.0
1410.333008 120.0
1410.777466 160.0
1411.000854 216.0
1411.029907 72.0
1411.055786 232.0
1411.113892 176.0
1411.315552 176.0
1411.372192 128.0
1411.454468 168.0
1411.701172 100.0
1411.760986 280.0
1411.840088 264.0
1412.060181 152.0
1412.127563 192.0
1412.339722 168.0
1412.434204 136.0
1412.510376 152.0
1412.568848 152.0
1412.628662 92.0
1412.763306 52.0
1412.852295 116.0
1413.00061 68.0
1413.062622 192.0
1413.182373 176.0
1413.236938 144.0
1413.534058 112.0
1413.623779 128.0
1413.687866 228.0
1413.953369 120.0
1414.095337 160.0
1414.248047 136.0
1414.379761 144.0
1414.469604 96.0
1414.589355 164.0
1414.741577 120.0
1414.806396 144.0
1415.113403 184.0
1415.160767 136.0
1415.278198 40.0
1415.368042 40.0
1415.480347 100.0
1415.555176 216.0
1415.630127 132.0
1415.734985 64.0
1415.839844 76.0
1415.999878 208.0
1416.072021 96.0
1416.491455 108.0
1416.584595 180.0
1416.641235 108.0
1416.768555 172.0
1416.896851 144.0
1417.030884 136.0
1417.113281 144.0
1417.188232 140.0
1417.293091 112.0
1417.510376 108.0
1417.583008 128.0
1417.772705 56.0
1417.945312 116.0
1418.02002 148.0
1418.361206 160.0
1418.552246 384.0
1418.835571 196.0
1419.158569 168.0
1419.264526 160.0
1419.519409 196.0
1419.654419 164.0
1419.804443 256.0
1419.899658 160.0
1420.141357 200.0
1420.190552 132.0
1420.291992 124.0
1420.351929 140.0
1420.449463 148.0
1420.934814 144.0
1421.168335 204.0
1421.346436 216.0
1421.567383 180.0
1421.852783 176.0
1422.028687 176.0
1422.197876 168.0
1422.383179 144.0
1422.558105 144.0
1423.053711 136.0
1423.18042 136.0
1423.59436 144.0
1423.684448 140.0
1423.750122 168.0
1423.791992 184.0
1423.916992 100.0
1424.022461 48.0
1424.142944 168.0
1424.197998 148.0
1424.315308 152.0
1424.424805 188.0
1424.518188 216.0
1424.627075 112.0
1424.776001 276.0
1424.838379 176.0
1424.889526 188.0
1424.969238 188.0
1425.059082 168.0
1425.188843 216.0
1425.276978 160.0
1425.339355 256.0
1425.46814 168.0
1425.521606 244.0
1425.602051 196.0
1425.900757 160.0
1426.036011 132.0
1426.35498 92.0
1426.376587 132.0
1426.442017 212.0
1426.562256 132.0
1426.614868 136.0
1426.735107 124.0
1426.998291 100.0
1427.111084 164.0
1427.208862 148.0
1427.269043 180.0
1427.329102 164.0
1427.479492 168.0
1427.576538 288.0
1427.697632 108.0
1428.116821 340.0
1428.3396 156.0
1428.525024 76.0
1428.652954 36.0
1428.720581 116.0
1428.780762 152.0
1428.901245 104.0
1429.018555 160.0
1429.19458 136.0
1429.32251 80.0
1429.401489 140.0
1429.446655 132.0
1429.858643 132.0
1430.120239 96.0
1430.281982 228.0
1430.368652 108.0
1430.564453 56.0
1430.722534 104.0
1430.827881 156.0
1431.068848 56.0
1431.15918 188.0
1431.21875 236.0
1431.327515 56.0
1431.532593 200.0
1431.649414 180.0
1431.723999 144.0
1431.806885 92.0
1432.070435 96.0
1432.130737 200.0
1432.360596 76.0
1432.432007 120.0
1432.509399 176.0
1432.86145 132.0
1432.946411 160.0
1433.328613 68.0
1433.808838 116.0
1434.104858 212.0
1434.203491 140.0
1434.321777 176.0
1434.421387 168.0
1434.481812 168.0
1434.651001 340.0
1434.797119 92.0
1434.840332 176.0
1434.943237 188.0
1435.077393 168.0
1435.356323 148.0
1435.443726 344.0
1435.582031 156.0
1435.710815 176.0
1435.76355 132.0
1436.253784 176.0
1436.359497 84.0
1436.439209 136.0
1436.555542 64.0
1436.683838 112.0
1436.851807 180.0
1437.053467 100.0
1437.12146 144.0
1437.249756 128.0
1437.3396 132.0
1437.468506 300.0
1437.528931 68.0
1437.717529 64.0
1437.830811 160.0
1437.928955 120.0
1438.117554 108.0
1438.233276 120.0
1438.532715 188.0
1439.091431 240.0
1439.19165 192.0
1439.355225 120.0
1439.831543 156.0
1440.020264 188.0
1440.092529 228.0
1440.254517 56.0
1440.334106 168.0
1440.445068 120.0
1440.558838 252.0
1440.640869 144.0
1440.707764 164.0
1440.76062 56.0
1441.01416 224.0
1441.300537 116.0
1441.440674 100.0
1441.58374 124.0
1441.894043 112.0
1442.028198 172.0
1442.12085 52.0
1442.289307 124.0
1442.451172 108.0
1442.695312 152.0
1442.882568 172.0
1442.944824 112.0
1443.035522 124.0
1443.116089 152.0
1443.239746 80.0
1443.323853 156.0
1443.451416 212.0
1443.587524 304.0
1443.685669 268.0
1443.803589 148.0
1444.056396 144.0
1444.283325 100.0
1444.419556 80.0
1444.616211 144.0
1444.790161 212.0
1445.045898 192.0
1445.131592 172.0
1445.236572 64.0
1445.321533 92.0
1445.61499 76.0
1445.840942 136.0
1445.906006 176.0
1446.067627 132.0
1446.144775 164.0
1446.481934 80.0
1446.923218 152.0
1447.027954 128.0
1447.136475 180.0
1447.216309 152.0
1447.238892 84.0
1447.26709 112.0
1447.348511 292.0
1447.435303 144.0
1447.49231 76.0
1448.014893 92.0
1448.256348 164.0
1448.355713 108.0
1448.476318 132.0
1448.718262 156.0
1449.229004 216.0
1449.304077 192.0
1449.363403 92.0
1449.453247 164.0
1449.593506 140.0
1449.666504 36.0
1449.770752 128.0
1449.84082 156.0
1449.937622 92.0
1450.197021 184.0
1450.341064 180.0
1450.46228 188.0
1450.712524 100.0
1450.81665 196.0
1450.917969 164.0
1451.144653 192.0
1451.24646 176.0
1451.429688 156.0
1451.508545 72.0
1451.569214 340.0
1451.781616 316.0
1452.054688 56.0
1452.14563 72.0
1452.203857 144.0
1452.289795 108.0
1452.456665 104.0
1452.608398 200.0
1452.692627 108.0
1452.798828 152.0
1453.066162 184.0
1453.132324 160.0
1453.291138 200.0
1453.420166 164.0
1453.556763 128.0
1453.678345 216.0
1453.848267 200.0
1454.126343 148.0
1454.231445 112.0
1454.355225 116.0
1454.467529 180.0
1454.551025 128.0
1454.64209 80.0
1454.806519 164.0
1454.953369 120.0
1455.165894 116.0
1455.25708 152.0
1455.393677 92.0
1455.492432 172.0
1455.560791 152.0
1455.667114 168.0
1455.823242 92.0
1455.879761 232.0
1455.946655 152.0
1456.016479 152.0
1456.103271 168.0
1456.151855 428.0
1456.264404 268.0
1456.635132 188.0
1456.717529 164.0
1456.901733 132.0
1457.057007 152.0
1457.399048 124.0
1457.459839 92.0
1457.570679 136.0
1457.634644 140.0
1457.758301 180.0
1457.892944 220.0
1457.968994 144.0
1458.23877 124.0
1458.316284 204.0
1458.537476 224.0
1458.603516 100.0
1458.664551 188.0
1458.681274 96.0
1458.709351 160.0
1458.774658 120.0
1458.825195 112.0
1458.987549 216.0
1459.040771 140.0
1459.177612 164.0
1459.312012 208.0
1459.443726 64.0
1459.575439 140.0
1459.664185 104.0
1459.998901 136.0
1460.13501 120.0
1460.329468 136.0
1460.733032 120.0
1460.851318 160.0
1461.010498 68.0
1461.154419 148.0
1461.177002 136.0
1461.214111 132.0
1461.237427 236.0
1461.4823 132.0
1461.624146 92.0
1461.723999 176.0
1461.832275 192.0
1461.918823 120.0
1462.148682 160.0
1462.201416 184.0
1462.376587 116.0
1462.600952 60.0
1462.692383 144.0
1462.859863 144.0
1462.935913 172.0
1463.04248 156.0
1463.248047 136.0
1463.369873 52.0
1463.488281 236.0
1463.621216 136.0
1463.765869 88.0
1463.864868 228.0
1464.012451 240.0
1464.100952 96.0
1464.21521 156.0
1464.29895 156.0
1464.48938 132.0
1464.542725 60.0
1464.663086 164.0
1464.692749 132.0
1464.839722 128.0
1464.938843 204.0
1464.999756 204.0
1465.068359 160.0
1465.167358 128.0
1465.24353 172.0
1465.312134 96.0
1465.426392 68.0
1465.502563 172.0
1465.593994 52.0
1465.754028 100.0
1465.822632 296.0
1466.02771 168.0
1466.157959 128.0
1466.231812 208.0
1466.302734 52.0
1466.432373 100.0
1466.493286 196.0
1466.580444 184.0
1466.691528 108.0
1466.815796 144.0
1466.897339 108.0
1467.019287 104.0
1467.179077 108.0
1467.300415 128.0
1467.461426 36.0
1467.751221 68.0
1467.850342 148.0
1467.935791 124.0
1468.048584 188.0
1468.132568 196.0
1468.574829 160.0
1468.689331 184.0
1468.94104 176.0
1469.002075 108.0
1469.192749 124.0
1469.299561 48.0
1469.353027 188.0
1469.421631 308.0
1469.601074 168.0
1469.80188 148.0
1469.860229 176.0
1469.986328 80.0
1470.128784 120.0
1470.2229 84.0
1470.413696 184.0
1470.5625 160.0
1470.726685 148.0
1470.780029 164.0
1470.932739 88.0
1471.001465 112.0
1471.177002 112.0
1471.337402 80.0
1471.398438 132.0
1471.497681 100.0
1471.555908 248.0
1471.613159 136.0
1471.787842 116.0
1471.871826 96.0
1472.101074 172.0
1472.219849 160.0
1472.296265 168.0
1472.482788 36.0
1472.643188 120.0
1472.727173 216.0
1472.834106 128.0
1473.058105 212.0
1473.368896 228.0
1473.557861 152.0
1473.596558 192.0
1473.750854 128.0
1473.834961 168.0
1473.957153 172.0
1474.018799 180.0
1474.087158 172.0
1474.23999 156.0
1474.461304 88.0
1474.487427 84.0
1474.502075 120.0
1474.721436 116.0
1474.87439 184.0
1474.933716 188.0
1475.011963 92.0
1475.103638 176.0
1475.308594 128.0
1475.531738 72.0
1475.735229 272.0
1475.837646 64.0
1476.005859 124.0
1476.090454 240.0
1476.189331 156.0
1476.420776 124.0
1476.495239 196.0
1476.732666 104.0
1476.915894 144.0
1477.048706 184.0
1477.238037 164.0
1477.405518 184.0
1477.566162 132.0
1477.657959 88.0
1477.734497 172.0
1477.960083 132.0
1478.025269 160.0
1478.140015 188.0
1478.277832 136.0
1478.432007 168.0
1478.606934 144.0
1478.76001 100.0
1478.869995 168.0
1478.936035 140.0
1479.004883 136.0
1479.179199 164.0
1479.369263 192.0
1479.490112 92.0
1479.647949 156.0
1479.716919 52.0
1479.923584 180.0
1479.992554 92.0
1480.099731 176.0
1480.15332 148.0
1480.298828 48.0
1480.428955 100.0
1480.536255 148.0
1480.628174 144.0
1480.719971 108.0
1480.788086 108.0
1481.243652 192.0
1481.290283 124.0
1481.363403 128.0
1481.608643 216.0
1481.7771 176.0
1481.876709 96.0
1482.106689 40.0
1482.168213 132.0
1482.261597 144.0
1482.452515 128.0
1482.574097 176.0
1482.819336 100.0
1482.935181 288.0
1483.072266 88.0
1483.133545 200.0
1483.233276 96.0
1483.332886 152.0
1483.47522 156.0
1483.659668 116.0
1483.754517 148.0
1483.93689 56.0
1484.030518 256.0
1484.22229 184.0
1484.345703 176.0
1484.408447 104.0
1484.475342 68.0
1484.644043 152.0
1484.843384 236.0
1484.897095 140.0
1484.996826 100.0
1485.142578 212.0
1485.392334 144.0
1485.518433 136.0
1485.595215 84.0
1485.820557 168.0
1485.955688 160.0
1486.046021 252.0
1486.130859 152.0
1486.231934 192.0
1486.511841 248.0
1486.761475 112.0
1486.884277 172.0
1486.937988 172.0
1487.099121 124.0
1487.267456 56.0
1487.281738 128.0
1487.314697 160.0
1487.421509 112.0
1487.475342 116.0
1487.536743 76.0
1487.602661 148.0
1487.724243 104.0
1487.787964 152.0
1487.838501 232.0
1487.958984 168.0
1488.104858 148.0
1488.227661 164.0
1488.304443 116.0
1488.388916 132.0
1488.544067 160.0
1488.653076 220.0
1488.765259 168.0
1488.891846 116.0
1488.987915 216.0
1489.11853 148.0
1489.345581 160.0
1489.450439 188.0
1489.571655 168.0
1489.720459 156.0
1489.833496 160.0
1490.060059 188.0
1490.240112 172.0
1490.32666 332.0
1490.585938 324.0
1490.666016 176.0
1490.770264 148.0
1490.839478 180.0
1490.916382 148.0
1491.077759 160.0
1491.239136 136.0
1491.331421 392.0
1491.414429 200.0
1491.525024 144.0
1491.600342 152.0
1491.684937 352.0
1491.744019 128.0
1491.803467 364.0
1491.930908 172.0
1491.988403 120.0
1492.160034 148.0
1492.471558 196.0
1492.615234 228.0
1492.669067 132.0
1493.015137 132.0
1493.184326 124.0
1493.314331 152.0
1493.438232 68.0
1493.599731 112.0
1493.67395 152.0
1493.930542 88.0
1493.992065 108.0
1494.174438 188.0
1494.344849 356.0
1494.509888 52.0
1494.561401 144.0
1494.700928 124.0
1494.769165 108.0
1494.95459 136.0
1495.177002 116.0
1495.492554 168.0
1495.731201 116.0
1495.885132 168.0
1496.023804 156.0
1496.093018 148.0
1496.170044 120.0
1496.447144 188.0
1496.717529 144.0
1496.858154 204.0
1496.998535 188.0
1497.209595 204.0
1497.340454 160.0
1497.624146 144.0
1497.948975 200.0
1498.095337 152.0
1498.24939 196.0
1498.311035 140.0
1498.418945 256.0
1498.680908 108.0
1498.76355 236.0
1498.930786 180.0
1499.019897 168.0
1499.181763 176.0
1499.279175 184.0
1499.29248 176.0
1499.366699 184.0
1499.497803 120.0
1499.559448 216.0
1499.644165 164.0
1499.725098 240.0
1499.829224 156.0
1499.895508 180.0
1500.284058 160.0
1500.561646 80.0
1500.623291 128.0
1500.70813 136.0
1500.792847 92.0
1500.931641 76.0
1501.113525 120.0
1501.272217 124.0
1501.59082 136.0
1501.716309 192.0
1501.841797 256.0
1501.903442 28.0
1502.227417 80.0
1502.362671 188.0
1502.378052 132.0
1502.466553 152.0
1502.704712 144.0
1502.824951 204.0
1503.086548 204.0
1503.328125 200.0
1503.473755 144.0
1503.546875 96.0
1503.616333 52.0
1503.724365 132.0
1503.793823 76.0
1503.871704 144.0
1503.986816 120.0
1504.141235 84.0
1504.203003 100.0
1504.796875 200.0
1504.905518 56.0
1505.144897 120.0
1505.305664 204.0
1505.356934 116.0
