>compound MLS000859895-01!23142-01-0
>formula C20H31NO3
>ionization [M+H]+
>parentmass 334.237823
#inchi InChI=1S/C20H31NO3/c1-3-21(4-2)14-15-23-16-17-24-19(22)20(12-8-9-13-20)18-10-6-5-7-11-18/h5-7,10-11H,3-4,8-9,12-17H2,1-2H3
#inchikey CFJMRBQWBDQYMK
#origInchi InChI=1S/C20H31NO3.C6H8O7/c1-3-21(4-2)14-15-23-16-17-24-19(22)20(12-8-9-13-20)18-10-6-5-7-11-18;7-3(8)1-6(13,5(11)12)2-4(9)10/h5-7,10-11H,3-4,8-9,12-17H2,1-2H3;13H,1-2H2,(H,7,8)(H,9,10)(H,11,12)
#Ion_Source LC-ESI
#Instrument qTof
#Compound_Source NIH Pharmacologically Active Library
#PI Dorrestein
#Data_Collector VP/LMS
#Scan -1
#Precursor_MZ 334.242
#ExactMass 333.23
#Charge 1
#CAS_Number N/A
#Pubmed_ID N/A
#Smiles CCN(CC)CCOCCOC(=O)C1(CCCC1)c2ccccc2.OC(=O)CC(O)(CC(=O)O)C(=O)O
#INCHI_AUX N/A
#Library_Class 1
#SpectrumID CCMSLIB00000086001
#IonMode Positive
#UpdateWorkflowName UPDATE-SINGLE-ANNOTATED-GOLD
#LibraryQualityString Gold
#TaskID d252d724072548979f1f6f1ced849daf
##Scan# 1202
#SpectrumFile p5-A04_GA4_01_18427.mzXML
#LibraryName Pharm_Active_Library.mgf
#MQScore -1
#Organism Pharm_Active_Library
#TIC_Query 0
#RT_Query -1
#MZErrorPPM -1
#SharedPeaks 0
#MassDiff 0
#LibMZ -1
#SpecMZ 334.242
#SpecCharge 0
#internalFilename spec-00000.mgf

>collision 10
44.897369 188.0
44.909374 236.0
44.996113 108.0
45.02816 224.0
45.061554 212.0
45.082935 72.0
45.18322 268.0
45.205967 116.0
45.257088 168.0
45.28014 88.0
45.326481 236.0
45.360405 180.0
45.411888 164.0
45.431061 96.0
45.44582 172.0
45.463264 164.0
45.507923 208.0
45.534416 280.0
45.619068 56.0
45.636318 188.0
45.695724 176.0
45.742828 56.0
45.816895 48.0
45.827671 152.0
45.870796 156.0
45.892326 128.0
45.924732 152.0
46.013798 160.0
46.044853 200.0
46.158371 196.0
46.225044 152.0
46.250366 128.0
46.266609 156.0
46.285564 52.0
46.324844 160.0
46.427853 164.0
46.47533 172.0
46.611115 136.0
46.683163 172.0
46.815163 204.0
46.866924 252.0
46.899632 160.0
46.9119 180.0
46.939781 152.0
46.955532 184.0
46.977673 208.0
46.995094 144.0
47.066071 188.0
47.098129 124.0
47.160332 136.0
47.194511 196.0
47.227329 152.0
47.239643 176.0
47.28273 212.0
47.295746 172.0
47.314911 180.0
47.35873 96.0
47.379276 164.0
47.39983 160.0
47.482635 236.0
47.543819 136.0
47.604221 188.0
47.639931 180.0
47.694191 148.0
47.711391 72.0
47.72789 196.0
47.737518 144.0
47.781532 92.0
47.953659 144.0
48.038811 244.0
48.070885 232.0
48.080544 156.0
48.135548 204.0
48.19516 168.0
48.285015 196.0
48.327896 120.0
48.371117 208.0
48.391739 216.0
48.489918 144.0
48.574497 176.0
48.584206 88.0
48.644913 204.0
48.685532 204.0
48.755085 188.0
48.813892 196.0
48.837025 120.0
48.874584 196.0
48.907104 152.0
48.928867 204.0
49.006218 216.0
49.043095 180.0
49.097469 160.0
49.193741 136.0
49.220268 128.0
49.234234 128.0
49.244011 144.0
49.302521 200.0
49.316666 164.0
49.397766 208.0
49.476131 156.0
49.501335 148.0
49.526543 40.0
49.547558 104.0
49.558765 168.0
49.579784 208.0
49.621838 204.0
49.644272 140.0
49.656895 168.0
49.672321 148.0
49.705753 232.0
49.709354 192.0
49.770561 160.0
49.802711 184.0
49.828148 88.0
49.837982 216.0
49.898422 168.0
49.926544 196.0
49.936386 72.0
49.96452 60.0
50.008144 144.0
50.055115 164.0
50.102489 112.0
50.144794 180.0
50.174362 180.0
50.211658 196.0
50.230774 132.0
50.271687 188.0
50.282978 196.0
50.292858 200.0
50.316856 156.0
50.328152 140.0
50.342274 168.0
50.35545 196.0
50.374756 196.0
50.394135 268.0
50.405838 252.0
50.453896 200.0
50.524609 136.0
50.558567 156.0
50.641232 216.0
50.654846 104.0
50.671844 204.0
50.728535 92.0
50.832069 316.0
50.87323 156.0
50.912987 156.0
50.933086 184.0
50.978203 216.0
51.002495 148.0
51.030926 160.0
51.070744 188.0
51.126232 132.0
51.140465 184.0
51.158405 212.0
51.162838 128.0
51.1679 176.0
51.194565 188.0
51.211655 144.0
51.245842 132.0
51.405544 60.0
51.422668 156.0
51.459785 124.0
51.508339 172.0
51.651283 216.0
51.684666 120.0
51.70422 104.0
51.732849 172.0
51.755993 168.0
51.787262 132.0
51.842197 136.0
51.874668 156.0
51.897606 200.0
51.940632 52.0
52.003765 140.0
52.018116 152.0
52.12727 72.0
52.144516 52.0
52.1632 164.0
52.19627 36.0
52.299854 168.0
52.325764 164.0
52.357445 120.0
52.416508 164.0
52.43668 172.0
52.477043 140.0
52.500114 200.0
52.534447 260.0
52.552044 220.0
52.602554 236.0
52.618435 132.0
52.637974 188.0
52.657425 164.0
52.680534 260.0
52.716656 108.0
52.735443 212.0
52.756245 176.0
52.819729 220.0
52.846794 88.0
52.867054 48.0
52.939434 144.0
53.049553 232.0
53.223652 64.0
53.258507 168.0
53.296276 52.0
53.351505 132.0
53.368954 128.0
53.402401 288.0
53.45623 156.0
53.469326 80.0
53.518353 212.0
53.613506 280.0
53.63245 196.0
53.64703 68.0
53.671814 180.0
53.724319 180.0
53.769554 72.0
53.782413 192.0
53.822105 152.0
53.84547 96.0
53.877605 236.0
53.919857 188.0
53.970936 196.0
53.976471 168.0
53.981339 136.0
53.986019 164.0
54.096966 220.0
54.142357 140.0
54.170185 168.0
54.201469 204.0
54.236126 60.0
54.25518 60.0
54.379864 120.0
54.422928 168.0
54.44593 160.0
54.46209 180.0
54.475307 224.0
54.512039 172.0
54.719433 128.0
54.765083 180.0
54.781288 84.0
54.834332 164.0
54.850548 288.0
54.893303 120.0
54.916409 168.0
54.97591 152.0
54.998051 188.0
55.098465 76.0
55.169403 132.0
55.264057 156.0
55.278191 228.0
55.308453 100.0
55.327698 68.0
55.349285 100.0
55.367165 188.0
55.415009 168.0
55.55592 108.0
55.590832 184.0
55.729626 240.0
55.761414 112.0
55.833679 144.0
55.858967 60.0
55.879791 92.0
55.908066 208.0
55.954208 140.0
55.972076 44.0
56.002285 60.0
56.091263 116.0
56.147919 204.0
56.268787 112.0
56.337486 80.0
56.382309 176.0
56.486973 132.0
56.504925 52.0
56.544777 196.0
56.626175 168.0
56.680107 144.0
56.726566 164.0
56.750553 124.0
56.76255 116.0
56.813545 220.0
56.828548 144.0
56.879677 172.0
56.906593 128.0
56.945461 168.0
57.002293 208.0
57.044807 164.0
57.149357 120.0
57.160618 192.0
57.192223 164.0
57.306675 140.0
57.38203 196.0
57.404652 168.0
57.419731 152.0
57.431797 164.0
57.469513 212.0
57.486111 224.0
57.507236 160.0
57.538937 148.0
57.558567 144.0
57.614529 156.0
57.625027 188.0
57.635601 148.0
57.650715 168.0
57.702106 140.0
57.723274 164.0
57.839767 136.0
57.850365 196.0
57.974564 128.0
57.991234 200.0
58.014904 208.0
58.019707 128.0
58.025661 180.0
58.091312 152.0
58.112553 128.0
58.135311 188.0
58.226402 152.0
58.313 68.0
58.395103 164.0
58.424004 120.0
58.466068 356.0
58.515316 248.0
58.554909 48.0
58.603657 216.0
58.656994 188.0
58.672344 116.0
58.690536 160.0
58.74239 116.0
58.83395 224.0
58.881287 176.0
58.925587 116.0
58.957672 232.0
58.982128 220.0
59.040226 200.0
59.053993 188.0
59.076935 144.0
59.150391 388.0
59.187134 192.0
59.210102 136.0
59.279041 124.0
59.312759 212.0
59.352619 72.0
59.364887 136.0
59.435448 352.0
59.464607 164.0
59.509125 164.0
59.545979 244.0
59.576698 228.0
59.612038 180.0
59.665833 208.0
59.676598 196.0
59.692142 360.0
59.722652 392.0
59.810436 264.0
59.852001 152.0
59.86586 184.0
59.91053 188.0
59.964458 192.0
60.046173 164.0
60.063297 196.0
60.151093 168.0
60.273102 152.0
60.342655 168.0
60.419987 180.0
60.502007 48.0
60.682331 184.0
60.692921 144.0
60.739033 168.0
60.81358 116.0
60.830654 192.0
60.860153 44.0
60.872574 116.0
60.922276 132.0
60.944027 92.0
60.968891 204.0
60.993759 220.0
61.016689 160.0
61.096394 48.0
61.15329 212.0
61.202225 200.0
61.238045 48.0
61.40118 180.0
61.429768 136.0
61.453171 160.0
61.499985 152.0
61.524963 140.0
61.548382 200.0
61.588577 244.0
61.604607 64.0
61.623356 136.0
61.670235 160.0
61.682739 156.0
61.823505 148.0
61.882988 220.0
61.973831 132.0
61.994202 196.0
62.067875 72.0
62.127476 172.0
62.140026 120.0
62.152576 160.0
62.278172 156.0
62.312077 164.0
62.316265 96.0
62.321354 188.0
62.385021 136.0
62.454212 204.0
62.504757 184.0
62.575382 40.0
62.597427 180.0
62.613174 128.0
62.797573 112.0
62.840168 120.0
62.952236 124.0
63.002781 160.0
63.146622 168.0
63.205154 160.0
63.273918 216.0
63.308048 184.0
63.333389 164.0
63.346062 152.0
63.363487 188.0
63.379333 172.0
63.45224 136.0
63.529949 188.0
63.545815 176.0
63.556923 152.0
63.633106 124.0
63.788033 200.0
63.854164 180.0
63.906483 160.0
63.938446 184.0
64.043388 164.0
64.094368 236.0
64.123055 184.0
64.167038 188.0
64.199394 208.0
64.300087 208.0
64.345169 164.0
64.413445 44.0
64.427826 192.0
64.444 160.0
64.483749 68.0
64.510925 136.0
64.592476 168.0
64.675682 88.0
64.699699 204.0
64.739723 188.0
64.762146 116.0
64.776566 204.0
64.840652 220.0
64.99942 168.0
65.028076 172.0
65.057198 120.0
65.071648 164.0
65.100548 88.0
65.241669 140.0
65.283745 40.0
65.298218 48.0
65.31591 204.0
65.332001 140.0
65.397972 188.0
65.483307 36.0
65.530022 88.0
65.642853 136.0
65.69165 236.0
65.749268 112.0
65.763718 188.0
65.769974 172.0
65.867188 104.0
65.928589 140.0
65.978691 160.0
66.036911 184.0
66.088676 228.0
66.244514 248.0
66.278122 80.0
66.326736 148.0
66.357536 124.0
66.409431 148.0
66.451607 256.0
66.475945 216.0
66.531136 208.0
66.583092 220.0
66.602585 108.0
66.613953 124.0
66.677322 192.0
66.698448 140.0
66.785019 184.0
66.828552 176.0
66.857841 180.0
66.887138 200.0
66.937607 140.0
67.012535 184.0
67.030457 320.0
67.084244 180.0
67.123375 160.0
67.177193 132.0
67.218712 252.0
67.255516 164.0
67.268578 176.0
67.33226 160.0
67.40313 228.0
67.485863 144.0
67.511986 172.0
67.530014 156.0
67.544739 196.0
67.580727 180.0
67.634735 168.0
67.65274 160.0
67.716599 144.0
67.736084 188.0
67.755913 200.0
67.775574 116.0
67.81163 144.0
67.846046 180.0
67.89032 152.0
67.919518 20.0
67.957573 132.0
67.980545 160.0
68.023216 148.0
68.046204 100.0
68.070831 88.0
68.104019 192.0
68.127518 196.0
68.155792 72.0
68.179253 152.0
68.271317 152.0
68.335472 52.0
68.393066 156.0
68.412819 356.0
68.459358 152.0
68.490211 196.0
68.628647 140.0
68.70121 404.0
68.780418 160.0
68.845154 224.0
68.882225 164.0
68.909233 144.0
68.987625 120.0
69.067932 48.0
69.091614 240.0
69.140732 176.0
69.173836 148.0
69.296387 108.0
69.327866 176.0
69.400803 156.0
69.421463 236.0
69.435631 200.0
69.526062 204.0
69.541809 144.0
69.593384 228.0
69.611542 124.0
69.651398 148.0
69.663025 164.0
69.702904 60.0
69.729988 188.0
69.747566 128.0
69.769386 128.0
69.784348 164.0
69.854195 192.0
69.972351 168.0
70.002327 196.0
70.052292 216.0
70.082275 56.0
70.142006 144.0
70.182289 184.0
70.203964 132.0
70.220642 116.0
70.23732 160.0
70.294044 56.0
70.332428 164.0
70.38752 160.0
70.465118 176.0
70.609787 192.0
70.628181 212.0
70.713135 164.0
70.733597 168.0
70.765411 60.0
70.793877 276.0
70.825699 160.0
70.846252 140.0
70.948021 164.0
70.998001 164.0
71.095627 128.0
71.159416 260.0
71.232872 160.0
71.253464 116.0
71.28035 168.0
71.332619 196.0
71.350945 96.0
71.408112 192.0
71.43895 248.0
71.478767 188.0
71.52758 184.0
71.583138 192.0
71.620674 208.0
71.632515 88.0
71.756691 224.0
71.773552 168.0
71.80896 156.0
71.824142 144.0
71.878128 140.0
71.920753 172.0
71.933823 168.0
71.979408 128.0
72.038078 168.0
72.09935 204.0
72.180496 204.0
72.245323 156.0
72.293831 124.0
72.307373 152.0
72.354767 192.0
72.366615 88.0
72.446213 108.0
72.508911 192.0
72.537727 144.0
72.558067 148.0
72.586288 56.0
72.614021 168.0
72.710732 120.0
72.724991 160.0
72.763351 108.0
72.792213 188.0
72.815994 160.0
72.860153 172.0
72.93837 152.0
72.957024 136.0
72.982529 260.0
73.011436 116.0
73.088432 136.0
73.116096 208.0
73.210548 116.0
73.273575 188.0
73.288902 136.0
73.314468 200.0
73.341545 176.0
73.438927 128.0
73.488396 48.0
73.503754 68.0
73.611298 52.0
73.653992 212.0
73.710747 164.0
73.770187 220.0
73.811218 60.0
73.824905 164.0
73.838585 148.0
73.95578 144.0
74.057663 140.0
74.090202 220.0
74.241043 88.0
74.306221 192.0
74.416557 168.0
74.441826 168.0
74.500221 212.0
74.518196 184.0
74.532867 176.0
74.546608 40.0
74.618805 96.0
74.656631 160.0
74.706512 152.0
74.728683 180.0
74.783943 84.0
74.810265 164.0
74.8442 192.0
74.857971 160.0
74.909645 136.0
74.926872 196.0
74.963051 184.0
74.979042 244.0
74.995369 192.0
75.116501 192.0
75.14238 184.0
75.237297 168.0
75.289101 192.0
75.32019 208.0
75.346016 168.0
75.489281 124.0
75.546638 72.0
75.596817 208.0
75.664322 52.0
75.737053 124.0
75.780357 116.0
75.846214 172.0
75.939842 104.0
76.003235 208.0
76.056091 280.0
76.200233 164.0
76.222816 196.0
76.236717 128.0
76.287125 192.0
76.299294 244.0
76.384506 216.0
76.477333 196.0
76.494133 148.0
76.518509 176.0
76.844421 236.0
76.86853 132.0
77.055679 192.0
77.127327 236.0
77.140617 188.0
77.178024 136.0
77.192017 164.0
77.366982 112.0
77.482567 168.0
77.561424 180.0
77.601746 44.0
77.626297 132.0
77.673645 200.0
77.782143 188.0
77.922928 88.0
77.947533 196.0
77.965103 64.0
78.000252 140.0
78.095207 124.0
78.211334 144.0
78.253586 112.0
78.278236 124.0
78.327545 132.0
78.417412 176.0
78.442085 176.0
78.583168 176.0
78.634171 244.0
78.638306 132.0
78.680244 96.0
78.745575 172.0
78.816238 152.0
78.851585 204.0
78.878098 160.0
78.890472 216.0
78.90815 164.0
79.062042 140.0
79.134613 196.0
79.16169 220.0
79.232941 164.0
79.301132 360.0
79.373817 164.0
79.483795 232.0
79.576088 148.0
79.627586 48.0
79.671997 164.0
79.684433 60.0
79.696869 176.0
79.812401 32.0
79.85508 176.0
79.913788 176.0
79.960052 116.0
79.986755 112.0
80.166473 220.0
80.189804 176.0
80.216545 88.0
80.253983 196.0
80.362778 220.0
80.452019 84.0
80.612762 112.0
80.661018 200.0
80.729141 196.0
80.864929 196.0
80.90789 136.0
80.938324 140.0
81.018921 112.0
81.077202 168.0
81.130035 164.0
81.169525 164.0
81.198204 204.0
81.21611 116.0
81.253777 52.0
81.323761 204.0
81.357872 76.0
81.375824 204.0
81.587822 172.0
81.668739 200.0
81.7677 160.0
81.787498 184.0
81.855911 104.0
81.899132 204.0
81.95137 64.0
81.971191 156.0
82.259766 216.0
82.362694 156.0
82.392067 152.0
82.431343 184.0
82.496414 120.0
82.536186 84.0
82.55246 116.0
82.572693 192.0
82.650139 184.0
82.684196 176.0
82.760551 184.0
82.842056 128.0
82.863937 196.0
82.914177 164.0
82.925858 176.0
82.946075 168.0
82.982185 148.0
83.001541 124.0
83.021492 160.0
83.061394 156.0
83.103119 172.0
83.146667 244.0
83.175713 268.0
83.188416 92.0
83.235619 36.0
83.293739 60.0
83.315536 184.0
83.388504 204.0
83.42276 188.0
83.444572 172.0
83.484573 168.0
83.548241 152.0
83.628304 156.0
83.675636 156.0
83.728439 160.0
83.8013 120.0
83.848679 196.0
83.908836 124.0
83.952599 128.0
83.965363 132.0
83.996582 196.0
84.049278 72.0
84.07058 416.0
84.131409 176.0
84.160622 160.0
84.175224 160.0
84.193489 156.0
84.228195 80.0
84.332344 32.0
84.412781 148.0
84.436867 140.0
84.460335 148.0
84.515213 140.0
84.645935 164.0
84.687302 160.0
84.810059 192.0
84.837555 176.0
84.910904 96.0
84.945747 172.0
84.995285 152.0
85.052177 184.0
85.06469 172.0
85.070587 140.0
85.076416 176.0
85.180717 144.0
85.232155 132.0
85.252373 180.0
85.283615 216.0
85.296478 148.0
85.320381 104.0
85.425201 48.0
85.443596 48.0
85.529686 128.0
85.56691 172.0
85.588997 180.0
85.689102 272.0
85.725311 212.0
85.774231 184.0
85.830383 148.0
85.896774 232.0
85.922607 200.0
86.024101 180.0
86.044411 160.0
86.059181 152.0
86.142288 96.0
86.162613 108.0
86.188477 148.0
86.208801 164.0
86.238373 64.0
86.293831 168.0
86.328964 148.0
86.449211 204.0
86.506584 172.0
86.589905 176.0
86.639923 172.0
86.708481 76.0
86.7715 132.0
86.791901 188.0
86.981133 112.0
87.021973 56.0
87.193298 192.0
87.246773 204.0
87.350914 184.0
87.462387 216.0
87.475594 44.0
87.58918 172.0
87.652527 140.0
87.700981 156.0
87.840828 140.0
87.96212 164.0
88.00238 156.0
88.175049 152.0
88.192673 280.0
88.214302 124.0
88.238602 128.0
88.461227 152.0
88.524887 184.0
88.556725 108.0
88.699127 164.0
88.773941 204.0
88.830391 56.0
88.850838 180.0
88.982399 140.0
89.01432 144.0
89.066902 64.0
89.08548 144.0
89.1026 160.0
89.130783 192.0
89.143936 208.0
89.160851 208.0
89.198441 156.0
89.224754 136.0
89.420387 184.0
89.43544 136.0
89.448624 200.0
89.478737 128.0
89.523674 204.0
89.656784 136.0
89.676537 112.0
89.70858 140.0
89.766266 188.0
89.799782 224.0
89.84436 52.0
89.860069 132.0
89.87841 168.0
89.953812 140.0
90.036888 64.0
90.059547 36.0
90.089775 148.0
90.105774 188.0
90.163467 172.0
90.184258 144.0
90.276894 156.0
90.433922 180.0
90.514793 212.0
90.54184 192.0
90.644135 224.0
90.769241 52.0
90.833725 108.0
90.885223 416.0
90.964661 120.0
90.983643 196.0
91.01786 172.0
91.036034 176.0
91.055527 23620.0
91.099487 40.0
91.122284 24.0
91.148643 192.0
91.18499 96.0
91.239258 160.0
91.256989 112.0
91.302864 172.0
91.337097 48.0
91.356895 148.0
91.368958 292.0
91.418915 160.0
91.48172 40.0
91.496948 76.0
91.525513 48.0
91.538841 56.0
91.55217 52.0
91.592621 200.0
91.660751 52.0
91.685524 68.0
91.718216 236.0
91.769402 48.0
91.792282 88.0
91.807533 76.0
91.86998 76.0
91.910545 164.0
91.931534 120.0
91.960159 188.0
92.058159 2660.0
92.095726 136.0
92.124374 48.0
92.145081 172.0
92.179787 120.0
92.200806 140.0
92.275352 212.0
92.357582 184.0
92.390106 112.0
92.416252 144.0
92.44368 56.0
92.457909 64.0
92.586739 104.0
92.646637 32.0
92.681015 220.0
92.726967 164.0
92.738411 112.0
92.790375 176.0
92.817215 268.0
92.863243 212.0
92.939972 176.0
93.026337 216.0
93.06707 168.0
93.103142 140.0
93.116585 72.0
93.218407 264.0
93.252998 148.0
93.270294 120.0
93.285675 204.0
93.376045 180.0
93.439522 228.0
93.485703 192.0
93.529968 100.0
93.625092 140.0
93.682091 184.0
93.716774 192.0
93.820847 172.0
93.89798 156.0
93.950058 192.0
94.052795 116.0
94.100594 148.0
94.116035 136.0
94.473587 140.0
94.657455 136.0
94.789177 144.0
94.94516 104.0
94.954735 204.0
95.010216 112.0
95.053146 180.0
95.192665 28.0
95.29261 172.0
95.338356 176.0
95.35585 176.0
95.408333 140.0
95.445526 156.0
95.493889 180.0
95.567818 140.0
95.653442 124.0
95.76638 180.0
95.785858 144.0
95.809235 240.0
95.824821 232.0
95.867691 40.0
95.885223 116.0
95.904716 164.0
95.932007 176.0
95.963203 80.0
96.006607 184.0
96.05291 120.0
96.125099 164.0
96.277359 164.0
96.375031 148.0
96.400436 124.0
96.545097 180.0
96.562698 208.0
96.595947 148.0
96.655014 212.0
96.709442 32.0
96.740761 204.0
97.001297 172.0
97.089523 120.0
97.332863 148.0
97.43499 160.0
97.456604 152.0
97.568634 176.0
97.60009 160.0
97.72007 168.0
97.757454 120.0
97.779106 76.0
97.895256 44.0
98.005562 164.0
98.0233 84.0
98.043007 160.0
98.060921 136.0
98.097702 276.0
98.167198 208.0
98.212563 40.0
98.289505 176.0
98.309235 160.0
98.374786 228.0
98.402008 236.0
98.453346 172.0
98.496803 152.0
98.524452 108.0
98.544212 128.0
98.591339 180.0
98.617332 72.0
98.64698 164.0
98.6707 160.0
98.757484 208.0
98.776421 236.0
98.809143 192.0
98.824974 376.0
98.847328 228.0
98.880379 128.0
98.916008 96.0
98.945702 176.0
99.000404 188.0
99.044327 1804.0
99.069458 188.0
99.104149 132.0
99.147743 216.0
99.334122 252.0
99.36586 160.0
99.405548 188.0
99.433327 156.0
99.487511 376.0
99.51075 200.0
99.528618 60.0
99.548416 140.0
99.61203 172.0
99.645805 172.0
99.717339 132.0
99.751205 104.0
99.778961 244.0
99.821014 160.0
99.844116 172.0
99.866913 248.0
99.88028 160.0
99.885933 172.0
99.89225 128.0
99.917328 188.0
99.949883 244.0
99.9711 188.0
99.991272 164.0
100.016647 348.0
100.04509 444.0
100.076637 1372.0
100.113907 92064.0
100.156288 112.0
100.175919 104.0
100.19854 136.0
100.23011 48.0
100.263657 120.0
100.26786 72.0
100.296738 80.0
100.316475 116.0
100.335228 172.0
100.349426 156.0
100.368309 52.0
100.410797 104.0
100.440697 1840.0
100.476013 116.0
100.516678 84.0
100.530731 152.0
100.54493 52.0
100.567802 132.0
100.58976 44.0
100.606781 160.0
100.636414 76.0
100.649658 144.0
100.694588 96.0
100.731537 160.0
100.766335 204.0
100.771492 76.0
100.777817 160.0
100.795044 160.0
100.822823 128.0
100.843437 180.0
100.869301 68.0
100.902092 116.0
100.914223 68.0
100.933395 124.0
100.956978 96.0
100.975395 84.0
101.004105 56.0
101.063408 172.0
101.115913 8072.0
101.146652 164.0
101.169342 172.0
101.205521 36.0
101.236679 136.0
101.268494 100.0
101.294754 36.0
101.311172 80.0
101.351738 128.0
101.373306 168.0
101.413864 116.0
101.42675 64.0
101.528145 32.0
101.544189 56.0
101.561264 156.0
101.605759 172.0
101.626434 36.0
101.661789 84.0
101.718239 128.0
101.745964 124.0
101.76091 88.0
101.820053 168.0
101.826118 76.0
101.832458 204.0
101.852043 168.0
101.867348 112.0
101.882118 88.0
101.906746 124.0
101.921478 112.0
101.941689 76.0
101.978706 208.0
102.018066 104.0
102.04583 232.0
102.102478 192.0
102.118263 800.0
102.172531 104.0
102.203819 164.0
102.245354 180.0
102.264076 200.0
102.307755 216.0
102.327888 320.0
102.380241 192.0
102.406425 156.0
102.426567 60.0
102.484886 80.0
102.488594 76.0
102.555519 164.0
102.63414 148.0
102.65229 140.0
102.724899 80.0
102.771301 96.0
102.785423 84.0
102.809639 164.0
102.892403 108.0
102.914612 100.0
102.989326 80.0
103.054626 460.0
103.074181 56.0
103.237915 40.0
103.363335 92.0
103.397743 192.0
103.503006 76.0
103.533379 204.0
103.950409 296.0
104.032173 100.0
104.056053 204.0
104.059349 156.0
104.212921 152.0
104.257629 128.0
104.354691 108.0
104.595253 128.0
104.699089 44.0
104.798904 124.0
104.847115 128.0
104.970123 152.0
104.990028 184.0
105.0345 7264.0
105.070892 828.0
105.087532 200.0
105.146248 96.0
105.204765 152.0
105.245598 88.0
105.288803 76.0
105.476448 52.0
105.554138 108.0
105.617538 72.0
105.805801 40.0
105.830376 128.0
105.859039 164.0
105.897949 224.0
105.922531 224.0
106.035225 556.0
106.252579 128.0
106.267784 136.0
106.33876 116.0
106.355186 48.0
106.373657 128.0
106.402397 116.0
106.427032 52.0
106.537941 140.0
106.615616 204.0
106.708519 184.0
106.786659 76.0
106.836029 140.0
106.932739 148.0
106.994492 44.0
107.050369 124.0
107.291161 76.0
107.339127 180.0
107.419014 124.0
107.870758 168.0
107.970497 88.0
107.999451 196.0
108.05323 52.0
108.1567 80.0
108.264366 64.0
108.398361 216.0
108.496429 80.0
108.554489 120.0
108.793091 116.0
108.807625 264.0
108.94677 44.0
109.01841 152.0
109.042351 192.0
109.096397 136.0
109.160851 76.0
109.229485 136.0
109.279411 136.0
109.318947 76.0
109.373062 100.0
109.431351 140.0
109.487572 280.0
109.604233 72.0
109.622696 144.0
109.689674 116.0
109.875275 96.0
110.067299 136.0
110.265755 176.0
110.286659 84.0
110.604591 120.0
110.65065 160.0
110.72184 244.0
110.849632 48.0
110.868492 40.0
110.927177 148.0
110.995186 144.0
111.04879 144.0
111.241837 76.0
111.331467 220.0
111.47287 104.0
111.550629 208.0
111.592682 252.0
111.691521 180.0
111.725174 40.0
111.748322 200.0
112.19902 104.0
112.608124 128.0
112.821808 172.0
112.933884 192.0
112.955032 156.0
113.029083 200.0
113.057701 568.0
113.204781 148.0
113.624458 240.0
113.78363 172.0
114.06192 64.0
114.091888 1400.0
114.198006 100.0
114.212898 136.0
114.517265 148.0
114.743141 112.0
114.939369 80.0
115.05571 612.0
115.100723 372.0
115.165665 216.0
115.201981 160.0
115.242569 124.0
115.303734 212.0
115.514084 84.0
115.700264 148.0
115.732376 160.0
115.865166 288.0
115.882309 200.0
116.059517 360.0
116.107559 1000.0
116.163147 84.0
116.188889 132.0
116.276871 136.0
116.490173 164.0
116.556038 188.0
116.947441 76.0
116.990494 180.0
117.069626 2756.0
117.117393 176.0
117.145401 60.0
117.201561 236.0
117.244659 176.0
117.326569 148.0
117.350281 120.0
117.518517 188.0
117.559517 108.0
117.751083 188.0
117.794624 188.0
117.922333 172.0
117.985023 60.0
118.077354 452.0
118.121788 512.0
118.354424 152.0
118.515282 172.0
118.762421 128.0
119.086441 236.0
119.129265 128.0
119.244423 40.0
119.270508 168.0
119.390091 260.0
119.47274 56.0
119.496674 76.0
119.522781 116.0
119.540192 136.0
119.851578 60.0
119.866829 40.0
120.021591 200.0
120.065208 120.0
120.172089 204.0
120.261566 196.0
120.56514 156.0
120.639458 128.0
120.84066 232.0
120.971764 208.0
121.035873 148.0
121.239189 68.0
121.291786 196.0
121.598862 192.0
121.614227 100.0
121.756935 48.0
121.890938 164.0
121.917305 204.0
122.161369 72.0
122.21637 52.0
122.24057 128.0
122.280182 60.0
122.388054 152.0
122.427689 160.0
122.477928 148.0
122.533417 156.0
122.897209 144.0
123.52906 248.0
123.606499 192.0
124.138138 56.0
124.257919 140.0
124.62648 104.0
124.862991 212.0
125.057724 308.0
125.178123 212.0
125.313995 172.0
125.369705 80.0
125.552505 128.0
125.869385 200.0
126.060059 168.0
126.128548 176.0
126.316376 140.0
126.417061 200.0
126.551361 92.0
126.685738 172.0
127.045341 208.0
127.080315 152.0
127.111732 140.0
127.131927 152.0
127.21048 96.0
127.246407 124.0
127.271103 52.0
127.441193 176.0
127.466522 192.0
127.623863 136.0
127.887619 124.0
127.936592 148.0
127.968117 180.0
128.062653 544.0
128.197876 180.0
128.227173 168.0
128.373703 156.0
128.405273 136.0
128.938828 208.0
129.070129 1476.0
129.091812 76.0
129.139313 192.0
129.338425 56.0
129.370117 252.0
129.483322 148.0
129.50145 164.0
129.592056 112.0
129.675903 168.0
129.748444 124.0
129.977524 132.0
130.03653 208.0
130.078796 704.0
130.125061 56.0
130.334015 120.0
130.422653 84.0
130.444244 148.0
130.493118 172.0
130.518127 124.0
131.005188 112.0
131.043915 172.0
131.086365 3004.0
131.208008 60.0
131.319748 188.0
131.367645 56.0
131.6763 88.0
131.954575 144.0
132.091553 252.0
132.148972 108.0
132.203888 164.0
132.240509 56.0
132.305634 128.0
132.357269 104.0
132.584045 152.0
132.83168 228.0
132.889023 144.0
132.923447 72.0
133.091003 140.0
133.134644 152.0
133.203537 208.0
133.260971 140.0
133.283951 212.0
133.417252 188.0
133.603531 204.0
133.727798 192.0
133.842896 188.0
133.932709 132.0
133.976486 248.0
134.01796 52.0
134.121658 196.0
134.206955 192.0
134.345337 136.0
134.463013 212.0
134.504929 168.0
134.613068 136.0
134.78215 204.0
135.015182 108.0
135.09613 220.0
135.20256 100.0
135.427139 104.0
135.452621 212.0
135.480423 184.0
135.784073 284.0
135.972778 188.0
136.132172 156.0
136.241348 136.0
136.266907 164.0
136.362167 188.0
136.487701 172.0
136.573761 324.0
136.745926 164.0
136.948502 208.0
137.002075 148.0
137.083618 220.0
137.235138 80.0
137.743896 184.0
137.785934 68.0
138.120224 204.0
138.209122 168.0
138.272308 132.0
138.513474 120.0
138.693909 144.0
138.897903 204.0
138.961243 124.0
139.075424 460.0
139.245285 160.0
139.369781 128.0
139.550766 176.0
139.696579 52.0
139.724808 184.0
139.847168 100.0
140.011978 156.0
140.056732 184.0
140.106583 72.0
140.131012 204.0
140.148605 80.0
140.32341 148.0
140.63913 132.0
140.707581 28.0
141.050125 84.0
141.069031 256.0
141.177795 228.0
141.435684 228.0
141.700912 164.0
141.73645 92.0
141.781479 100.0
141.85022 80.0
141.909485 84.0
142.039917 136.0
142.0755 72.0
142.149048 72.0
142.555115 164.0
142.802368 228.0
142.940353 200.0
143.085571 732.0
143.34993 124.0
143.416656 196.0
143.543015 200.0
143.640976 108.0
143.738617 216.0
143.772018 132.0
143.982117 100.0
144.032272 212.0
144.051376 108.0
144.070496 120.0
144.094376 284.0
144.13829 4692.0
144.163544 216.0
144.169144 152.0
144.239212 112.0
144.285583 84.0
144.44101 96.0
144.469727 172.0
144.511795 116.0
144.531921 32.0
144.594147 56.0
144.620468 132.0
144.675262 144.0
144.718628 68.0
144.754547 204.0
144.771301 144.0
144.806839 200.0
144.819519 208.0
144.889969 204.0
144.912628 224.0
144.957031 212.0
144.982117 204.0
145.007919 172.0
145.06517 460.0
145.102478 89176.0
145.17572 184.0
145.210754 76.0
145.241058 56.0
145.266479 80.0
145.288452 132.0
145.305832 76.0
145.325027 192.0
145.356216 120.0
145.372986 216.0
145.404434 88.0
145.446732 124.0
145.496475 432.0
145.527176 88.0
145.551926 188.0
145.629898 32.0
145.651154 52.0
145.663849 112.0
145.692886 108.0
145.719849 72.0
145.77327 100.0
145.790863 64.0
145.84404 96.0
145.911057 152.0
145.956726 64.0
145.988968 128.0
146.057587 60.0
146.104553 8120.0
146.14183 140.0
146.23233 172.0
146.315231 76.0
146.368195 92.0
146.421173 76.0
146.472961 112.0
146.566055 112.0
146.736938 112.0
146.823654 32.0
146.848831 100.0
146.87912 80.0
146.896011 52.0
146.926468 32.0
146.956329 76.0
146.987686 124.0
147.033539 108.0
147.066071 128.0
147.107758 780.0
147.155121 44.0
147.192871 92.0
147.267731 196.0
147.300476 176.0
147.309875 72.0
147.314697 100.0
147.360291 44.0
147.453781 56.0
147.48761 140.0
147.52478 32.0
147.76088 128.0
148.073135 60.0
148.196686 176.0
148.235443 112.0
148.253784 232.0
148.317856 164.0
148.339661 160.0
148.51506 168.0
148.635559 60.0
148.919586 200.0
149.003952 192.0
149.060349 9864.0
149.1091 84.0
149.150421 48.0
149.221649 40.0
149.289001 60.0
149.323044 108.0
149.35466 64.0
149.515244 44.0
149.78064 136.0
149.98288 96.0
150.063507 896.0
150.124283 128.0
150.295044 156.0
150.336517 96.0
150.360931 148.0
150.414627 112.0
150.485413 56.0
150.7258 68.0
150.827438 36.0
150.864105 44.0
150.99614 104.0
151.063675 164.0
151.115997 80.0
151.231018 92.0
151.324036 108.0
151.35257 172.0
151.739487 204.0
152.06926 172.0
152.516281 116.0
152.658875 92.0
152.93689 188.0
153.027969 48.0
153.074753 136.0
153.146179 224.0
153.626846 168.0
153.802048 136.0
154.05159 136.0
154.072861 216.0
154.263962 96.0
154.313416 120.0
154.345551 72.0
154.491486 48.0
154.726578 108.0
154.783524 48.0
154.818207 108.0
154.887543 124.0
154.971771 184.0
155.05603 56.0
155.085052 1376.0
155.358536 76.0
155.465836 116.0
156.089828 576.0
156.325058 64.0
156.838104 44.0
157.074997 56.0
157.101578 512.0
157.242157 80.0
157.27211 68.0
158.364761 180.0
158.627869 136.0
159.225021 152.0
159.32048 196.0
159.511459 112.0
160.134232 516.0
160.510971 72.0
160.611847 60.0
160.65274 224.0
160.944977 120.0
162.150955 1256.0
162.184601 172.0
162.220078 28.0
163.074081 160.0
163.15509 128.0
163.85672 40.0
164.343689 136.0
164.432999 72.0
164.632141 56.0
164.80072 96.0
165.460587 224.0
165.496429 64.0
165.957642 36.0
166.055084 176.0
166.075607 124.0
166.953964 168.0
167.777924 80.0
168.562546 172.0
169.043533 180.0
169.32312 144.0
169.968613 40.0
170.103577 44.0
170.355453 108.0
170.617935 96.0
170.875412 164.0
171.0784 164.0
171.116669 316.0
171.161713 40.0
171.497787 104.0
171.810699 140.0
172.074295 196.0
172.237381 160.0
172.599472 124.0
172.81395 156.0
172.866287 172.0
173.096649 1112.0
173.141159 236.0
173.505386 108.0
173.552567 72.0
173.615509 52.0
173.751907 60.0
174.098389 468.0
174.92923 80.0
175.076172 792.0
175.187302 144.0
175.253174 116.0
175.419205 212.0
175.630157 136.0
176.075027 244.0
176.726486 88.0
177.184525 88.0
177.523804 144.0
177.608673 168.0
178.43248 196.0
179.387604 136.0
179.539597 164.0
179.598267 176.0
179.744995 120.0
180.444794 120.0
180.698868 152.0
181.432693 152.0
181.464859 36.0
182.555038 128.0
183.168671 136.0
183.713211 156.0
183.796844 112.0
184.099182 56.0
184.93187 60.0
185.002258 228.0
185.80986 180.0
186.779678 96.0
187.487564 112.0
187.896576 80.0
189.071548 132.0
189.2659 236.0
189.981232 204.0
191.34436 140.0
194.071732 144.0
194.101852 148.0
194.817917 124.0
194.873489 156.0
195.19313 288.0
196.273529 172.0
197.790543 84.0
198.25827 116.0
198.303116 76.0
198.364777 72.0
199.616974 72.0
199.70697 100.0
199.83075 160.0
201.070618 136.0
201.16658 188.0
201.200455 116.0
202.274689 64.0
202.680862 48.0
202.948959 116.0
203.034027 156.0
203.167343 44.0
203.365967 220.0
205.377609 108.0
206.197037 124.0
206.259918 164.0
208.251312 40.0
208.426544 148.0
208.788757 108.0
208.958466 196.0
208.978607 60.0
210.281128 168.0
211.246216 208.0
211.457443 44.0
212.956406 208.0
213.907227 184.0
213.965439 148.0
214.539352 124.0
214.644318 72.0
214.781387 116.0
215.245422 184.0
215.81813 180.0
215.923401 116.0
216.169144 128.0
216.189636 92.0
216.210114 68.0
216.435516 164.0
216.651138 116.0
216.763596 224.0
216.833923 176.0
216.869095 104.0
216.92186 192.0
216.995148 148.0
217.028259 136.0
217.063751 164.0
217.122818 26392.0
217.234451 140.0
217.264969 96.0
217.31778 60.0
217.352982 56.0
217.381714 76.0
217.43808 40.0
217.468262 100.0
217.514404 76.0
217.600998 76.0
217.625961 64.0
217.669998 88.0
217.746353 60.0
217.855042 164.0
217.925552 44.0
218.013702 56.0
218.043091 148.0
218.125702 2828.0
218.192993 72.0
218.219467 44.0
218.263565 80.0
218.313553 68.0
218.381195 80.0
218.407669 104.0
218.457672 44.0
218.552551 60.0
218.607727 84.0
218.634216 36.0
218.734283 208.0
219.131516 384.0
219.223206 72.0
219.305725 108.0
219.442551 84.0
219.48555 92.0
219.576965 108.0
219.612366 88.0
219.691589 56.0
219.810028 124.0
220.043198 140.0
220.224533 148.0
220.362167 32.0
220.645905 88.0
220.710953 132.0
220.805573 68.0
221.38266 76.0
221.945679 116.0
222.509415 104.0
222.720261 204.0
223.279022 52.0
223.662842 140.0
223.963577 116.0
224.03804 96.0
226.640335 144.0
226.682281 196.0
227.888519 164.0
228.405594 104.0
228.462753 44.0
228.655319 36.0
229.8517 88.0
230.912064 136.0
231.108688 208.0
231.450714 104.0
231.856644 96.0
233.778992 84.0
234.583069 68.0
235.060013 144.0
235.232819 68.0
235.761215 176.0
236.121964 136.0
236.238205 56.0
236.881042 40.0
237.310104 192.0
237.530914 188.0
237.555664 116.0
238.61496 144.0
239.002502 144.0
239.181 152.0
240.321259 36.0
240.768845 156.0
240.824448 164.0
241.838593 116.0
242.802139 64.0
242.954132 144.0
244.240173 44.0
245.685577 168.0
246.840775 144.0
247.135239 124.0
247.163406 76.0
248.084198 196.0
249.188904 144.0
251.992981 156.0
253.318542 132.0
254.247543 148.0
255.32135 116.0
255.862289 168.0
256.996918 128.0
258.911682 140.0
259.155151 124.0
259.190399 28.0
261.515472 264.0
263.808899 96.0
265.726135 36.0
265.891632 180.0
266.144836 224.0
266.564484 192.0
266.615845 64.0
268.543243 44.0
268.931519 168.0
270.890167 164.0
271.988647 80.0
273.171631 136.0
274.868378 48.0
275.115906 128.0
276.302338 64.0
276.865051 164.0
277.163177 156.0
280.083405 128.0
281.28714 36.0
281.95517 132.0
282.182465 64.0
283.303619 72.0
284.074646 64.0
285.233124 168.0
285.394501 156.0
287.763123 72.0
287.992767 92.0
289.826355 152.0
290.338226 120.0
290.707977 180.0
292.196259 32.0
293.412079 132.0
294.55188 164.0
294.927734 148.0
295.574127 64.0
296.11499 140.0
296.443878 176.0
298.713348 52.0
299.12973 188.0
299.160706 136.0
299.265198 192.0
300.722168 68.0
301.914124 44.0
302.18045 224.0
304.687073 104.0
305.751099 96.0
308.447205 96.0
311.875305 132.0
314.202972 172.0
314.788879 136.0
315.202179 164.0
316.107422 64.0
316.415344 156.0
317.428711 72.0
318.475647 232.0
318.79541 136.0
318.987335 60.0
321.321198 56.0
321.933868 132.0
322.630615 164.0
322.709259 164.0
323.157654 132.0
325.608246 196.0
327.88559 56.0
327.993713 128.0
328.462494 92.0
328.758331 228.0
328.870209 104.0
328.938812 148.0
329.16626 120.0
329.997314 200.0
330.547089 108.0
331.071991 84.0
331.234985 84.0
331.332794 104.0
331.441498 48.0
331.633575 116.0
332.061401 104.0
332.101288 68.0
332.162964 40.0
332.308075 116.0
332.449585 168.0
332.594757 60.0
332.620148 52.0
332.819824 76.0
332.908905 160.0
332.941772 132.0
333.070435 40.0
333.203156 112.0
333.233887 32.0
333.339264 64.0
333.458771 100.0
333.566223 152.0
333.622772 68.0
333.702759 144.0
333.768188 100.0
334.142822 144.0
334.185211 196.0
334.237823 30216.0
334.313782 140.0
334.358582 96.0
334.401184 64.0
334.444855 80.0
334.554077 108.0
334.590485 48.0
334.641449 124.0
334.666931 44.0
334.75119 88.0
334.817902 44.0
334.91925 140.0
334.931519 80.0
334.9422 192.0
334.989441 116.0
335.038422 100.0
335.118591 124.0
335.167511 132.0
335.240173 5980.0
335.395538 92.0
335.472961 68.0
335.504913 68.0
335.601959 64.0
335.701782 60.0
335.741913 88.0
335.791534 72.0
335.849976 164.0
335.960754 52.0
336.008179 88.0
336.159088 36.0
336.241516 1108.0
336.303772 84.0
336.860504 152.0
337.009308 156.0
337.096252 136.0
337.16571 208.0
337.2388 148.0
337.271698 116.0
337.363068 64.0
337.394226 84.0
337.419678 72.0
337.456604 160.0
337.505676 56.0
337.695831 48.0
337.819183 100.0
338.237366 36.0
338.365479 100.0
338.398438 104.0
338.651093 64.0
339.230042 108.0
340.238892 172.0
342.555695 64.0
342.894684 64.0
343.753967 60.0
345.675507 72.0
347.097931 80.0
349.106903 116.0
349.530975 88.0
350.886749 104.0
352.364685 136.0
352.764557 88.0
354.38504 40.0
356.621643 72.0
359.080231 112.0
359.857574 76.0
363.563354 80.0
365.189423 44.0
369.90564 44.0
372.421051 92.0
376.287323 68.0
378.975372 144.0
391.097504 96.0
394.078857 76.0
399.514343 52.0
402.307922 84.0
403.506439 80.0
406.069214 80.0
413.235596 40.0
441.477661 76.0
443.575287 76.0
445.341797 92.0
450.158661 92.0
451.245667 88.0
451.930847 52.0
452.332916 52.0
458.466034 80.0
458.521423 80.0
459.72406 136.0
475.74469 92.0
483.927979 64.0
492.596161 92.0
502.371277 68.0
504.939606 92.0
509.408447 116.0
512.54425 112.0
520.423645 92.0
545.723572 52.0
550.270935 92.0
552.776245 132.0
554.157532 64.0
560.529053 52.0
570.187744 72.0
573.614746 64.0
583.370667 92.0
586.581482 56.0
589.946106 80.0
592.855103 76.0
599.966125 84.0
608.429688 108.0
626.426025 88.0
627.776672 112.0
634.306335 72.0
635.535034 76.0
641.787109 96.0
649.636414 68.0
658.891602 132.0
664.015564 164.0
667.718506 92.0
673.000488 64.0
715.595398 124.0
716.213135 96.0
717.449402 64.0
726.353088 120.0
732.357117 76.0
734.696594 84.0
736.213318 76.0
738.759094 112.0
743.483826 96.0
743.581543 108.0
745.911621 128.0
746.112793 184.0
749.808777 84.0
752.361511 168.0
754.913147 148.0
757.540283 80.0
757.704651 48.0
763.154663 44.0
763.732117 32.0
771.429871 76.0
772.369934 64.0
777.544861 196.0
779.016235 28.0
781.084106 180.0
783.377563 100.0
787.041748 136.0
788.522095 116.0
790.445862 156.0
799.688843 128.0
801.457153 88.0
802.33075 136.0
802.691589 152.0
803.108887 196.0
805.34967 188.0
805.473938 80.0
808.72522 172.0
808.827087 156.0
809.325256 140.0
810.322144 160.0
815.167786 144.0
816.134094 160.0
817.618835 256.0
819.281433 164.0
821.578918 172.0
821.789978 196.0
822.109558 216.0
824.136658 156.0
824.519531 172.0
825.131165 132.0
826.355103 144.0
826.875793 176.0
829.264099 196.0
829.510559 160.0
830.393616 168.0
831.196716 128.0
831.40332 204.0
831.816589 116.0
831.919922 180.0
832.603149 156.0
834.005066 208.0
834.98822 176.0
837.560974 168.0
838.707642 168.0
843.539062 196.0
850.428101 168.0
850.861511 208.0
852.644775 232.0
853.313293 80.0
853.819153 228.0
854.796509 244.0
856.013062 148.0
856.811035 56.0
857.218933 108.0
860.035767 68.0
861.466431 220.0
862.939148 232.0
863.49469 148.0
863.956787 204.0
868.561096 40.0
869.940063 132.0
873.189392 88.0
873.859985 200.0
874.825195 164.0
875.302063 160.0
875.678955 72.0
877.258118 156.0
878.632202 140.0
879.027527 168.0
879.127808 124.0
881.466248 124.0
881.507629 216.0
881.862244 152.0
882.26416 152.0
886.478394 140.0
887.580933 196.0
888.316345 132.0
889.782166 132.0
891.053162 44.0
891.891052 180.0
893.833801 60.0
894.12738 184.0
894.466614 192.0
895.032227 180.0
895.151306 124.0
895.764771 164.0
896.902893 204.0
897.397644 192.0
898.05365 232.0
898.155029 48.0
898.984314 112.0
900.817322 184.0
901.366943 76.0
901.558167 196.0
904.333191 172.0
904.464905 224.0
905.812195 156.0
905.92511 212.0
906.015869 60.0
906.0578 176.0
906.117676 164.0
906.788818 140.0
908.755737 156.0
909.025757 180.0
911.367554 272.0
912.545593 80.0
912.948486 140.0
913.501831 164.0
914.163635 108.0
914.855835 168.0
915.205017 232.0
915.325439 132.0
915.506104 112.0
918.019043 180.0
919.297913 132.0
919.563477 84.0
921.333496 148.0
921.858398 200.0
921.979248 144.0
922.136353 176.0
922.263306 212.0
922.305603 236.0
923.018982 180.0
923.303223 244.0
923.99884 168.0
925.033691 200.0
925.881348 188.0
926.620361 176.0
926.668823 148.0
928.517639 64.0
928.711731 172.0
931.339905 192.0
934.202942 104.0
935.310425 132.0
935.353027 236.0
935.433044 144.0
935.49231 172.0
937.856506 132.0
938.356384 160.0
938.624634 68.0
939.088135 152.0
940.894348 136.0
941.187439 204.0
942.628967 148.0
942.903992 208.0
943.344055 140.0
944.034973 228.0
944.524231 160.0
944.860718 100.0
945.772461 64.0
946.574463 104.0
946.923584 164.0
947.291077 232.0
949.6203 204.0
949.675476 124.0
949.767517 120.0
950.074219 188.0
950.147827 80.0
950.706177 68.0
951.436646 224.0
951.841858 164.0
952.142761 192.0
952.701721 160.0
953.107178 152.0
953.451355 172.0
953.666443 180.0
954.305786 204.0
954.631653 220.0
955.615845 156.0
956.385071 208.0
956.471252 172.0
956.662048 184.0
956.822144 220.0
956.920654 180.0
957.394775 224.0
957.992249 72.0
958.540588 144.0
958.793213 144.0
959.30481 192.0
959.841187 280.0
960.143372 136.0
961.321655 176.0
962.624146 68.0
964.761963 184.0
965.163818 184.0
965.293701 148.0
966.178162 196.0
966.524658 152.0
966.654602 120.0
966.889771 180.0
967.422058 212.0
967.508728 140.0
967.626343 156.0
967.812073 124.0
969.199524 120.0
969.391663 104.0
970.28418 196.0
970.358582 44.0
971.022095 168.0
971.090332 176.0
971.536926 184.0
971.617554 200.0
971.698242 232.0
972.089111 80.0
972.498474 100.0
972.513184 148.0
973.585205 172.0
973.690796 188.0
975.536194 216.0
975.579712 184.0
975.629456 84.0
976.736328 260.0
977.402039 188.0
977.850098 156.0
977.962097 136.0
978.036804 176.0
978.484985 248.0
978.889709 224.0
981.32605 176.0
982.217834 216.0
983.259827 344.0
983.584351 80.0
983.821594 36.0
983.865295 220.0
984.670776 192.0
985.239197 152.0
985.32666 28.0
986.232727 172.0
986.507812 176.0
987.414429 200.0
987.595825 208.0
987.708374 188.0
988.396606 160.0
988.621826 212.0
988.834656 144.0
989.567017 124.0
989.87384 172.0
990.262146 220.0
991.170471 212.0
992.004028 180.0
992.085571 136.0
992.85675 204.0
993.352295 136.0
995.165955 116.0
995.75 176.0
996.277588 196.0
996.975037 184.0
997.188721 124.0
997.383606 168.0
997.458984 124.0
998.968201 152.0
999.175781 172.0
999.584778 180.0
1000.006409 152.0
1000.314819 76.0
1000.793335 196.0
1002.166382 136.0
1002.674072 200.0
1003.174744 92.0
1004.045776 144.0
1005.30658 140.0
1006.234497 132.0
1006.543823 136.0
1006.935364 108.0
1007.39093 200.0
1007.503906 152.0
1007.807129 124.0
1008.989014 172.0
1009.115479 112.0
1009.282898 192.0
1010.551208 112.0
1010.870056 216.0
1011.551086 148.0
1011.848633 132.0
1013.40033 164.0
1013.932617 188.0
1014.15448 388.0
1014.782043 208.0
1014.991272 128.0
1015.473267 44.0
1016.335999 172.0
1017.726074 184.0
1018.056274 144.0
1018.799377 232.0
1019.491943 180.0
1019.61908 216.0
1019.911438 172.0
1020.388184 188.0
1020.464478 164.0
1020.531677 180.0
1021.501099 84.0
1021.990967 184.0
1022.156433 148.0
1022.32074 112.0
1023.550415 176.0
1023.843384 224.0
1024.709717 180.0
1025.028198 136.0
1025.162109 128.0
1025.22583 240.0
1025.321411 116.0
1026.688232 192.0
1026.972656 168.0
1027.161377 136.0
1027.738159 76.0
1027.859497 92.0
1027.987061 132.0
1028.274292 152.0
1028.31897 116.0
1028.504028 148.0
1028.701904 180.0
1029.027466 72.0
1029.270142 148.0
1029.688843 176.0
1029.787354 160.0
1030.068481 164.0
1030.279297 244.0
1030.867065 140.0
1032.113525 236.0
1032.401367 128.0
1032.898438 160.0
1033.661499 180.0
1033.815063 180.0
1033.987915 196.0
1034.698364 144.0
1035.120972 76.0
1035.710205 212.0
1035.799927 72.0
1035.895996 188.0
1036.408447 116.0
1037.113403 324.0
1037.357056 112.0
1037.562134 172.0
1039.396484 112.0
1039.685303 180.0
1040.115356 156.0
1040.187134 108.0
1040.603149 160.0
1041.046265 60.0
1041.283813 168.0
1041.418701 120.0
1042.363159 212.0
1042.645874 152.0
1042.954346 204.0
1043.603638 176.0
1044.188843 108.0
1044.298218 36.0
1044.651978 180.0
1044.812744 200.0
1046.318726 192.0
1046.705078 136.0
1046.904663 124.0
1046.962646 232.0
1047.336182 92.0
1047.555786 184.0
1048.160767 192.0
1048.360596 68.0
1048.515259 144.0
1049.321045 132.0
1051.52063 124.0
1051.785278 36.0
1051.830444 208.0
1052.210693 160.0
1052.553589 140.0
1053.418945 212.0
1053.742065 180.0
1054.433472 204.0
1055.34729 200.0
1055.538818 60.0
1056.470215 124.0
1056.609375 160.0
1057.447266 132.0
1057.609131 132.0
1058.651489 128.0
1058.929932 208.0
1059.0271 204.0
1059.091919 176.0
1059.571167 164.0
1059.655396 160.0
1060.219238 48.0
1060.348755 184.0
1060.705322 160.0
1062.021606 204.0
1062.767578 104.0
1062.96228 192.0
1063.215332 120.0
1063.299683 152.0
1063.922852 116.0
1064.994263 140.0
1065.073608 76.0
1065.26062 96.0
1065.838867 128.0
1066.300171 216.0
1066.625244 148.0
1067.197266 200.0
1067.275391 160.0
1067.366333 136.0
1068.333862 240.0
1068.400513 184.0
1070.196777 148.0
1070.81543 172.0
1070.900146 192.0
1070.997803 176.0
1072.00769 176.0
1072.359497 228.0
1073.793945 216.0
1074.387451 220.0
1074.609253 476.0
1074.856201 244.0
1075.033447 80.0
1075.692627 176.0
1075.863037 180.0
1076.136597 164.0
1076.378174 132.0
1076.580566 136.0
1076.704712 168.0
1076.854858 124.0
1076.979004 212.0
1078.140259 172.0
1078.213867 164.0
1078.592896 68.0
1078.821655 104.0
1078.913208 204.0
1079.017822 128.0
1079.07019 188.0
1079.789429 176.0
1080.08374 156.0
1080.14917 196.0
1081.215698 180.0
1081.706543 172.0
1082.542114 52.0
1083.736694 164.0
1084.254395 92.0
1084.437988 36.0
1084.507812 48.0
1085.375366 148.0
1085.591797 104.0
1085.729492 176.0
1086.057495 144.0
1086.365723 48.0
1086.634766 216.0
1087.533691 96.0
1087.651855 128.0
1087.77002 132.0
1088.023804 172.0
1088.269043 152.0
1088.367432 124.0
1088.630127 228.0
1088.870605 180.0
1088.932251 264.0
1089.004517 156.0
1089.943848 68.0
1090.219849 204.0
1091.225586 96.0
1091.935791 160.0
1092.258057 140.0
1092.468628 264.0
1092.962036 200.0
1093.008057 148.0
1093.073853 168.0
1093.718872 120.0
1093.896606 120.0
1094.074341 164.0
1094.179688 232.0
1094.265259 88.0
1094.54834 168.0
1094.97644 44.0
1096.432373 208.0
1096.761963 220.0
1096.999268 228.0
1097.262939 248.0
1097.493652 156.0
1097.862915 288.0
1099.294434 52.0
1099.34729 172.0
1099.452881 156.0
1099.637695 180.0
1100.337402 64.0
1100.509033 136.0
1100.654297 64.0
1101.116577 192.0
1101.512817 112.0
1101.64502 204.0
1101.901611 200.0
1102.027588 216.0
1102.219727 152.0
1102.358521 92.0
1102.424561 160.0
1102.503906 208.0
1102.715454 184.0
1102.854248 152.0
1102.940063 204.0
1103.032715 116.0
1103.343384 224.0
1104.004517 196.0
1104.064087 112.0
1104.322021 196.0
1104.520508 136.0
1104.65271 176.0
1104.732178 76.0
1104.877686 80.0
1105.51709 36.0
1106.25415 144.0
1106.936157 124.0
1107.015625 72.0
1107.896484 140.0
1107.96936 176.0
1108.19458 184.0
1110.153198 176.0
1110.223022 228.0
1110.269409 172.0
1110.388794 36.0
1111.270996 140.0
1111.523193 52.0
1112.206787 68.0
1112.452393 124.0
1112.883911 44.0
1113.269043 148.0
1113.514771 112.0
1113.640991 188.0
1113.84021 172.0
1114.983032 156.0
1115.115967 136.0
1117.316895 168.0
1117.769409 88.0
1117.948608 256.0
1118.182007 232.0
1118.621216 192.0
1120.105835 156.0
1120.472656 148.0
1120.545898 168.0
1120.617554 216.0
1120.674072 216.0
1120.938965 132.0
1121.742432 184.0
1121.985474 168.0
1122.618896 136.0
1123.192505 140.0
1123.899658 132.0
1124.204346 276.0
1124.860596 152.0
1125.227783 212.0
1125.808716 112.0
1125.895508 92.0
1125.975708 144.0
1126.049561 188.0
1126.109253 256.0
1126.558838 220.0
1128.187378 156.0
1128.354492 188.0
1128.915161 192.0
1129.330811 188.0
1130.039917 128.0
1130.581909 192.0
1130.749268 172.0
1130.796143 152.0
1131.726562 168.0
1131.960938 168.0
1132.235474 128.0
1132.443115 232.0
1132.744507 160.0
1132.905273 176.0
1133.799683 216.0
1134.741577 128.0
1134.831055 184.0
1135.224365 164.0
1136.116455 144.0
1136.523071 320.0
1136.606201 224.0
1137.074951 156.0
1137.252441 192.0
1137.800903 172.0
1138.385132 144.0
1138.546265 308.0
1139.070679 268.0
1139.873047 200.0
1140.259399 116.0
1140.481201 100.0
1140.643677 164.0
1140.884521 36.0
1140.992065 108.0
1141.213989 228.0
1141.69812 120.0
1141.79895 168.0
1142.255737 136.0
1142.599487 132.0
1142.976196 116.0
1143.178101 236.0
1143.433838 180.0
1143.494385 184.0
1143.682861 172.0
1143.898315 260.0
1144.315674 108.0
1144.377686 220.0
1145.117676 152.0
1145.211304 80.0
1145.494141 100.0
1145.696289 112.0
1145.925293 176.0
1146.585693 136.0
1146.653076 172.0
1147.596802 124.0
1148.015503 256.0
1148.419556 164.0
1148.999634 140.0
1150.234619 68.0
1150.470947 184.0
1150.55188 224.0
1151.274414 160.0
1151.659302 148.0
1151.834961 184.0
1152.196533 208.0
1152.469971 148.0
1152.666016 172.0
1153.355347 120.0
1153.591919 180.0
1154.031372 116.0
1154.125977 172.0
1154.200317 148.0
1154.48877 268.0
1154.558716 52.0
1154.666992 156.0
1154.741333 188.0
1155.03894 172.0
1155.174316 40.0
1155.30957 128.0
1155.417847 124.0
1155.492188 112.0
1155.815674 84.0
1156.033569 172.0
1156.256836 188.0
1156.378662 72.0
1156.439575 192.0
1156.703613 216.0
1157.231567 156.0
1157.515991 64.0
1157.617554 212.0
1158.071289 52.0
1158.254272 48.0
1158.348999 76.0
1158.531982 136.0
1159.053589 200.0
1159.263672 160.0
1159.381958 236.0
1159.934692 160.0
1160.009277 164.0
1160.063477 76.0
1160.36853 108.0
1160.510986 180.0
1161.331543 196.0
1161.848022 244.0
1161.989502 248.0
1163.049438 220.0
1163.543701 144.0
1163.883179 144.0
1164.657349 104.0
1165.064941 164.0
1165.574463 152.0
1165.825928 188.0
1166.396851 252.0
1166.695923 172.0
1167.741211 236.0
1167.947144 128.0
1168.307617 148.0
1169.001709 192.0
1170.66272 140.0
1171.084961 192.0
1171.221191 124.0
1171.47998 180.0
1171.582153 204.0
1172.038696 240.0
1172.283936 224.0
1172.563354 136.0
1172.61792 176.0
1172.829224 208.0
1173.244995 156.0
1173.292725 180.0
1173.467041 172.0
1174.08374 212.0
1174.868042 236.0
1175.113647 152.0
1175.27063 56.0
1176.226074 152.0
1176.499146 160.0
1176.908813 180.0
1177.113647 152.0
1178.247437 132.0
1178.34314 92.0
1178.554932 176.0
1178.780396 176.0
1178.930664 100.0
1179.142578 48.0
1179.217773 168.0
1179.470703 192.0
1179.545898 164.0
1180.126953 164.0
1180.797119 180.0
1180.872314 272.0
1181.446899 272.0
1181.782104 168.0
1181.898071 148.0
1182.623901 88.0
1183.089355 168.0
1183.23999 148.0
1183.904175 176.0
1183.986328 232.0
1184.349365 144.0
1184.595947 168.0
1184.698608 128.0
1185.777832 40.0
1186.124023 136.0
1186.32959 140.0
1186.521606 204.0
1186.88501 168.0
1187.042725 128.0
1187.426758 348.0
1188.112671 184.0
1188.421387 244.0
1188.778198 164.0
1189.416504 132.0
1189.896973 152.0
1190.30896 184.0
1190.741699 184.0
1191.68042 212.0
1191.902588 188.0
1192.005737 64.0
1192.15686 180.0
1192.216309 272.0
1192.411133 188.0
1192.514282 148.0
1192.692993 128.0
1192.864746 188.0
1193.215332 208.0
1193.510986 132.0
1193.669189 132.0
1193.772339 204.0
1194.487671 164.0
1194.687134 48.0
1194.776489 124.0
1195.987671 84.0
1196.068115 188.0
1196.188477 72.0
1196.373169 180.0
1196.634766 120.0
1197.089233 44.0
1197.667725 140.0
1197.87439 184.0
1198.549561 68.0
1198.949219 148.0
1199.035767 212.0
1199.438599 124.0
1199.927979 132.0
1200.327881 136.0
1200.51416 124.0
1200.558838 120.0
1200.810669 136.0
1201.17627 168.0
1201.314209 172.0
1201.362427 128.0
1201.521118 184.0
1201.734985 180.0
1201.969604 60.0
1202.017944 132.0
1202.397461 120.0
1202.528564 112.0
1202.645996 64.0
1202.735718 176.0
1202.853638 140.0
1203.474365 48.0
1203.605591 148.0
1203.716064 228.0
1203.971558 172.0
1204.068237 180.0
1204.358276 180.0
1204.510254 204.0
1204.655273 220.0
1204.938843 168.0
1205.138916 188.0
1205.307251 196.0
1205.415283 288.0
1206.106445 196.0
1206.515259 116.0
1206.618042 188.0
1206.776978 84.0
1206.887573 68.0
1206.942993 72.0
1207.399292 44.0
1208.67981 184.0
1208.748291 204.0
1208.997437 116.0
1209.19812 208.0
1209.848755 196.0
1210.063354 132.0
1210.600464 128.0
1211.711792 188.0
1211.996338 168.0
1212.196777 176.0
1212.622192 84.0
1213.11853 208.0
1213.388916 168.0
1213.922852 196.0
1214.040771 64.0
1214.110107 120.0
1214.343994 172.0
1214.484619 136.0
1214.546997 120.0
1215.129761 248.0
1215.247681 220.0
1215.527588 244.0
1215.726685 172.0
1216.33728 52.0
1217.121704 96.0
1217.205078 76.0
1217.336792 196.0
1217.364258 112.0
1217.388428 188.0
1217.538452 144.0
1217.98291 36.0
1218.100952 244.0
1218.420532 180.0
1218.677612 144.0
1218.816528 124.0
1219.699219 192.0
1220.61731 188.0
1220.811646 64.0
1221.061401 196.0
1221.242798 168.0
1221.555786 172.0
1221.625366 60.0
1221.875854 224.0
1222.049805 176.0
1222.209839 164.0
1222.467285 272.0
1223.107544 136.0
1223.15625 260.0
1223.211914 152.0
1223.260742 100.0
1223.873291 116.0
1224.325928 140.0
1224.438843 216.0
1225.022461 176.0
1225.270264 196.0
1225.335938 204.0
1225.63562 148.0
1226.109497 160.0
1226.297607 160.0
1226.430054 140.0
1226.674072 180.0
1226.813477 156.0
1227.071411 164.0
1227.141113 176.0
1227.399048 48.0
1227.47583 144.0
1227.529297 188.0
1227.736694 152.0
1228.44519 136.0
1228.598755 128.0
1228.654541 188.0
1228.745239 144.0
1229.408081 104.0
1229.743042 228.0
1230.140991 88.0
1230.462036 160.0
1230.741333 156.0
1231.141235 180.0
1231.432739 216.0
1231.502563 192.0
1231.6073 164.0
1232.15918 176.0
1232.361816 180.0
1232.835938 84.0
1233.647705 144.0
1233.745605 164.0
1234.213989 164.0
1235.095215 212.0
1236.242554 96.0
1236.942505 68.0
1237.642578 160.0
1238.09082 164.0
1238.181763 192.0
1239.442749 232.0
1239.687988 168.0
1240.318726 128.0
1240.564087 184.0
1240.760376 200.0
1241.279297 156.0
1241.44751 180.0
1242.008667 240.0
1242.12793 236.0
1242.33313 224.0
1242.5979 236.0
1242.857544 144.0
1243.420532 136.0
1243.938354 192.0
1244.043579 144.0
1244.696533 216.0
1244.829956 188.0
1245.764038 184.0
1246.572021 116.0
1246.67749 240.0
1247.20459 176.0
1247.28186 124.0
1248.055298 144.0
1248.357666 248.0
1250.10144 120.0
1250.376709 164.0
1250.637085 184.0
1251.003052 144.0
1251.108643 132.0
1251.425537 88.0
1251.904297 136.0
1251.953613 116.0
1252.284668 180.0
1252.622681 128.0
1252.693115 220.0
1252.897461 196.0
1253.101807 36.0
1253.186279 124.0
1253.348999 180.0
1253.672485 180.0
1254.250488 160.0
1254.666382 152.0
1255.166992 120.0
1255.350342 180.0
1255.434937 104.0
1255.484253 124.0
1255.584595 204.0
1255.759399 132.0
1255.879272 224.0
1255.978027 276.0
1256.242554 168.0
1256.669312 160.0
1257.111206 128.0
1257.212646 164.0
1258.124268 196.0
1258.554199 396.0
1258.702148 132.0
1259.577881 148.0
1259.754517 160.0
1259.874634 148.0
1260.015869 76.0
1260.164307 168.0
1260.885986 180.0
1261.061646 120.0
1261.351562 188.0
1261.49292 128.0
1262.227539 216.0
1262.376709 172.0
1262.503906 192.0
1262.644653 184.0
1263.020264 164.0
1263.437622 180.0
1263.911621 128.0
1264.357422 64.0
1264.414062 108.0
1264.605225 132.0
1264.803345 32.0
1264.994507 224.0
1265.702515 216.0
1265.964478 64.0
1266.19104 236.0
1266.290283 212.0
1266.856934 216.0
1267.225342 228.0
1267.9552 60.0
1268.139404 224.0
1268.954712 156.0
1269.280762 208.0
1269.514771 168.0
1269.624268 200.0
1269.855225 268.0
1270.138916 140.0
1270.330444 44.0
1270.387207 80.0
1271.139282 140.0
1272.21814 136.0
1272.293945 188.0
1272.480835 156.0
1272.921021 188.0
1273.06311 64.0
1273.439453 152.0
1273.503418 104.0
1273.815918 164.0
1274.753784 56.0
1275.045166 156.0
1275.208618 216.0
1276.289185 200.0
1277.28479 168.0
1277.71814 216.0
1277.83252 108.0
1277.959595 136.0
1278.174072 108.0
1278.238159 136.0
1278.921387 332.0
1279.020996 132.0
1279.412476 252.0
1279.647461 128.0
1280.096069 148.0
1280.437866 144.0
1280.537598 180.0
1280.979126 160.0
1281.121704 388.0
1281.335327 180.0
1281.741455 228.0
1281.791382 116.0
1281.862671 216.0
1282.318726 192.0
1282.546753 204.0
1282.839111 236.0
1283.059082 180.0
1283.359497 144.0
1283.53772 180.0
1284.143921 176.0
1285.535156 224.0
1286.027588 200.0
1286.748535 44.0
1287.134033 184.0
1287.276855 124.0
1288.205322 244.0
1288.269653 120.0
1288.419678 156.0
1288.505371 96.0
1288.583984 124.0
1288.905518 56.0
1289.727417 152.0
1289.841797 252.0
1289.906128 208.0
1290.033325 176.0
1290.077637 224.0
1290.234985 148.0
1290.412964 212.0
1290.542358 172.0
1290.756836 136.0
1290.927002 244.0
1291.379028 244.0
1292.257568 192.0
1292.344849 244.0
1292.430664 64.0
1292.680298 192.0
1292.845703 60.0
1293.074707 36.0
1293.160645 156.0
1293.747559 292.0
1293.833496 176.0
1293.921143 224.0
1294.05542 220.0
1294.153076 248.0
1294.320312 152.0
1294.381348 152.0
1294.570923 164.0
1294.921875 168.0
1295.494873 132.0
1296.189819 56.0
1296.820557 160.0
1297.150269 64.0
1298.202515 192.0
1298.620117 148.0
1298.731323 120.0
1299.064819 56.0
1299.172485 124.0
1299.244263 52.0
1299.416382 176.0
1300.421021 192.0
1300.8302 176.0
1300.922852 176.0
1301.095825 68.0
1301.714233 144.0
1301.900024 164.0
1301.9646 144.0
1302.646973 152.0
1302.869629 156.0
1303.049194 228.0
1303.744141 136.0
1304.022095 232.0
1304.155884 152.0
1304.378662 236.0
1305.263062 160.0
1305.708862 176.0
1305.77356 252.0
1305.974976 208.0
1306.528931 172.0
1306.694336 40.0
1307.133301 148.0
1307.932129 176.0
1308.400024 240.0
1309.047241 168.0
1309.17041 108.0
1309.278442 128.0
1309.840332 200.0
1310.020386 168.0
1310.193237 140.0
1310.949829 124.0
1311.454346 204.0
1312.24292 204.0
1312.441895 152.0
1312.838501 172.0
1313.220459 192.0
1313.328979 184.0
1313.913208 200.0
1313.978149 180.0
1314.144165 184.0
1314.620361 164.0
1315.046143 184.0
1315.118408 208.0
1315.658081 236.0
1315.858765 156.0
1316.56958 36.0
1316.677856 152.0
1316.995605 216.0
1317.876953 176.0
1318.570679 156.0
1318.874268 40.0
1318.926758 192.0
1319.112793 164.0
1319.163452 56.0
1319.423584 176.0
1319.922485 140.0
1320.119873 68.0
1320.255127 136.0
1320.551636 84.0
1321.26062 76.0
1321.313965 204.0
1321.593384 128.0
1321.658569 100.0
1321.947998 196.0
1322.157837 88.0
1322.375122 212.0
1322.440063 156.0
1322.707886 172.0
1323.13501 160.0
1323.475342 108.0
1323.526001 200.0
1323.793945 208.0
1323.982178 192.0
1324.134277 180.0
1324.706543 160.0
1325.532471 76.0
1326.771851 160.0
1327.569458 148.0
1327.844971 160.0
1328.138062 116.0
1328.56311 100.0
1328.819092 244.0
1329.114502 140.0
1329.17981 48.0
1329.230591 188.0
1329.354004 128.0
1329.44104 160.0
1329.716797 160.0
1330.362793 120.0
1330.471313 152.0
1330.747559 184.0
1330.798462 172.0
1330.950928 112.0
1331.125244 128.0
1331.422974 172.0
1331.648071 164.0
1331.887817 156.0
1332.650513 124.0
1332.715942 124.0
1333.049683 180.0
1333.47168 128.0
1333.580688 168.0
1334.525757 196.0
1334.772949 168.0
1335.056519 180.0
1335.325684 136.0
1336.133057 172.0
1336.220337 196.0
1336.271362 152.0
1336.897095 188.0
1337.124634 208.0
1337.515747 172.0
1338.076294 176.0
1338.484009 48.0
1338.782593 140.0
1339.168579 132.0
1339.427368 156.0
1339.824097 116.0
1339.882568 156.0
1339.940674 168.0
1340.144653 76.0
1340.720337 72.0
1341.274292 196.0
1341.974731 184.0
1342.907593 104.0
1343.184692 132.0
1344.60022 132.0
1344.753418 276.0
1345.454712 124.0
1345.563721 212.0
1345.709717 212.0
1345.841187 108.0
1346.502563 140.0
1346.776001 176.0
1346.914795 168.0
1347.141235 256.0
1347.267456 128.0
1347.345703 200.0
1347.762207 140.0
1348.522217 112.0
1348.975342 120.0
1349.041138 224.0
1349.311646 216.0
1349.479858 184.0
1349.574829 192.0
1349.633423 176.0
1349.75769 184.0
1349.874634 176.0
1349.94043 184.0
1350.079468 148.0
1350.262207 128.0
1350.657227 128.0
1350.723022 128.0
1351.615601 156.0
1352.223022 108.0
1352.281494 176.0
1353.035522 116.0
1353.606567 180.0
1354.631958 236.0
1354.807007 148.0
1354.990967 156.0
1356.544556 236.0
1357.197021 176.0
1357.571045 208.0
1357.651733 172.0
1357.923096 164.0
1358.341187 164.0
1358.46582 160.0
1358.5979 52.0
1359.376343 124.0
1359.57312 188.0
1359.742554 52.0
1359.953491 196.0
1360.759521 188.0
1361.548584 204.0
1361.598267 156.0
1362.378662 248.0
1362.46875 188.0
1362.753296 124.0
1363.083984 228.0
1363.488159 164.0
1363.550781 180.0
1364.268921 104.0
1364.715698 176.0
1364.767212 184.0
1365.053955 176.0
1365.311401 160.0
1365.737793 172.0
1365.833496 156.0
1365.89978 64.0
1366.216064 212.0
1367.334473 192.0
1367.452271 136.0
1367.63623 140.0
1368.077881 196.0
1368.254639 140.0
1368.497559 148.0
1369.020386 132.0
1369.643921 252.0
1369.771606 160.0
1369.992676 80.0
1370.257812 184.0
1370.61145 176.0
1370.825195 252.0
1370.891479 140.0
1370.950439 184.0
1371.304199 184.0
1371.680176 212.0
1371.949219 204.0
1372.564819 200.0
1372.904053 108.0
1373.272827 204.0
1373.589966 92.0
1373.641602 200.0
1373.715332 204.0
1373.88501 204.0
1374.378418 160.0
1374.637573 172.0
1374.703979 188.0
1374.940186 140.0
1376.763672 180.0
1377.007324 176.0
1377.162476 128.0
1377.568726 188.0
1377.664795 208.0
1377.886353 136.0
1378.226318 208.0
1378.514404 192.0
1378.950439 188.0
1379.231323 172.0
1379.837524 172.0
1380.155396 180.0
1380.22937 108.0
1380.717407 160.0
1380.828369 184.0
1380.924561 164.0
1381.050293 120.0
1381.109497 180.0
1381.301758 160.0
1381.553223 208.0
1381.891479 68.0
1382.063721 156.0
1382.589111 220.0
1383.12207 160.0
1383.432983 144.0
1383.514893 184.0
1383.588379 168.0
1384.328857 260.0
1384.943604 216.0
1385.921387 140.0
1386.143677 60.0
1386.358643 132.0
1386.736572 40.0
1386.818115 160.0
1387.463013 144.0
1387.618774 172.0
1387.818848 124.0
1387.939087 204.0
1388.085815 184.0
1388.263794 40.0
1388.538208 168.0
1388.590088 216.0
1388.834229 236.0
1388.968384 156.0
1389.57666 192.0
1389.650879 216.0
1389.873535 220.0
1390.073853 160.0
1390.281616 176.0
1390.623047 124.0
1390.934814 120.0
1391.135254 152.0
1391.387573 172.0
1391.654907 220.0
1392.300903 224.0
1392.494019 192.0
1392.657349 216.0
1392.709351 168.0
1392.813354 180.0
1393.065918 64.0
1393.140259 172.0
1393.385376 208.0
1393.71228 96.0
1393.890625 156.0
1393.979858 164.0
1394.210205 120.0
1395.035156 132.0
1395.154175 148.0
1395.347412 164.0
1395.444092 264.0
1395.548218 60.0
1395.711792 96.0
1395.853027 56.0
1395.934814 164.0
1396.373657 40.0
1396.619019 152.0
1397.124878 136.0
1397.243896 148.0
1397.653198 220.0
1397.764771 144.0
1398.084717 112.0
1398.21875 116.0
1398.427124 88.0
1398.479248 184.0
1398.828979 40.0
1399.104492 64.0
1399.309937 180.0
1399.402954 132.0
1399.536255 144.0
1399.70752 144.0
1400.19165 136.0
1400.281006 244.0
1400.415039 132.0
1400.73999 256.0
1400.775879 64.0
1401.086426 128.0
1401.212036 136.0
1401.30896 108.0
1401.481567 200.0
1401.987061 168.0
1402.098755 132.0
1402.516235 252.0
1402.598145 160.0
1402.784546 168.0
1403.082764 80.0
1403.306396 224.0
1403.574829 216.0
1404.231079 224.0
1404.283325 128.0
1404.581665 208.0
1405.245605 164.0
1405.433228 136.0
1405.790283 236.0
1406.125244 144.0
1406.254883 144.0
1407.387695 240.0
1407.855591 160.0
1408.15686 216.0
1408.216553 176.0
1408.552734 104.0
1408.627441 152.0
1409.105591 212.0
1409.501587 156.0
1409.635986 120.0
1409.822876 128.0
1409.901611 200.0
1410.211548 180.0
1410.301147 64.0
1410.443237 172.0
1410.734741 188.0
1411.018799 136.0
1411.347778 176.0
1411.459961 220.0
1411.848755 144.0
1412.215332 180.0
1412.334961 172.0
1412.903442 132.0
1413.038086 152.0
1413.524536 204.0
1413.625366 184.0
1414.197998 140.0
1414.377686 88.0
1414.673706 188.0
1415.066406 180.0
1416.092285 208.0
1416.698975 112.0
1416.848877 156.0
1418.639893 160.0
1418.729858 196.0
1418.954834 124.0
1419.464111 188.0
1419.70459 128.0
1419.862061 184.0
1420.177124 156.0
1420.612183 148.0
1420.889771 196.0
1420.97229 228.0
1421.617554 100.0
1421.745117 120.0
1421.887695 144.0
1422.435669 152.0
1422.546387 224.0
1422.660889 144.0
1422.743408 124.0
1422.869873 144.0
1423.013672 180.0
1423.196045 156.0
1423.426636 160.0
1423.731934 168.0
1424.267822 164.0
1424.598389 92.0
1424.838745 176.0
1424.94397 104.0
1425.206909 112.0
1425.469849 108.0
1425.747925 124.0
1426.048584 156.0
1426.244995 160.0
1427.371704 144.0
1428.206421 140.0
1428.261963 152.0
1428.334351 308.0
1428.409546 208.0
1429.259644 132.0
1429.366211 176.0
1429.929443 180.0
1430.027222 104.0
1430.215454 124.0
1430.463867 168.0
1430.83606 228.0
1430.907959 180.0
1431.209229 136.0
1431.299561 92.0
1431.939697 172.0
1432.444336 148.0
1432.657349 216.0
1433.268799 184.0
1433.702515 244.0
1433.86084 196.0
1433.913574 172.0
1433.99646 188.0
1434.362671 284.0
1435.179077 188.0
1436.05481 208.0
1436.1604 184.0
1436.499756 180.0
1436.952515 176.0
1437.171265 164.0
1438.559937 104.0
1438.673218 208.0
1438.858154 132.0
1438.998047 136.0
1439.141235 192.0
1439.307373 192.0
1439.450806 176.0
1439.548096 172.0
1439.692505 192.0
1440.017212 200.0
1440.175781 204.0
1440.515747 164.0
1440.840576 164.0
1440.943115 200.0
1441.006836 144.0
1441.059692 180.0
1441.286377 184.0
1441.732178 148.0
1441.913574 200.0
1442.624146 60.0
1442.692139 200.0
1442.949219 204.0
1443.041138 116.0
1443.259155 152.0
1443.342285 104.0
1443.856567 240.0
1444.166626 104.0
1444.400146 184.0
1445.203003 172.0
1445.271118 156.0
1445.738037 188.0
1446.345825 164.0
1446.555054 220.0
1446.762085 208.0
1446.815063 136.0
1446.883301 148.0
1447.276489 140.0
1447.541992 180.0
1447.685791 128.0
1447.807007 160.0
1447.890381 116.0
1448.162598 156.0
1448.367432 160.0
1448.712524 212.0
1448.776489 152.0
1449.087158 212.0
1449.76355 120.0
1450.41333 156.0
1450.815063 180.0
1451.080444 148.0
1451.224487 148.0
1451.474731 148.0
1452.377197 192.0
1452.483398 132.0
1452.651733 216.0
1453.401367 168.0
1453.537964 168.0
1453.948608 148.0
1454.061523 204.0
1454.477417 188.0
1455.549438 220.0
1456.035522 128.0
1456.635498 164.0
1456.764648 156.0
1456.906982 124.0
1457.274658 192.0
1457.851196 164.0
1457.934814 160.0
1458.101929 180.0
1458.16272 168.0
1458.299561 140.0
1458.663818 148.0
1458.816406 136.0
1458.991333 148.0
1459.356201 132.0
1459.72876 220.0
1459.979736 248.0
1460.382812 140.0
1460.877319 136.0
1460.930542 156.0
1461.158691 56.0
1461.425049 136.0
1461.934814 204.0
1462.056641 176.0
1462.147949 164.0
1462.604614 160.0
1462.688354 140.0
1463.046265 328.0
1463.167969 128.0
1463.23645 268.0
1463.343018 236.0
1464.477661 184.0
1465.057129 132.0
1465.338501 184.0
1465.94519 192.0
1465.996704 192.0
1466.321533 144.0
1466.45105 192.0
1467.602173 132.0
1467.670776 168.0
1467.899536 172.0
1468.425781 168.0
1468.524902 160.0
1468.875732 184.0
1469.394531 156.0
1469.819946 184.0
1471.02002 152.0
1471.523926 156.0
1471.623169 220.0
1471.709595 196.0
1471.844604 56.0
1471.966675 168.0
1472.073608 48.0
1473.036011 80.0
1473.524902 92.0
1473.600952 160.0
1473.945068 180.0
1474.075073 132.0
1474.380737 256.0
1474.831665 200.0
1475.045654 164.0
1476.307129 192.0
1476.605469 160.0
1476.919067 132.0
1477.079712 36.0
1477.508057 228.0
1477.676392 120.0
1477.751587 144.0
1477.951782 212.0
1478.081909 252.0
1478.251221 148.0
1478.541016 188.0
1478.839478 224.0
1479.053833 152.0
1479.138062 328.0
1479.229858 168.0
1479.34436 168.0
1479.421265 72.0
1479.62793 252.0
1479.719849 116.0
1480.087402 180.0
1480.355347 156.0
1480.684692 220.0
1480.75354 148.0
1480.968018 196.0
1481.113525 60.0
1481.182495 148.0
1481.465942 164.0
1481.596191 192.0
1481.956299 120.0
1482.009888 172.0
1482.146118 156.0
1482.851196 188.0
1483.274414 120.0
1483.604004 192.0
1483.703735 176.0
1483.895386 140.0
1484.110107 220.0
1484.209717 212.0
1484.485718 200.0
1484.723511 168.0
1485.030273 76.0
1485.337036 104.0
1485.501465 152.0
1485.657959 164.0
1485.686768 136.0
1485.950806 180.0
1486.349731 100.0
1486.461182 192.0
1486.787231 164.0
1487.078857 200.0
1487.163208 144.0
1487.355103 96.0
1487.462646 172.0
1487.869507 208.0
1488.260986 192.0
1488.376221 260.0
1488.68335 152.0
1488.752441 168.0
1489.028931 316.0
1489.167236 192.0
1489.30542 128.0
1490.196533 192.0
1490.411743 180.0
1490.57312 208.0
1490.719116 196.0
1490.772827 160.0
1490.842041 124.0
1490.911133 116.0
1491.481445 216.0
1492.102661 164.0
1492.671631 144.0
1493.302246 224.0
1493.602173 216.0
1493.709839 140.0
1493.763672 292.0
1493.994507 160.0
1494.148315 156.0
1494.687866 172.0
1495.225586 156.0
1496.335205 160.0
1496.426392 184.0
1497.101929 308.0
1497.204102 88.0
1497.419189 188.0
1497.481445 68.0
1497.581543 196.0
1497.828003 184.0
1498.105347 260.0
1498.236328 244.0
1498.321045 176.0
1498.513672 216.0
1498.652344 156.0
1499.345825 176.0
1499.792847 152.0
1500.209106 184.0
1500.64856 160.0
1500.926147 56.0
1501.172852 136.0
1501.5354 172.0
1501.705078 196.0
1502.445557 152.0
1502.792725 156.0
1503.055054 112.0
1503.255737 240.0
1503.703369 196.0
1504.251709 176.0
1504.421143 144.0
1505.293579 108.0
