>compound Lenalidomide
>formula C13H13N3O3
>ionization [M+H]+
>parentmass 260.10257
#inchi InChI=1S/C13H13N3O3/c14-9-3-1-2-7-8(9)6-16(13(7)19)10-4-5-11(17)15-12(10)18/h1-3,10H,4-6,14H2,(H,15,17,18)
#inchikey GOTYRUGSSMKFNF
#Ion_Source LC-ESI
#Instrument qTof
#Compound_Source Commercial
#PI Dorrestein
#Data_Collector Garg_Neha
#Scan -1
#Precursor_MZ 260.103
#ExactMass 259.096
#Charge 1
#CAS_Number 191732-72-6, 1243329-97-6 (HCl)
#Pubmed_ID N/A
#Smiles C1=CC(=C2C(=C1)C(N(C2)C3C(NC(CC3)=O)=O)=O)N
#INCHI_AUX N/A
#Library_Class 1
#SpectrumID CCMSLIB00000078006
#IonMode Positive
#UpdateWorkflowName UPDATE-SINGLE-ANNOTATED-GOLD
#LibraryQualityString Gold
#TaskID 77f51c88eb8b467eb4a01dd2d0cb90d2
##Scan# 1032
#SpectrumFile Plate1_1_20_GG1_01_16488.mzXML
#LibraryName FDALibrary_2_04302014.mgf
#MQScore -1
#Organism FDALibrary_2_04302014
#TIC_Query 0
#RT_Query -1
#MZErrorPPM -1
#SharedPeaks 0
#MassDiff 0
#LibMZ -1
#SpecMZ 260.103
#SpecCharge 0
#internalFilename spec-00000.mgf

>collision 10
45.56094 216.0
45.694042 144.0
47.627293 156.0
47.752373 168.0
48.396851 192.0
49.601997 180.0
50.127659 184.0
50.843254 160.0
51.073429 188.0
53.690701 156.0
53.912609 140.0
54.240471 168.0
55.209305 188.0
55.5574 160.0
57.18475 172.0
57.478626 200.0
58.170311 196.0
60.103409 168.0
60.253181 152.0
60.950436 188.0
61.272518 228.0
61.284981 208.0
61.341087 156.0
61.562649 164.0
62.460751 140.0
65.540054 176.0
66.343346 168.0
66.820831 212.0
67.270645 188.0
67.497749 148.0
68.138641 152.0
68.505516 188.0
69.288612 148.0
70.112816 208.0
71.032448 184.0
71.444031 220.0
72.099976 152.0
72.181122 184.0
72.548538 152.0
73.250389 172.0
73.892303 240.0
74.008698 156.0
74.13546 176.0
76.362686 280.0
76.399216 212.0
76.66214 292.0
77.839478 180.0
78.175247 156.0
78.654648 184.0
79.006325 168.0
81.227867 172.0
81.900154 148.0
82.495651 168.0
83.227623 196.0
83.740471 148.0
83.864372 172.0
86.136108 152.0
86.184143 140.0
86.394913 156.0
86.859901 160.0
87.83091 144.0
89.019402 156.0
91.443184 160.0
91.782288 200.0
91.948257 160.0
92.001709 188.0
92.2883 212.0
93.258354 192.0
93.35833 148.0
93.491074 192.0
94.279861 152.0
95.912193 172.0
96.507645 196.0
96.656311 156.0
97.232468 172.0
97.548714 168.0
97.641129 196.0
98.119637 216.0
99.115829 240.0
99.554237 140.0
100.893265 156.0
101.161346 176.0
101.963692 156.0
102.492958 176.0
102.698601 216.0
103.187309 144.0
103.906311 160.0
104.048141 136.0
104.462967 168.0
104.900803 176.0
105.039474 156.0
105.803787 148.0
106.064636 1196.0
106.081543 240.0
106.410667 172.0
106.716812 248.0
107.069077 152.0
107.689514 228.0
108.322479 160.0
108.494492 216.0
109.061211 212.0
109.983978 220.0
110.255501 224.0
110.560677 244.0
111.550873 228.0
112.026474 176.0
112.855927 180.0
113.724518 204.0
115.082756 168.0
116.825233 148.0
117.579407 148.0
119.442825 224.0
120.043289 612.0
120.142349 168.0
120.926605 184.0
121.079865 140.0
121.957504 244.0
122.520859 276.0
122.659698 164.0
122.893471 204.0
123.985893 184.0
124.225365 148.0
124.254204 188.0
124.589455 188.0
125.072014 168.0
129.522766 188.0
130.959106 192.0
131.015289 316.0
131.061569 264.0
131.188492 160.0
131.969315 180.0
132.037918 160.0
132.077591 320.0
133.064728 188.0
133.74501 196.0
134.161972 216.0
134.517242 180.0
134.614212 188.0
135.701782 204.0
136.086945 180.0
137.784866 156.0
138.268143 120.0
138.55928 176.0
139.406372 140.0
141.422897 152.0
141.958344 164.0
142.292923 172.0
142.506683 224.0
142.549454 188.0
142.858551 156.0
143.056671 192.0
143.313309 148.0
144.080078 140.0
146.369827 168.0
147.055481 320.0
147.110031 168.0
147.356369 140.0
148.058502 200.0
148.739212 180.0
148.80719 144.0
148.983322 244.0
149.008774 160.0
149.033066 208.0
149.070923 30140.0
149.227112 96.0
149.412369 152.0
149.500961 104.0
149.828186 184.0
149.86467 144.0
150.00415 264.0
150.073441 3088.0
150.382248 248.0
151.076874 212.0
152.247894 140.0
158.057587 164.0
158.078979 176.0
158.978653 164.0
159.056458 184.0
159.091934 1148.0
160.074722 156.0
160.093536 208.0
161.060867 164.0
161.079865 196.0
161.374252 200.0
162.966019 156.0
165.708908 200.0
168.074493 196.0
169.077026 268.0
170.060211 160.0
170.098434 140.0
173.076462 172.0
173.149185 172.0
176.404129 152.0
178.317947 192.0
180.311569 204.0
185.664017 156.0
185.970612 180.0
186.973541 224.0
187.038864 184.0
187.085678 10364.0
187.223389 124.0
187.670914 148.0
187.995529 164.0
188.089264 2264.0
188.263077 168.0
189.299545 176.0
190.082809 160.0
191.012207 148.0
195.330429 144.0
199.972641 168.0
203.006989 192.0
203.09491 168.0
204.032028 172.0
205.75856 160.0
209.066498 176.0
209.118301 196.0
212.958115 160.0
214.098236 148.0
215.081375 2912.0
216.051025 164.0
216.087708 460.0
216.938385 152.0
224.049149 172.0
231.005264 148.0
232.105621 1432.0
233.115921 240.0
243.082291 208.0
243.174316 156.0
257.255829 212.0
259.081909 176.0
259.170319 172.0
259.20047 180.0
259.585144 144.0
259.652496 144.0
260.05719 180.0
260.10257 7768.0
260.170074 200.0
261.103821 996.0
261.130829 892.0
261.207123 204.0
262.109467 228.0
263.124664 200.0
267.01651 140.0
327.071198 152.0
444.880005 140.0
1349.605469 176.0
1422.807861 200.0
1453.209717 180.0
1497.681519 196.0
1514.567139 140.0
1523.317261 144.0
1549.076538 208.0
1552.258667 148.0
1560.511353 168.0
1573.266968 152.0
1590.826172 224.0
1597.732422 176.0
1617.163696 212.0
1620.991943 156.0
1641.095825 140.0
1641.684448 160.0
1643.620605 160.0
1652.266113 208.0
1658.39624 152.0
1685.897949 188.0
1692.090088 208.0
1738.374878 224.0
1740.71582 144.0
1743.498901 248.0
1751.253174 172.0
1753.894653 176.0
1765.132324 232.0
1783.795776 176.0
1791.251587 236.0
1801.949097 224.0
1807.580566 180.0
1807.766724 164.0
1832.102417 196.0
1837.865723 200.0
1838.522827 188.0
1844.818115 184.0
1850.002319 220.0
1860.770508 248.0
1879.715942 172.0
1893.193359 152.0
1897.916138 188.0
1917.86853 236.0
1924.612305 160.0
1926.787231 152.0
1939.695557 248.0
1940.835327 168.0
1947.593018 264.0
1953.086792 160.0
1958.297607 220.0
1969.437866 180.0
1991.25354 164.0
1994.274536 164.0
1997.155396 188.0
