>compound NCGC00160302-01!BELLADONNINE
>formula C34H42N2O4
>ionization [M+H]+
>parentmass 543.320801
#inchi InChI=1S/C34H42N2O4/c1-35-23-12-13-24(35)19-27(18-23)39-32(37)30-16-17-34(22-8-4-3-5-9-22,31-11-7-6-10-29(30)31)33(38)40-28-20-25-14-15-26(21-28)36(25)2/h3-11,23-28,30H,12-21H2,1-2H3
#inchikey GERIGMSHTUAXSI
#Ion_Source LC-ESI
#Instrument qTOF
#Compound_Source Prestwick Phytochem Lib
#PI Dorrestein
#Data_Collector VVP/LMS
#Scan -1
#Precursor_MZ 543.322
#ExactMass 542.314
#Charge 1
#CAS_Number N/A
#Pubmed_ID N/A
#Smiles CN1C2CCC1CC(C2)OC(=O)C3CCC(C(=O)OC4CC5CCC(C4)N5C)(C6=CC=CC=C6)C7=C3C=CC=C7
#INCHI_AUX N/A
#Library_Class 1
#SpectrumID CCMSLIB00000078800
#IonMode Positive
#UpdateWorkflowName UPDATE-SINGLE-ANNOTATED-GOLD
#LibraryQualityString Gold
#TaskID 67c915c6594c435cadc1fe2b5358144d
##Scan# 1486
#SpectrumFile p1-D04_GD4_01_17912.mzXML
#LibraryName phytochem_lib.mgf
#MQScore -1
#Organism phytochem_lib
#TIC_Query 0
#RT_Query -1
#MZErrorPPM -1
#SharedPeaks 0
#MassDiff 0
#LibMZ -1
#SpecMZ 543.322
#SpecCharge 0
#internalFilename spec-00000.mgf

>collision 10
99.081383 32.0
107.069443 140.0
109.425865 112.0
122.730003 116.0
123.540527 216.0
124.112663 1272.0
125.118423 152.0
128.981293 192.0
129.0672 36.0
132.815765 124.0
140.10379 132.0
141.092606 92.0
143.893616 180.0
144.613113 96.0
148.882858 52.0
173.061584 172.0
189.371185 160.0
201.127991 152.0
203.083115 164.0
205.093307 112.0
205.312836 96.0
234.860596 112.0
237.638245 20.0
243.817123 124.0
247.363403 128.0
247.504272 208.0
251.105545 120.0
263.960114 116.0
266.225189 140.0
272.657654 192.0
280.382019 52.0
282.2146 184.0
287.913605 152.0
305.731689 136.0
320.700562 176.0
325.085114 192.0
329.466919 152.0
330.363434 204.0
338.146515 80.0
339.590027 64.0
344.448547 116.0
348.477478 148.0
351.640533 64.0
357.855652 96.0
358.367889 132.0
358.458313 148.0
362.960205 176.0
368.463776 156.0
370.479858 116.0
370.813202 172.0
370.882202 124.0
373.123993 156.0
375.232117 192.0
376.236786 168.0
381.066162 176.0
383.61911 88.0
392.38092 148.0
393.92392 76.0
394.896271 64.0
395.506439 184.0
404.885773 120.0
406.409027 96.0
408.224579 108.0
417.070435 196.0
418.20929 200.0
420.213654 3228.0
420.577362 52.0
420.973358 104.0
421.120392 172.0
421.219208 1756.0
421.426758 76.0
422.207092 292.0
422.247498 56.0
422.39563 40.0
423.390198 60.0
425.308929 108.0
434.62738 144.0
436.40921 20.0
443.02829 20.0
475.129608 64.0
476.449341 116.0
480.013947 176.0
521.736633 184.0
525.936523 116.0
541.31958 152.0
541.708618 84.0
542.385681 100.0
542.807007 72.0
543.255554 172.0
543.320801 2328.0
543.503479 100.0
543.827576 52.0
544.32428 1372.0
544.409729 88.0
544.510071 288.0
544.723755 132.0
544.979248 44.0
545.197632 132.0
545.328308 320.0
545.425354 40.0
545.956421 144.0
547.058105 112.0
547.281555 108.0
547.635437 84.0
547.793823 80.0
550.951965 76.0
554.137878 48.0
559.524719 56.0
565.978821 104.0
571.084961 52.0
580.330078 68.0
651.805725 60.0
657.95813 108.0
677.974731 112.0
682.992798 20.0
703.602905 56.0
754.93927 92.0
758.958435 40.0
788.039429 112.0
788.670898 40.0
789.979309 100.0
924.549622 72.0
986.037598 20.0
1019.527832 144.0
1067.109253 60.0
1076.949097 84.0
1120.547607 124.0
1338.334595 172.0
1430.924438 164.0
1478.939209 208.0
1480.366943 20.0
