>compound MLS002696003-01!84226-12-0
>formula C17H25ClN2O3
>ionization [M+H]+
>parentmass 341.161621
#inchi InChI=1S/C17H25ClN2O3/c1-4-11-9-13(18)16(23-3)14(15(11)21)17(22)19-10-12-7-6-8-20(12)5-2/h9,12,21H,4-8,10H2,1-3H3,(H,19,22)/t12-/m0/s1
#inchikey AADCDMQTJNYOSS
#origInchi InChI=1S/C17H25ClN2O3.ClH/c1-4-11-9-13(18)16(23-3)14(15(11)21)17(22)19-10-12-7-6-8-20(12)5-2;/h9,12,21H,4-8,10H2,1-3H3,(H,19,22);1H/t12-;/m0./s1
#Ion_Source LC-ESI
#Instrument qTof
#Compound_Source NIH Pharmacologically Active Library
#PI Dorrestein
#Data_Collector VP/LMS
#Scan -1
#Precursor_MZ 341.165
#ExactMass 340.155
#Charge 1
#CAS_Number N/A
#Pubmed_ID N/A
#Smiles CCN1CCC[C@H]1CNC(=O)c2c(O)c(CC)cc(Cl)c2OC.Cl
#INCHI_AUX N/A
#Library_Class 1
#SpectrumID CCMSLIB00000084965
#IonMode Positive
#UpdateWorkflowName UPDATE-SINGLE-ANNOTATED-GOLD
#LibraryQualityString Gold
#TaskID d252d724072548979f1f6f1ced849daf
##Scan# 1850
#SpectrumFile p3-D03_GD3_01_18260.mzXML
#LibraryName Pharm_Active_Library.mgf
#MQScore -1
#Organism Pharm_Active_Library
#TIC_Query 0
#RT_Query -1
#MZErrorPPM -1
#SharedPeaks 0
#MassDiff 0
#LibMZ -1
#SpecMZ 341.165
#SpecCharge 0
#internalFilename spec-00000.mgf

>collision 10
44.894791 132.0
44.908127 132.0
44.942814 144.0
44.963238 92.0
44.972172 188.0
45.012894 160.0
45.051239 192.0
45.073673 112.0
45.099068 168.0
45.116184 164.0
45.153889 132.0
45.182579 152.0
45.192684 160.0
45.214447 152.0
45.230156 116.0
45.247562 156.0
45.30479 224.0
45.345539 176.0
45.388252 56.0
45.401661 184.0
45.411049 168.0
45.422733 152.0
45.44593 152.0
45.47369 96.0
45.502304 72.0
45.513046 236.0
45.538563 136.0
45.551003 168.0
45.614895 144.0
45.639355 68.0
45.668941 148.0
45.686432 168.0
45.706612 124.0
45.732185 184.0
45.759109 212.0
45.775269 164.0
45.792774 336.0
45.802719 136.0
45.817024 104.0
45.87093 32.0
45.895199 208.0
45.914078 188.0
45.934311 40.0
45.959061 116.0
45.972092 96.0
45.994083 176.0
46.016636 132.0
46.032486 184.0
46.074715 172.0
46.140938 120.0
46.181671 132.0
46.190975 184.0
46.222095 112.0
46.26355 140.0
46.300034 160.0
46.31321 188.0
46.326031 256.0
46.340885 176.0
46.377682 164.0
46.403603 172.0
46.460567 188.0
46.482277 140.0
46.494492 132.0
46.529198 176.0
46.531738 148.0
46.547436 124.0
46.5583 60.0
46.614002 172.0
46.627098 176.0
46.646622 164.0
46.661522 200.0
46.677895 156.0
46.710537 240.0
46.744549 172.0
46.763603 120.0
46.797836 176.0
46.838493 140.0
46.879372 156.0
46.910721 168.0
46.956749 212.0
46.97485 152.0
47.010811 136.0
47.030941 152.0
47.044037 160.0
47.077507 136.0
47.090042 164.0
47.105583 136.0
47.113415 220.0
47.123627 148.0
47.13456 220.0
47.163261 232.0
47.184784 140.0
47.204277 152.0
47.234676 160.0
47.262611 180.0
47.279522 168.0
47.301502 200.0
47.338387 160.0
47.352085 116.0
47.367153 88.0
47.379894 176.0
47.456234 92.0
47.475433 176.0
47.485035 84.0
47.496006 168.0
47.508354 192.0
47.559334 132.0
47.57011 336.0
47.581093 352.0
47.593979 156.0
47.608509 120.0
47.646454 352.0
47.667629 56.0
47.707832 176.0
47.73774 112.0
47.772125 112.0
47.799644 148.0
47.820713 180.0
47.86021 112.0
47.875359 124.0
47.914219 132.0
47.931313 84.0
47.959873 176.0
47.972073 172.0
47.995251 128.0
48.025593 80.0
48.072502 136.0
48.08997 164.0
48.102783 204.0
48.119434 160.0
48.1581 180.0
48.175343 324.0
48.236866 144.0
48.257603 184.0
48.282494 120.0
48.310158 164.0
48.322609 132.0
48.334435 132.0
48.356087 168.0
48.386276 232.0
48.461071 48.0
48.473541 116.0
48.491558 128.0
48.501263 136.0
48.517899 152.0
48.574757 180.0
48.590015 136.0
48.63026 192.0
48.646919 144.0
48.668221 152.0
48.698296 128.0
48.712189 144.0
48.73164 120.0
48.751095 116.0
48.764992 164.0
48.795574 216.0
48.805309 120.0
48.819168 124.0
48.842857 144.0
48.871452 304.0
48.904083 72.0
48.92775 136.0
48.951725 256.0
48.969524 188.0
48.987576 192.0
48.993061 152.0
48.999287 328.0
49.024185 148.0
49.086594 136.0
49.096355 156.0
49.128437 132.0
49.159134 108.0
49.171696 176.0
49.203854 220.0
49.234943 160.0
49.252682 156.0
49.265255 128.0
49.277828 128.0
49.29739 140.0
49.310143 128.0
49.335133 144.0
49.354877 164.0
49.459633 164.0
49.479206 112.0
49.516502 52.0
49.526932 168.0
49.532169 40.0
49.536304 160.0
49.545059 276.0
49.556267 128.0
49.58009 144.0
49.594105 136.0
49.616535 152.0
49.62635 188.0
49.674034 136.0
49.702446 160.0
49.718937 140.0
49.744202 152.0
49.796803 148.0
49.825066 124.0
49.85511 100.0
49.887493 176.0
49.916775 160.0
49.923298 112.0
49.927528 212.0
49.942337 76.0
49.959217 180.0
50.00182 160.0
50.018791 152.0
50.078297 140.0
50.094776 248.0
50.105637 228.0
50.140186 116.0
50.151005 332.0
50.164829 192.0
50.210419 180.0
50.226116 140.0
50.239914 232.0
50.257816 172.0
50.273438 156.0
50.306351 176.0
50.320019 152.0
50.335552 176.0
50.356735 116.0
50.396294 100.0
50.418903 124.0
50.440105 140.0
50.452827 40.0
50.47422 184.0
50.486763 144.0
50.530617 104.0
50.547596 168.0
50.575901 140.0
50.587227 104.0
50.617153 176.0
50.659451 80.0
50.675034 112.0
50.700485 204.0
50.723846 152.0
50.741566 136.0
50.818241 108.0
50.843784 124.0
50.884953 168.0
50.90625 160.0
50.920452 220.0
50.961651 308.0
51.005707 136.0
51.022766 68.0
51.061832 148.0
51.095303 60.0
51.1138 192.0
51.13409 140.0
51.156399 176.0
51.172161 160.0
51.217731 128.0
51.2304 188.0
51.240883 168.0
51.258663 296.0
51.283619 200.0
51.313213 92.0
51.328899 136.0
51.351719 144.0
51.36676 176.0
51.387383 120.0
51.412346 192.0
51.434479 172.0
51.465462 188.0
51.484898 192.0
51.497307 204.0
51.593048 104.0
51.658508 176.0
51.724663 152.0
51.746346 348.0
51.777641 168.0
51.839245 120.0
51.863609 184.0
51.890846 104.0
51.938175 184.0
51.951344 156.0
51.988392 128.0
52.009583 172.0
52.073795 124.0
52.107815 72.0
52.165062 168.0
52.198132 92.0
52.236755 248.0
52.296219 68.0
52.323315 104.0
52.342598 136.0
52.393887 204.0
52.429123 176.0
52.459873 188.0
52.478924 144.0
52.489017 124.0
52.51786 144.0
52.532288 144.0
52.548157 120.0
52.573624 148.0
52.598667 228.0
52.614548 120.0
52.626099 148.0
52.662201 116.0
52.688103 224.0
52.708431 156.0
52.727356 128.0
52.763359 124.0
52.774704 184.0
52.793633 188.0
52.812527 180.0
52.833576 116.0
52.872681 160.0
52.88958 160.0
52.900799 116.0
52.961918 116.0
52.973206 168.0
52.997837 120.0
53.030132 140.0
53.052914 176.0
53.06741 172.0
53.093513 128.0
53.144287 164.0
53.224121 308.0
53.235737 128.0
53.262901 228.0
53.29314 132.0
53.314457 172.0
53.353436 96.0
53.363613 176.0
53.378155 168.0
53.391243 200.0
53.43779 220.0
53.491638 156.0
53.517048 168.0
53.542908 152.0
53.571644 188.0
53.587761 164.0
53.656944 248.0
53.685429 112.0
53.70293 112.0
53.714111 192.0
53.749702 132.0
53.761131 184.0
53.780262 188.0
53.799919 224.0
53.877987 100.0
53.922253 132.0
53.932705 140.0
53.951622 132.0
53.971649 360.0
53.986271 72.0
54.008209 256.0
54.034542 100.0
54.048298 140.0
54.066734 124.0
54.079906 112.0
54.107723 212.0
54.139938 176.0
54.151623 188.0
54.189743 144.0
54.201962 240.0
54.247597 168.0
54.263027 160.0
54.312889 116.0
54.331959 136.0
54.348099 172.0
54.365707 136.0
54.397999 184.0
54.462612 104.0
54.52726 176.0
54.537552 124.0
54.560223 192.0
54.574303 156.0
54.586067 132.0
54.597832 172.0
54.616596 148.0
54.636078 128.0
54.678753 152.0
54.688831 132.0
54.69326 112.0
54.742058 144.0
54.762943 220.0
54.803669 208.0
54.830452 164.0
54.851086 228.0
54.868778 172.0
54.924816 240.0
54.945469 168.0
54.955799 120.0
54.970554 216.0
54.987724 264.0
55.039936 204.0
55.056179 164.0
55.073902 136.0
55.094585 152.0
55.113129 128.0
55.156837 128.0
55.183262 220.0
55.195091 124.0
55.210411 156.0
55.244457 160.0
55.281746 256.0
55.297173 60.0
55.317974 152.0
55.331219 72.0
55.403111 140.0
55.416084 296.0
55.447521 148.0
55.485302 68.0
55.498646 192.0
55.529789 124.0
55.56588 256.0
55.609913 168.0
55.630695 212.0
55.64719 180.0
55.67524 84.0
55.69455 68.0
55.720383 144.0
55.743576 180.0
55.784576 192.0
55.798573 128.0
55.838726 164.0
55.855087 120.0
55.895256 172.0
55.945396 140.0
55.983089 144.0
56.007774 160.0
56.054596 96.0
56.078442 72.0
56.088875 148.0
56.103783 96.0
56.130619 384.0
56.145535 156.0
56.1814 176.0
56.201347 116.0
56.220127 140.0
56.272373 180.0
56.30883 136.0
56.321655 200.0
56.342571 268.0
56.37096 128.0
56.438229 100.0
56.458416 264.0
56.492073 156.0
56.50404 196.0
56.538456 156.0
56.589352 144.0
56.603481 156.0
56.628288 120.0
56.646263 44.0
56.701706 160.0
56.716694 116.0
56.766171 156.0
56.786758 192.0
56.811169 124.0
56.82795 280.0
56.842678 128.0
56.862186 136.0
56.925968 180.0
56.943264 208.0
56.956287 228.0
57.030411 128.0
57.043941 240.0
57.088997 116.0
57.111935 184.0
57.141697 408.0
57.156742 144.0
57.170284 36.0
57.20039 200.0
57.221466 136.0
57.238029 196.0
57.278694 220.0
57.302799 164.0
57.319126 196.0
57.343487 204.0
57.363083 116.0
57.409035 336.0
57.42448 156.0
57.461712 120.0
57.486191 180.0
57.516949 148.0
57.527515 140.0
57.538082 136.0
57.561825 232.0
57.567673 168.0
57.572704 332.0
57.59547 116.0
57.61964 120.0
57.640442 172.0
57.64423 132.0
57.659409 340.0
57.67416 52.0
57.707302 124.0
57.740574 288.0
57.76326 144.0
57.777966 272.0
57.830578 164.0
57.840435 208.0
57.854061 96.0
57.870716 308.0
57.919952 188.0
57.941902 324.0
57.963642 172.0
57.968571 60.0
57.973106 148.0
57.999489 148.0
58.036652 312.0
58.072826 164.0
58.090473 120.0
58.102612 136.0
58.149651 72.0
58.180012 188.0
58.198814 156.0
58.257465 160.0
58.313396 208.0
58.33725 184.0
58.357773 32.0
58.385147 48.0
58.407963 216.0
58.438389 140.0
58.488609 148.0
58.514492 184.0
58.561699 224.0
58.576782 164.0
58.608925 204.0
58.624165 160.0
58.674465 160.0
58.728085 176.0
58.752247 120.0
58.794167 136.0
58.828552 148.0
58.921715 44.0
58.952274 44.0
58.979816 192.0
59.013157 140.0
59.036358 268.0
59.050121 132.0
59.09095 168.0
59.104759 152.0
59.137337 188.0
59.192451 152.0
59.234425 336.0
59.244972 192.0
59.261379 220.0
59.280666 164.0
59.308159 420.0
59.331882 208.0
59.356415 168.0
59.369083 136.0
59.384022 40.0
59.407032 160.0
59.477619 196.0
59.490349 124.0
59.508915 292.0
59.520462 228.0
59.543644 212.0
59.557468 184.0
59.594681 180.0
59.61739 156.0
59.628147 112.0
59.645542 304.0
59.657352 124.0
59.669247 152.0
59.688103 196.0
59.708096 144.0
59.792717 136.0
59.852753 72.0
59.863533 84.0
59.875854 100.0
59.891258 72.0
59.912277 196.0
59.941448 208.0
59.971382 136.0
59.986797 176.0
60.012871 136.0
60.03331 120.0
60.059273 128.0
60.072876 176.0
60.089584 228.0
60.145515 164.0
60.160629 188.0
60.171928 76.0
60.185825 184.0
60.235245 124.0
60.253784 136.0
60.272327 160.0
60.293961 196.0
60.329628 164.0
60.348068 228.0
60.368168 112.0
60.386536 128.0
60.402195 148.0
60.44397 160.0
60.459446 124.0
60.487305 128.0
60.499691 136.0
60.524464 188.0
60.583317 164.0
60.60656 172.0
60.629803 180.0
60.656525 184.0
60.73333 184.0
60.74369 160.0
60.789539 136.0
60.803509 140.0
60.834145 152.0
60.853184 64.0
60.882687 116.0
60.92152 216.0
60.933949 156.0
60.957256 196.0
61.017876 200.0
61.054394 188.0
61.098927 212.0
61.110981 172.0
61.116791 148.0
61.148876 176.0
61.168232 176.0
61.181694 284.0
61.196384 192.0
61.262218 224.0
61.281097 172.0
61.287575 160.0
61.32143 96.0
61.366077 188.0
61.39315 124.0
61.437653 188.0
61.455547 124.0
61.476444 184.0
61.527344 80.0
61.56472 260.0
61.579281 192.0
61.613239 216.0
61.647991 200.0
61.677162 164.0
61.689819 156.0
61.719524 168.0
61.742981 144.0
61.780525 168.0
61.791473 136.0
61.821922 276.0
61.847637 388.0
61.859676 256.0
61.884739 136.0
61.919476 224.0
61.9496 124.0
61.999741 168.0
62.026386 316.0
62.042625 216.0
62.055279 112.0
62.124397 152.0
62.142441 128.0
62.158131 172.0
62.186378 132.0
62.211494 140.0
62.235046 172.0
62.24918 216.0
62.277451 96.0
62.305725 168.0
62.370907 168.0
62.384304 240.0
62.395309 132.0
62.410748 176.0
62.431477 160.0
62.442486 80.0
62.455067 136.0
62.503746 136.0
62.521149 116.0
62.543186 172.0
62.555779 192.0
62.568974 156.0
62.585693 116.0
62.62664 176.0
62.653149 164.0
62.674828 136.0
62.716236 180.0
62.751137 144.0
62.770058 164.0
62.818951 128.0
62.853661 344.0
62.864708 76.0
62.909523 124.0
62.935745 164.0
62.956089 104.0
62.97501 164.0
63.003658 180.0
63.030521 108.0
63.056618 160.0
63.074471 168.0
63.10149 172.0
63.131691 156.0
63.145927 108.0
63.159573 204.0
63.166046 128.0
63.170029 168.0
63.202877 128.0
63.228676 172.0
63.24086 100.0
63.253525 156.0
63.277271 152.0
63.296272 208.0
63.350124 276.0
63.372303 88.0
63.395748 196.0
63.425358 176.0
63.44521 308.0
63.478508 152.0
63.502296 224.0
63.519745 192.0
63.530849 120.0
63.605434 88.0
63.653065 152.0
63.676888 92.0
63.68914 168.0
63.722958 100.0
63.735493 144.0
63.789379 176.0
63.826275 88.0
63.866032 132.0
63.881939 208.0
63.928684 148.0
63.958324 116.0
64.045898 132.0
64.059776 152.0
64.076172 176.0
64.090157 164.0
64.111229 84.0
64.178177 148.0
64.245163 44.0
64.269554 176.0
64.287598 108.0
64.305801 88.0
64.346558 128.0
64.386215 176.0
64.45752 140.0
64.484688 184.0
64.49588 164.0
64.518257 148.0
64.556633 156.0
64.579063 176.0
64.593422 180.0
64.665581 164.0
64.702248 172.0
64.729462 144.0
64.74472 160.0
64.828789 144.0
64.984642 144.0
65.00679 184.0
65.036102 240.0
65.148476 164.0
65.167374 188.0
65.186653 140.0
65.214935 208.0
65.25016 196.0
65.284714 96.0
65.299194 44.0
65.357109 148.0
65.38446 60.0
65.416237 216.0
65.444023 184.0
65.458519 168.0
65.473877 104.0
65.488579 228.0
65.50827 216.0
65.551247 128.0
65.563843 116.0
65.580963 336.0
65.622879 176.0
65.639 156.0
65.664803 112.0
65.707283 88.0
65.724937 188.0
65.776138 156.0
65.825096 136.0
65.831375 172.0
65.884338 96.0
65.897263 172.0
65.919029 376.0
65.999092 84.0
66.026588 116.0
66.05732 224.0
66.092911 104.0
66.117188 148.0
66.143082 184.0
66.178658 144.0
66.194321 192.0
66.212708 252.0
66.228905 96.0
66.241859 148.0
66.258064 128.0
66.292091 124.0
66.308296 172.0
66.390984 164.0
66.431534 132.0
66.459114 72.0
66.479408 308.0
66.511047 164.0
66.5354 180.0
66.554878 156.0
66.580864 212.0
66.598732 224.0
66.644218 184.0
66.66468 220.0
66.70491 164.0
66.722237 180.0
66.771019 72.0
66.788124 112.0
66.829582 76.0
66.845436 220.0
66.862129 236.0
66.87352 144.0
66.909332 160.0
66.923988 140.0
66.949936 124.0
66.972847 156.0
66.998146 180.0
67.01683 112.0
67.029869 160.0
67.090172 164.0
67.109741 208.0
67.129303 176.0
67.176605 212.0
67.209236 152.0
67.24514 108.0
67.287582 100.0
67.336571 144.0
67.367607 180.0
67.39621 132.0
67.421532 108.0
67.442513 172.0
67.470009 140.0
67.475098 140.0
67.49118 224.0
67.539253 96.0
67.560516 80.0
67.708092 212.0
67.742233 232.0
67.761894 164.0
67.836166 188.0
67.848213 180.0
67.90287 184.0
67.943878 140.0
67.972099 140.0
68.022064 224.0
68.065498 236.0
68.080124 32.0
68.111328 156.0
68.172089 192.0
68.19677 120.0
68.223579 144.0
68.237869 152.0
68.251022 120.0
68.28569 100.0
68.30365 160.0
68.335243 176.0
68.353012 164.0
68.364532 128.0
68.382637 220.0
68.41391 148.0
68.466599 144.0
68.484917 164.0
68.504486 164.0
68.528893 172.0
68.55011 232.0
68.576897 220.0
68.59462 224.0
68.616554 128.0
68.629745 196.0
68.680138 172.0
68.691238 208.0
68.710564 100.0
68.728714 96.0
68.7677 276.0
68.799644 152.0
68.842613 140.0
68.888199 140.0
68.911995 232.0
68.964294 136.0
68.973312 212.0
68.991325 292.0
69.016418 180.0
69.090553 232.0
69.117027 152.0
69.188408 124.0
69.261063 156.0
69.295853 120.0
69.314697 236.0
69.348465 128.0
69.360489 132.0
69.415199 72.0
69.50975 132.0
69.526352 292.0
69.554565 64.0
69.607544 180.0
69.624298 344.0
69.68013 192.0
69.697395 96.0
69.743042 120.0
69.767204 136.0
69.782829 180.0
69.797951 176.0
69.892746 156.0
69.920288 128.0
69.951859 168.0
69.9795 140.0
70.008469 248.0
70.025124 52.0
70.042694 132.0
70.09343 88.0
70.119865 176.0
70.14843 156.0
70.173439 152.0
70.210129 136.0
70.231812 208.0
70.253494 176.0
70.283524 116.0
70.335266 172.0
70.346947 172.0
70.39032 180.0
70.450485 148.0
70.463852 160.0
70.492531 236.0
70.507301 160.0
70.522346 36.0
70.542404 168.0
70.607269 176.0
70.648811 204.0
70.659836 164.0
70.672852 120.0
70.71637 244.0
70.731346 152.0
70.743988 144.0
70.773285 236.0
70.819664 216.0
70.836929 164.0
70.855354 128.0
70.895569 152.0
70.914009 180.0
70.987778 204.0
71.021317 108.0
71.045296 116.0
71.08419 228.0
71.120468 176.0
71.143822 120.0
71.161224 124.0
71.209114 176.0
71.231148 144.0
71.244522 208.0
71.270554 156.0
71.338692 68.0
71.363914 132.0
71.383423 200.0
71.402588 148.0
71.417732 168.0
71.434837 164.0
71.472595 248.0
71.495338 216.0
71.53215 176.0
71.550674 84.0
71.582664 176.0
71.613831 268.0
71.630272 180.0
71.685425 124.0
71.779823 44.0
71.795242 224.0
71.821991 132.0
71.835487 152.0
71.872604 108.0
71.892853 256.0
71.980637 172.0
71.995834 156.0
72.016098 124.0
72.049515 144.0
72.070549 156.0
72.085373 96.0
72.117477 156.0
72.149597 124.0
72.180031 160.0
72.196945 112.0
72.210472 92.0
72.254456 148.0
72.279839 152.0
72.350601 252.0
72.365234 204.0
72.403969 160.0
72.430519 68.0
72.447456 164.0
72.505074 140.0
72.576508 196.0
72.62545 44.0
72.669838 196.0
72.698036 148.0
72.747299 204.0
72.760277 124.0
72.797249 216.0
72.815552 124.0
72.827721 144.0
72.849899 144.0
72.895393 148.0
72.912682 168.0
72.927689 120.0
72.968491 192.0
72.982086 180.0
73.009087 192.0
73.034813 176.0
73.081764 160.0
73.118179 188.0
73.188347 184.0
73.222038 144.0
73.244179 148.0
73.261215 172.0
73.27655 176.0
73.314034 164.0
73.330734 176.0
73.392456 232.0
73.419022 124.0
73.421753 152.0
73.45385 164.0
73.527222 140.0
73.546455 148.0
73.571602 160.0
73.590378 176.0
73.639908 180.0
73.653145 176.0
73.659836 132.0
73.691101 136.0
73.732239 180.0
73.761223 108.0
73.777443 148.0
73.794212 336.0
73.811874 188.0
73.836456 148.0
73.865532 184.0
73.911728 372.0
73.935295 156.0
73.951439 172.0
74.038406 132.0
74.076088 184.0
74.088081 100.0
74.105217 176.0
74.132629 120.0
74.178032 164.0
74.234451 152.0
74.266365 140.0
74.28315 224.0
74.289986 176.0
74.29364 360.0
74.34536 180.0
74.367599 104.0
74.403648 76.0
74.471344 208.0
74.487793 64.0
74.510132 68.0
74.522156 104.0
74.571236 172.0
74.590019 156.0
74.618698 172.0
74.655212 208.0
74.702675 128.0
74.718163 84.0
74.735855 84.0
74.761177 112.0
74.80217 108.0
74.842087 224.0
74.884605 168.0
74.901001 380.0
74.941986 104.0
74.959221 156.0
74.971283 156.0
75.026978 64.0
75.052299 148.0
75.124153 248.0
75.149933 160.0
75.181755 192.0
75.209297 112.0
75.230011 164.0
75.249001 92.0
75.269722 140.0
75.32338 180.0
75.38504 148.0
75.444229 200.0
75.484001 148.0
75.501289 164.0
75.528969 168.0
75.576462 44.0
75.59005 144.0
75.608101 152.0
75.663948 132.0
75.747536 200.0
75.802368 136.0
75.841675 128.0
75.866974 244.0
75.896126 172.0
75.916931 156.0
75.934021 108.0
75.951248 148.0
75.979195 192.0
76.009033 172.0
76.02449 148.0
76.089806 196.0
76.124069 376.0
76.147125 308.0
76.177658 188.0
76.206825 48.0
76.224197 156.0
76.250854 124.0
76.267822 156.0
76.345322 208.0
76.388054 148.0
76.428894 156.0
76.471153 360.0
76.499207 104.0
76.539688 228.0
76.555779 132.0
76.558578 168.0
76.572136 112.0
76.586075 212.0
76.629623 136.0
76.689232 156.0
76.718506 96.0
76.755127 112.0
76.791748 156.0
76.80777 128.0
76.842339 276.0
76.87178 184.0
76.882988 228.0
76.940071 140.0
77.001785 140.0
77.081551 164.0
77.125244 168.0
77.149719 116.0
77.172234 256.0
77.189293 120.0
77.203926 120.0
77.234741 208.0
77.265236 160.0
77.279144 172.0
77.303955 164.0
77.4048 196.0
77.424438 160.0
77.476982 156.0
77.494507 136.0
77.527802 168.0
77.568115 104.0
77.596802 208.0
77.622467 112.0
77.638573 196.0
77.669815 180.0
77.687309 136.0
77.706657 260.0
77.72245 164.0
77.741753 128.0
77.789146 140.0
77.833038 144.0
77.856903 156.0
77.885727 188.0
77.908424 156.0
77.954247 132.0
77.99115 112.0
78.014687 196.0
78.091377 148.0
78.11776 76.0
78.162376 324.0
78.187675 196.0
78.203987 44.0
78.25441 192.0
78.269127 36.0
78.302704 172.0
78.329002 148.0
78.353668 112.0
78.40477 196.0
78.434731 252.0
78.483711 168.0
78.516235 260.0
78.59655 160.0
78.650925 160.0
78.690536 172.0
78.702896 56.0
78.725853 156.0
78.743515 148.0
78.812408 196.0
78.837151 52.0
78.868317 196.0
78.89843 228.0
78.920235 108.0
78.939682 148.0
79.038383 140.0
79.059654 160.0
79.11338 400.0
79.146805 164.0
79.221107 76.0
79.260086 156.0
79.273247 384.0
79.297302 156.0
79.336304 148.0
79.36628 132.0
79.372292 120.0
79.387978 196.0
79.403687 100.0
79.428093 168.0
79.451492 164.0
79.483513 56.0
79.55806 104.0
79.586472 180.0
79.618187 348.0
79.640251 240.0
79.657509 180.0
79.671722 156.0
79.705482 108.0
79.765907 124.0
79.785461 144.0
79.80587 176.0
79.888611 44.0
79.902115 196.0
79.925972 168.0
79.957314 196.0
80.009628 156.0
80.023872 180.0
80.066612 152.0
80.089767 116.0
80.125397 52.0
80.14856 152.0
80.180634 192.0
80.212265 412.0
80.257286 160.0
80.279152 168.0
80.301872 76.0
80.355385 296.0
80.435699 156.0
80.463287 168.0
80.500702 216.0
80.548195 264.0
80.562485 180.0
80.591072 92.0
80.617874 156.0
80.706657 188.0
80.751968 184.0
80.82531 128.0
80.841415 128.0
80.858124 132.0
80.889748 176.0
80.904068 164.0
80.932709 316.0
80.944374 312.0
80.991814 124.0
81.007935 204.0
81.054008 168.0
81.083191 156.0
81.147209 168.0
81.209373 220.0
81.240982 180.0
81.285805 184.0
81.29174 180.0
81.366615 144.0
81.378021 132.0
81.393547 156.0
81.454216 164.0
81.486946 128.0
81.504913 216.0
81.530075 140.0
81.556137 168.0
81.616364 188.0
81.654831 164.0
81.689308 280.0
81.715286 152.0
81.729683 32.0
81.742279 108.0
81.780075 148.0
81.808876 96.0
81.839478 156.0
81.86895 132.0
81.886307 196.0
81.970879 152.0
81.990799 136.0
82.028648 184.0
82.043076 120.0
82.106186 172.0
82.118813 188.0
82.134895 192.0
82.149086 204.0
82.201241 224.0
82.223457 160.0
82.266777 168.0
82.286636 168.0
82.303055 128.0
82.328163 136.0
82.34539 172.0
82.385849 188.0
82.420959 164.0
82.436562 108.0
82.458244 160.0
82.469994 144.0
82.4944 148.0
82.507759 144.0
82.592049 92.0
82.677086 104.0
82.707939 88.0
82.768501 112.0
82.783157 176.0
82.838234 144.0
82.854538 108.0
82.947739 196.0
82.974152 96.0
83.010414 164.0
83.037994 196.0
83.090225 180.0
83.121071 144.0
83.166443 164.0
83.182785 100.0
83.19912 132.0
83.249962 164.0
83.29438 132.0
83.344421 128.0
83.360779 76.0
83.373497 132.0
83.388535 132.0
83.455299 128.0
83.489853 164.0
83.517189 124.0
83.573532 104.0
83.593544 112.0
83.645386 164.0
83.673637 192.0
83.708229 100.0
83.784012 152.0
83.818962 188.0
83.848511 228.0
83.870445 168.0
83.899155 56.0
83.915955 56.0
83.987778 104.0
84.078354 252.0
84.106728 196.0
84.169586 32.0
84.206017 160.0
84.244469 152.0
84.259087 164.0
84.301109 120.0
84.350456 124.0
84.364319 168.0
84.390678 212.0
84.436394 184.0
84.489441 52.0
84.520546 112.0
84.545174 280.0
84.558434 108.0
84.565689 108.0
84.602913 72.0
84.657845 216.0
84.670662 336.0
84.698799 388.0
84.748222 164.0
84.773254 160.0
84.800743 136.0
84.837402 224.0
84.872528 128.0
84.886658 144.0
84.940102 44.0
84.958443 156.0
84.973122 352.0
85.004318 176.0
85.022667 228.0
85.057098 276.0
85.083244 144.0
85.156693 76.0
85.22834 100.0
85.245476 184.0
85.290825 172.0
85.315125 92.0
85.370163 212.0
85.390007 136.0
85.421341 160.0
85.456337 136.0
85.471062 108.0
85.498665 152.0
85.555725 152.0
85.579712 144.0
85.631905 144.0
85.661102 164.0
85.688026 172.0
85.752831 80.0
85.848694 128.0
85.867142 136.0
85.885582 120.0
85.949211 164.0
85.975227 232.0
85.996292 104.0
86.051674 168.0
86.07383 404.0
86.097839 120.0
86.110764 88.0
86.130951 164.0
86.163391 168.0
86.179115 120.0
86.213676 188.0
86.227562 168.0
86.241951 172.0
86.293716 136.0
86.32515 152.0
86.363991 136.0
86.380638 168.0
86.395432 176.0
86.410233 100.0
86.427979 176.0
86.454643 168.0
86.479858 116.0
86.4925 184.0
86.553658 156.0
86.593048 124.0
86.619431 160.0
86.634254 188.0
86.70652 140.0
86.782524 140.0
86.830734 224.0
86.842613 188.0
86.880821 164.0
86.906792 160.0
86.942093 200.0
86.969894 152.0
86.997734 132.0
87.021873 132.0
87.046013 176.0
87.103714 180.0
87.12291 140.0
87.166756 168.0
87.187202 176.0
87.242966 144.0
87.296883 124.0
87.320259 268.0
87.361984 192.0
87.389893 156.0
87.406639 220.0
87.471779 88.0
87.490395 204.0
87.556068 164.0
87.581642 72.0
87.600586 140.0
87.617271 160.0
87.637527 264.0
87.661758 160.0
87.680389 184.0
87.758591 160.0
87.794113 192.0
87.822227 168.0
87.852516 220.0
87.90451 160.0
87.918739 160.0
87.965775 72.0
87.978844 112.0
87.998161 204.0
88.054787 220.0
88.138512 180.0
88.182632 164.0
88.206749 108.0
88.225441 92.0
88.243629 176.0
88.277802 308.0
88.298515 316.0
88.338699 200.0
88.361588 156.0
88.376938 164.0
88.410622 164.0
88.504219 84.0
88.543549 124.0
88.603493 180.0
88.639091 180.0
88.674011 208.0
88.718178 204.0
88.735893 88.0
88.827087 176.0
88.894638 180.0
88.925003 176.0
88.943764 256.0
88.957939 188.0
88.984222 44.0
89.00206 360.0
89.036797 156.0
89.051826 176.0
89.126968 172.0
89.153282 172.0
89.235191 208.0
89.284882 180.0
89.318733 160.0
89.340904 224.0
89.361366 176.0
89.395874 208.0
89.444809 148.0
89.490486 152.0
89.522003 56.0
89.555908 188.0
89.569092 144.0
89.602997 96.0
89.636917 92.0
89.661415 156.0
89.684036 172.0
89.757561 132.0
89.793571 164.0
89.828903 184.0
89.909271 152.0
89.943382 152.0
89.983986 96.0
90.050079 68.0
90.065186 124.0
90.0867 176.0
90.119522 212.0
90.135086 200.0
90.150208 124.0
90.201241 128.0
90.218254 180.0
90.246613 148.0
90.320366 204.0
90.346855 152.0
90.381386 128.0
90.399834 92.0
90.414764 180.0
90.482117 212.0
90.515129 172.0
90.53614 28.0
90.552063 224.0
90.596878 180.0
90.621544 140.0
90.659279 128.0
90.712349 220.0
90.774918 164.0
90.823738 140.0
90.854584 188.0
90.879242 96.0
90.932381 48.0
90.960289 196.0
90.996925 84.0
91.036797 200.0
91.05484 480.0
91.078094 128.0
91.095764 188.0
91.114677 96.0
91.135574 120.0
91.167885 144.0
91.215401 120.0
91.243912 192.0
91.257225 148.0
91.272438 140.0
91.318077 44.0
91.363182 180.0
91.374451 352.0
91.449631 172.0
91.485527 196.0
91.518326 196.0
91.63372 272.0
91.65123 152.0
91.676003 140.0
91.708267 112.0
91.748161 140.0
91.771317 140.0
91.805687 152.0
91.842995 164.0
91.857132 124.0
91.881935 172.0
91.91819 136.0
91.937271 124.0
91.975334 136.0
91.983757 124.0
91.987488 180.0
92.004082 200.0
92.017281 184.0
92.063515 124.0
92.078552 88.0
92.099556 208.0
92.122665 312.0
92.175453 160.0
92.208466 104.0
92.275841 196.0
92.309296 188.0
92.355431 176.0
92.419937 172.0
92.451355 224.0
92.478149 68.0
92.519768 184.0
92.566216 212.0
92.580482 116.0
92.629593 188.0
92.69648 180.0
92.723312 160.0
92.815331 104.0
92.912369 152.0
92.931076 128.0
92.995659 236.0
93.018524 200.0
93.034172 328.0
93.049416 104.0
93.078415 188.0
93.107018 136.0
93.122383 176.0
93.170052 172.0
93.220367 168.0
93.237663 192.0
93.250206 120.0
93.297249 144.0
93.333778 88.0
93.353012 148.0
93.378014 200.0
93.405922 188.0
93.424179 96.0
93.501144 108.0
93.549263 128.0
93.583923 188.0
93.607025 116.0
93.630135 176.0
93.649399 96.0
93.699486 132.0
93.761917 108.0
93.824844 176.0
93.849823 148.0
93.864388 160.0
93.895508 212.0
93.922958 160.0
93.950111 172.0
94.000282 196.0
94.038879 176.0
94.058182 128.0
94.102036 156.0
94.132484 280.0
94.158379 168.0
94.188393 168.0
94.234947 188.0
94.257111 108.0
94.317017 152.0
94.363228 224.0
94.403969 148.0
94.410095 144.0
94.433037 116.0
94.450439 156.0
94.473137 224.0
94.50174 240.0
94.537506 176.0
94.551056 112.0
94.597511 204.0
94.618805 164.0
94.6614 300.0
94.680771 168.0
94.713692 216.0
94.733063 100.0
94.75959 168.0
94.785995 188.0
94.868721 160.0
94.891693 132.0
94.959999 168.0
94.987015 248.0
95.000595 200.0
95.019989 152.0
95.052979 120.0
95.070442 104.0
95.088036 188.0
95.109261 96.0
95.216049 108.0
95.246605 148.0
95.289864 128.0
95.343864 188.0
95.411392 136.0
95.431755 132.0
95.452911 344.0
95.482315 164.0
95.528992 164.0
95.544731 132.0
95.573746 136.0
95.600983 172.0
95.6185 116.0
95.669113 32.0
95.696159 184.0
95.75045 176.0
95.784004 172.0
95.800362 152.0
95.824913 196.0
95.861938 228.0
95.909157 140.0
95.937958 164.0
95.960861 160.0
96.043259 184.0
96.082207 344.0
96.150627 136.0
96.224747 204.0
96.25013 220.0
96.277466 160.0
96.311646 288.0
96.389679 168.0
96.411186 164.0
96.427902 152.0
96.445496 156.0
96.504143 156.0
96.51783 168.0
96.535431 88.0
96.603828 236.0
96.636314 188.0
96.642944 108.0
96.649696 184.0
96.678162 204.0
96.684677 124.0
96.694641 116.0
96.700378 168.0
96.740875 108.0
96.769081 128.0
96.843864 256.0
96.875999 204.0
96.921066 48.0
96.956947 248.0
96.977898 132.0
97.001419 120.0
97.034744 152.0
97.058273 84.0
97.086273 632.0
97.101418 160.0
97.128876 92.0
97.143806 144.0
97.185776 212.0
97.221092 156.0
97.279976 68.0
97.317429 156.0
97.338882 112.0
97.359535 164.0
97.389946 132.0
97.410385 148.0
97.471069 96.0
97.515915 180.0
97.569962 172.0
97.60865 156.0
97.666763 192.0
97.684799 52.0
97.709457 212.0
97.74382 148.0
97.773338 172.0
97.808769 164.0
97.826485 100.0
97.847397 212.0
97.872459 148.0
97.907486 176.0
97.950546 108.0
97.966309 208.0
98.004486 132.0
98.017532 180.0
98.043152 176.0
98.075722 156.0
98.096306 25328.0
98.158226 76.0
98.20285 76.0
98.228493 140.0
98.246307 124.0
98.262032 192.0
98.303131 212.0
98.336815 216.0
98.356758 44.0
98.384117 140.0
98.41993 100.0
98.473251 180.0
98.50486 184.0
98.526588 212.0
98.574852 108.0
98.639778 244.0
98.658997 136.0
98.674759 148.0
98.702499 140.0
98.781609 188.0
98.796928 224.0
98.807625 224.0
98.84549 140.0
98.891945 184.0
98.921646 188.0
98.927826 144.0
98.932327 172.0
98.978828 152.0
99.000237 296.0
99.025078 188.0
99.0429 140.0
99.098328 1680.0
99.125603 312.0
99.135529 240.0
99.138374 188.0
99.159805 160.0
99.243729 228.0
99.264877 192.0
99.288628 184.0
99.306892 260.0
99.356117 128.0
99.386604 164.0
99.425674 216.0
99.442932 144.0
99.50058 216.0
99.517387 220.0
99.556099 224.0
99.618172 100.0
99.645149 172.0
99.677773 308.0
99.693672 48.0
99.713005 132.0
99.729446 220.0
99.743362 288.0
99.773178 156.0
99.834244 180.0
99.854706 156.0
99.912392 92.0
99.938469 152.0
99.962517 172.0
100.050613 160.0
100.072876 404.0
100.106514 228.0
100.125381 156.0
100.13932 136.0
100.165215 240.0
100.229301 216.0
100.250893 128.0
100.2714 412.0
100.348564 148.0
100.366508 148.0
100.39711 220.0
100.419197 364.0
100.454262 192.0
100.467392 136.0
100.534142 248.0
100.575935 148.0
100.605934 168.0
100.639877 116.0
100.655846 104.0
100.681808 148.0
100.699783 48.0
100.735741 176.0
100.752357 200.0
100.799675 120.0
100.879471 156.0
100.886894 144.0
100.927948 188.0
100.951599 156.0
100.975281 100.0
100.990707 188.0
101.009605 160.0
101.050194 152.0
101.088684 132.0
101.150215 164.0
101.22776 172.0
101.285843 188.0
101.31189 204.0
101.341942 124.0
101.365982 168.0
101.39003 160.0
101.465706 144.0
101.502296 164.0
101.55455 208.0
101.610603 184.0
101.643791 200.0
101.67482 164.0
101.690132 184.0
101.716316 172.0
101.747086 164.0
101.789246 124.0
101.808884 144.0
101.828629 144.0
101.860252 192.0
101.891685 156.0
101.998192 88.0
102.043427 192.0
102.104759 144.0
102.118835 220.0
102.161079 160.0
102.187233 48.0
102.225464 112.0
102.251633 116.0
102.320068 168.0
102.338188 184.0
102.356316 120.0
102.426804 132.0
102.463066 140.0
102.505379 132.0
102.533592 176.0
102.56855 152.0
102.58197 164.0
102.616241 148.0
102.660316 276.0
102.702957 132.0
102.753387 236.0
102.791725 184.0
102.811905 140.0
102.848236 132.0
102.928993 144.0
102.963326 156.0
102.979477 212.0
103.013817 68.0
103.053642 780.0
103.086555 160.0
103.104576 188.0
103.128998 152.0
103.159317 124.0
103.180176 164.0
103.203796 36.0
103.219978 228.0
103.260422 72.0
103.276016 152.0
103.345383 148.0
103.363594 132.0
103.417694 224.0
103.435265 156.0
103.456703 68.0
103.474922 164.0
103.51078 176.0
103.551872 212.0
103.582108 280.0
103.604538 152.0
103.632301 228.0
103.675461 104.0
103.691673 68.0
103.712204 124.0
103.738289 232.0
103.800659 100.0
103.831566 168.0
103.849815 200.0
103.887138 152.0
103.904587 172.0
103.922852 64.0
103.949226 100.0
103.976624 136.0
104.001129 196.0
104.060867 196.0
104.09742 140.0
104.117401 224.0
104.179222 188.0
104.217262 96.0
104.278229 132.0
104.304482 188.0
104.389503 164.0
104.408348 380.0
104.428688 188.0
104.449028 124.0
104.468216 232.0
104.476044 100.0
104.480309 160.0
104.508026 220.0
104.548729 280.0
104.603683 224.0
104.623344 164.0
104.667656 152.0
104.721779 132.0
104.784256 312.0
104.837914 192.0
104.865349 112.0
104.899178 140.0
104.921486 100.0
104.968376 88.0
104.990814 48.0
105.030365 240.0
105.066681 200.0
105.105049 172.0
105.151985 148.0
105.27652 148.0
105.323502 168.0
105.34597 88.0
105.366402 88.0
105.413391 164.0
105.442764 300.0
105.456924 348.0
105.474709 160.0
105.507416 152.0
105.530151 132.0
105.565132 176.0
105.596176 148.0
105.621933 160.0
105.656715 104.0
105.718224 132.0
105.736519 156.0
105.76722 128.0
105.790802 300.0
105.818398 88.0
105.849792 60.0
105.871635 152.0
105.961769 248.0
105.982765 112.0
106.008896 128.0
106.026619 228.0
106.070381 164.0
106.084732 136.0
106.112129 132.0
106.135986 128.0
106.15239 156.0
106.195457 164.0
106.216133 200.0
106.240593 212.0
106.298599 396.0
106.334091 224.0
106.37603 100.0
106.404778 92.0
106.421196 100.0
106.436111 56.0
106.46891 172.0
106.49102 132.0
106.511177 172.0
106.60128 180.0
106.645119 108.0
106.684181 96.0
106.731468 152.0
106.760254 176.0
106.798157 136.0
106.820686 236.0
106.837196 256.0
106.862747 204.0
106.870308 168.0
106.891319 124.0
106.914551 208.0
106.954651 248.0
107.024788 172.0
107.046638 480.0
107.083374 152.0
107.101112 196.0
107.130753 124.0
107.145172 180.0
107.194626 168.0
107.211113 136.0
107.22554 120.0
107.256454 88.0
107.343048 180.0
107.423126 160.0
107.448242 176.0
107.526657 112.0
107.564529 200.0
107.632462 224.0
107.66291 184.0
107.722107 164.0
107.757935 140.0
107.771019 132.0
107.784225 160.0
107.848862 100.0
107.864449 132.0
107.881935 48.0
107.900543 188.0
107.928177 164.0
107.94603 144.0
107.987053 168.0
108.010147 136.0
108.037041 224.0
108.051857 172.0
108.08091 240.0
108.126015 176.0
108.161201 176.0
108.219452 132.0
108.268867 260.0
108.299934 136.0
108.328468 160.0
108.382805 112.0
108.413887 176.0
108.444977 184.0
108.463516 148.0
108.513275 296.0
108.559006 144.0
108.58596 56.0
108.600479 188.0
108.650269 148.0
108.664787 196.0
108.714592 168.0
108.766151 152.0
108.785164 248.0
108.79969 100.0
108.861984 120.0
108.982468 48.0
109.026222 144.0
109.045021 136.0
109.077362 248.0
109.114792 176.0
109.140434 184.0
109.179947 136.0
109.194725 76.0
109.202599 112.0
109.212433 168.0
109.216042 136.0
109.269196 168.0
109.274208 152.0
109.280411 216.0
109.338058 132.0
109.352631 204.0
109.400505 152.0
109.460884 84.0
109.504623 132.0
109.5317 140.0
109.554611 64.0
109.581696 144.0
109.63588 96.0
109.679642 84.0
109.719254 132.0
109.771378 108.0
109.886696 112.0
109.990448 100.0
110.031525 160.0
110.067192 132.0
110.095711 4216.0
110.144974 128.0
110.161682 52.0
110.203468 44.0
110.26825 204.0
110.299599 44.0
110.32972 108.0
110.387413 96.0
110.478729 212.0
110.512917 140.0
110.542213 116.0
110.603523 144.0
110.686806 108.0
110.709793 160.0
110.729187 212.0
110.755768 44.0
110.787186 104.0
110.809517 176.0
110.833282 136.0
110.856331 128.0
110.87574 112.0
110.898148 168.0
110.920143 216.0
110.948235 184.0
110.963264 284.0
111.001564 156.0
111.04921 72.0
111.097168 432.0
111.126282 108.0
111.142868 112.0
111.149673 72.0
111.170761 168.0
111.193855 204.0
111.252754 156.0
111.317841 440.0
111.331505 168.0
111.353546 208.0
111.38295 132.0
111.414459 144.0
111.439148 144.0
111.481697 172.0
111.517426 196.0
111.538445 124.0
111.555969 232.0
111.603233 172.0
111.648491 236.0
111.676697 192.0
111.689629 192.0
111.713943 184.0
111.747368 212.0
111.791679 172.0
111.825226 212.0
111.853661 124.0
111.861984 208.0
111.900291 192.0
111.919716 224.0
111.941734 176.0
111.968246 504.0
111.983032 192.0
112.002594 456.0
112.043243 364.0
112.05632 212.0
112.084412 508.0
112.112679 156912.0
112.161522 96.0
112.17746 164.0
112.193642 252.0
112.213829 128.0
112.221703 88.0
112.264977 132.0
112.292778 276.0
112.299744 72.0
112.314316 104.0
112.344193 312.0
112.37619 64.0
112.397537 108.0
112.402534 72.0
112.437927 252.0
112.458595 3432.0
112.481415 112.0
112.511429 104.0
112.54467 104.0
112.557388 180.0
112.595245 104.0
112.612228 172.0
112.657776 48.0
112.676437 164.0
112.700012 128.0
112.730919 144.0
112.753342 192.0
112.765663 84.0
112.793404 184.0
112.820755 84.0
112.846367 80.0
112.876183 120.0
112.892036 120.0
112.923767 92.0
112.947243 160.0
112.982544 188.0
113.012428 144.0
113.019699 80.0
113.025467 108.0
113.050079 88.0
113.080612 156.0
113.114853 17916.0
113.135735 236.0
113.156021 212.0
113.190155 132.0
113.207626 32.0
113.227959 88.0
113.251228 56.0
113.272865 92.0
113.325638 112.0
113.356705 64.0
113.387779 196.0
113.419182 124.0
113.452087 92.0
113.469978 196.0
113.480286 80.0
113.48642 260.0
113.510391 68.0
113.539284 136.0
113.582504 104.0
113.611679 132.0
113.631294 40.0
113.675026 164.0
113.727753 176.0
113.762329 108.0
113.780472 112.0
113.807327 208.0
113.826675 112.0
113.84697 164.0
113.881668 148.0
113.912247 108.0
113.947105 132.0
113.991814 212.0
114.012253 400.0
114.027588 208.0
114.062317 116.0
114.098366 144.0
114.117989 668.0
114.142853 124.0
114.155853 176.0
114.169456 148.0
114.190842 228.0
114.228813 172.0
114.249542 84.0
114.279327 108.0
114.308319 192.0
114.381477 88.0
114.404892 208.0
114.430443 44.0
114.475159 92.0
114.517754 100.0
114.543312 180.0
114.571007 128.0
114.590179 84.0
114.608047 280.0
114.627739 272.0
114.664764 56.0
114.693054 44.0
114.714348 124.0
114.741539 232.0
114.801643 188.0
114.837318 116.0
114.845367 108.0
114.86689 136.0
114.872307 108.0
114.881058 64.0
114.931335 172.0
114.963341 92.0
114.997902 220.0
115.026787 160.0
115.070946 88.0
115.106369 140.0
115.181122 60.0
115.240936 144.0
115.271103 136.0
115.292221 104.0
115.328377 148.0
115.362762 40.0
115.411934 128.0
115.448288 80.0
115.492035 152.0
115.525284 120.0
115.57428 160.0
115.577171 144.0
115.695503 164.0
115.722183 144.0
115.805702 148.0
115.869965 148.0
115.906395 152.0
115.953537 124.0
115.972832 140.0
116.071449 76.0
116.105759 48.0
116.122917 128.0
116.163719 184.0
116.210869 60.0
116.236618 176.0
116.255928 56.0
116.283829 96.0
116.298859 56.0
116.333199 144.0
116.404053 184.0
116.494263 72.0
116.537231 68.0
116.595253 128.0
116.62236 172.0
116.733635 108.0
116.855446 180.0
116.874458 172.0
116.895111 52.0
116.92646 156.0
116.960892 92.0
116.99176 224.0
117.033867 188.0
117.071838 144.0
117.113777 52.0
117.150398 116.0
117.210724 44.0
117.283997 200.0
117.323044 176.0
117.39827 60.0
117.442375 212.0
117.540642 112.0
117.564613 196.0
117.607544 176.0
117.670151 56.0
117.727142 148.0
117.818802 188.0
117.841499 284.0
117.909927 100.0
117.938026 60.0
117.975037 144.0
118.037476 120.0
118.184563 124.0
118.23217 48.0
118.295914 192.0
118.320915 160.0
118.349068 156.0
118.373352 224.0
118.394539 80.0
118.455185 188.0
118.489601 104.0
118.589531 168.0
118.606873 112.0
118.671913 52.0
118.69474 280.0
118.730461 152.0
118.770233 320.0
118.797699 156.0
118.886658 80.0
118.927895 92.0
118.977821 156.0
119.014732 56.0
119.048904 540.0
119.133621 184.0
119.155914 96.0
119.2211 132.0
119.418587 96.0
119.438522 164.0
119.468979 56.0
119.571251 60.0
119.614777 112.0
119.645256 64.0
119.677917 104.0
119.693161 176.0
119.765251 116.0
119.782455 96.0
119.806152 200.0
119.813599 176.0
119.858704 148.0
119.979958 184.0
120.057076 544.0
120.119011 92.0
120.150574 144.0
120.164879 180.0
120.185532 156.0
120.224243 152.0
120.281815 212.0
120.297089 144.0
120.360634 156.0
120.401901 192.0
120.434662 112.0
120.469612 140.0
120.517677 152.0
120.534348 140.0
120.561378 124.0
120.622581 144.0
120.653183 160.0
120.764709 56.0
120.872551 96.0
120.91349 124.0
121.005424 204.0
121.0317 148.0
121.065025 608.0
121.114693 76.0
121.147781 64.0
121.166389 148.0
121.190506 152.0
121.225914 176.0
121.318718 112.0
121.334061 104.0
121.472221 212.0
121.49855 136.0
121.546822 52.0
121.597298 32.0
121.66095 88.0
121.781723 184.0
121.808266 144.0
121.836273 144.0
121.848213 164.0
121.902405 116.0
121.992676 56.0
122.012459 64.0
122.071304 628.0
122.095406 172.0
122.124611 192.0
122.147644 136.0
122.164207 248.0
122.245613 60.0
122.271973 184.0
122.330063 152.0
122.375488 108.0
122.465775 28.0
122.525253 164.0
122.551689 60.0
122.693657 68.0
122.711006 200.0
122.741257 72.0
122.772232 172.0
122.818443 184.0
122.882423 104.0
122.911102 36.0
122.959656 132.0
122.985603 148.0
123.107574 148.0
123.171623 184.0
123.200974 208.0
123.233482 168.0
123.257782 64.0
123.284302 32.0
123.301987 232.0
123.419144 188.0
123.472221 252.0
123.560699 204.0
123.62487 184.0
123.672089 192.0
123.7071 212.0
123.73333 104.0
123.751045 156.0
123.790901 148.0
123.830765 116.0
123.926018 96.0
124.036827 308.0
124.085175 104.0
124.110916 180.0
124.187607 144.0
124.205353 148.0
124.225319 184.0
124.286171 112.0
124.302971 184.0
124.320724 152.0
124.376213 88.0
124.442818 48.0
124.593842 140.0
124.647163 104.0
124.716064 216.0
124.810356 124.0
124.833893 56.0
124.862808 96.0
124.893944 72.0
124.94548 264.0
124.987144 176.0
125.012245 364.0
125.05957 156.0
125.116478 72.0
125.228226 372.0
125.283508 56.0
125.311455 88.0
125.334747 28.0
125.368179 108.0
125.392693 184.0
125.461792 128.0
125.533142 128.0
125.615974 204.0
125.642433 136.0
125.669212 108.0
125.691521 40.0
125.794189 144.0
125.937096 224.0
126.005508 192.0
126.091263 132.0
126.180679 248.0
126.203033 48.0
126.244705 196.0
126.332756 200.0
126.355125 200.0
126.379738 128.0
126.43792 184.0
126.508919 184.0
126.576721 76.0
126.61927 164.0
126.652863 52.0
126.695427 172.0
126.724548 204.0
126.753677 164.0
126.809708 108.0
126.856781 172.0
126.89489 196.0
126.924042 208.0
126.941978 72.0
126.994812 572.0
127.009796 332.0
127.030823 432.0
127.078491 188.0
127.121483 692.0
127.166328 76.0
127.193024 112.0
127.210052 192.0
127.235916 156.0
127.276329 144.0
127.314507 148.0
127.332474 120.0
127.360153 148.0
127.399857 100.0
127.424576 212.0
127.447044 40.0
127.482994 100.0
127.525696 144.0
127.653847 84.0
127.71682 112.0
127.792389 128.0
127.884415 132.0
127.921585 160.0
127.956268 168.0
127.991386 192.0
128.007141 156.0
128.035614 288.0
128.133514 228.0
128.153503 148.0
128.189041 204.0
128.22467 208.0
128.240509 144.0
128.29895 144.0
128.399277 116.0
128.4189 228.0
128.49852 140.0
128.516571 128.0
128.602325 44.0
128.631668 92.0
128.712952 120.0
128.743881 156.0
128.796509 124.0
128.837173 156.0
128.986389 144.0
129.008606 348.0
129.046051 312.0
129.078171 180.0
129.087662 112.0
129.097229 160.0
129.107285 120.0
129.138733 31668.0
129.185318 60.0
129.22876 200.0
129.263855 68.0
129.279984 296.0
129.315186 124.0
129.343109 116.0
129.368622 32.0
129.410736 120.0
129.511826 96.0
129.540741 124.0
129.558853 48.0
129.576981 200.0
129.617767 80.0
129.637863 120.0
129.682526 112.0
129.734039 80.0
129.767365 76.0
129.845123 168.0
129.91478 64.0
129.942886 176.0
130.000839 268.0
130.021088 596.0
130.045212 176.0
130.06456 104.0
130.084885 188.0
130.122253 356.0
130.141205 2344.0
130.21669 56.0
130.26326 152.0
130.316635 60.0
130.357544 56.0
130.377991 156.0
130.419586 200.0
130.45755 152.0
130.480286 44.0
130.496201 184.0
130.518936 132.0
130.546219 224.0
130.566681 72.0
130.652527 152.0
130.717773 132.0
130.814697 92.0
130.881805 152.0
130.931763 156.0
130.985001 264.0
131.004791 488.0
131.051163 328.0
131.102951 116.0
131.141891 148.0
131.16095 92.0
131.184891 112.0
131.210861 136.0
131.244995 208.0
131.300034 208.0
131.315994 36.0
131.373016 176.0
131.402679 96.0
131.430069 88.0
131.47113 124.0
131.49852 32.0
131.649246 136.0
131.66748 132.0
131.699448 160.0
131.745132 220.0
131.77713 200.0
131.802261 180.0
131.830612 148.0
131.861679 116.0
131.902817 112.0
131.939392 140.0
131.98819 116.0
132.014847 204.0
132.056198 412.0
132.115494 216.0
132.140656 64.0
132.172684 68.0
132.19281 232.0
132.262497 116.0
132.316879 124.0
132.348938 100.0
132.397034 140.0
132.449707 104.0
132.49881 204.0
132.548218 176.0
132.580307 60.0
132.635315 132.0
132.665115 124.0
132.704086 60.0
132.731598 104.0
132.811874 160.0
132.899048 148.0
132.97937 176.0
133.029877 116.0
133.067703 596.0
133.259262 148.0
133.291702 156.0
133.316971 160.0
133.460709 136.0
133.487274 152.0
133.576797 132.0
133.652405 180.0
133.81694 136.0
133.825943 184.0
133.876007 116.0
133.915543 144.0
133.945099 212.0
133.965836 168.0
133.984268 144.0
134.032654 172.0
134.062393 128.0
134.068512 164.0
134.120224 64.0
134.136353 68.0
134.196304 128.0
134.243347 156.0
134.293152 84.0
134.38147 140.0
134.564667 152.0
134.602692 128.0
134.648544 168.0
134.683243 128.0
134.771027 116.0
134.856537 164.0
134.879654 108.0
134.912659 144.0
134.929596 212.0
134.953629 172.0
134.992935 196.0
135.035873 304.0
135.05307 204.0
135.071579 164.0
135.090073 132.0
135.12941 96.0
135.198822 56.0
135.235855 144.0
135.259003 204.0
135.275208 44.0
135.307617 216.0
135.370132 164.0
135.455841 172.0
135.520004 120.0
135.587906 120.0
135.603378 124.0
135.621155 220.0
135.715408 104.0
135.780334 116.0
135.829041 268.0
135.902435 204.0
135.924164 216.0
135.9729 100.0
136.094025 160.0
136.149338 144.0
136.172562 128.0
136.188828 80.0
136.283752 144.0
136.404663 108.0
136.437943 176.0
136.465378 132.0
136.521179 132.0
136.617004 140.0
136.728226 124.0
136.779434 152.0
136.860916 140.0
136.877228 248.0
136.902832 148.0
136.947296 136.0
137.014816 440.0
137.034241 164.0
137.05864 136.0
137.103195 144.0
137.119507 108.0
137.166122 80.0
137.196426 144.0
137.224045 132.0
137.299026 132.0
137.429657 284.0
137.487991 200.0
137.543518 152.0
137.639725 164.0
137.674759 204.0
137.778122 160.0
137.810242 84.0
137.84996 120.0
137.868668 180.0
137.938782 128.0
137.96756 128.0
138.046326 252.0
138.074387 156.0
138.167953 216.0
138.193008 116.0
138.245178 72.0
138.315384 176.0
138.341141 212.0
138.364548 168.0
138.380936 52.0
138.437134 328.0
138.462967 152.0
138.521454 164.0
138.706573 180.0
138.727051 136.0
138.800354 176.0
138.834854 344.0
138.870712 192.0
138.887131 48.0
138.908249 188.0
138.959854 156.0
138.99501 192.0
139.030869 312.0
139.06076 44.0
139.098312 124.0
139.222763 100.0
139.263748 220.0
139.282181 504.0
139.326111 128.0
139.389557 64.0
139.478867 164.0
139.507065 168.0
139.528229 136.0
139.577606 148.0
139.60582 176.0
139.690491 224.0
139.71637 72.0
139.819901 148.0
139.963501 112.0
139.979996 68.0
139.998825 172.0
140.031937 204.0
140.196716 172.0
140.217529 140.0
140.258362 156.0
140.364487 168.0
140.39003 148.0
140.434845 180.0
140.538635 140.0
140.555511 320.0
140.574982 80.0
140.599991 136.0
140.623596 152.0
140.699722 128.0
140.730072 156.0
140.753433 124.0
140.843185 140.0
140.873886 164.0
140.966629 160.0
141.010147 672.0
141.026627 232.0
141.051132 148.0
141.08609 192.0
141.117981 144.0
141.140961 44.0
141.242661 100.0
141.259216 104.0
141.313629 180.0
141.360962 180.0
141.453262 104.0
141.480774 80.0
141.57402 124.0
141.664017 112.0
141.706665 208.0
141.77301 172.0
141.844116 116.0
141.903381 212.0
141.950806 180.0
142.013947 192.0
142.031448 172.0
142.055161 32.0
142.081268 172.0
142.151306 176.0
142.192795 192.0
142.275177 204.0
142.320984 100.0
142.405319 336.0
142.533997 320.0
142.606064 184.0
142.715408 176.0
142.746323 68.0
142.803406 56.0
142.83432 116.0
142.946472 172.0
142.987686 140.0
143.025253 308.0
143.100861 136.0
143.150864 268.0
143.167542 108.0
143.188614 212.0
143.267578 144.0
143.324753 204.0
143.358124 52.0
143.374802 84.0
143.398636 172.0
143.42485 136.0
143.458221 132.0
143.517838 108.0
143.544067 128.0
143.722961 184.0
143.73967 324.0
143.780228 96.0
143.825577 124.0
143.997498 224.0
144.018448 140.0
144.073929 176.0
144.145615 100.0
144.213852 208.0
144.262726 152.0
144.360764 152.0
144.470779 228.0
144.497772 144.0
144.662231 208.0
144.698151 168.0
144.75322 140.0
144.791534 56.0
144.827454 140.0
144.845474 156.0
144.893005 188.0
144.932877 148.0
144.971207 116.0
145.006119 232.0
145.024445 272.0
145.047913 132.0
145.091064 40.0
145.129562 192.0
145.148605 156.0
145.178574 224.0
145.304504 200.0
145.333298 100.0
145.400497 128.0
145.438889 120.0
145.455704 196.0
145.544525 128.0
145.572403 164.0
145.597351 192.0
145.616577 140.0
145.662003 140.0
145.755905 144.0
145.772736 100.0
145.825607 100.0
145.879913 108.0
145.991486 160.0
146.010727 28.0
146.145447 112.0
146.205597 244.0
146.320694 172.0
146.410431 152.0
146.583679 120.0
146.61351 192.0
146.765274 216.0
146.894974 144.0
147.121796 156.0
147.150513 172.0
147.177856 136.0
147.193985 140.0
147.242279 148.0
147.285751 124.0
147.483597 160.0
147.512909 176.0
147.551575 160.0
147.592682 32.0
147.70636 184.0
147.725708 148.0
147.815552 152.0
147.875732 188.0
147.943512 136.0
147.993286 128.0
148.023407 136.0
148.057312 148.0
148.10817 204.0
148.179886 356.0
148.199646 216.0
148.228119 300.0
148.266403 276.0
148.338974 112.0
148.365036 180.0
148.589493 152.0
148.634262 140.0
148.755615 132.0
148.813889 100.0
148.88916 136.0
148.928024 112.0
148.975677 240.0
149.027496 160.0
149.056885 256.0
149.183167 116.0
149.24881 196.0
149.29744 160.0
149.432953 248.0
149.621063 168.0
149.677063 152.0
149.69899 212.0
149.793976 192.0
149.854874 152.0
149.931396 120.0
149.964539 148.0
150.065796 332.0
150.098633 120.0
150.120575 224.0
150.144958 180.0
150.188141 392.0
150.210815 40.0
150.25589 136.0
150.325485 212.0
150.37674 140.0
150.398712 196.0
150.613327 156.0
150.658218 224.0
150.711304 116.0
150.751404 320.0
150.789505 80.0
150.826172 104.0
150.845718 136.0
150.908615 160.0
150.985092 132.0
151.021774 80.0
151.041351 184.0
151.066193 156.0
151.08139 108.0
151.106903 176.0
151.320328 124.0
151.357651 180.0
151.377945 188.0
151.454025 168.0
151.555466 136.0
151.600143 120.0
151.648956 132.0
151.697617 172.0
151.731934 116.0
151.775253 168.0
151.812851 176.0
151.830017 76.0
151.857697 140.0
152.006836 220.0
152.078949 164.0
152.194931 128.0
152.315994 104.0
152.377411 388.0
152.394608 144.0
152.411819 128.0
152.468338 128.0
152.68222 80.0
152.71666 204.0
152.758469 208.0
152.790451 184.0
152.815063 108.0
152.839661 136.0
152.882889 176.0
152.943024 76.0
152.996552 172.0
153.012665 228.0
153.041504 36.0
153.164642 148.0
153.282898 48.0
153.317398 144.0
153.351898 132.0
153.394913 160.0
153.415054 168.0
153.472504 208.0
153.481277 192.0
153.536804 124.0
153.586365 172.0
153.62561 68.0
153.677414 144.0
153.697159 160.0
153.74173 196.0
153.842773 204.0
153.988464 184.0
154.01944 372.0
154.109512 124.0
154.194885 196.0
154.275101 92.0
154.322769 240.0
154.354218 160.0
154.430878 84.0
154.463043 212.0
154.54715 208.0
154.587936 340.0
154.611145 84.0
154.673218 196.0
154.693771 212.0
154.725357 188.0
154.897125 232.0
154.989471 11640.0
155.025803 688.0
155.060455 172.0
155.083084 224.0
155.116882 720.0
155.181854 64.0
155.21727 120.0
155.235779 32.0
155.255219 164.0
155.354843 40.0
155.37468 28.0
155.411896 152.0
155.497849 120.0
155.523575 80.0
155.545609 192.0
155.603012 52.0
155.64418 152.0
155.674332 228.0
155.744568 168.0
155.761948 100.0
155.824066 52.0
155.863815 176.0
155.930908 92.0
155.965714 176.0
155.991318 992.0
156.040283 72.0
156.06575 116.0
156.119492 136.0
156.197037 120.0
156.216858 72.0
156.261292 196.0
156.292542 76.0
156.333801 100.0
156.408463 116.0
156.43013 188.0
156.501434 188.0
156.527969 196.0
156.562805 256.0
156.627594 112.0
156.677414 88.0
156.752167 144.0
156.784561 220.0
156.808838 168.0
156.879272 120.0
156.914185 60.0
156.986511 2844.0
157.040466 924.0
157.171082 44.0
157.203522 156.0
157.220993 208.0
157.240967 44.0
157.309677 144.0
157.385757 196.0
157.423203 144.0
157.551422 168.0
157.598709 184.0
157.67717 196.0
157.778015 192.0
157.878036 152.0
157.902634 192.0
157.93306 48.0
157.953064 112.0
157.994217 368.0
158.028122 60.0
158.045944 160.0
158.090683 52.0
158.113205 80.0
158.143234 100.0
158.25589 44.0
158.32991 164.0
158.361069 212.0
158.411392 260.0
158.443588 144.0
158.473801 120.0
158.579056 152.0
158.661774 176.0
158.79718 180.0
158.819748 60.0
158.847351 136.0
158.926727 168.0
158.950211 52.0
158.972565 196.0
158.992874 240.0
159.034958 508.0
159.080719 156.0
159.168594 168.0
159.201645 100.0
159.296692 40.0
159.325821 160.0
159.372055 200.0
159.4198 140.0
159.442413 100.0
159.512802 40.0
159.583191 204.0
159.651077 44.0
159.676239 84.0
159.761765 112.0
159.802612 184.0
159.826141 108.0
159.869949 120.0
159.902664 180.0
159.922806 148.0
159.986237 120.0
160.013428 132.0
160.048508 336.0
160.094009 84.0
160.141861 200.0
160.182159 148.0
160.255219 44.0
160.305618 80.0
160.364761 160.0
160.414001 204.0
160.483978 148.0
160.507278 100.0
160.540054 44.0
160.587387 172.0
160.638428 184.0
160.799469 160.0
160.87059 80.0
160.928665 180.0
160.951385 172.0
161.03978 44.0
161.092819 188.0
161.150925 196.0
161.279816 212.0
161.332901 112.0
161.385986 96.0
161.542801 104.0
161.575333 200.0
161.669952 172.0
161.745239 124.0
161.833847 224.0
161.866394 136.0
162.030411 256.0
162.10994 88.0
162.162079 172.0
162.206253 152.0
162.297531 160.0
162.335556 188.0
162.358383 148.0
162.437012 160.0
162.499557 104.0
162.525818 156.0
162.596863 212.0
162.688248 160.0
162.759171 128.0
162.825333 208.0
162.916412 204.0
162.949265 196.0
162.980316 168.0
163.037506 1880.0
163.104858 52.0
163.186203 52.0
163.259949 152.0
163.328613 172.0
163.40239 104.0
163.514359 188.0
163.555084 172.0
163.583084 144.0
163.607391 196.0
163.614761 108.0
163.621796 136.0
163.639084 172.0
163.667099 156.0
163.720581 164.0
163.79953 200.0
163.855576 156.0
163.94986 56.0
164.008484 76.0
164.049561 136.0
164.077301 192.0
164.099075 168.0
164.176758 160.0
164.314499 184.0
164.340012 188.0
164.416565 96.0
164.442078 140.0
164.503342 224.0
164.526321 116.0
164.582489 116.0
164.643784 56.0
164.661652 144.0
164.684036 256.0
164.756165 68.0
164.780014 120.0
164.819412 164.0
164.970306 228.0
165.011734 108.0
165.054794 252.0
165.092087 240.0
165.114029 84.0
165.144623 112.0
165.18309 76.0
165.206116 188.0
165.308456 124.0
165.340332 244.0
165.48877 272.0
165.538971 324.0
165.743774 160.0
165.782211 204.0
165.943695 124.0
166.005234 164.0
166.04628 164.0
166.112961 184.0
166.195969 136.0
166.223282 152.0
166.272049 216.0
166.36702 104.0
166.487411 212.0
166.525192 180.0
166.582733 200.0
166.672729 148.0
166.708633 192.0
166.767746 48.0
166.834579 192.0
166.969986 200.0
166.990082 260.0
167.025787 928.0
167.053162 88.0
167.09433 124.0
167.148361 136.0
167.189529 164.0
167.269333 96.0
167.29361 140.0
167.544876 76.0
167.617462 232.0
167.658249 100.0
167.812912 40.0
167.921219 124.0
168.029556 156.0
168.055359 68.0
168.09671 184.0
168.122452 72.0
168.238602 280.0
168.279831 124.0
168.348022 96.0
168.383209 156.0
168.414078 236.0
168.55629 128.0
168.576965 160.0
168.765671 132.0
168.799286 148.0
168.843246 128.0
168.957062 188.0
168.979828 152.0
168.997086 144.0
169.020981 252.0
169.041168 244.0
169.073502 184.0
169.288376 164.0
169.324448 288.0
169.385498 184.0
169.467102 180.0
169.487839 236.0
169.5578 180.0
169.607803 132.0
169.635559 152.0
169.669266 144.0
169.726303 188.0
169.82225 72.0
169.845596 160.0
169.865158 148.0
169.923431 216.0
170.013138 1072.0
170.086914 32.0
170.164795 116.0
170.211533 168.0
170.272797 184.0
170.355453 204.0
170.401154 168.0
170.471313 132.0
170.503555 156.0
170.650665 168.0
170.687057 136.0
170.832718 112.0
170.916306 124.0
170.969406 172.0
170.99144 192.0
171.025269 188.0
171.099258 200.0
171.149597 196.0
171.225754 180.0
171.301285 152.0
171.528 116.0
171.598389 48.0
171.666183 36.0
171.697479 160.0
171.733994 100.0
171.775726 144.0
171.793991 160.0
171.83313 132.0
171.859207 120.0
171.898361 212.0
172.008148 176.0
172.049744 168.0
172.068008 40.0
172.098602 140.0
172.255966 132.0
172.391479 172.0
172.412811 196.0
172.43895 148.0
172.485992 100.0
172.572266 132.0
172.669022 156.0
172.705643 112.0
172.750107 72.0
172.867859 168.0
173.002075 320.0
173.030396 144.0
173.074387 164.0
173.106064 172.0
173.134872 92.0
173.179398 144.0
173.210831 180.0
173.229965 172.0
173.263229 208.0
173.313004 128.0
173.341827 148.0
173.450333 120.0
173.478119 136.0
173.527496 168.0
173.569885 132.0
173.606598 152.0
173.674789 156.0
173.719391 156.0
173.75528 200.0
173.808594 144.0
173.922318 144.0
173.979187 184.0
174.060577 228.0
174.115723 140.0
174.136734 204.0
174.176147 172.0
174.475723 180.0
174.499374 100.0
174.59668 224.0
174.746613 132.0
174.857132 148.0
174.880829 168.0
174.995178 136.0
175.015091 116.0
175.125763 152.0
175.178375 204.0
175.246872 124.0
175.269806 148.0
175.287964 256.0
175.347015 152.0
175.365463 232.0
175.432281 148.0
175.468262 136.0
175.499908 188.0
175.539459 68.0
175.58165 80.0
175.621216 160.0
175.739929 192.0
175.77951 188.0
175.887726 140.0
175.990677 208.0
176.066513 96.0
176.249527 152.0
176.336746 196.0
176.35524 132.0
176.402817 144.0
176.428864 172.0
176.506348 156.0
176.705582 192.0
176.765167 124.0
176.868393 116.0
176.958389 120.0
177.053543 488.0
177.175568 196.0
177.225906 100.0
177.260361 116.0
177.281555 180.0
177.329254 136.0
177.422043 132.0
177.445892 48.0
177.512192 48.0
177.679291 144.0
177.814621 176.0
177.865143 120.0
177.894409 200.0
177.955307 116.0
177.997803 132.0
178.017929 188.0
178.066223 512.0
178.123154 264.0
178.2005 64.0
178.231552 104.0
178.251007 112.0
178.40947 132.0
178.454819 108.0
178.473434 116.0
178.508011 128.0
178.539917 104.0
178.593109 132.0
178.662277 196.0
178.696854 176.0
178.72612 144.0
178.760727 124.0
178.832581 140.0
178.869843 68.0
178.95903 136.0
178.989655 104.0
179.028427 184.0
179.054428 172.0
179.0802 140.0
179.114822 172.0
179.209793 204.0
179.237915 176.0
179.308975 180.0
179.351974 144.0
179.503937 56.0
179.546234 144.0
179.69957 176.0
179.8134 60.0
179.922852 216.0
179.997543 180.0
180.051193 112.0
180.089386 120.0
180.371643 152.0
180.42511 80.0
180.451706 164.0
180.534729 160.0
180.562012 160.0
180.590897 108.0
180.688934 136.0
180.727158 60.0
180.790604 124.0
180.815643 136.0
180.952164 156.0
181.002747 104.0
181.047577 304.0
181.107483 112.0
181.147659 108.0
181.30574 68.0
181.33934 176.0
181.383469 120.0
181.404922 96.0
181.461212 96.0
181.557755 196.0
181.606033 224.0
181.659683 240.0
181.7509 264.0
181.777725 200.0
181.873337 172.0
181.973816 148.0
181.998962 188.0
182.172409 44.0
182.207336 96.0
182.25032 144.0
182.29332 120.0
182.315979 112.0
182.34169 144.0
182.37262 268.0
182.411575 136.0
182.476105 104.0
182.508362 188.0
182.527191 140.0
182.591736 176.0
182.656998 100.0
182.680038 324.0
182.755829 244.0
182.774078 144.0
182.825897 200.0
182.86795 84.0
182.895767 128.0
182.944733 316.0
182.984344 54444.0
183.061218 204.0
183.090607 76.0
183.116379 60.0
183.156082 100.0
183.176636 92.0
183.192978 124.0
183.233536 116.0
183.252701 184.0
183.294357 56.0
183.332077 68.0
183.381943 116.0
183.423721 152.0
183.445282 28.0
183.501709 112.0
183.582794 84.0
183.620987 104.0
183.720352 40.0
183.794312 68.0
183.822891 60.0
183.863373 208.0
183.925446 136.0
183.987366 4000.0
184.024506 500.0
184.055038 164.0
184.07663 84.0
184.112625 144.0
184.138748 44.0
184.230133 136.0
184.308945 84.0
184.367935 156.0
184.411636 164.0
184.444077 36.0
184.502426 172.0
184.572739 108.0
184.641449 176.0
184.814575 184.0
184.849747 152.0
184.921539 288.0
184.980804 16132.0
185.037598 472.0
185.092621 200.0
185.120453 180.0
185.142838 180.0
185.182755 72.0
185.236923 96.0
185.265808 148.0
185.303329 132.0
185.37059 204.0
185.396774 72.0
185.449875 156.0
185.479233 200.0
185.514801 152.0
185.597382 140.0
185.632629 152.0
185.67836 144.0
185.811646 76.0
185.874054 76.0
185.918411 128.0
185.983093 1308.0
186.037338 176.0
186.072556 152.0
186.11322 184.0
186.169952 104.0
186.196732 292.0
186.278595 128.0
186.300095 144.0
186.343796 92.0
186.37912 124.0
186.406281 84.0
186.487823 148.0
186.539459 48.0
186.71077 36.0
186.771912 116.0
186.849716 144.0
186.925674 132.0
186.972504 224.0
187.029984 264.0
187.072052 128.0
187.11348 100.0
187.195175 40.0
187.225128 148.0
187.252365 96.0
187.32106 108.0
187.355865 92.0
187.383118 192.0
187.402191 144.0
187.432159 108.0
187.509369 256.0
187.538452 44.0
187.571152 104.0
187.612045 132.0
187.738861 92.0
187.822021 320.0
187.918976 164.0
187.967285 196.0
188.026703 220.0
188.048492 48.0
188.079315 96.0
188.11673 184.0
188.152222 52.0
188.250519 328.0
188.318802 184.0
188.37616 144.0
188.400742 52.0
188.455917 124.0
188.597778 156.0
188.679504 44.0
188.72052 56.0
188.80545 192.0
188.881866 48.0
188.947525 104.0
189.026871 108.0
189.095291 120.0
189.139084 176.0
189.169189 148.0
189.273239 64.0
189.317047 188.0
189.412903 136.0
189.437561 136.0
189.536194 148.0
189.57933 172.0
189.673218 132.0
189.733536 180.0
189.76918 164.0
189.799332 124.0
189.867889 108.0
189.909042 120.0
189.933716 88.0
190.04071 136.0
190.106567 44.0
190.125778 188.0
190.352219 132.0
190.383835 120.0
190.403061 80.0
190.425034 164.0
190.455246 92.0
190.474472 252.0
190.562393 180.0
190.710785 84.0
190.746521 140.0
190.768509 60.0
190.839996 168.0
190.925232 200.0
190.994003 100.0
191.045471 236.0
191.120544 88.0
191.280167 168.0
191.379288 120.0
191.490036 200.0
191.555542 128.0
191.578568 236.0
191.785507 192.0
191.822845 156.0
191.943466 112.0
192.00206 148.0
192.0401 192.0
192.15654 208.0
192.218857 116.0
192.311066 224.0
192.366272 208.0
192.484268 76.0
192.512619 84.0
192.578903 120.0
192.631378 196.0
192.651474 248.0
192.772629 116.0
192.904953 128.0
193.004486 120.0
193.225754 148.0
193.322601 184.0
193.358582 200.0
193.527435 176.0
193.582825 184.0
193.684952 160.0
193.761215 364.0
193.923584 148.0
193.951126 124.0
193.976257 192.0
194.084381 84.0
194.206406 196.0
194.30072 168.0
194.347885 160.0
194.408936 268.0
194.46167 156.0
194.531052 108.0
194.567154 160.0
194.71431 132.0
194.772644 148.0
194.805984 140.0
194.887558 212.0
195.016373 1072.0
195.131134 112.0
195.153381 48.0
195.175629 56.0
195.373093 112.0
195.429962 196.0
195.462128 132.0
195.488281 172.0
195.505585 176.0
195.560928 128.0
195.595718 44.0
195.633011 132.0
195.719528 136.0
195.759979 148.0
195.837967 200.0
195.857468 136.0
195.993622 528.0
196.020264 296.0
196.069214 80.0
196.197433 64.0
196.219742 160.0
196.314697 180.0
196.353592 116.0
196.378693 116.0
196.504944 124.0
196.535721 220.0
196.601883 88.0
196.646545 32.0
196.688416 124.0
196.721909 140.0
196.741455 148.0
196.783325 124.0
196.816238 208.0
196.858002 176.0
196.967636 292.0
196.998672 828.0
197.0186 584.0
197.082184 208.0
197.104538 124.0
197.171616 92.0
197.232803 168.0
197.254349 220.0
197.291306 176.0
197.35051 164.0
197.389099 120.0
197.457306 168.0
197.49971 148.0
197.546295 132.0
197.567001 248.0
197.595764 376.0
197.694183 168.0
197.723862 192.0
197.746506 232.0
197.784927 216.0
197.820175 96.0
197.854034 244.0
197.872345 304.0
197.898209 276.0
197.920944 148.0
197.958221 224.0
198.008286 110884.0
198.110703 108.0
198.13559 144.0
198.201431 116.0
198.213196 40.0
198.22287 80.0
198.258026 216.0
198.285599 60.0
198.313049 236.0
198.345032 268.0
198.382629 80.0
198.441803 116.0
198.467529 704.0
198.512848 128.0
198.556915 148.0
198.594009 228.0
198.616531 252.0
198.654373 312.0
198.683685 276.0
198.702057 80.0
198.763184 60.0
198.825287 72.0
198.881744 112.0
198.902573 100.0
198.927826 40.0
198.948318 188.0
199.010468 9204.0
199.048279 440.0
199.074768 144.0
199.102432 176.0
199.164978 132.0
199.218964 132.0
199.276077 192.0
199.304169 120.0
199.329666 56.0
199.37677 208.0
199.428406 196.0
199.471802 236.0
199.539886 204.0
199.546463 176.0
199.622498 196.0
199.696808 40.0
199.734314 96.0
199.765259 56.0
199.794876 156.0
199.81871 92.0
199.860107 128.0
199.87085 128.0
199.926605 128.0
200.004776 29564.0
200.073761 64.0
200.08551 40.0
200.122208 48.0
200.146988 132.0
200.183121 152.0
200.209641 136.0
200.237488 52.0
200.276794 132.0
200.319824 88.0
200.337784 60.0
200.362076 88.0
200.395889 108.0
200.422806 164.0
200.454147 136.0
200.485901 272.0
200.51181 148.0
200.541824 176.0
200.553024 100.0
200.560287 236.0
200.60144 180.0
200.658005 124.0
200.735504 72.0
200.767975 40.0
200.797058 64.0
200.873611 160.0
200.9021 156.0
200.932861 88.0
200.995499 7248.0
201.049454 200.0
201.057068 300.0
201.085724 212.0
201.123474 80.0
201.163513 152.0
201.262222 232.0
201.346527 48.0
201.367416 172.0
201.401672 168.0
201.490585 44.0
201.519943 72.0
201.569702 56.0
201.603607 144.0
201.660141 48.0
201.722321 192.0
201.911758 120.0
201.948532 172.0
202.001251 656.0
202.032959 152.0
202.075027 156.0
202.106949 200.0
202.176758 84.0
202.231476 32.0
202.256943 140.0
202.319229 92.0
202.356033 216.0
202.402847 188.0
202.414139 132.0
202.47496 92.0
202.49762 64.0
202.536835 104.0
202.553467 112.0
202.608093 96.0
202.656265 76.0
202.856827 88.0
202.8983 120.0
202.946945 216.0
202.991928 1596.0
203.10701 184.0
203.194962 172.0
203.282913 224.0
203.43335 96.0
203.51001 140.0
203.614304 88.0
203.677567 224.0
203.751419 136.0
203.811081 36.0
203.882126 56.0
203.911179 144.0
203.941818 148.0
203.999207 240.0
204.058365 120.0
204.132294 176.0
204.285889 140.0
204.399689 140.0
204.572174 120.0
204.624557 172.0
204.674118 168.0
204.729904 200.0
204.766937 176.0
204.866623 40.0
204.960648 44.0
205.248535 116.0
205.285614 164.0
205.325546 128.0
205.587997 188.0
205.647934 76.0
205.730713 108.0
205.784958 172.0
205.824936 112.0
205.864914 156.0
206.13916 164.0
206.165314 108.0
206.382126 132.0
206.442184 148.0
206.559448 68.0
206.593765 196.0
206.7397 56.0
206.785492 136.0
206.885681 68.0
206.948654 156.0
207.031708 116.0
207.060349 40.0
207.091843 84.0
207.154861 140.0
207.252274 168.0
207.346848 100.0
207.381683 152.0
207.429962 116.0
207.467224 112.0
207.515976 144.0
207.666946 148.0
207.762619 196.0
207.788437 188.0
207.914688 28.0
207.937653 212.0
207.982849 128.0
208.035248 196.0
208.055344 76.0
208.102005 128.0
208.157227 108.0
208.254868 124.0
208.371262 128.0
208.457458 180.0
208.497696 168.0
208.565094 204.0
208.60405 148.0
208.681671 176.0
208.75119 180.0
208.809341 140.0
209.043716 152.0
209.072876 132.0
209.110291 68.0
209.189346 120.0
209.254227 96.0
209.378052 184.0
209.403641 144.0
209.481735 120.0
209.676773 128.0
209.715134 164.0
209.768204 156.0
209.802704 148.0
209.957321 160.0
210.006348 132.0
210.061157 344.0
210.229828 200.0
210.266022 176.0
210.304916 184.0
210.369934 92.0
210.459427 116.0
210.54895 180.0
210.575302 160.0
210.600937 112.0
210.638489 172.0
210.707825 36.0
210.75116 108.0
210.89566 216.0
210.965042 76.0
211.017288 548.0
211.060669 100.0
211.092255 80.0
211.12117 136.0
211.207932 176.0
211.263351 204.0
211.318939 108.0
211.366974 140.0
211.416031 160.0
211.488617 236.0
211.511765 32.0
211.54361 116.0
211.581848 152.0
211.613083 188.0
211.668106 108.0
211.70575 28.0
211.73761 36.0
211.772369 136.0
211.80423 68.0
211.859528 200.0
211.888107 192.0
211.971405 148.0
212.019287 412.0
212.051071 256.0
212.089294 136.0
212.128769 108.0
212.157761 76.0
212.189575 92.0
212.218643 112.0
212.244064 200.0
212.276642 260.0
212.313492 96.0
212.344833 212.0
212.383011 100.0
212.418152 400.0
212.451859 188.0
212.498688 116.0
212.52562 168.0
212.566528 180.0
212.622833 140.0
212.687866 280.0
212.717651 136.0
212.734665 116.0
212.761185 180.0
212.791748 548.0
212.820923 160.0
212.853363 116.0
212.90155 188.0
212.922302 780.0
212.943008 408.0
213.031891 253120.0
213.112915 156.0
213.144363 100.0
213.158386 204.0
213.168671 208.0
213.224045 180.0
213.256851 180.0
213.283356 76.0
213.302261 412.0
213.363647 236.0
213.423279 256.0
213.473709 488.0
213.510361 2316.0
213.550629 304.0
213.561386 348.0
213.583923 156.0
213.596283 124.0
213.623901 292.0
213.683304 56.0
213.719147 100.0
213.737259 220.0
213.761932 104.0
213.800674 144.0
213.836685 336.0
213.863739 64.0
213.896225 144.0
213.952423 128.0
214.03418 30716.0
214.110092 68.0
214.16864 96.0
214.213791 164.0
214.238632 288.0
214.272217 36.0
214.311295 168.0
214.354218 112.0
214.414581 76.0
214.457886 112.0
214.483093 208.0
214.520935 40.0
214.558044 64.0
214.579666 180.0
214.641602 112.0
214.668747 224.0
214.696457 156.0
214.734497 200.0
214.762665 364.0
214.817032 120.0
214.855042 212.0
214.878128 372.0
214.914795 164.0
214.944305 276.0
214.970169 144.0
215.028473 76300.0
215.121201 156.0
215.127625 152.0
215.137817 176.0
215.161331 192.0
215.183472 140.0
215.214478 268.0
215.246445 92.0
215.258072 88.0
215.275818 32.0
215.320938 160.0
215.35675 112.0
215.406769 380.0
215.47522 208.0
215.516068 84.0
215.52182 132.0
215.556641 352.0
215.642029 188.0
215.667831 40.0
215.692871 140.0
215.719269 80.0
215.737366 168.0
215.761826 252.0
215.808289 132.0
215.826981 184.0
215.860153 96.0
215.897461 104.0
215.949112 180.0
215.972412 172.0
216.021194 12084.0
216.07225 124.0
216.121704 48.0
216.157501 112.0
216.210541 100.0
216.244614 112.0
216.268402 196.0
216.304672 60.0
216.329498 56.0
216.375412 88.0
216.408966 56.0
216.434906 32.0
216.472549 84.0
216.502838 160.0
216.531189 164.0
216.584457 60.0
216.614288 32.0
216.636993 32.0
216.678009 52.0
216.698517 64.0
216.774689 80.0
216.802628 68.0
216.824509 44.0
216.845032 100.0
216.882889 48.0
216.956421 156.0
216.985733 68.0
217.021088 1576.0
217.069611 152.0
217.12355 108.0
217.208344 68.0
217.232086 80.0
217.279022 116.0
217.319962 92.0
217.360474 76.0
217.379868 76.0
217.428665 80.0
217.455078 96.0
217.484436 60.0
217.528473 112.0
217.549011 128.0
217.609772 92.0
217.61673 64.0
217.639526 188.0
217.698166 100.0
217.736938 72.0
217.783936 76.0
217.806076 52.0
217.833862 56.0
217.873611 68.0
217.907318 128.0
217.963135 140.0
218.014069 2776.0
218.074814 56.0
218.095383 128.0
218.129074 104.0
218.230621 72.0
218.279282 104.0
218.457535 52.0
218.519913 56.0
218.730423 36.0
218.757233 104.0
218.807281 60.0
219.01651 180.0
219.042877 48.0
219.160721 76.0
219.181351 56.0
219.26387 44.0
219.393555 68.0
219.417145 40.0
219.461365 84.0
219.841888 72.0
219.889114 48.0
220.063278 108.0
220.095764 176.0
220.267059 32.0
220.538895 180.0
220.612808 72.0
220.648285 100.0
220.75177 140.0
220.864151 56.0
221.189651 104.0
221.299179 76.0
221.467987 128.0
221.553894 76.0
221.699081 60.0
222.253601 92.0
222.289215 40.0
222.50589 192.0
222.666229 76.0
222.86824 100.0
222.918762 64.0
223.042389 160.0
223.129791 68.0
223.218994 80.0
223.349854 144.0
223.48671 84.0
223.587875 64.0
223.754578 56.0
223.849854 108.0
223.876648 108.0
224.052399 92.0
224.141785 96.0
224.222244 28.0
224.260986 68.0
224.326569 124.0
224.378464 88.0
224.421967 64.0
224.442841 92.0
224.514404 116.0
224.563843 104.0
224.588974 160.0
224.626038 96.0
224.651611 116.0
224.705307 92.0
224.827652 80.0
224.857498 100.0
224.944061 140.0
225.114243 96.0
225.218781 100.0
225.290466 120.0
225.317352 72.0
225.354156 76.0
225.505615 96.0
225.538498 64.0
225.577347 112.0
225.61322 60.0
225.658066 64.0
225.816559 92.0
225.894333 48.0
226.055893 80.0
226.109772 88.0
226.148682 104.0
226.298355 56.0
226.455078 96.0
226.660782 52.0
226.714722 88.0
226.786652 132.0
226.822632 76.0
226.894577 96.0
227.044495 176.0
227.149475 40.0
227.188477 132.0
227.227478 48.0
227.260483 60.0
227.374512 92.0
227.476562 80.0
227.530609 40.0
227.587646 40.0
227.755829 184.0
228.029251 36.0
228.074326 48.0
228.188568 100.0
228.362976 56.0
228.751602 80.0
228.967941 136.0
229.067337 40.0
229.453079 60.0
229.558609 52.0
229.609879 84.0
229.703384 124.0
229.818024 28.0
229.93486 100.0
229.954834 108.0
230.054153 404.0
230.13797 68.0
230.603195 68.0
230.639465 136.0
230.693878 60.0
231.344284 80.0
231.628937 88.0
231.66832 56.0
231.744049 36.0
231.792542 124.0
232.055069 172.0
232.141144 128.0
232.20787 56.0
232.637604 96.0
233.209808 92.0
233.307083 60.0
234.268753 60.0
234.753372 108.0
235.327026 60.0
235.57135 172.0
235.987 60.0
236.89595 36.0
237.43541 68.0
237.570374 36.0
237.677765 92.0
237.822006 60.0
237.864975 128.0
237.920227 68.0
238.7314 128.0
239.152908 104.0
240.038544 104.0
240.524551 168.0
241.482407 76.0
242.553741 40.0
242.901031 160.0
243.267212 48.0
243.397614 164.0
244.074997 168.0
244.168289 120.0
244.60701 76.0
245.086624 156.0
245.167648 96.0
245.959854 92.0
246.059753 56.0
246.740845 112.0
246.787735 88.0
247.144318 68.0
247.3853 76.0
247.432266 112.0
247.685913 100.0
247.86763 176.0
248.014923 92.0
248.043137 84.0
248.322205 72.0
248.52298 28.0
248.689301 48.0
249.125778 140.0
249.257736 172.0
249.540619 48.0
249.833115 92.0
250.059662 92.0
250.547745 184.0
250.686386 136.0
250.768326 216.0
251.070984 128.0
251.096222 180.0
251.12973 96.0
251.142899 60.0
251.154831 144.0
252.087509 148.0
252.280319 36.0
252.843338 64.0
253.543259 64.0
253.860275 100.0
254.012512 84.0
254.079132 160.0
254.225098 104.0
254.393311 64.0
254.917389 136.0
255.276596 48.0
255.722 140.0
256.256989 44.0
256.562958 44.0
257.04776 128.0
257.159454 52.0
257.24884 88.0
257.545807 56.0
257.612885 60.0
258.034729 76.0
258.472931 72.0
258.549744 152.0
260.216583 112.0
260.990936 56.0
261.399445 68.0
262.030548 64.0
262.375397 164.0
262.83017 72.0
263.185211 180.0
263.295013 48.0
263.534058 212.0
263.808777 48.0
264.041565 84.0
264.129456 116.0
264.552826 68.0
264.915527 48.0
265.06781 172.0
265.567047 120.0
266.320099 64.0
267.161987 176.0
267.415802 84.0
267.75116 80.0
267.816284 180.0
268.070404 112.0
268.220337 188.0
268.318146 28.0
268.807404 88.0
268.954254 36.0
269.016296 68.0
269.068512 116.0
269.117493 184.0
270.0979 224.0
270.225494 128.0
270.418579 108.0
270.664093 84.0
271.686707 40.0
272.067383 140.0
272.399048 72.0
272.655334 124.0
274.208771 132.0
274.245026 80.0
274.564667 156.0
275.743469 92.0
276.027802 136.0
276.143524 92.0
276.363464 108.0
276.871643 100.0
277.03064 92.0
277.478058 132.0
277.517822 108.0
278.428864 132.0
279.417633 172.0
279.820343 112.0
280.006805 192.0
280.416626 44.0
280.75 108.0
281.078583 172.0
281.77475 224.0
282.025391 40.0
282.075531 204.0
282.436676 208.0
282.644104 132.0
284.100647 120.0
284.934143 140.0
285.121613 156.0
285.495483 88.0
285.616547 116.0
286.094391 144.0
287.199677 60.0
287.391968 168.0
288.530182 92.0
289.904419 144.0
290.168793 200.0
290.94574 164.0
291.207184 212.0
291.62851 140.0
293.357697 216.0
294.333496 176.0
294.767303 144.0
294.813171 124.0
295.037323 96.0
295.909729 168.0
296.101227 612.0
296.238525 36.0
296.814301 152.0
296.855438 160.0
297.112274 100.0
297.11731 104.0
297.562286 176.0
297.874817 108.0
298.105011 192.0
298.194366 80.0
298.338745 100.0
298.840851 60.0
299.290558 156.0
299.326202 100.0
300.26355 64.0
300.556763 116.0
300.819061 120.0
300.853607 156.0
300.964081 60.0
302.62027 92.0
302.952759 84.0
303.840271 76.0
304.708221 160.0
305.942841 132.0
306.569794 96.0
306.768463 80.0
309.647675 124.0
310.117157 176.0
310.572998 144.0
311.113403 136.0
311.169556 84.0
311.847534 176.0
311.889709 40.0
312.118225 120.0
312.142853 112.0
312.413666 60.0
312.617737 132.0
313.100037 144.0
313.307861 44.0
313.385376 184.0
313.764069 136.0
314.39389 68.0
314.835175 60.0
315.365143 72.0
315.58432 96.0
315.60907 72.0
316.28479 96.0
316.688446 124.0
317.021454 68.0
317.273132 104.0
317.663208 116.0
318.149384 52.0
318.82782 124.0
318.895355 144.0
318.998444 92.0
320.630066 108.0
321.131317 156.0
322.143433 248.0
322.581055 176.0
323.154327 232.0
323.889221 76.0
324.134338 112.0
324.159424 156.0
324.50354 72.0
324.675659 60.0
325.125519 120.0
325.820709 92.0
326.032684 224.0
326.144104 296.0
327.680756 124.0
327.860901 132.0
328.877991 168.0
329.73761 68.0
330.355927 116.0
330.569397 76.0
331.090698 44.0
331.126892 160.0
331.431213 84.0
331.663147 72.0
332.000336 76.0
333.201813 124.0
334.507355 92.0
335.403473 76.0
335.939514 72.0
335.965027 108.0
335.99057 164.0
336.180298 128.0
336.304413 100.0
336.454071 116.0
336.578217 96.0
337.513641 144.0
337.703796 84.0
338.223358 144.0
338.552887 128.0
338.596832 92.0
338.981506 104.0
339.032806 140.0
339.144775 372.0
339.37738 108.0
339.62674 96.0
339.65976 112.0
339.707458 64.0
339.777496 208.0
339.905579 148.0
340.089081 68.0
340.141998 284.0
340.221222 92.0
340.28363 68.0
340.417114 168.0
340.4599 76.0
340.514984 84.0
340.674927 192.0
340.728027 192.0
340.780273 184.0
340.860291 64.0
340.911743 116.0
340.97226 104.0
341.018463 120.0
341.051422 36.0
341.161621 33548.0
341.268646 44.0
341.374939 36.0
341.408783 60.0
341.459534 48.0
341.49823 104.0
341.547821 96.0
341.597382 92.0
341.628265 64.0
341.637421 100.0
341.674622 84.0
341.719147 180.0
341.74881 44.0
341.776978 96.0
341.823029 96.0
341.897125 72.0
341.911896 92.0
341.996704 32.0
342.070343 128.0
342.164734 4724.0
342.21759 188.0
342.252777 108.0
342.294342 52.0
342.368561 80.0
342.432404 36.0
342.468018 104.0
342.512207 76.0
342.615356 124.0
342.795898 160.0
342.882202 152.0
342.987549 88.0
343.033051 104.0
343.083405 328.0
343.158813 8968.0
343.240479 132.0
343.312012 60.0
343.433716 136.0
343.470581 72.0
343.520752 60.0
343.736725 60.0
343.861694 60.0
343.918427 76.0
343.953979 36.0
343.983521 56.0
344.014954 48.0
344.1604 1440.0
344.297363 136.0
344.417175 136.0
344.504181 140.0
344.546967 76.0
344.591553 56.0
344.759155 36.0
344.858917 160.0
345.027954 52.0
345.106628 64.0
345.146667 96.0
345.1604 80.0
345.167358 140.0
345.27301 88.0
345.672546 76.0
345.713257 68.0
345.887207 80.0
346.053802 64.0
346.238953 108.0
346.279694 92.0
346.346375 100.0
346.409332 72.0
346.620514 44.0
346.794708 92.0
347.134094 96.0
347.284149 44.0
348.27887 100.0
348.564941 72.0
349.40152 56.0
349.848114 80.0
350.287537 96.0
351.204529 72.0
354.487061 80.0
354.940643 124.0
355.266937 56.0
356.122803 116.0
356.246735 36.0
356.569885 140.0
357.002228 72.0
357.954315 96.0
358.564606 68.0
359.771637 128.0
361.313568 56.0
361.873718 148.0
363.052185 128.0
363.196289 96.0
363.59848 64.0
364.734131 88.0
364.779755 44.0
365.924866 68.0
367.434113 48.0
367.598175 52.0
368.189911 100.0
369.363312 68.0
369.661713 64.0
371.197815 172.0
371.56604 72.0
372.771698 124.0
372.852417 40.0
375.323822 100.0
375.508942 48.0
378.143921 144.0
378.91452 72.0
378.972626 76.0
379.472626 88.0
379.969055 52.0
380.621124 76.0
382.117584 76.0
382.378296 36.0
384.998169 68.0
385.764008 104.0
385.803101 80.0
386.659729 104.0
388.254242 44.0
390.453552 104.0
391.118469 80.0
392.962799 88.0
393.68515 48.0
395.076477 76.0
398.601257 68.0
399.380463 100.0
402.137695 52.0
402.508972 80.0
406.223114 96.0
409.060181 88.0
411.156097 60.0
413.071289 40.0
417.358093 116.0
418.09845 132.0
419.210236 72.0
420.552002 52.0
422.11264 52.0
422.2435 84.0
423.180603 100.0
423.401733 72.0
423.881042 40.0
426.495331 48.0
431.338684 76.0
433.640076 104.0
434.672699 116.0
435.046234 108.0
438.882233 80.0
439.286774 48.0
441.41684 60.0
443.254517 32.0
444.281738 48.0
448.191864 56.0
448.406769 40.0
448.756653 60.0
450.001343 132.0
450.351837 40.0
450.765869 48.0
453.860138 92.0
454.118835 116.0
455.043945 128.0
455.53656 48.0
455.944458 48.0
455.974213 52.0
456.943756 188.0
457.565125 88.0
458.630127 76.0
460.217102 124.0
464.561127 52.0
467.142944 108.0
467.228973 76.0
467.370972 96.0
469.240265 80.0
472.713074 64.0
472.799622 28.0
473.197845 56.0
474.36322 108.0
474.757782 36.0
478.0159 52.0
479.820007 100.0
486.126526 120.0
487.452698 44.0
488.837891 96.0
490.242676 100.0
492.36026 36.0
492.501587 80.0
494.32309 56.0
495.235077 100.0
496.334137 72.0
498.162689 100.0
502.507843 48.0
503.074646 92.0
503.556885 72.0
503.681946 68.0
505.689575 112.0
507.028717 92.0
507.086975 52.0
508.441406 56.0
510.732819 72.0
515.995483 76.0
519.986328 68.0
522.490112 96.0
525.506226 32.0
526.104065 68.0
529.799255 48.0
530.399536 124.0
532.969543 56.0
533.783203 168.0
535.025452 36.0
535.375427 120.0
543.107727 88.0
543.803711 60.0
544.764893 120.0
545.838562 84.0
547.858521 76.0
548.100769 100.0
550.180969 92.0
550.848755 44.0
551.245911 108.0
553.753479 100.0
555.73175 92.0
561.315125 44.0
565.297302 76.0
568.510315 52.0
579.563904 84.0
586.990479 64.0
591.832214 80.0
592.088867 32.0
594.614746 88.0
594.930298 48.0
597.569275 56.0
602.806152 32.0
604.302368 56.0
605.98175 48.0
611.107666 52.0
612.75708 56.0
613.792114 124.0
613.836487 100.0
616.092163 76.0
618.965759 124.0
623.266357 88.0
627.636719 56.0
627.696533 60.0
630.462158 52.0
634.04541 60.0
635.123413 96.0
635.384277 28.0
641.948303 84.0
643.376221 68.0
650.493896 52.0
669.195496 80.0
671.901367 52.0
678.993164 92.0
680.425354 48.0
681.593994 72.0
684.756958 60.0
688.073425 72.0
691.617737 60.0
694.683167 76.0
700.065308 128.0
701.862244 56.0
703.397522 80.0
703.550598 112.0
711.815674 60.0
712.049316 52.0
716.549561 44.0
716.773315 136.0
717.642151 192.0
722.507751 68.0
728.947266 68.0
738.933289 44.0
739.490662 36.0
740.032043 88.0
745.20636 68.0
746.820923 212.0
752.444763 64.0
752.739563 104.0
760.387512 164.0
760.513733 52.0
764.448792 184.0
765.153381 36.0
767.25238 224.0
768.863098 68.0
771.215881 44.0
772.738403 64.0
776.664368 108.0
778.040588 72.0
780.88562 244.0
784.365662 40.0
784.549622 60.0
787.490356 228.0
788.250122 112.0
809.378418 68.0
809.542664 220.0
809.961792 268.0
811.372864 136.0
818.070801 208.0
819.534485 140.0
821.963562 104.0
826.311768 80.0
826.798157 96.0
827.216003 152.0
829.518799 40.0
832.617249 76.0
834.05365 184.0
835.105835 120.0
835.75592 96.0
838.819824 68.0
839.955811 80.0
840.688538 208.0
840.884766 48.0
843.929138 92.0
846.498291 76.0
846.770508 104.0
846.979004 52.0
848.978577 144.0
850.254883 152.0
851.404419 120.0
858.901001 92.0
863.784363 52.0
864.164612 96.0
866.740967 68.0
867.983643 168.0
868.945557 156.0
869.156799 236.0
870.272034 216.0
872.392944 64.0
875.376038 112.0
877.108154 120.0
877.360535 84.0
878.434937 164.0
880.896545 248.0
880.973328 116.0
885.237854 72.0
890.908142 232.0
892.947021 160.0
897.20459 88.0
897.5802 148.0
898.278015 172.0
900.791138 80.0
901.412537 36.0
902.751587 132.0
904.085632 168.0
904.995483 160.0
905.360779 196.0
905.646362 164.0
905.881897 68.0
906.187439 156.0
906.648804 172.0
908.891602 56.0
910.410339 156.0
915.504028 144.0
917.221191 160.0
917.371887 172.0
917.721558 216.0
918.49353 140.0
918.656372 144.0
919.163208 132.0
919.748596 32.0
920.889771 168.0
921.010559 96.0
921.499939 92.0
921.838318 156.0
922.043762 208.0
923.670227 140.0
923.72467 140.0
924.335754 144.0
924.747253 168.0
925.349365 152.0
926.121704 192.0
926.261047 168.0
927.769958 120.0
929.176941 164.0
929.674561 184.0
929.808044 160.0
933.057861 96.0
934.639221 144.0
936.690918 64.0
937.671936 148.0
939.013245 216.0
939.415833 60.0
940.074768 100.0
944.748962 132.0
945.109924 108.0
945.207825 120.0
945.305786 204.0
945.519958 40.0
947.130249 120.0
947.381409 152.0
947.43042 108.0
948.110535 136.0
948.276001 140.0
948.447632 112.0
948.656067 104.0
948.919678 188.0
949.680115 168.0
949.919312 132.0
951.072937 168.0
951.656128 164.0
952.006165 140.0
952.374634 156.0
952.823059 152.0
954.076843 64.0
955.029968 168.0
956.7099 204.0
957.534973 168.0
958.200256 88.0
958.72406 172.0
958.828796 44.0
959.136963 60.0
959.944641 140.0
960.302368 108.0
960.343872 120.0
960.672424 136.0
960.857544 172.0
961.900452 120.0
962.394348 156.0
962.659485 132.0
962.69342 216.0
962.999573 140.0
964.173462 60.0
965.688171 112.0
966.950378 108.0
967.680786 128.0
968.392944 44.0
970.121765 124.0
970.921631 40.0
971.821106 184.0
972.189087 172.0
973.590271 120.0
974.714661 128.0
975.765076 132.0
975.852112 216.0
976.125732 168.0
976.29364 284.0
977.338684 36.0
977.846497 248.0
978.079285 108.0
978.888672 128.0
978.950928 168.0
979.293457 180.0
979.748169 144.0
980.315186 172.0
981.892761 156.0
982.329102 140.0
982.815735 168.0
983.177673 204.0
983.246277 156.0
983.914185 72.0
985.019531 104.0
985.719299 144.0
985.952026 84.0
987.075806 144.0
987.926392 52.0
988.222473 200.0
988.236877 64.0
988.261963 176.0
989.040283 32.0
990.148499 160.0
991.84021 204.0
992.028259 176.0
993.012695 184.0
993.659851 172.0
993.828247 132.0
994.185913 176.0
994.637817 100.0
995.18396 204.0
995.567017 88.0
996.239136 84.0
996.829712 104.0
997.414246 168.0
998.024048 188.0
998.37616 92.0
998.45166 148.0
1000.446289 184.0
1000.528137 100.0
1000.767395 180.0
1001.397156 108.0
1001.70575 184.0
1002.262451 112.0
1003.337952 176.0
1003.968506 184.0
1004.119873 164.0
1004.301697 184.0
1005.009338 200.0
1005.223877 184.0
1005.356445 200.0
1006.600037 156.0
1006.871582 224.0
1007.023193 136.0
1007.187378 92.0
1007.282166 96.0
1007.793884 140.0
1008.229919 220.0
1008.604309 204.0
1009.639709 132.0
1010.822693 188.0
1011.987366 208.0
1012.48761 128.0
1013.22876 208.0
1014.280701 140.0
1014.470886 44.0
1014.527954 156.0
1014.813232 144.0
1014.927368 148.0
1015.49176 176.0
1015.663025 224.0
1015.961182 108.0
1016.6651 196.0
1017.179626 160.0
1017.255798 136.0
1017.43988 240.0
1017.662109 180.0
1017.801819 72.0
1019.16748 108.0
1019.574158 104.0
1020.127136 140.0
1020.775635 188.0
1020.832886 96.0
1022.047852 124.0
1022.35968 160.0
1022.786072 216.0
1022.938843 176.0
1023.161682 144.0
1025.690796 148.0
1026.380737 144.0
1026.506836 116.0
1028.446289 232.0
1028.503784 148.0
1028.644165 152.0
1028.918701 140.0
1028.976196 176.0
1029.206055 60.0
1029.652954 208.0
1029.850952 112.0
1030.20874 148.0
1030.371338 236.0
1030.598511 144.0
1031.448486 176.0
1031.966309 188.0
1032.209229 200.0
1033.005493 300.0
1033.949341 180.0
1034.520874 264.0
1034.992798 168.0
1035.191284 48.0
1035.766846 148.0
1035.953491 124.0
1036.113647 160.0
1036.260986 164.0
1036.530029 144.0
1036.619751 176.0
1036.683838 176.0
1036.780029 168.0
1036.863281 136.0
1037.767212 152.0
1038.639404 96.0
1039.182251 156.0
1039.473389 48.0
1039.699951 160.0
1039.91626 136.0
1041.701294 244.0
1042.202393 224.0
1042.292358 224.0
1042.491577 72.0
1042.652222 88.0
1043.278198 128.0
1043.327148 152.0
1044.034546 212.0
1044.163086 152.0
1044.227417 216.0
1044.606934 232.0
1044.980103 88.0
1045.108765 108.0
1045.597778 208.0
1045.887451 184.0
1047.443359 148.0
1047.883789 84.0
1048.044922 180.0
1048.397217 176.0
1048.573364 172.0
1048.966553 128.0
1049.276001 180.0
1049.708008 176.0
1049.849854 156.0
1050.037476 180.0
1050.339966 44.0
1050.501221 132.0
1050.688354 136.0
1050.810913 140.0
1051.152954 120.0
1051.931885 144.0
1052.134033 152.0
1052.321289 220.0
1053.451416 136.0
1054.420654 260.0
1055.461426 168.0
1055.765381 340.0
1056.012207 148.0
1056.166382 176.0
1056.256958 112.0
1056.463989 108.0
1056.735718 204.0
1057.44751 132.0
1057.582275 164.0
1058.78772 176.0
1058.884888 160.0
1059.467773 160.0
1060.057495 88.0
1060.387939 96.0
1060.828735 212.0
1060.932495 192.0
1061.100952 152.0
1061.887939 244.0
1062.281372 184.0
1062.456421 100.0
1062.897705 200.0
1063.150757 36.0
1063.248169 156.0
1063.858276 36.0
1064.110962 192.0
1064.168457 192.0
1064.65686 112.0
1065.124512 200.0
1065.371338 184.0
1065.507812 164.0
1065.683228 36.0
1065.878174 208.0
1066.151123 140.0
1066.281128 136.0
1066.346069 168.0
1066.502075 188.0
1066.937622 176.0
1067.048096 136.0
1067.106689 140.0
1067.217163 180.0
1067.698364 172.0
1068.01709 160.0
1068.309814 160.0
1068.576538 204.0
1068.940918 60.0
1069.116699 124.0
1069.461548 140.0
1069.633911 164.0
1070.027344 40.0
1070.249268 164.0
1070.353516 164.0
1070.828857 156.0
1071.200195 176.0
1071.343506 224.0
1072.888062 116.0
1073.174927 152.0
1073.324829 160.0
1074.153198 128.0
1074.440186 52.0
1074.994751 168.0
1075.138428 100.0
1075.295044 104.0
1075.490845 136.0
1075.656372 180.0
1076.600708 132.0
1078.528076 128.0
1078.626221 152.0
1079.299561 132.0
1080.012451 124.0
1080.110474 152.0
1080.718994 152.0
1080.902222 136.0
1081.196655 128.0
1081.307861 208.0
1081.818481 164.0
1082.152344 120.0
1083.193604 160.0
1083.302246 208.0
1083.926758 180.0
1084.097778 204.0
1084.294434 92.0
1085.199097 180.0
1085.343262 148.0
1085.435059 128.0
1085.507202 124.0
1085.579346 148.0
1086.333618 316.0
1086.438599 92.0
1086.668213 92.0
1087.567261 152.0
1088.322266 72.0
1089.143188 148.0
1089.740967 176.0
1090.5625 176.0
1090.647949 176.0
1091.35791 176.0
1091.443359 180.0
1091.588013 140.0
1091.91687 200.0
1092.193115 124.0
1092.291748 120.0
1092.995728 180.0
1093.133911 200.0
1093.199707 152.0
1093.963257 180.0
1094.397827 160.0
1095.220947 32.0
1096.492554 152.0
1096.776001 152.0
1097.488037 164.0
1097.547363 180.0
1097.837524 140.0
1098.187012 80.0
1098.259277 212.0
1098.417969 40.0
1098.490479 164.0
1098.615845 100.0
1099.05127 248.0
1099.15686 164.0
1099.678223 164.0
1099.849854 56.0
1099.97522 244.0
1100.120483 80.0
1100.179932 88.0
1100.754272 192.0
1100.859985 160.0
1101.044922 144.0
1102.181152 196.0
1102.346313 204.0
1102.670166 80.0
1102.782471 172.0
1103.029053 80.0
1103.086548 132.0
1103.608887 164.0
1104.122437 168.0
1104.563965 116.0
1104.772827 40.0
1104.905151 136.0
1105.010864 156.0
1105.500732 188.0
1106.268433 144.0
1106.586304 148.0
1106.77832 172.0
1106.957031 136.0
1107.129272 124.0
1107.30603 172.0
1107.745239 176.0
1107.811523 196.0
1108.1427 164.0
1108.189087 156.0
1108.268677 120.0
1108.58667 148.0
1108.676636 176.0
1108.729004 160.0
1108.818604 112.0
1109.150024 112.0
1109.852783 168.0
1110.303711 156.0
1110.459473 200.0
1110.994995 128.0
1111.245728 132.0
1111.62915 180.0
1111.703491 128.0
1112.008789 140.0
1112.227905 76.0
1112.851929 148.0
1113.515991 136.0
1113.947754 128.0
1114.073975 236.0
1114.615356 204.0
1115.571533 176.0
1116.386963 156.0
1118.343018 108.0
1118.840454 180.0
1119.428223 164.0
1119.474854 136.0
1119.674561 188.0
1119.94104 128.0
1120.387329 212.0
1120.467285 204.0
1120.578491 184.0
1120.763428 160.0
1120.9375 176.0
1121.086914 136.0
1121.333496 168.0
1121.413574 136.0
1122.366821 108.0
1122.546875 112.0
1122.700317 136.0
1122.822266 140.0
1122.928711 124.0
1123.133789 196.0
1123.287231 136.0
1123.353882 40.0
1123.780884 156.0
1123.96106 72.0
1124.561646 188.0
1124.775269 172.0
1125.302734 120.0
1125.498657 148.0
1125.776733 152.0
1125.836914 156.0
1126.091431 140.0
1126.872192 108.0
1127.334351 188.0
1127.934814 140.0
1128.396118 144.0
1128.536499 176.0
1128.589966 148.0
1129.392578 152.0
1130.396118 196.0
1130.463013 164.0
1130.944824 216.0
1131.092163 212.0
1131.138916 144.0
1131.386719 144.0
1131.775024 52.0
1131.875488 104.0
1132.096436 152.0
1132.230347 156.0
1132.478149 180.0
1132.679077 164.0
1132.933716 112.0
1133.078857 204.0
1133.308838 132.0
1133.489746 124.0
1133.764526 160.0
1134.032593 184.0
1134.233765 116.0
1134.347656 108.0
1134.520386 132.0
1134.863892 120.0
1134.937622 156.0
1135.105225 124.0
1135.338013 120.0
1135.574707 56.0
1135.809448 48.0
1136.071167 260.0
1136.198608 88.0
1136.279053 96.0
1136.406616 220.0
1136.628052 120.0
1137.2052 176.0
1137.346069 108.0
1137.426636 236.0
1137.567627 164.0
1138.165161 88.0
1138.374878 212.0
1138.729248 184.0
1139.165894 128.0
1139.259888 124.0
1139.46814 56.0
1139.602539 124.0
1139.777222 156.0
1140.200684 164.0
1140.28125 172.0
1140.402222 180.0
1140.677856 112.0
1141.003174 160.0
1141.289673 96.0
1141.746948 100.0
1142.177368 140.0
1142.924194 148.0
1143.200073 184.0
1143.334595 100.0
1143.751953 204.0
1144.095215 136.0
1144.324219 124.0
1144.633911 176.0
1144.830444 148.0
1144.950439 168.0
1145.064941 176.0
1145.549927 192.0
1145.656494 204.0
1145.819336 160.0
1145.893433 188.0
1146.082153 164.0
1146.62793 192.0
1146.870605 144.0
1146.974365 180.0
1147.328979 200.0
1147.477295 80.0
1147.801025 100.0
1147.942627 124.0
1148.596802 136.0
1149.22168 164.0
1149.365845 176.0
1149.730347 80.0
1150.648315 104.0
1150.86438 152.0
1151.040039 244.0
1151.74231 132.0
1152.21521 112.0
1152.289551 164.0
1152.46521 124.0
1152.634155 68.0
1152.924683 128.0
1152.999023 84.0
1153.3573 224.0
1153.587036 248.0
1153.70874 132.0
1153.816895 148.0
1154.033325 96.0
1154.12793 152.0
1154.182007 172.0
1154.22937 204.0
1154.276733 212.0
1154.375488 228.0
1154.729858 144.0
1154.797485 144.0
1156.292725 156.0
1156.577026 140.0
1156.773315 204.0
1156.895142 104.0
1157.026611 96.0
1157.355469 184.0
1158.100464 132.0
1158.506958 128.0
1158.689819 148.0
1158.859253 96.0
1159.089722 180.0
1159.164062 200.0
1159.954834 152.0
1160.052002 100.0
1160.418091 120.0
1160.837646 212.0
1160.932373 188.0
1160.943481 160.0
1161.116577 196.0
1161.313232 136.0
1161.374268 92.0
1161.477905 172.0
1162.308716 140.0
1162.400757 164.0
1162.52771 124.0
1163.660889 180.0
1164.041504 116.0
1164.163696 216.0
1164.333496 204.0
1164.380981 96.0
1165.053467 100.0
1165.284546 212.0
1166.528198 112.0
1166.636963 64.0
1166.895264 172.0
1166.966919 204.0
1167.203857 148.0
1167.636475 184.0
1167.697754 128.0
1168.038208 140.0
1168.411987 116.0
1168.860962 144.0
1168.949463 104.0
1169.112793 156.0
1169.163818 164.0
1169.677734 148.0
1170.181519 132.0
1170.460693 152.0
1170.794312 92.0
1170.875732 232.0
1171.025879 236.0
1171.10083 144.0
1171.162109 144.0
1171.28479 152.0
1171.550415 176.0
1171.66626 108.0
1172.17041 200.0
1172.884766 156.0
1173.151855 60.0
1173.206421 228.0
1173.67688 112.0
1174.079224 184.0
1174.84314 132.0
1174.890869 140.0
1175.122925 224.0
1175.914429 116.0
1176.494751 136.0
1176.706299 112.0
1176.875732 176.0
1177.054565 68.0
1177.156982 108.0
1177.225342 96.0
1177.478027 136.0
1177.63501 148.0
1178.025879 164.0
1178.467163 124.0
1178.632446 152.0
1178.687134 176.0
1178.925659 164.0
1179.350098 248.0
1180.156738 80.0
1180.389282 120.0
1180.457642 180.0
1180.635376 196.0
1180.697021 148.0
1181.531494 120.0
1181.750366 40.0
1182.044678 132.0
1182.51416 168.0
1183.424072 180.0
1183.991943 212.0
1184.057373 68.0
1184.119019 88.0
1185.084839 132.0
1185.208252 360.0
1185.502808 160.0
1186.263672 148.0
1187.813477 236.0
1188.204468 100.0
1188.410278 176.0
1188.773926 208.0
1188.957397 184.0
1189.188599 192.0
1189.831055 160.0
1190.105713 60.0
1190.181152 148.0
1190.311646 216.0
1191.039673 32.0
1191.266357 292.0
1191.479248 124.0
1191.561768 152.0
1191.857178 172.0
1191.946533 124.0
1192.977539 160.0
1193.224976 108.0
1193.341919 96.0
1193.472534 144.0
1193.575684 84.0
1193.713135 136.0
1194.50415 108.0
1195.000244 196.0
1195.962891 128.0
1196.037109 164.0
1196.307129 232.0
1196.424927 172.0
1196.468018 220.0
1196.623779 56.0
1197.2229 180.0
1197.401855 148.0
1197.649902 160.0
1197.732544 92.0
1198.194092 168.0
1198.400757 160.0
1198.800415 152.0
1198.917603 140.0
1199.027832 104.0
1199.765381 184.0
1199.944702 192.0
1200.510132 152.0
1200.592773 136.0
1200.999756 240.0
1201.054932 144.0
1201.165283 164.0
1201.241211 140.0
1201.668945 140.0
1202.015991 148.0
1202.082886 96.0
1202.248535 112.0
1202.656738 136.0
1202.786865 156.0
1202.876587 68.0
1202.931885 124.0
1203.111328 200.0
1203.283936 52.0
1203.376465 224.0
1203.546265 156.0
1203.630371 228.0
1203.787964 168.0
1203.953735 212.0
1204.140259 144.0
1204.236938 168.0
1204.340576 176.0
1204.395752 136.0
1204.520142 168.0
1204.837891 116.0
1205.333374 192.0
1205.535767 132.0
1205.812256 160.0
1206.161987 244.0
1206.565674 156.0
1206.904419 136.0
1207.350342 168.0
1207.748291 188.0
1208.384644 144.0
1208.752319 88.0
1208.841309 176.0
1209.090454 56.0
1209.547241 72.0
1209.651123 108.0
1209.94873 140.0
1210.211914 184.0
1210.481934 228.0
1210.703491 136.0
1210.966675 136.0
1211.250732 128.0
1211.312988 144.0
1211.520874 164.0
1211.735474 172.0
1211.8396 180.0
1212.040527 144.0
1212.39624 204.0
1212.536987 60.0
1213.010742 136.0
1213.308838 304.0
1213.870483 160.0
1214.571045 64.0
1214.713013 132.0
1215.098267 116.0
1215.44519 172.0
1215.632446 124.0
1215.840698 248.0
1216.264038 180.0
1216.888916 52.0
1217.395752 212.0
1217.638794 124.0
1217.951416 164.0
1218.25708 184.0
1218.409912 172.0
1218.597168 184.0
1218.840698 52.0
1218.979614 136.0
1219.160278 160.0
1219.25061 96.0
1219.507812 148.0
1219.563477 136.0
1219.813721 124.0
1219.93396 160.0
1220.105591 256.0
1220.633545 112.0
1220.741211 212.0
1220.856567 112.0
1221.733032 112.0
1221.921875 188.0
1222.421875 156.0
1222.595825 108.0
1222.846924 136.0
1223.083008 224.0
1223.22229 136.0
1223.382324 148.0
1223.461792 176.0
1223.918457 172.0
1224.124268 128.0
1224.621826 200.0
1224.705444 160.0
1224.851685 100.0
1224.963135 180.0
1225.409058 80.0
1225.631958 120.0
1226.113647 160.0
1226.816772 132.0
1227.172363 128.0
1227.555908 160.0
1228.818359 168.0
1229.02771 192.0
1229.11145 124.0
1229.19519 128.0
1229.320801 180.0
1229.502197 120.0
1229.83728 124.0
1230.800659 100.0
1230.924316 232.0
1231.170776 184.0
1231.464111 116.0
1231.638794 168.0
1231.762451 176.0
1232.158447 164.0
1232.784546 92.0
1232.938477 164.0
1233.032837 180.0
1233.504517 160.0
1233.595337 180.0
1233.707153 92.0
1233.860962 216.0
1234.042725 212.0
1234.189575 140.0
1234.259521 172.0
1234.368408 164.0
1234.735107 124.0
1234.841675 200.0
1235.126709 196.0
1236.113281 100.0
1236.17627 172.0
1236.736084 132.0
1237.037109 176.0
1237.324097 152.0
1237.471191 136.0
1237.58313 164.0
1237.658447 160.0
1237.828247 96.0
1237.919312 128.0
1238.122437 184.0
1238.276489 168.0
1238.899902 172.0
1239.019043 56.0
1239.528809 168.0
1240.154175 80.0
1240.245361 84.0
1240.357544 164.0
1240.904297 184.0
1241.121704 124.0
1241.311035 212.0
1241.822998 124.0
1241.914185 128.0
1242.27124 128.0
1242.791016 72.0
1242.889282 124.0
1242.980469 128.0
1243.064697 180.0
1244.307129 176.0
1244.631348 172.0
1245.227051 68.0
1245.444702 136.0
1245.599243 220.0
1245.683594 180.0
1246.821777 116.0
1247.43335 180.0
1247.700439 132.0
1248.115356 168.0
1248.424683 176.0
1248.621704 128.0
1249.071777 168.0
1249.303955 200.0
1249.423584 124.0
1249.818604 188.0
1250.120117 152.0
1250.387573 116.0
1250.783813 176.0
1251.246338 120.0
1251.415283 212.0
1251.767334 128.0
1251.837769 196.0
1252.027954 196.0
1252.197021 132.0
1252.316772 132.0
1252.619629 180.0
1252.894287 104.0
1252.957764 128.0
1253.944336 172.0
1254.101929 176.0
1254.279297 180.0
1254.639526 164.0
1255.241455 36.0
1255.567139 108.0
1255.643433 164.0
1255.699829 144.0
1255.819702 116.0
1255.893188 192.0
1256.017212 120.0
1256.087769 156.0
1256.68042 116.0
1257.0896 60.0
1257.287231 156.0
1257.565674 160.0
1257.82373 116.0
1257.873047 84.0
1258.409668 136.0
1258.501587 168.0
1259.129883 168.0
1259.186401 160.0
1259.412476 172.0
1259.921021 108.0
1260.111816 124.0
1260.772095 196.0
1261.178833 168.0
1261.43335 204.0
1261.553589 176.0
1261.680786 200.0
1261.892944 176.0
1262.203979 148.0
1262.451538 160.0
1262.833374 140.0
1263.540771 172.0
1263.646973 152.0
1263.774292 48.0
1263.845093 168.0
1264.128052 184.0
1264.467773 136.0
1264.581055 92.0
1264.658936 124.0
1264.807495 80.0
1264.977417 56.0
1265.25354 132.0
1265.501343 208.0
1265.557983 144.0
1265.692505 72.0
1265.862427 176.0
1266.166992 212.0
1266.407715 148.0
1267.165771 68.0
1267.215332 168.0
1267.576782 200.0
1267.936279 176.0
1268.092407 156.0
1268.20459 260.0
1268.413086 168.0
1268.654053 108.0
1268.895142 148.0
1269.107788 152.0
1269.20813 172.0
1269.348877 48.0
1269.436523 132.0
1269.838257 140.0
1269.9375 128.0
1269.987183 260.0
1270.150391 132.0
1270.966187 144.0
1271.065552 164.0
1271.321045 168.0
1271.406128 152.0
1271.604858 136.0
1271.931396 168.0
1271.988159 32.0
1272.250854 88.0
1272.421265 108.0
1272.648438 148.0
1272.804688 156.0
1273.152588 136.0
1273.273315 160.0
1273.372803 56.0
1273.465088 156.0
1273.578735 228.0
1273.63562 108.0
1273.905518 136.0
1273.9552 156.0
1274.077515 148.0
1274.715454 272.0
1275.092163 100.0
1275.141846 144.0
1275.376465 60.0
1275.518555 144.0
1275.703491 164.0
1275.760254 120.0
1275.88562 116.0
1276.250854 120.0
1276.521118 60.0
1276.727295 60.0
1276.912231 92.0
1277.107544 164.0
1277.338989 48.0
1277.401489 176.0
1278.128662 148.0
1278.505859 172.0
1278.655273 132.0
1278.790527 48.0
1278.925781 112.0
1279.089478 144.0
1279.167847 128.0
1279.310181 116.0
1279.359985 172.0
1279.67334 200.0
1279.772949 108.0
1279.872681 128.0
1279.953735 196.0
1280.022217 172.0
1280.136108 40.0
1280.314209 56.0
1280.427002 248.0
1280.499512 208.0
1280.671387 148.0
1280.762817 120.0
1280.976562 132.0
1281.347046 136.0
1281.406738 196.0
1281.774536 128.0
1282.718994 200.0
1282.850708 124.0
1282.907837 180.0
1283.278564 104.0
1283.63501 224.0
1283.756226 168.0
1283.998779 228.0
1284.126709 136.0
1284.797607 132.0
1284.876099 160.0
1285.218628 176.0
1285.368408 36.0
1285.446899 180.0
1285.72522 140.0
1286.153442 80.0
1286.253418 36.0
1286.339111 152.0
1286.638916 160.0
1286.761353 112.0
1286.903076 152.0
1287.088745 196.0
1287.331543 152.0
1287.824341 168.0
1288.25293 92.0
1288.402954 96.0
1288.603027 88.0
1288.753052 220.0
1289.103149 132.0
1289.160278 136.0
1289.253174 40.0
1289.667725 52.0
1289.810669 152.0
1289.910767 176.0
1290.411255 148.0
1290.489868 220.0
1290.775879 132.0
1291.011841 132.0
1291.169189 148.0
1291.413452 192.0
1291.598389 156.0
1291.776611 140.0
1291.864624 188.0
1292.106323 272.0
1292.492676 168.0
1292.72876 176.0
1292.879028 56.0
1292.964966 140.0
1293.015015 152.0
1293.222656 148.0
1293.408691 148.0
1293.709351 88.0
1293.838257 208.0
1293.981445 188.0
1294.131836 160.0
1294.418213 188.0
1294.482422 104.0
1294.634277 180.0
1294.690308 96.0
1295.069946 132.0
1295.120117 312.0
1295.256104 208.0
1295.52832 212.0
1295.671631 136.0
1295.779175 152.0
1295.979736 152.0
1296.474243 96.0
1296.538696 152.0
1296.610352 108.0
1296.689209 96.0
1296.827393 120.0
1297.233887 40.0
1297.384521 88.0
1297.484863 320.0
1297.728638 144.0
1297.944946 164.0
1298.001099 216.0
1298.057617 144.0
1298.144531 148.0
1298.284058 236.0
1298.467285 128.0
1298.524658 160.0
1298.92627 116.0
1299.859009 160.0
1299.921997 148.0
1300.684326 192.0
1300.748901 200.0
1301.079224 272.0
1301.273071 132.0
1301.381226 196.0
1301.765259 228.0
1301.869019 204.0
1301.998291 220.0
1302.364624 68.0
1302.486694 84.0
1302.572876 28.0
1302.637573 108.0
1303.341675 208.0
1303.585938 96.0
1303.729614 144.0
1303.952515 176.0
1304.01709 220.0
1305.577271 208.0
1305.86499 164.0
1306.049927 164.0
1306.217407 140.0
1306.346924 156.0
1306.447632 168.0
1306.562744 196.0
1306.630493 172.0
1307.131104 156.0
1307.354248 188.0
1307.483765 172.0
1308.383545 192.0
1308.477173 176.0
1308.606689 136.0
1308.973999 120.0
1309.031494 112.0
1309.103516 88.0
1309.204346 224.0
1309.517944 180.0
1309.888672 132.0
1310.068726 84.0
1310.364136 100.0
1310.515381 152.0
1310.645142 156.0
1310.731567 144.0
1310.880859 224.0
1311.099121 80.0
1312.259644 168.0
1312.605713 116.0
1312.706665 196.0
1313.009644 152.0
1313.161011 120.0
1313.240356 140.0
1313.334229 124.0
1313.388062 200.0
1313.687622 136.0
1314.002319 156.0
1314.077271 48.0
1314.523926 132.0
1314.604004 104.0
1315.022583 96.0
1315.229248 164.0
1315.397949 208.0
1315.578369 100.0
1316.009766 204.0
1316.177612 168.0
1316.372559 192.0
1316.502563 44.0
1316.632568 136.0
1317.000977 164.0
1317.15979 96.0
1317.258301 208.0
1317.410156 224.0
1317.737793 124.0
1318.102173 356.0
1318.151611 208.0
1318.235962 168.0
1318.937378 96.0
1319.125366 108.0
1319.320557 196.0
1319.559082 176.0
1319.63147 316.0
1319.935059 124.0
1320.000244 156.0
1320.06897 140.0
1320.289429 180.0
1320.578735 192.0
1321.034424 148.0
1321.222534 168.0
1321.341064 244.0
1321.700684 148.0
1322.152954 192.0
1322.264526 124.0
1322.409302 144.0
1322.727783 232.0
1323.08252 84.0
1323.256226 136.0
1323.553101 56.0
1324.349609 180.0
1324.769897 164.0
1325.313232 180.0
1325.552368 60.0
1325.653809 140.0
1325.762573 200.0
1326.197388 136.0
1326.327881 156.0
1326.762817 148.0
1326.907837 192.0
1327.125366 96.0
1327.234131 56.0
1327.495117 144.0
1327.749023 204.0
1327.915771 68.0
1327.981079 136.0
1328.189941 200.0
1328.597656 188.0
1329.054688 212.0
1329.127075 120.0
1329.265137 136.0
1329.337769 136.0
1329.38855 144.0
1329.511963 200.0
1329.854004 156.0
1329.977417 180.0
1330.293823 160.0
1330.368408 180.0
1330.770386 232.0
1330.957275 144.0
1331.029175 104.0
1331.508423 152.0
1331.646362 136.0
1332.198486 180.0
1332.394653 136.0
1332.619873 120.0
1333.28833 116.0
1333.782593 240.0
1333.942505 164.0
1334.276611 180.0
1334.400513 196.0
1334.516846 156.0
1334.873047 156.0
1335.084106 164.0
1335.408081 132.0
1335.840576 140.0
1335.913208 116.0
1336.509888 44.0
1336.713623 112.0
1337.135742 120.0
1337.223022 160.0
1337.354004 196.0
1337.623413 200.0
1338.001953 136.0
1338.096558 152.0
1338.191162 180.0
1338.416992 56.0
1338.606323 76.0
1338.730103 76.0
1338.949707 144.0
1339.452881 164.0
1339.721558 188.0
1340.419434 176.0
1340.57312 208.0
1340.952148 184.0
1341.068726 136.0
1341.367554 124.0
1341.630005 160.0
1341.972656 164.0
1342.023682 204.0
1342.249756 116.0
1342.39563 92.0
1342.687378 204.0
1342.901123 216.0
1343.081177 172.0
1343.18335 216.0
1343.300049 180.0
1343.358398 148.0
1343.559937 128.0
1343.77417 148.0
1344.187378 156.0
1344.343384 128.0
1344.744751 132.0
1344.985229 152.0
1345.314087 200.0
1345.365234 208.0
1345.460205 136.0
1345.664551 128.0
1345.942017 56.0
1346.035156 184.0
1346.095337 120.0
1346.255981 172.0
1346.475098 48.0
1346.577393 168.0
1346.920654 140.0
1347.095947 172.0
1347.490479 40.0
1347.571045 252.0
1347.731567 256.0
1347.906982 92.0
1348.043701 124.0
1348.228516 160.0
1348.286987 104.0
1348.446655 160.0
1348.754761 152.0
1348.930176 164.0
1349.112915 56.0
1349.178711 148.0
1349.792969 76.0
1349.909912 84.0
1349.990356 96.0
1350.392578 152.0
1350.634033 156.0
1350.758301 156.0
1350.926636 100.0
1350.977783 180.0
1351.029053 180.0
1351.20459 144.0
1351.702148 132.0
1351.767944 140.0
1351.848511 136.0
1352.002197 40.0
1352.077026 176.0
1352.236328 200.0
1352.394409 132.0
1352.492554 156.0
1352.667236 228.0
1352.902466 136.0
1352.983032 148.0
1353.275879 148.0
1353.422974 136.0
1353.641968 84.0
1353.832397 104.0
1353.890991 76.0
1354.755859 200.0
1354.813965 64.0
1354.99707 184.0
1355.209595 188.0
1355.341431 212.0
1355.502686 152.0
1355.634521 104.0
1355.788452 180.0
1355.913086 148.0
1356.037598 168.0
1356.103638 140.0
1356.40918 240.0
1356.543457 172.0
1356.660645 112.0
1357.403687 140.0
1357.62854 180.0
1357.723877 148.0
1357.804565 72.0
1357.855957 152.0
1357.921875 140.0
1358.083252 204.0
1358.332642 56.0
1358.590088 132.0
1358.670166 128.0
1358.904907 176.0
1359.132324 120.0
1359.359863 180.0
1359.675415 96.0
1359.917603 220.0
1360.064453 208.0
1360.492554 312.0
1361.015869 152.0
1361.3125 164.0
1361.510864 120.0
1361.67395 156.0
1361.980835 56.0
1362.362915 200.0
1362.421631 168.0
1362.51709 184.0
1362.811035 220.0
1363.082886 176.0
1363.317993 168.0
1363.479736 168.0
1364.060425 104.0
1364.133911 160.0
1364.720093 152.0
1364.802979 196.0
1364.85437 164.0
1364.996948 176.0
1365.685425 148.0
1365.749023 224.0
1365.869385 120.0
1366.34021 116.0
1366.862549 96.0
1367.005127 196.0
1367.04895 108.0
1367.333496 180.0
1367.517578 148.0
1367.694214 144.0
1368.010742 148.0
1368.496582 188.0
1368.695435 160.0
1368.798584 212.0
1368.879517 48.0
1368.967896 208.0
1369.019409 132.0
1369.918091 236.0
1370.684326 128.0
1370.772705 132.0
1370.920044 120.0
1371.04541 188.0
1371.126465 132.0
1371.598145 188.0
1371.922485 112.0
1372.121582 128.0
1372.254272 180.0
1372.460693 244.0
1372.58606 212.0
1372.969604 132.0
1373.123657 200.0
1373.176025 104.0
1373.227661 152.0
1373.342773 132.0
1373.611206 156.0
1374.234741 212.0
1374.561646 172.0
1374.813965 176.0
1374.872925 112.0
1375.006226 132.0
1375.314697 212.0
1375.495972 200.0
1375.640381 128.0
1375.987549 196.0
1376.231201 156.0
1376.96228 224.0
1377.028809 176.0
1377.752686 136.0
1378.236328 132.0
1378.321655 192.0
1378.414917 116.0
1378.9646 248.0
1379.082031 188.0
1379.348511 156.0
1379.659424 204.0
1379.770264 108.0
1379.844238 192.0
1379.999512 108.0
1380.295288 172.0
1380.443481 204.0
1380.539917 200.0
1380.665039 176.0
1380.730713 196.0
1380.864746 160.0
1381.449097 132.0
1381.530396 272.0
1381.611816 196.0
1381.767212 152.0
1381.81897 152.0
1382.122314 168.0
1382.351685 212.0
1382.425659 96.0
1382.603271 132.0
1382.677368 132.0
1382.77356 152.0
1383.341553 156.0
1383.410156 160.0
1383.706299 220.0
1383.824707 148.0
1383.950562 168.0
1384.97998 84.0
1385.187378 152.0
1385.320679 152.0
1385.461548 208.0
1385.609619 136.0
1385.794922 160.0
1386.031982 164.0
1386.461792 124.0
1386.619019 180.0
1386.706421 112.0
1386.921387 184.0
1387.091797 116.0
1387.54126 124.0
1387.707153 128.0
1387.870239 216.0
1388.1521 72.0
1388.470947 212.0
1388.55249 132.0
1388.671143 128.0
1388.953003 112.0
1389.13855 80.0
1389.591064 156.0
1389.791382 148.0
1390.11792 180.0
1390.797729 188.0
1390.934326 168.0
1391.335205 104.0
1391.439087 48.0
1391.966309 124.0
1392.441528 116.0
1393.058105 144.0
1393.214111 60.0
1393.503784 48.0
1393.749023 220.0
1394.09082 180.0
1394.269165 124.0
1394.373291 316.0
1394.752319 176.0
1395.138916 48.0
1395.317261 136.0
1395.406494 132.0
1395.532959 168.0
1396.120972 48.0
1396.440186 200.0
1396.655884 160.0
1396.834351 104.0
1396.946045 180.0
1397.279053 160.0
1397.384888 144.0
1397.667725 44.0
1397.756958 76.0
1397.865112 180.0
1398.210938 124.0
1398.300171 116.0
1398.536865 200.0
1398.68396 208.0
1398.895752 192.0
1399.253052 76.0
1399.353516 136.0
1399.424316 172.0
1399.521118 188.0
1399.699829 160.0
1399.833862 188.0
1400.034912 168.0
1400.34021 180.0
1400.548828 152.0
1400.615845 136.0
1400.787231 136.0
1401.018066 48.0
1401.293823 160.0
1401.837769 72.0
1401.919556 172.0
1402.15979 112.0
1402.247559 52.0
1402.366821 200.0
1402.662231 152.0
1402.74707 140.0
1402.896118 128.0
1403.152954 144.0
1403.410522 160.0
1403.527222 144.0
1404.014526 176.0
1404.805176 64.0
1404.939453 128.0
1405.132324 164.0
1405.203857 148.0
1405.305054 48.0
1405.461792 124.0
1405.606689 192.0
1406.439453 160.0
1406.521484 92.0
1406.57373 188.0
1406.842529 240.0
1406.932129 168.0
1407.051514 140.0
1407.10376 136.0
1407.230713 36.0
1407.506958 192.0
1407.678711 232.0
1408.022339 120.0
1408.324097 140.0
1408.410645 136.0
1408.515259 132.0
1408.761719 80.0
1408.91333 124.0
1408.993408 244.0
1409.05481 180.0
1409.150269 76.0
1409.277222 116.0
1409.553711 116.0
1409.628418 128.0
1409.8302 204.0
1410.174072 124.0
1410.719727 116.0
1411.280396 240.0
1412.106812 72.0
1413.165283 212.0
1413.307495 156.0
1413.576782 128.0
1413.66748 152.0
1413.965942 168.0
1414.160645 84.0
1414.213013 112.0
1414.438843 156.0
1414.736938 160.0
1414.949463 300.0
1415.043945 224.0
1415.141235 60.0
1415.223633 196.0
1415.395874 132.0
1415.478271 208.0
1415.850098 84.0
1416.144775 92.0
1416.204712 164.0
1416.701538 396.0
1416.863892 200.0
1416.931274 132.0
1417.178589 108.0
1417.538208 168.0
1417.680664 176.0
1417.987915 144.0
1418.662476 124.0
1418.924927 156.0
1418.992432 68.0
1419.074829 352.0
1419.239746 148.0
1419.441772 120.0
1419.532227 192.0
1419.847168 112.0
1420.027954 232.0
1420.147217 76.0
1420.306763 156.0
1420.484741 88.0
1420.709839 208.0
1420.852417 32.0
1421.099976 172.0
1421.189941 204.0
1421.782837 172.0
1422.150635 168.0
1422.49585 92.0
1422.630981 168.0
1422.743652 156.0
1423.134033 100.0
1423.302856 196.0
1423.588745 208.0
1423.679565 152.0
1423.757324 72.0
1423.847412 192.0
1423.915039 136.0
1424.102783 156.0
1424.177856 200.0
1424.425781 136.0
1424.666138 156.0
1424.846436 196.0
1425.16687 156.0
1425.724121 160.0
1426.304321 52.0
1426.424683 112.0
1426.635132 136.0
1426.845581 212.0
1426.988525 140.0
1427.229126 136.0
1427.334106 204.0
1427.589966 168.0
1427.672729 192.0
1427.815674 188.0
1427.868286 128.0
1428.04126 160.0
1428.387329 124.0
1428.44751 152.0
1428.545288 144.0
1428.665649 160.0
1428.853638 124.0
1429.019165 156.0
1429.417969 60.0
1429.606201 84.0
1429.722778 152.0
1429.779297 292.0
1430.02002 224.0
1430.132935 124.0
1430.216797 172.0
1430.531982 104.0
1430.76709 192.0
1430.953491 116.0
1431.239624 72.0
1431.417114 124.0
1431.593628 156.0
1431.812012 192.0
1432.000244 176.0
1432.143188 176.0
1432.301514 200.0
1432.459717 144.0
1432.693237 120.0
1432.859009 140.0
1433.311035 44.0
1433.499512 144.0
1433.635132 152.0
1433.700806 200.0
1433.974243 52.0
1434.034546 116.0
1434.268188 160.0
1434.381348 188.0
1434.65271 128.0
1434.773315 176.0
1434.976929 56.0
1435.157837 112.0
1435.482056 180.0
1435.738525 92.0
1435.846191 160.0
1436.01001 168.0
1436.154663 152.0
1436.281494 100.0
1436.349365 192.0
1436.40979 156.0
1436.485229 148.0
1436.897339 108.0
1437.051025 184.0
1437.134033 156.0
1437.353027 208.0
1437.412109 152.0
1437.528198 144.0
1437.639648 160.0
1437.722656 236.0
1437.873535 168.0
1438.278809 192.0
1438.401855 172.0
1438.484985 112.0
1438.635864 152.0
1439.013428 128.0
1439.179565 44.0
1439.322998 156.0
1439.413574 140.0
1439.526855 176.0
1439.987549 132.0
1440.53894 160.0
1440.640015 160.0
1441.007324 240.0
1441.128296 192.0
1441.528687 148.0
1441.596802 144.0
1441.785645 156.0
1442.503784 132.0
1442.753174 112.0
1443.138794 208.0
1443.206787 184.0
1443.660522 140.0
1443.728638 152.0
1443.864746 160.0
1444.095215 180.0
1444.19751 164.0
1444.318604 152.0
1444.37146 188.0
1444.432007 204.0
1444.817871 152.0
1444.969116 144.0
1445.029663 184.0
1445.234009 144.0
1445.324707 180.0
1445.392822 116.0
1445.513916 116.0
1445.621948 60.0
1445.930176 128.0
1446.550781 124.0
1446.641357 176.0
1446.815796 100.0
1447.150513 184.0
1447.232178 160.0
1447.406372 132.0
1447.474487 160.0
1447.618408 236.0
1447.739502 116.0
1447.807739 104.0
1447.894287 196.0
1448.02832 160.0
1448.164062 140.0
1448.224243 148.0
1448.315186 72.0
1448.413696 136.0
1448.671143 172.0
1448.837891 188.0
1449.171265 180.0
1449.451538 140.0
1449.602661 144.0
1449.671387 172.0
1449.86084 140.0
1449.913818 124.0
1450.057861 156.0
1450.209473 68.0
1450.285278 52.0
1450.369385 152.0
1450.785522 120.0
1450.929565 128.0
1451.467896 232.0
1451.77832 112.0
1451.975952 160.0
1452.150513 156.0
1452.320557 164.0
1452.393188 184.0
1452.613159 140.0
1452.772461 48.0
1452.901367 116.0
1453.455322 88.0
1453.675415 160.0
1453.918213 336.0
1454.085205 192.0
1454.148682 236.0
1454.305298 56.0
1454.396362 144.0
1454.555786 132.0
1454.802979 204.0
1454.881226 148.0
1455.428833 176.0
1455.57312 112.0
1455.732544 120.0
1455.922485 160.0
1456.112305 200.0
1456.317383 140.0
1456.492065 232.0
1456.639282 96.0
1456.727539 168.0
1456.940308 116.0
1457.130249 184.0
1457.266968 180.0
1457.396118 128.0
1457.624146 52.0
1457.692505 140.0
1457.950928 148.0
1458.232056 92.0
1458.566528 132.0
1458.68811 124.0
1458.870605 184.0
1458.938965 100.0
1459.106323 124.0
1459.182251 128.0
1459.281128 144.0
1459.646118 152.0
1459.713623 192.0
1459.813354 104.0
1460.050903 172.0
1460.148071 120.0
1460.756592 116.0
1460.84021 228.0
1460.931519 184.0
1461.266113 160.0
1461.312256 164.0
1461.79126 144.0
1461.890259 136.0
1462.148071 132.0
1462.613281 116.0
1462.719849 200.0
1462.849243 184.0
1463.184204 156.0
1463.351685 160.0
1463.770508 152.0
1463.915161 124.0
1464.052246 104.0
1464.189331 244.0
1464.57019 148.0
1464.859619 100.0
1464.989136 168.0
1465.469116 76.0
1465.533203 132.0
1465.822266 180.0
1465.93396 52.0
1466.066406 260.0
1466.505493 180.0
1466.779907 136.0
1466.978149 160.0
1467.059937 196.0
1467.150391 128.0
1467.290649 84.0
1467.549927 36.0
1467.664307 212.0
1467.920288 196.0
1467.943237 180.0
1467.993896 156.0
1468.320068 100.0
1468.419312 176.0
1468.503174 80.0
1468.591309 160.0
1468.937988 136.0
1469.052368 236.0
1469.311768 192.0
1469.471924 76.0
1469.597656 200.0
1469.708008 224.0
1469.777222 152.0
1470.090088 132.0
1470.372437 184.0
1470.509766 212.0
1470.60144 104.0
1470.670044 220.0
1470.870483 188.0
1470.975464 172.0
1471.181519 112.0
1471.242554 84.0
1471.914551 128.0
1471.967896 144.0
1472.197021 212.0
1472.533081 116.0
1473.342773 232.0
1473.839355 100.0
1474.381958 56.0
1474.504272 284.0
1474.626587 164.0
1474.680054 156.0
1474.872437 144.0
1475.016357 148.0
1475.528564 196.0
1475.788574 232.0
1475.876587 196.0
1476.025513 132.0
1476.675659 112.0
1476.866821 132.0
1476.92041 216.0
1477.448242 172.0
1477.555298 172.0
1477.647095 132.0
1477.869019 144.0
1478.49646 168.0
1478.718384 156.0
1479.116455 184.0
1479.231323 224.0
1480.127075 228.0
1480.230103 200.0
1480.44873 172.0
1481.14563 168.0
1481.206909 96.0
1481.267456 204.0
1481.758545 236.0
1481.999634 160.0
1482.187622 160.0
1482.36377 148.0
1482.47876 168.0
1482.56311 148.0
1482.716309 180.0
1482.800659 152.0
1482.869629 168.0
1482.969238 188.0
1483.069702 152.0
1483.47522 140.0
1483.594238 236.0
1483.873901 152.0
1484.00415 168.0
1484.234253 60.0
1484.379883 108.0
1484.456543 288.0
1484.748047 32.0
1484.817017 44.0
1484.932129 136.0
1485.016479 88.0
1485.116577 360.0
1485.300293 188.0
1485.440063 152.0
1485.684692 136.0
1485.783569 260.0
1485.923828 128.0
1486.543213 68.0
1486.773438 272.0
1486.911499 152.0
1486.9729 256.0
1487.134155 80.0
1487.32605 96.0
1487.479492 168.0
1487.563965 124.0
1487.694092 156.0
1487.77124 92.0
1487.886353 204.0
1488.285645 132.0
1488.408569 112.0
1488.551147 160.0
1488.734375 200.0
1488.853882 92.0
1488.943115 164.0
1488.958618 100.0
1488.986206 128.0
1489.130371 64.0
1489.351074 164.0
1489.460693 120.0
1489.607666 188.0
1489.860107 132.0
1490.021484 120.0
1490.436401 148.0
1490.513184 116.0
1490.66687 116.0
1490.753296 180.0
1490.812866 124.0
1490.938721 120.0
1491.243286 124.0
1491.450806 116.0
1491.566162 216.0
1491.643066 132.0
1491.819824 140.0
1492.196533 56.0
1492.358032 148.0
1492.71167 140.0
1492.834717 84.0
1492.96228 148.0
1493.069458 116.0
1493.142334 120.0
1493.473145 152.0
1493.74231 112.0
1493.842285 136.0
1493.934692 188.0
1494.026978 116.0
1494.165405 116.0
1494.442383 364.0
1494.514893 176.0
1494.619385 124.0
1494.927246 156.0
1495.596802 196.0
1495.650635 52.0
1495.812256 192.0
1496.066406 128.0
1496.251099 132.0
1496.536011 52.0
1496.951782 28.0
1497.078247 180.0
1497.229004 164.0
1497.606445 172.0
1497.837524 192.0
1498.137939 172.0
1498.392212 136.0
1498.494995 200.0
1499.208984 128.0
1499.293701 344.0
1499.367065 224.0
1499.571167 144.0
1499.656006 160.0
1499.844482 156.0
1500.079956 356.0
1500.156982 136.0
1500.218628 140.0
1500.473145 148.0
1500.63501 112.0
1500.781494 156.0
1501.139648 172.0
1501.197876 160.0
1501.699219 160.0
1501.853516 116.0
1501.97644 148.0
1502.092651 112.0
1502.331787 180.0
1502.478271 132.0
1502.547729 132.0
1502.840942 188.0
1502.979858 152.0
1503.033813 92.0
1503.342529 136.0
1503.481445 160.0
1503.578003 192.0
1503.844116 104.0
1503.952271 140.0
1504.260986 200.0
1504.616089 120.0
1504.677856 44.0
1505.067871 212.0
1505.272461 208.0
