>compound MLS002695970-01!
>formula C30H44O9
>ionization [M+Na]+
>parentmass 571.2877536880906
#inchi InChI=1S/C30H44O9/c1-16-24(33)26(36-3)25(34)27(38-16)39-19-6-10-29(15-31)18(13-19)4-5-22-21(29)7-9-28(2)20(8-11-30(22,28)35)17-12-23(32)37-14-17/h12,15-16,18-22,24-27,33-35H,4-11,13-14H2,1-3H3
#inchikey PMTSPAGBAFCORP
#Ion_Source LC-ESI
#Instrument qTof
#Compound_Source NIH Natural Product Library
#PI Dorrestein
#Data_Collector VVP/LMS
#Scan -1
#Precursor_MZ 571.288
#ExactMass 548.299
#Charge 1
#CAS_Number N/A
#Pubmed_ID N/A
#Smiles COC1C(O)C(C)OC(OC2CCC3(C=O)C(CCC4C3CCC5(C)C(CCC45O)C6=CC(=O)OC6)C2)C1O
#INCHI_AUX N/A
#Library_Class 1
#SpectrumID CCMSLIB00000079914
#IonMode Positive
#UpdateWorkflowName UPDATE-SINGLE-ANNOTATED-GOLD
#LibraryQualityString Gold
#TaskID b1d8e8f6646f4e71acdff9ca3d919d08
##Scan# 1804
#SpectrumFile p1-G12_GG12_01_17956.mzXML
#LibraryName NIH_Natural_Products_Library.mgf
#MQScore -1
#Organism NIH_Natural_Products_Library
#TIC_Query 0
#RT_Query -1
#MZErrorPPM -1
#SharedPeaks 0
#MassDiff 0
#LibMZ -1
#SpecMZ 571.288
#SpecCharge 0
#internalFilename spec-00000.mgf

>collision 10
105.064972 124.0
109.991112 144.0
112.071533 96.0
114.326744 136.0
131.218323 60.0
153.056396 124.0
174.089355 200.0
175.115036 160.0
183.048264 128.0
195.87384 144.0
199.652374 164.0
203.132141 208.0
204.601349 204.0
219.127747 232.0
219.752792 148.0
220.361008 60.0
223.152969 220.0
230.387955 132.0
230.412125 88.0
235.036331 156.0
250.379913 180.0
257.00531 92.0
257.037231 136.0
266.221619 120.0
268.887909 136.0
269.737152 48.0
272.624664 168.0
274.280182 120.0
280.225494 144.0
281.039032 124.0
284.137238 172.0
284.546692 96.0
287.599945 132.0
291.654419 48.0
297.073608 124.0
299.011566 156.0
306.425507 144.0
307.206421 176.0
311.24884 76.0
316.173523 124.0
318.399963 56.0
324.114807 264.0
325.216858 148.0
326.22876 120.0
327.243286 96.0
328.865509 52.0
331.54187 120.0
333.10202 96.0
335.205627 192.0
336.207489 264.0
337.190186 156.0
338.185028 144.0
346.237122 100.0
349.13559 192.0
353.224548 200.0
355.388824 88.0
355.445099 144.0
355.929321 88.0
356.210999 168.0
357.564606 48.0
358.094971 148.0
358.400604 56.0
359.188538 184.0
365.1922 108.0
365.774353 104.0
366.048492 48.0
376.471649 204.0
381.695312 120.0
385.468628 116.0
390.199615 120.0
393.678894 88.0
395.501495 164.0
396.198456 124.0
398.404205 180.0
399.163361 112.0
401.201904 152.0
406.312958 188.0
409.150299 112.0
409.69397 44.0
411.212555 700.0
411.27066 208.0
412.058105 132.0
412.218292 288.0
412.712891 52.0
413.226562 144.0
413.473389 68.0
415.848389 104.0
421.574524 36.0
422.731812 92.0
423.354065 112.0
424.140717 140.0
425.067596 128.0
427.16861 180.0
428.191925 104.0
429.218842 168.0
429.234558 140.0
429.246216 164.0
429.931702 64.0
430.228882 196.0
430.332123 180.0
433.173279 60.0
434.723907 120.0
436.069489 128.0
437.129974 44.0
437.358856 128.0
438.762726 44.0
444.220184 160.0
445.193939 116.0
446.206573 36.0
446.614471 172.0
446.908966 148.0
449.842224 160.0
450.94046 128.0
454.565582 76.0
457.63028 168.0
458.529083 152.0
461.175293 88.0
463.409119 156.0
464.227814 176.0
466.034973 204.0
467.699249 92.0
468.258972 124.0
468.922485 84.0
469.72879 68.0
472.203766 108.0
472.268646 96.0
473.186035 188.0
476.59079 108.0
477.090607 52.0
481.177124 80.0
481.233093 112.0
481.543915 180.0
484.211823 92.0
485.820465 148.0
487.401062 132.0
488.394623 44.0
489.155853 172.0
493.726898 136.0
493.819794 204.0
497.226837 136.0
499.127716 156.0
500.200378 100.0
501.171234 208.0
501.612457 92.0
502.196564 92.0
503.30777 196.0
504.567749 136.0
514.22113 96.0
515.223572 168.0
516.444092 68.0
519.23407 80.0
522.077026 92.0
522.218018 100.0
522.377197 96.0
522.509155 172.0
525.110168 136.0
525.7854 40.0
529.236694 180.0
529.309937 176.0
533.213928 192.0
534.239258 176.0
535.846008 128.0
537.226562 132.0
540.551086 140.0
541.578857 172.0
547.249084 128.0
550.162964 136.0
551.246521 80.0
553.247864 136.0
553.445068 148.0
555.20697 120.0
556.412903 144.0
561.942993 120.0
562.178955 96.0
562.296936 176.0
562.995605 52.0
563.869629 68.0
564.105957 68.0
564.167419 56.0
564.243042 60.0
564.337646 44.0
565.231567 156.0
565.364075 48.0
565.913208 192.0
567.201782 44.0
568.154968 136.0
568.349487 60.0
569.716797 152.0
570.311279 156.0
571.123901 56.0
571.283325 8968.0
571.349121 120.0
571.388 208.0
571.407349 144.0
571.528259 124.0
571.931396 112.0
571.986206 52.0
572.032715 112.0
572.204102 120.0
572.286682 3652.0
572.401489 116.0
572.513611 84.0
572.546936 28.0
572.635681 68.0
572.696838 152.0
572.904175 76.0
572.986206 56.0
573.05188 52.0
573.293335 964.0
573.352966 176.0
573.447388 32.0
573.616638 72.0
573.700012 68.0
574.048096 96.0
574.12439 68.0
574.195923 76.0
574.289429 268.0
574.348572 84.0
574.510742 84.0
574.882935 80.0
574.992676 128.0
575.245667 176.0
575.294617 192.0
575.431824 60.0
575.643799 132.0
576.014465 80.0
576.186462 64.0
576.22467 36.0
576.563904 48.0
576.750305 52.0
576.994141 64.0
577.950684 76.0
580.350403 56.0
582.966492 104.0
587.241577 124.0
589.311584 164.0
589.699158 100.0
590.327637 116.0
591.058044 60.0
599.263916 88.0
603.187622 60.0
605.263611 156.0
606.253784 128.0
754.546936 108.0
801.446228 72.0
807.712769 72.0
838.518005 72.0
891.39856 124.0
919.431641 84.0
976.482544 148.0
1008.326721 48.0
1098.504639 100.0
1124.635742 128.0
1167.718262 64.0
1189.391479 60.0
1273.655518 88.0
1407.496094 52.0
