>compound MLS001141301-01!3-(4-chlorophenyl)-2-[[2-(3,4,7-trimethyl-2-oxochromen-5-yl)oxyacetyl]amino]propanoic acid
>formula C23H22ClNO6
>ionization [M+H]+
>parentmass 444.118927
#inchi InChI=1S/C23H22ClNO6/c1-12-8-18(21-13(2)14(3)23(29)31-19(21)9-12)30-11-20(26)25-17(22(27)28)10-15-4-6-16(24)7-5-15/h4-9,17H,10-11H2,1-3H3,(H,25,26)(H,27,28)
#inchikey FJNDITZORJKZER
#Ion_Source LC-ESI
#Instrument qTof
#Compound_Source NIH Natural Product Library
#PI Dorrestein
#Data_Collector VVP/LMS
#Scan -1
#Precursor_MZ 444.121
#ExactMass 443.114
#Charge 1
#CAS_Number N/A
#Pubmed_ID N/A
#Smiles Cc1cc(OCC(=O)NC(Cc2ccc(Cl)cc2)C(=O)O)c3c(C)c(C)c(=O)oc3c1
#INCHI_AUX N/A
#Library_Class 1
#SpectrumID CCMSLIB00000079542
#IonMode Positive
#UpdateWorkflowName UPDATE-SINGLE-ANNOTATED-GOLD
#LibraryQualityString Gold
#TaskID b1d8e8f6646f4e71acdff9ca3d919d08
##Scan# 2235
#SpectrumFile p1-H07_GH7_01_17963.mzXML
#LibraryName NIH_Natural_Products_Library.mgf
#MQScore -1
#Organism NIH_Natural_Products_Library
#TIC_Query 0
#RT_Query -1
#MZErrorPPM -1
#SharedPeaks 0
#MassDiff 0
#LibMZ -1
#SpecMZ 444.121
#SpecCharge 0
#internalFilename spec-00000.mgf

>collision 10
95.103165 276.0
95.26239 88.0
95.281815 140.0
95.322624 180.0
95.357002 232.0
95.445084 140.0
95.482033 180.0
95.509262 184.0
95.575409 180.0
95.592918 184.0
95.662987 56.0
95.678558 128.0
95.818787 76.0
95.883087 136.0
95.96106 132.0
95.994209 152.0
96.033218 120.0
96.107346 32.0
96.208832 132.0
96.257645 116.0
96.288895 192.0
96.33577 200.0
96.372894 132.0
96.40387 116.0
96.576202 164.0
96.617287 56.0
96.724915 64.0
96.760544 220.0
96.905746 224.0
96.999153 40.0
97.059929 184.0
97.216019 196.0
97.295372 128.0
97.316971 128.0
97.40731 152.0
97.499657 144.0
97.562553 160.0
97.713989 116.0
97.745705 204.0
97.904922 152.0
97.924622 100.0
97.954163 184.0
98.129562 164.0
98.180832 136.0
98.228165 148.0
98.249863 176.0
98.417625 100.0
98.44725 160.0
98.474419 124.0
98.642853 192.0
98.662964 184.0
98.755966 212.0
98.828758 64.0
98.903954 180.0
98.925728 108.0
99.002853 160.0
99.026718 344.0
99.076241 208.0
99.129738 132.0
99.222893 88.0
99.347839 168.0
99.397438 152.0
99.560219 192.0
99.59597 56.0
99.653252 196.0
99.656631 164.0
99.683388 156.0
99.70723 164.0
99.731079 184.0
99.782768 188.0
99.806625 92.0
99.896126 44.0
100.003578 36.0
100.043388 204.0
100.24057 320.0
100.318298 200.0
100.378113 328.0
100.410019 204.0
100.528893 176.0
100.549675 232.0
100.703415 196.0
100.735374 124.0
100.79731 224.0
100.889603 136.0
100.951233 212.0
100.975227 112.0
100.999229 180.0
101.060181 188.0
101.151306 160.0
101.203362 92.0
101.229393 236.0
101.298897 256.0
101.371307 208.0
101.477852 132.0
101.497902 124.0
101.542023 128.0
101.700531 140.0
101.764771 136.0
101.78083 136.0
101.907372 160.0
101.935501 256.0
101.959618 228.0
102.047333 284.0
102.125198 124.0
102.1446 152.0
102.275391 120.0
102.346352 160.0
102.480804 136.0
102.573509 108.0
102.720711 160.0
102.775185 104.0
102.910416 176.0
103.05423 1956.0
103.090195 176.0
103.106361 48.0
103.203392 88.0
103.262039 136.0
103.312607 148.0
103.342957 96.0
103.365211 28.0
103.418716 204.0
103.434021 156.0
103.500832 120.0
103.599205 232.0
103.606644 132.0
103.735847 180.0
103.902412 152.0
103.958954 128.0
104.057259 352.0
104.166054 68.0
104.233101 92.0
104.367256 216.0
104.509499 176.0
104.782639 184.0
104.923088 60.0
104.953674 136.0
104.992416 236.0
105.044556 348.0
105.06926 3896.0
105.171959 128.0
105.192375 128.0
105.27813 172.0
105.300591 168.0
105.341446 236.0
105.396988 192.0
105.459961 48.0
105.476311 124.0
105.650131 44.0
105.705376 132.0
105.781097 168.0
105.83017 128.0
105.916252 88.0
105.957222 172.0
106.036133 228.0
106.072418 136.0
106.564514 168.0
106.580956 172.0
106.684128 120.0
106.899681 136.0
106.93055 60.0
107.046623 472.0
107.08564 636.0
107.20858 216.0
107.239494 188.0
107.255981 172.0
107.319893 184.0
107.336388 152.0
107.350822 156.0
107.385887 224.0
107.597443 176.0
107.63353 60.0
107.749191 176.0
107.809113 176.0
107.852684 220.0
107.89386 68.0
107.922806 164.0
108.051041 176.0
108.266312 184.0
108.301521 156.0
108.386459 72.0
108.467285 160.0
108.506676 152.0
108.560585 280.0
108.629028 164.0
108.664299 164.0
108.73278 196.0
108.759758 196.0
108.790894 52.0
108.844879 96.0
108.889206 104.0
109.031845 212.0
109.060516 296.0
109.233528 248.0
109.310394 144.0
109.445808 148.0
109.468712 164.0
109.620781 180.0
109.741684 140.0
109.762535 180.0
109.779213 168.0
109.800072 172.0
109.823013 108.0
109.960716 52.0
110.190758 172.0
110.32254 164.0
110.401535 208.0
110.642159 116.0
110.698692 132.0
110.820183 96.0
110.908203 64.0
110.941742 168.0
111.029808 156.0
111.046585 204.0
111.103226 36.0
111.31311 132.0
111.361412 84.0
111.483269 168.0
111.582062 148.0
111.775566 128.0
111.79451 132.0
111.8787 192.0
111.925018 84.0
112.015579 152.0
112.238983 180.0
112.268501 152.0
112.291702 108.0
112.326088 172.0
112.348656 168.0
112.413071 212.0
112.572388 184.0
112.775208 120.0
112.823822 208.0
112.982643 204.0
113.01709 372.0
113.079773 168.0
113.28093 120.0
113.376274 240.0
113.573456 132.0
113.639221 52.0
113.694389 176.0
113.726227 220.0
113.772926 192.0
113.825577 236.0
113.908836 160.0
113.946503 192.0
114.104347 156.0
114.144745 168.0
114.206421 176.0
114.28009 172.0
114.361748 164.0
114.378777 164.0
114.521439 104.0
114.557648 52.0
114.815559 60.0
114.890213 224.0
115.007576 172.0
115.054497 1100.0
115.092972 196.0
115.206169 176.0
115.524696 112.0
115.541809 184.0
115.631683 172.0
115.653084 76.0
115.710884 204.0
115.807251 208.0
115.851463 172.0
115.918655 108.0
115.950798 152.0
115.985092 160.0
116.032661 444.0
116.058823 848.0
116.278938 128.0
116.345482 180.0
116.407745 168.0
116.470032 196.0
116.500099 144.0
116.52803 36.0
116.699974 180.0
116.717178 108.0
116.779541 140.0
116.859138 180.0
116.973198 128.0
117.035629 140.0
117.070137 992.0
117.389023 136.0
117.43 196.0
117.518448 132.0
117.571266 184.0
117.589661 72.0
117.710548 112.0
117.751587 160.0
117.784843 200.0
117.835831 216.0
118.008736 196.0
118.064476 2092.0
118.101723 100.0
118.183929 88.0
118.201241 100.0
118.227211 136.0
118.274826 160.0
118.302971 192.0
118.359261 184.0
118.432892 104.0
118.463219 120.0
118.595398 184.0
118.645256 160.0
118.67778 72.0
118.906799 152.0
118.988037 128.0
119.046356 196.0
119.0728 3492.0
119.109428 156.0
119.131371 124.0
119.201851 92.0
119.287834 228.0
119.311752 128.0
119.332428 196.0
119.376976 36.0
119.405251 188.0
119.542305 140.0
119.603249 148.0
119.638077 136.0
119.718636 124.0
119.79792 160.0
119.879845 56.0
119.902275 136.0
119.923431 216.0
119.975746 60.0
120.070496 180.0
120.08696 220.0
120.130585 104.0
120.156761 164.0
120.198219 68.0
120.270241 248.0
120.324814 56.0
120.385956 60.0
120.512642 84.0
120.764046 144.0
120.781609 128.0
120.873428 284.0
120.932518 132.0
120.969734 140.0
121.063942 3432.0
121.100685 568.0
121.232567 256.0
121.302696 84.0
121.322426 60.0
121.500069 104.0
121.803009 132.0
121.987595 204.0
122.066849 256.0
122.101936 156.0
122.205322 168.0
122.29995 160.0
122.33297 148.0
122.930267 76.0
122.985443 348.0
123.009727 180.0
123.040634 200.0
123.131165 160.0
123.221733 88.0
123.3256 200.0
123.449402 88.0
123.478157 180.0
123.531242 172.0
123.639656 168.0
123.661789 144.0
123.719345 152.0
123.807907 104.0
123.996223 184.0
124.050766 192.0
124.152046 168.0
124.550919 56.0
124.608673 132.0
124.79982 156.0
124.877655 212.0
124.919914 144.0
124.957733 132.0
125.015457 2524.0
125.207047 136.0
125.309212 148.0
125.369675 100.0
125.683243 208.0
125.76548 224.0
125.824707 132.0
125.849274 164.0
125.876068 168.0
125.902863 244.0
125.938599 164.0
125.974335 176.0
126.019081 280.0
126.09053 128.0
126.195595 204.0
126.229134 180.0
126.247025 188.0
126.41256 60.0
126.553581 144.0
126.591652 144.0
126.683479 240.0
126.752937 80.0
126.79303 148.0
126.822411 144.0
126.860519 60.0
127.012344 840.0
127.048553 160.0
127.052933 160.0
127.170067 220.0
127.241898 48.0
127.262108 160.0
127.405846 212.0
127.574394 160.0
127.671082 140.0
127.8218 228.0
127.853302 76.0
127.914078 80.0
128.015808 128.0
128.062027 1836.0
128.375137 220.0
128.384583 140.0
128.39238 196.0
128.527084 172.0
128.628647 160.0
128.673798 144.0
128.739273 56.0
128.793488 132.0
128.832443 172.0
128.91774 196.0
128.98555 132.0
129.068588 988.0
129.115219 140.0
129.186813 188.0
129.376907 96.0
129.39502 212.0
129.419922 188.0
129.447098 124.0
129.472 152.0
129.628311 108.0
129.794724 68.0
129.877701 208.0
129.895844 144.0
129.966187 168.0
129.997955 124.0
130.064499 5700.0
130.136414 140.0
130.182678 172.0
130.258865 200.0
130.283829 88.0
130.359024 68.0
130.393112 64.0
130.418106 112.0
130.734238 92.0
130.77475 160.0
130.791794 184.0
130.841217 92.0
130.875381 180.0
130.903946 220.0
131.072784 10700.0
131.12738 148.0
131.135666 92.0
131.142975 172.0
131.271866 120.0
131.349411 56.0
131.365372 84.0
131.526688 104.0
131.552505 84.0
131.618713 40.0
131.657532 152.0
131.712341 104.0
131.737473 88.0
131.767166 160.0
131.835724 116.0
131.860855 128.0
131.911148 56.0
131.931717 76.0
132.053802 140.0
132.07724 908.0
132.141022 124.0
132.226791 112.0
132.288589 68.0
132.332092 144.0
132.352707 48.0
132.389343 140.0
132.409958 164.0
132.478668 224.0
132.64595 160.0
132.836639 156.0
132.872986 148.0
132.895935 164.0
132.911987 140.0
132.978546 184.0
133.040527 48.0
133.064102 992.0
133.101028 4468.0
133.144806 96.0
133.180603 136.0
133.203568 208.0
133.265594 156.0
133.348328 320.0
133.465561 36.0
133.559906 160.0
133.714294 132.0
133.780762 184.0
133.822754 84.0
133.935501 164.0
134.011078 124.0
134.070404 304.0
134.102356 428.0
134.186234 188.0
134.3246 172.0
134.35704 140.0
134.458435 164.0
134.490738 180.0
134.55307 140.0
134.603867 152.0
134.634979 212.0
134.760941 188.0
134.878799 112.0
134.925903 180.0
134.962021 176.0
135.050491 156.0
135.085007 232.0
135.116989 56.0
135.239639 364.0
135.304443 88.0
135.376236 172.0
135.413284 132.0
135.434128 88.0
135.538376 84.0
135.596313 144.0
135.677444 76.0
135.85968 124.0
135.90242 112.0
136.00354 204.0
136.023163 136.0
136.04863 112.0
136.081131 208.0
136.143829 116.0
136.169373 452.0
136.259979 128.0
136.299469 140.0
136.406387 180.0
136.536591 176.0
136.750641 132.0
136.778564 116.0
136.936691 136.0
137.014023 1196.0
137.060211 404.0
137.092987 500.0
137.172241 116.0
137.209534 188.0
137.314468 156.0
137.347122 136.0
137.585144 160.0
137.610825 216.0
137.634171 36.0
137.720581 156.0
137.85376 120.0
138.020676 748.0
138.073502 140.0
138.089874 240.0
138.270035 132.0
138.300461 140.0
138.436249 88.0
138.459549 84.0
138.515884 192.0
138.686935 164.0
138.719742 148.0
138.790085 172.0
138.832291 160.0
138.88623 140.0
138.937836 164.0
139.029968 4752.0
139.095078 196.0
139.134979 164.0
139.272781 200.0
139.34166 112.0
139.369843 48.0
139.40509 120.0
139.602219 164.0
139.673126 96.0
139.817184 176.0
139.880783 176.0
140.031128 504.0
140.054443 176.0
140.153381 172.0
140.268875 112.0
140.318375 156.0
140.379684 132.0
140.426849 48.0
140.634476 192.0
140.785583 236.0
140.820999 100.0
140.851715 76.0
140.915497 164.0
140.934402 88.0
141.011215 1044.0
141.029495 1960.0
141.067688 868.0
141.182602 72.0
141.317429 108.0
141.459427 148.0
141.885849 212.0
141.95224 160.0
142.012558 176.0
142.032883 180.0
142.071106 188.0
142.208466 128.0
142.227448 56.0
142.253571 200.0
142.37941 204.0
142.555206 152.0
142.626511 216.0
142.671677 384.0
142.926163 372.0
143.005753 432.0
143.030869 200.0
143.05101 204.0
143.085205 1624.0
143.147537 60.0
143.16658 108.0
143.207993 116.0
143.333344 192.0
143.358322 72.0
143.383377 160.0
143.435822 128.0
143.566956 196.0
143.628967 156.0
144.0056 216.0
144.05574 2504.0
144.086441 340.0
144.182892 84.0
144.228302 164.0
144.314362 92.0
144.548782 136.0
144.848053 52.0
144.915131 152.0
144.9319 80.0
145.00618 100.0
145.063614 952.0
145.101746 1380.0
145.406708 228.0
145.497925 44.0
145.53154 180.0
145.632401 72.0
145.750122 184.0
145.839035 80.0
145.920776 64.0
146.021774 52.0
146.071594 1904.0
146.100525 452.0
146.144455 140.0
146.219055 68.0
146.300461 176.0
146.309662 144.0
146.445374 76.0
146.603088 92.0
146.628479 68.0
146.686325 44.0
146.797241 68.0
146.944382 144.0
147.043335 868.0
147.079315 1824.0
147.139618 152.0
147.189041 168.0
147.253357 72.0
147.306503 56.0
147.463562 144.0
147.661819 76.0
147.717453 216.0
147.848099 168.0
147.896515 36.0
148.050308 296.0
148.085602 316.0
148.17984 76.0
148.274338 148.0
148.305847 144.0
148.339783 208.0
148.531357 184.0
148.570175 236.0
148.87114 100.0
148.936722 156.0
149.011673 136.0
149.059692 1064.0
149.095352 1460.0
149.128677 176.0
149.187012 172.0
149.2332 120.0
149.310272 92.0
149.366959 80.0
149.405884 256.0
149.42778 116.0
149.466705 84.0
149.495911 68.0
149.520248 188.0
149.595703 144.0
149.688217 132.0
149.824615 140.0
149.924515 112.0
150.017136 152.0
150.073441 220.0
150.10083 332.0
150.304932 160.0
150.334213 48.0
150.431854 160.0
150.702942 140.0
150.724106 160.0
150.773056 132.0
150.866684 164.0
150.896027 128.0
150.944931 112.0
151.029282 1436.0
151.138168 104.0
151.262985 188.0
151.902557 124.0
152.006821 104.0
152.036316 1112.0
152.162689 160.0
152.300201 120.0
152.346878 196.0
152.371445 136.0
152.452942 192.0
152.491852 100.0
152.531174 168.0
152.558228 176.0
152.667984 180.0
152.72052 184.0
152.742645 100.0
152.759872 152.0
152.882889 112.0
152.934586 124.0
153.028839 656.0
153.070114 156.0
153.232544 64.0
153.597687 204.0
153.742966 196.0
153.789871 88.0
153.831833 196.0
153.86145 172.0
153.936295 192.0
154.003952 216.0
154.010742 176.0
154.040756 9884.0
154.073547 216.0
154.126556 96.0
154.194916 100.0
154.227051 112.0
154.266602 48.0
154.296265 120.0
154.390228 36.0
154.58342 384.0
154.604156 136.0
154.63269 40.0
154.68219 172.0
154.699524 244.0
154.734177 172.0
154.756454 132.0
154.962036 84.0
154.981201 76.0
155.000839 164.0
155.042496 920.0
155.085938 152.0
155.145432 56.0
155.170227 52.0
155.190063 68.0
155.227249 128.0
155.383514 216.0
155.429733 192.0
155.477814 36.0
155.681381 152.0
155.736023 84.0
155.958817 240.0
155.996933 132.0
156.038422 2744.0
156.088913 164.0
156.1185 236.0
156.141144 324.0
156.179977 124.0
156.292892 36.0
156.338776 132.0
156.442215 120.0
156.462128 104.0
156.529358 164.0
156.570312 152.0
156.594116 124.0
156.803391 140.0
156.962936 152.0
156.996124 288.0
157.022797 304.0
157.04068 188.0
157.063187 540.0
157.097626 164.0
157.182999 172.0
157.269806 128.0
157.342194 80.0
157.36467 136.0
157.419601 60.0
157.531998 168.0
157.693222 204.0
157.809402 244.0
157.934448 164.0
157.989471 108.0
158.043808 264.0
158.069595 912.0
158.15213 76.0
158.209702 52.0
158.235809 188.0
158.299835 80.0
158.374969 68.0
158.423248 132.0
158.510254 52.0
158.540329 136.0
158.565399 148.0
158.597977 128.0
158.635574 132.0
158.663147 132.0
158.788528 80.0
158.848724 120.0
158.941559 192.0
159.000046 144.0
159.048721 228.0
159.080078 31476.0
159.115829 184.0
159.146881 60.0
159.180023 48.0
159.207642 40.0
159.234375 56.0
159.309143 92.0
159.330719 68.0
159.357254 116.0
159.408615 84.0
159.428726 52.0
159.45636 88.0
159.493164 56.0
159.52681 156.0
159.554398 160.0
159.590057 176.0
159.624802 100.0
159.665039 188.0
159.737976 44.0
159.758102 164.0
159.876358 44.0
160.02388 172.0
160.083023 4140.0
160.136368 176.0
160.159775 120.0
160.189255 76.0
160.34227 92.0
160.458221 204.0
160.536392 36.0
160.586838 60.0
160.755859 140.0
160.834106 104.0
160.889633 44.0
160.912369 260.0
160.963821 168.0
160.990631 120.0
161.0159 172.0
161.059128 7420.0
161.094864 10452.0
161.145447 228.0
161.219452 84.0
161.253189 208.0
161.301117 104.0
161.316406 312.0
161.357025 128.0
161.374725 68.0
161.402542 96.0
161.420242 40.0
161.437943 84.0
161.491043 72.0
161.637787 280.0
161.663391 164.0
161.749146 48.0
161.86763 180.0
161.890915 96.0
161.928406 60.0
162.012497 152.0
162.030228 112.0
162.064987 1848.0
162.096725 1288.0
162.18512 132.0
162.220306 132.0
162.255798 132.0
162.504349 244.0
162.557632 84.0
162.628693 40.0
162.654083 60.0
162.75563 92.0
162.773407 88.0
162.816574 192.0
162.839432 28.0
162.859756 76.0
162.897858 116.0
162.953735 60.0
162.984238 76.0
163.037598 116.0
163.073425 376.0
163.102814 276.0
163.228256 124.0
163.274033 124.0
163.294373 68.0
163.330963 108.0
163.396133 92.0
163.505539 132.0
163.536087 200.0
163.831467 96.0
164.024673 2160.0
164.077972 176.0
164.124573 68.0
164.218918 124.0
164.237244 176.0
164.255981 68.0
164.31076 184.0
164.433243 36.0
164.486847 44.0
164.512375 72.0
164.581299 112.0
164.686005 44.0
164.737091 176.0
164.921082 204.0
165.006973 1532.0
165.026337 436.0
165.05394 152.0
165.097488 172.0
165.11795 28.0
165.256088 168.0
165.518341 192.0
165.566605 284.0
165.662003 196.0
165.727203 112.0
165.811768 120.0
165.83226 184.0
165.883469 152.0
165.914291 88.0
165.949188 240.0
166.04158 23660.0
166.132278 52.0
166.160507 76.0
166.222076 60.0
166.250305 128.0
166.270844 40.0
166.304199 48.0
166.412018 32.0
166.483917 152.0
166.537628 96.0
166.607208 176.0
166.630341 252.0
166.651505 252.0
166.699707 180.0
166.717697 56.0
166.743393 80.0
166.954208 92.0
167.00766 544.0
167.044632 3304.0
167.077682 240.0
167.298996 68.0
167.42775 56.0
167.71373 156.0
167.762711 140.0
167.8349 60.0
167.907104 32.0
167.970642 188.0
168.03772 6308.0
168.077286 140.0
168.214142 148.0
168.252869 60.0
168.281265 92.0
168.307098 104.0
168.332916 76.0
168.356155 156.0
168.387146 136.0
168.438797 208.0
168.485306 204.0
168.637085 112.0
168.73082 164.0
168.836838 140.0
168.968765 84.0
169.041428 760.0
169.103317 140.0
169.14624 76.0
169.183563 68.0
169.279358 72.0
169.46846 232.0
169.608398 192.0
169.69136 244.0
169.73024 72.0
169.911804 140.0
169.932556 100.0
170.046738 164.0
170.109039 176.0
170.181732 240.0
170.212891 164.0
170.236252 204.0
170.264832 52.0
170.316101 216.0
170.402496 60.0
170.480453 68.0
170.51683 140.0
170.74823 228.0
170.82106 68.0
171.055252 160.0
171.081833 432.0
171.195847 136.0
171.229706 172.0
171.331299 140.0
171.422485 164.0
171.524139 152.0
171.544983 160.0
171.876221 32.0
171.904922 52.0
172.028381 132.0
172.048477 164.0
172.081924 444.0
172.118973 80.0
172.145081 76.0
172.192093 32.0
172.258194 144.0
172.497803 124.0
172.521332 132.0
172.714828 84.0
172.926773 176.0
173.05481 260.0
173.095428 800.0
173.146698 136.0
173.288147 52.0
173.471603 216.0
173.600067 100.0
173.820419 136.0
173.854538 84.0
173.991028 156.0
174.022537 164.0
174.066803 4104.0
174.216888 72.0
174.285187 188.0
174.399124 124.0
174.508606 48.0
174.540161 108.0
174.734802 192.0
174.955399 220.0
174.975937 116.0
174.992722 172.0
175.074753 5644.0
175.132294 88.0
175.179718 152.0
175.216599 76.0
175.258743 56.0
175.285095 60.0
175.348343 76.0
175.414246 72.0
175.457672 212.0
175.482788 140.0
175.517059 152.0
175.60672 220.0
175.679855 160.0
175.825714 188.0
175.943726 96.0
175.973526 132.0
176.018417 176.0
176.082779 26500.0
176.149002 100.0
176.191177 204.0
176.235016 44.0
176.313065 84.0
176.330154 120.0
176.372437 96.0
176.412094 92.0
176.436707 44.0
176.483475 40.0
176.508499 60.0
176.754959 184.0
176.785019 84.0
176.814133 52.0
176.867065 88.0
176.992554 60.0
177.051376 148.0
177.087097 2320.0
177.341202 136.0
177.402161 32.0
177.582474 128.0
177.624908 180.0
177.709808 80.0
177.805328 48.0
177.884964 164.0
177.996475 44.0
178.017715 204.0
178.08725 332.0
178.150513 144.0
178.318558 132.0
178.376404 108.0
178.437546 76.0
178.519974 144.0
178.613052 172.0
178.738098 68.0
179.100174 104.0
179.124146 68.0
179.151688 184.0
179.347977 72.0
179.502594 112.0
180.019196 308.0
180.089737 60.0
180.199265 236.0
180.415741 76.0
180.742035 164.0
180.830353 52.0
180.966873 184.0
181.003983 764.0
181.272232 132.0
181.357986 124.0
181.37944 148.0
181.500076 108.0
181.610031 96.0
182.012283 1428.0
182.060928 176.0
182.130753 64.0
182.171051 168.0
182.267776 132.0
182.326889 40.0
182.87825 132.0
182.964386 112.0
183.016937 264.0
183.104401 120.0
183.3927 148.0
183.818802 176.0
183.853882 176.0
184.013184 152.0
184.05304 556.0
184.134659 116.0
184.156265 196.0
184.229202 164.0
184.32106 72.0
184.483231 48.0
184.534592 76.0
184.74826 64.0
184.824005 44.0
185.013367 232.0
185.054886 108.0
185.235519 128.0
185.636658 136.0
185.669189 84.0
185.709885 116.0
186.024643 76.0
186.048126 348.0
186.070786 164.0
186.092514 160.0
186.127808 164.0
186.149536 108.0
186.339676 136.0
186.41304 180.0
186.529907 108.0
186.8508 172.0
186.872559 184.0
187.076233 2296.0
187.148682 64.0
187.340836 128.0
187.470917 188.0
187.686966 40.0
187.900208 156.0
187.989807 216.0
188.081726 780.0
188.317368 48.0
188.448502 112.0
188.519547 132.0
188.593338 36.0
188.774826 200.0
188.833939 48.0
188.934082 164.0
188.942596 172.0
188.953537 116.0
189.054504 612.0
189.090591 46132.0
189.173584 256.0
189.202606 64.0
189.230728 132.0
189.258102 48.0
189.323914 124.0
189.414215 68.0
189.462646 224.0
189.510101 60.0
189.539413 40.0
189.557343 128.0
189.586823 88.0
189.671783 92.0
189.740326 84.0
189.773224 72.0
189.833542 48.0
189.918564 180.0
189.945999 96.0
190.010529 76.0
190.058929 204.0
190.093613 8284.0
190.190216 56.0
190.212173 56.0
190.263992 168.0
190.308258 48.0
190.435333 84.0
190.547211 28.0
190.673615 152.0
190.723083 76.0
190.746323 48.0
190.812469 132.0
190.910034 156.0
190.976044 72.0
191.012497 48.0
191.065247 160.0
191.097641 324.0
191.138351 204.0
191.165878 164.0
191.261551 84.0
191.300735 56.0
191.410873 120.0
191.452179 52.0
191.498993 88.0
191.51828 100.0
191.568619 132.0
191.620209 76.0
191.650513 92.0
191.6698 76.0
191.727676 88.0
192.053009 240.0
192.130249 152.0
192.201202 200.0
192.276489 72.0
192.458679 48.0
192.496277 196.0
192.524963 88.0
192.609604 124.0
192.718323 84.0
192.737656 164.0
192.834381 84.0
193.166183 136.0
193.361893 132.0
193.420761 124.0
193.517654 92.0
193.584122 164.0
193.802948 172.0
193.877762 56.0
194.036591 160.0
194.454636 192.0
194.50737 64.0
194.668396 188.0
195.046555 656.0
195.09906 100.0
195.296494 108.0
195.341003 92.0
196.050293 304.0
196.095596 104.0
196.432983 132.0
196.502716 160.0
196.636673 100.0
196.714813 60.0
197.039642 248.0
197.058334 144.0
197.239975 192.0
197.474854 204.0
197.743439 104.0
197.936615 176.0
198.051437 196.0
198.645691 244.0
198.760712 48.0
199.073929 536.0
199.164993 148.0
199.555618 40.0
199.642776 144.0
199.699036 136.0
199.788193 160.0
199.898773 100.0
200.044815 172.0
200.0811 208.0
200.138046 76.0
200.383087 148.0
200.585983 72.0
200.623795 156.0
200.986465 144.0
201.04245 144.0
201.089676 284.0
201.155807 80.0
202.056656 272.0
202.156342 128.0
202.227097 60.0
202.323334 176.0
202.568054 48.0
202.637695 128.0
202.884262 184.0
203.068573 2888.0
203.102615 184.0
203.139496 104.0
203.216095 100.0
203.5056 136.0
203.735641 132.0
203.826569 176.0
203.866348 136.0
203.945923 96.0
203.997101 84.0
204.077545 8992.0
204.132141 256.0
204.179077 32.0
204.200272 68.0
204.223114 60.0
204.290009 104.0
204.334778 76.0
204.383896 76.0
204.417526 112.0
204.486343 36.0
204.526184 48.0
204.671371 152.0
204.739716 128.0
204.822327 132.0
204.842255 120.0
204.919373 212.0
204.984711 64.0
205.031387 200.0
205.085129 21484.0
205.151398 100.0
205.189941 156.0
205.221298 88.0
205.261215 60.0
205.349625 96.0
205.432343 60.0
205.502075 100.0
205.520798 148.0
205.555038 84.0
205.747604 204.0
205.7948 44.0
205.983292 36.0
206.028748 140.0
206.087341 2952.0
206.14328 40.0
206.246704 84.0
206.360519 64.0
206.429153 208.0
206.469193 72.0
206.594299 108.0
206.766724 100.0
206.809662 72.0
206.992874 40.0
207.086517 328.0
207.141815 100.0
207.176193 36.0
207.213425 92.0
207.309586 60.0
207.350967 100.0
207.411621 100.0
207.477097 44.0
207.543045 128.0
207.623337 116.0
207.709381 28.0
207.738068 96.0
207.795441 56.0
208.065216 172.0
208.096802 184.0
208.300705 168.0
208.507584 52.0
208.536316 88.0
208.94754 212.0
209.321716 48.0
210.008682 108.0
210.061096 208.0
210.30481 156.0
210.66864 32.0
211.06459 48.0
212.045746 880.0
212.074951 128.0
213.040848 148.0
213.215576 144.0
213.541199 56.0
214.046982 116.0
214.589539 44.0
214.755753 136.0
214.895782 60.0
214.980408 220.0
215.006668 128.0
215.071671 168.0
215.42421 176.0
216.081512 196.0
216.346985 172.0
216.679245 128.0
216.867584 192.0
216.889923 160.0
217.010437 240.0
217.084671 26536.0
217.162933 184.0
217.186401 32.0
217.212799 112.0
217.245071 48.0
217.294937 48.0
217.340912 120.0
217.405243 176.0
217.437683 56.0
217.574966 48.0
217.593857 132.0
217.651627 92.0
217.673584 76.0
217.764618 84.0
217.848328 68.0
218.037857 180.0
218.08757 3236.0
218.17601 48.0
218.252441 84.0
218.443619 56.0
218.497894 124.0
219.032349 28.0
219.088959 188.0
219.197327 112.0
219.223846 40.0
219.297531 32.0
219.377121 104.0
219.415436 92.0
219.592377 68.0
219.627213 108.0
219.680862 104.0
219.896255 124.0
219.940536 52.0
220.238754 48.0
220.809204 116.0
221.646973 108.0
221.937469 48.0
224.044693 156.0
224.834854 208.0
226.087051 136.0
227.072281 164.0
227.400452 104.0
227.435776 216.0
228.069458 120.0
228.316086 48.0
229.050491 164.0
229.074585 160.0
229.816238 104.0
231.148773 192.0
231.83316 196.0
232.819107 44.0
234.690552 168.0
235.089355 168.0
238.831039 52.0
240.069138 108.0
240.349854 80.0
240.556625 52.0
242.071625 104.0
243.0896 412.0
243.240479 112.0
243.69519 172.0
243.930084 112.0
244.094864 80.0
244.353027 180.0
245.080368 9364.0
245.169098 52.0
245.231186 84.0
245.318466 52.0
245.446289 104.0
245.727005 36.0
245.85495 104.0
246.080261 1812.0
246.126526 136.0
246.20459 160.0
246.357651 116.0
247.081177 256.0
247.665192 76.0
247.806168 120.0
248.304581 48.0
250.136398 204.0
251.712799 84.0
255.090195 180.0
256.092529 328.0
259.076019 100.0
259.124084 172.0
259.752441 252.0
260.134308 84.0
260.876373 96.0
261.455322 48.0
262.015594 148.0
262.103973 772.0
263.086578 888.0
263.929565 68.0
264.09613 340.0
266.207581 96.0
268.762878 72.0
271.071442 148.0
271.097656 160.0
272.79126 44.0
276.982117 104.0
281.108124 64.0
283.961792 72.0
285.210846 88.0
286.088806 136.0
287.308746 88.0
288.308228 44.0
290.614258 56.0
290.705872 120.0
298.53241 84.0
301.08606 136.0
304.070404 144.0
304.153687 124.0
306.131989 112.0
309.995605 40.0
311.075867 152.0
311.729156 100.0
314.084503 108.0
314.331482 84.0
315.320282 76.0
315.723328 60.0
315.985077 188.0
317.033203 140.0
317.458588 44.0
318.381287 48.0
323.601746 76.0
325.789459 40.0
326.306976 72.0
327.058807 48.0
327.512512 120.0
328.204437 144.0
330.476379 104.0
337.178375 72.0
337.266083 108.0
338.110962 172.0
341.086761 144.0
343.781555 136.0
344.121155 56.0
350.23645 132.0
358.09845 112.0
359.104767 116.0
359.614136 60.0
361.159485 52.0
363.986694 96.0
364.814972 152.0
366.493378 84.0
367.816742 88.0
370.104462 132.0
370.12973 128.0
372.442291 56.0
373.114807 108.0
375.317108 68.0
377.761841 68.0
378.9039 48.0
379.725677 84.0
380.102417 180.0
380.264984 192.0
382.717957 164.0
384.944489 100.0
386.582428 100.0
387.02475 44.0
389.326599 72.0
395.314819 92.0
398.054016 124.0
398.11496 1136.0
398.657837 76.0
399.109711 544.0
400.114563 984.0
401.112427 172.0
407.70163 80.0
411.488037 48.0
420.708038 120.0
426.11499 136.0
428.3479 108.0
430.125153 100.0
438.049561 160.0
444.118927 1192.0
444.169342 252.0
444.756775 48.0
445.118866 692.0
445.269012 96.0
445.315216 68.0
445.735321 40.0
446.046326 36.0
446.115204 656.0
446.206085 44.0
446.302795 52.0
446.336426 100.0
446.757019 128.0
447.11496 148.0
447.830414 144.0
452.221497 52.0
452.983673 32.0
453.458252 88.0
459.074341 48.0
473.610016 60.0
475.04483 108.0
496.410248 64.0
499.45697 44.0
500.605225 32.0
509.802826 108.0
515.824402 60.0
520.68158 88.0
531.555908 88.0
551.891541 44.0
561.103455 92.0
566.969482 132.0
618.441284 68.0
639.419495 72.0
653.146545 68.0
660.282104 128.0
670.705017 100.0
674.912537 56.0
676.832214 68.0
678.231018 68.0
690.137146 76.0
701.925415 20.0
705.388855 88.0
712.495361 88.0
721.010315 156.0
743.604065 200.0
758.494751 48.0
771.845642 72.0
788.987305 104.0
799.639587 60.0
806.419006 52.0
837.977478 172.0
838.710876 76.0
843.887695 40.0
848.832642 52.0
857.891113 88.0
864.362488 72.0
869.577271 124.0
874.644775 240.0
888.876282 144.0
911.273865 68.0
912.56012 124.0
930.219177 176.0
935.343567 188.0
945.316284 144.0
957.120605 192.0
968.954773 208.0
973.203308 100.0
985.892212 168.0
988.055725 152.0
988.77533 200.0
989.927185 212.0
991.530945 88.0
994.987244 236.0
997.474915 228.0
999.518921 184.0
1002.352539 192.0
1013.137756 244.0
1013.644653 192.0
1013.891785 164.0
1018.51709 232.0
1033.306885 60.0
1033.889282 184.0
1036.136719 116.0
1039.605591 200.0
1043.736084 172.0
1050.395386 116.0
1051.595581 100.0
1051.892456 208.0
1053.681396 228.0
1056.260742 136.0
1056.687744 192.0
1058.215088 140.0
1058.53894 132.0
1062.220215 192.0
1064.141113 240.0
1065.479126 148.0
1069.894897 180.0
1071.08667 184.0
1072.689575 160.0
1076.165405 208.0
1076.454224 252.0
1080.585205 176.0
1081.088989 64.0
1081.337769 140.0
1081.47522 264.0
1086.665283 60.0
1087.150879 164.0
1105.398315 128.0
1105.53064 160.0
1105.643188 128.0
1109.206543 160.0
1109.683838 212.0
1112.835327 156.0
1113.831543 168.0
1117.321533 148.0
1118.140015 160.0
1127.369995 136.0
1128.713623 172.0
1129.864136 144.0
1132.782837 100.0
1133.493042 168.0
1133.955444 160.0
1135.121948 248.0
1135.933472 172.0
1136.067627 72.0
1141.064209 144.0
1146.442383 188.0
1146.732178 144.0
1147.581665 168.0
1147.999634 204.0
1148.141357 52.0
1148.876465 176.0
1153.008911 96.0
1153.082275 136.0
1154.814087 168.0
1159.594116 44.0
1161.017822 164.0
1164.132812 108.0
1164.913818 112.0
1166.157349 140.0
1169.755615 212.0
1169.918945 64.0
1173.529785 204.0
1177.877075 132.0
1179.961426 192.0
1187.06189 152.0
1188.385742 132.0
1189.030762 160.0
1189.2229 204.0
1189.675903 32.0
1190.053589 160.0
1191.612671 212.0
1192.107422 188.0
1192.217407 148.0
1192.313599 80.0
1192.464722 92.0
1194.892212 188.0
1196.000122 64.0
1199.8302 168.0
1199.974976 136.0
1201.223267 168.0
1202.237427 204.0
1202.520386 152.0
1202.734375 188.0
1203.52832 208.0
1203.707031 156.0
1204.93042 120.0
1205.973877 172.0
1207.142212 116.0
1209.328369 148.0
1210.15918 132.0
1210.353027 80.0
1212.597534 156.0
1213.519531 132.0
1213.949463 232.0
1216.940063 64.0
1217.703979 188.0
1219.906616 148.0
1220.198608 208.0
1220.886963 84.0
1220.984375 116.0
1221.492065 212.0
1222.925537 132.0
1224.185669 236.0
1224.489136 200.0
1226.373169 236.0
1227.070312 216.0
1227.167969 168.0
1227.551392 104.0
1227.962891 192.0
1229.735107 156.0
1229.818848 176.0
1230.663574 208.0
1230.782227 148.0
1231.669189 100.0
1232.228027 88.0
1235.911865 156.0
1235.961792 264.0
1236.654541 156.0
1239.771118 96.0
1241.790283 136.0
1243.719849 184.0
1245.559448 204.0
1247.927856 200.0
1250.432129 92.0
1252.938965 168.0
1255.370605 28.0
1256.739136 144.0
1260.947876 200.0
1261.30835 120.0
1261.569946 80.0
1263.80481 148.0
1264.866333 160.0
1266.61438 148.0
1266.75708 124.0
1268.911499 100.0
1270.769653 220.0
1274.120728 140.0
1279.297974 144.0
1280.216553 108.0
1283.180664 112.0
1283.437378 176.0
1284.571411 192.0
1285.02417 168.0
1285.077881 200.0
1285.891357 132.0
1288.390625 152.0
1289.376709 100.0
1289.891357 180.0
1291.571655 228.0
1291.843506 168.0
1291.907959 64.0
1295.953003 172.0
1296.117798 184.0
1296.418701 188.0
1299.98291 156.0
1302.201294 204.0
1302.984253 136.0
1304.414307 224.0
1306.68689 32.0
1314.670654 44.0
1315.796631 148.0
1316.526001 196.0
1317.082031 184.0
1318.599365 152.0
1319.271606 176.0
1320.016357 196.0
1320.226074 168.0
1320.848022 192.0
1321.622192 188.0
1323.069702 220.0
1323.229004 148.0
1323.518555 84.0
1324.076172 196.0
1324.597656 148.0
1326.510742 232.0
1327.51123 136.0
1327.844849 224.0
1330.123169 208.0
1330.478882 104.0
1332.243652 132.0
1334.067627 120.0
1334.641968 144.0
1336.889771 220.0
1338.294678 148.0
1338.942749 212.0
1339.496338 168.0
1340.880737 140.0
1345.790161 124.0
1348.069214 148.0
1349.567627 204.0
1349.713867 192.0
1349.860107 156.0
1350.364746 140.0
1350.6427 180.0
1351.39624 136.0
1352.091431 120.0
1352.947754 164.0
1354.317139 196.0
1354.383057 96.0
1354.947144 80.0
1355.262207 152.0
1359.273071 208.0
1362.444946 160.0
1364.252808 232.0
1365.973511 80.0
1366.392822 136.0
1366.687134 168.0
1367.621826 140.0
1368.564087 224.0
1368.755493 156.0
1370.07666 176.0
1374.911011 204.0
1375.280029 164.0
1375.686035 60.0
1378.285767 160.0
1378.573975 208.0
1378.625732 144.0
1379.01001 168.0
1379.12085 180.0
1381.881958 152.0
1382.441528 212.0
1383.211304 172.0
1383.544434 224.0
1384.255249 120.0
1385.306885 176.0
1385.455078 168.0
1386.270142 84.0
1386.455444 176.0
1389.480713 104.0
1392.917847 40.0
1393.497314 196.0
1394.976318 160.0
1395.132324 92.0
1395.295898 140.0
1395.868408 184.0
1396.418823 104.0
1398.479736 92.0
1398.68811 148.0
1399.060425 152.0
1400.795532 184.0
1401.629883 156.0
1401.808716 144.0
1401.950317 132.0
1402.814941 124.0
1403.582886 232.0
1404.925415 192.0
1405.477539 132.0
1406.447632 124.0
1406.888062 140.0
1407.097168 120.0
1407.253906 76.0
1408.426392 132.0
1408.52356 156.0
1408.598145 176.0
1410.30188 64.0
1410.810181 196.0
1412.335693 152.0
1412.425415 216.0
1412.702148 196.0
1412.799438 124.0
1413.293213 164.0
1413.502686 148.0
1414.071533 52.0
1414.146362 84.0
1414.355957 176.0
1416.662354 180.0
1417.10437 172.0
1417.321655 36.0
1417.576416 196.0
1418.520752 120.0
1418.640625 196.0
1418.768066 168.0
1418.925537 132.0
1419.038086 136.0
1419.195435 136.0
1419.412964 148.0
1420.425415 176.0
1421.115601 136.0
1421.543335 156.0
1421.730957 140.0
1422.248779 120.0
1423.0896 200.0
1423.74292 160.0
1424.366333 132.0
1424.862061 180.0
1426.533569 156.0
1426.85376 208.0
1428.463013 132.0
1428.779053 248.0
1428.90686 152.0
1429.373413 184.0
1430.615234 136.0
1431.54895 244.0
1434.163208 128.0
1434.253662 196.0
1435.188477 248.0
1435.78418 144.0
1435.859619 52.0
1436.591309 176.0
1436.915649 72.0
1437.240112 160.0
1439.376343 356.0
1439.595215 160.0
1441.740723 140.0
1442.942627 236.0
1443.819702 132.0
1444.122314 168.0
1444.394531 140.0
1444.848511 180.0
1446.460327 148.0
1446.854004 144.0
1447.323486 124.0
1447.459717 76.0
1448.042847 164.0
1448.164062 192.0
1448.86853 104.0
1451.468262 164.0
1452.264526 172.0
1453.979248 108.0
1454.093018 264.0
1454.730591 108.0
1454.98877 72.0
1455.307617 144.0
1455.73291 176.0
1456.203735 188.0
1456.993774 192.0
1460.003784 152.0
1461.806641 220.0
1462.453613 168.0
1463.389893 56.0
1465.233032 160.0
1465.35498 184.0
1466.467529 248.0
1467.184082 112.0
1468.053345 196.0
1468.625366 224.0
1469.281372 176.0
1469.380493 100.0
1470.088623 124.0
1470.189331 184.0
1470.494629 128.0
1471.517578 68.0
1472.044434 204.0
1472.815796 196.0
1473.663696 132.0
1473.80127 128.0
1474.817627 252.0
1475.345093 104.0
1475.498047 208.0
1477.715942 192.0
1478.175049 132.0
1479.047607 184.0
1480.387329 152.0
1480.47168 160.0
1482.48645 36.0
1482.639648 176.0
1484.0271 172.0
1486.243774 344.0
1486.979858 136.0
1488.016846 184.0
1488.408447 212.0
1488.638794 196.0
1490.22876 164.0
1490.851196 184.0
1491.020264 140.0
1491.750488 180.0
1492.350098 188.0
1492.550049 168.0
1495.088623 208.0
1495.173218 168.0
1495.388794 100.0
1495.550415 108.0
1495.865967 172.0
1495.973755 80.0
1496.520386 188.0
1497.359741 168.0
1500.341797 148.0
1500.904663 136.0
1501.97583 156.0
1502.231201 120.0
1503.208496 184.0
1503.550537 164.0
1504.283813 144.0
