>compound MLS000028713-01!DEFEROXAMINE MESYLATE
>formula C25H48N6O8
>ionization [M+H]+
>parentmass 561.3606389480905
#inchi InChI=1S/C25H48N6O8/c1-21(32)29(37)18-9-3-6-16-27-22(33)12-14-25(36)31(39)20-10-4-7-17-28-23(34)11-13-24(35)30(38)19-8-2-5-15-26/h37-39H,2-20,26H2,1H3,(H,27,33)(H,28,34)
#inchikey UBQYURCVBFRUQT
#origInchi InChI=1S/C25H48N6O8.CH4O3S/c1-21(32)29(37)18-9-3-6-16-27-22(33)12-14-25(36)31(39)20-10-4-7-17-28-23(34)11-13-24(35)30(38)19-8-2-5-15-26;1-5(2,3)4/h37-39H,2-20,26H2,1H3,(H,27,33)(H,28,34);1H3,(H,2,3,4)
#Ion_Source LC-ESI
#Instrument qTof
#Compound_Source NIH Pharmacologically Active Library
#PI Dorrestein
#Data_Collector VP/LMS
#Scan -1
#Precursor_MZ 561.371
#ExactMass 560.353
#Charge 1
#CAS_Number N/A
#Pubmed_ID N/A
#Smiles CC(=O)N(O)CCCCCNC(=O)CCC(=O)N(O)CCCCCNC(=O)CCC(=O)N(O)CCCCCN.CS(=O)(=O)O
#INCHI_AUX N/A
#Library_Class 1
#SpectrumID CCMSLIB00000085559
#IonMode Positive
#UpdateWorkflowName UPDATE-SINGLE-ANNOTATED-GOLD
#LibraryQualityString Gold
#TaskID d252d724072548979f1f6f1ced849daf
##Scan# 1202
#SpectrumFile p4-C08_GC8_01_18356.mzXML
#LibraryName Pharm_Active_Library.mgf
#MQScore -1
#Organism Pharm_Active_Library
#TIC_Query 0
#RT_Query -1
#MZErrorPPM -1
#SharedPeaks 0
#MassDiff 0
#LibMZ -1
#SpecMZ 561.371
#SpecCharge 0
#internalFilename spec-00000.mgf

>collision 10
45.163177 84.0
45.427059 160.0
45.519665 168.0
45.606991 104.0
45.724003 156.0
46.015163 148.0
46.509571 144.0
46.68317 176.0
47.156239 160.0
47.301224 144.0
47.339558 196.0
47.493053 152.0
47.683899 216.0
47.73064 96.0
47.774651 156.0
47.930229 180.0
47.945389 160.0
48.018456 156.0
48.113667 168.0
48.620274 196.0
49.720005 120.0
50.063023 116.0
50.782379 256.0
50.885967 188.0
51.146118 136.0
51.428337 156.0
51.481159 136.0
51.561161 112.0
51.7099 140.0
51.96497 136.0
52.223541 232.0
52.309875 244.0
52.946613 52.0
52.994415 104.0
53.392151 224.0
53.507103 92.0
53.549332 152.0
53.751904 184.0
54.017872 144.0
54.11153 96.0
54.195015 76.0
54.211132 152.0
54.247772 256.0
54.346035 76.0
54.419422 188.0
54.548702 104.0
54.703156 156.0
54.915337 148.0
54.937462 160.0
55.280243 148.0
55.2906 128.0
55.367584 144.0
55.85738 204.0
55.891598 72.0
55.952621 144.0
56.09116 168.0
56.153782 140.0
56.620075 252.0
57.154484 176.0
57.427151 228.0
57.664192 156.0
58.083599 136.0
58.179199 236.0
58.426914 140.0
58.443649 96.0
58.550205 176.0
58.685825 128.0
58.82618 132.0
58.928501 220.0
59.046204 92.0
59.069145 196.0
59.269703 148.0
59.360142 132.0
60.038307 212.0
60.072239 156.0
60.089211 144.0
60.515781 188.0
60.659855 100.0
60.847565 72.0
61.172474 112.0
61.212955 48.0
61.468597 176.0
61.591934 136.0
62.088078 168.0
62.105701 168.0
62.16024 152.0
62.348682 204.0
62.991524 192.0
63.626549 132.0
63.658306 200.0
63.729786 116.0
64.13559 76.0
64.277527 140.0
65.487907 172.0
65.782982 172.0
65.921883 112.0
66.378372 144.0
67.28791 148.0
67.359764 148.0
67.634468 72.0
67.999969 88.0
68.032799 40.0
68.284195 200.0
68.356583 172.0
68.456993 116.0
68.484993 160.0
68.798294 92.0
69.239777 68.0
69.365692 152.0
69.402168 124.0
69.42704 96.0
69.483437 240.0
69.514351 204.0
69.812317 252.0
69.962059 152.0
70.52253 176.0
70.679283 188.0
70.835426 100.0
70.962791 92.0
70.992973 152.0
71.401062 132.0
71.47171 152.0
71.559235 224.0
71.680511 144.0
71.70916 120.0
72.215668 136.0
72.75621 172.0
73.140388 144.0
73.597275 128.0
74.026466 184.0
74.388222 172.0
74.498528 204.0
74.792168 160.0
74.921318 132.0
75.100586 236.0
75.166145 132.0
75.224823 232.0
75.388908 208.0
75.44767 116.0
75.60334 140.0
75.641418 208.0
75.837151 172.0
75.956787 148.0
76.125137 128.0
76.262383 184.0
76.345833 128.0
77.011589 128.0
77.154877 160.0
77.318817 160.0
77.340302 100.0
77.645157 152.0
77.703041 288.0
77.987518 208.0
78.136986 124.0
78.196503 180.0
78.260185 136.0
78.298927 188.0
78.378197 172.0
78.526276 164.0
79.53302 68.0
79.56675 120.0
79.628899 204.0
79.794159 152.0
80.521179 204.0
80.683777 124.0
80.746361 188.0
81.029182 192.0
81.151062 232.0
81.590919 200.0
81.790596 48.0
82.208717 148.0
82.283394 76.0
82.353149 124.0
82.729256 112.0
83.082642 108.0
83.999481 192.0
84.083412 260.0
84.16008 204.0
84.256874 132.0
84.339104 152.0
84.408577 180.0
84.684914 212.0
84.716057 156.0
84.794846 84.0
84.871834 168.0
84.976379 124.0
85.057129 184.0
85.676834 120.0
86.008759 152.0
86.032761 212.0
86.06414 132.0
86.202682 208.0
86.791306 68.0
87.121666 148.0
87.359619 52.0
87.421013 168.0
87.612793 232.0
88.002579 148.0
88.028717 124.0
88.209946 172.0
88.333359 132.0
88.368904 124.0
88.398842 188.0
88.794121 140.0
89.165855 160.0
89.21096 168.0
89.551537 140.0
90.331085 196.0
90.495735 48.0
90.537392 60.0
90.834412 152.0
91.146317 228.0
91.521027 144.0
91.701996 156.0
91.755371 212.0
92.188652 204.0
93.329376 196.0
93.51001 172.0
93.540802 116.0
93.823982 60.0
93.870255 192.0
94.138481 72.0
94.294968 160.0
94.472855 56.0
94.575409 192.0
94.906677 156.0
94.999771 208.0
95.102615 148.0
95.200287 256.0
95.215218 196.0
95.60598 140.0
95.896164 196.0
96.079453 164.0
96.428978 148.0
96.573662 180.0
96.873146 204.0
97.053452 132.0
98.016586 224.0
98.057968 188.0
98.091476 216.0
98.121048 100.0
98.203873 108.0
98.351852 84.0
98.782608 64.0
98.804375 192.0
99.309494 160.0
99.579422 40.0
99.750298 120.0
99.821869 188.0
99.977242 152.0
100.039574 1580.0
100.080544 36.0
100.186096 160.0
100.391396 236.0
100.548996 148.0
100.916542 200.0
100.936539 156.0
100.980537 128.0
101.020538 196.0
101.048592 184.0
101.111038 52.0
101.250717 164.0
101.372917 180.0
102.016045 212.0
102.092148 6784.0
102.123032 188.0
102.155945 36.0
102.206238 96.0
102.262589 156.0
102.284729 52.0
102.433739 76.0
102.518356 36.0
102.55262 112.0
102.88343 236.0
103.010651 248.0
103.096039 576.0
103.154121 96.0
103.364456 192.0
103.516273 200.0
103.779686 88.0
103.877029 88.0
103.905434 96.0
104.722603 92.0
104.897835 56.0
105.248734 156.0
105.430542 136.0
105.643181 56.0
105.886757 72.0
106.378853 156.0
106.822716 140.0
106.837112 168.0
106.944115 152.0
107.66777 144.0
107.746262 104.0
108.159843 156.0
108.310997 184.0
109.288795 156.0
109.344978 124.0
109.386604 208.0
109.407425 256.0
109.56778 112.0
109.671974 204.0
109.730339 120.0
109.792892 188.0
110.09967 184.0
110.779434 112.0
111.143234 88.0
111.881935 180.0
112.016708 40.0
112.04039 1236.0
112.058479 184.0
112.073593 152.0
112.126274 52.0
112.32869 44.0
112.503838 116.0
113.048248 424.0
113.133804 136.0
113.608498 88.0
113.98642 196.0
114.156479 152.0
114.776123 160.0
115.305534 156.0
115.649872 164.0
115.821167 164.0
117.012993 168.0
117.398689 132.0
117.612274 252.0
118.431747 148.0
118.824112 276.0
118.889206 28.0
118.915245 132.0
119.117752 432.0
119.408432 136.0
119.754486 96.0
120.078392 336.0
120.125031 160.0
120.301788 224.0
120.410965 152.0
121.084564 116.0
121.984161 148.0
122.092041 172.0
122.684189 60.0
123.105606 140.0
123.319901 280.0
123.737984 196.0
124.075729 204.0
124.130157 104.0
124.514069 136.0
124.589592 156.0
124.911926 176.0
126.283684 228.0
127.39772 180.0
127.424675 176.0
127.467369 148.0
127.503326 128.0
127.622459 200.0
127.723663 44.0
128.03331 400.0
128.122101 172.0
128.342972 148.0
129.373199 60.0
129.468292 176.0
129.590622 96.0
129.740189 124.0
129.99649 176.0
130.066849 56.0
130.112244 104.0
130.373459 172.0
130.589432 208.0
131.37529 200.0
131.966797 136.0
132.40155 156.0
132.605453 68.0
132.967819 196.0
133.114746 180.0
133.231888 156.0
133.852875 160.0
133.926575 268.0
134.664642 156.0
135.022858 172.0
135.129272 116.0
135.150085 184.0
136.567505 160.0
136.953873 196.0
137.076218 124.0
137.10817 1140.0
137.261505 36.0
137.571808 168.0
137.742264 228.0
138.050781 156.0
138.090744 1380.0
138.146667 124.0
138.24025 224.0
139.099838 252.0
139.304688 52.0
140.000885 144.0
140.068298 772.0
140.107529 144.0
140.264771 104.0
140.479355 52.0
140.767288 132.0
141.081528 140.0
141.230499 196.0
141.739487 112.0
142.069046 140.0
142.087189 320.0
142.589035 148.0
143.090942 160.0
143.114746 176.0
143.176666 172.0
143.453049 144.0
143.693924 232.0
143.906326 160.0
143.958862 148.0
143.982742 164.0
144.057449 100.0
144.102173 6928.0
144.145187 244.0
144.166687 72.0
144.204926 36.0
144.384232 60.0
144.441635 32.0
144.496658 40.0
144.60434 44.0
144.896469 140.0
145.018692 76.0
145.106079 624.0
145.162521 44.0
145.217682 44.0
145.259659 128.0
145.362259 76.0
145.709778 152.0
145.892426 240.0
146.107422 168.0
146.123291 160.0
146.202698 152.0
146.223694 116.0
146.30986 216.0
146.489212 60.0
146.768784 156.0
146.845947 48.0
146.964157 88.0
147.456772 88.0
148.07341 296.0
148.672516 124.0
148.79631 176.0
148.927429 148.0
148.960358 216.0
148.990601 124.0
149.467133 112.0
149.681335 68.0
149.985855 184.0
150.483521 308.0
150.644699 44.0
150.796188 220.0
151.287842 108.0
151.503342 204.0
151.719009 140.0
152.187607 176.0
152.349701 176.0
153.075256 232.0
153.168839 148.0
153.232895 180.0
153.331451 128.0
153.716156 100.0
153.856842 152.0
153.970428 164.0
154.085281 2536.0
154.126053 152.0
154.158173 44.0
154.18042 88.0
154.26445 180.0
154.350983 176.0
154.496902 176.0
154.94252 212.0
155.091141 172.0
155.428482 48.0
155.460739 128.0
155.617111 56.0
155.674225 172.0
155.87294 152.0
155.927612 60.0
156.105225 256.0
156.288193 36.0
156.345428 44.0
156.407639 108.0
156.875946 160.0
157.977203 148.0
159.456573 56.0
160.269394 72.0
160.344986 164.0
160.612244 124.0
160.642517 136.0
160.720718 148.0
161.12468 116.0
161.597458 128.0
161.822708 192.0
162.319336 180.0
163.002151 244.0
163.106354 244.0
163.215668 116.0
163.635483 192.0
164.137421 136.0
164.221573 76.0
164.537994 112.0
164.655457 168.0
164.739746 104.0
164.94162 128.0
165.101776 3876.0
165.322693 184.0
165.49675 220.0
166.085266 776.0
166.10376 1092.0
166.209305 164.0
166.265762 68.0
166.807709 124.0
168.102219 696.0
168.34584 136.0
168.873047 148.0
169.100723 228.0
169.180969 140.0
169.662827 72.0
169.815811 124.0
169.883255 228.0
170.524597 192.0
170.690979 124.0
170.722183 168.0
171.117691 172.0
171.302582 76.0
172.866486 176.0
173.157074 44.0
173.187714 156.0
173.670776 124.0
174.300842 224.0
174.511108 220.0
175.10318 192.0
175.880981 164.0
175.952255 88.0
176.229568 184.0
176.27449 156.0
176.70282 112.0
177.229706 148.0
177.6539 112.0
178.107803 224.0
178.142334 192.0
179.10527 216.0
179.497025 76.0
179.614365 116.0
180.094818 104.0
180.375381 164.0
180.63475 224.0
180.872894 204.0
181.26123 212.0
181.81633 164.0
182.14389 176.0
182.719162 116.0
182.880615 132.0
183.11322 1792.0
183.20105 132.0
183.23877 40.0
183.373489 148.0
183.583771 108.0
183.632324 120.0
183.904831 176.0
184.096222 1204.0
184.820938 44.0
184.931885 136.0
185.104675 184.0
185.123123 404.0
185.216187 36.0
185.300171 164.0
185.403137 100.0
185.893967 152.0
185.937393 156.0
186.086685 204.0
186.284943 84.0
186.809586 140.0
186.91568 172.0
187.106201 252.0
187.492996 168.0
188.718628 184.0
189.085175 168.0
189.542496 184.0
190.563187 168.0
191.269943 152.0
192.886337 204.0
193.165634 132.0
193.716492 124.0
194.23761 184.0
194.276459 108.0
195.034515 276.0
195.140152 68.0
196.518814 136.0
196.569046 100.0
197.44342 132.0
197.983536 184.0
198.524399 100.0
199.060364 132.0
199.113724 148.0
199.656128 112.0
199.68425 140.0
199.810822 168.0
199.881165 92.0
199.985291 100.0
200.137314 224.0
200.258392 80.0
200.430237 132.0
200.500687 172.0
200.559875 100.0
200.585251 48.0
200.675461 100.0
200.700836 196.0
200.801712 192.0
200.895432 132.0
201.001602 184.0
201.055832 104.0
201.074783 156.0
201.122986 35128.0
201.190338 112.0
201.214325 60.0
201.268402 80.0
201.355515 68.0
201.377289 96.0
201.426132 32.0
201.458603 112.0
201.519348 76.0
201.564377 60.0
201.582047 192.0
201.643692 40.0
201.700211 80.0
201.8246 48.0
201.949036 52.0
202.028229 56.0
202.050873 28.0
202.070663 164.0
202.126053 5072.0
202.196045 104.0
202.217819 64.0
202.240463 80.0
202.371445 88.0
202.424973 68.0
202.500946 40.0
202.580246 80.0
202.62558 68.0
202.656738 76.0
202.804092 40.0
202.928833 64.0
202.971939 156.0
203.016724 48.0
203.04509 64.0
203.130096 392.0
203.272034 132.0
203.325958 112.0
203.416779 140.0
203.450851 64.0
203.485992 84.0
203.523087 108.0
203.604172 64.0
203.632568 40.0
203.66098 120.0
203.729141 96.0
203.801285 112.0
203.868362 56.0
203.956467 72.0
204.131317 152.0
204.172546 84.0
204.226593 92.0
204.479813 52.0
204.676224 84.0
206.168121 148.0
206.331055 76.0
206.359634 140.0
206.671402 160.0
207.955215 100.0
208.110229 136.0
209.643387 56.0
210.841003 148.0
211.115646 156.0
212.013062 268.0
212.648193 72.0
212.892151 136.0
212.947235 84.0
214.046509 56.0
214.221252 60.0
215.82933 100.0
218.786728 140.0
219.129959 300.0
219.455505 160.0
221.142273 112.0
221.174835 104.0
221.334702 152.0
221.373184 40.0
222.11116 124.0
222.930588 136.0
223.192169 100.0
223.486633 52.0
224.377136 132.0
224.794724 128.0
225.123077 148.0
225.762589 76.0
225.85231 112.0
225.930084 116.0
226.007874 156.0
226.136551 152.0
226.732544 140.0
226.939377 88.0
227.905838 112.0
229.329239 72.0
233.96994 148.0
234.039963 152.0
235.091599 116.0
236.011032 124.0
236.102768 88.0
236.133347 92.0
236.347488 76.0
236.616821 152.0
236.754608 120.0
237.12117 148.0
237.376694 140.0
238.546432 100.0
238.866241 104.0
239.463364 144.0
240.63205 132.0
240.706161 120.0
241.113922 180.0
241.577713 104.0
241.788116 48.0
242.571732 148.0
242.639938 156.0
242.788773 132.0
242.841492 160.0
242.881821 244.0
243.072128 140.0
243.133331 22372.0
243.191864 56.0
243.239777 56.0
243.281845 48.0
243.325806 152.0
243.336334 60.0
243.409409 84.0
243.474609 52.0
243.555374 52.0
243.61438 52.0
243.639236 96.0
243.757309 28.0
243.901413 108.0
244.095993 96.0
244.136261 2680.0
244.198746 44.0
244.307617 32.0
244.472519 144.0
244.53476 52.0
244.687286 32.0
244.926575 76.0
245.03299 44.0
245.136337 652.0
245.338394 56.0
245.506775 88.0
245.603455 80.0
245.66272 116.0
245.684555 64.0
245.753189 48.0
245.846802 132.0
245.881134 68.0
245.94043 44.0
245.984131 144.0
246.124619 124.0
246.730743 84.0
247.249969 72.0
247.907623 36.0
248.446915 124.0
249.219238 48.0
251.177383 116.0
252.526077 112.0
253.938644 116.0
255.138916 132.0
255.517365 84.0
256.195465 144.0
256.482269 92.0
257.528809 40.0
257.762024 64.0
260.6716 76.0
265.121643 152.0
267.199738 108.0
269.067169 208.0
270.685699 144.0
276.50592 84.0
279.788727 80.0
281.519196 108.0
282.144806 148.0
282.997131 116.0
283.126678 1512.0
283.170776 164.0
283.238251 88.0
283.36557 48.0
284.131409 364.0
284.173553 108.0
284.203766 136.0
285.708923 96.0
288.978058 108.0
290.597565 108.0
292.902435 48.0
293.352234 216.0
294.440674 128.0
295.462708 148.0
298.082184 196.0
298.133728 132.0
298.762939 236.0
300.168182 136.0
301.13681 496.0
302.136902 256.0
303.14444 120.0
314.419434 80.0
317.554047 224.0
318.082703 40.0
318.221161 164.0
319.176941 116.0
319.233551 7164.0
319.304962 56.0
319.359894 80.0
319.678497 244.0
319.764557 64.0
320.0914 92.0
320.236481 1288.0
320.404846 72.0
320.60437 160.0
320.953705 40.0
321.2323 356.0
321.503052 92.0
321.594879 88.0
322.017151 72.0
322.299347 96.0
322.324371 68.0
322.395844 120.0
322.892761 64.0
325.727875 88.0
327.144684 68.0
327.205872 104.0
327.95874 116.0
328.456329 180.0
329.210632 128.0
330.12851 68.0
335.032104 132.0
341.213348 124.0
342.037354 140.0
344.050079 140.0
344.744446 192.0
347.161774 156.0
350.090118 152.0
351.032898 52.0
356.235291 208.0
359.310944 64.0
361.24408 916.0
361.332153 124.0
361.706787 72.0
362.240601 460.0
362.589294 96.0
363.252808 160.0
363.651215 72.0
364.095428 56.0
365.045471 260.0
365.212799 144.0
383.205078 160.0
383.234558 276.0
384.220856 192.0
386.314423 72.0
388.618011 140.0
389.308868 172.0
391.23941 168.0
391.901062 92.0
393.162872 108.0
396.589752 196.0
399.983948 36.0
400.872101 224.0
401.023529 100.0
401.147095 124.0
401.236115 2312.0
401.589691 68.0
402.00061 76.0
402.240356 552.0
402.370148 48.0
402.890991 44.0
403.234436 188.0
403.518433 168.0
404.874908 68.0
405.115204 56.0
405.895538 92.0
406.763336 144.0
409.356506 64.0
414.15033 36.0
414.985138 40.0
425.23645 108.0
438.167145 68.0
440.904388 104.0
443.244965 1028.0
443.637573 148.0
444.203674 172.0
444.252106 432.0
444.610657 32.0
445.072418 212.0
445.24234 116.0
445.280212 200.0
446.236267 104.0
448.256622 72.0
454.612366 100.0
462.214478 84.0
466.370056 52.0
466.84729 92.0
469.249939 128.0
472.476074 168.0
479.928925 84.0
498.029785 60.0
501.328522 96.0
520.353821 144.0
520.744324 28.0
521.166809 208.0
525.081665 124.0
525.770508 168.0
527.602173 56.0
529.858337 136.0
534.026367 80.0
543.348145 72.0
544.211426 156.0
548.528625 140.0
551.759033 208.0
552.75531 96.0
552.933105 84.0
553.415283 104.0
553.991333 64.0
555.43512 76.0
557.157898 80.0
559.038635 124.0
559.415161 52.0
559.711792 76.0
559.843628 124.0
560.126221 72.0
560.248657 108.0
560.484253 72.0
560.583191 76.0
561.078125 124.0
561.357666 3184.0
561.432434 172.0
561.667542 48.0
561.771362 40.0
561.891907 36.0
562.011963 64.0
562.101624 48.0
562.229004 144.0
562.280945 164.0
562.366211 1404.0
562.469727 44.0
562.847412 56.0
563.026855 100.0
563.24408 40.0
563.37262 144.0
563.574768 28.0
563.976501 104.0
564.392517 60.0
565.191833 84.0
565.272278 96.0
565.778748 120.0
565.944458 40.0
575.28656 28.0
589.150818 56.0
589.571167 32.0
592.227234 64.0
595.700256 52.0
600.284973 56.0
623.969238 120.0
652.679932 88.0
659.224976 60.0
664.580994 60.0
736.278442 68.0
741.970764 120.0
761.599487 108.0
793.363586 84.0
794.928406 156.0
865.471497 100.0
882.972412 128.0
897.938782 68.0
904.822449 152.0
905.205688 120.0
935.332825 204.0
957.848328 148.0
983.163696 192.0
989.627075 104.0
994.887146 56.0
1008.531128 52.0
1022.783569 196.0
1045.884277 180.0
1049.575684 176.0
1058.583374 140.0
1068.71582 160.0
1078.550171 112.0
1078.857422 56.0
1087.969849 208.0
1104.873901 224.0
1120.795044 128.0
1132.941406 112.0
1135.17334 124.0
1145.644897 88.0
1147.214966 76.0
1149.002075 180.0
1149.93335 60.0
1154.365112 204.0
1156.523193 160.0
1164.523804 80.0
1168.391602 108.0
1170.481079 160.0
1177.771484 44.0
1178.311157 204.0
1179.185791 160.0
1181.483276 148.0
1189.89917 44.0
1191.52002 96.0
1200.212769 156.0
1200.467896 204.0
1201.950928 176.0
1205.769775 92.0
1209.359253 132.0
1215.117798 160.0
1216.526611 80.0
1223.666382 124.0
1227.854248 72.0
1230.624512 164.0
1233.14624 176.0
1243.399536 184.0
1251.772217 152.0
1266.270508 164.0
1267.567017 212.0
1274.49231 152.0
1276.966187 128.0
1277.34314 84.0
1285.029907 52.0
1289.936035 132.0
1290.958496 140.0
1296.248535 208.0
1299.970215 120.0
1305.623779 96.0
1305.911499 188.0
1309.207642 220.0
1310.475464 140.0
1312.962402 252.0
1320.574585 160.0
1320.871094 204.0
1324.113647 184.0
1325.917603 132.0
1326.526489 204.0
1326.743896 144.0
1328.020142 132.0
1329.768677 140.0
1330.204224 136.0
1330.291382 184.0
1330.487305 172.0
1337.101929 148.0
1338.616089 188.0
1339.497314 144.0
1341.435669 196.0
1342.864746 148.0
1347.953125 188.0
1349.692749 168.0
1354.581543 172.0
1356.464844 160.0
1363.746216 192.0
1364.06958 148.0
1366.327271 92.0
1366.783447 124.0
1368.181763 176.0
1373.509644 192.0
1375.435425 136.0
1379.468628 120.0
1379.793945 112.0
1380.666382 112.0
1382.87854 132.0
1386.322266 136.0
1397.296631 176.0
1402.531616 220.0
1403.396484 92.0
1404.902954 192.0
1407.515137 264.0
1408.127563 216.0
1411.752075 152.0
1413.307983 220.0
1413.420166 252.0
1413.876709 156.0
1417.283813 144.0
1428.274536 100.0
1432.241211 136.0
1433.424072 128.0
1434.449097 260.0
1436.477539 96.0
1440.818237 228.0
1442.072632 188.0
1442.420288 116.0
1443.055298 128.0
1445.263794 164.0
1447.072754 132.0
1453.81897 168.0
1454.137695 184.0
1456.787598 172.0
1458.542969 104.0
1460.05603 184.0
1468.540283 52.0
1469.203857 184.0
1479.18396 208.0
1480.317139 224.0
1480.86084 76.0
1487.792725 180.0
1489.927612 264.0
1490.680664 48.0
1491.218506 172.0
1493.194458 172.0
1493.679077 56.0
1497.56604 268.0
1497.943481 180.0
1500.370972 148.0
