>compound (4R)-4-[(5S,8R,9S,10S,13R,14S,17R)-10,13-dimethyl-3,7,12-trioxo-1,2,4,5,6,8,9,11,14,15,16,17-dodecahydrocyclopenta[a]phenanthren-17-yl]pentanoic acid
>formula C24H34O5
>ionization [M+H]+
>parentmass 403.2479006400905
#inchi InChI=1S/C24H34O5/c1-13(4-7-21(28)29)16-5-6-17-22-18(12-20(27)24(16,17)3)23(2)9-8-15(25)10-14(23)11-19(22)26/h13-14,16-18,22H,4-12H2,1-3H3,(H,28,29)/t13-,14+,16-,17+,18+,22+,23+,24-/m1/s1
#inchikey OHXPGWPVLFPUSM
#Ion_Source LC-ESI
#Instrument qTof
#Compound_Source Commercial
#PI Dorrestein
#Data_Collector Garg_Neha
#Scan -1
#Precursor_MZ 403.248
#ExactMass 402.241
#Charge 1
#CAS_Number N/A
#Pubmed_ID N/A
#Smiles C[C@H](CCC(=O)O)[C@H]1CC[C@H]2[C@H]3[C@H](CC(=O)[C@]12C)[C@@]4(C)CCC(=O)C[C@H]4CC3=O
#INCHI_AUX N/A
#Library_Class 1
#SpectrumID CCMSLIB00000079041
#IonMode Positive
#UpdateWorkflowName UPDATE-SINGLE-ANNOTATED-GOLD
#LibraryQualityString Gold
#TaskID 278b19f5865741e282cec7349aa7e7a1
##Scan# 1270
#SpectrumFile NCP003432_A2_B11_BC8_01_15722.mzXML
#LibraryName NIHcollectionI_05062014.mgf
#MQScore -1
#Organism NIHcollectionI_05062014
#TIC_Query 0
#RT_Query -1
#MZErrorPPM -1
#SharedPeaks 0
#MassDiff 0
#LibMZ -1
#SpecMZ 403.248
#SpecCharge 0
#internalFilename spec-00000.mgf

>collision 10
45.039478 184.0
56.673309 192.0
57.120693 216.0
57.20496 176.0
58.33498 188.0
64.774071 168.0
69.265617 196.0
70.819702 144.0
74.358398 164.0
78.379326 156.0
80.044403 148.0
80.445557 232.0
85.64859 168.0
89.332596 224.0
91.060234 148.0
93.071121 480.0
94.074181 176.0
95.080681 144.0
95.100082 220.0
95.204926 172.0
99.042267 188.0
101.039978 184.0
101.42646 156.0
102.268059 208.0
104.443192 204.0
105.070808 364.0
107.082527 156.0
107.894508 248.0
109.06691 180.0
109.098343 152.0
110.067802 176.0
111.078651 144.0
115.052956 168.0
115.193893 200.0
117.073837 136.0
119.089615 196.0
119.290497 140.0
121.062149 340.0
123.080803 140.0
123.120552 208.0
129.071793 172.0
130.075439 144.0
130.466156 156.0
131.0867 612.0
131.112579 168.0
133.06897 264.0
133.100845 256.0
135.079041 276.0
135.121857 168.0
137.091553 152.0
139.421707 184.0
139.511017 160.0
141.336487 140.0
143.086365 324.0
144.094559 176.0
145.061386 152.0
145.103027 832.0
145.990555 140.0
146.109833 312.0
147.043335 160.0
147.117188 756.0
148.086624 152.0
148.121704 152.0
149.095871 308.0
149.123505 336.0
150.102448 152.0
150.253662 156.0
154.088562 160.0
155.046158 156.0
155.086548 300.0
155.32634 148.0
157.100998 464.0
157.187286 184.0
157.43692 188.0
157.759232 188.0
158.006805 160.0
158.106903 440.0
159.080582 152.0
159.117203 1088.0
161.096649 408.0
161.131851 512.0
163.109344 248.0
165.092056 180.0
167.111511 208.0
167.149368 176.0
167.803589 180.0
169.069275 152.0
169.10379 612.0
169.76355 172.0
170.111221 172.0
171.116455 600.0
171.177185 184.0
173.096466 600.0
173.134232 300.0
174.187485 204.0
175.113922 360.0
177.868469 168.0
178.309372 180.0
179.088913 192.0
180.115829 172.0
181.104797 352.0
181.671082 144.0
182.10701 192.0
183.074097 140.0
183.118439 464.0
183.22493 140.0
184.115051 176.0
184.496033 184.0
185.106522 176.0
185.133316 588.0
186.101364 172.0
186.136505 176.0
187.117111 152.0
187.146561 156.0
188.079041 176.0
189.123077 156.0
191.085754 152.0
191.104492 176.0
193.121613 304.0
194.326065 164.0
194.531418 152.0
195.118195 784.0
195.470825 160.0
196.120865 468.0
197.093399 164.0
197.134033 1184.0
198.473602 176.0
199.108582 332.0
199.146118 472.0
200.12854 168.0
200.148254 144.0
201.044662 224.0
201.124619 132.0
205.096832 172.0
205.127823 232.0
206.107819 216.0
207.114258 276.0
208.12291 372.0
209.130997 620.0
210.098648 160.0
210.139359 304.0
210.49118 168.0
211.112762 540.0
211.14827 1116.0
212.115311 172.0
212.150528 400.0
213.128662 504.0
214.133575 160.0
214.171799 132.0
215.146881 320.0
215.179306 136.0
216.141647 152.0
219.124268 164.0
220.126114 120.0
221.131088 448.0
222.136078 428.0
223.110886 436.0
223.145889 248.0
223.278137 144.0
224.116638 200.0
224.146454 192.0
225.098938 160.0
225.126068 524.0
225.166428 156.0
226.133377 172.0
226.163239 140.0
227.144684 1000.0
228.145203 292.0
229.122406 156.0
229.1604 276.0
231.110703 144.0
231.138107 144.0
231.181686 200.0
232.128799 164.0
232.157578 192.0
232.219437 148.0
233.134705 240.0
234.14444 196.0
234.764954 144.0
235.149139 512.0
236.1642 172.0
237.142212 132.0
237.165787 292.0
239.146667 604.0
239.176788 192.0
241.122345 1000.0
241.154236 140.0
242.127014 356.0
243.138733 548.0
244.14035 400.0
245.153503 296.0
245.447311 148.0
247.14592 408.0
248.154343 368.0
249.166534 664.0
250.17012 328.0
250.909134 204.0
251.141647 748.0
251.178055 260.0
252.150452 140.0
254.135117 172.0
255.140533 324.0
256.135284 164.0
257.151794 700.0
258.116638 160.0
258.154602 276.0
259.137024 292.0
260.143829 168.0
261.134338 180.0
261.162842 556.0
262.176453 320.0
263.136475 124.0
263.179626 824.0
263.43576 144.0
263.752441 212.0
264.148346 116.0
264.182892 476.0
265.158386 160.0
265.231659 184.0
266.542786 172.0
267.139313 152.0
267.172729 136.0
269.150787 216.0
271.149628 196.0
272.167572 156.0
273.159851 236.0
274.173126 140.0
275.140625 168.0
275.172241 116.0
276.145142 152.0
277.160645 264.0
279.177429 640.0
279.206451 164.0
281.187775 404.0
282.147217 176.0
283.16626 124.0
284.165375 168.0
285.169769 164.0
286.200165 184.0
287.143707 148.0
287.200043 116.0
288.198761 168.0
289.163757 132.0
289.188782 232.0
290.199738 272.0
291.174377 680.0
292.180756 268.0
293.187805 240.0
293.229431 112.0
294.162201 144.0
294.19812 172.0
295.106049 336.0
295.164032 288.0
295.199219 156.0
296.110352 304.0
296.176483 120.0
297.182678 264.0
298.193695 120.0
299.193024 144.0
302.164459 248.0
302.223297 172.0
303.208862 988.0
304.211487 316.0
305.155304 148.0
305.183228 428.0
306.203857 264.0
307.167053 280.0
307.206757 408.0
308.179901 128.0
308.221191 168.0
308.780609 148.0
309.18338 652.0
310.190338 296.0
311.17392 192.0
311.205505 152.0
312.162933 148.0
313.193756 252.0
313.226257 184.0
321.222076 2364.0
322.077454 184.0
322.220215 900.0
323.230865 236.0
324.195648 264.0
324.244415 136.0
325.219238 344.0
327.2034 184.0
331.207672 864.0
332.209045 340.0
335.221527 140.0
335.64801 156.0
337.22464 132.0
338.223602 152.0
339.232605 5904.0
339.297241 180.0
339.777344 140.0
340.235657 1920.0
341.242889 276.0
343.238617 120.0
343.902405 172.0
349.159729 196.0
349.216888 3892.0
350.218842 1932.0
351.228912 184.0
352.244965 120.0
352.552216 172.0
357.2453 208.0
363.245239 160.0
365.996765 144.0
366.833282 168.0
367.008392 168.0
367.226898 10644.0
367.387878 176.0
368.230408 2616.0
368.334564 144.0
368.501343 128.0
369.233643 508.0
369.477539 156.0
384.216644 296.0
384.536621 168.0
384.610779 176.0
384.648895 156.0
384.837189 156.0
385.098816 196.0
385.136353 184.0
385.237488 12208.0
385.666443 124.0
386.241974 2548.0
387.244263 400.0
387.559448 156.0
388.238281 176.0
388.64624 112.0
388.708313 156.0
388.737427 124.0
390.657043 188.0
398.663605 140.0
401.213318 128.0
402.194672 168.0
402.251038 132.0
403.245422 456.0
404.197327 128.0
404.254456 316.0
404.353973 128.0
405.92337 116.0
406.153503 152.0
666.121521 160.0
1379.217651 140.0
1431.01416 168.0
1568.577881 156.0
1788.466919 148.0
1860.778198 140.0
1998.847168 160.0
