>compound Haloperidol
>formula C21H23ClFNO2
>ionization [M+H]+
>parentmass 376.1474113280906
#inchi InChI=1S/C21H23ClFNO2/c22-18-7-5-17(6-8-18)21(26)11-14-24(15-12-21)13-1-2-20(25)16-3-9-19(23)10-4-16/h3-10,26H,1-2,11-15H2
#inchikey LNEPOXFFQSENCJ
#Ion_Source LC-ESI
#Instrument qTof
#Compound_Source Commercial
#PI Dorrestein
#Data_Collector Garg_Neha
#Scan -1
#Precursor_MZ 376.147
#ExactMass 375.14
#Charge 1
#CAS_Number N/A
#Pubmed_ID N/A
#Smiles OC1(CCN(CCCC(=O)c2ccc(F)cc2)CC1)c3ccc(Cl)cc3
#INCHI_AUX N/A
#Library_Class 1
#SpectrumID CCMSLIB00000079074
#IonMode Positive
#UpdateWorkflowName UPDATE-SINGLE-ANNOTATED-GOLD
#LibraryQualityString Gold
#TaskID 278b19f5865741e282cec7349aa7e7a1
##Scan# 1154
#SpectrumFile NCP003432_E2_F11_BD2_01_15724.mzXML
#LibraryName NIHcollectionI_05062014.mgf
#MQScore -1
#Organism NIHcollectionI_05062014
#TIC_Query 0
#RT_Query -1
#MZErrorPPM -1
#SharedPeaks 0
#MassDiff 0
#LibMZ -1
#SpecMZ 376.147
#SpecCharge 0
#internalFilename spec-00000.mgf

>collision 10
44.945553 244.0
45.191891 172.0
45.466595 228.0
45.841797 180.0
46.761364 148.0
46.79948 160.0
48.002575 152.0
48.433777 240.0
49.1665 188.0
50.155308 208.0
50.707951 152.0
50.988964 292.0
51.220882 148.0
52.330772 148.0
52.388382 140.0
52.696041 188.0
52.818554 212.0
53.430649 212.0
53.843246 212.0
54.272007 148.0
54.800526 240.0
55.832897 144.0
55.889423 160.0
55.959377 164.0
56.168015 148.0
56.336697 168.0
56.514606 152.0
57.668045 200.0
57.798103 156.0
58.700397 164.0
58.944633 140.0
59.557442 160.0
59.920486 164.0
59.954388 144.0
59.989838 140.0
60.128658 196.0
60.145634 156.0
60.174965 144.0
61.069111 140.0
61.087776 180.0
62.162712 160.0
62.908749 168.0
63.210621 184.0
63.68623 172.0
63.845165 140.0
64.069595 176.0
64.264099 148.0
64.38063 240.0
65.896988 228.0
66.045715 140.0
66.180038 176.0
66.333939 176.0
66.424751 172.0
66.570824 164.0
67.442444 152.0
67.47187 164.0
67.54055 156.0
68.124107 140.0
68.189835 188.0
68.227646 176.0
68.833969 208.0
68.847183 196.0
69.258621 208.0
69.391579 140.0
69.45459 148.0
70.520218 196.0
70.908516 148.0
71.356705 140.0
71.531662 180.0
71.595787 140.0
71.716949 228.0
72.093307 180.0
72.223488 176.0
73.153374 156.0
73.357796 212.0
73.688873 184.0
75.90934 168.0
76.112358 208.0
76.257248 148.0
76.513992 180.0
77.119293 196.0
79.156563 140.0
79.223869 140.0
79.811325 196.0
80.438431 184.0
81.337021 172.0
81.467453 208.0
82.439262 220.0
82.833046 192.0
83.40345 156.0
85.231003 148.0
85.308189 232.0
85.945717 176.0
86.098633 144.0
86.139267 204.0
86.35923 212.0
86.583176 184.0
87.744522 208.0
88.312202 228.0
88.456276 144.0
88.529297 192.0
88.871368 204.0
90.060211 144.0
90.14254 200.0
90.252968 232.0
91.884483 248.0
92.499825 176.0
92.595558 164.0
92.618546 216.0
92.633873 196.0
92.777596 164.0
92.942535 148.0
93.240181 128.0
93.409386 196.0
93.576813 188.0
94.538071 188.0
94.830505 144.0
95.028374 236.0
95.05159 148.0
95.094284 204.0
96.032074 196.0
96.059387 172.0
96.080841 140.0
96.575058 160.0
98.560631 200.0
98.584343 176.0
98.845367 176.0
99.03344 172.0
99.170151 152.0
99.54908 156.0
99.82132 172.0
100.560417 156.0
101.66716 208.0
102.008598 148.0
102.022675 156.0
102.171494 140.0
102.983849 188.0
103.15358 188.0
103.882576 152.0
104.809662 152.0
105.276787 208.0
105.524033 260.0
105.632416 164.0
107.427811 152.0
108.511482 152.0
108.656662 188.0
108.720985 168.0
109.043976 480.0
109.323647 168.0
110.023979 176.0
110.04747 176.0
110.929794 180.0
111.467079 148.0
112.309189 156.0
112.364037 220.0
112.435776 172.0
112.518097 172.0
112.902664 176.0
113.039589 332.0
113.487099 172.0
113.512543 180.0
114.0858 160.0
114.788414 180.0
115.379837 196.0
115.735001 160.0
116.260178 216.0
117.072784 176.0
118.533073 172.0
119.181854 188.0
121.099403 184.0
121.303185 216.0
122.098007 168.0
122.124619 196.0
122.625336 284.0
122.885864 180.0
122.9674 136.0
123.025085 70108.0
123.075363 152.0
123.109718 180.0
123.251289 264.0
123.359299 280.0
123.395561 108.0
123.582794 240.0
123.849884 192.0
123.968781 144.0
124.028229 3888.0
124.915245 124.0
125.018082 180.0
125.055336 120.0
125.744209 160.0
125.983681 204.0
126.184822 156.0
126.489059 164.0
128.358292 160.0
128.913589 176.0
130.084549 204.0
130.53894 188.0
132.062378 176.0
133.040817 148.0
133.206161 164.0
133.222244 160.0
133.926117 204.0
133.997528 196.0
134.232635 164.0
135.059372 376.0
135.979248 144.0
136.223053 144.0
137.017563 280.0
137.034973 216.0
137.079239 168.0
138.349823 168.0
141.67746 164.0
143.084686 160.0
143.140518 168.0
143.307251 180.0
143.531296 148.0
147.062592 668.0
147.364532 168.0
148.5047 168.0
149.075333 168.0
150.666275 172.0
151.135696 140.0
151.338852 164.0
154.979294 156.0
155.743362 196.0
155.853348 132.0
157.134918 240.0
160.274048 192.0
160.854095 152.0
162.742691 212.0
163.055923 928.0
163.739517 180.0
164.065659 264.0
164.556381 116.0
164.586136 188.0
164.609116 220.0
164.724884 172.0
164.785995 112.0
164.852722 132.0
164.874786 148.0
164.925903 156.0
164.96907 248.0
164.998489 132.0
165.019287 352.0
165.07225 120444.0
165.149429 128.0
165.248993 208.0
165.341568 108.0
165.39769 116.0
165.413147 156.0
165.434418 176.0
165.466156 188.0
165.49144 228.0
165.542358 128.0
165.993484 100.0
166.075317 11352.0
166.111923 112.0
166.547821 172.0
166.849854 104.0
166.914185 136.0
166.948746 188.0
167.045105 156.0
167.078262 788.0
167.190033 132.0
167.240555 104.0
167.285431 140.0
167.315781 224.0
167.386963 124.0
167.414536 148.0
167.536591 124.0
167.924957 152.0
169.134018 176.0
171.07048 196.0
173.053436 332.0
173.98082 184.0
175.023849 148.0
178.750854 228.0
179.206161 176.0
179.5047 156.0
182.049561 200.0
187.296524 176.0
187.877136 156.0
189.052032 152.0
192.060074 176.0
192.123886 192.0
193.074066 184.0
194.0737 724.0
194.097107 1328.0
195.537659 156.0
196.083633 396.0
196.552017 212.0
198.451202 160.0
203.629471 248.0
204.114777 108.0
206.097565 4040.0
206.974533 176.0
207.10289 748.0
208.098495 148.0
212.083923 296.0
213.243347 160.0
216.759918 144.0
217.067703 196.0
220.757446 144.0
221.094696 140.0
221.204208 148.0
222.131699 160.0
223.287109 140.0
227.2901 152.0
227.34111 164.0
229.555145 164.0
233.440323 284.0
236.310593 192.0
236.628891 208.0
236.968842 176.0
237.47464 140.0
237.89502 160.0
239.460098 140.0
239.500137 236.0
240.962341 140.0
243.198135 192.0
247.177841 232.0
249.84787 156.0
250.080734 152.0
257.183838 188.0
260.838593 180.0
261.259827 168.0
262.622406 156.0
262.855621 108.0
263.293701 144.0
264.1763 248.0
267.310242 172.0
268.877747 188.0
271.576904 152.0
272.492767 148.0
277.483002 192.0
282.217468 140.0
283.888367 212.0
285.581879 188.0
285.648285 148.0
289.062592 208.0
292.168396 284.0
296.044525 212.0
299.899231 164.0
300.716675 176.0
302.219879 140.0
302.642151 148.0
302.901886 160.0
304.605042 176.0
305.599335 164.0
306.724152 172.0
307.82663 204.0
308.868103 152.0
312.287933 148.0
313.414429 148.0
314.910187 216.0
316.076782 148.0
318.65802 252.0
319.657135 148.0
323.343536 204.0
324.145721 144.0
324.589722 132.0
327.12384 116.0
331.659973 152.0
336.11499 188.0
339.505981 180.0
341.581146 176.0
341.868103 200.0
342.134735 136.0
343.65155 156.0
343.703186 144.0
343.884003 168.0
344.977356 144.0
346.624329 156.0
349.048248 172.0
355.101807 152.0
356.705078 160.0
358.093079 288.0
358.136993 12832.0
359.141144 3300.0
360.073517 168.0
360.13446 2988.0
360.313263 212.0
360.509857 144.0
361.135406 512.0
361.403107 128.0
361.963348 140.0
362.051422 156.0
362.080688 176.0
363.036713 148.0
363.074646 168.0
363.852509 140.0
365.311798 144.0
367.075195 152.0
367.948944 144.0
368.277344 148.0
370.553436 144.0
371.899414 144.0
371.974304 140.0
372.771179 180.0
373.283173 104.0
373.482422 172.0
373.690155 396.0
374.08078 128.0
374.173615 188.0
374.480774 116.0
374.654663 152.0
374.729675 180.0
374.95694 144.0
375.034119 156.0
375.187561 164.0
375.22287 196.0
375.358582 120.0
375.437531 132.0
375.55896 96.0
375.605988 180.0
375.702209 172.0
375.732269 144.0
375.747681 176.0
375.802551 224.0
375.88028 128.0
375.937653 156.0
376.032135 336.0
376.085358 300.0
376.149536 174708.0
376.272095 280.0
376.432831 288.0
376.504272 272.0
376.556671 296.0
376.615631 132.0
376.697723 208.0
376.73291 308.0
376.784302 1464.0
376.911682 196.0
377.051483 128.0
377.099915 148.0
377.151917 36804.0
377.283508 100.0
377.361969 192.0
377.42511 176.0
377.488342 136.0
377.745087 136.0
377.825317 256.0
377.854736 224.0
377.923157 96.0
378.029388 116.0
378.146851 57692.0
378.327759 176.0
378.447449 160.0
378.589752 204.0
378.637421 140.0
378.782043 140.0
378.872528 96.0
378.970276 168.0
379.040131 120.0
379.149109 8500.0
379.239288 416.0
379.2836 136.0
379.338074 228.0
379.390594 200.0
379.425323 164.0
379.484772 136.0
379.512238 332.0
379.55838 128.0
379.598022 160.0
379.67395 172.0
379.719116 264.0
379.747284 188.0
379.777771 148.0
379.831177 108.0
380.03598 108.0
380.087463 648.0
380.14386 476.0
380.2052 108.0
380.238037 196.0
380.508972 96.0
380.688049 96.0
380.721405 148.0
380.904938 124.0
380.943848 176.0
381.067535 96.0
381.35434 96.0
381.394745 96.0
381.462433 204.0
381.496979 144.0
381.680725 244.0
381.891205 248.0
382.139954 96.0
385.836151 120.0
388.142548 140.0
388.178833 140.0
393.166962 140.0
396.04126 164.0
431.6716 172.0
473.450226 144.0
530.225281 180.0
576.281067 128.0
1023.280823 192.0
1039.516113 140.0
1042.21936 140.0
1072.754395 168.0
1087.261719 220.0
1112.894043 160.0
1171.414917 188.0
1186.839844 184.0
1195.901001 220.0
1226.488403 240.0
1278.674438 160.0
1297.109253 152.0
1319.555664 176.0
1331.46106 180.0
1355.380859 176.0
1370.612915 156.0
1436.787476 220.0
1457.411255 156.0
1483.918945 184.0
1484.60144 200.0
1497.689819 152.0
1540.251099 148.0
1545.355957 148.0
1556.00708 156.0
1564.332275 192.0
1575.767456 208.0
1611.400879 204.0
1613.510864 176.0
1617.118408 160.0
1632.216309 172.0
1636.416382 180.0
1637.020264 188.0
1640.863647 156.0
1646.689697 160.0
1647.497437 252.0
1648.192261 212.0
1652.946777 144.0
1653.812744 180.0
1665.114868 220.0
1665.984009 200.0
1670.154053 140.0
1692.146606 144.0
1695.513184 284.0
1698.563232 180.0
1703.307739 156.0
1703.463745 184.0
1706.932007 160.0
1718.636719 228.0
1718.71106 168.0
1723.343018 140.0
1724.648804 240.0
1726.062378 156.0
1729.7771 192.0
1731.391602 196.0
1733.189209 172.0
1739.104004 192.0
1763.305542 144.0
1765.437378 148.0
1772.326416 160.0
1818.845825 144.0
1821.928345 280.0
1824.596924 184.0
1825.744751 148.0
1829.667358 144.0
1832.418213 160.0
1832.886841 204.0
1838.292969 172.0
1849.394653 168.0
1897.671021 176.0
1900.508545 196.0
1905.351929 164.0
1912.839355 152.0
1918.247559 140.0
1926.844604 224.0
1927.377563 180.0
1942.94458 160.0
1948.484253 172.0
1952.826782 160.0
1957.17395 152.0
1971.179443 148.0
1973.824341 160.0
1980.249146 212.0
1991.086914 196.0
1992.454834 256.0
1995.414307 160.0
1996.614746 196.0
2000.182495 176.0
2001.152832 168.0
2002.835938 176.0
