>compound Bisoprolol
>formula C18H31NO4 
>ionization [M+H]+
>parentmass 326.233246
#inchi InChI=1S/C18H31NO4/c1-14(2)19-11-17(20)13-23-18-7-5-16(6-8-18)12-21-9-10-22-15(3)4/h5-8,14-15,17,19-20H,9-13H2,1-4H3
#inchikey VHYCDWMUTMEGQY
#Ion_Source LC-ESI
#Instrument qTof
#Compound_Source Isolated
#PI Sirenas
#Data_Collector Ed Esquenazi 
#Scan -1
#Precursor_MZ 326.233
#ExactMass 0.0
#Charge 1
#CAS_Number N/A
#Pubmed_ID N/A
#Smiles N/A
#INCHI_AUX N/A
#Library_Class 3
#SpectrumID CCMSLIB00000004932
#IonMode Positive
#UpdateWorkflowName UPDATE-SINGLE-ANNOTATED-BRONZE
#LibraryQualityString Bronze
#TaskID d19310cd93df49b68e9fcbec27720eb5
##Scan# 5
#SpectrumFile Bisoprolol.mgf
#LibraryName fda_library.mgf
#MQScore -1
#Organism fda_library
#TIC_Query 0
#RT_Query -1
#MZErrorPPM -1
#SharedPeaks 0
#MassDiff 0
#LibMZ -1
#SpecMZ 326.233
#SpecCharge 0
#internalFilename spec-00000.mgf

>collision 10
100.112785 111.692001
100.267944 3.030711
100.299217 5.581801
100.733734 9.121136
101.083839 28.64879
102.090347 43.263351
103.053467 21.668699
104.4897 4.7102
104.830284 5.833807
105.068062 149.762894
105.344917 6.28827
105.551826 2.810268
105.72226 4.115057
106.368614 5.875307
106.534996 2.490057
106.588127 13.71622
106.683968 8.188802
106.882408 2.272978
107.049225 1789.416992
107.121101 5.51778
107.173813 2.625473
107.276482 2.3125
107.299614 4.220703
107.371399 4.916667
107.390015 2.125
107.524193 2.417411
107.552048 5.796113
107.628082 4.501563
108.002769 17.95858
108.177368 2.125822
108.244675 2.240057
108.399826 6.880208
114.091492 65.829964
114.111031 3.632813
114.50174 5.46875
114.73243 4.411161
114.848465 2.250744
115.054482 31.11549
115.265984 3.571368
115.374367 4.278125
115.396736 4.930804
115.419159 5.28125
115.440994 20.833401
115.460258 8.967155
115.471931 36.119259
115.478966 2.140625
115.48571 14.16043
115.493919 2.125679
115.50193 43.60685
115.521858 61.340649
115.541634 100.123398
115.555008 14.47118
115.567245 28.95833
115.584503 16.91897
115.594528 41.901039
115.610504 59.335579
115.62291 11.52812
115.632317 12.75223
115.64341 63.766788
115.66008 13.74069
115.684242 27.285509
115.705231 57.82774
115.723602 11.69501
115.73185 8.57625
115.742462 8.4375
115.752098 3.758224
115.757751 65.653778
115.777092 16.758711
115.791946 7.576223
115.807816 25.64871
115.828133 27.744761
115.838585 14.87529
115.846474 5.572049
115.854996 22.651751
115.894844 6.400862
115.924789 41.85154
115.938393 9.876946
115.950478 5.76125
115.988594 22.09844
116.08197 23.92634
116.107376 69948.09375
116.236588 12.83575
116.266609 2.555804
116.28038 1.126042
116.406166 36.231602
116.438072 63.148109
116.449745 11.71628
116.456436 42.723259
116.487015 52.860222
116.501511 27.047079
116.542839 5.199136
116.549156 4.230114
116.559555 1.910714
116.569458 22.73094
116.582016 62.880001
116.597198 105.860802
116.614952 29.97508
116.651321 47.846371
116.666527 15.83947
116.684212 20.13442
116.692833 9.546875
116.728134 12.6661
116.745956 25.864281
116.793831 12.06838
116.872963 12.01238
116.9767 18.16597
117.00425 3.952874
117.019669 8.855537
117.039764 12.63993
117.055038 31.769199
117.068962 63.238941
117.142014 7.865785
117.179771 35.82547
117.211952 6.299479
117.223892 7.251981
117.238686 10.57044
117.273735 6.480625
117.292145 7.020011
117.323502 10.81218
117.349525 5.450447
117.379639 11.80556
117.416061 3.975347
117.512047 11.17008
117.536591 5.530869
117.604622 2.793642
117.630989 3.673828
117.752365 7.736607
117.782326 5.304018
117.823959 5.255208
117.836891 5.720238
117.860596 3.515625
117.915237 2.170139
117.944412 4.316332
117.982201 5.111607
118.13356 2.25142
118.355453 5.227273
118.390694 4.25327
118.515617 4.515625
118.629242 5.02694
119.048889 751.062012
119.084358 120.046303
119.117615 6.560268
119.202171 6.3
119.304649 2.170455
119.316063 2.385417
119.426422 8.732314
119.475723 4.921875
119.658325 5.479167
120.13073 1.795037
120.456909 5.953125
120.535179 1.383272
120.653717 3.125
121.039757 6.454102
121.064377 414.235504
121.170311 4.65625
121.200676 4.75024
121.708008 5.625473
121.772011 1.265625
121.833389 4.024698
121.902573 2.264467
122.013985 1.898438
123.045403 7.821747
124.788445 3.001736
129.071121 75.44648
129.15155 5.522321
130.051056 4.111842
130.085373 48.502811
132.051956 15.3331
132.077438 5.185268
132.102722 6.617354
132.161758 2.276401
132.273758 4.005682
132.365799 2.375744
132.453888 4.833333
132.489899 5.750319
132.578796 3.083912
132.706223 5.126926
132.757919 4.125
133.064865 1337.954956
133.099594 37.380169
133.13562 11.06547
133.158615 4.305804
133.171509 5.505435
133.236176 6.407227
133.271912 4.970604
133.30806 2.000822
133.328995 6.407227
133.360275 3.451562
133.37233 2.006696
133.380356 2.795956
133.408524 11.37719
134.060303 7.332237
134.459305 3.30625
135.044983 10.15625
135.079636 47.429451
135.275787 4.317224
135.717438 2.0
137.060226 140.508194
137.407898 4.048828
137.591003 2.280048
139.077911 11.312
143.081177 9.477045
144.07869 28.4133
144.105103 1.041667
144.415512 4.4856
144.938568 4.959375
145.001389 5.127653
145.06456 1249.152954
145.098221 135.486893
145.135483 2.257813
145.19838 5.019631
145.229843 8.623203
145.281174 4.265625
145.290466 10.50231
145.298965 1.765625
145.308395 21.94924
145.359879 6.804114
145.379227 4.658333
145.390137 3.777853
145.404205 7.459375
145.434601 4.360294
145.450485 6.981427
145.483551 3.504536
146.198013 5.859375
146.323975 3.508929
146.37027 4.760417
146.399689 3.458333
146.521729 5.394631
146.681915 7.304405
146.884766 4.250401
147.080139 2137.326904
147.134857 13.32827
147.16684 5.250307
147.20694 13.05
147.255478 2.879849
147.279846 8.780048
147.291397 7.635417
147.317032 5.429018
147.343399 4.633333
147.377594 2.020089
147.432831 3.500284
147.465439 13.55585
147.487808 6.87625
147.50705 9.359879
147.528259 7.970523
147.560028 2.578125
147.606033 2.878125
147.657333 4.548611
147.665253 2.909206
147.737 8.600765
147.779968 10.51531
147.949158 4.548611
148.178268 2.835938
148.236511 7.632893
148.503479 5.158169
148.796143 1.53125
149.060165 12.32065
149.095581 75.695198
149.259094 3.361111
149.548248 7.972826
149.697296 11.89879
150.090805 49.282459
151.130722 5.138393
152.468033 4.271739
152.945007 48.414612
153.114136 1.890625
154.122299 10.78403
154.280258 5.205078
154.946777 77.841293
159.118149 24.38368
159.401749 4.944602
160.157349 1.12642
161.093933 51.732658
161.305679 5.880651
161.379242 4.18421
161.63121 4.399816
161.755066 5.000401
162.090744 1590.139038
162.14563 13.02404
162.246368 5.125332
162.28537 15.6801
162.313446 8.167411
162.346008 3.046875
162.362137 17.00774
162.442459 4.55625
162.461838 3.426042
162.512558 1.908288
162.530289 4.59375
162.599045 2.390625
162.627884 4.631404
162.708099 9.225
162.929703 4.865741
163.075363 645.711975
163.164993 3.430804
163.255753 5.607143
163.329605 3.894631
163.350647 4.627604
163.385178 6.671875
163.415009 4.834821
163.552124 5.740741
163.693298 3.555625
163.788437 10.62723
163.854767 5.686731
163.991119 4.72962
164.130188 1.640625
164.282135 5.548478
164.902832 6.41875
164.945465 10.70868
167.068283 12.56526
167.324036 1.251042
168.921997 3.855114
169.913208 6.316483
170.148407 4.525202
170.913208 26.92779
172.000595 2.911458
175.111694 40.73811
176.417572 4.387601
176.704102 2.511837
178.085953 30.66025
179.051834 4.848958
179.130981 2.543642
179.363586 3.425625
180.101715 452.707886
180.502884 5.761837
180.759659 4.630682
182.132401 1.760817
187.900833 2.416667
189.117096 8.125
191.109863 13.50219
192.135086 43.042599
202.920776 9.838408
203.01442 2.381114
203.034592 10.0217
203.089401 6.383065
204.087921 16.703751
204.110489 2.540179
204.137939 2318.707031
204.204773 31.205179
204.217056 12.09743
204.251266 33.896938
204.294098 13.13816
204.376663 10.38642
204.397614 6.458272
204.424591 2.629261
204.438583 9.642858
204.464432 7.066612
204.490997 6.020432
204.5242 7.250579
204.543991 8.761917
204.57486 5.372936
204.589432 10.24057
204.606461 1.920455
204.812744 1.385817
204.852585 1.258272
204.902374 4.375
204.913727 4.340278
204.958755 6.195503
205.123611 21.97665
207.019318 7.004167
207.099869 11.15607
208.021408 4.200447
210.145798 8.475208
210.502594 5.0
211.959564 6.3375
212.039948 2.34375
212.983307 5.958581
220.847794 8.092863
220.862106 0.791667
220.894226 4.583333
221.124985 6.200447
222.119217 36.875099
222.148483 740.623779
222.2043 2.636837
222.312531 2.816612
222.385849 4.235054
222.451736 6.354167
222.52594 2.389467
222.634842 6.377992
222.873779 2.296875
223.929626 4.146635
231.959259 14.56649
234.339081 11.81099
247.919983 14.64317
248.934174 9.756945
277.974823 2.78125
283.797363 6.795139
284.183258 42.42345
285.179993 21.05476
285.277222 8.428572
290.887665 3.375
306.204407 2.810033
306.342834 4.339286
306.568756 4.528125
308.220032 272.644806
308.538361 4.01392
308.753296 3.472278
308.942719 21.86241
309.614777 4.00327
319.393219 3.90625
319.940582 5.451536
321.076233 8.974506
323.572601 2.34375
324.067047 2.071023
324.127563 3.975625
324.148743 11.17791
324.167145 5.413584
324.189148 13.88953
324.228912 5.761364
324.264526 48.716518
324.304535 7.73
324.326111 18.135269
324.358734 21.38158
324.378937 9.884615
324.400116 23.895321
324.438232 19.68837
324.457916 41.957039
324.482666 15.13905
324.519135 24.225771
324.549377 2.009375
324.581543 13.69786
324.621094 6.998264
324.658051 10.90539
324.706696 7.413352
324.72934 15.21458
324.781403 6.285431
324.804077 66.426903
325.053741 5.378289
325.159851 17.42042
325.180176 9.236608
325.289276 5.691406
325.306763 4.847426
325.603424 7.183824
325.627655 7.956785
325.76297 5.189453
325.873108 8.829395
325.897583 3.280711
325.923401 45.686321
326.029572 26.973101
326.073151 54.64146
326.102814 10.31579
326.129913 19.48317
326.164307 115.232399
326.233246 22929.320312
326.348541 2.5
326.389862 5.188182
326.434479 15.83608
326.472748 28.78964
326.506866 23.772579
326.539612 18.189659
326.60318 64.158997
326.637939 25.01544
326.708801 32.39996
326.734283 27.50008
326.756409 15.97267
326.842102 54.322639
326.885284 77.523804
326.953461 42.277088
326.987274 26.0509
327.00531 48.407089
327.082581 21.484529
327.124084 19.333389
327.180847 27.9408
327.322723 24.96834
327.361633 2.558894
327.400513 9.92378
327.623993 34.97485
327.783875 6.161458
327.936401 6.555008
328.046509 3.59375
328.275574 4.9627
328.35849 6.102196
328.662109 5.635045
328.952393 9.38547
329.235321 3.025
329.490509 3.034091
329.534515 4.185268
329.677917 3.16875
329.791046 2.918403
330.151245 4.65501
330.296661 3.345017
330.792877 23.45676
330.979858 2.445023
331.752441 3.255208
331.81897 4.765625
349.055573 5.793269
352.188904 7.180555
375.591919 5.058681
458.666168 6.465278
496.75589 1.625
564.192017 3.893601
838.358459 4.258929
878.236572 4.265625
884.213318 5.71007
952.809875 5.839534
1031.052246 2.030331
1111.026001 7.320122
1202.844604 2.445023
1436.605591 1.126202
1586.601196 8.195313
