>compound MLS001141218-01!N-[(2-methoxyphenyl)methyl]-2-[(4,8,8-trimethyl-2-oxo-9,10-dihydropyrano[2,3-h]chromen-5-yl)oxy]acetamide
>formula C25H27NO6
>ionization [M+H]+
>parentmass 438.19111403609054
#inchi InChI=1S/C25H27NO6/c1-15-11-22(28)31-24-17-9-10-25(2,3)32-19(17)12-20(23(15)24)30-14-21(27)26-13-16-7-5-6-8-18(16)29-4/h5-8,11-12H,9-10,13-14H2,1-4H3,(H,26,27)
#inchikey JXQFCHPUNIOTFX
#Ion_Source LC-ESI
#Instrument qTof
#Compound_Source NIH Natural Product Library
#PI Dorrestein
#Data_Collector VVP/LMS
#Scan -1
#Precursor_MZ 438.192
#ExactMass 437.184
#Charge 1
#CAS_Number N/A
#Pubmed_ID N/A
#Smiles COc1ccccc1CNC(=O)COc2cc3OC(C)(C)CCc3c4oc(=O)cc(C)c24
#INCHI_AUX N/A
#Library_Class 1
#SpectrumID CCMSLIB00000079792
#IonMode Positive
#UpdateWorkflowName UPDATE-SINGLE-ANNOTATED-GOLD
#LibraryQualityString Gold
#TaskID b1d8e8f6646f4e71acdff9ca3d919d08
##Scan# 2414
#SpectrumFile p1-B11_GB11_01_17895.mzXML
#LibraryName NIH_Natural_Products_Library.mgf
#MQScore -1
#Organism NIH_Natural_Products_Library
#TIC_Query 0
#RT_Query -1
#MZErrorPPM -1
#SharedPeaks 0
#MassDiff 0
#LibMZ -1
#SpecMZ 438.192
#SpecCharge 0
#internalFilename spec-00000.mgf

>collision 10
95.012184 104.0
95.047714 268.0
95.15213 108.0
95.175217 204.0
95.237358 160.0
95.511414 120.0
95.669037 208.0
95.696289 168.0
95.920319 148.0
95.941765 188.0
95.978806 172.0
96.005081 160.0
96.091934 200.0
96.109489 116.0
96.127052 180.0
96.158279 32.0
96.175087 72.0
96.189041 184.0
96.232452 244.0
96.248077 48.0
96.292992 64.0
96.308617 168.0
96.408249 212.0
96.472748 60.0
96.500122 172.0
96.523582 132.0
96.593987 100.0
96.609642 172.0
96.63607 196.0
96.736832 164.0
96.777946 88.0
96.813194 376.0
96.92289 200.0
96.993439 108.0
97.248421 296.0
97.280602 152.0
97.289253 60.0
97.292732 140.0
97.35247 176.0
97.381935 80.0
97.440865 164.0
97.454613 144.0
97.521431 56.0
97.825272 212.0
97.972038 68.0
98.017677 120.0
98.16732 144.0
98.240135 116.0
98.333832 156.0
98.384193 84.0
98.425652 192.0
98.4533 212.0
98.469101 112.0
98.526382 180.0
98.571823 196.0
98.650383 84.0
98.684227 176.0
98.781387 96.0
98.933762 236.0
98.989555 128.0
99.074364 140.0
99.104088 76.0
99.193794 224.0
99.2686 176.0
99.33802 100.0
99.484863 88.0
99.629829 172.0
99.711296 160.0
99.725212 120.0
99.830574 180.0
99.890244 168.0
99.914116 88.0
99.955437 172.0
100.009628 136.0
100.041481 152.0
100.065369 224.0
100.163147 196.0
100.332329 176.0
100.459953 96.0
100.481903 160.0
100.593658 312.0
100.64756 156.0
100.695488 136.0
100.713463 204.0
100.801361 128.0
100.971283 192.0
101.007286 128.0
101.038315 164.0
101.145348 172.0
101.23259 216.0
101.240097 124.0
101.259476 112.0
101.375671 40.0
101.42778 140.0
101.513763 160.0
101.681351 192.0
101.706581 148.0
102.019943 108.0
102.048088 172.0
102.081985 120.0
102.208992 36.0
102.269371 200.0
102.311638 196.0
102.333786 76.0
102.403351 292.0
102.442535 196.0
102.458649 64.0
102.476784 104.0
102.527161 144.0
102.670288 132.0
102.775185 144.0
102.889183 140.0
102.89492 208.0
102.94384 260.0
103.052124 544.0
103.114433 196.0
103.232552 140.0
103.375313 180.0
103.510933 532.0
103.543335 192.0
103.585869 140.0
103.703392 144.0
103.741905 180.0
103.790558 180.0
104.019814 152.0
104.182266 132.0
104.251343 128.0
104.434319 176.0
104.464828 292.0
104.493095 192.0
104.631699 184.0
104.652588 232.0
104.731476 200.0
104.882256 120.0
104.91021 240.0
104.949532 156.0
105.032074 868.0
105.07058 340.0
105.118828 172.0
105.216797 176.0
105.318901 96.0
105.710289 156.0
105.764641 164.0
105.914108 144.0
106.04174 368.0
106.072327 176.0
106.135437 44.0
106.18055 80.0
106.209267 240.0
106.223625 136.0
106.330315 200.0
106.361099 160.0
106.379578 144.0
106.589058 164.0
106.675377 112.0
106.759674 176.0
106.809036 44.0
106.854294 144.0
106.926315 152.0
106.946892 108.0
107.050117 856.0
107.08036 232.0
107.129128 176.0
107.144577 172.0
107.33213 172.0
107.402245 208.0
107.530167 96.0
107.65403 80.0
107.746979 128.0
107.829636 136.0
107.848236 212.0
108.02813 148.0
108.055519 188.0
108.090195 368.0
108.2061 172.0
108.295143 176.0
108.479782 184.0
108.508575 60.0
108.527237 56.0
108.556267 48.0
108.631638 164.0
108.745056 76.0
108.786568 48.0
108.85508 176.0
109.027054 656.0
109.065186 12368.0
109.108566 84.0
109.185493 208.0
109.212532 112.0
109.453941 80.0
109.491425 140.0
109.510162 132.0
109.590889 144.0
109.610161 68.0
109.624748 224.0
109.638756 72.0
109.731049 80.0
109.782196 204.0
109.845749 136.0
109.874046 240.0
110.047974 168.0
110.069672 1052.0
110.133797 144.0
110.16304 168.0
110.183929 144.0
110.221535 216.0
110.238251 96.0
110.294678 96.0
110.326035 188.0
110.4515 216.0
110.562386 144.0
110.597969 192.0
110.681709 184.0
110.723587 40.0
110.83461 48.0
110.908836 240.0
111.044243 116.0
111.067314 156.0
111.218384 172.0
111.277161 160.0
111.4683 112.0
111.567078 172.0
111.594414 140.0
111.670113 140.0
111.722702 116.0
111.852112 88.0
112.078506 148.0
112.183884 40.0
112.278763 160.0
112.295639 84.0
112.323059 100.0
112.377907 260.0
112.417992 156.0
112.434875 160.0
112.483795 180.0
112.550056 256.0
112.688263 172.0
112.882721 148.0
112.922905 156.0
113.024445 148.0
113.151436 144.0
113.200134 148.0
113.214958 172.0
113.255196 140.0
113.439545 96.0
113.460739 172.0
113.513748 128.0
113.537079 168.0
113.564644 220.0
113.590057 196.0
113.618996 232.0
113.65374 28.0
113.893631 180.0
113.917 172.0
113.965858 68.0
114.065742 168.0
114.091255 148.0
114.114639 160.0
114.161415 292.0
114.295425 168.0
114.374168 200.0
114.476357 100.0
114.555161 180.0
114.595642 168.0
114.631866 148.0
114.657433 124.0
114.799141 280.0
114.853584 120.0
115.010269 188.0
115.053268 256.0
115.135307 96.0
115.261337 204.0
115.299805 172.0
115.372475 200.0
115.39386 240.0
115.509834 172.0
115.684807 180.0
115.798286 172.0
115.836838 132.0
116.014702 132.0
116.07473 188.0
116.091888 72.0
116.235611 196.0
116.250633 148.0
116.336479 228.0
116.405182 244.0
116.44384 136.0
116.463173 188.0
116.585632 248.0
116.723206 140.0
116.764061 100.0
117.030144 252.0
117.063194 148.0
117.145035 180.0
117.211823 140.0
117.267853 156.0
117.310959 132.0
117.434036 152.0
117.448669 144.0
117.50721 140.0
117.528786 60.0
117.546043 196.0
117.608635 144.0
117.68203 176.0
117.731689 144.0
117.826729 376.0
117.999626 132.0
118.063393 316.0
118.163994 156.0
118.24189 220.0
118.265701 188.0
118.326309 236.0
118.417259 156.0
118.451912 208.0
118.50174 116.0
118.705482 148.0
118.807419 156.0
119.04834 116.0
119.226479 232.0
119.276466 84.0
119.309074 132.0
119.330811 172.0
119.402573 120.0
119.54615 124.0
119.707237 160.0
119.770393 48.0
119.82193 192.0
119.837921 136.0
119.927269 204.0
119.986122 176.0
120.015419 220.0
120.055069 168.0
120.061081 164.0
120.156235 116.0
120.278435 184.0
120.348297 64.0
120.424721 152.0
120.44001 232.0
120.485489 196.0
120.523026 180.0
120.544876 64.0
120.562363 124.0
120.586403 76.0
120.616997 192.0
120.638481 208.0
120.667282 240.0
120.699478 384.0
120.721939 172.0
120.776619 88.0
120.798492 240.0
120.819862 224.0
120.839729 240.0
120.865341 216.0
120.909729 228.0
120.938095 180.0
120.957748 164.0
120.975792 172.0
121.00177 328.0
121.023109 348.0
121.065895 152176.0
121.130905 56.0
121.145401 116.0
121.174461 80.0
121.192444 76.0
121.222832 88.0
121.236496 104.0
121.27726 188.0
121.314117 60.0
121.351288 76.0
121.374878 100.0
121.405334 148.0
121.425377 1824.0
121.470879 112.0
121.512657 76.0
121.529526 64.0
121.552155 92.0
121.566338 60.0
121.583298 184.0
121.616714 124.0
121.640465 64.0
121.682938 68.0
121.719772 132.0
121.748032 108.0
121.792351 68.0
121.810135 128.0
121.850754 36.0
121.866135 108.0
121.908745 184.0
121.931358 88.0
121.949203 188.0
121.972717 104.0
122.036583 1020.0
122.068489 14020.0
122.135109 184.0
122.184929 92.0
122.212944 184.0
122.277588 72.0
122.316963 64.0
122.387405 64.0
122.43026 156.0
122.49202 80.0
122.509781 92.0
122.54599 52.0
122.596672 32.0
122.639542 124.0
122.724518 156.0
122.75016 68.0
122.784058 144.0
122.803902 216.0
122.827065 96.0
122.853218 112.0
122.872086 128.0
122.879639 72.0
122.884491 128.0
122.924431 120.0
122.946724 280.0
122.981468 192.0
122.996223 108.0
123.021347 212.0
123.043633 208.0
123.07103 976.0
123.105087 220.0
123.119965 132.0
123.143791 40.0
123.202644 176.0
123.252037 136.0
123.438972 196.0
123.479729 60.0
123.563782 72.0
123.592545 56.0
123.6576 176.0
123.689919 28.0
123.749695 32.0
123.803734 148.0
123.867065 144.0
124.003242 168.0
124.060959 144.0
124.084236 188.0
124.119713 204.0
124.146317 60.0
124.230606 56.0
124.274971 256.0
124.292725 84.0
124.534523 100.0
124.579124 240.0
125.01268 92.0
125.150688 104.0
125.418015 188.0
125.538399 84.0
125.576309 88.0
125.663307 44.0
125.68116 220.0
125.812836 160.0
125.832932 168.0
125.857491 260.0
126.859772 148.0
127.018982 132.0
127.517433 120.0
127.583115 108.0
127.641075 132.0
127.6838 160.0
127.763618 148.0
127.897537 60.0
127.996597 132.0
128.063782 192.0
128.402222 72.0
128.424774 84.0
128.454102 92.0
128.55336 152.0
128.695572 232.0
128.772705 200.0
128.813004 132.0
128.835602 124.0
128.913376 132.0
128.982483 152.0
129.023224 160.0
129.06839 168.0
129.24028 92.0
129.260651 116.0
129.491562 188.0
129.550446 112.0
129.679611 48.0
129.736267 148.0
129.84964 148.0
129.98349 112.0
130.062515 336.0
130.158264 104.0
130.265015 144.0
130.291809 120.0
130.369522 184.0
130.414978 132.0
130.494537 204.0
130.630981 52.0
130.708344 124.0
131.046692 320.0
131.154709 160.0
131.252731 88.0
131.305176 56.0
131.339386 144.0
131.846237 124.0
132.111465 84.0
132.470871 220.0
132.507523 152.0
132.578552 204.0
132.855988 64.0
133.068069 252.0
133.289917 188.0
133.846558 64.0
134.036224 436.0
134.066483 280.0
134.086136 168.0
134.364319 136.0
134.397446 60.0
134.510529 172.0
134.545151 80.0
134.667526 144.0
134.699875 164.0
134.803833 132.0
134.877792 116.0
134.92865 140.0
134.970261 188.0
134.988754 44.0
135.043823 464.0
135.081268 100.0
135.203903 256.0
135.48407 76.0
135.739014 256.0
136.074585 828.0
136.291443 180.0
136.456467 252.0
136.509491 124.0
136.542496 180.0
136.570404 152.0
136.744904 316.0
136.86937 164.0
136.912537 144.0
136.980072 248.0
136.998245 204.0
137.031281 200.0
137.060242 34444.0
137.114319 84.0
137.13269 80.0
137.152786 32.0
137.187469 56.0
137.20845 52.0
137.269073 44.0
137.378693 32.0
137.465866 124.0
137.52652 80.0
137.568893 196.0
137.602356 76.0
137.626068 80.0
137.657211 48.0
137.693787 160.0
137.735825 112.0
137.783371 92.0
137.907104 92.0
137.925095 76.0
137.962784 100.0
138.062988 2992.0
138.191681 56.0
138.243164 112.0
138.282944 100.0
138.385941 64.0
138.463226 108.0
138.549881 68.0
138.627213 156.0
138.760803 72.0
138.995346 64.0
139.066635 288.0
139.105652 84.0
139.145569 204.0
139.26767 92.0
139.349899 124.0
139.41803 292.0
139.653137 80.0
139.716644 92.0
140.015579 108.0
140.067398 204.0
140.159271 196.0
140.444519 120.0
140.486984 112.0
140.730057 176.0
140.753677 32.0
140.970993 204.0
140.999359 112.0
141.34697 116.0
141.377731 164.0
141.503189 48.0
141.557648 152.0
141.728195 156.0
142.007919 92.0
142.11467 36.0
142.470779 156.0
142.70607 204.0
142.877304 48.0
143.501266 96.0
144.054932 92.0
144.085983 212.0
144.341736 180.0
144.430222 68.0
144.468491 56.0
144.777252 156.0
144.832336 28.0
144.882629 100.0
145.002441 188.0
145.436554 116.0
145.494171 156.0
145.604614 36.0
146.003555 172.0
146.058121 288.0
146.133438 140.0
146.160034 148.0
146.181564 28.0
146.482513 48.0
146.552383 40.0
146.583694 44.0
147.055679 152.0
147.064682 108.0
147.317154 144.0
147.832138 236.0
147.974945 180.0
148.051193 228.0
148.076157 1448.0
148.127731 224.0
148.539581 48.0
148.585678 52.0
148.634201 64.0
148.656036 212.0
148.913376 168.0
149.027542 176.0
149.059875 2568.0
149.166077 60.0
149.231705 80.0
149.355728 68.0
149.392212 68.0
150.064316 276.0
150.092468 2116.0
150.135086 36.0
150.198502 152.0
150.29364 112.0
150.471817 72.0
150.632996 156.0
150.943375 36.0
150.997177 48.0
151.036499 184.0
151.09227 424.0
151.136612 84.0
151.169922 52.0
151.594498 136.0
151.73912 144.0
152.045731 108.0
152.276505 132.0
152.411606 124.0
152.696762 208.0
153.248169 108.0
153.368912 132.0
153.405884 120.0
153.817825 168.0
154.163605 52.0
154.504807 152.0
154.524597 204.0
154.603775 48.0
154.680511 148.0
155.056976 160.0
155.607651 172.0
155.719391 44.0
155.78894 36.0
155.928085 220.0
156.079727 84.0
156.175705 168.0
156.467865 164.0
156.51268 136.0
156.599838 188.0
156.777542 208.0
156.831543 108.0
157.063431 156.0
157.772614 64.0
157.87262 112.0
157.992676 44.0
158.057724 136.0
158.092758 152.0
158.293015 96.0
158.601166 148.0
158.653809 132.0
159.046661 544.0
159.238449 68.0
159.560089 172.0
159.814102 104.0
159.914764 76.0
160.044479 136.0
160.075546 468.0
160.177704 140.0
160.388275 52.0
160.907928 140.0
160.991257 232.0
161.022598 224.0
161.058228 624.0
161.339935 68.0
161.375336 148.0
161.410736 108.0
161.661163 148.0
162.058044 156.0
162.076431 212.0
162.144852 176.0
162.350204 132.0
162.46434 136.0
163.037247 468.0
163.075699 140.0
163.498459 124.0
164.301086 116.0
164.375076 28.0
164.45163 108.0
164.850021 176.0
165.079605 228.0
165.182388 104.0
166.525482 120.0
166.749008 188.0
167.021545 124.0
167.049835 188.0
167.265976 84.0
167.381836 200.0
167.459091 52.0
167.636841 176.0
170.062683 148.0
170.275574 176.0
170.56398 128.0
170.636765 196.0
171.043076 188.0
171.232651 144.0
171.77739 340.0
171.845215 92.0
171.991364 152.0
172.176727 144.0
172.210678 64.0
172.291656 108.0
172.647125 128.0
173.621323 108.0
174.06218 92.0
174.091064 180.0
174.14917 156.0
174.309082 84.0
174.690308 80.0
175.010956 196.0
175.041 212.0
175.153595 140.0
175.185196 144.0
175.345932 136.0
175.788971 76.0
176.047104 1856.0
176.106049 188.0
176.148026 92.0
176.343552 188.0
176.499527 60.0
176.682007 172.0
176.957245 152.0
177.052628 2448.0
177.105545 128.0
177.174423 152.0
177.232697 48.0
177.595886 108.0
177.646286 124.0
177.667511 116.0
177.694031 108.0
177.739136 100.0
177.773636 136.0
177.803436 176.0
177.861221 56.0
177.916962 100.0
178.054947 760.0
178.086029 35700.0
178.13472 116.0
178.159958 80.0
178.233017 48.0
178.260681 136.0
178.315399 52.0
178.345856 80.0
178.385712 192.0
178.421982 40.0
178.554825 136.0
178.577377 56.0
178.607864 56.0
178.655746 160.0
179.035324 124.0
179.089737 4924.0
179.145554 148.0
179.16687 116.0
179.201508 180.0
179.265457 80.0
179.31076 104.0
179.356064 116.0
179.379517 100.0
179.404053 84.0
179.452042 136.0
179.481369 64.0
179.505356 112.0
179.566696 44.0
179.801468 52.0
180.090668 408.0
180.175293 80.0
180.218033 172.0
180.307388 100.0
180.340958 100.0
180.413132 140.0
180.442535 140.0
180.611008 76.0
180.651138 64.0
180.680557 80.0
180.937469 32.0
180.97496 140.0
181.202606 156.0
181.240128 48.0
181.328552 224.0
181.441132 160.0
181.690536 32.0
182.254349 60.0
182.391403 120.0
182.42392 184.0
182.79213 96.0
182.999374 48.0
183.155563 212.0
183.233688 176.0
183.420975 136.0
183.743225 132.0
184.156235 180.0
184.215652 104.0
184.867249 172.0
185.056717 188.0
185.810165 104.0
186.173874 128.0
187.039169 460.0
187.065659 108.0
187.335251 156.0
187.53772 92.0
187.64592 136.0
187.714096 104.0
187.880463 92.0
187.956863 200.0
188.045441 188.0
188.071472 112.0
188.109695 84.0
188.281708 100.0
188.448334 76.0
188.765396 128.0
189.055862 1588.0
189.197037 64.0
189.266129 64.0
189.375671 212.0
189.452362 92.0
189.668839 44.0
190.058884 212.0
190.146072 208.0
190.305283 96.0
190.758575 80.0
191.008804 100.0
191.036316 180.0
191.063828 248.0
191.573105 112.0
191.708115 64.0
192.042786 436.0
192.428024 164.0
192.905945 120.0
193.04715 272.0
193.157578 60.0
193.392776 104.0
194.029877 60.0
194.052063 144.0
194.473709 36.0
195.073685 132.0
195.42131 88.0
195.504776 188.0
195.694061 128.0
196.499527 128.0
197.577911 224.0
197.765381 140.0
198.07338 112.0
198.187576 84.0
198.451706 136.0
198.79953 156.0
198.93425 164.0
199.032501 120.0
199.066208 164.0
199.113586 160.0
199.422989 192.0
199.467957 64.0
199.84198 232.0
199.946106 172.0
200.06543 172.0
200.247345 108.0
200.672836 264.0
201.028244 68.0
201.057526 148.0
201.095978 156.0
201.262527 68.0
201.28511 108.0
201.434799 180.0
201.935089 72.0
202.096329 144.0
202.404846 72.0
202.985733 128.0
203.032181 188.0
203.066925 184.0
203.215485 144.0
203.400864 108.0
204.039017 680.0
204.090271 192.0
204.132919 84.0
204.192642 128.0
204.303574 180.0
204.482834 168.0
204.556839 92.0
204.670715 96.0
204.870071 44.0
204.941299 172.0
204.980301 204.0
205.049454 20548.0
205.123688 216.0
205.149353 44.0
205.297607 140.0
205.363525 108.0
205.394577 36.0
205.465897 188.0
205.54007 52.0
205.617126 48.0
205.64566 256.0
205.842636 76.0
205.905472 68.0
205.93689 52.0
206.011154 108.0
206.052963 2376.0
206.15686 44.0
206.376968 36.0
206.396973 156.0
206.525665 56.0
206.588593 120.0
206.691589 80.0
206.79686 176.0
206.866165 68.0
207.003601 36.0
207.057831 64.0
207.190491 80.0
207.464874 48.0
207.545151 148.0
207.611115 60.0
207.763123 52.0
207.791809 48.0
207.820511 64.0
207.840591 120.0
208.021393 72.0
208.245361 224.0
208.403351 108.0
208.463699 120.0
208.76265 56.0
208.932358 68.0
209.401535 104.0
209.737198 88.0
211.61058 192.0
211.743774 96.0
211.905991 32.0
212.790558 80.0
213.092606 152.0
213.700256 136.0
213.845749 156.0
214.087387 48.0
214.402008 76.0
214.585648 92.0
214.964828 148.0
215.061142 140.0
215.106079 276.0
215.137024 120.0
215.4086 140.0
215.656967 48.0
216.063583 172.0
216.18924 48.0
216.332642 108.0
216.689926 48.0
216.804199 92.0
216.84523 116.0
216.883331 108.0
217.015259 100.0
217.049728 4524.0
217.087341 164.0
217.120819 180.0
217.194138 52.0
217.534515 68.0
217.722427 68.0
217.92511 84.0
218.052826 412.0
218.180801 144.0
218.345459 32.0
218.421921 92.0
219.062408 676.0
219.998428 180.0
220.084045 104.0
220.163773 132.0
220.609924 32.0
221.103607 220.0
221.260742 56.0
221.302505 192.0
221.805817 144.0
222.14386 132.0
223.094116 80.0
223.216003 100.0
223.468826 60.0
224.779846 160.0
225.472656 128.0
226.951401 128.0
227.029358 160.0
228.038086 60.0
228.06514 148.0
228.116241 148.0
228.624527 128.0
228.823196 160.0
229.048889 160.0
229.639801 76.0
229.841919 60.0
230.052414 176.0
230.294754 88.0
230.651291 52.0
231.044403 128.0
231.098862 164.0
231.126083 252.0
231.398483 68.0
231.498398 124.0
232.060089 140.0
232.078537 96.0
232.107468 184.0
232.626266 88.0
232.7052 112.0
232.750748 40.0
233.046051 140.0
233.118286 136.0
233.309769 40.0
233.400986 156.0
234.274445 184.0
234.311005 80.0
234.859711 32.0
235.096115 196.0
235.108109 96.0
235.116943 140.0
235.415161 116.0
235.800079 144.0
236.023239 168.0
236.307678 68.0
236.381119 104.0
238.610947 100.0
238.970779 156.0
239.084641 104.0
239.796051 140.0
239.99025 184.0
241.203491 160.0
243.09581 108.0
243.300659 48.0
243.322388 68.0
243.493164 212.0
244.030746 96.0
244.055618 136.0
244.105362 136.0
244.939438 120.0
244.964355 44.0
244.998627 64.0
245.04303 4796.0
245.120895 164.0
245.279892 232.0
245.338089 56.0
245.388184 64.0
245.509796 68.0
245.550339 44.0
245.784302 76.0
245.809265 68.0
246.047745 1132.0
246.123886 136.0
247.061172 220.0
247.082062 152.0
247.440811 96.0
247.650604 76.0
247.844833 68.0
247.951385 124.0
248.054092 92.0
248.083023 140.0
248.126907 48.0
248.289963 56.0
248.933273 112.0
252.896103 40.0
253.488327 244.0
253.539017 48.0
254.865433 56.0
255.094254 124.0
256.048767 112.0
256.842377 116.0
257.062531 128.0
257.292328 116.0
257.752228 56.0
257.902435 140.0
258.091522 136.0
259.052368 148.0
259.089172 188.0
259.09787 172.0
259.634491 132.0
259.884705 104.0
260.054779 152.0
260.100189 728.0
260.362976 40.0
260.787079 96.0
261.055786 252.0
261.110901 7504.0
261.195404 28.0
261.224365 40.0
261.26297 72.0
261.330536 72.0
261.414185 88.0
261.436707 136.0
261.777954 104.0
262.071655 1028.0
262.115479 968.0
262.222504 64.0
262.348236 44.0
262.467499 44.0
262.712616 44.0
263.064606 260.0
263.113281 296.0
263.209656 44.0
263.409882 60.0
263.448639 44.0
263.533295 60.0
263.875214 76.0
263.926971 104.0
264.043365 64.0
264.111298 164.0
264.208344 72.0
264.353943 44.0
264.522217 208.0
264.622589 36.0
264.923767 68.0
265.0242 124.0
265.202423 72.0
265.507202 84.0
265.646667 76.0
266.156189 160.0
266.266602 80.0
266.845001 212.0
266.897003 48.0
267.053101 136.0
267.153931 100.0
268.407837 64.0
271.088257 136.0
271.744049 92.0
271.809662 40.0
272.269226 96.0
272.571442 120.0
272.607605 88.0
272.811371 68.0
273.031677 52.0
273.110413 1844.0
273.449493 96.0
273.4758 88.0
273.57785 124.0
273.841278 84.0
273.897247 116.0
274.012543 292.0
274.070862 1440.0
274.110077 356.0
274.174011 104.0
274.236633 36.0
274.338806 68.0
274.53006 52.0
274.784027 48.0
275.071808 472.0
275.122162 148.0
275.619354 68.0
276.085724 620.0
276.611511 40.0
276.952545 96.0
277.099792 252.0
277.884064 32.0
277.996857 36.0
278.096436 112.0
278.212616 88.0
278.886902 204.0
279.105591 200.0
280.128052 184.0
282.290741 80.0
284.317474 68.0
286.449097 100.0
288.125671 156.0
288.619141 76.0
289.664886 224.0
289.800385 120.0
290.58017 60.0
292.476379 84.0
293.709839 20.0
295.051849 112.0
297.655762 44.0
298.250092 80.0
299.788483 108.0
300.119415 100.0
301.106964 1824.0
301.73175 116.0
301.866577 128.0
302.10495 340.0
303.050354 60.0
303.113007 144.0
304.11496 188.0
307.089722 188.0
307.306 200.0
308.752136 80.0
308.864075 36.0
311.082123 140.0
313.459625 104.0
315.16745 132.0
315.768402 56.0
315.958099 88.0
316.116974 756.0
316.274323 40.0
317.131042 164.0
318.234711 128.0
318.554321 196.0
319.314972 144.0
321.816498 76.0
323.088806 60.0
324.553619 120.0
325.111877 348.0
326.114105 184.0
326.374054 196.0
326.953186 44.0
327.457214 52.0
327.626495 28.0
329.548889 116.0
330.133606 1340.0
330.333923 92.0
331.130829 328.0
331.318573 60.0
331.8078 108.0
331.840424 56.0
332.132599 128.0
332.624023 100.0
333.357666 20.0
334.572449 76.0
334.834625 180.0
335.778534 160.0
335.931732 168.0
336.143341 112.0
336.249176 56.0
337.118317 132.0
339.193481 96.0
339.314453 48.0
339.578461 184.0
340.257324 128.0
340.90744 96.0
344.872925 124.0
345.368378 104.0
345.497864 140.0
347.539246 124.0
350.908936 128.0
351.169952 148.0
352.02829 104.0
352.110443 120.0
352.221863 116.0
352.312164 48.0
352.723206 52.0
353.811768 64.0
353.961548 128.0
356.208008 52.0
357.027374 112.0
359.434448 116.0
359.709961 212.0
359.860962 80.0
364.911346 156.0
366.117554 60.0
366.719482 76.0
367.112152 364.0
368.117523 184.0
369.411407 144.0
369.713654 72.0
370.128571 584.0
370.402832 152.0
371.117828 160.0
371.928894 76.0
372.1362 168.0
372.274445 140.0
372.927521 120.0
374.366364 124.0
378.138123 76.0
378.378113 212.0
379.137299 156.0
379.614105 52.0
380.114502 136.0
380.211517 48.0
380.448303 128.0
380.541473 124.0
380.988098 88.0
381.337799 60.0
381.443848 112.0
381.559357 180.0
381.712952 120.0
381.819885 48.0
382.126526 6872.0
382.269897 100.0
382.384552 28.0
382.539703 76.0
382.605865 48.0
382.648682 56.0
382.738251 52.0
382.851166 52.0
382.987488 220.0
383.026428 44.0
383.065399 140.0
383.130524 2252.0
383.178345 180.0
383.380981 48.0
383.493988 40.0
383.57196 28.0
383.665497 92.0
384.135223 472.0
384.601685 104.0
385.187378 84.0
385.382538 92.0
385.429596 80.0
385.507751 88.0
385.564972 144.0
385.688293 84.0
385.797821 56.0
386.592438 212.0
386.806213 68.0
386.99295 276.0
387.832458 120.0
388.220581 84.0
389.951874 56.0
390.470856 60.0
391.753998 76.0
393.35498 112.0
394.650757 48.0
395.275726 124.0
395.303406 116.0
396.142761 108.0
398.356232 68.0
399.250519 56.0
400.976776 52.0
402.418335 228.0
402.586029 92.0
403.121338 56.0
403.904938 136.0
406.180084 140.0
408.312775 72.0
409.04837 112.0
412.077667 124.0
412.692017 164.0
418.156158 176.0
418.595795 112.0
422.620422 296.0
424.164337 128.0
431.690399 180.0
433.35434 76.0
435.116974 84.0
436.064056 204.0
436.517181 80.0
436.608673 112.0
436.829102 80.0
437.087067 212.0
437.192993 128.0
437.249725 128.0
437.295135 40.0
437.390869 148.0
437.661469 96.0
437.703094 224.0
437.891449 88.0
438.027924 148.0
438.082092 176.0
438.115417 80.0
438.188904 13668.0
438.352905 68.0
438.519592 88.0
438.590454 160.0
438.62796 64.0
438.673828 64.0
438.740509 36.0
438.97818 96.0
439.107452 80.0
439.193939 3632.0
439.269348 64.0
439.328522 64.0
439.369965 64.0
439.407776 136.0
439.469971 84.0
439.512085 40.0
439.658142 60.0
440.031067 140.0
440.191284 908.0
440.597595 80.0
440.798157 48.0
440.91098 108.0
441.040558 64.0
441.111603 48.0
441.140869 96.0
441.199402 128.0
441.513 52.0
441.830872 76.0
441.872711 148.0
441.931274 100.0
441.996429 140.0
442.274445 32.0
442.345581 132.0
442.571655 84.0
442.986267 84.0
445.549408 92.0
446.385834 60.0
455.565796 104.0
463.068695 68.0
467.946777 44.0
468.752228 44.0
469.355713 76.0
469.42038 92.0
471.483826 44.0
476.584076 108.0
477.788361 112.0
479.299133 68.0
485.379272 68.0
494.369904 72.0
497.823181 64.0
505.333832 76.0
511.522339 40.0
512.368958 84.0
516.721069 168.0
534.644775 20.0
537.34491 60.0
537.5802 132.0
538.184875 72.0
540.50061 84.0
542.399353 60.0
543.697998 60.0
546.016235 152.0
565.837219 72.0
572.908569 108.0
573.056274 52.0
590.312256 56.0
594.133728 48.0
610.894897 88.0
611.31311 80.0
618.182129 72.0
621.556641 84.0
621.968567 100.0
646.553101 92.0
672.604919 48.0
689.688782 228.0
720.299988 108.0
725.549622 148.0
732.858826 168.0
735.846802 184.0
744.939453 148.0
746.265442 116.0
760.583801 100.0
761.874207 164.0
762.495117 156.0
767.267395 136.0
772.187317 84.0
779.249329 160.0
791.514465 228.0
793.531555 112.0
793.778259 52.0
807.598389 168.0
812.157898 184.0
815.922729 264.0
817.27063 156.0
817.583618 164.0
817.674622 144.0
821.18988 120.0
821.743164 144.0
822.136902 172.0
824.42688 44.0
824.546875 72.0
828.918945 228.0
830.243103 212.0
832.986572 88.0
836.28125 76.0
836.949036 184.0
838.089478 168.0
838.683044 208.0
842.867004 148.0
843.537415 156.0
844.208069 180.0
848.997192 112.0
850.134216 168.0
855.027344 152.0
855.388245 176.0
858.213684 104.0
858.621887 124.0
864.188721 136.0
869.016479 108.0
872.075928 172.0
875.240845 48.0
879.674316 72.0
880.353271 148.0
882.92395 52.0
884.740417 52.0
885.190369 192.0
887.9104 132.0
888.195129 168.0
893.678345 100.0
893.850891 196.0
899.429077 148.0
900.945801 168.0
905.431824 108.0
913.540771 484.0
917.231995 112.0
917.322388 228.0
917.46106 168.0
922.108826 120.0
922.773743 140.0
922.900696 160.0
923.070007 36.0
923.904663 212.0
928.350342 124.0
928.871948 160.0
928.920471 176.0
929.539307 136.0
931.003235 128.0
931.075134 120.0
931.767578 204.0
932.934387 132.0
932.989136 152.0
934.576477 88.0
939.127075 200.0
939.785889 60.0
942.01416 184.0
942.063049 92.0
944.795654 120.0
945.168823 200.0
945.658386 224.0
947.066589 140.0
950.254272 184.0
951.450989 156.0
953.078552 132.0
954.449219 136.0
955.359436 160.0
958.437744 256.0
959.867798 208.0
961.983948 176.0
962.743347 164.0
963.039795 192.0
963.237488 176.0
963.614319 164.0
965.96344 152.0
966.823486 116.0
968.495056 192.0
971.25946 176.0
973.450256 212.0
975.761597 164.0
975.960571 176.0
976.178223 68.0
976.48291 52.0
979.906555 108.0
981.464722 160.0
981.779358 180.0
982.194336 192.0
982.980469 48.0
983.173889 176.0
986.978088 140.0
987.703491 148.0
991.231689 36.0
991.973999 160.0
994.131531 248.0
998.824646 168.0
998.98822 84.0
1000.227844 224.0
1001.241516 188.0
1002.75354 168.0
1004.834412 192.0
1005.004761 180.0
1005.149902 160.0
1005.200378 152.0
1005.661072 176.0
1006.216553 108.0
1007.612244 196.0
1007.877625 148.0
1008.029297 84.0
1011.001404 176.0
1011.482361 160.0
1013.857422 196.0
1015.479614 152.0
1016.152832 176.0
1016.946045 60.0
1019.136841 152.0
1021.985291 184.0
1022.106201 84.0
1022.990845 144.0
1025.672607 100.0
1029.609131 200.0
1031.679321 68.0
1032.92627 96.0
1033.437988 232.0
1034.826904 124.0
1035.281494 72.0
1036.793335 224.0
1036.88623 56.0
1037.453491 168.0
1038.43457 172.0
1038.601318 168.0
1039.78186 44.0
1042.26062 132.0
1043.661743 188.0
1047.072266 132.0
1048.135254 140.0
1048.80542 140.0
1049.089111 204.0
1050.843262 172.0
1051.243286 160.0
1051.611084 140.0
1052.379272 176.0
1055.700562 164.0
1055.842773 52.0
1056.334351 52.0
1059.545288 144.0
1060.854248 100.0
1061.301636 224.0
1062.027954 220.0
1062.715576 28.0
1062.923218 212.0
1064.01355 196.0
1066.001099 156.0
1068.732056 48.0
1069.122437 288.0
1069.330688 76.0
1069.984497 148.0
1070.958374 176.0
1073.532715 148.0
1073.702271 172.0
1074.902588 168.0
1075.339722 240.0
1077.18103 132.0
1077.331299 172.0
1078.422485 104.0
1078.860474 164.0
1079.102295 168.0
1080.580444 40.0
1080.783203 116.0
1081.28064 120.0
1081.516235 160.0
1082.720825 184.0
1084.79126 132.0
1085.348511 132.0
1085.591187 176.0
1086.063354 164.0
1086.227417 184.0
1088.084473 72.0
1088.176392 156.0
1090.065918 60.0
1090.390015 264.0
1090.679199 28.0
1092.362549 204.0
1092.526367 188.0
1092.678345 160.0
1093.102905 100.0
1093.290283 188.0
1094.119629 152.0
1094.40271 176.0
1094.936035 120.0
1098.007202 56.0
1098.581055 220.0
1100.534546 204.0
1100.620361 148.0
1100.805176 100.0
1100.957153 152.0
1101.050781 204.0
1101.743164 184.0
1102.43689 64.0
1104.473145 176.0
1104.625244 212.0
1105.822876 156.0
1107.59729 168.0
1108.114014 232.0
1108.412231 136.0
1109.174316 100.0
1110.029541 140.0
1110.37439 160.0
1110.706055 184.0
1111.296509 140.0
1111.415894 220.0
1113.174927 144.0
1114.828979 148.0
1115.799316 180.0
1116.490845 164.0
1116.989746 180.0
1118.766479 160.0
1121.637451 132.0
1121.817383 152.0
1122.797607 96.0
1123.231079 176.0
1123.404541 60.0
1125.213013 204.0
1125.513428 108.0
1126.742432 128.0
1126.889404 124.0
1126.996216 160.0
1127.811523 148.0
1129.422974 192.0
1129.812134 152.0
1130.13208 176.0
1130.299316 100.0
1131.062256 160.0
1131.142578 220.0
1131.30481 212.0
1131.463867 180.0
1131.550903 176.0
1133.40625 240.0
1134.988037 68.0
1135.068481 160.0
1135.558105 172.0
1136.651489 92.0
1137.42334 204.0
1140.499634 224.0
1141.56189 160.0
1142.819702 220.0
1143.862793 144.0
1145.741577 168.0
1146.947754 156.0
1148.033203 148.0
1148.208618 52.0
1148.660522 204.0
1149.510498 280.0
1151.306152 224.0
1152.636963 184.0
1154.374146 188.0
1155.243896 192.0
1155.476685 176.0
1156.043579 176.0
1157.026367 188.0
1157.303955 196.0
1158.88208 72.0
1159.268311 228.0
1159.593628 240.0
1161.112305 224.0
1161.29541 156.0
1162.204346 188.0
1162.401123 152.0
1163.432861 80.0
1164.322266 180.0
1164.390259 232.0
1165.232544 160.0
1165.402344 168.0
1165.898438 128.0
1167.325928 96.0
1169.451904 128.0
1170.34021 188.0
1170.714722 64.0
1171.089355 220.0
1171.232422 60.0
1171.613892 84.0
1171.729614 208.0
1172.322388 168.0
1172.451904 264.0
1173.065308 136.0
1174.142578 180.0
1174.197144 140.0
1174.408569 148.0
1175.48645 124.0
1175.595703 120.0
1176.851685 240.0
1176.90625 164.0
1177.800903 156.0
1178.442993 128.0
1178.846191 136.0
1179.556885 144.0
1180.042358 160.0
1180.240601 148.0
1180.664551 172.0
1181.800049 216.0
1182.392456 168.0
1182.771851 224.0
1183.05249 128.0
1183.120972 188.0
1183.435059 168.0
1184.112915 196.0
1185.209839 140.0
1185.525024 180.0
1186.40918 128.0
1186.991943 76.0
1188.059204 216.0
1188.199097 144.0
1188.398071 164.0
1189.008789 60.0
1189.338257 128.0
1190.608398 160.0
1190.73877 104.0
1190.951782 204.0
1191.041016 120.0
1191.693604 112.0
1191.817261 108.0
1192.085327 92.0
1194.508057 212.0
1194.773682 144.0
1195.172729 140.0
1196.356445 140.0
1198.229614 208.0
1198.69812 140.0
1198.973755 200.0
1199.456299 180.0
1200.442139 180.0
1200.586914 228.0
1200.683472 148.0
1201.393921 168.0
1201.607788 172.0
1202.497925 168.0
1202.732666 112.0
1202.801636 220.0
1202.974243 40.0
1205.301636 208.0
1205.370728 212.0
1206.167969 232.0
1206.220825 172.0
1206.365967 52.0
1207.596802 160.0
1207.686646 180.0
1208.440674 196.0
1209.312622 96.0
1211.126587 68.0
1213.191528 180.0
1213.635254 168.0
1214.11377 192.0
1214.183105 148.0
1215.167603 176.0
1215.824585 32.0
1216.767944 180.0
1216.86145 168.0
1217.57666 132.0
1218.076782 168.0
1218.20874 136.0
1218.396362 116.0
1219.049438 204.0
1219.424683 148.0
1219.530151 120.0
1219.626221 140.0
1220.936157 200.0
1221.086304 208.0
1221.183716 180.0
1221.969727 156.0
1223.570435 200.0
1223.960327 128.0
1224.545288 124.0
1226.377686 188.0
1226.600708 136.0
1227.249023 208.0
1227.974243 188.0
1229.059204 140.0
1229.174194 136.0
1229.551025 168.0
1231.072876 252.0
1231.896973 128.0
1231.966919 164.0
1233.825806 164.0
1233.95166 204.0
1234.175293 164.0
1234.224243 180.0
1234.874634 152.0
1235.35022 180.0
1237.764771 196.0
1237.848877 72.0
1238.486084 168.0
1239.361816 156.0
1239.508911 160.0
1239.607056 204.0
1240.01355 136.0
1240.630371 184.0
1241.752197 164.0
1242.530884 160.0
1242.657104 192.0
1242.755371 124.0
1244.20813 136.0
1244.432739 172.0
1245.036621 120.0
1245.535278 160.0
1245.654785 212.0
1246.371338 112.0
1246.455688 172.0
1247.137329 212.0
1247.706665 160.0
1248.015991 148.0
1249.20459 128.0
1249.296021 184.0
1249.992554 144.0
1251.27356 172.0
1251.407349 104.0
1251.660767 84.0
1251.759399 260.0
1251.892334 180.0
1251.949463 228.0
1252.016602 136.0
1253.203247 212.0
1254.429565 112.0
1254.697388 148.0
1254.908936 236.0
1255.197998 100.0
1255.875 156.0
1256.601562 88.0
1257.102539 160.0
1258.168335 200.0
1259.53125 116.0
1260.463745 104.0
1260.880737 172.0
1261.219971 244.0
1262.343994 80.0
1263.214966 176.0
1263.928467 164.0
1263.999268 164.0
1264.537109 212.0
1264.883911 56.0
1265.393555 160.0
1266.009644 216.0
1266.200806 184.0
1266.314087 148.0
1266.39209 124.0
1266.505371 164.0
1266.590332 204.0
1267.263306 160.0
1267.362549 184.0
1267.624756 84.0
1269.701782 212.0
1269.978394 224.0
1271.63855 168.0
1272.085815 168.0
1272.447876 172.0
1272.838379 172.0
1273.292847 116.0
1273.647949 208.0
1274.415161 164.0
1274.479126 188.0
1274.862793 204.0
1274.94104 144.0
1276.021362 144.0
1276.675537 136.0
1276.753784 232.0
1276.895996 136.0
1277.379639 136.0
1278.226318 156.0
1278.411255 100.0
1278.553589 124.0
1279.820679 260.0
1280.077026 212.0
1280.646729 184.0
1282.370972 244.0
1282.627563 152.0
1283.212158 172.0
1283.903809 164.0
1284.181885 172.0
1284.402954 132.0
1284.895264 228.0
1285.280518 140.0
1286.179688 160.0
1286.272461 144.0
1286.508057 176.0
1287.171997 188.0
1287.275757 220.0
1288.38623 144.0
1288.450439 172.0
1288.814819 184.0
1289.300781 120.0
1289.736572 168.0
1290.634155 176.0
1291.088013 176.0
1291.345459 156.0
1293.240112 236.0
1293.584961 188.0
1293.692383 144.0
1294.32959 188.0
1294.594482 160.0
1295.160278 184.0
1295.984131 176.0
1296.428467 100.0
1296.550293 124.0
1296.95874 160.0
1297.073486 116.0
1297.936646 148.0
1298.073975 196.0
1298.199097 128.0
1298.751221 184.0
1299.117065 204.0
1299.421997 192.0
1300.803467 96.0
1300.911133 128.0
1301.090576 184.0
1301.492676 148.0
1302.074341 44.0
1302.260254 184.0
1303.841553 200.0
1303.975464 224.0
1305.674805 124.0
1306.660278 196.0
1307.279053 144.0
1307.509277 96.0
1308.639404 180.0
1308.718628 152.0
1308.819458 276.0
1308.913086 180.0
1309.352295 156.0
1309.597168 156.0
1309.844116 180.0
1310.641724 192.0
1311.564209 180.0
1311.619751 200.0
1312.061523 140.0
1313.734619 132.0
1313.972656 120.0
1314.477783 140.0
1315.120117 48.0
1315.185059 188.0
1315.278809 184.0
1315.423218 132.0
1315.618164 196.0
1316.253418 124.0
1316.759888 184.0
1316.997314 120.0
1317.632935 96.0
1318.138794 104.0
1318.572388 48.0
1319.013184 160.0
1319.242554 160.0
1320.112183 140.0
1320.227905 176.0
1320.372437 180.0
1321.037964 88.0
1321.435791 76.0
1321.56604 152.0
1321.884399 68.0
1321.985718 336.0
1322.123169 192.0
1323.180054 188.0
1323.266846 160.0
1323.585449 248.0
1323.633301 184.0
1323.691284 228.0
1323.925781 144.0
1323.97644 60.0
1324.637207 72.0
1324.765991 200.0
1325.273071 256.0
1325.548462 196.0
1327.752197 128.0
1328.579102 112.0
1328.702393 168.0
1330.661865 220.0
1330.821655 64.0
1331.242798 156.0
1331.678467 80.0
1332.019897 140.0
1332.36853 132.0
1332.898926 160.0
1333.276855 184.0
1333.371338 80.0
1334.607056 200.0
1334.956055 84.0
1335.203369 164.0
1336.669189 204.0
1337.342285 164.0
1338.397827 128.0
1338.856689 192.0
1339.555786 184.0
1340.116821 96.0
1343.587158 204.0
1343.660034 152.0
1343.740356 148.0
1344.032104 52.0
1344.148926 176.0
1345.389648 168.0
1345.841919 200.0
1346.083252 128.0
1346.207397 172.0
1346.470337 232.0
1346.857422 268.0
1347.79248 116.0
1348.208618 148.0
1348.411865 236.0
1348.684082 192.0
1348.742554 228.0
1349.517456 144.0
1349.590576 196.0
1350.182861 112.0
1350.314453 96.0
1350.439331 184.0
1350.774048 200.0
1351.250732 128.0
1351.492188 176.0
1351.99707 204.0
1352.128906 180.0
1352.223999 148.0
1355.827148 140.0
1357.088013 68.0
1357.65271 172.0
1357.806641 176.0
1358.055908 200.0
1358.752808 156.0
1359.537964 184.0
1360.330566 224.0
1360.49939 212.0
1360.719727 156.0
1360.932617 144.0
1361.336426 220.0
1361.505371 140.0
1361.725708 180.0
1361.827026 204.0
1361.938721 152.0
1362.276611 120.0
1362.4823 156.0
1363.334595 160.0
1363.516357 164.0
1363.702026 148.0
1363.790161 160.0
1364.113647 104.0
1364.634766 188.0
1365.437134 188.0
1365.562134 136.0
1365.795532 168.0
1366.5625 60.0
1366.871582 80.0
1367.445557 176.0
1367.887207 140.0
1367.997681 148.0
1368.137451 116.0
1368.483521 144.0
1369.875366 56.0
1370.302612 192.0
1370.862671 196.0
1371.216431 140.0
1371.297485 128.0
1373.68689 192.0
1373.826538 120.0
1375.708374 56.0
1376.055298 216.0
1376.520508 220.0
1376.897095 100.0
1377.10144 132.0
1377.148193 172.0
1377.598755 120.0
1378.101196 76.0
1378.492798 156.0
1378.647949 140.0
1379.209595 52.0
1379.527466 116.0
1380.170654 172.0
1380.318604 192.0
1380.473877 172.0
1381.583252 188.0
1383.018799 36.0
1384.055176 140.0
1384.329224 44.0
1384.425537 148.0
1385.388306 212.0
1386.225586 100.0
1386.395996 60.0
1387.819214 120.0
1388.108032 148.0
1388.508789 144.0
1388.909302 212.0
1389.265381 152.0
1389.510254 48.0
1389.762451 188.0
1389.873779 64.0
1390.630737 156.0
1391.439819 172.0
1392.137695 32.0
1392.347412 208.0
1392.442261 132.0
1392.509033 184.0
1392.865601 172.0
1393.229614 188.0
1393.318726 180.0
1393.653076 136.0
1393.875977 152.0
1394.01709 128.0
1394.485352 140.0
1394.708252 168.0
1395.154297 252.0
1395.250977 56.0
1395.369873 168.0
1395.875488 136.0
1396.284546 112.0
1397.139893 288.0
1398.017822 48.0
1398.858887 48.0
1399.387451 184.0
1399.81189 204.0
1399.953369 92.0
1400.348022 228.0
1401.010986 140.0
1401.152466 88.0
1402.27771 136.0
1402.382202 200.0
1402.456543 156.0
1402.553467 180.0
1403.276611 192.0
1403.560181 176.0
1403.858154 172.0
1404.029663 184.0
1404.466309 172.0
1404.604004 220.0
1405.267944 164.0
1405.484253 168.0
1405.745483 212.0
1405.917114 204.0
1406.551514 124.0
1407.441895 156.0
1407.641479 136.0
1407.79834 32.0
1407.962524 136.0
1408.567505 160.0
1409.075562 208.0
1409.187622 56.0
1409.80542 212.0
1410.024536 164.0
1410.203857 204.0
1410.951416 120.0
1411.541992 176.0
1411.669189 288.0
1411.945801 112.0
1412.294922 124.0
1412.439453 116.0
1413.013794 164.0
1413.224976 176.0
1413.468872 208.0
1413.979858 196.0
1414.181763 176.0
1414.302612 144.0
1414.5271 64.0
1415.6427 220.0
1415.79248 144.0
1416.571411 164.0
1417.045288 220.0
1417.31311 160.0
1417.507935 152.0
1417.77771 144.0
1418.234863 268.0
1418.864502 152.0
1419.10437 248.0
1420.341797 112.0
1420.589355 36.0
1420.649292 40.0
1420.761841 208.0
1421.136963 120.0
1421.677246 152.0
1421.999878 160.0
1422.157593 224.0
1422.420288 56.0
1423.76416 204.0
1423.899414 208.0
1424.274902 96.0
1424.550171 196.0
1425.153809 76.0
1425.244019 156.0
1426.551636 180.0
1426.837402 148.0
1427.265869 228.0
1427.890015 120.0
1428.401489 204.0
1428.567017 140.0
1428.748291 152.0
1429.274902 188.0
1429.876221 160.0
1429.958984 236.0
1430.177246 188.0
1430.320312 148.0
1431.554932 100.0
1432.082153 56.0
1432.180054 224.0
1432.345825 108.0
1432.436157 128.0
1433.136841 220.0
1433.528564 184.0
1433.852661 216.0
1434.048584 256.0
1434.231934 164.0
1434.312378 88.0
1434.48584 168.0
1435.028564 124.0
1435.669556 132.0
1435.744873 192.0
1435.797729 216.0
1435.918335 124.0
1437.736572 80.0
1438.023315 108.0
1439.110352 196.0
1439.231079 40.0
1440.341309 140.0
1440.817139 128.0
1440.945557 132.0
1441.255371 176.0
1441.654785 168.0
1442.116821 144.0
1443.250732 200.0
1443.976685 92.0
1444.120483 88.0
1444.748291 200.0
1445.625977 208.0
1445.890747 68.0
1446.026978 136.0
1446.882324 184.0
1447.056519 188.0
1447.503174 124.0
1447.881836 128.0
1448.086304 208.0
1448.434692 132.0
1448.54834 268.0
1448.707397 276.0
1448.949829 112.0
1449.631714 160.0
1449.745483 172.0
1450.2229 104.0
1450.328979 128.0
1450.488159 164.0
1450.571533 172.0
1451.253906 32.0
1451.306885 228.0
1451.981812 200.0
1452.239624 184.0
1453.210693 160.0
1454.128906 112.0
1454.607056 336.0
1454.845581 180.0
1455.032104 152.0
1455.791382 232.0
1456.437012 144.0
1457.204224 152.0
1457.523315 144.0
1457.865234 112.0
1458.078003 184.0
1458.131226 172.0
1459.126953 168.0
1459.469116 164.0
1459.856079 184.0
1460.069824 152.0
1460.145874 128.0
1460.282837 176.0
1460.343628 120.0
1460.579468 180.0
1461.02063 192.0
1461.393433 156.0
1461.743408 140.0
1462.192383 72.0
1462.417725 424.0
1463.311401 128.0
1463.441895 172.0
1463.813965 228.0
1465.283936 112.0
1465.360107 56.0
1466.251587 100.0
1466.899536 256.0
1467.112915 164.0
1467.768555 132.0
1468.05835 168.0
1468.369751 124.0
1468.828613 188.0
1469.950195 140.0
1470.331665 92.0
1470.530151 120.0
1471.094971 164.0
1471.247681 124.0
1471.729858 144.0
1471.896606 88.0
1472.15625 220.0
1472.408203 184.0
1472.713745 136.0
1473.286621 36.0
1473.424194 148.0
1473.806152 92.0
1474.131104 152.0
1474.24939 144.0
1474.555054 188.0
1474.746094 116.0
1474.876099 220.0
1475.161377 180.0
1475.47229 184.0
1477.697876 148.0
1478.241089 148.0
1478.432373 220.0
1478.609985 208.0
1479.136475 188.0
1479.297241 104.0
1479.549927 168.0
1480.239014 136.0
1480.39978 140.0
1480.721436 200.0
1480.805664 232.0
1480.874634 172.0
1481.088989 68.0
1481.326538 128.0
1482.03125 216.0
1482.391479 120.0
1482.445068 168.0
1482.705688 128.0
1482.904907 164.0
1483.134888 204.0
1483.893799 140.0
1484.09314 136.0
1484.47644 196.0
1484.806274 156.0
1484.867554 120.0
1485.051636 184.0
1486.70874 212.0
1486.839233 140.0
1487.069458 156.0
1487.299683 104.0
1487.368774 192.0
1487.530029 184.0
1487.719604 220.0
1488.059204 180.0
1488.397583 232.0
1488.727783 100.0
1489.011841 144.0
1489.142456 144.0
1489.395874 168.0
1489.540039 176.0
1489.841431 136.0
1489.925903 132.0
1490.456055 152.0
1490.955566 148.0
1491.355225 128.0
1491.693359 56.0
1492.193115 212.0
1492.815918 56.0
1493.654175 232.0
1494.058228 212.0
1495.731689 72.0
1495.916504 44.0
1496.062744 140.0
1496.155151 132.0
1496.239746 180.0
1496.55542 60.0
1496.840332 180.0
1496.994385 180.0
1497.348633 268.0
1497.802979 188.0
1498.010986 220.0
1498.272949 40.0
1498.704346 168.0
1499.667603 224.0
1499.721558 144.0
1499.885498 76.0
1500.661987 92.0
1500.821167 220.0
1500.931885 176.0
1502.127319 140.0
1502.235229 200.0
1502.343262 260.0
1504.071777 124.0
1504.25708 172.0
