>compound Menadione
>formula C11H8O2
>ionization [M+H]+
>parentmass 173.058472
#inchi InChI=1S/C11H8O2/c1-7-6-10(12)8-4-2-3-5-9(8)11(7)13/h2-6H,1H3
#inchikey MJVAVZPDRWSRRC
#Ion_Source LC-ESI
#Instrument qTof
#Compound_Source Commercial
#PI Dorrestein
#Data_Collector Garg_Neha
#Scan -1
#Precursor_MZ 173.06
#ExactMass 172.052
#Charge 1
#CAS_Number 58-27-5
#Pubmed_ID N/A
#Smiles C1=CC=C2C(=C1)C(C(=CC2=O)C)=O
#INCHI_AUX N/A
#Library_Class 1
#SpectrumID CCMSLIB00000078355
#IonMode Positive
#UpdateWorkflowName UPDATE-SINGLE-ANNOTATED-GOLD
#LibraryQualityString Gold
#TaskID 77f51c88eb8b467eb4a01dd2d0cb90d2
##Scan# 1364
#SpectrumFile Plate5_61_88_GH9_01_16511.mzXML
#LibraryName FDALibrary_2_04302014.mgf
#MQScore -1
#Organism FDALibrary_2_04302014
#TIC_Query 0
#RT_Query -1
#MZErrorPPM -1
#SharedPeaks 0
#MassDiff 0
#LibMZ -1
#SpecMZ 173.06
#SpecCharge 0
#internalFilename spec-00000.mgf

>collision 10
51.026928 216.0
51.927979 152.0
52.881775 208.0
58.864681 176.0
60.705158 172.0
63.765099 264.0
79.11158 140.0
88.169312 184.0
88.348816 168.0
90.712204 188.0
90.755814 180.0
90.869606 176.0
91.049934 356.0
91.483452 232.0
92.830452 204.0
97.942276 148.0
104.013573 224.0
105.03331 1924.0
106.039116 324.0
106.987946 168.0
112.600822 172.0
112.954582 144.0
114.593483 196.0
115.05407 488.0
117.071342 732.0
118.071045 180.0
126.042984 160.0
127.057457 244.0
127.998978 148.0
128.062027 188.0
129.111496 236.0
130.006332 156.0
132.00415 172.0
137.773453 156.0
144.055267 412.0
145.064026 2492.0
146.068298 336.0
147.08812 224.0
148.387192 160.0
149.584854 196.0
149.96727 144.0
155.050705 356.0
156.070267 188.0
158.985413 160.0
165.099838 204.0
169.026718 148.0
169.936188 204.0
170.04776 140.0
170.980789 160.0
171.074799 164.0
172.172195 220.0
172.614456 216.0
173.058472 9124.0
174.01825 156.0
174.063873 676.0
174.980515 216.0
175.058533 132.0
180.082581 152.0
232.066513 144.0
1314.334351 160.0
1447.868286 180.0
1477.56189 180.0
1480.577637 148.0
1508.762573 176.0
1674.140015 204.0
1681.591309 144.0
1726.696655 184.0
1770.179199 220.0
1789.971069 192.0
1793.880371 192.0
1831.537109 180.0
1858.483154 192.0
1863.677734 236.0
1881.980469 200.0
1886.282715 216.0
1928.089478 188.0
