>compound Gatifloxacin
>formula C19H22FN3O4 
>ionization [M+H]+
>parentmass 376.167847
#inchi InChI=1S/C19H22FN3O4/c1-10-8-22(6-5-21-10)16-14(20)7-12-15(18(16)27-2)23(11-3-4-11)9-13(17(12)24)19(25)26/h7,9-11,21H,3-6,8H2,1-2H3,(H,25,26)
#inchikey XUBOMFCQGDBHNK
#Ion_Source LC-ESI
#Instrument qTof
#Compound_Source Isolated
#PI Sirenas
#Data_Collector Ed Esquenazi 
#Scan -1
#Precursor_MZ 376.168
#ExactMass 0.0
#Charge 1
#CAS_Number N/A
#Pubmed_ID N/A
#Smiles N/A
#INCHI_AUX N/A
#Library_Class 3
#SpectrumID CCMSLIB00000004467
#IonMode Positive
#UpdateWorkflowName UPDATE-SINGLE-ANNOTATED-BRONZE
#LibraryQualityString Bronze
#TaskID d19310cd93df49b68e9fcbec27720eb5
##Scan# 8
#SpectrumFile Gatifloxacin.mgf
#LibraryName fda_library.mgf
#MQScore -1
#Organism fda_library
#TIC_Query 0
#RT_Query -1
#MZErrorPPM -1
#SharedPeaks 0
#MassDiff 0
#LibMZ -1
#SpecMZ 376.168
#SpecCharge 0
#internalFilename spec-00000.mgf

>collision 10
102.388382 7.848077
106.028358 8.2
108.022469 8.800555
108.043892 5.698256
113.88765 21.49877
120.036148 24.71077
122.085693 36.848259
124.032616 10.18074
125.69841 19.517389
143.072388 16.48077
144.041885 50.80167
145.035294 16.208561
147.058105 14.17674
148.038315 10.21607
148.05069 7.623113
151.040878 70.477524
151.166061 1.832143
151.174057 8.80862
155.074707 49.851822
157.036102 20.43
157.910767 7.8225
160.767776 4.2
162.459885 7.824243
163.048843 34.61776
163.060104 36.375488
163.352386 5.914189
164.047409 23.43224
164.074371 46.16106
165.033676 23.35574
167.044296 7.489
170.058777 49.497829
172.060226 2.2
172.138489 3.98
172.293045 2.611842
172.535492 3.783696
173.051941 22.0
175.062317 6.25
176.050125 86.030403
177.018967 28.85067
177.055252 75.991013
177.12114 1.0
178.030945 42.35033
178.050232 64.52581
178.062866 63.891361
178.377106 7.334091
178.392014 4.600555
178.438477 7.27161
179.036972 130.439301
179.062256 28.88835
179.099243 30.296
179.141174 1.469445
179.168839 4.807759
180.708817 2.217308
181.086899 10.7
181.856369 9.474123
182.838257 12.49419
183.052139 8.7025
185.070816 78.133217
185.107895 38.157429
186.074524 29.625
186.087173 29.748461
186.800751 52.650002
186.840271 2.84
186.882339 1.0125
187.051498 13.57733
187.65358 1.607143
188.050934 55.642391
188.073044 23.69466
188.298813 10.935
188.329468 3.92
188.402527 2.436765
188.827759 3.657143
189.057007 127.9533
190.025177 39.44902
190.616089 3.867857
191.03743 25.743629
191.062866 56.625408
191.104507 19.41958
191.182312 6.800555
191.464355 2.936111
192.046585 260.709015
192.065506 44.132481
192.126251 7.274123
192.341248 11.90403
192.401199 4.809524
193.048233 359.361298
193.150986 12.96754
193.203079 6.168023
193.314316 8.904711
193.377197 2.228571
193.435257 5.247093
194.063278 30.6628
194.210526 2.314286
194.473434 18.311541
195.130844 7.822727
197.098083 34.68837
198.078705 12.11645
198.108948 35.177971
198.205688 5.62
198.235886 20.80584
198.475494 4.401
199.050003 19.68438
199.085892 9.645755
200.046951 9.568056
201.012695 1.216667
201.042084 20.20323
201.06749 8.490306
201.089478 13.5391
201.244522 3.606818
201.8974 19.54129
202.059433 98.540932
202.470184 3.458333
203.06778 131.779007
203.22818 6.336111
203.268646 10.40634
204.037598 96.320999
204.078629 158.488098
204.136887 3.64537
204.246246 6.428488
204.629425 6.468903
204.738754 5.832
205.039093 179.974304
205.074921 285.820496
205.107285 5.8025
205.162094 5.216025
205.196976 2.605
205.835342 10.0
205.973114 3.584091
206.060165 185.579697
206.095139 22.245001
206.254822 13.60455
206.314774 7.495339
206.350403 10.91082
206.424744 7.294256
206.489838 5.227174
207.06012 303.450806
207.325394 5.200862
207.354385 7.577857
207.385513 8.45
207.884811 9.178049
208.082687 27.806339
210.106918 34.281719
210.458771 13.37647
212.085403 28.52121
212.182373 2.2
212.795807 4.457143
213.06012 59.523239
213.098495 47.011292
213.451157 4.4
214.06604 67.851669
214.234695 5.061538
214.779785 5.811765
214.88176 4.25
214.983841 9.264063
215.060822 220.032303
215.11795 2.25625
216.047699 15.03788
216.074341 368.348511
216.101959 26.424999
216.429596 5.218182
216.788147 8.539656
216.835037 13.35602
216.880249 3.436764
217.0392 51.844059
217.078812 295.573212
217.310928 3.63
217.741928 13.37578
217.803772 8.426471
217.855515 20.00024
217.882675 6.299231
218.015427 8.628261
218.060211 103.9244
218.082581 185.114899
218.193817 3.822222
218.255585 3.825
218.395203 4.50431
218.420074 2.800926
218.644012 10.4068
218.828094 9.29847
218.911972 3.281667
219.023605 51.024971
219.057571 2296.913086
219.131104 5.635
219.207413 2.8
219.233185 5.604592
219.258698 15.33313
219.274399 5.05
219.305328 12.46288
219.362137 22.92635
219.418579 7.803333
219.484543 20.7174
219.495834 8.077564
219.660721 6.05
219.681549 6.821491
219.779755 3.896429
219.860336 14.37857
220.011688 5.486428
220.207825 5.76
220.223267 10.0431
220.284775 3.841667
220.34343 4.8025
220.366821 11.55238
220.383377 4.416026
220.403687 6.261539
220.435074 2.65625
220.466019 4.5125
220.587677 14.81096
220.797348 4.667593
220.936249 11.4069
221.071213 501.144196
221.189774 4.609524
221.265167 5.504167
221.380493 4.688889
221.51564 3.913636
221.793961 8.657105
222.086411 168.310196
222.112503 20.770941
222.563004 9.619444
224.133148 2.65
225.065506 41.90966
225.124176 7.083333
226.069794 27.271179
226.10376 10.841
227.055389 24.59417
227.079391 18.910589
227.113678 42.149212
227.33194 2.80625
227.655869 2.4
228.028534 5.311364
228.084885 96.547852
228.35881 7.628448
229.050812 173.044907
229.074768 87.767143
229.113586 10.03676
229.261047 5.835
229.340347 4.005
230.083847 177.7603
230.616821 11.01828
230.65918 9.193421
230.733047 8.326563
231.060974 244.782898
231.092072 2523.416016
231.208893 5.053333
231.399246 5.010715
231.483063 8.559454
231.547531 2.033333
231.569489 8.3025
231.584778 4.806818
231.647247 10.45714
231.683029 4.136111
231.714935 9.992392
231.749664 37.704811
231.844101 8.555769
231.870117 13.63289
232.019119 10.68167
232.034592 63.622791
232.075104 286.603607
232.102005 118.378601
232.167343 24.16851
232.189804 4.290909
232.228821 7.425
232.321091 6.106522
232.388947 3.514286
232.559769 3.603571
232.692184 5.970454
232.787964 3.912037
232.955841 8.032061
233.107162 241.206604
233.148544 10.48667
233.202148 3.803571
233.234833 8.947222
233.254105 8.488043
233.275223 15.88409
233.30452 8.998903
233.382477 27.31172
233.403748 14.92365
233.426163 6.15
233.489273 7.473125
233.589127 9.524109
233.640198 59.92609
233.802704 7.679167
233.918945 11.05
233.9944 10.00045
234.015686 5.911364
234.081665 1539.397949
234.164719 2.201923
234.279938 8.481
234.324966 28.46929
234.436935 5.01
234.452286 5.820161
234.500229 6.808333
234.577805 20.34527
234.704681 2.632692
234.726196 8.571428
234.846588 6.694736
234.897278 2.85
235.087021 1554.483032
235.153976 7.0
235.182632 2.6
235.230652 9.404091
235.273346 19.5763
235.412415 4.408333
235.705765 3.405556
235.908218 9.659314
236.061691 6.538793
236.122437 12.05143
236.30983 9.09877
236.386047 3.069444
236.88591 4.072222
237.098831 34.55838
239.088699 35.690632
239.110764 64.927139
239.374695 12.22425
240.106552 60.99839
240.230743 5.25625
240.413498 26.198601
240.510239 6.76875
240.758469 2.228571
241.039352 12.00992
241.075684 58.350891
241.124329 95.62912
242.064636 29.227751
242.087845 62.513969
242.335037 4.032692
242.47818 2.264286
242.732758 3.472727
242.888901 3.577941
243.092606 296.427612
243.134949 31.903219
243.367432 13.00526
243.465042 2.858333
243.501938 3.325
243.517349 2.832692
243.535614 8.209091
243.660492 4.155556
243.712799 10.92786
243.727005 10.48966
243.755539 8.925
243.834381 10.71912
243.938736 14.31472
243.991867 3.223148
244.040985 28.194559
244.07338 202.823395
244.171219 4.023148
244.312332 10.26303
244.350647 3.6
244.606308 4.628125
244.638809 5.289286
244.762726 10.225
244.842834 27.55254
245.034576 72.10154
245.07251 2497.24292
245.108124 1687.276001
245.181549 10.29933
245.243301 4.401
245.259003 22.30979
245.281113 23.78895
245.357727 3.20625
245.459702 16.9804
245.50383 10.72778
245.549576 15.27935
245.575424 1.469445
245.597427 9.21
245.663544 5.015
245.67981 8.816667
245.739334 5.037121
245.813156 8.95
245.831345 7.602381
245.859253 13.12141
245.906281 8.928125
245.969498 14.51782
246.046448 92.636337
246.089203 99.498306
246.132263 4.201667
246.159439 8.003814
246.470947 20.942089
246.643509 8.844565
246.779648 12.97967
246.836838 4.563334
246.890411 5.425
246.960587 8.895884
247.09021 970.085571
247.201691 8.014788
247.243546 8.426346
247.325729 4.602941
247.374619 7.88
247.500687 10.935
247.545761 5.430844
247.569656 5.864362
247.892731 4.816026
247.909119 2.002778
247.964005 10.75528
247.995468 8.267308
248.058136 74.967163
248.095245 1148.046021
248.139389 6.211764
248.158493 3.88
248.195465 29.5037
248.226959 4.007759
248.314636 3.82
248.37352 3.225
248.386948 6.816667
248.429825 6.600555
248.616318 6.261364
248.66571 9.072001
248.723251 20.13908
249.102859 662.074707
249.262207 8.120714
249.368622 23.59943
249.45372 9.096819
249.505692 3.620162
249.560791 1.875
249.587936 3.008333
249.60614 4.442576
249.934494 2.645
249.985016 2.355769
250.128906 15.34846
250.605942 5.202778
251.123978 21.803329
252.050919 8.144643
252.112335 25.877689
252.128662 16.02149
253.102631 23.265421
253.156754 3.801191
253.184845 7.787766
253.400436 1.625
253.499084 3.081667
253.649628 4.402778
253.699509 2.625
254.055817 9.917453
254.100693 92.660049
254.127014 51.139179
254.165802 26.33176
254.403442 10.29074
254.504288 9.881666
254.652908 3.3
255.071259 24.400881
255.104462 102.208397
255.13002 36.17577
255.140808 32.56271
255.826233 4.804545
255.970871 11.20172
256.075775 30.252899
256.102844 163.514801
257.107178 240.725296
257.219177 7.4
257.241486 22.16057
257.319641 7.416177
257.593506 6.722561
258.092773 141.810394
258.114136 255.737793
258.158203 5.788462
258.293457 4.761
258.313934 5.470349
258.341888 2.205555
258.365265 2.355769
258.397247 6.608334
258.454498 11.78766
258.546661 8.875
258.645935 5.025
258.727173 2.714286
258.772614 6.832
258.800598 12.12308
258.934967 11.12212
259.04248 79.695587
259.087311 1573.692993
259.172913 4.825
259.214233 16.56336
259.284912 4.725
259.32135 4.249
259.37085 11.93524
259.403442 4.992391
259.438995 3.234615
259.477509 2.911364
259.556366 7.988637
259.591827 8.998617
259.630859 16.33062
259.646332 4.809783
259.668518 21.090139
259.715729 33.48999
259.74408 5.225
259.758514 6.516666
259.773132 10.03199
259.826904 78.114563
259.873108 16.739281
259.883514 24.654261
259.966003 22.42152
260.018524 2.857143
260.059967 347.322601
260.095825 2460.350098
260.166077 48.017139
260.190369 13.00992
260.238586 63.339748
260.261841 14.07565
260.297058 8.884482
260.331757 32.756908
260.405701 17.33287
260.482544 9.882843
260.502167 5.885371
260.580994 4.408333
260.634796 18.188511
260.685181 13.01818
261.015381 14.6666
261.067291 2656.227051
261.103546 8260.345703
261.187988 60.785069
261.22467 32.237789
261.262421 22.183371
261.300537 69.51236
261.324921 38.115082
261.355133 25.18401
261.38324 46.046581
261.404816 29.611799
261.421387 13.66614
261.444946 27.69206
261.463898 21.368031
261.478638 12.58125
261.525146 37.945629
261.550964 6.098462
261.578491 37.49147
261.607117 11.79457
261.635162 20.71356
261.668976 23.05899
261.713562 34.353481
261.744293 43.14851
261.783691 11.2085
261.842834 7.8
261.899109 5.63
261.914734 16.181379
261.989227 3.403333
262.639191 15.12471
262.68512 3.175
262.715759 17.12331
262.862762 4.816026
263.178711 3.009
263.195648 4.800757
263.235199 6.0025
263.40451 6.0
263.619507 2.314286
264.122223 10.55625
264.145935 11.44654
264.421783 2.613235
264.993469 8.6
265.08725 36.52742
265.220032 2.601191
265.701904 8.319608
266.098175 28.07155
266.128571 33.002869
266.30658 6.956481
266.854248 1.0
267.081665 11.57556
267.1091 21.80027
267.138977 35.043079
268.107635 41.733082
268.504852 2.222222
269.07724 5.489815
269.115753 61.218128
269.38916 2.604167
269.666138 15.45314
269.981628 6.844565
270.119202 99.804398
270.153656 50.147621
270.90451 8.881666
271.04776 53.790058
271.086517 8.581451
271.129578 249.761398
271.202118 4.653261
271.643585 7.941667
271.76416 4.375
272.09433 103.951797
272.383728 7.208333
272.461243 3.325
272.497162 6.921191
272.549957 45.194401
272.570648 7.529
272.608429 10.07134
272.705353 6.459314
272.728424 51.31081
272.751312 5.41
272.831757 2.45625
272.931702 3.481667
273.068634 29.872009
273.101074 152.892502
273.161987 6.71413
273.257324 8.145454
273.288055 18.664591
273.377808 68.447113
273.40152 3.033333
273.428864 10.76226
273.483093 1.625
273.510956 8.982273
273.527527 2.225
273.618744 6.894118
273.761749 9.222298
273.926392 16.844469
274.073486 304.826599
274.111694 9997.22168
274.181213 33.346119
274.212708 21.47298
274.240723 17.9576
274.26001 24.566851
274.30954 26.41511
274.338165 39.49828
274.406036 23.289921
274.424408 36.392818
274.451813 8.581451
274.487244 48.381859
274.513245 54.36343
274.604492 3.414286
274.632019 4.0
274.656433 17.44602
274.71463 39.576561
274.777252 7.570357
274.858215 2.827174
274.888489 8.455
274.95047 6.818841
275.361633 10.59527
275.403229 20.001289
275.440643 10.4225
275.467499 10.3125
275.53537 10.82935
275.640198 3.85
275.765015 4.225
275.955109 5.144118
276.061157 14.13519
276.163239 5.015385
276.195557 2.20625
276.27179 38.82814
276.30777 14.23672
276.334045 17.53784
276.368774 11.69921
276.430481 3.8125
276.448914 7.0
276.649323 7.004546
276.689575 4.225
276.909912 11.19054
276.973206 16.640909
276.990692 2.872059
277.074097 195.958801
277.140594 5.472727
277.239349 4.458333
277.488739 2.601087
277.616394 10.48801
277.695221 2.984091
277.743866 6.220122
277.88974 4.489
278.074982 162.830002
278.104675 41.544201
278.457367 2.401923
278.576355 4.004167
279.276489 2.801923
279.555634 4.015385
279.784515 4.816667
280.126129 51.221619
280.141602 171.182693
280.498535 18.60606
280.868561 2.42
280.936005 21.6098
281.153076 241.660095
281.297668 5.683333
281.548492 12.61263
281.59906 2.408333
281.735321 4.669444
282.103302 8.061735
282.127319 42.902748
282.2966 12.82963
282.431183 6.282692
282.546143 5.757143
282.596558 6.387903
282.8927 7.244643
283.057373 26.965731
283.12619 169.147095
284.179565 23.128031
284.204681 10.60109
284.233826 1.405
284.404846 5.245
284.534515 7.067308
284.556885 4.5125
284.821045 6.025
284.944366 10.77561
285.069305 41.172581
285.102966 641.451599
285.523254 2.925
285.985962 30.15484
286.070587 72.718727
286.134705 91.665497
286.226105 6.438095
286.272614 4.496428
286.369263 16.606701
286.404663 17.033239
286.50351 5.637121
286.7453 3.645
287.078156 99.725769
287.118164 191.351898
287.245178 31.42205
287.286652 16.46048
287.33609 5.155556
287.398621 13.60568
287.452454 80.065491
287.494934 21.44545
287.536041 12.37262
287.552704 56.20961
287.570526 11.57143
287.59314 10.69024
287.67569 8.011793
287.71701 2.20625
287.758484 32.123631
287.823212 20.328131
287.861267 27.13558
287.935669 11.76125
288.056335 13.07522
288.109741 107.975098
288.124786 86.413307
288.212891 5.610526
288.466919 4.201
288.515808 11.18526
288.644318 6.9
288.698151 10.70208
288.718903 10.6223
288.774261 17.214411
288.803925 11.03432
288.880676 6.384091
288.940826 5.555645
289.05896 37.13055
289.134949 14695.379883
289.170471 2.805556
289.20459 79.387154
289.253235 13.85833
289.289825 65.177391
289.330231 6.0125
289.345551 78.968552
289.367462 50.33749
289.397949 36.362659
289.422546 13.7392
289.488068 79.993011
289.503937 14.22384
289.537048 18.910801
289.585876 2.711364
289.611359 31.569981
289.647034 32.316158
289.678284 30.1134
289.727051 19.615459
289.746399 20.08906
289.77182 12.02222
289.957581 25.49032
290.005005 14.01324
290.078552 13.61747
290.319305 7.667222
290.526825 4.461538
290.665009 5.784616
290.716339 8.878334
290.936737 3.601191
290.983612 4.011842
291.340057 7.253333
291.460785 11.96976
291.57135 2.809
292.063873 6.034085
292.119263 11.76607
292.165741 15.32639
292.398926 2.175
292.450043 2.269444
292.750824 7.267391
292.82016 7.000439
293.088776 56.208309
293.457489 4.815244
293.713837 5.76
294.107452 5.681818
294.127777 16.67108
294.423737 5.813889
294.698395 3.407258
295.473358 9.867308
295.513275 5.265385
295.660706 4.806081
295.709076 14.00111
295.927368 11.5057
296.037659 3.405556
296.092499 20.72818
296.140015 25.30212
296.249481 6.6125
297.095734 24.61702
297.148071 670.67511
297.223907 2.233333
297.248108 3.696154
297.35025 1.603572
297.517975 2.45625
297.556671 5.809
297.794067 3.809783
297.883636 4.45
297.972473 9.736112
298.104858 23.101151
298.430786 4.8125
298.92981 6.001786
299.068909 20.037121
299.131775 359.097198
299.525574 2.025
299.786682 14.56995
300.090393 531.750977
300.148804 157.230103
300.225128 2.735
300.248505 6.747449
300.266602 3.816667
300.398438 16.07999
300.424042 6.357432
300.458649 13.80326
300.477356 7.493889
300.527466 15.83624
301.158447 676.679993
301.227264 22.934349
301.322479 6.834322
301.41571 9.882936
301.634308 3.133333
301.666779 2.222222
301.879608 11.83
301.950836 12.98696
301.977631 9.514232
302.03598 4.436765
302.098267 59.290451
302.132568 42.005348
302.248474 6.669444
302.561707 3.408333
302.997559 9.426298
303.078735 92.616867
303.102234 31.194559
303.171814 34.73119
304.086609 137.161499
304.13916 11.92903
304.155365 3.645
304.177673 36.083031
304.31311 6.86579
304.371979 6.425
304.42865 11.51201
304.897217 2.578572
305.092957 407.597595
305.131134 8.509
305.193237 1.2
305.733978 2.535
305.91095 3.208333
306.160828 6.061364
306.379944 8.831154
307.666168 2.2
309.079681 3.30625
309.822998 8.032895
310.214355 3.178571
310.774048 8.611765
310.849609 20.231421
311.098328 3.825
312.169464 1127.162964
312.258575 5.525
312.349518 7.324622
312.487274 4.018182
312.536469 4.851923
312.59317 24.86886
312.76416 11.62812
312.893341 13.47008
312.936462 4.805
313.108734 10.42237
313.22049 14.29179
313.274384 6.93629
313.307251 3.025
313.348816 4.8
313.379669 9.048016
313.484283 11.45635
313.644348 4.058333
314.376556 5.481667
314.549744 31.90538
314.958191 21.06262
314.996216 13.5868
315.114319 1838.116943
315.140839 946.503784
315.256866 9.633333
315.273193 24.117599
315.343323 28.835291
315.395752 17.99007
315.526825 30.73278
315.575897 3.403846
315.600616 6.222273
315.674255 40.58186
315.70578 8.25
315.889465 32.910412
315.941833 10.40357
316.06842 21.188
316.1922 16.905319
316.225677 9.476923
316.325256 7.825
316.365936 4.222368
317.153229 1215.13501
317.209534 4.203125
317.228119 15.44393
317.296326 4.040909
317.365295 5.955882
317.398315 17.77947
317.531799 2.816667
317.548737 18.45389
317.582611 18.083481
317.774597 3.177941
317.829437 6.360556
317.848572 15.79301
317.934296 2.514286
318.100555 608.680176
318.282349 6.205233
318.872253 3.288043
318.960144 11.29091
319.019775 2.933333
319.245911 10.10205
319.332123 5.611111
319.43158 3.827174
319.493774 7.294913
320.695038 6.962
321.062958 9.894231
323.130707 16.633209
325.013672 4.306579
325.091736 6.552273
325.14267 29.93611
325.315582 10.2
325.70163 11.41096
326.101654 73.001877
326.128418 42.0173
327.54306 3.755556
328.474823 7.168243
328.814178 4.713636
329.371613 57.804039
329.905853 5.028489
329.933075 41.327999
329.966248 7.135
329.98938 8.96
330.013489 4.321
330.045837 6.5
330.083008 15.80023
330.107422 16.472639
330.12851 7.267592
330.162994 736.311829
330.220245 1.245
330.244812 45.017632
330.267975 40.20155
330.310333 43.194328
330.396851 43.795422
330.444641 5.435
330.470673 20.628429
330.504852 20.454439
330.538055 9.85
330.565399 15.59392
330.597931 24.33008
330.645599 9.268908
330.664551 3.409
330.681854 13.55364
330.702515 2.205555
330.78476 5.204787
330.842102 5.778125
331.026764 9.075
331.218018 8.87921
331.424164 2.8
331.492859 44.027382
331.628265 9.276471
331.670959 18.575239
331.770111 120.5429
331.81311 3.681667
331.846497 5.7125
331.867676 6.407258
331.925842 9.367392
331.975342 4.611764
331.993561 5.425
332.070435 5.400758
332.123596 622.398499
332.178284 32078.580078
332.366119 6.789815
332.42807 41.813759
332.461823 66.677979
332.520203 48.35038
332.552338 20.713511
332.584106 47.547218
332.610535 40.000832
332.662384 27.470949
332.679535 19.24925
332.700317 91.534851
332.778473 35.539169
332.807709 49.020519
332.828552 50.622501
332.844086 64.692253
332.87207 63.61198
332.908875 38.80978
332.938751 65.61203
333.002167 10.58112
333.055023 57.140339
333.225952 29.99412
333.356689 9.899445
333.42041 26.608431
333.600067 39.59893
333.655151 57.548389
333.742676 13.62243
333.96756 5.072059
334.006805 7.801852
334.039001 3.428571
334.124329 10.375
334.286621 5.425
334.362335 15.24167
334.382843 11.55833
334.427338 17.92012
334.457153 18.44088
334.63031 16.824369
334.759399 7.601315
334.790588 15.55511
334.827484 4.416026
335.056702 7.665244
335.705933 16.176781
335.732025 12.74342
335.771301 10.80294
335.872284 7.29423
335.956177 8.563372
336.120209 16.90658
336.408051 7.55
336.788818 7.530882
336.824402 2.801667
336.944183 4.563334
337.070709 3.264474
337.48764 13.88333
337.580322 3.721
337.61499 6.053333
338.15033 1367.967041
338.299438 6.6
338.372101 11.17782
338.422455 14.2175
338.491425 9.4
338.529816 8.645149
338.664246 2.436765
338.695923 3.217308
338.713715 3.09
338.805115 10.15683
338.841095 14.21633
339.085388 11.0025
339.25351 5.005233
339.381653 9.46
339.780945 3.401667
339.978027 2.688889
340.626129 3.8375
340.864746 3.2
341.603851 1.008333
342.870636 2.211842
343.129578 27.456949
344.07309 5.9
344.108582 10.81125
345.148224 35.01955
345.299713 6.945714
349.154144 10.00526
350.201508 2.60625
352.385773 2.608333
353.91629 10.03214
354.040497 2.314286
355.652161 1.848077
355.684937 6.445
355.711029 5.20147
355.771271 5.441667
355.809509 4.818182
355.842926 25.50363
355.892365 57.063709
355.940643 66.443298
355.975647 53.886841
356.021851 61.38319
356.059113 21.128571
356.112457 78.056091
356.152893 127.434998
356.202545 22.50289
356.24585 73.787666
356.272827 15.61025
356.287628 32.552811
356.328217 36.83593
356.372467 21.07143
356.410645 2.5
356.501862 58.05809
356.554138 37.489029
356.590942 3.266667
356.636932 3.029762
356.671234 28.70356
356.728973 6.669444
357.068176 46.907619
357.096954 98.520447
357.221527 10.01957
357.406403 4.993966
357.439636 13.28929
357.485413 22.236799
357.640045 14.61526
357.702148 3.675
357.765747 20.277439
357.805054 12.86224
358.15741 37690.160156
358.323822 23.070589
358.388275 35.00135
358.443329 34.003559
358.482574 78.723541
358.574158 46.414188
358.621216 36.03339
358.640411 25.596491
358.67865 43.142681
358.727448 34.705662
358.747101 76.907089
358.771881 89.769821
358.804016 22.980009
358.835144 58.682571
358.869385 7.111934
358.928955 60.892849
358.993774 58.053879
359.02655 12.38863
359.048523 44.677269
359.101166 85.436462
359.212799 44.854771
359.308228 54.8139
359.36142 7.427222
359.408142 5.486428
359.645508 26.02858
359.665466 3.620162
359.818573 19.163509
359.866119 12.20479
359.89801 19.10103
360.02182 6.825
360.075165 3.01
360.130493 292.048889
360.190186 24.88678
360.256195 11.15
360.353149 11.56395
360.470795 4.261539
360.496094 12.24791
360.536469 25.42231
360.781311 7.612255
360.946533 9.456364
361.014923 5.041
361.376343 4.70431
361.410583 3.839516
361.707092 5.83141
361.745514 3.35625
362.019684 3.025
362.065613 3.057143
362.235107 10.02717
362.317383 3.822368
362.42926 2.4125
362.534546 2.827174
362.680298 10.30471
362.767029 5.915
362.912201 2.664474
362.979095 3.38
363.131683 12.16372
363.341675 3.64
363.475739 8.484483
363.621674 8.403571
364.431458 8.516428
364.969604 3.407258
365.251526 7.672222
365.655396 13.7819
366.995819 4.2
367.086121 5.2225
369.20282 4.446154
370.366119 4.017857
370.640503 5.401471
372.760132 5.4
373.218781 60.076111
373.405182 6.437121
373.564636 21.63516
373.601013 6.216667
373.653625 16.841669
373.681641 7.135689
373.757385 11.56802
373.786407 81.18399
373.840302 48.626881
373.870636 30.923189
373.898193 40.523338
373.930939 9.644444
373.9505 5.321
373.970154 11.03676
374.000763 47.24012
374.02948 72.297821
374.071777 43.502819
374.10849 74.255157
374.148499 151.794403
374.185455 51.405449
374.323242 8.733334
374.419342 31.451401
374.45874 51.122341
374.630127 24.409349
374.667786 36.811321
374.827148 23.207109
374.893951 22.136999
374.97345 14.33228
375.280426 13.07356
375.347168 9.05
375.512329 5.114189
375.615051 5.422727
375.704956 8.000609
375.761932 23.28112
375.870422 99.136673
375.964111 10.40044
375.991089 9.417864
376.039276 2.95625
376.065277 10.4
376.103973 22.01881
376.167847 36842.179688
376.28125 7.706666
376.336456 9.155769
376.416229 76.453522
376.462402 57.18634
376.524567 69.727219
376.590729 69.126732
376.63623 85.87709
376.665924 121.386002
376.695618 25.64196
376.717896 59.571972
376.7435 33.140709
376.773621 89.04245
376.794159 14.69898
376.834259 88.832733
376.941101 79.643982
376.99173 108.589203
377.045685 7.61366
377.071106 18.42491
377.112793 27.96973
377.250641 68.874893
377.29892 36.230091
377.363678 56.901909
377.571381 29.079781
377.875519 4.816026
378.051056 16.89653
378.105438 14.91476
378.186707 21.72279
378.785217 14.22057
378.820496 14.11754
378.877472 3.525
378.927155 12.93611
379.019287 5.434783
379.12439 16.726789
379.290466 18.710529
379.344452 4.8025
379.457123 8.208334
379.493652 4.42
379.529999 13.10025
379.588989 16.465151
379.608856 12.82162
379.764587 4.229762
379.828003 8.533889
379.890747 13.92567
379.993408 6.089
380.055878 7.336112
380.537109 13.27682
380.909241 6.75921
380.962341 11.45333
381.182892 3.003846
382.100464 4.970454
382.14801 2.002273
382.23642 2.201471
382.806091 3.05
383.032623 2.472059
383.723724 5.95
383.856903 1.8
384.623108 2.536111
387.156036 3.275
393.976227 4.4
404.649536 2.857143
411.769684 18.08956
411.929474 6.061735
414.978302 3.00625
423.146729 9.82
430.841522 4.429762
448.439697 3.83
460.62384 2.205
852.512207 3.032895
1153.61499 8.139655
1239.48877 3.422368
1320.546997 4.266667
1590.625732 5.077564
