>compound MLS001066368-01!2,2-diphenylacetic acid
>formula C14H12O2
>ionization [M+H]+
>parentmass 213.092
#inchi InChI=1S/C14H12O2/c15-14(16)13(11-7-3-1-4-8-11)12-9-5-2-6-10-12/h1-10,13H,(H,15,16)
#inchikey PYHXGXCGESYPCW
#Ion_Source LC-ESI
#Instrument qTof
#Compound_Source NIH Natural Product Library
#PI Dorrestein
#Data_Collector VVP/LMS
#Scan -1
#Precursor_MZ 213.092
#ExactMass 212.084
#Charge 1
#CAS_Number N/A
#Pubmed_ID N/A
#Smiles OC(=O)C(c1ccccc1)c2ccccc2
#INCHI_AUX N/A
#Library_Class 3
#SpectrumID CCMSLIB00000079483
#IonMode Positive
#UpdateWorkflowName UPDATE-SINGLE-ANNOTATED-BRONZE
#LibraryQualityString Bronze
#TaskID b1d8e8f6646f4e71acdff9ca3d919d08
##Scan# 2112
#SpectrumFile p1-A07_GA7_01_17880.mzXML
#LibraryName NIH_Natural_Products_Library.mgf
#MQScore -1
#Organism NIH_Natural_Products_Library
#TIC_Query 0
#RT_Query -1
#MZErrorPPM -1
#SharedPeaks 0
#MassDiff 0
#LibMZ -1
#SpecMZ 213.092
#SpecCharge 0
#internalFilename spec-00000.mgf

>collision 10
95.209457 224.0
95.514595 216.0
104.151016 160.0
107.051018 476.0
107.248871 32.0
108.05835 184.0
108.584488 104.0
111.351929 172.0
122.034462 40.0
126.352715 48.0
126.724358 160.0
128.162323 40.0
132.900879 128.0
134.560303 184.0
135.045837 280.0
137.289032 180.0
138.949738 96.0
142.080383 168.0
152.062195 1244.0
153.065598 252.0
154.063614 172.0
164.055038 156.0
165.070114 812.0
165.780258 220.0
166.074661 244.0
167.083557 1228.0
168.054749 212.0
168.084808 172.0
181.080719 84.0
219.731705 112.0
308.337311 20.0
378.324951 76.0
635.106567 80.0
893.760864 20.0
1076.604736 164.0
1402.296997 80.0
1420.068604 236.0
1464.473145 216.0
