>compound 17-hydroxy-3-oxo-, (17??)-19-Norpregna-5(10),9(11)-diene-21-nitrile
>formula C20H25NO2
>ionization [M+H]+
>parentmass 312.1958054920906
#inchi InChI=1S/C20H25NO2/c1-19-8-6-16-15-5-3-14(22)12-13(15)2-4-17(16)18(19)7-9-20(19,23)10-11-21/h6,17-18,23H,2-5,7-10,12H2,1H3/t17-,18+,19+,20-/m1/s1
#inchikey WUQMVSOZWZOUJR
#Ion_Source DI-ESI
#Instrument qTof
#Compound_Source Commercial
#PI Norberto Lopes
#Data_Collector Norberto Lopes
#Scan -1
#Precursor_MZ 312.19
#ExactMass 311.189
#Charge 1
#CAS_Number 106111-42-6
#Pubmed_ID N/A
#Smiles O[C@@]1(CC#N)CC[C@@]2([H])[C@](C3=CC[C@@]21C)([H])CCC4=C3CCC(C4)=O
#INCHI_AUX N/A
#Library_Class 3
#SpectrumID CCMSLIB00000081558
#IonMode Positive
#UpdateWorkflowName UPDATE-SINGLE-ANNOTATED-BRONZE
#LibraryQualityString Bronze
#TaskID 4a07f16a650f4095b43fe6b0b09ff8bb
##Scan# 1
#SpectrumFile gnps_17_hydroxy_3_oxo_17a_19_Norpregna_5_10_9_11_diene_21_nitrile_pos_MplusH.mgf
#LibraryName gnps_library.mgf
#MQScore -1
#Organism batch_27_05
#TIC_Query 0
#RT_Query -1
#MZErrorPPM -1
#SharedPeaks 0
#MassDiff 0
#LibMZ -1
#SpecMZ 312.19
#SpecCharge 0
#internalFilename spec-00000.mgf

>collision 10
115.052551 1157.0
117.067261 1618.0
119.083588 2006.0
128.059738 1463.0
129.064896 1719.0
131.080307 3467.0
132.078705 2493.0
133.079956 5029.0
134.093216 1567.0
135.077362 14583.0
136.082458 1753.0
141.064896 1597.0
143.080261 3756.0
144.084305 1149.0
145.094345 1888.0
146.091156 2300.0
147.076843 2792.0
148.087082 1373.0
149.093933 1152.0
155.080139 1651.0
157.090759 1711.0
158.094269 1392.0
159.075073 13588.0
160.078568 2302.0
161.092056 18326.0
162.096466 5591.0
169.093643 2027.0
171.11203 1408.0
173.09166 2199.0
175.106613 1514.0
181.097046 1215.0
183.112335 1501.0
184.110992 1477.0
185.113037 1149.0
193.094788 1280.0
195.112244 1758.0
199.108887 1627.0
211.139725 2051.0
213.122116 1467.0
214.129028 1250.0
225.125671 1487.0
235.141434 1407.0
252.150497 1182.0
253.152695 4411.0
254.158096 6201.0
255.161957 1367.0
271.161774 2284.0
294.177673 3258.0
295.179626 1191.0
312.189575 20836.0
