>compound FAMCICLOVIR
>formula C14H19N5O4
>ionization [M+H]+
>parentmass 322.15098054009053
#inchi InChI=1S/C14H19N5O4/c1-9(20)22-6-11(7-23-10(2)21)3-4-19-8-17-12-5-16-14(15)18-13(12)19/h5,8,11H,3-4,6-7H2,1-2H3,(H2,15,16,18)
#inchikey GGXKWVWZWMLJEH
#Ion_Source LC-ESI
#Instrument qTof
#Compound_Source Commercial
#PI Dorrestein
#Data_Collector Garg_Neha
#Scan -1
#Precursor_MZ 322.151
#ExactMass 321.144
#Charge 1
#CAS_Number N/A
#Pubmed_ID N/A
#Smiles CC(=O)OCC(CCn1cnc2cnc(N)nc12)COC(=O)C
#INCHI_AUX N/A
#Library_Class 1
#SpectrumID CCMSLIB00000079001
#IonMode Positive
#UpdateWorkflowName UPDATE-SINGLE-ANNOTATED-GOLD
#LibraryQualityString Gold
#TaskID 278b19f5865741e282cec7349aa7e7a1
##Scan# 1013
#SpectrumFile NCP003352_C2_D11_BC5_01_15719.mzXML
#LibraryName NIHcollectionI_05062014.mgf
#MQScore -1
#Organism NIHcollectionI_05062014
#TIC_Query 0
#RT_Query -1
#MZErrorPPM -1
#SharedPeaks 0
#MassDiff 0
#LibMZ -1
#SpecMZ 322.151
#SpecCharge 0
#internalFilename spec-00000.mgf

>collision 10
45.146534 196.0
45.464035 180.0
45.735527 144.0
45.839226 140.0
46.491039 180.0
46.643158 156.0
46.899055 152.0
50.144169 164.0
50.295086 144.0
51.061611 200.0
51.440624 160.0
51.549171 152.0
52.688595 160.0
53.106941 172.0
53.308743 148.0
53.831711 176.0
53.960293 172.0
54.645226 188.0
56.038471 204.0
56.235313 188.0
56.655499 160.0
57.188572 184.0
57.751366 148.0
59.973045 148.0
60.329624 272.0
61.312157 160.0
62.71175 184.0
63.581619 180.0
63.688965 164.0
64.642975 236.0
65.611511 176.0
68.67408 156.0
69.687202 196.0
69.713783 184.0
70.400124 200.0
70.530441 156.0
70.880219 192.0
72.957947 244.0
75.084648 192.0
76.136879 176.0
76.997208 144.0
78.330231 148.0
79.247116 276.0
79.275467 192.0
80.135483 188.0
80.565445 140.0
80.756706 208.0
82.629349 172.0
82.88102 152.0
83.082268 196.0
83.210464 188.0
84.325951 200.0
85.23307 148.0
86.11734 160.0
87.496979 176.0
87.877182 172.0
88.303093 196.0
88.823792 168.0
89.231308 168.0
92.578583 160.0
93.032997 172.0
93.738869 156.0
93.800537 156.0
93.860306 208.0
93.974106 160.0
94.037788 156.0
94.449333 156.0
95.453941 144.0
95.677834 168.0
97.846916 168.0
99.614899 236.0
100.147705 148.0
100.419037 208.0
103.076096 300.0
103.289345 156.0
106.044273 200.0
106.11602 160.0
106.269844 180.0
106.374512 168.0
106.475121 264.0
106.925354 176.0
107.496201 160.0
107.971336 196.0
108.192734 216.0
108.447525 176.0
109.050995 932.0
111.169205 160.0
111.246857 244.0
111.51152 200.0
112.799377 156.0
112.902977 156.0
113.491653 144.0
113.663467 160.0
114.963654 160.0
115.224152 156.0
115.262604 176.0
115.288246 176.0
115.508469 216.0
116.307716 172.0
116.382858 176.0
116.885826 140.0
117.049423 184.0
117.841011 148.0
118.56591 152.0
118.748024 176.0
119.035637 520.0
119.058372 220.0
119.169151 140.0
119.397392 188.0
119.43219 144.0
120.098694 176.0
120.220871 164.0
121.050758 472.0
121.250916 184.0
121.516243 172.0
122.955345 228.0
125.009689 152.0
127.075134 372.0
128.740005 172.0
129.862534 172.0
130.43927 144.0
131.040955 112.0
131.055908 196.0
131.263428 200.0
131.322723 148.0
131.740448 156.0
133.045776 148.0
133.074936 436.0
134.613754 168.0
135.055161 180.0
135.861282 172.0
135.956421 164.0
136.000519 156.0
136.062836 54380.0
136.111771 176.0
136.236053 132.0
136.372452 116.0
136.434021 96.0
136.493393 152.0
136.744263 232.0
137.063477 2076.0
137.105255 152.0
138.066727 180.0
141.242279 148.0
142.347946 160.0
142.584259 236.0
142.988556 144.0
143.937347 156.0
144.059647 116.0
145.086151 2024.0
145.109756 140.0
145.902023 144.0
146.017441 144.0
147.07515 144.0
148.062729 5368.0
148.085205 648.0
148.315994 180.0
149.064255 784.0
149.092651 152.0
149.97612 176.0
150.079391 164.0
150.224838 144.0
150.529922 160.0
150.608063 208.0
151.077408 280.0
151.101868 140.0
153.417755 184.0
155.021851 148.0
155.059021 220.0
155.448364 160.0
155.562531 148.0
155.659363 160.0
155.77858 300.0
156.365372 152.0
157.337509 184.0
158.07785 136.0
159.072342 148.0
160.042648 172.0
160.083282 452.0
160.672852 156.0
161.041397 172.0
161.068741 196.0
161.430588 156.0
162.074249 724.0
162.098877 148.0
163.091232 180.0
163.284073 152.0
163.448212 180.0
165.655624 176.0
167.855652 268.0
168.480499 172.0
169.049088 176.0
169.227676 176.0
170.366211 156.0
172.751495 180.0
173.066589 708.0
173.099594 156.0
173.794205 176.0
174.078384 516.0
174.348282 180.0
174.458664 152.0
174.784805 140.0
175.099106 1380.0
175.532883 160.0
176.106537 500.0
176.822052 212.0
178.074905 368.0
179.073471 152.0
180.04425 172.0
180.707153 200.0
181.545563 160.0
181.567017 180.0
183.061172 344.0
183.257812 156.0
183.459946 168.0
184.493881 168.0
184.894196 148.0
185.082428 756.0
186.077652 1348.0
186.380234 152.0
187.088806 1460.0
188.095047 488.0
188.940369 208.0
189.112503 208.0
190.109512 704.0
190.384872 184.0
191.113022 268.0
191.272934 144.0
191.407822 176.0
191.710846 172.0
192.89212 152.0
193.107224 284.0
193.42598 152.0
197.214417 220.0
197.882996 212.0
200.093796 656.0
201.097946 532.0
201.912155 144.0
202.024857 176.0
202.109131 16656.0
202.61351 180.0
202.821396 176.0
203.111496 1940.0
203.415115 104.0
203.485214 192.0
204.113586 100.0
205.069656 172.0
205.115265 144.0
205.634384 152.0
206.584381 176.0
206.957932 184.0
208.108826 140.0
208.949783 184.0
209.056244 144.0
209.715759 216.0
211.179611 220.0
211.567352 188.0
212.045105 128.0
212.787872 156.0
212.962112 200.0
213.052155 156.0
213.744125 152.0
214.154602 172.0
214.349792 144.0
217.546539 168.0
217.91069 180.0
218.716461 200.0
220.119995 5420.0
220.435852 148.0
220.820175 212.0
221.050919 144.0
221.122437 640.0
221.275864 160.0
222.039993 156.0
222.120453 204.0
222.21405 196.0
224.866745 192.0
224.992111 168.0
225.219055 168.0
225.939484 192.0
227.95134 156.0
228.537674 152.0
233.246399 160.0
234.37851 232.0
235.117432 288.0
236.005386 160.0
236.164398 180.0
238.130096 1416.0
239.132584 504.0
239.765762 148.0
240.135727 140.0
240.185074 144.0
241.238052 148.0
242.569138 184.0
243.025024 144.0
243.071564 188.0
243.248459 188.0
244.438797 148.0
245.345154 160.0
246.253174 140.0
247.557297 168.0
249.773071 160.0
251.106003 124.0
251.603943 144.0
251.651306 156.0
251.99556 156.0
252.703781 152.0
252.975952 148.0
253.140579 172.0
253.644333 152.0
254.094635 148.0
254.58345 152.0
255.158554 144.0
256.415894 188.0
256.887787 168.0
256.977112 144.0
257.858459 176.0
257.919189 192.0
258.213348 176.0
259.558319 152.0
260.83609 148.0
262.063965 168.0
262.131744 14232.0
262.323242 152.0
263.133942 2064.0
264.139526 184.0
264.775635 164.0
264.867889 140.0
264.909058 184.0
265.025055 236.0
265.139587 140.0
265.216248 192.0
265.660492 168.0
268.953552 140.0
269.969635 204.0
270.483276 292.0
270.908966 196.0
271.456329 188.0
271.915619 156.0
272.089569 220.0
274.623352 140.0
275.223969 140.0
276.265045 200.0
276.60257 160.0
276.907196 228.0
278.137268 152.0
278.442719 164.0
279.047516 176.0
279.402679 116.0
279.925903 204.0
280.021057 188.0
280.141663 11352.0
280.220764 108.0
281.14505 1604.0
281.222748 172.0
281.509888 204.0
282.143982 380.0
283.922699 212.0
284.691193 200.0
287.9039 196.0
290.193298 144.0
293.472321 156.0
293.704224 196.0
295.10437 184.0
295.641388 148.0
295.733795 200.0
297.502533 140.0
298.388885 176.0
298.674286 148.0
300.865936 164.0
301.944 184.0
303.876862 180.0
304.428772 164.0
305.158447 160.0
306.874908 236.0
307.122498 144.0
308.250153 148.0
308.575226 160.0
309.940247 176.0
310.459045 144.0
313.17926 236.0
317.072754 148.0
317.881287 140.0
318.481262 140.0
318.790344 168.0
319.093567 136.0
319.182953 208.0
319.421814 144.0
319.455231 176.0
319.515717 180.0
319.648071 120.0
319.920227 156.0
320.015015 136.0
320.067383 144.0
320.13504 168.0
320.193359 96.0
320.257141 100.0
320.701508 180.0
320.747833 140.0
320.790619 172.0
320.857422 104.0
320.910645 132.0
321.006348 188.0
321.093262 100.0
321.162659 248.0
321.239929 192.0
321.28894 140.0
321.347748 244.0
321.426025 140.0
321.461121 160.0
321.486908 140.0
321.538757 156.0
321.655701 152.0
321.70163 148.0
321.745056 160.0
321.913757 236.0
321.953583 192.0
322.007355 600.0
322.053894 216.0
322.081879 712.0
322.111237 340.0
322.153778 180456.0
322.279785 236.0
322.360199 108.0
322.406189 216.0
322.482239 324.0
322.518097 192.0
322.593201 228.0
322.741364 3348.0
322.773346 224.0
322.834503 240.0
322.877319 300.0
322.923218 132.0
322.955841 192.0
323.075409 284.0
323.155396 39572.0
323.278656 164.0
323.331848 140.0
323.482849 180.0
323.744537 100.0
323.938416 132.0
324.013641 108.0
324.156769 4412.0
324.231323 172.0
324.347015 144.0
324.470978 104.0
324.4953 204.0
324.557434 176.0
324.657349 152.0
324.824982 180.0
324.890717 112.0
324.965637 124.0
324.991333 160.0
325.035156 160.0
325.072235 96.0
325.159058 240.0
325.262939 228.0
325.311554 160.0
325.346893 352.0
325.35672 232.0
325.433136 108.0
325.497742 164.0
325.537811 136.0
325.593658 200.0
325.865875 124.0
325.980286 216.0
326.020233 132.0
326.183289 140.0
326.262909 180.0
326.458374 212.0
326.825287 144.0
326.859467 120.0
327.428406 96.0
328.336823 144.0
334.568695 132.0
334.713776 120.0
334.93631 100.0
338.367371 148.0
349.759796 152.0
656.435059 164.0
1088.05249 216.0
1093.067383 204.0
1179.627197 148.0
1188.716675 160.0
1220.949707 152.0
1252.058105 164.0
1299.701782 148.0
1300.706543 152.0
1350.874756 152.0
1375.875488 184.0
1390.249634 176.0
1400.1073 172.0
1402.946167 192.0
1485.779053 168.0
1495.014771 160.0
1511.133911 140.0
1524.051147 224.0
1546.85498 168.0
1562.542358 156.0
1582.154053 176.0
1584.038818 168.0
1671.663818 156.0
1679.655396 176.0
1681.908325 184.0
1734.835083 176.0
1736.51001 160.0
1750.413208 172.0
1752.762207 148.0
1752.89563 172.0
1761.614258 188.0
1782.560059 196.0
1786.42749 200.0
1801.322754 208.0
1832.440308 148.0
1839.279541 208.0
1844.344727 184.0
1872.590332 152.0
1880.625854 176.0
1884.848877 164.0
1906.034912 200.0
1916.336792 156.0
1919.038696 256.0
1920.372925 228.0
1922.248535 156.0
1924.343384 160.0
1924.448242 144.0
1947.945068 192.0
1966.223755 204.0
1970.250244 148.0
1998.408203 144.0
