>compound 2,2-dimethyl-5-oxo-2,3,4,5-tetrahydroindeno[1,2-b]pyran-6-carboxylic acid
>formula C15H14O4
>ionization [M+Na]+
>parentmass 281.07842962809053
#inchi InChI=1S/C15H14O4/c1-15(2)7-6-10-12(16)11-8(13(10)19-15)4-3-5-9(11)14(17)18/h3-5H,6-7H2,1-2H3,(H,17,18)
#inchikey SRAZIDLUTMRWNZ
#Ion_Source DI-ESI
#Instrument qTof
#Compound_Source Isolated
#PI Norberto Lopes
#Data_Collector Niege Furtado
#Scan -1
#Precursor_MZ 281.073
#ExactMass 258.089
#Charge 1
#CAS_Number  
#Pubmed_ID  
#Smiles CC(CC1)(C)OC(C2=CC=CC(C(O)=O)=C23)=C1C3=O
#INCHI_AUX  
#Library_Class 3
#SpectrumID CCMSLIB00000081248
#IonMode Positive
#UpdateWorkflowName UPDATE-SINGLE-ANNOTATED-BRONZE
#LibraryQualityString Bronze
#TaskID 58a4ace7fefd4f8ba9ca99d01553ac72
##Scan# 1
#SpectrumFile gnps_2_2_dimethyl_5_oxo_2_3_4_5_tetrahydroindeno_1_2_b_pyran_6_carboxylic_acid_pos_M_Na.mgf
#LibraryName gnps_library.mgf
#MQScore -1
#Organism gnps_library
#TIC_Query 0
#RT_Query -1
#MZErrorPPM -1
#SharedPeaks 0
#MassDiff 0
#LibMZ -1
#SpecMZ 281.073
#SpecCharge 0
#internalFilename spec-00000.mgf

>collision 10
121.060966 1141.0
122.063889 101.0
129.029556 104.0
148.007034 120.0
149.019928 1022.0
157.010986 158.0
159.075897 350.0
173.091721 489.0
181.024567 103.0
183.028961 111.0
184.965576 801.0
191.018448 130.0
197.002274 128.0
203.029175 1233.0
204.033524 153.0
206.970291 112.0
206.970291 112.0
209.031067 152.0
212.961884 193.0
215.016907 326.0
225.012177 5199.0
226.014938 659.0
226.962524 183.0
233.009415 240.0
234.956436 212.0
240.994858 223.0
243.022324 211.0
251.019684 953.0
252.959579 107.0
259.002594 143.0
276.998138 564.0
281.072693 212.0
