>compound MLS002153997-01!Clobetasol propionate25122-46-7
>formula C25H32ClFO5
>ionization [M+H]+
>parentmass 467.1995064760905
#inchi InChI=1S/C25H32ClFO5/c1-5-21(31)32-25(20(30)13-26)14(2)10-18-17-7-6-15-11-16(28)8-9-22(15,3)24(17,27)19(29)12-23(18,25)4/h8-9,11,14,17-19,29H,5-7,10,12-13H2,1-4H3/t14-,17-,18-,19-,22-,23-,24-,25?/m0/s1
#inchikey CBGUOGMQLZIXBE
#Ion_Source LC-ESI
#Instrument qTof
#Compound_Source NIH Pharmacologically Active Library
#PI Dorrestein
#Data_Collector VP/LMS
#Scan -1
#Precursor_MZ 467.206
#ExactMass 466.192
#Charge 1
#CAS_Number N/A
#Pubmed_ID N/A
#Smiles CCC(=O)OC1([C@@H](C)C[C@H]2[C@@H]3CCC4=CC(=O)C=C[C@]4(C)[C@@]3(F)[C@@H](O)C[C@@]21C)C(=O)CCl
#INCHI_AUX N/A
#Library_Class 1
#SpectrumID CCMSLIB00000086033
#IonMode Positive
#UpdateWorkflowName UPDATE-SINGLE-ANNOTATED-GOLD
#LibraryQualityString Gold
#TaskID d252d724072548979f1f6f1ced849daf
##Scan# 2329
#SpectrumFile p5-B05_GB5_01_18444.mzXML
#LibraryName Pharm_Active_Library.mgf
#MQScore -1
#Organism Pharm_Active_Library
#TIC_Query 0
#RT_Query -1
#MZErrorPPM -1
#SharedPeaks 0
#MassDiff 0
#LibMZ -1
#SpecMZ 467.206
#SpecCharge 0
#internalFilename spec-00000.mgf

>collision 10
44.931156 180.0
45.02726 216.0
45.077904 220.0
45.143524 100.0
45.16626 208.0
45.222458 124.0
45.263824 160.0
45.316193 132.0
45.408688 220.0
45.426125 36.0
45.446247 164.0
45.490532 140.0
45.536186 180.0
45.549618 120.0
45.597988 188.0
45.614117 88.0
45.641003 208.0
45.720367 32.0
45.798119 272.0
45.855042 164.0
45.875259 172.0
45.888741 168.0
45.902225 188.0
46.008812 208.0
46.070934 52.0
46.10252 148.0
46.106831 120.0
46.110455 160.0
46.176365 152.0
46.206123 176.0
46.256393 244.0
46.348286 168.0
46.442425 252.0
46.574837 188.0
46.848251 124.0
46.882008 124.0
46.910934 148.0
47.077389 124.0
47.118366 48.0
47.155258 136.0
47.195297 152.0
47.218147 128.0
47.238663 108.0
47.411179 124.0
47.564789 192.0
47.615589 144.0
47.651302 176.0
47.689781 196.0
47.773659 144.0
47.799797 72.0
47.845219 128.0
47.914074 204.0
47.948524 116.0
47.965061 140.0
47.974712 156.0
48.075397 324.0
48.109901 168.0
48.224552 88.0
48.245285 56.0
48.336567 236.0
48.378086 140.0
48.390549 168.0
48.426552 44.0
48.483353 40.0
48.530483 116.0
48.603992 344.0
48.626198 200.0
48.69978 136.0
48.709503 184.0
48.781761 144.0
48.964031 92.0
48.990498 112.0
49.015575 56.0
49.058781 96.0
49.113159 160.0
49.14571 180.0
49.163387 140.0
49.174549 124.0
49.212242 144.0
49.263912 152.0
49.431686 112.0
49.442883 180.0
49.540894 140.0
49.78775 252.0
49.800392 184.0
49.84956 128.0
49.895943 208.0
49.949379 44.0
49.966263 200.0
49.980331 180.0
50.012699 140.0
50.143681 148.0
50.249439 204.0
50.289421 176.0
50.301655 112.0
50.312946 136.0
50.357864 168.0
50.459873 92.0
50.588608 52.0
50.619759 196.0
50.656582 132.0
50.738773 164.0
50.819614 192.0
50.884953 212.0
51.024128 128.0
51.056831 192.0
51.06963 184.0
51.098782 244.0
51.19772 176.0
51.21196 52.0
51.230476 48.0
51.261822 244.0
51.317413 132.0
51.345932 84.0
51.517212 76.0
51.594379 40.0
51.615826 172.0
51.665882 172.0
51.697361 204.0
51.730278 192.0
51.744595 188.0
51.86636 296.0
52.002617 124.0
52.021278 176.0
52.031326 168.0
52.060043 172.0
52.131866 144.0
52.211533 224.0
52.296906 148.0
52.46579 192.0
52.494625 224.0
52.595615 180.0
52.67503 196.0
52.751617 188.0
52.765884 92.0
52.769688 80.0
52.84417 208.0
52.916534 204.0
52.962875 168.0
53.006336 108.0
53.041119 88.0
53.055614 120.0
53.087513 152.0
53.109268 116.0
53.128124 172.0
53.141182 228.0
53.186169 92.0
53.24279 136.0
53.287819 220.0
53.3256 196.0
53.377934 200.0
53.433205 160.0
53.536549 164.0
53.584614 236.0
53.698315 204.0
53.749371 232.0
53.787315 120.0
53.815052 200.0
53.872009 204.0
53.959694 144.0
53.997711 156.0
54.047577 180.0
54.072327 148.0
54.111847 148.0
54.155777 32.0
54.196796 124.0
54.211449 152.0
54.234993 188.0
54.262749 140.0
54.358089 204.0
54.385971 80.0
54.428543 160.0
54.525497 204.0
54.556366 112.0
54.753529 192.0
54.897949 56.0
54.943672 152.0
54.998272 144.0
55.064713 84.0
55.17849 120.0
55.193275 148.0
55.208061 196.0
55.242081 96.0
55.313107 188.0
55.403439 84.0
55.433071 164.0
55.458263 96.0
55.495323 40.0
55.581974 172.0
55.613998 220.0
55.675678 132.0
55.743202 112.0
55.77887 160.0
55.80117 160.0
55.836857 188.0
55.871067 188.0
55.890408 84.0
55.902313 124.0
55.912731 124.0
55.924637 168.0
55.997589 244.0
56.180931 152.0
56.265995 164.0
56.303322 240.0
56.346638 100.0
56.514088 204.0
56.644333 148.0
56.713257 132.0
56.779224 188.0
57.02845 140.0
57.049492 188.0
57.163799 208.0
57.230026 144.0
57.260143 132.0
57.299309 180.0
57.364109 176.0
57.376167 136.0
57.404816 196.0
57.419895 116.0
57.465149 176.0
57.496838 48.0
57.611591 172.0
57.650875 156.0
57.665985 172.0
57.818737 116.0
57.83387 100.0
58.089947 192.0
58.147602 192.0
58.208324 140.0
58.395245 144.0
58.416538 124.0
58.491592 368.0
58.526115 216.0
58.561138 176.0
58.581203 116.0
58.69067 124.0
58.713543 232.0
58.72422 88.0
58.748627 156.0
58.766933 176.0
58.91333 148.0
58.965443 216.0
59.035767 192.0
59.052589 172.0
59.092361 152.0
59.210991 216.0
59.228607 56.0
59.25618 196.0
59.414085 136.0
59.452446 152.0
59.544556 200.0
59.649036 176.0
59.665947 160.0
59.74284 212.0
59.825939 140.0
59.872131 96.0
59.904472 92.0
59.93837 176.0
59.963024 76.0
59.993465 256.0
60.038567 44.0
60.118786 100.0
60.149651 100.0
60.229942 160.0
60.246937 168.0
60.262386 140.0
60.466499 180.0
60.517582 176.0
60.554749 164.0
60.627514 132.0
60.688015 132.0
60.855579 152.0
60.925465 276.0
61.007351 156.0
61.06847 156.0
61.239677 164.0
61.272388 160.0
61.301991 204.0
61.312901 156.0
61.342514 136.0
61.377445 336.0
61.442318 128.0
61.515663 68.0
61.626545 188.0
61.656235 192.0
61.66832 180.0
61.673187 132.0
61.676826 160.0
61.689056 52.0
61.706253 140.0
61.74691 160.0
61.771542 144.0
61.787018 224.0
61.818871 156.0
61.832954 120.0
61.914291 172.0
61.970753 60.0
61.995403 284.0
62.095112 132.0
62.169891 80.0
62.254662 228.0
62.312778 200.0
62.356777 40.0
62.398289 220.0
62.492012 172.0
62.533676 184.0
62.625816 104.0
62.666367 140.0
62.95385 196.0
63.002811 76.0
63.040791 216.0
63.119766 112.0
63.14349 204.0
63.194107 116.0
63.233665 132.0
63.405251 152.0
63.46019 164.0
63.625187 240.0
63.642651 144.0
63.847637 52.0
63.916039 148.0
63.927177 168.0
63.959007 232.0
64.016319 120.0
64.033836 96.0
64.054543 204.0
64.152054 104.0
64.17247 108.0
64.205956 144.0
64.220314 192.0
64.30806 180.0
64.325623 264.0
64.410248 80.0
64.459778 188.0
64.482147 160.0
64.576477 188.0
64.61647 140.0
64.75573 124.0
64.829422 152.0
64.925606 180.0
64.965706 148.0
65.050758 216.0
65.203339 84.0
65.34967 164.0
65.489723 140.0
65.507439 168.0
65.520325 176.0
65.547714 176.0
65.636368 132.0
65.657333 168.0
65.681526 168.0
65.718628 204.0
65.76059 148.0
65.775116 144.0
65.859077 156.0
65.873611 188.0
65.926933 336.0
65.957634 172.0
65.994713 124.0
66.072449 212.0
66.132324 228.0
66.308861 156.0
66.347763 96.0
66.415298 184.0
66.55864 180.0
66.589531 256.0
66.609627 248.0
66.75367 160.0
67.002693 140.0
67.014099 212.0
67.027786 160.0
67.051575 132.0
67.151024 208.0
67.265236 124.0
67.325943 144.0
67.337082 116.0
67.628105 168.0
67.654289 160.0
67.760742 32.0
67.783676 168.0
67.868912 152.0
67.937798 184.0
68.003204 148.0
68.07402 64.0
68.087158 160.0
68.18409 220.0
68.25885 156.0
68.335365 156.0
68.363342 144.0
68.406128 176.0
68.574135 172.0
68.623589 52.0
68.668114 172.0
68.6912 148.0
68.724274 168.0
68.755547 132.0
68.783607 232.0
68.844696 132.0
69.055817 224.0
69.11248 124.0
69.131302 260.0
69.217728 152.0
69.340996 216.0
69.37912 112.0
69.447105 220.0
69.460381 152.0
69.501854 200.0
69.556618 116.0
69.603104 384.0
69.641296 208.0
69.755943 196.0
69.774231 124.0
69.897308 144.0
69.947235 104.0
69.97554 168.0
70.000511 244.0
70.089859 244.0
70.140457 92.0
70.158798 204.0
70.188805 56.0
70.207146 208.0
70.245506 128.0
70.342293 108.0
70.372383 160.0
70.394051 156.0
70.552773 248.0
70.763573 148.0
70.819786 328.0
70.843956 100.0
70.900925 148.0
70.939476 176.0
70.952461 176.0
71.003189 180.0
71.09713 180.0
71.145805 120.0
71.157562 64.0
71.26001 196.0
71.286896 184.0
71.379219 156.0
71.51561 184.0
71.580254 60.0
71.761559 236.0
71.918442 136.0
71.930252 128.0
72.288551 136.0
72.435844 84.0
72.484978 124.0
72.55616 132.0
72.612114 40.0
72.797096 180.0
72.836151 128.0
72.85994 76.0
73.001007 72.0
73.046928 192.0
73.05864 172.0
73.08606 184.0
73.218834 132.0
73.276749 88.0
73.331276 44.0
73.377304 180.0
73.447052 164.0
73.469391 148.0
73.48645 144.0
73.535942 208.0
73.568375 156.0
73.602325 144.0
73.608917 128.0
73.615265 240.0
73.674248 196.0
73.69133 188.0
73.737473 164.0
73.845177 236.0
73.922165 76.0
74.077965 220.0
74.093384 56.0
74.10952 180.0
74.125931 280.0
74.153351 156.0
74.317978 188.0
74.384903 184.0
74.403786 164.0
74.522293 120.0
74.54631 192.0
74.676262 176.0
74.682602 236.0
74.809494 164.0
74.827606 144.0
74.905777 168.0
74.93866 148.0
75.043793 60.0
75.082939 148.0
75.197319 152.0
75.416313 184.0
75.452469 168.0
75.532509 172.0
75.546349 168.0
75.608635 196.0
75.653641 96.0
75.672684 152.0
75.724022 136.0
75.776596 112.0
75.819916 128.0
75.861511 60.0
75.94648 92.0
76.034966 172.0
76.059258 156.0
76.09919 60.0
76.13044 180.0
76.234673 212.0
76.290291 116.0
76.377235 148.0
76.467705 64.0
76.652306 156.0
76.716789 100.0
76.777817 32.0
76.851074 232.0
76.885979 112.0
76.926117 112.0
76.947067 188.0
77.048363 200.0
77.067581 56.0
77.083305 80.0
77.102524 212.0
77.264503 188.0
77.333382 156.0
77.370773 172.0
77.385902 184.0
77.436684 184.0
77.47171 136.0
77.565247 148.0
77.682068 80.0
77.729439 204.0
77.771561 116.0
78.082535 124.0
78.126511 136.0
78.177536 84.0
78.249702 116.0
78.272377 196.0
78.330704 152.0
78.353607 196.0
78.387085 168.0
78.441719 80.0
78.494606 64.0
78.586327 104.0
78.662216 216.0
78.785828 164.0
78.904228 180.0
79.066963 220.0
79.128914 156.0
79.210373 224.0
79.348602 184.0
79.597 124.0
79.712456 164.0
79.795998 92.0
79.997025 184.0
80.009483 152.0
80.032066 140.0
80.096741 88.0
80.13578 140.0
80.187607 72.0
80.201263 172.0
80.294441 160.0
80.381989 124.0
80.433746 124.0
80.47123 64.0
80.517555 144.0
80.539093 48.0
80.564095 176.0
80.626633 116.0
80.660591 76.0
80.730316 116.0
80.771454 156.0
80.821548 188.0
80.857338 156.0
80.908806 196.0
80.921776 28.0
80.977287 188.0
81.009529 184.0
81.048943 172.0
81.063858 160.0
81.126297 196.0
81.285629 112.0
81.301781 216.0
81.332291 196.0
81.395126 136.0
81.425652 156.0
81.447205 28.0
81.517273 160.0
81.594559 76.0
81.666481 196.0
81.688072 128.0
81.709656 208.0
81.752838 216.0
81.811539 216.0
81.842842 72.0
81.954514 180.0
82.012177 196.0
82.212364 60.0
82.277344 64.0
82.335121 212.0
82.405571 120.0
82.434479 236.0
82.47966 80.0
82.52124 72.0
82.595383 172.0
82.636993 188.0
82.669563 160.0
82.68766 152.0
82.73291 128.0
82.781792 184.0
82.865112 64.0
82.892296 168.0
82.979294 52.0
82.999237 196.0
83.093552 132.0
83.165642 256.0
83.246017 188.0
83.280525 104.0
83.318665 108.0
83.342285 172.0
83.425888 196.0
83.48407 92.0
83.567741 128.0
83.620514 64.0
83.6642 204.0
83.703857 220.0
83.716995 116.0
83.994026 148.0
84.067894 220.0
84.110802 160.0
84.143661 100.0
84.209396 188.0
84.23497 180.0
84.297089 240.0
84.329979 136.0
84.348969 352.0
84.456139 212.0
84.52932 32.0
84.549446 120.0
84.593376 80.0
84.635483 180.0
84.701408 112.0
84.739883 196.0
84.752708 148.0
84.82235 144.0
84.892624 132.0
85.055298 132.0
85.106705 128.0
85.224251 172.0
85.306953 228.0
85.348785 180.0
85.426476 68.0
85.662102 148.0
85.857468 160.0
85.881447 128.0
85.920181 80.0
85.944168 144.0
85.992149 120.0
86.023529 168.0
86.04937 48.0
86.162025 232.0
86.193436 184.0
86.217461 148.0
86.230392 96.0
86.247032 112.0
86.300636 156.0
86.328163 152.0
86.407913 228.0
86.422714 28.0
86.444916 172.0
86.49118 120.0
86.559685 96.0
86.607834 328.0
86.627541 156.0
86.698616 128.0
86.739388 80.0
86.839516 164.0
86.92485 172.0
87.047363 200.0
87.10865 144.0
87.125366 204.0
87.158813 140.0
87.259178 208.0
87.350952 176.0
87.374481 100.0
87.581108 140.0
87.61277 176.0
87.711533 88.0
87.892433 176.0
87.921989 100.0
87.946556 44.0
87.959618 152.0
87.986046 180.0
88.024963 160.0
88.049767 184.0
88.124504 244.0
88.165062 92.0
88.178146 164.0
88.222641 164.0
88.249184 144.0
88.295929 220.0
88.344559 136.0
88.395073 136.0
88.445602 116.0
88.630157 168.0
88.651619 208.0
88.746391 164.0
88.79409 108.0
88.853546 132.0
88.874756 96.0
88.904778 164.0
88.998634 140.0
89.045578 156.0
89.175217 212.0
89.225967 168.0
89.387672 168.0
89.412651 160.0
89.442299 148.0
89.47995 164.0
89.506371 244.0
89.575989 112.0
89.615547 40.0
89.664543 136.0
89.726746 132.0
89.809715 172.0
89.834236 136.0
89.854637 128.0
89.892723 152.0
90.019196 192.0
90.046616 232.0
90.092857 160.0
90.158989 132.0
90.177887 120.0
90.344284 124.0
90.366989 208.0
90.469185 168.0
90.486221 232.0
90.539238 176.0
90.671852 176.0
90.734406 168.0
90.753365 80.0
90.833008 220.0
90.891823 188.0
90.969635 204.0
91.055519 1616.0
91.091576 184.0
91.136757 180.0
91.159561 156.0
91.264107 168.0
91.458145 140.0
91.545723 204.0
91.581902 144.0
91.753403 184.0
91.801071 88.0
91.957504 200.0
92.001404 124.0
92.062935 160.0
92.217567 168.0
92.389343 192.0
92.408478 144.0
92.43335 164.0
92.509903 236.0
92.578827 156.0
92.631416 176.0
92.741768 164.0
92.767303 116.0
92.824112 196.0
92.910423 188.0
92.966064 116.0
93.014305 416.0
93.070023 680.0
93.102364 92.0
93.248367 216.0
93.269508 44.0
93.29258 152.0
93.315918 196.0
93.663963 168.0
93.729462 128.0
93.838287 168.0
93.916321 164.0
93.971527 212.0
94.070824 192.0
94.144188 288.0
94.246567 120.0
94.354645 152.0
94.428276 60.0
94.484375 140.0
94.513397 64.0
94.6334 104.0
94.807724 132.0
94.869751 136.0
94.88562 172.0
94.912399 148.0
94.988037 64.0
95.005127 148.0
95.034599 148.0
95.05381 200.0
95.085938 908.0
95.18988 172.0
95.213181 124.0
95.355003 128.0
95.368607 208.0
95.38089 176.0
95.430817 168.0
95.461922 104.0
95.633125 132.0
95.681786 128.0
95.695419 156.0
95.796684 192.0
95.849289 56.0
95.866829 192.0
95.975563 184.0
96.030586 112.0
96.05204 180.0
96.086487 140.0
96.104713 188.0
96.124229 104.0
96.202293 136.0
96.272583 104.0
96.329224 168.0
96.417145 176.0
96.448418 216.0
96.47187 240.0
96.510361 204.0
96.555946 164.0
96.676025 212.0
96.696808 144.0
96.767281 124.0
96.823006 192.0
96.91613 116.0
97.21418 208.0
97.250175 164.0
97.357483 188.0
97.453735 184.0
97.524475 136.0
97.609009 108.0
97.744736 136.0
97.825424 128.0
97.841171 124.0
97.900246 152.0
97.979027 168.0
97.994789 148.0
98.152466 220.0
98.166275 76.0
98.203743 180.0
98.260948 180.0
98.422791 200.0
98.454384 76.0
98.497833 304.0
98.562149 208.0
98.66185 136.0
98.691505 184.0
98.736984 184.0
98.778519 56.0
98.818085 152.0
98.873489 120.0
99.095268 296.0
99.200302 188.0
99.249001 160.0
99.285553 104.0
99.448242 148.0
99.464119 140.0
99.49588 228.0
99.581261 172.0
99.603111 136.0
99.734253 112.0
99.768044 128.0
99.84758 116.0
100.096329 120.0
100.140137 28.0
100.18856 180.0
100.20388 132.0
100.327438 144.0
100.341393 132.0
100.363083 132.0
100.43512 136.0
100.459053 112.0
100.486984 124.0
100.550835 176.0
100.872406 148.0
100.934387 140.0
101.01963 224.0
101.226524 168.0
101.350716 156.0
101.382774 220.0
101.412842 176.0
101.43689 80.0
101.545166 80.0
101.659515 164.0
101.7659 196.0
101.82547 168.0
101.910507 148.0
102.048874 204.0
102.111526 112.0
102.141693 140.0
102.232231 176.0
102.338715 160.0
102.453712 112.0
102.545021 172.0
102.631454 184.0
102.766197 156.0
102.790413 152.0
102.859352 200.0
102.903442 132.0
102.921616 240.0
102.940857 184.0
103.00502 240.0
103.032692 184.0
103.056488 516.0
103.125648 164.0
103.141815 40.0
103.294525 168.0
103.392609 136.0
103.538368 140.0
103.784828 192.0
103.834251 120.0
104.004677 160.0
104.06321 144.0
104.087914 184.0
104.213844 104.0
104.384583 312.0
104.500519 116.0
104.553429 140.0
104.667419 188.0
104.700005 204.0
104.803886 196.0
104.828339 156.0
104.901711 188.0
104.956757 184.0
104.976074 212.0
105.003662 136.0
105.017937 100.0
105.034256 228.0
105.072021 2900.0
105.119942 52.0
105.164841 132.0
105.223221 272.0
105.305717 48.0
105.320015 100.0
105.385384 192.0
105.418076 108.0
105.434425 236.0
105.518227 80.0
105.542763 128.0
105.608208 76.0
105.667526 216.0
105.686699 172.0
105.755516 204.0
105.790314 92.0
106.043297 140.0
106.074692 504.0
106.120148 120.0
106.161163 44.0
106.229919 168.0
106.386848 244.0
106.419235 160.0
106.539764 200.0
106.641556 176.0
106.654709 168.0
106.808098 64.0
106.847183 112.0
106.880951 136.0
107.024185 152.0
107.05249 540.0
107.087128 3444.0
107.116859 144.0
107.141579 32.0
107.156898 128.0
107.277969 192.0
107.351807 100.0
107.376556 168.0
107.393059 140.0
107.421936 128.0
107.453796 184.0
107.626724 156.0
107.71505 192.0
107.811989 152.0
107.85556 64.0
107.870026 152.0
107.886566 176.0
107.941696 60.0
108.010635 124.0
108.056198 308.0
108.091263 508.0
108.116432 236.0
108.217575 232.0
108.232071 176.0
108.261063 136.0
108.292946 192.0
108.358414 156.0
108.470314 144.0
108.4869 92.0
108.615952 204.0
108.642433 144.0
108.685997 136.0
108.881126 64.0
108.912277 172.0
108.991226 108.0
109.04525 172.0
109.064606 508.0
109.10141 1548.0
109.255264 136.0
109.313522 136.0
109.355141 132.0
109.523788 128.0
109.552353 188.0
109.600868 196.0
109.632126 176.0
109.738434 128.0
109.796822 96.0
109.873993 164.0
109.957458 36.0
110.074043 156.0
110.107964 356.0
110.14119 116.0
110.260284 88.0
110.285362 56.0
110.354965 108.0
110.383621 32.0
110.440086 116.0
110.454727 160.0
110.507027 40.0
110.540504 176.0
110.587692 88.0
110.655624 208.0
110.745667 112.0
110.78965 176.0
111.011826 208.0
111.081955 592.0
111.158661 172.0
111.32869 140.0
111.454727 96.0
111.486244 188.0
111.599754 168.0
111.650223 116.0
111.685974 260.0
111.728043 144.0
111.807999 128.0
111.864235 184.0
112.061646 96.0
112.100716 88.0
112.161835 180.0
112.199837 136.0
112.43602 76.0
112.46595 152.0
112.526779 168.0
112.602798 112.0
112.666168 132.0
112.776047 112.0
112.856377 144.0
112.875404 136.0
112.911354 140.0
113.005966 248.0
113.012123 308.0
113.062592 152.0
113.120827 136.0
113.139877 212.0
113.438568 56.0
113.536095 96.0
113.593361 156.0
113.695206 260.0
113.771614 188.0
113.790726 152.0
113.871414 168.0
114.354858 200.0
114.392342 164.0
114.460472 188.0
114.492416 120.0
114.547791 184.0
114.575485 288.0
114.590393 144.0
114.784355 172.0
114.803543 192.0
114.850464 304.0
114.87606 136.0
114.912331 160.0
114.940063 196.0
114.955002 172.0
115.004578 208.0
115.025093 168.0
115.056969 2064.0
115.087173 152.0
115.11937 140.0
115.144997 192.0
115.191986 128.0
115.245399 144.0
115.448463 132.0
115.576805 120.0
115.619606 224.0
115.81443 208.0
115.848701 148.0
115.868477 156.0
115.893692 188.0
115.951553 240.0
116.062645 332.0
116.185272 172.0
116.268951 64.0
116.378426 220.0
116.410637 136.0
116.556702 132.0
116.576042 40.0
116.629768 196.0
116.657715 140.0
116.709312 148.0
116.805748 128.0
116.902901 132.0
116.973923 180.0
116.995453 72.0
117.025589 124.0
117.047119 160.0
117.072258 1428.0
117.12896 100.0
117.290565 124.0
117.314278 160.0
117.340195 180.0
117.428551 48.0
117.491104 108.0
117.510521 156.0
117.540733 200.0
117.583893 124.0
117.616264 44.0
117.693985 104.0
117.840851 120.0
117.864616 180.0
118.002945 160.0
118.07756 632.0
118.143517 124.0
118.208427 248.0
118.340462 172.0
118.383766 156.0
118.479065 136.0
118.505066 156.0
118.574402 116.0
118.728333 276.0
118.750015 292.0
118.771706 164.0
118.817261 140.0
118.838959 188.0
118.873672 156.0
118.947464 48.0
118.962654 128.0
119.024086 244.0
119.050873 292.0
119.086632 4760.0
119.154198 128.0
119.171867 120.0
119.199387 68.0
119.388512 104.0
119.47551 128.0
119.575272 132.0
119.656143 224.0
119.799873 124.0
119.891388 104.0
119.910995 140.0
119.937157 212.0
119.998192 48.0
120.049118 124.0
120.091164 904.0
120.186653 176.0
120.270874 148.0
120.36911 52.0
120.410606 140.0
120.519829 232.0
120.602867 64.0
120.74498 76.0
120.869087 120.0
120.935318 180.0
121.022385 332.0
121.040611 124.0
121.066582 10016.0
121.101601 2156.0
121.130196 112.0
121.158669 116.0
121.193726 100.0
121.223808 192.0
121.266045 88.0
121.294952 84.0
121.336189 100.0
121.362495 160.0
121.383499 76.0
121.415123 172.0
121.430473 284.0
121.460236 180.0
121.505051 36.0
121.548935 80.0
121.588943 156.0
121.608185 164.0
121.625748 180.0
121.678429 148.0
121.753082 72.0
121.88269 56.0
121.898071 140.0
121.913452 60.0
121.979385 140.0
122.027748 108.0
122.069748 1520.0
122.104843 536.0
122.192696 72.0
122.264709 176.0
122.384178 64.0
122.403992 56.0
122.448036 152.0
122.507507 104.0
122.564789 196.0
122.593437 128.0
122.670578 48.0
122.716873 132.0
122.780815 92.0
122.884491 128.0
122.974968 240.0
123.027939 80.0
123.07975 552.0
123.119682 176.0
123.215652 136.0
123.401299 128.0
123.424545 156.0
123.507446 212.0
123.591515 128.0
123.684456 240.0
123.755295 160.0
123.835014 100.0
124.056595 144.0
124.089851 116.0
124.140846 144.0
124.34938 44.0
124.42263 152.0
124.462593 116.0
124.56031 160.0
124.618073 188.0
124.822556 184.0
124.847023 104.0
125.015274 292.0
125.036118 216.0
125.06208 168.0
125.093117 216.0
125.118469 172.0
125.521744 160.0
125.581955 172.0
125.613869 208.0
125.767143 160.0
125.818489 188.0
125.867607 80.0
125.974808 192.0
126.012947 168.0
126.175797 200.0
126.229591 128.0
126.287735 172.0
126.330238 196.0
126.421967 160.0
126.480156 184.0
126.617699 176.0
126.669258 160.0
126.764587 132.0
127.052559 360.0
127.335846 68.0
127.374825 164.0
127.520866 44.0
127.604042 180.0
127.762726 136.0
127.91674 132.0
127.939247 108.0
128.040573 184.0
128.063293 4668.0
128.112 256.0
128.168976 200.0
128.323227 164.0
128.626785 160.0
128.656128 72.0
128.985931 248.0
129.008286 184.0
129.042755 148.0
129.070145 1132.0
129.099899 168.0
129.144211 72.0
129.197083 180.0
129.282211 56.0
129.322952 132.0
129.343323 116.0
129.388596 136.0
129.413498 76.0
129.476898 60.0
129.540314 144.0
129.630951 96.0
129.6604 152.0
129.71933 144.0
129.921158 208.0
129.971069 44.0
130.016449 196.0
130.033081 340.0
130.07962 676.0
130.198074 172.0
130.298004 232.0
130.321762 280.0
130.432083 212.0
130.461639 176.0
130.541214 132.0
130.575317 168.0
130.706329 116.0
130.715424 68.0
130.722198 156.0
130.784637 148.0
130.83699 176.0
130.914413 144.0
130.944016 140.0
131.017197 148.0
131.042587 320.0
131.058319 160.0
131.06662 172.0
131.086746 4540.0
131.135391 144.0
131.165024 76.0
131.187057 60.0
131.235687 48.0
131.304108 68.0
131.343033 168.0
131.409027 104.0
131.555939 100.0
131.587051 72.0
131.689804 200.0
131.845154 92.0
131.952591 188.0
132.05899 1340.0
132.090073 576.0
132.117249 132.0
132.167999 240.0
132.206482 132.0
132.243103 56.0
132.272858 76.0
132.320923 176.0
132.357559 220.0
132.388962 56.0
132.57518 96.0
132.621017 52.0
132.637054 68.0
132.658691 248.0
132.714996 112.0
132.734238 360.0
132.818192 180.0
132.930618 156.0
132.946671 168.0
133.017822 132.0
133.041718 400.0
133.064621 1404.0
133.101746 2888.0
133.183151 144.0
133.272736 132.0
133.327377 232.0
133.383057 48.0
133.404724 140.0
133.463516 44.0
133.509506 88.0
133.594604 260.0
133.613007 124.0
133.638321 236.0
133.695847 84.0
133.72345 188.0
133.824738 64.0
133.900726 172.0
133.976746 116.0
134.050476 192.0
134.068008 304.0
134.105957 236.0
134.133438 64.0
134.331741 216.0
134.44249 144.0
134.571701 172.0
134.676651 160.0
134.719559 100.0
134.775009 124.0
134.83046 156.0
134.861725 244.0
134.913681 188.0
134.999222 84.0
135.04068 224.0
135.082138 4352.0
135.168091 36.0
135.200485 48.0
135.311584 80.0
135.371048 176.0
135.553879 188.0
135.591858 172.0
135.909546 204.0
136.088058 648.0
136.174194 184.0
136.28569 64.0
136.36702 56.0
136.397247 56.0
136.469482 52.0
136.543716 100.0
136.755432 176.0
136.885803 156.0
137.013794 176.0
137.022675 168.0
137.058167 132.0
137.074478 156.0
137.095291 508.0
137.325043 184.0
137.601608 212.0
137.742615 136.0
137.809464 68.0
137.830505 144.0
137.851532 128.0
138.083252 168.0
138.13443 140.0
138.344391 212.0
138.391846 280.0
138.41893 120.0
138.476151 216.0
138.511292 212.0
138.544083 120.0
138.590942 184.0
138.607346 160.0
138.647171 224.0
138.694046 36.0
138.865204 76.0
139.034225 172.0
139.057587 156.0
139.091644 176.0
139.118622 96.0
139.13974 124.0
139.231323 128.0
139.431015 236.0
139.447464 132.0
139.492126 200.0
139.738983 140.0
139.779037 148.0
139.797867 200.0
139.816696 224.0
139.882553 192.0
139.975479 196.0
140.040359 132.0
140.092178 192.0
140.146362 140.0
140.275299 224.0
140.33728 188.0
140.629791 168.0
140.707687 168.0
140.75737 92.0
140.772934 164.0
140.82811 36.0
140.955688 208.0
141.045441 236.0
141.069458 2144.0
141.104584 192.0
141.120193 160.0
141.210999 160.0
141.277222 48.0
141.298508 148.0
141.329269 52.0
141.360031 136.0
141.400269 176.0
141.461807 116.0
141.478378 180.0
141.509155 148.0
141.570709 104.0
141.606232 104.0
141.691513 164.0
141.866882 56.0
141.947495 32.0
142.044724 132.0
142.076981 1472.0
142.196579 124.0
142.279648 84.0
142.406433 268.0
142.450638 172.0
142.719177 132.0
142.878525 224.0
142.938019 144.0
142.995132 120.0
143.031708 184.0
143.063263 748.0
143.085648 3380.0
143.137955 252.0
143.14888 144.0
143.155228 192.0
143.192734 172.0
143.28801 136.0
143.426224 192.0
143.490585 140.0
143.514435 160.0
143.645599 112.0
143.786362 68.0
143.857971 156.0
144.001236 152.0
144.057938 984.0
144.092941 636.0
144.121765 208.0
144.158905 156.0
144.180008 176.0
144.460159 80.0
144.553467 136.0
144.731964 140.0
144.749756 116.0
144.814407 60.0
144.838364 128.0
144.867706 160.0
144.92186 216.0
145.02681 544.0
145.035767 260.0
145.065231 3856.0
145.101151 2072.0
145.219452 168.0
145.253036 48.0
145.272232 68.0
145.303421 192.0
145.328003 256.0
145.351395 56.0
145.382599 140.0
145.403 120.0
145.490601 52.0
145.555435 160.0
145.641876 160.0
145.68512 212.0
145.737976 28.0
145.793732 156.0
145.913422 160.0
145.949493 64.0
146.021622 132.0
146.070511 1428.0
146.103958 412.0
146.127472 116.0
146.293518 156.0
146.322418 60.0
146.387421 128.0
146.448746 172.0
146.529526 100.0
146.587357 140.0
146.681351 184.0
146.700638 196.0
146.71991 212.0
146.764923 144.0
146.799484 96.0
146.825058 292.0
146.922485 316.0
146.979691 164.0
147.016586 128.0
147.08139 17396.0
147.119751 172.0
147.185562 52.0
147.229263 176.0
147.280319 68.0
147.323227 156.0
147.400543 48.0
147.460953 68.0
147.480286 60.0
147.567322 76.0
147.629517 176.0
147.67482 184.0
147.908417 144.0
147.944717 116.0
147.971344 56.0
148.018433 180.0
148.047501 164.0
148.084534 2312.0
148.232941 224.0
148.262009 112.0
148.291092 204.0
148.397751 52.0
148.538406 156.0
148.771423 168.0
148.795639 156.0
149.021515 92.0
149.063873 216.0
149.095886 632.0
149.127625 120.0
149.1819 88.0
149.201355 64.0
149.226089 116.0
149.281586 100.0
149.303482 132.0
149.34726 100.0
149.376434 144.0
149.485916 56.0
149.554062 48.0
149.75766 136.0
149.776566 104.0
149.79512 176.0
149.814606 208.0
149.941315 124.0
149.970551 160.0
149.992767 212.0
150.07782 136.0
150.099899 304.0
150.161438 184.0
150.219269 64.0
150.272934 184.0
150.429123 44.0
150.473068 68.0
150.517014 52.0
150.6147 92.0
150.709976 108.0
151.040009 136.0
151.064468 212.0
151.08403 92.0
151.1082 164.0
151.167221 156.0
151.387543 140.0
151.436508 200.0
151.478149 172.0
151.593307 48.0
151.640594 180.0
151.767334 148.0
151.838455 76.0
151.934113 164.0
152.0298 188.0
152.060242 160.0
152.100983 184.0
152.369644 156.0
152.678345 80.0
152.727539 156.0
152.909607 148.0
152.983444 128.0
153.042389 188.0
153.071503 412.0
153.155807 176.0
153.234634 140.0
153.264206 108.0
153.298706 120.0
153.584686 40.0
153.624146 140.0
153.641418 96.0
153.663223 200.0
153.732712 172.0
153.754929 176.0
153.861053 176.0
153.924042 220.0
153.989456 172.0
154.028976 252.0
154.048019 180.0
154.078583 544.0
154.323059 28.0
154.454132 168.0
154.597626 220.0
154.691666 136.0
154.718903 56.0
154.884811 124.0
154.946747 140.0
155.011169 168.0
155.039948 324.0
155.086029 1700.0
155.164825 36.0
155.259048 36.0
155.427734 148.0
155.456589 140.0
155.527008 80.0
155.616364 100.0
155.663544 188.0
155.998947 120.0
156.028778 128.0
156.058624 272.0
156.093002 424.0
156.145645 96.0
156.287445 148.0
156.396942 136.0
156.581177 164.0
156.611069 72.0
156.683304 152.0
156.905106 220.0
157.012085 156.0
157.021698 132.0
157.041885 256.0
157.068283 976.0
157.10202 1976.0
157.142029 88.0
157.1595 72.0
157.2668 112.0
157.331711 140.0
157.531479 204.0
157.581451 156.0
157.9039 208.0
157.943924 148.0
157.982101 228.0
158.016464 140.0
158.074921 2456.0
158.10585 516.0
158.442062 52.0
158.594925 240.0
158.712738 76.0
158.770416 116.0
158.850677 124.0
158.903366 112.0
158.935165 84.0
159.018356 160.0
159.046982 200.0
159.081299 9624.0
159.114807 724.0
159.144302 136.0
159.190918 92.0
159.34523 56.0
159.408035 184.0
159.49852 56.0
159.639832 136.0
159.868225 60.0
159.905975 148.0
160.013443 132.0
160.039383 132.0
160.085632 1700.0
160.119965 312.0
160.194519 180.0
160.215683 64.0
160.238358 80.0
160.303864 60.0
160.407196 92.0
160.490402 36.0
160.694687 208.0
160.747681 92.0
160.90416 60.0
160.921829 100.0
160.972336 164.0
160.995056 52.0
161.020309 32.0
161.064423 972.0
161.096817 3824.0
161.219894 104.0
161.270447 40.0
161.288132 132.0
161.336166 192.0
161.463058 108.0
161.513016 136.0
161.554672 216.0
161.578934 108.0
161.76741 276.0
161.788986 56.0
161.834564 116.0
161.882675 132.0
162.027039 164.0
162.064163 336.0
162.098892 988.0
162.128113 72.0
162.162338 152.0
162.179077 216.0
162.348938 132.0
162.475769 168.0
162.521423 176.0
162.607712 168.0
162.721939 92.0
162.744781 32.0
162.836197 164.0
162.889542 96.0
162.946548 164.0
163.081131 600.0
163.113144 128.0
163.255493 196.0
163.280106 168.0
163.380157 112.0
163.405594 196.0
163.456482 100.0
163.489563 128.0
163.609192 196.0
163.685577 136.0
163.726318 128.0
163.958145 136.0
164.009048 140.0
164.095795 160.0
164.19014 208.0
164.391663 168.0
164.488647 200.0
164.580551 120.0
164.634186 112.0
164.705688 216.0
164.76445 144.0
164.92543 192.0
165.070267 1332.0
165.11084 176.0
165.227173 108.0
165.369308 124.0
165.457504 192.0
165.480545 32.0
165.764847 104.0
165.785355 188.0
165.864807 156.0
165.882736 172.0
166.077896 400.0
166.100693 156.0
166.354736 64.0
166.402466 204.0
166.56665 152.0
166.608963 124.0
166.71431 168.0
166.765717 132.0
166.78627 160.0
166.883957 176.0
167.062347 1812.0
167.083649 1008.0
167.151459 140.0
167.184921 204.0
167.235535 168.0
167.327774 88.0
167.370255 96.0
167.401154 64.0
167.450073 68.0
167.496445 116.0
167.522202 200.0
167.577301 76.0
167.60878 132.0
167.638138 148.0
167.834045 116.0
167.92688 188.0
167.981049 128.0
168.061401 564.0
168.093307 900.0
168.184891 232.0
168.25975 124.0
168.285385 112.0
168.303635 364.0
168.381104 248.0
168.4431 140.0
168.551605 52.0
168.628662 248.0
168.704681 140.0
168.815262 144.0
168.843704 108.0
168.882507 144.0
169.023849 204.0
169.062424 1600.0
169.101379 952.0
169.143829 204.0
169.286224 64.0
169.343201 120.0
169.376877 204.0
169.393188 148.0
169.457184 108.0
169.497177 192.0
169.584152 164.0
169.661911 96.0
169.781189 160.0
169.879745 60.0
169.952393 92.0
170.045807 200.0
170.072556 1068.0
170.106186 1112.0
170.183395 80.0
170.458725 84.0
170.552704 168.0
170.674454 116.0
170.692657 96.0
170.856522 48.0
170.875549 128.0
170.903351 152.0
170.978806 156.0
171.015244 140.0
171.057938 1572.0
171.082352 12400.0
171.118668 892.0
171.141113 64.0
171.159943 124.0
171.194885 64.0
171.239853 60.0
171.304276 76.0
171.3367 112.0
171.390747 208.0
171.443817 100.0
171.465118 208.0
171.497086 108.0
171.538788 196.0
171.619614 120.0
171.73938 84.0
171.825653 156.0
171.890045 88.0
171.958725 64.0
172.018768 172.0
172.059341 332.0
172.086075 2628.0
172.118927 552.0
172.175415 56.0
172.217209 52.0
172.238098 124.0
172.256378 80.0
172.328018 76.0
172.452347 96.0
172.488937 88.0
172.65889 52.0
172.725876 228.0
172.826309 76.0
172.865555 92.0
172.912659 108.0
172.964401 104.0
172.99379 152.0
173.027832 80.0
173.055054 708.0
173.097046 6532.0
173.247177 180.0
173.308716 192.0
173.370956 144.0
173.431229 136.0
173.462692 116.0
173.483658 44.0
173.533478 76.0
173.565247 136.0
173.577316 72.0
173.581665 116.0
173.680328 144.0
173.703934 80.0
173.731476 56.0
173.900711 232.0
174.055023 180.0
174.100815 1608.0
174.134384 176.0
174.160645 56.0
174.33667 120.0
174.388107 112.0
174.410263 48.0
174.462006 76.0
174.491913 124.0
174.535568 96.0
174.610077 220.0
174.747574 280.0
174.807373 160.0
174.852112 140.0
174.896851 188.0
175.087906 728.0
175.112289 1504.0
175.181244 216.0
175.265549 120.0
175.294525 136.0
175.320877 28.0
175.389404 232.0
175.547592 168.0
175.602966 104.0
175.734863 220.0
175.858887 68.0
175.943359 84.0
176.05954 116.0
176.091843 232.0
176.116043 468.0
176.173111 72.0
176.231232 168.0
176.371292 176.0
176.432083 140.0
176.691254 64.0
176.794449 68.0
177.036026 124.0
177.094025 340.0
177.13176 124.0
177.4646 160.0
177.626373 84.0
177.695877 140.0
177.875809 44.0
177.992615 208.0
178.046188 204.0
178.076035 684.0
178.157288 160.0
178.202438 124.0
178.236984 68.0
178.351257 132.0
178.409744 160.0
178.516083 208.0
178.659714 148.0
178.707596 28.0
178.931168 156.0
179.056244 152.0
179.086349 1948.0
179.178833 164.0
179.258774 128.0
179.34938 76.0
179.408508 200.0
179.437347 192.0
179.570679 128.0
179.641632 120.0
179.818802 232.0
179.85083 128.0
180.008331 116.0
180.03772 108.0
180.091431 812.0
180.270126 44.0
180.689896 108.0
180.748764 52.0
180.82637 32.0
180.952179 76.0
180.984314 68.0
181.042618 248.0
181.068726 488.0
181.101364 552.0
181.155716 32.0
181.244125 120.0
181.311111 104.0
181.375443 168.0
181.407608 104.0
181.493103 152.0
181.595291 168.0
181.771042 164.0
181.898483 192.0
182.024673 152.0
182.076859 784.0
182.108368 300.0
182.164322 72.0
182.25029 96.0
182.375351 112.0
182.443802 52.0
182.465302 156.0
182.54866 120.0
182.922623 44.0
182.990417 192.0
183.021332 232.0
183.05864 792.0
183.080246 1600.0
183.117477 368.0
183.156891 168.0
183.235016 76.0
183.307755 60.0
183.453293 192.0
183.555756 72.0
183.650131 128.0
183.690598 164.0
183.817398 116.0
183.868668 88.0
184.036026 164.0
184.089737 848.0
184.119263 240.0
184.171051 68.0
184.241287 212.0
184.279114 104.0
184.349365 124.0
184.41423 96.0
184.473694 160.0
184.535873 40.0
184.577805 120.0
184.673782 40.0
184.882095 176.0
184.919983 180.0
184.957886 184.0
185.012024 204.0
185.071915 3072.0
185.09758 6016.0
185.160538 80.0
185.220322 52.0
185.260971 60.0
185.323471 128.0
185.391205 172.0
185.43457 44.0
185.556549 40.0
185.578247 48.0
185.656876 148.0
185.708405 60.0
185.856537 132.0
185.941727 100.0
186.020447 120.0
186.071869 728.0
186.100906 1588.0
186.134476 160.0
186.191498 40.0
186.215942 76.0
186.240387 68.0
186.302856 172.0
186.471329 140.0
186.498505 100.0
186.55014 48.0
186.736755 108.0
186.808792 140.0
186.892822 116.0
187.076019 4684.0
187.112396 1516.0
187.143219 184.0
187.238525 196.0
187.260315 140.0
187.434662 140.0
187.519135 184.0
187.542877 192.0
187.657166 132.0
187.753601 184.0
187.788147 168.0
188.075668 900.0
188.117386 580.0
188.250259 116.0
188.383682 132.0
188.733917 120.0
188.917145 72.0
188.988281 36.0
189.01564 40.0
189.048477 140.0
189.091507 1388.0
189.136932 212.0
189.164322 184.0
189.305801 176.0
189.546844 160.0
189.59343 156.0
189.645508 136.0
189.711288 76.0
189.834671 48.0
189.902344 212.0
189.947113 128.0
190.07724 752.0
190.139175 396.0
190.196808 40.0
190.328583 64.0
190.410645 68.0
190.751663 116.0
191.029251 156.0
191.084396 988.0
191.131744 276.0
191.158707 40.0
191.180725 32.0
191.422791 128.0
191.670868 68.0
191.731491 168.0
191.929962 172.0
191.949265 72.0
192.095642 564.0
192.130554 152.0
192.510101 164.0
192.912811 188.0
193.03714 132.0
193.101654 2244.0
193.147858 164.0
193.214249 176.0
193.283417 112.0
193.335983 108.0
193.549133 204.0
193.654373 136.0
193.756851 228.0
193.826126 120.0
193.931427 140.0
193.950836 244.0
194.0746 644.0
194.107986 356.0
194.164322 148.0
194.580536 180.0
194.727707 76.0
194.952728 116.0
195.060287 456.0
195.08049 1540.0
195.117279 1264.0
195.17511 128.0
195.230713 200.0
195.322815 180.0
195.436554 64.0
195.723251 76.0
195.965561 168.0
196.089417 1240.0
196.125366 288.0
196.263794 76.0
196.414383 44.0
196.4711 84.0
196.498077 144.0
196.562241 68.0
196.852554 140.0
196.887405 208.0
197.029358 172.0
197.058167 376.0
197.096848 2516.0
197.155487 172.0
197.198959 68.0
197.307983 112.0
197.333145 72.0
197.358856 84.0
197.405838 52.0
197.512115 140.0
197.542877 76.0
197.572357 156.0
197.626816 56.0
197.783524 140.0
197.934692 92.0
197.979507 192.0
198.06633 108.0
198.103104 1208.0
198.128387 180.0
198.262451 104.0
198.39418 68.0
198.413803 60.0
198.469879 204.0
198.632278 44.0
198.750366 180.0
199.000168 156.0
199.036667 172.0
199.077606 1296.0
199.112701 1604.0
199.264252 120.0
199.334412 104.0
199.368134 124.0
199.421524 156.0
199.47493 200.0
199.494492 96.0
199.519913 76.0
199.584564 88.0
199.609879 104.0
199.643616 68.0
199.674561 244.0
199.722366 44.0
199.860214 44.0
199.885544 116.0
199.96434 128.0
200.040329 176.0
200.071518 460.0
200.113037 304.0
200.154266 180.0
200.231796 96.0
200.254318 168.0
200.350098 64.0
200.417709 40.0
200.629089 76.0
200.781342 80.0
200.837753 136.0
200.992905 132.0
201.093948 140.0
201.210236 124.0
201.337296 80.0
201.430496 88.0
201.464401 100.0
201.532196 52.0
201.681976 164.0
201.713074 96.0
201.823318 184.0
201.877045 176.0
202.076355 408.0
202.095947 320.0
202.117493 164.0
202.142685 124.0
202.182571 108.0
202.318436 128.0
202.392044 172.0
202.612961 168.0
202.765961 180.0
202.88501 156.0
203.088043 280.0
203.7108 148.0
203.747726 88.0
203.847183 60.0
203.886963 72.0
203.912537 136.0
203.994965 72.0
204.048981 172.0
204.094254 408.0
204.112305 188.0
204.188309 148.0
204.344757 80.0
204.430115 164.0
204.663528 392.0
204.748962 52.0
204.914169 120.0
205.04306 252.0
205.067368 336.0
205.102173 1448.0
205.28186 108.0
205.313217 100.0
205.470108 176.0
205.498627 72.0
205.632751 168.0
205.681274 156.0
205.738358 116.0
205.781189 76.0
205.958725 140.0
206.038223 112.0
206.074203 344.0
206.108063 924.0
206.172516 92.0
206.303986 204.0
206.352585 176.0
206.459045 192.0
206.635727 76.0
206.695816 44.0
206.967728 112.0
207.05011 132.0
207.079468 1424.0
207.116516 1000.0
207.308594 132.0
207.466232 248.0
207.54364 60.0
207.592392 144.0
207.612473 136.0
207.824738 232.0
208.005524 164.0
208.089386 3716.0
208.295547 96.0
208.375549 132.0
208.41333 140.0
208.674881 52.0
208.723755 112.0
208.853165 80.0
208.913574 112.0
209.008118 144.0
209.052383 332.0
209.095581 3260.0
209.13623 148.0
209.185715 64.0
209.209976 52.0
209.274323 52.0
209.299225 140.0
209.369293 88.0
209.46051 76.0
209.532516 112.0
209.595901 188.0
209.616074 136.0
209.685242 32.0
209.72847 184.0
209.806305 48.0
210.039871 52.0
210.071503 212.0
210.076523 204.0
210.103317 2532.0
210.276459 136.0
210.322647 128.0
210.446777 100.0
210.602722 48.0
210.663376 208.0
210.695145 144.0
210.76738 96.0
210.82402 160.0
210.937897 80.0
211.056503 272.0
211.080475 188.0
211.110046 2800.0
211.255981 56.0
211.626419 176.0
211.797272 180.0
211.881271 60.0
211.918945 96.0
212.072189 304.0
212.079254 280.0
212.119873 1376.0
212.153687 104.0
212.208771 52.0
212.258057 28.0
212.313156 44.0
212.446579 144.0
212.527817 136.0
212.62648 140.0
212.716446 108.0
212.791931 44.0
213.056213 328.0
213.090088 252.0
213.127289 4312.0
213.218918 192.0
213.237213 164.0
213.306122 72.0
213.634705 160.0
213.768539 40.0
213.807755 160.0
213.829651 140.0
213.908249 152.0
214.08992 156.0
214.13028 792.0
214.237305 140.0
214.505386 140.0
214.528702 120.0
214.592407 184.0
214.651154 132.0
214.846573 116.0
214.937012 52.0
215.089233 1036.0
215.18219 132.0
215.263947 168.0
215.681717 160.0
215.705093 40.0
215.807419 96.0
215.94194 212.0
216.091446 1324.0
216.427704 132.0
216.618057 136.0
216.937469 44.0
217.043549 196.0
217.101303 736.0
217.15152 104.0
217.365662 40.0
217.433167 116.0
217.462509 156.0
217.579926 192.0
218.011688 112.0
218.075378 304.0
218.105087 416.0
218.243912 52.0
218.355652 192.0
218.576279 60.0
218.620422 104.0
218.773468 108.0
218.932465 148.0
219.052765 468.0
219.083511 688.0
219.117493 1340.0
219.159271 60.0
219.412735 40.0
219.613251 108.0
219.672241 148.0
219.883698 156.0
219.917145 240.0
219.967331 168.0
220.032272 156.0
220.087967 896.0
220.124893 796.0
220.380783 164.0
220.401459 64.0
220.457611 156.0
220.493073 132.0
220.590607 184.0
220.705902 108.0
220.85672 140.0
220.918839 124.0
220.983932 152.0
221.010559 216.0
221.031265 120.0
221.055435 332.0
221.097794 4480.0
221.129868 1240.0
221.208832 68.0
221.327255 188.0
221.51088 80.0
221.620483 148.0
221.875366 116.0
221.946518 120.0
221.985077 180.0
222.102768 3092.0
222.136612 336.0
222.239029 188.0
222.412277 164.0
222.581497 168.0
222.759689 132.0
222.949844 232.0
223.05423 280.0
223.075882 176.0
223.112152 5100.0
223.229279 60.0
223.250092 36.0
223.300659 64.0
223.373413 104.0
223.415817 156.0
223.532684 56.0
223.764847 100.0
224.092087 256.0
224.119217 1804.0
224.193771 92.0
224.369629 32.0
224.420319 52.0
224.456085 160.0
224.51413 172.0
224.685745 68.0
224.763321 200.0
225.046768 120.0
225.084229 168.0
225.127106 1216.0
225.161057 152.0
225.193192 128.0
225.273849 48.0
225.315659 88.0
225.367584 148.0
225.420242 164.0
225.471039 56.0
225.638428 56.0
225.740265 136.0
225.764008 144.0
225.797119 56.0
225.817841 180.0
225.892624 80.0
226.057175 116.0
226.102341 296.0
226.129852 748.0
226.272675 176.0
226.530212 60.0
226.557175 196.0
226.608109 52.0
226.662033 80.0
226.726334 140.0
226.81488 112.0
226.88382 124.0
227.058884 136.0
227.107315 444.0
227.144257 672.0
227.426758 116.0
227.527954 188.0
227.69397 136.0
228.09903 280.0
228.124298 236.0
228.145981 148.0
228.469452 176.0
228.615295 176.0
228.643967 64.0
228.990189 136.0
229.099884 1068.0
229.348724 172.0
229.755814 168.0
230.072144 200.0
230.108627 1884.0
230.492493 176.0
230.528763 200.0
230.592224 136.0
230.722198 80.0
230.752426 108.0
230.877823 136.0
230.90361 216.0
230.988312 104.0
231.033676 52.0
231.081299 284.0
231.117767 1660.0
231.284836 56.0
231.384735 136.0
231.45134 216.0
231.578522 80.0
231.657288 140.0
231.711807 184.0
231.939087 136.0
232.017899 104.0
232.093872 216.0
232.121948 292.0
232.165909 208.0
232.357559 48.0
232.521423 88.0
232.578812 88.0
232.691406 116.0
232.928268 48.0
232.998138 88.0
233.043716 52.0
233.097885 2456.0
233.13208 332.0
233.20578 60.0
233.527054 100.0
233.566589 128.0
233.642639 108.0
233.703491 208.0
233.922607 152.0
234.103516 3520.0
234.129791 632.0
234.300217 92.0
234.330673 40.0
234.395477 60.0
234.4617 76.0
234.72081 140.0
234.864151 84.0
234.952606 156.0
235.022781 136.0
235.044144 124.0
235.111832 4420.0
235.148468 892.0
235.367691 104.0
235.452072 120.0
235.663956 64.0
235.715897 56.0
235.843613 76.0
235.951248 140.0
235.997101 92.0
236.049088 72.0
236.116501 1468.0
236.152695 632.0
236.250244 168.0
236.416168 60.0
236.460434 64.0
236.560013 80.0
236.645737 108.0
236.846802 188.0
236.893799 84.0
237.042923 184.0
237.072937 304.0
237.086227 444.0
237.127945 2816.0
237.158127 672.0
237.22168 128.0
237.264603 80.0
237.313644 184.0
237.341248 100.0
237.72467 88.0
237.982513 60.0
238.062347 40.0
238.100723 312.0
238.136215 1208.0
238.257385 72.0
238.289642 52.0
238.495529 92.0
238.563156 156.0
238.956787 96.0
239.076721 128.0
239.105392 424.0
239.142929 1824.0
239.230682 40.0
239.313812 124.0
239.36615 40.0
239.529373 164.0
239.997803 92.0
240.085495 396.0
240.147598 280.0
240.781601 60.0
241.076584 172.0
241.100693 256.0
241.126205 344.0
241.15535 332.0
241.20488 72.0
241.245071 64.0
241.393478 108.0
241.743027 108.0
241.860626 80.0
241.904846 168.0
242.104584 304.0
242.158035 176.0
242.538956 116.0
242.836609 180.0
242.889328 116.0
242.920349 48.0
242.991699 80.0
243.072708 188.0
243.117477 1480.0
243.271011 52.0
243.29274 88.0
243.637451 108.0
243.811447 140.0
243.864273 52.0
243.938873 48.0
244.044571 128.0
244.092804 312.0
244.125412 1548.0
244.268494 64.0
244.427155 132.0
244.452042 160.0
244.48317 40.0
244.654358 140.0
244.984451 124.0
245.043549 132.0
245.098923 1364.0
245.130676 1352.0
245.314758 48.0
245.377106 52.0
245.470657 116.0
245.578049 112.0
246.026016 144.0
246.102982 1316.0
246.137634 816.0
246.182129 104.0
246.244583 188.0
246.282059 196.0
246.353912 116.0
246.472626 44.0
246.572617 236.0
246.613251 176.0
246.791443 28.0
246.913391 124.0
246.972809 300.0
247.056656 176.0
247.112122 2748.0
247.145248 316.0
247.326385 96.0
247.473511 64.0
247.670807 148.0
247.708954 220.0
247.855637 140.0
247.908905 68.0
247.937103 128.0
248.010727 196.0
248.119522 7636.0
248.231781 108.0
248.294495 96.0
248.369766 144.0
248.44191 68.0
248.480499 140.0
248.605072 160.0
248.645859 40.0
248.826904 132.0
248.853043 164.0
248.912689 140.0
248.956665 88.0
249.031586 140.0
249.058594 216.0
249.071426 140.0
249.092041 484.0
249.126968 4652.0
249.165253 528.0
249.240005 196.0
249.260666 180.0
249.314789 68.0
249.336777 116.0
249.519089 216.0
249.56311 56.0
249.670013 48.0
249.717194 76.0
249.764938 112.0
249.803696 144.0
249.840652 144.0
249.918518 68.0
250.003479 88.0
250.101334 240.0
250.133286 1768.0
250.170227 436.0
250.296219 32.0
250.47258 104.0
250.556137 92.0
250.85701 44.0
250.891693 136.0
251.011505 28.0
251.111404 488.0
251.139816 1232.0
251.175339 208.0
251.229675 184.0
251.292221 52.0
251.342865 148.0
251.513107 52.0
251.63623 72.0
251.809906 204.0
251.892029 208.0
251.956116 192.0
251.998199 144.0
252.054657 208.0
252.081589 112.0
252.113937 384.0
252.150787 1324.0
252.391357 64.0
252.438782 124.0
252.502029 76.0
252.526215 68.0
252.719574 148.0
252.808899 48.0
252.935486 40.0
253.077911 188.0
253.128357 196.0
253.160065 2516.0
253.22995 184.0
253.261627 84.0
253.309128 72.0
253.439026 64.0
253.565781 108.0
253.98175 160.0
254.022354 128.0
254.123062 276.0
254.160629 536.0
254.241272 260.0
254.796936 100.0
255.086121 112.0
255.11409 616.0
255.141739 224.0
255.28833 232.0
255.413635 32.0
255.531326 104.0
255.572693 148.0
255.945099 44.0
255.975433 196.0
256.066101 124.0
256.10141 376.0
256.125092 328.0
256.23175 156.0
256.531311 140.0
256.598236 92.0
256.783203 52.0
256.923523 72.0
257.025635 120.0
257.093994 256.0
257.130524 1020.0
257.268188 176.0
257.482117 72.0
257.772827 80.0
257.8591 72.0
258.012543 152.0
258.057281 140.0
258.103668 784.0
258.140839 464.0
258.300323 112.0
258.505096 216.0
258.595459 212.0
258.645905 76.0
258.854004 120.0
258.950073 188.0
259.030151 112.0
259.062195 292.0
259.110535 2492.0
259.148071 736.0
259.209564 168.0
259.231995 76.0
259.905365 76.0
259.927826 160.0
260.118378 2164.0
260.155853 1088.0
260.192474 176.0
260.245575 128.0
260.284119 152.0
260.396515 148.0
260.618164 112.0
260.714569 96.0
260.810974 212.0
260.856812 124.0
260.920258 116.0
260.987793 128.0
261.029602 128.0
261.08905 276.0
261.127167 2152.0
261.164337 2520.0
261.274017 44.0
261.502502 68.0
261.615143 68.0
261.6922 64.0
261.789001 112.0
261.882416 128.0
261.911377 92.0
262.104004 548.0
262.134186 4004.0
262.16452 956.0
262.211029 40.0
262.256134 56.0
262.330292 100.0
262.39798 140.0
262.546295 160.0
262.582184 192.0
262.65918 160.0
262.791443 168.0
262.814026 124.0
262.843079 44.0
262.904388 164.0
262.971649 100.0
262.982788 208.0
263.030273 80.0
263.070038 296.0
263.104553 1044.0
263.14447 30124.0
263.229889 352.0
263.254486 188.0
263.34021 96.0
263.362823 156.0
263.397064 168.0
263.443573 184.0
263.4888 80.0
263.520233 44.0
263.58252 56.0
263.612854 176.0
263.673309 128.0
263.744507 64.0
263.810333 80.0
263.876648 200.0
263.900238 108.0
263.970398 72.0
264.028595 52.0
264.077118 56.0
264.110687 500.0
264.147766 7756.0
264.255035 44.0
264.291718 64.0
264.316498 44.0
264.355347 60.0
264.401978 68.0
264.440277 48.0
264.481567 68.0
264.611053 100.0
264.698456 76.0
264.744293 156.0
264.863617 76.0
265.028839 112.0
265.070984 56.0
265.120575 308.0
265.154999 1044.0
265.198944 188.0
265.263336 108.0
265.378906 92.0
265.408081 52.0
265.472931 72.0
265.524811 44.0
265.657806 56.0
265.71701 160.0
265.774597 92.0
265.813538 76.0
265.904388 84.0
265.949829 124.0
266.030975 104.0
266.076416 72.0
266.102417 108.0
266.126373 204.0
266.168823 316.0
266.206299 68.0
266.565582 164.0
266.820404 48.0
266.872406 100.0
266.895172 164.0
267.025238 164.0
267.104095 184.0
267.143097 508.0
267.17511 924.0
267.425415 144.0
267.979004 68.0
268.013458 104.0
268.126465 300.0
268.151825 128.0
268.181946 220.0
268.330994 136.0
268.409241 92.0
268.644073 36.0
268.689728 132.0
268.85614 60.0
269.097504 152.0
269.13266 392.0
269.173218 156.0
269.25116 40.0
269.84259 112.0
270.002808 52.0
270.045319 120.0
270.121796 220.0
270.131317 192.0
270.205627 112.0
270.248138 40.0
270.447754 168.0
270.946411 164.0
271.112335 1168.0
271.289581 220.0
271.338776 108.0
271.430573 56.0
271.673279 200.0
271.856995 108.0
271.955475 220.0
272.120117 1844.0
272.165558 132.0
272.201691 160.0
272.388885 148.0
272.464447 88.0
272.507141 48.0
272.579437 128.0
272.622131 148.0
272.812775 76.0
273.026489 64.0
273.062683 276.0
273.085693 128.0
273.128876 4148.0
273.169922 376.0
273.381775 108.0
273.423889 124.0
273.474457 168.0
273.641815 44.0
273.849274 60.0
273.933472 92.0
273.981018 36.0
274.132538 1396.0
274.21167 72.0
274.409454 64.0
274.505066 48.0
274.650177 36.0
274.683167 28.0
274.844818 88.0
274.877808 84.0
274.973511 72.0
275.019714 60.0
275.073425 144.0
275.097839 688.0
275.141266 1044.0
275.178192 136.0
275.23761 108.0
275.35318 132.0
275.40274 88.0
275.462189 64.0
275.564606 104.0
275.61084 100.0
275.791931 140.0
275.86203 36.0
276.050476 124.0
276.114349 780.0
276.14978 2936.0
276.288605 128.0
276.420959 60.0
276.586426 188.0
276.616211 96.0
276.85791 128.0
276.937408 180.0
276.983765 92.0
277.020142 188.0
277.080658 204.0
277.122101 1120.0
277.160767 5440.0
277.362213 56.0
277.388184 156.0
277.420685 184.0
277.457642 148.0
277.540527 40.0
277.601715 80.0
277.665924 64.0
277.712982 96.0
277.809174 88.0
277.86557 184.0
277.925262 76.0
278.014862 120.0
278.079071 268.0
278.16629 9340.0
278.229279 100.0
278.314362 72.0
278.36026 176.0
278.443115 48.0
278.588135 128.0
278.719482 116.0
278.800812 48.0
278.84845 104.0
278.878357 140.0
278.941498 80.0
278.988037 104.0
279.082489 156.0
279.174255 5324.0
279.42038 52.0
279.450317 124.0
279.546814 48.0
279.576752 48.0
279.628448 68.0
279.677704 136.0
279.909637 84.0
279.979584 76.0
280.084106 144.0
280.112793 140.0
280.173065 772.0
280.248962 160.0
280.312683 56.0
280.349335 76.0
280.432678 128.0
280.485992 84.0
280.612671 68.0
280.71936 52.0
280.766052 68.0
280.811859 76.0
280.859436 84.0
280.889465 36.0
280.976196 72.0
281.019562 52.0
281.058044 172.0
281.077301 132.0
281.154724 1524.0
281.26651 36.0
281.319916 64.0
281.433441 84.0
281.49353 104.0
281.627106 48.0
281.734009 124.0
281.867645 96.0
282.104523 32.0
282.153625 752.0
282.19519 160.0
282.288818 92.0
282.318909 76.0
282.462738 120.0
282.857574 80.0
282.897736 96.0
283.088409 152.0
283.153595 804.0
283.235962 92.0
283.259399 56.0
283.309631 96.0
284.115692 132.0
284.147217 260.0
284.493408 120.0
284.651215 80.0
284.822479 96.0
285.069031 124.0
285.0784 188.0
285.131775 616.0
285.222961 340.0
285.313965 92.0
285.999329 52.0
286.036346 160.0
286.134338 1852.0
286.275391 180.0
286.430298 116.0
286.827911 128.0
287.075836 96.0
287.142029 2260.0
287.18869 144.0
287.323608 64.0
287.411346 44.0
287.718475 80.0
288.14917 1892.0
288.302795 160.0
288.394043 112.0
288.622406 92.0
289.036591 84.0
289.151611 944.0
289.270111 56.0
289.581604 44.0
289.835663 44.0
289.913605 120.0
290.043121 96.0
290.123474 684.0
290.371033 112.0
290.632477 132.0
290.79538 120.0
290.951508 52.0
290.975281 64.0
291.13623 3084.0
291.172852 2092.0
291.211212 148.0
291.284302 56.0
291.382812 44.0
291.481354 56.0
291.947052 52.0
292.142365 848.0
292.177429 976.0
292.249786 48.0
292.30423 60.0
292.460785 44.0
292.920441 48.0
292.957916 96.0
293.124512 184.0
293.146851 224.0
293.179474 144.0
293.210052 68.0
293.322357 84.0
293.707825 72.0
293.840881 204.0
293.990997 128.0
294.046814 136.0
294.099762 220.0
294.128113 220.0
294.154816 140.0
294.182129 108.0
294.250397 104.0
294.530426 80.0
294.585083 84.0
294.981476 72.0
295.00882 136.0
295.079315 216.0
295.103333 172.0
295.134216 340.0
295.169586 144.0
295.203705 108.0
295.231049 168.0
295.316559 244.0
295.361023 36.0
295.549164 112.0
295.579956 76.0
295.699738 132.0
295.843506 72.0
296.096863 340.0
296.138824 212.0
296.177643 544.0
296.268127 124.0
296.449738 132.0
296.991394 36.0
297.101746 316.0
297.136139 188.0
297.164368 548.0
297.184296 320.0
298.089996 164.0
298.171967 192.0
298.28244 60.0
298.870514 136.0
299.082214 388.0
299.115875 172.0
299.180267 108.0
299.34552 120.0
299.552185 164.0
299.67276 80.0
299.831268 44.0
300.101868 152.0
300.148041 184.0
300.339966 188.0
300.427765 84.0
300.893646 92.0
301.076294 188.0
301.159332 2716.0
301.387543 36.0
301.411713 44.0
301.664001 28.0
301.691681 84.0
301.954468 48.0
302.030548 36.0
302.095276 208.0
302.164001 1012.0
302.497681 28.0
302.528839 60.0
302.643066 124.0
302.930511 112.0
303.113159 196.0
303.167816 132.0
304.141205 416.0
304.498291 60.0
305.149963 580.0
305.544556 68.0
306.069611 140.0
306.118835 144.0
306.16095 2432.0
306.205048 188.0
306.25119 48.0
306.279053 52.0
306.82962 52.0
307.086426 112.0
307.162567 636.0
307.24115 212.0
307.398132 48.0
307.942749 88.0
308.099945 120.0
308.160797 192.0
308.218719 72.0
309.089386 164.0
309.117371 212.0
309.139954 132.0
309.175995 128.0
309.188507 236.0
309.420776 64.0
310.108429 152.0
310.186493 172.0
310.508118 96.0
311.08194 104.0
311.119019 496.0
311.157257 36.0
312.126984 120.0
313.099243 368.0
313.13205 556.0
313.214447 176.0
313.348297 132.0
313.7677 148.0
314.125916 292.0
314.444946 56.0
315.125092 260.0
316.105652 148.0
316.190796 40.0
317.157684 180.0
317.200226 176.0
317.600922 136.0
318.552185 72.0
318.694305 100.0
318.943054 48.0
319.166748 732.0
319.430206 96.0
319.757538 80.0
320.09491 160.0
320.134888 132.0
320.170624 212.0
320.597992 88.0
321.107666 124.0
321.166382 196.0
321.378906 108.0
321.882172 64.0
322.039307 100.0
322.112762 148.0
323.115753 136.0
323.949371 116.0
324.11142 104.0
324.172424 536.0
325.091034 112.0
325.132568 164.0
325.172913 84.0
326.019592 108.0
326.10611 164.0
326.148956 104.0
326.961792 164.0
327.108063 100.0
327.153168 1092.0
327.325378 108.0
327.905365 44.0
328.089172 108.0
328.126587 128.0
328.158997 144.0
329.147583 1280.0
329.919464 144.0
330.067688 100.0
330.148682 132.0
330.205109 28.0
330.433014 32.0
331.124359 228.0
331.164215 128.0
331.323608 44.0
334.108063 156.0
334.901581 76.0
335.109222 172.0
336.195831 128.0
337.133698 644.0
338.141968 564.0
338.194946 116.0
338.953003 136.0
339.074615 128.0
339.129791 572.0
339.182922 120.0
339.664246 112.0
339.781616 40.0
340.121704 144.0
340.174286 148.0
340.607574 28.0
341.1073 176.0
341.864929 140.0
342.166748 48.0
343.25 96.0
344.17984 52.0
345.155884 332.0
345.713867 76.0
346.369171 72.0
347.164154 148.0
349.108154 104.0
352.167877 96.0
355.144806 1468.0
355.195557 200.0
355.484802 64.0
356.108002 124.0
356.146576 596.0
357.145691 456.0
357.179199 188.0
357.608124 140.0
357.909302 56.0
358.141052 160.0
358.937958 116.0
360.315552 76.0
361.094238 108.0
361.181213 60.0
370.331421 108.0
370.599579 68.0
372.817474 108.0
373.154144 144.0
374.0867 128.0
374.167542 272.0
374.679749 48.0
375.128784 184.0
375.154877 144.0
375.184601 56.0
377.497314 76.0
378.793854 72.0
380.317688 84.0
380.787476 64.0
381.996277 76.0
383.471985 60.0
384.16214 108.0
384.599152 76.0
386.142456 84.0
387.269623 212.0
388.492584 64.0
390.228424 44.0
392.867035 52.0
392.993286 92.0
393.628754 68.0
394.272644 124.0
397.452423 44.0
399.355286 88.0
400.72464 60.0
400.828247 44.0
401.099243 48.0
402.499542 100.0
406.642853 56.0
407.285248 104.0
407.510193 60.0
409.646393 84.0
409.803528 120.0
413.599518 68.0
413.911255 52.0
417.665161 84.0
417.766876 96.0
424.25174 68.0
425.716492 120.0
428.365173 92.0
428.571167 60.0
436.040436 72.0
440.093567 44.0
441.518494 48.0
442.313416 68.0
443.209625 80.0
443.88446 92.0
443.913818 72.0
444.459106 80.0
450.133179 92.0
451.599609 88.0
456.204498 132.0
456.719025 48.0
459.253296 100.0
460.529449 60.0
461.072052 84.0
461.751801 96.0
464.84906 184.0
464.994965 108.0
467.289581 96.0
468.335632 140.0
474.966064 80.0
477.698273 80.0
481.826569 104.0
483.873291 112.0
491.357727 48.0
496.595093 60.0
498.179718 32.0
498.9263 40.0
499.09079 84.0
503.109406 128.0
504.95929 64.0
508.812836 80.0
517.337708 96.0
518.556152 56.0
520.856506 64.0
522.583984 180.0
524.4328 104.0
527.865845 104.0
543.945129 52.0
548.904541 44.0
549.398926 40.0
556.813171 108.0
569.209412 68.0
585.540588 76.0
593.688538 56.0
604.899414 56.0
606.888428 40.0
609.072205 32.0
614.985596 104.0
618.296936 96.0
630.906006 52.0
633.663513 60.0
635.057068 76.0
638.0448 104.0
674.635742 32.0
690.196594 88.0
701.394531 108.0
703.842346 96.0
704.497253 36.0
704.983337 104.0
706.19928 88.0
706.754761 80.0
725.30365 116.0
725.566345 76.0
727.980774 52.0
732.358459 36.0
748.371643 92.0
755.783691 132.0
757.409607 80.0
763.38623 68.0
765.532288 36.0
768.944763 100.0
770.838928 72.0
771.607178 40.0
784.436401 172.0
793.257263 112.0
796.910645 148.0
797.146606 32.0
802.009033 32.0
802.195068 56.0
808.373779 212.0
814.184326 88.0
817.009216 108.0
820.089783 212.0
829.475098 52.0
833.659058 84.0
837.46759 76.0
840.921143 160.0
854.887878 60.0
856.477234 52.0
856.657837 56.0
859.269531 292.0
862.943054 152.0
867.972595 188.0
872.64624 168.0
873.163696 120.0
874.128479 144.0
874.69342 36.0
876.483765 60.0
877.02594 52.0
878.529602 156.0
882.746582 96.0
900.169373 236.0
903.133606 116.0
904.324219 184.0
905.234192 104.0
912.620544 176.0
913.558716 108.0
917.533325 132.0
917.943298 224.0
923.196899 40.0
923.565796 88.0
932.180603 36.0
938.072021 244.0
943.437805 148.0
945.982605 140.0
946.160156 220.0
946.839783 52.0
947.43396 52.0
947.660645 72.0
947.783142 204.0
953.391724 184.0
954.141602 144.0
959.398987 48.0
960.656982 212.0
961.378845 188.0
963.614014 132.0
965.072632 200.0
970.006653 72.0
972.08429 164.0
972.642883 148.0
977.86377 32.0
988.197327 60.0
988.760498 224.0
989.636841 76.0
990.66394 100.0
994.432373 160.0
996.831299 176.0
996.91925 172.0
998.283386 56.0
1002.872803 176.0
1005.591187 36.0
1013.6922 172.0
1014.668274 172.0
1018.914001 152.0
1019.790894 92.0
1020.420227 184.0
1024.110962 172.0
1024.251099 216.0
1026.182007 224.0
1028.644409 224.0
1035.935059 148.0
1038.145386 168.0
1043.873413 64.0
1048.682373 136.0
1049.301147 180.0
1052.64978 176.0
1060.056396 136.0
1061.566772 108.0
1068.328003 88.0
1069.193359 60.0
1070.322998 244.0
1070.970703 100.0
1075.80896 164.0
1077.689819 88.0
1082.661133 152.0
1092.848511 180.0
1094.645508 92.0
1095.073486 60.0
1095.926636 220.0
1096.89209 144.0
1098.442505 144.0
1099.767822 148.0
1105.848389 124.0
1107.21228 144.0
1112.81543 152.0
1113.572388 212.0
1114.296387 156.0
1120.943359 88.0
1121.589844 72.0
1122.109741 72.0
1125.145264 156.0
1126.801514 180.0
1127.609985 164.0
1128.238281 140.0
1128.585938 108.0
1130.438843 84.0
1132.674927 136.0
1133.057129 192.0
1133.110352 148.0
1133.277832 208.0
1134.557861 124.0
1134.772461 112.0
1143.22229 148.0
1144.777344 148.0
1148.025391 120.0
1149.185547 84.0
1155.09668 180.0
1155.380737 188.0
1158.982544 132.0
1159.714478 156.0
1160.148193 176.0
1161.226318 148.0
1161.362061 152.0
1162.094604 180.0
1165.536987 140.0
1165.815552 216.0
1167.317871 172.0
1168.637451 192.0
1170.383423 140.0
1176.481689 112.0
1178.127441 144.0
1178.523682 152.0
1178.885864 172.0
1180.21875 180.0
1181.75769 136.0
1186.339233 164.0
1188.444702 124.0
1188.828979 212.0
1189.851685 148.0
1191.005371 156.0
1191.486206 140.0
1191.815918 196.0
1192.778076 184.0
1192.998047 164.0
1194.215088 220.0
1195.797485 160.0
1196.974731 244.0
1197.449829 64.0
1199.971802 144.0
1201.351074 176.0
1201.544312 124.0
1203.683838 148.0
1204.008423 80.0
1206.468262 172.0
1206.52356 132.0
1207.86499 152.0
1208.833618 36.0
1209.179688 100.0
1209.366455 128.0
1215.020874 200.0
1215.346924 136.0
1217.408569 36.0
1217.769287 168.0
1220.848389 200.0
1221.216919 124.0
1221.369995 192.0
1222.712036 152.0
1225.539917 80.0
1226.717651 192.0
1227.64502 156.0
1229.040039 156.0
1229.675049 92.0
1229.744873 56.0
1231.064331 52.0
1232.363525 116.0
1234.194702 164.0
1234.530396 188.0
1236.650146 164.0
1236.930054 208.0
1240.071533 120.0
1242.872925 176.0
1245.533691 180.0
1250.089355 140.0
1256.578735 72.0
1257.009155 100.0
1257.926636 80.0
1258.59021 76.0
1260.843628 148.0
1262.130127 88.0
1262.83728 164.0
1264.747681 176.0
1268.012695 152.0
1268.600952 252.0
1269.884399 156.0
1271.43103 116.0
1273.81665 172.0
1275.998291 240.0
1276.161743 176.0
1277.961182 88.0
1278.274292 140.0
1278.800903 124.0
1279.83313 216.0
1280.701904 140.0
1280.780273 144.0
1281.293091 84.0
1281.414307 204.0
1283.844849 184.0
1285.357056 160.0
1286.013672 56.0
1286.927368 108.0
1287.220093 148.0
1288.184326 196.0
1289.398926 76.0
1289.920654 164.0
1291.515259 204.0
1293.196533 164.0
1294.384888 144.0
1297.659302 136.0
1297.924683 124.0
1298.705688 152.0
1299.294556 60.0
1299.73938 140.0
1299.947388 112.0
1301.318359 192.0
1301.411743 132.0
1301.526611 140.0
1301.583984 212.0
1302.460205 76.0
1303.516235 60.0
1304.644653 120.0
1304.874634 168.0
1305.07605 148.0
1305.737549 56.0
1306.377686 180.0
1306.543213 36.0
1306.938843 184.0
1307.025146 144.0
1307.449707 188.0
1307.687256 188.0
1307.759277 88.0
1308.522217 156.0
1309.091064 156.0
1310.690186 156.0
1310.827026 144.0
1310.949585 200.0
1311.108154 168.0
1311.655884 188.0
1311.749634 76.0
1312.203735 144.0
1313.080444 180.0
1313.559448 108.0
1314.490112 108.0
1315.197388 104.0
1315.37793 180.0
1317.139771 76.0
1318.071655 120.0
1322.048828 120.0
1323.764404 88.0
1325.379639 184.0
1325.923218 76.0
1327.119263 120.0
1327.655762 136.0
1327.873413 132.0
1329.875854 128.0
1330.151611 156.0
1330.558105 200.0
1330.746948 140.0
1331.000977 176.0
1331.255127 40.0
1332.054565 164.0
1332.562622 172.0
1333.085693 152.0
1333.848877 152.0
1334.659912 244.0
1336.154053 136.0
1337.762329 172.0
1338.519531 160.0
1339.22583 72.0
1339.633789 228.0
1339.96167 180.0
1341.003662 88.0
1342.709595 124.0
1345.526123 196.0
1347.593018 52.0
1348.623291 140.0
1349.644409 60.0
1351.13147 184.0
1351.680176 184.0
1351.833862 100.0
1352.368164 140.0
1353.531006 160.0
1356.57251 212.0
1356.887695 200.0
1357.657593 136.0
1358.691895 192.0
1358.955933 144.0
1359.623657 164.0
1360.570557 100.0
1361.429565 68.0
1362.377075 148.0
1362.553345 184.0
1364.206909 104.0
1364.817139 152.0
1365.868774 160.0
1367.031128 148.0
1368.017334 92.0
1368.370728 72.0
1369.018677 236.0
1371.081421 40.0
1372.032227 148.0
1372.577759 176.0
1373.093994 140.0
1373.50708 92.0
1373.831543 216.0
1374.163574 176.0
1375.469727 104.0
1376.584595 120.0
1376.983276 124.0
1377.145874 160.0
1379.480713 192.0
1379.562012 224.0
1381.381104 48.0
1383.24585 92.0
1385.889648 196.0
1386.704834 208.0
1388.840088 160.0
1389.248047 228.0
1389.374146 148.0
1390.249756 128.0
1390.405518 148.0
1392.254028 176.0
1395.032837 180.0
1395.776367 56.0
1396.274536 40.0
1396.765381 80.0
1399.049927 144.0
1400.539185 180.0
1400.621094 192.0
1401.567261 92.0
1402.401855 196.0
1402.729858 216.0
1403.117432 160.0
1403.318726 128.0
1404.332886 188.0
1406.922119 92.0
1407.952515 212.0
1408.086914 120.0
1408.161621 44.0
1408.505249 100.0
1409.760376 104.0
1409.827637 96.0
1411.173096 164.0
1411.606689 60.0
1411.801147 168.0
1413.454346 140.0
1415.003662 172.0
1415.05603 148.0
1415.215454 204.0
1415.482788 140.0
1415.670044 228.0
1416.823486 176.0
1417.340454 160.0
1418.164795 180.0
1420.849243 228.0
1421.70459 116.0
1421.944702 88.0
1422.725342 184.0
1423.205811 60.0
1425.061035 160.0
1425.248779 72.0
1425.707153 124.0
1427.684326 40.0
1428.496582 168.0
1430.046631 120.0
1431.168213 200.0
1431.529663 160.0
1432.960815 200.0
1434.106201 140.0
1434.279541 184.0
1434.505615 160.0
1435.764771 156.0
1436.798096 176.0
1437.167847 216.0
1438.714966 220.0
1439.439819 128.0
1439.839966 220.0
1440.534912 216.0
1440.693481 208.0
1440.821899 44.0
1440.942871 136.0
1441.146851 136.0
1442.046021 156.0
1442.250122 196.0
1443.542847 176.0
1444.518555 176.0
1445.116211 96.0
1445.600464 180.0
1446.629761 164.0
1447.182373 44.0
1447.515503 212.0
1449.053101 164.0
1450.311035 152.0
1450.6521 128.0
1450.727905 180.0
1451.523926 184.0
1451.713501 136.0
1451.887939 192.0
1453.086426 132.0
1453.34436 116.0
1453.442993 72.0
1453.860352 140.0
1453.958984 32.0
1454.543457 228.0
1455.295044 176.0
1459.230591 200.0
1459.420654 56.0
1461.398193 176.0
1462.39502 152.0
1462.623291 172.0
1463.07251 120.0
1463.31604 64.0
1464.671631 156.0
1465.91333 200.0
1467.079468 152.0
1468.589233 40.0
1468.795166 148.0
1469.619141 152.0
1469.909058 164.0
1470.611938 172.0
1471.000366 168.0
1471.130127 164.0
1471.351562 132.0
1472.031128 172.0
1472.115112 92.0
1472.764282 80.0
1473.092651 164.0
1474.078247 172.0
1474.689575 184.0
1474.81189 108.0
1475.201782 164.0
1476.027466 124.0
1476.241577 172.0
1476.991089 184.0
1477.411743 272.0
1477.817261 164.0
1478.773804 192.0
1479.263672 88.0
1480.496338 192.0
1480.856445 128.0
1481.480835 184.0
1482.488037 136.0
1482.564697 152.0
1482.771606 232.0
1484.059326 144.0
1484.258667 156.0
1484.634521 164.0
1484.787842 152.0
1485.608521 88.0
1485.923096 152.0
1486.19165 140.0
1486.268311 156.0
1487.375 192.0
1487.619019 132.0
1489.208496 192.0
1489.569458 168.0
1494.42041 180.0
1495.366821 164.0
1495.890259 164.0
1496.768677 152.0
1499.817993 208.0
1500.188599 72.0
1500.437012 180.0
1501.152344 212.0
1501.40686 160.0
1502.563843 124.0
1503.829346 172.0
