>compound MLS001049086-01!butyl 2,4-dioxo-1H-pyrimidine-6-carboxylate
>formula C9H12N2O4
>ionization [M+H]+
>parentmass 213.088
#inchi InChI=1S/C9H12N2O4/c1-2-3-4-15-8(13)6-5-7(12)11-9(14)10-6/h5H,2-4H2,1H3,(H2,10,11,12,14)
#inchikey AKSYFXKHZGSZNB
#Ion_Source LC-ESI
#Instrument qTof
#Compound_Source NIH Natural Product Library
#PI Dorrestein
#Data_Collector VVP/LMS
#Scan -1
#Precursor_MZ 213.088
#ExactMass 212.08
#Charge 1
#CAS_Number N/A
#Pubmed_ID N/A
#Smiles CCCCOC(=O)c1cc(O)nc(O)n1
#INCHI_AUX N/A
#Library_Class 3
#SpectrumID CCMSLIB00000079771
#IonMode Positive
#UpdateWorkflowName UPDATE-SINGLE-ANNOTATED-BRONZE
#LibraryQualityString Bronze
#TaskID b1d8e8f6646f4e71acdff9ca3d919d08
##Scan# 1569
#SpectrumFile p1-G10_GG10_01_17954.mzXML
#LibraryName NIH_Natural_Products_Library.mgf
#MQScore -1
#Organism NIH_Natural_Products_Library
#TIC_Query 0
#RT_Query -1
#MZErrorPPM -1
#SharedPeaks 0
#MassDiff 0
#LibMZ -1
#SpecMZ 213.088
#SpecCharge 0
#internalFilename spec-00000.mgf

>collision 10
97.017799 48.0
100.86026 108.0
110.323082 132.0
111.018486 1216.0
111.047585 32.0
111.188156 60.0
111.778671 88.0
112.856537 76.0
113.483261 76.0
136.486404 72.0
137.056686 160.0
139.012863 732.0
140.774734 68.0
143.823196 20.0
146.496918 108.0
148.97168 212.0
157.024246 1180.0
158.035446 220.0
159.032837 180.0
186.087952 156.0
194.974838 132.0
220.281219 176.0
230.989166 136.0
239.000946 152.0
258.078125 228.0
286.854034 88.0
296.079163 196.0
297.128052 132.0
341.240265 168.0
356.428345 36.0
773.514343 72.0
773.841003 112.0
774.693848 60.0
1122.979248 52.0
1139.749023 20.0
1232.17395 20.0
1239.946777 144.0
1365.820312 160.0
1376.454956 144.0
1472.43457 216.0
