>compound DEPO-MEDROL
>formula C24H32O6 
>ionization [M+H]+
>parentmass 417.227905
#inchi InChI=1S/C24H32O6/c1-13-9-16-17-6-8-24(29,20(28)12-30-14(2)25)23(17,4)11-19(27)21(16)22(3)7-5-15(26)10-18(13)22/h5,7,10,13,16-17,19,21,27,29H,6,8-9,11-12H2,1-4H3/t13-,16-,17-,19-,21+,22-,23-,24-/m0/s1
#inchikey PLBHSZGDDKCEHR
#Ion_Source LC-ESI
#Instrument qTof
#Compound_Source Commercial
#PI Dorrestein
#Data_Collector Garg_Neha
#Scan -1
#Precursor_MZ 417.23
#ExactMass 416.22
#Charge 1
#CAS_Number N/A
#Pubmed_ID N/A
#Smiles N/A
#INCHI_AUX N/A
#Library_Class 1
#SpectrumID CCMSLIB00000077110
#IonMode Positive
#UpdateWorkflowName UPDATE-SINGLE-ANNOTATED-GOLD
#LibraryQualityString Gold
#TaskID 48f7f52fc6d249b5abbcc6e7b3df5969
##Scan# 1451
#SpectrumFile NCP003106_E2_F11_BB4_01_15707.mzXML
#LibraryName NIH_Clinical_Collection_2.mgf
#MQScore -1
#Organism NIHcollection2_04212014_2_mgf
#TIC_Query 0
#RT_Query -1
#MZErrorPPM -1
#SharedPeaks 0
#MassDiff 0
#LibMZ -1
#SpecMZ 417.23
#SpecCharge 0
#internalFilename spec-00000.mgf

>collision 10
44.910587 188.0
45.444359 244.0
48.81189 208.0
49.024876 204.0
50.418465 144.0
50.555641 168.0
51.10622 216.0
52.469749 180.0
53.082813 148.0
53.11182 140.0
54.262432 192.0
55.145676 160.0
55.345387 140.0
55.39278 140.0
56.427082 160.0
57.31715 212.0
58.477192 160.0
58.836937 176.0
59.570488 188.0
60.3596 188.0
60.511234 172.0
63.850746 168.0
64.397415 164.0
65.739586 172.0
65.762177 188.0
66.54406 164.0
66.826866 160.0
68.351646 148.0
70.340721 200.0
70.537827 196.0
70.907738 148.0
70.941261 232.0
71.979126 148.0
72.112816 148.0
72.658073 164.0
73.270103 172.0
74.465805 156.0
75.615791 196.0
75.804558 140.0
76.229706 204.0
76.340965 164.0
77.094063 208.0
79.177048 144.0
79.485504 180.0
79.602661 184.0
79.737679 160.0
80.446594 140.0
81.697456 160.0
81.893661 240.0
82.160446 148.0
82.3265 176.0
83.202866 144.0
83.668282 252.0
84.745842 152.0
85.581703 260.0
85.789749 152.0
86.197639 152.0
86.391769 168.0
87.794113 144.0
89.538963 152.0
90.373276 184.0
91.228622 176.0
92.059341 180.0
95.045036 148.0
95.723427 168.0
96.864021 256.0
98.579865 196.0
101.02243 448.0
101.059494 152.0
101.576157 180.0
102.017937 168.0
102.034019 156.0
102.894287 144.0
103.48465 184.0
105.070496 632.0
105.098495 216.0
105.27404 244.0
105.588493 132.0
106.069923 148.0
106.566559 204.0
106.749496 144.0
107.087212 376.0
108.087708 152.0
109.064041 192.0
109.106636 172.0
109.94606 148.0
111.044434 172.0
111.084282 144.0
111.361351 140.0
111.434875 152.0
114.655563 188.0
114.9776 140.0
115.05687 292.0
116.059021 320.0
116.349655 164.0
116.600975 160.0
117.071503 252.0
117.157967 140.0
118.242226 156.0
119.055206 180.0
119.084572 560.0
120.084618 164.0
121.063835 1648.0
121.105751 236.0
122.067924 316.0
122.57946 152.0
123.080154 300.0
124.084686 152.0
124.379738 156.0
124.670685 168.0
124.993126 184.0
125.061165 184.0
125.099953 160.0
127.082306 144.0
129.07135 172.0
129.505707 152.0
129.716446 176.0
129.832077 144.0
129.925064 148.0
130.076523 296.0
130.356476 164.0
130.451935 148.0
130.715759 144.0
131.050476 140.0
131.085205 608.0
131.401581 208.0
132.083649 168.0
133.068573 424.0
133.101089 604.0
133.221634 156.0
133.449158 160.0
133.890961 168.0
134.066055 164.0
134.112152 160.0
135.010254 184.0
135.044067 148.0
135.080841 7380.0
135.175552 116.0
135.304901 124.0
136.020432 180.0
136.083191 1000.0
136.517624 148.0
136.745621 164.0
136.803818 168.0
136.843399 140.0
137.02739 144.0
137.060272 304.0
137.095398 540.0
137.370087 152.0
137.999237 108.0
138.062592 140.0
138.082489 264.0
138.101196 152.0
139.076202 292.0
140.063202 232.0
140.782806 188.0
140.844223 164.0
141.047424 156.0
141.071365 168.0
141.911514 144.0
142.075912 412.0
143.084152 988.0
143.159012 152.0
143.38887 96.0
143.580811 240.0
143.726334 148.0
144.055801 152.0
144.08609 296.0
145.064957 836.0
145.10051 1456.0
146.071396 956.0
146.104187 144.0
146.948715 192.0
147.081039 1632.0
147.123718 152.0
148.081558 292.0
148.121521 212.0
149.095413 1220.0
149.30806 172.0
150.055618 148.0
150.100479 296.0
150.133636 148.0
151.079239 416.0
151.112183 132.0
151.289368 192.0
152.066391 160.0
153.068726 324.0
153.091415 120.0
155.043594 128.0
155.084839 548.0
155.149796 184.0
155.939148 172.0
156.439331 224.0
157.065521 192.0
157.099808 528.0
158.073715 516.0
158.107773 412.0
158.201553 180.0
158.762802 152.0
159.08107 2824.0
159.117493 608.0
159.948685 144.0
160.090485 268.0
160.384445 176.0
160.618942 152.0
160.781647 172.0
161.062393 132.0
161.096161 13360.0
161.14151 204.0
161.168594 172.0
162.099258 2012.0
163.071625 172.0
163.100037 344.0
163.456467 156.0
164.118744 176.0
165.069641 172.0
165.090881 1884.0
165.902985 168.0
166.076477 180.0
166.095612 408.0
166.866013 148.0
167.080307 272.0
167.10144 120.0
167.388336 148.0
168.088348 200.0
168.817932 144.0
169.073563 168.0
169.101151 712.0
169.224182 168.0
170.073868 120.0
170.856644 228.0
171.079315 804.0
171.116455 972.0
172.085587 876.0
172.118759 116.0
172.483871 172.0
173.095566 1820.0
173.135666 376.0
174.101837 268.0
175.075714 416.0
175.110397 1460.0
175.144577 148.0
176.062408 152.0
176.11113 232.0
177.091782 980.0
177.128296 320.0
178.076782 108.0
178.899506 172.0
179.104431 404.0
180.089096 484.0
180.108185 140.0
181.061508 408.0
181.084732 228.0
181.099609 168.0
181.126572 168.0
181.375763 176.0
182.067093 300.0
183.078583 232.0
183.115189 440.0
183.901443 232.0
184.087723 400.0
184.244385 228.0
185.096008 9276.0
185.136948 368.0
185.931305 156.0
186.101456 1008.0
186.450012 200.0
186.585922 152.0
187.029327 160.0
187.111404 5800.0
187.165451 196.0
187.828125 196.0
188.116013 740.0
188.540298 156.0
189.092117 1220.0
189.128189 428.0
189.947617 144.0
190.098312 376.0
190.282425 172.0
191.084946 252.0
191.105728 632.0
191.282135 144.0
192.09198 176.0
193.098846 464.0
193.610626 180.0
194.099487 136.0
195.028366 180.0
195.079285 500.0
195.115601 504.0
196.060928 172.0
196.088974 640.0
196.112869 308.0
197.091644 1012.0
197.138123 348.0
197.248871 180.0
198.103424 476.0
198.998032 164.0
199.111603 1676.0
199.295761 208.0
200.11525 720.0
200.27475 208.0
200.663635 164.0
200.990814 180.0
201.087982 296.0
201.126846 424.0
201.636246 108.0
202.081451 148.0
202.129196 160.0
203.101898 356.0
203.14357 268.0
203.660446 188.0
203.828064 152.0
204.101303 384.0
205.099457 420.0
205.120605 272.0
206.109192 204.0
206.633698 164.0
206.782501 156.0
207.107788 480.0
207.154739 184.0
207.352448 220.0
207.452759 160.0
208.095032 420.0
208.126007 340.0
209.094803 1748.0
209.126312 160.0
210.103058 836.0
210.140717 448.0
211.01976 148.0
211.068924 140.0
211.111725 6144.0
212.115799 1488.0
213.096069 136.0
213.127014 3592.0
213.275116 148.0
214.002396 204.0
214.130203 964.0
215.10527 688.0
215.140564 244.0
216.086304 144.0
216.112625 180.0
217.112518 140.0
218.024521 216.0
218.111618 132.0
219.118439 164.0
219.1465 124.0
220.127609 344.0
221.096039 360.0
222.102051 776.0
223.11055 2116.0
223.551727 140.0
223.641022 176.0
224.119553 1084.0
225.091599 144.0
225.128677 1592.0
225.905823 172.0
226.130905 392.0
227.106049 396.0
227.142532 968.0
228.091232 156.0
228.145401 412.0
229.087875 208.0
229.121674 504.0
229.555054 160.0
230.817261 168.0
231.094131 180.0
231.107407 156.0
231.136917 1028.0
232.109756 204.0
232.13237 224.0
232.586533 176.0
232.89624 160.0
233.097321 448.0
233.132416 424.0
234.10318 180.0
234.149918 280.0
234.484451 144.0
234.563705 160.0
235.110565 824.0
235.146194 376.0
235.344696 172.0
236.118637 1080.0
236.151184 396.0
237.127014 3720.0
237.980927 192.0
238.094543 164.0
238.132629 1280.0
239.108002 248.0
239.142517 1528.0
240.076431 196.0
240.104187 152.0
240.148895 248.0
241.124573 476.0
241.156494 764.0
242.165558 228.0
243.112808 132.0
243.161896 244.0
244.130157 344.0
245.095566 144.0
246.104156 228.0
246.455551 184.0
247.065216 164.0
247.110748 556.0
247.140976 244.0
247.750809 192.0
248.067322 152.0
248.118805 452.0
249.084015 180.0
249.127975 984.0
250.133286 284.0
250.194077 156.0
251.104904 320.0
251.142807 5748.0
251.268753 168.0
251.755493 156.0
252.145355 1484.0
252.190826 144.0
252.592392 140.0
252.85817 220.0
253.086105 160.0
253.159225 12520.0
253.212769 212.0
253.260269 212.0
253.413818 136.0
253.797058 104.0
254.027359 156.0
254.160645 1688.0
254.647217 112.0
255.133331 148.0
255.173874 572.0
256.128998 152.0
256.168274 304.0
257.135223 112.0
257.16156 200.0
259.105713 244.0
259.142761 164.0
259.350769 160.0
260.080627 140.0
260.120728 392.0
260.597656 140.0
261.127136 1496.0
262.135895 584.0
262.162872 288.0
263.112091 360.0
263.144714 1176.0
263.186676 248.0
264.063019 152.0
264.115601 264.0
264.14743 436.0
264.185913 276.0
265.122467 288.0
265.158966 1468.0
266.158508 360.0
267.138214 492.0
267.671722 188.0
268.150604 172.0
269.154785 616.0
269.192657 172.0
270.158722 232.0
271.10498 152.0
271.150818 180.0
272.121826 168.0
273.129364 772.0
274.135529 276.0
274.173615 184.0
275.107849 144.0
275.141846 248.0
275.185547 252.0
275.447968 164.0
276.145874 152.0
277.072235 196.0
277.158539 1736.0
278.125549 260.0
278.165985 768.0
279.138702 2088.0
279.17395 3768.0
280.045258 144.0
280.141754 660.0
280.176941 1056.0
281.144501 208.0
281.186066 884.0
282.187836 528.0
283.150818 248.0
285.157959 276.0
286.167175 288.0
287.147797 176.0
288.151581 904.0
289.150604 408.0
290.169952 172.0
291.140686 452.0
291.173401 836.0
291.75592 152.0
292.142975 288.0
292.175323 112.0
292.906097 148.0
293.153473 1760.0
293.188904 3272.0
294.154663 532.0
294.193054 528.0
295.170166 416.0
296.177643 156.0
296.685577 140.0
296.987335 156.0
297.148712 720.0
297.181305 932.0
298.147064 260.0
298.183929 440.0
298.945618 152.0
299.121429 144.0
299.196533 420.0
300.151611 120.0
301.157196 148.0
302.163269 164.0
302.697937 164.0
302.864166 184.0
303.173737 9848.0
303.84082 168.0
304.17868 1168.0
305.177551 368.0
306.160004 192.0
307.165558 140.0
308.1698 128.0
309.184052 528.0
310.139557 152.0
310.223694 188.0
311.130615 160.0
311.173889 296.0
311.19989 1072.0
312.200226 220.0
313.209198 156.0
315.169281 148.0
316.148041 148.0
316.360382 244.0
317.277924 140.0
319.167847 288.0
320.193329 176.0
320.714691 124.0
320.964935 164.0
321.107574 172.0
321.185791 14260.0
321.262756 180.0
321.313293 184.0
321.563354 176.0
321.589233 180.0
321.669312 120.0
321.836731 156.0
322.186707 3996.0
323.193909 536.0
324.185669 192.0
324.455261 112.0
325.151855 144.0
325.514069 128.0
329.17337 312.0
329.568817 144.0
330.393555 160.0
332.719788 168.0
337.181549 156.0
338.154755 164.0
338.458618 164.0
338.92157 164.0
339.15683 1600.0
339.196075 16144.0
339.285126 156.0
339.486664 108.0
339.844116 248.0
339.973907 140.0
340.115662 260.0
340.19931 3644.0
340.255157 184.0
340.694336 116.0
341.139465 152.0
341.197083 768.0
342.210236 156.0
342.326691 112.0
342.555969 136.0
344.209564 176.0
351.119476 164.0
352.115936 216.0
352.188568 152.0
353.215576 284.0
353.727448 160.0
354.08313 192.0
354.21048 140.0
357.168915 964.0
357.199707 444.0
358.163574 412.0
359.172241 172.0
359.213806 168.0
363.196289 1168.0
364.200684 700.0
367.529968 284.0
369.200104 128.0
371.22113 316.0
372.221161 116.0
375.220062 176.0
381.206085 6300.0
382.071259 112.0
382.208313 1592.0
383.006866 104.0
383.203918 492.0
384.213806 180.0
392.832642 204.0
395.824493 164.0
395.907654 172.0
397.125275 140.0
398.497894 180.0
398.525696 208.0
398.572205 244.0
398.761536 108.0
398.811829 144.0
398.998657 148.0
399.042389 212.0
399.217346 40404.0
399.567352 152.0
399.755798 180.0
399.820007 192.0
399.931152 144.0
400.219147 9160.0
401.220795 1088.0
402.101654 156.0
402.836487 116.0
403.888855 124.0
404.541779 100.0
411.632172 164.0
415.204926 112.0
416.212616 152.0
417.227905 1940.0
417.292664 156.0
418.233276 412.0
419.110229 100.0
419.234253 304.0
420.264404 108.0
592.385376 144.0
1127.750488 172.0
1128.078003 140.0
1277.566406 208.0
1430.189453 172.0
1450.281006 196.0
1523.677734 232.0
1565.084351 176.0
1594.50415 244.0
1602.158813 192.0
1653.68811 176.0
1653.841919 152.0
1666.273315 164.0
1671.184082 176.0
1681.696411 144.0
1700.02063 224.0
1702.655884 176.0
1772.181396 152.0
1794.125488 196.0
1823.362061 160.0
1826.184692 152.0
1831.376587 172.0
1839.331909 184.0
1844.927246 152.0
1855.122925 176.0
1871.480835 176.0
1876.969482 164.0
1884.591064 200.0
1887.564575 148.0
1901.303711 152.0
1907.60083 172.0
1912.585083 168.0
1915.824341 216.0
1938.147095 152.0
1944.355713 188.0
1951.215942 200.0
1965.122681 204.0
1969.421753 264.0
1978.219971 152.0
