>compound Catechin
>formula C15H14O6
>ionization [M+H]+
>parentmass 291.08631462009055
#inchi InChI=1S/C15H14O6/c16-8-4-11(18)9-6-13(20)15(21-14(9)5-8)7-1-2-10(17)12(19)3-7/h1-5,13,15-20H,6H2/t13-,15+/m0/s1
#inchikey PFTAWBLQPZVEMU
#Ion_Source DI-ESI
#Instrument qTof
#Compound_Source Isolated
#PI Norberto Lopes
#Data_Collector Denise Silva
#Scan -1
#Precursor_MZ 291.076
#ExactMass 290.079
#Charge 1
#CAS_Number 154-23-4
#Pubmed_ID N/A
#Smiles OC1=C(C[C@H](O)[C@@H](C2=CC(O)=C(O)C=C2)O3)C3=CC(O)=C1
#INCHI_AUX N/A
#Library_Class 3
#SpectrumID CCMSLIB00000081476
#IonMode Positive
#UpdateWorkflowName UPDATE-SINGLE-ANNOTATED-BRONZE
#LibraryQualityString Bronze
#TaskID 053e8682627d4c9488a292c234ed8aed
##Scan# 1
#SpectrumFile gnps_Catechin_pos_MplusH.mgf
#LibraryName gnps_library.mgf
#MQScore -1
#Organism blank
#TIC_Query 0
#RT_Query -1
#MZErrorPPM -1
#SharedPeaks 0
#MassDiff 0
#LibMZ -1
#SpecMZ 291.076
#SpecCharge 0
#internalFilename spec-00000.mgf

>collision 10
119.044731 117.0
123.039261 5216.0
124.043182 289.0
139.034286 18262.0
140.036972 869.0
147.038086 2208.0
148.041794 141.0
151.034195 462.0
153.049133 166.0
161.054352 428.0
163.033447 436.0
165.049194 4196.0
166.051346 235.0
169.04483 648.0
179.062943 313.0
181.043304 373.0
185.12648 168.0
189.049103 244.0
205.080353 119.0
207.059113 2650.0
208.060852 199.0
231.058105 140.0
249.066376 571.0
273.068939 599.0
291.07608 3051.0
