>compound Benztropine mesylate
>formula C21H25NO
>ionization [M+H]+
>parentmass 308.202728
#inchi InChI=1S/C21H25NO/c1-22-18-12-13-19(22)15-20(14-18)23-21(16-8-4-2-5-9-16)17-10-6-3-7-11-17/h2-11,18-21H,12-15H2,1H3/t18-,19-/m1/s1
#inchikey GIJXKZJWITVLHI
#origInchi InChI=1S/C21H25NO.CH4O3S/c1-22-18-12-13-19(22)15-20(14-18)23-21(16-8-4-2-5-9-16)17-10-6-3-7-11-17;1-5(2,3)4/h2-11,18-21H,12-15H2,1H3;1H3,(H,2,3,4)/t18-,19-;/m1./s1
#Ion_Source LC-ESI
#Instrument qTof
#Compound_Source Commercial
#PI Dorrestein
#Data_Collector Garg_Neha
#Scan -1
#Precursor_MZ 308.201
#ExactMass 307.194
#Charge 1
#CAS_Number 132-17-2,86-13-5(free base)
#Pubmed_ID N/A
#Smiles C1(C[C@@H]2C[C@@H](C[C@@H]1N2C)OC(C3=CC=CC=C3)C4=CC=CC=C4).CS(=O)(=O)O
#INCHI_AUX N/A
#Library_Class 1
#SpectrumID CCMSLIB00000078594
#IonMode Positive
#UpdateWorkflowName UPDATE-SINGLE-ANNOTATED-GOLD
#LibraryQualityString Gold
#TaskID 77f51c88eb8b467eb4a01dd2d0cb90d2
##Scan# 1197
#SpectrumFile Plate9_61_80_GC7_01_15756.mzXML
#LibraryName FDALibrary_2_04302014.mgf
#MQScore -1
#Organism FDALibrary_2_04302014
#TIC_Query 0
#RT_Query -1
#MZErrorPPM -1
#SharedPeaks 0
#MassDiff 0
#LibMZ -1
#SpecMZ 308.201
#SpecCharge 0
#internalFilename spec-00000.mgf

>collision 10
45.326923 140.0
45.365791 156.0
45.540234 152.0
45.760777 164.0
45.810608 172.0
46.375439 164.0
46.545021 144.0
46.934185 144.0
47.298958 220.0
47.329079 140.0
47.41264 156.0
47.426346 160.0
47.54018 160.0
47.651558 180.0
47.706379 168.0
47.827431 196.0
47.883881 180.0
48.393444 176.0
48.547256 144.0
48.579159 160.0
49.054428 104.0
49.513588 232.0
49.844124 196.0
50.520893 152.0
50.553436 292.0
50.926308 140.0
51.010143 164.0
51.802139 204.0
51.989967 180.0
52.211208 172.0
52.245731 144.0
52.268753 148.0
52.911049 140.0
52.978016 148.0
53.009541 164.0
53.051575 152.0
53.189384 264.0
53.267796 164.0
53.362259 176.0
54.040478 256.0
54.244045 164.0
54.327354 188.0
54.354042 184.0
54.536148 144.0
54.606724 176.0
54.80291 164.0
54.961758 256.0
55.062141 156.0
55.252827 140.0
56.132137 224.0
56.179863 148.0
56.260452 144.0
56.531178 128.0
56.55793 180.0
56.680737 168.0
57.316353 256.0
57.370609 236.0
57.930992 216.0
58.063145 176.0
58.379028 152.0
58.621975 244.0
58.816292 148.0
58.848354 172.0
59.238338 140.0
59.57737 160.0
59.674194 204.0
59.718788 204.0
59.765606 168.0
59.920448 148.0
60.117622 144.0
60.204269 148.0
60.411385 140.0
60.541401 156.0
60.616337 148.0
60.968029 144.0
61.167892 112.0
61.296383 232.0
61.366524 156.0
61.800735 172.0
61.825771 172.0
61.896217 144.0
61.974533 204.0
62.026253 164.0
62.037224 164.0
62.153919 188.0
62.208218 192.0
62.818283 172.0
63.443455 224.0
63.513226 144.0
63.578278 192.0
64.07917 140.0
64.51326 244.0
64.750076 200.0
65.229828 140.0
66.168739 228.0
66.515663 216.0
66.533524 192.0
66.630966 140.0
66.918839 192.0
67.008423 184.0
67.248131 164.0
67.298737 156.0
67.347733 172.0
67.468658 220.0
67.491547 176.0
67.552055 148.0
67.656746 144.0
67.951965 152.0
68.017441 164.0
68.081474 204.0
68.158676 180.0
68.339546 168.0
68.397148 144.0
68.812584 148.0
69.027382 172.0
69.331985 152.0
69.444725 156.0
69.529335 188.0
69.652306 136.0
70.089752 236.0
70.3032 172.0
70.333244 168.0
70.585518 156.0
70.910294 204.0
71.203896 216.0
71.294617 152.0
71.343361 172.0
71.537888 196.0
72.177948 140.0
72.250671 152.0
72.540825 156.0
73.66851 228.0
74.166466 180.0
74.317375 184.0
75.511192 156.0
75.679047 196.0
75.76738 164.0
75.819359 144.0
76.606468 140.0
76.775536 152.0
77.72718 152.0
77.82196 168.0
78.291466 164.0
78.578789 140.0
78.825989 204.0
78.912598 152.0
79.110741 200.0
79.149345 224.0
79.19574 168.0
79.431488 152.0
79.879128 152.0
79.940475 144.0
81.050316 144.0
81.161453 156.0
81.182968 140.0
81.26548 164.0
81.700264 140.0
81.792038 192.0
82.291405 196.0
82.374481 144.0
82.674622 232.0
82.72892 152.0
82.810402 164.0
83.238396 140.0
83.309235 164.0
84.770714 164.0
84.917381 212.0
85.047653 208.0
85.277245 168.0
85.516342 148.0
86.032478 156.0
86.098946 160.0
86.158058 184.0
86.239944 208.0
86.403938 180.0
86.902328 260.0
86.937584 176.0
87.048965 160.0
87.061966 144.0
87.273201 172.0
87.327736 228.0
87.907135 160.0
88.172318 236.0
88.604568 140.0
88.878304 160.0
89.474113 192.0
89.496704 188.0
89.738106 136.0
89.888779 228.0
90.328987 164.0
90.554237 196.0
90.82338 164.0
91.058159 184.0
91.108124 172.0
91.210739 144.0
91.557022 176.0
91.581779 160.0
92.060486 172.0
92.525116 164.0
92.831688 148.0
93.075935 156.0
93.407875 152.0
93.567604 204.0
93.81469 200.0
94.061119 180.0
94.279366 164.0
94.362488 188.0
94.559792 208.0
94.635292 144.0
94.720505 144.0
94.906555 168.0
95.003525 160.0
95.077255 152.0
95.275314 144.0
96.079353 404.0
96.218361 176.0
96.368301 144.0
96.485573 220.0
96.878929 156.0
97.083755 144.0
97.271126 196.0
97.552032 176.0
98.04805 160.0
98.065788 192.0
98.09742 2020.0
98.600647 172.0
98.626343 180.0
98.796402 164.0
99.1007 184.0
99.13102 140.0
99.351105 144.0
99.5476 292.0
99.638969 148.0
99.652878 236.0
100.052635 152.0
100.096436 160.0
100.767426 180.0
100.967865 148.0
101.26593 164.0
101.689774 224.0
101.78614 156.0
102.009148 196.0
102.298828 208.0
102.419647 208.0
102.661499 168.0
102.877388 156.0
102.903633 216.0
102.98037 184.0
103.049057 204.0
103.398888 204.0
103.873009 152.0
104.110481 156.0
104.250656 140.0
104.504829 160.0
104.696175 172.0
105.20388 168.0
105.263092 168.0
105.680077 192.0
106.227081 172.0
106.600754 208.0
106.77755 320.0
107.175659 184.0
107.393379 168.0
107.760834 184.0
107.81456 196.0
107.92205 160.0
107.950996 288.0
108.079247 156.0
108.170311 152.0
108.437508 180.0
109.26812 184.0
109.344223 112.0
109.478355 160.0
109.747162 160.0
110.049706 192.0
110.068497 160.0
110.672791 232.0
111.024834 244.0
111.075172 144.0
111.375336 172.0
111.549744 152.0
112.077995 384.0
112.105881 132.0
112.383728 148.0
112.476585 140.0
112.571594 152.0
112.588493 168.0
113.515572 188.0
114.056778 160.0
114.224762 176.0
114.533409 144.0
114.902199 196.0
114.971169 224.0
115.757172 172.0
116.050789 140.0
116.630356 180.0
116.656151 164.0
116.8134 160.0
116.909958 172.0
117.191063 132.0
117.276772 128.0
117.595299 144.0
117.681648 208.0
117.729156 156.0
118.183098 148.0
118.209061 176.0
118.268867 120.0
118.89386 156.0
119.724327 160.0
119.946564 172.0
120.029404 164.0
120.182091 152.0
120.441887 140.0
120.603577 140.0
120.621063 176.0
120.776314 168.0
120.975349 188.0
121.012657 240.0
121.109016 152.0
121.424629 160.0
121.975739 168.0
122.015312 192.0
122.063683 152.0
122.93602 144.0
123.104965 300.0
123.234909 156.0
123.28936 176.0
123.346825 160.0
123.656487 148.0
123.953873 168.0
124.117622 124.0
124.181755 152.0
124.394592 184.0
124.415878 156.0
124.495155 204.0
124.543365 172.0
125.665352 168.0
125.734528 188.0
125.910896 180.0
126.090439 672.0
126.14682 184.0
126.286377 160.0
126.353485 200.0
126.606422 164.0
127.073669 208.0
127.137733 168.0
127.712898 148.0
127.827637 184.0
127.865891 200.0
128.061569 228.0
128.111328 140.0
128.306747 168.0
128.474274 180.0
128.605148 168.0
128.844513 228.0
129.063049 192.0
129.824615 212.0
130.139648 172.0
130.192245 168.0
130.30809 236.0
130.60817 204.0
130.894928 144.0
130.95752 140.0
131.16832 156.0
131.412338 176.0
132.001648 176.0
132.154236 176.0
132.610611 192.0
132.892685 212.0
133.393326 208.0
133.492203 212.0
134.24292 200.0
134.660629 164.0
134.913788 140.0
135.879135 176.0
135.979156 128.0
136.124268 164.0
136.600723 152.0
136.980164 204.0
137.518784 164.0
137.703232 212.0
138.045242 220.0
138.14502 160.0
138.297104 192.0
138.463348 168.0
138.648346 120.0
138.92041 144.0
139.050705 376.0
139.115189 160.0
139.676804 216.0
139.905075 208.0
140.106796 7636.0
140.153351 336.0
140.192276 188.0
140.423462 224.0
140.447052 140.0
140.725525 276.0
140.751495 156.0
140.893204 208.0
140.985352 176.0
141.072098 128.0
141.109818 656.0
141.19577 296.0
141.261993 144.0
141.347168 164.0
141.932236 248.0
142.12233 11040.0
142.15979 164.0
142.422821 128.0
142.48526 192.0
142.599319 204.0
142.972702 160.0
143.125839 1456.0
143.563522 148.0
143.778229 152.0
143.926224 176.0
144.124481 152.0
144.196167 144.0
144.298965 144.0
144.428101 148.0
144.870941 184.0
145.821136 144.0
145.99585 96.0
146.270935 144.0
147.042221 180.0
147.165344 192.0
147.571259 264.0
147.709381 140.0
147.839752 172.0
148.033936 184.0
148.287323 164.0
148.48175 164.0
148.763214 156.0
149.280731 200.0
149.657898 176.0
150.047714 164.0
150.616318 160.0
150.8069 148.0
151.05278 1016.0
151.107681 156.0
151.210464 204.0
151.376923 304.0
151.533691 164.0
151.651321 168.0
151.918594 164.0
152.061798 12656.0
152.134338 148.0
152.192993 104.0
152.426819 164.0
152.721558 172.0
152.907532 168.0
153.066101 1736.0
153.354614 164.0
153.422882 284.0
153.587524 148.0
153.677673 156.0
153.796127 140.0
154.038101 144.0
154.277817 164.0
154.549225 216.0
155.0728 120.0
155.330261 152.0
155.764664 176.0
155.883911 148.0
156.37384 200.0
156.889465 148.0
157.440887 196.0
157.598267 152.0
157.733215 176.0
157.80603 160.0
157.868225 188.0
158.559189 144.0
158.673523 156.0
158.819946 176.0
159.22905 148.0
159.337067 156.0
159.450134 140.0
159.890259 228.0
160.038773 188.0
160.736984 164.0
160.77034 184.0
160.947968 172.0
161.039932 296.0
161.274918 212.0
161.335587 176.0
161.436722 152.0
161.646683 168.0
161.74791 152.0
162.353455 156.0
162.427002 156.0
163.054535 188.0
163.102036 152.0
163.392258 112.0
163.779282 156.0
163.842453 140.0
163.998398 192.0
164.060654 292.0
164.845703 148.0
164.969757 148.0
165.069977 19148.0
165.140808 296.0
165.838699 216.0
166.076477 7660.0
166.173401 176.0
166.249817 120.0
166.405624 164.0
166.48494 184.0
166.575119 140.0
166.649612 140.0
166.673843 128.0
166.699615 192.0
166.7267 268.0
166.780685 200.0
166.802628 112.0
166.964584 128.0
166.993942 268.0
167.035461 372.0
167.059097 772.0
167.086395 204496.0
167.113098 572.0
167.174118 304.0
167.21817 132.0
167.245163 204.0
167.3237 136.0
167.347656 172.0
167.378418 200.0
167.407303 188.0
167.426804 132.0
167.458817 332.0
167.486389 136.0
167.50882 2524.0
167.570709 316.0
167.602921 160.0
167.893036 124.0
168.052856 112.0
168.08905 35716.0
168.284515 136.0
168.418243 124.0
168.47171 172.0
168.592529 184.0
168.956299 244.0
169.041534 212.0
169.09259 1544.0
169.128815 216.0
169.155914 264.0
169.240036 104.0
169.270081 144.0
169.278656 192.0
169.308365 208.0
169.341705 124.0
169.362869 132.0
169.3853 160.0
169.448288 128.0
169.49147 128.0
169.658035 116.0
169.694443 144.0
170.107727 240.0
170.186462 172.0
170.399307 104.0
170.460526 128.0
170.637695 200.0
170.830139 140.0
172.703033 140.0
173.832199 204.0
175.349625 348.0
176.212509 160.0
177.05368 236.0
177.090759 148.0
177.546616 140.0
178.16507 160.0
178.747269 144.0
179.057419 224.0
179.551865 144.0
179.739517 160.0
180.165787 168.0
180.794144 168.0
180.826248 172.0
181.171677 144.0
181.46228 148.0
182.475983 164.0
182.645401 180.0
182.992554 200.0
183.197235 152.0
183.620422 184.0
183.706589 140.0
183.755295 208.0
184.781967 160.0
184.850784 156.0
185.423737 224.0
185.5186 260.0
185.570435 164.0
185.679001 152.0
185.996033 264.0
187.014801 192.0
187.145981 144.0
187.241287 140.0
187.570099 192.0
187.767288 176.0
188.477051 236.0
189.456528 176.0
189.500366 160.0
190.062454 156.0
190.831528 144.0
191.428619 152.0
192.918533 156.0
193.070801 116.0
193.289139 200.0
195.089157 180.0
196.127167 152.0
196.358871 176.0
197.44249 208.0
199.520264 180.0
200.09137 180.0
200.243423 168.0
201.631516 220.0
202.378311 220.0
203.680008 152.0
204.109161 148.0
204.709579 144.0
205.000137 148.0
205.068542 244.0
205.504837 144.0
205.773132 148.0
205.827377 168.0
207.263306 164.0
207.392273 144.0
207.478256 220.0
207.868698 96.0
208.003235 220.0
208.419662 140.0
208.442642 148.0
208.557602 212.0
209.095444 188.0
209.827103 180.0
209.913605 176.0
211.43602 156.0
212.035522 180.0
212.082367 148.0
212.107986 140.0
212.409561 192.0
212.511093 144.0
212.992996 152.0
213.07724 152.0
214.118607 148.0
215.340637 140.0
215.857895 140.0
216.53685 212.0
217.79805 188.0
218.921539 152.0
218.974548 160.0
219.696716 156.0
219.847198 188.0
220.878342 152.0
221.203827 148.0
221.419983 232.0
221.63623 184.0
222.841202 180.0
224.242706 144.0
224.344818 152.0
224.856842 224.0
225.68132 180.0
226.732025 276.0
226.773987 184.0
229.669479 144.0
230.820114 208.0
231.164963 152.0
231.428314 148.0
231.613037 168.0
232.798904 168.0
232.907944 124.0
232.95076 172.0
233.212555 128.0
234.75563 180.0
234.947784 184.0
235.317078 140.0
235.494186 148.0
235.527786 160.0
237.085098 208.0
237.253677 140.0
238.546082 200.0
239.771118 208.0
240.115555 100.0
240.264481 152.0
241.732117 164.0
242.100494 144.0
243.035187 256.0
243.157669 156.0
243.651398 156.0
243.691788 196.0
244.04921 172.0
244.108292 200.0
244.94223 156.0
245.756073 184.0
246.002625 172.0
246.24617 156.0
246.467972 140.0
246.799301 280.0
247.055756 168.0
247.302963 208.0
247.353043 184.0
248.198929 228.0
248.271057 148.0
248.343185 152.0
249.071396 192.0
249.479904 176.0
249.624527 188.0
249.931625 120.0
250.549896 180.0
251.729538 176.0
253.738342 188.0
253.900467 148.0
254.284348 204.0
254.443069 148.0
255.112885 180.0
257.557495 160.0
257.9505 152.0
258.081604 144.0
258.175781 176.0
259.390991 208.0
259.684448 100.0
260.176941 144.0
260.523773 168.0
261.21814 164.0
261.504517 152.0
261.855957 128.0
263.002228 112.0
263.304382 136.0
264.185944 160.0
265.00827 160.0
265.037445 164.0
265.270782 156.0
265.345367 164.0
266.67627 140.0
267.671783 156.0
267.835205 152.0
267.971436 176.0
268.589264 180.0
268.773529 144.0
269.597626 108.0
269.903687 168.0
269.937256 200.0
270.829865 220.0
271.449249 212.0
271.870361 208.0
272.568604 140.0
272.603363 176.0
273.410461 172.0
274.606384 164.0
276.840485 200.0
277.224762 160.0
277.569519 160.0
277.864716 184.0
277.990814 176.0
278.448944 188.0
279.612579 192.0
279.905518 180.0
280.291931 212.0
280.605225 160.0
281.275757 140.0
281.663116 144.0
282.223419 152.0
282.78656 176.0
282.863556 176.0
282.897034 220.0
282.967316 184.0
283.107971 184.0
283.211792 236.0
283.426178 244.0
283.804962 152.0
284.529663 148.0
284.613586 140.0
285.177979 216.0
285.560089 208.0
285.74707 168.0
286.658752 176.0
287.545227 144.0
288.102844 188.0
288.410187 160.0
288.895691 120.0
289.416901 128.0
290.048615 200.0
291.888062 180.0
292.058777 152.0
292.28418 124.0
293.112457 136.0
293.424316 160.0
294.553894 148.0
295.40506 192.0
295.470062 156.0
295.723267 188.0
296.264313 328.0
296.661835 204.0
297.488556 188.0
297.91095 152.0
298.436798 160.0
298.711914 184.0
298.990631 160.0
299.786133 180.0
300.330872 248.0
300.465393 160.0
300.538086 124.0
300.838104 168.0
301.746704 200.0
301.802032 164.0
301.872345 144.0
302.439728 148.0
303.356506 140.0
303.776093 164.0
303.946106 140.0
304.261383 168.0
304.307068 184.0
304.588379 152.0
304.661316 156.0
304.807251 144.0
305.168732 176.0
305.255676 144.0
305.762451 100.0
306.016144 152.0
306.124207 108.0
306.159424 204.0
306.243073 160.0
306.397552 284.0
306.696991 144.0
306.766785 168.0
306.856049 140.0
306.919159 276.0
306.970062 284.0
307.024719 224.0
307.073547 284.0
307.120148 328.0
307.164764 188.0
307.207764 144.0
307.219482 172.0
307.270874 204.0
307.308807 112.0
307.354492 256.0
307.440216 148.0
307.474213 128.0
307.551361 264.0
307.58902 256.0
307.619659 420.0
307.695465 216.0
307.732117 188.0
307.767517 256.0
307.795807 292.0
307.818298 340.0
307.85788 184.0
307.898743 160.0
307.952454 280.0
308.050232 328.0
308.074371 524.0
308.107239 460.0
308.162567 804.0
308.202728 291264.0
308.308563 224.0
308.444611 200.0
308.48877 240.0
308.524048 540.0
308.555084 472.0
308.59259 388.0
308.630798 392.0
308.689545 208.0
308.729797 284.0
308.776947 9192.0
308.818756 288.0
308.915131 168.0
308.954865 144.0
309.000061 348.0
309.056885 396.0
309.098785 292.0
309.128113 324.0
309.204254 132956.0
309.339142 248.0
309.377655 180.0
309.409363 140.0
309.450195 148.0
309.484741 172.0
309.532867 304.0
309.613983 180.0
309.689026 164.0
309.729095 124.0
309.769318 220.0
309.845398 152.0
309.947266 292.0
309.994751 212.0
310.113403 140.0
310.20694 12768.0
310.33252 272.0
310.383118 104.0
310.441315 104.0
310.466064 288.0
310.505859 128.0
310.563843 136.0
310.588989 120.0
310.676666 292.0
310.69931 180.0
310.807129 280.0
310.866455 208.0
311.033447 160.0
311.074005 244.0
311.114655 132.0
311.161407 208.0
311.208191 552.0
311.276398 372.0
311.339142 240.0
311.377197 428.0
311.408234 512.0
311.46994 196.0
311.538055 244.0
311.587006 152.0
311.638275 128.0
311.682312 96.0
311.743805 188.0
311.779907 116.0
311.870209 104.0
311.898529 116.0
312.217041 148.0
312.278381 172.0
312.349182 112.0
312.467316 140.0
312.751648 112.0
313.079559 96.0
313.875763 104.0
315.628387 152.0
318.692505 104.0
319.199158 96.0
319.933105 100.0
323.365967 156.0
324.501526 152.0
324.818909 96.0
325.702972 100.0
325.848602 120.0
428.811432 176.0
553.940002 152.0
564.565308 100.0
629.127563 120.0
1119.997803 148.0
1140.05603 148.0
1214.205688 148.0
1260.897705 140.0
1283.992798 232.0
1291.49939 148.0
1305.146729 148.0
1310.509033 140.0
1324.154785 164.0
1324.52417 156.0
1332.969116 260.0
1335.440918 160.0
1344.518799 144.0
1345.562622 168.0
1389.360596 164.0
1413.980103 156.0
1420.078735 140.0
1445.119141 196.0
1452.558594 164.0
1453.711792 140.0
1453.992554 164.0
1461.317871 168.0
1488.936279 172.0
1491.425659 168.0
1492.140625 140.0
1506.652588 148.0
1508.491821 148.0
1510.780884 216.0
1518.961182 172.0
1519.263672 144.0
1522.717896 160.0
1532.924683 168.0
1535.021606 176.0
1541.74292 200.0
1541.844604 248.0
1551.503662 164.0
1555.543701 176.0
1557.985962 152.0
1558.433716 156.0
1559.579346 220.0
1562.742432 160.0
1563.025757 172.0
1578.605103 192.0
1592.339111 160.0
1592.752075 172.0
1597.847778 216.0
1604.792847 192.0
1606.682983 160.0
1607.911865 152.0
1616.558716 180.0
1621.652222 148.0
1625.911011 156.0
1628.415894 164.0
1628.769287 220.0
1637.987549 192.0
1647.748779 176.0
1648.936646 200.0
1651.046753 140.0
1654.054565 188.0
1662.161133 168.0
1671.013184 140.0
1677.337158 200.0
1677.769165 188.0
1686.80603 168.0
1688.482178 152.0
1694.646118 148.0
1695.940918 216.0
1700.320679 140.0
1707.657471 188.0
1710.58667 156.0
1718.374634 216.0
1723.725098 144.0
1735.603271 152.0
1739.569092 148.0
1742.262207 168.0
1746.083252 164.0
1749.877808 168.0
1756.978516 164.0
1768.075073 140.0
1775.254517 148.0
1778.610474 176.0
1787.56958 196.0
1790.71814 212.0
1793.81897 172.0
1795.631714 144.0
1796.028198 140.0
1798.044678 160.0
1798.255615 144.0
1808.431885 180.0
1809.25293 172.0
1809.532349 144.0
1823.342041 164.0
1829.083252 140.0
1830.964966 216.0
1833.341797 148.0
1833.64856 188.0
1835.643433 164.0
1843.881592 152.0
1849.081543 176.0
1851.196045 144.0
1854.712402 196.0
1855.291626 196.0
1855.394531 208.0
1857.86438 160.0
1859.709351 164.0
1867.374268 184.0
1867.984009 212.0
1871.047607 144.0
1877.061646 164.0
1879.511475 204.0
1879.873901 212.0
1904.565674 184.0
1908.285156 168.0
1911.103149 140.0
1911.947266 352.0
1916.431885 200.0
1920.563965 156.0
1927.740479 156.0
1931.5 204.0
1934.133789 140.0
1934.317627 152.0
1940.099243 164.0
1941.098755 156.0
1943.703979 220.0
1952.567871 216.0
1956.800415 208.0
1957.980347 192.0
1961.01062 192.0
1963.682617 224.0
1964.097168 208.0
1970.638794 184.0
1971.213135 184.0
1974.094849 200.0
1984.853882 144.0
1985.625366 208.0
1986.237427 156.0
1991.483154 152.0
1992.451416 140.0
1997.56311 240.0
2003.171265 172.0
