>compound MLS000574953-01!
>formula C15H10N2O3
>ionization [M+H]+
>parentmass 267.076538
#inchi InChI=1S/C15H10N2O3/c1-20-14-11-12-9(6-7-16-11)8-4-2-3-5-10(8)17(12)15(19)13(14)18/h2-7,18H,1H3
#inchikey PGFKZUOYIFDMQJ
#Ion_Source LC-ESI
#Instrument qTof
#Compound_Source NIH Natural Product Library
#PI Dorrestein
#Data_Collector VVP/LMS
#Scan -1
#Precursor_MZ 267.077
#ExactMass 266.069
#Charge 1
#CAS_Number N/A
#Pubmed_ID N/A
#Smiles COc1c(O)c(=O)n2c3ccccc3c4ccnc1c42
#INCHI_AUX N/A
#Library_Class 1
#SpectrumID CCMSLIB00000079421
#IonMode Positive
#UpdateWorkflowName UPDATE-SINGLE-ANNOTATED-GOLD
#LibraryQualityString Gold
#TaskID b1d8e8f6646f4e71acdff9ca3d919d08
##Scan# 1780
#SpectrumFile p1-B06_GB6_01_17890.mzXML
#LibraryName NIH_Natural_Products_Library.mgf
#MQScore -1
#Organism NIH_Natural_Products_Library
#TIC_Query 0
#RT_Query -1
#MZErrorPPM -1
#SharedPeaks 0
#MassDiff 0
#LibMZ -1
#SpecMZ 267.077
#SpecCharge 0
#internalFilename spec-00000.mgf

>collision 10
95.022682 204.0
95.055473 200.0
95.069077 268.0
95.100304 88.0
95.129417 160.0
95.207077 164.0
95.354729 220.0
95.392456 68.0
95.455818 204.0
95.47332 120.0
95.551125 184.0
95.572525 132.0
95.67762 204.0
95.695145 176.0
95.743828 208.0
95.831482 188.0
95.891891 140.0
95.927376 96.0
95.952316 204.0
95.983513 176.0
96.026413 200.0
96.213737 84.0
96.243019 88.0
96.26841 172.0
96.309418 184.0
96.334816 152.0
96.3563 216.0
96.392021 128.0
96.438377 136.0
96.466339 196.0
96.503418 204.0
96.575241 144.0
96.60849 136.0
96.729813 148.0
96.871513 176.0
97.023659 164.0
97.055023 176.0
97.091545 244.0
97.129547 120.0
97.151131 256.0
97.219803 164.0
97.289108 244.0
97.312057 196.0
97.338737 204.0
97.381996 136.0
97.405159 224.0
97.520279 108.0
97.571388 144.0
97.639206 188.0
97.687416 140.0
97.712738 156.0
97.732666 84.0
97.750374 36.0
97.868477 240.0
97.930832 168.0
97.941772 144.0
97.990044 204.0
98.006348 128.0
98.047729 32.0
98.081238 132.0
98.217033 156.0
98.231094 148.0
98.268578 140.0
98.296204 180.0
98.412659 180.0
98.429665 156.0
98.487701 116.0
98.541039 136.0
98.588455 100.0
98.655663 172.0
98.673454 52.0
98.732773 132.0
98.776772 252.0
98.823761 176.0
98.862137 168.0
98.916779 72.0
98.943459 184.0
98.999931 244.0
99.017754 180.0
99.052597 196.0
99.145653 244.0
99.166344 288.0
99.225815 104.0
99.301163 136.0
99.328934 128.0
99.375114 172.0
99.40432 152.0
99.424171 164.0
99.50412 244.0
99.551216 188.0
99.579025 124.0
99.593895 156.0
99.644569 56.0
99.692947 208.0
99.767387 200.0
99.868088 200.0
99.883125 116.0
99.934845 164.0
99.958725 160.0
99.97464 88.0
100.002502 180.0
100.100586 196.0
100.135902 96.0
100.170227 240.0
100.231522 64.0
100.295349 136.0
100.491089 108.0
100.541496 200.0
100.56456 128.0
100.629173 164.0
100.648399 168.0
100.764244 104.0
100.78553 196.0
100.842178 108.0
100.896149 200.0
100.926132 120.0
100.97213 152.0
101.038139 148.0
101.068146 132.0
101.096161 128.0
101.192238 128.0
101.258324 140.0
101.272339 164.0
101.288361 392.0
101.316406 176.0
101.350471 196.0
101.458694 152.0
101.520851 116.0
101.590569 164.0
101.613503 208.0
101.816658 240.0
101.870079 204.0
101.932274 172.0
101.960495 120.0
102.047676 140.0
102.067039 224.0
102.103233 56.0
102.14547 152.0
102.206696 176.0
102.328606 204.0
102.350838 168.0
102.397064 164.0
102.427277 144.0
102.441376 168.0
102.471596 220.0
102.518242 188.0
102.5905 176.0
102.624771 148.0
102.670036 148.0
102.68325 172.0
102.788155 132.0
102.802277 204.0
102.834564 156.0
102.850716 132.0
102.864845 200.0
102.937523 72.0
102.953682 180.0
102.99205 76.0
103.013542 432.0
103.054428 164.0
103.060287 144.0
103.155724 160.0
103.188576 208.0
103.260864 132.0
103.305367 208.0
103.325592 100.0
103.349876 212.0
103.438652 152.0
103.477386 224.0
103.570534 124.0
103.59687 288.0
103.68602 168.0
103.703079 208.0
103.738716 100.0
103.754936 144.0
103.772957 180.0
103.799538 200.0
103.82222 196.0
103.902985 96.0
103.925301 80.0
104.049553 252.0
104.078964 164.0
104.124229 132.0
104.191261 212.0
104.246124 164.0
104.290833 156.0
104.437225 144.0
104.458572 164.0
104.471802 308.0
104.521156 188.0
104.536911 280.0
104.583717 92.0
104.742538 116.0
104.769722 244.0
104.842377 228.0
104.874985 40.0
104.997307 164.0
105.031982 60.0
105.062584 100.0
105.08094 168.0
105.118248 156.0
105.136032 196.0
105.168686 128.0
105.205429 140.0
105.219719 100.0
105.244225 136.0
105.280975 104.0
105.308167 192.0
105.376984 64.0
105.405586 148.0
105.456673 200.0
105.551735 224.0
105.574318 236.0
105.616158 76.0
105.654915 156.0
105.738914 108.0
105.816704 148.0
105.931381 128.0
106.013336 156.0
106.027679 148.0
106.092804 172.0
106.124695 208.0
106.214256 116.0
106.242973 136.0
106.259384 200.0
106.370201 116.0
106.425636 200.0
106.534485 156.0
106.696831 96.0
106.71122 168.0
106.731781 164.0
106.783195 100.0
106.824333 136.0
106.846962 308.0
106.894821 168.0
106.951149 120.0
106.980728 196.0
107.005432 132.0
107.023956 108.0
107.081619 44.0
107.106331 136.0
107.144272 144.0
107.15004 184.0
107.168137 228.0
107.244804 176.0
107.287674 204.0
107.323997 164.0
107.35025 88.0
107.36396 124.0
107.458847 144.0
107.580605 168.0
107.65287 96.0
107.716896 148.0
107.853767 216.0
107.886345 128.0
107.987663 144.0
108.037308 148.0
108.060066 172.0
108.147606 304.0
108.201485 136.0
108.286461 152.0
108.350517 216.0
108.399635 200.0
108.4245 128.0
108.503815 228.0
108.519852 100.0
108.648438 56.0
108.67981 196.0
108.750114 72.0
108.820694 164.0
108.889221 48.0
108.905838 184.0
109.011787 160.0
109.047119 72.0
109.069977 184.0
109.105316 336.0
109.130264 140.0
109.20929 184.0
109.228401 212.0
109.354927 44.0
109.410606 212.0
109.450691 236.0
109.502754 168.0
109.5215 72.0
109.561073 120.0
109.606911 48.0
109.742393 168.0
109.793861 164.0
109.87587 192.0
109.899712 236.0
109.942642 32.0
110.067886 160.0
110.097122 104.0
110.208359 128.0
110.23291 192.0
110.312325 124.0
110.398048 164.0
110.421051 56.0
110.471832 244.0
110.550758 96.0
110.623779 160.0
110.642853 124.0
110.658295 180.0
110.672165 236.0
110.686821 160.0
110.711952 116.0
110.758026 172.0
110.787354 184.0
110.862129 168.0
111.05146 132.0
111.160553 168.0
111.210922 116.0
111.31945 236.0
111.359993 160.0
111.397797 84.0
111.494446 216.0
111.528076 180.0
111.57222 180.0
111.589043 140.0
111.631088 132.0
111.650787 164.0
111.668945 228.0
111.68367 160.0
111.759399 172.0
111.856209 152.0
111.891998 184.0
111.927788 144.0
112.052055 204.0
112.083656 168.0
112.132126 112.0
112.165848 200.0
112.201691 188.0
112.254501 188.0
112.270164 136.0
112.31134 144.0
112.332382 168.0
112.429489 160.0
112.469589 192.0
112.643066 128.0
112.668083 48.0
112.767395 140.0
112.824471 52.0
112.922791 164.0
112.974617 120.0
112.989426 172.0
113.004234 132.0
113.037712 448.0
113.088882 192.0
113.154503 152.0
113.334526 56.0
113.353134 184.0
113.395729 168.0
113.465935 188.0
113.499855 48.0
113.525299 168.0
113.549591 124.0
113.591049 124.0
113.648331 192.0
113.739586 200.0
113.777794 112.0
113.852112 116.0
114.045616 660.0
114.104965 216.0
114.145309 168.0
114.221924 80.0
114.258087 232.0
114.316628 140.0
114.477318 152.0
114.506592 188.0
114.600861 60.0
114.649872 132.0
114.677574 152.0
114.787872 156.0
114.805496 140.0
114.869476 92.0
114.907875 240.0
114.978294 188.0
115.042244 200.0
115.055939 304.0
115.089294 164.0
115.132004 140.0
115.149086 120.0
115.236664 116.0
115.354202 144.0
115.388412 52.0
115.40551 196.0
115.467529 88.0
115.681488 88.0
115.70504 196.0
115.742928 132.0
115.775696 72.0
115.794975 212.0
115.831383 184.0
115.867805 156.0
115.897209 204.0
115.93029 172.0
115.974945 48.0
116.015671 204.0
116.065491 188.0
116.103584 152.0
116.159668 216.0
116.215126 168.0
116.235886 136.0
116.241341 92.0
116.24984 156.0
116.396271 172.0
116.40451 224.0
116.603798 184.0
116.662582 92.0
116.794487 180.0
116.904877 164.0
116.943321 236.0
116.971596 84.0
117.058571 2208.0
117.08107 176.0
117.118011 132.0
117.158943 36.0
117.180489 108.0
117.213043 144.0
117.245132 108.0
117.30117 144.0
117.352905 136.0
117.380936 160.0
117.443481 144.0
117.493095 164.0
117.527878 160.0
117.57077 60.0
117.593964 236.0
117.631203 72.0
117.651627 104.0
117.69165 176.0
117.71434 116.0
117.773712 116.0
117.814171 192.0
117.914146 156.0
117.933601 148.0
118.041389 332.0
118.113869 172.0
118.128906 124.0
118.170029 144.0
118.217941 160.0
118.252579 100.0
118.416084 96.0
118.433411 184.0
118.517899 148.0
118.572891 368.0
118.676117 144.0
118.706474 88.0
118.748306 208.0
118.769073 148.0
118.788895 228.0
118.820961 128.0
118.916908 180.0
118.953812 192.0
118.988907 120.0
119.114342 172.0
119.129494 208.0
119.203568 120.0
119.268768 124.0
119.323112 140.0
119.3666 144.0
119.468826 180.0
119.521042 144.0
119.597 208.0
119.632034 108.0
119.655983 208.0
119.719284 112.0
119.836746 152.0
119.913017 100.0
119.93045 80.0
120.172508 36.0
120.200874 136.0
120.222694 188.0
120.266617 140.0
120.294724 132.0
120.46505 180.0
120.572113 164.0
120.58741 92.0
120.62133 180.0
120.660423 200.0
120.718582 132.0
120.76104 164.0
120.824776 296.0
120.893951 120.0
120.932976 64.0
120.96817 156.0
120.99865 212.0
121.021851 180.0
121.041595 312.0
121.069603 148.0
121.147568 160.0
121.205864 164.0
121.223053 192.0
121.283516 188.0
121.364532 140.0
121.601326 140.0
121.607567 132.0
121.722191 72.0
121.763916 272.0
121.785873 160.0
121.829811 84.0
121.908905 144.0
121.983635 188.0
122.040794 116.0
122.115562 104.0
122.152954 152.0
122.177147 228.0
122.225555 32.0
122.377426 176.0
122.399445 164.0
122.450096 88.0
122.617531 172.0
122.705704 136.0
122.756416 124.0
122.796112 80.0
122.848679 144.0
122.873314 220.0
123.005722 112.0
123.050179 200.0
123.067535 68.0
123.131577 204.0
123.237602 248.0
123.259697 188.0
123.278954 236.0
123.306656 160.0
123.374626 152.0
123.419662 116.0
123.510651 140.0
123.553757 144.0
123.589157 132.0
123.624557 152.0
123.752945 176.0
123.799446 52.0
123.907974 180.0
123.962395 164.0
123.99218 152.0
124.023209 156.0
124.043152 132.0
124.107445 156.0
124.131836 88.0
124.384041 112.0
124.450272 180.0
124.464676 216.0
124.492432 136.0
124.540184 136.0
124.613487 232.0
124.661484 200.0
124.702377 144.0
124.74263 220.0
124.806854 56.0
124.842438 180.0
124.893585 216.0
124.987022 152.0
125.020401 112.0
125.076042 248.0
125.11319 192.0
125.143105 160.0
125.178452 164.0
125.205177 44.0
125.289818 148.0
125.336609 172.0
125.381172 116.0
125.427979 212.0
125.497086 172.0
125.557289 96.0
125.648743 208.0
125.671906 136.0
125.737999 224.0
125.903206 180.0
125.93 36.0
125.992546 132.0
126.008186 100.0
126.034996 112.0
126.140038 252.0
126.17804 60.0
126.216049 140.0
126.367172 148.0
126.383804 60.0
126.423439 140.0
126.431961 100.0
126.43634 192.0
126.509132 88.0
126.53376 132.0
126.565102 256.0
126.621086 200.0
126.715164 188.0
126.746536 184.0
126.766701 128.0
126.78463 56.0
126.804794 176.0
126.845451 264.0
126.883255 148.0
126.919128 148.0
126.941551 56.0
126.990883 196.0
127.043152 492.0
127.089302 156.0
127.107544 112.0
127.179352 32.0
127.215271 184.0
127.23098 144.0
127.250412 196.0
127.273643 88.0
127.291603 108.0
127.30732 128.0
127.33876 208.0
127.453331 44.0
127.565704 192.0
127.585938 148.0
127.601669 124.0
127.693863 192.0
127.741096 156.0
127.826225 148.0
127.862602 180.0
127.907616 136.0
127.979553 264.0
128.049698 740.0
128.079315 156.0
128.105698 128.0
128.112976 160.0
128.171112 108.0
128.216171 140.0
128.259003 40.0
128.344666 196.0
128.374695 140.0
128.407806 128.0
128.423599 136.0
128.457428 176.0
128.491272 132.0
128.531876 272.0
128.581528 160.0
128.615387 128.0
128.640213 100.0
128.753098 172.0
128.798843 176.0
128.861526 72.0
128.913498 164.0
128.936096 124.0
128.964447 124.0
129.054672 540.0
129.069611 520.0
129.121475 164.0
129.200638 68.0
129.29567 164.0
129.394119 204.0
129.488113 164.0
129.567398 64.0
129.605911 196.0
129.673889 180.0
129.769104 116.0
129.79631 120.0
129.905167 128.0
129.980042 116.0
130.006287 164.0
130.032227 236.0
130.057816 172.0
130.17897 144.0
130.208954 152.0
130.226227 232.0
130.243378 148.0
130.281998 188.0
130.343338 88.0
130.406982 168.0
130.575211 68.0
130.593414 120.0
130.631622 160.0
130.698059 168.0
130.713989 160.0
130.734467 88.0
130.750397 152.0
130.868759 196.0
130.896088 168.0
131.021362 128.0
131.087433 144.0
131.130737 172.0
131.208237 32.0
131.299438 172.0
131.50119 320.0
131.570969 188.0
131.598358 120.0
131.646317 144.0
131.719406 148.0
131.787933 156.0
131.824493 152.0
131.86293 156.0
131.90448 148.0
131.932632 192.0
132.011948 128.0
132.048889 176.0
132.096558 136.0
132.156052 140.0
132.220123 56.0
132.277344 84.0
132.327698 184.0
132.42131 164.0
132.4422 288.0
132.520081 148.0
132.646133 60.0
132.672958 148.0
132.712616 180.0
132.779114 60.0
132.937408 184.0
132.985596 180.0
133.031509 136.0
133.055817 244.0
133.137207 208.0
133.21521 172.0
133.284134 104.0
133.314011 200.0
133.370468 168.0
133.599121 104.0
133.652039 228.0
133.718765 176.0
133.753296 180.0
133.84848 172.0
133.875305 188.0
133.904968 132.0
133.983566 176.0
134.011215 156.0
134.054993 96.0
134.098785 152.0
134.130417 204.0
134.219284 176.0
134.290146 44.0
134.317825 120.0
134.350113 132.0
134.436401 192.0
134.539703 184.0
134.589767 148.0
134.610931 136.0
134.645569 156.0
134.681107 184.0
134.735641 184.0
134.770309 176.0
134.793427 208.0
134.8535 184.0
135.0233 172.0
135.059219 156.0
135.16185 152.0
135.181885 144.0
135.265213 224.0
135.281418 176.0
135.299927 268.0
135.335388 164.0
135.40181 204.0
135.438507 128.0
135.488388 180.0
135.519958 184.0
135.621918 232.0
135.658997 116.0
135.675232 88.0
135.740143 164.0
135.855011 188.0
136.020874 124.0
136.069626 60.0
136.095154 88.0
136.123322 160.0
136.222885 192.0
136.288193 216.0
136.318146 160.0
136.366959 180.0
136.41423 152.0
136.508392 200.0
136.527359 140.0
136.606293 120.0
136.678574 168.0
136.89505 144.0
137.009171 160.0
137.053436 108.0
137.069748 144.0
137.104706 196.0
137.166962 236.0
137.28421 156.0
137.389175 84.0
137.415771 168.0
137.486725 148.0
137.559525 184.0
137.602783 204.0
137.627228 96.0
137.694946 88.0
137.722977 180.0
137.756958 172.0
137.807068 192.0
137.858475 208.0
137.89119 192.0
137.937943 180.0
137.958969 136.0
137.980011 192.0
138.078232 196.0
138.167633 180.0
138.178101 40.0
138.187714 208.0
138.238052 224.0
138.293472 124.0
138.34964 80.0
138.401154 196.0
138.478302 136.0
138.495148 148.0
138.536987 136.0
138.604935 28.0
138.665863 220.0
138.750244 192.0
138.811203 160.0
138.848724 116.0
138.907364 168.0
138.997513 180.0
139.054382 188.0
139.137344 188.0
139.167862 32.0
139.200729 168.0
139.231262 164.0
139.259445 212.0
139.32991 144.0
139.353409 120.0
139.477905 188.0
139.553192 176.0
139.684875 256.0
139.722565 152.0
139.783691 184.0
139.819 196.0
139.83783 144.0
139.859009 144.0
139.887253 204.0
139.915497 208.0
139.961136 168.0
139.984161 200.0
140.019104 176.0
140.048584 3860.0
140.129822 136.0
140.191086 40.0
140.21936 104.0
140.25943 124.0
140.292435 144.0
140.326263 204.0
140.391449 176.0
140.407959 212.0
140.466934 172.0
140.578064 192.0
140.60141 164.0
140.667496 148.0
140.707626 252.0
140.75209 212.0
140.806946 252.0
140.828064 168.0
140.952087 176.0
140.971786 172.0
141.004532 168.0
141.010803 116.0
141.020493 208.0
141.057693 9924.0
141.109268 144.0
141.166016 176.0
141.214279 176.0
141.290833 232.0
141.335419 240.0
141.417496 120.0
141.487793 44.0
141.608566 92.0
141.631332 104.0
141.713272 204.0
141.745956 104.0
141.767288 252.0
141.798096 244.0
141.817062 120.0
141.90477 88.0
141.9431 180.0
141.975906 124.0
142.005585 200.0
142.024033 108.0
142.055801 1696.0
142.146698 140.0
142.172256 120.0
142.232132 124.0
142.30336 232.0
142.319977 84.0
142.386459 140.0
142.424469 156.0
142.442337 172.0
142.461075 116.0
142.477921 96.0
142.516327 200.0
142.541992 120.0
142.614548 200.0
142.692993 180.0
142.716766 108.0
142.788101 184.0
142.81189 148.0
142.873734 184.0
142.944046 124.0
142.989014 152.0
143.056046 408.0
143.126022 36.0
143.158173 192.0
143.176819 120.0
143.202225 104.0
143.218903 96.0
143.26738 148.0
143.333252 208.0
143.392303 164.0
143.428574 216.0
143.447647 180.0
143.478638 180.0
143.520157 144.0
143.5625 116.0
143.585938 212.0
143.62648 192.0
143.683731 164.0
143.717133 188.0
143.740997 60.0
143.786331 160.0
143.808975 288.0
143.848389 160.0
143.874649 132.0
143.936722 64.0
143.958221 128.0
143.979706 76.0
144.020309 176.0
144.044373 260.0
144.079437 216.0
144.127808 120.0
144.147842 168.0
144.233353 180.0
144.280777 272.0
144.326202 136.0
144.364456 144.0
144.383591 176.0
144.409897 148.0
144.488464 128.0
144.651566 120.0
144.711411 172.0
144.752121 100.0
144.809601 76.0
144.893433 92.0
144.917389 104.0
144.960526 132.0
144.983459 176.0
145.018311 176.0
145.051331 348.0
145.078125 228.0
145.121109 204.0
145.154678 104.0
145.19545 140.0
145.329788 212.0
145.375366 152.0
145.464172 52.0
145.560593 124.0
145.578979 108.0
145.608231 152.0
145.627975 72.0
145.673096 148.0
145.755951 164.0
145.81485 88.0
145.850906 180.0
145.915802 152.0
145.935043 176.0
145.97496 192.0
146.005112 368.0
146.031235 176.0
146.059555 268.0
146.09137 204.0
146.233322 108.0
146.276657 64.0
146.298325 88.0
146.334427 144.0
146.409073 96.0
146.488556 120.0
146.639252 208.0
146.66687 232.0
146.731888 128.0
146.77536 220.0
146.924896 188.0
146.963486 124.0
147.067261 172.0
147.12944 84.0
147.168655 204.0
147.344955 156.0
147.456116 168.0
147.511703 160.0
147.562469 168.0
147.607315 204.0
147.651932 132.0
147.73175 160.0
147.755829 164.0
147.8237 68.0
147.889038 160.0
147.997971 184.0
148.022064 148.0
148.058517 228.0
148.108032 144.0
148.136017 120.0
148.173386 168.0
148.28624 220.0
148.305634 136.0
148.363815 176.0
148.388046 136.0
148.406998 212.0
148.425735 96.0
148.493835 64.0
148.540833 132.0
148.560242 168.0
148.618469 216.0
148.650009 104.0
148.732529 112.0
148.776215 224.0
148.902481 148.0
148.946198 188.0
148.997208 128.0
149.018768 136.0
149.08226 96.0
149.114975 52.0
149.186325 112.0
149.233383 208.0
149.286453 188.0
149.309464 224.0
149.332657 392.0
149.356979 164.0
149.427521 208.0
149.449432 100.0
149.466461 212.0
149.624664 92.0
149.831665 212.0
149.882828 156.0
149.914505 164.0
149.99144 120.0
150.021744 168.0
150.044525 184.0
150.070236 180.0
150.097336 140.0
150.168427 132.0
150.188583 120.0
150.348587 168.0
150.464081 164.0
150.485275 104.0
150.524353 144.0
150.551208 120.0
150.658676 132.0
150.675781 56.0
150.7323 152.0
150.768631 72.0
150.790619 44.0
150.831314 124.0
150.944641 112.0
150.973984 172.0
151.027786 160.0
151.062027 128.0
151.296951 172.0
151.35817 136.0
151.389999 148.0
151.419388 56.0
151.462067 120.0
151.524719 72.0
151.562241 164.0
151.670517 152.0
151.700394 128.0
151.793869 196.0
151.803268 160.0
151.828659 104.0
151.880157 232.0
151.907715 204.0
151.990555 164.0
152.037186 180.0
152.099838 220.0
152.129349 224.0
152.17218 132.0
152.241959 204.0
152.315887 108.0
152.361298 172.0
152.417801 148.0
152.53331 160.0
152.66362 136.0
152.732483 132.0
152.8358 148.0
152.857941 88.0
152.904709 320.0
152.929321 132.0
152.963928 320.0
153.001358 120.0
153.045731 212.0
153.111496 140.0
153.210022 48.0
153.261765 128.0
153.389923 268.0
153.414566 168.0
153.452255 152.0
153.476196 116.0
153.518127 44.0
153.540314 132.0
153.572433 168.0
153.631577 140.0
153.836395 208.0
153.878372 232.0
153.992065 180.0
154.065063 200.0
154.147598 136.0
154.256973 232.0
154.394531 144.0
154.428284 96.0
154.553116 144.0
154.57074 160.0
154.612793 204.0
154.662003 136.0
154.679321 76.0
154.736343 124.0
154.814072 184.0
154.841599 148.0
154.867813 164.0
154.929428 200.0
154.954285 140.0
154.978989 124.0
155.025085 236.0
155.060516 6912.0
155.097931 104.0
155.126862 96.0
155.177261 148.0
155.24173 124.0
155.264053 104.0
155.295029 196.0
155.326965 76.0
155.371994 124.0
155.394714 172.0
155.527039 108.0
155.586609 68.0
155.606476 160.0
155.643723 104.0
155.7173 204.0
155.745544 268.0
155.825027 132.0
155.941818 152.0
155.984619 248.0
156.018875 124.0
156.065552 1276.0
156.193771 180.0
156.251801 164.0
156.353073 144.0
156.419525 144.0
156.446762 152.0
156.523941 120.0
156.650955 112.0
156.725708 232.0
156.770554 104.0
156.790497 116.0
156.887695 204.0
156.912628 88.0
157.042801 196.0
157.073334 324.0
157.232544 128.0
157.266846 120.0
157.304291 120.0
157.343582 124.0
157.393143 68.0
157.429626 208.0
157.501556 176.0
157.554016 96.0
157.622818 268.0
157.676453 80.0
157.796432 116.0
157.861435 252.0
157.894455 180.0
157.933899 144.0
158.051544 144.0
158.106598 360.0
158.186691 140.0
158.224243 156.0
158.24176 152.0
158.331726 164.0
158.405487 148.0
158.537338 68.0
158.710297 160.0
158.745407 184.0
158.873322 132.0
158.946075 220.0
158.976181 136.0
159.028885 116.0
159.071564 172.0
159.099167 176.0
159.130722 176.0
159.209656 116.0
159.242294 192.0
159.315247 204.0
159.393021 196.0
159.455856 168.0
159.641891 224.0
159.662003 84.0
159.693222 164.0
159.74501 60.0
159.805389 208.0
159.931213 128.0
159.956375 152.0
160.001694 184.0
160.041336 204.0
160.099884 148.0
160.162857 108.0
160.228409 180.0
160.254181 204.0
160.442566 112.0
160.543411 144.0
160.66449 132.0
160.69223 100.0
160.727554 208.0
160.825974 132.0
160.919388 164.0
161.027969 116.0
161.047928 172.0
161.083527 176.0
161.207336 220.0
161.278091 244.0
161.442429 164.0
161.480103 192.0
161.51033 188.0
161.558777 164.0
161.578049 240.0
161.735901 116.0
161.881622 180.0
161.930862 200.0
161.961258 148.0
162.051254 144.0
162.14621 296.0
162.349014 200.0
162.518967 224.0
162.557037 108.0
162.638824 172.0
162.673782 152.0
162.709183 216.0
162.785492 128.0
162.831207 116.0
162.879623 196.0
162.912491 236.0
162.955734 160.0
162.997665 144.0
163.087814 180.0
163.183456 232.0
163.220016 156.0
163.302689 88.0
163.352264 164.0
163.451477 116.0
163.520187 124.0
163.545639 156.0
163.571091 40.0
163.609283 180.0
163.774796 220.0
163.797714 116.0
164.08313 120.0
164.123932 196.0
164.164719 124.0
164.271851 156.0
164.381546 108.0
164.511963 204.0
164.567886 56.0
164.587921 236.0
164.617722 96.0
164.810532 168.0
164.894852 300.0
164.958755 92.0
164.984314 156.0
165.002213 156.0
165.047119 332.0
165.205719 152.0
165.276764 172.0
165.30658 52.0
165.327057 120.0
165.384964 236.0
165.424316 48.0
165.455032 172.0
165.474701 156.0
165.552338 200.0
165.592926 216.0
165.675278 220.0
165.703461 92.0
165.757751 252.0
165.803391 116.0
165.859772 164.0
165.95462 144.0
165.993088 184.0
166.027618 164.0
166.056259 340.0
166.111069 56.0
166.201813 108.0
166.258591 144.0
166.282974 44.0
166.357407 168.0
166.377945 176.0
166.433838 352.0
166.478088 100.0
166.519974 116.0
166.572708 180.0
166.645035 196.0
166.693863 152.0
166.758102 96.0
166.801804 176.0
166.824936 204.0
166.895828 244.0
166.953491 116.0
167.01265 248.0
167.060318 3852.0
167.102676 224.0
167.163635 200.0
167.18721 132.0
167.239075 88.0
167.2854 68.0
167.308563 72.0
167.32901 136.0
167.375961 200.0
167.432159 144.0
167.455017 128.0
167.486557 136.0
167.531387 164.0
167.577118 188.0
167.60733 180.0
167.627945 84.0
167.656143 68.0
167.678757 128.0
167.720901 240.0
167.761032 240.0
167.808609 132.0
167.840363 156.0
167.873367 136.0
167.884445 152.0
167.892105 212.0
167.899399 132.0
167.934189 164.0
167.964508 172.0
167.968613 216.0
167.990433 360.0
168.026672 700.0
168.069016 170464.0
168.126755 164.0
168.144775 200.0
168.163376 184.0
168.189606 148.0
168.218781 112.0
168.280411 108.0
168.33345 156.0
168.364792 244.0
168.416489 300.0
168.435181 112.0
168.452393 72.0
168.468918 112.0
168.493271 1176.0
168.529572 80.0
168.547913 108.0
168.569809 76.0
168.589508 100.0
168.624069 80.0
168.663834 116.0
168.675522 184.0
168.722595 336.0
168.74707 76.0
168.793106 64.0
168.856766 84.0
168.890381 76.0
168.917969 60.0
168.943481 180.0
168.967987 172.0
169.004318 312.0
169.071915 19416.0
169.12944 200.0
169.174805 132.0
169.19693 60.0
169.222839 352.0
169.236893 40.0
169.244385 316.0
169.275635 116.0
169.317001 60.0
169.357544 176.0
169.400635 96.0
169.431396 96.0
169.458069 68.0
169.485809 116.0
169.535034 100.0
169.560959 56.0
169.589462 112.0
169.621353 172.0
169.672409 92.0
169.713898 140.0
169.745941 72.0
169.789612 140.0
169.846161 48.0
169.879013 80.0
169.903229 52.0
169.923981 48.0
169.979385 56.0
170.003067 192.0
170.043335 152.0
170.075119 1056.0
170.11232 156.0
170.152512 120.0
170.184464 44.0
170.21611 116.0
170.236588 64.0
170.24144 92.0
170.279602 100.0
170.31543 136.0
170.321274 168.0
170.356766 156.0
170.395798 284.0
170.438705 112.0
170.472137 132.0
170.52179 160.0
170.544617 164.0
170.588791 136.0
170.625641 116.0
170.731796 120.0
170.773407 84.0
170.817627 96.0
170.916214 76.0
170.946915 156.0
170.97374 84.0
171.004974 60.0
171.05661 180.0
171.129913 68.0
171.166367 104.0
171.268753 216.0
171.288773 72.0
171.312225 96.0
171.338272 76.0
171.376282 156.0
171.395584 108.0
171.413834 128.0
171.453369 92.0
171.497223 68.0
171.515472 108.0
171.563919 136.0
171.699371 188.0
171.77623 72.0
171.804916 52.0
171.836578 120.0
171.935379 188.0
171.982086 196.0
172.06134 172.0
172.112885 168.0
172.170334 100.0
172.204285 68.0
172.233017 168.0
172.271866 96.0
172.319229 96.0
172.368866 124.0
172.387939 216.0
172.515228 152.0
172.552353 216.0
172.630264 100.0
172.647125 72.0
172.758423 60.0
172.779358 188.0
172.815979 152.0
172.865692 52.0
172.904953 168.0
172.941589 144.0
173.043839 140.0
173.232239 116.0
173.295456 152.0
173.397308 48.0
173.470703 152.0
173.496918 72.0
173.515274 48.0
173.567703 172.0
173.664734 144.0
173.697189 192.0
173.705688 72.0
173.713425 164.0
173.837891 116.0
174.005875 144.0
174.071518 168.0
174.103394 168.0
174.149857 192.0
174.221222 52.0
174.422455 152.0
174.502029 180.0
174.760178 144.0
174.799637 160.0
174.820694 116.0
174.85228 88.0
174.88385 96.0
174.99968 96.0
175.039185 120.0
175.099747 184.0
175.157684 188.0
175.313141 48.0
175.40538 156.0
175.481827 176.0
175.531937 168.0
175.555664 68.0
175.582031 180.0
175.634781 176.0
175.660995 132.0
175.69017 68.0
175.745575 208.0
175.767746 140.0
175.816833 156.0
175.91713 152.0
176.023254 160.0
176.124985 184.0
176.315964 248.0
176.334457 180.0
176.429611 152.0
176.47699 152.0
176.556534 148.0
176.604141 124.0
176.723175 168.0
176.786682 120.0
176.863434 220.0
176.895203 140.0
177.003738 208.0
177.048767 40.0
177.10173 112.0
177.252731 80.0
177.326935 140.0
177.364044 184.0
177.406448 84.0
177.653076 136.0
177.756546 64.0
177.931732 40.0
177.979523 100.0
178.016327 200.0
178.11496 128.0
178.162766 60.0
178.184021 140.0
178.228531 156.0
178.284988 72.0
178.340805 196.0
178.375366 44.0
178.396622 108.0
178.444473 48.0
178.481705 136.0
178.566803 124.0
178.585419 116.0
178.766327 140.0
178.8302 276.0
178.872787 120.0
178.976608 104.0
179.005905 204.0
179.027206 352.0
179.064484 264.0
179.088455 180.0
179.112427 72.0
179.161301 260.0
179.306931 240.0
179.381561 96.0
179.421539 92.0
179.449463 196.0
179.66156 144.0
179.738937 184.0
179.757614 148.0
179.794968 176.0
179.823318 212.0
179.891052 176.0
179.939636 140.0
180.027222 72.0
180.059265 120.0
180.093994 176.0
180.188034 116.0
180.23558 68.0
180.283676 116.0
180.379898 32.0
180.401276 120.0
180.425003 128.0
180.575073 80.0
180.636597 164.0
180.663345 112.0
180.761703 84.0
180.783752 164.0
180.845306 48.0
180.984512 152.0
181.018799 168.0
181.076477 668.0
181.211273 168.0
181.305954 88.0
181.332748 160.0
181.367599 156.0
181.399765 120.0
181.439972 144.0
181.477509 132.0
181.515045 112.0
181.608902 128.0
181.66394 124.0
181.698898 188.0
181.847702 116.0
181.957748 220.0
182.044525 432.0
182.08345 456.0
182.124237 116.0
182.181473 236.0
182.20752 108.0
182.253189 128.0
182.293961 180.0
182.33902 128.0
182.387558 100.0
182.409058 148.0
182.46283 252.0
182.494507 296.0
182.546539 152.0
182.59552 128.0
182.60321 156.0
182.616104 272.0
182.653564 116.0
182.662994 92.0
182.673035 136.0
182.699493 172.0
182.726486 112.0
182.747803 92.0
182.770065 136.0
182.795593 144.0
182.823257 208.0
182.84613 112.0
182.891174 332.0
182.925537 276.0
182.949585 368.0
182.969681 164.0
182.994934 452.0
183.020966 788.0
183.056335 212512.0
183.136673 176.0
183.159866 272.0
183.189331 80.0
183.225113 240.0
183.243912 188.0
183.268234 108.0
183.292557 316.0
183.323837 124.0
183.34465 288.0
183.383301 128.0
183.408051 116.0
183.4496 80.0
183.460251 104.0
183.499008 1264.0
183.527954 328.0
183.552505 212.0
183.583389 172.0
183.626251 176.0
183.65036 256.0
183.679413 180.0
183.721634 244.0
183.749954 164.0
183.788879 80.0
183.812225 48.0
183.855392 256.0
183.886261 64.0
183.912491 52.0
183.919586 56.0
183.942612 184.0
183.951569 184.0
183.961029 248.0
183.997101 32.0
184.058838 22996.0
184.173859 136.0
184.194366 124.0
184.198837 136.0
184.227417 176.0
184.276794 64.0
184.328888 152.0
184.35466 132.0
184.38916 144.0
184.433563 56.0
184.494995 80.0
184.520081 152.0
184.541504 44.0
184.597122 140.0
184.654602 164.0
184.698792 48.0
184.751358 164.0
184.759003 104.0
184.801147 80.0
184.845078 52.0
184.90715 140.0
184.931564 144.0
184.991699 156.0
184.998199 64.0
185.009918 144.0
185.060837 2824.0
185.118866 92.0
185.146439 244.0
185.208237 208.0
185.226425 132.0
185.266418 148.0
185.330841 108.0
185.372162 284.0
185.393433 76.0
185.423096 216.0
185.45137 172.0
185.487656 228.0
185.515457 236.0
185.549927 136.0
185.584122 148.0
185.667953 148.0
185.715408 72.0
185.760178 40.0
185.890396 56.0
186.009354 188.0
186.047638 124.0
186.057022 72.0
186.066681 124.0
186.131989 100.0
186.153702 44.0
186.181686 80.0
186.286789 52.0
186.311234 76.0
186.331787 104.0
186.352921 100.0
186.441666 64.0
186.530151 112.0
186.583008 52.0
186.602036 156.0
186.667297 76.0
186.691757 52.0
186.735275 72.0
186.789673 56.0
186.838638 120.0
186.936584 44.0
187.010071 44.0
187.105347 160.0
187.151627 80.0
187.180389 64.0
187.273041 148.0
187.350449 60.0
187.462158 96.0
187.557541 72.0
187.592972 104.0
187.639313 64.0
187.906586 84.0
188.436249 64.0
188.485428 156.0
188.564667 96.0
188.690414 92.0
188.758774 180.0
189.503265 132.0
189.689621 216.0
189.889771 96.0
189.914459 92.0
189.952866 140.0
190.081802 220.0
190.312378 332.0
190.356308 64.0
190.58429 100.0
191.095688 56.0
191.238785 48.0
191.423233 104.0
191.701447 92.0
191.836502 48.0
191.924728 172.0
192.065475 680.0
192.10675 60.0
192.181229 48.0
192.252975 60.0
192.437912 40.0
192.471054 36.0
192.504181 68.0
192.564941 224.0
192.650574 104.0
192.896515 176.0
192.949036 208.0
193.07518 940.0
193.114944 68.0
193.14537 76.0
193.336273 148.0
193.469131 104.0
193.510651 188.0
193.546646 72.0
193.615875 188.0
193.640808 224.0
193.674042 160.0
193.807007 100.0
193.829178 168.0
193.888901 152.0
193.992691 52.0
194.082321 552.0
194.131332 212.0
194.27832 92.0
194.445633 148.0
194.475342 100.0
194.597473 96.0
194.752991 132.0
194.861328 72.0
195.054504 248.0
195.085541 176.0
195.275513 52.0
195.634445 224.0
195.706833 60.0
195.751389 88.0
195.983505 104.0
196.057816 136.0
196.08847 172.0
196.149796 168.0
196.172089 120.0
196.498383 124.0
196.595825 104.0
196.762466 208.0
197.07222 216.0
197.397751 176.0
197.501236 156.0
197.876221 176.0
198.276779 32.0
198.682404 72.0
198.734512 68.0
198.820831 40.0
199.0448 168.0
199.188629 84.0
199.347763 100.0
199.838028 204.0
199.87616 160.0
200.053864 648.0
200.32225 144.0
200.550491 128.0
200.798599 236.0
200.99324 96.0
201.051559 156.0
201.255737 160.0
201.583405 132.0
201.702103 56.0
202.296127 108.0
202.709641 108.0
203.171783 212.0
203.293793 184.0
203.455582 124.0
203.804901 160.0
203.907211 96.0
204.137482 80.0
204.3508 112.0
204.572784 124.0
204.592712 144.0
204.692368 156.0
204.803436 200.0
204.843307 160.0
204.934479 116.0
205.156769 140.0
205.188126 180.0
205.273666 180.0
205.296478 92.0
205.367783 160.0
206.038589 172.0
206.10144 140.0
206.839279 140.0
206.859314 128.0
206.959518 108.0
207.005325 180.0
207.05838 172.0
207.277451 152.0
207.458023 116.0
207.529694 168.0
207.618576 84.0
208.054718 112.0
208.158081 180.0
208.23848 116.0
208.31604 104.0
208.407974 216.0
208.53064 140.0
208.606277 120.0
209.022858 112.0
209.279465 76.0
209.302505 196.0
209.411926 104.0
209.534195 36.0
209.705811 192.0
209.746155 132.0
209.867249 104.0
210.020081 212.0
210.081467 184.0
210.233582 96.0
210.375 104.0
210.499146 40.0
210.837143 136.0
211.085892 712.0
211.152786 136.0
211.652878 136.0
211.975388 140.0
212.086685 156.0
212.374481 148.0
212.837967 56.0
212.857193 60.0
213.058105 136.0
213.652588 52.0
213.771881 340.0
213.827179 64.0
213.86792 136.0
214.106369 164.0
214.613678 132.0
214.663254 192.0
215.121307 196.0
215.427933 156.0
215.44838 192.0
215.635391 96.0
215.94873 232.0
216.035324 108.0
216.179657 184.0
216.287628 116.0
216.492569 128.0
216.794296 112.0
216.888092 176.0
217.269302 72.0
217.29863 164.0
217.319168 168.0
217.551193 204.0
217.691956 72.0
218.032715 164.0
218.053284 92.0
218.297287 168.0
218.585571 160.0
219.351303 168.0
219.504608 184.0
219.554733 180.0
220.139038 208.0
220.588638 136.0
220.626556 248.0
220.907486 228.0
220.937073 108.0
221.067642 536.0
221.224121 68.0
221.277405 128.0
221.304047 60.0
221.798782 64.0
221.887711 212.0
222.035965 64.0
222.07373 152.0
222.763153 156.0
222.931641 156.0
223.048309 108.0
223.095978 336.0
223.155441 128.0
223.241669 160.0
223.390381 148.0
223.494507 128.0
223.768326 152.0
223.82489 40.0
224.024445 212.0
224.057297 884.0
224.119781 156.0
224.159424 196.0
224.190979 188.0
224.429764 136.0
225.061371 316.0
225.211624 300.0
225.426727 48.0
225.564209 112.0
225.782471 116.0
226.057678 176.0
226.093597 56.0
226.195358 156.0
226.446869 148.0
226.590652 112.0
226.797409 148.0
227.193237 92.0
227.304245 132.0
227.33725 168.0
227.484314 76.0
227.772583 92.0
227.907776 84.0
228.121155 152.0
228.360703 144.0
229.120255 176.0
229.466827 120.0
229.768417 104.0
229.874023 120.0
230.224197 124.0
230.314804 172.0
230.544418 168.0
230.571609 200.0
230.68042 48.0
230.731812 168.0
230.902374 176.0
231.097763 96.0
231.336853 104.0
231.554855 60.0
231.706314 160.0
231.921463 176.0
232.05484 164.0
232.673752 136.0
232.707153 212.0
232.99263 136.0
233.375565 200.0
233.75882 80.0
233.868378 128.0
233.901871 124.0
233.990143 124.0
234.248993 220.0
234.370865 72.0
234.526276 188.0
234.879974 92.0
234.901321 64.0
234.950134 108.0
235.052277 184.0
235.160675 204.0
235.188156 168.0
235.429337 108.0
235.658432 148.0
236.107773 104.0
236.441238 152.0
236.468781 200.0
236.615707 80.0
236.692261 192.0
237.068298 152.0
237.332642 100.0
237.418503 92.0
237.478699 60.0
237.633224 144.0
237.958542 168.0
238.471542 140.0
238.86203 36.0
239.082672 740.0
239.243607 96.0
239.271317 160.0
239.345215 112.0
239.579285 156.0
239.902847 144.0
240.080566 144.0
240.331543 48.0
240.902679 196.0
240.927399 44.0
241.131332 168.0
241.254974 132.0
241.421936 132.0
241.486877 52.0
241.672485 160.0
241.722 84.0
242.13063 136.0
242.229736 36.0
243.27475 96.0
243.551117 148.0
243.945999 216.0
244.107407 180.0
244.182053 92.0
244.35936 48.0
245.408951 172.0
245.477554 112.0
245.942398 68.0
246.170303 48.0
246.410812 172.0
246.792114 152.0
247.558731 164.0
247.580658 148.0
247.991058 68.0
248.863144 156.0
249.020157 124.0
249.062744 112.0
249.11438 112.0
249.221207 180.0
249.368896 76.0
249.419189 212.0
249.529221 148.0
249.680145 92.0
249.809097 136.0
250.063965 88.0
250.147385 64.0
250.312668 172.0
250.353607 168.0
250.378799 124.0
250.416595 152.0
250.460678 80.0
250.529984 172.0
251.053192 208.0
251.156891 132.0
251.23613 68.0
251.299988 184.0
251.346558 260.0
251.390732 108.0
251.482254 56.0
251.514069 172.0
251.538574 168.0
251.57135 176.0
251.6035 196.0
251.680252 360.0
251.719025 40.0
251.748703 152.0
251.791138 144.0
251.830368 204.0
251.869202 128.0
251.887802 140.0
251.911804 208.0
251.956772 340.0
252.053528 127916.0
252.133377 48.0
252.173248 228.0
252.204651 132.0
252.243851 68.0
252.29097 156.0
252.324524 224.0
252.396393 68.0
252.445709 60.0
252.474915 60.0
252.530365 116.0
252.574341 680.0
252.634323 76.0
252.656113 124.0
252.703476 164.0
252.734756 152.0
252.762146 96.0
252.801132 100.0
252.831055 72.0
252.850754 68.0
252.892502 144.0
252.924454 168.0
252.961533 388.0
252.996216 144.0
253.00206 60.0
253.056168 16512.0
253.12735 48.0
253.149796 164.0
253.178345 100.0
253.20224 100.0
253.226868 40.0
253.247345 76.0
253.373215 120.0
253.444229 96.0
253.469208 148.0
253.515793 40.0
253.55159 108.0
253.680603 32.0
253.703857 48.0
253.7323 52.0
253.807419 52.0
253.862549 84.0
253.905731 32.0
253.932632 68.0
253.985809 32.0
254.010193 128.0
254.05899 1896.0
254.10556 48.0
254.164368 60.0
254.207092 60.0
254.237183 108.0
254.311829 48.0
254.337219 84.0
254.450653 176.0
254.524918 68.0
254.553665 136.0
254.597565 40.0
254.637405 132.0
254.651367 72.0
254.665436 128.0
254.724594 48.0
254.759491 256.0
254.810379 140.0
254.8367 168.0
254.886459 292.0
254.936417 84.0
254.96283 208.0
254.982834 132.0
255.030869 148.0
255.065231 156.0
255.082474 156.0
255.087494 196.0
255.144073 44.0
255.21402 76.0
255.264893 52.0
255.317719 72.0
255.427094 88.0
255.477982 132.0
255.557526 48.0
255.603149 152.0
255.630707 140.0
255.672073 88.0
255.7771 52.0
255.829636 104.0
255.929916 124.0
255.971313 68.0
256.11142 124.0
256.455536 92.0
256.665955 72.0
256.726532 92.0
257.013611 48.0
257.138062 64.0
257.243408 84.0
257.387085 56.0
257.42218 100.0
257.502045 48.0
257.53717 44.0
257.585083 96.0
257.799133 84.0
257.930176 260.0
258.256317 36.0
258.323486 168.0
258.425873 64.0
259.415436 156.0
259.684784 60.0
260.365173 52.0
260.538635 68.0
260.888916 104.0
261.052887 112.0
261.426025 112.0
261.831665 124.0
262.053925 60.0
262.701904 100.0
263.06012 104.0
263.664093 52.0
263.865753 52.0
264.087616 128.0
264.136139 48.0
264.213776 140.0
264.535553 84.0
264.560059 116.0
265.178741 68.0
265.61319 52.0
265.65213 56.0
265.72998 112.0
266.109711 68.0
266.538452 212.0
266.681458 132.0
266.996796 112.0
267.021698 220.0
267.076538 19488.0
267.152924 32.0
267.211487 60.0
267.264618 60.0
267.335144 36.0
267.42627 92.0
267.488098 60.0
267.51413 132.0
267.667664 128.0
267.756775 132.0
267.823486 60.0
267.86908 116.0
267.944 60.0
268.079041 2808.0
268.269897 56.0
268.303497 92.0
268.393799 48.0
268.655273 68.0
268.697113 52.0
268.967957 68.0
269.00589 156.0
269.08139 580.0
269.147522 40.0
269.257721 92.0
269.559082 108.0
269.634247 124.0
270.023285 120.0
270.049469 112.0
270.127808 96.0
270.25882 56.0
270.412628 64.0
270.442078 52.0
271.093811 108.0
271.188568 140.0
271.197235 128.0
271.274597 100.0
271.601959 48.0
272.291229 136.0
273.03067 80.0
273.316833 36.0
273.471527 64.0
273.688782 48.0
273.968719 100.0
275.063538 132.0
275.340881 92.0
279.557709 104.0
285.488922 104.0
285.690735 64.0
289.115417 124.0
291.061188 80.0
291.951477 80.0
292.05011 108.0
292.721344 84.0
292.798859 48.0
293.245178 80.0
297.610199 60.0
297.926147 28.0
298.008606 36.0
304.75647 92.0
305.670959 64.0
308.080139 96.0
310.867126 56.0
312.064911 76.0
315.064087 56.0
315.45282 52.0
317.275909 112.0
319.143402 52.0
320.007965 116.0
320.545807 36.0
321.187531 80.0
323.810974 72.0
324.355591 60.0
329.465485 84.0
329.696716 96.0
330.872284 68.0
332.481628 76.0
332.844635 84.0
335.354767 56.0
336.284821 56.0
340.719238 96.0
344.233002 72.0
346.811584 64.0
348.801117 100.0
349.56723 76.0
350.378937 80.0
350.468353 28.0
351.497467 60.0
351.993896 100.0
352.05365 72.0
354.762512 80.0
356.368774 36.0
357.498566 96.0
357.651123 96.0
357.700073 96.0
358.457062 40.0
359.928162 120.0
364.678711 128.0
366.295807 116.0
367.199127 76.0
367.711853 52.0
368.9021 100.0
372.48111 100.0
376.37851 80.0
378.776276 108.0
382.270447 64.0
382.57016 68.0
383.045227 72.0
383.314056 76.0
386.676392 56.0
387.153992 36.0
387.338074 52.0
388.965363 56.0
393.030701 72.0
394.198761 64.0
394.341766 48.0
400.372131 100.0
401.793396 56.0
403.768341 64.0
404.550568 20.0
406.179474 104.0
409.418915 36.0
410.506958 96.0
413.358826 52.0
414.310272 60.0
415.859253 64.0
417.0737 124.0
418.680756 112.0
418.766266 112.0
419.035126 112.0
419.287781 68.0
419.332611 64.0
421.11145 120.0
421.671173 136.0
426.289734 68.0
428.276825 64.0
433.154968 52.0
434.28656 108.0
435.477722 52.0
436.425201 56.0
441.738373 32.0
444.944214 44.0
445.801056 108.0
447.344604 40.0
459.678192 40.0
461.095978 56.0
466.350464 80.0
467.145935 80.0
469.27771 48.0
469.825439 84.0
470.550446 44.0
474.773621 64.0
479.952606 36.0
483.52594 80.0
486.085144 36.0
488.193695 76.0
490.72113 104.0
498.764771 96.0
499.053741 40.0
503.509827 68.0
505.687103 124.0
505.946716 64.0
509.934387 84.0
517.435913 92.0
520.741577 72.0
524.910156 84.0
528.829834 120.0
536.745178 72.0
538.484985 52.0
539.053162 32.0
540.472717 84.0
540.995728 48.0
553.660522 88.0
556.004517 56.0
557.286438 152.0
558.513428 60.0
562.348694 40.0
564.952271 144.0
570.377075 52.0
576.630371 60.0
577.959778 48.0
581.006897 76.0
582.077209 76.0
583.513855 52.0
585.6745 52.0
587.14447 128.0
589.060608 56.0
593.721558 116.0
594.604553 56.0
601.589233 92.0
607.559509 128.0
612.150146 104.0
612.898865 84.0
613.505066 68.0
617.405701 40.0
624.637085 100.0
629.426453 120.0
630.230652 124.0
634.334412 76.0
637.395813 92.0
651.552979 68.0
653.622314 60.0
656.462158 20.0
660.494263 72.0
663.356628 104.0
664.659302 76.0
678.046448 104.0
680.598633 68.0
684.753601 72.0
691.04895 64.0
695.928528 52.0
696.432678 52.0
698.724548 60.0
699.308655 96.0
701.65271 160.0
705.36377 84.0
709.39209 84.0
712.674561 20.0
713.453125 56.0
715.389526 100.0
715.927246 192.0
718.250977 76.0
744.511169 76.0
747.152771 76.0
758.226257 96.0
758.352295 56.0
762.715881 92.0
767.902405 164.0
771.259338 64.0
780.70105 76.0
794.278442 108.0
817.801025 180.0
818.358887 96.0
819.976685 60.0
825.95459 92.0
828.873779 92.0
829.653748 136.0
836.035034 96.0
838.669922 20.0
840.264343 204.0
843.145691 164.0
851.157166 52.0
852.295654 208.0
859.620789 68.0
866.209778 96.0
867.891785 124.0
869.868835 196.0
870.080139 56.0
870.238708 76.0
871.807007 48.0
890.042297 76.0
890.095703 64.0
895.525269 88.0
896.704895 236.0
898.094116 224.0
905.607117 208.0
908.154358 104.0
908.796265 56.0
914.101929 76.0
914.781982 172.0
924.929016 84.0
938.080017 192.0
943.776062 192.0
959.512085 88.0
972.595459 40.0
976.739868 212.0
979.815063 196.0
982.346069 100.0
985.823669 168.0
988.63147 48.0
991.079834 48.0
993.035706 200.0
993.198792 44.0
993.801025 204.0
995.357605 92.0
999.317444 120.0
1001.810486 132.0
1004.804993 192.0
1007.765991 60.0
1008.239929 44.0
1012.871216 92.0
1012.978943 56.0
1014.195496 156.0
1017.278259 152.0
1019.577515 176.0
1023.839844 96.0
1024.145508 212.0
1025.815063 136.0
1028.149414 28.0
1029.253784 168.0
1029.649658 80.0
1031.866943 100.0
1033.689819 164.0
1036.353516 212.0
1036.622559 152.0
1036.71228 52.0
1038.982056 144.0
1039.193848 128.0
1050.957397 232.0
1051.794189 92.0
1056.524292 116.0
1066.3479 272.0
1066.445435 52.0
1070.244507 48.0
1071.911987 192.0
1072.635498 192.0
1078.209351 136.0
1081.106445 208.0
1081.937622 132.0
1082.04895 172.0
1082.415649 108.0
1085.456055 76.0
1087.41748 128.0
1088.192139 180.0
1091.713989 80.0
1091.76001 80.0
1096.486816 72.0
1097.040527 184.0
1099.480957 52.0
1100.77478 104.0
1100.979492 144.0
1104.482422 56.0
1105.461548 176.0
1105.683228 20.0
1107.427734 128.0
1108.50769 44.0
1115.935059 116.0
1124.267944 56.0
1125.803345 52.0
1126.751831 108.0
1127.393311 68.0
1127.546997 180.0
1128.924072 56.0
1132.350586 72.0
1136.251831 144.0
1139.279541 228.0
1140.421753 36.0
1142.001831 180.0
1142.163208 144.0
1143.428101 60.0
1144.370483 132.0
1144.599487 160.0
1146.276733 180.0
1148.3396 104.0
1151.694092 144.0
1152.227661 140.0
1152.302002 20.0
1152.93042 224.0
1156.98877 212.0
1158.735962 304.0
1159.291626 176.0
1159.759277 72.0
1162.804565 228.0
1162.87915 96.0
1163.422241 36.0
1163.578369 180.0
1163.687012 56.0
1165.921753 124.0
1166.982666 276.0
1167.206543 52.0
1168.94104 52.0
1171.650879 232.0
1172.700317 160.0
1174.131958 248.0
1176.86145 76.0
1179.088379 208.0
1179.824707 132.0
1182.939087 164.0
1184.007202 192.0
1184.575684 168.0
1187.11853 196.0
1187.406494 128.0
1188.531494 140.0
1195.657471 160.0
1196.483521 180.0
1199.624878 148.0
1200.079834 92.0
1202.514893 56.0
1205.408447 204.0
1205.643433 164.0
1205.94751 60.0
1206.348389 188.0
1208.4646 104.0
1208.540771 260.0
1209.890381 188.0
1210.028809 136.0
1210.859741 108.0
1211.455444 124.0
1214.213989 108.0
1216.781372 148.0
1216.857788 124.0
1217.461914 164.0
1217.831543 176.0
1219.150024 36.0
1220.539185 168.0
1222.042603 208.0
1223.093384 212.0
1223.719971 216.0
1224.116821 144.0
1227.468506 128.0
1227.712646 152.0
1235.136719 216.0
1236.081177 32.0
1237.229126 132.0
1237.635132 156.0
1238.804688 176.0
1239.098999 196.0
1241.881836 228.0
1242.765747 76.0
1245.208618 180.0
1245.349121 204.0
1246.135864 208.0
1246.979126 208.0
1247.28125 112.0
1248.567993 148.0
1250.812378 136.0
1251.100952 148.0
1251.819092 168.0
1253.699951 200.0
1255.518799 204.0
1258.86377 152.0
1259.485229 180.0
1259.937378 148.0
1260.947754 176.0
1262.489014 96.0
1263.549927 104.0
1264.79541 108.0
1265.333374 288.0
1267.110962 144.0
1267.77002 196.0
1268.875732 128.0
1270.187622 156.0
1271.848022 220.0
1272.330688 164.0
1272.593384 104.0
1273.580444 160.0
1275.804565 172.0
1275.86853 212.0
1276.57959 208.0
1277.817261 148.0
1277.88208 172.0
1277.942871 60.0
1278.934448 168.0
1279.753052 84.0
1280.351196 136.0
1280.664673 168.0
1284.806152 168.0
1284.891724 76.0
1285.041504 164.0
1285.498169 164.0
1289.440186 56.0
1289.604614 104.0
1290.433838 116.0
1291.363403 212.0
1292.908691 176.0
1293.123413 196.0
1293.280884 180.0
1293.51001 120.0
1293.638794 172.0
1294.068359 200.0
1294.254517 164.0
1294.447876 60.0
1295.214111 72.0
1298.633057 96.0
1299.802368 144.0
1301.166138 176.0
1301.697388 224.0
1302.365234 180.0
1303.001221 152.0
1303.989014 180.0
1305.088867 232.0
1305.369385 212.0
1306.865479 188.0
1307.43396 212.0
1307.685791 220.0
1308.492065 188.0
1311.128296 84.0
1313.208496 212.0
1315.759033 172.0
1315.860107 148.0
1316.697754 172.0
1317.780518 176.0
1318.193115 176.0
1320.094238 160.0
1322.09082 92.0
1322.242798 232.0
1323.379272 180.0
1323.668945 152.0
1325.081299 168.0
1325.842163 180.0
1328.488647 164.0
1330.295532 196.0
1331.14502 160.0
1331.711426 168.0
1332.031006 184.0
1334.007568 204.0
1334.356445 132.0
1334.545532 172.0
1335.62915 128.0
1335.912842 204.0
1337.877563 208.0
1338.343506 152.0
1338.627563 116.0
1338.977051 160.0
1339.253906 156.0
1340.026001 72.0
1340.506958 156.0
1341.578369 76.0
1341.884521 148.0
1342.066772 104.0
1342.343872 92.0
1342.628296 152.0
1342.800903 60.0
1343.335693 260.0
1344.919189 140.0
1345.488525 216.0
1345.612671 204.0
1346.196777 128.0
1346.722534 140.0
1348.527222 200.0
1348.878052 176.0
1349.543335 152.0
1350.325806 140.0
1351.598633 124.0
1351.781616 152.0
1351.876709 172.0
1352.601318 184.0
1352.674438 168.0
1353.260132 208.0
1354.102295 176.0
1356.300293 72.0
1356.637451 192.0
1358.742188 176.0
1359.754761 44.0
1360.642944 144.0
1361.91333 128.0
1363.838379 228.0
1364.294189 148.0
1365.470581 180.0
1366.132568 108.0
1366.860962 180.0
1368.568604 200.0
1369.290283 224.0
1369.444946 160.0
1370.741455 68.0
1371.38269 176.0
1371.72168 112.0
1373.255371 212.0
1374.398804 252.0
1374.590698 96.0
1375.904419 212.0
1377.100708 228.0
1378.629883 112.0
1379.073364 68.0
1380.478027 76.0
1382.564087 148.0
1385.081421 148.0
1385.93335 136.0
1387.467529 60.0
1387.927246 176.0
1388.505615 168.0
1389.699951 188.0
1390.634888 152.0
1391.82605 208.0
1392.379639 220.0
1394.898315 156.0
1394.972656 180.0
1395.582275 164.0
1395.991333 120.0
1400.024658 164.0
1401.069946 224.0
1401.894409 184.0
1402.319214 204.0
1402.624878 140.0
1403.653687 124.0
1404.138428 128.0
1404.55603 144.0
1404.94397 196.0
1405.496094 132.0
1406.183594 156.0
1407.351196 152.0
1408.053833 204.0
1409.08728 120.0
1410.103516 56.0
1410.282959 124.0
1410.342773 240.0
1410.529663 116.0
1410.933228 184.0
1412.466309 172.0
1412.907593 164.0
1413.169434 120.0
1413.461304 148.0
1413.775513 112.0
1413.835449 148.0
1414.628784 196.0
1415.235229 136.0
1416.051392 168.0
1417.062744 156.0
1417.30249 60.0
1418.741455 108.0
1419.183838 148.0
1419.52124 144.0
1419.626221 80.0
1419.723633 236.0
1419.888672 56.0
1420.056763 204.0
1420.428711 112.0
1420.788696 48.0
1420.938843 272.0
1421.231445 212.0
1421.869263 188.0
1424.572266 112.0
1424.797607 188.0
1425.17334 176.0
1427.721558 132.0
1427.939575 220.0
1429.70752 232.0
1429.903198 180.0
1430.15918 72.0
1430.610718 116.0
1430.678467 164.0
1430.791504 132.0
1430.972168 100.0
1431.210938 192.0
1431.875732 164.0
1432.335205 120.0
1432.619995 224.0
1433.540649 184.0
1433.766724 96.0
1433.858032 172.0
1434.113403 140.0
1435.229126 204.0
1436.435791 212.0
1438.858154 236.0
1439.37915 248.0
1440.020996 228.0
1440.096558 116.0
1440.44397 184.0
1440.542114 156.0
1443.300659 164.0
1443.429199 200.0
1443.557739 84.0
1444.185425 192.0
1444.435059 176.0
1444.957031 200.0
1445.093262 428.0
1445.388306 60.0
1446.235962 88.0
1446.841431 104.0
1447.061035 72.0
1447.719849 40.0
1448.393799 164.0
1448.696899 140.0
1450.432129 148.0
1450.909668 196.0
1452.039429 124.0
1452.168457 148.0
1452.335327 136.0
1453.518799 164.0
1454.019653 164.0
1454.285278 148.0
1454.702759 172.0
1454.80835 140.0
1456.365601 28.0
1457.064453 144.0
1457.748291 168.0
1458.257446 88.0
1458.379028 136.0
1458.835083 172.0
1460.089722 164.0
1460.416748 196.0
1460.538452 196.0
1460.819824 180.0
1461.032837 132.0
1461.656738 92.0
1461.930664 40.0
1462.060059 164.0
1462.516724 112.0
1463.559692 232.0
1463.978516 216.0
1464.892456 136.0
1465.037109 184.0
1465.943848 108.0
1466.363037 228.0
1466.751709 64.0
1467.758057 164.0
1468.28418 120.0
1468.429077 168.0
1469.535156 216.0
1469.710693 164.0
1469.977783 176.0
1471.977661 116.0
1472.162109 180.0
1473.100342 112.0
1473.749756 196.0
1474.254028 52.0
1474.376343 140.0
1474.598022 204.0
1474.750854 100.0
1475.576416 188.0
1475.859253 132.0
1476.104004 72.0
1476.532227 120.0
1476.952881 116.0
1477.082886 64.0
1478.483032 144.0
1480.726196 160.0
1481.017212 208.0
1481.193359 128.0
1481.27002 92.0
1481.994141 368.0
1482.25061 212.0
1482.53418 56.0
1482.664429 52.0
1484.419922 200.0
1484.504272 76.0
1485.946289 172.0
1486.751953 136.0
1488.456055 172.0
1489.961426 84.0
1490.176514 92.0
1490.53772 96.0
1490.645264 120.0
1490.760498 164.0
1491.613647 148.0
1491.698242 160.0
1492.682251 72.0
1493.074463 164.0
1493.589722 92.0
1494.251343 276.0
1495.824951 176.0
1496.013672 156.0
1496.190674 84.0
1497.284058 92.0
1497.530518 184.0
1497.615234 112.0
1498.054321 212.0
1498.27002 208.0
1498.662964 60.0
1498.963501 176.0
1499.469849 184.0
1499.888306 176.0
1500.481812 204.0
1501.214355 216.0
1501.422607 132.0
1502.286377 120.0
1502.4021 196.0
1502.926758 108.0
