>compound MLS001142949-01!(2S)-2-[[1-[(2S)-3-methyl-2-[(4-methylphenyl)sulfonylamino]pentanoyl]piperidine-4-carbonyl]amino]-2-phenylacetic acid
>formula C27H35N3O6S
>ionization [M+H]+
>parentmass 530.232361
#inchi InChI=1S/C27H35N3O6S/c1-4-19(3)23(29-37(35,36)22-12-10-18(2)11-13-22)26(32)30-16-14-21(15-17-30)25(31)28-24(27(33)34)20-8-6-5-7-9-20/h5-13,19,21,23-24,29H,4,14-17H2,1-3H3,(H,28,31)(H,33,34)/t19?,23-,24-/m0/s1
#inchikey SHFUECUZXIUHFD
#Ion_Source LC-ESI
#Instrument qTof
#Compound_Source NIH Natural Product Library
#PI Dorrestein
#Data_Collector VVP/LMS
#Scan -1
#Precursor_MZ 530.232
#ExactMass 529.225
#Charge 1
#CAS_Number N/A
#Pubmed_ID N/A
#Smiles CCC(C)[C@H](NS(=O)(=O)c1ccc(C)cc1)C(=O)N2CCC(CC2)C(=O)N[C@H](C(=O)O)c3ccccc3
#INCHI_AUX N/A
#Library_Class 1
#SpectrumID CCMSLIB00000079809
#IonMode Positive
#UpdateWorkflowName UPDATE-SINGLE-ANNOTATED-GOLD
#LibraryQualityString Gold
#TaskID b1d8e8f6646f4e71acdff9ca3d919d08
##Scan# 2090
#SpectrumFile p1-D11_GD11_01_17919.mzXML
#LibraryName NIH_Natural_Products_Library.mgf
#MQScore -1
#Organism NIH_Natural_Products_Library
#TIC_Query 0
#RT_Query -1
#MZErrorPPM -1
#SharedPeaks 0
#MassDiff 0
#LibMZ -1
#SpecMZ 530.232
#SpecCharge 0
#internalFilename spec-00000.mgf

>collision 10
95.049019 152.0
95.076187 144.0
95.303383 124.0
95.435547 120.0
95.848183 156.0
96.457085 264.0
96.86409 136.0
97.425117 196.0
97.57251 180.0
97.814476 168.0
97.916855 156.0
97.944427 260.0
98.029144 160.0
98.44735 152.0
98.627129 152.0
98.829109 148.0
98.953529 140.0
98.977295 148.0
99.155579 104.0
99.887596 176.0
100.38414 240.0
100.741394 272.0
101.345581 156.0
101.493904 212.0
101.875229 176.0
102.116432 140.0
102.243179 156.0
102.787262 192.0
102.815514 84.0
103.025505 72.0
104.511589 136.0
105.059631 204.0
105.890022 204.0
106.065483 944.0
106.209236 176.0
106.691795 208.0
106.854263 124.0
107.014793 88.0
107.055199 212.0
107.375404 204.0
107.647812 180.0
108.098442 84.0
108.400772 108.0
108.892433 200.0
108.983833 96.0
109.046173 144.0
109.06488 200.0
109.16259 228.0
109.204185 92.0
110.060776 172.0
110.16301 68.0
110.23613 120.0
110.367821 188.0
110.459839 152.0
110.505859 164.0
110.918411 196.0
111.029533 176.0
111.058891 188.0
111.089462 160.0
111.333824 208.0
111.588074 144.0
111.644844 124.0
111.768951 236.0
111.815247 120.0
111.952087 240.0
112.076515 24540.0
112.108932 220.0
112.141693 60.0
112.179634 32.0
112.272408 96.0
112.331459 120.0
112.402473 212.0
112.477058 48.0
112.546722 72.0
112.66922 184.0
112.817146 64.0
112.889038 284.0
112.939796 72.0
113.001137 208.0
113.080162 1516.0
113.113297 76.0
113.157753 64.0
113.293297 100.0
113.51796 48.0
113.893051 124.0
114.004074 32.0
114.080589 184.0
114.913284 196.0
115.197746 96.0
115.44519 164.0
116.098289 128.0
117.628029 160.0
118.237526 168.0
118.653412 64.0
118.688103 144.0
119.341652 164.0
119.650589 204.0
119.868393 176.0
120.029404 148.0
120.049324 180.0
120.160561 184.0
120.457451 152.0
120.708786 160.0
122.477661 124.0
126.144577 200.0
126.21048 28.0
126.503563 100.0
126.904572 252.0
127.187233 160.0
127.357872 116.0
127.920013 172.0
128.07988 68.0
128.379639 192.0
128.661667 88.0
129.075134 148.0
129.104523 176.0
129.437164 52.0
130.082169 140.0
130.112823 176.0
130.439941 44.0
130.619583 148.0
131.412354 28.0
131.825638 188.0
132.042816 384.0
132.081696 88.0
132.36319 184.0
134.205963 68.0
134.762207 92.0
134.79686 144.0
135.041382 340.0
135.301071 84.0
135.530365 108.0
136.042908 260.0
137.033615 92.0
137.408981 104.0
137.49765 100.0
137.777847 156.0
137.814484 64.0
138.580307 148.0
138.688095 44.0
139.020065 660.0
139.042252 128.0
139.089188 68.0
139.204224 208.0
139.354553 64.0
140.032028 156.0
140.14888 232.0
140.347794 76.0
140.798508 152.0
140.890625 104.0
140.928421 156.0
141.086761 184.0
145.246964 124.0
145.825607 132.0
146.318726 140.0
147.111847 120.0
147.300201 160.0
147.844193 88.0
147.938583 176.0
148.282532 60.0
148.66571 136.0
148.694824 152.0
148.726379 192.0
148.777359 172.0
149.32164 168.0
149.569809 96.0
149.764603 144.0
150.913986 72.0
150.960449 40.0
151.01181 44.0
151.726807 164.0
152.071518 156.0
152.156143 156.0
152.219971 196.0
152.32312 128.0
152.645081 132.0
153.302322 156.0
153.827667 276.0
154.03508 164.0
154.126495 60.0
154.282196 192.0
154.59137 136.0
154.630966 148.0
154.66066 124.0
154.955338 108.0
155.016479 23740.0
155.078827 244.0
155.15361 96.0
155.178711 96.0
155.210632 160.0
155.250305 80.0
155.294952 52.0
155.319748 44.0
155.349518 52.0
155.376801 36.0
155.404312 92.0
155.436356 180.0
155.562927 44.0
155.642365 112.0
155.930527 108.0
156.021133 3092.0
156.082169 156.0
156.104553 52.0
156.176666 76.0
156.343369 48.0
156.691956 60.0
156.734314 80.0
156.858917 156.0
156.881363 72.0
156.949631 156.0
156.988571 128.0
157.012772 1344.0
157.053406 88.0
157.09082 140.0
157.213303 88.0
157.365341 48.0
157.465225 68.0
157.61261 76.0
157.865082 76.0
158.01387 140.0
158.032669 112.0
158.588593 180.0
158.889496 72.0
159.155533 32.0
159.195709 108.0
159.726013 36.0
160.12117 200.0
160.756454 60.0
161.873566 112.0
162.03331 204.0
162.139801 164.0
163.671509 200.0
163.997589 100.0
164.883209 180.0
165.10817 212.0
168.041611 28.0
168.490829 152.0
168.560593 48.0
168.989807 140.0
169.660568 140.0
172.042633 676.0
172.286377 180.0
173.032776 172.0
173.048035 224.0
175.40387 116.0
176.141113 160.0
176.525909 204.0
177.985947 120.0
179.156158 140.0
179.276062 172.0
179.87616 140.0
180.487946 120.0
180.560135 44.0
183.683823 132.0
183.994156 148.0
184.041794 4736.0
184.188583 36.0
184.312866 52.0
184.420959 92.0
184.512863 60.0
184.750854 48.0
184.788727 80.0
185.047195 416.0
185.555176 88.0
185.948486 160.0
186.037354 340.0
186.34494 164.0
187.035675 64.0
187.106445 92.0
187.520477 152.0
187.877686 44.0
188.068695 76.0
189.907333 200.0
190.582642 108.0
192.196121 40.0
192.615753 160.0
193.124329 160.0
194.418152 216.0
194.975632 156.0
195.457428 184.0
198.055573 344.0
199.057724 144.0
202.506744 220.0
203.022537 108.0
203.465164 80.0
210.699509 108.0
211.176453 144.0
212.010239 148.0
212.546692 152.0
213.054779 172.0
213.104172 184.0
213.136139 112.0
213.915543 84.0
213.967957 152.0
216.010147 288.0
216.089691 180.0
216.452621 64.0
217.132416 340.0
218.004379 116.0
218.145462 168.0
218.29834 196.0
218.654297 44.0
218.857422 40.0
220.488358 184.0
221.707947 140.0
222.972183 188.0
223.094055 136.0
223.272446 112.0
224.052292 152.0
224.104691 268.0
224.314529 200.0
226.145508 216.0
227.710541 172.0
231.053406 136.0
231.465027 148.0
233.063522 176.0
234.146454 52.0
237.045532 200.0
238.091599 188.0
238.706192 188.0
239.284637 204.0
239.574127 168.0
239.617264 212.0
239.681961 156.0
239.75592 140.0
239.97908 80.0
240.048767 228.0
240.104675 7216.0
240.170441 124.0
240.230072 72.0
240.28627 168.0
240.366486 68.0
240.42511 52.0
240.514618 52.0
240.585617 52.0
240.664505 116.0
240.845001 220.0
241.048904 104.0
241.106659 584.0
241.487885 92.0
241.537369 116.0
241.599243 84.0
241.775604 52.0
242.100174 776.0
242.181183 48.0
242.512695 120.0
242.816544 72.0
242.903381 48.0
242.980942 88.0
243.046097 132.0
243.117462 148.0
243.142288 128.0
244.114624 164.0
244.145721 116.0
244.581299 104.0
245.12706 296.0
246.005814 324.0
246.149429 40.0
246.677429 68.0
250.184555 244.0
251.385406 100.0
251.969528 108.0
255.005188 108.0
255.424881 156.0
255.969086 88.0
256.810425 160.0
258.062195 140.0
261.005615 112.0
261.123352 372.0
261.92923 32.0
262.254669 204.0
262.367493 132.0
262.543396 180.0
262.896454 160.0
263.093353 124.0
263.138458 7416.0
263.210358 232.0
263.233795 160.0
263.26123 40.0
263.312897 44.0
263.34198 56.0
263.364594 60.0
263.390411 32.0
263.545502 40.0
263.57135 68.0
263.632721 84.0
263.836365 56.0
263.965698 80.0
264.049774 104.0
264.142517 1104.0
264.395935 68.0
264.457428 52.0
264.768219 148.0
264.826508 60.0
264.858917 84.0
265.143524 196.0
265.370941 48.0
265.857483 68.0
266.02951 104.0
266.154785 196.0
268.482758 92.0
270.583771 56.0
271.284821 80.0
273.808258 124.0
275.744843 72.0
282.598389 168.0
284.132843 156.0
288.659637 48.0
290.230743 148.0
294.419647 96.0
294.822754 184.0
295.250092 72.0
296.218689 144.0
301.607208 280.0
303.566742 188.0
305.174988 116.0
308.458374 108.0
310.163025 116.0
316.458313 80.0
317.18454 172.0
318.980652 216.0
323.664948 116.0
330.239777 200.0
330.569 180.0
332.19574 144.0
332.326355 64.0
333.052399 136.0
338.028748 116.0
344.189423 60.0
351.169128 452.0
352.179443 80.0
353.022217 76.0
353.138123 144.0
353.407471 40.0
354.579529 36.0
354.969421 112.0
355.104431 180.0
355.479553 40.0
359.208008 140.0
359.324951 124.0
360.578583 40.0
377.457184 108.0
378.076111 168.0
378.177582 160.0
378.211548 244.0
379.175964 132.0
380.180389 168.0
381.193909 88.0
381.232086 116.0
387.867615 32.0
389.091522 212.0
395.398285 148.0
396.175262 172.0
396.217926 168.0
397.149445 92.0
397.188171 180.0
397.494598 52.0
398.194061 164.0
399.047607 44.0
399.1987 120.0
413.132721 104.0
431.611694 176.0
434.498505 84.0
442.144562 56.0
456.122314 152.0
464.144196 112.0
483.022949 136.0
483.390472 112.0
484.231445 420.0
485.129211 124.0
485.228546 232.0
486.216278 124.0
488.7789 72.0
515.016724 96.0
517.096497 76.0
523.288086 80.0
524.180847 116.0
530.232361 164.0
531.23999 160.0
533.145447 64.0
533.237366 104.0
533.379822 128.0
534.051147 56.0
535.252258 68.0
549.094482 116.0
551.709229 88.0
582.614929 52.0
589.263245 68.0
600.437378 84.0
618.083008 112.0
694.516113 68.0
709.598022 172.0
746.009766 40.0
780.394043 172.0
827.051697 120.0
851.074341 136.0
868.030823 160.0
872.581238 76.0
872.72229 80.0
893.54126 72.0
909.790649 60.0
922.217346 200.0
932.253418 136.0
934.405884 264.0
950.039246 64.0
963.070435 208.0
966.872681 160.0
973.822571 200.0
988.347595 148.0
992.763733 264.0
992.807617 72.0
1005.86908 208.0
1019.848328 284.0
1020.528503 156.0
1022.513184 144.0
1024.856567 152.0
1033.092285 152.0
1040.853638 164.0
1048.856689 128.0
1055.881348 132.0
1064.506714 160.0
1068.953003 100.0
1071.922241 160.0
1079.618652 112.0
1086.141846 176.0
1096.299438 180.0
1098.818237 216.0
1099.06897 56.0
1107.954712 196.0
1113.234375 168.0
1115.273926 136.0
1116.769897 132.0
1133.486328 200.0
1139.054688 176.0
1144.475098 212.0
1159.654297 40.0
1161.118774 204.0
1164.179321 64.0
1175.71814 144.0
1177.179077 228.0
1178.224121 124.0
1192.208618 140.0
1192.325439 168.0
1195.578369 228.0
1197.29248 40.0
1198.787354 188.0
1207.416626 236.0
1209.575317 216.0
1213.697266 152.0
1219.208862 128.0
1220.682617 204.0
1223.291626 112.0
1225.171875 112.0
1226.656128 168.0
1228.169189 200.0
1232.266968 124.0
1234.077148 172.0
1234.161011 136.0
1236.448364 180.0
1243.640015 108.0
1249.309692 148.0
1249.591187 152.0
1251.794189 88.0
1254.675903 52.0
1256.629517 216.0
1260.251465 100.0
1261.233765 132.0
1261.431641 228.0
1265.010986 152.0
1270.460327 220.0
1270.822144 164.0
1272.695923 176.0
1275.068604 164.0
1275.736694 192.0
1276.490356 84.0
1278.247314 48.0
1278.809448 112.0
1279.948486 160.0
1288.743042 48.0
1294.823364 56.0
1297.567749 48.0
1300.910767 144.0
1306.487183 176.0
1308.257568 180.0
1309.949707 228.0
1311.369263 100.0
1312.205444 184.0
1312.464966 184.0
1315.877686 148.0
1316.816406 56.0
1318.160034 164.0
1320.191284 52.0
1321.059204 176.0
1322.832153 156.0
1327.149902 184.0
1327.483521 200.0
1335.253906 132.0
1342.055176 132.0
1342.689575 288.0
1343.812866 68.0
1344.454956 184.0
1347.814087 136.0
1351.016235 176.0
1353.058105 156.0
1355.218628 180.0
1355.328491 152.0
1355.606934 152.0
1356.207886 128.0
1361.174561 180.0
1363.025513 120.0
1364.619507 140.0
1366.348755 232.0
1366.709351 168.0
1367.26123 184.0
1367.776367 184.0
1367.864746 144.0
1368.916504 140.0
1370.044434 240.0
1372.992676 96.0
1373.922119 160.0
1376.35022 80.0
1381.64209 180.0
1383.351562 172.0
1383.743896 168.0
1387.537109 116.0
1392.404663 92.0
1393.741821 184.0
1393.853271 128.0
1404.275391 148.0
1407.551514 184.0
1409.172241 200.0
1415.365234 172.0
1415.986816 52.0
1417.567383 192.0
1419.741333 192.0
1420.131348 196.0
1422.194702 108.0
1425.897339 188.0
1427.934814 76.0
1428.9729 184.0
1429.025513 112.0
1430.274658 108.0
1430.764038 176.0
1431.96875 184.0
1433.596069 40.0
1435.518311 144.0
1435.827515 68.0
1443.000854 60.0
1443.227661 148.0
1447.449829 36.0
1448.123779 100.0
1449.2146 148.0
1452.224121 68.0
1452.307495 56.0
1456.512573 160.0
1457.158203 216.0
1458.33606 196.0
1460.183594 172.0
1460.944214 180.0
1461.514771 184.0
1462.41272 48.0
1463.370728 152.0
1465.45874 140.0
1466.86853 168.0
1467.630981 176.0
1471.056396 164.0
1473.026489 184.0
1473.53833 124.0
1474.096069 188.0
1475.854126 236.0
1481.517578 180.0
1482.184082 152.0
1482.789551 168.0
1483.77832 48.0
1486.723755 236.0
1488.189819 60.0
1492.069702 140.0
1496.578125 184.0
1497.309692 120.0
1497.609985 184.0
1500.268433 172.0
1502.126831 156.0
