>compound MLS001049119-01!
>formula C25H24O5
>ionization [M+H]+
>parentmass 405.171112
#inchi InChI=1S/C25H24O5/c1-24(2)11-9-16-21(29-24)17-10-12-25(3,4)30-23(17)19-20(27)18(13-28-22(16)19)14-5-7-15(26)8-6-14/h5-9,11,13,26H,10,12H2,1-4H3
#inchikey FMCWKGDGAHVFMC
#Ion_Source LC-ESI
#Instrument qTof
#Compound_Source NIH Natural Product Library
#PI Dorrestein
#Data_Collector VVP/LMS
#Scan -1
#Precursor_MZ 405.17
#ExactMass 404.162
#Charge 1
#CAS_Number N/A
#Pubmed_ID N/A
#Smiles CC1(C)CCc2c3OC(C)(C)C=Cc3c4occ(c5ccc(O)cc5)c(=O)c4c2O1
#INCHI_AUX N/A
#Library_Class 1
#SpectrumID CCMSLIB00000079979
#IonMode Positive
#UpdateWorkflowName UPDATE-SINGLE-ANNOTATED-GOLD
#LibraryQualityString Gold
#TaskID b1d8e8f6646f4e71acdff9ca3d919d08
##Scan# 2560
#SpectrumFile p2-E02_GE2_01_18026.mzXML
#LibraryName NIH_Natural_Products_Library.mgf
#MQScore -1
#Organism NIH_Natural_Products_Library
#TIC_Query 0
#RT_Query -1
#MZErrorPPM -1
#SharedPeaks 0
#MassDiff 0
#LibMZ -1
#SpecMZ 405.17
#SpecCharge 0
#internalFilename spec-00000.mgf

>collision 10
94.954903 244.0
94.977417 92.0
94.992783 260.0
95.005867 216.0
95.035614 140.0
95.063545 152.0
95.077942 216.0
95.114021 112.0
95.164925 148.0
95.225281 136.0
95.25499 200.0
95.286514 164.0
95.307442 132.0
95.326874 104.0
95.340477 88.0
95.368286 168.0
95.387123 148.0
95.431839 140.0
95.454475 168.0
95.475334 196.0
95.525543 144.0
95.551025 156.0
95.566734 160.0
95.593285 120.0
95.618584 60.0
95.639992 116.0
95.658401 176.0
95.696449 228.0
95.712494 128.0
95.755447 108.0
95.787979 128.0
95.819153 144.0
95.854225 148.0
95.867867 92.0
95.881508 124.0
95.922318 192.0
95.928894 180.0
95.94487 236.0
95.966698 176.0
95.990677 148.0
96.014534 188.0
96.031631 44.0
96.077469 132.0
96.096001 160.0
96.13308 144.0
96.157898 184.0
96.17601 84.0
96.218987 164.0
96.234146 216.0
96.256897 280.0
96.378136 100.0
96.398354 104.0
96.420639 144.0
96.451706 140.0
96.516724 168.0
96.555054 140.0
96.568581 96.0
96.573631 88.0
96.579247 140.0
96.62027 128.0
96.65873 136.0
96.692276 228.0
96.715279 340.0
96.752678 176.0
96.765732 132.0
96.82093 168.0
96.842758 132.0
96.874092 120.0
96.893684 220.0
96.923119 144.0
96.943794 112.0
96.993752 172.0
97.023033 100.0
97.044601 208.0
97.081581 200.0
97.1418 164.0
97.144974 200.0
97.168159 136.0
97.198441 296.0
97.228989 88.0
97.274963 148.0
97.30751 160.0
97.324417 196.0
97.347687 224.0
97.354103 104.0
97.363129 196.0
97.402809 180.0
97.42141 296.0
97.439339 64.0
97.484283 144.0
97.501976 160.0
97.517937 164.0
97.543396 268.0
97.563202 216.0
97.583549 128.0
97.610092 180.0
97.633949 124.0
97.66713 108.0
97.70507 308.0
97.72934 64.0
97.743851 104.0
97.7714 160.0
97.8088 132.0
97.828484 148.0
97.846199 144.0
97.878471 268.0
97.906586 136.0
97.928856 156.0
97.95845 88.0
98.006042 616.0
98.031647 124.0
98.04953 176.0
98.093697 240.0
98.115356 200.0
98.137474 196.0
98.157509 128.0
98.177231 124.0
98.208786 168.0
98.246269 140.0
98.260078 92.0
98.291649 80.0
98.329781 136.0
98.388069 160.0
98.395752 172.0
98.425873 80.0
98.46817 148.0
98.5187 180.0
98.547531 148.0
98.597977 196.0
98.674828 128.0
98.700531 128.0
98.714371 76.0
98.744034 136.0
98.781288 120.0
98.795601 164.0
98.819206 144.0
98.841576 156.0
98.85878 112.0
98.911324 112.0
98.948746 140.0
98.961708 164.0
98.979073 196.0
98.992287 208.0
99.009232 52.0
99.025963 192.0
99.049019 208.0
99.101784 244.0
99.121239 172.0
99.175659 116.0
99.189537 116.0
99.219269 204.0
99.23436 76.0
99.256607 144.0
99.280693 192.0
99.300568 244.0
99.324211 140.0
99.385139 108.0
99.439034 228.0
99.445625 256.0
99.496048 172.0
99.533264 124.0
99.570488 156.0
99.604248 428.0
99.622993 156.0
99.655632 116.0
99.673782 220.0
99.695641 96.0
99.715172 228.0
99.74469 136.0
99.761238 100.0
99.79982 88.0
99.805939 124.0
99.814919 112.0
99.876572 200.0
99.907326 164.0
100.004196 56.0
100.043114 184.0
100.073586 56.0
100.09549 112.0
100.111115 160.0
100.115341 136.0
100.123558 156.0
100.147263 120.0
100.169174 180.0
100.187103 168.0
100.200981 112.0
100.230934 228.0
100.261978 132.0
100.315842 140.0
100.330589 176.0
100.369804 168.0
100.43602 124.0
100.439026 320.0
100.478973 160.0
100.512863 132.0
100.530052 156.0
100.567162 304.0
100.588615 312.0
100.637688 180.0
100.678085 180.0
100.693756 188.0
100.734756 144.0
100.759048 64.0
100.79364 164.0
100.821716 80.0
100.867584 144.0
100.903831 92.0
100.931557 116.0
100.947556 156.0
100.975555 88.0
101.000854 320.0
101.037567 128.0
101.055847 144.0
101.096535 68.0
101.143791 192.0
101.16378 116.0
101.199677 204.0
101.21904 188.0
101.259117 176.0
101.307823 136.0
101.352844 128.0
101.379959 116.0
101.399994 132.0
101.418037 108.0
101.462135 92.0
101.49221 136.0
101.506248 96.0
101.540337 212.0
101.596504 120.0
101.61055 104.0
101.640053 176.0
101.652824 272.0
101.700851 176.0
101.726997 152.0
101.76355 292.0
101.821526 176.0
101.878624 164.0
101.897118 92.0
101.901016 236.0
101.921471 436.0
101.941299 364.0
101.991989 152.0
102.024254 72.0
102.045883 320.0
102.066917 184.0
102.086586 48.0
102.13047 224.0
102.192741 124.0
102.223381 124.0
102.269669 100.0
102.313614 120.0
102.35936 128.0
102.394493 192.0
102.414635 100.0
102.436798 132.0
102.464996 224.0
102.495224 156.0
102.527466 128.0
102.552612 156.0
102.569786 132.0
102.589142 160.0
102.62825 104.0
102.666565 164.0
102.764664 76.0
102.834015 164.0
102.848816 144.0
102.872368 180.0
102.890541 140.0
102.931862 168.0
102.963356 128.0
102.99604 196.0
103.054428 3104.0
103.096565 40.0
103.122841 116.0
103.139008 60.0
103.159225 124.0
103.181458 36.0
103.198914 152.0
103.234032 56.0
103.250206 252.0
103.293129 244.0
103.333855 160.0
103.352638 240.0
103.378868 140.0
103.408012 224.0
103.42421 148.0
103.438934 116.0
103.466858 176.0
103.50721 204.0
103.52668 176.0
103.534286 108.0
103.578094 88.0
103.602402 48.0
103.636848 136.0
103.658852 228.0
103.685478 132.0
103.715782 156.0
103.739815 124.0
103.797379 144.0
103.818108 152.0
103.832443 140.0
103.864464 344.0
103.881073 148.0
103.909142 216.0
103.936935 180.0
103.972176 132.0
104.004692 96.0
104.016411 180.0
104.057198 168.0
104.086029 80.0
104.118813 236.0
104.158226 152.0
104.221207 264.0
104.244095 196.0
104.263878 108.0
104.280136 84.0
104.308594 128.0
104.328926 104.0
104.382927 164.0
104.403976 144.0
104.423615 240.0
104.45269 128.0
104.469246 76.0
104.493652 72.0
104.541908 112.0
104.562843 116.0
104.593369 40.0
104.611946 128.0
104.642227 120.0
104.666664 128.0
104.68943 216.0
104.715881 164.0
104.742577 160.0
104.766457 164.0
104.788292 168.0
104.819435 180.0
104.835739 304.0
104.856232 144.0
104.878784 168.0
104.905037 84.0
104.926712 192.0
104.958046 212.0
104.99369 116.0
105.032608 848.0
105.072411 108.0
105.096741 172.0
105.111031 68.0
105.132339 180.0
105.146057 96.0
105.166183 168.0
105.182358 84.0
105.232964 160.0
105.272293 316.0
105.298843 112.0
105.372375 172.0
105.398941 104.0
105.420494 148.0
105.443977 100.0
105.470016 180.0
105.473976 184.0
105.481522 128.0
105.491135 108.0
105.525665 136.0
105.548439 152.0
105.570137 176.0
105.574425 132.0
105.62587 72.0
105.668831 116.0
105.694748 208.0
105.716278 128.0
105.743622 156.0
105.760918 72.0
105.779343 60.0
105.824173 160.0
105.839821 184.0
105.874313 228.0
105.903442 200.0
105.926773 236.0
105.980431 168.0
106.025124 208.0
106.047012 300.0
106.082512 32.0
106.103012 100.0
106.17514 136.0
106.206322 200.0
106.269035 152.0
106.295815 116.0
106.335167 188.0
106.368279 104.0
106.393799 172.0
106.42308 160.0
106.437447 60.0
106.457985 184.0
106.472359 56.0
106.48674 272.0
106.509247 96.0
106.532486 176.0
106.570961 92.0
106.585701 160.0
106.617737 152.0
106.64473 156.0
106.651581 140.0
106.685547 172.0
106.704552 184.0
106.745689 416.0
106.78064 100.0
106.803764 164.0
106.819069 164.0
106.826698 92.0
106.850578 104.0
106.894363 192.0
106.900574 120.0
106.909332 108.0
106.915184 180.0
106.940712 196.0
106.965622 168.0
106.992172 160.0
107.010094 276.0
107.049103 3940.0
107.086479 396.0
107.111755 212.0
107.167107 204.0
107.188248 160.0
107.210732 124.0
107.274811 136.0
107.332329 160.0
107.364662 152.0
107.398529 116.0
107.420235 292.0
107.469971 172.0
107.491371 216.0
107.506355 76.0
107.520264 140.0
107.565132 160.0
107.587936 264.0
107.615219 80.0
107.629669 180.0
107.660568 120.0
107.704018 132.0
107.732933 68.0
107.768059 148.0
107.792854 200.0
107.823853 140.0
107.844521 128.0
107.864059 192.0
107.89283 168.0
107.913139 144.0
107.945328 184.0
108.00354 224.0
108.051598 308.0
108.090622 136.0
108.12307 180.0
108.150635 132.0
108.179619 116.0
108.195099 200.0
108.214813 176.0
108.243675 204.0
108.266579 116.0
108.293503 132.0
108.32338 188.0
108.3657 164.0
108.394958 152.0
108.423172 136.0
108.448898 208.0
108.503181 188.0
108.525009 56.0
108.556404 196.0
108.585739 172.0
108.605598 208.0
108.620613 176.0
108.63427 80.0
108.638077 224.0
108.679977 208.0
108.701752 284.0
108.734718 148.0
108.777245 228.0
108.801865 172.0
108.830978 132.0
108.859795 140.0
108.907707 188.0
108.941895 136.0
108.984184 136.0
109.033669 276.0
109.05658 108.0
109.107597 312.0
109.130173 224.0
109.152672 76.0
109.17347 152.0
109.194199 264.0
109.2155 172.0
109.258598 180.0
109.264275 164.0
109.308685 280.0
109.32325 164.0
109.358627 156.0
109.400261 260.0
109.429405 72.0
109.464645 160.0
109.506454 264.0
109.527283 192.0
109.657784 272.0
109.688202 176.0
109.708572 148.0
109.731796 176.0
109.765587 220.0
109.798233 164.0
109.812836 100.0
109.830902 212.0
109.857224 144.0
109.883011 192.0
109.898361 156.0
109.919098 128.0
109.956291 116.0
109.969963 228.0
110.036118 192.0
110.059975 156.0
110.100113 240.0
110.146797 76.0
110.176041 152.0
110.193611 136.0
110.213791 180.0
110.237679 168.0
110.256104 144.0
110.291153 140.0
110.322327 128.0
110.33905 104.0
110.376945 164.0
110.399689 156.0
110.431793 196.0
110.470184 108.0
110.486893 168.0
110.526901 108.0
110.573051 328.0
110.600037 200.0
110.619179 124.0
110.642471 132.0
110.658295 92.0
110.663818 176.0
110.686378 308.0
110.718941 204.0
110.737198 132.0
110.772797 344.0
110.7911 84.0
110.835098 136.0
110.865082 116.0
110.909782 132.0
110.945831 96.0
110.973434 104.0
110.988106 84.0
111.011177 152.0
111.027954 224.0
111.055214 80.0
111.076042 112.0
111.103462 156.0
111.122345 76.0
111.179115 144.0
111.218086 96.0
111.25666 148.0
111.271187 208.0
111.278252 156.0
111.300751 128.0
111.319023 188.0
111.368477 160.0
111.392555 236.0
111.428757 216.0
111.43531 128.0
111.443581 112.0
111.470894 120.0
111.491913 172.0
111.527641 104.0
111.543625 152.0
111.558662 176.0
111.573891 340.0
111.595993 132.0
111.62014 172.0
111.646469 104.0
111.704269 348.0
111.76107 156.0
111.788605 140.0
111.822708 152.0
111.840401 112.0
111.870201 140.0
111.900352 168.0
111.923645 132.0
111.944733 112.0
111.961052 188.0
111.97728 164.0
112.023666 192.0
112.051628 148.0
112.066376 36.0
112.143524 236.0
112.163872 188.0
112.194817 140.0
112.201897 132.0
112.230774 128.0
112.265434 264.0
112.272842 76.0
112.303238 244.0
112.329903 364.0
112.380531 228.0
112.401634 112.0
112.416405 152.0
112.439613 156.0
112.462791 188.0
112.486053 200.0
112.524048 312.0
112.553612 204.0
112.60218 168.0
112.61908 172.0
112.635979 124.0
112.656021 212.0
112.67189 68.0
112.712563 148.0
112.747955 124.0
112.778969 160.0
112.81369 180.0
112.840096 156.0
112.86219 208.0
112.886536 188.0
112.910744 164.0
112.925545 148.0
112.953346 84.0
113.01078 152.0
113.048309 244.0
113.066185 160.0
113.130676 136.0
113.159302 164.0
113.223961 160.0
113.29174 112.0
113.32608 96.0
113.346962 132.0
113.362976 168.0
113.391815 312.0
113.409698 120.0
113.43988 168.0
113.471283 228.0
113.492523 272.0
113.535133 140.0
113.567604 288.0
113.603035 128.0
113.643677 132.0
113.660652 120.0
113.677628 108.0
113.712547 176.0
113.729294 140.0
113.751747 148.0
113.778351 168.0
113.813148 204.0
113.832596 108.0
113.87719 148.0
113.907341 204.0
113.932419 132.0
113.960701 232.0
113.97583 176.0
114.002533 88.0
114.020653 84.0
114.036537 176.0
114.059921 184.0
114.079048 220.0
114.13858 156.0
114.155594 148.0
114.191582 156.0
114.204994 176.0
114.232162 120.0
114.266197 172.0
114.289604 128.0
114.304497 184.0
114.323647 336.0
114.381111 60.0
114.407524 168.0
114.469582 108.0
114.487572 92.0
114.504608 136.0
114.526367 148.0
114.605553 176.0
114.641243 208.0
114.658005 208.0
114.675049 140.0
114.692101 140.0
114.719101 180.0
114.751793 312.0
114.77951 108.0
114.828087 116.0
114.927116 220.0
114.942322 160.0
114.965401 224.0
114.980606 120.0
115.011002 220.0
115.015686 256.0
115.022964 288.0
115.053558 1252.0
115.102478 124.0
115.125206 104.0
115.142769 196.0
115.160362 160.0
115.191414 140.0
115.221321 112.0
115.279015 112.0
115.355347 148.0
115.366112 156.0
115.383606 60.0
115.391235 120.0
115.412827 200.0
115.446907 128.0
115.490669 132.0
115.514915 188.0
115.540703 72.0
115.591629 196.0
115.611137 144.0
115.651192 280.0
115.671158 160.0
115.700378 268.0
115.726067 92.0
115.766754 92.0
115.78656 340.0
115.822441 44.0
115.85511 160.0
115.879944 232.0
115.910278 136.0
115.959564 188.0
115.990974 136.0
116.006042 144.0
116.023872 72.0
116.040565 204.0
116.062088 604.0
116.118217 84.0
116.148041 164.0
116.177628 196.0
116.212608 76.0
116.227631 52.0
116.255898 168.0
116.274017 200.0
116.32206 152.0
116.36499 132.0
116.387749 160.0
116.400925 260.0
116.424599 124.0
116.454155 100.0
116.49482 204.0
116.526077 192.0
116.549362 200.0
116.587257 152.0
116.635674 84.0
116.659317 128.0
116.682968 132.0
116.710175 208.0
116.725121 112.0
116.766525 300.0
116.788338 156.0
116.809845 144.0
116.878944 204.0
116.919579 168.0
116.95401 116.0
116.97123 184.0
117.009979 136.0
117.032005 348.0
117.069534 5012.0
117.094704 140.0
117.128426 160.0
117.143913 152.0
117.159584 88.0
117.188744 180.0
117.207024 188.0
117.225372 96.0
117.249077 160.0
117.288597 112.0
117.310509 148.0
117.341766 104.0
117.370972 88.0
117.404663 328.0
117.425865 148.0
117.440788 144.0
117.463203 168.0
117.478943 132.0
117.504387 60.0
117.552086 148.0
117.583366 104.0
117.622215 128.0
117.695023 232.0
117.722435 296.0
117.751762 116.0
117.797119 220.0
117.81324 156.0
117.828964 184.0
117.861557 92.0
117.906174 212.0
117.931091 260.0
117.978645 220.0
118.005714 184.0
118.04213 608.0
118.074852 760.0
118.106232 96.0
118.13356 208.0
118.158142 140.0
118.179222 140.0
118.232597 108.0
118.240791 144.0
118.268509 100.0
118.298599 164.0
118.317932 212.0
118.343582 124.0
118.360298 140.0
118.401665 144.0
118.420845 224.0
118.450394 204.0
118.465561 152.0
118.491554 160.0
118.527611 132.0
118.552223 212.0
118.569305 168.0
118.619415 132.0
118.660545 144.0
118.686623 132.0
118.734329 96.0
118.763451 188.0
118.786812 204.0
118.823265 116.0
118.850243 188.0
118.868828 400.0
118.899208 180.0
118.941643 320.0
118.973007 124.0
118.998962 84.0
119.023766 212.0
119.048424 1624.0
119.085808 616.0
119.135887 196.0
119.189606 132.0
119.220627 136.0
119.238472 56.0
119.260216 180.0
119.297363 144.0
119.335831 140.0
119.351051 96.0
119.385841 180.0
119.418533 192.0
119.454002 200.0
119.477196 56.0
119.503868 108.0
119.535942 204.0
119.564232 60.0
119.597763 168.0
119.638138 160.0
119.710594 120.0
119.729691 220.0
119.747551 100.0
119.779785 152.0
119.797211 256.0
119.823349 116.0
119.841766 160.0
119.866928 160.0
119.912804 160.0
119.936668 160.0
120.001541 280.0
120.025345 136.0
120.054871 160.0
120.114052 172.0
120.137283 160.0
120.156921 136.0
120.174377 180.0
120.191826 104.0
120.217896 144.0
120.273582 104.0
120.31842 168.0
120.35981 96.0
120.407944 88.0
120.480026 156.0
120.506241 156.0
120.54586 184.0
120.561768 224.0
120.5886 180.0
120.623276 232.0
120.685471 140.0
120.718109 232.0
120.762566 172.0
120.792633 140.0
120.816643 180.0
120.86174 136.0
120.913338 260.0
120.929581 176.0
120.973862 132.0
120.996605 288.0
121.028511 9272.0
121.06456 704.0
121.093376 244.0
121.121552 152.0
121.137169 152.0
121.169167 200.0
121.200401 156.0
121.21611 216.0
121.318565 140.0
121.34333 188.0
121.360413 124.0
121.396194 104.0
121.4179 244.0
121.45266 268.0
121.48275 148.0
121.504601 176.0
121.522148 48.0
121.542381 128.0
121.568947 244.0
121.627487 76.0
121.651634 184.0
121.677979 80.0
121.713112 344.0
121.754776 152.0
121.790268 148.0
121.822067 132.0
121.845901 148.0
121.874664 152.0
121.884331 84.0
121.898582 164.0
121.925598 252.0
121.954147 256.0
122.007523 136.0
122.030273 788.0
122.061935 160.0
122.08448 28.0
122.106468 168.0
122.126266 120.0
122.147141 256.0
122.174141 120.0
122.188507 200.0
122.225502 172.0
122.243835 172.0
122.273087 120.0
122.288147 128.0
122.309357 132.0
122.331894 112.0
122.354477 196.0
122.389633 136.0
122.415939 212.0
122.436592 108.0
122.463837 256.0
122.487251 88.0
122.576988 364.0
122.596306 176.0
122.618126 140.0
122.693413 144.0
122.708847 216.0
122.753922 116.0
122.791412 180.0
122.808586 148.0
122.844353 124.0
122.859795 100.0
122.881058 292.0
122.91275 104.0
122.93261 112.0
122.966003 192.0
123.00415 272.0
123.032578 168.0
123.056824 276.0
123.096809 104.0
123.153748 144.0
123.209221 144.0
123.242889 160.0
123.272682 32.0
123.316879 88.0
123.347824 176.0
123.386688 160.0
123.420784 116.0
123.487122 112.0
123.536163 220.0
123.552628 124.0
123.588318 128.0
123.6064 196.0
123.666962 212.0
123.713531 220.0
123.745277 188.0
123.788101 124.0
123.812462 144.0
123.83773 176.0
123.901215 172.0
123.919403 180.0
123.978691 180.0
124.007423 124.0
124.028297 192.0
124.070473 208.0
124.105125 56.0
124.117188 172.0
124.126152 144.0
124.189232 104.0
124.231377 144.0
124.246994 108.0
124.269791 164.0
124.299904 140.0
124.32679 104.0
124.346405 84.0
124.395119 208.0
124.439995 28.0
124.475876 124.0
124.496971 164.0
124.503487 108.0
124.531036 128.0
124.562134 116.0
124.576553 112.0
124.624908 268.0
124.659897 116.0
124.675453 112.0
124.721664 208.0
124.729462 132.0
124.736069 164.0
124.754227 172.0
124.771027 148.0
124.791039 100.0
124.830841 164.0
124.835609 88.0
124.87999 88.0
124.900009 280.0
124.920166 128.0
124.95562 136.0
124.981483 96.0
125.000603 148.0
125.046852 120.0
125.0662 272.0
125.133667 104.0
125.166054 172.0
125.201302 140.0
125.227196 112.0
125.249474 224.0
125.268288 264.0
125.300705 100.0
125.329674 104.0
125.347496 224.0
125.365326 96.0
125.380928 160.0
125.409775 196.0
125.454483 240.0
125.49015 96.0
125.571404 128.0
125.58741 176.0
125.611717 180.0
125.628426 128.0
125.650734 60.0
125.689499 212.0
125.710976 288.0
125.735001 188.0
125.759476 164.0
125.777931 276.0
125.795151 200.0
125.82373 116.0
125.844124 172.0
125.876465 148.0
125.916359 164.0
125.943161 224.0
125.972206 312.0
126.002029 204.0
126.04866 196.0
126.058174 100.0
126.107498 160.0
126.127663 168.0
126.135979 96.0
126.140938 196.0
126.175217 128.0
126.190269 104.0
126.210808 268.0
126.294334 188.0
126.353485 324.0
126.393791 176.0
126.4328 96.0
126.452942 120.0
126.477013 308.0
126.494347 192.0
126.517853 156.0
126.544113 132.0
126.593979 176.0
126.609657 120.0
126.632225 156.0
126.664268 240.0
126.694443 164.0
126.721657 192.0
126.737343 124.0
126.764229 140.0
126.784401 116.0
126.809654 164.0
126.822975 188.0
126.87854 112.0
126.91423 100.0
126.937584 84.0
126.963745 88.0
126.983932 96.0
127.002266 320.0
127.052696 384.0
127.087944 132.0
127.102829 216.0
127.156685 172.0
127.172394 136.0
127.201576 148.0
127.254189 92.0
127.285278 120.0
127.299034 152.0
127.319092 188.0
127.364449 180.0
127.39109 132.0
127.404716 96.0
127.431793 196.0
127.45311 88.0
127.493561 116.0
127.515137 188.0
127.534698 136.0
127.565483 100.0
127.601456 80.0
127.621689 132.0
127.648674 224.0
127.687103 136.0
127.705536 224.0
127.729637 336.0
127.745491 84.0
127.797928 180.0
127.839455 140.0
127.852921 140.0
127.869995 136.0
127.93325 64.0
127.97821 180.0
128.009857 220.0
128.031235 124.0
128.061676 1836.0
128.084015 192.0
128.1371 392.0
128.167572 128.0
128.192429 108.0
128.240509 184.0
128.275513 304.0
128.31279 136.0
128.326004 44.0
128.348969 124.0
128.368286 148.0
128.378418 204.0
128.421127 188.0
128.435211 148.0
128.453445 172.0
128.484299 48.0
128.507233 120.0
128.531937 256.0
128.577148 108.0
128.597122 116.0
128.627182 212.0
128.682343 48.0
128.717743 120.0
128.730652 136.0
128.759674 164.0
128.818024 144.0
128.842972 132.0
128.852127 116.0
128.872589 136.0
128.94545 88.0
128.982117 256.0
129.006989 176.0
129.013428 252.0
129.038162 164.0
129.069717 4332.0
129.117645 224.0
129.14389 180.0
129.181549 264.0
129.215408 152.0
129.23851 180.0
129.29187 144.0
129.360733 140.0
129.390121 148.0
129.417618 144.0
129.436691 168.0
129.453949 116.0
129.475418 176.0
129.503769 256.0
129.527115 196.0
129.562668 44.0
129.615494 164.0
129.638138 184.0
129.662888 176.0
129.691833 116.0
129.727036 144.0
129.763123 188.0
129.811523 232.0
129.834488 52.0
129.850739 112.0
129.868683 168.0
129.922379 268.0
129.951996 292.0
129.991196 140.0
130.009354 104.0
130.075134 956.0
130.173355 164.0
130.219818 264.0
130.243912 168.0
130.285095 108.0
130.309204 164.0
130.347229 264.0
130.366516 136.0
130.401337 140.0
130.436981 100.0
130.495743 192.0
130.518188 116.0
130.541702 188.0
130.546951 160.0
130.5793 288.0
130.657715 104.0
130.675125 172.0
130.702438 208.0
130.720581 144.0
130.757706 152.0
130.799683 148.0
130.822052 36.0
130.868591 120.0
130.898239 172.0
130.916412 156.0
130.951782 188.0
130.95845 148.0
130.985458 300.0
131.014526 384.0
131.049515 7124.0
131.085358 3764.0
131.135117 212.0
131.151077 128.0
131.167023 128.0
131.194717 164.0
131.218704 60.0
131.255951 292.0
131.274368 104.0
131.315231 104.0
131.365875 164.0
131.402222 184.0
131.434311 136.0
131.462631 164.0
131.488632 124.0
131.547592 212.0
131.555389 128.0
131.565704 208.0
131.637604 124.0
131.655914 132.0
131.68486 172.0
131.737518 176.0
131.781448 120.0
131.824341 56.0
131.843567 164.0
131.852829 68.0
131.862015 196.0
131.915558 120.0
131.919418 160.0
131.942001 320.0
131.9655 132.0
131.982056 136.0
132.004089 76.0
132.052078 632.0
132.086563 484.0
132.11824 132.0
132.16275 40.0
132.184723 180.0
132.235931 184.0
132.243103 112.0
132.253418 152.0
132.261948 232.0
132.289551 60.0
132.297424 76.0
132.305908 124.0
132.3302 152.0
132.39624 120.0
132.427795 200.0
132.446625 112.0
132.471344 152.0
132.543228 124.0
132.563477 224.0
132.574219 128.0
132.602615 304.0
132.667053 168.0
132.692352 124.0
132.713699 200.0
132.746857 144.0
132.762909 40.0
132.802399 156.0
132.819717 212.0
132.853241 296.0
132.86972 128.0
132.876709 100.0
132.916611 160.0
132.976166 168.0
133.001526 116.0
133.028275 2536.0
133.06543 344.0
133.102539 48.0
133.125504 104.0
133.167313 232.0
133.226562 176.0
133.269058 208.0
133.31134 196.0
133.359833 132.0
133.387421 80.0
133.405701 152.0
133.43985 236.0
133.481064 192.0
133.514923 148.0
133.562744 128.0
133.606873 136.0
133.615616 140.0
133.651901 168.0
133.664688 108.0
133.711731 120.0
133.747787 112.0
133.775436 148.0
133.799194 108.0
133.82222 40.0
133.840637 144.0
133.875183 144.0
133.895905 92.0
133.924561 128.0
133.933426 180.0
133.963226 160.0
133.992661 164.0
134.032806 404.0
134.053131 180.0
134.073303 140.0
134.089432 224.0
134.104111 108.0
134.127472 208.0
134.172409 32.0
134.190857 120.0
134.235962 204.0
134.255432 128.0
134.297623 160.0
134.329224 128.0
134.414429 392.0
134.432159 276.0
134.472 168.0
134.518448 140.0
134.53923 140.0
134.557693 60.0
134.583633 204.0
134.610809 124.0
134.648315 100.0
134.666229 144.0
134.702316 224.0
134.728592 348.0
134.753281 336.0
134.768494 164.0
134.810471 148.0
134.827499 184.0
134.846252 248.0
134.887466 112.0
134.898682 132.0
134.904831 124.0
134.911728 164.0
134.929657 256.0
134.944077 208.0
134.96434 208.0
134.980835 120.0
135.004852 216.0
135.043945 14808.0
135.081635 1220.0
135.130203 124.0
135.154297 160.0
135.171997 160.0
135.187241 156.0
135.228058 116.0
135.255219 312.0
135.283615 64.0
135.318192 120.0
135.338364 136.0
135.364655 76.0
135.399384 164.0
135.439682 224.0
135.482773 144.0
135.512894 176.0
135.536057 100.0
135.563873 128.0
135.580658 124.0
135.601608 184.0
135.623199 272.0
135.669647 156.0
135.704163 192.0
135.735062 80.0
135.824127 140.0
135.846359 200.0
135.853409 168.0
135.86174 180.0
135.869156 72.0
135.878143 156.0
135.90712 156.0
135.924423 140.0
135.980591 108.0
136.016129 176.0
136.048965 1660.0
136.084427 200.0
136.121384 116.0
136.146149 108.0
136.171631 156.0
136.193878 160.0
136.246017 180.0
136.265839 136.0
136.293793 100.0
136.317322 128.0
136.336639 132.0
136.361618 116.0
136.3992 92.0
136.466507 152.0
136.47049 124.0
136.562164 116.0
136.604034 176.0
136.637619 220.0
136.655212 164.0
136.676605 144.0
136.697098 40.0
136.740768 156.0
136.760117 204.0
136.769791 136.0
136.827438 32.0
136.86702 176.0
136.891464 152.0
136.938309 72.0
136.972656 312.0
137.009415 224.0
137.040955 188.0
137.061691 104.0
137.116501 84.0
137.158234 44.0
137.206818 176.0
137.226273 108.0
137.256287 208.0
137.308228 216.0
137.34758 192.0
137.376205 208.0
137.409348 88.0
137.442947 144.0
137.469879 128.0
137.511322 264.0
137.596786 172.0
137.664505 132.0
137.687866 132.0
137.713547 28.0
137.736908 152.0
137.76561 208.0
137.805878 176.0
137.827713 148.0
137.867752 140.0
137.885773 56.0
137.931015 156.0
137.977951 80.0
138.015015 148.0
138.039032 204.0
138.151901 144.0
138.209808 244.0
138.260635 88.0
138.277023 92.0
138.294067 188.0
138.312119 300.0
138.351089 180.0
138.38002 200.0
138.41748 92.0
138.465546 148.0
138.482864 152.0
138.515839 148.0
138.560013 284.0
138.582092 100.0
138.610229 168.0
138.643677 192.0
138.666443 116.0
138.701965 160.0
138.767822 92.0
138.794739 508.0
138.837372 148.0
138.898132 132.0
138.963425 304.0
139.028595 172.0
139.072418 172.0
139.119431 172.0
139.144333 188.0
139.177444 152.0
139.237762 116.0
139.266434 208.0
139.285233 124.0
139.306366 112.0
139.339264 48.0
139.360489 112.0
139.383896 140.0
139.414444 152.0
139.450821 184.0
139.489838 220.0
139.537781 180.0
139.554001 192.0
139.588409 104.0
139.607224 164.0
139.635223 132.0
139.667542 204.0
139.721649 200.0
139.750702 156.0
139.793686 120.0
139.889557 192.0
139.90596 124.0
139.915298 120.0
139.923325 116.0
139.96019 136.0
139.986465 196.0
140.02774 140.0
140.071762 116.0
140.092789 120.0
140.133652 148.0
140.176575 116.0
140.200012 188.0
140.234543 236.0
140.304169 164.0
140.322403 304.0
140.348038 112.0
140.371017 240.0
140.431442 140.0
140.436371 192.0
140.464523 144.0
140.481049 124.0
140.559052 192.0
140.60144 144.0
140.653442 68.0
140.699005 148.0
140.726624 136.0
140.776077 120.0
140.820938 72.0
140.837479 168.0
140.866516 232.0
140.911835 184.0
140.939056 120.0
140.990128 92.0
141.031601 324.0
141.069519 620.0
141.103363 116.0
141.142105 188.0
141.16835 164.0
141.199097 140.0
141.218613 116.0
141.234573 204.0
141.257782 344.0
141.277145 108.0
141.299026 160.0
141.333939 332.0
141.371994 92.0
141.421494 56.0
141.450302 92.0
141.495026 184.0
141.521194 172.0
141.568695 372.0
141.627487 68.0
141.651947 184.0
141.677826 80.0
141.700928 212.0
141.738831 180.0
141.762085 232.0
141.796585 196.0
141.827942 128.0
141.849213 104.0
141.856583 164.0
141.877335 100.0
141.906723 112.0
141.930115 180.0
141.95282 116.0
141.992493 188.0
142.036514 200.0
142.076569 168.0
142.111099 160.0
142.127701 192.0
142.166443 196.0
142.25824 120.0
142.287964 168.0
142.312241 152.0
142.374573 132.0
142.421661 260.0
142.463318 312.0
142.492493 100.0
142.514725 84.0
142.550369 124.0
142.567001 140.0
142.583145 200.0
142.612122 248.0
142.615875 156.0
142.687012 144.0
142.712006 180.0
142.733398 96.0
142.753143 224.0
142.784775 128.0
142.840149 104.0
142.876114 184.0
142.92131 152.0
142.937973 96.0
142.961761 96.0
142.980804 48.0
143.007538 184.0
143.04863 300.0
143.084396 1004.0
143.133163 224.0
143.212204 180.0
143.242645 144.0
143.287552 136.0
143.314194 124.0
143.345169 304.0
143.361694 124.0
143.487915 112.0
143.528702 152.0
143.558975 216.0
143.609787 64.0
143.628204 228.0
143.6698 300.0
143.689087 184.0
143.738617 104.0
143.762482 156.0
143.78157 148.0
143.824799 256.0
143.85318 108.0
143.883804 120.0
143.887527 196.0
143.941345 116.0
143.974213 144.0
144.027496 196.0
144.054825 752.0
144.08696 524.0
144.163071 156.0
144.199524 184.0
144.223419 72.0
144.250671 240.0
144.288849 76.0
144.335388 72.0
144.397964 128.0
144.480179 108.0
144.510391 176.0
144.536713 68.0
144.561264 136.0
144.581573 112.0
144.605331 160.0
144.627274 200.0
144.656372 116.0
144.688934 176.0
144.744949 112.0
144.792847 72.0
144.825241 132.0
144.856384 188.0
144.888382 172.0
144.910004 172.0
144.973175 176.0
145.028824 204.0
145.064316 2556.0
145.118057 264.0
145.160324 140.0
145.175598 164.0
145.219818 164.0
145.238327 204.0
145.244431 120.0
145.270615 164.0
145.299225 168.0
145.338791 200.0
145.383713 164.0
145.403015 172.0
145.431274 212.0
145.452209 76.0
145.477692 252.0
145.536087 128.0
145.55127 204.0
145.615479 132.0
145.638321 148.0
145.657791 52.0
145.66716 108.0
145.692337 112.0
145.717392 168.0
145.76915 136.0
145.797272 140.0
145.817291 112.0
145.835297 248.0
145.865356 148.0
145.886993 84.0
145.90863 116.0
145.935303 176.0
145.963043 268.0
146.03244 416.0
146.069839 536.0
146.117874 112.0
146.139526 128.0
146.165985 116.0
146.28447 156.0
146.312897 196.0
146.3396 92.0
146.407333 108.0
146.445831 184.0
146.505463 116.0
146.552795 212.0
146.580917 176.0
146.607788 216.0
146.660065 180.0
146.712341 284.0
146.738266 344.0
146.785706 220.0
146.85257 216.0
146.877396 280.0
146.969467 264.0
147.010361 192.0
147.044403 724.0
147.079941 268.0
147.137482 176.0
147.171967 232.0
147.19696 84.0
147.239822 160.0
147.267715 344.0
147.294281 152.0
147.323914 164.0
147.354675 140.0
147.390991 136.0
147.420715 232.0
147.463425 112.0
147.506531 172.0
147.554581 236.0
147.585388 144.0
147.615463 72.0
147.659256 276.0
147.714935 192.0
147.726822 116.0
147.737061 144.0
147.779709 192.0
147.799561 140.0
147.826462 268.0
147.854507 108.0
147.871643 132.0
147.903885 344.0
147.921936 372.0
147.959305 144.0
147.995621 132.0
148.035263 136.0
148.051315 136.0
148.087646 120.0
148.121658 184.0
148.192886 152.0
148.256256 136.0
148.296005 132.0
148.312973 176.0
148.372025 224.0
148.40155 156.0
148.408218 84.0
148.416092 180.0
148.447281 232.0
148.469772 232.0
148.485123 156.0
148.506943 112.0
148.526352 164.0
148.564972 196.0
148.570663 180.0
148.59671 104.0
148.681625 84.0
148.704285 204.0
148.754639 52.0
148.782288 256.0
148.818787 152.0
148.83699 40.0
148.899338 184.0
148.906235 124.0
148.913483 248.0
148.934799 44.0
148.975433 36.0
149.024597 196.0
149.057526 232.0
149.078568 188.0
149.106644 140.0
149.140671 328.0
149.16011 140.0
149.184219 100.0
149.221024 120.0
149.262589 168.0
149.292572 148.0
149.335175 176.0
149.359497 144.0
149.382614 244.0
149.433792 152.0
149.459244 128.0
149.511383 208.0
149.535843 328.0
149.554153 116.0
149.581177 112.0
149.630951 124.0
149.669006 204.0
149.713745 160.0
149.760696 280.0
149.802948 204.0
149.853928 240.0
149.871109 348.0
149.889038 132.0
149.913696 184.0
149.927917 172.0
149.939072 100.0
149.94545 116.0
149.980408 84.0
150.031723 156.0
150.090683 204.0
150.107773 400.0
150.153519 104.0
150.194977 116.0
150.226685 220.0
150.258408 88.0
150.285248 112.0
150.316971 112.0
150.359665 176.0
150.451202 80.0
150.486282 204.0
150.523178 344.0
150.546432 104.0
150.589615 168.0
150.619705 160.0
150.646576 232.0
150.680359 144.0
150.73941 76.0
150.779694 248.0
150.807846 180.0
150.824951 104.0
150.87944 300.0
150.910507 168.0
150.929367 176.0
150.956345 172.0
151.025452 120.0
151.050293 332.0
151.082993 132.0
151.118591 156.0
151.140427 132.0
151.179291 140.0
151.206497 140.0
151.258636 132.0
151.327087 248.0
151.348801 156.0
151.365997 264.0
151.399902 144.0
151.425186 176.0
151.469223 308.0
151.492981 112.0
151.509949 104.0
151.53392 164.0
151.568832 192.0
151.595886 64.0
151.627747 116.0
151.676773 148.0
151.717194 188.0
151.736618 148.0
151.76915 276.0
151.803864 152.0
151.853302 172.0
151.90065 132.0
151.921982 200.0
151.946594 140.0
152.003021 132.0
152.027496 232.0
152.059219 448.0
152.084656 220.0
152.094482 148.0
152.147217 180.0
152.171616 212.0
152.19635 240.0
152.235336 120.0
152.26976 204.0
152.349136 136.0
152.384201 256.0
152.403183 124.0
152.426468 160.0
152.45108 128.0
152.467072 284.0
152.512238 172.0
152.561646 116.0
152.579926 180.0
152.610016 184.0
152.647385 128.0
152.678238 112.0
152.71785 104.0
152.737976 88.0
152.752106 52.0
152.761185 136.0
152.789337 268.0
152.838394 136.0
152.884201 276.0
152.933777 148.0
152.949142 96.0
153.004929 176.0
153.072952 344.0
153.126419 128.0
153.16655 244.0
153.201859 140.0
153.235214 268.0
153.264374 44.0
153.284088 172.0
153.301331 84.0
153.321884 224.0
153.340851 120.0
153.358994 172.0
153.377731 132.0
153.459091 148.0
153.499069 184.0
153.53511 168.0
153.581757 152.0
153.61145 180.0
153.64769 76.0
153.686005 324.0
153.703278 92.0
153.727524 116.0
153.76004 112.0
153.815216 56.0
153.834076 112.0
153.851364 128.0
153.871109 136.0
153.888397 100.0
153.905685 172.0
153.939423 120.0
153.970901 132.0
154.024216 108.0
154.07692 168.0
154.132919 84.0
154.158417 140.0
154.20459 88.0
154.236725 128.0
154.26886 104.0
154.300995 36.0
154.350449 164.0
154.39743 200.0
154.419693 160.0
154.461136 148.0
154.471191 112.0
154.568192 132.0
154.587921 160.0
154.614639 160.0
154.679047 88.0
154.743851 136.0
154.768616 168.0
154.807144 300.0
154.8591 176.0
154.89389 160.0
154.911377 320.0
154.926865 276.0
154.966766 112.0
155.01358 188.0
155.060135 424.0
155.088486 164.0
155.120407 204.0
155.161484 172.0
155.215027 348.0
155.272461 136.0
155.291504 120.0
155.325516 148.0
155.351028 176.0
155.383286 92.0
155.426605 320.0
155.445312 160.0
155.496735 172.0
155.529205 60.0
155.561066 188.0
155.586792 176.0
155.631088 100.0
155.678665 124.0
155.71347 272.0
155.738831 192.0
155.772751 128.0
155.810745 224.0
155.829544 176.0
155.862152 184.0
155.884598 164.0
155.898102 380.0
155.919632 144.0
155.962555 164.0
155.99176 104.0
156.027649 172.0
156.05983 480.0
156.08371 176.0
156.110809 432.0
156.139099 168.0
156.170288 188.0
156.213867 84.0
156.254395 236.0
156.282379 168.0
156.357346 52.0
156.393707 292.0
156.426346 192.0
156.461884 232.0
156.486298 144.0
156.526627 100.0
156.602432 220.0
156.64119 112.0
156.666092 156.0
156.7155 164.0
156.745834 108.0
156.782394 284.0
156.807083 304.0
156.846863 132.0
156.882309 152.0
156.892883 172.0
156.919159 228.0
156.956253 200.0
156.990128 124.0
157.028214 1252.0
157.06543 8512.0
157.149765 40.0
157.174713 136.0
157.223846 260.0
157.257858 152.0
157.288681 144.0
157.306595 176.0
157.346924 48.0
157.368378 244.0
157.392593 248.0
157.41185 52.0
157.431488 88.0
157.476776 52.0
157.494263 136.0
157.524857 108.0
157.554214 100.0
157.571701 136.0
157.615631 124.0
157.64917 128.0
157.67923 128.0
157.724136 184.0
157.762802 112.0
157.813217 132.0
157.885208 124.0
157.919174 152.0
157.974197 144.0
157.991409 136.0
158.031708 232.0
158.070953 3044.0
158.100327 140.0
158.131622 184.0
158.139771 164.0
158.148849 116.0
158.244995 176.0
158.278107 168.0
158.300018 344.0
158.332794 208.0
158.36557 152.0
158.398651 164.0
158.405731 156.0
158.434341 232.0
158.486923 412.0
158.51149 320.0
158.534134 132.0
158.540894 108.0
158.592682 228.0
158.626495 280.0
158.675415 108.0
158.701141 292.0
158.740799 100.0
158.77037 220.0
158.793274 56.0
158.811996 136.0
158.840424 100.0
158.883804 160.0
158.931641 124.0
158.937424 164.0
158.96637 180.0
159.045059 53048.0
159.080383 3912.0
159.112366 168.0
159.1427 116.0
159.171677 56.0
159.196167 216.0
159.234634 252.0
159.260788 44.0
159.298843 140.0
159.334259 92.0
159.355957 136.0
159.371841 204.0
159.393448 212.0
159.426727 124.0
159.451889 204.0
159.483063 284.0
159.54155 232.0
159.559753 180.0
159.609818 332.0
159.631332 84.0
159.637894 124.0
159.667267 84.0
159.7043 88.0
159.820404 132.0
159.853561 200.0
159.87355 44.0
159.903946 236.0
159.925003 152.0
159.949783 112.0
159.976395 148.0
159.997375 252.0
160.047485 4128.0
160.084549 420.0
160.15625 352.0
160.197342 148.0
160.228592 192.0
160.257065 80.0
160.312592 128.0
160.343979 96.0
160.369339 100.0
160.37558 156.0
160.387634 140.0
160.39566 108.0
160.429062 276.0
160.508362 124.0
160.554184 132.0
160.573929 180.0
160.601669 104.0
160.643021 92.0
160.662216 276.0
160.689957 172.0
160.707626 208.0
160.755569 68.0
160.775116 64.0
160.842712 212.0
160.87027 256.0
160.892899 436.0
160.911484 140.0
160.919846 164.0
160.959 256.0
160.986343 240.0
161.023285 1732.0
161.058075 460.0
161.09137 168.0
161.112274 216.0
161.134995 204.0
161.156082 364.0
161.178604 104.0
161.227463 188.0
161.271484 112.0
161.30014 252.0
161.337753 204.0
161.391708 124.0
161.412735 156.0
161.434845 156.0
161.452835 148.0
161.472519 196.0
161.481888 88.0
161.489273 152.0
161.527542 124.0
161.549377 164.0
161.580399 124.0
161.599808 172.0
161.619751 204.0
161.642471 164.0
161.697495 100.0
161.76857 184.0
161.807053 120.0
161.827301 148.0
161.862747 168.0
161.889267 68.0
161.930603 248.0
161.949829 168.0
162.005524 172.0
162.026443 496.0
162.070267 220.0
162.128311 72.0
162.135376 232.0
162.18956 152.0
162.216537 156.0
162.249496 232.0
162.281265 204.0
162.313797 136.0
162.358017 128.0
162.384109 172.0
162.408859 180.0
162.463593 188.0
162.489349 148.0
162.515594 152.0
162.539368 412.0
162.577438 116.0
162.600876 72.0
162.628372 172.0
162.653244 152.0
162.684219 76.0
162.701981 108.0
162.752762 48.0
162.77562 112.0
162.816238 112.0
162.867722 224.0
162.915024 148.0
162.944092 128.0
162.998047 120.0
163.037048 1656.0
163.075256 632.0
163.13385 40.0
163.151642 148.0
163.199951 132.0
163.236786 164.0
163.246429 64.0
163.25705 80.0
163.304214 48.0
163.349167 160.0
163.380524 60.0
163.431808 128.0
163.472122 332.0
163.538818 196.0
163.558472 164.0
163.565445 200.0
163.632477 92.0
163.686371 48.0
163.734329 144.0
163.768524 160.0
163.786926 160.0
163.811249 288.0
163.839401 292.0
163.85585 244.0
163.889725 188.0
163.908112 160.0
163.939575 248.0
163.991913 176.0
164.021103 116.0
164.041351 404.0
164.079422 180.0
164.114029 136.0
164.20433 116.0
164.254288 184.0
164.321213 188.0
164.356339 188.0
164.389511 140.0
164.416031 184.0
164.479309 64.0
164.501801 248.0
164.537552 124.0
164.56929 116.0
164.59816 124.0
164.626907 128.0
164.649796 156.0
164.708786 148.0
164.740738 200.0
164.757812 128.0
164.775299 132.0
164.798447 184.0
164.84285 144.0
164.87326 112.0
164.915604 168.0
164.955719 156.0
164.971512 312.0
165.013687 296.0
165.043427 156.0
165.068512 160.0
165.189209 168.0
165.207108 148.0
165.226807 160.0
165.271072 300.0
165.308533 144.0
165.31781 196.0
165.344284 144.0
165.363205 112.0
165.397308 320.0
165.416946 120.0
165.466156 144.0
165.485443 272.0
165.499542 124.0
165.561615 136.0
165.605347 216.0
165.662781 156.0
165.694244 184.0
165.721512 312.0
165.737534 188.0
165.777603 136.0
165.808838 120.0
165.844711 168.0
165.881882 120.0
165.908798 152.0
165.939255 100.0
165.984833 92.0
166.013931 72.0
166.071014 184.0
166.099442 352.0
166.139084 196.0
166.178207 84.0
166.196945 160.0
166.296066 160.0
166.304749 156.0
166.338303 148.0
166.366028 104.0
166.39624 52.0
166.440338 160.0
166.496948 128.0
166.527908 188.0
166.579468 104.0
166.59819 132.0
166.637665 52.0
166.668503 200.0
166.743027 48.0
166.828644 192.0
166.850983 116.0
166.876694 124.0
166.928116 108.0
166.948242 184.0
166.976715 312.0
167.009201 128.0
167.044235 268.0
167.085693 356.0
167.141617 132.0
167.173889 324.0
167.202774 136.0
167.238922 188.0
167.265091 176.0
167.296661 184.0
167.371292 124.0
167.420578 288.0
167.443665 180.0
167.46962 92.0
167.488068 216.0
167.508789 192.0
167.540695 168.0
167.557648 172.0
167.595581 52.0
167.646332 104.0
167.736511 364.0
167.764618 148.0
167.800491 172.0
167.838837 252.0
167.877975 172.0
167.904129 172.0
167.950043 160.0
167.965225 140.0
167.978806 84.0
167.981888 116.0
168.025604 100.0
168.05632 436.0
168.091644 128.0
168.130142 164.0
168.161575 208.0
168.172012 164.0
168.192184 124.0
168.228638 168.0
168.261093 148.0
168.28862 236.0
168.3284 312.0
168.34436 136.0
168.367905 176.0
168.393555 192.0
168.440994 144.0
168.477982 272.0
168.521072 132.0
168.541626 184.0
168.572357 160.0
168.621857 364.0
168.64444 108.0
168.686478 96.0
168.708572 204.0
168.786148 252.0
168.809692 152.0
168.840546 128.0
168.887085 228.0
168.908859 148.0
168.937164 76.0
168.989761 412.0
169.011185 252.0
169.032974 176.0
169.064468 2060.0
169.121033 148.0
169.141739 192.0
169.195831 144.0
169.204468 140.0
169.215744 156.0
169.255646 160.0
169.283508 132.0
169.337784 164.0
169.36441 124.0
169.385132 152.0
169.405869 120.0
169.488098 216.0
169.516296 116.0
169.575562 284.0
169.618347 152.0
169.659744 256.0
169.711685 132.0
169.732422 160.0
169.795441 320.0
169.836151 136.0
169.862228 152.0
169.894165 132.0
169.933899 136.0
169.955078 372.0
169.998734 156.0
170.036591 456.0
170.065781 664.0
170.083481 184.0
170.127472 424.0
170.196503 108.0
170.292969 220.0
170.331924 176.0
170.357254 128.0
170.362457 184.0
170.405273 160.0
170.428055 44.0
170.448837 88.0
170.472229 168.0
170.525726 192.0
170.53479 112.0
170.540939 200.0
170.563339 140.0
170.602188 144.0
170.656525 164.0
170.680176 308.0
170.706192 92.0
170.741867 356.0
170.781693 116.0
170.829147 100.0
170.853409 152.0
170.931839 96.0
170.940445 72.0
170.964539 176.0
171.044556 16476.0
171.079605 1712.0
171.123749 140.0
171.153748 108.0
171.191452 200.0
171.236145 156.0
171.263123 96.0
171.312622 44.0
171.33606 40.0
171.359512 92.0
171.382294 192.0
171.41684 108.0
171.463745 84.0
171.483063 132.0
171.517731 180.0
171.563812 204.0
171.586105 116.0
171.603317 164.0
171.637253 100.0
171.657272 140.0
171.687943 64.0
171.723083 128.0
171.791122 108.0
171.815765 108.0
171.896317 232.0
171.94101 136.0
171.974365 240.0
171.978775 188.0
171.989548 140.0
172.015167 136.0
172.047806 2916.0
172.081894 328.0
172.144089 288.0
172.150314 48.0
172.198273 304.0
172.214462 152.0
172.243881 76.0
172.27417 128.0
172.293518 164.0
172.3134 144.0
172.337387 244.0
172.371887 124.0
172.417221 160.0
172.460754 168.0
172.501007 140.0
172.528717 208.0
172.579895 164.0
172.659454 180.0
172.681442 148.0
172.711716 156.0
172.758453 164.0
172.792862 124.0
172.877335 112.0
172.915848 212.0
172.944626 68.0
172.978745 188.0
173.020401 452.0
173.059601 1284.0
173.114807 208.0
173.149414 112.0
173.171478 100.0
173.209915 140.0
173.226929 228.0
173.246262 128.0
173.266724 88.0
173.30603 60.0
173.344238 184.0
173.366287 116.0
173.408463 148.0
173.438309 384.0
173.456772 156.0
173.493149 132.0
173.541916 112.0
173.563187 140.0
173.614944 132.0
173.63501 112.0
173.657303 208.0
173.687119 144.0
173.724411 136.0
173.808212 152.0
173.829636 180.0
173.870682 108.0
173.915115 336.0
173.966751 116.0
174.003265 276.0
174.023148 344.0
174.059738 216.0
174.091385 164.0
174.180771 220.0
174.263687 96.0
174.287338 104.0
174.322021 328.0
174.342529 120.0
174.36618 84.0
174.389252 240.0
174.412918 92.0
174.481827 172.0
174.537506 212.0
174.548401 100.0
174.553635 144.0
174.580261 184.0
174.597321 152.0
174.604324 116.0
174.641495 140.0
174.660477 124.0
174.700104 96.0
174.746124 212.0
174.775848 324.0
174.829102 152.0
174.93161 144.0
174.970795 224.0
175.004196 280.0
175.037277 740.0
175.0746 892.0
175.114243 108.0
175.17395 120.0
175.209671 136.0
175.242188 160.0
175.289871 144.0
175.324417 148.0
175.404419 208.0
175.428848 344.0
175.451797 156.0
175.490204 172.0
175.574585 256.0
175.603592 116.0
175.637161 236.0
175.675827 156.0
175.700012 108.0
175.719666 84.0
175.756592 208.0
175.796921 184.0
175.855927 88.0
175.883835 132.0
175.909973 140.0
175.927811 124.0
175.967392 116.0
176.016357 196.0
176.039627 380.0
176.084061 160.0
176.095306 108.0
176.169388 148.0
176.200256 104.0
176.279434 120.0
176.323654 136.0
176.360718 344.0
176.398636 156.0
176.433502 248.0
176.439667 200.0
176.484161 168.0
176.519791 172.0
176.546432 140.0
176.591385 172.0
176.614059 140.0
176.636597 84.0
176.677734 120.0
176.707779 180.0
176.740891 68.0
176.784515 208.0
176.826859 164.0
176.850677 140.0
176.879608 208.0
176.91098 156.0
177.017731 2964.0
177.043076 244.0
177.090775 196.0
177.122345 40.0
177.174591 160.0
177.23317 124.0
177.263824 64.0
177.365021 172.0
177.411133 192.0
177.477249 100.0
177.495636 124.0
177.52626 128.0
177.56073 116.0
177.606369 184.0
177.63765 228.0
177.681381 264.0
177.703247 192.0
177.722122 176.0
177.74292 316.0
177.764999 160.0
177.794357 192.0
177.843674 188.0
177.87381 124.0
177.933884 128.0
177.940262 132.0
178.022522 312.0
178.07637 108.0
178.157883 268.0
178.196411 172.0
178.256256 180.0
178.288147 140.0
178.341309 112.0
178.376434 148.0
178.425278 140.0
178.496567 180.0
178.537827 176.0
178.547882 148.0
178.557251 132.0
178.612518 324.0
178.697357 308.0
178.724258 108.0
178.744949 144.0
178.768066 252.0
178.800735 156.0
178.877609 268.0
178.899506 156.0
178.922256 316.0
178.948578 100.0
178.966461 152.0
179.016968 144.0
179.041382 128.0
179.075241 244.0
179.106186 320.0
179.128922 128.0
179.167999 108.0
179.203522 160.0
179.2444 144.0
179.310104 184.0
179.336761 160.0
179.375061 76.0
179.391495 188.0
179.416733 144.0
179.441116 168.0
179.471573 168.0
179.496582 160.0
179.534637 144.0
179.580963 224.0
179.615631 196.0
179.633881 140.0
179.667419 136.0
179.743225 344.0
179.775925 144.0
179.814178 160.0
179.868652 312.0
179.921997 132.0
179.976608 188.0
180.027527 148.0
180.067566 132.0
180.088638 284.0
180.092285 340.0
180.125977 108.0
180.174011 216.0
180.214722 100.0
180.262817 144.0
180.284195 180.0
180.305588 92.0
180.349442 156.0
180.375076 220.0
180.39975 104.0
180.425873 80.0
180.500732 72.0
180.530151 180.0
180.561005 216.0
180.582794 244.0
180.630707 212.0
180.653183 200.0
180.695984 148.0
180.728165 184.0
180.751114 152.0
180.81105 92.0
180.84111 208.0
180.90239 188.0
180.952591 132.0
181.00647 128.0
181.063431 952.0
181.103241 264.0
181.179474 152.0
181.202927 80.0
181.208893 160.0
181.223129 144.0
181.230972 176.0
181.279694 112.0
181.314529 72.0
181.344009 116.0
181.371017 160.0
181.406998 96.0
181.443863 144.0
181.487854 116.0
181.511856 132.0
181.566544 132.0
181.620178 184.0
181.670166 304.0
181.714066 120.0
181.754318 92.0
181.810669 120.0
181.893875 208.0
181.923233 132.0
181.958298 124.0
181.985794 216.0
182.02066 176.0
182.067993 388.0
182.124802 116.0
182.148972 168.0
182.192307 120.0
182.218811 132.0
182.240738 124.0
182.26181 120.0
182.339737 148.0
182.371277 236.0
182.422607 168.0
182.459808 108.0
182.466751 112.0
182.48642 316.0
182.509094 100.0
182.538666 72.0
182.580292 136.0
182.646881 204.0
182.692261 260.0
182.721573 108.0
182.75386 112.0
182.791534 76.0
182.848038 96.0
182.866882 80.0
182.904129 156.0
182.941986 120.0
182.97052 336.0
183.043518 176.0
183.079849 316.0
183.144882 156.0
183.170929 104.0
183.197998 128.0
183.247253 220.0
183.298859 132.0
183.340225 344.0
183.369141 132.0
183.421005 268.0
183.443634 232.0
183.48262 164.0
183.518387 172.0
183.54834 336.0
183.588898 128.0
183.617111 108.0
183.653625 128.0
183.691391 124.0
183.745346 160.0
183.780411 192.0
183.819 80.0
183.861557 204.0
183.942337 96.0
183.990936 176.0
184.009827 232.0
184.026886 188.0
184.04921 440.0
184.073151 328.0
184.101639 116.0
184.135681 132.0
184.153549 204.0
184.189377 148.0
184.201248 196.0
184.233383 124.0
184.254654 196.0
184.275009 180.0
184.308929 216.0
184.336655 108.0
184.374496 280.0
184.402985 140.0
184.420975 236.0
184.525131 148.0
184.577576 176.0
184.631317 268.0
184.704437 160.0
184.744919 148.0
184.783188 356.0
184.833176 136.0
184.84375 176.0
184.91095 204.0
184.967896 200.0
185.007965 160.0
185.060135 24596.0
185.096863 160.0
185.128006 120.0
185.146255 320.0
185.20108 280.0
185.219437 92.0
185.257278 184.0
185.284882 132.0
185.306152 112.0
185.348221 276.0
185.407745 136.0
185.436417 100.0
185.456924 136.0
185.488251 180.0
185.542419 240.0
185.572189 164.0
185.593887 172.0
185.623596 208.0
185.651062 292.0
185.690247 108.0
185.718903 324.0
185.75264 52.0
185.790939 132.0
185.833954 184.0
185.864227 124.0
185.895721 176.0
185.917831 136.0
185.941772 164.0
186.001663 176.0
186.064438 2856.0
186.115707 144.0
186.147171 152.0
186.188446 340.0
186.216782 112.0
186.245041 128.0
186.310196 256.0
186.347168 108.0
186.366196 164.0
186.408707 148.0
186.442276 156.0
186.481735 124.0
186.508896 164.0
186.535095 240.0
186.561508 60.0
186.579102 176.0
186.637482 252.0
186.668777 160.0
186.731552 148.0
186.750916 184.0
186.774933 232.0
186.786133 144.0
186.805237 336.0
186.828384 104.0
186.874466 344.0
186.927979 112.0
186.956268 176.0
186.986023 260.0
187.037643 420.0
187.076279 30232.0
187.13591 68.0
187.160599 120.0
187.197586 328.0
187.235733 184.0
187.24115 56.0
187.272079 28.0
187.302841 164.0
187.330338 100.0
187.354431 68.0
187.405884 68.0
187.446625 164.0
187.48526 64.0
187.524445 40.0
187.550995 108.0
187.585434 152.0
187.610764 268.0
187.653809 176.0
187.673584 108.0
187.723663 188.0
187.768112 44.0
187.808563 72.0
187.864014 100.0
187.899429 328.0
187.928436 176.0
187.987381 196.0
188.046646 668.0
188.078369 4168.0
188.127167 136.0
188.146561 336.0
188.177429 176.0
188.200729 176.0
188.225433 172.0
188.262985 180.0
188.299362 256.0
188.348053 288.0
188.417725 336.0
188.442352 220.0
188.49704 120.0
188.532516 96.0
188.556808 196.0
188.604645 164.0
188.61322 152.0
188.624023 292.0
188.674133 148.0
188.68306 112.0
188.691971 132.0
188.712936 108.0
188.753952 124.0
188.802765 188.0
188.857239 120.0
188.892593 136.0
188.934464 120.0
188.972595 132.0
189.01915 2156.0
189.054459 1964.0
189.088791 380.0
189.139008 164.0
189.163971 120.0
189.186798 196.0
189.216354 96.0
189.260849 128.0
189.302719 176.0
189.343994 252.0
189.42511 192.0
189.44838 176.0
189.469681 40.0
189.497345 160.0
189.539795 224.0
189.604065 140.0
189.629364 180.0
189.668594 44.0
189.716675 76.0
189.782608 148.0
189.795319 224.0
189.832611 92.0
189.853485 84.0
189.89592 96.0
189.920609 192.0
189.948044 132.0
190.025055 664.0
190.059967 516.0
190.131866 104.0
190.173035 128.0
190.205978 72.0
190.237549 160.0
190.289581 172.0
190.329514 160.0
190.355896 164.0
190.414078 156.0
190.447601 268.0
190.466187 120.0
190.50029 132.0
190.54924 152.0
190.571518 148.0
190.615189 144.0
190.670151 188.0
190.707001 128.0
190.748337 252.0
190.793411 180.0
190.824799 168.0
190.845749 132.0
190.879074 168.0
190.912079 216.0
190.942322 60.0
190.964325 184.0
190.993484 200.0
191.035507 268.0
191.084152 280.0
191.156906 180.0
191.203415 108.0
191.262558 88.0
191.291763 128.0
191.317657 236.0
191.347641 204.0
191.361969 132.0
191.387619 152.0
191.443436 276.0
191.460342 140.0
191.468979 144.0
191.494858 228.0
191.517548 124.0
191.558868 112.0
191.615952 224.0
191.67395 120.0
191.697403 156.0
191.762772 132.0
191.796432 208.0
191.829346 168.0
191.91391 116.0
191.950241 112.0
191.993805 148.0
192.042862 252.0
192.078186 344.0
192.099716 140.0
192.13678 152.0
192.152603 152.0
192.179688 260.0
192.209274 88.0
192.242645 64.0
192.291382 112.0
192.322678 156.0
192.390411 208.0
192.420547 140.0
192.45874 128.0
192.499359 244.0
192.553146 164.0
192.61113 120.0
192.629181 152.0
192.681656 116.0
192.72023 188.0
192.781128 144.0
192.803238 140.0
192.838974 148.0
192.891693 132.0
192.927628 136.0
192.95639 196.0
193.007797 104.0
193.073654 192.0
193.083832 276.0
193.098251 204.0
193.103668 340.0
193.143311 112.0
193.172638 404.0
193.191727 232.0
193.215607 192.0
193.306076 120.0
193.367432 132.0
193.392334 92.0
193.469193 240.0
193.488617 184.0
193.610947 144.0
193.633209 248.0
193.727386 152.0
193.748703 144.0
193.775742 264.0
193.827133 88.0
193.854843 124.0
193.879776 164.0
193.898254 108.0
193.934723 184.0
194.005753 108.0
194.02301 224.0
194.071457 380.0
194.104202 200.0
194.136276 176.0
194.162842 156.0
194.20314 136.0
194.250488 284.0
194.276932 168.0
194.312347 28.0
194.337311 100.0
194.362289 92.0
194.382034 384.0
194.420853 160.0
194.455643 144.0
194.544113 192.0
194.583191 144.0
194.611832 556.0
194.639313 116.0
194.700958 112.0
194.742035 152.0
194.796509 112.0
194.82872 256.0
194.853806 156.0
194.883484 236.0
194.920074 132.0
194.941696 144.0
194.985367 160.0
195.036453 380.0
195.080688 972.0
195.117279 212.0
195.142044 152.0
195.175354 228.0
195.21785 180.0
195.238403 180.0
195.299561 136.0
195.32988 272.0
195.358246 144.0
195.398651 316.0
195.472 120.0
195.537003 116.0
195.571182 124.0
195.665359 96.0
195.669861 80.0
195.724197 208.0
195.747498 384.0
195.827271 176.0
195.855179 160.0
195.887848 176.0
195.941879 132.0
195.984985 128.0
196.012451 124.0
196.034668 200.0
196.060226 128.0
196.087158 440.0
196.124786 100.0
196.158905 60.0
196.186035 140.0
196.219727 108.0
196.230118 88.0
196.240967 156.0
196.288361 184.0
196.334564 124.0
196.359131 176.0
196.410675 156.0
196.477493 136.0
196.538193 216.0
196.574478 124.0
196.594009 220.0
196.631287 292.0
196.669357 96.0
196.716812 128.0
196.750107 112.0
196.807312 248.0
196.82901 148.0
196.867294 316.0
196.902786 132.0
196.955414 80.0
196.963821 140.0
196.974747 108.0
197.010132 108.0
197.031006 228.0
197.061905 904.0
197.121048 288.0
197.167938 140.0
197.19165 96.0
197.226501 188.0
197.249756 224.0
197.309052 152.0
197.352264 236.0
197.37616 148.0
197.401321 372.0
197.427628 176.0
197.474625 156.0
197.504807 116.0
197.564499 152.0
197.590775 104.0
197.632523 92.0
197.688156 172.0
197.759506 140.0
197.793015 120.0
197.831177 176.0
197.862991 116.0
197.935104 132.0
197.946213 100.0
197.95668 104.0
197.965027 100.0
198.035507 128.0
198.070129 172.0
198.103836 140.0
198.126251 56.0
198.147385 304.0
198.179016 120.0
198.23349 116.0
198.244629 144.0
198.293167 204.0
198.37973 172.0
198.409668 172.0
198.437332 148.0
198.459763 68.0
198.498032 216.0
198.528793 156.0
198.563705 180.0
198.585953 116.0
198.618179 196.0
198.659149 128.0
198.709747 244.0
198.730316 216.0
198.762436 220.0
198.825729 156.0
198.857803 148.0
198.88504 144.0
198.933899 188.0
198.990417 244.0
199.0392 1200.0
199.075912 2168.0
199.128143 176.0
199.186295 204.0
199.23999 336.0
199.271103 108.0
199.296188 132.0
199.327652 204.0
199.357346 124.0
199.399902 216.0
199.446945 176.0
199.476059 92.0
199.521027 280.0
199.582886 128.0
199.667252 100.0
199.718842 140.0
199.771484 144.0
199.797134 160.0
199.852631 280.0
199.862244 208.0
199.873154 168.0
199.922501 104.0
199.958099 220.0
200.004135 340.0
200.033813 300.0
200.039566 196.0
200.076569 392.0
200.147049 256.0
200.208511 324.0
200.245453 180.0
200.306168 132.0
200.331253 160.0
200.375061 288.0
200.383514 132.0
200.398666 216.0
200.441574 132.0
200.477539 140.0
200.513107 188.0
200.529724 128.0
200.569824 180.0
200.58931 132.0
200.652786 76.0
200.676041 120.0
200.714523 116.0
200.741684 228.0
200.814285 176.0
200.847366 80.0
200.890259 136.0
200.958191 160.0
201.010086 160.0
201.055634 1312.0
201.083542 228.0
201.089783 252.0
201.120544 304.0
201.202667 132.0
201.243774 136.0
201.273514 208.0
201.304565 28.0
201.349762 136.0
201.390579 124.0
201.445786 104.0
201.468384 152.0
201.501419 324.0
201.553726 196.0
201.581406 236.0
201.612488 156.0
201.660538 164.0
201.689758 244.0
201.712509 160.0
201.74295 140.0
201.770782 84.0
201.817703 208.0
201.847122 156.0
201.866913 128.0
201.921219 120.0
201.993332 168.0
202.000626 116.0
202.020126 280.0
202.043457 192.0
202.076828 668.0
202.107635 400.0
202.131958 188.0
202.159805 164.0
202.194138 132.0
202.231079 116.0
202.271683 248.0
202.293716 80.0
202.332108 252.0
202.35228 116.0
202.403763 156.0
202.461197 128.0
202.487961 88.0
202.5065 100.0
202.526337 108.0
202.554657 124.0
202.583588 264.0
202.608475 212.0
202.640976 340.0
202.685349 244.0
202.727142 172.0
202.763245 284.0
202.809677 244.0
202.874863 100.0
202.911728 196.0
202.962753 112.0
203.035049 2484.0
203.072128 2032.0
203.157043 168.0
203.193222 172.0
203.22406 128.0
203.26059 284.0
203.291962 232.0
203.321457 212.0
203.357849 132.0
203.383759 140.0
203.413132 188.0
203.478287 40.0
203.53511 124.0
203.544601 164.0
203.58136 92.0
203.640167 176.0
203.667191 164.0
203.731186 168.0
203.747498 280.0
203.767746 208.0
203.858521 116.0
203.930283 148.0
203.973007 144.0
204.038513 112.0
204.080734 540.0
204.088364 764.0
204.13266 112.0
204.156677 140.0
204.183838 132.0
204.225861 88.0
204.233032 68.0
204.241776 108.0
204.28624 192.0
204.314697 48.0
204.354523 140.0
204.377289 176.0
204.448196 152.0
204.527313 168.0
204.58783 204.0
204.637955 152.0
204.664764 72.0
204.713165 164.0
204.7388 136.0
204.769455 220.0
204.800278 136.0
204.811188 164.0
204.844177 100.0
204.867508 108.0
204.901154 268.0
204.932495 140.0
204.985077 124.0
205.028763 272.0
205.061142 228.0
205.098938 328.0
205.179565 280.0
205.238815 144.0
205.254593 76.0
205.261063 148.0
205.317322 148.0
205.357941 180.0
205.395416 116.0
205.434265 132.0
205.454239 104.0
205.488556 140.0
205.530304 376.0
205.553223 324.0
205.59938 152.0
205.634003 144.0
205.663086 168.0
205.682526 212.0
205.7202 300.0
205.769913 176.0
205.810928 160.0
205.828766 136.0
205.864273 152.0
205.909515 96.0
205.945221 92.0
205.968063 112.0
206.008057 184.0
206.064102 208.0
206.112106 152.0
206.165207 276.0
206.192383 164.0
206.216644 112.0
206.243759 148.0
206.320755 124.0
206.359573 144.0
206.379593 104.0
206.408081 120.0
206.41391 116.0
206.426575 120.0
206.435287 168.0
206.44313 144.0
206.468918 152.0
206.498505 192.0
206.535614 168.0
206.587936 132.0
206.622696 80.0
206.643967 204.0
206.681305 148.0
206.722839 304.0
206.741745 180.0
206.776703 180.0
206.828735 172.0
206.868271 356.0
206.894577 124.0
206.91748 168.0
206.937515 332.0
206.975067 172.0
207.007538 152.0
207.031342 436.0
207.079178 488.0
207.112839 180.0
207.178467 176.0
207.20961 52.0
207.257019 160.0
207.268738 88.0
207.273529 128.0
207.316635 192.0
207.358612 120.0
207.378677 344.0
207.472061 180.0
207.513397 76.0
207.550674 68.0
207.586166 320.0
207.636185 356.0
207.651627 180.0
207.690155 320.0
207.712784 128.0
207.757172 128.0
207.789734 196.0
207.854721 40.0
207.877502 124.0
207.918015 140.0
207.949432 176.0
207.977737 148.0
208.012573 140.0
208.049408 328.0
208.088257 592.0
208.130188 128.0
208.148224 160.0
208.168335 160.0
208.193466 88.0
208.216431 100.0
208.246597 240.0
208.303925 96.0
208.356583 172.0
208.377029 400.0
208.463501 304.0
208.523849 132.0
208.56073 168.0
208.607193 144.0
208.637695 140.0
208.665863 128.0
208.69632 164.0
208.756714 176.0
208.785324 168.0
208.842987 168.0
208.903244 80.0
208.910431 144.0
208.95192 180.0
208.955978 140.0
208.991867 112.0
209.02771 116.0
209.058746 632.0
209.099609 592.0
209.131882 216.0
209.162369 160.0
209.218002 172.0
209.242981 124.0
209.303436 136.0
209.326477 212.0
209.352402 100.0
209.416763 188.0
209.461838 188.0
209.49205 172.0
209.513687 180.0
209.548264 128.0
209.584869 148.0
209.633865 96.0
209.683807 104.0
209.729813 160.0
209.774765 216.0
209.797668 252.0
209.824768 196.0
209.904785 144.0
209.959152 220.0
209.979446 272.0
210.009491 152.0
210.032562 232.0
210.065445 484.0
210.107788 212.0
210.141434 184.0
210.165268 72.0
210.197876 148.0
210.215012 336.0
210.240295 112.0
210.274933 208.0
210.312454 136.0
210.332657 128.0
210.355331 136.0
210.482788 160.0
210.594345 164.0
210.644516 164.0
210.672211 80.0
210.713318 132.0
210.754303 164.0
210.818787 132.0
210.849655 88.0
210.913895 212.0
210.933929 180.0
210.959183 260.0
210.979736 220.0
211.005753 184.0
211.036621 284.0
211.070602 524.0
211.109207 248.0
211.135864 104.0
211.18161 192.0
211.191711 144.0
211.259369 124.0
211.281937 92.0
211.317856 136.0
211.361511 160.0
211.383789 160.0
211.423019 248.0
211.445419 156.0
211.478516 132.0
211.497528 148.0
211.556015 308.0
211.585754 108.0
211.645172 336.0
211.699417 196.0
211.743698 212.0
211.775482 152.0
211.804718 336.0
211.86528 112.0
211.89624 104.0
211.938065 132.0
211.9664 336.0
211.992584 380.0
212.041122 420.0
212.078278 348.0
212.104767 56.0
212.152176 164.0
212.192139 164.0
212.197647 164.0
212.211258 148.0
212.224075 240.0
212.264206 144.0
212.3022 168.0
212.307724 124.0
212.330032 132.0
212.3573 76.0
212.409546 224.0
212.473282 152.0
212.508636 204.0
212.538788 80.0
212.564438 408.0
212.614258 132.0
212.677933 240.0
212.70813 240.0
212.754745 272.0
212.797409 336.0
212.833801 392.0
212.864807 720.0
212.906555 220.0
212.932983 68.0
212.943024 164.0
212.988678 564.0
213.017822 304.0
213.056122 214892.0
213.111191 100.0
213.153091 176.0
213.191986 148.0
213.245682 264.0
213.291809 92.0
213.324219 264.0
213.373032 164.0
213.419388 392.0
213.467484 240.0
213.488846 132.0
213.534576 1148.0
213.575653 136.0
213.604736 132.0
213.641586 264.0
213.688507 176.0
213.721863 160.0
213.762802 132.0
213.774261 76.0
213.799164 240.0
213.833649 288.0
213.849838 272.0
213.893707 208.0
213.930984 188.0
213.980286 260.0
214.01329 260.0
214.059189 35332.0
214.116333 116.0
214.160477 60.0
214.19455 48.0
214.240753 140.0
214.262451 208.0
214.312546 132.0
214.321503 108.0
214.374466 136.0
214.406418 164.0
214.444962 184.0
214.474365 204.0
214.484451 124.0
214.490234 136.0
214.514557 284.0
214.552673 120.0
214.582169 156.0
214.626633 196.0
214.657089 212.0
214.690521 60.0
214.736053 372.0
214.817474 136.0
214.843292 212.0
214.917938 104.0
214.949417 48.0
214.956161 64.0
215.006729 296.0
215.066315 4852.0
215.141983 96.0
215.185394 164.0
215.206665 236.0
215.243988 72.0
215.254974 28.0
215.275375 248.0
215.319687 196.0
215.344635 300.0
215.366943 104.0
215.39975 112.0
215.428482 148.0
215.460175 292.0
215.499039 300.0
215.533279 136.0
215.586639 288.0
215.658066 244.0
215.718399 308.0
215.750504 168.0
215.784775 112.0
215.802597 132.0
215.834518 120.0
215.857712 240.0
215.893784 124.0
215.927002 216.0
215.991516 116.0
216.047684 1600.0
216.088318 796.0
216.120026 128.0
216.13063 48.0
216.138306 128.0
216.17453 88.0
216.21257 44.0
216.243301 56.0
216.263809 116.0
216.290237 224.0
216.355988 48.0
216.389877 112.0
216.429184 68.0
216.452606 148.0
216.475723 152.0
216.508514 132.0
216.560974 368.0
216.593262 156.0
216.603058 152.0
216.622482 156.0
216.664291 160.0
216.685501 164.0
216.694901 172.0
216.728424 100.0
216.761444 224.0
216.804138 48.0
216.835907 128.0
216.873016 152.0
216.906357 96.0
216.930054 108.0
217.003464 136.0
217.048309 584.0
217.074905 276.0
217.100891 592.0
217.135422 180.0
217.158875 188.0
217.213516 172.0
217.255676 48.0
217.306183 112.0
217.334335 212.0
217.419296 136.0
217.446411 160.0
217.476212 180.0
217.527176 224.0
217.56813 128.0
217.58046 116.0
217.638229 140.0
217.662659 120.0
217.702499 120.0
217.781113 124.0
217.840561 152.0
217.861298 188.0
217.905853 104.0
217.947403 288.0
217.972916 168.0
218.018951 180.0
218.071091 852.0
218.105865 244.0
218.132965 204.0
218.183685 180.0
218.210144 92.0
218.285797 160.0
218.31012 60.0
218.344879 176.0
218.42189 100.0
218.463074 172.0
218.486603 68.0
218.510132 200.0
218.548386 56.0
218.607239 100.0
218.667221 136.0
218.714417 172.0
218.761246 160.0
218.789017 280.0
218.810333 60.0
218.866211 172.0
218.900055 68.0
218.909714 128.0
218.922226 36.0
218.995178 176.0
219.080978 764.0
219.116989 764.0
219.156647 96.0
219.177902 284.0
219.226074 164.0
219.300949 116.0
219.326233 244.0
219.35289 164.0
219.379105 240.0
219.446121 228.0
219.472534 132.0
219.535904 180.0
219.589096 156.0
219.615356 128.0
219.667908 180.0
219.706253 92.0
219.738785 148.0
219.791809 88.0
219.886246 152.0
219.914703 112.0
219.971848 56.0
220.035446 132.0
220.085846 628.0
220.10939 152.0
220.120834 188.0
220.148117 228.0
220.182861 148.0
220.262634 216.0
220.286102 336.0
220.345444 192.0
220.381134 180.0
220.419418 196.0
220.464401 344.0
220.495712 296.0
220.553757 120.0
220.586578 148.0
220.642059 64.0
220.66214 252.0
220.698608 96.0
220.72403 140.0
220.769577 124.0
220.835632 144.0
220.902664 156.0
220.935654 136.0
220.972198 160.0
221.05043 304.0
221.09584 1332.0
221.169159 132.0
221.250641 180.0
221.294632 176.0
221.331345 308.0
221.423294 76.0
221.503586 84.0
221.527588 76.0
221.5569 128.0
221.583572 72.0
221.607269 48.0
221.635956 152.0
221.670242 160.0
221.691635 144.0
221.722839 248.0
221.75885 52.0
221.846542 136.0
221.8918 140.0
221.918472 132.0
221.963562 236.0
221.988068 196.0
222.072266 256.0
222.098511 716.0
222.161667 100.0
222.188141 236.0
222.244736 284.0
222.292221 60.0
222.331039 144.0
222.370743 156.0
222.434677 68.0
222.494949 292.0
222.521072 116.0
222.556564 136.0
222.58609 248.0
222.633759 148.0
222.657043 112.0
222.735397 188.0
222.769363 152.0
222.835388 204.0
222.865295 180.0
222.882599 136.0
222.915817 140.0
222.959259 148.0
223.003906 168.0
223.02652 144.0
223.076859 748.0
223.110229 472.0
223.154236 168.0
223.190186 132.0
223.227936 48.0
223.266602 160.0
223.302277 136.0
223.335861 192.0
223.373276 120.0
223.380737 192.0
223.408493 172.0
223.460175 272.0
223.507553 168.0
223.531204 116.0
223.553299 224.0
223.620636 196.0
223.641464 68.0
223.736725 164.0
223.765244 344.0
223.771362 164.0
223.814911 108.0
223.843903 48.0
223.872971 132.0
223.951019 112.0
223.998184 120.0
224.049423 152.0
224.094635 172.0
224.129868 136.0
224.190292 180.0
224.247025 252.0
224.277847 148.0
224.323425 72.0
224.335327 68.0
224.345947 136.0
224.400238 160.0
224.419815 100.0
224.478622 92.0
224.505463 168.0
224.546646 156.0
224.602386 160.0
224.646881 288.0
224.66626 88.0
224.714264 136.0
224.750061 232.0
224.842651 148.0
224.905243 192.0
224.987167 88.0
225.056152 476.0
225.087097 136.0
225.133377 136.0
225.185944 160.0
225.226654 100.0
225.238174 56.0
225.259506 144.0
225.316544 180.0
225.372864 288.0
225.416504 304.0
225.436859 124.0
225.472717 156.0
225.536072 248.0
225.56102 132.0
225.581741 84.0
225.592041 100.0
225.602539 176.0
225.625168 104.0
225.646088 160.0
225.729813 184.0
225.763565 152.0
225.800934 92.0
225.84346 168.0
225.897583 164.0
225.95549 208.0
225.992416 136.0
225.999573 108.0
226.008911 156.0
226.06218 400.0
226.128082 364.0
226.172592 80.0
226.212265 156.0
226.265381 124.0
226.32637 152.0
226.360062 180.0
226.393005 224.0
226.442062 72.0
226.495972 104.0
226.525925 124.0
226.567871 144.0
226.588837 96.0
226.612808 160.0
226.669739 124.0
226.696701 176.0
226.721008 144.0
226.755142 64.0
226.828186 156.0
226.894165 284.0
226.948486 128.0
226.993973 192.0
227.036545 188.0
227.069611 1788.0
227.136383 160.0
227.228882 240.0
227.283264 144.0
227.35434 216.0
227.360718 180.0
227.398468 132.0
227.482208 172.0
227.510574 104.0
227.577362 128.0
227.6129 168.0
227.680679 64.0
227.702759 192.0
227.738724 148.0
227.807495 108.0
227.839874 148.0
227.884933 164.0
227.923996 280.0
227.95105 160.0
227.9841 108.0
228.011322 180.0
228.075821 428.0
228.090652 320.0
228.146011 276.0
228.185486 124.0
228.208511 144.0
228.262833 144.0
228.290726 88.0
228.34787 332.0
228.370132 160.0
228.394485 52.0
228.417053 164.0
228.50676 132.0
228.627655 96.0
228.651733 60.0
228.714935 64.0
228.756851 160.0
228.763977 96.0
228.796219 100.0
228.821213 92.0
228.864639 164.0
228.877151 200.0
228.915329 168.0
228.93576 116.0
228.950043 208.0
228.996628 152.0
229.052689 356.0
229.10173 2404.0
229.178711 124.0
229.211853 92.0
229.243683 200.0
229.275146 172.0
229.355713 144.0
229.379486 200.0
229.468063 76.0
229.499786 132.0
229.561523 176.0
229.600739 152.0
229.695053 296.0
229.745514 196.0
229.781723 160.0
229.833786 156.0
229.956619 108.0
230.024994 124.0
230.06044 180.0
230.101181 420.0
230.131821 100.0
230.183151 104.0
230.249588 80.0
230.276321 188.0
230.345886 204.0
230.418472 128.0
230.447418 164.0
230.494827 176.0
230.526733 208.0
230.564178 152.0
230.608322 196.0
230.631149 164.0
230.672592 128.0
230.705673 136.0
230.711044 128.0
230.747665 72.0
230.802414 272.0
230.88121 152.0
230.90239 108.0
230.938141 180.0
230.958878 224.0
230.969986 184.0
230.985565 264.0
230.991714 60.0
231.028992 184.0
231.066788 7504.0
231.14241 152.0
231.162048 48.0
231.224197 228.0
231.25499 44.0
231.27626 260.0
231.312683 272.0
231.339951 256.0
231.399475 232.0
231.431946 144.0
231.465256 108.0
231.510086 184.0
231.545349 80.0
231.585693 156.0
231.622742 112.0
231.646973 128.0
231.710587 184.0
231.746597 236.0
231.80452 140.0
231.875229 192.0
231.905762 280.0
231.943939 92.0
232.002121 200.0
232.027649 168.0
232.087662 7004.0
232.15358 108.0
232.181778 116.0
232.224274 96.0
232.24411 144.0
232.302017 184.0
232.340332 132.0
232.386871 140.0
232.435242 144.0
232.468628 36.0
232.500519 156.0
232.538422 72.0
232.569611 236.0
232.614624 272.0
232.644653 164.0
232.684525 240.0
232.736923 72.0
232.799515 44.0
232.82988 36.0
232.860992 280.0
232.893661 176.0
232.938095 192.0
232.977814 176.0
233.011703 212.0
233.04483 264.0
233.092331 2528.0
233.16449 208.0
233.204834 192.0
233.230576 104.0
233.240753 136.0
233.303879 212.0
233.358612 196.0
233.382721 236.0
233.41333 184.0
233.444641 128.0
233.463974 148.0
233.526672 192.0
233.574905 232.0
233.623199 140.0
233.64476 176.0
233.668045 108.0
233.777588 216.0
233.836197 52.0
233.862335 108.0
233.95993 172.0
233.989746 188.0
234.024765 112.0
234.067581 592.0
234.103104 412.0
234.158905 140.0
234.21582 152.0
234.220886 104.0
234.235062 188.0
234.271271 212.0
234.316299 132.0
234.391571 172.0
234.417572 132.0
234.42926 124.0
234.464355 140.0
234.543335 272.0
234.640366 92.0
234.673904 132.0
234.733734 160.0
234.77034 160.0
234.786148 128.0
234.79776 136.0
234.815811 300.0
234.83934 144.0
234.872131 160.0
234.895248 172.0
234.963638 96.0
235.076706 720.0
235.114532 144.0
235.166153 132.0
235.186401 208.0
235.227493 164.0
235.280792 152.0
235.334198 164.0
235.357254 108.0
235.363159 144.0
235.392014 212.0
235.434891 144.0
235.45813 148.0
235.523636 64.0
235.563766 192.0
235.634262 152.0
235.646301 100.0
235.673248 108.0
235.707428 164.0
235.747482 112.0
235.830383 124.0
235.853973 124.0
235.879776 148.0
235.910248 256.0
235.9328 104.0
235.941986 160.0
236.018631 172.0
236.044876 152.0
236.086029 524.0
236.139679 36.0
236.243469 80.0
236.265762 224.0
236.290176 40.0
236.297623 120.0
236.323853 332.0
236.344238 220.0
236.400757 200.0
236.453827 164.0
236.485413 128.0
236.603958 132.0
236.641525 272.0
236.692093 148.0
236.760956 284.0
236.788513 56.0
236.822205 132.0
236.845367 128.0
236.900101 100.0
236.93335 184.0
236.960052 120.0
237.002945 148.0
237.053299 332.0
237.093719 444.0
237.132568 280.0
237.186691 92.0
237.311462 188.0
237.355438 64.0
237.40451 132.0
237.453583 220.0
237.495926 136.0
237.539459 160.0
237.606171 152.0
237.678635 196.0
237.705139 72.0
237.734955 184.0
237.74382 132.0
237.754135 132.0
237.801865 260.0
237.850403 72.0
237.895416 132.0
237.94342 120.0
237.991714 216.0
238.041992 184.0
238.081757 140.0
238.106613 148.0
238.132584 288.0
238.176559 188.0
238.22998 72.0
238.27623 168.0
238.313705 184.0
238.379532 92.0
238.491333 156.0
238.524475 192.0
238.54718 148.0
238.57251 148.0
238.612473 316.0
238.634155 96.0
238.681946 92.0
238.706543 144.0
238.787262 104.0
238.855453 76.0
238.91568 32.0
239.000046 144.0
239.07605 716.0
239.101151 244.0
239.177475 168.0
239.238815 80.0
239.309006 184.0
239.351105 144.0
239.38353 136.0
239.435776 116.0
239.463593 152.0
239.483978 292.0
239.593369 120.0
239.629944 160.0
239.673935 128.0
239.729721 168.0
239.827271 108.0
239.902359 152.0
239.95047 212.0
239.977097 144.0
240.021378 124.0
240.047302 188.0
240.078781 320.0
240.106094 308.0
240.12854 176.0
240.200256 104.0
240.22493 104.0
240.277374 128.0
240.298981 168.0
240.335999 108.0
240.36377 168.0
240.428574 144.0
240.493301 136.0
240.595261 140.0
240.631454 132.0
240.700226 48.0
240.743454 168.0
240.766617 156.0
240.78978 100.0
240.820053 120.0
240.86911 180.0
240.924347 176.0
240.949463 156.0
240.981949 212.0
241.053055 280.0
241.101013 224.0
241.154358 52.0
241.204422 120.0
241.218079 156.0
241.242004 284.0
241.300323 164.0
241.34906 132.0
241.407867 92.0
241.446899 152.0
241.488144 96.0
241.593445 192.0
241.639847 116.0
241.688446 164.0
241.751236 168.0
241.797775 108.0
241.882965 168.0
241.952423 296.0
241.992676 120.0
242.014359 140.0
242.050568 388.0
242.07399 372.0
242.110992 168.0
242.150604 108.0
242.214462 212.0
242.272415 196.0
242.325577 116.0
242.338058 156.0
242.354752 196.0
242.40773 128.0
242.454224 200.0
242.52269 176.0
242.550308 188.0
242.584396 112.0
242.639999 60.0
242.673294 112.0
242.730713 144.0
242.779007 120.0
242.810745 88.0
242.841766 76.0
242.928604 132.0
242.952164 108.0
243.003067 152.0
243.07724 796.0
243.120972 108.0
243.148911 80.0
243.195465 176.0
243.329575 140.0
243.357712 76.0
243.437424 312.0
243.468674 168.0
243.645721 156.0
243.684753 168.0
243.716263 108.0
243.74826 60.0
243.773117 124.0
243.832169 76.0
243.861557 104.0
243.89122 76.0
243.912979 104.0
243.975143 164.0
244.03447 148.0
244.091095 96.0
244.132553 172.0
244.186584 136.0
244.218475 120.0
244.268204 100.0
244.288498 68.0
244.349487 120.0
244.391891 196.0
244.439301 172.0
244.503845 200.0
244.550613 92.0
244.603653 96.0
244.713745 168.0
244.723648 68.0
244.732758 140.0
244.769989 256.0
244.809006 164.0
244.842667 144.0
244.883759 168.0
244.905548 148.0
244.96785 164.0
244.992767 144.0
245.053421 120.0
245.09375 404.0
245.160172 176.0
245.20845 148.0
245.238937 148.0
245.345612 164.0
245.409409 176.0
245.436539 52.0
245.458679 272.0
245.488358 136.0
245.530975 160.0
245.572556 104.0
245.606659 180.0
245.656769 188.0
245.678604 96.0
245.700455 172.0
245.72229 68.0
245.75972 116.0
245.790924 152.0
245.818069 212.0
245.906296 120.0
245.945496 136.0
245.987488 196.0
246.021881 104.0
246.071442 464.0
246.1017 528.0
246.212357 104.0
246.312653 144.0
246.384155 176.0
246.437256 120.0
246.46225 136.0
246.496628 168.0
246.528946 176.0
246.555862 88.0
246.563461 144.0
246.606003 120.0
246.62941 188.0
246.714874 116.0
246.784195 208.0
246.826614 136.0
246.84938 236.0
246.901535 152.0
246.936752 96.0
246.944107 104.0
246.965225 136.0
246.995071 176.0
247.075378 568.0
247.111099 3144.0
247.189316 116.0
247.232162 116.0
247.275314 160.0
247.300354 148.0
247.359619 160.0
247.400665 144.0
247.428497 128.0
247.477661 156.0
247.541321 140.0
247.551819 136.0
247.61116 104.0
247.648987 104.0
247.733429 484.0
247.765945 228.0
247.820892 124.0
247.853806 44.0
247.901657 184.0
247.932999 140.0
248.006668 292.0
248.042694 160.0
248.079865 380.0
248.115601 680.0
248.154343 72.0
248.199448 80.0
248.25589 116.0
248.277847 168.0
248.327194 240.0
248.379166 156.0
248.428406 100.0
248.463531 140.0
248.497162 144.0
248.535065 120.0
248.606567 224.0
248.63147 128.0
248.669785 172.0
248.726501 144.0
248.775421 296.0
248.8284 96.0
248.863113 156.0
248.9086 104.0
248.965118 92.0
248.99025 160.0
249.050812 284.0
249.091675 2024.0
249.129318 280.0
249.178711 124.0
249.218323 148.0
249.250977 164.0
249.27298 236.0
249.328751 80.0
249.384506 196.0
249.460541 272.0
249.499283 244.0
249.530716 180.0
249.555862 112.0
249.599976 276.0
249.62645 216.0
249.658066 176.0
249.67955 48.0
249.699753 228.0
249.760284 120.0
249.799423 224.0
249.839417 128.0
249.86731 180.0
249.927795 80.0
249.949799 148.0
249.993088 100.0
250.03363 204.0
250.095306 1000.0
250.131683 128.0
250.163055 120.0
250.18486 108.0
250.190765 100.0
250.203171 188.0
250.23056 244.0
250.262589 104.0
250.293564 124.0
250.323624 156.0
250.354599 48.0
250.414642 252.0
250.456375 132.0
250.522842 160.0
250.544098 192.0
250.580109 140.0
250.614639 176.0
250.673279 204.0
250.697327 76.0
250.716385 148.0
250.767166 168.0
250.807999 164.0
250.849777 196.0
250.892487 164.0
250.914688 120.0
250.940643 112.0
250.982483 144.0
251.013733 132.0
251.069672 520.0
251.104797 792.0
251.194855 84.0
251.233582 136.0
251.284988 116.0
251.376755 144.0
251.431427 224.0
251.489777 272.0
251.562347 176.0
251.613205 172.0
251.641632 128.0
251.691269 264.0
251.732498 256.0
251.753876 80.0
251.76445 164.0
251.779724 76.0
251.805832 128.0
251.852127 176.0
251.907013 120.0
251.951126 140.0
252.022018 156.0
252.044022 248.0
252.078476 344.0
252.115189 200.0
252.161301 140.0
252.210968 176.0
252.251343 124.0
252.309982 116.0
252.333862 152.0
252.362457 164.0
252.41806 120.0
252.447372 200.0
252.505341 156.0
252.521561 96.0
252.594559 104.0
252.640305 116.0
252.662582 180.0
252.711288 124.0
252.77002 160.0
252.834503 180.0
252.871368 152.0
252.921936 180.0
252.951599 88.0
252.975739 340.0
253.044281 328.0
253.080276 388.0
253.181549 60.0
253.209564 180.0
253.286072 164.0
253.355865 124.0
253.410934 116.0
253.45343 116.0
253.517349 176.0
253.54509 144.0
253.620148 92.0
253.663879 160.0
253.701187 208.0
253.728134 120.0
253.758255 144.0
253.818497 92.0
253.850204 148.0
253.878357 96.0
253.916809 432.0
253.944733 204.0
253.987045 108.0
254.053818 576.0
254.09996 124.0
254.132507 72.0
254.176926 292.0
254.226669 352.0
254.262619 176.0
254.28801 124.0
254.325363 156.0
254.363464 260.0
254.392746 60.0
254.418152 268.0
254.440369 64.0
254.498749 164.0
254.555832 172.0
254.590347 136.0
254.612015 176.0
254.640411 120.0
254.70517 196.0
254.732529 124.0
254.785919 272.0
254.834183 180.0
254.900238 188.0
254.961288 76.0
255.020096 240.0
255.063766 312.0
255.139297 132.0
255.154572 64.0
255.16246 152.0
255.200409 144.0
255.238571 124.0
255.27919 228.0
255.315659 136.0
255.345978 144.0
255.410706 148.0
255.45723 160.0
255.524109 112.0
255.546387 132.0
255.576111 152.0
255.613205 132.0
255.658173 60.0
255.699127 160.0
255.727768 348.0
255.749496 268.0
255.777267 320.0
255.813705 60.0
255.839172 200.0
255.862656 100.0
255.905197 168.0
255.929428 220.0
255.982452 100.0
256.006653 200.0
256.088715 896.0
256.120544 112.0
256.15567 92.0
256.194305 148.0
256.259552 100.0
256.28186 132.0
256.324005 188.0
256.37912 184.0
256.43515 196.0
256.475067 160.0
256.519684 212.0
256.559143 172.0
256.581451 80.0
256.607208 88.0
256.651611 148.0
256.68924 156.0
256.739563 276.0
256.798309 112.0
256.864014 304.0
256.90036 32.0
256.930176 152.0
256.965668 108.0
257.042114 340.0
257.095093 1604.0
257.142883 212.0
257.187561 48.0
257.213104 136.0
257.270447 108.0
257.303802 124.0
257.355774 164.0
257.402496 160.0
257.42749 404.0
257.452545 264.0
257.481689 128.0
257.513214 56.0
257.589874 144.0
257.640991 136.0
257.703857 196.0
257.780304 260.0
257.815948 144.0
257.83139 96.0
257.928589 88.0
257.976532 40.0
258.00531 112.0
258.047394 260.0
258.062347 276.0
258.068817 360.0
258.102661 1040.0
258.17157 120.0
258.232971 144.0
258.262085 148.0
258.335114 292.0
258.38443 128.0
258.413086 144.0
258.419098 160.0
258.478668 160.0
258.513885 128.0
258.546387 128.0
258.623749 276.0
258.684143 184.0
258.729767 116.0
258.755585 108.0
258.805176 124.0
258.882019 152.0
258.926849 88.0
259.011963 260.0
259.020416 172.0
259.076538 388.0
259.112854 348.0
259.158386 156.0
259.192749 60.0
259.234344 212.0
259.292084 128.0
259.346344 164.0
259.432343 148.0
259.484406 152.0
259.519684 144.0
259.561371 128.0
259.595551 92.0
259.654358 148.0
259.680023 64.0
259.728119 128.0
259.773041 56.0
259.811523 36.0
259.848541 172.0
259.899536 192.0
259.923828 172.0
259.96875 108.0
260.032928 228.0
260.083313 3260.0
260.141724 128.0
260.188812 64.0
260.254059 68.0
260.296173 28.0
260.324249 172.0
260.370026 160.0
260.398926 160.0
260.424622 40.0
260.456757 212.0
260.479248 248.0
260.526642 164.0
260.536011 124.0
260.572388 328.0
260.598114 132.0
260.62381 156.0
260.666809 136.0
260.749146 116.0
260.836029 100.0
260.860626 232.0
260.90741 180.0
260.967712 100.0
261.005402 128.0
261.090179 2420.0
261.135406 312.0
261.163879 184.0
261.188446 112.0
261.221802 192.0
261.25766 280.0
261.29538 64.0
261.325623 176.0
261.365082 160.0
261.386902 160.0
261.411713 116.0
261.465759 136.0
261.517822 72.0
261.587952 180.0
261.632263 116.0
261.662659 64.0
261.701294 164.0
261.752838 96.0
261.795013 76.0
261.818634 152.0
261.902039 96.0
261.949188 136.0
261.957581 104.0
261.994385 236.0
262.022766 128.0
262.052582 120.0
262.09494 660.0
262.160217 60.0
262.194153 76.0
262.259918 108.0
262.290863 136.0
262.319855 180.0
262.369965 88.0
262.398621 140.0
262.459015 192.0
262.51944 156.0
262.532379 276.0
262.568146 220.0
262.619293 180.0
262.647614 148.0
262.684235 128.0
262.72049 208.0
262.767151 160.0
262.803253 148.0
262.840729 128.0
262.868134 156.0
262.898621 136.0
262.977417 56.0
263.018433 168.0
263.073975 1492.0
263.105408 420.0
263.149658 168.0
263.218445 124.0
263.265198 128.0
263.28479 180.0
263.350128 268.0
263.392822 148.0
263.436401 56.0
263.465454 68.0
263.52887 176.0
263.578552 96.0
263.624603 160.0
263.664124 108.0
263.700958 100.0
263.771606 184.0
263.808014 172.0
263.859741 128.0
263.898895 108.0
263.93161 292.0
264.006012 136.0
264.036591 128.0
264.077271 1396.0
264.114197 280.0
264.163727 132.0
264.218719 80.0
264.336365 112.0
264.399597 120.0
264.459167 152.0
264.484467 152.0
264.540833 128.0
264.584412 160.0
264.613342 180.0
264.698547 168.0
264.736603 136.0
264.798126 128.0
264.823273 184.0
264.895294 144.0
264.929535 148.0
264.993011 280.0
265.041992 136.0
265.086578 1084.0
265.121826 1052.0
265.218933 96.0
265.223816 104.0
265.266083 132.0
265.273041 92.0
265.31012 192.0
265.354156 196.0
265.472351 192.0
265.483948 164.0
265.497528 268.0
265.585724 176.0
265.662842 140.0
265.702515 172.0
265.75119 192.0
265.873993 104.0
265.897217 176.0
265.993103 208.0
266.05249 444.0
266.090118 176.0
266.098846 352.0
266.12262 320.0
266.169891 160.0
266.251068 44.0
266.27951 164.0
266.31604 112.0
266.384247 176.0
266.419586 128.0
266.42868 112.0
266.468719 172.0
266.504608 140.0
266.553192 156.0
266.584503 164.0
266.62912 108.0
266.657166 80.0
266.709778 216.0
266.717529 148.0
266.732269 152.0
266.766357 140.0
266.884735 152.0
266.923706 140.0
266.952515 128.0
267.028107 136.0
267.064362 1372.0
267.100922 1480.0
267.154144 220.0
267.22995 320.0
267.290405 240.0
267.335602 128.0
267.35965 144.0
267.424744 136.0
267.44754 152.0
267.490814 76.0
267.52832 108.0
267.559418 96.0
267.594025 132.0
267.638458 80.0
267.694977 52.0
267.726532 132.0
267.758606 164.0
267.797791 160.0
267.825226 96.0
267.883881 132.0
267.94577 112.0
268.030487 92.0
268.071625 1000.0
268.104828 472.0
268.13324 172.0
268.180389 156.0
268.211304 156.0
268.24231 152.0
268.269348 124.0
268.308685 88.0
268.375977 120.0
268.398804 204.0
268.442505 160.0
268.473816 96.0
268.513794 152.0
268.524994 156.0
268.641022 152.0
268.679291 112.0
268.742218 112.0
268.755859 128.0
268.76947 44.0
268.798706 188.0
268.839172 148.0
268.901581 192.0
268.949127 240.0
269.006042 364.0
269.046112 1556.0
269.098877 468.0
269.123169 128.0
269.188477 112.0
269.251831 148.0
269.276642 52.0
269.302704 148.0
269.345123 336.0
269.443237 156.0
269.466095 136.0
269.492249 96.0
269.573517 64.0
269.595123 196.0
269.649109 164.0
269.680084 224.0
269.709839 124.0
269.71875 180.0
269.753693 112.0
269.791534 188.0
269.847717 192.0
269.910126 164.0
269.924347 140.0
269.948029 128.0
269.976013 168.0
270.049316 820.0
270.108063 96.0
270.137207 228.0
270.197144 172.0
270.242615 80.0
270.316223 48.0
270.355499 172.0
270.407562 220.0
270.435852 144.0
270.460236 196.0
270.48642 76.0
270.526306 148.0
270.5578 228.0
270.608215 156.0
270.684143 152.0
270.749542 252.0
270.804291 148.0
270.882629 168.0
270.917969 56.0
270.944611 288.0
270.969727 260.0
270.997528 56.0
271.035675 152.0
271.07959 460.0
271.108704 92.0
271.166351 136.0
271.246368 128.0
271.295532 128.0
271.334869 64.0
271.392365 180.0
271.436523 144.0
271.500732 184.0
271.510376 108.0
271.533386 284.0
271.588104 208.0
271.662811 88.0
271.69873 116.0
271.754669 204.0
271.838013 120.0
271.877472 208.0
271.918762 64.0
271.961426 232.0
272.004089 188.0
272.04837 272.0
272.093414 364.0
272.104858 212.0
272.19696 160.0
272.320129 328.0
272.351044 216.0
272.422668 268.0
272.469513 204.0
272.510406 128.0
272.572266 256.0
272.61499 156.0
272.641266 128.0
272.683563 124.0
272.739868 112.0
272.795105 144.0
272.849457 176.0
272.904236 112.0
272.933838 184.0
272.964661 236.0
272.989746 160.0
273.046143 384.0
273.092285 244.0
273.115417 260.0
273.158783 104.0
273.211365 176.0
273.288269 196.0
273.328552 100.0
273.351593 48.0
273.437134 96.0
273.489807 132.0
273.532593 180.0
273.575867 112.0
273.593903 176.0
273.657684 132.0
273.703796 168.0
273.732758 140.0
273.79538 136.0
273.838806 144.0
273.891388 104.0
273.937195 92.0
273.990326 228.0
274.022552 304.0
274.064606 240.0
274.100494 804.0
274.158386 192.0
274.217712 108.0
274.248199 80.0
274.338348 216.0
274.372467 244.0
274.447266 56.0
274.502533 240.0
274.532776 292.0
274.576294 224.0
274.62323 48.0
274.662811 136.0
274.741028 184.0
274.790619 140.0
274.836853 128.0
274.847412 96.0
274.859436 128.0
274.89386 148.0
274.978241 120.0
275.019165 96.0
275.065277 340.0
275.106354 5800.0
275.173248 248.0
275.220551 272.0
275.279968 116.0
275.361053 248.0
275.463989 168.0
275.501373 144.0
275.575562 156.0
275.603699 136.0
275.636749 180.0
275.673706 140.0
275.714752 196.0
275.759003 124.0
275.815186 136.0
275.851562 188.0
275.903259 144.0
275.957336 64.0
276.0047 160.0
276.033295 120.0
276.110199 1304.0
276.154968 252.0
276.167267 120.0
276.177307 172.0
276.239502 176.0
276.286285 132.0
276.343292 216.0
276.356659 156.0
276.368195 200.0
276.393951 132.0
276.433655 52.0
276.466736 212.0
276.48822 128.0
276.529541 144.0
276.536591 176.0
276.569336 136.0
276.600464 156.0
276.641174 136.0
276.698456 148.0
276.724945 128.0
276.773376 152.0
276.812988 220.0
276.849243 156.0
276.946808 104.0
276.973297 176.0
277.08725 2896.0
277.205231 188.0
277.238373 76.0
277.299347 244.0
277.341309 136.0
277.381866 252.0
277.418549 76.0
277.468384 140.0
277.51712 120.0
277.55658 148.0
277.641846 128.0
277.692566 140.0
277.744385 156.0
277.770782 144.0
277.802002 136.0
277.845154 152.0
277.88092 148.0
277.90271 228.0
277.950439 180.0
277.971466 224.0
278.0336 116.0
278.051819 268.0
278.092499 3972.0
278.150574 140.0
278.183624 48.0
278.210175 120.0
278.259338 152.0
278.268036 132.0
278.308533 200.0
278.355255 168.0
278.380432 44.0
278.430939 240.0
278.51123 148.0
278.53894 120.0
278.568848 68.0
278.622253 152.0
278.665009 164.0
278.701721 184.0
278.729889 228.0
278.796906 100.0
278.809326 148.0
278.867889 172.0
278.892487 144.0
278.958862 76.0
278.984222 48.0
279.060638 776.0
279.098267 1284.0
279.141724 64.0
279.183716 164.0
279.226959 100.0
279.274384 152.0
279.298401 100.0
279.34671 76.0
279.37442 72.0
279.418488 48.0
279.504059 148.0
279.531494 244.0
279.57959 112.0
279.650421 144.0
279.716064 108.0
279.826813 132.0
279.838226 168.0
279.889191 140.0
279.965393 292.0
280.07489 892.0
280.147949 160.0
280.228912 96.0
280.2789 100.0
280.343872 212.0
280.368866 136.0
280.398865 184.0
280.460815 256.0
280.515533 128.0
280.547821 128.0
280.635529 140.0
280.672333 132.0
280.732239 140.0
280.770172 172.0
280.828705 176.0
280.884979 272.0
280.93158 136.0
280.955414 44.0
281.045441 644.0
281.079529 432.0
281.114166 404.0
281.172974 212.0
281.21933 128.0
281.244965 160.0
281.263519 108.0
281.311127 168.0
281.34137 92.0
281.425629 396.0
281.510406 188.0
281.548035 148.0
281.598206 264.0
281.658936 152.0
281.694031 240.0
281.730927 204.0
281.803711 140.0
281.826508 92.0
281.872742 108.0
281.895996 168.0
281.938812 156.0
281.967438 112.0
281.990845 188.0
282.054565 792.0
282.109741 148.0
282.141266 164.0
282.20813 108.0
282.23822 304.0
282.28894 192.0
282.323456 116.0
282.359589 304.0
282.4021 316.0
282.445557 148.0
282.485443 104.0
282.508667 172.0
282.594421 124.0
282.653381 176.0
282.684326 100.0
282.726624 172.0
282.756744 164.0
282.800232 96.0
282.823669 104.0
282.860504 132.0
282.891022 132.0
282.932709 184.0
282.98642 344.0
283.059814 6480.0
283.161652 148.0
283.198669 144.0
283.258972 84.0
283.309875 124.0
283.3414 92.0
283.407928 104.0
283.451752 140.0
283.484894 168.0
283.54422 224.0
283.579163 136.0
283.642975 180.0
283.678864 104.0
283.713043 180.0
283.735962 140.0
283.764038 168.0
283.811768 188.0
283.837769 148.0
283.878998 144.0
283.935242 88.0
283.984985 172.0
284.064667 1312.0
284.113953 88.0
284.141785 104.0
284.199127 92.0
284.321014 164.0
284.345306 108.0
284.372162 180.0
284.418304 112.0
284.496368 160.0
284.519867 180.0
284.587006 212.0
284.626801 192.0
284.743011 132.0
284.835724 128.0
284.872467 96.0
284.977264 228.0
285.01358 156.0
285.091888 1776.0
285.161438 140.0
285.248993 156.0
285.309967 220.0
285.358917 156.0
285.40683 128.0
285.453827 152.0
285.494415 220.0
285.548096 88.0
285.59552 116.0
285.618713 152.0
285.648987 188.0
285.675903 48.0
285.708862 200.0
285.721039 124.0
285.736755 128.0
285.784821 96.0
285.805664 296.0
285.872284 200.0
285.899261 72.0
285.969482 144.0
285.995575 184.0
286.030518 180.0
286.056152 264.0
286.098389 232.0
286.145386 152.0
286.172424 164.0
286.181335 108.0
286.194763 184.0
286.237946 44.0
286.28653 132.0
286.339905 116.0
286.395691 148.0
286.43869 100.0
286.480469 56.0
286.527618 96.0
286.557953 204.0
286.65033 172.0
286.719696 40.0
286.770233 204.0
286.820801 108.0
286.842957 84.0
286.945526 156.0
286.990021 204.0
287.00058 196.0
287.013428 228.0
287.038055 136.0
287.072418 308.0
287.105896 216.0
287.168213 116.0
287.215302 104.0
287.242279 84.0
287.28952 204.0
287.36972 140.0
287.375854 164.0
287.412598 200.0
287.456909 272.0
287.495605 100.0
287.559448 100.0
287.620209 76.0
287.678284 140.0
287.703949 108.0
287.731537 172.0
287.757996 168.0
287.80014 176.0
287.843018 164.0
287.880188 176.0
287.91394 84.0
287.960205 304.0
288.008118 200.0
288.022278 112.0
288.079773 1356.0
288.141998 156.0
288.177521 204.0
288.207367 316.0
288.267029 92.0
288.301178 160.0
288.35675 116.0
288.427856 148.0
288.46582 156.0
288.518524 168.0
288.584106 172.0
288.62323 96.0
288.649689 72.0
288.671417 140.0
288.699524 176.0
288.72998 164.0
288.772369 128.0
288.804657 176.0
288.869049 144.0
288.893494 160.0
288.958252 220.0
289.002411 280.0
289.086243 6196.0
289.178375 96.0
289.251221 176.0
289.292023 188.0
289.323944 204.0
289.378143 144.0
289.424194 144.0
289.494415 180.0
289.538391 164.0
289.577881 116.0
289.621918 64.0
289.65918 88.0
289.769867 184.0
289.790009 356.0
289.828583 80.0
289.855682 204.0
289.911469 60.0
289.991241 200.0
290.091248 1732.0
290.193787 196.0
290.286346 172.0
290.326874 136.0
290.376892 236.0
290.406494 128.0
290.505127 176.0
290.564301 120.0
290.633179 120.0
290.659302 124.0
290.709076 144.0
290.762482 96.0
290.828217 120.0
290.8974 156.0
290.909119 160.0
290.931793 172.0
290.986481 364.0
291.066315 4704.0
291.144867 280.0
291.202484 60.0
291.226257 128.0
291.290802 128.0
291.314575 156.0
291.359436 76.0
291.401154 156.0
291.440277 76.0
291.478668 128.0
291.517975 180.0
291.564301 136.0
291.619476 252.0
291.649506 212.0
291.729156 120.0
291.764648 136.0
291.777802 196.0
291.878967 116.0
291.94165 64.0
291.970551 164.0
292.008911 412.0
292.074585 6672.0
292.188263 52.0
292.265839 144.0
292.330597 120.0
292.403625 236.0
292.428741 172.0
292.45929 136.0
292.554626 92.0
292.58252 152.0
292.652283 160.0
292.705597 240.0
292.736237 140.0
292.784027 160.0
292.886566 208.0
292.926514 120.0
292.987915 108.0
293.035309 196.0
293.079437 3564.0
293.112823 2396.0
293.188904 132.0
293.234344 180.0
293.270844 196.0
293.339386 168.0
293.369965 144.0
293.421112 156.0
293.465424 120.0
293.501953 164.0
293.527893 252.0
293.574554 96.0
293.598419 184.0
293.624878 228.0
293.630585 84.0
293.644226 228.0
293.696472 80.0
293.752747 180.0
293.857605 252.0
293.879242 100.0
293.923065 72.0
293.953217 156.0
293.983368 140.0
294.048584 356.0
294.087769 576.0
294.124969 836.0
294.20578 84.0
294.237549 248.0
294.282684 128.0
294.291992 224.0
294.350372 112.0
294.383331 132.0
294.427246 120.0
294.471771 204.0
294.483673 176.0
294.540436 196.0
294.568298 148.0
294.60379 232.0
294.64679 144.0
294.694153 48.0
294.723816 148.0
294.756134 144.0
294.805145 164.0
294.843109 156.0
294.886871 360.0
294.91571 152.0
294.939819 160.0
294.968628 80.0
294.995117 260.0
295.062012 74740.0
295.18512 212.0
295.229706 132.0
295.262238 216.0
295.290466 124.0
295.356354 236.0
295.409424 76.0
295.421143 128.0
295.471649 316.0
295.522278 176.0
295.562622 144.0
295.630737 64.0
295.672119 260.0
295.729919 68.0
295.782684 92.0
295.816193 164.0
295.885162 180.0
295.966217 108.0
295.994415 168.0
296.063965 12432.0
296.146149 64.0
296.16925 140.0
296.201202 48.0
296.215546 56.0
296.258118 168.0
296.280182 144.0
296.341156 116.0
296.408386 112.0
296.440369 204.0
296.468201 184.0
296.494812 72.0
296.547729 296.0
296.585602 68.0
296.6203 96.0
296.656982 192.0
296.690125 180.0
296.733154 156.0
296.772156 268.0
296.803864 116.0
296.880157 176.0
296.934601 216.0
296.984924 184.0
297.008759 204.0
297.069153 2820.0
297.145569 68.0
297.183289 192.0
297.246674 240.0
297.309052 168.0
297.361755 224.0
297.424316 172.0
297.52121 300.0
297.54306 344.0
297.572845 72.0
297.615845 128.0
297.670715 80.0
297.728241 144.0
297.762238 104.0
297.811523 144.0
297.834076 128.0
297.866486 88.0
297.909393 204.0
297.952454 116.0
297.98288 240.0
298.002167 72.0
298.055481 208.0
298.078522 164.0
298.087769 104.0
298.145752 224.0
298.195953 184.0
298.240662 124.0
298.268188 296.0
298.273376 168.0
298.302887 116.0
298.368286 160.0
298.406006 132.0
298.443573 108.0
298.494446 140.0
298.524994 260.0
298.535614 156.0
298.548096 260.0
298.626099 116.0
298.66394 136.0
298.727905 180.0
298.759674 72.0
298.795898 84.0
298.831604 68.0
298.921967 340.0
298.952576 164.0
298.995483 124.0
299.042908 80.0
299.071411 160.0
299.105743 80.0
299.157135 144.0
299.198822 324.0
299.268982 176.0
299.314362 128.0
299.341919 196.0
299.36734 156.0
299.421936 120.0
299.495941 156.0
299.53244 112.0
299.558899 136.0
299.599396 148.0
299.634674 96.0
299.686371 208.0
299.720825 300.0
299.77124 132.0
299.784027 140.0
299.796631 140.0
299.831085 244.0
299.862122 180.0
299.91037 72.0
299.934479 152.0
300.025635 292.0
300.051697 132.0
300.087708 188.0
300.10144 196.0
300.162415 544.0
300.210297 148.0
300.241333 172.0
300.299194 88.0
300.355164 192.0
300.401276 208.0
300.457855 140.0
300.551819 136.0
300.612122 216.0
300.669342 296.0
300.696747 116.0
300.720886 148.0
300.80069 116.0
300.825623 164.0
300.887543 196.0
300.955658 120.0
300.992462 132.0
301.028168 140.0
301.062683 132.0
301.091461 368.0
301.16629 120.0
301.193939 96.0
301.246521 140.0
301.315094 196.0
301.366669 160.0
301.438354 112.0
301.473785 148.0
301.561798 144.0
301.589539 204.0
301.629303 76.0
301.667328 144.0
301.698456 144.0
301.733032 116.0
301.769806 232.0
301.798706 136.0
301.822906 160.0
301.862823 220.0
301.894196 116.0
301.92984 124.0
302.015289 204.0
302.053741 124.0
302.096466 780.0
302.162079 192.0
302.192719 176.0
302.208588 80.0
302.215179 136.0
302.251831 64.0
302.313446 168.0
302.341125 148.0
302.384399 140.0
302.421906 84.0
302.459473 124.0
302.498901 124.0
302.537415 132.0
302.604858 108.0
302.639496 120.0
302.742126 180.0
302.763336 232.0
302.788391 140.0
302.833405 224.0
302.889954 188.0
302.942596 184.0
302.991669 128.0
303.014832 376.0
303.102997 28420.0
303.163696 196.0
303.207458 164.0
303.259918 160.0
303.28598 136.0
303.335144 196.0
303.360718 256.0
303.394043 132.0
303.424286 132.0
303.468597 96.0
303.533813 292.0
303.555847 120.0
303.600037 192.0
303.663574 96.0
303.696442 104.0
303.761597 172.0
303.796661 180.0
303.843628 176.0
303.854279 312.0
303.904602 100.0
303.959595 264.0
304.027679 160.0
304.104492 8092.0
304.148895 152.0
304.181885 40.0
304.216431 336.0
304.267548 196.0
304.31311 88.0
304.326385 76.0
304.358215 196.0
304.434784 108.0
304.523804 172.0
304.563629 148.0
304.591217 244.0
304.630188 84.0
304.67804 212.0
304.692352 88.0
304.703918 196.0
304.739929 76.0
304.78418 136.0
304.831482 140.0
304.842896 132.0
304.850616 160.0
304.89325 180.0
304.918488 160.0
304.999969 96.0
305.081573 8552.0
305.166534 268.0
305.190582 148.0
305.227966 32.0
305.26416 128.0
305.310242 164.0
305.378174 148.0
305.452271 128.0
305.494476 140.0
305.527893 104.0
305.568237 136.0
305.598938 164.0
305.638641 120.0
305.682861 140.0
305.736786 204.0
305.798218 200.0
305.863647 156.0
305.897064 84.0
305.920319 88.0
305.960449 232.0
305.976715 132.0
306.003265 220.0
306.089478 11784.0
306.152618 192.0
306.195831 108.0
306.242523 292.0
306.303253 112.0
306.31601 108.0
306.353577 332.0
306.388245 120.0
306.418335 184.0
306.449677 452.0
306.517029 84.0
306.550171 148.0
306.559601 140.0
306.659576 332.0
306.750793 100.0
306.801086 164.0
306.840576 188.0
306.905273 352.0
306.995148 448.0
307.061829 14820.0
307.09729 14160.0
307.171326 156.0
307.225006 132.0
307.258545 268.0
307.280853 144.0
307.315857 240.0
307.352478 312.0
307.369568 68.0
307.399933 204.0
307.439087 68.0
307.469574 100.0
307.506409 308.0
307.57373 196.0
307.605286 248.0
307.646515 116.0
307.708557 244.0
307.738892 120.0
307.776123 148.0
307.826477 112.0
307.879852 180.0
307.926575 180.0
307.957092 308.0
307.980499 112.0
308.014069 196.0
308.064941 4860.0
308.099731 2592.0
308.147064 164.0
308.161926 144.0
308.202026 208.0
308.278076 132.0
308.313293 160.0
308.347992 104.0
308.393921 172.0
308.435913 284.0
308.470795 60.0
308.515747 92.0
308.545074 72.0
308.558228 28.0
308.566925 76.0
308.59967 56.0
308.638763 88.0
308.65387 184.0
308.720245 152.0
308.749268 92.0
308.791321 144.0
308.836517 44.0
308.846039 80.0
308.873169 248.0
308.929596 188.0
308.955719 212.0
308.964386 112.0
308.98172 132.0
308.998383 144.0
309.010895 132.0
309.024078 152.0
309.075684 2596.0
309.160645 148.0
309.197388 96.0
309.231079 140.0
309.305481 248.0
309.346313 180.0
309.397339 156.0
309.439056 92.0
309.477295 148.0
309.521088 152.0
309.558868 152.0
309.610748 144.0
309.639954 112.0
309.670044 364.0
309.706299 368.0
309.75061 68.0
309.76535 160.0
309.800385 92.0
309.83017 164.0
309.839783 96.0
309.899689 136.0
309.931946 188.0
309.965698 224.0
310.079254 612.0
310.143768 196.0
310.174713 172.0
310.205444 160.0
310.22937 120.0
310.259155 104.0
310.301147 204.0
310.343933 172.0
310.439056 224.0
310.464142 164.0
310.50061 144.0
310.532532 100.0
310.582886 136.0
310.628113 204.0
310.662811 204.0
310.698853 116.0
310.736206 152.0
310.785248 76.0
310.816833 84.0
310.865936 132.0
310.926727 228.0
310.967712 184.0
310.999298 168.0
311.035126 136.0
311.068634 172.0
311.127625 116.0
311.24939 120.0
311.303436 32.0
311.35614 188.0
311.400787 128.0
311.441711 168.0
311.578705 140.0
311.62677 100.0
311.63266 128.0
311.679657 88.0
311.714722 68.0
311.743866 88.0
311.768463 144.0
311.795776 196.0
311.880096 80.0
311.960846 168.0
312.021973 156.0
312.081299 184.0
312.117249 236.0
312.182098 132.0
312.211945 188.0
312.253021 144.0
312.306366 100.0
312.334503 68.0
312.373199 160.0
312.399384 164.0
312.524475 104.0
312.562439 224.0
312.585815 128.0
312.61145 100.0
312.616821 132.0
312.666412 160.0
312.719208 84.0
312.743774 148.0
312.777863 76.0
312.80603 100.0
312.858826 168.0
312.943329 140.0
312.967957 76.0
313.003174 132.0
313.085602 588.0
313.158142 52.0
313.215149 240.0
313.284943 88.0
313.321594 160.0
313.394165 132.0
313.443481 184.0
313.482422 148.0
313.516541 76.0
313.577393 188.0
313.62674 124.0
313.679626 152.0
313.732483 144.0
313.76474 136.0
313.810059 176.0
313.834106 172.0
313.902496 212.0
313.944244 140.0
314.038513 152.0
314.094849 468.0
314.154022 164.0
314.180359 60.0
314.223663 176.0
314.252838 144.0
314.280701 64.0
314.307068 48.0
314.339142 176.0
314.37796 108.0
314.430878 132.0
314.512054 120.0
314.566254 184.0
314.614014 232.0
314.776093 76.0
314.786194 80.0
314.822357 276.0
314.881561 172.0
314.980988 60.0
315.021027 148.0
315.070923 268.0
315.116608 124.0
315.178558 148.0
315.218384 124.0
315.259552 104.0
315.345612 140.0
315.388031 92.0
315.427917 132.0
315.471588 144.0
315.583496 144.0
315.615143 272.0
315.640533 108.0
315.677429 168.0
315.730316 172.0
315.768524 84.0
315.817963 168.0
315.858307 208.0
315.894257 96.0
315.937653 112.0
316.072357 348.0
316.166107 120.0
316.197052 168.0
316.274353 172.0
316.357452 148.0
316.417572 224.0
316.449829 160.0
316.503174 204.0
316.544891 124.0
316.576782 168.0
316.646149 124.0
316.673798 120.0
316.708923 76.0
316.764191 152.0
316.826172 212.0
316.873383 200.0
316.896759 188.0
316.943909 168.0
316.980194 144.0
317.009338 168.0
317.081573 4920.0
317.160828 80.0
317.189697 96.0
317.22644 100.0
317.28186 364.0
317.309753 424.0
317.359863 112.0
317.425293 160.0
317.458344 160.0
317.483978 192.0
317.51236 148.0
317.53717 76.0
317.601013 148.0
317.637451 284.0
317.68988 236.0
317.723236 132.0
317.774841 320.0
317.79895 140.0
317.843842 144.0
317.908447 148.0
317.940399 116.0
317.951141 76.0
318.000092 184.0
318.083282 1092.0
318.159515 216.0
318.190643 184.0
318.23941 192.0
318.280334 132.0
318.325012 76.0
318.36676 136.0
318.404022 120.0
318.451721 124.0
318.491943 184.0
318.528625 48.0
318.589935 68.0
318.597015 48.0
318.644684 156.0
318.688843 196.0
318.760864 144.0
318.86261 172.0
318.957397 84.0
318.99295 156.0
319.062012 1112.0
319.097076 1656.0
319.178101 152.0
319.224701 88.0
319.262573 144.0
319.3414 140.0
319.405426 52.0
319.513 132.0
319.569092 160.0
319.607147 172.0
319.707855 92.0
319.751312 204.0
319.789703 120.0
319.82074 140.0
319.857086 148.0
319.979187 244.0
320.068115 3364.0
320.103943 1616.0
320.145569 92.0
320.157043 160.0
320.188446 184.0
320.234772 136.0
320.319061 72.0
320.333588 48.0
320.400055 140.0
320.443176 180.0
320.49646 164.0
320.526886 112.0
320.573212 232.0
320.631805 72.0
320.665863 92.0
320.729645 148.0
320.735321 132.0
320.779907 56.0
320.804871 80.0
320.833405 32.0
320.858337 160.0
320.925537 132.0
320.976868 204.0
320.987946 152.0
321.021973 260.0
321.075897 11944.0
321.111328 5380.0
321.181061 156.0
321.223419 320.0
321.299683 220.0
321.383148 140.0
321.416351 124.0
321.442627 84.0
321.469696 100.0
321.506042 116.0
321.558411 156.0
321.675629 168.0
321.683655 128.0
321.700256 108.0
321.746674 136.0
321.78595 120.0
321.872009 200.0
321.910919 136.0
321.93457 96.0
322.013611 148.0
322.02124 112.0
322.037598 136.0
322.079315 2548.0
322.114624 1768.0
322.15863 80.0
322.278839 56.0
322.323212 172.0
322.393188 228.0
322.464661 84.0
322.527527 168.0
322.582733 216.0
322.648315 148.0
322.679138 84.0
322.711304 200.0
322.7435 116.0
322.791473 172.0
322.832977 132.0
322.861481 84.0
322.907349 144.0
322.940186 200.0
322.987213 132.0
323.015289 144.0
323.082489 668.0
323.125122 496.0
323.246307 236.0
323.299774 148.0
323.322113 308.0
323.38382 112.0
323.482361 236.0
323.526123 164.0
323.566406 220.0
323.652313 196.0
323.704437 116.0
323.717621 152.0
323.782715 288.0
323.852875 188.0
323.87793 152.0
323.936157 164.0
324.017242 120.0
324.085724 108.0
324.115356 160.0
324.144379 224.0
324.208344 108.0
324.276001 160.0
324.318665 32.0
324.379578 168.0
324.456512 88.0
324.492493 204.0
324.55246 292.0
324.577454 128.0
324.637726 132.0
324.723083 160.0
324.808655 196.0
324.852051 80.0
324.8591 100.0
324.916199 76.0
324.947021 164.0
324.985107 148.0
325.039062 196.0
325.08017 72.0
325.159729 100.0
325.189209 144.0
325.251251 160.0
325.296295 36.0
325.318542 132.0
325.349915 156.0
325.394836 324.0
325.4487 140.0
325.486511 56.0
325.523438 112.0
325.558563 160.0
325.707245 116.0
325.757385 96.0
325.799408 300.0
325.834778 128.0
325.897644 152.0
325.922821 152.0
325.99469 232.0
326.047394 168.0
326.071899 84.0
326.098907 204.0
326.160004 132.0
326.195618 88.0
326.229492 404.0
326.278381 124.0
326.321777 156.0
326.354126 96.0
326.465607 180.0
326.505157 156.0
326.537109 140.0
326.589996 68.0
326.642578 96.0
326.688599 132.0
326.730957 132.0
326.811035 136.0
326.861847 152.0
326.933258 48.0
326.996002 136.0
327.026825 172.0
327.090942 108.0
327.127625 152.0
327.167786 76.0
327.223541 268.0
327.250031 388.0
327.28244 116.0
327.344116 124.0
327.38324 140.0
327.415649 96.0
327.446289 96.0
327.527313 92.0
327.559723 172.0
327.606567 56.0
327.743469 76.0
327.798645 116.0
327.878693 76.0
327.914154 348.0
327.959686 80.0
328.013763 180.0
328.054474 172.0
328.120239 120.0
328.202698 128.0
328.272766 172.0
328.306396 72.0
328.370728 152.0
328.4552 296.0
328.482544 140.0
328.54425 152.0
328.576233 160.0
328.614807 228.0
328.655701 276.0
328.693695 140.0
328.749512 184.0
328.782013 176.0
328.808929 196.0
328.862213 36.0
328.890289 172.0
328.978333 132.0
329.024109 256.0
329.055267 68.0
329.089264 248.0
329.130341 76.0
329.153809 172.0
329.209656 148.0
329.257751 220.0
329.297791 228.0
329.358398 248.0
329.4086 112.0
329.449127 168.0
329.501282 156.0
329.538818 360.0
329.584534 276.0
329.613373 144.0
329.640839 184.0
329.69928 116.0
329.727081 80.0
329.765167 248.0
329.816498 236.0
329.830872 156.0
329.890869 100.0
329.944946 156.0
329.977264 184.0
330.03064 268.0
330.088684 880.0
330.19223 140.0
330.241364 176.0
330.246582 164.0
330.261047 180.0
330.310486 176.0
330.34848 276.0
330.382324 240.0
330.421295 200.0
330.467377 108.0
330.478088 212.0
330.557983 96.0
330.606354 272.0
330.695587 252.0
330.723511 148.0
330.764252 276.0
330.807709 248.0
330.81424 172.0
330.855011 316.0
330.881744 412.0
330.91394 252.0
330.978912 544.0
331.026611 652.0
331.040222 1272.0
331.099213 227732.0
331.190308 340.0
331.22702 68.0
331.25415 228.0
331.280823 332.0
331.347382 388.0
331.3927 396.0
331.405426 364.0
331.433868 160.0
331.456635 244.0
331.485229 240.0
331.525024 80.0
331.568451 144.0
331.62677 328.0
331.633209 120.0
331.695801 1508.0
331.730377 196.0
331.760864 192.0
331.794342 184.0
331.831726 328.0
331.86554 352.0
331.888947 208.0
331.897095 212.0
331.912323 236.0
331.950562 428.0
332.009705 304.0
332.101868 58692.0
332.249664 92.0
332.257324 60.0
332.291718 108.0
332.337189 188.0
332.387756 188.0
332.446564 224.0
332.479767 184.0
332.523804 204.0
332.550385 164.0
332.586456 212.0
332.628143 108.0
332.696289 324.0
332.73288 80.0
332.769073 144.0
332.825012 160.0
332.853577 140.0
332.919128 184.0
332.992615 208.0
333.021515 236.0
333.07724 26148.0
333.25177 376.0
333.297913 240.0
333.336731 228.0
333.409119 152.0
333.438446 152.0
333.467773 240.0
333.496033 108.0
333.52713 76.0
333.56955 44.0
333.598572 188.0
333.618439 128.0
333.68161 124.0
333.691559 164.0
333.756378 248.0
333.828064 224.0
333.914093 428.0
333.973145 172.0
333.999512 248.0
334.085144 46184.0
334.145233 380.0
334.200195 192.0
334.238281 136.0
334.262024 112.0
334.312958 136.0
334.344177 380.0
334.401489 252.0
334.426758 204.0
334.463745 116.0
334.478302 112.0
334.504791 472.0
334.555328 204.0
334.596985 304.0
334.640442 124.0
334.707458 184.0
334.733643 164.0
334.7547 88.0
334.768372 88.0
334.778992 140.0
334.805328 132.0
334.867523 64.0
334.935089 128.0
334.969574 192.0
335.009949 56.0
335.087219 11652.0
335.140991 316.0
335.17337 40.0
335.183716 104.0
335.210846 212.0
335.266296 120.0
335.300659 160.0
335.324707 276.0
335.372711 136.0
335.41153 184.0
335.449371 168.0
335.484985 80.0
335.584198 144.0
335.623535 92.0
335.687347 112.0
335.728973 216.0
335.782074 92.0
335.875366 156.0
335.928162 208.0
336.001953 296.0
336.043427 212.0
336.090729 2032.0
336.207733 200.0
336.299805 144.0
336.35318 148.0
336.394104 56.0
336.432129 172.0
336.467468 92.0
336.478638 108.0
336.521484 156.0
336.544556 152.0
336.594208 100.0
336.62442 428.0
336.663513 60.0
336.703491 144.0
336.760803 56.0
336.829803 76.0
336.914124 164.0
336.989044 136.0
337.020416 244.0
337.098328 376.0
337.13623 104.0
337.188812 132.0
337.228058 76.0
337.291046 232.0
337.334625 200.0
337.3927 112.0
337.444214 116.0
337.472839 124.0
337.556671 204.0
337.596222 120.0
337.668518 60.0
337.705109 112.0
337.741669 68.0
337.800201 124.0
337.85141 124.0
337.890381 172.0
337.948517 88.0
337.963623 48.0
337.992584 172.0
338.017883 80.0
338.040558 132.0
338.086639 168.0
338.123505 144.0
338.167114 112.0
338.218567 156.0
338.263824 160.0
338.321564 68.0
338.358582 136.0
338.394531 120.0
338.402588 120.0
338.477051 84.0
338.503876 172.0
338.546844 192.0
338.58078 168.0
338.616425 60.0
338.71167 124.0
338.737305 80.0
338.799561 204.0
338.849274 72.0
338.90683 176.0
338.970459 176.0
339.001099 260.0
339.08136 236.0
339.129364 64.0
339.166016 96.0
339.231995 136.0
339.270081 84.0
339.316315 148.0
339.365417 168.0
339.433655 64.0
339.48642 132.0
339.547333 64.0
339.59433 152.0
339.618103 200.0
339.657349 148.0
339.74173 128.0
339.800415 56.0
339.827728 264.0
339.910492 88.0
339.936188 112.0
340.021423 124.0
340.068298 208.0
340.139221 124.0
340.193115 192.0
340.281219 208.0
340.428101 108.0
340.512543 128.0
340.556641 128.0
340.607056 104.0
340.651642 120.0
340.721802 196.0
340.737122 112.0
340.788055 184.0
340.824799 188.0
340.854187 204.0
340.941132 100.0
340.968109 68.0
341.00412 176.0
341.102417 104.0
341.126892 156.0
341.155579 172.0
341.181305 60.0
341.269562 116.0
341.294708 76.0
341.421173 200.0
341.468109 132.0
341.526642 180.0
341.578461 244.0
341.62262 92.0
341.674103 92.0
341.72406 188.0
341.790283 180.0
341.946411 188.0
341.972168 128.0
342.042114 64.0
342.067871 356.0
342.104675 172.0
342.145172 60.0
342.196716 96.0
342.231171 328.0
342.264832 128.0
342.304901 136.0
342.402924 84.0
342.476593 124.0
342.509735 132.0
342.601837 132.0
342.629364 84.0
342.664459 112.0
342.692444 148.0
342.770752 108.0
342.865906 276.0
342.900299 56.0
342.927948 92.0
342.987244 176.0
343.045532 100.0
343.069855 260.0
343.10144 148.0
343.147278 104.0
343.191498 120.0
343.217316 132.0
343.287567 152.0
343.329254 176.0
343.386383 184.0
343.438599 80.0
343.516754 84.0
343.579468 156.0
343.627655 208.0
343.67038 144.0
343.723938 172.0
343.820435 104.0
343.915131 80.0
343.989624 120.0
344.033752 224.0
344.072266 204.0
344.110199 76.0
344.13974 172.0
344.191437 48.0
344.22467 148.0
344.27475 144.0
344.357635 64.0
344.421722 292.0
344.464752 92.0
344.496918 236.0
344.548065 224.0
344.616211 156.0
344.65329 168.0
344.682709 184.0
344.74707 164.0
344.797272 112.0
344.845428 152.0
344.880371 132.0
344.911316 60.0
344.974701 204.0
345.048096 340.0
345.111237 300.0
345.144897 96.0
345.185425 72.0
345.250519 172.0
345.286346 84.0
345.333496 120.0
345.429535 88.0
345.496124 144.0
345.571686 132.0
345.629456 300.0
345.690216 168.0
345.720703 268.0
345.784729 80.0
345.821747 76.0
345.855652 152.0
345.958405 100.0
346.000336 236.0
346.077942 140.0
346.12677 124.0
346.188416 128.0
346.21167 304.0
346.267792 328.0
346.298492 136.0
346.345886 476.0
346.372559 116.0
346.4216 144.0
346.451233 72.0
346.493591 248.0
346.553162 216.0
346.589752 156.0
346.621674 280.0
346.665588 84.0
346.720062 144.0
346.742004 212.0
346.768341 48.0
346.829529 220.0
346.860718 76.0
346.888184 492.0
346.939911 284.0
346.945801 352.0
347.02417 236.0
347.089355 396.0
347.172058 356.0
347.213654 72.0
347.262482 256.0
347.303253 136.0
347.366058 276.0
347.391266 160.0
347.400299 216.0
347.43515 224.0
347.464569 224.0
347.552094 168.0
347.603058 188.0
347.620911 356.0
347.6362 364.0
347.691254 276.0
347.717041 244.0
347.756531 232.0
347.78949 412.0
347.827484 224.0
347.861237 420.0
347.910187 296.0
347.946869 576.0
347.991791 248.0
348.029327 272.0
348.089447 1176.0
348.116943 620.0
348.1716 384.0
348.199036 308.0
348.270447 516.0
348.296204 376.0
348.323517 340.0
348.347351 464.0
348.421143 424.0
348.501099 280.0
348.548126 448.0
348.565826 368.0
348.640717 840.0
348.696228 1152.0
348.726105 532.0
348.776367 436.0
348.792358 508.0
348.815948 300.0
348.883942 688.0
348.936798 684.0
348.946228 844.0
348.977509 952.0
348.983276 1396.0
349.024048 1588.0
349.110413 448728.0
349.243591 248.0
349.298187 52.0
349.30954 164.0
349.326874 252.0
349.367188 296.0
349.38623 280.0
349.398438 424.0
349.46286 1188.0
349.521027 468.0
349.578705 332.0
349.668152 380.0
349.724426 14088.0
349.779388 780.0
349.791565 508.0
349.825714 380.0
349.873383 516.0
349.917572 560.0
349.953857 456.0
350.026306 720.0
350.112732 244444.0
350.220825 72.0
350.269379 184.0
350.343048 356.0
350.379364 588.0
350.411072 164.0
350.427826 236.0
350.467438 328.0
350.546478 256.0
350.580719 240.0
350.617615 280.0
350.653351 320.0
350.680359 324.0
350.723785 744.0
350.775513 184.0
350.858002 144.0
350.871368 220.0
350.921173 108.0
350.932373 284.0
350.969482 292.0
350.996246 352.0
351.04718 312.0
351.114502 29308.0
351.202179 192.0
351.218384 156.0
351.242859 88.0
351.267426 256.0
351.330231 176.0
351.354675 304.0
351.378601 92.0
351.412415 156.0
351.459015 172.0
351.516327 148.0
351.546478 200.0
351.578217 128.0
351.592896 140.0
351.626953 220.0
351.656799 112.0
351.66568 64.0
351.682617 92.0
351.710358 292.0
351.767944 260.0
351.826752 248.0
351.863037 204.0
351.925354 260.0
351.976379 192.0
352.008057 252.0
352.054016 432.0
352.115845 2900.0
352.172607 312.0
352.204651 472.0
352.243347 200.0
352.301575 408.0
352.32843 312.0
352.356628 444.0
352.422119 372.0
352.434357 560.0
352.443329 288.0
352.450684 384.0
352.45874 660.0
352.500397 792.0
352.540649 276.0
352.552673 236.0
352.593262 220.0
352.633484 248.0
352.646027 204.0
352.65863 264.0
352.739594 316.0
352.785156 128.0
352.830475 596.0
352.92395 184.0
352.994812 120.0
353.014526 144.0
353.056091 180.0
353.095184 140.0
353.1409 124.0
353.186127 132.0
353.228271 100.0
353.255859 160.0
353.303802 136.0
353.338928 84.0
353.374451 160.0
353.409241 72.0
353.43988 396.0
353.474091 276.0
353.524078 356.0
353.564178 336.0
353.615479 120.0
353.660736 100.0
353.687103 252.0
353.69519 132.0
353.711029 308.0
353.78418 144.0
353.81897 124.0
353.876556 76.0
353.905029 148.0
353.956818 268.0
353.98407 164.0
354.029144 84.0
354.070221 52.0
354.134521 108.0
354.175385 76.0
354.223846 96.0
354.284424 80.0
354.324219 88.0
354.364746 176.0
354.43808 48.0
354.464569 196.0
354.475647 120.0
354.487823 68.0
354.544403 124.0
354.57132 280.0
354.658752 52.0
354.730835 116.0
354.757568 44.0
354.785767 120.0
354.86438 52.0
354.895691 112.0
355.004791 52.0
355.054718 64.0
355.098633 88.0
355.171722 56.0
355.206146 128.0
355.233887 56.0
355.251465 52.0
355.26059 88.0
355.316254 36.0
355.362701 128.0
355.395966 60.0
355.452881 92.0
355.494385 88.0
355.551819 48.0
355.592194 188.0
355.643158 100.0
355.716034 124.0
355.751099 52.0
355.783905 36.0
355.81958 44.0
355.849609 76.0
355.89624 96.0
355.962006 76.0
355.975067 68.0
355.987762 76.0
356.06366 60.0
356.11322 40.0
356.159058 120.0
356.214905 72.0
356.27533 56.0
356.360413 32.0
356.386719 64.0
356.413025 28.0
356.47464 60.0
356.518219 124.0
356.578369 56.0
356.617554 124.0
356.64978 44.0
356.67984 76.0
356.728699 64.0
356.77005 120.0
356.807648 56.0
356.848999 52.0
356.958038 96.0
357.044556 92.0
357.104706 88.0
357.162598 72.0
357.227417 52.0
357.299561 80.0
357.341705 36.0
357.37796 44.0
357.413208 76.0
357.469635 48.0
357.552429 88.0
357.687927 40.0
357.736847 72.0
357.797089 52.0
357.827209 72.0
357.878815 136.0
357.928864 36.0
357.989136 56.0
358.038086 64.0
358.091949 92.0
358.126099 140.0
358.179047 48.0
358.207916 44.0
358.24826 120.0
358.277374 68.0
358.324341 48.0
358.403473 72.0
358.433624 40.0
358.459991 80.0
358.588135 60.0
358.644653 88.0
358.691956 80.0
358.753967 156.0
358.800812 44.0
358.848236 44.0
358.913086 112.0
358.993835 84.0
359.085785 56.0
359.127289 52.0
359.217804 72.0
359.32132 104.0
359.646454 60.0
359.693268 44.0
359.74234 112.0
359.851807 120.0
359.878235 80.0
359.959412 92.0
360.040985 40.0
360.176575 96.0
360.206787 72.0
360.274811 68.0
360.308807 60.0
360.412079 96.0
360.452362 156.0
360.546143 152.0
360.573303 84.0
360.645264 92.0
360.774658 104.0
360.875122 52.0
360.884644 44.0
360.919861 220.0
360.955109 100.0
360.996704 28.0
361.029633 68.0
361.152863 56.0
361.246338 36.0
361.280365 88.0
361.310638 84.0
361.34848 124.0
361.400391 72.0
361.490997 84.0
361.518738 116.0
361.557922 96.0
361.632294 96.0
361.689056 104.0
361.734497 96.0
361.806396 68.0
361.901062 44.0
361.942719 44.0
361.969208 68.0
362.116913 40.0
362.302521 64.0
362.349884 40.0
362.395447 104.0
362.457855 84.0
362.548798 124.0
362.57901 80.0
362.590698 76.0
362.605316 132.0
362.639771 164.0
362.757996 100.0
362.879333 140.0
362.927856 64.0
362.980957 236.0
363.030243 68.0
363.130188 380.0
363.174347 48.0
363.270233 104.0
363.447113 84.0
363.479187 68.0
363.515808 184.0
363.565125 104.0
363.606873 124.0
363.692566 56.0
363.748871 148.0
363.808167 156.0
363.846832 76.0
363.902008 204.0
363.974335 108.0
364.052856 92.0
364.125122 156.0
364.358704 68.0
364.404297 52.0
364.484955 116.0
364.522095 108.0
364.555908 160.0
364.633331 44.0
364.689301 44.0
364.715912 68.0
364.773956 120.0
364.851135 116.0
364.954163 72.0
364.964294 108.0
365.004852 44.0
365.080902 56.0
365.130341 32.0
365.182159 268.0
365.244904 100.0
365.282471 120.0
365.352142 64.0
365.416199 80.0
365.478821 112.0
365.531738 124.0
365.618896 96.0
365.65918 72.0
365.689606 56.0
365.732605 108.0
365.841858 40.0
365.914215 76.0
365.971313 32.0
366.005127 68.0
366.01651 60.0
366.032745 60.0
366.075867 944.0
366.152557 60.0
366.226471 88.0
366.442749 128.0
366.512177 132.0
366.550293 92.0
366.596466 68.0
366.715973 92.0
366.74881 84.0
366.901886 32.0
366.970398 108.0
367.024261 84.0
367.075165 164.0
367.110626 76.0
367.202545 40.0
367.264771 96.0
367.35141 120.0
367.392883 56.0
367.446289 32.0
367.480621 84.0
367.525238 64.0
367.553131 80.0
367.682861 132.0
367.77829 88.0
367.881348 48.0
368.017975 76.0
368.065063 100.0
368.095154 132.0
368.140991 80.0
368.32431 180.0
368.42807 72.0
368.469482 40.0
368.561157 80.0
368.608368 112.0
368.756073 36.0
368.786652 120.0
368.905121 88.0
369.004517 72.0
369.074249 92.0
369.120911 52.0
369.161285 28.0
369.201294 88.0
369.552094 96.0
369.631805 64.0
369.673889 36.0
369.721436 60.0
369.800201 84.0
369.892059 64.0
369.995422 60.0
370.1409 52.0
370.167725 44.0
370.244293 40.0
370.294098 44.0
370.378357 40.0
370.66568 76.0
370.884125 64.0
370.927765 84.0
370.9953 40.0
371.213837 56.0
371.267517 56.0
371.302032 60.0
371.332733 112.0
371.371063 84.0
371.443939 44.0
371.585907 52.0
371.643433 140.0
371.789246 84.0
371.850677 72.0
371.877533 36.0
372.104004 52.0
372.169281 188.0
372.309235 108.0
372.349762 40.0
372.434265 92.0
372.461151 28.0
372.594147 116.0
372.67627 48.0
372.768494 60.0
372.941437 104.0
373.248993 160.0
373.752869 68.0
373.791351 96.0
374.014587 76.0
374.130066 36.0
374.18396 84.0
374.337982 80.0
374.590607 108.0
374.66922 76.0
375.007721 116.0
375.042999 60.0
375.104675 128.0
375.131653 48.0
375.17514 232.0
375.347534 52.0
375.524933 48.0
375.551941 112.0
375.598236 88.0
375.903015 116.0
376.095978 36.0
376.381653 44.0
376.495758 44.0
376.536133 76.0
376.640411 84.0
376.736969 56.0
376.794922 72.0
377.096344 84.0
377.285736 76.0
377.351471 52.0
377.393982 60.0
377.780731 48.0
377.827148 40.0
377.89679 72.0
378.310883 148.0
378.705841 104.0
378.775574 64.0
378.917328 108.0
379.077759 124.0
379.310303 56.0
379.527405 88.0
379.667023 72.0
380.206268 44.0
380.44101 108.0
380.559479 40.0
380.839081 76.0
381.169312 92.0
381.212067 48.0
381.503571 56.0
382.133575 36.0
383.052338 96.0
383.07959 48.0
383.192566 56.0
383.707031 68.0
383.781097 120.0
383.964386 40.0
384.124298 80.0
384.600342 44.0
384.657623 112.0
384.951721 92.0
385.008698 88.0
386.053711 128.0
386.640503 44.0
386.844025 36.0
387.040985 64.0
387.592072 84.0
387.987946 28.0
388.380066 108.0
389.141388 144.0
389.341644 92.0
389.589081 52.0
389.889679 88.0
390.194305 120.0
390.331909 148.0
390.394836 44.0
390.465607 156.0
391.264404 80.0
391.681824 60.0
392.036407 92.0
394.115936 72.0
394.329315 64.0
394.704865 56.0
395.064789 72.0
395.503998 92.0
395.82074 40.0
396.018738 56.0
396.096069 92.0
396.256409 84.0
396.690491 68.0
397.477631 68.0
399.086273 36.0
399.249329 112.0
399.316925 64.0
399.5914 112.0
399.750549 92.0
400.108765 64.0
400.184418 48.0
400.76593 116.0
401.252167 68.0
402.441101 68.0
402.973175 76.0
403.435913 100.0
403.595825 40.0
403.62381 56.0
404.183807 172.0
404.3479 48.0
404.415924 28.0
404.560028 64.0
404.780243 60.0
404.812256 88.0
404.888367 72.0
405.116669 140.0
405.171112 4716.0
405.274139 144.0
405.345032 104.0
405.450104 76.0
405.505341 108.0
405.575775 84.0
405.62558 132.0
405.773895 76.0
405.834045 92.0
406.018494 72.0
406.118774 76.0
406.172913 1468.0
406.684509 96.0
406.824982 44.0
407.170776 268.0
407.547913 108.0
407.616211 92.0
407.656403 52.0
407.780975 68.0
408.082458 60.0
408.178955 144.0
408.452454 56.0
408.673706 136.0
409.225098 64.0
409.674774 80.0
409.752716 80.0
409.801056 48.0
409.847595 104.0
410.135529 48.0
410.178101 72.0
410.579041 76.0
410.849274 48.0
410.970673 88.0
411.034882 52.0
411.268951 104.0
411.402161 124.0
411.805939 68.0
411.951355 92.0
412.391785 80.0
412.5737 56.0
412.723267 72.0
412.905243 56.0
413.325958 48.0
413.937195 88.0
413.969574 92.0
414.131561 44.0
414.244995 44.0
414.755554 60.0
415.315094 100.0
415.708618 32.0
415.875031 48.0
416.605927 68.0
416.711548 68.0
416.918793 96.0
417.16864 136.0
417.885284 116.0
418.020813 72.0
418.19989 112.0
418.464508 48.0
418.790283 88.0
418.896179 96.0
419.67865 88.0
420.041626 108.0
421.556305 76.0
421.973236 64.0
422.001862 156.0
422.116333 64.0
422.161316 92.0
422.32901 48.0
423.110565 40.0
423.851898 92.0
423.925659 64.0
424.114197 72.0
426.11264 84.0
426.766144 80.0
426.951202 68.0
427.025208 32.0
427.185638 84.0
427.383118 80.0
427.436584 44.0
427.580627 44.0
428.964569 76.0
429.236664 96.0
429.636749 112.0
429.715118 112.0
430.239258 96.0
430.321838 108.0
430.54892 128.0
430.937225 112.0
432.148651 76.0
432.293457 76.0
432.674255 128.0
432.955811 96.0
433.125641 40.0
433.2789 52.0
433.419769 112.0
433.626984 68.0
433.788605 112.0
433.946167 80.0
434.128601 60.0
434.966675 76.0
435.016479 72.0
435.077728 104.0
435.149323 76.0
435.444153 68.0
436.819946 92.0
437.052917 88.0
437.223541 96.0
437.335907 64.0
437.510742 68.0
437.852173 48.0
437.885498 80.0
438.277069 48.0
438.372925 64.0
438.460419 116.0
438.556274 124.0
438.960663 36.0
439.640625 48.0
440.166595 68.0
440.321136 44.0
440.431213 112.0
440.655304 88.0
440.997955 48.0
441.048126 52.0
441.16098 92.0
441.537292 88.0
441.677277 76.0
442.541565 72.0
442.608551 60.0
442.683929 52.0
443.09021 52.0
444.26825 64.0
444.943909 100.0
445.288239 92.0
445.414246 56.0
445.473053 116.0
445.628479 96.0
446.02771 48.0
446.187469 28.0
446.279968 120.0
446.431335 44.0
446.662659 76.0
447.049713 48.0
447.495911 52.0
447.697998 40.0
448.578583 88.0
448.730347 48.0
449.489563 84.0
450.211426 68.0
450.55777 80.0
450.587341 40.0
450.88736 40.0
450.950745 88.0
451.21283 52.0
451.310059 80.0
451.766815 100.0
451.940277 52.0
452.558228 48.0
452.908386 88.0
453.003723 100.0
453.587677 112.0
453.689423 48.0
454.032867 52.0
455.148926 36.0
455.424957 44.0
455.871033 40.0
456.164307 56.0
456.289703 88.0
456.500183 32.0
457.751251 56.0
458.30072 64.0
459.072266 120.0
459.803345 96.0
460.164581 48.0
460.437866 60.0
460.681335 80.0
460.899231 48.0
460.997498 56.0
461.613068 60.0
461.694305 120.0
461.869659 52.0
462.10495 32.0
462.982452 100.0
463.162323 36.0
463.556488 56.0
463.916504 96.0
463.997955 104.0
464.967377 136.0
465.087555 76.0
465.164795 84.0
465.280701 120.0
465.327942 52.0
466.019409 120.0
466.366058 96.0
466.801727 112.0
466.836121 40.0
466.98233 44.0
467.012451 76.0
467.164062 112.0
467.66214 88.0
467.861176 84.0
467.937622 68.0
468.428589 44.0
468.484589 32.0
468.656921 84.0
468.756012 124.0
469.113739 84.0
469.393982 52.0
469.824799 108.0
470.204987 72.0
470.390594 112.0
470.727356 68.0
470.969208 68.0
471.453064 116.0
471.881012 80.0
471.963165 84.0
472.183685 60.0
472.685516 32.0
472.75473 112.0
473.066376 120.0
473.222229 56.0
474.756134 64.0
475.445923 52.0
475.858276 76.0
475.936432 64.0
476.319641 84.0
476.348297 120.0
476.418518 112.0
476.614014 120.0
476.913879 84.0
477.548676 52.0
478.102936 84.0
479.002472 92.0
479.333557 68.0
479.586334 104.0
479.74762 72.0
480.209808 44.0
480.44101 84.0
480.947174 116.0
481.196014 124.0
481.252777 76.0
481.606506 68.0
482.104553 84.0
482.677185 92.0
483.220032 72.0
483.722809 52.0
483.841003 76.0
483.91983 56.0
484.37088 92.0
484.769562 76.0
485.150879 100.0
485.365723 40.0
485.492889 100.0
485.79007 116.0
485.975403 100.0
486.620575 32.0
486.87088 128.0
487.17395 40.0
487.362854 80.0
487.868286 52.0
487.916626 124.0
488.08371 112.0
488.13208 48.0
488.426727 60.0
488.475128 112.0
489.258423 48.0
489.993896 88.0
490.796051 52.0
491.695953 92.0
492.627594 56.0
492.830811 44.0
493.290436 84.0
493.737 52.0
493.79892 112.0
494.701569 144.0
494.958344 84.0
494.993774 88.0
496.2211 100.0
496.34082 36.0
496.482727 80.0
496.864197 72.0
497.645294 92.0
497.703033 68.0
497.845123 56.0
498.52478 84.0
498.578125 88.0
498.87146 84.0
499.213837 44.0
499.262756 92.0
499.947845 48.0
500.223785 32.0
500.263855 48.0
500.757446 108.0
501.069916 60.0
501.212494 100.0
501.363983 80.0
501.484314 44.0
501.71167 88.0
502.387421 128.0
503.157104 96.0
503.438385 100.0
503.818054 64.0
503.880585 80.0
503.911865 128.0
504.028046 56.0
504.157623 96.0
504.260406 96.0
504.479431 96.0
505.382843 44.0
505.534973 96.0
505.597626 44.0
505.682648 72.0
505.884094 112.0
505.942291 96.0
506.210907 40.0
506.29541 60.0
506.607697 136.0
506.851471 60.0
507.792877 80.0
508.349152 108.0
508.456848 40.0
508.730652 104.0
508.833923 108.0
509.009033 140.0
509.310303 92.0
509.62439 108.0
510.276093 56.0
510.451447 76.0
510.685303 92.0
511.175659 80.0
511.702271 64.0
512.031006 88.0
512.562561 72.0
512.868103 116.0
513.369446 100.0
513.531799 36.0
513.766357 40.0
513.865601 84.0
514.023499 60.0
514.198425 84.0
514.303345 72.0
514.343933 56.0
514.456787 180.0
514.891724 148.0
515.441406 52.0
515.527222 52.0
515.798401 40.0
516.213257 164.0
517.060303 36.0
517.128235 120.0
517.72583 108.0
517.920532 80.0
518.183289 72.0
518.346436 100.0
518.464233 40.0
518.917542 76.0
518.986023 104.0
519.239441 48.0
519.298401 88.0
519.588745 64.0
519.842834 52.0
520.106079 76.0
520.201355 92.0
520.510132 104.0
520.750793 60.0
520.996094 84.0
521.177795 96.0
521.314148 48.0
521.350464 96.0
521.664124 48.0
521.786865 84.0
522.255188 120.0
523.134277 128.0
524.053345 116.0
524.417908 56.0
524.509094 44.0
524.814514 68.0
525.936768 100.0
526.484619 84.0
527.105896 64.0
527.279541 84.0
527.549194 104.0
528.30835 60.0
528.527954 120.0
528.697266 84.0
529.13208 76.0
529.383911 68.0
529.590027 40.0
529.713684 40.0
530.16272 80.0
530.449219 100.0
530.681641 96.0
531.657715 88.0
531.832092 88.0
531.868835 116.0
531.919312 52.0
531.96521 48.0
532.153442 80.0
532.378418 52.0
533.039917 56.0
533.113464 56.0
533.554688 44.0
533.959351 72.0
534.138733 96.0
534.235291 72.0
534.824341 40.0
534.985413 112.0
535.210999 52.0
535.339966 128.0
535.496521 92.0
536.164551 56.0
536.991882 88.0
537.257324 80.0
537.515686 64.0
537.631104 56.0
537.963379 76.0
538.09729 52.0
538.328125 136.0
538.743835 52.0
539.23822 88.0
539.381531 80.0
539.695862 64.0
540.806152 92.0
541.037598 88.0
541.130188 88.0
541.40802 96.0
541.69519 72.0
541.881226 72.0
542.172424 36.0
543.09967 204.0
543.308411 116.0
543.340881 60.0
543.656372 72.0
543.716736 100.0
543.944153 40.0
544.10199 48.0
544.375916 36.0
544.422363 108.0
544.891479 80.0
544.956543 48.0
545.109863 68.0
545.147034 80.0
545.39801 64.0
545.900085 88.0
546.179138 116.0
546.504822 36.0
546.886414 84.0
546.965515 80.0
547.174988 88.0
547.580139 84.0
547.631348 52.0
547.733826 40.0
547.822327 64.0
548.089233 172.0
548.936218 44.0
549.348511 80.0
549.803955 112.0
549.911255 120.0
550.004639 60.0
550.175537 84.0
550.331421 44.0
550.420105 88.0
550.546204 68.0
550.918823 72.0
551.457214 88.0
551.709595 112.0
551.87793 72.0
552.130432 56.0
552.275452 100.0
552.560791 36.0
552.790039 84.0
553.033386 48.0
553.094238 108.0
553.158386 92.0
553.370422 80.0
553.759094 52.0
554.030823 92.0
554.382202 140.0
554.466553 128.0
554.711731 128.0
555.033752 92.0
555.485779 64.0
556.028259 68.0
556.098694 28.0
556.516479 48.0
556.882751 108.0
556.929688 36.0
557.305542 100.0
557.596863 88.0
557.968201 132.0
559.464233 68.0
560.377869 128.0
560.604065 44.0
560.646484 124.0
560.749023 84.0
560.896484 80.0
561.047119 116.0
561.476196 52.0
561.528076 68.0
561.589355 136.0
562.221558 56.0
562.547241 56.0
562.915527 72.0
563.256592 100.0
563.435059 108.0
564.957336 64.0
565.212769 48.0
565.477783 40.0
565.562988 76.0
565.709717 72.0
565.851746 60.0
566.012756 108.0
566.410583 72.0
566.637939 52.0
566.742188 68.0
566.856079 100.0
566.964905 40.0
567.216064 80.0
567.249268 76.0
567.917847 36.0
568.093323 56.0
568.672241 52.0
570.242432 80.0
570.96698 60.0
571.024048 60.0
571.204773 76.0
571.566345 60.0
572.15033 108.0
572.439819 96.0
572.985168 52.0
573.633301 44.0
574.048096 60.0
574.200684 108.0
574.305603 84.0
575.150146 68.0
575.498657 112.0
575.56073 76.0
575.942749 76.0
576.13385 120.0
576.248474 92.0
576.559082 48.0
577.419617 60.0
577.462646 36.0
577.797485 36.0
577.883606 52.0
577.975342 72.0
578.261658 32.0
579.080322 92.0
579.247986 100.0
579.511475 80.0
579.799011 72.0
580.043396 92.0
580.09613 84.0
581.803955 32.0
582.063232 36.0
582.101624 88.0
582.135254 88.0
582.212097 60.0
582.336914 84.0
582.514648 52.0
582.759644 52.0
582.990295 52.0
583.105652 80.0
583.187378 92.0
583.284973 76.0
583.422913 84.0
584.163452 104.0
584.201965 64.0
584.254883 40.0
584.302979 60.0
584.567627 56.0
584.726379 112.0
585.366699 80.0
585.419617 60.0
585.554504 56.0
585.636353 48.0
585.766418 56.0
585.824219 104.0
586.142212 72.0
586.175903 60.0
586.402405 52.0
587.781677 56.0
588.544312 64.0
588.809875 64.0
588.99823 68.0
589.12384 80.0
589.162476 72.0
590.071045 120.0
590.399841 48.0
591.052917 92.0
591.735352 40.0
592.379456 48.0
592.694336 84.0
592.897888 80.0
593.004517 80.0
593.513489 52.0
593.775391 84.0
594.103394 76.0
594.226501 40.0
595.10498 84.0
595.231201 104.0
595.27002 68.0
595.580872 36.0
596.207581 72.0
596.314514 96.0
596.69165 68.0
597.425781 84.0
599.253662 84.0
599.580139 104.0
599.862854 80.0
600.044922 96.0
600.096863 56.0
600.350403 32.0
600.50647 68.0
600.906494 80.0
601.072388 68.0
601.414001 68.0
601.472534 48.0
601.526245 56.0
601.587708 108.0
602.204956 100.0
602.463196 96.0
602.595703 68.0
602.678772 76.0
603.196838 112.0
603.529236 48.0
604.209106 28.0
604.262878 80.0
604.37207 64.0
604.561401 48.0
604.737549 76.0
606.079346 76.0
606.427307 104.0
606.584167 96.0
606.662598 72.0
607.182312 96.0
607.559998 92.0
607.697388 52.0
607.877197 124.0
607.952515 64.0
608.870544 56.0
609.160339 72.0
609.238953 48.0
609.489502 60.0
610.713623 56.0
611.180969 44.0
611.515564 104.0
611.830627 104.0
612.145752 88.0
612.919067 112.0
613.919739 52.0
614.092346 100.0
614.260071 36.0
614.837341 76.0
615.024841 80.0
615.484009 104.0
615.89386 60.0
616.07666 88.0
616.471924 96.0
616.649841 96.0
616.788208 76.0
616.827759 32.0
617.33844 68.0
617.460632 44.0
618.341248 116.0
618.638245 92.0
618.692688 116.0
620.441467 80.0
620.679443 52.0
621.096069 92.0
621.130737 88.0
622.580017 48.0
622.74884 68.0
623.14624 60.0
623.325134 80.0
623.673035 56.0
624.36908 64.0
625.060547 88.0
625.100342 80.0
625.881836 100.0
627.281738 132.0
627.526062 52.0
627.605835 56.0
627.715515 72.0
627.855164 128.0
628.179321 108.0
628.59845 68.0
628.703247 44.0
628.79303 68.0
628.972717 56.0
629.00769 76.0
629.471985 120.0
630.056335 144.0
630.286194 76.0
632.246399 60.0
632.541687 48.0
632.867126 96.0
633.668457 92.0
634.169556 136.0
634.375061 116.0
635.242615 84.0
635.990234 96.0
636.236206 132.0
636.341675 60.0
636.562561 44.0
636.848816 52.0
637.039734 52.0
637.265808 72.0
637.436646 64.0
637.994507 108.0
638.05481 48.0
638.200623 60.0
638.316528 76.0
638.723633 176.0
639.862488 104.0
640.047241 32.0
640.535767 64.0
641.476685 76.0
641.714966 132.0
642.098206 48.0
642.340332 88.0
642.703552 72.0
643.031555 120.0
643.596924 40.0
644.460632 48.0
645.436157 76.0
645.562561 40.0
645.759827 88.0
645.931763 56.0
646.275818 60.0
646.549011 56.0
647.16156 48.0
648.945007 40.0
649.142761 80.0
649.502808 40.0
649.771667 88.0
649.842712 68.0
650.406006 96.0
650.588745 80.0
651.274231 132.0
651.640015 112.0
651.741638 96.0
652.336243 36.0
652.536743 52.0
652.981995 80.0
653.210876 64.0
653.790894 64.0
653.826477 72.0
654.625732 48.0
654.7276 72.0
655.098022 72.0
655.262451 88.0
655.583435 56.0
655.807678 68.0
656.424561 56.0
656.470459 68.0
656.643799 72.0
657.46521 88.0
657.93988 92.0
658.741638 64.0
659.063477 88.0
660.090881 72.0
660.663757 232.0
660.735352 96.0
660.8479 104.0
660.924683 60.0
661.047485 72.0
661.380127 84.0
662.066162 64.0
662.670593 96.0
663.818726 68.0
664.937073 56.0
665.039734 84.0
665.245056 72.0
665.897156 40.0
666.205383 84.0
666.416016 44.0
667.767944 56.0
668.040588 52.0
668.179443 92.0
668.246338 84.0
669.074951 72.0
669.126404 88.0
671.171875 136.0
672.755737 80.0
672.940125 96.0
673.272095 72.0
673.385681 100.0
673.514832 52.0
673.897095 60.0
674.041809 104.0
674.238159 64.0
674.703369 88.0
675.629028 108.0
675.711853 72.0
675.934326 60.0
676.384583 52.0
676.866028 44.0
677.430542 116.0
677.772461 32.0
678.026428 88.0
678.549927 44.0
678.933655 100.0
679.182617 124.0
679.358948 68.0
680.26709 20.0
681.388794 52.0
681.73175 36.0
682.235901 56.0
683.057495 108.0
683.962891 52.0
684.431458 68.0
685.134521 84.0
685.290833 48.0
686.114319 92.0
686.281128 76.0
686.338501 48.0
686.548218 72.0
687.56958 68.0
687.663513 68.0
687.956909 96.0
688.383972 48.0
688.496704 68.0
688.86969 96.0
691.154358 72.0
691.651489 44.0
691.719543 168.0
691.798096 72.0
692.60968 40.0
693.77301 56.0
694.391724 64.0
694.863831 64.0
696.690796 48.0
696.78009 52.0
697.484253 60.0
698.851562 56.0
699.019958 56.0
699.209412 76.0
699.572571 92.0
699.941101 36.0
700.035889 84.0
701.484741 40.0
702.418091 84.0
702.819031 100.0
703.169861 84.0
703.70575 96.0
704.566589 72.0
705.491455 100.0
706.237 124.0
706.401001 52.0
706.437988 52.0
707.71344 48.0
708.433716 112.0
709.032471 52.0
709.313354 148.0
710.220093 60.0
711.424622 100.0
711.567932 56.0
712.895813 52.0
713.060608 56.0
713.778259 76.0
714.022888 100.0
714.095459 104.0
714.469666 88.0
714.607971 100.0
715.800232 76.0
716.09314 76.0
716.460693 64.0
716.956238 140.0
718.662537 44.0
719.500488 76.0
721.231262 68.0
721.407654 60.0
721.787231 36.0
722.220398 68.0
722.760742 100.0
724.270386 60.0
724.388245 128.0
724.634705 128.0
724.79541 48.0
725.709595 76.0
726.430603 48.0
726.800781 56.0
726.84906 100.0
729.324829 48.0
729.910767 116.0
730.642273 184.0
731.901672 56.0
732.359436 104.0
732.467163 44.0
732.930481 92.0
733.054382 60.0
733.706543 52.0
735.222229 76.0
735.670227 84.0
735.869995 40.0
736.05011 188.0
736.463989 84.0
737.81488 72.0
738.150085 52.0
738.35022 60.0
739.903137 100.0
741.219238 68.0
741.826294 108.0
744.91394 48.0
745.229004 108.0
745.555054 88.0
745.756104 104.0
746.038757 132.0
746.31604 56.0
746.528137 96.0
746.751099 64.0
747.218872 76.0
747.599792 60.0
747.790222 52.0
747.99707 76.0
748.448914 96.0
748.638306 88.0
748.966309 88.0
752.3526 84.0
752.800293 52.0
753.581421 52.0
754.122375 116.0
754.423035 48.0
755.456604 40.0
757.635376 84.0
757.690125 60.0
757.739441 60.0
759.296204 80.0
760.365967 112.0
761.771606 108.0
762.777161 56.0
765.351868 72.0
765.902588 136.0
769.233032 96.0
770.215942 56.0
770.983887 168.0
772.026978 64.0
772.305237 132.0
773.583435 56.0
773.649902 76.0
773.976501 100.0
774.890381 52.0
777.069275 44.0
777.335571 64.0
778.001648 84.0
778.301453 96.0
779.123413 80.0
779.256775 44.0
779.912476 72.0
780.03479 64.0
781.152466 108.0
781.330444 80.0
782.243103 68.0
782.460205 72.0
782.806824 176.0
783.334534 88.0
783.546204 104.0
784.878296 76.0
785.045593 40.0
785.123657 64.0
785.753967 48.0
786.579834 52.0
786.842224 64.0
786.937134 76.0
787.221924 72.0
787.959167 56.0
788.305603 76.0
789.686462 104.0
789.99408 116.0
791.186096 48.0
791.863586 100.0
792.348633 88.0
792.468567 160.0
793.561523 92.0
794.447632 64.0
795.642944 76.0
796.423462 52.0
796.844788 88.0
797.232483 44.0
799.228699 52.0
799.673279 40.0
800.258667 140.0
800.315002 100.0
800.61908 72.0
801.233032 140.0
801.711975 48.0
802.399597 48.0
802.478516 60.0
802.608215 108.0
803.696838 44.0
804.159546 60.0
805.158875 52.0
805.373474 76.0
805.723694 160.0
807.210205 76.0
807.607544 204.0
808.511292 28.0
808.796997 156.0
809.32074 68.0
810.096619 92.0
810.447876 76.0
811.462402 68.0
812.001099 92.0
812.137207 116.0
813.030212 104.0
815.549622 176.0
817.864563 120.0
817.96698 36.0
818.969116 36.0
819.094421 116.0
819.983276 100.0
820.102966 60.0
822.144714 88.0
822.515686 68.0
822.738281 116.0
825.646606 88.0
826.441711 44.0
826.973938 44.0
828.182007 76.0
829.362305 64.0
831.254883 84.0
831.450012 68.0
832.133057 36.0
833.241516 148.0
833.896545 48.0
834.046021 52.0
834.353821 44.0
835.121216 76.0
835.506592 56.0
836.403137 40.0
837.198792 48.0
837.792053 36.0
839.261719 92.0
841.581177 48.0
842.181763 116.0
843.33728 124.0
844.412659 80.0
845.245728 92.0
846.658142 68.0
846.773987 184.0
849.098022 52.0
851.192932 180.0
851.709778 184.0
853.174133 88.0
853.645081 96.0
854.191772 44.0
854.645569 80.0
854.837585 72.0
856.089111 48.0
857.463989 40.0
858.151855 64.0
858.408386 76.0
858.682495 52.0
858.726318 108.0
858.979919 44.0
860.684082 56.0
860.800842 68.0
863.260986 80.0
865.560608 80.0
865.712891 68.0
866.122864 92.0
867.388489 96.0
868.484985 92.0
868.572937 36.0
870.163269 104.0
870.386353 56.0
870.509705 56.0
870.756348 76.0
871.314331 40.0
871.773804 100.0
873.559998 88.0
873.607056 128.0
874.377869 60.0
874.460266 52.0
876.592102 96.0
877.906616 124.0
878.638 136.0
879.292969 48.0
879.741577 56.0
880.101746 76.0
880.585938 44.0
880.751343 64.0
881.755737 80.0
882.281799 36.0
882.577393 32.0
882.654297 140.0
882.92627 100.0
884.571106 132.0
885.862 104.0
885.909424 60.0
886.93457 104.0
888.434814 56.0
889.176453 40.0
891.563843 112.0
892.080994 236.0
893.014465 156.0
893.64502 76.0
894.019897 128.0
894.347229 60.0
894.400818 64.0
895.407043 96.0
897.212463 92.0
897.412903 84.0
899.007812 108.0
900.858643 64.0
903.662476 76.0
904.380554 72.0
906.608459 204.0
906.980103 96.0
908.653137 56.0
908.773132 104.0
909.817383 104.0
911.853638 116.0
912.833557 60.0
913.428955 128.0
913.59137 36.0
914.451843 44.0
914.626343 160.0
915.059814 60.0
917.059692 36.0
917.83136 68.0
918.932434 64.0
919.828247 104.0
920.166321 104.0
920.540649 80.0
922.244324 44.0
923.266052 44.0
924.530396 60.0
925.226501 76.0
926.304382 164.0
926.686035 124.0
930.185181 40.0
930.488708 84.0
930.53125 76.0
931.915955 72.0
932.122559 140.0
932.654358 48.0
934.603394 80.0
934.974609 36.0
935.175415 68.0
935.905945 64.0
936.283447 52.0
936.904785 76.0
937.696899 40.0
937.751709 44.0
938.867432 76.0
939.099182 80.0
939.666443 72.0
940.020325 72.0
940.62738 56.0
942.841614 36.0
943.202209 68.0
944.455688 60.0
944.547424 44.0
945.844666 168.0
947.859497 80.0
947.982056 60.0
948.208801 72.0
948.368164 184.0
948.729797 132.0
949.594421 80.0
949.667969 52.0
950.060547 56.0
951.699219 64.0
952.405457 40.0
954.605591 148.0
954.771667 92.0
955.097595 60.0
955.614319 80.0
957.276245 68.0
959.364929 104.0
959.55603 36.0
959.642334 44.0
960.234314 76.0
962.486694 92.0
962.962219 136.0
964.488342 144.0
965.465149 72.0
966.015625 68.0
966.795227 84.0
967.847534 104.0
968.745544 72.0
968.844666 184.0
969.476624 52.0
970.30719 36.0
970.592407 80.0
972.174194 52.0
973.154907 128.0
973.88147 112.0
974.005737 64.0
975.298096 124.0
975.378906 96.0
975.695984 80.0
975.907349 176.0
977.095215 92.0
977.524536 136.0
978.371033 48.0
978.601379 128.0
979.02478 64.0
979.099548 60.0
980.102417 100.0
981.242981 96.0
983.53241 104.0
983.588562 116.0
983.719666 112.0
985.224609 116.0
985.805664 100.0
986.849548 148.0
988.094116 72.0
989.27063 56.0
989.740173 64.0
991.218445 56.0
992.03949 136.0
992.614075 136.0
994.015076 124.0
995.220215 172.0
995.7854 200.0
996.451233 84.0
999.42511 104.0
999.985168 100.0
1001.489929 64.0
1001.546631 112.0
1003.273193 80.0
1004.830872 68.0
1005.200012 88.0
1006.32666 88.0
1007.570862 148.0
1007.665588 116.0
1008.06366 128.0
1008.149231 192.0
1008.689392 108.0
1009.28363 108.0
1009.795837 116.0
1010.27655 40.0
1011.295349 56.0
1011.55481 160.0
1011.896667 44.0
1012.700867 76.0
1014.082092 156.0
1014.684265 160.0
1015.280334 52.0
1015.381775 64.0
1015.616455 68.0
1017.367798 76.0
1018.161499 104.0
1021.574646 60.0
1022.516296 104.0
1023.114624 196.0
1023.885071 92.0
1024.018799 64.0
1024.439697 264.0
1024.744995 52.0
1026.019653 60.0
1026.523315 108.0
1026.842163 84.0
1027.582153 148.0
1027.722534 84.0
1028.150024 172.0
1028.737305 216.0
1029.586426 112.0
1030.557373 52.0
1031.180176 104.0
1032.296021 136.0
1033.383301 56.0
1033.568848 52.0
1033.620117 152.0
1034.093628 88.0
1036.994873 64.0
1037.56543 132.0
1039.02124 64.0
1039.77832 100.0
1040.792603 148.0
1040.876099 172.0
1042.122192 52.0
1042.520508 100.0
1042.610474 28.0
1042.790405 204.0
1042.899658 168.0
1043.362549 72.0
1044.423584 124.0
1044.500732 116.0
1045.304932 196.0
1045.575195 68.0
1046.341187 36.0
1047.146118 120.0
1048.009277 112.0
1048.80188 56.0
1048.872803 96.0
1049.085571 80.0
1049.37561 116.0
1050.291382 44.0
1052.007812 32.0
1053.124878 36.0
1054.048706 116.0
1054.410522 144.0
1054.499512 156.0
1054.80481 80.0
1055.360718 120.0
1056.550781 100.0
1057.734985 180.0
1058.408325 244.0
1058.770874 208.0
1059.366821 124.0
1059.502808 84.0
1060.909058 68.0
1061.544434 76.0
1061.771484 108.0
1061.823364 44.0
1062.147583 196.0
1062.192993 48.0
1063.607544 56.0
1065.451782 84.0
1066.270508 88.0
1067.713745 76.0
1067.791748 192.0
1070.479492 80.0
1071.046021 76.0
1072.238403 40.0
1072.838013 72.0
1073.046631 180.0
1073.640015 32.0
1073.744385 128.0
1073.900879 108.0
1074.716309 72.0
1075.362305 48.0
1077.41272 72.0
1078.45813 96.0
1078.562744 200.0
1078.90918 128.0
1080.917114 136.0
1082.363647 172.0
1084.446899 92.0
1085.12207 100.0
1085.208862 172.0
1085.325317 156.0
1086.204102 60.0
1086.361572 128.0
1086.564941 64.0
1087.680542 180.0
1088.087524 136.0
1089.959351 132.0
1090.366821 140.0
1092.036743 96.0
1092.14856 152.0
1092.569458 68.0
1092.62207 60.0
1096.138062 180.0
1096.329102 92.0
1096.592773 136.0
1097.192627 56.0
1099.586914 44.0
1100.11499 208.0
1100.946899 128.0
1101.14502 120.0
1101.607422 56.0
1102.525757 136.0
1103.510742 148.0
1103.960327 88.0
1107.08374 128.0
1107.229492 56.0
1107.573853 56.0
1108.249634 180.0
1109.389526 132.0
1109.9729 36.0
1110.150879 104.0
1110.175171 88.0
1110.194458 148.0
1110.496826 108.0
1110.556519 144.0
1111.418945 52.0
1115.084473 136.0
1115.396851 180.0
1115.835693 132.0
1116.374268 104.0
1116.660156 140.0
1116.819824 56.0
1117.594116 148.0
1118.157104 96.0
1118.236938 48.0
1118.709595 108.0
1119.338379 136.0
1119.452759 88.0
1120.087891 52.0
1120.554199 180.0
1121.02063 76.0
1121.207275 160.0
1121.393921 96.0
1123.674438 124.0
1124.054688 188.0
1124.499878 84.0
1125.690186 172.0
1125.984009 48.0
1126.378052 132.0
1127.066162 128.0
1127.386841 112.0
1127.533936 176.0
1127.968384 60.0
1128.536621 140.0
1128.663574 200.0
1129.0448 120.0
1131.199219 116.0
1131.500488 164.0
1131.560669 244.0
1131.640991 96.0
1131.795044 68.0
1132.598633 96.0
1132.859863 140.0
1133.067505 36.0
1133.395874 80.0
1133.442749 204.0
1133.999023 140.0
1135.413574 256.0
1135.970215 92.0
1136.473389 128.0
1136.815674 156.0
1137.452271 60.0
1137.970093 136.0
1138.484131 140.0
1139.420776 160.0
1143.293701 188.0
1143.953369 112.0
1144.054321 76.0
1145.960205 164.0
1146.054565 120.0
1146.162354 136.0
1146.310547 104.0
1147.914917 112.0
1148.508423 140.0
1148.892944 64.0
1150.188477 124.0
1152.07251 44.0
1152.146729 76.0
1152.194092 140.0
1152.29541 92.0
1152.890015 120.0
1153.953613 184.0
1154.093262 136.0
1154.174316 44.0
1154.289307 140.0
1154.471924 120.0
1154.979126 116.0
1156.181152 120.0
1156.339111 112.0
1156.765503 164.0
1157.686279 128.0
1159.345947 156.0
1161.406982 84.0
1161.542603 132.0
1161.820801 108.0
1162.064941 108.0
1162.770752 92.0
1163.130371 44.0
1164.875488 212.0
1165.099731 148.0
1165.201538 92.0
1165.711182 156.0
1165.82666 104.0
1165.881104 144.0
1166.526733 52.0
1166.717041 152.0
1167.159058 148.0
1167.573853 60.0
1167.900269 128.0
1168.124756 84.0
1168.730225 128.0
1168.879883 196.0
1169.546875 140.0
1170.615723 72.0
1170.799561 104.0
1171.146851 184.0
1171.855347 168.0
1171.903076 156.0
1172.032471 184.0
1172.107422 124.0
1173.218384 216.0
1175.421387 124.0
1175.714722 48.0
1176.356323 68.0
1177.168823 84.0
1177.667358 156.0
1179.525879 136.0
1179.79248 36.0
1179.86084 64.0
1180.701782 216.0
1181.529419 176.0
1181.85791 152.0
1182.06311 180.0
1182.234253 128.0
1182.966553 56.0
1183.328979 124.0
1183.774414 92.0
1185.185425 156.0
1185.438965 56.0
1185.541748 172.0
1185.699463 140.0
1186.960693 168.0
1187.735718 60.0
1187.797485 132.0
1188.147339 140.0
1188.483521 152.0
1188.737305 52.0
1189.381348 164.0
1189.567749 136.0
1190.28186 188.0
1191.792969 176.0
1192.019653 148.0
1192.500732 200.0
1192.876099 144.0
1193.194946 88.0
1193.452271 104.0
1194.281494 28.0
1194.556641 152.0
1195.100098 124.0
1195.278931 184.0
1196.152954 52.0
1197.054932 136.0
1197.447388 136.0
1197.8125 160.0
1198.31543 96.0
1198.425659 192.0
1198.742554 152.0
1198.997559 200.0
1200.369385 104.0
1201.17627 160.0
1201.914429 56.0
1201.990356 160.0
1202.369873 136.0
1202.535522 232.0
1202.998047 76.0
1203.12915 152.0
1203.598633 216.0
1204.42041 80.0
1205.712402 204.0
1206.140991 112.0
1206.424316 160.0
1207.551392 88.0
1208.540649 48.0
1208.644409 64.0
1209.025024 64.0
1209.523315 104.0
1211.392944 60.0
1211.926392 76.0
1212.626221 200.0
1213.258789 80.0
1213.388794 116.0
1213.659912 112.0
1214.151489 160.0
1214.477417 216.0
1214.986816 164.0
1215.142334 128.0
1215.283325 180.0
1215.601318 40.0
1215.86499 44.0
1216.378662 160.0
1216.684082 172.0
1217.093628 112.0
1217.600586 32.0
1217.961792 164.0
1218.427124 112.0
1219.448608 160.0
1220.296753 192.0
1220.894653 124.0
1221.193726 68.0
1221.298096 64.0
1221.506714 116.0
1221.604126 164.0
1221.986694 112.0
1222.376343 160.0
1222.863525 144.0
1223.4552 84.0
1223.596436 208.0
1223.824219 232.0
1224.325562 164.0
1224.576294 124.0
1224.785156 48.0
1225.75354 192.0
1225.94873 236.0
1226.004395 128.0
1226.394653 104.0
1227.370728 156.0
1228.584229 112.0
1229.240112 144.0
1229.903076 132.0
1230.098511 144.0
1230.377686 40.0
1230.549194 36.0
1231.006104 156.0
1231.194702 128.0
1231.480957 48.0
1231.927979 80.0
1232.193481 176.0
1232.34021 72.0
1233.220703 124.0
1233.612183 128.0
1233.772949 56.0
1234.730835 244.0
1235.080566 68.0
1235.171509 180.0
1235.640137 120.0
1235.815063 100.0
1236.752808 112.0
1240.374023 132.0
1240.696533 48.0
1241.22937 184.0
1241.306519 144.0
1242.056885 120.0
1242.63208 176.0
1242.71936 164.0
1243.530273 188.0
1243.614502 52.0
1244.330566 104.0
1244.5271 84.0
1244.948486 164.0
1245.327637 136.0
1245.833374 120.0
1246.346313 92.0
1246.45874 160.0
1247.259888 124.0
1247.526978 80.0
1247.984009 132.0
1248.321411 144.0
1248.666016 180.0
1248.764526 196.0
1248.841919 64.0
1249.179565 156.0
1249.270996 108.0
1249.657837 44.0
1250.150391 152.0
1250.537476 192.0
1250.685303 72.0
1251.683105 168.0
1252.431519 112.0
1253.030273 52.0
1253.755981 160.0
1255.158813 76.0
1255.236328 76.0
1255.673584 68.0
1256.442383 176.0
1256.593628 148.0
1257.811401 44.0
1258.051392 168.0
1258.460815 60.0
1258.616211 68.0
1258.912842 160.0
1259.159912 48.0
1259.385986 68.0
1259.462158 216.0
1259.5625 100.0
1259.619019 140.0
1259.92981 84.0
1260.191284 120.0
1260.410278 84.0
1262.253784 180.0
1262.482666 116.0
1263.35144 140.0
1264.6604 124.0
1264.844482 84.0
1264.957764 172.0
1266.026855 92.0
1266.353638 240.0
1266.728027 108.0
1267.089355 148.0
1267.422241 44.0
1268.145142 260.0
1268.251465 164.0
1268.44458 124.0
1268.506592 36.0
1269.050415 192.0
1269.123413 48.0
1269.180054 136.0
1269.392822 104.0
1270.279297 96.0
1271.315186 160.0
1271.606201 164.0
1272.003662 184.0
1272.216553 136.0
1272.280518 88.0
1272.649658 80.0
1273.274536 140.0
1273.523193 76.0
1274.155396 104.0
1274.915649 140.0
1274.972412 176.0
1275.121704 52.0
1275.342041 184.0
1275.427368 112.0
1275.71167 56.0
1275.889404 172.0
1276.500854 36.0
1277.581909 112.0
1278.812866 128.0
1279.005127 200.0
1279.097656 152.0
1279.638672 64.0
1279.9021 152.0
1279.980347 168.0
1280.258057 164.0
1280.507324 128.0
1281.198242 72.0
1281.59729 116.0
1282.003418 136.0
1282.537964 76.0
1282.965576 36.0
1283.6073 224.0
1284.042358 64.0
1285.482544 144.0
1285.932983 44.0
1286.077393 80.0
1286.196411 144.0
1287.232178 128.0
1287.703491 176.0
1288.396362 196.0
1288.453491 224.0
1289.22522 92.0
1289.689697 128.0
1290.304443 152.0
1291.033813 168.0
1291.555908 148.0
1292.020874 164.0
1292.285522 172.0
1293.029785 196.0
1293.079834 184.0
1293.180054 128.0
1293.265991 216.0
1294.239502 132.0
1295.034424 168.0
1295.664795 60.0
1296.173462 112.0
1296.323975 108.0
1297.24585 132.0
1298.273804 224.0
1298.38855 220.0
1299.452637 168.0
1300.275269 100.0
1300.325562 176.0
1300.469116 76.0
1301.366455 104.0
1301.660767 112.0
1302.436401 40.0
1302.572876 220.0
1302.788452 160.0
1304.182373 52.0
1304.583618 112.0
1304.659668 204.0
1304.771851 100.0
1305.009033 112.0
1305.311035 200.0
1305.706543 132.0
1305.951172 156.0
1306.001465 140.0
1306.389893 192.0
1306.742432 32.0
1307.210083 152.0
1307.728271 184.0
1307.836182 116.0
1308.304077 152.0
1309.917114 116.0
1310.097168 132.0
1311.386963 188.0
1312.540405 108.0
1313.752075 72.0
1314.199341 100.0
1314.769409 176.0
1315.10144 32.0
1315.693359 136.0
1316.473145 208.0
1316.660889 144.0
1316.72583 140.0
1317.007568 108.0
1317.621582 152.0
1317.686523 100.0
1317.859985 160.0
1318.279663 204.0
1318.387451 88.0
1318.474121 60.0
1319.377686 144.0
1319.428223 104.0
1319.681274 44.0
1319.91272 96.0
1320.10791 184.0
1320.404419 52.0
1320.961304 192.0
1321.561768 124.0
1321.778809 196.0
1321.993164 156.0
1322.169678 112.0
1322.267944 96.0
1322.603882 200.0
1322.712402 100.0
1323.450928 48.0
1324.160522 156.0
1324.797974 164.0
1325.015259 80.0
1325.283325 108.0
1325.406494 104.0
1325.979004 172.0
1326.349976 144.0
1326.783569 152.0
1327.051758 128.0
1327.15332 160.0
1327.479614 120.0
1327.965454 76.0
1328.270142 164.0
1329.184204 112.0
1329.677734 192.0
1329.960693 108.0
1330.214844 128.0
1330.352661 52.0
1330.991577 144.0
1331.064209 140.0
1331.601562 88.0
1332.189941 140.0
1332.669434 144.0
1333.040039 136.0
1333.396118 120.0
1333.766724 124.0
1334.173828 112.0
1335.279053 184.0
1336.144653 140.0
1336.290161 132.0
1337.16333 112.0
1337.265259 152.0
1337.39624 124.0
1337.505371 204.0
1337.6073 88.0
1337.658325 72.0
1338.837769 64.0
1339.099976 116.0
1339.65564 160.0
1339.893921 144.0
1340.003174 144.0
1340.068726 88.0
1340.141602 84.0
1340.30603 196.0
1340.557007 132.0
1340.855713 200.0
1340.97229 92.0
1341.387817 180.0
1341.650269 128.0
1342.074585 168.0
1342.532471 168.0
1342.64917 124.0
1342.889771 196.0
1343.181519 156.0
1343.327515 156.0
1343.706787 108.0
1344.348877 120.0
1344.45105 132.0
1344.611572 180.0
1344.87439 112.0
1345.268555 100.0
1345.743042 72.0
1345.845215 108.0
1346.035156 148.0
1346.261475 76.0
1346.429443 156.0
1346.633911 152.0
1346.838379 104.0
1347.371704 80.0
1347.948853 52.0
1348.351929 128.0
1348.70166 120.0
1349.030518 136.0
1349.257202 32.0
1350.734375 156.0
1350.902588 164.0
1351.473267 60.0
1351.846436 64.0
1353.105347 52.0
1353.156616 92.0
1354.064575 128.0
1354.257202 88.0
1354.350342 156.0
1355.771484 252.0
1356.050049 104.0
1356.269897 156.0
1356.387207 108.0
1356.438477 160.0
1356.782959 120.0
1357.354858 96.0
1357.838867 120.0
1358.645752 180.0
1359.783081 204.0
1360.742798 180.0
1360.902832 192.0
1361.075073 116.0
1362.367676 140.0
1362.514526 124.0
1362.690918 160.0
1362.764404 80.0
1363.704956 108.0
1363.925415 172.0
1363.998901 72.0
1364.509888 180.0
1364.706299 188.0
1364.947266 68.0
1365.270874 128.0
1365.542969 76.0
1366.053711 324.0
1367.323364 168.0
1367.706055 212.0
1368.000488 176.0
1368.1698 132.0
1369.694092 196.0
1369.94458 184.0
1370.252441 156.0
1370.533936 120.0
1370.762451 224.0
1370.939209 64.0
1371.432983 128.0
1371.764771 160.0
1371.934326 192.0
1372.089111 136.0
1375.17981 140.0
1375.762939 144.0
1375.829346 164.0
1376.161621 188.0
1376.552979 76.0
1377.188599 160.0
1377.284058 84.0
1377.609009 136.0
1377.830688 140.0
1377.954468 60.0
1378.155762 172.0
1378.576904 168.0
1378.79126 236.0
1379.596924 104.0
1379.728516 164.0
1380.037354 140.0
1380.595093 76.0
1380.654175 60.0
1381.061035 76.0
1381.164551 272.0
1381.600952 120.0
1381.71936 104.0
1382.222412 108.0
1382.533203 120.0
1382.932861 92.0
1383.191895 136.0
1383.332642 164.0
1383.547241 176.0
1383.85083 236.0
1384.065552 172.0
1384.169189 108.0
1384.369141 156.0
1384.542847 208.0
1384.887573 64.0
1385.828369 68.0
1386.710083 176.0
1387.274414 148.0
1387.799805 164.0
1388.088989 40.0
1388.229858 84.0
1388.363403 152.0
1388.652588 60.0
1388.979004 164.0
1389.186646 216.0
1389.275635 88.0
1389.701538 152.0
1390.025024 124.0
1390.225342 112.0
1390.351562 76.0
1390.522217 128.0
1390.871094 156.0
1390.96582 140.0
1391.100342 68.0
1391.398071 156.0
1391.591187 132.0
1392.088623 180.0
1392.289062 156.0
1392.38562 116.0
1392.697632 176.0
1392.853638 116.0
1393.217529 96.0
1393.611328 124.0
1393.797119 144.0
1393.975464 104.0
1394.555054 132.0
1394.874634 116.0
1395.268677 172.0
1395.417358 208.0
1395.491699 200.0
1395.588379 20.0
1395.722046 160.0
1395.922974 240.0
1396.398926 252.0
1396.592285 124.0
1397.284058 100.0
1397.365967 56.0
1397.871826 72.0
1398.720337 156.0
1400.492432 180.0
1400.589233 120.0
1401.885498 148.0
1401.974976 200.0
1402.153809 184.0
1402.511597 168.0
1402.772461 184.0
1402.869385 116.0
1402.943848 152.0
1403.167603 112.0
1403.36145 44.0
1403.547852 36.0
1404.189087 184.0
1404.435181 108.0
1405.293091 152.0
1405.591553 84.0
1406.845459 144.0
1407.151489 104.0
1407.450195 112.0
1409.227783 108.0
1410.012329 140.0
1410.812134 108.0
1410.916748 112.0
1411.305542 140.0
1411.948608 188.0
1412.210449 136.0
1412.404907 136.0
1412.674194 108.0
1413.227783 132.0
1413.968628 60.0
1414.432617 132.0
1414.574829 184.0
1415.278564 200.0
1415.862671 52.0
1416.199707 124.0
1416.409424 192.0
1416.641602 92.0
1417.855347 184.0
1418.612427 148.0
1418.829834 128.0
1418.994751 64.0
1419.561035 164.0
1419.665527 164.0
1419.834595 100.0
1420.088501 148.0
1420.314575 152.0
1420.38208 88.0
1420.539185 240.0
1420.667114 104.0
1421.117188 56.0
1421.229736 88.0
1421.514893 96.0
1421.672485 176.0
1421.777588 148.0
1422.152832 72.0
1422.29541 32.0
1423.065918 164.0
1423.444092 148.0
1423.53418 72.0
1423.804565 132.0
1423.913574 272.0
1424.315186 104.0
1425.374512 124.0
1425.52478 148.0
1425.64502 172.0
1425.878052 72.0
1426.05835 160.0
1426.452637 168.0
1426.847656 136.0
1427.193481 152.0
1427.358887 68.0
1427.870239 124.0
1428.336548 116.0
1428.456909 180.0
1428.893188 132.0
1428.975952 112.0
1429.26355 164.0
1429.510254 160.0
1429.74353 140.0
1429.946655 136.0
1430.654297 144.0
1430.729492 144.0
1430.797241 192.0
1430.872559 200.0
1431.311523 168.0
1431.610474 72.0
1431.798706 200.0
1433.380615 84.0
1433.719727 236.0
1433.795166 84.0
1433.998535 28.0
1434.171997 132.0
1434.300049 72.0
1434.639282 180.0
1434.782471 120.0
1434.888062 128.0
1435.151978 64.0
1435.348145 160.0
1435.626953 144.0
1435.921143 132.0
1436.109619 92.0
1436.69043 160.0
1437.165771 84.0
1437.769409 108.0
1438.249756 144.0
1438.335449 224.0
1438.395874 60.0
1438.651245 192.0
1438.856323 60.0
1439.392456 116.0
1439.450806 192.0
1439.588745 168.0
1439.704224 176.0
1439.838013 116.0
1440.47998 168.0
1440.782104 136.0
1441.2052 164.0
1441.469604 204.0
1441.938232 76.0
1442.051514 104.0
1442.52771 216.0
1442.799927 132.0
1443.019165 112.0
1443.125 140.0
1443.752563 108.0
1444.191162 60.0
1444.274414 116.0
1444.387817 140.0
1444.592163 64.0
1445.159546 132.0
1445.583252 100.0
1445.727539 128.0
1445.863281 120.0
1446.203857 44.0
1446.42334 160.0
1446.529297 188.0
1446.710938 164.0
1447.036499 128.0
1447.248535 88.0
1447.505859 148.0
1448.354126 108.0
1448.555054 136.0
1449.051025 148.0
1449.197998 212.0
1449.478271 84.0
1449.64209 132.0
1450.710693 176.0
1450.763794 60.0
1451.107788 192.0
1451.438477 84.0
1451.787354 156.0
1451.894409 208.0
1452.174072 140.0
1452.325806 128.0
1452.40918 144.0
1452.483521 60.0
1452.743042 184.0
1452.909912 180.0
1453.00354 92.0
1453.15271 52.0
1453.205811 76.0
1453.790039 88.0
1453.987305 96.0
1454.275757 140.0
1454.450317 96.0
1454.981689 156.0
1455.27771 136.0
1455.47522 168.0
1455.733398 128.0
1456.105469 244.0
1456.211792 100.0
1456.353394 228.0
1456.462402 144.0
1456.716797 108.0
1456.86499 104.0
1456.925781 28.0
1457.129761 140.0
1457.351196 92.0
1457.94397 124.0
1458.992798 88.0
1459.182861 56.0
1459.236084 144.0
1459.547852 148.0
1459.646729 116.0
1460.019287 120.0
1460.07251 116.0
1460.718994 132.0
1460.810303 160.0
1460.916748 80.0
1461.046143 152.0
1461.730835 148.0
1461.898315 160.0
1462.286377 144.0
1463.230225 160.0
1463.405396 148.0
1463.595703 196.0
1463.656616 132.0
1463.999268 280.0
1464.15918 168.0
1464.501953 36.0
1464.585693 168.0
1464.776123 140.0
1465.49231 128.0
1465.606567 140.0
1465.690308 96.0
1465.751343 212.0
1466.605103 148.0
1466.780151 104.0
1466.871582 104.0
1467.926514 248.0
1468.068604 180.0
1468.182983 80.0
1468.495728 212.0
1468.648193 72.0
1468.787231 92.0
1469.327148 96.0
1469.380493 168.0
1469.525513 76.0
1470.197021 120.0
1470.250366 68.0
1470.410645 36.0
1470.815186 132.0
1470.914429 136.0
1471.418213 236.0
1471.494629 108.0
1471.740234 132.0
1471.990845 124.0
1472.39563 228.0
1472.456665 172.0
1472.55603 100.0
1472.632324 156.0
1472.800415 92.0
1472.869141 100.0
1473.327515 212.0
1473.747681 172.0
1473.953979 164.0
1474.106812 56.0
1474.328369 128.0
1474.458252 156.0
1475.375488 108.0
1476.690674 228.0
1476.790161 204.0
1476.843628 140.0
1477.050171 120.0
1477.264404 156.0
1477.34082 136.0
1477.997437 176.0
1478.098267 112.0
1478.450317 128.0
1478.503906 92.0
1478.702881 196.0
1479.797485 136.0
1480.06543 132.0
1480.279785 96.0
1480.67041 136.0
1481.344604 148.0
1481.540039 124.0
1481.811279 148.0
1481.957275 148.0
1482.148804 136.0
1482.547241 136.0
1483.053101 52.0
1483.658691 52.0
1483.812012 152.0
1483.919312 212.0
1484.609375 216.0
1484.847168 136.0
1484.900879 120.0
1485.077271 204.0
1485.361084 148.0
1486.066772 168.0
1486.158813 144.0
1486.327637 92.0
1486.665283 188.0
1486.918579 148.0
1487.35376 208.0
1488.307983 244.0
1488.407837 212.0
1488.607422 84.0
1489.313965 176.0
1489.413818 84.0
1489.713379 52.0
1489.867065 92.0
1490.112915 148.0
1490.205078 164.0
1490.374146 256.0
1490.52771 128.0
1490.596924 76.0
1490.712158 116.0
1490.981201 140.0
1491.665161 108.0
1492.049561 184.0
1492.218628 100.0
1492.295532 140.0
1492.503174 52.0
1492.587769 184.0
1493.077271 176.0
1493.464478 52.0
1493.672119 104.0
1493.821777 140.0
1494.37085 120.0
1494.549072 180.0
1494.664551 68.0
1495.303223 92.0
1495.70752 136.0
1495.9729 88.0
1496.835205 96.0
1498.052002 120.0
1498.105957 44.0
1498.167603 76.0
1498.498901 60.0
1498.8302 64.0
1498.991943 184.0
1499.169189 192.0
1499.246216 148.0
1499.431274 208.0
1499.939941 148.0
1500.171143 164.0
1500.602905 152.0
1500.85376 192.0
1501.816406 176.0
1502.152954 216.0
1502.253174 156.0
1502.407471 204.0
1502.679565 148.0
1502.762329 104.0
1503.449097 120.0
1503.564941 176.0
1503.647705 180.0
1503.973877 196.0
