>compound MLS002153186-01!ICI 204,448 hydrochloride121264-04-8
>formula C23H26Cl2N2O4
>ionization [M+H]+
>parentmass 465.135254
#inchi InChI=1S/C23H26Cl2N2O4/c1-26(22(28)12-16-7-8-19(24)20(25)11-16)21(14-27-9-2-3-10-27)17-5-4-6-18(13-17)31-15-23(29)30/h4-8,11,13,21H,2-3,9-10,12,14-15H2,1H3,(H,29,30)
#inchikey JKYJSFISYHSNOE
#origInchi InChI=1S/C23H26Cl2N2O4.ClH/c1-26(22(28)12-16-7-8-19(24)20(25)11-16)21(14-27-9-2-3-10-27)17-5-4-6-18(13-17)31-15-23(29)30;/h4-8,11,13,21H,2-3,9-10,12,14-15H2,1H3,(H,29,30);1H
#Ion_Source LC-ESI
#Instrument qTof
#Compound_Source NIH Pharmacologically Active Library
#PI Dorrestein
#Data_Collector VP/LMS
#Scan -1
#Precursor_MZ 465.143
#ExactMass 464.127
#Charge 1
#CAS_Number N/A
#Pubmed_ID N/A
#Smiles CN(C(CN1CCCC1)c2cccc(OCC(=O)O)c2)C(=O)Cc3ccc(Cl)c(Cl)c3.Cl
#INCHI_AUX N/A
#Library_Class 1
#SpectrumID CCMSLIB00000085493
#IonMode Positive
#UpdateWorkflowName UPDATE-SINGLE-ANNOTATED-GOLD
#LibraryQualityString Gold
#TaskID d252d724072548979f1f6f1ced849daf
##Scan# 1696
#SpectrumFile p4-B08_GB8_01_18344.mzXML
#LibraryName Pharm_Active_Library.mgf
#MQScore -1
#Organism Pharm_Active_Library
#TIC_Query 0
#RT_Query -1
#MZErrorPPM -1
#SharedPeaks 0
#MassDiff 0
#LibMZ -1
#SpecMZ 465.143
#SpecCharge 0
#internalFilename spec-00000.mgf

>collision 10
44.911228 184.0
44.922783 324.0
44.955429 108.0
44.973335 392.0
44.990925 168.0
45.012829 168.0
45.03286 112.0
45.044418 104.0
45.064922 188.0
45.091331 220.0
45.118038 220.0
45.144356 168.0
45.174294 128.0
45.211746 192.0
45.232922 144.0
45.272251 128.0
45.307076 136.0
45.325832 128.0
45.347012 184.0
45.37006 196.0
45.425003 132.0
45.457241 172.0
45.470337 148.0
45.505562 152.0
45.529732 112.0
45.555252 172.0
45.574062 80.0
45.597713 40.0
45.609451 108.0
45.629166 208.0
45.647991 296.0
45.686077 88.0
45.695065 156.0
45.712559 192.0
45.734089 148.0
45.747017 212.0
45.771786 180.0
45.781212 200.0
45.796024 60.0
45.818184 64.0
45.840485 132.0
45.852425 144.0
45.898445 220.0
45.963192 260.0
45.984783 92.0
46.005447 208.0
46.029331 88.0
46.041485 168.0
46.05238 60.0
46.071201 188.0
46.080658 104.0
46.121197 184.0
46.145531 128.0
46.168941 64.0
46.180691 52.0
46.192863 120.0
46.202332 136.0
46.213158 168.0
46.230747 136.0
46.241764 172.0
46.260521 180.0
46.316204 100.0
46.349072 188.0
46.35804 200.0
46.397346 152.0
46.406837 172.0
46.423786 148.0
46.454685 252.0
46.476009 168.0
46.507221 112.0
46.524868 72.0
46.545483 176.0
46.600922 168.0
46.633865 156.0
46.653927 104.0
46.664803 328.0
46.684361 160.0
46.72192 260.0
46.762741 156.0
46.88995 228.0
46.903034 132.0
46.93483 136.0
46.951557 156.0
46.982124 108.0
46.9944 140.0
47.019772 196.0
47.040462 176.0
47.053089 168.0
47.062645 104.0
47.074936 112.0
47.100883 160.0
47.136574 160.0
47.139404 184.0
47.170055 308.0
47.185852 196.0
47.208855 104.0
47.219795 60.0
47.236103 104.0
47.262314 96.0
47.274517 88.0
47.326488 128.0
47.339096 160.0
47.348526 164.0
47.386795 172.0
47.408535 148.0
47.434708 104.0
47.458065 68.0
47.523903 116.0
47.547195 164.0
47.589783 60.0
47.629608 144.0
47.659145 136.0
47.678802 200.0
47.692814 272.0
47.712177 184.0
47.734055 124.0
47.750141 184.0
47.761406 284.0
47.80146 112.0
47.817528 124.0
47.837006 140.0
47.853439 68.0
47.86792 156.0
47.916409 368.0
47.932274 280.0
47.948811 180.0
47.968105 108.0
48.009468 152.0
48.027397 180.0
48.061951 260.0
48.093281 128.0
48.104492 156.0
48.10804 136.0
48.122616 200.0
48.133663 144.0
48.149944 172.0
48.190292 124.0
48.208961 164.0
48.23037 156.0
48.257423 196.0
48.28429 124.0
48.293972 44.0
48.311237 176.0
48.324242 172.0
48.340141 204.0
48.352905 268.0
48.383915 96.0
48.412991 136.0
48.426842 156.0
48.446423 88.0
48.458702 148.0
48.4781 144.0
48.490574 240.0
48.505386 184.0
48.540585 160.0
48.557121 160.0
48.575153 84.0
48.594273 220.0
48.638981 240.0
48.650085 176.0
48.672585 372.0
48.686954 260.0
48.716743 124.0
48.730091 192.0
48.756783 152.0
48.789005 136.0
48.836285 144.0
48.860859 156.0
48.880802 100.0
48.939262 172.0
48.971806 188.0
48.988701 120.0
48.993977 168.0
49.010296 128.0
49.021442 164.0
49.050713 124.0
49.064651 100.0
49.077198 76.0
49.124115 156.0
49.146137 244.0
49.156788 240.0
49.174847 112.0
49.211143 184.0
49.23605 148.0
49.241592 124.0
49.252216 184.0
49.295471 172.0
49.317047 464.0
49.341511 192.0
49.35186 84.0
49.37743 224.0
49.387218 68.0
49.398411 96.0
49.413799 116.0
49.444923 132.0
49.470383 168.0
49.530907 104.0
49.583027 276.0
49.598648 116.0
49.647717 192.0
49.671604 148.0
49.690826 180.0
49.693497 132.0
49.714352 144.0
49.730492 132.0
49.758568 120.0
49.786652 216.0
49.79929 132.0
49.827385 112.0
49.851421 188.0
49.86869 152.0
49.885002 36.0
49.9221 176.0
49.969028 224.0
49.995369 180.0
50.030159 132.0
50.084915 168.0
50.096409 172.0
50.107353 72.0
50.127079 108.0
50.13916 172.0
50.152447 116.0
50.163723 72.0
50.188629 36.0
50.224354 156.0
50.256756 128.0
50.276852 380.0
50.288761 68.0
50.301926 160.0
50.306557 156.0
50.312355 44.0
50.318279 172.0
50.324184 140.0
50.344318 200.0
50.36808 184.0
50.386692 248.0
50.407887 116.0
50.428688 168.0
50.475349 176.0
50.501625 392.0
50.519535 132.0
50.524361 128.0
50.527344 164.0
50.576004 128.0
50.594582 160.0
50.623863 276.0
50.634228 40.0
50.652138 168.0
50.688061 112.0
50.7033 196.0
50.716228 160.0
50.734833 128.0
50.746174 72.0
50.757519 284.0
50.808128 152.0
50.82515 100.0
50.831207 160.0
50.833214 252.0
50.852566 204.0
50.867439 208.0
50.873631 100.0
50.876873 192.0
50.893215 208.0
50.934917 120.0
50.949123 104.0
50.997433 140.0
51.049442 172.0
51.077442 228.0
51.107548 152.0
51.161678 184.0
51.180946 176.0
51.202309 140.0
51.217976 292.0
51.267841 100.0
51.290237 196.0
51.314877 172.0
51.35696 196.0
51.373348 160.0
51.389042 116.0
51.419292 180.0
51.443272 120.0
51.46542 168.0
51.476112 124.0
51.498268 132.0
51.504055 148.0
51.506554 216.0
51.530388 124.0
51.603912 144.0
51.615135 188.0
51.633305 312.0
51.661434 96.0
51.719456 224.0
51.750645 140.0
51.764961 120.0
51.777851 164.0
51.78965 184.0
51.8022 204.0
51.827988 136.0
51.84375 144.0
51.859516 120.0
51.888042 160.0
51.939308 160.0
51.960728 128.0
51.97998 152.0
52.004063 128.0
52.008968 100.0
52.012016 148.0
52.03883 156.0
52.060368 148.0
52.086357 124.0
52.123814 280.0
52.148003 152.0
52.17527 136.0
52.190399 132.0
52.201195 132.0
52.215572 124.0
52.238586 36.0
52.256454 160.0
52.291546 184.0
52.317734 180.0
52.360966 176.0
52.387699 280.0
52.401264 144.0
52.438087 168.0
52.473324 212.0
52.494953 196.0
52.515362 264.0
52.541107 148.0
52.558422 104.0
52.637276 216.0
52.648281 64.0
52.651642 152.0
52.669582 164.0
52.692696 68.0
52.728008 64.0
52.74572 324.0
52.786644 172.0
52.798214 128.0
52.822803 184.0
52.837917 148.0
52.850288 196.0
52.867523 204.0
52.908894 144.0
52.919765 156.0
52.974926 132.0
53.000874 124.0
53.027161 200.0
53.045799 164.0
53.075584 148.0
53.086395 260.0
53.096546 132.0
53.133472 228.0
53.167633 136.0
53.180695 112.0
53.199249 164.0
53.230984 300.0
53.258312 140.0
53.283798 68.0
53.298325 48.0
53.308498 124.0
53.327389 132.0
53.340469 124.0
53.352287 156.0
53.372719 88.0
53.401539 148.0
53.417202 156.0
53.442608 172.0
53.476433 236.0
53.499031 164.0
53.558731 148.0
53.579124 208.0
53.60276 108.0
53.651539 256.0
53.664143 108.0
53.700111 104.0
53.720573 264.0
53.733662 228.0
53.748253 52.0
53.758465 152.0
53.775978 172.0
53.797874 124.0
53.811012 156.0
53.824154 200.0
53.837296 68.0
53.84898 108.0
53.86647 168.0
53.892803 136.0
53.908878 236.0
53.928692 172.0
53.952724 160.0
53.968807 44.0
53.989277 124.0
54.002441 92.0
54.014141 112.0
54.03788 176.0
54.0634 116.0
54.090664 120.0
54.11219 228.0
54.132103 180.0
54.14698 200.0
54.178581 120.0
54.213829 288.0
54.218021 112.0
54.22271 204.0
54.246967 132.0
54.286201 184.0
54.314419 136.0
54.327621 128.0
54.366241 124.0
54.392189 112.0
54.405399 136.0
54.418613 80.0
54.440598 144.0
54.455322 168.0
54.465603 144.0
54.47966 184.0
54.503296 140.0
54.514236 212.0
54.528488 40.0
54.542011 60.0
54.556709 220.0
54.577293 92.0
54.590527 120.0
54.619144 140.0
54.659664 136.0
54.683208 136.0
54.696457 128.0
54.718536 208.0
54.746513 136.0
54.760666 236.0
54.773026 180.0
54.784809 128.0
54.801014 108.0
54.826935 156.0
54.840542 520.0
54.865219 156.0
54.898575 216.0
54.925613 100.0
54.941074 184.0
54.967587 136.0
54.999084 128.0
55.010429 260.0
55.026222 172.0
55.050293 204.0
55.105972 196.0
55.145676 176.0
55.158985 268.0
55.19215 156.0
55.219028 136.0
55.233559 176.0
55.263466 124.0
55.282379 64.0
55.29422 140.0
55.311981 160.0
55.353436 192.0
55.364639 212.0
55.378609 64.0
55.390457 40.0
55.405273 156.0
55.420582 168.0
55.433422 160.0
55.458618 340.0
55.482162 172.0
55.500809 160.0
55.518681 172.0
55.553516 152.0
55.584675 64.0
55.614353 124.0
55.630684 104.0
55.647213 148.0
55.682652 252.0
55.704929 120.0
55.717098 204.0
55.73613 184.0
55.749504 104.0
55.776257 212.0
55.798553 184.0
55.817883 212.0
55.836781 204.0
55.874252 160.0
55.895802 104.0
55.939178 136.0
55.943035 100.0
55.961697 232.0
55.978142 200.0
55.989647 244.0
56.047108 92.0
56.06052 140.0
56.087311 164.0
56.100071 172.0
56.115669 188.0
56.12896 204.0
56.141018 72.0
56.163319 168.0
56.201492 96.0
56.214085 212.0
56.24844 120.0
56.264862 112.0
56.294083 168.0
56.310226 200.0
56.345509 208.0
56.389732 228.0
56.403786 76.0
56.440712 120.0
56.455517 132.0
56.488022 132.0
56.529953 312.0
56.539604 84.0
56.581322 124.0
56.593216 212.0
56.635712 156.0
56.68515 160.0
56.712124 124.0
56.73011 204.0
56.741699 104.0
56.755531 88.0
56.788589 124.0
56.804379 164.0
56.82159 216.0
56.832092 116.0
56.856102 96.0
56.870384 124.0
56.890625 184.0
56.909569 156.0
56.925621 116.0
56.967209 176.0
56.97797 228.0
57.031174 204.0
57.045868 128.0
57.060318 156.0
57.078487 196.0
57.108505 40.0
57.141598 144.0
57.161987 152.0
57.177711 104.0
57.193745 196.0
57.212521 188.0
57.24807 152.0
57.273125 172.0
57.293652 92.0
57.345592 136.0
57.391617 116.0
57.408203 132.0
57.438427 200.0
57.469692 136.0
57.491173 284.0
57.557503 140.0
57.596855 124.0
57.613472 160.0
57.662315 108.0
57.684719 164.0
57.725319 152.0
57.749516 228.0
57.763126 144.0
57.782795 88.0
57.793385 192.0
57.808517 172.0
57.828945 204.0
57.859978 156.0
57.92358 176.0
57.935699 112.0
57.958267 156.0
57.962147 236.0
57.985699 84.0
58.010712 196.0
58.028866 184.0
58.040421 204.0
58.061092 172.0
58.08577 152.0
58.132805 152.0
58.143425 156.0
58.162766 140.0
58.190483 232.0
58.21022 108.0
58.233295 368.0
58.246262 196.0
58.26186 228.0
58.277054 116.0
58.289207 112.0
58.321301 172.0
58.351559 176.0
58.375854 264.0
58.393597 108.0
58.441597 144.0
58.477207 212.0
58.48912 240.0
58.527733 128.0
58.556831 152.0
58.573704 124.0
58.60944 128.0
58.659035 148.0
58.680378 44.0
58.691051 52.0
58.712399 104.0
58.743202 184.0
58.759686 176.0
58.793255 76.0
58.835991 132.0
58.855789 120.0
58.929153 344.0
58.940563 164.0
58.967358 124.0
58.979584 144.0
58.99324 184.0
58.99757 172.0
59.011684 180.0
59.028503 148.0
59.038776 176.0
59.072857 104.0
59.086674 128.0
59.103333 100.0
59.131523 152.0
59.137478 192.0
59.183849 172.0
59.195297 184.0
59.227154 120.0
59.253502 108.0
59.273418 152.0
59.284145 84.0
59.315353 176.0
59.328182 200.0
59.353127 132.0
59.364716 172.0
59.373795 184.0
59.38533 156.0
59.416008 32.0
59.440556 156.0
59.471249 152.0
59.498878 284.0
59.526516 160.0
59.556393 88.0
59.583347 160.0
59.597176 164.0
59.630981 212.0
59.649426 60.0
59.682777 144.0
59.694908 144.0
59.710926 192.0
59.730923 116.0
59.741692 136.0
59.788559 252.0
59.827869 144.0
59.844307 272.0
59.846828 228.0
59.880219 136.0
59.901783 184.0
59.918728 156.0
59.937393 176.0
59.948036 196.0
59.971531 180.0
59.991161 172.0
60.008503 176.0
60.034069 164.0
60.072796 196.0
60.102203 232.0
60.123806 64.0
60.147102 168.0
60.163376 172.0
60.188885 152.0
60.202354 184.0
60.24115 192.0
60.334549 164.0
60.340427 216.0
60.361702 116.0
60.372524 96.0
60.393764 224.0
60.448925 184.0
60.460861 112.0
60.502857 184.0
60.547878 168.0
60.561337 152.0
60.61866 128.0
60.655853 180.0
60.68412 180.0
60.695263 172.0
60.713478 120.0
60.727596 148.0
60.776043 296.0
60.78957 160.0
60.814064 132.0
60.871815 200.0
60.902096 132.0
60.92276 160.0
60.955387 268.0
60.967815 152.0
60.987259 196.0
61.000458 324.0
61.012894 112.0
61.036434 228.0
61.066235 184.0
61.078205 104.0
61.095661 144.0
61.117096 192.0
61.140438 152.0
61.174023 152.0
61.214878 180.0
61.243195 164.0
61.264652 176.0
61.294601 184.0
61.316711 128.0
61.374096 32.0
61.390224 128.0
61.403725 100.0
61.433361 180.0
61.444283 196.0
61.459885 192.0
61.498108 316.0
61.525085 108.0
61.552288 140.0
61.597267 176.0
61.617573 144.0
61.669968 144.0
61.686337 140.0
61.708221 152.0
61.72047 120.0
61.742622 128.0
61.773903 156.0
61.817333 480.0
61.842751 72.0
61.870426 100.0
61.897991 180.0
61.969986 96.0
61.981964 160.0
61.998978 308.0
62.02829 132.0
62.095428 160.0
62.108723 160.0
62.181286 284.0
62.203259 252.0
62.262924 60.0
62.294483 172.0
62.327721 176.0
62.341473 160.0
62.35247 144.0
62.376495 136.0
62.388622 160.0
62.409977 144.0
62.420067 176.0
62.432301 180.0
62.476868 176.0
62.498207 160.0
62.519772 200.0
62.538055 192.0
62.551193 220.0
62.562298 216.0
62.582699 164.0
62.599457 160.0
62.626228 128.0
62.697033 216.0
62.739681 132.0
62.752293 48.0
62.770828 252.0
62.804085 152.0
62.809261 32.0
62.812996 252.0
62.846928 168.0
62.870544 120.0
62.876148 116.0
62.879047 180.0
62.899853 268.0
62.919525 100.0
62.945316 184.0
62.970055 104.0
62.99604 196.0
63.014931 256.0
63.030087 168.0
63.052208 100.0
63.064114 128.0
63.094887 140.0
63.105953 120.0
63.132427 232.0
63.186615 188.0
63.20718 328.0
63.219841 100.0
63.243492 144.0
63.259411 192.0
63.272072 152.0
63.294121 212.0
63.3116 328.0
63.371365 212.0
63.403542 116.0
63.436913 148.0
63.457436 180.0
63.48439 92.0
63.501835 116.0
63.533398 196.0
63.584335 128.0
63.618038 120.0
63.630367 52.0
63.655693 164.0
63.673283 156.0
63.725044 320.0
63.748241 152.0
63.776512 196.0
63.798767 32.0
63.859188 164.0
63.871914 152.0
63.895775 188.0
63.918049 236.0
63.932884 112.0
63.956245 76.0
63.992039 140.0
64.018333 196.0
64.037445 36.0
64.091606 192.0
64.135033 160.0
64.164665 124.0
64.166962 244.0
64.188271 156.0
64.228706 112.0
64.243065 160.0
64.260223 392.0
64.311722 140.0
64.361252 148.0
64.398552 244.0
64.44902 148.0
64.479195 140.0
64.498558 104.0
64.511345 48.0
64.549713 56.0
64.585777 240.0
64.615295 184.0
64.626907 156.0
64.676102 120.0
64.71933 92.0
64.740746 224.0
64.760963 132.0
64.780449 132.0
64.8377 232.0
64.871521 184.0
64.89344 172.0
64.911606 328.0
64.926041 96.0
64.948494 164.0
64.986992 164.0
65.007851 120.0
65.019089 216.0
65.035133 152.0
65.135468 184.0
65.170685 256.0
65.19725 132.0
65.206314 296.0
65.223061 136.0
65.237526 120.0
65.248779 44.0
65.274467 160.0
65.303452 84.0
65.334389 260.0
65.354927 44.0
65.371017 208.0
65.413879 204.0
65.430573 176.0
65.444664 308.0
65.472435 48.0
65.523613 104.0
65.546989 184.0
65.575546 120.0
65.607788 180.0
65.625519 172.0
65.643257 196.0
65.656158 104.0
65.705032 172.0
65.735199 36.0
65.751343 104.0
65.804253 240.0
65.820755 128.0
65.837967 388.0
65.867813 160.0
65.920135 76.0
65.94487 164.0
65.971107 132.0
65.998489 100.0
66.021126 188.0
66.042152 180.0
66.089066 124.0
66.115723 148.0
66.133682 204.0
66.158661 236.0
66.18618 144.0
66.201706 108.0
66.222481 144.0
66.264771 200.0
66.313255 152.0
66.356308 212.0
66.37252 36.0
66.386932 144.0
66.400024 116.0
66.418663 308.0
66.433685 168.0
66.446266 128.0
66.466957 180.0
66.539635 188.0
66.562119 156.0
66.577003 128.0
66.601341 100.0
66.615959 124.0
66.656136 132.0
66.669579 120.0
66.694977 244.0
66.732391 124.0
66.762856 180.0
66.827301 124.0
66.845337 148.0
66.858223 76.0
66.876122 136.0
66.891373 172.0
66.907051 176.0
66.933098 356.0
66.95607 152.0
67.024315 132.0
67.042244 136.0
67.068321 388.0
67.099419 156.0
67.122803 260.0
67.13842 164.0
67.159187 184.0
67.170914 100.0
67.187355 136.0
67.207153 120.0
67.228149 152.0
67.249367 140.0
67.260788 144.0
67.368561 140.0
67.383965 172.0
67.402275 200.0
67.4646 160.0
67.479691 108.0
67.494995 100.0
67.556137 156.0
67.600731 152.0
67.620903 252.0
67.682571 208.0
67.737076 172.0
67.749725 152.0
67.761375 144.0
67.818542 156.0
67.854607 128.0
67.875923 156.0
67.910362 128.0
67.996071 132.0
68.025818 324.0
68.042679 272.0
68.070351 188.0
68.084328 104.0
68.103127 148.0
68.128677 136.0
68.150032 44.0
68.173035 88.0
68.191116 36.0
68.222343 72.0
68.240433 72.0
68.285881 188.0
68.290916 120.0
68.295044 152.0
68.321182 176.0
68.372025 136.0
68.383545 176.0
68.400002 224.0
68.411522 140.0
68.458649 160.0
68.475739 68.0
68.508682 172.0
68.535042 184.0
68.563057 144.0
68.588806 160.0
68.608948 316.0
68.645485 244.0
68.658401 196.0
68.673416 200.0
68.703209 56.0
68.742805 80.0
68.765907 144.0
68.781517 264.0
68.794846 112.0
68.820389 156.0
68.835243 136.0
68.861671 184.0
68.874886 376.0
68.906265 148.0
68.949905 88.0
68.980637 108.0
69.002129 140.0
69.025276 160.0
69.067467 296.0
69.132431 128.0
69.177483 52.0
69.216209 204.0
69.230461 208.0
69.248528 148.0
69.27684 92.0
69.305008 136.0
69.321907 140.0
69.346619 176.0
69.358032 252.0
69.38031 164.0
69.391998 140.0
69.430984 184.0
69.458458 156.0
69.50563 128.0
69.545364 136.0
69.580322 160.0
69.600243 80.0
69.618507 108.0
69.653389 200.0
69.683914 192.0
69.707779 200.0
69.731331 176.0
69.754753 88.0
69.772728 196.0
69.800308 324.0
69.832901 36.0
69.85807 148.0
69.891121 156.0
69.934761 292.0
69.957695 156.0
69.981987 176.0
70.002647 172.0
70.055946 148.0
70.084267 136.0
70.105927 96.0
70.12426 136.0
70.145676 156.0
70.170052 136.0
70.214882 204.0
70.23452 124.0
70.249313 240.0
70.277672 124.0
70.302704 176.0
70.32251 152.0
70.337753 240.0
70.37281 124.0
70.39399 152.0
70.422905 52.0
70.475624 308.0
70.491997 116.0
70.504005 184.0
70.539536 180.0
70.571274 352.0
70.588356 152.0
70.618233 116.0
70.625053 144.0
70.680351 192.0
70.709503 160.0
70.767998 88.0
70.78315 136.0
70.833092 256.0
70.856155 68.0
70.875534 176.0
70.898857 140.0
70.963768 96.0
70.993599 164.0
71.010368 136.0
71.040558 136.0
71.064621 176.0
71.126137 120.0
71.164131 228.0
71.217476 120.0
71.271217 108.0
71.289047 112.0
71.304176 48.0
71.350754 124.0
71.371307 128.0
71.423546 184.0
71.479668 224.0
71.509354 212.0
71.540367 180.0
71.561539 80.0
71.615425 100.0
71.65712 208.0
71.670609 132.0
71.701347 188.0
71.714836 264.0
71.733376 180.0
71.758659 188.0
71.799133 288.0
71.818527 128.0
71.834549 152.0
71.867912 124.0
71.894699 292.0
71.929047 116.0
71.942551 216.0
71.969566 48.0
71.991516 52.0
72.021667 412.0
72.056152 120.0
72.084343 172.0
72.121605 156.0
72.141884 208.0
72.161613 96.0
72.182465 184.0
72.20752 152.0
72.236351 232.0
72.250648 140.0
72.263649 72.0
72.299187 40.0
72.344887 120.0
72.365448 136.0
72.38282 168.0
72.404144 152.0
72.416 136.0
72.451576 148.0
72.483765 92.0
72.516609 176.0
72.532806 124.0
72.561729 108.0
72.596046 240.0
72.644279 160.0
72.661789 216.0
72.704208 156.0
72.734764 144.0
72.756828 92.0
72.770409 28.0
72.788116 204.0
72.819656 272.0
72.854622 152.0
72.873016 176.0
72.889305 56.0
72.918274 252.0
72.950111 404.0
73.022751 176.0
73.033363 188.0
73.051422 232.0
73.069534 144.0
73.142464 56.0
73.164833 168.0
73.209106 144.0
73.278938 88.0
73.29184 144.0
73.32505 156.0
73.38092 48.0
73.395691 400.0
73.412201 132.0
73.441635 204.0
73.461357 108.0
73.47921 112.0
73.498886 56.0
73.545578 136.0
73.570572 132.0
73.601303 156.0
73.635185 152.0
73.683281 84.0
73.699547 216.0
73.72554 140.0
73.740814 236.0
73.800644 156.0
73.818314 204.0
73.83297 216.0
73.844948 180.0
73.873039 212.0
73.887512 132.0
73.920944 140.0
73.943192 136.0
73.956886 136.0
74.027077 184.0
74.066467 188.0
74.105865 156.0
74.134995 156.0
74.146996 116.0
74.165848 96.0
74.21701 128.0
74.246429 140.0
74.268723 144.0
74.296165 124.0
74.309891 228.0
74.330482 116.0
74.365051 140.0
74.388832 64.0
74.40757 136.0
74.430992 144.0
74.447212 372.0
74.458282 164.0
74.479843 164.0
74.499321 164.0
74.553719 168.0
74.567467 80.0
74.599236 124.0
74.619034 136.0
74.646545 156.0
74.682663 172.0
74.74263 144.0
74.753616 164.0
74.779007 52.0
74.803108 84.0
74.822044 132.0
74.859924 216.0
74.879204 204.0
74.910843 184.0
74.93399 180.0
74.955307 140.0
74.979858 188.0
75.010254 172.0
75.065453 132.0
75.090088 124.0
75.105637 180.0
75.11837 92.0
75.144325 116.0
75.159851 80.0
75.185738 68.0
75.200935 156.0
75.295647 232.0
75.30825 220.0
75.330772 152.0
75.344093 180.0
75.356682 56.0
75.372231 156.0
75.392967 200.0
75.420242 144.0
75.489777 244.0
75.507072 128.0
75.533012 156.0
75.556877 232.0
75.562843 116.0
75.567947 144.0
75.595665 188.0
75.628181 168.0
75.693962 164.0
75.714745 156.0
75.737259 192.0
75.771904 88.0
75.803146 124.0
75.816956 136.0
75.870689 168.0
75.882828 164.0
75.89843 392.0
75.925362 188.0
75.952682 180.0
75.967804 108.0
75.990356 172.0
76.037209 196.0
76.089577 164.0
76.159073 164.0
76.176933 76.0
76.221283 124.0
76.238655 136.0
76.301788 188.0
76.31514 264.0
76.348175 104.0
76.391663 148.0
76.444183 240.0
76.465645 100.0
76.513474 176.0
76.536392 244.0
76.569199 152.0
76.607513 88.0
76.629417 140.0
76.645844 184.0
76.662979 120.0
76.682442 100.0
76.741707 128.0
76.762634 172.0
76.779518 176.0
76.792374 140.0
76.818443 124.0
76.893471 132.0
76.909683 124.0
76.922356 188.0
76.987961 192.0
77.035774 168.0
77.058495 204.0
77.089058 308.0
77.103043 140.0
77.118767 160.0
77.159821 140.0
77.200935 216.0
77.225426 128.0
77.272682 144.0
77.309395 28.0
77.321648 160.0
77.354904 124.0
77.370659 196.0
77.399445 264.0
77.42572 180.0
77.432259 224.0
77.448288 144.0
77.464714 124.0
77.557587 180.0
77.590942 180.0
77.657463 124.0
77.701889 144.0
77.721184 148.0
77.754135 164.0
77.796654 216.0
77.827721 184.0
77.851082 152.0
77.863373 112.0
77.8787 128.0
77.900261 116.0
77.915192 200.0
77.941589 260.0
77.963509 120.0
77.993385 148.0
78.025757 200.0
78.049294 120.0
78.14328 152.0
78.148582 144.0
78.170586 132.0
78.211494 80.0
78.238319 100.0
78.2565 120.0
78.274872 172.0
78.318108 196.0
78.32177 108.0
78.329605 156.0
78.361671 184.0
78.380554 184.0
78.410851 168.0
78.436951 108.0
78.450371 216.0
78.491608 100.0
78.518059 104.0
78.533928 108.0
78.556862 80.0
78.582932 144.0
78.61129 188.0
78.633652 188.0
78.65744 64.0
78.675438 124.0
78.726295 120.0
78.751442 184.0
78.793419 84.0
78.807549 368.0
78.839355 184.0
78.85675 152.0
78.881775 208.0
78.906525 128.0
78.9189 52.0
78.945427 124.0
78.959572 172.0
78.982567 108.0
79.037407 180.0
79.0728 164.0
79.101982 180.0
79.149048 160.0
79.168648 112.0
79.197639 148.0
79.251968 244.0
79.285316 376.0
79.325768 156.0
79.365608 148.0
79.413582 180.0
79.436028 60.0
79.476608 160.0
79.498123 196.0
79.512138 120.0
79.58194 164.0
79.608185 248.0
79.624168 292.0
79.642708 228.0
79.682785 140.0
79.696503 200.0
79.7248 216.0
79.756599 244.0
79.800385 140.0
79.835648 120.0
79.860542 88.0
79.878464 160.0
79.901459 208.0
79.920601 200.0
79.925385 152.0
79.977852 116.0
80.010834 96.0
80.025284 104.0
80.045105 424.0
80.05809 104.0
80.093712 164.0
80.129341 136.0
80.157196 100.0
80.167915 184.0
80.2024 148.0
80.230919 164.0
80.287834 148.0
80.307228 116.0
80.314262 92.0
80.319191 184.0
80.422989 240.0
80.452126 120.0
80.488815 244.0
80.566422 64.0
80.646828 80.0
80.686157 116.0
80.704033 156.0
80.726227 40.0
80.771919 100.0
80.804192 196.0
80.832817 124.0
80.881142 168.0
80.909782 252.0
80.936638 132.0
80.95533 148.0
80.970032 160.0
80.999321 116.0
81.04052 168.0
81.053062 112.0
81.101448 172.0
81.161613 380.0
81.174957 132.0
81.189133 128.0
81.263962 328.0
81.277199 92.0
81.29335 72.0
81.309502 36.0
81.343597 100.0
81.372322 168.0
81.399254 52.0
81.411827 264.0
81.438766 44.0
81.466919 208.0
81.510628 116.0
81.530396 188.0
81.571732 56.0
81.590385 148.0
81.634659 164.0
81.660507 128.0
81.674988 140.0
81.690414 136.0
81.705261 172.0
81.719193 120.0
81.758781 136.0
81.785782 128.0
81.803154 196.0
81.830841 132.0
81.881203 168.0
81.895607 144.0
81.92083 172.0
81.961624 248.0
82.000107 148.0
82.012726 124.0
82.051697 168.0
82.075821 144.0
82.092049 76.0
82.109482 144.0
82.119705 144.0
82.163086 176.0
82.180435 160.0
82.202377 100.0
82.220131 140.0
82.247208 180.0
82.272644 124.0
82.310394 132.0
82.323029 132.0
82.339287 180.0
82.359154 120.0
82.377213 148.0
82.388878 88.0
82.407928 180.0
82.451965 148.0
82.465752 136.0
82.48925 92.0
82.516304 208.0
82.566994 152.0
82.594925 116.0
82.608543 136.0
82.624878 184.0
82.636658 164.0
82.665848 124.0
82.671288 80.0
82.71051 100.0
82.739845 228.0
82.762428 144.0
82.780533 96.0
82.808731 196.0
82.828087 140.0
82.84462 64.0
82.863853 116.0
82.876534 156.0
82.891029 140.0
82.923981 200.0
82.960594 188.0
82.989136 188.0
83.02655 148.0
83.045128 120.0
83.073463 208.0
83.087044 184.0
83.123131 200.0
83.135918 248.0
83.179306 164.0
83.214828 316.0
83.230225 156.0
83.257469 128.0
83.286858 196.0
83.300522 216.0
83.321037 40.0
83.337074 188.0
83.353157 136.0
83.388268 164.0
83.406448 224.0
83.42099 156.0
83.447502 164.0
83.498161 156.0
83.553368 156.0
83.582855 120.0
83.624321 152.0
83.667633 316.0
83.713913 176.0
83.756104 168.0
83.806808 136.0
83.830498 128.0
83.848251 200.0
83.878654 180.0
83.901581 156.0
83.917992 60.0
83.972549 152.0
83.99276 152.0
84.009766 204.0
84.059532 140.0
84.083984 96.0
84.102234 124.0
84.155174 36.0
84.232376 316.0
84.257454 128.0
84.272064 124.0
84.295822 72.0
84.31044 48.0
84.375862 136.0
84.405495 140.0
84.498772 108.0
84.529877 212.0
84.546349 244.0
84.566483 180.0
84.584785 108.0
84.617737 156.0
84.639709 176.0
84.669739 172.0
84.745842 152.0
84.770447 160.0
84.804581 124.0
84.824745 192.0
84.859573 328.0
84.883408 112.0
84.90033 164.0
84.953102 124.0
84.98613 136.0
84.99897 68.0
85.040604 196.0
85.089218 140.0
85.112213 188.0
85.136642 64.0
85.171539 36.0
85.203903 272.0
85.253868 148.0
85.298325 112.0
85.329575 136.0
85.358131 204.0
85.373711 120.0
85.386581 68.0
85.411781 356.0
85.454643 156.0
85.513527 148.0
85.528252 116.0
85.552177 112.0
85.571999 120.0
85.596367 120.0
85.647934 168.0
85.665184 164.0
85.70504 144.0
85.717941 180.0
85.76033 132.0
85.783867 156.0
85.790062 120.0
85.795433 172.0
85.843094 152.0
85.875153 172.0
85.94239 176.0
85.965034 100.0
85.990318 200.0
86.017632 164.0
86.031479 220.0
86.058998 172.0
86.066414 100.0
86.072639 164.0
86.10318 144.0
86.13858 128.0
86.151512 128.0
86.186615 160.0
86.214157 124.0
86.296677 196.0
86.328949 148.0
86.346375 132.0
86.371483 156.0
86.406631 168.0
86.455185 260.0
86.483788 236.0
86.500496 200.0
86.536186 160.0
86.550995 124.0
86.574608 176.0
86.600258 160.0
86.637871 168.0
86.687675 224.0
86.714012 188.0
86.734314 160.0
86.736839 152.0
86.746719 208.0
86.767151 120.0
86.789024 112.0
86.802139 212.0
86.838745 184.0
86.860489 184.0
86.897591 52.0
86.924652 192.0
86.945381 184.0
86.968109 92.0
87.021141 212.0
87.067719 184.0
87.103653 156.0
87.131516 84.0
87.156502 116.0
87.190132 100.0
87.283928 148.0
87.3172 148.0
87.368652 252.0
87.395523 120.0
87.433563 200.0
87.453217 32.0
87.503471 160.0
87.5271 260.0
87.543953 260.0
87.55127 192.0
87.571869 132.0
87.587273 164.0
87.667389 188.0
87.682297 180.0
87.698441 212.0
87.721436 132.0
87.741028 236.0
87.788742 216.0
87.809067 128.0
87.888947 176.0
87.907555 212.0
87.939667 136.0
87.956467 52.0
87.975136 144.0
87.990067 196.0
88.012474 48.0
88.03241 136.0
88.047951 100.0
88.070366 216.0
88.090912 112.0
88.13253 144.0
88.181725 164.0
88.203484 132.0
88.244156 132.0
88.275864 328.0
88.298386 148.0
88.356033 244.0
88.38443 192.0
88.403145 216.0
88.419693 152.0
88.461166 176.0
88.496979 124.0
88.527153 124.0
88.538063 232.0
88.579117 224.0
88.642838 148.0
88.672821 348.0
88.700226 144.0
88.729576 144.0
88.766319 220.0
88.77684 156.0
88.792801 212.0
88.805931 92.0
88.853531 180.0
88.870232 144.0
88.915039 104.0
88.9842 144.0
89.038193 280.0
89.081856 216.0
89.118134 128.0
89.160515 148.0
89.163116 128.0
89.220917 116.0
89.25219 208.0
89.288116 168.0
89.292007 124.0
89.334435 164.0
89.352913 64.0
89.386879 116.0
89.42337 140.0
89.459831 308.0
89.512543 216.0
89.548325 80.0
89.571434 268.0
89.606216 120.0
89.640633 132.0
89.727341 64.0
89.746193 152.0
89.778381 172.0
89.806534 132.0
89.833679 92.0
89.861244 116.0
89.883881 28.0
89.919739 72.0
89.947296 140.0
89.966927 276.0
90.033012 140.0
90.051582 188.0
90.070786 144.0
90.084007 240.0
90.110458 72.0
90.135017 152.0
90.160393 224.0
90.197815 88.0
90.25032 72.0
90.264572 160.0
90.286247 136.0
90.303375 136.0
90.324074 148.0
90.353531 112.0
90.392181 140.0
90.425697 124.0
90.448036 296.0
90.462067 160.0
90.494392 112.0
90.534157 104.0
90.572029 192.0
90.590446 144.0
90.612961 264.0
90.676239 136.0
90.723625 128.0
90.749641 364.0
90.779793 160.0
90.825714 392.0
90.843674 236.0
90.86586 164.0
90.880348 212.0
90.900009 164.0
90.934174 80.0
90.967278 292.0
91.005241 136.0
91.027046 160.0
91.05545 1908.0
91.081215 296.0
91.118362 136.0
91.171562 136.0
91.226685 112.0
91.284378 208.0
91.31691 124.0
91.336975 136.0
91.38205 196.0
91.407364 236.0
91.42041 112.0
91.462555 128.0
91.490547 176.0
91.50824 176.0
91.536804 260.0
91.55394 96.0
91.575584 208.0
91.584015 152.0
91.587341 328.0
91.624458 176.0
91.641563 84.0
91.6549 196.0
91.691109 132.0
91.71122 164.0
91.746437 144.0
91.780571 120.0
91.811211 136.0
91.841728 176.0
91.88517 176.0
91.904678 216.0
91.971199 140.0
92.013466 200.0
92.061447 796.0
92.084122 204.0
92.099396 64.0
92.121506 188.0
92.152885 108.0
92.175789 132.0
92.202568 152.0
92.221069 188.0
92.261124 132.0
92.309059 176.0
92.360947 148.0
92.377029 164.0
92.391861 112.0
92.418358 184.0
92.441612 152.0
92.494331 164.0
92.529266 156.0
92.536453 124.0
92.575607 240.0
92.592842 72.0
92.610085 160.0
92.631195 164.0
92.656052 112.0
92.744408 148.0
92.752602 136.0
92.756317 200.0
92.780624 96.0
92.814728 152.0
92.838142 120.0
92.855408 104.0
92.871452 76.0
92.886093 220.0
92.918701 152.0
92.978371 128.0
93.067863 476.0
93.08889 108.0
93.10041 168.0
93.148262 156.0
93.168274 32.0
93.228569 232.0
93.250084 132.0
93.272041 88.0
93.291267 124.0
93.31443 160.0
93.341255 144.0
93.364326 96.0
93.377792 84.0
93.437424 204.0
93.454735 132.0
93.479752 116.0
93.558441 204.0
93.575195 164.0
93.604874 124.0
93.639534 160.0
93.674202 364.0
93.707291 92.0
93.751099 360.0
93.768616 52.0
93.834579 256.0
93.859222 140.0
93.913216 152.0
93.944077 56.0
94.031181 140.0
94.066414 152.0
94.132904 48.0
94.187302 156.0
94.22113 320.0
94.245255 148.0
94.317902 176.0
94.352425 212.0
94.381111 168.0
94.415359 188.0
94.439117 368.0
94.465782 176.0
94.486931 52.0
94.523033 212.0
94.55407 160.0
94.612717 168.0
94.634781 148.0
94.647568 184.0
94.680489 220.0
94.70179 168.0
94.725037 144.0
94.738594 80.0
94.783157 104.0
94.80835 272.0
94.828377 108.0
94.843231 108.0
94.858742 156.0
94.899452 140.0
94.970673 132.0
94.994476 196.0
95.037163 100.0
95.068993 168.0
95.092789 132.0
95.114098 176.0
95.13443 132.0
95.143745 100.0
95.16526 144.0
95.180794 136.0
95.198273 148.0
95.215744 200.0
95.238403 120.0
95.30381 132.0
95.327774 168.0
95.388725 140.0
95.428917 108.0
95.432465 144.0
95.441017 108.0
95.44751 136.0
95.48394 144.0
95.519424 148.0
95.558807 152.0
95.575089 168.0
95.598717 208.0
95.649323 144.0
95.703087 168.0
95.715569 180.0
95.740829 40.0
95.766144 112.0
95.813919 160.0
95.828049 180.0
95.845779 132.0
95.8694 172.0
95.964218 112.0
95.988312 112.0
96.016479 144.0
96.029961 144.0
96.048767 172.0
96.080849 1340.0
96.107964 140.0
96.14856 164.0
96.181633 172.0
96.200974 128.0
96.242233 148.0
96.263962 144.0
96.320084 60.0
96.337669 148.0
96.365021 124.0
96.422523 232.0
96.443184 152.0
96.456863 128.0
96.494659 216.0
96.525291 72.0
96.56144 140.0
96.583961 96.0
96.636597 84.0
96.656006 208.0
96.673958 168.0
96.69062 140.0
96.717018 136.0
96.75029 104.0
96.777153 172.0
96.845123 188.0
96.860207 156.0
96.867218 152.0
96.912003 196.0
96.953667 240.0
96.986626 208.0
97.018677 60.0
97.056381 156.0
97.080841 268.0
97.104065 396.0
97.122017 160.0
97.146141 176.0
97.169685 128.0
97.216599 132.0
97.224106 120.0
97.249542 132.0
97.274963 204.0
97.318024 128.0
97.346336 64.0
97.374237 212.0
97.411415 148.0
97.45256 148.0
97.475983 176.0
97.505455 56.0
97.519218 168.0
97.558479 164.0
97.583664 112.0
97.604385 124.0
97.626991 156.0
97.658195 128.0
97.675667 168.0
97.728508 168.0
97.745369 88.0
97.759148 48.0
97.786697 100.0
97.839378 152.0
97.867409 204.0
97.907684 132.0
97.926483 140.0
97.940269 124.0
97.983604 148.0
98.011192 196.0
98.024986 100.0
98.058487 180.0
98.090363 184.0
98.104744 136.0
98.151268 184.0
98.188606 180.0
98.202408 104.0
98.230026 144.0
98.259125 128.0
98.348412 136.0
98.362228 164.0
98.385918 144.0
98.414719 164.0
98.4412 216.0
98.464905 172.0
98.502426 164.0
98.527054 112.0
98.567627 88.0
98.583435 172.0
98.634666 264.0
98.677979 152.0
98.712563 124.0
98.762192 172.0
98.782692 128.0
98.814774 204.0
98.843033 208.0
98.863029 228.0
98.880074 100.0
98.893929 184.0
98.90976 96.0
98.965195 64.0
98.99353 116.0
99.01973 148.0
99.044403 36.0
99.066193 120.0
99.095856 136.0
99.103294 96.0
99.109314 188.0
99.131577 124.0
99.145447 160.0
99.187073 144.0
99.210854 132.0
99.23465 236.0
99.270905 168.0
99.298103 184.0
99.31131 152.0
99.339951 160.0
99.36158 136.0
99.403244 152.0
99.417137 108.0
99.440948 144.0
99.468292 144.0
99.494308 136.0
99.507492 252.0
99.530281 124.0
99.544182 72.0
99.558083 176.0
99.573967 168.0
99.61084 284.0
99.62561 360.0
99.648712 108.0
99.689194 184.0
99.715027 120.0
99.742851 100.0
99.769783 244.0
99.788849 172.0
99.836044 128.0
99.88092 128.0
99.893974 180.0
99.915031 280.0
99.935272 132.0
99.977539 148.0
99.995247 156.0
100.066185 148.0
100.085777 188.0
100.10096 236.0
100.127525 256.0
100.168671 140.0
100.190849 152.0
100.215195 132.0
100.248367 140.0
100.31414 128.0
100.329674 156.0
100.384819 172.0
100.402847 140.0
100.430893 160.0
100.45771 140.0
100.48365 108.0
100.517563 96.0
100.572754 184.0
100.630913 224.0
100.657295 140.0
100.705223 288.0
100.723732 360.0
100.757072 92.0
100.775139 208.0
100.815338 168.0
100.867065 184.0
100.885582 184.0
100.951035 36.0
101.017036 184.0
101.037628 752.0
101.074654 200.0
101.109077 56.0
101.139099 164.0
101.182259 128.0
101.196442 88.0
101.217171 156.0
101.24617 164.0
101.275246 120.0
101.317314 152.0
101.363396 116.0
101.389397 156.0
101.427528 180.0
101.461914 180.0
101.49884 140.0
101.517418 148.0
101.636093 120.0
101.666191 180.0
101.718185 128.0
101.752396 308.0
101.776344 96.0
101.819992 192.0
101.837868 204.0
101.858932 204.0
101.881035 144.0
101.900177 144.0
101.93528 92.0
101.951355 80.0
101.975471 120.0
102.013252 156.0
102.046402 268.0
102.064995 136.0
102.098106 144.0
102.148628 172.0
102.164482 148.0
102.19265 104.0
102.210754 128.0
102.227715 160.0
102.257042 96.0
102.274353 192.0
102.292725 344.0
102.322235 172.0
102.353668 228.0
102.374191 184.0
102.390373 172.0
102.434578 116.0
102.454376 220.0
102.47049 108.0
102.493721 136.0
102.518845 168.0
102.548439 176.0
102.579132 176.0
102.599648 228.0
102.639793 124.0
102.682144 100.0
102.702309 132.0
102.752739 112.0
102.768883 32.0
102.790108 192.0
102.84153 104.0
102.862366 176.0
102.887527 288.0
102.958191 168.0
102.993896 224.0
103.009987 112.0
103.020325 88.0
103.028214 160.0
103.054771 3556.0
103.085892 168.0
103.107178 120.0
103.149979 216.0
103.162544 52.0
103.169403 104.0
103.197128 152.0
103.226311 224.0
103.2575 168.0
103.274437 116.0
103.303909 336.0
103.362312 120.0
103.377083 132.0
103.40947 152.0
103.492744 172.0
103.51474 140.0
103.544975 176.0
103.56485 172.0
103.618843 120.0
103.639442 92.0
103.663918 204.0
103.685562 172.0
103.75325 172.0
103.761208 124.0
103.814529 160.0
103.85318 144.0
103.867378 144.0
103.887657 84.0
103.907066 156.0
103.956306 168.0
103.976936 324.0
104.019562 112.0
104.059387 564.0
104.081528 252.0
104.112953 228.0
104.130882 140.0
104.155609 216.0
104.175392 108.0
104.220139 188.0
104.280418 56.0
104.30838 172.0
104.34256 184.0
104.383224 132.0
104.39949 200.0
104.42186 244.0
104.4422 168.0
104.456444 244.0
104.539726 128.0
104.562241 152.0
104.590317 136.0
104.601707 164.0
104.630653 144.0
104.635246 88.0
104.642303 132.0
104.701126 328.0
104.736588 216.0
104.776039 144.0
104.801987 136.0
104.892197 108.0
104.939087 156.0
104.955399 120.0
104.979866 136.0
105.005585 72.0
105.034576 216.0
105.070312 1952.0
105.115784 184.0
105.135643 252.0
105.175606 144.0
105.190178 196.0
105.220634 176.0
105.238434 128.0
105.257385 224.0
105.275757 112.0
105.296181 144.0
105.381973 132.0
105.436958 128.0
105.463387 148.0
105.493622 76.0
105.516869 84.0
105.535263 100.0
105.57003 172.0
105.60733 184.0
105.620132 248.0
105.657974 152.0
105.688667 156.0
105.727547 212.0
105.776665 168.0
105.80864 292.0
105.829895 176.0
105.856514 176.0
105.885185 164.0
105.905411 200.0
106.016922 244.0
106.040749 272.0
106.064514 1004.0
106.103348 220.0
106.124931 144.0
106.147491 140.0
106.162468 144.0
106.188499 72.0
106.213112 192.0
106.233627 256.0
106.28492 92.0
106.299278 104.0
106.320755 292.0
106.347832 152.0
106.368073 188.0
106.386452 136.0
106.420387 48.0
106.438866 92.0
106.470833 100.0
106.523064 104.0
106.576195 116.0
106.60936 40.0
106.636078 148.0
106.658684 76.0
106.694298 228.0
106.714188 52.0
106.7948 140.0
106.821129 136.0
106.842026 228.0
106.865173 176.0
106.897247 236.0
106.926613 420.0
106.973404 52.0
106.995697 164.0
107.016632 216.0
107.051338 1096.0
107.073456 428.0
107.092827 96.0
107.117546 68.0
107.190201 156.0
107.241173 132.0
107.293167 160.0
107.333939 132.0
107.378082 148.0
107.396942 124.0
107.42131 192.0
107.444679 124.0
107.465858 96.0
107.482452 140.0
107.501022 148.0
107.527855 104.0
107.582588 116.0
107.626938 308.0
107.653778 144.0
107.674431 160.0
107.711609 120.0
107.731255 188.0
107.748375 196.0
107.797203 56.0
107.823181 156.0
107.860992 136.0
107.912064 184.0
107.934052 196.0
107.994781 132.0
108.012283 200.0
108.0578 6316.0
108.077339 260.0
108.110634 120.0
108.129929 148.0
108.145821 236.0
108.161163 184.0
108.17894 184.0
108.202179 192.0
108.27211 244.0
108.294891 128.0
108.370941 208.0
108.388115 176.0
108.40905 224.0
108.427856 156.0
108.464478 104.0
108.500031 72.0
108.52491 112.0
108.559128 104.0
108.589699 148.0
108.598412 36.0
108.605331 164.0
108.624237 152.0
108.646294 212.0
108.672478 200.0
108.726387 156.0
108.757202 156.0
108.797729 200.0
108.82576 260.0
108.862602 220.0
108.946213 88.0
108.980743 84.0
109.037201 152.0
109.040962 120.0
109.062119 1076.0
109.126129 140.0
109.149696 84.0
109.17794 172.0
109.20565 212.0
109.279343 168.0
109.307022 348.0
109.32193 136.0
109.346947 160.0
109.363602 168.0
109.388695 348.0
109.412498 276.0
109.430183 180.0
109.443787 176.0
109.515152 240.0
109.570808 136.0
109.589073 36.0
109.634911 184.0
109.658012 220.0
109.707863 120.0
109.72731 232.0
109.773262 164.0
109.814163 212.0
109.839233 112.0
109.864929 148.0
109.904259 192.0
109.951897 132.0
109.971214 200.0
110.025917 200.0
110.04557 192.0
110.074921 340.0
110.127396 140.0
110.152336 124.0
110.189941 136.0
110.281837 184.0
110.307777 196.0
110.330093 196.0
110.363411 184.0
110.391991 144.0
110.432419 88.0
110.449471 80.0
110.489861 128.0
110.518188 132.0
110.560043 156.0
110.579712 356.0
110.624496 432.0
110.650047 108.0
110.674843 152.0
110.698204 200.0
110.731552 212.0
110.74794 144.0
110.754265 156.0
110.75985 156.0
110.784073 100.0
110.818085 136.0
110.874168 88.0
110.899712 128.0
110.919197 124.0
110.942955 176.0
110.986488 200.0
110.993584 116.0
111.000801 196.0
111.027206 92.0
111.054214 196.0
111.092232 72.0
111.115303 156.0
111.142578 168.0
111.168381 204.0
111.188744 100.0
111.235237 268.0
111.259468 188.0
111.278358 160.0
111.352501 88.0
111.413361 156.0
111.427238 260.0
111.456139 172.0
111.488068 136.0
111.537994 100.0
111.558746 232.0
111.579437 144.0
111.626587 188.0
111.651901 164.0
111.658119 172.0
111.682091 152.0
111.710175 168.0
111.764519 124.0
111.84124 88.0
111.8908 184.0
111.911301 196.0
111.926109 104.0
111.968712 112.0
111.985558 116.0
112.046211 116.0
112.07708 140.0
112.103539 176.0
112.129547 128.0
112.158333 76.0
112.220802 188.0
112.242172 208.0
112.265854 116.0
112.284836 108.0
112.309708 232.0
112.392418 188.0
112.409302 180.0
112.432884 188.0
112.47261 132.0
112.487389 136.0
112.508972 160.0
112.540169 168.0
112.58873 68.0
112.603516 168.0
112.642784 168.0
112.660263 220.0
112.731888 172.0
112.764084 164.0
112.822586 224.0
112.852867 96.0
112.872223 176.0
112.924767 132.0
113.036003 144.0
113.055931 208.0
113.075439 208.0
113.092079 148.0
113.105881 260.0
113.122208 204.0
113.139702 152.0
113.161766 132.0
113.204933 144.0
113.254944 356.0
113.32061 52.0
113.346039 84.0
113.362984 92.0
113.483879 224.0
113.502045 192.0
113.540062 128.0
113.555908 112.0
113.574753 188.0
113.613174 172.0
113.676956 132.0
113.706535 100.0
113.739792 72.0
113.770531 188.0
113.789322 152.0
113.834679 176.0
113.854088 136.0
113.860893 68.0
113.93161 36.0
113.948685 172.0
114.025345 208.0
114.085815 220.0
114.092575 124.0
114.098099 188.0
114.117142 268.0
114.133514 156.0
114.151237 144.0
114.228622 156.0
114.298325 108.0
114.31691 148.0
114.337059 204.0
114.345268 140.0
114.401581 124.0
114.418617 192.0
114.47184 140.0
114.493141 56.0
114.557037 200.0
114.644394 120.0
114.678123 188.0
114.72538 192.0
114.778687 172.0
114.809265 340.0
114.831322 152.0
114.837654 104.0
114.843788 220.0
114.904297 196.0
114.970665 164.0
115.004814 140.0
115.057922 312.0
115.087357 84.0
115.110847 200.0
115.162727 208.0
115.178925 228.0
115.227921 160.0
115.249214 108.0
115.283218 144.0
115.301338 196.0
115.347099 160.0
115.354469 184.0
115.38546 104.0
115.410782 220.0
115.449188 120.0
115.470329 112.0
115.487686 132.0
115.530472 212.0
115.549721 152.0
115.592323 176.0
115.598938 160.0
115.605499 176.0
115.634453 188.0
115.670441 288.0
115.695251 172.0
115.73571 156.0
115.795883 112.0
115.855865 124.0
115.913712 80.0
115.959015 140.0
115.993004 136.0
116.029449 52.0
116.058609 180.0
116.091881 124.0
116.116081 228.0
116.208931 180.0
116.235352 100.0
116.261223 212.0
116.278503 184.0
116.339737 176.0
116.405319 152.0
116.458618 140.0
116.486542 92.0
116.508018 108.0
116.527008 172.0
116.598267 164.0
116.622726 220.0
116.656044 136.0
116.720795 164.0
116.742302 192.0
116.759506 164.0
116.774559 184.0
116.796066 164.0
116.828796 148.0
116.847694 148.0
116.871361 168.0
116.96962 188.0
116.974663 124.0
116.983727 188.0
117.00695 52.0
117.058464 2700.0
117.094521 128.0
117.113983 108.0
117.129044 204.0
117.205101 36.0
117.225479 324.0
117.245949 96.0
117.249352 164.0
117.284836 344.0
117.347893 208.0
117.384003 100.0
117.419128 140.0
117.461647 60.0
117.494003 84.0
117.540817 224.0
117.575996 144.0
117.610107 132.0
117.639671 144.0
117.665527 176.0
117.718475 104.0
117.739403 272.0
117.762032 424.0
117.777313 148.0
117.821945 172.0
117.825249 156.0
117.904015 216.0
117.928032 124.0
117.946579 124.0
117.974144 224.0
117.990715 148.0
118.042625 2112.0
118.06279 616.0
118.133125 164.0
118.181923 156.0
118.221008 68.0
118.268349 244.0
118.29493 32.0
118.309372 208.0
118.336494 168.0
118.366455 356.0
118.382347 32.0
118.425659 148.0
118.449379 148.0
118.467812 252.0
118.507027 164.0
118.53614 152.0
118.568649 172.0
118.602516 128.0
118.636467 304.0
118.659691 152.0
118.750763 108.0
118.781128 120.0
118.813667 156.0
118.838127 292.0
118.853859 236.0
118.9048 64.0
118.946388 120.0
118.977913 112.0
118.994865 236.0
119.004501 116.0
119.007889 228.0
119.026154 164.0
119.049805 13536.0
119.102715 152.0
119.131577 148.0
119.147995 52.0
119.181183 160.0
119.205261 156.0
119.223961 164.0
119.23925 172.0
119.258812 116.0
119.276199 52.0
119.354469 84.0
119.393608 48.0
119.467979 144.0
119.535004 64.0
119.566284 284.0
119.6045 172.0
119.626419 200.0
119.648689 172.0
119.669273 128.0
119.685196 80.0
119.74617 180.0
119.791229 188.0
119.814941 168.0
119.842751 236.0
119.925072 176.0
119.959702 120.0
119.97496 204.0
119.998253 176.0
120.056 2508.0
120.081734 4532.0
120.135735 228.0
120.181526 224.0
120.206154 92.0
120.231842 140.0
120.257248 164.0
120.286903 220.0
120.318069 144.0
120.351532 160.0
120.398254 164.0
120.443336 112.0
120.480797 172.0
120.522369 140.0
120.549316 212.0
120.575211 204.0
120.594879 140.0
120.632278 216.0
120.670639 152.0
120.717308 136.0
120.766876 168.0
120.793854 292.0
120.826889 196.0
120.880714 128.0
120.902412 188.0
120.929512 132.0
120.9711 156.0
120.992516 276.0
121.017944 232.0
121.065651 10232.0
121.089554 1260.0
121.124382 52.0
121.158707 316.0
121.178574 184.0
121.221657 168.0
121.271179 148.0
121.317215 200.0
121.359634 80.0
121.3843 160.0
121.436584 172.0
121.479439 168.0
121.499229 244.0
121.516785 156.0
121.584602 216.0
121.602364 120.0
121.6287 108.0
121.656044 192.0
121.694557 76.0
121.723099 100.0
121.789749 196.0
121.826324 120.0
121.841705 160.0
121.887848 48.0
121.914215 124.0
121.93399 156.0
121.954765 160.0
121.986343 132.0
122.015022 204.0
122.035728 112.0
122.06678 1044.0
122.090721 340.0
122.121216 208.0
122.151665 132.0
122.17836 88.0
122.220963 192.0
122.247864 180.0
122.275085 256.0
122.296883 160.0
122.329903 176.0
122.345047 132.0
122.36602 188.0
122.417969 104.0
122.459061 140.0
122.55674 72.0
122.580849 136.0
122.607094 188.0
122.640747 100.0
122.670334 184.0
122.68322 164.0
122.709274 308.0
122.736427 360.0
122.752914 104.0
122.79599 120.0
122.836723 112.0
122.878403 260.0
122.920563 136.0
122.974945 152.0
123.000801 2896.0
123.0467 144.0
123.068924 172.0
123.095772 96.0
123.13028 144.0
123.167824 184.0
123.211075 124.0
123.265083 164.0
123.285439 188.0
123.309227 152.0
123.347588 124.0
123.391014 196.0
123.424179 132.0
123.461769 192.0
123.487663 136.0
123.541397 92.0
123.556885 136.0
123.612198 168.0
123.655937 156.0
123.688454 184.0
123.704643 192.0
123.738358 132.0
123.783775 156.0
123.826042 200.0
123.845955 156.0
123.888947 256.0
123.949814 152.0
124.009544 980.0
124.061798 56.0
124.143837 188.0
124.177101 152.0
124.20372 176.0
124.219246 96.0
124.239433 160.0
124.267242 296.0
124.288933 184.0
124.304771 160.0
124.336838 180.0
124.365692 208.0
124.403427 28.0
124.428986 320.0
124.458931 108.0
124.550255 128.0
124.586304 148.0
124.606941 268.0
124.663284 120.0
124.691849 136.0
124.757362 184.0
124.808472 164.0
124.846199 128.0
124.865585 132.0
124.893646 188.0
124.999573 268.0
125.011627 336.0
125.063599 136.0
125.112183 192.0
125.170456 60.0
125.204109 180.0
125.245201 128.0
125.297409 152.0
125.350883 108.0
125.370941 176.0
125.431114 124.0
125.462326 76.0
125.484619 196.0
125.594765 164.0
125.666504 104.0
125.683121 140.0
125.702599 148.0
125.72998 176.0
125.80883 232.0
125.85511 232.0
125.881783 44.0
125.942078 176.0
126.009026 376.0
126.04306 144.0
126.092674 120.0
126.124527 152.0
126.194595 148.0
126.234848 128.0
126.304733 160.0
126.312454 176.0
126.345284 192.0
126.37278 140.0
126.387978 148.0
126.41156 132.0
126.442894 128.0
126.523476 132.0
126.563774 164.0
126.583923 204.0
126.617516 68.0
126.633194 160.0
126.674484 240.0
126.71685 128.0
126.747444 120.0
126.767609 180.0
126.784584 188.0
126.807945 148.0
126.838181 180.0
126.859177 192.0
126.930054 332.0
126.953667 180.0
126.97834 120.0
126.998528 44.0
127.018707 144.0
127.038902 152.0
127.057571 124.0
127.084282 140.0
127.110695 164.0
127.182251 140.0
127.201149 260.0
127.225121 224.0
127.230217 136.0
127.263252 124.0
127.301102 148.0
127.351219 176.0
127.441223 136.0
127.495766 184.0
127.531113 200.0
127.631004 228.0
127.665535 112.0
127.683533 116.0
127.709206 168.0
127.772469 104.0
127.816895 168.0
127.836502 168.0
127.889015 168.0
127.916489 200.0
127.964806 196.0
128.003082 48.0
128.042542 260.0
128.051575 240.0
128.060226 244.0
128.075745 120.0
128.121841 164.0
128.164169 324.0
128.201309 152.0
128.228348 104.0
128.275269 216.0
128.279373 176.0
128.350082 228.0
128.37027 184.0
128.395187 140.0
128.419174 320.0
128.445938 112.0
128.452866 56.0
128.459717 144.0
128.478638 240.0
128.493515 128.0
128.531616 116.0
128.60788 144.0
128.650146 156.0
128.668213 168.0
128.695297 72.0
128.727188 116.0
128.795288 196.0
128.822937 160.0
128.864334 200.0
128.882767 140.0
129.001953 196.0
129.04454 692.0
129.082748 160.0
129.174408 112.0
129.203674 136.0
129.228241 204.0
129.277069 96.0
129.282166 152.0
129.290253 156.0
129.326004 204.0
129.346375 148.0
129.362228 156.0
129.422501 332.0
129.484497 112.0
129.509399 160.0
129.534317 176.0
129.559235 148.0
129.581894 84.0
129.601776 176.0
129.608154 136.0
129.61467 256.0
129.649872 148.0
129.690659 44.0
129.759171 276.0
129.822159 164.0
129.84404 148.0
129.888336 464.0
129.915146 144.0
129.93367 220.0
129.95314 156.0
129.959167 260.0
130.030518 208.0
130.064362 256.0
130.096848 152.0
130.1194 108.0
130.149704 172.0
130.169342 116.0
130.208389 184.0
130.228394 160.0
130.278366 120.0
130.299835 124.0
130.328354 184.0
130.365631 284.0
130.460159 132.0
130.493683 192.0
130.53064 92.0
130.597687 104.0
130.620316 112.0
130.639816 60.0
130.667404 220.0
130.689972 132.0
130.717163 108.0
130.776337 120.0
130.813782 128.0
130.890167 104.0
130.912933 108.0
130.948853 284.0
130.971649 148.0
130.99765 168.0
131.016907 136.0
131.05014 13508.0
131.105591 176.0
131.127075 120.0
131.161804 356.0
131.180847 124.0
131.204315 68.0
131.277939 68.0
131.323151 156.0
131.350525 132.0
131.368774 140.0
131.389297 200.0
131.418961 204.0
131.450241 136.0
131.471359 232.0
131.532562 180.0
131.568298 184.0
131.602066 180.0
131.621094 140.0
131.64537 128.0
131.72702 132.0
131.75914 48.0
131.790421 196.0
131.825394 156.0
131.852219 120.0
131.860718 88.0
131.869797 160.0
131.907303 160.0
131.939682 80.0
131.955688 144.0
132.005356 164.0
132.013702 172.0
132.022583 188.0
132.054779 1208.0
132.081711 5176.0
132.134079 84.0
132.16153 272.0
132.211868 100.0
132.234344 156.0
132.255356 128.0
132.306061 380.0
132.385849 120.0
132.404175 192.0
132.418503 188.0
132.463715 180.0
132.484344 132.0
132.504486 156.0
132.518707 236.0
132.557022 124.0
132.594315 148.0
132.635574 252.0
132.653915 124.0
132.672256 104.0
132.722504 96.0
132.756073 168.0
132.807541 100.0
132.832779 36.0
132.853424 220.0
132.880951 104.0
132.897003 84.0
132.915359 144.0
132.939972 144.0
132.960205 420.0
132.996521 308.0
133.022781 164.0
133.029144 132.0
133.036499 108.0
133.06514 3640.0
133.088837 2548.0
133.12085 208.0
133.184662 156.0
133.219391 132.0
133.241562 156.0
133.285233 192.0
133.354752 60.0
133.376968 40.0
133.444626 296.0
133.461807 168.0
133.48732 60.0
133.540466 184.0
133.562149 120.0
133.578415 224.0
133.613831 136.0
133.635788 112.0
133.67218 164.0
133.747116 104.0
133.772614 248.0
133.807144 120.0
133.832138 112.0
133.845352 236.0
133.873917 128.0
133.947617 188.0
133.968353 36.0
133.986771 168.0
134.016174 132.0
134.062149 1180.0
134.096909 7520.0
134.136612 176.0
134.179825 172.0
134.201279 252.0
134.218216 172.0
134.244919 212.0
134.273972 168.0
134.331024 108.0
134.338852 144.0
134.344513 176.0
134.381012 148.0
134.429474 32.0
134.447922 52.0
134.482391 208.0
134.506393 116.0
134.534515 240.0
134.556412 64.0
134.584442 124.0
134.617844 176.0
134.632614 212.0
134.660324 80.0
134.703003 84.0
134.734406 140.0
134.766144 144.0
134.884445 56.0
134.920029 172.0
134.958939 744.0
134.991714 204.0
135.006989 164.0
135.027802 36.0
135.066666 844.0
135.084824 772.0
135.102158 1116.0
135.144882 52.0
135.205933 176.0
135.2314 120.0
135.277679 96.0
135.319046 152.0
135.351135 188.0
135.35994 184.0
135.408554 100.0
135.522552 120.0
135.553299 168.0
135.611404 220.0
135.640594 168.0
135.673813 140.0
135.709061 204.0
135.758865 308.0
135.794159 152.0
135.830276 160.0
135.874374 108.0
136.000885 36.0
136.079178 556.0
136.108368 148.0
136.142197 148.0
136.193604 192.0
136.212173 164.0
136.240341 188.0
136.277222 176.0
136.298141 132.0
136.314407 484.0
136.379471 128.0
136.491821 172.0
136.536606 236.0
136.587708 244.0
136.616272 148.0
136.649216 140.0
136.667419 220.0
136.69809 156.0
136.723679 188.0
136.757629 116.0
136.791183 52.0
136.82843 88.0
136.858688 228.0
136.874985 128.0
136.916901 340.0
136.942123 148.0
136.974915 168.0
136.998856 176.0
137.032272 168.0
137.059357 180.0
137.078018 244.0
137.112976 204.0
137.168503 184.0
137.191101 200.0
137.215164 208.0
137.272003 280.0
137.311859 180.0
137.344833 180.0
137.406403 136.0
137.441391 132.0
137.469406 172.0
137.485733 88.0
137.514511 216.0
137.569275 312.0
137.661591 304.0
137.724167 160.0
137.740402 152.0
137.779526 136.0
137.812103 308.0
137.872162 204.0
137.889755 56.0
137.906113 116.0
137.943512 88.0
138.000763 236.0
138.030014 160.0
138.102509 196.0
138.134521 184.0
138.170349 136.0
138.195969 152.0
138.220825 120.0
138.245224 236.0
138.285507 244.0
138.367172 160.0
138.416107 116.0
138.439346 164.0
138.488693 152.0
138.51503 148.0
138.545654 128.0
138.588242 196.0
138.622238 152.0
138.65036 140.0
138.697037 140.0
138.741776 288.0
138.762863 192.0
138.82225 184.0
138.841415 200.0
138.882462 60.0
138.90358 124.0
138.931717 120.0
138.991257 172.0
139.018539 252.0
139.037308 88.0
139.081955 160.0
139.126495 140.0
139.152328 140.0
139.181488 200.0
139.263977 136.0
139.289474 156.0
139.326752 88.0
139.360504 164.0
139.401306 332.0
139.427155 112.0
139.478851 212.0
139.503326 340.0
139.524872 216.0
139.574173 140.0
139.584259 144.0
139.60817 176.0
139.634033 164.0
139.651215 184.0
139.683945 180.0
139.718323 180.0
139.773529 80.0
139.838715 156.0
139.855194 76.0
139.871674 92.0
139.954605 180.0
139.977295 232.0
140.010315 180.0
140.022614 180.0
140.046829 196.0
140.083603 168.0
140.118927 344.0
140.211288 124.0
140.288605 284.0
140.342087 140.0
140.380569 176.0
140.397064 184.0
140.444168 132.0
140.486694 184.0
140.502747 100.0
140.527496 164.0
140.548035 168.0
140.57164 80.0
140.625916 100.0
140.763916 132.0
140.813477 144.0
140.861023 204.0
140.888016 236.0
140.911636 196.0
140.932907 136.0
140.963623 128.0
140.980164 124.0
141.003799 136.0
141.053421 124.0
141.095428 156.0
141.124008 136.0
141.185822 212.0
141.247314 184.0
141.337006 88.0
141.342529 148.0
141.391327 116.0
141.411301 144.0
141.438385 48.0
141.491669 140.0
141.527161 224.0
141.573929 80.0
141.666122 156.0
141.697098 60.0
141.729279 196.0
141.750427 120.0
141.772919 136.0
141.827438 88.0
141.863983 192.0
141.899261 172.0
141.924637 84.0
141.966003 240.0
142.002274 388.0
142.025635 148.0
142.048065 88.0
142.063553 152.0
142.090652 148.0
142.175781 132.0
142.210327 148.0
142.252029 164.0
142.291565 152.0
142.342865 208.0
142.36557 184.0
142.38736 140.0
142.404434 172.0
142.439606 108.0
142.484451 160.0
142.577423 180.0
142.610611 128.0
142.693893 172.0
142.715286 52.0
142.750397 152.0
142.837143 268.0
142.881775 108.0
142.911591 164.0
142.952484 144.0
142.972183 124.0
143.004059 228.0
143.025009 312.0
143.048019 224.0
143.072159 200.0
143.093582 140.0
143.155487 128.0
143.192261 272.0
143.212875 228.0
143.248367 88.0
143.274582 148.0
143.329376 156.0
143.36676 204.0
143.428558 168.0
143.461502 164.0
143.478134 96.0
143.4953 136.0
143.51915 148.0
143.551865 284.0
143.572525 112.0
143.601135 152.0
143.627319 160.0
143.672699 128.0
143.765747 140.0
143.782455 108.0
143.873154 136.0
143.899414 188.0
143.920914 104.0
143.937622 96.0
143.968658 164.0
144.018967 124.0
144.06102 276.0
144.08017 2096.0
144.154999 96.0
144.176498 124.0
144.203186 96.0
144.232468 164.0
144.250595 220.0
144.27449 108.0
144.293076 228.0
144.329483 76.0
144.420364 228.0
144.437103 60.0
144.458633 148.0
144.489731 140.0
144.532791 184.0
144.568695 68.0
144.601074 180.0
144.626129 184.0
144.642883 120.0
144.659637 88.0
144.678452 164.0
144.708572 128.0
144.73465 144.0
144.798508 144.0
144.870361 188.0
144.887131 172.0
144.925476 124.0
144.962952 124.0
145.064514 920.0
145.089249 748.0
145.13269 224.0
145.186752 200.0
145.275497 216.0
145.311478 132.0
145.366669 132.0
145.38826 92.0
145.436264 108.0
145.464752 152.0
145.486664 152.0
145.504395 176.0
145.708435 152.0
145.758072 148.0
145.774887 232.0
145.79892 308.0
145.849396 144.0
145.914749 184.0
145.981613 64.0
146.020569 452.0
146.060043 1932.0
146.098389 1232.0
146.119904 184.0
146.1548 60.0
146.234222 72.0
146.277542 124.0
146.31694 132.0
146.376251 120.0
146.405151 176.0
146.482224 180.0
146.530396 156.0
146.556747 128.0
146.59938 160.0
146.617142 328.0
146.642639 164.0
146.68309 260.0
146.70018 152.0
146.710754 144.0
146.721024 128.0
146.726044 156.0
146.748566 200.0
146.756485 104.0
146.767242 180.0
146.777008 152.0
146.784286 228.0
146.844986 332.0
146.891907 312.0
146.940247 72.0
146.966797 120.0
147.002747 120.0
147.067505 5880.0
147.105865 272.0
147.123901 164.0
147.160995 200.0
147.182739 128.0
147.209747 92.0
147.229904 188.0
147.268555 192.0
147.304703 128.0
147.312271 64.0
147.358871 224.0
147.401413 68.0
147.420746 216.0
147.446396 72.0
147.498245 176.0
147.58754 84.0
147.684265 140.0
147.707809 180.0
147.739899 72.0
147.776184 112.0
147.826996 140.0
147.851196 152.0
147.90657 164.0
147.933502 192.0
147.967056 284.0
147.990616 164.0
148.028076 184.0
148.077011 5668.0
148.133331 176.0
148.149872 184.0
148.182938 52.0
148.19989 148.0
148.271927 128.0
148.307404 196.0
148.328339 232.0
148.359512 196.0
148.398987 136.0
148.42952 272.0
148.461685 108.0
148.495483 192.0
148.522308 88.0
148.544449 196.0
148.563156 172.0
148.582916 204.0
148.605606 368.0
148.620392 216.0
148.679138 172.0
148.691391 128.0
148.713226 164.0
148.731506 224.0
148.779526 120.0
148.803802 172.0
148.835373 164.0
148.856415 136.0
148.879608 128.0
148.897934 136.0
148.916275 88.0
148.948578 416.0
148.995529 136.0
149.010864 312.0
149.084625 41236.0
149.170166 272.0
149.200653 80.0
149.242477 144.0
149.26059 88.0
149.280045 156.0
149.304214 140.0
149.328888 188.0
149.41655 128.0
149.463089 112.0
149.48848 40.0
149.52417 160.0
149.529739 56.0
149.539383 140.0
149.572342 164.0
149.609314 152.0
149.652069 308.0
149.683975 36.0
149.715637 176.0
149.761032 200.0
149.785141 140.0
149.810623 160.0
149.833344 216.0
149.869095 36.0
149.900101 188.0
149.934891 80.0
149.961182 208.0
149.990158 156.0
150.008209 188.0
150.029953 128.0
150.050568 96.0
150.091003 15924.0
150.210403 164.0
150.24231 200.0
150.295792 176.0
150.321594 160.0
150.347916 244.0
150.369568 220.0
150.395355 140.0
150.448364 208.0
150.480026 172.0
150.517517 144.0
150.574127 164.0
150.596054 72.0
150.614761 204.0
150.678665 156.0
150.7005 100.0
150.724747 188.0
150.763 108.0
150.807465 128.0
150.833801 196.0
150.853668 140.0
150.89418 148.0
150.922195 164.0
150.93721 108.0
151.009827 212.0
151.019241 248.0
151.043228 88.0
151.066772 124.0
151.094162 1524.0
151.158325 156.0
151.188904 164.0
151.207672 152.0
151.257355 160.0
151.29332 108.0
151.308945 124.0
151.325577 144.0
151.35437 132.0
151.373734 128.0
151.396088 124.0
151.449661 44.0
151.476608 152.0
151.514801 284.0
151.557449 160.0
151.582108 128.0
151.640686 128.0
151.711853 88.0
151.741272 52.0
151.763336 168.0
151.814819 136.0
151.880295 288.0
151.925201 92.0
151.96225 136.0
151.999542 132.0
152.019867 140.0
152.049591 144.0
152.095108 164.0
152.148514 72.0
152.165695 140.0
152.224075 160.0
152.266373 68.0
152.295563 172.0
152.334076 168.0
152.402679 172.0
152.453079 216.0
152.489944 84.0
152.521896 176.0
152.605576 100.0
152.639908 148.0
152.659576 144.0
152.68663 172.0
152.703842 128.0
152.725983 96.0
152.824387 92.0
152.846527 140.0
152.880981 124.0
152.910507 68.0
153.003906 112.0
153.030579 72.0
153.047699 104.0
153.069382 152.0
153.095505 164.0
153.141937 300.0
153.186279 188.0
153.252792 172.0
153.294769 116.0
153.334106 152.0
153.369202 152.0
153.425156 248.0
153.457352 112.0
153.498383 156.0
153.518997 92.0
153.623047 172.0
153.699539 148.0
153.725494 164.0
153.746719 104.0
153.782974 152.0
153.800247 168.0
153.817535 128.0
153.83728 84.0
153.863983 156.0
153.897232 168.0
153.916275 64.0
153.943665 136.0
153.965668 188.0
154.010132 124.0
154.035599 408.0
154.066879 152.0
154.084579 172.0
154.120056 168.0
154.137543 180.0
154.191727 224.0
154.217667 136.0
154.29306 172.0
154.318832 104.0
154.353638 140.0
154.370941 64.0
154.40062 132.0
154.450089 464.0
154.469879 76.0
154.487198 376.0
154.518234 132.0
154.544098 108.0
154.600998 220.0
154.638123 152.0
154.719055 184.0
154.743469 172.0
154.761902 144.0
154.828766 148.0
154.848572 100.0
154.88324 192.0
154.912964 136.0
154.945801 236.0
155.01207 108.0
155.037979 168.0
155.061279 180.0
155.126083 116.0
155.145905 96.0
155.187973 108.0
155.234863 128.0
155.276093 168.0
155.304382 176.0
155.308456 160.0
155.334381 184.0
155.406113 140.0
155.508057 164.0
155.558975 156.0
155.580048 104.0
155.596588 104.0
155.634659 120.0
155.697739 120.0
155.7146 124.0
155.744308 160.0
155.803696 228.0
155.917847 116.0
155.955124 144.0
156.000381 164.0
156.081039 368.0
156.102798 184.0
156.12915 120.0
156.166458 204.0
156.227875 104.0
156.236893 164.0
156.313232 152.0
156.37912 136.0
156.442047 164.0
156.460083 288.0
156.477509 144.0
156.494934 88.0
156.561966 96.0
156.592773 456.0
156.676682 140.0
156.709137 40.0
156.763336 196.0
156.796356 88.0
156.813797 112.0
156.839066 176.0
156.866974 120.0
156.886078 152.0
156.9534 96.0
157.016876 96.0
157.049088 176.0
157.091675 264.0
157.120499 128.0
157.145447 120.0
157.177277 196.0
157.232788 176.0
157.27095 136.0
157.322739 188.0
157.345108 196.0
157.365082 160.0
157.391998 148.0
157.424133 192.0
157.466522 148.0
157.52388 116.0
157.539368 152.0
157.590027 120.0
157.620728 124.0
157.655518 160.0
157.704147 204.0
157.734802 152.0
157.788818 168.0
157.819092 140.0
157.857742 276.0
157.893784 252.0
157.949158 160.0
157.988525 148.0
158.027405 220.0
158.064301 156.0
158.099365 152.0
158.135986 80.0
158.168823 156.0
158.196655 244.0
158.237625 132.0
158.2827 180.0
158.307236 100.0
158.332779 292.0
158.365341 172.0
158.402908 212.0
158.435471 216.0
158.45752 140.0
158.496216 216.0
158.526749 168.0
158.581909 300.0
158.612488 144.0
158.619247 132.0
158.62973 100.0
158.657455 240.0
158.694473 164.0
158.721466 144.0
158.744568 188.0
158.753052 204.0
158.762283 332.0
158.781052 172.0
158.808182 260.0
158.841125 472.0
158.867981 636.0
158.905334 116.0
158.977798 148556.0
159.044083 496.0
159.071121 108.0
159.099411 220.0
159.120453 68.0
159.142715 120.0
159.167328 92.0
159.214996 288.0
159.262497 192.0
159.269043 160.0
159.299896 192.0
159.310028 168.0
159.333923 224.0
159.358597 156.0
159.390076 1180.0
159.431686 204.0
159.463303 236.0
159.496185 120.0
159.518723 172.0
159.544174 92.0
159.570847 60.0
159.598907 368.0
159.621246 152.0
159.629044 148.0
159.638245 196.0
159.680481 120.0
159.714005 132.0
159.748154 88.0
159.771759 132.0
159.799957 56.0
159.808258 60.0
159.840408 196.0
159.864944 328.0
159.910309 160.0
159.945023 180.0
159.980606 12860.0
160.033661 252.0
160.076035 19640.0
160.11232 4744.0
160.155121 68.0
160.178986 72.0
160.198029 88.0
160.247269 160.0
160.270477 128.0
160.30658 108.0
160.339691 176.0
160.368973 156.0
160.415924 180.0
160.454407 124.0
160.484406 128.0
160.513 148.0
160.548279 212.0
160.582108 40.0
160.621475 344.0
160.642136 172.0
160.685074 108.0
160.712082 200.0
160.772156 256.0
160.787598 188.0
160.824875 148.0
160.852798 292.0
160.873642 200.0
160.92041 288.0
160.943939 332.0
160.974564 90196.0
161.03717 176.0
161.081299 3744.0
161.118835 2312.0
161.163788 344.0
161.202271 140.0
161.207108 80.0
161.242203 180.0
161.266922 68.0
161.294403 112.0
161.31398 196.0
161.36438 124.0
161.389786 552.0
161.439072 60.0
161.466736 104.0
161.487762 116.0
161.508209 76.0
161.556595 216.0
161.605896 224.0
161.683823 140.0
161.722778 76.0
161.754166 100.0
161.812607 180.0
161.835495 172.0
161.852798 116.0
161.87851 160.0
161.898804 156.0
161.924561 252.0
161.94426 116.0
161.977783 5644.0
162.045914 160.0
162.091949 48800.0
162.125275 292.0
162.158279 44.0
162.192612 84.0
162.242477 84.0
162.249115 156.0
162.290131 64.0
162.318497 68.0
162.35495 64.0
162.37738 152.0
162.44693 92.0
162.473389 156.0
162.496994 164.0
162.514755 60.0
162.552826 300.0
162.608658 56.0
162.653275 76.0
162.669968 180.0
162.720566 76.0
162.749329 56.0
162.774597 204.0
162.825699 292.0
162.87616 56.0
162.910645 120.0
162.970901 6460.0
163.013107 196.0
163.057831 272.0
163.095047 3772.0
163.134933 200.0
163.166031 56.0
163.20546 68.0
163.226898 76.0
163.253922 60.0
163.271729 56.0
163.301819 284.0
163.345627 144.0
163.399551 176.0
163.446518 196.0
163.472702 180.0
163.495605 48.0
163.52504 92.0
163.565445 172.0
163.59465 96.0
163.629456 120.0
163.715286 364.0
163.731491 164.0
163.773102 52.0
163.821503 32.0
163.84874 116.0
163.880096 188.0
163.90303 112.0
163.933609 52.0
163.98407 100.0
164.011597 100.0
164.031738 320.0
164.055756 108.0
164.096924 236.0
164.142136 204.0
164.178177 136.0
164.224243 236.0
164.249649 108.0
164.270889 168.0
164.308426 76.0
164.336487 188.0
164.359451 80.0
164.379852 72.0
164.39772 44.0
164.428345 136.0
164.478363 188.0
164.539276 96.0
164.635132 80.0
164.663223 44.0
164.710709 176.0
164.744965 280.0
164.796051 204.0
164.826721 76.0
164.847733 228.0
164.911041 100.0
164.931488 124.0
164.991852 176.0
165.038834 724.0
165.054962 768.0
165.095123 92.0
165.141159 180.0
165.187195 32.0
165.264771 76.0
165.302322 136.0
165.321365 172.0
165.326431 76.0
165.336624 128.0
165.368866 156.0
165.398148 108.0
165.420059 108.0
165.478928 240.0
165.545502 108.0
165.586044 192.0
165.617569 172.0
165.645248 72.0
165.676132 92.0
165.694061 64.0
165.724808 128.0
165.752991 228.0
165.781174 204.0
165.835007 80.0
165.889374 244.0
165.919586 44.0
165.94603 116.0
165.990509 196.0
166.011154 112.0
166.045227 52.0
166.077591 96.0
166.152969 140.0
166.187729 152.0
166.245331 116.0
166.26329 112.0
166.332596 272.0
166.366516 188.0
166.419876 76.0
166.451691 164.0
166.489212 144.0
166.574982 192.0
166.622772 188.0
166.643326 184.0
166.721054 152.0
166.768494 192.0
166.815506 128.0
166.835281 156.0
166.874634 132.0
166.915054 152.0
166.94664 116.0
166.976562 120.0
167.010925 104.0
167.028931 256.0
167.071533 1176.0
167.111252 228.0
167.15361 144.0
167.255371 160.0
167.306854 152.0
167.349442 96.0
167.422714 68.0
167.477127 188.0
167.572189 144.0
167.672241 140.0
167.694061 148.0
167.724152 52.0
167.742203 232.0
167.774307 140.0
167.844025 80.0
167.85379 112.0
167.876266 104.0
168.01976 160.0
168.055023 160.0
168.077469 148.0
168.167786 64.0
168.265884 108.0
168.30719 108.0
168.325256 60.0
168.373001 172.0
168.518982 72.0
168.537064 128.0
168.583572 116.0
168.67662 136.0
168.702469 44.0
168.728317 220.0
168.795547 120.0
168.826569 116.0
168.860199 200.0
168.888092 112.0
169.016663 188.0
169.049042 68.0
169.08786 168.0
169.113739 168.0
169.212112 60.0
169.284607 48.0
169.310501 148.0
169.345474 128.0
169.371155 124.0
169.429047 136.0
169.525528 192.0
169.617752 212.0
169.681763 184.0
169.751038 92.0
169.769196 72.0
169.789948 76.0
169.826248 68.0
169.858429 208.0
169.891098 92.0
169.953369 164.0
169.981262 96.0
170.06842 336.0
170.102692 200.0
170.205139 44.0
170.264862 124.0
170.332397 152.0
170.389542 124.0
170.496887 268.0
170.532455 164.0
170.582748 104.0
170.701447 44.0
170.746948 160.0
170.818481 120.0
170.904327 168.0
170.961578 124.0
170.979782 48.0
171.000183 192.0
171.063751 168.0
171.088577 136.0
171.095276 108.0
171.103134 176.0
171.130768 76.0
171.159409 124.0
171.225372 48.0
171.284409 140.0
171.357361 184.0
171.385712 112.0
171.470703 88.0
171.494705 208.0
171.616394 124.0
171.676865 124.0
171.711853 208.0
171.737946 128.0
171.784897 84.0
171.829239 116.0
171.850113 176.0
171.884033 132.0
171.902298 204.0
171.928391 108.0
171.965805 144.0
171.991028 244.0
172.016006 296.0
172.077454 1024.0
172.112732 804.0
172.139847 64.0
172.179016 44.0
172.207748 136.0
172.22934 236.0
172.254761 164.0
172.273041 164.0
172.302902 84.0
172.334366 84.0
172.374207 72.0
172.395844 116.0
172.591034 160.0
172.618042 40.0
172.65329 108.0
172.722641 104.0
172.759262 152.0
172.803741 116.0
172.842987 148.0
172.899887 216.0
172.910507 160.0
172.956345 352.0
173.036667 40.0
173.068024 156.0
173.09462 92.0
173.100204 120.0
173.120255 280.0
173.145554 164.0
173.196899 172.0
173.238327 76.0
173.31691 124.0
173.36409 152.0
173.398804 208.0
173.471542 172.0
173.493698 124.0
173.523438 136.0
173.589523 80.0
173.649841 168.0
173.68132 124.0
173.725906 136.0
173.801987 140.0
173.956024 288.0
174.001465 100.0
174.090225 668.0
174.123093 364.0
174.17247 188.0
174.211227 228.0
174.236542 164.0
174.300873 192.0
174.326523 116.0
174.362946 264.0
174.392853 40.0
174.499435 132.0
174.527618 332.0
174.548965 156.0
174.595291 168.0
174.637375 60.0
174.663681 36.0
174.808563 56.0
174.841263 120.0
174.859268 176.0
174.920044 204.0
174.950577 320.0
175.018951 168.0
175.061768 152.0
175.095184 440.0
175.137451 112.0
175.155899 96.0
175.295532 196.0
175.351959 108.0
175.40094 92.0
175.470566 156.0
175.530121 188.0
175.58551 144.0
175.669907 52.0
175.716263 140.0
175.741226 120.0
175.767532 200.0
175.804474 196.0
175.838776 132.0
175.857254 192.0
175.92041 116.0
175.959244 44.0
175.977554 140.0
176.067856 452.0
176.098465 188.0
176.152985 132.0
176.21109 200.0
176.253372 52.0
176.274506 96.0
176.349335 188.0
176.405777 48.0
176.448959 148.0
176.470108 192.0
176.4879 140.0
176.51358 172.0
176.579468 168.0
176.599686 168.0
176.672623 152.0
176.736313 92.0
176.761047 124.0
176.826385 192.0
176.835876 264.0
176.874023 180.0
176.919861 128.0
176.945175 140.0
176.978104 124.0
176.999283 216.0
177.055405 11024.0
177.122421 108.0
177.139648 172.0
177.159515 128.0
177.195282 76.0
177.240311 52.0
177.26152 56.0
177.302963 212.0
177.335724 152.0
177.383423 88.0
177.464279 188.0
177.497437 124.0
177.534042 104.0
177.554413 164.0
177.659805 196.0
177.72023 196.0
177.79718 80.0
177.868851 52.0
177.898468 100.0
177.977692 240.0
178.009552 32.0
178.058472 1688.0
178.125763 164.0
178.152969 108.0
178.19017 124.0
178.259247 124.0
178.280518 128.0
178.317719 72.0
178.35759 172.0
178.408096 132.0
178.445312 180.0
178.477219 112.0
178.570282 136.0
178.623489 152.0
178.659088 176.0
178.748276 172.0
178.847 120.0
178.932175 124.0
178.982758 336.0
179.007721 108.0
179.033356 72.0
179.069122 1104.0
179.132401 160.0
179.158875 188.0
179.198502 168.0
179.225143 96.0
179.24913 108.0
179.283768 176.0
179.491699 96.0
179.518356 124.0
179.56636 44.0
179.585037 144.0
179.673981 172.0
179.742432 124.0
179.768021 132.0
179.803802 152.0
179.845474 228.0
179.938614 268.0
179.958618 56.0
180.006683 216.0
180.072174 232.0
180.10202 1708.0
180.137558 108.0
180.172287 168.0
180.19899 80.0
180.235718 204.0
180.309174 208.0
180.370026 200.0
180.420807 52.0
180.477081 168.0
180.51738 208.0
180.567703 124.0
180.661148 124.0
180.690918 140.0
180.752457 120.0
180.773865 184.0
180.854156 152.0
180.927017 112.0
180.955872 136.0
180.985336 68.0
181.017532 164.0
181.054947 160.0
181.104675 284.0
181.221024 84.0
181.277298 124.0
181.355011 200.0
181.405945 156.0
181.443481 132.0
181.478333 120.0
181.498032 160.0
181.517258 116.0
181.539993 112.0
181.609726 80.0
181.789474 152.0
181.837784 156.0
181.921753 184.0
181.999771 116.0
182.029724 168.0
182.083542 184.0
182.110458 128.0
182.154602 72.0
182.211029 128.0
182.323883 68.0
182.377625 36.0
182.434586 192.0
182.4608 132.0
182.509354 108.0
182.541626 156.0
182.643814 44.0
182.69223 196.0
182.794846 180.0
182.833893 224.0
182.861755 176.0
182.912888 156.0
182.974274 480.0
183.025955 116.0
183.051666 132.0
183.139709 116.0
183.192932 132.0
183.265671 160.0
183.289932 152.0
183.358398 224.0
183.416 184.0
183.449936 144.0
183.467804 148.0
183.543304 104.0
183.591843 136.0
183.618805 208.0
183.707809 188.0
183.815735 100.0
183.834625 132.0
183.86467 120.0
183.934479 136.0
183.961472 100.0
184.059479 188.0
184.091064 112.0
184.182892 168.0
184.253128 128.0
184.27475 44.0
184.372025 108.0
184.415253 132.0
184.456711 144.0
184.485535 112.0
184.636948 156.0
184.757065 168.0
184.810074 108.0
184.861481 144.0
184.92247 172.0
184.973541 248.0
185.002228 112.0
185.033325 140.0
185.085144 200.0
185.121918 176.0
185.158203 152.0
185.189056 180.0
185.233185 164.0
185.297409 44.0
185.351608 140.0
185.388641 124.0
185.392883 204.0
185.511505 132.0
185.544037 60.0
185.587418 112.0
185.614899 148.0
185.669571 120.0
185.701309 32.0
185.860596 152.0
185.899628 176.0
185.94136 184.0
185.96524 324.0
185.994507 132.0
186.016052 184.0
186.094482 584.0
186.15181 172.0
186.219696 180.0
186.249573 128.0
186.360947 176.0
186.385406 176.0
186.435562 148.0
186.464218 60.0
186.536606 176.0
186.55545 232.0
186.646347 124.0
186.670822 112.0
186.714325 120.0
186.755127 96.0
186.786331 136.0
186.921066 148.0
186.942841 84.0
186.972122 116.0
187.097229 232.0
187.183197 108.0
187.217789 72.0
187.273849 192.0
187.308868 200.0
187.340347 64.0
187.38121 156.0
187.422089 208.0
187.446609 176.0
187.48085 120.0
187.506363 108.0
187.552887 120.0
187.729614 288.0
187.792831 80.0
187.812943 128.0
187.900681 296.0
187.961624 352.0
187.987701 172.0
188.005264 272.0
188.067139 324.0
188.107193 4000.0
188.135178 180.0
188.229462 72.0
188.355087 52.0
188.374222 240.0
188.394791 68.0
188.462982 96.0
188.510818 120.0
188.540878 84.0
188.577881 112.0
188.658417 164.0
188.683014 84.0
188.717392 168.0
188.758102 156.0
188.797852 160.0
188.847076 116.0
188.888107 164.0
188.912735 168.0
188.956497 96.0
188.975647 172.0
189.005753 124.0
189.046478 176.0
189.066284 148.0
189.115067 28312.0
189.213211 80.0
189.271255 100.0
189.361618 76.0
189.38353 68.0
189.419327 144.0
189.502853 172.0
189.566193 108.0
189.587753 140.0
189.641083 168.0
189.748642 232.0
189.769913 44.0
189.820297 160.0
189.852188 64.0
189.871384 56.0
189.893311 148.0
189.934128 324.0
189.971298 320.0
190.000351 308.0
190.044617 256.0
190.086746 9296.0
190.121582 8744.0
190.17865 144.0
190.208618 164.0
190.263748 232.0
190.30925 84.0
190.343369 52.0
190.461472 68.0
190.51091 104.0
190.55687 132.0
190.58783 104.0
190.608627 172.0
190.648285 152.0
190.673019 80.0
190.705994 32.0
190.741867 244.0
190.777466 76.0
190.806732 112.0
190.846283 136.0
190.976532 136.0
191.030457 104.0
191.089478 1212.0
191.124207 1336.0
191.157135 92.0
191.207947 172.0
191.266296 68.0
191.310837 140.0
191.338669 120.0
191.401703 152.0
191.428513 88.0
191.451569 56.0
191.513092 328.0
191.564484 52.0
191.585403 92.0
191.614975 148.0
191.664673 44.0
191.762878 104.0
191.796829 240.0
191.828079 128.0
191.856598 68.0
191.886917 176.0
191.929749 316.0
191.955856 148.0
192.000916 128.0
192.008743 156.0
192.071945 128.0
192.096588 440.0
192.126556 408.0
192.171127 216.0
192.192612 120.0
192.297012 112.0
192.355896 124.0
192.413864 152.0
192.477875 176.0
192.509949 320.0
192.565308 128.0
192.607162 148.0
192.632019 148.0
192.667938 124.0
192.719345 276.0
192.823853 140.0
192.886246 120.0
192.958115 100.0
192.985764 52.0
193.007889 60.0
193.073959 1568.0
193.140884 88.0
193.193192 136.0
193.261337 196.0
193.287247 148.0
193.317627 172.0
193.353668 32.0
193.389648 104.0
193.43013 224.0
193.575134 216.0
193.683136 168.0
193.708069 100.0
193.730225 148.0
193.797913 56.0
193.843826 156.0
193.978012 144.0
194.015671 192.0
194.080109 404.0
194.134888 224.0
194.19809 208.0
194.20787 164.0
194.28067 200.0
194.334595 104.0
194.354019 52.0
194.395645 192.0
194.49086 116.0
194.560791 40.0
194.620483 140.0
194.651016 136.0
194.734421 140.0
194.784332 40.0
194.81488 156.0
194.84993 208.0
194.876007 76.0
194.937134 88.0
195.006607 124.0
195.045517 56.0
195.084549 96.0
195.168625 128.0
195.190094 160.0
195.364075 180.0
195.423721 260.0
195.44899 152.0
195.468246 240.0
195.524933 272.0
195.599045 92.0
195.643585 76.0
195.777191 148.0
195.832932 148.0
195.888641 136.0
196.008438 160.0
196.069992 180.0
196.125488 80.0
196.175507 148.0
196.203537 52.0
196.248154 120.0
196.281601 132.0
196.359695 80.0
196.385925 168.0
196.446152 128.0
196.532639 72.0
196.563339 80.0
196.621933 136.0
196.656143 124.0
196.686127 144.0
196.711243 64.0
196.73909 136.0
196.772659 108.0
196.831299 116.0
196.889938 140.0
197.024841 204.0
197.064697 260.0
197.120743 200.0
197.222412 136.0
197.27832 76.0
197.314651 124.0
197.414993 208.0
197.440491 204.0
197.524384 76.0
197.56076 48.0
197.630692 260.0
197.717438 208.0
197.755432 188.0
197.779022 168.0
197.815399 120.0
197.843399 208.0
197.865799 88.0
197.924591 200.0
197.951782 96.0
198.036606 44.0
198.070221 60.0
198.101395 156.0
198.140244 212.0
198.229904 124.0
198.288757 132.0
198.311188 196.0
198.46817 112.0
198.597168 68.0
198.639236 72.0
198.678513 132.0
198.705276 148.0
198.737427 32.0
198.759872 188.0
198.815994 176.0
199.063034 60.0
199.09111 236.0
199.119186 72.0
199.168762 192.0
199.197845 152.0
199.289551 124.0
199.314957 212.0
199.340347 72.0
199.365051 280.0
199.414185 116.0
199.459167 276.0
199.492889 336.0
199.518188 152.0
199.549118 120.0
199.655975 160.0
199.72731 176.0
199.758072 132.0
199.806458 120.0
200.003082 8716.0
200.040375 360.0
200.110504 312.0
200.150314 124.0
200.172379 160.0
200.227264 76.0
200.246979 156.0
200.266693 212.0
200.286407 156.0
200.342957 324.0
200.379364 176.0
200.40007 196.0
200.452621 212.0
200.516678 148.0
200.5569 36.0
200.585785 240.0
200.626984 164.0
200.661194 136.0
200.721222 124.0
200.757065 36.0
200.80072 192.0
200.838852 176.0
200.858597 200.0
200.962982 332.0
201.005722 680.0
201.061737 172.0
201.092789 176.0
201.118179 180.0
201.166168 112.0
201.185928 140.0
201.236755 76.0
201.293213 120.0
201.315155 188.0
201.362915 88.0
201.386414 48.0
201.426895 204.0
201.473984 204.0
201.51918 96.0
201.662567 108.0
201.711349 88.0
201.732178 204.0
201.929291 148.0
202.001114 3440.0
202.034378 268.0
202.123779 1516.0
202.239075 160.0
202.262924 60.0
202.309128 100.0
202.395981 132.0
202.441284 132.0
202.466782 48.0
202.571182 228.0
202.622559 92.0
202.707565 64.0
202.741577 52.0
202.786911 120.0
202.852112 132.0
202.883286 136.0
202.905975 128.0
202.937149 116.0
203.007034 556.0
203.095963 128.0
203.12825 144.0
203.430786 144.0
203.467697 124.0
203.51474 316.0
203.540512 160.0
203.564224 196.0
203.595474 44.0
203.643753 256.0
203.686356 88.0
203.743164 80.0
203.803329 92.0
203.831238 152.0
203.946793 140.0
203.997543 608.0
204.05275 292.0
204.087051 132.0
204.11647 168.0
204.143402 132.0
204.178055 168.0
204.254837 156.0
204.308899 120.0
204.345871 120.0
204.374329 80.0
204.428528 160.0
204.499542 196.0
204.526413 148.0
204.576385 104.0
204.651901 236.0
204.71875 200.0
204.818436 260.0
204.883942 64.0
204.932861 192.0
204.951187 80.0
204.995071 240.0
205.01384 116.0
205.044571 140.0
205.08342 124.0
205.118271 52.0
205.182465 192.0
205.265869 148.0
205.291534 176.0
205.31337 128.0
205.390778 300.0
205.39502 112.0
205.421341 284.0
205.441711 240.0
205.548264 116.0
205.577606 84.0
205.670975 104.0
205.693817 92.0
205.807999 88.0
205.847977 108.0
205.90509 140.0
205.933655 180.0
205.996735 192.0
206.078262 364.0
206.119339 220.0
206.153625 60.0
206.191162 148.0
206.280731 272.0
206.428467 112.0
206.468094 136.0
206.490967 140.0
206.54245 128.0
206.575058 140.0
206.625229 124.0
206.658768 140.0
206.688614 180.0
206.711807 308.0
206.760971 64.0
206.802826 104.0
206.858734 120.0
206.891006 188.0
206.912094 92.0
206.919724 100.0
206.929855 160.0
206.971725 84.0
207.015823 100.0
207.040451 152.0
207.088089 1512.0
207.122177 60.0
207.130539 120.0
207.152466 148.0
207.185089 68.0
207.207901 244.0
207.250748 184.0
207.286133 172.0
207.315674 156.0
207.33725 192.0
207.359756 272.0
207.408066 296.0
207.43515 168.0
207.444946 204.0
207.489349 192.0
207.531784 104.0
207.542404 116.0
207.554535 208.0
207.584869 136.0
207.613831 140.0
207.63533 132.0
207.668427 184.0
207.69632 152.0
207.720215 160.0
207.756378 280.0
207.765457 152.0
207.775162 324.0
207.803619 428.0
207.822205 300.0
207.869339 144.0
207.890793 296.0
207.916 368.0
207.940048 320.0
207.987198 136.0
208.00885 448.0
208.019577 292.0
208.039078 732.0
208.098297 325060.0
208.168365 312.0
208.190994 232.0
208.267258 212.0
208.29158 276.0
208.313232 160.0
208.363205 476.0
208.41864 172.0
208.469467 268.0
208.495331 108.0
208.532288 216.0
208.571915 3236.0
208.610245 304.0
208.668121 316.0
208.700165 120.0
208.705322 188.0
208.735245 192.0
208.758438 192.0
208.783035 92.0
208.815872 88.0
208.858978 296.0
208.894409 352.0
208.942551 228.0
208.98613 216.0
209.006042 356.0
209.043594 520.0
209.100784 53384.0
209.150085 92.0
209.158066 84.0
209.166214 140.0
209.190659 380.0
209.215759 44.0
209.238235 76.0
209.27446 88.0
209.297256 200.0
209.348236 236.0
209.381683 144.0
209.418518 212.0
209.459717 120.0
209.498337 92.0
209.546768 172.0
209.613144 92.0
209.640457 140.0
209.69101 100.0
209.72406 56.0
209.762161 104.0
209.806168 108.0
209.817535 176.0
209.850693 68.0
209.879669 76.0
209.936783 144.0
209.97023 132.0
210.011459 96.0
210.048233 100.0
210.059586 88.0
210.101669 4252.0
210.164978 240.0
210.184479 192.0
210.196579 208.0
210.207336 80.0
210.23204 104.0
210.270462 108.0
210.294434 212.0
210.334183 120.0
210.366425 136.0
210.414917 168.0
210.465683 300.0
210.495819 224.0
210.522598 92.0
210.527054 180.0
210.560013 172.0
210.607224 92.0
210.650864 120.0
210.680115 40.0
210.708221 156.0
210.740875 28.0
210.802979 244.0
210.85495 100.0
210.889114 76.0
210.930099 144.0
210.960434 120.0
210.985291 108.0
211.024185 116.0
211.051788 72.0
211.096603 48.0
211.131653 180.0
211.164124 156.0
211.221176 56.0
211.265167 92.0
211.308304 52.0
211.347717 128.0
211.387314 144.0
211.451157 68.0
211.476074 132.0
211.522964 92.0
211.538788 120.0
211.572556 76.0
211.633118 48.0
211.671799 200.0
211.728912 264.0
211.781036 100.0
211.824493 136.0
211.873734 92.0
211.896912 52.0
212.034668 104.0
212.14325 44.0
212.172226 52.0
212.221512 40.0
212.24762 60.0
212.286102 132.0
212.369415 36.0
212.389709 104.0
212.418716 68.0
212.452179 164.0
212.527924 100.0
212.572495 52.0
212.595703 72.0
212.650848 104.0
212.737915 104.0
212.766953 84.0
212.85405 92.0
212.877289 80.0
213.040558 56.0
213.068985 72.0
213.118378 104.0
213.214264 92.0
213.249146 56.0
213.289825 160.0
213.382858 48.0
213.403214 36.0
213.502075 36.0
213.563141 144.0
213.80928 80.0
214.060791 88.0
214.136505 112.0
214.199173 172.0
214.275085 84.0
214.30838 156.0
214.404541 112.0
214.433685 48.0
214.550278 156.0
214.575439 108.0
214.60553 160.0
214.868149 104.0
214.897324 172.0
214.999451 128.0
215.056061 152.0
215.247589 60.0
215.352722 188.0
215.37442 84.0
215.739639 124.0
215.913849 72.0
216.065948 52.0
216.21225 160.0
216.27652 92.0
216.308838 36.0
216.388504 132.0
216.464005 140.0
216.643936 176.0
216.729752 160.0
216.786224 52.0
216.845764 192.0
216.995514 300.0
217.050049 136.0
217.071762 164.0
217.210999 68.0
217.299347 112.0
217.375641 36.0
217.477203 92.0
217.569351 68.0
217.683853 56.0
217.732086 152.0
217.860077 112.0
217.880402 48.0
217.907089 76.0
218.014099 8164.0
218.067902 116.0
218.116074 104.0
218.16571 136.0
218.226273 140.0
218.250961 56.0
218.321533 116.0
218.350952 136.0
218.382889 88.0
218.420746 104.0
218.456345 48.0
218.492142 88.0
218.586014 100.0
218.763947 120.0
218.824692 56.0
218.874756 64.0
218.963089 44.0
219.017609 1360.0
219.053772 132.0
219.079132 444.0
219.160461 128.0
219.257202 96.0
219.273788 148.0
219.35202 44.0
219.40802 88.0
219.460083 140.0
219.520065 84.0
219.619934 132.0
219.714722 188.0
219.738327 108.0
219.761932 96.0
219.812088 156.0
219.850449 92.0
219.89473 132.0
219.948593 144.0
220.010925 5640.0
220.073944 360.0
220.124985 72.0
220.160431 132.0
220.237213 84.0
220.275604 220.0
220.305145 72.0
220.370804 344.0
220.402313 176.0
220.41272 212.0
220.491302 68.0
220.529297 112.0
220.568146 116.0
220.595642 100.0
220.640564 120.0
220.712997 68.0
220.760315 88.0
220.79718 120.0
220.826141 140.0
220.85199 264.0
220.973282 56.0
221.013687 484.0
221.147385 172.0
221.207062 152.0
221.266266 88.0
221.304764 72.0
221.414322 104.0
221.439224 128.0
221.547714 124.0
221.615753 144.0
221.701675 72.0
221.774399 120.0
221.817276 112.0
221.855804 60.0
221.886673 88.0
221.968475 88.0
222.011017 176.0
222.196777 156.0
222.238388 64.0
222.294769 36.0
222.365982 212.0
222.466904 44.0
222.692566 80.0
222.826248 196.0
222.858932 164.0
222.8871 200.0
222.933701 48.0
222.991165 120.0
223.058044 136.0
223.105606 80.0
223.16803 116.0
223.212631 140.0
223.269135 112.0
223.304825 44.0
223.332748 164.0
223.467056 164.0
223.539841 80.0
223.623169 48.0
223.67157 108.0
223.733307 156.0
223.792847 116.0
223.894089 112.0
223.965561 188.0
224.034775 100.0
224.12941 80.0
224.227753 132.0
224.472198 36.0
224.570618 88.0
224.731705 88.0
224.800323 60.0
224.889862 32.0
224.943588 68.0
224.997314 112.0
225.052063 144.0
225.095856 196.0
225.173492 68.0
225.254135 48.0
225.382599 140.0
225.466263 140.0
225.735321 100.0
225.813065 108.0
225.935699 176.0
225.958649 168.0
226.013489 64.0
226.053391 648.0
226.085312 208.0
226.199036 72.0
226.225983 160.0
226.321793 152.0
226.378677 120.0
226.480499 108.0
226.680878 136.0
226.741165 132.0
226.793533 76.0
226.86705 124.0
226.995422 108.0
227.060074 180.0
227.346939 84.0
227.466995 168.0
227.488007 52.0
227.542053 156.0
227.650131 60.0
227.689178 120.0
227.821335 84.0
227.902451 64.0
228.007629 104.0
228.046783 268.0
228.074722 160.0
228.118835 196.0
228.227066 80.0
228.323288 128.0
228.488724 96.0
228.783646 76.0
228.861923 68.0
228.886017 124.0
228.996643 92.0
229.043503 176.0
229.069717 188.0
229.090805 52.0
229.365021 100.0
229.515762 152.0
229.57132 56.0
229.65448 200.0
229.844528 96.0
229.910919 96.0
229.981201 264.0
229.990814 76.0
230.001617 208.0
230.04216 148.0
230.115448 204.0
230.182602 136.0
230.233932 60.0
230.258102 164.0
230.324539 120.0
230.521576 92.0
230.572296 112.0
230.632736 112.0
230.762726 200.0
230.865524 64.0
230.99559 144.0
231.022812 228.0
231.101471 72.0
231.310287 160.0
231.422287 84.0
231.664566 88.0
231.734253 132.0
231.9767 116.0
232.351257 136.0
232.808014 52.0
232.944702 96.0
232.967377 176.0
233.044952 96.0
233.11853 148.0
233.206009 72.0
233.233353 92.0
233.44313 52.0
233.71994 136.0
233.823395 184.0
233.893402 96.0
234.072281 404.0
234.374573 124.0
234.405045 148.0
234.581818 36.0
234.664124 96.0
235.155243 128.0
235.216293 104.0
235.445282 56.0
235.491089 56.0
235.616318 136.0
235.646881 164.0
235.781326 124.0
235.866638 140.0
235.897476 156.0
235.946381 144.0
236.008987 244.0
236.047272 132.0
236.206314 116.0
236.322556 84.0
236.37764 100.0
236.898117 172.0
237.011475 76.0
237.043915 156.0
237.281189 212.0
237.30571 96.0
237.327164 88.0
237.544907 64.0
237.817993 168.0
237.94693 88.0
238.097382 96.0
238.19873 88.0
238.33699 92.0
238.427429 184.0
238.512161 116.0
238.552109 56.0
238.761185 52.0
238.850388 204.0
238.999756 120.0
239.033096 236.0
239.062668 100.0
239.478287 72.0
239.521408 164.0
239.635391 108.0
240.033279 220.0
240.06691 160.0
240.131683 68.0
240.332184 68.0
240.508087 140.0
240.804489 176.0
240.850815 176.0
240.955856 124.0
241.040787 376.0
241.097977 40.0
241.199982 36.0
241.481339 156.0
241.636002 72.0
242.04361 236.0
242.056747 312.0
242.156036 128.0
242.338806 36.0
242.512344 152.0
242.578979 184.0
242.745483 200.0
242.827255 112.0
242.884415 48.0
243.050659 88.0
243.176071 84.0
243.259872 212.0
243.281601 80.0
243.526901 88.0
243.573486 104.0
243.660477 164.0
243.826569 168.0
243.862457 76.0
244.028488 108.0
244.09462 88.0
244.425323 164.0
244.496902 128.0
244.765472 172.0
244.805847 148.0
244.979507 180.0
245.041809 96.0
245.157104 84.0
245.315964 144.0
245.459473 168.0
245.484421 140.0
245.733948 84.0
245.871246 92.0
245.902451 140.0
246.002335 52.0
246.114136 608.0
246.146271 176.0
246.258377 180.0
246.294373 156.0
246.457367 160.0
246.508286 40.0
246.541626 180.0
246.58017 212.0
246.667679 56.0
246.827133 140.0
246.902176 72.0
246.933456 76.0
246.961594 192.0
247.007706 168.0
247.028107 168.0
247.074722 124.0
247.105209 132.0
247.113739 120.0
247.125595 208.0
247.149292 100.0
247.371506 184.0
247.40593 176.0
247.434113 172.0
247.509247 56.0
247.543701 52.0
247.575012 200.0
247.618851 40.0
247.648575 120.0
247.67836 80.0
247.726456 68.0
247.783951 192.0
247.853806 156.0
247.891403 200.0
247.935272 40.0
247.971191 156.0
247.991287 96.0
248.000793 128.0
248.023178 244.0
248.068939 252.0
248.09021 120.0
248.128632 52812.0
248.208801 160.0
248.247101 164.0
248.309738 156.0
248.355392 28.0
248.383408 168.0
248.434372 104.0
248.530472 128.0
248.593079 144.0
248.641571 72.0
248.689392 172.0
248.731918 148.0
248.766434 84.0
248.801178 124.0
248.846497 56.0
248.878922 172.0
248.901306 92.0
248.937943 192.0
249.011246 112.0
249.077316 48.0
249.130463 6528.0
249.187256 48.0
249.22908 64.0
249.276596 92.0
249.328659 32.0
249.369522 40.0
249.472427 92.0
249.507614 60.0
249.542404 100.0
249.604523 136.0
249.850616 64.0
249.907242 60.0
249.946091 208.0
249.979614 120.0
250.02626 68.0
250.134201 788.0
250.206223 56.0
250.260117 68.0
250.346817 80.0
250.482712 80.0
250.526367 116.0
250.581009 56.0
250.658478 136.0
250.757462 124.0
250.85202 120.0
250.877243 232.0
250.912552 60.0
250.939194 148.0
250.973953 92.0
251.003357 184.0
251.037476 244.0
251.063263 68.0
251.13298 188.0
251.161041 56.0
251.209076 208.0
251.260635 140.0
251.343079 68.0
251.403961 100.0
251.725952 76.0
251.792267 84.0
251.868073 124.0
251.909134 240.0
251.934402 84.0
251.962845 88.0
251.988113 28.0
252.036499 308.0
252.092377 80.0
252.269379 60.0
252.338928 160.0
252.41481 112.0
252.522324 152.0
252.89566 112.0
252.982788 92.0
253.024994 84.0
253.047607 216.0
253.3358 144.0
253.361145 36.0
253.497391 72.0
253.712906 124.0
253.820709 120.0
253.880951 192.0
253.95871 132.0
253.991959 116.0
254.051819 396.0
254.118851 148.0
254.312424 144.0
254.436218 76.0
254.676865 92.0
254.741089 108.0
254.85228 240.0
254.890396 48.0
254.915817 60.0
254.979385 44.0
255.020691 88.0
255.058136 184.0
255.313187 100.0
255.465851 132.0
255.545395 92.0
255.87001 116.0
255.978271 88.0
256.045837 432.0
256.280853 52.0
256.379639 180.0
256.456146 92.0
256.599579 104.0
256.794098 140.0
257.071655 168.0
257.247192 136.0
257.346161 144.0
257.390839 76.0
257.457916 48.0
257.694275 88.0
257.723022 100.0
257.780548 132.0
258.452026 80.0
258.506439 184.0
258.548035 156.0
258.70166 88.0
258.74649 84.0
259.012054 344.0
259.598785 140.0
259.659698 164.0
259.787994 84.0
260.010742 304.0
260.182739 200.0
260.227661 156.0
260.304749 40.0
260.38501 128.0
260.41391 92.0
260.494232 140.0
260.632355 128.0
260.65979 164.0
260.744843 36.0
260.918427 92.0
261.013 376.0
261.075256 272.0
261.156372 80.0
261.207825 180.0
261.349396 84.0
261.66156 124.0
261.696991 56.0
261.761383 48.0
261.925629 132.0
262.023956 280.0
262.09317 140.0
262.254272 108.0
262.357422 136.0
262.499298 72.0
262.533691 56.0
262.705719 84.0
262.751984 188.0
262.92511 60.0
263.023743 428.0
263.073578 68.0
263.112335 104.0
263.306061 32.0
263.658203 112.0
263.706696 56.0
263.935394 160.0
263.980316 204.0
264.018829 116.0
264.288757 164.0
264.453796 96.0
264.599457 92.0
264.690125 100.0
264.719269 60.0
264.751648 96.0
264.800232 100.0
264.868256 136.0
265.005066 104.0
265.036713 160.0
265.083832 132.0
265.182526 132.0
265.24411 60.0
265.360809 116.0
265.444763 176.0
265.487274 196.0
265.519714 116.0
265.772736 36.0
265.808411 112.0
265.840881 132.0
266.019379 80.0
266.052124 88.0
266.08429 104.0
266.428558 184.0
266.620239 204.0
266.650757 184.0
266.890045 52.0
266.919312 116.0
267.059143 116.0
267.306396 132.0
267.335693 64.0
267.462616 100.0
267.501678 172.0
267.553772 132.0
267.674225 56.0
267.811005 144.0
267.993439 144.0
268.035797 208.0
268.544342 104.0
268.749847 104.0
268.851013 80.0
269.040314 140.0
269.072968 100.0
269.102356 104.0
269.148071 100.0
269.20636 140.0
269.58905 112.0
269.863617 148.0
270.072906 64.0
270.125244 152.0
270.233185 112.0
270.341156 48.0
270.531006 120.0
270.560455 152.0
270.678314 60.0
270.796234 88.0
270.819153 208.0
271.009155 100.0
271.051727 72.0
271.086975 96.0
271.245087 120.0
271.300842 92.0
271.502075 84.0
271.910919 132.0
271.970001 84.0
272.081604 84.0
272.130859 116.0
272.386993 144.0
272.492126 236.0
272.628784 168.0
272.889801 168.0
272.912811 60.0
272.946869 136.0
273.067383 92.0
273.123291 108.0
273.212097 88.0
273.379913 136.0
273.528015 156.0
273.676941 152.0
273.939606 88.0
274.018677 68.0
274.045044 96.0
274.084564 40.0
274.252655 144.0
274.308685 100.0
274.453735 176.0
274.615326 104.0
274.674683 76.0
274.714264 108.0
275.001282 284.0
275.045959 140.0
275.227081 156.0
275.272034 104.0
275.314972 224.0
275.437164 116.0
275.473511 112.0
275.592438 100.0
275.913025 156.0
276.011871 520.0
276.05191 92.0
276.197418 216.0
276.237122 48.0
276.379364 76.0
276.548126 48.0
276.683838 44.0
276.716949 72.0
276.826233 148.0
276.869263 164.0
277.000214 216.0
277.087891 52.0
277.482269 108.0
277.612762 124.0
277.694489 144.0
277.850403 112.0
278.009155 708.0
278.072723 40.0
278.12915 132.0
278.208801 32.0
278.394745 144.0
278.667114 120.0
279.014221 264.0
279.020416 116.0
279.033936 184.0
279.158691 148.0
279.180908 312.0
279.238861 196.0
279.438446 144.0
279.864471 132.0
280.022186 352.0
280.387451 84.0
280.507446 280.0
280.730804 176.0
281.029266 156.0
281.054993 140.0
281.081055 84.0
281.111084 116.0
281.404816 52.0
281.545074 120.0
281.615204 152.0
281.665314 188.0
281.85907 160.0
281.91922 148.0
282.012787 100.0
282.043213 308.0
282.173248 100.0
282.27356 72.0
282.484253 100.0
282.567902 112.0
282.618073 188.0
282.715118 116.0
282.999634 112.0
283.049072 132.0
283.532227 132.0
283.609314 120.0
283.632782 160.0
283.760162 88.0
283.813812 76.0
284.056183 176.0
284.09552 140.0
284.179413 84.0
284.320343 152.0
284.525085 156.0
284.551941 116.0
284.615723 132.0
284.669464 112.0
284.770203 84.0
284.891144 44.0
285.085999 96.0
285.33136 36.0
285.556671 200.0
285.731567 144.0
285.755127 92.0
285.819061 164.0
286.000793 168.0
286.02771 164.0
286.08493 128.0
286.169098 168.0
286.192657 40.0
286.428406 132.0
286.573273 192.0
286.603577 76.0
286.999725 156.0
287.1362 40.0
287.207031 92.0
287.351349 164.0
287.395935 124.0
287.436432 136.0
287.460052 152.0
287.642303 116.0
287.669312 56.0
287.851624 132.0
287.932648 136.0
288.011017 80.0
288.287384 92.0
288.361725 128.0
288.409058 124.0
288.473267 80.0
288.892578 88.0
289.019409 792.0
289.078674 228.0
289.175751 168.0
289.237732 136.0
289.33252 100.0
289.430695 128.0
289.906036 176.0
290.023895 232.0
290.118469 140.0
290.159149 80.0
290.223572 40.0
290.413452 132.0
290.494873 80.0
290.545746 100.0
290.600037 112.0
290.69165 176.0
290.732361 124.0
290.776489 60.0
290.826324 188.0
290.895294 152.0
290.932617 64.0
291.013702 528.0
291.163513 60.0
291.336731 60.0
291.384308 52.0
291.438263 132.0
291.836334 132.0
291.905426 200.0
291.965546 156.0
292.033325 268.0
292.10498 108.0
292.159424 196.0
292.237671 40.0
292.292114 148.0
292.390808 120.0
292.499695 140.0
292.733582 144.0
292.765259 144.0
292.789124 68.0
292.904907 96.0
292.990875 320.0
293.02951 104.0
293.2388 112.0
293.395599 40.0
293.743439 44.0
293.978851 160.0
294.016388 44.0
294.067657 208.0
294.200714 156.0
294.241669 176.0
294.292877 56.0
294.32019 96.0
294.357758 48.0
294.415802 116.0
294.504608 192.0
294.538757 144.0
294.760284 148.0
294.931702 68.0
295.034241 104.0
295.072449 156.0
295.194946 52.0
295.242828 176.0
295.352264 132.0
295.533569 148.0
295.656769 204.0
295.97168 128.0
296.166901 76.0
296.231964 140.0
296.36557 120.0
296.410126 96.0
296.554047 188.0
296.756317 100.0
296.948334 112.0
297.384064 80.0
297.432129 92.0
297.954071 104.0
297.995575 148.0
298.534943 76.0
298.706909 148.0
298.875488 108.0
299.003601 160.0
299.047546 160.0
299.192139 220.0
299.412506 56.0
299.44693 120.0
299.653595 100.0
299.836243 104.0
300.048584 420.0
300.082397 244.0
300.191315 56.0
300.229248 148.0
300.31546 80.0
300.422394 32.0
300.508636 156.0
300.588013 104.0
300.629395 160.0
300.774353 40.0
300.839935 76.0
301.002228 124.0
301.061188 156.0
301.506561 116.0
301.682831 68.0
301.76236 160.0
301.829712 108.0
301.879913 148.0
302.039795 292.0
302.132416 136.0
302.288086 68.0
302.315765 60.0
302.575378 72.0
302.644623 52.0
302.904358 156.0
302.932068 136.0
302.977112 60.0
303.018616 196.0
303.427734 128.0
303.687683 140.0
303.739716 192.0
303.950195 108.0
304.003662 164.0
304.053589 208.0
304.249817 64.0
304.556274 80.0
304.614441 148.0
305.007324 180.0
305.030396 108.0
305.087067 80.0
305.368713 136.0
305.431305 52.0
305.469574 140.0
305.744446 80.0
305.862762 68.0
306.005035 148.0
306.045624 252.0
306.176117 128.0
306.46524 52.0
306.565857 132.0
306.604614 112.0
306.906952 204.0
307.013184 152.0
307.050354 516.0
307.089233 44.0
307.131073 52.0
307.155487 68.0
307.190369 112.0
307.249695 216.0
307.350861 68.0
307.605621 80.0
307.69989 164.0
307.922974 144.0
307.996704 120.0
308.041199 140.0
308.046875 288.0
308.087524 164.0
308.164398 40.0
308.209808 120.0
308.255219 60.0
308.433014 124.0
308.441498 108.0
308.482391 84.0
308.832062 68.0
308.867035 128.0
309.048859 696.0
309.21109 60.0
309.566986 40.0
309.819183 76.0
309.969849 224.0
310.057434 44.0
310.393982 80.0
310.422028 180.0
310.67807 48.0
311.03949 100.0
311.176392 52.0
311.218536 112.0
311.243103 156.0
311.320374 136.0
311.351959 156.0
311.689209 108.0
311.903564 96.0
312.044952 92.0
312.518982 108.0
312.605988 100.0
312.670319 136.0
312.740692 80.0
313.00473 196.0
313.064575 44.0
313.363983 52.0
313.642395 112.0
313.674103 128.0
313.829224 144.0
314.231293 120.0
314.474762 136.0
314.503021 220.0
314.52771 76.0
314.608917 112.0
314.725403 220.0
314.778381 192.0
314.81723 72.0
314.969086 136.0
315.004395 52.0
315.103333 104.0
315.272919 148.0
315.467316 96.0
316.027191 244.0
316.050873 160.0
316.111023 136.0
316.256104 40.0
316.351685 148.0
316.394165 112.0
316.489746 132.0
316.925415 92.0
317.009735 248.0
317.247925 128.0
317.421661 172.0
317.460663 112.0
317.943115 88.0
318.036469 592.0
318.166718 40.0
318.340698 160.0
318.539581 52.0
318.646179 48.0
318.9198 36.0
318.971527 180.0
319.010864 380.0
319.045135 76.0
319.182861 116.0
319.289551 68.0
319.446045 164.0
319.542084 152.0
319.648834 160.0
319.682312 292.0
319.716431 44.0
319.857849 60.0
319.90152 136.0
320.010864 168.0
320.041656 336.0
320.1828 264.0
321.070587 160.0
321.116547 116.0
321.306 104.0
321.387665 152.0
321.601776 92.0
321.648163 112.0
321.673157 76.0
321.787384 192.0
321.862366 156.0
321.898071 108.0
321.998077 136.0
322.090942 156.0
322.148102 152.0
322.194519 68.0
322.323151 148.0
322.426788 72.0
322.691284 152.0
322.891541 160.0
322.948761 184.0
323.028137 292.0
323.059662 64.0
323.116882 172.0
323.181305 176.0
323.324432 152.0
323.395996 156.0
323.449707 84.0
323.571411 80.0
323.628693 80.0
323.854309 84.0
323.961761 124.0
324.008331 96.0
324.832825 128.0
325.02298 196.0
325.048096 60.0
325.123444 76.0
325.19577 108.0
325.381866 56.0
325.597321 120.0
325.644012 144.0
326.024841 88.0
326.064362 192.0
326.35553 116.0
326.916656 28.0
326.967041 132.0
326.992249 28.0
327.017426 108.0
327.075012 140.0
327.27301 224.0
327.316223 120.0
327.370239 96.0
327.53952 100.0
327.658386 152.0
327.748444 36.0
327.827728 56.0
328.010193 184.0
328.049896 292.0
328.160278 76.0
328.188202 80.0
328.299957 148.0
328.425476 140.0
328.509155 140.0
328.848328 96.0
328.898865 52.0
328.931366 140.0
329.000366 140.0
329.034729 120.0
329.104645 28.0
329.143005 108.0
329.296021 120.0
329.32132 136.0
329.361053 148.0
329.433289 112.0
329.931976 104.0
329.977966 216.0
330.041718 228.0
330.080231 148.0
330.543213 48.0
330.778473 52.0
330.825531 140.0
330.959473 156.0
331.039124 188.0
331.075348 128.0
331.375977 32.0
331.653809 236.0
331.713013 36.0
331.789154 168.0
331.977692 148.0
332.039337 212.0
332.188049 68.0
332.422455 176.0
332.485565 152.0
332.605316 96.0
332.754181 136.0
332.819519 128.0
332.972046 88.0
333.043549 64.0
333.277161 116.0
333.40799 88.0
333.689178 200.0
334.055176 132.0
334.289551 144.0
334.484558 180.0
334.794006 104.0
334.852295 96.0
334.972473 76.0
335.04657 5772.0
335.114563 160.0
335.200684 176.0
335.390259 92.0
335.465759 108.0
335.515472 144.0
335.562866 52.0
335.595673 124.0
335.632141 112.0
335.675873 56.0
335.891937 116.0
335.971313 64.0
335.998901 104.0
336.050568 1612.0
336.120911 60.0
336.288757 120.0
336.376373 144.0
336.423828 36.0
336.529694 68.0
336.584473 136.0
336.628296 172.0
336.814453 148.0
336.86203 40.0
336.957001 168.0
337.044159 3432.0
337.252991 40.0
337.278595 36.0
337.384583 36.0
337.439423 44.0
337.511475 164.0
337.541168 172.0
337.640533 68.0
337.831238 100.0
337.951477 72.0
338.050903 1096.0
338.332092 100.0
338.3815 72.0
338.419952 40.0
338.456573 56.0
338.48587 56.0
338.529816 84.0
338.584747 92.0
338.617706 152.0
338.841125 80.0
338.932739 128.0
339.043457 416.0
339.121918 88.0
339.346893 28.0
339.409241 96.0
339.434906 68.0
339.59259 108.0
339.632935 132.0
339.709961 116.0
339.764984 112.0
340.025513 104.0
340.179657 144.0
340.337524 160.0
340.403625 160.0
340.707275 136.0
340.848083 56.0
340.92157 60.0
341.075958 120.0
341.198914 228.0
341.34433 188.0
341.782043 124.0
341.947632 128.0
342.013885 132.0
342.061737 60.0
342.41153 160.0
342.669373 148.0
342.98996 88.0
343.062531 216.0
343.159546 160.0
343.251709 148.0
343.36972 136.0
343.410309 76.0
343.454559 100.0
343.543091 276.0
344.085571 96.0
344.591553 96.0
344.646973 144.0
344.857605 208.0
344.979584 200.0
345.271667 136.0
345.43811 88.0
345.7341 36.0
345.863647 92.0
346.196838 220.0
346.430176 220.0
346.522797 104.0
346.763672 64.0
346.845215 120.0
346.930695 128.0
347.015717 36.0
347.075043 244.0
347.337891 124.0
347.449646 100.0
347.479309 100.0
347.561829 152.0
347.831848 56.0
347.987793 120.0
348.052399 148.0
348.492889 104.0
348.686127 44.0
348.957489 124.0
349.009521 184.0
349.135956 144.0
349.22522 128.0
349.589813 68.0
349.615845 224.0
349.772156 80.0
350.035065 128.0
350.066284 132.0
350.230164 68.0
350.293488 160.0
350.356812 96.0
350.420135 72.0
350.457397 208.0
350.803986 168.0
350.841278 108.0
350.930725 72.0
351.061249 96.0
351.221619 80.0
351.258911 128.0
351.352173 296.0
351.430511 80.0
351.486481 128.0
351.666473 172.0
351.758942 144.0
351.878387 64.0
351.930664 156.0
352.16217 104.0
352.304138 76.0
352.599304 124.0
352.836914 192.0
353.014252 156.0
353.354645 104.0
353.69516 92.0
353.751312 88.0
353.859894 40.0
354.073303 108.0
354.286804 140.0
354.372986 108.0
354.526611 84.0
354.611755 372.0
355.043945 120.0
355.208984 120.0
355.512878 156.0
355.606689 172.0
355.746643 56.0
355.816895 124.0
355.888245 128.0
356.11731 48.0
356.15863 124.0
356.305115 108.0
356.365234 104.0
356.429108 168.0
356.669617 52.0
356.921509 140.0
357.054962 220.0
357.085266 236.0
357.135864 88.0
357.384155 40.0
357.561005 84.0
357.688965 132.0
358.046661 156.0
358.306549 108.0
358.532623 132.0
358.920898 176.0
358.981232 148.0
359.026489 64.0
359.090454 108.0
359.097137 104.0
359.111084 184.0
359.343323 44.0
359.550873 108.0
359.901917 56.0
359.996338 56.0
360.1474 40.0
360.219147 160.0
360.956146 68.0
361.014069 300.0
361.084717 180.0
361.307861 184.0
361.440308 104.0
361.546265 36.0
361.750641 128.0
361.815002 88.0
362.000519 156.0
362.034607 116.0
362.072479 80.0
362.102753 116.0
362.151581 176.0
362.2164 252.0
362.402008 108.0
362.974365 112.0
363.011963 772.0
363.056244 156.0
363.066193 200.0
363.273987 152.0
363.48645 128.0
363.528168 152.0
363.611664 88.0
364.016327 128.0
364.029053 76.0
364.03833 124.0
364.146973 60.0
364.185608 116.0
364.397675 76.0
364.610474 120.0
364.659882 88.0
364.728302 64.0
364.927551 48.0
365.010773 120.0
365.097076 88.0
365.180756 84.0
365.498016 160.0
365.526276 184.0
365.576416 140.0
365.656342 88.0
365.800964 164.0
365.968475 156.0
366.06366 1004.0
366.318848 80.0
366.501709 124.0
366.539795 36.0
366.659027 124.0
366.718933 176.0
366.772278 112.0
366.940002 104.0
367.015076 204.0
367.064911 352.0
367.191681 172.0
368.01593 144.0
368.065033 604.0
368.205353 92.0
368.302338 188.0
368.581207 172.0
368.756989 116.0
369.03833 108.0
369.064484 220.0
369.307556 84.0
369.736053 92.0
369.850861 48.0
370.053772 76.0
370.329468 64.0
370.804565 304.0
370.9617 52.0
371.072876 108.0
371.273132 140.0
371.548431 112.0
371.617493 140.0
371.694214 112.0
372.005096 132.0
372.235443 100.0
372.353271 176.0
372.458191 172.0
372.581116 108.0
372.852966 176.0
372.988464 44.0
373.380615 88.0
373.433868 180.0
373.946167 108.0
373.99234 136.0
374.061646 40.0
374.180969 68.0
374.261841 208.0
374.375793 208.0
374.735565 128.0
374.808777 112.0
374.881226 140.0
375.136353 92.0
375.325287 92.0
375.394684 144.0
375.521942 128.0
375.570984 152.0
375.749542 88.0
375.822845 132.0
375.977203 108.0
376.008057 136.0
376.052307 292.0
376.226135 184.0
376.293701 112.0
376.513794 112.0
376.907806 188.0
377.035339 120.0
377.070129 256.0
377.360046 96.0
377.402557 208.0
377.441223 160.0
377.742889 92.0
377.773834 52.0
377.855072 120.0
377.913116 120.0
377.959534 144.0
378.02771 188.0
378.058777 80.0
378.172363 96.0
378.226562 132.0
378.524658 184.0
378.575012 128.0
378.852844 60.0
378.95459 100.0
379.291748 76.0
379.322754 72.0
379.402008 108.0
379.746277 296.0
379.834595 96.0
379.970367 116.0
380.026581 140.0
380.253632 152.0
380.346802 40.0
380.575836 72.0
380.614655 128.0
380.824371 148.0
380.99527 96.0
381.057434 104.0
381.092407 36.0
381.243958 148.0
381.345001 52.0
381.605438 148.0
382.479279 144.0
382.574127 136.0
382.831116 184.0
382.95575 140.0
383.010254 56.0
383.367523 228.0
383.446625 208.0
383.569336 96.0
383.672729 64.0
383.859863 132.0
383.930054 76.0
384.023651 84.0
384.113373 128.0
384.261597 116.0
384.472321 168.0
384.628418 148.0
384.733826 132.0
384.788483 132.0
384.991516 140.0
385.073517 60.0
385.272736 188.0
385.36261 92.0
385.56189 128.0
385.872345 84.0
386.504303 92.0
386.555145 48.0
386.72345 128.0
386.762573 100.0
386.876099 92.0
387.032684 100.0
387.216736 116.0
387.418884 192.0
387.502686 176.0
387.54187 140.0
387.592804 136.0
387.718384 92.0
387.7966 144.0
387.910828 144.0
387.939056 160.0
388.074921 164.0
388.414032 76.0
388.455322 148.0
388.498474 100.0
388.561249 136.0
388.704071 216.0
388.890869 164.0
388.951691 96.0
389.04129 256.0
389.287384 56.0
389.413025 372.0
389.468018 88.0
389.54657 104.0
389.908051 124.0
389.968872 152.0
390.169434 136.0
390.261841 48.0
390.301147 48.0
390.440491 92.0
390.489929 148.0
390.541046 132.0
390.655121 100.0
390.725922 204.0
390.792816 60.0
390.840027 156.0
391.147003 48.0
391.178467 36.0
391.280823 100.0
391.316254 176.0
391.367462 204.0
391.41217 156.0
391.5289 184.0
391.693573 104.0
391.851898 108.0
391.999268 100.0
392.127716 112.0
392.167145 132.0
392.202606 84.0
392.287537 124.0
392.431244 128.0
392.518616 128.0
392.585022 116.0
392.628418 184.0
392.6633 52.0
392.690765 248.0
392.785522 148.0
392.823059 80.0
392.865875 164.0
392.89267 156.0
392.917542 132.0
392.963226 148.0
392.99527 128.0
393.030762 140.0
393.064789 172.0
393.118164 108.0
393.174896 132.0
393.224304 96.0
393.255402 100.0
393.2854 84.0
393.323547 172.0
393.352478 108.0
393.395569 136.0
393.42865 292.0
393.503326 376.0
393.577118 232.0
393.604462 220.0
393.634491 340.0
393.690155 252.0
393.724915 104.0
393.781219 304.0
393.84436 180.0
393.889618 180.0
393.904785 108.0
393.916931 384.0
393.979095 436.0
394.062073 149080.0
394.148773 48.0
394.20816 116.0
394.264099 464.0
394.336243 136.0
394.39151 336.0
394.458801 176.0
394.510132 164.0
394.557098 180.0
394.572815 92.0
394.582947 40.0
394.6409 388.0
394.711914 624.0
394.804382 68.0
394.852325 120.0
394.9263 256.0
394.991943 124.0
395.064301 40972.0
395.123505 228.0
395.165375 92.0
395.230743 136.0
395.288513 240.0
395.332031 184.0
395.345856 296.0
395.391266 164.0
395.420044 232.0
395.479889 164.0
395.5159 132.0
395.569763 304.0
395.633118 88.0
395.688873 60.0
395.727448 64.0
395.75293 372.0
395.810547 316.0
395.861755 168.0
395.879761 140.0
395.892181 204.0
395.937805 228.0
395.992584 532.0
396.058807 92456.0
396.145416 144.0
396.20636 176.0
396.241791 84.0
396.252045 100.0
396.268372 192.0
396.324036 172.0
396.361389 132.0
396.374084 84.0
396.391022 108.0
396.406036 108.0
396.435822 252.0
396.471222 92.0
396.502869 204.0
396.552582 220.0
396.619385 220.0
396.661469 168.0
396.675781 116.0
396.687531 120.0
396.702118 136.0
396.715546 164.0
396.729034 292.0
396.765717 132.0
396.798462 140.0
396.847015 84.0
396.882996 148.0
396.935852 336.0
396.995422 88.0
397.060089 13980.0
397.116394 300.0
397.121552 300.0
397.174561 180.0
397.217072 96.0
397.325653 216.0
397.34021 296.0
397.413208 336.0
397.463501 212.0
397.519836 200.0
397.565155 172.0
397.638611 148.0
397.714905 176.0
397.758423 156.0
397.802917 144.0
397.869537 80.0
397.93808 160.0
398.005585 156.0
398.056183 5688.0
398.143768 116.0
398.249603 40.0
398.293579 32.0
398.324524 124.0
398.366913 272.0
398.394745 84.0
398.45694 36.0
398.484467 76.0
398.538391 52.0
398.578125 44.0
398.627075 152.0
398.66333 64.0
398.717865 120.0
398.825989 80.0
398.856201 140.0
398.88446 292.0
398.933014 136.0
398.999237 96.0
399.024048 204.0
399.057159 108.0
399.131439 60.0
399.149506 80.0
399.190765 96.0
399.21994 96.0
399.317535 68.0
399.363129 208.0
399.415375 120.0
399.45639 156.0
399.484375 72.0
399.490448 136.0
399.535797 116.0
399.566345 212.0
399.607483 104.0
399.629578 72.0
399.657776 140.0
399.739777 72.0
399.769806 152.0
399.812866 104.0
399.851593 84.0
399.91626 272.0
399.979767 100.0
400.042603 52.0
400.091003 72.0
400.232788 40.0
400.336334 44.0
400.40802 52.0
400.452728 160.0
400.487671 136.0
400.543427 44.0
400.61322 108.0
400.686829 48.0
400.717712 64.0
400.754578 88.0
400.790436 76.0
400.822296 108.0
400.885651 80.0
401.009613 36.0
401.041473 44.0
401.09729 60.0
401.12851 72.0
401.188965 52.0
401.236816 52.0
401.371124 64.0
401.518951 128.0
401.587708 116.0
401.619629 120.0
401.797302 112.0
401.835022 84.0
402.058472 56.0
402.106384 68.0
402.194183 36.0
402.278015 92.0
402.577454 56.0
402.609406 80.0
402.833069 64.0
403.048798 72.0
403.356537 48.0
403.432465 112.0
403.680359 48.0
403.820343 40.0
404.103302 76.0
404.469177 72.0
404.540558 60.0
404.614197 92.0
404.664673 32.0
404.832825 56.0
404.884888 56.0
404.932953 68.0
404.975159 60.0
405.137238 92.0
405.209351 48.0
405.293488 56.0
405.449768 48.0
405.706299 32.0
405.738373 140.0
405.814545 40.0
406.099243 48.0
406.164825 80.0
406.223602 40.0
406.281891 60.0
406.339935 128.0
406.544556 64.0
407.070435 292.0
407.098541 48.0
407.162811 52.0
407.267212 84.0
407.395752 84.0
407.540375 52.0
407.749359 132.0
407.986481 88.0
408.159363 100.0
408.23175 84.0
408.279022 80.0
408.670197 100.0
408.82309 72.0
408.883453 44.0
409.122284 156.0
409.221588 76.0
409.354462 60.0
409.483337 60.0
409.579987 72.0
409.612213 60.0
409.950653 76.0
409.978851 100.0
410.148132 76.0
410.208588 80.0
410.329529 52.0
410.422272 80.0
410.519043 56.0
410.879303 92.0
410.98291 84.0
411.083771 88.0
411.350159 104.0
411.475311 88.0
411.556061 48.0
411.770081 128.0
412.182129 80.0
412.222534 36.0
412.404388 84.0
412.489258 88.0
412.933105 88.0
413.045258 20.0
413.753693 120.0
413.953827 40.0
414.56958 120.0
414.820862 76.0
414.873566 72.0
415.039764 92.0
415.62384 108.0
415.664429 60.0
415.924164 88.0
416.155548 120.0
416.492615 60.0
417.439545 84.0
417.610352 48.0
418.074127 64.0
418.607422 52.0
419.882935 40.0
419.923706 128.0
420.484924 108.0
420.654083 108.0
420.690826 28.0
421.630249 48.0
421.86322 100.0
422.648468 88.0
423.295197 96.0
423.717041 28.0
423.9711 112.0
424.819824 48.0
427.342285 136.0
428.182007 64.0
428.647522 92.0
429.138 104.0
431.574005 40.0
432.554474 116.0
433.565063 96.0
434.099823 36.0
434.601715 68.0
434.863159 32.0
435.6604 64.0
436.283752 92.0
437.456848 92.0
439.144379 48.0
439.244476 80.0
441.516541 112.0
441.880463 56.0
442.365906 40.0
442.416138 72.0
443.249603 88.0
443.668701 32.0
444.687988 72.0
445.028015 116.0
445.893341 124.0
447.24765 84.0
448.785278 76.0
448.852722 100.0
449.747101 96.0
450.925476 96.0
451.504669 100.0
455.318817 56.0
455.641632 100.0
455.726593 64.0
456.993622 84.0
457.444733 72.0
457.500061 132.0
457.900299 72.0
457.934387 68.0
458.019562 56.0
458.982697 72.0
460.484833 96.0
462.648438 100.0
463.020966 48.0
463.200836 124.0
463.526428 116.0
463.757874 84.0
464.199432 108.0
465.135254 244.0
465.890472 68.0
465.959198 60.0
466.135712 96.0
466.367432 44.0
466.737152 52.0
466.952148 132.0
467.122864 168.0
467.498505 56.0
467.718018 60.0
468.09256 44.0
468.708527 72.0
468.751617 92.0
468.988647 48.0
469.238647 88.0
469.268829 36.0
470.88269 84.0
471.34494 84.0
471.586945 72.0
471.690674 48.0
472.274384 100.0
472.507996 60.0
473.71579 40.0
474.98587 84.0
477.696381 124.0
477.826904 56.0
478.675629 128.0
479.947968 148.0
482.602631 64.0
486.83548 64.0
488.378082 84.0
488.62442 84.0
489.610382 100.0
489.870239 120.0
489.931915 48.0
490.672302 56.0
491.060333 124.0
491.236755 108.0
491.333832 52.0
491.620605 64.0
491.753021 104.0
492.432922 64.0
492.505798 72.0
492.53894 76.0
492.781891 40.0
493.525543 80.0
493.772064 44.0
494.710083 88.0
495.498352 56.0
496.615417 104.0
501.15863 100.0
502.22406 96.0
502.456024 76.0
502.804047 92.0
503.554077 120.0
508.784058 44.0
509.02652 80.0
509.446594 120.0
509.567688 72.0
511.710785 40.0
512.55304 48.0
514.496948 88.0
514.754272 112.0
514.925903 40.0
515.377625 68.0
519.828674 36.0
520.473206 76.0
522.163696 80.0
524.636108 60.0
525.315613 48.0
526.429199 32.0
528.930054 120.0
529.20929 108.0
529.690125 128.0
531.138611 56.0
531.993774 108.0
535.712341 44.0
538.101196 40.0
539.03418 40.0
540.643433 64.0
542.250427 108.0
542.384827 80.0
543.75769 68.0
547.071777 56.0
547.625916 68.0
548.166321 96.0
548.343384 80.0
548.553162 68.0
548.926086 36.0
549.112671 68.0
550.279236 44.0
550.339905 60.0
550.914368 96.0
551.218018 68.0
551.559204 56.0
551.835022 84.0
556.144714 100.0
556.989929 104.0
557.929749 104.0
557.962646 68.0
558.931519 104.0
560.669128 128.0
561.843201 84.0
563.131836 48.0
563.958618 44.0
564.975281 100.0
565.065186 36.0
566.333801 40.0
568.082886 80.0
568.82312 68.0
569.397644 108.0
569.497375 32.0
571.194275 76.0
572.012695 80.0
577.872986 52.0
579.721252 116.0
579.956116 44.0
582.340637 68.0
582.878723 92.0
584.908203 96.0
588.803955 68.0
589.402954 88.0
590.12793 64.0
594.43396 44.0
597.840393 116.0
598.98938 136.0
599.608215 56.0
600.749146 124.0
603.474243 52.0
605.661682 76.0
605.97522 120.0
607.406677 112.0
608.005249 80.0
610.230408 76.0
613.381042 96.0
614.638611 116.0
615.359253 84.0
616.450806 48.0
619.260803 108.0
619.686829 96.0
623.602051 52.0
624.580566 80.0
626.881653 256.0
626.956421 84.0
627.679199 64.0
627.808838 96.0
628.412415 44.0
628.801636 48.0
634.408752 52.0
636.505859 112.0
638.269531 96.0
639.617859 204.0
641.511841 72.0
642.424561 32.0
645.126221 72.0
645.81897 112.0
646.709473 128.0
647.605652 84.0
649.034729 64.0
649.825928 80.0
650.861328 100.0
655.28125 56.0
657.933167 68.0
658.270142 44.0
658.331421 104.0
660.830933 196.0
661.94165 52.0
662.807312 64.0
664.27356 60.0
664.709656 128.0
666.912781 68.0
668.18811 76.0
672.268921 80.0
672.60437 52.0
674.329468 100.0
675.358337 32.0
682.078186 68.0
683.565613 40.0
683.888306 68.0
684.721313 92.0
685.778931 48.0
686.587036 80.0
686.785217 144.0
686.894714 72.0
688.502258 112.0
690.571838 108.0
691.77533 104.0
692.665527 52.0
693.734497 48.0
695.266052 52.0
695.874939 92.0
699.797119 172.0
699.991943 136.0
700.123596 40.0
701.293152 104.0
702.474304 128.0
703.978455 116.0
705.759155 48.0
705.912537 88.0
708.054688 80.0
708.458313 88.0
709.051758 68.0
711.698792 76.0
711.948364 104.0
712.750427 48.0
715.186096 136.0
716.064575 88.0
718.079163 28.0
718.852722 100.0
721.694397 84.0
722.191711 92.0
724.948853 80.0
725.822571 120.0
726.391052 124.0
727.807861 112.0
730.376648 88.0
731.291382 88.0
731.571228 48.0
732.438171 40.0
733.537415 92.0
733.580566 80.0
736.202698 104.0
737.261536 72.0
737.629089 88.0
738.05719 104.0
742.295898 64.0
751.591858 140.0
754.404541 80.0
754.92395 188.0
755.711609 140.0
755.990662 60.0
758.131836 72.0
759.041809 56.0
759.288574 104.0
761.302612 48.0
763.924316 68.0
764.630676 208.0
766.341125 116.0
767.63092 116.0
770.821472 64.0
771.788757 96.0
772.220093 56.0
778.343628 52.0
780.221558 72.0
781.990417 76.0
782.24646 144.0
784.363159 84.0
785.818665 72.0
786.890198 80.0
789.130615 176.0
789.343079 168.0
789.650635 60.0
791.687744 84.0
793.004272 48.0
795.298218 128.0
795.556458 76.0
796.488586 104.0
798.332031 212.0
802.600281 120.0
803.401123 84.0
803.564758 52.0
804.162903 72.0
804.913696 68.0
807.337952 96.0
807.682922 44.0
810.955566 52.0
812.895081 56.0
813.272949 48.0
816.206726 40.0
818.141113 156.0
819.29718 104.0
822.576111 108.0
822.661743 100.0
822.724487 76.0
822.924316 92.0
823.860962 104.0
824.289429 72.0
827.366516 96.0
828.500427 136.0
830.202698 188.0
830.443604 44.0
830.879578 148.0
831.38446 92.0
833.0495 128.0
833.693054 196.0
834.48053 36.0
834.693237 252.0
835.251099 32.0
835.360413 272.0
835.860901 160.0
839.374634 36.0
839.795593 116.0
840.205139 80.0
844.76886 88.0
846.829468 160.0
849.327576 72.0
851.899048 164.0
852.968262 92.0
854.392944 184.0
855.388 196.0
856.599243 104.0
858.761658 48.0
859.940247 68.0
864.510376 80.0
868.987 148.0
869.209961 92.0
870.501343 196.0
871.059265 68.0
871.153259 64.0
871.958252 60.0
872.540161 108.0
872.587158 80.0
873.881104 112.0
877.025696 96.0
878.033875 60.0
879.621033 56.0
879.727295 192.0
879.892578 80.0
881.280518 140.0
881.3396 84.0
882.56311 88.0
882.858765 52.0
884.675171 220.0
885.290955 44.0
886.91803 152.0
887.424072 164.0
889.090881 64.0
889.815063 184.0
890.7771 96.0
892.684875 80.0
894.797119 44.0
895.92865 168.0
900.014038 140.0
900.521667 60.0
901.005493 72.0
903.151489 80.0
905.132324 108.0
905.467712 60.0
905.737244 68.0
906.869629 100.0
908.134705 92.0
911.64679 172.0
912.578491 64.0
913.931763 52.0
914.473328 116.0
916.171387 148.0
917.931274 208.0
918.033813 88.0
918.4198 204.0
919.348877 64.0
922.610474 172.0
923.021606 72.0
926.174622 200.0
929.927734 168.0
930.243347 132.0
930.668335 100.0
933.840393 116.0
936.092102 60.0
936.615906 192.0
937.505371 76.0
937.93811 136.0
939.432068 152.0
940.072693 40.0
941.458435 144.0
941.568359 152.0
943.853821 164.0
946.484863 196.0
947.513855 196.0
947.7099 240.0
947.980286 96.0
953.226074 172.0
953.3797 168.0
953.465759 44.0
953.533325 104.0
953.846802 124.0
955.51947 72.0
957.230591 168.0
957.871094 112.0
960.21936 124.0
961.632202 96.0
966.505615 168.0
968.321777 88.0
968.501404 132.0
970.788269 56.0
972.376404 184.0
972.494324 104.0
972.655701 144.0
972.935059 188.0
973.295166 196.0
975.687134 96.0
975.786621 188.0
978.281311 192.0
979.483093 60.0
979.623535 156.0
980.878845 172.0
981.3302 192.0
981.907654 152.0
982.531372 104.0
983.498596 176.0
983.567261 120.0
983.754517 248.0
984.116638 76.0
984.391357 84.0
987.028259 56.0
988.085266 168.0
988.147827 132.0
989.23053 152.0
989.343201 112.0
990.269897 40.0
991.28479 88.0
991.974182 164.0
995.048157 132.0
995.249023 40.0
995.336914 64.0
995.46637 124.0
996.096863 132.0
996.367004 120.0
996.461243 140.0
996.687378 92.0
997.843872 36.0
998.007324 64.0
998.831177 224.0
999.812683 120.0
1001.071716 80.0
1001.443298 60.0
1001.903137 40.0
1002.123596 160.0
1003.213867 136.0
1003.503906 148.0
1004.449829 80.0
1006.450378 140.0
1009.489746 72.0
1009.749023 164.0
1010.12854 44.0
1010.792786 128.0
1010.932007 188.0
1011.413025 192.0
1011.501648 120.0
1011.602905 144.0
1011.754822 48.0
1014.307739 180.0
1014.573975 160.0
1014.795837 32.0
1016.425903 176.0
1016.920898 144.0
1021.133179 128.0
1021.514832 148.0
1021.934692 144.0
1021.991943 164.0
1022.316467 156.0
1022.475586 112.0
1022.933838 208.0
1024.029053 72.0
1024.328369 120.0
1024.544922 192.0
1028.147461 164.0
1029.200806 120.0
1029.660522 144.0
1029.813843 260.0
1030.056519 160.0
1030.235352 44.0
1030.484497 128.0
1030.778442 84.0
1031.481445 196.0
1032.907349 156.0
1033.822266 40.0
1035.563599 120.0
1036.819336 188.0
1037.101318 172.0
1037.409058 148.0
1038.050171 116.0
1038.10791 164.0
1038.58252 112.0
1038.762085 96.0
1042.081055 124.0
1042.196655 56.0
1042.49231 240.0
1042.839355 104.0
1043.077148 140.0
1043.141479 128.0
1043.745728 136.0
1043.790771 176.0
1044.311646 112.0
1044.549683 164.0
1044.633301 180.0
1046.139038 76.0
1047.079102 160.0
1047.381836 164.0
1048.14209 148.0
1049.182251 112.0
1050.114746 124.0
1050.675903 192.0
1050.843628 148.0
1052.592773 132.0
1053.206299 148.0
1053.406494 84.0
1053.522827 200.0
1053.92334 176.0
1054.75708 100.0
1055.183716 200.0
1055.275269 204.0
1056.7229 140.0
1057.920166 148.0
1058.11438 80.0
1059.396729 212.0
1059.778931 104.0
1062.508423 180.0
1062.774414 108.0
1062.839233 100.0
1063.312988 140.0
1063.41687 152.0
1064.195801 132.0
1064.436035 36.0
1066.281006 136.0
1066.833496 124.0
1066.885498 168.0
1067.125977 132.0
1068.094971 72.0
1068.84314 136.0
1069.122925 156.0
1069.526489 84.0
1069.624146 160.0
1070.236084 120.0
1071.499512 120.0
1073.539673 112.0
1074.700806 88.0
1074.759521 64.0
1075.281494 140.0
1075.418579 220.0
1075.751465 52.0
1076.397827 92.0
1076.49585 84.0
1076.632935 180.0
1078.521118 92.0
1079.697876 208.0
1080.260376 184.0
1080.836182 180.0
1081.660767 220.0
1081.863647 48.0
1082.668945 128.0
1083.009521 88.0
1083.545654 128.0
1085.257324 144.0
1085.598267 84.0
1086.339478 144.0
1086.529663 116.0
1088.091553 192.0
1088.649658 116.0
1089.345947 176.0
1089.411621 236.0
1090.154053 168.0
1091.001953 188.0
1091.126831 96.0
1091.251709 256.0
1092.165771 44.0
1092.238159 60.0
1092.520996 220.0
1092.652588 84.0
1092.7052 68.0
1093.442139 120.0
1094.903687 164.0
1095.200073 160.0
1095.95105 96.0
1096.115845 44.0
1096.267334 116.0
1096.643066 168.0
1097.130859 168.0
1097.829712 120.0
1097.981445 204.0
1099.300781 192.0
1099.987183 76.0
1101.083252 88.0
1101.948486 84.0
1103.19751 120.0
1103.422363 144.0
1104.21582 128.0
1104.321655 180.0
1105.512451 136.0
1105.611694 68.0
1106.472168 128.0
1106.651001 172.0
1107.995483 180.0
1108.167725 172.0
1108.71106 36.0
1108.777344 220.0
1108.903198 212.0
1109.605835 124.0
1109.718628 188.0
1110.142944 88.0
1110.222534 112.0
1110.560791 100.0
1111.403198 176.0
1111.875732 80.0
1111.973999 176.0
1113.261841 144.0
1113.328247 72.0
1113.680298 120.0
1113.819702 96.0
1114.82959 108.0
1115.261597 180.0
1115.394531 224.0
1115.607178 96.0
1116.291992 140.0
1116.591309 172.0
1116.843994 204.0
1117.123413 112.0
1117.362915 76.0
1118.074829 44.0
1118.467529 168.0
1118.687256 52.0
1119.378296 116.0
1119.57959 156.0
1119.87915 132.0
1120.378662 164.0
1121.171631 84.0
1121.489014 108.0
1122.391479 28.0
1122.491455 168.0
1123.065063 124.0
1123.118408 200.0
1124.059082 180.0
1124.713013 204.0
1125.053467 152.0
1125.307251 116.0
1125.427368 100.0
1125.600952 100.0
1126.65625 148.0
1127.418823 144.0
1127.945923 92.0
1128.026123 100.0
1128.093018 184.0
1130.460693 144.0
1130.534302 192.0
1130.939941 116.0
1131.243774 44.0
1131.310669 112.0
1132.140869 100.0
1132.536011 200.0
1132.66333 112.0
1132.797241 96.0
1133.614624 220.0
1134.077026 204.0
1134.445801 108.0
1135.093018 192.0
1135.163086 156.0
1135.391113 240.0
1135.645996 152.0
1136.370483 84.0
1136.779785 68.0
1136.887085 124.0
1137.518066 108.0
1137.873779 132.0
1138.14917 184.0
1138.411011 176.0
1138.84082 116.0
1140.029907 156.0
1140.251709 76.0
1140.9104 128.0
1141.347412 128.0
1141.912354 108.0
1142.362915 164.0
1142.457153 60.0
1142.544556 124.0
1143.123291 156.0
1143.70874 188.0
1143.901733 120.0
1144.651245 116.0
1145.055298 184.0
1145.439209 164.0
1146.213989 144.0
1146.398315 236.0
1146.887939 148.0
1147.312622 172.0
1147.750854 180.0
1148.721924 212.0
1148.863647 120.0
1149.281982 84.0
1149.815063 32.0
1150.665527 104.0
1150.827515 72.0
1151.273193 176.0
1151.320435 92.0
1151.982422 120.0
1152.171509 152.0
1152.347168 100.0
1153.151367 100.0
1154.030151 104.0
1154.943115 40.0
1155.213623 144.0
1155.328613 148.0
1155.39624 260.0
1156.512817 212.0
1156.641357 172.0
1156.973145 176.0
1157.250732 72.0
1157.338745 108.0
1157.639648 200.0
1157.914307 172.0
1158.415527 64.0
1158.462891 152.0
1158.896484 112.0
1159.120483 192.0
1159.445435 160.0
1160.03064 152.0
1160.206543 192.0
1161.031738 208.0
1162.05603 96.0
1162.669556 188.0
1162.93811 132.0
1162.985718 96.0
1163.331787 140.0
1163.650879 200.0
1165.27417 144.0
1165.87207 200.0
1166.816895 96.0
1167.122803 68.0
1167.204468 132.0
1167.530884 256.0
1167.660034 128.0
1168.217773 180.0
1168.564697 148.0
1168.734863 124.0
1168.803101 112.0
1168.938965 132.0
1169.047852 132.0
1169.258789 192.0
1170.39563 144.0
1171.124268 232.0
1172.064453 132.0
1172.271606 152.0
1172.520996 144.0
1172.582275 96.0
1173.202637 144.0
1173.434326 108.0
1173.911621 68.0
1174.40271 160.0
1174.55957 92.0
1175.357788 164.0
1175.821777 76.0
1177.275879 168.0
1177.40564 52.0
1177.651489 156.0
1178.423462 148.0
1178.89563 184.0
1179.496338 116.0
1179.721924 156.0
1180.077393 148.0
1180.515015 112.0
1180.665527 148.0
1180.802246 120.0
1181.089478 168.0
1181.44519 224.0
1181.77356 44.0
1181.821533 124.0
1182.029419 148.0
1182.177368 68.0
1182.560547 184.0
1182.793335 96.0
1183.156128 120.0
1184.224243 120.0
1184.477783 88.0
1184.792847 60.0
1185.005249 56.0
1185.512207 140.0
1185.820679 132.0
1186.067383 44.0
1186.348389 136.0
1186.787231 88.0
1186.883179 144.0
1187.327515 112.0
1188.41272 60.0
1188.742065 152.0
1188.790161 120.0
1189.030273 148.0
1189.160767 36.0
1189.86084 188.0
1190.49939 160.0
1190.657349 144.0
1190.75354 104.0
1190.815308 116.0
1190.959595 80.0
1191.096924 156.0
1191.227539 148.0
1191.330566 144.0
1191.790771 104.0
1191.900757 40.0
1191.948853 40.0
1192.560425 132.0
1192.660889 140.0
1193.01416 52.0
1193.46106 152.0
1193.555664 184.0
1193.756714 96.0
1193.887329 136.0
1194.079956 132.0
1194.320679 32.0
1194.685181 112.0
1194.74707 176.0
1195.008545 136.0
1195.325073 192.0
1196.312744 180.0
1196.481323 32.0
1196.6604 112.0
1196.949585 160.0
1197.555542 120.0
1197.700195 136.0
1200.360352 176.0
1200.643188 160.0
1201.098389 84.0
1202.091797 72.0
1202.220093 164.0
1202.332764 132.0
1202.917358 176.0
1202.982178 156.0
1203.189209 144.0
1203.665649 164.0
1204.453003 84.0
1205.081543 144.0
1205.233643 192.0
1205.489258 156.0
1205.661987 160.0
1206.484497 132.0
1206.532959 172.0
1206.747192 36.0
1206.833252 196.0
1207.023804 184.0
1207.093018 148.0
1207.155151 84.0
1207.307373 164.0
1207.625488 60.0
1207.874512 212.0
1208.635498 96.0
1209.725464 164.0
1209.888184 104.0
1210.303589 44.0
1210.421265 232.0
1210.497437 204.0
1210.700439 148.0
1210.795288 104.0
1211.054688 148.0
1211.328613 184.0
1211.688843 156.0
1211.820435 232.0
1212.104492 148.0
1212.340088 104.0
1212.638062 164.0
1212.832153 148.0
1213.040161 104.0
1213.123291 132.0
1213.310425 192.0
1213.463013 200.0
1214.16333 232.0
1214.260498 136.0
1214.63501 204.0
1215.516113 148.0
1215.724243 136.0
1217.216675 92.0
1217.601196 132.0
1218.133423 132.0
1218.205566 160.0
1218.584961 176.0
1218.654541 124.0
1219.113037 168.0
1219.530029 152.0
1219.745483 180.0
1220.065308 132.0
1220.280884 68.0
1220.816284 180.0
1221.117432 168.0
1221.247437 136.0
1221.532593 188.0
1221.755249 100.0
1221.894287 176.0
1222.193481 76.0
1223.188721 172.0
1224.300049 152.0
1224.365356 72.0
1225.187256 212.0
1225.779541 100.0
1226.880737 56.0
1226.943481 164.0
1227.117798 164.0
1227.34082 124.0
1227.508179 60.0
1227.835938 96.0
1228.247437 112.0
1228.373047 140.0
1228.554443 172.0
1228.952026 96.0
1229.119507 176.0
1229.36377 152.0
1229.412598 184.0
1229.740601 148.0
1230.515381 32.0
1230.606201 236.0
1230.837891 112.0
1230.90564 168.0
1231.220703 208.0
1231.50708 136.0
1231.841064 108.0
1232.207153 212.0
1232.575928 144.0
1232.771484 168.0
1233.204834 40.0
1233.687134 156.0
1233.924805 144.0
1234.106567 180.0
1234.395874 196.0
1234.788086 148.0
1234.994751 96.0
1235.092651 48.0
1235.267456 164.0
1235.505371 136.0
1235.756226 124.0
1236.177002 168.0
1236.484985 116.0
1236.757935 128.0
1236.883911 104.0
1237.009888 112.0
1237.651611 216.0
1238.326294 108.0
1239.46814 144.0
1239.552246 56.0
1239.88855 56.0
1240.330078 108.0
1240.589478 172.0
1240.778809 188.0
1241.02417 108.0
1241.115356 144.0
1241.248535 160.0
1241.360718 248.0
1241.795532 164.0
1241.970825 176.0
1242.111206 184.0
1242.616211 144.0
1242.700073 156.0
1242.791626 84.0
1242.875854 80.0
1243.198608 144.0
1243.317993 160.0
1243.879395 192.0
1244.424316 136.0
1245.05896 168.0
1245.389038 116.0
1246.702881 164.0
1246.780151 104.0
1246.923828 144.0
1247.0802 184.0
1247.342407 128.0
1247.665771 104.0
1247.855591 216.0
1248.61499 108.0
1248.980713 188.0
1249.108765 276.0
1249.390137 192.0
1249.592773 200.0
1250.416016 80.0
1250.753906 124.0
1250.938843 192.0
1251.662109 152.0
1252.049316 132.0
1252.204346 128.0
1252.414917 192.0
1252.549438 160.0
1252.633911 136.0
1253.75415 132.0
1253.979736 128.0
1255.601318 120.0
1255.812866 124.0
1255.904541 136.0
1256.073853 96.0
1256.280273 132.0
1256.475952 108.0
1256.546509 100.0
1257.174438 96.0
1257.619385 208.0
1257.732056 116.0
1257.950806 144.0
1258.162598 112.0
1258.699219 132.0
1259.024048 136.0
1259.412476 156.0
1260.041138 192.0
1260.465088 160.0
1260.811279 188.0
1260.88147 144.0
1260.933472 184.0
1261.242432 132.0
1261.355591 164.0
1261.42627 100.0
1261.525269 96.0
1261.730225 124.0
1262.430176 56.0
1262.479736 64.0
1262.974731 108.0
1263.144531 64.0
1263.38501 184.0
1263.566895 148.0
1263.873169 120.0
1264.043091 204.0
1264.474731 168.0
1264.715332 56.0
1264.977539 96.0
1265.083496 36.0
1265.154175 52.0
1265.472778 152.0
1265.61438 136.0
1266.251709 144.0
1266.372192 136.0
1266.442993 132.0
1266.775879 128.0
1267.073364 212.0
1267.293091 156.0
1267.434814 188.0
1267.555176 92.0
1267.71814 168.0
1267.845703 188.0
1268.044189 132.0
1268.10083 84.0
1268.235596 144.0
1268.646729 128.0
1268.724609 144.0
1268.930298 108.0
1269.518799 128.0
1269.752808 112.0
1269.80957 148.0
1269.908813 184.0
1270.064819 52.0
1270.124023 120.0
1270.419556 184.0
1270.497559 124.0
1270.582764 116.0
1270.703735 128.0
1270.838135 200.0
1270.9729 220.0
1272.001953 156.0
1272.221069 232.0
1272.974609 140.0
1273.057983 140.0
1273.165405 152.0
1273.258667 68.0
1273.343872 120.0
1273.443359 128.0
1273.656372 168.0
1273.919189 172.0
1274.636841 88.0
1274.828735 60.0
1275.596313 132.0
1275.695801 228.0
1275.830811 224.0
1275.973022 192.0
1276.321411 172.0
1276.484985 128.0
1276.612915 144.0
1276.672852 96.0
1276.914795 164.0
1276.968506 180.0
1277.523315 96.0
1277.786621 208.0
1278.170776 132.0
1278.250122 128.0
1278.590576 92.0
1278.960693 76.0
1279.266846 176.0
1279.34375 204.0
1279.665527 156.0
1279.879028 128.0
1280.128296 216.0
1280.206665 96.0
1280.473633 132.0
1280.569824 68.0
1280.619751 68.0
1280.690918 68.0
1281.310669 168.0
1281.531494 156.0
1281.887817 176.0
1282.044067 192.0
1282.201294 220.0
1282.365234 112.0
1282.88562 280.0
1283.12085 132.0
1283.199219 120.0
1283.912354 152.0
1284.746826 220.0
1285.139282 60.0
1285.338989 92.0
1285.424683 72.0
1285.988403 112.0
1286.381226 144.0
1287.016357 112.0
1287.194946 168.0
1287.266357 100.0
1287.523438 124.0
1287.80188 128.0
1288.17334 140.0
1288.359985 132.0
1288.580566 136.0
1288.709106 100.0
1289.03064 76.0
1289.202148 204.0
1289.409424 192.0
1289.491943 132.0
1290.903564 288.0
1291.060913 176.0
1291.125244 108.0
1291.208008 160.0
1291.304077 136.0
1291.411255 92.0
1291.518555 48.0
1291.62085 176.0
1291.954956 232.0
1292.055054 188.0
1292.326904 96.0
1292.605957 144.0
1292.720459 176.0
1292.956665 116.0
1293.450562 92.0
1293.679688 180.0
1293.95166 68.0
1294.209351 160.0
1294.366821 160.0
1294.803711 148.0
1295.613159 180.0
1295.785034 136.0
1296.487183 108.0
1296.824097 160.0
1297.089233 128.0
1297.383179 140.0
1297.619751 132.0
1297.949585 156.0
1298.179077 128.0
1298.437256 204.0
1298.616455 64.0
1298.68103 168.0
1298.903442 200.0
1298.9823 68.0
1299.125732 208.0
1299.362549 196.0
1299.656738 148.0
1299.728394 156.0
1300.252319 120.0
1300.690063 116.0
1300.869507 132.0
1301.149536 152.0
1301.69519 108.0
1301.982422 184.0
1302.183594 164.0
1302.370239 116.0
1302.589478 136.0
1302.91626 200.0
1303.043335 224.0
1303.469482 132.0
1303.706543 180.0
1303.800049 108.0
1304.18811 296.0
1304.246338 120.0
1304.454102 132.0
1305.144287 80.0
1305.467773 96.0
1305.577515 160.0
1306.158203 92.0
1306.942383 260.0
1307.172607 160.0
1307.28064 220.0
1307.826172 160.0
1308.014648 192.0
1308.079468 176.0
1308.439453 136.0
1308.504272 100.0
1308.785034 236.0
1308.893066 44.0
1309.397095 144.0
1309.503418 172.0
1309.641968 104.0
1310.023682 124.0
1310.379517 52.0
1310.621704 132.0
1310.715332 136.0
1310.852295 152.0
1311.031738 156.0
1311.479248 116.0
1312.005493 156.0
1312.094116 188.0
1312.279419 200.0
1312.683228 56.0
1312.942871 224.0
1313.079834 188.0
1313.245728 108.0
1313.671265 192.0
1314.068115 160.0
1314.125854 92.0
1314.472168 116.0
1314.775269 180.0
1314.890747 212.0
1315.099976 232.0
1316.190063 88.0
1316.794312 220.0
1317.39624 128.0
1317.576782 76.0
1317.706787 128.0
1318.140381 152.0
1318.429443 144.0
1318.526367 112.0
1318.604492 156.0
1318.667969 96.0
1318.805176 160.0
1318.861694 216.0
1319.130493 52.0
1319.311279 96.0
1319.781128 168.0
1319.831787 152.0
1319.97644 56.0
1320.120972 152.0
1320.22229 60.0
1320.294556 92.0
1320.93103 176.0
1321.122925 256.0
1321.328979 240.0
1321.444702 80.0
1321.94397 224.0
1322.05249 184.0
1322.537354 48.0
1322.703857 188.0
1322.790771 120.0
1323.348145 76.0
1323.941895 128.0
1324.036011 156.0
1324.108521 52.0
1324.253296 64.0
1324.347534 116.0
1324.615479 132.0
1324.682495 140.0
1324.953613 180.0
1325.05127 192.0
1325.19043 172.0
1325.289185 172.0
1325.558105 144.0
1325.839966 104.0
1326.158813 136.0
1326.478394 140.0
1327.283936 104.0
1327.442017 140.0
1328.384888 164.0
1328.733032 136.0
1329.110352 92.0
1329.465942 160.0
1329.545776 224.0
1330.010254 172.0
1330.859619 148.0
1331.426025 152.0
1331.538574 112.0
1331.607544 180.0
1331.658447 192.0
1331.780518 108.0
1331.857056 124.0
1331.924683 132.0
1332.218628 132.0
1332.639038 212.0
1332.951538 164.0
1333.140503 152.0
1333.438354 132.0
1333.503784 120.0
1333.765503 180.0
1334.009277 104.0
1334.157959 148.0
1334.470581 136.0
1334.666992 136.0
1334.892334 120.0
1335.394165 160.0
1335.445068 160.0
1335.648682 52.0
1335.765137 104.0
1335.81604 152.0
1335.925171 180.0
1336.026978 584.0
1336.194336 100.0
1336.587158 124.0
1337.18396 136.0
1337.50415 160.0
1337.708008 92.0
1337.991943 112.0
1338.108398 216.0
1338.217529 172.0
1338.312256 144.0
1338.537964 128.0
1338.632568 132.0
1338.758179 112.0
1338.982178 152.0
1339.047729 124.0
1339.199829 204.0
1339.425781 184.0
1339.630371 156.0
1339.819824 84.0
1339.929077 80.0
1340.009277 112.0
1340.177124 164.0
1340.242432 116.0
1340.685303 92.0
1340.883667 128.0
1341.140747 116.0
1341.350098 96.0
1341.444946 220.0
1341.510498 112.0
1342.050049 108.0
1342.742798 44.0
1342.910522 168.0
1343.173096 72.0
1343.26062 204.0
1343.428345 164.0
1343.610718 32.0
1343.785889 168.0
1343.836914 140.0
1344.114136 228.0
1344.617676 92.0
1344.690674 156.0
1345.187012 168.0
1345.464478 144.0
1345.538574 156.0
1345.727295 48.0
1345.785645 136.0
1346.179932 124.0
1346.537842 152.0
1346.618164 152.0
1347.027222 48.0
1347.085571 192.0
1347.173218 40.0
1347.421631 140.0
1347.567749 104.0
1347.684692 64.0
1347.750366 128.0
1347.881958 104.0
1347.96228 40.0
1348.166992 68.0
1348.320435 220.0
1348.546997 152.0
1348.877686 192.0
1349.168335 188.0
1349.475342 184.0
1349.592285 268.0
1349.764893 204.0
1350.031006 44.0
1350.206543 32.0
1350.4552 196.0
1350.542969 132.0
1350.711182 132.0
1350.916016 188.0
1351.194092 172.0
1351.633057 164.0
1351.706177 120.0
1351.845215 360.0
1352.108643 164.0
1352.196533 152.0
1352.437988 156.0
1352.499756 184.0
1353.044312 108.0
1353.07019 168.0
1353.257935 156.0
1353.580078 168.0
1354.078125 36.0
1354.183105 224.0
1354.429688 212.0
1354.656738 160.0
1355.601807 180.0
1356.085571 136.0
1356.180786 224.0
1356.23938 136.0
1356.503296 76.0
1356.649902 72.0
1356.708618 76.0
1356.767212 144.0
1356.897827 156.0
1357.258423 112.0
1357.903809 216.0
1358.197144 120.0
1358.754639 136.0
1359.033447 152.0
1359.106812 116.0
1359.224243 88.0
1359.473755 76.0
1359.649902 196.0
1359.884644 152.0
1360.046143 192.0
1360.429565 232.0
1360.490723 120.0
1360.633423 148.0
1360.736206 116.0
1360.868408 96.0
1361.000488 144.0
1361.176758 64.0
1361.915405 144.0
1362.138794 144.0
1362.222656 176.0
1362.395996 76.0
1362.609009 116.0
1362.96167 120.0
1363.218872 196.0
1363.424561 172.0
1363.615967 124.0
1363.806763 180.0
1364.010986 160.0
1364.10083 184.0
1364.159668 128.0
1364.22583 92.0
1364.350708 144.0
1364.512451 148.0
1364.608032 76.0
1364.880127 204.0
1365.269775 164.0
1365.372803 76.0
1365.556641 156.0
1365.607544 104.0
1365.626221 96.0
1365.647461 148.0
1365.741089 144.0
1365.806763 184.0
1365.975952 152.0
1366.292236 156.0
1366.387817 160.0
1366.446777 40.0
1366.638062 128.0
1366.924927 124.0
1366.97644 164.0
1367.20459 204.0
1367.543213 232.0
1367.638794 180.0
1367.844971 100.0
1368.119995 188.0
1368.61792 136.0
1368.765259 60.0
1368.883057 224.0
1369.067139 88.0
1369.199707 40.0
1369.251221 76.0
1369.589966 140.0
1369.86792 168.0
1370.113037 156.0
1370.31189 116.0
1370.510864 220.0
1370.614014 156.0
1370.916138 160.0
1371.122437 168.0
1371.196167 60.0
1371.535278 164.0
1371.638428 112.0
1371.795898 104.0
1372.125 140.0
1372.351074 144.0
1372.500977 132.0
1372.559937 168.0
1373.393311 116.0
1373.489136 160.0
1373.621948 232.0
1373.703125 144.0
1374.005615 104.0
1374.348145 232.0
1374.418701 140.0
1374.824585 132.0
1374.905762 212.0
1375.466675 152.0
1376.172974 96.0
1376.455933 60.0
1376.858765 168.0
1377.08374 120.0
1377.716187 88.0
1378.286987 152.0
1378.299561 136.0
1378.391235 136.0
1378.620361 72.0
1378.723755 140.0
1379.170776 168.0
1379.636108 164.0
1379.751221 172.0
1379.987793 228.0
1380.209595 100.0
1380.355225 168.0
1380.483154 96.0
1380.631104 132.0
1380.949097 124.0
1381.126587 128.0
1381.577881 204.0
1381.72583 56.0
1381.88855 132.0
1382.228882 96.0
1382.569336 172.0
1382.724731 96.0
1382.987305 116.0
1383.287231 52.0
1383.687012 140.0
1383.901733 136.0
1384.531128 200.0
1384.733521 152.0
1384.98291 148.0
1385.064453 168.0
1385.219482 144.0
1385.479248 172.0
1385.538452 124.0
1385.649658 208.0
1385.729004 124.0
1385.812622 124.0
1386.231445 212.0
1386.605469 60.0
1387.065063 188.0
1387.146606 156.0
1387.487183 136.0
1387.843506 100.0
1387.983887 156.0
1388.429199 120.0
1388.94104 84.0
1389.10144 176.0
1389.252563 152.0
1389.549316 132.0
1389.682861 276.0
1389.779297 136.0
1389.979614 120.0
1390.350708 180.0
1390.484863 196.0
1390.647583 88.0
1390.751465 120.0
1390.944458 112.0
1391.115234 192.0
1391.829712 84.0
1392.362549 108.0
1392.659668 52.0
1392.830444 88.0
1392.98645 100.0
1393.090454 160.0
1393.216797 76.0
1393.336548 152.0
1393.781372 176.0
1393.84082 104.0
1394.14978 196.0
1394.351929 104.0
1394.598877 164.0
1395.074585 152.0
1395.163818 144.0
1395.275269 104.0
1395.647095 188.0
1395.751099 208.0
1395.809692 136.0
1395.829956 120.0
1395.858398 208.0
1395.914673 60.0
1396.387573 184.0
1397.052612 144.0
1397.143066 128.0
1397.424683 136.0
1397.693726 96.0
1397.944458 144.0
1398.124146 156.0
1398.198486 36.0
1398.332886 136.0
1398.540894 132.0
1398.96521 180.0
1399.054443 128.0
1399.114014 64.0
1399.195923 152.0
1399.277588 116.0
1399.374634 388.0
1399.940552 156.0
1400.037354 104.0
1400.491577 180.0
1400.669678 120.0
1400.767212 144.0
1401.027954 228.0
1401.080078 124.0
1401.251465 124.0
1401.673218 200.0
1401.937012 132.0
1402.197754 60.0
1402.25 144.0
1402.496948 156.0
1402.60022 76.0
1402.875854 156.0
1403.211548 184.0
1403.487427 200.0
1403.733521 104.0
1403.830444 84.0
1403.934814 56.0
1404.255493 176.0
1404.58374 96.0
1404.770142 168.0
1404.840942 140.0
1405.038696 124.0
1405.232666 172.0
1405.411743 116.0
1405.639771 244.0
1405.911743 188.0
1406.061035 116.0
1406.135986 164.0
1406.322144 124.0
1406.478882 124.0
1406.68042 180.0
1406.755127 216.0
1406.919312 176.0
1407.068726 136.0
1407.315063 156.0
1407.695801 136.0
1407.860107 196.0
1408.075806 132.0
1408.226074 36.0
1408.336426 252.0
1408.599609 172.0
1408.793823 208.0
1408.980591 104.0
1409.175049 104.0
1409.286865 216.0
1409.413818 252.0
1409.521118 80.0
1409.608154 196.0
1409.80249 132.0
1409.937012 48.0
1410.116333 80.0
1410.349976 140.0
1411.065674 164.0
1411.170288 112.0
1411.384766 184.0
1411.41687 124.0
1411.42688 180.0
1411.626465 104.0
1412.079102 152.0
1412.107666 80.0
1412.140747 180.0
1412.291992 124.0
1412.471558 156.0
1412.538818 128.0
1412.673462 148.0
1412.905396 88.0
1413.137329 72.0
1413.339355 156.0
1413.743408 120.0
1413.824219 176.0
1414.170044 124.0
1414.259888 132.0
1414.611572 88.0
1415.053345 160.0
1415.210571 188.0
1415.326172 184.0
1415.689819 144.0
1415.80957 176.0
1415.914429 204.0
1415.98938 152.0
1416.23645 156.0
1416.491211 172.0
1416.656006 208.0
1416.790771 96.0
1416.858276 112.0
1416.947021 188.0
1417.12793 196.0
1417.195312 72.0
1417.339966 196.0
1417.405151 136.0
1417.476807 208.0
1417.602783 180.0
1417.697388 68.0
1417.764893 88.0
1417.943726 128.0
1418.229492 124.0
1418.304443 144.0
1418.946167 140.0
1419.283936 136.0
1419.347168 156.0
1419.501221 160.0
1419.676514 148.0
1419.803955 132.0
1419.87146 128.0
1419.961426 136.0
1420.456543 172.0
1420.718994 168.0
1420.779053 100.0
1421.056641 176.0
1421.281738 144.0
1421.60437 128.0
1422.002075 120.0
1422.290527 208.0
1422.52002 108.0
1423.045166 148.0
1423.248291 168.0
1423.50354 100.0
1424.014282 176.0
1424.284668 132.0
1424.848022 200.0
1424.900635 128.0
1424.998291 192.0
1425.23877 184.0
1425.38147 208.0
1425.7948 100.0
1426.020264 160.0
1426.343506 136.0
1426.904053 172.0
1427.02002 96.0
1427.208008 172.0
1427.33313 180.0
1427.456177 88.0
1428.185669 204.0
1428.52417 112.0
1428.720581 144.0
1428.787354 168.0
1428.935181 128.0
1429.512573 228.0
1429.630127 184.0
1429.743042 80.0
1430.30603 160.0
1430.418091 172.0
1430.440674 120.0
1430.463379 136.0
1430.764526 192.0
1430.909668 96.0
1431.045166 144.0
1431.402222 128.0
1431.609985 284.0
1431.76062 156.0
1432.039185 204.0
1432.483643 136.0
1432.649414 176.0
1433.10144 160.0
1433.184326 176.0
1433.402832 60.0
1433.583618 180.0
1433.922729 172.0
1433.998169 180.0
1434.093994 196.0
1434.269409 120.0
1434.349243 200.0
1434.41272 128.0
1434.925293 132.0
1435.174072 124.0
1435.385254 84.0
1435.578979 140.0
1435.656494 180.0
1435.920654 88.0
1435.980957 92.0
1436.139404 140.0
1436.229858 112.0
1436.65979 204.0
1436.757935 92.0
1437.301147 180.0
1437.391724 84.0
1437.444458 172.0
1437.550171 116.0
1438.131226 140.0
1438.244507 124.0
1438.53064 124.0
1438.735107 216.0
1438.795532 160.0
1438.870972 120.0
1439.029541 136.0
1439.112671 160.0
1439.286255 144.0
1439.724243 96.0
1439.828857 168.0
1439.943237 212.0
1440.030762 332.0
1440.1698 88.0
1440.615479 120.0
1440.985718 72.0
1441.071289 160.0
1441.847046 144.0
1441.937744 120.0
1442.104126 80.0
1442.156982 148.0
1442.262817 200.0
1442.966064 128.0
1443.411865 168.0
1443.535767 160.0
1443.623657 156.0
1443.744629 284.0
1443.856812 192.0
1443.918579 164.0
1444.039551 172.0
1444.122803 144.0
1444.283813 192.0
1444.349731 140.0
1444.780884 212.0
1445.007812 144.0
1445.317993 80.0
1445.416382 80.0
1446.182861 172.0
1446.307129 160.0
1446.381104 176.0
1446.612183 380.0
1446.71814 200.0
1446.786255 200.0
1446.869629 112.0
1447.111816 112.0
1447.233032 80.0
1447.346558 268.0
1447.42981 104.0
1447.672119 160.0
1447.869019 148.0
1448.043213 164.0
1448.103882 156.0
1448.414429 72.0
1448.897583 168.0
1448.967407 136.0
1449.158569 140.0
1449.240112 76.0
1449.40686 120.0
1449.47937 168.0
1449.626587 104.0
1449.997925 108.0
1450.248047 108.0
1450.354126 140.0
1450.460205 136.0
1450.566406 152.0
1451.278687 112.0
1451.400269 48.0
1451.489868 172.0
1451.893188 100.0
1451.991821 196.0
1452.151001 112.0
1452.317871 132.0
1452.424072 72.0
1452.530273 264.0
1453.129639 308.0
1453.304077 136.0
1453.440674 144.0
1453.531738 184.0
1454.085693 176.0
1454.419678 164.0
1454.571533 132.0
1454.692871 108.0
1454.822021 172.0
1454.88269 196.0
1455.07251 148.0
1455.19397 108.0
1455.318604 244.0
1455.596436 368.0
1455.900146 156.0
1455.976074 236.0
1456.165894 128.0
1456.363159 132.0
1456.647949 148.0
1456.788818 180.0
1456.841919 36.0
1456.9104 104.0
1457.001465 148.0
1457.185913 208.0
1457.53064 180.0
1457.70813 128.0
1458.027222 128.0
1458.209717 132.0
1458.578613 164.0
1458.61145 232.0
1458.647095 132.0
1458.659546 144.0
1458.779785 88.0
1459.03064 120.0
1459.197876 80.0
1459.349976 224.0
1459.418335 92.0
1459.699707 176.0
1459.798584 164.0
1459.950684 80.0
1460.125488 184.0
1460.384155 348.0
1460.440674 152.0
1460.810059 160.0
1460.916626 180.0
1461.014771 172.0
1461.64917 176.0
1461.74585 40.0
1462.019897 128.0
1462.194824 96.0
1462.278564 140.0
1462.727661 60.0
1462.788574 140.0
1462.98645 120.0
1463.207275 168.0
1463.489014 112.0
1463.572754 132.0
1463.679321 128.0
1463.747803 148.0
1463.843262 140.0
1463.935791 84.0
1464.4104 112.0
1464.555054 76.0
1464.654053 164.0
1464.722656 56.0
1464.867432 100.0
1465.004517 136.0
1465.233032 184.0
1465.46582 164.0
1465.589355 208.0
1465.918823 164.0
1466.055908 148.0
1466.364014 136.0
1466.536133 72.0
1466.650391 120.0
1466.703735 108.0
1466.764771 124.0
1467.459595 220.0
1467.702515 212.0
1467.84729 148.0
1467.908325 148.0
1468.236206 148.0
1468.376221 164.0
1468.541382 96.0
1468.655762 248.0
1468.754883 56.0
1468.838745 80.0
1468.892212 112.0
1469.021851 208.0
1469.235107 176.0
1469.433838 108.0
1469.670288 112.0
1469.90686 200.0
1470.036621 232.0
1470.243408 124.0
1470.349487 100.0
1470.723511 560.0
1470.998291 96.0
1471.124634 144.0
1471.273071 204.0
1471.71582 172.0
1471.891479 152.0
1472.311523 224.0
1472.403076 208.0
1472.548218 128.0
1472.785034 96.0
1472.858276 116.0
1473.113525 152.0
1473.281494 104.0
1473.930908 116.0
1474.244263 156.0
1474.410889 264.0
1474.549927 148.0
1474.740967 52.0
1474.954956 204.0
1475.25769 148.0
1475.344849 144.0
1475.398438 132.0
1475.604858 156.0
1475.681274 272.0
1475.78064 164.0
1475.902954 204.0
1476.162964 100.0
1476.301025 132.0
1476.384766 140.0
1476.598877 172.0
1476.704346 120.0
1477.088379 140.0
1477.249023 160.0
1477.394409 148.0
1477.486206 128.0
1477.641968 260.0
1477.864502 124.0
1477.966187 188.0
1478.144165 136.0
1478.28186 156.0
1478.479492 192.0
1478.553467 204.0
1478.65686 108.0
1478.786987 112.0
1478.993652 136.0
1479.14978 168.0
1479.338135 172.0
1479.45752 336.0
1479.55249 224.0
1479.728516 136.0
1479.820435 144.0
1479.881592 240.0
1480.052979 252.0
1480.119019 52.0
1480.241577 32.0
1480.342773 212.0
1480.425293 160.0
1480.754639 96.0
1480.980591 148.0
1481.106934 132.0
1481.296021 152.0
1481.397949 112.0
1482.049194 128.0
1482.531616 108.0
1482.68811 136.0
1482.838501 220.0
1482.99939 104.0
1483.26001 60.0
1483.735352 84.0
1483.812012 44.0
1483.880981 76.0
1483.984375 68.0
1484.555786 144.0
1484.670776 120.0
1484.985229 148.0
1485.199951 108.0
1485.330322 116.0
1485.407104 40.0
1485.529785 212.0
1485.621826 196.0
1485.84436 132.0
1485.932739 232.0
1486.043823 140.0
1486.172485 120.0
1486.250977 112.0
1486.442749 156.0
1486.726685 116.0
1486.819214 220.0
1486.97998 84.0
1487.1521 188.0
1487.217896 148.0
1487.325317 140.0
1487.37915 132.0
1487.440552 52.0
1487.524902 108.0
1487.64563 88.0
1487.931763 112.0
1487.985596 176.0
1488.057251 120.0
1488.08728 160.0
1488.285034 176.0
1488.369385 228.0
1488.738037 100.0
1488.927124 148.0
1489.045166 228.0
1489.1604 140.0
1489.552124 48.0
1489.644287 148.0
1490.036133 112.0
1490.089844 244.0
1490.212769 168.0
1490.466309 276.0
1491.595825 132.0
1491.672974 212.0
1491.980469 144.0
1492.041992 144.0
1492.22644 132.0
1492.311035 120.0
1492.411011 124.0
1492.526367 80.0
1492.634033 84.0
1492.78772 148.0
1492.880005 88.0
1492.987671 252.0
1493.195312 68.0
1493.279907 104.0
1493.33374 120.0
1493.595337 180.0
1493.749146 176.0
1493.876099 160.0
1494.003052 52.0
1494.218384 144.0
1494.380005 108.0
1494.549194 136.0
1494.73877 76.0
1494.818604 144.0
1494.961792 104.0
1495.106689 192.0
1495.411133 68.0
1495.478882 184.0
1495.691772 148.0
1495.980713 160.0
1496.080811 112.0
1496.165527 128.0
1496.442627 236.0
1496.675293 124.0
1496.781372 144.0
1497.008789 68.0
1497.097168 80.0
1497.320435 64.0
1497.859619 76.0
1497.921265 112.0
1498.129272 112.0
1498.22937 220.0
1498.57666 164.0
1498.69165 124.0
1498.838013 104.0
1499.130859 116.0
1499.373291 172.0
1499.531616 128.0
1499.593262 112.0
1500.024902 88.0
1500.101685 136.0
1500.209839 56.0
1500.348633 124.0
1500.402588 84.0
1500.510498 164.0
1500.656982 76.0
1500.903809 160.0
1501.142822 200.0
1501.243042 112.0
1501.366455 76.0
1501.435791 112.0
1501.502686 180.0
1501.590088 176.0
1501.667603 140.0
1501.84668 120.0
1501.998901 116.0
1502.222534 116.0
1502.770264 176.0
1502.924561 100.0
1503.009521 32.0
1503.09436 136.0
1503.541992 164.0
1503.634521 160.0
1503.819824 192.0
1504.05127 124.0
1504.189819 148.0
1504.267456 92.0
1504.375488 120.0
1504.506714 128.0
1504.591675 128.0
1504.800171 60.0
1504.903809 176.0
1505.139893 176.0
1505.217041 236.0
