>compound TEGASEROD MALEATE
>formula C16H23N5O
>ionization [M+H]+
>parentmass 302.198975
#inchi InChI=1S/C16H23N5O/c1-3-4-5-8-18-16(17)21-20-11-12-10-19-15-7-6-13(22-2)9-14(12)15/h6-7,9-11,19H,3-5,8H2,1-2H3,(H3,17,18,21)
#inchikey IKBKZGMPCYNSLU
#Ion_Source LC-ESI
#Instrument qTof
#Compound_Source Commercial
#PI Dorrestein
#Data_Collector Garg_Neha
#Scan -1
#Precursor_MZ 302.198
#ExactMass 301.19
#Charge 1
#CAS_Number N/A
#Pubmed_ID N/A
#Smiles CCCCCN=C(N)NN=Cc1c[nH]c2ccc(OC)cc12
#INCHI_AUX N/A
#Library_Class 1
#SpectrumID CCMSLIB00000079121
#IonMode Positive
#UpdateWorkflowName UPDATE-SINGLE-ANNOTATED-GOLD
#LibraryQualityString Gold
#TaskID 278b19f5865741e282cec7349aa7e7a1
##Scan# 1176
#SpectrumFile NCP003512_E2_F11_BD6_01_15730.mzXML
#LibraryName NIHcollectionI_05062014.mgf
#MQScore -1
#Organism NIHcollectionI_05062014
#TIC_Query 0
#RT_Query -1
#MZErrorPPM -1
#SharedPeaks 0
#MassDiff 0
#LibMZ -1
#SpecMZ 302.198
#SpecCharge 0
#internalFilename spec-00000.mgf

>collision 10
45.00724 160.0
50.300377 148.0
54.459614 168.0
57.495625 184.0
59.262642 176.0
60.480789 224.0
64.211182 216.0
64.719353 160.0
68.462639 220.0
69.094818 160.0
71.885284 224.0
73.630478 180.0
74.662178 184.0
77.686295 172.0
79.019928 160.0
80.611328 192.0
85.731148 160.0
87.732956 148.0
88.409103 140.0
89.304008 140.0
92.043152 140.0
93.482086 152.0
95.466881 196.0
95.706223 176.0
96.819283 188.0
97.093643 160.0
99.064705 148.0
103.037941 152.0
105.879616 220.0
110.472809 144.0
112.921211 204.0
113.107559 160.0
113.925926 172.0
116.050735 152.0
117.055 184.0
118.064445 456.0
118.476227 148.0
119.048706 204.0
124.124702 140.0
128.055756 212.0
128.119919 636.0
128.323914 200.0
129.048004 180.0
130.054779 496.0
130.134842 1332.0
130.474304 224.0
131.134827 152.0
132.068665 356.0
133.052643 308.0
136.073822 144.0
139.870346 140.0
141.04892 288.0
142.051819 2032.0
143.056503 364.0
144.066605 152.0
145.069382 312.0
146.018814 140.0
146.06163 1704.0
146.91243 144.0
147.03067 192.0
147.068573 340.0
148.074509 512.0
149.393082 148.0
150.9198 172.0
155.129654 2296.0
155.774979 148.0
156.133499 468.0
156.18512 160.0
156.720352 168.0
157.049698 184.0
157.101807 144.0
158.048065 4804.0
158.376633 212.0
159.050415 956.0
160.076691 272.0
161.045425 484.0
161.075607 148.0
162.056137 340.0
162.480576 180.0
163.051895 152.0
163.087646 364.0
168.068558 180.0
168.887482 148.0
169.054764 188.0
171.051514 148.0
172.066177 424.0
172.556747 140.0
173.07135 11488.0
173.201447 144.0
173.293289 124.0
173.479919 120.0
173.703781 152.0
174.077011 2136.0
175.077072 296.0
175.245514 152.0
176.056534 140.0
176.672623 188.0
179.303986 140.0
180.890533 172.0
183.045212 152.0
185.074692 172.0
186.063843 184.0
186.803024 144.0
187.088959 480.0
187.148651 192.0
188.076797 324.0
188.157425 156.0
189.086105 240.0
190.097183 1672.0
190.125473 172.0
191.104889 240.0
194.936111 156.0
196.478622 184.0
198.064713 232.0
200.02919 144.0
200.069611 912.0
201.073105 240.0
201.093216 344.0
202.100647 156.0
202.468643 156.0
203.972382 156.0
204.931427 176.0
213.096985 156.0
213.957993 164.0
214.084198 304.0
214.698074 176.0
215.094055 1468.0
216.097092 264.0
217.093292 164.0
217.960403 156.0
218.232452 172.0
218.438309 192.0
227.103119 160.0
235.963959 144.0
237.114899 176.0
238.781982 224.0
241.90451 140.0
242.151382 252.0
244.306396 196.0
249.393982 152.0
252.227631 204.0
253.883484 148.0
256.813171 208.0
259.582123 208.0
260.130768 200.0
261.165405 148.0
263.037506 196.0
264.721924 176.0
268.00592 160.0
269.712677 152.0
270.146851 568.0
272.488312 204.0
277.730499 160.0
278.583588 168.0
279.494537 172.0
280.453644 252.0
281.050568 172.0
284.182312 172.0
285.171265 3600.0
285.567657 100.0
286.17157 936.0
286.441437 156.0
287.177765 388.0
287.419128 140.0
291.965149 152.0
297.812897 172.0
298.909546 144.0
300.232361 140.0
300.464783 168.0
301.454407 180.0
301.944397 140.0
301.98996 112.0
302.023682 132.0
302.054047 380.0
302.107574 136.0
302.147369 692.0
302.198975 80948.0
302.298157 512.0
302.363647 208.0
302.409546 176.0
302.478699 108.0
302.514191 124.0
302.713684 112.0
302.769318 132.0
302.805847 196.0
302.868896 224.0
303.003357 96.0
303.047119 184.0
303.10498 220.0
303.200836 13436.0
303.80777 128.0
304.203949 776.0
304.653809 108.0
305.138336 220.0
305.304138 232.0
306.229309 156.0
306.301208 216.0
309.902985 164.0
318.866272 140.0
336.036896 168.0
394.852173 140.0
1418.514893 140.0
1533.206909 184.0
1730.051147 156.0
1753.516479 168.0
1782.606201 176.0
1789.823364 140.0
1917.856934 176.0
1940.910156 156.0
1949.934448 204.0
1955.545776 248.0
1957.059814 156.0
1960.927002 144.0
1965.230347 176.0
1967.675171 172.0
1976.858765 180.0
1984.884155 192.0
