>compound Galgravin
>formula C22H28O5
>ionization [M+H]+
>parentmass 373.2009504480905
#inchi InChI=1S/C22H28O5/c1-13-14(2)22(16-8-10-18(24-4)20(12-16)26-6)27-21(13)15-7-9-17(23-3)19(11-15)25-5/h7-14,21-22H,1-6H3/t13-,14+,21-,22+
#inchikey JLJAVUZBHSLLJL
#Ion_Source DI-ESI
#Instrument qTof
#Compound_Source Isolated
#PI Norberto Lopes
#Data_Collector Denise Silva
#Scan -1
#Precursor_MZ 373.196
#ExactMass 372.194
#Charge 1
#CAS_Number 528-63-2
#Pubmed_ID  
#Smiles COC1=C(OC)C=C([C@@H]2[C@@H](C)[C@@H](C)[C@H](C3=CC(OC)=C(OC)C=C3)O2)C=C1
#INCHI_AUX  
#Library_Class 3
#SpectrumID CCMSLIB00000081291
#IonMode Positive
#UpdateWorkflowName UPDATE-SINGLE-ANNOTATED-BRONZE
#LibraryQualityString Bronze
#TaskID feaf036d212f424bb0ed658977fe8ee9
##Scan# 1
#SpectrumFile gnps_Galgravin_pos_MplusH.mgf
#LibraryName gnps_library.mgf
#MQScore -1
#Organism gnps_library
#TIC_Query 0
#RT_Query -1
#MZErrorPPM -1
#SharedPeaks 0
#MassDiff 0
#LibMZ -1
#SpecMZ 373.196
#SpecCharge 0
#internalFilename spec-00000.mgf

>collision 10
121.064812 134.0
124.051071 369.0
133.06012 116.0
135.04425 344.0
136.050888 758.0
137.059052 155.0
138.064835 234.0
139.074997 5262.0
147.083298 178.0
148.089722 188.0
149.056686 119.0
151.074036 21754.0
152.078934 993.0
162.064377 243.0
163.075516 724.0
165.088943 10769.0
166.056488 1021.0
167.070465 17660.0
168.074173 770.0
176.083511 840.0
177.088531 620.0
179.106735 15730.0
180.107773 663.0
186.104706 713.0
187.082077 205.0
191.106186 2032.0
195.100586 2775.0
196.101257 173.0
202.098434 2510.0
203.103134 284.0
204.11261 177.0
205.127777 101.0
217.120758 20868.0
218.124496 1473.0
235.131516 18362.0
312.122925 113.0
326.150391 119.0
355.187866 2358.0
373.196381 535.0
