>compound Lacidipine (Lacipil, Motens)
>formula C26H33NO6
>ionization [M+H]+
>parentmass 456.237732
#inchi InChI=1S/C26H33NO6/c1-8-31-24(29)21-16(3)27-17(4)22(25(30)32-9-2)23(21)19-13-11-10-12-18(19)14-15-20(28)33-26(5,6)7/h10-15,23,27H,8-9H2,1-7H3/b15-14+
#inchikey GKQPCPXONLDCMU
#Ion_Source LC-ESI
#Instrument qTof
#Compound_Source Commercial
#PI Dorrestein
#Data_Collector Garg_Neha
#Scan -1
#Precursor_MZ 456.238
#ExactMass 455.231
#Charge 1
#CAS_Number 103890-78-4
#Pubmed_ID N/A
#Smiles C1=CC=CC(=C1C2C(=C(NC(=C2C(OCC)=O)C)C)C(OCC)=O)/C=C/C(=O)OC(C)(C)C
#INCHI_AUX N/A
#Library_Class 1
#SpectrumID CCMSLIB00000078377
#IonMode Positive
#UpdateWorkflowName UPDATE-SINGLE-ANNOTATED-GOLD
#LibraryQualityString Gold
#TaskID 77f51c88eb8b467eb4a01dd2d0cb90d2
##Scan# 2920
#SpectrumFile Plate6_1_20_GD7_01_15774.mzXML
#LibraryName FDALibrary_2_04302014.mgf
#MQScore -1
#Organism FDALibrary_2_04302014
#TIC_Query 0
#RT_Query -1
#MZErrorPPM -1
#SharedPeaks 0
#MassDiff 0
#LibMZ -1
#SpecMZ 456.238
#SpecCharge 0
#internalFilename spec-00000.mgf

>collision 10
52.369568 212.0
52.633488 248.0
58.587772 144.0
65.455505 164.0
75.912003 164.0
97.007797 160.0
98.819717 144.0
128.35965 180.0
131.70961 176.0
138.691315 204.0
143.04866 188.0
150.051208 160.0
153.062607 144.0
153.082306 240.0
154.087341 152.0
155.048813 140.0
158.375107 140.0
160.100586 156.0
165.072433 412.0
165.092651 148.0
167.080673 296.0
168.591599 168.0
173.062683 188.0
177.066208 148.0
179.068802 156.0
180.087677 148.0
180.657059 180.0
180.756058 148.0
181.025192 148.0
181.060959 156.0
183.084763 160.0
188.955124 148.0
189.384918 140.0
189.913925 148.0
192.08165 136.0
193.064682 164.0
193.088669 156.0
194.095459 340.0
195.078674 300.0
195.10582 256.0
196.059097 300.0
196.091019 140.0
196.111542 200.0
197.064941 172.0
199.03743 152.0
199.062149 140.0
201.091385 148.0
202.083908 208.0
202.743698 216.0
205.085678 164.0
206.091995 132.0
206.90538 180.0
207.097748 152.0
208.113632 164.0
209.079483 160.0
209.109985 264.0
210.092606 152.0
210.115677 176.0
210.467804 216.0
211.103012 152.0
220.075027 184.0
221.058563 160.0
222.084824 224.0
223.067825 152.0
223.097672 144.0
224.091934 244.0
225.095657 192.0
227.071655 320.0
227.106567 176.0
234.090927 428.0
235.088806 148.0
235.105362 208.0
236.104431 1084.0
237.112122 368.0
238.082504 740.0
238.12178 116.0
239.063828 188.0
239.094315 180.0
239.479462 228.0
240.099838 2036.0
240.179153 184.0
241.104233 808.0
242.076843 148.0
242.106644 152.0
246.09053 428.0
247.091431 276.0
248.146927 196.0
250.299286 192.0
252.121338 104.0
253.125504 184.0
254.115768 372.0
257.80188 152.0
262.086853 1120.0
263.088928 432.0
263.505585 148.0
264.099457 1672.0
264.140656 316.0
264.446625 172.0
265.103973 356.0
265.14621 160.0
266.079529 308.0
266.111725 340.0
267.095886 324.0
268.131165 3296.0
268.343719 196.0
269.138397 360.0
270.111725 260.0
270.137878 188.0
271.097443 124.0
276.422272 140.0
279.085907 168.0
280.095276 1792.0
280.136139 120.0
281.098907 464.0
282.111938 1428.0
283.113068 448.0
283.381683 156.0
284.129364 176.0
290.080414 992.0
291.089508 304.0
291.119995 140.0
292.075836 124.0
292.134033 348.0
293.137726 132.0
294.122986 140.0
294.157104 140.0
298.102448 148.0
306.07666 128.0
308.088348 1044.0
308.127716 828.0
309.095673 252.0
309.136108 364.0
309.200989 160.0
309.839111 140.0
310.099518 148.0
310.142365 3012.0
311.10083 144.0
311.141968 660.0
312.149811 232.0
313.146545 352.0
315.168793 144.0
315.684906 196.0
316.095245 140.0
326.099182 160.0
326.127411 272.0
327.099213 112.0
328.11145 156.0
331.099823 244.0
331.545441 184.0
335.992554 168.0
336.11969 372.0
337.126282 408.0
338.141205 156.0
344.107483 140.0
352.114685 320.0
352.266937 164.0
353.11972 112.0
353.418457 168.0
353.494751 164.0
354.133392 18124.0
354.707977 156.0
354.768372 108.0
355.135925 4960.0
355.653442 96.0
356.138763 812.0
357.13623 336.0
358.668793 140.0
368.13385 120.0
369.545746 164.0
371.327087 160.0
372.138 100.0
374.039795 176.0
380.148285 608.0
381.163818 108.0
382.162567 3640.0
382.292725 152.0
383.163452 1612.0
384.167755 416.0
384.704407 152.0
385.177856 116.0
392.3349 160.0
398.157471 1288.0
399.159088 296.0
399.720154 108.0
400.174438 9260.0
400.624329 96.0
401.115906 148.0
401.176666 3016.0
402.18222 388.0
410.094849 240.0
410.195953 4232.0
410.259155 152.0
411.195923 1128.0
412.200714 420.0
413.297363 144.0
414.293365 176.0
422.038696 176.0
442.328918 172.0
455.216675 120.0
456.237732 2656.0
456.344299 148.0
457.238739 1156.0
457.382324 152.0
458.120575 128.0
458.245453 448.0
459.23587 164.0
1940.549438 208.0
