>compound MLS002154255-01!Pimethixene maleate13187-06-9
>formula C19H19NS
>ionization [M+H]+
>parentmass 294.130859
#inchi InChI=1S/C19H19NS/c1-20-12-10-14(11-13-20)19-15-6-2-4-8-17(15)21-18-9-5-3-7-16(18)19/h2-9H,10-13H2,1H3
#inchikey NZLVRVYNQYGMAB
#origInchi InChI=1S/C19H19NS.C4H4O4/c1-20-12-10-14(11-13-20)19-15-6-2-4-8-17(15)21-18-9-5-3-7-16(18)19;5-3(6)1-2-4(7)8/h2-9H,10-13H2,1H3;1-2H,(H,5,6)(H,7,8)/p-2/b;2-1-
#Ion_Source LC-ESI
#Instrument qTof
#Compound_Source NIH Pharmacologically Active Library
#PI Dorrestein
#Data_Collector VP/LMS
#Scan -1
#Precursor_MZ 294.136
#ExactMass 293.124
#Charge 1
#CAS_Number N/A
#Pubmed_ID N/A
#Smiles CN1CCC(=C2c3ccccc3Sc4ccccc24)CC1.[O-]C(=O)/C=C\C(=O)[O-]
#INCHI_AUX N/A
#Library_Class 1
#SpectrumID CCMSLIB00000084880
#IonMode Positive
#UpdateWorkflowName UPDATE-SINGLE-ANNOTATED-GOLD
#LibraryQualityString Gold
#TaskID d252d724072548979f1f6f1ced849daf
##Scan# 1782
#SpectrumFile p3-B11_GB11_01_18244.mzXML
#LibraryName Pharm_Active_Library.mgf
#MQScore -1
#Organism Pharm_Active_Library
#TIC_Query 0
#RT_Query -1
#MZErrorPPM -1
#SharedPeaks 0
#MassDiff 0
#LibMZ -1
#SpecMZ 294.136
#SpecCharge 0
#internalFilename spec-00000.mgf

>collision 10
44.899265 172.0
44.912605 224.0
45.042084 120.0
45.066132 88.0
45.127613 112.0
45.136974 204.0
45.153023 184.0
45.174423 220.0
45.234642 140.0
45.25071 80.0
45.272133 148.0
45.3083 148.0
45.320358 204.0
45.363243 136.0
45.418224 188.0
45.428955 172.0
45.516811 132.0
45.53231 108.0
45.620995 128.0
45.634441 196.0
45.672482 208.0
45.692272 84.0
45.721153 208.0
45.794582 116.0
45.805359 164.0
45.91993 164.0
45.952305 180.0
45.969936 120.0
46.015739 100.0
46.040047 132.0
46.252323 88.0
46.279396 180.0
46.307835 132.0
46.366096 144.0
46.385071 156.0
46.398628 124.0
46.449154 104.0
46.470512 128.0
46.492222 212.0
46.576401 168.0
46.60841 172.0
46.626675 196.0
46.664738 128.0
46.713699 156.0
46.725941 132.0
46.749073 124.0
46.779018 124.0
46.8008 196.0
46.833485 128.0
46.851997 160.0
46.885258 116.0
46.898315 208.0
46.970829 132.0
46.992195 216.0
47.017548 132.0
47.038021 188.0
47.08308 132.0
47.141747 140.0
47.1991 196.0
47.225224 180.0
47.262161 176.0
47.273109 180.0
47.341099 232.0
47.35936 176.0
47.405945 192.0
47.475861 112.0
47.608978 184.0
47.625462 176.0
47.666676 168.0
47.690945 152.0
47.738159 172.0
47.78566 128.0
47.804192 112.0
47.827587 200.0
47.841354 216.0
47.901947 92.0
47.922611 196.0
48.013592 112.0
48.043938 152.0
48.057735 188.0
48.081196 80.0
48.118465 88.0
48.166801 136.0
48.186142 228.0
48.244137 108.0
48.263542 192.0
48.295353 432.0
48.336857 140.0
48.393608 156.0
48.450394 76.0
48.476719 216.0
48.503052 136.0
48.530781 208.0
48.572388 164.0
48.583485 76.0
48.632053 164.0
48.678055 176.0
48.693142 200.0
48.711338 200.0
48.802925 112.0
48.840477 160.0
48.855778 104.0
48.875256 136.0
48.928146 148.0
48.981064 176.0
49.042374 120.0
49.053528 120.0
49.067467 148.0
49.083256 136.0
49.092316 244.0
49.115856 172.0
49.145573 128.0
49.243294 120.0
49.253071 260.0
49.285355 184.0
49.307564 100.0
49.356491 112.0
49.373272 172.0
49.413116 124.0
49.43483 180.0
49.531948 164.0
49.558052 160.0
49.576271 88.0
49.673016 132.0
49.692654 80.0
49.851326 180.0
49.87241 48.0
50.034744 120.0
50.079243 48.0
50.094738 120.0
50.108826 180.0
50.186348 168.0
50.206963 136.0
50.225838 108.0
50.238533 104.0
50.268162 128.0
50.306271 92.0
50.317566 180.0
50.345806 192.0
50.368301 168.0
50.436348 192.0
50.463089 168.0
50.538055 36.0
50.549374 112.0
50.601746 212.0
50.638565 100.0
50.662643 184.0
50.685314 136.0
50.713657 96.0
50.73407 180.0
50.7491 104.0
50.778282 192.0
50.88105 164.0
50.902348 200.0
50.913708 80.0
50.951279 216.0
51.051559 164.0
51.074314 216.0
51.105614 144.0
51.144714 152.0
51.166622 208.0
51.193554 236.0
51.232327 116.0
51.245152 104.0
51.255123 160.0
51.269375 292.0
51.283627 160.0
51.316414 184.0
51.344933 164.0
51.381382 268.0
51.419125 144.0
51.441959 184.0
51.457664 64.0
51.484196 176.0
51.513195 172.0
51.559269 216.0
51.59053 184.0
51.623417 280.0
51.816654 92.0
51.859646 240.0
51.921295 144.0
51.980114 188.0
52.023174 188.0
52.051888 152.0
52.063377 152.0
52.090668 136.0
52.139519 136.0
52.212841 148.0
52.277687 164.0
52.307541 260.0
52.320007 292.0
52.374043 196.0
52.392769 192.0
52.402855 116.0
52.461945 204.0
52.513149 228.0
52.526836 136.0
52.539822 108.0
52.627861 144.0
52.697002 244.0
52.715977 152.0
52.743439 68.0
52.782471 48.0
52.795296 120.0
52.834541 152.0
52.947445 136.0
52.989456 160.0
53.051773 80.0
53.063374 148.0
53.08802 144.0
53.130085 168.0
53.147495 164.0
53.215717 144.0
53.329025 120.0
53.34211 88.0
53.368279 152.0
53.384274 136.0
53.442459 172.0
53.458466 176.0
53.528339 164.0
53.567665 348.0
53.647816 316.0
53.670135 240.0
53.687183 172.0
53.784939 196.0
53.806835 192.0
53.828609 92.0
53.868172 116.0
53.903282 132.0
53.925156 104.0
53.978519 128.0
54.021664 32.0
54.039223 208.0
54.093369 68.0
54.118786 100.0
54.166588 132.0
54.219334 156.0
54.24485 128.0
54.310238 100.0
54.386539 188.0
54.41013 172.0
54.436455 140.0
54.448204 140.0
54.471706 200.0
54.561348 156.0
54.590755 100.0
54.621643 124.0
54.631939 152.0
54.659897 136.0
54.793884 236.0
54.869385 204.0
54.88232 152.0
54.963448 200.0
54.988369 144.0
55.021008 92.0
55.071217 188.0
55.164307 188.0
55.187962 132.0
55.202751 196.0
55.221977 40.0
55.261917 168.0
55.279705 192.0
55.430717 228.0
55.445538 248.0
55.479465 216.0
55.516701 96.0
55.529598 212.0
55.570099 76.0
55.596809 56.0
55.613136 164.0
55.639854 180.0
55.653217 216.0
55.8018 168.0
55.819641 72.0
55.846413 184.0
55.92527 160.0
55.940155 88.0
55.966953 60.0
56.042919 104.0
56.057819 108.0
56.092102 148.0
56.120426 196.0
56.130863 108.0
56.150249 276.0
56.181488 208.0
56.218876 204.0
56.242756 176.0
56.257687 212.0
56.26963 152.0
56.282883 196.0
56.306961 88.0
56.36821 116.0
56.383785 76.0
56.445942 136.0
56.462391 180.0
56.48782 176.0
56.534203 136.0
56.546173 240.0
56.580605 112.0
56.597073 56.0
56.615044 148.0
56.812897 120.0
56.829399 148.0
56.892494 204.0
56.913456 184.0
56.935982 72.0
56.952675 140.0
57.011097 168.0
57.036648 84.0
57.048672 136.0
57.141918 196.0
57.157722 372.0
57.175537 128.0
57.245777 156.0
57.315071 56.0
57.331646 72.0
57.346718 184.0
57.441711 216.0
57.456799 184.0
57.471119 140.0
57.491505 168.0
57.508106 112.0
57.527206 220.0
57.624382 64.0
57.639492 60.0
57.663673 48.0
57.69693 136.0
57.736244 164.0
57.795238 140.0
57.807346 152.0
57.869404 96.0
57.898178 160.0
57.908779 232.0
57.925442 152.0
57.957256 132.0
57.982513 48.0
58.152885 148.0
58.193874 240.0
58.209057 128.0
58.247028 140.0
58.284966 136.0
58.324524 224.0
58.359489 192.0
58.379257 136.0
58.406631 184.0
58.424381 140.0
58.493774 160.0
58.532951 184.0
58.572552 116.0
58.615208 152.0
58.657883 112.0
58.732601 144.0
58.796684 176.0
58.834843 156.0
58.848583 320.0
58.88829 184.0
58.990047 188.0
59.01054 136.0
59.067551 156.0
59.134449 68.0
59.169659 204.0
59.19722 200.0
59.229382 336.0
59.275345 84.0
59.299866 208.0
59.318256 160.0
59.364254 148.0
59.385727 172.0
59.398849 160.0
59.42561 124.0
59.444023 292.0
59.482048 160.0
59.529991 204.0
59.542274 132.0
59.585285 132.0
59.608402 180.0
59.632923 156.0
59.675964 156.0
59.765175 156.0
59.822121 124.0
59.834438 100.0
59.889874 160.0
59.900169 164.0
59.973907 156.0
60.023956 116.0
60.127316 144.0
60.172081 152.0
60.193695 136.0
60.215317 152.0
60.294109 144.0
60.332752 148.0
60.470345 160.0
60.48745 180.0
60.526154 220.0
60.566422 192.0
60.589947 192.0
60.640793 96.0
60.724518 112.0
60.73848 188.0
60.764851 184.0
60.812958 156.0
60.921654 152.0
60.968266 220.0
60.991581 184.0
61.033558 152.0
61.159569 184.0
61.229633 180.0
61.250317 172.0
61.29039 168.0
61.363647 100.0
61.413548 184.0
61.450989 252.0
61.471272 480.0
61.486385 76.0
61.574306 256.0
61.60508 160.0
61.632107 144.0
61.654655 168.0
61.657333 196.0
61.671177 220.0
61.736553 172.0
61.757175 160.0
61.769688 144.0
61.787266 220.0
61.88863 136.0
61.945011 180.0
61.979477 44.0
61.998283 224.0
62.01709 52.0
62.040604 128.0
62.053146 172.0
62.137291 160.0
62.166954 220.0
62.191193 124.0
62.296402 112.0
62.318398 124.0
62.370258 140.0
62.477188 168.0
62.491348 164.0
62.53083 224.0
62.560596 168.0
62.612774 176.0
62.653511 128.0
62.6866 120.0
62.716545 140.0
62.727581 156.0
62.821766 176.0
62.897942 188.0
62.998085 220.0
63.029026 188.0
63.074856 120.0
63.089085 172.0
63.106476 180.0
63.180809 64.0
63.215618 48.0
63.234612 232.0
63.247272 236.0
63.275768 148.0
63.383472 132.0
63.399456 176.0
63.422371 176.0
63.434189 116.0
63.505543 200.0
63.526283 160.0
63.546787 176.0
63.56583 76.0
63.656311 100.0
63.672192 108.0
63.684898 220.0
63.74527 152.0
63.786594 160.0
63.812031 136.0
63.82793 128.0
63.839062 172.0
63.88327 136.0
63.92178 124.0
63.944061 216.0
63.961571 152.0
64.025253 124.0
64.039589 148.0
64.151642 300.0
64.186211 140.0
64.315437 148.0
64.338959 212.0
64.360138 152.0
64.41124 152.0
64.499123 176.0
64.527901 168.0
64.545486 176.0
64.59507 60.0
64.621819 144.0
64.657471 120.0
64.691086 208.0
64.703888 160.0
64.750328 208.0
64.781128 216.0
64.803711 184.0
64.864929 132.0
64.89888 152.0
64.949074 48.0
64.961906 128.0
64.973137 180.0
65.000496 148.0
65.101547 176.0
65.120819 180.0
65.197937 104.0
65.210793 156.0
65.300827 180.0
65.320129 252.0
65.363129 132.0
65.379662 144.0
65.411858 140.0
65.461761 140.0
65.477867 116.0
65.4972 192.0
65.516525 192.0
65.592194 176.0
65.647087 100.0
65.680954 176.0
65.709991 144.0
65.776161 88.0
65.818138 184.0
65.848564 152.0
65.999107 256.0
66.039536 152.0
66.076744 184.0
66.142059 88.0
66.165756 212.0
66.193283 132.0
66.207855 176.0
66.22567 172.0
66.322891 164.0
66.355316 148.0
66.421799 136.0
66.454247 144.0
66.485077 112.0
66.508469 372.0
66.678345 148.0
66.709229 172.0
66.818184 80.0
66.855614 180.0
66.954918 108.0
66.982605 156.0
66.997269 188.0
67.028229 132.0
67.071281 124.0
67.093422 68.0
67.142113 144.0
67.204323 216.0
67.281036 148.0
67.298996 132.0
67.369225 204.0
67.442757 204.0
67.476654 152.0
67.50325 172.0
67.514694 164.0
67.531868 168.0
67.555588 156.0
67.573578 96.0
67.601395 116.0
67.693069 152.0
67.720909 180.0
67.742752 228.0
67.791359 152.0
67.927444 96.0
67.984871 176.0
68.031822 184.0
68.070229 244.0
68.081017 224.0
68.117859 40.0
68.163864 124.0
68.283875 192.0
68.295387 152.0
68.308548 120.0
68.352722 136.0
68.420448 72.0
68.445145 80.0
68.471497 72.0
68.497849 212.0
68.51432 32.0
68.616501 208.0
68.670921 136.0
68.682465 176.0
68.737625 120.0
68.760017 48.0
68.788071 60.0
68.799629 136.0
68.845863 216.0
68.880547 160.0
68.936722 88.0
68.974731 136.0
69.108688 80.0
69.136818 140.0
69.216194 148.0
69.24852 132.0
69.321823 224.0
69.340599 176.0
69.398544 140.0
69.421761 188.0
69.482567 140.0
69.510132 192.0
69.584373 136.0
69.637512 204.0
69.660767 128.0
69.723907 156.0
69.758812 260.0
69.820328 160.0
69.842903 164.0
69.880219 108.0
69.973419 112.0
70.013382 60.0
70.055023 172.0
70.121674 184.0
70.146675 124.0
70.21077 228.0
70.242676 184.0
70.340179 80.0
70.358261 120.0
70.378578 120.0
70.398613 148.0
70.457077 176.0
70.621574 196.0
70.691162 188.0
70.719612 152.0
70.86586 144.0
70.878708 96.0
70.897141 108.0
70.942398 252.0
71.019531 100.0
71.042259 124.0
71.095032 180.0
71.135315 120.0
71.155457 180.0
71.178963 160.0
71.200798 240.0
71.305176 156.0
71.442841 124.0
71.465965 140.0
71.506783 200.0
71.535393 124.0
71.557281 136.0
71.601891 120.0
71.625488 124.0
71.636436 316.0
71.6735 172.0
71.692039 188.0
71.727432 104.0
71.757774 144.0
71.779694 228.0
71.803307 188.0
71.825706 212.0
71.853912 444.0
71.865723 144.0
72.024414 148.0
72.044685 156.0
72.068474 96.0
72.16806 180.0
72.191734 116.0
72.266159 228.0
72.300003 156.0
72.320312 80.0
72.354164 180.0
72.391418 124.0
72.435455 76.0
72.51001 156.0
72.539886 176.0
72.559166 124.0
72.572731 164.0
72.623604 108.0
72.635139 208.0
72.699951 116.0
72.716919 192.0
72.740685 160.0
72.8069 168.0
72.827286 148.0
72.86805 164.0
72.974869 164.0
73.017639 184.0
73.051659 128.0
73.112915 76.0
73.148659 108.0
73.174194 200.0
73.26786 148.0
73.373528 196.0
73.426384 160.0
73.443443 184.0
73.469032 104.0
73.583374 132.0
73.607277 132.0
73.628464 188.0
73.641434 148.0
73.682434 156.0
73.697807 88.0
73.750053 140.0
73.817467 60.0
73.867065 256.0
73.932083 192.0
74.014244 184.0
74.036507 100.0
74.050209 184.0
74.082756 252.0
74.178993 176.0
74.211296 108.0
74.285362 148.0
74.322784 204.0
74.375984 188.0
74.400749 160.0
74.403763 196.0
74.458237 172.0
74.475571 224.0
74.49881 228.0
74.522499 164.0
74.535698 208.0
74.549446 56.0
74.602409 236.0
74.60656 192.0
74.654312 152.0
74.729057 168.0
74.773018 192.0
74.851433 196.0
74.88665 108.0
74.924545 136.0
74.976242 284.0
75.022072 80.0
75.046478 220.0
75.138329 224.0
75.215981 176.0
75.350685 136.0
75.470573 208.0
75.501068 232.0
75.556419 128.0
75.592751 176.0
75.635498 276.0
75.746841 196.0
75.7659 216.0
75.795357 44.0
75.823082 48.0
75.862946 124.0
75.929649 164.0
76.01461 180.0
76.075638 116.0
76.133415 340.0
76.206581 124.0
76.241333 196.0
76.255234 148.0
76.296951 152.0
76.342163 172.0
76.36039 180.0
76.39782 128.0
76.427399 188.0
76.549248 84.0
76.564919 148.0
76.613373 200.0
76.674927 220.0
76.796722 168.0
76.828117 112.0
76.868248 180.0
76.913628 152.0
76.931084 88.0
76.959015 140.0
76.983459 132.0
76.995689 140.0
77.126724 208.0
77.157425 128.0
77.223129 148.0
77.30162 156.0
77.340836 196.0
77.353638 200.0
77.424164 132.0
77.590622 144.0
77.602898 148.0
77.62043 176.0
77.648491 144.0
77.677292 152.0
77.719383 232.0
77.742157 92.0
77.832748 108.0
77.942291 176.0
78.008438 88.0
78.020744 200.0
78.052391 132.0
78.071739 72.0
78.150848 144.0
78.189606 124.0
78.404465 176.0
78.427383 128.0
78.494377 188.0
78.609032 228.0
78.64949 204.0
78.679634 204.0
78.718483 176.0
78.773819 168.0
78.871315 144.0
78.995964 148.0
79.017197 212.0
79.051567 208.0
79.102142 172.0
79.119843 156.0
79.136681 212.0
79.226105 156.0
79.332428 140.0
79.414001 104.0
79.481415 112.0
79.561279 32.0
79.611 140.0
79.624458 152.0
79.635864 232.0
79.653625 164.0
79.667831 148.0
79.74424 88.0
79.767349 108.0
79.914955 196.0
79.970123 176.0
80.057358 172.0
80.080276 148.0
80.130394 172.0
80.194542 176.0
80.239105 176.0
80.342545 204.0
80.373024 196.0
80.456764 120.0
80.50676 128.0
80.521049 136.0
80.570976 168.0
80.627037 196.0
80.671135 104.0
80.751602 160.0
80.796318 136.0
80.880943 208.0
80.900032 176.0
81.012703 244.0
81.133011 204.0
81.16349 196.0
81.181419 148.0
81.251373 112.0
81.363571 108.0
81.378799 124.0
81.391373 104.0
81.414711 172.0
81.429085 196.0
81.472191 188.0
81.513519 220.0
81.527893 48.0
81.632156 208.0
81.651939 52.0
81.677124 224.0
81.705902 208.0
81.723892 164.0
81.78508 68.0
81.801285 152.0
81.881859 180.0
81.954361 76.0
82.026451 208.0
82.10218 124.0
82.114799 196.0
82.161705 200.0
82.208618 152.0
82.221245 180.0
82.241104 204.0
82.262764 156.0
82.307899 92.0
82.385559 136.0
82.419891 128.0
82.45784 140.0
82.517494 160.0
82.581772 192.0
82.670906 196.0
82.734589 224.0
82.752693 152.0
82.799774 152.0
82.826942 156.0
82.851814 148.0
82.863174 228.0
82.892166 216.0
82.912102 144.0
82.944725 172.0
82.981911 164.0
83.020828 160.0
83.066216 204.0
83.080734 152.0
83.11702 148.0
83.242271 152.0
83.289131 164.0
83.30584 104.0
83.343987 152.0
83.391701 172.0
83.4076 172.0
83.425774 116.0
83.515144 188.0
83.587166 152.0
83.638603 128.0
83.654854 212.0
83.68203 136.0
83.713249 216.0
83.73587 248.0
83.775177 112.0
83.797043 164.0
83.811615 196.0
83.826195 56.0
83.875404 100.0
83.922798 192.0
83.939209 172.0
83.968391 36.0
83.992332 64.0
84.017639 52.0
84.107056 192.0
84.127075 120.0
84.223915 236.0
84.276894 144.0
84.315269 116.0
84.384171 168.0
84.401192 128.0
84.428619 172.0
84.455856 184.0
84.554855 180.0
84.670189 144.0
84.71965 180.0
84.805771 116.0
84.820435 52.0
84.84243 104.0
84.858932 152.0
84.879105 56.0
84.93045 132.0
84.95063 124.0
84.978149 212.0
85.033203 48.0
85.108032 152.0
85.126831 152.0
85.172745 144.0
85.246231 216.0
85.325272 144.0
85.358368 180.0
85.386841 132.0
85.479774 344.0
85.492653 108.0
85.509216 48.0
85.597069 200.0
85.636894 128.0
85.658356 160.0
85.689674 124.0
85.735741 212.0
85.76339 96.0
85.786087 64.0
85.877563 260.0
85.910904 152.0
85.9515 184.0
85.968391 208.0
86.029922 244.0
86.05117 204.0
86.082558 156.0
86.101028 184.0
86.132423 180.0
86.145355 192.0
86.210381 208.0
86.24514 192.0
86.287651 248.0
86.369019 120.0
86.404167 140.0
86.450317 208.0
86.523636 176.0
86.665466 156.0
86.725266 284.0
86.757896 100.0
86.806099 156.0
86.941521 96.0
86.967506 184.0
87.038055 116.0
87.071007 188.0
87.214539 176.0
87.242424 168.0
87.305641 140.0
87.329819 168.0
87.400513 144.0
87.412338 112.0
87.441452 168.0
87.497299 92.0
87.560608 136.0
87.575508 92.0
87.602631 164.0
87.640709 196.0
87.677979 84.0
87.711525 172.0
87.780975 144.0
87.856247 124.0
87.890564 140.0
87.967079 136.0
87.991348 100.0
88.016212 152.0
88.090332 292.0
88.204315 156.0
88.221138 144.0
88.278511 152.0
88.35392 116.0
88.374496 180.0
88.436256 164.0
88.475563 120.0
88.511139 108.0
88.55983 132.0
88.57856 148.0
88.601006 204.0
88.608253 320.0
88.630974 172.0
88.682228 160.0
88.722855 180.0
88.839127 100.0
88.94577 164.0
88.970078 180.0
88.977036 140.0
89.017433 92.0
89.045601 140.0
89.066261 48.0
89.134598 256.0
89.218826 148.0
89.282402 84.0
89.323967 160.0
89.363289 48.0
89.423508 208.0
89.470856 180.0
89.496925 92.0
89.527847 276.0
89.549652 140.0
89.566605 76.0
89.653275 308.0
89.675888 148.0
89.713585 132.0
89.776062 180.0
89.836166 36.0
90.002556 172.0
90.034348 112.0
90.089127 120.0
90.109863 176.0
90.153366 188.0
90.173973 164.0
90.221413 112.0
90.270569 376.0
90.298943 228.0
90.327354 184.0
90.368935 76.0
90.411469 192.0
90.448418 140.0
90.467346 176.0
90.569595 68.0
90.590439 164.0
90.609383 156.0
90.641594 204.0
90.666222 168.0
90.698448 136.0
90.738258 56.0
90.766693 124.0
90.798935 196.0
90.823593 176.0
90.836868 220.0
90.863426 184.0
90.907066 132.0
90.975922 160.0
91.026657 172.0
91.054214 376.0
91.091232 128.0
91.125427 184.0
91.15963 188.0
91.188141 164.0
91.269882 144.0
91.316406 144.0
91.370689 224.0
91.580086 148.0
91.593414 200.0
91.642944 116.0
91.745865 156.0
91.78302 180.0
91.804886 172.0
91.80925 164.0
91.814941 212.0
91.988136 268.0
92.041191 132.0
92.106308 212.0
92.122116 224.0
92.14473 128.0
92.166046 156.0
92.247932 200.0
92.267052 160.0
92.332375 220.0
92.347359 148.0
92.39901 172.0
92.487038 152.0
92.508095 124.0
92.542557 128.0
92.557869 228.0
92.691956 180.0
92.732201 176.0
92.750549 168.0
92.778206 104.0
92.83297 192.0
92.874084 48.0
92.927795 204.0
92.943146 160.0
92.987289 164.0
93.006477 64.0
93.063599 196.0
93.129364 152.0
93.192757 136.0
93.206207 84.0
93.275398 72.0
93.315765 168.0
93.356148 244.0
93.419617 84.0
93.444809 168.0
93.463104 252.0
93.506203 172.0
93.525452 156.0
93.545013 196.0
93.60453 160.0
93.619789 216.0
93.635201 132.0
93.718033 148.0
93.74501 92.0
93.814392 128.0
93.843315 116.0
93.866455 168.0
93.895378 416.0
93.908882 196.0
93.950928 180.0
93.973747 248.0
94.006554 204.0
94.065697 2652.0
94.092598 328.0
94.127716 172.0
94.155922 160.0
94.173302 152.0
94.233185 148.0
94.246712 152.0
94.409607 148.0
94.427711 108.0
94.458527 156.0
94.534828 116.0
94.581276 192.0
94.619995 168.0
94.685829 192.0
94.738129 128.0
94.798195 148.0
94.813698 160.0
94.833076 188.0
94.866028 160.0
94.885414 208.0
94.908684 160.0
94.980835 196.0
95.028938 140.0
95.071274 464.0
95.092972 144.0
95.107826 156.0
95.137619 136.0
95.176453 212.0
95.248306 132.0
95.27253 136.0
95.333794 156.0
95.358612 192.0
95.411545 192.0
95.526604 148.0
95.59243 272.0
95.609947 148.0
95.633301 76.0
95.660728 176.0
95.676125 132.0
95.690956 168.0
95.742325 204.0
95.793335 128.0
95.874603 120.0
95.905983 96.0
95.933273 212.0
95.95472 148.0
96.000977 160.0
96.025345 184.0
96.081612 37228.0
96.120338 500.0
96.138664 92.0
96.175781 100.0
96.201828 72.0
96.225151 124.0
96.267754 84.0
96.302979 68.0
96.330719 132.0
96.345039 52.0
96.359909 184.0
96.380211 180.0
96.395187 72.0
96.421249 36.0
96.531937 180.0
96.560059 100.0
96.589394 200.0
96.624611 148.0
96.64222 64.0
96.736153 52.0
96.763565 84.0
96.785103 140.0
96.80172 172.0
96.822311 60.0
96.877151 44.0
96.896744 116.0
96.91642 92.0
96.960136 96.0
96.982712 92.0
97.02021 176.0
97.035896 132.0
97.08799 7440.0
97.167297 140.0
97.205994 72.0
97.254593 124.0
97.287666 156.0
97.308609 156.0
97.452393 212.0
97.475563 84.0
97.499046 156.0
97.537842 124.0
97.573837 96.0
97.597427 312.0
97.611198 160.0
97.672745 176.0
97.71785 160.0
97.757019 340.0
97.796616 128.0
97.81974 124.0
97.845993 120.0
97.890625 152.0
97.965469 160.0
97.996986 144.0
98.019112 164.0
98.046249 232.0
98.071869 40.0
98.093048 308.0
98.13298 144.0
98.178909 172.0
98.267357 152.0
98.30262 316.0
98.321655 124.0
98.359856 88.0
98.473137 128.0
98.545486 268.0
98.576118 120.0
98.634415 76.0
98.684532 80.0
98.735252 176.0
98.792618 144.0
98.828224 60.0
98.853951 108.0
98.871758 80.0
98.88765 144.0
98.907387 60.0
99.04599 208.0
99.084686 180.0
99.088585 96.0
99.096062 132.0
99.208481 124.0
99.416748 148.0
99.468353 124.0
99.51004 48.0
99.541809 116.0
99.638573 184.0
99.765388 140.0
99.788193 168.0
99.808075 36.0
99.855804 100.0
99.869728 100.0
99.885635 160.0
100.006783 136.0
100.026917 112.0
100.070717 180.0
100.142403 148.0
100.200172 128.0
100.224083 168.0
100.32373 92.0
100.349648 136.0
100.375572 108.0
100.40313 156.0
100.434746 220.0
100.471306 100.0
100.493256 144.0
100.517197 160.0
100.698868 156.0
100.746803 180.0
100.772774 240.0
100.800163 164.0
100.925522 152.0
100.956673 52.0
100.970673 212.0
101.000099 180.0
101.027245 156.0
101.060692 156.0
101.084702 144.0
101.112717 152.0
101.160759 108.0
101.332985 204.0
101.39711 140.0
101.415146 136.0
101.453232 160.0
101.525414 224.0
101.551491 224.0
101.5765 204.0
101.621696 168.0
101.677887 196.0
101.852821 220.0
101.923286 176.0
101.949654 160.0
101.967087 200.0
101.997238 76.0
102.013321 112.0
102.044647 220.0
102.067604 152.0
102.095757 164.0
102.113853 128.0
102.284882 60.0
102.298973 60.0
102.327156 68.0
102.429863 52.0
102.445976 84.0
102.551682 140.0
102.586128 212.0
102.612396 180.0
102.639458 168.0
102.65699 104.0
102.679794 36.0
102.734253 164.0
102.841202 164.0
102.982536 196.0
102.998695 160.0
103.031013 52.0
103.052963 540.0
103.097694 64.0
103.227013 144.0
103.247292 80.0
103.262474 196.0
103.291794 176.0
103.419266 168.0
103.482018 192.0
103.51442 68.0
103.530617 144.0
103.548843 100.0
103.577202 172.0
103.664322 172.0
103.770775 112.0
103.790001 172.0
103.828529 96.0
103.90155 100.0
103.952271 164.0
104.025337 124.0
104.072037 128.0
104.110619 152.0
104.139046 44.0
104.161392 216.0
104.185371 228.0
104.252625 168.0
104.330055 192.0
104.362587 168.0
104.519203 124.0
104.545662 104.0
104.833817 160.0
104.851135 164.0
104.875038 176.0
104.928596 108.0
104.989769 220.0
105.010162 124.0
105.039856 132.0
105.068939 196.0
105.132568 156.0
105.146858 120.0
105.16114 48.0
105.240829 232.0
105.289764 144.0
105.319054 188.0
105.323006 160.0
105.377258 216.0
105.498184 172.0
105.541115 188.0
105.627007 156.0
105.647469 76.0
105.667923 148.0
105.689278 92.0
105.79631 120.0
105.825516 240.0
105.921768 116.0
105.983231 172.0
106.050858 140.0
106.068062 180.0
106.116455 132.0
106.194496 140.0
106.286415 144.0
106.305168 48.0
106.383156 256.0
106.413185 160.0
106.434486 232.0
106.455017 128.0
106.471451 116.0
106.504028 172.0
106.53019 160.0
106.594704 216.0
106.656364 160.0
106.703644 112.0
106.779213 144.0
106.882584 80.0
106.911392 212.0
106.938148 200.0
106.979317 128.0
107.020493 168.0
107.069313 192.0
107.145889 172.0
107.179092 88.0
107.242973 136.0
107.271835 192.0
107.29245 140.0
107.348122 136.0
107.374931 160.0
107.412056 76.0
107.428215 144.0
107.497963 232.0
107.606041 44.0
107.628754 200.0
107.670052 96.0
107.773338 188.0
107.864273 168.0
107.901482 124.0
107.92009 172.0
107.980057 152.0
108.058662 248.0
108.095909 136.0
108.115585 204.0
108.170181 140.0
108.323647 152.0
108.340813 168.0
108.381088 188.0
108.533165 168.0
108.566147 136.0
108.593109 180.0
108.668732 196.0
108.694763 52.0
108.732117 136.0
108.754944 184.0
108.815147 124.0
108.835907 152.0
108.883186 172.0
108.911819 232.0
108.916191 128.0
108.925919 188.0
108.99585 168.0
109.010681 144.0
109.066505 140.0
109.114319 104.0
109.14135 156.0
109.164223 212.0
109.228699 172.0
109.320244 100.0
109.361717 168.0
109.395172 144.0
109.553436 108.0
109.582069 204.0
109.5998 204.0
109.655533 140.0
109.670128 76.0
109.728493 172.0
109.797302 180.0
109.861969 140.0
109.960037 48.0
109.995522 168.0
110.035187 68.0
110.097824 36.0
110.313034 116.0
110.392479 164.0
110.413399 64.0
110.442139 172.0
110.53891 184.0
110.619812 92.0
110.706177 188.0
110.731514 188.0
110.750359 164.0
110.783875 152.0
110.80851 132.0
110.825775 108.0
110.907509 176.0
110.947334 72.0
111.062668 104.0
111.142387 132.0
111.242279 220.0
111.432137 168.0
111.446846 136.0
111.474159 84.0
111.499374 152.0
111.678085 44.0
111.718056 200.0
111.74202 212.0
111.804321 228.0
111.829575 176.0
111.861153 216.0
111.91378 148.0
111.949577 160.0
111.974854 128.0
112.029617 164.0
112.113892 72.0
112.177124 152.0
112.267792 208.0
112.316299 160.0
112.335281 164.0
112.369034 148.0
112.40506 108.0
112.455551 216.0
112.57589 116.0
112.658264 184.0
112.720451 120.0
112.733803 208.0
112.749123 176.0
112.814079 164.0
112.850586 348.0
112.880478 204.0
112.916138 212.0
112.96479 136.0
113.0924 232.0
113.273842 132.0
113.327568 156.0
113.364952 84.0
113.506973 76.0
113.566353 108.0
113.626854 316.0
113.657578 136.0
113.731857 200.0
113.920837 216.0
113.973953 48.0
114.035583 196.0
114.062614 156.0
114.18866 144.0
114.237587 124.0
114.297157 160.0
114.373772 180.0
114.431252 60.0
114.47596 132.0
114.490868 72.0
114.516426 196.0
114.552635 156.0
114.599503 200.0
114.65065 140.0
114.714592 208.0
114.750572 200.0
114.79348 176.0
114.816933 136.0
114.848923 240.0
114.94706 104.0
115.006752 124.0
115.025734 204.0
115.054848 1696.0
115.153534 240.0
115.185242 200.0
115.233177 40.0
115.278053 200.0
115.309486 180.0
115.329346 44.0
115.344307 216.0
115.361404 196.0
115.387543 176.0
115.412453 196.0
115.42057 172.0
115.467667 148.0
115.513229 120.0
115.530296 160.0
115.564575 212.0
115.656601 140.0
115.671585 256.0
115.720818 148.0
115.754364 184.0
115.780777 196.0
115.819328 160.0
115.882423 124.0
115.916229 204.0
115.947884 152.0
115.972679 220.0
115.991898 172.0
116.031479 164.0
116.062408 612.0
116.110817 80.0
116.241676 216.0
116.282448 100.0
116.297478 80.0
116.411263 200.0
116.505768 184.0
116.596008 224.0
116.639 148.0
116.666939 84.0
116.755096 156.0
116.770157 152.0
116.950882 160.0
117.069344 632.0
117.091095 200.0
117.144676 100.0
117.235168 92.0
117.330009 68.0
117.40979 124.0
117.5047 156.0
117.543541 84.0
117.632027 212.0
117.720551 200.0
117.783699 184.0
117.947395 120.0
117.972473 220.0
118.001442 104.0
118.073898 312.0
118.090103 188.0
118.256699 144.0
118.39093 116.0
118.421249 144.0
118.458069 112.0
118.47757 204.0
118.505737 228.0
118.549072 116.0
118.689384 164.0
118.865669 152.0
118.896317 164.0
118.948143 156.0
119.074074 112.0
119.124031 104.0
119.16748 96.0
119.228836 188.0
119.466385 156.0
119.515366 56.0
119.530594 48.0
119.595886 128.0
119.621147 172.0
119.648125 176.0
119.669899 128.0
119.775551 156.0
119.813644 104.0
119.833252 92.0
119.872124 176.0
119.913879 72.0
119.929131 48.0
119.948822 128.0
119.966187 116.0
119.983627 156.0
120.079575 168.0
120.097023 140.0
120.126213 200.0
120.225746 128.0
120.291222 216.0
120.315239 132.0
120.332703 204.0
120.367638 192.0
120.436592 200.0
120.472473 112.0
120.50087 108.0
120.590469 72.0
120.629623 140.0
120.688843 92.0
120.98201 176.0
121.006287 240.0
121.13092 176.0
121.183495 164.0
121.233894 76.0
121.314667 136.0
121.358421 148.0
121.461914 232.0
121.481651 148.0
121.512367 124.0
121.534309 172.0
121.611115 132.0
121.632195 192.0
121.683556 60.0
121.712097 132.0
121.821915 124.0
121.88343 140.0
122.001404 236.0
122.03949 120.0
122.070267 240.0
122.090065 148.0
122.119553 88.0
122.147247 156.0
122.30127 168.0
122.33429 196.0
122.462006 192.0
122.539101 192.0
122.572151 212.0
122.601654 196.0
122.692474 180.0
122.752907 160.0
122.834511 96.0
122.927635 152.0
122.947037 124.0
122.962486 84.0
123.025833 540.0
123.072861 136.0
123.14341 156.0
123.167824 120.0
123.187698 160.0
123.241905 172.0
123.300201 192.0
123.373329 184.0
123.452255 164.0
123.475044 104.0
123.490524 116.0
123.55246 120.0
123.572372 168.0
123.618835 204.0
123.687447 128.0
123.815865 168.0
123.842438 96.0
123.860161 128.0
123.943687 108.0
123.978668 188.0
124.030777 188.0
124.099503 96.0
124.137199 96.0
124.201515 156.0
124.230347 36.0
124.487816 184.0
124.527786 152.0
124.561104 172.0
124.647751 348.0
124.685532 112.0
124.718864 204.0
124.776665 144.0
124.943466 228.0
124.979057 100.0
125.001312 140.0
125.021339 276.0
125.158661 180.0
125.175484 164.0
125.217255 184.0
125.288528 316.0
125.344231 112.0
125.399948 160.0
125.526855 164.0
125.558762 68.0
125.580269 132.0
125.607307 120.0
125.69413 144.0
125.74118 164.0
125.769707 128.0
125.798538 132.0
125.839401 248.0
125.875122 140.0
126.070335 164.0
126.138756 176.0
126.158875 220.0
126.230423 200.0
126.281357 180.0
126.373573 124.0
126.407135 28.0
126.422798 96.0
126.539192 164.0
126.590698 144.0
126.648926 188.0
126.675804 176.0
126.696472 176.0
126.852829 164.0
126.985123 112.0
127.059151 204.0
127.171349 64.0
127.204948 148.0
127.210403 140.0
127.219025 184.0
127.284904 164.0
127.314499 152.0
127.440826 296.0
127.490257 140.0
127.517227 148.0
127.532959 148.0
127.566681 204.0
127.620636 184.0
127.638618 68.0
127.690582 376.0
127.80957 108.0
127.829826 168.0
127.859077 192.0
127.890587 120.0
127.924355 108.0
127.955162 216.0
127.983727 172.0
128.063187 1296.0
128.105087 140.0
128.12027 236.0
128.219818 112.0
128.266754 144.0
128.325104 140.0
128.356934 136.0
128.4133 164.0
128.508057 180.0
128.526093 132.0
128.598312 164.0
128.68335 228.0
128.756348 156.0
128.774429 156.0
128.803787 156.0
128.82637 184.0
128.8806 60.0
129.070282 1124.0
129.154144 148.0
129.195358 164.0
129.224274 132.0
129.296677 208.0
129.400803 160.0
129.459671 196.0
129.488037 160.0
129.563873 144.0
129.622299 96.0
129.647705 132.0
129.738373 136.0
129.824524 108.0
129.856277 208.0
129.872147 112.0
129.956085 136.0
129.992401 180.0
130.077347 168.0
130.108154 104.0
130.168427 160.0
130.196701 108.0
130.30574 144.0
130.376175 128.0
130.420624 236.0
130.485275 204.0
130.553497 140.0
130.578506 188.0
130.639923 256.0
130.680878 208.0
130.703629 116.0
130.785553 196.0
130.926712 36.0
130.995987 144.0
131.046158 220.0
131.05513 96.0
131.062027 160.0
131.197861 192.0
131.275375 144.0
131.355209 184.0
131.387146 132.0
131.46814 144.0
131.535126 236.0
131.585999 292.0
131.654205 208.0
131.686172 192.0
131.795822 176.0
131.834671 188.0
131.866669 200.0
131.930664 164.0
132.103378 180.0
132.138779 144.0
132.157089 112.0
132.1754 236.0
132.232605 72.0
132.274887 164.0
132.311218 164.0
132.365387 112.0
132.410126 176.0
132.431793 72.0
132.479904 88.0
132.507385 120.0
132.562378 204.0
132.583008 216.0
132.626556 180.0
132.641953 100.0
132.688446 96.0
132.720551 200.0
132.869629 56.0
132.887985 196.0
132.947632 204.0
133.007309 132.0
133.110626 180.0
133.195984 188.0
133.336044 156.0
133.358734 132.0
133.404709 192.0
133.508179 84.0
133.52887 184.0
133.549576 136.0
133.7621 216.0
133.833755 212.0
133.8703 144.0
133.910919 120.0
133.938568 200.0
133.980026 148.0
134.018219 148.0
134.058365 196.0
134.083725 192.0
134.138748 192.0
134.173615 140.0
134.205887 124.0
134.235535 192.0
134.26123 188.0
134.316589 156.0
134.399643 196.0
134.43425 184.0
134.482712 140.0
134.526581 140.0
134.558899 212.0
134.667435 156.0
134.799255 132.0
134.873062 164.0
134.93779 96.0
135.025894 332.0
135.051102 116.0
135.129761 172.0
135.155212 40.0
135.204605 196.0
135.261658 152.0
135.312592 124.0
135.347321 48.0
135.407532 32.0
135.474701 156.0
135.504822 172.0
135.537262 168.0
135.578979 228.0
135.636917 240.0
135.683273 116.0
135.713425 196.0
135.748199 144.0
135.771393 124.0
135.840012 192.0
135.90065 172.0
135.996429 112.0
136.021973 228.0
136.082321 140.0
136.107864 216.0
136.205414 100.0
136.289047 212.0
136.347137 76.0
136.393616 156.0
136.45871 108.0
136.497238 188.0
136.527435 148.0
136.62384 108.0
136.763458 176.0
136.854248 108.0
136.921768 120.0
136.93808 168.0
137.061539 68.0
137.105026 200.0
137.117935 164.0
137.257339 104.0
137.278336 192.0
137.316208 196.0
137.334305 124.0
137.369293 180.0
137.408951 108.0
137.437271 176.0
137.462616 464.0
137.49762 152.0
137.555969 192.0
137.693726 100.0
137.742783 100.0
137.768478 176.0
137.791641 144.0
137.852707 152.0
137.878296 236.0
137.896988 144.0
137.939056 236.0
138.002182 52.0
138.075165 172.0
138.134506 200.0
138.151855 208.0
138.275879 220.0
138.299286 144.0
138.371841 120.0
138.59407 228.0
138.652939 152.0
138.896774 208.0
138.917892 156.0
138.955429 128.0
139.054977 340.0
139.086838 32.0
139.169006 68.0
139.216843 216.0
139.443848 212.0
139.537872 124.0
139.563736 168.0
139.596664 180.0
139.648392 120.0
139.838974 80.0
139.864868 148.0
139.904877 140.0
139.951965 80.0
140.065369 212.0
140.126251 208.0
140.175735 116.0
140.215729 136.0
140.258224 252.0
140.281799 140.0
140.317154 140.0
140.361954 152.0
140.461014 44.0
140.578064 176.0
140.608398 224.0
140.647415 200.0
140.680466 176.0
140.786713 136.0
140.885925 156.0
140.933167 140.0
140.949707 128.0
140.975708 180.0
141.006424 108.0
141.070374 4020.0
141.122253 264.0
141.150635 132.0
141.1996 136.0
141.245224 152.0
141.288498 220.0
141.35643 176.0
141.403763 128.0
141.451096 100.0
141.531586 380.0
141.577637 188.0
141.66185 136.0
141.721069 148.0
141.768692 124.0
141.801651 164.0
141.884613 40.0
141.979446 140.0
142.019714 180.0
142.077805 4932.0
142.116638 188.0
142.16687 32.0
142.200089 60.0
142.329102 164.0
142.354401 148.0
142.399521 152.0
142.468414 184.0
142.549194 112.0
142.630005 104.0
142.66803 248.0
142.725098 136.0
142.777771 208.0
142.81514 148.0
142.892975 116.0
142.917755 28.0
142.987274 188.0
143.039124 128.0
143.082077 352.0
143.127213 172.0
143.165314 128.0
143.217712 136.0
143.270111 136.0
143.46553 92.0
143.508438 156.0
143.594284 164.0
143.641998 164.0
143.736404 156.0
143.806625 168.0
143.930771 164.0
144.250916 208.0
144.303497 40.0
144.379196 184.0
144.412491 264.0
144.484772 156.0
144.620468 168.0
144.798965 148.0
144.865906 132.0
145.028961 160.0
145.062408 208.0
145.166214 352.0
145.191879 224.0
145.251846 112.0
145.378998 36.0
145.47261 68.0
145.502853 168.0
145.520615 200.0
145.597458 168.0
145.650299 128.0
145.676727 68.0
145.731979 96.0
145.759979 152.0
145.930771 192.0
146.04689 168.0
146.116653 160.0
146.162369 180.0
146.198471 36.0
146.282181 256.0
146.394333 232.0
146.44046 128.0
146.472931 184.0
146.658478 112.0
146.720352 204.0
146.754898 136.0
146.810364 308.0
146.82724 88.0
146.899597 116.0
146.947845 192.0
147.000931 148.0
147.025482 1876.0
147.061874 96.0
147.082993 160.0
147.119843 224.0
147.170959 172.0
147.197922 152.0
147.235092 320.0
147.269867 188.0
147.29306 56.0
147.309967 144.0
147.442856 136.0
147.479111 108.0
147.522629 180.0
147.551636 120.0
147.580643 160.0
147.63385 220.0
147.694305 220.0
147.774139 144.0
147.805603 52.0
147.909103 140.0
147.952103 188.0
148.007797 148.0
148.029633 536.0
148.108582 184.0
148.137283 164.0
148.234344 128.0
148.355377 104.0
148.384476 116.0
148.401443 108.0
148.428116 48.0
148.486313 208.0
148.551804 100.0
148.636719 120.0
148.668259 132.0
148.694962 192.0
148.81987 184.0
148.881897 140.0
149.008209 124.0
149.032196 200.0
149.066513 56.0
149.083527 208.0
149.147995 204.0
149.168594 136.0
149.304749 172.0
149.377716 112.0
149.489639 116.0
149.616211 172.0
149.76474 168.0
149.815414 184.0
149.969406 112.0
150.018158 156.0
150.0401 164.0
150.071793 168.0
150.110809 96.0
150.337677 124.0
150.396255 288.0
150.457275 108.0
150.479248 72.0
150.528076 192.0
150.598907 96.0
150.618454 152.0
150.672195 136.0
150.740601 160.0
150.762589 132.0
150.786102 136.0
150.833481 176.0
150.887253 180.0
150.912918 96.0
151.05545 532.0
151.083817 96.0
151.418243 92.0
151.435379 116.0
151.55542 160.0
151.616684 132.0
151.729431 192.0
151.761307 124.0
151.822617 160.0
151.893188 296.0
151.928085 272.0
151.994324 148.0
152.063492 1980.0
152.099854 160.0
152.121948 168.0
152.228409 180.0
152.285217 228.0
152.338043 96.0
152.397614 196.0
152.4953 144.0
152.526047 220.0
152.608383 140.0
152.635422 164.0
152.667389 84.0
152.91095 120.0
152.943726 296.0
153.067566 2172.0
153.175323 268.0
153.211349 124.0
153.260635 132.0
153.313629 112.0
153.344421 140.0
153.494797 88.0
153.512054 148.0
153.553986 184.0
153.576172 60.0
153.61795 64.0
153.632065 176.0
153.653061 168.0
153.671539 220.0
153.755127 204.0
153.796387 176.0
153.877243 168.0
153.934021 116.0
153.971069 220.0
154.078506 368.0
154.111877 104.0
154.141525 120.0
154.178589 104.0
154.218964 192.0
154.242844 100.0
154.309601 184.0
154.359055 164.0
154.561874 136.0
154.589096 104.0
154.611374 152.0
154.747513 144.0
154.908493 192.0
154.955566 128.0
154.987762 152.0
155.054672 160.0
155.08847 120.0
155.205887 160.0
155.267883 208.0
155.394043 144.0
155.434097 92.0
155.498611 132.0
155.55571 236.0
155.664948 152.0
155.766769 220.0
155.818939 60.0
155.933243 48.0
156.077744 160.0
156.23909 104.0
156.338623 108.0
156.433197 140.0
156.465561 184.0
156.697174 104.0
156.831177 136.0
156.886581 108.0
156.954193 204.0
157.038681 140.0
157.083588 272.0
157.158432 156.0
157.180878 128.0
157.291901 208.0
157.318161 60.0
157.433014 120.0
157.480453 144.0
157.531021 116.0
157.540955 184.0
157.567886 136.0
157.727829 124.0
157.83783 160.0
157.912842 124.0
157.937851 176.0
157.972885 148.0
158.015366 216.0
158.067947 92.0
158.100479 172.0
158.17984 124.0
158.208115 220.0
158.235641 172.0
158.265686 68.0
158.295746 124.0
158.378387 164.0
158.400925 160.0
158.493622 128.0
158.643997 144.0
158.787598 192.0
158.847916 152.0
158.882248 132.0
158.899796 136.0
158.918411 180.0
158.972565 172.0
159.028809 892.0
159.173737 88.0
159.233658 176.0
159.258774 104.0
159.29451 160.0
159.321579 220.0
159.339157 148.0
159.391922 184.0
159.532669 116.0
159.691086 156.0
159.774094 204.0
159.847046 108.0
159.927002 268.0
159.985489 208.0
160.034134 208.0
160.112793 168.0
160.214645 116.0
160.249924 72.0
160.33812 168.0
160.408691 216.0
160.52507 200.0
160.583862 220.0
160.644806 220.0
160.675995 180.0
160.773224 208.0
160.860214 180.0
160.963867 220.0
161.025681 212.0
161.047073 120.0
161.113419 76.0
161.297226 160.0
161.335144 60.0
161.370529 184.0
161.747467 156.0
161.777847 168.0
161.889252 76.0
161.944962 160.0
161.993088 152.0
162.013351 184.0
162.043762 204.0
162.084305 228.0
162.160324 80.0
162.208481 100.0
162.254623 256.0
162.345398 116.0
162.484894 72.0
162.555939 156.0
162.637161 172.0
162.672699 152.0
162.753937 204.0
162.802185 124.0
162.872833 176.0
163.052383 168.0
163.086731 128.0
163.118454 232.0
163.15506 236.0
163.216385 180.0
163.241043 172.0
163.279953 44.0
163.322342 168.0
163.361343 40.0
163.459015 176.0
163.483475 196.0
163.605652 120.0
163.632446 168.0
163.702393 268.0
163.738052 228.0
163.814468 108.0
163.857773 48.0
163.893448 204.0
163.929123 156.0
163.99707 168.0
164.059128 444.0
164.092239 188.0
164.158539 160.0
164.200729 168.0
164.258011 124.0
164.302048 196.0
164.36261 188.0
164.418747 104.0
164.446823 136.0
164.499237 216.0
164.559143 160.0
164.605103 140.0
164.638306 200.0
164.723755 112.0
164.75058 204.0
164.778778 108.0
164.806885 56.0
164.827332 116.0
164.873322 172.0
164.990906 144.0
165.032776 288.0
165.07048 14656.0
165.12027 164.0
165.215958 192.0
165.24292 96.0
165.325974 56.0
165.351562 28.0
165.407104 120.0
165.450378 140.0
165.505157 92.0
165.613998 104.0
165.646027 64.0
165.736679 164.0
165.75618 84.0
165.779251 140.0
165.807678 84.0
165.940735 152.0
165.960403 196.0
166.012527 92.0
166.044449 164.0
166.074295 1788.0
166.120255 192.0
166.238266 48.0
166.258804 52.0
166.281891 104.0
166.384567 76.0
166.40332 156.0
166.435928 220.0
166.497559 36.0
166.54892 152.0
166.597733 136.0
166.633698 164.0
166.663055 140.0
166.731339 116.0
166.805878 220.0
166.890717 32.0
166.934418 116.0
166.998718 120.0
167.082886 808.0
167.140213 308.0
167.209686 52.0
167.267929 96.0
167.304932 120.0
167.451691 212.0
167.472305 168.0
167.546997 144.0
167.577927 228.0
167.804733 188.0
167.905289 140.0
167.941406 148.0
168.023941 176.0
168.062653 344.0
168.086563 104.0
168.162933 172.0
168.199417 132.0
168.227814 48.0
168.297531 124.0
168.506729 128.0
168.599747 132.0
168.635941 92.0
168.685043 120.0
168.761703 160.0
168.782028 212.0
168.853973 60.0
168.925537 204.0
168.963257 152.0
169.087616 180.0
169.117493 152.0
169.137711 104.0
169.192993 192.0
169.217972 172.0
169.298233 36.0
169.321548 204.0
169.407028 128.0
169.477539 164.0
169.513474 184.0
169.596176 136.0
169.767288 64.0
169.808792 180.0
169.935898 196.0
170.011139 128.0
170.09874 368.0
170.131714 192.0
170.203232 100.0
170.250977 348.0
170.296722 112.0
170.429214 156.0
170.452591 156.0
170.478577 124.0
170.538361 200.0
170.577347 104.0
170.699539 220.0
170.735947 172.0
170.777008 152.0
170.897217 276.0
170.949265 100.0
171.019623 324.0
171.055969 164.0
171.095016 152.0
171.157501 176.0
171.188751 304.0
171.30336 132.0
171.33461 152.0
171.412781 200.0
171.509201 160.0
171.553513 180.0
171.639084 176.0
171.730835 256.0
171.751694 136.0
171.777786 156.0
171.819519 152.0
171.88385 116.0
171.941452 176.0
171.97168 168.0
172.029236 196.0
172.057007 48.0
172.112183 180.0
172.132721 172.0
172.263077 144.0
172.328629 128.0
172.365204 100.0
172.451447 160.0
172.571701 152.0
172.71521 168.0
172.757385 140.0
172.820175 232.0
172.99028 180.0
173.039093 832.0
173.126434 180.0
173.168335 48.0
173.19191 96.0
173.218094 152.0
173.287689 292.0
173.349747 212.0
173.561417 116.0
173.626984 184.0
173.957581 60.0
174.04744 256.0
174.092636 152.0
174.165009 192.0
174.183395 96.0
174.215302 192.0
174.322769 164.0
174.372574 144.0
174.406754 96.0
174.498749 172.0
174.635498 168.0
174.653915 212.0
174.682846 96.0
174.717529 216.0
174.843338 124.0
174.894287 156.0
174.924927 132.0
174.969681 128.0
174.993378 168.0
175.032883 156.0
175.103973 136.0
175.161926 120.0
175.25676 64.0
175.275208 124.0
175.33728 188.0
175.604736 176.0
175.760376 160.0
175.884415 196.0
175.929291 160.0
175.976807 144.0
176.029617 156.0
176.057388 336.0
176.111496 120.0
176.177521 80.0
176.235657 160.0
176.397659 200.0
176.447083 156.0
176.526413 124.0
176.616333 204.0
176.654922 188.0
176.705154 200.0
176.782074 136.0
176.89946 140.0
176.925262 156.0
176.985245 204.0
177.008011 72.0
177.03714 148.0
177.064224 304.0
177.084808 336.0
177.166931 164.0
177.214615 60.0
177.272903 176.0
177.360367 228.0
177.378922 140.0
177.416031 172.0
177.50708 204.0
177.540649 132.0
177.562317 140.0
177.583084 152.0
177.610199 184.0
177.633484 100.0
177.747559 100.0
177.776749 232.0
177.81842 80.0
177.874954 136.0
177.90947 148.0
177.94397 164.0
177.98381 160.0
178.005051 140.0
178.033478 192.0
178.077927 10164.0
178.134521 232.0
178.206909 40.0
178.246765 156.0
178.350418 248.0
178.395599 60.0
178.451431 140.0
178.496643 116.0
178.597702 140.0
178.622482 100.0
178.682816 124.0
178.706772 196.0
178.79689 180.0
178.815872 260.0
178.901047 172.0
178.93634 124.0
178.972931 240.0
179.026596 184.0
179.051392 160.0
179.083069 3888.0
179.135391 132.0
179.202118 164.0
179.289917 244.0
179.313904 168.0
179.367218 164.0
179.463181 96.0
179.631195 128.0
179.657867 192.0
179.700562 128.0
179.735245 120.0
179.807785 200.0
179.84935 164.0
179.951447 164.0
179.999496 128.0
180.042236 144.0
180.088364 548.0
180.157089 36.0
180.199829 60.0
180.237228 224.0
180.324463 144.0
180.408112 128.0
180.485809 48.0
180.547318 116.0
180.56871 128.0
180.603485 188.0
180.678391 52.0
180.729218 52.0
180.833588 164.0
180.868378 128.0
180.921921 148.0
180.991531 204.0
181.010269 184.0
181.029022 124.0
181.107925 112.0
181.162933 184.0
181.181686 48.0
181.227234 184.0
181.363907 52.0
181.385345 172.0
181.447006 160.0
181.558502 220.0
181.618622 196.0
181.811798 72.0
181.947311 164.0
181.994339 192.0
182.029236 204.0
182.061462 176.0
182.102097 156.0
182.139359 204.0
182.203827 196.0
182.253662 204.0
182.399994 108.0
182.456451 88.0
182.493774 172.0
182.601654 104.0
182.730759 124.0
182.819717 144.0
182.892227 148.0
183.024139 160.0
183.113007 100.0
183.172256 132.0
183.20459 152.0
183.274643 152.0
183.400528 184.0
183.423492 172.0
183.457901 160.0
183.590027 152.0
183.639893 220.0
183.722183 124.0
183.76535 100.0
183.857101 236.0
184.033279 688.0
184.113098 204.0
184.151367 208.0
184.202164 228.0
184.227005 140.0
184.297241 108.0
184.332367 244.0
184.35939 40.0
184.479477 188.0
184.502914 168.0
184.535095 116.0
184.648666 112.0
184.694641 104.0
184.740631 192.0
184.913803 144.0
184.94899 148.0
185.005829 108.0
185.038147 192.0
185.089767 56.0
185.121231 168.0
185.171005 160.0
185.217056 128.0
185.279358 104.0
185.463623 52.0
185.501572 144.0
185.637131 64.0
185.702484 164.0
185.753754 168.0
185.780884 148.0
185.921967 88.0
186.014252 144.0
186.041397 100.0
186.098419 212.0
186.128281 168.0
186.182587 152.0
186.201599 212.0
186.22876 240.0
186.326553 136.0
186.391754 144.0
186.470566 144.0
186.582016 108.0
186.628235 128.0
186.728851 176.0
186.810394 180.0
186.873016 60.0
186.91655 116.0
187.006363 136.0
187.047195 128.0
187.074417 172.0
187.109802 144.0
187.134308 116.0
187.226883 148.0
187.245956 152.0
187.469345 144.0
187.526566 108.0
187.630157 156.0
187.662872 112.0
187.706497 44.0
187.913788 92.0
187.979279 192.0
188.047501 124.0
188.164886 172.0
188.227676 112.0
188.282303 140.0
188.383362 144.0
188.470779 196.0
188.509033 92.0
188.550034 208.0
188.585556 140.0
188.646454 172.0
188.697632 32.0
188.831619 188.0
188.864441 132.0
188.914703 224.0
188.957458 180.0
189.025864 124.0
189.07016 888.0
189.190079 152.0
189.247574 160.0
189.427628 204.0
189.463928 132.0
189.606415 140.0
189.683151 184.0
189.748947 160.0
189.813202 212.0
189.878525 172.0
189.971085 164.0
190.006744 256.0
190.076645 700.0
190.12001 172.0
190.157669 224.0
190.229141 196.0
190.289429 128.0
190.355331 120.0
190.481659 136.0
190.5009 144.0
190.547592 172.0
190.594299 72.0
190.649261 128.0
190.709732 156.0
190.810654 168.0
190.896667 64.0
190.991653 216.0
191.045197 156.0
191.083954 808.0
191.135986 88.0
191.320389 164.0
191.369949 180.0
191.615067 144.0
191.6371 184.0
191.667419 32.0
191.824509 160.0
191.843811 112.0
191.904526 148.0
192.011993 168.0
192.090378 292.0
192.188553 172.0
192.210617 52.0
192.453522 164.0
192.56398 156.0
192.605408 116.0
192.718811 160.0
193.059113 176.0
193.099319 148.0
193.13887 232.0
193.160995 172.0
193.208023 148.0
193.257904 144.0
193.332535 160.0
193.440491 160.0
193.647125 172.0
193.731247 88.0
193.758957 140.0
193.819901 88.0
193.844849 144.0
193.876068 196.0
193.936295 180.0
193.975098 244.0
194.102631 188.0
194.138565 148.0
194.176941 136.0
194.24408 260.0
194.296783 160.0
194.321762 108.0
194.391129 88.0
194.502136 212.0
194.621506 192.0
194.649277 112.0
194.668716 88.0
194.704819 128.0
194.724258 164.0
194.752029 80.0
194.796402 168.0
194.915939 164.0
194.948074 204.0
194.971512 264.0
195.027634 88.0
195.093811 140.0
195.193909 176.0
195.341309 216.0
195.458603 236.0
195.499893 212.0
195.524948 156.0
195.583984 196.0
195.641846 180.0
195.661072 172.0
195.725372 156.0
195.775497 144.0
195.805588 144.0
195.834259 372.0
195.886902 112.0
195.911972 168.0
195.978836 124.0
196.009232 44.0
196.034164 736.0
196.084702 368.0
196.10968 80.0
196.119217 128.0
196.182297 68.0
196.215744 160.0
196.250992 108.0
196.277084 176.0
196.332855 88.0
196.377609 176.0
196.39682 64.0
196.405273 124.0
196.459427 168.0
196.486267 168.0
196.520035 192.0
196.561508 116.0
196.569077 112.0
196.607788 256.0
196.649673 184.0
196.687653 216.0
196.71904 224.0
196.766113 212.0
196.828369 292.0
196.854218 336.0
196.880508 248.0
196.921021 140.0
196.946899 152.0
197.043243 249624.0
197.121994 244.0
197.149658 252.0
197.186325 96.0
197.208298 80.0
197.234558 108.0
197.297058 268.0
197.320496 232.0
197.354004 148.0
197.3983 212.0
197.419754 264.0
197.44281 116.0
197.471878 280.0
197.502899 1960.0
197.529709 316.0
197.583344 188.0
197.617981 132.0
197.652039 280.0
197.682007 148.0
197.715424 76.0
197.741531 200.0
197.761063 44.0
197.783844 196.0
197.818314 244.0
197.836197 164.0
197.863205 108.0
197.882782 232.0
197.892944 172.0
197.904343 188.0
197.926895 284.0
197.95871 164.0
197.99559 232.0
198.045059 30008.0
198.149475 88.0
198.178223 128.0
198.219009 100.0
198.267426 56.0
198.304459 168.0
198.339554 188.0
198.356415 124.0
198.391083 144.0
198.440338 116.0
198.464966 136.0
198.51236 64.0
198.562805 140.0
198.594711 108.0
198.628479 72.0
198.662766 44.0
198.70134 72.0
198.753342 76.0
198.80867 112.0
198.876022 76.0
198.906891 112.0
198.931564 128.0
198.949707 220.0
198.992691 136.0
199.039062 8816.0
199.126709 56.0
199.152786 104.0
199.197174 128.0
199.219849 72.0
199.242081 136.0
199.278336 168.0
199.304855 56.0
199.333435 220.0
199.356262 88.0
199.391296 156.0
199.438568 232.0
199.462646 212.0
199.50383 140.0
199.509186 204.0
199.585159 136.0
199.597504 120.0
199.645813 216.0
199.6922 160.0
199.715454 152.0
199.72554 128.0
199.736465 244.0
199.787247 140.0
199.840897 68.0
199.876953 72.0
199.924881 40.0
199.955276 56.0
200.041534 1016.0
200.092026 124.0
200.114868 72.0
200.134262 96.0
200.198242 184.0
200.298508 84.0
200.372025 124.0
200.430618 136.0
200.460236 52.0
200.500519 80.0
200.535461 100.0
200.622849 120.0
200.675644 148.0
200.698959 120.0
200.93306 68.0
200.969742 32.0
201.062592 344.0
201.196991 108.0
201.265274 96.0
201.297165 36.0
201.328232 80.0
201.367767 64.0
201.418564 272.0
201.457626 128.0
201.463486 36.0
201.488754 144.0
201.509003 112.0
201.545731 72.0
201.575119 100.0
201.624863 88.0
201.836868 52.0
201.933777 180.0
201.995255 52.0
202.043335 104.0
202.077393 2764.0
202.112808 116.0
202.17067 44.0
202.218781 36.0
202.3405 100.0
202.363144 52.0
202.402786 160.0
202.501907 192.0
202.52739 40.0
202.636246 168.0
202.830566 128.0
202.895767 156.0
203.085724 5508.0
203.123322 216.0
203.147217 156.0
203.166397 140.0
203.2276 56.0
203.360977 124.0
203.412064 148.0
203.464813 76.0
203.647736 68.0
203.795456 116.0
203.912247 164.0
204.092972 3604.0
204.162155 100.0
204.193436 56.0
204.221878 32.0
204.310059 120.0
204.500519 60.0
204.513672 72.0
204.518585 100.0
204.608871 72.0
204.660126 92.0
204.707062 200.0
204.853775 144.0
204.957199 120.0
205.004791 68.0
205.061783 124.0
205.095383 508.0
205.155853 192.0
205.25563 156.0
205.383972 128.0
205.646469 32.0
205.677872 40.0
205.726395 128.0
205.749237 68.0
206.099854 204.0
206.116028 236.0
206.184296 76.0
206.492157 140.0
206.540787 100.0
206.680969 108.0
206.783981 200.0
206.812607 148.0
206.967194 192.0
207.02446 120.0
207.046722 88.0
207.224808 136.0
207.522064 128.0
207.732407 144.0
207.798386 128.0
207.841415 96.0
207.86438 60.0
207.953339 112.0
208.034714 1612.0
208.107971 208.0
208.248489 172.0
208.283539 72.0
208.361099 96.0
208.445374 140.0
208.457001 116.0
208.499023 68.0
208.544464 64.0
208.616867 96.0
208.751038 128.0
208.777878 268.0
208.826767 184.0
208.872787 208.0
208.924561 80.0
208.979233 96.0
209.041565 4620.0
209.085693 72.0
209.120239 156.0
209.16629 72.0
209.200836 160.0
209.295837 100.0
209.359192 84.0
209.455719 140.0
209.508972 140.0
209.533981 176.0
209.57811 136.0
209.638626 192.0
209.696259 92.0
209.753906 108.0
209.861435 200.0
209.922501 168.0
209.978989 140.0
210.049835 21480.0
210.128799 36.0
210.185318 68.0
210.224014 56.0
210.267303 60.0
210.292618 76.0
210.320694 72.0
210.384491 60.0
210.420288 168.0
210.446091 64.0
210.469376 52.0
210.531219 144.0
210.574173 136.0
210.662872 52.0
210.685989 36.0
210.758224 104.0
210.884842 196.0
210.940292 88.0
211.056396 5680.0
211.103439 168.0
211.125336 80.0
211.151352 56.0
211.223663 52.0
211.335785 132.0
211.346329 100.0
211.414627 108.0
211.458801 60.0
211.481186 128.0
211.54776 68.0
211.573593 108.0
211.649094 136.0
211.686737 56.0
211.778366 176.0
211.874084 88.0
211.915558 68.0
211.935837 168.0
212.005386 92.0
212.050171 1324.0
212.09523 48.0
212.115524 100.0
212.143127 192.0
212.167709 60.0
212.236435 76.0
212.277878 92.0
212.353287 124.0
212.399689 92.0
212.478912 116.0
212.509933 64.0
212.568863 116.0
212.588272 168.0
212.667969 88.0
212.704361 40.0
212.933746 72.0
212.95697 60.0
212.983109 128.0
213.050797 336.0
213.195206 52.0
213.326004 120.0
213.480087 108.0
213.538254 32.0
213.584793 176.0
213.648788 112.0
213.682343 112.0
213.751648 132.0
213.852478 40.0
213.966003 68.0
213.992203 232.0
214.015503 52.0
214.067642 172.0
214.350464 56.0
214.534088 36.0
214.595306 72.0
214.666977 152.0
214.735275 96.0
214.787781 92.0
214.825699 40.0
214.994934 140.0
215.084671 1120.0
215.129196 76.0
215.158386 48.0
215.339417 156.0
215.397842 220.0
215.500092 168.0
215.593597 100.0
215.763123 156.0
215.844711 84.0
216.020462 136.0
216.092682 580.0
216.280899 160.0
216.330658 256.0
216.365784 216.0
216.520981 140.0
216.553192 80.0
216.746536 140.0
216.790497 116.0
216.840317 96.0
217.01326 36.0
217.050491 184.0
217.100708 4924.0
217.145874 180.0
217.289536 60.0
217.338837 60.0
217.449203 72.0
217.49437 48.0
217.526657 48.0
217.558945 80.0
217.619263 200.0
217.735123 52.0
217.767426 164.0
217.802673 172.0
217.834991 112.0
217.952499 88.0
218.023026 132.0
218.108795 5940.0
218.167053 140.0
218.482864 92.0
218.553421 140.0
218.590576 120.0
218.64061 116.0
218.675919 184.0
218.708298 76.0
218.808395 76.0
218.893768 44.0
219.017471 172.0
219.11145 936.0
219.197174 92.0
219.241379 156.0
219.315063 100.0
219.335693 120.0
219.371063 208.0
219.412338 56.0
219.854782 52.0
219.940369 112.0
220.028931 356.0
220.117508 264.0
220.185425 68.0
220.279938 68.0
220.352417 60.0
220.390793 92.0
220.412888 92.0
220.457214 156.0
220.48085 140.0
220.516418 128.0
220.569519 128.0
220.599075 52.0
220.769699 176.0
220.883881 160.0
220.930283 128.0
221.042435 21680.0
221.116028 176.0
221.195328 192.0
221.267654 108.0
221.288391 180.0
221.353989 220.0
221.379547 76.0
221.414017 56.0
221.486206 60.0
221.578003 72.0
221.586029 88.0
221.623077 40.0
221.652695 80.0
221.702835 140.0
221.729752 176.0
221.766983 156.0
221.80899 152.0
221.848312 36.0
221.875931 88.0
221.937256 248.0
221.97319 132.0
222.049286 16308.0
222.124084 60.0
222.195282 40.0
222.221985 32.0
222.242752 152.0
222.275391 216.0
222.296173 96.0
222.370956 60.0
222.432404 52.0
222.453476 72.0
222.520706 68.0
222.560349 188.0
222.584106 180.0
222.645676 196.0
222.675903 136.0
222.723679 176.0
222.769592 44.0
222.863571 92.0
222.898972 68.0
222.97226 212.0
223.057816 26336.0
223.141418 28.0
223.176697 64.0
223.218689 64.0
223.246094 132.0
223.311584 236.0
223.333008 44.0
223.397385 112.0
223.430283 80.0
223.459198 124.0
223.484726 104.0
223.53299 108.0
223.568039 44.0
223.588882 48.0
223.63501 128.0
223.703217 116.0
223.758545 84.0
223.847198 36.0
223.87764 60.0
223.934235 80.0
224.059311 2504.0
224.124878 40.0
224.153564 32.0
224.181503 96.0
224.205338 36.0
224.348404 52.0
224.37822 44.0
224.485703 88.0
224.516068 88.0
224.569061 140.0
224.930099 52.0
224.961212 120.0
225.016678 88.0
225.05452 1880.0
225.246613 80.0
225.366119 76.0
225.390015 60.0
225.446793 68.0
225.470703 80.0
225.587173 116.0
225.688919 56.0
225.720062 116.0
225.75769 92.0
225.800568 132.0
226.059219 160.0
226.1586 112.0
226.311264 148.0
226.46698 52.0
226.967453 40.0
226.99144 116.0
227.281876 68.0
227.345413 120.0
227.888901 40.0
228.07901 324.0
228.108292 140.0
228.363876 168.0
228.447922 204.0
228.643661 76.0
228.914597 168.0
229.101349 156.0
229.637878 80.0
229.761551 48.0
230.109955 296.0
230.271683 60.0
230.434799 36.0
230.900314 184.0
230.997101 196.0
231.024643 116.0
231.107666 168.0
231.199814 144.0
231.690338 76.0
231.772141 180.0
231.941849 108.0
232.029297 132.0
232.072205 96.0
232.172272 36.0
232.293594 204.0
232.560608 96.0
232.703293 104.0
232.745789 96.0
232.81868 48.0
233.03392 268.0
233.104218 132.0
233.15892 112.0
233.189316 104.0
233.33522 152.0
233.596756 100.0
233.758011 64.0
233.831039 272.0
233.894958 164.0
233.919312 92.0
233.974106 256.0
234.049866 12848.0
234.103271 156.0
234.119202 80.0
234.124451 156.0
234.174133 44.0
234.339569 68.0
234.421844 52.0
234.4767 164.0
234.573044 44.0
234.61882 120.0
234.662643 88.0
234.809006 120.0
234.903564 40.0
234.924911 64.0
234.985931 232.0
235.019501 116.0
235.055771 7132.0
235.107285 208.0
235.190384 60.0
235.22702 168.0
235.339981 68.0
235.370514 144.0
235.480453 72.0
235.569031 48.0
235.749283 40.0
235.81041 88.0
235.899048 96.0
235.947968 64.0
236.064545 3364.0
236.11467 108.0
236.1698 72.0
236.21402 48.0
236.256836 52.0
236.37616 132.0
236.412888 96.0
236.565918 136.0
236.590408 116.0
236.654709 92.0
236.685318 128.0
236.731262 68.0
236.752686 104.0
236.803085 132.0
236.878265 68.0
236.918091 40.0
236.94873 60.0
236.970169 40.0
237.000809 68.0
237.072815 3600.0
237.160172 108.0
237.215332 32.0
237.598663 116.0
237.718323 120.0
237.859512 40.0
237.942398 112.0
238.072296 636.0
238.283295 172.0
238.304794 224.0
238.513779 72.0
238.587555 144.0
238.621368 152.0
238.719757 112.0
238.861237 56.0
238.931992 76.0
239.073029 172.0
239.175095 48.0
239.469955 156.0
239.673996 108.0
239.695557 108.0
239.824997 76.0
240.352341 156.0
240.552948 156.0
240.608521 208.0
240.648651 164.0
240.997665 156.0
241.526291 120.0
241.817139 228.0
243.081543 112.0
243.631088 64.0
243.789551 168.0
243.898331 64.0
244.277679 164.0
245.414413 88.0
245.826141 152.0
246.049973 788.0
246.13205 112.0
246.225739 100.0
246.322556 92.0
246.766327 176.0
247.056656 2464.0
247.539169 136.0
247.589279 316.0
247.836746 64.0
247.955811 68.0
248.015366 128.0
248.064148 1380.0
248.231689 44.0
248.319504 32.0
248.451233 144.0
248.639511 44.0
248.790161 72.0
248.871796 128.0
249.071518 3992.0
249.125366 92.0
249.154465 68.0
249.35556 196.0
249.462433 44.0
249.764297 104.0
249.886047 148.0
249.965652 64.0
250.075958 1552.0
250.182816 48.0
250.204849 128.0
250.541824 148.0
250.614288 96.0
250.655243 172.0
250.841187 160.0
250.986221 132.0
251.0327 160.0
251.088837 9624.0
251.13443 268.0
251.270081 48.0
251.295319 52.0
251.393127 116.0
251.573029 84.0
251.607758 36.0
251.696167 60.0
251.816162 84.0
251.841431 36.0
251.873016 88.0
252.005707 116.0
252.091858 1644.0
252.397629 92.0
252.538712 208.0
252.647491 248.0
252.79303 216.0
253.083664 264.0
253.47702 112.0
253.603775 100.0
253.803497 48.0
254.020004 104.0
254.314255 84.0
254.533295 164.0
254.733383 108.0
254.958969 56.0
255.087769 160.0
255.369095 128.0
257.9646 116.0
258.156433 120.0
258.373932 120.0
259.059021 168.0
259.177551 60.0
259.443573 112.0
259.539734 176.0
259.825195 64.0
260.067841 288.0
260.168152 88.0
260.341949 152.0
260.939606 124.0
261.06781 496.0
262.017761 88.0
262.069977 120.0
262.756042 156.0
262.827026 84.0
263.087708 248.0
264.082733 444.0
265.038666 60.0
265.101532 516.0
265.716309 76.0
266.092316 468.0
266.631989 52.0
267.11969 120.0
267.350708 228.0
267.568787 68.0
267.647369 140.0
268.823639 88.0
269.35257 56.0
269.764282 140.0
269.93103 192.0
270.421753 44.0
270.762238 96.0
271.332367 52.0
271.538971 104.0
272.586182 44.0
276.073944 144.0
276.722382 152.0
277.084412 200.0
277.152954 88.0
277.623657 104.0
277.864349 112.0
277.948761 96.0
278.054932 60.0
278.104553 420.0
278.224213 68.0
278.626068 156.0
278.772247 124.0
279.10611 3152.0
279.207764 84.0
279.430603 48.0
279.706818 60.0
279.879944 60.0
280.115143 172.0
280.239655 80.0
280.269653 72.0
280.326294 100.0
280.399597 44.0
280.679626 88.0
281.116608 168.0
281.771027 64.0
281.944794 88.0
282.469727 84.0
282.636993 96.0
283.946808 116.0
284.205109 128.0
284.272217 88.0
286.383484 152.0
286.474426 136.0
286.636139 52.0
287.047394 80.0
287.411682 96.0
287.999084 68.0
288.492432 152.0
290.097015 340.0
290.578583 128.0
290.619293 64.0
290.975677 140.0
291.110046 152.0
291.838654 112.0
292.109772 124.0
292.345459 120.0
292.406738 88.0
292.958313 68.0
293.036682 96.0
293.111359 148.0
293.147736 176.0
293.316132 188.0
293.414978 124.0
293.449066 44.0
293.670746 76.0
293.698029 100.0
293.75943 116.0
293.796936 176.0
293.828369 152.0
293.858337 224.0
293.960724 96.0
294.130859 17960.0
294.194 172.0
294.237183 36.0
294.27475 168.0
294.397675 44.0
294.513794 68.0
294.561615 56.0
294.595764 88.0
294.626495 44.0
294.759766 104.0
294.927216 80.0
295.029755 100.0
295.134888 2420.0
295.378571 76.0
295.4422 124.0
295.522247 84.0
295.772064 56.0
295.864502 84.0
296.128418 1372.0
296.217194 44.0
296.549561 92.0
296.73468 64.0
296.885559 92.0
297.017944 120.0
297.067322 60.0
297.128937 184.0
297.173676 124.0
297.211426 152.0
297.328094 32.0
297.420776 156.0
297.492859 36.0
297.915253 88.0
298.042358 156.0
298.152313 100.0
298.276062 140.0
298.365417 88.0
298.434174 140.0
298.468567 44.0
300.02478 52.0
300.386871 100.0
301.7164 88.0
304.811493 60.0
306.209961 72.0
306.945251 68.0
308.425507 116.0
308.519897 88.0
309.524017 60.0
311.89209 76.0
312.092468 44.0
312.197937 108.0
313.112946 92.0
314.360901 80.0
314.904572 56.0
315.766937 132.0
316.028717 96.0
318.790955 52.0
318.933105 88.0
320.342194 112.0
320.445496 140.0
321.286865 84.0
321.782959 76.0
322.222229 88.0
322.383026 68.0
322.57959 116.0
323.470306 52.0
323.586304 100.0
324.097046 140.0
324.154358 64.0
324.218872 152.0
326.124603 80.0
326.94101 52.0
328.703156 124.0
330.209595 92.0
333.112885 88.0
333.399933 108.0
334.458282 80.0
334.960785 80.0
336.978149 44.0
337.478882 140.0
339.734894 112.0
339.944031 88.0
340.612213 84.0
341.28476 96.0
341.90274 128.0
343.594025 136.0
343.896606 48.0
344.439362 60.0
344.867981 112.0
345.515106 116.0
345.800018 160.0
349.492371 144.0
350.72876 52.0
353.376434 108.0
354.544708 48.0
354.990814 52.0
356.954742 52.0
361.061432 108.0
361.261902 92.0
364.33255 52.0
364.655518 96.0
368.496613 72.0
369.352936 68.0
369.999634 52.0
372.980255 80.0
375.008667 56.0
375.752899 20.0
376.694855 44.0
377.363434 72.0
377.719208 88.0
378.570679 72.0
378.799194 44.0
383.021515 88.0
383.05658 100.0
383.208527 92.0
385.04187 112.0
387.682556 104.0
387.956909 36.0
393.729126 68.0
394.108337 56.0
394.408691 108.0
394.970154 32.0
395.472656 92.0
401.260437 64.0
401.435883 52.0
401.599396 40.0
403.676117 88.0
404.576324 88.0
405.273193 48.0
407.046112 48.0
407.106323 40.0
411.12796 68.0
412.190002 48.0
412.921692 76.0
414.78421 56.0
417.154785 100.0
417.28894 36.0
417.44751 68.0
419.454681 72.0
424.139038 80.0
428.284912 60.0
429.764862 72.0
431.206055 120.0
434.43576 32.0
442.365936 52.0
444.453064 56.0
444.482422 44.0
444.864349 56.0
449.110077 64.0
449.464447 128.0
450.667816 68.0
451.530151 44.0
452.376373 56.0
452.681213 88.0
455.000519 96.0
457.027832 96.0
457.789764 72.0
464.607117 48.0
469.954865 96.0
471.440277 76.0
475.5242 112.0
475.741211 56.0
475.940948 96.0
482.616119 52.0
485.260651 104.0
485.493042 96.0
486.515381 52.0
486.967651 52.0
487.820068 124.0
488.677643 96.0
493.613342 60.0
498.045105 80.0
498.347198 80.0
500.602356 76.0
500.851776 72.0
501.092316 108.0
502.960815 104.0
506.345398 80.0
506.757507 56.0
508.223663 48.0
509.440308 60.0
512.738464 80.0
516.852295 28.0
517.368225 116.0
520.04718 52.0
523.607117 88.0
525.681335 44.0
528.546387 76.0
528.994873 144.0
532.006653 64.0
543.698303 72.0
555.948608 84.0
561.30188 108.0
566.562317 108.0
581.698486 72.0
581.784912 64.0
583.096191 104.0
583.269226 92.0
585.140564 80.0
587.984497 108.0
593.630066 112.0
597.476868 68.0
599.044434 76.0
603.715271 76.0
603.954956 80.0
605.687683 76.0
612.136108 36.0
619.648804 104.0
619.832092 32.0
636.00061 72.0
643.713379 28.0
652.65686 140.0
659.661804 28.0
669.662354 48.0
678.296387 128.0
679.598083 36.0
680.667297 76.0
681.389282 108.0
684.921448 100.0
689.899658 64.0
690.004211 92.0
691.552551 64.0
693.113159 92.0
706.295776 104.0
707.518127 40.0
716.605164 60.0
718.071106 104.0
720.419678 28.0
723.478577 76.0
725.937866 100.0
731.972351 68.0
733.028137 60.0
733.691101 92.0
746.197205 80.0
748.231995 68.0
752.064148 104.0
766.222961 56.0
769.708801 152.0
770.509644 180.0
771.189331 120.0
773.102905 164.0
774.492554 108.0
776.559937 144.0
786.848877 108.0
787.144775 196.0
790.834534 36.0
791.730286 180.0
792.609741 76.0
797.194275 144.0
797.407837 188.0
798.301697 60.0
800.642761 232.0
808.959656 140.0
811.962646 68.0
814.033997 68.0
816.301331 176.0
817.456055 152.0
821.455627 128.0
821.957703 92.0
822.768188 188.0
823.076477 92.0
823.282043 52.0
825.139099 116.0
830.37854 216.0
832.232056 144.0
839.211243 116.0
839.303528 156.0
839.655273 68.0
841.865601 156.0
843.084534 144.0
845.449768 172.0
849.459167 156.0
854.76355 136.0
855.11853 100.0
855.968445 40.0
860.528076 76.0
864.192688 160.0
864.596436 160.0
866.399841 132.0
868.855713 180.0
869.801025 116.0
870.957764 168.0
874.379639 120.0
876.210876 100.0
878.498291 60.0
879.200378 160.0
882.8927 196.0
883.217957 172.0
884.052185 172.0
884.13501 200.0
885.105835 168.0
887.232849 228.0
892.279114 148.0
892.772583 124.0
894.9505 164.0
896.68396 36.0
897.780884 184.0
898.317688 188.0
898.371399 60.0
900.030579 220.0
902.70752 52.0
903.844055 216.0
906.364868 232.0
907.833496 76.0
908.001465 96.0
908.757263 216.0
909.933594 232.0
912.937927 240.0
918.358215 80.0
919.208862 100.0
919.395935 160.0
919.884827 276.0
923.074829 84.0
923.806641 148.0
924.817139 112.0
925.125854 156.0
925.779785 164.0
926.809509 192.0
928.191528 188.0
930.624634 80.0
931.681396 184.0
934.10083 52.0
936.072754 112.0
937.114319 132.0
939.784851 148.0
940.779602 148.0
941.005493 32.0
941.628357 172.0
943.076355 72.0
944.17688 160.0
944.462341 232.0
947.13916 224.0
947.92334 136.0
950.983582 212.0
951.456238 52.0
954.620544 128.0
954.74353 216.0
958.110413 200.0
958.171997 60.0
967.076477 200.0
969.9505 152.0
970.502197 160.0
975.356934 160.0
976.507202 212.0
979.28302 172.0
979.650574 152.0
981.283325 168.0
983.298157 40.0
985.777466 132.0
986.339905 120.0
987.315308 176.0
987.590454 56.0
992.50647 224.0
993.547607 120.0
994.470032 156.0
994.928284 76.0
995.449402 72.0
995.669189 232.0
998.785645 160.0
1000.687073 180.0
1000.768921 160.0
1001.537231 68.0
1003.036865 204.0
1004.266418 152.0
1006.746704 152.0
1007.953247 184.0
1008.52832 184.0
1009.090942 48.0
1009.286926 52.0
1009.818115 156.0
1011.694519 200.0
1011.874695 56.0
1012.44458 68.0
1015.239319 172.0
1016.159058 84.0
1021.088318 184.0
1021.86438 148.0
1022.850769 136.0
1023.409058 184.0
1024.423584 188.0
1026.482178 180.0
1027.860107 152.0
1029.596436 172.0
1031.321411 188.0
1035.223999 104.0
1035.87085 124.0
1036.774292 88.0
1037.299805 72.0
1038.60791 60.0
1038.800415 96.0
1039.692261 204.0
1040.160767 148.0
1040.385376 72.0
1042.627075 144.0
1046.525269 156.0
1046.821411 144.0
1048.303101 156.0
1048.792847 212.0
1051.469482 164.0
1055.4552 148.0
1056.709961 188.0
1059.328857 224.0
1059.467896 96.0
1061.470703 204.0
1062.586304 208.0
1062.735474 48.0
1063.734985 172.0
1065.105103 68.0
1065.319458 136.0
1065.644287 144.0
1065.806641 184.0
1066.88562 200.0
1067.347168 184.0
1067.464233 136.0
1067.873901 184.0
1070.926514 124.0
1072.092651 156.0
1072.542358 156.0
1072.744385 68.0
1074.589966 196.0
1074.661743 196.0
1075.112061 144.0
1075.386108 164.0
1075.435059 192.0
1076.104248 168.0
1079.233887 160.0
1079.292725 212.0
1079.809326 200.0
1082.040649 152.0
1083.101562 88.0
1085.205078 80.0
1085.513306 176.0
1085.74231 188.0
1087.822754 172.0
1088.118164 48.0
1088.275757 60.0
1088.735352 144.0
1091.567627 204.0
1092.488403 120.0
1093.179321 192.0
1093.580811 100.0
1094.30481 124.0
1095.490356 172.0
1096.676392 72.0
1098.113647 208.0
1099.710327 180.0
1100.231812 200.0
1101.559204 148.0
1104.414673 160.0
1106.042358 172.0
1106.492554 136.0
1107.134888 92.0
1107.697754 88.0
1109.553345 196.0
1109.900635 160.0
1110.899536 216.0
1111.085327 144.0
1111.931274 224.0
1113.125 176.0
1113.866821 184.0
1115.415039 136.0
1115.614502 132.0
1117.270386 176.0
1117.842529 124.0
1119.540039 68.0
1119.713257 216.0
1119.926392 180.0
1120.30603 204.0
1121.6521 136.0
1122.212036 228.0
1124.273193 172.0
1124.940674 160.0
1125.394653 80.0
1126.383057 208.0
1126.483276 132.0
1126.570068 96.0
1126.823975 176.0
1126.990967 104.0
1129.250488 84.0
1130.066528 176.0
1130.987549 208.0
1131.38501 168.0
1132.818115 184.0
1133.896851 176.0
1135.687012 80.0
1136.009033 164.0
1136.934937 56.0
1138.552856 180.0
1139.21106 52.0
1139.62085 168.0
1140.474365 104.0
1144.093262 200.0
1144.1875 176.0
1145.224609 248.0
1145.675903 44.0
1146.019409 204.0
1147.960693 252.0
1149.262573 48.0
1150.90271 160.0
1151.881958 160.0
1152.510254 112.0
1153.39563 176.0
1153.557861 156.0
1154.822266 232.0
1154.896729 156.0
1157.813721 120.0
1157.915283 196.0
1159.419312 116.0
1159.893677 132.0
1161.561768 64.0
1161.995972 132.0
1162.084229 204.0
1162.39624 72.0
1162.498047 200.0
1164.813232 116.0
1165.791626 144.0
1166.491699 140.0
1166.715942 80.0
1167.394531 212.0
1168.062378 120.0
1168.865234 184.0
1169.777222 68.0
1170.444458 168.0
1171.649902 168.0
1172.058716 184.0
1172.120117 156.0
1172.665283 204.0
1172.787964 140.0
1173.324219 264.0
1173.496948 124.0
1173.735596 220.0
1174.929077 196.0
1177.393188 52.0
1177.946411 208.0
1178.74585 148.0
1180.05127 156.0
1180.666748 232.0
1180.912964 156.0
1181.227539 200.0
1183.369629 144.0
1183.520264 136.0
1184.27356 168.0
1186.151001 104.0
1186.569092 220.0
1186.87085 188.0
1188.324829 156.0
1188.684814 132.0
1189.340576 152.0
1189.690552 156.0
1190.150635 88.0
1193.091187 36.0
1193.208008 168.0
1195.938965 176.0
1196.241821 168.0
1197.081787 144.0
1197.391724 200.0
1199.431152 200.0
1199.94812 204.0
1200.644653 144.0
1200.754883 132.0
1201.499878 68.0
1201.679321 152.0
1201.88623 168.0
1201.941528 48.0
1202.279663 204.0
1202.348633 224.0
1203.066406 200.0
1203.418579 156.0
1204.88269 220.0
1205.974487 80.0
1207.523315 196.0
1208.194214 152.0
1208.616211 100.0
1209.1698 144.0
1209.626709 64.0
1209.799683 144.0
1210.007446 96.0
1211.039185 152.0
1211.177734 188.0
1211.614136 60.0
1214.116455 152.0
1215.448242 252.0
1215.949951 164.0
1217.47522 164.0
1217.940552 156.0
1218.406006 140.0
1220.644043 196.0
1222.828491 200.0
1223.078979 200.0
1224.179077 176.0
1224.861572 140.0
1225.976318 168.0
1228.332886 196.0
1229.83313 324.0
1230.168213 252.0
1230.600952 76.0
1230.712769 212.0
1231.763184 156.0
1232.319092 172.0
1234.590942 280.0
1235.227417 244.0
1236.255859 120.0
1236.507812 128.0
1236.927734 188.0
1237.004761 212.0
1237.522827 104.0
1238.139038 108.0
1238.860474 60.0
1239.00061 44.0
1239.807129 172.0
1240.107666 128.0
1240.303955 144.0
1240.752563 176.0
1241.082153 192.0
1242.428711 48.0
1243.172485 204.0
1243.242676 112.0
1244.049805 112.0
1244.61853 160.0
1244.681641 172.0
1246.599365 232.0
1246.98584 172.0
1247.210815 188.0
1247.365479 200.0
1247.574097 212.0
1247.766113 192.0
1249.615845 164.0
1250.776978 96.0
1251.009277 132.0
1251.875366 196.0
1252.565552 136.0
1253.136108 148.0
1253.585815 168.0
1254.538574 68.0
1254.609131 76.0
1255.412964 36.0
1255.575073 136.0
1255.744385 156.0
1256.5979 180.0
1256.730103 136.0
1256.973511 192.0
1259.11084 240.0
1259.577026 136.0
1260.297607 148.0
1260.990112 172.0
1261.265747 188.0
1261.575195 172.0
1261.682861 128.0
1262.637451 56.0
1263.684326 180.0
1264.441528 180.0
1264.689209 184.0
1265.375854 64.0
1266.629272 180.0
1266.990601 196.0
1267.089722 100.0
1267.203125 76.0
1267.288208 204.0
1268.18811 172.0
1268.379517 208.0
1269.138062 52.0
1269.435913 80.0
1269.86853 160.0
1270.599121 32.0
1271.074463 120.0
1271.159668 152.0
1272.053955 152.0
1272.501099 212.0
1272.685791 220.0
1273.097656 172.0
1273.573486 128.0
1274.134644 152.0
1274.269653 180.0
1274.361938 176.0
1275.491943 84.0
1277.924072 108.0
1280.130615 224.0
1281.177612 120.0
1281.491089 132.0
1282.873657 96.0
1283.729248 128.0
1284.093018 164.0
1284.228516 136.0
1285.284302 176.0
1285.869507 196.0
1286.055054 148.0
1287.083008 120.0
1287.175903 200.0
1288.161499 96.0
1288.390137 108.0
1288.790161 208.0
1289.569092 176.0
1289.797852 192.0
1289.927002 240.0
1290.562744 188.0
1291.034668 156.0
1291.485229 264.0
1291.914429 200.0
1292.24353 64.0
1292.959106 140.0
1293.18103 228.0
1294.083008 108.0
1294.634277 128.0
1294.784668 200.0
1295.307617 124.0
1296.382324 188.0
1296.962769 168.0
1298.482788 200.0
1298.561646 144.0
1298.662109 76.0
1300.434326 228.0
1300.735718 136.0
1302.085571 160.0
1303.407349 76.0
1303.536743 64.0
1303.996704 248.0
1304.276978 120.0
1304.334473 176.0
1304.902344 204.0
1305.312256 144.0
1305.44165 124.0
1306.678833 248.0
1306.786743 80.0
1306.837158 124.0
1307.671875 216.0
1308.254883 104.0
1308.99646 152.0
1309.36377 140.0
1310.213745 144.0
1310.782959 152.0
1311.770264 112.0
1312.422241 224.0
1312.700317 172.0
1313.85437 112.0
1314.12854 120.0
1314.236816 184.0
1315.398682 196.0
1315.499756 176.0
1316.178345 176.0
1316.481689 148.0
1316.655029 80.0
1316.929443 188.0
1318.487061 236.0
1319.191162 164.0
1319.379028 132.0
1320.239502 104.0
1321.143677 216.0
1321.244873 36.0
1321.845459 48.0
1323.691284 196.0
1324.024414 144.0
1326.901123 156.0
1326.966309 268.0
1327.416138 192.0
1328.337036 172.0
1329.105957 188.0
1330.463257 192.0
1331.508789 124.0
1331.719482 200.0
1332.087402 160.0
1332.191528 148.0
1332.344116 196.0
1333.535889 224.0
1333.746582 180.0
1335.375244 132.0
1336.109985 204.0
1337.594482 112.0
1337.96582 168.0
1338.028442 104.0
1338.307983 172.0
1339.516846 152.0
1339.946655 144.0
1341.302124 200.0
1341.7323 128.0
1342.293701 156.0
1343.482544 200.0
1343.599243 148.0
1344.569702 132.0
1344.949219 204.0
1345.029541 204.0
1345.350708 140.0
1346.234131 208.0
1346.738159 212.0
1347.234863 196.0
1347.636597 176.0
1347.88501 168.0
1348.396606 160.0
1348.592407 188.0
1349.902588 96.0
1351.263062 156.0
1352.734009 188.0
1352.814575 212.0
1353.056152 180.0
1353.495361 168.0
1353.773682 200.0
1353.890869 184.0
1353.993408 140.0
1354.718506 188.0
1355.319214 108.0
1355.443848 172.0
1356.074097 240.0
1356.865723 156.0
1356.990356 32.0
1357.401001 160.0
1357.921631 200.0
1358.097656 88.0
1358.149048 224.0
1358.80188 44.0
1359.293579 228.0
1359.39624 160.0
1359.645752 148.0
1360.805542 68.0
1360.945068 140.0
1361.378296 220.0
1361.855713 64.0
1364.199707 124.0
1364.640747 56.0
1364.773071 124.0
1365.015747 140.0
1365.523193 256.0
1366.729614 172.0
1366.979858 144.0
1367.112305 160.0
1367.65686 128.0
1368.687622 112.0
1368.768555 100.0
1370.374268 124.0
1370.477417 212.0
1371.560791 48.0
1371.84082 132.0
1371.966187 168.0
1372.202148 192.0
1372.303833 140.0
1372.408569 40.0
1372.622925 152.0
1373.654907 116.0
1373.750732 108.0
1373.968506 172.0
1374.127075 180.0
1374.540283 140.0
1375.746094 232.0
1375.798584 176.0
1376.688354 204.0
1377.493408 172.0
1377.670654 408.0
1379.488525 200.0
1379.703003 172.0
1379.865601 44.0
1380.479492 148.0
1381.004395 168.0
1381.248535 100.0
1381.407227 204.0
1382.41748 232.0
1382.831909 192.0
1383.002075 144.0
1383.670898 260.0
1383.727539 120.0
1383.794189 188.0
1385.497559 236.0
1385.579102 196.0
1385.653198 88.0
1386.935181 144.0
1387.202026 104.0
1387.409668 100.0
1387.654297 196.0
1387.780273 196.0
1387.995361 200.0
1388.803711 144.0
1389.196777 152.0
1389.473267 164.0
1389.523193 212.0
1390.539795 88.0
1391.155762 236.0
1391.809204 168.0
1391.942871 200.0
1392.106323 176.0
1392.707886 160.0
1393.012451 112.0
1393.30957 136.0
1393.406494 164.0
1393.785034 256.0
1394.528198 116.0
1395.888672 128.0
1396.111816 160.0
1396.929932 80.0
1397.212646 184.0
1398.157593 156.0
1400.363037 196.0
1400.629395 88.0
1401.53833 208.0
1401.709717 128.0
1401.78418 272.0
1402.708374 152.0
1403.237671 56.0
1403.722412 204.0
1404.154907 156.0
1404.207153 144.0
1404.36377 96.0
1404.766479 132.0
1405.266357 272.0
1405.699097 180.0
1406.445435 176.0
1406.997803 136.0
1407.087402 140.0
1407.453247 160.0
1407.632446 176.0
1408.909668 160.0
1409.567139 120.0
1409.843628 196.0
1410.322021 172.0
1410.479004 180.0
1411.622803 148.0
1412.251099 144.0
1412.520264 108.0
1412.587646 84.0
1413.365723 220.0
1414.435913 32.0
1414.720337 84.0
1415.229492 248.0
1415.28186 52.0
1415.349243 196.0
1415.888428 188.0
1415.993286 124.0
1416.2854 48.0
1416.7948 44.0
1416.959595 152.0
1418.286011 104.0
1418.360962 152.0
1418.908203 148.0
1419.215576 200.0
1419.62793 216.0
1420.017944 192.0
1420.227905 108.0
1420.648071 148.0
1421.480835 36.0
1421.848511 188.0
1422.328857 172.0
1422.651733 220.0
1422.726807 52.0
1422.974487 148.0
1423.04541 136.0
1424.781616 172.0
1425.701172 192.0
1425.821411 112.0
1427.730957 196.0
1428.829102 216.0
1429.340698 144.0
1429.393433 160.0
1430.740723 160.0
1431.087036 132.0
1431.177368 128.0
1432.209106 44.0
1432.352173 144.0
1432.743896 188.0
1433.21106 208.0
1433.557617 132.0
1434.024902 180.0
1434.740967 148.0
1434.838989 160.0
1435.027466 152.0
1435.163208 268.0
1436.845093 196.0
1437.22229 80.0
1437.380859 204.0
1437.516602 104.0
1439.30603 156.0
1439.532104 132.0
1439.728516 156.0
1440.786011 196.0
1440.884155 144.0
1440.974854 184.0
1441.473511 160.0
1441.549072 192.0
1441.9646 196.0
1442.130981 156.0
1442.554321 260.0
1442.690308 200.0
1442.743286 156.0
1442.909668 172.0
1443.023071 208.0
1443.136475 124.0
1443.317383 188.0
1444.399414 124.0
1444.516479 256.0
1444.633911 128.0
1444.86084 232.0
1444.936523 64.0
1445.322388 184.0
1445.48877 88.0
1446.313721 156.0
1446.412109 52.0
1446.825684 228.0
1446.957153 128.0
1447.244873 176.0
1448.024902 188.0
1449.009766 160.0
1449.343018 172.0
1451.328857 132.0
1451.518433 172.0
1451.768677 208.0
1451.900635 236.0
1452.125122 220.0
1452.5802 180.0
1452.853271 108.0
1453.520996 120.0
1453.642334 192.0
1453.703125 164.0
1453.771362 212.0
1453.856445 208.0
1454.515137 80.0
1455.312256 124.0
1455.524902 172.0
1455.638794 52.0
1456.36792 180.0
1457.332642 196.0
1457.849365 184.0
1458.677734 192.0
1458.867798 216.0
1459.057861 232.0
1459.164307 148.0
1459.331543 196.0
1459.58252 92.0
1459.658569 132.0
1460.023071 124.0
1461.922241 180.0
1462.420166 144.0
1462.519043 52.0
1463.562012 164.0
1464.156006 132.0
1465.062378 160.0
1465.961426 132.0
1466.167236 176.0
1467.508789 140.0
1468.256104 160.0
1468.355225 44.0
1469.026489 164.0
1469.095093 136.0
1469.186646 272.0
1469.50708 220.0
1469.758911 136.0
1469.819946 52.0
1470.102295 100.0
1470.216675 412.0
1470.277832 188.0
1471.27002 188.0
1471.728149 188.0
1471.793091 232.0
1471.995361 160.0
1472.155762 176.0
1472.461182 124.0
1473.706421 200.0
1473.874512 204.0
1473.927979 80.0
1474.715088 208.0
1474.783936 228.0
1474.87561 132.0
1477.835205 88.0
1478.470215 164.0
1478.669189 148.0
1478.791748 144.0
1480.016602 192.0
1481.716919 136.0
1481.914429 192.0
1483.310791 172.0
1483.824463 116.0
1484.077515 156.0
1485.548706 216.0
1485.864502 148.0
1486.248169 152.0
1486.585693 180.0
1486.777588 212.0
1486.969482 60.0
1487.046265 184.0
1487.529785 68.0
1488.320557 184.0
1488.481812 212.0
1488.604614 140.0
1489.518555 124.0
1489.741333 100.0
1489.825928 176.0
1491.10144 164.0
1491.408813 184.0
1492.546631 176.0
1493.323364 56.0
1493.438721 220.0
1493.60791 184.0
1493.830933 36.0
1493.907959 124.0
1493.992554 204.0
1494.138672 200.0
1494.492554 148.0
1494.577271 176.0
1494.969727 148.0
1496.285889 148.0
1497.009644 128.0
1497.394775 64.0
1497.949341 200.0
1498.026367 156.0
1499.043335 128.0
1499.436401 216.0
1499.906494 136.0
1500.037598 136.0
1500.281616 244.0
1500.546387 176.0
1500.746826 132.0
1501.08606 176.0
1501.317505 180.0
1502.088745 180.0
1502.613281 132.0
1502.843872 168.0
1503.145752 132.0
1503.84021 128.0
1504.233887 148.0
