>compound MLS002153784-01!Bambuterol hydrochloride81732-46-9
>formula C18H29N3O5
>ionization [M+H]+
>parentmass 368.217285
#inchi InChI=1S/C18H29N3O5/c1-18(2,3)19-11-15(22)12-8-13(25-16(23)20(4)5)10-14(9-12)26-17(24)21(6)7/h8-10,15,19,22H,11H2,1-7H3
#inchikey ANZXOIAKUNOVQU
#origInchi InChI=1S/C18H29N3O5.ClH/c1-18(2,3)19-11-15(22)12-8-13(25-16(23)20(4)5)10-14(9-12)26-17(24)21(6)7;/h8-10,15,19,22H,11H2,1-7H3;1H
#Ion_Source LC-ESI
#Instrument qTof
#Compound_Source NIH Pharmacologically Active Library
#PI Dorrestein
#Data_Collector VP/LMS
#Scan -1
#Precursor_MZ 368.21
#ExactMass 367.211
#Charge 1
#CAS_Number N/A
#Pubmed_ID N/A
#Smiles CN(C)C(=O)Oc1cc(OC(=O)N(C)C)cc(c1)C(O)CNC(C)(C)C.Cl
#INCHI_AUX N/A
#Library_Class 1
#SpectrumID CCMSLIB00000085365
#IonMode Positive
#UpdateWorkflowName UPDATE-SINGLE-ANNOTATED-GOLD
#LibraryQualityString Gold
#TaskID d252d724072548979f1f6f1ced849daf
##Scan# 1442
#SpectrumFile p3-H09_GH9_01_18314.mzXML
#LibraryName Pharm_Active_Library.mgf
#MQScore -1
#Organism Pharm_Active_Library
#TIC_Query 0
#RT_Query -1
#MZErrorPPM -1
#SharedPeaks 0
#MassDiff 0
#LibMZ -1
#SpecMZ 368.21
#SpecCharge 0
#internalFilename spec-00000.mgf

>collision 10
44.919094 144.0
45.056602 104.0
45.219753 136.0
45.513355 44.0
45.801174 164.0
46.706791 196.0
46.919239 172.0
46.94651 48.0
47.525169 188.0
47.882607 176.0
48.429581 140.0
48.72646 144.0
48.925346 124.0
49.067459 40.0
49.158131 200.0
49.434837 88.0
49.530045 180.0
49.586094 108.0
49.90477 176.0
50.107456 68.0
51.178288 164.0
51.299393 180.0
51.61351 192.0
51.832527 116.0
52.254688 164.0
52.348251 140.0
52.41452 180.0
52.633785 48.0
53.292873 124.0
53.664043 124.0
53.688835 196.0
53.900517 168.0
54.441086 188.0
55.356918 48.0
56.455231 136.0
57.653465 104.0
57.786537 144.0
57.939461 120.0
57.963703 220.0
58.145691 104.0
58.806263 112.0
59.60265 208.0
59.644146 60.0
59.730259 176.0
59.913456 148.0
61.02631 104.0
61.230171 124.0
61.746788 232.0
63.17511 220.0
63.251072 160.0
63.445927 132.0
63.833359 68.0
64.328888 172.0
64.373596 124.0
65.576897 164.0
65.807587 156.0
66.554047 120.0
66.5979 132.0
66.900368 40.0
67.404366 124.0
68.258438 172.0
69.038475 116.0
69.217201 96.0
69.827934 136.0
69.851486 128.0
71.538116 208.0
71.720047 48.0
72.098129 144.0
72.274002 152.0
72.346779 128.0
72.867455 132.0
73.229805 36.0
73.700661 196.0
73.936661 184.0
74.217606 116.0
74.693344 112.0
74.887856 144.0
74.980896 132.0
75.300087 176.0
76.36779 152.0
76.385185 152.0
76.49308 140.0
76.78756 236.0
77.007477 76.0
77.280197 248.0
77.369461 144.0
78.127632 136.0
78.252594 124.0
78.38118 132.0
78.815269 144.0
80.923119 136.0
81.979355 252.0
82.661987 160.0
83.013428 132.0
83.27478 184.0
83.52198 116.0
83.840614 152.0
84.125168 220.0
84.503487 132.0
85.110199 148.0
86.169312 156.0
86.741173 116.0
87.132759 136.0
88.168831 56.0
88.623566 220.0
88.9011 192.0
89.44429 172.0
90.679626 176.0
91.730789 84.0
92.236664 116.0
92.59639 212.0
92.625122 128.0
93.033592 108.0
94.672348 200.0
95.089424 168.0
95.268066 156.0
95.314697 148.0
95.386612 188.0
96.001884 232.0
96.222382 224.0
96.386459 72.0
96.574142 128.0
96.843246 208.0
98.05542 116.0
98.352432 108.0
99.737038 184.0
101.738731 132.0
102.400307 164.0
103.671112 204.0
103.99968 152.0
104.660416 176.0
105.370224 204.0
105.900055 92.0
106.234184 128.0
106.5709 152.0
107.71846 72.0
107.765976 104.0
107.827972 120.0
107.898254 124.0
108.072319 128.0
108.334938 160.0
108.519394 168.0
108.728912 44.0
108.988495 144.0
109.038376 148.0
109.394066 180.0
110.374687 68.0
110.646698 140.0
112.511566 140.0
113.436066 324.0
113.769127 116.0
113.888046 96.0
114.419693 240.0
114.833099 144.0
114.890694 172.0
116.051109 172.0
116.094955 132.0
117.307655 232.0
117.849373 148.0
118.026619 224.0
118.329544 40.0
119.201523 120.0
120.08107 52.0
120.419373 164.0
121.299004 104.0
122.067459 108.0
123.771034 172.0
124.116714 168.0
124.263107 200.0
124.351875 136.0
124.813965 128.0
125.207863 100.0
125.948372 88.0
126.066788 256.0
126.127136 168.0
126.379852 88.0
127.307899 204.0
127.53257 192.0
128.079361 180.0
129.142502 52.0
129.776611 212.0
130.273651 172.0
130.391815 136.0
131.111008 164.0
131.35498 184.0
131.770477 136.0
132.035645 140.0
132.35997 72.0
133.085205 164.0
133.156403 144.0
133.264908 84.0
133.802567 208.0
133.873947 140.0
134.519547 112.0
135.069534 168.0
135.099609 200.0
135.585876 140.0
136.772766 220.0
137.012619 168.0
137.663406 112.0
139.615585 188.0
139.982712 132.0
141.176834 200.0
142.03186 160.0
142.214569 80.0
142.970367 96.0
144.055267 120.0
144.511917 84.0
145.105911 232.0
145.146667 100.0
146.088196 176.0
147.324921 168.0
148.023941 120.0
148.195923 76.0
148.448013 168.0
148.838715 156.0
149.045181 84.0
149.585114 84.0
149.706848 128.0
150.819412 184.0
150.971008 140.0
151.703125 76.0
151.977814 152.0
152.626282 80.0
153.187439 132.0
153.542389 72.0
154.671555 128.0
155.219101 64.0
156.200134 144.0
157.111923 164.0
158.113937 60.0
158.349274 232.0
158.374329 168.0
158.858124 172.0
159.624191 152.0
160.038712 212.0
160.525711 180.0
161.584076 68.0
162.029678 192.0
162.207077 152.0
162.255249 224.0
162.524094 124.0
163.324371 192.0
163.627213 152.0
163.70105 188.0
164.075607 152.0
164.292389 160.0
164.629318 60.0
164.851578 56.0
165.048416 36.0
165.631927 160.0
166.086411 188.0
167.175018 140.0
167.978897 144.0
168.182755 144.0
168.286026 108.0
168.629608 188.0
168.650284 136.0
168.782135 52.0
168.810577 136.0
170.493088 136.0
171.255417 160.0
171.899368 184.0
173.222351 108.0
173.584045 160.0
174.324341 236.0
174.503082 112.0
175.118881 64.0
175.142578 108.0
176.076294 108.0
176.187241 124.0
176.327286 136.0
176.650696 128.0
176.991302 168.0
177.028366 176.0
177.073395 156.0
177.099884 104.0
177.587585 216.0
178.054382 156.0
178.14769 188.0
178.863022 52.0
179.537048 132.0
179.689163 168.0
179.85463 140.0
180.09227 104.0
180.3862 216.0
180.474426 192.0
180.760651 48.0
180.779388 176.0
181.634079 140.0
181.795059 160.0
182.442398 72.0
183.074722 180.0
183.81337 148.0
184.645447 176.0
185.514633 112.0
185.823822 76.0
185.926941 144.0
186.011078 152.0
186.578857 160.0
187.774292 188.0
188.058884 168.0
189.959824 112.0
190.250717 184.0
190.297379 132.0
190.662735 204.0
192.061798 408.0
192.207657 176.0
192.309769 148.0
192.356689 136.0
193.144241 220.0
193.800369 160.0
194.077805 92.0
194.116379 144.0
195.661285 104.0
196.009445 108.0
196.196198 236.0
196.316086 180.0
196.86586 48.0
197.181564 192.0
198.631973 136.0
199.364792 152.0
200.352448 128.0
201.03038 128.0
201.390549 160.0
201.495071 192.0
201.868179 64.0
202.071854 88.0
202.102966 128.0
202.910202 128.0
202.975418 140.0
203.230713 100.0
203.483322 176.0
203.667908 228.0
204.032303 384.0
204.471954 56.0
204.501022 112.0
204.936737 172.0
204.996582 120.0
205.099457 460.0
205.161896 160.0
205.424271 108.0
205.447083 160.0
205.566925 76.0
206.08017 552.0
206.11235 228.0
206.418213 180.0
206.95903 204.0
206.99913 132.0
207.087158 108.0
207.094604 164.0
207.133743 120.0
207.311371 36.0
207.641068 188.0
208.11792 168.0
208.341476 176.0
208.442032 172.0
208.810013 224.0
209.509506 152.0
209.670868 112.0
211.710541 116.0
212.000244 176.0
212.113281 80.0
212.15387 144.0
213.312164 88.0
214.298767 188.0
214.508606 84.0
215.0103 188.0
215.273041 68.0
215.495041 104.0
216.164658 92.0
216.34906 144.0
216.48082 168.0
216.721024 200.0
216.832382 172.0
216.949631 168.0
217.480591 208.0
217.824142 64.0
218.388519 36.0
218.65332 212.0
220.12146 112.0
220.230743 176.0
221.126633 100.0
221.434555 184.0
222.686203 176.0
222.843643 168.0
223.11113 144.0
223.637665 156.0
223.953278 116.0
224.146927 360.0
224.594131 144.0
224.617996 100.0
224.907455 176.0
225.280716 148.0
225.869629 152.0
226.306564 180.0
226.651031 172.0
226.776901 68.0
227.277725 108.0
227.334747 100.0
227.833191 168.0
228.19986 132.0
228.329163 168.0
228.807617 132.0
229.072632 140.0
229.732834 180.0
230.372833 200.0
230.403046 76.0
231.392029 124.0
232.055069 144.0
232.079819 172.0
233.056274 236.0
233.130844 136.0
233.470627 88.0
233.543625 148.0
233.640976 80.0
233.957474 200.0
234.120422 144.0
236.093414 112.0
236.555435 132.0
237.033234 116.0
237.124878 164.0
237.24472 128.0
237.471634 160.0
237.910202 208.0
238.063965 136.0
238.128464 188.0
239.226227 124.0
239.497208 156.0
239.709793 48.0
239.808411 60.0
240.132156 156.0
242.159317 120.0
242.478851 116.0
243.776108 180.0
244.556747 212.0
244.718628 44.0
245.712875 192.0
245.762802 176.0
246.924911 184.0
247.259689 116.0
247.572754 128.0
247.798294 192.0
247.933029 72.0
248.080353 164.0
249.018585 48.0
249.085968 3936.0
249.175659 164.0
249.21022 52.0
249.320206 72.0
249.634583 84.0
249.662888 228.0
250.087051 744.0
250.155594 144.0
250.311157 184.0
250.405853 112.0
250.487534 88.0
250.629303 84.0
250.963425 100.0
251.092407 176.0
251.138718 3848.0
251.480804 156.0
251.569183 64.0
251.746002 48.0
251.888138 152.0
252.042938 76.0
252.144333 408.0
252.966476 100.0
253.127548 192.0
253.149734 136.0
253.571472 112.0
253.641205 96.0
254.066147 52.0
254.434296 132.0
254.828125 160.0
255.06012 176.0
256.183441 84.0
257.264557 192.0
258.546295 152.0
258.683929 168.0
258.856842 172.0
259.27652 156.0
259.343811 96.0
259.440002 128.0
262.917145 100.0
262.965576 152.0
264.445892 244.0
264.497681 84.0
265.343201 104.0
265.641571 176.0
266.911499 108.0
267.11261 148.0
267.835785 112.0
268.096436 76.0
268.151855 112.0
268.751892 132.0
269.529022 140.0
269.564972 124.0
271.325958 208.0
271.463684 96.0
271.703125 204.0
272.028015 164.0
272.793427 140.0
273.86618 168.0
274.594604 224.0
274.855225 240.0
274.997131 152.0
275.694 68.0
277.117004 1368.0
277.239502 156.0
277.308838 264.0
277.5047 220.0
277.571014 120.0
278.121552 336.0
278.792664 48.0
278.928925 68.0
279.125092 264.0
279.733948 40.0
279.943695 96.0
280.113586 28.0
280.140228 132.0
283.508301 144.0
283.538452 108.0
283.56192 64.0
283.930725 172.0
285.125916 104.0
285.169617 112.0
286.606628 100.0
287.68927 104.0
288.838257 20.0
289.108917 144.0
289.809875 40.0
289.840393 124.0
289.969147 196.0
290.277679 88.0
290.711884 132.0
290.742432 136.0
290.89856 192.0
291.132843 84.0
291.316284 108.0
291.431793 188.0
291.554626 164.0
291.581299 128.0
291.941681 208.0
291.967255 208.0
292.087921 40.0
292.309509 96.0
292.339722 156.0
292.363525 156.0
292.434998 144.0
292.646057 100.0
292.751617 32.0
292.782288 268.0
292.826569 96.0
292.866333 160.0
293.05661 96.0
293.112732 52.0
293.160431 192.0
293.211548 124.0
293.252472 260.0
293.355072 296.0
293.444214 132.0
293.476105 120.0
293.637726 192.0
293.695709 116.0
293.74585 172.0
293.806793 128.0
293.887848 332.0
293.937958 236.0
293.99527 40.0
294.042328 348.0
294.0914 120.0
294.145447 69272.0
294.241058 160.0
294.264587 52.0
294.291016 120.0
294.377899 32.0
294.407867 160.0
294.453461 72.0
294.495514 64.0
294.550781 136.0
294.619171 108.0
294.636536 60.0
294.706055 216.0
294.753448 64.0
294.798492 44.0
294.822418 40.0
294.860016 60.0
294.890778 96.0
294.915009 92.0
294.973114 188.0
295.008148 136.0
295.147949 7260.0
295.223816 148.0
295.252899 48.0
295.284698 56.0
295.372894 72.0
295.461853 44.0
295.531891 128.0
295.646637 52.0
295.701385 156.0
295.730927 120.0
295.778656 56.0
295.906769 100.0
295.94223 112.0
295.995819 80.0
296.047729 76.0
296.086487 92.0
296.15152 1776.0
296.286957 72.0
296.315979 84.0
296.454834 48.0
296.492554 68.0
296.546387 96.0
296.578217 92.0
296.633087 112.0
296.674225 144.0
296.734711 56.0
296.790771 72.0
296.914246 92.0
296.948547 120.0
296.996948 108.0
297.034302 80.0
297.082306 132.0
297.110504 112.0
297.146912 184.0
297.18866 52.0
297.219543 76.0
297.253876 60.0
297.296448 68.0
297.353394 124.0
297.476959 228.0
297.645203 72.0
297.686401 28.0
297.731049 44.0
297.913086 132.0
297.935822 100.0
297.981812 48.0
298.009308 56.0
298.187988 88.0
298.229248 84.0
298.352997 68.0
298.43338 84.0
298.531799 96.0
299.106384 64.0
299.164886 56.0
299.598816 32.0
299.777985 56.0
300.32962 64.0
302.285126 196.0
303.286041 92.0
304.417084 112.0
304.799194 72.0
308.486694 112.0
308.644043 44.0
308.990295 72.0
309.214264 96.0
309.308777 80.0
311.107117 164.0
311.943207 64.0
312.151764 1300.0
312.579834 56.0
312.720612 116.0
312.780426 104.0
313.15271 204.0
313.166229 264.0
314.168884 132.0
319.821045 76.0
320.280396 124.0
329.276276 76.0
334.690613 128.0
340.16748 116.0
344.346771 44.0
349.879425 80.0
350.199402 164.0
359.705414 100.0
359.848877 72.0
366.738129 88.0
368.217285 152.0
379.381714 80.0
391.172028 168.0
391.262573 72.0
395.379669 76.0
417.165894 56.0
466.489014 128.0
468.968445 56.0
473.150085 92.0
477.885284 96.0
482.591614 52.0
513.124634 36.0
524.845642 88.0
551.85022 68.0
578.674866 128.0
608.063416 40.0
615.092224 56.0
615.190979 88.0
615.655151 48.0
620.063232 128.0
625.407593 88.0
713.967224 52.0
724.707703 84.0
780.252258 48.0
879.139465 60.0
881.596191 40.0
885.01532 140.0
981.684875 68.0
1085.238403 20.0
1090.299683 108.0
1106.805176 108.0
1158.433716 84.0
1171.729248 68.0
1176.503296 224.0
1187.952637 52.0
1287.092651 36.0
1358.628052 124.0
1394.795532 152.0
1421.309082 196.0
1445.520996 48.0
1447.595215 88.0
1450.315186 72.0
1452.954102 48.0
1470.31897 188.0
1479.269653 44.0
1496.15918 72.0
