>compound Orlistat
>formula C29H53NO5 
>ionization [M+H]+
>parentmass 496.4
#inchi InChI=1S/C29H53NO5/c1-5-7-9-11-12-13-14-15-16-18-24(34-29(33)26(30-22-31)20-23(3)4)21-27-25(28(32)35-27)19-17-10-8-6-2/h22-27H,5-21H2,1-4H3,(H,30,31)/t24-,25-,26-,27-/m0/s1
#inchikey AHLBNYSZXLDEJQ
#Ion_Source LC-ESI
#Instrument qTof
#Compound_Source Isolated
#PI Sirenas
#Data_Collector Ed Esquenazi 
#Scan -1
#Precursor_MZ 496.4
#ExactMass 0.0
#Charge 1
#CAS_Number N/A
#Pubmed_ID N/A
#Smiles N/A
#INCHI_AUX N/A
#Library_Class 3
#SpectrumID CCMSLIB00000005927
#IonMode Positive
#UpdateWorkflowName UPDATE-SINGLE-ANNOTATED-BRONZE
#LibraryQualityString Bronze
#TaskID d19310cd93df49b68e9fcbec27720eb5
##Scan# 6
#SpectrumFile Orlistat.mgf
#LibraryName fda_library.mgf
#MQScore -1
#Organism fda_library
#TIC_Query 0
#RT_Query -1
#MZErrorPPM -1
#SharedPeaks 0
#MassDiff 0
#LibMZ -1
#SpecMZ 496.4
#SpecCharge 0
#internalFilename spec-00000.mgf

>collision 10
105.068489 89.950661
107.08519 63.75584
109.066322 32.682629
109.101616 338.817291
109.351265 39.488701
109.422043 12.16667
111.113785 115.172302
111.120499 12.16964
113.581215 21.40741
113.933525 13.38007
114.091766 1001.258972
114.160255 16.96314
114.320137 12.5
114.447769 11.48098
115.270515 14.0
119.089836 108.1614
121.097099 78.809921
122.21476 27.640829
123.080673 91.10656
123.117683 80.84951
125.093102 24.018141
125.134048 24.92045
132.099121 105.038101
132.398758 14.00781
133.100891 125.463203
137.13092 45.89172
147.111282 29.705
151.144409 124.126999
175.147491 60.500599
179.142914 82.849922
183.135681 72.302887
189.164307 140.932495
193.15303 22.875
193.195435 207.638596
217.196854 24.5625
