>compound NCGC00160137-01!2-[2-(3,4-Dimethoxy-phenyl)-ethyl]-6-(4-methoxy-phenyl)-2,3,6,7,12,12a-hexahydro-pyrazino[1',2':1,6]pyrido[3,4-b]indole-1,4-dione
>formula C31H31N3O5
>ionization [M+H]+
>parentmass 526.234
#inchi InChI=1S/C31H31N3O5/c1-37-21-11-9-20(10-12-21)30-29-23(22-6-4-5-7-24(22)32-29)17-25-31(36)33(18-28(35)34(25)30)15-14-19-8-13-26(38-2)27(16-19)39-3/h4-13,16,25,30,32H,14-15,17-18H2,1-3H3/t25-,30?/m1/s1
#inchikey SVKSSWZXLVXEJI
#Ion_Source LC-ESI
#Instrument qTOF
#Compound_Source Prestwick Phytochem Lib
#PI Dorrestein
#Data_Collector VVP/LMS
#Scan -1
#Precursor_MZ 526.234
#ExactMass 525.226
#Charge 1
#CAS_Number N/A
#Pubmed_ID N/A
#Smiles COC1=CC=C(C=C1)C2[N@]3[C@H](CC4=C2NC5=CC=CC=C45)C(=O)N(CCC6=CC(OC)=C(OC)C=C6)CC3=O
#INCHI_AUX N/A
#Library_Class 1
#SpectrumID CCMSLIB00000078704
#IonMode Positive
#UpdateWorkflowName UPDATE-SINGLE-ANNOTATED-GOLD
#LibraryQualityString Gold
#TaskID 67c915c6594c435cadc1fe2b5358144d
##Scan# 2289
#SpectrumFile p1-D02_GD2_01_17910.mzXML
#LibraryName phytochem_lib.mgf
#MQScore -1
#Organism phytochem_lib
#TIC_Query 0
#RT_Query -1
#MZErrorPPM -1
#SharedPeaks 0
#MassDiff 0
#LibMZ -1
#SpecMZ 526.234
#SpecCharge 0
#internalFilename spec-00000.mgf

>collision 10
95.418983 128.0
96.581207 40.0
96.657501 188.0
96.942024 132.0
97.090416 160.0
97.192421 128.0
97.361237 144.0
97.449631 144.0
97.742592 172.0
98.191734 40.0
98.416687 212.0
98.657715 160.0
98.720985 156.0
98.742737 152.0
99.16642 60.0
99.277443 128.0
99.942871 152.0
100.428947 152.0
100.634483 200.0
100.996185 156.0
101.252365 200.0
101.894241 64.0
102.101273 84.0
102.753891 92.0
102.8992 132.0
102.984016 156.0
103.109276 236.0
103.744835 168.0
103.850273 212.0
104.284958 204.0
104.364044 196.0
104.553215 44.0
104.69368 156.0
104.781265 188.0
104.822014 160.0
105.069038 484.0
105.37458 160.0
105.622307 88.0
106.044708 184.0
106.661888 220.0
106.923096 204.0
107.048668 180.0
107.834663 144.0
109.200951 152.0
109.527725 160.0
109.548553 60.0
110.714012 48.0
111.246567 212.0
111.475494 152.0
112.25013 216.0
112.410446 196.0
112.534981 148.0
112.649017 212.0
112.669365 228.0
113.010521 128.0
113.033798 108.0
113.47435 52.0
113.777733 72.0
114.466599 228.0
115.056961 148.0
115.108429 220.0
115.805595 240.0
116.315903 192.0
116.431839 136.0
117.072693 168.0
117.333405 124.0
118.048073 148.0
118.556786 180.0
119.044876 144.0
119.081795 84.0
119.775627 168.0
119.978279 100.0
120.054596 132.0
120.803741 92.0
120.832184 184.0
121.066414 4056.0
122.070816 316.0
122.139603 28.0
123.070419 244.0
123.171173 132.0
123.76828 192.0
124.21151 180.0
124.642204 120.0
124.989075 48.0
125.153778 120.0
125.597252 152.0
125.927582 252.0
126.296364 212.0
126.883057 136.0
127.069199 212.0
127.331825 108.0
127.536278 160.0
128.364746 128.0
129.069244 164.0
129.356567 188.0
129.467499 80.0
129.619278 200.0
129.973007 164.0
130.068649 556.0
130.165939 56.0
130.193192 28.0
130.729675 164.0
131.071243 152.0
131.404114 160.0
131.46344 184.0
131.479416 224.0
132.050568 164.0
132.856842 164.0
133.063766 140.0
133.214951 164.0
134.069595 388.0
134.169968 136.0
134.352142 248.0
134.409821 168.0
134.746918 196.0
134.967621 228.0
135.044083 288.0
135.079666 336.0
135.49649 104.0
136.371307 144.0
136.608215 180.0
136.810928 56.0
137.062454 184.0
137.41452 208.0
137.605896 132.0
137.694626 144.0
137.960999 140.0
138.372742 116.0
138.513245 128.0
138.925812 172.0
138.991501 116.0
139.050171 180.0
139.731598 208.0
139.870438 200.0
140.059158 136.0
140.447723 160.0
140.726181 156.0
141.094727 168.0
141.428268 128.0
141.92337 256.0
141.963684 164.0
142.066071 844.0
142.26738 124.0
142.6427 104.0
142.849579 200.0
143.071487 192.0
143.311432 132.0
143.404373 152.0
143.879044 136.0
144.079224 176.0
144.12233 176.0
144.440613 172.0
145.089996 192.0
145.326981 156.0
145.492584 136.0
145.953873 92.0
145.989182 140.0
146.784592 164.0
146.936539 160.0
147.071915 152.0
147.117538 176.0
147.136841 128.0
147.231018 196.0
147.400116 136.0
147.506454 136.0
148.319748 168.0
148.829193 152.0
149.063812 176.0
150.067001 848.0
150.09668 48.0
150.677765 132.0
150.733963 92.0
150.946625 84.0
151.076553 388.0
151.098267 148.0
151.120285 40.0
151.142303 124.0
151.779144 140.0
152.373108 188.0
152.874695 208.0
153.066696 64.0
153.219406 76.0
153.313034 100.0
153.433807 88.0
154.066116 476.0
154.411621 236.0
154.446243 148.0
154.508087 224.0
154.881866 132.0
154.966095 124.0
155.065216 220.0
155.099915 164.0
155.270981 208.0
155.735092 108.0
155.809616 56.0
155.896576 140.0
156.077057 192.0
156.794952 148.0
157.069214 216.0
157.65593 104.0
157.713409 160.0
157.988464 144.0
158.870255 180.0
159.236725 156.0
159.487976 160.0
159.568405 216.0
160.081696 240.0
160.674011 212.0
161.012238 64.0
161.088013 224.0
161.520248 152.0
162.067078 140.0
162.095749 292.0
162.427063 132.0
162.77475 148.0
163.089767 128.0
163.361832 192.0
163.494141 140.0
163.641769 76.0
164.083771 168.0
164.281433 264.0
164.595352 84.0
165.011826 180.0
165.038132 236.0
165.0905 5388.0
165.185242 148.0
165.235062 56.0
165.303406 88.0
165.339233 40.0
165.546585 248.0
165.615738 100.0
165.669525 48.0
165.956558 128.0
166.062134 192.0
166.093674 616.0
166.821732 124.0
166.988861 204.0
167.287338 56.0
167.480453 68.0
167.678833 72.0
167.802567 60.0
167.934082 144.0
168.067963 464.0
168.10434 124.0
168.27211 176.0
168.354736 92.0
168.396057 180.0
168.512299 140.0
168.574326 76.0
168.659607 152.0
168.729401 92.0
169.07663 26012.0
169.138626 40.0
169.223541 80.0
169.264908 104.0
169.29863 52.0
169.346588 60.0
169.383179 156.0
169.411484 112.0
169.477371 56.0
169.526596 36.0
169.552505 136.0
169.581024 56.0
169.64064 56.0
169.661377 72.0
169.796204 56.0
169.819305 84.0
169.918121 188.0
170.003738 48.0
170.079544 2868.0
170.206207 80.0
170.255554 40.0
170.507538 56.0
170.702515 116.0
170.741516 68.0
170.978256 76.0
171.012085 88.0
171.091568 336.0
171.144852 128.0
171.181305 92.0
171.271118 140.0
171.423569 188.0
171.491318 48.0
171.650345 32.0
171.676422 128.0
172.08876 140.0
172.339432 80.0
172.365555 76.0
172.490997 160.0
172.828354 116.0
174.446487 160.0
174.541138 40.0
176.06424 152.0
176.168991 188.0
176.201584 104.0
176.267639 112.0
177.090927 472.0
177.302322 36.0
178.092941 156.0
178.124817 184.0
178.425095 144.0
178.464981 112.0
179.0867 224.0
179.954346 160.0
181.071808 364.0
181.078598 128.0
181.141708 228.0
182.085312 148.0
183.062012 60.0
183.09108 584.0
183.126648 156.0
183.196686 52.0
183.549744 96.0
184.093124 128.0
184.321716 204.0
185.065536 204.0
185.111572 172.0
185.330963 120.0
186.071396 184.0
187.537582 192.0
187.692963 152.0
187.728409 48.0
188.421692 104.0
189.083923 512.0
190.072662 168.0
191.053497 76.0
191.087296 276.0
192.099014 852.0
192.500488 140.0
192.707642 56.0
193.104111 140.0
193.327026 204.0
194.013916 180.0
194.034592 172.0
194.085999 184.0
194.114868 312.0
195.057663 196.0
195.124374 240.0
195.978806 92.0
196.098633 88.0
196.260315 144.0
196.316086 60.0
196.477859 52.0
196.731812 176.0
197.070572 5388.0
197.402344 64.0
197.438705 48.0
197.511429 180.0
197.533798 96.0
197.679276 36.0
198.018021 164.0
198.076065 884.0
198.168137 64.0
198.634644 40.0
198.85173 116.0
199.082031 208.0
199.103363 116.0
199.176376 156.0
199.274704 260.0
199.541702 64.0
200.202927 52.0
200.746796 180.0
202.275253 32.0
203.20192 56.0
203.292725 40.0
203.343796 112.0
203.375015 200.0
204.089783 172.0
204.097031 204.0
204.136398 104.0
204.939072 260.0
205.089813 180.0
205.649139 168.0
205.740479 224.0
206.043198 112.0
206.094788 512.0
206.20607 60.0
206.652161 84.0
207.103622 264.0
208.079422 120.0
208.113876 148.0
208.366608 56.0
209.022156 68.0
209.488556 144.0
210.105621 220.0
210.896667 132.0
211.07988 184.0
211.449066 144.0
212.09494 168.0
212.118134 44.0
213.069962 148.0
214.076324 140.0
215.593246 156.0
217.092773 424.0
217.529221 104.0
217.91687 136.0
218.096252 2424.0
218.143158 216.0
218.32251 36.0
218.519577 32.0
219.049469 76.0
219.100159 836.0
219.813049 80.0
220.098267 1336.0
220.53363 88.0
220.758316 44.0
220.799713 36.0
220.829285 48.0
221.100632 388.0
221.154739 72.0
221.258347 116.0
221.661148 40.0
222.115219 504.0
222.182968 196.0
222.269012 88.0
222.450043 68.0
222.515366 36.0
223.124863 228.0
224.392654 112.0
224.413513 48.0
224.538757 128.0
225.06694 124.0
225.134338 140.0
225.347351 156.0
226.065308 220.0
226.087967 188.0
227.389893 112.0
228.841782 112.0
228.99234 148.0
229.341843 152.0
230.201645 164.0
231.117523 152.0
233.081894 316.0
233.407562 184.0
233.705643 116.0
234.088318 696.0
235.100204 584.0
236.106247 1380.0
236.14476 76.0
236.150848 176.0
237.068665 184.0
237.108109 1064.0
237.978531 192.0
238.07489 176.0
238.10672 204.0
238.442368 152.0
238.958954 116.0
241.040176 60.0
241.120514 120.0
242.596924 96.0
244.071625 164.0
244.317322 48.0
244.475998 56.0
245.083817 564.0
245.43541 176.0
246.090622 308.0
246.574799 96.0
247.108566 212.0
247.895416 48.0
247.936157 60.0
248.045853 224.0
248.105423 2176.0
248.924301 188.0
249.075043 68.0
249.112869 1112.0
249.706787 52.0
250.122299 1508.0
250.440125 92.0
251.045212 144.0
251.126175 528.0
251.436401 40.0
251.755234 88.0
252.134323 124.0
252.172256 76.0
252.267075 104.0
253.083298 68.0
254.091125 292.0
255.093719 176.0
257.086945 156.0
258.981079 152.0
259.10144 272.0
259.500214 116.0
260.032715 204.0
260.106079 1220.0
260.13269 428.0
260.170715 124.0
260.241364 52.0
261.070374 72.0
261.107544 276.0
262.122223 216.0
264.927368 124.0
267.098999 128.0
268.111542 132.0
268.440796 132.0
271.259003 148.0
272.023315 212.0
272.614502 124.0
276.095673 96.0
277.108551 140.0
277.131744 112.0
278.04364 136.0
278.129913 140.0
284.807922 128.0
286.287689 204.0
287.136932 136.0
288.106781 1348.0
288.186737 64.0
288.585571 76.0
289.055725 108.0
289.107666 756.0
289.160614 64.0
290.078522 104.0
290.113068 224.0
291.592316 140.0
292.132935 168.0
294.078552 96.0
301.106506 180.0
303.508057 160.0
303.622498 124.0
305.112061 172.0
306.124542 156.0
310.994507 76.0
312.825806 168.0
322.095123 168.0
322.148712 104.0
331.13385 48.0
334.175781 232.0
338.420502 140.0
340.165527 120.0
340.57309 168.0
342.1138 136.0
343.148987 128.0
345.12619 168.0
346.164032 120.0
349.210815 124.0
350.070496 128.0
354.489594 72.0
355.15271 160.0
356.147797 208.0
356.418304 132.0
357.602844 132.0
360.136505 140.0
361.12674 80.0
362.171753 116.0
363.156799 116.0
364.531097 132.0
368.489899 148.0
369.093781 164.0
372.176483 320.0
373.146454 128.0
374.150238 104.0
375.156311 148.0
376.799988 88.0
378.014069 96.0
380.894623 36.0
382.948273 120.0
384.886414 136.0
386.14502 148.0
388.167725 188.0
388.981415 52.0
389.605804 136.0
389.688293 112.0
390.181335 1360.0
390.431213 124.0
390.548401 100.0
390.682953 64.0
390.808838 168.0
391.186951 948.0
391.730042 52.0
391.831268 164.0
391.895508 60.0
392.175049 164.0
392.364502 64.0
392.628693 220.0
394.484406 124.0
403.180878 80.0
405.065338 200.0
407.544617 184.0
413.310394 44.0
415.688934 128.0
416.200378 112.0
417.435638 128.0
417.720306 80.0
417.805756 128.0
417.948151 152.0
418.175079 6120.0
418.249298 160.0
418.403961 28.0
418.93338 44.0
419.17865 1756.0
419.271545 40.0
419.38974 40.0
419.581329 88.0
419.624146 40.0
419.732178 36.0
419.797424 40.0
420.06662 192.0
420.181427 180.0
420.41748 40.0
420.666443 80.0
420.874664 88.0
421.174805 160.0
421.205444 140.0
421.981903 88.0
422.566742 80.0
438.248138 100.0
438.473175 120.0
440.233643 120.0
440.797546 60.0
440.885315 48.0
461.206787 156.0
475.736359 56.0
482.309509 60.0
490.517731 92.0
527.543518 96.0
529.378174 160.0
550.717468 180.0
563.617615 72.0
598.934814 48.0
625.391357 68.0
731.326904 64.0
750.040771 76.0
800.450745 36.0
813.669861 84.0
826.922791 232.0
836.226135 56.0
840.248169 60.0
841.685303 60.0
910.801819 132.0
993.976379 72.0
999.210144 164.0
1016.71283 204.0
1018.319031 260.0
1019.494324 240.0
1029.176514 32.0
1049.14856 148.0
1050.709229 160.0
1065.794556 92.0
1078.704956 52.0
1098.298706 140.0
1100.892334 104.0
1120.865479 200.0
1131.632446 200.0
1175.050659 200.0
1185.053101 112.0
1190.142212 192.0
1194.979614 116.0
1200.594604 272.0
1210.515625 40.0
1218.237183 184.0
1229.265503 64.0
1240.301392 56.0
1245.19165 104.0
1248.31189 220.0
1252.428955 148.0
1264.211914 168.0
1269.695068 144.0
1295.096069 160.0
1311.996826 168.0
1336.06897 180.0
1336.942139 176.0
1337.51709 200.0
1338.004761 124.0
1342.274292 224.0
1367.283569 152.0
1370.022583 172.0
1374.888916 256.0
1378.522095 120.0
1384.869629 96.0
1385.928955 124.0
1388.249023 176.0
1403.276245 120.0
1411.152832 132.0
1412.401733 220.0
1423.57605 204.0
1424.049194 148.0
1433.083618 236.0
1434.862183 124.0
1438.634155 184.0
1439.525146 240.0
1451.890259 228.0
1452.921753 176.0
1464.216919 112.0
1469.255127 192.0
1476.840332 184.0
1478.760742 108.0
1490.493652 208.0
1500.630371 184.0
