>compound MLS001076668-01!BENAZEPRIL HYDROCHLORIDE
>formula C24H28N2O5
>ionization [M+H]+
>parentmass 425.205444
#inchi InChI=1S/C24H28N2O5/c1-2-31-24(30)20(14-12-17-8-4-3-5-9-17)25-19-15-13-18-10-6-7-11-21(18)26(23(19)29)16-22(27)28/h3-11,19-20,25H,2,12-16H2,1H3,(H,27,28)/t19-,20-/m0/s1
#inchikey XPCFTKFZXHTYIP
#origInchi InChI=1S/C24H28N2O5.ClH/c1-2-31-24(30)20(14-12-17-8-4-3-5-9-17)25-19-15-13-18-10-6-7-11-21(18)26(23(19)29)16-22(27)28;/h3-11,19-20,25H,2,12-16H2,1H3,(H,27,28);1H/t19-,20-;/m0./s1
#Ion_Source LC-ESI
#Instrument qTof
#Compound_Source NIH Pharmacologically Active Library
#PI Dorrestein
#Data_Collector VP/LMS
#Scan -1
#Precursor_MZ 425.2
#ExactMass 424.2
#Charge 1
#CAS_Number N/A
#Pubmed_ID N/A
#Smiles CCOC(=O)[C@H](CCc1ccccc1)N[C@H]2CCc3ccccc3N(CC(=O)O)C2=O.Cl
#INCHI_AUX N/A
#Library_Class 1
#SpectrumID CCMSLIB00000085360
#IonMode Positive
#UpdateWorkflowName UPDATE-SINGLE-ANNOTATED-GOLD
#LibraryQualityString Gold
#TaskID d252d724072548979f1f6f1ced849daf
##Scan# 1739
#SpectrumFile p3-H09_GH9_01_18314.mzXML
#LibraryName Pharm_Active_Library.mgf
#MQScore -1
#Organism Pharm_Active_Library
#TIC_Query 0
#RT_Query -1
#MZErrorPPM -1
#SharedPeaks 0
#MassDiff 0
#LibMZ -1
#SpecMZ 425.2
#SpecCharge 0
#internalFilename spec-00000.mgf

>collision 10
44.911022 144.0
44.929699 172.0
44.956387 140.0
45.03249 120.0
45.051193 188.0
45.0993 156.0
45.116455 208.0
45.146099 156.0
45.202286 132.0
45.212994 196.0
45.226376 96.0
45.237087 224.0
45.259968 356.0
45.305389 136.0
45.330845 172.0
45.350952 76.0
45.380127 152.0
45.447514 208.0
45.474354 232.0
45.548206 56.0
45.577766 296.0
45.63422 160.0
45.654392 172.0
45.710896 140.0
45.727047 132.0
45.776859 240.0
45.803799 180.0
45.828049 136.0
45.906235 136.0
45.995907 160.0
46.020939 48.0
46.08033 136.0
46.107399 160.0
46.162827 176.0
46.19529 140.0
46.215584 136.0
46.237236 244.0
46.288685 124.0
46.364552 156.0
46.390305 152.0
46.40522 120.0
46.455402 160.0
46.494751 116.0
46.536835 144.0
46.603394 80.0
46.618061 156.0
46.641449 188.0
46.66592 140.0
46.686466 184.0
46.778843 204.0
46.840126 164.0
46.862049 172.0
46.879639 136.0
46.889179 188.0
46.921898 136.0
46.953259 132.0
46.968266 124.0
46.994186 196.0
47.132099 120.0
47.201817 180.0
47.211391 128.0
47.222332 232.0
47.287292 140.0
47.43922 176.0
47.482571 136.0
47.563526 164.0
47.599117 152.0
47.621201 192.0
47.645782 192.0
47.699524 164.0
47.721523 136.0
47.809563 148.0
47.827457 180.0
47.853615 140.0
47.927845 144.0
47.940399 200.0
48.043022 132.0
48.102699 120.0
48.130775 200.0
48.144585 172.0
48.235023 220.0
48.350586 168.0
48.44059 240.0
48.498791 228.0
48.681938 228.0
48.701382 156.0
48.779198 184.0
48.843166 148.0
48.860706 228.0
48.884911 112.0
48.947556 180.0
49.046474 192.0
49.069103 156.0
49.085808 228.0
49.09721 184.0
49.106434 160.0
49.204121 124.0
49.215206 160.0
49.24741 160.0
49.275352 292.0
49.308891 148.0
49.335449 224.0
49.385792 168.0
49.423569 180.0
49.452957 160.0
49.465557 76.0
49.486557 212.0
49.593029 48.0
49.604244 196.0
49.661736 236.0
49.678993 204.0
49.740318 104.0
49.75576 200.0
49.769802 196.0
49.806316 132.0
49.87236 176.0
49.931416 208.0
49.972214 56.0
49.997543 100.0
50.093292 200.0
50.104561 192.0
50.163754 176.0
50.194775 156.0
50.217339 172.0
50.302006 108.0
50.323181 108.0
50.347191 140.0
50.358376 152.0
50.415005 192.0
50.477207 172.0
50.499039 248.0
50.52813 116.0
50.55077 164.0
50.579418 240.0
50.6488 216.0
50.766106 160.0
50.810276 144.0
50.835621 216.0
50.845554 136.0
50.868267 156.0
50.932167 184.0
51.014591 128.0
51.08712 188.0
51.108463 148.0
51.148315 164.0
51.186756 248.0
51.259407 148.0
51.294411 208.0
51.357784 188.0
51.417713 112.0
51.429131 240.0
51.463394 40.0
51.476246 220.0
51.501957 188.0
51.521954 140.0
51.537674 160.0
51.553852 136.0
51.594845 120.0
51.644897 164.0
51.690681 60.0
51.712147 168.0
51.746506 40.0
51.760826 60.0
52.017471 212.0
52.034702 104.0
52.091209 144.0
52.116573 176.0
52.156815 108.0
52.168316 52.0
52.178379 120.0
52.243099 168.0
52.300663 168.0
52.339535 108.0
52.389732 216.0
52.428852 76.0
52.456238 80.0
52.532673 156.0
52.549984 108.0
52.586063 148.0
52.596169 180.0
52.613491 252.0
52.698708 132.0
52.729053 140.0
52.743511 176.0
52.753628 88.0
52.783993 172.0
52.81115 180.0
52.842739 176.0
52.892506 140.0
52.947529 132.0
52.980846 148.0
52.993885 120.0
53.033012 176.0
53.141781 116.0
53.179516 204.0
53.217262 152.0
53.384373 208.0
53.478947 104.0
53.496414 152.0
53.588169 148.0
53.59837 308.0
53.741272 192.0
53.809872 144.0
53.820095 100.0
53.831776 168.0
53.868999 140.0
53.881439 168.0
53.926743 64.0
53.94136 184.0
53.951595 104.0
54.279579 148.0
54.367599 232.0
54.38081 132.0
54.39727 280.0
54.452755 164.0
54.54953 168.0
54.589439 196.0
54.620327 164.0
54.739914 176.0
54.790695 204.0
54.827938 112.0
54.855946 64.0
54.873634 156.0
54.901653 120.0
54.917877 84.0
55.065479 116.0
55.092072 192.0
55.137646 152.0
55.155617 160.0
55.23233 100.0
55.322781 176.0
55.350914 200.0
55.433872 72.0
55.542107 156.0
55.568546 180.0
55.59552 128.0
55.618279 96.0
55.635601 140.0
55.700943 164.0
55.711342 180.0
55.739574 76.0
55.870419 124.0
55.922256 192.0
55.950787 88.0
55.968655 184.0
55.97908 196.0
56.098282 160.0
56.14003 132.0
56.165386 196.0
56.235519 76.0
56.334076 176.0
56.399826 148.0
56.411785 100.0
56.422249 72.0
56.482071 164.0
56.573528 104.0
56.584766 176.0
56.613785 292.0
56.624268 116.0
56.640747 88.0
56.666214 160.0
56.703678 152.0
56.777359 140.0
56.834152 116.0
56.846157 188.0
56.863102 152.0
56.894188 76.0
56.954681 112.0
56.972286 332.0
56.99332 228.0
57.008347 200.0
57.133419 244.0
57.196358 136.0
57.246044 96.0
57.261105 92.0
57.280689 108.0
57.291233 156.0
57.319862 216.0
57.331917 136.0
57.348495 128.0
57.422379 48.0
57.464619 136.0
57.503857 124.0
57.576328 164.0
57.586258 132.0
57.657913 164.0
57.670006 140.0
57.744511 220.0
57.83942 100.0
57.893929 100.0
57.943916 316.0
57.965134 124.0
58.040485 360.0
58.056091 148.0
58.094013 144.0
58.107666 212.0
58.153194 208.0
58.174446 208.0
58.212406 188.0
58.227592 44.0
58.248859 188.0
58.286842 124.0
58.30508 200.0
58.326359 160.0
58.448032 220.0
58.483036 136.0
58.516529 196.0
58.556122 100.0
58.572876 164.0
58.586586 32.0
58.635349 140.0
58.696331 128.0
58.707005 168.0
58.721104 132.0
58.754292 156.0
58.766499 192.0
58.792442 132.0
58.804649 172.0
58.825298 164.0
58.850704 192.0
58.864193 136.0
58.899323 152.0
58.932716 168.0
58.981995 156.0
59.017002 148.0
59.11895 224.0
59.146404 200.0
59.203701 148.0
59.266506 196.0
59.315552 136.0
59.352348 152.0
59.369217 204.0
59.384556 156.0
59.438251 196.0
59.481628 76.0
59.536503 144.0
59.551861 208.0
59.60717 148.0
59.634834 124.0
59.689903 200.0
59.837212 224.0
59.907207 228.0
59.948807 116.0
59.991966 156.0
60.027302 236.0
60.050053 132.0
60.064449 112.0
60.084503 136.0
60.149319 92.0
60.166302 196.0
60.177109 52.0
60.238888 208.0
60.319244 180.0
60.35326 188.0
60.413582 220.0
60.42905 220.0
60.452263 180.0
60.478573 72.0
60.520374 144.0
60.574581 224.0
60.590076 48.0
60.715637 132.0
60.735802 52.0
60.789234 184.0
60.827354 56.0
60.844433 168.0
60.895679 232.0
60.906551 232.0
60.934513 48.0
61.03027 172.0
61.058529 232.0
61.105545 160.0
61.142483 152.0
61.198936 32.0
61.239426 92.0
61.261234 96.0
61.301746 128.0
61.3298 216.0
61.345345 144.0
61.518555 156.0
61.567867 124.0
61.612259 120.0
61.690403 264.0
61.713856 152.0
61.731056 176.0
61.844124 180.0
61.868752 384.0
61.887539 108.0
61.909462 100.0
61.934525 380.0
61.970558 168.0
62.003468 144.0
62.081856 180.0
62.158966 208.0
62.190113 48.0
62.232502 140.0
62.263908 208.0
62.295326 208.0
62.380188 160.0
62.452522 172.0
62.482414 164.0
62.537491 116.0
62.59417 160.0
62.60677 148.0
62.622517 44.0
62.636265 176.0
62.669781 100.0
62.71706 148.0
62.731655 160.0
62.780128 192.0
62.791168 192.0
62.85743 44.0
62.868694 144.0
62.923725 144.0
62.985676 176.0
63.026443 124.0
63.050098 156.0
63.080132 184.0
63.102264 204.0
63.228817 124.0
63.250977 184.0
63.30481 212.0
63.3274 112.0
63.357082 180.0
63.391941 192.0
63.415714 200.0
63.44207 332.0
63.453762 268.0
63.536236 180.0
63.561092 180.0
63.642578 80.0
63.655281 160.0
63.685459 220.0
63.750599 148.0
63.817364 88.0
63.836445 148.0
63.865074 216.0
63.884163 128.0
63.927124 160.0
64.016273 168.0
64.113457 252.0
64.151764 124.0
64.209114 168.0
64.23304 120.0
64.253784 124.0
64.271332 148.0
64.317619 216.0
64.36232 88.0
64.437393 204.0
64.507713 196.0
64.524033 96.0
64.60527 124.0
64.675682 164.0
64.688484 176.0
64.71312 196.0
64.771759 180.0
64.803802 64.0
64.866302 100.0
64.888748 120.0
64.985634 172.0
65.010658 172.0
65.119835 140.0
65.131081 160.0
65.153572 208.0
65.187317 216.0
65.256439 488.0
65.326088 172.0
65.50267 120.0
65.536507 144.0
65.558006 140.0
65.60199 140.0
65.736465 108.0
65.773582 172.0
65.786499 172.0
65.815559 164.0
65.860786 44.0
65.876938 128.0
65.952888 116.0
66.040733 160.0
66.070938 164.0
66.124344 228.0
66.163193 208.0
66.176147 116.0
66.240929 148.0
66.265579 148.0
66.3256 204.0
66.360863 136.0
66.428978 140.0
66.445198 204.0
66.602676 180.0
66.659538 180.0
66.705048 116.0
66.749039 208.0
66.778221 216.0
66.815636 100.0
66.967033 184.0
67.046867 144.0
67.098457 216.0
67.13327 196.0
67.155418 180.0
67.172417 176.0
67.308456 228.0
67.332993 184.0
67.394463 176.0
67.463104 140.0
67.57373 220.0
67.641136 208.0
67.657791 40.0
67.679077 188.0
67.70414 212.0
67.761269 112.0
67.778999 176.0
67.800301 208.0
67.821609 52.0
67.878998 36.0
67.924919 240.0
67.938042 164.0
67.998756 32.0
68.013535 176.0
68.174492 116.0
68.187637 168.0
68.204079 220.0
68.421234 180.0
68.473923 176.0
68.518402 200.0
68.600807 236.0
68.640381 124.0
68.691505 148.0
68.716255 196.0
68.863182 160.0
68.887955 188.0
68.924309 116.0
68.954056 360.0
68.982155 196.0
69.11116 152.0
69.298264 148.0
69.382797 64.0
69.527939 176.0
69.561966 164.0
69.655853 164.0
69.681541 204.0
69.719063 132.0
69.743034 132.0
69.772957 132.0
69.872177 268.0
69.894379 72.0
69.929329 128.0
69.960953 172.0
69.97261 160.0
70.043983 140.0
70.06588 108.0
70.12587 164.0
70.19397 184.0
70.326027 188.0
70.356071 196.0
70.446259 160.0
70.467979 208.0
70.50808 164.0
70.601707 148.0
70.630142 112.0
70.663605 156.0
70.687027 56.0
70.789146 64.0
70.81427 40.0
70.846092 196.0
70.958389 172.0
70.995277 180.0
71.032181 148.0
71.045601 44.0
71.163086 144.0
71.183235 204.0
71.198349 80.0
71.220184 236.0
71.310921 160.0
71.339493 160.0
71.524223 188.0
71.647285 176.0
71.681084 144.0
71.736801 176.0
71.765457 188.0
71.790756 216.0
71.804245 208.0
71.912231 136.0
71.954437 164.0
71.966255 152.0
72.057465 120.0
72.076378 216.0
72.087875 320.0
72.136894 60.0
72.240051 144.0
72.262047 172.0
72.317894 76.0
72.355141 100.0
72.382225 144.0
72.577972 212.0
72.609322 144.0
72.845261 172.0
72.895134 296.0
72.940422 140.0
72.952324 180.0
72.976128 184.0
73.011841 164.0
73.103706 196.0
73.161583 144.0
73.405235 208.0
73.567329 220.0
73.622345 184.0
73.647591 116.0
73.676636 136.0
73.693718 148.0
73.786018 220.0
73.79998 120.0
73.86982 168.0
73.904892 152.0
73.975914 140.0
74.004623 136.0
74.049545 116.0
74.061539 184.0
74.179733 152.0
74.202065 184.0
74.301544 108.0
74.313553 200.0
74.366753 176.0
74.470085 88.0
74.486954 228.0
74.53334 228.0
74.56514 224.0
74.600006 188.0
74.615845 196.0
74.633041 156.0
74.656441 212.0
74.7015 204.0
74.724205 204.0
74.781776 176.0
74.798203 184.0
74.904968 144.0
74.929092 176.0
75.044571 200.0
75.088737 176.0
75.134254 160.0
75.189476 156.0
75.265434 192.0
75.36908 196.0
75.443398 120.0
75.491814 140.0
75.512566 156.0
75.533325 216.0
75.559273 192.0
75.57312 136.0
75.595612 160.0
75.638885 68.0
75.66658 204.0
75.831154 188.0
75.867554 148.0
75.903969 200.0
75.943855 128.0
75.975082 136.0
75.989517 212.0
76.011566 160.0
76.047966 156.0
76.063591 164.0
76.077477 164.0
76.106995 144.0
76.163963 164.0
76.187241 212.0
76.233803 188.0
76.256393 184.0
76.535637 168.0
76.628639 176.0
76.667694 152.0
76.693291 192.0
76.750488 168.0
76.77523 180.0
76.797905 148.0
76.839775 96.0
76.871185 220.0
76.886894 212.0
76.930573 156.0
77.019592 112.0
77.100647 176.0
77.219292 96.0
77.239845 192.0
77.267509 192.0
77.30983 144.0
77.327332 100.0
77.36409 196.0
77.430634 124.0
77.442894 196.0
77.472672 48.0
77.505966 120.0
77.602112 164.0
77.726913 140.0
77.756744 96.0
77.788338 68.0
77.86911 120.0
77.960472 44.0
77.98156 160.0
78.011742 120.0
78.041336 168.0
78.071228 116.0
78.09761 52.0
78.170433 168.0
78.190865 96.0
78.264801 76.0
78.334244 224.0
78.363441 196.0
78.423363 100.0
78.446274 144.0
78.470963 160.0
78.495644 168.0
78.517715 132.0
78.522888 152.0
78.545029 132.0
78.57502 144.0
78.783684 148.0
78.855804 152.0
78.884087 140.0
78.910606 40.0
78.940666 212.0
78.991959 124.0
79.052116 212.0
79.142395 188.0
79.215012 136.0
79.236267 76.0
79.264618 200.0
79.333748 160.0
79.346153 204.0
79.459435 152.0
79.48983 152.0
79.57148 116.0
79.596344 128.0
79.625481 196.0
79.681602 192.0
79.713585 200.0
79.756241 212.0
79.832695 124.0
79.989273 104.0
80.010635 188.0
80.108582 160.0
80.1959 76.0
80.208374 220.0
80.263649 140.0
80.286827 140.0
80.390305 208.0
80.427788 148.0
80.483444 136.0
80.524208 152.0
80.543854 192.0
80.58316 48.0
80.615318 68.0
80.668945 128.0
80.692184 136.0
80.752983 156.0
80.795921 180.0
80.81739 236.0
80.832787 196.0
80.847809 240.0
80.97493 224.0
80.994629 192.0
81.032249 144.0
81.057335 108.0
81.081261 208.0
81.102142 188.0
81.116982 252.0
81.187576 148.0
81.352211 200.0
81.365852 188.0
81.380219 156.0
81.438271 332.0
81.48439 152.0
81.507385 136.0
81.543976 180.0
81.594032 180.0
81.624237 160.0
81.656967 152.0
81.682152 168.0
81.764923 168.0
81.826004 184.0
81.928047 208.0
82.017082 148.0
82.083794 124.0
82.170372 168.0
82.188416 260.0
82.22451 200.0
82.247978 148.0
82.280472 136.0
82.303947 88.0
82.340065 172.0
82.394257 172.0
82.445816 160.0
82.48642 184.0
82.594925 188.0
82.652817 120.0
82.7397 160.0
82.759613 152.0
82.783157 120.0
82.902718 96.0
82.929909 204.0
82.980667 136.0
82.995171 128.0
83.007866 76.0
83.07135 172.0
83.287369 168.0
83.360046 84.0
83.425476 116.0
83.556419 192.0
83.574799 240.0
83.694756 388.0
83.793114 164.0
83.820137 164.0
83.882904 164.0
83.932816 168.0
84.048386 180.0
84.088531 216.0
84.184143 152.0
84.240379 108.0
84.270935 204.0
84.380814 176.0
84.426529 176.0
84.470428 236.0
84.517998 160.0
84.556427 156.0
84.682007 184.0
84.743217 140.0
84.803696 152.0
84.842194 32.0
84.869698 124.0
84.883621 148.0
84.910042 104.0
84.976082 164.0
85.088997 152.0
85.176437 180.0
85.211098 208.0
85.234985 120.0
85.273628 136.0
85.32505 200.0
85.356308 220.0
85.482979 228.0
85.523727 140.0
85.787148 36.0
86.017746 172.0
86.157524 360.0
86.205315 152.0
86.23571 112.0
86.263435 136.0
86.283775 124.0
86.376244 176.0
86.492821 128.0
86.507629 140.0
86.631706 92.0
86.676178 156.0
86.815216 204.0
86.919731 188.0
86.970047 140.0
87.026756 136.0
87.054611 136.0
87.264595 152.0
87.294296 172.0
87.342705 36.0
87.38549 232.0
87.432014 140.0
87.454346 164.0
87.525093 200.0
87.571655 144.0
87.646172 84.0
87.677849 48.0
87.698479 184.0
87.741234 136.0
87.75428 148.0
87.79158 164.0
87.916573 160.0
87.952034 248.0
88.063873 200.0
88.084412 160.0
88.123848 212.0
88.136932 152.0
88.191124 224.0
88.226646 152.0
88.284615 156.0
88.323891 172.0
88.387497 176.0
88.408089 160.0
88.461716 196.0
88.523483 100.0
88.550377 200.0
88.610321 148.0
88.638428 196.0
88.659042 116.0
88.7659 164.0
88.77903 208.0
88.854057 136.0
88.975418 172.0
88.991112 180.0
89.034264 80.0
89.077461 128.0
89.126312 204.0
89.186455 188.0
89.205254 180.0
89.243591 248.0
89.277916 240.0
89.370552 216.0
89.423454 180.0
89.438515 220.0
89.457336 200.0
89.483696 88.0
89.596069 216.0
89.640038 196.0
89.668304 192.0
89.732399 224.0
89.763664 156.0
89.819153 164.0
89.868202 188.0
89.964455 196.0
90.128777 192.0
90.189255 184.0
90.219505 136.0
90.23468 136.0
90.297035 60.0
90.311493 192.0
90.340431 140.0
90.450294 192.0
90.541183 148.0
90.569138 180.0
90.726883 172.0
90.806526 172.0
90.857742 156.0
90.884308 204.0
90.916565 196.0
90.998039 148.0
91.024323 168.0
91.054428 4980.0
91.083313 236.0
91.12355 76.0
91.184563 192.0
91.281586 56.0
91.302238 48.0
91.326965 48.0
91.355499 148.0
91.406868 60.0
91.461395 244.0
91.488663 160.0
91.513466 140.0
91.702065 156.0
91.751625 188.0
91.812462 164.0
91.851486 144.0
91.87941 64.0
91.911842 124.0
91.939217 176.0
91.957649 236.0
91.978645 180.0
92.005371 188.0
92.057907 488.0
92.073914 272.0
92.097031 92.0
92.163902 64.0
92.193886 232.0
92.278587 120.0
92.293884 144.0
92.320297 64.0
92.33342 160.0
92.366562 160.0
92.609657 168.0
92.636475 56.0
92.657547 148.0
92.705452 200.0
92.783112 212.0
92.827438 196.0
92.881851 120.0
93.006577 140.0
93.031532 176.0
93.094894 180.0
93.140991 108.0
93.162125 144.0
93.192863 152.0
93.277428 216.0
93.331261 176.0
93.437759 152.0
93.47168 144.0
93.502472 200.0
93.55764 164.0
93.571777 132.0
93.604507 232.0
93.641098 204.0
93.673843 156.0
93.708527 152.0
93.725868 172.0
93.747772 152.0
93.799103 52.0
93.829948 64.0
94.059525 136.0
94.113579 168.0
94.227539 52.0
94.256523 208.0
94.32592 252.0
94.391838 184.0
94.405373 208.0
94.472496 188.0
94.622093 136.0
94.653076 284.0
94.695686 148.0
94.749924 204.0
94.778992 104.0
94.828323 184.0
94.868385 160.0
94.891411 192.0
94.986443 152.0
95.081955 160.0
95.108688 164.0
95.157227 148.0
95.219742 164.0
95.248497 204.0
95.285408 152.0
95.329788 148.0
95.364532 212.0
95.390358 200.0
95.458405 248.0
95.5187 176.0
95.548454 204.0
95.569283 140.0
95.713326 236.0
95.763962 256.0
95.779549 284.0
95.840164 212.0
95.867226 200.0
95.894508 224.0
95.931549 132.0
96.015388 116.0
96.081718 168.0
96.235909 152.0
96.274963 200.0
96.297607 208.0
96.390221 120.0
96.419533 132.0
96.534882 148.0
96.59494 136.0
96.802986 164.0
96.863564 168.0
97.020477 192.0
97.073418 160.0
97.135895 164.0
97.14106 140.0
97.210739 192.0
97.322632 72.0
97.363869 144.0
97.524986 156.0
97.564301 176.0
97.596619 164.0
97.757065 144.0
97.833824 184.0
97.87265 172.0
97.963806 152.0
98.017006 128.0
98.032768 244.0
98.077713 240.0
98.093506 108.0
98.115555 192.0
98.129539 176.0
98.231911 128.0
98.360176 196.0
98.389793 144.0
98.439156 140.0
98.456932 180.0
98.480629 84.0
98.603867 276.0
98.63871 380.0
98.747467 136.0
98.821693 168.0
98.829674 144.0
98.889923 60.0
98.911697 168.0
98.990891 192.0
99.068138 220.0
99.123619 156.0
99.149384 224.0
99.179115 56.0
99.206009 184.0
99.294113 144.0
99.323189 200.0
99.542191 156.0
99.585876 144.0
99.605743 156.0
99.713043 184.0
99.762733 204.0
99.822388 92.0
99.910789 108.0
99.933777 148.0
99.971588 184.0
100.026871 212.0
100.198586 228.0
100.256371 204.0
100.300224 168.0
100.35405 124.0
100.493675 120.0
100.509636 80.0
100.5755 116.0
100.679321 184.0
100.791191 200.0
100.825165 212.0
100.863144 168.0
100.971115 160.0
100.999115 160.0
101.085152 220.0
101.115166 212.0
101.187233 92.0
101.39016 128.0
101.453697 132.0
101.527885 164.0
101.602104 216.0
101.654274 116.0
101.674347 108.0
101.738579 116.0
101.752632 220.0
101.802834 212.0
101.840988 40.0
101.855049 140.0
101.90126 184.0
101.991692 188.0
102.009583 160.0
102.071968 168.0
102.181618 212.0
102.279343 196.0
102.363899 80.0
102.380013 144.0
102.440437 156.0
102.466629 124.0
102.492767 140.0
102.537163 124.0
102.639977 240.0
102.670227 124.0
102.799339 160.0
102.825577 120.0
102.8498 188.0
102.880081 152.0
102.970947 152.0
102.993164 192.0
103.05175 444.0
103.069939 280.0
103.124504 200.0
103.276154 184.0
103.292336 224.0
103.338867 204.0
103.421837 148.0
103.446129 180.0
103.500793 156.0
103.539276 176.0
103.553452 188.0
103.612198 60.0
103.644775 200.0
103.660828 168.0
103.68515 104.0
103.736748 184.0
103.772316 248.0
103.827065 168.0
103.843292 212.0
103.874664 132.0
103.904152 136.0
104.060715 172.0
104.111198 136.0
104.177406 248.0
104.253662 168.0
104.306076 188.0
104.383514 192.0
104.397751 164.0
104.522736 208.0
104.572716 116.0
104.648041 96.0
104.662926 188.0
104.692841 320.0
104.957047 112.0
105.067192 364.0
105.110748 216.0
105.167892 48.0
105.212807 164.0
105.372108 184.0
105.402756 196.0
105.484512 100.0
105.50087 120.0
105.572433 164.0
105.623215 164.0
105.774994 152.0
105.85894 48.0
105.891708 204.0
105.934723 180.0
105.98185 116.0
106.005608 208.0
106.037178 288.0
106.066788 252.0
106.088425 116.0
106.11512 176.0
106.190956 148.0
106.246338 200.0
106.262749 64.0
106.293533 176.0
106.375626 120.0
106.482407 188.0
106.521431 208.0
106.635551 144.0
106.736046 152.0
106.7658 180.0
106.811211 124.0
106.850365 152.0
106.866829 116.0
106.936798 244.0
106.973846 176.0
107.037674 44.0
107.069618 200.0
107.095345 144.0
107.158928 208.0
107.254005 152.0
107.404533 160.0
107.456841 168.0
107.487816 164.0
107.513885 212.0
107.530029 224.0
107.592232 184.0
107.661179 152.0
107.698204 236.0
107.730698 132.0
107.757553 132.0
107.811279 136.0
107.893959 176.0
107.92704 152.0
107.943588 80.0
108.004196 196.0
108.067696 52.0
108.117363 156.0
108.171837 276.0
108.191879 240.0
108.219322 172.0
108.353424 112.0
108.396935 192.0
108.425949 200.0
108.450821 32.0
108.505615 204.0
108.654053 172.0
108.745354 152.0
108.788948 128.0
108.838776 156.0
108.855171 188.0
108.942627 32.0
109.101746 184.0
109.241989 84.0
109.298164 128.0
109.335625 144.0
109.362679 316.0
109.379333 160.0
109.420258 260.0
109.443871 156.0
109.581345 140.0
109.620338 168.0
109.634033 168.0
109.650856 168.0
109.68763 168.0
109.74601 120.0
109.81691 148.0
109.844696 176.0
109.944183 188.0
109.960876 236.0
110.00354 192.0
110.088234 140.0
110.130005 88.0
110.201035 176.0
110.257454 204.0
110.32769 160.0
110.364067 168.0
110.560707 220.0
110.753334 108.0
110.825134 148.0
110.849709 160.0
110.895821 212.0
110.923065 200.0
110.939842 104.0
110.985962 192.0
111.001495 176.0
111.116531 64.0
111.152718 148.0
111.254524 72.0
111.290901 184.0
111.397331 176.0
111.452354 168.0
111.55114 104.0
111.689529 176.0
111.727394 216.0
111.761055 168.0
111.794724 132.0
111.834923 160.0
111.882507 216.0
111.956833 216.0
112.007378 104.0
112.060051 132.0
112.101143 216.0
112.129593 40.0
112.161919 260.0
112.258194 168.0
112.323578 192.0
112.365768 100.0
112.398621 176.0
112.416412 140.0
112.610832 228.0
112.627548 212.0
112.771225 248.0
112.800819 128.0
112.81562 268.0
112.9002 124.0
112.946732 176.0
113.046173 156.0
113.139305 180.0
113.17318 172.0
113.207062 136.0
113.236099 180.0
113.423172 96.0
113.446495 124.0
113.518585 176.0
113.633133 164.0
113.650101 152.0
113.692543 140.0
113.790192 96.0
113.817795 140.0
113.862389 168.0
113.926117 224.0
113.972855 196.0
113.989861 140.0
114.03064 148.0
114.057869 164.0
114.081253 200.0
114.130157 144.0
114.164177 160.0
114.349274 228.0
114.49192 176.0
114.527458 152.0
114.609085 180.0
114.722046 48.0
114.860664 64.0
114.894791 204.0
114.928932 140.0
114.945999 140.0
114.975883 208.0
115.033508 124.0
115.053383 2476.0
115.153091 68.0
115.168037 204.0
115.186241 148.0
115.208626 92.0
115.294098 124.0
115.316757 120.0
115.406464 208.0
115.435196 96.0
115.458717 148.0
115.486908 148.0
115.516472 136.0
115.614899 60.0
115.653419 44.0
115.801163 96.0
115.839722 140.0
116.038322 180.0
116.06292 640.0
116.128967 196.0
116.180588 200.0
116.224747 172.0
116.341545 144.0
116.489723 180.0
116.539139 152.0
116.638 144.0
116.683144 44.0
116.702499 168.0
116.730453 204.0
116.779915 88.0
116.82325 220.0
116.874573 196.0
116.938644 176.0
116.962814 160.0
116.980789 240.0
117.022911 216.0
117.028763 76.0
117.037033 180.0
117.06974 14544.0
117.101608 148.0
117.110245 68.0
117.118698 112.0
117.167397 152.0
117.183411 120.0
117.260056 176.0
117.290237 40.0
117.402351 116.0
117.429039 180.0
117.528214 220.0
117.574944 92.0
117.614662 160.0
117.708794 100.0
117.732201 124.0
117.758469 156.0
117.794952 184.0
117.816841 176.0
117.889557 224.0
117.92662 160.0
117.949554 284.0
117.964417 64.0
117.98851 140.0
118.065651 59616.0
118.124741 164.0
118.145821 100.0
118.163872 112.0
118.18042 108.0
118.212479 48.0
118.2472 180.0
118.273514 100.0
118.311546 52.0
118.330933 144.0
118.392166 80.0
118.41967 128.0
118.425781 64.0
118.434486 200.0
118.476982 208.0
118.532974 64.0
118.576317 176.0
118.62085 332.0
118.676857 148.0
118.698807 96.0
118.756279 52.0
118.819893 172.0
118.899475 132.0
118.91684 384.0
118.936378 156.0
118.951569 172.0
118.968941 60.0
119.008385 96.0
119.034081 80.0
119.068253 4784.0
119.093742 424.0
119.123131 72.0
119.144714 200.0
119.203522 220.0
119.231773 44.0
119.260025 124.0
119.351334 52.0
119.368729 76.0
119.414406 48.0
119.512299 120.0
119.577583 168.0
119.597176 116.0
119.612411 128.0
119.627647 84.0
119.642891 144.0
119.727814 284.0
119.76992 156.0
119.787697 180.0
119.825722 204.0
119.849472 152.0
119.858261 68.0
119.897217 132.0
119.953468 156.0
119.989304 76.0
120.030731 40.0
120.081085 2780.0
120.100517 164.0
120.120148 124.0
120.203056 72.0
120.23143 36.0
120.277267 224.0
120.301277 132.0
120.351494 64.0
120.410461 144.0
120.436668 140.0
120.480362 112.0
120.559021 44.0
120.613663 152.0
120.639893 76.0
120.757973 48.0
120.884872 176.0
120.917694 136.0
121.083519 476.0
121.150505 180.0
121.169525 84.0
121.289978 112.0
121.320747 64.0
121.338287 160.0
121.358017 180.0
121.377754 168.0
121.538879 168.0
121.568604 172.0
121.619087 128.0
121.652016 128.0
121.687141 152.0
121.722275 192.0
121.83152 92.0
121.860657 196.0
121.878235 156.0
121.913399 184.0
121.977135 72.0
122.036499 148.0
122.08989 236.0
122.192657 200.0
122.311501 28.0
122.401764 164.0
122.432594 112.0
122.5802 148.0
122.613251 56.0
122.688202 104.0
122.818306 208.0
122.858017 192.0
122.922005 180.0
123.023537 96.0
123.118484 180.0
123.167076 144.0
123.186951 148.0
123.21788 224.0
123.239975 108.0
123.264282 76.0
123.301857 176.0
123.361534 64.0
123.401329 132.0
123.476517 60.0
123.503059 88.0
123.750923 128.0
123.838028 144.0
124.056602 220.0
124.107658 196.0
124.125397 156.0
124.227425 52.0
124.245171 72.0
124.276237 168.0
124.307304 156.0
124.373886 64.0
124.491554 236.0
124.635948 128.0
124.653725 112.0
124.707069 192.0
124.79599 100.0
124.909416 48.0
125.047096 224.0
125.100792 176.0
125.212128 232.0
125.256676 200.0
125.459473 348.0
125.499603 196.0
125.517441 136.0
125.700363 48.0
125.79187 92.0
125.809731 52.0
125.856613 120.0
125.883415 200.0
125.952652 88.0
126.026375 156.0
126.080009 164.0
126.129181 96.0
126.158241 256.0
126.395325 168.0
126.445648 148.0
126.552704 168.0
126.652794 172.0
126.668472 108.0
126.70208 188.0
126.717758 192.0
126.756561 176.0
126.78215 76.0
126.90155 124.0
126.9935 156.0
127.164024 180.0
127.197693 136.0
127.269531 72.0
127.325676 136.0
127.359367 64.0
127.458221 224.0
127.48069 92.0
127.500916 248.0
127.53463 128.0
127.568352 200.0
127.65329 72.0
127.705521 192.0
127.72126 172.0
127.882477 136.0
127.905777 116.0
127.921539 128.0
127.948555 112.0
128.038422 176.0
128.092682 116.0
128.112518 164.0
128.187317 52.0
128.268448 208.0
128.296707 172.0
128.304916 116.0
128.309921 192.0
128.333832 148.0
128.518799 132.0
128.541351 48.0
128.640244 108.0
128.667755 168.0
128.75264 176.0
128.894318 144.0
128.952393 116.0
129.041931 248.0
129.069321 296.0
129.110657 204.0
129.151367 148.0
129.223755 156.0
129.257706 372.0
129.291351 220.0
129.345963 192.0
129.384445 200.0
129.445587 92.0
129.50322 144.0
129.542984 156.0
129.688004 112.0
129.776413 104.0
129.853531 152.0
129.95787 392.0
129.981171 164.0
130.027985 164.0
130.064957 21536.0
130.132645 80.0
130.153091 184.0
130.221817 136.0
130.23938 72.0
130.2621 52.0
130.29303 52.0
130.340164 164.0
130.400711 188.0
130.430267 152.0
130.455688 160.0
130.60762 128.0
130.634918 68.0
130.655396 148.0
130.68042 92.0
130.746414 48.0
130.876175 48.0
130.91716 56.0
130.935379 204.0
130.961319 164.0
130.993149 200.0
131.035614 172.0
131.073181 24776.0
131.159149 96.0
131.217941 72.0
131.258987 156.0
131.294601 52.0
131.313721 68.0
131.359344 364.0
131.395844 156.0
131.441483 80.0
131.457458 88.0
131.512238 180.0
131.528214 64.0
131.550674 76.0
131.571579 56.0
131.612686 124.0
131.713165 48.0
131.813705 188.0
131.848984 164.0
131.937134 180.0
131.989716 120.0
132.049332 168.0
132.079422 6736.0
132.152115 120.0
132.191727 128.0
132.227631 40.0
132.247772 200.0
132.323776 108.0
132.344391 204.0
132.371872 128.0
132.440582 164.0
132.518784 88.0
132.543182 188.0
132.635345 88.0
132.676605 164.0
132.795853 64.0
132.854904 216.0
132.889908 172.0
132.931595 192.0
132.971146 144.0
133.004654 152.0
133.030258 180.0
133.059891 192.0
133.086426 1156.0
133.124054 112.0
133.169983 140.0
133.240341 204.0
133.298645 140.0
133.366882 196.0
133.454941 80.0
133.634354 204.0
133.903687 128.0
134.018875 120.0
134.071884 64.0
134.094986 816.0
134.24939 60.0
134.31398 72.0
134.547058 148.0
134.840424 120.0
134.858917 176.0
134.882034 28.0
134.985901 164.0
135.020767 204.0
135.062393 60.0
135.108398 172.0
135.254456 60.0
135.340118 152.0
135.393372 120.0
135.430435 88.0
135.451279 64.0
135.472137 168.0
135.548584 144.0
135.600159 224.0
135.750275 148.0
135.884811 216.0
136.076187 1028.0
136.12854 184.0
136.163376 172.0
136.279526 144.0
136.432297 120.0
136.46315 88.0
136.511978 144.0
136.546783 240.0
136.749283 168.0
136.788849 220.0
136.877335 124.0
136.991455 128.0
137.075714 196.0
137.145248 148.0
137.250168 204.0
137.373779 160.0
137.478775 44.0
137.576813 140.0
137.600159 96.0
137.677216 32.0
137.796341 108.0
137.988007 172.0
138.011383 72.0
138.032425 56.0
138.125977 176.0
138.147034 120.0
138.192795 132.0
138.36937 56.0
138.470062 164.0
138.549698 192.0
138.676239 192.0
138.882584 100.0
138.906036 188.0
138.948273 144.0
139.019394 128.0
139.106049 264.0
139.123657 224.0
139.185333 80.0
139.20787 168.0
139.335663 228.0
139.370895 188.0
139.486069 132.0
139.503799 92.0
139.537781 192.0
139.66243 104.0
139.798889 160.0
139.838898 168.0
139.883621 148.0
139.975952 168.0
140.043747 128.0
140.067291 148.0
140.097916 180.0
140.13176 164.0
140.15918 108.0
140.267334 180.0
140.378403 168.0
140.536453 200.0
140.701675 120.0
140.737091 184.0
140.911865 88.0
140.940231 144.0
141.233383 116.0
141.249939 72.0
141.309082 192.0
141.43924 144.0
141.510269 136.0
141.564728 212.0
141.59552 112.0
141.623947 128.0
141.676056 200.0
141.718704 144.0
141.792725 68.0
141.818237 312.0
141.84668 84.0
141.872757 160.0
141.90596 72.0
141.924927 184.0
141.979294 140.0
142.037689 132.0
142.067017 524.0
142.128922 88.0
142.181122 100.0
142.230972 84.0
142.252335 184.0
142.29982 132.0
142.375809 176.0
142.425674 180.0
142.454193 48.0
142.47081 384.0
142.520706 116.0
142.558731 148.0
142.628754 156.0
142.844055 104.0
142.874985 112.0
142.908295 72.0
142.982056 112.0
143.07164 916.0
143.179398 176.0
143.210632 132.0
143.549057 116.0
143.572906 144.0
143.629181 188.0
143.780472 156.0
143.82048 276.0
143.864014 56.0
143.961914 108.0
143.985794 164.0
144.003204 456.0
144.036957 124.0
144.080795 33332.0
144.141068 48.0
144.171356 160.0
144.196045 44.0
144.214676 172.0
144.296432 48.0
144.322739 36.0
144.364532 184.0
144.406448 220.0
144.458618 84.0
144.486938 92.0
144.537415 172.0
144.587997 168.0
144.632111 132.0
144.650513 40.0
144.685013 68.0
144.744659 152.0
144.856461 184.0
145.024185 156.0
145.085007 3936.0
145.134842 76.0
145.163239 240.0
145.204956 180.0
145.278381 92.0
145.381546 196.0
145.400757 52.0
145.431961 136.0
145.486526 76.0
145.576004 140.0
145.660065 116.0
145.67688 96.0
145.698502 40.0
145.727341 112.0
145.832932 64.0
145.86673 132.0
145.90448 216.0
145.972046 220.0
145.998978 124.0
146.015808 104.0
146.059677 704.0
146.095718 14496.0
146.138489 88.0
146.166168 136.0
146.202713 180.0
146.256424 92.0
146.28772 144.0
146.326233 112.0
146.379211 64.0
146.400543 56.0
146.422028 148.0
146.53096 68.0
146.615295 160.0
146.694839 72.0
146.967377 56.0
147.010803 72.0
147.039383 176.0
147.063324 204.0
147.100861 1672.0
147.1315 124.0
147.213593 60.0
147.337875 44.0
147.355865 192.0
147.410049 188.0
147.435852 100.0
147.505951 60.0
147.566345 212.0
147.653442 128.0
147.692139 208.0
147.767136 64.0
147.819565 144.0
147.934128 212.0
147.999496 156.0
148.071762 164.0
148.110367 560.0
148.224777 72.0
148.268402 168.0
148.360504 148.0
148.401718 76.0
148.425964 152.0
148.478745 100.0
148.653992 164.0
148.753967 248.0
148.82634 48.0
148.901627 172.0
148.930771 40.0
149.010941 40.0
149.03038 52.0
149.134872 116.0
149.181061 124.0
149.343994 80.0
149.365875 204.0
149.497269 40.0
149.536209 48.0
149.65062 120.0
149.721237 160.0
149.752899 116.0
149.777267 124.0
149.840607 152.0
149.945053 208.0
150.018509 120.0
150.164825 164.0
150.308762 144.0
150.508926 192.0
150.579742 156.0
150.60173 140.0
150.804535 184.0
150.870529 184.0
150.902313 100.0
150.936539 48.0
150.970779 92.0
151.099136 180.0
151.117554 124.0
151.25705 100.0
151.599945 68.0
151.671021 112.0
151.705338 136.0
151.912506 176.0
151.960403 148.0
152.046295 168.0
152.076218 168.0
152.097839 148.0
152.284454 208.0
152.377808 156.0
152.510513 72.0
152.596558 124.0
152.630981 68.0
152.724426 188.0
152.778549 184.0
152.812988 132.0
153.066528 120.0
153.100998 52.0
153.11824 124.0
153.268509 176.0
153.332596 224.0
153.369812 120.0
153.416397 140.0
153.502701 132.0
153.650696 132.0
153.683502 200.0
153.732117 168.0
153.77655 112.0
153.909851 212.0
154.001877 260.0
154.066772 548.0
154.228561 88.0
154.282944 200.0
154.302719 236.0
154.354645 116.0
154.423889 80.0
154.594604 136.0
154.676285 196.0
154.792648 144.0
154.817413 48.0
154.859512 204.0
154.968506 36.0
155.037903 176.0
155.058655 212.0
155.083054 188.0
155.171753 156.0
155.223831 68.0
155.256058 172.0
155.275909 96.0
155.370163 96.0
155.399933 212.0
155.422272 104.0
155.481827 144.0
155.514099 104.0
155.674667 100.0
155.859299 152.0
155.878677 224.0
156.080811 612.0
156.120316 36.0
156.170059 136.0
156.194931 124.0
156.331772 136.0
156.436325 60.0
156.468689 168.0
156.506027 196.0
156.555237 200.0
156.638672 184.0
156.822418 84.0
156.879761 128.0
156.968918 200.0
157.016891 36.0
157.046829 152.0
157.077911 464.0
157.473648 60.0
157.526093 148.0
157.546082 120.0
157.566071 76.0
157.69101 224.0
157.748505 164.0
157.796005 156.0
157.861023 84.0
157.893539 120.0
158.083008 560.0
158.087616 296.0
158.186295 60.0
158.221329 184.0
158.301468 192.0
158.336517 200.0
158.454758 192.0
158.587067 184.0
158.627182 140.0
158.64975 84.0
158.684845 56.0
158.860397 96.0
159.031036 140.0
159.06778 456.0
159.106918 104.0
159.267059 236.0
159.362534 144.0
159.468079 180.0
159.67424 76.0
159.948502 112.0
160.003891 172.0
160.073944 424.0
160.102921 360.0
160.144196 140.0
160.187729 152.0
160.240646 148.0
160.404449 200.0
160.439743 140.0
160.840851 180.0
160.891342 112.0
160.999924 208.0
161.043365 160.0
161.068115 180.0
161.087021 168.0
161.11467 176.0
161.285431 160.0
161.457352 128.0
161.502884 104.0
161.558533 140.0
161.601547 116.0
161.652161 156.0
161.696503 92.0
161.771591 236.0
161.839478 156.0
161.887589 144.0
161.905319 188.0
161.971176 100.0
162.024063 288.0
162.041306 76.0
162.050903 152.0
162.091507 12936.0
162.221191 120.0
162.244858 180.0
162.295563 120.0
162.36911 112.0
162.409958 196.0
162.546692 56.0
162.773834 84.0
162.857407 76.0
162.930099 48.0
162.996155 152.0
163.093781 1428.0
163.263077 60.0
163.46405 48.0
163.667908 168.0
163.784851 172.0
163.833252 220.0
163.87912 52.0
163.953659 208.0
163.991241 192.0
164.070816 25040.0
164.156967 48.0
164.182465 88.0
164.21817 56.0
164.238571 56.0
164.283646 180.0
164.323639 88.0
164.350494 60.0
164.376343 236.0
164.429947 116.0
164.591858 200.0
164.705704 72.0
164.734573 132.0
164.847794 84.0
164.864105 112.0
164.894775 72.0
164.916458 124.0
165.007263 116.0
165.043045 56.0
165.074112 1960.0
165.136337 48.0
165.18454 84.0
165.249008 160.0
165.434509 72.0
165.603516 40.0
165.785416 40.0
166.073486 180.0
166.288101 216.0
166.357925 172.0
166.408752 220.0
166.43956 72.0
166.511475 108.0
166.598801 84.0
166.668182 232.0
166.715851 132.0
166.982224 152.0
167.123306 128.0
167.156754 196.0
167.257126 216.0
167.303467 216.0
167.427063 204.0
167.754303 108.0
167.893539 160.0
168.080658 124.0
168.125732 164.0
168.244461 192.0
168.280609 200.0
168.309006 100.0
168.345169 68.0
168.520813 68.0
168.595764 164.0
168.810333 80.0
168.887924 184.0
169.073959 312.0
169.115616 60.0
169.612946 136.0
169.75296 172.0
169.825577 156.0
169.96048 188.0
169.984894 136.0
170.012375 120.0
170.05867 124.0
170.092606 200.0
170.409683 136.0
170.589005 172.0
170.966156 232.0
171.002594 112.0
171.091644 1564.0
171.171814 128.0
171.190048 132.0
171.286407 116.0
171.450562 468.0
171.502686 68.0
171.533966 108.0
171.601761 40.0
171.791534 136.0
171.956528 88.0
172.075241 2072.0
172.112244 1588.0
172.175842 40.0
172.384842 56.0
172.452789 244.0
172.532242 112.0
172.598846 152.0
172.610214 112.0
172.743042 140.0
172.85817 124.0
172.991653 128.0
173.078766 252.0
173.086182 292.0
173.10701 840.0
173.164474 160.0
173.198532 112.0
173.286118 140.0
173.378906 156.0
173.441513 60.0
173.502518 180.0
173.783142 116.0
173.995743 164.0
174.053513 148.0
174.08815 180.0
174.113678 192.0
174.245255 144.0
174.463394 208.0
174.513336 172.0
174.544891 140.0
174.612457 156.0
174.660614 108.0
174.841614 152.0
174.971146 124.0
175.092773 304.0
175.181839 192.0
175.3452 148.0
175.548203 80.0
175.571945 80.0
175.682724 132.0
175.749252 132.0
175.920242 60.0
176.069473 1256.0
176.110367 144.0
176.171127 44.0
176.268875 196.0
176.366669 76.0
176.394135 132.0
176.467133 64.0
176.50679 196.0
176.670776 76.0
176.760742 100.0
176.779266 28.0
176.818954 216.0
176.92749 80.0
177.07431 216.0
177.26387 212.0
177.30098 100.0
177.345612 152.0
177.406998 224.0
177.504257 176.0
177.565842 204.0
177.637726 28.0
177.712006 172.0
177.850006 84.0
177.926987 96.0
178.043823 128.0
178.087646 508.0
178.147415 192.0
178.235092 152.0
178.381699 108.0
178.506241 136.0
178.564743 136.0
178.788239 192.0
178.949905 76.0
179.065125 120.0
179.240952 200.0
179.29158 124.0
179.371536 148.0
179.459518 140.0
179.491516 112.0
179.693527 164.0
180.033249 156.0
180.085052 180.0
180.565094 60.0
180.661377 68.0
180.797852 192.0
180.870117 208.0
180.894211 72.0
180.995941 144.0
181.046829 188.0
181.069778 196.0
181.153961 156.0
181.336182 168.0
181.371017 200.0
181.550659 212.0
181.625763 160.0
181.695511 48.0
181.87262 180.0
181.990692 200.0
182.093674 208.0
182.141144 144.0
182.245926 184.0
182.380295 132.0
182.484879 168.0
182.737976 116.0
182.850998 200.0
182.93251 160.0
183.012512 224.0
183.031357 240.0
183.087372 740.0
183.150116 168.0
183.18219 140.0
183.249298 44.0
183.405853 128.0
183.651215 164.0
183.729446 216.0
183.783417 116.0
183.807693 120.0
184.069534 192.0
184.09288 168.0
184.126251 216.0
184.164062 84.0
184.196472 48.0
184.266724 44.0
184.355896 80.0
184.415344 124.0
184.512665 168.0
184.693848 88.0
184.7155 192.0
184.910309 124.0
185.023026 160.0
185.061905 60.0
185.102249 256.0
185.213577 40.0
185.29213 180.0
185.484543 204.0
185.649933 360.0
185.77742 148.0
185.83168 180.0
186.048813 84.0
186.078674 128.0
186.10582 108.0
186.143845 192.0
186.241608 216.0
186.366577 132.0
186.422043 156.0
186.494308 212.0
186.643829 196.0
186.799652 164.0
186.864151 124.0
187.035599 120.0
187.063858 180.0
187.085602 176.0
187.104477 160.0
187.136337 100.0
187.204407 164.0
187.245255 176.0
187.28067 92.0
187.43399 124.0
187.572235 152.0
187.60495 196.0
187.643112 164.0
187.675827 128.0
187.711288 152.0
187.814926 152.0
187.943146 56.0
188.070541 2108.0
188.132645 148.0
188.186066 124.0
188.431885 152.0
188.456482 176.0
188.522064 140.0
188.578049 132.0
188.691544 96.0
188.773575 64.0
188.918533 156.0
188.981461 184.0
189.016953 148.0
189.049866 304.0
189.073059 588.0
189.098267 216.0
189.129242 172.0
189.197037 180.0
189.233688 184.0
189.267975 136.0
189.312683 160.0
189.358368 100.0
189.38179 104.0
189.416763 112.0
189.435944 172.0
189.469543 120.0
189.514481 120.0
189.622452 120.0
189.65242 176.0
189.699615 364.0
189.731918 96.0
189.756012 152.0
189.778732 108.0
189.808685 64.0
189.843521 136.0
189.89563 484.0
189.937469 124.0
189.944519 168.0
189.984512 424.0
190.019882 556.0
190.047134 596.0
190.086899 154156.0
190.165115 100.0
190.183578 136.0
190.191681 104.0
190.251541 144.0
190.275955 168.0
190.312851 60.0
190.326523 112.0
190.349091 64.0
190.352448 288.0
190.376404 212.0
190.412186 172.0
190.437866 184.0
190.495087 44.0
190.513184 248.0
190.538193 984.0
190.561386 144.0
190.589478 108.0
190.613953 240.0
190.634766 164.0
190.660828 160.0
190.72052 128.0
190.744064 116.0
190.811508 128.0
190.832886 200.0
190.881866 64.0
190.920883 68.0
190.958466 72.0
191.012848 184.0
191.035095 152.0
191.089508 23456.0
191.162369 80.0
191.201141 120.0
191.230865 108.0
191.280777 60.0
191.312851 44.0
191.34465 116.0
191.393845 92.0
191.402664 140.0
191.46286 168.0
191.501602 84.0
191.564957 72.0
191.592514 92.0
191.611008 200.0
191.647614 140.0
191.676498 116.0
191.786774 340.0
191.868118 124.0
191.912231 48.0
191.93428 48.0
191.986191 136.0
192.015137 88.0
192.046341 116.0
192.091705 2320.0
192.145508 104.0
192.179138 120.0
192.206619 132.0
192.236908 148.0
192.29306 164.0
192.342346 124.0
192.351181 112.0
192.394547 236.0
192.404572 252.0
192.44368 256.0
192.474442 88.0
192.479431 188.0
192.504822 144.0
192.555222 112.0
192.600784 144.0
192.612762 72.0
192.622894 88.0
192.643188 52.0
192.679703 120.0
192.707916 304.0
192.745834 76.0
192.779388 84.0
192.911667 116.0
192.97525 80.0
193.019501 88.0
193.124588 76.0
193.155014 80.0
193.217758 188.0
193.262924 224.0
193.302444 200.0
193.340393 48.0
193.368073 144.0
193.404053 44.0
193.423431 48.0
193.462189 144.0
193.514801 60.0
193.547562 72.0
193.554855 60.0
193.586792 128.0
193.614487 160.0
193.667877 72.0
193.805634 68.0
193.838882 32.0
194.002411 108.0
194.09668 184.0
194.149368 148.0
194.360199 104.0
194.543381 76.0
194.677994 60.0
195.001709 36.0
195.129593 112.0
195.182419 124.0
195.321472 212.0
195.485626 40.0
195.5914 180.0
195.663773 172.0
195.758438 132.0
195.847565 136.0
195.952072 132.0
196.096085 252.0
196.232147 104.0
196.377151 164.0
196.77063 132.0
197.107071 800.0
197.279099 216.0
197.318237 224.0
197.376953 172.0
197.527985 64.0
197.933807 104.0
198.089111 152.0
198.113785 452.0
198.272781 72.0
198.312027 56.0
198.34285 152.0
198.550339 88.0
198.690598 64.0
199.018982 64.0
199.058289 148.0
199.082336 192.0
199.123077 172.0
199.431961 124.0
199.479736 56.0
199.634384 112.0
199.718765 104.0
199.974808 156.0
200.071503 956.0
200.10994 216.0
200.138092 128.0
200.262009 208.0
200.369049 96.0
200.394409 72.0
200.670624 136.0
200.714554 132.0
200.780609 96.0
200.805984 44.0
200.859573 124.0
200.887512 204.0
201.078293 308.0
201.106705 464.0
201.40155 116.0
201.595749 152.0
201.890503 136.0
202.048904 140.0
202.086197 444.0
202.235687 84.0
202.289459 44.0
202.428024 180.0
202.742661 248.0
202.765335 180.0
202.943924 124.0
203.026154 84.0
203.082474 136.0
203.431915 172.0
203.531281 72.0
203.693176 36.0
204.061295 144.0
204.123138 160.0
204.284454 112.0
204.386887 68.0
204.819626 172.0
204.97348 124.0
205.021927 208.0
205.059448 196.0
205.099411 164.0
205.341248 44.0
205.37262 104.0
205.552353 148.0
205.595154 100.0
206.084686 168.0
206.277817 92.0
206.375015 36.0
206.512283 72.0
206.746887 112.0
206.844208 84.0
206.895737 160.0
207.010269 44.0
207.104782 200.0
207.193588 56.0
207.219376 132.0
207.718216 84.0
207.832977 184.0
208.005173 76.0
208.088425 44.0
208.137985 320.0
208.478165 224.0
208.556686 204.0
208.640045 132.0
208.746445 80.0
208.861481 56.0
208.985184 40.0
209.117569 212.0
209.37381 144.0
209.396851 156.0
210.134827 228.0
210.426331 100.0
210.515854 176.0
210.585159 72.0
211.085144 200.0
211.125626 188.0
211.472809 128.0
211.600189 128.0
212.632156 84.0
212.873123 100.0
212.922501 168.0
213.125839 136.0
213.276962 144.0
213.425232 48.0
213.623016 100.0
213.911102 104.0
213.954773 48.0
214.091629 220.0
214.18483 148.0
214.336746 112.0
214.365479 152.0
214.811569 132.0
215.039169 132.0
215.062363 144.0
215.117096 276.0
215.214325 116.0
215.442139 88.0
215.652527 220.0
215.734375 124.0
216.062775 264.0
216.092484 180.0
216.14386 56.0
216.416077 80.0
216.583008 128.0
216.817413 52.0
217.0578 92.0
217.097443 424.0
217.203796 164.0
217.239639 172.0
217.324722 72.0
217.477325 184.0
218.084702 184.0
218.114243 312.0
218.185287 44.0
218.288208 92.0
218.317612 136.0
218.49115 188.0
218.511749 60.0
218.82962 220.0
218.985703 164.0
219.088806 144.0
219.118256 196.0
219.401199 148.0
219.469681 140.0
219.586975 124.0
220.085709 192.0
220.110275 136.0
220.13295 184.0
220.251083 264.0
220.447861 160.0
220.688477 148.0
220.759445 56.0
220.789017 168.0
221.117508 148.0
221.17662 168.0
221.309845 136.0
221.422379 200.0
221.469772 192.0
221.665298 180.0
221.742355 172.0
222.127792 312.0
222.178253 156.0
222.285736 144.0
222.382172 112.0
223.127151 168.0
223.310028 128.0
223.420105 120.0
223.461746 176.0
223.79213 228.0
224.083008 140.0
224.164474 252.0
224.316483 164.0
224.388031 96.0
224.826523 48.0
225.00563 64.0
225.131042 128.0
225.71077 32.0
226.042816 132.0
226.084717 116.0
226.170944 128.0
226.243362 44.0
226.79155 44.0
226.965439 44.0
227.028412 168.0
227.075806 304.0
227.337402 144.0
228.031174 68.0
228.103317 156.0
228.346863 72.0
228.738037 232.0
228.825333 156.0
229.097183 152.0
229.253067 292.0
230.097473 124.0
230.307419 176.0
230.532639 72.0
230.653534 148.0
231.070877 188.0
231.105225 148.0
231.470413 44.0
231.827881 132.0
232.055222 124.0
232.079483 188.0
232.276611 40.0
232.458649 176.0
233.099396 136.0
234.030197 44.0
234.131485 184.0
234.152191 300.0
234.31041 156.0
234.548111 128.0
234.763992 164.0
234.853043 32.0
235.026932 132.0
235.107117 2532.0
235.199844 128.0
235.341324 116.0
235.506241 136.0
235.691299 104.0
235.765945 184.0
236.03801 88.0
236.112976 384.0
236.136978 252.0
236.21846 120.0
236.340851 128.0
236.392868 120.0
236.735733 144.0
236.84906 140.0
236.941956 216.0
237.140137 168.0
237.31488 84.0
237.392181 192.0
237.544907 128.0
237.670685 92.0
237.790375 80.0
237.860977 116.0
237.936661 176.0
238.123016 200.0
238.229477 84.0
238.574753 252.0
238.899658 208.0
239.093506 44.0
239.466049 160.0
239.672455 48.0
239.780319 136.0
239.885117 100.0
239.996109 172.0
240.295288 80.0
240.857162 144.0
240.900406 132.0
241.100098 152.0
241.373291 184.0
241.404221 144.0
241.905457 120.0
242.104813 316.0
242.388626 140.0
242.642792 152.0
242.673782 148.0
242.726501 28.0
242.906387 124.0
243.108261 372.0
244.708923 196.0
244.830368 148.0
245.087845 280.0
245.113861 176.0
245.235397 48.0
245.266571 168.0
245.42868 72.0
245.684433 128.0
246.150696 272.0
246.26506 244.0
246.299423 176.0
246.618134 148.0
246.743179 136.0
246.833847 72.0
247.055923 188.0
247.10614 2420.0
247.150986 156.0
247.537933 112.0
247.822983 108.0
248.105042 324.0
248.142685 276.0
248.82666 148.0
249.116531 188.0
249.156433 152.0
249.480133 136.0
249.772598 80.0
249.851242 136.0
249.879562 80.0
250.329681 156.0
250.484009 172.0
250.524963 176.0
250.726624 56.0
251.278458 196.0
251.310013 172.0
252.187943 160.0
252.260651 184.0
252.336517 164.0
252.562485 168.0
253.336609 44.0
253.51088 204.0
254.021362 140.0
254.107346 116.0
254.427567 136.0
254.799149 44.0
255.113785 180.0
255.253677 84.0
255.616318 64.0
255.858231 188.0
256.192627 172.0
256.527252 168.0
256.999268 216.0
257.267365 136.0
257.714508 144.0
257.864685 104.0
258.123657 104.0
258.462708 128.0
258.49472 92.0
258.74118 112.0
258.974945 172.0
259.107269 196.0
259.141541 156.0
259.372284 164.0
259.702545 176.0
260.113007 172.0
260.152649 192.0
260.434387 44.0
260.488983 36.0
261.025726 64.0
261.112579 124.0
261.144745 172.0
261.389221 80.0
261.418182 60.0
261.517975 60.0
262.174988 144.0
262.313599 100.0
262.50705 100.0
262.565094 76.0
262.587677 128.0
262.674774 236.0
262.884491 88.0
263.097534 112.0
263.452759 204.0
264.371063 92.0
264.562042 72.0
264.801636 164.0
264.83728 168.0
265.044617 136.0
265.498474 104.0
265.70932 96.0
266.163727 172.0
266.777802 172.0
267.265656 60.0
267.71814 44.0
268.131134 444.0
268.389435 108.0
269.133392 308.0
269.495941 120.0
269.518829 108.0
269.810822 224.0
270.084412 148.0
270.545837 240.0
270.585114 144.0
270.739014 56.0
271.040405 168.0
271.774902 60.0
271.811005 104.0
271.853638 164.0
271.981659 56.0
272.047302 80.0
272.089996 84.0
272.148834 148.0
272.355988 124.0
273.121826 724.0
273.200806 196.0
273.315979 48.0
273.579285 56.0
273.829529 152.0
274.035431 80.0
274.137115 272.0
274.267761 136.0
274.30072 92.0
274.637054 56.0
274.752533 172.0
275.026428 108.0
275.059418 108.0
275.08255 76.0
275.128754 156.0
275.161682 128.0
275.171204 84.0
275.290558 116.0
275.482117 108.0
275.690277 232.0
275.938202 64.0
276.001007 108.0
276.110138 32.0
276.136597 244.0
276.239136 56.0
276.341705 148.0
276.828308 196.0
276.987274 44.0
277.164062 100.0
277.547394 208.0
277.68335 172.0
277.719849 108.0
277.759644 56.0
278.16449 108.0
278.40686 116.0
278.93515 116.0
279.172241 116.0
279.327545 172.0
279.830078 100.0
279.976593 28.0
280.127594 932.0
280.206451 188.0
280.626404 176.0
280.893188 72.0
281.141998 276.0
281.193512 156.0
281.383789 100.0
281.948303 64.0
282.214874 172.0
282.366211 184.0
282.419739 256.0
283.05896 340.0
283.206329 84.0
283.276672 168.0
283.571533 64.0
283.866577 136.0
283.937012 108.0
284.131561 80.0
285.307007 176.0
286.134644 120.0
286.212097 64.0
286.349884 136.0
286.559021 136.0
286.774689 80.0
286.84549 188.0
286.86908 136.0
287.14801 188.0
287.489716 56.0
287.685486 72.0
287.742859 96.0
287.91507 116.0
288.134644 152.0
288.716064 184.0
288.861481 92.0
288.949463 128.0
289.061127 132.0
289.169739 488.0
289.230347 132.0
289.565552 112.0
289.745087 148.0
290.114502 124.0
290.170654 276.0
290.484131 168.0
291.292053 156.0
291.417755 112.0
291.455139 60.0
292.155548 116.0
292.186157 100.0
292.267822 140.0
292.363098 80.0
292.47934 156.0
292.5867 232.0
292.621796 168.0
293.153198 124.0
293.224762 80.0
293.248627 180.0
293.395203 160.0
293.832489 252.0
294.143158 160.0
294.371033 180.0
294.562317 64.0
294.951874 184.0
295.225403 176.0
295.481934 116.0
295.985107 68.0
296.252258 76.0
296.601776 136.0
296.756042 184.0
296.83493 52.0
297.449066 80.0
297.637878 112.0
297.747772 92.0
297.895477 92.0
297.984802 168.0
298.098206 108.0
298.961365 188.0
299.922302 200.0
300.432678 180.0
300.801941 76.0
301.693207 108.0
301.921417 152.0
302.000977 168.0
302.810883 128.0
303.122681 200.0
303.18161 104.0
303.315125 80.0
303.712067 156.0
304.133911 144.0
304.274261 48.0
304.694489 60.0
304.982941 76.0
305.160187 696.0
305.271515 28.0
305.299316 80.0
305.612396 208.0
306.023132 60.0
306.113647 104.0
306.156799 236.0
306.730347 96.0
306.75824 96.0
307.406982 44.0
308.129761 148.0
308.699524 144.0
308.902374 168.0
309.119324 108.0
310.173523 144.0
310.25766 76.0
311.468353 132.0
311.928711 120.0
312.150208 124.0
312.195923 204.0
312.660309 144.0
313.346954 88.0
313.431519 188.0
313.72406 188.0
313.970886 136.0
314.662506 188.0
315.151581 112.0
315.32309 148.0
315.393799 148.0
315.436218 104.0
315.825165 160.0
316.125916 212.0
316.717163 140.0
316.97934 96.0
317.181366 48.0
317.479187 72.0
317.856476 140.0
317.880066 164.0
319.012268 156.0
319.365143 232.0
320.076904 144.0
320.440216 120.0
320.949921 164.0
320.989166 80.0
321.188873 92.0
321.404175 160.0
321.477875 200.0
321.888397 132.0
322.320648 220.0
322.38855 136.0
322.903351 48.0
322.982056 176.0
323.010651 156.0
323.125153 104.0
323.176056 864.0
323.608337 184.0
323.708588 64.0
324.030975 136.0
324.081116 136.0
324.165405 132.0
324.367828 200.0
324.486145 32.0
324.611633 136.0
324.72998 52.0
324.841187 180.0
325.049286 180.0
325.174896 312.0
325.401062 68.0
326.076385 188.0
326.202209 92.0
326.349609 128.0
327.576874 204.0
327.612885 132.0
327.987671 120.0
328.139069 140.0
328.359039 160.0
328.384277 124.0
328.57547 136.0
328.856964 148.0
328.932739 64.0
329.113495 136.0
329.22522 160.0
329.409424 188.0
329.525024 60.0
329.817749 132.0
330.172089 112.0
331.142059 152.0
331.221741 148.0
331.39563 120.0
331.460846 192.0
331.54422 196.0
331.761688 140.0
331.921234 160.0
331.990112 136.0
332.160583 160.0
332.356506 144.0
332.487152 168.0
332.566986 108.0
332.802979 188.0
332.832031 144.0
332.970032 40.0
333.161011 372.0
333.30423 64.0
333.485962 36.0
333.511383 52.0
333.576813 52.0
333.653168 148.0
334.164612 308.0
334.875854 88.0
335.39325 116.0
336.067932 88.0
336.150696 136.0
336.177429 100.0
336.25769 120.0
336.374512 156.0
336.586273 136.0
336.757904 136.0
337.031921 32.0
337.219635 152.0
337.375458 144.0
337.971649 212.0
338.385254 192.0
338.421844 88.0
339.224213 104.0
339.411194 140.0
339.862366 172.0
340.183258 144.0
340.431335 152.0
341.787811 100.0
341.916595 152.0
342.516754 176.0
343.17276 44.0
343.338684 60.0
343.696533 96.0
344.11731 108.0
344.560516 84.0
345.281342 184.0
345.447784 108.0
345.540283 140.0
345.973297 48.0
346.817902 92.0
346.910583 40.0
347.058868 48.0
347.292511 128.0
347.589325 116.0
347.635803 116.0
347.667236 132.0
347.756317 92.0
347.871399 124.0
348.146149 80.0
348.30957 96.0
348.369019 108.0
348.402435 76.0
348.433655 160.0
348.50647 92.0
348.55072 168.0
348.713013 188.0
348.762909 188.0
348.829803 100.0
348.941345 92.0
348.974823 92.0
349.064056 76.0
349.119843 120.0
349.175629 112.0
349.205383 132.0
349.235138 160.0
349.337952 276.0
349.40625 72.0
349.451904 268.0
349.493347 128.0
349.5737 104.0
349.627808 156.0
349.666748 216.0
349.74118 204.0
349.767242 160.0
349.793274 140.0
349.826782 200.0
349.877411 156.0
349.93103 108.0
349.973145 144.0
350.046478 88.0
350.169678 92.0
350.21405 36.0
350.273102 200.0
350.362518 188.0
350.420441 160.0
350.48587 92.0
350.534454 212.0
350.594849 120.0
350.65802 180.0
350.71106 180.0
350.792755 252.0
350.873108 188.0
350.922516 68.0
350.97348 176.0
351.033051 300.0
351.094086 280.0
351.170837 142404.0
351.302094 124.0
351.346924 104.0
351.360901 136.0
351.402985 104.0
351.456207 132.0
351.48349 100.0
351.518463 64.0
351.526611 92.0
351.554138 248.0
351.584015 208.0
351.625 144.0
351.66214 316.0
351.688965 136.0
351.699219 136.0
351.742126 124.0
351.785889 788.0
351.840118 64.0
351.868378 136.0
351.909973 164.0
351.992645 40.0
352.059113 196.0
352.109589 200.0
352.173035 29268.0
352.263092 208.0
352.293701 56.0
352.321838 132.0
352.363708 48.0
352.443237 128.0
352.478638 156.0
352.512939 68.0
352.552368 68.0
352.605347 108.0
352.618835 132.0
352.659943 160.0
352.699341 72.0
352.765961 32.0
352.793671 108.0
352.832062 88.0
352.863159 68.0
352.909882 108.0
352.954407 72.0
353.015167 128.0
353.07962 116.0
353.174347 3700.0
353.262512 100.0
353.393036 96.0
353.437836 112.0
353.472351 92.0
353.51825 116.0
353.593079 64.0
353.649841 48.0
353.657562 96.0
353.698242 92.0
353.764648 64.0
353.808105 116.0
353.864868 116.0
353.910217 84.0
354.00116 280.0
354.041321 160.0
354.09198 192.0
354.121002 172.0
354.181732 584.0
354.256897 144.0
354.334961 336.0
354.366028 128.0
354.380737 192.0
354.421967 128.0
354.441742 104.0
354.477509 172.0
354.587311 152.0
354.631378 336.0
354.673676 96.0
354.726868 64.0
354.772339 44.0
354.823303 68.0
354.874237 72.0
354.951385 124.0
354.997986 92.0
355.030243 80.0
355.09549 72.0
355.125488 44.0
355.180573 120.0
355.264221 116.0
355.374329 160.0
355.398712 108.0
355.425201 140.0
355.467651 80.0
355.521698 92.0
355.623322 180.0
355.669006 80.0
355.731476 76.0
355.770935 176.0
355.815979 96.0
355.868561 112.0
355.89859 60.0
355.96814 84.0
356.015778 184.0
356.04129 104.0
356.123901 40.0
356.168976 112.0
356.209167 92.0
356.488342 60.0
356.559753 60.0
356.589813 52.0
356.634918 56.0
356.767731 72.0
356.972137 116.0
357.02594 64.0
357.067322 56.0
357.257111 104.0
357.793549 76.0
357.958588 116.0
358.188965 72.0
358.256775 44.0
358.543152 80.0
359.055908 108.0
359.38031 48.0
359.576538 76.0
360.05603 36.0
360.135345 44.0
360.425232 128.0
360.520721 32.0
360.860931 156.0
361.19751 160.0
361.352631 228.0
362.041565 56.0
362.158966 100.0
362.480988 40.0
362.753876 60.0
362.799377 44.0
363.222504 132.0
363.466919 84.0
363.869263 60.0
364.214844 124.0
364.678406 80.0
364.777222 56.0
364.81134 144.0
364.859253 76.0
365.271576 60.0
365.865234 160.0
366.074677 68.0
366.352722 84.0
366.440338 48.0
366.527985 100.0
366.630859 84.0
366.798584 76.0
366.939636 32.0
366.966339 56.0
367.397308 84.0
367.637695 36.0
368.160706 76.0
368.515961 88.0
368.745239 80.0
368.875214 160.0
369.21933 92.0
369.605713 84.0
369.678406 148.0
369.865967 56.0
370.114807 108.0
370.210541 100.0
370.352264 64.0
370.861877 108.0
371.157074 68.0
371.751648 48.0
372.312164 40.0
372.788513 80.0
374.847321 136.0
375.109406 44.0
375.140259 104.0
375.39859 56.0
378.524872 80.0
379.200623 196.0
379.233856 176.0
380.149139 52.0
380.207367 136.0
380.358734 68.0
380.735352 36.0
385.976837 52.0
387.605225 172.0
387.957977 76.0
388.114807 60.0
389.189941 80.0
390.679535 88.0
390.990387 68.0
391.045502 168.0
392.290222 128.0
392.538635 96.0
392.605682 96.0
396.535553 92.0
396.844757 92.0
397.177887 336.0
397.277069 64.0
397.749298 104.0
398.80191 84.0
403.282043 124.0
406.401733 72.0
407.195496 132.0
413.89917 32.0
414.689148 164.0
416.819794 92.0
417.510895 212.0
419.47345 56.0
422.295013 76.0
423.506561 180.0
425.205444 1676.0
425.409271 92.0
426.212555 876.0
426.255341 220.0
426.386871 48.0
426.900757 40.0
427.217468 204.0
428.123016 92.0
428.213623 240.0
429.404755 68.0
431.291687 72.0
435.97934 84.0
436.727722 124.0
442.231293 56.0
443.4711 36.0
448.717468 60.0
450.921021 48.0
454.994843 48.0
457.470367 48.0
460.06662 76.0
460.92511 124.0
463.595398 128.0
467.740143 36.0
470.896423 44.0
481.031189 44.0
483.207611 68.0
483.820312 52.0
488.753693 28.0
488.995728 64.0
491.772522 44.0
494.450928 80.0
496.577606 96.0
496.901428 68.0
497.753662 80.0
500.515076 96.0
501.883026 28.0
504.468109 108.0
509.132538 48.0
511.781219 52.0
511.97934 92.0
512.821838 72.0
513.159973 64.0
514.879272 100.0
522.045471 140.0
524.019836 84.0
533.139771 56.0
534.427368 116.0
538.331726 92.0
538.631958 52.0
545.727356 100.0
552.929993 132.0
555.488342 120.0
563.387817 152.0
565.591492 116.0
566.121765 56.0
569.85968 60.0
572.990356 32.0
576.717346 44.0
579.718262 128.0
583.582397 104.0
585.040222 48.0
598.782715 92.0
599.55249 60.0
600.625183 60.0
609.978149 56.0
615.520874 68.0
618.477356 48.0
621.078796 80.0
621.63446 180.0
622.85083 96.0
624.501099 92.0
631.118958 72.0
632.169434 52.0
635.110413 80.0
636.470459 44.0
638.254272 92.0
643.55011 72.0
651.781189 60.0
653.606689 60.0
656.423706 60.0
662.045105 60.0
664.325989 44.0
666.492676 144.0
670.089233 184.0
675.592834 44.0
676.819519 88.0
679.877991 100.0
688.525574 52.0
688.624756 140.0
689.659363 56.0
690.25531 72.0
697.732361 68.0
699.710571 132.0
708.684265 88.0
713.375977 104.0
719.059509 116.0
727.173462 64.0
729.63916 88.0
730.262939 156.0
732.410583 148.0
733.051697 64.0
735.581299 124.0
745.069336 68.0
747.619507 52.0
747.701172 76.0
748.099487 68.0
751.373901 240.0
753.546875 52.0
756.418091 116.0
759.695129 36.0
764.992798 160.0
766.2099 104.0
771.944885 128.0
774.058838 108.0
778.250854 92.0
783.863464 92.0
784.381836 136.0
785.65332 176.0
791.214111 92.0
796.04187 32.0
797.446411 156.0
797.626282 188.0
797.783691 140.0
798.419067 176.0
799.032166 44.0
799.296631 124.0
805.362915 156.0
805.978699 64.0
809.825684 176.0
817.586975 180.0
818.657288 88.0
825.122314 28.0
825.83136 48.0
827.611206 56.0
830.035034 52.0
830.195618 48.0
837.679199 100.0
849.257507 92.0
853.485413 84.0
854.416016 196.0
855.399536 156.0
865.066711 44.0
865.529297 144.0
867.667908 100.0
871.447693 88.0
884.688416 156.0
889.021301 192.0
889.234924 160.0
895.168213 136.0
897.29541 64.0
902.143188 52.0
902.537781 168.0
908.887207 184.0
909.26532 148.0
910.069702 140.0
911.132812 152.0
913.152588 124.0
914.801331 208.0
918.085144 116.0
919.171021 52.0
920.746704 68.0
925.378784 144.0
926.850647 176.0
932.524963 208.0
935.90741 92.0
938.027588 164.0
941.267334 124.0
941.810913 184.0
942.489075 156.0
943.252991 184.0
945.650818 72.0
945.822205 196.0
948.823975 148.0
951.695374 176.0
953.243347 200.0
955.690735 176.0
956.509277 144.0
958.313721 176.0
960.526978 96.0
962.687195 84.0
965.523865 156.0
968.358521 148.0
969.975769 144.0
973.584839 220.0
975.519287 84.0
976.881165 188.0
982.332092 204.0
983.074585 92.0
986.753723 200.0
992.269653 184.0
993.611816 160.0
993.768677 100.0
993.93811 196.0
997.53064 132.0
1003.000977 176.0
1004.003479 72.0
1006.780334 212.0
1007.146667 76.0
1008.05011 220.0
1010.807251 232.0
1010.876892 128.0
1013.967407 172.0
1014.556946 196.0
1014.740784 228.0
1018.173767 184.0
1018.294495 224.0
1019.533386 204.0
1021.218201 80.0
1023.044495 92.0
1023.776733 248.0
1024.356323 52.0
1024.69397 156.0
1025.038086 68.0
1025.649902 124.0
1027.901367 100.0
1030.199829 164.0
1032.635254 88.0
1036.82251 220.0
1038.694702 160.0
1041.499878 244.0
1042.765625 136.0
1043.164185 168.0
1047.669067 176.0
1048.010498 184.0
1049.763794 152.0
1051.370239 32.0
1052.519287 188.0
1055.996216 144.0
1057.782104 128.0
1058.015137 112.0
1058.112183 204.0
1059.205322 92.0
1061.864258 152.0
1062.188599 128.0
1066.357178 140.0
1067.384399 212.0
1067.742065 192.0
1068.210327 120.0
1068.652832 164.0
1069.720093 160.0
1069.856812 112.0
1069.954468 184.0
1070.742432 52.0
1071.354736 192.0
1072.110596 140.0
1073.518677 148.0
1073.812256 148.0
1074.027466 180.0
1074.588501 112.0
1076.488037 192.0
1077.487427 112.0
1079.507202 192.0
1081.051025 40.0
1081.096802 184.0
1081.352051 160.0
1082.720459 160.0
1083.663696 212.0
1086.981689 132.0
1087.940918 140.0
1088.261597 184.0
1088.65564 120.0
1089.982666 160.0
1090.212646 116.0
1090.731812 112.0
1094.638184 156.0
1094.883667 204.0
1094.92981 32.0
1096.221069 92.0
1097.935059 120.0
1099.135742 120.0
1100.132324 112.0
1101.103027 208.0
1102.483765 100.0
1104.283691 180.0
1106.20105 164.0
1106.704224 212.0
1107.995728 140.0
1108.883789 112.0
1109.069336 140.0
1109.480347 148.0
1111.51001 204.0
1112.299805 204.0
1117.017822 220.0
1118.468506 172.0
1122.519287 100.0
1124.280518 148.0
1124.814453 96.0
1125.722412 180.0
1127.83374 180.0
1129.692749 172.0
1131.365845 204.0
1131.432739 144.0
1131.747437 152.0
1131.881348 168.0
1132.189453 168.0
1132.440674 152.0
1133.033447 172.0
1133.227661 180.0
1133.783936 196.0
1134.554688 192.0
1135.345947 184.0
1137.298462 132.0
1137.439331 168.0
1139.353271 164.0
1141.55127 104.0
1143.037964 216.0
1149.783813 108.0
1152.289062 172.0
1153.032349 44.0
1153.214844 72.0
1153.981079 208.0
1154.181641 80.0
1154.72937 144.0
1155.920166 140.0
1157.043701 160.0
1157.361938 160.0
1158.181396 176.0
1159.766968 44.0
1160.146606 116.0
1160.28894 48.0
1163.647461 160.0
1165.128052 192.0
1165.454102 92.0
1165.855103 192.0
1167.024292 180.0
1167.527466 72.0
1171.080322 136.0
1171.713867 324.0
1172.531494 220.0
1173.874634 108.0
1174.106445 60.0
1174.406494 204.0
1175.238892 156.0
1176.228394 140.0
1176.303589 160.0
1177.095581 224.0
1177.150146 156.0
1178.434326 112.0
1178.755493 28.0
1179.466309 196.0
1179.814941 68.0
1179.924316 160.0
1180.045532 184.0
1182.270508 204.0
1182.557983 156.0
1182.785034 172.0
1183.625977 136.0
1184.900024 88.0
1185.009644 152.0
1185.496094 128.0
1187.004272 196.0
1187.107178 52.0
1187.168945 164.0
1188.005737 204.0
1188.396729 84.0
1188.568359 208.0
1191.582642 232.0
1192.984619 232.0
1193.232178 36.0
1193.89917 192.0
1194.064209 152.0
1195.625977 244.0
1196.204102 76.0
1196.376221 104.0
1201.959106 148.0
1203.96106 172.0
1204.700195 192.0
1206.794312 40.0
1206.904907 88.0
1207.499756 52.0
1208.994141 72.0
1209.321167 204.0
1209.409424 180.0
1210.046265 292.0
1210.697144 140.0
1211.860962 176.0
1213.351074 120.0
1213.579956 136.0
1216.278687 116.0
1216.979858 152.0
1217.070068 128.0
1217.479858 172.0
1217.570068 240.0
1218.744141 148.0
1218.890015 104.0
1219.995117 172.0
1220.275513 196.0
1221.286133 236.0
1222.262573 172.0
1223.22998 188.0
1223.724365 200.0
1223.891357 108.0
1224.183838 188.0
1225.082397 80.0
1226.4552 164.0
1227.13147 156.0
1227.97522 124.0
1228.21936 204.0
1228.296143 176.0
1228.519287 140.0
1229.370605 164.0
1229.470703 192.0
1229.545044 188.0
1229.880127 180.0
1230.822632 132.0
1231.094971 168.0
1231.709595 132.0
1231.821289 292.0
1231.877197 112.0
1232.268433 108.0
1233.093018 188.0
1233.575317 156.0
1234.308838 192.0
1235.428589 320.0
1235.743408 208.0
1236.401245 168.0
1236.723145 180.0
1236.919189 80.0
1237.192139 140.0
1238.417603 128.0
1238.697876 180.0
1238.865967 124.0
1239.216309 164.0
1239.636719 72.0
1239.889038 184.0
1239.980103 184.0
1240.533813 188.0
1241.00354 116.0
1241.101807 112.0
1241.445312 196.0
1241.922241 168.0
1243.143066 176.0
1243.971313 224.0
1245.045532 200.0
1245.523193 208.0
1246.120361 108.0
1246.977661 100.0
1247.504883 136.0
1247.596313 164.0
1247.750977 176.0
1248.76355 216.0
1249.101196 184.0
1249.326294 164.0
1250.958984 160.0
1251.057617 132.0
1251.606689 172.0
1251.733521 164.0
1254.016113 180.0
1254.389648 180.0
1254.509521 144.0
1254.580078 340.0
1256.14563 176.0
1256.632446 176.0
1256.77356 152.0
1257.331055 168.0
1258.665283 204.0
1259.873047 32.0
1260.153198 212.0
1260.179688 140.0
1260.208496 268.0
1260.346436 216.0
1260.395874 96.0
1260.735107 132.0
1260.890625 132.0
1262.233765 128.0
1263.252319 168.0
1263.995117 160.0
1264.59668 80.0
1264.851562 188.0
1265.375488 216.0
1265.722412 236.0
1266.535767 132.0
1267.110718 164.0
1267.372803 192.0
1267.797974 176.0
1268.598999 148.0
1269.499512 200.0
1269.712158 180.0
1270.336426 188.0
1270.549194 216.0
1271.379395 176.0
1271.528442 160.0
1272.188599 160.0
1273.452637 140.0
1274.347656 180.0
1275.548828 148.0
1275.733643 60.0
1277.582642 36.0
1277.746338 152.0
1278.123413 308.0
1278.450684 116.0
1278.557495 156.0
1279.981323 140.0
1280.714844 64.0
1280.885742 248.0
1281.092407 212.0
1281.434326 140.0
1281.854736 120.0
1282.588867 152.0
1282.902466 152.0
1283.180542 120.0
1283.84375 216.0
1284.457153 100.0
1284.521362 76.0
1285.141968 116.0
1285.762817 136.0
1286.298218 140.0
1286.405273 196.0
1286.812256 224.0
1287.076416 180.0
1287.80481 172.0
1288.733521 120.0
1289.405273 152.0
1290.356079 132.0
1290.64209 148.0
1291.185547 124.0
1292.079712 160.0
1292.501831 148.0
1292.952759 236.0
1293.217529 68.0
1293.367798 88.0
1294.849976 140.0
1295.143677 204.0
1295.709595 168.0
1297.257568 136.0
1297.44397 164.0
1298.060669 184.0
1300.50708 116.0
1300.851685 164.0
1301.519409 200.0
1301.799438 132.0
1301.856934 184.0
1302.424316 160.0
1303.113892 108.0
1303.83252 160.0
1303.983521 172.0
1304.414795 136.0
1304.486694 40.0
1304.709473 200.0
1305.119385 176.0
1305.198364 200.0
1305.255981 136.0
1305.766602 92.0
1306.27002 144.0
1307.36377 168.0
1307.753906 196.0
1308.400269 180.0
1308.637817 220.0
1308.837891 160.0
1309.876587 180.0
1310.258423 136.0
1310.654663 204.0
1310.885254 172.0
1310.935669 160.0
1311.007812 108.0
1312.060181 204.0
1313.322144 112.0
1313.61792 164.0
1314.000244 112.0
1314.115723 160.0
1314.202271 144.0
1314.361084 156.0
1314.887817 132.0
1315.645752 192.0
1315.713623 204.0
1315.804688 160.0
1316.172852 112.0
1316.779541 168.0
1316.996216 112.0
1317.357422 220.0
1317.841431 128.0
1317.935425 192.0
1319.04834 84.0
1319.894287 84.0
1320.180176 172.0
1320.385986 128.0
1321.811157 180.0
1321.977661 96.0
1322.042725 140.0
1322.896851 120.0
1323.526733 160.0
1324.830444 188.0
1324.888428 148.0
1325.062378 180.0
1325.757935 28.0
1325.931885 196.0
1326.70752 212.0
1327.302002 188.0
1327.693604 144.0
1328.179565 196.0
1328.585815 144.0
1329.02124 156.0
1329.427612 84.0
1330.299072 260.0
1330.348267 128.0
1331.569336 160.0
1333.269409 96.0
1333.53833 144.0
1334.315308 180.0
1334.526978 184.0
1335.807007 200.0
1338.298706 200.0
1338.550903 184.0
1338.652832 156.0
1339.10437 212.0
1339.548706 140.0
1341.392456 160.0
1341.669434 144.0
1342.449585 116.0
1342.515259 44.0
1343.091431 76.0
1343.726196 156.0
1343.915894 148.0
1344.616455 92.0
1345.609131 52.0
1345.762573 172.0
1347.712769 152.0
1348.633545 140.0
1349.640381 164.0
1350.337158 136.0
1350.803711 148.0
1351.383301 156.0
1351.851685 120.0
1351.91748 180.0
1352.232178 136.0
1352.393188 152.0
1352.686035 112.0
1353.374268 200.0
1353.901489 164.0
1354.480103 132.0
1354.721924 124.0
1355.022217 112.0
1355.557129 132.0
1355.703735 220.0
1355.813599 160.0
1356.209473 136.0
1357.881104 92.0
1358.269897 144.0
1358.409302 236.0
1358.497314 76.0
1358.67334 156.0
1358.944824 132.0
1359.289795 168.0
1359.671387 152.0
1361.315796 188.0
1361.543457 224.0
1362.197266 180.0
1362.454346 44.0
1362.711548 108.0
1362.821655 192.0
1363.196533 208.0
1363.306763 220.0
1363.380249 152.0
1363.446289 92.0
1363.600708 168.0
1363.924072 96.0
1363.997559 136.0
1365.563843 148.0
1365.615234 192.0
1365.894775 180.0
1366.431885 56.0
1366.537476 212.0
1366.733521 168.0
1367.226562 216.0
1367.881714 136.0
1368.720947 192.0
1368.882935 140.0
1369.241699 124.0
1369.567993 128.0
1370.127808 176.0
1371.026733 156.0
1371.535278 180.0
1372.132446 164.0
1372.279907 152.0
1372.449463 208.0
1372.523315 100.0
1374.383057 160.0
1375.171753 152.0
1375.258301 220.0
1375.363647 240.0
1375.85083 136.0
1375.917358 124.0
1376.187622 164.0
1377.472534 224.0
1377.881958 212.0
1379.049438 144.0
1380.491211 172.0
1381.216064 140.0
1381.275146 192.0
1382.052002 124.0
1383.132568 312.0
1383.276733 84.0
1383.843262 140.0
1385.761597 164.0
1385.97644 136.0
1386.02832 56.0
1386.40625 48.0
1386.576782 244.0
1386.665649 52.0
1387.080811 156.0
1387.629395 56.0
1387.940796 176.0
1388.066895 232.0
1388.289307 124.0
1388.407959 208.0
1388.729736 168.0
1389.320435 56.0
1389.765503 80.0
1389.965942 128.0
1390.336914 208.0
1390.552124 128.0
1390.611572 180.0
1390.826782 176.0
1391.005005 164.0
1391.279663 208.0
1391.450439 148.0
1391.806763 68.0
1392.148438 180.0
1394.875244 152.0
1395.1875 132.0
1395.767456 204.0
1396.436768 160.0
1397.180542 168.0
1397.470825 120.0
1397.560059 208.0
1398.058594 72.0
1398.862549 148.0
1399.100708 224.0
1399.681519 140.0
1400.284668 124.0
1400.560303 120.0
1401.193481 176.0
1401.640625 216.0
1401.893921 136.0
1402.296387 184.0
1403.018555 160.0
1403.176025 252.0
1403.996338 104.0
1404.182739 96.0
1404.242432 328.0
1404.563232 108.0
1404.637817 108.0
1404.947144 272.0
1405.063721 208.0
1405.114014 128.0
1406.040527 160.0
1407.234863 168.0
1407.302124 196.0
1407.541016 92.0
1408.13855 92.0
1409.606689 220.0
1409.901733 168.0
1410.058716 196.0
1410.432373 124.0
1410.888428 172.0
1412.361572 164.0
1412.421509 180.0
1412.668335 200.0
1413.229492 164.0
1414.127441 152.0
1414.239746 180.0
1414.366943 192.0
1415.445068 132.0
1415.804565 136.0
1416.755859 160.0
1417.782471 116.0
1418.344604 124.0
1418.531982 216.0
1418.61438 64.0
1418.981812 208.0
1419.424194 212.0
1419.83667 104.0
1420.646729 108.0
1420.984375 160.0
1421.449585 224.0
1421.764771 116.0
1421.892334 184.0
1422.041504 152.0
1422.432739 44.0
1422.567871 72.0
1422.657959 168.0
1422.898193 136.0
1423.311157 160.0
1423.634155 164.0
1423.84436 156.0
1424.475342 148.0
1425.745117 144.0
1427.399048 144.0
1427.587036 268.0
1427.970581 108.0
1429.181763 100.0
1429.278687 184.0
1429.640869 228.0
1430.069824 212.0
1430.453735 136.0
1431.402466 176.0
1431.673462 120.0
1432.250977 208.0
1432.999268 144.0
1433.926147 188.0
1434.054321 220.0
1434.303101 224.0
1434.710205 76.0
1434.860962 204.0
1435.019287 48.0
1435.539551 176.0
1435.905273 172.0
1436.361694 156.0
1436.806763 184.0
1437.229248 100.0
1438.104736 56.0
1439.342896 128.0
1439.516602 176.0
1439.577026 164.0
1440.045166 84.0
1440.528687 168.0
1440.732666 172.0
1441.238892 156.0
1441.571289 136.0
1441.624268 160.0
1441.775391 196.0
1442.569092 128.0
1442.992432 28.0
1443.249512 240.0
1443.423462 100.0
1443.552002 188.0
1443.619995 160.0
1443.710815 120.0
1443.854492 180.0
1444.088989 212.0
1446.056152 100.0
1446.805542 176.0
1447.34314 180.0
1447.706665 72.0
1447.78894 152.0
1448.532227 100.0
1448.827637 96.0
1449.539917 120.0
1449.770996 152.0
1450.002197 72.0
1450.601074 128.0
1450.93457 168.0
1451.290894 180.0
1451.488159 60.0
1452.049316 84.0
1452.360229 180.0
1452.511963 204.0
1452.974731 204.0
1453.197876 176.0
1455.069458 168.0
1455.259277 164.0
1455.714966 164.0
1456.041504 164.0
1456.102295 220.0
1456.191406 216.0
1456.77063 176.0
1457.10498 152.0
1457.37854 64.0
1458.173828 116.0
1458.959351 232.0
1459.202637 140.0
1459.309082 176.0
1459.681763 120.0
1459.940308 132.0
1460.084717 108.0
1460.951904 176.0
1461.020386 52.0
1461.291016 176.0
1461.431274 176.0
1461.484497 136.0
1462.055298 180.0
1462.412964 44.0
1462.603271 116.0
1462.816406 160.0
1462.935547 216.0
1463.623413 168.0
1463.890015 80.0
1464.240234 192.0
1464.308838 196.0
1465.561401 200.0
1465.855347 52.0
1466.795166 148.0
1467.768799 64.0
1467.837402 124.0
1468.478027 124.0
1468.546631 80.0
1468.68396 164.0
1468.821289 136.0
1469.30188 160.0
1469.401001 128.0
1469.492554 140.0
1469.614624 160.0
1469.866455 172.0
1470.209839 108.0
1470.3396 112.0
1470.728882 176.0
1470.88916 56.0
1471.583984 72.0
1471.996216 140.0
1472.133667 208.0
1472.202515 140.0
1472.385742 172.0
1472.851685 76.0
1473.126709 144.0
1473.378784 132.0
1473.714966 148.0
1473.821899 276.0
1473.898315 200.0
1474.830688 144.0
1475.281738 244.0
1475.373535 168.0
1475.931641 172.0
1475.999756 168.0
1476.061646 216.0
1477.300659 224.0
1478.383545 200.0
1479.014893 220.0
1479.719116 188.0
1480.163208 160.0
1480.65332 96.0
1481.197144 148.0
1481.626221 160.0
1482.538086 180.0
1483.358154 252.0
1483.434814 208.0
1483.695435 172.0
1483.994507 252.0
1484.109497 184.0
1484.308838 184.0
1485.881348 220.0
1486.47937 152.0
1486.763794 184.0
1487.193604 80.0
1487.815308 164.0
1488.061035 144.0
1488.145508 220.0
1490.841797 220.0
1491.348999 152.0
1491.571899 252.0
1491.767334 192.0
1492.079346 148.0
1492.755981 80.0
1493.017456 136.0
1494.41748 160.0
1495.048462 224.0
1495.14856 176.0
1495.202393 192.0
1495.325562 112.0
1496.095337 164.0
1497.242676 128.0
1497.365845 172.0
1497.453247 208.0
1497.758667 164.0
1497.851685 184.0
1498.005249 192.0
1499.207153 68.0
1499.723633 236.0
1500.078125 156.0
1501.365845 80.0
1501.4198 136.0
1502.129395 232.0
1502.71582 120.0
1503.171021 144.0
1503.402588 196.0
1503.526001 164.0
1503.587769 256.0
1503.819336 176.0
1503.965942 196.0
1504.525269 156.0
1505.077759 216.0
