>compound MLS002153779-01!Practolol6673-35-4
>formula C14H22N2O3
>ionization [M+H]+
>parentmass 267.169281
#inchi InChI=1S/C14H22N2O3/c1-10(2)15-8-13(18)9-19-14-6-4-12(5-7-14)16-11(3)17/h4-7,10,13,15,18H,8-9H2,1-3H3,(H,16,17)
#inchikey DURULFYMVIFBIR
#Ion_Source LC-ESI
#Instrument qTof
#Compound_Source NIH Pharmacologically Active Library
#PI Dorrestein
#Data_Collector VP/LMS
#Scan -1
#Precursor_MZ 267.173
#ExactMass 266.163
#Charge 1
#CAS_Number N/A
#Pubmed_ID N/A
#Smiles CC(C)NCC(O)COc1ccc(NC(=O)C)cc1
#INCHI_AUX N/A
#Library_Class 1
#SpectrumID CCMSLIB00000085861
#IonMode Positive
#UpdateWorkflowName UPDATE-SINGLE-ANNOTATED-GOLD
#LibraryQualityString Gold
#TaskID d252d724072548979f1f6f1ced849daf
##Scan# 1102
#SpectrumFile p4-G04_GG4_01_18400.mzXML
#LibraryName Pharm_Active_Library.mgf
#MQScore -1
#Organism Pharm_Active_Library
#TIC_Query 0
#RT_Query -1
#MZErrorPPM -1
#SharedPeaks 0
#MassDiff 0
#LibMZ -1
#SpecMZ 267.173
#SpecCharge 0
#internalFilename spec-00000.mgf

>collision 10
44.895672 132.0
45.103966 32.0
45.316757 104.0
45.369026 212.0
45.415962 108.0
45.496479 164.0
45.566319 180.0
45.808266 172.0
45.89492 132.0
46.028332 156.0
46.575497 176.0
46.794453 220.0
46.806709 72.0
46.902611 92.0
47.00164 164.0
47.247581 212.0
47.276318 184.0
47.294113 208.0
47.342033 180.0
47.675407 156.0
47.733147 148.0
47.767529 188.0
48.094116 132.0
48.410732 212.0
48.470299 40.0
48.957912 104.0
49.126987 188.0
49.137733 220.0
49.248016 168.0
49.299713 96.0
49.322075 96.0
49.384998 116.0
49.49276 136.0
49.603443 60.0
49.613258 48.0
49.747936 180.0
49.790062 204.0
50.068535 116.0
50.098114 152.0
50.43256 148.0
50.511745 168.0
51.120434 160.0
51.175953 140.0
51.649773 144.0
51.811539 196.0
51.910442 88.0
52.009438 36.0
52.220661 192.0
52.422222 172.0
52.43375 112.0
52.464024 152.0
52.631393 168.0
52.758537 164.0
53.052429 208.0
53.171375 132.0
53.470779 160.0
53.668903 172.0
53.771023 180.0
53.83672 200.0
54.102848 176.0
54.158493 188.0
54.192188 36.0
54.765137 140.0
54.832916 168.0
54.881565 144.0
54.894836 132.0
55.213833 124.0
55.946869 140.0
56.10479 188.0
56.209202 180.0
56.376457 68.0
56.418308 160.0
56.593365 128.0
56.708717 148.0
56.728207 160.0
56.879719 128.0
57.043461 156.0
57.139709 144.0
57.154758 192.0
57.302319 136.0
57.564781 228.0
57.575356 176.0
57.902542 192.0
57.948997 44.0
57.982338 204.0
58.2342 232.0
58.247871 160.0
58.264584 176.0
58.346653 144.0
58.657219 80.0
58.991539 160.0
59.078709 212.0
59.176662 212.0
59.386616 188.0
59.506313 188.0
59.920055 132.0
60.298126 156.0
60.34605 128.0
60.397083 132.0
60.520897 80.0
60.674286 40.0
60.87756 56.0
60.924156 164.0
61.172985 124.0
61.728443 148.0
61.786316 324.0
62.029057 204.0
62.319405 44.0
62.43573 156.0
62.550594 56.0
62.941601 160.0
63.01268 168.0
63.121746 136.0
63.232491 140.0
63.272064 160.0
63.317986 36.0
63.422562 132.0
63.697083 172.0
63.720913 164.0
63.868759 172.0
63.981747 148.0
64.244713 136.0
64.429909 40.0
64.725815 232.0
64.754639 128.0
64.773865 172.0
64.940567 196.0
64.977463 168.0
65.574074 204.0
66.045555 176.0
66.175026 160.0
66.239807 180.0
66.613625 192.0
66.934952 32.0
66.957748 168.0
66.993591 152.0
67.006622 240.0
67.200645 164.0
67.278992 136.0
67.461967 152.0
67.55027 148.0
67.643547 196.0
67.781128 168.0
67.815544 216.0
68.050346 160.0
68.166763 184.0
68.515762 120.0
69.257332 128.0
69.530914 144.0
69.574074 176.0
69.735207 244.0
69.748505 160.0
70.323174 112.0
70.518593 180.0
70.689186 156.0
70.736053 96.0
71.429108 176.0
71.575531 168.0
71.774063 196.0
71.897522 184.0
72.152596 132.0
72.259148 132.0
72.408112 228.0
72.509773 92.0
72.691231 112.0
72.935806 72.0
72.981201 188.0
72.993614 240.0
73.327293 148.0
73.361389 156.0
73.752304 156.0
74.392982 160.0
74.520073 220.0
74.671349 92.0
75.014015 180.0
75.371284 176.0
75.545914 112.0
75.635902 144.0
76.175201 172.0
76.48996 112.0
76.662392 180.0
77.268311 196.0
77.431114 120.0
77.46965 160.0
77.601097 152.0
77.651947 140.0
77.746689 248.0
78.191345 140.0
78.420311 112.0
78.552567 208.0
78.579025 144.0
78.640793 48.0
78.762627 140.0
79.017204 100.0
79.0933 164.0
79.203087 140.0
79.261551 92.0
79.295227 160.0
79.364365 220.0
79.390961 100.0
79.518707 236.0
79.754944 220.0
79.874084 180.0
79.941689 144.0
80.116188 176.0
80.162514 124.0
80.253426 80.0
80.347961 92.0
80.394356 160.0
80.469322 36.0
80.568871 136.0
80.714119 76.0
80.898407 156.0
81.059608 180.0
81.237427 184.0
81.63047 148.0
81.877022 48.0
82.066238 372.0
82.093292 112.0
82.255676 132.0
82.41642 68.0
82.709404 208.0
83.25132 180.0
83.404144 156.0
83.511429 148.0
83.653358 104.0
83.698875 236.0
83.851906 44.0
84.251534 212.0
84.307732 212.0
84.436157 184.0
84.606339 148.0
84.87751 232.0
84.914192 320.0
84.978401 172.0
85.10321 160.0
85.377022 152.0
85.551826 132.0
85.727524 248.0
86.26947 196.0
86.313843 124.0
86.584038 136.0
86.647018 148.0
87.209312 132.0
87.600082 176.0
87.764091 132.0
87.862946 160.0
88.35244 124.0
88.648293 80.0
88.820786 144.0
88.94651 224.0
89.059174 168.0
89.119293 272.0
89.631111 176.0
89.806442 184.0
90.049927 124.0
90.456223 152.0
90.736862 112.0
91.025276 76.0
91.053642 456.0
91.139252 112.0
91.253296 140.0
91.479698 208.0
91.531105 164.0
91.765472 180.0
92.003967 144.0
92.050964 624.0
92.103264 48.0
92.139565 180.0
92.164406 96.0
92.644646 208.0
92.842072 156.0
93.032967 132.0
93.057533 3712.0
93.233727 60.0
93.251022 72.0
93.457199 152.0
93.520302 168.0
93.648346 60.0
93.674355 188.0
93.689522 64.0
93.707108 152.0
94.033005 84.0
94.064758 5620.0
94.09285 152.0
94.146919 48.0
94.162369 52.0
94.224182 40.0
94.31501 124.0
94.359474 48.0
94.41169 52.0
94.5355 196.0
94.754311 120.0
94.82795 60.0
94.988892 136.0
95.068893 700.0
95.083969 220.0
95.223763 128.0
95.396706 68.0
95.431702 180.0
95.486145 168.0
95.507545 144.0
95.5951 136.0
95.778114 136.0
95.846306 56.0
95.875534 84.0
96.008072 208.0
96.413071 216.0
96.798576 132.0
97.154358 116.0
97.203415 164.0
97.25444 128.0
98.096207 456.0
98.120026 140.0
98.265976 112.0
98.323204 56.0
98.414009 168.0
98.579941 128.0
98.801399 164.0
98.902328 156.0
99.027069 48.0
99.197479 188.0
99.256966 116.0
99.497589 176.0
99.781158 144.0
99.82093 96.0
99.978088 120.0
100.115013 800.0
100.193146 124.0
100.599991 160.0
100.625938 212.0
100.793724 188.0
101.031662 128.0
101.111702 172.0
101.390091 144.0
101.482307 192.0
101.548485 172.0
101.7351 280.0
101.994247 120.0
102.028419 208.0
102.042496 308.0
102.092766 192.0
102.132996 40.0
102.199387 84.0
102.555847 48.0
102.715141 152.0
103.054115 3100.0
103.116966 112.0
103.35965 208.0
103.710022 140.0
103.766785 88.0
103.931076 112.0
104.057884 288.0
104.255989 224.0
104.28038 164.0
104.3312 196.0
104.703575 140.0
104.758575 52.0
104.860458 188.0
104.995026 172.0
105.028854 164.0
105.060966 412.0
105.150085 168.0
105.521873 44.0
105.685501 156.0
105.701874 220.0
105.757133 184.0
106.006996 152.0
106.037743 208.0
106.063118 728.0
106.150497 52.0
106.462433 160.0
106.74192 252.0
106.822128 192.0
106.900322 108.0
107.044006 220.0
107.075935 180.0
107.097969 192.0
107.238083 100.0
107.289619 152.0
107.403038 168.0
107.774658 236.0
107.923485 192.0
108.044037 3516.0
108.080269 756.0
108.134491 60.0
108.264931 72.0
108.461761 156.0
108.544693 44.0
108.623512 28.0
108.899582 224.0
108.995148 52.0
109.05072 672.0
109.084518 240.0
109.263374 124.0
109.572517 108.0
110.022003 232.0
110.059586 1888.0
110.157745 40.0
111.041084 184.0
111.062263 204.0
111.18795 236.0
111.513496 152.0
112.001663 72.0
112.839478 152.0
112.879654 132.0
112.93676 224.0
113.061592 176.0
113.144142 232.0
114.388206 120.0
114.484016 172.0
114.569221 200.0
114.756775 60.0
115.091774 164.0
115.121674 160.0
115.341743 156.0
115.585564 84.0
115.784653 128.0
116.105392 720.0
116.395851 196.0
116.524727 176.0
116.559105 96.0
116.675179 132.0
116.761192 188.0
117.05172 292.0
117.11013 200.0
117.215439 184.0
117.681358 148.0
118.040062 40.0
118.064171 5868.0
118.100616 56.0
118.407967 36.0
118.44046 128.0
118.518448 124.0
118.533623 116.0
118.637657 180.0
118.694031 148.0
119.070831 624.0
119.225899 64.0
119.395477 164.0
119.434631 180.0
119.47596 176.0
119.706688 88.0
119.732819 152.0
119.811241 128.0
119.979675 140.0
120.044121 644.0
120.080803 11760.0
120.181679 120.0
120.208076 88.0
120.251732 88.0
120.291023 44.0
120.306305 220.0
120.474464 76.0
120.560959 116.0
120.59465 184.0
120.675537 168.0
120.704887 180.0
120.806763 232.0
120.839577 80.0
120.90197 164.0
120.944733 80.0
120.984024 156.0
121.06308 196.0
121.083687 920.0
121.542938 216.0
121.592682 80.0
121.804626 152.0
121.89209 52.0
122.028374 200.0
122.059586 13596.0
122.164726 36.0
122.417854 56.0
122.534599 48.0
122.629356 112.0
122.686668 164.0
122.922676 92.0
122.940331 44.0
123.062683 904.0
123.634277 200.0
123.689613 144.0
123.789246 68.0
123.804749 68.0
123.900002 252.0
124.063553 216.0
125.872948 48.0
126.494507 224.0
127.369064 68.0
127.61628 240.0
127.868233 188.0
128.050598 192.0
128.127197 196.0
128.169998 104.0
128.89888 164.0
129.197342 100.0
129.233536 180.0
129.577698 108.0
130.042572 164.0
130.064392 2780.0
130.842758 60.0
131.047974 2400.0
131.07019 324.0
131.232376 36.0
131.350967 108.0
131.844162 240.0
131.921875 84.0
131.990463 124.0
132.050003 484.0
132.560471 152.0
132.796616 140.0
132.812668 44.0
132.890671 36.0
132.911316 112.0
133.051559 2072.0
133.255737 124.0
133.582199 172.0
134.059006 1468.0
134.095703 156.0
134.420883 112.0
134.901306 116.0
135.065292 1148.0
135.130264 184.0
135.377945 176.0
135.681488 176.0
135.952896 136.0
136.013229 180.0
136.075104 2288.0
136.126343 56.0
136.261734 196.0
136.461609 68.0
136.610458 68.0
136.899078 124.0
137.076767 232.0
137.134399 204.0
137.502914 80.0
138.112747 132.0
138.562225 88.0
139.249557 44.0
140.049271 60.0
141.231857 84.0
141.660309 136.0
141.747986 192.0
142.060959 144.0
142.747391 164.0
144.080902 336.0
144.383392 160.0
144.529327 204.0
144.577179 128.0
145.044235 260.0
145.060272 216.0
145.636932 100.0
145.963791 40.0
146.057556 476.0
146.086456 208.0
146.8983 176.0
147.065262 468.0
147.516525 164.0
147.678528 128.0
147.951981 76.0
148.031891 168.0
148.074707 14376.0
148.167526 48.0
148.40506 120.0
148.586975 36.0
148.650055 88.0
148.839661 268.0
149.077682 1132.0
150.031631 96.0
150.05278 172.0
150.083298 232.0
150.104782 56.0
150.939926 88.0
151.06105 408.0
152.069763 1432.0
152.23494 124.0
152.727844 100.0
152.81395 124.0
153.073334 304.0
154.039246 120.0
154.138077 60.0
154.88031 148.0
155.967163 156.0
156.245682 104.0
156.980484 140.0
157.67453 176.0
158.124725 88.0
158.608139 212.0
159.052994 308.0
159.730621 272.0
160.070984 260.0
160.226471 116.0
160.809082 92.0
161.081787 196.0
162.064316 180.0
162.096375 180.0
162.120575 160.0
162.590897 40.0
163.218384 168.0
163.411697 172.0
163.498215 160.0
163.6586 148.0
163.90567 148.0
164.017822 80.0
164.068451 3628.0
164.112732 228.0
165.072922 504.0
165.282043 104.0
166.072845 144.0
166.576797 68.0
166.674423 40.0
166.748962 192.0
166.895493 152.0
169.187073 124.0
171.532532 120.0
172.072754 672.0
173.080551 132.0
173.160431 84.0
174.706543 168.0
175.227844 192.0
176.529175 168.0
177.095551 144.0
177.416199 152.0
177.498398 168.0
177.766327 104.0
177.872498 156.0
177.922928 208.0
178.085358 11948.0
178.177902 96.0
178.246979 132.0
178.313416 88.0
178.353287 52.0
178.411774 52.0
178.550049 92.0
178.568665 72.0
178.667084 40.0
179.088577 1204.0
179.12764 44.0
179.20224 40.0
179.410126 40.0
179.556793 68.0
179.658157 156.0
179.727524 84.0
180.092606 112.0
180.323059 108.0
180.421967 124.0
180.459396 76.0
180.796463 44.0
180.906204 84.0
183.234695 168.0
187.963623 108.0
188.072784 180.0
189.530762 120.0
190.035019 56.0
190.086533 6520.0
190.19693 92.0
190.257324 40.0
190.27655 76.0
190.323227 52.0
190.886551 168.0
190.947052 52.0
191.088821 612.0
191.654556 100.0
191.778564 56.0
191.919174 88.0
192.0681 124.0
192.089935 192.0
192.333008 52.0
192.69754 40.0
195.025421 104.0
201.518936 96.0
203.757263 108.0
206.185104 156.0
207.115021 208.0
208.091034 120.0
209.384125 72.0
210.942276 156.0
213.081085 124.0
217.587738 64.0
221.258392 244.0
222.171219 164.0
225.123306 744.0
226.119904 168.0
241.836411 124.0
244.985199 148.0
258.689178 108.0
264.121185 80.0
267.169281 632.0
267.36908 44.0
267.815155 140.0
268.013885 64.0
268.176056 356.0
269.920227 56.0
270.126282 120.0
272.434174 44.0
274.37262 76.0
278.004578 36.0
296.851685 92.0
297.91571 80.0
299.91507 88.0
301.057098 112.0
310.818634 172.0
334.664703 68.0
372.458649 124.0
407.78421 76.0
457.395447 100.0
463.738647 76.0
507.443298 84.0
588.409058 88.0
622.383301 56.0
654.558289 44.0
663.833374 172.0
681.85675 164.0
710.614624 64.0
733.882507 208.0
737.851013 216.0
762.727417 164.0
782.115967 176.0
789.464111 56.0
796.374695 168.0
806.4776 92.0
806.794189 224.0
812.61084 204.0
815.478638 224.0
818.249023 100.0
822.77594 168.0
824.838257 32.0
844.527344 88.0
850.484009 104.0
852.325073 148.0
860.076843 180.0
866.457092 152.0
868.426758 128.0
876.905396 188.0
880.463135 216.0
892.338562 228.0
893.064087 224.0
893.337708 116.0
894.176697 228.0
895.70697 208.0
913.558594 192.0
917.280273 200.0
918.49231 212.0
921.275269 132.0
922.411438 172.0
922.973694 56.0
948.04895 248.0
951.05426 136.0
952.116455 168.0
955.300476 160.0
960.086487 180.0
960.845215 152.0
961.092041 176.0
961.764709 96.0
968.634827 152.0
974.472778 124.0
977.276978 52.0
978.054932 224.0
980.546387 144.0
980.677307 128.0
991.521484 224.0
992.248596 168.0
992.474365 164.0
993.183044 168.0
997.616455 72.0
999.723633 232.0
1000.107544 160.0
1001.977905 160.0
1002.538696 188.0
1004.69519 120.0
1005.717529 168.0
1006.285706 116.0
1009.331299 200.0
1016.032654 244.0
1020.395935 152.0
1027.299683 248.0
1030.638916 132.0
1031.322754 176.0
1035.500854 144.0
1037.698975 160.0
1039.578491 164.0
1039.661865 112.0
1040.855957 124.0
1052.620972 180.0
1052.763062 148.0
1054.694946 208.0
1058.693481 96.0
1060.177002 68.0
1064.744385 80.0
1066.901733 48.0
1067.688599 144.0
1069.276123 232.0
1070.050781 164.0
1072.017944 136.0
1072.950073 200.0
1075.428955 188.0
1077.100586 140.0
1079.15271 196.0
1079.597412 176.0
1081.324585 100.0
1090.566284 156.0
1091.289429 152.0
1098.91687 52.0
1100.388672 160.0
1100.705688 92.0
1101.115112 124.0
1101.835083 144.0
1102.912354 200.0
1104.135498 188.0
1107.186646 212.0
1111.071045 212.0
1111.296631 184.0
1113.002563 164.0
1117.469238 44.0
1123.492188 216.0
1125.634766 176.0
1127.405151 224.0
1129.899292 140.0
1131.050415 196.0
1132.449829 156.0
1132.650757 188.0
1132.905273 144.0
1142.162598 120.0
1144.134399 200.0
1144.504761 64.0
1145.541992 84.0
1146.033813 228.0
1147.334595 72.0
1149.094971 160.0
1150.566284 168.0
1151.268555 208.0
1154.972412 172.0
1156.351562 208.0
1158.668701 128.0
1160.274902 112.0
1160.498657 176.0
1161.411499 192.0
1162.418335 80.0
1162.805176 196.0
1163.796387 148.0
1163.911743 180.0
1166.00415 208.0
1170.371582 240.0
1173.042358 52.0
1175.102051 196.0
1178.570679 136.0
1179.124268 156.0
1181.914429 116.0
1185.584961 92.0
1190.62439 184.0
1190.861084 140.0
1195.887329 204.0
1199.620972 188.0
1200.075928 204.0
1200.986328 220.0
1203.947266 60.0
1205.888672 212.0
1208.066895 172.0
1209.222534 224.0
1210.060181 104.0
1210.260986 136.0
1210.981201 148.0
1211.050415 216.0
1216.625854 96.0
1218.327393 204.0
1218.904053 156.0
1220.621094 56.0
1222.951782 256.0
1223.049194 160.0
1225.472778 176.0
1228.959106 152.0
1233.016479 152.0
1234.876221 48.0
1235.072144 160.0
1235.65271 168.0
1237.318481 228.0
1238.607056 188.0
1241.971802 28.0
1242.350586 48.0
1246.373657 180.0
1249.805176 164.0
1250.586426 52.0
1252.445312 172.0
1253.558472 148.0
1253.678345 272.0
1257.289185 152.0
1257.846802 220.0
1258.157471 176.0
1259.280273 164.0
1259.880615 156.0
1260.968872 52.0
1261.14563 172.0
1261.930298 156.0
1267.508057 168.0
1269.677368 176.0
1271.536255 160.0
1273.069824 160.0
1276.815186 180.0
1280.359497 108.0
1282.618164 192.0
1283.231323 112.0
1287.541382 232.0
1290.807373 40.0
1291.000488 200.0
1291.164917 56.0
1292.667358 44.0
1293.519043 172.0
1294.098999 200.0
1294.428345 180.0
1294.829468 172.0
1295.158936 268.0
1303.344849 180.0
1304.976562 188.0
1305.185059 120.0
1305.328857 156.0
1306.501343 176.0
1307.429565 136.0
1310.634155 112.0
1312.104492 88.0
1313.489258 216.0
1314.643677 352.0
1315.192139 168.0
1318.370117 212.0
1321.327637 112.0
1321.638794 200.0
1323.477295 180.0
1324.570923 164.0
1326.281006 120.0
1326.672485 228.0
1326.788574 168.0
1328.76123 160.0
1330.154663 192.0
1330.299805 128.0
1330.633789 52.0
1330.84436 172.0
1333.096313 160.0
1334.077515 132.0
1334.520996 52.0
1335.648315 144.0
1337.93335 252.0
1338.122681 192.0
1339.113037 120.0
1342.53125 180.0
1342.954346 192.0
1343.027222 144.0
1344.751831 124.0
1345.303955 60.0
1345.764038 160.0
1347.451172 344.0
1347.845825 252.0
1348.028442 160.0
1348.78125 160.0
1350.111938 172.0
1354.159424 204.0
1355.873901 148.0
1357.391357 68.0
1357.824097 144.0
1358.256836 148.0
1359.482178 168.0
1360.409546 212.0
1360.847534 112.0
1361.251343 68.0
1362.595581 152.0
1364.587402 72.0
1364.800659 160.0
1365.168335 164.0
1366.234863 208.0
1366.955933 124.0
1367.125244 164.0
1367.669922 208.0
1368.260864 204.0
1368.722656 116.0
1370.188477 164.0
1371.868774 176.0
1374.081299 164.0
1374.435547 240.0
1378.493652 168.0
1378.881348 84.0
1386.993774 132.0
1387.935303 76.0
1389.374268 152.0
1390.591187 168.0
1391.029175 140.0
1391.430054 108.0
1392.009277 232.0
1392.432617 120.0
1392.87085 172.0
1393.457764 140.0
1394.104248 160.0
1394.654175 168.0
1396.230469 148.0
1398.120239 148.0
1399.087891 160.0
1399.44519 232.0
1401.605347 188.0
1403.550903 100.0
1403.744873 172.0
1403.879028 64.0
1405.505371 272.0
1407.095215 172.0
1408.469238 160.0
1408.753174 128.0
1413.807861 188.0
1414.893188 64.0
1416.87793 176.0
1417.222656 204.0
1417.334961 160.0
1418.984009 172.0
1421.421753 132.0
1422.224854 236.0
1424.62793 216.0
1425.634766 184.0
1425.702393 212.0
1425.920288 220.0
1427.228394 188.0
1428.303955 164.0
1428.612305 144.0
1429.838867 176.0
1430.170044 336.0
1430.463623 120.0
1431.261719 136.0
1431.532837 276.0
1431.754761 160.0
1432.391479 192.0
1434.757812 168.0
1436.05481 180.0
1437.767578 52.0
1437.926025 228.0
1438.243042 248.0
1442.992676 348.0
1443.327637 188.0
1445.3927 156.0
1445.892212 216.0
1446.429565 168.0
1447.784912 156.0
1447.981812 216.0
1448.648438 204.0
1448.943848 208.0
1450.072998 152.0
1452.180786 184.0
1452.506958 108.0
1452.825562 180.0
1453.607178 160.0
1454.813965 216.0
1457.107544 148.0
1457.487549 132.0
1458.118286 148.0
1458.369141 212.0
1460.072266 200.0
1462.07312 144.0
1465.842896 80.0
1466.269653 268.0
1466.322998 168.0
1466.452515 52.0
1467.130981 244.0
1467.557983 200.0
1468.206177 168.0
1469.50293 176.0
1471.74707 208.0
1471.808105 208.0
1472.816284 120.0
1474.466675 176.0
1474.711304 148.0
1476.263306 232.0
1477.930908 152.0
1478.772705 120.0
1478.971802 164.0
1480.66394 244.0
1480.932007 208.0
1487.718506 52.0
1488.263672 148.0
1488.478638 252.0
1488.662964 132.0
1488.824219 220.0
1490.988892 252.0
1491.574951 172.0
1492.551392 140.0
1493.297363 196.0
1493.543457 144.0
1494.220459 176.0
1494.382202 200.0
1494.7052 176.0
1495.174683 224.0
1495.497925 172.0
1496.50647 184.0
1497.014648 204.0
1497.230347 64.0
1497.977417 140.0
1499.441528 112.0
1500.381958 208.0
