>compound MLS001158963-01!N-(3-imidazol-1-ylpropyl)-3-(3,5,9-trimethyl-7-oxofuro[3,2-g]chromen-6-yl)propanamide
>formula C23H25N3O4
>ionization [M+H]+
>parentmass 408.1917827320906
#inchi InChI=1S/C23H25N3O4/c1-14-12-29-21-16(3)22-19(11-18(14)21)15(2)17(23(28)30-22)5-6-20(27)25-7-4-9-26-10-8-24-13-26/h8,10-13H,4-7,9H2,1-3H3,(H,25,27)
#inchikey JPKOGSRBGUXTOA
#Ion_Source LC-ESI
#Instrument qTof
#Compound_Source NIH Natural Product Library
#PI Dorrestein
#Data_Collector VVP/LMS
#Scan -1
#Precursor_MZ 408.192
#ExactMass 407.185
#Charge 1
#CAS_Number N/A
#Pubmed_ID N/A
#Smiles Cc1coc2c(C)c3oc(=O)c(CCC(=O)NCCCn4ccnc4)c(C)c3cc12
#INCHI_AUX N/A
#Library_Class 1
#SpectrumID CCMSLIB00000079413
#IonMode Positive
#UpdateWorkflowName UPDATE-SINGLE-ANNOTATED-GOLD
#LibraryQualityString Gold
#TaskID b1d8e8f6646f4e71acdff9ca3d919d08
##Scan# 1755
#SpectrumFile p1-A06_GA6_01_17879.mzXML
#LibraryName NIH_Natural_Products_Library.mgf
#MQScore -1
#Organism NIH_Natural_Products_Library
#TIC_Query 0
#RT_Query -1
#MZErrorPPM -1
#SharedPeaks 0
#MassDiff 0
#LibMZ -1
#SpecMZ 408.192
#SpecCharge 0
#internalFilename spec-00000.mgf

>collision 10
95.12883 232.0
95.332764 144.0
95.394958 184.0
95.463005 132.0
95.484558 188.0
95.558311 116.0
95.577919 104.0
95.608902 80.0
95.677498 216.0
95.712074 148.0
95.7257 52.0
95.754913 196.0
95.802147 240.0
95.846466 68.0
95.891289 176.0
95.910782 88.0
95.984863 192.0
96.014114 140.0
96.053116 128.0
96.152626 180.0
96.201424 196.0
96.322754 128.0
96.351791 156.0
96.36982 140.0
96.605927 148.0
96.670486 416.0
96.690056 124.0
96.78598 76.0
96.925049 108.0
96.940865 108.0
97.274132 176.0
97.409622 372.0
97.435158 152.0
97.454803 172.0
97.468559 180.0
97.519653 104.0
97.560936 224.0
97.588455 332.0
97.710396 156.0
97.726135 136.0
97.783195 224.0
97.89447 160.0
97.982071 56.0
98.110168 124.0
98.13974 180.0
98.204819 76.0
98.222565 204.0
98.254128 168.0
98.301483 228.0
98.390297 184.0
98.465332 92.0
98.515244 148.0
98.587143 176.0
98.694557 136.0
98.722298 140.0
98.78553 192.0
98.801353 132.0
98.929985 112.0
99.032951 144.0
99.064644 152.0
99.207321 168.0
99.248955 196.0
99.334229 132.0
99.358032 196.0
99.423508 208.0
99.489014 64.0
99.508865 312.0
99.544601 160.0
99.608154 164.0
99.643913 152.0
99.693588 140.0
99.711472 140.0
99.852623 112.0
99.918266 164.0
99.95607 116.0
100.324524 248.0
100.342514 148.0
100.360405 148.0
100.430206 196.0
100.502373 224.0
100.571861 112.0
100.649719 140.0
100.743591 188.0
100.759567 88.0
100.77755 124.0
100.82151 52.0
100.893242 212.0
100.953445 140.0
100.979446 116.0
101.000999 196.0
101.173538 164.0
101.204582 120.0
101.290443 168.0
101.32373 124.0
101.357796 128.0
101.448738 212.0
101.46402 136.0
101.744881 152.0
101.774994 104.0
101.809128 48.0
101.831223 204.0
101.84729 152.0
101.935684 56.0
101.953773 208.0
102.024117 204.0
102.04422 188.0
102.154831 180.0
102.217194 212.0
102.23732 136.0
102.275558 128.0
102.607933 88.0
102.702705 124.0
102.716827 100.0
102.77845 168.0
102.811653 96.0
102.839905 128.0
102.878662 160.0
102.924698 104.0
102.955101 136.0
102.972351 180.0
102.994545 156.0
103.039818 172.0
103.131325 212.0
103.254074 140.0
103.270081 136.0
103.306664 272.0
103.395691 212.0
103.411827 152.0
103.480705 176.0
103.521202 132.0
103.549553 200.0
103.695427 56.0
103.910362 108.0
103.979355 180.0
104.109116 200.0
104.231163 152.0
104.25148 192.0
104.307541 208.0
104.322617 152.0
104.432419 144.0
104.456825 236.0
104.52803 148.0
104.629799 248.0
104.731613 48.0
104.786613 176.0
104.882385 272.0
104.943542 208.0
105.094475 168.0
105.127121 80.0
105.237343 148.0
105.30835 192.0
105.388275 156.0
105.429352 100.0
105.480446 88.0
105.572449 164.0
105.619484 60.0
105.652214 180.0
105.699272 148.0
105.854836 100.0
105.918327 152.0
105.97364 120.0
106.012566 196.0
106.119156 168.0
106.135841 116.0
106.206329 180.0
106.221687 256.0
106.299652 140.0
106.394066 48.0
106.476196 120.0
106.537811 128.0
106.644661 92.0
106.825607 164.0
106.950714 140.0
107.03347 140.0
107.064354 120.0
107.089073 184.0
107.412666 152.0
107.647942 88.0
107.703705 152.0
107.746506 132.0
107.778076 84.0
107.862808 192.0
107.979874 296.0
108.12162 184.0
108.237259 132.0
108.262108 140.0
108.326317 188.0
108.359459 104.0
108.450638 232.0
108.670448 52.0
108.776283 100.0
108.882172 160.0
108.896713 184.0
108.960739 136.0
108.992271 112.0
109.015129 72.0
109.283356 252.0
109.399902 208.0
109.41655 208.0
109.481102 236.0
109.549835 156.0
109.596794 184.0
109.61544 196.0
109.681107 132.0
109.726967 152.0
109.746864 236.0
109.793694 80.0
109.824974 196.0
109.852966 76.0
109.870148 220.0
109.910507 216.0
109.93763 204.0
110.014854 104.0
110.044083 168.0
110.085846 168.0
110.102554 100.0
110.196548 204.0
110.246696 136.0
110.353294 76.0
110.374832 140.0
110.453674 96.0
110.575874 356.0
110.682762 188.0
110.824211 112.0
110.866119 176.0
110.924805 176.0
110.981407 208.0
111.00238 188.0
111.075783 208.0
111.109344 172.0
111.163895 124.0
111.241898 192.0
111.327629 148.0
111.342331 164.0
111.366859 236.0
111.392738 176.0
111.42215 192.0
111.506195 140.0
111.583969 124.0
111.617615 144.0
111.70594 204.0
111.777473 112.0
111.840607 168.0
111.933235 56.0
111.973251 176.0
112.040649 64.0
112.076576 652.0
112.215569 148.0
112.293594 160.0
112.317848 120.0
112.354767 168.0
112.532043 172.0
112.705231 132.0
112.762291 156.0
112.813019 72.0
112.916618 156.0
113.005463 112.0
113.096458 96.0
113.155731 92.0
113.284912 156.0
113.484123 204.0
113.581673 128.0
113.659439 176.0
113.674835 184.0
113.689873 208.0
113.740807 92.0
113.861122 208.0
114.015106 160.0
114.074295 144.0
114.104057 216.0
114.127449 140.0
114.144455 144.0
114.500473 304.0
114.544556 128.0
114.568787 172.0
114.695847 56.0
114.749138 128.0
114.764061 184.0
114.879227 88.0
115.017921 168.0
115.054893 320.0
115.086235 176.0
115.175926 108.0
115.214378 172.0
115.425964 104.0
115.470871 40.0
115.517929 160.0
115.535042 156.0
115.569275 128.0
115.639893 72.0
115.657013 180.0
115.704109 132.0
115.727654 100.0
115.757332 172.0
115.859444 180.0
115.894722 120.0
115.909714 204.0
115.98687 252.0
116.008301 96.0
116.040459 80.0
116.132668 144.0
116.175568 108.0
116.248573 156.0
116.297874 188.0
116.315048 36.0
116.45031 208.0
116.480385 232.0
116.516899 188.0
116.538383 208.0
116.578506 220.0
116.76194 128.0
116.794205 132.0
116.815712 140.0
116.838219 276.0
116.923286 108.0
117.073982 100.0
117.093369 188.0
117.252792 112.0
117.313141 124.0
117.399384 80.0
117.542206 172.0
117.589226 136.0
117.630234 112.0
117.661575 180.0
117.759789 120.0
117.822426 144.0
117.853264 176.0
117.915337 96.0
117.993156 136.0
118.025589 172.0
118.122902 156.0
118.152962 152.0
118.161774 120.0
118.196465 152.0
118.26403 196.0
118.317665 116.0
118.393448 128.0
118.497414 164.0
118.523415 176.0
118.578239 120.0
118.6101 128.0
118.744522 224.0
118.785736 160.0
118.835632 176.0
118.850822 140.0
119.017944 208.0
119.041832 136.0
119.08744 40.0
119.178673 140.0
119.193886 168.0
119.23632 108.0
119.282349 88.0
119.328217 224.0
119.354729 156.0
119.478699 192.0
119.624504 136.0
119.668716 232.0
119.707237 184.0
119.773575 192.0
119.796532 180.0
119.840103 172.0
119.864067 188.0
120.055893 212.0
120.098007 232.0
120.215141 120.0
120.300262 148.0
120.334007 196.0
120.431267 124.0
120.546242 236.0
120.57328 112.0
120.700066 108.0
120.737244 108.0
120.77005 128.0
120.800667 172.0
120.859741 124.0
120.891228 184.0
120.911629 252.0
120.92701 140.0
121.168442 216.0
121.201309 92.0
121.245132 148.0
121.319656 196.0
121.365692 168.0
121.420517 36.0
121.578468 176.0
121.593826 208.0
121.635818 216.0
121.793625 168.0
121.826569 48.0
121.896881 188.0
121.962982 152.0
122.013092 192.0
122.037552 184.0
122.068047 124.0
122.133263 176.0
122.197311 156.0
122.228905 52.0
122.286125 68.0
122.308716 136.0
122.386505 140.0
122.453445 168.0
122.490891 156.0
122.519524 156.0
122.545967 188.0
122.704643 144.0
122.753288 324.0
122.799461 156.0
122.852402 176.0
122.920799 152.0
123.000244 28.0
123.243164 156.0
123.282944 108.0
123.302834 160.0
123.320511 144.0
123.338196 188.0
123.373558 184.0
123.393456 188.0
123.422203 140.0
123.477486 176.0
123.510277 140.0
123.554901 100.0
123.585876 184.0
123.612427 188.0
123.758514 44.0
123.789513 180.0
123.881165 180.0
123.902466 104.0
123.966988 100.0
124.17289 168.0
124.188416 356.0
124.235001 48.0
124.314873 156.0
124.343018 196.0
124.414749 156.0
124.473633 184.0
124.521332 112.0
124.536873 80.0
124.599075 212.0
124.68232 232.0
124.697601 184.0
124.736794 152.0
124.892494 164.0
124.950333 124.0
125.137276 152.0
125.248619 212.0
125.331047 208.0
125.351105 120.0
125.516045 68.0
125.643173 120.0
125.826172 148.0
125.85743 68.0
125.908791 204.0
125.960762 252.0
126.027184 188.0
126.049522 120.0
126.09198 172.0
126.232628 140.0
126.277542 104.0
126.371498 124.0
126.427437 140.0
126.68145 184.0
126.698357 92.0
126.886604 140.0
126.922478 192.0
126.996483 156.0
127.056694 152.0
127.105621 160.0
127.135582 136.0
127.308434 276.0
127.528595 140.0
127.598282 188.0
127.64325 132.0
127.69249 196.0
127.742203 196.0
127.766953 176.0
128.063751 440.0
128.138412 136.0
128.160004 248.0
128.187988 188.0
128.212769 164.0
128.244324 136.0
128.260101 216.0
128.287949 132.0
128.354782 188.0
128.39537 164.0
128.442734 76.0
128.481079 168.0
128.528458 248.0
128.544266 120.0
128.632278 112.0
128.666138 68.0
128.702255 56.0
128.73613 152.0
128.903824 84.0
128.930405 176.0
129.043716 380.0
129.069763 324.0
129.095428 116.0
129.1203 124.0
129.170059 80.0
129.30928 128.0
129.37146 40.0
129.394104 120.0
129.505051 224.0
129.545822 160.0
129.609268 108.0
129.642105 160.0
129.668182 156.0
129.704437 136.0
129.874496 132.0
129.890381 84.0
129.908524 128.0
129.926666 88.0
129.956161 168.0
130.072296 184.0
130.127014 208.0
130.167191 144.0
130.199112 124.0
130.253555 100.0
130.294449 204.0
130.394424 140.0
130.444427 76.0
130.475037 188.0
130.553558 232.0
130.617233 52.0
130.690033 180.0
130.756027 60.0
130.781067 136.0
131.045212 192.0
131.064178 184.0
131.080826 76.0
131.106735 184.0
131.193344 160.0
131.213867 96.0
131.25946 152.0
131.286713 80.0
131.514969 84.0
131.535507 140.0
131.556061 168.0
131.667938 164.0
131.75827 72.0
131.786713 156.0
131.862122 132.0
131.89183 92.0
132.040451 148.0
132.083908 160.0
132.163742 172.0
132.198303 120.0
132.314072 240.0
132.418076 116.0
132.45929 116.0
132.562393 156.0
132.605942 144.0
132.64949 212.0
132.672409 152.0
132.848984 64.0
132.86734 112.0
132.900375 192.0
133.007309 112.0
133.027969 160.0
133.050934 56.0
133.149658 160.0
133.301285 132.0
133.358734 108.0
133.384018 168.0
133.431335 96.0
133.480576 180.0
133.524261 128.0
133.57486 204.0
133.646179 140.0
133.807053 40.0
133.899384 144.0
133.95697 192.0
134.060654 152.0
134.095215 160.0
134.15976 220.0
134.318863 144.0
134.341888 188.0
134.418076 184.0
134.468842 200.0
134.570404 144.0
134.734039 188.0
134.796753 164.0
134.815247 124.0
134.840668 156.0
134.863785 172.0
134.89151 172.0
135.081131 196.0
135.138962 216.0
135.344955 256.0
135.412109 88.0
135.442215 172.0
135.664673 176.0
135.708893 208.0
135.727264 120.0
135.752777 220.0
135.826996 104.0
135.917465 124.0
136.012619 104.0
136.033508 56.0
136.105469 128.0
136.186752 144.0
136.29129 120.0
136.317139 288.0
136.419113 36.0
136.435379 140.0
136.532349 108.0
136.607468 196.0
136.651672 148.0
136.781982 188.0
137.04747 64.0
137.189636 120.0
137.343536 84.0
137.378525 140.0
137.418182 332.0
137.523193 96.0
137.616562 124.0
137.709976 372.0
137.899216 160.0
137.987518 160.0
138.074585 160.0
138.161102 160.0
138.268082 172.0
138.310867 172.0
138.348312 204.0
138.391937 132.0
138.434601 168.0
138.51535 180.0
138.627029 120.0
138.669205 56.0
138.916245 244.0
138.96936 128.0
139.053833 132.0
139.175903 44.0
139.248703 124.0
139.274536 148.0
139.32309 244.0
139.52832 160.0
139.603561 212.0
139.71965 180.0
139.756454 136.0
139.838821 184.0
139.907074 284.0
140.010681 216.0
140.081329 92.0
140.187347 48.0
140.239197 188.0
140.273392 260.0
140.308563 216.0
140.416031 152.0
140.531616 180.0
140.551895 148.0
140.585876 84.0
140.673203 104.0
140.855026 136.0
140.907288 164.0
140.975525 168.0
141.015686 144.0
141.070068 1016.0
141.110245 168.0
141.150436 56.0
141.174088 236.0
141.202469 160.0
141.254501 120.0
141.292343 164.0
141.396454 32.0
141.42012 220.0
141.450897 116.0
141.491135 148.0
141.614273 124.0
141.642899 140.0
141.675049 236.0
141.699554 192.0
141.735092 88.0
141.799072 192.0
141.941299 176.0
142.0504 176.0
142.076538 1308.0
142.138184 52.0
142.178513 208.0
142.240234 228.0
142.256836 172.0
142.290085 152.0
142.370804 164.0
142.457397 176.0
142.567978 196.0
142.617889 60.0
142.65181 192.0
142.672562 220.0
142.705841 136.0
142.845398 164.0
142.915146 200.0
142.946075 148.0
142.965118 128.0
143.000809 172.0
143.078781 504.0
143.098404 152.0
143.181747 176.0
143.234146 256.0
143.257965 168.0
143.303223 136.0
143.355652 100.0
143.379486 148.0
143.410461 148.0
143.56337 176.0
143.65715 264.0
143.694229 192.0
143.789673 136.0
143.832443 148.0
143.856506 140.0
143.87561 92.0
143.906631 72.0
143.956787 140.0
143.978271 116.0
144.119736 180.0
144.193283 196.0
144.253036 112.0
144.281555 176.0
144.351059 136.0
144.444336 76.0
144.491089 168.0
144.514679 200.0
144.597458 120.0
144.681686 168.0
144.803345 132.0
145.047745 180.0
145.06691 184.0
145.153229 264.0
145.174805 196.0
145.215576 156.0
145.243103 184.0
145.268341 152.0
145.361908 152.0
145.461517 96.0
145.533463 128.0
145.540192 176.0
145.611725 184.0
145.637985 128.0
145.6548 92.0
145.902313 156.0
146.017731 136.0
146.036972 200.0
146.077866 148.0
146.222229 120.0
146.265549 36.0
146.340683 228.0
146.361847 160.0
146.460587 160.0
146.494308 144.0
146.5979 156.0
146.629227 172.0
146.928497 176.0
146.978897 112.0
147.046463 48.0
147.068176 152.0
147.094727 256.0
147.227524 204.0
147.312057 144.0
147.333801 120.0
147.408691 116.0
147.532394 200.0
147.600021 212.0
147.626251 180.0
147.744766 120.0
147.787277 168.0
147.875626 196.0
147.975235 156.0
148.008575 192.0
148.052155 180.0
148.173264 176.0
148.202332 124.0
148.226562 140.0
148.255646 56.0
148.385345 124.0
148.42836 192.0
148.471405 200.0
148.492096 224.0
148.680038 148.0
148.717178 184.0
148.78331 180.0
148.898529 248.0
149.007828 96.0
149.044281 184.0
149.11232 160.0
149.204681 188.0
149.253311 196.0
149.377335 180.0
149.494125 140.0
149.55983 104.0
149.576874 160.0
149.609009 176.0
149.798447 248.0
149.871536 164.0
149.927582 56.0
150.003143 100.0
150.039703 168.0
150.102966 148.0
150.220398 168.0
150.249435 156.0
150.341232 212.0
150.505463 208.0
150.65712 152.0
150.681549 112.0
150.705978 144.0
150.747513 116.0
150.774399 76.0
150.797668 184.0
150.837952 200.0
150.940628 120.0
150.957748 96.0
150.989532 184.0
151.062912 132.0
151.089813 152.0
151.10939 180.0
151.177109 124.0
151.258667 124.0
151.333267 228.0
151.361481 76.0
151.405563 100.0
151.675064 152.0
151.736359 136.0
151.829529 180.0
151.860107 168.0
151.951981 132.0
152.031494 292.0
152.065506 364.0
152.106766 76.0
152.158325 132.0
152.224609 120.0
152.273727 140.0
152.428497 120.0
152.489929 128.0
152.536636 60.0
152.637421 180.0
152.666229 180.0
152.711197 160.0
152.816986 120.0
152.861267 228.0
152.932632 168.0
152.957245 184.0
152.98291 148.0
153.06813 924.0
153.100052 212.0
153.16983 120.0
153.187546 84.0
153.272476 108.0
153.327438 224.0
153.365555 244.0
153.388306 176.0
153.415421 220.0
153.449936 144.0
153.578171 152.0
153.648071 200.0
153.697144 104.0
153.743454 116.0
153.889099 168.0
153.908844 160.0
153.927368 232.0
154.076782 4312.0
154.128677 224.0
154.193542 224.0
154.244049 140.0
154.304153 124.0
154.370911 132.0
154.413147 200.0
154.438721 232.0
154.574005 196.0
154.605042 56.0
154.630661 44.0
154.818817 96.0
154.868347 156.0
155.029373 112.0
155.083008 540.0
155.126038 192.0
155.185532 60.0
155.247528 60.0
155.309998 168.0
155.339294 112.0
155.398834 160.0
155.448456 144.0
155.535324 132.0
155.567581 92.0
155.691727 136.0
155.778656 132.0
155.8358 200.0
155.880524 120.0
155.932709 92.0
156.063141 144.0
156.092697 184.0
156.158951 84.0
156.176361 44.0
156.340561 188.0
156.377731 256.0
156.420212 56.0
156.557144 164.0
156.659256 180.0
156.721542 136.0
156.742722 136.0
156.836166 140.0
156.884995 204.0
156.943359 284.0
156.995728 124.0
157.018173 156.0
157.069427 212.0
157.10025 2584.0
157.150482 204.0
157.209549 140.0
157.254654 188.0
157.315094 128.0
157.37001 160.0
157.439926 180.0
157.457413 76.0
157.53891 196.0
157.589798 156.0
157.60817 296.0
157.689758 160.0
157.784744 172.0
157.842239 152.0
157.925598 156.0
157.935242 192.0
157.97229 196.0
158.006332 192.0
158.062363 172.0
158.104538 268.0
158.302658 272.0
158.37529 172.0
158.455444 164.0
158.514572 148.0
158.536514 136.0
158.560684 68.0
158.723633 176.0
158.859055 144.0
158.891678 160.0
159.017136 148.0
159.081863 460.0
159.111816 244.0
159.197891 92.0
159.381256 120.0
159.479263 192.0
159.521988 124.0
159.589874 108.0
159.615005 112.0
159.647079 224.0
159.775909 136.0
159.984848 440.0
160.054123 140.0
160.083038 164.0
160.103195 140.0
160.126297 180.0
160.178146 152.0
160.208969 148.0
160.230423 148.0
160.3022 152.0
160.339996 128.0
160.405533 168.0
160.437332 136.0
160.483673 180.0
160.551758 156.0
160.637512 196.0
160.687973 136.0
160.718246 80.0
160.815521 136.0
160.980759 168.0
161.000961 116.0
161.036316 196.0
161.071671 56.0
161.10704 124.0
161.143723 140.0
161.263702 172.0
161.311371 144.0
161.54689 188.0
161.567139 128.0
161.90123 184.0
161.949356 72.0
162.035477 116.0
162.063354 156.0
162.098816 128.0
162.139374 132.0
162.217941 184.0
162.248352 76.0
162.344711 120.0
162.430939 156.0
162.476593 56.0
162.514648 204.0
162.613617 160.0
162.636459 164.0
162.717697 164.0
162.81926 144.0
162.966583 220.0
162.999405 140.0
163.050446 164.0
163.086029 144.0
163.164825 76.0
163.30722 140.0
163.345383 192.0
163.364792 76.0
163.454773 180.0
163.513306 244.0
163.547653 192.0
163.648209 204.0
163.672592 104.0
163.711166 176.0
163.762802 252.0
163.795914 140.0
163.899414 128.0
164.326157 76.0
164.415466 156.0
164.60437 172.0
164.645218 120.0
164.714172 124.0
164.959488 88.0
164.977371 176.0
165.031067 208.0
165.06366 176.0
165.143585 100.0
165.207535 220.0
165.235672 140.0
165.286667 60.0
165.312424 184.0
165.417358 48.0
165.481354 164.0
165.506393 144.0
165.512817 112.0
165.520691 176.0
165.54538 136.0
165.596588 256.0
165.655502 180.0
165.695786 160.0
165.745178 176.0
165.87587 184.0
166.009186 88.0
166.037399 176.0
166.072327 196.0
166.116913 156.0
166.199005 224.0
166.304214 56.0
166.435135 160.0
166.491638 40.0
166.550705 172.0
166.610718 176.0
166.622391 176.0
166.774246 120.0
166.834732 164.0
166.90535 180.0
166.925919 152.0
166.985062 152.0
167.085403 508.0
167.121399 148.0
167.149704 168.0
167.214035 308.0
167.265518 144.0
167.296402 68.0
167.353043 64.0
167.428009 156.0
167.499832 172.0
167.520432 256.0
167.566803 188.0
167.67099 176.0
167.713684 168.0
167.798752 196.0
167.824539 152.0
167.847504 176.0
167.876114 128.0
167.896744 156.0
168.012802 160.0
168.051514 92.0
168.088211 384.0
168.124939 212.0
168.232162 188.0
168.25798 164.0
168.325104 192.0
168.405167 132.0
168.487244 180.0
168.622177 120.0
168.650604 180.0
168.777451 64.0
168.870377 48.0
168.958328 192.0
168.999725 144.0
169.065903 484.0
169.103577 632.0
169.261139 200.0
169.28186 76.0
169.388046 72.0
169.408768 148.0
169.437256 200.0
169.509811 180.0
169.564224 84.0
169.61087 168.0
169.724945 172.0
169.774216 104.0
169.807922 128.0
169.901306 156.0
169.963882 168.0
169.989517 156.0
170.018066 160.0
170.046616 200.0
170.072662 776.0
170.100708 196.0
170.155624 116.0
170.223145 180.0
170.256897 172.0
170.332214 120.0
170.365982 80.0
170.410156 156.0
170.493301 56.0
170.540085 352.0
170.854706 88.0
170.878128 196.0
170.922363 160.0
171.080872 340.0
171.109818 156.0
171.193069 156.0
171.278137 232.0
171.404068 188.0
171.445755 160.0
171.586502 128.0
171.641266 176.0
171.709061 76.0
171.750793 148.0
171.829056 196.0
172.048264 160.0
172.076981 192.0
172.11615 108.0
172.228439 304.0
172.249344 140.0
172.335815 152.0
172.434845 104.0
172.534164 100.0
172.570923 200.0
172.59169 44.0
172.609985 112.0
172.667526 136.0
172.69368 156.0
172.727676 156.0
172.889893 68.0
173.019455 156.0
173.125488 176.0
173.146042 184.0
173.239868 192.0
173.295746 208.0
173.362381 224.0
173.418915 60.0
173.547363 144.0
173.633896 144.0
173.709961 76.0
173.757172 204.0
173.814896 104.0
173.859512 204.0
173.904129 56.0
173.943497 156.0
174.001251 204.0
174.022247 116.0
174.072205 336.0
174.108902 116.0
174.182434 156.0
174.203461 220.0
174.269135 160.0
174.38739 168.0
174.468872 156.0
174.563522 68.0
174.759232 216.0
174.789734 48.0
174.934479 148.0
175.124069 116.0
175.153046 120.0
175.174118 232.0
175.237335 188.0
175.290039 48.0
175.311111 168.0
175.346268 160.0
175.394363 232.0
175.717163 176.0
175.759384 132.0
175.786011 132.0
175.847961 92.0
175.887527 196.0
176.149017 176.0
176.277832 196.0
176.307068 156.0
176.335052 32.0
176.364136 136.0
176.63118 48.0
176.665573 224.0
176.705246 96.0
176.763458 148.0
176.859726 180.0
176.916962 248.0
176.947479 176.0
176.963333 188.0
176.991104 96.0
177.073196 124.0
177.112915 120.0
177.229477 124.0
177.289032 172.0
177.338135 128.0
177.361984 104.0
177.436203 64.0
177.481277 144.0
177.499832 316.0
177.587357 124.0
177.611221 168.0
177.693451 164.0
177.754486 272.0
177.796936 136.0
177.863297 108.0
177.911072 148.0
178.030548 136.0
178.060989 208.0
178.084671 212.0
178.158035 156.0
178.237747 320.0
178.282913 172.0
178.325439 84.0
178.357742 232.0
178.407837 168.0
178.49823 180.0
178.518234 192.0
178.556732 92.0
178.61525 204.0
178.695053 180.0
178.772217 56.0
178.800278 132.0
178.822266 208.0
178.876022 252.0
178.92247 248.0
178.977173 180.0
179.005249 128.0
179.081924 248.0
179.248871 120.0
179.323486 144.0
179.355469 164.0
179.424774 104.0
179.451035 188.0
179.509476 188.0
179.566925 272.0
179.632782 180.0
179.651443 136.0
179.675461 164.0
179.715485 180.0
179.779526 132.0
179.803543 152.0
179.917953 208.0
179.99382 212.0
180.035797 164.0
180.123932 68.0
180.201401 176.0
180.252167 96.0
180.281555 140.0
180.329666 104.0
180.375107 308.0
180.447281 136.0
180.522141 160.0
180.546204 124.0
180.615753 164.0
180.832474 132.0
180.902054 136.0
180.97435 60.0
180.994156 228.0
181.022537 140.0
181.063156 508.0
181.086304 136.0
181.109299 132.0
181.119858 200.0
181.172867 220.0
181.202759 140.0
181.305405 88.0
181.350311 184.0
181.409378 52.0
181.480728 208.0
181.687241 136.0
181.759674 152.0
181.81871 168.0
181.909973 148.0
181.928757 188.0
182.070145 1844.0
182.181183 52.0
182.224167 140.0
182.334106 136.0
182.412277 124.0
182.44722 224.0
182.568222 208.0
182.635452 148.0
182.759201 180.0
182.893753 180.0
182.926056 132.0
183.012207 40.0
183.033737 144.0
183.075363 888.0
183.116653 344.0
183.195343 204.0
183.224686 156.0
183.32196 148.0
183.354309 112.0
183.39473 192.0
183.516037 80.0
183.621201 128.0
183.70752 56.0
183.777649 224.0
183.800095 204.0
183.939575 332.0
184.084457 644.0
184.115067 196.0
184.175186 156.0
184.250122 228.0
184.309555 248.0
184.406845 60.0
184.662643 192.0
184.728607 172.0
184.750244 148.0
184.798935 176.0
184.831406 132.0
184.863876 92.0
184.936584 148.0
184.955902 180.0
184.974838 216.0
185.0634 168.0
185.096329 2584.0
185.199585 208.0
185.288971 148.0
185.313354 164.0
185.343155 40.0
185.363098 144.0
185.462402 172.0
185.516602 184.0
185.565399 156.0
185.663025 108.0
185.718857 80.0
185.777618 176.0
185.804062 140.0
185.848694 216.0
185.94516 72.0
185.996735 40.0
186.101349 636.0
186.211227 48.0
186.268265 168.0
186.287277 140.0
186.30629 164.0
186.346893 216.0
186.38237 156.0
186.401382 168.0
186.425842 76.0
186.469833 172.0
186.512802 128.0
186.60524 160.0
186.760239 184.0
186.78743 188.0
186.896255 216.0
186.945236 136.0
186.965576 152.0
187.033203 208.0
187.05336 164.0
187.071579 208.0
187.130325 188.0
187.202011 148.0
187.386322 152.0
187.405396 80.0
187.438095 204.0
187.478973 132.0
187.541656 104.0
187.628876 184.0
187.689804 160.0
187.748856 136.0
187.811584 144.0
187.857956 128.0
188.122147 152.0
188.176834 172.0
188.291931 100.0
188.313782 184.0
188.354752 164.0
188.403915 188.0
188.608856 160.0
188.671738 120.0
188.696335 120.0
188.860413 172.0
188.895966 148.0
188.964355 116.0
188.993393 228.0
189.06308 148.0
189.087494 352.0
189.105377 164.0
189.150436 164.0
189.214264 256.0
189.236282 124.0
189.279114 184.0
189.342102 212.0
189.380432 132.0
189.703766 104.0
189.736664 96.0
189.758591 112.0
189.827698 176.0
189.936844 188.0
189.958786 156.0
190.068085 124.0
190.153595 180.0
190.18927 112.0
190.389694 168.0
190.441879 108.0
190.568237 116.0
190.74411 100.0
190.785339 120.0
190.823837 56.0
190.986084 56.0
191.0466 172.0
191.074997 356.0
191.185211 148.0
191.203125 72.0
191.217438 244.0
191.239212 184.0
191.316971 160.0
191.358109 192.0
191.426407 168.0
191.448441 236.0
191.520035 124.0
191.605438 164.0
191.733566 232.0
191.7621 272.0
191.79425 100.0
191.816422 320.0
191.903076 48.0
191.980286 200.0
192.051987 188.0
192.119293 232.0
192.175476 220.0
192.247879 180.0
192.305832 96.0
192.349365 124.0
192.504593 188.0
192.567215 148.0
192.791885 136.0
192.899673 92.0
192.985382 96.0
193.116272 144.0
193.22876 152.0
193.369873 136.0
193.508286 60.0
193.581375 232.0
193.636093 152.0
193.696594 44.0
193.71875 168.0
193.759933 148.0
193.790787 68.0
193.893311 116.0
193.965363 180.0
194.004181 104.0
194.126175 208.0
194.189957 168.0
194.217682 244.0
194.270386 112.0
194.447968 96.0
194.500702 56.0
194.595093 164.0
194.617294 148.0
194.695053 184.0
194.942291 180.0
195.079636 340.0
195.211929 184.0
195.245285 120.0
195.284225 92.0
195.409409 220.0
195.431656 120.0
195.551315 176.0
195.587509 172.0
195.640396 56.0
195.662659 132.0
195.684937 132.0
195.762024 208.0
195.946732 120.0
195.991302 180.0
196.088409 816.0
196.155731 72.0
196.17926 152.0
196.219849 156.0
196.253296 136.0
196.281769 152.0
196.311859 200.0
196.393951 64.0
196.492386 144.0
196.654999 228.0
196.69899 84.0
196.772827 132.0
196.830872 180.0
196.883926 172.0
196.926605 156.0
196.973297 156.0
196.995651 140.0
197.02359 124.0
197.09465 1508.0
197.156647 256.0
197.161545 160.0
197.235962 124.0
197.289062 116.0
197.400909 148.0
197.487595 112.0
197.551926 172.0
197.585495 172.0
197.605087 184.0
197.638657 160.0
197.79332 76.0
197.910156 120.0
198.066544 644.0
198.102005 696.0
198.142609 168.0
198.207047 152.0
198.397629 136.0
198.467728 64.0
198.504181 108.0
198.644409 52.0
198.669647 140.0
198.849228 112.0
199.0345 108.0
199.074005 476.0
199.111832 872.0
199.197388 116.0
199.217056 120.0
199.239532 68.0
199.287292 188.0
199.323807 168.0
199.349106 124.0
199.484009 92.0
199.602081 188.0
199.644272 128.0
199.679596 228.0
199.770828 68.0
199.793411 156.0
199.871338 180.0
199.91713 136.0
200.080795 496.0
200.113297 372.0
200.439087 232.0
200.461884 152.0
200.609985 120.0
200.811813 132.0
200.846848 164.0
200.934525 224.0
201.057266 124.0
201.092575 132.0
201.222168 160.0
201.281448 92.0
201.307861 68.0
201.437668 64.0
201.676956 128.0
201.739151 104.0
201.812653 116.0
201.917282 84.0
201.962524 184.0
202.004959 72.0
202.044556 108.0
202.10054 132.0
202.242828 184.0
202.361526 184.0
202.383392 188.0
202.480453 228.0
202.56543 64.0
202.64238 196.0
202.698578 200.0
202.725494 148.0
202.864746 140.0
203.010391 144.0
203.04158 140.0
203.084122 184.0
203.123581 176.0
203.282715 156.0
203.300919 116.0
203.379211 132.0
203.44165 136.0
203.64325 168.0
203.671661 132.0
203.736435 164.0
203.944427 88.0
203.975693 160.0
204.041077 164.0
204.174713 132.0
204.257187 40.0
204.278503 148.0
204.348221 172.0
204.410812 184.0
204.433578 124.0
204.470581 92.0
204.666992 136.0
204.70401 204.0
204.738174 148.0
204.829315 104.0
205.129333 260.0
205.17128 112.0
205.268204 224.0
205.385468 136.0
205.479279 200.0
205.507797 156.0
205.575851 184.0
205.641922 204.0
205.782532 124.0
206.084534 128.0
206.138824 148.0
206.367493 132.0
206.398102 176.0
206.501892 80.0
206.556229 148.0
206.587921 372.0
206.639191 180.0
206.676392 160.0
206.733612 116.0
206.79657 160.0
206.885315 32.0
206.956879 152.0
207.071426 160.0
207.097198 168.0
207.326401 112.0
207.427094 148.0
207.506973 168.0
207.549988 236.0
207.636017 156.0
207.656082 164.0
207.770828 168.0
207.819595 116.0
207.899933 44.0
208.009003 140.0
208.080765 188.0
208.166901 144.0
208.235886 196.0
208.300583 124.0
208.326828 164.0
208.425415 116.0
208.482895 100.0
208.530441 168.0
208.637878 156.0
208.648712 144.0
208.807739 216.0
208.87178 240.0
208.948273 164.0
209.080734 148.0
209.106415 416.0
209.128464 176.0
209.150116 140.0
209.314224 144.0
209.354538 132.0
209.530228 120.0
209.564804 148.0
209.653854 220.0
209.703125 112.0
209.812653 156.0
209.873199 148.0
209.974121 176.0
210.098572 136.0
210.124725 208.0
210.173172 180.0
210.207794 140.0
210.230881 204.0
210.291473 160.0
210.380966 212.0
210.410309 144.0
210.473343 128.0
210.534149 140.0
210.586975 164.0
210.687073 104.0
210.733292 144.0
210.957581 268.0
210.993393 252.0
211.057007 224.0
211.080139 148.0
211.111282 248.0
211.14502 220.0
211.24498 192.0
211.275314 132.0
211.38385 180.0
211.412796 192.0
211.479355 44.0
211.502518 164.0
211.589355 136.0
211.684906 136.0
211.710968 180.0
211.734131 128.0
211.757294 128.0
211.83551 68.0
211.861572 128.0
211.912598 228.0
211.960846 212.0
212.029175 128.0
212.078781 700.0
212.151947 120.0
212.194855 136.0
212.226746 248.0
212.302124 100.0
212.342728 108.0
212.380432 172.0
212.450058 52.0
212.554504 144.0
212.590698 160.0
212.642212 124.0
212.777985 156.0
212.879608 164.0
212.938431 204.0
212.997604 140.0
213.090897 20836.0
213.139511 244.0
213.252914 144.0
213.283432 60.0
213.329102 112.0
213.348465 128.0
213.41716 128.0
213.480042 96.0
213.523239 116.0
213.556732 76.0
213.629456 40.0
213.652725 68.0
213.692413 128.0
213.725067 204.0
213.767441 160.0
213.847687 60.0
213.894257 60.0
213.920456 124.0
213.943741 148.0
214.012527 216.0
214.036911 216.0
214.093796 4680.0
214.205811 28.0
214.23204 76.0
214.275726 48.0
214.304871 76.0
214.325256 140.0
214.345657 136.0
214.392288 136.0
214.41478 196.0
214.436005 104.0
214.533035 164.0
214.609482 164.0
214.614929 84.0
214.627136 196.0
214.666306 148.0
214.788788 124.0
214.809204 136.0
214.858795 164.0
214.928818 228.0
214.952164 152.0
214.995941 164.0
215.09758 488.0
215.180161 156.0
215.293701 56.0
215.39592 128.0
215.427444 136.0
215.474792 164.0
215.530304 120.0
215.578461 168.0
215.68811 372.0
215.755341 84.0
215.7901 72.0
215.813828 88.0
215.878754 156.0
215.916168 120.0
215.977585 180.0
216.019196 124.0
216.068268 128.0
216.133682 168.0
216.369705 252.0
216.396042 140.0
216.501465 104.0
216.610962 76.0
216.738724 104.0
216.773895 148.0
216.82077 184.0
216.891113 200.0
217.032745 256.0
217.067017 56.0
217.19899 136.0
217.237686 164.0
217.281128 148.0
217.342743 140.0
217.366211 128.0
217.410233 236.0
217.468918 140.0
217.530563 128.0
217.559921 72.0
217.64505 212.0
217.694977 136.0
217.71553 132.0
217.820694 200.0
217.912323 132.0
218.085709 180.0
218.112152 88.0
218.202209 164.0
218.317963 208.0
218.400299 200.0
218.50621 64.0
218.562103 100.0
218.597412 180.0
218.768204 144.0
218.805847 132.0
218.816635 108.0
218.828217 184.0
218.849136 116.0
218.87999 164.0
219.024292 128.0
219.127396 144.0
219.212692 152.0
219.336624 160.0
219.416214 164.0
219.596085 76.0
219.714081 140.0
219.773087 216.0
219.837997 236.0
219.876358 152.0
219.922287 192.0
219.959 168.0
220.16568 120.0
220.393127 160.0
220.425629 224.0
220.45813 164.0
220.541885 192.0
220.78035 96.0
220.860031 348.0
220.880905 192.0
221.005157 208.0
221.096893 192.0
221.153122 160.0
221.179764 184.0
221.327774 180.0
221.40773 204.0
221.446228 168.0
221.469925 88.0
221.499542 108.0
221.565567 140.0
221.659531 136.0
221.703979 132.0
221.778061 184.0
221.798813 108.0
221.902573 436.0
221.952972 116.0
221.997452 44.0
222.018204 120.0
222.095322 124.0
222.119049 260.0
222.142181 140.0
222.285187 80.0
222.412796 80.0
222.44545 396.0
222.561234 152.0
222.593887 80.0
222.708374 160.0
222.744064 148.0
222.849335 172.0
222.89093 280.0
222.92659 160.0
222.991959 164.0
223.076935 160.0
223.122833 140.0
223.155457 164.0
223.191132 180.0
223.268448 124.0
223.342804 112.0
223.390396 128.0
223.422836 208.0
223.469177 108.0
223.524277 216.0
223.619507 52.0
223.693909 156.0
223.741547 132.0
223.863617 192.0
223.935089 148.0
223.995514 196.0
224.036362 200.0
224.072113 172.0
224.152557 152.0
224.207153 200.0
224.268784 188.0
224.319458 144.0
224.364166 172.0
224.439728 152.0
224.480453 120.0
224.535339 188.0
224.653427 44.0
224.754868 148.0
224.802612 172.0
224.877213 208.0
224.951843 140.0
225.102524 144.0
225.133957 132.0
225.170853 192.0
225.279572 96.0
225.319153 92.0
225.343048 40.0
225.444641 144.0
225.550705 156.0
225.818436 112.0
225.988846 216.0
226.096573 160.0
226.120514 260.0
226.216293 112.0
226.267181 208.0
226.330048 88.0
226.617584 188.0
226.758423 28.0
226.824356 160.0
226.897842 156.0
227.072479 128.0
227.105042 1236.0
227.193192 296.0
227.22319 96.0
227.247192 152.0
227.268204 28.0
227.313614 176.0
227.343216 52.0
227.412827 204.0
227.496292 188.0
227.625381 36.0
227.697449 212.0
227.742508 240.0
227.817596 72.0
227.895706 196.0
228.006897 196.0
228.071472 192.0
228.10614 176.0
228.190247 104.0
228.331573 96.0
228.376694 112.0
228.421799 156.0
228.454895 60.0
228.5271 104.0
228.623383 192.0
228.683578 148.0
228.779892 152.0
228.817017 144.0
228.84613 176.0
228.888214 184.0
228.996689 148.0
229.088348 448.0
229.174423 148.0
229.220337 168.0
229.487869 156.0
229.524048 112.0
229.587372 116.0
229.644684 140.0
229.937332 144.0
230.021835 204.0
230.086899 180.0
230.227142 252.0
230.314728 52.0
230.341537 128.0
230.438583 40.0
230.471817 128.0
230.556427 88.0
230.627853 264.0
230.671265 152.0
230.693863 168.0
230.711349 108.0
230.799316 56.0
230.885086 128.0
231.006546 240.0
231.040192 128.0
231.067429 108.0
231.125504 164.0
231.295898 168.0
231.323822 160.0
231.451797 240.0
231.491165 140.0
231.542953 120.0
231.575958 52.0
231.600189 120.0
231.669861 148.0
231.730453 152.0
231.763779 276.0
231.944443 176.0
232.030487 152.0
232.058838 160.0
232.10022 152.0
232.239716 96.0
232.294312 76.0
232.472778 204.0
232.640244 152.0
232.782944 152.0
232.813309 144.0
232.900314 192.0
232.96199 164.0
233.001633 140.0
233.022888 132.0
233.120529 132.0
233.393692 184.0
233.50621 164.0
233.576157 176.0
233.654221 176.0
233.773911 132.0
233.806015 212.0
233.901733 172.0
233.999146 152.0
234.117905 148.0
234.160538 108.0
234.206223 228.0
234.334167 148.0
234.364639 144.0
234.389008 72.0
234.414429 152.0
234.570709 200.0
234.678558 216.0
234.779678 224.0
234.804672 168.0
235.01712 164.0
235.05542 72.0
235.123917 120.0
235.218536 212.0
235.325378 104.0
235.37117 152.0
235.44751 144.0
235.562393 164.0
235.652176 124.0
235.72847 148.0
235.759125 176.0
235.835526 108.0
236.101639 176.0
236.16774 152.0
236.288086 152.0
236.312119 168.0
236.438019 140.0
236.624741 164.0
236.673721 156.0
236.737 180.0
236.770691 216.0
236.826401 168.0
236.894226 188.0
236.937119 132.0
237.019836 204.0
237.050476 152.0
237.091507 216.0
237.11972 148.0
237.143555 232.0
237.231308 52.0
237.274216 60.0
237.314072 184.0
237.398285 328.0
237.439804 148.0
237.470459 132.0
237.70079 196.0
237.755783 216.0
237.884689 172.0
237.984802 236.0
238.025909 120.0
238.088806 160.0
238.121872 348.0
238.179474 172.0
238.216324 272.0
238.447296 208.0
238.492874 128.0
238.542053 188.0
238.603531 112.0
238.649246 152.0
238.804489 216.0
238.828003 112.0
238.944901 128.0
239.02182 268.0
239.043365 104.0
239.095673 132.0
239.122269 128.0
239.157898 200.0
239.165268 208.0
239.200317 124.0
239.228027 92.0
239.26239 48.0
239.428146 152.0
239.449707 176.0
239.471268 84.0
239.502197 200.0
239.608627 108.0
239.658203 176.0
239.705399 72.0
239.788605 168.0
239.810181 88.0
239.854355 156.0
239.911896 72.0
239.944168 248.0
239.989929 128.0
240.020935 196.0
240.047684 376.0
240.106964 212.0
240.129272 56.0
240.159256 128.0
240.187836 132.0
240.229523 148.0
240.277664 184.0
240.304916 240.0
240.334412 124.0
240.391922 164.0
240.441147 156.0
240.47435 196.0
240.50914 148.0
240.543243 164.0
240.592972 176.0
240.649918 160.0
240.679794 136.0
240.721512 252.0
240.768646 128.0
240.77388 384.0
240.794907 208.0
240.83197 200.0
240.876816 416.0
240.904907 288.0
240.925262 388.0
240.988007 488.0
241.052963 1056.0
241.086884 267776.0
241.198059 168.0
241.263626 100.0
241.29451 148.0
241.328613 160.0
241.353043 368.0
241.380249 160.0
241.439423 128.0
241.445129 80.0
241.486435 152.0
241.519943 104.0
241.524445 244.0
241.557465 356.0
241.595764 2808.0
241.641434 248.0
241.677872 268.0
241.745361 196.0
241.777786 312.0
241.791504 52.0
241.805222 244.0
241.83223 128.0
241.84407 84.0
241.891266 112.0
241.918747 148.0
241.92955 128.0
241.942459 144.0
241.987076 108.0
242.027863 184.0
242.033997 32.0
242.089676 44988.0
242.19426 148.0
242.227814 72.0
242.258789 100.0
242.290863 168.0
242.313141 52.0
242.351349 324.0
242.384125 132.0
242.440628 284.0
242.477829 180.0
242.514145 308.0
242.557449 100.0
242.568405 160.0
242.591553 76.0
242.636993 72.0
242.706696 160.0
242.755234 72.0
242.784622 64.0
242.832458 312.0
242.86351 88.0
242.876541 48.0
242.884659 76.0
242.905228 168.0
242.937027 64.0
242.976654 168.0
243.024261 164.0
243.090897 3952.0
243.165588 88.0
243.19165 116.0
243.237915 168.0
243.299698 108.0
243.336349 68.0
243.346588 104.0
243.379883 208.0
243.426376 96.0
243.441513 212.0
243.452271 156.0
243.479706 364.0
243.511139 132.0
243.53093 116.0
243.580322 192.0
243.590897 36.0
243.620911 136.0
243.673813 140.0
243.702606 104.0
243.710693 132.0
243.731873 200.0
243.761673 192.0
243.790283 92.0
243.807175 228.0
243.816101 60.0
243.858948 300.0
243.912476 204.0
243.964905 180.0
244.036133 100.0
244.055435 108.0
244.092407 684.0
244.175964 92.0
244.230225 76.0
244.253311 92.0
244.330002 92.0
244.366516 116.0
244.407196 104.0
244.439804 160.0
244.531311 104.0
244.59613 116.0
244.632935 100.0
244.681931 76.0
244.741577 76.0
244.746933 52.0
244.761124 168.0
244.819229 96.0
244.857117 112.0
244.881393 76.0
244.958008 140.0
245.00351 124.0
245.075165 152.0
245.11702 112.0
245.142517 88.0
245.207413 128.0
245.241455 144.0
245.267746 116.0
245.348587 148.0
245.400818 124.0
245.471695 148.0
245.533401 76.0
245.557724 80.0
245.640396 156.0
245.698715 108.0
245.764221 168.0
245.809814 184.0
245.946594 164.0
246.051361 48.0
246.088821 104.0
246.198105 256.0
246.254318 56.0
246.669876 148.0
246.719894 72.0
246.810257 80.0
246.838943 104.0
246.916885 220.0
247.235977 80.0
247.307968 68.0
247.439438 176.0
247.480133 80.0
247.68251 160.0
247.755737 56.0
247.783936 52.0
247.859131 52.0
248.040894 96.0
248.109863 116.0
248.148102 100.0
248.310532 148.0
248.33876 52.0
248.379532 48.0
248.483063 192.0
248.539536 196.0
248.564636 244.0
248.614838 84.0
248.661911 252.0
248.751068 228.0
248.898727 164.0
248.931885 140.0
249.125183 192.0
249.30455 152.0
249.314865 96.0
249.325607 144.0
249.403137 196.0
249.431427 100.0
249.47229 136.0
249.513153 140.0
249.648361 112.0
249.673508 104.0
249.698669 36.0
249.79303 44.0
249.824478 124.0
250.03215 76.0
250.12027 64.0
250.167496 196.0
250.318619 80.0
250.365845 68.0
250.466629 112.0
250.548538 120.0
250.731277 60.0
251.105606 100.0
251.207382 152.0
251.238922 140.0
251.431396 120.0
251.491364 56.0
251.649582 160.0
251.69339 92.0
251.933426 112.0
251.965012 92.0
252.116684 164.0
252.145126 72.0
252.211487 140.0
252.255737 60.0
252.284195 92.0
252.451767 92.0
252.625717 68.0
252.859863 44.0
253.021286 132.0
253.078278 312.0
253.369644 80.0
253.461533 28.0
253.537582 88.0
253.711914 72.0
253.753128 160.0
253.787994 108.0
253.880615 96.0
253.927521 140.0
253.985748 168.0
254.086121 100.0
254.117096 508.0
254.163101 188.0
254.200348 60.0
254.228897 132.0
254.282852 88.0
254.327286 44.0
254.393951 104.0
254.451584 76.0
254.475159 144.0
254.559036 140.0
254.692429 180.0
254.749603 148.0
254.78772 104.0
254.809952 184.0
254.888504 144.0
254.975189 244.0
255.033325 100.0
255.101471 42820.0
255.17041 144.0
255.193558 80.0
255.198685 116.0
255.329193 148.0
255.388504 180.0
255.427292 116.0
255.450897 84.0
255.499832 52.0
255.570618 80.0
255.615723 132.0
255.642014 100.0
255.693924 96.0
255.724747 104.0
255.795776 308.0
255.855972 176.0
255.884903 40.0
255.920258 68.0
255.94635 176.0
256.006378 184.0
256.103973 4884.0
256.143372 188.0
256.209747 32.0
256.28302 104.0
256.381805 44.0
256.404114 72.0
256.468597 224.0
256.563477 100.0
256.597565 116.0
256.636688 192.0
256.643494 120.0
256.686584 156.0
256.736969 68.0
256.824951 64.0
256.84729 188.0
256.965302 40.0
256.994019 172.0
257.033264 188.0
257.10788 632.0
257.201447 268.0
257.22699 132.0
257.297211 80.0
257.354675 48.0
257.404114 192.0
257.489685 100.0
257.548035 96.0
257.581421 172.0
257.60379 204.0
257.646942 92.0
257.699615 72.0
257.726044 136.0
257.785889 208.0
257.826721 112.0
257.897766 128.0
257.938568 172.0
257.98407 140.0
258.036469 244.0
258.073761 144.0
258.101929 112.0
258.137512 88.0
258.195068 112.0
258.281433 80.0
258.374207 88.0
258.406189 180.0
258.459198 92.0
258.652588 52.0
258.707031 60.0
258.8703 116.0
258.905518 52.0
259.020844 76.0
259.051086 172.0
259.251495 56.0
259.377045 264.0
259.459839 152.0
259.498322 168.0
259.825439 124.0
259.998718 208.0
260.200928 48.0
260.43338 204.0
260.506012 40.0
260.544556 216.0
260.644135 40.0
260.830536 152.0
260.953033 120.0
261.200317 144.0
261.586456 52.0
261.686249 248.0
261.708771 96.0
261.760315 52.0
261.802155 44.0
261.927765 116.0
262.050171 196.0
262.482086 168.0
262.682037 188.0
262.804626 144.0
262.894989 196.0
263.040222 100.0
263.159668 284.0
263.322906 136.0
263.705566 88.0
263.973907 140.0
264.148529 92.0
264.345886 172.0
264.494751 112.0
264.672821 164.0
264.818542 92.0
264.893036 180.0
265.086212 652.0
265.362946 140.0
265.408325 128.0
265.447235 116.0
265.5802 84.0
265.60614 100.0
265.69696 96.0
266.088287 236.0
266.415619 188.0
266.498871 92.0
267.097137 124.0
267.249939 84.0
267.330078 116.0
267.471222 180.0
267.51355 48.0
267.617737 116.0
267.660065 152.0
267.692596 88.0
267.868469 172.0
268.096558 264.0
268.161713 208.0
268.207367 48.0
268.582306 132.0
268.952179 112.0
269.029358 148.0
269.075073 164.0
269.120758 100.0
269.221985 116.0
269.293854 172.0
269.421234 184.0
269.529053 88.0
269.725128 112.0
269.767639 156.0
270.071716 80.0
270.379242 196.0
270.808136 204.0
270.880188 172.0
271.024353 108.0
271.158691 204.0
271.404541 92.0
271.588196 76.0
271.69519 348.0
271.745667 180.0
271.781738 52.0
272.117035 148.0
272.228149 172.0
272.270844 104.0
272.323395 180.0
272.431793 220.0
272.592773 176.0
272.766968 140.0
272.804749 96.0
273.000397 100.0
273.03656 84.0
273.129486 144.0
273.497162 136.0
273.543243 128.0
273.612366 148.0
273.701263 136.0
273.944977 148.0
274.089935 156.0
274.139374 208.0
274.195404 40.0
274.290985 100.0
274.333832 128.0
274.422821 88.0
274.69986 112.0
274.762543 160.0
275.165161 108.0
275.574677 108.0
275.757782 88.0
275.845673 176.0
276.096954 144.0
276.153168 180.0
276.282104 160.0
276.437683 60.0
276.589264 60.0
276.623016 68.0
276.725647 136.0
276.828278 184.0
276.907776 144.0
277.315277 136.0
277.449585 124.0
277.908844 184.0
277.935394 184.0
278.074768 148.0
278.181 244.0
278.463043 144.0
278.981567 176.0
279.063568 144.0
279.114532 120.0
279.182007 56.0
279.556946 56.0
279.612305 196.0
279.666779 116.0
279.713379 164.0
279.763306 76.0
280.003052 124.0
280.053009 124.0
280.092957 64.0
280.116272 92.0
280.152802 200.0
280.479492 120.0
280.632812 88.0
280.772888 176.0
280.929626 96.0
281.010803 228.0
281.080017 212.0
281.105713 148.0
281.181335 264.0
281.229736 336.0
281.547119 36.0
281.593872 124.0
281.677368 176.0
281.717438 80.0
281.784271 52.0
281.907898 52.0
281.960754 176.0
282.009491 168.0
282.054321 136.0
282.066986 152.0
282.112396 47968.0
282.166931 280.0
282.197235 120.0
282.206543 136.0
282.246918 180.0
282.261047 104.0
282.266479 144.0
282.313934 136.0
282.363312 68.0
282.410187 112.0
282.474579 80.0
282.558777 164.0
282.615906 108.0
282.686035 136.0
282.759186 92.0
282.791992 200.0
282.827728 172.0
282.869263 256.0
282.914886 148.0
282.960388 280.0
283.012512 176.0
283.097076 60088.0
283.195801 172.0
283.219727 44.0
283.246826 52.0
283.32077 208.0
283.335907 52.0
283.343628 112.0
283.411377 124.0
283.432129 92.0
283.483246 208.0
283.545471 92.0
283.614716 92.0
283.66449 72.0
283.721954 108.0
283.755493 88.0
283.788696 40.0
283.85556 76.0
283.92688 68.0
283.950836 156.0
284.003632 76.0
284.035309 36.0
284.099396 12416.0
284.199188 108.0
284.230865 56.0
284.278748 168.0
284.378265 108.0
284.40625 80.0
284.456604 32.0
284.492249 128.0
284.517029 64.0
284.547241 104.0
284.622803 88.0
284.656799 108.0
284.687042 164.0
284.76886 60.0
284.807037 164.0
284.843018 168.0
284.896515 40.0
284.958954 96.0
284.990326 160.0
285.055756 180.0
285.101532 2340.0
285.139587 140.0
285.149261 180.0
285.1922 96.0
285.232544 148.0
285.30835 80.0
285.344879 28.0
285.370361 48.0
285.420807 60.0
285.457794 48.0
285.487427 88.0
285.535126 60.0
285.568787 120.0
285.606201 96.0
285.658875 76.0
285.7323 72.0
285.773468 84.0
285.829285 120.0
285.86145 84.0
285.919586 124.0
285.983459 124.0
286.061829 188.0
286.101379 200.0
286.172485 156.0
286.19632 256.0
286.299072 60.0
286.342834 60.0
286.50528 216.0
286.544952 108.0
286.608978 60.0
286.662872 108.0
286.730286 68.0
286.871826 56.0
286.952759 72.0
287.101105 84.0
287.144958 48.0
287.168549 232.0
287.249512 60.0
287.4823 80.0
287.556549 52.0
287.742188 72.0
287.843506 60.0
288.221802 48.0
288.265717 108.0
288.475281 76.0
288.553009 56.0
288.688263 92.0
288.779572 44.0
288.88443 72.0
289.06189 116.0
289.088623 80.0
289.212646 56.0
289.293884 52.0
289.361603 48.0
289.571533 68.0
289.955353 80.0
290.58847 80.0
290.927826 40.0
291.084015 48.0
291.219849 168.0
292.123688 192.0
292.1716 144.0
292.358734 180.0
292.512329 160.0
292.957977 204.0
292.992065 52.0
293.172638 48.0
293.295319 100.0
293.581696 116.0
293.919403 44.0
294.018372 144.0
294.103699 92.0
294.141235 28.0
294.233398 180.0
294.31192 168.0
294.438263 52.0
295.008881 64.0
295.101166 136.0
295.313202 80.0
295.689514 48.0
296.048981 72.0
296.15686 184.0
296.590302 68.0
296.655426 64.0
296.85083 104.0
297.007141 84.0
297.334534 56.0
297.403168 120.0
297.464966 64.0
298.028717 208.0
298.389038 112.0
298.743256 108.0
298.987549 44.0
299.459198 156.0
300.082916 44.0
300.124298 164.0
300.162201 100.0
300.538177 44.0
300.589417 136.0
300.690002 44.0
301.37027 68.0
301.458679 116.0
301.629456 104.0
301.660583 116.0
301.971771 84.0
302.321167 152.0
302.840485 140.0
303.467682 144.0
303.523163 56.0
304.049744 60.0
304.494812 124.0
304.598999 72.0
304.72406 164.0
305.015961 120.0
305.134155 124.0
305.191345 180.0
305.905792 148.0
306.021332 116.0
306.070068 160.0
306.777313 132.0
306.847046 80.0
307.248077 136.0
307.66687 172.0
307.879852 76.0
308.110382 324.0
308.180267 172.0
308.330505 140.0
308.70105 28.0
310.041809 96.0
310.241577 116.0
310.273132 144.0
310.511566 184.0
310.813263 124.0
311.006256 128.0
311.69458 132.0
311.807037 212.0
312.394226 64.0
312.644012 172.0
313.020691 60.0
313.203796 160.0
313.73941 52.0
313.795837 128.0
314.000336 80.0
314.250793 120.0
314.62323 248.0
314.684906 144.0
314.804962 172.0
314.850861 132.0
315.091034 112.0
315.384338 104.0
315.575226 96.0
315.847534 44.0
316.282745 140.0
316.353546 200.0
316.569519 176.0
316.679291 144.0
317.221405 68.0
317.324219 128.0
317.475403 176.0
317.547607 152.0
317.82077 152.0
318.292816 112.0
320.302155 180.0
320.979279 68.0
321.264618 172.0
321.600037 168.0
322.139374 248.0
322.360687 120.0
322.600159 60.0
323.143982 172.0
323.233185 112.0
323.741486 160.0
324.135529 148.0
324.375641 88.0
324.633789 116.0
324.698334 88.0
325.06424 180.0
325.581146 164.0
325.620667 124.0
325.757141 44.0
325.872101 68.0
326.760132 112.0
326.936432 136.0
327.058807 148.0
327.317993 116.0
327.624146 144.0
328.276489 116.0
328.593903 68.0
329.142517 32.0
329.977142 152.0
330.353241 40.0
330.657166 116.0
331.113312 152.0
331.272675 100.0
331.711151 88.0
331.899658 144.0
332.00119 108.0
332.026581 100.0
332.901154 124.0
333.384308 40.0
333.925964 192.0
334.064178 192.0
334.111481 188.0
334.766632 100.0
334.922424 180.0
335.003357 112.0
335.039795 100.0
335.59375 164.0
335.622925 228.0
336.031403 96.0
336.301453 92.0
336.418243 136.0
336.589844 160.0
336.637299 92.0
336.925842 80.0
337.437164 136.0
337.512909 108.0
337.667847 48.0
337.748322 216.0
338.008057 76.0
338.062103 68.0
338.10321 124.0
338.136139 168.0
338.165436 208.0
338.194702 40.0
338.223999 80.0
338.422821 88.0
338.494904 192.0
338.593414 248.0
338.732544 108.0
338.776917 84.0
338.871307 204.0
338.993073 56.0
339.121338 156.0
339.164612 224.0
339.208221 136.0
339.283813 132.0
339.311951 180.0
339.393921 108.0
339.436615 36.0
339.473267 152.0
339.581116 88.0
339.619537 224.0
339.689667 148.0
339.737335 28.0
339.782349 164.0
339.848022 176.0
339.891449 52.0
339.923462 172.0
339.966522 156.0
339.997131 116.0
340.068573 260.0
340.154663 96872.0
340.271637 212.0
340.34314 148.0
340.379791 44.0
340.434631 184.0
340.494019 88.0
340.548553 140.0
340.585297 240.0
340.620697 88.0
340.662079 128.0
340.71817 92.0
340.760162 168.0
340.813995 252.0
340.885498 112.0
340.93576 60.0
340.97464 168.0
341.006714 136.0
341.043457 216.0
341.157074 18336.0
341.216309 128.0
341.258881 144.0
341.283325 164.0
341.355194 100.0
341.394012 72.0
341.429077 136.0
341.495331 80.0
341.540924 84.0
341.588745 36.0
341.696503 68.0
341.724243 96.0
341.754303 112.0
341.799561 120.0
341.929169 84.0
341.94162 44.0
341.955383 124.0
341.999634 132.0
342.03717 68.0
342.158752 2372.0
342.234009 60.0
342.256866 124.0
342.310089 88.0
342.380066 72.0
342.425842 88.0
342.493744 92.0
342.553162 68.0
342.617249 160.0
342.657928 100.0
342.693024 124.0
342.780731 188.0
342.829285 76.0
342.875549 112.0
342.890503 108.0
342.924652 68.0
342.935791 52.0
342.97821 52.0
343.016083 64.0
343.100342 212.0
343.161774 348.0
343.194397 128.0
343.234131 104.0
343.300812 56.0
343.355743 112.0
343.41568 64.0
343.469727 116.0
343.505615 96.0
343.537384 96.0
343.562256 160.0
343.63089 92.0
343.710785 104.0
343.841736 64.0
343.983887 32.0
344.131561 52.0
344.194305 96.0
344.305115 48.0
344.338348 44.0
344.385254 136.0
344.423279 144.0
344.460236 80.0
344.515625 120.0
344.559174 56.0
344.593201 72.0
344.68927 36.0
345.089233 248.0
345.119965 108.0
345.195679 56.0
345.432373 92.0
345.465668 112.0
345.513763 56.0
345.950439 40.0
346.472595 44.0
346.691193 64.0
347.16571 80.0
347.247284 44.0
347.480988 56.0
347.536621 48.0
347.711029 72.0
347.978302 72.0
348.108246 116.0
348.234497 36.0
348.442535 72.0
348.661743 92.0
349.163635 52.0
349.948761 92.0
351.712036 40.0
352.025635 116.0
352.062988 36.0
352.776611 80.0
352.90744 60.0
353.595734 104.0
353.704254 80.0
353.830658 84.0
354.041229 100.0
354.235992 136.0
355.090546 84.0
355.544495 148.0
355.777222 96.0
355.961182 40.0
356.483307 40.0
357.216461 84.0
358.157471 52.0
358.24411 116.0
358.948883 96.0
359.122345 72.0
359.182709 72.0
359.431702 112.0
359.824219 80.0
360.050781 76.0
360.326508 60.0
360.37561 72.0
360.538086 120.0
362.513458 124.0
362.801514 108.0
362.919037 56.0
363.37796 40.0
365.326843 52.0
365.406708 48.0
373.963043 56.0
374.182465 100.0
376.353088 80.0
377.674713 180.0
379.242798 128.0
380.581146 52.0
380.713165 48.0
382.034637 88.0
382.513275 88.0
382.672882 60.0
383.483124 52.0
386.556549 52.0
386.775696 48.0
390.165802 412.0
390.235687 100.0
391.17984 112.0
391.963562 76.0
393.186005 56.0
393.904572 104.0
394.374786 160.0
394.861084 36.0
399.545563 88.0
399.963379 72.0
401.68869 84.0
402.351135 132.0
404.678314 204.0
406.37326 64.0
407.782715 52.0
408.189606 888.0
408.341553 84.0
408.671417 144.0
409.187256 308.0
409.234894 52.0
410.713806 228.0
412.801758 60.0
413.724243 116.0
415.032837 60.0
415.519531 52.0
416.948822 48.0
422.825531 112.0
424.558411 96.0
424.857819 84.0
426.960815 96.0
427.713715 84.0
427.771332 156.0
428.879364 104.0
429.287506 128.0
430.339661 72.0
431.864502 76.0
431.938965 124.0
432.183044 60.0
432.72937 40.0
433.773315 108.0
434.5737 132.0
435.486938 80.0
436.725494 60.0
437.491119 52.0
438.970184 72.0
439.257965 40.0
441.178833 96.0
442.052948 52.0
442.115723 76.0
444.160278 68.0
444.319672 60.0
447.075989 104.0
447.269592 84.0
449.908386 56.0
451.666229 52.0
456.058899 68.0
458.996307 64.0
459.051727 68.0
459.29483 132.0
461.566772 80.0
463.561493 136.0
463.981506 72.0
464.054413 108.0
466.024384 84.0
471.946411 40.0
472.915436 68.0
472.993347 64.0
474.011078 60.0
477.605682 88.0
479.935516 80.0
480.882111 68.0
483.714417 112.0
486.212677 40.0
486.278503 68.0
486.616486 68.0
489.122223 120.0
491.162292 80.0
493.507233 80.0
494.321106 80.0
497.48114 76.0
499.623077 40.0
500.214935 108.0
504.273804 80.0
507.631348 80.0
508.151642 56.0
510.469269 40.0
512.400146 56.0
512.476746 60.0
513.725525 44.0
513.960144 84.0
514.795227 112.0
514.853943 44.0
516.349792 48.0
519.406982 36.0
520.328186 52.0
521.718323 80.0
522.955505 88.0
523.611145 48.0
524.896179 116.0
527.923706 44.0
528.005981 108.0
530.950684 92.0
533.604736 80.0
534.455566 40.0
534.8974 72.0
538.563049 96.0
539.357727 76.0
544.05481 100.0
545.071899 100.0
545.573853 76.0
549.812378 100.0
553.781616 96.0
553.931458 80.0
556.172791 76.0
560.282593 28.0
561.946838 112.0
562.900269 64.0
564.998718 40.0
567.39032 100.0
570.870605 100.0
571.712585 84.0
574.934021 20.0
578.346436 120.0
585.100342 96.0
586.473206 32.0
590.828735 132.0
591.119019 60.0
594.28302 100.0
596.988586 124.0
597.844727 136.0
598.891418 84.0
599.978088 104.0
607.656189 80.0
609.128906 96.0
609.625183 84.0
610.736206 36.0
610.844421 72.0
611.72522 56.0
616.296875 72.0
623.864685 52.0
632.184021 48.0
633.435669 96.0
635.807129 68.0
641.470459 80.0
642.176392 44.0
648.607727 52.0
656.2229 72.0
659.53595 120.0
660.185181 44.0
660.323303 152.0
667.122253 84.0
668.866028 48.0
676.490112 92.0
678.075073 96.0
684.844788 92.0
685.099976 88.0
688.385803 108.0
688.94989 44.0
694.477417 68.0
694.807922 80.0
699.084839 76.0
711.850891 96.0
713.769104 92.0
716.648621 84.0
717.160217 60.0
719.005554 80.0
719.614014 124.0
720.815796 84.0
730.250916 32.0
730.907166 96.0
735.687622 52.0
751.196716 96.0
753.254639 76.0
755.523193 72.0
758.973572 56.0
760.493103 160.0
761.020081 92.0
765.46283 36.0
766.426758 120.0
771.100708 76.0
772.549377 84.0
776.920166 168.0
780.774841 80.0
782.377319 64.0
789.653381 68.0
790.414185 108.0
791.99292 124.0
793.399353 48.0
793.696533 100.0
798.132263 44.0
799.409119 108.0
800.382935 88.0
803.132996 204.0
806.763794 64.0
807.719421 64.0
808.013611 56.0
810.589783 68.0
812.960022 124.0
825.600891 68.0
828.657471 88.0
830.187866 72.0
830.503296 52.0
832.351196 56.0
832.667053 76.0
842.268188 108.0
847.173401 112.0
847.961426 56.0
848.448303 60.0
850.554016 60.0
856.240173 172.0
857.696777 88.0
858.536316 64.0
860.794617 64.0
863.266357 140.0
869.276428 96.0
870.515015 60.0
877.398926 52.0
878.489929 60.0
885.742798 104.0
888.426331 68.0
894.382141 72.0
895.358521 44.0
900.17688 76.0
900.923462 64.0
916.172852 104.0
928.157654 28.0
936.933838 60.0
940.391235 100.0
954.923828 36.0
956.726685 68.0
963.429993 84.0
963.868652 108.0
967.109131 28.0
974.339355 92.0
977.74646 96.0
979.695618 56.0
984.491943 120.0
985.191467 48.0
985.353882 92.0
986.372498 84.0
990.477173 136.0
993.241394 44.0
1000.304077 96.0
1000.555847 108.0
1002.275269 84.0
1003.668213 76.0
1006.513916 40.0
1013.522156 56.0
1029.705322 84.0
1035.153809 36.0
1039.410034 36.0
1039.474243 56.0
1043.057739 48.0
1062.527588 52.0
1062.780518 60.0
1064.195435 168.0
1067.138672 64.0
1068.881836 108.0
1081.228149 128.0
1085.820679 28.0
1087.250854 176.0
1094.020752 96.0
1099.537598 96.0
1102.700928 88.0
1115.606201 92.0
1126.628418 92.0
1132.976929 68.0
1136.859009 80.0
1147.938232 200.0
1151.089355 176.0
1151.886353 40.0
1156.362305 60.0
1164.640747 48.0
1165.94519 60.0
1170.421143 92.0
1171.401733 100.0
1194.428589 40.0
1197.787598 92.0
1199.07605 100.0
1201.834351 148.0
1203.697998 96.0
1204.82373 44.0
1205.328125 72.0
1207.616333 40.0
1211.007568 196.0
1212.580322 88.0
1219.319092 76.0
1231.748901 88.0
1232.293701 88.0
1240.439575 184.0
1240.502563 116.0
1243.918701 176.0
1255.436035 76.0
1256.233032 244.0
1263.127319 68.0
1263.509277 132.0
1272.17627 60.0
1278.601562 116.0
1280.694702 112.0
1282.946411 164.0
1295.222656 120.0
1308.529297 160.0
1319.668823 164.0
1320.174927 124.0
1320.854736 196.0
1323.474487 136.0
1324.227539 212.0
1325.307007 124.0
1328.380737 72.0
1330.085938 60.0
1332.72937 96.0
1333.906738 164.0
1337.092407 104.0
1338.32251 28.0
1340.026855 204.0
1341.615601 92.0
1342.242554 84.0
1354.205444 164.0
1360.349854 84.0
1370.631348 52.0
1370.682983 116.0
1375.498779 92.0
1395.998779 132.0
1396.65332 56.0
1402.460815 196.0
1404.40686 124.0
1405.495972 72.0
1405.690063 136.0
1406.578125 148.0
1407.511353 72.0
1410.380005 120.0
1412.279175 140.0
1416.755371 28.0
1418.426392 108.0
1418.913696 172.0
1419.281006 52.0
1424.985107 120.0
1430.572754 172.0
1431.06958 140.0
1438.68396 180.0
1441.916748 88.0
1446.401855 132.0
1450.067627 176.0
1457.717163 100.0
1459.7771 96.0
1467.688477 260.0
1472.129517 116.0
1476.990112 260.0
1477.196655 40.0
1479.561279 124.0
1482.55603 228.0
1484.434082 120.0
1486.934937 152.0
1487.794678 156.0
1494.150146 136.0
1496.12793 128.0
1498.237915 152.0
1502.840576 128.0
