>compound Luteolin
>formula C15H10O6
>ionization [M+H]+
>parentmass 287.05501449209055
#inchi InChI=1S/C15H10O6/c16-8-4-11(19)15-12(20)6-13(21-14(15)5-8)7-1-2-9(17)10(18)3-7/h1-6,16-19H
#inchikey IQPNAANSBPBGFQ
#Ion_Source DI-ESI
#Instrument qTof
#Compound_Source Commercial
#PI Norberto Lopes
#Data_Collector Denise Silva
#Scan -1
#Precursor_MZ 287.046
#ExactMass 286.048
#Charge 1
#CAS_Number 491-70-3
#Pubmed_ID  
#Smiles O=C1C2=C(C=C(C=C2OC(C3=CC=C(C(O)=C3)O)=C1)O)O
#INCHI_AUX  
#Library_Class 3
#SpectrumID CCMSLIB00000078878
#IonMode Positive
#UpdateWorkflowName UPDATE-SINGLE-ANNOTATED-BRONZE
#LibraryQualityString Bronze
#TaskID a7811c4bf87d4994841200bf262634c1
##Scan# 1
#SpectrumFile gnps_luteolin_pos_MSMS_287.mgf
#LibraryName gnps_library.mgf
#MQScore -1
#Organism gnps_library
#TIC_Query 0
#RT_Query -1
#MZErrorPPM -1
#SharedPeaks 0
#MassDiff 0
#LibMZ -1
#SpecMZ 287.046
#SpecCharge 0
#internalFilename spec-00000.mgf

>collision 10
115.051262 504.0
117.031013 641.0
125.01973 245.0
127.05172 176.0
128.059174 1164.0
129.065811 555.0
131.047424 217.0
135.039627 5869.0
136.044647 296.0
137.019653 2430.0
139.050491 2146.0
143.0448 377.0
145.060043 519.0
147.040085 498.0
153.014969 22833.0
154.017624 1034.0
155.052673 614.0
157.061218 1310.0
161.017838 5152.0
162.020218 333.0
163.033463 177.0
167.043716 532.0
168.053513 220.0
171.031128 2669.0
172.037918 201.0
173.054291 177.0
179.028397 789.0
184.047455 341.0
185.052246 1457.0
187.034576 187.0
195.041046 703.0
199.032883 349.0
203.027924 469.0
212.041077 391.0
213.049652 2134.0
214.052475 188.0
216.038834 247.0
219.060623 166.0
223.031113 225.0
229.044113 264.0
231.059509 189.0
240.037323 346.0
241.043793 3934.0
242.049896 409.0
244.033646 472.0
245.038681 267.0
258.046936 505.0
259.050201 195.0
269.03952 1409.0
287.045502 11938.0
