>compound Cabazitaxel (Jevtana)
>formula C45H57NO14
>ionization [M+H]+
>parentmass 836.3851819560905
#inchi InChI=1S/C45H57NO14/c1-24-28(57-39(51)33(48)32(26-17-13-11-14-18-26)46-40(52)60-41(3,4)5)22-45(53)37(58-38(50)27-19-15-12-16-20-27)35-43(8,36(49)34(55-10)31(24)42(45,6)7)29(54-9)21-30-44(35,23-56-30)59-25(2)47/h11-20,28-30,32-35,37,48,53H,21-23H2,1-10H3,(H,46,52)/t28-,29+,30+,32-,33+,34+,35-,37+,43+,44-,45-/m0/s1
#inchikey BMQGVNUXMIRLCK
#Ion_Source LC-ESI
#Instrument qTof
#Compound_Source Commercial
#PI Dorrestein
#Data_Collector Garg_Neha
#Scan -1
#Precursor_MZ 836.385
#ExactMass 835.378
#Charge 1
#CAS_Number 183133-96-2, 890654-44-1
#Pubmed_ID N/A
#Smiles [C@@]12([C@@]([C@]3([C@@](C[C@H]1OC)(OC3)[H])OC(=O)C)([C@H]([C@]4(C[C@@H](C(=C([C@H](C2=O)OC)C4(C)C)C)OC([C@@H]([C@@H](NC(OC(C)(C)C)=O)C5=CC=CC=C5)O)=O)O)OC(=O)C6=CC=CC=C6)[H])C
#INCHI_AUX N/A
#Library_Class 1
#SpectrumID CCMSLIB00000078540
#IonMode Positive
#UpdateWorkflowName UPDATE-SINGLE-ANNOTATED-GOLD
#LibraryQualityString Gold
#TaskID 77f51c88eb8b467eb4a01dd2d0cb90d2
##Scan# 2461
#SpectrumFile Plate9_1_20_GC4_01_15750.mzXML
#LibraryName FDALibrary_2_04302014.mgf
#MQScore -1
#Organism FDALibrary_2_04302014
#TIC_Query 0
#RT_Query -1
#MZErrorPPM -1
#SharedPeaks 0
#MassDiff 0
#LibMZ -1
#SpecMZ 836.385
#SpecCharge 0
#internalFilename spec-00000.mgf

>collision 10
45.749744 156.0
49.427376 140.0
53.867657 144.0
54.321453 164.0
55.299862 168.0
55.64526 140.0
60.058846 200.0
62.952591 172.0
63.595367 204.0
64.998184 144.0
65.51268 172.0
68.120499 188.0
73.19735 144.0
73.499062 188.0
76.954826 172.0
78.878555 192.0
80.802765 148.0
81.157394 156.0
83.984085 160.0
85.120598 168.0
86.320213 212.0
90.976562 148.0
91.053986 528.0
91.071503 188.0
91.693665 144.0
92.285431 208.0
93.071434 148.0
95.687065 152.0
95.722115 160.0
97.027313 184.0
97.553177 148.0
99.04248 192.0
99.09082 192.0
99.106667 204.0
100.052055 216.0
101.085968 172.0
102.662926 156.0
103.055153 316.0
103.254646 144.0
103.625084 188.0
103.771011 148.0
104.954369 164.0
105.0336 2364.0
105.066971 560.0
106.037102 384.0
106.06881 176.0
107.086456 184.0
109.390274 152.0
116.061806 132.0
117.066429 156.0
118.074303 172.0
118.867134 160.0
119.04789 440.0
119.067169 136.0
120.059242 188.0
121.063812 608.0
121.102539 296.0
123.04567 156.0
123.080795 172.0
125.056267 192.0
126.088898 160.0
127.074173 252.0
128.061035 156.0
129.067398 136.0
131.083282 244.0
133.065948 1688.0
133.101318 808.0
134.107468 176.0
134.249054 192.0
135.079315 1060.0
135.115234 328.0
135.793945 140.0
136.076874 504.0
137.058578 300.0
137.096146 412.0
138.821106 156.0
139.11673 216.0
143.085175 336.0
145.065918 476.0
145.099503 636.0
146.102814 124.0
147.044556 284.0
147.080414 400.0
147.112869 216.0
149.05986 848.0
149.097656 648.0
149.306625 148.0
149.333374 168.0
150.055695 160.0
150.104233 160.0
151.036804 200.0
151.074005 264.0
151.113007 180.0
153.0867 360.0
154.098526 172.0
155.071075 144.0
155.091568 160.0
156.091827 172.0
156.958374 188.0
157.098007 340.0
158.107483 196.0
159.043137 324.0
159.081238 1168.0
159.117706 156.0
160.191483 152.0
161.062469 268.0
161.094101 1056.0
161.132477 156.0
161.585022 140.0
162.099014 168.0
162.134491 264.0
163.074936 880.0
163.11087 996.0
163.352188 116.0
164.082108 156.0
164.116852 180.0
165.053589 764.0
165.091202 608.0
165.126587 836.0
165.398651 200.0
166.056839 196.0
166.099655 132.0
166.133728 424.0
167.071075 144.0
168.0896 168.0
168.901825 144.0
169.101547 300.0
170.096359 152.0
171.079254 188.0
171.115051 412.0
172.040939 160.0
173.066162 200.0
173.092545 480.0
174.101776 164.0
175.071625 176.0
175.112045 460.0
176.082062 172.0
176.117828 652.0
176.467865 156.0
177.052002 1444.0
177.088394 544.0
177.126205 376.0
178.056778 396.0
178.128677 212.0
179.063263 176.0
179.089752 200.0
179.790939 184.0
180.066589 444.0
180.089951 412.0
181.092636 124.0
181.121002 284.0
181.484207 152.0
182.081406 2668.0
182.735825 232.0
183.004974 220.0
183.089752 352.0
183.115799 344.0
184.088943 164.0
185.098816 236.0
185.625977 184.0
187.078384 300.0
187.112885 184.0
188.071793 160.0
188.114624 144.0
189.062454 128.0
189.091095 460.0
189.126846 188.0
191.071014 412.0
192.093933 336.0
193.096039 708.0
194.105682 380.0
195.079697 292.0
195.115723 476.0
195.705673 172.0
196.090088 156.0
196.119049 124.0
196.943863 220.0
197.096649 644.0
197.133148 560.0
198.103821 176.0
199.109222 404.0
199.164276 148.0
200.124008 188.0
201.092178 164.0
201.129517 160.0
203.071426 184.0
203.099945 156.0
203.142349 180.0
203.28421 164.0
203.920349 236.0
204.071014 168.0
205.087311 240.0
205.118317 692.0
206.10466 308.0
206.124802 204.0
207.073044 160.0
207.112228 696.0
208.058487 108.0
208.120743 216.0
208.950363 168.0
209.087021 520.0
209.13179 948.0
210.09642 176.0
210.140259 240.0
211.073212 152.0
211.11084 460.0
211.151794 228.0
212.083572 212.0
212.111404 160.0
214.137756 232.0
214.796494 156.0
215.07077 152.0
215.149918 216.0
216.096512 140.0
217.086792 148.0
217.123199 200.0
218.114624 264.0
219.113159 208.0
220.124069 140.0
221.129349 676.0
222.101562 132.0
222.135925 168.0
222.162689 212.0
223.106232 684.0
223.148178 480.0
223.541306 168.0
224.118469 124.0
225.088104 344.0
225.125916 1008.0
225.161087 280.0
225.97612 140.0
226.070847 4904.0
226.128601 424.0
226.168213 192.0
226.652802 180.0
227.074371 548.0
227.138443 308.0
228.094681 192.0
228.144455 160.0
229.119583 196.0
229.604813 168.0
231.103027 140.0
231.227188 152.0
232.123642 316.0
233.133759 148.0
234.133514 172.0
235.111282 144.0
235.147278 1576.0
235.486725 152.0
236.082672 288.0
236.117172 128.0
236.151779 644.0
237.074661 300.0
237.127304 1936.0
237.161392 984.0
238.128693 336.0
238.162704 300.0
239.108566 288.0
239.141479 1188.0
240.107986 312.0
240.145874 200.0
240.192139 148.0
241.12323 292.0
241.15036 304.0
243.103912 124.0
243.130188 244.0
244.399277 232.0
245.134048 380.0
246.132751 124.0
246.535309 216.0
247.082489 196.0
247.141571 392.0
247.429886 156.0
248.123917 368.0
249.125397 444.0
249.161926 160.0
249.899887 160.0
250.131729 748.0
251.102798 164.0
251.140686 668.0
251.769135 152.0
252.107056 120.0
252.150909 160.0
253.12645 392.0
253.15863 952.0
254.123398 360.0
254.152771 284.0
255.102615 108.0
255.137894 1360.0
255.178833 160.0
256.114258 140.0
256.140045 168.0
256.1716 160.0
257.121765 220.0
257.156464 240.0
258.166443 148.0
259.130157 104.0
260.138611 128.0
260.17865 180.0
261.12085 152.0
261.144745 220.0
262.117432 172.0
262.302124 204.0
263.100922 292.0
263.14093 796.0
264.118256 168.0
264.148315 568.0
265.042389 144.0
265.126099 420.0
265.154541 820.0
266.126862 312.0
266.164703 428.0
267.097046 400.0
267.135132 576.0
267.171021 700.0
268.096985 140.0
268.136932 168.0
269.101166 384.0
269.108795 248.0
269.11972 352.0
269.150024 524.0
269.193054 164.0
270.119049 148.0
271.090393 164.0
271.122742 184.0
271.168335 388.0
272.141418 172.0
273.140289 252.0
274.100433 140.0
274.126801 200.0
274.155548 176.0
275.134155 140.0
276.028168 168.0
276.112335 232.0
276.150513 140.0
277.126038 292.0
277.152252 200.0
278.155334 120.0
279.134521 360.0
279.174713 316.0
279.571014 160.0
280.138794 168.0
281.11496 184.0
281.152924 1412.0
282.133362 296.0
282.157196 292.0
282.767426 176.0
283.132904 696.0
283.161896 528.0
284.174591 300.0
285.142761 356.0
285.180664 260.0
285.906158 152.0
286.118195 184.0
286.160309 188.0
286.186584 116.0
287.164703 288.0
288.929443 152.0
289.139252 140.0
290.124908 148.0
291.138092 1708.0
292.144196 256.0
293.150452 480.0
294.123779 304.0
294.158264 140.0
294.685425 220.0
295.16687 1012.0
296.172028 292.0
297.144928 384.0
297.185852 472.0
299.162933 564.0
301.144226 260.0
301.181671 360.0
305.141235 148.0
308.135101 204.0
309.147919 1060.0
309.283478 180.0
309.6651 148.0
310.1492 268.0
311.164215 1620.0
312.171722 304.0
313.178802 1416.0
314.058563 140.0
314.17984 388.0
315.121155 232.0
315.159119 1084.0
316.164062 136.0
317.173676 176.0
318.067535 188.0
323.162506 1428.0
324.165924 516.0
325.172607 316.0
327.157684 292.0
327.19632 988.0
328.16806 496.0
328.197205 180.0
329.148071 136.0
329.186737 332.0
331.184692 132.0
332.119629 176.0
333.106934 152.0
333.135803 324.0
335.163727 128.0
339.149567 200.0
341.047211 144.0
341.175293 2368.0
342.171387 192.0
343.143005 296.0
343.190155 868.0
344.198853 480.0
345.206909 248.0
351.159241 156.0
353.171509 260.0
354.177765 144.0
355.18985 1472.0
356.19339 428.0
357.194885 132.0
358.171967 212.0
359.10672 184.0
359.180939 444.0
360.184906 296.0
361.167664 124.0
363.217377 132.0
367.143311 156.0
371.185486 740.0
372.188782 368.0
373.199432 3080.0
374.130157 124.0
374.203735 1120.0
375.17337 304.0
375.202515 332.0
376.920807 212.0
377.183624 296.0
379.626617 160.0
383.186798 276.0
385.180908 176.0
387.205292 156.0
391.141693 168.0
391.204803 268.0
392.176727 184.0
392.216888 148.0
396.801819 152.0
397.047668 164.0
399.136475 144.0
400.696686 184.0
401.194336 780.0
402.194946 180.0
405.175873 164.0
405.223022 612.0
406.171967 152.0
406.229614 456.0
407.228271 116.0
415.209534 580.0
416.180786 180.0
416.227386 284.0
417.18158 164.0
419.199249 416.0
419.28186 164.0
421.150482 164.0
421.195892 212.0
422.192657 252.0
424.186615 176.0
431.181976 168.0
432.184052 156.0
433.220703 4120.0
433.488922 152.0
434.223846 1244.0
434.355408 140.0
435.227966 120.0
437.197632 340.0
438.205963 144.0
445.195343 200.0
451.234009 152.0
456.039917 188.0
462.197998 192.0
463.207275 688.0
464.218719 136.0
465.212616 260.0
472.515747 164.0
475.19632 304.0
475.874664 140.0
477.230042 156.0
491.214172 164.0
491.289154 164.0
492.209991 156.0
493.22113 1724.0
494.224457 296.0
495.239655 528.0
496.237 288.0
497.217773 184.0
504.227692 128.0
505.225952 312.0
505.301575 148.0
506.218506 276.0
506.268402 140.0
516.204651 152.0
521.204468 152.0
522.509033 104.0
523.050903 180.0
523.230408 6416.0
524.234314 3544.0
524.348999 176.0
525.240723 528.0
525.715332 112.0
526.2229 164.0
526.239319 132.0
533.784119 164.0
535.772461 160.0
536.2854 112.0
537.251404 444.0
538.271545 144.0
539.251709 228.0
541.241699 260.0
542.246155 272.0
549.245117 136.0
554.306946 156.0
555.257568 5344.0
555.739441 112.0
556.258972 1492.0
557.187866 204.0
557.261841 1092.0
558.267639 288.0
580.243469 240.0
581.241089 340.0
582.235962 108.0
594.231506 144.0
598.270142 280.0
626.259705 200.0
627.261475 192.0
636.317261 152.0
636.387512 144.0
640.282776 532.0
641.274231 212.0
670.250366 212.0
686.294922 132.0
704.310547 196.0
705.306641 116.0
716.259521 196.0
718.322144 152.0
719.337585 120.0
730.283386 812.0
731.27655 208.0
731.330444 200.0
732.288025 100.0
736.333496 308.0
737.330017 176.0
738.341553 132.0
760.313599 144.0
762.305542 128.0
763.301819 112.0
772.315857 136.0
780.3302 244.0
781.317749 252.0
818.386047 180.0
836.265503 144.0
836.382019 2804.0
836.509766 140.0
837.378784 1064.0
838.390015 500.0
838.570618 116.0
839.383545 96.0
1099.286255 172.0
1341.54248 160.0
1392.648438 184.0
1424.626953 148.0
1457.112671 160.0
1484.591675 156.0
1494.41626 184.0
1540.132446 148.0
1578.469482 164.0
1675.021362 224.0
1771.899902 144.0
1792.182007 152.0
1977.011597 260.0
1991.072021 148.0
1991.427368 196.0
