>compound Bexarotene
>formula C24H28O2
>ionization [M+H]+
>parentmass 349.21524
#inchi InChI=1S/C24H28O2/c1-15-13-20-21(24(5,6)12-11-23(20,3)4)14-19(15)16(2)17-7-9-18(10-8-17)22(25)26/h7-10,13-14H,2,11-12H2,1,3-6H3,(H,25,26)
#inchikey NAVMQTYZDKMPEU
#Ion_Source LC-ESI
#Instrument qTof
#Compound_Source Commercial
#PI Dorrestein
#Data_Collector Garg_Neha
#Scan -1
#Precursor_MZ 349.216
#ExactMass 348.209
#Charge 1
#CAS_Number 153559-49-0
#Pubmed_ID N/A
#Smiles C12=C(C=C(C(=C1)C)C(C3=CC=C(C=C3)C(=O)O)=C)C(CCC2(C)C)(C)C
#INCHI_AUX N/A
#Library_Class 1
#SpectrumID CCMSLIB00000078433
#IonMode Positive
#UpdateWorkflowName UPDATE-SINGLE-ANNOTATED-GOLD
#LibraryQualityString Gold
#TaskID 77f51c88eb8b467eb4a01dd2d0cb90d2
##Scan# 3521
#SpectrumFile Plate7_81_88_Plate6_81_88_GD6_01_15772.mzXML
#LibraryName FDALibrary_2_04302014.mgf
#MQScore -1
#Organism FDALibrary_2_04302014
#TIC_Query 0
#RT_Query -1
#MZErrorPPM -1
#SharedPeaks 0
#MassDiff 0
#LibMZ -1
#SpecMZ 349.216
#SpecCharge 0
#internalFilename spec-00000.mgf

>collision 10
48.87896 144.0
49.617859 200.0
51.163528 144.0
53.023823 188.0
65.966637 184.0
78.598656 148.0
102.062576 152.0
102.364418 156.0
103.051674 312.0
105.064316 160.0
106.741837 148.0
111.117767 276.0
111.166824 188.0
112.119446 140.0
114.664932 156.0
115.055298 192.0
119.05455 220.0
120.089554 132.0
120.531013 228.0
120.977196 160.0
122.562958 176.0
129.066254 272.0
135.041626 168.0
136.856689 152.0
140.315033 176.0
141.273895 156.0
142.077011 192.0
142.544754 148.0
143.085892 312.0
144.084 148.0
144.533508 156.0
145.06282 220.0
145.103714 272.0
146.350571 156.0
146.803604 144.0
147.043228 1464.0
149.059982 248.0
149.122986 220.0
154.033569 180.0
155.085938 152.0
156.092468 308.0
157.101242 604.0
158.09639 140.0
159.11142 136.0
163.067505 168.0
164.50415 212.0
169.100632 164.0
171.114655 332.0
172.125519 244.0
178.07843 136.0
178.681915 208.0
179.086548 328.0
183.120651 340.0
184.11824 280.0
187.188156 160.0
187.684097 140.0
189.433273 188.0
191.08049 156.0
192.092117 304.0
193.099091 364.0
194.091187 188.0
196.924271 196.0
197.129822 784.0
198.133041 172.0
202.080276 160.0
205.098145 188.0
206.100616 268.0
207.114731 332.0
209.722427 152.0
211.142975 144.0
212.161484 280.0
212.878922 172.0
213.160812 192.0
219.035736 168.0
219.074112 144.0
219.112335 176.0
220.127808 396.0
221.09877 292.0
222.935379 156.0
227.177841 1712.0
228.177505 292.0
230.191193 168.0
231.113144 152.0
233.128769 264.0
234.13649 124.0
235.153259 176.0
236.071075 204.0
237.817886 144.0
239.105698 148.0
242.12207 200.0
244.297974 172.0
247.113358 168.0
247.148651 164.0
249.096588 208.0
251.105698 1556.0
252.108246 496.0
253.111572 160.0
260.159393 152.0
261.115601 156.0
262.103912 156.0
263.110229 256.0
265.121429 436.0
266.128052 156.0
274.412567 160.0
274.574158 224.0
275.184631 140.0
276.11322 140.0
278.125061 180.0
279.136719 3048.0
280.142212 768.0
280.956329 140.0
281.14267 504.0
281.899933 112.0
288.124207 152.0
288.24585 168.0
289.197784 152.0
291.134613 120.0
293.151978 1256.0
294.151672 408.0
295.163513 160.0
300.95694 168.0
303.210571 360.0
305.148163 392.0
316.451172 184.0
319.168365 352.0
320.161713 112.0
324.729553 176.0
331.204224 660.0
332.212463 148.0
333.185455 652.0
334.189789 888.0
335.194031 284.0
340.452881 216.0
345.61377 144.0
347.106567 144.0
347.230408 132.0
348.218658 236.0
348.276886 108.0
348.610016 236.0
349.118011 136.0
349.154663 144.0
349.21524 33116.0
349.44931 96.0
349.486267 112.0
349.618103 112.0
349.65921 140.0
349.880676 156.0
350.174774 168.0
350.217896 7284.0
350.598724 124.0
351.2229 780.0
351.270599 104.0
351.392944 184.0
352.593231 124.0
367.224915 684.0
368.227814 316.0
369.241699 196.0
390.241211 196.0
677.64624 152.0
1706.32959 176.0
1901.75354 180.0
1961.665894 148.0
