>compound MLS001159033-01!2-[(4-ethyl-8,8-dimethyl-2-oxo-9,10-dihydropyrano[2,3-h]chromen-5-yl)oxy]-N-(2-morpholin-4-ylethyl)acetamide
>formula C24H32N2O6
>ionization [M+H]+
>parentmass 445.23331319609053
#inchi InChI=1S/C24H32N2O6/c1-4-16-13-21(28)31-23-17-5-6-24(2,3)32-18(17)14-19(22(16)23)30-15-20(27)25-7-8-26-9-11-29-12-10-26/h13-14H,4-12,15H2,1-3H3,(H,25,27)
#inchikey PYWOQXCBTDFULZ
#Ion_Source LC-ESI
#Instrument qTof
#Compound_Source NIH Natural Product Library
#PI Dorrestein
#Data_Collector VVP/LMS
#Scan -1
#Precursor_MZ 445.234
#ExactMass 444.226
#Charge 1
#CAS_Number N/A
#Pubmed_ID N/A
#Smiles CCc1cc(=O)oc2c3CCC(C)(C)Oc3cc(OCC(=O)NCCN4CCOCC4)c12
#INCHI_AUX N/A
#Library_Class 1
#SpectrumID CCMSLIB00000080497
#IonMode Positive
#UpdateWorkflowName UPDATE-SINGLE-ANNOTATED-GOLD
#LibraryQualityString Gold
#TaskID b1d8e8f6646f4e71acdff9ca3d919d08
##Scan# 1674
#SpectrumFile p2-G09_GG9_01_18057.mzXML
#LibraryName NIH_Natural_Products_Library.mgf
#MQScore -1
#Organism NIH_Natural_Products_Library
#TIC_Query 0
#RT_Query -1
#MZErrorPPM -1
#SharedPeaks 0
#MassDiff 0
#LibMZ -1
#SpecMZ 445.234
#SpecCharge 0
#internalFilename spec-00000.mgf

>collision 10
95.000793 84.0
95.044899 204.0
95.061134 288.0
95.124481 152.0
95.191467 108.0
95.210838 168.0
95.252487 220.0
95.280815 116.0
95.294411 76.0
95.323563 128.0
95.352715 172.0
95.366318 144.0
95.381866 104.0
95.411026 196.0
95.525764 92.0
95.539383 284.0
95.591583 140.0
95.602867 312.0
95.620155 172.0
95.64447 172.0
95.719299 128.0
95.749611 216.0
95.763107 172.0
95.791809 60.0
95.817139 168.0
95.864464 184.0
95.905479 140.0
95.950317 72.0
96.010765 144.0
96.028313 96.0
96.063423 132.0
96.084763 188.0
96.112206 104.0
96.183601 196.0
96.209793 140.0
96.328918 88.0
96.383224 200.0
96.479393 196.0
96.606506 220.0
96.620201 148.0
96.645638 140.0
96.733665 176.0
96.744377 80.0
96.748146 128.0
96.788528 152.0
96.843369 96.0
96.981148 100.0
97.000122 208.0
97.075821 300.0
97.120354 152.0
97.193054 248.0
97.211945 184.0
97.233536 176.0
97.259048 140.0
97.289322 180.0
97.297279 108.0
97.304649 140.0
97.319908 152.0
97.348549 196.0
97.376862 152.0
97.414185 228.0
97.444 112.0
97.466675 200.0
97.563538 112.0
97.606598 164.0
97.683495 136.0
97.709068 128.0
97.766136 136.0
97.805496 132.0
97.832169 124.0
97.872437 92.0
97.89016 224.0
97.905914 128.0
97.927574 156.0
97.947273 324.0
98.02005 220.0
98.023445 200.0
98.059883 2172.0
98.101845 236.0
98.136467 104.0
98.177879 144.0
98.264244 148.0
98.287209 152.0
98.346596 200.0
98.375191 140.0
98.39888 180.0
98.426521 104.0
98.446175 164.0
98.503548 48.0
98.532761 132.0
98.563293 200.0
98.588509 256.0
98.617554 136.0
98.659668 156.0
98.681419 172.0
98.701187 32.0
98.740738 144.0
98.825806 132.0
98.868378 124.0
98.906944 64.0
98.966339 236.0
99.009903 108.0
99.059822 204.0
99.092323 840.0
99.110931 168.0
99.139908 244.0
99.178375 128.0
99.204086 208.0
99.233818 188.0
99.277603 148.0
99.362648 220.0
99.448067 160.0
99.519814 116.0
99.624802 232.0
99.642677 132.0
99.702293 148.0
99.720467 112.0
99.746017 108.0
99.793732 160.0
99.816147 132.0
99.875267 112.0
99.891182 196.0
99.937057 204.0
99.967972 188.0
100.007591 196.0
100.027138 180.0
100.038826 388.0
100.076141 50900.0
100.114967 148.0
100.15062 96.0
100.18644 204.0
100.223671 52.0
100.250877 276.0
100.321419 144.0
100.349998 172.0
100.385017 120.0
100.400269 388.0
100.434662 48.0
100.450951 232.0
100.472893 116.0
100.510666 160.0
100.536743 68.0
100.560692 116.0
100.577484 148.0
100.636551 160.0
100.660515 44.0
100.684074 176.0
100.717812 128.0
100.741219 108.0
100.787628 164.0
100.816338 128.0
100.868301 160.0
100.910286 100.0
100.978279 136.0
100.996277 56.0
101.040283 188.0
101.078911 3216.0
101.114326 52.0
101.142349 136.0
101.156357 136.0
101.180382 72.0
101.224861 168.0
101.312561 208.0
101.382233 216.0
101.452843 244.0
101.466881 116.0
101.521019 136.0
101.543549 68.0
101.567146 76.0
101.600136 160.0
101.657433 148.0
101.685532 192.0
101.736916 180.0
101.763824 120.0
101.777878 96.0
101.795952 148.0
101.820045 100.0
101.836113 28.0
101.922501 100.0
101.952644 220.0
102.002892 112.0
102.057175 152.0
102.082123 276.0
102.135605 180.0
102.195961 160.0
102.23822 80.0
102.270805 188.0
102.294952 108.0
102.332832 132.0
102.348938 156.0
102.393242 136.0
102.423454 148.0
102.44162 168.0
102.485909 156.0
102.573677 116.0
102.603485 332.0
102.653214 172.0
102.667336 32.0
102.716393 224.0
102.812584 264.0
102.828735 180.0
102.848915 132.0
102.877174 172.0
102.903427 92.0
102.925636 92.0
102.961983 68.0
102.9842 144.0
103.057716 352.0
103.127663 100.0
103.149895 220.0
103.176857 272.0
103.21772 168.0
103.267281 148.0
103.332115 116.0
103.368324 156.0
103.390587 84.0
103.406776 60.0
103.429047 216.0
103.533752 436.0
103.578888 224.0
103.62278 176.0
103.647774 136.0
103.68425 80.0
103.734924 212.0
103.771416 92.0
103.791687 144.0
103.848473 124.0
103.897156 260.0
103.974266 32.0
104.065613 104.0
104.091728 172.0
104.098869 148.0
104.124504 256.0
104.207794 148.0
104.279137 184.0
104.335831 176.0
104.354134 124.0
104.396835 84.0
104.461922 132.0
104.502831 184.0
104.537201 176.0
104.569763 96.0
104.599068 232.0
104.628799 84.0
104.72654 144.0
104.79377 176.0
104.863693 192.0
104.882614 136.0
104.912804 168.0
104.965759 148.0
105.069656 316.0
105.126785 152.0
105.149658 200.0
105.19146 132.0
105.266998 76.0
105.289467 156.0
105.355705 176.0
105.434517 160.0
105.452911 212.0
105.532639 148.0
105.581604 140.0
105.63623 172.0
105.784286 212.0
105.827278 220.0
105.855949 164.0
105.882568 112.0
105.919434 212.0
105.964851 216.0
106.025978 176.0
106.069565 152.0
106.202309 140.0
106.231483 160.0
106.270737 168.0
106.304886 80.0
106.362488 64.0
106.423141 184.0
106.528687 108.0
106.567726 128.0
106.591782 164.0
106.672539 108.0
106.701614 140.0
106.744499 80.0
106.86586 84.0
106.968758 196.0
107.011864 308.0
107.047882 508.0
107.070396 144.0
107.087708 180.0
107.114967 100.0
107.170593 136.0
107.19326 32.0
107.255089 276.0
107.286011 192.0
107.319 320.0
107.335495 200.0
107.401489 80.0
107.424812 208.0
107.439751 184.0
107.469566 164.0
107.500519 104.0
107.602882 204.0
107.618385 184.0
107.638832 148.0
107.711113 152.0
107.785492 68.0
107.819778 176.0
107.833565 168.0
107.88884 172.0
107.998436 216.0
108.054504 208.0
108.079407 116.0
108.112228 108.0
108.14534 112.0
108.167984 128.0
108.217796 84.0
108.250931 80.0
108.294418 104.0
108.313065 200.0
108.331711 104.0
108.433243 160.0
108.487663 204.0
108.507866 116.0
108.534821 152.0
108.568001 140.0
108.6157 116.0
108.660469 180.0
108.680016 200.0
108.713409 128.0
108.763031 168.0
108.794167 136.0
108.843994 140.0
108.887115 152.0
108.906303 68.0
108.92804 240.0
108.958237 264.0
108.984306 124.0
109.028465 296.0
109.064262 368.0
109.317955 112.0
109.369896 184.0
109.445847 180.0
109.461594 48.0
109.476166 88.0
109.526154 100.0
109.555321 228.0
109.62616 172.0
109.649086 208.0
109.690063 200.0
109.717873 132.0
109.732468 172.0
109.747063 216.0
109.820053 68.0
109.843002 104.0
109.872665 180.0
109.968193 160.0
109.986542 116.0
110.023758 220.0
110.04126 104.0
110.057777 336.0
110.133148 168.0
110.231339 140.0
110.258507 164.0
110.283585 168.0
110.298218 104.0
110.335236 164.0
110.387321 84.0
110.450867 200.0
110.547104 160.0
110.760666 156.0
110.790886 196.0
110.844467 200.0
110.890572 132.0
110.90873 248.0
110.94088 144.0
110.984909 196.0
111.009293 236.0
111.069321 160.0
111.096069 156.0
111.110756 196.0
111.192589 164.0
111.230377 160.0
111.262398 204.0
111.279671 100.0
111.297554 60.0
111.333252 116.0
111.406654 140.0
111.469803 172.0
111.499229 128.0
111.527512 184.0
111.612747 80.0
111.671631 76.0
111.727448 180.0
111.787941 140.0
111.82312 100.0
111.860115 160.0
111.888374 72.0
111.90715 148.0
111.93354 168.0
111.989456 72.0
112.006302 40.0
112.038414 520.0
112.074272 1248.0
112.130615 100.0
112.242348 172.0
112.273155 112.0
112.295074 200.0
112.372864 160.0
112.392113 144.0
112.434319 204.0
112.455429 132.0
112.508202 112.0
112.537071 160.0
112.571541 204.0
112.61145 116.0
112.658981 212.0
112.681381 204.0
112.698288 144.0
112.768021 148.0
112.820869 152.0
112.909676 88.0
112.94352 220.0
113.000015 180.0
113.015396 168.0
113.038834 76.0
113.059891 144.0
113.083633 6504.0
113.130287 108.0
113.148788 40.0
113.184784 152.0
113.202957 172.0
113.241295 208.0
113.263145 68.0
113.279716 136.0
113.31823 308.0
113.333061 92.0
113.376999 136.0
113.466324 128.0
113.532196 136.0
113.555649 88.0
113.668091 184.0
113.695679 72.0
113.716904 136.0
113.742371 72.0
113.7603 188.0
113.782036 228.0
113.835793 140.0
113.864311 168.0
113.893135 172.0
113.914375 124.0
113.937111 236.0
113.975487 152.0
113.982582 116.0
113.987236 164.0
114.018494 72.0
114.03643 152.0
114.063126 120.0
114.091682 18544.0
114.142693 132.0
114.163483 120.0
114.194962 144.0
114.220299 136.0
114.248466 232.0
114.275795 112.0
114.331772 144.0
114.349678 156.0
114.369431 332.0
114.405624 36.0
114.446213 120.0
114.450798 220.0
114.491173 268.0
114.603691 144.0
114.629799 128.0
114.652702 48.0
114.680412 168.0
114.707016 192.0
114.725113 140.0
114.764069 304.0
114.783997 164.0
114.91362 156.0
114.989677 48.0
115.016785 80.0
115.056374 244.0
115.092209 736.0
115.134857 60.0
115.164764 76.0
115.204613 192.0
115.260895 156.0
115.30471 96.0
115.361351 176.0
115.383858 212.0
115.496071 84.0
115.555969 184.0
115.601006 168.0
115.618027 52.0
115.667252 140.0
115.694115 168.0
115.710068 124.0
115.727196 92.0
115.751877 160.0
115.77774 176.0
115.795723 152.0
115.82785 108.0
115.865921 180.0
115.896408 40.0
115.954887 188.0
115.97142 152.0
116.035728 80.0
116.056488 264.0
116.100204 284.0
116.125557 72.0
116.159424 124.0
116.183716 196.0
116.210938 180.0
116.226624 112.0
116.288857 212.0
116.303444 156.0
116.348961 136.0
116.37674 124.0
116.441299 248.0
116.473839 168.0
116.487579 124.0
116.529373 160.0
116.553009 192.0
116.568863 164.0
116.598305 156.0
116.62326 128.0
116.664772 212.0
116.69487 180.0
116.720673 124.0
116.748627 188.0
116.897064 72.0
116.914284 140.0
116.933655 144.0
116.98101 88.0
116.99823 120.0
117.069336 668.0
117.217926 240.0
117.250252 168.0
117.330009 160.0
117.396851 84.0
117.480972 116.0
117.500389 152.0
117.532753 116.0
117.632027 168.0
117.647141 160.0
117.67305 128.0
117.692482 164.0
117.749275 120.0
117.81559 104.0
117.854485 156.0
117.938766 128.0
117.977676 180.0
118.018112 108.0
118.062759 172.0
118.101112 48.0
118.120399 80.0
118.187469 168.0
118.217766 124.0
118.245903 152.0
118.263214 72.0
118.297852 152.0
118.321663 148.0
118.370682 240.0
118.401779 196.0
118.419106 112.0
118.536476 152.0
118.55777 128.0
118.611954 88.0
118.726868 172.0
118.748558 120.0
118.776596 164.0
118.824478 128.0
118.902596 136.0
118.98391 188.0
119.024796 124.0
119.044594 192.0
119.060188 116.0
119.083794 464.0
119.104523 240.0
119.164162 92.0
119.196373 116.0
119.232536 144.0
119.274147 200.0
119.327629 244.0
119.382721 164.0
119.402298 120.0
119.432747 128.0
119.449669 144.0
119.545883 36.0
119.563293 184.0
119.620308 164.0
119.657814 180.0
119.667206 76.0
119.675186 160.0
119.70652 172.0
119.743996 148.0
119.772316 108.0
119.811523 68.0
119.828957 316.0
119.92347 108.0
120.021645 128.0
120.048744 192.0
120.086861 356.0
120.151627 48.0
120.210541 156.0
120.286934 164.0
120.308762 228.0
120.330597 256.0
120.365532 216.0
120.381989 140.0
120.398834 64.0
120.433235 216.0
120.448524 40.0
120.476585 52.0
120.533058 236.0
120.58181 88.0
120.695488 180.0
120.754532 128.0
120.80703 164.0
120.866104 148.0
120.909866 88.0
120.955833 124.0
121.008377 216.0
121.029007 104.0
121.065872 1580.0
121.089706 172.0
121.167305 120.0
121.223427 112.0
121.284401 84.0
121.317284 156.0
121.345787 48.0
121.365517 120.0
121.40007 132.0
121.422539 168.0
121.472984 204.0
121.538803 120.0
121.571716 200.0
121.648544 84.0
121.674889 144.0
121.714409 140.0
121.76931 120.0
121.819832 60.0
121.835205 144.0
121.86377 128.0
121.916504 176.0
121.962662 92.0
121.991241 276.0
122.035736 216.0
122.070389 136.0
122.105583 92.0
122.123177 212.0
122.175972 200.0
122.244179 176.0
122.286491 196.0
122.307945 152.0
122.312866 192.0
122.364143 160.0
122.418144 156.0
122.445641 164.0
122.475349 276.0
122.509735 204.0
122.598923 188.0
122.64061 84.0
122.704041 264.0
122.819214 208.0
122.900841 144.0
122.956009 156.0
122.986145 288.0
123.044449 520.0
123.080925 280.0
123.207733 160.0
123.300545 236.0
123.328125 208.0
123.364647 124.0
123.413284 92.0
123.572594 152.0
123.596878 164.0
123.635201 300.0
123.661049 136.0
123.682373 152.0
123.71418 128.0
123.789177 156.0
123.83783 224.0
123.897995 64.0
123.957817 192.0
124.041534 1136.0
124.074684 276.0
124.097466 108.0
124.126289 88.0
124.166206 92.0
124.198418 176.0
124.305969 132.0
124.383652 136.0
124.399185 124.0
124.465324 152.0
124.532417 32.0
124.553131 160.0
124.587952 148.0
124.716843 72.0
124.732399 116.0
124.781311 64.0
124.836899 200.0
124.873436 252.0
124.892502 92.0
124.910294 136.0
124.933228 156.0
124.963684 76.0
125.011276 120.0
125.043472 424.0
125.083862 184.0
125.103897 128.0
125.141747 132.0
125.192062 168.0
125.197235 100.0
125.204933 160.0
125.2286 228.0
125.259781 152.0
125.32885 188.0
125.374771 176.0
125.404617 136.0
125.438049 116.0
125.460815 152.0
125.504936 176.0
125.529465 160.0
125.56292 64.0
125.596375 192.0
125.632065 104.0
125.661072 128.0
125.76149 316.0
125.777115 56.0
125.797203 176.0
125.839622 200.0
125.868652 100.0
125.906616 324.0
125.976807 132.0
126.000435 188.0
126.025009 92.0
126.056534 320.0
126.087402 300.0
126.115913 136.0
126.168053 200.0
126.256912 184.0
126.340668 108.0
126.364006 224.0
126.387238 208.0
126.447662 40.0
126.499901 236.0
126.573029 136.0
126.620056 188.0
126.695122 168.0
126.71862 48.0
126.750351 124.0
126.902412 136.0
127.014542 184.0
127.05024 140.0
127.086845 1000.0
127.1371 80.0
127.196297 48.0
127.234467 192.0
127.254669 80.0
127.287125 220.0
127.416382 136.0
127.459068 152.0
127.519745 124.0
127.537727 168.0
127.562454 124.0
127.605171 72.0
127.668129 104.0
127.706367 84.0
127.7761 184.0
127.819672 208.0
127.86161 132.0
127.879616 136.0
127.942642 164.0
128.063889 180.0
128.096527 216.0
128.210693 200.0
128.342117 40.0
128.442932 148.0
128.495255 156.0
128.521881 140.0
128.537689 148.0
128.557999 232.0
128.582825 140.0
128.61554 96.0
128.665054 132.0
128.695694 244.0
128.808609 96.0
128.833466 156.0
128.851532 124.0
128.885422 228.0
128.989395 76.0
129.01651 64.0
129.036865 356.0
129.068176 544.0
129.102371 608.0
129.136368 128.0
129.173523 112.0
129.371704 92.0
129.430557 48.0
129.480392 184.0
129.525681 164.0
129.54155 196.0
129.574539 120.0
129.654831 128.0
129.716034 208.0
129.765915 120.0
129.806717 92.0
129.829407 160.0
129.895172 124.0
129.941162 176.0
129.973373 196.0
130.00885 312.0
130.035858 176.0
130.056625 160.0
130.076141 156.0
130.101685 132.0
130.126663 248.0
130.156174 128.0
130.198853 152.0
130.296997 108.0
130.342438 224.0
130.421768 196.0
130.509537 180.0
130.551575 180.0
130.585693 108.0
130.610718 116.0
130.694885 128.0
130.71756 100.0
130.838287 60.0
130.879562 124.0
130.915695 180.0
130.958969 144.0
131.046494 384.0
131.073578 328.0
131.117462 1624.0
131.164047 132.0
131.187225 400.0
131.209641 120.0
131.230164 164.0
131.246124 52.0
131.271194 132.0
131.351822 144.0
131.452423 176.0
131.469666 196.0
131.554123 112.0
131.603516 164.0
131.664474 280.0
131.716263 152.0
131.749115 208.0
131.837906 328.0
131.869354 132.0
131.893188 156.0
131.917358 124.0
131.960785 196.0
132.047165 160.0
132.088501 196.0
132.123169 152.0
132.143768 192.0
132.180374 40.0
132.244461 192.0
132.295975 144.0
132.448242 168.0
132.475189 120.0
132.505508 124.0
132.521545 112.0
132.549042 180.0
132.643021 236.0
132.668228 132.0
132.688385 172.0
132.776001 112.0
132.828751 100.0
132.856277 184.0
132.909058 196.0
132.939362 136.0
132.98938 132.0
133.005447 124.0
133.035416 76.0
133.064941 1044.0
133.099579 52.0
133.138611 120.0
133.202927 112.0
133.220154 136.0
133.290237 80.0
133.319977 148.0
133.400558 144.0
133.435043 108.0
133.494827 192.0
133.527023 128.0
133.554184 224.0
133.660446 176.0
133.676559 176.0
133.736389 88.0
133.777832 72.0
133.80545 156.0
133.821564 176.0
133.888351 76.0
133.975876 88.0
134.062607 44.0
134.137497 120.0
134.215576 92.0
134.238632 60.0
134.294586 128.0
134.317062 148.0
134.34935 160.0
134.364761 124.0
134.380569 180.0
134.396744 208.0
134.425491 156.0
134.442535 156.0
134.483887 308.0
134.499924 164.0
134.54393 188.0
134.566299 120.0
134.603241 180.0
134.644806 164.0
134.704865 108.0
134.73027 188.0
134.748764 60.0
134.794968 156.0
134.903595 184.0
134.933655 208.0
134.996094 176.0
135.014587 144.0
135.044342 436.0
135.080399 1124.0
135.116364 96.0
135.171906 116.0
135.207596 236.0
135.241333 156.0
135.264481 152.0
135.292252 148.0
135.326981 188.0
135.343811 164.0
135.373291 116.0
135.426559 84.0
135.496063 64.0
135.516907 80.0
135.543777 288.0
135.65596 88.0
135.711609 80.0
135.805267 196.0
135.854507 368.0
135.878601 92.0
135.908936 228.0
135.940094 112.0
135.966782 132.0
136.039474 404.0
136.078659 232.0
136.14827 68.0
136.210571 136.0
136.238449 172.0
136.267822 144.0
136.285751 172.0
136.322098 152.0
136.368576 76.0
136.435989 180.0
136.526672 40.0
136.582504 184.0
136.613678 148.0
136.68129 204.0
136.789597 176.0
136.878067 120.0
136.987534 68.0
137.031891 204.0
137.060394 804.0
137.157654 180.0
137.191177 188.0
137.3302 60.0
137.348862 140.0
137.372177 132.0
137.404846 148.0
137.421173 228.0
137.449173 164.0
137.493515 144.0
137.554199 68.0
137.57988 88.0
137.649918 148.0
137.66861 124.0
137.70726 184.0
137.757935 160.0
137.799423 152.0
137.846146 116.0
138.064148 584.0
138.097198 228.0
138.122025 36.0
138.147766 300.0
138.222641 128.0
138.280075 140.0
138.365417 112.0
138.482498 128.0
138.50592 132.0
138.536377 180.0
138.577606 184.0
138.651184 196.0
138.674622 128.0
138.740265 180.0
138.859848 148.0
138.935471 216.0
139.050674 144.0
139.078293 108.0
139.108505 136.0
139.12291 148.0
139.143784 68.0
139.30365 116.0
139.361084 108.0
139.404083 172.0
139.505585 136.0
139.606689 96.0
139.653732 68.0
139.719589 164.0
139.743118 196.0
139.804306 56.0
139.863144 192.0
139.912582 124.0
140.040878 204.0
140.065552 196.0
140.106827 220.0
140.126892 124.0
140.172821 156.0
140.238251 208.0
140.315445 144.0
140.331955 208.0
140.426285 184.0
140.449875 88.0
140.490875 192.0
140.50885 164.0
140.527725 120.0
140.551315 124.0
140.609741 188.0
140.655151 180.0
140.695282 92.0
140.735428 152.0
140.761398 160.0
140.825165 176.0
140.884216 188.0
140.910202 180.0
140.959824 172.0
141.047272 140.0
141.068893 340.0
141.101303 1792.0
141.128754 156.0
141.160767 104.0
141.193863 216.0
141.222244 196.0
141.251282 160.0
141.295578 156.0
141.32634 152.0
141.368942 156.0
141.444672 148.0
141.466827 348.0
141.49675 108.0
141.567795 236.0
141.598572 180.0
141.628372 132.0
141.669647 76.0
141.722153 148.0
141.750198 200.0
141.783371 116.0
141.833145 140.0
141.890259 132.0
141.982529 132.0
142.010986 104.0
142.046021 168.0
142.064804 192.0
142.09343 180.0
142.122482 44.0
142.357483 188.0
142.50946 164.0
142.564163 100.0
142.597443 80.0
142.614075 136.0
142.642593 176.0
142.674301 64.0
142.718674 112.0
142.742462 84.0
142.766235 112.0
142.816177 160.0
142.854248 152.0
142.904205 176.0
143.00415 196.0
143.04364 172.0
143.0634 296.0
143.073029 264.0
143.117172 636.0
143.139603 156.0
143.144043 220.0
143.155746 136.0
143.232742 156.0
143.267715 176.0
143.295166 212.0
143.310562 132.0
143.361389 208.0
143.39238 168.0
143.487732 196.0
143.515167 220.0
143.592651 160.0
143.652756 220.0
143.685074 156.0
143.766815 144.0
143.807388 148.0
143.917206 140.0
143.98407 156.0
144.017502 176.0
144.053329 144.0
144.081009 284.0
144.12262 176.0
144.154999 152.0
144.175186 128.0
144.257584 140.0
144.330566 196.0
144.421448 152.0
144.569794 144.0
144.63681 300.0
144.77327 208.0
144.813995 180.0
144.854706 160.0
144.904526 204.0
145.029266 52.0
145.064331 380.0
145.095963 156.0
145.12793 240.0
145.149506 124.0
145.204666 104.0
145.270432 180.0
145.286224 172.0
145.307816 172.0
145.325882 128.0
145.343811 48.0
145.370193 144.0
145.386993 160.0
145.4422 144.0
145.487808 180.0
145.510818 192.0
145.619888 68.0
145.689545 48.0
145.708755 116.0
145.730392 132.0
145.768829 184.0
145.797668 128.0
145.917862 112.0
145.939499 200.0
145.956329 232.0
145.977966 200.0
145.997208 140.0
146.062347 304.0
146.069901 152.0
146.079071 232.0
146.096146 164.0
146.17215 264.0
146.223358 124.0
146.242615 212.0
146.270233 200.0
146.315781 152.0
146.406326 144.0
146.43042 64.0
146.516586 156.0
146.555679 212.0
146.625565 64.0
146.673782 112.0
146.759293 152.0
146.794327 76.0
146.828094 168.0
146.892838 180.0
146.943253 108.0
146.965302 164.0
146.968643 224.0
147.004196 164.0
147.044861 676.0
147.079697 2556.0
147.18042 148.0
147.197311 152.0
147.248032 148.0
147.281845 160.0
147.317215 212.0
147.349487 108.0
147.393845 180.0
147.467896 136.0
147.521072 120.0
147.537994 96.0
147.581512 164.0
147.631592 176.0
147.654068 132.0
147.731476 216.0
147.762924 108.0
147.808899 72.0
147.87088 204.0
147.915375 136.0
147.968643 56.0
147.992859 44.0
148.047852 284.0
148.082687 264.0
148.111526 128.0
148.140594 112.0
148.176926 188.0
148.247192 72.0
148.283554 172.0
148.419312 120.0
148.436279 144.0
148.475082 108.0
148.499344 100.0
148.537933 132.0
148.727417 164.0
148.754425 144.0
148.802673 144.0
148.863235 144.0
148.914383 172.0
148.940842 192.0
148.976181 168.0
149.037018 308.0
149.06012 1040.0
149.093674 176.0
149.158554 148.0
149.17627 144.0
149.203552 100.0
149.247192 184.0
149.2686 164.0
149.340393 220.0
149.424866 276.0
149.461365 116.0
149.499084 192.0
149.707169 164.0
149.770554 168.0
149.836334 52.0
149.874329 176.0
149.905655 232.0
149.950851 92.0
150.004486 144.0
150.057465 148.0
150.093765 348.0
150.187363 164.0
150.210449 156.0
150.270309 168.0
150.365387 220.0
150.414291 176.0
150.551025 76.0
150.665833 152.0
150.733002 116.0
150.844223 124.0
150.901001 160.0
151.008057 160.0
151.047638 128.0
151.074753 296.0
151.132812 200.0
151.15239 160.0
151.247833 148.0
151.264969 136.0
151.32373 40.0
151.345764 48.0
151.375824 192.0
151.397186 144.0
151.416367 192.0
151.485367 176.0
151.605423 116.0
151.632385 160.0
151.696121 276.0
151.727142 188.0
151.733612 176.0
151.77948 128.0
151.80809 156.0
151.822098 84.0
151.829865 80.0
151.867767 68.0
151.925049 124.0
151.979172 280.0
152.007599 188.0
152.035217 416.0
152.06987 332.0
152.095963 128.0
152.114716 144.0
152.179428 112.0
152.260468 92.0
152.316956 180.0
152.375916 172.0
152.412766 148.0
152.449631 144.0
152.466202 140.0
152.52948 164.0
152.552856 112.0
152.59465 180.0
152.628265 96.0
152.693573 124.0
152.792084 204.0
152.880127 156.0
152.916916 112.0
152.946442 120.0
152.972473 216.0
153.035812 296.0
153.097549 304.0
153.148361 116.0
153.179184 156.0
153.239502 164.0
153.318359 176.0
153.392303 196.0
153.453934 184.0
153.47612 72.0
153.493393 76.0
153.564911 120.0
153.656387 144.0
153.722794 240.0
153.811646 196.0
153.843735 88.0
153.905472 156.0
153.957321 124.0
153.996841 136.0
154.018677 124.0
154.043732 140.0
154.077255 116.0
154.0867 64.0
154.106476 116.0
154.163284 184.0
154.196976 76.0
154.223282 272.0
154.312225 180.0
154.34877 168.0
154.388428 228.0
154.488754 136.0
154.535202 124.0
154.570984 168.0
154.637222 200.0
154.657013 152.0
154.689194 72.0
154.751083 188.0
154.803085 236.0
154.849976 116.0
154.872437 140.0
154.934372 124.0
155.013657 128.0
155.033478 96.0
155.079865 164.0
155.121887 192.0
155.204117 172.0
155.286362 116.0
155.312637 148.0
155.365738 172.0
155.407913 232.0
155.437698 168.0
155.469955 116.0
155.556824 148.0
155.576691 48.0
155.636276 240.0
155.663589 180.0
155.714172 120.0
155.748032 152.0
155.780319 172.0
155.797546 120.0
155.825119 140.0
155.85968 136.0
155.907043 136.0
155.981613 212.0
156.003983 180.0
156.047897 132.0
156.082123 148.0
156.12085 96.0
156.140732 204.0
156.225311 172.0
156.280045 172.0
156.297455 120.0
156.33728 144.0
156.373703 296.0
156.399506 216.0
156.451782 48.0
156.49823 164.0
156.548431 88.0
156.602661 144.0
156.621109 136.0
156.65683 304.0
156.713928 188.0
156.780563 96.0
156.806793 252.0
156.832901 160.0
156.850357 172.0
156.940109 136.0
156.960052 140.0
156.984985 260.0
157.002441 196.0
157.064331 788.0
157.104233 280.0
157.16156 220.0
157.212006 92.0
157.229477 124.0
157.27359 156.0
157.320404 316.0
157.376755 120.0
157.396729 172.0
157.426697 300.0
157.474609 108.0
157.496628 96.0
157.529099 192.0
157.554092 116.0
157.599609 200.0
157.626373 180.0
157.759018 184.0
157.77652 152.0
157.809021 196.0
157.841522 156.0
157.876526 176.0
157.922852 392.0
157.95665 176.0
157.98909 100.0
158.021606 136.0
158.065781 268.0
158.086273 148.0
158.105789 200.0
158.156754 96.0
158.209061 152.0
158.279419 164.0
158.321991 172.0
158.359558 212.0
158.414673 148.0
158.43721 100.0
158.467285 148.0
158.549973 152.0
158.680328 144.0
158.710831 100.0
158.734436 220.0
158.778122 208.0
158.798187 56.0
158.871353 168.0
158.943695 116.0
158.992905 196.0
159.080826 696.0
159.118332 340.0
159.1922 144.0
159.217316 76.0
159.237411 124.0
159.26001 116.0
159.282623 60.0
159.351715 176.0
159.49118 128.0
159.6194 144.0
159.70491 108.0
159.765289 56.0
159.820633 128.0
159.875992 120.0
159.918777 172.0
159.954025 204.0
159.976685 132.0
160.001846 156.0
160.048782 332.0
160.079666 948.0
160.15799 140.0
160.200806 160.0
160.241119 96.0
160.339813 120.0
160.364716 116.0
160.45787 180.0
160.578903 148.0
160.658066 204.0
160.722702 144.0
160.752991 252.0
160.813553 96.0
160.836273 80.0
160.856461 132.0
160.957336 80.0
160.977661 100.0
161.000381 248.0
161.02977 228.0
161.059891 4708.0
161.124161 204.0
161.253479 180.0
161.280838 128.0
161.311172 128.0
161.359207 264.0
161.407242 116.0
161.470459 112.0
161.551407 132.0
161.664825 136.0
161.694626 144.0
161.746262 88.0
162.015686 124.0
162.064377 804.0
162.090439 248.0
162.15152 116.0
162.172653 132.0
162.293594 184.0
162.344208 236.0
162.514999 304.0
162.582672 152.0
162.61821 160.0
162.691818 212.0
162.728638 88.0
162.82132 168.0
162.872116 180.0
162.905136 60.0
163.00032 140.0
163.036362 760.0
163.075256 1184.0
163.120605 120.0
163.147217 204.0
163.169083 112.0
163.222839 172.0
163.257935 220.0
163.345703 248.0
163.380402 156.0
163.403427 152.0
163.428879 44.0
163.48291 120.0
163.520493 156.0
163.554672 84.0
163.640137 276.0
163.665588 212.0
163.700317 144.0
163.775574 192.0
163.800568 112.0
163.827179 108.0
163.922867 44.0
163.955994 28.0
163.973831 164.0
164.033188 148.0
164.070816 1060.0
164.10376 372.0
164.14209 116.0
164.1931 116.0
164.226257 144.0
164.256866 132.0
164.307892 124.0
164.349777 96.0
164.402359 164.0
164.440918 60.0
164.473755 60.0
164.513458 108.0
164.552902 244.0
164.583542 84.0
164.629501 144.0
164.702576 196.0
164.772552 164.0
164.861984 172.0
164.902664 96.0
164.923325 148.0
164.956543 248.0
164.977005 216.0
165.017899 196.0
165.060867 348.0
165.071686 528.0
165.111832 136.0
165.148041 36.0
165.252716 144.0
165.337662 152.0
165.42865 160.0
165.457962 184.0
165.489548 160.0
165.530701 128.0
165.606354 148.0
165.641449 148.0
165.7397 96.0
165.777084 164.0
165.82428 164.0
165.860153 220.0
165.919205 112.0
166.001175 184.0
166.054306 496.0
166.0858 216.0
166.116196 208.0
166.142242 188.0
166.171646 168.0
166.214081 56.0
166.244873 88.0
166.29364 156.0
166.321869 144.0
166.359741 192.0
166.430801 140.0
166.531296 128.0
166.558105 148.0
166.578659 112.0
166.604355 140.0
166.681427 184.0
166.727692 116.0
166.773956 128.0
166.799652 116.0
166.852814 128.0
166.886261 180.0
166.956497 40.0
167.064529 164.0
167.084274 160.0
167.177734 108.0
167.218918 176.0
167.242081 152.0
167.301956 140.0
167.399124 80.0
167.570236 116.0
167.741806 152.0
167.788208 48.0
167.829453 116.0
167.847504 180.0
167.924881 128.0
167.958405 104.0
167.976456 88.0
167.994522 136.0
168.033722 148.0
168.061234 128.0
168.069519 164.0
168.111618 140.0
168.229355 144.0
168.255173 188.0
168.348129 404.0
168.384293 112.0
168.46048 136.0
168.482452 168.0
168.554794 244.0
168.589462 164.0
168.608612 160.0
168.640076 220.0
168.796066 200.0
168.821045 132.0
168.872772 168.0
168.923553 108.0
168.959885 172.0
169.004715 112.0
169.056046 196.0
169.09758 584.0
169.141876 128.0
169.196915 124.0
169.245438 176.0
169.358871 120.0
169.376099 176.0
169.450058 220.0
169.476517 188.0
169.615906 168.0
169.714432 56.0
169.750732 124.0
169.838669 220.0
169.883011 164.0
169.986786 164.0
170.05687 188.0
170.093201 156.0
170.139923 176.0
170.170654 72.0
170.290543 200.0
170.373672 344.0
170.404221 168.0
170.430359 160.0
170.4646 48.0
170.524384 176.0
170.542572 208.0
170.569138 200.0
170.607559 44.0
170.656952 204.0
170.738907 160.0
170.775146 152.0
170.794785 132.0
170.849426 164.0
170.878036 172.0
170.982895 108.0
170.990311 120.0
171.042953 280.0
171.074539 368.0
171.113205 43380.0
171.175674 176.0
171.197556 192.0
171.21904 100.0
171.302277 176.0
171.340103 188.0
171.372742 128.0
171.416397 128.0
171.474365 96.0
171.52002 348.0
171.540131 68.0
171.579376 100.0
171.609924 120.0
171.630783 136.0
171.675766 144.0
171.722061 48.0
171.740311 132.0
171.766403 116.0
171.822418 244.0
171.861832 200.0
171.911636 88.0
171.941208 132.0
172.059708 132.0
172.07785 164.0
172.119537 9832.0
172.173401 104.0
172.211441 64.0
172.234543 128.0
172.293915 124.0
172.339157 144.0
172.366882 56.0
172.389297 104.0
172.438431 148.0
172.476105 192.0
172.539398 96.0
172.562927 56.0
172.600998 64.0
172.619659 40.0
172.637146 104.0
172.717224 64.0
172.766922 76.0
172.848038 84.0
172.889114 176.0
172.959473 148.0
172.978897 68.0
173.002457 56.0
173.058884 1032.0
173.089157 168.0
173.121628 1448.0
173.170044 100.0
173.193619 104.0
173.214569 48.0
173.267273 332.0
173.286606 176.0
173.360077 224.0
173.37793 240.0
173.419937 128.0
173.448624 336.0
173.489258 132.0
173.512619 216.0
173.555878 120.0
173.584122 68.0
173.628296 180.0
173.700729 148.0
173.780853 76.0
173.849686 120.0
173.896317 152.0
173.938309 100.0
173.992523 176.0
174.024948 184.0
174.068253 288.0
174.090652 640.0
174.110123 176.0
174.118362 104.0
174.203537 164.0
174.221573 60.0
174.292862 96.0
174.366165 188.0
174.372574 108.0
174.385208 116.0
174.476852 224.0
174.495255 188.0
174.513184 112.0
174.574127 284.0
174.658295 112.0
174.689865 40.0
174.719604 92.0
174.750366 104.0
174.784714 164.0
174.821426 172.0
174.842468 48.0
174.896744 136.0
174.961639 96.0
175.041946 832.0
175.076065 6296.0
175.114655 144.0
175.224289 176.0
175.245377 100.0
175.282257 132.0
175.316513 368.0
175.337601 88.0
175.389175 212.0
175.456223 184.0
175.501038 164.0
175.599579 132.0
175.640823 156.0
175.680389 148.0
175.706772 120.0
175.754257 180.0
175.786819 176.0
175.822876 132.0
175.843979 128.0
175.894135 184.0
175.963379 244.0
176.012939 180.0
176.041504 316.0
176.077347 1088.0
176.108398 312.0
176.140503 188.0
176.192551 40.0
176.213684 28.0
176.268097 216.0
176.308807 176.0
176.35022 96.0
176.374893 176.0
176.411896 56.0
176.464767 128.0
176.493851 212.0
176.546738 204.0
176.596497 280.0
176.686935 76.0
176.780472 252.0
176.809464 196.0
176.841873 112.0
176.877472 116.0
176.895996 40.0
177.019043 220.0
177.055298 1356.0
177.083817 480.0
177.134338 116.0
177.152878 156.0
177.171417 96.0
177.227051 180.0
177.340408 176.0
177.363495 128.0
177.382004 164.0
177.436447 140.0
177.470917 44.0
177.554474 164.0
177.584946 152.0
177.61412 176.0
177.65477 148.0
177.709625 148.0
177.754105 168.0
177.813126 184.0
177.839661 136.0
177.887436 128.0
177.908203 132.0
177.937241 144.0
177.993637 104.0
178.017548 52.0
178.053696 1032.0
178.082809 612.0
178.15831 88.0
178.202301 176.0
178.222076 92.0
178.283203 44.0
178.339844 140.0
178.392014 204.0
178.426743 192.0
178.450668 116.0
178.474594 108.0
178.5065 116.0
178.559692 304.0
178.576904 176.0
178.855026 88.0
178.902954 300.0
179.034088 216.0
179.069427 796.0
179.110657 108.0
179.145294 44.0
179.182953 148.0
179.231995 140.0
179.261017 192.0
179.310486 160.0
179.341843 84.0
179.369125 156.0
179.390457 116.0
179.609116 184.0
179.656738 112.0
179.683823 132.0
179.726501 44.0
179.753189 44.0
179.803894 156.0
179.857269 188.0
180.021347 208.0
180.061874 580.0
180.103699 572.0
180.169724 40.0
180.249878 160.0
180.279266 44.0
180.334274 268.0
180.407562 100.0
180.498474 116.0
180.566193 260.0
180.591599 112.0
180.644196 140.0
180.697693 184.0
180.728516 192.0
180.787384 180.0
180.917038 128.0
180.969406 168.0
181.014923 156.0
181.059601 176.0
181.100311 340.0
181.131424 72.0
181.175629 144.0
181.331055 108.0
181.403748 132.0
181.548203 172.0
181.5811 136.0
181.61795 128.0
181.719879 104.0
181.754761 272.0
181.787537 112.0
181.827713 176.0
181.872849 296.0
181.897003 144.0
181.940033 152.0
182.085526 116.0
182.106445 144.0
182.138687 144.0
182.195755 148.0
182.26001 200.0
182.304214 112.0
182.350952 104.0
182.447723 148.0
182.502289 228.0
182.528381 120.0
182.555267 164.0
182.616882 216.0
182.667206 208.0
182.695145 184.0
182.742035 176.0
182.837753 152.0
182.886826 136.0
182.913116 64.0
182.964264 52.0
183.006836 148.0
183.043427 160.0
183.07196 132.0
183.11792 132.0
183.141708 156.0
183.196426 172.0
183.295547 152.0
183.338669 124.0
183.441101 96.0
183.47879 224.0
183.521973 84.0
183.559723 112.0
183.590622 244.0
183.661713 240.0
183.801788 212.0
183.832184 176.0
183.94014 184.0
183.968689 184.0
184.026535 160.0
184.082367 160.0
184.123749 132.0
184.179474 260.0
184.266922 104.0
184.458786 288.0
184.645218 152.0
184.666992 108.0
184.775208 92.0
184.878021 156.0
184.970047 180.0
185.021484 164.0
185.058823 1964.0
185.108017 220.0
185.117706 216.0
185.195847 216.0
185.27446 224.0
185.346512 84.0
185.368179 128.0
185.392578 132.0
185.452194 200.0
185.484726 220.0
185.530807 144.0
185.682938 120.0
185.772171 128.0
185.829147 132.0
185.850845 92.0
185.910553 144.0
186.005554 184.0
186.022751 180.0
186.059753 288.0
186.090591 332.0
186.152161 288.0
186.260803 120.0
186.388489 192.0
186.423813 144.0
186.494476 144.0
186.543411 136.0
186.590515 184.0
186.763672 168.0
186.788147 160.0
186.80719 52.0
186.895416 140.0
186.945953 224.0
186.997665 136.0
187.01944 144.0
187.040176 136.0
187.074722 1052.0
187.104385 156.0
187.148102 148.0
187.17598 136.0
187.222595 180.0
187.245422 232.0
187.289001 92.0
187.316238 124.0
187.337173 332.0
187.357101 144.0
187.479721 48.0
187.517578 108.0
187.643265 132.0
187.675995 140.0
187.730286 172.0
187.763245 148.0
187.785065 116.0
187.88327 128.0
187.913284 184.0
187.954208 200.0
187.98912 156.0
188.0401 76.0
188.073547 724.0
188.103546 168.0
188.172577 116.0
188.257217 172.0
188.295456 136.0
188.334518 172.0
188.412918 180.0
188.4478 140.0
188.471588 168.0
188.503082 68.0
188.527679 148.0
188.653412 240.0
188.715118 168.0
188.7659 168.0
188.803787 92.0
188.90773 140.0
188.940552 112.0
188.986893 124.0
189.055328 8104.0
189.137589 112.0
189.200546 32.0
189.262817 200.0
189.318298 228.0
189.386765 224.0
189.49086 112.0
189.611435 208.0
189.630615 96.0
189.712021 156.0
189.740265 152.0
189.878311 152.0
189.93634 112.0
190.000809 92.0
190.061768 3716.0
190.124908 152.0
190.170898 212.0
190.220352 96.0
190.247803 120.0
190.267029 140.0
190.310959 144.0
190.33017 180.0
190.352142 76.0
190.370468 132.0
190.398727 208.0
190.503204 172.0
190.538925 68.0
190.58461 76.0
190.654327 124.0
190.716461 132.0
190.805511 64.0
190.838501 120.0
190.882492 96.0
190.920349 168.0
190.956757 120.0
190.984253 112.0
191.031738 444.0
191.069992 5796.0
191.143829 100.0
191.163086 92.0
191.255554 144.0
191.280624 136.0
191.306213 132.0
191.386047 92.0
191.43837 96.0
191.488251 144.0
191.513428 48.0
191.549759 164.0
191.663696 156.0
191.727646 44.0
191.807571 92.0
191.901306 52.0
191.959213 124.0
192.028748 332.0
192.072311 584.0
192.100021 1292.0
192.138214 120.0
192.216812 64.0
192.246109 176.0
192.266418 212.0
192.287506 188.0
192.339951 80.0
192.370316 76.0
192.389633 164.0
192.447617 124.0
192.47406 132.0
192.509491 128.0
192.552551 172.0
192.58017 52.0
192.602264 116.0
192.631592 196.0
192.742447 124.0
192.815018 100.0
192.86731 148.0
193.00853 196.0
193.027893 124.0
193.051544 296.0
193.079941 112.0
193.106995 488.0
193.163406 88.0
193.240875 124.0
193.283722 148.0
193.393082 124.0
193.417984 148.0
193.441772 168.0
193.484421 120.0
193.514877 160.0
193.584106 60.0
193.61734 140.0
193.636719 196.0
193.667191 144.0
193.822342 48.0
193.841736 76.0
193.905472 164.0
193.948227 244.0
194.002838 156.0
194.043488 260.0
194.084915 132.0
194.11972 348.0
194.146667 248.0
194.237976 196.0
194.262512 204.0
194.315872 172.0
194.335297 320.0
194.410217 196.0
194.434509 160.0
194.496262 140.0
194.721161 112.0
194.779495 88.0
194.81839 196.0
194.898956 152.0
194.98233 108.0
195.063522 164.0
195.077652 108.0
195.10463 120.0
195.164734 84.0
195.215851 112.0
195.307632 160.0
195.341019 136.0
195.360489 96.0
195.403473 124.0
195.45787 208.0
195.480133 116.0
195.539139 136.0
195.623306 180.0
195.701691 60.0
195.789139 120.0
195.847626 164.0
195.966934 184.0
196.007233 288.0
196.050079 144.0
196.120697 176.0
196.173645 132.0
196.243347 88.0
196.335373 144.0
196.488785 156.0
196.545166 156.0
196.609848 188.0
196.713089 224.0
196.777573 144.0
196.837692 72.0
196.860031 148.0
196.887878 140.0
196.968948 124.0
197.022034 80.0
197.06073 176.0
197.074417 128.0
197.082291 296.0
197.120026 168.0
197.19249 180.0
197.228821 160.0
197.26561 148.0
197.34903 40.0
197.519638 80.0
197.597061 148.0
197.690308 104.0
197.883438 176.0
197.908646 196.0
197.960449 112.0
197.977463 132.0
198.000198 156.0
198.05658 136.0
198.091049 188.0
198.138306 40.0
198.295227 180.0
198.315598 180.0
198.345505 124.0
198.379318 148.0
198.407333 212.0
198.42511 156.0
198.502686 200.0
198.606461 160.0
198.732697 44.0
198.75795 176.0
198.805664 204.0
198.937576 128.0
198.993729 56.0
199.021805 160.0
199.041458 88.0
199.074921 504.0
199.116455 312.0
199.190781 172.0
199.264709 184.0
199.294266 200.0
199.351868 148.0
199.451645 88.0
199.583786 160.0
199.642838 180.0
199.917755 144.0
200.076096 148.0
200.10788 388.0
200.17189 160.0
200.32962 136.0
200.391602 108.0
200.422592 32.0
200.45285 124.0
200.580414 84.0
200.626175 208.0
200.684723 352.0
200.712921 184.0
200.752396 152.0
200.789062 120.0
200.851379 124.0
200.913177 116.0
200.969604 188.0
201.026031 184.0
201.053741 552.0
201.085922 236.0
201.119492 144.0
201.234924 136.0
201.263153 76.0
201.301102 144.0
201.341095 224.0
201.364822 224.0
201.440323 180.0
201.534454 164.0
201.640259 268.0
201.683472 144.0
201.715195 84.0
201.734985 88.0
201.760422 92.0
201.794342 208.0
201.842422 136.0
201.87352 52.0
201.98616 188.0
202.025391 52.0
202.056473 236.0
202.086212 1836.0
202.124252 88.0
202.150757 104.0
202.197266 120.0
202.25264 108.0
202.280533 136.0
202.369904 172.0
202.389603 116.0
202.431015 144.0
202.468994 120.0
202.518799 36.0
202.575974 152.0
202.646286 196.0
202.697281 148.0
202.732285 276.0
202.753967 180.0
202.804977 140.0
202.842438 168.0
202.875854 108.0
202.915543 164.0
202.938217 56.0
202.960907 128.0
202.988831 104.0
203.03302 832.0
203.071045 38856.0
203.145264 36.0
203.17363 32.0
203.208511 108.0
203.228165 160.0
203.246185 84.0
203.277557 76.0
203.305649 88.0
203.353897 148.0
203.368958 72.0
203.379364 72.0
203.439743 132.0
203.477295 56.0
203.507141 164.0
203.542816 432.0
203.565323 136.0
203.63916 52.0
203.666702 184.0
203.707336 44.0
203.773666 260.0
203.805237 192.0
203.872665 64.0
203.894867 64.0
203.920441 136.0
203.948868 176.0
204.013046 124.0
204.074265 6880.0
204.107788 1788.0
204.181625 172.0
204.244171 184.0
204.274017 196.0
204.33194 108.0
204.378784 116.0
204.402359 88.0
204.450287 108.0
204.486435 72.0
204.579239 60.0
204.623077 196.0
204.648697 32.0
204.732834 200.0
204.744034 160.0
204.796783 60.0
204.81958 76.0
204.862457 156.0
204.887939 48.0
204.910736 148.0
204.933533 44.0
204.956329 68.0
205.003265 136.0
205.051544 860.0
205.085464 756.0
205.181488 152.0
205.26503 80.0
205.344345 176.0
205.366852 132.0
205.420135 172.0
205.444107 96.0
205.479431 156.0
205.49913 140.0
205.544846 144.0
205.570541 244.0
205.636658 192.0
205.675018 48.0
205.703552 92.0
205.746902 44.0
205.854828 116.0
205.915863 124.0
205.976746 104.0
206.015091 172.0
206.045364 584.0
206.080673 4292.0
206.118134 308.0
206.166275 140.0
206.200562 76.0
206.234085 44.0
206.25531 104.0
206.275925 348.0
206.349213 176.0
206.377991 60.0
206.437241 56.0
206.471786 152.0
206.557983 52.0
206.578003 28.0
206.599747 96.0
206.64505 116.0
206.74472 300.0
206.784027 156.0
206.891937 104.0
206.927155 68.0
206.947189 128.0
207.082962 944.0
207.134232 352.0
207.151245 144.0
207.170593 172.0
207.204971 76.0
207.253677 104.0
207.354584 208.0
207.375763 192.0
207.448563 68.0
207.50444 168.0
207.603394 144.0
207.648804 144.0
207.701645 164.0
207.746811 208.0
207.875916 180.0
208.002213 204.0
208.042389 68.0
208.084778 320.0
208.167511 132.0
208.191711 124.0
208.262665 96.0
208.282791 140.0
208.364044 152.0
208.441635 136.0
208.467499 144.0
208.507523 56.0
208.555252 148.0
208.608261 324.0
208.772217 208.0
208.798096 96.0
208.834412 192.0
208.889191 180.0
208.897247 120.0
208.966354 124.0
209.005234 64.0
209.077164 156.0
209.097321 100.0
209.137604 80.0
209.180191 116.0
209.190628 200.0
209.347214 100.0
209.514847 48.0
209.549423 152.0
209.615692 76.0
209.638748 112.0
209.664673 128.0
209.771332 164.0
209.818985 120.0
209.852051 176.0
210.0923 160.0
210.198181 164.0
210.255905 52.0
210.307846 168.0
210.377136 224.0
210.400452 152.0
210.501282 152.0
210.579941 204.0
210.657257 88.0
210.692978 228.0
210.730682 216.0
210.802948 160.0
210.876862 140.0
210.937683 180.0
211.087906 96.0
211.113922 188.0
211.200699 52.0
211.235413 176.0
211.261444 100.0
211.333771 108.0
211.372955 272.0
211.40947 76.0
211.597153 84.0
211.692703 76.0
211.739044 140.0
211.817245 164.0
211.845795 164.0
211.912857 108.0
211.946106 168.0
212.07196 736.0
212.116501 336.0
212.159058 80.0
212.191086 176.0
212.27121 160.0
212.39119 72.0
212.457916 168.0
212.510132 152.0
212.644043 116.0
212.678452 164.0
212.774246 144.0
212.820709 148.0
212.918945 164.0
213.053635 1764.0
213.187057 168.0
213.215775 204.0
213.244843 84.0
213.265182 240.0
213.320419 140.0
213.358246 184.0
213.395996 216.0
213.44252 156.0
213.468689 132.0
213.508301 116.0
213.573395 140.0
213.759598 92.0
213.782181 184.0
213.801514 148.0
213.880173 156.0
213.940048 160.0
214.00119 128.0
214.053833 472.0
214.088486 684.0
214.168579 176.0
214.199234 188.0
214.244751 140.0
214.283707 100.0
214.409012 148.0
214.502289 144.0
214.568054 164.0
214.585068 152.0
214.621811 144.0
214.662643 184.0
214.685974 88.0
214.725128 204.0
214.753052 128.0
214.843185 276.0
214.893082 120.0
214.936844 136.0
214.98645 96.0
215.024399 172.0
215.071136 1728.0
215.103516 340.0
215.170349 92.0
215.214142 72.0
215.24826 152.0
215.253906 104.0
215.291916 328.0
215.43721 204.0
215.619568 148.0
215.64357 64.0
215.802963 168.0
215.854065 172.0
215.956421 252.0
215.976898 156.0
216.018723 132.0
216.067612 764.0
216.105133 312.0
216.149521 160.0
216.169998 144.0
216.199265 224.0
216.222672 228.0
216.243164 44.0
216.387741 144.0
216.442703 148.0
216.500809 88.0
216.664825 136.0
216.736496 208.0
216.796692 192.0
216.840652 320.0
216.888397 176.0
216.919937 156.0
216.970428 88.0
217.001877 144.0
217.050125 7868.0
217.086395 892.0
217.123871 416.0
217.186783 172.0
217.21991 128.0
217.240341 116.0
217.315811 128.0
217.350922 100.0
217.428329 192.0
217.462448 32.0
217.525162 196.0
217.600418 48.0
217.676758 184.0
217.703186 124.0
217.726685 116.0
217.753113 188.0
217.81311 188.0
217.870605 96.0
217.904617 184.0
217.949936 88.0
218.023407 160.0
218.056274 2296.0
218.117142 236.0
218.168991 208.0
218.206284 184.0
218.284698 172.0
218.349731 184.0
218.390915 100.0
218.432098 112.0
218.478836 180.0
218.499298 204.0
218.571289 180.0
218.581436 100.0
218.589508 200.0
218.688095 96.0
218.741074 52.0
218.776398 136.0
218.832336 184.0
218.874344 164.0
218.922974 180.0
218.947189 104.0
218.974899 320.0
218.997833 244.0
219.066681 37024.0
219.137451 432.0
219.196655 176.0
219.228836 124.0
219.257019 112.0
219.319321 144.0
219.355438 100.0
219.391922 60.0
219.408325 112.0
219.433258 88.0
219.45697 140.0
219.477615 36.0
219.509567 144.0
219.547104 64.0
219.576935 212.0
219.60083 344.0
219.715424 140.0
219.763382 240.0
219.795197 132.0
219.87587 116.0
219.943756 144.0
219.964417 60.0
220.011642 52.0
220.034241 196.0
220.069046 3244.0
220.147476 248.0
220.166153 116.0
220.214813 224.0
220.256744 108.0
220.283554 56.0
220.377869 44.0
220.39856 76.0
220.501984 56.0
220.643875 88.0
220.677094 132.0
220.756241 88.0
220.785812 80.0
220.894348 120.0
220.918915 144.0
220.963287 40.0
220.986969 76.0
221.031982 148.0
221.072174 1224.0
221.195557 140.0
221.223328 152.0
221.249908 52.0
221.261322 172.0
221.349426 88.0
221.374725 148.0
221.409286 96.0
221.420639 64.0
221.478912 184.0
221.516891 140.0
221.551712 80.0
221.561539 60.0
221.604492 212.0
221.639359 64.0
221.713379 144.0
221.817917 240.0
221.860657 160.0
222.017807 328.0
222.04451 56.0
222.076584 216.0
222.111603 1684.0
222.21376 204.0
222.306992 168.0
222.361511 172.0
222.43486 300.0
222.507416 64.0
222.58461 108.0
222.644012 124.0
222.695633 136.0
222.733109 96.0
222.795502 144.0
222.83493 88.0
222.875717 144.0
223.033188 152.0
223.112381 300.0
223.137268 256.0
223.202682 76.0
223.253235 76.0
223.312729 36.0
223.34758 132.0
223.428741 192.0
223.523941 216.0
223.604568 176.0
223.690521 128.0
223.896072 128.0
223.952652 168.0
223.990479 132.0
224.044998 252.0
224.088943 136.0
224.129974 300.0
224.195206 156.0
224.4086 124.0
224.562973 152.0
224.576096 176.0
224.623337 132.0
224.67598 288.0
224.700897 104.0
224.745651 136.0
224.820251 128.0
224.868011 152.0
224.903824 156.0
224.961563 140.0
224.985855 92.0
225.008301 32.0
225.047119 28.0
225.070999 156.0
225.268478 168.0
225.318909 144.0
225.339828 148.0
225.372696 84.0
225.628372 148.0
225.83606 184.0
225.907852 112.0
225.949738 92.0
226.003601 156.0
226.038895 372.0
226.087936 196.0
226.174179 160.0
226.219788 136.0
226.266983 192.0
226.347824 216.0
226.609802 176.0
226.72229 136.0
226.743271 140.0
226.824188 116.0
226.9561 60.0
226.985962 180.0
227.020493 176.0
227.052322 140.0
227.074326 120.0
227.104874 432.0
227.142609 128.0
227.28006 108.0
227.320312 164.0
227.430115 272.0
227.469131 124.0
227.586212 120.0
227.607239 144.0
227.646271 148.0
227.685318 104.0
227.778427 176.0
227.838501 120.0
227.952682 48.0
228.009781 196.0
228.067184 252.0
228.102097 1052.0
228.143005 188.0
228.184128 56.0
228.226227 288.0
228.262314 64.0
228.320953 96.0
228.355545 188.0
228.394638 176.0
228.421707 172.0
228.457809 68.0
228.498093 100.0
228.558807 212.0
228.601166 36.0
228.632324 64.0
228.656403 64.0
228.707581 180.0
228.764771 80.0
228.852081 148.0
228.918427 120.0
228.96048 172.0
229.060745 300.0
229.073776 572.0
229.099472 848.0
229.105469 404.0
229.170456 108.0
229.248032 160.0
229.28569 144.0
229.293747 136.0
229.305847 184.0
229.3582 180.0
229.400406 192.0
229.435608 100.0
229.485153 140.0
229.527023 184.0
229.569244 144.0
229.646591 124.0
229.671783 124.0
229.741791 216.0
229.796646 164.0
229.824142 104.0
229.848083 120.0
229.893814 204.0
229.925232 104.0
229.974335 104.0
230.018616 144.0
230.081757 5780.0
230.11467 660.0
230.205994 120.0
230.262115 96.0
230.2957 148.0
230.333145 80.0
230.379807 108.0
230.45015 164.0
230.455734 136.0
230.527817 204.0
230.621506 120.0
230.657211 128.0
230.679367 184.0
230.773407 308.0
230.840332 176.0
230.852173 240.0
230.878647 176.0
230.915146 208.0
230.938919 288.0
230.989792 284.0
231.066986 101276.0
231.168671 196.0
231.236923 168.0
231.268539 80.0
231.289124 96.0
231.347366 240.0
231.388733 52.0
231.429138 64.0
231.472839 172.0
231.501663 80.0
231.541183 92.0
231.564117 784.0
231.604996 104.0
231.662354 160.0
231.675842 156.0
231.712631 252.0
231.725189 112.0
231.737823 252.0
231.76384 84.0
231.811462 84.0
231.849838 148.0
231.910721 144.0
231.932373 132.0
231.969452 100.0
232.00322 136.0
232.069931 16284.0
232.173981 136.0
232.22142 124.0
232.262085 220.0
232.32695 204.0
232.361145 64.0
232.383499 76.0
232.444489 60.0
232.470383 84.0
232.50972 212.0
232.602249 144.0
232.658569 72.0
232.685898 52.0
232.716599 144.0
232.767883 32.0
232.798248 40.0
232.856155 60.0
232.898468 168.0
232.942062 216.0
232.995041 172.0
233.078094 2668.0
233.187973 100.0
233.211441 96.0
233.234818 68.0
233.274353 40.0
233.345871 120.0
233.417953 112.0
233.424805 216.0
233.473114 56.0
233.521561 76.0
233.55661 92.0
233.589279 276.0
233.648758 172.0
233.668991 156.0
233.725525 88.0
233.760925 396.0
233.795227 76.0
233.879288 120.0
233.968887 128.0
234.011505 168.0
234.032822 232.0
234.082809 516.0
234.112396 1132.0
234.163773 48.0
234.18338 36.0
234.209457 160.0
234.246002 124.0
234.306931 188.0
234.337402 56.0
234.386154 80.0
234.410202 160.0
234.457657 112.0
234.483673 36.0
234.602646 156.0
234.654388 180.0
234.748901 80.0
234.7733 116.0
234.797699 276.0
234.828201 92.0
234.910553 48.0
234.934967 48.0
235.038696 164.0
235.082581 144.0
235.113907 56.0
235.16246 140.0
235.203506 220.0
235.264557 48.0
235.330124 40.0
235.354691 44.0
235.455261 132.0
235.484421 100.0
235.524124 176.0
235.560776 112.0
235.660797 168.0
235.666367 100.0
235.756317 52.0
235.862488 220.0
235.952911 152.0
235.991699 132.0
236.013977 168.0
236.040619 28.0
236.111115 148.0
236.125427 148.0
236.251663 88.0
236.322021 40.0
236.361801 88.0
236.389343 176.0
236.478104 92.0
236.548508 64.0
236.768127 184.0
236.845535 124.0
236.888412 44.0
237.009369 140.0
237.063065 136.0
237.105957 104.0
237.202835 112.0
237.305222 64.0
237.326675 124.0
237.391068 168.0
237.480011 176.0
237.565903 136.0
237.633392 88.0
237.777618 108.0
237.823654 220.0
237.967941 100.0
238.038574 124.0
238.083176 288.0
238.130707 152.0
238.173706 44.0
238.230087 124.0
238.260986 136.0
238.293518 44.0
238.351898 48.0
238.407211 120.0
238.47789 180.0
238.508636 80.0
238.551666 128.0
238.597778 88.0
238.871475 72.0
238.917633 144.0
239.017532 156.0
239.088654 96.0
239.10994 112.0
239.139191 152.0
239.268478 156.0
239.316193 272.0
239.447067 44.0
239.47171 156.0
239.527161 192.0
239.607254 164.0
239.662704 108.0
239.748993 180.0
239.862976 196.0
240.065109 460.0
240.108749 116.0
240.15596 108.0
240.217651 112.0
240.375015 112.0
240.43396 76.0
240.612671 108.0
240.683685 64.0
240.728561 128.0
240.791245 212.0
240.94931 132.0
240.986389 132.0
241.05098 1164.0
241.107773 180.0
241.185226 152.0
241.372757 176.0
241.416061 176.0
241.589264 96.0
241.685181 196.0
241.71701 140.0
241.762543 92.0
241.830627 108.0
241.883255 140.0
241.979218 184.0
242.044006 372.0
242.081482 1472.0
242.157104 280.0
242.202194 72.0
242.292023 100.0
242.388077 152.0
242.425262 48.0
242.462448 164.0
242.493454 56.0
242.62674 132.0
242.689987 60.0
242.725952 200.0
242.746353 188.0
242.803482 64.0
242.825195 120.0
242.856216 100.0
242.976364 172.0
243.019928 124.0
243.071838 388.0
243.142654 172.0
243.154968 124.0
243.185104 88.0
243.268921 140.0
243.29686 160.0
243.331009 160.0
243.35585 196.0
243.430374 92.0
243.460052 172.0
243.48938 52.0
243.678864 136.0
243.827118 176.0
243.890182 160.0
243.950058 168.0
243.989655 176.0
244.097107 888.0
244.131607 184.0
244.353546 80.0
244.421997 76.0
244.471786 116.0
244.580719 56.0
244.755066 116.0
244.864059 128.0
244.904541 104.0
244.988647 96.0
245.016693 148.0
245.078232 1148.0
245.117462 3368.0
245.167694 244.0
245.19017 188.0
245.216125 128.0
245.269104 116.0
245.303726 76.0
245.371658 136.0
245.446808 140.0
245.499832 196.0
245.577789 48.0
245.612106 144.0
245.902283 160.0
245.941864 164.0
246.075378 1144.0
246.115753 1200.0
246.198883 164.0
246.248535 80.0
246.305069 152.0
246.333191 152.0
246.374878 104.0
246.517532 104.0
246.611282 48.0
246.642548 68.0
246.691086 144.0
246.839508 116.0
246.895798 76.0
247.002136 68.0
247.065308 272.0
247.109558 368.0
247.134171 420.0
247.239929 104.0
247.402695 140.0
247.55925 112.0
247.605835 128.0
247.61171 112.0
247.623367 212.0
247.866241 52.0
247.894455 48.0
247.991608 144.0
248.058701 320.0
248.092209 3508.0
248.139923 280.0
248.196625 100.0
248.383545 140.0
248.41806 108.0
248.464401 124.0
248.593765 168.0
248.653381 88.0
248.728714 84.0
248.758194 204.0
248.788361 56.0
248.866455 96.0
248.901398 160.0
248.932861 208.0
248.986176 124.0
249.01329 96.0
249.035156 128.0
249.063202 328.0
249.09465 600.0
249.143692 168.0
249.162918 168.0
249.212357 212.0
249.237488 84.0
249.278259 204.0
249.295624 56.0
249.310089 172.0
249.363205 104.0
249.462219 108.0
249.485794 124.0
249.542389 56.0
249.592697 144.0
249.620987 132.0
249.68074 128.0
249.86319 132.0
249.922958 164.0
249.985901 88.0
250.055267 156.0
250.097855 196.0
250.30069 128.0
250.442413 136.0
250.464462 140.0
250.631439 116.0
250.748032 136.0
250.807922 72.0
250.937164 80.0
251.047531 124.0
251.085373 168.0
251.11377 140.0
251.284103 216.0
251.359833 136.0
251.416641 36.0
251.487411 104.0
251.517639 108.0
251.599716 156.0
251.650238 136.0
251.707062 180.0
251.955872 176.0
252.032425 148.0
252.101944 140.0
252.130386 300.0
252.165146 292.0
252.203079 112.0
252.24733 144.0
252.269455 124.0
252.342178 108.0
252.449677 144.0
252.573029 104.0
252.629974 140.0
252.68927 140.0
252.82515 152.0
252.894867 180.0
253.133224 168.0
253.214294 160.0
253.313751 64.0
253.423233 168.0
253.466888 216.0
253.485809 104.0
253.507019 160.0
253.647354 188.0
253.707672 304.0
253.740494 108.0
253.82402 144.0
253.87793 104.0
254.010742 156.0
254.05368 156.0
254.079788 88.0
254.158234 164.0
254.417343 168.0
254.458618 72.0
254.617386 88.0
254.687256 116.0
254.709488 204.0
254.839752 96.0
254.995468 172.0
255.055359 284.0
255.106476 180.0
255.236038 216.0
255.294312 180.0
255.380173 180.0
255.43425 136.0
255.459702 128.0
255.497879 200.0
255.533936 144.0
255.557175 132.0
255.72699 176.0
255.752457 272.0
255.809753 144.0
255.946655 204.0
255.99202 164.0
256.032166 136.0
256.060059 376.0
256.097931 5008.0
256.210999 60.0
256.258789 104.0
256.287476 84.0
256.442719 308.0
256.539246 108.0
256.583893 152.0
256.618958 244.0
256.64447 116.0
256.740356 60.0
256.764801 120.0
256.81488 352.0
256.912384 56.0
256.934723 112.0
256.960236 36.0
256.998535 108.0
257.066864 480.0
257.102905 676.0
257.18042 196.0
257.244263 156.0
257.279968 152.0
257.343231 100.0
257.405121 116.0
257.427704 80.0
257.486938 60.0
257.525269 224.0
257.635254 92.0
257.711884 200.0
257.72406 192.0
257.78421 168.0
257.838379 44.0
257.911896 80.0
257.947052 180.0
258.076996 10744.0
258.107941 1644.0
258.263611 56.0
258.425537 168.0
258.519562 276.0
258.584351 148.0
258.653229 128.0
258.678223 132.0
258.75177 52.0
258.821869 220.0
258.847931 124.0
258.879852 104.0
258.903717 140.0
258.926147 124.0
258.997131 172.0
259.061432 16112.0
259.131073 712.0
259.187134 236.0
259.233704 76.0
259.300995 52.0
259.356964 96.0
259.39212 88.0
259.432465 172.0
259.458069 88.0
259.539886 164.0
259.601227 92.0
259.653656 168.0
259.675201 56.0
259.734894 72.0
259.783783 204.0
259.815704 172.0
259.84201 56.0
259.885376 176.0
259.904999 128.0
259.952026 96.0
259.983032 216.0
260.014648 64.0
260.064728 3040.0
260.091431 12548.0
260.179047 164.0
260.219788 48.0
260.295502 36.0
260.359741 48.0
260.420532 188.0
260.452881 184.0
260.481781 88.0
260.55069 64.0
260.578156 112.0
260.619934 144.0
260.693848 60.0
260.719543 32.0
260.850433 44.0
260.912415 80.0
261.067474 668.0
261.099945 1980.0
261.195404 140.0
261.217926 104.0
261.259735 64.0
261.317657 216.0
261.424835 168.0
261.45871 100.0
261.504303 204.0
261.556091 100.0
261.729645 96.0
261.830994 76.0
261.88028 72.0
261.926086 68.0
261.964752 36.0
261.99054 44.0
262.019531 76.0
262.068726 432.0
262.102539 660.0
262.158081 140.0
262.181335 168.0
262.21521 220.0
262.283783 280.0
262.328888 104.0
262.438507 56.0
262.483673 60.0
262.525574 64.0
262.586853 164.0
262.641693 112.0
262.680389 96.0
262.714935 144.0
262.768738 84.0
262.835083 68.0
262.886902 60.0
262.915588 192.0
262.948212 172.0
262.997345 88.0
263.025665 176.0
263.106384 192.0
263.190338 124.0
263.351807 72.0
263.468079 88.0
263.503632 220.0
263.661957 88.0
263.886292 132.0
263.930267 192.0
263.956146 40.0
263.97879 56.0
264.066101 140.0
264.127563 148.0
264.21167 112.0
264.247253 152.0
264.311951 236.0
264.33786 144.0
264.42923 152.0
264.490662 148.0
264.525574 184.0
264.687469 100.0
264.930359 116.0
264.982208 64.0
265.004883 116.0
265.150696 100.0
265.20047 136.0
265.249023 228.0
265.304474 172.0
265.559235 344.0
265.67926 112.0
265.796051 144.0
265.822021 116.0
266.003754 136.0
266.036224 192.0
266.085815 148.0
266.179077 132.0
266.277954 224.0
266.30249 204.0
266.448669 156.0
266.672882 112.0
266.764862 148.0
266.796417 88.0
266.941132 112.0
267.007782 160.0
267.079803 224.0
267.128113 104.0
267.180176 164.0
267.307068 156.0
267.56839 232.0
267.67099 140.0
267.740051 156.0
267.860565 212.0
267.906158 96.0
268.029968 176.0
268.106232 200.0
268.134247 120.0
268.293976 128.0
268.362457 56.0
268.430908 132.0
268.522247 112.0
268.629883 92.0
268.838684 92.0
268.874603 48.0
268.946381 152.0
269.069672 568.0
269.114716 368.0
269.295776 100.0
269.334961 172.0
269.361084 144.0
269.397034 160.0
269.533875 136.0
269.56955 240.0
269.596344 128.0
269.645721 148.0
269.675873 136.0
269.782654 44.0
269.870911 140.0
269.975555 116.0
270.011536 68.0
270.07843 216.0
270.126282 244.0
270.319061 156.0
270.37796 76.0
270.436859 108.0
270.518707 92.0
270.577637 212.0
270.672577 176.0
270.773376 128.0
270.781952 100.0
270.795074 168.0
270.918243 208.0
270.964111 28.0
271.084869 260.0
271.111298 296.0
271.143555 152.0
271.177094 200.0
271.295105 164.0
271.327881 100.0
271.370514 112.0
271.411621 104.0
271.446198 148.0
271.550873 48.0
271.694366 172.0
271.721436 168.0
271.773041 172.0
271.819885 172.0
271.918335 92.0
271.980713 92.0
272.021851 112.0
272.092468 1000.0
272.129913 288.0
272.165771 108.0
272.247467 64.0
272.274658 204.0
272.358307 100.0
272.414154 164.0
272.444702 120.0
272.569 120.0
272.611298 92.0
272.663879 116.0
272.696747 44.0
272.726318 168.0
272.780396 212.0
272.870972 108.0
272.916168 120.0
272.936737 156.0
272.976196 120.0
273.059662 116.0
273.112152 2968.0
273.167389 428.0
273.219574 88.0
273.301849 172.0
273.398651 236.0
273.436768 168.0
273.512451 100.0
273.547089 116.0
273.591461 100.0
273.684814 212.0
273.831848 136.0
273.920776 176.0
273.967865 164.0
273.999847 132.0
274.115112 15628.0
274.180695 268.0
274.233826 36.0
274.293152 68.0
274.329407 84.0
274.378296 212.0
274.401947 48.0
274.43161 84.0
274.469666 132.0
274.547028 76.0
274.641968 56.0
274.661926 148.0
274.698761 44.0
274.730194 176.0
274.790375 120.0
274.825226 140.0
274.893402 204.0
274.93631 152.0
274.999023 108.0
275.051331 52.0
275.119659 3204.0
275.199127 116.0
275.245178 92.0
275.296143 64.0
275.339081 160.0
275.398529 224.0
275.51416 268.0
275.560394 52.0
275.614502 128.0
275.769897 172.0
275.865601 92.0
276.033081 88.0
276.088593 248.0
276.125 824.0
276.244751 164.0
276.284454 192.0
276.353577 76.0
276.39032 52.0
276.508789 252.0
276.566833 64.0
276.684906 76.0
276.714691 172.0
276.787628 180.0
276.843842 132.0
276.890198 148.0
276.920013 84.0
276.959747 60.0
276.986267 44.0
277.042236 204.0
277.087585 164.0
277.129089 396.0
277.278625 136.0
277.357391 40.0
277.523132 136.0
277.553406 32.0
277.588409 188.0
277.669037 72.0
277.735382 140.0
277.788452 92.0
277.9245 68.0
278.024902 116.0
278.140778 116.0
278.233154 136.0
278.256409 72.0
278.409149 72.0
278.558594 176.0
278.601807 116.0
278.628357 192.0
278.701477 120.0
278.820251 144.0
278.870941 108.0
279.04715 148.0
279.092438 172.0
279.146881 176.0
279.206757 124.0
279.393036 208.0
279.429626 84.0
279.625946 124.0
279.685852 68.0
279.796265 100.0
279.902252 140.0
280.092102 152.0
280.158722 232.0
280.1987 116.0
280.358643 96.0
280.388641 144.0
280.431976 184.0
281.142365 356.0
281.171021 128.0
281.295898 168.0
281.342621 100.0
281.439453 104.0
281.500336 136.0
281.563019 100.0
281.623718 204.0
281.686584 144.0
281.716034 128.0
281.973938 156.0
282.127716 308.0
282.360474 176.0
282.435364 72.0
282.505615 144.0
282.58255 132.0
282.870361 228.0
282.975494 108.0
283.128174 192.0
283.402863 128.0
283.520142 124.0
283.575867 192.0
283.610657 152.0
283.67099 260.0
283.825195 108.0
283.858734 64.0
283.885559 68.0
283.967163 184.0
284.004272 236.0
284.092834 6528.0
284.301544 108.0
284.368683 140.0
284.398163 204.0
284.516388 160.0
284.620361 160.0
284.66748 68.0
284.757812 316.0
284.81189 180.0
284.895874 184.0
284.926117 84.0
284.983215 168.0
285.049683 152.0
285.093811 1420.0
285.174774 108.0
285.211731 124.0
285.248718 48.0
285.282349 124.0
285.329407 60.0
285.370056 168.0
285.42691 92.0
285.623505 204.0
285.658142 192.0
285.80365 148.0
285.874298 56.0
285.910339 68.0
285.94162 148.0
285.995483 148.0
286.104706 768.0
286.145172 96.0
286.180023 268.0
286.20755 132.0
286.23114 220.0
286.288391 64.0
286.381348 136.0
286.412994 88.0
286.497223 152.0
286.549591 184.0
286.631989 332.0
286.662323 128.0
286.722961 168.0
286.859009 120.0
286.924988 116.0
286.930359 108.0
286.97113 188.0
287.036041 380.0
287.078156 260.0
287.129456 31920.0
287.223022 120.0
287.257965 96.0
287.271942 64.0
287.280151 100.0
287.386139 68.0
287.417664 188.0
287.483337 52.0
287.528259 100.0
287.554779 76.0
287.62674 76.0
287.664032 64.0
287.721802 72.0
287.756866 104.0
287.796234 180.0
287.839355 56.0
287.905823 112.0
288.043945 168.0
288.082794 144.0
288.131317 5880.0
288.216583 160.0
288.265015 64.0
288.29837 76.0
288.328766 176.0
288.383514 56.0
288.411652 112.0
288.481537 160.0
288.521606 104.0
288.551331 56.0
288.599884 40.0
288.660736 104.0
288.708099 64.0
288.7453 240.0
288.779114 104.0
288.850159 224.0
288.93692 68.0
289.015472 164.0
289.045349 80.0
289.092407 2024.0
289.130829 732.0
289.199585 104.0
289.221069 188.0
289.286682 112.0
289.313751 64.0
289.340851 84.0
289.36969 124.0
289.493225 80.0
289.530151 72.0
289.571106 64.0
289.607147 164.0
289.63208 56.0
289.693848 184.0
289.726929 64.0
289.755432 84.0
289.781128 132.0
289.835358 56.0
289.884552 84.0
289.91925 324.0
289.97995 196.0
290.052246 112.0
290.103821 10836.0
290.161224 132.0
290.173157 156.0
290.183502 140.0
290.220367 204.0
290.248901 164.0
290.280151 164.0
290.302917 132.0
290.343842 204.0
290.387939 156.0
290.421844 92.0
290.477142 92.0
290.509125 96.0
290.557526 40.0
290.645752 188.0
290.685486 48.0
290.747559 112.0
290.784882 48.0
290.862946 108.0
290.917267 104.0
290.944427 32.0
291.103729 1684.0
291.149658 100.0
291.181732 168.0
291.536835 236.0
291.624176 192.0
291.688385 100.0
291.85498 40.0
292.045441 272.0
292.109955 356.0
292.195099 128.0
292.269958 164.0
292.32782 128.0
292.374084 80.0
292.445007 148.0
292.511597 156.0
292.603516 112.0
292.654602 128.0
292.715881 156.0
292.811249 164.0
292.843231 144.0
292.906616 172.0
293.001312 140.0
293.059906 172.0
293.093262 148.0
293.117828 120.0
293.148254 156.0
293.27121 148.0
293.454742 124.0
293.772461 56.0
293.831177 192.0
293.952362 148.0
294.025421 88.0
294.097595 184.0
294.12735 96.0
294.17514 44.0
294.363434 160.0
294.407318 56.0
294.475647 72.0
294.516632 64.0
294.815186 132.0
294.923218 52.0
294.960815 160.0
295.157104 184.0
295.364319 156.0
295.562744 72.0
295.593567 60.0
295.699646 184.0
295.725983 196.0
295.79541 168.0
296.011169 176.0
296.077789 120.0
296.10556 124.0
296.142029 208.0
296.254364 44.0
296.298889 128.0
296.38797 76.0
296.549042 220.0
296.69989 148.0
296.751312 184.0
296.874054 140.0
296.936493 72.0
296.981079 148.0
297.053101 184.0
297.116486 308.0
297.152039 152.0
297.156891 128.0
297.228088 96.0
297.389374 36.0
297.554138 100.0
297.578186 352.0
297.694946 116.0
297.856354 196.0
298.04187 228.0
298.098389 164.0
298.149628 100.0
298.22403 132.0
298.251526 72.0
298.325653 120.0
298.396088 152.0
298.461212 100.0
298.553802 148.0
298.736359 256.0
298.77652 180.0
298.918732 68.0
298.970337 100.0
299.021973 144.0
299.131317 408.0
299.287048 164.0
299.396454 140.0
299.445465 104.0
299.542969 96.0
299.591278 144.0
299.653442 96.0
299.693481 84.0
299.732574 300.0
299.789978 40.0
299.83902 92.0
299.875885 108.0
299.957825 204.0
300.081421 180.0
300.131592 156.0
300.156708 132.0
300.182953 128.0
300.215057 168.0
300.30368 56.0
300.354156 88.0
300.364014 56.0
300.379089 60.0
300.406921 480.0
300.440002 92.0
300.454865 48.0
300.46109 132.0
300.555511 88.0
300.610077 88.0
300.62204 128.0
300.636322 124.0
300.646301 180.0
300.731506 92.0
300.782745 128.0
300.848877 84.0
300.878998 160.0
300.924835 56.0
300.955566 164.0
300.994446 148.0
301.024963 276.0
301.059509 224.0
301.116394 168.0
301.223389 236.0
301.250153 164.0
301.264557 140.0
301.27832 216.0
301.317993 76.0
301.363586 116.0
301.402832 112.0
301.444946 152.0
301.472565 140.0
301.524811 116.0
301.558441 144.0
301.583008 272.0
301.617798 140.0
301.653076 116.0
301.698639 168.0
301.712372 196.0
301.722443 84.0
301.768951 140.0
301.780762 140.0
301.810913 340.0
301.847717 300.0
301.860413 188.0
301.89743 284.0
301.956421 356.0
302.022736 376.0
302.104584 210232.0
302.232452 112.0
302.26947 164.0
302.320526 244.0
302.357666 164.0
302.393433 248.0
302.426117 384.0
302.453796 136.0
302.517792 84.0
302.551025 356.0
302.608185 132.0
302.674133 1620.0
302.722015 148.0
302.779541 232.0
302.810638 208.0
302.833191 200.0
302.867767 304.0
302.950256 220.0
302.991394 192.0
303.027618 276.0
303.106354 45672.0
303.204193 56.0
303.233612 240.0
303.264313 240.0
303.291595 28.0
303.366364 152.0
303.384155 84.0
303.390472 104.0
303.412231 116.0
303.465973 196.0
303.5354 220.0
303.579651 60.0
303.630524 124.0
303.685638 112.0
303.70874 132.0
303.76004 112.0
303.804321 52.0
303.830322 44.0
303.863281 104.0
303.906708 180.0
303.917694 160.0
304.007874 136.0
304.050659 172.0
304.114685 7900.0
304.222473 72.0
304.255157 48.0
304.261078 44.0
304.292053 52.0
304.322632 200.0
304.393341 68.0
304.421387 180.0
304.463806 44.0
304.491577 108.0
304.532867 136.0
304.581451 268.0
304.626282 128.0
304.669891 204.0
304.69931 116.0
304.750397 88.0
304.77417 136.0
304.805603 92.0
304.815552 124.0
304.860992 112.0
304.872162 128.0
304.916748 212.0
304.973541 500.0
305.011536 396.0
305.120697 2192.0
305.169281 216.0
305.25528 116.0
305.298737 188.0
305.324188 208.0
305.389282 240.0
305.418732 176.0
305.498657 148.0
305.562225 28.0
305.711304 76.0
305.749634 88.0
305.772461 112.0
305.803741 88.0
305.847778 184.0
305.877319 104.0
305.916138 104.0
305.959808 280.0
305.985809 108.0
306.042542 40.0
306.127228 184.0
306.173981 128.0
306.223389 240.0
306.261963 72.0
306.319153 104.0
306.393585 96.0
306.432648 80.0
306.458191 60.0
306.488403 128.0
306.565063 48.0
306.592926 64.0
306.660248 124.0
306.727112 76.0
306.769409 108.0
306.804108 112.0
306.81842 60.0
306.928406 156.0
307.011047 116.0
307.092865 68.0
307.133362 76.0
307.167725 108.0
307.198669 156.0
307.276398 96.0
307.3078 68.0
307.475281 80.0
307.583496 72.0
307.681702 60.0
307.779388 104.0
307.83136 76.0
307.904724 88.0
307.999023 112.0
308.06665 104.0
308.15274 132.0
308.184174 56.0
308.280029 148.0
308.329102 84.0
308.358917 176.0
308.400848 64.0
308.715515 36.0
308.791809 152.0
308.886871 132.0
308.911377 64.0
309.037323 68.0
309.325073 284.0
309.471344 48.0
309.670929 48.0
309.770966 108.0
309.839081 144.0
309.940704 36.0
310.10083 172.0
310.133453 176.0
310.207062 56.0
310.356049 40.0
310.403381 48.0
310.564728 92.0
310.624359 44.0
310.862946 152.0
311.157776 84.0
311.375488 68.0
311.410614 184.0
311.512482 64.0
311.568695 76.0
311.833984 168.0
311.930664 48.0
312.05722 188.0
312.118103 140.0
312.155487 540.0
312.299866 60.0
312.521484 84.0
312.788971 88.0
312.834717 112.0
313.126984 288.0
313.163086 248.0
313.222076 28.0
313.264343 108.0
313.394714 196.0
313.752869 148.0
313.909363 80.0
313.95871 96.0
314.141846 536.0
314.180054 368.0
314.223267 84.0
314.290314 76.0
314.37146 152.0
314.607971 120.0
314.664459 108.0
314.738586 60.0
314.851593 92.0
314.917267 108.0
314.94696 156.0
314.989349 108.0
315.051971 132.0
315.123596 7348.0
315.186401 284.0
315.224915 116.0
315.303802 80.0
315.349762 196.0
315.419281 176.0
315.533569 40.0
315.575989 36.0
315.703308 92.0
315.890747 36.0
315.986267 76.0
316.071198 52.0
316.153412 3504.0
316.212769 44.0
316.265839 40.0
316.296143 108.0
316.357025 84.0
316.40744 60.0
316.527832 28.0
316.556152 64.0
316.690735 56.0
316.743866 84.0
316.775757 76.0
316.820282 112.0
316.871399 56.0
316.89975 52.0
317.013153 76.0
317.090332 164.0
317.099274 200.0
317.159637 724.0
317.307343 88.0
317.349884 52.0
317.50238 96.0
317.546844 156.0
317.619415 192.0
317.700989 136.0
317.754211 88.0
317.779053 36.0
317.821625 164.0
317.902954 48.0
318.006165 36.0
318.10556 124.0
318.172028 1016.0
318.332794 156.0
318.410919 136.0
318.492615 76.0
318.535248 76.0
318.592072 48.0
318.648926 184.0
318.762634 44.0
318.997192 128.0
319.169586 164.0
319.279694 80.0
319.304657 68.0
319.384796 152.0
319.640961 172.0
319.811768 108.0
319.922119 84.0
320.228363 120.0
320.424286 120.0
320.754944 168.0
321.130096 88.0
321.313599 100.0
321.458313 104.0
321.604645 116.0
321.668884 56.0
321.829559 172.0
321.883118 212.0
322.125977 120.0
322.490448 160.0
322.89447 56.0
323.373901 168.0
323.441895 208.0
323.620911 60.0
323.996979 32.0
324.057861 88.0
324.176117 44.0
324.364075 108.0
324.419861 28.0
324.76767 124.0
325.126465 100.0
325.365204 148.0
325.736847 92.0
325.909302 140.0
325.948822 188.0
326.006317 92.0
326.035065 144.0
326.196808 148.0
326.31546 76.0
326.405334 92.0
326.444885 116.0
326.473663 148.0
326.556396 200.0
327.12851 120.0
327.193329 36.0
327.394958 180.0
327.603882 116.0
327.798431 100.0
327.823669 216.0
328.198547 128.0
328.230988 196.0
328.297974 104.0
328.609741 180.0
328.714355 100.0
329.125977 136.0
329.135376 140.0
329.414795 224.0
329.878174 88.0
329.971344 108.0
330.050903 136.0
330.126831 188.0
330.167603 1104.0
330.220856 124.0
330.249786 120.0
330.394501 44.0
330.593506 60.0
330.640564 108.0
330.835541 156.0
331.174622 312.0
331.944733 76.0
332.01001 108.0
332.178436 232.0
333.171539 100.0
333.200195 208.0
333.59671 96.0
333.967621 92.0
334.134949 156.0
334.324158 56.0
334.356934 48.0
334.699127 120.0
335.107056 208.0
335.158081 232.0
335.559021 116.0
335.748627 120.0
335.803345 140.0
336.040436 132.0
336.237488 140.0
336.354309 104.0
336.507629 132.0
336.690216 136.0
336.872833 64.0
337.146881 40.0
337.187073 88.0
337.289429 164.0
337.611176 108.0
337.735504 104.0
337.775757 80.0
338.280731 108.0
338.361267 180.0
338.797089 100.0
338.83374 96.0
339.111023 84.0
339.321167 132.0
339.398163 216.0
339.687897 52.0
339.790619 160.0
340.153259 1144.0
340.311798 64.0
340.76358 100.0
340.924255 104.0
341.075958 136.0
341.101685 140.0
341.15802 448.0
341.370087 128.0
341.531891 120.0
341.667999 120.0
342.152802 148.0
342.190613 104.0
343.001099 92.0
343.12558 136.0
343.17807 140.0
343.616974 108.0
343.749786 160.0
343.838379 152.0
344.059845 120.0
344.12262 76.0
344.225983 40.0
344.591675 148.0
344.783813 124.0
344.813385 172.0
345.171997 92.0
345.319916 112.0
345.467865 80.0
345.619568 128.0
345.867523 108.0
346.011902 36.0
346.071136 160.0
346.114716 228.0
346.241486 132.0
346.441498 36.0
346.64679 148.0
347.15686 108.0
347.290375 120.0
347.731903 108.0
348.001068 196.0
348.448578 156.0
348.612061 128.0
349.110229 44.0
349.824615 112.0
350.55835 100.0
351.281677 104.0
351.908661 128.0
352.71933 88.0
352.887573 152.0
353.377533 176.0
353.483246 112.0
353.572113 60.0
353.755524 68.0
353.804199 104.0
354.291046 116.0
354.452148 176.0
354.489624 104.0
354.605804 44.0
354.924469 148.0
354.984467 52.0
355.029449 108.0
355.141968 148.0
355.419586 116.0
355.528412 112.0
355.607239 104.0
355.667297 48.0
355.832458 100.0
355.900055 124.0
355.95636 84.0
356.001434 108.0
356.065277 168.0
356.151672 104.0
356.269989 144.0
356.437592 160.0
356.690887 168.0
356.813049 140.0
356.858185 128.0
356.90329 128.0
356.939209 72.0
357.07251 96.0
357.106354 156.0
357.155273 96.0
357.245544 96.0
357.399811 144.0
357.433655 124.0
357.501404 272.0
357.682068 52.0
357.74472 324.0
357.833588 160.0
357.867279 160.0
357.932556 208.0
357.96051 104.0
357.990784 48.0
358.028442 256.0
358.05481 392.0
358.100555 252.0
358.167297 72024.0
358.30719 68.0
358.371613 40.0
358.441742 140.0
358.468933 52.0
358.476135 100.0
358.529968 164.0
358.569519 76.0
358.659943 72.0
358.724152 64.0
358.785248 164.0
358.848328 132.0
358.880096 48.0
358.915497 112.0
358.952545 128.0
359.011536 176.0
359.040192 96.0
359.074951 140.0
359.105499 72.0
359.168732 20680.0
359.322174 124.0
359.357422 60.0
359.393066 116.0
359.44696 156.0
359.516327 112.0
359.586273 136.0
359.617645 124.0
359.645905 48.0
359.712067 84.0
359.752533 64.0
359.80069 60.0
359.876862 80.0
359.936615 36.0
359.963043 56.0
360.041748 188.0
360.093109 144.0
360.173889 2844.0
360.268982 60.0
360.314301 36.0
360.358215 192.0
360.386108 132.0
360.545685 120.0
360.591827 100.0
360.62796 44.0
360.68811 148.0
360.737579 68.0
360.809387 52.0
360.892578 56.0
360.919037 52.0
360.968201 36.0
361.01358 120.0
361.04007 72.0
361.07608 84.0
361.174622 512.0
361.231537 96.0
361.264038 132.0
361.307617 92.0
361.318695 72.0
361.399414 104.0
361.435883 144.0
361.520508 80.0
361.574463 116.0
361.605621 104.0
361.633698 44.0
361.708252 180.0
361.747742 120.0
361.917969 96.0
361.946564 88.0
362.031586 56.0
362.075623 152.0
362.090759 96.0
362.156555 128.0
362.194427 108.0
362.258362 96.0
362.31369 100.0
362.367493 124.0
362.413696 96.0
362.452057 32.0
362.527863 64.0
362.580902 44.0
362.611237 92.0
362.645355 100.0
362.743896 28.0
362.778015 124.0
362.867523 216.0
362.922089 96.0
363.028259 96.0
363.05481 48.0
363.092712 64.0
363.355774 60.0
363.566956 124.0
363.711182 80.0
363.764313 84.0
363.859222 48.0
364.109863 48.0
364.166809 44.0
364.201019 48.0
364.2276 116.0
364.444153 76.0
364.691162 76.0
364.968689 172.0
365.052338 40.0
365.185455 104.0
365.238708 80.0
365.592529 96.0
365.62677 144.0
365.733368 84.0
365.790436 92.0
365.916077 96.0
366.022705 52.0
366.506439 112.0
366.994904 108.0
367.360474 80.0
368.135284 36.0
368.242218 56.0
368.429382 60.0
368.486694 176.0
368.586029 172.0
368.838287 72.0
369.094421 68.0
369.947632 40.0
370.096954 60.0
370.135223 80.0
370.545074 160.0
370.658203 176.0
371.008789 40.0
371.161743 1820.0
371.212006 40.0
371.264069 112.0
371.403778 60.0
371.457489 80.0
371.572571 216.0
371.756744 176.0
371.841187 148.0
371.937134 76.0
372.16687 508.0
372.321075 60.0
372.543854 140.0
372.739807 92.0
372.866638 84.0
372.935822 136.0
373.09726 64.0
373.162628 140.0
373.37796 284.0
373.431824 104.0
373.501038 32.0
373.627991 56.0
374.001251 40.0
374.093658 88.0
374.374725 56.0
374.432495 184.0
375.168457 112.0
375.407501 76.0
375.48465 88.0
375.777802 96.0
376.10199 92.0
376.148315 232.0
376.270447 84.0
377.048248 104.0
377.16806 460.0
377.380707 84.0
377.473511 64.0
377.50058 36.0
377.771301 148.0
377.802277 96.0
378.16925 200.0
378.282135 52.0
378.413757 52.0
378.568634 120.0
378.990875 140.0
379.266022 96.0
379.331909 144.0
379.995087 52.0
380.033875 124.0
380.22403 40.0
380.744263 76.0
380.868561 152.0
381.46698 232.0
381.89859 132.0
382.100861 96.0
382.147552 84.0
382.318787 48.0
382.809296 60.0
382.879395 48.0
383.457947 40.0
383.658691 116.0
383.775665 140.0
383.822449 172.0
384.39975 108.0
385.356415 76.0
385.504913 128.0
385.743317 288.0
385.852783 212.0
385.884064 124.0
386.087402 100.0
386.74469 88.0
386.838623 136.0
387.202789 128.0
387.304626 172.0
387.375122 132.0
387.508331 84.0
387.559265 68.0
387.743439 96.0
387.849274 92.0
388.021759 92.0
388.104095 96.0
388.437439 108.0
388.86908 160.0
389.010376 60.0
389.11731 136.0
389.171814 6456.0
389.234161 88.0
389.265594 68.0
389.310089 36.0
389.430542 68.0
389.465881 48.0
389.581299 136.0
389.662292 52.0
389.812653 76.0
389.921661 100.0
389.996338 64.0
390.098541 232.0
390.17688 1804.0
390.275452 68.0
390.306427 64.0
390.9245 80.0
391.074036 136.0
391.182556 368.0
391.365356 48.0
391.515015 48.0
391.761017 88.0
391.912872 88.0
392.157196 204.0
392.405548 136.0
392.444977 68.0
392.472565 48.0
392.579041 52.0
392.63031 120.0
393.415527 168.0
393.656372 80.0
393.905212 96.0
393.988159 44.0
394.300323 64.0
394.861725 124.0
395.035767 160.0
395.178192 180.0
395.273163 116.0
395.494781 140.0
395.605621 172.0
395.823395 64.0
397.186737 220.0
397.230377 96.0
397.623199 40.0
397.706543 124.0
397.837524 96.0
398.186951 172.0
398.258453 176.0
398.767029 120.0
398.802795 136.0
399.176514 80.0
399.820984 116.0
400.370392 88.0
401.07959 164.0
401.203156 116.0
401.235046 136.0
401.937042 48.0
402.683563 152.0
403.09903 152.0
403.210938 116.0
403.282898 116.0
403.346832 124.0
403.838654 192.0
403.878662 144.0
404.687042 48.0
404.831207 128.0
405.540314 160.0
405.632507 112.0
406.065552 120.0
406.101654 48.0
406.89621 220.0
407.366089 112.0
407.47052 96.0
407.695557 32.0
408.270447 80.0
409.328796 124.0
410.872528 136.0
411.058136 188.0
411.219543 140.0
411.437531 104.0
411.695953 196.0
411.896118 108.0
412.075653 144.0
412.253448 84.0
413.87149 120.0
413.980835 124.0
415.042511 204.0
415.387238 120.0
415.484619 228.0
415.776764 100.0
415.886353 100.0
416.28421 96.0
417.003296 60.0
417.119446 84.0
417.23645 152.0
417.271606 168.0
417.369171 112.0
417.759613 140.0
418.235931 168.0
418.410767 48.0
418.602142 128.0
418.740601 108.0
418.956482 112.0
419.233551 112.0
419.262085 120.0
419.80838 88.0
420.00415 64.0
420.461121 116.0
420.971405 52.0
421.625061 84.0
421.727234 80.0
421.952057 284.0
422.050201 48.0
422.516449 120.0
423.404724 56.0
423.490723 176.0
424.129913 80.0
425.237366 96.0
426.66037 172.0
427.172699 60.0
427.220764 1208.0
427.329041 44.0
427.427765 44.0
427.884644 128.0
427.97522 156.0
428.028748 84.0
428.229492 172.0
429.231415 168.0
429.306213 144.0
429.55368 144.0
429.6362 132.0
429.916779 84.0
430.474091 36.0
430.957367 88.0
431.093719 124.0
432.076233 124.0
432.495789 184.0
432.884949 68.0
433.514618 124.0
433.692841 168.0
433.8172 64.0
433.999603 80.0
434.401917 64.0
434.750427 64.0
434.999481 96.0
435.722076 168.0
438.347565 68.0
439.14801 72.0
439.644501 96.0
439.986755 56.0
440.266541 144.0
440.479553 56.0
441.022766 132.0
441.102173 124.0
441.378113 68.0
441.675049 60.0
441.704315 76.0
442.001373 92.0
442.41626 184.0
442.583191 76.0
442.721375 60.0
442.792572 84.0
442.90567 112.0
442.98526 96.0
443.014587 124.0
443.090942 136.0
443.127686 92.0
443.207306 108.0
443.404266 104.0
443.511078 124.0
443.60965 164.0
443.647369 116.0
443.756378 68.0
443.909943 128.0
444.007996 68.0
444.126526 196.0
444.162537 52.0
444.335175 40.0
444.408966 116.0
444.557831 180.0
444.624695 116.0
444.67926 124.0
444.725433 124.0
444.830383 96.0
444.913544 212.0
444.948151 208.0
444.988068 248.0
445.006348 188.0
445.019287 232.0
445.052887 180.0
445.081757 60.0
445.113098 400.0
445.235687 56328.0
445.342072 220.0
445.382843 92.0
445.458862 104.0
445.523285 60.0
445.56192 120.0
445.605774 296.0
445.652466 48.0
445.668762 64.0
445.677795 88.0
445.724152 64.0
445.820618 120.0
445.87735 160.0
445.918274 100.0
445.967255 164.0
446.067566 92.0
446.103699 104.0
446.238434 20212.0
446.35321 28.0
446.424866 176.0
446.48584 48.0
446.517395 56.0
446.56424 44.0
446.644958 48.0
446.683533 72.0
446.735504 56.0
446.76767 40.0
446.797119 32.0
446.854401 72.0
446.950134 212.0
447.011078 120.0
447.108124 272.0
447.238281 2832.0
447.291138 112.0
447.363159 128.0
447.396698 68.0
447.436829 52.0
447.495758 76.0
447.579987 32.0
447.626282 84.0
447.691864 84.0
447.792572 116.0
447.841095 36.0
447.870575 108.0
447.984314 48.0
448.06012 48.0
448.158813 104.0
448.244293 568.0
448.297211 60.0
448.355103 64.0
448.409882 80.0
448.447815 88.0
448.551422 100.0
448.585297 104.0
448.679657 36.0
448.751343 76.0
448.780853 76.0
448.814575 88.0
448.848297 100.0
448.893555 248.0
448.968628 188.0
449.025421 32.0
449.068451 120.0
449.108734 120.0
449.119263 48.0
449.131775 76.0
449.195496 76.0
449.236328 124.0
449.367126 48.0
449.482697 72.0
449.558807 80.0
449.586548 120.0
449.6203 52.0
449.755371 40.0
449.903107 88.0
449.941101 36.0
450.025543 84.0
450.084656 76.0
450.209747 64.0
450.40564 80.0
450.490112 32.0
450.867798 104.0
451.111328 100.0
451.183197 88.0
451.271973 104.0
451.367004 48.0
451.618744 68.0
451.919098 100.0
452.562469 52.0
453.125763 80.0
453.380005 72.0
453.464783 48.0
454.032898 76.0
454.071075 56.0
454.283142 116.0
454.325562 72.0
454.461334 52.0
454.749908 148.0
455.199921 72.0
455.612488 60.0
456.070862 64.0
456.415222 76.0
457.751343 84.0
457.80246 56.0
458.08783 72.0
458.599152 104.0
458.701447 76.0
458.999908 64.0
459.396545 52.0
459.628967 84.0
460.152924 88.0
460.267212 60.0
460.707153 84.0
461.074615 112.0
461.121613 32.0
461.79715 80.0
462.023865 60.0
462.451782 124.0
463.681 52.0
464.761658 96.0
465.014862 76.0
465.147919 68.0
465.182251 80.0
465.392639 128.0
465.736176 96.0
465.800629 56.0
466.011139 52.0
466.230286 60.0
466.716034 56.0
466.961151 60.0
468.876099 72.0
470.334869 68.0
470.641388 48.0
472.088989 44.0
472.292267 52.0
473.621124 112.0
474.756653 136.0
477.118744 88.0
478.506622 120.0
479.621826 92.0
480.415466 112.0
480.786346 68.0
481.183563 76.0
482.310669 72.0
482.817841 64.0
484.454865 40.0
485.726105 104.0
486.73114 60.0
487.236267 64.0
487.363678 144.0
487.39444 88.0
487.429596 56.0
488.278046 120.0
490.673492 44.0
492.597626 124.0
492.875946 116.0
493.481506 40.0
493.521301 52.0
495.123199 80.0
495.894104 92.0
497.162537 64.0
499.334991 116.0
499.552948 48.0
500.924042 44.0
502.819031 72.0
503.917542 64.0
504.534302 72.0
504.848724 140.0
505.585449 120.0
506.274902 28.0
506.727295 32.0
507.71347 68.0
509.971771 100.0
513.718201 72.0
514.99115 48.0
516.627502 44.0
517.464722 56.0
518.447693 80.0
518.928162 76.0
519.885254 48.0
520.720642 136.0
527.400208 104.0
527.569336 124.0
528.621277 84.0
528.71283 64.0
529.692627 48.0
530.517517 52.0
531.35675 56.0
532.384949 92.0
534.623779 36.0
535.21759 96.0
536.212646 156.0
538.371765 84.0
538.635071 96.0
539.832092 72.0
542.448059 44.0
542.767944 68.0
543.282776 228.0
543.505432 116.0
544.88446 120.0
545.279419 68.0
546.59552 56.0
549.120483 52.0
549.335022 52.0
551.417542 96.0
552.446228 100.0
553.162231 56.0
553.415039 52.0
553.681946 128.0
554.253479 60.0
556.664551 56.0
557.040283 48.0
557.326904 92.0
558.064819 72.0
559.447998 64.0
559.612793 52.0
568.399841 88.0
568.523193 112.0
568.921936 32.0
569.848022 80.0
570.209167 56.0
571.212463 60.0
572.07373 68.0
572.630859 60.0
572.959534 68.0
573.455139 84.0
577.054504 52.0
577.130981 60.0
581.394348 52.0
582.320923 140.0
584.003174 112.0
584.744141 120.0
585.422913 76.0
589.344666 68.0
589.388123 72.0
590.519348 68.0
591.09021 72.0
592.03418 44.0
592.077759 56.0
592.513733 60.0
594.234863 84.0
595.113342 148.0
596.755615 36.0
598.049622 100.0
598.930908 136.0
599.749512 76.0
600.266296 120.0
603.826416 48.0
606.916504 56.0
609.87677 128.0
611.401428 104.0
612.194031 28.0
612.543762 60.0
614.155579 100.0
614.535461 64.0
614.732849 64.0
616.090637 84.0
618.751343 44.0
621.259033 88.0
621.740295 48.0
622.112549 76.0
624.20929 48.0
624.975281 80.0
628.138855 60.0
631.060425 64.0
632.060791 28.0
633.542786 72.0
634.139099 52.0
637.305603 64.0
637.345825 92.0
639.644165 128.0
641.135071 40.0
642.012268 68.0
642.62262 84.0
644.071472 52.0
644.329102 88.0
645.051758 108.0
646.295898 60.0
649.228882 88.0
651.030457 56.0
651.675537 104.0
654.213379 40.0
655.512146 40.0
655.761902 80.0
656.975464 140.0
657.215271 80.0
658.777527 112.0
660.101318 100.0
660.587219 44.0
661.226807 56.0
662.645203 60.0
663.311462 144.0
665.604736 76.0
666.431763 68.0
668.715027 112.0
668.776733 76.0
671.414673 96.0
672.018188 44.0
673.685791 56.0
676.882141 40.0
681.363525 84.0
683.068665 92.0
684.942566 40.0
691.071533 40.0
693.218384 100.0
693.742554 96.0
695.05896 36.0
697.9953 80.0
699.236816 88.0
699.505249 88.0
701.296204 36.0
708.37146 52.0
710.481384 64.0
711.521545 40.0
713.237427 72.0
715.10968 100.0
715.418396 56.0
718.712158 76.0
722.371826 108.0
722.810547 84.0
725.56897 84.0
726.427002 72.0
729.122437 72.0
729.725891 92.0
730.891663 40.0
731.05304 148.0
732.054382 60.0
732.759949 88.0
733.271912 104.0
734.478394 84.0
739.472168 60.0
740.842163 80.0
743.428467 88.0
744.481628 72.0
745.013916 76.0
747.270142 68.0
748.821594 60.0
755.562988 104.0
756.789001 104.0
757.763916 76.0
761.027344 196.0
761.334839 72.0
762.59845 48.0
762.78595 116.0
764.083191 88.0
766.858521 32.0
768.181885 116.0
769.81012 92.0
770.749146 104.0
772.883545 164.0
775.558411 112.0
775.75238 80.0
777.488464 132.0
778.843201 72.0
781.572876 140.0
781.784302 156.0
784.82019 52.0
786.789673 84.0
789.276001 96.0
791.139099 36.0
792.34314 52.0
798.574097 152.0
802.651367 140.0
806.925598 32.0
807.083923 76.0
808.492493 124.0
809.069824 140.0
813.906128 80.0
817.174316 192.0
818.825134 88.0
820.511841 164.0
822.428528 48.0
823.342041 40.0
823.382019 72.0
823.707581 32.0
825.347839 64.0
826.978271 128.0
829.546143 80.0
834.447144 52.0
835.286804 144.0
836.132568 164.0
836.690918 52.0
837.629578 52.0
838.718689 112.0
838.949219 80.0
841.557007 100.0
843.191772 72.0
844.012634 168.0
845.632446 116.0
847.74054 104.0
848.720154 72.0
849.450928 48.0
849.682983 56.0
851.215271 128.0
852.348022 192.0
852.615295 152.0
853.41748 156.0
854.31897 128.0
854.476074 140.0
855.983582 108.0
856.315491 48.0
858.151123 168.0
858.477661 48.0
861.688049 140.0
864.389404 80.0
868.502075 136.0
868.637024 72.0
869.005859 160.0
869.605164 128.0
870.121765 140.0
870.732422 108.0
875.337097 68.0
877.900513 68.0
878.449036 80.0
879.971619 40.0
881.034729 60.0
881.318298 40.0
882.169373 72.0
882.583191 56.0
884.085693 160.0
890.27478 100.0
890.910339 168.0
892.419922 132.0
893.008667 184.0
896.127991 144.0
896.68811 96.0
899.288513 156.0
900.482666 76.0
901.271179 96.0
903.321838 124.0
904.440796 136.0
907.574036 60.0
908.641602 84.0
908.731628 104.0
909.469727 92.0
911.031006 160.0
911.403503 136.0
911.523682 84.0
915.53009 152.0
915.765015 44.0
917.825989 60.0
918.332581 168.0
919.460815 84.0
919.623779 108.0
920.016113 192.0
921.441406 124.0
921.779785 80.0
922.650146 64.0
922.994751 68.0
923.224548 144.0
923.781006 72.0
923.865723 116.0
924.410217 164.0
924.876282 92.0
925.953979 88.0
926.480957 144.0
928.9422 152.0
931.916992 108.0
932.281616 140.0
932.354553 200.0
932.749573 148.0
934.397644 60.0
934.71405 68.0
936.174988 216.0
941.150818 160.0
942.421265 112.0
942.537415 204.0
945.790955 96.0
946.59906 120.0
946.648071 96.0
947.009399 148.0
947.664856 112.0
947.744507 120.0
949.743042 116.0
950.344238 84.0
951.571777 204.0
952.167419 84.0
952.376282 28.0
953.74646 76.0
955.049988 208.0
955.554443 100.0
955.966675 160.0
956.514465 40.0
956.631409 96.0
958.725586 96.0
958.86731 84.0
959.064575 176.0
959.853699 112.0
960.717163 140.0
961.519287 188.0
962.883728 160.0
963.692932 184.0
964.607605 236.0
965.083618 44.0
965.417542 168.0
966.110291 164.0
966.549561 56.0
967.539856 60.0
969.038635 132.0
969.342285 48.0
969.614929 128.0
971.921814 128.0
973.740662 52.0
975.362366 168.0
977.427124 140.0
978.254883 244.0
978.709412 104.0
978.902405 80.0
979.462952 132.0
982.099548 84.0
983.316223 148.0
983.803101 120.0
983.946655 104.0
984.140259 104.0
984.277588 104.0
985.676819 128.0
986.758118 112.0
988.05896 124.0
988.234192 168.0
990.231079 104.0
990.500427 132.0
990.832458 136.0
991.032959 88.0
992.926086 160.0
995.039978 68.0
995.819397 148.0
996.051758 140.0
996.90625 200.0
997.501709 140.0
997.974854 192.0
998.178101 136.0
998.421326 140.0
998.773499 152.0
999.163513 44.0
1003.736206 152.0
1004.007385 156.0
1004.518311 72.0
1006.114868 120.0
1006.537903 168.0
1009.596436 160.0
1009.906311 116.0
1011.045166 196.0
1011.448364 96.0
1011.627441 88.0
1011.722412 152.0
1012.349243 180.0
1014.040771 68.0
1014.687317 124.0
1014.839539 148.0
1016.533142 180.0
1017.117004 208.0
1017.275696 56.0
1017.624878 148.0
1019.117493 168.0
1020.972412 216.0
1021.724182 128.0
1022.317871 196.0
1022.653259 76.0
1023.837402 160.0
1025.672363 204.0
1026.749878 148.0
1027.432373 120.0
1027.936523 152.0
1028.006714 128.0
1028.057739 124.0
1029.660156 60.0
1030.196655 192.0
1030.279663 60.0
1030.599121 36.0
1031.557739 140.0
1031.871094 60.0
1032.56311 176.0
1034.04248 184.0
1035.185547 96.0
1035.697876 236.0
1035.87085 52.0
1036.062988 68.0
1038.441162 92.0
1039.326416 128.0
1039.705933 160.0
1040.565186 184.0
1041.438477 96.0
1041.721191 164.0
1042.723511 152.0
1043.031982 128.0
1044.33728 116.0
1046.081055 184.0
1046.191284 140.0
1046.789307 132.0
1047.703857 56.0
1047.993774 196.0
1048.200073 152.0
1048.734863 72.0
1048.921875 120.0
1050.050171 196.0
1050.372681 224.0
1051.637329 128.0
1051.927856 156.0
1052.418457 136.0
1053.619751 68.0
1054.537354 168.0
1055.992065 156.0
1057.680908 124.0
1058.872192 56.0
1058.917603 80.0
1059.850342 204.0
1060.699341 108.0
1061.133789 112.0
1062.171387 188.0
1062.249146 92.0
1062.404907 220.0
1063.663818 184.0
1064.702637 100.0
1065.371704 184.0
1065.93042 120.0
1066.405762 212.0
1066.561646 188.0
1067.191406 136.0
1067.255005 172.0
1067.627075 76.0
1067.991333 168.0
1068.615845 60.0
1069.741699 84.0
1070.529541 200.0
1071.936523 112.0
1071.982178 220.0
1072.412354 52.0
1072.72522 140.0
1072.783813 144.0
1073.377197 160.0
1074.544678 240.0
1074.923096 120.0
1075.14502 148.0
1075.438721 212.0
1075.771606 168.0
1076.398438 48.0
1076.470215 120.0
1078.417114 156.0
1081.491211 60.0
1082.348755 68.0
1083.5802 224.0
1083.901245 116.0
1083.953613 200.0
1084.256226 192.0
1084.707397 40.0
1085.644897 140.0
1086.149902 160.0
1086.418945 176.0
1086.556641 132.0
1086.64856 220.0
1086.733765 160.0
1087.350586 180.0
1087.508179 104.0
1087.869141 144.0
1088.49292 188.0
1089.228516 176.0
1089.655518 84.0
1090.700317 132.0
1091.007568 136.0
1091.949585 136.0
1092.112305 192.0
1092.35083 180.0
1092.910034 108.0
1093.581299 32.0
1094.509521 124.0
1094.772949 144.0
1095.286621 80.0
1095.833496 128.0
1096.960449 140.0
1097.105469 60.0
1097.929565 140.0
1098.839966 140.0
1098.8927 116.0
1100.582397 200.0
1101.374878 136.0
1103.040039 136.0
1103.727539 108.0
1103.785645 248.0
1104.005249 52.0
1104.177246 148.0
1104.4021 144.0
1104.547607 180.0
1104.818848 144.0
1105.692261 160.0
1105.963623 56.0
1106.135742 112.0
1107.366577 212.0
1107.466675 96.0
1109.249146 172.0
1109.67334 104.0
1109.865723 224.0
1111.358032 164.0
1111.470825 148.0
1112.785034 156.0
1113.402588 96.0
1113.581909 184.0
1113.812256 136.0
1114.040283 172.0
1114.691406 148.0
1114.77771 112.0
1115.023682 144.0
1115.256226 124.0
1115.310547 196.0
1115.621826 156.0
1116.415649 104.0
1116.652466 192.0
1116.865356 84.0
1117.011719 192.0
1117.271118 120.0
1117.710327 144.0
1119.048096 116.0
1119.507568 144.0
1119.707397 192.0
1120.526733 112.0
1121.106445 148.0
1122.659668 208.0
1122.746338 68.0
1122.806396 160.0
1123.766968 120.0
1124.641113 160.0
1125.328735 140.0
1125.834473 76.0
1125.989868 164.0
1127.218994 380.0
1127.346069 204.0
1127.619995 164.0
1127.86731 196.0
1129.184448 184.0
1131.479736 132.0
1133.314819 68.0
1133.596313 240.0
1133.669922 176.0
1134.058716 156.0
1135.01062 112.0
1135.178223 52.0
1136.695557 148.0
1136.768066 180.0
1136.915771 68.0
1137.560059 192.0
1138.278442 172.0
1138.856079 60.0
1139.514404 136.0
1139.971313 132.0
1140.865234 156.0
1141.006348 140.0
1141.539795 108.0
1141.772949 48.0
1142.089111 124.0
1142.263916 252.0
1143.165527 124.0
1143.367432 180.0
1143.515503 100.0
1143.562622 92.0
1144.377075 180.0
1144.572388 220.0
1145.737549 140.0
1146.869629 116.0
1147.489868 32.0
1147.752808 160.0
1148.926392 116.0
1148.987061 268.0
1149.719971 236.0
1150.55957 48.0
1152.612793 120.0
1153.498169 100.0
1154.505615 164.0
1155.709595 124.0
1156.399902 144.0
1157.347656 140.0
1157.692993 112.0
1158.05188 256.0
1159.1698 132.0
1160.145752 76.0
1161.936157 240.0
1163.001465 208.0
1163.137329 104.0
1164.033447 152.0
1164.189697 96.0
1164.393433 156.0
1165.779297 164.0
1166.445312 160.0
1167.152344 156.0
1167.764404 228.0
1167.954834 144.0
1168.145386 80.0
1170.166504 168.0
1170.602295 128.0
1170.915649 20.0
1171.00415 144.0
1171.222046 64.0
1172.951416 136.0
1173.150513 188.0
1173.205078 72.0
1173.273193 176.0
1176.042725 140.0
1176.145142 160.0
1177.551636 148.0
1178.159546 196.0
1179.189575 192.0
1180.045898 136.0
1180.770752 168.0
1182.214233 144.0
1182.816528 140.0
1182.905518 84.0
1184.60376 28.0
1184.994263 116.0
1185.364258 164.0
1185.528687 104.0
1186.906494 92.0
1187.064209 108.0
1187.544312 136.0
1187.688354 120.0
1187.87561 160.0
1188.219604 180.0
1188.415527 160.0
1188.717407 184.0
1189.019409 108.0
1189.074341 112.0
1189.24585 320.0
1189.343018 100.0
1189.499878 40.0
1189.946045 144.0
1190.268799 172.0
1190.536499 196.0
1190.921265 156.0
1191.017334 164.0
1191.477661 176.0
1193.202637 144.0
1193.388306 120.0
1194.755127 136.0
1194.860107 196.0
1195.066528 212.0
1195.142212 144.0
1195.341797 132.0
1195.720215 216.0
1195.830322 352.0
1195.9198 148.0
1196.505005 108.0
1196.814819 124.0
1199.177612 164.0
1199.701538 108.0
1199.825562 120.0
1200.984131 140.0
1201.23938 44.0
1203.040405 200.0
1203.206055 156.0
1203.447754 200.0
1204.842896 132.0
1204.89563 172.0
1205.015625 76.0
1205.967896 200.0
1206.204224 168.0
1206.542969 140.0
1206.681274 128.0
1207.71167 92.0
1208.237305 204.0
1208.514038 196.0
1208.652466 80.0
1209.199219 168.0
1209.48291 132.0
1210.002197 248.0
1210.1427 156.0
1211.394165 200.0
1212.04541 184.0
1214.292236 104.0
1214.957397 184.0
1215.394409 172.0
1215.442993 56.0
1215.706665 148.0
1215.769165 132.0
1216.171753 120.0
1216.574341 112.0
1216.629883 104.0
1216.768677 160.0
1217.532471 116.0
1217.581177 48.0
1217.693359 164.0
1218.117554 120.0
1218.657837 212.0
1220.45105 68.0
1220.72229 176.0
1221.334351 40.0
1221.410767 60.0
1221.814331 140.0
1223.282593 220.0
1223.533203 132.0
1223.644653 140.0
1223.80481 148.0
1224.396729 188.0
1224.912109 120.0
1226.891235 156.0
1227.03064 188.0
1227.260742 176.0
1228.278931 152.0
1228.530029 196.0
1229.109131 128.0
1229.800049 128.0
1230.295654 88.0
1231.37793 116.0
1231.573486 120.0
1231.657349 108.0
1232.551514 212.0
1233.963379 192.0
1234.480835 188.0
1235.355103 140.0
1235.669922 172.0
1235.746948 188.0
1236.061768 188.0
1236.817627 104.0
1237.034668 132.0
1238.028809 184.0
1238.498047 68.0
1239.163574 156.0
1239.43689 192.0
1240.032471 156.0
1240.157837 176.0
1240.446045 200.0
1240.614258 168.0
1241.364502 236.0
1242.05188 168.0
1242.493774 196.0
1244.353638 148.0
1244.40979 256.0
1245.406982 184.0
1245.547485 240.0
1245.685181 192.0
1245.793335 124.0
1246.362427 124.0
1246.594238 168.0
1246.84729 216.0
1247.247925 52.0
1248.03833 196.0
1248.225098 168.0
1248.274292 124.0
1248.527466 108.0
1249.388672 188.0
1250.251099 60.0
1250.511475 192.0
1251.166138 188.0
1251.616699 144.0
1252.109741 160.0
1252.158936 160.0
1252.447754 220.0
1253.102905 116.0
1253.342529 172.0
1253.758179 164.0
1255.245605 152.0
1255.372559 136.0
1255.626465 120.0
1256.162476 84.0
1256.263306 212.0
1257.044434 172.0
1257.100952 136.0
1257.489014 200.0
1257.817993 180.0
1258.194946 152.0
1258.872803 180.0
1259.070557 40.0
1260.377319 224.0
1260.532837 148.0
1261.536499 40.0
1261.621216 212.0
1261.812134 64.0
1262.342407 112.0
1262.604126 116.0
1262.759766 44.0
1263.665161 152.0
1264.238281 236.0
1265.002686 124.0
1265.44165 124.0
1265.625732 172.0
1266.196167 180.0
1266.843872 176.0
1267.17688 220.0
1267.545288 164.0
1267.977661 164.0
1268.764404 152.0
1268.92041 140.0
1269.047974 72.0
1271.623047 44.0
1271.772095 156.0
1272.261841 140.0
1272.872437 96.0
1273.220459 204.0
1274.037354 164.0
1274.101196 136.0
1274.357056 148.0
1274.449341 112.0
1275.941895 160.0
1276.077026 108.0
1277.357056 136.0
1278.26062 160.0
1278.523926 176.0
1279.605957 140.0
1280.151855 36.0
1280.310791 144.0
1280.966064 40.0
1281.058716 176.0
1281.870972 108.0
1282.091919 68.0
1282.500244 260.0
1282.612183 180.0
1282.768921 172.0
1282.947144 88.0
1283.460571 128.0
1283.703003 112.0
1283.845581 168.0
1284.544556 196.0
1285.871704 152.0
1286.299927 168.0
1286.828247 100.0
1286.985352 216.0
1287.235229 68.0
1288.778076 112.0
1288.921021 152.0
1289.614258 188.0
1290.450562 192.0
1290.572144 132.0
1290.686523 152.0
1292.131348 108.0
1292.231567 140.0
1293.963501 148.0
1294.321533 124.0
1294.396362 240.0
1296.391724 224.0
1297.732178 116.0
1298.612061 152.0
1299.345825 172.0
1299.396118 120.0
1300.084961 220.0
1300.529907 40.0
1301.570923 216.0
1302.461426 64.0
1302.655396 236.0
1303.754639 140.0
1303.848022 172.0
1304.006226 180.0
1305.746094 116.0
1305.832397 136.0
1306.098511 168.0
1307.688599 160.0
1308.170898 212.0
1308.293213 92.0
1309.020508 156.0
1310.309814 180.0
1310.684448 60.0
1311.244995 128.0
1311.671753 132.0
1311.895264 172.0
1313.432007 200.0
1314.758667 108.0
1315.379395 140.0
1315.567139 108.0
1315.812622 188.0
1315.884766 64.0
1316.325195 92.0
1316.375732 60.0
1316.679077 44.0
1317.560303 220.0
1317.625366 88.0
1319.475464 124.0
1320.111816 72.0
1320.307007 116.0
1320.704834 132.0
1320.994141 108.0
1321.182251 176.0
1321.421021 168.0
1321.47168 136.0
1323.179688 44.0
1324.693237 44.0
1324.881592 168.0
1325.519165 88.0
1326.388916 172.0
1326.584595 164.0
1326.671631 176.0
1327.055786 228.0
1327.360352 140.0
1327.751953 96.0
1328.085571 136.0
1328.760254 100.0
1331.133667 80.0
1331.511353 180.0
1332.034302 140.0
1332.448364 84.0
1333.523804 144.0
1333.836426 152.0
1334.010864 132.0
1335.000366 208.0
1335.741455 212.0
1335.843384 236.0
1335.916138 136.0
1336.774658 116.0
1337.022095 44.0
1337.305908 68.0
1339.555908 156.0
1340.452515 184.0
1341.100586 152.0
1341.180786 152.0
1342.551514 44.0
1342.872314 156.0
1343.674805 160.0
1344.031006 112.0
1344.30957 112.0
1345.067993 228.0
1346.506958 196.0
1346.908691 144.0
1348.245728 148.0
1348.633057 144.0
1349.576172 112.0
1350.26355 116.0
1351.024292 116.0
1351.258423 112.0
1352.114502 84.0
1352.187744 108.0
1352.692749 152.0
1353.388184 164.0
1353.681152 200.0
1353.754395 124.0
1353.88623 104.0
1354.391479 84.0
1354.918945 148.0
1355.387817 168.0
1356.934448 168.0
1357.396362 216.0
1357.520996 228.0
1357.836304 136.0
1357.997681 160.0
1358.107666 176.0
1358.24707 168.0
1359.736572 204.0
1359.920044 132.0
1360.433838 136.0
1360.668701 200.0
1361.00647 100.0
1361.08728 152.0
1361.792236 100.0
1362.475342 160.0
1363.114624 140.0
1364.290649 192.0
1364.430298 96.0
1364.834717 96.0
1364.900879 152.0
1365.172974 108.0
1365.51123 188.0
1365.952515 152.0
1366.555786 152.0
1367.210693 160.0
1367.394653 160.0
1367.939331 132.0
1369.294189 188.0
1369.375122 104.0
1370.14856 188.0
1370.649658 116.0
1370.767578 88.0
1371.165527 32.0
1371.231812 244.0
1371.364502 108.0
1371.423462 200.0
1371.526611 136.0
1371.954224 68.0
1372.19751 136.0
1372.684082 212.0
1372.816895 156.0
1373.952759 148.0
1374.078125 136.0
1374.351196 152.0
1374.81604 204.0
1374.882446 108.0
1375.340088 128.0
1375.598389 148.0
1375.745972 180.0
1375.886353 136.0
1376.565552 96.0
1377.008667 380.0
1377.37793 104.0
1377.518311 200.0
1377.710449 180.0
1378.005981 228.0
1378.072388 124.0
1378.183228 92.0
1379.23999 92.0
1379.779663 124.0
1380.422974 104.0
1380.600464 120.0
1380.903687 60.0
1381.053223 192.0
1381.739502 168.0
1382.257446 112.0
1382.620117 48.0
1383.241821 160.0
1383.500854 168.0
1383.641602 196.0
1384.322754 152.0
1384.475098 184.0
1385.041138 204.0
1385.56604 168.0
1385.722656 136.0
1386.21167 196.0
1387.476929 172.0
1387.931396 112.0
1388.013062 144.0
1388.071533 176.0
1388.873291 160.0
1389.05127 172.0
1389.177368 160.0
1389.244141 156.0
1389.422241 56.0
1390.019043 212.0
1390.08252 52.0
1390.171631 64.0
1390.320068 180.0
1392.614136 100.0
1393.052368 164.0
1393.25293 80.0
1393.312378 164.0
1393.90686 152.0
1394.575684 44.0
1394.917603 232.0
1395.058838 136.0
1395.118286 116.0
1395.571777 180.0
1396.48645 120.0
1396.612915 52.0
1396.83606 168.0
1397.341919 144.0
1397.818115 124.0
1398.071167 144.0
1398.435791 156.0
1398.688965 44.0
1398.748413 116.0
1398.81543 92.0
1399.59314 172.0
1399.822632 184.0
1400.01416 128.0
1400.401489 156.0
1400.542969 136.0
1402.542358 220.0
1402.606934 112.0
1403.277832 32.0
1403.605957 160.0
1403.814697 144.0
1404.2771 196.0
1404.508301 168.0
1404.622803 200.0
1405.202148 128.0
1405.306641 116.0
1405.709473 144.0
1406.015503 132.0
1406.351318 204.0
1406.888794 136.0
1407.000732 148.0
1407.351685 116.0
1407.62793 144.0
1408.016235 188.0
1409.009766 164.0
1409.301147 144.0
1409.405762 160.0
1409.532715 108.0
1411.020142 100.0
1411.565918 164.0
1412.34375 176.0
1412.44104 124.0
1413.204102 180.0
1414.124512 56.0
1414.685913 208.0
1414.745728 176.0
1415.060181 68.0
1415.389648 140.0
1415.449585 160.0
1415.779053 124.0
1416.153931 148.0
1416.82019 180.0
1418.102417 144.0
1418.483765 84.0
1419.158569 88.0
1419.36853 132.0
1419.855957 236.0
1419.915894 160.0
1420.005981 212.0
1420.148438 144.0
1420.425903 128.0
1420.490601 156.0
1420.553467 208.0
1420.942871 132.0
1421.656372 180.0
1422.159058 128.0
1422.797363 212.0
1423.067627 52.0
1423.277832 152.0
1423.457275 168.0
1423.886108 160.0
1425.283325 132.0
1426.042358 108.0
1426.312988 40.0
1426.711304 184.0
1426.779053 220.0
1427.169922 220.0
1427.35791 104.0
1427.425659 136.0
1427.515869 152.0
1427.895996 152.0
1428.478516 180.0
1428.922485 200.0
1429.012695 172.0
1429.403931 200.0
1429.516846 152.0
1430.856689 140.0
1431.315918 48.0
1431.797852 152.0
1432.568237 172.0
1432.703369 72.0
1433.039307 168.0
1433.410034 112.0
1433.553101 88.0
1433.741577 156.0
1434.321899 192.0
1434.733276 176.0
1436.048584 116.0
1436.244629 92.0
1436.410645 84.0
1436.463379 112.0
1436.616333 168.0
1436.908569 188.0
1437.444214 172.0
1437.708374 136.0
1437.83667 156.0
1438.591431 156.0
1438.810425 60.0
1438.946289 48.0
1439.05957 208.0
1439.180298 144.0
1439.285767 140.0
1439.595581 156.0
1440.109131 132.0
1440.411377 204.0
1441.098755 176.0
1441.202637 112.0
1441.468994 112.0
1441.809082 100.0
1441.884644 152.0
1442.050903 28.0
1442.391113 132.0
1442.5271 64.0
1442.663208 88.0
1442.920288 168.0
1443.404175 220.0
1444.319214 172.0
1444.720215 128.0
1445.522217 140.0
1446.854248 180.0
1446.998169 80.0
1447.528198 220.0
1447.785645 164.0
1448.096191 200.0
1448.527832 160.0
1449.171875 76.0
1449.398438 184.0
1449.770386 80.0
1449.959961 184.0
1450.399536 68.0
1450.755737 164.0
1450.846802 72.0
1451.089355 112.0
1451.203125 148.0
1452.143433 64.0
1452.598511 200.0
1453.478516 140.0
1453.622803 88.0
1454.282959 164.0
1454.336182 124.0
1454.897827 56.0
1455.049683 164.0
1455.406494 148.0
1455.733032 32.0
1456.568481 112.0
1457.047119 164.0
1458.45874 172.0
1458.67334 144.0
1459.053467 144.0
1459.327148 112.0
1460.528687 192.0
1460.954712 168.0
1461.388306 236.0
1463.131226 188.0
1463.390015 148.0
1463.976318 152.0
1465.789307 144.0
1465.895996 148.0
1466.05603 112.0
1466.147583 156.0
1466.924927 240.0
1467.706543 172.0
1468.831299 152.0
1470.113037 168.0
1470.326782 196.0
1471.265625 228.0
1472.074951 144.0
1472.433838 144.0
1472.502563 68.0
1472.991455 168.0
1473.190063 128.0
1473.640869 184.0
1473.716309 140.0
1474.703003 92.0
1474.75647 36.0
1474.810059 196.0
1475.18457 168.0
1475.398682 204.0
1475.498047 88.0
1476.079102 96.0
1476.446167 116.0
1476.797974 124.0
1477.12439 180.0
1477.731201 52.0
1478.423706 204.0
1478.550049 132.0
1479.652222 204.0
1479.812988 152.0
1480.36438 184.0
1480.839111 204.0
1481.337036 164.0
1481.750732 52.0
1481.865601 156.0
1481.957642 76.0
1482.087891 204.0
1482.831177 200.0
1482.915527 88.0
1484.034668 56.0
1484.195679 152.0
1484.563843 160.0
1484.832153 124.0
1485.407471 140.0
1486.542969 72.0
1486.757812 184.0
1486.880615 180.0
1487.011108 148.0
1487.379517 240.0
1489.122437 152.0
1489.276001 192.0
1489.521851 148.0
1489.621704 160.0
1489.80603 80.0
1490.505249 116.0
1490.570679 180.0
1491.066162 84.0
1491.166138 140.0
1491.973267 160.0
1492.0271 176.0
1492.226929 76.0
1492.396118 120.0
1492.565308 176.0
1492.764404 160.0
1492.988159 44.0
1493.172729 156.0
1493.518921 148.0
1494.265015 148.0
1494.518921 72.0
1494.69873 200.0
1495.026855 140.0
1495.557861 116.0
1495.657959 192.0
1496.258423 220.0
1496.689575 168.0
1496.758789 140.0
1497.490479 212.0
1497.552002 168.0
1497.903442 176.0
1497.975708 192.0
1498.160522 136.0
1498.330078 164.0
1498.666382 136.0
1498.846313 100.0
1499.169922 200.0
1499.501343 124.0
1499.724854 160.0
1500.249023 148.0
1500.380005 132.0
1500.503418 180.0
1500.688477 160.0
1500.750122 120.0
1501.749878 192.0
1502.092041 124.0
1502.477783 200.0
1502.701416 156.0
1503.041016 172.0
1503.395874 80.0
1503.635132 80.0
1504.044189 204.0
1504.268066 172.0
