>compound MLS002222218-01!26155-31-7
>formula C12H16N2S
>ionization [M+H]+
>parentmass 221.110214
#inchi InChI=1S/C12H16N2S/c1-10-6-9-15-11(10)4-5-12-13-7-3-8-14(12)2/h4-6,9H,3,7-8H2,1-2H3/b5-4+
#inchikey NVEPPWDVLBMNMB
#origInchi InChI=1S/C12H16N2S.C4H6O4/c1-10-6-9-15-11(10)4-5-12-13-7-3-8-14(12)2;5-3(6)1-2-4(7)8/h4-6,9H,3,7-8H2,1-2H3;1-2H2,(H,5,6)(H,7,8)/b5-4+;
#Ion_Source LC-ESI
#Instrument qTof
#Compound_Source NIH Pharmacologically Active Library
#PI Dorrestein
#Data_Collector VP/LMS
#Scan -1
#Precursor_MZ 221.109
#ExactMass 220.103
#Charge 1
#CAS_Number N/A
#Pubmed_ID N/A
#Smiles CN1CCCN=C1/C=C/c2sccc2C.OC(=O)CCC(=O)O
#INCHI_AUX N/A
#Library_Class 1
#SpectrumID CCMSLIB00000085262
#IonMode Positive
#UpdateWorkflowName UPDATE-SINGLE-ANNOTATED-GOLD
#LibraryQualityString Gold
#TaskID d252d724072548979f1f6f1ced849daf
##Scan# 1388
#SpectrumFile p3-G07_GG7_01_18300.mzXML
#LibraryName Pharm_Active_Library.mgf
#MQScore -1
#Organism Pharm_Active_Library
#TIC_Query 0
#RT_Query -1
#MZErrorPPM -1
#SharedPeaks 0
#MassDiff 0
#LibMZ -1
#SpecMZ 221.109
#SpecCharge 0
#internalFilename spec-00000.mgf

>collision 10
44.928761 208.0
44.971466 192.0
45.067623 60.0
45.105045 224.0
45.205364 188.0
45.274982 208.0
45.285698 56.0
45.299091 140.0
45.347122 176.0
45.363419 88.0
45.497581 116.0
45.521751 156.0
45.545929 128.0
45.594303 136.0
46.006508 160.0
46.074036 64.0
46.098198 168.0
46.150692 168.0
46.172718 176.0
46.455833 144.0
46.601109 168.0
46.703075 236.0
46.753418 120.0
46.787453 200.0
46.81741 48.0
46.964615 156.0
46.987808 160.0
47.071075 140.0
47.236034 168.0
47.263824 160.0
47.373363 164.0
47.426807 160.0
47.439144 40.0
47.574966 212.0
47.584976 180.0
47.596939 192.0
47.612045 168.0
47.654633 160.0
47.746738 200.0
47.765995 212.0
47.815533 184.0
47.882999 152.0
47.975327 148.0
48.060844 224.0
48.082924 128.0
48.187878 76.0
48.281883 140.0
48.398132 176.0
48.527 208.0
48.769955 192.0
48.847828 40.0
48.916019 140.0
48.961971 196.0
49.12088 156.0
49.137619 216.0
49.165531 124.0
49.218578 92.0
49.323368 188.0
49.400284 152.0
49.453461 128.0
49.481461 160.0
49.558498 176.0
49.590733 168.0
49.629986 224.0
49.642609 160.0
49.669258 236.0
49.707142 156.0
49.836334 148.0
49.965694 128.0
50.086765 116.0
50.247486 104.0
50.291237 60.0
50.419769 180.0
50.448044 156.0
50.524414 132.0
50.568283 184.0
50.581024 180.0
50.62067 156.0
50.833954 148.0
51.194424 188.0
51.244282 140.0
51.309563 260.0
51.328384 128.0
51.371174 164.0
51.50108 200.0
51.561092 196.0
51.586823 164.0
51.708412 148.0
51.721909 144.0
51.920464 148.0
52.002247 136.0
52.038139 220.0
52.163136 80.0
52.178951 168.0
52.203396 168.0
52.283962 160.0
52.367474 176.0
52.387642 132.0
52.586643 92.0
52.686287 132.0
52.697845 156.0
52.742649 164.0
52.948116 172.0
52.994476 140.0
53.094505 200.0
53.402428 140.0
53.469929 204.0
53.497017 180.0
53.590233 128.0
53.600433 152.0
53.638329 188.0
53.674778 160.0
53.714157 104.0
53.763771 180.0
53.813404 144.0
53.868904 100.0
53.968292 180.0
54.019482 176.0
54.1483 172.0
54.206902 116.0
54.291935 208.0
54.662155 56.0
54.7122 84.0
54.749016 248.0
54.785839 120.0
54.88607 96.0
54.934742 196.0
55.02182 192.0
55.114876 184.0
55.406368 52.0
55.502716 188.0
55.654072 160.0
55.704571 116.0
55.793743 108.0
55.844303 272.0
55.902328 136.0
56.069134 144.0
56.08255 192.0
56.151138 188.0
56.276497 272.0
56.289299 56.0
56.346699 148.0
56.548588 168.0
56.589008 56.0
56.777832 144.0
56.833336 136.0
56.857349 60.0
56.893375 64.0
57.313026 212.0
57.487957 112.0
57.531731 124.0
57.555889 124.0
57.599888 152.0
57.779598 164.0
57.811375 252.0
57.974941 188.0
58.046192 56.0
58.058327 240.0
58.166058 176.0
58.220722 148.0
58.398552 76.0
58.5797 168.0
58.712315 188.0
58.744347 124.0
58.878677 124.0
58.893951 252.0
58.974937 136.0
59.348499 168.0
59.420589 196.0
59.557224 176.0
59.68679 172.0
60.068302 132.0
60.137741 88.0
60.155529 184.0
60.213402 144.0
60.28447 136.0
60.388062 144.0
60.477806 196.0
60.828144 36.0
60.84988 228.0
60.873173 140.0
60.981926 192.0
61.327484 176.0
61.38829 192.0
61.524044 212.0
61.539658 112.0
61.647446 176.0
61.833561 100.0
61.858608 144.0
61.886791 224.0
62.059155 148.0
62.271019 152.0
62.371582 224.0
62.385731 104.0
62.432907 164.0
62.710014 104.0
62.785698 152.0
62.845646 136.0
62.951412 148.0
63.031979 172.0
63.109436 120.0
63.167953 168.0
63.270824 72.0
63.678379 176.0
63.789612 144.0
63.924812 80.0
63.947094 32.0
64.107956 172.0
64.174911 160.0
64.203613 136.0
64.256256 140.0
64.379173 88.0
64.537376 188.0
64.655762 200.0
64.739014 124.0
64.795074 52.0
64.844086 248.0
65.165718 128.0
65.266983 168.0
65.278244 144.0
65.345802 176.0
65.387199 172.0
65.587379 196.0
65.624458 164.0
65.655098 212.0
65.688972 192.0
65.78096 156.0
65.797104 144.0
65.845551 200.0
66.099373 208.0
66.118797 128.0
66.245094 208.0
66.275879 136.0
66.488327 92.0
66.645851 172.0
66.797058 152.0
66.992416 160.0
67.069725 196.0
67.14238 152.0
67.251701 136.0
67.300682 124.0
67.563835 160.0
67.853729 132.0
67.870125 256.0
68.1689 140.0
68.282341 84.0
68.441978 156.0
68.568832 140.0
68.735703 152.0
68.750252 164.0
68.939011 220.0
69.05426 188.0
69.241295 228.0
69.329102 112.0
69.571281 188.0
69.606155 60.0
69.687546 164.0
69.714134 104.0
69.842163 212.0
69.998611 208.0
70.280334 184.0
70.368797 92.0
70.464005 88.0
70.718201 164.0
70.801918 256.0
70.957764 40.0
71.086929 164.0
71.100349 52.0
71.169182 196.0
71.201088 144.0
71.439789 164.0
71.567703 112.0
71.579491 152.0
71.672142 128.0
71.795204 164.0
71.909935 208.0
71.967339 172.0
72.016312 128.0
72.073753 52.0
72.341202 192.0
72.447685 104.0
72.530724 92.0
72.678276 96.0
72.749565 188.0
72.863358 160.0
73.002747 196.0
73.222298 184.0
73.244438 196.0
73.807663 212.0
74.148346 124.0
74.174057 156.0
74.187775 200.0
74.259796 188.0
74.94059 120.0
74.964714 68.0
75.021591 104.0
75.035385 156.0
75.473969 208.0
75.536232 176.0
75.653915 156.0
75.742935 148.0
75.797676 220.0
75.858337 40.0
75.877411 204.0
75.903419 148.0
75.957184 148.0
76.054367 152.0
76.287148 184.0
76.349747 140.0
76.417587 136.0
76.429771 196.0
76.6213 168.0
76.9981 192.0
77.151878 184.0
77.174606 260.0
77.248062 176.0
77.286774 196.0
77.346062 192.0
77.444824 288.0
77.461639 168.0
77.522964 176.0
77.563278 164.0
77.657791 160.0
77.759735 104.0
77.817665 216.0
77.8405 120.0
77.884125 200.0
78.04258 124.0
78.0672 204.0
78.160439 136.0
78.219154 176.0
78.364693 96.0
78.392891 168.0
78.484558 208.0
78.634514 148.0
78.706902 224.0
78.770485 136.0
78.883583 132.0
78.918945 136.0
79.152519 184.0
79.230278 180.0
79.29425 96.0
79.345665 180.0
79.436111 184.0
79.905144 176.0
79.94429 176.0
80.184723 168.0
80.337318 196.0
80.352356 120.0
80.410187 108.0
80.53643 216.0
80.813339 60.0
80.958344 180.0
81.110641 176.0
81.214645 188.0
81.365395 200.0
81.399513 176.0
81.455193 120.0
81.536835 228.0
81.624763 212.0
81.77887 64.0
82.067116 196.0
82.121223 180.0
82.467903 156.0
82.482368 156.0
82.498634 152.0
82.605339 152.0
82.885979 260.0
82.992928 76.0
83.038261 192.0
83.079987 124.0
83.179802 160.0
83.389122 152.0
83.406876 120.0
83.428688 92.0
83.52507 188.0
83.543266 156.0
83.594215 188.0
83.728935 128.0
83.922104 196.0
84.135582 300.0
84.19767 192.0
84.404175 168.0
84.446243 32.0
84.530403 156.0
84.565178 144.0
84.583481 156.0
84.643898 112.0
84.726326 168.0
84.750145 64.0
84.803291 168.0
84.920647 192.0
85.164772 160.0
85.287888 128.0
85.530701 52.0
85.543587 72.0
85.609871 164.0
85.666977 96.0
85.785744 152.0
85.89003 36.0
85.910324 104.0
86.054291 144.0
86.094917 148.0
86.372169 180.0
86.455429 136.0
86.722137 184.0
86.929863 164.0
87.035675 168.0
87.067245 176.0
87.089539 132.0
87.19545 192.0
87.286545 56.0
87.301422 240.0
87.446541 204.0
87.722237 192.0
87.737152 160.0
87.800552 120.0
87.83226 88.0
88.069328 148.0
88.144058 88.0
88.510704 176.0
88.59874 192.0
88.834961 280.0
89.00576 136.0
89.041908 256.0
89.125984 200.0
89.257568 208.0
89.282425 168.0
89.30835 200.0
89.513763 172.0
89.839584 88.0
90.077454 72.0
90.103905 84.0
90.211632 128.0
90.378075 116.0
90.616653 224.0
90.832779 136.0
90.982704 188.0
91.051727 508.0
91.096657 172.0
91.113754 148.0
91.187866 152.0
91.201172 160.0
91.256302 116.0
91.366623 288.0
91.488426 152.0
91.694153 176.0
91.737999 140.0
91.800919 152.0
91.87722 144.0
92.047104 180.0
92.0662 112.0
92.182732 232.0
92.209488 152.0
92.224785 112.0
92.335686 224.0
92.473442 208.0
92.522926 188.0
92.530632 160.0
93.033699 228.0
93.077354 132.0
93.140732 256.0
93.21759 116.0
93.341805 228.0
93.775459 144.0
93.823921 156.0
93.84127 148.0
93.901054 156.0
93.914558 144.0
94.064026 360.0
94.117203 176.0
94.285271 180.0
94.352928 140.0
94.388824 92.0
94.447693 168.0
94.484451 156.0
94.678268 160.0
94.695213 160.0
94.726448 44.0
94.753571 140.0
94.821396 100.0
95.019196 160.0
95.05024 152.0
95.1007 132.0
95.213318 148.0
95.244392 108.0
95.384308 96.0
95.625511 148.0
95.759857 92.0
95.999443 168.0
96.042496 108.0
96.083458 140.0
96.345078 196.0
96.395882 156.0
96.650383 196.0
97.008453 784.0
97.032051 48.0
97.076736 132.0
97.39119 120.0
97.430481 200.0
97.507118 132.0
97.619179 132.0
97.666382 76.0
97.699821 124.0
97.825783 212.0
97.84153 176.0
98.020775 188.0
98.083847 168.0
98.257393 136.0
98.283043 120.0
98.474541 148.0
98.508125 240.0
98.557518 152.0
98.612854 188.0
98.65239 128.0
98.684021 136.0
98.792809 160.0
98.938133 168.0
99.004601 112.0
99.024406 220.0
99.091766 172.0
99.157158 144.0
99.214645 124.0
99.311821 136.0
99.466599 208.0
99.639374 320.0
99.70694 176.0
99.766571 116.0
99.798386 168.0
99.854073 168.0
99.923157 208.0
100.102844 256.0
100.16658 184.0
100.210411 88.0
100.282158 72.0
100.338699 208.0
100.543442 116.0
100.627281 160.0
100.679199 196.0
100.703171 192.0
100.91301 132.0
101.463615 208.0
101.533798 224.0
101.630089 212.0
101.681244 200.0
101.754539 200.0
101.806747 116.0
101.864998 156.0
102.325554 252.0
102.369858 280.0
102.54715 156.0
102.599564 228.0
102.766975 180.0
102.803299 228.0
102.872993 144.0
102.916344 152.0
103.056099 224.0
103.399506 148.0
103.664818 156.0
103.770226 160.0
103.786446 192.0
103.95076 52.0
104.005562 192.0
104.054626 188.0
104.059326 220.0
104.148735 220.0
104.281807 168.0
104.361092 180.0
104.568596 188.0
104.696869 248.0
104.715195 36.0
104.838921 248.0
105.054222 320.0
105.066666 504.0
105.131119 132.0
105.214813 148.0
105.263817 176.0
105.288322 180.0
105.38842 108.0
105.521286 152.0
105.549911 132.0
105.842537 236.0
105.998222 212.0
106.065475 2064.0
106.552505 156.0
106.920074 164.0
106.924156 144.0
107.068146 268.0
107.109764 172.0
107.295235 160.0
107.315857 188.0
107.5439 204.0
107.565498 72.0
107.699722 204.0
107.870636 96.0
107.91465 172.0
107.982895 144.0
108.00235 188.0
108.065407 212.0
108.082199 196.0
108.140152 176.0
108.254021 140.0
108.332733 132.0
108.720482 68.0
108.805588 196.0
108.888657 144.0
109.008751 428.0
109.048645 84.0
109.074585 540.0
109.225388 148.0
109.362724 108.0
109.441841 176.0
109.598061 100.0
109.658501 120.0
109.985641 196.0
110.016754 628.0
110.036087 72.0
110.178116 124.0
110.234528 92.0
110.299324 52.0
110.339043 204.0
110.370407 136.0
110.564789 192.0
110.573097 176.0
110.680107 132.0
110.742935 128.0
110.843498 40.0
110.906372 180.0
111.025978 10240.0
111.090561 1140.0
111.206329 44.0
111.275604 56.0
111.298698 172.0
111.374306 76.0
111.403717 192.0
111.476974 148.0
111.717819 128.0
111.893753 128.0
111.944061 184.0
111.988518 164.0
112.030777 400.0
112.098076 208.0
112.146553 92.0
112.171844 84.0
112.458733 216.0
112.633995 144.0
112.773453 116.0
112.800934 100.0
112.819962 132.0
112.834763 136.0
112.910889 80.0
112.944733 184.0
113.021652 628.0
113.080154 216.0
113.190239 88.0
113.236832 220.0
113.450859 68.0
113.535675 172.0
113.677818 124.0
113.916191 256.0
113.972992 140.0
114.113281 176.0
114.255783 48.0
114.345161 76.0
114.389862 124.0
114.411148 48.0
114.538925 112.0
114.641197 184.0
114.750549 228.0
115.055016 160.0
115.14257 144.0
115.317772 28.0
115.567986 128.0
115.655731 172.0
115.934174 164.0
116.048622 392.0
116.116409 212.0
116.182907 56.0
116.29879 212.0
116.352463 60.0
116.530731 188.0
116.560814 116.0
116.603798 128.0
116.676888 64.0
116.803772 368.0
116.825279 196.0
116.965164 88.0
116.997452 136.0
117.012527 124.0
117.035881 132.0
117.057404 3848.0
117.090729 152.0
117.131691 60.0
117.816284 120.0
118.061264 1300.0
118.082886 112.0
118.186729 92.0
118.316597 256.0
118.453033 152.0
118.797729 160.0
118.815086 196.0
118.847633 120.0
118.951805 92.0
119.058884 180.0
119.073402 120.0
119.345055 84.0
119.582184 180.0
119.627899 212.0
119.667091 176.0
119.812294 60.0
119.880569 40.0
119.911079 196.0
119.939415 196.0
120.081146 328.0
120.148773 140.0
120.456596 148.0
120.489365 252.0
120.568031 52.0
120.607376 128.0
120.646721 144.0
120.854507 164.0
120.872017 132.0
121.010017 1132.0
121.073975 448.0
121.143517 188.0
121.312263 164.0
121.375847 124.0
121.404358 168.0
121.65889 144.0
121.731346 152.0
121.755508 44.0
122.017853 2724.0
122.041191 60.0
122.083382 260.0
122.256775 88.0
122.28759 84.0
122.415283 128.0
122.476952 128.0
122.558472 164.0
122.657646 140.0
122.849579 116.0
122.91349 180.0
122.979706 164.0
123.025818 28976.0
123.064064 288.0
123.091286 304.0
123.127632 152.0
123.160767 44.0
123.20623 76.0
123.24472 48.0
123.350807 48.0
123.389099 68.0
123.56427 92.0
123.616226 140.0
123.664917 92.0
123.689766 164.0
123.722473 40.0
123.742401 40.0
123.760109 168.0
123.79776 68.0
123.826668 76.0
123.955879 212.0
123.997154 60.0
124.029114 2084.0
124.096725 140.0
124.130173 256.0
124.155746 68.0
124.309868 56.0
124.411415 80.0
124.483025 32.0
124.629639 88.0
124.70742 92.0
124.758545 268.0
124.783005 28.0
124.880852 96.0
124.909546 160.0
124.982368 88.0
125.020264 1140.0
125.040855 340.0
125.063309 176.0
125.078896 60.0
125.096703 128.0
125.23922 244.0
125.323883 136.0
125.379593 88.0
125.421944 156.0
125.473213 172.0
125.604797 72.0
125.62487 192.0
125.709663 76.0
125.816803 200.0
126.002182 192.0
126.03006 200.0
126.230179 124.0
126.299507 60.0
126.386765 180.0
126.655426 132.0
126.724876 236.0
126.951286 128.0
127.014084 280.0
127.031654 168.0
127.083633 148.0
127.278923 48.0
127.339561 172.0
127.744171 152.0
127.838676 204.0
127.964737 84.0
127.980499 160.0
128.057068 164.0
128.374847 124.0
128.3974 148.0
128.598206 108.0
128.82402 236.0
129.031952 72.0
129.32605 92.0
129.470947 136.0
129.837662 204.0
130.026413 176.0
130.065842 972.0
130.171722 192.0
130.219406 124.0
130.462555 56.0
131.029266 156.0
131.071793 896.0
131.243515 152.0
131.503601 164.0
131.597244 164.0
131.638306 84.0
131.691925 168.0
131.846191 192.0
132.079926 640.0
132.113739 56.0
132.24646 116.0
132.301392 52.0
132.331161 136.0
132.502945 52.0
132.665665 124.0
132.709229 140.0
132.83078 104.0
133.009872 908.0
133.072601 200.0
133.101608 88.0
133.136063 84.0
133.23024 152.0
133.942612 236.0
134.015167 828.0
134.058609 100.0
134.279938 168.0
134.383743 148.0
134.436813 60.0
134.467102 164.0
134.482727 180.0
134.579941 160.0
134.616882 148.0
134.66539 156.0
134.884903 124.0
134.984329 148.0
135.018692 484.0
135.053711 160.0
135.090973 496.0
135.187912 172.0
135.9086 172.0
136.018677 336.0
136.098083 1924.0
136.143066 48.0
136.160416 72.0
136.189514 44.0
136.519562 180.0
136.58934 116.0
136.728943 156.0
137.002151 184.0
137.040115 1336.0
137.102951 376.0
137.178497 128.0
137.37439 60.0
137.505066 168.0
137.729233 204.0
137.853058 108.0
138.036057 1480.0
138.068146 136.0
138.110245 156.0
138.173401 128.0
138.751907 64.0
138.871506 176.0
138.928604 116.0
139.036255 516.0
139.129639 100.0
139.235306 200.0
139.458527 172.0
140.004379 140.0
140.037354 132.0
140.138657 164.0
140.5513 152.0
140.725967 164.0
140.936203 48.0
141.075653 132.0
141.262466 188.0
141.408066 148.0
141.532288 212.0
141.560699 44.0
141.908676 180.0
142.068756 224.0
142.357529 148.0
142.405029 124.0
142.611755 144.0
142.683075 228.0
142.82576 164.0
142.92807 200.0
143.048981 164.0
143.067627 360.0
143.311432 152.0
143.676224 160.0
144.076508 176.0
144.438309 184.0
144.478973 244.0
144.981827 80.0
145.076096 768.0
145.485565 120.0
145.540787 184.0
145.773804 64.0
145.930038 188.0
146.092285 356.0
146.237976 120.0
146.401703 68.0
146.428192 68.0
146.486008 116.0
146.66507 220.0
146.859634 204.0
146.929596 152.0
146.98027 84.0
147.024231 236.0
147.090057 348.0
147.468109 60.0
147.613174 168.0
147.910767 204.0
147.968872 192.0
148.021393 644.0
148.077286 156.0
148.110306 456.0
148.13356 212.0
148.249863 100.0
148.305618 108.0
148.392883 148.0
148.41713 192.0
148.443802 40.0
148.514145 128.0
148.533554 188.0
148.57074 188.0
148.640305 56.0
148.717972 52.0
148.749527 152.0
148.771378 176.0
148.958374 80.0
148.994354 212.0
149.029373 9708.0
149.106674 812.0
149.200546 208.0
149.267044 156.0
149.320541 40.0
149.403259 176.0
149.47139 96.0
149.488419 152.0
149.593079 40.0
149.705078 152.0
149.7742 192.0
150.006836 336.0
150.036194 26552.0
150.082809 100.0
150.113266 244.0
150.134903 44.0
150.161163 60.0
150.198563 148.0
150.229141 52.0
150.29921 28.0
150.363358 144.0
150.44635 68.0
150.49762 68.0
150.607513 48.0
150.785889 92.0
150.837219 156.0
150.856781 96.0
151.038559 1972.0
151.081924 192.0
151.143646 196.0
151.196777 64.0
151.216354 136.0
151.280869 68.0
151.374542 256.0
151.407333 32.0
151.500412 40.0
151.583725 64.0
151.689117 104.0
151.708725 64.0
151.743729 176.0
151.784744 152.0
151.831329 56.0
152.033188 1328.0
152.055084 332.0
152.243652 116.0
152.280487 152.0
152.336166 164.0
152.59259 80.0
152.644226 172.0
152.683578 28.0
152.737686 280.0
152.826248 148.0
153.01825 108.0
153.035477 120.0
153.060928 196.0
153.156158 148.0
153.244843 72.0
153.280823 252.0
153.476547 136.0
153.626129 124.0
153.678802 224.0
154.059036 100.0
154.345749 204.0
154.645096 244.0
154.66243 180.0
154.787811 112.0
155.011642 168.0
155.061218 156.0
155.113266 136.0
155.247162 180.0
155.296768 204.0
155.467957 144.0
155.495255 164.0
155.616898 176.0
155.885178 120.0
156.026855 140.0
156.081558 252.0
156.41246 252.0
156.449799 136.0
156.561859 60.0
156.604202 192.0
156.973053 156.0
157.071564 248.0
157.569641 216.0
157.932129 40.0
157.964645 164.0
158.082825 188.0
158.971893 148.0
159.089462 836.0
159.159744 284.0
159.238022 32.0
159.333481 36.0
159.381226 36.0
159.398819 104.0
159.474213 152.0
160.011505 196.0
160.051895 148.0
160.097534 396.0
160.146042 224.0
160.925308 140.0
161.018692 244.0
161.039749 144.0
161.105637 580.0
161.147583 48.0
161.359894 48.0
161.488861 172.0
161.52681 100.0
161.94194 224.0
162.036911 872.0
162.066071 248.0
162.112915 808.0
162.27002 216.0
162.314499 124.0
162.339844 204.0
162.471756 276.0
162.750946 172.0
163.040146 1224.0
163.073593 140.0
163.118622 344.0
163.203247 172.0
163.264282 100.0
163.561783 164.0
163.671448 184.0
163.758041 152.0
163.796249 128.0
163.84465 216.0
163.895767 208.0
163.951675 64.0
164.052704 23108.0
164.122482 84.0
164.14032 56.0
164.219391 56.0
164.254288 196.0
164.350235 140.0
164.390335 48.0
164.415848 80.0
164.469452 28.0
164.505188 68.0
164.530716 60.0
164.55603 92.0
164.737579 28.0
164.788681 52.0
164.873016 56.0
164.91391 80.0
165.05423 2812.0
165.136353 172.0
165.154266 196.0
165.279617 36.0
165.343597 208.0
165.381058 76.0
165.417831 76.0
165.799484 68.0
166.048615 1236.0
166.097092 152.0
166.153351 200.0
166.255997 32.0
166.548706 76.0
167.070709 208.0
167.163193 120.0
167.370209 76.0
167.402603 104.0
167.814896 80.0
168.069534 288.0
168.160583 180.0
168.227707 208.0
168.281921 96.0
168.372299 116.0
168.878891 96.0
168.940979 92.0
170.091599 72.0
170.605972 224.0
170.720383 144.0
171.084671 108.0
171.610962 164.0
171.652679 88.0
171.681366 32.0
172.099442 528.0
172.375793 156.0
172.862198 64.0
173.068741 196.0
173.076385 176.0
173.105423 4368.0
173.158035 208.0
173.189468 140.0
173.304749 40.0
173.472488 84.0
173.921051 48.0
174.028702 164.0
174.113068 932.0
174.165268 124.0
174.254578 80.0
174.704163 120.0
175.049744 152.0
175.112183 248.0
175.135895 120.0
175.333496 48.0
175.973984 172.0
176.050049 380.0
176.126465 368.0
176.249237 28.0
176.529449 180.0
176.749008 124.0
176.82312 172.0
177.048462 1288.0
177.13475 360.0
178.047821 624.0
178.052094 120.0
178.159592 144.0
178.356247 76.0
178.627472 60.0
178.912231 64.0
179.021408 148.0
179.042709 100.0
179.068359 312.0
179.173233 40.0
179.285156 200.0
179.693146 60.0
179.749176 180.0
180.082352 500.0
180.347427 152.0
181.095062 216.0
181.522781 168.0
183.725723 112.0
184.592773 40.0
185.044662 144.0
185.301971 40.0
186.11171 432.0
186.447128 128.0
186.569443 180.0
186.822372 176.0
186.944824 136.0
187.121246 3660.0
187.181656 68.0
187.371384 92.0
187.841248 164.0
188.096008 144.0
188.12851 3584.0
188.368103 68.0
188.419098 60.0
188.600372 68.0
188.693329 136.0
188.819122 116.0
189.062622 112.0
189.135864 688.0
189.256973 96.0
189.462402 60.0
189.558304 112.0
189.681641 44.0
189.802277 40.0
189.846161 172.0
189.988785 196.0
190.066116 132.0
190.095795 212.0
190.143127 188.0
190.419769 160.0
190.845734 236.0
191.064072 1264.0
191.602646 116.0
191.627441 152.0
192.068329 1004.0
193.077423 420.0
193.134796 200.0
193.36998 60.0
193.51947 72.0
193.782608 144.0
194.078995 188.0
194.192902 48.0
195.490372 120.0
195.607269 144.0
195.804962 176.0
196.48793 116.0
197.085449 48.0
197.183258 184.0
198.499084 224.0
198.555176 148.0
198.608475 148.0
198.92276 140.0
199.046295 184.0
199.268204 156.0
199.397476 104.0
199.912979 188.0
201.677734 104.0
202.795807 40.0
202.889359 116.0
203.070847 100.0
203.627151 132.0
203.922653 104.0
204.090378 104.0
205.001312 72.0
205.078812 2332.0
205.121033 96.0
205.357697 52.0
205.38623 140.0
205.54599 64.0
205.611633 76.0
206.08461 1124.0
206.641571 116.0
206.889389 156.0
206.943787 260.0
207.084473 312.0
207.4767 104.0
207.817261 152.0
207.866791 76.0
208.682587 128.0
209.38475 116.0
210.041931 208.0
210.633713 88.0
210.928452 48.0
211.339142 168.0
212.445923 32.0
212.498154 60.0
212.779678 84.0
212.800003 120.0
212.860992 60.0
212.881607 196.0
213.163101 156.0
213.619598 124.0
213.660324 192.0
215.880112 124.0
216.014664 140.0
216.726105 144.0
217.022156 188.0
217.344818 188.0
217.538544 228.0
217.711777 200.0
217.964417 152.0
219.090607 288.0
219.884567 40.0
220.070557 96.0
220.102005 260.0
220.17981 212.0
220.295013 200.0
220.404327 112.0
220.454895 144.0
220.540283 204.0
220.57576 48.0
220.620926 228.0
220.655579 184.0
220.720627 84.0
220.797516 124.0
220.853714 120.0
220.891129 192.0
220.921753 96.0
220.967255 240.0
220.99408 216.0
221.026016 220.0
221.062073 380.0
221.110214 51448.0
221.161377 160.0
221.171814 88.0
221.181732 152.0
221.25618 344.0
221.294678 104.0
221.31488 68.0
221.345474 72.0
221.379074 120.0
221.442429 192.0
221.46254 88.0
221.480164 164.0
221.5168 136.0
221.552353 116.0
221.597397 88.0
221.626678 140.0
221.688644 80.0
221.733109 72.0
221.762741 92.0
221.782333 56.0
221.812149 72.0
221.851669 56.0
221.91098 120.0
221.955444 80.0
221.976212 56.0
222.011795 84.0
222.047394 52.0
222.11232 5748.0
222.2966 48.0
222.317368 92.0
222.358917 48.0
222.418289 64.0
222.590485 56.0
222.614243 68.0
222.63504 52.0
222.677536 116.0
222.756012 84.0
222.890518 48.0
222.935089 76.0
222.967789 44.0
223.105835 1800.0
223.232376 56.0
223.282944 56.0
223.345398 68.0
223.366226 56.0
223.410843 120.0
223.446548 48.0
223.497131 108.0
223.571533 76.0
223.609116 108.0
223.634033 88.0
223.657837 108.0
223.703552 124.0
223.747192 188.0
223.773727 112.0
223.836472 84.0
223.8703 124.0
224.036041 128.0
224.106384 576.0
224.620346 56.0
224.856064 88.0
225.229309 72.0
225.290878 100.0
225.372711 124.0
225.489258 92.0
225.851059 56.0
225.958755 76.0
226.512421 64.0
227.049133 72.0
228.373703 64.0
229.852966 136.0
229.958603 120.0
231.285553 108.0
232.601151 60.0
233.649612 44.0
234.804123 64.0
235.154999 52.0
235.442001 84.0
237.051193 92.0
238.681244 112.0
238.95192 100.0
242.528122 68.0
244.108444 48.0
246.452606 56.0
251.218719 72.0
254.608826 108.0
258.607086 104.0
258.927277 180.0
258.949677 80.0
265.833099 52.0
275.271423 84.0
279.897461 44.0
294.098999 48.0
296.08551 68.0
298.302155 136.0
306.390167 48.0
333.128113 76.0
333.527863 88.0
336.398407 140.0
336.708771 112.0
340.708923 100.0
341.190369 28.0
350.68399 20.0
355.079163 148.0
355.799652 76.0
359.035767 60.0
394.207825 68.0
401.389191 72.0
404.62973 52.0
409.162598 116.0
410.782715 40.0
421.963654 44.0
452.533234 84.0
483.760132 88.0
484.09729 52.0
495.116364 112.0
498.177002 60.0
502.990967 48.0
524.445618 92.0
539.88678 56.0
552.249451 84.0
572.983826 148.0
595.114685 68.0
600.136169 100.0
603.93573 44.0
624.858459 68.0
654.039001 64.0
678.892517 72.0
684.010437 140.0
692.548096 88.0
696.976013 128.0
706.498352 168.0
710.498352 88.0
716.568542 48.0
730.172668 96.0
738.998291 108.0
817.601379 64.0
826.503906 60.0
835.96106 148.0
846.357666 88.0
857.109863 144.0
858.240723 40.0
870.40625 156.0
873.456604 140.0
878.705811 48.0
879.195618 80.0
888.479919 140.0
893.422913 36.0
895.166931 148.0
902.375244 76.0
907.626526 156.0
907.932373 188.0
912.736694 144.0
917.921509 168.0
921.229126 176.0
923.671387 96.0
924.016235 220.0
936.327087 220.0
951.719727 224.0
953.077271 100.0
964.479004 132.0
965.010681 76.0
967.454529 260.0
968.730286 72.0
973.233093 64.0
974.885498 48.0
976.869019 216.0
979.246887 152.0
983.799011 80.0
984.592041 164.0
989.413208 72.0
994.340332 156.0
995.966614 84.0
998.517212 156.0
1012.257874 88.0
1016.371948 92.0
1018.492432 88.0
1025.313354 104.0
1026.709595 184.0
1027.921753 96.0
1030.514282 64.0
1032.930908 176.0
1033.903442 52.0
1043.898804 120.0
1045.339722 56.0
1054.523804 52.0
1058.64502 188.0
1060.316528 216.0
1061.418701 132.0
1061.59375 212.0
1063.163818 184.0
1065.774292 128.0
1075.83728 60.0
1082.997925 116.0
1088.113159 256.0
1089.321533 136.0
1091.240601 140.0
1100.802002 148.0
1104.30481 144.0
1112.289429 172.0
1113.404907 144.0
1115.704102 76.0
1115.936768 196.0
1123.442871 152.0
1125.438599 20.0
1125.799194 172.0
1126.151611 208.0
1127.295654 204.0
1128.064331 140.0
1130.003784 164.0
1132.065552 72.0
1133.277954 140.0
1136.832031 80.0
1139.343384 184.0
1142.590698 196.0
1144.078125 152.0
1144.966919 48.0
1148.215576 156.0
1156.09314 36.0
1162.056396 80.0
1163.834717 140.0
1165.478638 152.0
1166.43689 160.0
1167.062378 156.0
1169.974487 220.0
1173.176514 208.0
1173.333374 188.0
1175.475098 268.0
1176.690186 144.0
1177.837524 132.0
1180.52356 168.0
1181.063965 172.0
1183.856445 56.0
1184.2948 100.0
1185.610352 124.0
1186.131226 188.0
1188.174927 408.0
1188.916016 208.0
1189.938843 80.0
1191.147583 180.0
1192.109497 208.0
1192.219482 176.0
1192.789917 136.0
1193.972534 224.0
1198.405884 76.0
1198.83313 176.0
1199.081299 120.0
1201.943237 136.0
1203.9729 48.0
1204.387329 104.0
1207.497803 216.0
1208.002686 132.0
1208.487061 192.0
1210.702148 168.0
1213.259155 224.0
1216.339355 220.0
1216.502563 252.0
1218.353271 44.0
1218.860474 124.0
1219.20105 184.0
1219.833496 320.0
1220.959961 140.0
1223.973267 180.0
1224.335449 40.0
1226.125977 140.0
1228.671265 196.0
1229.082886 148.0
1231.694092 28.0
1232.504517 80.0
1235.979858 292.0
1238.339233 164.0
1240.721802 152.0
1244.580811 252.0
1244.74231 176.0
1245.205811 208.0
1246.245605 112.0
1246.512573 156.0
1246.927246 44.0
1247.292725 120.0
1248.206787 180.0
1248.670898 204.0
1252.042236 112.0
1252.140869 80.0
1258.049927 212.0
1260.034546 60.0
1260.451416 144.0
1261.568237 160.0
1266.45105 136.0
1266.96814 176.0
1267.258667 212.0
1271.194214 132.0
1273.410278 208.0
1275.235352 116.0
1275.448608 88.0
1279.930786 172.0
1282.224854 188.0
1285.305664 116.0
1285.990723 156.0
1287.690063 48.0
1288.511597 156.0
1289.297729 220.0
1290.741821 112.0
1292.966675 196.0
1295.623291 256.0
1296.13208 120.0
1296.55481 144.0
1297.458008 100.0
1298.928223 164.0
1299.358643 176.0
1300.076294 184.0
1302.668335 184.0
1303.020386 92.0
1307.809937 144.0
1307.975464 168.0
1310.834839 168.0
1311.231201 160.0
1314.065308 136.0
1315.025024 164.0
1317.220215 148.0
1317.285278 112.0
1317.868896 92.0
1319.012329 192.0
1319.598022 140.0
1323.78772 132.0
1325.446655 84.0
1325.830688 200.0
1325.88147 212.0
1326.526611 76.0
1328.433838 124.0
1329.456909 140.0
1331.17749 176.0
1333.349731 220.0
1334.571045 144.0
1335.181885 212.0
1335.458252 168.0
1337.313721 76.0
1337.619507 100.0
1337.754517 180.0
1341.188843 156.0
1341.954346 144.0
1343.216064 208.0
1344.186523 200.0
1346.559204 120.0
1349.672485 164.0
1350.718384 136.0
1352.21106 48.0
1353.074829 56.0
1354.45166 168.0
1355.829224 148.0
1357.508057 176.0
1359.885132 36.0
1360.362305 244.0
1360.538452 184.0
1361.471069 140.0
1362.572876 152.0
1362.631714 140.0
1363.903076 204.0
1363.954468 152.0
1364.373535 36.0
1365.462769 164.0
1371.558594 68.0
1371.9198 148.0
1372.664551 108.0
1373.365234 256.0
1375.512573 212.0
1376.974609 212.0
1377.580322 116.0
1377.631958 208.0
1381.276611 156.0
1382.985962 188.0
1383.940918 152.0
1387.705078 248.0
1389.180908 160.0
1389.277344 80.0
1389.470337 152.0
1390.665039 148.0
1390.880371 208.0
1391.199585 216.0
1393.093262 156.0
1394.809937 196.0
1397.033447 184.0
1397.807251 156.0
1398.142212 120.0
1399.951294 188.0
1400.435425 140.0
1400.62915 52.0
1401.560425 184.0
1403.028687 256.0
1403.744507 136.0
1405.229004 120.0
1405.960327 116.0
1406.671509 124.0
1407.154663 188.0
1407.610107 216.0
1407.662476 192.0
1409.238525 168.0
1409.694458 132.0
1410.710938 124.0
1411.660522 120.0
1412.580566 176.0
1412.730103 64.0
1412.81958 160.0
1413.126709 116.0
1413.508301 124.0
1414.144409 224.0
1417.439819 164.0
1418.603027 160.0
1418.97644 136.0
1420.88147 152.0
1421.699341 156.0
1422.727783 96.0
1423.711426 52.0
1424.192139 152.0
1424.289795 144.0
1426.717163 56.0
1426.957642 172.0
1427.085571 204.0
1429.31958 168.0
1429.673218 180.0
1431.766235 220.0
1432.361328 100.0
1433.03186 148.0
1433.875854 180.0
1434.554321 120.0
1437.533691 192.0
1438.228027 152.0
1440.946777 160.0
1443.176514 136.0
1443.569702 164.0
1443.910034 36.0
1445.203613 116.0
1445.377686 144.0
1449.754883 212.0
1450.088379 148.0
1450.967651 144.0
1452.765137 128.0
1453.129272 176.0
1454.085449 88.0
1454.533325 212.0
1455.641846 180.0
1456.287354 184.0
1456.872314 172.0
1457.670166 180.0
1457.822144 112.0
1459.654175 116.0
1460.764648 196.0
1461.023315 68.0
1462.309326 152.0
1463.184814 148.0
1465.446899 148.0
1466.117554 184.0
1467.596436 200.0
1467.794678 192.0
1468.366699 236.0
1468.572632 60.0
1472.50354 180.0
1474.092651 164.0
1474.48999 128.0
1475.781982 152.0
1476.867798 168.0
1478.038452 248.0
1479.446899 144.0
1479.615234 204.0
1482.027954 136.0
1482.610352 196.0
1483.123901 104.0
1485.838745 104.0
1486.360474 156.0
1486.629028 152.0
1487.556641 136.0
1487.619263 176.0
1491.736938 176.0
1492.359741 160.0
1492.490479 208.0
1492.897949 36.0
1494.921265 144.0
1495.152222 176.0
1495.483154 220.0
1496.49939 160.0
1497.369507 196.0
1497.508179 224.0
1499.758179 200.0
1500.213013 108.0
1502.642456 236.0
1502.843018 40.0
