>compound Etravirine (TMC125)
>formula C20H15BrN6O
>ionization [M+H]+
>parentmass 435.058014
#inchi InChI=1S/C20H15BrN6O/c1-11-7-14(10-23)8-12(2)17(11)28-19-16(21)18(24)26-20(27-19)25-15-5-3-13(9-22)4-6-15/h3-8H,1-2H3,(H3,24,25,26,27)
#inchikey PYGWGZALEOIKDF
#Ion_Source LC-ESI
#Instrument qTof
#Compound_Source Commercial
#PI Dorrestein
#Data_Collector Garg_Neha
#Scan -1
#Precursor_MZ 435.056
#ExactMass 434.049
#Charge 1
#CAS_Number 269055-15-4, 1030633-39-6 (HCl), 1030633-41-0 (4-methylbenzenesulfonate)
#Pubmed_ID N/A
#Smiles C1(N=C(N=C(C=1Br)N)NC2C=CC(C#N)=CC=2)OC3C(=CC(C#N)=CC=3C)C
#INCHI_AUX N/A
#Library_Class 1
#SpectrumID CCMSLIB00000078571
#IonMode Positive
#UpdateWorkflowName UPDATE-SINGLE-ANNOTATED-GOLD
#LibraryQualityString Gold
#TaskID 77f51c88eb8b467eb4a01dd2d0cb90d2
##Scan# 2450
#SpectrumFile Plate9_21_40_GC5_01_15753.mzXML
#LibraryName FDALibrary_2_04302014.mgf
#MQScore -1
#Organism FDALibrary_2_04302014
#TIC_Query 0
#RT_Query -1
#MZErrorPPM -1
#SharedPeaks 0
#MassDiff 0
#LibMZ -1
#SpecMZ 435.056
#SpecCharge 0
#internalFilename spec-00000.mgf

>collision 10
45.088539 204.0
46.201923 160.0
46.559772 160.0
47.824486 152.0
48.690006 160.0
49.521259 164.0
49.803185 268.0
50.32283 140.0
50.561729 200.0
51.254734 160.0
52.062977 164.0
53.51482 140.0
54.684486 156.0
54.708038 200.0
55.314762 220.0
55.721104 164.0
58.067463 172.0
59.653969 168.0
60.980217 164.0
63.980171 156.0
65.134766 160.0
66.817665 168.0
68.069702 184.0
69.472649 152.0
70.745857 148.0
71.086098 192.0
72.351929 156.0
72.497597 140.0
72.651894 160.0
75.086021 164.0
76.880066 216.0
80.819016 180.0
82.33622 144.0
85.359634 204.0
88.705414 148.0
91.027985 148.0
91.406265 140.0
91.897865 172.0
92.967522 168.0
93.665443 188.0
95.401253 172.0
95.570457 144.0
96.180443 232.0
98.568634 160.0
103.053596 1020.0
104.05439 344.0
104.242111 152.0
105.25042 228.0
105.93428 344.0
106.997299 168.0
107.572472 156.0
107.942619 152.0
108.596725 184.0
110.091026 140.0
111.671249 144.0
112.604935 160.0
113.34536 152.0
114.34346 168.0
114.560646 172.0
115.051132 176.0
115.77813 176.0
116.051399 160.0
117.043938 244.0
117.329079 100.0
118.052559 268.0
119.038834 144.0
119.060577 716.0
119.114853 192.0
119.943047 312.0
121.941833 312.0
123.24688 144.0
123.99263 240.0
124.849579 160.0
127.615692 144.0
128.04747 808.0
129.810486 176.0
130.064529 2204.0
131.062363 520.0
132.068253 136.0
132.93869 340.0
133.424988 180.0
134.052368 196.0
135.02063 144.0
138.202957 176.0
138.509628 196.0
140.050491 204.0
140.503113 148.0
143.04895 372.0
144.055862 8352.0
144.507065 176.0
144.939087 1000.0
145.060471 840.0
145.075409 1048.0
145.921707 1436.0
145.953217 156.0
146.058136 608.0
146.081741 180.0
146.937302 540.0
147.092224 272.0
147.920349 936.0
148.075943 716.0
148.862167 172.0
149.07785 204.0
149.939865 144.0
150.398407 172.0
150.955429 168.0
151.944977 268.0
155.060654 1104.0
155.133743 180.0
156.067947 968.0
157.074554 724.0
158.078552 260.0
158.851913 256.0
159.042618 148.0
159.065552 624.0
160.070465 148.0
161.084 348.0
161.656158 156.0
162.949661 8100.0
163.012848 244.0
163.4095 192.0
163.427307 196.0
163.954224 308.0
164.451752 176.0
164.806717 144.0
164.948685 6808.0
165.282318 140.0
165.763718 188.0
165.949814 456.0
167.048752 488.0
167.539124 168.0
168.070297 468.0
168.886597 148.0
169.049622 752.0
169.07457 440.0
170.03302 588.0
170.075302 556.0
170.117432 164.0
171.035034 308.0
171.058365 324.0
171.065613 312.0
171.957718 200.0
172.038635 192.0
172.086395 948.0
173.067612 376.0
175.578293 140.0
175.92131 140.0
180.026184 140.0
180.996872 164.0
183.042007 220.0
183.06723 152.0
184.047455 236.0
184.083206 148.0
185.057022 120.0
185.085968 252.0
186.074142 340.0
187.062851 168.0
187.673828 140.0
187.864746 160.0
187.94632 336.0
188.092651 168.0
188.435318 208.0
188.943756 124.0
189.118973 216.0
189.94252 440.0
191.945908 152.0
192.837601 208.0
192.93158 216.0
194.052032 176.0
194.072372 272.0
195.076767 156.0
196.065033 500.0
197.02243 172.0
197.068695 416.0
197.324265 148.0
197.48645 160.0
197.769058 192.0
198.070724 868.0
198.357269 208.0
198.388107 144.0
198.536713 204.0
199.071472 408.0
200.391937 208.0
200.625854 140.0
201.065872 176.0
203.667847 140.0
205.173187 140.0
206.027954 212.0
206.954819 300.0
206.993225 148.0
207.956482 140.0
208.951935 116.0
208.981445 196.0
209.042816 212.0
209.069489 256.0
209.696548 212.0
210.077347 476.0
210.417709 200.0
210.953659 176.0
211.060867 268.0
211.081512 336.0
211.128525 180.0
211.614655 196.0
212.080154 296.0
213.088104 672.0
214.027481 220.0
214.097443 152.0
214.572327 144.0
215.331009 180.0
215.921387 144.0
216.996048 260.0
218.949341 136.0
219.091507 144.0
220.032288 196.0
221.039566 212.0
221.220718 152.0
221.981598 168.0
222.068161 168.0
222.112656 152.0
222.186813 176.0
222.964783 260.0
223.066757 180.0
223.678619 192.0
225.065399 148.0
225.336716 156.0
226.07132 636.0
227.078247 112.0
227.574036 160.0
230.078964 340.0
231.083054 136.0
232.081772 136.0
233.086563 176.0
235.114502 136.0
237.075882 292.0
238.080231 308.0
239.090668 664.0
239.523682 152.0
239.807144 156.0
239.853378 172.0
240.088226 184.0
241.291946 168.0
241.740433 220.0
245.212494 152.0
245.969376 280.0
246.103928 232.0
246.238953 176.0
246.983826 488.0
247.032883 156.0
247.966217 372.0
248.019257 144.0
248.105255 184.0
248.128967 160.0
248.282608 164.0
248.977081 1516.0
249.97963 276.0
250.674942 192.0
250.971954 1328.0
251.980331 240.0
252.211914 152.0
253.610931 144.0
254.095444 152.0
256.08429 304.0
257.103088 152.0
258.090424 444.0
258.971344 204.0
259.091919 260.0
259.194458 176.0
262.121796 160.0
262.964478 300.0
263.074524 120.0
263.976318 412.0
264.010254 148.0
264.770752 172.0
265.980804 464.0
266.29834 160.0
266.697968 148.0
267.114166 164.0
267.813995 200.0
270.956543 152.0
271.077759 160.0
271.103973 176.0
271.80246 192.0
272.078156 176.0
272.11142 160.0
272.984894 136.0
273.011322 152.0
273.113861 6588.0
273.653412 124.0
273.99826 408.0
274.113342 1412.0
274.160217 188.0
274.976074 284.0
275.004761 152.0
275.117584 192.0
275.889801 160.0
275.986755 800.0
276.984222 368.0
277.289948 164.0
277.880219 196.0
277.98645 1260.0
278.987 316.0
280.687469 156.0
280.714142 200.0
280.98819 148.0
282.915985 176.0
284.162689 188.0
285.045776 148.0
285.124786 148.0
286.115356 144.0
287.987274 956.0
288.97406 708.0
289.990479 552.0
290.142883 280.0
290.77066 180.0
290.96994 1368.0
290.996399 216.0
291.13623 144.0
292.004395 688.0
293.004852 196.0
293.802216 136.0
294.003235 448.0
295.010315 136.0
297.11676 164.0
298.084106 140.0
300.553894 148.0
300.896576 100.0
301.524261 152.0
302.516968 192.0
303.015686 268.0
303.983215 9796.0
304.687897 144.0
304.924194 168.0
304.990143 5224.0
305.917297 124.0
305.983063 8060.0
306.073059 144.0
306.136383 120.0
306.552887 140.0
306.890472 136.0
306.988342 5380.0
307.995209 1700.0
308.998322 332.0
309.557098 256.0
310.094269 144.0
311.106812 180.0
311.651184 152.0
311.95694 144.0
313.104004 456.0
314.111328 416.0
315.715546 156.0
317.003967 2080.0
317.379883 172.0
317.583344 188.0
318.006104 160.0
319.000885 2132.0
319.162323 148.0
320.003723 244.0
320.101715 164.0
321.005066 120.0
321.995361 140.0
325.28949 176.0
326.270203 152.0
327.130188 392.0
328.139709 176.0
331.652466 144.0
331.902618 144.0
335.505676 164.0
336.837646 200.0
337.1409 172.0
337.817322 180.0
338.129059 220.0
339.095062 156.0
339.133514 764.0
340.081818 220.0
340.121521 128.0
340.145752 316.0
340.210297 148.0
341.109497 844.0
341.433868 160.0
342.118256 128.0
344.242004 144.0
346.753937 180.0
347.473328 152.0
347.725647 200.0
351.49173 232.0
353.120514 272.0
353.715454 176.0
355.129089 1708.0
355.213196 108.0
356.135437 504.0
356.810333 144.0
357.139435 476.0
358.127411 140.0
358.519226 152.0
359.167725 172.0
360.963257 176.0
363.385773 160.0
363.442688 152.0
365.098907 192.0
367.700958 232.0
368.071259 176.0
370.124603 160.0
374.410187 196.0
375.423706 152.0
376.585388 152.0
376.813293 140.0
377.04129 172.0
378.151245 196.0
379.386902 148.0
380.038483 156.0
380.869263 140.0
380.896454 140.0
382.665894 168.0
384.053192 176.0
389.309357 180.0
390.032257 240.0
391.161194 140.0
392.437622 200.0
397.032532 180.0
397.897552 128.0
398.986084 140.0
401.075989 156.0
401.741913 152.0
402.749969 128.0
403.551086 152.0
405.528625 180.0
406.138092 144.0
407.844574 168.0
409.091553 176.0
409.864807 160.0
410.038116 180.0
411.041962 116.0
411.831268 180.0
412.079926 216.0
413.101837 160.0
413.693573 176.0
415.862183 172.0
417.044128 148.0
417.828949 188.0
418.032318 192.0
419.376343 172.0
420.01651 148.0
422.316101 160.0
424.736847 156.0
425.919006 140.0
427.292023 156.0
428.292358 140.0
428.445923 156.0
428.671387 172.0
428.815613 160.0
429.223755 292.0
429.289734 152.0
429.846619 168.0
430.746643 172.0
430.835449 128.0
432.238708 192.0
432.764801 208.0
432.955292 180.0
433.108246 116.0
433.224518 160.0
433.340515 216.0
433.773315 136.0
433.960571 140.0
433.992218 172.0
434.052612 100.0
434.086212 144.0
434.169464 352.0
434.229431 100.0
434.383148 128.0
434.435974 208.0
434.613647 232.0
434.651001 144.0
434.697296 208.0
434.818634 396.0
434.913635 228.0
434.985291 452.0
435.058014 149688.0
435.212585 252.0
435.25354 192.0
435.350372 296.0
435.552917 264.0
435.598358 124.0
435.664642 196.0
435.741302 1352.0
435.789062 288.0
435.824158 276.0
435.857483 108.0
435.932953 288.0
436.060242 46292.0
436.308838 192.0
436.384979 104.0
436.46228 256.0
436.527283 208.0
436.554169 420.0
436.619385 236.0
436.654327 172.0
436.733704 116.0
436.814941 280.0
436.847168 296.0
436.901978 156.0
436.960358 352.0
436.997986 540.0
437.056183 146884.0
437.178314 248.0
437.250397 140.0
437.301575 124.0
437.341522 152.0
437.382782 216.0
437.46463 144.0
437.505127 172.0
437.574005 188.0
437.742218 948.0
437.79834 216.0
437.829926 244.0
437.877411 232.0
437.948761 224.0
437.982483 120.0
438.057648 28848.0
438.175201 120.0
438.208588 124.0
438.257507 124.0
438.496918 148.0
438.551117 124.0
438.709442 224.0
438.768066 124.0
438.92337 148.0
438.970062 376.0
439.059662 2232.0
439.330872 144.0
439.410736 260.0
439.558411 136.0
439.673553 200.0
439.716187 184.0
439.762299 168.0
439.789978 164.0
440.157166 108.0
440.389648 116.0
440.483337 116.0
440.536469 120.0
440.652924 148.0
440.74942 104.0
440.835632 156.0
440.871765 208.0
440.919647 104.0
440.970154 132.0
441.142822 120.0
441.40863 152.0
442.081177 136.0
443.135864 148.0
449.06311 184.0
450.048126 124.0
453.006805 144.0
453.065033 3816.0
453.261017 168.0
453.408844 104.0
453.488037 116.0
454.072723 904.0
455.063721 2684.0
456.064575 456.0
458.095917 204.0
465.601227 120.0
472.460358 140.0
478.088043 172.0
526.704285 168.0
595.261597 172.0
650.286255 148.0
659.362061 148.0
677.940796 148.0
898.107544 156.0
923.914368 148.0
1110.395874 140.0
1229.883301 212.0
1451.764038 232.0
1479.62915 172.0
1484.625 156.0
1491.942383 192.0
1549.201294 296.0
1604.555176 168.0
1658.221313 152.0
1731.03064 196.0
1741.687866 152.0
1755.161621 216.0
1785.366821 168.0
1793.794922 200.0
1799.210815 172.0
1802.749878 180.0
1804.009277 160.0
1804.212158 220.0
1808.111572 200.0
1808.568604 164.0
1828.9823 188.0
1880.738037 220.0
1944.635254 172.0
1951.311401 172.0
1959.047241 164.0
1999.530396 152.0
