>compound MLS001201764-01!
>formula C13H18N4O3
>ionization [M+H]+
>parentmass 279.1451668880905
#inchi InChI=1S/C13H18N4O3/c1-9(18)6-4-5-7-17-12(19)10-11(14-8-15(10)2)16(3)13(17)20/h8H,4-7H2,1-3H3
#inchikey BYPFEZZEUUWMEJ
#Ion_Source LC-ESI
#Instrument qTof
#Compound_Source NIH Pharmacologically Active Library
#PI Dorrestein
#Data_Collector VP/LMS
#Scan -1
#Precursor_MZ 279.148
#ExactMass 278.138
#Charge 1
#CAS_Number N/A
#Pubmed_ID N/A
#Smiles CC(=O)CCCCn1c(=O)n(C)c2ncn(C)c2c1=O
#INCHI_AUX N/A
#Library_Class 1
#SpectrumID CCMSLIB00000085717
#IonMode Positive
#UpdateWorkflowName UPDATE-SINGLE-ANNOTATED-GOLD
#LibraryQualityString Gold
#TaskID d252d724072548979f1f6f1ced849daf
##Scan# 1410
#SpectrumFile p4-E07_GE7_01_18379.mzXML
#LibraryName Pharm_Active_Library.mgf
#MQScore -1
#Organism Pharm_Active_Library
#TIC_Query 0
#RT_Query -1
#MZErrorPPM -1
#SharedPeaks 0
#MassDiff 0
#LibMZ -1
#SpecMZ 279.148
#SpecCharge 0
#internalFilename spec-00000.mgf

>collision 10
46.030457 152.0
46.355114 200.0
46.518185 228.0
46.618382 152.0
46.761185 144.0
47.078846 160.0
47.359222 172.0
47.504528 180.0
47.584126 188.0
47.674786 192.0
47.773731 208.0
49.301842 180.0
49.443092 112.0
49.629406 236.0
50.455891 188.0
50.720619 176.0
50.787262 200.0
50.838341 168.0
51.254997 136.0
51.746353 108.0
52.091984 180.0
52.634964 204.0
53.547161 60.0
54.495106 156.0
54.512737 220.0
54.552422 48.0
55.486946 132.0
56.330769 156.0
56.360649 196.0
57.376781 148.0
57.560863 168.0
57.621281 176.0
57.654526 204.0
58.496342 264.0
58.724747 192.0
59.445496 160.0
60.712063 192.0
60.944912 200.0
61.100391 180.0
61.290344 112.0
61.429104 216.0
62.426826 228.0
62.599934 152.0
62.672394 208.0
63.294746 188.0
63.688061 208.0
63.751614 144.0
64.261169 160.0
64.285103 188.0
64.66227 208.0
64.795181 56.0
65.051773 156.0
65.27832 156.0
65.5681 180.0
66.449402 192.0
66.767784 180.0
68.121193 200.0
68.221436 212.0
68.778229 204.0
69.021088 172.0
69.077316 132.0
69.428459 184.0
69.953514 208.0
69.978493 100.0
70.218452 196.0
70.460503 152.0
70.997818 88.0
71.214325 180.0
71.444618 84.0
71.476593 144.0
72.103935 108.0
72.762878 88.0
73.715034 220.0
73.807343 192.0
74.249168 224.0
75.148842 188.0
75.701988 124.0
76.017494 256.0
76.633049 180.0
77.333321 152.0
78.496361 232.0
78.536926 188.0
78.577499 172.0
79.134247 300.0
79.205086 148.0
79.906319 220.0
81.24807 208.0
81.411407 136.0
82.591942 256.0
83.284363 172.0
83.451553 172.0
83.538857 168.0
83.877563 60.0
84.692528 168.0
84.778633 268.0
85.072105 224.0
85.456223 228.0
86.053398 312.0
86.212257 220.0
86.597084 164.0
88.449799 196.0
88.522812 128.0
89.062958 196.0
89.158783 140.0
89.410789 224.0
89.580254 168.0
90.812706 212.0
90.987289 128.0
91.319832 96.0
91.992477 44.0
92.183472 232.0
92.34024 112.0
92.518196 156.0
93.026222 160.0
93.402863 172.0
93.468277 196.0
93.724373 72.0
93.948029 216.0
94.007843 192.0
94.612839 180.0
94.699974 220.0
95.060577 244.0
95.729309 184.0
95.852036 152.0
96.053925 244.0
96.068451 100.0
96.783783 144.0
96.885628 176.0
97.038506 200.0
97.089485 68.0
97.283737 40.0
97.991753 196.0
98.627197 128.0
98.737923 172.0
99.080421 380.0
99.500824 188.0
99.755112 148.0
100.019684 152.0
100.083389 196.0
100.294563 96.0
102.054306 192.0
102.16291 80.0
102.97728 140.0
103.488914 112.0
103.517265 152.0
103.648933 172.0
104.058655 248.0
104.898872 192.0
105.135475 152.0
105.709724 212.0
105.787506 148.0
107.03582 92.0
107.625557 148.0
107.739151 128.0
107.935501 172.0
108.054596 744.0
108.693649 268.0
109.040962 548.0
109.061676 240.0
109.26712 240.0
109.696129 240.0
109.77536 68.0
109.944336 184.0
109.998604 160.0
110.070183 4328.0
110.209541 148.0
110.343315 56.0
110.512726 224.0
110.669708 188.0
111.055161 332.0
111.076996 156.0
111.235771 100.0
111.481506 76.0
111.925369 164.0
112.022247 136.0
112.089668 168.0
112.106529 140.0
112.737526 84.0
112.851669 144.0
113.033478 304.0
113.143646 80.0
113.427513 40.0
113.943199 168.0
114.351486 108.0
114.647522 64.0
115.065605 164.0
115.621384 272.0
115.863342 148.0
116.393127 68.0
116.487625 168.0
116.539185 136.0
116.65094 208.0
116.67244 208.0
117.680748 172.0
118.039444 188.0
119.697319 136.0
119.797508 124.0
119.889023 200.0
120.591789 160.0
120.871712 188.0
120.989906 148.0
121.055595 212.0
121.081879 224.0
121.270302 176.0
121.571693 132.0
121.779335 168.0
122.058647 172.0
122.496422 160.0
122.725632 176.0
123.016853 132.0
123.041 1032.0
123.15818 212.0
123.211197 84.0
123.310631 204.0
124.045555 184.0
124.085411 204.0
124.209602 220.0
124.384903 100.0
124.473709 168.0
124.544777 100.0
125.305595 152.0
125.332329 164.0
125.691338 184.0
126.234154 156.0
126.60788 160.0
126.926094 192.0
126.964218 188.0
127.049454 92.0
127.359238 236.0
127.844872 96.0
128.518646 92.0
128.613434 92.0
129.04718 132.0
129.072052 112.0
129.341278 136.0
129.900986 148.0
130.005356 244.0
131.05365 196.0
131.62619 156.0
131.699265 216.0
131.722107 236.0
133.546707 184.0
133.894257 144.0
134.087784 68.0
134.124664 132.0
134.556046 296.0
135.065552 704.0
135.61322 152.0
135.659592 64.0
135.692047 144.0
136.070648 220.0
136.493103 224.0
136.891022 180.0
137.028458 164.0
137.081268 1192.0
137.107681 56.0
137.140305 60.0
137.182266 48.0
137.667587 204.0
137.700272 108.0
137.894196 180.0
138.00885 184.0
138.036362 208.0
138.065506 13900.0
138.153763 108.0
138.174805 84.0
138.305862 52.0
138.467422 36.0
139.031113 64.0
139.066681 940.0
139.119278 60.0
139.340042 40.0
139.509247 76.0
139.645645 76.0
140.043411 132.0
140.068283 180.0
140.10231 180.0
140.120758 72.0
141.05806 164.0
141.145538 44.0
141.237762 84.0
141.986221 88.0
143.865356 132.0
144.851257 160.0
145.158051 56.0
146.114014 176.0
146.306549 112.0
146.749863 112.0
146.817383 180.0
146.894562 88.0
147.246964 72.0
148.088654 116.0
148.825882 88.0
149.041824 160.0
149.596588 120.0
150.369278 48.0
151.212494 104.0
151.60434 156.0
152.220093 200.0
154.05751 232.0
154.646027 140.0
155.530914 140.0
156.079727 440.0
156.291397 32.0
156.595108 140.0
157.033768 252.0
158.070557 156.0
159.82959 160.0
160.759445 216.0
162.665314 264.0
162.970078 108.0
163.06192 3036.0
163.595734 128.0
164.06015 452.0
164.541565 160.0
165.079544 372.0
165.211151 136.0
166.059021 152.0
166.66745 44.0
166.957932 204.0
167.7845 96.0
168.068207 124.0
168.1353 188.0
170.57782 164.0
172.797165 220.0
173.504303 88.0
176.088364 140.0
176.392227 80.0
179.86412 136.0
180.216644 80.0
180.256714 192.0
180.524048 120.0
180.593582 208.0
180.871857 136.0
180.941467 72.0
180.989655 92.0
181.036942 244.0
181.071014 17984.0
181.167908 116.0
181.190536 64.0
181.23877 92.0
181.325851 56.0
181.407608 28.0
181.479996 68.0
181.592636 88.0
181.638229 144.0
181.836792 56.0
181.919998 176.0
182.013962 48.0
182.073883 1952.0
182.118286 76.0
182.239594 64.0
182.599823 76.0
182.696655 92.0
182.825806 88.0
182.936157 76.0
182.990005 92.0
183.071457 220.0
183.159668 208.0
183.20816 72.0
183.32402 56.0
183.394089 224.0
183.41835 96.0
183.439926 116.0
183.598999 124.0
184.082062 108.0
184.281952 72.0
184.522491 92.0
184.571167 120.0
189.265076 60.0
193.073822 836.0
195.234116 76.0
195.604172 164.0
195.740585 60.0
196.649429 196.0
199.079086 116.0
200.14534 52.0
200.77092 100.0
204.032928 120.0
204.064209 144.0
204.698746 72.0
205.110367 184.0
211.075104 120.0
218.127975 112.0
219.063766 120.0
219.087326 136.0
220.096024 188.0
221.096497 196.0
234.092468 184.0
243.112473 44.0
262.089142 120.0
263.854675 44.0
265.652039 136.0
267.960297 68.0
277.138123 132.0
278.138977 288.0
279.149597 192.0
280.137512 120.0
297.072479 76.0
321.471466 76.0
323.773743 80.0
368.199249 44.0
394.477386 96.0
408.303894 20.0
408.386322 136.0
428.54303 52.0
429.907928 120.0
459.084808 72.0
461.403381 140.0
496.479279 120.0
519.191345 76.0
525.336426 104.0
549.970154 92.0
562.017273 56.0
605.667969 84.0
681.745056 120.0
686.930969 28.0
805.573669 72.0
817.184631 192.0
876.467957 68.0
937.138428 148.0
953.231567 120.0
992.545654 188.0
993.605652 164.0
996.104248 212.0
1033.217163 172.0
1040.170288 184.0
1041.210449 188.0
1068.021118 188.0
1072.096802 280.0
1078.296875 172.0
1083.918457 164.0
1096.470459 60.0
1097.756104 140.0
1107.716431 40.0
1109.804199 56.0
1115.5271 168.0
1124.980103 168.0
1153.476929 188.0
1175.70105 160.0
1181.317627 140.0
1184.617188 200.0
1193.807739 164.0
1209.372559 200.0
1215.950195 180.0
1216.387451 136.0
1219.721802 152.0
1224.682983 180.0
1225.254272 136.0
1243.989746 140.0
1248.416382 184.0
1252.259033 104.0
1254.753662 188.0
1256.185181 148.0
1257.271851 64.0
1259.248657 100.0
1281.830444 60.0
1281.97998 156.0
1282.585815 160.0
1286.088135 176.0
1291.075195 140.0
1301.34375 136.0
1303.146606 172.0
1304.030518 124.0
1304.828491 208.0
1307.015015 196.0
1314.985474 48.0
1315.043213 32.0
1315.245361 184.0
1320.339233 180.0
1321.388062 172.0
1324.667603 172.0
1325.638428 148.0
1328.357422 96.0
1343.116943 136.0
1343.93396 192.0
1348.754028 244.0
1353.729126 152.0
1359.117065 148.0
1359.78479 148.0
1361.326538 108.0
1367.914429 56.0
1374.09021 140.0
1375.772949 148.0
1378.63147 156.0
1405.312134 172.0
1411.496948 136.0
1414.2052 44.0
1417.395508 216.0
1419.591919 240.0
1426.559692 216.0
1429.470459 172.0
1429.598389 144.0
1431.066284 60.0
1433.032104 148.0
1434.04187 212.0
1436.62085 164.0
1439.337891 184.0
1441.211182 104.0
1441.400146 160.0
1444.220093 152.0
1446.702148 136.0
1453.045532 48.0
1459.486328 172.0
1459.570068 40.0
1459.99585 64.0
1460.551147 96.0
1461.334717 204.0
1470.349487 140.0
1475.505737 136.0
1479.813232 36.0
1487.065186 164.0
1495.512329 224.0
1500.103271 220.0
