>compound Cetirizine Dihydrochloride
>formula C21H25ClN2O3
>ionization [M+H]+
>parentmass 389.16394
#inchi InChI=1S/C21H25ClN2O3/c22-19-8-6-18(7-9-19)21(17-4-2-1-3-5-17)24-12-10-23(11-13-24)14-15-27-16-20(25)26/h1-9,21H,10-16H2,(H,25,26)
#inchikey ZKLPARSLTMPFCP
#origInchi InChI=1S/C21H25ClN2O3.2ClH/c22-19-8-6-18(7-9-19)21(17-4-2-1-3-5-17)24-12-10-23(11-13-24)14-15-27-16-20(25)26;;/h1-9,21H,10-16H2,(H,25,26);2*1H
#Ion_Source LC-ESI
#Instrument qTof
#Compound_Source Commercial
#PI Dorrestein
#Data_Collector Garg_Neha
#Scan -1
#Precursor_MZ 389.163
#ExactMass 388.155
#Charge 1
#CAS_Number 83881-52-1, 83881-52-1 (2HCl)
#Pubmed_ID N/A
#Smiles C1(=CC=CC=C1C(C2=CC=C(C=C2)Cl)N3CCN(CC3)CCOCC(O)=O).Cl.Cl
#INCHI_AUX N/A
#Library_Class 1
#SpectrumID CCMSLIB00000078089
#IonMode Positive
#UpdateWorkflowName UPDATE-SINGLE-ANNOTATED-GOLD
#LibraryQualityString Gold
#TaskID 77f51c88eb8b467eb4a01dd2d0cb90d2
##Scan# 1212
#SpectrumFile Plate2_1_20_GG5_01_16493.mzXML
#LibraryName FDALibrary_2_04302014.mgf
#MQScore -1
#Organism FDALibrary_2_04302014
#TIC_Query 0
#RT_Query -1
#MZErrorPPM -1
#SharedPeaks 0
#MassDiff 0
#LibMZ -1
#SpecMZ 389.163
#SpecCharge 0
#internalFilename spec-00000.mgf

>collision 10
44.94305 148.0
45.031158 168.0
45.163227 360.0
45.174122 180.0
45.214016 196.0
45.357639 144.0
45.397518 172.0
45.444195 212.0
45.536095 156.0
45.597897 188.0
45.68261 148.0
45.735088 188.0
45.828011 236.0
45.943958 200.0
45.970947 176.0
46.062756 168.0
46.076099 164.0
46.237179 184.0
46.384815 208.0
46.399727 172.0
46.440411 192.0
46.544907 188.0
46.616798 156.0
46.630493 164.0
46.678078 192.0
46.706295 192.0
46.812798 180.0
46.831863 160.0
46.855022 176.0
46.918682 304.0
46.959332 192.0
47.041855 228.0
47.055508 196.0
47.085548 144.0
47.097843 148.0
47.111504 188.0
47.197609 148.0
47.222225 196.0
47.281086 168.0
47.337181 140.0
47.363766 132.0
47.537327 160.0
47.56752 176.0
47.744766 168.0
47.766773 144.0
47.834503 204.0
47.854851 140.0
47.884632 192.0
47.905857 236.0
47.934742 196.0
47.974712 220.0
48.003666 160.0
48.04874 236.0
48.098866 152.0
48.132 156.0
48.152714 152.0
48.241829 136.0
48.256355 192.0
48.317211 140.0
48.347652 208.0
48.422413 180.0
48.496437 188.0
48.520798 144.0
48.598469 188.0
48.697685 128.0
48.724815 192.0
48.776234 156.0
48.809181 120.0
48.881935 164.0
48.927868 220.0
48.947361 188.0
49.005863 176.0
49.057426 152.0
49.135525 156.0
49.19833 200.0
49.240005 156.0
49.28632 140.0
49.324055 152.0
49.419151 216.0
49.433865 148.0
49.461136 152.0
49.543758 160.0
49.649879 152.0
49.707806 172.0
49.758335 152.0
49.875496 160.0
49.899899 232.0
49.939613 140.0
49.96212 160.0
50.040932 228.0
50.092648 172.0
50.124039 184.0
50.140949 152.0
50.170551 176.0
50.1917 208.0
50.257996 156.0
50.325794 228.0
50.424629 180.0
50.465626 152.0
50.496738 184.0
50.517956 164.0
50.578342 160.0
50.633575 152.0
50.676277 164.0
50.727539 156.0
50.828239 196.0
50.923355 152.0
50.936687 176.0
50.985237 200.0
51.019981 176.0
51.044628 144.0
51.091438 180.0
51.106743 160.0
51.154011 188.0
51.19215 152.0
51.40741 228.0
51.424534 200.0
51.458794 184.0
51.474503 140.0
51.491638 180.0
51.520206 164.0
51.573078 328.0
51.587376 200.0
51.63599 144.0
51.667461 172.0
51.683197 164.0
51.731857 172.0
51.773384 152.0
51.793434 152.0
51.870811 228.0
51.882282 144.0
51.971203 244.0
51.992729 172.0
52.093239 184.0
52.226921 188.0
52.258572 224.0
52.342056 168.0
52.432812 192.0
52.444702 172.0
52.49913 160.0
52.624668 148.0
52.656441 188.0
52.695442 196.0
52.735905 160.0
52.766262 156.0
52.848705 148.0
52.86462 156.0
53.121075 160.0
53.134434 192.0
53.180195 140.0
53.36797 180.0
53.404327 208.0
53.4814 128.0
53.523663 460.0
53.579288 168.0
53.676666 168.0
53.727425 160.0
53.768574 148.0
53.885391 220.0
53.919003 212.0
54.046227 164.0
54.11726 128.0
54.128197 224.0
54.16893 128.0
54.209343 132.0
54.265793 224.0
54.355408 172.0
54.505184 200.0
54.550747 156.0
54.577122 136.0
54.660141 144.0
54.781784 160.0
54.812725 180.0
54.825989 220.0
54.933624 184.0
55.01857 200.0
55.144779 208.0
55.615788 176.0
55.66478 192.0
55.695969 188.0
55.8223 164.0
55.840466 280.0
55.859482 232.0
55.869896 164.0
55.917511 168.0
55.964893 220.0
55.988976 156.0
56.024723 140.0
56.035152 200.0
56.151424 156.0
56.215576 164.0
56.246918 216.0
56.388817 172.0
56.427681 172.0
56.461067 172.0
56.487503 168.0
56.505455 208.0
56.607159 156.0
56.818581 180.0
56.856899 140.0
56.877373 180.0
56.980724 148.0
57.129868 256.0
57.144608 176.0
57.15815 224.0
57.412735 148.0
57.548546 244.0
57.568176 240.0
57.578747 172.0
57.651264 256.0
57.736839 196.0
57.751045 140.0
57.940269 152.0
57.982697 204.0
58.002895 108.0
58.071598 196.0
58.114628 164.0
58.12896 180.0
58.343964 192.0
58.357738 200.0
58.375092 212.0
58.424568 184.0
58.465649 172.0
58.610317 204.0
58.628605 160.0
58.657562 156.0
58.681957 152.0
58.717392 184.0
58.744324 152.0
58.771832 172.0
58.884914 180.0
58.90477 200.0
58.990345 152.0
59.022453 184.0
59.056095 180.0
59.106583 144.0
59.164745 264.0
59.181587 156.0
59.276554 164.0
59.390007 144.0
59.426823 164.0
59.452911 168.0
59.532742 180.0
59.552704 184.0
59.580357 140.0
59.600601 136.0
59.649509 148.0
59.797173 168.0
59.831036 188.0
59.878605 328.0
59.96616 128.0
60.006672 224.0
60.062115 160.0
60.202641 140.0
60.228897 148.0
60.269066 176.0
60.347893 144.0
60.671478 160.0
60.760551 156.0
60.798668 236.0
60.958622 144.0
61.055809 140.0
61.148357 164.0
61.229473 196.0
61.25951 176.0
61.274773 220.0
61.339943 192.0
61.399193 192.0
61.422588 204.0
61.509972 176.0
61.552128 240.0
61.578236 156.0
61.613041 188.0
61.653667 208.0
61.681801 156.0
61.752163 180.0
61.884434 168.0
61.95409 200.0
62.196304 180.0
62.208141 140.0
62.250534 160.0
62.272522 148.0
62.375648 228.0
62.396664 172.0
62.421822 184.0
62.50362 208.0
62.635384 196.0
62.69574 192.0
62.721863 172.0
62.757217 276.0
62.809177 152.0
62.833866 228.0
62.858891 176.0
63.117226 184.0
63.133041 156.0
63.182507 176.0
63.249607 172.0
63.36256 192.0
63.406929 240.0
63.424362 228.0
63.479855 164.0
63.588581 172.0
63.616302 220.0
63.715469 152.0
63.767204 144.0
64.096626 164.0
64.117348 164.0
64.395485 144.0
64.582947 220.0
64.607552 140.0
64.782051 152.0
64.842941 144.0
64.923103 280.0
65.027382 140.0
65.184769 188.0
65.207268 172.0
65.239418 200.0
65.393913 168.0
65.472733 180.0
65.504944 244.0
65.522667 156.0
65.595184 176.0
65.693695 180.0
65.759712 216.0
65.786667 172.0
65.896355 180.0
65.908287 264.0
66.019821 188.0
66.031143 156.0
66.101326 136.0
66.120033 140.0
66.201073 140.0
66.249664 304.0
66.296654 192.0
66.349602 156.0
66.406898 196.0
66.49614 176.0
66.520485 164.0
66.543846 144.0
66.621857 216.0
66.702423 148.0
66.787895 168.0
66.881348 180.0
66.95462 180.0
67.01326 172.0
67.03933 156.0
67.133781 132.0
67.194237 168.0
67.207291 180.0
67.245338 140.0
67.324821 160.0
67.436462 120.0
67.519722 188.0
67.923866 176.0
68.046951 160.0
68.099495 208.0
68.360901 160.0
68.393814 148.0
68.40863 144.0
68.476944 132.0
68.51059 232.0
68.538742 176.0
68.629402 344.0
68.726715 148.0
68.921555 148.0
68.936432 140.0
68.977989 192.0
69.067039 176.0
69.162926 152.0
69.179565 144.0
69.199432 236.0
69.509392 148.0
69.532372 156.0
69.622276 144.0
69.746788 128.0
69.800087 188.0
69.833351 224.0
69.890541 256.0
69.904892 160.0
69.926521 156.0
69.969803 144.0
69.993118 164.0
70.103058 180.0
70.208084 176.0
70.249786 144.0
70.286491 168.0
70.349915 180.0
70.389984 140.0
70.403183 164.0
70.503578 192.0
70.607651 160.0
70.629402 204.0
70.662437 148.0
70.684189 152.0
70.769646 148.0
70.811417 360.0
70.943573 244.0
70.960556 168.0
71.10482 132.0
71.117691 180.0
71.291939 192.0
71.370247 256.0
71.390427 172.0
71.465172 200.0
71.504822 172.0
71.63279 156.0
71.656288 216.0
71.792915 180.0
71.818214 260.0
71.909325 140.0
71.9701 236.0
72.008942 232.0
72.032585 204.0
72.053703 128.0
72.066376 236.0
72.10524 152.0
72.164406 204.0
72.270966 148.0
72.335281 172.0
72.367447 216.0
72.414268 148.0
72.530083 156.0
72.567375 220.0
72.669144 168.0
72.786263 200.0
72.903473 148.0
72.976562 172.0
72.991867 160.0
73.066711 216.0
73.119461 144.0
73.168823 192.0
73.364746 208.0
73.575226 128.0
73.597374 172.0
73.642883 192.0
73.730019 192.0
73.78643 140.0
73.809143 196.0
73.862953 204.0
73.906158 196.0
73.985596 348.0
74.013992 172.0
74.168182 140.0
74.224754 232.0
74.269348 196.0
74.308807 192.0
74.465019 232.0
74.556076 180.0
74.573654 192.0
74.648422 284.0
74.66954 196.0
74.702225 156.0
74.796066 240.0
74.876068 200.0
74.889999 188.0
74.910522 172.0
75.050446 148.0
75.07254 156.0
75.151314 204.0
75.172592 148.0
75.276169 220.0
75.333092 196.0
75.398697 192.0
75.547531 232.0
75.590782 160.0
75.623665 208.0
75.654823 244.0
75.696487 128.0
75.738586 108.0
75.798584 160.0
75.859245 176.0
76.067406 172.0
76.155968 188.0
76.194183 140.0
76.248047 348.0
76.302734 176.0
76.345406 208.0
76.400681 180.0
76.655273 168.0
76.691589 172.0
76.922462 124.0
77.01017 132.0
77.074074 208.0
77.095039 144.0
77.110771 144.0
77.16185 144.0
77.184196 144.0
77.465973 144.0
77.538895 188.0
77.592232 180.0
77.769333 172.0
77.804443 160.0
77.85009 176.0
77.901031 152.0
77.93441 184.0
77.951981 204.0
77.994164 148.0
78.075043 232.0
78.13485 156.0
78.199951 176.0
78.233398 148.0
78.37838 164.0
78.406021 156.0
78.502983 240.0
78.547073 140.0
78.596474 156.0
78.63353 176.0
78.649414 184.0
78.691788 172.0
78.962151 160.0
78.992226 168.0
79.039993 144.0
79.057686 140.0
79.089546 140.0
79.231216 148.0
79.417389 152.0
79.436859 220.0
79.672249 148.0
79.761818 144.0
79.8265 168.0
79.855019 144.0
79.884521 184.0
79.913948 96.0
79.985313 168.0
80.139107 148.0
80.181877 160.0
80.30735 232.0
80.358414 148.0
80.379204 172.0
80.441055 144.0
80.495857 176.0
80.510139 176.0
80.661942 308.0
80.733528 148.0
80.754707 152.0
80.825523 120.0
80.925552 116.0
80.987679 176.0
81.100609 156.0
81.159721 204.0
81.506836 156.0
81.615799 140.0
81.666153 180.0
81.891144 172.0
81.914726 128.0
82.013664 140.0
82.039764 184.0
82.150711 152.0
82.249962 144.0
82.365524 148.0
82.443214 152.0
82.531792 152.0
82.575195 224.0
82.605667 156.0
82.683334 192.0
82.758972 252.0
82.797806 328.0
82.838013 196.0
82.921005 188.0
82.95182 152.0
83.060616 160.0
83.184013 192.0
83.343834 220.0
83.560204 144.0
83.640274 168.0
83.804176 172.0
83.948181 208.0
83.986481 244.0
84.156204 172.0
84.190895 188.0
84.253006 140.0
84.265793 144.0
84.282234 168.0
84.448593 240.0
84.642586 224.0
84.775032 132.0
84.811287 180.0
84.849632 352.0
84.946831 160.0
85.080795 188.0
85.207031 228.0
85.238754 220.0
85.295723 152.0
85.376625 232.0
85.428131 184.0
85.463081 164.0
85.500809 120.0
85.560631 236.0
85.578316 244.0
85.693237 152.0
85.742989 188.0
85.809349 140.0
85.86467 172.0
85.892342 176.0
85.934769 196.0
85.960602 200.0
86.051048 148.0
86.089828 192.0
86.121223 192.0
86.143387 144.0
86.165558 156.0
86.2136 164.0
86.356911 272.0
86.442909 148.0
86.459564 212.0
86.596573 176.0
86.665115 156.0
86.788116 156.0
86.853226 120.0
86.91729 184.0
87.056046 188.0
87.097511 108.0
87.127098 192.0
87.186562 176.0
87.19957 192.0
87.29438 140.0
87.384605 164.0
87.523262 160.0
87.689064 144.0
87.710861 196.0
87.759323 180.0
87.795433 148.0
87.887543 196.0
87.972588 156.0
88.017754 188.0
88.090111 172.0
88.133209 196.0
88.163109 208.0
88.218353 136.0
88.260994 280.0
88.279015 176.0
88.322029 148.0
88.398735 244.0
88.539146 164.0
88.632812 232.0
88.674034 160.0
88.727715 220.0
88.771523 148.0
88.804436 136.0
88.94413 160.0
89.022987 152.0
89.040382 184.0
89.128181 212.0
89.154831 200.0
89.1996 144.0
89.293617 148.0
89.40593 172.0
89.478027 184.0
89.557121 148.0
89.604103 140.0
89.798378 176.0
89.828552 164.0
89.871948 156.0
89.900513 232.0
90.126511 176.0
90.147636 324.0
90.193001 344.0
90.255386 144.0
90.310234 152.0
90.383301 212.0
90.514626 164.0
90.633957 180.0
90.884247 176.0
90.914062 152.0
90.946312 364.0
90.987663 312.0
91.054871 208.0
91.330696 188.0
91.356728 216.0
91.439148 176.0
91.469604 188.0
91.503876 148.0
91.53717 152.0
91.625061 200.0
91.726768 228.0
91.916779 184.0
91.938393 184.0
92.066391 152.0
92.093124 184.0
92.257462 376.0
92.30909 164.0
92.458305 196.0
92.511902 196.0
92.532158 192.0
92.568192 172.0
92.588486 148.0
92.622963 148.0
92.692635 176.0
92.7686 156.0
92.799278 216.0
92.904221 156.0
93.054459 160.0
93.129349 224.0
93.223495 180.0
93.312355 104.0
93.400375 156.0
93.427208 152.0
93.47348 216.0
93.590904 144.0
93.68335 164.0
93.707108 192.0
93.753334 200.0
93.884293 192.0
94.032364 204.0
94.090324 148.0
94.126953 156.0
94.237053 324.0
94.407524 148.0
94.461319 212.0
94.492043 168.0
94.623878 172.0
94.643242 164.0
94.69445 216.0
94.730392 220.0
94.930901 160.0
95.015373 188.0
95.046539 132.0
95.104256 168.0
95.15123 216.0
95.175072 352.0
95.203659 252.0
95.277466 324.0
95.312439 144.0
95.376579 156.0
95.4524 164.0
95.649315 240.0
95.672256 164.0
95.777412 156.0
95.826118 240.0
95.920509 156.0
95.978149 148.0
96.067871 236.0
96.099083 160.0
96.114693 208.0
96.347038 152.0
96.37162 404.0
96.434967 208.0
96.450607 200.0
96.519699 164.0
96.587486 172.0
96.752586 232.0
96.953621 208.0
97.015915 164.0
97.249771 164.0
97.296539 180.0
97.344009 180.0
97.424538 164.0
97.516891 216.0
97.642723 144.0
97.672226 140.0
98.017845 124.0
98.188271 184.0
98.26915 168.0
98.336243 204.0
98.384209 240.0
98.438904 224.0
98.462601 160.0
98.496178 196.0
98.555397 168.0
98.608803 152.0
98.632751 172.0
98.681946 236.0
98.7407 248.0
98.897049 196.0
98.966866 216.0
99.016373 184.0
99.230385 184.0
99.275261 360.0
99.34343 164.0
99.371201 184.0
99.385704 156.0
99.420815 196.0
99.542084 180.0
99.573082 172.0
99.669037 160.0
99.746864 152.0
99.776367 164.0
99.802216 208.0
99.830055 208.0
99.935478 164.0
100.009544 148.0
100.078789 200.0
100.098701 140.0
100.160439 160.0
100.176376 168.0
100.198288 144.0
100.22419 196.0
100.297928 228.0
100.321854 164.0
100.343781 192.0
100.389641 184.0
100.43528 200.0
100.48539 192.0
100.52729 164.0
100.6231 168.0
100.647064 220.0
100.724953 180.0
100.842957 140.0
100.999313 176.0
101.098839 152.0
101.130859 164.0
101.148323 116.0
101.174896 192.0
101.240974 208.0
101.297058 144.0
101.413277 192.0
101.481438 176.0
101.508469 116.0
101.651932 208.0
101.704117 140.0
101.758316 220.0
101.817535 116.0
101.852959 96.0
101.936295 152.0
101.957184 236.0
102.089867 140.0
102.148193 180.0
102.238739 232.0
102.399582 256.0
102.518669 172.0
102.601311 172.0
102.621468 168.0
102.708893 228.0
102.754585 144.0
102.772743 164.0
102.807182 196.0
102.835304 148.0
102.922112 144.0
103.192863 164.0
103.330338 132.0
103.444664 140.0
103.492638 204.0
103.534843 148.0
103.668549 200.0
103.796257 208.0
103.828178 200.0
103.984924 252.0
104.100647 148.0
104.235764 128.0
104.346512 184.0
104.360741 152.0
104.407516 156.0
104.499817 128.0
104.52784 188.0
104.551956 160.0
104.747421 144.0
104.856422 156.0
104.898666 236.0
104.943069 172.0
104.98317 180.0
105.042999 140.0
105.075645 180.0
105.094002 148.0
105.126335 180.0
105.152992 168.0
105.212379 268.0
105.249016 144.0
105.336952 200.0
105.361465 300.0
105.449768 200.0
105.510658 180.0
105.676323 200.0
105.692696 144.0
105.76432 204.0
105.843903 156.0
105.883957 224.0
105.902367 220.0
105.941757 184.0
105.989601 176.0
106.02816 216.0
106.180252 148.0
106.260254 200.0
106.297188 172.0
106.3498 148.0
106.375175 224.0
106.41008 152.0
106.433128 176.0
106.584663 180.0
106.660667 192.0
106.753227 160.0
106.921921 164.0
106.969345 204.0
107.007988 148.0
107.039436 144.0
107.083557 176.0
107.142563 160.0
107.15873 180.0
107.36763 188.0
107.402802 248.0
107.46801 148.0
107.52166 168.0
107.688896 172.0
107.734344 156.0
107.798393 176.0
107.843857 160.0
107.909851 152.0
108.01548 152.0
108.089966 184.0
108.154121 180.0
108.326965 196.0
108.344635 156.0
108.411552 228.0
108.500069 144.0
108.51873 192.0
108.574242 192.0
108.775978 144.0
108.796738 176.0
108.940033 176.0
109.035614 168.0
109.055153 180.0
109.201942 176.0
109.222145 180.0
109.347588 144.0
109.368401 224.0
109.551643 220.0
109.591232 144.0
109.688538 284.0
109.899818 176.0
110.06472 176.0
110.115822 128.0
110.277809 148.0
110.294533 172.0
110.332161 160.0
110.457634 160.0
110.550835 300.0
110.595024 344.0
110.696228 200.0
110.732643 176.0
110.767441 156.0
110.885826 240.0
111.056702 180.0
111.090553 320.0
111.161377 148.0
111.256058 148.0
111.329544 164.0
111.44928 168.0
111.550163 240.0
111.592209 180.0
111.680527 160.0
111.901497 144.0
112.091064 164.0
112.179588 148.0
112.200668 172.0
112.234406 172.0
112.331421 148.0
112.364288 248.0
112.445358 260.0
112.538246 156.0
112.612152 192.0
112.644417 176.0
112.916908 188.0
112.999008 160.0
113.085815 164.0
113.106628 240.0
113.130371 112.0
113.275665 164.0
113.320831 168.0
113.433151 164.0
113.464798 164.0
113.571869 344.0
113.6325 212.0
113.65239 208.0
113.711014 216.0
113.846886 220.0
113.927094 228.0
113.963722 160.0
114.169914 164.0
114.216705 156.0
114.287064 224.0
114.35807 160.0
114.419182 164.0
114.69368 164.0
114.714996 260.0
114.749107 144.0
114.847206 140.0
114.938942 164.0
115.01577 160.0
115.077682 140.0
115.100487 188.0
115.184464 144.0
115.329765 240.0
115.385345 192.0
115.462585 164.0
115.642044 148.0
115.659424 132.0
115.708405 216.0
115.776886 132.0
115.814079 104.0
115.903313 164.0
115.954742 160.0
116.062469 96.0
116.180321 188.0
116.360168 204.0
116.451416 188.0
116.473991 184.0
116.551331 248.0
116.580238 180.0
116.815781 216.0
116.873863 152.0
116.906143 140.0
116.95517 216.0
116.998703 188.0
117.025467 380.0
117.069519 184.0
117.104218 160.0
117.194695 176.0
117.217018 212.0
117.293831 152.0
117.340248 128.0
117.500122 188.0
117.68647 260.0
117.725342 140.0
117.751404 172.0
117.776337 176.0
117.823486 192.0
117.908974 192.0
117.927238 184.0
118.017677 196.0
118.103561 156.0
118.179283 156.0
118.275169 208.0
118.293442 176.0
118.305717 228.0
118.380592 180.0
118.42485 244.0
118.558235 168.0
118.651436 208.0
118.711205 156.0
118.766373 172.0
118.93779 160.0
119.033318 164.0
119.086975 164.0
119.185371 220.0
119.226662 260.0
119.248878 152.0
119.296211 148.0
119.348396 288.0
119.458893 144.0
119.563751 360.0
119.727036 204.0
119.801094 144.0
119.842232 168.0
120.091011 152.0
120.225281 140.0
120.267746 148.0
120.329575 224.0
120.453354 148.0
120.572433 120.0
120.606308 188.0
120.654556 204.0
120.733116 172.0
120.763741 256.0
120.936592 208.0
120.997887 156.0
121.059364 144.0
121.102173 160.0
121.144905 180.0
121.237617 180.0
121.319931 268.0
121.355011 212.0
121.370361 160.0
121.422989 168.0
121.493248 136.0
121.518631 156.0
121.668892 188.0
121.785141 156.0
121.826874 144.0
121.844452 248.0
121.870819 160.0
122.06205 232.0
122.154427 164.0
122.191345 184.0
122.198608 144.0
122.204979 196.0
122.264442 228.0
122.326065 196.0
122.425148 148.0
122.498253 148.0
122.535286 176.0
122.59919 152.0
122.682945 156.0
122.744682 156.0
122.786583 160.0
122.934395 196.0
123.072929 168.0
123.241325 180.0
123.299721 208.0
123.323265 160.0
123.584045 148.0
123.688065 344.0
123.751862 196.0
123.769981 160.0
123.942757 140.0
124.022537 168.0
124.126732 176.0
124.173309 140.0
124.341927 172.0
124.467789 184.0
124.526199 172.0
124.576416 132.0
124.628395 164.0
124.709351 180.0
124.806213 148.0
124.830673 140.0
124.931931 152.0
125.035339 188.0
125.246864 216.0
125.362717 144.0
125.380547 236.0
125.402832 176.0
125.428848 264.0
125.706139 160.0
125.735153 204.0
125.786484 192.0
125.971832 192.0
126.083549 180.0
126.101433 148.0
126.184143 232.0
126.430199 200.0
126.513016 168.0
126.679703 176.0
126.79525 192.0
126.813179 148.0
127.068817 160.0
127.092422 200.0
127.131653 140.0
127.183273 152.0
127.255112 208.0
127.351456 124.0
127.394394 196.0
127.493217 164.0
127.544907 156.0
127.598862 252.0
127.625847 184.0
127.643829 176.0
127.695557 204.0
127.711304 188.0
127.837799 160.0
127.916069 148.0
127.976852 208.0
128.157043 156.0
128.206619 168.0
128.299042 204.0
128.317078 200.0
128.482193 148.0
128.507416 112.0
128.537201 100.0
128.626144 168.0
128.680313 168.0
128.790726 144.0
128.910721 376.0
129.019211 160.0
129.055389 184.0
129.080261 256.0
129.110886 132.0
129.159302 152.0
129.202393 200.0
129.285019 172.0
129.316299 220.0
129.372131 156.0
129.517059 220.0
129.557831 156.0
129.664337 284.0
129.742447 212.0
129.783661 200.0
129.834366 148.0
129.886154 188.0
129.920563 228.0
129.943451 176.0
130.415588 152.0
130.589615 192.0
130.628418 180.0
130.668015 268.0
130.713516 156.0
130.831879 168.0
130.902405 160.0
130.941177 192.0
131.019684 224.0
131.043686 196.0
131.063248 192.0
131.084091 128.0
131.134842 176.0
131.226028 140.0
131.246552 164.0
131.285309 252.0
131.321808 196.0
131.341599 200.0
131.434784 220.0
131.456406 180.0
131.632172 152.0
131.668716 168.0
131.730392 188.0
131.769226 180.0
131.824066 168.0
131.920059 216.0
132.068039 152.0
132.151443 140.0
132.185379 180.0
132.473862 164.0
132.510513 140.0
132.54718 152.0
132.752258 184.0
132.810822 152.0
132.850784 152.0
132.894562 144.0
133.031113 152.0
133.162003 176.0
133.184967 148.0
133.219421 252.0
133.235504 212.0
133.346451 184.0
133.461823 168.0
133.495239 204.0
133.520538 188.0
133.552734 144.0
133.810471 268.0
133.849243 172.0
133.886856 208.0
133.939438 140.0
134.033905 160.0
134.130936 156.0
134.335922 184.0
134.555176 152.0
134.571335 164.0
134.590408 152.0
134.675247 196.0
134.695724 148.0
134.75148 160.0
134.98494 200.0
135.010376 156.0
135.037674 240.0
135.081924 232.0
135.151627 188.0
135.172318 200.0
135.232758 132.0
135.242752 120.0
135.271835 200.0
135.350555 144.0
135.501099 220.0
135.579987 236.0
135.696609 156.0
135.792297 168.0
135.844223 244.0
135.897583 256.0
135.913818 168.0
135.994919 144.0
136.043793 148.0
136.100052 156.0
136.26442 196.0
136.311844 208.0
136.443375 196.0
136.461975 152.0
136.569916 136.0
136.820267 152.0
136.841232 144.0
137.043869 188.0
137.101761 140.0
137.155731 180.0
137.204681 148.0
137.232651 208.0
137.332413 216.0
137.403946 172.0
137.440247 144.0
137.63829 156.0
137.735687 140.0
137.804489 160.0
137.903549 260.0
137.944717 140.0
138.010178 172.0
138.092026 172.0
138.245285 180.0
138.354111 148.0
138.445435 152.0
138.477921 280.0
138.675034 144.0
139.056778 316.0
139.076111 160.0
139.215927 208.0
139.287445 160.0
139.503632 184.0
139.672943 184.0
139.731766 184.0
139.802353 168.0
139.818817 184.0
139.957596 156.0
140.110809 196.0
140.194626 188.0
140.259262 220.0
140.387039 168.0
140.458878 160.0
140.526901 188.0
140.570587 180.0
140.630188 220.0
140.685379 216.0
140.832642 172.0
140.882248 180.0
141.068344 752.0
141.158798 156.0
141.251038 200.0
141.371704 196.0
141.513977 148.0
141.55397 168.0
141.587128 152.0
141.627136 216.0
141.733978 192.0
141.916519 192.0
141.952087 180.0
141.983612 220.0
142.072174 316.0
142.089661 228.0
142.152771 140.0
142.189316 208.0
142.225983 188.0
142.374496 140.0
142.422012 168.0
142.493271 172.0
142.559067 160.0
142.619217 172.0
142.690536 232.0
142.71431 208.0
142.899536 160.0
142.909286 140.0
142.915359 296.0
142.978912 140.0
143.064056 168.0
143.087769 192.0
143.113464 148.0
143.304596 176.0
143.339127 172.0
143.376083 260.0
143.409454 184.0
143.426132 220.0
143.487137 136.0
143.774429 276.0
143.881775 152.0
143.910431 148.0
143.965347 168.0
143.984451 248.0
144.065659 216.0
144.287918 180.0
144.342789 156.0
144.407486 200.0
144.460114 140.0
144.526047 100.0
144.550903 216.0
144.589325 240.0
144.701828 156.0
145.0215 108.0
145.042007 164.0
145.064728 172.0
145.100815 256.0
145.236237 176.0
145.346588 176.0
145.468994 148.0
145.543411 152.0
145.601059 168.0
145.639481 140.0
145.656296 140.0
145.754791 156.0
145.810074 172.0
145.877365 272.0
145.975952 140.0
146.002396 176.0
146.043289 176.0
146.064514 160.0
146.182831 148.0
146.336884 164.0
146.474152 168.0
146.569153 176.0
146.668762 136.0
146.79953 148.0
146.850174 192.0
146.905655 168.0
147.055252 188.0
147.081009 1124.0
147.249695 188.0
147.421097 160.0
147.514206 152.0
147.538193 212.0
147.598816 164.0
147.673798 160.0
147.809265 168.0
147.833466 204.0
147.856964 136.0
148.031967 164.0
148.04892 192.0
148.097366 148.0
148.12973 132.0
148.17981 120.0
148.201538 172.0
148.264542 176.0
148.314789 236.0
148.351807 228.0
148.676819 228.0
148.730225 180.0
148.805481 144.0
148.878326 160.0
148.997345 160.0
149.024979 512.0
149.09787 168.0
149.133423 152.0
149.252045 136.0
149.466614 244.0
149.493378 236.0
149.515274 284.0
149.63942 212.0
149.705383 224.0
149.727081 156.0
149.870804 172.0
149.951233 140.0
149.97316 176.0
149.999985 188.0
150.090179 164.0
150.270676 208.0
150.446396 200.0
150.529419 156.0
150.588028 160.0
150.619781 148.0
151.059784 148.0
151.080215 152.0
151.125839 172.0
151.149445 160.0
151.248199 164.0
151.390213 184.0
151.524002 148.0
151.686676 180.0
151.711197 152.0
151.738831 176.0
151.787201 172.0
151.811722 148.0
151.951538 164.0
152.039871 140.0
152.118607 268.0
152.210464 140.0
152.313202 160.0
152.420502 188.0
152.506531 144.0
152.597473 172.0
152.617157 152.0
152.661407 160.0
152.832275 156.0
153.069916 204.0
153.09169 104.0
153.237411 288.0
153.418243 180.0
153.4543 156.0
153.607208 148.0
153.662277 148.0
153.725632 160.0
153.765121 140.0
153.957687 184.0
154.138016 200.0
154.159561 156.0
154.320938 212.0
154.450745 204.0
154.604477 192.0
154.810745 236.0
154.90419 176.0
155.001617 156.0
155.057877 132.0
155.089432 168.0
155.128021 168.0
155.177612 308.0
155.196945 168.0
155.269363 144.0
155.333847 180.0
155.373535 156.0
155.464005 164.0
155.629181 168.0
155.649963 328.0
155.742386 328.0
155.775711 192.0
155.837814 160.0
156.270447 140.0
156.290359 204.0
156.349838 140.0
156.372482 164.0
156.392395 228.0
156.544052 96.0
156.581619 152.0
156.636597 164.0
156.723251 200.0
156.751022 140.0
156.785324 160.0
157.152466 164.0
157.214859 192.0
157.254791 184.0
157.419556 184.0
157.454529 152.0
157.514465 164.0
157.599411 152.0
157.666885 168.0
157.696869 208.0
157.761871 240.0
157.964417 160.0
158.068192 204.0
158.084518 352.0
158.204666 140.0
158.231247 248.0
158.267258 168.0
158.317337 192.0
158.354904 236.0
158.532776 156.0
158.587921 396.0
158.806061 160.0
158.926468 160.0
159.004272 168.0
159.034378 208.0
159.080658 808.0
159.122253 152.0
159.159912 164.0
159.221634 152.0
159.316849 140.0
159.715317 176.0
159.873825 208.0
159.961578 176.0
160.004715 192.0
160.06514 180.0
160.102921 200.0
160.196121 152.0
160.213745 216.0
160.251541 200.0
160.324615 164.0
160.382584 184.0
160.628967 208.0
160.710434 180.0
160.84671 184.0
160.895386 156.0
160.941208 328.0
161.051239 140.0
161.099426 388.0
161.169983 164.0
161.238205 168.0
161.301407 172.0
161.37471 144.0
161.470932 160.0
161.566727 196.0
161.776917 148.0
161.809891 212.0
161.845337 180.0
162.042908 168.0
162.14679 156.0
162.30397 204.0
162.440918 248.0
162.491669 164.0
162.699768 332.0
162.857208 148.0
162.911896 172.0
162.942398 180.0
163.05101 368.0
163.111313 340.0
163.397095 200.0
163.44957 172.0
163.553635 188.0
163.633804 136.0
163.740753 208.0
163.805527 128.0
163.96701 236.0
163.989136 332.0
164.062485 652.0
164.111832 176.0
164.139877 148.0
164.166306 216.0
164.26741 156.0
164.354141 156.0
164.417694 164.0
164.446014 352.0
164.48941 268.0
164.528534 232.0
164.550674 184.0
164.622177 192.0
164.660492 180.0
164.703354 200.0
164.772873 196.0
164.866043 156.0
164.916336 200.0
164.942627 132.0
164.988495 240.0
165.035446 224.0
165.070404 44052.0
165.174088 196.0
165.258011 208.0
165.344315 152.0
165.394302 160.0
165.41571 256.0
165.437592 188.0
165.545349 172.0
165.565598 196.0
165.611572 272.0
165.668488 112.0
165.71814 144.0
165.851013 172.0
165.919861 152.0
165.967667 104.0
166.001175 128.0
166.012024 320.0
166.034027 196.0
166.078278 99980.0
166.155975 172.0
166.288834 196.0
166.323303 132.0
166.373199 164.0
166.412064 144.0
166.500046 172.0
166.532455 168.0
166.566147 184.0
166.724411 192.0
166.770309 376.0
166.829407 116.0
166.893143 204.0
166.951675 232.0
166.983978 272.0
167.080902 11588.0
167.148315 128.0
167.187195 124.0
167.243774 128.0
167.276337 132.0
167.3311 192.0
167.361557 156.0
167.436752 208.0
167.558167 104.0
167.675705 228.0
167.710052 172.0
167.773895 144.0
167.868469 140.0
168.012726 112.0
168.057892 312.0
168.084442 764.0
168.194382 180.0
168.310318 116.0
168.348984 196.0
168.389008 188.0
168.513779 184.0
168.569702 136.0
168.723114 148.0
168.839584 100.0
168.917068 164.0
168.994263 124.0
169.03476 156.0
169.064056 656.0
169.091248 144.0
169.155151 184.0
169.243164 388.0
169.377838 160.0
169.406326 184.0
169.646729 168.0
169.687057 100.0
169.779358 188.0
169.859985 164.0
170.002686 232.0
170.103912 184.0
170.142853 144.0
170.303146 176.0
170.350601 172.0
170.475327 120.0
170.537689 204.0
170.636475 228.0
170.717087 192.0
170.747772 240.0
170.82373 160.0
170.844543 164.0
170.881638 168.0
170.904373 224.0
170.986389 220.0
171.081787 1008.0
171.175095 320.0
171.591583 180.0
171.816284 152.0
172.089554 148.0
172.1129 132.0
172.187653 164.0
172.218292 152.0
172.35675 148.0
172.415955 220.0
172.461441 200.0
172.725739 176.0
172.785553 180.0
172.920776 148.0
173.095673 468.0
173.127914 216.0
173.356369 212.0
173.406158 180.0
173.446594 196.0
173.472366 140.0
173.507065 164.0
173.552963 200.0
173.712952 168.0
173.846756 204.0
173.875626 164.0
173.8965 176.0
174.138184 164.0
174.181625 192.0
174.337845 224.0
174.379715 116.0
174.548141 140.0
174.598434 164.0
174.705963 184.0
174.778671 188.0
174.870758 184.0
174.91861 152.0
175.119232 176.0
175.385361 148.0
175.514542 188.0
175.543533 276.0
175.597427 232.0
175.651672 164.0
175.820541 192.0
175.84166 232.0
175.981567 196.0
176.092484 156.0
176.118744 144.0
176.20607 260.0
176.285339 184.0
176.335556 196.0
176.404526 168.0
176.470367 144.0
176.530243 124.0
176.570847 164.0
176.64328 200.0
176.914841 176.0
176.969864 168.0
176.994263 168.0
177.031342 224.0
177.063126 196.0
177.092041 448.0
177.169601 200.0
177.283005 180.0
177.375778 148.0
177.495087 192.0
177.513641 164.0
177.694016 184.0
178.004562 204.0
178.259583 244.0
178.416412 148.0
178.611145 172.0
178.647324 144.0
178.811951 200.0
178.884613 244.0
178.908569 184.0
179.025726 220.0
179.081665 208.0
179.108292 152.0
179.126938 180.0
179.230499 156.0
179.369431 168.0
179.409424 152.0
179.428085 168.0
179.54274 160.0
179.688828 136.0
179.778229 188.0
179.881607 168.0
180.088486 140.0
180.153351 184.0
180.244064 120.0
180.403305 260.0
180.506439 160.0
180.747543 160.0
180.813492 204.0
181.037033 168.0
181.06514 256.0
181.106705 296.0
181.413879 212.0
181.524368 176.0
181.580688 168.0
181.771164 148.0
182.044968 176.0
182.115967 296.0
182.254501 316.0
182.289429 168.0
182.372742 148.0
182.52977 216.0
182.56633 208.0
182.622803 224.0
182.71965 196.0
182.762695 164.0
182.94841 216.0
183.080826 3100.0
183.457565 204.0
183.553284 168.0
183.745743 220.0
183.889145 152.0
184.085495 408.0
184.148346 184.0
184.648361 148.0
184.737625 144.0
184.899963 188.0
185.091278 404.0
185.176132 224.0
185.47258 204.0
185.512131 180.0
185.582611 144.0
185.608185 148.0
185.760117 160.0
186.030273 140.0
186.08728 140.0
186.217621 168.0
186.26503 292.0
186.388138 168.0
186.456711 204.0
186.707657 172.0
186.865463 204.0
186.954407 212.0
187.038773 144.0
187.069138 180.0
187.108063 10140.0
187.24086 180.0
187.274643 192.0
187.350449 124.0
187.559052 168.0
187.627197 240.0
187.785355 168.0
187.809906 180.0
188.025452 224.0
188.071182 184.0
188.112991 1252.0
188.180756 272.0
188.339432 172.0
188.384048 168.0
188.424118 272.0
188.51976 156.0
188.555283 176.0
188.623611 232.0
188.757584 156.0
188.915405 176.0
189.028397 200.0
189.085876 164.0
189.117859 212.0
189.15564 196.0
189.282974 172.0
189.401917 140.0
189.526764 140.0
189.64006 108.0
189.661057 144.0
189.73616 200.0
189.806351 196.0
189.966858 192.0
189.995605 148.0
190.13829 216.0
190.168488 236.0
190.294754 184.0
190.327713 180.0
190.371643 140.0
190.401855 220.0
190.42688 144.0
190.687592 140.0
190.875153 124.0
190.954285 140.0
191.082382 136.0
191.199142 152.0
191.225784 100.0
191.292725 156.0
191.494705 232.0
191.546402 220.0
191.650757 180.0
191.803513 112.0
192.113525 160.0
192.282257 180.0
192.365067 144.0
192.396118 236.0
192.721344 200.0
192.772568 196.0
192.947006 136.0
192.975632 192.0
193.021194 124.0
193.075851 4864.0
193.337997 172.0
193.368439 172.0
193.465805 136.0
193.706161 128.0
193.794907 184.0
193.848251 172.0
193.894653 188.0
194.016815 180.0
194.077377 580.0
194.117844 144.0
194.382751 160.0
194.447845 148.0
194.577042 176.0
194.657562 184.0
194.863113 204.0
194.893677 156.0
195.070374 172.0
195.103333 380.0
195.151474 192.0
195.22168 180.0
195.302338 188.0
195.498703 148.0
195.613998 248.0
195.706253 176.0
195.800552 336.0
195.859924 152.0
195.895248 236.0
195.953751 224.0
196.012619 128.0
196.056519 368.0
196.096527 184.0
196.161499 184.0
196.385849 148.0
196.470169 264.0
196.586716 216.0
196.606262 148.0
196.636948 192.0
196.941284 172.0
197.061066 148.0
197.090088 108.0
197.131271 192.0
197.203934 144.0
197.239578 208.0
197.332535 152.0
197.469559 148.0
197.609421 168.0
197.66539 172.0
197.687775 144.0
197.715622 160.0
197.749695 172.0
197.768936 196.0
197.802521 236.0
197.835159 232.0
197.98172 140.0
198.02652 152.0
198.054535 212.0
198.100143 100.0
198.186066 160.0
198.317917 184.0
198.362778 144.0
198.416031 160.0
198.473923 192.0
198.581482 192.0
198.626358 156.0
198.660019 260.0
198.679657 144.0
198.859436 124.0
198.933563 172.0
199.031921 824.0
199.112686 196.0
199.173721 168.0
199.361969 192.0
199.415237 164.0
199.435364 176.0
199.54187 168.0
199.606537 168.0
199.832596 196.0
199.893753 120.0
199.929947 208.0
199.993027 192.0
200.036102 396.0
200.084869 148.0
200.161697 180.0
200.186234 172.0
200.256638 184.0
200.313538 176.0
200.342056 200.0
200.366196 148.0
200.396347 196.0
200.431885 116.0
200.476822 156.0
200.54335 456.0
200.58551 196.0
200.615082 292.0
200.654312 344.0
200.681305 256.0
200.717407 168.0
200.724289 200.0
200.735245 440.0
200.791519 156.0
200.81723 256.0
200.866501 424.0
200.908386 328.0
200.959244 580.0
200.993652 516.0
201.048111 337020.0
201.150711 492.0
201.192337 196.0
201.24173 320.0
201.308563 268.0
201.353821 252.0
201.384354 200.0
201.478424 324.0
201.512741 5404.0
201.555099 128.0
201.579422 200.0
201.606522 164.0
201.650116 208.0
201.68396 172.0
201.718933 280.0
201.740005 180.0
201.817337 208.0
201.875275 104.0
201.920425 244.0
201.964569 304.0
202.010468 148.0
202.050766 60424.0
202.196396 156.0
202.243454 208.0
202.302841 112.0
202.353897 116.0
202.375183 96.0
202.416946 104.0
202.438965 232.0
202.470917 236.0
202.486237 324.0
202.538193 220.0
202.636475 264.0
202.660156 116.0
202.685196 140.0
202.736313 264.0
202.764481 188.0
202.798828 148.0
202.825485 112.0
202.856628 192.0
202.923691 148.0
202.959427 172.0
203.004715 540.0
203.044739 138260.0
203.121017 292.0
203.149094 228.0
203.191544 144.0
203.212692 240.0
203.22435 188.0
203.249802 132.0
203.292328 104.0
203.334915 140.0
203.367996 140.0
203.412033 140.0
203.443802 356.0
203.465012 336.0
203.511841 736.0
203.557617 164.0
203.584381 304.0
203.615936 160.0
203.672119 392.0
203.71521 168.0
203.755066 204.0
203.775269 144.0
203.817978 200.0
203.94783 96.0
204.047241 14224.0
204.167908 104.0
204.212967 116.0
204.268158 124.0
204.314468 216.0
204.461792 128.0
204.543625 156.0
204.59996 264.0
204.643585 108.0
204.706238 104.0
204.975861 116.0
205.048492 212.0
205.15274 96.0
205.245331 160.0
205.366089 112.0
205.453003 108.0
205.48407 128.0
205.514145 128.0
205.557465 188.0
205.629166 156.0
205.717316 164.0
205.937958 264.0
206.142395 100.0
206.534729 112.0
206.598221 124.0
208.087051 156.0
208.844376 152.0
209.094177 340.0
209.132858 168.0
209.224213 168.0
209.537811 172.0
211.113205 336.0
211.462723 160.0
211.513779 140.0
211.640839 140.0
211.839874 160.0
212.115967 164.0
213.126343 396.0
214.045105 160.0
214.109177 176.0
215.104248 144.0
215.143692 204.0
215.477249 156.0
217.692291 168.0
218.124237 124.0
218.64418 220.0
219.078857 160.0
219.445282 168.0
219.702011 156.0
220.121124 244.0
221.095306 396.0
221.132645 160.0
222.065506 164.0
222.10376 308.0
223.05426 152.0
223.115021 572.0
224.117737 96.0
225.086166 172.0
225.126007 152.0
225.190689 180.0
225.405792 180.0
226.905365 140.0
227.085281 204.0
227.139786 236.0
228.352753 160.0
229.509171 176.0
230.700089 96.0
231.161484 160.0
231.99971 144.0
233.093719 360.0
233.69519 144.0
234.103088 188.0
235.120819 348.0
235.509064 144.0
236.00415 168.0
236.034729 188.0
236.120346 256.0
236.205994 172.0
236.365082 184.0
237.129333 1264.0
237.888351 196.0
238.548813 140.0
239.11113 152.0
239.14328 628.0
239.394943 156.0
239.564346 184.0
239.699905 156.0
240.008148 172.0
240.119171 148.0
241.12532 248.0
242.645554 160.0
243.113937 164.0
243.21637 160.0
245.122101 200.0
245.568649 172.0
246.10347 192.0
247.111694 152.0
248.120346 176.0
249.131241 324.0
249.671524 152.0
250.723038 148.0
250.886948 144.0
251.109543 216.0
251.141617 252.0
251.83992 180.0
252.048431 148.0
253.120377 936.0
253.155701 288.0
254.112869 148.0
255.127121 160.0
255.176865 184.0
255.606277 200.0
255.902298 148.0
256.127502 228.0
256.740356 168.0
257.094452 148.0
257.695343 116.0
258.097534 172.0
259.120117 172.0
259.31723 164.0
259.496735 180.0
261.125153 304.0
261.189178 164.0
262.131714 148.0
262.690277 220.0
263.042023 148.0
263.109833 148.0
263.143127 468.0
264.150299 124.0
264.244232 140.0
264.529022 140.0
265.12619 164.0
265.161682 168.0
265.83197 148.0
266.640594 160.0
267.08606 164.0
267.135956 172.0
267.175842 132.0
268.346344 164.0
268.822601 184.0
269.184937 160.0
270.983978 160.0
271.121033 116.0
271.143219 100.0
271.426453 152.0
272.114624 260.0
273.129333 152.0
273.171936 196.0
273.381042 172.0
274.140686 240.0
274.171417 148.0
275.129517 152.0
276.144806 212.0
276.201965 148.0
276.781128 140.0
277.12851 172.0
277.155548 260.0
278.16571 344.0
279.174866 2056.0
279.419861 144.0
279.919128 160.0
280.89566 160.0
281.122559 144.0
281.151978 152.0
281.193268 168.0
281.309448 140.0
281.990875 188.0
282.126984 100.0
282.146851 212.0
283.155182 208.0
283.744965 172.0
283.919312 140.0
284.355469 168.0
286.012512 180.0
286.083221 148.0
286.136871 248.0
286.382904 140.0
288.55011 152.0
288.813171 164.0
289.32074 160.0
289.975708 256.0
290.28302 160.0
290.347443 232.0
290.829254 172.0
291.169464 1160.0
293.145294 180.0
293.288483 232.0
293.407776 140.0
293.465729 160.0
293.5578 156.0
294.158295 148.0
294.192444 148.0
294.464844 144.0
295.136719 188.0
295.174957 364.0
295.57666 176.0
295.85733 144.0
295.901825 184.0
295.94635 176.0
297.179352 228.0
297.5578 148.0
298.458008 160.0
299.038757 168.0
299.276947 148.0
299.332031 184.0
299.476685 192.0
300.279755 152.0
301.15387 264.0
302.096649 172.0
304.429321 188.0
304.594055 196.0
305.112305 120.0
305.447662 212.0
306.157684 140.0
306.6315 168.0
307.168793 684.0
307.294067 144.0
307.953552 184.0
309.184326 1084.0
309.244019 140.0
309.537354 168.0
310.137177 180.0
311.175568 140.0
311.280914 160.0
312.215698 156.0
313.151886 140.0
313.906067 152.0
315.066315 128.0
318.372101 156.0
319.170807 928.0
319.513123 216.0
319.662567 236.0
320.606262 156.0
321.130371 160.0
321.412201 224.0
321.790527 204.0
321.986938 152.0
322.981873 220.0
323.39563 184.0
324.599396 164.0
324.66394 220.0
325.052185 176.0
325.185333 228.0
327.197845 272.0
327.870758 164.0
328.029358 180.0
329.043091 156.0
329.186768 140.0
329.288666 164.0
330.022247 184.0
331.096985 160.0
332.725098 140.0
333.647888 160.0
333.829712 140.0
337.179047 2492.0
338.968384 120.0
339.050201 188.0
339.166107 204.0
339.245605 168.0
339.567169 196.0
339.699219 184.0
339.801941 180.0
341.436554 140.0
342.363983 176.0
342.887146 172.0
343.683685 152.0
345.04657 184.0
345.186523 136.0
346.614227 172.0
348.342712 208.0
349.888214 144.0
350.186096 188.0
350.253143 168.0
350.357452 188.0
352.521576 164.0
352.794434 160.0
353.186737 228.0
353.856934 140.0
354.18457 324.0
354.943542 152.0
355.18808 3352.0
355.344879 172.0
356.343567 156.0
358.288696 112.0
359.989807 148.0
361.157654 200.0
363.540741 184.0
364.284912 156.0
366.602081 156.0
368.254028 148.0
368.315155 216.0
370.503296 160.0
370.56842 152.0
370.84433 140.0
371.612244 136.0
373.159149 200.0
373.201294 2044.0
374.467529 176.0
375.188965 272.0
376.928833 148.0
382.552704 152.0
383.195465 100.0
383.45816 160.0
384.700714 176.0
384.888092 208.0
386.185577 140.0
387.211029 184.0
387.251068 124.0
387.555756 224.0
387.673309 164.0
387.753479 96.0
387.975128 156.0
388.200928 136.0
388.316284 240.0
388.349609 176.0
388.448425 128.0
388.632202 172.0
388.685608 140.0
388.745636 144.0
388.829651 208.0
388.880951 148.0
388.920166 184.0
388.993591 136.0
389.072296 328.0
389.100311 320.0
389.16394 93388.0
389.279999 200.0
389.397278 112.0
389.529388 148.0
389.572906 176.0
389.639923 176.0
389.744507 240.0
389.810059 348.0
389.872894 116.0
389.949371 160.0
390.053711 368.0
390.165924 19344.0
390.48288 264.0
390.529419 144.0
390.569672 164.0
390.804901 128.0
390.92514 168.0
391.113403 184.0
391.160248 29624.0
391.376648 116.0
391.513733 120.0
391.816986 136.0
391.868896 148.0
391.942505 164.0
392.038116 148.0
392.102966 164.0
392.164978 3528.0
392.344818 124.0
392.558777 192.0
392.779816 176.0
392.833954 236.0
392.917603 272.0
393.119934 180.0
393.163391 304.0
393.207733 624.0
393.294006 112.0
393.552094 100.0
393.870544 176.0
393.921448 100.0
394.111084 164.0
394.499329 104.0
394.535645 120.0
394.78476 120.0
394.85257 168.0
395.18811 140.0
395.367249 96.0
401.243469 152.0
411.27655 192.0
411.768585 120.0
438.06485 152.0
465.599487 144.0
474.475586 164.0
516.036072 144.0
578.615662 156.0
581.765442 144.0
904.182678 176.0
1268.039062 184.0
1348.047485 196.0
1354.280762 160.0
1364.348755 204.0
1391.908447 192.0
1403.62085 176.0
1404.74707 184.0
1411.087524 168.0
1418.858887 204.0
1429.91626 180.0
1438.478882 176.0
1438.818604 196.0
1445.727295 184.0
1446.234375 144.0
1462.028687 196.0
1469.328491 168.0
1476.103394 164.0
1480.480713 204.0
1481.828857 200.0
1500.937134 156.0
1504.980347 152.0
1506.370483 180.0
1506.733643 156.0
1518.445435 144.0
1526.055664 192.0
1530.48291 160.0
1532.679443 164.0
1541.712158 156.0
1544.734009 168.0
1551.539429 152.0
1551.64917 176.0
1562.14917 144.0
1563.15625 140.0
1564.328979 140.0
1564.698975 176.0
1565.346924 208.0
1568.220215 176.0
1568.764038 164.0
1569.915283 196.0
1575.250854 156.0
1584.118652 196.0
1585.624146 172.0
1594.187256 140.0
1595.045654 252.0
1605.451904 208.0
1605.778931 140.0
1608.100708 176.0
1610.312256 232.0
1611.51062 144.0
1618.365234 200.0
1619.197998 240.0
1626.438232 156.0
1630.2854 188.0
1633.083252 224.0
1642.644531 196.0
1646.623779 160.0
1648.344604 140.0
1649.443726 160.0
1654.192139 140.0
1657.853027 200.0
1661.802124 200.0
1662.25647 180.0
1668.762695 164.0
1671.609741 228.0
1673.978516 144.0
1674.296143 220.0
1674.410156 140.0
1679.088257 156.0
1679.251465 184.0
1679.912109 168.0
1680.023071 192.0
1680.899414 144.0
1685.414917 212.0
1687.442017 152.0
1693.88269 176.0
1694.300415 192.0
1696.070557 196.0
1698.842163 196.0
1706.009521 200.0
1707.828735 144.0
1709.029907 168.0
1709.210815 196.0
1710.371338 192.0
1710.898193 244.0
1712.339111 152.0
1714.085693 140.0
1716.154541 168.0
1720.056885 140.0
1721.658569 140.0
1725.443115 236.0
1727.187988 152.0
1730.109131 256.0
1731.409058 144.0
1733.637695 156.0
1734.292358 176.0
1734.723389 172.0
1738.903931 212.0
1740.024658 188.0
1743.189331 144.0
1744.460938 188.0
1745.167603 348.0
1745.275757 180.0
1747.945801 204.0
1749.135986 152.0
1749.851929 208.0
1750.268188 156.0
1757.96228 180.0
1758.437988 164.0
1764.268555 232.0
1764.402344 148.0
1768.007446 140.0
1769.036987 204.0
1771.666504 208.0
1773.585571 176.0
1775.061035 180.0
1779.348755 144.0
1779.734985 204.0
1780.415161 200.0
1783.675171 140.0
1783.96936 196.0
1784.633545 144.0
1787.577637 140.0
1793.742798 196.0
1799.037231 156.0
1800.045166 200.0
1801.210693 260.0
1801.447266 140.0
1801.709106 180.0
1802.908936 172.0
1803.432983 164.0
1805.005493 196.0
1805.254272 180.0
1808.169434 152.0
1810.328247 208.0
1811.573242 212.0
1813.05603 184.0
1814.005371 196.0
1814.081665 168.0
1814.793701 196.0
1816.02356 252.0
1820.699951 148.0
1823.630493 164.0
1824.243164 208.0
1824.438721 184.0
1824.957275 184.0
1825.765137 200.0
1826.607178 176.0
1832.541016 208.0
1834.381836 256.0
1837.631104 192.0
1838.211426 188.0
1841.130981 172.0
1841.797119 140.0
1844.121216 224.0
1844.206665 176.0
1844.907715 148.0
1849.150391 152.0
1851.881714 176.0
1862.07959 176.0
1864.124268 152.0
1867.1073 184.0
1869.984253 188.0
1872.383057 148.0
1872.563843 148.0
1874.588501 176.0
1875.984741 148.0
1876.657227 152.0
1876.855591 140.0
1877.13147 248.0
1877.499756 180.0
1879.141235 172.0
1880.185303 144.0
1882.248535 192.0
1882.775391 164.0
1883.38855 140.0
1885.038696 144.0
1886.075806 196.0
1887.0354 172.0
1887.943359 200.0
1893.551514 140.0
1898.32666 296.0
1899.298096 216.0
1901.146118 212.0
1902.005371 160.0
1902.856079 260.0
1905.618042 208.0
1909.408081 148.0
1911.870239 184.0
1912.827637 164.0
1914.670044 212.0
1915.94519 148.0
1916.319824 140.0
1919.265991 164.0
1919.815308 192.0
1920.181641 196.0
1920.521729 156.0
1922.703003 188.0
1923.619507 172.0
1925.295898 220.0
1926.658569 164.0
1927.156494 160.0
1928.615967 216.0
1930.653076 152.0
1931.326538 212.0
1936.009033 188.0
1937.138916 160.0
1937.988647 224.0
1938.628418 192.0
1939.899292 180.0
1940.819824 176.0
1941.451172 216.0
1941.550171 112.0
1941.951172 164.0
1942.731812 164.0
1944.276123 408.0
1944.775635 140.0
1947.222168 200.0
1951.074829 192.0
1954.00354 148.0
1954.478638 196.0
1956.215332 228.0
1957.075195 176.0
1959.839478 256.0
1962.626343 172.0
1962.793823 192.0
1963.596313 156.0
1964.35498 176.0
1964.469604 148.0
1966.163696 148.0
1967.567261 216.0
1969.889893 144.0
1970.658447 140.0
1972.081177 192.0
1972.470093 160.0
1972.593872 192.0
1974.273804 232.0
1974.760254 164.0
1975.609497 148.0
1976.795044 160.0
1978.379395 140.0
1978.689331 236.0
1979.397583 212.0
1979.822632 184.0
1981.603149 140.0
1984.049316 216.0
1984.120239 196.0
1986.301758 144.0
1988.271484 228.0
1989.33667 188.0
1989.540771 224.0
1990.473022 148.0
1990.72168 268.0
1991.458862 148.0
1992.205078 180.0
1994.044434 144.0
1995.137695 164.0
1996.169067 140.0
1998.103638 172.0
1999.745483 208.0
2000.226196 192.0
2001.080811 148.0
2002.950928 148.0
