>compound MLS001074091-01!
>formula C24H32O4
>ionization [M+H]+
>parentmass 385.23733595609053
#inchi InChI=1S/C24H32O4/c1-14-12-18-19(22(4)9-6-17(27)13-21(14)22)7-10-23(5)20(18)8-11-24(23,15(2)25)28-16(3)26/h12-13,18-20H,6-11H2,1-5H3/t18-,19+,20+,22-,23+,24+/m1/s1
#inchikey RQZAXGRLVPAYTJ
#Ion_Source LC-ESI
#Instrument qTof
#Compound_Source NIH Pharmacologically Active Library
#PI Dorrestein
#Data_Collector VP/LMS
#Scan -1
#Precursor_MZ 385.24
#ExactMass 384.23
#Charge 1
#CAS_Number N/A
#Pubmed_ID N/A
#Smiles CC(=O)O[C@@]1(CC[C@H]2[C@@H]3C=C(C)C4=CC(=O)CC[C@]4(C)[C@H]3CC[C@@]21C)C(=O)C
#INCHI_AUX N/A
#Library_Class 1
#SpectrumID CCMSLIB00000085414
#IonMode Positive
#UpdateWorkflowName UPDATE-SINGLE-ANNOTATED-GOLD
#LibraryQualityString Gold
#TaskID d252d724072548979f1f6f1ced849daf
##Scan# 2422
#SpectrumFile p4-A07_GA7_01_18324.mzXML
#LibraryName Pharm_Active_Library.mgf
#MQScore -1
#Organism Pharm_Active_Library
#TIC_Query 0
#RT_Query -1
#MZErrorPPM -1
#SharedPeaks 0
#MassDiff 0
#LibMZ -1
#SpecMZ 385.24
#SpecCharge 0
#internalFilename spec-00000.mgf

>collision 10
44.899158 244.0
44.908497 152.0
44.932507 140.0
44.949001 188.0
45.007252 152.0
45.03186 140.0
45.051323 220.0
45.086063 292.0
45.095421 172.0
45.114136 192.0
45.13419 96.0
45.178444 184.0
45.226501 208.0
45.250595 180.0
45.28318 180.0
45.305508 180.0
45.321583 36.0
45.330963 144.0
45.347836 184.0
45.381901 220.0
45.39922 208.0
45.429779 224.0
45.470436 128.0
45.491913 172.0
45.505337 172.0
45.514736 132.0
45.539543 204.0
45.56712 100.0
45.584587 168.0
45.596684 100.0
45.623692 144.0
45.697098 160.0
45.720413 200.0
45.74868 44.0
45.802544 64.0
45.82275 180.0
45.887444 104.0
45.933296 144.0
45.965141 172.0
46.020641 144.0
46.024395 104.0
46.029755 196.0
46.082226 240.0
46.154785 108.0
46.182285 192.0
46.256256 132.0
46.287594 300.0
46.309063 40.0
46.323963 160.0
46.343842 132.0
46.382233 100.0
46.422237 132.0
46.4324 92.0
46.458958 188.0
46.474316 160.0
46.485416 252.0
46.508381 176.0
46.532681 164.0
46.589855 144.0
46.604801 200.0
46.615673 56.0
46.674122 184.0
46.759743 196.0
46.795219 180.0
46.818371 96.0
46.875141 160.0
46.915112 212.0
46.931473 124.0
46.963955 132.0
46.977844 144.0
47.070652 156.0
47.092503 128.0
47.143055 184.0
47.156719 184.0
47.175858 112.0
47.197731 96.0
47.210041 152.0
47.236069 136.0
47.305817 88.0
47.345524 124.0
47.373756 216.0
47.397579 152.0
47.4291 152.0
47.453777 224.0
47.473316 160.0
47.531513 172.0
47.541565 188.0
47.5951 112.0
47.613235 220.0
47.631954 48.0
47.641071 324.0
47.702267 112.0
47.720139 184.0
47.735153 256.0
47.797165 152.0
47.859104 212.0
47.878384 152.0
47.908688 132.0
47.921085 136.0
47.962887 144.0
47.984486 116.0
48.028614 204.0
48.074142 132.0
48.105888 160.0
48.12936 180.0
48.142654 140.0
48.172176 160.0
48.215008 52.0
48.23436 196.0
48.248245 180.0
48.272903 200.0
48.304882 180.0
48.33947 212.0
48.351234 84.0
48.415611 160.0
48.488201 128.0
48.525078 192.0
48.54924 160.0
48.58091 124.0
48.622181 144.0
48.64994 152.0
48.674931 120.0
48.719124 196.0
48.763844 268.0
48.795815 152.0
48.826408 260.0
48.838924 96.0
48.851444 176.0
48.876488 276.0
48.914062 100.0
48.946644 192.0
48.962082 140.0
48.973938 104.0
48.990654 164.0
49.018097 236.0
49.036594 124.0
49.174534 152.0
49.223579 228.0
49.236145 144.0
49.3074 92.0
49.359829 184.0
49.427666 192.0
49.46825 196.0
49.513771 196.0
49.528465 280.0
49.542969 192.0
49.576099 56.0
49.595062 176.0
49.610252 208.0
49.628326 104.0
49.657825 136.0
49.685471 76.0
49.712128 164.0
49.752834 104.0
49.764065 220.0
49.786533 128.0
49.83289 80.0
49.853012 212.0
49.879265 52.0
49.980526 104.0
50.049496 80.0
50.064987 160.0
50.093536 104.0
50.108654 168.0
50.118515 200.0
50.156567 176.0
50.183384 176.0
50.205914 160.0
50.269398 116.0
50.334332 76.0
50.366814 132.0
50.382351 172.0
50.443119 208.0
50.478962 228.0
50.501095 148.0
50.5308 124.0
50.552025 204.0
50.584576 112.0
50.605015 176.0
50.626476 216.0
50.640255 200.0
50.696552 140.0
50.727654 72.0
50.747501 140.0
50.761681 48.0
50.803806 200.0
50.832607 100.0
50.861366 152.0
50.895065 184.0
50.914299 196.0
50.930183 168.0
50.94416 168.0
50.958847 128.0
50.962215 116.0
50.967896 160.0
51.007298 160.0
51.038578 112.0
51.087189 156.0
51.115387 120.0
51.138924 236.0
51.159512 124.0
51.237854 212.0
51.287716 116.0
51.303394 172.0
51.344746 132.0
51.366142 132.0
51.389584 168.0
51.41608 132.0
51.450336 136.0
51.481037 216.0
51.538395 196.0
51.563183 40.0
51.666447 116.0
51.680443 144.0
51.696186 152.0
51.723377 204.0
51.753441 116.0
51.787811 172.0
51.802773 140.0
51.820759 164.0
51.83461 144.0
51.945488 176.0
51.967007 372.0
51.977619 212.0
51.989227 216.0
52.011494 196.0
52.02298 124.0
52.0359 204.0
52.045948 168.0
52.068054 148.0
52.08329 132.0
52.145157 136.0
52.159302 80.0
52.172382 48.0
52.202579 116.0
52.279495 128.0
52.313366 164.0
52.329201 144.0
52.364151 208.0
52.421387 152.0
52.4505 220.0
52.473278 72.0
52.503635 156.0
52.516541 136.0
52.567036 188.0
52.618999 144.0
52.646435 180.0
52.66954 132.0
52.683987 148.0
52.72366 272.0
52.825657 68.0
52.843372 148.0
52.892223 120.0
52.932762 116.0
52.958828 152.0
53.009537 92.0
53.051567 136.0
53.090717 320.0
53.122627 156.0
53.134232 336.0
53.228577 140.0
53.277962 192.0
53.291035 168.0
53.325912 104.0
53.33754 132.0
53.391418 140.0
53.410244 188.0
53.433521 72.0
53.479576 184.0
53.491734 128.0
53.519394 188.0
53.55357 240.0
53.567455 224.0
53.590763 200.0
53.620178 108.0
53.648045 132.0
53.666557 200.0
53.72002 140.0
53.737366 124.0
53.773048 120.0
53.797863 136.0
53.845581 200.0
53.862736 264.0
53.879646 188.0
53.90686 160.0
53.955643 132.0
54.000973 44.0
54.022915 176.0
54.045757 228.0
54.068272 140.0
54.10194 136.0
54.117535 184.0
54.144402 56.0
54.182487 36.0
54.202091 164.0
54.241932 196.0
54.284336 212.0
54.296623 148.0
54.314423 152.0
54.332027 52.0
54.386322 56.0
54.450924 144.0
54.465611 44.0
54.512463 216.0
54.54496 164.0
54.578773 96.0
54.603138 200.0
54.64349 112.0
54.728859 228.0
54.821659 128.0
54.865879 124.0
54.878948 88.0
54.905499 152.0
54.909939 132.0
54.94548 148.0
54.976898 256.0
54.992741 216.0
55.029644 136.0
55.040501 176.0
55.051792 200.0
55.082489 184.0
55.099312 140.0
55.146976 188.0
55.201046 208.0
55.220272 132.0
55.233585 164.0
55.246899 52.0
55.260216 196.0
55.314972 92.0
55.332737 60.0
55.374199 40.0
55.443832 188.0
55.486816 196.0
55.554214 360.0
55.575809 84.0
55.60994 140.0
55.636658 192.0
55.664871 128.0
55.728741 152.0
55.759949 236.0
55.785217 216.0
55.806904 136.0
55.813244 80.0
55.815479 124.0
55.849159 244.0
55.893787 108.0
55.917694 188.0
55.930996 140.0
55.971191 124.0
55.992043 112.0
56.02504 104.0
56.102306 204.0
56.150528 212.0
56.184326 144.0
56.204449 148.0
56.220139 172.0
56.251347 168.0
56.266174 228.0
56.291794 116.0
56.318676 108.0
56.356026 256.0
56.365875 76.0
56.390396 160.0
56.407654 204.0
56.441895 244.0
56.494316 120.0
56.51302 168.0
56.556717 180.0
56.595341 128.0
56.625294 204.0
56.648495 192.0
56.667236 132.0
56.803661 164.0
56.826164 180.0
56.84267 92.0
56.878689 112.0
56.896702 156.0
56.934029 140.0
56.959774 156.0
56.99094 172.0
57.019875 152.0
57.033401 164.0
57.045429 156.0
57.067982 196.0
57.119114 188.0
57.140175 168.0
57.176289 164.0
57.194637 208.0
57.21693 164.0
57.232727 172.0
57.25156 76.0
57.266151 176.0
57.277164 176.0
57.314831 52.0
57.33374 180.0
57.369087 184.0
57.382656 136.0
57.393211 88.0
57.411304 168.0
57.424881 108.0
57.470135 80.0
57.480698 64.0
57.528008 104.0
57.577312 168.0
57.598461 176.0
57.62112 108.0
57.655872 88.0
57.695175 128.0
57.726925 80.0
57.74205 128.0
57.762497 168.0
57.784405 176.0
57.808617 152.0
57.861591 152.0
57.938831 116.0
57.958527 116.0
57.982159 128.0
57.985397 104.0
58.049477 164.0
58.060093 220.0
58.070709 160.0
58.088913 132.0
58.161747 116.0
58.186687 196.0
58.193268 84.0
58.195938 176.0
58.239185 104.0
58.292358 220.0
58.328835 64.0
58.38205 84.0
58.417034 188.0
58.470291 84.0
58.485508 88.0
58.508343 168.0
58.540318 112.0
58.557072 164.0
58.579918 124.0
58.598927 260.0
58.634773 256.0
58.649097 120.0
58.663212 116.0
58.678978 52.0
58.724728 40.0
58.762863 140.0
58.787277 200.0
58.817802 116.0
58.846809 180.0
58.897854 216.0
58.920116 108.0
58.933868 132.0
58.967487 176.0
59.014877 132.0
59.034843 140.0
59.089821 180.0
59.101521 256.0
59.112774 72.0
59.149506 112.0
59.200031 148.0
59.215343 168.0
59.230659 164.0
59.29808 104.0
59.316471 160.0
59.338799 160.0
59.365536 148.0
59.43544 112.0
59.456047 180.0
59.468327 156.0
59.500561 164.0
59.521244 272.0
59.546627 124.0
59.570629 436.0
59.634205 64.0
59.6651 164.0
59.688011 108.0
59.711079 80.0
59.766846 48.0
59.786465 108.0
59.83572 216.0
59.889618 204.0
59.995945 184.0
60.028324 192.0
60.048374 108.0
60.063713 144.0
60.068245 136.0
60.090023 192.0
60.127056 132.0
60.154362 116.0
60.191895 184.0
60.205791 196.0
60.216602 132.0
60.235977 140.0
60.258312 172.0
60.30867 348.0
60.352535 204.0
60.379974 192.0
60.420647 248.0
60.45079 168.0
60.467068 180.0
60.501122 92.0
60.513508 164.0
60.536736 140.0
60.606441 184.0
60.625038 60.0
60.643635 132.0
60.657585 220.0
60.668434 140.0
60.68084 156.0
60.696342 208.0
60.716503 208.0
60.729706 172.0
60.745975 120.0
60.781658 180.0
60.826664 156.0
60.893433 132.0
60.918285 60.0
60.963627 132.0
60.998821 152.0
61.134407 128.0
61.149971 232.0
61.187614 196.0
61.237778 212.0
61.283974 152.0
61.339996 168.0
61.366501 120.0
61.378975 152.0
61.403927 148.0
61.446045 188.0
61.469448 196.0
61.49754 248.0
61.519394 116.0
61.553741 196.0
61.607258 76.0
61.656845 60.0
61.674736 296.0
61.74596 64.0
61.758472 220.0
61.783501 140.0
61.814793 168.0
61.841366 184.0
61.86776 200.0
61.905586 188.0
61.924381 236.0
61.957275 116.0
61.968983 148.0
61.993313 140.0
62.044327 440.0
62.062286 132.0
62.096786 168.0
62.130554 76.0
62.148556 108.0
62.206623 216.0
62.223892 172.0
62.268776 144.0
62.285137 108.0
62.318127 96.0
62.333561 180.0
62.376713 188.0
62.407375 164.0
62.454899 192.0
62.467484 160.0
62.489506 64.0
62.505241 108.0
62.541439 144.0
62.565052 188.0
62.583942 208.0
62.60704 360.0
62.673767 148.0
62.750957 148.0
62.790379 168.0
62.821152 108.0
62.853481 60.0
62.886623 96.0
62.905563 128.0
62.916615 92.0
62.940296 116.0
63.091541 160.0
63.110126 216.0
63.134666 192.0
63.156811 156.0
63.172401 140.0
63.212181 148.0
63.229118 268.0
63.289745 200.0
63.30558 152.0
63.319069 124.0
63.359432 192.0
63.406971 164.0
63.454525 132.0
63.486237 48.0
63.514786 120.0
63.526505 240.0
63.557621 100.0
63.582581 176.0
63.605232 144.0
63.64016 292.0
63.651276 52.0
63.662392 116.0
63.679859 184.0
63.729107 300.0
63.755939 212.0
63.775192 164.0
63.792042 144.0
63.805397 136.0
63.849918 156.0
63.886501 60.0
63.899822 172.0
63.93676 164.0
63.97403 260.0
63.99791 172.0
64.020203 76.0
64.053345 248.0
64.095078 168.0
64.146072 164.0
64.169991 180.0
64.185928 108.0
64.22261 128.0
64.296005 136.0
64.311966 196.0
64.33989 136.0
64.36412 340.0
64.385406 256.0
64.409363 100.0
64.442917 136.0
64.455696 80.0
64.473274 132.0
64.497253 112.0
64.530823 196.0
64.54361 208.0
64.586792 140.0
64.628387 176.0
64.655594 120.0
64.682076 168.0
64.708412 96.0
64.764465 172.0
64.80291 244.0
64.823746 192.0
64.836563 72.0
64.859146 176.0
64.876724 148.0
64.905495 132.0
64.927002 116.0
64.96965 68.0
65.045074 68.0
65.062454 232.0
65.082001 120.0
65.141418 208.0
65.175156 132.0
65.220154 332.0
65.278778 164.0
65.375473 176.0
65.411575 60.0
65.448441 40.0
65.461487 108.0
65.487793 96.0
65.509804 104.0
65.532356 200.0
65.606499 160.0
65.617783 136.0
65.659569 240.0
65.683899 140.0
65.696808 196.0
65.727463 148.0
65.748436 140.0
65.763603 188.0
65.787178 204.0
65.834 136.0
65.874382 124.0
65.890533 100.0
65.909927 160.0
65.927696 320.0
65.946136 304.0
66.024696 52.0
66.061897 108.0
66.100731 164.0
66.170334 196.0
66.184906 92.0
66.303162 152.0
66.367462 160.0
66.380974 88.0
66.469788 176.0
66.48642 148.0
66.525375 188.0
66.554596 28.0
66.598022 200.0
66.640778 136.0
66.663429 172.0
66.702438 140.0
66.724655 192.0
66.74588 156.0
66.769104 116.0
66.809288 108.0
66.8358 84.0
66.85614 176.0
66.897644 112.0
66.931839 156.0
66.943237 128.0
66.979065 192.0
67.001869 144.0
67.013275 148.0
67.079491 280.0
67.15184 48.0
67.189354 232.0
67.231781 156.0
67.244835 56.0
67.257378 164.0
67.360725 156.0
67.449005 164.0
67.506233 116.0
67.576569 132.0
67.589661 124.0
67.601112 128.0
67.648575 128.0
67.687874 152.0
67.700974 76.0
67.715714 156.0
67.730728 216.0
67.743561 60.0
67.77417 216.0
67.814201 176.0
67.871391 176.0
67.934341 116.0
67.94088 44.0
67.944656 132.0
67.974739 288.0
67.996071 160.0
68.010841 160.0
68.053528 128.0
68.130714 140.0
68.206306 216.0
68.262207 164.0
68.277008 108.0
68.30658 180.0
68.331802 192.0
68.383125 112.0
68.425102 232.0
68.468254 176.0
68.558525 88.0
68.571709 92.0
68.614563 128.0
68.668983 124.0
68.700325 216.0
68.746658 228.0
68.797691 184.0
68.906693 224.0
68.93512 136.0
68.964928 232.0
68.979408 124.0
69.012466 140.0
69.052155 76.0
69.072006 52.0
69.103439 76.0
69.141495 120.0
69.177284 392.0
69.222984 196.0
69.259048 228.0
69.289673 124.0
69.331955 156.0
69.438057 208.0
69.456299 176.0
69.472893 188.0
69.494461 156.0
69.523918 196.0
69.554199 124.0
69.572464 196.0
69.600685 268.0
69.677322 268.0
69.745224 92.0
69.761848 224.0
69.790108 172.0
69.886581 136.0
69.909874 184.0
69.976456 176.0
69.988113 276.0
70.028084 104.0
70.049736 132.0
70.068062 112.0
70.084724 120.0
70.108047 152.0
70.143051 152.0
70.163055 132.0
70.188065 156.0
70.218086 164.0
70.286484 152.0
70.306358 180.0
70.333862 192.0
70.348236 108.0
70.361588 148.0
70.389977 188.0
70.425529 152.0
70.456116 252.0
70.475159 136.0
70.498558 344.0
70.529266 136.0
70.583809 108.0
70.600731 308.0
70.637329 100.0
70.731033 204.0
70.754471 192.0
70.797379 224.0
70.834877 152.0
70.885384 152.0
70.920921 188.0
70.940399 232.0
70.975639 68.0
71.006531 240.0
71.024269 76.0
71.081314 172.0
71.130157 156.0
71.163231 184.0
71.246742 152.0
71.316429 248.0
71.350052 204.0
71.373772 152.0
71.402481 200.0
71.427406 244.0
71.454323 148.0
71.486298 152.0
71.570808 176.0
71.594032 136.0
71.609192 80.0
71.621407 264.0
71.632774 144.0
71.652992 128.0
71.685005 168.0
71.72377 164.0
71.736435 140.0
71.763458 140.0
71.769882 216.0
71.801331 200.0
71.845184 104.0
71.872177 128.0
71.900864 120.0
71.914368 44.0
71.929558 136.0
71.972786 172.0
71.985275 172.0
72.042702 124.0
72.081558 168.0
72.115364 80.0
72.133957 164.0
72.17865 208.0
72.314941 144.0
72.335251 100.0
72.363297 128.0
72.384354 164.0
72.433472 64.0
72.448715 344.0
72.469048 148.0
72.480904 220.0
72.496155 120.0
72.518188 188.0
72.537949 152.0
72.569046 176.0
72.580917 56.0
72.607277 124.0
72.626701 136.0
72.649544 152.0
72.660629 320.0
72.696266 152.0
72.793022 88.0
72.80661 220.0
72.819786 132.0
72.86219 200.0
72.912704 160.0
72.924927 200.0
72.974838 184.0
72.995239 124.0
73.008842 28.0
73.030952 248.0
73.06498 180.0
73.076889 108.0
73.149826 168.0
73.161713 152.0
73.184113 148.0
73.219879 396.0
73.262543 160.0
73.310165 200.0
73.33062 232.0
73.391769 92.0
73.405632 208.0
73.49604 236.0
73.5149 152.0
73.562599 188.0
73.579498 160.0
73.615524 120.0
73.638542 188.0
73.665054 124.0
73.685555 60.0
73.738121 84.0
73.822304 168.0
73.924942 164.0
73.966019 320.0
74.015671 100.0
74.032791 68.0
74.054199 124.0
74.085892 144.0
74.099594 88.0
74.113304 52.0
74.125298 68.0
74.173286 76.0
74.230583 248.0
74.247009 312.0
74.270638 196.0
74.387711 184.0
74.435783 204.0
74.451233 136.0
74.485588 128.0
74.523384 140.0
74.550873 176.0
74.562904 172.0
74.638542 200.0
74.984566 148.0
75.014801 280.0
75.051796 160.0
75.063866 124.0
75.101509 136.0
75.117332 200.0
75.150116 164.0
75.174126 188.0
75.208786 128.0
75.227776 188.0
75.298569 112.0
75.326012 352.0
75.402229 92.0
75.471382 124.0
75.48867 200.0
75.548141 224.0
75.587273 176.0
75.602844 160.0
75.63269 164.0
75.665161 184.0
75.711914 192.0
75.724037 120.0
75.770805 112.0
75.792206 80.0
75.827988 120.0
75.841858 220.0
75.864388 132.0
75.916405 128.0
75.958031 152.0
76.01355 260.0
76.056938 152.0
76.08992 124.0
76.135933 220.0
76.156258 180.0
76.188911 232.0
76.214973 152.0
76.27858 184.0
76.366219 176.0
76.380135 312.0
76.394051 116.0
76.565666 208.0
76.608177 184.0
76.636047 160.0
76.691444 208.0
76.714478 156.0
76.742371 48.0
76.820854 168.0
76.860977 152.0
76.900536 108.0
76.916824 148.0
76.937775 96.0
76.949997 212.0
76.967453 112.0
76.984436 156.0
77.04081 100.0
77.077499 76.0
77.098473 120.0
77.11245 184.0
77.142166 180.0
77.191994 160.0
77.219101 216.0
77.264587 268.0
77.294327 208.0
77.317078 88.0
77.362587 164.0
77.380096 104.0
77.401108 324.0
77.448395 108.0
77.507957 116.0
77.528923 116.0
77.597343 128.0
77.62014 360.0
77.640244 176.0
77.681526 124.0
77.702576 108.0
77.716614 124.0
77.730652 176.0
77.767509 172.0
77.811394 48.0
77.832458 132.0
77.856796 168.0
77.864128 128.0
77.869789 172.0
77.8992 56.0
77.916771 104.0
77.944878 140.0
77.971237 112.0
78.101349 64.0
78.129494 76.0
78.162926 196.0
78.177002 168.0
78.19812 112.0
78.224251 180.0
78.257973 176.0
78.294952 208.0
78.312561 116.0
78.367172 164.0
78.393608 64.0
78.500809 232.0
78.517014 88.0
78.568352 152.0
78.601807 120.0
78.640511 156.0
78.684647 96.0
78.74115 152.0
78.783546 52.0
78.829483 172.0
78.855995 132.0
78.878967 144.0
78.898415 128.0
78.949692 168.0
78.977989 160.0
79.040009 144.0
79.098312 196.0
79.11425 220.0
79.209869 80.0
79.225815 160.0
79.263023 268.0
79.317963 140.0
79.378242 256.0
79.399521 108.0
79.422035 136.0
79.463387 176.0
79.498871 184.0
79.518394 112.0
79.539597 152.0
79.55455 228.0
79.623146 324.0
79.644455 156.0
79.663994 144.0
79.704857 256.0
79.727959 84.0
79.767067 88.0
79.800766 184.0
79.848854 220.0
79.95916 48.0
79.976959 168.0
80.032143 136.0
80.04995 200.0
80.073105 200.0
80.110512 140.0
80.131889 160.0
80.147926 220.0
80.19426 148.0
80.266563 220.0
80.284843 168.0
80.317291 152.0
80.356537 156.0
80.440414 208.0
80.458267 160.0
80.488617 64.0
80.602936 232.0
80.629745 76.0
80.677345 216.0
80.7388 168.0
80.813454 224.0
80.844353 108.0
80.860001 156.0
80.889091 244.0
80.908783 116.0
80.926689 148.0
81.005493 160.0
81.064613 212.0
81.082535 112.0
81.141693 156.0
81.184723 168.0
81.224182 160.0
81.252884 156.0
81.304924 184.0
81.330048 160.0
81.372368 140.0
81.38974 128.0
81.462601 152.0
81.49527 120.0
81.522606 168.0
81.536285 208.0
81.559189 212.0
81.574341 124.0
81.588722 196.0
81.628281 156.0
81.649864 92.0
81.669647 168.0
81.711021 144.0
81.727211 232.0
81.741287 156.0
81.750931 156.0
81.785912 188.0
81.801003 168.0
81.880226 176.0
81.916252 100.0
81.946518 100.0
81.987503 352.0
82.035187 140.0
82.074791 128.0
82.094688 48.0
82.130753 156.0
82.153152 212.0
82.19751 96.0
82.22097 368.0
82.287758 168.0
82.317757 180.0
82.341934 192.0
82.356377 116.0
82.369026 184.0
82.399734 132.0
82.504555 108.0
82.526253 176.0
82.543907 188.0
82.562416 156.0
82.602211 180.0
82.616684 120.0
82.640198 68.0
82.680008 144.0
82.731781 36.0
82.794067 32.0
82.833916 68.0
82.852028 120.0
82.900948 108.0
82.935387 116.0
82.94989 52.0
82.986145 212.0
83.020599 132.0
83.036919 116.0
83.062462 148.0
83.116737 196.0
83.14695 216.0
83.169937 128.0
83.185707 104.0
83.206154 168.0
83.2547 160.0
83.271049 120.0
83.294662 204.0
83.321167 196.0
83.36734 188.0
83.403687 96.0
83.420044 120.0
83.478226 156.0
83.545525 104.0
83.56295 104.0
83.589195 48.0
83.618744 100.0
83.636513 144.0
83.652588 168.0
83.696587 44.0
83.714798 184.0
83.794945 164.0
83.829567 76.0
83.856903 48.0
83.886063 120.0
83.917061 120.0
83.929817 124.0
84.037796 184.0
84.05722 180.0
84.123215 124.0
84.16703 180.0
84.192596 88.0
84.20903 172.0
84.241913 188.0
84.273903 164.0
84.294899 44.0
84.324135 128.0
84.349724 120.0
84.370605 200.0
84.463997 220.0
84.486595 180.0
84.542336 168.0
84.585693 172.0
84.622307 132.0
84.640617 136.0
84.693733 112.0
84.734032 84.0
84.77594 124.0
84.805496 148.0
84.845825 232.0
84.921013 28.0
84.953835 152.0
85.071526 152.0
85.108192 136.0
85.141251 100.0
85.163292 272.0
85.205933 180.0
85.285339 216.0
85.330513 136.0
85.343384 88.0
85.378326 128.0
85.394875 80.0
85.42247 156.0
85.444542 164.0
85.464783 84.0
85.501587 152.0
85.51815 120.0
85.542076 152.0
85.56601 148.0
85.586266 160.0
85.619408 152.0
85.634148 68.0
85.674667 156.0
85.723656 164.0
85.798141 188.0
85.817604 376.0
85.889671 180.0
85.939751 200.0
85.973373 120.0
85.98658 104.0
86.01313 108.0
86.05204 180.0
86.073059 52.0
86.129211 168.0
86.165413 120.0
86.21431 224.0
86.255959 156.0
86.287392 60.0
86.352112 148.0
86.411308 212.0
86.446465 160.0
86.459419 152.0
86.477921 40.0
86.497299 180.0
86.548271 128.0
86.609383 128.0
86.648285 172.0
86.713608 112.0
86.727974 128.0
86.7649 152.0
86.794708 208.0
86.854057 52.0
86.920845 80.0
86.939407 176.0
86.957962 76.0
87.047073 152.0
87.071213 132.0
87.086075 152.0
87.099075 232.0
87.167816 176.0
87.191772 180.0
87.266335 136.0
87.287766 80.0
87.310959 152.0
87.370483 116.0
87.39653 132.0
87.415138 188.0
87.441193 128.0
87.526825 192.0
87.590149 180.0
87.639427 204.0
87.690765 132.0
87.703812 124.0
87.772789 112.0
87.81382 176.0
87.881081 208.0
87.907097 76.0
87.921989 184.0
88.017235 212.0
88.052711 124.0
88.073257 68.0
88.110001 228.0
88.183495 128.0
88.200317 96.0
88.218826 160.0
88.250793 128.0
88.265755 28.0
88.376114 124.0
88.417282 208.0
88.441612 156.0
88.481087 136.0
88.503395 112.0
88.520027 140.0
88.551376 256.0
88.595161 384.0
88.62529 148.0
88.662621 104.0
88.688858 140.0
88.715103 144.0
88.803711 176.0
88.841385 224.0
88.870766 140.0
88.9571 116.0
88.978722 216.0
88.996658 168.0
89.018326 144.0
89.058495 128.0
89.1017 140.0
89.118614 156.0
89.139282 96.0
89.154312 76.0
89.168907 152.0
89.230453 236.0
89.298058 184.0
89.327744 232.0
89.344223 88.0
89.375961 184.0
89.413841 136.0
89.449608 148.0
89.479141 192.0
89.483261 132.0
89.489609 176.0
89.521149 192.0
89.579536 128.0
89.604027 180.0
89.617218 156.0
89.673752 40.0
89.695213 176.0
89.735962 200.0
89.752113 148.0
89.881195 124.0
89.921677 204.0
89.958878 176.0
90.017105 160.0
90.088875 28.0
90.103989 140.0
90.117981 160.0
90.198532 152.0
90.262764 96.0
90.328957 140.0
90.359222 108.0
90.376251 64.0
90.421669 116.0
90.443398 208.0
90.504967 164.0
90.520111 140.0
90.578827 124.0
90.592087 156.0
90.608917 208.0
90.651604 164.0
90.68071 192.0
90.755074 120.0
90.792999 168.0
90.81781 148.0
90.832008 200.0
90.897339 120.0
90.948578 132.0
91.017319 116.0
91.054169 944.0
91.08683 188.0
91.113785 124.0
91.137817 148.0
91.158463 180.0
91.212608 212.0
91.23542 64.0
91.269203 192.0
91.328598 220.0
91.357132 152.0
91.388474 128.0
91.404694 192.0
91.472 88.0
91.491295 96.0
91.556984 136.0
91.596985 44.0
91.620445 164.0
91.635849 180.0
91.659859 40.0
91.705597 40.0
91.724983 184.0
91.745621 188.0
91.768501 260.0
91.812363 40.0
91.850288 212.0
91.861877 208.0
91.91156 300.0
91.942085 156.0
91.97644 348.0
92.001259 184.0
92.068794 152.0
92.073326 124.0
92.121567 156.0
92.138763 320.0
92.173721 148.0
92.219025 116.0
92.266808 212.0
92.301224 204.0
92.42939 188.0
92.475319 172.0
92.505013 124.0
92.532745 120.0
92.557632 172.0
92.576782 352.0
92.6036 228.0
92.643784 188.0
92.672562 72.0
92.685974 212.0
92.710884 140.0
92.795227 52.0
92.83062 192.0
92.850838 180.0
92.880402 96.0
92.910301 120.0
92.965942 172.0
93.040802 168.0
93.072296 1128.0
93.101807 212.0
93.148338 132.0
93.161789 116.0
93.181 88.0
93.237495 160.0
93.257866 104.0
93.338608 196.0
93.365532 132.0
93.419388 80.0
93.486008 200.0
93.505669 200.0
93.557945 164.0
93.573349 116.0
93.587112 116.0
93.628654 144.0
93.658081 224.0
93.688904 160.0
93.705894 200.0
93.72245 172.0
93.78891 196.0
93.816093 180.0
93.85273 144.0
93.873169 200.0
93.916367 148.0
93.980026 228.0
94.010902 128.0
94.026581 192.0
94.06881 136.0
94.093605 180.0
94.149902 48.0
94.215576 48.0
94.232964 172.0
94.273537 340.0
94.302528 132.0
94.325722 164.0
94.341187 152.0
94.418533 124.0
94.44561 180.0
94.488167 176.0
94.511383 124.0
94.610092 200.0
94.673279 316.0
94.689484 112.0
94.708855 136.0
94.737144 132.0
94.809601 264.0
94.869102 204.0
94.923973 140.0
94.941429 244.0
95.041115 164.0
95.084282 640.0
95.168465 216.0
95.19371 136.0
95.207298 192.0
95.223663 180.0
95.273338 152.0
95.331078 168.0
95.367867 180.0
95.380989 192.0
95.421043 132.0
95.457985 136.0
95.486061 212.0
95.51828 144.0
95.53756 180.0
95.541817 164.0
95.547775 196.0
95.563026 124.0
95.615562 136.0
95.65255 164.0
95.714851 208.0
95.748177 172.0
95.777168 72.0
95.845352 124.0
95.913567 168.0
95.979851 108.0
96.034454 172.0
96.053963 120.0
96.085953 140.0
96.110542 196.0
96.147614 128.0
96.200317 152.0
96.241318 168.0
96.297951 144.0
96.389771 348.0
96.41713 96.0
96.485542 152.0
96.526718 196.0
96.598969 152.0
96.62635 156.0
96.657661 156.0
96.700798 184.0
96.729347 184.0
96.794685 144.0
96.821434 188.0
96.839722 116.0
96.892616 124.0
96.965118 176.0
97.00824 104.0
97.027847 116.0
97.063988 1920.0
97.083046 208.0
97.138855 152.0
97.173279 176.0
97.216377 204.0
97.263252 196.0
97.309341 200.0
97.315269 96.0
97.320908 152.0
97.356529 188.0
97.390877 120.0
97.404625 136.0
97.46946 168.0
97.496971 216.0
97.512695 176.0
97.538246 224.0
97.576706 188.0
97.620827 132.0
97.776237 152.0
97.805763 112.0
97.819542 108.0
97.842201 112.0
97.883499 124.0
97.925873 92.0
97.96521 152.0
97.978439 64.0
97.982117 144.0
98.020432 128.0
98.068802 244.0
98.095329 100.0
98.109123 128.0
98.135513 228.0
98.228882 176.0
98.252945 164.0
98.275185 244.0
98.392952 152.0
98.422829 336.0
98.452072 168.0
98.494308 208.0
98.574677 284.0
98.600166 140.0
98.628288 220.0
98.669807 88.0
98.685623 96.0
98.73864 64.0
98.766701 100.0
98.849358 308.0
98.892883 176.0
98.914627 200.0
98.961273 316.0
99.001419 152.0
99.03788 172.0
99.067062 136.0
99.082199 404.0
99.102852 160.0
99.117889 188.0
99.148827 148.0
99.206306 228.0
99.255875 120.0
99.319336 268.0
99.338882 184.0
99.385544 236.0
99.442963 208.0
99.519775 220.0
99.571404 140.0
99.593254 68.0
99.616486 144.0
99.764008 228.0
99.795448 140.0
99.867546 160.0
99.911537 208.0
99.950676 260.0
100.021065 132.0
100.038673 64.0
100.058807 140.0
100.188034 132.0
100.2239 184.0
100.249802 216.0
100.281693 120.0
100.30162 180.0
100.319565 164.0
100.33551 140.0
100.421257 172.0
100.453911 216.0
100.515022 120.0
100.530983 152.0
100.546951 172.0
100.651764 172.0
100.684349 112.0
100.711823 132.0
100.762123 148.0
100.785942 212.0
100.804565 180.0
100.852531 136.0
100.92675 192.0
100.982491 108.0
101.024498 196.0
101.046509 128.0
101.106537 144.0
101.12455 112.0
101.139267 192.0
101.177521 104.0
101.210632 224.0
101.290741 260.0
101.310776 172.0
101.337601 184.0
101.369247 108.0
101.400581 176.0
101.437019 164.0
101.457069 180.0
101.475113 152.0
101.495163 96.0
101.525238 204.0
101.577393 164.0
101.621529 160.0
101.72789 48.0
101.766037 140.0
101.785034 200.0
101.877251 192.0
101.940788 172.0
101.967972 128.0
102.027222 176.0
102.051849 208.0
102.1157 124.0
102.151901 132.0
102.176041 112.0
102.234398 44.0
102.254524 140.0
102.272636 60.0
102.298805 176.0
102.331017 200.0
102.37664 188.0
102.408287 140.0
102.438278 196.0
102.480057 160.0
102.501045 192.0
102.540512 76.0
102.554626 184.0
102.584862 176.0
102.600418 200.0
102.629211 156.0
102.67852 160.0
102.720764 232.0
102.748207 212.0
102.767395 236.0
102.928528 224.0
102.951637 88.0
102.980354 176.0
102.996513 32.0
103.025963 236.0
103.057724 320.0
103.148056 124.0
103.168274 128.0
103.184448 76.0
103.232979 248.0
103.263268 188.0
103.282219 196.0
103.315567 216.0
103.439194 160.0
103.508186 224.0
103.571976 160.0
103.645927 160.0
103.697853 192.0
103.723816 212.0
103.771591 176.0
103.793892 124.0
103.846626 216.0
103.925735 28.0
104.00106 140.0
104.062508 148.0
104.084061 120.0
104.102341 296.0
104.155144 60.0
104.255951 172.0
104.425476 184.0
104.445343 208.0
104.488533 128.0
104.518753 164.0
104.54306 204.0
104.592323 168.0
104.631584 208.0
104.677368 204.0
104.710411 156.0
104.73893 160.0
104.765411 208.0
104.823608 184.0
104.848442 196.0
104.934563 124.0
104.948837 164.0
104.965149 136.0
104.991661 136.0
105.022255 160.0
105.040611 172.0
105.070099 5152.0
105.105896 172.0
105.122223 32.0
105.140587 180.0
105.156914 40.0
105.173241 204.0
105.205902 192.0
105.2304 108.0
105.273285 188.0
105.305962 188.0
105.320259 184.0
105.426498 236.0
105.467377 48.0
105.484871 100.0
105.530746 160.0
105.567108 92.0
105.646286 220.0
105.694382 140.0
105.733261 212.0
105.763962 164.0
105.817192 76.0
105.862236 128.0
105.923683 100.0
105.942116 212.0
105.960556 76.0
105.997437 236.0
106.011848 236.0
106.074722 784.0
106.11673 180.0
106.177834 208.0
106.204247 196.0
106.265488 104.0
106.390381 196.0
106.422028 132.0
106.472076 108.0
106.504173 140.0
106.532936 96.0
106.557297 220.0
106.578598 136.0
106.594574 132.0
106.634613 224.0
106.660339 228.0
106.678398 56.0
106.699402 160.0
106.723183 120.0
106.760033 164.0
106.784607 192.0
106.855705 124.0
106.882454 192.0
106.960655 128.0
106.999771 184.0
107.050232 952.0
107.086098 2104.0
107.110977 44.0
107.154236 128.0
107.170723 96.0
107.19339 80.0
107.216057 168.0
107.232544 68.0
107.257278 160.0
107.273506 164.0
107.385117 52.0
107.459373 200.0
107.484138 148.0
107.501175 248.0
107.517151 196.0
107.562561 56.0
107.583206 128.0
107.64682 232.0
107.676125 148.0
107.702972 60.0
107.796555 68.0
107.814545 156.0
107.849678 68.0
107.865814 164.0
107.925133 128.0
108.010963 224.0
108.029579 148.0
108.052338 108.0
108.087448 412.0
108.124176 108.0
108.219978 152.0
108.269676 144.0
108.286247 408.0
108.345047 196.0
108.416771 96.0
108.43335 128.0
108.447861 132.0
108.507263 152.0
108.541145 252.0
108.576401 128.0
108.620247 116.0
108.653152 128.0
108.680122 108.0
108.742622 204.0
108.759628 180.0
108.779739 124.0
108.832352 92.0
108.914711 120.0
108.999893 232.0
109.026909 172.0
109.067436 672.0
109.101006 1948.0
109.141235 192.0
109.199463 160.0
109.22995 128.0
109.334702 108.0
109.351349 160.0
109.411713 192.0
109.436699 232.0
109.557495 124.0
109.59819 252.0
109.614685 196.0
109.642921 108.0
109.657516 216.0
109.672104 212.0
109.786774 108.0
109.83683 156.0
109.862785 156.0
109.888985 168.0
109.929199 204.0
109.955177 172.0
109.997505 168.0
110.055962 128.0
110.070572 152.0
110.091461 164.0
110.125916 344.0
110.342201 156.0
110.400749 184.0
110.419571 144.0
110.444672 76.0
110.459312 168.0
110.486504 160.0
110.546738 168.0
110.55188 132.0
110.59951 188.0
110.652885 184.0
110.672783 56.0
110.725128 116.0
110.74398 84.0
110.823479 152.0
110.86544 152.0
110.868103 148.0
110.876419 188.0
110.930473 104.0
110.949341 204.0
110.99337 184.0
111.02063 204.0
111.047897 128.0
111.080978 536.0
111.106628 100.0
111.142296 44.0
111.211693 180.0
111.230782 172.0
111.312325 112.0
111.38205 160.0
111.411087 164.0
111.45726 108.0
111.497185 176.0
111.522408 340.0
111.566422 132.0
111.621216 168.0
111.688515 68.0
111.728241 68.0
111.74012 128.0
111.760048 188.0
111.800026 152.0
111.815651 160.0
111.838921 192.0
111.861061 164.0
111.88633 140.0
111.920013 148.0
111.976875 116.0
112.018997 84.0
112.080093 132.0
112.109596 76.0
112.142166 132.0
112.191803 204.0
112.295044 208.0
112.324654 212.0
112.396385 160.0
112.472359 124.0
112.495483 176.0
112.534866 204.0
112.607216 152.0
112.675087 192.0
112.702553 204.0
112.763428 184.0
112.776985 344.0
112.804001 220.0
112.839935 156.0
112.90332 164.0
112.955719 192.0
112.993073 188.0
113.015663 96.0
113.032417 216.0
113.059311 152.0
113.093788 88.0
113.188194 168.0
113.254913 168.0
113.278008 264.0
113.299194 148.0
113.326736 68.0
113.379333 180.0
113.417862 168.0
113.498421 136.0
113.564163 124.0
113.608994 212.0
113.746643 284.0
113.80349 184.0
113.984512 172.0
114.054527 140.0
114.143944 152.0
114.25029 96.0
114.285973 176.0
114.30986 148.0
114.336639 196.0
114.380196 148.0
114.437576 220.0
114.475906 108.0
114.574181 172.0
114.607971 216.0
114.646324 124.0
114.674034 136.0
114.727325 180.0
114.763565 184.0
114.794647 160.0
114.814743 176.0
114.912872 100.0
114.959808 176.0
114.977486 184.0
115.028107 236.0
115.054588 1048.0
115.104973 160.0
115.124191 128.0
115.161034 64.0
115.190399 160.0
115.23526 124.0
115.252357 108.0
115.295097 180.0
115.329292 132.0
115.395561 172.0
115.579506 136.0
115.598763 204.0
115.628723 148.0
115.662971 140.0
115.699364 176.0
115.717056 204.0
115.728134 128.0
115.7323 104.0
115.846016 380.0
115.89212 124.0
115.932838 116.0
116.012787 212.0
116.035309 352.0
116.060844 304.0
116.097908 104.0
116.115067 200.0
116.134369 168.0
116.172974 112.0
116.221573 276.0
116.24807 160.0
116.271675 132.0
116.319077 144.0
116.357483 148.0
116.426254 68.0
116.45417 136.0
116.478584 132.0
116.497131 88.0
116.516472 136.0
116.557289 156.0
116.573051 144.0
116.618576 180.0
116.663651 136.0
116.692703 136.0
116.720657 172.0
116.750267 104.0
116.779999 188.0
116.927643 148.0
116.968071 108.0
116.993904 296.0
117.070778 1360.0
117.12368 180.0
117.192162 148.0
117.222214 148.0
117.271782 144.0
117.331581 108.0
117.37561 148.0
117.39682 120.0
117.416229 140.0
117.431328 132.0
117.455055 112.0
117.504539 200.0
117.511696 156.0
117.54184 176.0
117.569405 212.0
117.593147 164.0
117.625526 224.0
117.67086 228.0
117.685974 472.0
117.706039 172.0
117.722679 72.0
117.822037 80.0
117.886856 152.0
117.945839 236.0
118.014397 108.0
118.073509 292.0
118.106331 152.0
118.126854 144.0
118.165718 172.0
118.200691 156.0
118.213982 148.0
118.325951 48.0
118.347534 132.0
118.350784 128.0
118.359154 192.0
118.391739 168.0
118.436661 196.0
118.529549 196.0
118.559891 200.0
118.655891 152.0
118.672607 96.0
118.759354 176.0
118.802734 128.0
118.821373 156.0
118.841789 148.0
118.874199 128.0
118.913399 160.0
118.957932 140.0
118.966232 212.0
118.982864 72.0
118.998062 124.0
119.040901 104.0
119.085732 4832.0
119.130539 148.0
119.156609 144.0
119.187027 48.0
119.208549 124.0
119.214653 112.0
119.255608 172.0
119.287003 212.0
119.308739 128.0
119.345703 176.0
119.368683 168.0
119.410942 172.0
119.428337 168.0
119.456215 208.0
119.48925 120.0
119.543648 128.0
119.698204 144.0
119.721855 144.0
119.767891 136.0
119.867561 160.0
119.886513 144.0
119.907333 192.0
119.924774 168.0
120.007614 220.0
120.026398 228.0
120.06649 172.0
120.088402 680.0
120.129745 164.0
120.184288 76.0
120.203926 96.0
120.225746 212.0
120.243202 136.0
120.274757 396.0
120.310226 148.0
120.374191 144.0
120.393845 36.0
120.533653 200.0
120.551132 56.0
120.573532 176.0
120.630852 156.0
120.669167 128.0
120.727249 220.0
120.833199 180.0
120.85508 76.0
120.907867 260.0
121.065849 1996.0
121.101524 1944.0
121.140472 112.0
121.170364 144.0
121.193192 124.0
121.220757 188.0
121.254776 84.0
121.272568 156.0
121.382973 188.0
121.42881 124.0
121.492638 172.0
121.518967 128.0
121.544647 136.0
121.576019 140.0
121.63089 80.0
121.666008 56.0
121.69973 188.0
121.745056 192.0
121.801979 144.0
121.839508 108.0
121.881248 108.0
121.991142 464.0
122.017975 156.0
122.067039 600.0
122.103371 580.0
122.20887 180.0
122.229561 188.0
122.252876 152.0
122.3013 152.0
122.338722 184.0
122.415306 204.0
122.488464 56.0
122.533951 136.0
122.576591 112.0
122.636032 160.0
122.644592 112.0
122.70443 108.0
122.722069 192.0
122.772781 256.0
122.794838 268.0
122.81028 116.0
122.833839 264.0
122.887299 184.0
122.975761 156.0
122.993416 108.0
123.080421 836.0
123.116081 192.0
123.172272 136.0
123.283775 180.0
123.309265 112.0
123.38221 156.0
123.417587 148.0
123.44854 136.0
123.477295 152.0
123.506042 204.0
123.548073 88.0
123.564995 132.0
123.614456 108.0
123.663139 208.0
123.696495 164.0
123.711838 160.0
123.742218 216.0
123.794746 180.0
123.829193 252.0
123.928673 84.0
123.946609 176.0
123.973198 136.0
123.988708 108.0
124.013092 144.0
124.043144 136.0
124.080299 568.0
124.094765 180.0
124.126152 68.0
124.203781 188.0
124.273926 208.0
124.310272 64.0
124.401268 176.0
124.445671 156.0
124.554489 136.0
124.636398 152.0
124.696693 136.0
124.719734 392.0
124.785614 168.0
124.825638 44.0
124.892357 184.0
125.009666 148.0
125.037354 140.0
125.10598 168.0
125.13694 132.0
125.152107 128.0
125.236877 148.0
125.295273 132.0
125.355438 140.0
125.37326 68.0
125.436897 232.0
125.453506 152.0
125.508636 88.0
125.556068 60.0
125.602913 200.0
125.627922 168.0
125.693192 180.0
125.725624 152.0
125.841698 104.0
125.865662 180.0
125.922089 164.0
125.973038 168.0
125.981613 136.0
126.00209 152.0
126.069534 116.0
126.096359 76.0
126.150002 156.0
126.196953 116.0
126.268509 152.0
126.2864 216.0
126.328903 64.0
126.401016 172.0
126.446823 268.0
126.464989 196.0
126.557182 164.0
126.59108 176.0
126.636398 160.0
126.653481 108.0
126.669159 108.0
126.684845 104.0
126.707825 184.0
126.721725 284.0
126.883583 164.0
126.899994 184.0
126.951561 224.0
127.003426 188.0
127.034554 164.0
127.051796 152.0
127.092522 148.0
127.114006 164.0
127.206284 204.0
127.281036 180.0
127.313606 196.0
127.339821 48.0
127.371269 192.0
127.416199 128.0
127.431923 168.0
127.461136 136.0
127.5308 160.0
127.547951 280.0
127.618477 296.0
127.634216 220.0
127.652199 100.0
127.708954 204.0
127.737671 144.0
127.814163 32.0
127.845665 228.0
127.883606 140.0
127.926697 116.0
128.062073 1728.0
128.13092 176.0
128.156311 176.0
128.252029 304.0
128.278107 176.0
128.299942 188.0
128.334473 188.0
128.438766 212.0
128.456253 168.0
128.512665 56.0
128.586456 108.0
128.625305 140.0
128.632416 128.0
128.657104 148.0
128.718552 164.0
128.754196 164.0
128.772263 176.0
128.799362 108.0
128.83551 152.0
128.851761 184.0
128.867142 164.0
128.896515 176.0
128.93042 160.0
128.955276 168.0
128.982391 96.0
129.043442 176.0
129.069611 3272.0
129.118057 168.0
129.133896 112.0
129.192703 152.0
129.222382 204.0
129.240662 164.0
129.269623 68.0
129.308105 204.0
129.329575 188.0
129.362427 120.0
129.390106 248.0
129.427795 136.0
129.443344 168.0
129.45871 152.0
129.507339 188.0
129.543594 192.0
129.562302 280.0
129.602493 132.0
129.625153 128.0
129.695404 72.0
129.761154 112.0
129.788361 300.0
129.806503 144.0
129.831451 136.0
129.949738 124.0
129.978897 132.0
130.012939 136.0
130.076309 872.0
130.108276 200.0
130.171844 44.0
130.230896 176.0
130.337662 140.0
130.358124 200.0
130.398071 192.0
130.449036 180.0
130.563416 144.0
130.621857 228.0
130.640045 152.0
130.678726 80.0
130.694656 144.0
130.813004 68.0
130.842545 168.0
130.891006 168.0
130.919357 196.0
130.947296 200.0
130.982864 312.0
131.050278 520.0
131.085526 6404.0
131.156967 48.0
131.177994 140.0
131.22261 240.0
131.299545 164.0
131.334183 180.0
131.367111 256.0
131.392761 148.0
131.421783 64.0
131.47171 148.0
131.50386 356.0
131.569855 100.0
131.615524 48.0
131.663467 164.0
131.693161 112.0
131.727432 196.0
131.759659 112.0
131.783615 188.0
131.834808 80.0
131.878235 136.0
131.903381 160.0
131.940125 164.0
131.993301 192.0
132.022278 128.0
132.05864 604.0
132.089844 548.0
132.138931 52.0
132.157227 92.0
132.212158 160.0
132.256744 116.0
132.286011 148.0
132.317444 124.0
132.349731 192.0
132.401093 188.0
132.461197 140.0
132.468979 168.0
132.507355 144.0
132.569412 216.0
132.612946 128.0
132.640457 204.0
132.670258 208.0
132.69902 192.0
132.761978 200.0
132.78949 168.0
132.845749 216.0
132.893631 176.0
132.928268 164.0
132.999588 168.0
133.06572 1216.0
133.101517 12064.0
133.149826 68.0
133.186569 276.0
133.244003 48.0
133.279251 152.0
133.345108 152.0
133.391083 60.0
133.47789 164.0
133.531387 176.0
133.600342 40.0
133.61644 72.0
133.632553 164.0
133.667068 116.0
133.687775 144.0
133.791351 80.0
133.815323 204.0
134.017059 40.0
134.105347 1260.0
134.209137 212.0
134.286774 132.0
134.307541 208.0
134.339294 156.0
134.418274 120.0
134.453308 156.0
134.508286 124.0
134.53511 156.0
134.651443 208.0
134.689911 104.0
134.810852 188.0
134.876862 124.0
134.894058 116.0
134.917175 144.0
134.937973 208.0
135.008911 388.0
135.036102 156.0
135.046921 36.0
135.053085 160.0
135.079971 1348.0
135.117859 1712.0
135.160019 48.0
135.178528 112.0
135.203995 92.0
135.232956 160.0
135.250275 56.0
135.273422 48.0
135.301208 124.0
135.347519 60.0
135.406601 180.0
135.45636 176.0
135.493988 184.0
135.521561 392.0
135.562943 160.0
135.595749 152.0
135.613922 156.0
135.6371 172.0
135.683472 260.0
135.750092 268.0
135.771652 144.0
135.802109 208.0
135.882919 48.0
135.934875 196.0
135.964142 180.0
135.994308 116.0
136.038422 172.0
136.059311 164.0
136.085022 564.0
136.116913 232.0
136.148788 224.0
136.21257 136.0
136.239929 192.0
136.259033 132.0
136.303177 200.0
136.383575 196.0
136.420029 116.0
136.470047 168.0
136.49379 360.0
136.51651 208.0
136.577515 48.0
136.624039 176.0
136.677551 228.0
136.740433 220.0
136.757553 188.0
136.777618 168.0
136.815948 284.0
136.868423 112.0
136.920593 348.0
136.961578 204.0
136.97789 116.0
137.008163 108.0
137.042374 200.0
137.095703 2172.0
137.154968 152.0
137.192276 68.0
137.220673 156.0
137.241226 108.0
137.276215 144.0
137.306534 280.0
137.362503 100.0
137.390503 120.0
137.439499 172.0
137.500168 156.0
137.528183 92.0
137.557846 164.0
137.564316 116.0
137.571304 220.0
137.605209 136.0
137.628555 76.0
137.719635 200.0
137.742996 160.0
137.768005 164.0
137.831772 164.0
137.883194 184.0
137.96196 172.0
137.986038 220.0
138.037476 140.0
138.061859 188.0
138.097092 212.0
138.250351 124.0
138.314407 196.0
138.365112 160.0
138.409531 112.0
138.447006 156.0
138.483231 276.0
138.51944 156.0
138.553604 164.0
138.567612 164.0
138.627396 172.0
138.671921 108.0
138.702438 188.0
138.838379 208.0
138.920471 204.0
138.940872 92.0
138.963013 152.0
139.009628 228.0
139.039658 180.0
139.098816 132.0
139.134018 100.0
139.188034 104.0
139.206116 188.0
139.212219 184.0
139.233261 152.0
139.267868 152.0
139.325455 188.0
139.344635 160.0
139.406052 156.0
139.425293 112.0
139.474976 84.0
139.491104 136.0
139.539291 152.0
139.608154 204.0
139.846283 152.0
139.884705 160.0
139.921616 144.0
139.942795 88.0
139.996094 240.0
140.084106 176.0
140.121109 204.0
140.14064 120.0
140.232559 176.0
140.281647 140.0
140.333115 256.0
140.364578 164.0
140.385788 84.0
140.402298 148.0
140.480133 136.0
140.513168 184.0
140.558578 164.0
140.593399 168.0
140.64296 188.0
140.716339 188.0
140.769989 124.0
140.828384 272.0
140.855469 144.0
140.879089 208.0
140.914536 160.0
140.944153 152.0
141.018845 140.0
141.069855 2340.0
141.120163 208.0
141.179276 52.0
141.230927 204.0
141.288086 140.0
141.390167 220.0
141.512451 260.0
141.702393 164.0
141.742676 88.0
141.766052 168.0
141.783813 188.0
141.830872 132.0
141.918076 160.0
141.959671 184.0
141.979736 132.0
141.998703 216.0
142.035339 224.0
142.07695 4428.0
142.116455 132.0
142.176636 40.0
142.235977 40.0
142.371307 128.0
142.449081 156.0
142.510864 144.0
142.53923 192.0
142.580368 152.0
142.656815 124.0
142.689087 152.0
142.704819 204.0
142.730133 144.0
142.766998 128.0
142.838333 220.0
142.87886 184.0
142.927567 168.0
143.012741 212.0
143.053711 188.0
143.085068 6328.0
143.116241 136.0
143.156387 124.0
143.194183 124.0
143.210861 120.0
143.253738 116.0
143.284225 140.0
143.346664 132.0
143.389557 104.0
143.408615 44.0
143.439606 112.0
143.47113 236.0
143.511124 128.0
143.539749 152.0
143.576279 200.0
143.606522 44.0
143.673309 152.0
143.698883 128.0
143.74678 372.0
143.773529 108.0
143.812775 116.0
143.878555 220.0
143.95256 140.0
143.971664 112.0
144.028992 140.0
144.060165 472.0
144.09169 1648.0
144.163239 288.0
144.189072 108.0
144.217331 160.0
144.268326 200.0
144.299026 168.0
144.323502 156.0
144.356415 104.0
144.410446 68.0
144.451004 156.0
144.559753 312.0
144.733139 148.0
144.751266 164.0
144.787949 176.0
144.80748 212.0
144.856644 48.0
144.913544 112.0
144.949371 240.0
145.005203 156.0
145.06572 1456.0
145.100739 11636.0
145.161026 84.0
145.185013 136.0
145.206589 72.0
145.252106 152.0
145.283356 92.0
145.32074 116.0
145.352936 132.0
145.36972 104.0
145.388931 36.0
145.417725 52.0
145.444122 136.0
145.463333 160.0
145.498688 192.0
145.565994 140.0
145.591019 196.0
145.601395 80.0
145.606583 236.0
145.685242 68.0
145.717896 120.0
145.758026 120.0
145.778732 112.0
145.839249 96.0
145.932526 120.0
146.00209 120.0
146.071823 1000.0
146.104965 1436.0
146.145874 188.0
146.17955 148.0
146.22287 56.0
146.246323 140.0
146.26619 60.0
146.308334 268.0
146.336014 160.0
146.400803 168.0
146.475693 176.0
146.501389 156.0
146.523865 140.0
146.545547 100.0
146.572052 152.0
146.641953 124.0
146.678101 44.0
146.791412 220.0
146.819443 128.0
146.842773 228.0
146.890305 96.0
146.920609 156.0
146.941864 228.0
146.965759 160.0
146.989212 212.0
147.025574 120.0
147.055099 148.0
147.080322 2448.0
147.116394 4788.0
147.160889 160.0
147.203918 140.0
147.278931 168.0
147.31633 132.0
147.346573 168.0
147.374329 172.0
147.39534 236.0
147.416641 68.0
147.449417 140.0
147.47464 132.0
147.511429 252.0
147.549576 60.0
147.576172 64.0
147.63179 132.0
147.752731 84.0
147.776917 152.0
147.837418 236.0
147.907608 96.0
147.926971 108.0
147.958435 148.0
147.997177 116.0
148.02977 180.0
148.08284 792.0
148.119827 192.0
148.157028 148.0
148.182327 200.0
148.232208 152.0
148.293716 224.0
148.338135 276.0
148.387497 84.0
148.43576 104.0
148.469711 156.0
148.55217 160.0
148.617676 128.0
148.666214 76.0
148.722031 176.0
148.787582 144.0
148.804565 88.0
148.833038 144.0
148.911423 72.0
148.930847 188.0
148.979431 96.0
149.068604 108.0
149.095886 1988.0
149.133835 420.0
149.151962 320.0
149.204987 168.0
149.258926 68.0
149.286682 136.0
149.30571 168.0
149.347046 120.0
149.385406 208.0
149.411972 196.0
149.420898 88.0
149.433456 160.0
149.447372 136.0
149.502197 204.0
149.55574 188.0
149.597061 160.0
149.628769 128.0
149.779755 56.0
149.815598 168.0
149.819702 80.0
149.85527 124.0
149.911667 164.0
149.950684 184.0
150.003937 104.0
150.033905 232.0
150.069748 32.0
150.103088 564.0
150.14566 184.0
150.184372 240.0
150.247086 124.0
150.282593 180.0
150.355164 80.0
150.378403 148.0
150.403412 208.0
150.455231 164.0
150.49675 164.0
150.51384 220.0
150.599304 56.0
150.631912 104.0
150.653046 164.0
150.685333 204.0
150.723907 312.0
150.809433 164.0
150.858994 148.0
150.879684 152.0
150.909668 160.0
150.930237 136.0
150.951233 164.0
150.968353 184.0
150.990356 156.0
151.056396 168.0
151.085754 136.0
151.110168 760.0
151.155334 72.0
151.172455 120.0
151.187805 176.0
151.298676 176.0
151.318253 132.0
151.442001 204.0
151.479889 124.0
151.509293 144.0
151.577896 56.0
151.606598 144.0
151.653397 228.0
151.707794 192.0
151.730759 184.0
151.756821 148.0
151.79538 172.0
151.81813 72.0
151.864731 72.0
151.906433 164.0
151.940765 132.0
152.062958 504.0
152.092911 208.0
152.111801 144.0
152.139557 104.0
152.164108 140.0
152.183746 64.0
152.237778 160.0
152.2686 160.0
152.301636 188.0
152.343384 44.0
152.392517 124.0
152.4422 112.0
152.471161 156.0
152.500656 116.0
152.567017 212.0
152.598984 56.0
152.640778 184.0
152.685043 144.0
152.714554 60.0
152.771133 236.0
152.798203 152.0
152.862167 60.0
152.939789 136.0
152.968002 144.0
152.996902 232.0
153.002808 200.0
153.044327 228.0
153.070145 792.0
153.130508 416.0
153.164993 180.0
153.199478 140.0
153.393448 248.0
153.397354 148.0
153.40889 104.0
153.414413 184.0
153.48291 216.0
153.500183 136.0
153.539627 156.0
153.606232 108.0
153.648102 156.0
153.680237 120.0
153.741928 136.0
153.801163 64.0
153.818985 164.0
153.957535 172.0
153.974747 172.0
154.005783 184.0
154.049255 120.0
154.075836 852.0
154.149399 160.0
154.171875 164.0
154.230042 140.0
154.300629 172.0
154.376816 108.0
154.41391 100.0
154.520889 200.0
154.549973 48.0
154.589569 140.0
154.641541 152.0
154.676193 156.0
154.708374 164.0
154.740555 160.0
154.794449 152.0
154.838684 204.0
154.871811 188.0
154.896576 172.0
154.933411 340.0
154.990723 136.0
155.008057 148.0
155.036484 180.0
155.084991 5132.0
155.136948 80.0
155.169174 192.0
155.221237 148.0
155.289337 324.0
155.306046 184.0
155.344879 52.0
155.392395 284.0
155.422165 136.0
155.465515 144.0
155.504059 176.0
155.538803 120.0
155.573563 116.0
155.650528 232.0
155.686066 244.0
155.749863 156.0
155.792099 60.0
155.881775 172.0
155.908875 108.0
155.958588 136.0
155.982422 176.0
156.001373 132.0
156.036575 184.0
156.060516 64.0
156.091797 3076.0
156.132629 148.0
156.183868 200.0
156.21875 204.0
156.314224 88.0
156.332428 164.0
156.408798 144.0
156.446136 172.0
156.511917 184.0
156.578476 160.0
156.612976 176.0
156.647858 80.0
156.675827 148.0
156.740036 124.0
156.796051 100.0
156.864655 208.0
156.905563 136.0
156.929474 132.0
156.951904 224.0
156.994293 204.0
157.029221 136.0
157.064453 596.0
157.101883 10472.0
157.151443 144.0
157.168915 32.0
157.188873 64.0
157.216324 88.0
157.243774 40.0
157.283722 136.0
157.320206 160.0
157.39856 72.0
157.498459 40.0
157.560394 176.0
157.591843 220.0
157.638367 212.0
157.678345 140.0
157.736145 132.0
157.780838 80.0
157.815842 200.0
157.85585 208.0
157.889282 236.0
157.945663 188.0
157.975891 136.0
158.004166 108.0
158.03389 224.0
158.071609 1280.0
158.106186 1348.0
158.176086 96.0
158.198624 52.0
158.223648 152.0
158.376404 40.0
158.413986 120.0
158.469879 152.0
158.551788 112.0
158.574341 144.0
158.595779 224.0
158.667099 136.0
158.701523 284.0
158.744827 108.0
158.762375 212.0
158.779938 164.0
158.822571 184.0
158.862701 184.0
158.91626 128.0
158.97728 168.0
159.00322 208.0
159.020203 132.0
159.043991 164.0
159.080353 3316.0
159.116241 6632.0
159.146988 132.0
159.201553 80.0
159.285904 224.0
159.349747 88.0
159.398453 84.0
159.485443 180.0
159.51561 180.0
159.606354 128.0
159.629974 148.0
159.658936 180.0
159.708893 148.0
159.715515 164.0
159.772125 112.0
159.789734 108.0
159.812912 168.0
159.855148 56.0
159.968414 152.0
159.996109 124.0
160.013733 148.0
160.088745 2508.0
160.120377 2132.0
160.202606 124.0
160.298355 180.0
160.328049 184.0
160.335587 144.0
160.361359 132.0
160.401688 160.0
160.429413 140.0
160.449585 156.0
160.482361 52.0
160.524307 88.0
160.5681 72.0
160.643768 196.0
160.701492 172.0
160.71698 196.0
160.762344 64.0
160.790848 156.0
160.879013 164.0
160.914948 220.0
160.936523 152.0
160.970932 192.0
161.034882 160.0
161.096344 8168.0
161.134216 672.0
161.170792 192.0
161.178543 88.0
161.221237 176.0
161.26651 160.0
161.300323 132.0
161.328125 180.0
161.350342 112.0
161.436844 252.0
161.469238 96.0
161.49501 212.0
161.558258 148.0
161.581024 208.0
161.602936 152.0
161.748047 160.0
161.771454 308.0
161.821457 120.0
161.97847 152.0
162.027756 204.0
162.05954 124.0
162.101288 1540.0
162.138077 516.0
162.172928 156.0
162.196396 160.0
162.24202 188.0
162.272446 144.0
162.30397 176.0
162.33342 184.0
162.353592 108.0
162.386566 76.0
162.43222 44.0
162.462662 184.0
162.492294 172.0
162.554001 132.0
162.571762 116.0
162.650436 140.0
162.736755 144.0
162.840271 184.0
162.990753 172.0
163.046661 140.0
163.068207 320.0
163.112 2440.0
163.146469 332.0
163.19455 156.0
163.242416 196.0
163.283661 128.0
163.307343 188.0
163.334534 200.0
163.38739 144.0
163.477386 140.0
163.50444 136.0
163.557892 148.0
163.580795 180.0
163.614212 96.0
163.649536 52.0
163.696869 204.0
163.826614 212.0
163.866028 140.0
163.883865 116.0
164.008743 104.0
164.056793 188.0
164.095413 312.0
164.119339 364.0
164.152435 132.0
164.212158 148.0
164.302002 108.0
164.416824 156.0
164.442337 40.0
164.483185 132.0
164.513809 144.0
164.534241 120.0
164.622086 188.0
164.641479 172.0
164.707886 56.0
164.753098 212.0
164.818665 176.0
164.840622 280.0
164.868851 164.0
164.889297 72.0
164.95575 140.0
164.981308 176.0
165.027328 348.0
165.069351 1888.0
165.115753 160.0
165.132187 220.0
165.199295 116.0
165.238174 88.0
165.267761 208.0
165.316376 140.0
165.349731 68.0
165.393158 116.0
165.416199 104.0
165.434113 188.0
165.454605 28.0
165.560974 132.0
165.661667 56.0
165.820267 228.0
165.869598 204.0
165.89267 180.0
165.937286 252.0
166.038116 232.0
166.074982 1232.0
166.138474 188.0
166.196716 188.0
166.262024 120.0
166.287689 168.0
166.333893 144.0
166.375916 224.0
166.498215 184.0
166.570602 160.0
166.606094 304.0
166.629211 188.0
166.706299 132.0
166.798828 148.0
166.816818 68.0
166.855377 140.0
166.915085 196.0
166.940231 36.0
167.037964 192.0
167.055679 180.0
167.085526 3788.0
167.147385 76.0
167.166611 188.0
167.259262 60.0
167.304001 176.0
167.359665 88.0
167.377686 48.0
167.431763 120.0
167.492706 224.0
167.596634 80.0
167.617249 40.0
167.714935 256.0
167.771896 160.0
167.930573 156.0
167.98851 140.0
168.033081 160.0
168.090866 2572.0
168.117523 140.0
168.18721 64.0
168.213013 112.0
168.261261 180.0
168.303375 144.0
168.334366 180.0
168.351364 96.0
168.367813 172.0
168.522919 272.0
168.557617 224.0
168.579773 124.0
168.644379 68.0
168.701248 156.0
168.732101 120.0
168.7995 224.0
168.822769 116.0
168.8564 232.0
168.959869 172.0
168.993134 84.0
169.010437 160.0
169.032303 128.0
169.063812 676.0
169.101456 14316.0
169.174667 224.0
169.207581 184.0
169.243973 124.0
169.296356 28.0
169.337784 116.0
169.464722 36.0
169.498779 220.0
169.526917 216.0
169.578751 168.0
169.633316 176.0
169.712723 112.0
169.729111 168.0
169.794876 132.0
169.825058 348.0
169.895096 156.0
169.915848 88.0
169.98851 128.0
170.018631 296.0
170.052048 148.0
170.071396 196.0
170.107559 2448.0
170.196487 64.0
170.258484 108.0
170.28186 96.0
170.344208 144.0
170.377975 376.0
170.417084 148.0
170.485168 216.0
170.557739 160.0
170.583267 200.0
170.622269 64.0
170.676865 216.0
170.731476 136.0
170.748993 100.0
170.783493 156.0
170.877136 188.0
170.903152 188.0
170.994232 176.0
171.014282 160.0
171.041092 144.0
171.080566 2320.0
171.11618 11444.0
171.148224 208.0
171.176468 44.0
171.212555 84.0
171.21785 72.0
171.259811 44.0
171.301483 40.0
171.332962 192.0
171.382248 112.0
171.416626 288.0
171.457825 104.0
171.53862 148.0
171.573212 180.0
171.614227 52.0
171.635406 160.0
171.6716 176.0
171.707291 128.0
171.769363 280.0
171.846359 156.0
171.922409 232.0
171.973877 152.0
172.001266 144.0
172.036606 172.0
172.087006 2808.0
172.12056 2276.0
172.160767 160.0
172.214447 116.0
172.240555 100.0
172.264679 240.0
172.284973 208.0
172.360733 136.0
172.387253 136.0
172.501877 140.0
172.533234 76.0
172.567947 116.0
172.601227 52.0
172.634933 112.0
172.679672 176.0
172.717224 156.0
172.745071 124.0
172.765991 180.0
172.831406 164.0
172.94046 172.0
172.98494 144.0
173.025085 188.0
173.048645 120.0
173.095886 7144.0
173.131332 3736.0
173.182205 92.0
173.213577 204.0
173.239822 196.0
173.289612 32.0
173.330215 144.0
173.356979 152.0
173.41539 52.0
173.475677 80.0
173.520981 212.0
173.556946 96.0
173.622513 84.0
173.656601 108.0
173.690704 112.0
173.71431 152.0
173.816635 96.0
173.856003 188.0
173.926865 104.0
174.005615 156.0
174.101608 1448.0
174.136917 440.0
174.210464 148.0
174.228851 76.0
174.306366 136.0
174.339722 348.0
174.434662 76.0
174.444153 112.0
174.450348 156.0
174.552139 136.0
174.597275 172.0
174.667862 152.0
174.738892 180.0
174.825714 64.0
174.908951 180.0
174.937057 168.0
175.00209 256.0
175.053452 176.0
175.112015 21264.0
175.144974 728.0
175.176987 136.0
175.212677 204.0
175.29007 84.0
175.31076 148.0
175.352386 180.0
175.373917 228.0
175.405151 60.0
175.462402 180.0
175.505341 64.0
175.53067 132.0
175.560135 200.0
175.637207 84.0
175.661072 84.0
175.697876 36.0
175.738556 212.0
175.76384 80.0
175.79718 220.0
175.827164 72.0
175.879959 64.0
175.901077 96.0
175.971375 132.0
175.997101 196.0
176.017242 148.0
176.037827 156.0
176.057953 164.0
176.114609 2888.0
176.148819 320.0
176.175705 144.0
176.210052 144.0
176.239594 156.0
176.278748 132.0
176.39769 88.0
176.429413 72.0
176.503738 168.0
176.521362 180.0
176.571564 132.0
176.601837 184.0
176.65155 80.0
176.705475 128.0
176.793213 224.0
176.860596 164.0
176.892365 72.0
176.941391 160.0
176.961197 104.0
177.004883 104.0
177.065338 176.0
177.089645 468.0
177.125244 568.0
177.164825 180.0
177.226715 112.0
177.296326 108.0
177.314636 124.0
177.340012 56.0
177.374466 384.0
177.458359 144.0
177.488464 144.0
177.562744 156.0
177.624832 96.0
177.680969 144.0
177.700653 168.0
177.719223 228.0
177.756378 56.0
177.791122 156.0
177.811798 172.0
177.865189 124.0
177.906723 204.0
177.955124 160.0
177.98201 148.0
178.029388 156.0
178.078003 632.0
178.13118 264.0
178.183868 140.0
178.202347 92.0
178.212601 88.0
178.219635 164.0
178.283676 240.0
178.391159 120.0
178.412415 140.0
178.476227 140.0
178.508133 136.0
178.57869 212.0
178.675705 192.0
178.899261 228.0
178.985535 108.0
179.051025 172.0
179.085281 5600.0
179.115204 208.0
179.17305 156.0
179.298462 312.0
179.333435 116.0
179.381424 160.0
179.423111 176.0
179.477402 76.0
179.522736 156.0
179.574738 216.0
179.650757 148.0
179.714783 188.0
179.749481 120.0
179.770828 80.0
179.789505 180.0
179.863571 32.0
179.898941 184.0
179.951294 144.0
180.018738 216.0
180.042908 148.0
180.09082 2516.0
180.157303 64.0
180.173035 132.0
180.211624 96.0
180.248093 168.0
180.267639 196.0
180.322174 160.0
180.370895 180.0
180.451965 36.0
180.546585 176.0
180.582123 148.0
180.587265 100.0
180.657883 112.0
180.703369 180.0
180.732803 84.0
180.773193 172.0
180.904083 124.0
180.930862 88.0
181.101059 5344.0
181.145966 148.0
181.204041 192.0
181.244217 28.0
181.32193 184.0
181.408554 164.0
181.458649 160.0
181.499008 148.0
181.528366 152.0
181.554092 228.0
181.582748 184.0
181.617615 144.0
181.691971 156.0
181.753693 144.0
181.776825 212.0
181.841919 144.0
181.903854 88.0
181.968292 88.0
182.015213 120.0
182.035019 272.0
182.057022 180.0
182.10817 3184.0
182.14566 120.0
182.191315 140.0
182.2155 28.0
182.270905 148.0
182.314926 84.0
182.368668 204.0
182.395554 152.0
182.414368 80.0
182.44931 188.0
182.468857 104.0
182.49234 196.0
182.546112 200.0
182.567627 120.0
182.613342 116.0
182.685974 212.0
182.745163 132.0
182.823792 256.0
182.858185 124.0
182.909317 112.0
182.961716 104.0
182.981567 292.0
183.006851 176.0
183.036713 188.0
183.078705 488.0
183.116089 27092.0
183.193558 108.0
183.201767 60.0
183.221771 148.0
183.243256 56.0
183.342957 160.0
183.367218 208.0
183.407639 224.0
183.453461 104.0
183.472336 76.0
183.491211 180.0
183.510086 128.0
183.564011 156.0
183.597763 224.0
183.706955 116.0
183.728546 104.0
183.755524 84.0
183.786148 124.0
183.825668 124.0
183.875153 192.0
183.920135 104.0
183.961929 132.0
183.995117 156.0
184.026215 176.0
184.043854 196.0
184.075958 156.0
184.120392 3808.0
184.217758 72.0
184.239334 204.0
184.276001 196.0
184.304596 132.0
184.328842 100.0
184.378036 104.0
184.425232 48.0
184.452255 40.0
184.479294 140.0
184.509857 104.0
184.532028 284.0
184.56041 36.0
184.615234 116.0
184.636124 220.0
184.668579 260.0
184.691162 232.0
184.714554 32.0
184.746841 184.0
184.811951 64.0
184.912079 120.0
184.964478 64.0
184.989288 260.0
185.012238 276.0
185.066376 48.0
185.095764 2952.0
185.132645 5532.0
185.180115 64.0
185.208237 200.0
185.245117 204.0
185.298096 116.0
185.352829 164.0
185.4077 52.0
185.432083 88.0
185.489014 124.0
185.513397 104.0
185.555603 88.0
185.586609 156.0
185.624573 180.0
185.718094 124.0
185.776459 116.0
185.817139 236.0
185.837265 168.0
185.877869 200.0
185.985397 60.0
186.101227 1212.0
186.140091 1168.0
186.248779 120.0
186.267792 52.0
186.346573 32.0
186.371033 172.0
186.42099 216.0
186.498764 204.0
186.528976 100.0
186.62204 148.0
186.642838 136.0
186.748901 108.0
186.808746 144.0
186.830444 180.0
186.875992 100.0
186.906693 64.0
186.932602 100.0
186.955032 172.0
187.072708 160.0
187.111908 20284.0
187.146362 1480.0
187.183548 156.0
187.258896 164.0
187.308472 60.0
187.32724 128.0
187.374634 88.0
187.399521 132.0
187.418594 40.0
187.440399 32.0
187.481491 48.0
187.547302 96.0
187.585632 288.0
187.628464 248.0
187.655731 204.0
187.682983 92.0
187.709351 192.0
187.814545 200.0
187.882095 216.0
187.925003 148.0
187.994171 200.0
188.029434 80.0
188.058853 144.0
188.115311 2672.0
188.153091 188.0
188.179581 116.0
188.217804 108.0
188.243652 92.0
188.26149 112.0
188.387131 188.0
188.414459 160.0
188.58934 48.0
188.613022 72.0
188.644012 52.0
188.66861 120.0
188.767044 80.0
188.829941 60.0
188.861542 120.0
188.886215 84.0
188.922943 48.0
188.944824 188.0
188.968002 180.0
189.013229 188.0
189.051544 144.0
189.087128 116.0
189.12738 3988.0
189.191132 72.0
189.22673 124.0
189.270538 284.0
189.300339 272.0
189.401993 100.0
189.438812 116.0
189.480865 172.0
189.53624 148.0
189.566376 148.0
189.618439 76.0
189.671829 84.0
189.69519 80.0
189.719864 84.0
189.745911 104.0
189.760651 128.0
189.766144 100.0
189.818573 180.0
189.854218 152.0
189.887131 220.0
189.966461 248.0
190.021545 132.0
190.042419 204.0
190.070938 112.0
190.134048 304.0
190.183456 116.0
190.216385 244.0
190.28801 140.0
190.401031 64.0
190.458023 172.0
190.52121 132.0
190.592636 264.0
190.636612 148.0
190.672333 168.0
190.730499 148.0
190.754791 136.0
190.815277 160.0
190.840027 112.0
190.859268 148.0
190.897766 172.0
190.950012 156.0
191.048004 96.0
191.085251 292.0
191.139648 180.0
191.250885 172.0
191.285706 204.0
191.307724 228.0
191.338013 88.0
191.42337 216.0
191.487946 124.0
191.516998 140.0
191.558807 68.0
191.581268 144.0
191.637146 424.0
191.685059 136.0
191.740616 200.0
191.79097 196.0
191.817352 116.0
191.886261 128.0
191.905563 160.0
192.012253 180.0
192.048965 172.0
192.090332 1036.0
192.159317 124.0
192.242096 104.0
192.325592 304.0
192.43808 100.0
192.52919 144.0
192.602905 128.0
192.681122 164.0
192.73085 88.0
192.776031 296.0
192.845062 184.0
192.893906 120.0
192.951965 180.0
193.101318 4732.0
193.178741 64.0
193.197372 48.0
193.225128 192.0
193.247894 200.0
193.339218 140.0
193.371445 136.0
193.402878 148.0
193.439331 224.0
193.508072 192.0
193.539215 80.0
193.559387 180.0
193.593903 136.0
193.624374 208.0
193.686081 180.0
193.75621 192.0
193.783218 184.0
193.903015 192.0
193.923584 176.0
193.954086 104.0
193.984573 56.0
194.01506 68.0
194.062195 164.0
194.108139 10268.0
194.158249 44.0
194.176147 176.0
194.225815 140.0
194.253555 88.0
194.280731 204.0
194.310196 144.0
194.406158 188.0
194.462494 200.0
194.569916 184.0
194.603241 112.0
194.647659 40.0
194.67543 160.0
194.695511 336.0
194.725418 100.0
194.746552 132.0
194.762833 60.0
194.773682 96.0
194.800293 172.0
194.869873 172.0
194.911545 92.0
194.972397 116.0
195.000595 180.0
195.080078 288.0
195.116104 10112.0
195.166428 172.0
195.171814 120.0
195.183258 128.0
195.236252 184.0
195.275726 60.0
195.303543 144.0
195.324661 120.0
195.414825 180.0
195.434296 176.0
195.509995 196.0
195.581787 260.0
195.619202 256.0
195.643036 112.0
195.75441 44.0
195.82402 116.0
196.003464 252.0
196.030182 112.0
196.08313 216.0
196.122391 4048.0
196.219727 132.0
196.239243 100.0
196.319214 200.0
196.3452 212.0
196.367523 84.0
196.398193 40.0
196.433975 96.0
196.442017 164.0
196.482376 160.0
196.505554 132.0
196.560623 128.0
196.628845 252.0
196.69397 100.0
196.800064 220.0
196.853119 56.0
196.917343 124.0
196.967621 204.0
197.040253 44.0
197.093597 632.0
197.132126 17952.0
197.181763 100.0
197.22435 196.0
197.279327 140.0
197.308609 216.0
197.329239 200.0
197.364471 268.0
197.407959 116.0
197.43158 48.0
197.470734 60.0
197.505646 92.0
197.524368 184.0
197.55983 268.0
197.601517 64.0
197.673141 228.0
197.744934 156.0
197.79158 64.0
197.81691 212.0
197.862488 148.0
197.904495 80.0
197.938095 192.0
197.957687 144.0
198.066879 164.0
198.105804 916.0
198.138977 11552.0
198.187393 176.0
198.22998 160.0
198.260452 56.0
198.307892 56.0
198.341522 152.0
198.394791 164.0
198.49292 84.0
198.621933 52.0
198.648544 116.0
198.66861 112.0
198.697678 72.0
198.759399 144.0
198.856995 236.0
198.905334 140.0
198.953201 164.0
198.992355 180.0
199.060165 136.0
199.113297 1756.0
199.146042 6768.0
199.20018 60.0
199.258163 156.0
199.322525 88.0
199.354706 212.0
199.405304 32.0
199.450439 64.0
199.494492 76.0
199.531799 184.0
199.580292 208.0
199.678009 96.0
199.728638 264.0
199.756866 228.0
199.832733 84.0
199.862717 264.0
200.012833 104.0
200.070236 164.0
200.116989 852.0
200.152847 1884.0
200.204285 140.0
200.279663 84.0
200.347946 72.0
200.379272 164.0
200.429642 56.0
200.450989 332.0
200.511368 128.0
200.549042 196.0
200.570557 140.0
200.604385 132.0
200.64386 152.0
200.672043 32.0
200.703064 56.0
200.809723 68.0
200.846893 52.0
200.877136 116.0
200.89563 116.0
200.954086 100.0
201.007706 156.0
201.054184 172.0
201.091949 140.0
201.124039 820.0
201.160553 784.0
201.210922 60.0
201.343643 112.0
201.363403 64.0
201.427551 180.0
201.431931 216.0
201.477432 88.0
201.547028 208.0
201.617676 52.0
201.657242 100.0
201.690262 112.0
201.725082 148.0
201.781631 152.0
201.824036 144.0
201.8741 124.0
201.982407 92.0
202.071381 148.0
202.088409 408.0
202.109604 308.0
202.131302 844.0
202.169113 320.0
202.239899 152.0
202.344635 124.0
202.370773 224.0
202.4151 104.0
202.42717 184.0
202.50322 64.0
202.537201 144.0
202.64769 132.0
202.698685 168.0
202.79599 108.0
202.880081 156.0
202.936783 48.0
202.962311 80.0
202.987823 128.0
203.020416 204.0
203.093475 260.0
203.142181 584.0
203.192047 208.0
203.226089 164.0
203.313614 228.0
203.336761 184.0
203.441788 156.0
203.570938 160.0
203.637711 184.0
203.686005 176.0
203.762711 192.0
203.819534 68.0
203.874771 128.0
203.896255 176.0
203.967316 172.0
203.998581 76.0
204.044067 96.0
204.094803 220.0
204.145981 300.0
204.24028 168.0
204.353073 124.0
204.484985 248.0
204.564682 36.0
204.638702 108.0
204.67746 176.0
204.769684 180.0
204.846603 176.0
204.869827 336.0
205.041336 196.0
205.065994 200.0
205.103348 640.0
205.147369 220.0
205.208527 204.0
205.268417 180.0
205.316895 84.0
205.336853 60.0
205.362518 140.0
205.422424 208.0
205.505157 56.0
205.553665 156.0
205.585052 224.0
205.603958 148.0
205.682251 76.0
205.722061 232.0
205.759171 44.0
205.821991 180.0
205.979065 100.0
206.019058 116.0
206.047623 132.0
206.109131 1900.0
206.184784 132.0
206.219086 116.0
206.376312 96.0
206.424927 160.0
206.496414 124.0
206.539322 156.0
206.570389 200.0
206.667053 92.0
206.67778 60.0
206.683746 116.0
206.848358 88.0
206.868393 80.0
207.0009 272.0
207.061447 156.0
207.084717 168.0
207.117081 5000.0
207.171951 48.0
207.200592 144.0
207.221741 168.0
207.286545 120.0
207.366791 108.0
207.395462 204.0
207.427704 156.0
207.475723 152.0
207.573212 32.0
207.664978 216.0
207.72522 100.0
207.796936 276.0
207.834229 116.0
207.88588 120.0
207.957626 256.0
208.02652 84.0
208.046616 72.0
208.123779 5548.0
208.187317 152.0
208.216034 160.0
208.236725 152.0
208.282089 160.0
208.307938 64.0
208.354721 344.0
208.394135 88.0
208.425735 152.0
208.506195 152.0
208.582962 164.0
208.640015 232.0
208.670044 220.0
208.727554 180.0
208.747681 184.0
208.799438 200.0
208.825333 100.0
208.859848 148.0
208.879974 148.0
208.912354 172.0
208.938568 196.0
208.949692 172.0
208.97319 120.0
209.025085 184.0
209.055481 200.0
209.093536 400.0
209.132767 65324.0
209.187164 100.0
209.195084 168.0
209.221558 156.0
209.255981 76.0
209.315918 128.0
209.341187 212.0
209.37175 84.0
209.404861 224.0
209.445389 104.0
209.48233 80.0
209.526596 132.0
209.579285 252.0
209.607239 296.0
209.637802 72.0
209.697723 88.0
209.727585 144.0
209.773834 176.0
209.805588 124.0
209.830322 112.0
209.866119 260.0
209.890869 92.0
209.920029 144.0
209.94429 168.0
209.950119 88.0
209.960983 128.0
209.999771 248.0
210.036926 124.0
210.062973 160.0
210.103714 664.0
210.136948 19556.0
210.185135 208.0
210.242203 136.0
210.280319 128.0
210.338043 40.0
210.371246 244.0
210.423828 112.0
210.503601 152.0
210.549088 176.0
210.568039 140.0
210.612366 180.0
210.652802 44.0
210.675903 176.0
210.708862 188.0
210.732666 192.0
210.763779 68.0
210.811218 196.0
210.845612 168.0
210.881073 196.0
210.935303 212.0
210.996704 36.0
211.039108 60.0
211.059448 148.0
211.111374 2452.0
211.147186 30144.0
211.189209 112.0
211.240479 40.0
211.27388 76.0
211.292862 160.0
211.325256 84.0
211.347198 160.0
211.391449 248.0
211.470291 72.0
211.494263 76.0
211.526535 52.0
211.570969 184.0
211.595688 144.0
211.631195 212.0
211.672729 140.0
211.729431 188.0
211.758926 172.0
211.779221 296.0
211.802567 220.0
211.835938 84.0
211.868622 408.0
211.886459 180.0
211.909286 140.0
211.957626 68.0
212.048477 240.0
212.118591 1272.0
212.151596 5908.0
212.236099 60.0
212.25827 148.0
212.297836 132.0
212.335648 80.0
212.371506 152.0
212.458633 180.0
212.502182 188.0
212.530304 32.0
212.576721 40.0
212.688766 116.0
212.75325 100.0
212.777527 100.0
212.804581 28.0
212.897507 160.0
212.920746 52.0
212.955597 52.0
213.029785 76.0
213.077591 32.0
213.127792 1852.0
213.16095 1748.0
213.237411 48.0
213.269394 52.0
213.304276 116.0
213.395126 196.0
213.438599 176.0
213.469986 76.0
213.565964 256.0
213.632401 124.0
213.645233 64.0
213.682327 40.0
213.712433 172.0
213.772125 172.0
213.811325 108.0
213.862747 80.0
213.909317 184.0
213.958817 104.0
214.009766 120.0
214.133331 1040.0
214.168594 708.0
214.238388 232.0
214.316162 144.0
214.395737 172.0
214.486084 164.0
214.53273 176.0
214.561874 176.0
214.593948 152.0
214.661011 120.0
214.72438 88.0
214.833099 112.0
214.853516 40.0
214.94809 180.0
215.022751 140.0
215.08371 172.0
215.141174 3184.0
215.17746 180.0
215.227097 68.0
215.370209 60.0
215.618546 132.0
215.735474 140.0
215.814407 76.0
215.855347 100.0
216.007431 96.0
216.091019 208.0
216.144882 404.0
216.223114 156.0
216.297119 144.0
216.402512 132.0
216.459045 116.0
216.490356 140.0
216.566498 148.0
216.673553 72.0
216.762024 124.0
216.818466 188.0
216.897598 140.0
216.932785 132.0
217.000214 124.0
217.105316 692.0
217.11647 508.0
217.162033 180.0
217.20256 172.0
217.243622 124.0
217.311111 136.0
217.443161 120.0
217.463699 152.0
217.542953 136.0
217.66333 152.0
217.73674 168.0
217.780807 128.0
217.823624 200.0
217.843536 180.0
217.937256 108.0
218.015839 168.0
218.11322 252.0
218.171616 176.0
218.212784 136.0
218.233368 136.0
218.330399 64.0
218.350983 140.0
218.374512 180.0
218.412079 104.0
218.453934 160.0
218.501007 64.0
218.571625 188.0
218.79213 148.0
218.845367 172.0
218.869415 188.0
218.930756 116.0
218.98671 112.0
219.052551 192.0
219.116699 2980.0
219.166412 180.0
219.192932 120.0
219.217209 200.0
219.281342 40.0
219.443466 172.0
219.472961 80.0
219.596817 116.0
219.690628 164.0
219.793045 116.0
219.810791 128.0
219.947937 216.0
220.012878 116.0
220.036499 176.0
220.08078 168.0
220.123978 3068.0
220.188812 160.0
220.234344 92.0
220.266846 92.0
220.373199 156.0
220.458893 64.0
220.482529 116.0
220.630325 52.0
220.704239 116.0
220.754501 164.0
220.807739 56.0
220.887604 128.0
221.008026 68.0
221.038483 76.0
221.065125 120.0
221.131256 4268.0
221.202972 124.0
221.250931 144.0
221.301926 160.0
221.329712 156.0
221.414444 156.0
221.44313 228.0
221.493881 88.0
221.521072 68.0
221.589218 176.0
221.633667 108.0
221.685837 204.0
221.719604 204.0
221.759262 220.0
221.820374 96.0
221.938965 96.0
221.975739 196.0
222.001236 124.0
222.062851 180.0
222.102036 396.0
222.138443 3312.0
222.214798 144.0
222.328995 124.0
222.357239 76.0
222.413361 132.0
222.430588 224.0
222.467056 52.0
222.558411 292.0
222.585815 156.0
222.639282 144.0
222.671936 96.0
222.698669 156.0
222.743225 104.0
222.838287 68.0
222.890579 148.0
222.929733 88.0
222.952774 252.0
223.03334 152.0
223.110321 996.0
223.14769 22600.0
223.204849 160.0
223.232971 128.0
223.261581 136.0
223.285477 152.0
223.310211 160.0
223.364578 268.0
223.374176 140.0
223.386398 164.0
223.411209 180.0
223.440048 272.0
223.474899 104.0
223.525482 216.0
223.551498 56.0
223.605408 216.0
223.662704 128.0
223.703934 56.0
223.730515 116.0
223.759674 176.0
223.807922 72.0
223.862579 136.0
223.887329 108.0
223.924057 112.0
223.968735 200.0
224.007904 132.0
224.041351 152.0
224.068497 280.0
224.118134 800.0
224.156448 92008.0
224.22113 152.0
224.251892 168.0
224.273773 184.0
224.3134 56.0
224.321701 124.0
224.341751 320.0
224.367661 120.0
224.406387 116.0
224.436859 96.0
224.483612 276.0
224.523056 240.0
224.553879 152.0
224.57515 132.0
224.60495 100.0
224.650436 140.0
224.693008 124.0
224.731476 80.0
224.74968 256.0
224.78125 120.0
224.818451 120.0
224.858032 168.0
224.898605 56.0
224.935287 56.0
224.973572 136.0
225.012772 236.0
225.087021 336.0
225.126831 2964.0
225.161636 32732.0
225.225098 60.0
225.251617 136.0
225.307953 192.0
225.317886 260.0
225.343826 132.0
225.368927 72.0
225.400192 104.0
225.445587 92.0
225.505554 60.0
225.570984 108.0
225.578293 40.0
225.6082 200.0
225.62912 168.0
225.660812 92.0
225.712631 156.0
225.739365 100.0
225.777649 116.0
225.812561 80.0
225.87912 88.0
225.931732 200.0
225.963455 112.0
226.040314 100.0
226.070602 120.0
226.133804 1624.0
226.166016 5400.0
226.219299 100.0
226.24263 84.0
226.294357 144.0
226.359512 160.0
226.432846 124.0
226.470932 56.0
226.478775 84.0
226.543671 72.0
226.599548 80.0
226.629333 108.0
226.667862 160.0
226.691376 108.0
226.777191 308.0
226.822281 144.0
226.87085 264.0
226.888855 96.0
226.933289 100.0
226.97226 128.0
227.00824 84.0
227.071381 156.0
227.099762 120.0
227.141907 2020.0
227.17424 588.0
227.231201 48.0
227.250137 168.0
227.296219 56.0
227.336288 124.0
227.374847 144.0
227.421097 144.0
227.440521 112.0
227.540878 140.0
227.598602 108.0
227.738907 96.0
227.760193 140.0
227.832535 128.0
227.875549 72.0
227.917786 108.0
227.949814 100.0
227.981995 140.0
228.113129 128.0
228.153015 368.0
228.18338 184.0
228.236404 224.0
228.264969 56.0
228.288254 120.0
228.386765 84.0
228.422867 40.0
228.489044 180.0
228.558517 88.0
228.648529 116.0
228.744843 216.0
228.796021 72.0
228.868027 188.0
229.006805 64.0
229.064041 216.0
229.115463 228.0
229.157166 1228.0
229.305084 52.0
229.529022 212.0
229.755081 144.0
229.798523 188.0
229.878082 64.0
229.908264 76.0
230.107574 304.0
230.158813 136.0
230.198074 116.0
230.318878 288.0
230.593216 128.0
230.702637 76.0
230.723801 84.0
230.763107 148.0
230.950607 52.0
230.986893 168.0
231.01413 140.0
231.080688 160.0
231.114532 640.0
231.135452 692.0
231.456009 80.0
231.544556 212.0
231.574112 84.0
231.698303 160.0
231.907394 92.0
232.02562 184.0
232.080185 124.0
232.125381 604.0
232.171158 132.0
232.268219 116.0
232.305222 120.0
232.386536 52.0
232.456314 64.0
232.507904 100.0
232.54129 40.0
232.577713 156.0
232.948181 136.0
233.011978 240.0
233.12999 1944.0
233.185181 112.0
233.376694 116.0
233.754028 164.0
233.784302 208.0
233.866486 156.0
234.036957 108.0
234.096573 104.0
234.13858 6112.0
234.190384 136.0
234.265381 64.0
234.347641 164.0
234.398193 88.0
234.4319 116.0
234.478668 156.0
234.512192 164.0
234.606689 172.0
234.634125 44.0
234.660721 188.0
234.667221 136.0
234.677399 168.0
234.801834 208.0
234.899445 84.0
234.929947 100.0
234.960449 180.0
235.03978 164.0
235.115723 260.0
235.146774 3716.0
235.195435 156.0
235.271744 132.0
235.296173 120.0
235.345016 96.0
235.415253 72.0
235.470215 140.0
235.506866 108.0
235.531311 100.0
235.592407 84.0
235.665298 56.0
235.763504 56.0
235.81546 80.0
235.855194 48.0
235.881821 184.0
235.971375 48.0
236.066162 72.0
236.11702 340.0
236.153671 2240.0
236.231323 188.0
236.277206 116.0
236.35675 160.0
236.402664 76.0
236.448563 224.0
236.518967 76.0
236.541718 92.0
236.589371 52.0
236.65979 100.0
236.724564 180.0
236.77002 48.0
236.855789 128.0
236.893158 180.0
236.984451 116.0
237.040222 184.0
237.087387 148.0
237.125549 1772.0
237.162811 5996.0
237.223495 48.0
237.247513 192.0
237.294006 96.0
237.318542 184.0
237.404404 88.0
237.502548 28.0
237.536285 124.0
237.608704 232.0
237.647095 100.0
237.751053 100.0
237.797089 148.0
237.864624 52.0
237.923965 200.0
238.008911 164.0
238.039627 32.0
238.091827 160.0
238.132767 1412.0
238.167816 2836.0
238.282272 200.0
238.32222 52.0
238.377533 164.0
238.442062 84.0
238.472794 96.0
238.525055 72.0
238.60498 32.0
238.638794 172.0
238.715668 40.0
238.758728 60.0
238.823318 52.0
238.952515 76.0
238.992508 288.0
239.044815 104.0
239.090729 144.0
239.14183 3696.0
239.178177 1924.0
239.221848 124.0
239.324036 96.0
239.355728 72.0
239.448105 84.0
239.497391 40.0
239.623688 108.0
239.760193 184.0
239.877319 120.0
239.962723 160.0
240.079895 48.0
240.148529 1208.0
240.185715 840.0
240.218689 216.0
240.30072 88.0
240.382217 184.0
240.412048 112.0
240.523239 128.0
240.545792 108.0
240.749573 136.0
240.876205 72.0
241.03067 64.0
241.109985 152.0
241.157578 6520.0
241.398529 40.0
241.441818 176.0
241.634369 80.0
241.707855 152.0
241.755875 68.0
241.853317 96.0
241.890457 172.0
241.915222 64.0
241.946182 92.0
242.004471 140.0
242.122818 92.0
242.132462 196.0
242.159836 984.0
242.197861 176.0
242.327118 64.0
242.466568 148.0
242.613388 132.0
242.649445 48.0
242.695953 88.0
242.782791 180.0
242.838608 76.0
242.875824 140.0
242.909958 120.0
243.139557 112.0
243.170624 1544.0
243.229568 148.0
243.316483 76.0
243.42952 188.0
243.571136 60.0
243.61554 228.0
243.639481 88.0
243.664322 96.0
243.720581 152.0
243.993759 108.0
244.124939 172.0
244.166107 296.0
244.206192 152.0
244.301651 60.0
244.377609 240.0
244.507004 164.0
244.637741 52.0
244.737366 120.0
244.893066 244.0
244.987274 260.0
245.131836 724.0
245.183884 140.0
245.210876 168.0
245.235809 100.0
245.357376 152.0
245.405792 136.0
245.475159 116.0
245.552704 168.0
245.716034 64.0
245.934479 176.0
246.1409 368.0
246.33728 140.0
246.460953 116.0
246.505997 160.0
246.887375 136.0
246.97496 188.0
247.025009 128.0
247.07193 64.0
247.148987 1872.0
247.306625 200.0
247.331665 212.0
247.416183 132.0
247.485062 272.0
247.572739 136.0
247.663223 144.0
247.807663 128.0
247.983154 260.0
248.030167 140.0
248.055252 88.0
248.102264 80.0
248.153702 620.0
248.193192 156.0
248.328049 120.0
248.497437 124.0
248.569611 208.0
248.692703 216.0
248.73909 216.0
248.767609 180.0
248.866455 216.0
248.910339 168.0
248.955719 176.0
249.027954 208.0
249.09375 148.0
249.163666 18012.0
249.264282 188.0
249.288712 48.0
249.326431 52.0
249.353775 120.0
249.461929 96.0
249.542206 68.0
249.59346 72.0
249.653381 120.0
249.68483 184.0
249.770844 120.0
249.794907 140.0
249.845245 172.0
249.876709 96.0
250.011932 152.0
250.063217 148.0
250.085892 76.0
250.133743 332.0
250.167801 4144.0
250.270142 180.0
250.336258 72.0
250.449646 64.0
250.53154 88.0
250.553589 160.0
250.638657 120.0
250.667023 40.0
250.716248 148.0
250.8246 136.0
250.960175 188.0
251.098923 164.0
251.143677 5000.0
251.169662 1404.0
251.236618 128.0
251.299789 124.0
251.33551 76.0
251.461746 88.0
251.518555 44.0
251.581696 104.0
251.644836 80.0
251.676407 120.0
251.701675 52.0
251.783783 92.0
251.832581 124.0
251.862732 68.0
251.888 120.0
251.927429 100.0
251.96698 144.0
251.992264 84.0
252.014374 84.0
252.099686 72.0
252.149475 2812.0
252.289886 160.0
252.31723 160.0
252.526489 56.0
252.564453 152.0
252.656189 104.0
252.700485 56.0
252.744781 84.0
252.846039 164.0
252.883408 184.0
252.98848 100.0
253.070786 120.0
253.157776 4040.0
253.2323 112.0
253.263977 52.0
253.412857 128.0
253.549118 72.0
253.602997 48.0
253.736145 124.0
253.872482 148.0
253.90419 88.0
254.120087 464.0
254.163269 1136.0
254.198273 280.0
254.321732 120.0
254.516663 48.0
254.592865 40.0
254.618271 108.0
254.679703 164.0
254.751678 80.0
254.802505 88.0
254.90419 140.0
255.037582 168.0
255.173035 2652.0
255.260208 64.0
255.299927 196.0
255.365158 64.0
255.522934 180.0
255.667404 48.0
255.689682 48.0
255.756516 152.0
255.839279 180.0
255.960266 120.0
256.009308 156.0
256.04306 132.0
256.143219 240.0
256.179199 672.0
256.213348 164.0
256.240204 184.0
256.320221 116.0
256.358459 84.0
256.444489 140.0
256.536957 112.0
256.584747 104.0
256.632599 156.0
257.002594 128.0
257.157379 300.0
257.180573 432.0
257.213196 80.0
257.273865 100.0
257.376038 132.0
257.481415 40.0
257.529327 164.0
257.705017 68.0
257.87439 100.0
258.018219 176.0
258.13974 268.0
258.248352 120.0
258.35083 140.0
258.392426 40.0
258.562012 76.0
258.584412 44.0
258.626038 152.0
258.983032 148.0
259.013458 108.0
259.099976 152.0
259.148712 800.0
259.253754 60.0
259.44928 92.0
259.76355 56.0
259.789215 112.0
259.863007 68.0
259.940033 180.0
259.98175 88.0
260.155609 632.0
260.187164 48.0
260.285522 212.0
260.550079 148.0
260.713959 52.0
260.906799 204.0
260.9711 100.0
261.019348 132.0
261.162567 672.0
261.262604 88.0
261.649963 96.0
261.849609 136.0
261.920471 152.0
262.135468 148.0
262.165344 196.0
262.30069 164.0
262.716705 140.0
262.95871 332.0
263.052307 56.0
263.178101 3276.0
263.242798 176.0
263.271851 40.0
263.517365 132.0
263.585205 40.0
263.837311 32.0
263.976349 112.0
264.008667 160.0
264.040497 196.0
264.103149 132.0
264.149384 636.0
264.185516 2668.0
264.319244 40.0
264.345123 28.0
264.448669 156.0
264.48938 152.0
264.59436 144.0
264.681763 156.0
264.847809 180.0
264.937622 200.0
264.979767 124.0
265.051025 172.0
265.083435 188.0
265.11261 136.0
265.157043 4180.0
265.194336 11704.0
265.271759 116.0
265.376038 256.0
265.40686 168.0
265.474457 60.0
265.527588 168.0
265.650085 228.0
265.695099 112.0
265.81955 172.0
265.85199 64.0
265.894196 192.0
265.931946 84.0
265.960205 128.0
266.020782 128.0
266.049164 124.0
266.09729 288.0
266.163513 3040.0
266.196655 2304.0
266.251312 248.0
266.27774 168.0
266.3013 316.0
266.37912 184.0
266.418762 104.0
266.444031 288.0
266.482391 124.0
266.53067 72.0
266.572906 80.0
266.595673 96.0
266.677338 64.0
266.722992 136.0
266.813538 148.0
266.851074 104.0
266.892822 116.0
266.918762 164.0
266.950897 296.0
267.0177 300.0
267.044006 172.0
267.093109 120.0
267.174194 69984.0
267.233978 176.0
267.258148 112.0
267.294952 128.0
267.350647 52.0
267.402557 152.0
267.436707 40.0
267.489868 60.0
267.532867 52.0
267.575012 84.0
267.604645 232.0
267.647003 52.0
267.706055 48.0
267.720032 120.0
267.750031 128.0
267.760651 132.0
267.773712 76.0
267.812469 68.0
267.878265 96.0
267.924591 72.0
268.008392 56.0
268.040344 84.0
268.086609 80.0
268.177673 14260.0
268.253784 208.0
268.298584 80.0
268.341125 144.0
268.382935 232.0
268.447968 116.0
268.524323 136.0
268.535339 56.0
268.548706 180.0
268.57251 88.0
268.667358 124.0
268.708313 88.0
268.834625 128.0
268.894928 108.0
268.976532 36.0
269.012421 68.0
269.041809 92.0
269.181335 1460.0
269.26059 56.0
269.319366 72.0
269.359741 44.0
269.407562 28.0
269.446777 52.0
269.469635 44.0
269.495789 56.0
269.564392 56.0
269.615417 92.0
269.693573 68.0
269.699432 100.0
269.742523 88.0
269.755463 96.0
269.762451 60.0
269.786133 200.0
269.8414 144.0
269.888 88.0
269.937561 92.0
269.965363 92.0
269.994354 116.0
270.004639 120.0
270.032532 320.0
270.078094 232.0
270.12796 76.0
270.180511 288.0
270.22818 120.0
270.260895 60.0
270.288849 132.0
270.336151 80.0
270.381958 36.0
270.404877 52.0
270.450684 88.0
270.532532 100.0
270.558716 72.0
270.588196 60.0
270.76828 132.0
270.801025 148.0
270.884766 120.0
270.940552 68.0
270.94812 116.0
271.00415 84.0
271.210602 56.0
271.272888 132.0
271.436798 68.0
271.567993 28.0
271.669678 52.0
271.817322 56.0
271.879669 156.0
271.964996 60.0
272.00769 76.0
272.168549 164.0
272.240784 44.0
272.454285 48.0
272.815796 72.0
272.960449 52.0
273.156464 160.0
273.19397 136.0
273.223572 108.0
273.249908 92.0
273.368347 64.0
273.977478 176.0
274.132355 72.0
274.172363 1096.0
274.320221 56.0
275.141663 180.0
275.170319 188.0
275.2341 88.0
275.627167 128.0
275.855225 168.0
275.888275 184.0
276.152802 348.0
276.189178 72.0
276.513428 36.0
276.553162 48.0
276.761719 56.0
276.904114 56.0
277.049866 28.0
277.15802 692.0
277.281799 136.0
277.354736 100.0
277.702881 48.0
277.98819 112.0
278.158844 760.0
278.200623 44.0
278.482849 112.0
278.656372 136.0
278.8284 40.0
278.931763 204.0
279.021179 48.0
279.087677 144.0
279.170685 708.0
279.211273 260.0
279.287231 52.0
279.320496 44.0
279.485046 232.0
279.550049 56.0
279.789703 64.0
279.862946 40.0
279.976166 52.0
280.039459 52.0
280.116058 160.0
280.142395 360.0
280.177155 156.0
280.214172 212.0
280.257599 172.0
280.452606 120.0
280.479279 68.0
280.649292 112.0
280.702637 156.0
280.739319 52.0
280.939453 104.0
280.962799 96.0
281.086243 208.0
281.152924 816.0
281.189392 12172.0
281.276489 104.0
281.313202 200.0
281.359955 176.0
281.417694 136.0
281.465118 80.0
281.503754 108.0
281.601044 100.0
281.657135 164.0
281.716156 72.0
281.791565 136.0
281.894348 124.0
282.058136 156.0
282.078735 144.0
282.122894 180.0
282.197784 47268.0
282.312012 164.0
282.348999 44.0
282.382446 184.0
282.444031 72.0
282.486145 64.0
282.514832 64.0
282.558502 60.0
282.636017 76.0
282.715637 60.0
282.766479 124.0
282.805145 72.0
282.850891 84.0
282.874329 72.0
282.906372 160.0
282.957062 112.0
282.993011 80.0
283.048431 80.0
283.0867 156.0
283.203705 11928.0
283.304932 116.0
283.360535 88.0
283.402039 144.0
283.443695 160.0
283.503998 52.0
283.530823 56.0
283.55426 52.0
283.604034 52.0
283.682617 136.0
283.781311 108.0
283.825806 100.0
283.908661 108.0
283.952301 156.0
283.986786 36.0
284.049042 192.0
284.207153 2492.0
284.28537 104.0
284.346527 60.0
284.433044 92.0
284.4599 68.0
284.490112 64.0
284.574036 76.0
284.63681 92.0
284.648743 64.0
284.656006 108.0
284.70993 68.0
284.741943 68.0
284.88974 52.0
284.987183 128.0
285.049713 104.0
285.086426 56.0
285.114868 132.0
285.145111 76.0
285.201172 384.0
285.232513 256.0
285.304901 296.0
285.329987 120.0
285.467834 68.0
285.565369 36.0
285.602386 88.0
285.655151 64.0
285.710022 60.0
285.803986 56.0
285.84903 116.0
285.9422 204.0
285.969116 48.0
285.99942 72.0
286.097046 32.0
286.181213 60.0
286.211517 80.0
286.265381 68.0
286.319275 100.0
286.686493 64.0
286.966248 84.0
287.117981 88.0
287.176392 148.0
287.516083 60.0
287.762512 200.0
288.184692 152.0
288.570007 88.0
288.783051 132.0
289.194366 1076.0
289.449738 56.0
289.520844 124.0
289.717316 52.0
289.856232 48.0
289.908661 124.0
290.201569 552.0
290.330811 40.0
290.391846 156.0
290.5513 92.0
290.585205 40.0
290.890656 48.0
290.944977 68.0
290.968719 84.0
291.173401 260.0
291.203918 124.0
291.777527 60.0
292.025543 40.0
292.182159 924.0
292.518921 60.0
292.573395 28.0
292.672119 124.0
292.88327 72.0
293.188049 724.0
293.271698 48.0
293.448975 88.0
294.022064 112.0
294.148346 52.0
294.184265 76.0
295.070709 60.0
295.16626 1160.0
295.212372 152.0
295.535858 168.0
295.741211 44.0
295.905518 56.0
296.173309 360.0
296.38504 44.0
296.834076 68.0
297.182953 348.0
297.231995 408.0
297.647308 128.0
297.877441 156.0
298.155731 52.0
298.186188 164.0
298.227905 84.0
298.66803 28.0
298.781555 28.0
298.874451 64.0
299.067169 108.0
299.146332 92.0
299.173889 108.0
299.201416 164.0
299.315033 60.0
299.742157 28.0
299.786957 36.0
300.073059 72.0
300.273071 72.0
301.213776 408.0
301.658142 88.0
301.930817 116.0
302.179871 144.0
302.217926 60.0
302.74408 92.0
302.951904 80.0
303.385101 60.0
303.433624 108.0
303.554993 60.0
303.863678 128.0
303.901855 28.0
303.936554 52.0
304.259338 284.0
304.294067 136.0
304.321838 144.0
304.415588 80.0
305.180023 336.0
305.207855 196.0
305.253052 108.0
305.32608 152.0
305.527832 156.0
305.778381 72.0
307.204651 5540.0
307.295898 156.0
307.360504 72.0
307.472168 40.0
307.559418 72.0
307.622253 88.0
307.709534 32.0
307.847931 144.0
308.20932 1232.0
308.369751 56.0
308.603973 160.0
308.684387 52.0
308.82077 48.0
309.180237 292.0
309.216644 416.0
309.46817 92.0
309.930542 48.0
310.192841 1588.0
310.402527 84.0
310.656281 88.0
310.779053 68.0
311.056305 128.0
311.195526 316.0
311.24588 96.0
311.502289 108.0
311.818512 128.0
311.899353 60.0
312.046997 28.0
312.20874 192.0
312.697784 84.0
313.264679 44.0
313.409119 36.0
313.825043 92.0
313.944916 132.0
314.297668 48.0
314.682404 148.0
315.993652 100.0
316.354645 80.0
317.821899 92.0
317.967407 148.0
318.004852 140.0
318.620758 72.0
319.459747 104.0
319.630524 48.0
319.715942 136.0
319.922394 60.0
320.734558 112.0
320.82724 56.0
322.987701 64.0
323.204407 212.0
323.270325 132.0
323.356232 68.0
323.916107 152.0
324.161133 216.0
324.344788 84.0
324.685394 76.0
325.215118 8236.0
325.382721 84.0
325.413849 60.0
325.737061 60.0
325.77298 64.0
325.85202 80.0
325.884094 56.0
325.970581 92.0
326.049652 44.0
326.113861 88.0
326.121338 76.0
326.217865 2632.0
326.932129 104.0
327.061493 72.0
327.223267 312.0
327.333923 52.0
327.438354 56.0
327.690521 48.0
327.776978 52.0
327.813019 108.0
327.971588 92.0
328.205933 108.0
328.238373 76.0
328.382629 72.0
328.451172 88.0
328.62793 72.0
328.804749 76.0
328.938293 76.0
329.8703 96.0
330.78186 68.0
331.187408 68.0
331.470001 168.0
332.115326 100.0
333.160767 44.0
333.244324 60.0
335.346161 96.0
335.35498 56.0
335.367432 96.0
335.4534 96.0
335.825317 100.0
336.259491 112.0
336.558838 44.0
337.560059 76.0
338.489502 92.0
339.621948 36.0
339.739349 44.0
340.029205 116.0
340.106293 72.0
340.165039 76.0
340.333893 84.0
340.469788 88.0
341.124023 132.0
341.193634 112.0
341.542999 108.0
341.690125 40.0
341.88147 56.0
342.308502 60.0
342.927429 48.0
343.214203 136.0
343.24173 160.0
343.303467 48.0
344.019257 40.0
344.262939 36.0
344.42981 68.0
345.612183 104.0
345.697296 36.0
346.104462 80.0
347.153137 136.0
347.980591 92.0
348.181122 204.0
352.319427 92.0
353.804138 56.0
354.133667 64.0
354.834412 108.0
355.851166 56.0
356.226715 64.0
356.910736 68.0
358.028351 96.0
359.400482 104.0
359.513702 28.0
359.581635 80.0
359.759033 68.0
363.005371 112.0
363.593384 68.0
364.033752 100.0
364.121094 52.0
364.193268 216.0
364.998932 92.0
366.060608 76.0
366.235809 80.0
366.586304 68.0
366.971283 68.0
367.222961 192.0
368.467407 76.0
370.585083 112.0
370.617676 60.0
370.763275 84.0
372.317017 120.0
372.509064 72.0
373.158539 60.0
373.550812 64.0
373.693176 56.0
373.843231 92.0
374.813629 64.0
375.456635 100.0
376.823883 72.0
378.33606 152.0
379.261871 64.0
379.30838 80.0
379.641815 108.0
380.371246 56.0
381.124664 48.0
381.186829 80.0
381.602753 100.0
384.262878 144.0
384.481384 88.0
385.233429 304.0
385.277954 52.0
386.237305 356.0
386.329559 140.0
387.202423 124.0
388.119415 48.0
388.319427 40.0
389.119934 80.0
389.245575 128.0
389.441956 96.0
389.469452 212.0
391.239014 116.0
393.332245 100.0
394.339447 48.0
395.613129 60.0
397.432281 92.0
397.65451 104.0
397.864899 76.0
399.001129 68.0
399.24765 76.0
400.716461 48.0
404.130188 36.0
404.990906 96.0
405.367493 80.0
406.41806 76.0
408.961914 92.0
409.755219 108.0
410.86795 88.0
411.323944 84.0
412.790558 56.0
413.207153 68.0
413.490417 60.0
414.292145 72.0
414.583893 76.0
414.616302 124.0
414.705475 36.0
415.71936 104.0
416.125275 96.0
416.26944 120.0
416.580139 96.0
417.815979 140.0
418.764435 124.0
421.881927 140.0
423.330353 64.0
423.559723 88.0
425.988129 92.0
426.600433 108.0
430.370148 72.0
431.287292 44.0
432.304688 60.0
434.318207 84.0
434.59201 76.0
434.741394 144.0
438.363495 128.0
438.70108 64.0
440.537262 40.0
442.900696 100.0
445.341858 92.0
445.648529 64.0
446.287384 88.0
447.023499 52.0
447.671234 60.0
449.235504 56.0
449.952942 76.0
451.795563 108.0
453.542542 68.0
454.59201 40.0
455.377411 44.0
455.449615 116.0
456.746063 52.0
456.856659 48.0
457.341766 32.0
458.559906 92.0
458.683502 44.0
459.818085 64.0
463.335388 76.0
463.881531 96.0
465.413147 36.0
465.460388 56.0
466.702179 92.0
466.917206 80.0
468.475342 92.0
469.035553 136.0
469.164856 60.0
471.201904 60.0
475.783997 52.0
477.978912 80.0
478.013733 116.0
479.429016 96.0
480.885681 80.0
482.427612 76.0
483.94574 64.0
484.563324 32.0
486.853027 84.0
487.88559 72.0
490.976624 132.0
494.816528 56.0
495.755554 48.0
495.994904 60.0
496.02594 52.0
497.512024 136.0
499.000336 72.0
499.396088 40.0
500.989685 80.0
501.150085 124.0
501.408539 92.0
503.384827 80.0
505.042877 100.0
506.605133 48.0
507.299744 144.0
509.440308 72.0
513.031494 60.0
513.915466 124.0
517.228027 100.0
518.124695 32.0
518.353394 116.0
519.303284 88.0
519.94751 124.0
522.08728 76.0
522.628601 88.0
525.211731 76.0
527.293701 48.0
528.391174 68.0
529.022705 52.0
529.874573 72.0
531.158142 48.0
531.56189 52.0
531.94281 88.0
533.403564 48.0
538.18103 96.0
539.072571 116.0
541.158691 80.0
542.604248 76.0
542.956665 104.0
545.710327 56.0
546.459106 80.0
547.78125 72.0
548.713318 100.0
549.608826 68.0
549.949524 68.0
552.014465 44.0
552.514954 88.0
554.565979 168.0
557.927002 136.0
558.463074 104.0
562.496521 44.0
564.301147 48.0
568.469482 36.0
571.867493 76.0
573.305786 96.0
573.401123 112.0
575.500061 68.0
577.291992 52.0
579.88678 60.0
586.683716 116.0
586.871704 68.0
586.924744 84.0
589.555603 80.0
589.642578 128.0
590.880493 84.0
594.262268 40.0
595.058289 60.0
595.092285 32.0
597.974915 60.0
598.052795 64.0
602.939819 72.0
606.586304 88.0
608.794189 116.0
615.599915 96.0
616.770813 48.0
618.75946 72.0
619.740112 48.0
624.908813 72.0
625.411438 100.0
625.889404 108.0
627.902649 52.0
631.248596 60.0
632.154053 52.0
640.548767 68.0
641.052551 96.0
641.329773 64.0
644.21106 48.0
644.322205 36.0
650.744202 64.0
654.211487 76.0
656.453369 44.0
656.840942 120.0
658.790955 44.0
659.552368 80.0
661.787964 40.0
661.977417 56.0
670.149841 116.0
671.278687 68.0
671.51593 88.0
673.353271 92.0
675.053528 36.0
676.212402 52.0
678.279053 200.0
680.130798 104.0
685.544983 116.0
691.132324 56.0
692.71344 64.0
694.186218 116.0
696.243408 72.0
698.203674 128.0
703.509644 72.0
704.079895 84.0
705.162964 88.0
706.215149 32.0
706.807678 80.0
707.051086 116.0
709.0 60.0
709.980774 76.0
715.970154 56.0
723.011902 84.0
726.43573 36.0
727.063477 80.0
757.471497 84.0
759.483215 92.0
764.427795 96.0
766.718689 72.0
766.812378 84.0
768.306702 148.0
770.172546 68.0
775.628357 124.0
776.044189 64.0
788.927246 72.0
792.604431 100.0
795.784729 188.0
800.992371 120.0
803.303528 100.0
807.172363 76.0
808.201843 112.0
810.466736 164.0
810.631042 84.0
812.621277 220.0
816.154175 92.0
816.774048 96.0
819.199036 60.0
824.779785 132.0
825.402954 112.0
825.637451 184.0
829.278687 36.0
829.324524 84.0
831.532715 84.0
832.032104 176.0
833.140503 120.0
833.502502 112.0
835.986694 140.0
836.297485 52.0
844.988098 168.0
847.332886 40.0
849.251709 80.0
850.5224 184.0
852.229797 132.0
852.950439 92.0
853.531799 128.0
854.16571 124.0
859.134766 76.0
860.290283 156.0
869.138123 60.0
876.542725 144.0
878.19342 96.0
882.516174 52.0
885.332886 68.0
887.780396 160.0
889.103333 76.0
889.364502 128.0
889.453552 216.0
892.602356 192.0
892.729309 208.0
895.554138 172.0
900.008972 56.0
900.182129 44.0
900.755493 52.0
900.934692 60.0
902.309265 152.0
903.774597 156.0
905.570557 48.0
909.125793 124.0
909.263794 80.0
913.066772 112.0
913.740479 140.0
917.848267 40.0
919.646057 200.0
921.687256 64.0
925.189209 32.0
929.146667 200.0
929.261902 144.0
931.696472 84.0
933.343567 104.0
935.929626 112.0
941.607056 124.0
942.877808 64.0
946.572815 164.0
946.695251 68.0
958.68689 148.0
960.209656 248.0
961.924927 100.0
962.573242 60.0
965.991028 208.0
969.57605 84.0
970.86554 124.0
971.305908 64.0
972.118713 160.0
972.261414 60.0
973.993652 124.0
975.870483 44.0
975.914001 100.0
976.125427 96.0
979.062683 120.0
981.505493 168.0
982.297546 64.0
986.60022 172.0
986.712769 52.0
987.531921 68.0
989.966492 72.0
990.141846 132.0
991.676819 160.0
993.959595 116.0
995.510071 144.0
999.029846 144.0
999.923401 108.0
1001.132141 208.0
1002.076965 224.0
1004.02478 40.0
1004.428467 208.0
1005.456909 84.0
1006.315369 152.0
1006.662659 52.0
1006.713196 84.0
1009.550659 212.0
1010.284363 156.0
1010.372925 188.0
1011.094299 60.0
1011.144897 72.0
1013.031799 280.0
1015.516602 80.0
1017.052063 120.0
1018.652222 128.0
1018.874573 152.0
1020.171021 92.0
1021.334717 136.0
1021.811829 152.0
1022.950989 152.0
1024.014282 164.0
1026.397705 168.0
1027.507568 148.0
1027.564941 144.0
1029.914185 252.0
1030.930054 80.0
1031.575562 44.0
1031.667847 188.0
1031.920776 68.0
1032.272461 116.0
1032.841675 48.0
1032.918457 60.0
1034.268555 120.0
1034.876831 192.0
1035.094482 52.0
1036.234619 104.0
1038.048584 212.0
1039.068481 192.0
1042.034546 60.0
1042.934326 140.0
1045.680664 116.0
1050.706909 168.0
1051.752319 208.0
1051.887817 56.0
1054.342285 196.0
1055.467773 192.0
1056.469604 128.0
1056.695923 112.0
1058.611938 168.0
1059.078247 232.0
1059.648315 272.0
1060.095459 168.0
1061.002808 128.0
1063.247192 168.0
1064.026123 192.0
1064.928711 164.0
1066.650635 160.0
1068.130249 80.0
1068.35437 144.0
1070.007446 60.0
1070.391602 176.0
1070.547852 160.0
1070.717163 72.0
1071.524902 104.0
1073.199951 68.0
1075.448853 184.0
1076.501709 100.0
1076.619263 88.0
1077.481567 124.0
1077.67749 124.0
1078.880127 224.0
1079.710449 124.0
1079.762817 180.0
1079.985229 32.0
1081.450806 176.0
1082.269165 92.0
1082.865112 100.0
1083.323608 132.0
1084.811157 176.0
1085.060303 176.0
1085.26355 180.0
1085.571777 176.0
1085.630737 88.0
1085.952148 156.0
1087.901001 148.0
1089.12561 132.0
1090.477905 212.0
1090.988525 136.0
1093.099854 120.0
1093.185425 168.0
1094.640259 160.0
1096.794556 84.0
1097.137451 116.0
1097.203369 156.0
1097.249512 92.0
1098.258423 128.0
1099.650635 276.0
1100.971069 176.0
1102.027954 116.0
1102.516968 148.0
1104.98999 148.0
1105.70459 116.0
1106.783691 212.0
1107.353149 124.0
1108.095093 136.0
1108.227051 164.0
1108.684814 180.0
1108.890259 156.0
1109.287964 156.0
1110.2229 176.0
1110.554443 104.0
1111.64917 236.0
1112.658081 188.0
1112.870483 204.0
1114.311768 176.0
1115.840454 148.0
1116.55188 120.0
1117.044067 184.0
1117.303589 152.0
1118.488037 160.0
1118.727783 176.0
1119.839722 104.0
1121.238892 84.0
1123.492676 84.0
1123.966309 100.0
1124.09314 164.0
1124.920776 64.0
1125.134399 412.0
1126.363159 176.0
1126.937622 220.0
1127.659302 224.0
1128.488281 92.0
1129.377686 160.0
1129.645264 100.0
1129.959717 188.0
1131.278076 116.0
1131.539185 176.0
1131.58606 152.0
1133.515137 164.0
1134.963013 48.0
1136.478882 164.0
1137.358032 180.0
1138.056274 176.0
1138.579956 172.0
1140.071411 148.0
1140.1521 92.0
1140.515015 36.0
1141.799194 172.0
1141.90686 224.0
1143.460938 164.0
1144.046631 96.0
1144.585205 152.0
1145.063354 216.0
1146.740967 216.0
1146.794922 128.0
1147.125244 100.0
1147.273438 136.0
1147.947754 132.0
1149.856934 172.0
1150.268677 80.0
1150.916748 244.0
1151.220703 208.0
1151.639404 184.0
1152.17981 148.0
1154.28186 160.0
1157.143921 140.0
1157.265869 188.0
1158.125854 56.0
1158.898193 48.0
1159.169189 148.0
1161.847412 204.0
1162.315552 48.0
1162.7771 160.0
1163.096069 160.0
1163.971802 240.0
1164.10083 132.0
1164.223145 156.0
1164.875122 80.0
1164.983887 200.0
1165.269165 92.0
1165.642944 120.0
1166.220581 60.0
1167.838745 256.0
1168.015625 184.0
1168.988525 168.0
1170.322754 168.0
1171.276123 140.0
1171.773438 60.0
1172.584351 144.0
1172.925171 160.0
1172.9729 236.0
1173.075195 140.0
1173.466919 160.0
1174.30249 176.0
1176.424561 36.0
1176.800171 96.0
1177.175659 204.0
1178.049927 104.0
1179.122681 152.0
1179.218384 32.0
1179.785767 164.0
1180.483154 172.0
1183.535034 224.0
1185.213135 156.0
1185.617432 224.0
1186.158936 160.0
1186.261719 208.0
1187.935059 176.0
1188.737793 148.0
1189.849731 176.0
1190.172363 48.0
1191.120117 40.0
1191.362305 148.0
1191.656006 56.0
1192.0271 252.0
1193.133667 168.0
1194.39209 136.0
1194.460938 160.0
1197.12439 140.0
1197.696045 196.0
1198.336792 136.0
1199.26709 68.0
1199.33606 192.0
1199.763428 168.0
1200.866699 112.0
1202.246582 180.0
1202.467407 108.0
1202.584717 76.0
1202.943604 120.0
1203.42688 32.0
1203.723877 116.0
1204.013916 124.0
1204.428223 132.0
1205.259644 180.0
1205.582031 184.0
1206.021973 156.0
1206.342407 184.0
1206.881592 152.0
1208.119629 80.0
1208.230347 160.0
1208.998413 124.0
1209.517456 180.0
1211.213989 56.0
1211.317871 224.0
1211.610718 204.0
1212.079956 180.0
1212.364136 152.0
1213.022583 140.0
1213.771362 148.0
1215.186279 152.0
1215.484619 136.0
1216.872803 128.0
1217.213013 92.0
1218.817627 236.0
1219.457031 160.0
1222.357056 156.0
1224.0625 68.0
1225.169922 124.0
1226.25 164.0
1226.870361 128.0
1227.776855 232.0
1227.846558 172.0
1227.972046 44.0
1229.367432 168.0
1230.156128 224.0
1230.204956 60.0
1232.104492 112.0
1233.285522 160.0
1233.439209 92.0
1234.809692 120.0
1235.012573 204.0
1235.425293 172.0
1236.98584 152.0
1237.405884 160.0
1237.601929 52.0
1238.027588 172.0
1238.337158 52.0
1238.687378 116.0
1239.08667 232.0
1239.549194 132.0
1240.502319 208.0
1242.297607 140.0
1242.367676 208.0
1243.020264 172.0
1244.536377 176.0
1245.020996 164.0
1245.070068 196.0
1245.884888 100.0
1246.088623 180.0
1246.629639 136.0
1248.527832 124.0
1249.65332 188.0
1249.976929 92.0
1250.147827 180.0
1252.779175 120.0
1252.96228 212.0
1253.201904 152.0
1253.455566 128.0
1253.540161 184.0
1253.934814 80.0
1254.054565 160.0
1254.61853 112.0
1256.903687 104.0
1257.454102 248.0
1258.456543 184.0
1258.739014 164.0
1259.014404 180.0
1259.756104 172.0
1259.862061 184.0
1259.918579 84.0
1260.752319 72.0
1262.533813 68.0
1262.901611 112.0
1264.620972 164.0
1267.411133 72.0
1269.055542 136.0
1269.25415 56.0
1269.360474 64.0
1269.587402 172.0
1269.956177 44.0
1270.445679 52.0
1270.835815 132.0
1271.176514 184.0
1272.258911 140.0
1274.762573 100.0
1275.267212 228.0
1275.345337 144.0
1279.834351 124.0
1280.667603 108.0
1281.85022 160.0
1283.282959 76.0
1283.60376 88.0
1283.834839 176.0
1284.42395 124.0
1284.78064 172.0
1285.144531 136.0
1285.565552 172.0
1286.750366 92.0
1288.47876 208.0
1290.744507 52.0
1291.216431 144.0
1291.338135 52.0
1293.43457 192.0
1294.938232 136.0
1295.446777 136.0
1297.309937 144.0
1297.517822 144.0
1298.299438 180.0
1298.442871 92.0
1298.722534 140.0
1299.088379 152.0
1299.160156 28.0
1300.207764 244.0
1300.537964 176.0
1300.789185 68.0
1300.857056 140.0
1301.736816 108.0
1302.411987 148.0
1302.534058 184.0
1302.929199 144.0
1303.669312 196.0
1303.769897 144.0
1304.855347 252.0
1304.939819 272.0
1306.11377 164.0
1307.991821 144.0
1308.135864 156.0
1308.596558 148.0
1308.992554 156.0
1309.151001 160.0
1309.352661 136.0
1310.368286 144.0
1310.685425 164.0
1311.391602 204.0
1312.797485 140.0
1313.518677 52.0
1313.778442 164.0
1313.937134 160.0
1314.117554 184.0
1314.261841 184.0
1315.676392 164.0
1315.986816 48.0
1316.217896 232.0
1316.362305 208.0
1316.420166 172.0
1316.752319 76.0
1317.75647 188.0
1318.226074 168.0
1318.341675 184.0
1318.847656 224.0
1320.582886 156.0
1321.147095 180.0
1322.48584 152.0
1322.883911 100.0
1323.325562 112.0
1323.427002 120.0
1323.854126 160.0
1325.129028 128.0
1326.969971 220.0
1327.049683 176.0
1327.144043 164.0
1327.397827 212.0
1327.666138 220.0
1327.782104 32.0
1328.144775 76.0
1330.873535 208.0
1332.49585 120.0
1332.55835 120.0
1333.227051 48.0
1333.575928 200.0
1333.764893 124.0
1334.171997 204.0
1334.702759 164.0
1334.942749 180.0
1335.306396 84.0
1335.517212 140.0
1336.273804 88.0
1338.066162 168.0
1338.799683 208.0
1339.396851 88.0
1340.13269 140.0
1340.39502 228.0
1340.752075 192.0
1341.233154 100.0
1341.480957 76.0
1341.809082 132.0
1341.954834 80.0
1342.363159 132.0
1342.91748 96.0
1343.605103 164.0
1344.916626 204.0
1345.31958 140.0
1345.836548 152.0
1346.077515 72.0
1347.472534 212.0
1350.637939 172.0
1350.989136 44.0
1351.67688 160.0
1352.21106 172.0
1354.686035 96.0
1355.352661 140.0
1355.462646 128.0
1356.144165 108.0
1356.356812 132.0
1356.891846 140.0
1357.009155 176.0
1357.08252 152.0
1357.405151 140.0
1358.329224 40.0
1358.500488 216.0
1358.703369 128.0
1358.769409 160.0
1359.488525 184.0
1360.046265 168.0
1360.237183 168.0
1360.494141 76.0
1360.78772 192.0
1361.338501 144.0
1361.771729 116.0
1362.446655 92.0
1362.71936 192.0
1363.123535 204.0
1363.277832 208.0
1364.306885 136.0
1365.276001 196.0
1365.887939 112.0
1366.550049 116.0
1368.080811 164.0
1369.222168 164.0
1369.988159 120.0
1370.07666 112.0
1370.319702 64.0
1370.511353 100.0
1370.57019 168.0
1371.484131 156.0
1371.896851 152.0
1372.745239 124.0
1373.0177 144.0
1373.187256 48.0
1373.873291 208.0
1373.961792 176.0
1374.242188 108.0
1374.456177 172.0
1376.153809 152.0
1376.360596 132.0
1377.010376 144.0
1378.088989 124.0
1378.835327 48.0
1379.047241 136.0
1379.463623 128.0
1381.186523 172.0
1381.282715 144.0
1381.859741 152.0
1382.392456 176.0
1382.895752 108.0
1383.384277 184.0
1383.443481 140.0
1384.250488 148.0
1384.591187 156.0
1384.857788 160.0
1385.168945 152.0
1385.339355 92.0
1385.849243 192.0
1386.330078 144.0
1387.421753 200.0
1387.540405 196.0
1388.38562 64.0
1388.496948 160.0
1388.578491 124.0
1388.689697 220.0
1389.950928 148.0
1390.27002 160.0
1391.220093 204.0
1391.286865 108.0
1392.675293 132.0
1393.069214 112.0
1393.418335 128.0
1394.324951 160.0
1394.770874 152.0
1394.882446 136.0
1395.402832 128.0
1395.529175 80.0
1395.804321 312.0
1396.376953 332.0
1396.830688 116.0
1397.693726 148.0
1398.13269 212.0
1398.475098 172.0
1399.621582 136.0
1399.807739 48.0
1400.328979 164.0
1400.440674 108.0
1401.640137 140.0
1402.012817 192.0
1402.773071 56.0
1403.701172 232.0
1403.816895 132.0
1404.033081 204.0
1404.264282 64.0
1404.607422 184.0
1404.82373 100.0
1405.4729 280.0
1405.62207 148.0
1406.267578 120.0
1406.502686 124.0
1407.174561 168.0
1407.234375 176.0
1407.518066 176.0
1407.951172 144.0
1408.2948 88.0
1408.571167 240.0
1409.572266 176.0
1409.759155 64.0
1409.960815 192.0
1410.013184 140.0
1411.014893 164.0
1411.605591 188.0
1412.405762 176.0
1412.532959 168.0
1412.7948 184.0
1413.602905 152.0
1413.685181 144.0
1414.415527 212.0
1414.942627 120.0
1415.234619 216.0
1415.863647 156.0
1415.998535 136.0
1416.103394 64.0
1416.290649 188.0
1416.492798 84.0
1416.657593 132.0
1418.26123 76.0
1418.343628 144.0
1418.538574 120.0
1418.898438 168.0
1419.37085 44.0
1419.490723 180.0
1419.766968 188.0
1420.270752 152.0
1420.450806 168.0
1420.728394 152.0
1420.998413 136.0
1421.088501 136.0
1421.403564 164.0
1421.861328 136.0
1421.921387 200.0
1422.671997 108.0
1423.993652 160.0
1424.474365 140.0
1426.007202 204.0
1427.14978 124.0
1427.217529 144.0
1427.706299 88.0
1428.044678 176.0
1428.405762 180.0
1428.488525 72.0
1428.744263 156.0
1428.887207 156.0
1428.984985 140.0
1430.08374 148.0
1430.143799 160.0
1430.249268 128.0
1430.972046 212.0
1431.283447 192.0
1431.649658 160.0
1431.77771 216.0
1432.289917 184.0
1432.624878 120.0
1432.756958 88.0
1433.36731 132.0
1434.134644 200.0
1434.286743 104.0
1434.377197 184.0
1434.460083 60.0
1434.625977 132.0
1434.731445 160.0
1434.904907 164.0
1435.477905 204.0
1435.691895 196.0
1436.277344 156.0
1436.594238 96.0
1437.295898 184.0
1437.650513 196.0
1437.748657 140.0
1437.884521 140.0
1438.058105 204.0
1438.322266 144.0
1438.412842 148.0
1438.835571 120.0
1439.213135 184.0
1439.628418 100.0
1439.734131 84.0
1439.877686 64.0
1439.990967 168.0
1440.625244 160.0
1440.988037 228.0
1441.10144 108.0
1441.214722 160.0
1441.350708 192.0
1441.55481 168.0
1441.683228 88.0
1441.970459 124.0
1442.370972 208.0
1442.537354 132.0
1442.854858 116.0
1442.968262 144.0
1443.402466 220.0
1443.603394 108.0
1444.291626 36.0
1444.69812 264.0
1445.101074 144.0
1445.842651 176.0
1446.463257 136.0
1446.607178 208.0
1447.265869 156.0
1447.386963 144.0
1447.848877 176.0
1448.598755 184.0
1448.901733 160.0
1449.174561 196.0
1449.735229 204.0
1449.901978 136.0
1450.008057 104.0
1450.068726 172.0
1450.273315 140.0
1450.371948 48.0
1450.462891 120.0
1450.750977 184.0
1450.840088 204.0
1450.853516 156.0
1450.963257 68.0
1451.084473 40.0
1451.312012 120.0
1451.53186 140.0
1451.918579 172.0
1452.093018 200.0
1452.267334 200.0
1453.010864 108.0
1454.938599 144.0
1455.090454 212.0
1455.409302 36.0
1455.462524 156.0
1455.553589 164.0
1455.606812 104.0
1456.351074 128.0
1456.404175 168.0
1457.323364 132.0
1457.551392 176.0
1457.650146 180.0
1457.976929 220.0
1458.106079 184.0
1458.204956 36.0
1458.698975 240.0
1458.942261 216.0
1458.995483 40.0
1459.626587 164.0
1459.717773 196.0
1459.923096 128.0
1460.379395 132.0
1460.478271 48.0
1460.56958 152.0
1460.683716 160.0
1460.919556 128.0
1461.170532 140.0
1461.826416 284.0
1462.357666 216.0
1463.629028 128.0
1463.842163 60.0
1464.146851 136.0
1464.253418 152.0
1464.398193 144.0
1464.641846 200.0
1464.763794 160.0
1465.258911 184.0
1465.66272 168.0
1466.018066 136.0
1466.089478 152.0
1466.257202 104.0
1466.341064 188.0
1467.019409 152.0
1467.194702 152.0
1467.255737 44.0
1467.400635 92.0
1468.803833 212.0
1469.238647 156.0
1469.650635 144.0
1469.848999 164.0
1471.406006 136.0
1471.612183 172.0
1473.529297 176.0
1473.918945 220.0
1474.04126 52.0
1474.117676 40.0
1474.354492 112.0
1475.48584 160.0
1475.692261 188.0
1476.212158 52.0
1476.778076 196.0
1476.96936 152.0
1477.137695 132.0
1477.795532 168.0
1478.798096 156.0
1479.276489 280.0
1479.44104 188.0
1480.436401 144.0
1480.989868 188.0
1481.339233 232.0
1481.746216 152.0
1482.489502 116.0
1482.596802 156.0
1482.964722 148.0
1483.317261 156.0
1483.593262 168.0
1483.654541 36.0
1483.738892 76.0
1483.792603 100.0
1484.137573 68.0
1484.237305 152.0
1484.84314 64.0
1484.981079 172.0
1485.748169 204.0
1485.824951 172.0
1486.108765 160.0
1486.239258 120.0
1486.30835 160.0
1486.469482 252.0
1486.684326 104.0
1486.82251 100.0
1486.90686 164.0
1487.052734 132.0
1487.375122 128.0
1487.546387 200.0
1487.737671 104.0
1487.996948 128.0
1488.250244 200.0
1488.385986 188.0
1488.979858 144.0
1489.04126 192.0
1489.302368 76.0
1489.479004 144.0
1489.63855 220.0
1490.078247 164.0
1490.178345 144.0
1490.708374 192.0
1490.838989 116.0
1490.992676 144.0
1491.146362 204.0
1491.269409 104.0
1491.567261 116.0
1491.961182 188.0
1492.545532 104.0
1493.568359 212.0
1493.737549 100.0
1493.968384 192.0
1494.07251 148.0
1494.360718 68.0
1495.253418 204.0
1495.314453 132.0
1495.892212 140.0
1496.177124 132.0
1496.631348 72.0
1496.700684 124.0
1497.085693 176.0
1498.233276 128.0
1498.587769 168.0
1499.119385 204.0
1499.342896 136.0
1499.531006 136.0
1499.578857 148.0
1499.643433 60.0
1499.913208 228.0
1500.098267 136.0
1500.159912 160.0
1500.576294 200.0
1500.946289 164.0
1501.089722 200.0
1501.285645 164.0
1501.373413 192.0
1502.380981 156.0
1502.897827 148.0
1503.052124 132.0
1503.391724 60.0
1503.445679 152.0
1503.661865 124.0
1503.978271 180.0
1504.379883 156.0
1504.812012 164.0
1505.057495 196.0
