>compound MLS001401425-01!Indinavir Sulfate157810-81-6
>formula C36H47N5O4
>ionization [M+H]+
>parentmass 614.370972
#inchi InChI=1S/C36H47N5O4/c1-36(2,3)39-35(45)31-24-40(22-26-12-9-15-37-21-26)16-17-41(31)23-29(42)19-28(18-25-10-5-4-6-11-25)34(44)38-33-30-14-8-7-13-27(30)20-32(33)43/h4-15,21,28-29,31-33,42-43H,16-20,22-24H2,1-3H3,(H,38,44)(H,39,45)/t28-,29+,31+,32-,33+/m1/s1
#inchikey CBVCZFGXHXORBI
#origInchi InChI=1S/C36H47N5O4.H2O4S/c1-36(2,3)39-35(45)31-24-40(22-26-12-9-15-37-21-26)16-17-41(31)23-29(42)19-28(18-25-10-5-4-6-11-25)34(44)38-33-30-14-8-7-13-27(30)20-32(33)43;1-5(2,3)4/h4-15,21,28-29,31-33,42-43H,16-20,22-24H2,1-3H3,(H,38,44)(H,39,45);(H2,1,2,3,4)/t28-,29+,31+,32-,33+;/m1./s1
#Ion_Source LC-ESI
#Instrument qTof
#Compound_Source NIH Pharmacologically Active Library
#PI Dorrestein
#Data_Collector VP/LMS
#Scan -1
#Precursor_MZ 614.381
#ExactMass 613.363
#Charge 1
#CAS_Number N/A
#Pubmed_ID N/A
#Smiles CC(C)(C)NC(=O)[C@@H]1CN(Cc2cccnc2)CCN1C[C@@H](O)C[C@@H](Cc3ccccc3)C(=O)N[C@@H]4[C@H](O)Cc5ccccc45.OS(=O)(=O)O
#INCHI_AUX N/A
#Library_Class 1
#SpectrumID CCMSLIB00000086079
#IonMode Positive
#UpdateWorkflowName UPDATE-SINGLE-ANNOTATED-GOLD
#LibraryQualityString Gold
#TaskID d252d724072548979f1f6f1ced849daf
##Scan# 1549
#SpectrumFile p5-D04_GD4_01_18455.mzXML
#LibraryName Pharm_Active_Library.mgf
#MQScore -1
#Organism Pharm_Active_Library
#TIC_Query 0
#RT_Query -1
#MZErrorPPM -1
#SharedPeaks 0
#MassDiff 0
#LibMZ -1
#SpecMZ 614.381
#SpecCharge 0
#internalFilename spec-00000.mgf

>collision 10
45.072876 172.0
45.543098 140.0
45.563251 188.0
45.608936 156.0
45.930748 72.0
45.97662 68.0
46.057625 188.0
46.083294 188.0
46.152225 160.0
46.256393 96.0
46.432533 132.0
46.518383 176.0
46.754509 208.0
46.796703 148.0
46.819855 176.0
47.042095 28.0
47.558136 172.0
47.705109 164.0
47.787624 68.0
47.837166 124.0
47.884693 116.0
47.933575 188.0
48.260704 128.0
48.298042 136.0
48.387989 180.0
48.665279 128.0
48.699993 216.0
49.232006 116.0
49.297661 200.0
49.459896 136.0
49.507496 144.0
49.59576 248.0
49.703743 184.0
49.78516 184.0
49.866642 216.0
50.014324 132.0
50.160816 108.0
50.197472 240.0
50.392254 116.0
50.404972 180.0
50.600155 156.0
50.980289 208.0
51.089767 228.0
51.368977 136.0
51.434616 152.0
51.457455 200.0
51.526009 156.0
51.746601 148.0
51.989929 144.0
52.0574 72.0
52.178093 160.0
52.25 48.0
52.850189 136.0
52.866108 216.0
52.968903 208.0
53.315662 120.0
53.453808 160.0
53.571739 156.0
53.936539 96.0
54.07988 252.0
54.136978 28.0
54.163338 200.0
54.271786 180.0
54.324581 40.0
54.453747 128.0
54.643372 160.0
54.762604 128.0
54.876072 240.0
55.019176 184.0
55.197952 184.0
55.372574 136.0
55.721161 116.0
55.880238 112.0
55.908512 156.0
55.932323 104.0
55.963585 148.0
56.167751 156.0
56.203556 116.0
56.219967 56.0
56.370792 144.0
56.385735 140.0
56.792973 64.0
57.00766 184.0
57.084324 164.0
57.237808 172.0
57.941635 180.0
58.047733 184.0
58.135715 60.0
58.419838 172.0
58.68483 244.0
58.736679 188.0
59.008503 160.0
59.043671 36.0
59.395939 192.0
59.52639 132.0
59.618557 112.0
59.676968 220.0
60.097443 104.0
60.288918 168.0
60.403328 76.0
60.530235 212.0
60.71619 144.0
60.908646 196.0
60.921074 132.0
60.999054 132.0
61.227486 196.0
61.358372 80.0
61.451946 68.0
61.623688 140.0
61.700268 112.0
62.350761 48.0
62.602467 156.0
62.777382 116.0
62.984131 116.0
63.059971 180.0
63.387554 88.0
63.739819 144.0
63.804985 160.0
64.108994 176.0
64.131302 108.0
64.618347 176.0
64.682358 164.0
64.709572 112.0
64.864967 244.0
65.036591 180.0
65.41272 204.0
65.514168 160.0
65.756035 120.0
66.066269 148.0
66.202225 120.0
66.213562 148.0
66.688927 172.0
66.768593 128.0
67.051865 64.0
67.090988 120.0
67.108917 216.0
67.479538 148.0
67.706985 152.0
67.934814 184.0
68.103882 184.0
68.327438 88.0
68.721199 184.0
69.101196 148.0
69.716362 132.0
69.854362 128.0
69.882645 172.0
69.899284 160.0
70.462837 120.0
70.768898 224.0
71.334267 136.0
71.398155 164.0
71.92382 172.0
72.207664 136.0
72.229652 204.0
72.385353 152.0
72.573433 56.0
73.04895 124.0
73.103394 120.0
73.433891 148.0
73.609673 148.0
73.775398 144.0
73.831818 136.0
73.978966 168.0
74.054306 192.0
74.728935 164.0
75.391068 188.0
75.520729 112.0
75.711105 192.0
75.846245 164.0
76.096046 176.0
76.179405 124.0
76.290627 128.0
76.33757 156.0
76.776405 112.0
77.692932 124.0
77.904488 220.0
78.304626 188.0
78.394478 100.0
78.535515 148.0
78.667854 156.0
78.812668 156.0
78.987686 152.0
79.097397 200.0
79.200096 108.0
79.332993 92.0
79.7519 148.0
79.821236 216.0
79.894157 176.0
80.01339 188.0
80.036537 172.0
80.310982 120.0
80.341301 176.0
80.451942 164.0
80.526939 144.0
81.00988 168.0
81.307518 200.0
81.772995 68.0
81.969284 152.0
82.389671 120.0
82.925278 196.0
82.963341 120.0
83.351738 148.0
83.628159 180.0
83.70462 88.0
83.746346 184.0
83.863113 148.0
84.023582 140.0
84.065544 152.0
84.26091 148.0
84.440048 76.0
85.642212 228.0
85.686424 40.0
86.249252 104.0
86.456398 224.0
86.541542 164.0
86.554504 148.0
86.663788 140.0
86.960487 52.0
87.198219 168.0
87.51445 164.0
87.650421 236.0
87.801414 164.0
87.948807 156.0
87.971207 112.0
88.552711 76.0
88.815109 168.0
88.886406 128.0
88.976494 128.0
89.222595 200.0
89.273361 48.0
89.395638 172.0
89.527412 92.0
90.027145 68.0
90.187737 128.0
90.282265 192.0
90.331436 172.0
90.409012 140.0
90.85997 156.0
91.188469 156.0
91.445221 100.0
91.54612 148.0
91.628021 208.0
91.694717 236.0
92.056839 248.0
92.259705 112.0
92.31324 124.0
92.328545 164.0
92.399315 236.0
92.456718 120.0
93.039406 196.0
93.057205 220.0
93.154625 168.0
93.710602 108.0
93.745285 180.0
93.797325 152.0
93.909157 368.0
94.061111 300.0
94.564125 92.0
94.600899 120.0
95.061493 368.0
95.106865 160.0
95.182526 184.0
95.211655 156.0
95.252441 180.0
95.320442 180.0
95.456512 144.0
95.567383 144.0
95.728935 204.0
96.066116 192.0
96.36676 164.0
96.583755 112.0
96.750084 148.0
96.799034 176.0
96.834282 140.0
96.883247 156.0
97.010628 140.0
97.03611 180.0
97.076591 10396.0
97.114777 104.0
97.211494 140.0
97.287224 100.0
97.302933 68.0
97.422722 76.0
97.517044 56.0
97.536697 128.0
97.593704 104.0
97.646797 160.0
97.670403 52.0
97.902641 184.0
97.938087 96.0
98.083199 1756.0
98.194313 136.0
98.216003 48.0
98.283081 64.0
98.431122 132.0
98.478516 132.0
98.620773 136.0
98.767082 140.0
98.784889 48.0
98.798737 100.0
98.854134 152.0
98.986763 44.0
99.084793 372.0
99.468521 144.0
99.541985 128.0
99.909676 148.0
99.993248 112.0
100.291 168.0
100.41362 184.0
100.437553 132.0
100.722984 48.0
101.066628 192.0
101.228973 108.0
101.541595 124.0
101.734222 60.0
102.071754 160.0
102.154213 148.0
102.413872 204.0
102.486389 188.0
103.055367 124.0
103.784241 252.0
104.686203 228.0
105.018394 176.0
105.071739 184.0
105.177544 100.0
105.259209 164.0
105.637306 104.0
105.66185 168.0
105.865608 212.0
105.997635 168.0
106.066528 216.0
106.350372 136.0
107.069954 124.0
107.257439 152.0
107.389404 108.0
107.67215 140.0
107.787827 160.0
107.918045 116.0
108.044205 184.0
108.066963 120.0
108.802704 188.0
109.077332 344.0
109.124718 68.0
109.54718 188.0
110.030998 216.0
110.058136 156.0
110.092216 188.0
110.114525 144.0
110.129143 120.0
110.208527 160.0
110.371559 76.0
110.476128 220.0
111.04586 108.0
111.36068 128.0
111.486732 172.0
111.690666 164.0
111.713806 48.0
111.806389 224.0
111.835854 164.0
112.071709 140.0
112.114273 728.0
112.297264 152.0
112.385864 104.0
112.630753 164.0
112.670883 32.0
112.793449 88.0
113.515388 160.0
113.880409 148.0
114.250267 212.0
114.26516 112.0
114.35453 188.0
114.791252 152.0
114.929901 156.0
115.05471 308.0
115.318558 96.0
115.37413 156.0
115.429726 172.0
115.570892 108.0
115.892059 220.0
116.072105 144.0
116.746376 144.0
117.072784 212.0
117.42691 148.0
117.567139 100.0
118.161339 156.0
118.228416 48.0
118.284691 160.0
118.848152 120.0
119.095634 104.0
119.580482 164.0
119.630539 124.0
120.046082 208.0
120.214653 180.0
120.721451 128.0
120.752068 120.0
120.913963 204.0
120.988388 124.0
121.045311 272.0
121.076172 1176.0
121.292877 132.0
121.455132 100.0
121.564827 64.0
121.689941 188.0
121.733856 196.0
122.084198 208.0
122.666702 204.0
122.686546 180.0
122.874001 96.0
122.971092 88.0
123.091827 2052.0
123.227242 68.0
123.273643 208.0
123.44606 220.0
123.592049 112.0
123.855492 144.0
124.098671 520.0
124.338829 152.0
124.63195 188.0
124.798645 160.0
124.852013 144.0
125.083405 176.0
125.228127 104.0
125.245949 68.0
125.386314 124.0
125.58474 152.0
125.796715 136.0
125.901649 100.0
125.953018 204.0
126.082603 108.0
126.418045 60.0
126.538918 132.0
126.673279 108.0
126.706886 84.0
126.86824 132.0
126.910835 132.0
126.996048 52.0
127.090271 36.0
127.119438 144.0
127.211456 44.0
127.40683 172.0
127.746277 200.0
127.834023 96.0
128.06073 232.0
128.079422 144.0
128.695068 140.0
128.968414 176.0
129.068481 668.0
129.099533 160.0
129.147034 40.0
129.733505 60.0
129.848831 184.0
130.067535 248.0
130.085114 180.0
130.280411 180.0
130.380386 124.0
130.88765 120.0
130.94458 92.0
131.015198 144.0
131.047089 164.0
131.083542 40.0
131.304672 68.0
131.548813 160.0
132.05835 200.0
132.081299 756.0
132.207062 220.0
132.237808 52.0
132.603256 192.0
132.649094 180.0
133.06488 4192.0
133.174545 60.0
133.200378 64.0
133.273331 168.0
133.335373 44.0
133.434875 152.0
134.069717 512.0
134.092545 224.0
134.669327 68.0
134.703979 44.0
134.750183 116.0
134.807953 236.0
134.93045 56.0
135.069199 140.0
135.090424 348.0
135.226532 120.0
135.374695 64.0
135.682861 244.0
135.777924 168.0
136.058685 176.0
136.095306 140.0
136.174789 176.0
136.198013 144.0
137.078156 176.0
137.513504 192.0
137.922241 104.0
138.284775 124.0
138.418213 180.0
138.687622 216.0
139.248367 40.0
139.375229 136.0
139.556198 108.0
139.584427 128.0
139.65332 160.0
140.163467 88.0
140.184677 152.0
140.720108 128.0
141.571335 192.0
142.206696 152.0
142.952911 112.0
143.085709 532.0
143.701096 104.0
143.887253 188.0
143.923065 136.0
144.044861 104.0
144.09082 216.0
144.123703 208.0
144.518204 88.0
144.66658 144.0
145.066132 324.0
145.100098 288.0
145.128967 124.0
145.246475 84.0
145.268066 192.0
145.455231 96.0
145.568069 228.0
145.923676 52.0
146.031891 92.0
146.10405 164.0
146.241211 32.0
146.838715 176.0
147.0905 748.0
147.374603 68.0
147.526291 168.0
147.582474 128.0
148.388702 32.0
148.410522 176.0
149.044022 128.0
149.070755 396.0
149.090195 272.0
149.350342 124.0
149.496307 136.0
149.523087 96.0
149.849365 196.0
149.876175 112.0
150.007782 100.0
150.088226 308.0
150.532318 136.0
151.030884 64.0
151.136078 84.0
151.307404 164.0
151.738586 100.0
151.772903 100.0
152.113922 128.0
152.234222 128.0
152.28334 40.0
152.846298 248.0
153.119537 160.0
153.232849 88.0
153.531097 128.0
154.097321 184.0
155.098587 172.0
155.123367 40.0
155.321732 140.0
155.474304 132.0
155.711411 164.0
156.049362 112.0
156.731323 132.0
156.868393 148.0
157.068039 332.0
157.41478 48.0
157.512192 172.0
157.647095 36.0
158.073669 68.0
158.103287 152.0
158.322525 216.0
158.588089 128.0
158.761078 68.0
158.923615 244.0
158.954239 60.0
159.067566 152.0
160.123184 140.0
160.344894 120.0
160.443192 112.0
160.718094 196.0
161.092148 100.0
161.473404 140.0
161.534119 44.0
161.701111 140.0
162.09079 292.0
162.443497 112.0
162.466324 108.0
162.773422 200.0
162.806442 160.0
163.093536 220.0
163.126572 180.0
163.574265 184.0
163.767776 160.0
164.065918 216.0
164.542923 168.0
164.987503 128.0
165.364624 172.0
165.568329 144.0
165.657974 188.0
166.098862 172.0
167.018417 156.0
167.077576 140.0
167.100739 364.0
167.363266 132.0
167.654343 160.0
167.692993 144.0
168.064331 168.0
168.810837 132.0
168.836685 176.0
169.053986 80.0
169.129044 148.0
169.157516 136.0
169.382797 100.0
169.455338 96.0
170.056931 80.0
170.09227 216.0
170.612808 132.0
170.79483 120.0
170.94313 156.0
171.080139 512.0
171.103378 176.0
172.029953 44.0
172.079559 132.0
172.113495 116.0
172.181396 132.0
172.272812 176.0
172.325058 184.0
172.440033 104.0
172.824448 72.0
173.015503 112.0
173.095322 184.0
173.358612 56.0
173.502762 132.0
173.560455 156.0
173.646988 152.0
173.76503 128.0
174.001221 156.0
174.058075 244.0
174.100525 3956.0
174.132126 184.0
174.187683 60.0
174.227081 60.0
174.323456 112.0
174.437302 168.0
174.605576 48.0
174.687836 140.0
174.713425 60.0
174.937637 136.0
175.018723 52.0
175.075073 2916.0
175.107452 2368.0
175.188736 108.0
175.247864 120.0
175.382263 60.0
175.653854 32.0
175.69342 48.0
175.872864 144.0
176.079742 492.0
176.117645 2840.0
176.179169 204.0
176.62326 68.0
176.668228 156.0
176.803162 36.0
176.84021 132.0
176.932861 180.0
177.119461 500.0
177.279831 48.0
177.399109 56.0
177.515762 108.0
178.09697 196.0
178.434448 120.0
179.531464 232.0
180.993134 252.0
181.137756 132.0
181.24086 140.0
181.266342 140.0
181.979828 80.0
182.390839 172.0
182.643585 108.0
182.764648 76.0
183.049973 164.0
183.084976 40.0
183.225037 204.0
184.085449 196.0
184.146347 368.0
185.01825 56.0
185.100739 180.0
186.11084 136.0
186.140717 188.0
186.178726 116.0
186.306396 176.0
186.80658 108.0
187.089584 160.0
187.119537 136.0
187.484528 96.0
187.52269 116.0
187.78714 148.0
187.950821 176.0
188.107147 3712.0
188.231964 60.0
188.502396 96.0
188.663651 108.0
189.096725 556.0
189.103165 632.0
189.113113 292.0
189.145096 140.0
189.580566 56.0
189.632629 216.0
190.065918 172.0
190.086258 184.0
190.124893 652.0
190.354126 212.0
190.507935 84.0
190.733261 124.0
191.110016 176.0
191.487137 108.0
191.635895 48.0
191.696503 84.0
191.715805 148.0
191.748871 104.0
191.790207 228.0
192.071457 348.0
192.10202 4760.0
192.302017 72.0
192.397079 48.0
192.468857 36.0
192.562744 40.0
192.642853 68.0
192.897079 92.0
193.051895 188.0
193.108902 616.0
193.264893 144.0
193.356201 96.0
193.508453 80.0
193.527832 28.0
193.633057 156.0
194.105225 136.0
194.367676 52.0
194.45369 148.0
195.142593 132.0
195.763092 116.0
196.13829 148.0
196.501724 60.0
196.663574 176.0
197.10202 140.0
197.127167 36.0
197.300461 160.0
197.510178 348.0
197.907562 80.0
198.554871 216.0
198.602554 180.0
198.661453 160.0
198.99823 160.0
199.096497 132.0
199.242554 172.0
199.397644 124.0
199.976471 76.0
200.559494 224.0
200.914795 188.0
200.948639 236.0
201.122009 148.0
201.389008 120.0
202.019348 88.0
202.092911 208.0
202.132523 352.0
202.769684 144.0
202.832047 200.0
203.172333 84.0
203.307266 136.0
203.427734 196.0
203.819656 156.0
203.867966 184.0
204.118103 216.0
204.917908 232.0
205.419647 168.0
205.548035 64.0
205.587982 216.0
205.847763 152.0
206.056259 92.0
206.117355 3684.0
206.233429 40.0
206.290604 140.0
206.427826 68.0
206.52507 32.0
206.639496 204.0
206.791153 52.0
206.980087 152.0
207.118851 624.0
207.280853 148.0
207.794083 104.0
207.885895 280.0
208.207413 224.0
208.405624 40.0
208.618301 56.0
208.992172 132.0
209.268478 168.0
209.709213 116.0
209.781281 188.0
210.014832 40.0
210.107147 124.0
210.548767 164.0
210.881012 164.0
210.985062 176.0
211.128113 220.0
211.230865 160.0
211.372635 64.0
211.627335 132.0
211.966232 116.0
212.107635 156.0
212.290894 152.0
212.430099 156.0
212.49205 192.0
213.106522 156.0
213.504761 124.0
214.131363 1388.0
214.206192 52.0
214.605453 40.0
214.774582 196.0
214.809586 76.0
215.136353 252.0
215.270721 120.0
215.355423 56.0
215.98967 108.0
216.14743 348.0
216.320328 120.0
216.674667 48.0
216.753784 96.0
216.914963 216.0
217.149536 140.0
217.178864 84.0
217.266861 160.0
217.293259 116.0
217.859863 132.0
217.989136 120.0
218.118454 128.0
218.162552 156.0
220.055252 184.0
220.183823 172.0
221.136841 308.0
221.171326 228.0
221.43187 164.0
222.05014 124.0
222.092804 196.0
222.159882 340.0
222.193665 176.0
222.50528 204.0
222.621078 240.0
222.641861 172.0
222.67453 180.0
222.932999 144.0
223.168655 448.0
223.494995 48.0
223.649734 128.0
223.989182 152.0
224.093445 108.0
224.1763 124.0
224.242432 144.0
224.337814 172.0
224.579346 112.0
224.859802 76.0
224.895615 120.0
225.102463 168.0
226.12999 232.0
226.336533 64.0
226.666031 152.0
227.118713 136.0
227.160614 148.0
227.331726 124.0
227.788071 204.0
227.821121 124.0
228.070526 136.0
228.115616 148.0
228.139099 172.0
228.714203 120.0
228.885788 216.0
229.153854 188.0
229.946915 104.0
230.107529 180.0
230.146149 84.0
230.227676 112.0
230.336411 28.0
230.974197 132.0
231.010498 156.0
231.116379 128.0
232.540649 96.0
233.138748 140.0
233.1754 120.0
233.309143 188.0
233.960159 48.0
234.88652 180.0
235.118408 156.0
235.237442 188.0
235.545853 160.0
235.726105 72.0
235.869736 168.0
236.102097 144.0
236.726379 184.0
237.43428 144.0
237.514023 44.0
237.566162 120.0
238.441254 160.0
238.696396 84.0
239.407227 36.0
239.706039 72.0
239.971115 164.0
240.118576 224.0
240.140945 188.0
240.267181 80.0
240.439972 112.0
241.283218 220.0
241.750275 156.0
242.130569 400.0
242.162018 48.0
243.131516 304.0
243.72551 124.0
244.135818 600.0
244.621704 240.0
245.032242 112.0
245.131958 180.0
245.171249 172.0
245.474838 92.0
245.621429 124.0
246.077042 136.0
246.149872 476.0
247.202271 112.0
247.236694 80.0
247.39946 44.0
247.4245 140.0
247.747055 164.0
248.364578 136.0
248.791336 256.0
249.513901 180.0
249.57048 76.0
250.354004 140.0
251.245987 96.0
251.353256 172.0
252.016327 164.0
252.168015 180.0
252.294449 148.0
252.901779 124.0
253.069565 68.0
253.136459 156.0
253.890259 152.0
254.00444 140.0
254.093262 148.0
254.136826 272.0
254.439178 108.0
255.151245 176.0
255.214401 164.0
256.01944 144.0
256.13092 156.0
256.695007 96.0
256.765167 160.0
257.029938 116.0
257.18631 144.0
258.109589 124.0
258.145416 116.0
258.288666 132.0
259.155884 608.0
260.073364 204.0
260.153625 152.0
260.461884 164.0
261.152924 152.0
261.625946 144.0
261.75473 64.0
262.657104 160.0
264.130035 152.0
265.694641 172.0
266.142517 92.0
266.73703 188.0
267.25412 124.0
267.941101 140.0
268.263702 176.0
268.837738 216.0
268.89975 172.0
268.965027 204.0
269.125 196.0
269.284393 152.0
269.418915 48.0
269.467926 116.0
269.863403 60.0
270.111938 172.0
270.169037 400.0
270.491516 132.0
270.619171 136.0
270.946686 224.0
271.094116 124.0
271.144104 1672.0
271.402252 100.0
271.441589 108.0
271.602295 136.0
271.75647 72.0
271.795837 36.0
271.864746 108.0
271.930389 148.0
272.009155 216.0
272.105621 168.0
272.151642 9544.0
272.235718 104.0
272.344086 196.0
272.381317 72.0
272.482056 64.0
272.518188 92.0
272.731781 92.0
272.767944 56.0
272.866577 104.0
272.919189 68.0
272.981659 172.0
273.047424 40.0
273.154907 1700.0
273.218475 140.0
273.386261 104.0
273.455383 40.0
273.534363 64.0
274.087646 76.0
274.163849 404.0
274.216187 60.0
274.30188 40.0
274.654694 148.0
274.696014 128.0
275.030823 152.0
275.182495 140.0
275.278442 96.0
275.364288 228.0
275.833466 56.0
276.132568 304.0
276.428772 204.0
276.607513 68.0
276.749847 156.0
276.878998 216.0
277.014801 132.0
277.102173 128.0
277.145355 216.0
277.154633 212.0
277.201263 2932.0
277.279541 40.0
277.465485 44.0
277.578217 48.0
277.850189 92.0
278.065857 108.0
278.155487 100.0
278.204285 608.0
278.258392 124.0
278.630341 156.0
278.896179 52.0
278.946045 176.0
279.002563 88.0
279.212708 120.0
279.870911 108.0
280.134003 100.0
280.157318 88.0
280.860657 52.0
280.964081 56.0
281.13327 180.0
281.143097 128.0
281.701843 168.0
282.009247 164.0
282.112854 88.0
282.755066 152.0
282.965942 168.0
283.518616 84.0
284.138916 124.0
284.269775 104.0
284.558441 132.0
284.709534 76.0
285.159729 116.0
285.729614 140.0
286.320404 184.0
286.761749 72.0
286.967377 204.0
287.210175 56.0
287.283478 120.0
287.60495 152.0
287.986481 108.0
288.03714 84.0
288.164124 300.0
288.709717 64.0
289.051392 116.0
289.178009 1452.0
289.349243 220.0
289.61673 56.0
289.877594 52.0
290.074188 60.0
290.180695 348.0
290.589661 160.0
291.187073 124.0
291.331696 152.0
291.530182 100.0
292.180695 176.0
292.720795 144.0
292.792297 84.0
292.935364 192.0
292.959198 148.0
293.351074 60.0
293.787567 128.0
294.154755 100.0
295.061371 152.0
295.170807 140.0
295.796875 80.0
296.176941 192.0
296.433899 188.0
296.546997 80.0
296.588104 120.0
297.147064 120.0
297.22348 132.0
297.394135 112.0
298.10849 180.0
298.149902 140.0
298.352509 208.0
298.754852 216.0
299.134308 148.0
300.077301 144.0
300.401489 68.0
300.653351 124.0
300.687866 96.0
300.932953 160.0
301.119415 52.0
301.748291 132.0
301.893524 128.0
302.153076 264.0
302.197906 128.0
302.235962 144.0
302.530151 164.0
302.900665 76.0
303.170929 140.0
303.777649 48.0
304.339874 124.0
304.51004 140.0
304.989502 156.0
305.424133 156.0
305.984406 100.0
306.067963 140.0
306.102783 88.0
306.147491 2036.0
306.388367 196.0
306.604401 96.0
306.64621 52.0
307.00531 88.0
307.144104 284.0
307.389038 164.0
307.888214 76.0
308.04538 136.0
308.069824 72.0
308.132721 120.0
308.164886 136.0
308.880829 108.0
309.171204 88.0
309.612305 168.0
310.141327 164.0
310.421814 160.0
310.997162 108.0
311.067352 80.0
311.246399 104.0
311.759247 52.0
312.121307 84.0
312.290131 88.0
312.550446 196.0
313.177063 40.0
313.395477 136.0
313.677399 120.0
313.795624 164.0
314.044098 196.0
314.354553 96.0
314.43927 252.0
314.471008 88.0
314.675751 100.0
314.788757 64.0
314.837952 116.0
314.990051 172.0
315.166687 96.0
315.216309 3560.0
315.297455 132.0
315.527191 56.0
315.61911 48.0
315.746429 72.0
315.792389 104.0
316.050629 64.0
316.160889 152.0
316.219147 1052.0
316.379791 32.0
316.503693 88.0
317.22937 188.0
317.524261 48.0
317.648407 128.0
317.875458 208.0
318.120361 212.0
318.14859 164.0
318.202606 120.0
318.880463 148.0
319.171967 292.0
320.054382 132.0
320.164032 2464.0
320.781158 120.0
320.895233 36.0
321.166443 416.0
321.287537 44.0
321.558716 44.0
322.171326 320.0
322.244324 40.0
323.184631 56.0
323.746643 100.0
323.907806 104.0
324.157318 1896.0
324.236023 72.0
324.327026 44.0
324.441742 52.0
324.556458 92.0
325.160706 1140.0
325.212952 168.0
325.452789 64.0
325.615051 76.0
325.880859 140.0
326.168823 284.0
326.218689 144.0
326.87326 84.0
327.102448 112.0
327.466156 100.0
327.539276 72.0
328.10144 128.0
328.328583 48.0
328.609955 188.0
329.086365 196.0
329.176636 152.0
329.519775 128.0
329.808838 152.0
331.082367 144.0
331.230865 88.0
331.328674 112.0
331.585938 204.0
332.158783 116.0
332.24585 232.0
332.57608 140.0
333.203461 152.0
334.011292 132.0
334.211395 92.0
334.298706 148.0
334.961334 44.0
335.052399 100.0
335.209076 180.0
335.591797 180.0
336.200958 80.0
337.026184 116.0
337.161407 164.0
337.190643 116.0
337.296631 188.0
337.896362 40.0
338.119568 100.0
338.175934 2580.0
338.404114 92.0
338.449005 216.0
338.562531 44.0
338.71637 164.0
338.782288 104.0
339.176636 1088.0
339.643707 76.0
339.823456 104.0
340.018494 136.0
340.174713 140.0
340.311615 104.0
341.035278 132.0
341.189667 144.0
341.35144 76.0
341.439697 120.0
343.81958 148.0
343.849091 124.0
344.24411 212.0
344.484161 124.0
344.654114 68.0
344.753876 88.0
345.02002 88.0
345.142029 212.0
345.204865 180.0
345.278839 84.0
345.656158 88.0
346.067017 132.0
346.190613 612.0
346.600372 180.0
346.6745 192.0
346.828064 156.0
346.889435 136.0
347.026611 72.0
347.191925 296.0
347.512482 100.0
347.597809 60.0
347.727692 160.0
347.779663 112.0
348.942383 204.0
349.057617 136.0
349.306824 116.0
349.370056 164.0
350.45343 56.0
351.340759 112.0
351.493713 132.0
352.102203 140.0
352.158203 88.0
352.30014 132.0
352.542999 144.0
352.699982 132.0
352.823334 144.0
353.215973 172.0
353.32074 168.0
353.421753 128.0
353.657501 104.0
354.207916 108.0
354.953705 40.0
355.039948 180.0
355.238739 184.0
355.516937 136.0
355.914276 176.0
356.170502 136.0
356.740814 84.0
356.928802 144.0
357.192047 172.0
357.289856 144.0
357.485504 96.0
358.095367 72.0
358.732147 96.0
358.97345 192.0
359.312927 124.0
360.589203 72.0
361.186584 140.0
361.784454 168.0
361.856384 192.0
362.211029 636.0
362.284332 112.0
362.890717 144.0
362.932404 244.0
362.989288 112.0
363.21759 316.0
363.292694 84.0
363.485779 112.0
363.602173 104.0
363.729095 148.0
363.934967 136.0
363.960663 196.0
364.097382 164.0
364.202332 10240.0
364.274658 224.0
364.355164 180.0
364.488647 120.0
364.542114 100.0
364.611938 64.0
364.678497 84.0
364.743256 196.0
364.830688 92.0
364.922974 72.0
365.009369 80.0
365.148743 284.0
365.203461 3120.0
365.283203 68.0
365.340271 92.0
365.504364 60.0
365.587585 48.0
365.694153 64.0
365.72702 168.0
365.789307 100.0
366.013916 96.0
366.092407 200.0
366.208374 844.0
366.640106 52.0
366.707245 72.0
366.771759 112.0
367.026398 116.0
367.122772 40.0
367.22229 132.0
367.298218 28.0
367.427917 76.0
367.469879 124.0
367.59198 148.0
367.641602 68.0
368.03476 68.0
368.214233 56.0
368.271515 96.0
368.420502 120.0
368.580963 56.0
368.645935 140.0
368.783508 104.0
368.84848 128.0
369.391449 136.0
369.487091 148.0
369.582733 40.0
369.691895 260.0
370.244965 128.0
370.463287 60.0
371.210663 132.0
371.525177 116.0
371.601898 28.0
371.655609 120.0
372.020203 60.0
372.236023 140.0
372.611603 128.0
373.218628 132.0
373.334229 184.0
373.545746 44.0
373.765045 136.0
374.17627 208.0
374.276978 124.0
375.193939 112.0
375.818726 140.0
375.919037 120.0
375.962616 112.0
376.586914 148.0
377.219086 292.0
378.094727 148.0
378.198364 180.0
378.365662 100.0
378.400513 100.0
378.427612 56.0
378.880737 144.0
379.158295 132.0
379.318634 32.0
379.698608 76.0
380.164124 160.0
380.202667 276.0
380.373688 140.0
381.219666 124.0
381.290314 88.0
382.222534 144.0
382.23468 212.0
382.433746 132.0
382.616699 48.0
382.854218 60.0
382.889282 44.0
383.243744 224.0
383.610077 204.0
384.105316 156.0
384.394012 184.0
384.542297 84.0
385.211548 248.0
385.28421 36.0
385.31546 144.0
386.239105 368.0
386.335785 144.0
386.687958 116.0
387.211182 112.0
387.218201 240.0
387.29483 132.0
387.870789 160.0
387.990509 216.0
388.193878 108.0
388.278564 52.0
388.48645 180.0
388.572754 92.0
389.204651 92.0
389.236053 144.0
390.886993 108.0
390.969055 140.0
391.191772 152.0
391.824036 132.0
392.01712 72.0
393.034454 60.0
393.256775 292.0
393.705505 128.0
394.250336 392.0
394.34552 156.0
394.416656 40.0
395.393585 192.0
395.920105 144.0
396.256775 132.0
396.756134 48.0
397.681946 192.0
398.144867 88.0
398.482513 140.0
398.907715 124.0
399.229767 184.0
400.023224 188.0
400.403748 68.0
400.969482 60.0
401.021271 136.0
401.459808 192.0
402.222839 184.0
402.553223 72.0
402.780853 188.0
403.225281 3068.0
403.564117 76.0
403.692078 104.0
404.13208 144.0
404.229767 716.0
405.016785 224.0
405.232819 344.0
405.270721 188.0
405.349304 104.0
405.57373 92.0
405.822266 156.0
405.962616 160.0
406.209808 116.0
406.656647 144.0
406.825256 52.0
407.210052 172.0
407.837494 48.0
407.994263 88.0
408.236786 176.0
408.521057 76.0
408.931488 112.0
409.221283 416.0
409.342102 124.0
409.708618 140.0
409.769043 64.0
409.926178 56.0
410.227356 428.0
410.333282 152.0
410.772827 44.0
411.091583 104.0
411.223511 184.0
412.157593 156.0
412.220825 136.0
412.598114 152.0
412.882965 108.0
414.066956 116.0
414.241119 136.0
414.557129 144.0
414.613861 160.0
414.946228 208.0
415.384216 156.0
415.603271 80.0
415.85083 136.0
417.386383 84.0
417.776825 116.0
417.923279 100.0
418.151184 88.0
418.187805 80.0
418.216278 136.0
418.444244 60.0
418.741516 264.0
418.912567 124.0
418.977753 108.0
419.087769 92.0
419.163361 196.0
419.206879 136.0
419.332245 140.0
419.629211 80.0
419.662445 156.0
419.716492 124.0
419.763672 136.0
419.825562 284.0
419.964539 152.0
420.101105 192.0
420.160004 52.0
420.232849 596.0
420.455261 188.0
420.498688 60.0
420.551941 80.0
420.595306 196.0
420.623383 144.0
420.690155 176.0
420.799591 168.0
420.859314 176.0
420.930939 112.0
420.96933 168.0
421.063629 168.0
421.102936 112.0
421.159393 296.0
421.236206 54604.0
421.385742 232.0
421.486694 116.0
421.526367 80.0
421.572723 40.0
421.616425 96.0
421.695709 44.0
421.74408 128.0
421.764587 72.0
421.816284 132.0
421.853241 200.0
421.91922 88.0
421.96048 156.0
421.988007 80.0
422.063751 64.0
422.112061 256.0
422.149017 156.0
422.237885 15244.0
422.399658 124.0
422.456787 72.0
422.51178 60.0
422.520905 40.0
422.556183 116.0
422.59906 56.0
422.662018 104.0
422.708801 68.0
422.719025 100.0
422.772705 64.0
422.820038 56.0
422.85733 116.0
422.926422 72.0
422.96521 84.0
423.040314 68.0
423.096191 128.0
423.151581 40.0
423.242706 2180.0
423.360413 96.0
423.469147 116.0
423.487122 64.0
423.501404 112.0
423.550629 72.0
423.604584 84.0
423.66452 80.0
423.728668 44.0
423.815094 112.0
423.892944 60.0
423.947083 128.0
424.097839 112.0
424.238129 352.0
424.367432 84.0
424.420013 176.0
424.475006 32.0
424.557007 108.0
424.61853 84.0
424.669434 108.0
424.702759 60.0
424.770294 88.0
424.81131 36.0
424.885162 144.0
424.936829 108.0
425.036957 60.0
425.086212 40.0
425.176147 48.0
425.193298 40.0
425.238037 120.0
425.279083 88.0
425.340668 96.0
425.445587 100.0
425.508972 144.0
425.57605 108.0
425.607513 136.0
425.652679 60.0
425.71933 84.0
425.870331 84.0
425.940155 64.0
425.968903 124.0
426.018188 124.0
426.116791 84.0
426.203064 80.0
426.235931 168.0
426.560608 88.0
426.593506 80.0
426.634613 96.0
426.852509 72.0
427.033447 76.0
427.107483 80.0
427.292603 36.0
428.787323 48.0
429.049927 96.0
429.158325 72.0
429.376862 56.0
429.966827 60.0
430.216034 168.0
430.58194 60.0
430.734772 84.0
430.784332 100.0
431.218201 92.0
431.499268 72.0
431.776306 116.0
431.970703 72.0
432.15686 32.0
432.196716 128.0
432.525177 96.0
433.5979 60.0
433.805145 80.0
433.950226 152.0
434.066345 140.0
434.095367 124.0
434.306854 164.0
435.622681 32.0
436.898895 32.0
437.15271 188.0
438.176971 48.0
440.304291 104.0
440.471344 188.0
440.713654 124.0
441.478607 96.0
442.353027 52.0
443.18222 128.0
443.844482 120.0
443.991241 92.0
444.251282 60.0
445.325836 96.0
446.279144 164.0
446.502625 84.0
447.015839 184.0
447.23468 112.0
447.283875 328.0
448.224579 164.0
449.080109 40.0
449.206665 124.0
449.240417 280.0
449.282593 112.0
450.553284 124.0
451.720032 44.0
455.581818 92.0
460.411896 160.0
461.334778 180.0
461.39035 156.0
462.27713 280.0
463.007751 52.0
463.47467 108.0
464.100464 152.0
464.296631 536.0
464.344879 28.0
464.649445 40.0
465.125763 188.0
465.288879 6036.0
465.409088 100.0
465.499268 48.0
465.62381 64.0
465.812775 40.0
465.877228 40.0
466.227722 188.0
466.287262 2304.0
466.401459 64.0
466.440155 52.0
466.517517 52.0
466.659393 168.0
466.762573 52.0
467.294312 652.0
467.541199 36.0
467.876923 44.0
468.544434 52.0
468.798645 144.0
469.01413 104.0
469.048615 52.0
469.255554 168.0
470.325378 72.0
470.493713 56.0
470.523926 64.0
470.726868 76.0
471.145813 44.0
471.193329 64.0
473.416565 148.0
475.662384 72.0
476.404938 76.0
477.28067 224.0
478.265503 136.0
479.263275 100.0
481.300201 72.0
482.3172 244.0
482.943359 156.0
483.305847 180.0
483.765961 116.0
484.335205 132.0
484.475403 100.0
485.132721 60.0
486.738495 136.0
489.733307 140.0
490.217926 52.0
491.271667 92.0
491.840881 132.0
493.073151 48.0
495.063873 152.0
495.27475 2720.0
495.453644 144.0
495.51123 60.0
495.568848 112.0
495.613159 144.0
496.118378 68.0
496.281403 1196.0
496.765839 112.0
496.907776 144.0
497.283478 304.0
498.279633 108.0
500.009338 72.0
500.133972 152.0
503.283691 132.0
504.331085 72.0
508.280945 84.0
509.079956 96.0
509.34494 104.0
511.381744 112.0
512.1922 52.0
513.06189 72.0
513.161072 72.0
513.284607 3856.0
513.369202 168.0
513.454163 52.0
513.80603 128.0
513.98645 92.0
514.286926 1480.0
514.374573 96.0
514.424255 48.0
514.892029 100.0
515.015747 68.0
515.292908 392.0
515.42688 72.0
515.562439 64.0
515.979858 124.0
516.086792 80.0
516.434998 48.0
517.312805 76.0
517.50293 116.0
517.661438 108.0
517.901428 48.0
518.454163 76.0
519.587708 68.0
519.820801 76.0
521.294922 112.0
521.363098 136.0
522.287842 192.0
523.28418 412.0
523.523926 144.0
524.268555 124.0
524.316589 132.0
526.113708 120.0
531.436279 28.0
531.629028 40.0
531.821777 124.0
532.386475 108.0
532.597717 180.0
537.703735 88.0
539.070618 84.0
540.297913 240.0
541.257141 256.0
541.289185 188.0
541.319519 184.0
541.934814 56.0
542.302246 140.0
547.308716 48.0
547.60675 120.0
555.449768 176.0
558.303528 116.0
559.305298 88.0
563.131287 48.0
566.16748 68.0
567.205078 144.0
568.480835 92.0
568.90802 108.0
570.684814 108.0
574.824036 116.0
577.733643 112.0
578.35144 144.0
579.340576 180.0
580.329407 164.0
580.362976 140.0
581.187927 152.0
582.801208 140.0
584.662109 40.0
584.936462 204.0
585.340881 64.0
586.410339 116.0
588.421814 40.0
593.468079 80.0
593.686279 96.0
594.239258 144.0
595.43042 112.0
595.726257 116.0
595.783081 148.0
596.234924 132.0
596.353394 3252.0
596.623779 152.0
596.774475 116.0
596.939819 48.0
597.197571 84.0
597.277649 128.0
597.354614 1284.0
597.485474 64.0
597.572144 36.0
597.706909 92.0
598.16095 80.0
598.229126 48.0
598.373047 560.0
598.504089 84.0
600.0755 68.0
600.621643 188.0
601.109497 80.0
601.991821 108.0
603.077637 36.0
604.212097 52.0
604.882507 100.0
606.954834 44.0
607.803406 120.0
608.112549 128.0
609.487549 32.0
611.587402 116.0
612.3703 104.0
612.518066 64.0
612.96637 136.0
613.222595 108.0
613.419006 160.0
613.952271 84.0
614.198853 108.0
614.258057 116.0
614.370972 4012.0
614.465271 100.0
614.578735 48.0
614.660522 144.0
614.800781 76.0
614.840271 36.0
614.929077 84.0
615.034546 132.0
615.082092 212.0
615.116638 116.0
615.25354 88.0
615.373413 2748.0
615.441711 240.0
615.492737 172.0
615.560974 56.0
615.727173 68.0
615.773315 48.0
615.850342 132.0
615.960999 84.0
616.183289 80.0
616.26239 28.0
616.369934 508.0
617.072937 28.0
617.127319 36.0
617.364624 84.0
617.404175 60.0
617.785034 68.0
618.101685 100.0
618.161072 40.0
618.3927 100.0
618.433228 116.0
618.745117 96.0
618.953064 116.0
618.992676 28.0
619.909058 160.0
621.669495 152.0
622.250183 44.0
622.870911 128.0
627.324463 60.0
627.459106 80.0
631.46875 100.0
632.374329 40.0
632.514465 68.0
637.595215 112.0
639.325134 52.0
659.566956 28.0
662.350525 44.0
664.985901 44.0
670.823914 124.0
677.81134 80.0
678.391785 116.0
682.446411 72.0
688.3172 56.0
690.984131 116.0
695.894958 76.0
696.67749 156.0
698.8172 88.0
701.761353 148.0
709.257446 68.0
714.876404 40.0
720.923584 28.0
721.404602 132.0
722.495544 84.0
727.371948 36.0
752.180054 56.0
754.518127 60.0
758.591003 112.0
760.390076 64.0
777.515198 128.0
783.375488 108.0
785.292969 92.0
787.179199 92.0
787.927612 100.0
789.956909 48.0
794.000854 68.0
798.887451 108.0
803.535095 88.0
813.444153 108.0
831.991333 112.0
833.473083 96.0
834.231689 64.0
843.980713 128.0
849.528931 196.0
857.611328 176.0
859.156616 176.0
861.626038 200.0
863.449707 76.0
867.923584 112.0
868.492432 148.0
868.574585 36.0
883.253174 32.0
886.604187 144.0
888.074463 172.0
890.644531 60.0
890.697937 48.0
891.708008 156.0
893.604919 76.0
900.645142 72.0
904.471863 176.0
904.872925 124.0
906.55603 136.0
921.538696 124.0
922.547974 88.0
925.809143 144.0
929.094299 48.0
934.908997 60.0
936.211731 32.0
937.716492 104.0
938.435791 100.0
943.625366 164.0
946.21936 92.0
946.678589 140.0
948.933472 168.0
951.725098 116.0
955.221924 148.0
955.671021 160.0
963.93335 168.0
964.489563 172.0
965.602478 84.0
969.515076 168.0
974.907837 212.0
975.603943 164.0
981.580872 80.0
993.282227 108.0
994.355103 144.0
998.319214 192.0
999.879333 96.0
1002.505371 60.0
1003.482361 88.0
1003.873291 136.0
1010.619324 64.0
1010.662292 224.0
1012.436035 76.0
1013.443176 168.0
1030.354004 116.0
1045.782227 132.0
1050.240723 104.0
1051.253662 88.0
1052.796509 140.0
1053.196899 136.0
1054.553711 136.0
1058.538818 168.0
1061.675171 188.0
1063.089355 108.0
1066.856445 160.0
1068.143921 104.0
1069.276123 168.0
1074.16272 312.0
1075.023926 148.0
1080.237671 196.0
1087.294189 160.0
1088.219727 88.0
1090.11792 180.0
1090.190308 92.0
1091.892944 160.0
1092.063965 76.0
1092.162598 100.0
1094.288086 168.0
1096.224609 128.0
1096.349854 72.0
1098.584961 44.0
1098.650879 160.0
1100.228149 92.0
1101.495972 128.0
1104.569702 176.0
1107.925781 156.0
1113.158813 88.0
1115.942871 172.0
1119.322876 196.0
1121.614746 84.0
1126.318726 128.0
1134.133911 52.0
1135.535156 140.0
1143.018677 204.0
1144.553345 152.0
1154.060181 212.0
1160.607544 88.0
1164.190308 132.0
1167.098633 36.0
1167.561035 188.0
1169.057617 176.0
1172.755615 164.0
1174.883179 196.0
1177.388062 176.0
1178.125732 196.0
1179.66333 116.0
1180.682129 208.0
1182.371826 80.0
1184.343628 140.0
1185.63855 60.0
1188.779297 220.0
1192.453369 176.0
1192.761108 208.0
1197.38623 276.0
1198.219727 60.0
1199.880615 96.0
1200.025391 168.0
1204.60083 184.0
1206.784546 188.0
1209.503296 144.0
1212.405273 188.0
1215.095581 272.0
1218.858643 32.0
1220.040161 64.0
1221.674438 212.0
1224.284424 212.0
1227.56665 232.0
1230.804321 196.0
1232.711304 224.0
1233.652832 212.0
1237.299561 256.0
1238.139771 196.0
1241.819092 164.0
1241.889282 168.0
1242.899414 172.0
1243.376587 164.0
1243.80481 196.0
1243.973267 172.0
1246.39624 160.0
1246.473511 148.0
1253.122559 148.0
1258.786377 136.0
1270.819214 132.0
1271.464966 180.0
1274.028198 200.0
1274.674683 152.0
1274.738647 172.0
1278.92749 128.0
1281.961426 140.0
1282.160889 184.0
1291.306274 92.0
1293.331055 56.0
1294.684204 128.0
1296.15271 124.0
1296.260132 204.0
1300.656372 128.0
1300.993774 256.0
1301.654297 148.0
1302.674194 140.0
1312.822388 192.0
1324.30603 172.0
1331.34082 160.0
1331.486084 196.0
1334.916138 196.0
1335.054321 220.0
1340.368164 184.0
1341.796753 44.0
1343.546997 176.0
1347.335938 168.0
1347.861938 164.0
1350.486328 164.0
1350.939819 248.0
1354.328979 100.0
1355.127441 48.0
1355.383911 172.0
1360.415039 204.0
1363.507202 208.0
1367.272583 100.0
1372.39209 248.0
1373.697388 176.0
1377.107544 236.0
1377.4104 28.0
1381.291016 60.0
1382.437744 192.0
1383.00769 156.0
1384.073608 224.0
1385.058594 148.0
1386.473755 144.0
1387.15564 116.0
1388.378906 244.0
1390.010864 172.0
1390.174194 140.0
1390.908936 184.0
1391.55481 176.0
1392.475586 48.0
1394.154541 196.0
1394.64502 168.0
1398.966675 180.0
1399.659058 72.0
1402.22168 192.0
1406.286377 164.0
1407.547974 64.0
1413.24353 128.0
1413.557739 216.0
1421.575684 168.0
1422.919312 176.0
1424.639038 164.0
1429.082153 200.0
1435.5448 200.0
1435.72583 120.0
1439.287476 188.0
1439.604614 132.0
1442.777954 144.0
1443.503784 144.0
1444.418945 48.0
1453.441772 208.0
1455.088745 204.0
1462.127441 144.0
1462.416626 128.0
1463.010376 112.0
1466.087402 236.0
1475.598022 160.0
1476.783325 80.0
1478.673096 236.0
1482.417847 44.0
1485.829834 160.0
1488.946167 184.0
1490.029297 132.0
1491.0896 144.0
1493.749878 148.0
1495.581177 92.0
1497.506104 152.0
1498.630737 104.0
1499.424438 164.0
