>compound Cilostazol
>formula C20H27N5O2
>ionization [M+H]+
>parentmass 370.2237515560906
#inchi InChI=1S/C20H27N5O2/c26-20-12-9-15-14-17(10-11-18(15)21-20)27-13-5-4-8-19-22-23-24-25(19)16-6-2-1-3-7-16/h10-11,14,16H,1-9,12-13H2,(H,21,26)
#inchikey RRGUKTPIGVIEKM
#Ion_Source LC-ESI
#Instrument qTof
#Compound_Source Commercial
#PI Dorrestein
#Data_Collector Garg_Neha
#Scan -1
#Precursor_MZ 370.224
#ExactMass 369.216
#Charge 1
#CAS_Number 73963-72-1
#Pubmed_ID N/A
#Smiles C1C(NC2=C(C1)C=C(C=C2)OCCCCC3N(N=NN=3)C4CCCCC4)=O
#INCHI_AUX N/A
#Library_Class 1
#SpectrumID CCMSLIB00000078092
#IonMode Positive
#UpdateWorkflowName UPDATE-SINGLE-ANNOTATED-GOLD
#LibraryQualityString Gold
#TaskID 77f51c88eb8b467eb4a01dd2d0cb90d2
##Scan# 1355
#SpectrumFile Plate2_1_20_GG5_01_16493.mzXML
#LibraryName FDALibrary_2_04302014.mgf
#MQScore -1
#Organism FDALibrary_2_04302014
#TIC_Query 0
#RT_Query -1
#MZErrorPPM -1
#SharedPeaks 0
#MassDiff 0
#LibMZ -1
#SpecMZ 370.224
#SpecCharge 0
#internalFilename spec-00000.mgf

>collision 10
44.935085 224.0
45.080631 228.0
45.29604 188.0
45.446194 168.0
45.644993 156.0
45.667854 180.0
45.698795 176.0
45.717636 164.0
45.802456 188.0
45.822666 148.0
46.757023 152.0
46.785606 156.0
47.36462 240.0
47.497581 180.0
47.592278 228.0
47.612522 248.0
47.715935 192.0
48.148617 216.0
48.338009 216.0
48.548576 180.0
48.629044 156.0
48.674858 200.0
48.773499 224.0
49.004513 208.0
49.15929 140.0
49.580235 168.0
49.61808 160.0
49.859516 148.0
49.907314 176.0
50.121265 168.0
50.356861 184.0
50.523659 232.0
50.55479 180.0
50.6539 160.0
50.702072 240.0
50.94471 220.0
51.052734 188.0
51.428715 152.0
51.46027 152.0
51.740498 216.0
52.005035 180.0
52.2356 152.0
52.873352 180.0
52.896595 140.0
52.919678 168.0
53.015282 160.0
53.026875 204.0
53.068913 172.0
53.167557 160.0
53.394196 148.0
53.421833 160.0
53.522255 312.0
53.945362 140.0
53.955593 160.0
54.173653 168.0
54.373066 148.0
54.549988 284.0
54.731762 220.0
54.765633 152.0
54.840778 204.0
55.306049 140.0
55.367207 192.0
55.60545 152.0
55.962223 236.0
56.031067 144.0
56.593811 168.0
56.695675 180.0
56.737644 176.0
56.919197 164.0
57.200344 196.0
57.231956 200.0
57.465584 164.0
57.566719 168.0
57.905483 180.0
58.040356 168.0
58.125301 180.0
58.296898 144.0
58.695732 156.0
58.758312 136.0
58.983616 320.0
59.200016 148.0
59.544533 224.0
59.566586 140.0
59.660328 176.0
59.691002 164.0
59.997478 172.0
60.358772 148.0
60.533634 208.0
60.873241 188.0
61.022411 152.0
61.034847 156.0
61.2029 176.0
61.244946 164.0
61.266754 172.0
61.430443 172.0
61.714687 272.0
61.902462 156.0
62.118965 148.0
62.230179 184.0
62.242741 184.0
62.459625 140.0
62.498959 168.0
62.848759 184.0
63.329353 140.0
63.416496 172.0
63.537014 208.0
63.612431 168.0
63.635414 144.0
63.792698 188.0
63.878571 156.0
63.967682 168.0
64.201904 152.0
64.538841 196.0
64.796219 144.0
65.147873 196.0
65.921692 216.0
66.057083 144.0
66.165657 184.0
66.333992 188.0
66.38588 212.0
66.454704 224.0
66.813065 144.0
66.842354 412.0
67.163307 176.0
67.489929 176.0
67.722313 204.0
68.999306 144.0
69.063797 180.0
69.494522 208.0
69.879379 228.0
70.064796 192.0
70.515343 196.0
70.654137 200.0
70.67923 144.0
70.833725 200.0
71.041122 236.0
71.227455 140.0
71.49984 168.0
71.653076 148.0
72.56575 164.0
72.652245 212.0
72.669212 208.0
72.930733 160.0
73.014046 212.0
73.080391 156.0
73.151871 196.0
73.226791 200.0
73.460312 164.0
73.531975 184.0
73.574654 248.0
73.654915 148.0
74.097992 140.0
74.315735 180.0
74.380951 180.0
74.415283 144.0
74.466301 164.0
74.734985 196.0
75.264153 172.0
75.680862 200.0
75.706841 164.0
76.255074 152.0
76.437675 156.0
76.503815 180.0
76.592628 216.0
76.714607 192.0
77.359222 176.0
78.188461 168.0
78.346184 156.0
78.434296 148.0
78.637131 140.0
78.792526 172.0
79.165749 176.0
79.394363 172.0
79.511452 168.0
79.594887 156.0
79.699692 152.0
80.123146 148.0
80.318871 136.0
80.372551 200.0
80.458435 240.0
80.769379 160.0
80.87674 144.0
81.269211 204.0
81.425385 184.0
81.655441 176.0
81.846191 196.0
81.910217 208.0
82.620491 148.0
82.640396 188.0
82.710976 256.0
83.000847 144.0
83.369354 244.0
83.645813 184.0
83.862572 156.0
83.992035 164.0
84.061363 156.0
84.110641 184.0
84.185501 180.0
84.377357 140.0
84.4505 188.0
84.704933 140.0
84.745239 172.0
84.796547 148.0
84.825874 244.0
84.934067 168.0
84.978096 144.0
85.121269 208.0
85.224129 164.0
85.25721 164.0
85.297646 144.0
85.42453 180.0
85.55703 164.0
85.733856 152.0
85.794685 220.0
85.938538 156.0
85.9533 160.0
86.195198 160.0
87.06031 164.0
87.169914 152.0
87.339104 204.0
87.406075 172.0
87.599709 140.0
87.733879 180.0
87.963341 152.0
88.088455 208.0
88.444908 240.0
88.550461 148.0
88.565445 176.0
88.794113 164.0
89.122627 148.0
89.726799 156.0
89.77771 164.0
89.879578 204.0
90.057037 168.0
90.607513 220.0
90.857773 148.0
90.979233 152.0
91.125923 168.0
91.235703 160.0
91.273727 160.0
91.418304 200.0
91.43924 220.0
91.646805 152.0
91.760864 152.0
92.293877 176.0
92.312996 164.0
92.414375 172.0
92.693939 208.0
92.78978 212.0
93.131363 220.0
93.221802 160.0
93.262016 240.0
93.306229 176.0
93.394691 144.0
93.412956 172.0
93.696922 220.0
93.831833 176.0
93.893539 164.0
93.957191 156.0
94.063332 152.0
94.083382 192.0
94.130905 176.0
94.217827 252.0
94.246803 180.0
94.308647 152.0
94.503769 156.0
94.732422 272.0
94.789467 180.0
94.912666 168.0
95.067856 180.0
95.178505 176.0
95.413597 164.0
95.466103 140.0
95.613953 172.0
95.980186 140.0
96.175278 184.0
96.196754 188.0
96.325638 244.0
96.530853 148.0
96.665833 236.0
96.773491 200.0
96.918434 196.0
96.96743 168.0
97.076408 348.0
97.242012 176.0
97.298935 176.0
97.432487 168.0
97.568092 156.0
98.024734 140.0
98.054298 196.0
98.084068 1040.0
98.219917 176.0
98.381737 144.0
98.604942 140.0
98.636566 140.0
99.081635 160.0
99.085907 144.0
99.476479 184.0
99.560669 140.0
99.79435 180.0
99.826164 176.0
99.996033 168.0
100.228271 156.0
100.405693 140.0
100.84893 192.0
100.940895 196.0
100.958893 204.0
101.054909 216.0
101.497574 172.0
102.490547 180.0
102.603416 188.0
102.791 208.0
103.035316 184.0
103.05851 216.0
103.636223 164.0
103.750847 180.0
103.86734 140.0
104.050873 188.0
104.084709 116.0
104.269363 196.0
104.517464 140.0
104.833092 192.0
104.900352 176.0
104.91568 160.0
105.071655 156.0
105.106346 152.0
105.157516 160.0
105.343178 184.0
105.594597 200.0
105.936432 200.0
106.05323 216.0
106.068474 284.0
106.523132 228.0
106.671082 140.0
106.773895 180.0
106.808861 144.0
106.876747 200.0
106.989342 108.0
107.11145 140.0
107.350533 156.0
108.046616 480.0
108.195625 156.0
108.249458 196.0
108.462852 208.0
108.535416 192.0
108.593483 220.0
108.809296 172.0
108.925591 192.0
109.095993 180.0
109.326874 200.0
109.653847 184.0
109.70179 156.0
109.876976 180.0
110.014709 256.0
110.056473 204.0
110.52887 204.0
110.687958 200.0
110.723686 192.0
110.847153 140.0
111.568527 184.0
111.741638 164.0
112.183907 260.0
112.27668 172.0
112.317513 156.0
112.335739 156.0
112.743248 212.0
112.858727 216.0
113.22773 200.0
113.380264 164.0
113.486259 148.0
113.528664 236.0
114.255104 164.0
114.380661 208.0
114.452339 216.0
114.467949 208.0
114.514809 180.0
114.765602 256.0
115.067108 196.0
115.162888 188.0
115.195297 180.0
115.302086 156.0
115.644287 172.0
115.84977 196.0
115.931274 212.0
116.051315 140.0
116.173569 184.0
116.188583 188.0
116.343102 200.0
116.439728 184.0
116.69545 160.0
116.714798 156.0
117.179718 188.0
117.265915 148.0
117.680107 204.0
117.779442 140.0
117.801048 144.0
118.067719 804.0
118.201027 164.0
118.385033 160.0
118.582184 180.0
118.794685 200.0
118.829391 168.0
118.958885 180.0
119.068176 148.0
119.118797 356.0
119.151428 220.0
119.355026 156.0
119.437668 188.0
119.657578 160.0
119.770706 200.0
119.78508 188.0
119.899254 208.0
120.044609 728.0
120.08136 156.0
120.141289 184.0
120.414146 160.0
121.046165 144.0
121.300316 152.0
121.534981 156.0
121.783791 180.0
121.82766 164.0
121.941254 144.0
121.994003 172.0
122.061157 1324.0
122.687469 188.0
122.760231 228.0
122.833412 176.0
122.936714 216.0
123.062531 144.0
123.453651 156.0
123.497887 172.0
123.699249 188.0
123.785591 144.0
123.874184 276.0
123.996056 144.0
124.087837 184.0
124.386429 180.0
124.608513 180.0
124.652946 176.0
124.8508 220.0
124.946449 232.0
124.984276 160.0
125.019882 196.0
125.037682 188.0
125.059059 300.0
125.083145 33452.0
125.255348 116.0
125.290733 188.0
125.31604 176.0
125.595596 120.0
125.889381 204.0
126.00769 140.0
126.084892 1604.0
126.91642 144.0
127.594482 164.0
127.911682 184.0
128.055237 180.0
128.116608 212.0
128.281113 240.0
128.371307 220.0
128.576599 204.0
128.6082 176.0
128.660126 180.0
128.913101 184.0
129.014801 168.0
129.046463 152.0
129.231934 160.0
129.272659 144.0
129.32019 196.0
129.560211 148.0
130.064972 144.0
130.86972 184.0
130.898026 264.0
131.058548 164.0
131.082291 148.0
131.119003 144.0
131.203339 208.0
131.452225 204.0
131.828766 196.0
132.081512 296.0
132.625229 180.0
132.664185 140.0
132.682526 172.0
132.7547 236.0
132.992218 224.0
133.049606 272.0
133.080643 184.0
133.351379 204.0
133.437881 176.0
133.497665 148.0
133.720825 140.0
133.93956 164.0
134.060638 1640.0
134.137741 156.0
134.52298 144.0
134.631302 200.0
134.662827 160.0
134.938828 168.0
135.065628 348.0
135.874496 172.0
136.038834 228.0
136.072784 236.0
136.125702 180.0
136.168945 128.0
136.406311 140.0
136.964783 172.0
137.071945 172.0
137.309738 180.0
137.657471 180.0
138.059616 144.0
138.811127 204.0
138.902603 140.0
139.029297 260.0
139.132584 188.0
139.193634 140.0
139.562546 144.0
139.67543 220.0
139.870514 128.0
139.901337 168.0
140.007294 156.0
140.18869 224.0
140.21933 148.0
140.743042 228.0
141.222778 144.0
141.433365 176.0
141.599106 140.0
141.767319 200.0
142.716827 160.0
142.785782 144.0
143.078293 168.0
143.42865 152.0
143.700516 144.0
144.041855 164.0
144.088394 396.0
144.171326 120.0
144.601105 184.0
144.951065 184.0
145.042831 296.0
145.081039 320.0
145.154816 192.0
145.365921 168.0
145.557953 184.0
145.912292 212.0
146.021774 212.0
146.060822 2412.0
146.096985 404.0
146.182968 184.0
146.544159 188.0
146.597168 192.0
146.851501 228.0
147.004715 176.0
147.068359 256.0
147.106079 212.0
147.395905 156.0
147.473251 140.0
148.075897 4432.0
148.165329 160.0
148.405273 200.0
148.431946 176.0
148.681808 160.0
149.048508 144.0
149.076599 524.0
149.230804 140.0
149.439987 148.0
149.697998 176.0
150.029373 172.0
150.057861 152.0
150.346466 188.0
150.610153 176.0
150.644348 168.0
150.666336 160.0
150.751862 152.0
150.974319 152.0
151.360962 168.0
151.924683 152.0
151.986023 172.0
152.219223 256.0
152.244171 148.0
152.300262 148.0
153.003571 144.0
153.166107 192.0
153.651749 180.0
154.064041 200.0
154.338379 188.0
154.801117 140.0
154.864761 160.0
155.058594 180.0
155.425781 224.0
155.510162 164.0
155.562286 304.0
155.785797 200.0
156.047745 200.0
156.080383 196.0
156.259369 156.0
156.865814 144.0
156.890747 172.0
157.083984 136.0
157.307358 144.0
157.3423 152.0
157.38974 144.0
157.423004 188.0
157.687027 176.0
157.819519 248.0
157.887115 120.0
158.061447 204.0
158.09761 164.0
158.154739 180.0
158.247375 152.0
158.460266 168.0
159.060593 340.0
159.459 140.0
159.491684 160.0
159.534409 152.0
159.572128 180.0
159.788422 156.0
160.037628 184.0
160.075623 3100.0
160.554184 164.0
160.821625 204.0
160.905991 152.0
161.049377 260.0
161.075592 364.0
161.114548 140.0
161.508896 184.0
161.615158 240.0
161.926529 164.0
162.027847 164.0
162.056259 4580.0
162.086945 148.0
162.177948 224.0
162.989471 192.0
163.0625 3412.0
163.104324 376.0
163.202454 96.0
163.317429 184.0
163.867294 176.0
164.071228 8704.0
164.185928 172.0
164.504883 176.0
164.740463 120.0
164.844574 156.0
165.073654 1672.0
165.587433 164.0
165.835007 160.0
165.963593 152.0
166.080307 192.0
166.181213 148.0
167.265732 148.0
167.368713 152.0
167.873779 180.0
167.96994 184.0
168.493256 156.0
168.526855 176.0
168.754303 140.0
169.028488 188.0
169.062851 156.0
169.134598 152.0
169.300293 184.0
169.743423 144.0
170.066071 144.0
170.094635 324.0
170.483276 196.0
170.816086 176.0
171.063919 348.0
171.0905 372.0
171.174911 156.0
171.649506 140.0
171.731674 144.0
171.801056 156.0
171.828598 176.0
172.072205 536.0
172.113983 148.0
172.206787 180.0
172.320328 200.0
173.042206 176.0
173.072021 2744.0
173.102661 320.0
173.291016 172.0
173.487579 176.0
173.689499 200.0
173.968765 132.0
174.007034 284.0
174.063431 676.0
174.092346 5312.0
174.211884 172.0
174.331238 208.0
174.716644 192.0
174.758743 232.0
175.091721 952.0
175.432968 148.0
175.503799 120.0
175.70639 224.0
175.775848 176.0
175.841812 228.0
175.860291 220.0
176.013 196.0
176.071548 11768.0
176.313858 104.0
176.605408 228.0
176.843536 140.0
176.88588 144.0
176.904419 172.0
176.950241 208.0
177.074615 1264.0
177.747238 140.0
178.041916 232.0
178.075638 536.0
178.23259 108.0
178.57251 124.0
178.626663 160.0
178.86348 144.0
180.007248 204.0
180.691513 212.0
180.993973 160.0
181.438736 188.0
181.511139 152.0
181.957809 152.0
182.413239 192.0
182.657944 168.0
182.709061 172.0
183.059799 188.0
183.093979 316.0
183.468521 164.0
183.835342 144.0
184.075851 2168.0
184.870377 156.0
184.9245 188.0
185.07814 424.0
185.119431 152.0
185.492233 240.0
186.010696 160.0
186.090347 116.0
186.44873 140.0
186.90831 144.0
187.009003 216.0
187.053101 200.0
187.08699 200.0
187.289459 176.0
187.401154 144.0
187.698257 204.0
188.07019 572.0
188.103699 348.0
188.159378 144.0
188.596466 164.0
189.065842 3008.0
189.102463 184.0
189.127106 220.0
189.203751 196.0
189.225327 232.0
189.31601 200.0
189.452957 152.0
189.606415 176.0
189.803787 148.0
190.085052 900.0
190.13298 316.0
190.160431 144.0
190.286697 192.0
190.902206 168.0
191.053482 152.0
191.076996 120.0
191.708801 196.0
192.098053 136.0
192.395615 204.0
192.423218 176.0
192.775497 164.0
192.945389 176.0
193.612259 140.0
193.885452 236.0
194.482834 144.0
194.846619 172.0
194.904968 280.0
195.973434 148.0
196.241013 200.0
196.388809 236.0
196.52272 148.0
196.545044 184.0
196.94426 212.0
197.064392 152.0
197.106308 172.0
197.811111 164.0
197.928696 148.0
198.039795 196.0
198.089264 708.0
198.133163 176.0
199.048721 536.0
199.086365 140.0
199.258194 152.0
199.761414 152.0
199.913345 144.0
200.009048 144.0
200.069916 1700.0
200.103348 120.0
200.412674 136.0
200.601685 120.0
200.76413 148.0
201.066315 4928.0
201.102097 2076.0
201.248581 212.0
201.289551 212.0
201.659103 220.0
202.085648 11548.0
202.673615 156.0
203.089493 1472.0
203.114197 612.0
203.471054 212.0
204.098267 380.0
204.121231 340.0
204.193832 168.0
204.313309 148.0
204.375076 164.0
204.492584 184.0
204.677628 164.0
204.726028 140.0
205.008072 252.0
205.142029 164.0
206.012421 148.0
206.412552 156.0
206.538391 208.0
206.649963 144.0
206.775879 152.0
206.83313 164.0
207.070206 144.0
207.161301 4972.0
207.308563 148.0
207.683121 156.0
207.935577 164.0
208.042847 148.0
208.078018 196.0
208.164673 580.0
208.341507 220.0
208.393143 144.0
208.953873 228.0
209.109268 240.0
209.382782 204.0
209.507401 152.0
210.490173 160.0
210.859955 180.0
211.484695 160.0
211.9104 240.0
212.359726 140.0
212.699219 188.0
213.105789 208.0
213.326675 220.0
213.58548 204.0
214.083908 312.0
214.164719 356.0
214.260849 168.0
214.35408 220.0
214.773911 156.0
215.082382 648.0
215.117462 496.0
215.483292 176.0
215.66156 156.0
216.003662 148.0
216.09996 1328.0
216.152878 184.0
216.264099 160.0
216.56311 128.0
216.756104 232.0
216.896774 156.0
217.055099 172.0
217.116913 428.0
217.250168 132.0
217.410049 168.0
217.559753 148.0
218.070862 148.0
218.118835 7632.0
218.173752 176.0
218.220795 212.0
218.35289 204.0
219.078873 1548.0
219.121643 1176.0
219.967804 196.0
220.077164 204.0
220.201065 164.0
220.239471 144.0
220.283783 156.0
220.779251 164.0
220.804001 148.0
221.58844 188.0
222.068665 176.0
222.415833 160.0
223.506531 168.0
223.941177 140.0
223.979904 216.0
224.149719 148.0
224.379227 152.0
224.946045 152.0
225.096786 212.0
225.161026 164.0
225.223328 140.0
225.510605 140.0
225.734818 156.0
225.779678 188.0
226.083969 792.0
226.43512 148.0
226.575897 176.0
227.094498 160.0
227.543503 140.0
227.658722 176.0
227.956131 360.0
227.977173 160.0
228.088058 600.0
228.160522 208.0
228.629761 152.0
228.718719 180.0
229.097275 348.0
229.575714 160.0
229.838165 140.0
230.100327 156.0
230.224548 148.0
230.402771 172.0
230.709427 136.0
231.070923 180.0
231.22525 164.0
231.473495 204.0
231.546173 164.0
231.952271 136.0
232.07579 208.0
232.267548 208.0
233.029541 160.0
233.248352 176.0
233.488556 156.0
233.558502 172.0
233.826263 156.0
234.036301 140.0
234.334793 164.0
234.535934 152.0
234.709702 200.0
235.356598 208.0
235.573441 224.0
235.903473 196.0
235.934052 180.0
236.053299 176.0
236.790833 232.0
237.032852 156.0
237.09108 232.0
237.28447 132.0
237.363907 180.0
237.45285 148.0
237.704407 176.0
238.306244 148.0
238.346191 172.0
238.650803 160.0
238.98114 248.0
239.031906 148.0
239.268921 176.0
239.348969 180.0
239.450592 148.0
239.483551 160.0
239.767929 188.0
240.04538 148.0
240.066971 148.0
240.577591 220.0
240.755157 144.0
241.094986 156.0
241.73204 176.0
241.892975 140.0
241.993561 212.0
242.122101 184.0
242.239807 144.0
242.373032 164.0
242.472198 140.0
243.113327 4876.0
243.194855 148.0
243.456711 108.0
243.707275 188.0
244.005646 172.0
244.117554 732.0
244.409988 144.0
245.128021 3932.0
245.163589 144.0
245.366196 276.0
245.765427 160.0
246.077545 156.0
246.131821 632.0
246.323044 168.0
246.371124 328.0
246.542969 180.0
246.646118 192.0
247.591019 180.0
247.672455 232.0
247.935638 140.0
248.114304 192.0
248.164856 96.0
248.326904 200.0
248.90184 160.0
249.846252 152.0
250.590912 220.0
250.653931 140.0
250.73587 160.0
251.347458 128.0
251.401306 176.0
252.209839 180.0
252.431152 160.0
252.491241 172.0
252.608276 164.0
252.665222 160.0
253.057678 200.0
253.761047 148.0
253.995728 200.0
254.084564 208.0
254.116287 232.0
254.455887 188.0
254.757599 144.0
254.82431 196.0
254.919632 188.0
255.30748 164.0
255.345642 220.0
255.39653 160.0
255.571503 204.0
256.954315 184.0
257.034088 156.0
257.503357 144.0
257.548065 192.0
258.014648 196.0
258.638428 152.0
259.247253 216.0
260.078522 172.0
260.139557 1872.0
260.222107 148.0
260.331268 164.0
260.693237 196.0
261.14032 552.0
261.39212 148.0
261.610962 188.0
261.67215 180.0
262.142426 156.0
262.332581 148.0
262.461548 176.0
262.567963 148.0
263.150269 184.0
263.559937 140.0
264.199188 192.0
264.28653 208.0
264.458069 208.0
265.261383 224.0
265.514282 152.0
265.871155 160.0
266.056152 172.0
266.289978 168.0
267.382385 300.0
267.909882 180.0
268.134705 176.0
268.718719 168.0
269.289703 176.0
269.529694 208.0
269.58374 168.0
269.714447 140.0
271.338196 148.0
271.412659 152.0
271.548065 164.0
271.935211 148.0
272.087372 96.0
272.289795 196.0
272.329895 176.0
272.361786 252.0
272.492737 144.0
272.690643 224.0
273.703888 128.0
273.802673 152.0
274.247467 144.0
274.821289 148.0
276.794647 184.0
277.064941 120.0
277.382538 224.0
278.273468 188.0
278.807678 176.0
279.533447 132.0
279.782867 156.0
280.222504 144.0
280.315887 132.0
280.439117 196.0
280.972656 168.0
281.827545 156.0
282.34552 192.0
282.78656 176.0
282.834015 144.0
283.330688 152.0
283.694916 244.0
283.825684 228.0
283.953125 228.0
283.983307 188.0
284.043671 192.0
284.936676 176.0
285.05426 152.0
285.467743 164.0
285.808838 180.0
285.874786 200.0
286.453918 176.0
286.758423 172.0
286.931183 148.0
287.128021 168.0
287.352875 164.0
287.39743 204.0
287.455261 192.0
287.512085 144.0
287.58609 184.0
287.660004 164.0
287.706146 164.0
287.748932 172.0
287.775208 200.0
287.909271 196.0
287.933563 292.0
287.977753 248.0
288.044769 292.0
288.147003 127596.0
288.265594 100.0
288.402039 256.0
288.476013 164.0
288.567383 216.0
288.657288 144.0
288.704285 552.0
288.912109 184.0
289.05307 144.0
289.148621 16832.0
289.204681 140.0
289.347351 164.0
289.426788 100.0
289.521484 136.0
289.60672 96.0
289.739441 124.0
289.779785 228.0
289.873199 152.0
290.03476 200.0
290.150116 2924.0
290.203461 104.0
290.391663 208.0
290.665253 140.0
290.728363 104.0
290.770264 132.0
290.806854 112.0
291.035187 124.0
291.072083 132.0
291.112091 96.0
291.146332 468.0
291.213196 144.0
291.307617 120.0
292.039124 224.0
292.956512 136.0
293.077454 140.0
293.989868 216.0
294.401001 212.0
295.190399 180.0
296.032227 144.0
297.163391 192.0
297.623322 152.0
298.372345 180.0
299.187714 188.0
300.138641 168.0
300.709625 164.0
300.766113 164.0
301.066925 180.0
301.429626 196.0
301.796051 156.0
302.550293 148.0
302.882721 144.0
303.42334 184.0
304.485168 140.0
304.550323 136.0
304.730438 124.0
306.130127 180.0
306.265961 148.0
306.343689 140.0
307.119934 140.0
308.107849 208.0
310.165527 284.0
310.523163 192.0
312.993683 192.0
313.176819 148.0
314.993408 156.0
315.505829 180.0
316.003967 144.0
316.886108 152.0
316.978241 152.0
317.758301 148.0
318.28064 152.0
318.415009 156.0
320.319702 132.0
321.01297 152.0
321.822968 312.0
322.726959 164.0
322.769867 152.0
323.91156 240.0
324.55307 176.0
324.960052 120.0
325.188049 148.0
326.758484 160.0
326.927521 140.0
327.006683 160.0
327.121887 248.0
327.209534 176.0
327.237091 180.0
328.203613 160.0
328.249603 144.0
328.899017 148.0
329.007294 172.0
329.104797 176.0
331.158875 148.0
334.816254 188.0
335.016571 140.0
335.611389 176.0
337.209595 148.0
339.032196 200.0
340.573151 164.0
340.782562 152.0
341.278748 156.0
341.878357 140.0
342.077118 172.0
342.227112 124.0
343.680298 156.0
343.879578 144.0
344.19339 168.0
344.711426 116.0
346.40509 148.0
347.650879 168.0
348.088928 176.0
348.744385 176.0
349.188965 228.0
349.553528 224.0
349.635406 148.0
350.562714 192.0
350.819885 140.0
351.197083 104.0
351.655457 152.0
352.607849 268.0
353.228546 168.0
353.834778 180.0
353.947113 160.0
354.295441 168.0
354.891357 152.0
356.834137 156.0
357.152161 176.0
357.765533 184.0
360.175201 168.0
360.522797 208.0
361.018036 172.0
362.373169 160.0
362.979645 212.0
364.213074 140.0
364.285248 164.0
364.399231 148.0
364.467621 164.0
366.011963 144.0
366.891571 176.0
367.313751 140.0
367.505005 136.0
367.78775 200.0
368.073273 180.0
368.357513 140.0
368.42627 152.0
368.566681 124.0
368.753632 132.0
368.883392 124.0
368.914215 100.0
368.971375 176.0
369.026245 276.0
369.069305 208.0
369.09729 164.0
369.175568 216.0
369.269318 124.0
369.338257 352.0
369.42453 356.0
369.478821 200.0
369.529724 180.0
369.562653 104.0
369.603882 240.0
369.66391 248.0
369.695923 292.0
369.755798 140.0
369.839966 144.0
369.900177 144.0
369.950958 232.0
370.038086 404.0
370.069489 432.0
370.118439 264.0
370.225769 175460.0
370.361938 224.0
370.478607 168.0
370.522095 140.0
370.564514 108.0
370.611115 336.0
370.638916 124.0
370.684204 176.0
370.7323 224.0
370.787903 240.0
370.85495 1112.0
370.907654 140.0
370.953705 100.0
371.006927 148.0
371.057007 156.0
371.09848 208.0
371.13147 212.0
371.166779 172.0
371.226746 32104.0
371.323059 104.0
371.366028 112.0
371.507324 228.0
371.588776 200.0
371.655914 112.0
371.730957 172.0
371.760406 224.0
371.83371 224.0
371.971527 148.0
372.026062 140.0
372.060272 200.0
372.148376 208.0
372.228943 4144.0
372.317322 136.0
372.429108 168.0
372.737854 104.0
373.008606 116.0
373.129517 172.0
373.230835 304.0
373.389862 100.0
373.439453 216.0
373.467346 140.0
373.554871 104.0
373.718628 112.0
373.780518 124.0
373.895355 108.0
374.287354 120.0
374.361176 96.0
374.390839 144.0
374.469421 160.0
374.61554 108.0
374.790192 108.0
375.14856 104.0
381.21701 96.0
386.26416 144.0
408.170776 148.0
516.135986 140.0
583.681152 104.0
623.383667 96.0
834.618896 140.0
885.636719 220.0
950.393982 184.0
986.309143 192.0
993.792969 196.0
1089.119507 144.0
1133.720337 188.0
1237.565063 168.0
1239.435181 192.0
1245.651245 192.0
1247.429199 256.0
1252.84082 264.0
1252.932373 160.0
1323.975952 192.0
1355.893921 228.0
1356.612183 152.0
1362.953491 216.0
1364.702881 200.0
1375.333374 172.0
1379.876587 164.0
1418.283081 220.0
1423.497314 156.0
1433.035156 164.0
1438.125488 156.0
1452.578003 180.0
1454.300537 164.0
1455.773315 144.0
1495.030029 192.0
1495.661133 176.0
1507.237183 188.0
1509.633545 164.0
1536.540405 228.0
1547.08313 196.0
1552.262207 220.0
1554.270264 228.0
1565.787109 164.0
1569.798462 164.0
1576.627075 216.0
1586.005981 180.0
1591.059204 192.0
1598.045288 172.0
1601.109985 188.0
1604.361084 176.0
1606.338745 212.0
1610.665283 164.0
1612.646851 160.0
1642.291138 164.0
1642.444336 228.0
1645.099243 144.0
1645.268799 192.0
1648.23291 220.0
1651.636597 160.0
1658.884033 224.0
1660.311035 184.0
1667.374268 148.0
1686.364502 152.0
1689.766357 276.0
1690.330933 144.0
1693.62207 140.0
1698.581299 204.0
1703.785889 148.0
1704.78833 196.0
1705.026733 184.0
1710.743286 160.0
1711.838379 256.0
1714.186157 156.0
1714.342651 200.0
1716.230347 200.0
1724.832886 220.0
1728.927002 164.0
1732.951538 224.0
1735.255615 148.0
1737.279175 208.0
1739.802124 152.0
1748.455078 212.0
1751.977295 168.0
1754.210693 216.0
1754.594116 216.0
1757.321411 168.0
1766.971436 156.0
1769.599487 200.0
1770.378296 212.0
1770.72998 148.0
1776.371094 152.0
1776.463379 168.0
1784.904297 220.0
1793.230225 172.0
1800.781616 180.0
1802.217773 168.0
1803.409302 196.0
1821.347168 184.0
1821.797363 180.0
1827.629761 140.0
1831.111572 172.0
1831.750366 204.0
1837.598755 144.0
1838.495483 160.0
1839.7323 184.0
1840.526367 196.0
1840.995972 152.0
1842.208862 200.0
1846.003784 168.0
1847.055786 144.0
1847.449341 140.0
1848.244995 148.0
1849.717041 156.0
1852.251709 208.0
1857.703613 212.0
1865.673096 156.0
1874.366089 168.0
1878.849609 180.0
1878.979004 140.0
1879.729736 220.0
1881.576782 168.0
1883.312622 168.0
1885.30835 180.0
1885.930664 212.0
1886.622192 172.0
1887.746216 164.0
1888.965698 208.0
1890.21167 184.0
1890.808716 212.0
1901.156494 148.0
1902.345703 144.0
1906.81897 152.0
1910.210083 188.0
1912.098267 148.0
1916.373901 148.0
1918.317383 192.0
1918.834229 172.0
1919.39856 176.0
1920.410156 200.0
1923.839478 164.0
1924.529175 160.0
1932.955566 176.0
1933.804565 152.0
1935.056274 140.0
1936.238525 184.0
1936.518799 160.0
1937.859009 140.0
1944.909912 156.0
1950.531616 160.0
1951.929443 188.0
1952.325195 220.0
1955.28125 156.0
1955.624512 148.0
1959.428711 148.0
1960.089478 148.0
1961.182373 180.0
1961.261719 196.0
1966.67749 164.0
1972.418945 152.0
1975.372437 192.0
1977.487183 228.0
1978.717651 168.0
1978.797363 164.0
1979.000977 168.0
1982.597412 164.0
1984.716064 204.0
1985.593994 280.0
1986.436646 204.0
1987.314941 148.0
1988.291138 176.0
1989.294067 156.0
1997.425049 196.0
2002.382812 196.0
