>compound Zacopride
>formula C15H20ClN3O2
>ionization [M+H]+
>parentmass 310.1316810120905
#inchi InChI=1S/C15H20ClN3O2/c1-21-14-7-12(17)11(16)6-10(14)15(20)18-13-8-19-4-2-9(13)3-5-19/h6-7,9,13H,2-5,8,17H2,1H3,(H,18,20)
#inchikey FEROPKNOYKURCJ
#Ion_Source LC-ESI
#Instrument qTof
#Compound_Source Commercial
#PI Dorrestein
#Data_Collector Garg_Neha
#Scan -1
#Precursor_MZ 310.132
#ExactMass 309.124
#Charge 1
#CAS_Number N/A
#Pubmed_ID N/A
#Smiles COc1cc(N)c(Cl)cc1C(=O)NC2CN3CCC2CC3
#INCHI_AUX N/A
#Library_Class 1
#SpectrumID CCMSLIB00000079148
#IonMode Positive
#UpdateWorkflowName UPDATE-SINGLE-ANNOTATED-GOLD
#LibraryQualityString Gold
#TaskID 278b19f5865741e282cec7349aa7e7a1
##Scan# 1026
#SpectrumFile NCP003592_A2_B11_BD8_01_15734.mzXML
#LibraryName NIHcollectionI_05062014.mgf
#MQScore -1
#Organism NIHcollectionI_05062014
#TIC_Query 0
#RT_Query -1
#MZErrorPPM -1
#SharedPeaks 0
#MassDiff 0
#LibMZ -1
#SpecMZ 310.132
#SpecCharge 0
#internalFilename spec-00000.mgf

>collision 10
45.02599 148.0
45.251976 148.0
45.296169 156.0
45.349766 244.0
45.518803 164.0
45.936607 196.0
46.200806 148.0
46.524696 160.0
46.649677 140.0
47.141708 208.0
47.223518 200.0
47.414043 156.0
47.536095 196.0
47.720154 172.0
48.123287 140.0
48.310425 152.0
48.79443 164.0
49.040821 168.0
49.163551 172.0
49.192863 188.0
49.658813 224.0
49.671436 196.0
49.801975 200.0
50.119915 232.0
50.170654 144.0
50.337143 144.0
50.885105 200.0
51.283417 152.0
51.301949 140.0
51.680416 176.0
52.014336 144.0
52.084694 204.0
52.438648 152.0
53.369476 156.0
53.453842 268.0
53.700047 168.0
53.821171 176.0
54.6758 156.0
55.134457 236.0
55.371166 144.0
56.101665 256.0
56.483013 148.0
58.069088 184.0
58.240597 188.0
58.407795 156.0
58.555435 164.0
58.576759 152.0
59.000999 140.0
59.284164 168.0
59.417561 160.0
59.434441 188.0
59.449783 180.0
59.554184 144.0
59.920296 220.0
60.447704 196.0
60.485504 164.0
60.632645 144.0
60.660545 200.0
60.970966 168.0
61.050255 156.0
62.930649 144.0
63.004879 176.0
63.090218 144.0
63.448002 232.0
63.600288 168.0
64.326141 160.0
64.602592 208.0
64.841171 188.0
65.830559 160.0
65.988907 188.0
66.079475 160.0
66.189545 164.0
66.41481 144.0
66.925095 172.0
67.202171 140.0
67.215225 160.0
68.261955 276.0
69.159439 164.0
69.185921 156.0
70.196121 144.0
70.299545 140.0
70.759209 156.0
70.95858 216.0
71.326218 152.0
71.428787 212.0
71.784157 208.0
71.971458 168.0
72.309547 184.0
72.36541 140.0
72.706123 152.0
73.187195 164.0
73.342216 268.0
73.434288 180.0
73.476936 180.0
73.962257 196.0
73.993065 164.0
74.065773 128.0
74.676025 148.0
75.503868 152.0
75.535004 144.0
75.820686 236.0
75.877884 164.0
76.451088 140.0
76.48938 160.0
77.206467 188.0
77.267685 204.0
77.281685 212.0
77.571114 112.0
78.246994 188.0
78.521889 152.0
78.747795 180.0
78.841431 160.0
79.331978 136.0
79.67955 168.0
80.028145 172.0
80.488167 184.0
80.808105 156.0
81.031906 192.0
81.123299 200.0
82.009476 168.0
82.022087 168.0
82.193146 184.0
82.527573 160.0
82.764603 180.0
82.804443 164.0
82.832855 140.0
82.958458 184.0
83.905609 168.0
84.12635 192.0
84.268799 168.0
84.739006 168.0
85.091141 192.0
85.199493 148.0
86.070763 148.0
86.327515 216.0
86.347862 144.0
86.486626 140.0
86.65699 188.0
87.039078 200.0
87.278778 160.0
87.34201 160.0
87.93824 156.0
88.674088 184.0
88.892685 144.0
88.995926 164.0
89.669373 168.0
89.722076 104.0
89.754204 144.0
89.893257 172.0
89.974945 168.0
90.037262 216.0
90.085266 164.0
90.91188 200.0
91.027679 144.0
91.215767 148.0
91.310837 168.0
91.463043 144.0
91.554436 172.0
91.767853 152.0
92.301567 168.0
92.819481 232.0
93.070389 428.0
93.347542 140.0
93.459106 156.0
93.624657 172.0
93.672806 156.0
93.751801 188.0
93.934967 140.0
93.967758 176.0
94.072563 224.0
94.82827 168.0
95.07695 220.0
95.558121 160.0
95.622627 148.0
95.663498 156.0
95.710228 176.0
95.795921 200.0
95.850471 156.0
95.875801 140.0
95.969368 172.0
96.082344 204.0
97.394051 140.0
97.90197 156.0
98.090614 156.0
98.161591 184.0
98.664619 176.0
99.09079 180.0
99.374092 188.0
99.423698 160.0
99.594437 144.0
100.480278 208.0
100.530167 152.0
100.639954 152.0
100.681885 152.0
100.781761 180.0
100.907677 152.0
101.049675 192.0
101.209801 224.0
101.285896 168.0
101.42215 148.0
101.500336 180.0
101.879669 176.0
102.409676 248.0
103.251503 148.0
103.395966 140.0
103.424301 196.0
103.630859 216.0
103.882439 216.0
103.925552 128.0
103.941086 164.0
104.420509 156.0
104.623993 144.0
104.731918 152.0
104.754318 148.0
105.059326 148.0
105.437843 164.0
105.454193 208.0
105.508385 220.0
105.803978 216.0
105.830597 160.0
106.2528 180.0
106.287682 212.0
106.53302 124.0
106.957649 164.0
107.413033 148.0
107.761917 208.0
108.082336 1388.0
108.511139 192.0
108.683289 156.0
108.826508 140.0
108.905716 140.0
109.090622 304.0
109.288918 140.0
109.414879 140.0
109.639839 160.0
109.685692 168.0
109.854599 176.0
110.011887 160.0
110.056793 172.0
110.09655 12124.0
110.437378 184.0
110.663383 144.0
110.71067 164.0
110.889618 160.0
111.021698 196.0
111.100098 896.0
111.122383 164.0
111.409996 196.0
111.576019 188.0
111.605453 184.0
112.080536 260.0
112.629662 148.0
112.934029 224.0
113.016533 160.0
113.164688 228.0
113.39135 144.0
113.998299 168.0
114.016983 172.0
114.247063 168.0
114.327919 184.0
114.366226 196.0
114.408798 168.0
114.542953 152.0
115.086777 216.0
115.170059 152.0
115.42865 236.0
115.625458 216.0
115.950989 192.0
116.33493 156.0
117.014275 220.0
117.300797 148.0
117.330978 176.0
117.49382 96.0
117.816544 160.0
118.028351 148.0
118.745148 144.0
119.737343 108.0
119.989876 136.0
120.584869 164.0
120.683243 248.0
120.810959 220.0
120.884476 180.0
121.331299 192.0
121.44313 180.0
121.896103 192.0
122.170204 164.0
122.293427 168.0
122.356796 132.0
122.643631 168.0
122.793564 176.0
122.943581 212.0
123.38092 172.0
123.460518 168.0
123.546783 164.0
123.86776 176.0
124.390442 140.0
124.675377 180.0
124.822548 156.0
125.065201 108.0
125.106934 300.0
125.42765 208.0
125.651657 160.0
125.726311 176.0
126.009644 400.0
126.110123 252.0
126.712601 216.0
127.121391 140.0
127.369888 144.0
127.817276 148.0
127.996681 148.0
128.029282 332.0
128.107208 4264.0
128.233887 148.0
128.545105 152.0
129.008118 176.0
129.110306 884.0
129.136429 144.0
129.157349 192.0
129.363266 148.0
129.976379 176.0
130.022018 360.0
130.261246 240.0
130.586792 144.0
130.939056 180.0
131.073456 168.0
131.207932 184.0
131.271774 164.0
131.534149 144.0
131.552399 144.0
131.773926 176.0
132.020798 156.0
132.174057 172.0
132.279327 160.0
132.700851 168.0
133.295334 144.0
133.50795 116.0
133.762207 152.0
133.817459 316.0
134.041534 212.0
134.322144 236.0
134.389053 156.0
135.2603 176.0
135.561386 200.0
135.662369 224.0
136.073929 152.0
136.238876 144.0
136.292313 192.0
136.748505 140.0
136.920395 148.0
137.032196 148.0
137.179016 148.0
137.223312 152.0
137.510239 160.0
137.853531 140.0
138.067078 136.0
138.533951 128.0
138.541229 104.0
138.602997 112.0
139.545868 140.0
139.684631 156.0
140.03006 512.0
140.26152 172.0
140.367615 160.0
140.733353 156.0
140.790024 164.0
140.997009 1292.0
141.028641 172.0
141.140381 120.0
141.18396 156.0
141.216736 180.0
141.286392 208.0
141.50885 184.0
141.591736 144.0
141.792557 204.0
141.895035 200.0
141.932968 168.0
141.999542 276.0
142.514496 180.0
142.576279 168.0
142.790237 184.0
142.898834 184.0
142.940109 188.0
142.996887 612.0
143.071014 184.0
143.109116 152.0
143.185318 164.0
143.368744 152.0
143.435486 216.0
143.761078 120.0
143.977081 176.0
144.005737 164.0
144.036789 148.0
144.311615 140.0
145.035355 136.0
145.156845 148.0
145.247986 148.0
145.406342 212.0
145.516754 140.0
145.752136 208.0
146.12001 148.0
146.141663 176.0
146.184708 144.0
146.522064 232.0
146.548569 192.0
146.57988 196.0
146.746201 152.0
147.137039 144.0
147.787338 320.0
147.978394 144.0
148.062454 664.0
148.101883 204.0
148.433899 160.0
148.477554 152.0
148.637665 168.0
149.065887 260.0
149.101486 152.0
149.293533 148.0
149.321686 164.0
150.033737 148.0
150.059845 168.0
150.555893 148.0
151.059387 176.0
151.30899 152.0
151.424088 140.0
151.84317 172.0
151.875061 156.0
152.014893 176.0
152.204208 132.0
152.358643 180.0
152.563889 108.0
153.105118 360.0
153.128311 204.0
154.005997 584.0
154.367416 192.0
154.402023 196.0
154.582626 144.0
155.412704 144.0
156.022491 820.0
156.578552 164.0
156.867584 140.0
157.021805 188.0
157.918793 144.0
158.020721 452.0
158.668625 208.0
158.695084 144.0
158.737717 164.0
159.184372 160.0
159.64003 124.0
160.213074 156.0
160.424759 140.0
160.475174 144.0
160.57605 160.0
161.080856 176.0
161.386642 188.0
161.49791 160.0
161.557571 180.0
161.644638 176.0
161.864868 160.0
162.108047 196.0
162.884399 144.0
163.146133 152.0
163.390274 168.0
163.710983 384.0
163.825592 144.0
164.105942 168.0
164.258942 188.0
164.293991 184.0
164.501358 144.0
164.618805 220.0
164.802719 176.0
165.467697 212.0
165.772507 144.0
165.80069 148.0
166.085281 152.0
166.144272 144.0
166.370117 140.0
166.508774 184.0
166.732285 164.0
166.876221 196.0
167.226074 152.0
167.584015 152.0
168.010056 440.0
168.202942 196.0
168.815262 148.0
168.934235 164.0
168.992584 776.0
169.098694 244.0
169.903107 164.0
169.960266 144.0
170.000687 1724.0
170.03656 3836.0
170.186005 180.0
170.212479 260.0
170.30806 184.0
170.568741 256.0
170.853943 176.0
170.989212 292.0
171.039551 512.0
171.460632 204.0
171.864822 184.0
171.976852 116.0
171.997452 112.0
172.032806 1544.0
172.185898 164.0
173.077621 140.0
173.737823 240.0
173.798431 188.0
174.005768 164.0
174.101837 144.0
174.186966 148.0
174.478668 216.0
174.66275 148.0
174.823227 164.0
174.870605 200.0
175.083847 200.0
175.249802 232.0
175.294601 164.0
175.89856 168.0
176.059616 152.0
176.408386 164.0
176.51413 164.0
176.773361 180.0
177.206619 132.0
177.732681 112.0
177.86528 140.0
178.489609 164.0
179.208267 160.0
179.688171 144.0
180.059204 140.0
180.091248 180.0
180.355774 152.0
180.438629 180.0
180.692703 144.0
180.836273 160.0
180.909317 136.0
181.021317 140.0
181.056747 196.0
181.107635 180.0
181.63298 164.0
182.004929 128.0
182.275757 100.0
182.637085 112.0
182.995468 148.0
183.032516 5340.0
183.210922 156.0
183.286362 180.0
183.657028 300.0
183.759674 200.0
183.892349 152.0
183.925522 168.0
183.974884 268.0
184.016907 140692.0
184.109955 300.0
184.360199 140.0
184.407211 128.0
184.459763 320.0
184.650894 148.0
184.745224 104.0
184.774536 132.0
184.905273 120.0
185.019547 8392.0
185.079056 128.0
185.112381 184.0
185.168274 112.0
185.21109 196.0
185.376633 104.0
185.715958 140.0
185.76416 124.0
185.790726 188.0
185.865173 132.0
185.977203 148.0
186.014023 31336.0
186.064529 216.0
186.261398 96.0
186.307037 292.0
186.330826 176.0
186.371506 176.0
186.397614 108.0
186.526962 128.0
186.577209 108.0
186.750031 120.0
186.821136 100.0
186.891479 168.0
187.016113 1468.0
187.10672 148.0
187.342453 96.0
187.534088 236.0
187.707443 176.0
188.028824 184.0
188.10112 136.0
188.143341 200.0
188.411804 164.0
189.028503 144.0
189.525162 192.0
189.574478 184.0
190.114716 148.0
190.43718 140.0
190.680725 236.0
190.837128 164.0
191.100632 144.0
191.164459 172.0
191.406693 204.0
192.106735 164.0
192.501419 164.0
192.879913 156.0
194.361557 180.0
194.653015 176.0
194.71965 200.0
194.978027 148.0
195.075317 156.0
195.34227 140.0
195.434067 156.0
195.49353 196.0
196.738388 176.0
197.94783 212.0
198.105865 180.0
198.697388 148.0
199.416245 240.0
199.771622 124.0
199.883072 140.0
200.004089 144.0
200.130768 164.0
200.350662 260.0
200.714478 124.0
201.042587 3988.0
201.278351 148.0
201.326355 240.0
201.647125 96.0
201.786942 208.0
202.045288 408.0
202.121262 140.0
202.15181 212.0
202.259354 180.0
203.041138 856.0
203.566345 144.0
203.770844 160.0
203.844727 164.0
203.887344 188.0
204.330933 144.0
204.390671 184.0
204.562119 116.0
204.746506 156.0
205.573227 140.0
206.62471 144.0
207.157181 148.0
207.764923 164.0
208.089447 200.0
208.192596 216.0
208.229919 164.0
208.560333 184.0
208.688644 152.0
208.856491 156.0
208.994583 140.0
209.031982 156.0
209.10968 148.0
209.322723 148.0
209.740463 188.0
210.076965 172.0
210.594513 156.0
210.86322 148.0
210.944138 164.0
211.025574 252.0
211.13208 148.0
211.519775 192.0
211.825012 204.0
212.083099 160.0
212.484787 220.0
212.531204 144.0
212.612885 272.0
212.743073 148.0
212.774994 232.0
213.026749 116.0
213.070648 140.0
213.114807 160.0
213.18454 180.0
213.731216 160.0
214.121292 152.0
214.540878 148.0
215.039673 192.0
215.2995 172.0
215.526917 136.0
215.714401 176.0
216.077026 188.0
216.984818 128.0
217.410233 148.0
217.580139 184.0
218.07103 208.0
218.225021 176.0
218.386719 140.0
218.832916 208.0
218.974258 192.0
219.50029 112.0
219.640366 196.0
220.204788 160.0
220.404999 156.0
220.656219 148.0
222.056839 164.0
222.110229 216.0
222.799072 156.0
223.070908 152.0
223.215027 196.0
223.441071 192.0
223.682327 112.0
224.075577 164.0
224.510391 220.0
224.537231 156.0
224.951981 140.0
225.063049 212.0
225.390991 180.0
225.98175 124.0
226.018921 168.0
226.098495 256.0
226.929459 160.0
227.05603 132.0
227.499466 196.0
227.796753 228.0
227.948273 120.0
229.319275 248.0
229.623779 228.0
229.653946 168.0
229.720306 152.0
229.955658 188.0
230.800186 192.0
230.831741 160.0
231.153763 124.0
231.894333 152.0
232.012878 496.0
232.124741 176.0
232.670868 148.0
232.778519 144.0
233.00798 140.0
233.065704 152.0
233.163467 140.0
233.862457 216.0
234.136475 208.0
234.374069 168.0
234.986923 144.0
235.878647 180.0
235.930603 156.0
235.997864 172.0
236.077286 136.0
236.196655 152.0
236.435303 200.0
237.103714 248.0
237.430954 152.0
237.989441 160.0
238.082306 148.0
238.112259 176.0
238.874527 196.0
239.05632 404.0
239.123749 172.0
240.06279 148.0
240.101059 128.0
240.214508 140.0
240.248428 168.0
240.915237 140.0
241.137711 152.0
241.189362 180.0
241.867645 152.0
242.031738 196.0
242.060837 176.0
242.462311 180.0
243.709763 152.0
244.235138 140.0
244.97908 160.0
245.022705 152.0
245.104431 104.0
245.240829 164.0
245.595886 164.0
245.898911 140.0
246.811096 140.0
246.93866 116.0
248.082199 160.0
248.141754 184.0
248.587158 140.0
248.747223 164.0
249.190018 180.0
249.648926 228.0
250.303452 152.0
250.980911 176.0
251.185898 152.0
251.356262 140.0
251.47934 148.0
251.766632 152.0
252.363861 196.0
252.708603 192.0
252.914307 152.0
253.069412 192.0
253.154907 188.0
253.40831 220.0
253.614288 156.0
254.10582 200.0
254.836243 132.0
254.87735 144.0
255.128433 212.0
255.290588 152.0
255.809204 152.0
255.85376 176.0
256.063934 140.0
256.605621 144.0
256.793762 220.0
258.154236 160.0
258.947906 140.0
259.472595 152.0
260.100525 148.0
260.246643 164.0
260.962402 140.0
261.008148 180.0
261.232941 152.0
261.600128 140.0
262.012329 140.0
262.33136 264.0
262.889343 144.0
262.999084 152.0
263.055298 144.0
263.089233 136.0
263.422058 188.0
263.622375 168.0
263.871277 188.0
264.251587 188.0
264.547394 168.0
264.876251 160.0
265.026733 140.0
265.083557 208.0
265.117981 180.0
265.48938 148.0
265.53891 180.0
266.022369 196.0
266.270447 128.0
267.065399 148.0
267.124084 864.0
267.252136 160.0
268.130859 292.0
268.338684 148.0
268.975647 124.0
269.049896 212.0
269.079254 188.0
269.125122 144.0
269.526733 184.0
269.61496 148.0
270.756714 152.0
270.845123 176.0
271.507172 200.0
271.671173 140.0
272.061707 148.0
272.790985 172.0
273.119781 172.0
273.179016 164.0
273.429077 160.0
273.863647 160.0
274.100861 232.0
274.413971 164.0
275.070465 156.0
275.167847 104.0
276.402344 164.0
276.612915 112.0
277.187134 216.0
277.803802 192.0
278.484253 148.0
278.544037 172.0
278.68689 156.0
279.109009 268.0
279.505035 148.0
279.774414 140.0
280.197388 140.0
281.083557 152.0
281.578339 160.0
282.413879 184.0
283.029633 148.0
283.068604 120.0
283.180328 172.0
283.324371 152.0
284.12561 204.0
284.340363 164.0
284.854065 152.0
285.633911 188.0
285.899719 188.0
286.22287 144.0
286.385376 156.0
286.684357 168.0
287.223816 248.0
288.76059 244.0
289.129364 156.0
289.318909 144.0
289.915039 152.0
290.81955 120.0
291.092163 144.0
291.18045 152.0
291.479401 156.0
292.120819 220.0
292.509888 152.0
292.663086 160.0
292.788116 212.0
293.067108 216.0
293.102631 328.0
293.450745 248.0
294.047089 184.0
294.426025 144.0
295.106934 464.0
295.485657 152.0
295.773102 156.0
296.050415 172.0
296.074402 208.0
296.112061 156.0
296.201141 160.0
296.254272 140.0
296.31131 168.0
296.549164 200.0
296.598602 224.0
297.10968 96.0
297.511078 236.0
297.649872 172.0
298.005615 404.0
298.167114 168.0
299.123291 204.0
299.910065 152.0
300.101685 144.0
300.223755 120.0
300.448608 164.0
300.66394 188.0
300.791656 176.0
301.043671 184.0
301.295807 160.0
301.523865 180.0
302.25528 128.0
302.731232 172.0
302.785156 180.0
303.189697 128.0
303.368744 156.0
304.260284 144.0
304.770844 140.0
304.929047 152.0
305.143311 160.0
305.407013 144.0
305.532257 160.0
305.636627 188.0
305.831512 176.0
306.005554 160.0
306.058075 140.0
306.112366 148.0
306.329437 140.0
306.752563 132.0
307.113708 156.0
307.207886 180.0
307.449554 108.0
307.474823 176.0
307.620117 184.0
307.680573 152.0
307.911011 124.0
308.005676 96.0
308.1185 452.0
308.2005 292.0
308.232361 128.0
308.297577 176.0
308.324921 112.0
308.416077 108.0
308.523651 252.0
308.562256 120.0
308.624756 184.0
308.701263 140.0
308.769196 224.0
308.801392 140.0
308.903748 140.0
308.945282 224.0
308.980469 392.0
309.013458 260.0
309.06897 160.0
309.10141 204.0
309.132782 488.0
309.16922 224.0
309.223053 196.0
309.288727 236.0
309.334686 148.0
309.401031 108.0
309.453094 332.0
309.465729 288.0
309.479187 324.0
309.537048 424.0
309.575653 328.0
309.621735 184.0
309.663269 416.0
309.706543 344.0
309.757355 316.0
309.857147 548.0
309.92041 476.0
309.969482 348.0
310.010437 524.0
310.043091 348.0
310.082825 752.0
310.13385 251076.0
310.238831 144.0
310.309479 200.0
310.369568 164.0
310.461823 1472.0
310.511353 460.0
310.566925 876.0
310.591644 488.0
310.618103 224.0
310.669281 872.0
310.715088 7804.0
310.752228 644.0
310.803619 236.0
310.883484 364.0
310.9841 388.0
311.017731 428.0
311.063019 372.0
311.135864 82364.0
311.231445 176.0
311.267914 196.0
311.297211 148.0
311.339142 236.0
311.378693 160.0
311.443817 160.0
311.529114 196.0
311.569611 172.0
311.608276 348.0
311.668365 184.0
311.717316 176.0
311.774689 160.0
311.822906 320.0
311.863037 216.0
311.923462 172.0
311.996704 156.0
312.064789 380.0
312.130615 140296.0
312.215027 104.0
312.297485 100.0
312.353943 344.0
312.38089 228.0
312.431274 260.0
312.485382 244.0
312.546295 104.0
312.65567 124.0
312.709259 996.0
312.755219 276.0
312.794037 164.0
312.848633 272.0
312.880066 228.0
312.92926 200.0
312.96817 332.0
312.99765 216.0
313.041748 256.0
313.132355 18000.0
313.185059 540.0
313.268616 344.0
313.329071 224.0
313.368408 272.0
313.42746 196.0
313.457489 184.0
313.629547 188.0
313.652588 152.0
313.811554 156.0
313.847931 124.0
313.938293 96.0
313.972412 148.0
314.125488 132.0
314.178223 132.0
314.216248 228.0
314.316895 160.0
314.370544 120.0
314.384186 132.0
314.482178 124.0
314.753876 156.0
314.81781 136.0
314.859375 196.0
315.057526 184.0
315.116821 188.0
315.177368 96.0
315.213287 144.0
315.322021 264.0
315.405548 160.0
315.649902 108.0
315.682556 104.0
316.368439 116.0
316.51825 132.0
317.326385 140.0
324.506714 140.0
325.161102 104.0
325.238098 100.0
327.838348 96.0
329.775208 108.0
330.615845 184.0
331.592163 96.0
334.663239 144.0
345.445892 152.0
361.690613 156.0
372.41272 156.0
387.993347 140.0
403.273468 140.0
455.494293 144.0
481.050629 112.0
534.218262 216.0
567.378601 148.0
657.313599 152.0
705.360901 144.0
745.518799 176.0
921.822632 112.0
1134.225098 156.0
1166.525391 208.0
1279.07605 188.0
1280.193848 160.0
1311.005249 168.0
1372.333374 112.0
1387.912231 152.0
1395.887085 156.0
1400.940674 140.0
1416.133911 160.0
1444.904297 236.0
1483.423584 152.0
1502.526123 204.0
1502.641846 176.0
1538.169189 160.0
1554.047852 168.0
1584.235352 184.0
1584.710693 200.0
1643.415161 208.0
1644.31897 272.0
1647.556885 152.0
1670.929688 168.0
1671.377197 168.0
1674.918579 184.0
1680.290649 236.0
1710.826538 184.0
1721.925049 152.0
1730.640869 196.0
1767.857788 172.0
1774.676147 240.0
1778.459473 184.0
1781.398438 156.0
1785.87854 180.0
1791.577271 184.0
1793.987427 196.0
1794.914795 180.0
1797.95166 156.0
1815.836548 140.0
1816.67627 192.0
1820.775879 148.0
1821.956543 268.0
1826.427856 164.0
1867.776367 180.0
1869.763916 148.0
1904.044312 124.0
1904.842041 200.0
1911.127563 188.0
1913.02478 148.0
1918.242676 168.0
1930.876953 140.0
1935.838867 156.0
1938.300415 144.0
1939.185425 192.0
1941.666626 196.0
1956.648315 144.0
1958.409546 252.0
1961.440552 160.0
1963.944702 148.0
1967.580322 168.0
1967.686279 152.0
1973.317627 180.0
1974.392822 192.0
