>compound MLS001141234-01!1-[2-(3,4,8-trimethyl-2-oxochromen-7-yl)oxyacetyl]piperidine-4-carboxylic acid
>formula C20H23NO6
>ionization [M+H]+
>parentmass 374.16
#inchi InChI=1S/C20H23NO6/c1-11-12(2)20(25)27-18-13(3)16(5-4-15(11)18)26-10-17(22)21-8-6-14(7-9-21)19(23)24/h4-5,14H,6-10H2,1-3H3,(H,23,24)
#inchikey LZIXQRTUMIIANS
#Ion_Source LC-ESI
#Instrument qTof
#Compound_Source NIH Natural Product Library
#PI Dorrestein
#Data_Collector VVP/LMS
#Scan -1
#Precursor_MZ 374.16
#ExactMass 373.153
#Charge 1
#CAS_Number N/A
#Pubmed_ID N/A
#Smiles Cc1c(C)c2ccc(OCC(=O)N3CCC(CC3)C(=O)O)c(C)c2oc1=O
#INCHI_AUX N/A
#Library_Class 1
#SpectrumID CCMSLIB00000079467
#IonMode Positive
#UpdateWorkflowName UPDATE-SINGLE-ANNOTATED-GOLD
#LibraryQualityString Gold
#TaskID b1d8e8f6646f4e71acdff9ca3d919d08
##Scan# 1843
#SpectrumFile p1-G06_GG6_01_17950.mzXML
#LibraryName NIH_Natural_Products_Library.mgf
#MQScore -1
#Organism NIH_Natural_Products_Library
#TIC_Query 0
#RT_Query -1
#MZErrorPPM -1
#SharedPeaks 0
#MassDiff 0
#LibMZ -1
#SpecMZ 374.16
#SpecCharge 0
#internalFilename spec-00000.mgf

>collision 10
95.04747 224.0
96.041595 176.0
96.081474 108.0
96.145004 156.0
97.154648 100.0
97.348961 204.0
97.569023 236.0
98.096619 148.0
98.188225 160.0
98.386604 176.0
99.044113 864.0
99.209579 56.0
99.390068 164.0
99.761459 164.0
100.045876 200.0
101.183891 188.0
101.422279 180.0
101.721153 136.0
101.859711 180.0
102.269905 172.0
102.300095 96.0
102.644623 192.0
103.038208 168.0
103.054108 156.0
103.106911 92.0
103.135208 240.0
103.375877 84.0
103.925003 156.0
104.217384 124.0
105.015388 196.0
105.071892 740.0
105.096992 64.0
105.374672 172.0
106.064316 152.0
106.573265 224.0
106.630524 116.0
106.715088 48.0
106.95372 184.0
107.085495 192.0
107.256516 120.0
107.919197 144.0
108.080528 212.0
108.167458 184.0
108.212997 164.0
108.268906 112.0
109.354729 196.0
109.552544 200.0
110.057259 128.0
111.028221 72.0
111.044998 224.0
111.072266 196.0
111.168777 100.0
111.248535 216.0
111.32412 196.0
111.973961 172.0
112.074142 1016.0
112.144623 156.0
112.207863 140.0
112.856041 236.0
113.079559 312.0
113.726723 120.0
113.767052 72.0
114.055153 956.0
114.094215 48.0
114.11335 88.0
114.230316 188.0
114.875771 156.0
115.049683 148.0
115.125496 156.0
115.285713 172.0
115.493095 84.0
116.059746 144.0
116.193588 192.0
116.689713 136.0
117.036118 216.0
117.06797 176.0
117.109337 84.0
117.635468 196.0
118.080574 188.0
118.240669 168.0
119.086227 128.0
119.273094 40.0
120.096146 220.0
121.066528 136.0
121.158524 72.0
121.318504 204.0
122.073799 208.0
122.718964 228.0
122.983688 216.0
124.075127 132.0
124.242798 120.0
124.282738 84.0
125.042732 116.0
125.079239 200.0
125.216393 208.0
125.376801 204.0
125.517242 168.0
126.091003 1852.0
126.244057 100.0
126.259651 88.0
126.287712 56.0
126.585365 120.0
126.614479 56.0
127.095711 172.0
127.637772 184.0
127.714233 152.0
127.826721 104.0
127.988792 224.0
128.011307 168.0
128.047043 168.0
128.069763 8980.0
128.123932 72.0
128.155472 60.0
128.18927 176.0
128.207306 80.0
128.769058 60.0
128.809723 124.0
129.074249 332.0
129.379578 52.0
129.404495 116.0
129.599274 156.0
129.721649 152.0
129.839554 132.0
130.034668 84.0
130.085602 1244.0
130.270813 68.0
130.348068 60.0
130.752853 176.0
131.082413 868.0
131.276825 172.0
131.904694 180.0
132.088913 180.0
132.488235 20.0
132.719711 112.0
133.013367 124.0
133.066177 128.0
133.099899 128.0
133.751236 152.0
134.103638 176.0
134.849136 120.0
135.079742 208.0
135.196045 176.0
136.002594 92.0
136.069901 232.0
136.448608 76.0
136.688171 136.0
136.834808 208.0
139.006241 152.0
139.405457 196.0
139.689941 160.0
140.104263 148.0
141.074188 64.0
141.696594 168.0
142.021362 196.0
142.060547 216.0
142.085403 6648.0
142.132874 272.0
142.237289 124.0
143.002655 60.0
143.089294 412.0
143.271729 88.0
143.512436 60.0
143.901352 76.0
144.056885 160.0
144.087952 372.0
144.10675 48.0
145.057953 148.0
145.227097 120.0
146.173645 60.0
146.289169 136.0
147.086212 300.0
147.116043 128.0
149.097382 208.0
150.664139 172.0
151.389664 148.0
152.320129 148.0
152.529007 200.0
154.086472 152.0
156.060654 160.0
156.91333 88.0
157.065445 136.0
157.102859 156.0
158.372711 136.0
158.455383 180.0
159.080887 2536.0
159.109756 208.0
159.288254 164.0
159.328445 140.0
159.768402 108.0
159.853943 80.0
160.084824 628.0
161.06015 144.0
161.0961 196.0
161.149994 72.0
161.286469 172.0
161.997528 128.0
162.060852 140.0
162.094955 44.0
162.509644 204.0
163.065765 184.0
163.521027 124.0
167.018692 208.0
168.080124 176.0
169.049149 80.0
170.078461 516.0
171.087631 496.0
171.425247 52.0
171.727676 140.0
172.089203 136.0
172.714981 176.0
172.741135 144.0
173.005447 180.0
173.102325 56.0
173.555634 140.0
174.063782 360.0
175.075989 604.0
176.082581 1856.0
177.083466 480.0
177.991272 108.0
178.440308 88.0
178.458923 104.0
178.690308 116.0
181.709381 188.0
182.071747 156.0
183.187988 48.0
183.670486 92.0
184.442749 164.0
185.241013 128.0
187.071991 184.0
188.071671 100.0
188.612503 216.0
188.817566 232.0
189.051208 132.0
189.091095 2384.0
189.143158 244.0
190.087631 288.0
190.118881 40.0
190.201218 120.0
199.067719 340.0
199.136871 36.0
200.887665 44.0
202.062912 160.0
202.088364 112.0
202.991943 148.0
203.071136 196.0
204.07637 1452.0
204.486267 68.0
205.082718 1320.0
205.298218 108.0
206.086227 232.0
206.672195 40.0
207.703552 236.0
208.045029 32.0
208.461502 124.0
213.221252 136.0
215.082397 204.0
215.958969 172.0
216.058426 108.0
216.078903 180.0
216.374496 52.0
216.4272 204.0
216.834396 56.0
216.887146 120.0
216.913528 68.0
217.016144 104.0
217.084869 6212.0
217.130508 32.0
217.152359 132.0
217.203827 36.0
217.462036 48.0
218.086456 932.0
219.092239 204.0
220.19722 160.0
221.326874 80.0
221.617142 64.0
226.730698 112.0
227.066101 184.0
230.356369 76.0
231.911667 88.0
236.070465 140.0
237.534454 316.0
238.57547 148.0
239.126068 156.0
241.078262 128.0
245.079941 320.0
245.586243 72.0
246.076172 256.0
257.122772 172.0
258.022644 116.0
258.117249 140.0
258.793701 76.0
259.110779 132.0
261.419403 144.0
263.040588 136.0
266.746368 144.0
274.113739 268.0
281.928925 124.0
286.098175 148.0
287.115753 176.0
299.126801 176.0
300.162598 152.0
301.323547 228.0
324.869385 132.0
327.136932 132.0
327.846497 168.0
328.156982 676.0
329.160614 152.0
341.341705 52.0
344.980743 124.0
347.002106 64.0
347.124451 148.0
351.861053 112.0
356.156281 128.0
372.271851 40.0
373.211517 184.0
374.155426 460.0
374.217499 252.0
375.154816 384.0
376.801575 80.0
390.354553 20.0
470.282593 64.0
511.378632 136.0
625.480774 124.0
641.430115 116.0
713.393921 100.0
737.856995 104.0
754.875977 216.0
817.307068 80.0
822.755798 128.0
866.721619 56.0
894.265686 172.0
919.504578 176.0
924.762756 144.0
938.095764 20.0
966.971802 128.0
978.274963 72.0
983.498596 224.0
1006.962341 144.0
1024.322754 68.0
1026.668335 184.0
1043.888428 172.0
1071.612061 136.0
1081.21106 152.0
1082.369751 132.0
1086.623535 88.0
1094.438354 184.0
1108.892456 152.0
1111.37915 212.0
1158.39856 232.0
1159.672485 196.0
1160.004639 148.0
1165.332031 132.0
1167.072021 152.0
1180.573608 164.0
1185.90686 60.0
1204.008301 72.0
1208.383911 92.0
1214.209473 112.0
1228.69873 208.0
1229.703613 160.0
1239.837524 140.0
1240.748779 308.0
1244.551514 124.0
1245.323975 212.0
1247.621704 56.0
1249.661255 80.0
1252.589966 212.0
1263.581543 176.0
1280.874878 44.0
1315.041626 208.0
1322.927734 164.0
1335.531982 220.0
1340.35144 160.0
1345.106567 152.0
1346.347778 164.0
1351.003784 104.0
1352.481934 144.0
1366.616211 192.0
1368.257446 204.0
1371.152222 124.0
1372.17688 128.0
1375.932129 140.0
1412.210815 148.0
1414.418091 152.0
1414.582764 140.0
1431.520996 232.0
1436.480225 148.0
1438.110107 56.0
1439.876831 200.0
1440.586792 124.0
1442.770752 160.0
1442.974976 180.0
1443.746216 172.0
1454.315186 152.0
1461.5271 228.0
1462.584961 208.0
1470.984985 120.0
1473.955933 144.0
1480.932983 196.0
1481.078491 156.0
1486.606201 180.0
1486.851807 116.0
1490.453369 192.0
1499.464722 176.0
