>compound MLS001160488-01!2-[(8,8-dimethyl-2-oxo-4-propyl-9,10-dihydropyrano[2,3-h]chromen-5-yl)oxy]-N-(pyridin-2-ylmethyl)acetamide
>formula C25H28N2O5
>ionization [M+H]+
>parentmass 437.2070984480905
#inchi InChI=1S/C25H28N2O5/c1-4-7-16-12-22(29)31-24-18-9-10-25(2,3)32-19(18)13-20(23(16)24)30-15-21(28)27-14-17-8-5-6-11-26-17/h5-6,8,11-13H,4,7,9-10,14-15H2,1-3H3,(H,27,28)
#inchikey MJAUXSBPRZFFSF
#Ion_Source LC-ESI
#Instrument qTof
#Compound_Source NIH Natural Product Library
#PI Dorrestein
#Data_Collector VVP/LMS
#Scan -1
#Precursor_MZ 437.208
#ExactMass 436.2
#Charge 1
#CAS_Number N/A
#Pubmed_ID N/A
#Smiles CCCc1cc(=O)oc2c3CCC(C)(C)Oc3cc(OCC(=O)NCc4ccccn4)c12
#INCHI_AUX N/A
#Library_Class 1
#SpectrumID CCMSLIB00000079389
#IonMode Positive
#UpdateWorkflowName UPDATE-SINGLE-ANNOTATED-GOLD
#LibraryQualityString Gold
#TaskID b1d8e8f6646f4e71acdff9ca3d919d08
##Scan# 2048
#SpectrumFile p1-F05_GF5_01_17937.mzXML
#LibraryName NIH_Natural_Products_Library.mgf
#MQScore -1
#Organism NIH_Natural_Products_Library
#TIC_Query 0
#RT_Query -1
#MZErrorPPM -1
#SharedPeaks 0
#MassDiff 0
#LibMZ -1
#SpecMZ 437.208
#SpecCharge 0
#internalFilename spec-00000.mgf

>collision 10
94.957733 112.0
94.963562 104.0
95.002716 60.0
95.015808 168.0
95.048447 244.0
95.071968 204.0
95.092361 84.0
95.191368 104.0
95.214676 104.0
95.261292 148.0
95.276833 100.0
95.300995 128.0
95.327003 180.0
95.364273 144.0
95.418701 216.0
95.438377 364.0
95.471199 140.0
95.534691 56.0
95.549004 132.0
95.582848 184.0
95.634872 348.0
95.671555 144.0
95.701927 168.0
95.733322 312.0
95.770691 204.0
95.819618 116.0
95.83326 104.0
95.861702 268.0
95.891724 96.0
95.913803 156.0
95.938499 168.0
95.954094 112.0
95.986427 192.0
96.004745 336.0
96.037949 148.0
96.102272 148.0
96.117935 156.0
96.157013 168.0
96.17453 288.0
96.190269 124.0
96.205765 176.0
96.255638 176.0
96.277168 224.0
96.285515 128.0
96.290451 204.0
96.309258 136.0
96.334648 172.0
96.379234 156.0
96.408897 136.0
96.447983 108.0
96.515732 148.0
96.539871 116.0
96.597519 144.0
96.620537 116.0
96.649414 156.0
96.667023 160.0
96.701706 100.0
96.725739 76.0
96.749229 276.0
96.768806 104.0
96.782516 144.0
96.804871 172.0
96.825592 80.0
96.865097 168.0
96.913742 116.0
96.935295 120.0
96.953934 252.0
96.978416 52.0
97.040848 128.0
97.043755 168.0
97.076439 120.0
97.091194 160.0
97.116806 164.0
97.141159 92.0
97.209831 204.0
97.229454 120.0
97.265312 224.0
97.320305 228.0
97.337425 172.0
97.402237 140.0
97.435631 200.0
97.462471 248.0
97.475845 180.0
97.496544 168.0
97.533882 132.0
97.554008 152.0
97.609825 108.0
97.647919 172.0
97.663658 100.0
97.723976 248.0
97.740181 196.0
97.772881 232.0
97.787613 388.0
97.805664 208.0
97.828743 192.0
97.88604 160.0
97.901794 172.0
97.931961 328.0
97.938393 176.0
97.944778 248.0
98.018547 164.0
98.065315 40.0
98.079117 196.0
98.102768 216.0
98.120514 128.0
98.136284 208.0
98.155998 208.0
98.175957 184.0
98.209251 240.0
98.301971 320.0
98.315788 152.0
98.331573 120.0
98.347366 224.0
98.378357 160.0
98.429993 332.0
98.461052 168.0
98.489525 164.0
98.521133 108.0
98.572502 404.0
98.61203 160.0
98.641678 148.0
98.700027 124.0
98.719223 164.0
98.743507 176.0
98.764275 156.0
98.780098 120.0
98.817146 132.0
98.840889 108.0
98.884964 168.0
98.903336 184.0
98.922569 116.0
98.970085 192.0
98.997963 152.0
99.029495 184.0
99.051285 156.0
99.071091 152.0
99.09169 272.0
99.111534 116.0
99.151932 160.0
99.180878 100.0
99.20488 156.0
99.241447 176.0
99.261879 184.0
99.300217 108.0
99.352486 160.0
99.366714 140.0
99.406418 176.0
99.433952 208.0
99.469681 176.0
99.483574 152.0
99.51931 368.0
99.582855 112.0
99.596764 176.0
99.657654 252.0
99.680962 156.0
99.700073 120.0
99.757713 144.0
99.827301 148.0
99.851166 184.0
99.864128 112.0
99.909019 140.0
99.926758 112.0
99.95063 120.0
99.996399 152.0
100.013474 132.0
100.050453 200.0
100.09594 112.0
100.18158 60.0
100.195526 128.0
100.219437 152.0
100.245338 156.0
100.293121 200.0
100.333038 80.0
100.358955 204.0
100.38089 40.0
100.40976 176.0
100.426064 176.0
100.445297 216.0
100.478226 120.0
100.535004 140.0
100.557343 124.0
100.581688 292.0
100.658257 172.0
100.681084 244.0
100.699638 224.0
100.716782 132.0
100.765594 92.0
100.780098 176.0
100.804077 160.0
100.832054 32.0
100.848236 128.0
100.862038 164.0
100.885757 216.0
100.92691 196.0
100.952003 132.0
100.986 156.0
101.022011 104.0
101.039536 184.0
101.047218 140.0
101.055641 128.0
101.060974 244.0
101.090034 60.0
101.112045 208.0
101.162918 192.0
101.181534 84.0
101.243347 192.0
101.264206 168.0
101.28791 120.0
101.323921 136.0
101.333542 72.0
101.365829 176.0
101.371384 128.0
101.394485 152.0
101.416481 144.0
101.464592 172.0
101.480629 156.0
101.498672 160.0
101.522736 184.0
101.537758 228.0
101.591522 204.0
101.637077 52.0
101.65313 160.0
101.683388 300.0
101.743057 124.0
101.755157 140.0
101.768738 228.0
101.783607 140.0
101.799667 328.0
101.818947 220.0
101.845863 132.0
101.863937 132.0
101.886032 92.0
101.934036 148.0
101.950066 172.0
101.990532 108.0
102.076729 164.0
102.147385 284.0
102.173523 152.0
102.232193 176.0
102.292252 152.0
102.324654 124.0
102.346611 148.0
102.368759 264.0
102.409035 192.0
102.442528 192.0
102.478416 172.0
102.535721 172.0
102.562843 160.0
102.594086 48.0
102.600082 252.0
102.651382 240.0
102.673004 184.0
102.713684 168.0
102.731857 132.0
102.753738 124.0
102.778374 116.0
102.792076 180.0
102.862717 140.0
102.884918 180.0
102.90107 184.0
102.927322 148.0
102.974464 208.0
103.016075 144.0
103.050529 160.0
103.091064 132.0
103.106552 332.0
103.136215 160.0
103.189987 72.0
103.222336 48.0
103.254692 152.0
103.271858 148.0
103.293121 132.0
103.337242 84.0
103.355148 200.0
103.398338 124.0
103.436241 192.0
103.464554 56.0
103.49955 132.0
103.525879 140.0
103.540054 132.0
103.571983 172.0
103.590691 172.0
103.634254 184.0
103.665649 156.0
103.703262 208.0
103.75444 124.0
103.793625 196.0
103.807549 276.0
103.831078 168.0
103.853333 188.0
103.885445 128.0
103.894142 52.0
103.898178 164.0
103.926048 252.0
103.940094 188.0
103.969162 188.0
103.978798 68.0
104.008408 152.0
104.027077 20.0
104.049713 600.0
104.109917 128.0
104.135231 172.0
104.181007 124.0
104.202568 176.0
104.227737 48.0
104.260246 144.0
104.278542 152.0
104.30127 132.0
104.336433 192.0
104.363922 140.0
104.384254 156.0
104.435097 148.0
104.455788 164.0
104.472603 148.0
104.497314 164.0
104.522575 180.0
104.536819 168.0
104.553101 140.0
104.567345 148.0
104.599915 164.0
104.626373 268.0
104.64045 168.0
104.677277 208.0
104.697044 164.0
104.71801 164.0
104.745903 184.0
104.763809 288.0
104.798119 164.0
104.829506 224.0
104.846298 132.0
104.881004 132.0
104.908501 196.0
104.934235 180.0
104.993721 140.0
105.017616 308.0
105.044067 2316.0
105.107658 144.0
105.131866 60.0
105.15023 88.0
105.172684 164.0
105.205345 136.0
105.228104 136.0
105.250259 136.0
105.265488 96.0
105.284485 256.0
105.303352 64.0
105.327866 68.0
105.382195 208.0
105.411629 140.0
105.43615 244.0
105.454514 128.0
105.468857 204.0
105.50238 200.0
105.549477 192.0
105.5616 132.0
105.582962 212.0
105.595367 132.0
105.611984 148.0
105.627731 204.0
105.681244 112.0
105.736786 176.0
105.762276 176.0
105.785912 220.0
105.816345 152.0
105.835167 192.0
105.855522 64.0
105.877434 200.0
105.896477 180.0
105.930847 288.0
105.95179 160.0
106.029648 164.0
106.047112 188.0
106.066223 1456.0
106.107338 192.0
106.123268 192.0
106.144447 124.0
106.173363 120.0
106.198112 192.0
106.217819 212.0
106.222786 164.0
106.261314 184.0
106.267563 180.0
106.27459 188.0
106.283173 76.0
106.302277 164.0
106.335022 196.0
106.375298 216.0
106.42025 164.0
106.450058 172.0
106.460098 112.0
106.464516 152.0
106.47332 108.0
106.479767 180.0
106.529755 196.0
106.550453 172.0
106.573967 124.0
106.597305 176.0
106.616592 92.0
106.636513 216.0
106.676674 104.0
106.688019 184.0
106.701721 280.0
106.736626 160.0
106.755707 268.0
106.772766 112.0
106.811775 176.0
106.847305 156.0
106.854019 184.0
106.886551 136.0
106.916626 336.0
106.924255 60.0
106.932648 176.0
106.957748 312.0
107.019333 716.0
107.060867 132304.0
107.117989 132.0
107.145775 48.0
107.167656 104.0
107.187294 172.0
107.204224 172.0
107.23291 120.0
107.256271 424.0
107.294136 236.0
107.318527 48.0
107.343559 144.0
107.371208 124.0
107.399261 1584.0
107.434441 132.0
107.465973 120.0
107.472748 140.0
107.497055 160.0
107.534134 160.0
107.569283 168.0
107.578384 92.0
107.587044 172.0
107.600189 108.0
107.635941 192.0
107.643456 88.0
107.649284 204.0
107.668457 152.0
107.687813 248.0
107.695412 76.0
107.704941 132.0
107.732285 116.0
107.764381 160.0
107.790291 144.0
107.855118 104.0
107.861084 112.0
107.876717 164.0
107.913109 168.0
107.920204 240.0
107.950378 176.0
107.970268 84.0
108.018143 68.0
108.035492 216.0
108.063232 10620.0
108.108826 164.0
108.122444 160.0
108.146729 132.0
108.183769 252.0
108.198402 124.0
108.219269 48.0
108.243126 164.0
108.266945 160.0
108.291206 168.0
108.330803 148.0
108.369156 188.0
108.404381 88.0
108.436188 144.0
108.452423 192.0
108.469002 200.0
108.508804 160.0
108.535179 172.0
108.559265 120.0
108.634964 60.0
108.654785 136.0
108.673546 124.0
108.703232 92.0
108.719963 192.0
108.748802 152.0
108.753006 76.0
108.76384 100.0
108.784042 172.0
108.805351 428.0
108.82222 100.0
108.845886 100.0
108.852386 96.0
108.871307 200.0
108.889404 224.0
108.928459 256.0
108.933144 156.0
108.964897 148.0
108.976883 128.0
109.00518 120.0
109.029442 524.0
109.076118 31424.0
109.108978 164.0
109.14061 288.0
109.173782 64.0
109.210876 360.0
109.239777 176.0
109.272682 128.0
109.310387 168.0
109.332268 208.0
109.352127 208.0
109.368179 184.0
109.37558 92.0
109.384529 180.0
109.391914 136.0
109.400894 152.0
109.424522 148.0
109.440231 48.0
109.476974 176.0
109.498459 312.0
109.521599 140.0
109.558945 128.0
109.57769 160.0
109.605515 216.0
109.631866 44.0
109.650627 160.0
109.674698 152.0
109.708229 144.0
109.733849 108.0
109.737915 96.0
109.76207 96.0
109.794548 112.0
109.823494 168.0
109.8871 168.0
109.915466 96.0
109.934509 220.0
109.963463 160.0
109.979637 168.0
110.030258 76.0
110.059181 1024.0
110.07798 2388.0
110.109612 152.0
110.122887 112.0
110.139717 120.0
110.147339 108.0
110.172371 196.0
110.189056 84.0
110.212875 204.0
110.241608 304.0
110.271202 128.0
110.299744 184.0
110.314377 156.0
110.402191 180.0
110.421013 132.0
110.441231 84.0
110.475395 148.0
110.500191 136.0
110.585823 212.0
110.635429 136.0
110.653282 180.0
110.678406 80.0
110.698784 104.0
110.72657 148.0
110.741234 136.0
110.764412 180.0
110.829216 140.0
110.845352 120.0
110.895996 168.0
110.901688 96.0
110.950592 180.0
111.000885 156.0
111.007812 196.0
111.034348 140.0
111.040314 120.0
111.063812 300.0
111.080795 236.0
111.103867 96.0
111.118553 188.0
111.135338 88.0
111.168915 108.0
111.195961 140.0
111.221382 160.0
111.240273 152.0
111.263367 168.0
111.297188 148.0
111.315857 120.0
111.394966 144.0
111.398628 244.0
111.456879 500.0
111.475502 116.0
111.502823 128.0
111.519638 128.0
111.538559 136.0
111.574295 168.0
111.592567 208.0
111.618446 208.0
111.661179 224.0
111.676643 220.0
111.705345 176.0
111.735168 180.0
111.757271 88.0
111.774101 128.0
111.794617 144.0
111.866707 180.0
111.923698 228.0
111.944321 176.0
111.996368 212.0
112.023201 76.0
112.054138 44.0
112.068886 144.0
112.09417 164.0
112.146812 212.0
112.19323 200.0
112.234184 168.0
112.271248 140.0
112.302879 176.0
112.332413 144.0
112.35994 164.0
112.393532 148.0
112.418915 168.0
112.444305 248.0
112.478012 72.0
112.501228 188.0
112.514893 152.0
112.543457 132.0
112.587799 200.0
112.615257 88.0
112.683807 204.0
112.712433 132.0
112.758987 136.0
112.818108 176.0
112.832909 172.0
112.877304 148.0
112.892113 84.0
112.919655 172.0
112.947098 196.0
112.968254 60.0
112.992889 136.0
113.05558 184.0
113.071075 148.0
113.092087 84.0
113.203186 144.0
113.231628 184.0
113.260368 172.0
113.297165 108.0
113.338753 204.0
113.355705 184.0
113.410805 116.0
113.440483 196.0
113.474838 184.0
113.512566 92.0
113.582611 268.0
113.623947 156.0
113.679535 208.0
113.70871 212.0
113.74382 176.0
113.79689 160.0
113.828743 104.0
113.854225 120.0
113.869087 140.0
113.91349 292.0
113.916267 264.0
113.964272 144.0
113.983803 104.0
114.012772 108.0
114.031441 116.0
114.081573 192.0
114.096863 320.0
114.196396 156.0
114.243187 140.0
114.268723 484.0
114.292122 188.0
114.326172 84.0
114.355064 104.0
114.390022 72.0
114.411308 144.0
114.449631 116.0
114.475182 168.0
114.545288 144.0
114.587837 144.0
114.618423 180.0
114.639877 80.0
114.702354 172.0
114.780571 140.0
114.809753 120.0
114.82885 168.0
114.85186 208.0
114.86734 156.0
114.890808 176.0
114.935616 88.0
114.981117 168.0
115.00177 96.0
115.052849 332.0
115.097839 80.0
115.141296 148.0
115.161903 208.0
115.200455 212.0
115.235718 72.0
115.273148 56.0
115.308395 248.0
115.367035 28.0
115.401245 184.0
115.435455 104.0
115.451538 144.0
115.508766 216.0
115.525284 144.0
115.595085 352.0
115.613678 204.0
115.629349 112.0
115.672935 88.0
115.694344 128.0
115.720032 156.0
115.741447 128.0
115.768036 144.0
115.799263 112.0
115.875763 320.0
115.929947 168.0
116.009254 148.0
116.032837 40.0
116.060921 184.0
116.082146 116.0
116.106651 188.0
116.174377 144.0
116.191536 132.0
116.22403 140.0
116.270927 228.0
116.285957 60.0
116.30098 176.0
116.337151 204.0
116.367523 180.0
116.395439 148.0
116.411201 152.0
116.44252 180.0
116.459259 172.0
116.50927 168.0
116.558846 164.0
116.586624 132.0
116.615547 96.0
116.63176 76.0
116.650024 184.0
116.685501 60.0
116.706848 168.0
116.751297 160.0
116.793022 104.0
116.808075 48.0
116.840347 156.0
116.881813 176.0
116.943634 116.0
116.994179 116.0
117.044357 140.0
117.051041 184.0
117.071251 348.0
117.092186 68.0
117.107269 96.0
117.12973 140.0
117.200821 140.0
117.206215 60.0
117.214027 136.0
117.245506 120.0
117.27317 164.0
117.326035 236.0
117.378433 176.0
117.426247 80.0
117.448723 228.0
117.468933 208.0
117.512535 232.0
117.548004 204.0
117.570793 132.0
117.629066 104.0
117.65271 164.0
117.683037 132.0
117.708954 168.0
117.739182 52.0
117.768639 100.0
117.782509 520.0
117.810463 92.0
117.829903 152.0
117.851509 88.0
117.867935 180.0
117.918938 204.0
117.93795 356.0
118.011452 84.0
118.048042 352.0
118.071014 176.0
118.093628 208.0
118.108765 168.0
118.141212 160.0
118.180161 152.0
118.219353 176.0
118.281876 180.0
118.33976 200.0
118.373756 116.0
118.389526 164.0
118.416115 116.0
118.461601 148.0
118.539597 88.0
118.592064 76.0
118.626289 32.0
118.687561 200.0
118.728195 164.0
118.805428 132.0
118.830856 196.0
118.871376 104.0
118.897415 152.0
118.916573 232.0
118.931732 388.0
118.955612 140.0
118.976349 188.0
119.036484 34768.0
119.059845 8968.0
119.084129 720.0
119.107956 140.0
119.14444 108.0
119.158707 192.0
119.176552 204.0
119.210938 136.0
119.238853 148.0
119.294312 120.0
119.312286 76.0
119.327507 164.0
119.34816 128.0
119.373436 96.0
119.392738 28.0
119.427536 224.0
119.451462 92.0
119.494972 172.0
119.547195 152.0
119.582916 180.0
119.600716 212.0
119.660378 36.0
119.677795 168.0
119.700859 196.0
119.722343 184.0
119.75824 128.0
119.779388 80.0
119.838066 144.0
119.880371 144.0
119.92614 144.0
119.958138 112.0
119.973297 116.0
120.043434 7724.0
120.063377 1248.0
120.092194 232.0
120.122208 148.0
120.180679 248.0
120.207474 56.0
120.223763 172.0
120.241714 164.0
120.281677 108.0
120.300095 136.0
120.320526 236.0
120.346909 152.0
120.375557 172.0
120.389389 132.0
120.421417 168.0
120.46981 260.0
120.489456 188.0
120.512962 128.0
120.563423 144.0
120.587463 136.0
120.60495 120.0
120.622437 116.0
120.637741 148.0
120.667992 200.0
120.694267 140.0
120.712929 144.0
120.741028 84.0
120.758003 224.0
120.796417 340.0
120.845505 172.0
120.879051 72.0
120.912575 92.0
120.929939 264.0
120.959335 236.0
120.980125 176.0
121.008064 160.0
121.043999 968.0
121.075836 25956.0
121.136032 228.0
121.143494 172.0
121.150101 108.0
121.158646 184.0
121.168282 168.0
121.1726 140.0
121.23175 196.0
121.306412 144.0
121.379944 228.0
121.407257 132.0
121.414444 60.0
121.424599 116.0
121.467667 160.0
121.492897 116.0
121.516998 132.0
121.564201 164.0
121.627853 160.0
121.670273 248.0
121.715668 148.0
121.742592 336.0
121.801315 68.0
121.825478 116.0
121.843407 168.0
121.862831 56.0
121.890686 100.0
121.901123 112.0
121.905113 148.0
121.951538 120.0
121.994408 124.0
122.024002 144.0
122.07959 1564.0
122.102432 100.0
122.138191 108.0
122.161278 172.0
122.204185 268.0
122.236626 176.0
122.311554 168.0
122.353729 156.0
122.369568 92.0
122.406982 112.0
122.423409 136.0
122.465584 164.0
122.525391 184.0
122.564713 120.0
122.599976 84.0
122.61647 140.0
122.637436 152.0
122.660042 172.0
122.772781 248.0
122.86409 172.0
122.881821 180.0
122.913101 148.0
122.932037 144.0
122.966064 128.0
123.012367 160.0
123.048882 132.0
123.074677 264.0
123.1008 132.0
123.14711 168.0
123.184662 124.0
123.207458 200.0
123.253151 156.0
123.273033 112.0
123.297348 140.0
123.321289 168.0
123.350388 228.0
123.40345 180.0
123.431946 144.0
123.452095 92.0
123.474213 68.0
123.513306 148.0
123.571541 140.0
123.590523 228.0
123.618004 132.0
123.673576 196.0
123.728127 400.0
123.753983 176.0
123.772957 92.0
123.798378 300.0
123.817245 136.0
123.835594 120.0
123.868187 172.0
123.91806 164.0
123.947945 216.0
123.971916 176.0
124.021141 140.0
124.039772 120.0
124.067581 184.0
124.107681 120.0
124.160667 200.0
124.200676 108.0
124.218422 184.0
124.267509 156.0
124.284393 152.0
124.310242 172.0
124.351494 156.0
124.391365 128.0
124.423569 216.0
124.464767 32.0
124.495857 160.0
124.518066 52.0
124.575813 164.0
124.59359 164.0
124.633316 272.0
124.678024 52.0
124.700249 140.0
124.758041 176.0
124.785515 156.0
124.809174 224.0
124.860321 276.0
124.913177 240.0
124.940399 112.0
124.987122 180.0
125.011833 188.0
125.068031 256.0
125.14846 140.0
125.200584 152.0
125.229774 200.0
125.245361 104.0
125.330017 156.0
125.376816 304.0
125.531349 168.0
125.568977 144.0
125.604691 156.0
125.633232 144.0
125.664467 76.0
125.686775 48.0
125.78051 100.0
125.812202 180.0
125.902351 144.0
125.959145 276.0
126.008293 124.0
126.033676 232.0
126.079796 244.0
126.135674 192.0
126.168053 124.0
126.189323 180.0
126.231804 196.0
126.305611 388.0
126.437614 48.0
126.457756 164.0
126.509239 144.0
126.551781 196.0
126.58313 124.0
126.62365 180.0
126.641357 120.0
126.674957 212.0
126.711548 96.0
126.769051 152.0
126.813873 180.0
126.861824 184.0
126.946144 292.0
126.999863 164.0
127.03714 140.0
127.060539 272.0
127.139076 176.0
127.168251 196.0
127.19294 164.0
127.222061 144.0
127.246819 88.0
127.269264 144.0
127.289474 144.0
127.327652 172.0
127.34787 148.0
127.402878 124.0
127.430573 88.0
127.472549 184.0
127.51712 228.0
127.626526 184.0
127.695328 136.0
127.711983 76.0
127.727722 88.0
127.743469 48.0
127.858223 104.0
127.885635 176.0
127.959625 168.0
128.011307 140.0
128.061249 672.0
128.116516 196.0
128.153214 116.0
128.186356 180.0
128.220871 152.0
128.282379 140.0
128.366135 128.0
128.442764 328.0
128.491714 116.0
128.559082 144.0
128.588669 152.0
128.615509 176.0
128.633575 232.0
128.67421 88.0
128.722763 220.0
128.839066 124.0
128.936234 68.0
128.983688 168.0
129.004028 108.0
129.033432 220.0
129.068069 848.0
129.112564 124.0
129.218872 76.0
129.24057 116.0
129.302551 196.0
129.430069 156.0
129.442047 80.0
129.451126 204.0
129.477753 188.0
129.528824 184.0
129.583389 100.0
129.633377 188.0
129.664963 216.0
129.713013 184.0
129.760178 324.0
129.789642 148.0
129.827728 212.0
129.902023 180.0
129.986984 268.0
130.030106 92.0
130.075256 108.0
130.124069 184.0
130.157227 56.0
130.241211 192.0
130.291229 140.0
130.323044 192.0
130.35318 184.0
130.373032 208.0
130.417572 120.0
130.443497 356.0
130.473038 116.0
130.528763 124.0
130.669373 364.0
130.692581 136.0
130.78241 168.0
130.802902 100.0
130.82338 136.0
130.852951 156.0
130.90535 196.0
130.954849 180.0
131.01239 252.0
131.059998 9904.0
131.082382 616.0
131.102356 124.0
131.190155 48.0
131.213455 108.0
131.238022 212.0
131.264908 168.0
131.310242 364.0
131.33609 48.0
131.368027 288.0
131.389771 104.0
131.409088 44.0
131.460037 152.0
131.496231 128.0
131.559708 104.0
131.587112 68.0
131.619476 252.0
131.63887 132.0
131.665909 156.0
131.705856 252.0
131.752182 332.0
131.785812 144.0
131.806381 120.0
131.826935 208.0
131.87674 132.0
131.933228 184.0
131.969513 108.0
131.993805 184.0
132.067413 16456.0
132.121124 36.0
132.141052 180.0
132.164078 200.0
132.181244 64.0
132.234009 68.0
132.257324 132.0
132.284378 160.0
132.314133 56.0
132.33931 48.0
132.355347 80.0
132.373657 144.0
132.420517 208.0
132.465271 108.0
132.481979 164.0
132.527603 156.0
132.552338 72.0
132.589859 160.0
132.609634 120.0
132.642914 260.0
132.710495 76.0
132.733429 92.0
132.754059 104.0
132.796753 52.0
132.844986 272.0
132.866745 156.0
132.896271 104.0
132.961136 156.0
132.989532 168.0
133.03186 176.0
133.071915 2528.0
133.099655 616.0
133.177338 148.0
133.19101 104.0
133.236069 200.0
133.267593 144.0
133.294662 160.0
133.321701 192.0
133.364746 128.0
133.396927 260.0
133.438309 44.0
133.469833 164.0
133.478821 116.0
133.525696 124.0
133.610794 320.0
133.663712 124.0
133.693634 124.0
133.749054 144.0
133.792603 104.0
133.824844 152.0
133.863983 256.0
133.889313 224.0
133.9263 128.0
133.951508 188.0
133.998245 136.0
134.035812 128.0
134.058823 420.0
134.08107 136.0
134.099213 308.0
134.143799 148.0
134.179642 108.0
134.204208 116.0
134.239594 136.0
134.267273 88.0
134.292633 64.0
134.320312 176.0
134.357224 164.0
134.443649 148.0
134.477219 112.0
134.601593 232.0
134.64299 200.0
134.663284 144.0
134.682709 144.0
134.719666 356.0
134.77742 184.0
134.795914 260.0
134.814392 232.0
134.837509 184.0
134.911469 72.0
134.941528 228.0
134.957306 148.0
134.983154 164.0
134.999329 44.0
135.022461 104.0
135.052612 776.0
135.07933 1812.0
135.105728 164.0
135.135803 172.0
135.152008 88.0
135.172836 60.0
135.226593 172.0
135.246887 120.0
135.267227 152.0
135.293427 172.0
135.334854 48.0
135.355652 244.0
135.388123 108.0
135.414413 248.0
135.432114 128.0
135.457596 104.0
135.476135 56.0
135.531738 132.0
135.563843 180.0
135.59903 96.0
135.678513 140.0
135.710007 144.0
135.72876 132.0
135.762283 136.0
135.788727 144.0
135.795761 116.0
135.844299 88.0
135.888794 128.0
135.91095 248.0
136.016434 48.0
136.048569 292.0
136.056412 272.0
136.07753 112.0
136.106979 44.0
136.169678 100.0
136.225418 184.0
136.244003 44.0
136.290283 196.0
136.351624 128.0
136.441544 136.0
136.481064 164.0
136.507202 200.0
136.525253 112.0
136.560135 140.0
136.599075 244.0
136.634933 208.0
136.660873 200.0
136.712341 264.0
136.751938 184.0
136.849518 68.0
136.867325 128.0
136.935303 188.0
137.023438 136.0
137.057709 444.0
137.090942 64.0
137.117996 144.0
137.135223 180.0
137.158524 160.0
137.188828 136.0
137.205154 156.0
137.249451 48.0
137.277298 144.0
137.298141 172.0
137.358856 140.0
137.385635 164.0
137.46521 136.0
137.485046 84.0
137.52594 256.0
137.545486 116.0
137.569397 176.0
137.599213 260.0
137.725525 148.0
137.748886 80.0
137.861496 220.0
137.91713 64.0
137.951813 124.0
137.995911 160.0
138.036362 196.0
138.06044 264.0
138.080704 240.0
138.121994 384.0
138.141602 104.0
138.207199 212.0
138.249329 176.0
138.289017 108.0
138.34285 108.0
138.401382 424.0
138.45993 172.0
138.492279 220.0
138.521454 212.0
138.565552 132.0
138.599945 176.0
138.645493 76.0
138.6698 172.0
138.696716 128.0
138.744751 180.0
138.764542 132.0
138.813004 216.0
138.819733 164.0
138.858337 144.0
138.924026 124.0
138.953751 196.0
138.961624 132.0
138.967987 92.0
138.989716 156.0
139.04747 168.0
139.054916 132.0
139.063782 300.0
139.092972 172.0
139.161057 56.0
139.191635 168.0
139.233658 200.0
139.266724 144.0
139.306656 132.0
139.361786 248.0
139.410034 120.0
139.489624 284.0
139.538544 256.0
139.567535 116.0
139.624741 160.0
139.649185 172.0
139.667236 212.0
139.721741 136.0
139.739227 124.0
139.772171 96.0
139.7957 96.0
139.819244 208.0
139.857513 92.0
139.953415 72.0
139.992615 184.0
140.033478 148.0
140.072968 136.0
140.116241 176.0
140.144196 172.0
140.180283 164.0
140.184753 208.0
140.207825 256.0
140.253815 116.0
140.267258 164.0
140.316254 140.0
140.35817 164.0
140.401138 72.0
140.464813 172.0
140.493118 104.0
140.528519 108.0
140.62291 144.0
140.699188 380.0
140.750381 160.0
140.795258 184.0
140.841461 204.0
140.89653 128.0
140.929565 112.0
140.965332 180.0
140.99057 124.0
141.022064 60.0
141.042175 176.0
141.070374 288.0
141.090607 148.0
141.152084 156.0
141.171005 116.0
141.195709 80.0
141.21051 124.0
141.36261 140.0
141.395737 40.0
141.45491 176.0
141.509369 140.0
141.549622 116.0
141.625397 224.0
141.651459 44.0
141.694092 212.0
141.723999 252.0
141.790009 152.0
141.799942 72.0
141.806503 128.0
141.869476 52.0
141.920792 124.0
141.950089 144.0
141.988022 252.0
142.049698 68.0
142.07254 164.0
142.093597 124.0
142.112869 196.0
142.13092 172.0
142.151718 168.0
142.209702 240.0
142.24556 148.0
142.334488 136.0
142.401962 200.0
142.446106 88.0
142.47937 164.0
142.51506 164.0
142.572037 72.0
142.588669 180.0
142.621948 136.0
142.643341 188.0
142.681778 284.0
142.734604 144.0
142.766342 192.0
142.791046 168.0
142.833572 112.0
142.891266 172.0
142.902054 132.0
142.934128 120.0
142.98822 84.0
143.016785 120.0
143.047195 184.0
143.086731 856.0
143.119751 176.0
143.232239 148.0
143.252518 184.0
143.279388 388.0
143.317429 228.0
143.37291 76.0
143.471756 84.0
143.498734 116.0
143.531372 172.0
143.614838 40.0
143.651535 72.0
143.680893 144.0
143.715027 168.0
143.774689 196.0
143.854172 120.0
143.894028 188.0
143.913132 144.0
143.938339 176.0
143.987167 192.0
144.008652 224.0
144.052719 416.0
144.080566 192.0
144.118546 96.0
144.178284 84.0
144.257156 164.0
144.273895 132.0
144.300064 152.0
144.316589 172.0
144.33963 260.0
144.402145 144.0
144.408585 232.0
144.439957 116.0
144.472382 108.0
144.498703 188.0
144.528397 136.0
144.54895 92.0
144.623642 152.0
144.697342 224.0
144.781143 136.0
144.806686 156.0
144.872162 192.0
144.917679 140.0
144.960815 152.0
145.025467 364.0
145.066193 852.0
145.098083 192.0
145.130997 152.0
145.150192 148.0
145.222137 132.0
145.243713 164.0
145.306091 140.0
145.326981 204.0
145.375671 112.0
145.423676 116.0
145.45488 204.0
145.476471 56.0
145.501083 144.0
145.558105 172.0
145.60614 120.0
145.649368 120.0
145.678192 216.0
145.759888 96.0
145.798325 308.0
145.817551 112.0
145.846909 300.0
145.882462 164.0
145.904099 116.0
145.928131 148.0
145.956985 44.0
145.981033 216.0
146.029129 56.0
146.058472 192.0
146.080292 372.0
146.137375 52.0
146.161438 168.0
146.209564 304.0
146.238449 132.0
146.262527 80.0
146.292984 184.0
146.326828 140.0
146.356064 196.0
146.376053 212.0
146.406982 160.0
146.440659 216.0
146.485413 108.0
146.558731 128.0
146.59729 144.0
146.618973 116.0
146.669708 232.0
146.723389 120.0
146.766113 116.0
146.886154 116.0
146.912308 168.0
146.977798 180.0
146.984589 144.0
146.993057 176.0
147.011093 212.0
147.054092 9052.0
147.080292 1104.0
147.121231 132.0
147.161728 188.0
147.178619 188.0
147.213455 176.0
147.241409 308.0
147.263794 192.0
147.302353 312.0
147.338028 168.0
147.374268 244.0
147.423294 28.0
147.449188 132.0
147.480606 56.0
147.501892 216.0
147.53862 116.0
147.563019 84.0
147.582138 84.0
147.669189 120.0
147.688538 36.0
147.715149 76.0
147.758698 80.0
147.776901 140.0
147.838547 120.0
147.874847 160.0
147.913574 132.0
148.004318 172.0
148.021271 180.0
148.026169 172.0
148.060013 1576.0
148.084015 356.0
148.108322 188.0
148.149017 208.0
148.177826 132.0
148.206787 216.0
148.224121 136.0
148.251175 108.0
148.282242 76.0
148.302216 204.0
148.335663 224.0
148.388947 236.0
148.419785 176.0
148.434982 336.0
148.469772 252.0
148.519257 356.0
148.553925 172.0
148.583557 260.0
148.589905 168.0
148.617584 168.0
148.628021 124.0
148.648788 344.0
148.668503 176.0
148.674164 232.0
148.693161 132.0
148.723312 308.0
148.747299 120.0
148.75209 136.0
148.762131 448.0
148.819977 284.0
148.849823 396.0
148.887177 424.0
148.912018 424.0
148.938675 348.0
148.967346 760.0
149.001038 260.0
149.024994 1076.0
149.038544 444.0
149.071457 383032.0
149.141968 188.0
149.184357 120.0
149.203018 152.0
149.235428 232.0
149.266571 440.0
149.283386 532.0
149.292358 320.0
149.323029 164.0
149.332535 144.0
149.357056 308.0
149.378159 108.0
149.384979 244.0
149.442917 332.0
149.470932 5676.0
149.494217 76.0
149.516739 256.0
149.555099 316.0
149.588989 200.0
149.618912 128.0
149.626343 148.0
149.671432 80.0
149.706268 96.0
149.741516 272.0
149.771759 180.0
149.805801 252.0
149.824966 260.0
149.836227 60.0
149.841721 148.0
149.863495 104.0
149.876755 396.0
149.905106 104.0
149.927307 192.0
149.953751 192.0
149.962143 300.0
150.022476 368.0
150.075562 55000.0
150.140839 156.0
150.184952 56.0
150.191971 96.0
150.202271 108.0
150.205719 108.0
150.221939 300.0
150.239807 136.0
150.264923 204.0
150.287033 280.0
150.329742 80.0
150.351181 84.0
150.354614 176.0
150.37822 224.0
150.410568 216.0
150.435364 160.0
150.460144 176.0
150.479019 140.0
150.528961 156.0
150.564865 92.0
150.604675 48.0
150.654694 172.0
150.706558 80.0
150.71846 88.0
150.738037 24.0
150.755188 140.0
150.775269 128.0
150.804489 68.0
150.854614 120.0
150.896851 156.0
150.945831 164.0
150.986267 344.0
151.004654 236.0
151.037125 580.0
151.07843 4468.0
151.133026 128.0
151.167511 232.0
151.203644 388.0
151.225327 368.0
151.261444 96.0
151.286758 244.0
151.305603 208.0
151.336685 100.0
151.35733 92.0
151.372025 188.0
151.405502 112.0
151.435318 160.0
151.483994 172.0
151.516083 300.0
151.533188 104.0
151.561691 96.0
151.582977 76.0
151.626221 92.0
151.648956 80.0
151.690063 172.0
151.741364 56.0
151.777451 124.0
151.856491 100.0
151.892792 164.0
151.933151 160.0
151.955978 92.0
151.978058 76.0
152.047775 180.0
152.083817 228.0
152.119705 208.0
152.161682 140.0
152.20932 164.0
152.240433 112.0
152.324814 52.0
152.359207 104.0
152.380219 132.0
152.405884 44.0
152.432922 48.0
152.471878 56.0
152.500275 108.0
152.56073 44.0
152.591827 120.0
152.64566 88.0
152.671371 144.0
152.747803 152.0
152.817139 244.0
152.83252 132.0
152.930145 172.0
152.959229 156.0
153.021072 196.0
153.06723 408.0
153.124191 92.0
153.200562 48.0
153.225189 76.0
153.262146 44.0
153.324081 120.0
153.345932 36.0
153.567825 112.0
153.63443 48.0
153.656631 148.0
153.70845 104.0
153.782486 188.0
153.854065 152.0
153.925674 88.0
153.950363 108.0
154.002014 96.0
154.041748 76.0
154.077637 148.0
154.11586 80.0
154.159149 116.0
154.180115 40.0
154.256729 72.0
154.370468 156.0
154.432297 60.0
154.701996 164.0
154.740326 116.0
154.822098 200.0
154.875336 152.0
154.895157 96.0
154.919922 136.0
154.996735 180.0
155.057831 260.0
155.081726 144.0
155.118164 72.0
155.234695 80.0
155.274017 180.0
155.485245 120.0
155.569885 204.0
155.662704 208.0
155.728561 96.0
155.993103 240.0
156.021774 144.0
156.061554 128.0
156.088257 192.0
156.153564 100.0
156.203308 176.0
156.262451 124.0
156.371017 60.0
156.427261 172.0
156.506927 128.0
156.646393 96.0
156.663834 108.0
156.790909 104.0
156.843689 136.0
156.880386 156.0
156.908066 140.0
157.002823 132.0
157.065384 672.0
157.102585 108.0
157.130676 168.0
157.17244 84.0
157.192398 72.0
157.23233 160.0
157.295975 184.0
157.399582 136.0
157.424561 112.0
157.474503 68.0
157.492264 72.0
157.540649 92.0
157.574432 132.0
157.636887 88.0
157.671875 56.0
157.696869 120.0
157.751007 140.0
157.823257 36.0
158.01445 164.0
158.048691 176.0
158.070251 252.0
158.100937 120.0
158.140991 204.0
158.275345 352.0
158.347061 96.0
158.389954 152.0
158.425018 236.0
158.470123 172.0
158.607025 152.0
158.628006 64.0
158.648056 72.0
158.715332 48.0
158.772018 164.0
158.791443 88.0
158.858704 132.0
158.94902 76.0
158.968002 124.0
159.045761 272.0
159.079956 1876.0
159.200882 72.0
159.230606 72.0
159.325638 160.0
159.358292 172.0
159.386017 124.0
159.544281 24.0
159.585602 320.0
159.636017 156.0
159.707718 148.0
159.725327 76.0
159.773132 136.0
159.859406 208.0
159.881317 68.0
159.924103 68.0
160.05127 224.0
160.087814 460.0
160.114136 152.0
160.164566 52.0
160.188492 144.0
160.256516 68.0
160.281708 124.0
160.316986 236.0
160.357315 108.0
160.446793 128.0
160.470749 108.0
160.516129 92.0
160.564056 76.0
160.591797 44.0
160.690094 132.0
160.712875 168.0
160.743164 96.0
160.779175 104.0
160.823914 116.0
160.909744 156.0
160.970978 144.0
161.000641 108.0
161.033432 112.0
161.057724 936.0
161.09462 1224.0
161.125809 120.0
161.180008 136.0
161.235596 52.0
161.274445 156.0
161.306366 108.0
161.346817 88.0
161.415848 92.0
161.454926 132.0
161.598312 100.0
161.622498 96.0
161.662979 188.0
161.69841 76.0
161.716125 100.0
161.736374 64.0
161.764221 76.0
161.81485 116.0
161.88829 172.0
161.92627 188.0
161.984528 156.0
162.030945 308.0
162.068573 432.0
162.100922 420.0
162.146683 168.0
162.221619 128.0
162.286102 68.0
162.311462 60.0
162.392609 160.0
162.438263 136.0
162.50676 200.0
162.542282 112.0
162.90535 176.0
162.968857 144.0
163.037994 1380.0
163.07399 2632.0
163.17981 100.0
163.370468 120.0
163.548676 128.0
163.589401 68.0
163.678513 92.0
163.897568 180.0
163.933243 100.0
163.961273 56.0
164.019135 96.0
164.035736 168.0
164.06131 196.0
164.080399 368.0
164.106567 68.0
164.151718 140.0
164.429398 188.0
164.643661 200.0
164.750244 96.0
164.797089 156.0
164.857025 40.0
164.949036 184.0
164.995056 44.0
165.052094 208.0
165.087921 368.0
165.261032 156.0
165.280579 92.0
165.43251 72.0
165.532364 128.0
165.568207 192.0
165.680908 40.0
165.765457 108.0
165.809036 228.0
165.84491 56.0
166.04335 80.0
166.099258 144.0
166.20137 92.0
166.324097 132.0
166.365631 52.0
166.53511 152.0
166.555649 136.0
166.658844 144.0
166.68924 120.0
166.771484 120.0
166.804901 136.0
166.82547 148.0
166.901047 100.0
166.943939 104.0
167.051132 268.0
167.097336 112.0
167.139236 108.0
167.257614 100.0
167.283356 144.0
167.44043 108.0
167.47522 304.0
167.708374 144.0
167.72641 164.0
167.78714 140.0
167.842422 96.0
167.876678 156.0
167.979111 156.0
168.017807 208.0
168.067673 256.0
168.100372 284.0
168.141663 36.0
168.219101 176.0
168.304291 176.0
168.345612 132.0
168.433426 176.0
168.469666 128.0
168.498001 160.0
168.580688 116.0
168.653061 48.0
168.761627 140.0
168.857315 52.0
168.896103 48.0
168.935669 96.0
169.046158 72.0
169.092743 52.0
169.214401 148.0
169.245468 144.0
169.284317 132.0
169.315384 168.0
169.402344 260.0
169.475998 228.0
169.55632 144.0
169.621124 132.0
169.652237 44.0
169.730011 36.0
169.748169 168.0
169.766312 232.0
170.023148 112.0
170.075638 196.0
170.208542 172.0
170.3564 292.0
170.469803 48.0
170.584167 144.0
170.643967 64.0
170.740173 104.0
170.77919 140.0
170.818207 28.0
170.86763 156.0
171.000397 168.0
171.041458 128.0
171.079941 1988.0
171.145935 120.0
171.206009 108.0
171.263306 144.0
171.321701 128.0
171.409195 120.0
171.484772 96.0
171.518661 76.0
171.643799 276.0
171.813324 128.0
171.938568 184.0
172.046112 160.0
172.082809 336.0
172.113464 92.0
172.142197 132.0
172.204865 128.0
172.238678 144.0
172.33287 152.0
172.37085 164.0
172.453079 228.0
172.471375 124.0
172.539337 120.0
172.633469 148.0
172.6884 92.0
172.738083 116.0
172.808731 96.0
172.887222 124.0
173.063492 596.0
173.098877 480.0
173.183075 236.0
173.245941 216.0
173.277374 148.0
173.328217 216.0
173.39267 144.0
173.411011 124.0
173.537827 148.0
173.751907 100.0
173.780762 140.0
173.843735 112.0
173.896225 136.0
174.043015 148.0
174.066757 340.0
174.097427 516.0
174.132523 72.0
174.185043 120.0
174.20343 116.0
174.229706 36.0
174.263855 140.0
174.324295 116.0
174.355835 148.0
174.426804 132.0
174.492523 40.0
174.537216 164.0
174.623993 144.0
174.737106 132.0
174.784164 140.0
174.821304 108.0
174.934479 192.0
174.989761 112.0
175.039627 1732.0
175.074585 1496.0
175.121384 488.0
175.19519 52.0
175.242615 100.0
175.36647 148.0
175.574738 184.0
175.617371 100.0
175.667053 212.0
175.698715 164.0
175.727737 152.0
175.791061 152.0
175.828003 200.0
175.888107 104.0
175.941513 252.0
175.983749 108.0
176.018082 172.0
176.046036 996.0
176.07724 332.0
176.115799 176.0
176.16069 84.0
176.276947 36.0
176.448746 204.0
176.533356 100.0
176.563461 116.0
176.569427 44.0
176.580154 144.0
176.67981 152.0
176.874664 128.0
176.96991 256.0
177.012329 156.0
177.049667 1180.0
177.089493 1768.0
177.123566 60.0
177.164688 144.0
177.192429 32.0
177.284988 56.0
177.446869 88.0
177.544968 124.0
177.571503 76.0
177.623169 108.0
177.674942 220.0
177.703247 200.0
177.746582 176.0
177.812927 180.0
177.836807 124.0
177.905823 208.0
178.037964 136.0
178.042084 140.0
178.094681 292.0
178.139511 168.0
178.330826 80.0
178.45311 208.0
178.508942 76.0
178.527557 160.0
178.554153 120.0
178.586075 160.0
178.700455 140.0
178.732391 52.0
178.804245 80.0
178.833511 144.0
178.937469 192.0
179.032181 360.0
179.068863 180.0
179.095352 248.0
179.150909 172.0
179.203079 144.0
179.228378 160.0
179.307266 144.0
179.512863 132.0
179.659561 216.0
179.808014 132.0
179.835678 188.0
179.884964 128.0
179.945114 84.0
180.038574 84.0
180.098465 208.0
180.166779 116.0
180.236252 188.0
180.38591 96.0
180.410217 88.0
180.431366 32.0
180.450073 156.0
180.656006 60.0
180.730911 160.0
180.864716 148.0
180.888809 180.0
181.052826 280.0
181.062622 148.0
181.119095 100.0
181.167313 104.0
181.261078 240.0
181.338806 108.0
181.393845 112.0
181.443405 84.0
181.851074 200.0
181.928909 140.0
182.065247 1368.0
182.116882 96.0
182.151794 108.0
182.17598 88.0
182.245819 104.0
182.277023 92.0
182.319962 168.0
182.428574 48.0
182.589905 72.0
182.646393 184.0
182.670593 160.0
182.95047 64.0
182.974686 88.0
182.996231 76.0
183.080994 208.0
183.313324 204.0
183.392227 180.0
183.452911 164.0
183.597122 160.0
183.865021 160.0
183.904694 128.0
184.047928 340.0
184.081436 136.0
184.088501 172.0
184.147232 96.0
184.185501 172.0
184.344894 168.0
184.410049 152.0
184.440247 216.0
184.601715 112.0
184.620636 120.0
184.755875 96.0
184.782928 92.0
184.958832 36.0
184.980484 132.0
185.004852 124.0
185.059708 900.0
185.134811 148.0
185.163559 52.0
185.397583 196.0
185.449081 120.0
185.649704 136.0
185.720215 36.0
185.847717 132.0
185.866714 76.0
185.92099 128.0
185.973007 240.0
186.063751 552.0
186.108719 204.0
186.135437 100.0
186.227783 180.0
186.355453 124.0
186.431534 176.0
186.576859 112.0
186.624527 224.0
186.711548 128.0
186.734573 92.0
186.755066 180.0
186.790421 116.0
187.042542 276.0
187.073898 2140.0
187.149658 56.0
187.171432 108.0
187.195953 164.0
187.277649 192.0
187.296722 128.0
187.321228 128.0
187.405121 168.0
187.498337 80.0
187.551361 176.0
187.577377 88.0
187.702789 152.0
187.754593 120.0
187.792786 80.0
187.844604 252.0
187.901901 156.0
187.948273 164.0
187.967377 132.0
188.037079 164.0
188.045944 188.0
188.078262 584.0
188.108932 152.0
188.139328 160.0
188.163895 148.0
188.245056 156.0
188.297699 168.0
188.333206 116.0
188.405746 144.0
188.444138 132.0
188.534241 164.0
188.600967 148.0
188.628311 64.0
188.656555 180.0
188.748596 76.0
188.830643 188.0
188.855255 160.0
188.882614 164.0
188.978363 96.0
189.013931 40.0
189.05426 2960.0
189.090652 2632.0
189.151398 52.0
189.189087 52.0
189.208252 80.0
189.298615 28.0
189.37529 64.0
189.521988 80.0
189.762619 128.0
189.890564 64.0
189.959137 64.0
190.057083 460.0
190.094574 460.0
190.137482 72.0
190.159424 148.0
190.203354 148.0
190.244522 192.0
190.326889 76.0
190.357086 88.0
190.464203 156.0
190.549622 128.0
190.575592 112.0
190.671616 144.0
190.723938 72.0
190.846191 220.0
190.881943 60.0
190.976089 204.0
191.03299 13384.0
191.068558 3868.0
191.142807 316.0
191.20163 132.0
191.261597 216.0
191.341431 84.0
191.362381 196.0
191.407516 132.0
191.511017 68.0
191.599396 60.0
191.619598 60.0
191.655411 56.0
191.687561 96.0
191.740204 120.0
191.771149 64.0
191.853851 84.0
191.893768 108.0
191.947586 44.0
192.036545 1148.0
192.071915 676.0
192.193085 168.0
192.217911 44.0
192.273102 88.0
192.292419 32.0
192.372147 172.0
192.56575 116.0
192.615479 120.0
192.637573 140.0
192.706635 60.0
192.806122 240.0
192.87355 100.0
192.923996 152.0
192.958145 144.0
193.036133 316.0
193.086197 168.0
193.12207 244.0
193.190445 64.0
193.25795 84.0
193.278976 100.0
193.328796 156.0
193.413879 156.0
193.434082 180.0
193.469955 152.0
193.54747 148.0
193.583466 136.0
193.630554 132.0
193.810608 248.0
193.846634 88.0
193.971344 88.0
194.05452 216.0
194.082245 136.0
194.104431 108.0
194.187622 152.0
194.251419 120.0
194.32077 140.0
194.499786 132.0
194.523361 124.0
194.661575 148.0
194.726059 208.0
194.792709 68.0
194.887177 112.0
194.937195 164.0
195.017776 168.0
195.040024 132.0
195.078934 164.0
195.098389 120.0
195.134537 192.0
195.220734 156.0
195.245758 88.0
195.276352 192.0
195.368149 132.0
195.582413 64.0
195.643646 136.0
195.741104 136.0
195.866425 116.0
196.00293 236.0
196.025223 240.0
196.083755 156.0
196.161789 80.0
196.287262 184.0
196.411636 140.0
196.532715 108.0
196.85524 176.0
197.024094 196.0
197.053406 196.0
197.097672 108.0
197.1073 36.0
197.118347 136.0
197.295898 200.0
197.333801 108.0
197.359482 164.0
197.398621 100.0
197.457352 156.0
197.703537 44.0
197.748322 176.0
197.874283 156.0
198.070862 284.0
198.196381 72.0
198.316254 160.0
198.435028 248.0
198.80835 192.0
198.84137 48.0
198.99295 156.0
199.023041 228.0
199.075394 1596.0
199.20076 92.0
199.265381 136.0
199.304703 148.0
199.344055 116.0
199.432648 176.0
199.460098 124.0
199.633591 32.0
199.661713 136.0
199.725464 216.0
199.996521 80.0
200.074036 412.0
200.224579 36.0
200.258377 104.0
200.34288 148.0
200.435852 64.0
200.464035 184.0
200.506302 180.0
200.616226 52.0
200.67868 104.0
200.703629 140.0
200.737457 112.0
200.812256 92.0
200.841812 40.0
200.86438 124.0
201.016724 164.0
201.050018 396.0
201.091019 1948.0
201.128265 216.0
201.242538 72.0
201.315948 128.0
201.468475 124.0
201.544754 152.0
201.573013 40.0
201.657791 40.0
201.734116 52.0
201.77652 128.0
201.827408 76.0
201.858521 208.0
201.920731 160.0
202.005585 88.0
202.055603 844.0
202.093369 312.0
202.149872 56.0
202.214966 156.0
202.268753 92.0
202.333862 112.0
202.625565 140.0
202.707733 176.0
202.733231 128.0
202.832428 44.0
202.954971 212.0
202.985535 204.0
203.033096 1928.0
203.068619 2672.0
203.099411 416.0
203.215271 92.0
203.368607 124.0
203.462189 156.0
203.572922 180.0
203.618362 216.0
203.641083 32.0
203.676102 256.0
203.712097 200.0
203.734085 92.0
203.763229 64.0
203.865524 60.0
203.88826 116.0
203.924286 172.0
204.036316 584.0
204.077545 1020.0
204.149796 160.0
204.343216 76.0
204.431427 108.0
204.587967 76.0
204.661987 52.0
204.681931 64.0
204.770554 132.0
204.830017 212.0
204.852814 48.0
204.889847 84.0
204.90979 168.0
204.935425 48.0
205.003815 84.0
205.047028 2008.0
205.084824 6032.0
205.12352 140.0
205.171982 40.0
205.193756 176.0
205.268921 48.0
205.440964 212.0
205.474289 48.0
205.557022 164.0
205.634079 40.0
205.660858 128.0
205.725418 112.0
205.750229 156.0
205.761414 92.0
205.766052 172.0
205.813919 136.0
205.83963 152.0
205.939575 52.0
205.985275 136.0
206.048782 248.0
206.086212 1128.0
206.123642 84.0
206.188141 108.0
206.259598 120.0
206.325348 48.0
206.388245 96.0
206.457993 92.0
206.481812 128.0
206.554779 172.0
206.602753 136.0
206.78894 56.0
206.887131 224.0
207.018326 144.0
207.054993 160.0
207.093811 120.0
207.284164 64.0
207.345291 220.0
207.430344 80.0
207.504868 104.0
207.536407 76.0
207.588028 180.0
207.714218 188.0
207.808884 128.0
207.929413 108.0
207.982773 168.0
208.018387 188.0
208.062927 248.0
208.11026 92.0
208.169983 60.0
208.256714 116.0
208.296127 136.0
208.403214 132.0
208.440567 64.0
208.475052 116.0
208.592896 348.0
208.67627 152.0
208.703079 160.0
209.036713 180.0
209.047958 200.0
209.069565 180.0
209.103165 108.0
209.162445 104.0
209.191223 152.0
209.276779 84.0
209.334091 168.0
209.398544 136.0
209.476074 148.0
209.56633 160.0
209.712585 132.0
209.758698 164.0
209.874023 92.0
209.925919 164.0
209.951874 164.0
210.008301 128.0
210.084656 128.0
210.122787 192.0
210.223053 104.0
210.24614 124.0
210.324066 140.0
210.35582 60.0
210.482849 184.0
210.627243 64.0
210.757248 44.0
210.907532 160.0
210.930649 192.0
210.958466 32.0
211.070908 296.0
211.141708 132.0
211.234268 216.0
211.610489 144.0
211.69339 204.0
211.758163 56.0
211.882721 108.0
211.905899 176.0
211.998627 148.0
212.018906 288.0
212.044769 368.0
212.081619 188.0
212.117462 196.0
212.160934 168.0
212.407425 108.0
212.581497 92.0
212.634216 96.0
212.773071 100.0
212.930176 168.0
212.976349 112.0
213.053223 792.0
213.089005 128.0
213.121094 348.0
213.223297 128.0
213.342468 140.0
213.48494 72.0
213.962128 92.0
213.985413 60.0
214.020874 136.0
214.058395 416.0
214.091522 164.0
214.133926 164.0
214.18927 176.0
214.267929 148.0
214.38739 68.0
214.41362 96.0
214.559357 108.0
214.579773 152.0
214.75473 160.0
214.783905 220.0
214.827652 72.0
214.923935 140.0
215.070221 2068.0
215.100464 716.0
215.136993 92.0
215.157425 124.0
215.259613 28.0
215.361832 256.0
215.388123 84.0
215.464066 208.0
215.49913 216.0
215.563416 92.0
215.618942 44.0
215.689087 52.0
215.741699 148.0
215.770935 124.0
215.902512 72.0
216.041809 680.0
216.071976 596.0
216.113129 268.0
216.154083 120.0
216.200912 80.0
216.224319 164.0
216.268219 92.0
216.319748 160.0
216.378265 156.0
216.47023 84.0
216.531723 136.0
216.569809 168.0
216.651825 160.0
216.74675 160.0
216.771957 92.0
216.821777 176.0
216.856934 176.0
216.884262 112.0
216.927292 180.0
216.976303 72.0
217.008316 356.0
217.052338 3508.0
217.085541 15292.0
217.191193 148.0
217.232254 60.0
217.257553 196.0
217.306595 136.0
217.342148 88.0
217.36734 204.0
217.419266 288.0
217.447586 52.0
217.46994 60.0
217.508087 68.0
217.542145 84.0
217.619644 144.0
217.679565 120.0
217.712036 104.0
217.754822 120.0
217.789978 96.0
217.836975 136.0
217.872223 60.0
217.919235 40.0
217.980927 164.0
218.056 820.0
218.087814 2192.0
218.20726 52.0
218.239594 76.0
218.316055 124.0
218.362091 176.0
218.43663 156.0
218.480759 56.0
218.680862 152.0
218.727951 84.0
218.891769 112.0
218.981171 80.0
219.026825 160.0
219.067551 516.0
219.160858 88.0
219.255157 72.0
219.289795 48.0
219.315857 148.0
219.333038 152.0
219.358322 60.0
219.520477 68.0
219.558807 100.0
219.583954 172.0
219.692642 108.0
219.738739 184.0
219.847458 108.0
219.889236 92.0
219.951843 76.0
220.011795 92.0
220.069244 248.0
220.111969 108.0
220.21991 132.0
220.290802 68.0
220.346939 96.0
220.37648 116.0
220.416565 120.0
220.530151 56.0
220.606995 120.0
220.642471 164.0
220.698654 84.0
220.848434 164.0
220.893829 160.0
220.994415 176.0
221.095749 256.0
221.180862 120.0
221.209793 160.0
221.275589 76.0
221.35553 184.0
221.382187 216.0
221.432526 116.0
221.465118 100.0
221.645325 96.0
221.728806 112.0
221.758438 64.0
221.810944 168.0
221.850937 196.0
221.875778 96.0
221.94223 140.0
221.975464 96.0
222.010437 152.0
222.054916 64.0
222.086365 120.0
222.129272 176.0
222.222366 152.0
222.247742 112.0
222.307083 164.0
222.354568 136.0
222.387222 200.0
222.508347 124.0
222.74649 64.0
222.918823 36.0
223.046616 140.0
223.07634 196.0
223.111374 144.0
223.165527 116.0
223.281494 76.0
223.412201 344.0
223.442123 172.0
223.465927 224.0
223.505066 260.0
223.534363 104.0
223.7547 148.0
223.861801 136.0
223.982666 148.0
224.010727 172.0
224.031586 148.0
224.056564 204.0
224.105042 208.0
224.266983 120.0
224.356415 72.0
224.559174 188.0
224.675507 108.0
224.920197 92.0
224.997818 124.0
225.033646 132.0
225.058456 116.0
225.07843 168.0
225.171005 244.0
225.299438 128.0
225.472748 152.0
225.50264 100.0
225.540649 224.0
225.71489 164.0
225.858444 176.0
225.969116 108.0
226.066666 120.0
226.091721 128.0
226.133713 164.0
226.229492 132.0
226.323242 128.0
226.409134 120.0
226.606842 156.0
226.654785 56.0
226.703659 196.0
226.729691 112.0
226.81662 112.0
227.008484 188.0
227.069611 4168.0
227.158447 152.0
227.203445 84.0
227.412415 144.0
227.458527 108.0
227.494553 124.0
227.617645 92.0
227.668686 44.0
227.734756 104.0
227.854919 60.0
227.88797 164.0
227.960083 224.0
228.067566 1812.0
228.338867 152.0
228.432114 68.0
228.493652 168.0
228.516342 96.0
228.543427 144.0
228.564484 84.0
228.636719 56.0
228.734421 216.0
228.943787 88.0
229.084381 1948.0
229.119736 48.0
229.126755 188.0
229.202835 216.0
229.308319 84.0
229.410797 156.0
229.510284 92.0
229.715363 56.0
229.74855 92.0
229.796127 172.0
229.887146 184.0
229.932617 144.0
230.011093 204.0
230.054932 1316.0
230.086975 876.0
230.133301 112.0
230.19223 80.0
230.370422 192.0
230.439911 156.0
230.470123 104.0
230.536606 228.0
230.623001 68.0
230.651459 188.0
230.705872 72.0
230.790512 60.0
230.828491 136.0
230.860062 88.0
230.893326 52.0
230.98407 40.0
231.029312 356.0
231.063736 7128.0
231.097977 784.0
231.148773 128.0
231.198883 244.0
231.232941 176.0
231.252457 148.0
231.290955 124.0
231.365356 88.0
231.477386 108.0
231.521973 160.0
231.574295 76.0
231.604584 76.0
231.768173 72.0
231.813629 240.0
231.856049 44.0
231.940918 104.0
231.968201 32.0
232.022064 120.0
232.032959 188.0
232.068359 1856.0
232.103622 504.0
232.194977 116.0
232.253235 116.0
232.474701 52.0
232.508087 72.0
232.562714 100.0
232.60994 72.0
232.787384 160.0
232.86026 76.0
232.921127 104.0
232.981003 264.0
233.004425 148.0
233.033417 128.0
233.080048 25100.0
233.188385 88.0
233.240295 48.0
233.30101 76.0
233.349503 52.0
233.392059 100.0
233.448318 88.0
233.501541 44.0
233.529984 144.0
233.598877 132.0
233.627335 56.0
233.705536 128.0
233.747955 56.0
233.813202 136.0
233.848373 168.0
233.88501 120.0
233.924469 128.0
233.95491 64.0
234.006668 48.0
234.083038 3964.0
234.142822 152.0
234.235077 136.0
234.313477 180.0
234.388504 88.0
234.463577 140.0
234.509293 48.0
234.545868 88.0
234.585495 64.0
234.648254 184.0
234.704407 80.0
234.932007 128.0
235.012466 100.0
235.087204 272.0
235.143677 88.0
235.186417 60.0
235.216934 96.0
235.255188 128.0
235.290207 44.0
235.311569 44.0
235.430664 60.0
235.507004 332.0
235.6548 168.0
235.67897 96.0
235.754471 60.0
235.819702 248.0
235.858765 100.0
236.044876 28.0
236.0793 220.0
236.104538 152.0
236.154465 48.0
236.24675 136.0
236.307922 80.0
236.363007 100.0
236.495926 148.0
236.543579 92.0
236.702774 76.0
236.809967 92.0
236.89975 104.0
236.952225 56.0
236.975372 120.0
237.063995 196.0
237.122467 132.0
237.183762 120.0
237.268829 144.0
237.6315 104.0
237.672256 196.0
237.987534 68.0
238.077728 128.0
238.11731 268.0
238.141068 100.0
238.184082 164.0
238.251663 60.0
238.651199 36.0
238.674255 88.0
238.882721 120.0
238.940308 148.0
239.07045 188.0
239.102417 192.0
239.112473 176.0
239.16098 140.0
239.181656 176.0
239.241898 168.0
239.402008 172.0
239.423569 104.0
239.522125 64.0
239.770721 140.0
239.820999 124.0
240.02446 112.0
240.074203 188.0
240.106094 144.0
240.141388 196.0
240.218765 128.0
240.240356 76.0
240.302979 148.0
240.332916 108.0
240.373032 200.0
240.403885 92.0
240.558212 76.0
240.589081 136.0
240.752731 148.0
240.924271 132.0
241.009109 236.0
241.049286 160.0
241.082733 288.0
241.219269 128.0
241.608917 104.0
241.729584 192.0
241.757431 152.0
241.791473 144.0
241.850281 116.0
241.944824 184.0
242.050491 328.0
242.082794 640.0
242.12854 232.0
242.305481 176.0
242.454224 108.0
242.497604 108.0
242.562698 156.0
242.762558 164.0
242.942047 136.0
243.012375 172.0
243.085007 608.0
243.137146 136.0
243.266861 48.0
243.415878 60.0
243.518356 112.0
243.5867 136.0
243.614349 144.0
243.664368 44.0
243.698532 128.0
243.763794 52.0
243.867615 156.0
244.015549 152.0
244.042618 136.0
244.070541 180.0
244.097748 500.0
244.139938 308.0
244.22702 204.0
244.270569 120.0
244.314117 108.0
244.404343 80.0
244.439514 264.0
244.522781 132.0
244.572388 240.0
244.630768 172.0
244.656433 132.0
244.70314 264.0
244.742996 184.0
244.80278 56.0
244.836304 172.0
244.859665 128.0
244.882248 108.0
244.905548 120.0
244.938812 128.0
244.962112 124.0
244.987869 112.0
245.019653 320.0
245.08049 80748.0
245.156342 112.0
245.162674 100.0
245.257996 184.0
245.329086 76.0
245.365997 168.0
245.387009 244.0
245.405624 196.0
245.434219 156.0
245.491257 76.0
245.514282 204.0
245.562225 72.0
245.589661 236.0
245.627045 124.0
245.663773 140.0
245.699158 68.0
245.720322 128.0
245.733459 48.0
245.75824 124.0
245.815186 72.0
245.862457 152.0
245.91301 180.0
245.954208 136.0
245.986923 104.0
246.08313 12880.0
246.119858 612.0
246.1698 96.0
246.182907 132.0
246.237335 84.0
246.259186 68.0
246.334152 120.0
246.431 56.0
246.4702 140.0
246.512238 40.0
246.594925 176.0
246.637253 128.0
246.677887 112.0
246.727127 48.0
246.810242 96.0
246.856094 48.0
246.906998 132.0
246.963913 76.0
247.03125 48.0
247.088821 916.0
247.152618 324.0
247.181427 44.0
247.206451 88.0
247.291687 68.0
247.354904 84.0
247.398819 76.0
247.43808 96.0
247.491302 148.0
247.511429 124.0
247.565079 56.0
247.632233 244.0
247.654144 88.0
247.677643 152.0
247.723068 40.0
247.758041 72.0
247.782578 136.0
247.816422 100.0
247.839874 140.0
247.887863 60.0
247.909698 120.0
247.938141 124.0
247.994415 132.0
248.033279 28.0
248.060486 168.0
248.097275 620.0
248.12233 140.0
248.144043 200.0
248.2202 84.0
248.308105 92.0
248.437805 60.0
248.635483 104.0
248.685684 40.0
248.727707 52.0
248.759674 84.0
248.814804 60.0
248.861954 80.0
248.954742 160.0
248.987091 28.0
249.094894 160.0
249.219543 32.0
249.269821 44.0
249.355484 140.0
249.466949 144.0
249.527557 56.0
249.615601 36.0
249.684784 100.0
250.027695 228.0
250.068604 116.0
250.100677 200.0
250.304718 128.0
250.446442 104.0
250.496841 144.0
250.550385 84.0
250.893906 72.0
250.971512 188.0
250.99794 44.0
251.023163 68.0
251.067322 168.0
251.110748 148.0
251.199783 184.0
251.229797 156.0
251.395401 124.0
251.490082 48.0
251.559525 132.0
251.628983 88.0
251.688965 136.0
251.865814 156.0
252.053955 248.0
252.089584 140.0
252.162827 100.0
252.286102 176.0
252.317703 72.0
252.380951 100.0
252.478973 44.0
252.807983 104.0
252.953568 136.0
253.059769 276.0
253.088303 136.0
253.096252 140.0
253.116623 156.0
253.183426 200.0
253.248047 68.0
253.390594 68.0
253.602905 60.0
253.628265 80.0
253.669464 60.0
253.77092 148.0
253.818481 52.0
254.077438 136.0
254.12001 160.0
254.243546 140.0
254.459396 144.0
254.548294 44.0
254.862762 184.0
254.988907 172.0
255.063522 428.0
255.096237 272.0
255.147644 284.0
255.172928 164.0
255.184494 212.0
255.256912 184.0
255.3237 184.0
255.365036 80.0
255.470001 192.0
255.530457 44.0
255.788223 184.0
255.960144 144.0
256.007904 56.0
256.064209 260.0
256.090851 260.0
256.167145 148.0
256.230865 96.0
256.402924 116.0
256.444366 136.0
256.50174 176.0
256.562317 84.0
256.740875 112.0
256.769562 80.0
256.960968 124.0
256.992859 64.0
257.079712 2424.0
257.125214 320.0
257.150818 176.0
257.200134 84.0
257.379089 220.0
257.871033 148.0
257.963745 72.0
258.078979 376.0
258.123566 328.0
258.150696 284.0
258.213135 60.0
258.280304 56.0
258.312286 48.0
258.523438 72.0
258.565063 80.0
258.654663 124.0
258.872375 88.0
258.917206 88.0
259.096588 1364.0
259.132629 696.0
259.196564 176.0
259.269623 164.0
259.449127 68.0
259.724884 84.0
259.753754 44.0
259.867493 124.0
259.994385 76.0
260.025055 220.0
260.101471 904.0
260.138245 292.0
260.228729 64.0
260.43103 96.0
260.582001 40.0
260.607727 200.0
260.646271 80.0
260.671967 52.0
260.826233 84.0
260.958038 68.0
260.996643 76.0
261.074738 2284.0
261.143463 244.0
261.199249 48.0
261.532227 60.0
261.646545 172.0
261.772125 44.0
261.833313 108.0
262.000793 92.0
262.052338 152.0
262.081238 428.0
262.102356 192.0
262.146515 316.0
262.21347 192.0
262.239258 80.0
262.445557 124.0
262.494598 96.0
262.635834 60.0
262.777771 116.0
262.939117 72.0
262.990753 128.0
263.062164 168.0
263.08902 160.0
263.118896 324.0
263.255493 72.0
263.284546 48.0
263.452515 240.0
263.546204 152.0
263.672241 36.0
263.701324 68.0
263.743347 68.0
263.892029 100.0
264.011688 116.0
264.061981 232.0
264.096985 184.0
264.134583 60.0
264.170166 40.0
264.241333 80.0
264.425781 44.0
264.542297 92.0
264.619995 132.0
264.743042 116.0
264.921204 192.0
265.037231 108.0
265.091949 104.0
265.126343 128.0
265.216064 108.0
265.254974 196.0
265.472198 52.0
265.553253 36.0
265.738159 44.0
265.770599 112.0
265.84848 144.0
265.952332 172.0
265.988037 76.0
266.077545 368.0
266.120178 172.0
266.128845 120.0
266.241302 132.0
266.273773 188.0
266.361481 204.0
266.458923 64.0
266.540161 128.0
266.698334 116.0
266.748138 112.0
266.790405 116.0
266.813171 164.0
266.943237 48.0
267.066803 184.0
267.107391 208.0
267.145874 488.0
267.437744 104.0
267.4841 304.0
267.750275 108.0
267.773071 168.0
267.903381 136.0
267.981567 52.0
268.093872 112.0
268.116211 140.0
268.145782 160.0
268.183594 104.0
268.444427 156.0
268.571625 140.0
268.620056 188.0
268.67926 72.0
268.705353 56.0
269.057831 136.0
269.096558 244.0
269.257019 144.0
269.400726 136.0
269.596771 108.0
269.720947 160.0
269.969452 60.0
270.07489 320.0
270.119476 556.0
270.280212 148.0
270.38324 124.0
270.411102 100.0
270.777771 184.0
270.902252 156.0
270.973694 104.0
271.086365 1572.0
271.282379 108.0
271.439758 56.0
271.698853 192.0
271.758575 160.0
271.853088 96.0
271.9133 92.0
271.974518 64.0
272.0336 132.0
272.05777 252.0
272.09021 684.0
272.131683 208.0
272.184631 96.0
272.22403 92.0
272.250305 144.0
272.297974 224.0
272.317352 192.0
272.359833 180.0
272.388245 132.0
272.442444 140.0
272.479065 156.0
272.520264 168.0
272.575897 136.0
272.621521 88.0
272.655396 104.0
272.693817 44.0
272.732727 176.0
272.762573 160.0
272.834717 172.0
272.864746 96.0
272.887756 96.0
272.9422 248.0
272.992615 308.0
273.075562 126772.0
273.14444 304.0
273.204773 116.0
273.270691 48.0
273.301819 232.0
273.307312 108.0
273.366455 172.0
273.397827 128.0
273.421967 44.0
273.478607 180.0
273.529266 104.0
273.578644 24.0
273.617859 344.0
273.660583 156.0
273.768738 108.0
273.777161 96.0
273.853241 172.0
273.921112 112.0
273.944183 72.0
273.98288 48.0
274.013214 296.0
274.078125 16108.0
274.14978 220.0
274.220154 84.0
274.27478 84.0
274.28183 160.0
274.349213 92.0
274.394318 148.0
274.443542 92.0
274.45694 48.0
274.463593 120.0
274.500336 48.0
274.555511 124.0
274.600098 56.0
274.648712 168.0
274.704498 68.0
274.745239 64.0
274.778229 188.0
274.830017 144.0
274.8927 156.0
274.930023 124.0
275.02243 48.0
275.078461 2016.0
275.11615 392.0
275.167206 112.0
275.223816 112.0
275.293152 52.0
275.322876 52.0
275.378601 160.0
275.405426 64.0
275.451691 60.0
275.486359 108.0
275.503113 76.0
275.547485 52.0
275.587891 52.0
275.651367 136.0
275.689575 80.0
275.712708 80.0
275.73584 52.0
275.791565 140.0
275.843964 140.0
275.874664 68.0
275.919098 116.0
275.951721 92.0
275.986023 140.0
276.030182 104.0
276.092743 448.0
276.148041 148.0
276.182281 112.0
276.213593 88.0
276.274811 100.0
276.408539 76.0
276.470001 180.0
276.532898 52.0
276.628876 160.0
276.739868 84.0
276.948639 120.0
277.068359 324.0
277.10553 272.0
277.244934 116.0
277.278076 56.0
277.460388 60.0
277.621643 76.0
277.682556 40.0
277.70578 68.0
277.755524 52.0
277.961212 60.0
278.010986 48.0
278.044189 164.0
278.114166 284.0
278.349579 48.0
278.37616 60.0
278.671783 52.0
278.754852 72.0
278.801361 36.0
279.035919 92.0
279.047089 52.0
279.059418 140.0
279.082794 124.0
279.120483 124.0
279.144806 156.0
279.187012 164.0
279.25766 80.0
279.379913 116.0
279.589539 100.0
279.686066 80.0
279.755951 56.0
280.05423 160.0
280.09552 500.0
280.116425 128.0
280.124176 76.0
280.129364 236.0
280.168884 84.0
280.215546 48.0
280.3255 128.0
281.0224 96.0
281.087463 128.0
281.127716 176.0
282.102905 216.0
282.152679 140.0
282.188019 96.0
282.562592 172.0
282.786804 160.0
283.081421 180.0
283.137787 440.0
283.439819 32.0
283.600677 48.0
283.691193 76.0
283.986267 52.0
284.091217 128.0
284.130188 344.0
284.211029 100.0
284.351959 68.0
284.506378 84.0
284.640686 56.0
284.664185 124.0
284.707855 108.0
284.91272 140.0
285.070648 48.0
285.120026 184.0
285.161377 128.0
285.184906 92.0
285.215546 172.0
285.28241 60.0
285.376526 44.0
285.672485 48.0
285.817139 76.0
285.840698 148.0
286.008972 108.0
286.11731 1124.0
286.334778 120.0
286.439972 168.0
286.4758 76.0
286.635376 144.0
286.813995 140.0
286.901642 108.0
286.945465 84.0
287.039886 76.0
287.088135 628.0
287.126251 732.0
287.414307 40.0
287.502045 148.0
288.08606 140.0
288.133575 1308.0
288.271973 100.0
288.390259 144.0
288.518707 120.0
288.7435 100.0
288.812897 84.0
288.93808 144.0
288.995575 60.0
289.092072 256.0
289.141663 4072.0
289.2211 200.0
289.252014 52.0
289.35434 72.0
289.401733 108.0
289.489777 40.0
289.540588 60.0
289.760742 40.0
289.879333 84.0
289.933563 172.0
290.109039 608.0
290.144684 832.0
290.214905 140.0
290.421783 40.0
290.752777 108.0
290.832336 192.0
290.876465 60.0
291.090851 188.0
291.139496 536.0
291.233002 88.0
291.644104 112.0
291.982483 84.0
292.091827 120.0
292.120331 168.0
292.23584 100.0
292.317505 64.0
292.559143 92.0
292.79068 40.0
292.947357 112.0
292.995056 128.0
293.01889 36.0
293.063202 152.0
293.101013 156.0
293.168823 60.0
293.32901 116.0
293.536987 72.0
293.745026 60.0
293.796204 152.0
293.963379 248.0
294.111298 600.0
294.209137 108.0
294.376434 72.0
294.451569 96.0
294.786346 148.0
294.817108 108.0
294.902557 68.0
295.059784 60.0
295.12735 280.0
295.278625 144.0
295.470184 48.0
295.538605 116.0
295.888092 212.0
296.105591 140.0
296.142914 168.0
296.206207 200.0
296.398041 36.0
296.63797 28.0
297.081818 192.0
297.112427 232.0
297.162689 188.0
297.478394 120.0
297.852692 184.0
298.017578 72.0
298.106476 224.0
298.154938 140.0
298.261566 168.0
298.522858 72.0
298.80835 120.0
298.846191 172.0
299.106598 276.0
299.131378 148.0
299.262665 156.0
300.114227 156.0
300.158508 144.0
300.203339 76.0
300.410278 124.0
300.462036 124.0
300.562103 136.0
301.032166 136.0
301.072998 124.0
301.141205 7864.0
301.519623 224.0
301.601105 56.0
301.698975 100.0
301.767517 104.0
301.847046 48.0
301.905853 44.0
301.988861 68.0
302.082153 160.0
302.108795 168.0
302.145325 1860.0
302.282745 92.0
302.501617 248.0
302.57019 56.0
302.746765 76.0
302.777954 108.0
302.826416 100.0
302.892242 64.0
302.923401 56.0
302.978851 56.0
303.07431 224.0
303.1091 288.0
303.15213 324.0
303.526459 172.0
304.053741 56.0
304.104095 364.0
304.164825 156.0
304.236847 112.0
304.352295 104.0
304.553711 124.0
304.61969 92.0
304.668335 48.0
304.74823 56.0
304.842072 164.0
305.100525 368.0
305.137512 100.0
305.21051 52.0
305.419189 144.0
305.474823 36.0
305.544403 96.0
306.111664 288.0
306.484467 108.0
306.526276 40.0
306.923645 52.0
306.972473 124.0
307.049194 96.0
307.13559 528.0
307.1922 124.0
307.241028 124.0
308.054413 152.0
308.089661 92.0
308.146912 384.0
308.319977 136.0
308.35141 48.0
308.501709 52.0
308.917847 140.0
309.120392 352.0
309.155762 124.0
309.211761 156.0
309.295776 80.0
309.365784 72.0
309.526825 56.0
309.638885 36.0
310.087341 76.0
310.136414 164.0
310.22403 32.0
310.252075 120.0
310.455444 56.0
311.126251 476.0
311.213379 36.0
312.126648 120.0
312.531464 132.0
312.777802 108.0
313.118195 136.0
313.13327 92.0
313.14151 132.0
313.549133 100.0
313.718323 60.0
314.053314 28.0
314.988678 52.0
315.105255 124.0
315.939606 124.0
315.996216 208.0
316.049286 48.0
316.084656 128.0
316.127136 168.0
316.725464 128.0
317.089447 160.0
317.131958 536.0
317.1698 120.0
317.221558 60.0
317.799622 60.0
317.984131 44.0
318.044495 228.0
318.11084 1756.0
318.225525 56.0
318.31076 124.0
318.40036 84.0
318.470551 176.0
318.518341 88.0
318.545166 68.0
319.126495 648.0
319.227539 56.0
319.309326 140.0
319.369812 68.0
319.483643 100.0
319.540558 52.0
319.796753 200.0
319.843048 72.0
320.088379 132.0
320.120636 160.0
320.39856 124.0
320.64798 172.0
320.836914 164.0
321.000916 164.0
321.082062 384.0
321.120239 1044.0
321.557434 120.0
321.675232 124.0
321.739471 156.0
322.109222 584.0
322.375244 140.0
322.425293 68.0
322.518219 76.0
322.764893 108.0
323.137756 1208.0
323.201263 132.0
323.34314 132.0
323.39093 164.0
324.095642 156.0
324.127563 400.0
324.712982 96.0
324.849274 112.0
324.880341 224.0
325.114807 260.0
325.145386 232.0
326.143036 644.0
326.213867 92.0
326.875641 100.0
327.087952 164.0
327.139923 440.0
328.0065 72.0
328.053345 44.0
328.118256 160.0
328.146637 260.0
328.190369 40.0
328.222076 120.0
328.38147 32.0
328.572662 208.0
328.799988 148.0
329.136353 3304.0
329.496887 84.0
329.547455 64.0
329.854645 116.0
330.0354 44.0
330.100494 116.0
330.138214 548.0
331.023254 52.0
331.059448 164.0
331.143646 136.0
331.233307 52.0
331.334747 64.0
331.439819 56.0
331.896515 44.0
332.023438 40.0
332.110474 92.0
332.143127 116.0
332.280975 84.0
332.320892 64.0
332.484161 128.0
332.618469 100.0
332.662018 48.0
333.111633 96.0
333.174072 116.0
333.388428 56.0
333.442963 48.0
333.834106 148.0
334.103119 324.0
334.112854 292.0
334.126099 92.0
334.363068 92.0
335.007568 184.0
335.137085 1880.0
335.197754 144.0
335.557861 152.0
335.740173 96.0
335.816772 88.0
335.944427 60.0
336.060059 156.0
336.13028 268.0
336.272827 48.0
336.491852 48.0
336.608673 44.0
336.743805 84.0
336.858398 32.0
337.083557 100.0
337.146698 416.0
337.204163 48.0
337.295532 48.0
337.525848 76.0
337.811127 128.0
338.140442 112.0
338.168701 160.0
338.297821 68.0
338.462585 124.0
339.015686 92.0
339.096649 252.0
339.131561 312.0
339.184296 60.0
339.246613 64.0
339.521606 88.0
339.649963 80.0
339.752686 172.0
339.778351 88.0
340.103119 124.0
340.144135 292.0
340.40686 104.0
341.137756 120.0
341.184937 136.0
341.302582 52.0
341.567383 76.0
342.154022 96.0
342.727051 104.0
342.878143 68.0
343.125092 156.0
343.162323 128.0
343.25415 128.0
343.866547 276.0
343.955109 116.0
344.088013 92.0
344.150787 156.0
344.268951 68.0
344.346497 64.0
344.667877 72.0
344.908112 136.0
345.113892 312.0
345.120483 108.0
345.163208 124.0
345.529358 64.0
345.588562 76.0
345.614471 76.0
345.699554 168.0
345.903137 100.0
346.105316 2196.0
346.30072 84.0
346.358582 52.0
346.654968 64.0
346.688324 48.0
346.740204 120.0
347.040466 76.0
347.105103 444.0
347.255554 64.0
347.800964 100.0
348.101318 204.0
348.625458 92.0
348.792725 180.0
349.004608 152.0
349.161377 152.0
349.201721 160.0
349.246338 56.0
349.506744 92.0
349.555115 52.0
349.992188 228.0
350.031586 188.0
350.091187 52.0
350.134949 252.0
350.161926 188.0
350.206635 60.0
350.269958 168.0
350.500916 100.0
350.615479 124.0
350.922119 76.0
351.076843 168.0
351.132355 1888.0
351.455475 112.0
351.522644 68.0
351.623413 100.0
351.768951 60.0
352.133118 440.0
352.209595 164.0
352.429993 68.0
352.568268 40.0
352.721497 120.0
352.773834 88.0
352.803741 68.0
352.90094 88.0
353.150116 108.0
353.319824 60.0
353.428314 68.0
353.735199 64.0
353.840027 144.0
353.911163 124.0
354.079681 56.0
355.226624 72.0
355.459229 40.0
355.564301 124.0
355.718201 60.0
356.104919 124.0
356.153748 44.0
356.191315 184.0
356.450562 120.0
356.514435 92.0
356.548248 108.0
357.127258 60.0
357.153564 52.0
357.341675 112.0
357.552399 192.0
357.951416 156.0
358.34314 140.0
358.524017 76.0
358.640869 156.0
358.68985 152.0
359.651703 88.0
359.795166 28.0
360.391876 116.0
360.490143 92.0
360.77359 208.0
360.826538 100.0
360.936188 100.0
361.10257 236.0
361.427887 64.0
361.813965 136.0
361.904816 128.0
361.987122 76.0
362.086578 64.0
362.160553 120.0
362.215363 176.0
362.357605 96.0
362.431305 80.0
362.526031 116.0
362.594238 124.0
362.624573 40.0
362.654877 32.0
362.852295 156.0
362.90979 168.0
362.991791 128.0
363.025757 184.0
363.052795 176.0
363.13269 29856.0
363.226471 160.0
363.291809 144.0
363.379181 52.0
363.425964 252.0
363.471436 76.0
363.504395 152.0
363.530945 56.0
363.578583 124.0
363.631531 116.0
363.675171 76.0
363.732117 32.0
363.80423 48.0
363.834595 88.0
363.897797 112.0
363.986481 44.0
364.026184 52.0
364.067291 156.0
364.135132 7132.0
364.211975 64.0
364.248535 32.0
364.286499 28.0
364.324493 36.0
364.351105 116.0
364.468597 56.0
364.529663 56.0
364.58667 92.0
364.674072 76.0
364.704102 40.0
364.862244 56.0
365.011688 84.0
365.065674 80.0
365.136505 936.0
365.215576 124.0
365.309082 56.0
365.548767 156.0
365.628693 44.0
365.697205 44.0
365.773315 32.0
365.872314 120.0
366.096954 104.0
366.141388 276.0
366.216156 80.0
366.241669 120.0
366.318665 56.0
366.489288 164.0
366.548767 152.0
366.599792 56.0
366.634094 92.0
366.674011 84.0
366.782745 44.0
366.889465 124.0
367.076294 72.0
367.18689 80.0
367.413666 88.0
367.888977 56.0
368.098969 132.0
368.137146 128.0
368.80954 48.0
369.018127 188.0
369.142975 4872.0
369.233948 144.0
369.337219 92.0
369.440491 52.0
369.599579 72.0
369.960938 120.0
370.014526 120.0
370.147797 1196.0
370.500916 32.0
370.60437 72.0
370.707825 72.0
370.82663 48.0
370.999115 28.0
371.137115 108.0
371.263672 104.0
371.420929 64.0
371.628082 80.0
371.662598 32.0
372.503387 124.0
373.194336 152.0
373.84906 68.0
374.047089 132.0
374.203186 48.0
374.530518 60.0
374.904236 96.0
375.440094 96.0
375.490234 52.0
376.093597 52.0
376.15387 148.0
376.192474 144.0
376.74469 96.0
377.14566 168.0
378.171539 176.0
378.198639 228.0
379.011902 168.0
379.093262 72.0
379.199982 104.0
379.232788 104.0
379.736816 120.0
379.829895 100.0
380.109222 56.0
380.200684 100.0
380.446899 116.0
380.500214 120.0
380.726471 68.0
380.889587 56.0
380.928436 104.0
381.072174 68.0
381.142944 3396.0
381.476349 124.0
381.516235 80.0
381.600281 68.0
381.66684 44.0
381.764069 44.0
382.067444 68.0
382.145782 776.0
382.818634 140.0
383.071808 96.0
383.152222 212.0
383.675842 48.0
383.753815 80.0
384.1633 136.0
384.194519 124.0
384.307648 64.0
384.385712 48.0
384.506683 108.0
384.651093 48.0
384.736969 120.0
385.119659 56.0
385.17041 52.0
385.674469 120.0
386.143646 64.0
386.859711 44.0
387.424835 156.0
387.999695 52.0
388.325165 92.0
388.917633 100.0
389.157104 72.0
391.055786 176.0
391.204834 240.0
392.196869 180.0
392.611969 96.0
392.939362 80.0
393.132721 96.0
393.22168 120.0
393.369537 128.0
394.906586 100.0
395.126862 104.0
395.160095 252.0
395.200928 268.0
395.361542 104.0
395.769287 48.0
396.151794 328.0
397.723694 176.0
398.084991 128.0
398.545746 100.0
399.448212 48.0
399.523804 56.0
399.985413 64.0
400.192413 44.0
400.291962 96.0
400.594666 60.0
400.897461 104.0
401.186798 368.0
402.14975 208.0
402.1875 156.0
402.301422 72.0
403.183197 136.0
403.60788 108.0
403.875824 116.0
405.66571 220.0
405.78598 112.0
406.110809 148.0
406.223114 112.0
408.239349 36.0
408.569153 64.0
409.213074 164.0
410.187988 144.0
410.224274 112.0
412.294861 88.0
412.387817 128.0
413.220825 48.0
414.111389 80.0
415.124542 76.0
417.227783 84.0
417.496124 80.0
417.632965 56.0
417.882568 76.0
418.132568 64.0
418.265106 36.0
418.379089 60.0
418.684448 84.0
419.19278 3256.0
419.254791 216.0
419.332245 68.0
419.6828 48.0
420.072937 152.0
420.19458 1880.0
420.437469 68.0
420.466034 52.0
420.794403 80.0
420.955902 56.0
421.201416 144.0
421.311249 64.0
421.401123 116.0
421.470581 76.0
421.809784 88.0
421.944702 60.0
422.153229 96.0
422.263641 76.0
422.852783 76.0
422.926453 84.0
423.724976 108.0
428.494873 124.0
428.573151 52.0
429.348114 40.0
429.579102 116.0
429.72348 44.0
429.925659 104.0
431.135681 52.0
431.520081 56.0
432.202545 40.0
434.195068 128.0
434.460541 76.0
434.829834 128.0
435.452606 48.0
435.573059 96.0
435.67691 56.0
435.859711 80.0
436.117371 76.0
436.312744 116.0
436.418182 144.0
436.474884 80.0
436.508148 96.0
436.574677 96.0
436.612122 108.0
436.691132 136.0
436.766022 96.0
436.795135 192.0
436.899109 124.0
436.994812 192.0
437.204926 15500.0
437.312775 176.0
437.377655 52.0
437.423462 48.0
437.494232 80.0
437.538208 64.0
437.549744 36.0
437.563019 76.0
437.662231 72.0
437.722046 184.0
437.827332 36.0
437.856476 48.0
437.927277 96.0
437.977264 36.0
438.027252 52.0
438.073059 36.0
438.106384 48.0
438.20813 3848.0
438.343872 136.0
438.589752 80.0
438.652283 32.0
438.739838 48.0
438.810699 40.0
438.939972 40.0
438.973328 64.0
439.212494 780.0
439.273621 156.0
439.32785 36.0
439.43631 72.0
439.678345 76.0
439.789001 108.0
439.886902 96.0
440.207733 284.0
440.413147 56.0
440.567719 60.0
440.697205 92.0
440.739014 104.0
440.826752 68.0
440.947937 96.0
441.048248 48.0
441.223816 132.0
441.474701 100.0
441.587616 64.0
442.134583 56.0
442.206818 92.0
442.910248 104.0
443.153229 52.0
443.35434 40.0
443.442352 96.0
443.484283 100.0
444.046082 64.0
444.769348 136.0
446.078308 68.0
446.137177 40.0
447.159302 64.0
447.613953 36.0
448.397522 76.0
448.73053 48.0
448.869659 96.0
448.916046 76.0
450.131348 68.0
451.521667 100.0
451.57666 76.0
452.334045 88.0
452.753204 112.0
453.007324 40.0
456.678986 112.0
457.751434 100.0
460.348389 56.0
462.036713 84.0
462.33194 100.0
466.157135 96.0
466.56546 52.0
467.335327 136.0
469.045013 40.0
472.24881 56.0
472.828552 48.0
473.724854 56.0
475.815125 60.0
478.684814 88.0
481.486908 72.0
481.860138 68.0
482.716827 92.0
485.322174 108.0
486.594543 84.0
486.656006 64.0
492.539581 92.0
493.370361 76.0
494.449615 88.0
494.538147 76.0
495.299713 68.0
495.716156 104.0
497.445892 92.0
497.768127 152.0
497.956512 40.0
498.942963 48.0
499.69458 56.0
499.814697 76.0
500.014954 108.0
501.203949 76.0
502.215912 72.0
503.094971 44.0
504.833038 48.0
505.396637 44.0
506.076996 28.0
506.789154 48.0
508.443817 152.0
509.130676 80.0
510.465332 56.0
513.69458 76.0
514.6875 68.0
516.413818 108.0
516.468079 80.0
518.755127 48.0
519.752563 64.0
522.960938 52.0
526.745483 68.0
527.869751 80.0
528.651978 76.0
529.64093 48.0
535.460205 52.0
536.639893 68.0
537.700867 60.0
540.482788 56.0
541.209473 92.0
545.933289 96.0
546.030945 72.0
546.17511 36.0
546.682251 128.0
550.378723 76.0
550.911133 52.0
551.355042 116.0
551.929993 44.0
552.140442 60.0
552.542725 124.0
552.757935 52.0
553.755066 60.0
554.392212 56.0
561.887268 32.0
562.864258 88.0
564.508667 116.0
568.710938 80.0
569.233154 56.0
571.338684 92.0
571.638428 84.0
588.081726 72.0
590.149292 108.0
592.9375 72.0
593.121704 72.0
593.228333 116.0
593.800476 100.0
594.300171 72.0
595.159241 56.0
595.372925 100.0
597.117615 56.0
599.722412 84.0
600.692749 44.0
601.336792 140.0
604.205139 96.0
604.479126 52.0
605.894165 76.0
608.63092 120.0
611.004822 88.0
614.187073 76.0
615.060486 84.0
616.942505 108.0
617.911804 72.0
619.743713 80.0
619.991516 108.0
621.107056 52.0
623.529968 48.0
623.858032 44.0
624.191162 136.0
627.70166 72.0
630.717102 72.0
634.140686 60.0
636.00647 76.0
636.488464 84.0
638.719849 68.0
639.343689 60.0
641.822083 116.0
642.074219 72.0
644.219421 84.0
646.352966 72.0
650.782959 88.0
652.215576 108.0
654.907166 64.0
657.42572 32.0
658.528442 100.0
662.564392 36.0
663.707336 56.0
665.5802 116.0
668.51532 48.0
670.09613 292.0
670.513489 132.0
673.454346 96.0
673.635132 88.0
674.66864 60.0
678.141968 100.0
682.180298 72.0
683.444031 100.0
690.638062 32.0
694.10498 108.0
698.684937 48.0
701.829163 204.0
703.92926 64.0
705.799866 36.0
707.639038 108.0
707.995911 316.0
710.556091 64.0
711.150391 164.0
712.068909 108.0
712.918945 160.0
713.296265 144.0
713.46106 132.0
714.79071 72.0
715.583801 28.0
718.637756 140.0
721.639404 112.0
723.82782 44.0
723.950989 180.0
727.887024 108.0
728.875366 144.0
732.857056 68.0
734.27478 148.0
735.985413 100.0
736.946838 76.0
738.763367 128.0
740.100098 156.0
740.392517 72.0
740.771667 44.0
741.579041 44.0
742.538696 72.0
744.264343 60.0
744.443542 112.0
744.715088 40.0
745.426758 156.0
750.210876 40.0
750.412598 52.0
756.328857 48.0
757.730774 32.0
758.602112 156.0
763.879272 48.0
764.517517 212.0
765.662598 156.0
768.109741 60.0
769.031189 152.0
770.969727 60.0
772.694885 176.0
776.023499 208.0
776.467102 64.0
776.822083 180.0
780.398621 84.0
781.299561 100.0
781.444214 84.0
784.016785 132.0
784.284302 76.0
784.685669 120.0
785.388306 128.0
788.576416 76.0
790.267944 156.0
792.639282 112.0
793.188538 28.0
795.044983 176.0
795.224609 240.0
797.426208 88.0
797.814087 116.0
799.50708 192.0
799.557739 60.0
800.34021 140.0
800.514771 148.0
801.241394 168.0
803.468262 60.0
804.896179 96.0
806.952881 160.0
807.7276 176.0
808.474426 128.0
810.671692 116.0
810.807678 104.0
813.763062 36.0
814.183228 164.0
815.063293 200.0
816.035645 116.0
817.537354 40.0
818.972046 192.0
819.25116 72.0
819.718323 40.0
820.117249 164.0
821.959351 64.0
823.729187 108.0
825.438049 184.0
826.450439 84.0
826.725098 164.0
827.120056 184.0
828.643311 200.0
830.127869 36.0
830.46051 104.0
832.233704 84.0
833.112427 28.0
833.382446 108.0
833.91687 132.0
836.229004 60.0
837.605103 180.0
837.852783 184.0
837.916199 204.0
839.61084 244.0
840.331848 148.0
842.052063 148.0
842.450623 148.0
845.451477 92.0
845.677185 56.0
846.505066 88.0
846.557129 204.0
847.796875 208.0
848.411255 52.0
849.159241 172.0
850.406677 84.0
850.73175 148.0
851.289124 240.0
854.003174 108.0
855.638306 92.0
857.910339 124.0
858.586731 176.0
859.333374 100.0
860.004456 156.0
860.815918 236.0
860.996948 156.0
861.773865 164.0
862.013428 96.0
862.083557 164.0
862.451721 96.0
862.52771 132.0
863.088989 188.0
863.241028 120.0
864.001343 68.0
864.422607 56.0
865.212769 72.0
865.388428 100.0
865.501038 68.0
866.167297 68.0
866.512939 132.0
866.688721 92.0
866.987549 148.0
868.165894 92.0
868.969482 212.0
869.11615 72.0
870.025879 232.0
870.836182 132.0
870.877319 144.0
871.147522 104.0
871.253235 68.0
872.640259 100.0
873.240051 136.0
873.928284 36.0
875.45874 60.0
876.248047 84.0
876.306946 160.0
877.132019 136.0
877.255798 128.0
878.157959 68.0
878.41748 56.0
879.432373 192.0
879.934143 200.0
881.144836 92.0
881.338196 176.0
881.995789 104.0
882.349182 212.0
882.455322 136.0
882.663879 80.0
882.835327 196.0
883.568787 128.0
884.026611 64.0
885.836121 104.0
885.877563 196.0
887.55481 80.0
887.744568 56.0
887.863159 100.0
888.681763 156.0
893.030212 144.0
895.190491 120.0
896.620239 140.0
896.971924 128.0
897.866272 152.0
898.886353 152.0
899.471252 184.0
900.235413 32.0
900.384705 192.0
901.256897 140.0
902.237061 64.0
902.888794 212.0
903.092163 72.0
905.252625 148.0
905.364807 168.0
906.486633 172.0
906.948059 200.0
907.199829 104.0
907.679504 108.0
908.063293 124.0
908.237244 196.0
908.390808 172.0
908.453186 176.0
909.131165 104.0
909.329224 176.0
909.401245 152.0
909.953491 180.0
910.974426 204.0
911.394958 108.0
911.665405 48.0
911.761536 108.0
911.89978 160.0
913.691711 148.0
915.132019 152.0
915.220398 88.0
915.533569 172.0
915.611816 264.0
916.147888 204.0
916.40094 220.0
917.0578 84.0
917.268738 184.0
917.485229 216.0
917.726929 184.0
918.004333 64.0
918.438538 52.0
918.939209 160.0
919.434021 208.0
919.590942 180.0
920.044434 188.0
921.40509 188.0
921.522217 200.0
921.895081 184.0
922.913452 116.0
923.149292 84.0
923.863037 176.0
924.038452 132.0
924.171997 116.0
924.643555 148.0
925.345703 240.0
925.884644 176.0
927.296265 164.0
927.423523 152.0
927.538696 88.0
927.787231 136.0
927.938782 136.0
928.357178 172.0
928.733215 176.0
929.922424 132.0
930.074158 128.0
930.34729 172.0
931.033447 200.0
931.106323 172.0
931.16095 104.0
931.632019 160.0
931.786621 56.0
932.643433 148.0
932.801514 160.0
932.8927 180.0
933.020325 116.0
934.552979 156.0
934.930237 108.0
935.155457 204.0
935.347595 168.0
935.52063 316.0
936.324402 120.0
936.647217 160.0
938.034912 156.0
938.103577 184.0
939.329224 152.0
939.445129 164.0
940.177307 212.0
940.342102 228.0
940.384827 108.0
940.744934 228.0
941.086853 176.0
941.37384 112.0
941.489868 184.0
942.02124 156.0
942.112854 216.0
942.986633 120.0
943.292297 148.0
943.335083 72.0
943.759338 160.0
943.848633 128.0
943.921997 204.0
943.983154 140.0
944.53064 144.0
944.97406 56.0
945.898132 112.0
945.951233 176.0
946.265442 120.0
946.436829 120.0
946.479736 184.0
946.626648 76.0
946.969604 148.0
947.10437 108.0
947.643494 132.0
948.52594 184.0
949.549866 236.0
949.90564 96.0
949.991516 124.0
950.212341 216.0
950.273743 108.0
950.862793 112.0
951.028503 116.0
951.120605 164.0
951.353821 144.0
952.655701 144.0
954.272034 212.0
954.610229 132.0
954.770081 164.0
954.917725 156.0
954.985352 144.0
956.302063 76.0
956.375916 48.0
957.046936 116.0
957.751404 192.0
958.383484 148.0
958.648438 164.0
958.697754 168.0
959.252441 136.0
959.856628 104.0
960.046265 112.0
960.109497 148.0
960.214355 132.0
960.646118 144.0
960.757141 224.0
960.936035 132.0
961.003906 272.0
962.090149 76.0
962.411194 116.0
962.676697 184.0
962.917542 156.0
963.226379 156.0
963.349915 156.0
963.807068 136.0
963.918335 196.0
964.084717 112.0
964.22113 180.0
964.449829 152.0
964.666138 132.0
966.651489 104.0
967.041382 172.0
967.992188 68.0
968.149536 208.0
968.242432 80.0
969.70459 88.0
969.86969 176.0
970.144653 140.0
970.646851 156.0
970.932129 112.0
970.994141 164.0
971.335266 224.0
971.980469 112.0
972.10498 132.0
972.483154 168.0
973.528015 136.0
973.830505 136.0
973.923645 96.0
975.079285 116.0
975.227783 196.0
975.30304 176.0
976.415955 88.0
976.565186 164.0
977.58551 40.0
977.678833 72.0
977.83429 216.0
978.021179 84.0
978.338623 152.0
978.898987 220.0
979.141846 160.0
979.789673 88.0
980.132324 100.0
980.387817 164.0
980.638916 208.0
980.724365 128.0
981.22113 216.0
981.983826 200.0
982.046204 92.0
982.358032 140.0
983.325195 168.0
983.699707 160.0
983.927612 192.0
984.105469 156.0
984.186646 120.0
984.367737 196.0
984.948547 164.0
985.017273 112.0
985.151184 152.0
985.367126 116.0
985.539551 120.0
985.99823 208.0
986.116821 172.0
986.242004 164.0
986.360718 60.0
986.517883 168.0
987.298584 156.0
987.992126 176.0
988.130493 128.0
988.28064 104.0
988.324463 144.0
988.593506 192.0
989.682678 148.0
989.807922 208.0
990.64093 92.0
990.784973 128.0
991.167175 44.0
991.493042 132.0
991.643433 152.0
991.706116 140.0
992.050903 148.0
992.101013 156.0
992.571228 180.0
992.778198 172.0
993.725342 76.0
993.894775 120.0
994.239868 200.0
994.352844 124.0
994.672974 108.0
994.924072 156.0
994.99939 156.0
995.062195 124.0
995.256836 60.0
995.391174 84.0
995.46405 124.0
995.796875 196.0
995.922485 104.0
996.211426 120.0
996.764343 60.0
996.808289 92.0
996.947327 128.0
997.003113 76.0
997.141357 164.0
997.241943 164.0
997.392761 36.0
997.895691 140.0
997.945984 104.0
998.064697 164.0
998.134644 160.0
998.398743 156.0
998.612549 116.0
999.568787 44.0
999.682068 140.0
999.984131 188.0
1000.58844 144.0
1000.989685 164.0
1001.369263 96.0
1001.608582 100.0
1001.810181 196.0
1001.879456 240.0
1002.005493 144.0
1002.166138 212.0
1002.818359 160.0
1002.902893 68.0
1003.303711 188.0
1003.436096 104.0
1003.529419 100.0
1003.978394 52.0
1004.02887 240.0
1004.117126 84.0
1004.274841 104.0
1004.438782 104.0
1004.792053 220.0
1005.064209 152.0
1005.366272 128.0
1005.435669 96.0
1005.782837 180.0
1006.111084 240.0
1006.647766 280.0
1007.235107 156.0
1007.393005 244.0
1007.456177 72.0
1007.607788 148.0
1007.746826 128.0
1008.106995 152.0
1008.195435 104.0
1008.378723 36.0
1008.675781 244.0
1009.045471 168.0
1009.611511 216.0
1010.554016 68.0
1010.598328 88.0
1011.167847 132.0
1011.262756 156.0
1011.560303 172.0
1011.629883 172.0
1012.864685 56.0
1012.934387 108.0
1013.415833 160.0
1013.967163 136.0
1014.10022 180.0
1014.930725 136.0
1015.032166 136.0
1015.222412 260.0
1015.48877 156.0
1016.046936 104.0
1016.135803 84.0
1016.395935 36.0
1017.033447 188.0
1017.411438 148.0
1018.243225 144.0
1018.414734 72.0
1018.497253 124.0
1018.567139 128.0
1018.751343 148.0
1018.999939 132.0
1019.373047 264.0
1019.590088 92.0
1020.174866 132.0
1020.282898 184.0
1020.696167 132.0
1020.810669 36.0
1021.128601 136.0
1021.223999 180.0
1021.720154 128.0
1021.769775 40.0
1021.827087 160.0
1022.108276 124.0
1022.267395 64.0
1022.719238 132.0
1022.846558 200.0
1022.942017 204.0
1023.08844 224.0
1023.194336 228.0
1023.403625 128.0
1023.986267 136.0
1024.209229 156.0
1024.259277 132.0
1024.871704 124.0
1024.95459 136.0
1025.158447 124.0
1025.279541 160.0
1025.675659 128.0
1025.942383 228.0
1026.006226 156.0
1026.280273 108.0
1026.324951 144.0
1026.420654 156.0
1026.484375 112.0
1026.939453 156.0
1027.307129 80.0
1027.543213 132.0
1027.613403 204.0
1027.702637 100.0
1028.150513 108.0
1028.245117 92.0
1028.289795 164.0
1028.37915 116.0
1028.442993 136.0
1028.513184 192.0
1028.679077 176.0
1029.030273 116.0
1029.094116 184.0
1029.445312 196.0
1029.592163 136.0
1029.668823 68.0
1029.932129 172.0
1030.605835 208.0
1030.773926 152.0
1030.863403 200.0
1031.125366 28.0
1031.464233 68.0
1031.553711 72.0
1031.828613 180.0
1032.263306 144.0
1032.346436 60.0
1032.448853 108.0
1032.58313 164.0
1032.870972 148.0
1033.376343 176.0
1033.459473 192.0
1033.715454 172.0
1034.310669 156.0
1034.669067 68.0
1034.745972 136.0
1034.957153 168.0
1035.136475 196.0
1035.259155 136.0
1035.43103 168.0
1035.546387 112.0
1035.81543 100.0
1036.046021 144.0
1036.771118 168.0
1036.872559 116.0
1036.930298 156.0
1037.180176 136.0
1037.282715 140.0
1037.71228 148.0
1037.866699 240.0
1038.327881 140.0
1038.629272 192.0
1038.962891 184.0
1039.259766 164.0
1039.354248 148.0
1039.816284 120.0
1039.944702 112.0
1040.034546 140.0
1040.092285 216.0
1040.162964 156.0
1040.246338 180.0
1040.329834 140.0
1040.785645 224.0
1040.894775 112.0
1041.104858 176.0
1041.312256 88.0
1041.633423 140.0
1041.94812 148.0
1042.025269 144.0
1042.077881 108.0
1042.500732 96.0
1043.368408 112.0
1043.702759 152.0
1043.760498 144.0
1043.959961 168.0
1044.152954 96.0
1044.255859 112.0
1044.468018 112.0
1044.558105 136.0
1044.786377 92.0
1045.246582 52.0
1045.355957 108.0
1045.536133 112.0
1046.263428 72.0
1046.417969 164.0
1046.527466 148.0
1046.608276 136.0
1046.765625 152.0
1046.965332 80.0
1047.14563 168.0
1047.242188 116.0
1047.416138 116.0
1047.667358 124.0
1047.716919 132.0
1047.776855 160.0
1047.905762 48.0
1048.150513 104.0
1048.240723 164.0
1048.401733 208.0
1048.54541 180.0
1048.795044 232.0
1048.93689 100.0
1049.159546 148.0
1049.330566 292.0
1049.723389 156.0
1049.994263 156.0
1050.312744 172.0
1050.523193 140.0
1050.903809 132.0
1051.013428 100.0
1051.157471 64.0
1052.110718 172.0
1052.304321 180.0
1052.362427 196.0
1052.597656 320.0
1052.711182 272.0
1052.950073 208.0
1053.234253 156.0
1053.350586 144.0
1053.602417 136.0
1053.86084 44.0
1054.364868 56.0
1054.752686 168.0
1055.108276 176.0
1055.774292 212.0
1055.954834 216.0
1056.194702 116.0
1056.582764 128.0
1056.691406 196.0
1056.812988 160.0
1057.242798 168.0
1057.57019 196.0
1057.734619 152.0
1058.259033 196.0
1058.459717 116.0
1058.828857 188.0
1058.938965 100.0
1059.023193 160.0
1059.185059 180.0
1059.269287 88.0
1059.366455 168.0
1059.418335 140.0
1060.649536 172.0
1060.779175 136.0
1061.44043 180.0
1061.641479 172.0
1061.868408 100.0
1061.92688 172.0
1062.129883 168.0
1062.186279 152.0
1062.46521 116.0
1062.848022 160.0
1062.977783 212.0
1063.062134 56.0
1063.237305 132.0
1063.352661 236.0
1063.432007 112.0
1064.100708 184.0
1064.172119 164.0
1064.28894 64.0
1064.603882 236.0
1064.71106 116.0
1064.769531 112.0
1064.879883 196.0
1065.432007 152.0
1065.659424 180.0
1065.730957 140.0
1066.16626 140.0
1066.322266 56.0
1066.699219 160.0
1066.946289 176.0
1067.01123 184.0
1067.19519 244.0
1067.336426 168.0
1067.813232 216.0
1068.009155 180.0
1068.129761 120.0
1068.227417 184.0
1068.29895 104.0
1068.611206 84.0
1068.663208 108.0
1068.995117 176.0
1069.12146 156.0
1069.301758 124.0
1069.38562 196.0
1069.496216 168.0
1069.912842 108.0
1070.453247 172.0
1070.661621 120.0
1070.883057 108.0
1070.928711 124.0
1071.130371 104.0
1071.202271 144.0
1071.719116 192.0
1071.944946 116.0
1072.028564 164.0
1072.518433 184.0
1072.570557 76.0
1072.694458 144.0
1073.127686 156.0
1073.411621 160.0
1073.509399 232.0
1074.03772 216.0
1074.429077 156.0
1074.866211 176.0
1075.075073 84.0
1075.212158 148.0
1075.303467 148.0
1075.459106 156.0
1075.812622 72.0
1075.923828 144.0
1076.197754 176.0
1076.256592 160.0
1076.41333 140.0
1076.928589 132.0
1077.007568 48.0
1077.066406 188.0
1077.582397 176.0
1077.758911 140.0
1077.811157 116.0
1078.07251 164.0
1078.288208 108.0
1078.598511 172.0
1078.83728 144.0
1078.948364 148.0
1079.06604 80.0
1079.137939 64.0
1079.491089 132.0
1079.667603 180.0
1080.249756 140.0
1080.642212 148.0
1081.087158 72.0
1081.133057 176.0
1081.33252 160.0
1081.506104 180.0
1081.61731 112.0
1081.67627 100.0
1081.754761 64.0
1081.833374 132.0
1081.990479 132.0
1082.088623 32.0
1083.136475 124.0
1083.357544 164.0
1083.555786 152.0
1083.660522 180.0
1083.713013 152.0
1083.758789 84.0
1083.804688 112.0
1084.017334 192.0
1084.158569 116.0
1084.322388 140.0
1084.394531 136.0
1085.08667 188.0
1085.161499 128.0
1085.410645 196.0
1085.653198 208.0
1086.446899 56.0
1086.519043 136.0
1086.61084 240.0
1086.71582 196.0
1086.781494 140.0
1087.116089 120.0
1087.293335 144.0
1087.923462 128.0
1088.540649 196.0
1088.59314 200.0
1088.678467 124.0
1088.842651 112.0
1089.552124 180.0
1089.611206 156.0
1089.813232 176.0
1090.018555 208.0
1090.075439 148.0
1090.419434 128.0
1090.516479 224.0
1090.603516 160.0
1090.813843 220.0
1091.188477 148.0
1091.734253 100.0
1091.93811 384.0
1092.352539 324.0
1092.473267 168.0
1092.872314 124.0
1092.964355 240.0
1093.471069 164.0
1093.523804 172.0
1094.326904 112.0
1094.603271 164.0
1094.853638 144.0
1095.327881 40.0
1095.433228 172.0
1095.47937 136.0
1095.617676 168.0
1095.966919 164.0
1096.059082 220.0
1096.131592 144.0
1096.408325 168.0
1096.553345 128.0
1097.529053 116.0
1097.654297 176.0
1097.786133 152.0
1097.904907 180.0
1098.142334 56.0
1098.472046 180.0
1098.544678 228.0
1099.020386 120.0
1099.131836 136.0
1099.244019 176.0
1099.474976 204.0
1099.613525 208.0
1100.088867 72.0
1100.451904 132.0
1100.577393 112.0
1100.623535 144.0
1100.999146 164.0
1101.211304 184.0
1101.482178 112.0
1101.607666 108.0
1101.858643 164.0
1101.911499 180.0
1102.473145 164.0
1102.648438 164.0
1102.71106 160.0
1102.869751 76.0
1102.935791 136.0
1103.05481 144.0
1103.266357 156.0
1103.339111 144.0
1103.405151 148.0
1103.623413 40.0
1104.443359 124.0
1104.694702 172.0
1104.793945 128.0
1105.265137 144.0
1105.627686 64.0
1106.137329 92.0
1106.25647 172.0
1106.369019 256.0
1106.474976 192.0
1106.621216 152.0
1106.864136 192.0
1107.146973 192.0
1107.660278 128.0
1107.759644 92.0
1108.157104 208.0
1108.203491 120.0
1108.296265 140.0
1108.355957 28.0
1108.667358 148.0
1108.786621 156.0
1108.97229 128.0
1109.190918 80.0
1109.303711 332.0
1109.363281 116.0
1109.68811 176.0
1109.777832 380.0
1110.101807 128.0
1110.510498 36.0
1110.696167 148.0
1110.861938 188.0
1111.220215 108.0
1111.644897 108.0
1111.8573 96.0
1112.009888 144.0
1112.275391 136.0
1112.534302 188.0
1112.620605 156.0
1112.713501 128.0
1113.390869 152.0
1113.441528 140.0
1113.842407 224.0
1113.922119 160.0
1114.008545 156.0
1114.134766 124.0
1114.639648 100.0
1114.971924 32.0
1115.217896 160.0
1115.304321 132.0
1115.403931 96.0
1115.649902 112.0
1116.268311 176.0
1116.567505 160.0
1116.653931 104.0
1116.700562 116.0
1116.946411 152.0
1117.093018 128.0
1117.206055 40.0
1117.411011 168.0
1117.622192 144.0
1117.984497 168.0
1118.10437 76.0
1118.250732 100.0
1118.616821 136.0
1118.716675 148.0
1118.849854 160.0
1119.109497 132.0
1119.295898 164.0
1119.555664 108.0
1120.068481 60.0
1120.378052 136.0
1120.588135 152.0
1120.681396 116.0
1120.854614 140.0
1120.918335 192.0
1121.034546 144.0
1121.301025 192.0
1121.35437 92.0
1121.46814 128.0
1121.70105 180.0
1121.834351 116.0
1121.99231 184.0
1122.260986 136.0
1122.401001 68.0
1122.467651 88.0
1122.541016 144.0
1122.641113 36.0
1123.047852 208.0
1123.134644 28.0
1123.281372 192.0
1123.508179 192.0
1123.719604 212.0
1123.775024 164.0
1123.935181 224.0
1124.009277 192.0
1124.188721 224.0
1124.268799 180.0
1124.415649 212.0
1124.476685 160.0
1124.662598 140.0
1124.776001 184.0
1124.822754 148.0
1125.077148 200.0
1125.483765 124.0
1125.773926 176.0
1125.909302 192.0
1126.685913 140.0
1126.799438 168.0
1126.913086 132.0
1127.481079 232.0
1127.72168 172.0
1127.922119 96.0
1128.049194 176.0
1128.764526 160.0
1129.232666 192.0
1129.466797 128.0
1129.580444 192.0
1129.70752 120.0
1129.854736 76.0
1129.968506 156.0
1130.43689 104.0
1130.958862 116.0
1131.14624 132.0
1131.23999 72.0
1131.387329 132.0
1131.44751 116.0
1131.681396 168.0
1131.763672 72.0
1132.150635 180.0
1132.4729 184.0
1132.57251 60.0
1132.635864 196.0
1132.693115 180.0
1133.010742 260.0
1133.135254 140.0
1133.336548 192.0
1133.845459 216.0
1134.046631 184.0
1134.133667 84.0
1134.246704 148.0
1134.368286 220.0
1134.55603 128.0
1134.617554 176.0
1134.719482 224.0
1134.810791 156.0
1135.018677 96.0
1135.313721 100.0
1135.622192 72.0
1135.796631 36.0
1135.970947 168.0
1136.0448 160.0
1137.0177 172.0
1137.225708 128.0
1137.662109 140.0
1137.729248 248.0
1137.923828 72.0
1138.407349 172.0
1138.628906 212.0
1138.717041 272.0
1138.978149 144.0
1139.025269 228.0
1139.092407 76.0
1139.364136 160.0
1139.438354 140.0
1139.596191 128.0
1139.670166 156.0
1139.878418 180.0
1140.113647 188.0
1140.174194 328.0
1140.227905 180.0
1140.30188 160.0
1140.355591 148.0
1140.584106 176.0
1140.772339 204.0
1140.933716 156.0
1141.034058 180.0
1141.431274 96.0
1141.599365 168.0
1141.738037 300.0
1141.807861 124.0
1142.417114 188.0
1142.594849 124.0
1142.742798 60.0
1142.823608 196.0
1143.139771 104.0
1143.236816 228.0
1143.328247 92.0
1143.429199 88.0
1143.678223 256.0
1143.880127 144.0
1143.93396 176.0
1144.06189 120.0
1144.189819 92.0
1144.452393 160.0
1144.661133 160.0
1144.890137 160.0
1145.294189 160.0
1145.529907 140.0
1145.866821 152.0
1146.13623 168.0
1146.409546 188.0
1146.560791 124.0
1146.661865 136.0
1146.796753 164.0
1146.843872 176.0
1147.069214 220.0
1147.598877 168.0
1147.673096 136.0
1147.754028 128.0
1147.88208 136.0
1148.151855 128.0
1148.394653 168.0
1148.617188 196.0
1148.684692 160.0
1148.735474 92.0
1148.779053 148.0
1149.107178 160.0
1149.344482 188.0
1149.447021 172.0
1149.635986 64.0
1149.905884 132.0
1149.966675 40.0
1150.03418 116.0
1150.425659 196.0
1150.510864 196.0
1150.682251 128.0
1150.807129 208.0
1150.968994 76.0
1151.026611 164.0
1151.316895 100.0
1151.58667 200.0
1151.84729 132.0
1152.127441 160.0
1152.235596 192.0
1152.516602 216.0
1152.857178 160.0
1153.059937 136.0
1153.134277 220.0
1153.242432 140.0
1153.316772 148.0
1153.546631 192.0
1153.769653 204.0
1153.857544 48.0
1153.992798 132.0
1154.174316 140.0
1154.682495 132.0
1154.777222 68.0
1155.298096 112.0
1155.453613 188.0
1155.565186 164.0
1155.724243 136.0
1155.785156 132.0
1156.231812 152.0
1156.307007 104.0
1156.498047 200.0
1156.793579 188.0
1156.895142 200.0
1156.969604 124.0
1157.141113 188.0
1157.416382 288.0
1157.639893 124.0
1157.978516 124.0
1158.042603 184.0
1158.574585 144.0
1158.703247 168.0
1158.865967 128.0
1159.035278 108.0
1159.184326 144.0
1159.383545 180.0
1159.481201 204.0
1159.926392 144.0
1160.069946 168.0
1160.117432 164.0
1160.27417 116.0
1160.424805 228.0
1160.899414 144.0
1161.138916 160.0
1161.272461 180.0
1161.394531 60.0
1161.971069 164.0
1162.174683 144.0
1162.534302 176.0
1162.683594 116.0
1162.947021 176.0
1163.219727 144.0
1163.406372 140.0
1163.525269 156.0
1163.599976 140.0
1163.796875 184.0
1164.030273 180.0
1164.163452 96.0
1164.285767 196.0
1164.666138 100.0
1165.27063 132.0
1165.440552 140.0
1165.564209 136.0
1165.651123 116.0
1165.912476 252.0
1166.118042 216.0
1166.188232 140.0
1166.262817 32.0
1166.376465 120.0
1166.711426 140.0
1166.791748 184.0
1166.818604 148.0
1167.007568 184.0
1167.071777 188.0
1167.320679 172.0
1167.785889 76.0
1167.860596 88.0
1167.983032 96.0
1168.215942 120.0
1168.289185 184.0
1168.350464 120.0
1168.588501 60.0
1168.944702 200.0
1169.05127 164.0
1169.2146 108.0
1169.385132 176.0
1169.447876 128.0
1169.663818 132.0
1169.799927 100.0
1170.037842 160.0
1170.187988 108.0
1170.330933 108.0
1170.5625 120.0
1170.815552 144.0
1170.875732 168.0
1171.011963 104.0
1171.143799 188.0
1171.270752 140.0
1171.573364 120.0
1171.753052 176.0
1172.047363 128.0
1172.285889 108.0
1172.419434 212.0
1172.510742 132.0
1172.717651 176.0
1172.851074 160.0
1173.143921 192.0
1173.437866 128.0
1173.717407 128.0
1174.164795 220.0
1174.348389 144.0
1174.597168 124.0
1174.918823 152.0
1175.063599 208.0
1175.252075 76.0
1175.434448 208.0
1175.586426 148.0
1175.859375 156.0
1176.064087 188.0
1176.42627 208.0
1176.480591 60.0
1176.849243 228.0
1176.937988 160.0
1177.019897 60.0
1177.12915 68.0
1177.197388 128.0
1177.245239 60.0
1177.347656 132.0
1177.53894 40.0
1177.614014 148.0
1177.976074 56.0
1178.076538 68.0
1178.331299 176.0
1178.536255 224.0
1178.761719 128.0
1178.912109 188.0
1178.980469 368.0
1179.096558 100.0
1179.438354 156.0
1179.786987 284.0
1180.28418 292.0
1180.450195 84.0
1180.552734 152.0
1180.624023 200.0
1180.730591 104.0
1181.009155 212.0
1181.286865 204.0
1181.373535 68.0
1181.551392 152.0
1181.996094 52.0
1182.297241 144.0
1182.42041 160.0
1182.536743 140.0
1183.111328 136.0
1183.207031 172.0
1183.233765 160.0
1183.474609 104.0
1183.529175 188.0
1183.693726 152.0
1184.118286 160.0
1184.542969 76.0
1184.597778 152.0
1184.755249 180.0
1184.885498 160.0
1185.030518 136.0
1185.090942 152.0
1185.234863 140.0
1185.358887 156.0
1185.858521 124.0
1186.004395 248.0
1186.221802 196.0
1186.283447 176.0
1186.434326 168.0
1186.50708 188.0
1186.607422 80.0
1186.70166 152.0
1186.804565 164.0
1186.859375 188.0
1187.098267 168.0
1187.142334 164.0
1187.27771 160.0
1187.459839 148.0
1187.510864 104.0
1187.558838 116.0
1187.719971 220.0
1188.073364 176.0
1188.244873 120.0
1188.296997 192.0
1188.425903 188.0
1188.478149 100.0
1188.574219 212.0
1188.821167 152.0
1188.869263 164.0
1189.0271 232.0
1189.109985 184.0
1189.265259 204.0
1189.404541 180.0
1189.665405 84.0
1189.953735 44.0
1190.141357 228.0
1190.255859 160.0
1190.379517 216.0
1190.576904 156.0
1190.784668 120.0
1191.152466 152.0
1191.217407 132.0
1191.341064 112.0
1191.450928 200.0
1191.533325 124.0
1191.61377 120.0
1191.639038 196.0
1191.911255 112.0
1192.124268 140.0
1192.172363 236.0
1192.268555 168.0
1192.482544 176.0
1192.976562 68.0
1193.346802 216.0
1193.540283 148.0
1193.725952 160.0
1194.276123 196.0
1194.338013 176.0
1194.864502 164.0
1195.053467 76.0
1195.253052 196.0
1195.328735 132.0
1195.425049 68.0
1195.493896 148.0
1195.934326 76.0
1196.147705 176.0
1196.271606 132.0
1196.485107 104.0
1196.670898 80.0
1196.760498 48.0
1196.856812 176.0
1197.090942 160.0
1197.182373 148.0
1197.449097 372.0
1197.615845 164.0
1197.690186 156.0
1197.821045 196.0
1197.889893 188.0
1198.110352 132.0
1198.220581 164.0
1198.321411 240.0
1198.516846 176.0
1198.796021 204.0
1198.847534 176.0
1198.964722 92.0
1199.275391 108.0
1199.426514 120.0
1199.502319 176.0
1199.571533 140.0
1199.8125 188.0
1199.978027 120.0
1200.118042 300.0
1200.422607 236.0
1200.69519 156.0
1200.895142 144.0
1201.3573 212.0
1201.626343 136.0
1201.681519 168.0
1201.770508 224.0
1201.874756 144.0
1201.957153 140.0
1202.134155 172.0
1202.256958 132.0
1202.454468 208.0
1202.523438 152.0
1202.640747 208.0
1202.875488 156.0
1202.9823 84.0
1203.172241 88.0
1203.241333 120.0
1203.344849 48.0
1203.455322 56.0
1203.772949 112.0
1203.924927 196.0
1204.111328 124.0
1204.235718 152.0
1204.365356 156.0
1204.470581 92.0
1204.56543 232.0
1204.705444 200.0
1204.753784 216.0
1204.96106 104.0
1205.154419 136.0
1205.223511 60.0
1205.320312 152.0
1205.658936 204.0
1205.852417 116.0
1205.935303 172.0
1206.258789 100.0
1206.38562 324.0
1206.536743 124.0
1206.875488 248.0
1207.802246 172.0
1207.864502 156.0
1208.155029 80.0
1208.203369 96.0
1208.314087 240.0
1208.369507 92.0
1208.453125 136.0
1209.083008 168.0
1209.192871 104.0
1209.303589 104.0
1209.407471 224.0
1209.601685 192.0
1209.815918 52.0
1209.912842 172.0
1210.02356 40.0
1210.161377 168.0
1210.258545 200.0
1210.425171 60.0
1210.598267 212.0
1210.69519 140.0
1210.743652 156.0
1210.812988 220.0
1210.936646 152.0
1211.204712 140.0
1211.491699 96.0
1211.567993 164.0
1211.815308 204.0
1211.886597 188.0
1212.090332 156.0
1212.15686 224.0
1212.652832 188.0
1212.83606 176.0
1212.919189 148.0
1213.017822 156.0
1213.161865 124.0
1213.210327 172.0
1213.258911 164.0
1213.348999 100.0
1213.473755 96.0
1213.536499 92.0
1213.612427 148.0
1213.681763 88.0
1213.959229 56.0
1214.279053 144.0
1214.396118 104.0
1214.562622 164.0
1214.722534 144.0
1214.798462 164.0
1215.256348 80.0
1215.39502 152.0
1215.519897 164.0
1215.984619 180.0
1216.102905 236.0
1216.297241 88.0
1216.359741 176.0
1216.505371 156.0
1216.873413 68.0
1217.019287 160.0
1217.102539 172.0
1217.171997 128.0
1217.766113 128.0
1218.219238 216.0
1218.540283 156.0
1218.602783 164.0
1218.665405 160.0
1218.790405 160.0
1218.935181 172.0
1219.047485 132.0
1219.332397 80.0
1219.405518 148.0
1219.544556 128.0
1219.596558 244.0
1219.693848 40.0
1219.867676 160.0
1220.034546 172.0
1220.097046 132.0
1220.21521 148.0
1220.312622 92.0
1220.43335 188.0
1220.778442 108.0
1221.035767 96.0
1221.091431 136.0
1221.223511 84.0
1221.522705 172.0
1221.800903 220.0
1221.856567 44.0
1222.155762 152.0
1222.378418 140.0
1222.907349 140.0
1223.004761 160.0
1223.283203 132.0
1223.492065 112.0
1223.693848 212.0
1223.713989 208.0
1223.901611 116.0
1223.958496 168.0
1224.237061 140.0
1224.508057 224.0
1224.532715 116.0
1224.552368 160.0
1224.884766 268.0
1225.01709 112.0
1225.12854 140.0
1225.252319 152.0
1225.357544 88.0
1225.476929 180.0
1225.585083 188.0
1225.797485 140.0
1225.957764 192.0
1226.055298 100.0
1226.508301 204.0
1226.710449 148.0
1226.790283 180.0
1226.919556 160.0
1227.017212 120.0
1227.09082 168.0
1227.230469 184.0
1227.407593 128.0
1227.495972 160.0
1227.767334 156.0
1227.839966 172.0
1228.056152 152.0
1228.139893 140.0
1228.404907 156.0
1228.760742 128.0
1228.829834 132.0
1229.304932 172.0
1229.458496 152.0
1229.640015 128.0
1230.049316 200.0
1230.247559 192.0
1230.386841 124.0
1230.588379 152.0
1230.75293 128.0
1230.812744 140.0
1230.938477 128.0
1231.059326 216.0
1231.126953 192.0
1231.783447 144.0
1232.244629 108.0
1232.383057 200.0
1232.621826 260.0
1232.901367 144.0
1233.013184 148.0
1233.512085 160.0
1233.55835 116.0
1233.698242 104.0
1233.998779 52.0
1234.047729 84.0
1234.208618 120.0
1234.921875 32.0
1235.349365 208.0
1235.502441 108.0
1235.551392 152.0
1235.654663 224.0
1235.775269 132.0
1235.873291 228.0
1236.09021 96.0
1236.167114 116.0
1236.433105 164.0
1236.489136 136.0
1236.615112 140.0
1236.717651 176.0
1237.0 92.0
1237.196045 136.0
1237.371094 224.0
1237.469116 148.0
1237.525146 144.0
1237.686157 132.0
1237.89624 88.0
1237.952271 208.0
1238.113281 32.0
1238.297852 364.0
1238.556641 248.0
1238.708618 176.0
1239.220093 136.0
1239.404297 160.0
1239.549316 104.0
1239.665527 116.0
1239.801636 112.0
1239.913818 56.0
1240.109985 196.0
1240.159058 104.0
1240.292236 248.0
1240.453491 176.0
1240.537598 128.0
1241.016113 108.0
1241.197754 164.0
1241.694458 204.0
1241.746826 124.0
1241.799683 264.0
1241.953979 168.0
1242.092163 200.0
1242.192505 188.0
1242.304688 184.0
1242.459106 192.0
1242.851929 116.0
1242.99231 76.0
1243.213257 204.0
1243.449219 152.0
1243.581787 72.0
1243.680054 188.0
1243.827515 124.0
1243.883667 160.0
1244.009888 212.0
1244.212158 176.0
1244.526733 164.0
1244.61377 148.0
1244.880615 192.0
1245.020996 180.0
1245.110229 176.0
1245.245728 52.0
1245.358154 136.0
1245.631226 196.0
1245.88501 168.0
1246.084961 164.0
1246.125488 252.0
1246.327637 160.0
1246.414551 168.0
1246.568237 128.0
1246.870605 120.0
1246.967041 36.0
1247.016235 220.0
1247.290405 160.0
1247.367676 180.0
1247.430176 104.0
1247.515381 124.0
1247.958252 148.0
1248.26062 104.0
1248.450439 104.0
1248.584106 144.0
1248.654419 120.0
1248.809204 168.0
1248.886475 176.0
1248.949829 120.0
1249.069458 132.0
1249.125488 124.0
1249.174927 216.0
1249.33667 132.0
1249.428223 204.0
1249.885498 176.0
1249.991089 120.0
1250.096558 120.0
1250.145874 192.0
1250.364014 64.0
1250.509888 176.0
1250.647705 180.0
1250.786133 168.0
1250.931152 292.0
1251.331787 132.0
1251.398804 156.0
1251.511475 100.0
1251.652222 124.0
1251.786011 104.0
1251.925293 228.0
1252.106689 116.0
1252.592651 128.0
1252.793213 112.0
1252.927124 176.0
1253.015259 136.0
1253.215942 128.0
1253.265259 240.0
1253.436768 152.0
1253.561157 44.0
1253.610474 200.0
1253.687866 132.0
1253.793701 120.0
1253.916626 152.0
1253.977051 204.0
1254.125 168.0
1254.385864 120.0
1254.463379 120.0
1254.643311 176.0
1254.897949 212.0
1255.189575 124.0
1255.386963 180.0
1255.531494 176.0
1255.598511 104.0
1255.683228 116.0
1255.803101 184.0
1256.049927 116.0
1256.144043 48.0
1256.185425 208.0
1256.282715 112.0
1256.452026 184.0
1256.522583 136.0
1256.578979 104.0
1256.840088 176.0
1256.893677 164.0
1257.066284 204.0
1257.214111 176.0
1257.674683 156.0
1257.856323 128.0
1257.969238 56.0
1258.032837 120.0
1258.096313 108.0
1258.152832 160.0
1258.477539 224.0
1258.534058 176.0
1258.689453 100.0
1258.853638 208.0
1259.014282 200.0
1259.254395 180.0
1259.480347 52.0
1259.664062 164.0
1259.883057 116.0
1259.939575 140.0
1260.144409 176.0
1260.278687 160.0
1260.418579 200.0
1260.639038 116.0
1260.766235 144.0
1260.851074 132.0
1260.907593 120.0
1261.197388 160.0
1261.475952 168.0
1261.600342 132.0
1261.699219 176.0
1261.974976 204.0
1262.238647 176.0
1262.795288 60.0
1262.908447 44.0
1263.105469 116.0
1263.262085 124.0
1263.354126 208.0
1263.403564 100.0
1263.658325 124.0
1263.719849 164.0
1263.920044 96.0
1264.337646 148.0
1264.415405 140.0
1264.592407 216.0
1264.649048 136.0
1264.776367 96.0
1264.903809 68.0
1265.264893 156.0
1265.454834 164.0
1265.541016 68.0
1265.686157 204.0
1265.959717 148.0
1266.138062 128.0
1266.433228 100.0
1266.630859 184.0
1266.863037 220.0
1266.916992 136.0
1267.08606 104.0
1267.474609 116.0
1267.538452 132.0
1267.603394 116.0
1267.694336 124.0
1267.786377 108.0
1267.999023 168.0
1268.301025 192.0
1268.374634 44.0
1268.509399 128.0
1268.608643 156.0
1268.835449 224.0
1269.069458 196.0
1269.154541 116.0
1269.384888 280.0
1269.458862 156.0
1269.636719 132.0
1269.700562 160.0
1269.764526 168.0
1269.863647 168.0
1270.069336 92.0
1270.296387 108.0
1270.453003 132.0
1270.523315 148.0
1271.003418 244.0
1271.325073 148.0
1271.424438 120.0
1271.552246 152.0
1271.807739 84.0
1271.907104 120.0
1271.956787 144.0
1272.109619 172.0
1272.19812 48.0
1272.382935 180.0
1272.727051 176.0
1272.844238 140.0
1272.972656 172.0
1273.085693 148.0
1273.447876 140.0
1273.575684 148.0
1273.639648 112.0
1273.824341 200.0
1273.923706 144.0
1273.973511 136.0
1274.045654 80.0
1274.371338 84.0
1274.470825 196.0
1274.762207 156.0
1274.890015 120.0
1274.993774 176.0
1275.074829 116.0
1275.4729 112.0
1275.700317 32.0
1275.814087 48.0
1275.923096 140.0
1276.53479 184.0
1276.617554 184.0
1276.695679 64.0
1276.773926 160.0
1276.894897 208.0
1277.030029 124.0
1277.37854 116.0
1277.499512 92.0
1277.734253 40.0
1277.80542 196.0
1277.961914 108.0
1278.168213 64.0
1278.269775 168.0
1278.329834 136.0
1279.064941 336.0
1279.112427 96.0
1279.164551 188.0
1279.291992 172.0
1279.385254 228.0
1279.549927 136.0
1279.778809 128.0
1280.03833 140.0
1280.059937 100.0
1280.36792 104.0
1280.424927 140.0
1280.624268 196.0
1280.731079 124.0
1280.826172 164.0
1280.951904 216.0
1281.044556 112.0
1281.265381 148.0
1281.493408 152.0
1281.714233 196.0
1281.920898 152.0
1282.127563 224.0
1282.241577 72.0
1282.464355 192.0
1282.569458 104.0
1282.697754 228.0
1282.797485 140.0
1282.925903 160.0
1283.259644 148.0
1283.339355 148.0
1283.403564 148.0
1284.023926 100.0
1284.316406 308.0
1284.581177 120.0
1284.804077 156.0
1284.908447 168.0
1285.043945 156.0
1285.093872 200.0
1285.151001 140.0
1285.729004 204.0
1285.895264 192.0
1286.002808 188.0
1286.062622 200.0
1286.214355 192.0
1286.447632 116.0
1286.505371 340.0
1286.666992 144.0
1286.735474 212.0
1286.892578 132.0
1287.072021 88.0
1287.120972 140.0
1287.319214 172.0
1287.478027 104.0
1287.692261 124.0
1287.824829 168.0
1288.092896 132.0
1288.403809 140.0
1288.463745 180.0
1288.602295 196.0
1288.821045 100.0
1288.878174 160.0
1288.935303 244.0
1289.011108 428.0
1289.206909 132.0
1289.499878 72.0
1289.599976 40.0
1289.764282 156.0
1290.007568 216.0
1290.136108 124.0
1290.321899 68.0
1290.515625 136.0
1291.065552 172.0
1291.187134 140.0
1291.294434 136.0
1291.734131 136.0
1291.795166 140.0
1292.105957 144.0
1292.402954 112.0
1292.474731 116.0
1292.524902 204.0
1292.614624 328.0
1292.72522 172.0
1292.918457 96.0
1293.022461 148.0
1293.476685 120.0
1293.734375 224.0
1293.968628 172.0
1294.035156 120.0
1294.099487 68.0
1294.366577 120.0
1294.521973 124.0
1294.593628 172.0
1294.768311 172.0
1295.005737 184.0
1295.091553 188.0
1295.560547 152.0
1295.657593 160.0
1296.076538 148.0
1296.169556 168.0
1296.234009 132.0
1296.348633 120.0
1296.53064 188.0
1297.158569 152.0
1297.366455 120.0
1297.80249 172.0
1297.961548 152.0
1298.150513 168.0
1298.246216 96.0
1298.398926 140.0
1298.504761 116.0
1298.592651 56.0
1298.671509 172.0
1298.739136 212.0
1298.849365 136.0
1298.97998 140.0
1299.044556 172.0
1299.116211 116.0
1299.212769 264.0
1299.454102 88.0
1299.780518 172.0
1299.828735 152.0
1300.034668 32.0
1300.106445 120.0
1300.199707 204.0
1300.371948 76.0
1300.745117 160.0
1300.852783 152.0
1300.910278 44.0
1300.970337 276.0
1301.621704 184.0
1301.897461 160.0
1302.152466 192.0
1302.547485 172.0
1303.428955 164.0
1303.49585 120.0
1303.583008 164.0
1303.833618 156.0
1303.955811 136.0
1304.03833 176.0
1304.581055 128.0
1304.760864 252.0
1305.12854 248.0
1305.199463 136.0
1305.29834 132.0
1305.580566 140.0
1305.789062 104.0
1305.998413 148.0
1306.659424 104.0
1306.730469 148.0
1307.040771 148.0
1307.124756 132.0
1307.220703 204.0
1307.299805 188.0
1307.474487 240.0
1307.724487 60.0
1307.882812 184.0
1308.249878 160.0
1308.307495 172.0
1308.413208 160.0
1308.703857 184.0
1308.876343 120.0
1309.028809 152.0
1309.178711 140.0
1309.319946 172.0
1309.430786 200.0
1309.610352 160.0
1309.652222 112.0
1309.726074 148.0
1309.8125 224.0
1309.971069 124.0
1310.199097 176.0
1310.272217 180.0
1310.381714 116.0
1310.439331 132.0
1311.066162 156.0
1311.174316 116.0
1311.249634 240.0
1311.515259 148.0
1311.641113 196.0
1311.794189 128.0
1311.911621 192.0
1312.21228 128.0
1312.536743 188.0
1313.086182 108.0
1313.416626 252.0
1313.58252 152.0
1313.911987 252.0
1313.960449 152.0
1314.036987 196.0
1314.162476 120.0
1314.419434 180.0
1314.484375 144.0
1314.568115 240.0
1314.823486 124.0
1314.931763 52.0
1315.123169 160.0
1315.256592 196.0
1315.335938 116.0
1315.538086 88.0
1315.595825 228.0
1315.646362 160.0
1315.790771 124.0
1315.870117 108.0
1316.093994 48.0
1316.285767 92.0
1316.455078 196.0
1316.541626 156.0
1316.628296 140.0
1316.949463 232.0
1317.304565 184.0
1317.480591 152.0
1317.632324 276.0
1318.008057 152.0
1318.195923 140.0
1318.246582 108.0
1318.535645 132.0
1318.709106 172.0
1318.788574 52.0
1318.853638 140.0
1318.962036 112.0
1319.012573 180.0
1319.104736 140.0
1319.243896 128.0
1319.316284 204.0
1319.482544 124.0
1319.55481 92.0
1319.780518 180.0
1319.832886 60.0
1319.862305 128.0
1320.01123 136.0
1320.068115 376.0
1320.321289 116.0
1320.39624 152.0
1320.625366 168.0
1320.769653 136.0
1320.979492 32.0
1321.174805 128.0
1321.305054 148.0
1321.435181 188.0
1321.659546 136.0
1321.796997 60.0
1321.876587 124.0
1321.941772 128.0
1322.180542 160.0
1322.278198 136.0
1322.353027 160.0
1322.839233 208.0
1323.04187 132.0
1323.469116 160.0
1323.700806 188.0
1323.997681 476.0
1324.04834 152.0
1324.185913 160.0
1324.252808 160.0
1324.410522 92.0
1324.475708 196.0
1324.533691 164.0
1324.685791 188.0
1324.779907 52.0
1324.887085 176.0
1324.946533 164.0
1324.997314 104.0
1325.092041 136.0
1325.207397 172.0
1325.258057 300.0
1325.323242 156.0
1325.511719 96.0
1326.045532 108.0
1326.16394 80.0
1326.388672 80.0
1326.504639 148.0
1326.591553 108.0
1326.670288 168.0
1326.765625 152.0
1326.874268 56.0
1327.113525 168.0
1327.287598 132.0
1327.352905 212.0
1327.42627 140.0
1327.599365 192.0
1327.758911 48.0
1327.830688 76.0
1328.02002 160.0
1328.150635 128.0
1328.288452 80.0
1328.38269 96.0
1328.469727 196.0
1328.669434 136.0
1328.977661 152.0
1329.246094 76.0
1329.478271 152.0
1329.616211 124.0
1329.681519 136.0
1329.790405 128.0
1329.88208 260.0
1330.305664 148.0
1330.421875 136.0
1330.52356 100.0
1330.670166 164.0
1331.079956 136.0
1331.285889 152.0
1331.56189 480.0
1331.8125 132.0
1332.051636 224.0
1332.281006 52.0
1332.34375 188.0
1332.418945 64.0
1332.629639 44.0
1332.680542 116.0
1332.876709 396.0
1333.065674 132.0
1333.189209 104.0
1333.298218 152.0
1333.421753 56.0
1333.511963 228.0
1333.609497 124.0
1333.763428 72.0
1333.814209 200.0
1333.901489 136.0
1334.221313 120.0
1334.381226 192.0
1334.462891 136.0
1334.533936 136.0
1334.773926 136.0
1334.897583 136.0
1335.101196 124.0
1335.246582 128.0
1335.30481 100.0
1335.442993 80.0
1335.545044 212.0
1335.755737 176.0
1336.024902 116.0
1336.113892 176.0
1336.172119 128.0
1336.308594 208.0
1336.374146 92.0
1336.614258 160.0
1336.810669 140.0
1336.9198 160.0
1337.172729 128.0
1337.320068 108.0
1337.502075 80.0
1337.640381 144.0
1337.715698 160.0
1337.85144 72.0
1337.953369 116.0
1338.004395 172.0
1338.128174 92.0
1338.332031 148.0
1338.419434 180.0
1338.557739 68.0
1338.623291 160.0
1338.856323 36.0
1339.031128 112.0
1339.286011 168.0
1339.380737 212.0
1339.46814 140.0
1339.589355 152.0
1339.642944 112.0
1339.810425 128.0
1339.890625 188.0
1340.050903 176.0
1340.254883 168.0
1340.320435 136.0
1340.610229 152.0
1340.657104 184.0
1340.765015 132.0
1340.837891 100.0
1341.085693 68.0
1341.23877 136.0
1341.289795 196.0
1341.369995 72.0
1341.668823 96.0
1341.734497 172.0
1341.800049 92.0
1342.259399 216.0
1342.427124 88.0
1342.587524 140.0
1342.682373 212.0
1342.755249 128.0
1342.923096 140.0
1342.981445 112.0
1343.119995 96.0
1343.30957 120.0
1343.368042 144.0
1343.653931 180.0
1343.915161 180.0
1344.097534 188.0
1344.192383 144.0
1344.382202 128.0
1344.447876 92.0
1344.794312 204.0
1345.176636 220.0
1345.198242 188.0
1345.220703 184.0
1345.301758 160.0
1345.389404 136.0
1345.440552 160.0
1345.555298 176.0
1345.630371 208.0
1345.776367 84.0
1345.834717 168.0
1345.980835 120.0
1346.141479 100.0
1346.258301 208.0
1346.396973 196.0
1346.491943 176.0
1346.543091 92.0
1346.645386 184.0
1346.725708 120.0
1346.84668 64.0
1346.91272 200.0
1347.003296 164.0
1347.054321 168.0
1347.434204 188.0
1347.540894 204.0
1347.763062 96.0
1347.915405 168.0
1347.929321 144.0
1348.040649 48.0
1348.21167 144.0
1348.367554 208.0
1348.720337 180.0
1349.026123 180.0
1349.140503 156.0
1349.299072 204.0
1349.400269 148.0
1349.60498 100.0
1349.703979 156.0
1349.780396 116.0
1349.992554 148.0
1350.050171 204.0
1350.35083 68.0
1350.831787 236.0
1350.921387 84.0
1351.11377 176.0
1351.176025 172.0
1351.306519 180.0
1351.485962 248.0
1351.587158 172.0
1351.638428 164.0
1352.121338 140.0
1352.494629 76.0
1352.560547 136.0
1353.109497 112.0
1353.194458 192.0
1353.48291 160.0
1353.633057 124.0
1353.695312 60.0
1353.929688 124.0
1354.427734 136.0
1354.643066 220.0
1354.716797 96.0
1354.815918 200.0
1354.977051 52.0
1355.130981 160.0
1355.33606 120.0
1355.475342 184.0
1355.654907 120.0
1355.805054 104.0
1355.856445 148.0
1355.95166 108.0
1356.173462 168.0
1356.303467 220.0
1356.435425 148.0
1356.530762 128.0
1356.809326 212.0
1356.926636 124.0
1357.153809 164.0
1357.38855 192.0
1357.615845 136.0
1357.803467 144.0
1357.901855 152.0
1358.048584 148.0
1358.195923 124.0
1358.423462 140.0
1358.591309 200.0
1358.679321 200.0
1358.89209 76.0
1358.950806 144.0
1359.060913 160.0
1359.112305 108.0
1359.178345 164.0
1359.302368 84.0
1359.42041 320.0
1359.503662 192.0
1359.81543 232.0
1359.970825 124.0
1360.308472 88.0
1360.584229 176.0
1360.779541 120.0
1360.925171 124.0
1361.245728 116.0
1361.358398 124.0
1361.40979 108.0
1361.466797 212.0
1361.66687 144.0
1361.791748 236.0
1361.899536 188.0
1362.026733 216.0
1362.239746 112.0
1362.394043 140.0
1362.658569 184.0
1362.722168 124.0
1362.871582 180.0
1363.012451 160.0
1363.077393 80.0
1363.231689 124.0
1363.283081 188.0
1363.466797 196.0
1363.59314 220.0
1363.687256 44.0
1364.091553 120.0
1364.172485 100.0
1364.231201 212.0
1364.282715 148.0
1364.473877 144.0
1364.534912 200.0
1364.657715 136.0
1364.87085 40.0
1364.966431 172.0
1365.160034 112.0
1365.221191 180.0
1365.312134 152.0
1365.392944 132.0
1365.463623 240.0
1365.525391 120.0
1365.701904 228.0
1365.797485 176.0
1365.900513 64.0
1366.077026 136.0
1366.466919 164.0
1366.529907 340.0
1366.672974 188.0
1366.817139 132.0
1367.004028 192.0
1367.187988 140.0
1367.298828 68.0
1367.408813 76.0
1367.497192 52.0
1367.60022 208.0
1367.659058 172.0
1367.747437 172.0
1367.846191 244.0
1368.0271 156.0
1368.08606 120.0
1368.240601 140.0
1368.321655 280.0
1368.419678 208.0
1368.616089 156.0
1368.94751 140.0
1369.040894 184.0
1369.06189 128.0
1369.087891 124.0
1369.11731 136.0
1369.219971 208.0
1369.367188 160.0
1369.647095 60.0
1369.706055 208.0
1369.899048 252.0
1370.089111 112.0
1370.317505 124.0
1370.442749 144.0
1370.774292 152.0
1371.023071 160.0
1371.260498 220.0
1371.489136 212.0
1371.575684 176.0
1371.726196 140.0
1371.857788 152.0
1372.091309 196.0
1372.277954 92.0
1372.92688 164.0
1373.195557 200.0
1373.310059 176.0
1373.386841 100.0
1373.46521 100.0
1373.664429 184.0
1373.730835 124.0
1373.819336 156.0
1374.013184 172.0
1374.121826 132.0
1374.60144 132.0
1374.844971 184.0
1375.027222 132.0
1375.118042 164.0
1375.309937 140.0
1375.425415 136.0
1375.485229 364.0
1375.671631 168.0
1375.870972 164.0
1375.937378 164.0
1376.099731 108.0
1376.210571 160.0
1376.336792 156.0
1376.491089 128.0
1376.727417 80.0
1377.155762 172.0
1377.264893 164.0
1377.355225 188.0
1377.495605 116.0
1377.547241 148.0
1377.606323 148.0
1377.704712 192.0
1377.789062 204.0
1377.814575 148.0
1377.997925 40.0
1378.14563 228.0
1378.433838 124.0
1378.593994 184.0
1378.825562 104.0
1378.90686 36.0
1379.143311 148.0
1379.248779 180.0
1379.357666 96.0
1379.438965 100.0
1379.579468 172.0
1379.682495 136.0
1379.860352 104.0
1379.912109 124.0
1380.289185 136.0
1380.623047 132.0
1380.769897 180.0
1380.836426 156.0
1380.984375 168.0
1381.117554 152.0
1381.176636 140.0
1381.243286 32.0
1381.369019 236.0
1381.435547 160.0
1381.494507 144.0
1381.919678 108.0
1382.042236 128.0
1382.375244 136.0
1382.500977 56.0
1382.589844 192.0
1382.671265 52.0
1382.789673 108.0
1382.897339 136.0
1383.068115 136.0
1383.08728 172.0
1383.300293 168.0
1383.433594 248.0
1383.65564 208.0
1383.75061 152.0
1383.776001 124.0
1383.791382 184.0
1383.900024 196.0
1383.996216 40.0
1384.17395 116.0
1384.255371 124.0
1384.410034 156.0
1384.588623 148.0
1384.72937 168.0
1385.002686 184.0
1385.218262 112.0
1385.351562 64.0
1385.523438 120.0
1385.595093 164.0
1385.65979 256.0
1385.88501 176.0
1385.981323 168.0
1386.05542 136.0
1386.411133 152.0
1386.989258 152.0
1387.085571 164.0
1387.202759 172.0
1387.322754 156.0
1387.87146 144.0
1387.92334 88.0
1388.0271 92.0
1388.104492 164.0
1388.197632 176.0
1388.420166 216.0
1388.580566 224.0
1388.702026 160.0
1388.828125 184.0
1389.020874 132.0
1389.124756 148.0
1389.310181 188.0
1389.532837 128.0
1389.589844 240.0
1389.718262 256.0
1389.870728 140.0
1390.214844 148.0
1390.376465 176.0
1390.521973 120.0
1390.697876 136.0
1390.74939 132.0
1390.86853 92.0
1390.950195 116.0
1391.19519 96.0
1391.367676 204.0
1391.447632 240.0
1391.603516 136.0
1391.655518 136.0
1391.751953 188.0
1391.833618 160.0
1391.907959 104.0
1392.041626 148.0
1392.115845 104.0
1392.383423 164.0
1392.479736 184.0
1392.546631 180.0
1392.625854 156.0
1392.74707 112.0
1392.865967 148.0
1392.987671 244.0
1393.097534 160.0
1393.26709 116.0
1393.787231 148.0
1393.891724 156.0
1393.965576 108.0
1394.025024 152.0
1394.240479 160.0
1394.359375 164.0
1394.582397 128.0
1394.649292 152.0
1394.812744 128.0
1394.976318 88.0
1395.217041 112.0
1395.299927 252.0
1395.422363 168.0
1395.50415 144.0
1395.619995 188.0
1395.799927 156.0
1396.024658 156.0
1396.07666 84.0
1396.151123 208.0
1396.255127 160.0
1396.367676 120.0
1396.460327 164.0
1396.530396 104.0
1396.641968 160.0
1396.994751 156.0
1397.222168 124.0
1397.475098 140.0
1397.74292 144.0
1397.901978 196.0
1397.95874 152.0
1398.085327 304.0
1398.137329 120.0
1398.204346 224.0
1398.301147 184.0
1398.476196 188.0
1398.553345 156.0
1398.844482 116.0
1398.944092 136.0
1399.013794 156.0
1399.135376 148.0
1399.24646 128.0
1399.484741 164.0
1399.596436 184.0
1399.670898 120.0
1399.819824 204.0
1400.035767 200.0
1400.232544 124.0
1400.403076 164.0
1400.475098 132.0
1400.59436 136.0
1400.840088 120.0
1401.071045 100.0
1401.242432 164.0
1401.416626 252.0
1401.670288 220.0
1401.776367 168.0
1402.099365 48.0
1402.285645 380.0
1402.449585 80.0
1402.52417 116.0
1402.807373 120.0
1402.928589 140.0
1403.046021 76.0
1403.150391 188.0
1403.306885 100.0
1403.377319 164.0
1403.538086 128.0
1403.612671 144.0
1403.737915 140.0
1403.996338 308.0
1404.306152 180.0
1404.529907 152.0
1404.597046 164.0
1404.708984 136.0
1404.947632 120.0
1404.997803 132.0
1405.081909 48.0
1405.138184 176.0
1405.260986 156.0
1405.380005 88.0
1405.522095 180.0
1405.574341 72.0
1405.678833 72.0
1405.880615 104.0
1406.044556 180.0
1406.156494 132.0
1406.245728 180.0
1406.790894 156.0
1406.858154 116.0
1407.156738 104.0
1407.713135 176.0
1407.728394 92.0
1407.75647 136.0
1407.828735 144.0
1407.948242 72.0
1408.000488 116.0
1408.224609 116.0
1408.306763 104.0
1408.554688 180.0
1408.657837 212.0
1408.844116 132.0
1408.918823 136.0
1409.120117 152.0
1409.226562 208.0
1409.322632 72.0
1409.397461 72.0
1409.80835 100.0
1409.950439 144.0
1410.055054 136.0
1410.131714 172.0
1410.204468 180.0
1410.338989 124.0
1410.421265 132.0
1410.624146 140.0
1411.019287 124.0
1411.086548 140.0
1411.555176 132.0
1411.654785 168.0
1411.722168 124.0
1411.789062 140.0
1411.813721 132.0
1411.843506 172.0
1411.954224 140.0
1412.140991 112.0
1412.365356 220.0
1412.462524 108.0
1412.783691 176.0
1413.00769 216.0
1413.052856 92.0
1413.136475 132.0
1413.305542 192.0
1413.382812 180.0
1413.455444 264.0
1413.51001 236.0
1413.59021 212.0
1413.697021 280.0
1413.79187 216.0
1413.891602 348.0
1414.215332 140.0
1414.48291 128.0
1414.864624 48.0
1414.924561 124.0
1415.119263 148.0
1415.239014 156.0
1415.314331 128.0
1415.377563 176.0
1415.441162 64.0
1415.677368 220.0
1415.69751 120.0
1415.785645 172.0
1415.882324 200.0
1415.977539 148.0
1416.043701 144.0
1416.10022 196.0
1416.167603 220.0
1416.242554 180.0
1416.319824 136.0
1416.524048 152.0
1416.653809 176.0
1416.724609 120.0
1417.036621 132.0
1417.411255 132.0
1417.463623 152.0
1417.516113 148.0
1417.583496 152.0
1417.796143 140.0
1417.958252 144.0
1418.070679 200.0
1418.168335 112.0
1418.243042 176.0
1418.317383 156.0
1418.398926 180.0
1418.722778 116.0
1418.820312 188.0
1418.880249 240.0
1418.977661 128.0
1419.030151 192.0
1419.19519 56.0
1419.502563 208.0
1419.5625 140.0
1419.693726 168.0
1419.967529 172.0
1420.035034 120.0
1420.125 136.0
1420.195679 208.0
1420.257202 148.0
1420.485474 164.0
1420.613892 156.0
1420.687622 144.0
1420.770142 108.0
1420.924194 228.0
1421.040161 124.0
1421.21521 124.0
1421.42688 188.0
1421.477295 188.0
1421.557983 168.0
1421.672241 124.0
1421.919556 124.0
1421.970703 196.0
1422.165894 108.0
1422.233398 184.0
1422.330933 156.0
1422.438721 172.0
1422.606201 312.0
1422.841431 192.0
1422.901489 160.0
1422.954102 76.0
1423.038086 168.0
1423.43457 116.0
1423.577271 136.0
1423.644897 128.0
1423.855103 216.0
1423.960205 164.0
1424.095459 120.0
1424.170532 168.0
1424.257446 156.0
1424.484253 308.0
1424.574219 212.0
1424.739136 144.0
1424.973877 236.0
1425.049438 136.0
1425.171021 136.0
1425.237305 156.0
1425.296021 204.0
1425.402832 120.0
1425.462769 144.0
1425.537842 104.0
1425.590454 140.0
1425.663086 168.0
1425.815918 68.0
1426.071533 124.0
1426.147339 184.0
1426.251831 84.0
1426.364624 120.0
1426.736694 120.0
1426.943481 184.0
1427.6427 180.0
1427.787842 96.0
1427.996216 232.0
1428.189331 160.0
1428.439941 176.0
1428.545288 48.0
1428.639282 156.0
1428.720215 128.0
1428.918701 240.0
1429.082153 124.0
1429.290161 192.0
1429.455688 212.0
1429.914795 192.0
1430.005005 124.0
1430.11792 104.0
1430.241333 292.0
1430.396484 96.0
1430.449097 112.0
1430.501831 52.0
1430.735229 164.0
1430.855713 140.0
1430.96106 84.0
1431.171875 100.0
1431.465454 208.0
1431.751709 216.0
1431.970093 240.0
1432.075562 164.0
1432.304321 180.0
1432.391846 104.0
1432.663086 192.0
1432.780273 224.0
1432.915527 212.0
1433.069946 100.0
1433.46521 124.0
1433.552124 136.0
1433.831177 156.0
1433.974243 160.0
1434.08728 292.0
1434.32373 136.0
1434.586182 252.0
1434.675171 116.0
1434.782715 120.0
1435.036743 164.0
1435.049805 156.0
1435.195435 184.0
1435.31604 208.0
1435.376343 232.0
1435.520264 180.0
1435.634644 80.0
1435.776001 56.0
1435.858765 168.0
1435.942017 116.0
1436.009888 140.0
1436.138062 136.0
1436.228638 108.0
1436.310547 128.0
1436.419312 220.0
1436.892456 364.0
1436.952759 148.0
1437.013184 204.0
1437.104126 132.0
1437.314941 140.0
1437.402222 252.0
1437.574707 100.0
1437.680054 148.0
1438.071045 172.0
1438.386353 232.0
1438.415283 224.0
1438.575317 196.0
1438.75647 96.0
1438.915039 176.0
1438.975464 112.0
1439.352905 52.0
1439.41687 156.0
1439.473755 104.0
1439.571899 80.0
1439.655029 112.0
1439.986572 288.0
1440.208252 144.0
1440.369019 112.0
1440.460449 284.0
1440.581665 180.0
1440.71228 144.0
1440.724365 140.0
1440.7771 188.0
1440.856323 212.0
1440.984375 148.0
1441.097778 176.0
1441.223145 200.0
1441.407593 104.0
1441.505737 116.0
1441.671997 112.0
1441.842163 144.0
1441.95166 108.0
1442.330688 132.0
1442.539185 160.0
1442.941895 160.0
1443.387939 144.0
1443.486328 112.0
1443.671021 156.0
1443.974854 176.0
1444.174927 264.0
1444.280396 204.0
1444.493164 208.0
1444.582886 140.0
1444.653564 364.0
1444.72168 180.0
1444.927856 108.0
1445.195679 108.0
1445.350586 124.0
1445.422729 104.0
1445.581665 96.0
1445.718506 192.0
1445.905273 368.0
1445.982788 196.0
1446.11145 328.0
1446.316895 56.0
1446.42688 208.0
1446.532593 224.0
1446.633667 148.0
1446.701782 188.0
1446.845581 124.0
1446.936523 216.0
1447.257202 128.0
1447.368042 28.0
1447.482422 228.0
1447.640625 148.0
1447.739136 136.0
1447.855225 268.0
1448.011719 140.0
1448.083984 260.0
1448.219727 96.0
1448.313843 200.0
1448.526733 108.0
1448.602539 60.0
1448.716187 188.0
1448.845581 196.0
1449.102539 96.0
1449.344971 188.0
1449.678467 148.0
1449.739014 64.0
1449.928467 80.0
1450.094116 140.0
1450.2771 224.0
1450.3302 196.0
1450.466675 148.0
1450.53479 152.0
1450.64856 120.0
1450.807739 152.0
1450.875366 308.0
1451.354736 208.0
1451.820312 176.0
1452.001343 160.0
1452.136597 116.0
1452.480957 168.0
1452.524414 176.0
1452.596069 132.0
1452.764282 172.0
1452.840088 300.0
1452.93103 172.0
1452.991821 176.0
1453.242188 152.0
1453.36438 132.0
1453.606445 144.0
1453.734131 144.0
1453.963135 180.0
1454.099731 104.0
1454.255737 116.0
1454.486816 152.0
1454.539917 112.0
1454.608276 172.0
1454.7677 176.0
1454.828369 288.0
1454.927124 160.0
1455.424438 136.0
1455.493164 132.0
1455.573242 160.0
1455.74707 240.0
1455.906616 128.0
1456.210327 156.0
1456.31665 156.0
1456.369873 60.0
1456.71167 180.0
1456.954712 116.0
1457.175049 208.0
1457.233521 172.0
1457.298462 156.0
1457.524658 200.0
1457.67688 112.0
1457.851318 196.0
1457.927368 112.0
1458.026123 180.0
1458.155396 72.0
1458.208496 172.0
1458.439575 276.0
1458.526611 184.0
1458.548828 156.0
1458.740601 240.0
1458.862183 136.0
1458.985718 236.0
1459.067505 140.0
1459.200806 280.0
1459.432373 120.0
1459.497925 164.0
1459.625854 180.0
1459.858276 112.0
1459.97998 156.0
1460.071167 196.0
1460.344971 168.0
1460.421021 148.0
1460.588379 144.0
1460.953491 160.0
1461.105713 40.0
1461.318726 108.0
1461.584351 140.0
1461.653076 136.0
1461.729614 192.0
1461.790405 144.0
1461.858887 128.0
1462.07959 72.0
1462.201416 148.0
1462.384033 108.0
1462.635254 84.0
1462.817871 92.0
1462.886475 108.0
1462.954956 124.0
1463.107178 116.0
1463.168091 280.0
1463.251343 148.0
1463.358276 192.0
1463.496948 168.0
1463.640137 60.0
1463.708008 216.0
1463.853394 44.0
1463.976685 144.0
1464.165527 188.0
1464.272217 136.0
1464.355957 220.0
1464.421753 132.0
1464.60437 168.0
1464.689941 300.0
1464.814331 204.0
1464.934814 172.0
1465.036987 128.0
1465.262451 208.0
1465.370972 164.0
1465.679199 144.0
1465.75354 148.0
1465.948242 188.0
1466.024414 196.0
1466.268311 92.0
1466.321655 96.0
1466.404053 136.0
1466.501831 184.0
1466.58313 176.0
1466.649414 128.0
1466.766357 68.0
1466.903687 176.0
1467.158203 132.0
1467.243896 132.0
1467.30127 160.0
1467.42688 184.0
1467.480347 156.0
1467.630615 196.0
1467.975952 136.0
1468.040161 208.0
1468.204712 124.0
1468.37854 240.0
1468.474976 216.0
1468.569336 132.0
1468.752563 180.0
1468.863892 256.0
1469.041504 156.0
1469.252808 212.0
1469.478516 136.0
1469.859985 272.0
1470.150024 68.0
1470.31311 244.0
1470.401855 124.0
1470.540039 164.0
1470.609741 104.0
1470.712158 212.0
1470.997192 176.0
1471.111694 136.0
1471.195679 208.0
1471.340698 160.0
1471.417114 124.0
1471.532349 200.0
1471.661377 100.0
1471.783569 116.0
1471.890259 184.0
1472.104126 204.0
1472.341064 112.0
1472.395264 576.0
1472.509399 184.0
1472.753418 104.0
1473.135376 168.0
1473.22998 132.0
1473.295776 156.0
1473.525024 184.0
1473.616699 240.0
1473.677734 96.0
1473.876465 160.0
1473.96814 124.0
1474.249756 200.0
1474.418945 120.0
1474.472534 160.0
1474.729248 288.0
1474.976929 324.0
1475.038086 200.0
1475.096924 144.0
1475.206299 80.0
1475.313232 164.0
1475.489136 164.0
1475.573242 160.0
1475.851074 156.0
1475.940186 136.0
1476.266113 176.0
1476.29541 108.0
1476.429565 132.0
1476.513794 164.0
1476.62085 184.0
1477.009888 392.0
1477.202148 232.0
1477.423828 180.0
1477.507324 160.0
1477.737671 136.0
1477.798828 192.0
1478.061646 192.0
1478.288574 140.0
1478.479858 108.0
1478.624146 168.0
1478.717651 112.0
1478.770752 120.0
1479.028198 212.0
1479.430298 256.0
1479.811768 140.0
1479.941895 132.0
1480.140991 136.0
1480.342896 228.0
1480.741089 152.0
1480.864258 156.0
1480.930054 144.0
1481.067627 128.0
1481.121338 212.0
1481.649902 76.0
1481.803101 132.0
1482.065796 180.0
1482.174805 160.0
1482.416016 148.0
1482.477417 176.0
1482.591553 116.0
1482.684326 168.0
1482.847656 176.0
1483.049561 176.0
1483.151855 192.0
1483.394287 164.0
1483.593018 144.0
1483.702881 188.0
1483.949097 160.0
1484.048706 196.0
1484.286377 140.0
1484.340088 164.0
1484.419434 144.0
1484.700562 132.0
1484.830933 124.0
1484.943237 180.0
1485.220947 136.0
1485.321777 140.0
1485.989136 120.0
1486.042847 120.0
1486.142578 104.0
1486.365112 236.0
1486.418823 140.0
1486.902344 376.0
1487.025146 172.0
1487.147949 140.0
1487.196411 136.0
1487.315552 128.0
1487.478027 60.0
1487.550537 200.0
1487.63916 120.0
1487.777344 32.0
1487.868408 144.0
1487.999146 156.0
1488.523071 124.0
1488.598877 120.0
1488.790894 172.0
1488.859985 36.0
1489.136475 176.0
1489.251709 112.0
1489.338501 268.0
1489.482056 276.0
1489.564331 164.0
1489.735596 72.0
1489.912354 152.0
1490.158081 192.0
1490.211914 56.0
1490.288574 176.0
1490.519287 236.0
1490.712891 120.0
1491.073486 128.0
1491.218628 132.0
1491.282349 232.0
1491.479858 116.0
1491.838013 204.0
1491.987305 120.0
1492.079468 288.0
1492.364014 132.0
1492.539185 308.0
1492.709961 216.0
1492.826416 116.0
1493.109863 140.0
1493.388184 152.0
1493.517456 108.0
1493.768311 72.0
1493.96875 200.0
1494.274414 196.0
1494.567627 204.0
1494.748413 140.0
1494.902344 164.0
1494.986816 148.0
1495.276001 228.0
1495.371826 156.0
1495.702759 96.0
1495.918335 156.0
1496.002563 164.0
1496.067505 124.0
1496.249268 156.0
1496.404175 136.0
1496.481445 132.0
1496.884521 128.0
1497.150024 192.0
1497.166748 188.0
1497.189819 220.0
1497.250366 312.0
1497.349731 244.0
1497.458252 112.0
1497.581421 172.0
1497.811279 72.0
1497.824341 196.0
1497.860352 116.0
1497.885498 288.0
1497.982056 244.0
1498.059204 164.0
1498.29187 184.0
1498.310059 104.0
1498.338379 140.0
1498.51355 172.0
1498.661865 160.0
1498.837158 140.0
1498.891113 112.0
1498.996094 112.0
1499.080566 152.0
1499.236084 172.0
1499.619995 180.0
1499.698975 164.0
1499.761963 160.0
1499.900757 208.0
1500.035889 168.0
1500.101196 136.0
1500.224487 104.0
1500.488647 184.0
1500.586792 208.0
1500.702515 80.0
1500.868164 308.0
1501.064819 220.0
1501.141968 168.0
1501.203613 164.0
1501.44751 168.0
1501.566162 84.0
1501.689575 136.0
1501.822998 396.0
1501.951782 116.0
1502.02124 172.0
1502.075195 136.0
1502.144653 56.0
1502.272705 152.0
1502.491699 168.0
1502.545776 292.0
1503.207764 160.0
1503.30188 40.0
1503.379028 168.0
1503.456299 140.0
1503.550293 180.0
1503.718628 192.0
1503.790039 144.0
1503.822388 248.0
1503.958374 180.0
1504.051392 152.0
