>compound MLS002154158-01!Rifabutin72559-06-9
>formula C46H62N4O11
>ionization [M+H]+
>parentmass 847.448669
#inchi InChI=1S/C46H62N4O11/c1-12-24(4)50-19-17-46(18-20-50)48-34-31-32-39(54)28(8)42-33(31)43(56)45(10,61-42)59-21-16-30(58-11)25(5)41(60-29(9)51)27(7)38(53)26(6)37(52)22(2)14-13-15-23(3)44(57)47-36(40(32)55)35(34)49-46/h13-16,21-22,24-27,30,37-38,41,52-55H,12,17-20H2,1-11H3,(H,47,57)/t22-,24?,25+,26+,27+,30-,37-,38+,41+,45-/m0/s1
#inchikey AKRQWYTYCZTTAV
#Ion_Source LC-ESI
#Instrument qTof
#Compound_Source NIH Pharmacologically Active Library
#PI Dorrestein
#Data_Collector VP/LMS
#Scan -1
#Precursor_MZ 847.45
#ExactMass 846.442
#Charge 1
#CAS_Number N/A
#Pubmed_ID N/A
#Smiles CCC(C)N1CCC2(CC1)N=c3c4NC(=O)C(=CC=C[C@H](C)[C@H](O)[C@@H](C)[C@@H](O)[C@@H](C)[C@H](OC(=O)C)[C@H](C)[C@@H](OC)C=CO[C@@]5(C)Oc6c(C5=O)c(c3=N2)c(c(O)c6C)c4O)C
#INCHI_AUX N/A
#Library_Class 1
#SpectrumID CCMSLIB00000085226
#IonMode Positive
#UpdateWorkflowName UPDATE-SINGLE-ANNOTATED-GOLD
#LibraryQualityString Gold
#TaskID d252d724072548979f1f6f1ced849daf
##Scan# 1993
#SpectrumFile p3-G03_GG3_01_18296.mzXML
#LibraryName Pharm_Active_Library.mgf
#MQScore -1
#Organism Pharm_Active_Library
#TIC_Query 0
#RT_Query -1
#MZErrorPPM -1
#SharedPeaks 0
#MassDiff 0
#LibMZ -1
#SpecMZ 847.45
#SpecCharge 0
#internalFilename spec-00000.mgf

>collision 10
44.892857 92.0
44.91153 104.0
44.928871 160.0
45.000946 52.0
45.016201 120.0
45.090454 76.0
45.101147 136.0
45.123165 128.0
45.19421 124.0
45.2202 168.0
45.234924 256.0
45.253666 176.0
45.264381 128.0
45.279114 132.0
45.289829 256.0
45.344765 36.0
45.410469 144.0
45.450718 152.0
45.472191 188.0
45.507095 212.0
45.520332 172.0
45.543358 96.0
45.580975 140.0
45.593071 168.0
45.606747 92.0
45.638779 132.0
45.652229 112.0
45.661644 124.0
45.672405 272.0
45.694408 168.0
45.745071 108.0
45.767963 64.0
45.811451 208.0
45.833279 172.0
45.861858 196.0
45.881145 136.0
45.918907 156.0
45.93066 140.0
45.98502 120.0
46.003922 68.0
46.033627 124.0
46.043079 124.0
46.055237 104.0
46.086311 108.0
46.145786 84.0
46.156605 112.0
46.179596 144.0
46.191772 76.0
46.202595 104.0
46.220184 112.0
46.236423 172.0
46.293289 132.0
46.305477 116.0
46.320377 156.0
46.332218 168.0
46.377293 56.0
46.403053 120.0
46.420681 140.0
46.452522 124.0
46.48061 132.0
46.494473 180.0
46.517017 164.0
46.527596 248.0
46.550964 168.0
46.57341 160.0
46.596809 176.0
46.621609 184.0
46.636562 328.0
46.656227 160.0
46.674149 192.0
46.6777 124.0
46.684101 224.0
46.699593 220.0
46.730339 176.0
46.741287 120.0
46.775314 120.0
46.816162 184.0
46.840683 120.0
46.876106 100.0
46.885647 152.0
46.913845 216.0
46.958225 156.0
46.973148 164.0
46.993382 76.0
47.017139 88.0
47.038651 168.0
47.04948 120.0
47.059551 136.0
47.088947 108.0
47.101028 208.0
47.130852 220.0
47.136173 148.0
47.170937 128.0
47.193897 160.0
47.209221 188.0
47.224072 140.0
47.268047 172.0
47.314587 136.0
47.348824 116.0
47.35841 188.0
47.383137 172.0
47.402256 164.0
47.433479 496.0
47.487259 140.0
47.503334 212.0
47.521557 116.0
47.544888 184.0
47.555248 196.0
47.61079 64.0
47.62315 144.0
47.664368 112.0
47.675362 100.0
47.722103 136.0
47.736046 148.0
47.761322 132.0
47.784 308.0
47.800156 124.0
47.819782 240.0
47.856239 184.0
47.884762 144.0
47.899681 172.0
47.931339 104.0
47.958767 120.0
47.985096 128.0
48.063721 160.0
48.117558 164.0
48.156578 140.0
48.175564 208.0
48.218403 176.0
48.237755 192.0
48.284687 200.0
48.299984 60.0
48.363575 252.0
48.398251 156.0
48.441189 116.0
48.451031 156.0
48.482758 372.0
48.525734 136.0
48.546532 196.0
48.606796 100.0
48.619461 192.0
48.640888 188.0
48.656158 132.0
48.679016 220.0
48.689487 36.0
48.747837 224.0
48.797882 92.0
48.809006 228.0
48.839603 152.0
48.900288 388.0
48.923103 168.0
48.95652 140.0
48.976021 112.0
49.001591 216.0
49.011776 336.0
49.07637 208.0
49.107647 140.0
49.134953 156.0
49.144718 104.0
49.168442 184.0
49.215908 188.0
49.228477 96.0
49.248947 128.0
49.267822 144.0
49.293266 224.0
49.301579 124.0
49.343063 100.0
49.385017 108.0
49.409023 168.0
49.451485 152.0
49.467583 172.0
49.487183 76.0
49.51099 132.0
49.57066 88.0
49.618763 172.0
49.668854 160.0
49.684814 156.0
49.701141 88.0
49.722885 184.0
49.733932 84.0
49.745617 160.0
49.759201 60.0
49.77924 148.0
49.877983 44.0
49.892002 348.0
49.911373 176.0
49.939564 204.0
49.964409 132.0
49.978481 216.0
49.997009 168.0
50.010723 132.0
50.032906 192.0
50.06525 132.0
50.081257 124.0
50.092766 140.0
50.120705 168.0
50.133389 128.0
50.167618 212.0
50.20388 156.0
50.251846 136.0
50.284302 244.0
50.309711 136.0
50.356316 156.0
50.377502 108.0
50.415932 164.0
50.438271 176.0
50.450996 72.0
50.48069 124.0
50.490589 124.0
50.521709 164.0
50.542854 108.0
50.561935 188.0
50.57201 132.0
50.585396 132.0
50.619328 112.0
50.661873 160.0
50.724228 120.0
50.739822 296.0
50.749748 124.0
50.771023 132.0
50.798409 148.0
50.810741 112.0
50.833447 160.0
50.905048 156.0
50.954144 212.0
50.974037 104.0
50.989674 92.0
51.016682 116.0
51.0821 180.0
51.099731 224.0
51.116249 160.0
51.148232 196.0
51.158501 120.0
51.195972 208.0
51.207367 48.0
51.23016 156.0
51.302845 120.0
51.325726 168.0
51.397835 188.0
51.436947 120.0
51.474072 240.0
51.490471 116.0
51.515491 164.0
51.528351 152.0
51.556931 84.0
51.572655 120.0
51.633095 104.0
51.672764 84.0
51.684212 84.0
51.697636 220.0
51.722092 160.0
51.732212 164.0
51.735409 52.0
51.740715 168.0
51.760082 148.0
51.777786 176.0
51.809353 20.0
51.824543 112.0
51.848904 112.0
51.859535 144.0
51.890957 120.0
51.920544 116.0
51.963631 152.0
51.9977 216.0
52.021332 188.0
52.037498 120.0
52.098591 144.0
52.113697 172.0
52.131641 68.0
52.156075 104.0
52.166138 176.0
52.183392 244.0
52.196335 104.0
52.213593 128.0
52.234894 168.0
52.239147 136.0
52.249676 172.0
52.273643 200.0
52.298992 136.0
52.371925 172.0
52.393383 204.0
52.42321 128.0
52.427586 76.0
52.43182 176.0
52.46199 144.0
52.507416 48.0
52.531937 56.0
52.552139 104.0
52.592548 168.0
52.608429 200.0
52.621422 80.0
52.63586 48.0
52.647415 168.0
52.661858 160.0
52.696529 148.0
52.736996 136.0
52.748562 144.0
52.76302 148.0
52.797726 120.0
52.810333 184.0
52.864803 132.0
52.891777 76.0
52.904594 136.0
52.935215 140.0
52.9468 156.0
52.962734 124.0
53.005726 172.0
53.022141 116.0
53.07143 140.0
53.088833 164.0
53.127998 56.0
53.157021 104.0
53.207962 128.0
53.220272 204.0
53.236771 120.0
53.305149 184.0
53.33567 128.0
53.36911 124.0
53.406925 168.0
53.421471 100.0
53.433109 244.0
53.444752 120.0
53.465126 396.0
53.487804 220.0
53.504429 164.0
53.52499 164.0
53.539917 120.0
53.58308 136.0
53.613583 176.0
53.638462 116.0
53.651581 136.0
53.739094 216.0
53.753742 108.0
53.787453 228.0
53.793472 156.0
53.836903 32.0
53.905567 128.0
53.980125 136.0
54.035664 168.0
54.081078 120.0
54.095715 116.0
54.125 116.0
54.13525 140.0
54.189045 72.0
54.215828 136.0
54.235363 116.0
54.246613 260.0
54.270069 136.0
54.287666 44.0
54.309402 152.0
54.319939 112.0
54.34341 76.0
54.374523 160.0
54.405056 152.0
54.431488 104.0
54.446392 296.0
54.459393 28.0
54.472614 148.0
54.49612 128.0
54.507877 124.0
54.525513 92.0
54.569614 160.0
54.583084 152.0
54.599026 28.0
54.623947 136.0
54.651169 136.0
54.662289 52.0
54.709393 148.0
54.735897 164.0
54.748154 136.0
54.763073 292.0
54.816486 184.0
54.898697 136.0
54.918652 300.0
54.982098 96.0
55.029339 68.0
55.047058 152.0
55.100235 136.0
55.120922 152.0
55.206722 112.0
55.228855 68.0
55.259697 104.0
55.286377 224.0
55.359947 196.0
55.385765 44.0
55.440586 188.0
55.459858 64.0
55.473835 112.0
55.489506 136.0
55.533997 144.0
55.557732 256.0
55.621548 260.0
55.647266 124.0
55.675003 140.0
55.728481 128.0
55.740368 84.0
55.758205 160.0
55.786835 204.0
55.816185 132.0
55.837006 140.0
55.850391 324.0
55.864971 100.0
55.874264 140.0
55.895027 112.0
55.935215 112.0
55.949333 124.0
55.967968 84.0
55.994778 168.0
56.029613 172.0
56.05653 80.0
56.090141 144.0
56.108528 108.0
56.122944 156.0
56.149788 56.0
56.19305 156.0
56.209465 88.0
56.221401 64.0
56.246239 200.0
56.261707 280.0
56.281116 124.0
56.296051 60.0
56.345608 160.0
56.362637 112.0
56.368259 168.0
56.385693 140.0
56.423065 124.0
56.44767 168.0
56.472801 388.0
56.514305 76.0
56.550224 76.0
56.566692 112.0
56.622097 104.0
56.644566 176.0
56.676029 140.0
56.703205 148.0
56.714996 144.0
56.728489 140.0
56.777969 100.0
56.80043 152.0
56.828976 136.0
56.843983 104.0
56.874001 104.0
56.899521 180.0
56.928055 168.0
56.948761 244.0
57.016369 92.0
57.039803 208.0
57.057281 124.0
57.084351 96.0
57.114429 96.0
57.135494 140.0
57.158062 272.0
57.188164 188.0
57.203419 180.0
57.232849 176.0
57.252907 156.0
57.269047 196.0
57.299606 192.0
57.320702 156.0
57.331253 144.0
57.358383 128.0
57.376472 124.0
57.389217 124.0
57.395645 56.0
57.398579 164.0
57.417271 152.0
57.430763 196.0
57.44434 156.0
57.459427 280.0
57.49633 44.0
57.512249 132.0
57.528217 152.0
57.584728 184.0
57.602856 72.0
57.66481 136.0
57.679924 104.0
57.738895 188.0
57.7631 140.0
57.797897 140.0
57.834221 116.0
57.849361 152.0
57.864796 144.0
57.876614 148.0
57.919022 160.0
57.935684 32.0
57.961445 204.0
57.990669 184.0
58.011238 108.0
58.015549 92.0
58.021263 172.0
58.042229 192.0
58.092255 88.0
58.111565 72.0
58.198086 224.0
58.210236 128.0
58.228458 124.0
58.23909 176.0
58.261944 184.0
58.275555 424.0
58.308987 224.0
58.319626 140.0
58.354591 132.0
58.365238 188.0
58.375145 192.0
58.464123 212.0
58.500652 108.0
58.523491 148.0
58.547859 212.0
58.560043 64.0
58.572227 140.0
58.616413 100.0
58.630131 140.0
58.640221 116.0
58.656044 180.0
58.671288 76.0
58.697174 280.0
58.723137 112.0
58.751579 248.0
58.791798 144.0
58.827873 120.0
58.863548 160.0
58.910187 180.0
58.925953 188.0
58.970497 204.0
58.981197 124.0
59.002602 148.0
59.038078 140.0
59.065304 100.0
59.140953 320.0
59.169373 148.0
59.236355 152.0
59.29652 104.0
59.311848 132.0
59.35244 160.0
59.397724 172.0
59.411533 192.0
59.437973 120.0
59.483295 200.0
59.517441 28.0
59.530785 232.0
59.533756 160.0
59.552765 316.0
59.576767 96.0
59.599781 224.0
59.626518 176.0
59.638813 156.0
59.65287 112.0
59.66341 152.0
59.680931 172.0
59.71262 132.0
59.726463 52.0
59.748001 164.0
59.772377 176.0
59.84164 148.0
59.894253 180.0
59.915821 136.0
59.93095 300.0
59.950676 220.0
59.965134 196.0
60.005219 156.0
60.017551 124.0
60.073719 212.0
60.106339 176.0
60.11937 128.0
60.168766 152.0
60.212006 132.0
60.230541 100.0
60.26453 212.0
60.288818 184.0
60.310524 184.0
60.361916 56.0
60.391304 208.0
60.43119 184.0
60.47641 76.0
60.494984 108.0
60.522854 144.0
60.538342 160.0
60.563122 140.0
60.600468 152.0
60.612701 84.0
60.628197 204.0
60.707977 148.0
60.718754 108.0
60.739838 56.0
60.76466 136.0
60.784836 172.0
60.835789 116.0
60.879536 188.0
60.903503 120.0
60.940117 44.0
60.96809 84.0
60.989239 132.0
61.020943 164.0
61.050491 136.0
61.079193 132.0
61.090321 136.0
61.11116 172.0
61.155331 148.0
61.17186 192.0
61.190994 192.0
61.230648 160.0
61.251282 116.0
61.316727 180.0
61.330753 204.0
61.344784 192.0
61.374409 112.0
61.39529 184.0
61.41964 148.0
61.438358 144.0
61.458641 116.0
61.469566 136.0
61.488949 124.0
61.519653 180.0
61.547619 124.0
61.558552 36.0
61.580418 132.0
61.628845 292.0
61.665436 252.0
61.682812 212.0
61.713856 240.0
61.739841 144.0
61.783047 92.0
61.797722 132.0
61.808674 224.0
61.827454 184.0
61.841541 156.0
61.854065 48.0
61.873589 68.0
61.89761 132.0
61.910435 92.0
61.984718 220.0
61.996601 300.0
62.013844 32.0
62.063076 196.0
62.111061 188.0
62.141457 216.0
62.171448 248.0
62.175865 120.0
62.182095 164.0
62.211124 184.0
62.247612 200.0
62.284733 192.0
62.301018 124.0
62.319874 212.0
62.339481 92.0
62.359238 220.0
62.374882 152.0
62.40947 52.0
62.434631 176.0
62.458225 40.0
62.494411 152.0
62.508575 260.0
62.524311 136.0
62.540894 120.0
62.566814 80.0
62.617207 124.0
62.634533 144.0
62.651249 184.0
62.677399 156.0
62.703289 240.0
62.738544 180.0
62.77166 160.0
62.78743 124.0
62.828445 116.0
62.845276 180.0
62.884258 152.0
62.897884 148.0
62.91877 156.0
62.935143 252.0
62.972347 228.0
63.035431 140.0
63.067486 172.0
63.098522 252.0
63.128567 120.0
63.180767 36.0
63.247234 188.0
63.266232 144.0
63.285233 128.0
63.311123 80.0
63.344097 116.0
63.351357 96.0
63.393158 128.0
63.413555 164.0
63.434162 196.0
63.451603 176.0
63.465874 148.0
63.481731 148.0
63.516113 124.0
63.535267 96.0
63.56105 88.0
63.581165 184.0
63.599144 148.0
63.624542 220.0
63.635658 112.0
63.656879 220.0
63.686478 144.0
63.702362 112.0
63.741451 96.0
63.753212 108.0
63.792816 96.0
63.826515 72.0
63.847012 224.0
63.885189 92.0
63.905872 140.0
63.950947 260.0
63.976749 104.0
63.996605 96.0
64.041107 148.0
64.057808 84.0
64.090584 148.0
64.108635 160.0
64.141792 92.0
64.172943 144.0
64.206963 120.0
64.246452 164.0
64.26918 120.0
64.351501 92.0
64.380928 112.0
64.422714 152.0
64.457588 160.0
64.475189 140.0
64.517929 212.0
64.53434 156.0
64.574806 236.0
64.598312 108.0
64.662819 116.0
64.686165 188.0
64.692093 120.0
64.724678 152.0
64.761955 268.0
64.783989 172.0
64.814316 188.0
64.826973 144.0
64.844917 164.0
64.857742 112.0
64.899422 48.0
64.917961 176.0
64.958771 92.0
65.000488 88.0
65.035622 148.0
65.048637 136.0
65.067902 148.0
65.12513 132.0
65.131073 84.0
65.137726 160.0
65.148209 208.0
65.164986 180.0
65.235794 144.0
65.260719 40.0
65.281624 120.0
65.294487 140.0
65.313072 116.0
65.333092 104.0
65.373322 224.0
65.389664 104.0
65.405258 176.0
65.431114 124.0
65.465088 164.0
65.498909 160.0
65.523079 100.0
65.541176 156.0
65.565659 188.0
65.58754 56.0
65.623474 140.0
65.640747 156.0
65.666298 176.0
65.694855 128.0
65.751053 172.0
65.811798 136.0
65.830246 152.0
65.848473 164.0
65.884705 144.0
65.910301 208.0
65.94751 120.0
65.978226 136.0
65.994392 28.0
66.013832 168.0
66.027634 176.0
66.079796 100.0
66.086105 80.0
66.092232 156.0
66.125435 172.0
66.153893 96.0
66.20784 156.0
66.252861 208.0
66.279289 180.0
66.305214 184.0
66.336517 156.0
66.376152 196.0
66.464149 124.0
66.477135 160.0
66.493362 132.0
66.504723 120.0
66.535568 192.0
66.582657 112.0
66.638657 212.0
66.680725 124.0
66.704529 176.0
66.74192 76.0
66.76445 244.0
66.811867 212.0
66.862907 96.0
66.882065 148.0
66.936806 116.0
66.961937 256.0
67.008873 136.0
67.026794 40.0
67.044724 112.0
67.06591 100.0
67.088737 268.0
67.108299 160.0
67.149071 160.0
67.188225 212.0
67.207802 144.0
67.219223 92.0
67.256767 128.0
67.277687 44.0
67.287033 184.0
67.320442 144.0
67.339615 284.0
67.372711 180.0
67.394478 128.0
67.416832 136.0
67.436447 168.0
67.448547 136.0
67.497467 148.0
67.546005 140.0
67.564003 164.0
67.589294 200.0
67.61747 136.0
67.676369 184.0
67.681267 224.0
67.710342 100.0
67.717506 140.0
67.720055 208.0
67.739174 132.0
67.772202 128.0
67.815491 148.0
67.834229 144.0
67.852257 64.0
67.875214 64.0
67.888931 132.0
67.90802 152.0
67.950897 144.0
67.968719 200.0
67.988503 144.0
68.005493 188.0
68.032478 104.0
68.049149 116.0
68.072144 120.0
68.111557 104.0
68.127007 192.0
68.149345 80.0
68.192078 144.0
68.228287 140.0
68.24659 128.0
68.265785 164.0
68.276291 128.0
68.318703 120.0
68.335152 80.0
68.346672 164.0
68.382874 180.0
68.405922 120.0
68.440498 140.0
68.465202 192.0
68.491554 72.0
68.527802 164.0
68.539337 60.0
68.580032 260.0
68.60006 348.0
68.636597 120.0
68.659683 168.0
68.676155 196.0
68.739594 200.0
68.767235 128.0
68.787277 208.0
68.838432 124.0
68.907303 172.0
68.925476 136.0
68.937042 164.0
68.980644 184.0
69.007523 164.0
69.057739 132.0
69.069321 300.0
69.085861 132.0
69.105797 172.0
69.122261 128.0
69.154442 136.0
69.214966 152.0
69.233185 60.0
69.246429 188.0
69.267967 156.0
69.286194 160.0
69.322647 168.0
69.333336 116.0
69.351822 232.0
69.366356 116.0
69.402214 136.0
69.437042 48.0
69.478516 168.0
69.491791 180.0
69.505066 140.0
69.537941 128.0
69.567009 124.0
69.607231 300.0
69.646187 136.0
69.69104 156.0
69.711929 204.0
69.760849 120.0
69.773392 236.0
69.814056 156.0
69.9039 208.0
69.915543 148.0
69.92807 168.0
69.948074 96.0
69.973808 84.0
69.987129 144.0
70.00045 104.0
70.020439 104.0
70.080414 136.0
70.102074 128.0
70.147766 116.0
70.187447 172.0
70.213959 180.0
70.232903 180.0
70.273895 112.0
70.305008 200.0
70.336441 276.0
70.357285 132.0
70.426765 384.0
70.439117 128.0
70.469193 184.0
70.480888 80.0
70.517654 56.0
70.539391 216.0
70.556107 252.0
70.56781 152.0
70.610451 208.0
70.636383 108.0
70.680275 384.0
70.693268 88.0
70.704987 140.0
70.725075 124.0
70.741814 312.0
70.786377 148.0
70.798744 192.0
70.81636 332.0
70.859047 76.0
70.872162 204.0
70.884186 124.0
70.905968 112.0
70.927765 160.0
70.94117 152.0
70.952911 100.0
70.984375 152.0
71.015518 152.0
71.055222 144.0
71.068642 272.0
71.119385 120.0
71.134102 116.0
71.158989 160.0
71.176071 48.0
71.187828 112.0
71.203674 120.0
71.226219 248.0
71.257607 136.0
71.286949 196.0
71.305435 152.0
71.370483 116.0
71.373283 180.0
71.389503 104.0
71.431419 104.0
71.437653 96.0
71.440659 164.0
71.45298 168.0
71.495491 132.0
71.524582 128.0
71.542252 180.0
71.559357 132.0
71.573265 220.0
71.587349 100.0
71.599876 184.0
71.621773 188.0
71.700081 244.0
71.733086 220.0
71.766716 72.0
71.78669 108.0
71.814232 136.0
71.829117 108.0
71.876358 136.0
71.908424 48.0
71.933746 124.0
71.948433 128.0
71.958748 336.0
71.999603 112.0
72.019867 132.0
72.031693 140.0
72.045212 164.0
72.060417 164.0
72.082382 168.0
72.106995 192.0
72.209816 140.0
72.23101 172.0
72.276855 48.0
72.289909 168.0
72.320854 52.0
72.363892 172.0
72.419067 156.0
72.454643 248.0
72.468193 196.0
72.503784 144.0
72.539383 88.0
72.593636 172.0
72.709007 160.0
72.734467 96.0
72.746353 80.0
72.7854 108.0
72.821068 48.0
72.856743 84.0
72.883926 232.0
72.967216 128.0
72.992722 160.0
73.011429 156.0
73.026733 156.0
73.066956 180.0
73.104004 164.0
73.122383 340.0
73.13649 168.0
73.171387 96.0
73.208847 144.0
73.251328 164.0
73.273071 148.0
73.292328 148.0
73.314392 152.0
73.350273 120.0
73.374138 328.0
73.391975 140.0
73.416771 136.0
73.450882 168.0
73.48671 148.0
73.502068 76.0
73.567947 148.0
73.597664 336.0
73.638649 128.0
73.733276 200.0
73.746628 208.0
73.75985 184.0
73.783905 88.0
73.79924 128.0
73.833496 148.0
73.848198 108.0
73.875053 68.0
73.888237 112.0
73.903641 144.0
74.052582 140.0
74.066284 132.0
74.106544 80.0
74.122826 92.0
74.14296 112.0
74.17939 100.0
74.241112 128.0
74.296005 152.0
74.338448 212.0
74.361214 56.0
74.384651 216.0
74.408333 188.0
74.421616 152.0
74.449173 192.0
74.490005 148.0
74.529518 136.0
74.551857 116.0
74.581078 172.0
74.646416 172.0
74.659866 276.0
74.699738 248.0
74.715218 136.0
74.727264 92.0
74.753075 88.0
74.787498 164.0
74.830635 140.0
74.858795 176.0
74.878342 200.0
74.899422 40.0
74.918373 188.0
74.939049 124.0
74.951111 92.0
74.966621 240.0
74.989029 172.0
75.005241 200.0
75.030403 136.0
75.042473 116.0
75.059715 136.0
75.083366 140.0
75.140076 156.0
75.172127 148.0
75.203369 120.0
75.246071 188.0
75.258156 88.0
75.270248 204.0
75.313423 84.0
75.32724 212.0
75.375015 240.0
75.415375 128.0
75.429199 132.0
75.457718 168.0
75.494904 156.0
75.526039 292.0
75.564102 132.0
75.583138 164.0
75.6259 228.0
75.645447 196.0
75.662094 188.0
75.69101 164.0
75.712975 160.0
75.735489 116.0
75.80114 184.0
75.879333 152.0
75.915504 116.0
75.953903 112.0
75.98513 128.0
76.015457 396.0
76.030251 188.0
76.045715 176.0
76.058891 128.0
76.084839 120.0
76.11879 160.0
76.155434 124.0
76.193481 92.0
76.261261 116.0
76.280922 64.0
76.315933 168.0
76.342972 188.0
76.395691 124.0
76.419518 188.0
76.438522 152.0
76.493752 116.0
76.516991 172.0
76.543732 200.0
76.579681 192.0
76.640656 68.0
76.668541 88.0
76.6912 108.0
76.760101 112.0
76.787102 48.0
76.80864 92.0
76.842926 108.0
76.888298 272.0
76.938278 228.0
76.958122 168.0
76.972092 64.0
76.996544 224.0
77.078018 164.0
77.103119 132.0
77.125092 160.0
77.150322 92.0
77.166779 180.0
77.18354 136.0
77.211525 184.0
77.241585 108.0
77.302498 112.0
77.341003 48.0
77.367264 172.0
77.388275 92.0
77.413139 160.0
77.426796 144.0
77.443764 280.0
77.475845 260.0
77.492355 104.0
77.523155 188.0
77.561714 192.0
77.582756 180.0
77.644073 132.0
77.682137 180.0
77.700264 180.0
77.728851 136.0
77.744133 224.0
77.768707 156.0
77.782745 272.0
77.842445 196.0
77.863518 132.0
77.877571 124.0
77.903557 212.0
77.933022 184.0
77.97245 152.0
78.009369 176.0
78.038162 148.0
78.065697 108.0
78.084984 140.0
78.120163 192.0
78.17215 144.0
78.191742 224.0
78.204308 88.0
78.208275 120.0
78.243164 144.0
78.285339 152.0
78.320847 152.0
78.334938 124.0
78.348175 148.0
78.403656 80.0
78.424812 176.0
78.455139 176.0
78.481224 80.0
78.509956 192.0
78.555305 136.0
78.56942 88.0
78.628403 216.0
78.657654 148.0
78.689438 116.0
78.751244 260.0
78.77774 80.0
78.818382 96.0
78.842842 176.0
78.861809 112.0
78.873169 168.0
78.943893 148.0
78.969757 184.0
79.011116 136.0
79.031403 176.0
79.05278 124.0
79.076195 108.0
79.12439 164.0
79.146988 152.0
79.152557 172.0
79.211166 148.0
79.243813 196.0
79.291763 140.0
79.33522 64.0
79.352951 156.0
79.386642 100.0
79.400833 160.0
79.484215 128.0
79.500183 128.0
79.528587 92.0
79.580498 168.0
79.626152 160.0
79.658218 172.0
79.731071 204.0
79.754173 120.0
79.775505 76.0
79.791512 204.0
79.84304 180.0
79.85939 232.0
79.890404 132.0
79.940971 180.0
80.027222 140.0
80.065552 168.0
80.095581 252.0
80.09977 192.0
80.143936 140.0
80.188492 100.0
80.236626 160.0
80.25267 68.0
80.311523 116.0
80.331146 168.0
80.359688 204.0
80.381104 136.0
80.3936 136.0
80.417519 168.0
80.443573 116.0
80.457855 124.0
80.488533 200.0
80.546501 152.0
80.567223 204.0
80.625771 232.0
80.650894 152.0
80.669556 168.0
80.716949 124.0
80.793861 144.0
80.806389 160.0
80.89241 120.0
80.907715 280.0
80.963028 348.0
80.988991 136.0
81.003326 124.0
81.024818 140.0
81.088509 176.0
81.099892 72.0
81.116219 84.0
81.173599 144.0
81.208824 212.0
81.243553 48.0
81.27684 196.0
81.327515 164.0
81.352852 124.0
81.378166 168.0
81.394325 84.0
81.421265 68.0
81.461678 128.0
81.485931 120.0
81.498512 184.0
81.514885 212.0
81.535423 208.0
81.565079 104.0
81.581032 92.0
81.622543 196.0
81.650146 196.0
81.669533 64.0
81.726875 184.0
81.75647 108.0
81.760468 180.0
81.789871 124.0
81.807869 104.0
81.827675 88.0
81.89431 124.0
81.914124 176.0
81.951958 96.0
81.999718 120.0
82.048569 160.0
82.100395 292.0
82.124321 152.0
82.154716 140.0
82.197197 184.0
82.325371 60.0
82.35218 176.0
82.421204 168.0
82.458511 116.0
82.461441 168.0
82.478958 144.0
82.497032 108.0
82.524155 188.0
82.53862 152.0
82.561676 176.0
82.59156 88.0
82.616394 76.0
82.640533 212.0
82.665253 92.0
82.708687 188.0
82.725838 144.0
82.766624 112.0
82.81871 216.0
82.947205 156.0
82.954727 152.0
82.97319 136.0
83.011269 152.0
83.032791 180.0
83.035538 156.0
83.078613 124.0
83.096519 152.0
83.109222 124.0
83.185211 120.0
83.2145 176.0
83.239922 116.0
83.262482 188.0
83.299866 148.0
83.334381 168.0
83.418304 184.0
83.436165 192.0
83.46344 304.0
83.501633 68.0
83.540207 116.0
83.559517 176.0
83.600517 128.0
83.634262 144.0
83.669052 128.0
83.689148 108.0
83.703644 176.0
83.716393 172.0
83.795998 160.0
83.820183 152.0
83.833244 172.0
83.855217 164.0
83.935081 148.0
83.972755 152.0
84.013512 244.0
84.031754 96.0
84.106583 72.0
84.121185 236.0
84.137619 188.0
84.202774 200.0
84.270073 176.0
84.30732 164.0
84.314758 148.0
84.345451 188.0
84.360504 144.0
84.373497 168.0
84.394073 164.0
84.408043 144.0
84.433647 100.0
84.457428 80.0
84.526978 180.0
84.563553 136.0
84.59153 240.0
84.616646 156.0
84.645432 200.0
84.678909 108.0
84.728371 60.0
84.74852 148.0
84.776421 288.0
84.799782 144.0
84.814499 136.0
84.843834 80.0
84.865837 364.0
84.953873 228.0
84.968552 148.0
84.984123 160.0
85.018097 148.0
85.034615 28.0
85.06031 136.0
85.080505 112.0
85.104378 156.0
85.144775 52.0
85.172333 140.0
85.207237 304.0
85.236633 160.0
85.311996 120.0
85.354286 136.0
85.37635 112.0
85.391068 112.0
85.416817 96.0
85.435219 140.0
85.464012 188.0
85.490417 156.0
85.514343 100.0
85.575096 60.0
85.587982 312.0
85.61377 156.0
85.666679 160.0
85.701744 196.0
85.739304 204.0
85.757622 188.0
85.772224 176.0
85.785133 52.0
85.809097 184.0
85.84967 156.0
85.869957 156.0
85.912384 68.0
85.962738 220.0
86.0093 232.0
86.027908 124.0
86.065582 100.0
86.095123 124.0
86.137611 260.0
86.21801 156.0
86.414177 108.0
86.429733 144.0
86.458038 176.0
86.548203 316.0
86.566727 120.0
86.590797 148.0
86.607468 156.0
86.640816 144.0
86.67141 156.0
86.726059 152.0
86.757576 140.0
86.779823 144.0
86.818771 244.0
86.889862 256.0
86.909668 176.0
86.933792 108.0
86.974625 140.0
86.996147 88.0
87.011757 140.0
87.047035 172.0
87.065605 80.0
87.116188 192.0
87.167702 168.0
87.187874 168.0
87.244186 192.0
87.268166 184.0
87.304893 144.0
87.341682 216.0
87.380638 128.0
87.405815 120.0
87.430008 168.0
87.446762 112.0
87.476547 96.0
87.497025 216.0
87.511917 108.0
87.536125 116.0
87.557106 120.0
87.599457 120.0
87.625534 176.0
87.657173 164.0
87.683304 52.0
87.700081 184.0
87.719627 272.0
87.779823 52.0
87.783188 132.0
87.80381 76.0
87.832474 132.0
87.860458 148.0
87.882851 208.0
87.931374 144.0
87.965347 60.0
87.978043 172.0
88.036789 224.0
88.067673 196.0
88.110641 116.0
88.123726 116.0
88.180038 180.0
88.212326 196.0
88.263916 156.0
88.301323 172.0
88.320023 172.0
88.354919 92.0
88.370537 124.0
88.410553 176.0
88.432297 128.0
88.447273 96.0
88.463005 168.0
88.494072 96.0
88.520287 136.0
88.540894 316.0
88.559624 132.0
88.590965 180.0
88.628937 160.0
88.715157 232.0
88.749222 192.0
88.766777 144.0
88.808128 196.0
88.830582 188.0
88.842735 164.0
88.917747 124.0
88.966553 104.0
89.026726 180.0
89.043549 212.0
89.077515 140.0
89.114273 144.0
89.144997 120.0
89.175072 240.0
89.23613 276.0
89.263435 92.0
89.278481 84.0
89.299164 208.0
89.334099 160.0
89.36689 76.0
89.385712 160.0
89.445938 196.0
89.534439 136.0
89.595512 104.0
89.631752 140.0
89.668205 188.0
89.687935 112.0
89.722816 124.0
89.817169 140.0
89.860565 100.0
89.894531 192.0
89.922836 252.0
89.973808 48.0
90.022484 164.0
90.041656 168.0
90.063766 196.0
90.09539 128.0
90.122673 124.0
90.192513 164.0
90.214111 124.0
90.236855 220.0
90.333443 176.0
90.351807 136.0
90.37178 144.0
90.43129 164.0
90.469147 156.0
90.510048 120.0
90.516296 120.0
90.522469 164.0
90.537315 164.0
90.596039 144.0
90.627274 148.0
90.65667 120.0
90.683205 132.0
90.700264 36.0
90.716728 204.0
90.738182 216.0
90.791275 112.0
90.805611 216.0
90.829308 156.0
90.867157 44.0
90.924492 168.0
90.943069 140.0
90.968994 152.0
90.992424 140.0
91.024704 136.0
91.053802 2976.0
91.106613 164.0
91.14608 148.0
91.17289 328.0
91.2033 152.0
91.240479 180.0
91.264137 72.0
91.27935 116.0
91.31739 224.0
91.33696 224.0
91.361137 184.0
91.381226 144.0
91.416321 132.0
91.490555 144.0
91.524826 116.0
91.576248 116.0
91.694382 132.0
91.740135 160.0
91.757835 136.0
91.787369 144.0
91.808037 164.0
91.856461 64.0
91.883171 308.0
91.938515 216.0
92.022507 108.0
92.035873 132.0
92.056068 784.0
92.106537 152.0
92.123734 128.0
92.156212 176.0
92.182961 112.0
92.196342 88.0
92.225014 144.0
92.263474 132.0
92.31105 136.0
92.368965 156.0
92.397125 152.0
92.433479 152.0
92.449432 120.0
92.513214 308.0
92.585533 132.0
92.609619 148.0
92.6334 96.0
92.651764 116.0
92.670929 116.0
92.77433 80.0
92.784523 104.0
92.812775 120.0
92.851128 152.0
92.884895 132.0
92.917442 168.0
92.936974 176.0
92.973915 56.0
93.00325 256.0
93.068916 3120.0
93.110229 140.0
93.126717 144.0
93.153557 224.0
93.188766 168.0
93.205521 60.0
93.225853 140.0
93.250488 140.0
93.279877 112.0
93.328308 128.0
93.356239 112.0
93.373734 176.0
93.392776 112.0
93.406242 104.0
93.423561 80.0
93.481285 80.0
93.533249 216.0
93.589088 72.0
93.602562 128.0
93.626755 144.0
93.652641 168.0
93.706581 116.0
93.780525 152.0
93.798126 176.0
93.834679 160.0
93.84922 116.0
93.889717 36.0
93.920578 156.0
93.976524 52.0
94.03833 152.0
94.070724 496.0
94.1213 152.0
94.148331 144.0
94.165718 116.0
94.186073 168.0
94.237198 240.0
94.250725 184.0
94.285568 244.0
94.34156 168.0
94.374435 136.0
94.3899 148.0
94.435112 80.0
94.48468 156.0
94.50972 136.0
94.519463 292.0
94.54467 140.0
94.58532 164.0
94.612518 184.0
94.657623 104.0
94.672165 216.0
94.686668 152.0
94.719971 112.0
94.747993 132.0
94.786743 116.0
94.8088 156.0
94.825165 160.0
94.924469 104.0
94.947655 132.0
94.963173 120.0
94.993614 156.0
95.023308 160.0
95.04818 4620.0
95.084351 19596.0
95.115311 172.0
95.151993 156.0
95.170395 160.0
95.205017 132.0
95.240746 96.0
95.26017 72.0
95.277061 168.0
95.296349 200.0
95.332062 72.0
95.35733 120.0
95.370461 172.0
95.387299 48.0
95.407875 96.0
95.452271 336.0
95.468155 52.0
95.490692 68.0
95.516838 132.0
95.580986 192.0
95.59655 96.0
95.658836 80.0
95.694511 376.0
95.719543 204.0
95.756012 164.0
95.799965 180.0
95.822014 184.0
95.850853 144.0
95.875687 248.0
95.912079 140.0
95.928253 176.0
95.945274 164.0
95.980324 212.0
96.005669 92.0
96.053223 620.0
96.087448 1964.0
96.128395 212.0
96.156387 192.0
96.183228 88.0
96.214653 456.0
96.246223 196.0
96.273048 168.0
96.305519 268.0
96.337502 92.0
96.358177 124.0
96.378532 132.0
96.395332 188.0
96.423355 120.0
96.458229 168.0
96.485977 132.0
96.495872 132.0
96.541916 160.0
96.593605 320.0
96.610565 208.0
96.647308 276.0
96.683609 140.0
96.712967 84.0
96.734299 100.0
96.754539 136.0
96.769066 208.0
96.807602 204.0
96.828491 80.0
96.855911 72.0
96.889221 116.0
96.906799 140.0
96.941566 212.0
96.967316 136.0
97.025192 512.0
97.06356 4052.0
97.102005 432.0
97.13031 188.0
97.143105 116.0
97.173515 120.0
97.23275 172.0
97.291794 348.0
97.330544 124.0
97.36747 144.0
97.389526 124.0
97.405182 156.0
97.433716 120.0
97.457596 100.0
97.46447 68.0
97.470787 112.0
97.497528 44.0
97.522209 144.0
97.546669 184.0
97.603691 164.0
97.621849 136.0
97.652679 180.0
97.702034 132.0
97.741386 152.0
97.759102 196.0
97.798729 208.0
97.863091 208.0
97.885094 84.0
97.973724 176.0
98.038528 176.0
98.067902 568.0
98.09491 888.0
98.118645 212.0
98.147179 48.0
98.186623 108.0
98.208511 164.0
98.237068 160.0
98.252014 160.0
98.280853 136.0
98.302109 268.0
98.309654 144.0
98.315224 176.0
98.33065 188.0
98.372353 112.0
98.424576 132.0
98.474312 356.0
98.506393 132.0
98.553169 148.0
98.566498 172.0
98.589378 120.0
98.60717 72.0
98.622986 160.0
98.664497 160.0
98.682289 124.0
98.713326 364.0
98.739639 136.0
98.761688 176.0
98.780251 68.0
98.814812 144.0
98.850433 192.0
98.87616 152.0
98.896416 188.0
98.912712 180.0
98.960861 132.0
99.018608 208.0
99.041153 428.0
99.062294 128.0
99.079865 512.0
99.099785 156.0
99.102814 156.0
99.131645 152.0
99.16436 152.0
99.207436 152.0
99.240669 164.0
99.260773 144.0
99.278343 140.0
99.339836 140.0
99.374374 176.0
99.38073 72.0
99.389168 148.0
99.412094 268.0
99.432892 152.0
99.490669 152.0
99.508461 204.0
99.538109 112.0
99.574066 184.0
99.590973 84.0
99.60585 164.0
99.636108 104.0
99.671417 156.0
99.692726 116.0
99.699234 84.0
99.703758 116.0
99.742966 204.0
99.776764 184.0
99.792671 88.0
99.862274 132.0
99.902061 288.0
99.934097 156.0
99.950447 176.0
99.988441 136.0
100.009514 108.0
100.023453 116.0
100.052811 252.0
100.110344 1388.0
100.138153 128.0
100.214645 176.0
100.23333 128.0
100.260025 312.0
100.288383 48.0
100.332603 132.0
100.353203 172.0
100.376106 84.0
100.402084 156.0
100.427963 132.0
100.461876 176.0
100.481255 112.0
100.494713 148.0
100.523735 152.0
100.543686 108.0
100.607567 172.0
100.633232 168.0
100.651489 140.0
100.680153 136.0
100.723114 148.0
100.741371 148.0
100.775513 180.0
100.797318 152.0
100.823296 204.0
100.849281 80.0
100.875267 108.0
100.922516 152.0
100.980408 104.0
100.984184 60.0
101.045265 60.0
101.062592 140.0
101.079582 108.0
101.115303 104.0
101.149338 124.0
101.196304 148.0
101.246269 188.0
101.27549 152.0
101.303535 128.0
101.329582 108.0
101.34761 40.0
101.363647 104.0
101.411743 196.0
101.434799 136.0
101.459854 80.0
101.497955 144.0
101.518578 112.0
101.534958 168.0
101.582191 108.0
101.602257 104.0
101.621689 132.0
101.636154 152.0
101.682526 128.0
101.770851 120.0
101.802986 144.0
101.819611 156.0
101.841339 164.0
101.850822 152.0
101.901413 160.0
101.947632 184.0
102.011955 108.0
102.086349 148.0
102.108475 64.0
102.125504 136.0
102.159088 124.0
102.174355 80.0
102.199097 168.0
102.257362 164.0
102.33783 128.0
102.37886 148.0
102.414421 124.0
102.438591 36.0
102.457466 164.0
102.470825 144.0
102.484459 144.0
102.523224 188.0
102.541359 92.0
102.555473 128.0
102.56958 164.0
102.584824 192.0
102.617966 148.0
102.642166 108.0
102.658295 100.0
102.695694 184.0
102.725594 292.0
102.766434 180.0
102.781349 152.0
102.812614 200.0
102.854012 156.0
102.874199 104.0
102.935669 124.0
102.948906 164.0
102.970421 320.0
103.028038 180.0
103.053024 856.0
103.122665 64.0
103.173203 92.0
103.199821 144.0
103.28038 204.0
103.302635 96.0
103.345123 132.0
103.363335 112.0
103.379524 132.0
103.393692 136.0
103.424049 132.0
103.44632 152.0
103.460487 72.0
103.525284 92.0
103.54821 188.0
103.579109 236.0
103.609108 116.0
103.653969 144.0
103.718483 136.0
103.75724 160.0
103.809006 60.0
103.831322 124.0
103.857689 164.0
103.936508 80.0
104.026115 124.0
104.054688 276.0
104.122849 144.0
104.149986 136.0
104.166649 280.0
104.231186 116.0
104.261742 140.0
104.297386 112.0
104.319443 340.0
104.326973 220.0
104.350693 148.0
104.365417 264.0
104.37867 164.0
104.505768 132.0
104.520821 152.0
104.592857 76.0
104.720551 240.0
104.754158 188.0
104.790741 176.0
104.831276 84.0
104.86216 200.0
104.88839 60.0
104.907005 200.0
104.950714 92.0
104.973969 200.0
104.981964 168.0
105.023727 152.0
105.068863 7488.0
105.093666 400.0
105.108513 172.0
105.123558 120.0
105.154716 184.0
105.178596 120.0
105.188087 92.0
105.192146 192.0
105.200272 48.0
105.207268 100.0
105.229073 224.0
105.255905 52.0
105.288116 176.0
105.305481 132.0
105.347031 176.0
105.37104 168.0
105.427513 116.0
105.454079 232.0
105.476326 84.0
105.501175 112.0
105.517456 148.0
105.55835 172.0
105.611526 176.0
105.635368 128.0
105.67495 172.0
105.715874 64.0
105.755104 128.0
105.771637 360.0
105.797752 104.0
105.811935 56.0
105.825417 148.0
105.855888 132.0
105.899399 184.0
105.953316 180.0
105.981644 148.0
105.989723 116.0
106.038368 164.0
106.071831 964.0
106.114746 100.0
106.141975 196.0
106.174789 108.0
106.267708 164.0
106.332771 76.0
106.363258 188.0
106.394653 168.0
106.41465 136.0
106.445686 104.0
106.55867 140.0
106.585953 216.0
106.602745 176.0
106.624428 188.0
106.638817 72.0
106.65731 144.0
106.673759 212.0
106.698433 352.0
106.719986 120.0
106.757919 176.0
106.782745 44.0
106.803314 100.0
106.83139 208.0
106.87326 172.0
106.889725 120.0
106.926941 48.0
106.95916 124.0
106.972298 304.0
107.006042 196.0
107.047516 784.0
107.084694 22244.0
107.112083 256.0
107.14093 156.0
107.16153 108.0
107.179344 124.0
107.203362 80.0
107.233032 132.0
107.270493 60.0
107.316124 68.0
107.348312 164.0
107.364716 128.0
107.392426 32.0
107.406868 128.0
107.4272 112.0
107.446068 228.0
107.461258 88.0
107.482277 112.0
107.520355 92.0
107.547188 68.0
107.592598 116.0
107.646286 44.0
107.675392 132.0
107.704208 92.0
107.759903 144.0
107.790894 76.0
107.830162 76.0
107.861168 88.0
107.92733 44.0
108.007988 160.0
108.054031 1244.0
108.087006 2272.0
108.161118 168.0
108.21093 192.0
108.272926 64.0
108.329926 116.0
108.365288 192.0
108.382729 76.0
108.409103 176.0
108.426521 312.0
108.468056 212.0
108.517456 52.0
108.548027 140.0
108.581749 200.0
108.634445 108.0
108.661552 264.0
108.678558 108.0
108.694809 144.0
108.732262 88.0
108.751884 136.0
108.776794 112.0
108.820168 108.0
108.844101 68.0
108.86734 356.0
108.88269 108.0
108.899307 100.0
108.920204 140.0
108.951935 144.0
108.981888 168.0
109.019447 152.0
109.063507 16684.0
109.099922 5764.0
109.137405 92.0
109.150787 176.0
109.164185 144.0
109.198708 192.0
109.220284 148.0
109.24646 100.0
109.297073 148.0
109.315491 116.0
109.335136 156.0
109.373405 216.0
109.408485 160.0
109.421715 128.0
109.452522 100.0
109.469177 48.0
109.525414 96.0
109.581665 44.0
109.596252 168.0
109.619904 160.0
109.654602 128.0
109.712975 100.0
109.736694 72.0
109.775528 104.0
109.79213 100.0
109.820541 268.0
109.890259 36.0
109.923836 176.0
109.94854 116.0
109.988976 172.0
110.010094 124.0
110.066246 1384.0
110.097015 1056.0
110.163757 40.0
110.186745 148.0
110.224358 168.0
110.277687 116.0
110.310051 72.0
110.324684 104.0
110.360115 160.0
110.389503 88.0
110.420074 168.0
110.457581 80.0
110.485718 68.0
110.525566 180.0
110.563148 112.0
110.577797 116.0
110.592445 120.0
110.636406 36.0
110.707603 116.0
110.724358 60.0
110.761116 320.0
110.790474 176.0
110.827011 112.0
110.841675 104.0
110.864044 268.0
110.869431 180.0
110.896172 92.0
110.91169 268.0
110.957054 184.0
110.980026 368.0
111.014229 196.0
111.042351 1096.0
111.079353 4796.0
111.107895 188.0
111.114838 336.0
111.145981 140.0
111.175117 44.0
111.207153 80.0
111.251312 160.0
111.271568 152.0
111.285057 108.0
111.301079 92.0
111.317383 136.0
111.359879 124.0
111.37986 344.0
111.422905 132.0
111.47123 72.0
111.49855 100.0
111.529152 188.0
111.548546 240.0
111.591049 164.0
111.605766 240.0
111.633102 84.0
111.677277 176.0
111.719803 228.0
111.741905 188.0
111.818245 112.0
111.850662 120.0
111.87719 176.0
111.926086 136.0
111.981026 180.0
112.007614 212.0
112.020805 400.0
112.050613 280.0
112.084084 580.0
112.111122 46296.0
112.163696 124.0
112.190865 108.0
112.225052 152.0
112.241035 156.0
112.268227 208.0
112.276268 164.0
112.282944 160.0
112.330284 88.0
112.349739 200.0
112.370369 56.0
112.38855 104.0
112.414688 32.0
112.435196 184.0
112.464119 132.0
112.479027 60.0
112.510223 168.0
112.55365 164.0
112.585358 152.0
112.618019 136.0
112.673279 164.0
112.706818 172.0
112.757729 96.0
112.771622 160.0
112.786415 136.0
112.822357 120.0
112.854073 176.0
112.902473 180.0
112.965965 172.0
112.994217 148.0
113.057594 1444.0
113.094345 672.0
113.114853 3704.0
113.150429 188.0
113.160255 136.0
113.182053 56.0
113.215935 128.0
113.23288 52.0
113.249825 148.0
113.265587 136.0
113.287956 180.0
113.313469 224.0
113.372711 52.0
113.449944 92.0
113.479309 100.0
113.508392 144.0
113.533417 100.0
113.551682 136.0
113.572014 64.0
113.635483 140.0
113.663246 44.0
113.69191 136.0
113.735405 120.0
113.769371 172.0
113.787498 152.0
113.810577 108.0
113.848976 84.0
113.873428 172.0
113.896423 196.0
113.926529 168.0
113.940575 160.0
114.007812 144.0
114.032784 52.0
114.058052 144.0
114.08593 72.0
114.126259 1012.0
114.238319 152.0
114.259552 44.0
114.28524 172.0
114.313522 116.0
114.364601 144.0
114.392273 72.0
114.409943 160.0
114.425629 144.0
114.458275 144.0
114.480812 144.0
114.513649 76.0
114.556564 220.0
114.588211 288.0
114.693245 112.0
114.722481 136.0
114.803513 48.0
114.820572 180.0
114.861794 148.0
114.927238 180.0
114.976318 120.0
115.05143 664.0
115.076401 260.0
115.100143 164.0
115.132469 352.0
115.160629 172.0
115.18689 156.0
115.26133 140.0
115.306671 172.0
115.337296 112.0
115.382187 132.0
115.420967 176.0
115.444199 48.0
115.462486 124.0
115.500366 124.0
115.603989 220.0
115.664581 160.0
115.763924 212.0
115.795197 168.0
115.812332 180.0
115.843857 140.0
115.889458 132.0
115.958099 144.0
116.041641 124.0
116.060173 112.0
116.114456 88.0
116.151016 196.0
116.187492 124.0
116.247063 156.0
116.253342 64.0
116.258987 128.0
116.317139 116.0
116.334999 180.0
116.354897 180.0
116.415024 104.0
116.447998 248.0
116.504181 204.0
116.632027 136.0
116.649094 128.0
116.687927 64.0
116.751762 228.0
116.774338 152.0
116.790077 104.0
116.823418 144.0
116.912239 124.0
116.991287 128.0
117.021423 108.0
117.036499 72.0
117.068832 1408.0
117.107567 68.0
117.135574 172.0
117.194572 140.0
117.221603 112.0
117.262405 116.0
117.277283 132.0
117.28717 164.0
117.30088 144.0
117.333847 120.0
117.352257 220.0
117.368347 180.0
117.387749 128.0
117.430885 132.0
117.489128 148.0
117.515022 120.0
117.534439 64.0
117.564651 104.0
117.616455 64.0
117.674744 40.0
117.70282 48.0
117.735207 168.0
117.758965 184.0
117.799637 172.0
117.837502 204.0
117.909264 384.0
117.925339 100.0
117.957764 256.0
117.99884 72.0
118.030312 152.0
118.066383 212.0
118.117538 156.0
118.148529 232.0
118.170967 144.0
118.232803 52.0
118.28875 68.0
118.303902 152.0
118.32122 272.0
118.350418 140.0
118.381851 116.0
118.444664 164.0
118.461998 112.0
118.509659 168.0
118.525665 156.0
118.587677 148.0
118.603745 160.0
118.642731 196.0
118.761894 104.0
118.782837 84.0
118.806702 120.0
118.843582 116.0
118.860947 36.0
118.876137 204.0
119.049843 424.0
119.084671 7640.0
119.13961 152.0
119.184059 200.0
119.201881 160.0
119.238831 160.0
119.254044 128.0
119.306213 160.0
119.327957 92.0
119.373619 64.0
119.39537 104.0
119.430168 96.0
119.454102 140.0
119.475853 96.0
119.531738 200.0
119.574318 216.0
119.593369 172.0
119.608604 192.0
119.626022 188.0
119.669563 152.0
119.695694 52.0
119.736679 136.0
119.742271 144.0
119.830742 172.0
119.860283 180.0
119.909195 112.0
119.964966 180.0
120.035393 344.0
120.087654 1080.0
120.127251 132.0
120.225967 116.0
120.27346 132.0
120.295288 140.0
120.327385 120.0
120.445557 196.0
120.470001 212.0
120.515884 96.0
120.532509 184.0
120.602753 104.0
120.651398 60.0
120.679817 140.0
120.701683 176.0
120.747841 204.0
120.775345 100.0
120.807716 92.0
120.848732 196.0
120.873253 84.0
120.915619 76.0
120.930054 200.0
120.997513 152.0
121.023956 300.0
121.063797 8752.0
121.100082 7200.0
121.141624 32.0
121.163536 40.0
121.178871 56.0
121.214958 136.0
121.235847 168.0
121.262146 76.0
121.288452 108.0
121.327667 180.0
121.370224 228.0
121.398079 176.0
121.424393 112.0
121.450714 228.0
121.468102 160.0
121.492393 108.0
121.516533 32.0
121.533318 172.0
121.553833 104.0
121.571739 176.0
121.608704 196.0
121.676758 176.0
121.700775 156.0
121.743896 180.0
121.772614 92.0
121.792244 136.0
121.821709 100.0
121.865608 216.0
121.938171 128.0
121.964546 284.0
121.979935 52.0
122.047829 100.0
122.069107 932.0
122.102051 848.0
122.16246 40.0
122.202888 300.0
122.232872 176.0
122.280273 276.0
122.295303 228.0
122.321182 160.0
122.355736 132.0
122.385437 116.0
122.439812 172.0
122.464043 56.0
122.504807 260.0
122.530128 112.0
122.571503 224.0
122.60627 116.0
122.656097 228.0
122.691017 44.0
122.706451 52.0
122.754967 180.0
122.788048 44.0
122.810867 116.0
122.85202 200.0
122.898956 160.0
122.937347 212.0
122.971176 228.0
123.041458 392.0
123.079697 48192.0
123.116425 1368.0
123.144508 80.0
123.149475 48.0
123.169907 72.0
123.207466 80.0
123.232559 124.0
123.23925 176.0
123.273384 96.0
123.301636 52.0
123.317291 72.0
123.33326 104.0
123.355537 128.0
123.386482 44.0
123.422234 168.0
123.442741 136.0
123.466095 116.0
123.508118 36.0
123.532448 44.0
123.547935 64.0
123.591499 128.0
123.610374 128.0
123.646973 180.0
123.687355 156.0
123.720566 120.0
123.758202 124.0
123.775917 84.0
123.799393 140.0
123.809135 152.0
123.838028 88.0
123.870155 204.0
123.897743 56.0
123.915466 124.0
123.948708 128.0
123.964218 128.0
123.984161 116.0
124.044876 380.0
124.082413 4272.0
124.115387 292.0
124.143791 72.0
124.16375 128.0
124.190361 80.0
124.212189 172.0
124.232513 172.0
124.316833 52.0
124.334587 112.0
124.363441 132.0
124.431801 156.0
124.495979 132.0
124.538857 144.0
124.641052 292.0
124.660385 120.0
124.669418 84.0
124.677765 100.0
124.686089 136.0
124.718842 156.0
124.75219 52.0
124.772194 60.0
124.816666 48.0
124.861145 48.0
124.893768 96.0
124.932327 180.0
124.96051 156.0
124.994232 156.0
125.003181 128.0
125.010544 168.0
125.036911 44.0
125.058037 732.0
125.094635 6940.0
125.159355 96.0
125.189133 168.0
125.239426 84.0
125.317505 72.0
125.363403 208.0
125.400803 188.0
125.431168 196.0
125.470779 260.0
125.500282 124.0
125.520355 36.0
125.538193 60.0
125.577866 132.0
125.616257 336.0
125.674271 128.0
125.71109 136.0
125.754036 188.0
125.759773 140.0
125.836151 76.0
125.872856 108.0
125.88118 104.0
125.92437 172.0
125.977913 136.0
126.078217 72.0
126.097198 384.0
126.126511 856.0
126.151451 160.0
126.192474 48.0
126.222977 156.0
126.239433 84.0
126.261116 300.0
126.291908 312.0
126.372162 264.0
126.413933 108.0
126.429596 264.0
126.467644 112.0
126.4888 88.0
126.539597 172.0
126.55484 156.0
126.593025 120.0
126.660217 256.0
126.739006 148.0
126.756561 184.0
126.793579 124.0
126.830521 104.0
126.884979 148.0
126.920204 136.0
126.968849 104.0
126.978264 72.0
126.982033 168.0
127.031021 172.0
127.036583 184.0
127.07473 556.0
127.101158 496.0
127.126144 164.0
127.135483 348.0
127.227592 120.0
127.298042 96.0
127.330887 68.0
127.458946 324.0
127.521873 88.0
127.551094 196.0
127.577942 68.0
127.669838 188.0
127.7024 152.0
127.73774 76.0
127.771996 176.0
127.807487 104.0
127.863747 184.0
127.898331 132.0
128.060699 848.0
128.108246 192.0
128.116165 296.0
128.14299 140.0
128.201584 192.0
128.231308 148.0
128.354874 124.0
128.382584 56.0
128.501495 92.0
128.537598 48.0
128.56694 104.0
128.722275 188.0
128.756577 44.0
128.783386 120.0
128.846939 112.0
128.865921 108.0
128.946365 140.0
129.017487 236.0
129.068298 1040.0
129.136292 156.0
129.188324 132.0
129.265259 140.0
129.290665 104.0
129.327744 124.0
129.401077 72.0
129.484863 48.0
129.509781 60.0
129.525635 84.0
129.582275 92.0
129.614487 184.0
129.638916 108.0
129.736389 176.0
129.761322 108.0
129.795334 40.0
129.833893 140.0
129.849762 192.0
129.899673 100.0
129.949585 168.0
129.986694 180.0
130.033554 88.0
130.076065 972.0
130.121872 1584.0
130.246994 184.0
130.27652 208.0
130.292435 156.0
130.348846 116.0
130.367905 188.0
130.481064 64.0
130.564026 184.0
130.598999 140.0
130.613876 200.0
130.674393 124.0
130.709534 136.0
130.786697 152.0
130.804123 128.0
130.826889 104.0
130.854218 188.0
130.897476 68.0
130.936188 104.0
130.953308 168.0
131.01329 136.0
131.083389 2108.0
131.12236 304.0
131.154922 56.0
131.18457 120.0
131.232437 228.0
131.268921 76.0
131.28717 64.0
131.34819 176.0
131.357468 132.0
131.408081 132.0
131.435455 172.0
131.458282 200.0
131.485657 152.0
131.532516 236.0
131.571777 188.0
131.597519 108.0
131.636337 148.0
131.720718 200.0
131.764252 44.0
131.800812 100.0
131.830521 108.0
131.853378 112.0
131.869385 148.0
131.926529 104.0
131.99054 80.0
132.049622 212.0
132.08577 796.0
132.121643 152.0
132.226181 108.0
132.244492 124.0
132.260513 112.0
132.28186 112.0
132.334457 172.0
132.349808 200.0
132.368134 88.0
132.413437 128.0
132.450531 140.0
132.458603 136.0
132.488373 104.0
132.546814 64.0
132.612701 128.0
132.675522 184.0
132.713882 176.0
132.732483 84.0
132.786514 232.0
132.820877 216.0
132.902237 96.0
132.929779 72.0
132.95961 32.0
132.998627 244.0
133.063721 3084.0
133.100235 6092.0
133.13179 140.0
133.15448 64.0
133.17543 28.0
133.212189 160.0
133.230072 56.0
133.244232 76.0
133.262161 160.0
133.283417 108.0
133.339142 96.0
133.370743 76.0
133.386841 56.0
133.418228 104.0
133.455811 92.0
133.476501 76.0
133.492599 256.0
133.518951 96.0
133.570801 112.0
133.598419 80.0
133.639526 124.0
133.777924 180.0
133.809616 160.0
133.860809 72.0
133.899963 72.0
133.943726 44.0
134.000595 172.0
134.067352 348.0
134.103485 1120.0
134.13269 68.0
134.19725 76.0
134.220306 156.0
134.245667 144.0
134.266434 140.0
134.300217 148.0
134.374847 52.0
134.397919 96.0
134.441772 52.0
134.483597 136.0
134.499466 180.0
134.540024 148.0
134.564117 80.0
134.589508 268.0
134.612976 148.0
134.664764 116.0
134.681885 80.0
134.70961 104.0
134.76738 168.0
134.815338 212.0
134.887375 152.0
134.951355 148.0
135.011887 156.0
135.020264 112.0
135.036774 188.0
135.079773 22516.0
135.115585 6280.0
135.171494 144.0
135.189209 144.0
135.21138 44.0
135.292404 108.0
135.317078 168.0
135.361862 192.0
135.385025 88.0
135.407181 204.0
135.438293 144.0
135.457199 76.0
135.498535 92.0
135.519379 40.0
135.552399 80.0
135.676193 84.0
135.790619 76.0
135.821548 84.0
135.880936 180.0
135.933655 116.0
135.953033 132.0
135.970169 104.0
135.989868 320.0
136.04512 244.0
136.082581 1672.0
136.115234 1032.0
136.148041 32.0
136.156525 92.0
136.180557 108.0
136.210266 76.0
136.258347 140.0
136.331589 160.0
136.357147 64.0
136.395065 268.0
136.417587 108.0
136.438507 52.0
136.466415 120.0
136.515244 148.0
136.573395 196.0
136.649185 152.0
136.740921 112.0
136.797058 104.0
136.822388 108.0
136.854996 120.0
136.899231 112.0
136.936493 120.0
136.964127 172.0
136.994736 100.0
137.025024 108.0
137.058151 1156.0
137.094635 6452.0
137.13208 1944.0
137.178604 40.0
137.202148 80.0
137.229385 148.0
137.288315 112.0
137.349075 132.0
137.4021 220.0
137.426071 116.0
137.458664 280.0
137.501648 184.0
137.552094 256.0
137.584778 164.0
137.608124 40.0
137.640823 164.0
137.675842 76.0
137.72049 104.0
137.752502 156.0
137.778625 156.0
137.813675 104.0
137.862747 172.0
137.890793 144.0
137.988312 156.0
138.027542 180.0
138.058548 148.0
138.097107 608.0
138.128586 1176.0
138.247375 248.0
138.317627 216.0
138.353958 152.0
138.386734 140.0
138.405472 56.0
138.428894 220.0
138.468704 144.0
138.602249 112.0
138.622375 196.0
138.667862 164.0
138.691299 72.0
138.721771 152.0
138.763977 120.0
138.807358 80.0
138.883072 216.0
138.904694 152.0
138.928146 100.0
138.951614 164.0
138.989517 104.0
139.045486 72.0
139.074005 2328.0
139.109772 1704.0
139.203552 96.0
139.235657 96.0
139.269989 84.0
139.279373 52.0
139.289978 116.0
139.349075 128.0
139.359085 96.0
139.406769 144.0
139.524689 192.0
139.559952 136.0
139.677719 116.0
139.764603 124.0
139.795197 76.0
139.821091 68.0
139.872864 36.0
139.917191 160.0
139.954697 180.0
140.047119 96.0
140.080093 132.0
140.113861 292.0
140.141052 120.0
140.237854 132.0
140.261551 84.0
140.280869 100.0
140.300339 80.0
140.383316 180.0
140.437683 156.0
140.497375 148.0
140.544571 96.0
140.561081 124.0
140.666779 160.0
140.845871 184.0
140.963547 84.0
140.984924 128.0
141.014542 80.0
141.066925 392.0
141.088821 988.0
141.120468 296.0
141.132278 104.0
141.135483 148.0
141.21315 72.0
141.265182 76.0
141.300674 108.0
141.329071 180.0
141.345627 84.0
141.440308 88.0
141.47345 236.0
141.532379 172.0
141.563431 148.0
141.62027 172.0
141.656326 164.0
141.712662 88.0
141.771912 112.0
141.828781 128.0
141.847748 152.0
141.876205 252.0
141.897537 196.0
141.947342 168.0
142.078873 396.0
142.119141 300.0
142.139481 156.0
142.256973 144.0
142.303268 168.0
142.329391 140.0
142.359818 176.0
142.44577 272.0
142.498032 92.0
142.576492 160.0
142.597992 132.0
142.626373 160.0
142.652512 60.0
142.697693 192.0
142.730972 160.0
142.811844 200.0
142.840393 112.0
142.899857 112.0
142.953232 344.0
143.014099 116.0
143.042664 168.0
143.085144 2248.0
143.118851 204.0
143.15683 168.0
143.221832 164.0
143.241898 180.0
143.292725 124.0
143.309402 108.0
143.490997 172.0
143.54425 76.0
143.590714 180.0
143.612183 144.0
143.633652 128.0
143.667038 152.0
143.683746 60.0
143.702835 172.0
143.72908 132.0
143.748169 84.0
143.769653 124.0
143.791122 56.0
143.865128 136.0
143.920959 208.0
143.974747 128.0
144.032288 88.0
144.09111 584.0
144.125473 168.0
144.228241 124.0
144.260117 132.0
144.295105 124.0
144.348465 168.0
144.381256 132.0
144.424454 148.0
144.450623 108.0
144.498474 144.0
144.521591 152.0
144.596588 104.0
144.64447 180.0
144.753357 116.0
144.795319 216.0
144.814484 64.0
144.862381 184.0
144.931412 168.0
144.985031 172.0
145.043671 80.0
145.06543 492.0
145.099854 13208.0
145.166794 128.0
145.185974 80.0
145.209717 40.0
145.253143 120.0
145.271347 88.0
145.317917 156.0
145.412979 208.0
145.457108 32.0
145.490723 160.0
145.539902 176.0
145.576584 116.0
145.61319 148.0
145.7285 72.0
145.745316 140.0
145.777908 236.0
145.805405 132.0
145.877518 52.0
145.894348 144.0
145.942429 200.0
145.959259 80.0
145.985291 156.0
146.050003 328.0
146.072067 448.0
146.104813 2080.0
146.149567 212.0
146.177032 136.0
146.216675 88.0
146.252777 124.0
146.285736 168.0
146.314194 228.0
146.382797 188.0
146.438187 152.0
146.464691 52.0
146.50563 132.0
146.533005 220.0
146.553818 72.0
146.577011 180.0
146.610504 152.0
146.63913 96.0
146.659866 168.0
146.717728 88.0
146.792465 144.0
146.89859 140.0
146.983047 148.0
147.022797 120.0
147.07988 1984.0
147.115784 12332.0
147.161667 168.0
147.183395 108.0
147.205795 88.0
147.253433 80.0
147.277588 148.0
147.293671 128.0
147.297836 84.0
147.319138 220.0
147.350937 308.0
147.398392 52.0
147.475723 80.0
147.495071 84.0
147.519241 164.0
147.543411 80.0
147.586945 200.0
147.628052 56.0
147.659485 140.0
147.681259 156.0
147.706665 152.0
147.758759 112.0
147.805298 176.0
147.858185 128.0
147.884323 148.0
147.925659 84.0
147.942612 184.0
147.976654 68.0
148.01767 144.0
148.087051 644.0
148.118988 1412.0
148.170959 168.0
148.212738 136.0
148.312225 152.0
148.351044 136.0
148.373856 168.0
148.397705 244.0
148.458008 124.0
148.498993 100.0
148.529068 88.0
148.598175 148.0
148.664932 76.0
148.758621 188.0
148.793594 100.0
148.844025 172.0
148.90773 128.0
148.94902 164.0
148.980606 48.0
148.999496 144.0
149.021912 60.0
149.058228 1180.0
149.094925 4464.0
149.129517 996.0
149.161575 72.0
149.184738 44.0
149.240662 172.0
149.30069 176.0
149.362991 68.0
149.400101 116.0
149.481491 168.0
149.507355 216.0
149.535034 212.0
149.595886 168.0
149.625107 148.0
149.649368 128.0
149.711136 144.0
149.741089 152.0
149.751129 96.0
149.759644 128.0
149.827255 212.0
149.854477 180.0
149.907654 100.0
149.927155 92.0
149.956406 124.0
150.01561 220.0
150.06221 136.0
150.096512 516.0
150.137451 384.0
150.236832 140.0
150.280746 232.0
150.333221 304.0
150.349686 80.0
150.422302 104.0
150.465729 240.0
150.513168 184.0
150.546295 144.0
150.567596 224.0
150.65152 84.0
150.707214 172.0
150.727615 100.0
150.746902 116.0
150.801163 124.0
150.846252 148.0
150.897552 168.0
150.923172 40.0
150.940277 264.0
150.968948 228.0
150.99118 108.0
151.026459 144.0
151.074753 66068.0
151.111221 1768.0
151.139938 148.0
151.15596 180.0
151.207092 136.0
151.234985 184.0
151.252548 212.0
151.291794 176.0
151.319122 68.0
151.328873 64.0
151.366074 72.0
151.384674 192.0
151.416946 160.0
151.443436 48.0
151.460297 108.0
151.475128 164.0
151.495895 264.0
151.532547 104.0
151.571335 180.0
151.606003 88.0
151.637039 100.0
151.710358 148.0
151.73674 88.0
151.742783 76.0
151.751678 120.0
151.792465 68.0
151.809631 112.0
151.829254 36.0
151.851715 76.0
151.900391 60.0
151.918442 72.0
151.953262 176.0
151.977966 84.0
152.000092 112.0
152.030045 124.0
152.078079 9044.0
152.112885 676.0
152.165451 128.0
152.181915 48.0
152.199493 60.0
152.226837 48.0
152.257416 132.0
152.331116 88.0
152.384399 168.0
152.418442 28.0
152.49147 208.0
152.536423 84.0
152.578217 56.0
152.606934 140.0
152.653503 84.0
152.681702 96.0
152.71347 52.0
152.735611 60.0
152.765121 92.0
152.781815 144.0
152.888153 68.0
152.92923 64.0
152.957077 44.0
152.999466 200.0
153.020386 156.0
153.059113 148.0
153.089371 15280.0
153.135651 2344.0
153.194962 100.0
153.223053 68.0
153.248581 168.0
153.265121 128.0
153.327362 96.0
153.366241 80.0
153.42627 340.0
153.490173 84.0
153.508835 260.0
153.572327 140.0
153.602402 96.0
153.62738 100.0
153.703873 168.0
153.731018 72.0
153.748291 36.0
153.772964 196.0
153.816742 132.0
153.857971 156.0
153.882919 260.0
153.897583 92.0
153.942703 308.0
153.99025 164.0
154.018829 148.0
154.092758 1476.0
154.138412 440.0
154.165665 72.0
154.192856 92.0
154.250488 176.0
154.291733 164.0
154.31398 84.0
154.347366 116.0
154.356903 100.0
154.365524 152.0
154.39064 176.0
154.42601 116.0
154.463318 276.0
154.526978 220.0
154.556381 120.0
154.589737 152.0
154.645477 80.0
154.662811 84.0
154.701035 80.0
154.717697 140.0
154.75441 48.0
154.798981 112.0
154.821274 48.0
154.838608 100.0
154.879318 144.0
154.900101 116.0
154.91568 272.0
154.959991 40.0
155.028702 236.0
155.054443 140.0
155.083847 636.0
155.104309 1500.0
155.142029 188.0
155.157318 72.0
155.195465 148.0
155.286911 120.0
155.329391 72.0
155.351715 56.0
155.426163 176.0
155.483231 352.0
155.525314 168.0
155.59494 200.0
155.633881 164.0
155.704208 44.0
155.801086 40.0
155.820312 136.0
155.84581 48.0
155.922836 136.0
155.947693 140.0
155.965103 164.0
156.00238 80.0
156.039673 52.0
156.093994 416.0
156.139694 184.0
156.181427 112.0
156.23616 148.0
156.285919 140.0
156.350006 96.0
156.43277 244.0
156.461029 132.0
156.545319 160.0
156.603317 260.0
156.669357 140.0
156.717224 168.0
156.74411 112.0
156.761551 48.0
156.815475 176.0
156.901138 48.0
156.945038 172.0
156.995895 76.0
157.044144 256.0
157.099075 2468.0
157.155548 36.0
157.192978 60.0
157.218857 160.0
157.32872 148.0
157.372711 68.0
157.429367 104.0
157.489319 196.0
157.520065 136.0
157.545044 88.0
157.595016 32.0
157.639984 116.0
157.691513 124.0
157.705994 128.0
157.727463 120.0
157.744965 168.0
157.774963 68.0
157.814972 192.0
157.889999 48.0
157.907501 100.0
157.980042 144.0
158.037598 96.0
158.071014 520.0
158.107132 512.0
158.181549 276.0
158.210297 164.0
158.244537 124.0
158.272888 116.0
158.310455 184.0
158.413666 164.0
158.543442 136.0
158.568497 68.0
158.596069 148.0
158.642838 128.0
158.731461 52.0
158.751526 104.0
158.778412 156.0
158.804199 136.0
158.874435 64.0
158.894501 204.0
158.932144 212.0
158.959747 212.0
159.032532 36.0
159.078445 1492.0
159.115402 4760.0
159.195724 68.0
159.240936 116.0
159.28363 128.0
159.33934 116.0
159.369049 96.0
159.421829 128.0
159.489624 160.0
159.532425 144.0
159.55571 304.0
159.623459 192.0
159.648087 268.0
159.683304 100.0
159.723541 144.0
159.8116 76.0
159.917297 92.0
159.957581 104.0
159.975204 172.0
160.012955 136.0
160.040665 100.0
160.085358 656.0
160.118301 944.0
160.268936 212.0
160.317764 188.0
160.346375 180.0
160.393372 152.0
160.47377 108.0
160.502441 200.0
160.527008 128.0
160.593399 148.0
160.62294 108.0
160.673309 96.0
160.71431 144.0
160.783417 120.0
160.801697 132.0
160.902985 136.0
160.950958 148.0
160.976212 252.0
161.06076 300.0
161.094955 13640.0
161.131454 1468.0
161.192078 68.0
161.199142 80.0
161.20784 168.0
161.25412 80.0
161.281921 80.0
161.315552 132.0
161.362579 84.0
161.391052 216.0
161.416626 72.0
161.4534 132.0
161.481674 92.0
161.498322 100.0
161.54126 36.0
161.563568 128.0
161.587921 36.0
161.701645 64.0
161.734711 208.0
161.765076 100.0
161.861298 68.0
161.886627 328.0
161.911896 132.0
161.935867 188.0
162.012177 176.0
162.043671 164.0
162.060303 172.0
162.098572 1876.0
162.13739 252.0
162.200806 84.0
162.288879 104.0
162.319962 84.0
162.36055 64.0
162.48671 184.0
162.578735 136.0
162.62442 108.0
162.660889 140.0
162.786896 188.0
162.858978 172.0
162.90625 216.0
162.94693 132.0
162.96785 136.0
162.99617 128.0
163.023926 176.0
163.04306 188.0
163.073105 708.0
163.110626 34948.0
163.163742 128.0
163.18129 244.0
163.210922 84.0
163.242722 132.0
163.263168 128.0
163.281052 92.0
163.306015 64.0
163.331558 136.0
163.37915 112.0
163.424591 112.0
163.462158 148.0
163.49263 248.0
163.532394 92.0
163.572556 44.0
163.606339 120.0
163.673645 160.0
163.700668 152.0
163.745499 96.0
163.78392 48.0
163.861313 120.0
163.89093 72.0
163.952087 48.0
164.046402 44.0
164.08049 512.0
164.113174 5732.0
164.171341 168.0
164.196838 28.0
164.265717 144.0
164.28801 108.0
164.39476 116.0
164.421356 44.0
164.530457 152.0
164.605179 40.0
164.630707 108.0
164.676682 116.0
164.824585 72.0
164.847855 100.0
164.883636 96.0
164.993332 132.0
165.051636 120.0
165.089752 1192.0
165.125885 4688.0
165.171371 172.0
165.198151 64.0
165.216064 120.0
165.277481 152.0
165.29538 100.0
165.333771 100.0
165.395309 96.0
165.404236 132.0
165.433609 100.0
165.538589 252.0
165.569321 104.0
165.599014 76.0
165.620544 36.0
165.702515 104.0
165.728149 88.0
165.838348 80.0
165.875397 140.0
165.951141 144.0
165.982544 260.0
166.020386 76.0
166.048599 160.0
166.089249 356.0
166.129333 712.0
166.197388 84.0
166.24614 36.0
166.297409 156.0
166.37706 60.0
166.533707 128.0
166.687531 156.0
166.739258 120.0
166.79837 132.0
166.821503 92.0
166.874252 132.0
166.91922 160.0
166.98938 112.0
167.032379 104.0
167.054993 152.0
167.107056 1328.0
167.151886 188.0
167.214157 140.0
167.263977 104.0
167.307739 116.0
167.332581 124.0
167.454529 228.0
167.490952 168.0
167.516342 104.0
167.573029 96.0
167.633133 172.0
167.666962 80.0
167.794693 176.0
167.825623 88.0
167.87204 76.0
167.905579 80.0
167.941681 152.0
168.03595 132.0
168.089005 272.0
168.1082 256.0
168.168747 144.0
168.231918 76.0
168.292664 84.0
168.336563 108.0
168.446487 148.0
168.553558 152.0
168.610413 32.0
168.646606 156.0
168.669861 140.0
168.796555 48.0
168.819824 140.0
168.862991 188.0
168.878952 136.0
168.9207 124.0
169.047485 160.0
169.082764 428.0
169.102615 464.0
169.207443 236.0
169.280472 184.0
169.324509 128.0
169.364334 96.0
169.386673 188.0
169.469574 84.0
169.56546 64.0
169.606033 80.0
169.762497 140.0
169.806595 128.0
169.915543 104.0
169.936295 184.0
170.077652 172.0
170.105759 808.0
170.175095 152.0
170.193268 88.0
170.228027 108.0
170.253006 96.0
170.434845 88.0
170.5336 192.0
170.589691 132.0
170.770218 88.0
170.801437 80.0
170.848938 212.0
170.918503 112.0
170.95755 40.0
170.990204 124.0
171.03302 88.0
171.077164 672.0
171.113831 2592.0
171.172119 160.0
171.193863 124.0
171.225235 132.0
171.283005 140.0
171.303848 88.0
171.327301 80.0
171.36377 108.0
171.382004 48.0
171.404449 224.0
171.437057 128.0
171.499283 144.0
171.640076 64.0
171.694839 148.0
171.713089 112.0
171.747009 104.0
171.778305 164.0
171.99527 140.0
172.018387 112.0
172.060165 84.0
172.090759 516.0
172.123627 964.0
172.182892 120.0
172.224167 20.0
172.236618 120.0
172.286224 72.0
172.297043 40.0
172.329193 140.0
172.365768 72.0
172.459854 60.0
172.487305 176.0
172.522598 108.0
172.621964 120.0
172.666061 148.0
172.682114 128.0
172.737045 140.0
172.786743 140.0
172.882599 108.0
172.898544 248.0
172.933289 44.0
172.9935 72.0
173.065369 108.0
173.094925 6548.0
173.130737 4536.0
173.180695 132.0
173.197418 240.0
173.233688 168.0
173.326141 92.0
173.356186 180.0
173.412628 136.0
173.44986 116.0
173.478165 56.0
173.514862 196.0
173.605225 132.0
173.686447 140.0
173.811264 88.0
173.884735 32.0
173.935181 92.0
174.026505 184.0
174.097855 1260.0
174.13382 704.0
174.223495 192.0
174.34314 180.0
174.433731 96.0
174.472519 148.0
174.509979 140.0
174.724686 88.0
174.77301 176.0
174.797287 196.0
174.830902 104.0
174.849319 40.0
174.89978 96.0
174.940216 220.0
175.012543 168.0
175.078949 372.0
175.110291 9480.0
175.14682 2048.0
175.182419 136.0
175.190567 68.0
175.200531 108.0
175.223267 132.0
175.269073 144.0
175.293381 72.0
175.323486 112.0
175.355026 108.0
175.439545 192.0
175.498764 84.0
175.552765 28.0
175.581772 128.0
175.612793 100.0
175.639801 68.0
175.86673 84.0
175.927856 176.0
175.956482 216.0
175.990814 184.0
176.079697 320.0
176.11554 1380.0
176.14679 448.0
176.17041 92.0
176.196823 220.0
176.242462 140.0
176.289307 32.0
176.334732 128.0
176.361572 188.0
176.402969 84.0
176.450562 32.0
176.484924 224.0
176.555145 248.0
176.643616 136.0
176.678009 220.0
176.810379 164.0
176.831497 108.0
176.889725 108.0
176.958557 72.0
176.995636 116.0
177.051239 140.0
177.0896 4292.0
177.124893 1868.0
177.159714 324.0
177.271133 144.0
177.297638 116.0
177.321487 52.0
177.419571 48.0
177.4832 112.0
177.503204 56.0
177.570724 88.0
177.618469 136.0
177.674179 68.0
177.692749 192.0
177.772354 88.0
177.87056 168.0
177.89711 56.0
177.93959 204.0
178.045807 144.0
178.093079 424.0
178.127869 280.0
178.160034 124.0
178.183945 100.0
178.216156 128.0
178.247711 84.0
178.316818 120.0
178.338074 88.0
178.377945 148.0
178.439102 160.0
178.606644 84.0
178.698517 176.0
178.74765 144.0
178.790894 128.0
178.829636 148.0
178.97319 132.0
179.027237 180.0
179.104507 8804.0
179.131836 220.0
179.173676 72.0
179.221649 72.0
179.242966 64.0
179.266937 56.0
179.322906 144.0
179.368805 92.0
179.386887 212.0
179.421539 96.0
179.453537 92.0
179.518082 196.0
179.550491 124.0
179.722946 88.0
179.845703 72.0
179.907104 152.0
179.966644 168.0
180.109985 1136.0
180.13765 188.0
180.17424 176.0
180.235626 116.0
180.381073 164.0
180.455872 204.0
180.474533 128.0
180.497604 112.0
180.567139 104.0
180.604584 100.0
180.655411 96.0
180.79187 164.0
180.815964 180.0
181.120117 1788.0
181.156036 128.0
181.188171 36.0
181.240997 168.0
181.300354 128.0
181.362366 44.0
181.413483 116.0
181.464249 116.0
181.483017 100.0
181.566147 92.0
181.609055 148.0
181.668671 108.0
181.827042 148.0
181.84787 220.0
181.931076 132.0
181.960617 76.0
182.073273 176.0
182.11734 524.0
182.194275 220.0
182.215027 124.0
182.264923 124.0
182.307129 232.0
182.352829 120.0
182.376312 108.0
182.4711 96.0
182.51413 124.0
182.589432 224.0
182.651291 68.0
182.748138 88.0
182.931152 128.0
182.974167 164.0
183.113602 1164.0
183.192383 84.0
183.254349 68.0
183.302856 124.0
183.349655 176.0
183.386398 148.0
183.405273 108.0
183.531982 80.0
183.57782 88.0
183.669525 168.0
183.691116 108.0
183.709991 192.0
183.77475 92.0
183.855698 48.0
184.089767 176.0
184.123459 276.0
184.163498 92.0
184.201324 80.0
184.341827 52.0
184.365341 132.0
184.439117 144.0
184.554916 164.0
184.797165 92.0
184.878647 96.0
184.91423 172.0
185.015335 112.0
185.068817 176.0
185.094727 1228.0
185.130997 3688.0
185.223862 48.0
185.305145 64.0
185.424377 28.0
185.516541 172.0
185.641266 148.0
185.673813 136.0
185.70491 112.0
185.823013 88.0
185.890854 96.0
185.953278 128.0
186.043869 172.0
186.063126 120.0
186.103943 288.0
186.135941 1264.0
186.211212 136.0
186.404099 132.0
186.450302 208.0
186.50174 156.0
186.59166 96.0
186.663925 132.0
186.668762 204.0
186.726974 132.0
186.850037 48.0
186.909897 124.0
186.983383 140.0
187.066544 200.0
187.109573 1436.0
187.145523 1664.0
187.206635 148.0
187.285614 124.0
187.40004 52.0
187.543594 108.0
187.585373 112.0
187.658981 124.0
187.729874 156.0
187.792038 152.0
187.937195 112.0
187.972672 120.0
188.016342 188.0
188.080673 152.0
188.11467 468.0
188.155762 308.0
188.204697 72.0
188.23201 48.0
188.256592 60.0
188.302124 148.0
188.357651 80.0
188.415283 168.0
188.436874 180.0
188.505188 124.0
188.58992 108.0
188.612686 128.0
188.660583 216.0
188.742889 160.0
188.805908 140.0
188.842331 76.0
188.86882 144.0
188.961838 48.0
188.991272 100.0
189.089035 1676.0
189.126465 1788.0
189.166748 272.0
189.23555 84.0
189.25914 84.0
189.319489 116.0
189.406021 64.0
189.435471 92.0
189.502411 240.0
189.575211 36.0
189.72049 96.0
189.886398 104.0
189.950851 76.0
190.093201 204.0
190.129333 556.0
190.171967 156.0
190.211548 132.0
190.244492 36.0
190.315872 124.0
190.336212 168.0
190.461441 216.0
190.48616 132.0
190.543854 188.0
190.563095 120.0
190.619827 148.0
190.630875 96.0
190.664764 116.0
190.694992 196.0
190.718552 268.0
190.748734 172.0
190.769211 120.0
190.799454 108.0
190.821457 116.0
190.846207 84.0
190.886383 144.0
190.931458 128.0
191.041473 80.0
191.105652 18140.0
191.142288 1144.0
191.171799 132.0
191.211533 100.0
191.254013 52.0
191.275986 48.0
191.320206 144.0
191.381622 48.0
191.415817 72.0
191.506699 376.0
191.559036 56.0
191.58107 132.0
191.616898 180.0
191.691071 104.0
191.740891 92.0
191.8936 148.0
191.966965 64.0
191.986267 44.0
192.058624 132.0
192.109604 1720.0
192.141968 380.0
192.184891 112.0
192.273193 140.0
192.304016 72.0
192.364288 196.0
192.431763 92.0
192.485779 100.0
192.541 136.0
192.684189 144.0
192.861511 216.0
192.941681 160.0
192.978775 80.0
193.057083 156.0
193.078384 160.0
193.12088 7196.0
193.254227 104.0
193.283478 128.0
193.324631 172.0
193.35939 92.0
193.442429 128.0
193.482315 108.0
193.633499 128.0
193.666733 124.0
193.686127 44.0
193.71936 168.0
193.763687 48.0
193.799713 184.0
193.897629 76.0
193.917084 68.0
193.946594 116.0
193.990952 60.0
194.069809 172.0
194.123093 572.0
194.166122 160.0
194.232208 112.0
194.254395 68.0
194.37648 48.0
194.398682 48.0
194.443085 68.0
194.479172 72.0
194.502502 216.0
194.604095 128.0
194.731842 220.0
194.789017 192.0
194.854752 148.0
194.875259 96.0
194.962448 96.0
195.018036 92.0
195.048294 104.0
195.06662 92.0
195.112534 1356.0
195.227631 104.0
195.390961 80.0
195.513123 68.0
195.63559 80.0
195.760696 56.0
195.91687 224.0
195.963135 152.0
195.992188 148.0
196.050629 136.0
196.077072 116.0
196.124481 608.0
196.282013 160.0
196.608414 180.0
196.7061 140.0
196.753555 44.0
196.868042 88.0
196.985367 92.0
197.01889 92.0
197.066376 112.0
197.095261 484.0
197.129517 676.0
197.182205 180.0
197.255341 164.0
197.468948 104.0
197.50531 100.0
197.602295 84.0
197.634003 68.0
197.85791 64.0
198.028732 124.0
198.098984 272.0
198.13884 320.0
198.177216 56.0
198.214081 128.0
198.401443 72.0
198.48555 116.0
198.564087 168.0
198.606155 112.0
198.71344 132.0
198.743622 64.0
198.785721 64.0
198.889572 104.0
198.951324 40.0
198.987823 80.0
199.043976 120.0
199.110428 2300.0
199.145447 856.0
199.232178 148.0
199.262268 28.0
199.368347 140.0
199.402145 96.0
199.470169 116.0
199.53009 36.0
199.576309 112.0
199.667877 56.0
199.687561 64.0
199.712875 52.0
199.73819 96.0
199.783203 104.0
199.918274 240.0
199.994263 92.0
200.117813 492.0
200.152405 272.0
200.218155 148.0
200.309647 160.0
200.332184 120.0
200.363174 164.0
200.453339 72.0
200.50798 256.0
200.554794 168.0
200.65065 124.0
200.763443 156.0
200.828308 120.0
200.898102 56.0
200.966553 116.0
201.017349 124.0
201.045563 48.0
201.126663 3436.0
201.216187 208.0
201.378723 96.0
201.415451 100.0
201.535248 128.0
201.568008 180.0
201.610397 64.0
201.714981 60.0
201.746078 116.0
201.808289 104.0
201.829803 164.0
201.887466 92.0
201.941208 132.0
201.963837 140.0
202.085129 168.0
202.09346 132.0
202.127991 580.0
202.323227 56.0
202.348709 152.0
202.41185 240.0
202.521454 136.0
202.561111 72.0
202.818985 132.0
202.962936 88.0
203.014618 124.0
203.051498 96.0
203.104767 968.0
203.14209 3280.0
203.243164 88.0
203.286972 96.0
203.306839 76.0
203.352325 140.0
203.502701 140.0
203.536148 88.0
203.568024 152.0
203.590744 36.0
203.833817 92.0
203.8862 52.0
203.931686 40.0
204.080078 72.0
204.144333 620.0
204.181747 76.0
204.213181 176.0
204.266144 152.0
204.315079 180.0
204.390991 152.0
204.577423 68.0
204.604965 136.0
204.659988 92.0
204.697006 220.0
204.762512 116.0
204.813782 152.0
204.863724 196.0
204.904938 180.0
204.976181 124.0
205.061676 140.0
205.122955 636.0
205.154694 192.0
205.246979 40.0
205.284058 112.0
205.323975 104.0
205.403458 148.0
205.58075 72.0
205.71727 140.0
205.736084 200.0
206.014771 148.0
206.078568 128.0
206.125397 168.0
206.165146 108.0
206.234802 88.0
206.283401 96.0
206.414917 144.0
206.437073 156.0
206.543625 172.0
206.606628 192.0
206.629456 136.0
206.721024 144.0
206.806885 44.0
206.832642 200.0
206.873947 112.0
207.013016 156.0
207.041656 152.0
207.061707 116.0
207.095551 444.0
207.125626 192.0
207.134872 340.0
207.171432 196.0
207.250778 120.0
207.30809 184.0
207.401016 284.0
207.482941 128.0
207.520218 88.0
207.589035 132.0
207.666473 132.0
207.732452 172.0
207.75856 168.0
208.030914 148.0
208.09407 112.0
208.124115 348.0
208.153473 116.0
208.18309 104.0
208.326706 96.0
208.346817 144.0
208.366928 164.0
208.389923 104.0
208.438766 124.0
208.461761 172.0
208.48201 164.0
208.520798 96.0
208.550858 80.0
208.608353 140.0
208.674469 144.0
208.780869 152.0
208.870041 108.0
208.90744 136.0
208.927567 92.0
209.116165 3276.0
209.181915 132.0
209.416946 56.0
209.474564 64.0
209.512009 92.0
209.558105 64.0
209.609985 132.0
209.66185 72.0
209.759857 52.0
209.841003 272.0
209.944382 96.0
209.999191 272.0
210.119873 352.0
210.142258 328.0
210.206909 140.0
210.308838 184.0
210.341125 104.0
210.347015 52.0
210.374039 120.0
210.536026 132.0
210.753113 160.0
210.775803 136.0
210.801804 108.0
210.920303 112.0
211.007034 108.0
211.073547 60.0
211.137024 996.0
211.177658 132.0
211.270233 40.0
211.426483 104.0
211.478577 132.0
211.571045 140.0
211.637802 176.0
211.675446 108.0
211.921677 136.0
211.97963 40.0
212.060776 168.0
212.083145 156.0
212.122406 424.0
212.150513 364.0
212.180847 152.0
212.231827 188.0
212.259933 92.0
212.313019 136.0
212.416321 160.0
212.458054 136.0
212.478363 192.0
212.504471 136.0
212.524796 164.0
212.550903 140.0
212.571213 128.0
212.65538 104.0
212.736664 48.0
212.79007 132.0
212.820862 184.0
212.841187 108.0
212.919601 144.0
213.009644 144.0
213.074875 220.0
213.124313 2920.0
213.163345 456.0
213.381638 76.0
213.451431 144.0
213.509781 60.0
213.590103 112.0
213.621902 120.0
213.698685 100.0
213.759781 76.0
213.797623 140.0
213.848557 128.0
213.873291 144.0
213.937332 184.0
213.978104 156.0
214.099457 148.0
214.131439 1016.0
214.21109 196.0
214.246048 108.0
214.282745 168.0
214.38649 160.0
214.430832 232.0
214.70369 108.0
214.744751 248.0
214.784653 116.0
214.846619 96.0
214.869965 164.0
214.890381 124.0
214.945557 168.0
214.98085 48.0
215.030457 80.0
215.074249 136.0
215.103622 572.0
215.140579 1296.0
215.180145 676.0
215.226059 44.0
215.304901 160.0
215.351639 72.0
215.43927 48.0
215.462646 104.0
215.507523 100.0
215.550308 300.0
215.678909 196.0
215.70813 128.0
215.737366 96.0
215.836777 108.0
215.94133 112.0
216.047379 84.0
216.070786 100.0
216.103973 104.0
216.148956 620.0
216.183777 296.0
216.225876 164.0
216.249283 132.0
216.386871 40.0
216.419083 192.0
216.479401 248.0
216.559662 132.0
216.58017 108.0
216.61824 204.0
216.644608 76.0
216.718811 148.0
216.76767 112.0
216.864395 132.0
216.935165 192.0
216.993805 56.0
217.054962 104.0
217.084274 140.0
217.120651 1764.0
217.153152 720.0
217.227997 148.0
217.286682 156.0
217.451019 140.0
217.539078 280.0
217.588989 112.0
217.64183 116.0
217.662399 64.0
217.741684 116.0
217.820999 76.0
217.867996 72.0
217.934326 104.0
218.036789 116.0
218.124573 264.0
218.154694 152.0
218.288315 108.0
218.347137 88.0
218.379486 140.0
218.400085 136.0
218.423615 116.0
218.444214 108.0
218.479507 124.0
218.500107 248.0
218.584732 100.0
218.617813 104.0
218.644302 28.0
218.673721 44.0
218.762039 116.0
218.798599 144.0
218.853302 68.0
218.921036 180.0
218.998749 172.0
219.093948 148.0
219.134964 2676.0
219.18399 452.0
219.239212 204.0
219.284256 100.0
219.332306 164.0
219.368912 116.0
219.442612 80.0
219.494583 96.0
219.528122 112.0
219.584167 100.0
219.604813 104.0
219.637253 136.0
219.941193 136.0
219.964813 180.0
220.085648 168.0
220.136978 816.0
220.233521 108.0
220.313293 84.0
220.523102 36.0
220.733002 108.0
220.771454 176.0
220.827637 88.0
220.944122 128.0
221.04657 132.0
221.125626 396.0
221.152832 1172.0
221.247849 120.0
221.33075 156.0
221.428482 108.0
221.486343 128.0
221.620102 152.0
221.646332 224.0
221.712906 140.0
221.736618 104.0
221.881882 60.0
221.956009 128.0
221.979721 304.0
222.02124 148.0
222.103058 316.0
222.142197 392.0
222.185318 392.0
222.25264 56.0
222.276367 168.0
222.300995 212.0
222.362 160.0
222.412903 88.0
222.44635 120.0
222.540558 164.0
222.564316 132.0
222.620743 88.0
222.721725 128.0
222.747314 224.0
222.959427 100.0
223.039673 128.0
223.109497 636.0
223.144913 880.0
223.180191 300.0
223.247803 124.0
223.286469 88.0
223.441147 72.0
223.464951 124.0
223.495514 220.0
223.567917 148.0
223.604813 80.0
223.64946 112.0
223.694122 168.0
223.793045 148.0
223.837036 152.0
223.866806 48.0
223.955582 204.0
223.985947 180.0
224.005432 196.0
224.117996 764.0
224.147125 276.0
224.215378 104.0
224.373367 52.0
224.421082 232.0
224.544113 140.0
224.650726 80.0
224.683716 140.0
224.795868 100.0
224.886475 176.0
224.970062 92.0
224.993942 72.0
225.068588 52.0
225.092484 88.0
225.124969 496.0
225.161957 1212.0
225.241806 160.0
225.277664 120.0
225.32132 52.0
225.346375 140.0
225.421082 140.0
225.498795 152.0
225.576508 176.0
225.60939 44.0
225.737961 108.0
225.821701 152.0
225.998215 92.0
226.064041 148.0
226.092056 164.0
226.13269 680.0
226.17308 236.0
226.273575 208.0
226.315506 156.0
226.402344 60.0
226.567093 176.0
226.603043 160.0
226.656982 164.0
226.680954 104.0
226.713913 136.0
226.82782 136.0
226.857803 92.0
226.928787 84.0
226.980728 128.0
227.100372 212.0
227.141098 1220.0
227.179352 288.0
227.418747 92.0
227.49202 108.0
227.538834 260.0
227.719009 192.0
227.749054 116.0
227.899261 192.0
227.926315 156.0
228.058548 136.0
228.140198 172.0
228.235931 128.0
228.288879 144.0
228.350204 172.0
228.401428 144.0
228.45549 80.0
228.521683 136.0
228.639038 104.0
228.687195 128.0
228.756439 108.0
228.798584 80.0
228.864822 172.0
229.000336 172.0
229.033478 128.0
229.063461 168.0
229.119705 488.0
229.155334 604.0
229.224792 40.0
229.237503 128.0
229.364944 184.0
229.437302 148.0
229.458405 144.0
229.496796 196.0
229.76001 72.0
229.871948 120.0
229.950119 168.0
230.034637 156.0
230.078323 124.0
230.113464 148.0
230.158417 160.0
230.224854 136.0
230.246002 192.0
230.377838 88.0
230.58136 48.0
230.687164 136.0
230.714371 108.0
230.744598 124.0
230.821686 116.0
230.868591 84.0
230.923019 100.0
231.037979 92.0
231.083359 208.0
231.136536 4680.0
231.175827 336.0
231.209061 164.0
231.234665 140.0
231.350113 144.0
231.378128 92.0
231.413284 72.0
231.476868 68.0
231.537292 80.0
231.58287 84.0
231.607819 156.0
231.645309 124.0
231.716171 168.0
231.735474 128.0
231.810104 112.0
231.928116 136.0
231.951233 128.0
231.988937 76.0
232.025314 96.0
232.05658 156.0
232.098083 124.0
232.139252 920.0
232.277023 172.0
232.322525 32.0
232.504593 40.0
232.552887 92.0
232.583511 60.0
232.629044 48.0
232.686722 68.0
232.744415 92.0
232.779175 220.0
232.808197 132.0
232.947693 108.0
232.990448 92.0
233.117691 128.0
233.151154 288.0
233.190643 132.0
233.213593 120.0
233.282196 156.0
233.355301 92.0
233.479843 84.0
233.537628 84.0
233.577179 36.0
233.607605 56.0
233.653229 96.0
233.726257 92.0
233.756683 52.0
233.905823 132.0
233.988022 108.0
234.020462 184.0
234.055008 60.0
234.082413 124.0
234.119965 164.0
234.150513 388.0
234.307083 148.0
234.46019 44.0
234.532242 144.0
234.600403 56.0
234.646133 136.0
234.739731 144.0
234.789459 164.0
234.900253 124.0
234.932816 168.0
235.124435 548.0
235.135773 364.0
235.223877 96.0
235.280746 84.0
235.305161 84.0
235.350967 88.0
235.418152 76.0
235.512833 116.0
235.589203 124.0
235.638092 132.0
235.748093 40.0
235.781708 204.0
235.821442 92.0
235.888687 60.0
235.949829 128.0
235.976578 252.0
236.004868 52.0
236.118027 132.0
236.153259 280.0
236.187256 316.0
236.194412 156.0
236.267593 188.0
236.314743 196.0
236.455338 160.0
236.507111 124.0
236.575378 120.0
236.58577 56.0
236.600418 112.0
236.626556 156.0
236.684174 120.0
236.733185 76.0
236.763809 168.0
236.803619 48.0
236.831192 96.0
236.864883 132.0
236.960938 192.0
236.97374 68.0
236.983063 160.0
237.011948 100.0
237.057907 120.0
237.122131 688.0
237.154922 372.0
237.2173 96.0
237.281677 92.0
237.321533 172.0
237.395126 84.0
237.576111 56.0
237.723389 100.0
237.773575 112.0
237.897263 80.0
238.076431 108.0
238.13414 252.0
238.159882 212.0
238.226944 96.0
238.253632 140.0
238.291473 120.0
238.441406 96.0
238.493881 148.0
238.540405 96.0
238.580368 92.0
238.684906 108.0
238.737198 128.0
238.764664 180.0
238.801773 108.0
238.906372 136.0
239.141052 488.0
239.179703 360.0
239.241821 128.0
239.278763 96.0
239.368057 52.0
239.398865 48.0
239.432739 168.0
239.475861 116.0
239.583679 80.0
239.719254 28.0
239.745148 168.0
239.780884 184.0
239.931931 124.0
239.968933 144.0
240.049103 148.0
240.108185 152.0
240.143677 396.0
240.184814 92.0
240.231094 124.0
240.360672 40.0
240.388458 72.0
240.453262 56.0
240.487213 192.0
240.521164 124.0
240.570557 152.0
240.599808 144.0
240.663177 240.0
240.715683 104.0
240.740387 56.0
240.792892 108.0
240.883255 188.0
240.981674 108.0
241.036957 172.0
241.060394 164.0
241.083191 108.0
241.125565 412.0
241.156113 1136.0
241.190842 344.0
241.271866 72.0
241.30896 128.0
241.392456 160.0
241.438568 232.0
241.488327 160.0
241.618256 100.0
241.695602 60.0
241.746521 132.0
241.82869 108.0
241.881104 60.0
241.921555 52.0
241.980743 68.0
242.084 148.0
242.132935 292.0
242.169083 140.0
242.193161 164.0
242.240524 148.0
242.27771 68.0
242.401642 124.0
242.445038 36.0
242.507019 100.0
242.53801 128.0
242.598267 120.0
242.621719 136.0
242.65892 68.0
242.733337 128.0
242.841888 216.0
242.870529 160.0
242.919434 168.0
242.959457 156.0
242.971909 140.0
243.08078 168.0
243.139435 280.0
243.174957 964.0
243.22644 168.0
243.273224 84.0
243.319794 84.0
243.485504 164.0
243.512329 168.0
243.642792 108.0
243.894516 60.0
244.000214 180.0
244.037521 144.0
244.077942 128.0
244.175552 196.0
244.298782 128.0
244.389008 120.0
244.488586 120.0
244.529434 128.0
244.578857 112.0
244.650452 120.0
244.691925 100.0
244.728287 72.0
244.787994 116.0
244.827194 164.0
244.955643 112.0
245.108307 160.0
245.159546 172.0
245.166748 296.0
245.342087 48.0
245.420029 104.0
245.469925 168.0
245.58844 68.0
245.619629 296.0
245.703857 40.0
245.831802 204.0
245.88681 108.0
245.89798 136.0
246.040924 100.0
246.130829 248.0
246.186157 128.0
246.228287 100.0
246.365112 240.0
246.45018 104.0
246.487595 172.0
246.518845 68.0
246.546967 136.0
246.684509 136.0
246.747025 72.0
246.800186 156.0
247.006607 172.0
247.041016 156.0
247.084183 172.0
247.131653 372.0
247.175552 136.0
247.209976 108.0
247.397781 172.0
247.504242 64.0
247.55748 80.0
247.638901 96.0
247.783005 88.0
247.845673 116.0
247.958496 140.0
248.068207 128.0
248.108963 100.0
248.138947 104.0
248.16539 136.0
248.187347 100.0
248.215561 76.0
248.259476 256.0
248.298004 84.0
248.384933 84.0
248.416306 108.0
248.544937 208.0
248.576324 132.0
248.654785 144.0
248.720703 132.0
248.774063 104.0
248.858826 96.0
248.90654 188.0
248.937332 108.0
249.025284 80.0
249.061783 148.0
249.145615 600.0
249.397919 108.0
249.581543 128.0
249.686676 92.0
249.723053 156.0
249.74823 136.0
249.855179 100.0
249.963608 96.0
250.021439 120.0
250.047134 36.0
250.088058 108.0
250.135559 372.0
250.183472 128.0
250.223419 144.0
250.317886 124.0
250.343079 56.0
250.381927 180.0
250.450165 124.0
250.547821 76.0
250.617142 92.0
250.72113 112.0
250.828308 76.0
250.856674 144.0
250.992249 60.0
251.069016 164.0
251.096313 88.0
251.179108 1260.0
251.234207 152.0
251.405502 152.0
251.433914 84.0
251.459167 236.0
251.538071 144.0
251.579117 112.0
251.60257 176.0
251.718048 52.0
251.784363 128.0
251.83252 212.0
251.945465 140.0
251.983383 136.0
252.07019 296.0
252.096542 248.0
252.12558 128.0
252.166031 120.0
252.173599 144.0
252.188141 136.0
252.229889 48.0
252.325729 240.0
252.35318 112.0
252.38797 80.0
252.438553 120.0
252.473343 296.0
252.590378 124.0
252.637833 136.0
252.688446 96.0
252.732742 128.0
252.754898 104.0
252.847763 140.0
253.075378 260.0
253.154175 1384.0
253.267792 96.0
253.307648 124.0
253.362823 232.0
253.419861 168.0
253.464218 80.0
253.530777 76.0
253.641708 168.0
253.841461 104.0
253.865097 152.0
253.89537 72.0
253.946121 84.0
254.076172 96.0
254.153244 160.0
254.225311 236.0
254.297424 100.0
254.306946 72.0
254.319031 152.0
254.466141 148.0
254.504669 96.0
254.534912 244.0
254.568176 120.0
254.758759 160.0
254.806412 76.0
254.883682 120.0
255.01297 120.0
255.03952 160.0
255.074509 288.0
255.137436 348.0
255.17189 604.0
255.208527 172.0
255.391357 124.0
255.436111 116.0
255.512238 92.0
255.563156 48.0
255.601334 160.0
255.639526 40.0
255.68663 176.0
255.754105 44.0
255.951492 100.0
256.04834 276.0
256.085266 136.0
256.109955 116.0
256.142578 112.0
256.169312 204.0
256.234985 128.0
256.289154 84.0
256.327393 108.0
256.372009 56.0
256.40686 124.0
256.518616 96.0
256.563263 80.0
256.713104 100.0
256.792847 80.0
256.878967 84.0
256.975159 168.0
257.055908 132.0
257.077789 328.0
257.10553 92.0
257.158844 448.0
257.179871 96.0
257.32135 124.0
257.437561 188.0
257.491852 136.0
257.520599 112.0
257.555725 120.0
257.641235 120.0
257.699493 180.0
257.744232 48.0
257.881653 80.0
257.910522 108.0
257.945587 64.0
257.967957 96.0
258.019104 172.0
258.076904 152.0
258.143127 128.0
258.194153 108.0
258.322937 92.0
258.514923 112.0
258.540497 200.0
258.680237 104.0
258.803009 128.0
258.828522 116.0
258.972748 168.0
259.052002 152.0
259.076141 348.0
259.167572 1080.0
259.197784 152.0
259.232269 52.0
259.304443 176.0
259.392517 48.0
259.465088 276.0
259.53183 128.0
259.562439 108.0
259.645844 104.0
259.729218 40.0
259.798096 112.0
260.064972 292.0
260.114288 156.0
260.174744 136.0
260.243805 124.0
260.358337 88.0
260.400085 164.0
260.451477 184.0
260.478485 272.0
260.512512 172.0
260.586395 188.0
260.714539 92.0
260.878876 164.0
261.068573 44.0
261.162415 624.0
261.18512 124.0
261.231964 208.0
261.277679 100.0
261.358093 96.0
261.499725 160.0
261.522247 48.0
261.570221 164.0
261.786438 140.0
261.857117 160.0
261.915894 112.0
261.951996 216.0
261.982727 96.0
262.050385 144.0
262.092285 56.0
262.134186 128.0
262.164825 196.0
262.189484 472.0
262.23407 128.0
262.363037 56.0
262.446869 116.0
262.556488 116.0
262.888794 56.0
262.972717 80.0
263.027588 120.0
263.06601 124.0
263.089722 148.0
263.13089 188.0
263.159149 172.0
263.1987 200.0
263.279449 116.0
263.308502 60.0
263.453339 120.0
263.48056 168.0
263.515259 72.0
263.571198 116.0
263.631592 32.0
263.916046 148.0
264.110748 100.0
264.153961 564.0
264.195526 148.0
264.220093 92.0
264.368927 152.0
264.559906 64.0
264.585815 128.0
264.624664 76.0
264.650696 116.0
264.682953 192.0
264.708862 92.0
264.815735 40.0
264.874054 72.0
265.095428 316.0
265.191681 172.0
265.217529 108.0
265.286896 120.0
265.373138 104.0
265.412048 68.0
265.567719 168.0
265.622864 52.0
265.671753 56.0
265.700714 164.0
265.78833 92.0
265.896484 124.0
266.040344 160.0
266.077728 148.0
266.155365 208.0
266.207214 116.0
266.259064 128.0
266.340271 104.0
266.433044 100.0
266.817993 144.0
266.842224 168.0
266.990326 160.0
267.064758 144.0
267.087372 456.0
267.099518 304.0
267.163574 204.0
267.211517 168.0
267.2995 104.0
267.489594 92.0
267.533722 136.0
267.566284 120.0
267.615112 36.0
267.64444 128.0
267.735626 176.0
267.849609 148.0
267.872406 160.0
267.934326 104.0
268.080963 72.0
268.089355 180.0
268.126587 176.0
268.178284 288.0
268.222504 128.0
268.301178 344.0
268.351501 180.0
268.514557 64.0
268.903229 200.0
268.955963 100.0
269.030151 48.0
269.116272 140.0
269.151733 224.0
269.186127 1696.0
269.351624 152.0
269.378571 104.0
269.526611 48.0
269.569092 156.0
269.63443 72.0
269.663086 120.0
269.669678 92.0
269.752106 100.0
269.801147 172.0
269.92868 92.0
269.99408 136.0
270.052399 72.0
270.091125 132.0
270.18573 316.0
270.278687 76.0
270.362183 156.0
270.416138 124.0
270.468506 100.0
270.628937 104.0
270.651855 40.0
270.67807 124.0
270.776306 112.0
270.851654 84.0
270.923706 152.0
270.998352 144.0
271.076019 408.0
271.12912 140.0
271.167206 1056.0
271.228485 52.0
271.402252 144.0
271.451416 72.0
271.497345 120.0
271.546143 164.0
271.595734 136.0
271.733521 148.0
271.828674 96.0
271.871338 136.0
271.966766 56.0
272.06955 96.0
272.168274 248.0
272.199646 112.0
272.235748 92.0
272.33429 180.0
272.521545 144.0
272.613556 64.0
272.735168 128.0
272.804199 104.0
272.871338 124.0
272.942963 160.0
272.968597 168.0
273.008057 140.0
273.081726 132.0
273.141296 332.0
273.177185 240.0
273.356781 64.0
273.465393 148.0
273.558228 80.0
273.610229 112.0
273.679382 168.0
273.761719 84.0
273.853912 96.0
273.909912 124.0
274.086243 116.0
274.160339 116.0
274.219666 68.0
274.278992 128.0
274.353394 136.0
274.457031 148.0
274.483398 152.0
274.513092 156.0
274.562561 116.0
274.595551 96.0
274.635132 44.0
274.842957 76.0
274.93866 64.0
275.113617 212.0
275.196167 288.0
275.272095 152.0
275.299011 164.0
275.406189 120.0
275.476898 100.0
275.575989 68.0
275.632812 144.0
275.694977 116.0
275.754456 100.0
275.780884 88.0
275.850311 164.0
275.88681 92.0
275.981354 216.0
276.050354 176.0
276.098297 116.0
276.163361 120.0
276.169739 80.0
276.283539 120.0
276.31662 112.0
276.343109 76.0
276.369568 120.0
276.458923 144.0
276.500763 112.0
276.535034 36.0
276.621094 80.0
276.697266 148.0
276.753662 108.0
276.803223 156.0
276.846252 84.0
276.922424 144.0
276.945618 96.0
276.972137 116.0
277.085602 160.0
277.122467 104.0
277.153534 408.0
277.161499 176.0
277.171326 268.0
277.267029 172.0
277.330597 152.0
277.409546 56.0
277.462585 160.0
277.522278 148.0
277.91037 124.0
277.960144 104.0
277.983368 148.0
278.023193 164.0
278.056366 80.0
278.120911 184.0
278.183441 172.0
278.219025 64.0
278.242279 172.0
278.288757 144.0
278.41394 144.0
278.447784 144.0
278.644165 108.0
278.687164 140.0
278.833557 108.0
279.029175 152.0
279.084198 124.0
279.135803 132.0
279.170624 1168.0
279.239197 192.0
279.358948 120.0
279.382233 88.0
279.447693 184.0
279.581879 76.0
279.638458 188.0
279.834869 48.0
279.878174 76.0
279.928131 40.0
279.953674 116.0
280.06781 132.0
280.104645 252.0
280.147949 144.0
280.173004 240.0
280.27124 84.0
280.301208 152.0
280.423187 108.0
280.456451 104.0
280.497864 48.0
280.637878 64.0
280.792053 104.0
281.001465 180.0
281.047668 220.0
281.079956 116.0
281.118256 124.0
281.168915 152.0
281.341888 200.0
281.415344 128.0
281.485474 112.0
281.54892 48.0
281.747986 120.0
281.868011 140.0
282.05899 260.0
282.081177 180.0
282.130981 136.0
282.177979 252.0
282.233978 140.0
282.299896 180.0
282.327606 128.0
282.351044 136.0
282.397858 136.0
282.42691 164.0
282.478149 76.0
282.504913 116.0
282.555084 60.0
282.77594 152.0
282.812775 96.0
282.899811 188.0
282.939972 84.0
283.059814 112.0
283.082977 180.0
283.117462 108.0
283.164093 176.0
283.199615 276.0
283.241364 72.0
283.269836 252.0
283.30838 76.0
283.351929 136.0
283.489319 152.0
283.606628 148.0
283.640137 184.0
283.670471 168.0
283.699097 164.0
283.824554 164.0
283.874847 240.0
283.898315 236.0
283.942352 152.0
284.075714 284.0
284.100952 224.0
284.191986 148.0
284.215363 164.0
284.243866 112.0
284.321045 92.0
284.448578 92.0
284.645142 96.0
284.68985 136.0
284.922119 108.0
285.019562 260.0
285.089355 176.0
285.106934 220.0
285.155243 160.0
285.18338 240.0
285.26828 56.0
285.32431 132.0
285.429657 132.0
285.55072 120.0
285.702118 124.0
285.792938 136.0
285.907379 100.0
285.971313 120.0
286.015076 148.0
286.075684 124.0
286.105774 132.0
286.138855 104.0
286.180206 192.0
286.237274 40.0
286.478882 116.0
286.580872 172.0
286.65036 64.0
286.693878 216.0
286.860596 120.0
286.95163 68.0
286.981995 124.0
287.086517 156.0
287.164795 232.0
287.200104 644.0
287.248749 160.0
287.28891 120.0
287.336121 88.0
287.403625 180.0
287.492645 168.0
287.552094 40.0
287.595367 132.0
287.653381 80.0
287.690521 52.0
287.748505 192.0
288.013428 140.0
288.045105 180.0
288.099152 108.0
288.122803 104.0
288.150909 120.0
288.202057 276.0
288.248993 196.0
288.349213 64.0
288.396515 132.0
288.426941 116.0
288.470886 76.0
288.518219 120.0
288.687561 96.0
288.775238 100.0
288.846252 56.0
288.977386 164.0
289.022186 92.0
289.049255 148.0
289.093262 156.0
289.142792 184.0
289.179871 660.0
289.232025 124.0
289.323425 88.0
289.387756 120.0
289.469025 56.0
289.557098 164.0
289.665466 160.0
289.726105 160.0
289.78067 72.0
289.901337 144.0
290.004333 144.0
290.103088 88.0
290.133057 136.0
290.180878 136.0
290.255219 100.0
290.411224 72.0
290.441742 140.0
290.6521 72.0
290.726746 128.0
290.760712 76.0
290.815002 160.0
290.89212 188.0
290.950806 108.0
290.974548 168.0
291.062286 124.0
291.128998 140.0
291.134979 184.0
291.177734 88.0
291.334564 152.0
291.392334 88.0
291.429321 140.0
291.470459 72.0
291.528229 208.0
291.562225 104.0
291.687988 132.0
291.854584 136.0
291.895386 120.0
292.092651 244.0
292.182098 68.0
292.232147 84.0
292.364868 96.0
292.387817 128.0
292.443146 100.0
292.473785 84.0
292.611938 96.0
292.729126 128.0
292.755402 124.0
292.858551 76.0
292.953949 188.0
292.99823 60.0
293.089081 280.0
293.12619 100.0
293.171997 72.0
293.19928 124.0
293.315155 72.0
293.395203 160.0
293.482208 100.0
293.531738 84.0
293.560638 180.0
293.635681 96.0
293.71756 152.0
293.806244 76.0
293.873779 172.0
293.9086 100.0
293.970032 116.0
294.082489 440.0
294.199066 152.0
294.246521 172.0
294.362213 132.0
294.446686 156.0
294.567535 136.0
294.680298 152.0
294.745209 100.0
294.772552 208.0
294.828674 160.0
294.878601 144.0
295.069702 1932.0
295.165466 324.0
295.215027 56.0
295.237488 120.0
295.309296 156.0
295.343506 192.0
295.494049 88.0
295.612305 92.0
295.675415 152.0
295.73703 96.0
295.767822 36.0
295.871429 108.0
295.957428 52.0
295.999054 124.0
296.080627 1012.0
296.165161 272.0
296.195862 100.0
296.219849 104.0
296.350739 116.0
296.428833 188.0
296.485168 148.0
296.564545 128.0
296.637939 48.0
296.661926 72.0
296.733917 84.0
296.809357 40.0
296.845154 104.0
296.908813 124.0
297.024872 100.0
297.084747 2180.0
297.183228 2720.0
297.234711 124.0
297.275482 64.0
297.327362 180.0
297.401733 84.0
297.461243 100.0
297.488708 84.0
297.560791 100.0
297.684418 140.0
297.730194 232.0
297.774658 204.0
297.832092 56.0
297.893188 148.0
298.041687 168.0
298.086823 1464.0
298.187775 892.0
298.258209 116.0
298.318085 168.0
298.349365 188.0
298.388824 120.0
298.516052 100.0
298.639893 128.0
298.684174 160.0
298.784363 96.0
298.89447 152.0
298.987396 136.0
299.059662 164.0
299.095459 260.0
299.131958 132.0
299.156036 108.0
299.19281 124.0
299.246765 128.0
299.400513 48.0
299.545197 76.0
299.631317 116.0
299.66922 68.0
299.704315 132.0
299.766846 108.0
299.844971 164.0
299.882874 68.0
299.927704 80.0
300.006989 88.0
300.055237 64.0
300.082825 116.0
300.119415 124.0
300.148346 72.0
300.188904 116.0
300.272491 132.0
300.34494 36.0
300.37381 108.0
300.441528 208.0
300.509277 236.0
300.537262 140.0
300.610596 132.0
300.700348 124.0
300.738312 216.0
300.807343 40.0
300.841858 112.0
301.042145 164.0
301.065125 128.0
301.112457 176.0
301.120209 164.0
301.13324 212.0
301.18573 132.0
301.287384 32.0
301.32193 56.0
301.3703 192.0
301.498169 224.0
301.543091 116.0
301.649139 104.0
301.668884 120.0
301.701935 136.0
301.747406 120.0
301.809296 80.0
301.8508 104.0
301.963013 124.0
302.068695 120.0
302.130951 100.0
302.182861 68.0
302.238525 152.0
302.271027 108.0
302.414703 116.0
302.506256 180.0
302.535889 104.0
302.632812 92.0
302.750549 92.0
302.906433 88.0
303.006897 132.0
303.072357 140.0
303.189178 236.0
303.246002 280.0
303.294525 136.0
303.363861 164.0
303.516174 168.0
303.528076 156.0
303.537689 60.0
303.620453 88.0
303.714111 104.0
303.89798 84.0
303.932678 132.0
304.073578 192.0
304.113159 140.0
304.137451 84.0
304.182556 112.0
304.206879 40.0
304.235962 124.0
304.258942 104.0
304.401306 140.0
304.508972 68.0
304.703522 176.0
304.734772 148.0
304.789978 180.0
304.887665 104.0
304.953705 144.0
305.009338 148.0
305.082275 168.0
305.162292 116.0
305.224884 148.0
305.582214 260.0
305.649292 172.0
305.746735 56.0
305.774567 92.0
305.79892 140.0
305.88855 64.0
305.924255 300.0
306.004333 180.0
306.079468 528.0
306.161957 148.0
306.382263 100.0
306.46759 136.0
306.54425 100.0
306.638336 128.0
306.690613 64.0
306.749878 128.0
306.796631 156.0
306.830078 84.0
306.938141 108.0
307.069824 6512.0
307.14502 128.0
307.205475 100.0
307.23999 184.0
307.279999 72.0
307.318359 288.0
307.37674 108.0
307.459961 112.0
307.601074 76.0
307.651398 260.0
307.800079 132.0
307.84198 136.0
307.946747 156.0
308.023621 116.0
308.075012 3752.0
308.203156 92.0
308.236725 108.0
308.285645 184.0
308.369537 60.0
308.441559 132.0
308.467407 68.0
308.584717 108.0
308.634186 120.0
308.696808 72.0
308.739594 128.0
308.751343 160.0
308.783203 88.0
308.848358 132.0
308.901031 348.0
308.925537 84.0
308.995514 40.0
309.084625 7600.0
309.182526 208.0
309.246277 164.0
309.296478 72.0
309.348969 56.0
309.433014 160.0
309.478516 52.0
309.548553 56.0
309.591949 164.0
309.636108 36.0
309.666199 188.0
309.702667 40.0
309.732574 104.0
309.811249 68.0
309.848816 72.0
309.880768 72.0
309.968933 116.0
310.024994 148.0
310.083588 7160.0
310.183655 120.0
310.219025 124.0
310.326477 180.0
310.37207 64.0
310.396606 108.0
310.449219 72.0
310.515839 92.0
310.57782 184.0
310.62561 124.0
310.686615 224.0
310.735107 64.0
310.764923 64.0
310.794525 156.0
310.8414 184.0
310.887726 168.0
310.919312 124.0
311.001495 92.0
311.089325 6008.0
311.196228 104.0
311.24231 64.0
311.285767 204.0
311.32428 80.0
311.352783 140.0
311.39682 52.0
311.48111 52.0
311.572449 84.0
311.599854 80.0
311.622955 108.0
311.765717 176.0
311.808746 180.0
311.877075 208.0
311.935089 116.0
311.99292 152.0
312.0961 5516.0
312.199371 244.0
312.231476 212.0
312.27832 96.0
312.342529 76.0
312.381042 44.0
312.479553 60.0
312.512482 56.0
312.573456 140.0
312.613281 108.0
312.722382 148.0
312.789276 76.0
312.884827 252.0
312.984589 168.0
313.099457 912.0
313.179688 488.0
313.223358 188.0
313.259186 124.0
313.354218 144.0
313.402069 56.0
313.433777 148.0
313.458466 144.0
313.580505 108.0
313.719299 68.0
313.775696 88.0
313.828583 96.0
314.043701 156.0
314.11142 464.0
314.171234 104.0
314.213867 136.0
314.317719 120.0
314.354187 88.0
314.393005 120.0
314.431824 132.0
314.555695 128.0
314.602356 252.0
314.643616 72.0
314.707184 124.0
314.83432 140.0
314.977051 92.0
315.039185 96.0
315.110992 252.0
315.192108 2616.0
315.247375 160.0
315.325409 72.0
315.410248 112.0
315.482666 136.0
315.542175 124.0
315.574707 84.0
315.608215 100.0
315.657745 52.0
315.908844 124.0
316.034363 196.0
316.097687 140.0
316.160095 156.0
316.201202 584.0
316.245026 192.0
316.317078 124.0
316.478699 48.0
316.514099 116.0
316.538879 116.0
316.623718 88.0
316.680542 172.0
316.793915 88.0
316.917908 80.0
316.946259 84.0
317.024231 136.0
317.089905 292.0
317.132507 108.0
317.167358 124.0
317.198517 232.0
317.25296 120.0
317.30072 116.0
317.392883 132.0
317.474457 64.0
317.531219 80.0
317.625061 164.0
317.694366 76.0
317.729858 128.0
317.76535 168.0
317.815002 60.0
317.854034 148.0
317.886871 96.0
318.06778 96.0
318.093811 136.0
318.129608 244.0
318.187714 280.0
318.226746 104.0
318.340393 52.0
318.418518 100.0
318.475342 88.0
318.564819 232.0
318.621002 164.0
318.713379 128.0
318.763123 60.0
318.795105 36.0
318.822144 112.0
318.867096 236.0
318.933716 116.0
318.963654 84.0
319.070068 284.0
319.101227 592.0
319.128754 136.0
319.203949 128.0
319.26593 156.0
319.342651 192.0
319.389435 184.0
319.43512 144.0
319.524078 156.0
319.573883 180.0
319.631653 68.0
319.734009 96.0
319.758942 160.0
319.832275 264.0
319.904877 144.0
320.024384 136.0
320.09549 356.0
320.179047 92.0
320.220978 176.0
320.292725 124.0
320.37854 128.0
320.410583 108.0
320.442657 124.0
320.491302 220.0
320.563812 124.0
320.588776 36.0
320.613708 64.0
320.670746 128.0
320.768494 128.0
320.85968 72.0
320.906982 120.0
320.984283 148.0
320.995728 176.0
321.085327 11104.0
321.205597 84.0
321.305847 204.0
321.341156 112.0
321.371429 108.0
321.413971 128.0
321.458923 124.0
321.503235 96.0
321.543671 80.0
321.590973 128.0
321.680054 240.0
321.739441 108.0
321.804047 232.0
321.895416 172.0
321.962769 124.0
322.012604 140.0
322.08252 22232.0
322.163269 120.0
322.195587 92.0
322.239014 112.0
322.298096 84.0
322.370758 132.0
322.458252 64.0
322.527405 80.0
322.551849 116.0
322.598328 120.0
322.641235 108.0
322.673401 196.0
322.698425 160.0
322.730621 116.0
322.764771 240.0
322.805023 124.0
322.840729 300.0
322.874878 276.0
322.902557 152.0
322.977905 128.0
323.022614 156.0
323.090942 26560.0
323.205597 184.0
323.307495 124.0
323.344727 36.0
323.393494 96.0
323.42334 192.0
323.43335 148.0
323.539551 188.0
323.559052 52.0
323.566742 164.0
323.606628 156.0
323.666504 132.0
323.7229 160.0
323.755402 156.0
323.789276 116.0
323.801178 240.0
323.856201 308.0
323.899414 160.0
323.950043 124.0
323.980865 116.0
324.014465 252.0
324.096191 23916.0
324.222015 136.0
324.262848 124.0
324.32254 92.0
324.361176 120.0
324.392548 192.0
324.430908 36.0
324.473145 72.0
324.510193 60.0
324.533508 48.0
324.601929 124.0
324.638458 120.0
324.720917 152.0
324.759674 184.0
324.817719 80.0
324.867798 172.0
324.923706 96.0
324.965698 120.0
325.031464 124.0
325.102081 8680.0
325.171234 156.0
325.256714 92.0
325.300232 76.0
325.325745 200.0
325.356079 100.0
325.391235 116.0
325.42157 52.0
325.466278 124.0
325.51532 108.0
325.572388 188.0
325.611053 88.0
325.622253 108.0
325.667328 128.0
325.700592 148.0
325.760864 84.0
325.812073 44.0
325.863342 124.0
325.894745 92.0
325.924438 144.0
325.989105 116.0
326.045105 108.0
326.111725 2032.0
326.194519 136.0
326.211395 52.0
326.238434 144.0
326.272125 60.0
326.296173 76.0
326.346497 96.0
326.379395 224.0
326.436432 112.0
326.462891 56.0
326.477386 44.0
326.509155 136.0
326.539185 84.0
326.578735 68.0
326.633423 48.0
326.719055 124.0
326.77301 72.0
326.837769 260.0
326.906158 128.0
326.979126 44.0
327.010529 64.0
327.112762 544.0
327.197449 168.0
327.248138 256.0
327.311188 124.0
327.341736 156.0
327.380066 148.0
327.416656 372.0
327.449677 112.0
327.469666 124.0
327.507416 288.0
327.536255 48.0
327.564636 68.0
327.676727 128.0
327.709167 96.0
327.792053 124.0
327.82547 132.0
327.907379 104.0
328.085785 264.0
328.118896 152.0
328.132233 96.0
328.142578 184.0
328.300354 60.0
328.325592 108.0
328.361664 112.0
328.408569 132.0
328.495148 160.0
328.650482 68.0
328.733276 52.0
328.852386 96.0
328.897278 160.0
328.919586 212.0
328.948029 140.0
329.003998 172.0
329.047302 128.0
329.100769 176.0
329.125183 204.0
329.206573 240.0
329.25354 72.0
329.323212 192.0
329.520447 72.0
329.55658 40.0
329.639709 84.0
329.731201 88.0
329.849335 212.0
330.059021 84.0
330.108398 264.0
330.145813 120.0
330.198914 172.0
330.20813 124.0
330.330933 68.0
330.519684 104.0
330.569092 132.0
330.619751 124.0
330.652344 176.0
330.714417 240.0
330.884003 156.0
330.931091 28.0
331.007111 172.0
331.036102 148.0
331.061432 40.0
331.100342 148.0
331.184479 124.0
331.197144 120.0
331.211151 180.0
331.320435 148.0
331.38385 180.0
331.445435 52.0
331.599731 128.0
331.648407 188.0
331.684387 80.0
331.728149 40.0
331.789764 144.0
331.829651 132.0
331.916443 120.0
331.94931 168.0
332.061737 100.0
332.102142 644.0
332.15036 56.0
332.161682 124.0
332.221008 236.0
332.253998 204.0
332.283051 124.0
332.3302 84.0
332.408173 140.0
332.622437 176.0
332.677673 128.0
332.692657 60.0
332.70697 308.0
332.733093 120.0
332.827484 160.0
332.86615 148.0
332.907379 112.0
332.936432 100.0
332.991394 60.0
333.030884 124.0
333.086853 892.0
333.202148 316.0
333.27066 68.0
333.365143 192.0
333.539581 80.0
333.598511 172.0
333.796661 192.0
333.860046 152.0
333.982941 100.0
334.08725 700.0
334.206451 120.0
334.328857 136.0
334.379822 116.0
334.496307 92.0
334.552887 140.0
334.652863 52.0
334.842224 76.0
334.922363 128.0
334.951508 108.0
335.101135 3332.0
335.145386 372.0
335.217468 52.0
335.264862 40.0
335.296478 108.0
335.397522 208.0
335.450745 108.0
335.556458 124.0
335.793518 188.0
335.928467 172.0
335.968597 68.0
336.016022 60.0
336.10318 1920.0
336.178833 84.0
336.220367 160.0
336.245941 108.0
336.304321 64.0
336.446686 120.0
336.47226 180.0
336.497803 76.0
336.556488 56.0
336.636566 84.0
336.702606 96.0
336.921478 56.0
336.990906 88.0
337.104584 2984.0
337.170868 144.0
337.202454 112.0
337.341766 128.0
337.36734 104.0
337.401917 76.0
337.444122 72.0
337.491669 80.0
337.517273 140.0
337.575775 128.0
337.641602 164.0
337.762299 148.0
337.792236 172.0
337.864746 120.0
337.90387 52.0
337.940277 124.0
337.978149 36.0
338.02243 172.0
338.112549 19544.0
338.226837 168.0
338.2966 76.0
338.325867 72.0
338.359924 236.0
338.431458 72.0
338.460785 80.0
338.53479 336.0
338.55777 184.0
338.586548 148.0
338.637146 44.0
338.662781 76.0
338.748657 108.0
338.798309 260.0
338.851959 56.0
338.863434 88.0
338.876312 76.0
338.98291 116.0
339.027252 84.0
339.1185 11268.0
339.213226 132.0
339.245422 92.0
339.288849 220.0
339.343567 156.0
339.389862 112.0
339.469086 132.0
339.504974 112.0
339.589172 108.0
339.603607 112.0
339.61618 64.0
339.632599 76.0
339.647034 156.0
339.70105 200.0
339.80365 116.0
339.835907 200.0
339.901978 132.0
339.960052 68.0
340.010223 104.0
340.045288 164.0
340.12796 10852.0
340.21167 116.0
340.248627 100.0
340.32428 152.0
340.383698 80.0
340.430603 84.0
340.469055 68.0
340.502747 80.0
340.584869 108.0
340.625275 28.0
340.654663 40.0
340.695068 128.0
340.751465 80.0
340.800385 96.0
340.895844 124.0
340.948608 112.0
340.985352 88.0
341.025787 108.0
341.13147 2236.0
341.263031 204.0
341.287354 156.0
341.35556 132.0
341.395477 168.0
341.469452 72.0
341.536896 48.0
341.625183 52.0
341.702454 88.0
341.783386 52.0
341.879089 136.0
341.912201 76.0
341.978455 40.0
342.022614 60.0
342.12088 440.0
342.20163 128.0
342.284027 148.0
342.376099 44.0
342.420288 48.0
342.49765 60.0
342.5672 68.0
342.608154 156.0
342.667114 132.0
342.773956 124.0
342.862396 84.0
342.895569 44.0
343.014771 212.0
343.117523 172.0
343.215576 160.0
343.314026 128.0
343.367523 48.0
343.421356 248.0
343.524506 100.0
343.537598 96.0
343.550659 104.0
343.717987 72.0
343.802856 172.0
343.972656 108.0
343.996857 72.0
344.039093 56.0
344.098175 156.0
344.124023 104.0
344.186798 120.0
344.212646 124.0
344.268036 120.0
344.430542 100.0
344.507416 168.0
344.630066 100.0
344.981171 60.0
345.021851 32.0
345.0625 156.0
345.108246 216.0
345.204803 352.0
345.30658 132.0
345.384247 68.0
345.516205 60.0
345.538391 120.0
345.565521 164.0
345.680237 100.0
345.752106 172.0
345.998566 120.0
346.118195 232.0
346.157776 128.0
346.209625 148.0
346.357788 48.0
346.520813 40.0
346.636444 96.0
346.694977 84.0
346.728333 164.0
346.90625 92.0
347.104828 936.0
347.226196 152.0
347.414307 100.0
347.503357 64.0
347.597046 96.0
347.670349 128.0
347.945038 92.0
347.978455 84.0
348.102081 1088.0
348.217285 172.0
348.386993 108.0
348.450165 112.0
348.557922 88.0
348.63501 156.0
348.726501 156.0
348.896149 112.0
348.959351 120.0
349.013428 192.0
349.071198 364.0
349.112885 980.0
349.189911 136.0
349.344147 112.0
349.433868 132.0
349.704498 172.0
349.764465 148.0
349.901794 320.0
349.949097 132.0
349.980927 132.0
350.076843 1560.0
350.111603 2768.0
350.210083 100.0
350.291718 48.0
350.321533 72.0
350.432892 140.0
350.478027 72.0
350.544281 220.0
350.641998 96.0
350.680206 112.0
350.746368 92.0
350.967316 168.0
350.994965 136.0
351.108856 2536.0
351.212463 132.0
351.331848 140.0
351.387817 64.0
351.428864 52.0
351.461639 188.0
351.580444 92.0
351.604248 120.0
351.701294 128.0
351.84314 112.0
351.878693 92.0
352.125916 3916.0
352.192566 100.0
352.262329 148.0
352.306244 44.0
352.354828 52.0
352.396698 116.0
352.519226 224.0
352.562805 116.0
352.709839 56.0
352.765625 52.0
352.807159 160.0
352.919922 128.0
353.123688 1268.0
353.230103 76.0
353.255829 120.0
353.282013 60.0
353.332764 204.0
353.390503 92.0
353.440369 172.0
353.531494 124.0
353.575745 152.0
353.682434 40.0
353.750793 136.0
353.780945 88.0
354.000671 72.0
354.066559 220.0
354.107086 952.0
354.255371 128.0
354.288025 108.0
354.402924 148.0
354.475067 76.0
354.521423 56.0
354.547638 172.0
354.573883 104.0
354.682587 104.0
354.72757 128.0
354.768799 44.0
354.806305 212.0
354.870026 112.0
354.958344 36.0
355.005035 60.0
355.066833 108.0
355.110199 176.0
355.178558 252.0
355.221222 144.0
355.383911 56.0
355.41391 72.0
355.477722 44.0
355.534302 100.0
355.635345 68.0
355.69342 188.0
355.76062 152.0
355.939453 100.0
355.995789 96.0
356.122345 872.0
356.176056 88.0
356.202362 248.0
356.348877 152.0
356.465363 120.0
356.548035 68.0
356.581879 100.0
356.628143 104.0
356.762299 72.0
356.807434 172.0
356.878845 44.0
356.912689 48.0
357.048096 76.0
357.119141 392.0
357.202667 792.0
357.417175 112.0
357.49472 176.0
357.569733 80.0
357.685577 84.0
357.747986 140.0
357.793152 120.0
357.882446 128.0
358.09549 376.0
358.145538 140.0
358.214355 300.0
358.350586 156.0
358.425934 84.0
358.753845 92.0
358.86911 116.0
359.095642 292.0
359.1315 536.0
359.202637 84.0
359.293152 104.0
359.400818 128.0
359.437988 172.0
359.610138 48.0
359.829102 128.0
359.931061 140.0
359.961273 168.0
360.120453 308.0
360.174622 220.0
360.261322 208.0
360.308777 180.0
360.422119 84.0
360.614868 200.0
360.709351 220.0
360.951324 164.0
361.104584 556.0
361.277863 224.0
361.325806 108.0
361.354736 124.0
361.401489 64.0
361.496094 84.0
361.585449 176.0
361.633667 124.0
361.668579 168.0
361.797363 196.0
361.859467 120.0
361.912476 100.0
361.988098 264.0
362.10495 776.0
362.1922 140.0
362.268494 136.0
362.430817 76.0
362.492065 144.0
362.655029 144.0
362.727051 200.0
362.780121 84.0
362.825623 60.0
362.901428 64.0
362.935974 164.0
362.965912 96.0
363.121307 632.0
363.191193 208.0
363.238983 260.0
363.292084 132.0
363.398315 64.0
363.481812 36.0
363.709534 184.0
363.778595 92.0
363.944916 116.0
363.979095 68.0
364.089081 808.0
364.124695 1688.0
364.18634 196.0
364.343719 164.0
364.429443 136.0
364.4729 96.0
364.560303 80.0
364.694489 144.0
364.725952 104.0
364.858276 104.0
364.951843 36.0
364.978485 120.0
365.005096 72.0
365.066376 104.0
365.11261 1328.0
365.185699 100.0
365.214264 100.0
365.240906 116.0
365.355011 60.0
365.38974 64.0
365.438721 92.0
365.583344 72.0
365.609955 60.0
365.640411 76.0
365.675934 88.0
365.762451 68.0
365.804108 112.0
365.839386 104.0
365.929718 104.0
365.960205 84.0
366.040161 36.0
366.111511 1380.0
366.228577 76.0
366.333435 208.0
366.44812 200.0
366.516327 132.0
366.637054 112.0
366.666504 128.0
366.866974 96.0
366.948425 152.0
367.032043 96.0
367.059448 124.0
367.122833 1288.0
367.225433 80.0
367.282654 156.0
367.408539 92.0
367.512848 164.0
367.58786 76.0
367.72525 108.0
367.786346 196.0
367.857117 96.0
367.927582 156.0
367.964844 112.0
368.137543 896.0
368.186615 96.0
368.240723 52.0
368.271637 84.0
368.427887 44.0
368.534882 132.0
368.878845 64.0
369.050903 152.0
369.089142 132.0
369.121887 320.0
369.149292 272.0
369.183655 244.0
369.249756 88.0
369.416534 120.0
369.518829 124.0
369.61319 32.0
369.639984 52.0
369.716522 116.0
369.750977 48.0
369.842834 100.0
369.869629 132.0
369.913818 100.0
369.942352 88.0
370.038055 188.0
370.136383 192.0
370.190521 108.0
370.260162 140.0
370.293182 124.0
370.38504 120.0
370.454895 48.0
370.53418 136.0
370.60495 88.0
370.639435 96.0
370.831055 144.0
370.892395 128.0
370.948303 172.0
371.043884 208.0
371.102203 240.0
371.140594 328.0
371.210602 148.0
371.287323 56.0
371.344849 96.0
371.42157 68.0
371.466949 72.0
371.571167 116.0
371.874329 132.0
371.925262 136.0
371.985657 64.0
372.099487 204.0
372.132568 284.0
372.360687 120.0
372.411896 112.0
372.442627 116.0
372.488708 152.0
372.534821 112.0
372.566345 96.0
372.653931 52.0
372.680817 112.0
372.9729 72.0
372.999817 140.0
373.0513 172.0
373.112152 268.0
373.18576 260.0
373.234344 84.0
373.292023 140.0
373.472778 104.0
373.546509 96.0
373.865234 168.0
373.969147 44.0
374.061127 148.0
374.117889 164.0
374.154419 272.0
374.227081 128.0
374.257904 104.0
374.415771 112.0
374.45694 128.0
374.468475 88.0
374.531342 108.0
374.589111 132.0
374.619934 32.0
374.708557 196.0
374.793304 132.0
375.026367 180.0
375.037415 84.0
375.04892 124.0
375.1203 648.0
375.183807 148.0
375.221375 276.0
375.275146 160.0
375.363831 128.0
375.488708 128.0
375.614532 96.0
375.664673 172.0
375.911621 124.0
375.938629 120.0
376.000397 160.0
376.119843 728.0
376.223267 108.0
376.286041 64.0
376.332367 48.0
376.363281 84.0
376.502289 92.0
376.537048 124.0
376.598846 36.0
376.629761 68.0
376.676117 144.0
376.764954 120.0
376.834503 28.0
376.884735 88.0
377.047058 152.0
377.125732 744.0
377.134064 420.0
377.210785 236.0
377.350403 152.0
377.445221 68.0
377.486572 116.0
377.573273 144.0
377.718292 224.0
377.80069 80.0
377.890076 48.0
377.967468 104.0
378.014435 140.0
378.055328 176.0
378.10553 412.0
378.139832 752.0
378.182129 144.0
378.288696 68.0
378.420349 120.0
378.459045 108.0
378.636414 300.0
378.734039 56.0
378.797943 112.0
378.804688 148.0
378.869598 56.0
378.913666 120.0
379.01297 140.0
379.043976 120.0
379.140442 3572.0
379.282257 108.0
379.323029 72.0
379.369568 52.0
379.409515 156.0
379.475372 172.0
379.501373 232.0
379.590576 60.0
379.73645 240.0
379.831024 200.0
379.928009 92.0
379.993988 92.0
380.056061 52.0
380.141541 1744.0
380.237183 160.0
380.462463 124.0
380.490784 156.0
380.556793 100.0
380.603363 172.0
380.646088 172.0
380.785889 116.0
380.83252 132.0
380.875244 72.0
380.929626 124.0
380.987885 88.0
381.0289 92.0
381.056915 120.0
381.151276 1464.0
381.274719 88.0
381.423157 52.0
381.621429 72.0
381.70874 128.0
381.840698 120.0
381.853943 76.0
381.866882 104.0
381.940338 176.0
381.975342 128.0
382.002563 128.0
382.140564 1676.0
382.254333 300.0
382.313843 92.0
382.403381 112.0
382.504578 96.0
382.566864 48.0
382.675507 84.0
382.742065 36.0
382.826813 104.0
382.861603 92.0
382.92511 96.0
383.038055 68.0
383.138428 800.0
383.177094 292.0
383.236755 92.0
383.303406 76.0
383.377045 64.0
383.43161 56.0
383.465515 92.0
383.525146 140.0
383.597046 100.0
383.653809 28.0
383.759064 128.0
383.860565 144.0
383.917603 116.0
383.977448 76.0
384.008667 140.0
384.057251 96.0
384.128143 452.0
384.297333 68.0
384.37149 108.0
384.491516 132.0
384.590057 56.0
384.660309 40.0
384.748383 156.0
384.781342 56.0
384.867218 52.0
385.035156 156.0
385.120087 304.0
385.160156 116.0
385.308594 68.0
385.359406 92.0
385.410187 84.0
385.468811 156.0
385.632965 124.0
385.664215 136.0
385.7854 116.0
385.996552 48.0
386.108307 292.0
386.241302 96.0
386.368134 36.0
386.540283 112.0
386.665527 72.0
386.704681 68.0
386.75946 144.0
386.795624 136.0
386.833832 128.0
387.037445 116.0
387.120361 532.0
387.255737 136.0
387.358582 120.0
387.452606 64.0
387.601501 108.0
387.695557 72.0
387.742584 140.0
388.008942 116.0
388.08139 180.0
388.163025 2868.0
388.210846 128.0
388.299347 84.0
388.33316 240.0
388.366028 84.0
388.405243 156.0
388.49939 32.0
388.526855 112.0
388.570007 164.0
388.72345 116.0
388.754456 80.0
388.907745 72.0
389.012543 192.0
389.156555 1092.0
389.301453 144.0
389.402252 156.0
389.512238 168.0
389.598663 108.0
389.841858 116.0
390.046265 200.0
390.115479 840.0
390.160187 700.0
390.242523 88.0
390.306152 124.0
390.349396 44.0
390.443787 68.0
390.512085 120.0
390.776794 80.0
390.931641 112.0
391.058746 108.0
391.12561 900.0
391.172882 176.0
391.185852 220.0
391.339508 136.0
391.472198 76.0
391.522156 116.0
391.55368 48.0
391.656097 68.0
391.746674 88.0
391.786072 64.0
391.845184 84.0
391.910614 132.0
391.972443 80.0
392.126221 1516.0
392.485687 128.0
392.523163 48.0
392.657257 64.0
392.720367 112.0
392.795074 72.0
392.848358 152.0
392.900452 92.0
392.943207 112.0
392.993774 104.0
393.129364 972.0
393.347778 184.0
393.431122 68.0
393.497803 100.0
393.591858 136.0
393.737701 176.0
393.790009 72.0
393.987518 80.0
394.048828 140.0
394.097382 200.0
394.161194 2680.0
394.215851 92.0
394.267365 88.0
394.366913 116.0
394.42807 152.0
394.479401 56.0
394.513855 68.0
394.558105 208.0
394.589447 108.0
394.623871 120.0
394.770172 164.0
394.823822 120.0
394.863129 144.0
394.944214 56.0
394.986877 96.0
395.1651 3088.0
395.220428 284.0
395.261902 112.0
395.320068 40.0
395.363586 132.0
395.419006 132.0
395.48233 116.0
395.521912 156.0
395.567047 180.0
395.590729 116.0
395.696381 120.0
395.739655 64.0
395.80304 116.0
395.858459 40.0
395.91391 88.0
395.989868 44.0
396.044617 76.0
396.135345 512.0
396.172089 1580.0
396.233459 84.0
396.317963 156.0
396.413086 36.0
396.496887 108.0
396.623138 124.0
396.753967 176.0
396.810364 144.0
396.857056 84.0
396.89212 128.0
396.928436 260.0
396.97998 136.0
397.061493 144.0
397.131836 264.0
397.176788 632.0
397.270782 88.0
397.298706 112.0
397.53537 84.0
397.598877 128.0
397.642548 84.0
397.710022 104.0
397.75766 116.0
397.793365 272.0
397.841003 80.0
397.88855 132.0
397.991882 92.0
398.025848 120.0
398.112915 1600.0
398.152496 568.0
398.430664 152.0
398.480438 64.0
398.532104 136.0
398.562683 144.0
398.671173 28.0
398.768799 192.0
398.83017 124.0
398.965332 188.0
399.024963 64.0
399.11673 844.0
399.160583 524.0
399.211853 104.0
399.327209 140.0
399.415894 180.0
399.454498 116.0
399.48233 136.0
399.543243 156.0
399.613617 52.0
399.74588 168.0
399.820465 188.0
399.867371 216.0
399.939972 60.0
400.066986 128.0
400.125519 1620.0
400.218658 56.0
400.265381 168.0
400.318207 120.0
400.401825 108.0
400.445648 112.0
400.73645 288.0
400.840057 108.0
400.911804 136.0
401.007446 120.0
401.047302 272.0
401.134644 532.0
401.188263 152.0
401.241058 108.0
401.283081 196.0
401.330353 92.0
401.410126 40.0
401.473938 88.0
401.570618 164.0
401.639221 200.0
401.689301 104.0
401.729126 264.0
401.820953 152.0
401.984558 84.0
402.044434 120.0
402.111023 784.0
402.343811 112.0
402.41568 52.0
402.459595 72.0
402.53772 92.0
402.579407 104.0
402.607361 56.0
402.671265 176.0
402.746002 184.0
402.775116 32.0
402.886963 196.0
402.962891 100.0
403.024689 180.0
403.11615 1120.0
403.156494 212.0
403.256104 128.0
403.370514 60.0
403.446472 128.0
403.526428 152.0
403.598419 144.0
403.626404 116.0
403.674377 224.0
403.714386 68.0
403.743927 72.0
403.865295 104.0
403.938385 64.0
404.034393 72.0
404.121124 2452.0
404.174927 1164.0
404.277466 268.0
404.374542 108.0
404.45459 52.0
404.542664 160.0
404.574677 104.0
404.602692 104.0
404.638733 104.0
404.706818 92.0
404.766876 108.0
404.809601 72.0
404.887024 68.0
404.951111 128.0
405.128693 1208.0
405.187683 1280.0
405.287628 72.0
405.324921 52.0
405.379791 48.0
405.467957 128.0
405.508026 152.0
405.56015 128.0
405.612244 92.0
405.683258 152.0
405.710083 180.0
405.80069 64.0
405.831024 112.0
406.17392 5788.0
406.292114 184.0
406.413788 112.0
406.424408 96.0
406.456696 176.0
406.538788 36.0
406.598969 128.0
406.747925 112.0
406.839813 104.0
406.903809 84.0
407.035706 76.0
407.110718 240.0
407.179596 2776.0
407.25415 156.0
407.31369 56.0
407.369934 128.0
407.55542 172.0
407.631104 108.0
407.772736 100.0
407.849976 124.0
407.908447 276.0
408.020996 80.0
408.066833 124.0
408.119812 524.0
408.188446 2032.0
408.298462 144.0
408.332245 60.0
408.4151 180.0
408.451294 120.0
408.580048 124.0
408.624298 116.0
408.668549 64.0
408.704773 48.0
408.732941 120.0
408.774384 108.0
408.875458 68.0
408.96637 112.0
409.026733 72.0
409.128418 204.0
409.193512 1228.0
409.250092 256.0
409.336761 44.0
409.36496 92.0
409.402893 116.0
409.462738 128.0
409.513977 124.0
409.542175 160.0
409.574402 52.0
409.738007 72.0
409.744843 104.0
409.787903 216.0
409.89267 160.0
409.933777 120.0
410.142273 484.0
410.207581 288.0
410.287689 52.0
410.326813 176.0
410.372375 44.0
410.48526 56.0
410.598175 84.0
410.626434 176.0
410.701538 200.0
410.741882 96.0
410.781555 192.0
410.853333 112.0
410.96933 60.0
411.039551 108.0
411.121399 200.0
411.150299 236.0
411.160767 164.0
411.200836 308.0
411.376953 56.0
411.419678 156.0
411.485962 92.0
411.603058 132.0
411.668335 152.0
411.699982 128.0
411.753265 64.0
411.818542 176.0
411.918091 92.0
412.031219 192.0
412.127045 900.0
412.259705 148.0
412.310059 172.0
412.362579 32.0
412.39505 244.0
412.451508 132.0
412.512146 80.0
412.612701 124.0
412.686005 84.0
412.746643 116.0
412.865387 192.0
412.99942 128.0
413.037842 128.0
413.133942 916.0
413.232056 60.0
413.341309 28.0
413.487 52.0
413.578705 152.0
413.689392 108.0
413.78656 80.0
413.847717 192.0
413.887787 48.0
414.025452 128.0
414.146362 2276.0
414.287048 112.0
414.298645 100.0
414.398132 72.0
414.477173 88.0
414.536469 60.0
414.639374 44.0
414.665619 128.0
414.720581 128.0
414.760773 76.0
414.798065 160.0
414.879822 156.0
414.916931 60.0
415.050751 220.0
415.148376 2416.0
415.231354 60.0
415.298126 32.0
415.491058 152.0
415.530945 96.0
415.55777 92.0
415.668549 220.0
415.718506 156.0
415.837799 108.0
415.866211 260.0
415.918304 96.0
415.996948 192.0
416.06488 68.0
416.121552 4752.0
416.236603 120.0
416.373718 128.0
416.43808 52.0
416.727142 128.0
416.773956 96.0
416.808411 60.0
416.914093 64.0
417.009674 64.0
417.129944 2328.0
417.324493 100.0
417.385315 96.0
417.495453 44.0
417.564606 100.0
417.615753 152.0
417.670349 56.0
417.770874 152.0
417.906311 124.0
417.958344 76.0
417.97522 60.0
417.989929 132.0
418.016174 164.0
418.138489 2072.0
418.240021 104.0
418.394714 80.0
418.423218 268.0
418.529022 164.0
418.594238 40.0
418.651245 160.0
418.748993 76.0
418.920105 64.0
418.977112 88.0
419.076599 160.0
419.145874 524.0
419.286804 208.0
419.388916 76.0
419.501648 136.0
419.575073 56.0
419.62323 84.0
419.684387 92.0
419.763794 160.0
419.827362 116.0
419.877991 140.0
419.922852 140.0
419.955505 40.0
420.024841 232.0
420.106415 100.0
420.153748 280.0
420.189697 392.0
420.247253 140.0
420.363495 148.0
420.429413 152.0
420.502228 120.0
420.613678 200.0
420.661438 80.0
420.767578 264.0
420.988098 60.0
421.016663 48.0
421.061615 128.0
421.142059 336.0
421.183716 3240.0
421.291473 160.0
421.320557 188.0
421.379608 52.0
421.42926 40.0
421.543671 120.0
421.658112 68.0
421.725067 116.0
421.772552 56.0
421.936096 44.0
421.977295 104.0
422.022705 128.0
422.192535 11612.0
422.308228 56.0
422.36853 128.0
422.422119 88.0
422.487396 100.0
422.519257 136.0
422.598541 116.0
422.631165 128.0
422.644043 96.0
422.703033 96.0
422.740631 168.0
422.782837 164.0
422.811798 100.0
422.853882 112.0
422.926453 120.0
423.03241 308.0
423.097137 148.0
423.103241 116.0
423.200775 22784.0
423.304474 288.0
423.366577 184.0
423.417419 32.0
423.477081 92.0
423.494781 72.0
423.525909 164.0
423.558929 44.0
423.594513 124.0
423.665375 68.0
423.769714 128.0
423.80661 80.0
423.872162 72.0
423.950165 68.0
423.998077 88.0
424.02652 192.0
424.060699 60.0
424.139465 308.0
424.204987 9212.0
424.284302 80.0
424.365784 132.0
424.413269 112.0
424.459381 96.0
424.519196 48.0
424.565002 36.0
424.604279 132.0
424.706299 160.0
424.77124 76.0
424.796906 180.0
424.855316 108.0
424.901367 48.0
424.930084 172.0
424.962891 96.0
425.003937 156.0
425.040863 128.0
425.134338 516.0
425.212402 1936.0
425.325623 84.0
425.38974 140.0
425.432159 60.0
425.498016 100.0
425.545746 80.0
425.595032 104.0
425.644287 196.0
425.728577 76.0
425.768982 144.0
425.812958 60.0
425.841675 112.0
425.872681 132.0
425.941772 168.0
425.985199 164.0
426.062195 140.0
426.142242 1708.0
426.209381 520.0
426.281036 116.0
426.317688 52.0
426.378723 160.0
426.414337 64.0
426.478302 236.0
426.556396 104.0
426.618073 180.0
426.697266 108.0
426.774323 120.0
426.817993 96.0
426.912018 140.0
426.998352 100.0
427.075134 164.0
427.152466 2900.0
427.26123 84.0
427.304901 96.0
427.431213 132.0
427.508606 56.0
427.543579 48.0
427.572388 60.0
427.617676 60.0
427.646484 124.0
427.70752 48.0
427.746552 96.0
427.866058 188.0
427.918182 88.0
427.98407 104.0
428.039886 112.0
428.070526 56.0
428.158417 4508.0
428.23941 156.0
428.309418 64.0
428.388184 60.0
428.437134 132.0
428.474213 100.0
428.508972 136.0
428.581329 156.0
428.614288 52.0
428.649963 92.0
428.687683 104.0
428.773926 76.0
428.826813 220.0
428.857452 96.0
428.902802 68.0
428.944031 168.0
429.022339 96.0
429.051208 124.0
429.163818 1164.0
429.238495 132.0
429.273865 92.0
429.339844 48.0
429.437256 104.0
429.508972 108.0
429.614838 124.0
429.68222 108.0
429.92157 60.0
429.9711 44.0
429.999969 80.0
430.043671 240.0
430.140778 1084.0
430.294952 124.0
430.363281 92.0
430.532593 132.0
430.619324 128.0
430.706055 136.0
430.786774 148.0
430.962189 208.0
430.99939 172.0
431.042358 100.0
431.090851 148.0
431.144592 1140.0
431.220367 128.0
431.269196 112.0
431.282043 72.0
431.302307 108.0
431.362976 128.0
431.540863 60.0
431.590485 60.0
431.645477 136.0
431.7435 124.0
431.809692 56.0
431.925507 104.0
432.00705 128.0
432.06842 176.0
432.151917 4024.0
432.258911 240.0
432.313873 136.0
432.370392 92.0
432.377686 128.0
432.416046 80.0
432.462128 164.0
432.50705 104.0
432.571045 104.0
432.67041 92.0
432.724243 108.0
432.773926 100.0
432.802917 104.0
432.840179 56.0
432.931274 64.0
433.005829 116.0
433.038971 188.0
433.089874 152.0
433.157166 2392.0
433.206085 388.0
433.250763 116.0
433.292633 160.0
433.325836 240.0
433.390137 132.0
433.461548 92.0
433.585052 40.0
433.63147 48.0
433.759094 152.0
433.814697 40.0
433.963104 164.0
434.075073 80.0
434.165649 1628.0
434.257568 68.0
434.357117 84.0
434.589447 68.0
434.6185 240.0
434.763733 156.0
434.805237 56.0
434.876007 196.0
434.987854 48.0
435.016937 128.0
435.160675 412.0
435.197083 276.0
435.204224 424.0
435.347137 84.0
435.419708 100.0
435.465393 168.0
435.502777 156.0
435.538544 112.0
435.610779 56.0
435.698029 60.0
435.772797 88.0
435.80191 120.0
435.847595 84.0
435.909943 140.0
436.014404 88.0
436.165802 528.0
436.20993 340.0
436.268585 140.0
436.30481 112.0
436.358856 140.0
436.450348 124.0
436.664185 76.0
436.736145 224.0
436.77475 232.0
436.912018 48.0
436.986908 180.0
437.127808 276.0
437.166199 300.0
437.222046 128.0
437.378113 32.0
437.444733 140.0
437.627899 60.0
437.686218 128.0
437.732025 52.0
437.89859 96.0
437.986084 124.0
438.044403 132.0
438.145996 672.0
438.193085 220.0
438.276123 236.0
438.377716 72.0
438.411072 64.0
438.51944 136.0
438.590271 128.0
438.631958 56.0
438.686157 52.0
438.773712 92.0
438.884308 140.0
439.150543 384.0
439.340912 68.0
439.38681 156.0
439.450012 136.0
439.532867 132.0
439.570404 76.0
439.691437 76.0
439.729004 92.0
439.76239 380.0
439.845886 60.0
439.891785 40.0
440.000336 60.0
440.161713 1116.0
440.212769 156.0
440.271759 88.0
440.518951 328.0
440.739197 112.0
440.753693 100.0
440.764709 148.0
440.784607 100.0
440.873383 100.0
440.990387 88.0
441.095093 168.0
441.162872 1372.0
441.225494 288.0
441.274475 88.0
441.3974 148.0
441.429382 156.0
441.472412 96.0
441.531525 160.0
441.563202 44.0
441.600861 180.0
441.709625 104.0
441.889526 92.0
441.969025 96.0
442.036438 108.0
442.172424 2308.0
442.227661 160.0
442.278717 152.0
442.33313 88.0
442.366638 80.0
442.427338 88.0
442.471283 120.0
442.525726 128.0
442.594116 72.0
442.750183 160.0
442.797913 60.0
442.848175 100.0
442.896637 56.0
442.940338 88.0
442.994781 136.0
443.158844 1628.0
443.266113 312.0
443.36499 96.0
443.60083 104.0
443.638489 148.0
443.713562 96.0
443.776031 132.0
443.812073 64.0
443.856903 148.0
443.904327 60.0
443.970947 140.0
444.034332 112.0
444.093781 144.0
444.15448 4424.0
444.24408 56.0
444.285187 108.0
444.312897 100.0
444.438049 104.0
444.531403 192.0
444.565552 76.0
444.620605 172.0
444.663696 188.0
444.701477 168.0
444.772827 164.0
444.882996 132.0
444.99115 76.0
445.049927 132.0
445.100311 100.0
445.157867 3988.0
445.364899 68.0
445.43631 32.0
445.516144 216.0
445.565033 88.0
445.650574 116.0
445.67804 116.0
445.747223 68.0
445.789246 60.0
445.859192 72.0
445.894318 84.0
445.927612 52.0
446.034698 112.0
446.070862 52.0
446.166809 3668.0
446.281342 64.0
446.314728 228.0
446.348358 88.0
446.426086 108.0
446.470306 128.0
446.526306 128.0
446.583862 120.0
446.645813 144.0
446.716644 92.0
446.791351 152.0
446.869934 44.0
446.912018 36.0
446.966736 84.0
447.004608 52.0
447.082581 136.0
447.173523 1324.0
447.273956 84.0
447.320282 152.0
447.353943 40.0
447.40448 72.0
447.442352 120.0
447.488678 36.0
447.564026 192.0
447.600342 100.0
447.665527 120.0
447.706848 304.0
447.73526 100.0
447.838226 108.0
448.02356 56.0
448.074127 60.0
448.190491 1056.0
448.277985 136.0
448.331177 40.0
448.398773 100.0
448.505341 148.0
448.552277 100.0
448.617493 108.0
448.744293 180.0
448.794891 72.0
448.841248 36.0
449.035248 84.0
449.174255 1548.0
449.275696 116.0
449.360077 80.0
449.394562 132.0
449.49823 248.0
449.546722 104.0
449.604828 96.0
449.676575 132.0
449.723022 136.0
449.804901 108.0
449.867249 72.0
449.917206 32.0
449.997681 68.0
450.03891 140.0
450.196777 1224.0
450.326813 80.0
450.408905 92.0
450.461975 76.0
450.529572 56.0
450.584503 52.0
450.783112 116.0
450.812683 44.0
450.850708 104.0
450.897217 84.0
451.049377 120.0
451.078979 76.0
451.19873 792.0
451.396088 52.0
451.531403 76.0
451.599091 84.0
451.703705 60.0
451.794067 88.0
451.874054 64.0
451.967163 120.0
452.005219 64.0
452.051788 108.0
452.171692 516.0
452.291351 188.0
452.407318 144.0
452.463226 100.0
452.5047 112.0
452.62326 116.0
452.688385 128.0
452.864685 148.0
452.904846 120.0
453.05954 104.0
453.172302 408.0
453.217743 96.0
453.29071 136.0
453.407013 132.0
453.538391 124.0
453.581329 92.0
453.720673 72.0
454.038727 128.0
454.116211 132.0
454.171204 1532.0
454.272003 132.0
454.301727 92.0
454.335663 80.0
454.382324 168.0
454.412018 56.0
454.70108 68.0
454.772064 124.0
454.857635 136.0
454.959534 120.0
455.001984 128.0
455.044434 140.0
455.0784 52.0
455.167053 812.0
455.307709 92.0
455.362946 96.0
455.405426 196.0
455.596558 72.0
455.630554 60.0
455.753784 120.0
455.883514 116.0
455.957886 124.0
455.99176 76.0
456.056824 172.0
456.090881 152.0
456.155457 1644.0
456.273956 104.0
456.30722 116.0
456.363037 48.0
456.478485 108.0
456.604004 128.0
456.647888 140.0
456.716125 156.0
456.778412 48.0
456.880524 92.0
456.965607 120.0
457.05188 100.0
457.160553 1264.0
457.527405 84.0
457.612579 84.0
457.701996 128.0
457.857513 100.0
457.906403 88.0
457.949005 84.0
458.075531 68.0
458.086731 48.0
458.099915 84.0
458.167328 1480.0
458.340942 48.0
458.379303 56.0
458.5242 68.0
458.57962 132.0
458.639282 296.0
458.681915 88.0
458.722229 140.0
458.791229 100.0
458.852448 48.0
458.939484 232.0
459.005951 60.0
459.043488 164.0
459.172424 1208.0
459.367737 188.0
459.400757 68.0
459.483673 212.0
459.527893 120.0
459.588287 108.0
459.667145 84.0
459.722626 300.0
459.795166 104.0
459.872009 144.0
459.92749 96.0
459.991516 112.0
460.079651 100.0
460.184479 1656.0
460.294678 132.0
460.350189 72.0
460.422791 52.0
460.503937 92.0
460.549469 140.0
460.619263 124.0
460.66803 84.0
460.727875 104.0
460.769806 68.0
460.824341 40.0
460.92688 76.0
461.029449 84.0
461.06366 84.0
461.093567 136.0
461.182709 1356.0
461.362854 44.0
461.615143 52.0
461.657898 144.0
461.717773 76.0
461.779083 192.0
461.85965 148.0
461.879852 108.0
461.887085 48.0
461.946564 92.0
462.164825 2652.0
462.269928 336.0
462.378571 84.0
462.449432 184.0
462.508728 108.0
462.654907 144.0
462.706268 120.0
462.779053 72.0
462.900818 148.0
462.946747 200.0
463.031738 44.0
463.166595 388.0
463.306641 136.0
463.355194 140.0
463.462921 80.0
463.532959 108.0
463.695831 96.0
463.88443 112.0
464.062042 56.0
464.169434 556.0
464.272919 100.0
464.36264 44.0
464.479767 184.0
464.581238 120.0
464.630341 108.0
464.666931 120.0
464.716461 44.0
464.748016 124.0
464.973938 76.0
465.059784 124.0
465.132751 48.0
465.20047 436.0
465.334534 84.0
465.419312 92.0
465.449341 260.0
465.506317 88.0
465.583618 116.0
465.802673 64.0
465.841339 112.0
465.914368 52.0
465.967987 124.0
466.030365 156.0
466.086243 100.0
466.174377 568.0
466.255005 116.0
466.296814 104.0
466.524628 112.0
466.562622 124.0
466.650177 140.0
466.756805 100.0
466.847137 140.0
466.877228 64.0
467.116699 124.0
467.227173 752.0
467.267395 160.0
467.273987 208.0
467.376465 164.0
467.427216 52.0
467.505341 108.0
467.544067 36.0
467.591431 36.0
467.666382 136.0
467.696472 100.0
467.77652 136.0
467.957336 148.0
468.134888 104.0
468.188416 708.0
468.298737 176.0
468.390289 188.0
468.465546 44.0
468.601349 116.0
468.66806 108.0
468.869141 72.0
468.930939 92.0
468.982666 84.0
469.064545 80.0
469.175018 464.0
469.185486 560.0
469.29306 64.0
469.469849 144.0
469.534546 80.0
469.631317 92.0
469.849457 100.0
469.896912 72.0
469.927124 52.0
470.053833 120.0
470.100098 88.0
470.174164 1744.0
470.342041 136.0
470.433685 140.0
470.59613 128.0
470.67218 256.0
470.764557 112.0
470.800629 248.0
470.969055 160.0
471.100372 140.0
471.176147 988.0
471.255371 116.0
471.302948 44.0
471.386627 60.0
471.434174 124.0
471.46875 116.0
471.589752 52.0
471.638611 172.0
471.671906 96.0
471.766998 136.0
471.866425 140.0
471.96756 56.0
472.182892 1052.0
472.361633 40.0
472.458954 132.0
472.640686 92.0
472.793427 136.0
472.88736 72.0
472.984863 76.0
473.058655 100.0
473.09082 116.0
473.183563 1496.0
473.268036 128.0
473.397034 172.0
473.454559 124.0
473.489197 144.0
473.567169 112.0
473.69278 116.0
473.857422 136.0
473.995605 76.0
474.048065 212.0
474.161072 4856.0
474.303802 156.0
474.392792 120.0
474.442505 136.0
474.50531 116.0
474.575867 164.0
474.628967 108.0
474.698914 172.0
474.819763 76.0
474.884827 88.0
474.947723 96.0
475.019318 96.0
475.1698 1736.0
475.331696 112.0
475.370758 88.0
475.405457 44.0
475.590332 108.0
475.670227 136.0
475.802429 164.0
475.835205 108.0
475.87381 140.0
475.99588 192.0
476.067749 132.0
476.089752 52.0
476.108154 112.0
476.175781 1336.0
476.391113 80.0
476.471497 192.0
476.547546 56.0
476.586639 152.0
476.769165 80.0
477.005676 136.0
477.101166 116.0
477.185944 408.0
477.396942 60.0
477.512634 68.0
477.690979 120.0
477.743164 76.0
477.827454 140.0
477.876892 112.0
477.947662 96.0
478.008575 144.0
478.078217 48.0
478.163788 576.0
478.198151 320.0
478.252319 136.0
478.332703 104.0
478.404053 144.0
478.454437 80.0
478.487396 64.0
478.517883 40.0
478.611053 120.0
478.659424 112.0
478.705109 172.0
478.770447 148.0
478.818359 40.0
478.970795 180.0
479.028748 60.0
479.075348 84.0
479.183258 592.0
479.271423 80.0
479.362915 96.0
479.406494 32.0
479.517029 120.0
479.620056 140.0
479.750854 68.0
479.7901 52.0
479.920898 180.0
479.951416 132.0
479.981934 40.0
480.012451 224.0
480.106018 80.0
480.176331 404.0
480.208771 396.0
480.25415 240.0
480.335205 124.0
480.522827 112.0
480.55722 108.0
480.653717 112.0
480.688629 112.0
480.749725 124.0
480.826965 160.0
480.933044 72.0
481.072723 144.0
481.187256 656.0
481.518127 92.0
481.600403 176.0
481.959351 80.0
482.055481 120.0
482.176178 876.0
482.206726 996.0
482.278381 112.0
482.427032 132.0
482.642883 108.0
482.708344 140.0
482.768066 88.0
482.798706 92.0
482.943024 104.0
483.017395 32.0
483.048004 60.0
483.204224 668.0
483.275513 108.0
483.314911 76.0
483.384918 28.0
483.424286 108.0
483.454926 88.0
483.574188 32.0
483.666718 148.0
483.686554 84.0
483.701508 108.0
483.765717 100.0
483.840149 72.0
484.085358 128.0
484.183075 1448.0
484.334991 124.0
484.460571 76.0
484.494598 120.0
484.7966 136.0
484.870758 88.0
484.930908 48.0
485.196106 1072.0
485.359009 80.0
485.483337 80.0
485.742401 124.0
485.869354 112.0
485.904449 92.0
486.018524 36.0
486.110321 96.0
486.198059 888.0
486.320251 288.0
486.378418 72.0
486.426697 72.0
486.47937 56.0
486.51889 36.0
486.609985 128.0
486.676941 92.0
486.770203 84.0
486.808685 124.0
486.883362 112.0
487.054077 156.0
487.210419 676.0
487.296295 140.0
487.397339 144.0
487.454468 144.0
487.498413 84.0
487.555542 84.0
487.639069 140.0
487.784668 96.0
487.95105 152.0
487.995148 104.0
488.047913 64.0
488.118256 88.0
488.175507 1544.0
488.329376 104.0
488.386383 216.0
488.451538 124.0
488.496521 52.0
488.533569 152.0
488.694489 72.0
488.852905 104.0
488.964539 132.0
489.081787 144.0
489.185944 948.0
489.354736 196.0
489.405853 124.0
489.447205 88.0
489.548492 68.0
489.636566 100.0
489.689301 144.0
489.733459 156.0
489.821564 100.0
489.886169 72.0
490.024231 96.0
490.068298 148.0
490.192963 1328.0
490.513428 168.0
490.559479 224.0
490.628052 48.0
490.672821 204.0
490.786774 76.0
490.819031 176.0
490.963165 120.0
491.088348 84.0
491.191437 504.0
491.302826 108.0
491.373566 112.0
491.431427 132.0
491.505768 168.0
491.563141 76.0
491.647003 140.0
491.805878 40.0
491.91626 76.0
491.973633 80.0
492.048706 44.0
492.2034 648.0
492.330841 824.0
492.49472 76.0
492.574249 244.0
492.622833 116.0
492.658173 128.0
492.786285 168.0
492.940948 60.0
492.998413 52.0
493.073547 88.0
493.126587 64.0
493.197845 508.0
493.328186 284.0
493.423279 68.0
493.58194 124.0
493.67038 112.0
493.736725 96.0
493.81369 84.0
493.927521 60.0
494.223602 712.0
494.298584 64.0
494.344086 84.0
494.402039 156.0
494.48291 116.0
494.595398 120.0
494.661499 56.0
494.794312 48.0
494.834167 152.0
494.969574 172.0
495.021881 172.0
495.180054 260.0
495.221649 328.0
495.308044 104.0
495.372375 144.0
495.511841 160.0
495.604889 96.0
495.661133 132.0
495.724518 64.0
495.763092 144.0
495.817596 116.0
495.870789 60.0
495.963867 48.0
496.182953 1216.0
496.312927 60.0
496.37619 272.0
496.433838 108.0
496.518097 40.0
496.627869 96.0
497.03714 84.0
497.117035 88.0
497.212524 1200.0
497.267914 128.0
497.321198 128.0
497.529816 56.0
497.583099 48.0
497.725189 96.0
497.796234 136.0
497.87619 188.0
497.943604 132.0
498.027191 92.0
498.090729 120.0
498.223755 1008.0
498.324554 100.0
498.524811 132.0
498.778168 112.0
498.827057 60.0
498.858185 76.0
498.964874 144.0
499.124939 140.0
499.223206 588.0
499.348969 108.0
499.471863 212.0
499.5047 84.0
499.600861 84.0
499.645355 104.0
499.69873 104.0
499.778839 104.0
499.818878 40.0
499.898987 104.0
499.930145 80.0
499.992432 180.0
500.113892 100.0
500.223236 712.0
500.299591 160.0
500.424866 124.0
500.513306 116.0
500.686981 156.0
500.756256 84.0
500.79834 56.0
500.874054 84.0
500.931976 144.0
500.99881 100.0
501.096802 120.0
501.208313 896.0
501.293854 140.0
501.494202 116.0
501.533539 68.0
501.58075 164.0
501.647369 124.0
501.680664 36.0
501.747528 104.0
501.787659 76.0
501.928131 88.0
502.001099 116.0
502.077515 64.0
502.199921 1368.0
502.288116 140.0
502.367462 100.0
502.412079 112.0
502.456665 36.0
502.493866 84.0
502.577148 60.0
502.621765 84.0
502.660095 184.0
502.769043 84.0
502.894012 64.0
503.093079 180.0
503.219482 1016.0
503.402985 148.0
503.465515 132.0
503.73996 108.0
503.836273 108.0
503.928589 84.0
504.082001 80.0
504.212402 1732.0
504.321472 256.0
504.371521 88.0
504.41275 36.0
504.506653 88.0
504.631836 104.0
504.78833 128.0
504.828583 140.0
505.007477 96.0
505.073242 124.0
505.127472 136.0
505.216187 608.0
505.287872 160.0
505.347473 116.0
505.38501 52.0
505.441101 104.0
505.628754 140.0
505.669678 92.0
505.784698 104.0
505.851074 140.0
505.907837 80.0
505.944397 124.0
506.028839 176.0
506.130798 96.0
506.18457 448.0
506.233154 236.0
506.340698 284.0
506.40979 148.0
506.641418 172.0
506.69928 48.0
506.972473 136.0
507.063538 160.0
507.203461 684.0
507.234894 148.0
507.349121 180.0
507.364838 164.0
507.549957 96.0
507.620026 228.0
507.760986 168.0
507.835449 100.0
507.925842 180.0
507.9729 164.0
508.044678 172.0
508.216492 460.0
508.24881 488.0
508.367737 136.0
508.538269 60.0
508.610107 152.0
508.667023 124.0
508.744781 92.0
508.803131 148.0
508.852539 104.0
508.919891 64.0
508.982758 112.0
509.05011 64.0
509.104004 92.0
509.139923 200.0
509.200104 500.0
509.240265 376.0
509.330078 112.0
509.467834 44.0
509.553192 84.0
509.665039 108.0
509.680695 96.0
509.795837 96.0
509.944153 168.0
510.025055 152.0
510.092499 136.0
510.199768 552.0
510.356079 200.0
510.425201 108.0
510.807098 84.0
510.875 96.0
511.08197 80.0
511.226898 520.0
511.414978 64.0
511.446503 64.0
511.508759 140.0
511.62207 64.0
511.83252 96.0
511.892242 64.0
511.950775 112.0
512.000305 100.0
512.058594 96.0
512.138672 132.0
512.226013 912.0
512.315491 120.0
512.41925 64.0
512.536377 160.0
512.572449 108.0
512.644531 140.0
512.720337 140.0
512.917969 128.0
512.934631 156.0
512.942749 184.0
513.018677 72.0
513.2146 728.0
513.341125 132.0
513.415466 96.0
513.48645 148.0
513.544128 104.0
513.650024 92.0
513.711365 80.0
513.758301 48.0
514.077332 204.0
514.143372 84.0
514.200867 1464.0
514.285645 116.0
514.334229 160.0
514.432312 128.0
514.651978 160.0
514.762817 104.0
514.828064 112.0
514.922913 260.0
515.009827 180.0
515.053894 60.0
515.220032 812.0
515.46051 120.0
515.523804 76.0
515.578064 52.0
515.645813 124.0
515.7995 52.0
515.92157 140.0
516.093384 32.0
516.15564 224.0
516.229126 1388.0
516.384094 128.0
516.459717 60.0
516.572815 88.0
516.625305 40.0
516.661499 176.0
516.749268 56.0
516.92334 68.0
516.975769 68.0
517.238647 1252.0
517.367615 100.0
517.414551 44.0
517.482483 60.0
517.559448 104.0
517.644043 112.0
517.727051 116.0
517.804016 168.0
517.914307 328.0
518.044067 92.0
518.107544 40.0
518.199768 640.0
518.234741 1644.0
518.42926 104.0
518.497192 96.0
518.602051 64.0
518.648376 248.0
518.733887 76.0
518.896118 44.0
518.973206 84.0
519.19873 952.0
519.322449 72.0
519.358704 104.0
519.419861 144.0
519.485718 168.0
519.562866 68.0
519.594604 112.0
519.809937 112.0
519.875916 76.0
519.953125 96.0
520.071106 108.0
520.209717 648.0
520.348022 80.0
520.397949 124.0
520.438843 128.0
520.506958 60.0
520.730957 164.0
520.774902 52.0
520.822754 92.0
520.861206 136.0
520.94751 60.0
520.983887 84.0
521.03125 60.0
521.092712 88.0
521.104797 52.0
521.235474 332.0
521.356445 92.0
521.420105 80.0
521.483032 52.0
521.720093 140.0
521.806519 148.0
521.85199 112.0
521.974731 72.0
522.092957 184.0
522.221252 788.0
522.304749 156.0
522.375 80.0
522.532166 116.0
522.611572 132.0
522.898254 52.0
523.039368 60.0
523.099121 96.0
523.174316 112.0
523.221008 520.0
523.282593 132.0
523.394531 80.0
523.449524 204.0
523.508362 96.0
523.538391 64.0
523.635864 56.0
523.672302 100.0
523.724609 84.0
523.895508 52.0
523.941101 152.0
523.991211 52.0
524.036743 76.0
524.136353 164.0
524.233093 636.0
524.282104 128.0
524.345825 44.0
524.380737 120.0
524.487793 116.0
524.530457 96.0
524.69458 128.0
524.730957 128.0
524.841492 48.0
524.998596 32.0
525.089844 96.0
525.16687 120.0
525.178772 112.0
525.243103 1168.0
525.358154 116.0
525.404541 40.0
525.491272 104.0
525.583923 156.0
525.628174 120.0
525.6875 48.0
525.75061 144.0
525.810669 96.0
525.920227 164.0
526.046143 132.0
526.116516 92.0
526.252808 1988.0
526.3172 164.0
526.425537 72.0
526.477295 36.0
526.522949 80.0
526.554932 168.0
526.624634 108.0
526.705627 56.0
526.757202 192.0
526.833557 32.0
526.924927 112.0
526.971619 128.0
526.991028 104.0
527.139709 76.0
527.262085 3264.0
527.346008 168.0
527.42688 124.0
527.466614 136.0
527.517029 172.0
527.573608 56.0
527.641846 164.0
527.715637 28.0
527.793396 60.0
527.852844 164.0
527.915405 76.0
527.987854 84.0
528.06781 140.0
528.10437 72.0
528.256531 1124.0
528.342224 84.0
528.383423 108.0
528.48407 76.0
528.525269 44.0
528.557312 64.0
528.648804 52.0
528.717468 44.0
528.820312 120.0
528.909729 136.0
528.969238 116.0
529.010437 52.0
529.074524 48.0
529.1203 68.0
529.214661 972.0
529.261658 720.0
529.271729 944.0
529.372131 124.0
529.407898 80.0
529.590759 104.0
529.71106 76.0
529.816467 96.0
529.99707 168.0
530.040955 96.0
530.128052 104.0
530.185791 492.0
530.229248 864.0
530.384705 84.0
530.416809 48.0
530.469055 112.0
530.54657 104.0
530.620605 96.0
530.699768 88.0
530.760132 200.0
530.838623 128.0
530.897156 172.0
530.999146 44.0
531.044983 72.0
531.090881 60.0
531.217896 1492.0
531.324829 124.0
531.370728 88.0
531.409607 60.0
531.574219 92.0
531.631226 152.0
531.701111 108.0
531.733215 132.0
531.829224 92.0
531.843384 84.0
531.943054 96.0
531.999451 60.0
532.042725 164.0
532.080444 76.0
532.20697 1660.0
532.31781 60.0
532.349976 108.0
532.398987 132.0
532.513123 28.0
532.594971 88.0
532.796509 88.0
532.839966 120.0
532.913452 60.0
533.023926 100.0
533.088562 112.0
533.213379 1320.0
533.306824 100.0
533.455811 112.0
533.57074 44.0
533.685669 132.0
533.736267 88.0
533.791443 204.0
533.832825 116.0
533.882202 144.0
534.058167 172.0
534.224182 772.0
534.398621 68.0
534.651733 112.0
534.688538 112.0
534.732117 120.0
534.766785 104.0
534.815735 100.0
534.860962 128.0
534.960144 92.0
535.010742 80.0
535.070618 188.0
535.130493 72.0
535.175293 196.0
535.236755 352.0
535.278015 232.0
535.360718 220.0
535.42981 124.0
535.470276 76.0
535.60022 80.0
535.729187 52.0
535.872009 116.0
535.99646 80.0
536.059326 148.0
536.230469 488.0
536.307861 120.0
536.322021 68.0
536.34021 164.0
536.37439 132.0
536.431641 152.0
536.531128 88.0
536.591064 92.0
536.660217 64.0
536.803162 60.0
536.872314 144.0
536.983032 160.0
537.103882 116.0
537.242737 260.0
537.398193 128.0
537.545898 116.0
537.688965 76.0
537.75354 140.0
537.913391 232.0
537.979736 128.0
538.012085 244.0
538.097839 96.0
538.132141 204.0
538.242737 428.0
538.252747 484.0
538.330688 96.0
538.506165 92.0
538.538513 152.0
538.607788 104.0
538.747131 120.0
538.824951 40.0
538.878174 92.0
539.088318 64.0
539.129883 176.0
539.261292 1044.0
539.356384 68.0
539.439087 104.0
539.591858 124.0
539.735291 96.0
539.771729 124.0
539.956177 148.0
540.003723 48.0
540.059265 112.0
540.142517 88.0
540.207214 324.0
540.24408 240.0
540.249329 324.0
540.424744 44.0
540.489502 120.0
540.523438 196.0
540.58667 160.0
540.693115 152.0
540.769958 148.0
540.827332 36.0
540.882874 156.0
541.072693 64.0
541.108459 192.0
541.14679 212.0
541.237671 676.0
541.356689 72.0
541.46167 96.0
541.498718 168.0
541.633057 76.0
541.695496 144.0
541.758118 140.0
541.822998 148.0
542.003723 72.0
542.04541 144.0
542.08252 68.0
542.233887 852.0
542.342041 156.0
542.387024 96.0
542.499634 68.0
542.564575 108.0
542.595947 104.0
542.68512 36.0
542.763916 112.0
542.801025 64.0
542.882446 124.0
543.000427 144.0
543.144226 116.0
543.253479 3612.0
543.34375 48.0
543.385498 112.0
543.423645 104.0
543.492188 164.0
543.55719 116.0
543.662415 84.0
543.744202 60.0
543.793884 156.0
543.823242 88.0
543.928467 36.0
543.970276 212.0
544.012024 32.0
544.044556 48.0
544.081665 64.0
544.196533 244.0
544.259155 3648.0
544.358337 216.0
544.435852 72.0
544.508911 72.0
544.550659 72.0
544.628296 140.0
544.694702 100.0
544.749634 116.0
544.928345 96.0
544.97345 52.0
545.057068 300.0
545.151245 208.0
545.271973 6308.0
545.394592 52.0
545.427856 140.0
545.498596 124.0
545.591614 52.0
545.638123 104.0
545.721802 132.0
545.833374 196.0
545.926392 44.0
545.958923 104.0
546.039001 148.0
546.072998 76.0
546.172424 148.0
546.274292 2672.0
546.375061 76.0
546.598389 220.0
546.647461 40.0
546.680054 36.0
546.763794 72.0
546.801025 92.0
546.840637 144.0
546.899841 88.0
546.982605 116.0
547.026001 172.0
547.075684 92.0
547.166443 228.0
547.227356 920.0
547.282471 924.0
547.504089 96.0
547.552979 64.0
547.609314 136.0
547.650574 164.0
547.791321 108.0
547.8255 84.0
547.87207 104.0
547.982483 124.0
548.086426 112.0
548.119019 76.0
548.167969 120.0
548.234619 1144.0
548.366028 204.0
548.431274 56.0
548.519836 64.0
548.683044 76.0
548.794922 76.0
548.866699 120.0
548.904724 80.0
548.95813 132.0
548.990784 96.0
549.058289 100.0
549.108459 172.0
549.153992 48.0
549.23761 840.0
549.331238 76.0
549.392273 148.0
549.436157 176.0
549.475891 76.0
549.559875 112.0
549.667175 40.0
549.709961 172.0
549.793213 148.0
549.909912 84.0
549.961243 80.0
550.08728 104.0
550.129272 204.0
550.192078 116.0
550.239258 516.0
550.307007 132.0
550.367432 172.0
550.470154 108.0
550.605591 88.0
550.638245 124.0
550.713013 92.0
550.797058 76.0
550.871826 32.0
550.974609 128.0
551.062134 60.0
551.128784 88.0
551.198181 176.0
551.251526 208.0
551.399841 84.0
551.485657 104.0
551.586792 100.0
551.684998 76.0
551.755127 112.0
551.787842 132.0
551.946838 84.0
552.026306 96.0
552.156189 176.0
552.21637 368.0
552.270447 464.0
552.440063 60.0
552.475708 104.0
552.523865 100.0
552.578308 48.0
552.690552 120.0
552.783813 100.0
552.887146 92.0
552.994751 128.0
553.248535 304.0
553.316345 132.0
553.377075 108.0
553.435852 184.0
553.514465 140.0
553.554321 96.0
553.71582 104.0
553.829102 188.0
553.893799 140.0
553.959412 48.0
554.071411 112.0
554.151489 56.0
554.225464 388.0
554.258545 260.0
554.293274 124.0
554.368164 144.0
554.419495 164.0
554.566711 172.0
554.643555 96.0
554.699829 108.0
554.842102 156.0
555.009277 128.0
555.042114 36.0
555.088135 132.0
555.182434 52.0
555.257446 3428.0
555.365723 108.0
555.436035 128.0
555.484009 92.0
555.5224 60.0
555.613403 104.0
555.764465 144.0
555.959778 124.0
556.003784 112.0
556.064819 148.0
556.139893 112.0
556.263 1960.0
556.529602 136.0
556.576538 180.0
556.629761 80.0
556.717407 100.0
556.801941 48.0
556.863037 76.0
556.903137 148.0
556.96637 160.0
557.037048 80.0
557.083801 36.0
557.198059 128.0
557.272461 1540.0
557.393921 120.0
557.426819 184.0
557.520752 204.0
557.624207 60.0
557.671204 36.0
557.704102 88.0
557.788696 84.0
557.976746 84.0
558.066101 68.0
558.127563 100.0
558.238403 304.0
558.272705 604.0
558.343506 124.0
558.403992 56.0
558.419189 48.0
558.536377 120.0
558.601135 120.0
558.682983 200.0
558.761658 248.0
558.797668 160.0
558.84021 116.0
558.875122 68.0
558.990845 108.0
559.110413 160.0
559.143372 68.0
559.251282 496.0
559.268066 384.0
559.27594 312.0
559.356995 112.0
559.526367 88.0
559.585876 40.0
559.684753 84.0
559.78363 80.0
559.83075 104.0
559.901367 72.0
559.948486 88.0
560.075623 100.0
560.166626 64.0
560.245483 760.0
560.374695 100.0
560.427612 96.0
560.507812 172.0
560.677917 92.0
560.781433 132.0
560.942688 32.0
561.091431 196.0
561.189636 152.0
561.243652 212.0
561.319885 96.0
561.380981 96.0
561.503845 140.0
561.555725 64.0
561.715088 132.0
561.774475 140.0
561.819885 108.0
561.881226 72.0
562.039429 156.0
562.169067 140.0
562.251221 464.0
562.332642 172.0
562.541931 100.0
562.659973 84.0
562.72345 144.0
562.806335 96.0
562.872437 140.0
562.914917 116.0
562.947998 96.0
563.009399 72.0
563.056641 160.0
563.185608 84.0
563.239746 428.0
563.298279 164.0
563.368408 88.0
563.410889 60.0
563.45813 100.0
563.628235 64.0
563.869263 40.0
563.949646 36.0
564.029968 136.0
564.236511 812.0
564.33728 84.0
564.391724 140.0
564.425903 200.0
564.474426 228.0
564.796021 52.0
564.840332 172.0
564.906494 216.0
565.008911 80.0
565.063232 212.0
565.233276 428.0
565.377075 144.0
565.484924 116.0
565.661987 244.0
565.733032 140.0
565.804016 96.0
566.02533 60.0
566.083374 128.0
566.219055 808.0
566.26532 732.0
566.377075 92.0
566.44812 52.0
566.575989 84.0
566.859863 224.0
566.906494 144.0
566.92041 128.0
566.978821 72.0
567.041931 136.0
567.125732 112.0
567.292786 564.0
567.369629 160.0
567.505005 144.0
567.557129 44.0
567.595093 116.0
567.628296 72.0
567.704163 76.0
567.737366 48.0
567.778748 144.0
567.827454 60.0
567.868408 132.0
568.178528 216.0
568.290833 532.0
568.377808 100.0
568.511047 160.0
568.576965 140.0
568.662537 76.0
568.814575 128.0
568.914124 60.0
569.073547 104.0
569.12085 112.0
569.161011 128.0
569.217224 144.0
569.267334 556.0
569.317871 348.0
569.517212 80.0
569.635986 176.0
569.692322 84.0
569.740112 220.0
569.792725 72.0
569.841675 192.0
569.940063 128.0
569.99707 128.0
570.114563 96.0
570.155212 100.0
570.209961 120.0
570.258179 544.0
570.294189 232.0
570.36554 64.0
570.454529 96.0
570.662537 88.0
570.752869 120.0
570.868408 96.0
570.928833 76.0
571.057251 52.0
571.19043 96.0
571.252014 476.0
571.371216 76.0
571.408325 196.0
571.455994 64.0
571.51709 144.0
571.585327 48.0
571.685791 144.0
571.751892 128.0
571.818542 128.0
571.880432 72.0
572.018433 100.0
572.180298 96.0
572.268372 672.0
572.351746 48.0
572.466003 72.0
572.634521 64.0
572.742249 72.0
572.804199 108.0
572.847046 132.0
572.908997 120.0
572.966187 76.0
573.009644 64.0
573.027588 76.0
573.042847 96.0
573.111633 76.0
573.26709 10324.0
573.413025 104.0
573.50769 108.0
573.621704 132.0
573.730408 92.0
573.791138 128.0
573.898499 80.0
573.972229 64.0
574.040833 96.0
574.143555 128.0
574.273254 5564.0
574.355835 200.0
574.410522 132.0
574.423401 164.0
574.497986 120.0
574.602905 152.0
574.638 124.0
574.671448 80.0
574.725586 36.0
574.792358 52.0
574.859192 64.0
574.916443 112.0
574.965393 184.0
575.117554 132.0
575.186157 80.0
575.281799 3264.0
575.39856 56.0
575.441528 124.0
575.508423 40.0
575.648865 116.0
575.713745 76.0
575.785828 92.0
575.828369 104.0
575.927856 120.0
575.983948 60.0
576.097534 112.0
576.172302 104.0
576.282654 944.0
576.399475 148.0
576.444641 136.0
576.52594 144.0
576.611938 116.0
576.688293 116.0
576.782227 84.0
576.850952 140.0
576.960083 156.0
577.046936 108.0
577.118652 56.0
577.171631 116.0
577.230591 108.0
577.291382 544.0
577.415161 100.0
577.498169 176.0
577.539551 136.0
577.576721 136.0
577.607971 224.0
577.711731 116.0
577.809998 136.0
577.931824 80.0
577.974915 136.0
578.013184 136.0
578.094543 56.0
578.174072 76.0
578.256531 408.0
578.373535 96.0
578.463074 276.0
578.661194 96.0
578.816284 104.0
578.833679 80.0
578.855408 136.0
578.876709 72.0
578.896729 164.0
578.965881 84.0
579.05658 128.0
579.104736 88.0
579.232361 172.0
579.299622 144.0
579.385498 156.0
579.550293 40.0
579.602295 136.0
579.694031 168.0
579.738525 128.0
579.828247 136.0
579.895325 236.0
579.943604 64.0
580.05835 76.0
580.261292 1028.0
580.374756 128.0
580.458008 144.0
580.491699 112.0
580.561768 68.0
580.689026 136.0
580.796814 76.0
580.839966 104.0
580.950317 120.0
581.027039 60.0
581.271729 708.0
581.434937 44.0
581.478149 116.0
581.530945 112.0
581.593323 72.0
581.648071 128.0
581.75177 164.0
582.143127 180.0
582.243774 1052.0
582.344666 136.0
582.438477 128.0
582.485962 144.0
582.519409 228.0
582.590698 100.0
582.765137 136.0
582.897583 144.0
582.996582 196.0
583.048706 176.0
583.168823 100.0
583.283203 732.0
583.490906 136.0
583.548645 148.0
583.654419 68.0
583.697693 204.0
583.745789 92.0
583.779419 160.0
583.87085 96.0
583.942017 160.0
583.951843 128.0
584.03833 112.0
584.125732 72.0
584.178955 132.0
584.270447 1004.0
584.332764 260.0
584.529907 168.0
584.598999 176.0
584.657715 72.0
584.756104 48.0
584.80426 104.0
584.857178 176.0
584.975281 156.0
585.088501 144.0
585.136963 100.0
585.300598 1084.0
585.39209 84.0
585.549866 136.0
585.603516 144.0
585.658997 92.0
585.775452 116.0
585.819763 184.0
585.902222 116.0
585.945557 76.0
585.993713 84.0
586.051575 136.0
586.120605 108.0
586.157593 48.0
586.255859 264.0
586.300171 836.0
586.396912 60.0
586.406067 92.0
586.494934 96.0
586.565613 120.0
586.645874 144.0
586.904724 44.0
586.977051 72.0
587.133545 108.0
587.277954 828.0
587.435303 144.0
587.507629 164.0
587.623413 176.0
587.681335 68.0
587.80249 72.0
587.876465 220.0
588.028809 120.0
588.067383 72.0
588.120483 72.0
588.273865 692.0
588.429443 52.0
588.501892 84.0
588.535706 136.0
588.656433 124.0
588.74469 88.0
588.815796 136.0
588.931702 68.0
589.170959 76.0
589.26886 1012.0
589.40033 112.0
589.439026 72.0
589.482178 124.0
589.577332 180.0
589.685486 104.0
589.816162 116.0
589.940979 80.0
590.034485 144.0
590.168945 128.0
590.255981 444.0
590.347046 172.0
590.375305 136.0
590.393127 100.0
590.476257 80.0
590.613831 128.0
590.65741 44.0
590.763794 96.0
590.828308 172.0
590.870239 96.0
590.904114 92.0
590.971863 168.0
591.005737 92.0
591.05896 116.0
591.126709 88.0
591.269409 656.0
591.388062 92.0
591.480347 132.0
591.596802 168.0
591.649475 108.0
591.702698 164.0
591.804382 120.0
592.059021 124.0
592.119202 136.0
592.236877 916.0
592.317383 136.0
592.418396 144.0
592.449158 132.0
592.602783 116.0
592.778076 140.0
592.816833 64.0
592.875 108.0
592.908936 80.0
593.085266 208.0
593.232971 1060.0
593.359741 216.0
593.422729 144.0
593.46637 132.0
593.553162 112.0
593.679749 144.0
593.771912 112.0
593.839844 196.0
593.941711 80.0
593.975647 88.0
594.053284 116.0
594.122437 92.0
594.275024 556.0
594.327698 256.0
594.446289 160.0
594.593994 128.0
594.608826 56.0
594.62915 100.0
594.677673 100.0
594.771606 204.0
594.829712 52.0
594.905457 140.0
595.098328 120.0
595.150146 172.0
595.290466 744.0
595.350464 144.0
595.575562 88.0
595.672424 84.0
595.745728 64.0
595.820435 128.0
595.864136 68.0
595.995361 196.0
596.193787 72.0
596.282776 600.0
596.387207 224.0
596.515381 124.0
596.568848 36.0
596.724426 120.0
596.802246 52.0
596.909241 104.0
596.943237 60.0
596.982178 124.0
597.079407 56.0
597.157227 52.0
597.229065 212.0
597.279297 368.0
597.477478 144.0
597.563904 108.0
597.595093 236.0
597.627197 192.0
597.736206 144.0
597.872437 164.0
597.994141 132.0
598.074646 172.0
598.14502 96.0
598.256226 544.0
598.294189 1088.0
598.442017 96.0
598.510193 128.0
598.649292 200.0
598.668274 112.0
598.685608 140.0
598.787781 36.0
598.982605 80.0
599.0224 208.0
599.153137 56.0
599.284668 1000.0
599.411377 116.0
599.460083 136.0
599.633606 136.0
599.747681 136.0
599.830505 80.0
600.030396 128.0
600.088928 168.0
600.292542 328.0
600.474548 164.0
600.510193 84.0
600.586365 128.0
600.776611 88.0
600.83252 104.0
600.89856 32.0
600.966858 112.0
601.025452 108.0
601.108398 120.0
601.171814 152.0
601.292175 828.0
601.438293 224.0
601.469971 140.0
601.542786 40.0
601.581848 112.0
601.669739 52.0
601.72345 120.0
601.818237 96.0
602.060364 184.0
602.143066 116.0
602.273315 812.0
602.348328 180.0
602.434021 104.0
602.553589 140.0
602.607483 60.0
602.655823 96.0
602.697998 144.0
602.736816 64.0
602.82251 76.0
602.864929 100.0
602.939758 64.0
602.983765 108.0
603.101074 52.0
603.184204 60.0
603.275391 480.0
603.389526 180.0
603.46283 72.0
603.570435 108.0
603.604675 136.0
603.673096 52.0
603.756287 76.0
603.844299 152.0
603.888489 108.0
603.910034 100.0
604.118225 40.0
604.193909 112.0
604.294373 488.0
604.415466 48.0
604.454224 108.0
604.587952 156.0
604.632019 80.0
604.697144 100.0
604.77887 80.0
604.817017 100.0
604.904297 128.0
604.964844 68.0
605.020325 72.0
605.082397 116.0
605.116638 84.0
605.245789 128.0
605.315369 276.0
605.327332 340.0
605.50238 128.0
605.53717 96.0
605.650452 128.0
605.717224 76.0
605.751343 208.0
605.79248 172.0
605.919861 48.0
605.959106 88.0
606.022339 132.0
606.111572 132.0
606.189209 128.0
606.257751 860.0
606.439331 88.0
606.478577 28.0
606.517761 148.0
606.582886 136.0
606.62561 200.0
606.698181 84.0
606.733459 64.0
606.792297 48.0
606.8396 208.0
606.931519 112.0
606.993347 164.0
607.125732 108.0
607.194397 108.0
607.252075 404.0
607.295349 212.0
607.3927 112.0
607.433899 140.0
607.470703 112.0
607.562317 88.0
607.669006 148.0
607.741699 128.0
607.832214 40.0
607.866516 112.0
607.964661 132.0
608.09021 160.0
608.148865 168.0
608.261353 3052.0
608.360107 100.0
608.426086 124.0
608.464539 188.0
608.529236 136.0
608.598145 120.0
608.690674 100.0
608.750183 112.0
608.809082 88.0
608.843506 96.0
608.905273 104.0
608.963196 128.0
609.030151 64.0
609.103821 104.0
609.265381 1120.0
609.370483 312.0
609.496887 128.0
609.541077 36.0
609.595154 108.0
609.668884 148.0
609.713074 116.0
609.747498 72.0
609.82843 128.0
609.898499 148.0
610.037537 232.0
610.27594 668.0
610.40625 40.0
610.449463 188.0
610.534119 116.0
610.743042 268.0
610.789917 64.0
610.829285 152.0
610.873535 128.0
610.907959 176.0
610.974243 120.0
611.018127 92.0
611.070312 112.0
611.10968 112.0
611.213013 72.0
611.284546 364.0
611.353027 108.0
611.49353 96.0
611.567383 92.0
611.678284 108.0
611.80365 172.0
612.00061 116.0
612.058777 88.0
612.191528 176.0
612.272461 416.0
612.391479 108.0
612.493103 92.0
612.527588 132.0
612.569885 176.0
612.676453 144.0
612.719727 124.0
612.916809 192.0
612.956238 156.0
613.015381 68.0
613.104065 144.0
613.138611 84.0
613.211243 112.0
613.296204 1664.0
613.371704 280.0
613.478699 104.0
613.56897 140.0
613.695618 164.0
613.744934 164.0
613.817383 64.0
613.981628 92.0
614.095093 72.0
614.302063 924.0
614.430542 88.0
614.468323 92.0
614.505005 132.0
614.73645 44.0
614.824463 172.0
614.899353 116.0
614.978333 72.0
615.058533 128.0
615.091309 112.0
615.151062 112.0
615.296448 728.0
615.390503 172.0
615.427551 152.0
615.501648 44.0
615.551025 132.0
615.635742 124.0
615.722107 144.0
615.778198 124.0
615.812805 216.0
615.857239 264.0
616.021362 124.0
616.093201 264.0
616.177185 96.0
616.204529 136.0
616.281128 716.0
616.415527 60.0
616.455078 64.0
616.529175 128.0
616.657715 48.0
616.736755 68.0
616.771362 132.0
616.875183 104.0
616.978821 148.0
617.14679 120.0
617.286499 1068.0
617.438904 152.0
617.478455 76.0
617.518005 52.0
617.61615 180.0
617.7901 100.0
617.834595 100.0
617.963257 196.0
618.082031 240.0
618.15625 100.0
618.200745 152.0
618.288879 540.0
618.448425 112.0
618.512573 128.0
618.564148 156.0
618.609314 88.0
618.64624 100.0
618.705688 60.0
618.819519 72.0
618.858032 124.0
618.963135 184.0
619.086914 132.0
619.151306 84.0
619.205811 88.0
619.282837 288.0
619.37439 116.0
619.527771 96.0
619.743896 136.0
619.810181 116.0
619.849854 48.0
619.953918 60.0
620.005676 196.0
620.022156 88.0
620.040649 176.0
620.087708 112.0
620.164429 192.0
620.272339 1752.0
620.338562 220.0
620.351562 124.0
620.414917 108.0
620.494202 96.0
620.573547 84.0
620.63916 88.0
620.831421 160.0
620.895874 136.0
620.960388 48.0
621.024841 120.0
621.109192 100.0
621.283325 1200.0
621.4021 92.0
621.441589 180.0
621.496155 128.0
621.544739 184.0
621.627747 148.0
621.724426 60.0
621.94281 136.0
622.007324 128.0
622.071899 100.0
622.292725 800.0
622.618652 136.0
622.672729 140.0
622.811768 60.0
622.949097 132.0
623.05603 100.0
623.114807 112.0
623.174438 140.0
623.312195 252.0
623.40802 96.0
623.545532 160.0
623.606812 76.0
623.731079 92.0
623.830505 64.0
623.959778 92.0
623.994568 176.0
624.050537 152.0
624.086426 128.0
624.269348 1392.0
624.43219 188.0
624.531677 320.0
624.566467 128.0
624.620544 64.0
624.763794 132.0
624.805237 124.0
624.894836 72.0
624.94458 120.0
625.034119 200.0
625.103821 348.0
625.19281 208.0
625.265991 880.0
625.591614 72.0
625.729187 100.0
625.815674 120.0
626.025085 68.0
626.094543 88.0
626.156799 172.0
626.285095 1208.0
626.40332 68.0
626.443176 80.0
626.522888 136.0
626.703674 84.0
626.781982 44.0
626.816895 76.0
626.851746 76.0
626.901611 132.0
627.006287 128.0
627.044006 160.0
627.140808 56.0
627.210632 88.0
627.285461 568.0
627.424988 88.0
627.486633 88.0
627.56958 76.0
627.666077 160.0
627.877502 80.0
627.988464 108.0
628.043579 180.0
628.086853 128.0
628.163086 40.0
628.202332 188.0
628.299866 1056.0
628.346619 292.0
628.447449 72.0
628.597168 52.0
628.711914 140.0
628.796814 172.0
628.920532 116.0
629.001465 168.0
629.056335 100.0
629.120972 68.0
629.186157 112.0
629.240173 148.0
629.318237 340.0
629.465027 104.0
629.591003 164.0
629.672058 128.0
629.727783 60.0
629.78241 172.0
629.830383 80.0
629.898376 156.0
629.981934 356.0
630.106018 148.0
630.150085 104.0
630.206604 52.0
630.285461 580.0
630.368225 116.0
630.431519 128.0
630.554871 168.0
630.599854 112.0
630.639832 152.0
630.72052 120.0
630.908691 108.0
630.989807 76.0
631.02478 116.0
631.059814 96.0
631.17981 100.0
631.221619 100.0
631.309021 3912.0
631.406799 164.0
631.471375 164.0
631.517395 64.0
631.669922 84.0
631.719971 88.0
631.780029 136.0
631.855042 132.0
631.91803 88.0
632.130249 88.0
632.219238 252.0
632.317078 9368.0
632.457275 36.0
632.508484 168.0
632.562805 152.0
632.665833 68.0
632.864319 156.0
632.96228 60.0
633.029663 60.0
633.146851 64.0
633.194153 64.0
633.323181 3948.0
633.421448 108.0
633.487183 56.0
633.562378 148.0
633.612427 112.0
633.75177 116.0
633.84436 160.0
634.06842 188.0
634.153625 188.0
634.203735 92.0
634.291809 1820.0
634.467041 216.0
634.509521 40.0
634.677185 112.0
634.735168 104.0
634.810425 148.0
634.87561 156.0
635.111328 116.0
635.156494 124.0
635.286133 928.0
635.390564 164.0
635.467529 140.0
635.618042 40.0
635.703369 152.0
635.755798 36.0
635.788696 92.0
635.859558 124.0
635.929199 108.0
636.00592 68.0
636.056152 28.0
636.087952 128.0
636.268188 952.0
636.282104 704.0
636.306702 884.0
636.436279 228.0
636.511719 188.0
636.60199 148.0
636.673706 84.0
636.762695 36.0
636.799561 104.0
636.84375 120.0
636.878235 188.0
636.973694 204.0
637.011597 88.0
637.054077 44.0
637.100586 120.0
637.122559 132.0
637.134949 152.0
637.285217 1244.0
637.471069 56.0
637.539612 108.0
637.601746 92.0
637.700439 76.0
637.839905 128.0
637.898315 48.0
637.954041 100.0
637.993835 136.0
638.027466 104.0
638.079285 56.0
638.170532 116.0
638.280945 2120.0
638.391052 148.0
638.456482 184.0
638.631592 88.0
638.685547 44.0
638.737854 172.0
638.787231 84.0
638.85791 204.0
638.90918 108.0
639.039978 136.0
639.195984 76.0
639.284485 1728.0
639.476501 184.0
639.593567 92.0
639.648926 84.0
639.684204 92.0
639.759705 80.0
639.820129 100.0
639.903015 96.0
639.925415 140.0
640.056763 68.0
640.102112 96.0
640.176941 148.0
640.298218 1044.0
640.419373 128.0
640.510071 76.0
640.585938 124.0
640.705444 160.0
640.761963 128.0
640.872803 40.0
640.993713 48.0
641.030151 264.0
641.072144 164.0
641.146667 184.0
641.308105 1164.0
641.384888 112.0
641.472534 128.0
641.593567 132.0
641.633911 60.0
641.707703 88.0
641.855713 84.0
641.969177 96.0
642.032593 140.0
642.211853 160.0
642.284424 1620.0
642.396606 284.0
642.435791 168.0
642.476135 64.0
642.511475 124.0
642.546753 72.0
642.600586 136.0
642.672913 92.0
642.80658 124.0
642.925232 100.0
643.011047 112.0
643.066528 312.0
643.143433 152.0
643.284973 612.0
643.429993 160.0
643.474426 176.0
643.554138 144.0
643.742188 104.0
643.788513 52.0
643.919861 124.0
644.009155 96.0
644.111816 140.0
644.163635 120.0
644.221497 100.0
644.293213 1152.0
644.399048 144.0
644.475525 88.0
644.543335 72.0
644.617065 72.0
644.693787 104.0
644.735413 100.0
644.886169 64.0
644.9328 152.0
644.986023 164.0
645.07196 80.0
645.208435 168.0
645.3078 488.0
645.36731 140.0
645.415771 144.0
645.567444 192.0
645.665955 128.0
645.764709 128.0
645.813782 104.0
645.870911 84.0
645.941711 124.0
646.032776 64.0
646.083374 116.0
646.159302 44.0
646.199768 140.0
646.303223 244.0
646.356628 308.0
646.478088 140.0
646.584351 164.0
646.675476 228.0
646.842529 148.0
646.892029 112.0
647.056396 124.0
647.155029 120.0
647.28125 188.0
647.342285 212.0
647.358582 128.0
647.429871 52.0
647.470398 84.0
647.509277 112.0
647.55957 132.0
647.612183 124.0
647.647644 140.0
647.752441 180.0
647.930847 120.0
648.017883 104.0
648.057983 72.0
648.189758 32.0
648.2995 620.0
648.417786 132.0
648.563538 124.0
648.72699 68.0
648.843628 112.0
648.896729 76.0
648.92981 148.0
649.097168 152.0
649.217102 148.0
649.288757 236.0
649.4021 120.0
649.515808 132.0
649.594177 96.0
649.65509 132.0
649.690613 136.0
649.800293 96.0
649.858032 84.0
649.913025 144.0
650.005188 44.0
650.066101 60.0
650.152344 124.0
650.208191 84.0
650.304626 256.0
650.365662 324.0
650.512756 312.0
650.563477 76.0
650.639648 88.0
650.675171 44.0
650.784363 112.0
650.827515 120.0
650.883362 92.0
650.926025 244.0
651.073303 132.0
651.211304 128.0
651.301697 264.0
651.381104 284.0
651.43689 88.0
651.599548 92.0
651.675781 188.0
651.842163 124.0
652.056946 120.0
652.298767 3520.0
652.38269 296.0
652.445984 132.0
652.519531 52.0
652.570374 52.0
652.636475 48.0
652.687317 136.0
652.730408 188.0
652.806458 104.0
652.852966 144.0
652.895813 80.0
652.936523 140.0
653.053467 80.0
653.094177 120.0
653.15448 132.0
653.200073 136.0
653.301147 2376.0
653.423462 168.0
653.53125 88.0
653.549011 80.0
653.569031 120.0
653.628418 80.0
653.67926 172.0
653.714905 88.0
653.84668 108.0
653.959229 48.0
654.015198 56.0
654.085815 116.0
654.09967 120.0
654.157043 124.0
654.291565 1368.0
654.417358 144.0
654.540466 104.0
654.640381 84.0
654.68219 80.0
654.7229 108.0
654.768738 124.0
654.870605 84.0
654.948792 104.0
654.992859 196.0
655.040649 64.0
655.056946 84.0
655.125305 168.0
655.203003 132.0
655.285278 1520.0
655.481995 124.0
655.525452 68.0
655.618713 48.0
655.702026 180.0
655.852905 124.0
655.899902 140.0
655.953125 92.0
655.996765 112.0
656.047791 128.0
656.085876 68.0
656.177429 232.0
656.294983 3472.0
656.427795 60.0
656.447449 92.0
656.555603 172.0
656.755005 136.0
656.804321 72.0
656.858582 28.0
656.955566 128.0
656.996338 120.0
657.061035 120.0
657.129028 64.0
657.164734 64.0
657.297668 2064.0
657.363464 336.0
657.600647 172.0
657.64447 84.0
657.70166 96.0
657.780151 112.0
657.862793 72.0
657.883606 56.0
658.007141 76.0
658.13739 196.0
658.319519 956.0
658.512451 72.0
658.717529 112.0
658.784424 116.0
658.921143 108.0
658.962036 136.0
659.042542 68.0
659.077454 128.0
659.212402 68.0
659.31366 336.0
659.35553 364.0
659.444458 48.0
659.606995 80.0
659.71051 176.0
659.759338 64.0
659.844727 204.0
660.029541 128.0
660.087769 104.0
660.147949 108.0
660.23584 212.0
660.30719 508.0
660.383301 172.0
660.471252 92.0
660.531555 88.0
660.674805 136.0
660.731079 76.0
660.836426 88.0
660.975342 92.0
661.027832 40.0
661.067749 144.0
661.110535 76.0
661.307434 332.0
661.54187 104.0
661.811035 56.0
661.887512 132.0
661.969788 112.0
662.134766 76.0
662.155884 96.0
662.310364 208.0
662.362183 124.0
662.450256 124.0
662.499634 160.0
662.569275 112.0
662.625427 144.0
662.727905 132.0
662.794312 172.0
662.927734 96.0
663.004639 116.0
663.143005 76.0
663.184021 112.0
663.276306 80.0
663.305725 116.0
663.344238 196.0
663.401245 96.0
663.45575 164.0
663.501892 124.0
663.577698 76.0
663.692688 164.0
663.789001 156.0
663.905029 84.0
663.936707 264.0
663.97876 84.0
664.040283 156.0
664.171326 96.0
664.230103 144.0
664.298706 276.0
664.35498 236.0
664.604614 108.0
664.671326 104.0
664.784241 164.0
664.876587 80.0
664.922791 148.0
664.968994 52.0
665.041626 80.0
665.127075 176.0
665.244019 104.0
665.348755 608.0
665.360046 800.0
665.461792 120.0
665.518311 112.0
665.562561 96.0
665.639282 72.0
665.744263 76.0
665.831543 112.0
666.115356 80.0
666.160278 60.0
666.318298 1020.0
666.405029 144.0
666.453186 132.0
666.530212 76.0
666.569641 144.0
666.589539 96.0
666.605469 100.0
666.823181 96.0
666.963013 140.0
667.325256 704.0
667.516235 124.0
667.76062 100.0
667.841248 40.0
667.880493 252.0
667.965698 80.0
668.126221 60.0
668.177063 100.0
668.300232 456.0
668.394592 320.0
668.466614 132.0
668.525513 64.0
668.715942 152.0
668.788025 68.0
668.866211 188.0
668.978516 56.0
669.076294 28.0
669.169006 80.0
669.306946 420.0
669.442627 116.0
669.458923 104.0
669.500732 56.0
669.602417 96.0
669.637634 144.0
669.689148 44.0
669.76123 40.0
669.831177 152.0
669.874573 108.0
669.926086 68.0
670.01825 184.0
670.0755 116.0
670.135132 160.0
670.308655 6260.0
670.471313 84.0
670.509644 84.0
670.60376 180.0
670.657837 80.0
670.740295 100.0
670.807312 68.0
670.858276 220.0
670.941345 56.0
671.096313 116.0
671.157898 188.0
671.199158 104.0
671.31189 1912.0
671.456238 208.0
671.519714 80.0
671.568359 144.0
671.599609 108.0
671.655518 108.0
671.716064 320.0
671.785889 148.0
671.86969 36.0
671.93158 124.0
671.967712 64.0
672.003845 80.0
672.068542 252.0
672.184448 92.0
672.221252 164.0
672.329956 908.0
672.449158 284.0
672.525085 56.0
672.610168 92.0
672.654114 44.0
672.6922 96.0
672.752197 104.0
672.793518 116.0
672.898621 164.0
673.105774 108.0
673.118835 52.0
673.136963 108.0
673.193848 120.0
673.331543 648.0
673.439026 92.0
673.5578 40.0
673.655945 52.0
673.702454 68.0
673.785156 72.0
673.867798 144.0
673.925476 100.0
674.007324 32.0
674.058105 48.0
674.141663 36.0
674.203674 60.0
674.307495 760.0
674.392456 108.0
674.487671 144.0
674.596558 116.0
674.798157 136.0
674.857117 92.0
674.906738 124.0
674.946106 92.0
674.994629 96.0
675.036011 124.0
675.082581 148.0
675.173584 84.0
675.330933 392.0
675.439453 284.0
675.512146 124.0
675.625671 80.0
675.677429 68.0
675.80542 124.0
675.956848 120.0
675.99823 108.0
676.04895 188.0
676.088074 88.0
676.187561 132.0
676.232239 344.0
676.304626 164.0
676.448547 80.0
676.484802 48.0
676.562439 64.0
676.614197 84.0
676.700806 104.0
676.778442 140.0
676.864868 116.0
676.955933 236.0
676.992188 72.0
677.054382 148.0
677.091797 96.0
677.176147 80.0
677.31665 216.0
677.356201 176.0
677.484497 144.0
677.611755 100.0
677.691528 160.0
677.826294 132.0
677.992126 128.0
678.028381 128.0
678.064636 144.0
678.193237 144.0
678.282471 156.0
678.348267 180.0
678.39325 268.0
678.448242 152.0
678.493835 120.0
678.527039 124.0
678.627686 92.0
678.800842 52.0
678.85791 124.0
678.895386 284.0
679.013489 116.0
679.054138 124.0
679.096436 132.0
679.158691 40.0
679.282104 236.0
679.349548 76.0
679.423279 112.0
679.51239 88.0
679.524353 124.0
679.57782 176.0
679.693054 108.0
679.760559 92.0
679.812439 48.0
679.869507 232.0
679.9422 32.0
679.999268 120.0
680.040833 124.0
680.077148 44.0
680.12384 100.0
680.197327 80.0
680.296997 764.0
680.358276 220.0
680.562134 132.0
680.609253 64.0
680.68457 84.0
680.809204 132.0
680.90271 120.0
680.949463 108.0
681.03772 104.0
681.136414 32.0
681.178589 104.0
681.294678 656.0
681.345276 276.0
681.442932 100.0
681.817139 44.0
681.863892 168.0
681.990784 88.0
682.048584 96.0
682.110168 148.0
682.20697 148.0
682.311707 668.0
682.378174 108.0
682.483521 64.0
682.565735 76.0
682.651794 44.0
682.75293 96.0
682.908997 120.0
682.979187 96.0
683.136047 256.0
683.181213 244.0
683.235535 120.0
683.378967 1924.0
683.538513 144.0
683.675903 176.0
683.928833 132.0
683.975708 80.0
684.057129 148.0
684.120178 268.0
684.324524 2104.0
684.527588 44.0
684.605713 76.0
684.737122 156.0
684.860901 72.0
684.94574 180.0
684.982483 200.0
685.070251 88.0
685.173462 44.0
685.331482 720.0
685.544617 140.0
685.616394 44.0
685.751892 112.0
685.907959 120.0
685.957703 156.0
686.001282 272.0
686.074097 80.0
686.192139 116.0
686.30481 1068.0
686.405823 172.0
686.47052 72.0
686.605713 144.0
686.648743 92.0
686.749512 68.0
686.80188 108.0
686.862549 124.0
686.953003 144.0
687.157776 48.0
687.205139 108.0
687.221924 100.0
687.3125 1088.0
687.391663 108.0
687.417358 100.0
687.42865 200.0
687.482971 120.0
687.522339 88.0
687.558716 124.0
687.608704 44.0
687.723572 100.0
687.76532 116.0
687.827942 92.0
687.890625 188.0
687.958496 164.0
688.036804 116.0
688.099426 48.0
688.212341 116.0
688.322632 680.0
688.473267 128.0
688.538696 248.0
688.663452 80.0
688.759521 100.0
688.877625 304.0
688.929871 60.0
688.994446 108.0
689.055237 136.0
689.102234 128.0
689.146057 172.0
689.185852 144.0
689.23291 88.0
689.31311 740.0
689.42926 76.0
689.598694 108.0
689.671875 92.0
689.730042 136.0
689.77124 116.0
689.857727 140.0
689.943726 116.0
690.004456 192.0
690.064819 180.0
690.111023 76.0
690.195007 64.0
690.246155 96.0
690.302795 256.0
690.329102 216.0
690.368896 444.0
690.482361 84.0
690.618347 100.0
690.677063 160.0
690.733154 76.0
690.775269 84.0
690.953491 144.0
691.07373 92.0
691.167664 44.0
691.240906 36.0
691.335938 1200.0
691.465942 60.0
691.601379 152.0
691.635864 192.0
691.735107 124.0
691.795715 124.0
691.886658 252.0
691.961609 160.0
692.198914 140.0
692.232056 96.0
692.348389 772.0
692.50177 96.0
692.580505 164.0
692.780334 88.0
692.850037 64.0
692.900818 84.0
692.9375 84.0
693.031799 120.0
693.07373 60.0
693.141846 112.0
693.220459 96.0
693.257141 172.0
693.342285 904.0
693.526062 140.0
693.614624 124.0
693.736816 148.0
693.823242 72.0
693.863159 84.0
693.910095 120.0
693.955261 112.0
694.090637 152.0
694.17981 96.0
694.3172 568.0
694.334229 744.0
694.504944 32.0
694.567139 104.0
694.707214 172.0
694.8302 128.0
694.866943 32.0
694.945679 76.0
695.013123 140.0
695.049805 160.0
695.139832 120.0
695.213257 72.0
695.319397 936.0
695.434509 380.0
695.58136 92.0
695.621887 52.0
695.675171 156.0
695.730591 152.0
695.795349 68.0
695.948181 60.0
696.148804 160.0
696.212708 108.0
696.312683 716.0
696.452393 44.0
696.520691 160.0
696.590881 152.0
696.715027 68.0
696.816345 252.0
696.876892 84.0
697.030334 152.0
697.219482 56.0
697.307129 1020.0
697.342773 852.0
697.411499 260.0
697.600342 168.0
697.713623 92.0
697.890686 160.0
697.94342 108.0
698.026978 128.0
698.165833 152.0
698.206177 188.0
698.303467 2252.0
698.431091 112.0
698.470886 48.0
698.570862 84.0
698.626953 160.0
698.728699 104.0
698.833923 88.0
698.890015 140.0
698.90918 104.0
699.007568 144.0
699.102295 92.0
699.170715 156.0
699.218079 128.0
699.314026 1952.0
699.40448 528.0
699.472412 148.0
699.668335 136.0
699.72345 112.0
699.789978 72.0
699.866089 88.0
699.918274 164.0
699.96991 216.0
700.086792 124.0
700.144714 60.0
700.202637 84.0
700.313721 632.0
700.367798 300.0
700.437378 100.0
700.486267 132.0
700.606445 128.0
700.700562 76.0
700.715027 104.0
700.784668 132.0
700.834778 140.0
700.919128 76.0
701.001343 192.0
701.066467 96.0
701.081177 80.0
701.230286 180.0
701.297668 612.0
701.386169 2288.0
701.498901 148.0
701.541077 212.0
701.597656 180.0
701.611511 132.0
701.632935 228.0
701.686523 164.0
701.803284 140.0
701.844238 128.0
701.889038 68.0
702.010315 104.0
702.046753 80.0
702.154968 208.0
702.332825 4164.0
702.510376 100.0
702.579041 160.0
702.59491 116.0
702.612427 148.0
702.65918 92.0
702.719604 164.0
702.77771 188.0
702.84729 176.0
702.926758 84.0
703.008972 136.0
703.068726 136.0
703.152588 136.0
703.205566 124.0
703.327271 1872.0
703.519409 104.0
703.613464 216.0
703.673035 124.0
703.751709 84.0
703.909729 216.0
704.073853 84.0
704.142151 56.0
704.318115 1376.0
704.40509 224.0
704.502197 124.0
704.554565 60.0
704.596802 72.0
704.716736 128.0
704.766907 120.0
704.837891 140.0
704.917053 100.0
704.959595 152.0
705.069031 88.0
705.123413 104.0
705.181396 116.0
705.31012 536.0
705.447693 108.0
705.48999 300.0
705.525452 108.0
705.713684 160.0
705.799194 144.0
705.849548 108.0
705.893738 88.0
705.950012 160.0
706.021729 216.0
706.16272 92.0
706.314392 240.0
706.405334 96.0
706.468384 108.0
706.529053 124.0
706.611694 88.0
706.713501 184.0
706.838745 116.0
706.912842 120.0
706.946228 88.0
707.049744 92.0
707.090149 72.0
707.129639 112.0
707.262146 76.0
707.309814 316.0
707.372864 132.0
707.468628 144.0
707.553345 52.0
707.627441 92.0
707.790405 88.0
707.92926 52.0
708.035217 104.0
708.082886 80.0
708.183533 184.0
708.239258 92.0
708.324158 276.0
708.460388 136.0
708.501343 156.0
708.6073 88.0
708.739807 144.0
708.782166 88.0
708.824585 108.0
708.917664 96.0
709.037354 236.0
709.12085 124.0
709.258118 132.0
709.353882 608.0
709.454468 172.0
709.509033 124.0
709.545471 204.0
709.633728 96.0
709.686401 68.0
709.729431 132.0
709.805237 36.0
709.884827 112.0
709.927246 92.0
710.081055 128.0
710.213623 116.0
710.25177 220.0
710.354919 376.0
710.521301 104.0
710.569092 108.0
710.614014 112.0
710.726501 148.0
710.802551 64.0
710.855591 72.0
710.952026 168.0
711.046692 52.0
711.094421 140.0
711.16748 68.0
711.221863 84.0
711.306763 308.0
711.382629 236.0
711.651855 100.0
711.809082 112.0
711.864258 148.0
712.00769 96.0
712.092651 28.0
712.318848 3240.0
712.487183 120.0
712.578735 152.0
712.68457 104.0
712.764221 156.0
712.849121 176.0
712.898682 108.0
712.973267 160.0
713.04071 128.0
713.139099 72.0
713.196777 224.0
713.308777 1020.0
713.438416 168.0
713.502319 132.0
713.620422 164.0
713.676331 68.0
713.782898 96.0
713.872803 144.0
713.925903 160.0
713.966309 60.0
714.149658 60.0
714.304871 3016.0
714.473267 148.0
714.543335 128.0
714.587524 52.0
714.637207 172.0
714.745483 48.0
714.825317 252.0
714.910706 88.0
714.97522 216.0
715.022217 168.0
715.084045 188.0
715.195496 88.0
715.307922 4880.0
715.482666 96.0
715.586487 36.0
715.63446 100.0
715.687683 236.0
715.746033 100.0
715.834839 132.0
715.884705 152.0
715.94696 52.0
716.004089 68.0
716.098511 324.0
716.176697 112.0
716.313416 6932.0
716.45343 192.0
716.540649 228.0
716.59967 396.0
716.686523 108.0
716.746765 132.0
716.790344 108.0
716.866699 80.0
716.903931 192.0
716.9776 296.0
717.099426 48.0
717.145203 116.0
717.318604 2980.0
717.405273 160.0
717.506042 164.0
717.541565 60.0
717.552063 40.0
717.585266 108.0
717.623962 132.0
717.670654 28.0
717.708801 112.0
717.847717 68.0
717.984497 32.0
718.047485 84.0
718.112488 40.0
718.220398 72.0
718.323914 1156.0
718.492493 156.0
718.571289 64.0
718.734619 132.0
718.779419 108.0
718.853638 252.0
718.914429 144.0
718.979736 168.0
719.029297 112.0
719.163269 120.0
719.223572 160.0
719.380493 2788.0
719.508484 64.0
719.60144 72.0
719.825684 40.0
719.867493 112.0
719.909241 56.0
719.991272 84.0
720.041077 148.0
720.076843 104.0
720.16217 140.0
720.220947 56.0
720.386108 1076.0
720.540527 112.0
720.609924 252.0
720.657654 160.0
720.708679 164.0
720.778381 136.0
720.875732 152.0
720.930054 72.0
721.019165 104.0
721.091858 96.0
721.134644 28.0
721.225525 140.0
721.383118 444.0
721.493408 140.0
721.540894 108.0
721.655273 220.0
721.861755 88.0
722.016846 48.0
722.187988 100.0
722.382324 324.0
722.487549 92.0
722.556702 56.0
722.684448 120.0
722.744385 60.0
722.789307 80.0
722.920959 140.0
722.985657 140.0
723.061157 104.0
723.153809 160.0
723.21698 92.0
723.274231 192.0
723.34314 64.0
723.356567 104.0
723.400269 136.0
723.539917 192.0
723.668396 160.0
723.815002 140.0
723.936218 144.0
724.040222 72.0
724.085449 120.0
724.152405 56.0
724.317017 336.0
724.437012 116.0
724.511292 124.0
724.580933 136.0
724.618469 116.0
724.693481 80.0
724.75238 112.0
724.79126 160.0
724.891724 88.0
725.036438 120.0
725.088806 212.0
725.161438 124.0
725.317017 136.0
725.398804 428.0
725.509399 100.0
725.556091 80.0
725.585022 152.0
725.685059 120.0
725.867371 140.0
725.990723 108.0
726.031128 104.0
726.14856 132.0
726.248169 188.0
726.339539 472.0
726.526611 80.0
726.596863 32.0
726.655884 60.0
726.713257 232.0
726.811462 88.0
726.84906 144.0
726.940308 116.0
727.015442 132.0
727.063721 96.0
727.16571 80.0
727.221924 212.0
727.380188 464.0
727.611267 96.0
727.829285 144.0
727.971008 100.0
728.246826 164.0
728.348694 492.0
728.513245 80.0
728.582336 104.0
728.669312 84.0
728.749939 48.0
728.787537 72.0
728.927246 124.0
728.999512 112.0
729.068298 96.0
729.175903 132.0
729.330505 616.0
729.374023 208.0
729.515137 148.0
729.572266 60.0
729.635071 116.0
729.709229 108.0
729.781921 120.0
729.824951 44.0
729.900208 52.0
729.975525 112.0
730.018555 76.0
730.117615 172.0
730.330078 11568.0
730.51416 164.0
730.555298 116.0
730.594055 84.0
730.663757 180.0
730.827332 188.0
730.887878 252.0
730.952576 148.0
731.057617 140.0
731.092957 56.0
731.103149 144.0
731.166138 140.0
731.334229 4636.0
731.573547 56.0
731.624023 124.0
731.683167 60.0
731.772034 120.0
731.822937 64.0
731.922913 104.0
732.009399 76.0
732.021667 72.0
732.039185 92.0
732.086182 84.0
732.144348 220.0
732.244202 144.0
732.342468 2912.0
732.454956 60.0
732.480103 176.0
732.583313 120.0
732.675476 204.0
732.714905 180.0
732.887756 68.0
732.928589 76.0
733.027832 32.0
733.094604 136.0
733.162598 168.0
733.221863 100.0
733.34259 852.0
733.475586 72.0
733.534485 192.0
733.650696 108.0
733.699158 52.0
733.73938 32.0
733.843872 136.0
733.893616 132.0
733.964478 176.0
734.078369 160.0
734.219299 112.0
734.324951 420.0
734.404114 400.0
734.450378 80.0
734.579407 160.0
734.645447 40.0
734.737122 128.0
734.776733 140.0
734.815186 120.0
734.933533 120.0
735.006897 60.0
735.101074 268.0
735.179626 148.0
735.222778 208.0
735.270752 104.0
735.333374 132.0
735.475586 296.0
735.516785 188.0
735.643799 132.0
735.71936 156.0
735.800354 40.0
735.85614 132.0
735.900208 176.0
735.932129 148.0
736.017822 128.0
736.157959 76.0
736.210754 64.0
736.295166 108.0
736.340881 156.0
736.405212 68.0
736.470032 76.0
736.529419 44.0
736.596985 64.0
736.702026 156.0
736.772522 80.0
736.823242 104.0
736.880615 124.0
736.932495 144.0
737.023254 136.0
737.169373 144.0
737.189392 108.0
737.206116 212.0
737.295044 104.0
737.389526 12416.0
737.544067 280.0
737.629822 164.0
737.702698 140.0
737.766968 68.0
737.81134 132.0
737.862732 128.0
737.98291 64.0
737.996338 208.0
738.042419 128.0
738.188721 104.0
738.255676 152.0
738.393311 5376.0
738.480408 220.0
738.504578 40.0
738.514771 164.0
738.630859 112.0
738.665588 92.0
738.726074 136.0
738.781128 272.0
738.826965 60.0
738.986816 136.0
739.070435 44.0
739.123413 180.0
739.144836 48.0
739.158752 144.0
739.241699 88.0
739.388916 1296.0
739.48584 48.0
739.535889 100.0
739.692871 92.0
739.801147 96.0
739.849854 144.0
739.887756 40.0
739.955078 112.0
740.031433 148.0
740.080566 204.0
740.22168 120.0
740.329834 184.0
740.397156 416.0
740.51593 80.0
740.559265 28.0
740.625183 116.0
740.723267 156.0
740.836182 196.0
740.886658 156.0
740.933044 92.0
740.979309 60.0
741.026001 52.0
741.111877 40.0
741.328979 296.0
741.402893 416.0
741.504639 124.0
741.581909 136.0
741.634766 116.0
741.706116 136.0
741.794739 164.0
741.961365 120.0
742.022827 104.0
742.199158 108.0
742.330139 1016.0
742.411987 140.0
742.481506 216.0
742.521362 128.0
742.569885 76.0
742.73291 76.0
742.81427 48.0
742.865356 48.0
742.93103 92.0
742.944885 48.0
742.99292 136.0
743.008423 80.0
743.026611 128.0
743.083557 244.0
743.153198 92.0
743.222107 188.0
743.259155 244.0
743.343872 396.0
743.410645 212.0
743.509583 128.0
743.582458 112.0
743.653809 128.0
743.763916 44.0
743.888733 148.0
743.981018 124.0
744.059021 156.0
744.125854 180.0
744.347595 1804.0
744.466736 252.0
744.586853 128.0
744.686951 80.0
744.751892 92.0
744.793884 276.0
744.865479 168.0
744.991699 168.0
745.065002 116.0
745.109009 76.0
745.175903 116.0
745.236206 84.0
745.345459 836.0
745.449219 136.0
745.499817 92.0
745.583435 60.0
745.838928 76.0
745.947266 104.0
745.960632 92.0
745.981689 124.0
746.034607 92.0
746.121643 228.0
746.164307 84.0
746.219788 104.0
746.322998 1064.0
746.502258 152.0
746.540283 124.0
746.613403 92.0
746.689941 164.0
746.752441 48.0
746.955322 228.0
747.044983 172.0
747.124451 132.0
747.223938 136.0
747.240051 164.0
747.329468 1136.0
747.403198 140.0
747.476013 56.0
747.535522 132.0
747.652161 120.0
747.764465 40.0
747.813416 236.0
747.895569 136.0
747.939453 224.0
748.003967 108.0
748.067627 104.0
748.11615 176.0
748.195312 136.0
748.331238 1088.0
748.461304 80.0
748.521179 92.0
748.584534 176.0
748.68634 140.0
748.758179 240.0
748.893127 204.0
748.989563 64.0
749.136414 168.0
749.344421 420.0
749.492126 148.0
749.567078 28.0
749.643372 116.0
749.735901 108.0
749.87561 132.0
749.943176 176.0
750.044067 188.0
750.053833 92.0
750.123047 92.0
750.187195 64.0
750.253906 80.0
750.348816 176.0
750.444702 224.0
750.507324 124.0
750.580017 108.0
750.632812 252.0
750.720459 168.0
750.785095 192.0
750.905701 104.0
750.993347 72.0
751.045532 48.0
751.07019 52.0
751.123108 96.0
751.166565 112.0
751.232483 128.0
751.296875 116.0
751.397766 556.0
751.473999 112.0
751.489441 128.0
751.532104 180.0
751.595154 136.0
751.667847 68.0
751.739075 100.0
751.793457 112.0
751.939453 48.0
751.993042 108.0
752.109924 204.0
752.176025 200.0
752.258789 140.0
752.406555 572.0
752.466492 80.0
752.491882 80.0
752.612488 156.0
752.642639 84.0
752.650635 208.0
752.727234 80.0
752.820618 80.0
752.864441 168.0
752.910522 56.0
752.945557 144.0
752.989441 116.0
753.034851 260.0
753.067932 244.0
753.18927 152.0
753.258423 128.0
753.314392 140.0
753.381897 240.0
753.428955 208.0
753.501282 136.0
753.544983 48.0
753.604187 88.0
753.667786 84.0
753.721558 96.0
753.768188 116.0
753.805481 136.0
753.916565 116.0
753.996887 108.0
754.029785 256.0
754.066528 72.0
754.091003 208.0
754.125244 108.0
754.187317 104.0
754.247986 84.0
754.291382 172.0
754.382996 304.0
754.421143 240.0
754.442688 144.0
754.509155 260.0
754.561584 188.0
754.624878 116.0
754.695679 156.0
754.779541 96.0
754.817322 228.0
754.864197 184.0
754.883118 252.0
754.927795 160.0
754.963074 408.0
754.979553 128.0
754.999756 592.0
755.042786 76.0
755.078186 144.0
755.153748 180.0
755.241272 536.0
755.400146 94036.0
755.559265 428.0
755.627991 172.0
755.669556 208.0
755.731567 200.0
755.7948 120.0
755.860107 48.0
755.934875 212.0
755.991211 292.0
756.069763 340.0
756.121826 168.0
756.195435 188.0
756.238647 164.0
756.297791 236.0
756.403564 42060.0
756.560303 252.0
756.605469 284.0
756.626587 84.0
756.648499 172.0
756.699585 228.0
756.759033 252.0
756.814148 76.0
756.873718 168.0
756.894165 92.0
756.916626 232.0
757.005188 84.0
757.076965 316.0
757.145142 316.0
757.22113 232.0
757.281128 132.0
757.405334 11340.0
757.561279 116.0
757.632507 260.0
757.706482 228.0
757.767578 128.0
757.827576 128.0
757.844482 156.0
757.897705 44.0
757.941833 108.0
757.980469 160.0
758.029236 68.0
758.112488 76.0
758.189148 100.0
758.242981 104.0
758.28186 80.0
758.405518 1836.0
758.496704 76.0
758.553955 84.0
758.604492 168.0
758.681396 164.0
758.747925 96.0
758.818481 152.0
758.879883 88.0
758.936462 100.0
758.977539 72.0
759.033569 144.0
759.118774 48.0
759.218201 140.0
759.26239 208.0
759.337036 80.0
759.399292 564.0
759.595215 60.0
759.639404 136.0
759.715759 228.0
759.80957 148.0
759.896301 152.0
759.976501 208.0
760.038635 240.0
760.088257 176.0
760.133423 136.0
760.177612 120.0
760.231384 72.0
760.374023 444.0
760.507263 280.0
760.560608 152.0
760.640259 88.0
760.688354 164.0
760.801941 120.0
760.903564 212.0
760.945068 52.0
760.961975 68.0
761.054504 148.0
761.089111 144.0
761.135803 104.0
761.200378 224.0
761.392273 436.0
761.53009 112.0
761.582153 104.0
761.676819 76.0
761.73468 160.0
761.834412 104.0
761.890503 92.0
761.963623 116.0
762.037659 56.0
762.122192 220.0
762.154846 88.0
762.237 196.0
762.358582 2164.0
762.503235 84.0
762.516174 60.0
762.645386 76.0
762.699829 52.0
762.757629 36.0
762.907104 176.0
762.963623 172.0
763.052368 144.0
763.093018 72.0
763.207153 188.0
763.359131 1128.0
763.472412 120.0
763.524353 36.0
763.631958 116.0
763.826111 80.0
763.890442 64.0
763.943481 88.0
764.100952 156.0
764.169739 228.0
764.271118 136.0
764.365173 368.0
764.432312 84.0
764.495728 68.0
764.544006 100.0
764.623352 64.0
764.667908 84.0
764.710388 124.0
764.748901 112.0
764.86261 172.0
765.076538 108.0
765.154175 116.0
765.21875 96.0
765.36908 112.0
765.437073 116.0
765.48114 96.0
765.541687 124.0
765.651855 40.0
765.695923 52.0
765.817078 48.0
765.96582 120.0
766.059448 96.0
766.103577 156.0
766.153137 144.0
766.193665 56.0
766.261719 112.0
766.375488 212.0
766.566406 100.0
766.787659 176.0
766.875 92.0
767.187317 240.0
767.280762 120.0
767.384705 132.0
767.437317 96.0
767.498535 164.0
767.630371 76.0
767.685486 40.0
767.757202 92.0
767.862 88.0
767.944702 76.0
768.010925 112.0
768.082642 88.0
768.179504 136.0
768.237061 72.0
768.308777 108.0
768.388794 88.0
768.446716 164.0
768.564209 140.0
768.706055 48.0
768.759766 164.0
769.00293 76.0
769.064819 88.0
769.134338 108.0
769.201111 228.0
769.283752 116.0
769.321838 240.0
769.4104 2440.0
769.538513 100.0
769.594849 92.0
769.707825 136.0
769.803284 48.0
769.86969 180.0
769.970337 112.0
770.033447 84.0
770.147095 136.0
770.243958 300.0
770.412292 1572.0
770.793518 100.0
770.865967 36.0
770.948242 108.0
771.086426 172.0
771.159546 128.0
771.248779 104.0
771.327515 200.0
771.350769 164.0
771.419495 708.0
771.669312 108.0
771.737 104.0
771.854858 96.0
771.91748 124.0
771.9599 48.0
772.037354 60.0
772.114746 60.0
772.164551 48.0
772.272949 60.0
772.358521 772.0
772.457397 364.0
772.546021 104.0
772.614807 140.0
772.679016 88.0
772.811829 84.0
772.872681 112.0
773.024963 160.0
773.070312 140.0
773.121704 52.0
773.204712 88.0
773.276672 128.0
773.387512 564.0
773.567261 136.0
773.619873 40.0
773.753296 144.0
773.934021 188.0
774.068359 92.0
774.107117 68.0
774.161194 124.0
774.225708 96.0
774.29541 128.0
774.363098 364.0
774.415161 508.0
774.494812 136.0
774.578857 92.0
774.617615 196.0
774.797363 184.0
774.905945 120.0
774.976807 88.0
775.065491 64.0
775.137512 64.0
775.220642 76.0
775.287109 68.0
775.360901 148.0
775.412659 128.0
775.431641 120.0
775.558716 52.0
775.613464 96.0
775.67511 152.0
775.774902 68.0
775.813721 116.0
775.885803 92.0
775.929871 124.0
775.969666 108.0
776.048218 108.0
776.179688 132.0
776.246216 80.0
776.369141 96.0
776.429199 72.0
776.567871 36.0
776.672241 108.0
776.725952 112.0
776.781555 96.0
776.911804 88.0
776.964355 92.0
777.100464 116.0
777.178162 116.0
777.240112 120.0
777.283569 116.0
777.333496 128.0
777.400085 68.0
777.494446 36.0
777.605469 52.0
777.692017 128.0
777.833069 56.0
777.882996 136.0
777.946472 120.0
778.229065 208.0
778.312988 116.0
778.424622 184.0
778.504883 96.0
778.579834 44.0
778.656311 148.0
778.749268 84.0
778.794861 340.0
778.865906 152.0
779.008972 80.0
779.074707 136.0
779.182556 96.0
779.293701 84.0
779.399414 2748.0
779.543762 108.0
779.597534 136.0
779.72467 160.0
779.77948 76.0
779.866089 48.0
779.988586 124.0
780.044006 156.0
780.121826 56.0
780.171814 160.0
780.221863 80.0
780.282288 120.0
780.406128 1516.0
780.510986 116.0
780.583496 128.0
780.650024 60.0
780.724609 108.0
780.800171 84.0
780.850281 108.0
780.970764 108.0
780.988953 132.0
781.009766 160.0
781.083862 64.0
781.280334 116.0
781.396545 424.0
781.50116 112.0
781.668091 320.0
781.805847 100.0
781.93573 88.0
782.057678 228.0
782.233093 108.0
782.302612 84.0
782.375244 148.0
782.388184 108.0
782.413757 288.0
782.518311 140.0
782.596313 144.0
782.692322 160.0
782.781433 200.0
782.818054 104.0
782.876099 44.0
783.004211 48.0
783.054321 56.0
783.09198 128.0
783.321716 40.0
783.400635 144.0
783.475159 80.0
783.578003 32.0
783.678284 108.0
783.77301 72.0
783.862183 100.0
783.995911 120.0
784.092834 324.0
784.157532 80.0
784.257263 136.0
784.374695 88.0
784.480835 112.0
784.613525 272.0
784.712646 112.0
784.901062 152.0
784.954773 56.0
785.010559 64.0
785.088623 76.0
785.172302 156.0
785.23175 88.0
785.314636 108.0
785.364929 112.0
785.410583 108.0
785.490234 56.0
785.563416 128.0
785.735718 124.0
785.836121 72.0
786.008972 180.0
786.169495 236.0
786.2323 144.0
786.336731 68.0
786.394653 176.0
786.437561 124.0
786.523621 108.0
786.767212 220.0
786.865906 140.0
786.944397 112.0
787.04364 96.0
787.171631 128.0
787.251282 148.0
787.287476 64.0
787.423645 6572.0
787.543518 136.0
787.56842 196.0
787.656128 96.0
787.736206 84.0
787.851685 64.0
787.94104 116.0
788.032104 140.0
788.120972 108.0
788.164551 128.0
788.300842 144.0
788.425903 4440.0
788.607483 80.0
788.724365 72.0
788.812622 156.0
788.863403 116.0
788.939148 72.0
788.998291 120.0
789.072205 96.0
789.12323 140.0
789.193054 68.0
789.293701 88.0
789.432617 1396.0
789.528625 104.0
789.60083 92.0
789.72998 80.0
789.790894 156.0
789.842896 84.0
789.944397 108.0
790.014282 92.0
790.113708 120.0
790.182373 152.0
790.272644 104.0
790.350098 76.0
790.429565 700.0
790.51123 100.0
790.569214 92.0
790.653137 60.0
790.709106 88.0
790.748291 40.0
790.840271 120.0
790.902771 148.0
790.949829 112.0
790.998047 176.0
791.121399 92.0
791.187866 84.0
791.249756 48.0
791.304199 128.0
791.362061 100.0
791.419434 244.0
791.576904 220.0
791.644104 40.0
791.716858 100.0
791.784119 88.0
791.940918 140.0
792.037354 168.0
792.130981 112.0
792.210388 116.0
792.288269 128.0
792.366699 152.0
792.423767 148.0
792.493408 84.0
792.562805 100.0
792.680237 96.0
792.868286 140.0
792.921448 40.0
793.039185 80.0
793.13446 72.0
793.184875 120.0
793.229736 124.0
793.285828 124.0
793.397949 48.0
793.44281 164.0
793.522156 104.0
793.624084 132.0
793.67804 92.0
793.780212 132.0
793.896973 96.0
794.235657 136.0
794.269592 92.0
794.537964 68.0
794.710388 84.0
794.749634 64.0
794.867493 84.0
794.923584 232.0
795.063477 144.0
795.131287 72.0
795.254761 48.0
795.403503 64.0
795.501709 128.0
795.611206 320.0
795.708984 112.0
795.770996 100.0
795.827393 164.0
795.920227 104.0
796.112244 132.0
796.126831 196.0
796.181152 80.0
796.299133 144.0
796.381348 132.0
796.448486 108.0
796.529419 32.0
796.575378 44.0
796.685791 100.0
796.754333 108.0
796.857727 136.0
796.920593 132.0
796.942932 180.0
797.018188 92.0
797.068787 148.0
797.119934 76.0
797.221558 168.0
797.268738 248.0
797.409729 18052.0
797.520874 268.0
797.582581 104.0
797.632629 136.0
797.762207 120.0
797.857178 212.0
797.898315 124.0
797.955322 108.0
798.029968 48.0
798.097473 128.0
798.156616 124.0
798.203186 84.0
798.2453 144.0
798.300598 100.0
798.411011 7352.0
798.536621 232.0
798.597107 208.0
798.678101 308.0
798.747498 124.0
798.786926 156.0
798.882141 108.0
798.939331 120.0
798.989502 80.0
799.011841 84.0
799.028503 128.0
799.110657 92.0
799.187073 108.0
799.238953 124.0
799.418579 2064.0
799.581665 168.0
799.68396 96.0
799.728943 156.0
799.796509 60.0
799.858643 72.0
799.96637 232.0
800.026367 48.0
800.145569 60.0
800.237854 72.0
800.33136 136.0
800.406189 604.0
800.494385 88.0
800.512634 84.0
800.584778 188.0
800.674866 128.0
800.768494 224.0
800.808472 72.0
800.855103 140.0
800.92926 76.0
800.987793 84.0
801.029724 140.0
801.066345 88.0
801.119263 148.0
801.205994 196.0
801.270752 144.0
801.333984 108.0
801.443298 240.0
801.492798 216.0
801.533264 132.0
801.641785 116.0
801.694641 52.0
801.739685 88.0
801.801392 68.0
801.837952 88.0
801.961121 172.0
802.060974 140.0
802.117859 180.0
802.157715 272.0
802.252014 72.0
802.307983 92.0
802.352173 80.0
802.421814 108.0
802.490112 292.0
802.600098 128.0
802.696716 84.0
802.782349 136.0
802.895447 148.0
802.943604 60.0
803.055664 60.0
803.101868 108.0
803.160645 212.0
803.289246 84.0
803.341064 92.0
803.402832 76.0
803.47937 116.0
803.572693 76.0
803.619385 184.0
803.698547 180.0
803.758606 176.0
803.831787 116.0
803.891052 100.0
803.947083 140.0
803.995605 76.0
804.035156 56.0
804.08075 52.0
804.176208 92.0
804.30072 80.0
804.384399 68.0
804.431519 236.0
804.46759 136.0
804.511475 92.0
804.63678 96.0
804.781372 312.0
804.853882 136.0
804.918518 92.0
804.952759 120.0
804.993835 252.0
805.003784 84.0
805.090881 104.0
805.182434 96.0
805.252014 136.0
805.300598 132.0
805.411377 200.0
805.491943 80.0
805.630798 68.0
805.678345 196.0
805.71936 88.0
805.822327 176.0
805.966492 212.0
806.015503 156.0
806.106079 40.0
806.195496 160.0
806.27301 120.0
806.33606 72.0
806.395996 212.0
806.448486 292.0
806.514709 56.0
806.576904 48.0
806.640564 76.0
806.719543 108.0
806.764038 152.0
806.826294 400.0
806.944763 84.0
807.001221 88.0
807.076172 244.0
807.110291 116.0
807.227661 80.0
807.357361 124.0
807.42749 112.0
807.490173 108.0
807.552246 140.0
807.606018 136.0
807.695923 72.0
807.823242 68.0
807.903503 168.0
807.92688 128.0
807.969727 168.0
808.017639 520.0
808.081238 100.0
808.125854 108.0
808.166138 188.0
808.257202 84.0
808.284668 88.0
808.309021 80.0
808.324951 108.0
808.370483 36.0
808.436401 288.0
808.489685 120.0
808.526367 76.0
808.69812 120.0
808.787231 172.0
808.898804 220.0
809.000977 112.0
809.022644 204.0
809.135803 112.0
809.227417 56.0
809.304626 96.0
809.371826 232.0
809.423828 176.0
809.519531 160.0
809.561218 144.0
809.627502 160.0
809.688965 72.0
809.751221 56.0
809.820801 92.0
809.857971 184.0
809.93634 108.0
810.011292 160.0
810.023499 84.0
810.104492 172.0
810.150391 212.0
810.195679 160.0
810.266724 64.0
810.376953 116.0
810.425964 152.0
810.467651 60.0
810.523987 128.0
810.578186 104.0
810.590942 100.0
810.632996 136.0
810.701904 176.0
810.756775 152.0
810.827332 52.0
810.935913 96.0
810.999207 160.0
811.104065 80.0
811.155212 168.0
811.259277 308.0
811.330078 52.0
811.42334 456.0
811.493774 112.0
811.550903 92.0
811.601318 92.0
811.645996 144.0
811.706116 176.0
811.758606 80.0
811.810059 168.0
811.916077 172.0
811.9776 180.0
812.032227 184.0
812.072876 212.0
812.213867 376.0
812.290588 136.0
812.429749 280.0
812.515259 208.0
812.59845 196.0
812.615662 140.0
812.639465 232.0
812.70343 124.0
812.785828 436.0
812.80719 100.0
812.832825 264.0
812.847961 224.0
812.890442 204.0
812.973633 108.0
813.012512 252.0
813.08551 224.0
813.183228 168.0
813.260742 280.0
813.299194 244.0
813.314392 180.0
813.358154 172.0
813.407654 356.0
813.46991 252.0
813.532959 176.0
813.552551 128.0
813.597595 216.0
813.662354 252.0
813.748291 120.0
813.770569 320.0
813.816223 112.0
813.823914 280.0
813.895935 96.0
813.945374 340.0
814.055664 404.0
814.110718 336.0
814.162537 188.0
814.220337 312.0
814.241821 196.0
814.253296 120.0
814.343933 336.0
814.391541 312.0
814.405029 332.0
814.456421 320.0
814.517212 208.0
814.529602 216.0
814.592224 384.0
814.667358 268.0
814.677734 344.0
814.736328 436.0
814.762085 152.0
814.774475 384.0
814.862 440.0
814.912476 500.0
814.999939 560.0
815.075134 588.0
815.112427 1112.0
815.21283 936.0
815.314453 956.0
815.423523 258448.0
815.606689 216.0
815.687195 152.0
815.838745 428.0
815.940979 664.0
816.015869 616.0
816.08667 580.0
816.179199 436.0
816.237 564.0
816.257629 544.0
816.277832 376.0
816.299438 616.0
816.426025 211108.0
816.665649 204.0
816.817017 288.0
816.891296 440.0
816.952209 564.0
817.058411 396.0
817.101379 344.0
817.145569 272.0
817.184753 300.0
817.238708 180.0
817.279846 444.0
817.427368 51560.0
817.575317 112.0
817.660767 192.0
817.700317 152.0
817.751831 152.0
817.83429 380.0
817.907959 236.0
817.956848 328.0
818.060852 180.0
818.098755 272.0
818.2005 244.0
818.283264 256.0
818.30304 168.0
818.427246 9424.0
818.582581 84.0
818.65094 68.0
818.668457 304.0
818.694397 96.0
818.714661 372.0
818.756104 156.0
818.810425 256.0
818.870239 252.0
818.965332 96.0
819.033936 176.0
819.095215 104.0
819.141968 288.0
819.206299 76.0
819.254211 280.0
819.318726 264.0
819.342651 168.0
819.426025 960.0
819.596741 296.0
819.689941 280.0
819.75708 172.0
819.815552 204.0
819.893433 204.0
819.957886 208.0
820.020325 284.0
820.102356 172.0
820.154968 292.0
820.18811 176.0
820.314392 176.0
820.429443 208.0
820.536499 408.0
820.621826 380.0
820.695679 296.0
820.767822 228.0
820.865723 176.0
820.986389 356.0
821.030212 200.0
821.042786 204.0
821.098755 292.0
821.204102 248.0
821.304443 200.0
821.361328 284.0
821.442932 148.0
821.463684 180.0
821.504456 288.0
821.559387 116.0
821.615234 148.0
821.672791 52.0
821.697021 180.0
821.744812 184.0
821.766602 176.0
821.840149 208.0
821.941833 240.0
822.079834 116.0
822.157776 144.0
822.214966 176.0
822.274048 124.0
822.319885 116.0
822.376587 116.0
822.423035 152.0
822.491455 160.0
822.620972 148.0
822.705505 116.0
822.81665 128.0
822.867615 128.0
822.902954 128.0
822.940552 108.0
823.013367 36.0
823.092224 80.0
823.166626 144.0
823.237549 120.0
823.285034 56.0
823.383301 72.0
823.435425 80.0
823.474365 156.0
823.541687 40.0
823.588318 60.0
823.636414 48.0
823.70105 108.0
823.818054 112.0
823.874634 56.0
823.899597 96.0
823.940186 100.0
824.01355 116.0
824.081543 156.0
824.135437 120.0
824.19165 116.0
824.243591 44.0
824.347046 128.0
824.395813 160.0
824.445374 120.0
824.551697 72.0
824.634399 108.0
824.720459 60.0
824.835938 60.0
824.921692 32.0
824.973145 56.0
825.037598 44.0
825.154663 48.0
825.228882 164.0
825.310486 40.0
825.359497 56.0
825.428345 84.0
825.536194 68.0
825.580994 72.0
825.630737 48.0
825.693604 44.0
825.807983 60.0
825.895569 64.0
826.002502 72.0
826.086243 64.0
826.141235 84.0
826.191284 56.0
826.231323 36.0
826.314575 44.0
826.356628 80.0
826.46637 52.0
826.56012 64.0
826.643311 28.0
826.729187 44.0
826.774963 32.0
826.842957 68.0
826.855347 80.0
827.004883 88.0
827.112671 48.0
827.22522 96.0
827.347351 60.0
827.479065 168.0
827.61792 48.0
827.662292 76.0
827.754333 52.0
827.851257 152.0
827.931641 120.0
828.033752 60.0
828.104919 140.0
828.241699 144.0
828.396912 120.0
828.464111 136.0
828.624268 192.0
828.733398 96.0
828.93396 76.0
828.974121 128.0
829.027649 92.0
829.174255 52.0
829.330444 208.0
829.432678 1972.0
829.562195 112.0
829.647705 88.0
829.719238 48.0
829.793823 36.0
829.86261 52.0
829.923279 120.0
829.94458 136.0
829.994507 128.0
830.080505 40.0
830.223877 32.0
830.438721 1156.0
830.57373 120.0
830.622559 204.0
830.740112 64.0
830.796936 40.0
830.954407 80.0
831.080627 68.0
831.176147 28.0
831.2229 56.0
831.265442 100.0
831.34259 76.0
831.399719 208.0
831.443787 576.0
831.554932 48.0
831.692688 48.0
831.767334 128.0
832.02655 52.0
832.083069 72.0
832.163452 168.0
832.209412 104.0
832.275452 88.0
832.318481 100.0
832.407837 232.0
832.454773 212.0
832.507996 124.0
832.663086 68.0
832.763855 44.0
832.87561 48.0
832.944519 72.0
833.04303 192.0
833.069275 84.0
833.082397 84.0
833.237549 52.0
833.375427 100.0
833.459045 152.0
833.559326 96.0
833.628235 72.0
833.725952 40.0
833.84668 88.0
833.886902 88.0
834.111084 176.0
834.151306 104.0
834.432983 112.0
834.502014 64.0
834.565247 52.0
834.611267 28.0
834.684265 92.0
834.855713 172.0
834.944824 80.0
835.003784 60.0
835.077087 88.0
835.151855 88.0
835.222717 88.0
835.318665 60.0
835.437256 88.0
835.487671 108.0
835.589111 68.0
835.640869 76.0
835.69574 96.0
835.838196 124.0
835.885498 132.0
835.951599 176.0
836.032166 36.0
836.249512 68.0
836.391907 192.0
836.499939 76.0
836.619263 64.0
836.739624 80.0
836.816956 132.0
836.880981 84.0
836.941711 124.0
837.019226 44.0
837.0672 96.0
837.198303 116.0
837.269958 44.0
837.367859 60.0
837.558838 52.0
837.629028 96.0
837.701233 128.0
837.843506 92.0
837.916626 108.0
837.96698 100.0
838.030396 68.0
838.226318 48.0
838.2724 44.0
838.368103 96.0
838.414856 100.0
838.526001 92.0
838.589417 44.0
838.641235 120.0
838.706299 140.0
838.744995 96.0
838.843018 108.0
838.903809 88.0
838.978516 48.0
839.033264 120.0
839.102478 88.0
839.23761 128.0
839.293762 44.0
839.431152 120.0
839.494568 84.0
839.597107 108.0
839.614319 84.0
839.67334 120.0
839.719482 76.0
839.806274 84.0
839.869446 64.0
839.939941 56.0
840.01947 112.0
840.065613 172.0
840.151001 60.0
840.209839 44.0
840.336975 116.0
840.382935 76.0
840.47522 96.0
840.520508 124.0
840.59259 60.0
840.659912 92.0
840.71759 108.0
840.781128 124.0
840.844604 100.0
840.979248 120.0
841.104309 112.0
841.249695 116.0
841.367249 140.0
841.458374 172.0
841.560425 56.0
841.693237 80.0
841.741821 68.0
841.8479 136.0
841.909668 84.0
842.045654 152.0
842.10907 100.0
842.207275 88.0
842.297913 80.0
842.321777 92.0
842.557617 60.0
842.640503 160.0
842.698303 108.0
842.771667 104.0
842.871643 48.0
843.037537 96.0
843.107056 104.0
843.183716 48.0
843.277832 212.0
843.379944 76.0
843.472717 40.0
843.52478 120.0
843.594116 92.0
843.744446 60.0
843.813843 52.0
843.917908 184.0
843.990417 148.0
844.050903 72.0
844.107056 56.0
844.217468 180.0
844.262573 100.0
844.313782 132.0
844.384766 132.0
844.435974 116.0
844.507812 112.0
844.560608 96.0
844.613098 256.0
844.703491 120.0
844.785461 48.0
844.850525 128.0
844.92511 112.0
844.982178 64.0
845.144165 116.0
845.190491 84.0
845.247375 120.0
845.28595 112.0
845.38147 64.0
845.429565 152.0
845.500061 80.0
845.599365 240.0
845.663269 100.0
845.717102 136.0
845.755188 128.0
845.876404 96.0
845.919739 44.0
845.994019 172.0
846.093445 28.0
846.15686 104.0
846.235779 68.0
846.294434 268.0
846.375183 152.0
846.422058 100.0
846.432007 76.0
846.474915 244.0
846.645996 148.0
846.74054 64.0
846.872314 240.0
847.025208 164.0
847.09845 232.0
847.169067 240.0
847.183655 160.0
847.276489 208.0
847.448669 59632.0
847.671387 160.0
847.718201 100.0
847.758606 144.0
847.806213 180.0
847.9729 36.0
847.984253 68.0
848.042847 200.0
848.094055 48.0
848.197632 188.0
848.285339 80.0
848.331116 144.0
848.343628 196.0
848.450806 28940.0
848.622864 312.0
848.707275 176.0
848.75293 120.0
848.861084 104.0
848.996887 156.0
849.106262 52.0
849.197632 124.0
849.251404 248.0
849.27063 256.0
849.343689 104.0
849.450256 7496.0
849.602478 136.0
849.679443 132.0
849.763245 164.0
849.809143 92.0
849.888977 88.0
849.956848 88.0
849.997864 172.0
850.093689 100.0
850.139587 156.0
850.286011 212.0
850.457458 2024.0
850.605835 72.0
850.65387 76.0
850.719849 84.0
850.800598 124.0
850.90564 56.0
851.026978 152.0
851.129333 76.0
851.169128 140.0
851.230835 120.0
851.282227 164.0
851.32373 56.0
851.454712 188.0
851.595642 128.0
851.671082 80.0
851.750732 124.0
851.845337 40.0
851.924438 124.0
852.04657 184.0
852.108582 160.0
852.223328 192.0
852.280518 104.0
852.362427 148.0
852.405945 112.0
852.473267 96.0
852.548035 92.0
852.558777 104.0
852.675232 148.0
852.735168 248.0
852.80957 120.0
852.92157 120.0
852.976746 80.0
853.025696 160.0
853.074646 104.0
853.177795 48.0
853.279236 84.0
853.401489 116.0
853.487732 156.0
853.613403 60.0
853.669861 68.0
853.688538 48.0
853.752441 128.0
853.814697 132.0
853.860474 124.0
853.92749 128.0
853.968201 152.0
854.024353 92.0
854.081543 100.0
854.213013 88.0
854.276489 48.0
854.346313 64.0
854.387024 64.0
854.475891 64.0
854.549927 148.0
854.62561 48.0
854.68689 120.0
854.778015 68.0
854.887451 84.0
854.974731 60.0
855.043579 92.0
855.638367 196.0
855.952087 68.0
855.974548 60.0
856.106384 68.0
856.138184 56.0
856.428406 104.0
856.61676 64.0
856.663391 156.0
856.744934 76.0
857.050842 112.0
857.135315 148.0
857.222717 52.0
857.318115 76.0
857.397583 64.0
857.584045 60.0
857.659851 92.0
858.120422 76.0
858.28949 108.0
858.77356 60.0
858.831909 60.0
859.161926 76.0
859.246094 80.0
859.303467 124.0
859.368591 92.0
859.426941 56.0
859.531982 28.0
859.890869 76.0
859.969727 72.0
860.103943 56.0
860.209045 92.0
860.273254 56.0
860.460083 68.0
860.60022 104.0
860.80542 84.0
860.966431 112.0
861.049866 68.0
861.166687 116.0
861.248474 76.0
861.288208 60.0
861.402161 88.0
861.546387 40.0
862.528198 48.0
862.598328 96.0
863.095276 40.0
863.159607 64.0
863.270752 52.0
863.387695 44.0
863.481262 40.0
863.668457 156.0
863.773743 116.0
864.195007 116.0
864.25116 160.0
864.39978 72.0
864.732239 60.0
864.944092 80.0
865.005798 80.0
865.201721 184.0
865.330505 132.0
865.506165 104.0
866.384766 84.0
867.111389 68.0
867.281372 36.0
867.334106 208.0
867.416138 52.0
867.861755 232.0
868.020081 120.0
868.469238 72.0
868.606567 80.0
868.729797 168.0
868.788452 108.0
869.55127 48.0
869.715637 76.0
869.774353 44.0
870.050293 32.0
870.390808 144.0
870.643311 64.0
871.28949 52.0
871.489258 80.0
871.694946 92.0
871.777222 112.0
871.977051 76.0
872.18866 104.0
872.335571 40.0
872.905945 64.0
873.123535 28.0
873.735291 188.0
873.835327 48.0
874.361816 60.0
874.429688 192.0
874.476746 136.0
874.782837 64.0
874.882935 100.0
875.978333 80.0
876.072571 96.0
876.325928 28.0
876.56189 92.0
876.614685 108.0
876.661804 52.0
876.844543 68.0
876.885803 64.0
877.103882 76.0
877.145142 56.0
877.245361 56.0
877.563721 140.0
877.941101 56.0
878.118042 80.0
878.365784 144.0
878.442505 72.0
878.855469 92.0
879.115173 40.0
879.203674 40.0
879.296753 176.0
879.445679 32.0
879.888428 180.0
880.213196 64.0
880.868774 104.0
881.048523 84.0
881.116882 80.0
881.57782 160.0
881.867432 44.0
882.269409 76.0
882.624146 40.0
882.760193 60.0
883.416687 164.0
883.748047 48.0
884.085327 84.0
884.493774 32.0
884.58844 160.0
884.659485 64.0
884.979187 112.0
885.127258 48.0
885.571411 76.0
885.707642 76.0
885.796509 68.0
886.353455 52.0
886.626099 48.0
886.786072 32.0
887.023193 100.0
887.224792 56.0
887.266296 56.0
887.41449 96.0
889.170471 120.0
889.312927 108.0
889.556274 64.0
890.11438 60.0
890.310364 128.0
890.387573 120.0
890.625183 48.0
890.738037 44.0
891.373779 128.0
891.45105 128.0
891.765991 128.0
892.307007 48.0
892.348633 64.0
892.515076 140.0
892.562683 36.0
893.603638 116.0
893.960632 172.0
894.043945 156.0
894.270142 88.0
894.555847 132.0
894.63324 84.0
895.288269 152.0
895.347778 104.0
895.633728 88.0
895.824341 76.0
896.336731 52.0
896.759888 72.0
896.908875 84.0
897.695923 140.0
898.125366 96.0
898.179016 112.0
898.2901 180.0
898.548889 92.0
898.734314 56.0
898.857361 184.0
898.936768 120.0
898.99823 116.0
899.080017 108.0
899.712769 80.0
900.674194 76.0
900.960938 164.0
901.361267 120.0
902.275818 100.0
902.594666 136.0
902.748169 184.0
902.933594 244.0
903.753174 92.0
903.811279 140.0
904.022461 96.0
904.151306 124.0
904.273804 32.0
904.423462 52.0
905.099976 128.0
905.920532 48.0
907.832642 112.0
908.024536 56.0
908.090515 124.0
908.288452 76.0
908.402466 92.0
908.966431 44.0
909.482605 100.0
909.63269 52.0
909.850647 132.0
910.004883 124.0
910.179016 56.0
910.821655 96.0
911.740967 72.0
911.939331 68.0
912.005432 132.0
912.085266 72.0
912.299988 156.0
912.540527 232.0
912.811096 80.0
913.238098 56.0
913.623108 172.0
913.947998 144.0
914.060425 124.0
914.110474 192.0
914.670227 40.0
914.88092 52.0
915.24823 32.0
915.790222 100.0
916.14563 68.0
916.687927 156.0
916.901794 64.0
916.977234 148.0
917.067627 172.0
917.194214 44.0
917.320801 52.0
917.417297 80.0
917.670471 72.0
917.748901 116.0
918.520874 96.0
918.658325 152.0
918.740051 156.0
919.094055 40.0
919.157227 204.0
919.504395 80.0
920.02356 60.0
920.065796 68.0
920.114075 68.0
920.307312 36.0
920.349548 100.0
920.464294 64.0
920.621338 116.0
920.790405 92.0
920.875 180.0
921.25293 92.0
921.430786 136.0
921.599915 84.0
921.738953 60.0
921.950439 44.0
922.164612 92.0
922.935791 76.0
923.141418 44.0
923.298645 60.0
923.401489 124.0
923.504272 84.0
923.552673 72.0
923.608398 56.0
923.728088 84.0
923.818848 124.0
924.723328 128.0
924.9021 92.0
925.053406 132.0
925.434814 176.0
925.477234 100.0
925.725525 60.0
925.80426 144.0
926.252441 48.0
926.300903 52.0
926.512939 156.0
926.698059 120.0
927.131042 96.0
927.385559 48.0
927.516846 116.0
927.815979 108.0
927.876648 56.0
928.555786 48.0
928.658936 68.0
929.308044 120.0
929.380859 44.0
929.866333 172.0
930.005981 132.0
930.054504 52.0
930.613037 196.0
931.019897 160.0
931.202148 68.0
931.372192 132.0
931.925049 56.0
932.040527 124.0
932.940063 128.0
933.250122 56.0
933.365662 160.0
933.570496 152.0
934.028625 64.0
934.476013 216.0
934.643066 144.0
934.744934 124.0
935.409973 76.0
935.805725 176.0
936.262451 136.0
936.388794 80.0
936.666992 144.0
937.04657 144.0
937.176208 156.0
937.517456 64.0
937.6698 172.0
937.797791 84.0
937.846558 224.0
937.998962 64.0
938.1026 148.0
938.180908 228.0
938.243774 80.0
938.483521 252.0
938.773315 116.0
939.462585 92.0
939.609009 224.0
940.097168 144.0
941.922791 172.0
942.267883 68.0
942.545959 32.0
943.413879 216.0
943.737976 108.0
943.854492 148.0
944.155334 192.0
944.392334 84.0
944.802185 212.0
945.255005 92.0
945.32843 60.0
945.401855 96.0
945.50592 60.0
945.775208 88.0
945.964966 212.0
946.203735 116.0
946.356812 208.0
946.644592 68.0
946.736511 48.0
946.901855 172.0
947.030457 136.0
947.104004 80.0
947.471558 80.0
947.557312 120.0
947.649231 140.0
947.863708 168.0
947.949463 76.0
948.403015 60.0
949.009949 36.0
949.089661 132.0
949.641663 52.0
949.726135 176.0
949.831787 80.0
950.026245 132.0
950.101746 120.0
950.703064 40.0
950.819641 96.0
950.954712 180.0
951.286194 88.0
952.082336 84.0
952.287109 108.0
952.624939 80.0
953.048889 152.0
953.337708 100.0
953.393005 132.0
953.876343 184.0
953.995422 80.0
954.198303 140.0
954.521912 120.0
954.610291 180.0
954.665649 132.0
955.299194 92.0
955.871399 32.0
956.197571 132.0
956.25293 28.0
956.30835 44.0
956.523804 212.0
956.628479 52.0
957.096375 68.0
957.182617 124.0
957.662964 116.0
958.211243 36.0
959.178833 128.0
959.462402 92.0
959.591858 92.0
959.696716 40.0
959.764526 160.0
960.356567 136.0
960.436768 32.0
961.029053 112.0
961.772034 160.0
962.516663 140.0
962.899597 28.0
963.208435 92.0
963.319641 120.0
963.399902 152.0
963.525635 104.0
964.044128 140.0
964.215576 176.0
965.124329 32.0
965.575806 76.0
965.867371 144.0
965.940735 96.0
966.305786 116.0
966.392395 84.0
966.664673 152.0
966.714172 80.0
967.502258 160.0
967.74176 140.0
968.051331 128.0
968.416748 76.0
968.493958 172.0
968.584045 64.0
968.887573 144.0
969.184998 120.0
969.61261 40.0
970.003113 44.0
970.105408 136.0
970.461914 68.0
970.602356 92.0
970.672729 52.0
970.905823 88.0
971.497681 172.0
971.634155 148.0
971.77124 44.0
972.099548 92.0
972.329163 64.0
972.577454 44.0
972.962341 84.0
973.173401 148.0
973.359741 104.0
973.552246 88.0
973.775818 180.0
973.887634 68.0
974.061523 52.0
974.50885 80.0
975.074402 40.0
975.273254 108.0
975.838989 104.0
976.100159 216.0
976.627686 108.0
976.697266 188.0
976.747009 96.0
976.859009 44.0
977.051819 208.0
977.138977 108.0
977.182495 52.0
977.325623 56.0
977.425171 84.0
977.512268 60.0
977.662415 64.0
977.717651 84.0
977.898193 128.0
978.24054 136.0
978.414856 64.0
978.589172 172.0
978.813354 56.0
978.884705 52.0
979.049988 44.0
979.149658 48.0
979.529602 60.0
979.6604 164.0
979.747681 128.0
979.962341 148.0
980.25238 136.0
980.345825 144.0
980.576416 76.0
980.975403 200.0
981.199829 188.0
981.673706 96.0
981.792236 144.0
982.091614 52.0
982.235046 68.0
982.493835 88.0
982.553223 108.0
982.883911 196.0
982.940063 48.0
983.089844 132.0
983.250305 208.0
983.383179 60.0
983.53302 96.0
983.632874 76.0
984.044922 80.0
984.638184 84.0
984.969238 124.0
985.181641 100.0
985.469055 64.0
985.7901 148.0
986.218994 136.0
986.334656 128.0
986.456543 40.0
986.531555 204.0
986.788635 64.0
986.837891 140.0
986.881653 44.0
987.031738 168.0
987.594604 124.0
988.464294 40.0
988.670776 108.0
988.90863 40.0
989.12146 76.0
989.25293 124.0
989.397522 80.0
989.509583 132.0
990.160889 148.0
990.317444 148.0
990.593079 104.0
991.044189 180.0
991.175781 92.0
991.250977 96.0
991.988586 140.0
992.043579 96.0
992.166077 212.0
992.460815 80.0
992.605042 84.0
993.307495 152.0
993.389038 164.0
993.771729 140.0
993.871399 168.0
994.148254 104.0
994.204773 44.0
994.593872 96.0
994.637817 140.0
994.945435 40.0
995.692688 76.0
995.931396 120.0
996.534485 84.0
996.729309 108.0
996.993225 148.0
998.615356 56.0
998.709717 128.0
998.77887 128.0
999.033569 108.0
999.420593 136.0
999.489807 96.0
999.75415 108.0
999.898926 252.0
999.951233 104.0
1000.100342 80.0
1000.182129 192.0
1000.674561 132.0
1001.038452 128.0
1001.166321 144.0
1001.359619 84.0
1001.485596 104.0
1001.693481 72.0
1001.850952 44.0
1001.964355 112.0
1002.052551 64.0
1002.166016 84.0
1002.260498 80.0
1002.449585 40.0
1002.689026 56.0
1002.947449 228.0
1003.14917 76.0
1003.508545 144.0
1003.591492 296.0
1003.68512 128.0
1003.817566 136.0
1004.372559 140.0
1004.473511 124.0
1004.731384 128.0
1004.801575 148.0
1004.965637 168.0
1005.035034 164.0
1005.741882 88.0
1006.430054 60.0
1006.669983 72.0
1006.758423 172.0
1007.00824 96.0
1007.124756 144.0
1007.238464 48.0
1007.292297 176.0
1008.224121 60.0
1008.623108 100.0
1008.906799 180.0
1008.982666 112.0
1009.077515 136.0
1009.241882 212.0
1009.305115 104.0
1009.400024 148.0
1009.583374 164.0
1009.68457 128.0
1009.874329 40.0
1010.083069 60.0
1010.304504 140.0
1010.582886 88.0
1010.766418 120.0
1010.878113 176.0
1011.361328 120.0
1011.71582 80.0
1011.893066 88.0
1012.222351 92.0
1012.311035 84.0
1012.374329 116.0
1012.608704 68.0
1012.659363 100.0
1012.849365 172.0
1013.051514 176.0
1013.082458 116.0
1013.1026 156.0
1013.400574 168.0
1013.616028 128.0
1013.698364 176.0
1013.958252 44.0
1014.068176 92.0
1014.137085 72.0
1014.395569 176.0
1014.839417 40.0
1014.928162 128.0
1015.083374 92.0
1015.365784 72.0
1015.53064 124.0
1015.89856 140.0
1016.101624 148.0
1016.177734 124.0
1016.304626 88.0
1016.580933 164.0
1017.256653 104.0
1017.961426 116.0
1018.031311 80.0
1018.243652 64.0
1018.533081 144.0
1018.609314 108.0
1018.666504 92.0
1018.774475 68.0
1018.882507 68.0
1018.971436 84.0
1019.314575 96.0
1019.41626 32.0
1019.792419 172.0
1019.90564 72.0
1020.023376 128.0
1020.128113 204.0
1020.323242 180.0
1020.704407 144.0
1021.094666 120.0
1021.26001 52.0
1021.609924 68.0
1021.654419 148.0
1022.208008 60.0
1022.341675 88.0
1022.392578 108.0
1022.698059 120.0
1023.067322 72.0
1023.111877 56.0
1023.258301 180.0
1023.379272 56.0
1023.493896 80.0
1023.735901 68.0
1023.869629 164.0
1023.989502 112.0
1024.277222 52.0
1024.340942 56.0
1024.391968 48.0
1024.659546 52.0
1024.892944 156.0
1025.315918 64.0
1025.513428 92.0
1025.589966 76.0
1026.235962 84.0
1026.581543 136.0
1026.823486 124.0
1026.897095 140.0
1027.209595 208.0
1027.349976 108.0
1027.713623 116.0
1027.834961 120.0
1028.134888 72.0
1028.312622 112.0
1028.376709 76.0
1029.162598 64.0
1029.430908 76.0
1029.494751 88.0
1029.727417 104.0
1029.84314 196.0
1030.028076 176.0
1031.394287 156.0
1031.577759 52.0
1031.815918 120.0
1031.903809 204.0
1032.121216 120.0
1032.216553 148.0
1032.300293 156.0
1032.344971 52.0
1032.389771 108.0
1032.536865 72.0
1032.843872 80.0
1033.236694 192.0
1033.45813 52.0
1033.502808 100.0
1033.682007 64.0
1033.899658 36.0
1034.072388 172.0
1034.15564 32.0
1034.206909 204.0
1034.270874 92.0
1034.539673 212.0
1034.674194 100.0
1034.898315 140.0
1035.049927 168.0
1035.186401 60.0
1035.679565 56.0
1035.974243 132.0
1036.185669 152.0
1036.236938 152.0
1036.307495 124.0
1036.435547 40.0
1036.602173 64.0
1036.730347 152.0
1036.852173 92.0
1037.012329 76.0
1037.127808 108.0
1037.172607 68.0
1037.260742 124.0
1037.422607 40.0
1037.486694 44.0
1037.749634 48.0
1037.861572 176.0
1037.935547 88.0
1038.230591 52.0
1038.675171 200.0
1038.833496 64.0
1039.064453 68.0
1039.333984 120.0
1039.741821 100.0
1039.866699 68.0
1039.956543 104.0
1040.052734 76.0
1040.13623 132.0
1040.521484 140.0
1040.639282 180.0
1040.964478 216.0
1041.035156 44.0
1041.094849 92.0
1041.450684 104.0
1041.709595 36.0
1041.818726 32.0
1041.910889 72.0
1041.992188 188.0
1042.082153 128.0
1042.345703 44.0
1042.409912 72.0
1042.647705 224.0
1042.962646 132.0
1043.213379 68.0
1043.380493 332.0
1043.536377 124.0
1043.619385 56.0
1043.846313 240.0
1044.01709 128.0
1044.197144 120.0
1044.300049 112.0
1044.460938 128.0
1044.531616 144.0
1044.58313 64.0
1044.666748 148.0
1044.814697 68.0
1045.136475 132.0
1045.265137 72.0
1045.310181 100.0
1045.747803 212.0
1045.921631 172.0
1046.005371 108.0
1046.430176 100.0
1046.637329 168.0
1046.726807 152.0
1046.868164 128.0
1047.351196 68.0
1047.499268 56.0
1047.673218 196.0
1047.866577 100.0
1047.93103 148.0
1048.29834 196.0
1048.440063 184.0
1049.071777 176.0
1049.530762 124.0
1049.729492 116.0
1050.008545 184.0
1050.133911 68.0
1050.221069 68.0
1050.27124 124.0
1050.36792 80.0
1050.509888 80.0
1050.632446 160.0
1050.900635 156.0
1051.148682 44.0
1051.213257 96.0
1051.355225 100.0
1051.665039 44.0
1052.02002 64.0
1052.194336 36.0
1052.245972 52.0
1052.478394 100.0
1052.775513 32.0
1052.859497 68.0
1052.969238 164.0
1053.059692 76.0
1053.104858 72.0
1053.266357 136.0
1053.518311 184.0
1053.738037 80.0
1054.023193 208.0
1054.113892 96.0
1054.216187 168.0
1054.309814 132.0
1054.364868 92.0
1054.461792 44.0
1054.545776 240.0
1054.65564 196.0
1054.700928 64.0
1054.771973 164.0
1054.8302 104.0
1054.907837 48.0
1055.106445 160.0
1055.425049 76.0
1055.502563 76.0
1055.793579 132.0
1055.871094 140.0
1055.969849 192.0
1056.123535 108.0
1056.284058 92.0
1056.343384 156.0
1056.615112 324.0
1056.67981 176.0
1056.996948 156.0
1057.255737 56.0
1057.663574 144.0
1057.997559 140.0
1058.077881 108.0
1058.136108 60.0
1058.233276 216.0
1058.323975 152.0
1058.568115 56.0
1058.8125 116.0
1059.133423 28.0
1059.243652 64.0
1059.394775 120.0
1059.904419 136.0
1059.949829 56.0
1060.001709 116.0
1060.105347 96.0
1060.448853 260.0
1060.622803 204.0
1060.766479 80.0
1060.890625 168.0
1061.001465 160.0
1061.103638 104.0
1061.161987 84.0
1061.207275 60.0
1061.401855 172.0
1061.602905 88.0
1061.781494 140.0
1062.215454 144.0
1062.614868 116.0
1062.932739 112.0
1063.013428 84.0
1063.088501 76.0
1063.464966 120.0
1063.516846 144.0
1063.744141 84.0
1063.984253 56.0
1064.244019 156.0
1064.30249 76.0
1064.445312 144.0
1064.581665 76.0
1064.75708 76.0
1064.841431 160.0
1065.211792 108.0
1065.275391 216.0
1065.536621 68.0
1065.731445 244.0
1065.913452 108.0
1066.595825 60.0
1066.894897 148.0
1067.044434 144.0
1067.285034 136.0
1067.39563 68.0
1067.480103 52.0
1067.545166 128.0
1067.735718 108.0
1067.993896 156.0
1068.110962 72.0
1068.29895 112.0
1068.605469 188.0
1068.986206 68.0
1069.288818 52.0
1069.412476 168.0
1069.633789 180.0
1069.685791 104.0
1069.85083 128.0
1069.911011 108.0
1070.200195 204.0
1070.43457 28.0
1070.766724 192.0
1070.955933 80.0
1071.061157 136.0
1071.190186 80.0
1071.305176 88.0
1071.39209 184.0
1071.776489 88.0
1071.939453 72.0
1072.232666 52.0
1072.27832 184.0
1072.369507 116.0
1072.473877 92.0
1072.9823 64.0
1073.106201 36.0
1073.373535 232.0
1073.562744 112.0
1073.660522 64.0
1073.856567 124.0
1074.084473 104.0
1074.26062 120.0
1074.394043 132.0
1074.482422 244.0
1074.580322 120.0
1074.691284 192.0
1074.75647 124.0
1075.050171 132.0
1075.193726 120.0
1075.5896 124.0
1075.684448 116.0
1075.866089 28.0
1075.950928 236.0
1076.06189 136.0
1076.468994 340.0
1076.598267 92.0
1076.897827 96.0
1076.982788 172.0
1077.276733 92.0
1077.322388 124.0
1077.518433 44.0
1077.831665 164.0
1078.000732 180.0
1078.171875 92.0
1078.368042 116.0
1078.448608 176.0
1078.557495 116.0
1078.791016 144.0
1078.923584 156.0
1079.10022 72.0
1079.217896 32.0
1079.475708 120.0
1079.767212 112.0
1079.937256 52.0
1080.022339 116.0
1080.257935 168.0
1080.434448 136.0
1080.565308 108.0
1080.624146 156.0
1080.853149 196.0
1081.133911 120.0
1081.200806 132.0
1081.435669 56.0
1081.542236 96.0
1081.661255 140.0
1082.231079 104.0
1082.32605 204.0
1082.496338 56.0
1082.581421 48.0
1083.282227 80.0
1083.53125 120.0
1083.624878 244.0
1083.747437 108.0
1083.799927 164.0
1083.957153 116.0
1084.153687 196.0
1084.229858 152.0
1084.428955 144.0
1084.527344 64.0
1085.156738 132.0
1085.428101 172.0
1085.589478 100.0
1085.674683 56.0
1085.758057 148.0
1085.862183 100.0
1085.937134 148.0
1086.23877 40.0
1086.566895 36.0
1086.842407 104.0
1087.262451 332.0
1087.448608 156.0
1087.557739 44.0
1087.728516 72.0
1087.932007 124.0
1088.00415 36.0
1088.14978 92.0
1088.739624 68.0
1089.061523 144.0
1089.105835 152.0
1089.212524 48.0
1089.363647 40.0
1089.541016 368.0
1089.792725 216.0
1089.922119 124.0
1090.1521 100.0
1090.476807 88.0
1090.730469 108.0
1090.870361 128.0
1091.125 88.0
1091.30249 120.0
1091.348511 104.0
1091.578735 148.0
1091.697021 56.0
1091.831909 140.0
1091.903687 200.0
1092.183716 112.0
1092.249512 80.0
1092.4375 192.0
1092.677124 76.0
1092.881104 144.0
1092.973267 132.0
1093.295776 116.0
1093.380005 108.0
1093.690674 84.0
1093.861816 68.0
1094.187622 180.0
1094.322632 112.0
1094.441162 108.0
1094.695435 168.0
1094.751953 132.0
1094.836304 36.0
1095.020386 176.0
1095.079956 108.0
1095.185425 48.0
1095.248901 200.0
1095.574097 160.0
1095.712402 84.0
1095.784912 56.0
1095.916626 204.0
1096.008911 148.0
1096.23291 160.0
1096.340942 124.0
1096.628418 44.0
1097.182129 148.0
1097.281006 56.0
1097.386475 120.0
1097.452515 36.0
1097.79541 156.0
1098.009277 128.0
1098.111938 64.0
1098.32959 116.0
1098.672607 92.0
1098.804565 144.0
1098.870605 68.0
1099.072021 192.0
1099.203247 96.0
1099.325928 64.0
1099.43811 152.0
1099.589844 112.0
1099.839233 124.0
1099.953003 84.0
1100.084961 108.0
1100.131226 68.0
1100.243408 60.0
1100.405396 136.0
1100.520752 52.0
1100.632935 44.0
1100.983032 60.0
1101.303833 112.0
1101.432129 148.0
1101.587891 56.0
1101.676514 200.0
1101.848389 200.0
1102.006958 140.0
1102.410034 160.0
1102.892456 60.0
1102.958618 108.0
1103.080811 64.0
1103.374878 136.0
1103.485107 224.0
1103.560181 64.0
1103.652832 172.0
1103.728271 88.0
1103.957031 80.0
1104.029663 204.0
1104.122314 240.0
1104.459595 116.0
1104.525757 108.0
1104.697754 48.0
1104.790405 100.0
1104.922729 124.0
1104.988892 116.0
1105.438599 92.0
1105.491943 92.0
1105.564575 168.0
1105.637451 224.0
1105.716797 184.0
1106.577393 212.0
1106.65686 132.0
1106.948242 120.0
1107.007812 40.0
1107.246216 120.0
1107.481812 188.0
1107.630371 48.0
1107.915283 72.0
1108.438721 100.0
1108.636963 180.0
1108.763428 164.0
1108.836426 128.0
1108.929199 144.0
1109.052246 244.0
1109.273804 168.0
1109.39978 48.0
1109.495605 184.0
1109.666138 120.0
1110.036377 128.0
1110.162354 124.0
1110.414429 124.0
1111.011353 52.0
1111.290039 88.0
1111.379272 176.0
1111.568726 104.0
1111.827515 96.0
1112.239136 116.0
1112.325439 104.0
1112.564331 288.0
1112.66394 112.0
1112.750244 56.0
1112.976074 40.0
1113.208496 64.0
1113.401001 120.0
1113.467529 332.0
1113.572021 116.0
1113.792969 44.0
1113.865967 100.0
1113.955688 300.0
1114.152344 128.0
1114.656616 192.0
1114.749756 132.0
1114.859985 80.0
1114.993774 156.0
1115.234863 144.0
1115.293823 64.0
1115.332397 172.0
1115.434326 124.0
1115.540649 104.0
1115.660278 160.0
1115.76001 156.0
1116.105835 156.0
1116.178955 144.0
1116.265381 100.0
1116.358521 112.0
1116.425049 56.0
1116.471558 144.0
1116.737549 164.0
1116.843994 172.0
1117.18335 64.0
1117.322998 96.0
1117.409546 44.0
1117.46228 104.0
1117.522583 156.0
1118.035034 128.0
1118.154785 152.0
1118.321167 128.0
1118.634033 172.0
1118.891479 132.0
1118.959229 72.0
1119.23999 112.0
1119.376587 108.0
1119.479736 188.0
1119.666138 112.0
1119.82605 44.0
1120.31897 80.0
1120.521118 100.0
1120.901489 148.0
1121.039429 68.0
1121.091919 148.0
1121.318481 132.0
1121.425171 92.0
1121.671753 84.0
1122.218506 180.0
1122.438599 48.0
1122.511841 168.0
1122.771973 96.0
1123.08374 60.0
1123.192261 136.0
1123.345581 208.0
1123.442261 100.0
1123.519043 92.0
1123.725952 40.0
1123.777954 136.0
1123.966187 96.0
1124.072876 96.0
1124.119629 116.0
1124.213013 72.0
1124.406616 140.0
1124.780396 64.0
1124.85376 84.0
1124.907227 144.0
1125.381226 112.0
1125.815308 120.0
1125.935547 136.0
1126.221191 124.0
1126.389771 108.0
1126.496582 148.0
1126.563477 148.0
1126.750488 160.0
1126.877441 68.0
1127.19812 44.0
1127.325195 76.0
1127.592529 52.0
1127.645996 228.0
1127.91333 120.0
1128.093872 160.0
1128.187378 56.0
1128.321167 112.0
1128.474854 124.0
1128.575195 132.0
1128.708984 164.0
1128.795898 192.0
1128.842651 92.0
1129.080688 164.0
1129.154907 100.0
1129.218384 72.0
1129.304199 168.0
1129.417847 48.0
1129.544922 52.0
1129.70166 160.0
1129.852661 192.0
1130.120361 172.0
1130.394653 72.0
1130.640015 148.0
1131.244751 132.0
1131.627075 240.0
1131.860718 120.0
1131.961182 60.0
1132.242432 164.0
1132.403198 128.0
1132.473267 132.0
1132.584106 96.0
1132.932373 100.0
1133.291748 144.0
1133.36792 60.0
1133.421509 116.0
1133.641113 120.0
1133.716431 116.0
1134.058228 208.0
1134.206421 136.0
1134.30957 32.0
1134.447021 76.0
1134.648193 200.0
1134.963257 144.0
1135.224854 108.0
1135.392456 176.0
1135.446167 120.0
1135.88208 48.0
1136.016479 168.0
1136.064819 160.0
1136.217529 40.0
1136.492676 152.0
1136.667114 40.0
1136.834839 52.0
1136.982544 72.0
1137.177246 172.0
1137.358398 60.0
1137.506104 176.0
1137.593384 52.0
1138.016357 100.0
1138.096924 108.0
1138.318481 160.0
1138.419312 220.0
1138.802124 100.0
1139.043945 168.0
1139.088867 128.0
1139.339478 152.0
1139.543457 172.0
1139.594849 88.0
1139.680054 156.0
1139.903931 112.0
1139.984619 120.0
1140.63855 164.0
1140.952515 140.0
1141.169556 72.0
1141.232056 68.0
1141.369385 68.0
1141.565918 88.0
1142.068848 68.0
1142.169678 120.0
1142.863525 168.0
1142.936768 84.0
1143.199219 184.0
1143.333252 164.0
1143.401123 64.0
1143.535645 208.0
1143.779419 148.0
1144.060791 96.0
1144.51123 204.0
1144.65332 120.0
1144.747559 60.0
1144.911987 48.0
1145.293091 32.0
1145.488403 160.0
1145.555786 68.0
1145.623169 88.0
1145.899414 240.0
1146.027466 80.0
1146.226807 148.0
1146.876587 52.0
1146.966797 140.0
1147.024902 152.0
1147.173218 96.0
1147.287842 60.0
1147.356079 68.0
1147.44873 160.0
1147.462158 140.0
1147.61145 80.0
1147.672119 104.0
1147.800293 136.0
1148.056519 200.0
1148.380249 88.0
1148.670288 160.0
1148.717529 72.0
1148.852417 144.0
1149.587891 124.0
1149.959106 144.0
1150.276367 116.0
1150.397949 68.0
1150.66626 128.0
1150.769287 156.0
1150.830078 32.0
1150.958374 40.0
1151.021729 72.0
1151.167725 148.0
1151.313843 124.0
1151.59314 168.0
1151.81604 100.0
1151.932495 132.0
1152.01062 172.0
1152.06604 168.0
1152.180908 40.0
1152.356567 28.0
1152.457886 132.0
1152.738892 184.0
1153.012085 112.0
1153.775879 148.0
1154.012573 176.0
1154.181641 136.0
1154.262695 216.0
1154.425049 232.0
1154.677979 112.0
1154.74292 188.0
1154.817261 140.0
1154.979614 224.0
1155.081055 196.0
1155.148804 80.0
1155.231079 116.0
1155.313232 92.0
1155.372681 88.0
1155.466675 92.0
1155.829468 160.0
1155.94043 144.0
1156.21106 136.0
1156.481812 112.0
1156.946411 76.0
1157.1521 328.0
1157.228271 108.0
1157.379395 172.0
1157.525146 128.0
1157.657227 112.0
1157.747925 88.0
1157.917236 112.0
1158.486328 112.0
1159.204468 108.0
1159.807739 84.0
1159.873657 208.0
1160.12561 76.0
1160.225586 72.0
1160.295776 44.0
1160.539917 132.0
1160.770508 168.0
1160.915771 156.0
1161.075684 140.0
1161.197754 148.0
1161.410522 108.0
1161.618286 108.0
1161.781128 232.0
1161.889648 40.0
1162.057373 108.0
1162.737915 164.0
1162.826172 152.0
1162.955078 184.0
1163.002563 196.0
1163.179077 160.0
1163.267334 180.0
1163.389526 52.0
1163.441284 64.0
1163.511719 96.0
1163.803711 124.0
1163.867676 80.0
1163.966675 176.0
1164.17041 168.0
1164.35376 124.0
1164.408081 56.0
1164.632202 84.0
1164.67981 328.0
1164.83606 108.0
1165.067017 132.0
1165.338745 64.0
1165.488281 152.0
1165.692139 92.0
1165.807739 184.0
1165.902832 108.0
1166.011597 116.0
1166.188232 204.0
1166.35144 124.0
1166.532104 48.0
1166.665894 120.0
1166.847656 180.0
1166.895264 160.0
1166.963257 96.0
1167.085693 104.0
1167.140137 52.0
1167.20813 96.0
1167.303345 156.0
1167.39856 84.0
1167.717529 216.0
1168.058228 184.0
1168.289551 144.0
1168.446045 180.0
1168.54126 120.0
1168.643311 48.0
1168.815674 76.0
1168.888306 176.0
1169.289917 124.0
1169.415649 176.0
1169.713257 160.0
1169.766357 100.0
1169.977417 132.0
1170.345093 48.0
1170.453979 152.0
1170.583374 56.0
1170.699219 176.0
1170.78772 104.0
1171.373535 92.0
1171.475708 92.0
1171.782227 160.0
1171.884399 76.0
1172.020752 212.0
1172.125977 152.0
1172.511353 80.0
1172.568237 128.0
1172.878906 116.0
1172.976685 120.0
1173.070312 96.0
1173.14624 144.0
1173.665894 112.0
1174.154541 164.0
1174.222778 100.0
1174.795776 160.0
1175.202393 172.0
1175.413696 164.0
1175.630737 216.0
1175.703247 104.0
1175.791992 140.0
1176.006958 120.0
1176.399536 108.0
1176.474609 128.0
1176.690308 140.0
1176.884277 136.0
1176.966187 68.0
1177.130127 144.0
1177.246216 76.0
1177.341797 72.0
1177.444214 144.0
1177.490967 76.0
1177.587646 152.0
1177.901855 124.0
1178.01123 180.0
1178.28772 104.0
1178.35791 160.0
1178.632935 52.0
1178.751587 132.0
1179.125 144.0
1179.541992 68.0
1179.589844 128.0
1179.665039 108.0
1179.719727 44.0
1179.890625 176.0
1180.0 52.0
1180.444458 72.0
1180.499146 68.0
1180.615479 40.0
1180.711182 124.0
1180.817871 152.0
1181.048584 132.0
1181.121582 56.0
1181.266968 144.0
1181.470459 112.0
1181.572021 212.0
1181.716797 116.0
1181.785156 60.0
1181.83313 92.0
1182.038452 172.0
1182.134155 48.0
1182.216309 136.0
1182.47644 180.0
1182.709106 180.0
1182.932129 56.0
1183.065063 152.0
1183.181519 116.0
1183.313599 172.0
1183.448486 124.0
1183.567505 136.0
1183.722412 88.0
1183.804565 136.0
1183.852539 56.0
1183.914185 72.0
1184.037476 84.0
1184.249756 92.0
1184.352783 124.0
1184.407349 128.0
1184.503174 140.0
1184.623657 160.0
1184.744751 92.0
1184.825195 104.0
1184.99646 108.0
1185.116577 124.0
1185.202026 136.0
1185.277466 96.0
1185.578979 100.0
1185.633789 88.0
1185.77771 52.0
1186.069092 168.0
1186.188965 44.0
1186.266479 136.0
1186.376953 144.0
1186.483765 68.0
1186.572876 68.0
1186.769531 180.0
1186.963745 100.0
1187.097778 144.0
1187.148926 84.0
1187.215576 184.0
1187.36145 196.0
1187.517578 180.0
1187.773071 216.0
1187.975342 132.0
1188.088623 120.0
1188.157227 124.0
1188.218994 188.0
1188.397461 32.0
1188.54834 64.0
1188.596436 104.0
1188.692505 144.0
1188.761108 136.0
1189.028809 76.0
1189.090576 196.0
1189.17981 192.0
1189.303345 132.0
1189.392578 96.0
1189.645264 108.0
1189.708374 68.0
1189.831909 124.0
1189.976074 136.0
1190.401855 140.0
1190.649048 52.0
1190.829834 112.0
1191.109253 60.0
1191.308472 132.0
1191.439087 72.0
1191.707031 164.0
1191.94751 244.0
1192.057495 164.0
1192.346069 76.0
1192.414795 40.0
1192.6073 184.0
1192.758545 148.0
1192.850708 116.0
1192.978516 160.0
1193.239746 172.0
1193.611084 56.0
1193.748535 160.0
1193.934326 216.0
1194.030518 188.0
1194.133789 136.0
1194.22998 208.0
1194.326294 152.0
1194.436401 92.0
1194.787231 172.0
1194.890503 136.0
1194.966187 168.0
1195.04187 200.0
1195.199219 140.0
1195.516602 116.0
1195.674927 120.0
1196.003662 132.0
1196.149902 92.0
1196.23938 140.0
1196.329224 68.0
1196.466553 176.0
1196.900391 132.0
1197.003662 92.0
1197.148193 216.0
1197.33667 88.0
1197.444458 72.0
1197.533936 128.0
1197.595947 116.0
1197.733643 44.0
1197.802612 192.0
1198.002319 116.0
1198.085083 56.0
1198.291748 68.0
1198.519165 124.0
1198.677612 132.0
1198.732788 100.0
1198.877441 132.0
1199.153198 132.0
1199.247437 208.0
1199.497803 44.0
1199.587402 68.0
1199.856323 184.0
1200.007935 68.0
1200.097656 116.0
1200.166626 84.0
1200.449341 108.0
1200.502075 140.0
1200.58728 148.0
1201.021729 52.0
1201.13208 148.0
1201.435669 164.0
1201.520752 208.0
1202.125732 40.0
1202.243042 176.0
1202.491455 96.0
1202.581177 96.0
1202.76062 124.0
1203.264648 128.0
1203.630615 100.0
1203.703003 140.0
1203.727661 68.0
1203.75 144.0
1204.224487 136.0
1204.293579 88.0
1205.144653 84.0
1205.316162 164.0
1205.447388 84.0
1205.557983 116.0
1205.722168 64.0
1205.820557 160.0
1206.104004 132.0
1206.180054 120.0
1206.290649 76.0
1206.511841 72.0
1206.746948 100.0
1206.822998 68.0
1207.154907 116.0
1207.508423 148.0
1207.604492 136.0
1207.652954 176.0
1207.742798 144.0
1207.846802 104.0
1208.012207 68.0
1208.178711 52.0
1208.310059 108.0
1208.364746 204.0
1208.579956 56.0
1208.842896 132.0
1209.285889 140.0
1209.341187 160.0
1209.562744 208.0
1209.677368 216.0
1209.953369 140.0
1210.048706 196.0
1210.206665 60.0
1210.439209 144.0
1210.53894 56.0
1210.629028 188.0
1210.712158 56.0
1210.944946 136.0
1211.197021 140.0
1211.360229 128.0
1211.487915 92.0
1211.966064 112.0
1212.057739 216.0
1212.20166 152.0
1212.402588 152.0
1212.492676 48.0
1212.631348 44.0
1212.901611 92.0
1213.019531 172.0
1213.185913 160.0
1213.234375 80.0
1213.310669 200.0
1213.514526 108.0
1213.707153 260.0
1213.962524 196.0
1214.056274 120.0
1214.253784 108.0
1214.513916 108.0
1214.614502 80.0
1214.982178 176.0
1215.09314 208.0
1215.190308 176.0
1215.294312 84.0
1215.717651 128.0
1215.780151 104.0
1215.877319 136.0
1216.099365 140.0
1216.599243 160.0
1216.675537 156.0
1216.765869 120.0
1217.036621 52.0
1217.279663 68.0
1217.640747 32.0
1217.710205 108.0
1217.950562 176.0
1218.286865 68.0
1218.632812 340.0
1218.787109 92.0
1219.016357 200.0
1219.377808 124.0
1219.482056 188.0
1219.607178 132.0
1219.711426 104.0
1219.822632 204.0
1219.92688 188.0
1220.191162 60.0
1220.246704 132.0
1220.36499 188.0
1220.559692 132.0
1220.656982 148.0
1220.796143 184.0
1221.074341 100.0
1221.136841 168.0
1221.185547 156.0
1221.415161 128.0
1221.783813 164.0
1221.895142 276.0
1222.032471 180.0
1222.277832 168.0
1222.646729 152.0
1222.756104 100.0
1222.841553 192.0
1222.938965 116.0
1223.030151 88.0
1223.407837 152.0
1223.6073 196.0
1223.760498 76.0
1223.854858 188.0
1224.104004 148.0
1224.310669 164.0
1224.38501 128.0
1224.540527 204.0
1224.596191 100.0
1224.888794 140.0
1225.021118 108.0
1225.250977 64.0
1225.432129 108.0
1225.480957 116.0
1225.578491 100.0
1225.640747 176.0
1225.81543 88.0
1225.89209 116.0
1226.010498 148.0
1226.170898 64.0
1226.237305 156.0
1226.575195 92.0
1226.623901 128.0
1226.884155 100.0
1227.11145 148.0
1227.290161 152.0
1227.383911 108.0
1227.572144 120.0
1227.704712 164.0
1228.046875 172.0
1228.206909 68.0
1228.339355 176.0
1228.464966 92.0
1228.618408 180.0
1228.688232 116.0
1228.813843 56.0
1228.932495 156.0
1229.099854 36.0
1229.327271 144.0
1229.434937 168.0
1229.650879 84.0
1230.01416 172.0
1230.070068 168.0
1230.132935 108.0
1230.216675 188.0
1230.454346 212.0
1230.528809 208.0
1231.110474 120.0
1231.278076 184.0
1231.515503 184.0
1231.662231 172.0
1231.794922 144.0
1232.255981 104.0
1232.31897 108.0
1232.45166 52.0
1232.736694 188.0
1233.073608 400.0
1233.135498 104.0
1233.353271 40.0
1233.458252 196.0
1233.758667 72.0
1233.835571 124.0
1233.908569 180.0
1234.017456 108.0
1234.08728 84.0
1234.534912 148.0
1234.772705 100.0
1235.003418 180.0
1235.066406 100.0
1235.136353 144.0
1235.633057 68.0
1235.843018 52.0
1235.898926 80.0
1235.975952 72.0
1236.502075 160.0
1236.948853 120.0
1237.067871 124.0
1237.68396 136.0
1237.844971 192.0
1238.025391 64.0
1238.174194 120.0
1238.630249 152.0
1238.699463 92.0
1238.748535 128.0
1238.867676 108.0
1238.923706 52.0
1239.140869 64.0
1239.311768 132.0
1239.369873 176.0
1239.554321 180.0
1239.694458 164.0
1239.750488 164.0
1239.876709 160.0
1239.981812 52.0
1240.065918 72.0
1240.129028 120.0
1240.248169 116.0
1240.37439 184.0
1240.444458 140.0
1240.759888 148.0
1240.865112 68.0
1241.0802 208.0
1241.177124 148.0
1241.292847 180.0
1241.364136 168.0
1241.566528 164.0
1241.727661 44.0
1241.955811 228.0
1242.183594 128.0
1242.365967 148.0
1242.422119 124.0
1242.557617 176.0
1242.751831 120.0
1242.815063 144.0
1242.892212 108.0
1243.011475 104.0
1243.081665 176.0
1243.306274 56.0
1243.355347 184.0
1243.895874 72.0
1243.966187 180.0
1244.324097 144.0
1244.401367 56.0
1244.471558 124.0
1244.731445 160.0
1244.977173 180.0
1245.201904 172.0
1245.363525 44.0
1245.532104 168.0
1245.602295 196.0
1245.651489 176.0
1245.834106 184.0
1245.925415 168.0
1245.974609 60.0
1246.273438 132.0
1246.452515 160.0
1246.605591 148.0
1246.705444 108.0
1246.846069 216.0
1247.049805 60.0
1247.476074 204.0
1247.644165 148.0
1247.685547 140.0
1248.30127 148.0
1248.59668 124.0
1248.648682 96.0
1248.939087 164.0
1249.293091 60.0
1249.377441 152.0
1249.562256 140.0
1249.925903 124.0
1250.158569 188.0
1250.320435 60.0
1250.418945 76.0
1250.528076 152.0
1250.887085 156.0
1251.108765 104.0
1251.37146 144.0
1251.489014 56.0
1251.615723 140.0
1252.080566 152.0
1252.304688 208.0
1252.404541 376.0
1252.482056 168.0
1252.531372 108.0
1252.700439 164.0
1253.186523 32.0
1253.301514 116.0
1253.552979 148.0
1253.736206 124.0
1253.919434 104.0
1254.053345 124.0
1254.235229 100.0
1254.391724 132.0
1254.673706 168.0
1254.758301 40.0
1254.864136 36.0
1254.913452 164.0
1255.019165 56.0
1255.210205 192.0
1255.350586 168.0
1255.548096 136.0
1255.780884 140.0
1256.006592 80.0
1256.070068 168.0
1256.140625 116.0
1256.27124 72.0
1256.387573 92.0
1256.465088 136.0
1256.634521 64.0
1256.88855 132.0
1257.09314 168.0
1257.184937 152.0
1257.468994 108.0
1257.5448 116.0
1257.612061 196.0
1257.700195 148.0
1257.777832 176.0
1257.827148 72.0
1257.975464 128.0
1258.173096 180.0
1258.281982 96.0
1258.561401 56.0
1258.696655 80.0
1258.837891 108.0
1258.937256 144.0
1258.992188 136.0
1259.083984 188.0
1259.130615 188.0
1259.223022 172.0
1259.64209 104.0
1260.066406 128.0
1260.186035 164.0
1260.263794 44.0
1260.588867 188.0
1261.055298 120.0
1261.274414 184.0
1261.338013 56.0
1261.415771 48.0
1261.691528 128.0
1261.854126 172.0
1262.004517 148.0
1262.186523 176.0
1262.250122 108.0
1262.361572 212.0
1262.42688 84.0
1262.511841 108.0
1262.625 172.0
1262.713745 124.0
1262.756104 148.0
1262.849121 148.0
1263.231445 172.0
1263.472046 32.0
1263.615356 180.0
1263.845703 128.0
1263.872437 72.0
1263.887939 152.0
1264.003174 176.0
1264.082275 68.0
1264.181396 132.0
1264.263428 196.0
1264.436157 140.0
1264.535278 184.0
1264.71228 100.0
1265.632568 88.0
1265.721313 156.0
1265.845093 112.0
1266.482422 160.0
1266.638306 164.0
1266.746704 52.0
1267.332642 220.0
1267.594849 204.0
1267.722412 36.0
1267.771973 152.0
1267.83313 180.0
1267.977539 132.0
1268.239746 168.0
1268.551636 140.0
1268.622559 68.0
1268.80127 208.0
1269.076294 44.0
1269.129028 128.0
1269.179199 112.0
1269.310303 188.0
1269.447632 208.0
1269.537231 152.0
1269.586914 308.0
1269.984131 112.0
1270.239502 164.0
1270.43103 140.0
1270.558716 144.0
1270.714844 124.0
1270.782959 140.0
1270.941895 188.0
1271.050659 60.0
1271.140503 152.0
1271.190186 128.0
1271.481201 120.0
1271.581055 292.0
1271.743774 104.0
1271.978027 76.0
1272.262085 144.0
1272.333008 44.0
1272.529053 160.0
1272.814331 72.0
1272.950806 176.0
1273.004395 144.0
1273.213501 84.0
1273.306763 172.0
1273.545166 156.0
1274.151245 56.0
1274.300415 36.0
1274.381226 64.0
1274.463867 184.0
1274.541992 188.0
1274.64856 84.0
1274.705444 48.0
1274.947144 212.0
1275.082153 120.0
1275.541626 176.0
1275.599487 144.0
1275.730225 200.0
1275.807129 96.0
1275.970703 80.0
1276.105835 176.0
1276.16272 148.0
1276.852539 88.0
1276.994751 52.0
1277.058716 112.0
1277.179688 72.0
1277.26416 128.0
1277.343262 144.0
1277.677612 100.0
1277.744751 160.0
1277.985107 172.0
1278.303833 184.0
1278.417725 156.0
1278.609863 36.0
1278.737915 68.0
1278.851807 152.0
1279.200684 120.0
1279.3573 172.0
1279.435547 76.0
1279.487549 196.0
1279.578003 96.0
1279.862793 168.0
1280.040771 104.0
1280.168945 52.0
1280.290039 124.0
1280.587891 168.0
1280.717407 116.0
1280.767334 152.0
1281.002319 52.0
1281.151611 148.0
1281.42981 172.0
1281.643555 228.0
1281.893066 184.0
1281.950073 112.0
1282.028442 108.0
1282.106812 140.0
1282.220825 192.0
1282.384766 124.0
1282.97644 116.0
1283.076294 76.0
1283.283081 144.0
1283.525513 108.0
1283.903442 164.0
1284.124512 80.0
1284.181641 100.0
1284.274292 156.0
1284.390137 136.0
1284.55249 156.0
1284.659546 164.0
1284.795044 120.0
1284.988403 172.0
1285.414551 112.0
1285.494385 128.0
1285.557617 112.0
1285.908325 124.0
1286.003784 76.0
1286.086792 128.0
1286.165283 140.0
1286.272339 156.0
1286.325073 196.0
1286.407959 64.0
1286.586426 176.0
1286.757812 44.0
1286.843506 156.0
1286.929199 224.0
1287.079102 40.0
1287.343384 56.0
1287.414795 208.0
1287.471924 204.0
1287.564697 68.0
1287.617676 252.0
1287.716431 52.0
1287.944946 156.0
1288.264771 48.0
1288.317749 120.0
1288.400513 116.0
1288.486206 152.0
1288.671997 148.0
1288.729126 180.0
1288.793457 148.0
1289.0625 156.0
1289.186523 100.0
1289.332275 112.0
1289.393799 88.0
1289.858398 136.0
1289.911743 252.0
1290.187256 56.0
1290.566162 104.0
1290.65918 188.0
1291.023926 28.0
1291.095337 144.0
1291.503052 196.0
1291.667603 208.0
1291.814453 112.0
1291.889404 160.0
1292.065674 132.0
1292.143799 132.0
1292.218506 100.0
1292.34729 60.0
1292.433105 192.0
1292.556152 172.0
1292.614868 164.0
1292.726562 188.0
1292.893433 140.0
1293.105835 72.0
1293.191772 172.0
1293.420776 180.0
1293.528198 176.0
1293.700562 152.0
1293.950562 120.0
1294.072266 156.0
1294.172485 124.0
1294.251343 220.0
1294.580688 128.0
1294.888672 144.0
1294.989014 68.0
1295.278564 128.0
1295.331787 176.0
1295.554932 152.0
1295.782593 344.0
1295.963257 84.0
1296.02063 116.0
1296.085083 136.0
1296.214111 124.0
1296.351074 136.0
1296.44397 152.0
1296.636963 196.0
1296.823242 96.0
1296.930786 180.0
1297.174561 112.0
1297.246216 144.0
1297.56604 256.0
1297.776733 144.0
1298.02771 132.0
1298.224731 184.0
1298.780762 152.0
1298.924316 116.0
1299.28064 120.0
1299.526978 116.0
1299.591553 132.0
1299.690063 128.0
1299.885742 44.0
1300.00769 120.0
1300.065063 120.0
1300.280884 132.0
1300.388062 28.0
1300.718262 76.0
1300.818726 92.0
1301.000244 172.0
1301.217529 184.0
1301.342896 100.0
1301.508057 76.0
1301.561768 168.0
1301.88147 108.0
1302.010742 60.0
1302.161621 148.0
1302.254883 112.0
1302.491943 80.0
1302.606934 160.0
1302.687866 212.0
1303.028076 204.0
1303.15271 156.0
1303.325439 116.0
1304.101562 112.0
1304.159058 128.0
1304.380005 176.0
1304.46814 80.0
1304.640747 156.0
1304.899536 48.0
1304.949829 148.0
1305.000244 232.0
1305.633057 180.0
1305.79126 168.0
1305.98291 160.0
1306.050171 104.0
1306.100586 128.0
1306.364746 184.0
1306.438721 188.0
1306.632935 128.0
1306.805542 88.0
1307.262939 136.0
1307.520142 172.0
1307.640381 88.0
1307.797607 196.0
1308.065063 120.0
1308.194702 200.0
1308.374634 36.0
1308.677002 76.0
1308.835449 144.0
1308.958862 120.0
1309.354004 140.0
1309.411621 64.0
1309.545776 172.0
1309.670898 116.0
1309.829346 84.0
1310.110352 152.0
1310.196777 100.0
1310.334351 180.0
1310.405762 36.0
1310.590088 136.0
1310.727783 176.0
1310.852539 36.0
1311.092285 180.0
1311.162354 140.0
1311.349731 176.0
1311.443481 48.0
1311.517944 124.0
1311.602051 48.0
1311.775024 52.0
1311.84082 132.0
1311.94812 52.0
1312.005737 184.0
1312.099487 108.0
1312.164429 136.0
1312.243652 76.0
1312.373535 236.0
1312.467285 104.0
1312.532104 104.0
1312.784546 108.0
1312.945557 116.0
1312.990723 92.0
1313.159546 148.0
1313.323242 144.0
1313.383179 176.0
1313.582031 164.0
1313.657349 116.0
1313.844849 112.0
1313.938721 88.0
1314.00354 120.0
1314.673218 136.0
1314.826294 240.0
1314.90564 76.0
1315.172729 68.0
1315.410889 220.0
1315.501831 188.0
1315.634766 28.0
1315.861938 184.0
1316.234009 148.0
1316.681763 96.0
1316.804565 96.0
1317.172974 136.0
1317.317383 108.0
1317.461914 60.0
1317.548584 36.0
1317.921021 192.0
1317.977417 104.0
1318.07312 100.0
1318.213379 132.0
1318.365112 92.0
1318.477539 164.0
1318.661499 148.0
1318.798828 204.0
1319.05896 116.0
1319.13855 164.0
1319.232544 192.0
1319.406006 108.0
1319.463867 236.0
1319.593994 92.0
1319.850708 144.0
1320.027832 200.0
1320.077148 152.0
1320.130859 164.0
1320.526855 148.0
1320.606445 100.0
1320.707764 164.0
1320.823486 60.0
1321.004272 128.0
1321.091187 104.0
1321.17627 100.0
1321.351562 112.0
1321.402222 100.0
1321.496338 136.0
1321.597656 116.0
1321.720825 180.0
1321.819214 168.0
1321.902344 108.0
1322.082275 140.0
1322.258911 168.0
1322.63623 148.0
1322.806274 140.0
1323.066895 28.0
1323.486816 72.0
1323.600708 116.0
1323.729492 148.0
1324.21106 124.0
1324.341431 188.0
1324.508057 148.0
1324.696411 40.0
1325.203491 184.0
1325.263794 140.0
1325.435425 52.0
1325.607666 152.0
1325.906494 80.0
1326.000732 164.0
1326.105347 36.0
1326.225342 68.0
1326.338013 140.0
1326.745117 204.0
1326.97937 148.0
1327.841187 232.0
1328.088989 88.0
1328.215332 168.0
1328.415405 156.0
1328.562256 132.0
1328.727295 52.0
1328.872437 136.0
1328.937744 132.0
1329.039307 128.0
1329.090088 192.0
1329.199951 116.0
1329.431152 120.0
1329.510986 172.0
1329.628784 176.0
1329.721558 128.0
1329.82312 124.0
1329.995239 112.0
1330.11438 164.0
1330.323975 160.0
1330.432861 104.0
1330.795898 264.0
1330.843994 156.0
1331.013794 104.0
1331.103271 172.0
1331.246094 96.0
1331.317505 156.0
1331.514893 116.0
1331.616577 156.0
1331.703735 116.0
1331.856201 160.0
1332.016113 148.0
1332.168579 172.0
1332.275024 148.0
1332.328491 60.0
1332.488281 128.0
1332.728027 240.0
1332.800781 116.0
1333.00415 180.0
1333.414551 128.0
1333.585693 172.0
1333.803711 136.0
1333.95752 148.0
1334.027222 136.0
1334.094482 52.0
1334.18335 92.0
1334.319824 168.0
1334.374268 296.0
1334.477417 92.0
1334.850708 132.0
1335.007446 132.0
1335.061523 160.0
1335.316162 176.0
1335.417969 84.0
1335.497925 160.0
1335.817993 144.0
1335.999878 104.0
1336.094482 84.0
1336.414673 84.0
1336.563232 228.0
1336.697266 120.0
1336.778442 168.0
1336.931274 56.0
1337.105957 92.0
1337.338867 188.0
1337.455322 176.0
1337.761108 156.0
1337.863037 132.0
1338.039673 204.0
1338.336304 204.0
1338.437866 176.0
1338.678589 160.0
1338.860596 232.0
1339.347534 140.0
1339.372192 120.0
1339.394409 168.0
1339.472412 112.0
1339.545288 84.0
1339.596313 132.0
1339.712891 156.0
1340.008301 80.0
1340.150024 68.0
1340.20105 132.0
1340.308105 132.0
1340.463379 128.0
1340.623657 116.0
1340.740356 128.0
1340.827759 100.0
1341.221313 144.0
1341.469238 164.0
1341.622314 84.0
1341.83374 180.0
1342.635864 140.0
1342.716064 168.0
1343.036987 104.0
1343.095337 176.0
1343.182983 100.0
1343.408813 248.0
1343.679077 96.0
1343.818726 144.0
1343.9198 92.0
1343.978149 72.0
1344.197144 52.0
1344.357666 160.0
1344.437866 204.0
1344.547363 116.0
1344.832031 112.0
1344.941528 236.0
1345.087524 180.0
1345.197021 120.0
1345.328491 72.0
1345.656982 140.0
1345.832275 56.0
1346.219238 148.0
1346.379883 200.0
1346.460327 80.0
1346.540649 68.0
1346.752441 152.0
1346.854736 112.0
1346.931274 132.0
1347.190918 164.0
1347.285767 60.0
1347.468384 220.0
1347.643677 144.0
1347.724121 76.0
1347.811768 220.0
1348.221069 72.0
1348.294067 184.0
1348.403809 96.0
1348.454956 224.0
1348.549927 232.0
1348.601074 100.0
1348.834961 248.0
1348.915405 184.0
1349.054321 76.0
1349.193237 44.0
1349.384155 168.0
1349.639282 116.0
1349.822021 64.0
1349.887817 240.0
1350.019531 92.0
1350.1073 164.0
1350.203735 44.0
1350.537598 152.0
1350.639282 180.0
1350.758301 108.0
1350.853394 144.0
1350.948486 124.0
1351.357788 148.0
1351.434692 108.0
1351.752075 208.0
1351.879517 168.0
1352.031372 104.0
1352.166382 36.0
1352.280273 100.0
1352.419312 100.0
1352.807373 184.0
1352.902466 156.0
1353.034302 68.0
1353.180664 108.0
1353.26123 168.0
1353.620117 84.0
1353.810425 220.0
1353.869019 160.0
1354.129517 100.0
1354.308472 192.0
1354.71875 156.0
1354.879883 168.0
1355.45874 140.0
1355.605347 116.0
1355.71521 140.0
1356.089111 224.0
1356.258179 204.0
1356.51416 96.0
1356.660889 168.0
1356.748779 108.0
1356.873413 152.0
1356.930908 188.0
1357.01062 140.0
1357.144775 60.0
1357.218018 112.0
1357.328003 104.0
1357.753418 156.0
1357.907471 76.0
1358.144775 80.0
1358.2229 100.0
1358.27417 84.0
1358.47229 64.0
1358.5354 152.0
1358.65564 176.0
1358.805542 176.0
1358.897827 96.0
1359.073853 64.0
1359.367432 148.0
1359.488647 116.0
1359.661011 120.0
1359.786865 76.0
1360.040039 216.0
1360.138062 104.0
1360.47583 60.0
1360.54187 148.0
1360.600586 380.0
1360.85022 112.0
1361.145508 132.0
1361.276123 112.0
1361.371582 156.0
1361.599243 124.0
1361.73877 148.0
1361.92981 140.0
1362.017944 172.0
1362.069336 148.0
1362.410645 128.0
1362.689453 140.0
1362.94812 132.0
1363.083252 156.0
1363.149902 116.0
1363.267944 444.0
1363.34729 148.0
1363.64917 120.0
1363.761963 212.0
1363.85498 140.0
1363.928467 184.0
1364.001953 160.0
1364.119629 72.0
1364.252319 136.0
1364.397705 112.0
1364.604858 152.0
1364.879395 204.0
1364.935791 144.0
1365.009277 244.0
1365.164185 176.0
1365.244751 164.0
1365.438965 152.0
1365.516724 148.0
1365.619751 96.0
1365.754883 128.0
1365.915527 148.0
1366.134644 80.0
1366.333252 128.0
1366.392212 76.0
1366.782104 140.0
1367.00293 148.0
1367.179565 88.0
1367.415039 236.0
1367.481323 148.0
1367.599121 140.0
1367.665283 80.0
1367.893555 80.0
1368.136475 28.0
1368.356812 156.0
1368.497192 176.0
1368.600342 88.0
1368.703369 160.0
1368.821167 128.0
1368.909546 140.0
1368.97583 104.0
1369.62561 104.0
1369.727173 128.0
1369.867065 128.0
1370.00708 136.0
1370.191284 136.0
1370.364746 280.0
1370.431641 204.0
1370.651611 216.0
1370.81958 44.0
1370.910034 208.0
1371.124023 124.0
1371.290649 128.0
1371.797974 132.0
1371.88269 284.0
1371.996948 40.0
1372.210815 108.0
1372.514648 168.0
1372.609863 124.0
1372.749023 104.0
1372.893066 104.0
1373.272705 64.0
1373.331787 128.0
1373.385864 164.0
1373.474731 136.0
1373.641602 188.0
1373.980957 172.0
1374.059448 176.0
1374.427368 164.0
1374.681885 68.0
1374.748291 196.0
1374.881226 120.0
1375.146851 144.0
1375.331421 176.0
1375.619263 104.0
1375.707886 96.0
1375.944092 168.0
1376.121338 220.0
1376.46582 192.0
1376.608765 100.0
1376.822876 180.0
1377.085571 192.0
1377.310425 172.0
1377.423584 164.0
1377.524658 164.0
1377.58374 40.0
1378.041748 108.0
1378.145264 92.0
1378.529419 136.0
1378.588623 68.0
1378.647705 144.0
1378.862061 156.0
1378.943359 80.0
1379.110962 60.0
1379.266113 168.0
1379.406006 136.0
1379.538818 200.0
1379.882202 140.0
1380.133545 136.0
1380.555176 96.0
1381.124634 48.0
1381.376099 188.0
1381.435303 148.0
1381.531494 164.0
1381.746094 144.0
1381.91626 192.0
1382.019775 68.0
1382.115967 44.0
1382.256592 100.0
1382.5896 92.0
1382.715454 156.0
1382.863525 280.0
1382.974487 44.0
1383.119263 264.0
1383.211426 152.0
1383.315063 132.0
1383.455688 172.0
1383.633423 112.0
1383.744385 184.0
1384.12207 92.0
1384.188721 184.0
1384.444214 104.0
1384.642944 188.0
1384.708984 128.0
1384.872314 188.0
1385.003418 136.0
1385.077515 132.0
1385.129395 156.0
1385.307129 140.0
1385.566406 48.0
1385.647949 132.0
1385.865234 100.0
1386.040649 168.0
1386.151855 68.0
1386.292603 128.0
1386.388916 120.0
1386.448242 188.0
1386.670654 60.0
1386.744751 80.0
1386.967041 128.0
1387.367432 128.0
1387.428101 352.0
1387.515747 140.0
1387.598389 188.0
1387.66394 156.0
1388.063721 168.0
1388.203613 140.0
1388.316528 88.0
1388.776367 88.0
1388.924805 64.0
1388.984131 180.0
1389.466309 52.0
1389.577637 132.0
1389.703735 144.0
1389.777954 204.0
1389.939331 220.0
1390.030273 100.0
1390.280762 180.0
1390.516968 88.0
1390.631348 68.0
1390.690796 164.0
1390.750122 100.0
1390.992188 192.0
1391.143555 52.0
1391.30481 168.0
1391.410645 220.0
1391.564697 256.0
1391.655884 152.0
1391.737549 124.0
1391.794556 176.0
1391.886108 112.0
1391.98999 88.0
1392.172852 148.0
1392.502441 108.0
1392.814453 144.0
1392.93335 144.0
1392.992798 176.0
1393.215576 176.0
1393.505371 200.0
1393.587158 156.0
1394.077515 136.0
1394.293091 140.0
1394.478882 128.0
1394.545776 88.0
1394.650391 236.0
1394.812256 104.0
1395.038452 116.0
1395.114868 180.0
1395.252075 176.0
1395.881104 92.0
1396.017944 100.0
1396.151733 168.0
1396.270752 196.0
1396.404663 108.0
1396.79895 120.0
1396.956543 60.0
1397.014648 96.0
1397.10791 136.0
1397.565186 112.0
1397.684326 128.0
1397.741089 188.0
1397.83313 128.0
1397.892578 76.0
1398.368896 148.0
1398.50293 120.0
1398.577393 128.0
1398.912354 132.0
1399.001709 88.0
1399.068726 108.0
1399.329224 192.0
1399.522827 112.0
1399.645508 164.0
1399.748901 188.0
1399.813232 76.0
1399.939941 128.0
1400.193115 164.0
1400.438843 156.0
1400.860229 268.0
1400.967773 144.0
1401.124268 112.0
1401.235962 108.0
1401.317993 120.0
1401.367432 124.0
1401.608521 188.0
1401.705444 48.0
1401.794922 344.0
1401.899414 124.0
1402.21228 196.0
1402.443359 152.0
1402.544189 56.0
1402.719116 56.0
1402.793701 108.0
1403.054565 148.0
1403.363647 96.0
1403.449707 216.0
1403.559448 96.0
1403.695801 224.0
1404.150757 152.0
1404.277588 152.0
1404.546143 180.0
1404.822144 156.0
1404.963867 156.0
1405.210083 44.0
1405.317627 176.0
1405.441406 120.0
1405.58313 80.0
1405.635376 116.0
1405.799561 164.0
1405.851807 88.0
1405.911499 128.0
1405.986206 164.0
1406.172729 124.0
1406.299683 180.0
1406.381714 144.0
1406.456421 208.0
1406.695312 180.0
1406.771606 212.0
1406.904297 68.0
1407.016235 208.0
1407.068604 188.0
1407.302124 52.0
1407.710693 96.0
1407.807861 144.0
1407.890015 44.0
1408.263428 168.0
1408.360474 64.0
1408.487549 32.0
1408.551636 280.0
1408.950684 144.0
1409.047852 124.0
1409.256958 72.0
1409.443848 164.0
1409.596558 196.0
1409.713989 152.0
1410.029785 120.0
1410.385498 104.0
1410.456665 128.0
1410.602295 136.0
1410.856445 148.0
1410.956299 212.0
1411.020996 116.0
1411.417236 184.0
1411.506958 56.0
1411.641602 148.0
1411.716431 116.0
1411.888428 144.0
1411.955688 192.0
1412.008057 108.0
1412.082886 92.0
1412.434448 176.0
1412.494263 176.0
1412.664917 132.0
1412.76355 28.0
1412.928711 224.0
1413.167236 336.0
1413.321899 108.0
1413.543091 160.0
1413.631592 288.0
1413.698853 52.0
1413.820679 136.0
1413.960815 148.0
1414.118042 156.0
1414.17041 64.0
1414.284302 112.0
1414.410889 336.0
1414.460205 152.0
1414.73938 128.0
1414.964355 140.0
1415.176025 112.0
1415.245972 212.0
1415.390747 84.0
1415.667847 136.0
1415.735229 100.0
1415.802612 140.0
1415.88501 148.0
1416.154663 188.0
1416.330322 96.0
1416.355591 44.0
1416.384399 132.0
1416.574097 84.0
1416.843872 112.0
1416.911255 88.0
1417.143555 36.0
1417.248413 136.0
1417.355591 144.0
1417.510742 152.0
1417.653076 188.0
1418.165161 100.0
1418.35498 132.0
1418.537598 136.0
1418.724976 128.0
1419.074951 172.0
1419.152344 148.0
1419.324829 124.0
1419.412598 104.0
1419.474854 92.0
1419.636597 180.0
1419.782227 148.0
1420.119751 44.0
1420.217285 124.0
1420.389893 164.0
1420.547363 120.0
1420.607422 208.0
1421.060059 180.0
1421.147583 212.0
1421.365234 96.0
1421.514893 140.0
1421.672852 60.0
1421.848755 224.0
1421.973145 96.0
1422.048706 160.0
1422.213257 104.0
1422.325928 116.0
1422.542847 212.0
1422.648682 220.0
1422.806396 108.0
1422.858887 124.0
1423.014771 164.0
1423.159302 188.0
1423.324463 132.0
1423.609863 180.0
1424.421021 156.0
1424.489624 124.0
1424.594604 140.0
1424.705811 144.0
1424.836426 92.0
1424.953003 84.0
1425.022095 56.0
1425.122925 172.0
1425.397705 48.0
1425.525513 228.0
1425.796021 80.0
1426.089233 172.0
1426.2052 148.0
1426.292114 160.0
1426.382324 116.0
1426.510132 76.0
1426.60791 72.0
1426.765747 204.0
1426.950439 108.0
1427.043945 152.0
1427.171753 160.0
1427.285645 168.0
1427.434937 204.0
1427.487549 164.0
1427.547729 144.0
1427.60791 124.0
1427.65979 116.0
1427.818481 156.0
1428.051636 44.0
1428.345093 152.0
1428.96521 172.0
1429.127441 136.0
1429.447388 124.0
1429.495361 36.0
1429.509399 148.0
1429.578979 188.0
1429.669312 112.0
1430.151001 68.0
1430.429565 48.0
1430.580078 228.0
1430.632812 164.0
1430.775879 204.0
1430.942261 120.0
1431.092041 120.0
1431.280273 260.0
1431.55896 228.0
1431.717041 120.0
1432.108765 148.0
1432.334717 204.0
1432.538086 80.0
1432.76416 144.0
1432.877197 164.0
1432.952515 164.0
1433.292725 156.0
1433.381958 68.0
1433.596924 140.0
1433.743774 60.0
1433.873413 172.0
1434.220215 164.0
1434.354248 120.0
1434.417603 192.0
1434.655762 152.0
1434.806641 60.0
1434.957397 136.0
1435.115723 76.0
1435.625488 128.0
1435.943359 228.0
1436.081055 104.0
1436.239502 164.0
1436.375244 84.0
1436.488403 56.0
1436.76001 316.0
1436.85022 120.0
1436.86145 116.0
1436.890747 172.0
1437.310791 128.0
1437.469238 156.0
1437.672607 188.0
1437.816406 60.0
1437.978394 112.0
1438.056152 188.0
1438.205811 104.0
1438.998657 172.0
1439.19043 152.0
1439.311157 112.0
1439.562988 340.0
1439.688843 116.0
1439.887817 188.0
1439.960693 192.0
1440.021118 120.0
1440.149536 192.0
1440.285522 128.0
1440.402222 140.0
1440.65564 216.0
1441.237427 104.0
1441.290283 136.0
1441.384399 132.0
1441.864624 148.0
1441.917603 108.0
1442.031006 172.0
1442.174561 56.0
1442.605469 132.0
1442.66272 148.0
1442.771729 188.0
1442.971069 156.0
1443.038818 184.0
1443.142212 112.0
1443.452271 100.0
1443.535522 48.0
1443.603516 40.0
1443.739624 332.0
1443.792603 56.0
1443.875854 124.0
1443.958984 64.0
1444.011963 116.0
1444.089478 96.0
1444.148071 168.0
1444.24646 64.0
1444.32959 164.0
1444.548462 208.0
1444.662476 92.0
1444.78772 160.0
1444.927246 120.0
1445.101318 48.0
1445.216675 96.0
1445.335938 212.0
1445.391724 124.0
1445.608276 120.0
1445.743408 132.0
1445.926147 116.0
1446.266724 88.0
1446.327393 144.0
1446.532227 120.0
1446.637695 144.0
1446.698242 104.0
1446.819458 276.0
1446.963257 132.0
1447.016235 108.0
1447.14502 88.0
1447.303955 324.0
1447.463013 48.0
1447.728027 144.0
1448.000732 48.0
1448.258301 96.0
1448.493042 92.0
1448.758179 100.0
1449.091553 152.0
1449.250732 224.0
1449.463257 276.0
1449.62439 120.0
1449.743286 132.0
1449.82666 192.0
1449.917603 124.0
1450.014282 248.0
1450.390869 128.0
1450.539185 96.0
1450.592163 212.0
1450.680298 124.0
1450.789307 80.0
1450.98645 100.0
1451.062256 140.0
1451.122925 124.0
1451.221436 156.0
1451.615845 168.0
1451.684082 132.0
1451.858521 44.0
1451.911621 88.0
1452.078369 184.0
1452.25293 140.0
1452.442505 212.0
1452.503174 152.0
1452.657349 88.0
1452.783936 120.0
1452.943237 184.0
1452.996338 164.0
1453.087402 128.0
1453.254272 136.0
1453.307373 124.0
1453.418945 160.0
1453.759277 188.0
1454.09668 56.0
1454.187744 192.0
1454.385376 104.0
1454.487427 200.0
1454.87854 56.0
1455.218018 124.0
1455.272827 216.0
1455.478394 328.0
1455.686646 160.0
1456.002319 32.0
1456.321411 136.0
1456.496094 140.0
1456.583374 112.0
1456.663208 140.0
1456.786987 96.0
1456.951904 164.0
1457.012695 40.0
1457.065918 96.0
1457.217773 144.0
1457.402222 168.0
1457.499023 80.0
1457.574951 120.0
1457.635742 72.0
1457.688965 164.0
1458.000488 56.0
1458.230591 88.0
1458.469604 144.0
1458.555664 120.0
1458.811279 160.0
1459.05127 140.0
1459.11792 120.0
1459.388428 208.0
1459.475342 184.0
1459.550537 260.0
1459.619873 160.0
1459.776733 176.0
1459.870728 140.0
1460.110962 192.0
1460.228271 76.0
1460.463989 140.0
1460.532471 88.0
1460.600952 148.0
1460.7146 136.0
1460.92041 152.0
1460.996582 192.0
1461.141113 148.0
1461.216431 148.0
1461.354126 48.0
1461.506348 168.0
1461.612793 144.0
1461.967529 120.0
1462.074829 176.0
1462.221436 160.0
1462.294678 88.0
1462.564209 52.0
1462.791748 188.0
1462.914429 128.0
1463.138794 416.0
1463.620361 144.0
1463.881348 48.0
1463.970703 152.0
1464.094604 108.0
1464.334229 164.0
1464.429688 112.0
1464.498291 104.0
1464.612061 136.0
1464.979614 228.0
1465.218506 120.0
1465.241211 116.0
1465.359131 204.0
1465.441772 80.0
1465.485596 168.0
1465.694458 108.0
1465.808716 132.0
1465.900146 156.0
1466.044922 144.0
1466.159302 52.0
1466.296509 156.0
1466.462402 124.0
1466.644531 152.0
1466.784302 144.0
1466.91394 144.0
1467.051147 128.0
1467.4552 192.0
1467.508545 188.0
1467.600098 116.0
1467.783081 152.0
1468.05188 164.0
1468.118652 116.0
1468.576294 204.0
1468.759399 92.0
1469.026367 116.0
1469.125488 104.0
1469.285767 132.0
1469.601562 172.0
1469.705444 88.0
1469.781738 148.0
1469.987793 144.0
1470.163208 204.0
1470.262451 388.0
1470.400879 128.0
1470.506714 148.0
1470.598267 276.0
1470.688965 164.0
1470.827271 104.0
1471.010498 368.0
1471.140259 156.0
1471.560181 224.0
1471.651855 48.0
1471.792847 112.0
1472.25647 224.0
1472.491821 168.0
1472.826172 120.0
1472.853516 184.0
1473.110596 116.0
1473.248169 224.0
1473.370361 168.0
1473.657471 204.0
1473.729492 136.0
1473.790649 164.0
1473.960083 88.0
1474.080933 76.0
1474.14209 228.0
1474.256714 128.0
1474.348511 152.0
1474.97522 268.0
1475.133545 152.0
1475.441528 36.0
1475.548584 88.0
1475.676025 124.0
1475.846802 184.0
1475.923218 52.0
1476.030273 112.0
1476.183228 144.0
1476.30249 188.0
1476.41272 112.0
1476.504517 116.0
1476.588623 36.0
1476.772217 40.0
1476.886963 128.0
1477.001709 184.0
1477.116455 144.0
1477.575439 112.0
1477.636597 112.0
1477.813477 140.0
1478.026611 96.0
1478.447754 64.0
1478.623779 108.0
1478.677368 132.0
1478.815186 160.0
1478.922363 32.0
1479.029419 112.0
1479.131836 184.0
1479.366333 100.0
1479.427612 148.0
1479.5271 120.0
1479.662964 140.0
1479.959961 232.0
1480.03064 136.0
1480.124268 72.0
1480.392334 132.0
1480.936157 168.0
1481.005127 104.0
1481.125488 128.0
1481.357422 172.0
1481.449341 136.0
1481.51062 136.0
1481.62561 156.0
1481.717529 108.0
1481.817139 148.0
1481.922363 208.0
1481.978027 92.0
1482.270142 164.0
1482.338135 40.0
1482.432129 196.0
1482.499146 148.0
1482.653076 268.0
1482.784668 176.0
1483.066284 40.0
1483.150635 40.0
1483.273315 192.0
1483.549194 104.0
1483.664185 104.0
1483.763916 128.0
1484.058228 180.0
1484.177979 168.0
1484.377319 80.0
1484.46167 152.0
1484.661133 188.0
1484.785156 212.0
1484.947754 204.0
1485.228638 48.0
1485.31311 136.0
1485.699951 148.0
1485.744995 92.0
1485.811768 200.0
1485.895996 184.0
1486.087891 56.0
1486.394897 56.0
1486.460938 112.0
1486.58667 148.0
1486.755615 156.0
1486.893677 164.0
1487.124023 104.0
1487.185425 116.0
1487.354248 96.0
1487.415649 128.0
1487.548096 176.0
1487.776489 128.0
1487.903198 188.0
1488.060547 168.0
1488.147949 156.0
1488.260132 140.0
1488.452148 112.0
1488.78064 104.0
1488.800537 164.0
1488.889893 100.0
1489.051147 120.0
1489.220215 88.0
1489.450562 116.0
1489.519775 152.0
1489.596558 132.0
1490.003784 132.0
1490.184204 204.0
1490.326416 128.0
1490.398682 172.0
1490.595459 64.0
1490.664551 160.0
1490.818237 76.0
1490.907104 160.0
1491.025757 164.0
1491.110352 60.0
1491.175415 168.0
1491.279419 132.0
1491.401611 156.0
1491.458496 200.0
1491.593506 140.0
1491.868896 176.0
1491.893066 120.0
1491.911499 156.0
1491.979004 96.0
1492.155762 232.0
1492.295776 328.0
1492.493286 172.0
1492.712524 208.0
1492.970947 228.0
1493.02478 84.0
1493.200439 132.0
1493.245605 112.0
1493.416992 176.0
1493.56311 120.0
1493.824707 48.0
1494.147827 132.0
1494.209351 92.0
1494.286377 200.0
1494.349487 188.0
1494.561768 76.0
1494.642822 200.0
1494.818848 136.0
1495.155884 132.0
1495.342407 84.0
1495.448364 200.0
1495.587646 304.0
1495.66394 124.0
1495.725464 136.0
1495.848633 40.0
1495.917969 232.0
1496.14502 104.0
1496.271851 132.0
1496.290405 128.0
1496.423584 264.0
1496.578125 192.0
1496.608765 144.0
1496.861816 240.0
1496.967407 164.0
1497.080566 116.0
1497.327026 132.0
1497.419189 104.0
1497.535034 160.0
1497.594238 76.0
1497.650513 96.0
1497.839478 156.0
1497.895996 152.0
1498.018555 176.0
1498.0896 136.0
1498.236084 132.0
1498.328491 188.0
1498.490234 156.0
1498.621338 192.0
1498.70105 160.0
1498.852417 116.0
1499.014282 108.0
1499.230103 156.0
1499.607666 112.0
1499.669434 184.0
1499.977051 148.0
1500.068481 164.0
1500.255249 116.0
1500.406006 136.0
1500.517334 112.0
1500.59082 192.0
1500.791138 48.0
1500.949219 172.0
1501.049438 160.0
1501.12793 140.0
1501.215088 156.0
1501.342529 156.0
1501.465942 60.0
1501.723999 180.0
1501.776733 120.0
1502.028931 124.0
1502.088623 200.0
1502.29126 112.0
1502.430176 148.0
1502.598511 192.0
1502.624756 248.0
1502.761841 52.0
1502.939331 128.0
1503.209473 120.0
1503.394653 252.0
1503.603027 100.0
1503.806152 212.0
1503.950439 264.0
1504.151123 28.0
1504.220581 196.0
1504.367188 84.0
1504.506226 144.0
1504.637451 224.0
1504.892212 88.0
1505.359009 168.0
