>compound Levofloxacin (Levaquin)
>formula C18H20FN3O4
>ionization [M+H]+
>parentmass 362.15106079209056
#inchi InChI=1S/C18H20FN3O4/c1-10-9-26-17-14-11(16(23)12(18(24)25)8-22(10)14)7-13(19)15(17)21-5-3-20(2)4-6-21/h7-8,10H,3-6,9H2,1-2H3,(H,24,25)/t10-/m1/s1
#inchikey GSDSWSVVBLHKDQ
#Ion_Source LC-ESI
#Instrument qTof
#Compound_Source Commercial
#PI Dorrestein
#Data_Collector Garg_Neha
#Scan -1
#Precursor_MZ 362.151
#ExactMass 361.144
#Charge 1
#CAS_Number 100986-85-4
#Pubmed_ID N/A
#Smiles C12=C3C=C(C(=C1OC[C@](N2C=C(C3=O)C(=O)O)(C)[H])N4CCN(CC4)C)F
#INCHI_AUX N/A
#Library_Class 1
#SpectrumID CCMSLIB00000078353
#IonMode Positive
#UpdateWorkflowName UPDATE-SINGLE-ANNOTATED-GOLD
#LibraryQualityString Gold
#TaskID 77f51c88eb8b467eb4a01dd2d0cb90d2
##Scan# 1023
#SpectrumFile Plate5_61_88_GH9_01_16511.mzXML
#LibraryName FDALibrary_2_04302014.mgf
#MQScore -1
#Organism FDALibrary_2_04302014
#TIC_Query 0
#RT_Query -1
#MZErrorPPM -1
#SharedPeaks 0
#MassDiff 0
#LibMZ -1
#SpecMZ 362.151
#SpecCharge 0
#internalFilename spec-00000.mgf

>collision 10
44.917358 188.0
45.107311 200.0
45.163231 200.0
45.210297 148.0
45.219666 200.0
45.493874 196.0
45.678551 172.0
45.907513 180.0
45.923698 184.0
45.958771 156.0
45.996559 156.0
46.147228 272.0
46.169498 180.0
46.403755 160.0
46.639961 192.0
46.684826 160.0
47.42754 148.0
47.478268 204.0
47.515301 168.0
47.560585 164.0
47.630615 188.0
47.752945 160.0
48.261799 168.0
48.383553 172.0
48.562305 160.0
48.786644 128.0
49.069866 148.0
49.092175 216.0
49.135414 196.0
49.886734 304.0
49.973244 164.0
50.089336 232.0
50.139404 148.0
50.478207 172.0
50.51498 148.0
51.261787 180.0
51.294567 172.0
51.350174 168.0
51.370144 164.0
51.49575 160.0
51.806149 156.0
51.895 232.0
52.422527 192.0
53.568584 140.0
53.755207 176.0
53.838413 316.0
53.92461 180.0
54.058125 176.0
54.499054 204.0
54.582836 168.0
54.615192 208.0
54.970245 180.0
55.213997 152.0
55.228786 200.0
55.471626 284.0
56.172009 156.0
56.195881 156.0
56.233185 156.0
56.436348 200.0
56.452797 160.0
56.620407 172.0
57.337025 144.0
57.401848 200.0
57.421452 176.0
57.542171 140.0
57.844521 160.0
57.989971 148.0
58.308647 140.0
58.524654 144.0
58.683773 148.0
58.782257 240.0
58.811256 164.0
59.112324 196.0
59.230209 196.0
59.556923 144.0
59.589184 168.0
59.765335 228.0
60.082455 120.0
60.101898 140.0
60.13739 164.0
60.214588 160.0
60.396969 184.0
60.513031 140.0
60.654518 180.0
60.782726 152.0
61.026585 176.0
61.076347 192.0
61.16132 244.0
61.670406 168.0
62.19508 164.0
62.220234 208.0
62.298756 152.0
62.459095 164.0
62.545635 172.0
62.786697 172.0
62.985565 192.0
63.636436 156.0
64.054688 148.0
64.090569 152.0
64.458328 196.0
64.554619 168.0
64.587822 144.0
64.647018 156.0
64.664627 236.0
64.82637 200.0
64.940201 228.0
65.044495 140.0
65.118355 172.0
65.259766 172.0
65.676857 188.0
65.796265 196.0
65.897263 124.0
66.172966 184.0
66.419289 172.0
66.500412 156.0
66.763275 136.0
66.934471 184.0
67.113708 164.0
67.466354 196.0
67.634842 240.0
68.115288 220.0
68.176941 164.0
68.256622 188.0
68.330635 184.0
68.381653 172.0
68.46067 148.0
68.565994 176.0
69.096153 164.0
69.117661 204.0
69.150757 176.0
69.940811 172.0
70.392616 176.0
70.514572 164.0
70.65168 156.0
70.805679 152.0
70.820747 228.0
70.839172 200.0
70.896141 168.0
70.927986 220.0
71.058792 140.0
71.226662 144.0
71.573105 144.0
71.59668 164.0
71.720451 208.0
71.958359 164.0
72.036896 200.0
72.150124 160.0
72.221146 148.0
72.275284 244.0
72.403931 148.0
72.445625 184.0
72.594322 184.0
72.748131 144.0
72.839828 180.0
73.091446 196.0
73.144203 148.0
73.157822 188.0
73.340637 160.0
73.435562 252.0
73.830078 152.0
73.934433 172.0
74.313271 208.0
74.582741 176.0
74.611961 152.0
74.68763 176.0
74.77021 148.0
74.925179 140.0
75.213165 180.0
75.315033 180.0
75.327126 192.0
75.37896 144.0
75.416977 144.0
75.475754 156.0
75.634918 196.0
76.41758 176.0
76.456635 188.0
76.602112 228.0
76.774666 248.0
76.805611 176.0
77.032982 168.0
77.099922 192.0
77.120346 156.0
77.228752 188.0
77.289978 144.0
77.743828 164.0
77.810989 200.0
77.984436 196.0
78.221893 160.0
78.652786 132.0
78.755669 228.0
78.800323 152.0
78.839203 356.0
78.961182 180.0
79.32061 144.0
79.345428 176.0
79.791046 180.0
79.814163 208.0
80.151115 132.0
80.266434 188.0
80.491264 140.0
81.08519 200.0
81.309364 160.0
81.744255 172.0
81.77845 160.0
81.821655 180.0
81.994576 184.0
82.118973 168.0
82.247078 248.0
82.391541 148.0
82.516243 148.0
82.878227 144.0
82.894592 140.0
83.043198 172.0
83.259918 116.0
83.377251 244.0
83.520889 152.0
84.034607 180.0
84.237251 152.0
84.306679 160.0
84.542587 224.0
84.747673 172.0
84.766273 132.0
85.140221 152.0
85.178795 152.0
85.824074 236.0
86.465919 96.0
86.593506 192.0
86.888237 148.0
87.070145 188.0
87.124016 180.0
87.347084 140.0
87.589066 152.0
87.605835 184.0
87.736282 296.0
88.016144 248.0
88.199226 216.0
88.531425 100.0
88.669014 172.0
88.9133 124.0
88.931587 176.0
89.13253 160.0
89.364517 188.0
89.416489 144.0
89.948006 156.0
90.072632 204.0
90.2257 252.0
90.352409 296.0
90.462166 176.0
90.60041 156.0
90.698944 140.0
90.86393 172.0
90.99868 156.0
91.317924 280.0
91.553909 156.0
91.942818 188.0
92.051628 204.0
92.11084 184.0
92.286659 168.0
92.329803 172.0
92.466469 172.0
92.571762 180.0
92.726936 140.0
92.953224 192.0
93.014641 232.0
93.043091 220.0
93.433563 196.0
93.68383 200.0
93.753197 176.0
93.776321 144.0
93.967232 212.0
93.988449 160.0
94.144806 148.0
94.21048 204.0
94.467583 284.0
94.880302 168.0
94.95182 152.0
95.033287 172.0
95.237907 264.0
95.271118 256.0
95.464508 172.0
95.538422 220.0
95.655182 148.0
95.692169 172.0
96.215523 228.0
96.423668 168.0
96.887405 148.0
97.05204 192.0
97.075569 204.0
97.11087 248.0
97.770996 164.0
97.811668 104.0
97.835945 148.0
97.930466 156.0
97.999413 164.0
98.056557 188.0
98.435326 140.0
98.484703 156.0
98.601265 192.0
99.088043 184.0
99.121727 172.0
99.310059 196.0
99.323944 168.0
99.415207 220.0
100.063385 208.0
100.097656 196.0
100.122932 188.0
100.334145 204.0
100.427864 184.0
100.888702 188.0
101.237274 148.0
101.338272 172.0
101.415581 172.0
101.754601 148.0
101.877106 168.0
101.933357 264.0
101.951447 156.0
102.551186 144.0
102.801262 156.0
102.825287 208.0
102.93853 172.0
103.172905 164.0
103.296265 160.0
103.74379 140.0
103.855316 140.0
104.259338 188.0
104.326416 152.0
104.843407 144.0
105.000381 168.0
105.411583 176.0
105.688797 176.0
105.772705 224.0
105.800514 96.0
106.010284 152.0
106.032829 204.0
106.143524 156.0
106.268646 192.0
106.336357 140.0
106.397942 184.0
106.510887 188.0
106.642387 140.0
106.963257 168.0
107.2743 188.0
107.319656 144.0
107.382225 188.0
107.424835 212.0
107.672523 152.0
108.028038 140.0
108.117004 172.0
108.338554 156.0
108.375847 188.0
108.502274 164.0
108.603882 168.0
108.674416 144.0
108.805168 168.0
108.825928 176.0
108.881996 160.0
109.017029 180.0
109.156303 172.0
109.17086 164.0
109.678864 144.0
109.766418 144.0
109.814384 156.0
109.897827 180.0
110.014397 136.0
110.060631 164.0
110.167145 200.0
110.342697 180.0
110.367783 152.0
110.512108 200.0
110.610466 164.0
110.716995 136.0
110.93515 168.0
111.178452 180.0
111.195244 244.0
111.224014 96.0
111.327499 168.0
111.369507 188.0
111.47245 164.0
111.783669 148.0
111.848907 172.0
111.874168 184.0
111.907852 140.0
111.989983 164.0
112.166931 192.0
112.420067 152.0
112.443275 164.0
112.662872 164.0
113.128113 184.0
113.397972 368.0
113.498878 176.0
113.832016 236.0
113.870247 156.0
114.193298 292.0
114.208183 140.0
114.42524 148.0
114.719231 148.0
114.751213 176.0
114.80452 144.0
115.192963 156.0
115.211807 220.0
115.250648 184.0
115.477249 184.0
115.830414 168.0
116.07473 164.0
116.22274 180.0
116.241478 120.0
116.282822 220.0
116.327896 156.0
116.377274 140.0
116.422371 228.0
116.701714 180.0
116.753319 288.0
116.959862 192.0
116.998611 148.0
117.045975 200.0
117.226921 192.0
117.479179 144.0
117.496437 240.0
117.559013 160.0
117.653984 164.0
118.133354 184.0
118.205132 148.0
118.332832 152.0
118.576035 160.0
118.766235 168.0
118.826981 188.0
119.172729 160.0
119.265633 160.0
119.478737 204.0
119.635429 172.0
119.709457 220.0
119.957832 148.0
120.12574 152.0
120.302498 364.0
120.754799 180.0
120.789795 156.0
121.04113 124.0
121.221268 216.0
121.769554 168.0
122.004662 196.0
122.064026 184.0
122.244408 176.0
122.468964 224.0
122.628975 180.0
122.993736 176.0
123.314003 152.0
123.745354 212.0
124.026695 156.0
124.206299 176.0
124.457077 156.0
124.630325 148.0
124.743668 240.0
124.788132 148.0
124.883751 140.0
125.019463 176.0
125.086235 164.0
125.63665 156.0
125.757149 212.0
125.935768 148.0
126.134628 176.0
126.252472 164.0
126.32917 256.0
126.423141 140.0
126.504837 176.0
126.650642 156.0
126.738426 140.0
126.884834 164.0
127.133537 180.0
127.234543 160.0
127.279442 208.0
127.508141 184.0
127.546791 200.0
127.886513 108.0
128.035019 160.0
128.053101 148.0
128.357269 188.0
128.393341 164.0
128.530945 208.0
129.045929 184.0
129.2314 164.0
129.353668 144.0
129.383026 216.0
129.483826 108.0
129.584595 204.0
129.700165 264.0
129.836197 144.0
129.926926 152.0
130.026764 156.0
130.417419 144.0
130.55838 192.0
130.751755 172.0
131.160324 128.0
131.223267 228.0
131.262909 188.0
131.394318 148.0
132.219208 164.0
132.709412 152.0
132.732346 260.0
132.863068 236.0
133.127029 148.0
133.453323 176.0
133.474014 152.0
133.637314 248.0
133.687943 148.0
134.001099 144.0
134.074829 160.0
134.319229 200.0
134.730118 148.0
134.92775 172.0
134.995926 200.0
135.050735 184.0
135.097687 216.0
135.557953 188.0
135.616379 196.0
135.988464 156.0
136.052475 180.0
136.177856 140.0
136.204453 160.0
136.610199 152.0
136.633469 172.0
136.873199 208.0
137.110809 224.0
137.194717 176.0
137.253006 144.0
137.525955 196.0
137.583755 152.0
137.626328 180.0
137.775803 152.0
137.805161 120.0
137.958084 172.0
138.029129 212.0
138.611069 228.0
138.883026 148.0
139.073074 204.0
139.104523 192.0
139.249161 152.0
139.348312 232.0
139.458267 184.0
139.655777 188.0
139.825165 148.0
139.99939 164.0
140.124222 180.0
140.312759 176.0
140.343414 176.0
140.383499 152.0
140.505264 248.0
140.654816 164.0
140.898056 160.0
140.919312 140.0
140.994934 148.0
141.075287 168.0
141.134399 176.0
141.19754 120.0
141.427734 152.0
141.481613 196.0
141.546112 152.0
141.752731 188.0
141.816177 172.0
141.842255 216.0
142.081772 192.0
142.167191 160.0
142.616058 160.0
142.884766 180.0
143.153717 168.0
143.194214 196.0
143.284729 168.0
143.310928 156.0
143.652405 156.0
143.981232 156.0
144.032242 192.0
144.079163 180.0
144.107834 176.0
144.134109 188.0
144.332504 172.0
144.394684 168.0
144.42099 148.0
144.483185 216.0
144.700974 148.0
144.894958 180.0
145.235367 168.0
145.261749 148.0
145.319046 212.0
145.436905 204.0
145.886108 164.0
145.969131 232.0
146.097717 200.0
146.603348 188.0
146.690125 148.0
146.709412 148.0
146.904739 196.0
147.025589 180.0
147.071228 156.0
147.141479 200.0
147.520523 148.0
147.745422 160.0
147.810745 164.0
147.919647 140.0
148.009232 204.0
148.144852 196.0
148.20459 128.0
148.238174 156.0
148.486618 164.0
148.559387 184.0
148.687988 360.0
148.782654 164.0
148.853058 168.0
148.946732 184.0
149.047394 180.0
149.305069 172.0
149.343979 188.0
149.560532 160.0
149.609207 144.0
149.655472 140.0
149.687119 192.0
149.833267 168.0
149.854111 160.0
150.033432 332.0
150.272537 180.0
150.540466 140.0
150.625031 168.0
150.670059 192.0
150.767792 192.0
150.870453 228.0
151.043915 320.0
151.066086 176.0
151.15416 192.0
151.403854 208.0
151.457733 148.0
151.509186 196.0
151.531235 144.0
151.597382 192.0
151.756714 140.0
151.979904 176.0
152.043716 188.0
152.127167 188.0
152.208191 144.0
152.247467 192.0
152.333435 152.0
152.527557 228.0
152.614288 260.0
152.810364 160.0
152.977722 152.0
153.041733 180.0
153.199646 232.0
153.459229 196.0
153.722046 152.0
154.003479 168.0
154.067703 144.0
154.228333 180.0
154.265411 168.0
154.300842 264.0
154.445908 152.0
154.59436 204.0
154.746552 136.0
154.787445 404.0
154.851822 168.0
155.315323 168.0
155.439178 156.0
155.861481 156.0
155.908707 236.0
155.929932 156.0
156.081207 132.0
156.10614 152.0
156.256821 176.0
156.356339 144.0
156.408615 212.0
156.435989 200.0
156.56546 200.0
156.815781 160.0
156.965958 168.0
157.051468 196.0
157.101349 160.0
157.173248 172.0
157.795624 172.0
157.910645 200.0
158.020691 264.0
158.210922 180.0
158.298553 160.0
158.59668 164.0
158.66687 144.0
158.895782 160.0
158.975388 164.0
159.022995 152.0
159.038284 132.0
159.228943 152.0
159.342316 208.0
160.05629 136.0
160.146439 140.0
160.160553 188.0
160.502274 148.0
160.594742 204.0
160.934967 280.0
160.956467 180.0
161.022125 140.0
161.060013 152.0
161.120865 132.0
161.201492 220.0
161.353134 164.0
161.424591 204.0
161.461868 212.0
161.502335 184.0
162.016205 156.0
162.051666 168.0
162.178375 140.0
162.20372 140.0
162.430923 220.0
162.756775 144.0
162.876724 228.0
162.926941 356.0
162.954895 164.0
163.015869 200.0
163.043335 176.0
163.198883 180.0
163.658066 120.0
164.045303 180.0
164.442017 172.0
164.472656 172.0
164.615616 148.0
164.929855 164.0
164.975876 156.0
165.044632 368.0
165.162537 180.0
165.397949 180.0
165.733429 164.0
165.774429 208.0
166.026794 172.0
166.053864 184.0
166.472183 176.0
166.865311 200.0
166.991302 156.0
167.072372 156.0
167.158524 192.0
167.196686 140.0
167.289795 148.0
168.315903 244.0
168.380463 208.0
168.602646 188.0
168.628494 228.0
168.695694 160.0
168.905151 156.0
168.967239 200.0
169.088852 204.0
169.130264 256.0
169.179443 148.0
169.239075 120.0
169.285599 144.0
169.425461 140.0
169.889496 196.0
169.993988 192.0
170.06076 392.0
170.143829 200.0
170.31781 176.0
170.40094 196.0
170.510071 176.0
170.601044 148.0
170.681641 144.0
170.925201 200.0
170.962585 220.0
171.055023 760.0
171.097931 148.0
171.212494 176.0
171.860748 164.0
172.011093 124.0
172.068649 280.0
172.1017 164.0
172.339386 172.0
172.43869 164.0
172.710602 144.0
172.853851 180.0
172.97226 152.0
173.029861 184.0
173.08223 160.0
173.205307 152.0
173.320587 164.0
173.418304 124.0
173.441132 196.0
173.69548 156.0
173.716461 156.0
174.023514 168.0
174.061142 156.0
174.191589 140.0
174.391281 148.0
174.470139 164.0
174.551651 172.0
174.634277 152.0
174.727875 196.0
174.79628 224.0
174.986877 148.0
175.06395 160.0
175.099365 156.0
175.17804 220.0
175.507965 152.0
175.787079 164.0
175.932358 180.0
176.011444 156.0
176.049606 308.0
176.070724 184.0
176.140854 172.0
176.442108 232.0
176.547882 184.0
176.58226 144.0
176.857422 192.0
176.886536 148.0
176.944778 256.0
177.009644 192.0
177.057205 224.0
177.153992 144.0
177.358032 160.0
177.396317 144.0
177.459198 144.0
177.607269 152.0
177.662979 148.0
177.742569 152.0
177.774323 120.0
178.029037 856.0
178.21254 248.0
178.51532 180.0
178.840134 148.0
178.986557 180.0
179.037613 1124.0
179.133026 204.0
179.495499 212.0
179.530991 128.0
179.655518 180.0
179.850311 144.0
179.912491 164.0
180.013168 140.0
180.042328 516.0
180.282974 164.0
180.331085 156.0
180.39389 160.0
180.651947 188.0
180.975784 152.0
181.093597 140.0
181.144501 152.0
181.994644 276.0
182.105118 148.0
182.327271 152.0
182.437943 180.0
182.497086 436.0
182.90062 156.0
183.119934 168.0
183.231842 192.0
183.277649 152.0
183.348877 176.0
183.385437 144.0
183.425873 156.0
183.652374 148.0
183.905991 144.0
183.93457 136.0
184.032867 152.0
184.059448 248.0
184.135483 144.0
184.443497 204.0
184.562454 164.0
184.586792 176.0
184.805878 172.0
184.826859 180.0
184.889771 164.0
184.957428 204.0
185.007645 116.0
185.070129 152.0
185.105026 164.0
185.192993 148.0
185.247345 124.0
185.336563 188.0
185.741913 124.0
186.075562 300.0
186.169327 160.0
186.225159 172.0
186.50351 144.0
186.536118 140.0
186.663895 228.0
186.756363 144.0
186.825851 236.0
187.06694 144.0
187.088348 140.0
187.352493 140.0
187.627747 144.0
187.742325 176.0
187.976868 144.0
188.051682 596.0
188.184311 268.0
188.222534 204.0
188.402771 188.0
188.435242 128.0
188.531219 160.0
188.601578 280.0
188.700684 216.0
189.007019 180.0
189.055939 284.0
189.084595 172.0
189.430115 164.0
189.985123 200.0
190.060242 560.0
190.116821 176.0
190.138779 176.0
190.199158 144.0
190.5177 180.0
190.536926 188.0
190.682571 184.0
190.729294 156.0
190.767776 140.0
190.872253 144.0
191.031036 308.0
191.058899 404.0
191.152924 224.0
191.221619 180.0
191.554779 208.0
192.044388 604.0
192.304779 144.0
192.439041 132.0
192.60849 196.0
192.672028 148.0
192.724518 160.0
192.752151 156.0
193.040344 1320.0
193.197296 156.0
193.725266 188.0
193.931076 176.0
193.983032 140.0
194.022812 1916.0
194.058395 864.0
194.335953 180.0
194.491364 192.0
194.760773 212.0
194.902374 192.0
194.928055 164.0
195.055435 488.0
195.25264 156.0
195.333298 152.0
195.725708 160.0
195.750763 200.0
195.851028 180.0
195.94017 196.0
196.044907 108.0
196.160324 216.0
196.486603 140.0
196.566879 196.0
196.804764 164.0
196.913681 548.0
197.151443 148.0
197.536987 152.0
197.622894 164.0
197.718857 140.0
197.759888 148.0
197.786026 176.0
197.920013 204.0
198.050446 156.0
198.079849 244.0
198.133255 188.0
198.189285 140.0
198.435944 156.0
199.050171 1232.0
199.224548 144.0
199.246933 120.0
199.442841 264.0
199.654587 152.0
199.705597 176.0
199.750214 176.0
199.975311 184.0
200.02832 256.0
200.056976 264.0
200.085098 348.0
200.276581 168.0
200.507614 160.0
200.561172 228.0
200.628815 148.0
200.813583 216.0
200.863251 180.0
201.009583 168.0
201.060577 180.0
201.351166 140.0
201.608246 200.0
201.661942 128.0
201.736755 120.0
201.845688 148.0
201.870163 208.0
201.905167 140.0
202.066269 928.0
202.193649 308.0
202.424332 164.0
202.530563 180.0
202.672211 204.0
202.723221 372.0
202.794067 224.0
202.821716 188.0
203.0336 228.0
203.061584 960.0
203.097443 160.0
203.174042 172.0
203.259155 152.0
203.625366 176.0
203.754456 188.0
203.943573 148.0
203.989059 200.0
204.044434 452.0
204.153961 148.0
204.25177 112.0
204.317062 152.0
204.378677 148.0
204.481125 188.0
204.672989 156.0
204.73819 144.0
204.856979 148.0
204.925354 152.0
204.970932 148.0
205.040436 3704.0
205.075485 4364.0
205.133392 152.0
205.255981 148.0
205.385452 132.0
205.64003 128.0
205.742767 240.0
205.855225 204.0
206.043076 1024.0
206.082077 184.0
206.26091 168.0
206.291656 392.0
206.314743 164.0
206.492508 184.0
206.77002 176.0
207.051407 552.0
207.271164 144.0
207.291214 148.0
207.362869 168.0
207.385483 184.0
207.480392 152.0
207.831726 168.0
208.060501 188.0
208.243668 172.0
208.503845 112.0
209.086044 204.0
209.192551 156.0
209.307709 192.0
209.543884 144.0
209.729004 176.0
209.761993 204.0
210.04837 176.0
210.08876 224.0
210.116272 184.0
210.199661 192.0
210.295517 116.0
210.322495 140.0
210.349442 120.0
210.541916 148.0
210.77301 144.0
210.833694 156.0
211.093872 152.0
211.117004 172.0
211.293549 116.0
211.467072 160.0
211.493118 156.0
211.554199 172.0
211.658127 252.0
211.985458 144.0
212.049042 132.0
212.115875 208.0
212.356537 164.0
213.004745 148.0
213.060043 508.0
213.099426 328.0
213.343796 156.0
213.457184 148.0
213.628784 152.0
214.059738 112.0
214.085144 224.0
214.222626 208.0
214.604416 176.0
214.925247 188.0
215.05867 604.0
215.38652 144.0
215.445892 192.0
215.491684 204.0
215.678711 156.0
215.813187 184.0
216.067764 260.0
216.402985 124.0
216.886642 140.0
216.931534 140.0
217.04007 496.0
217.088684 328.0
217.472275 208.0
217.509415 180.0
217.77684 148.0
217.826538 144.0
217.92128 192.0
218.054901 640.0
218.320312 176.0
218.411484 148.0
218.567413 148.0
218.682175 148.0
218.713348 136.0
218.767532 160.0
218.807022 132.0
218.968719 172.0
219.023056 160.0
219.056961 7820.0
219.200485 208.0
219.29599 192.0
219.483856 128.0
219.916718 172.0
219.996826 200.0
220.026276 168.0
220.062424 2592.0
220.176926 164.0
220.309845 196.0
220.353455 300.0
220.496002 160.0
220.608322 308.0
220.683533 100.0
220.792801 124.0
220.950272 140.0
220.983917 168.0
221.071777 15836.0
221.269638 140.0
221.632843 184.0
221.725952 132.0
221.780502 168.0
221.853424 180.0
221.915543 160.0
222.017685 160.0
222.073044 1312.0
222.397446 152.0
222.485153 132.0
222.623337 184.0
223.07724 132.0
223.118484 208.0
223.571884 148.0
223.639847 220.0
223.720993 136.0
224.048096 220.0
224.080627 312.0
224.304077 140.0
224.342819 160.0
224.494888 156.0
224.688766 152.0
224.724564 188.0
225.065552 244.0
225.372467 152.0
225.500961 144.0
225.639267 164.0
225.901642 180.0
226.003159 176.0
226.018753 192.0
226.06514 260.0
226.135025 172.0
226.182922 176.0
226.513718 152.0
226.546722 164.0
226.721863 216.0
226.769974 156.0
226.84491 148.0
227.074066 276.0
227.390808 168.0
227.513092 168.0
227.679016 192.0
227.787155 232.0
228.076813 360.0
228.102661 184.0
228.135727 196.0
228.174805 212.0
228.341049 196.0
228.379288 172.0
228.421402 232.0
228.490601 180.0
228.625992 148.0
228.70726 236.0
228.773483 240.0
228.8909 176.0
229.052597 232.0
229.074371 480.0
229.35611 128.0
229.378967 192.0
229.451309 140.0
229.54155 172.0
230.092102 312.0
230.205124 212.0
230.362686 168.0
230.427826 164.0
230.611572 208.0
230.874451 176.0
231.009598 144.0
231.054352 572.0
231.094269 408.0
231.378799 172.0
231.442368 212.0
231.648315 224.0
231.889771 180.0
231.940918 184.0
232.074005 876.0
232.118088 192.0
232.357697 192.0
232.676361 152.0
232.712784 188.0
232.977631 136.0
233.07402 4416.0
233.145844 208.0
233.305222 156.0
233.718842 152.0
233.968414 180.0
234.077209 1744.0
234.260757 156.0
234.30722 160.0
234.736221 176.0
235.08728 596.0
235.148056 244.0
235.32135 172.0
235.612198 196.0
235.898285 188.0
236.067245 136.0
236.104446 172.0
236.503738 144.0
236.67041 224.0
236.841904 144.0
237.074753 164.0
237.34758 144.0
238.087173 188.0
238.173111 140.0
238.492935 136.0
238.682358 164.0
238.763214 160.0
238.929321 176.0
238.960205 144.0
239.006241 212.0
239.080093 136.0
239.113937 212.0
239.193253 208.0
239.381775 172.0
239.412643 148.0
239.455673 172.0
239.532684 156.0
239.812607 160.0
240.086807 380.0
240.150345 176.0
240.513229 180.0
240.550262 152.0
240.625 196.0
240.718781 172.0
240.778748 184.0
241.061905 188.0
241.096359 1612.0
241.344254 180.0
241.418457 168.0
241.503189 132.0
241.743271 236.0
242.098694 728.0
242.294418 180.0
242.427643 144.0
242.681824 140.0
242.777084 188.0
242.933029 148.0
243.060059 144.0
243.092514 348.0
243.140915 160.0
243.249542 152.0
243.339584 152.0
243.401321 172.0
243.463776 156.0
243.535217 200.0
243.575211 224.0
243.622055 192.0
244.075714 488.0
244.137405 152.0
244.265656 220.0
244.34343 392.0
244.615051 184.0
244.707565 204.0
244.85704 156.0
244.898178 152.0
244.953598 140.0
245.069077 1668.0
245.70488 140.0
246.073776 612.0
246.21991 184.0
246.250122 172.0
246.38858 184.0
246.422165 256.0
246.576065 148.0
247.016922 212.0
247.086319 4572.0
247.13916 160.0
247.18959 148.0
247.362762 244.0
247.398026 112.0
247.480103 228.0
247.562393 184.0
247.711853 144.0
247.804642 148.0
247.965652 192.0
248.088333 1152.0
248.263474 152.0
248.317184 156.0
248.487381 192.0
248.526962 140.0
248.599136 160.0
248.683868 140.0
249.060547 124.0
249.091278 144.0
249.355988 216.0
249.462341 148.0
249.576035 160.0
249.601196 144.0
249.865005 132.0
249.991257 148.0
250.057343 144.0
250.160034 140.0
250.248108 160.0
250.674591 152.0
250.819565 212.0
251.128555 164.0
251.264206 188.0
251.387253 144.0
251.494553 236.0
252.026413 192.0
252.123047 192.0
252.145172 196.0
252.217865 156.0
252.432846 252.0
252.489777 168.0
252.660583 156.0
252.831451 152.0
252.885254 168.0
252.935898 144.0
253.094894 500.0
253.115753 464.0
253.651764 208.0
254.053162 228.0
254.09819 232.0
254.126358 184.0
254.303802 168.0
254.486115 144.0
254.726837 140.0
255.029327 184.0
255.066238 120.0
255.102356 1080.0
255.150253 264.0
255.331375 172.0
255.45224 140.0
255.819138 120.0
255.964478 164.0
256.032349 156.0
256.107941 492.0
256.142365 164.0
256.295898 172.0
256.665649 140.0
256.96402 348.0
257.105743 304.0
257.172699 192.0
257.208008 176.0
257.284607 152.0
257.610352 200.0
257.687286 148.0
257.731445 160.0
257.823029 148.0
258.104126 120.0
258.159485 152.0
258.608887 140.0
258.687988 140.0
258.710419 144.0
258.786865 168.0
258.99472 184.0
259.091675 620.0
259.141541 164.0
259.165192 220.0
259.338226 172.0
259.488892 148.0
259.549805 148.0
259.684021 132.0
259.934723 156.0
260.027802 200.0
260.052032 136.0
260.119141 176.0
260.194702 172.0
260.304749 148.0
260.345612 292.0
260.380951 148.0
260.462585 136.0
260.500183 160.0
260.605804 168.0
260.645721 160.0
260.676514 156.0
260.778687 140.0
260.788849 144.0
260.85025 204.0
260.90509 100.0
260.946442 376.0
260.971252 368.0
261.009308 412.0
261.057739 448.0
261.104065 160324.0
261.179443 184.0
261.203613 380.0
261.259888 152.0
261.307678 240.0
261.356628 196.0
261.400299 164.0
261.46048 260.0
261.488586 192.0
261.632202 220.0
261.675873 212.0
261.725464 320.0
261.767212 180.0
261.811737 356.0
261.873474 120.0
261.942932 196.0
261.974091 200.0
262.029327 152.0
262.105927 16516.0
262.319885 144.0
262.402802 120.0
262.500092 188.0
262.814087 136.0
262.909241 100.0
263.067627 148.0
263.107971 1244.0
263.30307 156.0
263.352203 96.0
263.372162 184.0
263.45578 164.0
263.502289 172.0
263.665344 108.0
263.696747 172.0
263.773499 164.0
263.82135 120.0
263.883179 256.0
263.935272 116.0
263.961853 232.0
264.00473 148.0
264.051392 156.0
264.115204 180.0
264.250336 160.0
264.57431 100.0
264.62027 148.0
264.673889 116.0
264.701355 132.0
264.726532 152.0
264.872559 184.0
264.941925 156.0
265.054321 104.0
265.105835 96.0
265.778412 144.0
265.833588 228.0
266.086731 204.0
266.389862 180.0
266.433502 140.0
266.638947 160.0
266.77298 140.0
267.089844 168.0
267.143555 204.0
267.406494 196.0
268.072998 264.0
268.112244 520.0
268.140442 208.0
268.276184 200.0
268.409851 204.0
268.476624 152.0
268.80014 104.0
269.000366 200.0
269.068939 200.0
269.11377 552.0
269.32431 212.0
269.349762 180.0
269.647095 152.0
270.019806 160.0
270.045959 156.0
270.091431 288.0
270.123871 1956.0
270.271698 164.0
270.333862 164.0
270.425507 144.0
270.51059 152.0
270.952698 116.0
270.979919 104.0
271.085541 308.0
271.127533 356.0
271.273865 148.0
271.562225 144.0
272.0513 172.0
272.113678 184.0
272.159637 204.0
272.281158 152.0
272.465088 172.0
272.570221 180.0
272.672119 156.0
272.947021 140.0
273.10199 2332.0
273.598846 152.0
273.770905 224.0
273.820312 172.0
273.846649 140.0
274.105957 520.0
274.20578 176.0
274.36618 152.0
274.697052 204.0
274.815826 164.0
274.964874 140.0
275.001862 140.0
275.030334 260.0
275.118164 1636.0
275.561981 168.0
275.83136 156.0
276.086395 168.0
276.119904 240.0
276.501099 144.0
276.524261 176.0
276.640106 140.0
276.678223 220.0
277.010986 192.0
277.090576 188.0
277.131561 132.0
277.505859 232.0
277.856354 152.0
277.916077 156.0
278.311035 164.0
278.752808 156.0
278.825928 180.0
278.962189 176.0
279.063812 160.0
279.179077 140.0
279.295441 220.0
279.351929 164.0
279.870453 160.0
280.076294 108.0
280.576782 196.0
280.630127 160.0
280.913574 160.0
281.063721 200.0
281.11264 356.0
281.247253 144.0
281.50769 200.0
282.065613 140.0
282.101013 236.0
282.124908 476.0
282.326935 224.0
282.355865 192.0
282.828247 184.0
283.097137 168.0
283.122284 112.0
283.461212 172.0
283.517426 196.0
283.66568 172.0
284.130951 492.0
284.605042 148.0
284.981201 168.0
285.100616 320.0
285.157532 496.0
285.576233 196.0
285.704041 216.0
286.099548 244.0
286.153625 160.0
286.205536 152.0
286.791687 232.0
286.955658 144.0
287.079407 648.0
287.121063 180.0
287.358215 168.0
288.110748 520.0
288.145966 192.0
288.246246 140.0
288.545807 204.0
288.586823 192.0
289.132965 148.0
289.321198 144.0
289.506714 144.0
290.019592 160.0
290.056854 152.0
290.134827 196.0
290.567383 248.0
290.811462 172.0
290.986389 172.0
291.196899 236.0
291.705902 180.0
291.964996 144.0
292.182678 196.0
292.727264 160.0
292.890747 172.0
293.541687 144.0
293.707428 192.0
294.043152 184.0
294.080688 204.0
294.681702 148.0
294.944855 148.0
295.016632 160.0
295.108948 144.0
295.293579 172.0
295.320953 192.0
295.492004 192.0
295.635712 168.0
295.999969 156.0
296.104431 308.0
296.136993 400.0
296.460052 156.0
296.772949 140.0
296.868958 176.0
297.009552 168.0
297.105621 392.0
297.148621 304.0
297.452209 364.0
297.572357 176.0
297.832275 140.0
298.154449 1288.0
298.211304 152.0
298.513824 144.0
299.02298 180.0
299.158386 280.0
299.274261 156.0
299.511871 144.0
299.536011 152.0
299.692566 160.0
299.7565 188.0
299.81015 140.0
300.466766 160.0
300.569092 168.0
300.618683 128.0
300.687592 160.0
300.946503 172.0
301.087158 424.0
301.121429 2604.0
301.720398 160.0
301.798004 148.0
302.096313 304.0
302.128632 252.0
302.471069 176.0
302.512604 196.0
302.543762 188.0
302.732422 144.0
302.786133 148.0
302.813843 140.0
303.104828 256.0
303.130768 152.0
303.305847 180.0
303.648438 192.0
303.867645 152.0
303.919678 160.0
303.999481 156.0
304.582764 164.0
304.961487 172.0
305.027527 200.0
305.094208 284.0
305.152679 172.0
305.730103 164.0
305.754456 184.0
306.112183 132.0
306.749542 148.0
307.126373 228.0
307.315552 156.0
307.71344 152.0
307.914673 140.0
308.090607 180.0
308.172424 152.0
308.266632 128.0
308.433075 152.0
308.793182 300.0
308.835175 128.0
308.873627 192.0
308.933105 180.0
308.96109 200.0
309.129028 168.0
309.159302 180.0
309.535095 240.0
309.820496 148.0
310.046143 140.0
310.225311 148.0
310.455017 140.0
310.530365 212.0
310.636292 220.0
311.347931 188.0
311.393738 148.0
311.565857 252.0
311.997009 152.0
312.363831 212.0
312.474487 212.0
312.515106 168.0
312.85498 176.0
313.127625 140.0
313.225586 152.0
313.666687 172.0
313.825348 168.0
314.12793 160.0
314.322052 156.0
314.845123 204.0
315.044861 160.0
315.113586 200.0
315.256042 152.0
315.46344 164.0
315.775726 128.0
315.891327 180.0
316.031647 132.0
316.144714 4856.0
316.267548 128.0
316.308014 244.0
316.351349 208.0
316.43631 160.0
316.786926 160.0
317.057922 116.0
317.148132 1528.0
317.271057 168.0
317.319427 152.0
317.40213 200.0
317.462555 232.0
317.498657 204.0
317.52951 128.0
317.565094 96.0
317.632721 140.0
317.690887 172.0
317.827271 108.0
317.900208 148.0
317.954498 388.0
317.984558 136.0
318.084473 136.0
318.161804 116796.0
318.245789 228.0
318.359283 212.0
318.442047 136.0
318.575378 196.0
318.653931 136.0
318.70105 128.0
318.744415 256.0
318.922455 96.0
318.974823 196.0
319.027222 116.0
319.163727 24480.0
319.355408 96.0
319.423431 208.0
319.48703 184.0
319.556763 152.0
319.593292 288.0
319.695892 208.0
319.744629 100.0
320.16568 2152.0
320.428101 236.0
320.489716 132.0
320.525452 104.0
320.56369 188.0
320.716461 116.0
320.761902 184.0
320.809357 116.0
320.899261 132.0
320.939392 100.0
321.087067 128.0
321.168396 328.0
321.286926 96.0
321.353088 212.0
321.392883 140.0
321.426727 96.0
321.458252 172.0
322.393341 140.0
323.420807 144.0
323.449432 156.0
323.765198 228.0
324.011658 144.0
324.135498 148.0
324.207458 168.0
324.326996 212.0
325.151917 152.0
325.201416 152.0
325.286743 204.0
325.661743 164.0
325.737152 256.0
325.773071 232.0
325.825531 160.0
326.252991 152.0
326.445343 100.0
327.089203 172.0
327.2901 224.0
328.292542 156.0
328.582489 124.0
328.631622 168.0
328.912415 208.0
329.123199 120.0
329.238037 180.0
329.337555 188.0
329.64624 180.0
329.942627 144.0
330.471191 168.0
330.629883 144.0
330.738464 156.0
331.380066 112.0
331.448853 172.0
331.505219 100.0
331.81073 144.0
331.999268 228.0
332.13028 168.0
332.260437 208.0
333.05542 176.0
333.327881 168.0
333.541443 156.0
333.687714 148.0
333.807465 124.0
334.084106 164.0
334.337524 112.0
334.454376 192.0
334.549927 188.0
334.64093 200.0
335.005127 168.0
335.205505 184.0
335.8508 156.0
336.284973 184.0
336.881836 208.0
337.724548 160.0
338.181885 164.0
338.650543 168.0
338.840759 108.0
339.892151 168.0
340.113495 184.0
341.785645 156.0
341.873962 156.0
342.253082 244.0
342.297272 148.0
342.883026 300.0
343.129578 112.0
343.410248 172.0
343.703979 260.0
344.139465 6448.0
344.218445 248.0
344.667938 168.0
344.987915 180.0
345.143219 1884.0
345.326202 164.0
345.401093 192.0
345.604553 188.0
345.893219 200.0
346.059814 224.0
346.14917 320.0
346.22644 176.0
346.604279 228.0
346.645721 176.0
347.056488 224.0
347.327789 124.0
347.527527 152.0
347.674164 136.0
347.958069 188.0
348.043457 148.0
349.042969 144.0
349.08017 156.0
349.158264 148.0
349.186279 180.0
351.191772 208.0
351.463654 200.0
351.870636 196.0
352.464813 160.0
352.588135 164.0
352.662872 168.0
353.062897 168.0
353.156403 164.0
353.343445 172.0
353.504333 176.0
353.818726 212.0
354.620361 180.0
355.501678 192.0
355.850739 148.0
356.019714 220.0
356.406616 200.0
356.542114 140.0
356.797516 212.0
356.842621 160.0
356.996582 148.0
357.56485 144.0
358.027924 164.0
358.13382 164.0
358.186096 244.0
358.223755 224.0
358.381989 160.0
358.421814 148.0
358.686371 208.0
359.075226 108.0
359.141663 148.0
359.18808 200.0
359.367218 152.0
359.442871 180.0
359.544312 200.0
359.596527 172.0
359.70694 112.0
359.900665 168.0
360.074921 204.0
360.122437 348.0
360.207764 160.0
360.331909 360.0
360.421387 96.0
360.536865 344.0
360.604675 144.0
360.721832 204.0
360.860046 168.0
360.938782 260.0
361.024292 312.0
361.08078 356.0
361.138458 336.0
361.171204 200.0
361.218079 156.0
361.266602 132.0
361.32132 176.0
361.364197 180.0
361.41745 356.0
361.468384 220.0
361.525024 176.0
361.594666 412.0
361.638458 144.0
361.660461 156.0
361.728363 96.0
361.778381 304.0
361.83847 256.0
361.855499 168.0
361.866119 176.0
361.895142 300.0
361.939026 500.0
361.965851 240.0
361.990845 616.0
362.045593 440.0
362.153107 212756.0
362.236877 216.0
362.286926 116.0
362.405762 180.0
362.431671 172.0
362.471771 204.0
362.500793 380.0
362.575287 192.0
362.625519 124.0
362.693665 124.0
362.724182 168.0
362.777771 5344.0
362.829559 432.0
362.941956 128.0
363.060181 224.0
363.15448 66116.0
363.25351 156.0
363.294556 184.0
363.339142 112.0
363.379303 220.0
363.41925 252.0
363.499176 216.0
363.551331 188.0
363.619934 160.0
363.660309 208.0
363.729095 272.0
363.789185 164.0
363.860809 216.0
363.894226 116.0
363.932861 108.0
364.064789 220.0
364.155914 9512.0
364.267731 96.0
364.329803 128.0
364.512665 176.0
364.680359 124.0
364.823273 160.0
364.939972 156.0
365.006897 252.0
365.058258 212.0
365.154449 1148.0
365.241638 152.0
365.263885 208.0
365.30246 204.0
365.312988 204.0
365.360809 160.0
365.402008 192.0
365.430481 152.0
365.534058 244.0
365.630707 208.0
365.669128 220.0
365.708771 124.0
365.7789 128.0
365.840698 100.0
365.999756 116.0
366.157776 196.0
366.207489 168.0
366.37793 188.0
366.487427 116.0
366.536835 204.0
367.151642 184.0
367.341858 96.0
367.429626 112.0
368.063568 156.0
368.275757 144.0
368.361389 96.0
368.740417 128.0
370.530457 96.0
374.19278 144.0
378.130096 172.0
378.213837 144.0
379.981201 120.0
380.640656 108.0
381.541534 148.0
382.694183 96.0
383.016937 152.0
388.447327 116.0
403.193176 164.0
406.360535 148.0
416.460785 172.0
457.700378 100.0
483.181244 156.0
485.053741 100.0
498.836975 156.0
515.70459 148.0
576.496582 132.0
583.712524 160.0
871.717529 148.0
1043.783447 144.0
1149.031616 196.0
1177.821655 144.0
1296.93103 148.0
1342.851562 184.0
1351.237427 140.0
1510.943604 152.0
1519.519897 180.0
1597.353027 172.0
1598.156494 236.0
1610.672607 144.0
1620.584473 144.0
1622.107178 140.0
1636.599976 220.0
1641.894165 164.0
1670.925049 196.0
1698.963135 172.0
1729.832642 176.0
1757.716064 140.0
1760.896606 180.0
1770.522705 184.0
1795.473999 156.0
1820.914185 200.0
1829.408569 140.0
1832.014282 168.0
1863.566162 160.0
1878.56311 172.0
1893.369019 204.0
1917.738892 216.0
1933.940674 164.0
1949.358276 156.0
1954.000732 160.0
1956.535278 160.0
1961.768066 176.0
1974.128784 188.0
1990.468994 172.0
