>compound MLS000860078-01!Citalopram
>formula C20H21FN2O
>ionization [M+H]+
>parentmass 325.170441
#inchi InChI=1S/C20H21FN2O/c1-23(2)11-3-10-20(17-5-7-18(21)8-6-17)19-9-4-15(13-22)12-16(19)14-24-20/h4-9,12H,3,10-11,14H2,1-2H3
#inchikey WSEQXVZVJXJVFP
#origInchi InChI=1S/C20H21FN2O.BrH/c1-23(2)11-3-10-20(17-5-7-18(21)8-6-17)19-9-4-15(13-22)12-16(19)14-24-20;/h4-9,12H,3,10-11,14H2,1-2H3;1H
#Ion_Source LC-ESI
#Instrument qTof
#Compound_Source NIH Pharmacologically Active Library
#PI Dorrestein
#Data_Collector VP/LMS
#Scan -1
#Precursor_MZ 325.174
#ExactMass 324.164
#Charge 1
#CAS_Number N/A
#Pubmed_ID N/A
#Smiles CN(C)CCCC1(OCc2cc(C#N)ccc21)c3ccc(F)cc3.Br
#INCHI_AUX N/A
#Library_Class 1
#SpectrumID CCMSLIB00000085899
#IonMode Positive
#UpdateWorkflowName UPDATE-SINGLE-ANNOTATED-GOLD
#LibraryQualityString Gold
#TaskID d252d724072548979f1f6f1ced849daf
##Scan# 1641
#SpectrumFile p4-G09_GG9_01_18405.mzXML
#LibraryName Pharm_Active_Library.mgf
#MQScore -1
#Organism Pharm_Active_Library
#TIC_Query 0
#RT_Query -1
#MZErrorPPM -1
#SharedPeaks 0
#MassDiff 0
#LibMZ -1
#SpecMZ 325.174
#SpecCharge 0
#internalFilename spec-00000.mgf

>collision 10
44.902237 132.0
44.916805 168.0
44.926144 172.0
44.954235 156.0
44.964844 148.0
44.980858 200.0
45.005135 132.0
45.02618 140.0
45.040264 148.0
45.06778 196.0
45.092728 160.0
45.099998 148.0
45.138515 136.0
45.155903 108.0
45.177307 144.0
45.193359 120.0
45.214771 108.0
45.229496 204.0
45.242313 172.0
45.284397 192.0
45.30315 144.0
45.315208 300.0
45.334553 220.0
45.366825 148.0
45.410038 292.0
45.452034 96.0
45.470657 100.0
45.492241 156.0
45.507011 56.0
45.517754 188.0
45.535156 188.0
45.538944 180.0
45.566109 112.0
45.594715 152.0
45.605976 108.0
45.637344 124.0
45.657516 132.0
45.674583 180.0
45.691566 128.0
45.74094 232.0
45.779987 132.0
45.7948 140.0
45.811893 244.0
45.820675 212.0
45.832523 152.0
45.854088 148.0
45.867565 164.0
45.88509 208.0
45.909836 104.0
45.934654 112.0
45.948483 296.0
45.965485 120.0
46.029469 160.0
46.042973 140.0
46.06995 144.0
46.10696 148.0
46.136902 168.0
46.163254 116.0
46.231949 180.0
46.236038 140.0
46.247101 144.0
46.27293 156.0
46.344646 120.0
46.373833 176.0
46.394794 236.0
46.414253 216.0
46.48682 104.0
46.52911 72.0
46.549477 108.0
46.573586 96.0
46.597019 204.0
46.629505 252.0
46.665451 264.0
46.674057 284.0
46.712578 96.0
46.737293 144.0
46.746593 204.0
46.756119 132.0
46.787094 344.0
46.820553 160.0
46.852077 332.0
46.862339 224.0
46.885506 152.0
46.904015 176.0
46.927406 184.0
46.937687 188.0
46.96595 124.0
46.983685 156.0
47.000057 176.0
47.056885 120.0
47.076504 40.0
47.088795 104.0
47.122948 148.0
47.136612 84.0
47.174881 156.0
47.206703 156.0
47.221375 44.0
47.240448 144.0
47.259449 48.0
47.286629 300.0
47.299759 168.0
47.322041 164.0
47.342041 72.0
47.389198 196.0
47.40506 168.0
47.419907 124.0
47.434986 136.0
47.450409 48.0
47.503551 212.0
47.548832 140.0
47.585896 184.0
47.625725 200.0
47.638088 120.0
47.666489 180.0
47.68412 156.0
47.701302 92.0
47.720551 208.0
47.747681 148.0
47.81789 100.0
47.858143 128.0
47.86916 104.0
47.895329 144.0
47.909103 424.0
47.920212 128.0
47.933907 148.0
47.960094 168.0
47.979393 152.0
47.989044 216.0
48.002834 44.0
48.024872 204.0
48.03907 176.0
48.074543 200.0
48.103554 128.0
48.114601 140.0
48.146358 52.0
48.178131 180.0
48.209476 148.0
48.234276 140.0
48.350082 188.0
48.373123 180.0
48.414661 128.0
48.458992 160.0
48.491547 124.0
48.50708 284.0
48.533962 284.0
48.553253 100.0
48.565739 200.0
48.579609 168.0
48.589321 172.0
48.607361 212.0
48.618206 196.0
48.637894 192.0
48.653858 168.0
48.697948 276.0
48.731792 176.0
48.755955 144.0
48.767906 216.0
48.792297 212.0
48.807392 152.0
48.844379 176.0
48.857464 164.0
48.872768 144.0
48.904778 136.0
48.932621 56.0
48.943344 148.0
48.967434 188.0
48.97644 184.0
48.988327 136.0
49.019634 128.0
49.04982 128.0
49.083107 160.0
49.127068 208.0
49.132336 108.0
49.13932 132.0
49.15704 192.0
49.213352 140.0
49.231945 232.0
49.257122 212.0
49.281319 220.0
49.303677 168.0
49.32045 144.0
49.347012 104.0
49.358196 92.0
49.379917 204.0
49.414555 168.0
49.429539 48.0
49.439335 188.0
49.470131 172.0
49.526142 136.0
49.53875 228.0
49.549957 152.0
49.577984 108.0
49.610222 168.0
49.646679 168.0
49.665676 148.0
49.730537 172.0
49.747707 68.0
49.758938 140.0
49.787022 180.0
49.820736 196.0
49.83057 96.0
49.853054 160.0
49.867496 144.0
49.898762 324.0
49.91069 176.0
49.926159 128.0
49.950069 256.0
49.965546 164.0
49.992741 196.0
50.044365 56.0
50.071285 136.0
50.08239 136.0
50.095066 56.0
50.104927 132.0
50.127289 152.0
50.144554 132.0
50.159889 160.0
50.181744 96.0
50.206421 108.0
50.231808 132.0
50.25156 120.0
50.268219 184.0
50.277531 288.0
50.305191 128.0
50.316486 220.0
50.344727 176.0
50.367325 160.0
50.380039 96.0
50.401234 120.0
50.437981 136.0
50.462109 176.0
50.497974 144.0
50.508408 144.0
50.541222 152.0
50.583431 180.0
50.599255 48.0
50.610584 36.0
50.643154 220.0
50.69416 104.0
50.712585 228.0
50.730026 184.0
50.740936 96.0
50.750862 136.0
50.769299 140.0
50.784134 104.0
50.806282 164.0
50.823772 160.0
50.856056 160.0
50.872879 76.0
50.904163 124.0
50.914059 176.0
50.973724 148.0
50.986515 176.0
51.007835 164.0
51.027317 188.0
51.03233 244.0
51.04406 148.0
51.09174 176.0
51.132778 200.0
51.155781 148.0
51.182106 172.0
51.186417 124.0
51.201347 132.0
51.222359 144.0
51.261181 36.0
51.276859 148.0
51.297504 176.0
51.326756 144.0
51.33709 160.0
51.362873 148.0
51.398079 144.0
51.415741 100.0
51.495724 152.0
51.518337 160.0
51.534222 260.0
51.545162 120.0
51.561466 220.0
51.58947 88.0
51.602337 112.0
51.630939 164.0
51.660976 308.0
51.706139 164.0
51.720146 120.0
51.771191 128.0
51.786945 172.0
51.842072 172.0
51.852058 276.0
51.885826 156.0
51.901596 384.0
51.926434 236.0
51.948929 160.0
51.960407 164.0
51.971886 108.0
51.993408 220.0
52.069733 156.0
52.115475 176.0
52.138466 116.0
52.184673 112.0
52.199158 92.0
52.23624 192.0
52.254723 160.0
52.280846 152.0
52.294769 132.0
52.313461 176.0
52.32835 188.0
52.355587 256.0
52.399494 104.0
52.431736 352.0
52.45369 40.0
52.463779 156.0
52.479053 108.0
52.50127 96.0
52.515926 172.0
52.542728 200.0
52.58062 84.0
52.592167 168.0
52.606602 220.0
52.635479 264.0
52.649921 172.0
52.680256 112.0
52.696148 160.0
52.707706 60.0
52.768414 428.0
52.788658 220.0
52.815289 212.0
52.842178 180.0
52.878162 208.0
52.911652 116.0
52.933372 84.0
52.965237 144.0
52.98262 148.0
53.010151 72.0
53.023369 132.0
53.108051 128.0
53.147911 44.0
53.166775 160.0
53.17963 84.0
53.192902 44.0
53.20948 216.0
53.232105 84.0
53.248081 120.0
53.292286 232.0
53.301182 348.0
53.312538 104.0
53.363743 176.0
53.396328 164.0
53.415531 160.0
53.437061 180.0
53.447247 332.0
53.458889 128.0
53.496731 188.0
53.531677 212.0
53.55061 120.0
53.565998 128.0
53.585571 212.0
53.622005 164.0
53.64122 132.0
53.659904 164.0
53.69479 152.0
53.714642 308.0
53.728455 136.0
53.744503 92.0
53.762016 144.0
53.786831 156.0
53.802887 204.0
53.813107 152.0
53.862762 132.0
53.894905 176.0
53.905132 244.0
53.940731 236.0
53.95483 48.0
53.980614 164.0
54.001904 168.0
54.020641 88.0
54.083019 312.0
54.095974 132.0
54.112965 148.0
54.127487 116.0
54.140926 136.0
54.15678 188.0
54.171429 192.0
54.203701 140.0
54.233311 208.0
54.254963 156.0
54.275871 184.0
54.296021 48.0
54.312153 192.0
54.325356 64.0
54.360569 156.0
54.372311 144.0
54.384052 116.0
54.414883 112.0
54.446819 160.0
54.468987 252.0
54.484638 324.0
54.522118 112.0
54.593071 168.0
54.609463 176.0
54.66082 184.0
54.698547 156.0
54.719234 108.0
54.739849 340.0
54.782162 176.0
54.808437 108.0
54.826767 260.0
54.838558 216.0
54.865902 400.0
54.885662 148.0
54.904903 176.0
54.925217 192.0
54.933334 204.0
54.959835 180.0
55.033291 112.0
55.062088 144.0
55.07756 160.0
55.093845 280.0
55.114532 156.0
55.132568 404.0
55.161827 140.0
55.184166 144.0
55.22541 52.0
55.272755 140.0
55.326038 132.0
55.355652 188.0
55.39032 312.0
55.402378 192.0
55.413639 136.0
55.41848 232.0
55.434166 104.0
55.471222 136.0
55.483135 112.0
55.539433 140.0
55.572071 132.0
55.592846 88.0
55.612873 292.0
55.6255 200.0
55.637375 88.0
55.673904 120.0
55.68935 124.0
55.701233 124.0
55.714603 152.0
55.735405 120.0
55.771076 88.0
55.786118 160.0
55.79298 76.0
55.830242 312.0
55.860294 76.0
55.900467 160.0
55.921642 168.0
55.933178 168.0
55.987518 76.0
56.010151 216.0
56.020611 180.0
56.036057 140.0
56.052364 168.0
56.070248 172.0
56.085152 132.0
56.126896 124.0
56.150757 136.0
56.174698 156.0
56.19175 148.0
56.211197 148.0
56.243267 116.0
56.261181 172.0
56.28059 156.0
56.291042 136.0
56.306499 172.0
56.316433 276.0
56.333862 192.0
56.366547 148.0
56.413464 176.0
56.446873 192.0
56.458897 176.0
56.482353 80.0
56.49432 204.0
56.50629 152.0
56.543533 180.0
56.560165 184.0
56.597595 136.0
56.621555 264.0
56.652191 160.0
56.697964 148.0
56.722286 132.0
56.754929 104.0
56.790924 248.0
56.801422 224.0
56.833439 288.0
56.844936 148.0
56.865944 56.0
56.878529 148.0
56.916988 104.0
56.936512 108.0
56.965012 152.0
56.984581 96.0
56.999607 128.0
57.029621 132.0
57.034035 128.0
57.059406 212.0
57.077774 124.0
57.095955 136.0
57.141041 132.0
57.195129 164.0
57.232765 152.0
57.258308 100.0
57.275555 156.0
57.298271 212.0
57.31712 292.0
57.347263 180.0
57.362274 100.0
57.402195 156.0
57.416618 56.0
57.436226 96.0
57.446785 184.0
57.493084 164.0
57.508656 100.0
57.538849 128.0
57.557404 152.0
57.609982 240.0
57.722004 148.0
57.757977 136.0
57.807205 172.0
57.823395 68.0
57.834347 176.0
57.859371 96.0
57.879055 152.0
57.896889 144.0
57.912373 168.0
57.941154 148.0
57.959335 180.0
58.000256 128.0
58.010868 192.0
58.027672 96.0
58.045456 148.0
58.066975 140.0
58.092762 260.0
58.154976 392.0
58.166824 124.0
58.198795 236.0
58.21175 128.0
58.224907 136.0
58.241528 92.0
58.300781 184.0
58.319473 228.0
58.338528 240.0
58.348843 188.0
58.368256 260.0
58.398087 172.0
58.4133 196.0
58.427929 136.0
58.438595 236.0
58.462257 180.0
58.488907 176.0
58.51416 160.0
58.527447 164.0
58.545528 128.0
58.565521 236.0
58.593388 68.0
58.609703 244.0
58.641705 144.0
58.6716 180.0
58.693764 192.0
58.71489 208.0
58.731667 124.0
58.749973 244.0
58.765202 288.0
58.794224 152.0
58.808224 232.0
58.849178 196.0
58.86903 196.0
58.895428 156.0
58.908745 232.0
58.94083 108.0
58.967495 268.0
58.986679 104.0
59.020218 188.0
59.037136 180.0
59.047165 160.0
59.063637 196.0
59.075378 184.0
59.089806 204.0
59.110569 248.0
59.14883 148.0
59.182827 136.0
59.194763 172.0
59.237648 208.0
59.261036 136.0
59.285561 324.0
59.295658 160.0
59.320404 88.0
59.37114 176.0
59.391644 140.0
59.420055 176.0
59.457638 128.0
59.476871 188.0
59.493496 376.0
59.518562 216.0
59.548653 112.0
59.565933 128.0
59.595127 128.0
59.627396 212.0
59.704269 200.0
59.730419 108.0
59.775036 188.0
59.78973 204.0
59.803253 144.0
59.835068 124.0
59.849556 88.0
59.916695 160.0
59.931458 200.0
59.962925 136.0
59.982651 160.0
60.017815 132.0
60.060867 144.0
60.089375 192.0
60.120235 40.0
60.13567 160.0
60.151108 244.0
60.171097 228.0
60.254345 308.0
60.287029 200.0
60.302998 108.0
60.31794 260.0
60.336819 180.0
60.351955 196.0
60.379791 176.0
60.397766 180.0
60.408611 196.0
60.42683 176.0
60.463181 160.0
60.475719 204.0
60.489651 116.0
60.522163 128.0
60.537647 136.0
60.576984 244.0
60.591862 168.0
60.615105 160.0
60.63538 148.0
60.650612 132.0
60.688744 180.0
60.75227 164.0
60.769512 104.0
60.792858 188.0
60.821381 176.0
60.85088 236.0
60.870369 104.0
60.888149 172.0
60.902126 136.0
60.931644 144.0
60.959354 156.0
60.980595 160.0
61.020721 140.0
61.035782 72.0
61.049778 176.0
61.079048 44.0
61.098 264.0
61.108891 44.0
61.141712 176.0
61.156116 288.0
61.18671 180.0
61.234985 128.0
61.269257 64.0
61.287285 184.0
61.336269 60.0
61.384602 160.0
61.415794 52.0
61.428272 96.0
61.459251 212.0
61.490688 212.0
61.521908 184.0
61.597046 188.0
61.610989 116.0
61.626553 116.0
61.644192 208.0
61.662495 168.0
61.673435 124.0
61.68988 156.0
61.746922 144.0
61.76413 184.0
61.78384 100.0
61.818954 96.0
61.838604 208.0
61.864944 236.0
61.892464 144.0
61.906246 140.0
61.95668 44.0
61.983318 136.0
62.006607 228.0
62.035042 148.0
62.055424 204.0
62.095776 180.0
62.134464 192.0
62.147964 160.0
62.160519 72.0
62.207603 64.0
62.232727 144.0
62.260117 208.0
62.319115 80.0
62.337971 236.0
62.390171 172.0
62.424435 64.0
62.452637 176.0
62.4669 40.0
62.509384 176.0
62.523548 172.0
62.572956 216.0
62.584942 192.0
62.628162 144.0
62.6763 180.0
62.688908 108.0
62.70393 168.0
62.717278 204.0
62.734619 100.0
62.755116 176.0
62.779968 168.0
62.789688 104.0
62.804802 160.0
62.857647 144.0
62.871849 64.0
62.900928 104.0
62.911022 240.0
62.922359 164.0
62.944466 164.0
62.9571 116.0
62.987064 132.0
62.990963 128.0
63.005138 320.0
63.02697 192.0
63.047153 96.0
63.066536 136.0
63.08773 164.0
63.135685 148.0
63.17696 172.0
63.270679 168.0
63.293938 100.0
63.309772 176.0
63.325611 312.0
63.357292 132.0
63.381062 52.0
63.418144 220.0
63.436188 128.0
63.445251 200.0
63.492031 176.0
63.533272 372.0
63.547024 96.0
63.558197 220.0
63.580875 204.0
63.600643 184.0
63.623165 200.0
63.642788 152.0
63.675915 144.0
63.725189 164.0
63.750809 160.0
63.761932 188.0
63.85574 180.0
63.886494 216.0
63.905849 168.0
63.933701 144.0
63.947262 192.0
63.975891 168.0
63.989414 64.0
64.002151 96.0
64.027634 144.0
64.041969 164.0
64.061081 200.0
64.077522 100.0
64.115257 176.0
64.151917 40.0
64.17424 228.0
64.200104 92.0
64.223679 32.0
64.24649 252.0
64.263336 144.0
64.301857 168.0
64.322609 200.0
64.346558 288.0
64.377022 324.0
64.421623 228.0
64.443115 204.0
64.460823 124.0
64.499504 168.0
64.533333 156.0
64.557632 132.0
64.570282 136.0
64.586273 136.0
64.612267 192.0
64.629471 132.0
64.655479 316.0
64.704292 188.0
64.720711 168.0
64.731918 100.0
64.759148 88.0
64.784775 180.0
64.815216 40.0
64.832848 156.0
64.860092 124.0
64.887421 168.0
64.917816 160.0
64.939445 328.0
64.9505 136.0
64.965935 88.0
64.98037 68.0
64.9916 148.0
65.008133 200.0
65.028511 184.0
65.05217 196.0
65.079224 224.0
65.103973 176.0
65.124855 280.0
65.137703 40.0
65.165955 184.0
65.181976 144.0
65.193939 100.0
65.248154 236.0
65.279503 180.0
65.301659 176.0
65.314529 96.0
65.327362 176.0
65.344429 248.0
65.399811 120.0
65.443275 220.0
65.462601 176.0
65.489174 136.0
65.510681 160.0
65.539116 88.0
65.550713 144.0
65.582924 176.0
65.615677 132.0
65.659439 116.0
65.671021 180.0
65.712753 192.0
65.757637 304.0
65.773483 144.0
65.801201 280.0
65.870667 192.0
65.91227 96.0
65.966011 64.0
66.021606 136.0
66.028572 52.0
66.03344 172.0
66.067894 164.0
66.092163 96.0
66.10511 96.0
66.12468 88.0
66.153671 156.0
66.18119 56.0
66.244354 188.0
66.262177 140.0
66.276764 148.0
66.292969 196.0
66.315659 140.0
66.368958 188.0
66.405678 100.0
66.438896 64.0
66.450256 140.0
66.476791 272.0
66.503807 84.0
66.522888 212.0
66.53952 80.0
66.557381 180.0
66.580116 80.0
66.613876 184.0
66.632515 180.0
66.664597 244.0
66.680855 88.0
66.734566 184.0
66.747505 136.0
66.762138 100.0
66.788162 68.0
66.846733 240.0
66.874405 172.0
66.894371 240.0
66.921616 48.0
66.941154 168.0
66.970367 228.0
66.996536 64.0
67.0112 164.0
67.027496 100.0
67.077049 108.0
67.09758 112.0
67.112259 168.0
67.12693 216.0
67.154655 216.0
67.208496 96.0
67.252556 140.0
67.278679 196.0
67.335854 164.0
67.406082 200.0
67.443672 124.0
67.456337 128.0
67.472664 168.0
67.507431 188.0
67.527061 88.0
67.545219 120.0
67.579407 100.0
67.599861 208.0
67.643234 228.0
67.674347 160.0
67.698906 200.0
67.718559 152.0
67.74012 148.0
67.756844 184.0
67.771378 196.0
67.808678 148.0
67.821785 176.0
67.838898 220.0
67.857666 216.0
67.886703 236.0
67.932816 204.0
67.989082 76.0
68.013588 168.0
68.030121 164.0
68.044899 288.0
68.069527 160.0
68.129051 168.0
68.143448 188.0
68.173019 124.0
68.194618 116.0
68.253571 156.0
68.299622 112.0
68.335678 144.0
68.367432 188.0
68.39106 120.0
68.399452 156.0
68.416466 192.0
68.430527 140.0
68.493866 128.0
68.520058 164.0
68.539009 208.0
68.553177 88.0
68.568008 284.0
68.650444 188.0
68.666939 148.0
68.716423 84.0
68.734261 148.0
68.738205 120.0
68.745667 172.0
68.750252 144.0
68.771896 312.0
68.786621 300.0
68.805412 140.0
68.833618 144.0
68.863991 256.0
68.905991 172.0
68.919518 180.0
68.949203 116.0
68.954514 112.0
68.970749 84.0
68.983978 148.0
69.051453 156.0
69.093124 80.0
69.108696 204.0
69.142769 108.0
69.162628 188.0
69.18531 240.0
69.204018 140.0
69.215607 160.0
69.230011 172.0
69.24482 144.0
69.265999 124.0
69.334885 200.0
69.410698 192.0
69.431908 116.0
69.473495 108.0
69.501762 204.0
69.528931 156.0
69.543655 124.0
69.565956 196.0
69.590355 164.0
69.621902 144.0
69.634315 160.0
69.64682 148.0
69.675064 136.0
69.686691 112.0
69.72657 180.0
69.742218 224.0
69.749367 132.0
69.752251 152.0
69.798447 136.0
69.834648 124.0
69.854637 192.0
69.882019 152.0
69.906189 140.0
69.920135 160.0
69.974434 140.0
69.994415 164.0
70.009407 156.0
70.04882 144.0
70.054375 224.0
70.082092 208.0
70.125015 320.0
70.146362 176.0
70.172707 304.0
70.187714 284.0
70.206398 156.0
70.219398 164.0
70.242752 40.0
70.279457 80.0
70.331192 124.0
70.358673 268.0
70.374596 132.0
70.391296 108.0
70.413994 204.0
70.451431 148.0
70.473145 136.0
70.524956 64.0
70.558388 136.0
70.575111 36.0
70.627403 180.0
70.648705 192.0
70.660416 204.0
70.695259 136.0
70.72213 164.0
70.742416 28.0
70.797676 152.0
70.881264 192.0
70.903221 232.0
70.921577 168.0
70.993752 176.0
71.079308 148.0
71.141411 128.0
71.195145 196.0
71.218353 144.0
71.240349 140.0
71.257294 144.0
71.294899 204.0
71.361504 208.0
71.385048 140.0
71.406738 192.0
71.425415 176.0
71.438873 96.0
71.469154 132.0
71.48262 48.0
71.50618 136.0
71.526794 160.0
71.539848 84.0
71.553314 112.0
71.576889 172.0
71.639091 172.0
71.674591 136.0
71.688072 148.0
71.74279 120.0
71.775543 144.0
71.814514 208.0
71.839821 148.0
71.863068 72.0
71.874535 132.0
71.8955 148.0
71.915756 132.0
71.942764 148.0
71.954582 108.0
72.000175 124.0
72.026932 168.0
72.059502 68.0
72.094788 232.0
72.106621 144.0
72.127716 216.0
72.154953 168.0
72.199608 148.0
72.221596 64.0
72.238853 528.0
72.262192 144.0
72.279823 144.0
72.304497 152.0
72.328629 180.0
72.367134 164.0
72.389145 152.0
72.414001 136.0
72.449699 176.0
72.465378 144.0
72.512825 176.0
72.526382 120.0
72.58403 148.0
72.651871 172.0
72.671333 144.0
72.695992 132.0
72.728233 160.0
72.750305 60.0
72.770676 188.0
72.787819 128.0
72.811432 164.0
72.82502 152.0
72.846413 276.0
72.865791 136.0
72.928673 72.0
72.967766 236.0
72.986473 184.0
73.014107 176.0
73.0494 64.0
73.091934 136.0
73.112358 180.0
73.131645 180.0
73.156616 140.0
73.178749 76.0
73.200882 124.0
73.221886 204.0
73.241043 104.0
73.254478 112.0
73.272423 188.0
73.304802 108.0
73.340042 224.0
73.38662 180.0
73.414139 204.0
73.434372 140.0
73.449722 160.0
73.465073 92.0
73.487297 92.0
73.512711 148.0
73.529144 160.0
73.542854 152.0
73.577003 220.0
73.598289 156.0
73.613571 140.0
73.657982 156.0
73.6819 112.0
73.7155 204.0
73.751694 152.0
73.785339 240.0
73.810089 128.0
73.824394 160.0
73.843513 180.0
73.880859 212.0
73.905884 168.0
73.946953 32.0
73.962357 144.0
74.012947 88.0
74.032562 196.0
74.044548 180.0
74.084717 152.0
74.133636 140.0
74.149063 136.0
74.167786 156.0
74.188263 136.0
74.203522 140.0
74.236496 92.0
74.258789 224.0
74.275948 56.0
74.294022 148.0
74.315399 116.0
74.328476 104.0
74.376518 212.0
74.40004 64.0
74.432129 72.0
74.468193 200.0
74.499344 176.0
74.521889 156.0
74.5541 100.0
74.617699 152.0
74.696808 200.0
74.714012 152.0
74.786285 52.0
74.803535 104.0
74.843102 160.0
74.898354 148.0
74.927498 116.0
74.951622 124.0
74.980919 172.0
75.014168 180.0
75.06427 184.0
75.112938 168.0
75.18306 156.0
75.199959 80.0
75.217224 108.0
75.230537 168.0
75.252197 200.0
75.26712 160.0
75.422783 32.0
75.448715 168.0
75.464279 224.0
75.479836 144.0
75.51812 296.0
75.535187 216.0
75.580841 196.0
75.597473 96.0
75.651169 164.0
75.678268 308.0
75.71788 160.0
75.757927 308.0
75.77726 164.0
75.794884 148.0
75.811867 180.0
75.841682 64.0
75.873009 168.0
75.932434 200.0
75.973282 180.0
76.022057 212.0
76.101906 160.0
76.125885 152.0
76.155998 192.0
76.17659 156.0
76.218185 140.0
76.238503 192.0
76.254784 200.0
76.270279 140.0
76.284706 228.0
76.296501 340.0
76.318474 176.0
76.369537 220.0
76.399109 240.0
76.416512 176.0
76.501839 156.0
76.533127 740.0
76.569702 140.0
76.586967 132.0
76.622475 136.0
76.700378 396.0
76.738739 220.0
76.754433 40.0
76.772575 140.0
76.798027 48.0
76.813332 124.0
76.839668 140.0
76.902725 176.0
76.937836 256.0
76.952354 204.0
76.974525 248.0
76.99556 232.0
77.028442 156.0
77.060669 164.0
77.072121 180.0
77.16201 216.0
77.183685 136.0
77.212593 136.0
77.276703 56.0
77.313454 116.0
77.329201 56.0
77.350204 160.0
77.37149 176.0
77.388725 172.0
77.418304 156.0
77.436005 108.0
77.455559 180.0
77.469856 148.0
77.492065 156.0
77.532372 120.0
77.551651 216.0
77.576187 128.0
77.605995 152.0
77.628792 156.0
77.655586 200.0
77.691933 188.0
77.732292 164.0
77.744576 112.0
77.76915 56.0
77.791969 56.0
77.80777 92.0
77.834106 88.0
77.865715 200.0
77.906654 248.0
77.946533 212.0
77.973434 296.0
78.020943 36.0
78.043213 96.0
78.066071 340.0
78.092766 224.0
78.109528 208.0
78.157913 152.0
78.222664 100.0
78.250832 160.0
78.268616 160.0
78.282532 128.0
78.303169 172.0
78.32309 136.0
78.352989 176.0
78.365318 140.0
78.398346 124.0
78.419952 148.0
78.436188 244.0
78.469307 76.0
78.483414 176.0
78.529266 92.0
78.587318 216.0
78.617485 136.0
78.641602 108.0
78.686325 76.0
78.711044 160.0
78.767883 156.0
78.794067 144.0
78.821602 212.0
78.838242 184.0
78.861481 132.0
78.924858 188.0
78.951385 52.0
78.965538 220.0
78.988533 188.0
79.031853 288.0
79.075233 168.0
79.101059 176.0
79.117363 200.0
79.137192 216.0
79.170837 216.0
79.202225 172.0
79.247345 128.0
79.331345 144.0
79.383499 60.0
79.49321 204.0
79.513016 128.0
79.532539 160.0
79.591125 120.0
79.62664 152.0
79.724358 104.0
79.744446 212.0
79.76207 148.0
79.784248 104.0
79.842484 244.0
79.887939 56.0
79.925362 136.0
79.9431 116.0
79.990868 256.0
80.057037 88.0
80.083755 88.0
80.096222 52.0
80.110474 124.0
80.138557 136.0
80.17997 132.0
80.210266 120.0
80.259056 296.0
80.276237 152.0
80.288719 188.0
80.334091 64.0
80.394463 208.0
80.41404 416.0
80.460022 100.0
80.483238 164.0
80.495735 88.0
80.542175 156.0
80.561058 84.0
80.58326 216.0
80.60804 148.0
80.666382 204.0
80.68335 124.0
80.717239 224.0
80.758461 148.0
80.785774 88.0
80.806755 168.0
80.819283 172.0
80.899826 204.0
80.917725 88.0
80.946022 80.0
80.967865 160.0
81.0019 156.0
81.034149 172.0
81.068192 232.0
81.107628 140.0
81.134514 152.0
81.156029 48.0
81.178459 152.0
81.207893 220.0
81.24633 128.0
81.285667 192.0
81.309479 104.0
81.346901 124.0
81.367752 172.0
81.383911 128.0
81.412216 320.0
81.430603 136.0
81.464729 164.0
81.488358 188.0
81.534813 100.0
81.590271 188.0
81.601685 200.0
81.615707 148.0
81.660667 104.0
81.705643 108.0
81.721359 136.0
81.762756 192.0
81.783569 192.0
81.819733 224.0
81.864838 244.0
81.893707 184.0
81.906639 204.0
81.949654 112.0
81.970329 84.0
81.99736 224.0
82.027512 132.0
82.076683 124.0
82.152435 144.0
82.184906 108.0
82.2192 56.0
82.239052 108.0
82.260559 172.0
82.275154 276.0
82.287796 156.0
82.308807 56.0
82.336548 96.0
82.393501 116.0
82.416039 156.0
82.434105 112.0
82.446754 304.0
82.493752 128.0
82.540764 136.0
82.578743 340.0
82.5914 208.0
82.623962 220.0
82.640205 160.0
82.667389 112.0
82.701141 328.0
82.714447 136.0
82.728935 220.0
82.746346 212.0
82.761269 116.0
82.823959 328.0
82.854454 220.0
82.868385 212.0
82.904633 68.0
82.919128 76.0
82.937256 180.0
82.951759 112.0
82.98983 92.0
83.022324 200.0
83.042419 96.0
83.056931 140.0
83.076889 188.0
83.096848 148.0
83.117683 140.0
83.147652 64.0
83.18351 180.0
83.262039 88.0
83.296547 132.0
83.315048 216.0
83.356506 160.0
83.396484 72.0
83.418304 160.0
83.445358 208.0
83.477379 140.0
83.505585 188.0
83.520134 164.0
83.535843 328.0
83.563759 188.0
83.583809 168.0
83.609291 144.0
83.687569 144.0
83.709419 336.0
83.723312 260.0
83.774147 192.0
83.798462 140.0
83.829651 84.0
83.85881 144.0
83.871567 176.0
83.889175 164.0
83.921455 148.0
83.939026 136.0
84.013809 148.0
84.0868 144.0
84.143394 120.0
84.175018 124.0
84.194519 184.0
84.243835 120.0
84.269966 120.0
84.282204 208.0
84.307793 92.0
84.333488 136.0
84.381416 72.0
84.384895 244.0
84.405289 168.0
84.432114 180.0
84.46785 148.0
84.50528 172.0
84.524666 156.0
84.556519 104.0
84.569679 188.0
84.597809 160.0
84.622551 228.0
84.648056 32.0
84.699341 204.0
84.723839 108.0
84.776787 164.0
84.796455 184.0
84.831284 240.0
84.853287 180.0
84.886292 132.0
84.916397 308.0
84.952316 156.0
84.970665 212.0
84.983505 192.0
84.996353 316.0
85.02298 100.0
85.036728 144.0
85.082954 220.0
85.099144 144.0
85.127609 160.0
85.156075 180.0
85.19281 180.0
85.225883 168.0
85.286835 144.0
85.310432 108.0
85.325134 188.0
85.349037 144.0
85.384438 144.0
85.411568 104.0
85.472282 152.0
85.494995 140.0
85.512108 136.0
85.529335 156.0
85.562798 204.0
85.601875 160.0
85.622505 160.0
85.639023 120.0
85.678001 176.0
85.692078 164.0
85.715813 160.0
85.755898 148.0
85.773315 260.0
85.800407 288.0
85.84243 204.0
85.877594 132.0
85.89373 128.0
85.929245 124.0
85.942162 304.0
85.970131 156.0
86.05719 188.0
86.068802 152.0
86.083214 184.0
86.097229 132.0
86.111366 168.0
86.16272 192.0
86.184494 204.0
86.243195 76.0
86.265373 168.0
86.367081 260.0
86.391655 140.0
86.405785 152.0
86.422585 172.0
86.44442 160.0
86.450676 196.0
86.502167 128.0
86.529938 128.0
86.542892 148.0
86.598595 152.0
86.628342 412.0
86.663292 116.0
86.69294 92.0
86.717033 180.0
86.794899 168.0
86.824783 208.0
86.851662 152.0
86.883926 216.0
86.908051 156.0
86.982285 124.0
87.024986 200.0
87.058411 224.0
87.078842 172.0
87.104797 160.0
87.119705 312.0
87.154137 212.0
87.175377 196.0
87.229355 176.0
87.246086 124.0
87.27211 184.0
87.291534 144.0
87.318153 148.0
87.336067 200.0
87.428375 192.0
87.467461 136.0
87.487938 108.0
87.575462 112.0
87.614578 116.0
87.629486 340.0
87.643684 184.0
87.683525 64.0
87.737587 144.0
87.761826 152.0
87.790886 96.0
87.80658 156.0
87.829536 208.0
87.856529 180.0
87.89473 80.0
87.976387 132.0
87.995003 140.0
88.036133 172.0
88.067535 220.0
88.148224 140.0
88.165047 164.0
88.191208 108.0
88.21701 324.0
88.232056 240.0
88.267113 220.0
88.299652 160.0
88.319115 188.0
88.335197 140.0
88.371567 236.0
88.430824 152.0
88.516747 164.0
88.531685 164.0
88.550453 132.0
88.574242 172.0
88.614151 156.0
88.628174 136.0
88.644127 244.0
88.659126 168.0
88.677864 212.0
88.700356 28.0
88.756607 160.0
88.784737 172.0
88.810989 88.0
88.849121 160.0
88.873474 132.0
88.901047 212.0
88.921692 116.0
88.979889 108.0
89.009933 156.0
89.038322 640.0
89.065872 412.0
89.084236 64.0
89.108482 180.0
89.15834 196.0
89.171501 124.0
89.192177 248.0
89.207695 124.0
89.243324 136.0
89.259598 200.0
89.274902 64.0
89.298088 164.0
89.333878 236.0
89.352028 380.0
89.395325 176.0
89.438591 128.0
89.453651 184.0
89.509552 116.0
89.536041 160.0
89.559105 128.0
89.589241 180.0
89.643883 152.0
89.68158 296.0
89.696655 128.0
89.714546 108.0
89.730591 112.0
89.771896 84.0
89.806023 188.0
89.830551 136.0
89.847527 144.0
89.871048 180.0
89.92112 44.0
89.934334 172.0
89.951324 64.0
89.995499 192.0
90.029373 332.0
90.071503 348.0
90.141388 68.0
90.16404 220.0
90.232651 140.0
90.272522 136.0
90.289543 52.0
90.325485 204.0
90.392616 240.0
90.406845 140.0
90.454178 372.0
90.473503 204.0
90.509064 168.0
90.630295 216.0
90.649246 92.0
90.666298 112.0
90.690941 140.0
90.717476 116.0
90.755402 84.0
90.795219 144.0
90.810394 80.0
90.835991 244.0
90.853844 168.0
90.958267 284.0
90.988777 144.0
91.023415 180.0
91.055038 192.0
91.074234 128.0
91.111252 96.0
91.134827 152.0
91.165588 144.0
91.205345 156.0
91.219818 156.0
91.268082 36.0
91.300407 176.0
91.320107 144.0
91.346062 160.0
91.361282 152.0
91.404465 184.0
91.424072 88.0
91.452621 184.0
91.507828 368.0
91.542107 136.0
91.563049 88.0
91.607758 192.0
91.628128 172.0
91.662117 196.0
91.702141 84.0
91.718651 260.0
91.794922 180.0
91.79985 240.0
91.816536 112.0
91.860466 164.0
91.880196 204.0
91.911919 260.0
91.931175 132.0
92.005966 252.0
92.03125 140.0
92.058159 104.0
92.075394 260.0
92.095444 156.0
92.118713 208.0
92.135315 156.0
92.158997 196.0
92.18882 44.0
92.230865 96.0
92.253807 176.0
92.267937 212.0
92.305428 156.0
92.367363 136.0
92.429276 140.0
92.452919 164.0
92.47187 156.0
92.499664 116.0
92.525475 152.0
92.538872 56.0
92.561852 104.0
92.595322 156.0
92.663376 32.0
92.688278 116.0
92.738113 160.0
92.782204 56.0
92.820633 184.0
92.870346 112.0
92.89328 200.0
92.920288 124.0
92.945236 124.0
92.96106 220.0
92.98362 204.0
93.045044 132.0
93.060402 124.0
93.078796 164.0
93.130753 184.0
93.164116 180.0
93.199966 316.0
93.227524 144.0
93.250336 180.0
93.255516 156.0
93.278351 208.0
93.315948 100.0
93.339027 112.0
93.375015 168.0
93.402496 140.0
93.419807 120.0
93.433273 112.0
93.489716 192.0
93.529633 164.0
93.559441 180.0
93.579552 80.0
93.629616 132.0
93.666954 352.0
93.70089 104.0
93.781548 164.0
93.847374 132.0
93.866661 120.0
93.889801 100.0
93.912056 252.0
93.917313 136.0
93.94574 160.0
93.990112 216.0
94.03064 168.0
94.0504 168.0
94.076683 148.0
94.086006 120.0
94.146034 172.0
94.16658 196.0
94.200562 60.0
94.239204 168.0
94.26239 176.0
94.333908 180.0
94.376442 60.0
94.434456 36.0
94.457672 132.0
94.480888 160.0
94.498329 140.0
94.534004 204.0
94.548607 180.0
94.573769 244.0
94.595062 112.0
94.617577 172.0
94.625336 88.0
94.63063 140.0
94.655083 136.0
94.707375 136.0
94.738373 72.0
94.760864 204.0
94.808128 128.0
94.825569 188.0
94.858101 128.0
94.86628 100.0
94.870583 128.0
94.906311 216.0
94.918488 108.0
94.923332 132.0
94.930351 172.0
94.937576 140.0
94.969055 124.0
94.99427 200.0
95.028702 336.0
95.055908 200.0
95.104713 188.0
95.137878 96.0
95.187294 80.0
95.232361 212.0
95.285484 300.0
95.310745 128.0
95.33989 204.0
95.373352 92.0
95.415703 140.0
95.431259 88.0
95.452591 152.0
95.475136 184.0
95.512939 212.0
95.536285 48.0
95.56263 184.0
95.614113 116.0
95.63942 48.0
95.662781 188.0
95.711456 192.0
95.725082 216.0
95.79715 108.0
95.840012 120.0
95.90612 176.0
95.939415 136.0
95.958916 116.0
96.032387 216.0
96.080147 124.0
96.1091 140.0
96.139046 208.0
96.203835 304.0
96.234024 196.0
96.252785 160.0
96.258217 164.0
96.302376 44.0
96.316048 132.0
96.347305 156.0
96.388222 200.0
96.416367 152.0
96.447456 96.0
96.476234 140.0
96.499756 108.0
96.551537 200.0
96.57798 108.0
96.645401 276.0
96.681679 56.0
96.697334 140.0
96.726692 96.0
96.740395 104.0
96.759697 196.0
96.820679 152.0
96.873566 160.0
96.888 120.0
96.904915 132.0
96.973503 140.0
96.997025 156.0
97.044014 648.0
97.079376 136.0
97.098228 172.0
97.176811 184.0
97.200996 172.0
97.235512 192.0
97.252029 92.0
97.269173 300.0
97.293251 144.0
97.321693 168.0
97.359741 144.0
97.367554 124.0
97.401085 136.0
97.413193 140.0
97.427689 124.0
97.47226 144.0
97.485748 172.0
97.566338 100.0
97.65876 44.0
97.672531 96.0
97.710342 164.0
97.727615 96.0
97.750801 204.0
97.778023 108.0
97.799973 132.0
97.824051 112.0
97.843185 128.0
97.871307 160.0
97.887329 176.0
97.906044 212.0
97.930389 184.0
97.955994 72.0
97.973724 120.0
98.017693 148.0
98.053238 148.0
98.113174 180.0
98.129707 192.0
98.151115 216.0
98.194504 128.0
98.24382 240.0
98.298088 172.0
98.331894 128.0
98.344788 168.0
98.372093 172.0
98.429352 44.0
98.48465 152.0
98.515686 180.0
98.569603 76.0
98.613083 156.0
98.654594 108.0
98.673706 252.0
98.706001 144.0
98.753708 196.0
98.770515 136.0
98.798965 140.0
98.826668 144.0
98.887146 144.0
98.918747 160.0
98.947403 192.0
98.960411 144.0
98.990959 168.0
99.021683 204.0
99.059029 132.0
99.091988 164.0
99.108658 192.0
99.164734 180.0
99.194984 152.0
99.207886 284.0
99.333855 44.0
99.34774 140.0
99.361626 124.0
99.395363 52.0
99.423485 184.0
99.450928 144.0
99.476738 164.0
99.494598 48.0
99.537552 76.0
99.552185 56.0
99.611771 76.0
99.681313 120.0
99.732986 116.0
99.761032 148.0
99.792267 156.0
99.817673 416.0
99.859306 204.0
99.878723 164.0
99.90451 188.0
99.935837 156.0
99.953743 168.0
99.967674 184.0
100.007484 132.0
100.025398 152.0
100.046066 188.0
100.162796 92.0
100.196663 160.0
100.228546 84.0
100.258438 52.0
100.329369 176.0
100.39064 128.0
100.421928 60.0
100.453842 172.0
100.467804 88.0
100.537643 136.0
100.603516 144.0
100.621483 192.0
100.651436 52.0
100.665413 124.0
100.67939 112.0
100.715408 136.0
100.744431 184.0
100.811249 116.0
100.839226 372.0
100.855217 76.0
100.869209 156.0
100.891884 184.0
100.921097 192.0
100.984009 204.0
101.014343 132.0
101.042053 416.0
101.086578 224.0
101.151268 236.0
101.189308 148.0
101.221741 100.0
101.239365 200.0
101.263397 156.0
101.291443 120.0
101.330391 244.0
101.379601 164.0
101.409668 180.0
101.42971 88.0
101.485794 148.0
101.499878 148.0
101.533974 136.0
101.588135 140.0
101.610199 156.0
101.624245 268.0
101.63829 108.0
101.654343 132.0
101.668396 144.0
101.702515 148.0
101.728607 112.0
101.744171 176.0
101.763107 176.0
101.780807 140.0
101.822983 132.0
101.849098 80.0
101.885635 180.0
101.912743 352.0
101.939262 100.0
101.957336 124.0
101.986526 128.0
102.007843 212.0
102.041786 320.0
102.090286 172.0
102.108383 104.0
102.122459 132.0
102.143745 124.0
102.160637 180.0
102.184517 160.0
102.241943 176.0
102.305794 152.0
102.325714 164.0
102.343018 188.0
102.396194 64.0
102.414558 156.0
102.467834 392.0
102.502968 204.0
102.517075 128.0
102.53421 344.0
102.553352 152.0
102.613831 108.0
102.646095 176.0
102.724754 168.0
102.740898 124.0
102.788498 148.0
102.817574 164.0
102.864143 168.0
102.888222 152.0
102.912453 68.0
102.959587 356.0
102.974022 180.0
102.989738 208.0
103.003334 108.0
103.053497 2460.0
103.090218 168.0
103.108795 124.0
103.122658 152.0
103.171066 212.0
103.189262 104.0
103.21962 312.0
103.247902 116.0
103.268127 108.0
103.296448 136.0
103.324776 144.0
103.389526 140.0
103.411789 104.0
103.458351 268.0
103.479912 180.0
103.504913 356.0
103.52314 144.0
103.547447 156.0
103.564034 188.0
103.583229 108.0
103.628479 148.0
103.674652 188.0
103.712158 136.0
103.766304 160.0
103.786575 88.0
103.819534 176.0
103.917282 128.0
103.942772 196.0
103.981331 324.0
104.003654 144.0
104.054718 372.0
104.07914 200.0
104.145798 280.0
104.199722 212.0
104.230621 228.0
104.273804 132.0
104.300133 88.0
104.328682 204.0
104.344948 124.0
104.383202 196.0
104.418159 112.0
104.454178 180.0
104.55854 224.0
104.584999 136.0
104.639969 164.0
104.674583 132.0
104.812027 132.0
104.829407 120.0
104.866089 144.0
104.900742 104.0
104.917053 124.0
104.976181 164.0
105.000656 124.0
105.025337 120.0
105.045151 152.0
105.064529 356.0
105.092453 112.0
105.116943 84.0
105.146751 132.0
105.170006 128.0
105.230141 128.0
105.273872 252.0
105.292511 124.0
105.321106 60.0
105.366051 136.0
105.387764 180.0
105.419182 124.0
105.455666 164.0
105.47023 184.0
105.49276 152.0
105.51001 196.0
105.541283 120.0
105.586823 116.0
105.607277 52.0
105.629776 28.0
105.666603 116.0
105.71402 152.0
105.736176 96.0
105.750504 264.0
105.787888 168.0
105.801682 200.0
105.828293 128.0
105.844673 108.0
105.867203 136.0
105.88768 116.0
105.902023 64.0
105.918404 220.0
105.96553 132.0
106.016754 52.0
106.052444 280.0
106.088493 120.0
106.111046 152.0
106.134537 132.0
106.170631 140.0
106.22834 104.0
106.255493 160.0
106.293602 168.0
106.324089 120.0
106.361481 196.0
106.399834 212.0
106.44207 136.0
106.515343 164.0
106.529724 100.0
106.550262 168.0
106.574921 80.0
106.609879 176.0
106.636192 108.0
106.673019 104.0
106.737312 132.0
106.763214 172.0
106.790779 244.0
106.817902 216.0
106.862785 148.0
106.895706 136.0
106.920403 148.0
106.937271 124.0
106.953072 124.0
106.981316 140.0
106.996567 228.0
107.03157 220.0
107.056282 132.0
107.078033 148.0
107.09967 240.0
107.140732 128.0
107.180473 208.0
107.198425 108.0
107.212852 100.0
107.268509 172.0
107.284996 268.0
107.305618 164.0
107.33036 216.0
107.344795 212.0
107.40007 180.0
107.433487 80.0
107.451897 192.0
107.485916 244.0
107.516022 136.0
107.536659 164.0
107.550728 176.0
107.584137 208.0
107.600655 80.0
107.63044 196.0
107.660484 144.0
107.70298 168.0
107.70948 92.0
107.714951 140.0
107.74852 192.0
107.79187 224.0
107.822685 184.0
107.852692 188.0
107.894035 280.0
107.953186 136.0
107.982903 160.0
108.036179 268.0
108.055359 112.0
108.124908 140.0
108.150551 204.0
108.167114 140.0
108.191956 340.0
108.225082 184.0
108.272865 264.0
108.295494 56.0
108.30999 120.0
108.332779 108.0
108.371674 192.0
108.39724 156.0
108.423141 136.0
108.45919 64.0
108.479919 48.0
108.503822 188.0
108.529678 132.0
108.551491 416.0
108.56852 224.0
108.598114 180.0
108.614388 156.0
108.649834 180.0
108.676949 68.0
108.700935 200.0
108.721405 92.0
108.741692 160.0
108.75119 160.0
108.757683 124.0
108.765404 148.0
108.771957 128.0
108.780098 120.0
108.800232 352.0
108.806046 140.0
108.817902 132.0
108.842957 164.0
108.875931 488.0
108.917061 124.0
108.936424 136.0
108.941383 132.0
108.959167 324.0
108.973518 260.0
109.045288 161756.0
109.098938 236.0
109.142868 168.0
109.14975 104.0
109.198593 76.0
109.213921 68.0
109.238533 160.0
109.298882 168.0
109.321198 184.0
109.349854 40.0
109.365738 284.0
109.386566 2800.0
109.411514 128.0
109.428024 108.0
109.442657 168.0
109.458023 132.0
109.487381 56.0
109.511658 156.0
109.528748 112.0
109.545204 92.0
109.56842 272.0
109.600174 52.0
109.624687 220.0
109.668488 72.0
109.685402 76.0
109.709793 180.0
109.767525 156.0
109.780083 132.0
109.825333 64.0
109.846657 36.0
109.891136 184.0
109.895218 328.0
109.921661 328.0
109.968987 212.0
110.001671 164.0
110.02066 132.0
110.048103 18628.0
110.076508 392.0
110.098755 48.0
110.11602 100.0
110.171227 100.0
110.195618 108.0
110.235435 188.0
110.251266 164.0
110.305077 188.0
110.339844 64.0
110.363976 48.0
110.384644 60.0
110.408066 140.0
110.427551 176.0
110.448372 108.0
110.478088 48.0
110.507812 76.0
110.533585 228.0
110.572647 36.0
110.589043 112.0
110.62149 88.0
110.660095 136.0
110.694016 224.0
110.734589 196.0
110.757965 372.0
110.779121 220.0
110.792465 168.0
110.819443 324.0
110.845367 72.0
110.87384 284.0
110.894531 104.0
110.911804 108.0
110.920067 72.0
110.929573 120.0
110.9561 96.0
111.029289 144.0
111.052704 620.0
111.071243 64.0
111.077415 148.0
111.109795 52.0
111.187469 180.0
111.203339 152.0
111.25219 80.0
111.294785 88.0
111.325996 148.0
111.346916 100.0
111.383286 200.0
111.399513 36.0
111.422371 136.0
111.430397 120.0
111.437904 168.0
111.485657 172.0
111.531898 164.0
111.646622 72.0
111.664879 148.0
111.68029 216.0
111.742203 172.0
111.786896 164.0
111.825432 188.0
111.855843 64.0
111.874214 132.0
111.892479 160.0
111.929535 220.0
111.944275 108.0
111.985458 188.0
112.003685 192.0
112.021622 144.0
112.052689 180.0
112.093628 156.0
112.204422 208.0
112.226646 172.0
112.241219 168.0
112.277252 144.0
112.29509 132.0
112.323662 172.0
112.426056 128.0
112.614952 156.0
112.633965 92.0
112.667763 80.0
112.686783 164.0
112.752289 88.0
112.792023 140.0
112.797806 112.0
112.806061 200.0
112.857986 144.0
112.910858 236.0
112.93412 120.0
112.976425 192.0
113.001114 332.0
113.039978 424.0
113.078003 56.0
113.097046 240.0
113.119873 148.0
113.141502 84.0
113.192322 40.0
113.215317 140.0
113.254242 220.0
113.278717 212.0
113.293991 64.0
113.353317 108.0
113.376625 152.0
113.42952 200.0
113.469894 160.0
113.494255 172.0
113.537796 168.0
113.554726 88.0
113.573814 196.0
113.612 164.0
113.658676 140.0
113.686264 148.0
113.707481 160.0
113.726585 108.0
113.792915 164.0
113.851852 128.0
113.873093 172.0
113.911827 120.0
113.93045 176.0
113.958069 124.0
114.024864 152.0
114.041801 276.0
114.081337 128.0
114.109688 96.0
114.194977 136.0
114.216522 168.0
114.283089 404.0
114.342972 192.0
114.359833 100.0
114.391037 200.0
114.415352 220.0
114.493042 136.0
114.506912 156.0
114.528214 296.0
114.569557 148.0
114.608971 208.0
114.614792 188.0
114.62104 140.0
114.645401 108.0
114.681633 108.0
114.704834 176.0
114.73938 176.0
114.7733 108.0
114.801025 132.0
114.843681 148.0
114.880775 192.0
114.895615 140.0
114.916214 184.0
114.937553 176.0
114.954628 164.0
115.052887 1848.0
115.07843 148.0
115.106194 136.0
115.14463 156.0
115.170265 224.0
115.185966 204.0
115.212517 128.0
115.234673 160.0
115.279228 52.0
115.31575 136.0
115.359985 160.0
115.400627 216.0
115.425629 160.0
115.465225 136.0
115.505859 124.0
115.520836 80.0
115.535812 156.0
115.551628 388.0
115.582886 132.0
115.60984 172.0
115.627823 148.0
115.652939 164.0
115.730583 84.0
115.754135 188.0
115.771271 164.0
115.796967 128.0
115.812805 152.0
115.855568 224.0
115.8965 208.0
115.941231 156.0
115.958267 284.0
115.988113 200.0
116.015877 184.0
116.049576 39456.0
116.07933 248.0
116.11261 104.0
116.12606 96.0
116.155533 92.0
116.184349 116.0
116.197083 68.0
116.252098 272.0
116.275589 104.0
116.282387 100.0
116.313728 64.0
116.365974 236.0
116.401039 140.0
116.421082 284.0
116.453835 64.0
116.498405 184.0
116.552124 132.0
116.614441 60.0
116.638092 56.0
116.669846 140.0
116.696136 76.0
116.75499 184.0
116.774254 148.0
116.878647 160.0
116.909897 172.0
116.937325 348.0
117.052467 2980.0
117.177559 132.0
117.206276 148.0
117.243942 156.0
117.260147 52.0
117.284721 156.0
117.314087 176.0
117.351837 64.0
117.376198 140.0
117.407867 208.0
117.442665 148.0
117.461555 128.0
117.500214 100.0
117.527565 276.0
117.556351 164.0
117.625053 140.0
117.650589 144.0
117.713203 84.0
117.833405 88.0
117.858368 140.0
117.875221 64.0
117.894669 76.0
117.922119 228.0
117.953026 60.0
117.974648 48.0
117.989777 52.0
118.021957 136.0
118.027405 120.0
118.062805 216.0
118.131462 156.0
118.156311 200.0
118.173752 136.0
118.201752 108.0
118.227959 72.0
118.268051 208.0
118.337814 112.0
118.385757 96.0
118.400917 136.0
118.42041 68.0
118.480606 168.0
118.502731 164.0
118.537407 160.0
118.559074 156.0
118.579803 220.0
118.614708 156.0
118.689148 140.0
118.710831 60.0
118.731422 212.0
118.752037 100.0
118.786743 60.0
118.823624 100.0
118.840981 144.0
118.871361 96.0
118.9048 88.0
118.929237 108.0
118.993736 212.0
119.01947 228.0
119.044273 148.0
119.084122 192.0
119.116707 96.0
119.174522 144.0
119.197098 116.0
119.250771 132.0
119.270988 148.0
119.300064 128.0
119.321098 128.0
119.407974 80.0
119.444954 128.0
119.462357 144.0
119.520012 112.0
119.545036 120.0
119.603806 80.0
119.632103 140.0
119.701332 176.0
119.727913 148.0
119.771469 168.0
119.78672 68.0
119.803116 160.0
119.823753 36.0
119.932716 152.0
119.958878 80.0
120.006844 160.0
120.046089 144.0
120.157333 144.0
120.174789 220.0
120.192245 160.0
120.208252 180.0
120.244621 124.0
120.26075 340.0
120.29483 148.0
120.31884 140.0
120.345047 152.0
120.369064 184.0
120.385712 96.0
120.427429 136.0
120.4673 168.0
120.472084 148.0
120.504494 156.0
120.596275 44.0
120.636063 140.0
120.709961 76.0
120.731834 160.0
120.787231 220.0
120.819878 96.0
120.893723 152.0
120.924362 160.0
120.946251 192.0
121.009743 80.0
121.044052 3892.0
121.128006 280.0
121.14772 176.0
121.172188 332.0
121.225655 176.0
121.249893 216.0
121.269501 160.0
121.320847 192.0
121.342773 124.0
121.36689 164.0
121.411346 132.0
121.448036 144.0
121.497856 248.0
121.54512 144.0
121.575294 260.0
121.621384 120.0
121.685844 188.0
121.725967 164.0
121.796646 108.0
121.82341 128.0
121.876144 44.0
121.891525 172.0
121.92009 112.0
121.948662 168.0
121.968445 68.0
121.990433 108.0
122.008018 48.0
122.047081 320.0
122.133362 124.0
122.157562 84.0
122.190559 244.0
122.259979 168.0
122.285187 204.0
122.302795 164.0
122.33802 84.0
122.417038 176.0
122.425697 156.0
122.450317 88.0
122.481415 204.0
122.545097 168.0
122.608955 120.0
122.631889 148.0
122.663925 204.0
122.682961 132.0
122.721382 132.0
122.779114 44.0
122.800766 92.0
122.82724 96.0
122.886414 180.0
122.904457 188.0
122.919579 164.0
122.985237 140.0
123.02372 3008.0
123.059807 1376.0
123.103127 64.0
123.206009 180.0
123.235664 80.0
123.264397 92.0
123.282074 84.0
123.301964 136.0
123.341751 156.0
123.379333 36.0
123.419128 204.0
123.434608 108.0
123.567322 208.0
123.62043 116.0
123.642563 116.0
123.660271 168.0
123.675758 140.0
123.717819 84.0
123.888351 132.0
123.940193 60.0
123.961464 96.0
123.99028 136.0
124.025436 144.0
124.064812 448.0
124.128532 176.0
124.167648 172.0
124.223099 72.0
124.260818 52.0
124.290977 128.0
124.341873 184.0
124.438377 148.0
124.473907 120.0
124.498329 40.0
124.558304 132.0
124.596069 132.0
124.620506 184.0
124.658287 84.0
124.731628 132.0
124.770561 76.0
124.805 176.0
124.833908 176.0
124.8517 124.0
124.898407 192.0
124.918427 156.0
124.976273 88.0
125.038704 760.0
125.109818 68.0
125.151817 148.0
125.189972 408.0
125.220779 144.0
125.241203 84.0
125.289284 180.0
125.328087 88.0
125.347763 164.0
125.393585 184.0
125.461815 112.0
125.512245 220.0
125.534149 164.0
125.581413 76.0
125.629684 132.0
125.664772 196.0
125.711632 148.0
125.744324 136.0
125.770302 140.0
125.814308 108.0
125.875923 128.0
125.894699 176.0
125.995216 160.0
126.048256 156.0
126.089279 124.0
126.176247 44.0
126.223198 200.0
126.297005 56.0
126.320885 136.0
126.359047 120.0
126.388733 248.0
126.403488 128.0
126.43409 164.0
126.458107 132.0
126.48497 192.0
126.526794 228.0
126.570045 172.0
126.592438 140.0
126.70668 240.0
126.738045 136.0
126.901131 116.0
126.925545 136.0
126.961411 144.0
127.053024 1100.0
127.08036 96.0
127.117012 100.0
127.166389 200.0
127.237709 244.0
127.265167 184.0
127.305588 208.0
127.340073 240.0
127.409874 112.0
127.438118 168.0
127.462837 176.0
127.492897 180.0
127.5187 128.0
127.54599 144.0
127.575218 80.0
127.599945 220.0
127.638176 120.0
127.677528 144.0
127.705643 164.0
127.777626 336.0
127.81813 196.0
127.911247 172.0
127.971191 136.0
128.059494 2716.0
128.101654 104.0
128.109253 148.0
128.144623 188.0
128.207718 108.0
128.22525 116.0
128.259567 112.0
128.298859 112.0
128.349747 40.0
128.38739 132.0
128.40538 196.0
128.420822 140.0
128.45433 128.0
128.494095 96.0
128.517929 172.0
128.670151 172.0
128.746216 168.0
128.794357 216.0
128.841797 160.0
128.896011 204.0
128.936691 160.0
128.975113 164.0
129.046738 832.0
129.069138 7508.0
129.117569 76.0
129.137421 72.0
129.185074 252.0
129.227615 204.0
129.291779 144.0
129.31163 148.0
129.327988 80.0
129.380295 172.0
129.442612 76.0
129.466446 80.0
129.508423 104.0
129.579361 68.0
129.677094 160.0
129.683853 108.0
129.691605 120.0
129.752411 196.0
129.803757 164.0
129.835861 132.0
129.860458 248.0
129.885406 172.0
129.921753 192.0
129.948929 60.0
130.003723 140.0
130.03743 140.0
130.065582 3676.0
130.125977 152.0
130.147141 136.0
130.171387 152.0
130.209991 116.0
130.230438 160.0
130.278137 40.0
130.337219 156.0
130.364883 160.0
130.411346 168.0
130.426773 176.0
130.50769 152.0
130.54921 124.0
130.582092 128.0
130.632782 204.0
130.664627 136.0
130.712418 68.0
130.781509 168.0
130.802521 168.0
130.860367 108.0
130.901352 188.0
130.945816 168.0
130.961136 196.0
130.989227 200.0
131.03331 112.0
131.072479 548.0
131.10083 204.0
131.124619 152.0
131.149689 140.0
131.165543 88.0
131.179764 104.0
131.20668 52.0
131.241653 252.0
131.299622 148.0
131.356354 96.0
131.409668 124.0
131.446182 80.0
131.471283 128.0
131.490204 196.0
131.563385 92.0
131.723541 184.0
131.754425 68.0
131.788696 76.0
131.831604 124.0
131.882401 120.0
131.912399 160.0
131.927811 148.0
131.994431 188.0
132.023239 160.0
132.048874 392.0
132.113373 184.0
132.140823 160.0
132.163437 176.0
132.202606 148.0
132.234543 188.0
132.240387 180.0
132.29187 44.0
132.314758 168.0
132.422394 176.0
132.449875 160.0
132.502563 160.0
132.594238 132.0
132.688217 108.0
132.715729 120.0
132.830399 88.0
132.846909 132.0
132.862518 160.0
132.887756 104.0
132.917648 164.0
133.003021 180.0
133.044617 3440.0
133.094345 216.0
133.142075 148.0
133.145432 176.0
133.156921 192.0
133.177017 40.0
133.241333 172.0
133.25972 112.0
133.298782 140.0
133.335556 116.0
133.365845 112.0
133.429794 60.0
133.464294 164.0
133.489578 132.0
133.520721 172.0
133.55629 140.0
133.588486 200.0
133.682083 136.0
133.714767 100.0
133.749573 108.0
133.920135 280.0
133.984802 140.0
134.007812 176.0
134.048294 716.0
134.11351 104.0
134.131958 128.0
134.155518 164.0
134.170776 228.0
134.227875 252.0
134.25647 124.0
134.297974 172.0
134.316437 148.0
134.376419 116.0
134.406418 296.0
134.464111 136.0
134.542587 96.0
134.565536 136.0
134.625717 140.0
134.655746 160.0
134.720413 144.0
134.796661 156.0
134.814468 172.0
134.863693 144.0
134.901382 144.0
134.941284 124.0
134.97139 156.0
135.011154 272.0
135.032486 136.0
135.061188 1084.0
135.206009 112.0
135.388901 88.0
135.416412 192.0
135.44577 232.0
135.471558 204.0
135.512787 108.0
135.630829 116.0
135.655365 88.0
135.717957 132.0
135.738831 212.0
135.765045 128.0
135.833923 124.0
135.86972 112.0
135.89888 96.0
135.926727 196.0
135.947617 132.0
136.017242 116.0
136.041412 256.0
136.06015 248.0
136.116302 144.0
136.124878 224.0
136.144943 72.0
136.302917 160.0
136.327347 112.0
136.498184 152.0
136.599884 92.0
136.666473 184.0
136.72319 204.0
136.847214 216.0
136.882141 48.0
136.912415 40.0
136.963669 144.0
136.9823 172.0
137.00885 208.0
137.040543 124.0
137.075348 608.0
137.105789 136.0
137.152405 68.0
137.192032 176.0
137.301636 116.0
137.474274 128.0
137.490601 120.0
137.509277 92.0
137.553635 52.0
137.626007 160.0
137.642349 188.0
137.658691 132.0
137.733429 108.0
137.761475 164.0
137.869873 172.0
137.889984 128.0
137.924423 120.0
137.964783 112.0
138.027924 224.0
138.049728 196.0
138.078308 268.0
138.162399 164.0
138.179962 180.0
138.212708 140.0
138.25032 168.0
138.284943 148.0
138.306335 40.0
138.329742 140.0
138.371872 176.0
138.401428 168.0
138.47023 200.0
138.507706 52.0
138.536301 252.0
138.570969 168.0
138.620163 232.0
138.696335 184.0
138.84523 168.0
138.878067 84.0
138.924988 168.0
138.988327 240.0
139.053986 4092.0
139.157333 132.0
139.176117 116.0
139.220734 176.0
139.257736 180.0
139.291199 176.0
139.31424 208.0
139.338181 128.0
139.382828 184.0
139.474487 116.0
139.529709 184.0
139.569473 40.0
139.709137 224.0
139.742584 124.0
139.763763 52.0
139.80014 100.0
139.832016 160.0
139.87674 84.0
139.909683 32.0
140.049011 16072.0
140.126953 228.0
140.152618 172.0
140.201782 116.0
140.230057 116.0
140.260056 172.0
140.344299 104.0
140.367661 116.0
140.38884 104.0
140.445801 120.0
140.497391 76.0
140.520111 188.0
140.552658 212.0
140.569672 148.0
140.602707 164.0
140.622604 260.0
140.694687 148.0
140.732544 128.0
140.762238 140.0
140.819931 156.0
140.878983 84.0
140.949966 88.0
140.985306 132.0
141.006577 100.0
141.053818 2216.0
141.136093 92.0
141.172073 120.0
141.20282 72.0
141.231201 64.0
141.264313 40.0
141.30217 104.0
141.341583 164.0
141.495911 196.0
141.505493 168.0
141.514984 180.0
141.562927 76.0
141.605179 180.0
141.664398 104.0
141.69046 200.0
141.722168 156.0
141.75206 64.0
141.809814 196.0
141.827911 92.0
141.846405 164.0
141.890152 156.0
141.953568 192.0
142.010483 160.0
142.064453 5172.0
142.168427 268.0
142.191238 200.0
142.226151 72.0
142.272797 200.0
142.356567 180.0
142.397369 92.0
142.456757 304.0
142.482376 148.0
142.523285 124.0
142.542236 180.0
142.549957 176.0
142.585068 144.0
142.6017 112.0
142.6754 48.0
142.752457 304.0
142.799042 84.0
142.863815 244.0
142.915619 196.0
142.959335 108.0
143.041763 144.0
143.066345 460.0
143.091751 96.0
143.26799 328.0
143.297729 180.0
143.341858 32.0
143.458649 176.0
143.489639 232.0
143.510025 136.0
143.561172 180.0
143.607849 140.0
143.647049 72.0
143.680435 144.0
143.7659 128.0
143.800858 188.0
143.855682 232.0
143.918884 164.0
143.965729 100.0
143.985992 124.0
144.042694 3176.0
144.074783 164.0
144.163834 136.0
144.254425 164.0
144.279907 72.0
144.299026 120.0
144.336334 180.0
144.382721 208.0
144.44252 104.0
144.552582 92.0
144.598053 72.0
144.698593 84.0
144.778656 128.0
144.811142 148.0
144.842285 172.0
144.957291 108.0
145.003891 152.0
145.062286 440.0
145.195511 164.0
145.218613 168.0
145.27298 192.0
145.292801 112.0
145.362564 152.0
145.388962 140.0
145.408157 156.0
145.463364 168.0
145.489777 200.0
145.51619 168.0
145.569016 156.0
145.593842 164.0
145.64827 68.0
145.768402 120.0
145.797241 144.0
145.890976 140.0
145.923721 176.0
145.953491 132.0
145.991974 232.0
146.051498 2488.0
146.076065 336.0
146.12558 164.0
146.18924 44.0
146.222931 212.0
146.368988 72.0
146.391464 140.0
146.413132 56.0
146.444489 208.0
146.49202 304.0
146.514297 180.0
146.552856 40.0
146.581772 72.0
146.655991 136.0
146.664688 60.0
146.781845 132.0
146.859024 160.0
146.902451 76.0
146.979645 116.0
147.062195 2696.0
147.097916 96.0
147.145767 176.0
147.199326 160.0
147.229935 160.0
147.308014 152.0
147.373962 168.0
147.416733 264.0
147.46936 88.0
147.484406 248.0
147.515839 108.0
147.646454 184.0
147.73349 148.0
147.786713 144.0
147.838852 176.0
147.866577 44.0
147.97551 200.0
148.016678 156.0
148.041855 140.0
148.068237 476.0
148.113541 216.0
148.173065 120.0
148.281296 140.0
148.358307 124.0
148.428619 144.0
148.448013 76.0
148.483185 128.0
148.498276 232.0
148.51593 108.0
148.570023 80.0
148.744019 140.0
148.770721 328.0
148.804199 152.0
148.89325 192.0
148.947998 196.0
148.97229 124.0
149.038376 244.0
149.064621 72.0
149.164276 136.0
149.208847 180.0
149.234787 108.0
149.268829 108.0
149.344223 100.0
149.363678 124.0
149.429367 128.0
149.446396 200.0
149.478027 124.0
149.499924 144.0
149.588379 200.0
149.611893 68.0
149.648422 92.0
149.731216 172.0
149.785355 196.0
149.855453 192.0
149.87883 136.0
149.90419 84.0
149.982605 140.0
150.018753 104.0
150.04184 136.0
150.074829 28.0
150.11026 232.0
150.164261 136.0
150.18457 92.0
150.204086 124.0
150.262634 120.0
150.304779 192.0
150.323639 188.0
150.350479 132.0
150.381027 124.0
150.426147 44.0
150.492065 124.0
150.5858 136.0
150.626389 136.0
150.645935 152.0
150.694794 136.0
150.722473 180.0
150.802322 116.0
150.83165 128.0
150.853653 56.0
150.90744 108.0
150.997925 100.0
151.053345 328.0
151.124573 156.0
151.152054 168.0
151.200745 156.0
151.223282 184.0
151.294006 144.0
151.322311 128.0
151.345428 132.0
151.382156 96.0
151.445831 116.0
151.472778 232.0
151.489929 224.0
151.525146 172.0
151.556519 168.0
151.57814 104.0
151.597733 124.0
151.661469 76.0
151.690872 116.0
151.727646 96.0
151.764435 156.0
151.86145 156.0
151.891968 64.0
151.914032 68.0
151.957016 240.0
151.99501 216.0
152.02597 168.0
152.055084 440.0
152.084595 180.0
152.156998 200.0
152.191376 156.0
152.215927 28.0
152.241394 152.0
152.265045 128.0
152.306808 72.0
152.402466 132.0
152.455612 140.0
152.525497 160.0
152.555008 156.0
152.631226 244.0
152.690247 168.0
152.741898 196.0
152.797256 172.0
152.814041 236.0
152.867371 60.0
152.916061 164.0
152.951065 180.0
153.022354 204.0
153.054138 680.0
153.082657 196.0
153.119568 164.0
153.201645 116.0
153.23674 152.0
153.300797 92.0
153.357483 120.0
153.396927 28.0
153.440765 200.0
153.483215 144.0
153.522675 76.0
153.544876 288.0
153.561081 196.0
153.683014 164.0
153.720032 120.0
153.744217 216.0
153.753494 172.0
153.855408 180.0
153.897766 108.0
153.937271 152.0
153.974319 180.0
154.015701 164.0
154.038132 168.0
154.064896 4904.0
154.096008 212.0
154.123749 172.0
154.157135 144.0
154.238693 104.0
154.27684 84.0
154.294128 44.0
154.321442 212.0
154.329956 276.0
154.37468 136.0
154.406235 124.0
154.429092 28.0
154.457733 276.0
154.560211 120.0
154.57753 196.0
154.613892 168.0
154.636932 48.0
154.68396 124.0
154.775574 196.0
154.804825 180.0
154.877518 172.0
154.896927 88.0
154.926651 56.0
155.015854 164.0
155.034348 192.0
155.062042 700.0
155.112518 84.0
155.147232 88.0
155.191849 236.0
155.236908 188.0
155.273239 176.0
155.303452 228.0
155.333221 108.0
155.382843 196.0
155.422531 176.0
155.53006 116.0
155.555496 188.0
155.655869 128.0
155.688156 32.0
155.725418 148.0
155.748352 252.0
155.874481 108.0
155.899246 136.0
155.968918 116.0
156.015823 180.0
156.037415 168.0
156.0802 10220.0
156.131561 256.0
156.157211 196.0
156.187454 132.0
156.214645 132.0
156.259888 108.0
156.32814 112.0
156.366898 120.0
156.398636 212.0
156.419876 56.0
156.475922 128.0
156.512604 72.0
156.532593 264.0
156.58812 204.0
156.635803 56.0
156.668198 132.0
156.725098 172.0
156.832657 160.0
156.902466 232.0
156.929886 60.0
156.947342 116.0
157.038635 300.0
157.083405 1164.0
157.116943 120.0
157.160782 92.0
157.236725 180.0
157.264175 36.0
157.286652 224.0
157.314102 164.0
157.35405 136.0
157.408981 88.0
157.448944 192.0
157.481415 76.0
157.506393 128.0
157.545029 244.0
157.588837 200.0
157.611328 160.0
157.648804 128.0
157.683792 140.0
157.708786 96.0
157.760803 228.0
157.828796 140.0
157.889572 248.0
157.95134 72.0
157.978867 132.0
158.009796 132.0
158.040405 168.0
158.060806 980.0
158.15152 248.0
158.200851 148.0
158.226624 108.0
158.266693 128.0
158.284958 200.0
158.346817 196.0
158.420944 108.0
158.451843 200.0
158.479599 136.0
158.517181 80.0
158.557281 128.0
158.577332 76.0
158.657547 128.0
158.737793 72.0
158.764832 184.0
158.816605 244.0
158.945999 100.0
158.990067 128.0
159.010193 172.0
159.060822 3044.0
159.141785 128.0
159.179443 40.0
159.234695 160.0
159.258621 92.0
159.343216 100.0
159.370361 208.0
159.44072 116.0
159.518646 144.0
159.546295 72.0
159.666992 128.0
159.687119 256.0
159.878326 140.0
159.968933 136.0
160.004181 92.0
160.036911 100.0
160.063431 804.0
160.127579 64.0
160.159134 212.0
160.23616 152.0
160.258575 140.0
160.339218 120.0
160.369461 68.0
160.530823 72.0
160.548462 168.0
160.597992 208.0
160.639267 128.0
160.656937 108.0
160.707397 152.0
160.747772 136.0
160.798233 104.0
160.861343 44.0
160.901947 164.0
160.926987 64.0
160.992645 260.0
161.058075 132.0
161.139145 132.0
161.178024 188.0
161.245285 176.0
161.303421 136.0
161.321121 52.0
161.381378 204.0
161.422256 44.0
161.470306 132.0
161.51828 124.0
161.591736 276.0
161.687897 132.0
161.733444 56.0
161.761292 64.0
161.839783 84.0
161.860031 164.0
161.981613 76.0
162.006943 160.0
162.069244 176.0
162.136169 164.0
162.158981 200.0
162.202072 104.0
162.25531 220.0
162.278534 224.0
162.321228 140.0
162.374496 32.0
162.407471 72.0
162.465805 140.0
162.615524 32.0
162.684067 100.0
162.739487 188.0
162.808487 120.0
162.852844 304.0
162.887222 80.0
162.907486 164.0
162.914978 160.0
163.000473 244.0
163.009689 140.0
163.019043 132.0
163.053146 296.0
163.07576 188.0
163.121017 192.0
163.273575 152.0
163.314102 188.0
163.413483 180.0
163.468552 144.0
163.479095 92.0
163.48793 124.0
163.528 108.0
163.566177 88.0
163.596725 100.0
163.63237 120.0
163.678329 172.0
163.754608 104.0
163.820831 128.0
163.889633 132.0
163.917664 100.0
163.935501 128.0
163.973724 148.0
163.991562 192.0
164.047729 260.0
164.090988 100.0
164.151367 124.0
164.268112 212.0
164.374115 80.0
164.440475 164.0
164.565567 108.0
164.639618 136.0
164.660049 96.0
164.683044 176.0
164.708588 232.0
164.734131 48.0
164.812286 128.0
164.918106 120.0
164.976685 188.0
165.015259 192.0
165.057571 144.0
165.086212 332.0
165.111069 120.0
165.127777 212.0
165.146988 172.0
165.191727 116.0
165.240326 76.0
165.281845 144.0
165.309921 144.0
165.3862 176.0
165.41745 152.0
165.455322 124.0
165.478149 140.0
165.62439 172.0
165.662766 156.0
165.691727 192.0
165.714005 176.0
165.752441 148.0
165.782257 324.0
165.806412 136.0
165.826752 80.0
165.84726 160.0
165.875458 88.0
165.954391 132.0
165.980576 180.0
166.018692 204.0
166.064713 44496.0
166.120605 228.0
166.146347 216.0
166.18277 160.0
166.217224 48.0
166.282013 128.0
166.310425 176.0
166.337204 64.0
166.365356 116.0
166.375168 112.0
166.382446 92.0
166.400726 344.0
166.421738 52.0
166.452682 152.0
166.495789 324.0
166.518967 56.0
166.552902 48.0
166.572067 104.0
166.599152 76.0
166.625336 124.0
166.653717 152.0
166.683929 60.0
166.745895 184.0
166.779022 52.0
166.814194 112.0
166.835587 140.0
166.863098 80.0
166.886902 196.0
166.928146 52.0
166.960129 64.0
166.987305 112.0
167.007874 152.0
167.034668 116.0
167.066681 5752.0
167.102844 188.0
167.216293 44.0
167.254898 160.0
167.293518 216.0
167.369797 204.0
167.407455 304.0
167.437714 36.0
167.464172 280.0
167.507263 36.0
167.55014 148.0
167.641235 124.0
167.669586 100.0
167.731445 172.0
167.749496 60.0
167.819763 140.0
167.857788 32.0
167.904205 132.0
167.940872 128.0
168.003784 152.0
168.037323 220.0
168.080643 2492.0
168.130692 112.0
168.147354 116.0
168.181519 108.0
168.214935 140.0
168.239655 148.0
168.288712 64.0
168.317108 208.0
168.339828 200.0
168.39975 52.0
168.452438 344.0
168.54184 168.0
168.565094 112.0
168.614609 204.0
168.748627 168.0
168.783859 140.0
168.955536 140.0
168.999512 108.0
169.017624 196.0
169.047012 580.0
169.07515 532.0
169.113388 196.0
169.1548 172.0
169.225616 192.0
169.268173 152.0
169.339722 116.0
169.38855 120.0
169.416367 128.0
169.460403 36.0
169.478546 132.0
169.551102 112.0
169.62767 136.0
169.740356 100.0
169.776657 108.0
169.812973 140.0
169.872635 188.0
169.903763 92.0
169.935684 132.0
170.057495 1340.0
170.099152 344.0
170.154266 176.0
170.191864 56.0
170.293137 224.0
170.441833 120.0
170.502045 120.0
170.57637 108.0
170.687469 148.0
170.716782 140.0
170.807816 228.0
170.836426 88.0
170.859741 100.0
170.888458 120.0
170.935303 184.0
170.969131 200.0
171.06041 728.0
171.088028 172.0
171.152863 180.0
171.224274 72.0
171.25293 100.0
171.34671 128.0
171.372757 84.0
171.560486 136.0
171.589096 176.0
171.651672 136.0
171.696014 124.0
171.72731 152.0
171.763824 76.0
171.811142 144.0
171.89325 204.0
171.915161 124.0
171.947662 156.0
172.014343 140.0
172.039948 332.0
172.071503 192.0
172.134689 128.0
172.174774 172.0
172.223236 48.0
172.277161 168.0
172.309448 96.0
172.343735 196.0
172.37738 180.0
172.432266 64.0
172.560364 184.0
172.672806 92.0
172.751282 104.0
172.800339 156.0
172.827148 32.0
172.845474 148.0
172.907761 120.0
173.020844 144.0
173.04892 300.0
173.124557 124.0
173.196289 112.0
173.280121 180.0
173.303162 152.0
173.334167 192.0
173.384125 140.0
173.445236 132.0
173.48613 140.0
173.51712 228.0
173.568451 184.0
173.615662 196.0
173.648529 232.0
173.733688 212.0
173.759933 128.0
173.782455 96.0
173.815033 100.0
173.867523 108.0
173.956757 256.0
173.990891 128.0
174.009262 264.0
174.060669 132.0
174.072113 184.0
174.075943 304.0
174.173019 148.0
174.229889 200.0
174.329727 128.0
174.424133 196.0
174.584747 176.0
174.632706 196.0
174.716263 204.0
174.757019 228.0
174.826782 148.0
174.866364 148.0
175.016312 164.0
175.048584 172.0
175.088638 284.0
175.128372 152.0
175.150635 80.0
175.187515 136.0
175.253372 80.0
175.31752 188.0
175.376587 228.0
175.433609 188.0
175.522247 128.0
175.622696 132.0
175.67598 180.0
175.703079 128.0
175.733261 84.0
175.883072 136.0
175.939133 152.0
175.989288 168.0
176.048416 264.0
176.087433 656.0
176.123978 152.0
176.197952 164.0
176.248154 180.0
176.271942 136.0
176.290436 148.0
176.316864 136.0
176.338013 128.0
176.375015 148.0
176.409378 224.0
176.430527 108.0
176.55481 152.0
176.655319 144.0
176.681778 116.0
176.716171 188.0
176.784973 184.0
176.873444 160.0
176.941147 52.0
177.004684 168.0
177.068283 400.0
177.096161 136.0
177.121231 292.0
177.182159 120.0
177.245743 344.0
177.283371 184.0
177.330551 100.0
177.42009 108.0
177.444122 128.0
177.574478 92.0
177.721664 116.0
177.765503 92.0
177.809967 180.0
177.816086 136.0
177.824615 188.0
177.924759 144.0
177.945999 144.0
177.970123 144.0
178.063278 228.0
178.099442 296.0
178.176224 276.0
178.286011 92.0
178.304626 112.0
178.336517 140.0
178.522629 64.0
178.558929 264.0
178.599762 108.0
178.621033 156.0
178.650299 152.0
178.73555 100.0
178.804626 76.0
178.916428 60.0
178.935074 192.0
179.005783 336.0
179.061813 180.0
179.11084 204.0
179.142807 52.0
179.176804 192.0
179.340256 184.0
179.371979 128.0
179.406631 188.0
179.478241 168.0
179.525909 120.0
179.618774 184.0
179.662659 160.0
179.742706 180.0
179.798752 88.0
179.821838 248.0
179.873489 84.0
179.893097 336.0
179.966934 68.0
179.985611 232.0
180.011108 92.0
180.041 172.0
180.077423 192.0
180.113815 184.0
180.140533 104.0
180.228699 452.0
180.298172 100.0
180.322235 140.0
180.348175 176.0
180.389053 176.0
180.450546 168.0
180.485306 52.0
180.592285 192.0
180.696808 168.0
180.752808 152.0
180.80957 168.0
180.862518 384.0
180.908386 156.0
180.970139 124.0
180.993713 124.0
181.042603 240.0
181.071457 184.0
181.116913 112.0
181.173172 32.0
181.40097 128.0
181.478714 112.0
181.653046 228.0
181.690598 148.0
181.830139 96.0
181.881134 152.0
181.905167 168.0
182.02739 220.0
182.051178 120.0
182.084427 108.0
182.146973 132.0
182.305496 144.0
182.378067 176.0
182.478409 172.0
182.606613 156.0
182.676559 152.0
182.708832 108.0
182.792252 148.0
182.878647 192.0
182.92952 116.0
182.95105 144.0
182.988739 136.0
183.059647 2948.0
183.086197 348.0
183.167252 152.0
183.242996 140.0
183.2948 180.0
183.314682 72.0
183.36319 168.0
183.428711 156.0
183.462921 104.0
183.501938 360.0
183.581558 148.0
183.670578 116.0
183.729919 160.0
183.840546 156.0
183.873734 164.0
183.893753 124.0
183.92926 60.0
183.980911 80.0
184.013306 44.0
184.071869 1928.0
184.181183 148.0
184.266098 188.0
184.307724 132.0
184.357941 100.0
184.442856 96.0
184.483414 180.0
184.515854 120.0
184.62323 152.0
184.656464 40.0
184.699173 152.0
184.797134 132.0
184.864792 184.0
184.894562 128.0
184.940094 68.0
184.975754 32.0
185.038025 68.0
185.069412 128.0
185.076019 136.0
185.106873 168.0
185.135513 60.0
185.217102 388.0
185.250885 128.0
185.333267 84.0
185.352234 172.0
185.406433 52.0
185.4646 312.0
185.532806 116.0
185.579926 116.0
185.609741 88.0
185.655853 168.0
185.929855 164.0
185.986862 192.0
186.048782 188.0
186.103592 124.0
186.156052 140.0
186.285294 156.0
186.315445 204.0
186.337189 128.0
186.473831 140.0
186.500244 108.0
186.541626 232.0
186.619858 152.0
186.638885 100.0
186.706879 112.0
186.728638 152.0
186.747681 196.0
186.818405 52.0
186.848328 212.0
186.872696 176.0
186.970779 184.0
187.048035 312.0
187.117249 204.0
187.270279 128.0
187.316589 180.0
187.344086 164.0
187.417389 116.0
187.518219 156.0
187.560364 188.0
187.63472 152.0
187.672958 100.0
187.714508 160.0
187.864532 140.0
187.985596 204.0
188.04805 344.0
188.098068 124.0
188.176727 144.0
188.215683 152.0
188.243607 140.0
188.279434 208.0
188.314926 252.0
188.334045 160.0
188.409607 116.0
188.459717 168.0
188.481583 160.0
188.623703 140.0
188.683853 128.0
188.71666 244.0
188.919052 144.0
188.971024 148.0
189.06752 1284.0
189.107864 84.0
189.207489 184.0
189.261169 120.0
189.29631 128.0
189.340591 148.0
189.365234 144.0
189.411804 232.0
189.472076 112.0
189.510422 140.0
189.535095 184.0
189.559753 116.0
189.598114 172.0
189.658417 56.0
189.706848 60.0
189.754364 132.0
189.779037 136.0
189.798233 216.0
189.891479 168.0
189.95903 172.0
190.001205 140.0
190.064117 5708.0
190.121582 176.0
190.174088 100.0
190.250961 64.0
190.31456 220.0
190.347061 124.0
190.459656 112.0
190.49263 192.0
190.565262 184.0
190.588791 156.0
190.668182 76.0
190.711288 160.0
190.737198 160.0
190.830673 152.0
190.896667 108.0
190.972916 180.0
191.016266 196.0
191.066849 1040.0
191.115021 136.0
191.12619 164.0
191.148911 144.0
191.181503 192.0
191.218552 88.0
191.262589 188.0
191.336914 160.0
191.404297 204.0
191.430542 44.0
191.48259 240.0
191.518021 136.0
191.564011 192.0
191.584213 232.0
191.65918 116.0
191.863693 180.0
191.93483 112.0
191.956894 44.0
192.006729 108.0
192.015518 184.0
192.07634 348.0
192.122375 144.0
192.203232 172.0
192.367233 216.0
192.409409 180.0
192.43425 96.0
192.489487 76.0
192.514343 148.0
192.577866 84.0
192.638626 60.0
192.669586 116.0
192.702179 84.0
192.809952 148.0
192.859055 156.0
192.916595 336.0
192.937958 116.0
192.997925 40.0
193.049271 124.0
193.05426 140.0
193.12323 180.0
193.161102 152.0
193.183228 128.0
193.219193 116.0
193.288376 56.0
193.31604 116.0
193.374161 168.0
193.412918 172.0
193.476593 132.0
193.526779 176.0
193.615036 104.0
193.656586 124.0
193.735474 176.0
193.787506 124.0
193.878235 56.0
193.940659 192.0
193.966934 168.0
194.049057 788.0
194.116653 128.0
194.177658 120.0
194.223679 216.0
194.285843 132.0
194.330383 148.0
194.366623 216.0
194.456238 212.0
194.568924 120.0
194.607803 40.0
194.648849 148.0
194.802216 92.0
194.838333 160.0
194.86055 140.0
194.930847 176.0
194.979385 292.0
195.018951 72.0
195.057648 2724.0
195.116257 120.0
195.153458 168.0
195.205231 116.0
195.249512 156.0
195.349869 208.0
195.380463 176.0
195.409332 96.0
195.438339 120.0
195.502899 148.0
195.527954 120.0
195.549561 224.0
195.613144 112.0
195.669922 132.0
195.697754 52.0
195.733963 332.0
195.772141 112.0
196.006943 152.0
196.063934 1396.0
196.151871 184.0
196.213211 92.0
196.261841 172.0
196.288498 180.0
196.34465 144.0
196.432571 176.0
196.52002 104.0
196.665131 48.0
196.743301 140.0
197.007263 188.0
197.076752 484.0
197.107925 444.0
197.204208 144.0
197.243347 172.0
197.288071 80.0
197.369156 136.0
197.419495 44.0
197.576141 140.0
197.632095 92.0
197.683609 88.0
197.713242 220.0
197.850403 140.0
197.946701 256.0
197.973618 176.0
198.022125 148.0
198.076096 156.0
198.095169 208.0
198.121674 172.0
198.149628 148.0
198.17485 172.0
198.208923 116.0
198.267349 160.0
198.312622 156.0
198.346252 212.0
198.41185 220.0
198.442505 180.0
198.478027 104.0
198.553741 132.0
198.637894 160.0
198.682785 96.0
198.706802 124.0
198.825882 76.0
198.858673 172.0
198.877914 128.0
198.905487 168.0
198.935364 128.0
199.005554 100.0
199.055313 660.0
199.14035 144.0
199.196518 156.0
199.224609 184.0
199.306091 112.0
199.372437 152.0
199.410812 244.0
199.457855 168.0
199.480347 60.0
199.514084 124.0
199.545013 144.0
199.574051 132.0
199.598434 84.0
199.626556 88.0
199.674362 132.0
199.823456 156.0
199.851593 144.0
200.057877 340.0
200.104919 60.0
200.124634 108.0
200.149963 168.0
200.188492 152.0
200.209106 140.0
200.354355 120.0
200.439499 92.0
200.482559 64.0
200.507751 140.0
200.555664 104.0
200.583847 32.0
200.682526 36.0
200.710541 60.0
200.753021 68.0
200.803787 128.0
200.834747 160.0
200.882767 256.0
200.989975 164.0
201.009735 256.0
201.066483 488.0
201.133911 176.0
201.328201 128.0
201.450195 96.0
201.563217 188.0
201.628204 208.0
201.650818 148.0
201.724319 140.0
201.786514 108.0
201.826096 228.0
201.990128 248.0
202.074524 3328.0
202.120285 96.0
202.16272 124.0
202.218277 168.0
202.242447 144.0
202.301422 52.0
202.331558 204.0
202.434494 84.0
202.508133 156.0
202.53363 200.0
202.55629 88.0
202.632782 100.0
202.699997 116.0
202.726288 152.0
202.873688 140.0
202.975754 120.0
203.006943 124.0
203.072678 2200.0
203.19133 120.0
203.222534 72.0
203.250916 112.0
203.287796 100.0
203.324692 60.0
203.347397 104.0
203.401337 156.0
203.422684 104.0
203.546127 148.0
203.56601 108.0
203.630356 128.0
203.676773 112.0
203.708023 68.0
203.790161 136.0
203.813141 132.0
203.838715 208.0
203.895554 328.0
203.975143 208.0
204.003571 80.0
204.048828 236.0
204.077972 1112.0
204.242447 188.0
204.288086 168.0
204.333481 108.0
204.455841 184.0
204.507065 80.0
204.529846 76.0
204.552612 116.0
204.634827 184.0
204.680725 252.0
204.718445 164.0
204.765289 156.0
204.823441 164.0
204.882965 196.0
204.928543 136.0
204.97699 40.0
205.0327 124.0
205.083099 300.0
205.1138 80.0
205.150848 96.0
205.211624 268.0
205.321945 52.0
205.341904 124.0
205.478836 144.0
205.524475 68.0
205.553024 128.0
205.621506 108.0
205.644348 80.0
205.744263 112.0
205.827057 32.0
205.904327 144.0
205.953308 192.0
206.035568 128.0
206.061279 188.0
206.085419 172.0
206.155579 100.0
206.31279 64.0
206.338928 384.0
206.381409 108.0
206.43573 88.0
206.46434 164.0
206.510101 60.0
206.555008 148.0
206.595917 84.0
206.635971 188.0
206.667435 96.0
206.721817 60.0
206.749695 232.0
206.80481 136.0
206.836502 172.0
206.867783 172.0
206.896408 136.0
206.947952 144.0
206.970856 316.0
207.059128 4644.0
207.157028 140.0
207.346146 144.0
207.371933 84.0
207.477997 140.0
207.529602 116.0
207.549683 152.0
207.577713 144.0
207.664398 56.0
207.703598 144.0
207.776276 104.0
207.799225 112.0
207.853745 136.0
207.914001 140.0
207.99437 112.0
208.05632 5748.0
208.11496 176.0
208.209717 92.0
208.275787 104.0
208.318878 160.0
208.347595 136.0
208.38208 64.0
208.425171 312.0
208.502762 136.0
208.577499 124.0
208.679794 156.0
208.706879 248.0
208.767258 36.0
208.819031 80.0
208.870804 140.0
208.893814 104.0
208.930267 216.0
208.990433 172.0
209.017532 120.0
209.068481 1416.0
209.113327 112.0
209.144165 32.0
209.172958 128.0
209.218231 44.0
209.228867 76.0
209.319794 200.0
209.371628 216.0
209.391785 116.0
209.423477 120.0
209.505539 172.0
209.544464 36.0
209.593445 120.0
209.622269 72.0
209.65863 176.0
209.743317 164.0
209.789124 36.0
209.817093 188.0
209.872681 184.0
209.907654 108.0
209.932495 176.0
210.069458 428.0
210.181702 68.0
210.232864 192.0
210.276932 208.0
210.356033 252.0
210.516556 156.0
210.569427 164.0
210.608978 44.0
210.652313 200.0
210.712982 96.0
210.738983 100.0
210.767883 140.0
210.828369 120.0
210.880585 128.0
210.905991 124.0
210.935516 72.0
210.981766 152.0
211.055908 608.0
211.106094 300.0
211.12973 140.0
211.161057 112.0
211.201538 36.0
211.255981 156.0
211.310379 168.0
211.334625 64.0
211.426468 152.0
211.534317 80.0
211.600906 120.0
211.673294 128.0
211.760849 128.0
211.789139 36.0
211.829697 52.0
211.981445 160.0
212.053665 344.0
212.12529 120.0
212.174393 128.0
212.249954 76.0
212.290558 116.0
212.31955 32.0
212.339859 132.0
212.360153 152.0
212.460052 204.0
212.537125 208.0
212.577759 144.0
212.650314 156.0
212.737396 140.0
212.824493 152.0
212.905807 132.0
212.99585 148.0
213.023819 96.0
213.066467 336.0
213.100433 124.0
213.231201 168.0
213.270844 100.0
213.374634 152.0
213.399811 96.0
213.463776 452.0
213.498672 148.0
213.551025 164.0
213.585938 144.0
213.702301 144.0
213.737228 116.0
213.791931 140.0
213.846039 164.0
213.882736 156.0
213.939728 180.0
213.988159 228.0
214.013748 224.0
214.033524 164.0
214.063965 3776.0
214.130493 180.0
214.235107 200.0
214.324081 104.0
214.412857 108.0
214.44783 208.0
214.472153 144.0
214.487762 40.0
214.499405 132.0
214.517776 176.0
214.689819 132.0
214.831879 108.0
214.849777 228.0
215.010284 128.0
215.016678 108.0
215.08371 12528.0
215.162521 188.0
215.188797 184.0
215.258881 228.0
215.291 132.0
215.369873 168.0
215.410767 132.0
215.462326 228.0
215.500336 152.0
215.596176 132.0
215.627548 104.0
215.752686 68.0
215.802383 112.0
215.989899 204.0
216.082916 2512.0
216.168625 144.0
216.19017 268.0
216.226562 260.0
216.249985 40.0
216.279251 176.0
216.352432 72.0
216.384644 60.0
216.409134 140.0
216.440277 152.0
216.508148 180.0
216.759567 100.0
216.788879 196.0
216.826965 32.0
216.990646 196.0
217.089401 668.0
217.184677 40.0
217.216949 180.0
217.251297 136.0
217.304962 148.0
217.345169 176.0
217.376556 120.0
217.434082 184.0
217.457214 136.0
217.519196 108.0
217.560303 148.0
217.684433 144.0
217.76181 116.0
217.782272 248.0
217.806976 56.0
217.909409 148.0
217.94754 176.0
218.001266 64.0
218.058716 9392.0
218.184967 260.0
218.238998 136.0
218.265457 124.0
218.340408 148.0
218.406631 56.0
218.502975 48.0
218.577789 136.0
218.640274 128.0
218.668503 176.0
218.730011 232.0
218.785965 64.0
218.808746 144.0
218.892471 156.0
218.928757 152.0
218.965454 112.0
219.056534 2784.0
219.10025 128.0
219.163254 92.0
219.201569 160.0
219.222183 32.0
219.270813 152.0
219.324448 92.0
219.393143 268.0
219.502243 108.0
219.537628 100.0
219.570068 172.0
219.598068 140.0
219.640869 124.0
219.668884 128.0
219.696915 84.0
219.73526 136.0
219.75592 92.0
219.791321 76.0
219.835587 140.0
219.884216 252.0
219.913345 204.0
219.967484 256.0
219.994385 160.0
220.065063 17948.0
220.119858 288.0
220.161316 48.0
220.204727 136.0
220.275528 196.0
220.33757 112.0
220.366135 132.0
220.396973 104.0
220.473145 208.0
220.533264 140.0
220.565903 136.0
220.590775 172.0
220.597275 128.0
220.60704 156.0
220.633118 196.0
220.698166 68.0
220.727737 76.0
220.753815 248.0
220.776825 180.0
220.831238 76.0
220.89621 168.0
220.909637 64.0
220.918594 136.0
220.941208 116.0
220.963974 120.0
220.974518 232.0
220.983139 188.0
220.994736 120.0
221.063522 45272.0
221.121506 276.0
221.159683 52.0
221.18103 220.0
221.201996 96.0
221.247101 200.0
221.316589 36.0
221.354767 156.0
221.423462 112.0
221.464661 32.0
221.5056 44.0
221.538712 56.0
221.573196 100.0
221.57872 64.0
221.594482 68.0
221.616653 144.0
221.642334 188.0
221.683899 72.0
221.714096 232.0
221.74614 76.0
221.820251 60.0
221.891403 64.0
221.935562 120.0
221.971451 36.0
222.028534 212.0
222.069336 25012.0
222.145432 132.0
222.168365 216.0
222.216446 128.0
222.29184 72.0
222.314392 144.0
222.372955 168.0
222.410278 152.0
222.443207 140.0
222.480072 144.0
222.501328 76.0
222.527145 172.0
222.547577 104.0
222.674759 136.0
222.7164 156.0
222.778778 64.0
222.826324 188.0
222.872375 148.0
222.915894 216.0
222.951126 116.0
222.974899 60.0
222.998672 108.0
223.07309 4200.0
223.174072 64.0
223.241074 128.0
223.275177 36.0
223.296005 76.0
223.322556 336.0
223.344482 120.0
223.402908 136.0
223.432831 108.0
223.454254 200.0
223.490768 212.0
223.560669 104.0
223.620163 320.0
223.65007 68.0
223.697418 84.0
223.72258 140.0
223.752914 88.0
223.787949 108.0
223.823608 196.0
223.850723 132.0
223.882401 136.0
223.920212 220.0
223.980301 80.0
224.048157 1464.0
224.084137 716.0
224.183212 40.0
224.233231 192.0
224.269943 320.0
224.320312 40.0
224.341187 36.0
224.372406 84.0
224.418701 64.0
224.468185 140.0
224.491257 108.0
224.5849 280.0
224.619751 68.0
224.643845 164.0
224.685638 112.0
224.713989 76.0
224.758408 108.0
224.781342 212.0
224.82814 164.0
224.884094 252.0
224.946777 168.0
225.06517 872.0
225.092636 412.0
225.169846 136.0
225.234879 108.0
225.278259 68.0
225.308136 176.0
225.34697 156.0
225.390579 128.0
225.424667 76.0
225.475464 144.0
225.529266 100.0
225.559158 200.0
225.65184 236.0
225.675751 92.0
225.696686 272.0
225.780426 96.0
225.807343 192.0
225.850876 116.0
225.956909 112.0
226.007767 172.0
226.065002 968.0
226.148438 152.0
226.169388 136.0
226.193329 64.0
226.233643 172.0
226.256195 164.0
226.326935 64.0
226.381439 116.0
226.450851 188.0
226.47673 112.0
226.552689 68.0
226.579651 160.0
226.621597 136.0
226.661148 164.0
226.775894 132.0
226.858475 112.0
226.907623 196.0
226.932755 276.0
226.982483 192.0
227.010193 284.0
227.072052 41192.0
227.141663 144.0
227.177521 76.0
227.212433 144.0
227.254974 168.0
227.30484 304.0
227.340591 128.0
227.398315 72.0
227.437332 68.0
227.464355 92.0
227.488358 76.0
227.509384 156.0
227.539398 72.0
227.577072 148.0
227.626144 72.0
227.637741 64.0
227.649857 56.0
227.660965 108.0
227.716568 180.0
227.739578 140.0
227.771805 196.0
227.827713 144.0
227.851761 72.0
227.875793 72.0
227.932709 72.0
227.996643 72.0
228.075409 10308.0
228.179352 64.0
228.212433 48.0
228.253876 196.0
228.305649 52.0
228.35527 136.0
228.401352 288.0
228.44902 48.0
228.48613 64.0
228.513214 144.0
228.58844 224.0
228.648621 152.0
228.735916 208.0
228.779694 184.0
228.809143 188.0
228.841293 40.0
228.880707 132.0
228.904083 96.0
228.942596 172.0
228.959015 184.0
229.003906 132.0
229.05162 176.0
229.085526 2244.0
229.127731 120.0
229.157547 72.0
229.211777 124.0
229.235886 108.0
229.282654 124.0
229.353439 176.0
229.419754 60.0
229.449905 172.0
229.540466 120.0
229.638458 76.0
229.695389 100.0
229.729919 52.0
229.746735 76.0
229.8759 140.0
229.928024 96.0
230.008011 148.0
230.058395 324.0
230.087219 356.0
230.166138 128.0
230.221329 160.0
230.264664 68.0
230.333237 244.0
230.382462 100.0
230.48822 68.0
230.515411 40.0
230.551682 196.0
230.575851 212.0
230.606079 140.0
230.633286 48.0
230.675598 168.0
230.703125 116.0
230.760529 144.0
230.793518 116.0
230.838638 152.0
230.884232 136.0
230.935654 112.0
230.968933 140.0
231.005234 120.0
231.056396 140.0
231.115799 144.0
231.313904 100.0
231.431976 64.0
231.480423 168.0
231.603958 196.0
231.631866 96.0
231.707596 124.0
231.786377 32.0
231.884521 176.0
231.947006 156.0
232.013702 204.0
232.05336 1748.0
232.107697 112.0
232.148788 160.0
232.180481 148.0
232.225967 108.0
232.24736 76.0
232.284454 164.0
232.31778 180.0
232.345459 220.0
232.392822 108.0
232.415085 156.0
232.441376 128.0
232.551117 104.0
232.595093 88.0
232.673401 72.0
232.714569 72.0
232.799591 84.0
232.901596 144.0
232.930191 132.0
232.975052 188.0
233.023148 268.0
233.072708 11176.0
233.179352 32.0
233.218353 140.0
233.230713 180.0
233.239578 128.0
233.266342 200.0
233.303986 152.0
233.379059 196.0
233.423874 56.0
233.489899 172.0
233.516846 108.0
233.577682 76.0
233.627869 132.0
233.639694 156.0
233.71991 272.0
233.75293 60.0
233.7612 88.0
233.804749 160.0
233.811722 100.0
233.832108 84.0
233.858719 356.0
233.886322 224.0
233.929626 128.0
233.95726 328.0
233.980789 192.0
234.002228 152.0
234.071213 109440.0
234.147125 288.0
234.17981 184.0
234.224792 96.0
234.304382 168.0
234.358841 48.0
234.407257 104.0
234.43782 112.0
234.485062 184.0
234.50708 180.0
234.519196 108.0
234.571625 372.0
234.619186 132.0
234.644989 52.0
234.682724 172.0
234.722992 88.0
234.750305 88.0
234.78186 148.0
234.808243 64.0
234.891907 84.0
234.91156 276.0
234.931778 224.0
234.976288 92.0
235.009964 120.0
235.077728 22332.0
235.148773 280.0
235.178223 92.0
235.201859 64.0
235.23085 108.0
235.304825 88.0
235.336182 52.0
235.371857 128.0
235.392624 132.0
235.442505 108.0
235.473602 88.0
235.560043 40.0
235.617325 172.0
235.657104 228.0
235.694382 152.0
235.71701 184.0
235.771088 76.0
235.834152 48.0
235.864441 44.0
235.93161 104.0
236.008408 52.0
236.08493 7996.0
236.161316 196.0
236.218216 40.0
236.2276 60.0
236.261658 268.0
236.292862 48.0
236.325424 236.0
236.34671 136.0
236.377518 120.0
236.424728 188.0
236.458115 72.0
236.479538 148.0
236.544357 136.0
236.596649 108.0
236.625488 100.0
236.669342 48.0
236.710449 132.0
236.747269 160.0
236.794891 116.0
236.828934 144.0
236.86174 180.0
236.905167 208.0
236.976624 204.0
237.015472 32.0
237.055847 3320.0
237.086334 1952.0
237.157471 60.0
237.220825 128.0
237.279068 204.0
237.312012 124.0
237.342972 100.0
237.400848 196.0
237.447723 128.0
237.50087 116.0
237.537094 60.0
237.572205 172.0
237.638565 116.0
237.677811 72.0
237.712067 124.0
237.753845 72.0
237.7883 100.0
237.860138 128.0
237.898804 128.0
237.923141 116.0
237.971664 172.0
238.020691 120.0
238.064758 14608.0
238.161362 36.0
238.233292 48.0
238.257309 76.0
238.302429 76.0
238.34108 60.0
238.396393 80.0
238.424057 152.0
238.47937 32.0
238.525833 36.0
238.549149 40.0
238.576569 84.0
238.585068 136.0
238.60849 36.0
238.666916 168.0
238.706802 148.0
238.749939 68.0
238.780701 48.0
238.813721 152.0
238.820328 104.0
238.832275 172.0
238.888351 84.0
238.925278 44.0
238.946808 252.0
238.979462 72.0
239.067413 2488.0
239.11171 184.0
239.159149 92.0
239.199905 84.0
239.259354 64.0
239.323105 124.0
239.473221 132.0
239.566818 124.0
239.624161 128.0
239.707367 80.0
239.764435 52.0
239.842972 56.0
239.883041 76.0
239.913879 280.0
239.969376 152.0
240.079941 15400.0
240.124786 100.0
240.179077 88.0
240.200668 140.0
240.231522 52.0
240.254089 152.0
240.302475 68.0
240.327164 48.0
240.356995 156.0
240.387283 124.0
240.438263 68.0
240.484558 204.0
240.546295 52.0
240.611115 68.0
240.637283 152.0
240.680481 52.0
240.725372 128.0
240.762726 124.0
240.830612 172.0
240.885986 116.0
240.983612 180.0
241.035675 64.0
241.086365 12400.0
241.182632 136.0
241.266098 96.0
241.320389 100.0
241.355759 76.0
241.377411 112.0
241.399048 48.0
241.45816 72.0
241.507309 144.0
241.553467 264.0
241.655792 172.0
241.688522 208.0
241.709854 144.0
241.858795 376.0
241.884811 272.0
241.952026 96.0
242.000198 268.0
242.039612 88.0
242.094864 20996.0
242.184219 104.0
242.219467 176.0
242.248199 152.0
242.28511 196.0
242.311111 224.0
242.335434 136.0
242.403214 128.0
242.467896 164.0
242.547546 68.0
242.600006 120.0
242.668869 172.0
242.718246 56.0
242.75856 56.0
242.786469 92.0
242.821823 60.0
242.85611 124.0
242.910538 56.0
242.937195 108.0
242.961716 128.0
243.047043 272.0
243.098129 3220.0
243.164978 56.0
243.230164 168.0
243.281281 128.0
243.326889 168.0
243.357452 124.0
243.526077 172.0
243.562424 104.0
243.615234 156.0
243.674072 140.0
243.723969 96.0
243.792343 92.0
243.848587 120.0
243.875809 156.0
243.927505 180.0
243.963287 48.0
243.988159 76.0
244.068695 1432.0
244.225388 128.0
244.382507 104.0
244.474518 116.0
244.526321 104.0
244.60466 72.0
244.709991 116.0
244.759811 136.0
244.781601 92.0
244.815857 76.0
244.884384 176.0
244.967331 140.0
244.988434 228.0
245.021439 92.0
245.068146 4448.0
245.12207 140.0
245.169266 100.0
245.192825 80.0
245.236465 60.0
245.264526 144.0
245.358841 204.0
245.397888 36.0
245.515656 136.0
245.557617 140.0
245.585693 76.0
245.666794 120.0
245.71138 136.0
245.758316 144.0
245.799835 156.0
245.821335 364.0
245.854767 224.0
245.899338 264.0
245.925461 152.0
246.001373 132.0
246.071014 42132.0
246.144592 96.0
246.17923 128.0
246.210144 56.0
246.264282 92.0
246.296448 176.0
246.356888 80.0
246.381226 168.0
246.434296 160.0
246.4897 116.0
246.512955 104.0
246.533783 96.0
246.580887 76.0
246.644089 92.0
246.65657 80.0
246.665375 240.0
246.68924 160.0
246.724533 128.0
246.778809 168.0
246.803665 112.0
246.834946 196.0
246.862091 152.0
246.911285 384.0
246.956512 96.0
246.994446 336.0
247.028519 448.0
247.078369 95664.0
247.144501 148.0
247.173599 196.0
247.228195 68.0
247.260406 212.0
247.30307 156.0
247.332275 100.0
247.380432 104.0
247.386902 116.0
247.416916 184.0
247.479538 128.0
247.526886 224.0
247.592224 280.0
247.651779 76.0
247.705032 36.0
247.736359 60.0
247.769531 68.0
247.807938 132.0
247.852295 56.0
247.881683 188.0
247.920609 160.0
247.991028 208.0
248.08139 18812.0
248.154816 140.0
248.179016 496.0
248.241318 196.0
248.286285 76.0
248.336029 120.0
248.382141 80.0
248.448013 40.0
248.49054 60.0
248.520172 116.0
248.551559 80.0
248.580078 136.0
248.610596 84.0
248.636292 92.0
248.663025 108.0
248.736725 80.0
248.772827 136.0
248.813568 136.0
248.856033 92.0
248.886475 132.0
248.910538 56.0
248.933548 64.0
248.955887 40.0
248.979721 68.0
249.039261 156.0
249.087738 1564.0
249.142883 24.0
249.196732 40.0
249.239243 36.0
249.338303 84.0
249.388199 120.0
249.418381 88.0
249.4702 124.0
249.493835 64.0
249.540985 116.0
249.580627 104.0
249.626297 132.0
249.659225 100.0
249.720734 160.0
249.758926 160.0
249.815399 256.0
249.841568 148.0
249.879715 152.0
249.91861 144.0
249.945297 112.0
249.970764 144.0
250.016693 124.0
250.065918 368.0
250.100235 9768.0
250.168594 124.0
250.198563 144.0
250.244659 100.0
250.265961 52.0
250.319321 152.0
250.403244 36.0
250.44104 144.0
250.480988 88.0
250.488281 96.0
250.516266 100.0
250.523697 132.0
250.595398 132.0
250.663605 196.0
250.686783 92.0
250.724594 84.0
250.771881 64.0
250.81601 44.0
250.842194 108.0
250.86644 136.0
250.908081 96.0
250.95787 96.0
250.992554 128.0
251.066605 272.0
251.102295 1860.0
251.156555 100.0
251.197571 64.0
251.21965 40.0
251.24173 32.0
251.263824 176.0
251.386887 104.0
251.446381 56.0
251.495239 168.0
251.55101 128.0
251.576263 152.0
251.610992 60.0
251.654602 64.0
251.737289 56.0
251.759399 76.0
251.816254 80.0
251.898376 48.0
251.961563 92.0
251.993149 60.0
252.047928 148.0
252.110245 624.0
252.192245 196.0
252.261795 44.0
252.28891 76.0
252.386246 96.0
252.555878 100.0
252.625473 44.0
252.647614 72.0
252.701401 92.0
252.778061 88.0
252.831146 52.0
252.872284 60.0
252.897614 132.0
252.945084 112.0
253.005234 132.0
253.032776 92.0
253.075058 124.0
253.311905 48.0
253.32901 256.0
253.57901 92.0
253.714905 168.0
253.743439 48.0
253.773956 128.0
253.802094 64.0
253.978119 52.0
254.071228 596.0
254.171646 52.0
254.308105 84.0
254.352554 64.0
254.377945 196.0
254.444611 120.0
254.547012 112.0
254.622437 76.0
254.813034 52.0
254.870224 176.0
254.930603 124.0
254.997345 124.0
255.079391 168.0
255.506134 44.0
255.547501 72.0
255.590897 92.0
255.73526 148.0
255.802109 44.0
255.907166 68.0
255.967667 152.0
256.081696 120.0
256.114166 56.0
256.165131 48.0
256.295776 152.0
256.573059 28.0
256.758026 56.0
256.802673 104.0
256.966461 164.0
257.032379 120.0
257.058868 212.0
257.175995 56.0
257.271759 76.0
257.348389 108.0
257.38031 76.0
257.460144 100.0
257.49527 200.0
257.600677 52.0
257.843536 144.0
257.888275 128.0
258.068054 568.0
258.121674 84.0
258.223999 52.0
258.406342 180.0
258.511932 140.0
258.685974 96.0
258.953766 200.0
259.036041 64.0
259.076752 1256.0
259.194031 88.0
259.270935 80.0
259.4216 136.0
259.485718 128.0
259.714935 228.0
259.79361 140.0
259.960449 116.0
260.038635 188.0
260.085327 10164.0
260.163269 168.0
260.210815 56.0
260.303955 92.0
260.383423 80.0
260.409912 68.0
260.477386 132.0
260.660522 108.0
260.888733 156.0
260.911224 168.0
261.029358 244.0
261.053864 132.0
261.093323 12256.0
261.239258 92.0
261.271423 124.0
261.35379 188.0
261.404968 216.0
261.47287 192.0
261.530243 188.0
261.596466 32.0
261.649963 112.0
261.710602 180.0
261.752716 144.0
261.787201 220.0
261.847015 212.0
261.881317 204.0
261.93161 168.0
261.99115 240.0
262.018768 320.0
262.10202 83608.0
262.151703 452.0
262.233002 192.0
262.302582 164.0
262.327118 92.0
262.365601 76.0
262.431213 44.0
262.468292 88.0
262.480164 132.0
262.488586 68.0
262.541748 88.0
262.576202 80.0
262.631805 104.0
262.669586 68.0
262.700745 164.0
262.766876 76.0
262.78894 256.0
262.813782 64.0
262.838623 220.0
262.92865 156.0
262.992157 120.0
262.999573 108.0
263.042267 144.0
263.104248 9976.0
263.163025 116.0
263.197052 148.0
263.287231 56.0
263.328705 112.0
263.391907 52.0
263.421997 172.0
263.49527 84.0
263.53717 196.0
263.610504 164.0
263.699615 112.0
263.782166 60.0
263.813721 80.0
263.977661 64.0
264.019012 136.0
264.052032 76.0
264.109894 1228.0
264.165253 88.0
264.191132 68.0
264.248322 84.0
264.321411 60.0
264.352936 100.0
264.401672 68.0
264.475922 44.0
264.51474 56.0
264.621582 112.0
264.660461 92.0
264.720215 96.0
264.747894 92.0
264.804199 124.0
264.841797 96.0
264.876709 124.0
264.91391 108.0
264.944733 124.0
264.993774 136.0
265.035034 100.0
265.06842 76.0
265.080841 72.0
265.08667 104.0
265.108917 120.0
265.162476 72.0
265.271423 116.0
265.295471 76.0
265.473816 108.0
265.584076 48.0
265.635986 28.0
265.723572 44.0
265.762512 52.0
265.94751 88.0
266.038879 160.0
266.126434 68.0
266.22998 44.0
266.275452 132.0
266.298187 60.0
266.331238 112.0
266.740082 140.0
266.818115 40.0
266.977448 44.0
267.013214 56.0
267.062012 236.0
267.156342 120.0
267.445953 64.0
267.55014 136.0
268.08432 144.0
268.107758 328.0
268.142334 244.0
268.446198 52.0
268.667999 52.0
268.971497 120.0
269.111877 124.0
269.543793 104.0
270.147919 80.0
270.691254 160.0
271.058136 128.0
271.349854 44.0
272.072723 148.0
272.117615 112.0
272.367218 56.0
272.893036 104.0
273.077209 160.0
273.221954 72.0
273.386475 100.0
273.426575 84.0
273.893524 88.0
274.081299 116.0
274.170288 64.0
274.213135 96.0
274.819916 40.0
274.922211 156.0
275.008026 144.0
275.2323 64.0
275.315063 48.0
275.59256 88.0
275.741272 48.0
275.794159 92.0
275.817291 132.0
275.93631 32.0
276.052032 188.0
276.111572 60.0
276.18103 72.0
276.412628 168.0
276.465576 112.0
276.770111 160.0
277.054962 56.0
277.109467 200.0
277.339966 84.0
278.098022 104.0
278.118469 188.0
278.23233 60.0
278.305359 68.0
278.941864 48.0
279.069611 320.0
279.129456 136.0
279.23587 152.0
279.518646 52.0
279.741669 96.0
279.821564 72.0
280.112335 1208.0
280.274536 76.0
280.364532 84.0
280.531189 132.0
280.57785 48.0
280.92804 104.0
281.031464 112.0
281.113495 276.0
281.659119 28.0
281.776031 60.0
281.963165 40.0
282.110779 76.0
282.903107 92.0
283.345184 88.0
283.445709 120.0
285.27829 180.0
285.961151 156.0
286.324768 52.0
287.06958 180.0
287.147125 128.0
287.423767 108.0
287.498016 52.0
288.697327 72.0
288.87323 72.0
289.347015 44.0
289.594238 80.0
290.621429 64.0
291.049133 128.0
291.128418 184.0
291.908844 64.0
292.133698 680.0
293.134369 144.0
293.284332 156.0
294.157593 132.0
294.666443 52.0
295.080017 56.0
295.442535 144.0
295.750519 80.0
297.446594 184.0
298.33017 28.0
298.364563 140.0
298.409241 56.0
299.424408 72.0
299.879211 164.0
303.023956 32.0
303.693024 60.0
304.22049 84.0
304.863068 76.0
305.099426 172.0
305.238495 60.0
305.266327 52.0
306.150269 144.0
306.268677 88.0
306.439392 188.0
306.567352 188.0
306.658936 156.0
306.937836 144.0
307.158905 6136.0
307.314575 52.0
307.408783 40.0
307.516968 48.0
307.736908 88.0
307.859131 100.0
307.949921 128.0
308.114105 160.0
308.160767 1168.0
308.365723 72.0
308.435638 48.0
308.682526 196.0
308.858734 88.0
309.012665 80.0
309.173706 400.0
310.206909 96.0
310.312103 116.0
310.462891 56.0
311.133087 44.0
311.19278 72.0
311.315674 88.0
311.786438 112.0
311.937592 76.0
312.45105 64.0
313.733002 44.0
314.13855 64.0
315.923492 80.0
317.243561 116.0
317.857147 68.0
318.336395 128.0
319.477356 144.0
319.811859 60.0
321.208679 84.0
322.497742 108.0
322.808807 40.0
323.220184 76.0
323.578125 124.0
323.667633 216.0
323.707031 104.0
324.323273 184.0
324.688965 60.0
324.83963 164.0
325.089905 64.0
325.170441 16012.0
325.245575 148.0
325.302551 52.0
325.359985 48.0
325.406677 40.0
325.431793 72.0
325.460541 124.0
325.579041 52.0
325.627167 60.0
325.821655 80.0
325.902344 132.0
326.082031 76.0
326.171936 3256.0
326.308502 80.0
326.369629 72.0
326.394806 60.0
326.531464 52.0
326.632172 92.0
326.981201 48.0
327.177734 260.0
327.463654 120.0
327.564514 72.0
327.622162 48.0
327.910431 100.0
327.964508 68.0
328.178162 204.0
328.209656 36.0
328.310608 92.0
328.374512 100.0
328.46933 76.0
328.512604 40.0
328.584778 88.0
328.617249 120.0
328.776031 88.0
329.447632 68.0
329.55603 44.0
329.581329 160.0
329.678894 40.0
330.058472 52.0
330.315247 44.0
330.43103 40.0
330.677094 76.0
331.028259 64.0
333.073853 92.0
333.880768 56.0
335.122101 36.0
335.388123 120.0
335.705322 136.0
335.774628 36.0
336.581146 92.0
337.129089 68.0
337.359375 124.0
338.138519 84.0
339.549103 132.0
340.719543 112.0
340.767853 80.0
340.900116 56.0
341.834198 88.0
342.032959 104.0
342.117615 108.0
343.09021 80.0
343.658203 96.0
343.757843 80.0
344.936066 84.0
345.912659 48.0
346.501495 40.0
346.568207 92.0
346.864685 44.0
347.420959 84.0
347.44693 104.0
348.835876 36.0
349.542542 52.0
350.000427 84.0
350.708282 48.0
351.517578 52.0
351.551178 208.0
352.682861 80.0
353.610474 48.0
354.029785 104.0
354.381897 120.0
355.897278 64.0
356.998291 36.0
357.645447 68.0
358.579559 104.0
358.632324 40.0
359.001801 44.0
359.269623 68.0
360.85965 76.0
361.631378 88.0
362.169067 60.0
362.244812 68.0
362.919434 96.0
363.712372 84.0
363.746521 104.0
364.764587 120.0
367.274017 80.0
367.483826 80.0
368.549133 60.0
369.168396 56.0
369.684875 48.0
369.723145 68.0
370.148071 56.0
370.336914 88.0
370.592407 132.0
371.942383 76.0
372.168884 132.0
372.334015 60.0
372.956451 60.0
374.129761 56.0
374.260651 52.0
374.509369 96.0
376.257904 64.0
376.628632 68.0
376.674988 60.0
376.794739 80.0
377.216003 116.0
377.397705 96.0
378.461792 56.0
379.271484 80.0
380.109222 76.0
380.136383 76.0
381.200439 52.0
382.234833 76.0
382.378815 88.0
383.134277 40.0
383.656494 80.0
383.718872 116.0
385.143311 92.0
386.719086 140.0
388.745331 56.0
389.723114 84.0
391.097443 44.0
391.528748 84.0
393.772888 128.0
394.634399 56.0
394.693695 108.0
395.809601 112.0
397.097595 144.0
397.47052 112.0
397.498291 80.0
397.851562 128.0
399.051422 76.0
399.445129 52.0
401.328949 40.0
401.488464 88.0
402.414246 60.0
402.830994 116.0
403.608978 80.0
403.728943 104.0
405.218048 68.0
405.406372 76.0
405.819275 72.0
406.288513 76.0
406.31662 92.0
406.396851 72.0
406.46106 84.0
406.513214 52.0
407.440765 76.0
410.044312 104.0
411.44809 60.0
413.473297 40.0
413.699951 104.0
415.750977 48.0
416.82309 84.0
416.867767 80.0
417.058807 56.0
417.904694 68.0
418.527466 88.0
419.819275 44.0
421.680969 92.0
421.815857 48.0
422.63385 128.0
422.682953 60.0
424.202454 104.0
425.420868 48.0
425.642578 36.0
426.414948 80.0
426.562927 88.0
427.677673 44.0
427.780579 96.0
427.912323 140.0
428.715576 48.0
428.818604 96.0
429.486572 44.0
431.067871 60.0
431.74173 92.0
431.927856 64.0
432.883942 108.0
433.666962 132.0
434.023499 104.0
435.683716 44.0
435.916412 52.0
436.2323 72.0
437.359619 64.0
437.980042 52.0
439.134644 96.0
439.902435 64.0
440.608215 104.0
440.787903 80.0
440.86731 100.0
441.933624 36.0
444.321869 80.0
444.379761 60.0
445.661224 60.0
445.938599 32.0
446.800659 84.0
447.213074 84.0
447.29303 84.0
447.785675 68.0
448.244904 96.0
448.493561 36.0
449.201996 48.0
450.878296 68.0
452.172485 84.0
453.553314 48.0
453.595703 36.0
455.772949 76.0
456.453064 52.0
457.597687 92.0
457.77652 96.0
458.777832 52.0
459.694885 92.0
460.835022 68.0
463.916534 64.0
466.101196 128.0
468.838196 40.0
471.159668 68.0
471.522644 136.0
471.75174 112.0
473.240051 72.0
473.673157 80.0
474.837524 140.0
474.908539 64.0
477.497223 60.0
480.363373 48.0
481.415283 48.0
481.550659 120.0
482.958099 72.0
483.325592 72.0
485.384399 104.0
485.919556 96.0
486.156494 72.0
488.898834 72.0
492.002014 68.0
492.196289 28.0
492.262512 60.0
492.885376 36.0
494.809448 72.0
498.79776 60.0
505.720703 56.0
509.276398 48.0
509.878937 40.0
510.152679 68.0
510.211121 48.0
511.596771 96.0
511.839905 64.0
512.858093 40.0
513.525452 68.0
514.784607 48.0
515.159485 88.0
516.701172 76.0
517.389099 28.0
517.470581 68.0
518.89325 108.0
519.727844 84.0
520.317871 96.0
521.253601 48.0
521.921814 100.0
522.513123 96.0
524.343689 100.0
526.218567 68.0
526.848877 44.0
526.921936 84.0
527.250977 56.0
527.401794 80.0
527.753784 48.0
528.234009 132.0
528.783142 60.0
529.355408 104.0
529.643921 48.0
530.977722 116.0
534.114929 72.0
535.242493 124.0
535.274719 52.0
536.896912 56.0
537.639648 96.0
541.764221 40.0
542.287842 44.0
543.122498 64.0
543.456543 104.0
544.988831 48.0
546.313904 72.0
546.9328 44.0
548.782349 68.0
549.570618 44.0
549.635925 64.0
552.495422 76.0
556.009827 56.0
559.770813 36.0
560.373718 132.0
562.283569 96.0
562.902039 116.0
566.577271 56.0
566.814148 68.0
571.18689 60.0
575.108521 80.0
578.296692 72.0
580.773926 104.0
581.296875 88.0
588.739563 116.0
590.26178 80.0
590.508484 96.0
593.36554 92.0
594.078491 48.0
594.777283 44.0
595.209412 80.0
595.457031 60.0
598.194641 60.0
598.676697 148.0
599.007874 100.0
599.963074 36.0
600.182495 92.0
601.695068 28.0
605.509277 52.0
613.750671 56.0
616.579346 40.0
617.741333 44.0
618.30542 52.0
619.355103 76.0
620.990845 112.0
621.948486 28.0
635.718994 44.0
636.658691 92.0
637.044556 76.0
637.70282 68.0
638.76886 72.0
642.380798 68.0
643.299255 76.0
645.825867 80.0
646.630371 64.0
646.939148 72.0
647.845642 80.0
649.366394 80.0
650.502991 88.0
653.323486 120.0
654.392334 72.0
654.794617 56.0
659.534729 48.0
664.543335 44.0
666.206787 52.0
668.345642 120.0
673.062195 112.0
673.4599 72.0
675.869019 92.0
676.562622 88.0
680.565247 148.0
683.226379 144.0
683.684326 52.0
684.381836 148.0
685.637329 56.0
687.901062 96.0
688.715698 100.0
692.544556 44.0
692.759338 108.0
694.310913 44.0
695.370728 124.0
698.870667 72.0
700.681946 40.0
702.305603 124.0
703.772705 80.0
704.317627 68.0
705.066956 44.0
706.182556 36.0
707.521423 116.0
710.20282 124.0
711.004028 104.0
713.181702 80.0
713.426208 92.0
716.571594 28.0
716.875366 88.0
719.73999 228.0
731.3255 68.0
732.424011 64.0
732.612549 52.0
734.769043 92.0
736.615417 108.0
737.474548 144.0
740.872925 180.0
747.072754 104.0
753.364014 88.0
755.266357 44.0
758.634155 108.0
758.787659 44.0
759.281189 28.0
764.291321 64.0
766.460876 56.0
772.761108 96.0
774.809692 172.0
788.426147 48.0
795.506226 128.0
797.213745 72.0
797.281189 92.0
801.282043 196.0
805.388977 128.0
807.084473 196.0
807.242798 52.0
808.640198 240.0
809.076111 36.0
809.653687 56.0
810.310791 64.0
812.442505 64.0
818.518555 76.0
824.320068 56.0
828.817871 116.0
831.570618 60.0
832.77063 44.0
834.126709 148.0
834.926697 160.0
839.118103 56.0
840.283203 148.0
841.616516 208.0
845.443359 136.0
846.531738 88.0
850.195679 76.0
851.780762 80.0
854.594666 180.0
854.769226 60.0
854.967102 188.0
857.838684 160.0
858.450928 132.0
859.576782 136.0
862.187256 128.0
862.269104 60.0
862.666565 36.0
862.993958 76.0
865.77356 180.0
866.283142 116.0
871.404968 60.0
875.481445 112.0
878.104126 80.0
878.186707 148.0
880.270081 144.0
880.370483 180.0
880.518982 136.0
881.102905 204.0
881.522461 148.0
881.75885 148.0
882.621948 96.0
886.191284 84.0
887.441895 80.0
890.082458 108.0
891.531921 68.0
893.732178 144.0
893.994019 104.0
895.035828 100.0
895.148926 40.0
895.941162 128.0
896.119873 56.0
897.854553 128.0
897.99176 72.0
899.638733 164.0
899.823792 52.0
903.613098 144.0
904.103821 184.0
905.07959 64.0
906.409424 76.0
906.54126 124.0
907.842163 64.0
907.93811 168.0
908.513977 148.0
909.749695 212.0
910.080444 112.0
911.155579 60.0
911.618225 120.0
912.772461 168.0
913.897339 132.0
914.210205 192.0
915.335938 176.0
915.456421 92.0
915.787659 172.0
916.082825 96.0
916.667236 184.0
917.909058 172.0
918.898315 88.0
919.495728 204.0
920.292603 144.0
920.479797 152.0
920.799866 168.0
921.186462 168.0
922.159302 96.0
922.449463 104.0
923.435059 156.0
923.84967 164.0
925.038574 136.0
926.183105 56.0
926.316345 176.0
927.164673 32.0
927.483643 144.0
928.874512 176.0
929.511597 148.0
930.197449 124.0
931.132507 152.0
933.314209 180.0
933.697327 140.0
933.770325 216.0
933.849365 176.0
934.366455 196.0
937.13678 108.0
937.532898 116.0
938.002197 148.0
938.581421 96.0
938.636292 108.0
938.794861 76.0
939.349915 128.0
939.508484 108.0
939.941711 140.0
940.887817 120.0
941.296875 172.0
941.64502 60.0
941.779358 120.0
942.237549 104.0
943.557678 136.0
943.747253 176.0
944.034668 44.0
944.279297 64.0
944.952209 124.0
945.190796 132.0
945.264282 136.0
945.447876 80.0
947.934204 120.0
948.639099 172.0
949.049866 220.0
950.31958 188.0
950.423889 144.0
951.645386 48.0
952.019958 188.0
952.234924 144.0
952.810059 152.0
953.389954 116.0
953.457581 140.0
953.672668 188.0
954.398132 172.0
955.794434 128.0
956.766968 120.0
958.158813 148.0
958.5224 128.0
959.046265 136.0
959.391418 136.0
959.514771 128.0
959.934021 200.0
960.045044 172.0
960.846924 176.0
961.087585 84.0
961.507202 200.0
961.743591 96.0
963.0755 176.0
963.600586 220.0
963.773621 136.0
963.847778 144.0
964.162964 88.0
964.558533 156.0
964.607971 156.0
965.461243 132.0
965.881836 96.0
967.12561 68.0
968.320618 208.0
968.785156 116.0
969.844849 184.0
969.993591 140.0
970.229187 28.0
970.272583 140.0
970.377991 84.0
970.433777 52.0
970.73761 140.0
970.998108 68.0
971.302246 144.0
972.623779 132.0
972.716858 28.0
973.07074 204.0
973.157654 48.0
973.207336 84.0
973.809753 220.0
973.946411 188.0
974.089294 152.0
974.194885 220.0
974.841064 84.0
974.99646 72.0
975.201538 68.0
975.686401 152.0
976.320679 168.0
976.407776 200.0
977.533813 168.0
977.658264 200.0
978.069031 164.0
978.573303 116.0
978.660522 156.0
979.382935 160.0
979.63208 204.0
979.956055 136.0
980.012146 36.0
980.143005 132.0
980.504456 56.0
981.439575 140.0
982.443726 140.0
982.574768 172.0
983.117615 124.0
983.161316 176.0
983.529541 36.0
983.797974 208.0
983.985291 80.0
984.253784 368.0
985.090698 208.0
985.259399 60.0
986.328003 164.0
987.021973 152.0
987.997742 136.0
988.172913 224.0
988.222961 208.0
988.723572 232.0
989.218079 164.0
989.315186 180.0
990.182373 108.0
990.364014 152.0
990.880127 152.0
991.416626 108.0
991.817749 92.0
992.808411 236.0
993.027893 184.0
993.278809 72.0
993.981506 180.0
994.395691 128.0
994.671875 112.0
994.897888 124.0
995.136475 172.0
995.293457 96.0
995.456726 168.0
995.670227 68.0
995.877502 140.0
996.687927 144.0
997.536438 204.0
998.026855 76.0
998.240601 88.0
999.033142 168.0
999.410645 120.0
999.549072 160.0
999.59314 128.0
1000.11554 144.0
1000.889893 200.0
1001.274048 156.0
1001.475586 184.0
1003.22113 164.0
1004.198547 172.0
1004.476074 128.0
1004.608521 188.0
1005.334167 172.0
1005.637146 200.0
1006.154785 188.0
1006.956726 116.0
1007.196777 152.0
1007.632324 156.0
1007.980164 60.0
1008.599548 116.0
1008.84613 144.0
1008.953613 88.0
1009.016785 144.0
1009.383545 124.0
1009.680786 176.0
1010.60437 100.0
1010.67395 132.0
1011.148621 128.0
1011.313171 108.0
1012.174194 148.0
1012.30719 104.0
1012.62384 112.0
1012.934204 176.0
1013.59314 96.0
1013.814941 148.0
1014.049438 136.0
1014.169861 144.0
1014.296631 168.0
1015.342834 180.0
1015.843933 104.0
1016.129456 192.0
1016.881897 152.0
1016.999023 152.0
1017.182922 92.0
1017.232849 152.0
1017.283447 168.0
1017.538452 144.0
1017.671814 164.0
1017.875 136.0
1018.173462 152.0
1018.929382 76.0
1019.323303 156.0
1019.914429 168.0
1020.313293 128.0
1020.620117 116.0
1020.893555 140.0
1021.481201 136.0
1021.765015 152.0
1022.006775 96.0
1022.223145 168.0
1022.611328 76.0
1022.821411 176.0
1022.993286 348.0
1023.247498 112.0
1023.337097 72.0
1024.209595 176.0
1024.744751 116.0
1025.81543 68.0
1025.968384 120.0
1026.178833 296.0
1026.3573 160.0
1026.900146 240.0
1027.014282 220.0
1027.263062 76.0
1028.258423 108.0
1028.386108 168.0
1028.469116 116.0
1028.520142 128.0
1028.654175 172.0
1029.069214 144.0
1029.203247 184.0
1029.330933 308.0
1030.269897 104.0
1030.778442 132.0
1032.033936 124.0
1032.411255 92.0
1032.462402 128.0
1032.903687 84.0
1033.063721 176.0
1033.223633 120.0
1033.511475 208.0
1034.157959 140.0
1034.215454 168.0
1034.535645 88.0
1034.926147 120.0
1035.035034 104.0
1035.310303 192.0
1035.598633 156.0
1035.755859 212.0
1036.739014 164.0
1036.828735 68.0
1037.190186 176.0
1037.783936 144.0
1038.367432 120.0
1038.521362 32.0
1038.713867 184.0
1038.816528 160.0
1038.86145 132.0
1039.015381 204.0
1039.08728 156.0
1039.207886 144.0
1039.84314 168.0
1040.491577 200.0
1041.262085 104.0
1041.6604 196.0
1041.808105 92.0
1043.061279 172.0
1043.138428 136.0
1043.350586 148.0
1043.974243 124.0
1044.083618 112.0
1044.263672 56.0
1044.508057 168.0
1044.771851 108.0
1045.904419 148.0
1046.580444 164.0
1047.076294 148.0
1047.321045 220.0
1047.797852 104.0
1048.1427 164.0
1048.285034 52.0
1048.442139 100.0
1049.041626 200.0
1049.925049 204.0
1050.163696 144.0
1050.88623 88.0
1050.970093 80.0
1052.390137 64.0
1052.719482 120.0
1053.287842 152.0
1054.166504 72.0
1054.347412 116.0
1054.786987 80.0
1054.929199 176.0
1055.285278 148.0
1055.950928 56.0
1056.058838 192.0
1056.41333 208.0
1058.623779 112.0
1059.265015 180.0
1060.340698 124.0
1061.481689 156.0
1061.565918 116.0
1061.730347 152.0
1062.370239 280.0
1062.675171 140.0
1063.145996 312.0
1063.194336 156.0
1063.546753 176.0
1063.823975 76.0
1063.921265 168.0
1064.330322 120.0
1065.025269 40.0
1065.967407 152.0
1066.673828 144.0
1067.885254 128.0
1068.431641 72.0
1068.509766 136.0
1068.581299 168.0
1068.758789 172.0
1068.860352 108.0
1068.980713 152.0
1069.401245 92.0
1069.736084 204.0
1069.7854 140.0
1070.000244 100.0
1071.973877 156.0
1072.065063 200.0
1072.37146 76.0
1072.475708 156.0
1072.671265 136.0
1072.808105 124.0
1073.099854 208.0
1073.39502 160.0
1073.590576 88.0
1073.8927 112.0
1074.693115 160.0
1074.967163 56.0
1075.809082 140.0
1076.024536 116.0
1076.246582 144.0
1076.710205 100.0
1076.833618 212.0
1077.396118 132.0
1077.539795 176.0
1077.8927 156.0
1078.003784 196.0
1078.225952 152.0
1078.546265 156.0
1078.718262 200.0
1079.049683 136.0
1079.226196 36.0
1079.461548 144.0
1079.984741 200.0
1080.051392 208.0
1080.167969 204.0
1080.907227 152.0
1081.234497 188.0
1081.673096 148.0
1081.95459 124.0
1082.089844 168.0
1082.373657 128.0
1082.864746 36.0
1082.949951 92.0
1083.080933 160.0
1083.166138 68.0
1083.985107 148.0
1084.375732 176.0
1084.745361 160.0
1086.371704 128.0
1086.758789 204.0
1086.817871 136.0
1086.870361 64.0
1086.936035 104.0
1087.201294 204.0
1087.35498 128.0
1087.572632 136.0
1087.973022 148.0
1088.150269 168.0
1088.255371 184.0
1088.688721 96.0
1088.793823 84.0
1088.9646 156.0
1089.069702 168.0
1089.279907 244.0
1091.343628 116.0
1091.415894 144.0
1091.521118 192.0
1091.639526 160.0
1091.764404 172.0
1092.014404 168.0
1092.435425 104.0
1093.145996 68.0
1093.297363 148.0
1093.726807 136.0
1094.522705 152.0
1094.718994 192.0
1094.808838 148.0
1094.949829 180.0
1095.213379 192.0
1095.285767 140.0
1095.442627 164.0
1095.865479 144.0
1096.359741 116.0
1096.610229 196.0
1096.775024 52.0
1096.86731 100.0
1097.401245 92.0
1097.493652 104.0
1097.968384 152.0
1098.403687 208.0
1098.542236 200.0
1098.654419 132.0
1098.727051 216.0
1099.103149 140.0
1099.215332 180.0
1099.34729 172.0
1099.617798 156.0
1099.763062 180.0
1099.82251 92.0
1100.033691 108.0
1100.284546 84.0
1100.497681 208.0
1100.806152 156.0
1100.951538 48.0
1101.136475 152.0
1101.275757 128.0
1102.589966 84.0
1102.722168 128.0
1103.231079 76.0
1103.522095 160.0
1103.614624 152.0
1103.812988 108.0
1104.229614 136.0
1104.990356 192.0
1105.334473 104.0
1105.513184 168.0
1105.686768 112.0
1105.890381 212.0
1106.426636 184.0
1106.592163 140.0
1106.731201 44.0
1107.764404 168.0
1107.890259 136.0
1108.281128 156.0
1108.486572 208.0
1108.619141 164.0
1109.12085 136.0
1109.288574 96.0
1109.458618 184.0
1109.639893 56.0
1109.779175 156.0
1110.057617 152.0
1110.16394 204.0
1110.661255 144.0
1111.019409 168.0
1111.251709 212.0
1112.03479 196.0
1112.107788 76.0
1112.406494 124.0
1112.838013 112.0
1112.95752 140.0
1113.402466 200.0
1113.528687 72.0
1113.575195 136.0
1113.674805 200.0
1113.993652 240.0
1114.060059 112.0
1114.113159 120.0
1114.3125 224.0
1114.545044 168.0
1114.897339 112.0
1115.183105 112.0
1115.502197 108.0
1115.841187 144.0
1116.127075 116.0
1116.293335 64.0
1116.359863 72.0
1117.650391 176.0
1117.843384 120.0
1118.0896 140.0
1118.415771 120.0
1118.528931 176.0
1118.602173 164.0
1118.80188 156.0
1119.734131 148.0
1119.807373 160.0
1120.43396 128.0
1121.546509 144.0
1121.739746 100.0
1121.819702 144.0
1121.939819 136.0
1122.35144 144.0
1122.479858 148.0
1122.633179 176.0
1122.742798 168.0
1122.940063 48.0
1123.580444 256.0
1123.740479 144.0
1123.907349 152.0
1124.107544 64.0
1124.334473 156.0
1124.401245 136.0
1124.447876 116.0
1124.49939 248.0
1124.628174 200.0
1124.795044 172.0
1124.901855 180.0
1125.060181 132.0
1125.362427 72.0
1125.422607 124.0
1126.050293 96.0
1126.260376 160.0
1126.317505 176.0
1126.571289 180.0
1126.998901 116.0
1127.159302 132.0
1127.206055 124.0
1127.553589 164.0
1128.081665 156.0
1128.222046 164.0
1128.38562 176.0
1129.017822 144.0
1129.19165 68.0
1129.378906 120.0
1129.813721 52.0
1130.094727 156.0
1130.810791 216.0
1130.951416 200.0
1131.272705 168.0
1131.31958 100.0
1131.386475 104.0
1131.440063 156.0
1131.567261 112.0
1131.781616 92.0
1132.578491 152.0
1133.598389 168.0
1133.891846 124.0
1134.139771 136.0
1134.220215 148.0
1134.300659 300.0
1134.66272 184.0
1134.756592 68.0
1135.018066 160.0
1135.380249 128.0
1136.017456 108.0
1136.43335 116.0
1136.856201 80.0
1137.11792 232.0
1137.232056 112.0
1137.493774 168.0
1137.594482 132.0
1137.832642 184.0
1138.051025 228.0
1138.185303 192.0
1138.292725 160.0
1138.406982 208.0
1138.487549 132.0
1138.561401 196.0
1138.950928 96.0
1139.132324 144.0
1139.515259 240.0
1139.911743 172.0
1140.462891 60.0
1140.812378 80.0
1141.14856 112.0
1141.599121 220.0
1141.888306 68.0
1142.164062 172.0
1142.345703 92.0
1142.486938 176.0
1143.044067 200.0
1143.219727 152.0
1143.476196 156.0
1143.684814 156.0
1143.832886 172.0
1144.5802 80.0
1145.13916 180.0
1145.395142 156.0
1145.543335 104.0
1145.718506 180.0
1146.122803 168.0
1146.223877 128.0
1146.29126 140.0
1146.608032 132.0
1146.805542 224.0
1147.046143 140.0
1147.349487 128.0
1147.578735 112.0
1147.673096 168.0
1147.834961 88.0
1148.401489 136.0
1148.489136 224.0
1148.641602 172.0
1149.265015 104.0
1149.447266 180.0
1149.595703 192.0
1150.00061 116.0
1150.803955 140.0
1150.939087 192.0
1151.087646 148.0
1151.587402 148.0
1151.99939 136.0
1152.08728 136.0
1152.195312 176.0
1152.316895 176.0
1152.384521 264.0
1152.600708 124.0
1152.729736 168.0
1152.85083 128.0
1153.182007 152.0
1153.364502 212.0
1153.573975 168.0
1153.743042 184.0
1154.202759 104.0
1154.304199 32.0
1154.52063 124.0
1154.939941 112.0
1155.007568 136.0
1155.122559 140.0
1155.379639 76.0
1155.616455 200.0
1155.711182 172.0
1156.049561 164.0
1156.252563 180.0
1156.394775 140.0
1156.963379 124.0
1157.092041 32.0
1157.173218 204.0
1157.356079 76.0
1157.687866 132.0
1157.755615 200.0
1157.938477 96.0
1158.304199 152.0
1158.575195 164.0
1158.703979 144.0
1158.839478 144.0
1159.063232 168.0
1159.609131 148.0
1159.693359 140.0
1159.774658 160.0
1159.842407 120.0
1160.445801 164.0
1160.594971 188.0
1160.805176 108.0
1161.008789 172.0
1161.171387 148.0
1161.775146 184.0
1162.066895 116.0
1162.209351 132.0
1162.501221 128.0
1162.575806 100.0
1163.078125 156.0
1163.539673 40.0
1164.300293 168.0
1164.38855 172.0
1164.470093 160.0
1164.830078 192.0
1164.918335 196.0
1166.38916 164.0
1166.760132 128.0
1167.24292 160.0
1167.331299 156.0
1167.467285 172.0
1167.977295 220.0
1168.637329 132.0
1169.222534 128.0
1169.433594 156.0
1169.515259 128.0
1169.733032 200.0
1170.161987 172.0
1170.713501 184.0
1170.9729 152.0
1171.530884 164.0
1171.687622 180.0
1171.90564 96.0
1171.973755 204.0
1172.055542 76.0
1172.191772 52.0
1172.300903 136.0
1172.716553 180.0
1172.805176 180.0
1172.911377 192.0
1173.17334 104.0
1173.766479 156.0
1173.991577 220.0
1174.093628 140.0
1174.339355 204.0
1174.455322 128.0
1174.587891 220.0
1174.82373 148.0
1174.900635 184.0
1175.594727 128.0
1175.656128 240.0
1175.751709 184.0
1175.956421 44.0
1176.220947 204.0
1176.297729 172.0
1176.591309 128.0
1177.021484 180.0
1177.069336 152.0
1177.601929 100.0
1177.64978 140.0
1177.738647 184.0
1177.963989 124.0
1178.087036 136.0
1178.278076 164.0
1178.674561 176.0
1178.831787 160.0
1179.255493 124.0
1179.337524 236.0
1179.405884 92.0
1179.56311 148.0
1179.734009 152.0
1179.952759 40.0
1180.349365 128.0
1180.451904 76.0
1180.602417 148.0
1181.122192 188.0
1181.195679 232.0
1181.286377 96.0
1181.553223 48.0
1181.655762 208.0
1182.244507 204.0
1182.333252 152.0
1182.463257 172.0
1182.579712 144.0
1183.188965 92.0
1183.236816 144.0
1183.394287 132.0
1183.661377 28.0
1183.873657 168.0
1184.024292 176.0
1184.079102 44.0
1184.428467 56.0
1184.551758 196.0
1184.723022 156.0
1184.921753 64.0
1185.387695 52.0
1185.483643 92.0
1186.319824 196.0
1186.498047 88.0
1186.964355 92.0
1187.300293 140.0
1187.375732 180.0
1187.595215 144.0
1188.096069 148.0
1188.295044 116.0
1188.583252 152.0
1188.692993 56.0
1188.823364 120.0
1188.994995 136.0
1189.180298 160.0
1189.38623 96.0
1189.475464 188.0
1189.523438 172.0
1189.598999 72.0
1189.812988 284.0
1189.935425 140.0
1190.043213 200.0
1190.148315 60.0
1190.299316 164.0
1190.477905 132.0
1190.747559 132.0
1190.924316 132.0
1191.061646 116.0
1191.274658 164.0
1191.996094 128.0
1192.099121 128.0
1192.503052 132.0
1192.765869 160.0
1192.820801 156.0
1192.96521 172.0
1193.379517 292.0
1193.535889 160.0
1193.907227 104.0
1194.299316 140.0
1194.361206 72.0
1194.43689 116.0
1194.636353 156.0
1194.900146 176.0
1195.15918 140.0
1195.482666 156.0
1195.572144 156.0
1195.655396 176.0
1195.840576 132.0
1196.005737 92.0
1196.19165 84.0
1196.377441 112.0
1196.72168 204.0
1197.134888 176.0
1198.023438 144.0
1198.572754 232.0
1198.632446 276.0
1198.753784 156.0
1198.88623 164.0
1199.154053 148.0
1199.222412 220.0
1199.484375 56.0
1199.587769 164.0
1199.636108 148.0
1199.808472 152.0
1200.183105 172.0
1200.30481 208.0
1200.401367 188.0
1200.953125 156.0
1201.023315 196.0
1201.511963 288.0
1201.815552 176.0
1201.877563 164.0
1201.981079 136.0
1202.049561 200.0
1202.264038 112.0
1203.175171 168.0
1203.265015 144.0
1203.354736 132.0
1203.824341 164.0
1204.666992 144.0
1204.756714 128.0
1204.894531 236.0
1205.136719 128.0
1205.427002 168.0
1205.509888 72.0
1205.55835 160.0
1205.634277 108.0
1205.890015 136.0
1206.125 60.0
1206.366943 176.0
1206.650513 280.0
1206.758057 148.0
1207.016968 176.0
1207.079224 148.0
1207.419922 172.0
1207.507935 84.0
1207.867676 132.0
1208.088989 160.0
1208.318848 132.0
1208.400391 172.0
1208.455688 40.0
1208.71167 196.0
1209.064697 180.0
1209.431519 168.0
1209.833008 80.0
1209.99707 148.0
1210.130249 140.0
1210.227661 124.0
1210.483887 136.0
1210.740112 136.0
1211.065674 144.0
1211.370361 236.0
1211.453491 124.0
1211.621582 140.0
1211.896973 152.0
1212.23645 204.0
1212.333496 176.0
1212.469482 232.0
1212.522827 208.0
1212.894897 48.0
1213.012817 188.0
1213.303955 104.0
1213.648193 192.0
1213.719971 144.0
1214.276978 164.0
1214.808838 184.0
1214.962891 160.0
1215.058594 56.0
1215.329224 180.0
1215.454102 96.0
1215.565186 116.0
1215.860229 104.0
1215.988525 184.0
1216.120361 136.0
1216.266113 156.0
1216.335571 200.0
1216.627197 168.0
1217.057617 176.0
1217.130005 120.0
1217.279785 164.0
1217.411743 224.0
1217.640991 208.0
1217.800659 188.0
1218.64502 140.0
1218.967896 136.0
1219.482178 264.0
1219.70459 124.0
1219.874146 204.0
1220.113281 168.0
1220.490234 180.0
1221.003662 164.0
1221.651733 188.0
1221.853516 312.0
1222.437988 104.0
1222.542358 120.0
1222.660767 160.0
1222.737305 132.0
1222.980835 128.0
1223.036621 72.0
1223.092285 92.0
1223.273193 52.0
1223.704834 104.0
1224.000366 120.0
1224.227173 116.0
1224.296753 120.0
1224.742554 172.0
1225.232422 160.0
1225.989746 156.0
1226.038452 144.0
1226.317261 180.0
1226.470581 180.0
1226.7146 144.0
1226.819214 28.0
1226.902832 208.0
1227.174805 72.0
1227.474609 116.0
1227.565308 200.0
1227.621094 156.0
1227.767456 104.0
1227.823242 180.0
1227.965454 184.0
1228.464233 148.0
1228.562744 100.0
1229.117798 152.0
1229.183716 152.0
1229.28833 108.0
1229.80481 144.0
1229.88855 208.0
1230.056152 160.0
1230.286499 128.0
1230.52002 152.0
1230.828735 152.0
1230.911255 124.0
1231.145386 188.0
1231.194214 120.0
1231.815918 184.0
1231.89856 160.0
1232.297974 72.0
1232.488892 184.0
1232.619385 68.0
1232.905884 140.0
1233.024658 152.0
1233.148438 204.0
1233.248413 212.0
1233.569946 176.0
1233.716675 192.0
1234.374023 132.0
1234.548828 152.0
1234.653687 68.0
1234.856567 96.0
1235.038452 32.0
1235.283203 128.0
1235.472168 208.0
1235.56311 104.0
1235.793945 152.0
1235.989868 68.0
1236.465576 156.0
1236.969727 188.0
1237.053711 332.0
1237.151733 172.0
1237.368774 156.0
1237.522827 108.0
1237.62085 180.0
1237.718872 32.0
1237.767944 196.0
1238.06897 160.0
1238.146118 172.0
1238.370239 144.0
1238.419189 100.0
1238.769531 180.0
1239.105713 176.0
1239.203857 104.0
1239.407104 164.0
1239.661621 100.0
1240.234009 156.0
1240.353149 104.0
1240.402222 104.0
1240.47937 152.0
1240.86499 132.0
1240.914062 132.0
1241.13147 108.0
1241.447021 208.0
1241.622314 40.0
1241.685425 160.0
1241.755615 152.0
1241.92395 216.0
1242.029175 108.0
1242.485107 172.0
1242.56543 164.0
1242.723633 56.0
1242.843018 252.0
1243.331543 108.0
1243.408203 104.0
1243.488647 136.0
1243.776367 156.0
1244.015015 84.0
1244.141479 72.0
1244.214355 132.0
1244.682129 316.0
1244.766357 148.0
1244.998047 76.0
1245.124512 64.0
1245.574097 72.0
1245.70752 156.0
1245.862061 168.0
1245.981445 104.0
1246.044678 184.0
1246.100952 136.0
1246.199341 172.0
1246.663086 80.0
1246.97937 140.0
1247.183228 276.0
1247.288574 132.0
1247.668213 112.0
1247.724487 176.0
1247.829956 172.0
1247.907349 196.0
1248.012817 128.0
1248.090088 168.0
1248.272949 168.0
1248.828613 144.0
1248.934082 136.0
1249.095825 116.0
1249.158203 152.0
1249.377197 208.0
1249.659424 156.0
1250.000854 96.0
1250.151245 128.0
1250.249756 112.0
1250.306152 240.0
1251.00293 152.0
1251.171875 148.0
1251.362061 108.0
1251.721069 200.0
1252.238525 164.0
1252.559204 212.0
1252.777588 84.0
1252.946777 140.0
1253.221558 60.0
1253.277832 176.0
1253.425903 148.0
1253.890991 108.0
1254.264526 68.0
1254.401733 52.0
1254.560669 188.0
1254.609985 116.0
1254.765137 96.0
1254.872925 268.0
1255.38562 160.0
1255.533691 112.0
1255.632446 208.0
1256.140259 40.0
1256.281372 132.0
1256.824707 172.0
1256.937622 160.0
1257.19873 184.0
1257.473877 176.0
1257.523315 132.0
1257.657471 188.0
1257.890381 160.0
1258.095093 172.0
1258.363403 176.0
1258.44104 112.0
1258.490479 48.0
1258.737671 120.0
1259.344971 52.0
1259.401489 152.0
1259.627563 112.0
1259.881958 96.0
1260.376465 128.0
1260.66626 104.0
1260.765137 180.0
1261.436646 164.0
1261.712402 232.0
1261.875 180.0
1262.115356 124.0
1262.263916 132.0
1262.773071 208.0
1262.87915 140.0
1263.01355 168.0
1263.18335 144.0
1263.261108 128.0
1263.38855 208.0
1263.57251 48.0
1263.664429 160.0
1263.721069 68.0
1263.820068 176.0
1263.92627 148.0
1264.966675 176.0
1265.278198 140.0
1265.511841 192.0
1265.653442 172.0
1265.823364 140.0
1266.15625 160.0
1266.404053 96.0
1266.567017 164.0
1266.914185 232.0
1267.041626 116.0
1267.317993 52.0
1267.622681 168.0
1267.721924 204.0
1267.849487 136.0
1267.991211 156.0
1268.132935 148.0
1268.189697 232.0
1268.402344 44.0
1268.451904 160.0
1268.834839 156.0
1269.281494 124.0
1269.338257 180.0
1269.550049 132.0
1269.799194 172.0
1269.848877 104.0
1269.93396 80.0
1270.082886 148.0
1270.536987 204.0
1270.671753 148.0
1270.969727 144.0
1271.24646 92.0
1271.360107 176.0
1271.942017 88.0
1272.204712 36.0
1272.318359 124.0
1272.815308 100.0
1273.042603 352.0
1273.141968 136.0
1273.411865 140.0
1274.555664 164.0
1274.683594 112.0
1274.908081 124.0
1274.967896 312.0
1275.088745 152.0
1275.17395 116.0
1275.394287 132.0
1275.479614 132.0
1275.863525 112.0
1276.190552 92.0
1276.467896 164.0
1276.52478 96.0
1276.603027 144.0
1277.034546 248.0
1277.161743 136.0
1277.364014 248.0
1277.563232 136.0
1277.669922 152.0
1277.812256 192.0
1277.923584 124.0
1278.232056 148.0
1278.289062 188.0
1278.506592 344.0
1278.943726 120.0
1279.135986 116.0
1279.378052 132.0
1279.470581 116.0
1279.534668 140.0
1279.677002 120.0
1279.756104 148.0
1280.146973 120.0
1280.268066 188.0
1280.709717 160.0
1280.795166 108.0
1280.90918 136.0
1281.051636 116.0
1281.270752 168.0
1281.436279 116.0
1281.77832 72.0
1281.970825 232.0
1282.137329 168.0
1282.19397 184.0
1282.312866 160.0
1282.376953 204.0
1282.548096 248.0
1282.761963 140.0
1283.831421 112.0
1284.03833 56.0
1284.780151 152.0
1284.872925 176.0
1285.036987 168.0
1285.229614 112.0
1285.358154 112.0
1285.700684 148.0
1285.929077 96.0
1286.014648 148.0
1286.107422 192.0
1286.393066 104.0
1286.500122 160.0
1286.671387 124.0
1287.084473 164.0
1287.228394 84.0
1287.285767 128.0
1287.342651 156.0
1287.478394 112.0
1287.535522 100.0
1287.756836 88.0
1287.949707 216.0
1288.121216 120.0
1288.199707 64.0
1288.359741 196.0
1288.506958 60.0
1288.557007 52.0
1288.664185 116.0
1289.057129 156.0
1289.500244 64.0
1289.557495 108.0
1289.664673 176.0
1290.007812 40.0
1290.129272 140.0
1290.350952 36.0
1290.501099 132.0
1290.840454 120.0
1291.237671 52.0
1291.602417 184.0
1291.923584 228.0
1292.081787 88.0
1292.224854 156.0
1292.431885 176.0
1292.83313 140.0
1293.176636 236.0
1293.342163 132.0
1293.39856 40.0
1293.663452 144.0
1294.336426 172.0
1294.415161 60.0
1294.751831 160.0
1295.081299 128.0
1295.403564 144.0
1295.496704 60.0
1295.969604 232.0
1296.195068 176.0
1296.585938 132.0
1296.657593 120.0
1296.779419 40.0
1296.908447 128.0
1297.524902 76.0
1297.607666 184.0
1297.768799 172.0
1297.890625 112.0
1298.034058 28.0
1298.084229 160.0
1298.500244 40.0
1298.779907 140.0
1298.880371 124.0
1298.987915 128.0
1299.317993 212.0
1299.418457 184.0
1299.583496 36.0
1299.655151 36.0
1300.064209 156.0
1300.401611 124.0
1300.478638 212.0
1300.868164 124.0
1301.148193 44.0
1301.406616 136.0
1301.686646 128.0
1301.751343 144.0
1301.851807 132.0
1301.981079 144.0
1302.192993 160.0
1302.330078 180.0
1302.476685 128.0
1302.871826 48.0
1303.295776 116.0
1303.439453 204.0
1303.532837 120.0
1303.611938 152.0
1303.784424 148.0
1303.834717 160.0
1303.956909 172.0
1304.244385 120.0
1304.323486 116.0
1304.415527 124.0
1304.503174 88.0
1304.673218 168.0
1304.805176 140.0
1304.927368 192.0
1305.445068 160.0
1305.538574 144.0
1305.732788 116.0
1305.81189 216.0
1305.962891 168.0
1306.02771 144.0
1306.142822 52.0
1306.193115 80.0
1306.308228 132.0
1306.610352 36.0
1306.840576 168.0
1307.070923 120.0
1307.445068 188.0
1307.871704 144.0
1308.20813 140.0
1308.547485 88.0
1308.798462 112.0
1308.956909 188.0
1309.273804 168.0
1309.425049 92.0
1309.821167 64.0
1310.642456 296.0
1310.773071 132.0
1310.837036 92.0
1310.923584 136.0
1311.017212 108.0
1311.146973 152.0
1311.2146 116.0
1311.377563 64.0
1311.654785 176.0
1312.531128 60.0
1312.624878 52.0
1313.086426 224.0
1313.208984 204.0
1313.403809 168.0
1313.539795 160.0
1313.634644 176.0
1313.875732 128.0
1313.973633 168.0
1314.579834 204.0
1314.911743 84.0
1315.287109 164.0
1315.540527 204.0
1315.915161 176.0
1316.081299 80.0
1316.196777 136.0
1316.305176 136.0
1316.644531 196.0
1316.828247 164.0
1316.943115 180.0
1317.099609 152.0
1317.287476 136.0
1317.641479 228.0
1317.923218 124.0
1318.038818 36.0
1318.103882 56.0
1318.566406 160.0
1318.645874 40.0
1318.75769 260.0
1318.806274 152.0
1318.862671 140.0
1319.021729 148.0
1319.158691 128.0
1319.240356 180.0
1319.404907 112.0
1319.469971 208.0
1320.569214 180.0
1320.651489 64.0
1321.061035 276.0
1321.126221 140.0
1321.357666 160.0
1321.480713 124.0
1321.603638 156.0
1321.922119 124.0
1321.97998 148.0
1322.168091 152.0
1322.464844 60.0
1322.602417 180.0
1322.841309 176.0
1323.478516 204.0
1323.688477 252.0
1324.122925 196.0
1324.224365 140.0
1324.832886 160.0
1324.898071 144.0
1325.028442 252.0
1325.24585 140.0
1325.441406 156.0
1325.550171 148.0
1326.113281 164.0
1326.203735 136.0
1326.419922 268.0
1326.506836 188.0
1327.282715 132.0
1327.49292 120.0
1327.616211 64.0
1327.688721 116.0
1327.79248 200.0
1328.319824 148.0
1328.639038 48.0
1328.842163 112.0
1328.907471 124.0
1328.994507 148.0
1329.23645 168.0
1329.923462 188.0
1330.250122 204.0
1330.395386 164.0
1330.671265 176.0
1330.80188 156.0
1330.889038 164.0
1330.983398 160.0
1331.150513 136.0
1331.644287 176.0
1331.767822 104.0
1331.85498 52.0
1332.029297 136.0
1332.109253 152.0
1332.552368 60.0
1332.828491 52.0
1332.908447 140.0
1333.068359 76.0
1333.126465 164.0
1333.279053 116.0
1333.518921 140.0
1333.736938 120.0
1334.107666 128.0
1334.318604 160.0
1334.420288 96.0
1334.812988 112.0
1334.907471 88.0
1334.994751 176.0
1335.191162 112.0
1335.409302 232.0
1335.649414 156.0
1336.47876 172.0
1336.587891 104.0
1336.646118 240.0
1336.864502 72.0
1336.980957 124.0
1337.09729 124.0
1337.155518 112.0
1337.257446 120.0
1337.519531 180.0
1337.665161 144.0
1337.890747 140.0
1338.055786 220.0
1338.276611 184.0
1338.385864 112.0
1338.830078 120.0
1338.946655 152.0
1339.106812 132.0
1339.201538 216.0
1339.379272 80.0
1339.543945 52.0
1339.610474 144.0
1339.740601 116.0
1339.835327 148.0
1340.061157 60.0
1340.134033 164.0
1340.369629 148.0
1340.520264 112.0
1340.692871 160.0
1340.833618 84.0
1341.045044 172.0
1341.096069 140.0
1341.17627 104.0
1341.343872 52.0
1341.686523 196.0
1341.810425 96.0
1341.890625 228.0
1342.459473 164.0
1343.152344 268.0
1343.312744 228.0
1344.130005 164.0
1344.217529 180.0
1344.283203 108.0
1344.400024 152.0
1345.297729 148.0
1345.670166 236.0
1345.86731 168.0
1346.232422 124.0
1346.597534 200.0
1346.72168 128.0
1346.970093 116.0
1347.079712 204.0
1347.320801 132.0
1347.528076 220.0
1348.080688 148.0
1348.511841 112.0
1349.908325 216.0
1350.069214 204.0
1350.628662 256.0
1350.961548 120.0
1351.07019 112.0
1351.2323 204.0
1351.327393 148.0
1351.444458 116.0
1351.578979 188.0
1351.949341 172.0
1352.139648 168.0
1352.278687 192.0
1352.373901 104.0
1352.498291 172.0
1352.566772 160.0
1352.644653 208.0
1352.900879 192.0
1353.098633 176.0
1353.303589 160.0
1353.398804 104.0
1353.596558 144.0
1353.661865 232.0
1353.816162 100.0
1354.079834 136.0
1354.343506 156.0
1354.71521 168.0
1355.068848 140.0
1355.14209 92.0
1355.216309 180.0
1355.435181 228.0
1355.493774 132.0
1355.633057 132.0
1356.080078 212.0
1356.329346 164.0
1356.603149 100.0
1356.849854 220.0
1357.055176 104.0
1357.231079 124.0
1357.367554 216.0
1357.458374 164.0
1357.539062 188.0
1357.689453 204.0
1358.001099 168.0
1358.149658 176.0
1358.417358 168.0
1358.482178 148.0
1358.654053 72.0
1358.81543 40.0
1358.910767 112.0
1359.060791 124.0
1359.130981 160.0
1359.189697 116.0
1359.266357 156.0
1359.644653 152.0
1359.820801 104.0
1360.004272 456.0
1360.263672 276.0
1360.408081 96.0
1360.576904 120.0
1360.714844 208.0
1360.929321 204.0
1361.010132 148.0
1361.182983 212.0
1361.712158 160.0
1362.155762 192.0
1362.342896 148.0
1362.574585 68.0
1362.67749 92.0
1363.272705 188.0
1363.55188 168.0
1363.618042 116.0
1363.893921 112.0
1364.345825 132.0
1364.507568 360.0
1364.618896 208.0
1365.150146 216.0
1365.684204 44.0
1366.199097 240.0
1366.286743 132.0
1366.589111 152.0
1366.708252 148.0
1366.773071 76.0
1366.868652 152.0
1367.096802 96.0
1367.251343 104.0
1367.339722 180.0
1367.560547 48.0
1367.715088 72.0
1367.777588 164.0
1367.928589 168.0
1368.14209 196.0
1368.355591 140.0
1368.510132 180.0
1368.978882 128.0
1369.231812 184.0
1369.526489 200.0
1369.644287 180.0
1369.968506 176.0
1370.123169 116.0
1370.432617 132.0
1370.661011 184.0
1370.719849 156.0
1370.808472 132.0
1371.169556 240.0
1371.538086 124.0
1371.793945 160.0
1371.847656 116.0
1372.090942 124.0
1372.172852 160.0
1372.262451 188.0
1372.371216 136.0
1372.533447 164.0
1372.629272 148.0
1372.872559 104.0
1373.118896 140.0
1373.38147 120.0
1373.735596 180.0
1373.883179 140.0
1374.001221 176.0
1374.370117 104.0
1374.643188 152.0
1374.894043 52.0
1375.049072 172.0
1375.181885 180.0
1375.322144 140.0
1375.379761 204.0
1375.523193 204.0
1375.587891 184.0
1375.683838 144.0
1375.934937 76.0
1376.069458 212.0
1376.168579 192.0
1376.28186 192.0
1376.592041 132.0
1376.733521 136.0
1376.797485 108.0
1376.85791 156.0
1377.168091 204.0
1377.308472 216.0
1377.403931 160.0
1377.847778 160.0
1377.922241 156.0
1378.00293 140.0
1378.313232 144.0
1378.416748 136.0
1378.512817 316.0
1378.638428 220.0
1379.118774 164.0
1379.673218 120.0
1379.754639 108.0
1379.932007 60.0
1380.05603 192.0
1380.272217 160.0
1380.782471 92.0
1380.908203 188.0
1381.152222 148.0
1381.389038 152.0
1381.818115 148.0
1381.89209 176.0
1381.958618 124.0
1382.01355 272.0
1382.210205 164.0
1382.462158 180.0
1382.521118 188.0
1382.802368 136.0
1382.859497 144.0
1383.009521 120.0
1383.357422 152.0
1383.587036 208.0
1384.023804 208.0
1384.231201 108.0
1384.475586 212.0
1384.905151 116.0
1385.43103 112.0
1385.564453 152.0
1386.14978 164.0
1386.283203 136.0
1386.484009 192.0
1386.908813 176.0
1387.231934 124.0
1387.426758 144.0
1387.572998 128.0
1387.676758 108.0
1387.906616 164.0
1387.979492 180.0
1388.000977 148.0
1388.032104 140.0
1388.314453 124.0
1388.499878 216.0
1389.041382 132.0
1389.417236 192.0
1389.746216 140.0
1389.953979 152.0
1390.265625 160.0
1390.362183 52.0
1390.503174 140.0
1390.668213 212.0
1390.844604 196.0
1390.918823 276.0
1391.037598 128.0
1391.186035 84.0
1391.520142 124.0
1391.616699 52.0
1391.690918 180.0
1392.2146 208.0
1392.29248 132.0
1392.515259 136.0
1392.693481 76.0
1392.760376 124.0
1392.812378 184.0
1392.923828 196.0
1393.154053 220.0
1393.213501 84.0
1393.428955 92.0
1393.963989 136.0
1394.060547 60.0
1394.209229 96.0
1394.491699 148.0
1394.558594 240.0
1394.78894 208.0
1394.993652 164.0
1395.383667 112.0
1395.595459 160.0
1395.807495 128.0
1395.926514 200.0
1396.253784 156.0
1396.447144 176.0
1396.536377 180.0
1396.930664 160.0
1397.362183 200.0
1397.548096 164.0
1397.890503 124.0
1398.210449 124.0
1398.396484 128.0
1398.813354 216.0
1398.977173 216.0
1399.967529 152.0
1400.041992 156.0
1400.280273 136.0
1400.436646 180.0
1400.503784 148.0
1400.600586 192.0
1401.111694 136.0
1401.375366 140.0
1401.457275 228.0
1401.688354 40.0
1402.098145 240.0
1402.187622 108.0
1403.119385 96.0
1403.186523 124.0
1403.254639 148.0
1403.454956 128.0
1403.715942 200.0
1403.918945 180.0
1404.051514 164.0
1404.156006 124.0
1404.581177 32.0
1404.715454 148.0
1404.775024 108.0
1404.939209 156.0
1405.073486 148.0
1405.289917 88.0
1405.446533 156.0
1405.771973 124.0
1406.103271 224.0
1406.357056 88.0
1406.551147 136.0
1406.678101 228.0
1407.223022 188.0
1407.424683 180.0
1407.491821 164.0
1407.663574 156.0
1407.827881 72.0
1408.050049 152.0
1408.145264 172.0
1408.291016 104.0
1408.515015 156.0
1408.649536 116.0
1409.210449 148.0
1409.291992 68.0
1409.43396 200.0
1409.642334 128.0
1409.695557 176.0
1409.758179 152.0
1409.889893 124.0
1409.957153 144.0
1410.181396 100.0
1410.338379 100.0
1410.495239 136.0
1411.272827 68.0
1411.461792 172.0
1411.930908 184.0
1412.289917 172.0
1412.641479 132.0
1413.150269 128.0
1413.277466 112.0
1413.374756 92.0
1413.448364 176.0
1413.733765 192.0
1413.891113 148.0
1413.980957 152.0
1414.124634 100.0
1414.415283 104.0
1414.497314 312.0
1414.613281 168.0
1414.68457 168.0
1414.849243 136.0
1414.961548 180.0
1415.118774 172.0
1415.373413 128.0
1415.478149 184.0
1415.53064 140.0
1415.660278 208.0
1415.792725 164.0
1416.062378 236.0
1416.157227 160.0
1416.81897 300.0
1417.006226 80.0
1417.305908 200.0
1417.373413 136.0
1417.453735 196.0
1417.748047 136.0
1417.893066 332.0
1418.227783 128.0
1418.355225 64.0
1418.660645 140.0
1419.207886 168.0
1419.34314 180.0
1419.479858 196.0
1419.532349 76.0
1419.584839 240.0
1419.892334 36.0
1420.094849 92.0
1420.3573 80.0
1420.447388 144.0
1420.514893 164.0
1420.972534 164.0
1421.167603 136.0
1421.310181 184.0
1421.512817 220.0
1421.595337 132.0
1421.685425 152.0
1421.865479 148.0
1421.970581 144.0
1422.266846 164.0
1422.345947 120.0
1422.59021 156.0
1422.713745 160.0
1422.788818 164.0
1423.021606 32.0
1423.134155 116.0
1423.249512 156.0
1423.468018 216.0
1423.652344 176.0
1423.952759 160.0
1424.200562 208.0
1424.553711 116.0
1424.658813 152.0
1424.732422 260.0
1424.861694 44.0
1425.184814 120.0
1425.311768 168.0
1425.477905 156.0
1425.583008 132.0
1425.921265 152.0
1426.027588 172.0
1426.462402 144.0
1426.61853 188.0
1426.778198 48.0
1426.875977 148.0
1427.003784 224.0
1427.212646 168.0
1427.342163 164.0
1427.672974 124.0
1427.785889 88.0
1427.861084 200.0
1429.034546 228.0
1429.353394 276.0
1429.498657 188.0
1429.749512 92.0
1429.839722 188.0
1429.974976 136.0
1430.058105 76.0
1430.148315 156.0
1430.342651 124.0
1430.441895 152.0
1430.547363 152.0
1430.780762 124.0
1430.833374 360.0
1431.202393 180.0
1431.518677 232.0
1431.646606 132.0
1431.742554 204.0
1431.895142 216.0
1432.075928 200.0
1432.249268 184.0
1432.384766 152.0
1432.558105 156.0
1432.723755 164.0
1433.027466 132.0
1433.432129 180.0
1433.484863 160.0
1433.612915 88.0
1433.725952 76.0
1433.838989 100.0
1433.952148 128.0
1434.004883 124.0
1434.057617 64.0
1434.208374 160.0
1434.924561 176.0
1434.992432 128.0
1435.31543 176.0
1435.422241 140.0
1435.550415 148.0
1435.640869 132.0
1435.78418 108.0
1435.972778 60.0
1436.048218 48.0
1436.14624 164.0
1436.214111 96.0
1436.281982 92.0
1436.342407 196.0
1436.80249 168.0
1436.878052 168.0
1437.134277 148.0
1437.391113 132.0
1437.677856 296.0
1437.783569 68.0
1437.866577 136.0
1438.183594 232.0
1438.351685 208.0
1438.659058 32.0
1438.764771 104.0
1439.32373 132.0
1439.595459 76.0
1440.068359 304.0
1440.479126 168.0
1440.539551 140.0
1440.618042 212.0
1440.671875 108.0
1441.03772 140.0
1441.204468 204.0
1441.733398 128.0
1441.801392 148.0
1442.039551 184.0
1442.177979 140.0
1442.300293 232.0
1442.5271 60.0
1442.768921 148.0
1443.056274 224.0
1443.33606 284.0
1443.419189 132.0
1443.631958 384.0
1443.796997 148.0
1444.026123 224.0
1444.440308 116.0
1444.758057 164.0
1444.939575 72.0
1445.121216 144.0
1445.204346 172.0
1445.272461 40.0
1445.41626 100.0
1445.876709 120.0
1446.157959 252.0
1446.256348 124.0
1446.415283 188.0
1446.549561 184.0
1446.560913 104.0
1446.952881 156.0
1447.171631 184.0
1447.331421 180.0
1447.467773 148.0
1447.649414 172.0
1447.838745 164.0
1448.119019 200.0
1448.262939 148.0
1448.467407 88.0
1448.573486 88.0
1448.626587 156.0
1448.732666 148.0
1448.785645 156.0
1448.975098 88.0
1449.202393 180.0
1449.308472 28.0
1449.599854 176.0
1449.951904 184.0
1450.157227 136.0
1450.30127 124.0
1450.668701 168.0
1450.768066 124.0
1451.006226 120.0
1451.605225 136.0
1452.007202 124.0
1452.060303 224.0
1452.196899 140.0
1452.25 164.0
1452.621582 28.0
1452.712646 116.0
1452.85083 56.0
1452.91748 148.0
1453.107178 132.0
1453.171265 164.0
1453.433472 100.0
1453.584839 88.0
1453.661133 180.0
1453.752197 204.0
1453.934326 112.0
1454.09375 204.0
1454.488403 120.0
1454.541504 96.0
1454.814819 212.0
1454.913574 148.0
1455.057739 180.0
1455.130249 156.0
1455.202026 132.0
1455.355591 128.0
1455.498169 104.0
1455.660767 120.0
1456.057617 132.0
1456.234863 284.0
1456.477905 112.0
1456.64502 132.0
1456.705811 120.0
1456.90332 196.0
1457.214844 188.0
1457.488403 112.0
1457.594727 72.0
1457.936768 148.0
1458.111572 100.0
1458.225464 152.0
1458.377808 136.0
1458.848877 184.0
1459.008545 124.0
1459.362305 176.0
1459.441895 92.0
1459.741699 136.0
1460.135864 176.0
1460.234863 240.0
1460.552246 192.0
1460.613159 228.0
1460.925049 128.0
1461.214111 136.0
1461.394287 140.0
1461.636108 148.0
1461.76709 172.0
1461.975098 180.0
1462.060303 180.0
1462.249023 164.0
1462.743774 116.0
1462.873169 144.0
1463.033081 116.0
1463.171509 136.0
1463.291992 200.0
1463.764038 144.0
1464.11438 140.0
1464.640503 192.0
1464.792236 68.0
1465.074097 148.0
1465.256958 148.0
1465.317993 148.0
1465.405029 208.0
1465.83606 184.0
1466.050903 232.0
1466.278076 220.0
1466.567749 120.0
1466.765869 60.0
1466.895508 176.0
1467.040405 112.0
1467.253784 140.0
1467.322388 160.0
1467.429199 36.0
1467.52063 192.0
1467.728882 180.0
1468.147583 204.0
1469.015503 216.0
1469.366455 124.0
1469.625854 128.0
1469.862427 220.0
1469.931152 64.0
1470.083008 204.0
1470.138062 172.0
1470.417358 176.0
1470.50354 196.0
1470.595093 164.0
1470.724854 168.0
1470.953857 144.0
1471.078125 208.0
1471.274536 156.0
1471.343628 264.0
1471.51123 144.0
1471.671509 64.0
1472.282471 56.0
1472.763672 200.0
1472.977539 208.0
1473.167236 120.0
1473.267822 180.0
1473.344238 108.0
1473.756836 184.0
1474.230591 88.0
1474.284058 204.0
1474.530151 164.0
1474.727417 156.0
1474.918457 84.0
1475.02002 156.0
1475.101929 156.0
1475.247192 184.0
1475.50708 120.0
1475.805298 196.0
1475.98877 212.0
1476.48584 176.0
1476.554688 92.0
1476.638916 92.0
1476.875977 140.0
1476.967773 252.0
1477.382324 208.0
1477.916382 152.0
1478.069458 132.0
1478.383179 152.0
1478.520996 112.0
1478.5802 164.0
1478.697021 180.0
1478.857788 140.0
1479.370605 124.0
1479.875977 180.0
1479.944824 56.0
1480.05249 160.0
1480.358398 132.0
1480.427246 164.0
1480.496216 156.0
1480.598877 188.0
1480.955811 116.0
1481.070679 236.0
1481.239136 132.0
1481.369385 180.0
1481.423096 180.0
1481.668213 100.0
1481.945801 124.0
1482.31189 132.0
1482.495728 132.0
1482.671997 152.0
1482.779297 172.0
1483.124268 164.0
1483.300537 180.0
1483.429077 212.0
1483.607178 172.0
1483.852539 148.0
1483.921875 180.0
1484.067261 140.0
1484.28186 120.0
1484.688354 208.0
1484.872437 92.0
1485.010498 108.0
1485.263672 176.0
1485.432373 180.0
1485.616455 152.0
1485.785278 152.0
1486.076782 184.0
1486.137329 212.0
1486.307007 112.0
1486.702637 132.0
1486.936279 120.0
1487.166626 124.0
1487.220337 184.0
1487.30481 304.0
1487.38916 228.0
1487.826782 148.0
1488.310547 272.0
1488.410278 192.0
1488.502441 168.0
1488.656006 160.0
1488.778931 156.0
1488.863403 172.0
1488.932495 132.0
1489.101074 128.0
1489.255127 204.0
1489.454834 280.0
1489.546997 152.0
1489.637451 88.0
1489.716064 176.0
1489.805054 168.0
1490.077148 204.0
1490.223145 116.0
1490.346069 120.0
1490.415161 160.0
1490.591919 204.0
1490.722534 32.0
1490.899292 128.0
1491.07605 172.0
1491.607544 192.0
1491.840454 144.0
1491.929321 136.0
1492.013916 180.0
1492.30603 148.0
1492.436768 124.0
1492.744385 116.0
1493.513428 152.0
1493.567383 88.0
1493.728882 88.0
1493.782715 140.0
1493.871094 220.0
1494.075073 68.0
1494.199829 208.0
1494.282837 108.0
1494.467407 108.0
1494.544434 188.0
1494.645752 116.0
1494.729126 308.0
1495.098511 64.0
1495.252441 144.0
1495.329346 112.0
1495.575684 356.0
1495.691162 112.0
1495.875854 180.0
1496.099121 224.0
1496.630371 96.0
1497.14209 176.0
1497.331177 80.0
1497.431274 128.0
1497.73938 168.0
1497.831787 48.0
1497.916626 256.0
1498.386475 172.0
1498.771729 144.0
1498.848877 136.0
1498.948975 144.0
1499.033813 152.0
1499.11084 128.0
1499.172485 84.0
1499.288086 152.0
1499.519287 108.0
1499.727417 168.0
1499.873901 108.0
1500.046509 236.0
1500.227783 168.0
1500.452026 116.0
1500.625 116.0
1500.68335 36.0
1500.829834 88.0
1500.937866 144.0
1500.989136 208.0
1501.115234 148.0
1501.246338 196.0
1501.593384 124.0
1501.658203 200.0
1501.975342 200.0
1502.365356 164.0
1502.491821 200.0
1502.596191 208.0
1502.827637 224.0
1503.005737 156.0
1503.074585 116.0
1503.653442 176.0
1504.217041 172.0
1504.684204 192.0
1504.757324 248.0
1504.818726 160.0
1505.382812 164.0
