>compound EnalaprilatDihydrate
>formula C18H24N2O5 
>ionization [M+H]+
>parentmass 349.175964
#inchi InChI=1S/C18H24N2O5/c1-12(16(21)20-11-5-8-15(20)18(24)25)19-14(17(22)23)10-9-13-6-3-2-4-7-13/h2-4,6-7,12,14-15,19H,5,8-11H2,1H3,(H,22,23)(H,24,25)/t12-,14-,15-/m0/s1
#inchikey LZFZMUMEGBBDTC
#Ion_Source LC-ESI
#Instrument qTof
#Compound_Source Isolated
#PI Sirenas
#Data_Collector Ed Esquenazi 
#Scan -1
#Precursor_MZ 349.177
#ExactMass 0.0
#Charge 1
#CAS_Number N/A
#Pubmed_ID N/A
#Smiles N/A
#INCHI_AUX N/A
#Library_Class 3
#SpectrumID CCMSLIB00000005438
#IonMode Positive
#UpdateWorkflowName UPDATE-SINGLE-ANNOTATED-BRONZE
#LibraryQualityString Bronze
#TaskID d19310cd93df49b68e9fcbec27720eb5
##Scan# 2
#SpectrumFile EnalaprilatDihydrate.mgf
#LibraryName fda_library.mgf
#MQScore -1
#Organism fda_library
#TIC_Query 0
#RT_Query -1
#MZErrorPPM -1
#SharedPeaks 0
#MassDiff 0
#LibMZ -1
#SpecMZ 349.177
#SpecCharge 0
#internalFilename spec-00000.mgf

>collision 10
102.055222 9095.728516
102.098679 70.482986
103.057442 76.147919
116.07058 7315.903809
116.116676 121.653702
117.069862 4061.958008
134.096405 3088.403076
144.078903 190.054092
160.11203 11268.490234
178.121796 1196.641968
188.108231 161.091797
204.88974 79.353371
204.949524 95.38343
204.994797 78.393211
205.086166 99.746109
206.117905 68506.429688
206.53833 90.072968
206.589233 79.009209
206.770187 73.018692
232.133499 343.588501
257.161469 109.120697
301.450897 70.414528
303.170685 13377.589844
349.175964 3818.993896
