>compound MLS001075537-01!
>formula C23H27N3O3
>ionization [M+H]+
>parentmass 394.213
#inchi InChI=1S/C23H27N3O3/c1-16(18-6-3-2-4-7-18)24-21(27)10-11-22(28)25-13-17-12-19(15-25)20-8-5-9-23(29)26(20)14-17/h2-9,16-17,19H,10-15H2,1H3,(H,24,27)/t16-,17+,19+/m0/s1
#inchikey OGDPGNFFCJNYMO
#Ion_Source LC-ESI
#Instrument qTof
#Compound_Source NIH Natural Product Library
#PI Dorrestein
#Data_Collector VVP/LMS
#Scan -1
#Precursor_MZ 394.213
#ExactMass 393.205
#Charge 1
#CAS_Number N/A
#Pubmed_ID N/A
#Smiles C[C@H](NC(=O)CCC(=O)N1C[C@H]2C[C@H](C1)c3cccc(=O)n3C2)c4ccccc4
#INCHI_AUX N/A
#Library_Class 1
#SpectrumID CCMSLIB00000079689
#IonMode Positive
#UpdateWorkflowName UPDATE-SINGLE-ANNOTATED-GOLD
#LibraryQualityString Gold
#TaskID b1d8e8f6646f4e71acdff9ca3d919d08
##Scan# 1653
#SpectrumFile p1-H09_GH9_01_17965.mzXML
#LibraryName NIH_Natural_Products_Library.mgf
#MQScore -1
#Organism NIH_Natural_Products_Library
#TIC_Query 0
#RT_Query -1
#MZErrorPPM -1
#SharedPeaks 0
#MassDiff 0
#LibMZ -1
#SpecMZ 394.213
#SpecCharge 0
#internalFilename spec-00000.mgf

>collision 10
94.963867 120.0
94.998779 180.0
95.045341 140.0
95.060867 184.0
95.1521 164.0
95.260849 156.0
95.813347 120.0
95.836723 236.0
96.042503 160.0
96.105804 172.0
96.183861 172.0
96.227928 144.0
96.363533 156.0
96.412384 188.0
96.46711 40.0
96.48275 152.0
96.504257 156.0
96.521149 188.0
96.807556 40.0
96.82518 148.0
96.958405 164.0
96.976044 164.0
97.009361 176.0
97.382187 152.0
97.452904 176.0
97.500069 128.0
97.553848 144.0
97.726204 168.0
97.781303 240.0
97.799019 204.0
97.850204 112.0
97.895576 156.0
98.059906 528.0
98.163498 172.0
98.250282 144.0
98.281845 228.0
98.323288 68.0
98.479263 120.0
98.520744 172.0
98.621521 244.0
98.6492 172.0
98.727745 204.0
98.769821 192.0
98.963768 120.0
98.981583 136.0
99.035057 180.0
99.102417 112.0
99.134117 176.0
99.181686 216.0
99.219345 232.0
99.336357 96.0
99.362144 104.0
99.417702 184.0
99.486053 92.0
99.530853 164.0
99.671883 136.0
99.813011 140.0
99.876656 260.0
100.013954 160.0
100.038933 2352.0
100.061729 216.0
100.133415 164.0
100.161301 48.0
100.193176 204.0
100.215088 76.0
100.338661 136.0
100.400558 180.0
100.532143 160.0
100.570625 228.0
100.601997 124.0
100.71183 148.0
100.943657 164.0
100.989655 172.0
101.040695 476.0
101.23983 188.0
101.466255 128.0
101.644768 184.0
101.684898 100.0
101.777245 176.0
101.839478 224.0
101.865616 76.0
101.881683 28.0
101.978134 192.0
101.996231 236.0
102.207397 236.0
102.326149 160.0
102.349899 196.0
102.378502 152.0
102.398643 116.0
102.660637 136.0
102.685669 188.0
102.740936 148.0
102.941139 120.0
103.05452 1372.0
103.229622 180.0
103.247131 124.0
103.33934 148.0
103.36879 164.0
103.422318 200.0
103.485069 64.0
103.641029 172.0
103.782921 168.0
104.026375 168.0
104.057602 468.0
104.230347 196.0
104.296539 136.0
104.335571 60.0
104.375832 200.0
104.479187 156.0
104.601662 144.0
104.617943 152.0
104.702255 164.0
104.738091 96.0
104.805321 128.0
104.892952 116.0
104.907219 152.0
104.968391 144.0
105.018242 188.0
105.069817 20280.0
105.09832 280.0
105.139877 312.0
105.164238 108.0
105.182182 136.0
105.200249 156.0
105.226158 72.0
105.243858 52.0
105.294197 92.0
105.325546 60.0
105.421867 56.0
105.448143 60.0
105.501289 48.0
105.60762 56.0
105.625641 168.0
105.715897 104.0
105.763123 176.0
105.783592 120.0
105.824539 44.0
106.01104 84.0
106.072273 1556.0
106.109329 132.0
106.164696 200.0
106.230324 52.0
106.412979 204.0
106.451996 200.0
106.554695 92.0
106.626617 232.0
106.647171 228.0
106.702271 248.0
106.754074 128.0
106.807549 92.0
106.86515 136.0
106.879555 60.0
107.088066 196.0
107.110138 72.0
107.124557 152.0
107.304657 204.0
107.359528 120.0
107.536957 136.0
107.578239 132.0
107.638115 140.0
107.718658 180.0
107.786842 148.0
107.871574 140.0
107.902588 168.0
107.972893 112.0
107.993576 192.0
108.041153 180.0
108.152893 68.0
108.259399 136.0
108.415932 128.0
108.729088 60.0
108.816269 208.0
108.882721 168.0
109.030228 152.0
109.064079 152.0
109.24231 140.0
109.333862 44.0
109.404633 52.0
109.448349 180.0
109.548325 136.0
109.754654 192.0
109.875481 176.0
109.909012 92.0
110.025894 168.0
110.094795 40.0
110.140747 108.0
110.16581 164.0
110.180435 228.0
110.209686 152.0
110.326729 140.0
110.508682 188.0
110.590294 56.0
110.68869 176.0
110.776657 32.0
110.797607 48.0
110.818558 172.0
111.059639 144.0
111.114182 84.0
111.149849 108.0
111.261093 96.0
111.357681 160.0
111.444733 128.0
111.572021 192.0
111.607765 164.0
111.698196 176.0
111.809708 152.0
111.898117 152.0
111.92128 48.0
111.963394 180.0
112.106651 244.0
112.144585 160.0
112.181252 204.0
112.220482 124.0
112.23735 96.0
112.27594 120.0
112.659462 56.0
112.896194 140.0
112.946953 212.0
112.965988 180.0
113.050621 160.0
113.137405 184.0
113.154343 124.0
113.22422 88.0
113.250832 156.0
113.361923 56.0
113.42202 180.0
113.467903 112.0
113.578178 200.0
113.607872 184.0
113.730949 76.0
113.850731 152.0
113.896667 176.0
113.951805 140.0
114.051727 296.0
114.09845 104.0
114.289871 84.0
114.323921 132.0
114.447388 140.0
114.584091 172.0
114.630577 116.0
114.805382 156.0
114.926971 248.0
115.051292 144.0
115.091324 140.0
115.121216 40.0
115.166069 48.0
115.24511 108.0
115.264343 64.0
115.497375 200.0
115.777756 180.0
115.807739 160.0
116.030602 180.0
116.097069 48.0
116.184975 228.0
116.260109 136.0
116.315918 140.0
116.361 156.0
116.384621 180.0
116.4963 140.0
116.574181 64.0
116.631676 164.0
116.673073 172.0
116.724762 180.0
116.777885 160.0
117.018906 116.0
117.059311 372.0
117.089104 180.0
117.337769 116.0
117.38089 224.0
117.417557 64.0
117.436966 144.0
117.510307 132.0
117.553467 152.0
117.659225 136.0
117.678658 96.0
117.717529 136.0
118.009689 152.0
118.064224 208.0
118.11953 152.0
118.180107 112.0
118.197418 140.0
118.2407 144.0
118.318619 168.0
118.357597 140.0
118.392242 208.0
118.521523 112.0
118.595901 212.0
118.717308 160.0
118.797562 172.0
119.053749 128.0
119.101463 172.0
119.201401 196.0
119.251389 120.0
119.360085 84.0
119.399231 240.0
119.52758 200.0
119.57328 160.0
119.595047 64.0
119.642212 168.0
119.75399 152.0
119.891251 200.0
119.974075 164.0
120.042786 156.0
120.083107 120.0
120.172546 56.0
120.351524 204.0
120.482567 212.0
120.768929 52.0
120.965866 152.0
121.035309 200.0
121.141052 44.0
121.156387 196.0
121.171722 72.0
121.213356 204.0
121.331711 192.0
121.360672 192.0
121.428192 152.0
121.467674 140.0
121.485222 140.0
121.543785 156.0
121.689331 160.0
121.717873 184.0
121.757401 132.0
121.840874 96.0
122.029884 168.0
122.058945 184.0
122.342293 36.0
122.670532 140.0
122.950653 136.0
122.988174 152.0
123.105186 208.0
123.186905 172.0
123.255394 148.0
123.306953 160.0
123.403488 108.0
123.564941 108.0
123.587074 148.0
123.611412 204.0
123.77079 144.0
123.817291 88.0
123.883743 124.0
124.087631 160.0
124.216263 376.0
124.376022 140.0
124.404884 172.0
124.475929 156.0
124.529228 168.0
124.626137 296.0
124.782562 156.0
124.842598 160.0
124.867058 148.0
124.929344 200.0
125.094017 232.0
125.149681 172.0
125.191986 168.0
125.213806 216.0
125.217102 172.0
125.249893 232.0
125.39695 184.0
125.479431 116.0
125.501724 200.0
125.526909 164.0
125.584236 148.0
125.608841 132.0
125.631081 232.0
125.651161 168.0
125.907318 132.0
125.927963 140.0
125.980247 236.0
126.032959 132.0
126.058121 108.0
126.219406 184.0
126.442192 128.0
126.460098 132.0
126.567551 188.0
126.740028 120.0
126.790077 168.0
127.004562 116.0
127.023117 104.0
127.142395 184.0
127.161629 224.0
127.269379 172.0
127.298569 116.0
127.417618 232.0
127.437836 148.0
127.469299 148.0
127.532227 108.0
127.565941 32.0
127.811089 120.0
127.991165 108.0
128.068146 652.0
128.166855 164.0
128.199799 188.0
128.374237 160.0
128.403122 124.0
128.446411 112.0
128.626938 144.0
128.742081 120.0
128.807587 196.0
128.911514 172.0
129.006439 140.0
129.070984 160.0
129.137589 168.0
129.361603 84.0
129.445374 128.0
129.524643 148.0
129.739929 56.0
129.95311 136.0
129.980347 272.0
130.067841 116.0
130.098373 140.0
130.264145 220.0
130.290344 172.0
130.316391 184.0
130.42775 68.0
130.495956 104.0
130.734787 192.0
130.807632 144.0
130.887314 128.0
130.923752 120.0
131.022339 140.0
131.042191 52.0
131.197174 156.0
131.235931 144.0
131.26329 136.0
131.290665 56.0
131.557526 188.0
132.041397 356.0
132.062897 228.0
132.081726 728.0
132.106079 176.0
132.174713 120.0
132.199524 224.0
132.254822 256.0
132.273132 128.0
132.504288 200.0
132.605255 148.0
132.660263 184.0
132.730255 144.0
132.841431 156.0
133.053452 260.0
133.238586 92.0
133.277725 116.0
133.321304 128.0
133.351181 172.0
133.41095 28.0
133.659348 192.0
133.760605 200.0
133.887253 196.0
133.972473 120.0
134.057495 612.0
134.078461 164.0
134.205246 180.0
134.255981 72.0
134.312683 212.0
134.362091 76.0
134.385162 140.0
134.421326 172.0
134.553635 52.0
134.598862 184.0
134.719925 152.0
134.805405 120.0
134.964905 148.0
135.05278 260.0
135.07338 124.0
135.369858 208.0
135.407166 176.0
135.504196 148.0
135.858917 128.0
135.988907 176.0
136.032959 168.0
136.072418 64.0
136.23732 212.0
136.344208 176.0
136.495483 156.0
136.530182 156.0
136.569733 176.0
136.651154 152.0
136.681396 108.0
136.719284 172.0
136.739578 108.0
136.769836 160.0
136.979401 132.0
137.039978 180.0
137.137848 80.0
137.33371 128.0
137.443359 60.0
137.473694 172.0
137.536697 156.0
137.702484 152.0
137.749191 152.0
137.847321 68.0
138.076431 252.0
138.148941 20.0
138.361908 184.0
138.490692 176.0
138.532867 136.0
138.55629 136.0
138.701584 176.0
139.022903 76.0
139.090958 168.0
139.107391 168.0
139.224792 100.0
139.311707 280.0
139.32814 124.0
139.391586 160.0
139.546722 196.0
139.650192 180.0
139.786636 168.0
139.805466 136.0
139.844803 168.0
140.182251 36.0
140.210541 180.0
140.227036 128.0
140.432159 224.0
140.51236 52.0
140.552475 232.0
140.583145 148.0
140.618546 140.0
140.939713 212.0
141.062622 72.0
141.128387 132.0
141.346085 84.0
141.445206 196.0
141.635254 136.0
141.711182 88.0
141.739502 184.0
141.822449 224.0
141.846146 80.0
141.924393 176.0
141.974182 100.0
142.066788 316.0
142.182953 164.0
142.444138 196.0
142.508286 120.0
142.722198 128.0
142.830597 200.0
142.893448 64.0
142.919632 192.0
142.93866 156.0
143.071228 328.0
143.098145 208.0
143.374832 124.0
143.465027 168.0
143.56279 180.0
143.958939 120.0
143.997147 132.0
144.08194 184.0
144.3078 148.0
144.365189 40.0
144.45369 152.0
144.611603 212.0
144.645126 56.0
144.676239 104.0
144.767609 152.0
145.050217 180.0
145.066727 284.0
145.244171 128.0
145.287354 92.0
145.34494 72.0
145.416931 140.0
145.500946 96.0
145.740021 160.0
145.806015 84.0
145.877747 180.0
146.022385 168.0
146.058578 1680.0
146.092148 76.0
146.118607 200.0
146.514084 136.0
146.682129 100.0
146.708649 180.0
146.959473 152.0
147.061691 280.0
147.101868 172.0
147.239487 104.0
147.304703 160.0
147.427933 124.0
147.473846 88.0
147.522186 88.0
147.643097 144.0
147.805161 240.0
147.870514 124.0
147.911652 148.0
148.019257 180.0
148.075409 9336.0
148.107788 48.0
148.13443 48.0
148.190155 72.0
148.238617 120.0
148.261368 152.0
148.325867 152.0
148.347687 72.0
148.415573 80.0
148.583755 156.0
148.609619 132.0
148.721252 92.0
148.743088 252.0
148.80864 40.0
149.027237 192.0
149.077957 1268.0
149.177917 84.0
149.309219 176.0
149.744858 76.0
149.788712 220.0
150.083603 176.0
150.478867 72.0
150.559448 48.0
150.732895 40.0
150.793396 116.0
150.859985 144.0
150.88443 56.0
150.99202 92.0
151.021378 156.0
151.062958 84.0
151.192642 92.0
151.305237 84.0
151.351761 184.0
151.378693 172.0
151.498703 180.0
151.591476 148.0
151.65799 192.0
151.876205 136.0
152.02832 144.0
152.060104 164.0
152.067398 156.0
152.089676 232.0
152.654755 140.0
152.69165 136.0
152.716248 172.0
152.770355 176.0
152.83432 120.0
153.078018 176.0
153.193771 148.0
153.214249 128.0
153.551193 144.0
153.632584 80.0
153.9263 120.0
153.995453 132.0
154.039902 180.0
154.242538 128.0
154.284561 64.0
154.32164 164.0
154.452713 128.0
154.472504 80.0
154.603638 48.0
154.640762 104.0
154.737305 176.0
155.049423 144.0
155.088943 156.0
155.111389 144.0
155.31778 136.0
155.406509 224.0
155.657211 184.0
156.012497 72.0
156.075684 328.0
156.111954 112.0
156.293549 136.0
156.639603 164.0
156.74176 144.0
157.133209 164.0
157.230804 144.0
157.319229 128.0
157.352554 168.0
157.42276 180.0
157.622604 80.0
157.65509 80.0
157.740067 116.0
157.842575 108.0
157.865082 184.0
157.9151 156.0
158.037674 116.0
158.05983 324.0
158.090225 184.0
158.11525 144.0
158.24292 156.0
158.282974 136.0
158.538498 76.0
158.621201 72.0
158.716476 220.0
158.776657 144.0
158.92215 120.0
158.962296 176.0
159.022537 276.0
159.068741 312.0
159.173157 116.0
159.233429 136.0
159.359039 136.0
159.379135 108.0
159.406784 144.0
159.452011 124.0
159.493088 152.0
159.572678 152.0
159.635529 140.0
159.683319 132.0
159.703568 152.0
159.728592 148.0
159.851562 140.0
159.952545 128.0
160.019012 180.0
160.075272 10648.0
160.101547 176.0
160.163223 48.0
160.185928 100.0
160.205215 212.0
160.282471 104.0
160.35051 224.0
160.400925 76.0
160.47908 48.0
160.499252 64.0
160.579941 128.0
160.673279 72.0
160.759064 208.0
160.807022 92.0
160.824692 108.0
161.009064 148.0
161.077484 924.0
161.122665 56.0
161.17067 40.0
161.246475 172.0
161.28186 292.0
161.373184 140.0
161.408279 84.0
161.440582 180.0
161.623276 128.0
161.666306 140.0
161.75235 152.0
161.838425 184.0
162.091476 1064.0
162.297043 212.0
162.439072 156.0
162.535477 184.0
162.644608 124.0
162.799484 188.0
162.829956 124.0
162.880753 152.0
163.043777 104.0
163.081497 168.0
163.102173 176.0
163.384094 160.0
163.418213 196.0
163.5215 120.0
163.613144 44.0
163.684433 224.0
163.740463 148.0
163.943634 80.0
164.03093 264.0
164.074615 172.0
164.227264 80.0
164.268082 160.0
164.306351 32.0
164.329315 140.0
164.51561 144.0
164.643021 192.0
164.760788 48.0
164.874557 216.0
164.960281 180.0
165.072617 168.0
165.128876 144.0
165.18515 204.0
165.300278 104.0
165.32843 76.0
165.407776 232.0
165.438492 188.0
165.666412 124.0
165.692032 88.0
165.961151 184.0
166.179169 144.0
166.366516 136.0
166.47435 120.0
166.658325 272.0
166.710693 252.0
166.74411 132.0
166.769806 104.0
166.823792 164.0
166.906067 364.0
167.050079 144.0
167.111832 156.0
167.469666 112.0
167.603622 80.0
167.722168 152.0
167.967133 160.0
168.083237 48.0
168.20195 172.0
168.426605 176.0
168.529938 148.0
168.622971 248.0
168.664322 96.0
168.734116 160.0
168.912567 168.0
169.070389 44.0
169.109207 136.0
169.179108 144.0
169.386261 192.0
169.603928 212.0
169.762085 164.0
169.806168 128.0
170.091934 212.0
170.190231 48.0
170.249969 124.0
170.30191 128.0
170.398026 116.0
170.431061 140.0
170.480347 188.0
170.590332 156.0
170.820663 156.0
170.918045 100.0
170.971176 48.0
171.001312 40.0
171.252457 176.0
171.330933 220.0
171.759537 196.0
171.845627 116.0
171.918686 112.0
172.080734 548.0
172.135361 132.0
172.341721 80.0
172.558655 192.0
172.587418 152.0
172.736496 180.0
172.791428 148.0
172.830673 172.0
173.037445 84.0
173.074799 196.0
173.102432 156.0
173.176239 216.0
173.231247 220.0
173.410187 208.0
173.464462 144.0
173.708344 184.0
174.090744 2248.0
174.141449 124.0
174.230759 208.0
174.262283 52.0
174.306946 40.0
174.359512 100.0
174.398941 196.0
174.493576 172.0
174.511978 72.0
174.554047 72.0
174.588226 128.0
174.622421 192.0
174.656616 80.0
175.055984 172.0
175.062836 128.0
175.092407 280.0
175.209427 132.0
175.309555 172.0
175.356964 172.0
175.386887 140.0
175.422897 160.0
175.541534 164.0
175.565277 176.0
175.589005 40.0
175.607468 60.0
175.63649 200.0
175.80957 188.0
175.942596 204.0
176.013885 236.0
176.071976 168.0
176.124802 52.0
176.172348 144.0
176.43663 128.0
176.682587 152.0
176.746078 156.0
177.037262 168.0
177.171112 156.0
177.241241 144.0
177.29689 128.0
177.487747 96.0
177.577911 156.0
177.647232 92.0
177.694641 136.0
177.768936 76.0
177.867126 156.0
177.901642 148.0
177.954742 160.0
177.999878 192.0
178.037064 152.0
178.148621 140.0
178.175186 96.0
178.212372 128.0
178.270844 156.0
178.407776 184.0
178.504776 128.0
179.114594 184.0
179.196823 72.0
179.412704 160.0
179.564697 40.0
179.650055 252.0
179.858185 168.0
179.900909 112.0
179.922256 192.0
179.9543 240.0
180.285522 132.0
180.427185 144.0
180.456604 176.0
180.547516 132.0
180.691956 56.0
180.713364 124.0
180.817734 212.0
180.898026 108.0
180.972992 184.0
181.243515 172.0
181.315872 84.0
181.429062 192.0
181.614212 176.0
181.683228 64.0
181.72226 212.0
181.837387 212.0
182.050949 124.0
182.142532 208.0
182.160629 120.0
182.653 156.0
182.671829 176.0
182.733704 32.0
182.771362 116.0
183.059402 144.0
183.083633 196.0
183.14827 152.0
183.221008 180.0
183.393463 72.0
183.574097 184.0
183.655014 44.0
183.679291 144.0
183.708954 108.0
183.903244 208.0
184.070633 336.0
184.184052 132.0
184.214417 168.0
184.297531 48.0
184.545181 64.0
184.616501 80.0
184.78421 172.0
185.079224 100.0
185.110001 132.0
185.176712 124.0
185.218033 188.0
185.317581 100.0
185.495667 192.0
185.830017 120.0
185.916855 140.0
185.998276 192.0
186.088715 128.0
186.207352 148.0
186.427414 108.0
186.601379 204.0
186.636719 60.0
186.734619 128.0
186.876068 168.0
186.944107 108.0
187.012146 84.0
187.178207 192.0
187.28714 176.0
187.377045 40.0
187.573257 148.0
187.671402 164.0
187.750488 192.0
187.858032 148.0
187.903229 112.0
187.935974 124.0
188.050598 212.0
188.096329 172.0
188.178894 108.0
188.441101 124.0
188.572266 48.0
188.683029 208.0
188.881241 132.0
189.067291 136.0
189.101807 4820.0
189.19046 60.0
189.234268 60.0
189.313675 152.0
189.360229 188.0
189.415009 144.0
189.446899 144.0
189.467056 56.0
189.664368 200.0
189.708221 76.0
189.763336 200.0
189.949539 124.0
190.001663 88.0
190.053787 36.0
190.103958 628.0
190.169052 28.0
190.240417 180.0
190.278854 148.0
190.311798 104.0
190.333771 156.0
190.377701 100.0
190.440872 120.0
190.473831 112.0
190.498566 100.0
190.635941 76.0
190.674408 120.0
190.712891 180.0
190.732132 204.0
190.776108 128.0
190.88855 152.0
190.916275 164.0
190.925034 212.0
190.954514 172.0
190.996231 168.0
191.04422 204.0
191.067551 164.0
191.117264 36324.0
191.165527 152.0
191.192154 112.0
191.23851 120.0
191.288452 120.0
191.307938 204.0
191.374542 140.0
191.393738 140.0
191.414429 96.0
191.447769 112.0
191.520554 64.0
191.569458 28.0
191.676117 84.0
191.74501 92.0
191.773697 76.0
191.835983 72.0
191.85527 60.0
191.910416 76.0
191.970215 256.0
191.997635 152.0
192.035492 112.0
192.119736 4340.0
192.151321 128.0
192.227631 60.0
192.260742 68.0
192.331848 84.0
192.354584 60.0
192.379425 72.0
192.40152 116.0
192.427551 112.0
192.470963 80.0
192.575485 76.0
192.661118 108.0
192.71637 64.0
192.766113 88.0
192.824142 112.0
192.905914 148.0
192.984482 88.0
193.029922 212.0
193.089554 144.0
193.119949 468.0
193.180481 132.0
193.272141 112.0
193.294281 136.0
193.316406 196.0
193.368988 124.0
193.435425 236.0
193.479721 236.0
193.535095 44.0
193.58493 124.0
193.604324 252.0
193.634781 132.0
193.662476 88.0
193.742126 128.0
193.767746 144.0
193.817627 52.0
194.04213 32.0
194.092041 116.0
194.129318 104.0
194.574814 60.0
194.608139 132.0
194.638672 92.0
194.660889 116.0
194.721985 68.0
195.040192 92.0
195.074875 224.0
195.167847 136.0
195.238922 96.0
195.358521 144.0
195.436417 64.0
195.589493 152.0
195.719772 100.0
195.770462 68.0
195.954712 192.0
196.014526 152.0
196.051819 136.0
196.074127 172.0
196.537033 220.0
196.609589 180.0
196.763107 204.0
196.930664 68.0
197.014465 188.0
197.282745 96.0
197.528824 168.0
197.60437 224.0
197.657532 248.0
197.679916 132.0
198.049469 76.0
198.091568 136.0
198.335266 72.0
198.450211 204.0
199.000137 40.0
199.359695 144.0
199.604248 324.0
199.739258 72.0
199.784256 160.0
200.000946 148.0
200.064377 164.0
200.093842 40.0
200.20929 152.0
200.524826 56.0
201.063507 28.0
201.096039 160.0
201.122772 44.0
201.170761 224.0
201.196167 204.0
201.241348 132.0
201.28653 124.0
201.707489 48.0
201.800781 148.0
201.829056 156.0
201.950668 60.0
201.990265 208.0
202.0327 36.0
202.083435 784.0
202.196808 224.0
202.352493 156.0
202.462936 188.0
202.528076 116.0
202.579071 124.0
202.819931 104.0
202.947495 168.0
202.99147 228.0
203.086456 272.0
203.117554 516.0
203.523499 128.0
203.622894 32.0
203.895081 184.0
204.100815 872.0
204.160156 184.0
204.512817 124.0
204.863068 44.0
205.091034 88.0
205.142334 232.0
205.202209 100.0
205.330536 112.0
205.456039 116.0
205.553299 88.0
205.764267 116.0
205.889908 104.0
206.024155 188.0
206.061295 140.0
206.124161 212.0
206.160721 156.0
206.221313 36.0
206.24704 124.0
206.295639 108.0
206.358536 152.0
206.518677 120.0
206.541565 156.0
206.57016 60.0
206.718948 104.0
206.879227 116.0
206.933624 204.0
206.96225 104.0
206.999481 104.0
207.028122 172.0
207.477982 160.0
207.629944 128.0
207.655762 56.0
207.675842 144.0
207.710251 148.0
207.730331 116.0
207.799194 176.0
207.97998 144.0
208.13887 232.0
208.357941 260.0
208.450989 184.0
208.514206 120.0
208.568817 208.0
208.683807 200.0
208.893753 172.0
208.968552 172.0
209.354279 164.0
209.420517 88.0
209.561676 148.0
209.668289 216.0
209.73497 176.0
209.910446 248.0
210.03447 132.0
210.138321 160.0
210.268173 80.0
210.29126 132.0
210.331665 160.0
210.418274 160.0
210.499115 224.0
210.594421 96.0
211.02211 164.0
211.103073 188.0
211.244797 208.0
211.372101 184.0
211.52298 152.0
211.719482 56.0
211.82666 196.0
211.873001 208.0
212.067154 232.0
212.197601 124.0
212.313599 76.0
212.418015 108.0
212.577591 108.0
212.815613 104.0
213.027618 116.0
213.082809 208.0
213.164169 120.0
213.207764 172.0
213.472305 136.0
213.536285 160.0
213.94075 192.0
214.086334 208.0
214.170807 168.0
214.480057 128.0
214.590439 56.0
214.61377 224.0
214.861679 164.0
214.957962 108.0
215.108856 472.0
215.14476 144.0
215.179794 112.0
215.401749 116.0
215.571213 212.0
215.635498 68.0
215.843063 136.0
215.966217 220.0
216.105392 344.0
216.185318 208.0
216.317032 196.0
216.478058 128.0
216.63623 132.0
216.693115 224.0
216.806168 124.0
217.092941 1032.0
217.136536 116.0
217.46019 236.0
217.513016 160.0
217.703857 192.0
217.750854 172.0
218.004425 64.0
218.0952 160.0
218.19162 128.0
218.229843 124.0
218.338654 136.0
218.741745 208.0
218.794739 120.0
218.924301 144.0
218.9832 160.0
219.254242 140.0
219.351517 108.0
219.428162 92.0
219.516617 140.0
219.678833 132.0
219.785049 136.0
219.938507 176.0
220.195389 148.0
220.232193 204.0
220.286957 204.0
220.307632 40.0
220.484924 92.0
220.507721 168.0
220.555862 88.0
220.62384 68.0
220.813095 212.0
220.872238 116.0
220.993546 84.0
221.206619 44.0
221.430222 140.0
221.71904 108.0
221.932465 140.0
222.143036 96.0
222.252808 52.0
222.338867 144.0
222.831802 112.0
222.864471 136.0
222.917969 128.0
223.131973 60.0
223.316345 236.0
223.352036 200.0
223.429382 156.0
223.491867 72.0
223.643097 112.0
223.762711 120.0
223.822266 56.0
224.075439 112.0
224.155884 168.0
224.322784 132.0
224.564316 208.0
224.626953 220.0
224.910431 132.0
225.220963 156.0
225.322525 88.0
225.941391 116.0
225.977295 132.0
226.025177 104.0
226.183792 100.0
226.222702 144.0
226.261627 76.0
226.372406 128.0
226.755875 100.0
226.911758 188.0
227.039413 192.0
227.116348 1352.0
227.427734 132.0
227.448746 236.0
227.535797 136.0
227.604858 136.0
227.664917 52.0
227.737 136.0
227.926254 132.0
228.118805 312.0
228.193771 160.0
228.335098 112.0
229.024338 188.0
229.102661 32.0
229.135803 104.0
229.171967 212.0
229.287888 196.0
229.65593 52.0
229.85643 168.0
229.877548 48.0
230.079025 504.0
230.131104 140.0
230.508682 128.0
230.810959 120.0
230.980331 144.0
231.077133 304.0
231.110947 184.0
231.385834 236.0
231.486908 296.0
231.531189 200.0
231.564499 112.0
231.60994 48.0
231.931122 128.0
232.073608 80.0
232.099442 108.0
232.167603 172.0
232.207031 100.0
232.419388 132.0
232.5681 176.0
232.808212 184.0
232.935516 64.0
233.172501 148.0
233.315369 156.0
233.400513 92.0
233.513031 160.0
233.539902 148.0
233.662079 160.0
233.759445 112.0
233.923798 48.0
234.301422 148.0
234.712891 52.0
234.761688 112.0
234.828781 200.0
234.868423 196.0
234.935547 200.0
234.956894 136.0
234.981308 136.0
235.09726 276.0
235.234604 88.0
235.381149 168.0
235.414749 236.0
235.546082 232.0
235.677444 140.0
235.763 180.0
235.793564 156.0
236.095779 212.0
236.151291 204.0
236.325653 140.0
236.37767 212.0
236.463364 216.0
236.662338 156.0
236.849152 136.0
236.934937 200.0
237.023788 156.0
237.115723 188.0
237.170883 112.0
237.198471 252.0
237.23526 144.0
237.32724 140.0
237.425369 164.0
237.560333 132.0
237.923065 80.0
238.01445 216.0
238.115906 160.0
238.21727 176.0
238.287918 92.0
238.662903 136.0
238.733627 236.0
239.241318 124.0
239.269028 76.0
239.339844 80.0
239.450699 208.0
239.558502 196.0
239.78653 144.0
239.875916 148.0
239.92215 120.0
240.119492 128.0
240.205856 168.0
240.243835 156.0
240.363205 128.0
240.40332 148.0
240.50209 140.0
240.696579 140.0
240.835556 132.0
240.922058 164.0
240.980759 80.0
241.00856 132.0
241.045578 180.0
241.246536 148.0
241.459885 116.0
241.537216 160.0
241.636215 140.0
241.874496 60.0
241.970474 160.0
242.178284 144.0
242.329742 104.0
242.354523 52.0
242.442825 152.0
242.543579 84.0
242.577667 160.0
242.624176 72.0
242.828827 176.0
242.856735 92.0
242.897064 192.0
242.968414 92.0
243.145279 136.0
243.185638 104.0
243.343948 92.0
243.384323 132.0
243.465057 48.0
243.545807 100.0
243.685608 172.0
243.719772 100.0
243.777451 236.0
243.887604 128.0
243.968414 252.0
243.996399 180.0
244.027496 68.0
244.070724 160.0
244.130722 160.0
244.204742 168.0
244.226074 84.0
244.260727 156.0
244.344727 44.0
244.382065 156.0
244.495178 172.0
244.614975 172.0
244.646606 120.0
244.68396 140.0
244.729599 84.0
244.76239 252.0
244.789825 108.0
244.829147 164.0
244.880234 212.0
244.922287 136.0
244.957443 324.0
245.003052 272.0
245.030136 416.0
245.059235 916.0
245.128571 109568.0
245.218964 252.0
245.256409 84.0
245.296783 60.0
245.317856 76.0
245.354904 112.0
245.381256 72.0
245.421341 280.0
245.450439 56.0
245.492279 212.0
245.525284 32.0
245.566208 84.0
245.597977 92.0
245.642029 612.0
245.672165 92.0
245.683838 140.0
245.729126 244.0
245.765625 88.0
245.803146 180.0
245.875397 72.0
245.905594 156.0
245.94426 48.0
245.982391 56.0
246.048676 200.0
246.077026 108.0
246.13147 18540.0
246.194565 88.0
246.227661 236.0
246.271225 236.0
246.36676 48.0
246.413849 136.0
246.468033 124.0
246.49408 36.0
246.523895 196.0
246.562531 100.0
246.616241 132.0
246.621994 136.0
246.655548 104.0
246.700699 100.0
246.734848 120.0
246.79425 132.0
246.832718 72.0
246.853226 88.0
246.882355 52.0
246.93071 104.0
246.996384 44.0
247.028793 228.0
247.132263 984.0
247.175583 160.0
247.206009 40.0
247.237305 80.0
247.265228 52.0
247.270432 48.0
247.286987 32.0
247.315552 44.0
247.387543 48.0
247.472076 40.0
247.512787 68.0
247.534698 48.0
247.589615 176.0
247.625519 144.0
247.666245 200.0
247.694427 208.0
247.730682 64.0
247.768723 84.0
247.804703 20.0
247.838547 72.0
247.869873 168.0
247.898895 124.0
247.929352 140.0
247.949371 120.0
247.965103 52.0
248.001511 104.0
248.027985 104.0
248.073593 108.0
248.146454 168.0
248.170792 60.0
248.192734 40.0
248.268005 68.0
248.327591 64.0
248.352676 100.0
248.476181 76.0
248.550323 56.0
248.596344 144.0
248.682129 80.0
248.707245 144.0
248.738632 104.0
248.826538 112.0
248.870483 80.0
248.942703 60.0
248.967331 76.0
248.99295 168.0
249.30397 40.0
249.486282 124.0
249.510376 84.0
249.615189 84.0
249.693817 60.0
249.772446 116.0
249.841644 116.0
249.873108 84.0
249.986389 164.0
250.058777 60.0
250.187836 92.0
250.792648 120.0
250.83046 204.0
251.054321 52.0
251.215179 104.0
251.726486 144.0
251.833862 136.0
251.99498 124.0
252.130859 40.0
252.16246 280.0
252.311035 220.0
252.700043 68.0
252.92157 80.0
253.415604 204.0
253.536011 224.0
253.608902 164.0
253.710342 104.0
253.828842 96.0
254.605148 152.0
254.700424 108.0
254.900574 52.0
255.112473 1020.0
255.167572 160.0
255.361557 152.0
255.606506 68.0
255.838852 96.0
255.922897 152.0
256.052185 84.0
256.115021 336.0
256.187683 172.0
256.211456 212.0
256.236938 60.0
256.412201 56.0
256.804382 148.0
256.957489 168.0
257.110657 148.0
257.583191 164.0
257.720581 92.0
257.884644 200.0
258.337616 216.0
258.372803 80.0
258.430389 132.0
258.558411 160.0
258.613708 128.0
258.904175 112.0
259.077118 120.0
259.378357 104.0
259.962769 184.0
260.196381 124.0
260.482208 144.0
260.745667 216.0
260.957855 228.0
261.179749 124.0
261.211914 124.0
261.324493 172.0
261.5047 268.0
262.09726 140.0
262.435699 284.0
262.603394 88.0
262.86795 132.0
262.903442 92.0
263.148773 280.0
263.355438 188.0
263.420044 112.0
263.691467 120.0
264.505585 160.0
264.955078 136.0
265.089539 108.0
265.300201 144.0
265.559631 140.0
265.747772 136.0
265.793213 104.0
265.858093 44.0
266.085327 84.0
267.873962 120.0
268.353058 168.0
268.486725 148.0
268.58786 68.0
268.842346 180.0
268.873779 164.0
268.917389 156.0
269.031647 116.0
269.090424 116.0
269.214508 144.0
269.247162 148.0
269.345123 128.0
269.56604 288.0
269.678406 196.0
269.871307 60.0
270.149292 184.0
270.234344 132.0
270.298615 180.0
270.453613 72.0
270.581268 136.0
270.784302 132.0
270.971008 32.0
271.079132 156.0
271.133209 148.0
271.254883 244.0
271.377441 144.0
271.459412 300.0
271.561279 60.0
271.596954 124.0
271.624359 180.0
271.654419 148.0
271.879303 104.0
271.918701 152.0
272.029358 124.0
272.062469 160.0
272.139252 1484.0
272.171478 116.0
272.204315 192.0
272.256866 92.0
272.308624 256.0
272.352112 168.0
272.393768 176.0
272.459686 136.0
272.499786 216.0
272.559082 140.0
272.603668 212.0
272.655457 72.0
272.689911 192.0
272.746155 160.0
272.806854 284.0
272.835175 144.0
272.900909 120.0
272.941254 280.0
272.964081 188.0
273.012665 208.0
273.024475 196.0
273.034637 176.0
273.07431 644.0
273.123505 120724.0
273.254761 84.0
273.288696 112.0
273.311127 112.0
273.343414 40.0
273.369659 128.0
273.417938 184.0
273.455719 204.0
273.483398 68.0
273.514771 100.0
273.55191 64.0
273.583954 144.0
273.633789 72.0
273.666534 284.0
273.711853 156.0
273.737976 112.0
273.763733 76.0
273.849548 100.0
273.859863 132.0
273.889618 252.0
273.964508 92.0
274.011963 204.0
274.043579 196.0
274.056854 264.0
274.125763 19964.0
274.205933 292.0
274.242676 172.0
274.290192 116.0
274.323364 68.0
274.377228 100.0
274.418976 68.0
274.442352 108.0
274.520905 140.0
274.59024 88.0
274.624268 76.0
274.661316 52.0
274.748901 84.0
274.819366 116.0
274.87915 84.0
274.926178 116.0
274.961334 80.0
275.005981 92.0
275.042267 136.0
275.130493 1728.0
275.171936 348.0
275.335297 96.0
275.365845 76.0
275.488068 40.0
275.514496 80.0
275.542114 56.0
275.572021 192.0
275.597107 44.0
275.659302 140.0
275.77124 132.0
275.822418 156.0
275.83725 84.0
275.847107 68.0
275.870026 164.0
275.934235 208.0
275.960541 100.0
276.01889 128.0
276.072968 184.0
276.12439 180.0
276.19223 120.0
276.230804 100.0
276.24411 68.0
276.258331 80.0
276.300171 80.0
276.357574 56.0
276.44693 88.0
276.476715 80.0
276.513123 104.0
276.557465 148.0
276.656464 128.0
276.688538 64.0
276.751465 132.0
276.783936 124.0
276.877289 60.0
276.903778 56.0
276.933594 44.0
276.966705 104.0
276.996521 88.0
277.115784 156.0
277.148926 52.0
277.206543 104.0
277.291412 124.0
277.347778 68.0
277.453857 88.0
277.53009 88.0
277.712494 44.0
277.782166 68.0
277.934784 68.0
278.179749 108.0
278.23349 76.0
278.269989 96.0
278.409454 28.0
278.555603 80.0
278.685181 36.0
279.70282 92.0
279.995819 76.0
280.688995 112.0
282.107971 56.0
283.285919 144.0
284.321991 100.0
284.352203 44.0
284.44281 68.0
284.993591 92.0
285.554993 56.0
285.804932 68.0
286.302124 136.0
286.433502 76.0
286.905273 128.0
287.421326 96.0
287.512421 88.0
287.603546 84.0
289.808502 72.0
290.149689 1156.0
290.357666 32.0
290.540833 80.0
290.880188 124.0
291.167175 236.0
291.542511 124.0
291.896057 120.0
292.208984 100.0
292.30426 80.0
292.358704 40.0
293.162384 144.0
293.390747 128.0
297.489136 36.0
299.218384 108.0
303.991852 20.0
306.847565 144.0
307.440552 92.0
308.107483 48.0
308.750641 44.0
309.497223 92.0
311.161438 156.0
313.722626 52.0
319.648193 88.0
319.737152 56.0
322.294006 84.0
324.502411 44.0
325.313202 68.0
326.04953 96.0
326.229248 92.0
331.01712 60.0
331.770752 128.0
333.709473 72.0
333.844025 52.0
334.131378 148.0
335.752319 44.0
337.05191 120.0
337.955048 80.0
338.683563 48.0
338.76416 108.0
346.723083 116.0
348.429993 76.0
349.185425 160.0
351.457001 84.0
351.688385 44.0
351.785431 68.0
353.830353 76.0
354.193604 68.0
355.359497 96.0
356.264313 136.0
360.027161 96.0
367.65799 88.0
369.209045 108.0
369.235809 108.0
370.311279 52.0
370.755707 92.0
371.564789 76.0
373.385529 108.0
374.351501 28.0
377.176208 500.0
377.910461 56.0
380.480072 72.0
385.911255 48.0
386.689728 112.0
387.53949 104.0
389.096558 72.0
389.520691 116.0
390.617432 76.0
394.207642 160.0
395.21756 176.0
395.973663 124.0
396.782043 84.0
397.202393 112.0
397.244293 200.0
400.760529 44.0
401.900909 36.0
403.446533 60.0
410.75528 64.0
412.338043 72.0
413.013275 80.0
418.817719 124.0
426.913269 104.0
427.373993 44.0
429.231689 112.0
429.834869 124.0
432.114746 68.0
436.444946 88.0
443.705719 60.0
445.531342 80.0
447.672241 132.0
448.978668 104.0
453.138123 124.0
453.498322 96.0
458.500732 36.0
459.370575 80.0
464.08786 64.0
465.151794 48.0
468.993011 80.0
470.248138 128.0
470.498505 92.0
473.053436 96.0
476.362152 52.0
478.105713 64.0
478.667267 104.0
486.015228 68.0
489.470184 76.0
499.859467 40.0
507.529114 92.0
508.673157 60.0
509.292816 56.0
509.566833 128.0
519.13623 40.0
528.483521 132.0
533.689453 48.0
535.774414 100.0
536.820679 68.0
540.817017 32.0
541.076233 96.0
555.640808 84.0
556.081909 104.0
558.101929 176.0
560.257507 108.0
561.332153 72.0
563.886169 52.0
578.484375 72.0
581.096313 36.0
588.47467 44.0
593.346741 108.0
593.938354 152.0
597.460266 112.0
598.346008 124.0
598.682007 100.0
598.779419 28.0
601.54895 112.0
606.053284 116.0
613.016174 116.0
618.250854 52.0
622.673157 148.0
629.985352 48.0
630.095276 56.0
630.240173 132.0
641.734375 84.0
647.160889 56.0
648.38678 60.0
648.858215 88.0
672.96228 84.0
679.027161 84.0
721.184387 52.0
724.619934 88.0
746.927124 132.0
749.932739 92.0
754.818848 76.0
761.565247 44.0
762.87854 40.0
775.613586 212.0
785.215942 84.0
792.662354 32.0
810.230713 196.0
821.492676 48.0
824.050354 176.0
870.08667 88.0
870.292175 96.0
883.683594 124.0
889.693176 112.0
900.865295 68.0
902.2099 88.0
916.831787 56.0
917.090942 124.0
918.067688 152.0
932.184875 104.0
935.13446 208.0
955.347351 204.0
957.395569 92.0
957.512573 92.0
962.711487 132.0
980.597778 228.0
981.183716 132.0
983.011292 72.0
984.147339 96.0
984.821777 172.0
996.492493 192.0
999.189697 52.0
1007.871704 96.0
1011.641174 164.0
1012.844299 76.0
1014.865967 188.0
1016.807129 120.0
1020.745789 60.0
1026.444946 108.0
1027.044434 168.0
1029.137695 156.0
1032.447754 164.0
1034.424805 160.0
1036.089844 144.0
1039.674194 136.0
1040.161987 180.0
1047.743896 44.0
1048.001587 152.0
1054.894287 200.0
1055.159302 52.0
1059.450195 60.0
1061.018433 72.0
1062.049561 60.0
1065.983887 152.0
1070.15332 232.0
1071.442871 64.0
1072.64856 160.0
1075.799316 148.0
1078.94812 88.0
1079.484375 60.0
1080.602783 104.0
1086.040039 152.0
1086.427124 196.0
1092.839355 236.0
1095.940674 120.0
1096.975342 48.0
1097.067627 172.0
1099.112183 184.0
1105.058838 140.0
1110.013428 156.0
1113.60376 152.0
1115.876465 164.0
1117.918457 224.0
1118.377686 180.0
1120.568604 124.0
1121.601562 160.0
1121.828247 60.0
1126.239014 188.0
1126.619751 208.0
1127.080811 56.0
1128.497803 156.0
1128.898926 176.0
1132.231689 152.0
1133.605103 128.0
1143.638794 176.0
1143.800293 140.0
1144.958374 124.0
1146.939331 152.0
1147.316772 188.0
1148.004517 164.0
1149.292969 120.0
1150.305298 132.0
1150.622559 120.0
1150.966919 108.0
1153.966919 32.0
1154.83252 144.0
1157.289062 160.0
1158.013672 196.0
1162.359131 104.0
1163.621704 240.0
1170.026001 144.0
1175.383301 148.0
1175.43103 176.0
1180.007324 140.0
1182.579468 72.0
1187.93103 144.0
1190.923828 148.0
1194.897217 40.0
1195.255005 136.0
1197.898804 120.0
1198.835815 100.0
1200.338623 228.0
1201.407715 152.0
1204.396729 200.0
1204.845703 152.0
1205.12207 208.0
1208.191772 76.0
1208.260986 172.0
1208.454712 160.0
1209.991211 192.0
1210.524292 148.0
1212.436279 176.0
1213.538452 108.0
1216.778564 124.0
1218.507935 180.0
1219.056885 172.0
1228.847046 112.0
1229.140137 160.0
1230.738525 176.0
1236.155884 64.0
1237.856934 244.0
1238.73938 92.0
1241.536011 136.0
1243.725098 176.0
1249.832153 144.0
1250.923096 36.0
1252.528564 168.0
1253.507935 120.0
1254.981079 96.0
1263.34314 212.0
1266.266602 192.0
1266.535767 152.0
1268.441772 164.0
1271.534302 128.0
1271.804077 76.0
1273.053589 180.0
1274.85022 220.0
1275.106689 248.0
1276.222778 168.0
1279.296265 204.0
1282.038574 192.0
1283.913452 256.0
1285.333008 132.0
1286.667725 176.0
1290.584595 96.0
1291.992065 164.0
1295.636108 148.0
1296.825562 132.0
1299.048462 112.0
1299.342529 228.0
1305.059692 56.0
1305.706909 160.0
1308.541992 148.0
1309.319702 180.0
1310.911865 124.0
1311.560425 160.0
1311.718994 160.0
1312.101074 136.0
1312.800537 148.0
1313.521851 136.0
1313.730957 156.0
1314.235962 184.0
1315.152588 188.0
1317.593384 152.0
1317.766724 88.0
1318.286987 84.0
1319.602539 168.0
1320.817505 216.0
1323.632812 128.0
1324.617798 144.0
1325.516113 152.0
1325.690063 168.0
1326.393066 140.0
1329.918335 60.0
1334.524048 116.0
1334.880371 144.0
1335.585815 176.0
1337.404907 176.0
1342.096436 164.0
1343.139404 176.0
1343.584351 152.0
1344.277466 188.0
1347.183472 120.0
1348.557251 152.0
1349.602539 116.0
1349.668457 132.0
1350.999512 200.0
1351.899536 136.0
1352.807129 200.0
1353.092407 128.0
1353.832153 32.0
1356.821655 248.0
1359.088013 136.0
1359.220093 252.0
1360.695435 68.0
1361.870361 200.0
1365.427612 212.0
1366.097046 160.0
1373.97229 268.0
1377.348022 180.0
1384.986816 156.0
1386.609497 100.0
1387.365601 148.0
1389.123047 148.0
1389.516235 140.0
1393.703857 156.0
1395.190308 176.0
1396.030518 140.0
1398.150757 164.0
1399.579956 84.0
1400.175781 156.0
1400.3396 168.0
1401.747681 160.0
1405.96106 256.0
1406.147583 140.0
1406.632812 140.0
1407.603394 44.0
1407.8573 176.0
1408.118652 156.0
1408.50708 112.0
1409.694946 128.0
1410.479736 220.0
1411.287109 44.0
1412.162109 104.0
1414.279541 164.0
1414.968262 180.0
1415.937988 156.0
1416.069092 136.0
1417.21521 136.0
1417.972046 120.0
1418.466797 176.0
1423.501099 180.0
1424.920654 180.0
1425.442993 148.0
1425.64209 64.0
1427.965088 104.0
1446.19397 76.0
1446.913086 248.0
1453.394287 176.0
1455.830078 192.0
1458.170044 136.0
1458.679321 156.0
1460.06311 208.0
1461.257446 180.0
1463.205811 116.0
1463.540771 80.0
1464.721191 144.0
1464.92688 176.0
1466.2146 196.0
1466.588013 148.0
1469.829224 68.0
1470.577148 108.0
1471.516113 100.0
1471.813843 224.0
1472.34082 136.0
1472.508789 176.0
1473.456055 144.0
1474.510498 152.0
1474.808594 128.0
1476.444824 156.0
1477.584473 152.0
1478.900757 44.0
1480.86853 112.0
1482.898804 124.0
1484.263428 132.0
1485.137695 140.0
1485.367798 96.0
1487.792725 204.0
1488.046143 176.0
1488.466919 104.0
1490.126343 176.0
1492.064331 180.0
1493.179321 136.0
1496.134033 136.0
1496.942505 196.0
1497.735718 164.0
1500.764404 172.0
1501.257935 176.0
1501.427612 176.0
1502.646362 48.0
1504.120361 164.0
1504.321045 188.0
