>compound MLS002153875-01!Tubocurarine chloride pentahydrate (+)6989-98-6
>formula C37H40N2O6
>ionization [M+H]+
>parentmass 609.295959
#inchi InChI=1S/C37H40N2O6/c1-38-13-11-24-19-32(42-4)33-21-27(24)28(38)16-22-7-6-8-26(15-22)44-37-35-25(20-34(43-5)36(37)41)12-14-39(2,3)29(35)17-23-9-10-30(40)31(18-23)45-33/h6-10,15,18-21,28-29H,11-14,16-17H2,1-5H3,(H-,40,41)/t28-,29+/m0/s1
#inchikey MZTXBESCVZFFQE
#origInchi InChI=1S/C37H40N2O6.2ClH.H2O/c1-38-13-11-24-19-32(42-4)33-21-27(24)28(38)16-22-7-6-8-26(15-22)44-37-35-25(20-34(43-5)36(37)41)12-14-39(2,3)29(35)17-23-9-10-30(40)31(18-23)45-33;;;/h6-10,15,18-21,28-29H,11-14,16-17H2,1-5H3,(H-,40,41);2*1H;1H2/t28-,29+;;;/m0.../s1
#Ion_Source LC-ESI
#Instrument qTof
#Compound_Source NIH Pharmacologically Active Library
#PI Dorrestein
#Data_Collector VP/LMS
#Scan -1
#Precursor_MZ 609.297
#ExactMass 609.296
#Charge 1
#CAS_Number N/A
#Pubmed_ID N/A
#Smiles COc1cc2CC[N+](C)(C)[C@@H]3Cc4ccc(O)c(Oc5cc6[C@H](Cc7cccc(Oc(c1O)c32)c7)N(C)CCc6cc5OC)c4.O.Cl.[Cl-]
#INCHI_AUX N/A
#Library_Class 1
#SpectrumID CCMSLIB00000085642
#IonMode Positive
#UpdateWorkflowName UPDATE-SINGLE-ANNOTATED-GOLD
#LibraryQualityString Gold
#TaskID d252d724072548979f1f6f1ced849daf
##Scan# 1278
#SpectrumFile p4-D08_GD8_01_18368.mzXML
#LibraryName Pharm_Active_Library.mgf
#MQScore -1
#Organism Pharm_Active_Library
#TIC_Query 0
#RT_Query -1
#MZErrorPPM -1
#SharedPeaks 0
#MassDiff 0
#LibMZ -1
#SpecMZ 609.297
#SpecCharge 0
#internalFilename spec-00000.mgf

>collision 10
46.200619 156.0
46.580189 96.0
47.713104 188.0
48.192738 56.0
48.379448 164.0
50.575916 100.0
55.77314 128.0
55.840046 172.0
58.047768 160.0
60.623283 140.0
60.90876 124.0
61.277454 172.0
62.908508 164.0
64.458679 116.0
65.121925 144.0
65.438721 196.0
66.066536 216.0
66.230026 188.0
66.741234 156.0
67.205444 160.0
69.263786 120.0
71.117996 44.0
71.536545 124.0
72.196274 148.0
72.850525 132.0
73.064735 152.0
73.318443 64.0
73.95208 212.0
74.183319 116.0
74.217613 56.0
74.557503 120.0
75.481499 80.0
75.935226 72.0
77.879616 80.0
78.097572 152.0
79.163559 148.0
79.565323 116.0
79.93042 136.0
81.048218 216.0
81.721321 144.0
81.798386 132.0
82.217087 216.0
84.261726 132.0
84.552467 204.0
86.094933 152.0
88.76355 152.0
90.527382 156.0
90.828735 128.0
90.974846 144.0
93.021294 220.0
93.153793 168.0
93.702072 136.0
93.862053 184.0
94.082001 200.0
94.720154 168.0
95.446426 92.0
95.747635 128.0
98.193588 140.0
99.144531 168.0
99.203995 172.0
99.289253 136.0
101.17025 92.0
101.532921 180.0
101.719521 64.0
102.147537 124.0
102.663147 92.0
103.054749 212.0
103.76313 156.0
103.970032 84.0
104.337685 48.0
105.121872 72.0
105.700165 164.0
105.734955 68.0
106.518196 232.0
106.694931 172.0
107.370316 176.0
108.345955 192.0
108.430916 100.0
108.737862 92.0
110.27285 140.0
110.534256 224.0
111.284653 180.0
112.685272 124.0
113.353905 148.0
115.38662 172.0
116.576241 212.0
119.021545 188.0
119.043259 208.0
119.74353 68.0
120.365051 152.0
121.069199 148.0
121.549278 160.0
121.626091 144.0
122.15786 172.0
123.045982 160.0
123.715851 92.0
124.052574 140.0
124.409737 136.0
124.598503 184.0
124.851906 188.0
125.698425 68.0
125.961868 200.0
127.103676 132.0
127.146317 136.0
127.233856 128.0
127.440483 104.0
128.119934 140.0
129.549957 160.0
129.937622 160.0
131.048508 176.0
131.302444 128.0
131.366302 224.0
131.457565 148.0
131.612793 140.0
131.788666 164.0
132.081009 188.0
133.062698 204.0
133.70343 176.0
133.862274 104.0
134.104187 220.0
134.685638 100.0
134.717972 140.0
135.120239 172.0
135.194275 188.0
135.703888 156.0
137.056641 108.0
137.355042 132.0
138.277985 120.0
139.286194 92.0
140.02475 176.0
141.337296 144.0
142.223633 176.0
142.494354 168.0
143.899551 160.0
143.973572 140.0
144.081467 144.0
145.064636 212.0
145.085876 144.0
146.073196 104.0
146.099701 376.0
146.118912 132.0
146.227188 108.0
146.287369 164.0
147.051468 108.0
147.078506 140.0
147.109406 120.0
147.81514 180.0
147.836914 180.0
148.071747 176.0
148.088699 48.0
148.105667 92.0
148.12262 60.0
148.772507 156.0
149.081543 216.0
149.110138 116.0
149.394638 112.0
149.601486 104.0
151.866669 140.0
152.30603 144.0
152.40921 84.0
152.731262 120.0
152.878891 240.0
152.913345 156.0
153.610641 112.0
155.50354 184.0
155.895935 56.0
157.150925 56.0
158.072845 204.0
158.526199 172.0
158.923523 204.0
159.062927 176.0
159.083008 120.0
159.776611 124.0
160.080795 200.0
160.114319 124.0
160.850143 148.0
161.059723 132.0
161.086517 416.0
162.059006 228.0
162.09259 476.0
162.391083 76.0
163.091568 196.0
163.20372 208.0
163.53952 124.0
164.048981 140.0
164.09996 136.0
164.32695 68.0
165.057465 188.0
165.172546 172.0
166.253769 100.0
166.509674 224.0
167.073425 188.0
167.889938 216.0
170.452744 192.0
170.632095 160.0
171.01709 88.0
172.071915 388.0
172.438553 92.0
173.08873 136.0
173.189484 136.0
173.244492 208.0
173.606201 200.0
174.090973 4540.0
174.414841 32.0
174.554184 72.0
174.951477 148.0
175.061127 204.0
175.066605 132.0
175.096695 1008.0
176.076797 72.0
176.103241 1120.0
176.412964 156.0
176.434113 80.0
176.698578 96.0
176.719742 176.0
176.754135 76.0
177.047974 124.0
177.075714 636.0
177.107391 172.0
177.647003 92.0
177.981415 44.0
178.053101 68.0
178.085968 368.0
178.116852 196.0
179.082443 172.0
179.234238 44.0
181.082886 160.0
181.661865 140.0
181.69136 148.0
183.037933 172.0
183.571487 36.0
184.922287 76.0
185.117203 176.0
185.26889 168.0
186.827164 72.0
186.895172 112.0
187.096588 136.0
187.167374 168.0
188.110687 148.0
189.089218 108.0
189.111115 192.0
190.034622 144.0
190.083115 604.0
190.125183 176.0
190.355774 48.0
190.734909 76.0
190.965881 120.0
191.09227 360.0
191.461273 104.0
192.063492 160.0
192.102585 1172.0
192.133835 172.0
192.691528 76.0
192.763367 176.0
193.039795 140.0
193.103409 320.0
193.593262 56.0
193.673569 96.0
194.108688 72.0
194.147507 164.0
194.189102 68.0
194.300064 128.0
194.383301 136.0
194.519302 132.0
195.072098 88.0
195.709198 112.0
195.809448 172.0
195.828949 92.0
197.048233 196.0
197.81424 160.0
198.066254 156.0
198.500671 196.0
198.82608 44.0
199.300659 140.0
204.106018 184.0
204.475754 84.0
204.512756 160.0
205.102371 196.0
205.724228 108.0
206.015503 176.0
206.076981 144.0
206.111099 288.0
206.138367 116.0
206.524323 220.0
206.833344 168.0
207.082458 140.0
207.351776 148.0
208.094284 368.0
209.096069 176.0
209.449219 128.0
209.783493 136.0
209.985336 124.0
210.063202 132.0
210.314255 144.0
210.576996 132.0
211.114548 116.0
211.496445 108.0
212.014877 156.0
212.078629 180.0
212.693558 148.0
213.672882 60.0
213.792191 236.0
213.812561 84.0
214.488281 124.0
214.639145 80.0
215.065811 160.0
217.339722 144.0
217.644974 168.0
218.13855 128.0
218.400253 136.0
218.738647 184.0
218.921188 144.0
219.080246 160.0
219.59903 128.0
219.652115 140.0
220.097763 192.0
220.15683 92.0
220.804047 88.0
220.969696 88.0
221.105804 140.0
221.493683 144.0
221.631744 212.0
222.11615 164.0
223.108002 180.0
223.13475 252.0
223.938202 232.0
224.088989 324.0
224.112869 152.0
225.085159 400.0
225.128494 184.0
226.099777 136.0
226.444061 100.0
227.031479 136.0
229.079437 128.0
229.587708 104.0
229.86525 128.0
229.907486 84.0
231.085953 204.0
232.765167 168.0
233.056763 280.0
233.540131 120.0
234.101532 312.0
234.276779 180.0
234.51445 100.0
235.106125 140.0
235.267899 148.0
235.628281 200.0
236.071487 160.0
236.116364 160.0
236.833542 132.0
236.864182 164.0
236.90094 168.0
237.077835 144.0
237.238037 96.0
238.10025 224.0
238.475067 180.0
238.545776 128.0
238.973251 232.0
239.077866 160.0
239.154816 192.0
239.625977 180.0
240.116104 164.0
240.313522 80.0
241.085281 336.0
241.540863 200.0
242.079987 260.0
242.177612 64.0
242.834702 168.0
243.099991 152.0
243.293945 136.0
243.64798 144.0
244.111099 124.0
244.363052 84.0
245.044891 228.0
245.996078 104.0
246.370819 140.0
246.511414 60.0
247.052322 132.0
247.074234 88.0
248.023071 128.0
249.045975 112.0
249.106522 256.0
249.149628 116.0
249.972992 152.0
250.067825 108.0
250.338577 76.0
251.057083 148.0
251.099594 336.0
251.123306 120.0
251.672409 144.0
251.991409 112.0
252.099716 500.0
252.152328 156.0
252.484528 52.0
252.816711 120.0
253.086334 408.0
253.123779 180.0
253.675049 104.0
253.931885 252.0
254.092117 300.0
254.128571 156.0
254.169815 128.0
254.464996 164.0
254.773056 140.0
254.938293 168.0
255.065414 124.0
255.101227 440.0
255.424728 128.0
255.927567 144.0
256.07724 152.0
256.113373 116.0
256.271545 92.0
256.992157 176.0
257.098785 172.0
258.116486 148.0
259.307373 108.0
261.097046 140.0
261.169617 60.0
262.993317 124.0
263.093048 152.0
263.203156 60.0
264.072479 104.0
264.10141 316.0
264.131317 168.0
264.473694 88.0
264.593475 36.0
265.089355 388.0
265.361298 68.0
265.546143 64.0
266.117188 1356.0
266.153656 180.0
266.217926 44.0
266.302368 60.0
266.497284 48.0
266.52002 60.0
266.624023 152.0
266.653259 44.0
266.910095 168.0
267.062927 108.0
267.111877 508.0
267.222351 156.0
267.245117 40.0
267.377869 136.0
268.110016 512.0
268.153656 176.0
268.603638 64.0
269.073547 196.0
269.1185 480.0
269.423004 40.0
270.114563 148.0
271.127747 156.0
271.19986 72.0
271.36377 112.0
272.098694 92.0
274.091888 120.0
274.140442 196.0
275.087921 84.0
275.722076 148.0
275.804718 68.0
276.122131 192.0
276.218048 216.0
277.08255 140.0
277.486389 156.0
278.109802 108.0
279.063477 60.0
279.101685 616.0
279.136627 224.0
279.432648 144.0
279.941925 96.0
280.106506 788.0
280.129456 292.0
281.109436 472.0
282.112396 996.0
282.448395 196.0
282.558807 52.0
283.123169 388.0
283.208221 172.0
283.238373 108.0
283.617004 168.0
283.640472 68.0
284.126953 2588.0
284.210602 112.0
284.274353 60.0
285.080292 172.0
285.131195 804.0
285.195465 212.0
285.329041 232.0
286.136414 268.0
286.506927 128.0
287.012482 128.0
288.014832 176.0
290.129791 136.0
290.323059 72.0
290.370544 80.0
290.394287 144.0
290.984741 108.0
291.110352 296.0
291.195251 56.0
291.64035 156.0
292.116394 156.0
292.215057 92.0
292.337555 92.0
293.11145 420.0
293.478668 132.0
294.107117 280.0
294.147339 148.0
294.246338 168.0
294.90564 144.0
295.068939 160.0
295.118347 1276.0
295.360413 52.0
295.5383 56.0
295.873718 160.0
295.901093 84.0
295.993561 136.0
296.045044 204.0
296.123901 2132.0
296.195618 172.0
296.282379 132.0
296.946259 40.0
297.051666 76.0
297.134705 4400.0
297.203522 56.0
297.299622 72.0
297.53302 172.0
297.642883 88.0
297.804291 216.0
298.138885 1508.0
298.271606 116.0
298.658722 136.0
298.722076 112.0
298.90097 44.0
299.084595 56.0
299.136993 756.0
299.305695 104.0
299.338135 116.0
299.524109 56.0
299.579224 88.0
299.692932 160.0
299.779083 136.0
299.930725 48.0
300.099182 144.0
300.159149 352.0
300.255859 120.0
300.309998 56.0
300.434174 52.0
301.082489 136.0
302.099304 200.0
302.940491 164.0
303.214233 76.0
303.418732 52.0
303.883484 204.0
304.106659 128.0
305.098206 144.0
305.143311 236.0
306.122803 172.0
307.115265 208.0
307.143158 164.0
307.192017 40.0
307.589813 160.0
307.635193 140.0
308.057739 140.0
308.128296 1088.0
308.763794 128.0
309.050629 92.0
309.121277 148.0
309.519684 188.0
310.098724 152.0
310.140503 2380.0
310.199341 188.0
310.311523 36.0
310.542969 152.0
310.799072 100.0
311.065796 140.0
311.097382 120.0
311.142242 920.0
311.353699 52.0
311.627716 80.0
312.162201 400.0
312.848083 144.0
313.002991 76.0
313.099731 212.0
313.107513 200.0
313.316467 164.0
313.809875 88.0
313.919189 68.0
314.101562 204.0
314.137848 184.0
314.783752 176.0
315.106262 276.0
315.29953 160.0
315.341919 64.0
315.409088 132.0
315.851074 116.0
316.115814 156.0
317.076141 124.0
317.200195 72.0
319.00705 108.0
319.821625 180.0
320.124268 180.0
320.266724 148.0
321.135773 152.0
321.893494 140.0
322.145386 252.0
323.155853 196.0
324.161102 148.0
325.089691 180.0
325.169281 172.0
325.542023 80.0
326.106049 112.0
326.160034 164.0
326.282196 184.0
327.107849 848.0
328.115387 272.0
328.392365 152.0
328.507782 120.0
328.666534 164.0
329.016632 120.0
329.052734 108.0
329.12439 1804.0
329.504181 252.0
329.595978 108.0
330.129578 268.0
330.628754 156.0
331.130035 292.0
331.189941 120.0
331.479767 52.0
332.901764 128.0
333.105164 156.0
333.414001 92.0
334.144867 100.0
334.406891 248.0
335.153412 92.0
335.215363 116.0
335.39032 136.0
337.162354 192.0
338.089355 92.0
339.019562 60.0
339.125824 120.0
339.155151 140.0
340.11618 168.0
340.163879 120.0
341.107605 168.0
343.136597 356.0
343.184326 56.0
343.221191 180.0
343.660126 184.0
343.741302 124.0
344.099335 104.0
345.148651 88.0
346.144043 68.0
346.349274 200.0
346.658936 132.0
347.133453 236.0
347.925751 104.0
350.087769 160.0
350.113831 176.0
350.586945 44.0
351.095306 144.0
352.307037 144.0
352.385498 124.0
352.755493 112.0
353.357574 156.0
354.098755 80.0
354.156281 136.0
354.537109 124.0
354.754486 68.0
355.142181 216.0
356.131195 184.0
356.225525 108.0
356.988495 184.0
357.108856 124.0
357.146637 396.0
357.170624 208.0
358.034698 72.0
358.411407 160.0
359.123901 132.0
360.097687 132.0
361.135742 160.0
361.258118 64.0
361.606232 128.0
361.84848 156.0
362.094604 124.0
362.124908 168.0
362.666718 128.0
362.803192 92.0
363.998352 112.0
364.788605 140.0
365.153625 124.0
366.124115 140.0
367.137848 52.0
367.290405 116.0
367.652863 204.0
368.084229 136.0
368.130035 136.0
368.248444 164.0
368.443237 88.0
368.7948 136.0
369.154175 196.0
370.137054 248.0
370.5896 68.0
370.834869 68.0
371.129944 376.0
371.502045 72.0
371.54425 88.0
372.070038 108.0
372.132507 132.0
372.177551 100.0
372.208252 208.0
373.09964 276.0
373.126556 108.0
373.155457 140.0
373.718842 124.0
373.888153 180.0
374.11142 104.0
374.142212 56.0
375.128418 344.0
376.463379 92.0
377.95163 36.0
378.021271 208.0
378.354126 92.0
378.880829 32.0
379.915924 184.0
380.494171 140.0
381.150574 156.0
381.337128 192.0
381.558685 160.0
381.959229 200.0
382.126526 152.0
382.784332 172.0
382.955688 136.0
383.103699 196.0
383.134857 184.0
383.364258 124.0
383.766266 132.0
384.000214 104.0
384.031433 172.0
384.10553 156.0
384.147369 144.0
384.170685 80.0
384.201752 128.0
384.565979 100.0
384.827515 132.0
384.897797 148.0
384.999329 116.0
385.026672 100.0
385.158569 524.0
385.444855 108.0
385.608795 120.0
385.722137 52.0
385.780792 100.0
385.827698 152.0
385.988007 60.0
386.049164 144.0
386.089661 188.0
386.17276 5416.0
386.285248 84.0
386.328278 132.0
386.355194 68.0
386.402069 100.0
386.631592 92.0
386.727722 48.0
386.770447 88.0
386.837006 132.0
386.887878 60.0
387.124817 132.0
387.178009 2004.0
387.234222 260.0
387.416565 96.0
387.444 44.0
387.487091 84.0
387.557617 48.0
387.592865 48.0
387.624237 44.0
387.733948 100.0
387.82019 172.0
387.945007 156.0
388.03186 76.0
388.082825 68.0
388.140503 176.0
388.17569 376.0
388.2789 72.0
388.36911 100.0
388.569183 28.0
388.733978 64.0
389.000854 164.0
389.075439 88.0
389.105835 76.0
389.167084 208.0
389.307098 92.0
389.570282 100.0
389.601685 104.0
389.731354 72.0
390.006439 68.0
390.123779 204.0
390.23053 136.0
390.6474 116.0
390.981842 72.0
391.017273 76.0
392.652283 80.0
394.974701 48.0
395.148773 32.0
395.821655 180.0
396.139069 256.0
396.637787 124.0
397.141479 228.0
397.819885 104.0
398.077972 76.0
398.148956 316.0
398.20108 144.0
398.71756 156.0
398.777191 76.0
399.107147 144.0
399.157959 312.0
399.878876 116.0
400.101807 188.0
400.162354 160.0
401.125397 156.0
401.171844 200.0
401.556244 84.0
401.923248 88.0
402.054932 132.0
402.142609 124.0
402.168915 208.0
403.160919 132.0
403.167603 124.0
403.182739 208.0
403.512909 164.0
403.580872 72.0
403.920807 140.0
404.332916 44.0
406.067719 56.0
407.456604 160.0
407.866486 64.0
409.14975 108.0
410.133575 156.0
411.144989 160.0
411.375061 32.0
412.163574 104.0
412.199738 96.0
412.328308 80.0
413.168976 248.0
413.197876 436.0
413.881683 116.0
414.148987 148.0
414.193542 312.0
415.129761 56.0
415.186005 268.0
415.588135 84.0
416.17334 156.0
417.094818 192.0
417.147644 128.0
418.070923 148.0
418.180817 148.0
418.526855 164.0
420.173462 112.0
420.393799 136.0
423.15213 156.0
424.156555 208.0
424.194244 124.0
424.320526 36.0
425.167786 108.0
425.547272 56.0
426.150299 176.0
427.138855 140.0
427.177124 180.0
428.137695 116.0
428.14798 112.0
428.183838 284.0
428.854706 160.0
429.126801 136.0
429.188812 156.0
429.250488 92.0
429.427826 88.0
429.819733 60.0
430.116882 136.0
430.175842 324.0
430.545319 52.0
430.827148 60.0
431.147217 184.0
431.168945 72.0
431.180176 164.0
431.819214 100.0
432.164276 96.0
432.199799 148.0
432.543304 92.0
433.164429 144.0
433.201691 180.0
436.730011 104.0
437.025391 112.0
437.191833 180.0
438.891388 52.0
439.137451 128.0
440.146881 140.0
440.191162 280.0
440.631866 48.0
440.928558 176.0
442.168213 320.0
442.196686 148.0
442.568359 104.0
443.175903 344.0
443.376831 44.0
444.174316 276.0
445.134583 84.0
445.174774 84.0
446.189209 108.0
446.622345 88.0
448.62674 172.0
448.837555 104.0
449.655945 92.0
449.930328 152.0
449.959869 116.0
450.973694 168.0
451.210419 80.0
451.700989 180.0
453.123383 128.0
453.15509 116.0
453.246277 140.0
454.153503 172.0
455.161041 136.0
455.224945 164.0
455.443848 160.0
455.596771 168.0
456.152069 168.0
456.186768 312.0
456.37027 48.0
456.812592 56.0
456.855133 124.0
457.127441 88.0
457.183563 124.0
457.82132 84.0
457.923523 140.0
458.163483 908.0
458.19577 928.0
458.232452 144.0
458.439026 160.0
458.933502 136.0
459.149994 156.0
459.188293 516.0
459.595978 156.0
459.820801 80.0
460.089722 76.0
460.129333 172.0
460.184204 576.0
460.427032 136.0
460.63205 152.0
460.679047 88.0
461.114899 128.0
461.157623 148.0
461.192047 148.0
462.179016 252.0
462.650513 204.0
462.740417 152.0
463.211487 172.0
463.588531 216.0
463.884247 124.0
464.064331 64.0
464.205811 92.0
464.343048 96.0
464.437408 36.0
465.188324 112.0
465.480286 48.0
466.167755 116.0
466.249268 40.0
467.556641 104.0
469.43924 156.0
470.159668 152.0
470.371185 120.0
470.82019 56.0
470.854767 68.0
471.208954 68.0
471.749176 172.0
471.831299 160.0
472.169556 152.0
472.216339 108.0
473.06427 128.0
473.187195 476.0
473.475586 56.0
473.752808 168.0
474.187805 444.0
474.558929 96.0
475.040314 136.0
475.143005 244.0
475.201141 232.0
476.195099 184.0
476.255737 164.0
476.868347 116.0
477.150909 116.0
477.19873 140.0
480.090057 112.0
482.312347 120.0
482.675201 144.0
483.515137 80.0
484.13681 40.0
484.662445 116.0
485.214722 172.0
485.381317 104.0
485.631287 132.0
486.194855 164.0
486.601105 108.0
486.934845 56.0
486.974365 52.0
487.163239 84.0
487.220337 268.0
487.250214 188.0
487.503845 100.0
487.598236 92.0
487.861969 120.0
487.967499 148.0
488.226929 132.0
489.158447 128.0
489.188751 140.0
489.242401 152.0
490.155029 172.0
490.198303 132.0
490.432678 32.0
491.173462 160.0
491.513153 160.0
491.75589 52.0
492.144348 196.0
492.194672 132.0
492.935028 108.0
493.23999 144.0
494.181946 100.0
495.179321 104.0
496.174988 136.0
496.214905 124.0
496.401123 216.0
497.532532 132.0
498.020996 92.0
498.165985 200.0
498.45639 96.0
500.044006 112.0
500.159729 120.0
500.20871 184.0
501.112762 104.0
501.157684 96.0
501.638641 104.0
502.171967 164.0
502.213196 84.0
502.26355 136.0
502.320892 168.0
502.987671 180.0
503.147522 360.0
503.200012 188.0
503.256226 588.0
503.409912 56.0
503.651093 60.0
503.919128 188.0
504.177643 148.0
504.234009 168.0
504.763916 84.0
504.795227 148.0
505.151123 104.0
505.191711 228.0
505.27829 140.0
505.323029 60.0
505.555695 52.0
505.622833 96.0
505.77948 152.0
506.180145 212.0
507.175171 268.0
507.405609 144.0
508.055908 84.0
508.183502 148.0
509.189941 144.0
512.029419 104.0
512.71875 128.0
513.074829 108.0
514.55011 180.0
515.209473 128.0
516.192505 276.0
516.48877 104.0
516.606384 120.0
517.12677 108.0
517.190125 140.0
517.235901 172.0
517.651917 152.0
517.801331 144.0
518.122925 140.0
518.190491 368.0
519.133728 164.0
519.178894 512.0
519.251648 132.0
519.88678 116.0
520.045654 136.0
520.201477 176.0
520.631287 120.0
521.189148 1636.0
521.321838 164.0
521.385437 48.0
521.59906 104.0
521.690002 148.0
521.73999 44.0
522.035522 132.0
522.189514 560.0
522.253845 56.0
522.358459 32.0
522.572266 168.0
523.037048 64.0
523.190918 292.0
523.236267 156.0
523.850037 180.0
524.212708 168.0
525.250977 108.0
526.341736 120.0
526.830444 48.0
527.712524 208.0
528.073792 152.0
529.117065 132.0
529.675781 120.0
529.863586 152.0
529.968994 88.0
530.001038 64.0
530.225586 92.0
531.060059 72.0
531.165527 124.0
531.266479 124.0
532.211487 684.0
532.260681 128.0
532.639038 176.0
532.850342 36.0
533.066284 124.0
533.19397 1424.0
534.068542 60.0
534.204773 936.0
535.211243 644.0
535.288147 132.0
535.559814 36.0
535.784912 140.0
535.9422 108.0
536.203674 536.0
536.283203 176.0
537.173157 64.0
537.221924 420.0
537.473022 60.0
537.588379 172.0
538.237061 208.0
539.246399 124.0
540.615295 100.0
542.454041 260.0
543.400146 64.0
544.217041 72.0
545.248291 96.0
545.299377 148.0
546.222168 180.0
547.2276 188.0
547.863281 124.0
548.205994 1448.0
548.552979 36.0
549.028564 124.0
549.208069 1124.0
550.213989 828.0
550.344482 32.0
550.437866 44.0
551.131165 128.0
551.219849 372.0
551.657288 80.0
551.951843 180.0
552.003296 156.0
552.148254 36.0
552.204407 96.0
552.240173 272.0
552.517761 24.0
552.854675 84.0
552.96698 160.0
553.243164 156.0
553.75354 68.0
554.526611 44.0
554.775085 152.0
556.463989 100.0
558.268372 100.0
558.851624 124.0
559.077515 148.0
559.223389 112.0
560.122742 212.0
560.334717 36.0
560.966248 164.0
561.192505 112.0
561.277405 104.0
561.739624 92.0
562.227844 428.0
562.357727 200.0
562.773132 100.0
562.812439 100.0
563.041443 172.0
563.23645 188.0
563.377686 116.0
563.547729 68.0
563.656433 128.0
563.992004 116.0
564.031616 144.0
564.077087 152.0
564.236694 12044.0
564.445312 264.0
564.540405 68.0
564.616089 56.0
564.671326 100.0
564.778625 88.0
564.937744 284.0
565.025208 200.0
565.07019 112.0
565.124329 108.0
565.242004 4548.0
565.348511 152.0
565.42981 36.0
565.671204 104.0
565.839294 64.0
565.880798 160.0
565.922119 116.0
565.964722 48.0
566.061279 72.0
566.163635 52.0
566.251526 3624.0
566.613586 60.0
566.661011 64.0
566.697083 112.0
566.736816 100.0
566.832397 160.0
566.933594 60.0
567.253235 1624.0
567.386108 84.0
567.447754 68.0
567.575745 136.0
567.751221 68.0
567.907715 96.0
568.187622 84.0
568.258728 488.0
568.434998 60.0
568.633667 56.0
568.733337 144.0
569.141602 64.0
569.208069 252.0
569.336304 100.0
569.778076 120.0
569.820801 112.0
569.9776 56.0
570.21521 60.0
570.281738 104.0
570.405334 88.0
570.566956 48.0
570.723877 80.0
570.766663 32.0
571.218445 64.0
572.413086 52.0
572.522583 84.0
573.241943 60.0
573.28009 28.0
574.22876 96.0
574.729675 96.0
575.221252 76.0
575.973694 56.0
577.180054 96.0
577.264282 484.0
578.252869 516.0
579.249573 136.0
579.702759 196.0
580.270264 308.0
580.493713 36.0
581.218018 124.0
581.304382 120.0
581.995605 104.0
582.293335 44.0
582.970764 168.0
585.270081 184.0
585.428955 148.0
586.045532 180.0
587.21698 88.0
591.585083 48.0
591.81427 180.0
592.568176 156.0
593.258606 252.0
594.271301 164.0
594.430115 84.0
595.250488 104.0
595.333069 128.0
595.367065 72.0
596.635254 152.0
599.731201 84.0
601.096741 96.0
601.682434 44.0
602.1073 184.0
602.424744 160.0
602.781433 52.0
602.898682 136.0
602.937805 88.0
603.377747 88.0
604.096619 84.0
604.189575 124.0
604.546753 56.0
604.639771 72.0
604.94812 76.0
605.393677 100.0
605.467102 144.0
606.074585 112.0
606.275452 88.0
606.505798 64.0
606.579346 108.0
607.013245 96.0
607.56012 192.0
607.594482 96.0
607.889038 108.0
608.029175 116.0
608.247131 76.0
608.281494 124.0
608.443481 228.0
608.566223 100.0
608.654602 68.0
608.719971 160.0
608.778687 180.0
608.938782 120.0
608.956665 104.0
609.05896 196.0
609.119446 144.0
609.192627 148.0
609.295959 24232.0
609.47168 84.0
609.532349 100.0
609.568298 128.0
609.651855 48.0
609.685791 132.0
609.7854 184.0
609.828186 116.0
609.917236 68.0
610.064697 148.0
610.125 192.0
610.186035 172.0
610.298584 9216.0
610.378418 152.0
610.394836 236.0
610.502075 128.0
610.56134 56.0
610.626892 140.0
610.708435 48.0
610.812134 44.0
610.976624 152.0
611.107361 56.0
611.146667 76.0
611.198242 92.0
611.301941 2380.0
611.486267 112.0
611.521667 180.0
611.566406 68.0
611.638855 80.0
611.715881 100.0
611.772461 80.0
611.9104 72.0
611.99823 48.0
612.126221 116.0
612.31134 716.0
612.367554 68.0
612.559631 80.0
612.61615 76.0
612.699707 56.0
612.870056 44.0
613.28949 144.0
613.477478 96.0
613.566833 148.0
613.638916 96.0
613.791748 128.0
614.102478 56.0
614.206055 152.0
614.250427 104.0
614.408325 104.0
614.44281 48.0
614.502014 148.0
614.556335 60.0
614.6698 76.0
614.946167 48.0
615.143616 40.0
615.190674 64.0
615.232483 36.0
615.316406 88.0
615.597839 68.0
616.195496 76.0
616.251343 52.0
616.571045 60.0
616.773682 108.0
616.896851 48.0
617.643982 56.0
618.010071 68.0
618.104065 48.0
618.366333 68.0
618.836609 96.0
620.32782 40.0
621.240295 76.0
622.342041 56.0
622.913208 52.0
624.205383 76.0
625.026184 80.0
626.285706 64.0
626.450073 100.0
626.614502 48.0
628.763672 88.0
628.928345 68.0
629.572388 92.0
629.642334 80.0
629.697266 76.0
630.561584 40.0
630.981506 112.0
632.287048 100.0
637.688599 96.0
639.136902 116.0
643.865417 136.0
644.729309 84.0
677.805115 48.0
678.012451 100.0
679.049316 28.0
680.28949 60.0
687.388733 32.0
693.911255 92.0
696.556213 116.0
707.043396 76.0
713.732788 116.0
714.977539 60.0
715.360779 40.0
715.861267 64.0
729.134033 80.0
731.166992 96.0
732.055237 152.0
734.94989 108.0
740.945984 36.0
749.089355 72.0
752.126648 48.0
755.667847 48.0
767.625732 96.0
777.128662 80.0
786.014771 48.0
786.159851 120.0
790.322815 48.0
792.512146 104.0
798.237549 72.0
804.96582 44.0
806.626892 116.0
813.015747 80.0
830.026917 128.0
836.357971 40.0
839.278809 48.0
853.028931 84.0
857.266113 116.0
861.011414 100.0
871.256165 44.0
872.813721 116.0
881.236572 84.0
882.921265 84.0
883.092773 52.0
892.652832 100.0
898.18573 72.0
918.991211 100.0
950.787292 48.0
952.733765 80.0
962.959045 108.0
968.110779 60.0
980.1745 52.0
983.816895 160.0
984.865967 96.0
988.254272 48.0
997.165283 72.0
1000.089966 48.0
1016.356934 48.0
1024.354858 44.0
1034.930908 36.0
1036.276001 68.0
1082.664917 52.0
1086.427368 84.0
1096.072632 156.0
1121.628418 72.0
1127.341431 64.0
1138.200073 68.0
1166.93042 88.0
1192.091797 48.0
1196.617798 48.0
1204.168701 52.0
1213.531494 56.0
1217.708984 100.0
1221.36499 48.0
1225.709229 84.0
1226.169189 96.0
1226.698975 84.0
1231.69519 92.0
1237.429688 80.0
1255.340576 148.0
1292.049072 40.0
1318.30835 128.0
1326.893066 80.0
1328.256348 116.0
1354.344482 44.0
1366.251221 92.0
1369.070312 80.0
1377.0354 164.0
1388.996582 116.0
1395.814453 128.0
1407.184814 40.0
1414.878052 48.0
1420.963623 216.0
1421.466309 216.0
1428.874878 128.0
1440.71875 212.0
1446.435791 256.0
1449.601562 124.0
1477.484619 140.0
1489.612305 92.0
