>compound Amisulpride
>formula C17H27N3O4S
>ionization [M+H]+
>parentmass 370.17950379609056
#inchi InChI=1S/C17H27N3O4S/c1-4-20-8-6-7-12(20)11-19-17(21)13-9-16(25(22,23)5-2)14(18)10-15(13)24-3/h9-10,12H,4-8,11,18H2,1-3H3,(H,19,21)
#inchikey NTJOBXMMWNYJFB
#Ion_Source LC-ESI
#Instrument qTof
#Compound_Source Commercial
#PI Dorrestein
#Data_Collector Garg_Neha
#Scan -1
#Precursor_MZ 370.18
#ExactMass 369.172
#Charge 1
#CAS_Number 71675-85-9, 81342-13-4 (HCl)
#Pubmed_ID N/A
#Smiles C1C(N(CC1)CC)CNC(C2=CC(=C(C=C2OC)N)S(CC)(=O)=O)=O
#INCHI_AUX N/A
#Library_Class 1
#SpectrumID CCMSLIB00000078080
#IonMode Positive
#UpdateWorkflowName UPDATE-SINGLE-ANNOTATED-GOLD
#LibraryQualityString Gold
#TaskID 77f51c88eb8b467eb4a01dd2d0cb90d2
##Scan# 1052
#SpectrumFile Plate1_61_88_GG4_01_16491.mzXML
#LibraryName FDALibrary_2_04302014.mgf
#MQScore -1
#Organism FDALibrary_2_04302014
#TIC_Query 0
#RT_Query -1
#MZErrorPPM -1
#SharedPeaks 0
#MassDiff 0
#LibMZ -1
#SpecMZ 370.18
#SpecCharge 0
#internalFilename spec-00000.mgf

>collision 10
44.90736 140.0
44.983013 112.0
45.015961 152.0
45.025311 152.0
45.048019 208.0
45.117512 152.0
45.199947 240.0
45.219173 168.0
45.291477 144.0
45.349094 156.0
45.379009 152.0
45.404064 172.0
45.495911 116.0
45.534248 176.0
45.566486 200.0
45.657894 204.0
45.726509 148.0
45.744007 152.0
45.77702 184.0
45.792484 328.0
45.873455 176.0
46.096031 188.0
46.138344 224.0
46.175285 232.0
46.20285 232.0
46.218361 232.0
46.240738 164.0
46.274963 184.0
46.293537 144.0
46.361275 176.0
46.543053 196.0
46.567497 148.0
46.638741 208.0
46.751118 136.0
46.76276 176.0
46.810936 144.0
46.859974 212.0
46.876324 148.0
46.934406 204.0
46.964943 280.0
47.009968 164.0
47.157467 160.0
47.198479 204.0
47.246349 192.0
47.337082 148.0
47.423611 188.0
47.505272 192.0
47.54184 264.0
47.649426 220.0
47.667286 200.0
47.712303 176.0
47.814438 144.0
47.831738 204.0
47.894295 200.0
47.952919 168.0
47.967327 192.0
48.11356 284.0
48.176144 176.0
48.204166 100.0
48.304268 160.0
48.389828 180.0
48.474567 160.0
48.518921 184.0
48.577789 172.0
48.6646 180.0
48.70945 164.0
48.73127 188.0
48.779915 168.0
48.846661 144.0
48.881084 148.0
49.027454 156.0
49.140617 216.0
49.277447 324.0
49.32077 168.0
49.362186 192.0
49.400478 196.0
49.467075 244.0
49.491283 136.0
49.508251 208.0
49.561485 156.0
49.598591 136.0
49.636696 220.0
49.699577 124.0
49.713001 160.0
49.877258 148.0
49.933586 196.0
49.946602 140.0
50.063347 184.0
50.172451 156.0
50.219616 200.0
50.253277 236.0
50.290138 132.0
50.309731 200.0
50.34362 216.0
50.354477 180.0
50.401535 140.0
50.450298 184.0
50.479137 156.0
50.544197 108.0
50.558506 140.0
50.634956 164.0
50.698711 152.0
50.725639 216.0
50.746906 192.0
50.819244 156.0
50.897312 156.0
50.924294 140.0
51.000759 152.0
51.087765 224.0
51.098461 216.0
51.22443 140.0
51.252888 172.0
51.334175 308.0
51.354774 108.0
51.426403 180.0
51.449749 172.0
51.492039 172.0
51.612633 160.0
51.655537 184.0
51.758587 196.0
51.774338 140.0
51.789173 312.0
51.800121 152.0
51.892372 140.0
51.973892 200.0
52.113129 160.0
52.126469 104.0
52.138695 124.0
52.22501 156.0
52.376148 176.0
52.601097 112.0
52.686302 196.0
52.741505 160.0
52.784588 152.0
52.9212 160.0
52.990437 168.0
53.037949 140.0
53.072742 148.0
53.093044 216.0
53.176434 160.0
53.20768 196.0
53.265907 168.0
53.331158 304.0
53.371864 172.0
53.441681 168.0
53.489708 156.0
53.527561 160.0
53.575626 160.0
53.588741 176.0
53.610729 180.0
53.636944 204.0
53.665031 152.0
53.797989 152.0
53.817738 156.0
53.841103 208.0
53.895153 208.0
53.91922 136.0
54.033173 192.0
54.044296 328.0
54.05759 140.0
54.071972 136.0
54.09552 208.0
54.177532 140.0
54.192562 216.0
54.217094 176.0
54.236423 128.0
54.371086 156.0
54.381718 172.0
54.410717 248.0
54.43568 160.0
54.455463 204.0
54.635578 192.0
54.681194 192.0
54.737137 144.0
54.761391 172.0
54.776905 160.0
54.803421 212.0
54.892612 160.0
54.987885 188.0
55.011806 196.0
55.023186 268.0
55.099987 156.0
55.300373 220.0
55.326263 200.0
55.37661 180.0
55.426342 180.0
55.447121 224.0
55.469963 140.0
55.487751 276.0
55.524822 232.0
55.65987 140.0
55.737518 160.0
55.799881 156.0
55.823227 176.0
55.851589 144.0
55.898006 160.0
56.065186 112.0
56.089836 200.0
56.115181 200.0
56.166889 148.0
56.21283 232.0
56.231537 164.0
56.279308 208.0
56.403309 164.0
56.57468 136.0
56.623257 148.0
56.639732 144.0
56.661465 160.0
56.672691 176.0
56.694572 300.0
56.72065 344.0
56.920719 148.0
56.962246 244.0
57.135128 152.0
57.324848 208.0
57.432346 160.0
57.572258 144.0
57.623615 196.0
57.638725 188.0
57.69986 152.0
57.81348 164.0
57.871666 184.0
57.903107 168.0
58.029243 188.0
58.058056 284.0
58.0756 152.0
58.170334 140.0
58.237148 148.0
58.387615 180.0
58.43325 172.0
58.443901 192.0
58.481949 208.0
58.50174 144.0
58.580929 176.0
58.609875 144.0
58.666267 160.0
58.719635 152.0
58.79287 200.0
58.830307 356.0
58.847824 176.0
58.869202 164.0
58.890099 152.0
58.948063 244.0
58.969227 280.0
59.057186 148.0
59.179615 148.0
59.238987 240.0
59.257759 240.0
59.273052 144.0
59.291443 152.0
59.312653 100.0
59.337112 136.0
59.421783 244.0
59.43335 104.0
59.895622 180.0
59.945469 160.0
59.990753 184.0
60.013641 176.0
60.100327 140.0
60.115757 180.0
60.148167 192.0
60.206841 192.0
60.261765 144.0
60.304176 228.0
60.379936 192.0
60.412418 156.0
60.443363 184.0
60.460384 176.0
60.679996 192.0
60.719826 140.0
60.754791 156.0
60.810654 156.0
60.877415 176.0
60.955761 156.0
60.993942 184.0
61.043694 188.0
61.132366 172.0
61.145557 132.0
61.305225 192.0
61.366016 200.0
61.392776 124.0
61.420601 152.0
61.459602 152.0
61.512669 208.0
61.564117 172.0
61.754868 168.0
61.772072 148.0
61.809624 180.0
61.855011 184.0
61.948967 144.0
61.980305 168.0
61.998875 160.0
62.027523 156.0
62.154358 188.0
62.16848 180.0
62.19109 176.0
62.20929 140.0
62.298721 152.0
62.368469 192.0
62.396492 152.0
62.489037 152.0
62.645969 200.0
62.703201 180.0
62.719433 188.0
62.753643 160.0
62.800953 152.0
62.943756 124.0
63.0 172.0
63.182552 172.0
63.231064 144.0
63.413494 124.0
63.565102 192.0
63.580971 164.0
63.593666 144.0
63.680996 144.0
63.809574 180.0
63.855827 264.0
63.879688 220.0
63.926243 108.0
64.027718 188.0
64.040459 180.0
64.112846 148.0
64.174324 144.0
64.210007 236.0
64.239716 144.0
64.292366 152.0
64.456436 168.0
64.552986 116.0
64.59256 172.0
64.666351 216.0
64.748009 152.0
64.77684 308.0
64.790535 168.0
64.850136 140.0
64.892708 160.0
64.926704 136.0
64.961189 192.0
65.026978 224.0
65.112076 148.0
65.291924 124.0
65.305344 160.0
65.342644 128.0
65.382172 140.0
65.428848 164.0
65.501778 168.0
65.525642 124.0
65.568558 164.0
65.593765 116.0
65.689644 136.0
65.793205 200.0
65.83519 196.0
66.064713 180.0
66.099312 136.0
66.340019 160.0
66.44381 152.0
66.469772 260.0
66.493248 120.0
66.519905 140.0
66.52375 124.0
66.547684 200.0
66.602905 240.0
66.671143 328.0
66.684143 188.0
66.762184 192.0
66.789833 144.0
66.836075 180.0
66.864677 196.0
66.911987 132.0
66.962364 164.0
67.00264 160.0
67.047546 128.0
67.073166 148.0
67.118263 188.0
67.170319 208.0
67.312996 140.0
67.330963 236.0
67.448524 168.0
67.483276 364.0
67.549698 112.0
67.6138 152.0
67.713676 140.0
67.823166 204.0
67.954651 168.0
67.997185 156.0
68.044212 192.0
68.070175 168.0
68.19519 312.0
68.238289 220.0
68.268394 192.0
68.30722 132.0
68.35675 252.0
68.376923 128.0
68.418129 388.0
68.449409 140.0
68.502113 148.0
68.591927 152.0
68.617477 208.0
68.705513 188.0
68.840233 156.0
68.863358 168.0
68.988388 96.0
69.131187 168.0
69.263474 196.0
69.350586 112.0
69.365608 188.0
69.488258 204.0
69.535568 188.0
69.707596 116.0
69.777374 208.0
69.805664 208.0
69.827988 164.0
69.847946 152.0
69.908539 184.0
69.969872 176.0
70.068573 156.0
70.104355 168.0
70.126015 268.0
70.166023 156.0
70.267761 184.0
70.344566 176.0
70.360931 296.0
70.387939 148.0
70.431366 140.0
70.559425 144.0
70.609375 180.0
70.667084 404.0
70.715614 148.0
70.730537 140.0
70.749092 184.0
70.862984 188.0
70.891464 372.0
70.902466 176.0
70.965225 176.0
70.981987 236.0
70.999535 148.0
71.067245 160.0
71.178322 196.0
71.226341 156.0
71.305756 204.0
71.363152 160.0
71.388374 172.0
71.414154 232.0
71.459023 148.0
71.480904 140.0
71.556648 160.0
71.604591 152.0
71.649452 156.0
71.669495 160.0
71.708252 156.0
71.751801 144.0
71.881958 216.0
71.902214 144.0
71.927528 160.0
71.99575 148.0
72.144585 196.0
72.155594 164.0
72.192795 164.0
72.236771 188.0
72.307945 124.0
72.331535 188.0
72.359497 248.0
72.384018 212.0
72.40773 164.0
72.735802 196.0
72.774017 164.0
72.901421 200.0
72.920113 284.0
72.971176 216.0
73.011124 136.0
73.043732 120.0
73.080109 140.0
73.092201 212.0
73.107567 236.0
73.249352 120.0
73.282585 232.0
73.324501 272.0
73.39167 172.0
73.441765 172.0
73.473694 180.0
73.563988 172.0
73.60984 192.0
73.628876 156.0
73.69487 284.0
73.751892 224.0
73.788086 328.0
73.802902 148.0
73.847641 160.0
73.90239 144.0
73.931282 176.0
73.957153 148.0
74.018784 180.0
74.047897 156.0
74.19355 248.0
74.321045 192.0
74.414871 320.0
74.53511 188.0
74.559166 172.0
74.58667 164.0
74.61042 152.0
74.64109 128.0
74.688118 228.0
74.755272 140.0
74.794273 180.0
74.847702 116.0
74.879173 140.0
74.913628 204.0
74.967102 112.0
74.994614 488.0
75.02047 164.0
75.043304 164.0
75.375183 288.0
75.408432 196.0
75.472824 200.0
75.498764 180.0
75.524704 240.0
75.575836 164.0
75.6259 256.0
75.723312 156.0
75.768898 196.0
75.808647 160.0
75.90287 180.0
75.930397 140.0
75.94561 184.0
76.039452 140.0
76.112221 176.0
76.162582 156.0
76.221405 196.0
76.241135 172.0
76.285957 140.0
76.374641 308.0
76.401611 176.0
76.465118 160.0
76.503418 172.0
76.542961 152.0
76.607903 140.0
76.704941 164.0
76.747337 188.0
76.773491 172.0
76.897362 168.0
76.971848 136.0
77.075577 172.0
77.175125 160.0
77.199608 352.0
77.257126 148.0
77.299889 184.0
77.374588 176.0
77.390343 148.0
77.505684 160.0
77.535744 236.0
77.549759 184.0
77.726891 232.0
77.832214 484.0
77.875298 120.0
77.998924 148.0
78.048592 136.0
78.08905 136.0
78.110603 120.0
78.136284 144.0
78.152122 144.0
78.16713 136.0
78.224724 296.0
78.236603 248.0
78.294617 216.0
78.322258 156.0
78.349319 220.0
78.361649 172.0
78.414513 196.0
78.430573 216.0
78.45858 180.0
78.479744 172.0
78.502197 196.0
78.529182 108.0
78.546661 144.0
78.601448 168.0
78.624191 176.0
78.759743 200.0
78.795677 188.0
78.909103 248.0
78.931778 256.0
78.988373 324.0
79.01899 184.0
79.03437 164.0
79.046761 280.0
79.060913 184.0
79.159538 152.0
79.188393 196.0
79.204002 172.0
79.22686 212.0
79.248619 248.0
79.291153 188.0
79.341293 140.0
79.445587 172.0
79.535065 180.0
79.580307 148.0
79.76329 176.0
79.779289 172.0
79.837967 144.0
79.853973 184.0
79.877098 144.0
79.932251 152.0
79.957169 152.0
80.019989 136.0
80.116661 244.0
80.183357 140.0
80.250298 172.0
80.340965 208.0
80.454491 144.0
80.500084 172.0
80.520554 184.0
80.536629 144.0
80.552711 160.0
80.592934 240.0
80.647858 176.0
80.676018 200.0
80.745651 140.0
80.823593 180.0
80.945496 196.0
80.974319 124.0
81.025764 160.0
81.041122 200.0
81.209641 152.0
81.223991 200.0
81.328896 224.0
81.588539 164.0
81.602921 156.0
81.644279 160.0
81.691048 176.0
81.717354 148.0
81.743225 164.0
81.864304 184.0
81.910667 164.0
82.002556 212.0
82.021408 192.0
82.067459 300.0
82.098114 160.0
82.130577 144.0
82.164856 184.0
82.233429 148.0
82.268471 212.0
82.348984 160.0
82.44413 156.0
82.519257 160.0
82.545967 152.0
82.593971 208.0
82.661743 156.0
82.71785 168.0
82.80114 192.0
82.863876 116.0
83.007744 168.0
83.036201 144.0
83.167397 188.0
83.192909 216.0
83.207329 152.0
83.285423 160.0
83.319939 172.0
83.399521 136.0
83.421707 192.0
83.461578 216.0
83.558449 148.0
83.610481 204.0
83.720108 148.0
83.756042 148.0
83.866508 248.0
84.000435 140.0
84.068314 152.0
84.082909 196.0
84.114738 164.0
84.218071 144.0
84.298409 184.0
84.385437 164.0
84.398949 156.0
84.417267 128.0
84.510521 152.0
84.526909 172.0
84.563049 120.0
84.621826 136.0
84.638657 212.0
84.710083 176.0
84.757721 184.0
84.787041 188.0
84.831032 144.0
84.94651 144.0
85.019394 184.0
85.076859 164.0
85.146629 176.0
85.181534 172.0
85.310165 196.0
85.365074 232.0
85.403099 224.0
85.453621 172.0
85.467995 128.0
85.494942 176.0
85.524628 144.0
85.549324 152.0
85.600876 148.0
85.615608 316.0
85.645279 108.0
85.738594 132.0
85.821999 216.0
85.84597 232.0
85.981827 156.0
86.140945 196.0
86.170845 144.0
86.192207 164.0
86.220734 180.0
86.241066 144.0
86.311317 228.0
86.429703 180.0
86.487213 160.0
86.54261 172.0
86.587059 148.0
86.674126 140.0
86.733437 148.0
86.746407 168.0
86.803886 160.0
86.831398 192.0
87.082268 220.0
87.207962 192.0
87.29554 132.0
87.393364 104.0
87.416908 144.0
87.552811 168.0
87.608688 160.0
87.640366 140.0
87.681366 148.0
87.707458 228.0
87.739494 108.0
87.759659 248.0
87.81942 176.0
87.890228 156.0
87.998482 192.0
88.097679 144.0
88.171219 204.0
88.256866 312.0
88.291862 148.0
88.329926 348.0
88.368561 388.0
88.482727 148.0
88.538681 236.0
88.748787 164.0
88.81797 108.0
88.94088 224.0
89.041534 240.0
89.09037 152.0
89.126022 156.0
89.152382 156.0
89.182449 200.0
89.216934 116.0
89.266571 156.0
89.338295 160.0
89.377411 108.0
89.420929 412.0
89.457085 188.0
89.619057 236.0
89.683128 176.0
89.798141 160.0
89.830215 140.0
89.87738 204.0
89.897705 168.0
89.984474 168.0
90.015038 160.0
90.25351 160.0
90.429024 164.0
90.538963 148.0
90.605316 164.0
90.647003 168.0
90.673531 144.0
90.688698 180.0
90.726608 148.0
90.75808 100.0
90.808144 196.0
91.055046 136.0
91.079575 188.0
91.166969 148.0
91.258217 144.0
91.271523 200.0
91.311462 192.0
91.328583 180.0
91.346802 152.0
91.363754 220.0
91.451851 132.0
91.467484 168.0
91.553169 172.0
91.568405 300.0
91.619835 172.0
91.684616 152.0
91.71373 132.0
91.79071 188.0
91.825005 196.0
91.905823 144.0
91.978455 140.0
92.00412 112.0
92.029892 164.0
92.054718 160.0
92.135071 180.0
92.168312 180.0
92.277397 156.0
92.364578 164.0
92.397568 184.0
92.411812 280.0
92.45697 200.0
92.486359 224.0
92.534454 148.0
92.634109 168.0
92.730057 168.0
92.751144 176.0
92.828987 120.0
92.921822 140.0
92.993065 172.0
93.045639 188.0
93.069557 132.0
93.086899 200.0
93.117622 156.0
93.146904 132.0
93.175255 168.0
93.200233 140.0
93.224365 200.0
93.288643 228.0
93.500618 176.0
93.517548 336.0
93.532944 224.0
93.600334 220.0
93.67038 140.0
93.721687 152.0
93.746735 164.0
93.82235 192.0
93.920258 244.0
93.933762 148.0
93.969208 192.0
94.020584 164.0
94.039658 168.0
94.078926 196.0
94.107452 192.0
94.176979 144.0
94.224373 248.0
94.306435 180.0
94.334717 240.0
94.36808 320.0
94.405037 172.0
94.526909 188.0
94.565445 184.0
94.594208 176.0
94.62896 316.0
94.68074 216.0
94.765076 220.0
94.797684 140.0
94.852287 192.0
94.90657 192.0
95.032646 184.0
95.046234 192.0
95.063789 172.0
95.102516 228.0
95.149101 180.0
95.244347 172.0
95.314201 176.0
95.339462 184.0
95.390755 124.0
95.421104 148.0
95.555305 156.0
95.570869 148.0
95.586288 160.0
95.613686 172.0
95.67141 152.0
95.703232 176.0
95.718811 160.0
95.736336 168.0
95.79866 148.0
95.827316 164.0
95.955376 188.0
95.974075 196.0
96.015022 224.0
96.046547 148.0
96.149643 216.0
96.162643 212.0
96.179764 184.0
96.22596 168.0
96.270683 232.0
96.284355 172.0
96.346863 280.0
96.380814 148.0
96.444565 144.0
96.516548 288.0
96.578667 172.0
96.687096 180.0
96.736206 220.0
96.777145 196.0
96.818283 280.0
96.857437 156.0
96.895798 152.0
97.030876 212.0
97.07914 316.0
97.122742 168.0
97.179977 148.0
97.243469 160.0
97.25869 260.0
97.432228 192.0
97.523689 192.0
97.64093 184.0
97.739799 176.0
97.784019 160.0
97.835754 196.0
97.902344 208.0
98.006744 144.0
98.036308 160.0
98.09877 1144.0
98.151794 180.0
98.180222 180.0
98.270958 164.0
98.284775 148.0
98.334106 244.0
98.411102 104.0
98.448906 164.0
98.465874 152.0
98.511543 196.0
98.542915 184.0
98.574783 208.0
98.723312 268.0
98.802994 184.0
98.828156 144.0
98.967216 236.0
99.012825 140.0
99.045929 184.0
99.122353 216.0
99.154907 152.0
99.175156 240.0
99.201332 104.0
99.235611 140.0
99.275841 200.0
99.373924 164.0
99.473 184.0
99.509987 148.0
99.559402 172.0
99.619217 268.0
99.825928 164.0
99.841835 256.0
99.856445 128.0
99.985085 180.0
100.003639 148.0
100.102539 224.0
100.124443 144.0
100.142372 148.0
100.241982 148.0
100.417419 296.0
100.764771 140.0
100.797676 204.0
100.846703 136.0
100.878685 160.0
100.894676 176.0
100.958107 188.0
101.059219 256.0
101.080688 164.0
101.098495 116.0
101.128349 172.0
101.191475 196.0
101.226822 208.0
101.343002 268.0
101.363037 156.0
101.384628 192.0
101.429008 144.0
101.4813 208.0
101.513145 100.0
101.540985 152.0
101.613678 144.0
101.679901 152.0
101.7033 152.0
101.79232 160.0
101.945 168.0
101.959068 188.0
102.003281 140.0
102.067619 148.0
102.089745 152.0
102.178535 168.0
102.209816 180.0
102.311073 156.0
102.387596 152.0
102.413773 148.0
102.450035 164.0
102.46817 336.0
102.482269 168.0
102.611267 140.0
102.642769 140.0
102.671761 200.0
102.743378 332.0
102.775475 268.0
102.921989 172.0
103.162422 416.0
103.192749 144.0
103.209091 144.0
103.334328 156.0
103.419319 168.0
103.53878 184.0
103.594559 112.0
103.644119 160.0
103.883736 192.0
104.041962 184.0
104.068047 176.0
104.094971 216.0
104.183815 144.0
104.209602 144.0
104.291512 208.0
104.340302 216.0
104.389107 152.0
104.415306 164.0
104.483833 364.0
104.509117 188.0
104.623093 160.0
104.690285 208.0
104.728989 144.0
104.754837 168.0
104.825485 164.0
104.981712 144.0
105.011208 284.0
105.063179 204.0
105.140839 108.0
105.242554 184.0
105.298042 196.0
105.333214 164.0
105.381798 164.0
105.465584 164.0
105.483986 176.0
105.555542 168.0
105.578041 132.0
105.625565 136.0
105.66835 132.0
105.81131 152.0
105.99823 156.0
106.016693 224.0
106.049706 208.0
106.094139 160.0
106.148872 140.0
106.184258 156.0
106.229385 204.0
106.271675 124.0
106.313515 172.0
106.385353 160.0
106.42765 212.0
106.469421 144.0
106.54554 336.0
106.594849 176.0
106.614838 116.0
106.673561 136.0
106.740807 184.0
106.81073 176.0
106.907433 188.0
106.933136 156.0
107.005501 156.0
107.043358 148.0
107.066833 144.0
107.100967 180.0
107.135872 128.0
107.168327 184.0
107.265816 236.0
107.301109 144.0
107.381287 244.0
107.558052 196.0
107.584373 132.0
107.610344 188.0
107.636429 360.0
107.715317 164.0
107.734261 160.0
107.753181 152.0
107.810715 144.0
107.858513 260.0
107.960838 104.0
108.043396 376.0
108.123505 132.0
108.269997 172.0
108.303131 180.0
108.355515 168.0
108.427444 180.0
108.462685 160.0
108.546654 136.0
108.670891 152.0
108.744331 152.0
108.782143 200.0
108.813278 152.0
108.87558 156.0
109.02523 112.0
109.054253 156.0
109.07296 196.0
109.09687 128.0
109.148537 160.0
109.183159 156.0
109.239685 160.0
109.299133 128.0
109.339195 184.0
109.362091 168.0
109.442635 180.0
109.463646 108.0
109.476974 204.0
109.506187 116.0
109.587006 160.0
109.61409 260.0
109.748009 136.0
109.782539 144.0
109.806953 172.0
109.843727 200.0
109.906021 188.0
110.014351 164.0
110.039604 168.0
110.097809 536.0
110.187897 160.0
110.229683 212.0
110.401451 144.0
110.44503 204.0
110.465942 176.0
110.490028 152.0
110.599869 148.0
110.628731 188.0
110.767387 164.0
110.78624 156.0
110.847 144.0
110.881966 164.0
110.947609 424.0
111.004196 196.0
111.092102 120.0
111.14782 272.0
111.23996 124.0
111.290688 108.0
111.533302 188.0
111.709938 148.0
111.769745 188.0
111.810776 160.0
111.880402 152.0
111.948944 156.0
112.010551 144.0
112.03923 172.0
112.091026 332.0
112.112907 34048.0
112.216278 148.0
112.242271 160.0
112.284973 184.0
112.350395 264.0
112.374748 192.0
112.421127 164.0
112.445732 164.0
112.539108 160.0
112.64592 224.0
112.748001 192.0
112.771126 188.0
112.789932 352.0
112.814774 124.0
112.869949 252.0
112.91301 220.0
113.003494 180.0
113.051872 148.0
113.072868 192.0
113.115463 2120.0
113.200058 160.0
113.220299 176.0
113.315216 176.0
113.350464 188.0
113.419617 172.0
113.516869 96.0
113.550758 176.0
113.60817 100.0
113.713112 144.0
113.743805 160.0
113.771614 128.0
113.793861 108.0
113.839745 204.0
113.933052 196.0
113.959511 136.0
114.015778 116.0
114.063019 180.0
114.114029 176.0
114.165642 156.0
114.199142 168.0
114.217834 104.0
114.272629 108.0
114.346481 304.0
114.402519 232.0
114.46096 160.0
114.616943 220.0
114.683006 216.0
114.74575 120.0
114.804131 204.0
114.822807 324.0
114.881317 172.0
114.943192 156.0
114.975204 216.0
115.039238 156.0
115.057953 136.0
115.243294 124.0
115.348991 144.0
115.396027 148.0
115.449486 140.0
115.567139 156.0
115.663002 236.0
115.785484 204.0
115.859543 292.0
115.875168 180.0
115.969742 196.0
116.023621 180.0
116.08918 124.0
116.135139 208.0
116.381645 168.0
116.480431 144.0
116.514809 180.0
116.767075 304.0
116.888931 160.0
116.911407 140.0
116.934128 176.0
117.076225 224.0
117.101959 160.0
117.170998 176.0
117.191383 156.0
117.214096 156.0
117.260262 180.0
117.277817 152.0
117.464188 148.0
117.490082 200.0
117.575386 160.0
117.661293 204.0
117.713623 140.0
117.816544 128.0
117.86647 196.0
117.911148 172.0
117.939247 216.0
117.954376 140.0
117.969513 204.0
118.066811 184.0
118.087822 168.0
118.107903 204.0
118.235382 144.0
118.300499 180.0
118.599434 144.0
118.646118 164.0
118.679649 152.0
118.762589 164.0
118.819885 140.0
118.832603 192.0
118.957352 200.0
119.018143 212.0
119.057228 212.0
119.085464 144.0
119.124565 188.0
119.161034 208.0
119.241898 180.0
119.461517 176.0
119.522438 160.0
119.595573 152.0
119.642143 152.0
119.74231 152.0
119.824417 168.0
119.895966 160.0
119.960938 108.0
120.038704 188.0
120.086678 140.0
120.16803 180.0
120.36821 176.0
120.420624 140.0
120.44902 204.0
120.556076 176.0
120.623833 148.0
120.643509 168.0
120.660019 176.0
120.678871 160.0
120.948639 144.0
121.006683 224.0
121.022011 180.0
121.052559 124.0
121.07019 152.0
121.122757 140.0
121.184097 176.0
121.230621 156.0
121.315117 128.0
121.328308 260.0
121.364426 192.0
121.450539 176.0
121.53492 316.0
121.570892 160.0
121.661591 168.0
121.773819 132.0
121.806267 188.0
121.848892 272.0
121.872734 132.0
121.941193 164.0
122.034683 312.0
122.058556 248.0
122.088295 132.0
122.17868 188.0
122.231483 180.0
122.389969 144.0
122.474571 208.0
122.576469 120.0
122.61026 232.0
122.64994 164.0
122.799179 184.0
122.843987 144.0
122.861641 148.0
122.921211 316.0
122.958969 148.0
123.001007 156.0
123.027153 200.0
123.080147 176.0
123.110153 184.0
123.150818 152.0
123.209732 180.0
123.257301 160.0
123.375687 184.0
123.444756 228.0
123.493416 164.0
123.673927 140.0
123.698494 128.0
123.796623 168.0
123.90435 176.0
124.000443 140.0
124.020393 172.0
124.037605 604.0
124.124588 148.0
124.14518 112.0
124.180946 212.0
124.299835 288.0
124.408707 172.0
124.444115 204.0
124.506287 156.0
124.63958 188.0
124.666245 200.0
124.797394 172.0
124.844093 204.0
124.925201 180.0
124.944191 140.0
125.01355 188.0
125.05072 188.0
125.079941 140.0
125.113327 168.0
125.135597 180.0
125.189034 172.0
125.286316 368.0
125.326019 152.0
125.351654 140.0
125.438583 252.0
125.483826 108.0
125.547836 172.0
125.741936 360.0
125.782112 196.0
125.8022 212.0
125.924454 132.0
125.942886 140.0
125.967453 144.0
126.012077 152.0
126.052353 156.0
126.099327 224.0
126.159637 160.0
126.222244 156.0
126.298286 172.0
126.367638 192.0
126.482872 156.0
126.589241 160.0
126.604912 152.0
126.669868 148.0
126.749596 164.0
126.88501 144.0
126.988411 220.0
127.064804 168.0
127.087257 680.0
127.121788 400.0
127.15419 196.0
127.261986 224.0
127.336052 336.0
127.41243 180.0
127.538269 212.0
127.589828 140.0
127.639992 148.0
127.685539 144.0
127.753242 188.0
127.868904 180.0
127.888992 200.0
128.006317 120.0
128.093094 156.0
128.124313 196.0
128.190964 160.0
128.321701 152.0
128.354187 136.0
128.459259 260.0
128.495361 192.0
128.538239 164.0
128.583374 152.0
128.671402 196.0
128.698502 160.0
128.730728 148.0
128.797867 156.0
128.843048 204.0
128.865646 216.0
128.908569 152.0
128.953781 204.0
128.985413 184.0
129.061462 200.0
129.089417 164.0
129.138809 1696.0
129.365463 280.0
129.471878 200.0
129.58287 156.0
129.632721 168.0
129.678055 164.0
129.744919 136.0
129.768738 164.0
129.863983 296.0
129.99826 172.0
130.071594 168.0
130.121231 184.0
130.14447 140.0
130.162949 152.0
130.206696 228.0
130.227142 164.0
130.268692 96.0
130.331635 156.0
130.369766 196.0
130.431641 248.0
130.529404 276.0
130.565781 232.0
130.595352 172.0
130.629471 180.0
130.652863 172.0
130.725037 220.0
130.759171 184.0
130.788757 204.0
130.832016 164.0
130.950562 132.0
131.028656 164.0
131.078003 204.0
131.116745 164.0
131.166611 192.0
131.20668 212.0
131.267212 164.0
131.30838 216.0
131.372284 172.0
131.437439 220.0
131.481659 292.0
131.50676 148.0
131.639984 180.0
131.700836 144.0
131.898239 124.0
132.008423 468.0
132.028931 276.0
132.072067 252.0
132.108704 132.0
132.129745 144.0
132.219559 172.0
132.359283 168.0
132.430496 172.0
132.489563 132.0
132.544174 340.0
132.627548 156.0
132.825928 116.0
132.930923 200.0
133.009598 436.0
133.038162 208.0
133.084412 360.0
133.123123 204.0
133.237961 220.0
133.332184 200.0
133.360214 160.0
133.398834 292.0
133.511505 176.0
133.561737 232.0
133.626511 168.0
133.743881 180.0
133.80603 192.0
133.852081 264.0
133.987198 212.0
134.080154 180.0
134.132599 176.0
134.172363 180.0
134.218475 152.0
134.285355 152.0
134.36972 160.0
134.402939 140.0
134.506866 180.0
134.645233 168.0
134.70314 204.0
134.744568 176.0
134.828766 180.0
134.856735 120.0
134.927307 164.0
134.965302 168.0
134.993607 184.0
135.031906 344.0
135.110092 128.0
135.225723 208.0
135.303162 168.0
135.415314 152.0
135.461899 220.0
135.526978 196.0
135.641556 132.0
135.695969 148.0
135.805954 160.0
135.881592 188.0
135.959747 400.0
135.985947 180.0
136.041046 344.0
136.078812 160.0
136.106018 220.0
136.194916 156.0
136.250671 156.0
136.283371 308.0
136.393784 164.0
136.431946 204.0
136.485428 196.0
136.545883 144.0
136.576416 160.0
136.70874 184.0
136.731384 176.0
136.766617 236.0
136.794861 192.0
136.939651 200.0
137.006378 164.0
137.02449 152.0
137.046387 172.0
137.089203 96.0
137.148926 324.0
137.20488 156.0
137.356949 152.0
137.389114 140.0
137.419449 148.0
137.491791 188.0
137.545135 164.0
137.578156 212.0
137.645859 120.0
137.685562 176.0
137.767319 184.0
137.786011 292.0
137.830063 188.0
137.901123 416.0
137.943939 180.0
137.999893 144.0
138.02121 560.0
138.126846 136.0
138.184875 240.0
138.225586 168.0
138.263184 320.0
138.319214 156.0
138.348389 164.0
138.376144 124.0
138.422226 196.0
138.473419 200.0
138.579163 196.0
138.596909 200.0
138.631882 200.0
138.670563 160.0
138.783081 148.0
138.832321 164.0
138.883926 148.0
139.024597 296.0
139.146759 196.0
139.224243 192.0
139.428635 224.0
139.474106 140.0
139.51796 268.0
139.545288 124.0
139.569626 136.0
139.577454 132.0
139.613953 148.0
139.746094 268.0
139.812393 160.0
139.86377 168.0
139.974426 144.0
140.019714 1084.0
140.044083 320.0
140.330231 144.0
140.425018 160.0
140.443237 232.0
140.46701 176.0
140.674667 240.0
140.724258 140.0
140.792206 212.0
140.909698 108.0
140.973618 168.0
140.997665 116.0
141.151932 316.0
141.234711 168.0
141.253632 248.0
141.296997 220.0
141.32869 188.0
141.445312 140.0
141.542374 236.0
141.575531 152.0
141.689758 312.0
141.74704 132.0
141.814835 164.0
141.833786 256.0
141.934921 160.0
141.973679 104.0
142.023346 132.0
142.061432 140.0
142.089905 160.0
142.127869 108.0
142.194321 152.0
142.215683 148.0
142.303574 176.0
142.315063 176.0
142.415024 188.0
142.455521 156.0
142.517288 160.0
142.546677 152.0
142.567184 144.0
142.600464 180.0
142.659088 160.0
142.816833 188.0
142.990524 132.0
143.092117 292.0
143.142319 100.0
143.166702 184.0
143.205826 140.0
143.316772 316.0
143.342987 188.0
143.391953 132.0
143.445465 188.0
143.476456 256.0
143.729233 164.0
143.78035 160.0
143.909668 180.0
143.933807 164.0
144.028976 144.0
144.073502 96.0
144.092834 184.0
144.164078 104.0
144.221252 160.0
144.26358 172.0
144.312012 108.0
144.448425 140.0
144.503326 316.0
144.57045 212.0
144.609512 200.0
144.62854 148.0
144.647888 160.0
144.67337 144.0
144.92485 248.0
145.001083 168.0
145.078247 140.0
145.204697 136.0
145.27066 456.0
145.404465 160.0
145.484833 248.0
145.522095 156.0
145.661377 156.0
145.685104 124.0
145.799484 120.0
145.922058 164.0
145.950851 136.0
146.018997 164.0
146.113342 140.0
146.173492 140.0
146.274582 196.0
146.294052 208.0
146.322723 140.0
146.397232 136.0
146.492767 152.0
146.537079 168.0
146.619019 156.0
146.684097 180.0
146.701584 156.0
146.869171 176.0
146.981812 180.0
147.031769 1492.0
147.061768 224.0
147.119293 168.0
147.250626 168.0
147.338318 124.0
147.367081 148.0
147.396698 116.0
147.511475 156.0
147.640244 256.0
147.683777 172.0
147.785385 140.0
147.823502 164.0
147.922592 184.0
147.999847 132.0
148.035599 376.0
148.096161 204.0
148.114029 308.0
148.146118 188.0
148.332718 152.0
148.388947 124.0
148.480621 220.0
148.513565 152.0
148.614853 156.0
148.665527 168.0
148.745102 188.0
148.789932 180.0
148.81546 188.0
148.885925 140.0
148.90535 184.0
148.93364 168.0
148.978226 168.0
149.017624 144.0
149.047485 4032.0
149.084366 152.0
149.113266 168.0
149.151413 208.0
149.309769 176.0
149.499527 204.0
149.527771 144.0
149.593491 160.0
149.622711 152.0
149.690689 152.0
149.749329 188.0
149.776901 164.0
149.813492 164.0
149.841904 148.0
149.86972 152.0
149.958878 188.0
149.999634 248.0
150.053162 1600.0
150.123444 128.0
150.17746 216.0
150.197128 132.0
150.365829 140.0
150.436966 148.0
150.541962 148.0
150.60791 176.0
150.656754 144.0
150.718338 156.0
150.749603 148.0
150.771606 164.0
150.808258 232.0
150.82782 144.0
150.933044 104.0
151.003372 356.0
151.060959 332.0
151.11438 160.0
151.224075 144.0
151.430206 220.0
151.446045 116.0
151.490982 148.0
151.508133 244.0
151.559586 312.0
151.643753 196.0
151.674774 152.0
151.72702 200.0
151.758377 116.0
151.85376 160.0
151.893524 172.0
151.956787 236.0
152.033676 560.0
152.064758 176.0
152.100311 132.0
152.177689 168.0
152.208282 160.0
152.237946 252.0
152.322586 144.0
152.401688 144.0
152.53392 140.0
152.556046 148.0
152.58194 128.0
152.707123 164.0
152.749817 156.0
152.772568 164.0
152.927231 156.0
152.990143 148.0
153.032104 248.0
153.069199 144.0
153.198212 140.0
153.267334 148.0
153.343735 172.0
153.43248 168.0
153.49913 136.0
153.524048 232.0
153.581512 304.0
153.619904 144.0
153.642105 192.0
153.665497 188.0
153.752197 180.0
153.837067 152.0
153.879272 124.0
153.939423 184.0
153.994537 140.0
154.150742 332.0
154.177933 172.0
154.221146 116.0
154.255035 104.0
154.298538 96.0
154.321304 140.0
154.346039 184.0
154.362778 232.0
154.380646 244.0
154.40831 152.0
154.435608 144.0
154.544846 96.0
154.618149 296.0
154.680038 140.0
154.722153 344.0
154.762253 172.0
154.836502 184.0
154.869125 120.0
154.888031 152.0
155.081314 244.0
155.118484 3124.0
155.16983 124.0
155.233902 124.0
155.259659 136.0
155.305161 100.0
155.329269 196.0
155.362549 184.0
155.44783 184.0
155.49527 208.0
155.530411 136.0
155.573532 160.0
155.599777 140.0
155.663788 128.0
155.70903 144.0
155.743805 204.0
155.836502 168.0
155.866135 212.0
155.892883 148.0
155.963684 112.0
156.013565 128.0
156.039047 164.0
156.060318 188.0
156.121078 576.0
156.185303 156.0
156.249969 164.0
156.334137 128.0
156.358948 148.0
156.430115 144.0
156.67572 252.0
156.826187 156.0
156.857162 112.0
156.924438 232.0
156.975433 208.0
156.982697 180.0
157.073044 180.0
157.08963 256.0
157.280151 136.0
157.340363 168.0
157.452438 200.0
157.512375 172.0
157.572342 232.0
157.707458 176.0
157.742279 164.0
157.932312 252.0
157.986374 204.0
158.072495 148.0
158.215088 156.0
158.239349 220.0
158.285202 356.0
158.347809 248.0
158.380371 264.0
158.408646 168.0
158.475983 340.0
158.529861 156.0
158.576721 132.0
158.640976 188.0
158.672211 220.0
158.718445 196.0
158.754959 164.0
158.783905 228.0
158.875565 200.0
158.975311 268.0
159.023758 168.0
159.054886 196.0
159.122665 292.0
159.140244 240.0
159.197021 164.0
159.275864 204.0
159.313538 236.0
159.355698 288.0
159.396454 168.0
159.431442 104.0
159.45929 376.0
159.486526 184.0
159.51207 156.0
159.607605 144.0
159.628662 172.0
159.652878 180.0
159.715744 200.0
159.76355 160.0
159.802002 212.0
159.852493 212.0
159.959396 180.0
160.110916 152.0
160.165268 144.0
160.314972 140.0
160.338913 128.0
160.418533 140.0
160.473785 164.0
160.537933 136.0
160.597351 160.0
160.681412 188.0
160.718445 156.0
160.767014 160.0
160.819397 164.0
160.855911 188.0
160.897644 204.0
160.942856 124.0
160.964554 144.0
161.016327 252.0
161.049164 144.0
161.080811 152.0
161.142639 292.0
161.162842 152.0
161.189575 144.0
161.233597 168.0
161.251297 284.0
161.373337 100.0
161.402985 228.0
161.507965 164.0
161.560532 204.0
161.655731 100.0
161.802002 124.0
161.835663 160.0
161.915848 156.0
161.949631 144.0
161.995224 192.0
162.038284 168.0
162.055252 236.0
162.118164 184.0
162.151062 216.0
162.202942 144.0
162.233429 140.0
162.254303 192.0
162.368332 168.0
162.502274 192.0
162.55809 152.0
162.586014 176.0
162.636017 160.0
162.664688 168.0
162.713531 152.0
162.751892 256.0
162.801804 408.0
162.827194 160.0
162.908691 192.0
162.976517 164.0
163.011597 220.0
163.233444 164.0
163.29866 320.0
163.5495 196.0
163.592575 172.0
163.681793 184.0
163.904282 124.0
163.975922 320.0
163.997589 180.0
164.038635 376.0
164.221268 176.0
164.288284 152.0
164.329117 168.0
164.396393 268.0
164.442139 180.0
164.474716 280.0
164.597122 160.0
164.678848 220.0
164.704391 152.0
164.774353 144.0
164.807098 140.0
164.827026 180.0
164.858917 216.0
164.977814 152.0
164.996841 320.0
165.040176 348.0
165.144028 160.0
165.28656 136.0
165.512558 180.0
165.548416 168.0
165.59343 124.0
165.645737 164.0
165.68161 172.0
165.738998 100.0
165.756897 228.0
165.794342 176.0
165.919952 164.0
165.994156 132.0
166.035126 144.0
166.071243 248.0
166.243835 132.0
166.322708 176.0
166.350128 100.0
166.4254 156.0
166.465332 160.0
166.54097 140.0
166.565674 212.0
166.699036 112.0
166.823624 164.0
166.845917 268.0
166.962097 188.0
167.018158 148.0
167.20752 292.0
167.226807 180.0
167.283234 200.0
167.317581 176.0
167.357635 128.0
167.440659 260.0
167.517029 204.0
167.557098 196.0
167.577759 192.0
167.601578 224.0
167.688522 380.0
167.718201 192.0
167.814835 200.0
167.907669 152.0
168.01207 2696.0
168.058594 148.0
168.143646 116.0
168.188614 176.0
168.250854 160.0
168.504745 132.0
168.584808 140.0
168.623093 200.0
168.738068 228.0
168.777298 128.0
168.864807 204.0
169.01619 576.0
169.129486 160.0
169.151398 144.0
169.218582 160.0
169.370605 224.0
169.404099 172.0
169.486618 168.0
169.531235 168.0
169.596039 196.0
169.734589 144.0
169.831985 156.0
169.888275 380.0
169.913086 160.0
169.947693 220.0
169.969482 208.0
169.991531 244.0
170.01506 172.0
170.04657 160.0
170.090958 160.0
170.212021 208.0
170.27063 208.0
170.28801 220.0
170.386246 292.0
170.660995 164.0
170.70723 140.0
170.809097 144.0
170.949158 252.0
171.002106 140.0
171.024643 160.0
171.071503 208.0
171.107941 160.0
171.151398 116.0
171.232452 128.0
171.303574 136.0
171.365799 180.0
171.415909 172.0
171.47879 212.0
171.536209 184.0
171.596497 280.0
171.637543 156.0
171.747864 176.0
171.808426 212.0
171.893311 104.0
171.91861 144.0
172.24498 144.0
172.358597 168.0
172.403595 164.0
172.452133 200.0
172.509201 180.0
172.593918 124.0
172.675888 172.0
172.708664 144.0
172.739029 148.0
172.783508 164.0
172.83287 180.0
172.86702 96.0
172.899277 296.0
172.994141 148.0
173.042236 196.0
173.075256 120.0
173.118546 192.0
173.168304 164.0
173.468658 192.0
173.568115 156.0
173.596008 164.0
173.658447 140.0
173.703033 148.0
173.85643 196.0
173.91777 160.0
173.971939 148.0
174.021225 184.0
174.07048 224.0
174.109879 248.0
174.138168 192.0
174.302963 156.0
174.341064 152.0
174.383698 216.0
174.419739 116.0
174.459351 196.0
174.509811 132.0
174.556625 144.0
174.646042 144.0
174.68927 228.0
174.753906 248.0
174.786926 212.0
174.87793 216.0
174.924866 184.0
174.977219 208.0
175.035355 156.0
175.080322 148.0
175.166809 156.0
175.216858 144.0
175.289749 256.0
175.39122 172.0
175.426285 240.0
175.53157 172.0
175.570511 184.0
175.812271 200.0
175.915024 176.0
175.956619 160.0
176.034988 196.0
176.198257 128.0
176.230713 160.0
176.264801 172.0
176.345032 192.0
176.406815 192.0
176.459076 136.0
176.496063 148.0
176.536163 148.0
176.627151 216.0
176.677277 228.0
176.707016 336.0
176.857224 176.0
176.899567 148.0
176.93663 168.0
176.975967 160.0
177.044907 168.0
177.11937 164.0
177.143204 180.0
177.196182 148.0
177.262436 208.0
177.29689 188.0
177.364273 136.0
177.471848 164.0
177.529266 140.0
177.676849 108.0
177.709412 152.0
177.872452 168.0
177.903961 124.0
177.968018 344.0
177.995468 1652.0
178.082779 208.0
178.104263 160.0
178.14209 140.0
178.190247 120.0
178.212921 120.0
178.249588 176.0
178.281479 216.0
178.376526 168.0
178.391647 232.0
178.431885 128.0
178.462372 156.0
178.549988 160.0
178.616486 156.0
178.667038 340.0
178.690979 176.0
178.731689 200.0
178.821976 140.0
178.859085 140.0
178.930511 168.0
178.951813 200.0
178.993378 340.0
179.053009 152.0
179.167877 96.0
179.283539 120.0
179.351425 156.0
179.532837 180.0
179.773514 196.0
179.818192 360.0
179.874069 120.0
179.914734 168.0
180.00885 608.0
180.08519 168.0
180.224106 208.0
180.253799 132.0
180.38446 160.0
180.470657 148.0
180.49733 160.0
180.575195 184.0
180.694687 200.0
180.714874 176.0
180.753647 120.0
180.813782 152.0
180.892731 144.0
180.916641 176.0
180.961136 196.0
180.991791 164.0
181.03389 188.0
181.057846 276.0
181.105835 204.0
181.172546 164.0
181.297165 144.0
181.404388 212.0
181.429886 328.0
181.541306 124.0
181.577301 148.0
181.610855 156.0
181.637207 156.0
181.726212 216.0
181.829575 184.0
181.873825 216.0
181.938568 164.0
181.980453 184.0
182.002686 204.0
182.095963 196.0
182.127945 220.0
182.14888 120.0
182.220245 144.0
182.336716 384.0
182.381485 164.0
182.445999 168.0
182.563217 156.0
182.616882 116.0
182.6642 116.0
182.71936 320.0
182.745132 144.0
182.895248 164.0
182.928192 132.0
182.97377 168.0
183.029282 132.0
183.050552 192.0
183.076294 196.0
183.124969 176.0
183.153748 152.0
183.174759 120.0
183.256256 300.0
183.301926 244.0
183.361206 152.0
183.396194 200.0
183.437622 104.0
183.495819 176.0
183.52124 360.0
183.560715 160.0
183.581467 160.0
183.606552 152.0
183.635361 200.0
183.676025 132.0
183.752213 148.0
183.783478 184.0
183.813751 164.0
183.831772 208.0
183.908737 204.0
183.930328 200.0
183.973526 160.0
184.064926 164.0
184.123734 156.0
184.180557 192.0
184.248627 148.0
184.267715 232.0
184.395294 112.0
184.419235 188.0
184.443558 140.0
184.462494 196.0
184.553116 104.0
184.59227 144.0
184.626968 240.0
184.801498 176.0
184.882187 168.0
184.923218 148.0
184.949387 212.0
184.968964 208.0
184.998123 140.0
185.019775 160.0
185.098297 212.0
185.122314 216.0
185.344803 168.0
185.450226 124.0
185.624008 144.0
185.649689 144.0
185.674683 220.0
185.722046 208.0
185.776566 216.0
185.803024 144.0
185.892563 140.0
185.930939 172.0
185.982925 256.0
186.278107 208.0
186.299835 180.0
186.340591 184.0
186.528107 156.0
186.547134 144.0
186.574646 112.0
186.740204 152.0
186.775558 140.0
186.877625 396.0
186.946884 128.0
186.971466 164.0
187.053116 156.0
187.183807 200.0
187.202866 176.0
187.259781 200.0
187.352676 164.0
187.384232 212.0
187.467651 180.0
187.543427 148.0
187.619064 224.0
187.64975 152.0
187.735123 244.0
187.767822 212.0
187.813446 136.0
187.854279 216.0
187.893921 152.0
187.990494 156.0
188.01207 160.0
188.039841 160.0
188.139755 152.0
188.179062 164.0
188.251953 192.0
188.272903 120.0
188.301941 272.0
188.370224 144.0
188.419403 168.0
188.591568 160.0
188.64624 164.0
188.716583 208.0
188.736038 204.0
188.794159 148.0
188.88414 152.0
188.975479 212.0
189.041855 124.0
189.148407 144.0
189.17421 188.0
189.269104 236.0
189.378937 204.0
189.533005 140.0
189.615219 148.0
189.707321 140.0
189.741302 304.0
189.781036 220.0
189.848251 148.0
189.870193 356.0
189.909424 216.0
189.999115 184.0
190.110245 176.0
190.248856 216.0
190.320236 156.0
190.480896 120.0
190.553711 164.0
190.622391 208.0
190.713699 112.0
190.790207 152.0
190.839554 148.0
190.892868 124.0
190.944931 100.0
190.970734 212.0
191.037994 132.0
191.067841 160.0
191.088821 208.0
191.19368 180.0
191.254959 172.0
191.42688 136.0
191.601944 240.0
191.635513 132.0
191.736969 204.0
191.786575 168.0
191.847229 188.0
191.897964 148.0
191.921661 140.0
191.991226 196.0
192.115921 380.0
192.169907 204.0
192.197327 128.0
192.203659 120.0
192.237976 204.0
192.296326 188.0
192.349289 140.0
192.42659 148.0
192.47905 156.0
192.519745 164.0
192.605927 132.0
192.669632 204.0
192.68898 192.0
192.74147 148.0
192.782928 336.0
192.838196 196.0
192.905151 160.0
193.02066 216.0
193.116867 132.0
193.172775 320.0
193.22876 120.0
193.269608 156.0
193.301514 128.0
193.424728 160.0
193.500793 148.0
193.52832 140.0
193.557495 144.0
193.652802 112.0
193.819168 128.0
193.970306 168.0
194.016861 156.0
194.185028 128.0
194.267029 168.0
194.286438 216.0
194.34848 124.0
194.388138 148.0
194.529602 148.0
194.641068 172.0
194.727097 188.0
194.850037 192.0
194.915436 208.0
195.015106 336.0
195.084122 104.0
195.103973 280.0
195.169662 188.0
195.189133 316.0
195.227707 152.0
195.295364 184.0
195.327881 180.0
195.356369 156.0
195.386612 156.0
195.429565 192.0
195.47142 360.0
195.516785 144.0
195.553345 188.0
195.598022 124.0
195.676071 208.0
195.731842 148.0
195.777771 360.0
195.801376 180.0
195.828903 208.0
195.866776 192.0
195.907318 132.0
195.931213 236.0
195.965195 176.0
196.007187 97628.0
196.074554 152.0
196.111038 112.0
196.176834 220.0
196.317215 184.0
196.453156 192.0
196.513611 160.0
196.538239 176.0
196.582291 216.0
196.611847 296.0
196.677094 140.0
196.854568 228.0
196.891632 100.0
196.958893 164.0
197.009155 7568.0
197.040634 196.0
197.136993 180.0
197.194687 184.0
197.253799 108.0
197.295837 132.0
197.352951 180.0
197.427979 192.0
197.646637 132.0
197.697632 108.0
197.752991 264.0
197.938614 236.0
197.962357 328.0
198.003036 2700.0
198.072891 160.0
198.124329 112.0
198.177002 192.0
198.239105 160.0
198.262192 188.0
198.378159 192.0
198.449829 120.0
198.468109 208.0
198.509125 152.0
198.566681 144.0
198.595886 172.0
198.641251 268.0
198.675446 148.0
198.74295 164.0
198.806854 168.0
198.870056 176.0
198.986008 292.0
199.011047 248.0
199.024582 228.0
199.053833 188.0
199.081909 164.0
199.109985 148.0
199.187531 236.0
199.224899 176.0
199.318558 220.0
199.369919 164.0
199.396561 208.0
199.447159 164.0
199.584915 160.0
199.639603 196.0
199.705841 192.0
199.785156 164.0
199.994873 260.0
200.06604 140.0
200.139236 184.0
200.176453 492.0
200.212448 164.0
200.278122 212.0
200.30191 152.0
200.372131 152.0
200.436493 144.0
200.47757 176.0
200.526398 168.0
200.567459 220.0
200.598465 188.0
200.630386 124.0
200.655945 124.0
200.810181 148.0
200.841507 192.0
200.917145 168.0
200.984863 164.0
201.176483 168.0
201.235992 160.0
201.303833 144.0
201.365967 188.0
201.532639 152.0
201.597641 180.0
201.666168 96.0
201.71669 132.0
201.831299 188.0
201.881561 192.0
202.045044 156.0
202.105835 164.0
202.177383 308.0
202.214172 148.0
202.292633 184.0
202.463654 280.0
202.491638 192.0
202.600311 156.0
202.701996 112.0
202.85495 168.0
202.888351 144.0
202.925415 168.0
202.983704 172.0
203.045334 144.0
203.089691 140.0
203.142441 188.0
203.200653 212.0
203.282623 156.0
203.346802 272.0
203.404663 144.0
203.517014 168.0
203.626129 156.0
203.679886 152.0
203.816467 524.0
203.851486 224.0
203.914764 136.0
204.10553 156.0
204.151917 156.0
204.207764 192.0
204.273102 112.0
204.584412 164.0
204.690796 220.0
204.739777 156.0
204.769043 144.0
204.804718 296.0
204.834351 148.0
204.888977 152.0
204.920181 200.0
205.030945 204.0
205.13028 104.0
205.185287 160.0
205.216675 156.0
205.301956 368.0
205.405029 120.0
205.438675 152.0
205.493561 200.0
205.693329 336.0
205.800171 172.0
205.864639 172.0
205.964615 316.0
206.103516 144.0
206.141754 188.0
206.184906 160.0
206.350418 160.0
206.380005 172.0
206.544693 124.0
206.576859 132.0
206.602753 104.0
206.668472 196.0
206.703812 132.0
206.779495 148.0
206.838425 144.0
206.920441 204.0
206.977036 140.0
207.082993 156.0
207.209045 148.0
207.265228 144.0
207.327393 132.0
207.518585 152.0
207.618149 188.0
207.658234 224.0
207.697403 204.0
207.726547 224.0
207.759506 224.0
207.863998 148.0
207.980453 152.0
208.037231 156.0
208.201599 180.0
208.522675 160.0
208.566437 172.0
208.612808 180.0
208.670776 180.0
208.721298 144.0
208.764816 344.0
208.797745 256.0
208.941467 164.0
209.009338 192.0
209.05368 136.0
209.13916 176.0
209.165634 232.0
209.251114 148.0
209.318634 240.0
209.422073 184.0
209.462448 156.0
209.565063 176.0
209.593201 208.0
209.634094 148.0
209.763916 164.0
209.855362 200.0
209.901169 132.0
209.93837 140.0
210.070877 180.0
210.153259 156.0
210.18869 200.0
210.282455 176.0
210.430344 140.0
210.615173 188.0
210.710052 208.0
210.837646 180.0
210.881439 380.0
210.949081 188.0
211.049774 292.0
211.154526 132.0
211.22142 276.0
211.27861 216.0
211.314499 220.0
211.406601 168.0
211.456558 180.0
211.485504 144.0
211.554871 200.0
211.65921 172.0
211.772156 160.0
211.900864 168.0
212.095169 152.0
212.192108 140.0
212.21904 236.0
212.351074 176.0
212.377792 152.0
212.418564 180.0
212.554916 172.0
212.683655 180.0
212.752289 188.0
212.849014 296.0
212.972992 180.0
213.047134 124.0
213.238892 272.0
213.347855 148.0
213.473923 168.0
213.525223 152.0
213.607635 120.0
213.643234 140.0
213.718674 272.0
213.78125 172.0
213.828873 328.0
213.874222 148.0
213.931244 120.0
214.017502 41312.0
214.095566 156.0
214.23317 152.0
214.344177 192.0
214.396622 208.0
214.49646 208.0
214.656799 156.0
214.742203 176.0
214.782684 156.0
214.833099 124.0
214.884476 124.0
214.981903 220.0
215.020599 3304.0
215.089905 144.0
215.119949 148.0
215.184692 136.0
215.227829 132.0
215.250473 152.0
215.315369 224.0
215.376053 212.0
215.397064 184.0
215.462372 124.0
215.521683 216.0
215.541122 192.0
215.59227 300.0
215.612198 176.0
215.649109 232.0
215.714264 260.0
215.806335 136.0
215.932907 148.0
215.981583 128.0
216.015503 1548.0
216.070312 124.0
216.137711 220.0
216.26886 132.0
216.340515 216.0
216.421585 96.0
216.535156 184.0
216.559891 192.0
216.576889 412.0
216.6427 276.0
216.667343 204.0
216.7155 132.0
216.748947 108.0
216.910568 152.0
217.021011 156.0
217.075989 160.0
217.09996 148.0
217.134079 196.0
217.203522 132.0
217.255722 144.0
217.332657 160.0
217.422668 152.0
217.464478 180.0
217.5215 132.0
217.61348 164.0
217.636963 144.0
217.664581 228.0
217.695206 144.0
217.78006 132.0
218.180511 148.0
218.271667 160.0
218.356949 148.0
218.389709 148.0
218.421661 336.0
218.448135 160.0
218.488708 136.0
218.525955 164.0
218.550446 108.0
218.583466 140.0
218.60701 216.0
218.686478 160.0
218.724747 160.0
218.78656 148.0
219.024078 204.0
219.04866 152.0
219.080353 216.0
219.15094 212.0
219.213654 164.0
219.302139 176.0
219.330643 184.0
219.370056 120.0
219.458313 208.0
219.484543 116.0
219.660645 152.0
219.715179 180.0
219.748917 128.0
219.84668 192.0
219.914093 116.0
220.004135 172.0
220.095261 116.0
220.19902 144.0
220.261154 156.0
220.296494 164.0
220.317184 152.0
220.365494 124.0
220.420593 200.0
220.637589 192.0
220.791687 104.0
220.833603 108.0
220.861099 236.0
220.893646 156.0
220.932098 180.0
220.955765 140.0
220.997757 272.0
221.05217 172.0
221.114273 128.0
221.178268 128.0
221.2332 140.0
221.284714 168.0
221.332825 184.0
221.39978 300.0
221.447174 184.0
221.505249 112.0
221.618988 300.0
221.648529 156.0
221.707886 160.0
221.798645 116.0
221.829407 164.0
221.859451 148.0
221.915207 184.0
221.999817 264.0
222.104996 124.0
222.203094 148.0
222.428635 192.0
222.490967 224.0
222.547379 196.0
222.573029 120.0
222.698837 148.0
222.743393 252.0
222.805267 184.0
222.916138 140.0
222.957321 252.0
223.13916 280.0
223.353851 176.0
223.523315 172.0
223.657547 156.0
223.686386 140.0
223.709869 160.0
223.743759 156.0
223.880753 124.0
223.903412 160.0
224.117889 172.0
224.184723 224.0
224.39743 168.0
224.706558 112.0
224.741074 228.0
224.770432 100.0
224.800751 280.0
224.838715 228.0
224.90062 184.0
224.948914 128.0
224.980759 156.0
225.047501 132.0
225.279694 160.0
225.429825 160.0
225.548981 120.0
225.817505 260.0
225.840469 140.0
225.933197 208.0
226.23024 300.0
226.271225 148.0
226.397156 144.0
226.428864 184.0
226.641449 276.0
226.672668 128.0
226.729691 152.0
226.798172 184.0
226.849594 140.0
226.916382 144.0
227.017502 152.0
227.047485 156.0
227.080475 148.0
227.110474 184.0
227.136063 136.0
227.248474 332.0
227.26918 160.0
227.397156 204.0
227.431534 168.0
227.491638 172.0
227.591766 172.0
227.63472 168.0
227.684189 132.0
227.733017 128.0
227.79361 128.0
227.894012 152.0
227.939087 160.0
227.977264 144.0
228.075119 188.0
228.188568 204.0
228.254715 172.0
228.302841 168.0
228.332916 168.0
228.532959 120.0
228.561432 108.0
228.645584 220.0
228.766205 180.0
228.856522 156.0
228.886642 164.0
228.97699 172.0
228.998062 160.0
229.033478 116.0
229.117126 268.0
229.222733 280.0
229.288559 180.0
229.353607 200.0
229.494263 116.0
229.590439 248.0
229.64418 196.0
229.67189 260.0
229.734634 192.0
229.921127 168.0
230.113358 148.0
230.155334 108.0
230.216507 148.0
230.343567 180.0
230.421906 188.0
230.517014 132.0
230.642517 228.0
230.844498 104.0
230.889542 188.0
231.042053 132.0
231.06575 168.0
231.114304 156.0
231.199036 140.0
231.27153 132.0
231.338272 148.0
231.474518 184.0
231.5896 140.0
231.616867 240.0
231.674423 148.0
231.708176 144.0
231.738663 176.0
231.826752 220.0
231.857742 264.0
231.910782 148.0
231.990433 204.0
232.030563 172.0
232.124649 304.0
232.22612 152.0
232.267975 140.0
232.359589 152.0
232.390976 340.0
232.506134 164.0
232.576553 332.0
232.656525 100.0
232.761108 128.0
232.793503 160.0
232.839203 180.0
232.983612 136.0
233.034256 212.0
233.079193 148.0
233.101822 108.0
233.232788 172.0
233.308228 148.0
233.460861 124.0
233.483047 160.0
233.541306 364.0
233.565643 168.0
233.666031 160.0
233.705582 152.0
233.842529 160.0
233.90213 160.0
234.016342 192.0
234.124084 96.0
234.202682 168.0
234.248367 144.0
234.347549 188.0
234.388947 264.0
234.47908 188.0
234.499619 156.0
234.534988 140.0
234.600845 152.0
234.661896 148.0
234.714035 148.0
234.789062 172.0
234.976044 144.0
235.236298 144.0
235.477936 208.0
235.537201 152.0
235.596542 284.0
235.660049 140.0
235.705887 180.0
235.733383 148.0
235.832916 184.0
235.93512 220.0
235.992661 156.0
236.028458 132.0
236.068069 224.0
236.112473 176.0
236.299072 156.0
236.519745 148.0
236.596817 168.0
236.793472 284.0
236.945084 152.0
236.973953 132.0
237.058456 140.0
237.07991 156.0
237.220276 176.0
237.250153 104.0
237.40686 160.0
237.478485 196.0
237.76564 148.0
237.797577 220.0
238.067749 140.0
238.104401 124.0
238.145447 160.0
238.187378 284.0
238.275925 140.0
238.322906 256.0
238.378159 184.0
238.507874 136.0
238.659378 196.0
238.728394 156.0
238.828949 324.0
238.857651 180.0
238.878677 164.0
238.916107 164.0
238.989166 192.0
239.026871 144.0
239.061798 172.0
239.098831 208.0
239.20491 156.0
239.26387 148.0
239.316208 188.0
239.37767 100.0
239.424301 256.0
239.578003 184.0
239.614609 136.0
239.647217 224.0
239.735138 168.0
239.773209 136.0
239.8125 160.0
239.851013 304.0
239.890854 116.0
239.938583 140.0
240.001831 196.0
240.074799 184.0
240.125931 148.0
240.158081 224.0
240.226181 188.0
240.266403 136.0
240.307037 104.0
240.339554 188.0
240.367157 152.0
240.416016 200.0
240.473648 168.0
240.549423 160.0
240.616562 192.0
240.667526 196.0
240.701996 152.0
240.745285 144.0
240.777527 128.0
240.85762 108.0
240.880859 120.0
240.922546 364.0
240.976318 228.0
241.019867 252.0
241.117584 212.0
241.181656 268.0
241.2043 420.0
241.24234 460.0
241.311447 436.0
241.337433 316.0
241.402939 312.0
241.469666 196.0
241.511353 128.0
241.539536 244.0
241.565933 236.0
241.653397 456.0
241.702881 364.0
241.743042 448.0
241.769058 468.0
241.848969 332.0
241.906281 380.0
241.944916 536.0
242.004517 872.0
242.050903 247776.0
242.168518 108.0
242.258881 316.0
242.339966 444.0
242.420044 280.0
242.445877 488.0
242.468369 388.0
242.497879 220.0
242.525513 372.0
242.559052 12404.0
242.66156 164.0
242.674713 320.0
242.716293 176.0
242.762573 148.0
242.784134 144.0
242.83342 288.0
242.874298 212.0
242.903412 360.0
242.975342 144.0
243.051834 74304.0
243.132156 180.0
243.160751 148.0
243.194855 100.0
243.23674 308.0
243.285217 188.0
243.337006 268.0
243.412979 184.0
243.469772 144.0
243.525879 140.0
243.584473 312.0
243.642776 232.0
243.671936 364.0
243.767883 164.0
243.838959 140.0
243.875519 240.0
243.913132 360.0
243.95163 176.0
244.046692 26588.0
244.112122 148.0
244.171295 144.0
244.245148 156.0
244.267563 256.0
244.295624 232.0
244.332977 136.0
244.388062 348.0
244.408249 196.0
244.454681 220.0
244.527664 328.0
244.582352 420.0
244.616135 224.0
244.650528 112.0
244.670807 296.0
244.702286 316.0
244.776993 104.0
244.80365 432.0
244.835175 216.0
244.876678 676.0
244.929642 208.0
244.979767 120.0
245.050522 1576.0
245.300766 120.0
245.353714 116.0
245.437851 152.0
245.506439 112.0
245.565643 208.0
245.627884 228.0
245.700943 108.0
245.781647 224.0
245.806534 296.0
245.854248 148.0
245.939468 288.0
245.998596 156.0
246.048843 224.0
246.123672 192.0
246.148865 128.0
246.192993 108.0
246.264023 132.0
246.337082 160.0
246.39679 140.0
246.420929 160.0
246.461151 120.0
246.49707 156.0
246.622299 196.0
246.65831 100.0
246.693832 172.0
246.766266 152.0
246.899612 144.0
246.925583 168.0
246.969376 196.0
247.028442 136.0
247.249695 176.0
247.296631 184.0
247.34227 236.0
247.394958 140.0
247.542877 148.0
247.610199 104.0
247.674286 120.0
247.832947 204.0
247.869751 108.0
248.011002 164.0
248.067825 132.0
248.110733 152.0
248.228394 148.0
248.287979 200.0
248.309937 152.0
248.504272 128.0
248.545212 140.0
248.581589 236.0
248.666626 192.0
248.69899 200.0
248.787201 160.0
249.025543 200.0
249.076126 112.0
249.157333 188.0
249.23288 212.0
249.259705 156.0
249.295624 120.0
249.339523 120.0
249.373245 204.0
249.511749 104.0
249.548264 188.0
249.606949 156.0
249.635239 140.0
249.761047 168.0
249.889786 148.0
249.974991 144.0
250.056824 164.0
250.272263 124.0
250.296082 144.0
250.371658 168.0
250.428345 160.0
250.462433 156.0
250.502609 104.0
250.686691 192.0
250.733124 180.0
250.782333 184.0
250.89473 140.0
251.072403 196.0
251.117859 152.0
251.412018 148.0
251.501526 200.0
251.674026 140.0
251.768768 248.0
251.837982 344.0
251.87616 300.0
252.280655 144.0
252.353363 152.0
252.405869 280.0
252.457352 176.0
252.535431 160.0
252.560852 184.0
252.609543 148.0
252.745575 228.0
252.877731 100.0
253.001953 156.0
253.106308 108.0
253.297775 112.0
253.327057 124.0
253.353485 144.0
253.560303 164.0
253.594315 192.0
253.618973 144.0
253.691696 104.0
253.773773 184.0
253.84877 232.0
253.96846 152.0
254.008911 128.0
254.202011 156.0
254.239639 128.0
254.350876 124.0
254.406372 156.0
254.444473 168.0
254.525665 200.0
254.561401 156.0
254.625259 124.0
254.775055 180.0
254.926865 120.0
255.123383 144.0
255.151688 100.0
255.365448 176.0
255.456894 176.0
255.534622 140.0
255.707809 140.0
255.795578 144.0
255.919754 164.0
256.019836 168.0
256.257385 164.0
256.451752 140.0
256.571136 152.0
256.63028 364.0
256.654236 104.0
256.72406 100.0
256.913269 132.0
257.091461 176.0
257.205719 200.0
257.303497 156.0
257.49939 200.0
257.537903 188.0
257.619659 140.0
257.747467 188.0
257.779877 196.0
257.836517 176.0
257.913666 268.0
257.961273 116.0
258.011292 96.0
258.125641 120.0
258.198212 204.0
258.246185 168.0
258.297363 156.0
258.319763 196.0
258.401672 172.0
258.599457 196.0
258.851074 160.0
259.073181 444.0
259.205566 108.0
259.234558 180.0
259.297363 192.0
259.604156 192.0
259.652252 172.0
259.913055 176.0
259.945404 160.0
260.084259 392.0
260.19455 156.0
260.307373 180.0
260.361542 192.0
260.390442 276.0
260.445038 168.0
260.541412 220.0
260.623627 136.0
260.728485 220.0
261.004242 144.0
261.062042 144.0
261.152863 176.0
261.409546 148.0
261.53186 144.0
261.69165 220.0
261.789429 208.0
261.876556 144.0
261.92218 168.0
261.989136 164.0
262.219818 224.0
262.250153 152.0
262.282379 172.0
262.36618 320.0
262.595245 120.0
262.634766 196.0
262.773773 176.0
262.862915 156.0
262.940369 204.0
262.972443 144.0
263.011383 160.0
263.095306 148.0
263.307343 144.0
263.434387 160.0
263.499023 140.0
263.841583 236.0
263.982239 144.0
264.174377 196.0
264.249115 364.0
264.307343 172.0
264.569519 216.0
264.724945 180.0
264.95166 172.0
265.044312 196.0
265.082214 180.0
265.151001 176.0
265.172791 164.0
265.235596 156.0
265.310944 164.0
265.654999 156.0
266.058899 176.0
266.224121 260.0
266.414825 160.0
266.704041 304.0
266.730042 140.0
266.75592 96.0
266.87793 296.0
267.198334 156.0
267.332489 120.0
267.374054 156.0
267.517273 172.0
267.545654 168.0
267.588898 180.0
267.740631 148.0
267.82605 160.0
267.836578 132.0
267.89502 148.0
268.030853 152.0
268.106812 208.0
268.328491 152.0
268.366821 132.0
268.57132 104.0
268.791656 192.0
268.896851 120.0
269.049408 136.0
269.168915 168.0
269.290131 140.0
269.336884 276.0
269.38092 148.0
269.493683 152.0
269.534668 148.0
269.69632 180.0
269.815186 168.0
269.84668 168.0
270.013458 244.0
270.044312 164.0
270.095215 152.0
270.290894 124.0
270.390381 192.0
270.56311 148.0
270.793457 156.0
270.933258 220.0
270.99765 132.0
271.126587 272.0
271.199524 128.0
271.234772 232.0
271.277374 164.0
271.320007 180.0
271.44986 152.0
271.477386 168.0
271.552826 140.0
271.745728 184.0
271.834961 168.0
271.896545 152.0
272.097534 260.0
272.21991 224.0
272.279846 100.0
272.343842 196.0
272.442383 140.0
272.628052 132.0
273.098114 156.0
273.233765 220.0
273.576965 152.0
273.614075 104.0
273.754791 232.0
274.042999 152.0
274.144043 148.0
274.202423 160.0
274.245667 168.0
274.338531 164.0
274.367645 160.0
274.446411 228.0
274.483948 252.0
274.572083 192.0
274.608368 176.0
274.705933 132.0
274.75351 144.0
274.833984 164.0
275.049133 172.0
275.140015 148.0
275.27832 188.0
275.464996 108.0
275.535858 116.0
275.580627 208.0
275.863159 144.0
275.952423 148.0
276.017761 168.0
276.110291 172.0
276.250061 156.0
276.296844 228.0
276.441956 140.0
276.565063 148.0
276.704163 260.0
276.817871 116.0
277.012085 156.0
277.176849 160.0
277.268097 300.0
277.317993 172.0
277.39917 352.0
277.494049 116.0
277.613495 100.0
277.681732 132.0
277.709808 160.0
277.830292 176.0
277.870117 168.0
277.973633 160.0
278.142242 172.0
278.181152 124.0
278.211639 168.0
278.31488 176.0
278.364288 120.0
278.498901 184.0
278.656982 172.0
278.756653 160.0
279.085236 236.0
279.365417 164.0
279.430634 376.0
279.491241 428.0
279.618011 152.0
279.739594 144.0
279.853668 132.0
279.998108 148.0
280.062378 164.0
280.194092 148.0
280.232025 188.0
280.25946 168.0
280.33905 120.0
280.401794 144.0
280.495544 120.0
280.790771 152.0
280.820801 152.0
280.890839 140.0
280.980927 160.0
281.194489 184.0
281.249939 172.0
281.309937 108.0
281.381409 184.0
281.64859 156.0
281.681976 164.0
281.70871 232.0
281.813965 308.0
281.87912 148.0
282.108978 196.0
282.240173 416.0
282.286926 176.0
282.360504 108.0
282.527771 244.0
282.695343 184.0
282.781555 152.0
282.819977 372.0
283.21402 140.0
283.260406 132.0
283.556915 140.0
283.748322 144.0
284.031067 132.0
284.088928 140.0
284.26004 160.0
284.323792 216.0
284.665314 104.0
284.928223 152.0
284.972565 120.0
285.055054 156.0
285.107361 152.0
285.153351 148.0
285.211182 156.0
285.310608 196.0
285.38092 144.0
285.425659 144.0
285.461151 188.0
285.583344 168.0
285.802399 156.0
285.923553 224.0
286.179504 112.0
286.230896 336.0
286.375977 96.0
286.469025 192.0
286.52655 108.0
286.566742 180.0
286.701538 168.0
286.799255 140.0
286.856567 184.0
286.900391 180.0
286.946869 168.0
287.011658 160.0
287.109467 140.0
287.219299 268.0
287.258453 136.0
287.296082 164.0
287.382111 140.0
287.576752 120.0
287.629059 140.0
287.69516 212.0
287.77478 228.0
287.839142 124.0
287.902557 144.0
288.143951 136.0
288.176147 148.0
288.279602 100.0
288.391815 148.0
288.47229 216.0
288.507385 260.0
288.619232 124.0
288.7948 140.0
288.87146 188.0
288.95108 104.0
289.004547 200.0
289.136536 196.0
289.224518 320.0
289.259888 232.0
289.291901 212.0
289.495392 152.0
289.582031 212.0
289.690521 124.0
289.744354 168.0
289.80365 200.0
289.980194 128.0
290.04425 156.0
290.204254 144.0
290.288147 144.0
290.437592 168.0
290.489746 156.0
290.546936 104.0
290.599701 164.0
290.707031 164.0
290.753143 236.0
290.85498 256.0
290.889374 144.0
290.995514 140.0
291.065247 124.0
291.323578 172.0
291.384735 140.0
291.559235 160.0
291.603973 124.0
291.66156 192.0
291.772186 144.0
291.802551 184.0
291.832306 224.0
291.966003 164.0
292.068054 156.0
292.105469 296.0
292.16861 368.0
292.182251 304.0
292.268158 112.0
292.341736 228.0
292.413727 156.0
292.728973 104.0
292.891785 180.0
293.045105 144.0
293.070007 108.0
293.17981 232.0
293.31192 108.0
293.39447 96.0
293.467743 216.0
293.638245 376.0
293.730347 196.0
294.037201 288.0
294.17807 132.0
294.372009 148.0
294.440308 184.0
294.648682 200.0
294.687622 172.0
294.76474 116.0
294.842316 120.0
294.890686 160.0
294.960205 100.0
295.069061 152.0
295.092987 180.0
295.145813 168.0
295.232391 156.0
295.378815 116.0
295.551331 152.0
295.729279 148.0
295.972351 180.0
296.11618 168.0
296.26004 220.0
296.518829 160.0
296.62674 332.0
296.724396 296.0
296.847839 168.0
296.944458 240.0
297.026947 96.0
297.116302 196.0
297.161743 208.0
297.26123 156.0
297.380219 204.0
297.458618 180.0
297.50058 144.0
297.649628 144.0
297.757416 140.0
297.7966 132.0
297.868958 188.0
298.289764 104.0
298.466949 172.0
298.581818 100.0
298.61731 200.0
298.668365 100.0
298.973114 156.0
299.021393 144.0
299.223938 304.0
299.254913 164.0
299.471863 176.0
299.495972 180.0
299.943329 116.0
300.21286 176.0
300.361176 176.0
300.488831 168.0
300.516418 184.0
300.72348 148.0
300.818329 128.0
300.922943 192.0
300.965149 168.0
301.016937 156.0
301.041107 176.0
301.322357 228.0
301.434906 144.0
301.597351 240.0
301.712799 224.0
301.764465 248.0
301.806305 244.0
301.932739 164.0
302.053802 192.0
302.251007 320.0
302.299438 316.0
302.419586 152.0
302.547333 176.0
302.607513 172.0
302.659454 208.0
302.701965 104.0
302.802582 196.0
302.959717 320.0
303.047394 184.0
303.092438 144.0
303.144409 156.0
303.174988 132.0
303.553467 284.0
303.580078 144.0
303.622833 164.0
303.809265 172.0
304.180115 236.0
304.271729 172.0
304.389771 172.0
304.501953 148.0
304.629425 176.0
304.738159 108.0
304.87265 188.0
304.994293 120.0
305.358978 136.0
305.394653 176.0
305.790833 144.0
305.867401 140.0
306.040161 128.0
306.12851 284.0
306.235199 184.0
306.295013 184.0
306.41394 140.0
306.706421 192.0
307.137482 128.0
307.174133 164.0
307.407898 172.0
307.44516 136.0
307.610474 104.0
307.652222 140.0
307.733246 240.0
307.788391 236.0
307.889679 184.0
308.074799 144.0
308.210083 128.0
308.322388 216.0
308.371826 144.0
308.541443 144.0
308.846741 116.0
308.996857 200.0
309.078247 176.0
309.155243 160.0
309.225098 108.0
309.288116 232.0
309.369385 108.0
309.438232 124.0
309.50531 148.0
309.729004 100.0
309.760956 176.0
309.841553 160.0
309.902802 136.0
309.936127 168.0
310.186829 204.0
310.343994 292.0
310.581207 188.0
310.647858 140.0
310.862732 136.0
310.905762 160.0
311.105438 108.0
311.209106 144.0
311.484619 220.0
311.511444 152.0
311.637543 108.0
311.708893 144.0
311.907806 172.0
311.967682 140.0
312.142395 208.0
312.191132 148.0
312.3013 124.0
312.404175 212.0
312.446594 184.0
312.539154 144.0
312.590851 188.0
312.653381 140.0
312.723938 112.0
312.977234 120.0
313.117462 492.0
313.200195 132.0
313.39502 148.0
313.442596 100.0
313.586395 140.0
313.751099 248.0
313.897766 116.0
314.12851 196.0
314.39563 208.0
314.436249 236.0
314.465759 176.0
314.7164 156.0
314.790558 148.0
314.853485 112.0
314.914154 148.0
315.046387 152.0
315.108459 140.0
315.17514 160.0
315.333344 188.0
315.400635 148.0
315.424652 332.0
315.578552 144.0
315.688171 176.0
315.712921 140.0
315.741211 176.0
315.795868 128.0
315.850861 156.0
316.001373 220.0
316.025909 156.0
316.214539 208.0
316.286591 196.0
316.58844 208.0
316.633087 208.0
316.727875 204.0
316.873535 168.0
316.966095 160.0
317.073761 268.0
317.357758 104.0
317.526794 96.0
317.578705 220.0
317.609314 168.0
317.724854 160.0
317.768494 200.0
317.85614 148.0
318.045563 212.0
318.149902 228.0
318.260803 168.0
318.36734 140.0
318.471771 108.0
318.546082 160.0
318.605316 240.0
318.732239 176.0
318.896698 176.0
319.016632 232.0
319.11438 156.0
319.170441 144.0
319.230896 160.0
319.554596 180.0
319.70047 164.0
319.839111 148.0
320.215851 168.0
320.262695 176.0
320.454437 148.0
320.580109 204.0
320.687866 116.0
320.921173 200.0
320.954041 116.0
320.988831 208.0
321.068848 168.0
321.176422 160.0
321.26709 180.0
321.346069 144.0
321.553986 108.0
321.648163 168.0
321.782196 192.0
321.828613 168.0
321.880798 120.0
322.553558 140.0
322.750488 152.0
322.786255 192.0
322.824402 192.0
323.004517 132.0
323.058075 160.0
323.126038 148.0
323.176147 188.0
323.2323 148.0
323.328522 116.0
323.375519 184.0
323.638794 280.0
323.698761 144.0
323.734192 176.0
323.786133 120.0
323.902893 280.0
324.132202 196.0
324.173798 184.0
324.279114 144.0
324.390259 204.0
324.442352 128.0
324.540833 260.0
324.576691 160.0
324.752411 180.0
324.820923 120.0
325.118683 512.0
325.1474 172.0
325.236816 164.0
325.31488 144.0
325.509674 152.0
325.60675 136.0
325.708252 96.0
325.906219 128.0
325.99823 152.0
326.051392 172.0
326.108704 156.0
326.307831 156.0
326.436462 124.0
326.631012 156.0
326.713745 140.0
326.774933 152.0
326.829041 100.0
326.883728 136.0
327.260834 152.0
327.304047 168.0
327.469696 140.0
327.595367 144.0
327.678619 296.0
327.84079 156.0
327.905182 120.0
327.957947 184.0
328.048218 152.0
328.25061 240.0
328.274628 152.0
328.379608 132.0
328.507812 228.0
328.695435 192.0
328.926422 156.0
328.95282 128.0
329.114166 308.0
329.388641 176.0
329.486511 180.0
329.580109 260.0
329.96106 148.0
330.068115 184.0
330.111511 188.0
330.33493 212.0
330.378174 132.0
330.523895 164.0
330.567291 140.0
330.604828 140.0
330.699524 156.0
331.007324 152.0
331.191833 104.0
331.226257 168.0
331.262482 204.0
331.404327 228.0
331.506012 204.0
331.642548 140.0
331.695465 132.0
331.729431 164.0
331.77359 104.0
331.878601 152.0
331.928741 164.0
331.955566 176.0
332.097443 148.0
332.346497 184.0
332.396149 160.0
332.532166 172.0
332.600494 128.0
332.734863 180.0
332.762726 180.0
332.920044 292.0
332.968597 172.0
333.129211 124.0
333.177948 172.0
333.335632 132.0
333.482941 152.0
333.563171 188.0
333.599518 200.0
333.719482 144.0
333.763123 152.0
333.92038 152.0
333.947327 192.0
334.022949 96.0
334.062592 224.0
334.182648 96.0
334.286957 368.0
334.386444 152.0
334.501678 196.0
334.562805 284.0
334.636383 204.0
334.905884 160.0
335.14267 148.0
335.197327 156.0
335.396027 216.0
335.499847 276.0
335.54361 160.0
335.626892 152.0
335.848755 148.0
335.87912 228.0
335.959564 140.0
335.991791 144.0
336.470306 156.0
336.555817 168.0
336.595001 336.0
336.678436 140.0
336.769073 108.0
336.886627 152.0
337.056366 144.0
337.0896 144.0
337.167999 120.0
337.255707 152.0
337.331635 172.0
337.562256 184.0
337.621338 220.0
337.789581 204.0
337.906647 184.0
337.987152 152.0
338.065521 212.0
338.14563 164.0
338.399658 280.0
338.452179 132.0
338.582977 116.0
338.702026 160.0
338.741364 176.0
338.766998 164.0
338.841156 100.0
338.917206 160.0
339.006012 120.0
339.077087 128.0
339.272736 148.0
339.436768 144.0
339.546539 120.0
339.655945 144.0
339.933899 216.0
339.969666 168.0
340.01001 156.0
340.238068 96.0
340.307373 224.0
340.468933 140.0
340.531372 152.0
340.712769 156.0
341.001038 188.0
341.03476 116.0
341.092407 204.0
341.216339 192.0
341.393921 196.0
341.431824 140.0
341.487 144.0
341.568665 220.0
341.64856 100.0
341.752563 108.0
342.027893 148.0
342.145447 364.0
342.186188 172.0
342.307709 216.0
342.438904 140.0
342.480804 288.0
342.579071 112.0
342.609711 144.0
342.660461 140.0
342.712891 152.0
342.814117 144.0
342.87085 116.0
343.037201 160.0
343.09436 144.0
343.127014 188.0
343.158234 140.0
343.248688 124.0
343.303711 208.0
343.339996 140.0
343.58905 188.0
343.68634 316.0
343.736145 224.0
343.776337 184.0
344.037781 180.0
344.107086 180.0
344.132935 140.0
344.174347 176.0
344.22879 180.0
344.53183 148.0
344.736328 164.0
344.857025 168.0
344.918701 116.0
344.991943 160.0
345.112091 148.0
345.322876 192.0
345.457703 144.0
345.517151 248.0
345.571442 188.0
345.603424 144.0
345.66275 184.0
345.759338 128.0
345.822388 192.0
345.854889 144.0
346.029694 144.0
346.059296 164.0
346.194794 176.0
346.245026 188.0
346.359406 124.0
346.44754 184.0
346.585266 292.0
346.660767 160.0
346.700165 200.0
346.904144 112.0
347.133881 156.0
347.256287 144.0
347.445221 128.0
347.497498 148.0
347.612213 140.0
347.72113 140.0
347.768738 156.0
347.81015 164.0
347.941071 164.0
348.054169 184.0
348.087585 172.0
348.137543 176.0
348.234375 124.0
348.288147 172.0
348.434479 120.0
348.803345 160.0
348.834381 184.0
348.89386 184.0
348.923615 204.0
349.027344 152.0
349.495361 116.0
349.647797 256.0
349.686188 144.0
349.724121 108.0
349.883484 144.0
349.99765 236.0
350.095734 180.0
350.162781 228.0
350.252167 160.0
350.293152 168.0
350.632202 220.0
350.853088 172.0
350.893921 96.0
351.157898 140.0
351.200745 108.0
351.343201 148.0
352.011658 152.0
352.056 180.0
352.122406 144.0
352.164429 404.0
352.419708 144.0
352.708862 108.0
352.830841 148.0
352.879425 188.0
352.986633 120.0
353.013947 164.0
353.163666 212.0
353.305817 220.0
353.483307 100.0
353.713959 116.0
353.766113 244.0
353.885925 180.0
354.115845 252.0
354.172302 128.0
354.239471 160.0
354.346619 176.0
354.413727 136.0
354.505341 144.0
354.586975 172.0
354.765045 156.0
354.902344 104.0
355.032593 176.0
355.070099 152.0
355.124542 116.0
355.182007 172.0
355.273499 140.0
355.319305 128.0
355.411469 308.0
355.437744 144.0
355.566467 156.0
355.602844 180.0
355.65329 152.0
355.861359 144.0
356.19989 208.0
356.33136 148.0
356.396423 164.0
356.444092 192.0
356.549225 168.0
356.700256 104.0
356.732147 180.0
356.817505 184.0
356.902679 220.0
356.977661 140.0
357.095581 164.0
357.122894 152.0
357.196106 132.0
357.257599 104.0
357.396149 172.0
357.45343 144.0
357.562988 168.0
357.591125 220.0
357.818573 184.0
357.861267 204.0
357.960083 180.0
358.148376 144.0
358.283997 184.0
358.412109 156.0
358.562958 216.0
358.60672 144.0
358.743774 160.0
358.874573 152.0
358.917206 176.0
359.000153 276.0
359.117645 156.0
359.196289 196.0
359.267975 156.0
359.336914 380.0
359.539642 204.0
359.732147 224.0
359.936035 144.0
360.001373 172.0
360.041779 164.0
360.077301 276.0
360.155426 172.0
360.20285 136.0
360.41861 180.0
360.453552 140.0
360.691162 124.0
360.861755 148.0
361.20813 116.0
361.233612 160.0
361.639221 148.0
361.871979 184.0
361.96286 152.0
362.009033 144.0
362.072693 144.0
362.102997 160.0
362.239349 208.0
362.3974 172.0
362.445038 212.0
362.521912 160.0
362.644806 168.0
362.700073 180.0
362.785034 180.0
363.041931 152.0
363.253448 128.0
363.449677 188.0
363.53891 192.0
363.758545 104.0
363.866302 172.0
364.261261 148.0
364.289001 260.0
364.330444 144.0
364.367737 220.0
364.409424 148.0
364.453003 136.0
364.491211 120.0
364.550018 128.0
364.651062 144.0
364.710754 176.0
364.866852 156.0
364.948395 144.0
365.019806 172.0
365.130035 224.0
365.22171 224.0
365.344696 140.0
365.476013 140.0
365.569702 144.0
365.613861 128.0
365.651001 128.0
365.677826 196.0
365.729034 184.0
365.799805 212.0
365.838165 160.0
365.928955 140.0
366.173828 152.0
366.366577 180.0
366.467834 252.0
366.602448 392.0
366.637787 96.0
366.686035 156.0
366.703674 144.0
366.709808 284.0
366.740448 164.0
366.775604 160.0
366.80899 112.0
366.860382 108.0
366.889587 280.0
367.038361 100.0
367.145966 148.0
367.159088 132.0
367.208221 108.0
367.272156 144.0
367.40094 168.0
367.449951 132.0
367.516022 244.0
367.573181 412.0
367.651733 120.0
367.72113 256.0
367.768616 196.0
367.9216 252.0
368.070648 184.0
368.164062 128.0
368.197479 200.0
368.239716 124.0
368.354919 244.0
368.436127 476.0
368.486206 120.0
368.525391 220.0
368.576172 284.0
368.607941 300.0
368.688416 308.0
368.747009 196.0
368.785706 200.0
368.82019 304.0
368.831421 248.0
368.845551 288.0
368.897156 216.0
368.94986 180.0
369.01236 524.0
369.043884 392.0
369.076569 328.0
369.132538 328.0
369.170105 436.0
369.199371 556.0
369.249939 248.0
369.298828 344.0
369.338867 220.0
369.369995 336.0
369.413513 564.0
369.483765 572.0
369.530243 440.0
369.574524 252.0
369.588501 376.0
369.59964 360.0
369.654572 688.0
369.681274 884.0
369.75647 356.0
369.802063 664.0
369.845398 440.0
369.926941 504.0
369.979279 1036.0
370.060638 1340.0
370.118835 2684.0
370.182068 243016.0
370.277222 144.0
370.39917 108.0
370.440125 276.0
370.458191 264.0
370.538361 1868.0
370.582214 928.0
370.628235 900.0
370.653564 1348.0
370.689331 192.0
370.762299 1424.0
370.818146 22316.0
370.858276 1308.0
370.915527 452.0
370.959503 500.0
371.014252 180.0
371.114624 624.0
371.183746 182960.0
371.448456 460.0
371.458466 356.0
371.540466 208.0
371.620667 140.0
371.675201 192.0
371.753754 248.0
371.814697 1260.0
371.944275 244.0
371.992767 156.0
372.075897 464.0
372.123169 396.0
372.17926 52216.0
372.271118 188.0
372.363647 152.0
372.409302 180.0
372.484161 140.0
372.527771 168.0
372.551819 264.0
372.641144 112.0
372.761169 188.0
372.802856 220.0
372.875488 192.0
372.933441 284.0
372.976868 132.0
373.027588 240.0
373.046173 304.0
373.085144 392.0
373.137268 268.0
373.17984 5428.0
373.325043 388.0
373.411407 352.0
373.534119 272.0
373.569 364.0
373.594788 548.0
373.621796 520.0
373.655823 508.0
373.693634 580.0
373.74231 336.0
373.787506 320.0
373.801849 340.0
373.814697 536.0
373.852295 196.0
373.903473 256.0
373.998596 188.0
374.061035 112.0
374.10495 160.0
374.178406 220.0
374.325714 120.0
374.339203 200.0
374.3909 144.0
374.483612 260.0
374.524384 228.0
374.558105 320.0
374.73172 168.0
374.790802 244.0
374.92923 156.0
375.143036 160.0
375.885437 136.0
375.947784 100.0
376.397186 120.0
376.600281 128.0
376.648132 100.0
376.699554 112.0
377.831238 108.0
379.323273 100.0
379.652069 96.0
382.314545 136.0
382.850372 188.0
382.906311 172.0
383.155365 152.0
383.354492 140.0
384.403351 172.0
384.769287 192.0
385.648956 120.0
386.317017 144.0
386.922913 120.0
387.004608 128.0
387.291901 116.0
387.503052 120.0
388.579956 112.0
389.135742 212.0
389.374542 96.0
389.506348 104.0
389.577667 100.0
392.078156 144.0
392.146423 148.0
398.437073 148.0
399.032013 156.0
410.674866 252.0
422.964386 124.0
432.008881 108.0
436.420654 160.0
447.609924 148.0
462.957672 140.0
470.145782 144.0
485.843079 104.0
510.510773 128.0
512.756653 104.0
515.914429 148.0
516.592834 160.0
521.05072 112.0
524.476013 144.0
538.183411 100.0
574.999573 124.0
581.569763 140.0
585.128296 96.0
602.636719 140.0
615.372803 188.0
622.980103 152.0
639.741638 104.0
642.671814 172.0
666.590149 152.0
699.38208 116.0
727.221375 144.0
732.941223 104.0
840.30127 140.0
922.112488 132.0
991.728333 164.0
1018.577881 176.0
1138.066895 144.0
1152.643555 156.0
1157.704834 108.0
1162.869751 140.0
1216.746338 180.0
1232.15918 192.0
1243.861328 244.0
1279.591797 172.0
1298.220337 164.0
1313.49707 164.0
1341.933472 156.0
1378.67334 128.0
1382.127197 164.0
1393.285889 140.0
1397.427124 152.0
1407.856079 180.0
1412.736572 160.0
1414.12085 168.0
1414.435181 192.0
1424.761597 176.0
1433.128052 172.0
1434.198242 172.0
1442.834229 160.0
1450.510498 208.0
1451.57959 184.0
1473.432495 192.0
1474.065796 160.0
1478.242065 192.0
1478.39502 196.0
1484.15564 196.0
1486.088501 180.0
1491.97168 176.0
1493.925049 148.0
1494.471313 168.0
1498.683105 204.0
1504.869141 160.0
1510.2323 148.0
1510.595947 152.0
1512.824585 160.0
1513.529175 208.0
1517.891846 140.0
1520.964111 184.0
1524.91687 144.0
1530.199707 164.0
1542.080444 140.0
1543.088867 160.0
1546.593628 180.0
1547.172852 160.0
1548.00293 212.0
1554.532959 204.0
1561.532959 160.0
1567.807739 256.0
1581.510986 152.0
1582.928101 152.0
1595.090942 184.0
1599.53772 180.0
1602.434448 184.0
1607.045044 180.0
1610.941162 164.0
1611.028931 216.0
1612.734375 224.0
1614.385986 172.0
1618.018799 176.0
1621.503296 144.0
1623.924683 152.0
1624.90332 176.0
1629.728882 216.0
1629.793091 228.0
1633.974121 188.0
1637.00061 184.0
1637.065063 196.0
1637.548218 140.0
1643.788208 144.0
1644.950439 196.0
1651.366211 160.0
1654.036377 216.0
1655.14563 176.0
1656.263184 176.0
1661.638062 212.0
1664.746826 196.0
1665.096069 176.0
1667.67981 172.0
1669.110596 176.0
1670.314331 140.0
1671.225586 168.0
1674.514404 216.0
1677.953247 184.0
1678.132568 140.0
1681.722046 148.0
1684.955811 140.0
1687.546753 188.0
1689.845093 156.0
1691.359009 152.0
1693.4552 148.0
1698.709473 240.0
1701.975952 152.0
1703.117554 140.0
1707.111816 212.0
1711.489624 228.0
1712.189575 176.0
1715.881226 156.0
1716.162964 132.0
1716.252197 188.0
1720.005981 224.0
1720.220581 172.0
1728.369751 156.0
1732.310791 168.0
1733.735962 184.0
1733.968018 208.0
1735.963257 112.0
1740.869995 208.0
1741.717651 180.0
1742.465332 140.0
1743.952759 156.0
1744.671021 144.0
1744.784058 168.0
1746.946411 196.0
1748.027954 184.0
1750.891846 156.0
1754.158081 224.0
1755.575439 200.0
1756.259399 228.0
1757.293823 196.0
1757.819458 176.0
1758.754883 152.0
1759.430908 144.0
1764.677246 148.0
1766.400146 140.0
1769.06958 180.0
1769.730957 160.0
1769.806396 160.0
1773.492554 180.0
1776.150635 180.0
1780.582397 256.0
1784.53186 184.0
1785.751343 148.0
1788.065063 192.0
1791.070923 236.0
1791.761719 168.0
1794.37439 200.0
1795.52124 164.0
1798.010132 212.0
1798.5271 144.0
1803.871948 180.0
1803.937378 120.0
1807.24646 164.0
1808.422852 168.0
1810.310791 148.0
1810.59021 180.0
1810.717285 172.0
1811.615234 176.0
1812.70813 204.0
1817.626465 188.0
1821.608398 168.0
1822.568481 156.0
1824.967163 228.0
1827.125732 140.0
1828.231934 180.0
1828.844727 152.0
1831.901733 152.0
1833.989502 144.0
1834.555542 172.0
1835.404663 176.0
1841.250366 236.0
1843.309204 168.0
1844.420288 156.0
1844.890381 188.0
1845.531616 200.0
1846.28418 144.0
1848.722412 172.0
1849.869263 236.0
1853.882202 100.0
1856.072266 180.0
1859.323608 160.0
1859.821411 164.0
1860.182007 192.0
1861.720459 168.0
1862.088135 164.0
1865.353394 168.0
1868.121826 188.0
1868.302979 208.0
1871.728638 156.0
1872.055908 208.0
1872.365845 204.0
1873.856201 148.0
1874.519653 244.0
1875.114258 172.0
1876.683228 160.0
1878.399414 160.0
1878.649658 172.0
1878.727295 180.0
1879.564209 144.0
1880.005371 96.0
1881.273071 144.0
1882.663208 180.0
1883.302368 188.0
1884.719238 184.0
1887.22583 224.0
1889.543823 220.0
1891.144775 144.0
1891.768066 148.0
1893.482544 140.0
1895.169067 248.0
1898.439819 160.0
1901.154175 184.0
1901.432861 216.0
1903.672729 188.0
1905.722656 232.0
1906.189331 196.0
1908.669312 144.0
1909.539062 200.0
1910.226196 156.0
1912.549561 140.0
1914.656616 188.0
1917.331177 224.0
1918.507935 164.0
1919.214111 208.0
1923.393066 160.0
1929.884155 236.0
1930.321411 164.0
1931.05603 204.0
1932.683228 168.0
1932.807251 192.0
1933.66333 160.0
1934.200806 104.0
1936.526367 172.0
1938.786865 184.0
1938.848145 152.0
1946.029663 196.0
1946.403076 164.0
1949.484741 180.0
1950.697632 144.0
1950.970093 188.0
1953.235962 172.0
1953.59082 172.0
1954.831421 148.0
1955.491577 140.0
1955.781982 152.0
1957.375488 160.0
1958.036011 164.0
1958.582031 152.0
1959.850708 232.0
1960.573242 204.0
1963.615601 160.0
1964.276489 168.0
1964.673462 164.0
1964.876343 204.0
1967.638794 160.0
1968.009644 140.0
1968.813232 140.0
1969.837891 184.0
1970.041016 156.0
1971.260376 160.0
1975.937378 152.0
1976.397949 188.0
1976.477539 168.0
1977.999878 160.0
1978.059814 208.0
1978.433594 196.0
1979.168457 168.0
1979.655518 216.0
1980.098389 172.0
1981.373901 176.0
1982.809448 160.0
1982.915771 140.0
1983.394409 176.0
1984.440552 156.0
1984.786377 168.0
1986.843994 144.0
1987.092529 168.0
1987.507446 212.0
1989.098145 164.0
1990.900513 160.0
1991.868652 192.0
1996.437134 156.0
1996.508301 152.0
1998.77832 188.0
1999.212769 164.0
1999.426392 144.0
2001.554077 172.0
2001.634155 164.0
