>compound Indomethacin
>formula C19H16ClNO4
>ionization [M+H]+
>parentmass 358.084015
#inchi InChI=1S/C19H16ClNO4/c1-11-15(10-18(22)23)16-9-14(25-2)7-8-17(16)21(11)19(24)12-3-5-13(20)6-4-12/h3-9H,10H2,1-2H3,(H,22,23)
#inchikey CGIGDMFJXJATDK
#Ion_Source LC-ESI
#Instrument qTof
#Compound_Source Commercial
#PI Dorrestein
#Data_Collector Garg_Neha
#Scan -1
#Precursor_MZ 358.084
#ExactMass 357.077
#Charge 1
#CAS_Number N/A
#Pubmed_ID N/A
#Smiles COc1ccc2n(C(=O)c3ccc(Cl)cc3)c(C)c(CC(=O)O)c2c1
#INCHI_AUX N/A
#Library_Class 1
#SpectrumID CCMSLIB00000079180
#IonMode Positive
#UpdateWorkflowName UPDATE-SINGLE-ANNOTATED-GOLD
#LibraryQualityString Gold
#TaskID 278b19f5865741e282cec7349aa7e7a1
##Scan# 1915
#SpectrumFile NCP003592_C2_D11_BE1_01_15735.mzXML
#LibraryName NIHcollectionI_05062014.mgf
#MQScore -1
#Organism NIHcollectionI_05062014
#TIC_Query 0
#RT_Query -1
#MZErrorPPM -1
#SharedPeaks 0
#MassDiff 0
#LibMZ -1
#SpecMZ 358.084
#SpecCharge 0
#internalFilename spec-00000.mgf

>collision 10
45.347183 168.0
46.713688 176.0
46.994335 192.0
51.155327 180.0
51.616158 160.0
53.055984 200.0
53.352142 188.0
53.688492 160.0
53.873863 160.0
56.07402 176.0
56.856205 220.0
57.804092 160.0
57.870693 172.0
59.209221 140.0
61.500637 200.0
64.142441 132.0
65.189552 212.0
73.214592 204.0
74.082275 168.0
74.870659 160.0
78.795654 168.0
81.459038 168.0
81.917747 180.0
82.860519 144.0
84.594505 180.0
86.697937 172.0
87.002129 260.0
89.761932 164.0
89.824173 148.0
91.174141 148.0
91.764229 160.0
93.528587 220.0
94.049004 192.0
94.915703 164.0
95.706535 192.0
98.134186 188.0
103.886528 140.0
104.312965 204.0
107.66713 188.0
109.186226 148.0
110.713867 152.0
111.000816 440.0
111.076752 232.0
114.181366 144.0
114.995689 164.0
117.372185 164.0
118.8582 160.0
127.790543 228.0
128.446106 160.0
128.838898 152.0
129.011505 148.0
129.092041 172.0
130.743546 184.0
131.076691 304.0
131.463669 156.0
136.71582 224.0
137.384521 176.0
138.368408 204.0
138.630737 152.0
138.651947 156.0
138.750275 144.0
138.952225 144.0
138.995193 36996.0
139.814331 140.0
139.969696 176.0
139.998306 2176.0
140.043945 120.0
140.54393 148.0
140.620331 140.0
140.992355 9356.0
141.064392 152.0
141.996109 628.0
147.260498 176.0
159.065979 320.0
173.085846 220.0
174.0905 3652.0
175.095154 740.0
202.084717 504.0
202.109802 176.0
204.095291 180.0
220.095657 172.0
226.088211 176.0
245.986832 140.0
246.9711 160.0
276.020416 112.0
288.926941 144.0
292.027344 144.0
292.91571 140.0
293.028137 152.0
293.952148 188.0
294.018982 124.0
296.023651 160.0
298.047455 192.0
312.077332 152.0
313.08255 136.0
316.044586 156.0
319.034393 176.0
333.051971 200.0
357.07309 296.0
358.002716 140.0
358.084015 6920.0
358.223389 176.0
358.818115 140.0
359.087891 1196.0
359.208801 140.0
360.082581 2192.0
360.285217 132.0
361.083618 272.0
361.227051 136.0
481.001923 140.0
1330.71167 144.0
1380.850464 236.0
1529.660278 144.0
1549.503784 140.0
1564.5354 148.0
1603.395752 192.0
1660.114014 172.0
1677.611206 192.0
1721.334106 164.0
1810.628174 216.0
1824.025391 228.0
1844.440186 168.0
1847.108032 184.0
1856.306274 152.0
1869.957153 160.0
1870.964355 140.0
1890.540283 164.0
1896.022095 160.0
1932.621826 160.0
1941.705811 240.0
1966.922363 200.0
