>compound MLS002153437-01!2-Bromo-alpha-ergocryptine methanesulfonate salt
>formula C32H40BrN5O5
>ionization [M+H]+
>parentmass 654.2285579320906
#inchi InChI=1S/C32H40BrN5O5/c1-16(2)12-24-29(40)37-11-7-10-25(37)32(42)38(24)30(41)31(43-32,17(3)4)35-28(39)18-13-20-19-8-6-9-22-26(19)21(27(33)34-22)14-23(20)36(5)15-18/h6,8-9,13,16-18,23-25,34,42H,7,10-12,14-15H2,1-5H3,(H,35,39)/t18?,23-,24+,25+,31-,32+/m1/s1
#inchikey OZVBMTJYIDMWIL
#origInchi InChI=1S/C32H40BrN5O5.CH4O3S/c1-16(2)12-24-29(40)37-11-7-10-25(37)32(42)38(24)30(41)31(43-32,17(3)4)35-28(39)18-13-20-19-8-6-9-22-26(19)21(27(33)34-22)14-23(20)36(5)15-18;1-5(2,3)4/h6,8-9,13,16-18,23-25,34,42H,7,10-12,14-15H2,1-5H3,(H,35,39);1H3,(H,2,3,4)/t18?,23-,24+,25+,31-,32+;/m1./s1
#Ion_Source LC-ESI
#Instrument qTof
#Compound_Source NIH Pharmacologically Active Library
#PI Dorrestein
#Data_Collector VP/LMS
#Scan -1
#Precursor_MZ 654.229
#ExactMass 653.221
#Charge 1
#CAS_Number N/A
#Pubmed_ID N/A
#Smiles CC(C)C[C@@H]1N2C(=O)[C@](NC(=O)C3CN(C)[C@@H]4Cc5c(Br)[nH]c6cccc(C4=C3)c56)(O[C@@]2(O)[C@@H]7CCCN7C1=O)C(C)C.CS(=O)(=O)O
#INCHI_AUX N/A
#Library_Class 1
#SpectrumID CCMSLIB00000085006
#IonMode Positive
#UpdateWorkflowName UPDATE-SINGLE-ANNOTATED-GOLD
#LibraryQualityString Gold
#TaskID d252d724072548979f1f6f1ced849daf
##Scan# 1818
#SpectrumFile p3-D08_GD8_01_18265.mzXML
#LibraryName Pharm_Active_Library.mgf
#MQScore -1
#Organism Pharm_Active_Library
#TIC_Query 0
#RT_Query -1
#MZErrorPPM -1
#SharedPeaks 0
#MassDiff 0
#LibMZ -1
#SpecMZ 654.229
#SpecCharge 0
#internalFilename spec-00000.mgf

>collision 10
44.900642 140.0
44.921982 156.0
44.940567 172.0
44.958012 200.0
44.968571 136.0
45.004318 168.0
45.048809 100.0
45.128998 124.0
45.177147 204.0
45.234695 240.0
45.244606 208.0
45.325771 264.0
45.345875 144.0
45.360054 152.0
45.378601 176.0
45.462803 196.0
45.475979 136.0
45.565956 172.0
45.583424 148.0
45.625092 40.0
45.703102 204.0
45.746174 136.0
45.765022 180.0
45.778488 156.0
45.867413 80.0
45.893028 112.0
45.921352 116.0
45.961823 212.0
45.994217 172.0
46.034721 176.0
46.115784 52.0
46.175278 124.0
46.21196 104.0
46.230789 132.0
46.249695 168.0
46.318756 204.0
46.328598 228.0
46.349918 144.0
46.482811 160.0
46.511314 76.0
46.522175 180.0
46.535751 144.0
46.554764 56.0
46.573776 176.0
46.596874 104.0
46.614536 144.0
46.631752 180.0
46.671631 92.0
46.692215 192.0
46.702824 188.0
46.706188 176.0
46.727398 152.0
46.738285 88.0
46.764141 160.0
46.775032 176.0
46.92762 64.0
46.939892 124.0
46.954895 192.0
47.024357 176.0
47.069534 148.0
47.083191 172.0
47.193882 140.0
47.203453 144.0
47.256802 180.0
47.332085 228.0
47.394535 236.0
47.42799 172.0
47.489697 156.0
47.506069 188.0
47.551437 124.0
47.622837 120.0
47.65675 240.0
47.714912 220.0
47.803806 160.0
47.820171 124.0
47.876518 132.0
47.900703 152.0
47.917236 176.0
47.952991 148.0
47.994686 168.0
48.071033 112.0
48.099277 72.0
48.138195 172.0
48.146439 180.0
48.157272 204.0
48.187668 100.0
48.233273 116.0
48.250698 152.0
48.294117 160.0
48.3204 120.0
48.342541 128.0
48.354996 216.0
48.37299 196.0
48.395142 228.0
48.408989 200.0
48.460243 152.0
48.482414 68.0
48.493504 316.0
48.508751 160.0
48.529549 224.0
48.555916 272.0
48.589188 104.0
48.643314 32.0
48.796135 112.0
48.82143 148.0
48.846203 108.0
48.868465 204.0
48.904648 176.0
48.929707 200.0
48.945194 128.0
48.982067 100.0
49.018105 176.0
49.069035 124.0
49.115055 144.0
49.160049 144.0
49.209953 196.0
49.270012 100.0
49.297226 236.0
49.440609 64.0
49.491005 176.0
49.566647 144.0
49.584866 120.0
49.600285 148.0
49.663383 180.0
49.692844 44.0
49.764431 156.0
49.775661 76.0
49.807968 180.0
49.83466 160.0
49.919003 212.0
49.951351 140.0
49.993565 68.0
50.065365 120.0
50.110439 148.0
50.129257 204.0
50.202065 100.0
50.253521 220.0
50.268372 80.0
50.409592 148.0
50.420895 160.0
50.439304 168.0
50.466133 76.0
50.518463 132.0
50.534027 144.0
50.552422 216.0
50.569405 148.0
50.613293 92.0
50.631702 148.0
50.644451 112.0
50.658619 136.0
50.773434 176.0
50.828758 116.0
50.841534 152.0
50.855415 416.0
50.872761 96.0
50.888378 156.0
50.928143 136.0
50.942348 124.0
50.959396 172.0
51.004875 120.0
51.02227 252.0
51.056061 204.0
51.108696 220.0
51.120079 152.0
51.174171 140.0
51.212624 72.0
51.239693 80.0
51.256649 160.0
51.28957 180.0
51.322361 232.0
51.383694 72.0
51.415836 168.0
51.446491 228.0
51.469337 156.0
51.499329 164.0
51.613663 332.0
51.660934 156.0
51.703896 160.0
51.769646 180.0
51.829811 204.0
51.981522 216.0
52.044975 108.0
52.0895 200.0
52.103867 128.0
52.154163 192.0
52.208801 108.0
52.237568 140.0
52.249157 144.0
52.277061 268.0
52.29081 196.0
52.313839 96.0
52.333996 128.0
52.368561 168.0
52.400253 116.0
52.498272 112.0
52.547318 80.0
52.611523 140.0
52.624676 168.0
52.83194 128.0
52.862328 112.0
52.881142 140.0
52.897064 28.0
52.908646 120.0
52.918781 68.0
52.944847 112.0
52.997646 64.0
53.113613 156.0
53.171021 104.0
53.274269 152.0
53.288647 172.0
53.3083 124.0
53.371498 264.0
53.396107 156.0
53.39917 144.0
53.463146 56.0
53.543758 156.0
53.623352 108.0
53.636471 116.0
53.688961 148.0
53.699173 160.0
53.712299 132.0
53.749565 132.0
53.777962 144.0
53.799858 136.0
53.843666 112.0
53.858273 188.0
53.872063 164.0
53.890137 148.0
53.948875 148.0
54.116081 384.0
54.133701 152.0
54.179165 192.0
54.196228 160.0
54.213814 96.0
54.22847 124.0
54.24276 160.0
54.265118 136.0
54.315491 172.0
54.341389 116.0
54.392708 124.0
54.421238 364.0
54.433865 156.0
54.454426 160.0
54.464706 148.0
54.510254 104.0
54.551918 256.0
54.59552 156.0
54.683796 100.0
54.70882 132.0
54.741695 208.0
54.816345 172.0
54.839928 148.0
54.9048 124.0
54.915123 208.0
54.931103 120.0
54.949055 108.0
54.972397 132.0
54.996277 96.0
55.148418 76.0
55.188335 204.0
55.231224 116.0
55.250454 160.0
55.265251 112.0
55.296669 156.0
55.314091 140.0
55.324455 156.0
55.34074 60.0
55.364433 48.0
55.407276 156.0
55.445919 124.0
55.490391 192.0
55.543781 88.0
55.60313 120.0
55.616402 200.0
55.637272 184.0
55.704102 96.0
55.73679 240.0
55.855057 232.0
55.86763 76.0
55.891438 136.0
55.92667 172.0
55.989689 160.0
56.011688 104.0
56.028419 84.0
56.05822 164.0
56.161095 184.0
56.18198 48.0
56.219284 152.0
56.244656 100.0
56.268543 152.0
56.296913 156.0
56.367126 152.0
56.432003 172.0
56.49165 184.0
56.504692 156.0
56.536114 56.0
56.550457 156.0
56.561562 132.0
56.57621 168.0
56.60498 128.0
56.683449 136.0
56.723343 168.0
56.768326 104.0
56.784821 220.0
56.922031 156.0
56.982162 272.0
57.016037 120.0
57.026558 116.0
57.126869 116.0
57.158905 148.0
57.173954 208.0
57.231159 152.0
57.259037 172.0
57.295925 156.0
57.314007 124.0
57.340237 128.0
57.359219 180.0
57.371281 148.0
57.389374 176.0
57.455738 192.0
57.467808 208.0
57.481388 188.0
57.493462 144.0
57.516102 112.0
57.617283 120.0
57.689827 132.0
57.719151 184.0
57.735188 168.0
57.774517 104.0
57.788437 120.0
57.820568 208.0
57.857754 104.0
57.90485 160.0
57.95166 132.0
57.980453 172.0
58.012707 144.0
58.030819 212.0
58.05019 108.0
58.060806 216.0
58.166172 208.0
58.196487 156.0
58.22168 220.0
58.245983 128.0
58.346283 56.0
58.361488 160.0
58.405594 56.0
58.42841 112.0
58.446671 124.0
58.467976 68.0
58.483196 156.0
58.507553 228.0
58.52887 96.0
58.55019 180.0
58.598934 140.0
58.6096 48.0
58.653801 176.0
58.678593 168.0
58.730198 156.0
58.763603 120.0
58.842972 268.0
58.87962 128.0
58.894894 104.0
58.917809 124.0
58.959679 160.0
59.046215 128.0
59.078835 184.0
59.099758 220.0
59.113529 140.0
59.205383 164.0
59.245846 168.0
59.308041 116.0
59.329082 176.0
59.398598 144.0
59.432262 192.0
59.492123 184.0
59.55201 104.0
59.620613 80.0
59.666542 216.0
59.694942 112.0
59.779552 140.0
59.860229 108.0
59.942791 148.0
59.984406 168.0
60.004116 168.0
60.084648 108.0
60.149181 176.0
60.166443 84.0
60.333302 120.0
60.350307 132.0
60.480263 176.0
60.537548 40.0
60.563877 168.0
60.618103 76.0
60.649101 52.0
60.695614 140.0
60.725079 200.0
60.73904 116.0
60.77317 180.0
60.829044 72.0
60.857922 140.0
60.879215 192.0
60.900471 132.0
60.929989 176.0
60.945007 192.0
60.97039 172.0
61.038792 124.0
61.060566 140.0
61.071453 208.0
61.101009 196.0
61.143024 88.0
61.169487 204.0
61.194397 148.0
61.245049 160.0
61.251537 220.0
61.28162 180.0
61.356434 148.0
61.376701 208.0
61.398537 208.0
61.446892 308.0
61.477356 140.0
61.504635 216.0
61.529358 172.0
61.563965 92.0
61.579582 148.0
61.610195 168.0
61.66708 144.0
61.692093 252.0
61.714962 332.0
61.820354 148.0
61.876705 184.0
61.887665 132.0
61.936214 128.0
61.973816 120.0
62.006725 160.0
62.042778 192.0
62.055614 128.0
62.085114 104.0
62.11021 136.0
62.124329 180.0
62.181866 168.0
62.244297 212.0
62.271885 124.0
62.31744 360.0
62.375591 168.0
62.38974 180.0
62.424332 104.0
62.463654 112.0
62.509281 176.0
62.523445 128.0
62.564369 72.0
62.584839 152.0
62.640423 164.0
62.652565 72.0
62.665169 332.0
62.733261 196.0
62.753433 132.0
62.764473 140.0
62.799168 140.0
62.825985 92.0
62.849651 168.0
62.884911 152.0
62.960155 168.0
63.032825 40.0
63.064434 100.0
63.078659 112.0
63.09605 176.0
63.107121 172.0
63.124249 120.0
63.194057 112.0
63.198215 108.0
63.202637 176.0
63.241589 76.0
63.291733 196.0
63.306503 80.0
63.336597 116.0
63.376202 148.0
63.420578 168.0
63.438015 168.0
63.515717 184.0
63.577599 188.0
63.595058 120.0
63.622044 192.0
63.669682 76.0
63.79998 168.0
63.828598 124.0
63.863586 144.0
63.908131 196.0
63.944733 140.0
64.01638 128.0
64.034302 116.0
64.061592 216.0
64.090492 212.0
64.127899 160.0
64.156593 100.0
64.201241 56.0
64.233139 176.0
64.274628 120.0
64.295372 156.0
64.333389 220.0
64.407135 124.0
64.426308 128.0
64.461456 116.0
64.560577 88.0
64.576569 144.0
64.590965 40.0
64.629311 128.0
64.633698 124.0
64.639938 92.0
64.644547 180.0
64.667007 168.0
64.69146 160.0
64.708817 148.0
64.871208 180.0
64.922691 148.0
64.939468 184.0
65.033218 140.0
65.046066 116.0
65.062119 120.0
65.147911 228.0
65.160088 156.0
65.185799 156.0
65.208298 144.0
65.261345 188.0
65.279037 32.0
65.290291 96.0
65.324074 152.0
65.369125 108.0
65.439949 152.0
65.468933 164.0
65.486649 88.0
65.512421 104.0
65.5382 192.0
65.588165 220.0
65.61557 228.0
65.628471 116.0
65.657494 172.0
65.676849 108.0
65.689758 152.0
65.70105 232.0
65.773666 200.0
66.011169 120.0
66.038666 100.0
66.05484 112.0
66.080727 176.0
66.237045 164.0
66.255585 204.0
66.289612 100.0
66.325272 128.0
66.369041 104.0
66.443657 156.0
66.459877 180.0
66.502174 188.0
66.519768 120.0
66.571884 152.0
66.602745 156.0
66.66449 148.0
66.675865 176.0
66.703369 160.0
66.766907 188.0
66.781548 208.0
66.823463 136.0
66.876991 188.0
66.923126 156.0
66.94104 288.0
66.975243 36.0
66.989906 108.0
67.037857 112.0
67.061607 152.0
67.136604 124.0
67.182274 168.0
67.271217 128.0
67.294891 88.0
67.352943 212.0
67.429916 116.0
67.453362 188.0
67.466438 128.0
67.531853 116.0
67.607109 152.0
67.638206 204.0
67.652946 132.0
67.687325 172.0
67.710251 164.0
67.722374 100.0
67.749565 192.0
67.770866 112.0
67.901237 152.0
67.920059 168.0
68.009506 180.0
68.145515 156.0
68.166328 200.0
68.177834 196.0
68.215637 180.0
68.22879 120.0
68.284698 168.0
68.306084 104.0
68.348862 76.0
68.390007 108.0
68.477272 172.0
68.518456 292.0
68.542191 248.0
68.663513 60.0
68.747658 172.0
68.759209 172.0
68.777367 104.0
68.795525 76.0
68.91774 212.0
68.942528 132.0
68.997078 96.0
69.010307 72.0
69.096313 140.0
69.177406 188.0
69.241982 192.0
69.260208 156.0
69.275116 148.0
69.294991 108.0
69.334763 80.0
69.439827 196.0
69.470734 124.0
69.496696 160.0
69.578606 100.0
69.598534 148.0
69.646698 176.0
69.658325 156.0
69.71315 176.0
69.726448 120.0
69.751381 120.0
69.774658 204.0
69.800575 196.0
69.816223 144.0
69.847504 164.0
69.916046 116.0
69.932693 120.0
69.970978 208.0
69.982635 188.0
70.028465 108.0
70.114235 128.0
70.134239 112.0
70.150909 140.0
70.19426 168.0
70.245964 156.0
70.272652 308.0
70.287674 132.0
70.319435 124.0
70.352768 200.0
70.39785 136.0
70.436264 176.0
70.51313 180.0
70.542709 316.0
70.637596 136.0
70.685379 240.0
70.755608 184.0
70.812614 96.0
70.870163 172.0
70.891357 160.0
70.956734 144.0
70.976852 160.0
71.112747 184.0
71.18158 156.0
71.20845 224.0
71.231087 144.0
71.248764 136.0
71.310944 172.0
71.347923 192.0
71.368622 192.0
71.389961 184.0
71.425095 108.0
71.433739 144.0
71.470703 52.0
71.532974 124.0
71.580261 192.0
71.667709 164.0
71.689621 132.0
71.825928 156.0
71.858246 48.0
71.885139 196.0
71.942627 260.0
71.985847 148.0
72.027069 172.0
72.049026 188.0
72.064232 84.0
72.089577 140.0
72.10141 144.0
72.116119 148.0
72.194397 248.0
72.224838 332.0
72.284058 136.0
72.318832 196.0
72.364861 168.0
72.372025 124.0
72.375877 164.0
72.392395 144.0
72.435349 212.0
72.454704 148.0
72.555061 64.0
72.573715 92.0
72.594063 60.0
72.631378 200.0
72.646645 124.0
72.734886 140.0
72.787514 160.0
72.811295 132.0
72.884338 116.0
72.923256 200.0
72.929771 180.0
72.97953 236.0
73.061172 132.0
73.073082 76.0
73.086166 380.0
73.149666 148.0
73.166687 112.0
73.224228 192.0
73.246727 44.0
73.306358 168.0
73.330223 160.0
73.415466 156.0
73.487114 156.0
73.604889 148.0
73.635628 232.0
73.726982 196.0
73.794556 216.0
73.809944 120.0
73.854408 172.0
73.902313 152.0
74.022133 192.0
74.112923 60.0
74.172905 148.0
74.219002 176.0
74.246635 100.0
74.287804 172.0
74.315254 188.0
74.394203 132.0
74.54879 160.0
74.576286 140.0
74.598633 212.0
74.62442 120.0
74.670853 164.0
74.703537 244.0
74.748268 124.0
74.773758 168.0
74.831955 192.0
74.879112 140.0
74.911842 160.0
74.943573 172.0
74.961807 172.0
74.980766 152.0
74.999893 120.0
75.022133 136.0
75.046272 228.0
75.12043 148.0
75.158386 136.0
75.291313 168.0
75.358681 168.0
75.399826 312.0
75.420898 172.0
75.503654 176.0
75.522919 156.0
75.54081 116.0
75.57309 96.0
75.664139 112.0
75.690796 148.0
75.779129 156.0
75.801392 208.0
75.902199 220.0
75.931679 48.0
76.023628 160.0
76.054871 200.0
76.077438 140.0
76.122581 152.0
76.171219 136.0
76.192894 152.0
76.273743 136.0
76.296341 116.0
76.30851 124.0
76.322418 128.0
76.372856 128.0
76.470474 116.0
76.498146 172.0
76.515556 108.0
76.551476 144.0
76.588699 172.0
76.621796 56.0
76.637474 132.0
76.649673 212.0
76.670586 88.0
76.691498 104.0
76.72496 144.0
76.764725 164.0
76.782196 248.0
76.864159 144.0
76.902557 180.0
76.95649 188.0
76.996834 292.0
77.091698 176.0
77.106308 176.0
77.178581 120.0
77.21006 88.0
77.269531 132.0
77.35704 136.0
77.369293 84.0
77.401276 136.0
77.439339 252.0
77.485542 332.0
77.514931 192.0
77.533951 188.0
77.557487 196.0
77.633881 44.0
77.69001 168.0
77.807838 144.0
77.846222 164.0
77.930542 144.0
77.942841 56.0
77.985023 204.0
78.018417 132.0
78.05616 124.0
78.083481 36.0
78.141533 88.0
78.178482 96.0
78.254181 76.0
78.342239 212.0
78.409195 176.0
78.499107 120.0
78.522034 52.0
78.566887 224.0
78.59436 88.0
78.608482 156.0
78.620834 144.0
78.638588 136.0
78.664963 228.0
78.682617 268.0
78.698509 124.0
78.735588 148.0
78.822151 104.0
78.843361 184.0
78.888535 252.0
78.905228 44.0
78.94059 84.0
78.954742 84.0
78.98455 136.0
79.163574 152.0
79.225563 128.0
79.239738 168.0
79.285812 80.0
79.307083 92.0
79.431206 148.0
79.449661 168.0
79.46846 136.0
79.514603 144.0
79.538971 368.0
79.573181 160.0
79.589165 152.0
79.601929 168.0
79.640663 132.0
79.676193 156.0
79.782829 32.0
79.840538 120.0
79.880638 220.0
79.957146 160.0
79.971024 176.0
79.996307 144.0
80.014114 36.0
80.026573 140.0
80.087128 168.0
80.120972 140.0
80.240379 148.0
80.297318 112.0
80.322105 160.0
80.33847 84.0
80.420845 124.0
80.447334 132.0
80.468758 124.0
80.595573 172.0
80.636681 128.0
80.650978 76.0
80.673752 200.0
80.687012 176.0
80.723488 324.0
80.817299 200.0
80.856819 140.0
80.901413 148.0
80.940804 100.0
80.967667 184.0
81.069786 84.0
81.0895 108.0
81.213219 160.0
81.236542 220.0
81.258064 160.0
81.301132 128.0
81.319084 132.0
81.380119 264.0
81.392685 128.0
81.426811 252.0
81.473511 216.0
81.500786 180.0
81.518433 132.0
81.552582 128.0
81.576378 152.0
81.593872 124.0
81.620895 160.0
81.647873 200.0
81.664062 36.0
81.719826 204.0
81.771576 164.0
81.813217 144.0
81.863831 144.0
81.894257 148.0
81.948494 140.0
81.979126 188.0
82.033203 160.0
82.056641 164.0
82.104645 152.0
82.164856 60.0
82.221809 156.0
82.247864 208.0
82.342438 148.0
82.435699 196.0
82.52066 188.0
82.557381 168.0
82.578529 192.0
82.603851 36.0
82.663208 208.0
82.676224 164.0
82.699753 128.0
82.716049 112.0
82.826302 168.0
82.850769 132.0
82.869987 180.0
82.911064 132.0
82.936134 136.0
82.964233 80.0
83.000496 144.0
83.028748 176.0
83.0504 124.0
83.078484 120.0
83.104225 128.0
83.176476 124.0
83.194633 132.0
83.292694 172.0
83.352654 136.0
83.401718 64.0
83.426537 92.0
83.445351 340.0
83.48172 48.0
83.557129 128.0
83.581772 188.0
83.623627 292.0
83.647293 108.0
83.660034 124.0
83.672775 136.0
83.696503 132.0
83.760155 208.0
83.851295 128.0
83.982574 100.0
84.006287 108.0
84.042778 148.0
84.128029 124.0
84.168724 128.0
84.185165 172.0
84.243614 204.0
84.275421 88.0
84.288925 120.0
84.334976 148.0
84.353256 192.0
84.395309 244.0
84.503105 64.0
84.554459 196.0
84.57093 52.0
84.640503 188.0
84.678963 108.0
84.707405 160.0
84.776703 160.0
84.924568 232.0
84.963089 168.0
84.981438 168.0
85.093399 124.0
85.120941 80.0
85.163185 136.0
85.181557 36.0
85.195564 188.0
85.2183 164.0
85.242188 200.0
85.334091 100.0
85.350639 264.0
85.427887 92.0
85.453644 132.0
85.494125 36.0
85.540146 120.0
85.562233 204.0
85.610107 132.0
85.626686 148.0
85.694847 104.0
85.716759 164.0
85.719269 140.0
85.733078 160.0
85.753815 204.0
85.779617 252.0
85.80912 128.0
85.842308 216.0
85.951141 140.0
85.969597 164.0
86.002823 124.0
86.041588 184.0
86.0896 104.0
86.116402 164.0
86.197975 216.0
86.228157 80.0
86.285461 192.0
86.331688 60.0
86.38726 188.0
86.455681 180.0
86.496361 168.0
86.513023 72.0
86.529686 36.0
86.557457 172.0
86.573181 352.0
86.701958 156.0
86.739029 132.0
86.752007 168.0
86.878113 128.0
86.943054 208.0
86.974609 180.0
86.993668 180.0
87.011734 236.0
87.034019 136.0
87.067444 196.0
87.104591 100.0
87.152893 124.0
87.216545 128.0
87.24144 144.0
87.299751 132.0
87.340118 216.0
87.344437 152.0
87.35054 220.0
87.40979 132.0
87.456032 192.0
87.491402 144.0
87.512405 156.0
87.534225 56.0
87.549126 244.0
87.573334 52.0
87.623634 224.0
87.648109 148.0
87.662766 204.0
87.675812 180.0
87.731224 148.0
87.752235 228.0
87.777359 152.0
87.818459 172.0
87.858681 56.0
87.88427 176.0
87.93692 56.0
87.955589 172.0
87.978058 336.0
88.022331 224.0
88.179726 136.0
88.237679 128.0
88.364861 116.0
88.37796 172.0
88.426613 56.0
88.467796 176.0
88.494003 160.0
88.521759 156.0
88.570793 136.0
88.612595 340.0
88.628868 132.0
88.692589 232.0
88.718834 124.0
88.746956 96.0
88.788208 164.0
88.819839 176.0
88.855087 172.0
88.919662 184.0
88.951454 200.0
89.050972 52.0
89.077271 140.0
89.0923 156.0
89.116722 132.0
89.139275 132.0
89.173103 156.0
89.188133 84.0
89.212578 196.0
89.240776 36.0
89.261459 112.0
89.280266 140.0
89.348663 132.0
89.37809 72.0
89.408195 124.0
89.449883 136.0
89.462624 236.0
89.534332 104.0
89.546867 92.0
89.592728 180.0
89.632294 72.0
89.647369 144.0
89.669991 144.0
89.694489 80.0
89.737022 164.0
89.754822 96.0
89.788765 88.0
89.826492 164.0
89.844589 108.0
89.865692 168.0
90.054893 132.0
90.071358 128.0
90.089272 120.0
90.143684 100.0
90.212578 148.0
90.232529 116.0
90.257103 116.0
90.298302 148.0
90.313843 344.0
90.327087 136.0
90.353569 128.0
90.370598 116.0
90.438271 116.0
90.463333 180.0
90.481041 204.0
90.520134 184.0
90.59211 140.0
90.642532 196.0
90.65464 224.0
90.6679 132.0
90.681168 136.0
90.766479 64.0
90.802513 188.0
90.870804 160.0
90.884087 152.0
90.97139 144.0
91.03405 100.0
91.056839 152.0
91.106224 112.0
91.17083 80.0
91.224052 196.0
91.270241 204.0
91.307716 148.0
91.334343 112.0
91.396446 156.0
91.429482 160.0
91.442802 144.0
91.467545 180.0
91.526566 176.0
91.553864 204.0
91.565315 104.0
91.64325 296.0
91.674416 156.0
91.703743 120.0
91.769455 144.0
91.802879 140.0
91.818138 128.0
91.85247 152.0
91.898254 104.0
91.932602 44.0
91.978409 72.0
92.071968 76.0
92.115799 148.0
92.169395 212.0
92.182777 148.0
92.282173 128.0
92.339203 220.0
92.39119 152.0
92.406494 96.0
92.435196 76.0
92.448593 128.0
92.479218 176.0
92.492615 204.0
92.530899 180.0
92.553879 144.0
92.590263 56.0
92.622292 144.0
92.744972 172.0
92.814476 124.0
92.842857 200.0
92.875847 96.0
92.890152 124.0
92.951439 220.0
92.977676 164.0
93.000572 156.0
93.033203 100.0
93.109055 136.0
93.127296 188.0
93.144585 200.0
93.32901 208.0
93.398323 184.0
93.430542 144.0
93.456039 120.0
93.53109 196.0
93.550346 60.0
93.588852 168.0
93.63932 172.0
93.660103 188.0
93.696709 120.0
93.763603 112.0
93.808487 156.0
93.82756 152.0
93.843185 88.0
93.879829 112.0
93.938118 36.0
93.948868 156.0
93.991714 76.0
94.036102 120.0
94.065483 168.0
94.110718 172.0
94.11808 112.0
94.258194 140.0
94.28138 176.0
94.31617 400.0
94.416718 188.0
94.454277 228.0
94.476021 188.0
94.506348 240.0
94.619896 432.0
94.643127 192.0
94.664429 156.0
94.786469 104.0
94.800034 76.0
94.832985 192.0
94.891136 224.0
94.947372 168.0
94.982796 184.0
94.999748 192.0
95.063774 128.0
95.083183 164.0
95.098709 148.0
95.294853 248.0
95.308449 148.0
95.339546 144.0
95.388138 132.0
95.410339 104.0
95.454239 168.0
95.63517 96.0
95.675278 192.0
95.736961 184.0
95.779266 116.0
95.816277 140.0
95.835762 128.0
95.861092 148.0
95.959953 156.0
95.967682 112.0
96.001457 128.0
96.023415 184.0
96.058022 116.0
96.081604 180.0
96.110695 136.0
96.130211 124.0
96.206329 148.0
96.251236 136.0
96.264908 72.0
96.282486 156.0
96.329605 140.0
96.370392 296.0
96.401657 184.0
96.444656 176.0
96.518158 208.0
96.605003 144.0
96.642174 132.0
96.675438 140.0
96.693054 96.0
96.714584 132.0
96.738075 152.0
96.769402 196.0
96.802689 112.0
96.851654 108.0
96.896706 180.0
96.916298 100.0
96.935898 196.0
96.949615 132.0
96.965294 172.0
97.000328 248.0
97.029984 168.0
97.069199 148.0
97.084885 116.0
97.137848 180.0
97.160118 260.0
97.253616 132.0
97.338753 200.0
97.361603 160.0
97.387138 216.0
97.413879 104.0
97.489304 152.0
97.508896 140.0
97.548264 152.0
97.573822 128.0
97.654449 160.0
97.681984 168.0
97.762657 188.0
97.788246 148.0
97.866989 96.0
97.888649 136.0
97.90834 168.0
97.947731 144.0
97.977287 124.0
98.008812 128.0
98.040337 152.0
98.065407 128.0
98.221733 196.0
98.249352 160.0
98.268311 176.0
98.292763 192.0
98.306572 184.0
98.322357 104.0
98.340126 140.0
98.399345 188.0
98.419182 88.0
98.513893 96.0
98.549454 168.0
98.622574 124.0
98.63839 80.0
98.666069 116.0
98.693085 144.0
98.807968 96.0
98.921272 300.0
98.972694 156.0
99.008392 104.0
99.03186 184.0
99.056808 156.0
99.085648 132.0
99.145088 136.0
99.158966 172.0
99.221092 152.0
99.299782 172.0
99.321556 132.0
99.377098 104.0
99.433891 156.0
99.516045 36.0
99.547813 124.0
99.571358 112.0
99.65654 212.0
99.690842 136.0
99.778305 108.0
99.81012 100.0
99.831993 152.0
99.861824 188.0
99.923492 132.0
100.024986 184.0
100.044899 344.0
100.079338 188.0
100.094673 152.0
100.119026 208.0
100.204224 140.0
100.295891 144.0
100.407547 116.0
100.465401 160.0
100.493332 148.0
100.517273 184.0
100.608772 176.0
100.643028 96.0
100.720032 180.0
100.762871 144.0
100.805122 136.0
100.822815 176.0
100.876785 120.0
100.892776 196.0
100.988762 132.0
101.068787 120.0
101.084793 116.0
101.148842 176.0
101.164856 220.0
101.25296 156.0
101.323067 144.0
101.367149 192.0
101.439751 108.0
101.503464 32.0
101.57814 188.0
101.668648 152.0
101.684021 208.0
101.732193 180.0
101.748253 128.0
101.786209 164.0
101.820541 96.0
101.836609 116.0
101.864639 176.0
101.902901 192.0
101.949074 168.0
102.011429 116.0
102.045609 140.0
102.081802 176.0
102.105934 200.0
102.126045 148.0
102.152199 168.0
102.200485 136.0
102.219971 152.0
102.355827 208.0
102.377632 120.0
102.43 152.0
102.460411 168.0
102.478348 136.0
102.520668 168.0
102.555664 188.0
102.609261 172.0
102.671867 172.0
102.685989 148.0
102.732384 148.0
102.760628 120.0
102.817123 132.0
102.833275 180.0
102.86557 176.0
102.960472 108.0
102.980667 328.0
103.010963 80.0
103.115509 200.0
103.148376 216.0
103.235321 164.0
103.255547 208.0
103.275772 232.0
103.322296 188.0
103.360741 152.0
103.383003 108.0
103.415382 200.0
103.445747 180.0
103.471153 204.0
103.514587 140.0
103.605736 108.0
103.625992 100.0
103.698944 128.0
103.793213 144.0
103.846954 180.0
103.889557 72.0
103.998779 136.0
104.015373 160.0
104.066132 204.0
104.092522 152.0
104.114861 212.0
104.185959 108.0
104.299759 56.0
104.348549 120.0
104.387711 124.0
104.424034 168.0
104.486847 76.0
104.505165 108.0
104.560104 188.0
104.595375 208.0
104.641533 108.0
104.704659 120.0
104.739311 392.0
104.763725 252.0
104.808556 176.0
104.920654 196.0
105.003113 164.0
105.017609 148.0
105.067497 192.0
105.087898 152.0
105.128067 228.0
105.204231 128.0
105.232811 116.0
105.278465 180.0
105.314499 92.0
105.386002 164.0
105.408478 164.0
105.424828 112.0
105.441177 176.0
105.496368 176.0
105.522942 60.0
105.563499 152.0
105.592018 120.0
105.651794 324.0
105.709084 112.0
105.731018 184.0
105.745918 236.0
105.760178 120.0
105.790543 140.0
105.839485 132.0
105.905525 160.0
105.929802 140.0
106.068291 188.0
106.112602 84.0
106.194633 108.0
106.214005 196.0
106.235657 108.0
106.266434 104.0
106.30542 148.0
106.379311 100.0
106.41832 112.0
106.432693 140.0
106.450592 128.0
106.468834 160.0
106.514091 228.0
106.54155 184.0
106.599083 184.0
106.629906 160.0
106.658684 240.0
106.68866 192.0
106.711288 204.0
106.724564 132.0
106.774323 100.0
106.80468 76.0
106.848763 300.0
106.930191 196.0
106.978203 220.0
107.039299 176.0
107.061951 92.0
107.07843 152.0
107.191734 92.0
107.241524 176.0
107.278305 168.0
107.359528 204.0
107.416473 172.0
107.445351 156.0
107.511383 168.0
107.575424 156.0
107.591881 124.0
107.628777 120.0
107.666222 188.0
107.82737 148.0
107.869125 140.0
107.934868 148.0
107.963821 104.0
107.990364 168.0
108.046562 164.0
108.096222 132.0
108.127258 160.0
108.205925 180.0
108.258705 180.0
108.305328 120.0
108.373688 304.0
108.458664 68.0
108.502579 172.0
108.53537 112.0
108.60173 192.0
108.703392 164.0
108.820305 220.0
108.843681 48.0
108.881927 156.0
108.968842 124.0
109.071007 120.0
109.143776 176.0
109.158325 148.0
109.262329 204.0
109.290703 132.0
109.312263 212.0
109.333076 132.0
109.356346 132.0
109.394463 172.0
109.428833 76.0
109.470474 124.0
109.545456 76.0
109.605881 112.0
109.632973 144.0
109.655403 168.0
109.69133 140.0
109.754082 124.0
109.789291 208.0
109.837303 140.0
109.863518 148.0
110.019753 352.0
110.062698 192.0
110.096107 116.0
110.17131 92.0
110.185928 164.0
110.219688 204.0
110.248306 108.0
110.28833 128.0
110.447601 256.0
110.608368 132.0
110.631393 64.0
110.662796 96.0
110.682823 196.0
110.702583 280.0
110.748665 132.0
110.831352 144.0
110.874374 84.0
110.907967 140.0
110.947739 104.0
111.077759 160.0
111.105026 208.0
111.119713 92.0
111.176369 140.0
111.216179 244.0
111.258232 168.0
111.287628 128.0
111.307213 164.0
111.390533 104.0
111.490677 304.0
111.537628 128.0
111.615417 160.0
111.642761 80.0
111.668945 240.0
111.706635 184.0
111.785812 120.0
111.815269 72.0
111.851051 168.0
111.906586 148.0
111.926849 132.0
111.941589 160.0
111.964714 200.0
111.996346 232.0
112.02314 228.0
112.099579 80.0
112.129555 176.0
112.152275 132.0
112.169136 144.0
112.20919 88.0
112.236603 148.0
112.274559 352.0
112.361046 284.0
112.394806 144.0
112.538338 164.0
112.567902 296.0
112.669495 196.0
112.685982 168.0
112.737602 132.0
112.787895 332.0
112.808762 72.0
112.846817 200.0
112.867126 176.0
112.947624 156.0
112.965958 156.0
112.983009 112.0
112.996407 160.0
113.032166 224.0
113.068565 160.0
113.09433 188.0
113.115501 52.0
113.151489 108.0
113.170547 104.0
113.223488 88.0
113.246788 88.0
113.295509 228.0
113.332718 156.0
113.357796 180.0
113.405693 184.0
113.445969 156.0
113.479897 160.0
113.560478 128.0
113.583809 140.0
113.634727 156.0
113.670799 172.0
113.726715 192.0
113.891602 88.0
113.906471 168.0
113.925591 144.0
114.008453 180.0
114.055069 180.0
114.063362 168.0
114.068214 136.0
114.091354 116.0
114.110123 140.0
114.13813 104.0
114.159393 172.0
114.199806 176.0
114.278511 116.0
114.315376 124.0
114.391312 84.0
114.415283 92.0
114.467957 72.0
114.502037 108.0
114.585114 80.0
114.614944 128.0
114.634117 176.0
114.700188 208.0
114.73217 204.0
114.849037 144.0
114.854233 116.0
114.92308 148.0
114.951859 172.0
114.975868 176.0
114.998817 132.0
115.019897 132.0
115.041504 48.0
115.058586 152.0
115.084206 108.0
115.133034 156.0
115.188858 84.0
115.223038 120.0
115.267906 196.0
115.35981 44.0
115.39402 232.0
115.426094 168.0
115.451752 40.0
115.472633 168.0
115.503082 116.0
115.659294 116.0
115.674278 152.0
115.735725 188.0
115.755638 184.0
115.821609 164.0
115.951469 204.0
115.98407 172.0
116.069931 444.0
116.13475 112.0
116.167152 40.0
116.186462 124.0
116.21006 192.0
116.226852 160.0
116.276588 156.0
116.302345 144.0
116.334541 152.0
116.366745 220.0
116.392509 200.0
116.41613 188.0
116.493454 120.0
116.540726 160.0
116.63958 72.0
116.678276 160.0
116.699776 180.0
116.723434 184.0
116.772644 204.0
116.823715 160.0
116.947174 404.0
116.964394 104.0
117.008583 220.0
117.074203 164.0
117.093582 76.0
117.134506 156.0
117.160362 184.0
117.201294 300.0
117.228577 176.0
117.304749 252.0
117.41256 120.0
117.451385 92.0
117.492371 156.0
117.628326 92.0
117.675819 72.0
117.703896 208.0
117.755722 132.0
117.77948 88.0
117.798065 212.0
117.82032 124.0
117.859421 64.0
117.935059 140.0
117.950188 108.0
117.969643 132.0
118.070778 176.0
118.196739 44.0
118.246712 176.0
118.284645 240.0
118.391571 116.0
118.417564 104.0
118.547974 144.0
118.580063 148.0
118.597397 188.0
118.623413 132.0
118.645088 176.0
118.677612 292.0
118.712311 148.0
118.740112 240.0
118.787048 192.0
118.91407 76.0
118.935776 148.0
118.985764 156.0
119.00959 184.0
119.029137 144.0
119.044334 160.0
119.110214 288.0
119.137733 100.0
119.252899 144.0
119.33551 108.0
119.35508 164.0
119.387695 144.0
119.45295 128.0
119.585686 116.0
119.616158 132.0
119.680504 156.0
119.735916 136.0
119.77076 152.0
119.794724 188.0
119.823334 92.0
119.916748 268.0
120.019211 100.0
120.034477 56.0
120.049744 176.0
120.187935 216.0
120.302841 152.0
120.377296 204.0
120.4011 108.0
120.429497 92.0
120.45134 44.0
120.473183 140.0
120.490662 124.0
120.516876 176.0
120.562767 136.0
120.580254 416.0
120.61235 208.0
120.643646 200.0
120.672066 88.0
120.693932 208.0
120.72673 112.0
120.742043 220.0
120.816414 188.0
120.871109 32.0
120.929916 184.0
120.938026 160.0
120.980545 144.0
121.065941 216.0
121.095779 148.0
121.166702 148.0
121.188614 224.0
121.217659 156.0
121.324501 52.0
121.372734 152.0
121.401016 196.0
121.407822 176.0
121.458267 152.0
121.488976 200.0
121.512703 172.0
121.517059 140.0
121.548218 180.0
121.576744 120.0
121.609673 104.0
121.668938 80.0
121.690895 136.0
121.739204 236.0
121.773201 148.0
121.852409 208.0
121.868805 168.0
122.005699 196.0
122.04245 208.0
122.095909 128.0
122.130646 200.0
122.156815 168.0
122.264626 192.0
122.284439 160.0
122.326202 148.0
122.359283 52.0
122.374695 152.0
122.412125 76.0
122.427544 156.0
122.546494 124.0
122.588364 36.0
122.733849 100.0
122.755898 176.0
122.782364 164.0
122.916931 168.0
122.941025 144.0
122.990219 176.0
123.020668 76.0
123.104568 116.0
123.179665 188.0
123.239319 148.0
123.298981 188.0
123.381897 204.0
123.433838 120.0
123.482491 92.0
123.599739 228.0
123.624077 100.0
123.65728 156.0
123.689011 244.0
123.717041 276.0
123.745827 128.0
123.762321 180.0
123.785683 232.0
123.805611 216.0
123.887566 120.0
123.945175 140.0
123.99836 88.0
124.019745 148.0
124.078217 168.0
124.110016 320.0
124.131378 144.0
124.197914 216.0
124.257812 196.0
124.32444 152.0
124.372421 204.0
124.395409 160.0
124.420311 184.0
124.521973 92.0
124.735283 136.0
124.777519 140.0
124.801979 180.0
124.890938 188.0
124.915405 124.0
124.971024 136.0
125.037781 180.0
125.070915 184.0
125.131279 140.0
125.164116 192.0
125.204758 348.0
125.221817 200.0
125.247078 60.0
125.302773 124.0
125.360703 176.0
125.39859 124.0
125.439842 188.0
125.500694 120.0
125.518982 128.0
125.539047 132.0
125.565811 132.0
125.641655 124.0
125.77108 152.0
125.804565 132.0
125.880547 140.0
125.909515 164.0
125.93605 168.0
126.012268 124.0
126.127777 288.0
126.179893 112.0
126.208961 60.0
126.248253 140.0
126.29171 148.0
126.311844 184.0
126.348892 220.0
126.420158 256.0
126.458916 148.0
126.535629 152.0
126.613258 164.0
126.627907 164.0
126.715996 136.0
126.750656 44.0
126.813408 164.0
126.882904 240.0
126.898598 92.0
126.947929 124.0
127.006241 212.0
127.0354 120.0
127.071297 188.0
127.089554 148.0
127.134125 108.0
127.167 284.0
127.219421 52.0
127.239624 120.0
127.259003 280.0
127.300255 128.0
127.37886 184.0
127.41256 108.0
127.430534 108.0
127.51368 116.0
127.540649 108.0
127.583366 152.0
127.659813 136.0
127.734032 176.0
127.776779 116.0
127.801529 340.0
127.858749 112.0
127.884796 48.0
127.934319 152.0
127.99511 124.0
128.017624 180.0
128.037903 112.0
128.067169 208.0
128.128006 148.0
128.145508 212.0
128.164047 164.0
128.184326 288.0
128.212128 216.0
128.253555 100.0
128.277908 140.0
128.297028 184.0
128.436127 176.0
128.469376 208.0
128.5 124.0
128.537003 132.0
128.608322 224.0
128.708008 128.0
128.755737 196.0
128.794968 140.0
128.93808 104.0
129.003159 192.0
129.044327 92.0
129.148361 160.0
129.195862 172.0
129.259216 188.0
129.279587 172.0
129.295425 72.0
129.356232 208.0
129.410873 56.0
129.442566 56.0
129.503723 200.0
129.539764 184.0
129.596603 208.0
129.621521 164.0
129.66362 188.0
129.723526 92.0
129.748459 80.0
129.805145 164.0
129.869965 140.0
129.918549 120.0
129.991318 108.0
130.025192 144.0
130.061508 136.0
130.098724 92.0
130.125076 104.0
130.200012 64.0
130.236359 192.0
130.263611 156.0
130.295822 68.0
130.331772 204.0
130.418671 184.0
130.543182 196.0
130.593216 116.0
130.702408 136.0
130.738815 284.0
130.757034 312.0
130.813934 172.0
130.834427 96.0
130.910065 160.0
130.955109 76.0
131.007507 108.0
131.048508 188.0
131.066742 224.0
131.121429 168.0
131.155777 120.0
131.189819 160.0
131.251373 212.0
131.278732 112.0
131.376816 176.0
131.433853 124.0
131.553085 152.0
131.577652 68.0
131.680405 128.0
131.696396 148.0
131.739807 188.0
131.767212 152.0
131.861755 184.0
131.884705 156.0
131.905701 168.0
131.956909 140.0
132.043808 136.0
132.114716 144.0
132.26709 228.0
132.302383 132.0
132.411591 236.0
132.478729 136.0
132.515976 200.0
132.57103 180.0
132.629272 244.0
132.684586 192.0
132.710205 124.0
132.777176 180.0
132.849579 140.0
132.881958 136.0
132.948776 188.0
132.967133 140.0
132.987793 44.0
133.022217 192.0
133.037415 148.0
133.061249 196.0
133.104874 164.0
133.13472 100.0
133.248032 184.0
133.277145 140.0
133.302429 96.0
133.331741 164.0
133.36322 196.0
133.411346 124.0
133.432785 248.0
133.525421 176.0
133.702576 224.0
133.760117 144.0
133.77623 172.0
133.799255 116.0
133.881317 156.0
133.905182 132.0
133.923615 100.0
133.948944 180.0
133.965073 148.0
133.985809 128.0
134.022675 156.0
134.077972 164.0
134.124069 164.0
134.165573 164.0
134.234741 228.0
134.308548 168.0
134.336227 304.0
134.412369 140.0
134.430817 128.0
134.487885 172.0
134.54393 172.0
134.590103 164.0
134.648819 112.0
134.677856 172.0
134.763336 196.0
134.927429 156.0
134.989792 188.0
135.018402 164.0
135.032822 132.0
135.174576 204.0
135.21196 52.0
135.279083 184.0
135.30455 156.0
135.33696 132.0
135.353165 164.0
135.443497 148.0
135.462021 120.0
135.487976 180.0
135.59874 228.0
135.624237 112.0
135.640457 56.0
135.656693 128.0
135.672913 152.0
135.714645 112.0
135.77858 120.0
135.840424 136.0
135.894684 148.0
136.065002 176.0
136.091629 128.0
136.218277 52.0
136.255447 172.0
136.327469 136.0
136.373947 140.0
136.392288 180.0
136.459961 132.0
136.515778 132.0
136.541916 236.0
136.56926 128.0
136.604156 112.0
136.635956 108.0
136.680939 104.0
136.794983 152.0
136.813599 148.0
136.876465 156.0
136.934692 116.0
136.974289 84.0
137.006897 156.0
137.055832 180.0
137.074341 172.0
137.123413 168.0
137.21199 152.0
137.24231 248.0
137.258621 208.0
137.391571 92.0
137.459366 144.0
137.503571 140.0
137.561935 160.0
137.580276 120.0
137.745407 224.0
137.772263 124.0
137.797806 72.0
137.822937 212.0
137.860901 256.0
137.989975 128.0
138.052139 480.0
138.129517 160.0
138.176575 224.0
138.204651 124.0
138.225708 172.0
138.249115 160.0
138.267838 40.0
138.33197 96.0
138.356781 104.0
138.395248 140.0
138.441071 116.0
138.466843 136.0
138.53476 96.0
138.555435 136.0
138.585709 140.0
138.633179 116.0
138.668335 156.0
138.732391 196.0
138.750366 188.0
138.821045 140.0
138.86058 200.0
138.916016 152.0
138.940338 164.0
139.036545 180.0
139.08075 260.0
139.128098 172.0
139.212616 124.0
139.327713 456.0
139.384109 128.0
139.455673 88.0
139.494568 88.0
139.549606 196.0
139.609787 148.0
139.647415 212.0
139.701508 164.0
139.765045 168.0
139.790924 116.0
139.809753 32.0
139.870941 96.0
139.887421 92.0
139.908615 172.0
139.939224 112.0
139.965118 136.0
140.054611 124.0
140.097015 108.0
140.134705 180.0
140.179474 64.0
140.210114 132.0
140.238403 96.0
140.345093 92.0
140.389282 156.0
140.413925 116.0
140.476562 308.0
140.516663 156.0
140.566223 152.0
140.608688 88.0
140.639236 136.0
140.690384 164.0
140.740891 68.0
140.785767 168.0
140.84935 108.0
140.891403 188.0
140.913315 180.0
140.93222 104.0
140.948761 164.0
140.980957 148.0
141.014923 168.0
141.031479 152.0
141.065964 196.0
141.149689 184.0
141.178055 176.0
141.210251 164.0
141.263214 184.0
141.293961 136.0
141.312897 136.0
141.334183 156.0
141.372055 144.0
141.424118 80.0
141.485672 132.0
141.535202 208.0
141.604065 224.0
141.785049 204.0
141.796799 92.0
141.807556 144.0
141.859085 224.0
141.990387 188.0
142.107162 124.0
142.158829 108.0
142.194427 100.0
142.227661 92.0
142.274841 164.0
142.297287 168.0
142.346359 148.0
142.389114 148.0
142.415237 128.0
142.455948 144.0
142.530792 164.0
142.572876 172.0
142.612457 388.0
142.676636 116.0
142.751434 236.0
142.793152 172.0
142.828415 276.0
142.897827 140.0
142.962494 176.0
143.009674 160.0
143.045593 132.0
143.064423 160.0
143.14299 148.0
143.223389 132.0
143.261261 104.0
143.357391 96.0
143.486099 108.0
143.524246 96.0
143.562408 140.0
143.589691 128.0
143.669083 172.0
143.686447 124.0
143.736542 156.0
143.789047 100.0
143.886917 140.0
143.927505 88.0
143.972885 40.0
144.013489 140.0
144.033737 200.0
144.075592 108.0
144.092316 148.0
144.130554 164.0
144.214188 164.0
144.295044 112.0
144.319382 164.0
144.366058 164.0
144.407867 164.0
144.527481 128.0
144.599564 284.0
144.673477 140.0
144.778824 136.0
144.800385 152.0
144.891403 176.0
144.951309 132.0
144.977676 176.0
145.030975 216.0
145.075943 136.0
145.116699 128.0
145.144226 192.0
145.207031 104.0
145.239014 40.0
145.303787 156.0
145.379379 236.0
145.418961 88.0
145.438171 140.0
145.46698 192.0
145.522186 104.0
145.543808 168.0
145.565414 208.0
145.61557 164.0
145.687912 40.0
145.752777 104.0
145.798431 80.0
145.817673 160.0
145.85202 124.0
145.978973 168.0
146.034058 192.0
146.093231 180.0
146.185623 152.0
146.212097 140.0
146.271103 156.0
146.291534 92.0
146.325592 108.0
146.419144 80.0
146.47583 180.0
146.539597 92.0
146.590195 36.0
146.607056 84.0
146.626343 204.0
146.652847 300.0
146.729996 72.0
146.746872 40.0
146.766159 164.0
146.788589 172.0
146.819214 204.0
146.83609 184.0
146.872269 80.0
146.893982 128.0
146.935806 204.0
147.033936 184.0
147.115997 204.0
147.154633 196.0
147.188431 136.0
147.243973 72.0
147.275375 104.0
147.306778 172.0
147.335083 324.0
147.567795 192.0
147.635498 148.0
147.674194 148.0
147.693985 172.0
147.717728 144.0
147.768539 44.0
147.804825 168.0
147.829025 144.0
147.850815 120.0
147.877426 124.0
147.921005 120.0
147.959732 84.0
147.983948 156.0
148.017853 364.0
148.095352 92.0
148.155899 236.0
148.177383 176.0
148.240707 96.0
148.2901 168.0
148.364319 108.0
148.39888 128.0
148.42009 128.0
148.524368 44.0
148.572891 160.0
148.589874 112.0
148.650528 56.0
148.70636 152.0
148.75975 108.0
148.82045 160.0
148.98465 160.0
149.017197 132.0
149.094955 100.0
149.15329 188.0
149.20433 136.0
149.342102 172.0
149.362396 72.0
149.393539 124.0
149.43782 68.0
149.518127 72.0
149.559494 160.0
149.642273 112.0
149.663147 160.0
149.68367 132.0
149.817627 100.0
149.849289 96.0
149.86879 140.0
149.922394 172.0
149.971146 116.0
150.007706 216.0
150.044281 168.0
150.09259 176.0
150.129623 120.0
150.163757 180.0
150.195465 152.0
150.220139 212.0
150.245804 184.0
150.27066 176.0
150.312576 52.0
150.401489 120.0
150.433151 192.0
150.451706 192.0
150.556702 128.0
150.595779 124.0
150.656845 204.0
150.813232 84.0
150.869461 136.0
150.981934 188.0
151.008835 108.0
151.028412 184.0
151.047943 132.0
151.09935 144.0
151.121368 212.0
151.230881 204.0
151.246994 192.0
151.32251 184.0
151.360764 160.0
151.402878 200.0
151.45015 200.0
151.469009 172.0
151.513107 196.0
151.628281 260.0
151.670151 140.0
151.714066 52.0
151.765564 80.0
151.787628 164.0
151.868561 196.0
151.929886 108.0
151.951965 120.0
152.032944 32.0
152.068985 2852.0
152.131119 128.0
152.151901 172.0
152.185135 176.0
152.251434 128.0
152.325119 148.0
152.344772 220.0
152.393906 44.0
152.414536 156.0
152.447968 164.0
152.494446 220.0
152.533997 152.0
152.570877 128.0
152.590546 148.0
152.612671 116.0
152.696274 88.0
152.730713 188.0
152.777451 148.0
152.802048 356.0
152.819275 108.0
152.882309 220.0
152.912796 76.0
152.93248 100.0
152.993073 352.0
153.048187 168.0
153.07106 516.0
153.102356 156.0
153.138428 1608.0
153.171326 132.0
153.218765 172.0
153.264954 176.0
153.289581 168.0
153.326553 52.0
153.346268 44.0
153.452271 192.0
153.484329 220.0
153.511063 176.0
153.517975 148.0
153.617508 156.0
153.651047 108.0
153.706329 128.0
153.752518 180.0
153.787766 100.0
153.80751 112.0
153.843536 156.0
153.869232 52.0
153.908737 112.0
153.970596 168.0
154.064102 280.0
154.142838 404.0
154.170593 148.0
154.192825 208.0
154.227432 32.0
154.247208 112.0
154.269455 308.0
154.368362 104.0
154.443161 132.0
154.472244 124.0
154.496979 132.0
154.529144 64.0
154.551407 96.0
154.626007 192.0
154.659012 160.0
154.677628 412.0
154.744476 156.0
154.766754 100.0
154.817108 132.0
154.877106 168.0
154.915359 168.0
154.932693 88.0
154.972336 324.0
154.997116 172.0
155.07132 352.0
155.116074 136.0
155.15358 188.0
155.222687 148.0
155.247482 184.0
155.264847 148.0
155.302048 84.0
155.326859 136.0
155.373993 164.0
155.428574 216.0
155.490616 140.0
155.515442 132.0
155.592392 136.0
155.614731 156.0
155.632111 132.0
155.667648 156.0
155.739059 132.0
155.799301 168.0
155.838272 124.0
155.911865 144.0
156.131607 220.0
156.164047 84.0
156.207733 164.0
156.404205 164.0
156.445129 188.0
156.472504 196.0
156.531708 180.0
156.572113 156.0
156.706635 136.0
156.734039 116.0
156.818771 144.0
156.838074 268.0
156.901031 196.0
156.925186 320.0
156.94841 152.0
157.216599 164.0
157.301483 260.0
157.326599 208.0
157.362595 112.0
157.380066 156.0
157.416412 116.0
157.420837 172.0
157.452499 136.0
157.532425 132.0
157.552414 172.0
157.579895 140.0
157.599884 100.0
157.62236 136.0
157.642365 196.0
157.775436 196.0
157.899857 164.0
157.927368 92.0
157.972397 140.0
158.007416 136.0
158.041336 156.0
158.072693 144.0
158.102676 60.0
158.144852 144.0
158.15242 132.0
158.21344 164.0
158.232666 148.0
158.257706 128.0
158.29277 272.0
158.340485 224.0
158.375412 140.0
158.428024 156.0
158.450714 132.0
158.546524 164.0
158.570847 108.0
158.597885 224.0
158.671112 92.0
158.691177 172.0
158.711243 172.0
158.756378 148.0
158.801514 120.0
158.839142 48.0
158.874268 128.0
158.916916 176.0
158.972122 212.0
158.999725 252.0
159.020889 148.0
159.049026 172.0
159.08255 356.0
159.137848 160.0
159.157883 140.0
159.514557 180.0
159.548019 212.0
159.569946 216.0
159.615204 148.0
159.695679 132.0
159.767059 148.0
159.783066 216.0
159.816956 192.0
159.871796 40.0
159.907028 156.0
159.974854 148.0
160.000168 128.0
160.048004 112.0
160.078598 136.0
160.129654 208.0
160.173935 140.0
160.253281 208.0
160.301331 156.0
160.360382 156.0
160.383835 120.0
160.410797 168.0
160.437271 168.0
160.466263 232.0
160.598587 160.0
160.642807 120.0
160.678116 88.0
160.710922 168.0
160.771484 120.0
160.789978 304.0
160.860931 160.0
160.898666 176.0
160.928802 168.0
160.978485 36.0
161.001221 184.0
161.01889 200.0
161.039108 76.0
161.080811 204.0
161.089142 104.0
161.098297 184.0
161.122467 144.0
161.146637 120.0
161.168579 128.0
161.254318 200.0
161.274734 124.0
161.340149 152.0
161.360748 128.0
161.395432 312.0
161.420715 132.0
161.453598 180.0
161.488998 104.0
161.54718 76.0
161.704071 92.0
161.790131 272.0
161.807861 168.0
161.875565 200.0
161.916733 168.0
161.980057 244.0
162.013 164.0
162.045929 168.0
162.080963 252.0
162.149826 208.0
162.220795 140.0
162.244202 156.0
162.279114 160.0
162.375473 152.0
162.408447 204.0
162.477417 168.0
162.540375 160.0
162.573257 188.0
162.674881 164.0
162.733276 124.0
162.776215 172.0
162.806915 56.0
162.845016 172.0
162.88237 184.0
162.928787 180.0
162.987274 140.0
163.007248 168.0
163.058441 176.0
163.121979 160.0
163.20842 116.0
163.230286 180.0
163.371201 148.0
163.399185 144.0
163.421112 104.0
163.472977 132.0
163.534058 176.0
163.704636 140.0
163.732651 144.0
163.789703 120.0
163.902435 196.0
163.941544 144.0
163.974686 140.0
164.009003 224.0
164.035858 136.0
164.062347 132.0
164.102142 140.0
164.124176 168.0
164.156815 264.0
164.247513 160.0
164.273819 164.0
164.293427 224.0
164.357208 216.0
164.384766 100.0
164.426117 212.0
164.461838 164.0
164.482269 152.0
164.518005 72.0
164.540985 188.0
164.558853 112.0
164.576721 112.0
164.643112 108.0
164.663544 92.0
164.727402 80.0
164.758057 92.0
164.79895 160.0
164.83577 116.0
164.866623 164.0
164.915329 140.0
164.985519 144.0
165.023163 176.0
165.07019 244.0
165.09874 120.0
165.131271 164.0
165.174759 112.0
165.274536 172.0
165.40506 56.0
165.448578 244.0
165.475815 156.0
165.504898 176.0
165.540756 216.0
165.574051 120.0
165.594528 112.0
165.668823 100.0
165.709808 252.0
165.753372 136.0
165.794373 108.0
165.820007 116.0
165.8405 96.0
165.884079 120.0
165.919968 152.0
165.937912 120.0
165.99176 44.0
166.016998 136.0
166.066132 188.0
166.118042 348.0
166.220062 148.0
166.306793 148.0
166.347427 212.0
166.374069 184.0
166.425415 128.0
166.476776 144.0
166.494751 144.0
166.530716 144.0
166.569244 172.0
166.587219 164.0
166.620621 124.0
166.646317 144.0
166.677139 112.0
166.718262 132.0
166.766876 224.0
166.805649 160.0
166.839523 136.0
166.89563 52.0
166.918777 172.0
167.07576 776.0
167.123306 532.0
167.152863 312.0
167.227493 228.0
167.245514 152.0
167.271255 128.0
167.448914 176.0
167.484985 156.0
167.514832 176.0
167.601456 168.0
167.634338 136.0
167.675644 124.0
167.716888 180.0
167.845886 216.0
167.871582 132.0
167.959259 116.0
167.986313 256.0
168.036652 164.0
168.080353 176.0
168.168274 152.0
168.18634 96.0
168.25087 68.0
168.318008 68.0
168.470383 208.0
168.50914 120.0
168.66011 48.0
168.706772 136.0
168.749512 120.0
168.83226 132.0
168.850357 188.0
168.881393 156.0
168.920074 320.0
169.021103 100.0
169.06575 176.0
169.089859 172.0
169.1548 128.0
169.187897 176.0
169.22818 72.0
169.260544 208.0
169.373199 84.0
169.406876 88.0
169.469055 56.0
169.492371 168.0
169.529221 184.0
169.570114 144.0
169.588257 148.0
169.655655 160.0
169.678391 136.0
169.702332 276.0
169.720474 156.0
169.759369 120.0
169.785309 256.0
169.894257 164.0
169.912415 112.0
169.986267 156.0
169.995926 192.0
170.016205 124.0
170.04071 200.0
170.109558 120.0
170.153778 164.0
170.182343 128.0
170.22876 180.0
170.262146 208.0
170.284195 196.0
170.312195 140.0
170.335571 120.0
170.361542 132.0
170.432388 164.0
170.566833 196.0
170.595428 192.0
170.639633 164.0
170.676025 220.0
170.725433 140.0
170.790466 260.0
170.821671 132.0
170.879501 204.0
170.902328 108.0
170.920547 112.0
170.990372 220.0
170.998779 184.0
171.004349 232.0
171.126175 208.0
171.177887 172.0
171.209503 260.0
171.254761 220.0
171.285034 160.0
171.31369 112.0
171.381424 144.0
171.512543 140.0
171.543015 160.0
171.582794 260.0
171.616837 164.0
171.649902 124.0
171.683807 152.0
171.704666 152.0
171.799316 168.0
171.889435 112.0
172.019211 308.0
172.064774 60.0
172.10257 164.0
172.222702 84.0
172.332962 152.0
172.561188 92.0
172.583466 132.0
172.644867 80.0
172.665787 188.0
172.69455 92.0
172.737869 168.0
172.783493 140.0
172.867233 128.0
172.911713 128.0
172.950974 156.0
173.024277 152.0
173.089737 208.0
173.176163 160.0
173.227585 292.0
173.274307 120.0
173.364792 120.0
173.416351 172.0
173.4207 276.0
173.476456 244.0
173.54512 156.0
173.553452 124.0
173.559265 152.0
173.605972 64.0
173.671539 176.0
173.708267 188.0
173.729248 92.0
173.81424 144.0
173.85257 208.0
173.897629 96.0
173.917603 108.0
173.989075 156.0
174.033707 144.0
174.183395 108.0
174.228058 104.0
174.283234 160.0
174.309509 92.0
174.348236 92.0
174.354797 120.0
174.419525 140.0
174.535568 208.0
174.555145 164.0
174.727814 180.0
174.788101 192.0
174.817047 184.0
174.861786 160.0
174.915253 128.0
174.969711 144.0
175.024994 184.0
175.061859 156.0
175.14238 164.0
175.175125 212.0
175.234924 120.0
175.312134 152.0
175.438644 164.0
175.465012 144.0
175.52829 180.0
175.552032 120.0
175.585007 168.0
175.622208 184.0
175.673355 148.0
175.784332 200.0
175.82135 136.0
175.921875 188.0
175.947815 136.0
176.023926 136.0
176.06929 136.0
176.119476 56.0
176.172302 116.0
176.268127 164.0
176.299133 192.0
176.365204 100.0
176.404861 196.0
176.483856 196.0
176.531769 212.0
176.566147 128.0
176.669312 156.0
176.699265 136.0
176.724869 104.0
176.772491 120.0
176.849243 212.0
176.873077 64.0
177.008087 172.0
177.065765 268.0
177.095932 156.0
177.164368 120.0
177.196152 108.0
177.224731 184.0
177.264191 136.0
177.277054 68.0
177.336609 128.0
177.379013 232.0
177.437332 104.0
177.481506 152.0
177.533813 136.0
177.559311 368.0
177.638565 64.0
177.77951 216.0
177.848526 164.0
177.867096 128.0
177.981262 48.0
178.037033 144.0
178.063385 1840.0
178.132645 160.0
178.209686 52.0
178.298553 164.0
178.339905 100.0
178.366486 80.0
178.427628 144.0
178.529205 120.0
178.597824 216.0
178.632401 100.0
178.665329 268.0
178.696259 204.0
178.773422 168.0
178.792053 136.0
178.882462 116.0
178.888565 108.0
178.901611 148.0
178.92514 168.0
179.00769 184.0
179.069763 1528.0
179.117889 212.0
179.148849 44.0
179.280334 172.0
179.306061 160.0
179.367371 120.0
179.391785 200.0
179.476669 64.0
179.5271 132.0
179.631363 44.0
179.678711 112.0
179.746078 156.0
179.788788 80.0
179.850174 124.0
179.906235 132.0
179.946274 180.0
180.013031 76.0
180.076218 1296.0
180.130554 244.0
180.157257 216.0
180.206116 56.0
180.22847 92.0
180.325882 248.0
180.355011 116.0
180.403122 152.0
180.460251 240.0
180.590302 132.0
180.614548 120.0
180.665207 84.0
180.683929 124.0
180.71936 100.0
180.75177 184.0
180.815048 132.0
180.920349 300.0
180.947067 88.0
180.989059 120.0
181.013153 140.0
181.031906 316.0
181.060959 556.0
181.085663 776.0
181.132874 6408.0
181.167542 108.0
181.211365 48.0
181.256912 44.0
181.283722 84.0
181.316833 180.0
181.36412 112.0
181.383408 164.0
181.416748 184.0
181.452316 80.0
181.481018 344.0
181.498703 160.0
181.565201 32.0
181.706223 196.0
181.736893 168.0
181.799988 132.0
181.846924 160.0
181.887238 212.0
181.938812 184.0
181.97821 212.0
181.983551 192.0
182.045593 128.0
182.088562 180.0
182.13533 956.0
182.284668 116.0
182.319611 68.0
182.357239 152.0
182.427124 180.0
182.456787 112.0
182.480896 244.0
182.502396 196.0
182.583252 132.0
182.641266 88.0
182.701431 40.0
182.744476 80.0
182.823654 180.0
182.897644 144.0
182.951706 116.0
183.021713 164.0
183.048492 144.0
183.05513 136.0
183.06749 200.0
183.146729 968.0
183.224289 328.0
183.268188 144.0
183.299164 128.0
183.358444 176.0
183.377319 252.0
183.406693 160.0
183.536377 100.0
183.605453 136.0
183.638855 136.0
183.73259 192.0
183.808807 184.0
183.830399 164.0
183.848679 148.0
183.853531 84.0
183.863464 248.0
183.907394 144.0
183.957886 136.0
183.977036 116.0
184.051559 292.0
184.134354 264.0
184.243515 64.0
184.2845 96.0
184.309662 200.0
184.346191 116.0
184.471405 160.0
184.488388 132.0
184.511703 308.0
184.540604 156.0
184.592194 96.0
184.621933 148.0
184.640869 88.0
184.680634 160.0
184.832947 92.0
184.873535 64.0
184.897888 192.0
184.941574 168.0
184.962845 108.0
185.046768 104.0
185.140686 312.0
185.198425 132.0
185.252594 56.0
185.342331 132.0
185.397064 164.0
185.42601 76.0
185.456848 204.0
185.504623 200.0
185.56427 136.0
185.599518 92.0
185.634766 128.0
185.705276 108.0
185.724274 192.0
185.751389 36.0
185.773102 36.0
185.859909 132.0
185.957611 244.0
186.001038 140.0
186.062866 124.0
186.094543 216.0
186.155792 220.0
186.218262 76.0
186.299759 176.0
186.345932 116.0
186.375824 144.0
186.400284 112.0
186.438324 124.0
186.462784 192.0
186.564133 128.0
186.595993 148.0
186.685715 144.0
186.71019 84.0
186.737396 92.0
186.848923 136.0
186.897903 140.0
186.952316 120.0
186.992279 176.0
187.025803 300.0
187.167374 144.0
187.194611 256.0
187.240768 84.0
187.247925 208.0
187.314438 108.0
187.366196 172.0
187.405807 144.0
187.475189 96.0
187.551514 128.0
187.585403 140.0
187.627838 72.0
187.679642 156.0
187.722641 192.0
187.76503 388.0
187.791458 316.0
187.818726 164.0
187.865097 48.0
187.941696 212.0
187.971512 136.0
188.009201 128.0
188.107971 100.0
188.170776 164.0
188.192245 152.0
188.333206 124.0
188.402908 212.0
188.454819 84.0
188.514938 180.0
188.621536 84.0
188.728149 164.0
188.777374 196.0
188.84259 180.0
188.920578 180.0
188.971588 160.0
188.998947 60.0
189.124832 164.0
189.194031 116.0
189.264862 188.0
189.338394 304.0
189.363052 168.0
189.409607 108.0
189.44249 176.0
189.49852 184.0
189.566986 164.0
189.604141 96.0
189.678146 132.0
189.751068 140.0
189.780807 156.0
189.817978 136.0
189.850891 136.0
189.941391 216.0
190.018631 156.0
190.063644 1364.0
190.100525 152.0
190.126877 232.0
190.219727 316.0
190.281693 156.0
190.362595 224.0
190.42569 188.0
190.449203 80.0
190.548096 108.0
190.585449 208.0
190.638779 96.0
190.66153 200.0
190.696487 48.0
190.778961 120.0
190.806442 188.0
190.838058 112.0
190.902679 176.0
190.949432 88.0
190.990692 172.0
191.073029 3636.0
191.127243 164.0
191.155777 164.0
191.175034 116.0
191.234238 228.0
191.274124 112.0
191.296143 288.0
191.347961 112.0
191.469604 52.0
191.499908 140.0
191.636383 184.0
191.687607 216.0
191.795319 168.0
191.876205 164.0
191.902237 144.0
191.936874 148.0
191.956345 152.0
192.014709 168.0
192.07933 2488.0
192.122879 336.0
192.148834 128.0
192.191864 160.0
192.23877 156.0
192.325043 340.0
192.357452 124.0
192.478928 152.0
192.54245 48.0
192.586472 132.0
192.61702 116.0
192.658463 108.0
192.684647 84.0
192.730301 44.0
192.755615 172.0
192.867142 196.0
192.932053 64.0
192.970764 108.0
193.01088 116.0
193.031601 116.0
193.088303 1008.0
193.125168 120.0
193.168579 176.0
193.190231 108.0
193.219681 116.0
193.239044 68.0
193.269485 88.0
193.311401 164.0
193.360809 184.0
193.399551 80.0
193.490906 124.0
193.516998 172.0
193.569427 244.0
193.618286 52.0
193.654282 208.0
193.718002 144.0
193.742935 80.0
193.767532 196.0
193.898102 232.0
193.96463 168.0
194.028381 116.0
194.053268 156.0
194.09201 780.0
194.139435 156.0
194.1698 164.0
194.304459 156.0
194.346039 196.0
194.422272 180.0
194.477783 76.0
194.516647 84.0
194.552734 176.0
194.649902 116.0
194.724884 188.0
194.816559 152.0
194.891144 132.0
194.915054 204.0
194.962692 172.0
195.000687 112.0
195.02774 124.0
195.061096 108.0
195.090012 872.0
195.148788 392.0
195.222366 156.0
195.250168 136.0
195.294678 60.0
195.316925 140.0
195.366165 348.0
195.403168 180.0
195.430206 184.0
195.558807 168.0
195.653656 72.0
195.674927 168.0
195.854156 88.0
195.876434 132.0
195.918213 200.0
195.97673 48.0
196.028778 236.0
196.096512 1400.0
196.161163 180.0
196.208481 212.0
196.250992 212.0
196.329559 160.0
196.436737 104.0
196.475098 192.0
196.588562 212.0
196.612518 72.0
196.634232 144.0
196.687881 164.0
196.75209 288.0
196.777985 132.0
196.819382 156.0
196.851212 104.0
196.888718 112.0
196.975082 136.0
197.034164 192.0
197.104965 328.0
197.144043 148.0
197.171082 160.0
197.229691 152.0
197.288223 176.0
197.430847 184.0
197.441269 168.0
197.498215 44.0
197.563538 148.0
197.59613 148.0
197.663269 72.0
197.708054 168.0
197.822815 164.0
197.844803 220.0
197.917999 148.0
198.01178 196.0
198.063629 92.0
198.107422 192.0
198.168671 128.0
198.198105 60.0
198.237335 96.0
198.315811 104.0
198.377487 128.0
198.405518 232.0
198.455978 244.0
198.530731 112.0
198.570953 188.0
198.598999 260.0
198.623352 212.0
198.739273 96.0
198.798203 140.0
198.826263 160.0
198.916092 216.0
198.983459 140.0
199.00592 148.0
199.074142 176.0
199.182846 92.0
199.25589 112.0
199.35257 216.0
199.407639 196.0
199.43013 52.0
199.503204 160.0
199.593185 152.0
199.614471 112.0
199.646606 48.0
199.742523 160.0
199.79007 212.0
199.827087 148.0
199.891632 112.0
199.936386 164.0
199.969788 92.0
200.059219 168.0
200.09964 120.0
200.141876 140.0
200.182114 196.0
200.215103 140.0
200.305038 184.0
200.314728 172.0
200.348694 148.0
200.449356 128.0
200.489853 220.0
200.513733 168.0
200.541916 116.0
200.564468 164.0
200.612564 124.0
200.674408 172.0
200.713882 204.0
200.742081 92.0
200.791702 108.0
200.826691 176.0
200.874649 148.0
200.908508 160.0
200.95929 168.0
201.007248 64.0
201.027008 68.0
201.072159 152.0
201.125793 152.0
201.238708 56.0
201.278244 136.0
201.319382 164.0
201.453354 176.0
201.481598 156.0
201.509857 84.0
201.532455 128.0
201.645493 76.0
201.704849 208.0
201.786835 104.0
201.812286 132.0
201.857529 124.0
201.914093 244.0
201.987625 132.0
202.017517 184.0
202.05336 68.0
202.143234 124.0
202.171539 196.0
202.205505 136.0
202.27626 244.0
202.304565 72.0
202.429153 44.0
202.494293 276.0
202.550934 148.0
202.609192 204.0
202.741608 176.0
202.780624 192.0
202.86438 164.0
203.001587 192.0
203.038452 168.0
203.066803 148.0
203.307968 116.0
203.327835 80.0
203.386276 108.0
203.418655 168.0
203.456528 124.0
203.494446 184.0
203.542114 164.0
203.58902 128.0
203.622543 340.0
203.698975 164.0
203.746002 120.0
203.833328 168.0
203.934464 204.0
203.942368 120.0
203.999802 272.0
204.077774 160.0
204.109055 84.0
204.20575 140.0
204.2285 52.0
204.288239 124.0
204.415787 164.0
204.447189 152.0
204.501648 56.0
204.552887 124.0
204.572815 148.0
204.642349 344.0
204.666763 152.0
204.774979 96.0
204.814865 184.0
204.846191 312.0
204.873016 144.0
204.934509 188.0
204.995255 228.0
205.004395 184.0
205.047928 116.0
205.074371 856.0
205.101517 176.0
205.146179 208.0
205.224594 124.0
205.33931 104.0
205.379242 168.0
205.399216 56.0
205.470535 64.0
205.493347 136.0
205.553986 184.0
205.587769 372.0
205.608978 108.0
205.638885 72.0
205.689011 188.0
205.718811 104.0
205.768524 236.0
205.788757 128.0
205.827316 120.0
205.862732 128.0
205.894379 124.0
205.921555 40.0
206.059662 23652.0
206.118668 96.0
206.141525 44.0
206.167252 144.0
206.227264 56.0
206.273575 140.0
206.329041 156.0
206.383636 184.0
206.411484 120.0
206.441864 196.0
206.493271 216.0
206.53894 72.0
206.56987 236.0
206.618591 156.0
206.691406 352.0
206.726379 124.0
206.764435 280.0
206.77713 188.0
206.842255 184.0
206.874969 176.0
206.884842 156.0
206.907059 44.0
206.926498 112.0
206.954681 116.0
206.999313 224.0
207.006927 140.0
207.06778 97864.0
207.136993 168.0
207.161865 128.0
207.187195 80.0
207.208374 172.0
207.230148 124.0
207.256531 124.0
207.330292 332.0
207.361084 208.0
207.399902 160.0
207.446457 172.0
207.487396 120.0
207.520355 212.0
207.587433 48.0
207.612335 248.0
207.649643 148.0
207.68631 192.0
207.706406 172.0
207.733078 152.0
207.794617 196.0
207.828125 160.0
207.858734 192.0
207.869293 128.0
207.877914 80.0
207.922272 60.0
207.975464 576.0
208.016495 152.0
208.070877 14304.0
208.145355 264.0
208.208237 204.0
208.240891 184.0
208.272354 244.0
208.297394 80.0
208.302979 132.0
208.325943 112.0
208.363602 112.0
208.425385 200.0
208.46875 264.0
208.492294 112.0
208.521469 128.0
208.557571 92.0
208.597641 64.0
208.62944 152.0
208.674149 128.0
208.701965 152.0
208.727203 88.0
208.753082 64.0
208.776093 64.0
208.802933 120.0
208.850861 36.0
208.885971 68.0
208.981567 92.0
209.039764 176.0
209.075012 1652.0
209.127472 5380.0
209.165756 164.0
209.204803 80.0
209.252136 168.0
209.313828 176.0
209.338593 188.0
209.367035 176.0
209.377579 60.0
209.385239 176.0
209.415939 200.0
209.446701 76.0
209.485382 272.0
209.52153 176.0
209.587814 356.0
209.608841 176.0
209.636185 172.0
209.686905 44.0
209.709213 148.0
209.730972 116.0
209.742783 48.0
209.750809 104.0
209.819397 112.0
209.888458 156.0
209.932999 184.0
209.972748 396.0
210.024353 60.0
210.043381 124.0
210.078003 316.0
210.128601 756.0
210.184753 68.0
210.204956 48.0
210.225159 72.0
210.285767 100.0
210.326172 188.0
210.370255 236.0
210.438751 44.0
210.47052 68.0
210.493622 160.0
210.523041 128.0
210.574478 348.0
210.622452 132.0
210.683075 192.0
210.722382 140.0
210.743332 240.0
210.802719 84.0
210.852356 180.0
210.901413 156.0
210.987701 212.0
211.055389 176.0
211.104721 216.0
211.143387 13452.0
211.212997 124.0
211.239716 140.0
211.285583 164.0
211.328979 68.0
211.364822 52.0
211.431458 136.0
211.565384 176.0
211.603943 128.0
211.666458 68.0
211.69371 156.0
211.728455 48.0
211.800873 32.0
211.884064 212.0
211.942825 164.0
211.992218 96.0
212.048828 132.0
212.059814 208.0
212.106796 180.0
212.147995 1824.0
212.191498 116.0
212.222702 72.0
212.264587 152.0
212.435699 28.0
212.456009 116.0
212.523224 196.0
212.621414 56.0
212.696869 152.0
212.733932 156.0
212.766541 136.0
212.798477 156.0
212.821701 192.0
212.847839 128.0
212.868164 56.0
212.905914 60.0
212.944611 156.0
212.976898 200.0
213.064285 192.0
213.141937 312.0
213.222595 104.0
213.257477 184.0
213.34758 132.0
213.402817 304.0
213.466797 160.0
213.494125 200.0
213.535294 100.0
213.556946 148.0
213.597672 100.0
213.635498 32.0
213.69368 60.0
213.753815 220.0
213.788895 116.0
213.801071 84.0
213.850815 212.0
213.955612 132.0
213.984436 116.0
214.096756 148.0
214.121597 256.0
214.185669 72.0
214.208298 156.0
214.246506 136.0
214.324783 96.0
214.366302 160.0
214.39238 148.0
214.436249 180.0
214.461929 168.0
214.500381 120.0
214.526611 172.0
214.665848 136.0
214.707397 64.0
214.754059 152.0
214.800735 116.0
214.855255 168.0
214.878021 132.0
214.926178 168.0
215.061676 216.0
215.115891 184.0
215.147995 104.0
215.226837 40.0
215.323196 68.0
215.391495 220.0
215.419586 132.0
215.498947 244.0
215.542297 200.0
215.577377 132.0
215.606598 112.0
215.62706 192.0
215.656281 144.0
215.723511 152.0
215.817062 184.0
215.855087 164.0
215.890167 108.0
215.926895 144.0
215.974991 80.0
216.062744 88.0
216.132965 52.0
216.191498 96.0
216.25296 200.0
216.273453 180.0
216.320282 132.0
216.38176 164.0
216.422745 100.0
216.472885 164.0
216.495956 84.0
216.528168 368.0
216.563324 124.0
216.616043 88.0
216.674637 228.0
216.73616 120.0
216.794769 152.0
216.824081 156.0
216.883926 196.0
216.970642 108.0
217.02774 152.0
217.089249 196.0
217.139557 140.0
217.170883 84.0
217.290329 180.0
217.335495 152.0
217.360748 104.0
217.434113 104.0
217.501617 84.0
217.549011 112.0
217.610245 160.0
217.698334 196.0
217.75119 112.0
217.845184 128.0
217.886322 140.0
217.930389 152.0
217.951416 240.0
217.992096 108.0
218.032394 168.0
218.065308 328.0
218.086044 128.0
218.21843 124.0
218.289001 164.0
218.31546 112.0
218.362518 100.0
218.453705 124.0
218.527252 140.0
218.647903 372.0
218.689117 132.0
218.774475 116.0
218.870819 144.0
218.931107 332.0
218.963715 212.0
218.995331 224.0
219.068085 676.0
219.113159 172.0
219.183838 336.0
219.254974 156.0
219.404938 148.0
219.425568 120.0
219.496552 168.0
219.570053 104.0
219.627258 152.0
219.699844 28.0
219.725632 92.0
219.823776 132.0
219.868042 156.0
219.888702 156.0
219.918213 76.0
219.962494 116.0
220.068268 324.0
220.097153 1224.0
220.164612 148.0
220.174026 68.0
220.185837 192.0
220.240051 92.0
220.275497 80.0
220.313904 196.0
220.346405 32.0
220.4505 104.0
220.636536 72.0
220.662643 112.0
220.707001 128.0
220.733612 152.0
220.777969 172.0
220.881485 276.0
220.922897 296.0
220.955444 92.0
220.979111 204.0
221.05101 120.0
221.106613 14276.0
221.171768 120.0
221.223648 96.0
221.254486 100.0
221.337265 256.0
221.372803 152.0
221.424072 152.0
221.473495 76.0
221.494232 40.0
221.52681 80.0
221.548264 164.0
221.627548 148.0
221.648285 156.0
221.684967 148.0
221.72403 172.0
221.782639 120.0
221.801666 160.0
221.873306 144.0
221.92511 296.0
221.982513 112.0
221.993973 176.0
222.114044 22272.0
222.158539 220.0
222.237808 152.0
222.263794 168.0
222.284927 132.0
222.320557 160.0
222.382294 180.0
222.416519 120.0
222.449554 144.0
222.505844 96.0
222.548492 148.0
222.574112 184.0
222.594559 140.0
222.614044 128.0
222.690948 96.0
222.719299 164.0
222.756088 248.0
222.785995 192.0
222.828857 136.0
222.866165 128.0
222.910202 316.0
222.998596 140.0
223.046326 140.0
223.085571 7244.0
223.11673 3672.0
223.178635 108.0
223.207108 232.0
223.229462 108.0
223.259796 148.0
223.294952 160.0
223.316483 48.0
223.381027 188.0
223.423828 28.0
223.45314 56.0
223.474884 124.0
223.529526 144.0
223.59938 156.0
223.62915 132.0
223.733337 60.0
223.772034 136.0
223.810745 120.0
223.855408 124.0
223.87851 160.0
223.935226 120.0
223.989182 368.0
224.047104 56.0
224.094025 13224.0
224.180115 40.0
224.246155 180.0
224.276718 68.0
224.370071 88.0
224.416489 108.0
224.429153 144.0
224.464859 116.0
224.497192 268.0
224.516785 116.0
224.52771 88.0
224.620132 76.0
224.690002 68.0
224.710892 136.0
224.734756 124.0
224.770569 156.0
224.805374 80.0
224.826019 128.0
224.866058 64.0
224.904861 164.0
224.92926 140.0
224.964325 148.0
225.031235 132.0
225.095612 2096.0
225.164017 320.0
225.236298 48.0
225.358795 84.0
225.409592 128.0
225.496262 132.0
225.541092 180.0
225.562012 32.0
225.585922 184.0
225.644775 76.0
225.71759 108.0
225.756363 132.0
225.789261 84.0
225.852066 188.0
225.925354 248.0
226.02858 200.0
226.064484 104.0
226.093887 248.0
226.197891 168.0
226.334579 140.0
226.373199 64.0
226.40477 84.0
226.474655 84.0
226.540558 144.0
226.581161 144.0
226.627441 320.0
226.656738 284.0
226.71434 92.0
226.803253 176.0
226.860275 132.0
226.900177 168.0
226.942154 128.0
226.988647 284.0
227.01712 104.0
227.038116 176.0
227.079391 152.0
227.087433 244.0
227.180344 124.0
227.207764 172.0
227.24733 152.0
227.308105 148.0
227.347122 220.0
227.380127 164.0
227.40715 84.0
227.441666 208.0
227.48819 136.0
227.6203 88.0
227.656326 144.0
227.752502 200.0
227.821533 76.0
227.841507 68.0
227.859146 92.0
227.929688 80.0
228.057617 148.0
228.164139 296.0
228.215256 68.0
228.303711 192.0
228.358505 224.0
228.433929 140.0
228.603287 168.0
228.661026 108.0
228.765823 104.0
228.801941 148.0
228.922394 152.0
228.968948 164.0
229.091064 104.0
229.147308 156.0
229.253769 112.0
229.289932 96.0
229.332123 216.0
229.467773 144.0
229.497925 116.0
229.537125 160.0
229.566788 140.0
229.618561 152.0
229.639664 84.0
229.66983 100.0
229.715073 148.0
229.819885 200.0
229.853867 48.0
229.911194 132.0
229.95166 196.0
229.983627 136.0
230.022873 104.0
230.092316 288.0
230.190216 152.0
230.243286 228.0
230.285568 172.0
230.312759 136.0
230.42453 120.0
230.49675 160.0
230.670624 148.0
230.693512 132.0
230.77211 180.0
230.823517 192.0
230.856781 92.0
230.893066 108.0
230.929367 164.0
231.014053 160.0
231.101791 188.0
231.138916 180.0
231.162308 172.0
231.234955 104.0
231.286407 104.0
231.307587 128.0
231.33815 128.0
231.381622 120.0
231.431717 228.0
231.455948 228.0
231.519531 164.0
231.555878 204.0
231.607376 124.0
231.667953 88.0
231.689163 44.0
231.73764 88.0
231.977341 724.0
232.040726 108.0
232.108948 176.0
232.190018 200.0
232.24823 140.0
232.3246 172.0
232.405914 228.0
232.44072 96.0
232.500519 104.0
232.604996 136.0
232.723389 140.0
232.985001 160.0
233.045349 128.0
233.109467 164.0
233.188187 84.0
233.236816 136.0
233.264175 176.0
233.317337 96.0
233.378006 156.0
233.458771 128.0
233.480057 48.0
233.540878 96.0
233.575119 188.0
233.653442 84.0
233.769058 84.0
233.808624 124.0
233.851227 88.0
233.91713 172.0
233.976471 660.0
234.027802 88.0
234.078262 156.0
234.117569 452.0
234.208405 144.0
234.304962 136.0
234.32933 148.0
234.393326 152.0
234.452316 144.0
234.53447 164.0
234.563995 160.0
234.622467 112.0
234.655457 44.0
234.688995 100.0
234.7332 136.0
234.753021 164.0
234.804871 112.0
234.832321 124.0
234.86261 172.0
234.966064 180.0
234.977219 152.0
234.998932 220.0
235.010483 200.0
235.088089 888.0
235.179398 324.0
235.211365 180.0
235.247314 76.0
235.332794 48.0
235.381653 132.0
235.415237 164.0
235.503815 180.0
235.539093 116.0
235.584915 116.0
235.621597 100.0
235.647385 92.0
235.742111 124.0
235.763504 156.0
235.83075 168.0
235.867432 56.0
235.907166 112.0
235.946915 128.0
235.976227 156.0
236.019058 140.0
236.03009 176.0
236.092316 932.0
236.142609 152.0
236.18013 180.0
236.246613 116.0
236.277206 136.0
236.332382 124.0
236.411835 112.0
236.439392 192.0
236.470245 144.0
236.529327 160.0
236.567322 172.0
236.600388 148.0
236.647537 96.0
236.672043 40.0
236.708786 144.0
236.742004 132.0
236.800659 176.0
236.923599 120.0
237.000427 188.0
237.061066 80.0
237.096863 468.0
237.171402 96.0
237.195923 160.0
237.296432 168.0
237.464523 124.0
237.563904 88.0
237.585388 156.0
237.612991 84.0
237.643677 72.0
237.707886 164.0
237.775635 100.0
237.944458 184.0
238.073425 40.0
238.106598 180.0
238.161209 176.0
238.218155 168.0
238.279861 136.0
238.325317 124.0
238.419022 184.0
238.571198 148.0
238.697052 120.0
238.740311 156.0
238.992554 172.0
239.02948 108.0
239.081787 124.0
239.109482 156.0
239.134872 472.0
239.173553 128.0
239.217972 180.0
239.248001 168.0
239.293015 176.0
239.362976 152.0
239.382751 220.0
239.406113 348.0
239.472794 224.0
239.682281 144.0
239.734665 224.0
239.811325 156.0
239.901108 112.0
240.043732 188.0
240.056076 108.0
240.104614 124.0
240.243423 112.0
240.30658 68.0
240.360672 212.0
240.388397 140.0
240.459412 160.0
240.496338 108.0
240.548935 168.0
240.611023 144.0
240.743454 116.0
240.85463 176.0
240.910248 80.0
240.941132 44.0
240.97316 196.0
241.009109 160.0
241.040009 44.0
241.129623 48.0
241.16362 144.0
241.188354 152.0
241.25946 100.0
241.373856 288.0
241.454605 144.0
241.479004 212.0
241.500656 56.0
241.702896 140.0
241.899826 104.0
241.981964 128.0
242.088684 100.0
242.110367 204.0
242.151215 192.0
242.170563 64.0
242.197083 144.0
242.382263 176.0
242.42746 168.0
242.488342 196.0
242.590637 36.0
242.624176 132.0
242.661942 128.0
242.74411 144.0
242.826294 156.0
242.985016 120.0
243.012421 84.0
243.11171 244.0
243.133438 164.0
243.186203 148.0
243.294846 52.0
243.446991 200.0
243.478043 188.0
243.530853 72.0
243.608505 116.0
243.729675 100.0
243.773178 76.0
243.872635 112.0
243.953445 112.0
243.978317 136.0
244.072632 168.0
244.107773 176.0
244.157547 144.0
244.223984 80.0
244.298645 32.0
244.396164 184.0
244.441757 204.0
244.490234 148.0
244.532013 84.0
244.575638 220.0
244.619171 132.0
244.665863 52.0
244.76239 132.0
244.793854 192.0
244.880722 40.0
244.983002 1032.0
245.04895 112.0
245.09256 120.0
245.204758 192.0
245.234558 228.0
245.282684 112.0
245.387222 144.0
245.416733 176.0
245.501221 84.0
245.578903 128.0
245.649078 208.0
245.737991 216.0
245.784805 160.0
245.81601 108.0
245.900269 172.0
245.990646 660.0
246.046982 156.0
246.131287 140.0
246.159378 108.0
246.209351 96.0
246.299927 152.0
246.41864 100.0
246.440506 232.0
246.471756 56.0
246.517029 188.0
246.646851 156.0
246.721802 180.0
246.774948 112.0
246.910507 184.0
246.980606 1536.0
247.028778 124.0
247.059555 120.0
247.121384 360.0
247.159683 104.0
247.214172 164.0
247.247299 128.0
247.29425 108.0
247.340485 160.0
247.422958 156.0
247.469559 188.0
247.544708 148.0
247.738892 212.0
247.760818 364.0
247.870483 64.0
247.904953 144.0
247.986343 804.0
248.022049 220.0
248.097168 580.0
248.127838 152.0
248.265472 156.0
248.321136 128.0
248.378387 308.0
248.400345 56.0
248.431717 216.0
248.456818 64.0
248.485046 80.0
248.519562 152.0
248.601151 232.0
248.623108 276.0
248.702484 152.0
248.745529 336.0
248.811447 96.0
248.849121 148.0
248.87738 88.0
248.927353 224.0
248.95903 52.0
248.987976 560.0
249.046967 212.0
249.101379 1456.0
249.168106 164.0
249.285736 136.0
249.342316 164.0
249.39888 144.0
249.493195 80.0
249.52037 136.0
249.553696 212.0
249.655609 208.0
249.710373 120.0
249.750565 156.0
249.785645 120.0
249.807678 176.0
249.880035 64.0
249.905197 124.0
249.95314 152.0
250.044647 192.0
250.107407 536.0
250.184891 180.0
250.213638 108.0
250.254578 136.0
250.336441 244.0
250.405731 128.0
250.481323 108.0
250.509674 144.0
250.578979 88.0
250.619949 156.0
250.717636 168.0
250.875229 92.0
250.912155 180.0
251.001358 152.0
251.103333 280.0
251.263138 128.0
251.290451 232.0
251.405136 52.0
251.485229 176.0
251.540848 212.0
251.663986 156.0
251.698715 132.0
251.822754 136.0
251.900848 44.0
251.929276 156.0
251.976669 64.0
252.10997 188.0
252.150467 280.0
252.174469 188.0
252.245285 156.0
252.32959 132.0
252.365433 108.0
252.419174 220.0
252.447403 156.0
252.539352 56.0
252.605789 144.0
252.760818 116.0
252.876572 176.0
252.935303 208.0
253.118439 176.0
253.15416 156.0
253.227005 140.0
253.291351 200.0
253.324371 112.0
253.394073 104.0
253.425766 112.0
253.451111 152.0
253.508148 60.0
253.581039 172.0
253.663452 156.0
253.799774 140.0
253.869537 244.0
253.967865 144.0
254.012268 120.0
254.129654 200.0
254.155045 128.0
254.183594 112.0
254.240723 168.0
254.275635 136.0
254.369385 148.0
254.462921 48.0
254.531235 136.0
254.564529 140.0
254.599762 176.0
254.628036 176.0
254.682037 196.0
254.888535 356.0
254.980698 132.0
255.041092 128.0
255.101486 100.0
255.184143 140.0
255.225479 220.0
255.277237 144.0
255.301804 136.0
255.422577 144.0
255.511734 120.0
255.556274 144.0
255.61673 120.0
255.654922 136.0
255.686752 152.0
255.826218 108.0
255.919968 92.0
255.97699 936.0
256.038239 140.0
256.103851 148.0
256.145233 100.0
256.304382 156.0
256.400146 96.0
256.45752 124.0
256.518066 140.0
256.569092 116.0
256.632843 168.0
256.655182 148.0
256.741272 208.0
256.840149 104.0
256.983002 388.0
257.014832 116.0
257.109192 296.0
257.17041 132.0
257.192749 232.0
257.264557 100.0
257.2901 156.0
257.352783 196.0
257.456146 52.0
257.510437 184.0
257.535675 216.0
257.57431 148.0
257.625427 124.0
257.7117 84.0
257.759613 108.0
257.81076 172.0
257.84137 152.0
257.877869 108.0
257.899628 204.0
257.990753 10708.0
258.079468 180.0
258.113251 268.0
258.312744 76.0
258.413818 140.0
258.466309 52.0
258.495117 28.0
258.51886 152.0
258.598846 136.0
258.632721 96.0
258.68811 120.0
258.863251 120.0
258.938416 264.0
258.991302 2052.0
259.11673 660.0
259.154724 40.0
259.180359 52.0
259.234833 96.0
259.295715 84.0
259.318176 160.0
259.44809 112.0
259.491272 176.0
259.527008 160.0
259.572906 156.0
259.603485 136.0
259.65802 140.0
259.694672 116.0
259.734985 56.0
259.775146 340.0
259.816956 152.0
259.890228 236.0
259.930695 152.0
259.989258 13492.0
260.131195 924.0
260.168213 92.0
260.190674 44.0
260.235626 100.0
260.33197 240.0
260.383362 40.0
260.424347 216.0
260.489349 128.0
260.534332 40.0
260.560028 48.0
260.605011 220.0
260.669281 168.0
260.720703 76.0
260.752319 80.0
260.802917 204.0
260.834839 156.0
260.874969 152.0
260.910034 128.0
260.938538 88.0
260.993286 2136.0
261.04538 68.0
261.077545 40.0
261.135681 164.0
261.199768 56.0
261.260895 228.0
261.283417 144.0
261.305939 56.0
261.327911 48.0
261.360626 104.0
261.402161 88.0
261.410492 80.0
261.440338 140.0
261.494141 132.0
261.518311 204.0
261.618103 120.0
261.64386 124.0
261.672821 176.0
261.711487 152.0
261.755066 104.0
261.814514 60.0
262.000488 1008.0
262.046448 68.0
262.110901 100.0
262.151306 132.0
262.180573 156.0
262.249847 204.0
262.271606 180.0
262.352631 144.0
262.388092 104.0
262.491272 172.0
262.562195 116.0
262.604126 48.0
262.638214 268.0
262.721588 184.0
262.752533 32.0
262.778351 136.0
262.852539 124.0
262.875153 148.0
262.922516 112.0
262.998077 576.0
263.110748 104.0
263.174011 576.0
263.256073 184.0
263.295349 72.0
263.340027 216.0
263.400299 116.0
263.446625 100.0
263.459137 60.0
263.467133 92.0
263.526245 168.0
263.553253 136.0
263.59201 80.0
263.630066 172.0
263.768646 168.0
263.821289 116.0
263.844727 132.0
263.918488 128.0
263.947388 60.0
264.005615 156.0
264.0495 172.0
264.08667 116.0
264.113159 556.0
264.181427 172.0
264.231354 88.0
264.351959 144.0
264.386597 204.0
264.504059 64.0
264.620605 180.0
264.701569 192.0
264.746918 176.0
264.835327 176.0
264.889404 164.0
264.947723 144.0
264.988312 148.0
265.019012 136.0
265.118011 404.0
265.150665 184.0
265.184296 116.0
265.249115 372.0
265.446869 192.0
265.492188 212.0
265.542053 196.0
265.75827 164.0
265.855621 136.0
265.884827 128.0
265.977692 80.0
266.12674 4320.0
266.178925 196.0
266.213409 152.0
266.265625 192.0
266.341125 128.0
266.433594 112.0
266.492065 64.0
266.518066 172.0
266.570068 156.0
266.620941 116.0
266.700073 84.0
266.742859 124.0
266.822021 132.0
266.878876 188.0
266.904877 156.0
266.943909 128.0
266.971619 208.0
267.033539 120.0
267.063171 376.0
267.13504 2388.0
267.23111 108.0
267.321259 92.0
267.363556 192.0
267.385345 92.0
267.418884 172.0
267.453766 184.0
267.497009 48.0
267.591431 92.0
267.614227 140.0
267.65979 112.0
267.711914 52.0
267.777039 340.0
267.894318 164.0
267.933411 84.0
268.001831 148.0
268.142853 612.0
268.194092 92.0
268.236481 168.0
268.317963 88.0
268.378326 148.0
268.45166 100.0
268.51947 156.0
268.530884 124.0
268.566956 124.0
268.664673 144.0
268.739807 164.0
268.774597 116.0
268.830078 180.0
268.859436 152.0
268.905151 112.0
268.981812 1992.0
269.019196 148.0
269.097748 180.0
269.127136 108.0
269.195618 144.0
269.238159 276.0
269.306732 140.0
269.385132 136.0
269.460266 164.0
269.48642 140.0
269.586151 144.0
269.658966 260.0
269.725861 148.0
269.767487 152.0
269.797455 144.0
269.830139 144.0
269.911346 100.0
269.944031 140.0
269.990143 2904.0
270.030365 244.0
270.08139 148.0
270.118744 160.0
270.150085 316.0
270.229401 180.0
270.300598 324.0
270.361053 352.0
270.388947 116.0
270.464233 112.0
270.488708 188.0
270.637756 128.0
270.782562 144.0
270.827698 172.0
270.927185 212.0
270.985046 2176.0
271.118073 172.0
271.247101 120.0
271.306122 128.0
271.35675 108.0
271.525818 128.0
271.584839 68.0
271.687408 232.0
271.716064 140.0
271.781677 80.0
271.832275 184.0
271.878784 192.0
271.940216 144.0
271.994263 3684.0
272.058472 132.0
272.123047 140.0
272.195801 200.0
272.224854 352.0
272.25769 116.0
272.33252 168.0
272.345703 140.0
272.356873 120.0
272.408783 140.0
272.444916 44.0
272.484344 28.0
272.517181 180.0
272.582153 160.0
272.593597 124.0
272.617279 148.0
272.678192 120.0
272.71106 120.0
272.73407 140.0
272.766968 164.0
272.799835 228.0
272.995483 1772.0
273.069458 140.0
273.125366 68.0
273.148407 92.0
273.270905 136.0
273.358978 160.0
273.411621 60.0
273.513641 52.0
273.54657 72.0
273.65741 132.0
273.714478 176.0
273.788177 148.0
273.824066 160.0
273.848633 168.0
273.921967 144.0
273.958221 172.0
274.003876 2332.0
274.132477 152.0
274.172394 148.0
274.264679 216.0
274.320709 164.0
274.35495 184.0
274.394379 128.0
274.602997 204.0
274.663666 72.0
274.711975 152.0
274.774323 124.0
274.808807 128.0
274.84848 188.0
274.884705 100.0
274.920227 136.0
274.941956 68.0
275.016235 9896.0
275.1203 616.0
275.154083 124.0
275.238861 108.0
275.287445 36.0
275.343597 136.0
275.416443 132.0
275.488922 120.0
275.564667 176.0
275.629272 96.0
275.654114 184.0
275.733429 56.0
275.792938 48.0
275.888794 152.0
275.969635 44.0
276.017242 1332.0
276.123993 648.0
276.188599 168.0
276.249268 184.0
276.279022 32.0
276.348511 48.0
276.386353 100.0
276.422516 164.0
276.447784 172.0
276.533813 92.0
276.603333 136.0
276.676178 188.0
276.712585 64.0
276.774109 200.0
276.787537 44.0
276.797882 184.0
276.875854 156.0
276.907959 116.0
276.961334 140.0
277.014526 10812.0
277.131836 356.0
277.199005 108.0
277.212189 92.0
277.221771 184.0
277.293701 140.0
277.346313 80.0
277.389923 124.0
277.458038 148.0
277.503845 112.0
277.539734 124.0
277.576721 128.0
277.606201 128.0
277.663605 56.0
277.734955 148.0
277.854462 136.0
277.888519 140.0
277.914154 204.0
277.970612 216.0
278.016022 1304.0
278.060516 352.0
278.104889 96.0
278.131226 268.0
278.177399 324.0
278.199097 192.0
278.238495 96.0
278.297974 148.0
278.350555 72.0
278.430267 140.0
278.470123 136.0
278.543213 120.0
278.593018 76.0
278.689392 136.0
278.716492 172.0
278.758667 80.0
278.799042 196.0
278.835602 220.0
278.940002 176.0
279.005554 96.0
279.012329 164.0
279.107391 76.0
279.141449 100.0
279.257843 172.0
279.320129 44.0
279.377594 116.0
279.444122 140.0
279.467438 152.0
279.53064 136.0
279.583893 84.0
279.630493 124.0
279.691559 116.0
279.733673 172.0
279.788696 136.0
280.053345 56.0
280.106781 84.0
280.149017 160.0
280.202423 140.0
280.256561 48.0
280.309875 76.0
280.38382 148.0
280.486511 104.0
280.529846 96.0
280.583557 148.0
280.609863 272.0
280.793274 156.0
280.876648 132.0
281.010101 84.0
281.055481 140.0
281.110199 120.0
281.133545 144.0
281.192871 268.0
281.317139 208.0
281.357208 44.0
281.397247 88.0
281.594269 60.0
281.684479 120.0
281.839478 172.0
281.878235 172.0
281.996857 128.0
282.102173 188.0
282.13562 128.0
282.183777 348.0
282.269348 164.0
282.303619 192.0
282.329559 156.0
282.409821 144.0
282.567047 80.0
282.700897 108.0
282.783844 204.0
282.829041 56.0
282.862762 304.0
282.888336 196.0
282.928497 52.0
282.955292 180.0
282.988342 124.0
283.042328 28.0
283.152832 84.0
283.204193 140.0
283.236572 188.0
283.273438 176.0
283.300232 84.0
283.373932 180.0
283.41037 96.0
283.447662 56.0
283.618561 76.0
283.658783 284.0
283.67981 176.0
283.700989 116.0
283.739258 260.0
283.792908 92.0
283.870026 128.0
283.910278 220.0
283.971161 888.0
284.000183 460.0
284.058929 100.0
284.103882 368.0
284.178497 124.0
284.191254 120.0
284.290924 164.0
284.36319 172.0
284.479675 120.0
284.496521 192.0
284.567963 104.0
284.604889 208.0
284.660004 156.0
284.705994 192.0
284.784943 176.0
284.81311 136.0
284.863495 116.0
284.904785 196.0
284.99881 1368.0
285.048279 116.0
285.097107 184.0
285.150208 308.0
285.189453 56.0
285.266754 44.0
285.300385 132.0
285.377716 280.0
285.411316 184.0
285.451691 128.0
285.504608 228.0
285.560364 136.0
285.633301 100.0
285.666931 160.0
285.690491 40.0
285.720764 156.0
285.757782 32.0
285.81897 208.0
285.878906 156.0
285.915283 148.0
285.985962 26932.0
286.076843 164.0
286.088837 96.0
286.105896 148.0
286.126831 52.0
286.188599 96.0
286.222443 76.0
286.246735 160.0
286.289612 96.0
286.351532 148.0
286.417603 152.0
286.458008 192.0
286.503754 180.0
286.557587 100.0
286.626495 160.0
286.661499 168.0
286.692596 104.0
286.768036 92.0
286.857483 156.0
286.913757 188.0
286.991791 6076.0
287.094696 156.0
287.133698 336.0
287.166992 240.0
287.240082 188.0
287.278107 200.0
287.310944 60.0
287.373505 176.0
287.439148 144.0
287.471283 100.0
287.546051 196.0
287.589447 272.0
287.638275 128.0
287.673096 76.0
287.702423 120.0
287.756439 160.0
287.787903 224.0
287.833252 236.0
287.856232 136.0
287.879242 76.0
287.984161 27232.0
288.097534 196.0
288.128174 116.0
288.166992 168.0
288.203033 168.0
288.267334 124.0
288.319061 56.0
288.364075 68.0
288.394897 52.0
288.465881 48.0
288.49881 76.0
288.611267 64.0
288.660858 80.0
288.689789 188.0
288.723541 88.0
288.790497 72.0
288.835266 132.0
288.86673 124.0
288.939819 148.0
288.988708 5148.0
289.069611 88.0
289.108521 240.0
289.132233 112.0
289.166077 60.0
289.211823 140.0
289.262024 236.0
289.303772 140.0
289.42334 52.0
289.453827 48.0
289.541107 272.0
289.589874 68.0
289.640106 220.0
289.691681 192.0
289.751129 164.0
289.809479 184.0
289.848358 136.0
289.99057 816.0
290.017303 236.0
290.072144 48.0
290.124695 68.0
290.150482 136.0
290.175537 164.0
290.19928 156.0
290.245178 172.0
290.40451 100.0
290.43338 152.0
290.501099 168.0
290.552002 76.0
290.585144 52.0
290.5961 40.0
290.621918 132.0
290.649323 148.0
290.677551 324.0
290.716919 192.0
290.812714 172.0
290.935455 360.0
291.002411 208.0
291.074707 128.0
291.107758 136.0
291.169342 25872.0
291.237152 168.0
291.312775 84.0
291.349823 172.0
291.390594 140.0
291.536621 200.0
291.593872 136.0
291.605774 144.0
291.65567 48.0
291.749756 160.0
291.832581 96.0
291.881409 88.0
291.937836 116.0
291.970703 152.0
292.075745 128.0
292.099518 68.0
292.171478 3868.0
292.268585 176.0
292.299835 168.0
292.375916 208.0
292.421906 144.0
292.451599 52.0
292.489014 212.0
292.519653 216.0
292.563934 36.0
292.634827 68.0
292.832031 224.0
292.866974 56.0
292.894226 36.0
292.928314 184.0
292.999847 140.0
293.03183 164.0
293.08844 76.0
293.172974 464.0
293.316772 112.0
293.365417 120.0
293.439514 40.0
293.473602 124.0
293.517914 92.0
293.562256 124.0
293.667969 76.0
293.790344 128.0
293.869263 72.0
293.896545 72.0
293.962708 208.0
294.060364 196.0
294.142273 140.0
294.200317 124.0
294.232056 148.0
294.30481 132.0
294.33139 132.0
294.418274 200.0
294.479218 112.0
294.541779 104.0
294.57254 76.0
294.638428 276.0
294.665802 188.0
294.739929 216.0
294.763855 68.0
295.02417 176.0
295.12619 320.0
295.1604 180.0
295.216339 244.0
295.485321 144.0
295.543488 40.0
295.721436 48.0
295.784576 188.0
295.88089 124.0
295.930267 100.0
295.995544 124.0
296.039825 220.0
296.104919 188.0
296.142578 132.0
296.232056 136.0
296.341583 88.0
296.404175 160.0
296.457794 88.0
296.481781 124.0
296.540039 44.0
296.809418 176.0
296.85202 192.0
296.999176 128.0
297.011871 112.0
297.136719 100.0
297.160736 232.0
297.335602 116.0
297.404388 28.0
297.428406 144.0
297.510803 272.0
297.576019 272.0
297.661865 128.0
297.723663 120.0
297.761444 48.0
297.80365 84.0
297.821442 136.0
297.861053 232.0
297.924042 144.0
297.986206 772.0
298.070648 76.0
298.214966 44.0
298.295197 164.0
298.321533 188.0
298.393738 196.0
298.432892 156.0
298.457581 140.0
298.495331 180.0
298.555359 44.0
298.686554 136.0
298.785797 132.0
298.868378 92.0
298.949585 160.0
299.017853 6456.0
299.085205 172.0
299.166382 184.0
299.209137 232.0
299.233215 40.0
299.295105 196.0
299.329651 112.0
299.358795 88.0
299.412292 120.0
299.43985 76.0
299.466553 116.0
299.50943 196.0
299.606567 84.0
299.653412 208.0
299.705109 164.0
299.732666 92.0
299.762451 100.0
299.814392 196.0
299.839508 164.0
299.900238 176.0
299.984558 1256.0
300.019165 2760.0
300.142853 112.0
300.196655 120.0
300.29483 172.0
300.326233 152.0
300.372437 68.0
300.418671 148.0
300.439697 188.0
300.469482 92.0
300.545135 220.0
300.614716 152.0
300.690338 128.0
300.718994 140.0
300.756958 164.0
300.797058 168.0
300.861267 256.0
300.909912 184.0
301.03302 92184.0
301.11969 236.0
301.157593 128.0
301.186859 156.0
301.217041 320.0
301.259644 180.0
301.283752 256.0
301.336609 156.0
301.380493 36.0
301.410187 120.0
301.435547 116.0
301.507233 52.0
301.585541 144.0
301.596008 92.0
301.631744 176.0
301.693329 184.0
301.750153 164.0
301.825256 140.0
301.871765 176.0
301.900543 60.0
301.939514 188.0
302.036224 19948.0
302.141479 208.0
302.17392 356.0
302.257629 180.0
302.303528 164.0
302.34726 224.0
302.394257 108.0
302.419617 216.0
302.451294 152.0
302.529205 208.0
302.539581 64.0
302.554688 332.0
302.591248 84.0
302.606049 68.0
302.611359 244.0
302.664673 408.0
302.726318 84.0
302.76062 312.0
302.808899 192.0
302.823212 168.0
302.83609 168.0
302.85202 136.0
302.87439 368.0
302.90332 280.0
302.908356 292.0
302.947357 296.0
303.024841 73376.0
303.108521 556.0
303.161621 200.0
303.173676 44.0
303.236938 244.0
303.27417 284.0
303.319824 232.0
303.361511 96.0
303.386993 172.0
303.402649 64.0
303.453186 188.0
303.498108 108.0
303.548218 124.0
303.589844 220.0
303.654602 412.0
303.684265 176.0
303.750763 220.0
303.825775 56.0
303.899109 84.0
303.904633 88.0
304.028809 14176.0
304.116333 656.0
304.159332 172.0
304.198486 164.0
304.226898 120.0
304.247589 208.0
304.342072 128.0
304.379822 72.0
304.395203 92.0
304.406464 68.0
304.432098 200.0
304.465088 148.0
304.507019 272.0
304.543732 116.0
304.617249 180.0
304.700684 340.0
304.745148 228.0
304.775787 92.0
304.790344 128.0
304.827087 160.0
304.860962 128.0
304.86557 132.0
304.91803 208.0
305.010529 61832.0
305.094849 116.0
305.137146 80.0
305.200195 104.0
305.225311 52.0
305.263672 284.0
305.332458 168.0
305.35791 124.0
305.420227 124.0
305.471008 132.0
305.500183 136.0
305.507233 72.0
305.553711 136.0
305.601837 288.0
305.648468 76.0
305.681152 124.0
305.734985 252.0
305.784546 84.0
305.816467 64.0
305.853149 156.0
305.928223 200.0
306.013916 8520.0
306.098724 232.0
306.113342 212.0
306.132996 208.0
306.178192 184.0
306.236816 116.0
306.245026 68.0
306.282471 240.0
306.327728 144.0
306.351105 168.0
306.432068 192.0
306.464325 28.0
306.560425 160.0
306.591553 88.0
306.629089 52.0
306.673859 100.0
306.707153 80.0
306.747314 104.0
306.799896 68.0
306.835571 52.0
306.90448 148.0
306.937653 92.0
306.967987 264.0
307.013184 664.0
307.096283 80.0
307.164307 56.0
307.196014 188.0
307.209167 56.0
307.217163 92.0
307.246796 84.0
307.2742 32.0
307.323059 68.0
307.380707 76.0
307.436523 92.0
307.470642 156.0
307.501038 64.0
307.572449 180.0
307.633484 72.0
307.66571 44.0
307.729431 112.0
307.793884 112.0
307.845581 92.0
307.859528 64.0
307.891083 100.0
307.977386 140.0
308.009338 96.0
308.052734 64.0
308.082825 88.0
308.111633 356.0
308.140076 64.0
308.200531 488.0
308.240112 104.0
308.293823 64.0
308.324951 92.0
308.330383 60.0
308.401337 52.0
308.481506 132.0
308.514008 56.0
308.566467 56.0
308.618896 60.0
308.70282 132.0
308.811249 44.0
308.895203 52.0
308.980957 128.0
309.007141 100.0
309.044403 148.0
309.073608 36.0
309.176453 1852.0
309.290619 56.0
309.364105 52.0
309.423645 208.0
309.50766 60.0
309.729523 172.0
309.791351 96.0
309.9245 76.0
310.017639 256.0
310.141785 52.0
310.180603 212.0
310.239929 72.0
310.331085 56.0
310.369659 108.0
310.460815 112.0
310.485382 108.0
310.60733 104.0
310.639709 52.0
310.713379 96.0
310.765991 60.0
310.934448 88.0
311.030731 184.0
311.197723 112.0
311.334656 144.0
311.41272 108.0
311.513794 72.0
311.601624 128.0
311.685944 156.0
311.798401 168.0
311.844116 156.0
311.875732 148.0
311.991791 144.0
312.020111 428.0
312.18161 116.0
312.273041 216.0
312.434875 152.0
312.649506 124.0
312.811401 56.0
312.892395 176.0
312.931122 108.0
312.987396 212.0
313.027771 400.0
313.08252 56.0
313.142395 132.0
313.255127 212.0
313.325562 144.0
313.466522 40.0
313.565186 144.0
313.589874 172.0
313.614532 136.0
313.716766 152.0
313.787262 164.0
313.811951 60.0
313.984436 476.0
314.024078 260.0
314.087036 216.0
314.263428 84.0
314.30069 112.0
314.389313 148.0
314.44339 60.0
314.51123 148.0
314.568695 76.0
314.71167 44.0
314.867065 112.0
314.951813 56.0
315.012146 3112.0
315.103607 116.0
315.139069 40.0
315.181458 156.0
315.225586 268.0
315.280426 128.0
315.333435 100.0
315.361694 136.0
315.446533 108.0
315.474823 88.0
315.538452 72.0
315.697571 56.0
315.771851 44.0
315.868958 88.0
315.9487 112.0
316.013306 1004.0
316.125732 112.0
316.147552 144.0
316.228241 76.0
316.539795 100.0
316.564575 60.0
316.607086 168.0
316.670746 140.0
316.879822 136.0
316.936859 84.0
317.011597 3660.0
317.085358 212.0
317.136688 168.0
317.220062 108.0
317.294495 200.0
317.329956 148.0
317.514343 64.0
317.639648 172.0
317.688171 52.0
317.716553 76.0
317.773315 152.0
317.837189 132.0
318.013214 512.0
318.051453 372.0
318.089172 188.0
318.160645 396.0
318.371582 108.0
318.600525 96.0
318.636047 36.0
318.739105 172.0
318.771088 216.0
318.7995 132.0
318.870605 136.0
318.92392 152.0
318.966553 92.0
319.027405 292.0
319.168304 364.0
319.23111 128.0
319.258118 40.0
319.290131 180.0
319.482208 84.0
319.560455 52.0
319.638733 112.0
319.756195 44.0
319.858063 116.0
319.884338 112.0
319.932312 184.0
320.008942 64.0
320.033844 164.0
320.060364 172.0
320.168884 328.0
320.197662 112.0
320.236847 196.0
320.318756 188.0
320.372192 84.0
320.454132 132.0
320.521851 164.0
320.746368 140.0
320.855011 152.0
320.91037 120.0
321.063202 116.0
321.184753 216.0
321.189026 108.0
321.299133 104.0
321.48468 224.0
321.591736 80.0
321.830933 92.0
321.895203 56.0
322.003876 348.0
322.048767 72.0
322.091614 164.0
322.173798 100.0
322.25238 100.0
322.320282 176.0
322.398895 96.0
322.465454 128.0
322.563324 144.0
322.602631 128.0
322.745636 116.0
322.833038 144.0
322.857574 92.0
322.881531 128.0
323.011871 100.0
323.081848 88.0
323.202881 164.0
323.259918 120.0
323.282227 160.0
323.393158 220.0
323.536346 88.0
323.62085 180.0
323.729706 112.0
323.8479 76.0
323.963074 52.0
323.990723 160.0
324.048492 104.0
324.098663 152.0
324.288605 116.0
324.650696 136.0
324.693726 172.0
324.804688 120.0
325.000244 108.0
325.059662 140.0
325.303711 112.0
325.425781 116.0
325.673584 80.0
325.762878 168.0
325.899902 180.0
325.932251 104.0
325.96817 164.0
326.02005 264.0
326.11911 96.0
326.161682 128.0
326.193695 160.0
326.23172 124.0
326.270081 88.0
326.366943 196.0
326.428314 68.0
326.518219 148.0
326.640503 204.0
326.676483 164.0
326.744812 132.0
326.917542 232.0
326.959198 208.0
327.009552 680.0
327.0448 732.0
327.147888 120.0
327.205505 128.0
327.277496 120.0
327.302704 124.0
327.345917 156.0
327.478241 108.0
327.580048 184.0
327.605255 164.0
327.670105 80.0
327.709747 216.0
327.75296 64.0
327.828644 56.0
327.889923 116.0
328.002411 344.0
328.04953 548.0
328.13504 156.0
328.232391 44.0
328.263947 160.0
328.32254 120.0
328.542572 120.0
328.643585 96.0
328.780731 120.0
328.910156 208.0
328.954407 100.0
329.029541 5480.0
329.10199 144.0
329.195892 52.0
329.271729 100.0
329.300598 52.0
329.340332 36.0
329.3909 36.0
329.445099 164.0
329.495667 112.0
329.541229 92.0
329.571564 28.0
329.600464 180.0
329.654663 52.0
329.746002 200.0
329.795624 172.0
329.843872 240.0
329.871521 32.0
329.902954 132.0
329.954681 100.0
330.037476 1100.0
330.240021 160.0
330.319916 148.0
330.359711 92.0
330.477905 96.0
330.638336 280.0
330.692627 68.0
330.765015 116.0
330.790344 156.0
330.859131 44.0
330.938782 128.0
331.027832 6360.0
331.156067 124.0
331.181427 132.0
331.250244 152.0
331.282837 148.0
331.322693 48.0
331.391541 104.0
331.430847 156.0
331.467621 156.0
331.5401 40.0
331.586029 132.0
331.616821 120.0
331.700287 104.0
331.790222 120.0
331.844604 40.0
331.946136 148.0
332.029602 1632.0
332.091187 92.0
332.143524 60.0
332.282623 120.0
332.370544 76.0
332.533844 56.0
332.559265 32.0
332.649994 96.0
332.68811 96.0
332.726227 120.0
332.889618 132.0
333.028595 2148.0
333.129333 60.0
333.183838 124.0
333.365509 188.0
333.525421 156.0
333.674683 76.0
333.812653 156.0
333.859924 64.0
333.905273 60.0
333.932678 132.0
333.985229 152.0
334.023438 428.0
334.092712 92.0
334.132751 84.0
334.174561 284.0
334.216431 112.0
334.243103 96.0
334.289185 164.0
334.476227 92.0
334.616791 144.0
334.65683 48.0
334.791565 84.0
334.86441 48.0
334.889923 88.0
334.995544 140.0
335.042908 120.0
335.101196 116.0
335.17923 164.0
335.212799 184.0
335.363586 88.0
335.418243 68.0
335.545837 68.0
335.639191 228.0
335.717224 96.0
335.899597 400.0
336.005402 100.0
336.125793 128.0
336.169586 48.0
336.218048 168.0
336.439026 224.0
336.556519 32.0
336.625885 80.0
336.830414 168.0
336.85965 64.0
337.037262 604.0
337.086182 120.0
337.151337 220.0
337.206787 84.0
337.294495 188.0
337.335754 236.0
337.404175 148.0
337.448059 136.0
337.838806 52.0
337.912537 116.0
337.991943 120.0
338.033813 332.0
338.121124 144.0
338.230927 68.0
338.311462 140.0
338.410309 132.0
338.443268 108.0
338.490875 104.0
338.608063 160.0
338.63736 40.0
338.780212 188.0
338.831512 160.0
338.901123 236.0
339.045837 2548.0
339.270508 92.0
339.377625 88.0
339.410614 152.0
339.55365 44.0
339.634338 232.0
339.773743 124.0
339.814087 196.0
340.004181 264.0
340.049561 612.0
340.221466 200.0
340.287567 240.0
340.43811 40.0
340.47525 68.0
340.542175 132.0
340.575684 152.0
340.680511 40.0
340.731964 36.0
340.790741 144.0
340.838501 152.0
340.908325 172.0
340.981842 160.0
341.046783 1916.0
341.137451 124.0
341.297424 136.0
341.384064 144.0
341.503937 120.0
341.546021 100.0
341.592194 132.0
341.665771 88.0
341.761444 84.0
341.871826 144.0
341.90863 124.0
341.992401 132.0
342.050476 548.0
342.192078 116.0
342.36145 152.0
342.479309 84.0
342.586151 120.0
342.613678 192.0
342.77063 112.0
342.814575 84.0
342.928833 72.0
342.954651 200.0
342.997925 152.0
343.068909 116.0
343.157379 76.0
343.323334 140.0
343.489288 56.0
343.762329 144.0
343.788147 228.0
343.980072 52.0
344.031219 140.0
344.090851 92.0
344.164673 132.0
344.242218 124.0
344.293915 96.0
344.330872 44.0
344.37149 52.0
344.432648 100.0
344.508148 152.0
344.585022 40.0
344.61026 88.0
344.659637 100.0
344.693604 144.0
344.718781 196.0
344.748322 124.0
344.803772 52.0
344.834869 148.0
344.907257 200.0
344.942535 148.0
345.042572 616.0
345.104889 104.0
345.11676 48.0
345.144226 160.0
345.228912 80.0
345.280701 136.0
345.341125 156.0
345.369476 48.0
345.435638 112.0
345.494843 156.0
345.543457 128.0
345.582397 144.0
345.6297 116.0
345.682587 196.0
345.730804 196.0
345.76355 140.0
345.808167 180.0
345.846344 180.0
345.873444 312.0
345.963409 260.0
345.976868 372.0
346.05545 104008.0
346.155579 1300.0
346.230865 196.0
346.289246 176.0
346.373291 336.0
346.42099 112.0
346.481262 180.0
346.573944 140.0
346.619507 80.0
346.667786 272.0
346.715881 268.0
346.737152 92.0
346.827362 172.0
346.867126 168.0
346.93399 212.0
346.998535 252.0
347.056549 19240.0
347.160339 1096.0
347.226105 204.0
347.305878 180.0
347.353363 152.0
347.397766 116.0
347.440216 124.0
347.478058 428.0
347.534454 148.0
347.572968 88.0
347.58667 92.0
347.652405 228.0
347.68512 128.0
347.741364 104.0
347.824127 160.0
347.860321 164.0
347.890808 156.0
347.905609 192.0
347.936676 68.0
347.977783 100.0
348.053162 99184.0
348.140839 268.0
348.165253 376.0
348.195648 252.0
348.230438 128.0
348.285431 112.0
348.326416 192.0
348.360443 68.0
348.391022 292.0
348.447235 128.0
348.497498 152.0
348.514313 124.0
348.522583 124.0
348.592346 76.0
348.628937 88.0
348.667877 264.0
348.713593 96.0
348.746033 104.0
348.75592 156.0
348.80954 60.0
348.83844 132.0
348.904816 156.0
348.963196 124.0
349.055359 26524.0
349.125122 172.0
349.150635 212.0
349.183441 152.0
349.22171 112.0
349.25647 136.0
349.267426 60.0
349.28479 60.0
349.343933 120.0
349.392883 168.0
349.446625 100.0
349.499634 168.0
349.531494 108.0
349.543213 80.0
349.595337 104.0
349.638367 64.0
349.668671 136.0
349.721863 60.0
349.769409 148.0
349.830109 100.0
349.869263 60.0
349.942078 52.0
349.987579 64.0
350.059723 1588.0
350.132812 176.0
350.169861 100.0
350.196472 64.0
350.248749 80.0
350.277618 136.0
350.349487 44.0
350.399628 76.0
350.498444 76.0
350.604553 60.0
350.677856 60.0
350.730438 108.0
350.822784 88.0
350.87381 104.0
350.933472 168.0
350.964142 104.0
351.027405 112.0
351.062347 252.0
351.087433 176.0
351.129578 152.0
351.202637 216.0
351.259155 132.0
351.297211 156.0
351.342651 76.0
351.389252 100.0
351.431122 140.0
351.481079 164.0
351.518219 64.0
351.569214 84.0
351.635956 44.0
351.719757 116.0
351.783203 80.0
351.816803 116.0
351.850403 76.0
351.88028 88.0
351.968964 48.0
351.977783 36.0
352.025909 204.0
352.063263 68.0
352.291107 100.0
352.335938 48.0
352.376617 76.0
352.429321 112.0
352.537689 60.0
352.672241 88.0
352.702148 28.0
352.78064 104.0
352.941406 76.0
353.037201 120.0
353.184509 72.0
353.233124 152.0
353.380463 108.0
353.410553 76.0
353.476318 72.0
353.51001 48.0
353.652222 28.0
353.70462 64.0
353.77948 96.0
353.816925 84.0
354.031769 160.0
354.205139 148.0
354.282196 120.0
354.393707 36.0
354.54361 112.0
354.596069 124.0
354.65979 124.0
354.741089 256.0
354.802246 56.0
354.839722 220.0
354.884735 36.0
354.948456 68.0
355.042542 8076.0
355.120331 160.0
355.192261 212.0
355.226013 88.0
355.264404 84.0
355.379822 104.0
355.407684 76.0
355.443604 84.0
355.496155 144.0
355.543884 140.0
355.586212 28.0
355.650024 56.0
355.695068 72.0
355.736359 28.0
355.785187 112.0
356.047607 1804.0
356.14566 56.0
356.243347 96.0
356.273376 76.0
356.333496 116.0
356.389862 80.0
356.423401 52.0
356.510101 76.0
356.547699 52.0
356.604065 148.0
356.64917 60.0
356.735626 104.0
356.782959 88.0
356.915833 56.0
357.04071 8292.0
357.232025 104.0
357.267914 104.0
357.282806 56.0
357.344696 76.0
357.401337 48.0
357.476593 48.0
357.597015 52.0
357.732513 112.0
357.815338 100.0
357.981018 148.0
358.045105 1704.0
358.101532 148.0
358.240906 48.0
358.269592 104.0
358.368988 124.0
358.440582 40.0
358.46698 88.0
358.732544 52.0
358.794891 84.0
358.8703 164.0
358.937103 84.0
359.048523 308.0
359.186401 152.0
359.243683 172.0
359.397186 64.0
359.419739 132.0
359.615784 156.0
359.722931 112.0
359.779572 76.0
359.847504 48.0
359.91925 120.0
359.960785 32.0
360.028229 112.0
360.194946 164.0
360.289398 80.0
360.324554 148.0
360.38385 108.0
360.417847 112.0
360.463196 88.0
360.508545 132.0
360.572784 192.0
360.618164 68.0
360.674072 116.0
360.723999 148.0
361.071838 60.0
361.196686 104.0
361.559906 40.0
361.597748 104.0
361.768066 156.0
361.805939 44.0
361.879486 84.0
361.958405 136.0
362.13916 80.0
362.199768 92.0
362.233856 88.0
362.396759 108.0
362.552124 48.0
362.650665 76.0
363.159485 144.0
363.359802 96.0
363.553314 84.0
363.682373 76.0
363.951904 120.0
363.997467 48.0
364.270935 68.0
364.297516 88.0
364.343719 152.0
364.445709 96.0
364.476105 112.0
365.022858 124.0
365.129944 92.0
365.582672 88.0
365.910034 164.0
366.028839 140.0
366.073761 116.0
366.306091 64.0
366.340393 108.0
366.660461 172.0
366.870087 72.0
367.028778 232.0
367.087433 84.0
367.393951 188.0
367.564636 160.0
368.005615 108.0
368.052277 132.0
368.304901 92.0
368.346924 64.0
368.729004 124.0
368.916321 140.0
368.969849 60.0
369.023346 56.0
369.088348 36.0
369.218384 116.0
369.417267 68.0
369.463196 132.0
369.830536 76.0
370.023163 172.0
370.067902 152.0
370.17511 112.0
370.244049 64.0
370.335968 84.0
370.565826 128.0
370.722931 140.0
370.857056 224.0
371.048737 128.0
371.098572 88.0
371.259613 96.0
371.317139 44.0
371.535797 116.0
371.643219 112.0
371.781372 212.0
371.90036 44.0
372.065399 128.0
372.184448 216.0
372.457123 80.0
372.541626 152.0
373.05365 1084.0
373.494965 104.0
373.725769 76.0
373.833527 104.0
373.895111 68.0
373.945129 44.0
374.014404 116.0
374.05426 364.0
374.136749 92.0
374.2146 116.0
374.291626 100.0
374.649811 124.0
374.749969 84.0
374.796204 128.0
375.050079 1320.0
375.104523 156.0
375.158508 92.0
375.403229 76.0
375.632843 116.0
375.8255 128.0
376.056549 424.0
376.273468 56.0
376.381561 124.0
376.763947 188.0
376.941681 64.0
377.036591 156.0
377.250885 108.0
377.285675 92.0
377.475128 84.0
377.784546 84.0
377.850311 108.0
377.962524 52.0
378.11731 140.0
378.286133 196.0
378.531555 100.0
378.574158 88.0
378.740692 88.0
379.073883 96.0
379.159119 60.0
379.85318 84.0
379.907501 28.0
380.229553 116.0
380.287781 72.0
380.334351 132.0
380.885742 72.0
381.025574 124.0
381.060547 76.0
381.11496 56.0
381.146027 80.0
381.803009 44.0
381.987549 108.0
382.044159 108.0
382.093536 256.0
382.168671 36.0
382.244293 92.0
382.312653 128.0
382.350494 116.0
382.65097 128.0
382.733063 92.0
382.852478 72.0
382.901581 200.0
383.0383 21864.0
383.136902 168.0
383.177094 88.0
383.212158 68.0
383.265198 84.0
383.307434 76.0
383.350128 108.0
383.445953 116.0
383.477142 108.0
383.605774 28.0
383.633057 152.0
383.672791 104.0
383.82019 28.0
383.853546 168.0
383.925507 100.0
383.968384 216.0
384.040924 5036.0
384.132202 272.0
384.159515 28.0
384.198517 44.0
384.253143 56.0
384.344299 56.0
384.415436 52.0
384.513855 244.0
384.587067 120.0
384.610657 176.0
384.642242 80.0
384.710846 104.0
384.767609 152.0
384.855957 108.0
384.930878 76.0
384.970764 120.0
385.036407 18900.0
385.131805 52.0
385.180817 64.0
385.206696 224.0
385.276031 84.0
385.389343 56.0
385.45575 80.0
385.490936 60.0
385.601654 96.0
385.651184 132.0
385.678528 48.0
385.713715 32.0
385.876801 100.0
385.924835 124.0
386.039856 3800.0
386.231262 168.0
386.278534 108.0
386.310272 108.0
386.37851 72.0
386.409515 52.0
386.491974 48.0
386.558502 76.0
386.655701 48.0
386.678558 124.0
386.754181 68.0
386.785492 32.0
386.816833 32.0
386.998169 88.0
387.042847 696.0
387.153534 100.0
387.180969 56.0
387.235382 116.0
387.529602 96.0
387.822021 116.0
387.956787 68.0
388.045868 156.0
388.090088 104.0
388.415588 112.0
388.497986 72.0
388.576447 76.0
388.649475 52.0
388.827576 64.0
389.121979 52.0
389.302612 76.0
389.420441 60.0
389.47934 136.0
389.770081 136.0
389.895844 156.0
390.068787 120.0
390.1474 100.0
390.576019 84.0
391.808197 64.0
392.359955 80.0
393.002838 100.0
393.085693 68.0
393.23172 168.0
393.354065 104.0
393.989868 128.0
394.294128 116.0
394.954437 116.0
395.046234 248.0
395.263031 176.0
395.37381 108.0
395.797394 88.0
396.038788 88.0
396.141968 112.0
396.5065 104.0
397.029816 76.0
397.077423 168.0
397.156738 80.0
397.295593 120.0
397.966309 72.0
398.033813 160.0
398.085144 2384.0
398.14502 68.0
398.28006 136.0
398.907898 124.0
399.041443 148.0
399.079254 476.0
399.643646 192.0
399.890381 128.0
400.025726 184.0
400.084869 3224.0
400.312378 80.0
400.372131 136.0
400.658936 88.0
400.718689 140.0
400.758514 60.0
401.08548 416.0
401.256744 136.0
401.51593 56.0
401.707397 136.0
401.805206 52.0
401.962738 132.0
402.006622 88.0
402.082458 72.0
402.110382 204.0
402.385834 76.0
402.805145 124.0
402.960968 96.0
403.048523 136.0
403.3526 184.0
403.574371 68.0
403.936432 60.0
404.168457 80.0
404.228485 152.0
404.316528 76.0
404.379242 120.0
404.832977 88.0
405.233521 116.0
405.61026 60.0
405.995148 68.0
406.247681 100.0
406.436432 72.0
406.737427 44.0
406.974274 84.0
407.387939 92.0
407.616974 152.0
408.759003 112.0
408.908081 84.0
409.447388 72.0
410.203003 76.0
410.483093 88.0
411.058868 240.0
411.609192 132.0
412.012848 132.0
412.063141 176.0
412.093628 132.0
412.453308 120.0
413.042145 152.0
413.084137 60.0
413.209534 224.0
413.254059 76.0
414.266205 108.0
414.452576 64.0
414.513336 92.0
415.206573 76.0
415.247131 84.0
415.348541 88.0
415.912537 52.0
416.099274 280.0
416.18454 180.0
416.875122 96.0
417.081573 60.0
417.285645 76.0
417.720795 76.0
418.069519 164.0
418.099609 396.0
418.19281 100.0
418.615356 164.0
419.227295 104.0
419.72052 188.0
419.838776 172.0
420.316071 76.0
420.507874 104.0
421.774078 100.0
421.921234 92.0
422.636993 96.0
423.218231 28.0
423.504913 88.0
423.84494 104.0
424.012939 80.0
424.068817 76.0
424.394196 172.0
425.071014 128.0
425.222839 88.0
425.32135 72.0
425.641602 136.0
425.683044 124.0
425.842834 96.0
425.968079 120.0
426.078247 11180.0
426.166931 192.0
426.212646 136.0
426.265381 84.0
426.458832 56.0
426.496124 120.0
426.533112 192.0
426.613403 68.0
426.713989 28.0
426.751007 124.0
426.905945 96.0
427.08432 2812.0
427.142365 172.0
427.310364 84.0
427.354553 196.0
427.491425 108.0
427.561371 40.0
427.723633 144.0
427.793945 96.0
427.841278 148.0
427.878326 188.0
427.946564 160.0
427.977142 52.0
428.07785 9840.0
428.156586 180.0
428.220123 64.0
428.368408 56.0
428.454926 56.0
428.533203 76.0
428.66507 32.0
428.751587 84.0
428.822937 156.0
428.992279 184.0
429.078949 2336.0
429.143219 52.0
429.242157 64.0
429.390625 44.0
429.427765 72.0
429.500397 52.0
429.580383 104.0
429.777679 156.0
429.83371 80.0
429.898071 48.0
429.968872 76.0
430.085663 528.0
430.343872 64.0
430.405823 48.0
430.495422 92.0
430.579254 40.0
430.719696 80.0
430.752747 68.0
430.986755 144.0
431.066742 124.0
431.095886 120.0
431.236176 52.0
431.488342 32.0
431.575165 108.0
431.752991 40.0
431.951538 128.0
432.083893 84.0
432.232849 40.0
432.445129 68.0
432.489441 52.0
432.758545 52.0
432.828918 116.0
432.874481 136.0
433.02771 88.0
433.147827 56.0
433.313538 84.0
433.613983 88.0
433.698944 84.0
433.931091 44.0
434.001587 68.0
434.04303 76.0
434.29187 88.0
434.731659 72.0
434.876923 76.0
435.134277 128.0
435.375885 108.0
435.591095 96.0
435.798828 100.0
436.32251 96.0
436.364105 116.0
436.555359 36.0
436.775787 124.0
437.042053 116.0
438.253723 104.0
438.83725 48.0
440.355042 84.0
440.385468 164.0
440.585999 100.0
440.936981 128.0
442.131592 132.0
442.329834 48.0
442.359131 48.0
442.802979 108.0
443.236206 292.0
443.67038 80.0
443.846466 48.0
444.48407 120.0
444.555389 96.0
447.291534 64.0
447.598877 52.0
448.285522 92.0
448.538391 124.0
448.829285 136.0
450.119415 108.0
450.517548 92.0
450.741455 152.0
450.804871 120.0
451.248688 60.0
451.828094 144.0
452.11377 196.0
453.136353 120.0
453.856903 72.0
454.319183 72.0
454.726562 48.0
455.032196 92.0
455.808807 108.0
455.91571 108.0
456.034729 120.0
456.230255 100.0
456.723541 68.0
456.812866 108.0
457.140503 72.0
457.246887 116.0
457.302216 36.0
457.357544 64.0
458.094208 172.0
458.528839 88.0
459.475494 96.0
460.248016 172.0
460.611053 124.0
461.012665 76.0
462.128723 112.0
462.809265 112.0
464.094727 52.0
464.626556 108.0
464.798187 72.0
465.021332 60.0
465.184448 32.0
465.613831 84.0
465.73407 104.0
466.107849 124.0
467.234344 48.0
467.608734 52.0
467.901459 72.0
467.957428 180.0
468.121033 320.0
469.78476 84.0
470.842285 76.0
470.876831 96.0
471.265625 112.0
471.542175 72.0
471.831787 64.0
471.862061 96.0
471.961517 68.0
472.060974 120.0
472.900269 184.0
473.060425 100.0
476.338806 68.0
476.42569 112.0
476.738525 116.0
476.969635 136.0
477.316681 60.0
477.895203 88.0
477.951782 80.0
478.08667 104.0
478.896484 60.0
478.97052 36.0
479.502075 44.0
480.260742 96.0
480.989441 108.0
481.094208 52.0
481.12912 96.0
482.00705 148.0
482.127899 92.0
482.474731 44.0
482.912018 112.0
483.218231 88.0
483.550781 40.0
483.699615 56.0
484.645599 104.0
485.257782 148.0
485.329376 52.0
485.579346 100.0
485.921509 32.0
486.189178 64.0
487.089264 68.0
487.221039 160.0
488.139679 60.0
488.55542 92.0
489.239655 72.0
489.750458 136.0
489.913452 64.0
491.05954 76.0
491.306549 96.0
492.454254 108.0
493.727112 164.0
493.890778 96.0
493.930573 44.0
495.212708 164.0
495.220428 108.0
496.025085 72.0
496.246735 116.0
496.393066 100.0
496.743469 176.0
496.996338 48.0
497.333618 96.0
498.097351 212.0
498.132904 184.0
499.03064 44.0
499.119568 84.0
500.133911 68.0
500.289703 120.0
500.864166 48.0
501.581573 36.0
501.679626 32.0
503.156311 188.0
504.635162 108.0
505.489532 132.0
505.619293 44.0
506.084869 56.0
507.016602 48.0
508.353027 124.0
508.460724 92.0
508.88269 64.0
508.941071 68.0
509.147644 184.0
509.866455 112.0
510.536316 80.0
510.752197 100.0
510.819672 64.0
511.256134 52.0
511.517181 108.0
511.548676 44.0
511.665741 52.0
512.003479 56.0
512.305237 96.0
512.341309 200.0
512.462952 88.0
513.242737 640.0
513.436584 180.0
513.743347 40.0
514.203613 136.0
514.248352 204.0
514.268555 184.0
514.28241 340.0
514.42926 28.0
514.903381 100.0
515.165344 84.0
515.263794 188.0
515.680481 64.0
516.729614 84.0
516.897034 108.0
517.426636 68.0
517.689209 104.0
517.843201 56.0
517.988159 88.0
518.214661 136.0
518.368774 88.0
518.831055 52.0
519.343506 32.0
519.688293 116.0
520.373596 152.0
520.759644 128.0
520.927673 168.0
522.268677 168.0
522.691772 56.0
522.951172 108.0
523.1651 96.0
523.219727 76.0
523.570374 44.0
524.048645 44.0
524.408691 48.0
524.577332 60.0
525.329773 68.0
525.389038 52.0
526.184509 144.0
526.635254 100.0
526.735779 52.0
528.30188 720.0
528.866577 128.0
528.916931 44.0
528.992493 92.0
529.29657 244.0
529.302185 324.0
529.958801 80.0
530.303406 124.0
530.412476 100.0
530.511047 76.0
530.744873 48.0
530.891663 56.0
531.25 580.0
531.31366 116.0
531.547668 36.0
531.625671 120.0
532.038757 136.0
532.134033 64.0
532.264709 324.0
533.134766 228.0
533.251465 180.0
533.950256 32.0
534.032166 80.0
534.101074 288.0
534.955994 116.0
535.248047 100.0
536.30304 72.0
536.844238 144.0
537.257568 140.0
537.474426 64.0
538.295837 152.0
538.443848 80.0
538.94281 88.0
539.174011 116.0
539.286804 36.0
540.265076 120.0
540.390015 40.0
540.607483 100.0
540.987 196.0
541.167603 140.0
541.329651 48.0
541.389832 52.0
541.477844 100.0
541.607544 196.0
541.71405 40.0
542.10791 88.0
542.464783 44.0
546.221558 88.0
546.654236 100.0
547.152283 88.0
547.194153 112.0
547.729736 92.0
548.139709 96.0
548.172363 80.0
548.8974 120.0
549.13739 168.0
549.946716 104.0
550.425415 48.0
550.552917 144.0
551.065369 112.0
551.121399 80.0
552.236755 104.0
553.638123 64.0
554.352905 104.0
554.584534 104.0
556.038513 152.0
556.289429 1676.0
556.815308 104.0
557.057373 76.0
557.300354 1556.0
557.376892 216.0
557.442688 60.0
557.513184 56.0
557.560181 88.0
557.936218 60.0
558.006714 116.0
558.304077 488.0
558.439331 56.0
558.726318 52.0
559.297729 316.0
559.950195 56.0
560.17627 64.0
560.642761 60.0
560.835999 32.0
561.562073 68.0
561.717773 88.0
561.906433 92.0
563.299133 96.0
563.384155 136.0
563.426697 36.0
564.873291 92.0
565.074463 68.0
565.189026 124.0
565.999695 68.0
566.056519 76.0
566.183411 80.0
566.283813 96.0
566.90918 120.0
567.182129 176.0
568.180176 180.0
568.735168 56.0
569.181885 128.0
570.198059 108.0
571.206055 152.0
573.429688 92.0
573.935059 132.0
573.987488 40.0
574.278381 160.0
574.669556 204.0
575.165894 160.0
575.302063 96.0
576.097107 176.0
576.168762 132.0
576.412415 132.0
577.287231 40.0
578.12439 40.0
578.173828 128.0
578.268005 64.0
578.401978 32.0
578.636597 32.0
579.181152 124.0
580.879395 52.0
581.723999 52.0
581.820007 104.0
582.098511 52.0
582.756531 104.0
583.044861 56.0
584.660767 136.0
585.248047 76.0
585.333252 44.0
585.816406 40.0
585.936829 68.0
588.604126 112.0
589.454285 64.0
589.686279 92.0
589.729736 144.0
589.816772 100.0
590.039124 100.0
590.116516 60.0
590.213196 48.0
590.545776 156.0
591.306519 128.0
591.780884 164.0
591.93103 100.0
592.220825 124.0
592.284546 140.0
593.163574 768.0
593.379761 160.0
594.18158 448.0
594.504333 48.0
594.738586 80.0
594.840027 56.0
595.174866 732.0
595.903625 56.0
595.947327 64.0
596.178223 140.0
596.399292 80.0
597.152954 104.0
598.194214 104.0
598.486328 76.0
598.973389 56.0
599.138977 84.0
599.216919 76.0
599.499573 88.0
600.85022 80.0
600.967285 140.0
601.274719 196.0
601.582275 116.0
601.987488 148.0
603.228516 68.0
603.727234 52.0
604.13324 80.0
604.583374 92.0
605.148621 160.0
606.655762 84.0
607.067139 152.0
607.169128 320.0
607.660645 140.0
607.802979 68.0
607.901123 120.0
608.213928 1152.0
608.445923 76.0
609.141418 148.0
609.220764 416.0
609.831177 40.0
610.018005 44.0
610.223022 524.0
610.529358 48.0
610.588379 92.0
611.186218 256.0
611.243408 552.0
611.961304 116.0
612.118835 44.0
612.202576 116.0
613.156372 308.0
613.188904 120.0
613.626648 60.0
614.186035 224.0
614.331848 92.0
614.445374 100.0
614.652588 96.0
614.884521 56.0
615.313965 44.0
615.669495 84.0
615.862122 132.0
616.558777 56.0
617.295349 60.0
617.567383 112.0
617.700256 116.0
618.211243 136.0
619.502869 40.0
620.132141 100.0
620.188904 132.0
620.375061 108.0
620.647705 76.0
621.694397 152.0
622.66748 116.0
622.990356 104.0
623.179138 140.0
623.27356 96.0
624.387085 64.0
625.212952 116.0
625.690796 84.0
626.343201 68.0
627.145386 76.0
627.36969 172.0
628.017944 96.0
628.856201 84.0
628.990967 60.0
629.834839 72.0
629.934753 116.0
630.104614 80.0
631.114258 100.0
631.32428 176.0
632.039612 120.0
633.311218 56.0
634.002625 60.0
634.08783 56.0
635.147278 92.0
635.275818 56.0
635.595398 96.0
635.915405 52.0
635.998779 136.0
636.215698 2544.0
636.581177 140.0
636.641418 160.0
636.792114 92.0
637.013123 124.0
637.218201 1320.0
637.361145 88.0
637.521545 64.0
637.583984 176.0
637.892822 132.0
638.068481 48.0
638.214783 3436.0
638.334961 132.0
638.40033 100.0
638.480835 60.0
638.581421 56.0
638.631714 52.0
638.695251 76.0
638.782593 84.0
638.832886 68.0
638.887085 68.0
639.061096 112.0
639.22113 1248.0
639.627991 88.0
639.899841 80.0
640.217712 364.0
640.332886 36.0
640.534363 44.0
640.846741 120.0
640.927368 36.0
641.128906 60.0
641.192383 88.0
641.244873 144.0
641.390991 68.0
641.557373 44.0
642.303711 100.0
642.838501 84.0
643.166565 40.0
643.41394 48.0
643.72699 164.0
644.949646 28.0
645.005249 52.0
645.136658 72.0
645.379333 48.0
645.682739 68.0
645.976135 116.0
646.026733 92.0
646.168396 88.0
646.239197 88.0
646.497253 44.0
646.552917 100.0
648.112671 92.0
649.126465 68.0
650.902527 84.0
651.188721 132.0
651.303711 140.0
651.787964 76.0
652.137024 36.0
652.238708 96.0
652.401367 44.0
652.59259 128.0
652.960693 80.0
653.108154 116.0
653.295105 108.0
653.306335 80.0
653.328125 184.0
653.474487 76.0
653.616943 132.0
653.878235 128.0
653.909668 92.0
654.037903 128.0
654.095337 108.0
654.224854 8164.0
654.4505 100.0
654.621765 80.0
654.714417 88.0
654.884583 96.0
655.083252 56.0
655.230164 2676.0
655.318237 124.0
655.4198 76.0
655.546875 68.0
655.694702 116.0
655.735474 144.0
655.788025 64.0
655.847595 116.0
655.948425 56.0
655.96759 44.0
655.977295 80.0
656.041321 48.0
656.132812 132.0
656.225464 8436.0
656.393127 132.0
656.444824 136.0
656.619751 40.0
656.673584 76.0
656.729675 44.0
656.781738 100.0
656.867432 136.0
657.066406 76.0
657.145813 116.0
657.228027 3988.0
657.400818 96.0
657.447571 120.0
657.535828 88.0
657.62262 56.0
657.688965 112.0
657.758301 96.0
657.884949 72.0
658.107605 44.0
658.236267 724.0
658.438354 52.0
658.541687 48.0
658.781738 48.0
658.894165 56.0
658.929871 88.0
658.975891 128.0
659.029785 108.0
659.234985 416.0
659.359802 60.0
659.435791 56.0
659.584045 124.0
659.65033 124.0
659.911194 112.0
660.223145 48.0
660.652832 112.0
660.847229 28.0
660.970032 96.0
661.271973 44.0
661.43573 120.0
661.599548 68.0
661.640503 164.0
661.850464 48.0
662.306213 52.0
662.429199 68.0
662.485535 44.0
662.526489 72.0
662.731445 36.0
663.377197 84.0
663.413086 44.0
663.500244 124.0
663.751465 72.0
663.82843 112.0
664.223328 64.0
664.351562 52.0
664.94165 36.0
665.147766 104.0
665.198303 88.0
665.711731 112.0
666.076416 92.0
666.543945 92.0
666.754639 64.0
666.821472 64.0
667.07843 40.0
667.309814 52.0
668.781067 136.0
669.537964 44.0
669.996399 64.0
671.527344 64.0
672.053528 84.0
675.152954 60.0
675.949646 96.0
676.286011 104.0
676.632874 32.0
677.02124 92.0
678.389099 80.0
680.215149 120.0
680.921265 64.0
681.129028 128.0
681.331665 56.0
682.131958 40.0
683.718384 32.0
685.556702 140.0
687.976929 52.0
688.744568 48.0
690.772766 84.0
691.322144 56.0
692.201599 88.0
694.224365 72.0
695.16864 88.0
695.793274 92.0
695.840515 44.0
695.945496 72.0
696.276367 108.0
698.052612 48.0
700.615906 36.0
700.937317 68.0
701.959961 80.0
703.078369 96.0
708.768433 52.0
712.211548 60.0
715.774841 48.0
717.8797 92.0
718.093079 68.0
719.523132 112.0
725.466858 36.0
730.358887 68.0
730.84845 44.0
733.595215 76.0
734.997498 56.0
737.519531 52.0
738.849854 92.0
742.370605 104.0
744.427307 64.0
745.155212 40.0
745.872559 68.0
749.148438 120.0
751.962097 76.0
753.217957 44.0
753.365417 60.0
756.373108 92.0
758.108337 112.0
760.670715 76.0
761.087952 96.0
761.801941 40.0
763.604858 48.0
767.184082 108.0
769.009888 76.0
769.087158 84.0
769.89325 44.0
776.534668 48.0
778.327148 60.0
782.859253 88.0
785.032593 52.0
786.550171 40.0
787.343018 136.0
795.518005 72.0
797.635803 100.0
797.973083 60.0
798.473572 84.0
801.789673 80.0
802.031982 52.0
802.640869 128.0
803.45874 52.0
804.429382 100.0
807.113037 104.0
807.667297 132.0
810.815308 88.0
816.936401 52.0
820.917725 40.0
821.11731 92.0
823.291748 36.0
823.497314 48.0
824.794373 76.0
826.470032 48.0
827.025146 88.0
829.585693 44.0
830.187744 92.0
830.371277 88.0
832.167419 48.0
832.730225 96.0
837.630859 52.0
840.323181 56.0
843.071777 120.0
844.389954 68.0
845.286621 80.0
848.435303 64.0
850.601379 108.0
851.582642 40.0
852.076416 44.0
854.634705 104.0
856.916016 84.0
861.052979 128.0
861.09967 76.0
862.659851 60.0
863.156799 68.0
865.093445 84.0
869.342834 44.0
873.343872 100.0
878.940674 168.0
879.176697 36.0
879.578064 52.0
883.79187 80.0
887.102539 72.0
888.680115 68.0
889.208313 64.0
889.629761 80.0
892.624268 32.0
894.349609 128.0
894.432922 108.0
896.91687 116.0
897.501099 88.0
898.78949 108.0
900.27594 96.0
905.227478 52.0
905.718567 80.0
907.83429 112.0
907.930237 48.0
909.574219 60.0
909.868408 64.0
915.050964 140.0
915.617004 80.0
916.65918 52.0
917.165466 96.0
925.072693 96.0
933.767883 52.0
936.872314 68.0
937.189087 192.0
937.250061 52.0
937.487671 80.0
944.723145 28.0
945.065735 76.0
946.994141 96.0
949.316895 108.0
950.243164 84.0
950.961121 56.0
952.354919 72.0
959.43158 48.0
959.572083 112.0
963.702576 36.0
964.697571 240.0
965.352966 60.0
969.097961 64.0
972.595642 48.0
974.595398 36.0
977.598877 56.0
986.368164 48.0
990.303955 84.0
991.726257 88.0
993.494568 84.0
995.138916 80.0
995.459167 132.0
996.690369 52.0
1001.717285 88.0
1003.904419 88.0
1007.45166 92.0
1008.810364 212.0
1018.886902 84.0
1021.090942 120.0
1022.384155 124.0
1027.494507 48.0
1027.813599 128.0
1028.09436 48.0
1030.118408 44.0
1031.415527 52.0
1032.758301 40.0
1038.304932 120.0
1038.587158 68.0
1043.352051 104.0
1043.930786 36.0
1048.527344 72.0
1049.442749 68.0
1052.966187 92.0
1054.549194 76.0
1055.680542 96.0
1056.754272 72.0
1061.372559 112.0
1064.188599 92.0
1066.754883 80.0
1067.502563 116.0
1069.363281 84.0
1069.910034 108.0
1075.078979 184.0
1077.86084 72.0
1084.942749 184.0
1092.699097 156.0
1094.028564 80.0
1096.439331 212.0
1099.36084 56.0
1100.218994 148.0
1105.645752 112.0
1106.651978 160.0
1109.288818 104.0
1109.852295 44.0
1110.283325 128.0
1111.762817 152.0
1112.326904 44.0
1116.612671 80.0
1118.688721 64.0
1120.653442 160.0
1127.112427 132.0
1131.399658 100.0
1133.46936 76.0
1133.911621 60.0
1138.594604 88.0
1140.160034 48.0
1145.866211 60.0
1146.722046 156.0
1149.804321 84.0
1152.72168 216.0
1153.343506 92.0
1160.384033 104.0
1162.629272 52.0
1164.666138 68.0
1172.58606 112.0
1175.668701 160.0
1176.480957 104.0
1176.678955 160.0
1177.143188 172.0
1178.577759 144.0
1179.028687 144.0
1181.976196 84.0
1183.331421 60.0
1184.879272 220.0
1185.40686 180.0
1191.321289 92.0
1195.274658 76.0
1195.666992 44.0
1198.469727 88.0
1200.179077 96.0
1200.661865 80.0
1201.744873 128.0
1201.903564 92.0
1204.064331 116.0
1205.031372 112.0
1205.155762 204.0
1210.025024 68.0
1210.565063 128.0
1212.962402 88.0
1213.932983 104.0
1215.077515 168.0
1220.655029 36.0
1223.26416 96.0
1225.513672 64.0
1228.553467 96.0
1228.993042 140.0
1230.347046 160.0
1237.1073 200.0
1238.178101 96.0
1238.598877 108.0
1241.192017 168.0
1243.612427 44.0
1245.796265 184.0
1245.936768 196.0
1247.721924 100.0
1248.073486 152.0
1248.685303 92.0
1252.042358 60.0
1253.703247 212.0
1254.268799 220.0
1259.271484 64.0
1260.083862 64.0
1261.158081 44.0
1261.723633 68.0
1269.356445 80.0
1270.746704 148.0
1272.37915 92.0
1273.543701 88.0
1277.545776 80.0
1279.061523 72.0
1279.12561 100.0
1281.974609 52.0
1284.084839 80.0
1284.206055 176.0
1285.747192 124.0
1286.946411 36.0
1287.703491 112.0
1288.360596 156.0
1288.596436 100.0
1293.480835 100.0
1293.76001 124.0
1294.196777 80.0
1297.256104 72.0
1299.601318 112.0
1301.618286 168.0
1304.952271 156.0
1305.484375 252.0
1307.14624 108.0
1308.139404 60.0
1310.840332 108.0
1314.243896 116.0
1314.792358 140.0
1315.434692 204.0
1316.589966 160.0
1320.463745 204.0
1320.796509 52.0
1320.999023 80.0
1321.729736 88.0
1323.437988 160.0
1324.401245 184.0
1325.046021 136.0
1325.632935 104.0
1332.664307 40.0
1335.754028 64.0
1336.307007 164.0
1336.852661 92.0
1338.417847 92.0
1343.906494 88.0
1349.091919 176.0
1350.634888 136.0
1351.220215 160.0
1353.562378 100.0
1357.064941 88.0
1360.557251 80.0
1360.902344 80.0
1362.047974 88.0
1363.319092 100.0
1363.906982 140.0
1365.399658 152.0
1365.502563 92.0
1367.820312 192.0
1368.23999 208.0
1368.608154 168.0
1368.814331 64.0
1369.771729 168.0
1369.978027 68.0
1372.682983 152.0
1375.937012 204.0
1376.446411 116.0
1377.613403 124.0
1378.551758 192.0
1379.571777 188.0
1381.583374 72.0
1382.278809 212.0
1382.693237 92.0
1383.722168 140.0
1384.336792 184.0
1385.72937 96.0
1386.047974 220.0
1388.724243 136.0
1388.809082 168.0
1391.447754 100.0
1394.798096 156.0
1396.865356 164.0
1399.336182 200.0
1401.347168 144.0
1401.771851 132.0
1403.650391 192.0
1404.157471 188.0
1405.530151 160.0
1405.612305 76.0
1406.231689 136.0
1407.456055 248.0
1407.814453 160.0
1409.144043 128.0
1409.898804 108.0
1410.130493 96.0
1410.960205 168.0
1411.289185 140.0
1412.740112 64.0
1414.423828 112.0
1415.052734 204.0
1416.625488 76.0
1418.026733 120.0
1421.83667 60.0
1424.8479 56.0
1426.681641 32.0
1426.907104 172.0
1427.681641 48.0
1427.854614 240.0
1429.758057 164.0
1430.164551 128.0
1431.903809 92.0
1432.423462 148.0
1432.807739 28.0
1433.425537 80.0
1434.028442 184.0
1435.106445 112.0
1437.112793 160.0
1438.977173 188.0
1439.389282 212.0
1442.044189 176.0
1442.845459 192.0
1444.652954 216.0
1444.766357 164.0
1445.591064 184.0
1447.021729 144.0
1447.089844 144.0
1448.263672 144.0
1448.953003 256.0
1449.968384 236.0
1451.719727 144.0
1456.007568 164.0
1457.519287 196.0
1457.785278 152.0
1458.46167 120.0
1459.024292 64.0
1459.161133 96.0
1459.875854 120.0
1461.130859 156.0
1461.579834 152.0
1461.998413 144.0
1462.371338 200.0
1462.873657 264.0
1463.086792 100.0
1463.886353 104.0
1466.034668 180.0
1467.116943 280.0
1467.467651 160.0
1467.742188 288.0
1468.41333 80.0
1468.962524 168.0
1469.557617 48.0
1470.946533 52.0
1471.757324 136.0
1473.932739 132.0
1480.144043 176.0
1480.917603 136.0
1483.476929 200.0
1483.921631 112.0
1485.84668 44.0
1485.915771 184.0
1486.621704 160.0
1486.741821 264.0
1488.596436 240.0
1490.123169 108.0
1490.522705 144.0
1491.614014 124.0
1493.328735 124.0
1494.375 168.0
1495.021362 164.0
1495.406128 192.0
1496.530151 40.0
1496.738037 184.0
1497.962646 148.0
1498.833252 36.0
1498.93335 144.0
1499.565308 212.0
1500.690796 232.0
1501.623901 152.0
1504.872803 188.0
