>compound Famotidine (Pepcid)
>formula C8H15N7O2S3
>ionization [M+H]+
>parentmass 338.050476
#inchi InChI=1S/C8H15N7O2S3/c9-6(15-20(12,16)17)1-2-18-3-5-4-19-8(13-5)14-7(10)11/h4H,1-3H2,(H2,9,15)(H2,12,16,17)(H4,10,11,13,14)
#inchikey XUFQPHANEAPEMJ
#Ion_Source LC-ESI
#Instrument qTof
#Compound_Source Commercial
#PI Dorrestein
#Data_Collector Garg_Neha
#Scan -1
#Precursor_MZ 338.052
#ExactMass 337.045
#Charge 1
#CAS_Number 76824-35-6
#Pubmed_ID N/A
#Smiles NS(NC(CCSCC1=CSC(=N1)NC(N)=N)=N)(=O)=O
#INCHI_AUX N/A
#Library_Class 1
#SpectrumID CCMSLIB00000078422
#IonMode Positive
#UpdateWorkflowName UPDATE-SINGLE-ANNOTATED-GOLD
#LibraryQualityString Gold
#TaskID 77f51c88eb8b467eb4a01dd2d0cb90d2
##Scan# 944
#SpectrumFile Plate6_61_80_GD10_01_15777.mzXML
#LibraryName FDALibrary_2_04302014.mgf
#MQScore -1
#Organism FDALibrary_2_04302014
#TIC_Query 0
#RT_Query -1
#MZErrorPPM -1
#SharedPeaks 0
#MassDiff 0
#LibMZ -1
#SpecMZ 338.052
#SpecCharge 0
#internalFilename spec-00000.mgf

>collision 10
44.995361 280.0
50.590576 176.0
52.089428 192.0
61.027809 144.0
63.029568 196.0
72.233208 188.0
79.670799 228.0
86.222588 264.0
87.02285 180.0
87.483932 148.0
92.944931 148.0
95.787094 180.0
96.79882 156.0
96.83799 152.0
102.013527 164.0
113.015717 720.0
114.012909 148.0
115.011833 156.0
123.952141 152.0
129.352386 140.0
138.013199 596.0
139.019424 212.0
142.974518 160.0
146.841522 148.0
147.001907 444.0
148.001358 184.0
150.120514 188.0
151.994354 180.0
153.021805 172.0
153.773666 152.0
154.705582 176.0
155.037628 4960.0
156.039505 356.0
157.034363 716.0
157.228561 164.0
158.398727 168.0
167.751312 188.0
171.997253 244.0
173.997955 164.0
174.016342 180.0
178.5271 152.0
187.133209 156.0
188.439682 160.0
188.983795 156.0
189.02562 10084.0
189.163757 124.0
189.695862 144.0
190.027847 740.0
191.021545 868.0
218.467239 268.0
242.052673 304.0
244.048965 188.0
258.577637 164.0
258.846558 156.0
259.079254 10628.0
259.459473 104.0
260.079742 1264.0
261.075562 956.0
262.075623 172.0
279.866455 188.0
283.621582 216.0
323.422028 172.0
338.050476 1412.0
340.04953 124.0
340.288025 148.0
1390.553345 160.0
1923.04895 216.0
