>compound CefditorenPivoxil
>formula C25H28N6O7S3 
>ionization [M+H]+
>parentmass 621.1254366880905
#inchi InChI=1S/C25H28N6O7S3/c1-12-15(41-10-27-12)7-6-13-8-39-21-17(29-19(32)16(30-36-5)14-9-40-24(26)28-14)20(33)31(21)18(13)22(34)37-11-38-23(35)25(2,3)4/h6-7,9-10,17,21H,8,11H2,1-5H3,(H2,26,28)(H,29,32)/b7-6-,30-16-/t17-,21-/m1/s1
#inchikey AFZFFLVORLEPPO
#Ion_Source LC-ESI
#Instrument qTof
#Compound_Source Isolated
#PI Sirenas
#Data_Collector Ed Esquenazi 
#Scan -1
#Precursor_MZ 621.125
#ExactMass 0.0
#Charge 1
#CAS_Number N/A
#Pubmed_ID N/A
#Smiles N/A
#INCHI_AUX N/A
#Library_Class 3
#SpectrumID CCMSLIB00000004868
#IonMode Positive
#UpdateWorkflowName UPDATE-SINGLE-ANNOTATED-BRONZE
#LibraryQualityString Bronze
#TaskID d19310cd93df49b68e9fcbec27720eb5
##Scan# 13
#SpectrumFile CefditorenPivoxil.mgf
#LibraryName fda_library.mgf
#MQScore -1
#Organism fda_library
#TIC_Query 0
#RT_Query -1
#MZErrorPPM -1
#SharedPeaks 0
#MassDiff 0
#LibMZ -1
#SpecMZ 621.125
#SpecCharge 0
#internalFilename spec-00000.mgf

>collision 10
182.651581 25.060049
201.042282 79.347816
241.040985 268.884491
241.264648 10.05592
243.453873 15.00893
249.011642 208.4711
381.092285 108.833504
419.994019 34.625
448.018677 23.630211
458.27243 17.5
461.044128 54.64333
507.052521 25.88242
541.126526 14.04464
564.084839 30.975639
578.131714 27.4697
590.603516 34.600609
592.115295 9.704166
593.125183 9.008928
609.134216 36.522011
610.09375 58.333328
612.109192 42.8913
612.599915 75.655602
616.609497 12.69391
617.309448 30.062941
617.376709 9.555921
617.569153 17.2689
617.741638 4.017857
618.36438 20.25
618.425842 8.525
619.125305 21.342991
620.625671 115.495903
620.933533 41.262451
621.122681 1604.980957
621.216003 34.608189
621.352539 9.501894
621.408936 12.08224
621.62854 128.608398
621.757996 11.55893
621.871887 13.38007
622.324158 4.004167
622.426147 37.692612
622.662659 19.00568
622.827759 9.515625
623.704773 8.613426
627.464539 39.680851
747.0802 24.85227
784.290161 7.333333
786.105896 25.50481
1125.895874 22.027781
1127.186646 54.74464
1128.137817 4.5375
1149.209839 19.29719
1179.188599 24.45924
1197.243164 11.9025
