>compound MLS001076062-01!Bendrofluazide
>formula C15H14F3N3O4S2
>ionization [M+H]+
>parentmass 422.045
#inchi InChI=1S/C15H14F3N3O4S2/c16-15(17,18)10-7-11-13(8-12(10)26(19,22)23)27(24,25)21-14(20-11)6-9-4-2-1-3-5-9/h1-5,7-8,14,20-21H,6H2,(H2,19,22,23)
#inchikey HDWIHXWEUNVBIY
#Ion_Source LC-ESI
#Instrument qTof
#Compound_Source NIH Pharmacologically Active Library
#PI Dorrestein
#Data_Collector VP/LMS
#Scan -1
#Precursor_MZ 422.045
#ExactMass 421.038
#Charge 1
#CAS_Number N/A
#Pubmed_ID N/A
#Smiles NS(=O)(=O)c1cc2c(NC(Cc3ccccc3)NS2(=O)=O)cc1C(F)(F)F
#INCHI_AUX N/A
#Library_Class 1
#SpectrumID CCMSLIB00000084967
#IonMode Positive
#UpdateWorkflowName UPDATE-SINGLE-ANNOTATED-GOLD
#LibraryQualityString Gold
#TaskID d252d724072548979f1f6f1ced849daf
##Scan# 2015
#SpectrumFile p3-D04_GD4_01_18261.mzXML
#LibraryName Pharm_Active_Library.mgf
#MQScore -1
#Organism Pharm_Active_Library
#TIC_Query 0
#RT_Query -1
#MZErrorPPM -1
#SharedPeaks 0
#MassDiff 0
#LibMZ -1
#SpecMZ 422.045
#SpecCharge 0
#internalFilename spec-00000.mgf

>collision 10
45.029625 156.0
45.70396 168.0
46.379238 188.0
46.69017 104.0
47.029438 116.0
47.04855 136.0
47.59486 140.0
47.966335 156.0
48.167809 104.0
48.259026 208.0
48.646957 144.0
48.888813 140.0
49.021114 128.0
49.06572 148.0
49.280663 144.0
50.755871 212.0
51.024231 192.0
52.215431 128.0
52.673801 216.0
52.84874 152.0
52.981941 180.0
54.276268 60.0
54.467064 40.0
54.652306 144.0
56.059113 164.0
56.185856 124.0
56.417343 168.0
56.932796 192.0
57.75272 112.0
58.089005 268.0
58.657745 80.0
58.787392 232.0
58.940098 264.0
59.408615 144.0
59.809696 164.0
59.82663 140.0
60.355846 152.0
60.538448 176.0
61.031921 152.0
62.098568 148.0
62.194279 176.0
62.469467 132.0
62.555832 116.0
62.935795 236.0
63.20768 160.0
64.122437 156.0
64.609474 164.0
65.281555 112.0
65.550392 176.0
65.606804 72.0
65.668083 116.0
65.679375 148.0
65.923172 180.0
65.976509 204.0
66.34726 192.0
67.127731 216.0
67.272949 112.0
67.504959 124.0
68.270813 216.0
68.517723 184.0
68.687523 200.0
68.753525 148.0
68.807999 132.0
68.946754 108.0
69.42189 104.0
69.704102 196.0
70.073494 80.0
70.440521 252.0
70.453888 236.0
70.514046 176.0
70.575897 196.0
70.997894 156.0
71.793373 200.0
71.87941 180.0
72.073601 148.0
72.757874 248.0
73.532402 120.0
73.73394 144.0
73.817703 144.0
73.999084 104.0
74.016205 128.0
74.137833 184.0
74.530807 140.0
75.293961 40.0
76.68531 144.0
76.840652 168.0
77.109581 184.0
77.301956 224.0
77.366714 204.0
77.569931 216.0
77.72953 144.0
77.922684 176.0
78.080887 252.0
78.367828 72.0
78.397781 56.0
78.853119 56.0
78.939751 80.0
79.098984 172.0
79.733978 192.0
80.516113 140.0
81.499596 164.0
82.133308 176.0
83.60453 148.0
83.897797 160.0
84.169655 60.0
84.451843 216.0
85.074135 216.0
87.641327 68.0
87.861336 216.0
87.997581 216.0
88.251694 184.0
88.390114 188.0
89.258629 116.0
89.328217 168.0
89.384659 132.0
89.836853 220.0
90.086945 204.0
90.137054 172.0
90.754135 184.0
90.909683 148.0
91.053703 2932.0
91.071457 248.0
91.649399 136.0
92.061234 152.0
92.111099 192.0
92.711884 80.0
92.974625 268.0
93.07061 164.0
93.228127 48.0
93.624435 160.0
93.834473 80.0
94.870735 188.0
94.892067 164.0
94.911453 168.0
95.076347 152.0
95.59523 108.0
95.821098 144.0
96.021881 136.0
96.39476 76.0
96.895676 164.0
96.977974 192.0
97.557053 148.0
97.728157 212.0
98.147713 176.0
99.771271 52.0
100.049797 168.0
100.336685 72.0
100.604019 108.0
100.731827 40.0
101.017693 172.0
101.388115 180.0
101.46228 132.0
101.678917 172.0
101.944016 180.0
102.044518 132.0
102.092781 204.0
102.239639 120.0
102.910904 244.0
103.053276 1052.0
103.280731 88.0
103.578293 44.0
103.679596 224.0
103.697838 72.0
104.058296 336.0
105.032616 1260.0
105.131668 60.0
105.597481 124.0
105.617935 88.0
106.035049 156.0
106.382278 168.0
106.634933 164.0
106.842621 76.0
107.708443 136.0
107.939919 148.0
108.026787 164.0
108.233757 200.0
108.293808 140.0
108.565315 184.0
109.013725 64.0
109.398514 116.0
109.66098 188.0
109.875763 116.0
110.170128 120.0
111.254944 112.0
111.753052 196.0
113.046562 176.0
113.095238 152.0
113.334549 156.0
113.794815 180.0
114.000862 128.0
114.032738 96.0
114.993317 44.0
115.018929 48.0
115.245308 152.0
116.030884 336.0
116.857697 140.0
117.057549 156.0
117.864639 136.0
118.037567 104.0
118.064301 1880.0
118.275558 60.0
118.336174 216.0
118.411964 76.0
118.427124 84.0
119.072449 4316.0
119.171219 92.0
119.336411 192.0
119.874062 120.0
119.917648 144.0
120.013565 140.0
120.080322 5940.0
120.236076 56.0
120.266632 28.0
120.281914 172.0
120.316841 60.0
120.362694 104.0
120.594261 144.0
120.635796 212.0
121.02742 92.0
121.079948 412.0
121.087135 224.0
121.301277 44.0
121.590813 156.0
121.683006 68.0
121.740097 40.0
121.768646 104.0
121.865303 216.0
122.021355 140.0
122.054337 84.0
122.333755 144.0
122.686234 68.0
123.114296 184.0
123.18277 44.0
123.222534 172.0
124.014771 140.0
124.691719 208.0
125.202339 164.0
125.397255 168.0
126.964508 180.0
127.022827 188.0
127.049751 140.0
127.543785 104.0
128.028671 476.0
128.464798 176.0
128.9254 248.0
129.036163 172.0
130.005646 140.0
130.076309 152.0
130.760178 140.0
131.021576 380.0
131.074448 152.0
131.66301 148.0
132.019531 120.0
132.058411 172.0
133.023926 188.0
133.04512 208.0
133.209106 160.0
133.980972 136.0
134.579422 120.0
135.048553 104.0
135.18042 64.0
136.03801 148.0
136.907608 184.0
137.015549 220.0
137.327118 104.0
137.490433 112.0
137.523117 136.0
137.730927 196.0
137.756622 148.0
138.02034 188.0
138.041763 216.0
138.904388 116.0
138.974045 124.0
139.030365 148.0
139.079651 148.0
139.829437 184.0
139.864746 40.0
140.08374 128.0
140.166199 188.0
141.093796 272.0
142.060028 172.0
142.112228 44.0
142.805893 156.0
143.038437 564.0
144.024261 656.0
145.227859 128.0
145.592682 76.0
146.015656 172.0
146.174438 160.0
146.410355 92.0
147.000671 156.0
148.035645 148.0
148.125244 128.0
148.661087 96.0
149.015594 168.0
149.032608 52.0
149.43866 104.0
149.458115 68.0
149.623627 172.0
150.07193 112.0
150.174347 92.0
150.979019 148.0
151.026733 140.0
151.032623 136.0
151.039734 192.0
151.073273 140.0
151.952789 172.0
151.982239 136.0
152.026413 172.0
152.999771 160.0
153.071167 260.0
153.233734 128.0
153.717026 108.0
153.968826 172.0
154.035156 192.0
154.102219 148.0
154.203537 252.0
155.981949 192.0
156.027222 196.0
157.98822 212.0
158.021561 1040.0
158.063278 84.0
158.130859 76.0
159.023407 408.0
159.299332 48.0
159.372192 128.0
160.005798 180.0
160.030899 172.0
160.204971 144.0
161.009598 160.0
161.080322 180.0
161.115692 96.0
162.044205 40.0
162.254562 56.0
163.047287 1072.0
163.082108 156.0
163.107529 32.0
163.80986 48.0
164.046844 276.0
164.758865 128.0
165.071106 220.0
165.9897 144.0
165.998383 128.0
166.004654 156.0
166.015152 84.0
166.022369 224.0
166.06633 172.0
166.521225 204.0
166.621414 212.0
166.981277 68.0
167.001862 152.0
167.076462 240.0
168.145828 116.0
168.342026 60.0
169.096924 156.0
169.423203 108.0
170.014389 60.0
170.035156 156.0
170.500031 100.0
171.035263 168.0
172.01857 304.0
172.230072 84.0
172.250961 104.0
172.321503 36.0
172.360687 52.0
172.6064 144.0
173.026657 352.0
174.01619 496.0
174.357574 72.0
174.444321 104.0
175.02034 156.0
175.043732 468.0
175.98555 380.0
176.0336 220.0
176.977081 336.0
176.995605 132.0
177.43544 124.0
177.642303 120.0
177.992722 132.0
178.065536 160.0
178.473587 32.0
178.997025 124.0
179.984406 224.0
180.005295 392.0
180.080368 332.0
180.36377 116.0
181.08754 352.0
181.110306 160.0
181.997986 144.0
182.09198 152.0
183.054367 164.0
183.254089 208.0
183.871613 160.0
184.063278 136.0
184.101089 192.0
184.201019 52.0
185.025421 204.0
185.096237 168.0
185.798233 184.0
186.017899 276.0
186.134796 172.0
186.526031 228.0
186.778915 144.0
187.009918 72.0
187.048309 184.0
187.405075 288.0
187.56041 168.0
187.912201 116.0
187.96405 92.0
188.001068 188.0
188.507462 108.0
188.985977 164.0
189.026062 192.0
189.358276 68.0
189.673386 124.0
189.993851 428.0
190.006485 348.0
190.063812 900.0
190.320847 172.0
190.655975 148.0
190.862152 104.0
190.999664 176.0
191.04097 1064.0
191.070236 548.0
191.142715 176.0
192.02153 548.0
192.078384 708.0
192.112549 112.0
192.952118 196.0
192.982529 152.0
193.077728 300.0
193.248047 56.0
193.355972 68.0
193.690994 128.0
193.882172 176.0
194.006912 220.0
194.056808 68.0
194.21489 84.0
194.547882 120.0
194.770035 152.0
195.028442 164.0
195.047897 160.0
195.494095 180.0
195.985779 56.0
196.024796 176.0
196.044296 180.0
196.417908 148.0
196.780701 36.0
197.001328 188.0
197.0522 152.0
198.316498 148.0
198.991379 312.0
199.065567 212.0
199.99617 204.0
200.041199 140.0
200.294632 72.0
200.573593 36.0
200.818909 188.0
200.996643 152.0
201.037613 108.0
201.060837 160.0
201.719666 148.0
201.966888 220.0
202.002441 212.0
202.067505 196.0
202.110382 156.0
202.990906 220.0
203.030609 172.0
203.053101 164.0
203.728867 188.0
203.95903 180.0
203.996567 220.0
204.027267 76.0
204.058731 172.0
204.453934 228.0
204.727234 188.0
205.003555 128.0
205.074814 180.0
205.151779 152.0
205.399872 172.0
205.984528 336.0
206.393738 176.0
207.018097 648.0
207.061981 164.0
207.092026 320.0
207.691071 40.0
208.00238 132.0
208.026489 284.0
208.06041 148.0
208.096252 440.0
208.144531 124.0
209.067291 152.0
209.214096 152.0
209.455978 84.0
210.033524 156.0
210.072128 452.0
210.777344 140.0
211.076782 812.0
211.335403 128.0
211.396179 180.0
212.036194 132.0
212.070969 128.0
213.046036 168.0
214.011566 68.0
214.051971 168.0
215.040619 60.0
215.233292 200.0
216.022415 188.0
216.068268 1612.0
216.206741 220.0
217.00058 188.0
217.041626 160.0
217.074951 1072.0
217.810547 60.0
218.036789 112.0
218.077881 412.0
219.000061 228.0
219.03717 136.0
219.070419 196.0
219.104919 200.0
219.143234 128.0
219.992615 76.0
220.01622 104.0
220.379501 164.0
220.719421 220.0
221.015213 128.0
221.070251 772.0
221.980042 276.0
222.042938 164.0
222.074829 328.0
223.010361 164.0
223.109161 140.0
223.498795 48.0
223.733917 156.0
224.004913 204.0
224.089493 336.0
224.243286 156.0
225.003952 208.0
225.036789 212.0
225.088898 160.0
225.254807 116.0
225.756927 44.0
226.397354 176.0
227.013977 116.0
228.053482 212.0
228.07753 80.0
228.522614 60.0
229.040405 144.0
229.076553 120.0
229.28447 120.0
230.08316 184.0
230.824066 172.0
230.957138 156.0
231.04422 224.0
231.084198 120.0
231.456497 200.0
232.023087 208.0
232.165604 148.0
232.660187 92.0
233.051926 200.0
233.462357 144.0
233.495804 92.0
233.687454 56.0
233.988754 192.0
234.028549 120.0
234.067932 144.0
234.983749 320.0
235.030594 172.0
235.060989 444.0
235.06572 344.0
235.495178 128.0
235.99025 60.0
236.070923 304.0
236.739944 108.0
237.079239 568.0
237.739334 84.0
238.091812 108.0
238.178375 104.0
239.009628 1456.0
239.56572 252.0
239.802994 152.0
240.01062 164.0
240.065918 372.0
240.617371 120.0
240.998672 156.0
241.071625 124.0
241.130142 172.0
241.498077 156.0
242.075256 384.0
242.764771 128.0
243.075516 168.0
244.056549 112.0
245.142914 92.0
246.047668 124.0
246.541 88.0
246.978714 208.0
247.063171 140.0
247.125748 44.0
247.432465 188.0
248.034241 128.0
248.065796 148.0
248.124847 168.0
248.510635 164.0
249.043579 208.0
249.066925 672.0
249.638306 148.0
249.943436 40.0
250.00351 224.0
250.068039 208.0
250.100784 172.0
250.302277 152.0
250.529053 168.0
250.834732 212.0
250.986053 192.0
251.014435 44.0
251.096436 164.0
253.028183 172.0
255.004654 1156.0
255.047897 80.0
255.089218 160.0
256.016693 156.0
256.063751 192.0
256.110657 148.0
256.445221 56.0
256.531281 48.0
256.674744 48.0
256.891632 56.0
257.008606 60.0
257.081726 664.0
258.018951 132.0
258.070099 136.0
258.095703 144.0
258.258789 52.0
259.030212 160.0
259.063263 216.0
259.841278 188.0
260.068237 1352.0
260.175079 56.0
260.361298 56.0
260.926849 96.0
261.020996 224.0
261.074219 7332.0
261.222717 72.0
261.362579 116.0
261.58313 52.0
262.012756 948.0
262.078094 1448.0
262.249878 60.0
262.846527 40.0
262.878784 56.0
262.93042 88.0
263.007874 152.0
263.036926 164.0
263.080017 116.0
263.518127 64.0
263.863953 116.0
264.013763 108.0
264.054688 220.0
264.300598 44.0
265.029144 108.0
265.168488 164.0
265.865753 64.0
265.994141 168.0
266.021301 132.0
267.009338 180.0
267.03537 128.0
267.1362 184.0
267.855621 172.0
267.901215 144.0
268.683533 124.0
269.339783 144.0
269.542358 60.0
269.977112 32.0
270.982117 1508.0
271.050842 176.0
271.981964 144.0
272.073242 360.0
272.563568 60.0
272.977936 140.0
273.082977 392.0
273.556824 152.0
274.073883 160.0
275.047485 552.0
275.073181 120.0
275.482666 80.0
275.733795 56.0
276.030701 628.0
276.395203 60.0
276.716248 48.0
277.026855 416.0
277.07901 260.0
277.133575 92.0
277.286011 108.0
277.637451 28.0
277.916077 92.0
277.982452 116.0
278.026459 784.0
278.09494 188.0
278.473785 120.0
279.033478 1264.0
279.078888 184.0
279.231567 68.0
280.032166 324.0
281.0289 296.0
281.190613 32.0
281.744934 52.0
281.808411 152.0
281.991486 372.0
282.042328 316.0
282.400116 92.0
282.984253 324.0
283.011658 216.0
283.997772 120.0
284.269531 200.0
284.682434 204.0
284.978607 140.0
285.065399 140.0
286.009521 168.0
286.502136 92.0
286.975281 1276.0
287.048157 188.0
287.976624 172.0
288.974426 356.0
289.985992 152.0
290.01651 152.0
291.380676 32.0
291.632141 160.0
292.060577 180.0
293.075073 140.0
294.029022 124.0
294.688965 52.0
295.053955 324.0
295.191437 120.0
296.033875 252.0
296.997711 176.0
298.012482 132.0
298.314911 36.0
299.763916 116.0
301.299347 52.0
302.056427 68.0
302.25708 96.0
302.530518 64.0
302.966858 88.0
305.010803 124.0
306.029114 192.0
306.138092 152.0
307.035339 144.0
309.080811 136.0
309.9422 88.0
310.057831 168.0
310.864441 112.0
311.022278 860.0
312.01886 304.0
312.31543 44.0
313.043976 176.0
313.072144 64.0
314.348267 152.0
315.21698 88.0
316.023163 124.0
317.390381 156.0
319.009369 168.0
320.96698 128.0
320.978241 108.0
322.022522 240.0
322.048889 148.0
322.23465 52.0
322.967499 132.0
324.002655 192.0
327.042664 292.0
329.987305 112.0
338.011383 140.0
339.997589 144.0
340.046021 368.0
341.054291 292.0
342.43515 112.0
343.050507 104.0
344.936829 132.0
344.996704 416.0
345.247406 148.0
345.787567 108.0
345.987457 276.0
348.004364 160.0
350.70517 160.0
356.01416 156.0
357.0466 148.0
358.000488 44.0
358.044983 152.0
359.012817 448.0
359.05188 188.0
359.877655 168.0
360.009125 448.0
361.013397 360.0
362.010315 108.0
363.818939 112.0
364.244263 180.0
368.709778 124.0
369.998291 220.0
371.010254 108.0
372.011322 144.0
374.900116 92.0
376.023041 208.0
381.701691 120.0
387.051514 32.0
405.020599 176.0
414.99939 128.0
422.035309 128.0
424.430664 88.0
426.532684 76.0
428.528625 44.0
439.787872 100.0
461.999695 124.0
465.510071 68.0
481.53009 108.0
482.010651 80.0
489.701172 84.0
510.34201 88.0
577.022827 108.0
595.586304 104.0
601.492859 108.0
699.539368 216.0
719.462097 72.0
783.98175 196.0
814.630981 172.0
823.551331 100.0
840.591125 120.0
896.132507 136.0
929.547852 108.0
966.264282 52.0
981.706177 200.0
984.608154 88.0
986.889038 56.0
1025.073364 68.0
1025.232666 144.0
1034.391846 192.0
1045.804688 192.0
1047.311279 148.0
1067.179077 224.0
1071.774414 48.0
1078.901611 164.0
1091.036621 160.0
1099.500854 188.0
1099.995972 60.0
1100.583496 160.0
1104.509155 184.0
1106.501099 152.0
1113.443848 44.0
1119.895264 168.0
1131.287231 36.0
1142.164917 136.0
1170.155273 192.0
1180.280762 184.0
1188.768066 168.0
1193.989258 152.0
1226.734131 180.0
1226.866577 176.0
1230.375854 124.0
1252.1698 128.0
1259.258057 112.0
1267.627441 192.0
1269.413818 192.0
1284.656006 104.0
1288.354004 192.0
1289.683105 64.0
1299.228638 140.0
1310.984863 160.0
1341.463501 196.0
1342.38208 196.0
1344.694824 208.0
1345.636475 280.0
1345.935791 152.0
1350.583862 192.0
1356.412598 48.0
1358.341187 204.0
1361.29895 216.0
1366.032349 96.0
1366.407471 148.0
1369.32251 140.0
1372.941162 136.0
1378.610962 244.0
1382.307617 180.0
1383.433472 160.0
1388.872559 72.0
1403.799438 148.0
1405.112305 144.0
1406.455566 160.0
1409.30835 220.0
1421.048584 180.0
1421.326294 116.0
1425.621582 160.0
1437.399292 224.0
1439.460083 160.0
1439.898071 116.0
1442.338623 184.0
1451.772461 184.0
1463.13208 184.0
1463.535645 128.0
1465.1427 188.0
1467.604492 168.0
1479.952148 176.0
1480.166504 180.0
1484.189453 184.0
1497.145508 148.0
1497.730957 140.0
1498.069824 164.0
1501.523071 148.0
