>compound RITONAVIR
>formula C37H48N6O5S2
>ionization [M+H]+
>parentmass 721.32074
#inchi InChI=1S/C37H48N6O5S2/c1-24(2)33(42-36(46)43(5)20-29-22-49-35(40-29)25(3)4)34(45)39-28(16-26-12-8-6-9-13-26)18-32(44)31(17-27-14-10-7-11-15-27)41-37(47)48-21-30-19-38-23-50-30/h6-15,19,22-25,28,31-33,44H,16-18,20-21H2,1-5H3,(H,39,45)(H,41,47)(H,42,46)/t28-,31-,32-,33-/m0/s1
#inchikey NCDNCNXCDXHOMX
#Ion_Source LC-ESI
#Instrument qTof
#Compound_Source Commercial
#PI Dorrestein
#Data_Collector Garg_Neha
#Scan -1
#Precursor_MZ 721.321
#ExactMass 720.313
#Charge 1
#CAS_Number N/A
#Pubmed_ID N/A
#Smiles CC(C)[C@H](NC(=O)N(C)Cc1csc(n1)C(C)C)C(=O)N[C@H](C[C@H](O)[C@H](Cc2ccccc2)NC(=O)OCc3cncs3)Cc4ccccc4
#INCHI_AUX N/A
#Library_Class 1
#SpectrumID CCMSLIB00000079259
#IonMode Positive
#UpdateWorkflowName UPDATE-SINGLE-ANNOTATED-GOLD
#LibraryQualityString Gold
#TaskID 278b19f5865741e282cec7349aa7e7a1
##Scan# 1969
#SpectrumFile NCP003512_A2_B11_BD4_01_15728.mzXML
#LibraryName NIHcollectionI_05062014.mgf
#MQScore -1
#Organism NIHcollectionI_05062014
#TIC_Query 0
#RT_Query -1
#MZErrorPPM -1
#SharedPeaks 0
#MassDiff 0
#LibMZ -1
#SpecMZ 721.321
#SpecCharge 0
#internalFilename spec-00000.mgf

>collision 10
45.163486 172.0
45.186226 176.0
45.338875 160.0
45.875175 148.0
45.966888 204.0
46.229801 168.0
46.637268 208.0
46.754234 140.0
47.039097 144.0
47.239975 140.0
47.398792 204.0
47.671867 200.0
47.744728 176.0
47.880974 140.0
47.912655 152.0
48.419594 184.0
48.506218 160.0
48.699753 220.0
48.734482 216.0
49.537998 136.0
49.845341 188.0
50.041641 264.0
50.059158 176.0
50.146503 140.0
50.279076 156.0
50.672176 148.0
50.693432 232.0
50.84943 188.0
50.883865 184.0
50.995716 204.0
51.071381 208.0
51.139923 144.0
51.351662 172.0
51.665916 164.0
51.893635 156.0
52.262764 176.0
52.421158 144.0
52.549488 208.0
52.729988 164.0
52.813286 144.0
52.947002 156.0
52.958225 176.0
53.071625 144.0
53.084675 164.0
53.375095 160.0
53.523514 168.0
53.551182 160.0
53.754242 196.0
54.23938 164.0
54.383121 196.0
54.456535 196.0
54.659409 144.0
54.790447 144.0
55.416878 200.0
55.486492 128.0
55.517673 152.0
55.953037 160.0
56.163151 160.0
56.551628 176.0
56.617401 176.0
56.632481 160.0
56.717888 208.0
56.755367 184.0
56.8461 180.0
56.950459 148.0
57.566429 148.0
57.640446 144.0
57.9067 144.0
58.267723 164.0
58.299629 168.0
58.448654 144.0
58.509533 156.0
58.538464 176.0
58.862289 100.0
59.211937 172.0
59.3008 168.0
59.527851 196.0
59.729183 188.0
59.833828 140.0
59.941643 208.0
60.568893 144.0
61.085796 144.0
61.19318 224.0
61.545551 144.0
61.784679 144.0
61.913029 140.0
62.067745 180.0
62.140316 184.0
62.166988 216.0
62.522152 172.0
62.818562 128.0
63.061531 144.0
63.096306 204.0
63.121605 188.0
63.197529 152.0
63.522301 220.0
63.547684 212.0
63.617512 168.0
63.655617 160.0
64.014999 252.0
64.056412 200.0
64.086678 140.0
64.20623 164.0
64.357826 188.0
64.420967 240.0
64.500008 140.0
64.538376 212.0
64.583153 180.0
64.634346 144.0
64.699966 156.0
64.905052 164.0
65.020554 180.0
65.205193 136.0
65.335487 140.0
65.351578 168.0
65.425606 156.0
65.557686 184.0
65.801247 192.0
66.234642 208.0
66.265419 216.0
66.29171 176.0
66.440514 152.0
66.636238 108.0
67.1008 192.0
67.234558 200.0
67.57444 164.0
68.09568 164.0
68.117775 216.0
68.571198 152.0
68.637138 148.0
69.074791 200.0
69.276146 176.0
69.559921 224.0
70.140839 220.0
70.39064 160.0
70.417122 164.0
70.511375 156.0
70.630089 148.0
70.678604 248.0
70.897964 96.0
71.046471 288.0
71.665352 172.0
71.805809 244.0
72.050568 148.0
72.167183 144.0
72.407471 144.0
72.510818 164.0
72.564339 128.0
72.677002 204.0
72.839981 184.0
73.087379 144.0
73.220978 240.0
73.445953 148.0
73.816559 152.0
73.883263 168.0
74.004913 148.0
74.357903 156.0
74.502136 196.0
74.797913 152.0
74.825455 156.0
74.919456 184.0
75.901878 140.0
76.136147 156.0
76.188255 144.0
76.374664 184.0
76.423195 120.0
76.469948 148.0
76.52739 144.0
76.848091 168.0
76.951065 216.0
77.46347 284.0
77.500259 160.0
77.575615 208.0
77.786865 136.0
77.858109 140.0
78.146385 140.0
78.288963 152.0
78.576271 204.0
79.320786 200.0
79.349144 148.0
79.654381 220.0
79.83567 184.0
79.945961 332.0
80.241646 156.0
80.3433 212.0
80.355789 144.0
80.395042 164.0
80.47715 216.0
80.705856 140.0
80.968452 152.0
82.131775 140.0
82.153419 160.0
82.415207 144.0
82.7136 216.0
82.849266 96.0
82.941269 116.0
83.103233 160.0
83.2286 116.0
83.277504 160.0
83.332001 140.0
83.405678 156.0
83.439232 148.0
83.466499 204.0
83.510147 148.0
83.584732 176.0
83.683022 168.0
83.806877 236.0
84.160721 180.0
84.21003 152.0
84.282249 232.0
84.72953 192.0
84.797325 228.0
85.006393 200.0
85.189995 152.0
85.316795 224.0
85.449203 184.0
85.519135 156.0
85.589996 216.0
85.863663 200.0
85.966972 220.0
86.061111 164.0
86.142418 144.0
86.708549 248.0
86.7827 204.0
86.84761 204.0
86.873573 164.0
86.904037 248.0
87.068466 208.0
87.204094 212.0
87.382607 184.0
87.563171 180.0
87.593872 116.0
87.817436 188.0
87.932312 144.0
87.981651 180.0
88.519318 184.0
88.577377 224.0
88.619751 188.0
88.653191 156.0
88.744171 152.0
88.759171 172.0
88.901733 168.0
89.547554 136.0
89.851944 172.0
89.887787 220.0
90.216423 188.0
90.242004 204.0
90.358261 156.0
90.807198 232.0
90.835648 228.0
90.875488 204.0
91.054146 136.0
91.243942 156.0
92.067085 184.0
92.156868 156.0
92.453255 208.0
92.813377 144.0
92.920792 192.0
93.068573 160.0
93.124268 192.0
93.220322 188.0
93.761765 124.0
93.957764 244.0
94.011787 148.0
94.168167 148.0
94.717476 144.0
94.928726 208.0
94.97139 180.0
95.297523 152.0
95.651466 180.0
96.795532 148.0
96.869957 176.0
97.350479 168.0
98.006454 2136.0
98.202217 208.0
98.269707 176.0
98.480927 168.0
98.664696 156.0
98.750061 140.0
99.006676 496.0
99.117943 168.0
99.228935 140.0
99.32972 180.0
99.367767 172.0
100.005302 232.0
100.067947 160.0
100.177353 172.0
100.38018 148.0
100.559723 152.0
100.579681 152.0
100.755409 240.0
100.82135 144.0
100.913757 140.0
101.437805 216.0
101.835098 140.0
101.926773 220.0
102.102394 140.0
102.413025 176.0
102.495544 308.0
102.73082 176.0
102.799423 152.0
102.894287 176.0
103.237785 176.0
103.417839 200.0
103.454758 204.0
103.824104 160.0
104.713196 188.0
104.745781 180.0
104.778374 184.0
105.008713 188.0
105.069908 304.0
105.153572 160.0
105.180107 152.0
105.24543 204.0
105.470154 156.0
105.772881 172.0
105.832573 176.0
106.012505 156.0
106.112946 160.0
106.1642 152.0
106.299591 168.0
106.396057 148.0
106.636391 156.0
106.704224 148.0
106.770027 188.0
106.883873 116.0
107.136406 156.0
107.426132 184.0
107.899986 152.0
108.206184 152.0
108.639313 148.0
108.838554 144.0
108.929932 152.0
109.071236 144.0
109.160629 164.0
110.075417 228.0
111.155533 164.0
111.182816 164.0
111.277275 148.0
111.628868 180.0
112.052292 136.0
112.720085 140.0
112.967896 172.0
113.069016 224.0
113.227791 160.0
113.278625 248.0
113.365494 156.0
113.460876 140.0
113.592354 152.0
113.675095 140.0
113.987106 124.0
114.129662 156.0
114.176445 140.0
114.305099 184.0
114.781219 252.0
114.815338 200.0
114.879326 164.0
114.919861 140.0
115.050049 144.0
115.088043 356.0
115.154678 200.0
115.242264 204.0
115.349113 284.0
115.417526 172.0
115.729919 148.0
115.783455 164.0
115.892342 168.0
116.014168 352.0
116.072746 208.0
116.179985 152.0
116.220352 152.0
116.596542 228.0
116.712624 180.0
116.757774 184.0
116.850273 252.0
116.990158 200.0
117.071251 604.0
117.233543 208.0
117.257248 144.0
117.308975 176.0
117.522095 196.0
117.576431 144.0
118.017097 164.0
118.067314 200.0
118.203117 168.0
118.395782 212.0
118.589859 200.0
118.89006 152.0
119.222321 152.0
119.348396 188.0
119.400589 148.0
119.640678 116.0
119.851196 164.0
119.872986 168.0
119.894775 184.0
119.990685 156.0
120.080322 1416.0
120.228439 148.0
120.459091 200.0
120.533905 140.0
120.647804 180.0
120.859161 144.0
120.956245 152.0
121.078957 176.0
121.190575 160.0
121.440613 196.0
121.600647 188.0
122.024597 388.0
122.202484 168.0
122.392036 184.0
122.436073 152.0
122.556801 164.0
122.592484 188.0
122.711189 108.0
123.053482 144.0
123.345085 140.0
123.599419 164.0
123.904961 168.0
124.039154 252.0
124.469536 160.0
124.510513 140.0
124.817177 180.0
124.837189 176.0
125.342491 176.0
125.369232 152.0
125.449471 216.0
125.864441 164.0
126.452377 144.0
126.759178 152.0
126.777107 168.0
126.945236 200.0
127.236923 152.0
127.257126 200.0
127.441299 144.0
127.486244 180.0
127.550514 136.0
127.744804 140.0
127.770187 168.0
127.803299 148.0
128.012634 152.0
128.068939 252.0
128.377701 184.0
128.526566 192.0
128.551392 172.0
128.781815 120.0
128.936646 188.0
129.068497 904.0
129.306198 220.0
129.439758 140.0
129.788712 220.0
130.076828 152.0
130.258499 172.0
130.412262 160.0
131.090515 164.0
131.116257 140.0
131.399017 172.0
131.451492 196.0
131.838379 188.0
131.921982 200.0
132.082687 448.0
132.158279 160.0
132.380203 176.0
132.655106 204.0
132.771439 180.0
132.929733 140.0
133.003174 196.0
133.06546 264.0
133.089432 268.0
133.205231 144.0
133.349991 156.0
133.412048 168.0
133.947342 224.0
134.008118 160.0
134.043869 180.0
134.0979 144.0
134.273209 144.0
134.321655 164.0
134.370087 140.0
134.437012 144.0
134.552414 140.0
134.656326 184.0
134.741791 216.0
134.866577 168.0
134.903564 172.0
135.489044 160.0
136.212814 160.0
136.445206 188.0
136.566116 260.0
136.938507 204.0
136.985092 148.0
137.031693 172.0
137.302078 184.0
137.49794 172.0
137.656799 164.0
138.119537 156.0
138.44487 268.0
138.557297 156.0
139.005127 148.0
139.087265 140.0
139.176468 148.0
139.331482 140.0
139.448975 140.0
139.575912 344.0
139.599426 168.0
139.64418 148.0
139.720047 156.0
139.773926 156.0
139.824158 176.0
139.907654 156.0
139.931442 116.0
139.964157 148.0
139.988556 228.0
140.022919 156.0
140.053238 81616.0
140.118927 292.0
140.202393 96.0
140.237427 124.0
140.279037 196.0
140.33313 128.0
140.435486 108.0
140.464874 96.0
140.593552 120.0
140.656143 192.0
140.737549 144.0
140.865082 152.0
140.926041 104.0
141.023392 144.0
141.056625 4820.0
141.11322 228.0
141.269302 148.0
141.597366 140.0
141.722076 212.0
141.759033 204.0
141.984604 144.0
142.049164 3068.0
142.269333 156.0
142.80397 160.0
142.825378 168.0
143.052216 460.0
143.082352 352.0
143.177628 152.0
144.085663 164.0
144.265869 140.0
144.320648 152.0
144.380432 140.0
144.574203 176.0
144.705856 144.0
145.089172 176.0
145.149109 180.0
145.784561 268.0
145.927048 216.0
146.016022 176.0
146.059021 132.0
146.09726 1032.0
146.814911 176.0
147.103821 312.0
147.264465 236.0
147.336945 148.0
148.113449 156.0
148.399399 188.0
148.655823 140.0
148.855576 144.0
149.12413 108.0
149.227325 212.0
149.397568 168.0
149.571243 108.0
150.092896 156.0
150.396637 156.0
150.493347 104.0
150.909637 156.0
151.311172 132.0
151.337738 132.0
151.520981 132.0
151.945633 152.0
152.791931 112.0
153.067566 144.0
153.224045 164.0
153.369781 144.0
155.005478 156.0
155.082657 644.0
155.216171 168.0
155.360016 188.0
155.414597 192.0
155.739807 196.0
156.125031 152.0
156.167313 196.0
156.229187 160.0
156.324051 156.0
156.685074 140.0
156.874466 164.0
157.38092 148.0
157.55957 104.0
157.850677 160.0
157.885681 164.0
158.057266 204.0
158.095947 488.0
158.123352 180.0
158.468918 160.0
158.674438 240.0
158.717056 208.0
158.785843 152.0
158.843903 264.0
158.945312 164.0
159.098511 292.0
159.477707 192.0
159.804626 156.0
159.885941 176.0
160.062881 160.0
160.110245 164.0
160.238419 188.0
160.522476 180.0
160.613281 156.0
160.820175 172.0
160.933777 152.0
161.042358 140.0
161.080246 144.0
161.34053 176.0
161.378448 168.0
161.671326 168.0
161.742737 200.0
162.211349 160.0
162.277267 184.0
162.331696 128.0
162.805054 168.0
162.952377 176.0
163.036224 132.0
163.064972 296.0
163.249771 188.0
163.280289 180.0
163.333694 172.0
163.623795 196.0
163.918732 196.0
164.023743 184.0
164.107864 200.0
164.277649 164.0
165.014236 208.0
165.208603 144.0
165.250732 128.0
165.35701 152.0
166.282211 164.0
166.343826 144.0
166.387466 160.0
166.492737 156.0
166.512863 124.0
166.636581 160.0
167.001602 144.0
167.098679 136.0
167.289795 140.0
167.454163 168.0
167.990723 164.0
168.082596 184.0
168.186829 216.0
169.079376 1804.0
169.307816 104.0
169.546021 116.0
170.08551 452.0
170.147125 172.0
170.284042 140.0
170.356766 180.0
170.445099 160.0
170.648575 128.0
170.688736 148.0
170.801941 124.0
170.859634 192.0
170.894821 184.0
171.026825 136.0
171.095505 120980.0
171.241943 140.0
171.263077 104.0
171.327576 136.0
171.338562 284.0
171.393021 176.0
171.501602 116.0
171.689499 112.0
171.781387 152.0
171.918976 156.0
172.032394 96.0
172.098236 9168.0
172.18277 176.0
172.210495 132.0
172.268066 176.0
172.612244 104.0
172.725769 188.0
172.747208 156.0
172.768143 140.0
172.845108 152.0
173.090714 4124.0
173.176453 212.0
173.202118 188.0
173.224823 112.0
173.446365 160.0
173.560379 116.0
174.09462 804.0
174.157425 184.0
174.202087 156.0
174.391983 176.0
174.994324 168.0
175.08847 224.0
175.124817 120.0
175.178024 144.0
176.003494 252.0
176.066879 144.0
176.108673 472.0
176.138184 164.0
176.25708 196.0
176.747665 200.0
177.003006 204.0
177.04007 168.0
177.110779 240.0
177.1884 168.0
177.286438 160.0
177.307632 156.0
177.601929 248.0
177.745193 176.0
178.01329 196.0
178.491592 216.0
178.906647 376.0
179.095703 160.0
179.298187 216.0
179.658142 140.0
179.770203 204.0
180.230225 144.0
180.930222 164.0
181.474075 188.0
181.495758 192.0
181.547012 180.0
181.766449 152.0
182.034882 148.0
182.085907 168.0
182.147675 176.0
182.731033 144.0
182.936447 188.0
183.059402 152.0
183.094421 176.0
183.53096 204.0
184.148926 144.0
184.473175 244.0
184.502914 176.0
184.592133 140.0
184.721954 184.0
184.865341 252.0
185.363602 148.0
185.393402 176.0
185.666641 168.0
185.78656 196.0
185.854385 160.0
186.035904 368.0
186.334946 144.0
186.565948 152.0
186.99028 192.0
187.33609 140.0
187.720383 176.0
187.935867 144.0
188.051956 308.0
188.235626 132.0
188.32077 176.0
188.380875 140.0
188.520218 152.0
188.851013 156.0
189.062302 208.0
189.924698 152.0
190.05426 156.0
190.322617 148.0
190.352829 148.0
190.415985 220.0
190.594543 168.0
190.839172 148.0
190.952942 132.0
191.094955 144.0
191.199509 188.0
191.227036 156.0
191.350906 172.0
191.871613 152.0
191.896423 164.0
191.998444 176.0
192.072311 148.0
192.518524 104.0
193.099625 160.0
193.623459 188.0
193.833984 172.0
193.936523 140.0
194.103943 260.0
194.394119 188.0
194.560654 188.0
194.86615 176.0
195.130188 148.0
195.597534 148.0
196.091614 268.0
196.209641 180.0
196.42511 144.0
196.718323 136.0
196.746277 176.0
196.813629 132.0
196.836823 184.0
196.87027 144.0
196.927185 180.0
197.018356 528.0
197.075302 160856.0
197.145157 188.0
197.186249 152.0
197.250412 168.0
197.288208 172.0
197.358124 132.0
197.42981 148.0
197.490585 104.0
197.535461 196.0
197.577515 128.0
197.710861 156.0
197.773834 140.0
197.876236 180.0
197.953888 192.0
198.077835 17484.0
198.33345 132.0
198.519943 168.0
198.584442 176.0
198.971146 120.0
199.032761 132.0
199.071121 6448.0
199.176254 136.0
199.204758 160.0
199.237427 128.0
199.369446 104.0
199.497498 228.0
199.527466 120.0
199.585205 140.0
199.619064 132.0
199.646515 116.0
199.684402 136.0
199.749756 136.0
199.889755 100.0
200.075592 524.0
200.534729 120.0
200.650284 156.0
200.757584 140.0
200.941727 172.0
201.06871 288.0
201.129669 100.0
201.622238 148.0
201.772049 188.0
201.930389 152.0
202.402985 140.0
202.445465 168.0
202.748581 140.0
202.881805 168.0
202.921494 168.0
203.063004 224.0
203.704742 156.0
204.529358 164.0
205.497543 176.0
205.892181 160.0
206.077866 160.0
206.132141 140.0
206.975967 176.0
207.112335 188.0
207.800522 100.0
208.024673 244.0
208.140121 140.0
208.576797 140.0
208.602676 180.0
208.641739 156.0
209.733902 276.0
210.460892 148.0
210.501526 164.0
210.527313 168.0
211.124374 1068.0
211.559509 160.0
211.944702 144.0
212.06102 148.0
212.130432 320.0
212.460785 148.0
212.521698 164.0
212.695831 188.0
213.066254 164.0
213.118881 296.0
213.151779 172.0
213.236053 152.0
213.448273 164.0
213.663498 268.0
214.061737 248.0
214.091614 144.0
214.13797 216.0
214.162079 436.0
214.217102 96.0
214.521255 148.0
214.633377 168.0
215.056381 144.0
215.082642 128.0
216.076218 144.0
216.313248 164.0
217.025146 252.0
217.079788 1696.0
217.132553 140.0
217.271515 144.0
217.358002 108.0
217.98204 148.0
218.08197 380.0
218.199539 156.0
218.967545 180.0
219.067688 156.0
219.110336 168.0
219.138397 244.0
219.633652 196.0
220.720444 164.0
220.880142 172.0
222.109406 160.0
224.670624 156.0
224.792953 176.0
225.14238 260.0
225.237793 168.0
225.919342 180.0
226.070023 224.0
227.039551 148.0
227.347321 108.0
227.938797 236.0
228.094528 168.0
228.481308 140.0
228.529449 208.0
228.713013 172.0
228.815369 152.0
229.056274 140.0
229.530365 156.0
229.601807 220.0
229.84314 144.0
229.88237 168.0
230.06044 152.0
230.083221 176.0
230.335236 160.0
230.988144 208.0
231.122818 124.0
232.052963 176.0
232.120834 152.0
232.742874 148.0
232.949387 172.0
233.133972 960.0
233.584106 184.0
233.612076 152.0
234.135406 320.0
234.236099 144.0
235.926666 172.0
236.14682 228.0
236.490677 180.0
237.05217 816.0
237.104401 176.0
237.476074 164.0
237.617172 176.0
237.776733 208.0
238.061462 224.0
238.501572 164.0
238.873627 180.0
239.051376 156.0
239.076691 216.0
239.828171 220.0
239.911392 144.0
239.991562 164.0
240.073166 160.0
240.099991 120.0
240.167328 204.0
240.21051 248.0
240.407974 140.0
241.053375 296.0
241.133713 144.0
241.770798 212.0
241.937943 176.0
242.114441 160.0
242.41803 200.0
242.774521 144.0
243.056793 148.0
243.092346 300.0
245.024902 144.0
245.129272 1188.0
246.136108 404.0
246.910233 148.0
247.08847 120.0
247.116684 192.0
247.169876 164.0
247.451569 144.0
247.511063 188.0
248.142075 1068.0
249.121246 104.0
249.15007 1220.0
250.005234 100.0
250.066422 176.0
250.158752 10508.0
250.212189 176.0
250.258316 104.0
250.478882 176.0
250.721481 152.0
250.798828 104.0
250.999283 140.0
251.161331 1804.0
251.710495 108.0
251.907822 304.0
252.07843 184.0
252.164642 216.0
252.43248 148.0
252.455246 236.0
252.932343 168.0
253.177521 164.0
254.895462 164.0
255.089325 244.0
255.111588 152.0
255.156082 140.0
255.455017 168.0
255.522095 144.0
255.798691 144.0
256.101196 156.0
256.30188 160.0
257.109283 136.0
257.164612 112.0
257.354431 140.0
258.089325 152.0
258.434753 156.0
259.059052 160.0
259.130585 264.0
259.165955 152.0
259.417969 196.0
259.757874 176.0
260.147675 140.0
260.624664 184.0
261.145447 144.0
261.341675 172.0
261.568359 156.0
261.724701 148.0
262.153259 164.0
263.355072 180.0
263.915558 144.0
264.085663 328.0
264.19809 132.0
264.679138 156.0
265.167114 140.0
265.327148 236.0
265.482788 140.0
266.085449 136.0
266.153351 1404.0
266.222656 152.0
266.411041 140.0
266.749023 204.0
267.156006 228.0
267.184967 340.0
267.300079 136.0
267.347443 148.0
267.519958 144.0
267.765106 192.0
267.831421 184.0
267.894684 108.0
267.940063 204.0
267.971649 180.0
268.04361 300.0
268.093201 3164.0
268.148102 159444.0
268.264069 216.0
268.355133 156.0
268.377472 260.0
268.400421 224.0
268.450623 308.0
268.518066 256.0
268.556732 108.0
268.635956 156.0
268.684937 212.0
268.879608 140.0
268.907654 176.0
268.966003 136.0
269.096039 584.0
269.151184 16800.0
269.213623 256.0
269.250427 100.0
269.661255 100.0
269.823151 168.0
269.876556 152.0
270.045502 112.0
270.084778 212.0
270.145874 5728.0
270.202179 164.0
270.534515 132.0
270.576965 120.0
270.780762 176.0
270.840576 148.0
270.909546 156.0
270.991547 232.0
271.097778 124.0
271.147888 1328.0
271.210663 124.0
271.294495 144.0
271.378967 156.0
271.611115 168.0
271.645874 124.0
271.869965 104.0
271.919525 140.0
272.144897 220.0
272.361633 196.0
273.105164 136.0
273.367371 200.0
274.109436 140.0
274.165741 196.0
274.188812 180.0
274.87619 124.0
275.796112 240.0
276.134796 588.0
277.143982 156.0
277.177979 116.0
277.487701 188.0
277.889008 168.0
277.981903 212.0
278.156708 360.0
278.234161 228.0
278.3703 140.0
279.150787 408.0
279.354095 168.0
279.71347 144.0
279.736755 140.0
279.932556 228.0
281.333527 164.0
281.443695 212.0
281.689209 148.0
282.127136 124.0
282.719208 104.0
282.804291 156.0
282.944885 180.0
283.248718 240.0
284.248688 248.0
284.352722 272.0
285.199097 236.0
285.829468 180.0
286.474396 160.0
287.162018 168.0
287.725525 168.0
288.986145 152.0
289.100037 140.0
289.426178 168.0
290.002075 164.0
290.434265 180.0
290.852753 144.0
291.099762 136.0
291.544006 248.0
292.088165 164.0
292.116974 172.0
293.019592 224.0
293.680908 188.0
293.755951 132.0
293.846252 184.0
293.977722 208.0
294.070465 320.0
294.146027 424.0
294.175964 148.0
294.397614 164.0
294.537445 148.0
294.668671 100.0
294.807068 192.0
294.892975 276.0
294.931183 116.0
294.97934 172.0
295.049072 216.0
295.0896 104.0
295.178467 380.0
295.216522 212.0
295.255981 228.0
295.282654 148.0
295.295441 112.0
295.305054 200.0
295.350525 132.0
295.407928 200.0
295.482971 96.0
295.53479 192.0
295.583191 132.0
295.644745 204.0
295.694092 200.0
295.729706 100.0
295.764099 116.0
295.810303 128.0
295.866913 440.0
295.911774 288.0
295.937805 348.0
295.990295 300.0
296.062897 240.0
296.103638 608.0
296.144562 210504.0
296.257721 100.0
296.378143 364.0
296.401001 400.0
296.416138 212.0
296.462311 284.0
296.517731 280.0
296.560577 320.0
296.66568 384.0
296.709045 6268.0
296.744446 228.0
296.808105 120.0
296.936005 104.0
297.017548 300.0
297.086304 148.0
297.146484 72804.0
297.22757 248.0
297.258575 260.0
297.282135 212.0
297.322571 160.0
297.417267 200.0
297.460968 140.0
297.549286 240.0
297.613556 152.0
297.715363 248.0
297.754425 160.0
297.840973 232.0
297.922028 108.0
297.985657 100.0
298.140747 19140.0
298.423706 96.0
298.64917 188.0
298.688385 140.0
298.853882 240.0
298.900177 120.0
298.95224 300.0
299.025085 244.0
299.047546 436.0
299.143066 2660.0
299.21756 136.0
299.281128 216.0
299.346954 204.0
299.438263 300.0
299.489655 112.0
299.530975 116.0
299.687836 188.0
299.921143 100.0
299.975708 112.0
300.113342 192.0
300.148987 300.0
300.21048 100.0
300.344635 108.0
300.428741 120.0
300.814667 200.0
301.034454 100.0
301.06134 100.0
301.203094 132.0
301.301758 132.0
301.332703 152.0
301.439484 124.0
301.469604 128.0
302.095428 200.0
302.922333 116.0
303.374542 172.0
305.132751 192.0
305.183319 192.0
307.199768 168.0
308.385559 168.0
309.155426 148.0
310.051453 168.0
310.122986 148.0
311.17627 1656.0
312.175842 284.0
313.201233 124.0
313.725922 144.0
313.94455 156.0
316.917297 148.0
317.420624 192.0
317.517456 184.0
318.129761 144.0
319.334747 160.0
319.630035 152.0
320.151459 256.0
320.302887 152.0
321.172607 204.0
323.194611 188.0
326.336548 140.0
327.128021 152.0
330.130676 1136.0
331.134125 456.0
331.22287 184.0
332.119476 232.0
335.309845 108.0
335.787994 164.0
338.159119 172.0
339.171753 536.0
342.124207 168.0
345.089569 160.0
345.139801 212.0
346.146149 196.0
347.15567 5712.0
347.2117 252.0
348.154633 1748.0
349.154388 504.0
349.213165 144.0
349.237793 188.0
350.136169 152.0
351.597565 164.0
353.129333 216.0
364.179779 552.0
365.170288 3276.0
366.171295 1760.0
367.167908 392.0
370.155365 220.0
371.179443 152.0
373.125092 256.0
373.156097 124.0
373.445221 140.0
374.128571 144.0
374.165741 252.0
374.222137 148.0
375.149536 240.0
375.204163 816.0
375.729492 160.0
376.208466 284.0
377.154388 160.0
377.204254 120.0
377.413422 160.0
380.148102 220.0
380.881897 144.0
382.192993 2728.0
383.091339 164.0
383.198303 828.0
384.193146 420.0
385.178284 168.0
389.20813 144.0
390.192841 128.0
391.142029 544.0
391.231384 116.0
392.17392 544.0
392.235687 828.0
393.140533 544.0
393.231476 216.0
394.508881 168.0
395.713806 296.0
399.346893 128.0
400.112701 236.0
401.19751 156.0
402.70462 168.0
404.237885 212.0
407.310791 144.0
408.172333 1120.0
409.1698 292.0
410.17688 328.0
410.240509 184.0
412.193481 96.0
418.146271 144.0
418.175507 272.0
418.900085 188.0
419.454285 148.0
420.15976 148.0
420.236938 112.0
421.230316 132.0
421.5112 156.0
422.255219 164.0
422.724243 188.0
422.985077 96.0
423.4216 168.0
423.547028 96.0
424.422791 148.0
424.572144 196.0
424.669708 172.0
424.93042 160.0
425.074493 424.0
425.122894 144.0
425.262451 144.0
425.3638 264.0
425.541595 160.0
425.641998 116.0
425.802032 204.0
425.910675 188.0
425.961975 216.0
426.070251 240.0
426.121429 180.0
426.185364 118284.0
426.312531 180.0
426.370056 128.0
426.41449 104.0
426.626465 168.0
426.796722 108.0
426.860138 340.0
426.950989 152.0
427.097198 212.0
427.1875 33664.0
427.334869 260.0
427.399933 228.0
427.431915 104.0
427.645752 288.0
427.700134 148.0
427.855286 128.0
428.183319 8440.0
428.425476 128.0
428.810486 116.0
429.184479 1364.0
429.504517 160.0
429.535156 96.0
429.738403 160.0
429.842224 108.0
429.897461 100.0
430.024597 156.0
430.188904 276.0
430.481354 116.0
430.68277 140.0
430.859161 100.0
430.970337 232.0
431.161774 112.0
431.358521 144.0
434.211304 172.0
435.292358 96.0
436.165771 396.0
436.229309 484.0
437.174408 144.0
437.226349 328.0
438.215881 268.0
443.229675 160.0
444.205048 152.0
445.221191 148.0
449.459717 164.0
450.048889 108.0
450.224915 104.0
455.21228 152.0
455.764465 240.0
463.249878 144.0
463.270111 160.0
466.738739 180.0
471.227814 328.0
472.208527 636.0
481.806976 144.0
482.921631 176.0
488.866211 160.0
489.229828 780.0
490.227875 732.0
491.216736 452.0
492.242828 156.0
494.740906 156.0
497.236389 212.0
507.240082 3948.0
507.469452 168.0
507.645813 132.0
507.787811 156.0
508.092834 140.0
508.244659 1984.0
509.245636 592.0
510.246368 120.0
511.236267 120.0
511.482147 104.0
519.6698 168.0
521.166443 144.0
531.189026 160.0
532.263 176.0
533.157532 104.0
533.221436 3404.0
533.31958 208.0
534.220642 804.0
535.222107 436.0
536.208618 136.0
537.243958 116.0
540.203918 172.0
548.91687 140.0
550.20459 188.0
550.820679 104.0
551.106018 168.0
551.231689 6328.0
552.008118 168.0
552.233093 2404.0
553.232178 516.0
554.234314 240.0
555.23468 152.0
559.762634 96.0
562.312195 144.0
562.395447 172.0
564.171509 164.0
564.994385 152.0
565.228149 272.0
565.732605 140.0
565.912537 172.0
566.222046 108.0
566.590881 140.0
577.643616 208.0
588.393799 184.0
600.123718 104.0
606.309082 1096.0
607.311096 768.0
607.441406 216.0
608.30481 188.0
609.308105 216.0
614.663696 156.0
615.310303 160.0
617.791138 140.0
622.062744 160.0
622.673462 156.0
622.966492 152.0
623.48822 188.0
628.208374 156.0
631.39502 164.0
640.449158 152.0
641.467041 140.0
644.555725 148.0
645.212769 172.0
646.510864 120.0
651.949036 164.0
657.403015 188.0
664.28772 128.0
669.58374 144.0
675.198792 172.0
675.29187 212.0
676.202454 160.0
677.232727 152.0
677.325745 2592.0
678.243103 164.0
678.32843 2008.0
679.228271 140.0
679.32373 264.0
680.338806 172.0
680.442627 204.0
684.300293 140.0
686.08728 148.0
687.114624 152.0
690.155701 120.0
694.314209 148.0
702.876099 176.0
703.306458 2772.0
703.700256 144.0
704.307556 2060.0
705.304932 1020.0
706.310547 296.0
706.717407 140.0
708.337402 172.0
708.538696 144.0
712.390076 160.0
714.146606 96.0
714.40863 112.0
716.169739 192.0
716.475159 120.0
716.869629 112.0
717.193054 160.0
717.781494 140.0
717.86145 116.0
718.023499 116.0
718.141357 140.0
718.20813 192.0
718.327637 160.0
718.385681 108.0
718.582764 156.0
718.639709 120.0
718.805664 144.0
718.949585 124.0
718.99469 120.0
719.051147 144.0
719.098633 120.0
719.226135 132.0
719.300598 156.0
719.690979 240.0
719.844971 196.0
720.057068 228.0
720.11145 152.0
720.339172 280.0
720.401184 152.0
720.473328 124.0
720.535217 176.0
720.613403 160.0
720.6875 116.0
720.826782 152.0
720.876831 96.0
721.023438 144.0
721.086121 196.0
721.164978 264.0
721.32074 111652.0
721.510864 296.0
721.611328 292.0
721.763184 164.0
721.783142 192.0
721.831909 256.0
721.895142 316.0
721.949951 372.0
722.018677 128.0
722.080383 132.0
722.12146 224.0
722.195435 412.0
722.32135 55968.0
722.508423 260.0
722.600098 172.0
722.701172 132.0
722.794922 236.0
722.856567 148.0
722.996826 172.0
723.122314 204.0
723.186584 204.0
723.319946 19568.0
723.464355 216.0
723.528015 136.0
723.603943 216.0
723.729553 136.0
723.96283 216.0
724.04718 144.0
724.195312 168.0
724.320801 5644.0
724.497559 116.0
724.573669 96.0
724.647339 120.0
724.804626 152.0
725.044983 116.0
725.317139 1428.0
725.501038 272.0
725.645813 132.0
725.856995 252.0
725.904236 128.0
725.994751 208.0
726.037537 188.0
726.19635 140.0
726.309326 328.0
726.678101 104.0
726.799805 140.0
726.85791 144.0
726.898682 120.0
727.118347 112.0
727.260864 96.0
727.31488 204.0
727.410767 288.0
727.46582 200.0
727.575439 136.0
727.663147 96.0
727.712219 108.0
727.769165 176.0
728.018311 164.0
728.178772 100.0
728.268921 120.0
728.348999 200.0
728.515686 144.0
729.110291 160.0
733.649963 176.0
764.450928 108.0
767.886047 100.0
845.001892 140.0
870.056824 148.0
930.943604 200.0
976.553772 152.0
1004.944336 140.0
1066.023804 156.0
1081.598022 160.0
1131.63501 172.0
1210.390137 144.0
1210.549316 140.0
1215.255859 160.0
1235.480957 180.0
1243.770752 196.0
1247.599121 152.0
1249.666748 168.0
1309.235352 168.0
1332.047363 212.0
1343.286499 232.0
1351.373779 172.0
1379.681519 192.0
1380.428345 140.0
1399.118408 188.0
1408.155762 212.0
1432.096436 140.0
1441.670288 144.0
1443.741577 176.0
1448.623413 140.0
1464.86438 200.0
1465.245361 152.0
1467.219116 160.0
1489.97937 200.0
1502.790527 148.0
1522.172241 180.0
1529.542358 148.0
1533.319824 144.0
1554.921021 176.0
1556.286865 168.0
1557.150635 176.0
1558.462524 180.0
1574.184692 160.0
1579.10022 140.0
1584.720581 168.0
1606.870972 156.0
1608.299316 168.0
1618.324097 196.0
1621.255737 176.0
1627.761475 156.0
1634.811279 148.0
1635.036621 168.0
1637.008911 164.0
1644.829346 144.0
1648.91626 168.0
1652.870728 196.0
1659.747559 144.0
1661.775269 160.0
1666.20813 164.0
1676.615112 180.0
1677.87854 204.0
1680.031494 184.0
1680.406738 148.0
1690.015137 204.0
1698.731934 192.0
1706.015869 140.0
1708.359619 148.0
1712.541016 176.0
1716.059814 172.0
1721.026733 180.0
1722.612427 240.0
1724.430176 236.0
1731.379761 148.0
1741.275146 156.0
1742.652588 196.0
1762.328613 144.0
1766.261475 176.0
1768.102173 180.0
1774.669434 168.0
1785.056152 180.0
1787.369385 168.0
1798.932495 224.0
1801.22937 216.0
1804.525146 200.0
1812.921875 140.0
1813.150757 148.0
1815.490479 172.0
1816.525269 152.0
1820.386963 208.0
1821.796875 164.0
1825.358032 160.0
1831.502563 140.0
1833.692261 140.0
1835.849121 164.0
1849.749878 172.0
1854.829468 176.0
1855.189453 156.0
1866.445068 212.0
1870.376587 180.0
1881.220581 152.0
1889.940796 184.0
1890.641724 228.0
1892.043945 180.0
1900.936646 148.0
1901.439941 144.0
1903.442993 180.0
1903.697144 144.0
1904.435303 148.0
1905.625488 156.0
1907.798096 168.0
1909.980713 208.0
1912.477905 140.0
1913.200439 160.0
1915.656738 200.0
1922.317261 168.0
1926.744019 160.0
1929.111328 124.0
1929.610474 156.0
1933.406738 164.0
1934.299561 188.0
1937.635986 156.0
1943.720825 192.0
1945.089966 180.0
1945.958984 152.0
1947.847168 188.0
1949.331909 208.0
1951.546875 164.0
1952.276733 156.0
1958.411011 160.0
1960.064209 144.0
1963.302368 152.0
1967.052124 152.0
1969.321289 180.0
1977.251831 392.0
1979.500366 140.0
1986.457764 180.0
1993.765015 216.0
1995.24939 188.0
2000.230957 228.0
