>compound Prasugrel (Effient)
>formula C20H20FNO3S
>ionization [M+H]+
>parentmass 374.1220691720905
#inchi InChI=1S/C20H20FNO3S/c1-12(23)25-18-10-14-11-22(9-8-17(14)26-18)19(20(24)13-6-7-13)15-4-2-3-5-16(15)21/h2-5,10,13,19H,6-9,11H2,1H3
#inchikey DTGLZDAWLRGWQN
#Ion_Source LC-ESI
#Instrument qTof
#Compound_Source Commercial
#PI Dorrestein
#Data_Collector Garg_Neha
#Scan -1
#Precursor_MZ 374.122
#ExactMass 373.115
#Charge 1
#CAS_Number 150322-43-3, 389574-19-0 (HCl), 389574-20-3 (Maleic acid)
#Pubmed_ID N/A
#Smiles C(C(C1C(=CC=CC=1)F)N2CCC3=C(C2)C=C(S3)OC(=O)C)(C4CC4)=O
#INCHI_AUX N/A
#Library_Class 1
#SpectrumID CCMSLIB00000078073
#IonMode Positive
#UpdateWorkflowName UPDATE-SINGLE-ANNOTATED-GOLD
#LibraryQualityString Gold
#TaskID 77f51c88eb8b467eb4a01dd2d0cb90d2
##Scan# 1206
#SpectrumFile Plate1_61_88_GG4_01_16491.mzXML
#LibraryName FDALibrary_2_04302014.mgf
#MQScore -1
#Organism FDALibrary_2_04302014
#TIC_Query 0
#RT_Query -1
#MZErrorPPM -1
#SharedPeaks 0
#MassDiff 0
#LibMZ -1
#SpecMZ 374.122
#SpecCharge 0
#internalFilename spec-00000.mgf

>collision 10
44.894619 124.0
44.91848 220.0
44.928802 172.0
44.942543 276.0
44.959675 124.0
45.022728 176.0
45.037331 212.0
45.05336 176.0
45.077412 152.0
45.104362 184.0
45.174541 136.0
45.19241 144.0
45.226547 196.0
45.258972 280.0
45.275402 168.0
45.287457 144.0
45.300568 208.0
45.326309 188.0
45.337349 152.0
45.373222 208.0
45.398834 196.0
45.415184 164.0
45.425869 172.0
45.477856 208.0
45.49128 188.0
45.510983 180.0
45.53022 156.0
45.567829 156.0
45.645874 192.0
45.658527 188.0
45.672691 208.0
45.729351 144.0
45.756073 212.0
45.776321 252.0
45.801689 140.0
45.822361 180.0
45.844772 168.0
45.858505 228.0
45.888569 292.0
45.923225 212.0
45.984966 168.0
45.995888 248.0
46.016548 128.0
46.04525 144.0
46.06163 164.0
46.078465 148.0
46.115509 204.0
46.133877 184.0
46.146824 188.0
46.157375 232.0
46.185623 240.0
46.219086 204.0
46.237797 128.0
46.270626 152.0
46.302105 220.0
46.336552 164.0
46.339825 164.0
46.392384 192.0
46.404579 128.0
46.4394 160.0
46.463573 108.0
46.47699 120.0
46.488792 200.0
46.513851 148.0
46.533546 172.0
46.549091 276.0
46.589355 128.0
46.60825 140.0
46.650383 256.0
46.662621 152.0
46.672836 136.0
46.711102 148.0
46.72327 236.0
46.753231 232.0
46.806046 424.0
46.817596 148.0
46.839539 168.0
46.854523 196.0
46.91832 276.0
46.947765 196.0
46.966305 148.0
46.983852 116.0
47.033085 184.0
47.089149 148.0
47.098709 148.0
47.117348 112.0
47.136967 244.0
47.17065 136.0
47.200527 144.0
47.219406 172.0
47.274525 136.0
47.365448 340.0
47.399014 136.0
47.42432 236.0
47.466637 308.0
47.490448 144.0
47.517879 208.0
47.536198 136.0
47.563011 128.0
47.576633 312.0
47.595535 172.0
47.627445 160.0
47.693672 140.0
47.713116 180.0
47.730244 140.0
47.75222 164.0
47.770519 188.0
47.784161 188.0
47.857109 144.0
47.918919 160.0
47.93795 324.0
47.970085 300.0
47.990841 144.0
48.004551 208.0
48.061188 144.0
48.089214 132.0
48.10582 132.0
48.125984 140.0
48.164127 232.0
48.209171 168.0
48.238949 204.0
48.270504 136.0
48.318535 256.0
48.330475 212.0
48.418774 132.0
48.433159 140.0
48.492584 192.0
48.548393 124.0
48.558979 164.0
48.607689 176.0
48.620872 192.0
48.64352 196.0
48.667377 160.0
48.696922 160.0
48.715271 132.0
48.741692 112.0
48.759064 152.0
48.834995 140.0
48.861965 144.0
48.880051 212.0
48.942207 196.0
48.955223 196.0
48.96809 192.0
48.993843 252.0
49.012337 228.0
49.061825 308.0
49.102558 184.0
49.124668 184.0
49.148476 192.0
49.170361 140.0
49.182777 136.0
49.201115 208.0
49.245316 312.0
49.287228 176.0
49.369617 128.0
49.411293 164.0
49.433735 156.0
49.453651 152.0
49.46492 120.0
49.495075 220.0
49.542057 148.0
49.555962 136.0
49.568489 268.0
49.5783 144.0
49.601192 120.0
49.613239 160.0
49.623882 248.0
49.640869 228.0
49.667107 288.0
49.684452 256.0
49.701706 144.0
49.720837 160.0
49.73679 196.0
49.747288 192.0
49.757847 172.0
49.773911 336.0
49.788738 172.0
49.818237 232.0
49.828773 160.0
49.838661 148.0
49.872444 208.0
49.888504 156.0
49.91592 140.0
49.947895 188.0
50.012875 456.0
50.035748 284.0
50.070591 188.0
50.085419 220.0
50.093472 160.0
50.143284 144.0
50.206612 100.0
50.283371 168.0
50.309731 216.0
50.334465 108.0
50.346443 196.0
50.364952 188.0
50.417053 196.0
50.439911 132.0
50.487766 200.0
50.503704 168.0
50.525288 160.0
50.556889 296.0
50.597401 184.0
50.616608 188.0
50.653805 140.0
50.713512 180.0
50.73307 132.0
50.749741 144.0
50.782505 176.0
50.831757 200.0
50.853539 120.0
50.873833 224.0
50.883076 148.0
50.895023 220.0
50.933628 168.0
50.959808 144.0
51.032299 200.0
51.096302 172.0
51.118191 104.0
51.146709 176.0
51.237247 184.0
51.251495 172.0
51.283787 152.0
51.295914 316.0
51.324192 112.0
51.362701 192.0
51.407597 136.0
51.443275 292.0
51.528301 168.0
51.550385 144.0
51.582645 148.0
51.60548 296.0
51.634155 156.0
51.684624 280.0
51.709305 164.0
51.803116 300.0
51.866035 188.0
51.900764 228.0
51.917652 212.0
51.935688 356.0
51.978584 124.0
52.0023 212.0
52.023102 160.0
52.046638 140.0
52.077377 152.0
52.090393 160.0
52.120693 192.0
52.151001 196.0
52.165459 176.0
52.213276 152.0
52.235077 160.0
52.252708 172.0
52.272205 184.0
52.308968 344.0
52.324303 144.0
52.348782 172.0
52.364624 152.0
52.426464 172.0
52.453381 184.0
52.485619 292.0
52.511635 324.0
52.533272 184.0
52.549232 388.0
52.637913 104.0
52.652168 280.0
52.67189 164.0
52.686977 264.0
52.723389 268.0
52.768681 184.0
52.813511 176.0
52.859806 152.0
52.884697 172.0
52.931114 108.0
52.956081 160.0
53.0336 164.0
53.050053 308.0
53.063957 132.0
53.097912 124.0
53.112122 172.0
53.151039 176.0
53.181065 156.0
53.219296 144.0
53.268921 280.0
53.280403 196.0
53.313522 180.0
53.339878 180.0
53.384949 148.0
53.415997 416.0
53.47224 156.0
53.499897 172.0
53.50988 136.0
53.538509 240.0
53.597775 120.0
53.659538 216.0
53.678612 152.0
53.705364 148.0
53.74157 196.0
53.788567 356.0
53.849865 232.0
53.870701 144.0
53.912201 156.0
53.962921 132.0
53.979935 160.0
54.078648 196.0
54.116016 156.0
54.178993 172.0
54.209766 192.0
54.230282 168.0
54.257877 148.0
54.278336 144.0
54.330536 124.0
54.37392 120.0
54.426697 136.0
54.478909 148.0
54.49802 172.0
54.527962 132.0
54.585567 184.0
54.617924 180.0
54.64278 152.0
54.662842 196.0
54.681194 152.0
54.706219 164.0
54.729774 140.0
54.754307 176.0
54.779942 120.0
54.802864 116.0
54.825436 132.0
54.866848 120.0
54.886948 128.0
54.926647 384.0
54.960594 148.0
54.999565 144.0
55.028996 192.0
55.06049 168.0
55.079777 160.0
55.126255 236.0
55.135143 116.0
55.156139 196.0
55.176838 144.0
55.199429 144.0
55.264812 264.0
55.282516 252.0
55.300663 272.0
55.360172 200.0
55.375355 132.0
55.401237 292.0
55.426487 120.0
55.468216 204.0
55.484787 156.0
55.534729 160.0
55.551521 180.0
55.582569 160.0
55.635231 276.0
55.663712 188.0
55.691055 156.0
55.702419 252.0
55.720768 168.0
55.781231 216.0
55.792637 156.0
55.809944 156.0
55.858601 112.0
55.932449 268.0
55.949265 144.0
55.965706 176.0
55.997189 180.0
56.02935 228.0
56.080608 188.0
56.100044 132.0
56.128082 460.0
56.14875 156.0
56.192993 284.0
56.223419 128.0
56.240452 152.0
56.259743 156.0
56.299889 148.0
56.34539 160.0
56.365845 300.0
56.393772 232.0
56.406296 152.0
56.439762 156.0
56.507992 176.0
56.526245 140.0
56.591934 144.0
56.622379 184.0
56.657711 212.0
56.668198 160.0
56.702198 116.0
56.743137 272.0
56.794281 232.0
56.839676 320.0
56.864033 176.0
56.923195 464.0
56.948601 144.0
56.978107 136.0
56.988285 196.0
57.005596 164.0
57.017124 172.0
57.029026 324.0
57.071957 156.0
57.108051 152.0
57.12159 188.0
57.168232 184.0
57.190853 132.0
57.229099 248.0
57.266644 164.0
57.277924 168.0
57.304264 212.0
57.315445 200.0
57.341309 116.0
57.382511 128.0
57.407761 148.0
57.457424 268.0
57.471756 172.0
57.537025 156.0
57.566216 164.0
57.608265 140.0
57.639935 240.0
57.678432 132.0
57.689953 192.0
57.72747 184.0
57.764565 120.0
57.78904 180.0
57.819271 240.0
57.8685 132.0
57.879578 124.0
57.898926 188.0
57.930347 204.0
57.951576 116.0
57.972267 200.0
58.027729 144.0
58.054111 132.0
58.067154 176.0
58.081055 196.0
58.131294 188.0
58.149086 192.0
58.170334 144.0
58.183727 112.0
58.202831 136.0
58.235451 136.0
58.243782 376.0
58.265629 112.0
58.313583 172.0
58.457771 140.0
58.504639 108.0
58.524574 276.0
58.541805 152.0
58.559139 156.0
58.575119 224.0
58.616573 164.0
58.631863 140.0
58.65712 144.0
58.667789 324.0
58.680927 180.0
58.710705 140.0
58.761597 140.0
58.782742 200.0
58.795921 148.0
58.834824 140.0
58.857033 120.0
58.873779 112.0
58.923485 164.0
58.991432 160.0
59.007759 112.0
59.032715 168.0
59.060875 224.0
59.075699 116.0
59.10738 204.0
59.135658 168.0
59.146473 260.0
59.175438 276.0
59.190914 116.0
59.21104 208.0
59.234749 192.0
59.251728 144.0
59.327354 168.0
59.369629 344.0
59.388802 152.0
59.407974 272.0
59.423771 176.0
59.560543 224.0
59.576248 272.0
59.588978 116.0
59.639256 296.0
59.664444 168.0
59.699017 116.0
59.726704 132.0
59.733192 172.0
59.764736 136.0
59.801353 152.0
59.817799 152.0
59.831581 220.0
59.851643 204.0
59.901932 188.0
59.924194 156.0
59.977486 132.0
59.999901 156.0
60.020767 104.0
60.040836 320.0
60.054043 176.0
60.071011 152.0
60.091068 164.0
60.111908 164.0
60.136635 204.0
60.155888 264.0
60.172443 160.0
60.226147 152.0
60.24324 188.0
60.321285 176.0
60.3521 176.0
60.388634 160.0
60.417057 160.0
60.429806 184.0
60.492889 156.0
60.509655 164.0
60.548115 208.0
60.580803 128.0
60.607719 168.0
60.620872 152.0
60.655209 112.0
60.687519 140.0
60.763683 224.0
60.788872 124.0
60.865379 144.0
60.881329 152.0
60.905369 148.0
60.91935 160.0
60.9533 324.0
60.992386 164.0
61.006374 208.0
61.036373 304.0
61.061863 152.0
61.093464 156.0
61.171852 156.0
61.193436 136.0
61.212807 296.0
61.245117 152.0
61.263859 136.0
61.278736 188.0
61.300549 164.0
61.315937 96.0
61.386288 160.0
61.418823 144.0
61.433861 144.0
61.446426 108.0
61.45966 328.0
61.482441 164.0
61.504864 268.0
61.520294 168.0
61.542065 164.0
61.558727 180.0
61.578918 188.0
61.621986 188.0
61.639175 156.0
61.71806 172.0
61.764591 184.0
61.782272 156.0
61.867535 148.0
61.884296 240.0
61.902744 184.0
61.915874 164.0
61.93539 216.0
61.975014 212.0
61.988136 172.0
62.008511 216.0
62.041428 344.0
62.059113 288.0
62.076092 148.0
62.119839 148.0
62.13903 172.0
62.163067 176.0
62.179359 160.0
62.291912 124.0
62.313969 184.0
62.339203 240.0
62.358517 232.0
62.378395 148.0
62.404236 144.0
62.435555 152.0
62.45541 160.0
62.46701 148.0
62.487465 172.0
62.503769 396.0
62.523335 156.0
62.568478 160.0
62.632298 184.0
62.662437 180.0
62.703331 144.0
62.733147 196.0
62.757408 176.0
62.791832 204.0
62.810417 172.0
62.832085 220.0
62.853889 224.0
62.867046 132.0
62.940643 296.0
62.995922 164.0
63.060822 164.0
63.123055 160.0
63.162346 148.0
63.176361 252.0
63.195988 140.0
63.225143 208.0
63.32571 216.0
63.360088 352.0
63.381157 168.0
63.4398 292.0
63.452484 172.0
63.475948 120.0
63.489254 212.0
63.506401 140.0
63.530346 124.0
63.553303 184.0
63.586506 172.0
63.622402 272.0
63.64677 108.0
63.690525 148.0
63.744541 168.0
63.878052 288.0
63.901962 208.0
63.916206 172.0
63.943241 232.0
63.983063 184.0
64.003014 156.0
64.014977 208.0
64.030899 152.0
64.044029 372.0
64.07473 156.0
64.093033 252.0
64.107124 228.0
64.132874 156.0
64.18174 224.0
64.19767 200.0
64.268433 144.0
64.288795 204.0
64.3395 144.0
64.362709 256.0
64.39135 148.0
64.407944 144.0
64.469307 156.0
64.493607 248.0
64.514389 172.0
64.565559 216.0
64.590385 188.0
64.613823 184.0
64.633614 184.0
64.686104 224.0
64.745544 168.0
64.764023 148.0
64.850548 164.0
64.900871 168.0
64.939079 148.0
64.980438 168.0
65.033691 200.0
65.075226 216.0
65.134384 148.0
65.149017 164.0
65.18132 224.0
65.195702 152.0
65.219872 176.0
65.240578 164.0
65.291786 132.0
65.308159 560.0
65.328751 180.0
65.345062 132.0
65.356422 324.0
65.36982 172.0
65.418968 288.0
65.434189 164.0
65.460106 476.0
65.505539 116.0
65.546593 160.0
65.583084 208.0
65.622185 100.0
65.657661 180.0
65.669556 196.0
65.689186 172.0
65.71843 192.0
65.739944 232.0
65.751236 164.0
65.790802 260.0
65.821762 216.0
65.838013 156.0
65.849144 256.0
65.855476 164.0
65.861214 192.0
65.90403 144.0
65.953682 188.0
65.969955 160.0
65.991585 224.0
66.005196 180.0
66.020294 164.0
66.037216 140.0
66.084129 120.0
66.137924 132.0
66.155914 260.0
66.211906 192.0
66.230339 184.0
66.254852 196.0
66.311638 164.0
66.350304 164.0
66.366959 104.0
66.387398 252.0
66.40004 532.0
66.428169 256.0
66.445435 224.0
66.468147 140.0
66.487457 152.0
66.540756 224.0
66.563545 188.0
66.596016 168.0
66.61898 232.0
66.695526 152.0
66.713402 164.0
66.764145 212.0
66.814728 184.0
66.833191 172.0
66.856094 188.0
66.867088 108.0
66.919228 220.0
66.946083 148.0
66.997673 356.0
67.011238 204.0
67.024498 144.0
67.040634 308.0
67.058495 156.0
67.073318 128.0
67.097618 96.0
67.121315 120.0
67.161659 176.0
67.205261 296.0
67.231377 208.0
67.267281 168.0
67.278709 168.0
67.322395 180.0
67.334869 292.0
67.367714 116.0
67.393036 164.0
67.420273 108.0
67.457512 168.0
67.495132 148.0
67.52533 108.0
67.553986 172.0
67.585655 100.0
67.598595 148.0
67.621986 144.0
67.712036 164.0
67.724686 144.0
67.762581 192.0
67.784843 208.0
67.828369 204.0
67.862068 180.0
67.896439 156.0
67.909248 108.0
67.950089 180.0
67.977623 152.0
68.016495 152.0
68.080154 428.0
68.152695 188.0
68.203102 152.0
68.222351 148.0
68.238472 148.0
68.265099 236.0
68.2799 144.0
68.300461 112.0
68.315758 156.0
68.330673 124.0
68.343735 264.0
68.361542 180.0
68.476151 168.0
68.495903 224.0
68.514725 220.0
68.583847 160.0
68.627365 148.0
68.638908 184.0
68.778938 128.0
68.797592 104.0
68.828674 236.0
68.848488 144.0
68.905525 212.0
68.924484 172.0
68.969002 168.0
69.00264 140.0
69.030083 208.0
69.065956 188.0
69.085396 196.0
69.112511 208.0
69.133194 344.0
69.159805 156.0
69.19223 156.0
69.208992 152.0
69.254234 124.0
69.265297 268.0
69.298859 124.0
69.326935 220.0
69.392166 180.0
69.444313 204.0
69.477745 132.0
69.492424 180.0
69.544289 300.0
69.560463 144.0
69.648476 148.0
69.66391 124.0
69.69001 144.0
69.716087 196.0
69.730782 192.0
69.749611 148.0
69.781471 136.0
69.832977 168.0
69.847946 160.0
69.861916 240.0
69.88343 280.0
69.9636 152.0
69.981728 124.0
69.995346 212.0
70.07769 196.0
70.113747 132.0
70.168449 336.0
70.208244 212.0
70.281113 152.0
70.318283 116.0
70.342865 144.0
70.35688 212.0
70.373833 188.0
70.429695 176.0
70.468117 228.0
70.483154 160.0
70.569 168.0
70.613297 156.0
70.648254 216.0
70.687164 188.0
70.698151 176.0
70.733986 176.0
70.756729 164.0
70.859627 156.0
70.915619 136.0
70.93763 316.0
70.953484 156.0
70.979515 160.0
71.040436 156.0
71.055794 156.0
71.082565 160.0
71.153214 176.0
71.180344 136.0
71.209229 148.0
71.228706 140.0
71.257263 148.0
71.285255 152.0
71.341881 200.0
71.366348 160.0
71.378944 380.0
71.432106 156.0
71.510216 144.0
71.522491 304.0
71.575165 148.0
71.623322 148.0
71.682976 144.0
71.733658 228.0
71.764107 160.0
71.797241 128.0
71.838371 96.0
71.856415 148.0
71.873489 132.0
71.925842 152.0
71.942291 116.0
71.958305 228.0
71.973396 200.0
71.985878 172.0
71.991478 96.0
71.996124 256.0
72.042587 152.0
72.084663 184.0
72.098503 148.0
72.113335 180.0
72.1744 160.0
72.189148 152.0
72.209709 180.0
72.249977 104.0
72.27784 188.0
72.310402 232.0
72.340759 196.0
72.389343 160.0
72.402916 176.0
72.476753 172.0
72.512772 172.0
72.531578 124.0
72.581573 144.0
72.593071 208.0
72.629768 168.0
72.663109 196.0
72.676071 156.0
72.694237 256.0
72.738365 160.0
72.814774 140.0
72.854973 180.0
72.900131 180.0
72.941887 148.0
72.981049 104.0
73.043579 204.0
73.086769 168.0
73.111702 160.0
73.128639 240.0
73.151443 272.0
73.174431 128.0
73.242119 144.0
73.27359 172.0
73.314041 136.0
73.344681 192.0
73.437714 268.0
73.453041 236.0
73.526855 188.0
73.594658 216.0
73.643105 192.0
73.668159 240.0
73.680115 264.0
73.713997 140.0
73.730484 168.0
73.761772 196.0
73.799759 176.0
73.832237 416.0
73.892815 196.0
73.912506 140.0
73.95488 108.0
73.977371 312.0
74.008507 152.0
74.027962 144.0
74.119316 168.0
74.139267 132.0
74.160004 232.0
74.207214 132.0
74.243843 144.0
74.305618 192.0
74.342819 196.0
74.356171 156.0
74.407578 372.0
74.444061 160.0
74.49044 144.0
74.515289 264.0
74.535881 284.0
74.569893 192.0
74.599266 208.0
74.652504 204.0
74.677803 152.0
74.709785 176.0
74.725967 156.0
74.782883 160.0
74.806381 176.0
74.820625 172.0
74.860229 192.0
74.953255 144.0
74.986557 148.0
75.050987 140.0
75.071106 104.0
75.085236 196.0
75.117714 196.0
75.121613 228.0
75.186058 220.0
75.224785 184.0
75.251656 192.0
75.265709 172.0
75.291878 164.0
75.348633 212.0
75.375061 216.0
75.426216 156.0
75.479736 140.0
75.498657 136.0
75.535835 128.0
75.557533 176.0
75.621597 352.0
75.639374 344.0
75.674133 208.0
75.690605 112.0
75.724411 156.0
75.759621 192.0
75.785301 204.0
75.796867 232.0
75.810379 140.0
75.824242 140.0
75.852356 156.0
75.865845 304.0
75.925797 132.0
75.948257 204.0
76.049721 220.0
76.072281 156.0
76.084435 236.0
76.108093 160.0
76.160843 160.0
76.206474 184.0
76.212784 156.0
76.231987 160.0
76.255608 204.0
76.273087 356.0
76.304153 112.0
76.323013 132.0
76.339264 128.0
76.36116 364.0
76.385704 324.0
76.40654 264.0
76.429848 148.0
76.497177 96.0
76.55162 256.0
76.563011 276.0
76.584358 216.0
76.605743 132.0
76.683113 200.0
76.710442 192.0
76.73687 176.0
76.763031 188.0
76.78437 180.0
76.81884 148.0
76.841011 180.0
76.870499 132.0
76.913071 204.0
76.931297 100.0
76.963211 172.0
76.979416 300.0
77.012596 196.0
77.053978 204.0
77.087723 144.0
77.106949 208.0
77.168365 124.0
77.246834 144.0
77.282448 168.0
77.304535 144.0
77.328796 232.0
77.371338 164.0
77.391922 112.0
77.471581 292.0
77.506729 152.0
77.528381 136.0
77.562035 152.0
77.660004 152.0
77.69722 224.0
77.739174 104.0
77.773926 140.0
77.799774 160.0
77.830452 228.0
77.853821 184.0
77.87011 172.0
77.896835 348.0
77.923935 268.0
77.94944 152.0
77.975189 156.0
78.014938 328.0
78.027245 144.0
78.051331 308.0
78.074722 160.0
78.109901 184.0
78.15564 156.0
78.214256 164.0
78.226044 264.0
78.298691 272.0
78.324036 148.0
78.337524 116.0
78.369331 144.0
78.42485 184.0
78.506142 152.0
78.527351 144.0
78.569695 184.0
78.602654 200.0
78.66404 156.0
78.698532 268.0
78.734581 116.0
78.782021 208.0
78.823082 220.0
78.83493 408.0
78.865189 288.0
78.931984 280.0
78.963608 172.0
78.9813 272.0
78.999893 172.0
79.026764 196.0
79.091385 148.0
79.105164 164.0
79.219666 152.0
79.240372 104.0
79.29805 164.0
79.334511 172.0
79.361595 244.0
79.414322 212.0
79.559258 164.0
79.581223 184.0
79.636391 220.0
79.676208 140.0
79.694534 180.0
79.70652 336.0
79.747498 128.0
79.794006 336.0
79.83712 252.0
79.865623 136.0
79.922157 184.0
79.966064 144.0
80.044395 276.0
80.069328 200.0
80.139938 132.0
80.155586 228.0
80.202179 164.0
80.222641 172.0
80.264404 120.0
80.281937 228.0
80.304596 152.0
80.364334 172.0
80.382896 180.0
80.403229 156.0
80.425674 196.0
80.471718 172.0
80.517212 156.0
80.559853 140.0
80.588768 172.0
80.602547 208.0
80.62661 200.0
80.676231 164.0
80.70578 148.0
80.850182 296.0
80.890472 168.0
80.909126 196.0
81.009354 196.0
81.051765 128.0
81.083336 224.0
81.179192 168.0
81.193268 188.0
81.231163 260.0
81.25856 176.0
81.295601 136.0
81.320885 264.0
81.392899 140.0
81.417236 204.0
81.497383 156.0
81.52684 320.0
81.581139 276.0
81.673058 328.0
81.73349 244.0
81.756752 216.0
81.77623 176.0
81.821121 144.0
81.86924 144.0
81.882896 164.0
81.907059 176.0
81.932281 144.0
81.953003 152.0
81.975525 164.0
82.050629 168.0
82.070755 172.0
82.10379 124.0
82.12001 144.0
82.14389 168.0
82.204597 140.0
82.223633 300.0
82.245987 152.0
82.27153 148.0
82.291191 192.0
82.359818 184.0
82.389458 164.0
82.408821 160.0
82.442474 192.0
82.523819 148.0
82.567223 288.0
82.57444 216.0
82.61467 208.0
82.63279 140.0
82.651718 136.0
82.666229 152.0
82.789848 136.0
82.824226 188.0
82.902725 164.0
82.961014 400.0
82.985977 144.0
83.035675 152.0
83.07338 148.0
83.10228 164.0
83.119049 200.0
83.201881 108.0
83.218224 336.0
83.282295 176.0
83.32534 172.0
83.342072 256.0
83.361725 144.0
83.384445 136.0
83.434059 176.0
83.464355 156.0
83.502487 160.0
83.526192 148.0
83.555252 348.0
83.6241 164.0
83.655968 468.0
83.688316 244.0
83.734734 132.0
83.752518 216.0
83.805725 144.0
83.834877 304.0
83.859192 164.0
83.875565 512.0
83.90313 272.0
83.947449 240.0
84.001633 204.0
84.031372 460.0
84.068359 144.0
84.091843 304.0
84.112083 216.0
84.168808 156.0
84.228096 140.0
84.24855 140.0
84.273224 128.0
84.356895 144.0
84.385002 168.0
84.404434 160.0
84.451515 156.0
84.48275 200.0
84.504189 156.0
84.527618 136.0
84.547119 144.0
84.563454 156.0
84.596817 160.0
84.669785 160.0
84.691765 156.0
84.722908 176.0
84.743591 180.0
84.786263 104.0
84.824486 176.0
84.889961 172.0
84.927368 164.0
84.946556 148.0
84.961685 196.0
84.981552 216.0
85.005783 164.0
85.024048 124.0
85.099648 184.0
85.114975 152.0
85.14296 144.0
85.177368 176.0
85.194389 148.0
85.259552 120.0
85.331596 152.0
85.363632 100.0
85.384567 312.0
85.439613 124.0
85.45623 220.0
85.537102 204.0
85.564987 96.0
85.603859 104.0
85.620888 196.0
85.721306 192.0
85.745758 160.0
85.811928 152.0
85.862877 120.0
85.887634 156.0
85.91394 360.0
85.927887 156.0
85.969574 172.0
85.988029 144.0
86.063812 148.0
86.103912 104.0
86.151115 124.0
86.179153 128.0
86.204102 220.0
86.274986 192.0
86.335907 148.0
86.349747 196.0
86.374252 144.0
86.411919 188.0
86.433235 216.0
86.451248 112.0
86.476212 216.0
86.525124 268.0
86.566071 340.0
86.646935 172.0
86.696365 288.0
86.722313 188.0
86.735283 264.0
86.856316 348.0
86.895348 168.0
86.915184 196.0
86.928894 152.0
86.949654 124.0
86.981865 168.0
86.996315 148.0
87.013596 200.0
87.075645 192.0
87.092949 152.0
87.136742 208.0
87.152985 140.0
87.167503 292.0
87.185631 164.0
87.205582 144.0
87.268097 228.0
87.290413 164.0
87.335892 132.0
87.365707 264.0
87.399025 320.0
87.427689 536.0
87.463692 236.0
87.47805 312.0
87.512825 220.0
87.610329 180.0
87.63401 176.0
87.652565 220.0
87.685089 140.0
87.754059 156.0
87.785759 188.0
87.809219 152.0
87.825066 276.0
87.860374 200.0
87.873428 340.0
87.890915 140.0
87.962944 112.0
88.002022 272.0
88.020645 152.0
88.065376 180.0
88.168472 160.0
88.185005 352.0
88.21627 140.0
88.238419 116.0
88.28009 352.0
88.301758 96.0
88.35656 160.0
88.37355 216.0
88.430618 148.0
88.483025 280.0
88.503326 156.0
88.524803 180.0
88.555336 124.0
88.574493 168.0
88.603867 176.0
88.625076 256.0
88.651306 224.0
88.668396 168.0
88.700043 168.0
88.728157 188.0
88.746407 164.0
88.773163 324.0
88.805809 236.0
88.818657 156.0
88.849464 212.0
88.873718 120.0
88.890701 148.0
88.908234 256.0
88.922752 212.0
88.944557 140.0
88.967621 128.0
88.990097 164.0
89.062195 164.0
89.089363 140.0
89.108871 168.0
89.147484 200.0
89.169342 156.0
89.26123 208.0
89.308243 320.0
89.315689 288.0
89.337959 196.0
89.384163 172.0
89.410866 108.0
89.445793 140.0
89.464561 140.0
89.497948 148.0
89.526352 192.0
89.555168 180.0
89.573112 124.0
89.602097 224.0
89.629707 192.0
89.659119 168.0
89.725426 184.0
89.743759 272.0
89.835472 152.0
89.891312 136.0
89.931152 316.0
89.951241 176.0
89.975937 184.0
89.992516 144.0
90.043503 160.0
90.109619 560.0
90.123955 164.0
90.171982 176.0
90.209183 240.0
90.22226 408.0
90.287254 140.0
90.33239 144.0
90.362366 124.0
90.430313 136.0
90.510208 112.0
90.640411 176.0
90.672882 176.0
90.717445 240.0
90.77401 160.0
90.796768 160.0
90.847977 212.0
90.896065 152.0
90.937561 212.0
90.956146 148.0
90.984818 192.0
91.033928 160.0
91.115669 188.0
91.140366 160.0
91.182175 236.0
91.195427 152.0
91.233498 232.0
91.281448 128.0
91.310646 124.0
91.326294 152.0
91.351891 156.0
91.375168 136.0
91.448448 172.0
91.485458 156.0
91.528412 188.0
91.571182 104.0
91.654648 172.0
91.686592 148.0
91.700638 200.0
91.718155 188.0
91.735214 304.0
91.776695 168.0
91.793282 176.0
91.819138 200.0
91.837837 120.0
91.861366 184.0
91.889259 176.0
91.9048 164.0
91.920685 208.0
91.990944 180.0
92.068886 128.0
92.101959 156.0
92.120941 280.0
92.14579 248.0
92.205643 180.0
92.256195 152.0
92.273964 284.0
92.29248 132.0
92.339478 180.0
92.392128 152.0
92.438835 128.0
92.502121 184.0
92.533958 152.0
92.578568 336.0
92.626587 96.0
92.672173 352.0
92.708702 276.0
92.761177 188.0
92.782211 156.0
92.815285 332.0
92.877144 156.0
92.894394 176.0
92.915276 144.0
92.984703 236.0
93.059052 144.0
93.092567 204.0
93.10994 260.0
93.140671 152.0
93.156044 216.0
93.177452 192.0
93.197327 164.0
93.224251 144.0
93.282974 148.0
93.321327 176.0
93.347816 144.0
93.365341 148.0
93.387268 96.0
93.4076 200.0
93.441139 172.0
93.458809 184.0
93.482414 204.0
93.560844 180.0
93.588165 112.0
93.609955 184.0
93.625542 156.0
93.676483 164.0
93.697563 196.0
93.719299 136.0
93.759415 276.0
93.827637 140.0
93.862213 128.0
93.89518 164.0
93.918633 152.0
93.933754 144.0
93.960388 168.0
94.018547 148.0
94.025574 132.0
94.061119 164.0
94.138542 160.0
94.232956 248.0
94.275757 124.0
94.299263 200.0
94.321892 156.0
94.344498 168.0
94.380554 140.0
94.444519 144.0
94.493103 136.0
94.515755 168.0
94.564949 140.0
94.583031 152.0
94.650795 148.0
94.691246 212.0
94.695175 188.0
94.738281 164.0
94.776413 216.0
94.822212 248.0
94.871857 220.0
94.889938 212.0
94.937599 140.0
94.958672 120.0
95.008316 148.0
95.037827 204.0
95.080132 164.0
95.116096 144.0
95.149284 212.0
95.228203 180.0
95.267296 172.0
95.359978 224.0
95.396599 208.0
95.469093 200.0
95.515236 188.0
95.562149 200.0
95.579773 236.0
95.639839 164.0
95.704834 204.0
95.753181 188.0
95.803947 336.0
95.822594 168.0
95.866859 140.0
95.899948 192.0
95.950127 244.0
96.023979 356.0
96.04245 128.0
96.103905 160.0
96.128822 120.0
96.169846 252.0
96.223816 164.0
96.269974 132.0
96.292786 148.0
96.316093 160.0
96.330765 252.0
96.431366 208.0
96.45446 132.0
96.476891 224.0
96.53186 160.0
96.545204 180.0
96.573204 188.0
96.587997 320.0
96.628395 284.0
96.662949 176.0
96.697662 148.0
96.739029 180.0
96.781059 140.0
96.824142 196.0
96.849602 152.0
96.8927 188.0
96.911217 284.0
96.948792 160.0
97.016853 160.0
97.033173 168.0
97.04808 160.0
97.099602 284.0
97.123909 276.0
97.136902 120.0
97.193947 456.0
97.226959 208.0
97.249657 152.0
97.277084 196.0
97.296715 156.0
97.338799 120.0
97.362381 172.0
97.396339 216.0
97.416512 176.0
97.433281 144.0
97.458931 272.0
97.489212 160.0
97.522621 184.0
97.571144 152.0
97.616898 164.0
97.628624 212.0
97.659454 332.0
97.684639 152.0
97.714371 452.0
97.764534 320.0
97.84845 116.0
97.884621 220.0
97.905434 196.0
97.958611 148.0
98.014069 212.0
98.029861 192.0
98.065552 188.0
98.098061 168.0
98.116539 236.0
98.133301 176.0
98.175003 124.0
98.192322 280.0
98.290695 364.0
98.36174 196.0
98.431557 320.0
98.491623 160.0
98.520775 188.0
98.539482 156.0
98.553314 184.0
98.571198 168.0
98.612709 144.0
98.636314 148.0
98.66597 192.0
98.697243 152.0
98.722168 124.0
98.774208 128.0
98.814308 144.0
98.85762 144.0
98.879692 212.0
98.902702 300.0
98.942947 180.0
98.993469 208.0
99.053246 144.0
99.079704 120.0
99.141869 148.0
99.156883 188.0
99.19326 132.0
99.292747 160.0
99.311058 348.0
99.3451 208.0
99.385071 248.0
99.419205 224.0
99.521271 176.0
99.534775 232.0
99.57428 160.0
99.599785 128.0
99.652664 244.0
99.679993 204.0
99.706642 172.0
99.790291 156.0
99.820419 140.0
99.834076 164.0
99.872787 348.0
99.891563 148.0
99.905487 200.0
99.926208 192.0
99.948639 116.0
100.009888 116.0
100.026039 140.0
100.044067 180.0
100.064705 340.0
100.111786 180.0
100.151039 136.0
100.182747 148.0
100.226883 148.0
100.251945 200.0
100.295853 144.0
100.327766 100.0
100.357368 176.0
100.365799 140.0
100.394234 172.0
100.415108 176.0
100.443352 204.0
100.461304 176.0
100.494225 160.0
100.519531 200.0
100.601219 144.0
100.67308 236.0
100.690376 272.0
100.702202 156.0
100.732094 240.0
100.760544 288.0
100.823807 256.0
100.850578 280.0
100.902008 200.0
100.929039 224.0
100.965248 144.0
100.996658 256.0
101.012604 136.0
101.053696 196.0
101.084122 224.0
101.113998 304.0
101.137894 168.0
101.226036 256.0
101.259445 316.0
101.282417 332.0
101.339188 252.0
101.399361 192.0
101.447098 132.0
101.48243 156.0
101.50074 228.0
101.517456 136.0
101.543182 308.0
101.574059 144.0
101.595795 184.0
101.654381 308.0
101.784286 152.0
101.823738 280.0
101.898872 248.0
101.946457 172.0
101.965813 200.0
102.021278 172.0
102.044594 292.0
102.076706 100.0
102.104607 244.0
102.133987 152.0
102.175964 120.0
102.198189 136.0
102.23777 144.0
102.271408 168.0
102.312035 196.0
102.489555 144.0
102.522118 168.0
102.564896 156.0
102.595139 140.0
102.622673 176.0
102.643921 180.0
102.684891 188.0
102.731949 124.0
102.744446 228.0
102.77581 200.0
102.813751 136.0
102.883583 176.0
102.904701 156.0
102.987404 144.0
103.002068 172.0
103.042496 188.0
103.055588 156.0
103.09182 160.0
103.171997 128.0
103.19738 240.0
103.224754 180.0
103.261116 148.0
103.301437 280.0
103.365929 136.0
103.423439 116.0
103.462433 212.0
103.488541 144.0
103.57637 172.0
103.590294 376.0
103.610748 188.0
103.650192 240.0
103.72287 184.0
103.75206 156.0
103.821533 160.0
103.890923 104.0
103.932846 164.0
103.952232 148.0
103.976234 108.0
103.996994 164.0
104.017159 120.0
104.042397 220.0
104.067955 124.0
104.119926 160.0
104.135445 152.0
104.169594 188.0
104.184776 168.0
104.208809 168.0
104.246315 316.0
104.273193 416.0
104.292953 344.0
104.385033 184.0
104.413391 156.0
104.488419 320.0
104.578308 168.0
104.596939 368.0
104.619019 224.0
104.633949 184.0
104.6996 112.0
104.707939 108.0
104.740913 228.0
104.777351 156.0
104.802025 248.0
104.809044 176.0
104.835503 212.0
104.901878 180.0
104.915688 200.0
104.935921 212.0
105.026581 168.0
105.070343 292.0
105.105095 144.0
105.140709 188.0
105.179008 128.0
105.213226 276.0
105.253197 204.0
105.270546 116.0
105.301163 152.0
105.318466 292.0
105.35746 136.0
105.43084 236.0
105.492157 180.0
105.52317 196.0
105.56813 156.0
105.664253 136.0
105.699165 180.0
105.747169 172.0
105.781624 148.0
105.798264 208.0
105.813354 264.0
105.848167 148.0
105.916847 360.0
106.020683 188.0
106.089043 156.0
106.122742 176.0
106.189613 164.0
106.295982 108.0
106.330078 192.0
106.361885 148.0
106.388535 312.0
106.418198 276.0
106.475357 160.0
106.510384 144.0
106.532478 232.0
106.561646 188.0
106.605858 112.0
106.630196 160.0
106.656624 144.0
106.676308 240.0
106.753654 128.0
106.827187 172.0
106.852905 312.0
106.868675 288.0
106.928009 320.0
106.959358 156.0
107.013725 144.0
107.04631 176.0
107.15979 180.0
107.235359 196.0
107.287117 168.0
107.311172 248.0
107.352669 192.0
107.390022 136.0
107.409485 268.0
107.442101 116.0
107.474747 184.0
107.503197 132.0
107.601135 156.0
107.616539 144.0
107.649574 176.0
107.668159 164.0
107.699142 188.0
107.833649 124.0
107.90078 140.0
107.961823 176.0
107.99472 256.0
108.023682 168.0
108.075058 156.0
108.11058 172.0
108.127014 140.0
108.154045 220.0
108.204292 176.0
108.221642 160.0
108.259697 132.0
108.303131 220.0
108.327393 160.0
108.411903 236.0
108.44812 148.0
108.468193 164.0
108.504143 172.0
108.528419 260.0
108.553467 208.0
108.645172 228.0
108.721947 332.0
108.787361 240.0
108.812775 148.0
108.845085 164.0
108.862343 156.0
108.88662 120.0
108.911835 148.0
108.93541 248.0
108.960739 172.0
109.016846 108.0
109.045341 24084.0
109.091904 220.0
109.110321 144.0
109.161324 344.0
109.211739 248.0
109.233925 128.0
109.286674 284.0
109.389198 172.0
109.410599 264.0
109.426704 272.0
109.482849 144.0
109.496742 148.0
109.514091 168.0
109.579773 128.0
109.60154 188.0
109.662796 108.0
109.75705 96.0
109.865364 132.0
109.911026 120.0
109.973282 208.0
109.990593 244.0
110.006203 164.0
110.047325 1812.0
110.076447 384.0
110.11747 196.0
110.192451 328.0
110.232536 348.0
110.254761 276.0
110.297501 160.0
110.352676 208.0
110.415993 204.0
110.484222 228.0
110.51368 260.0
110.589401 140.0
110.604057 144.0
110.629562 216.0
110.699448 128.0
110.721306 168.0
110.83712 112.0
110.873291 96.0
110.927658 108.0
110.941574 196.0
110.96019 232.0
110.986168 200.0
111.026794 460.0
111.052727 140.0
111.08931 152.0
111.117668 140.0
111.137604 188.0
111.156693 116.0
111.228714 220.0
111.272636 208.0
111.304016 212.0
111.364189 108.0
111.42318 156.0
111.481621 272.0
111.514008 316.0
111.53231 136.0
111.557007 144.0
111.589104 176.0
111.629204 136.0
111.691002 280.0
111.710213 268.0
111.728569 196.0
111.777779 180.0
111.81514 144.0
111.831665 176.0
111.86853 132.0
111.893852 204.0
111.991905 172.0
112.016495 128.0
112.040115 268.0
112.080925 192.0
112.103668 244.0
112.187637 124.0
112.201889 260.0
112.230148 280.0
112.268105 124.0
112.289192 164.0
112.327164 164.0
112.358932 128.0
112.448769 252.0
112.602531 280.0
112.626816 168.0
112.668839 160.0
112.697174 184.0
112.775986 160.0
112.791725 188.0
112.878212 112.0
112.916954 140.0
112.94651 260.0
112.973587 232.0
113.019707 180.0
113.039131 192.0
113.058105 148.0
113.114159 140.0
113.131508 204.0
113.185165 200.0
113.246162 196.0
113.27301 280.0
113.295753 180.0
113.325035 288.0
113.364563 156.0
113.392464 260.0
113.436653 180.0
113.478516 224.0
113.504189 192.0
113.534897 164.0
113.599617 148.0
113.621864 188.0
113.725456 220.0
113.771576 140.0
113.86338 304.0
113.88166 136.0
113.902084 212.0
113.946701 228.0
113.993446 288.0
114.011398 224.0
114.026535 180.0
114.044456 228.0
114.099289 272.0
114.139954 200.0
114.192513 124.0
114.211227 148.0
114.257797 196.0
114.299828 104.0
114.340096 152.0
114.364082 148.0
114.39801 152.0
114.4216 152.0
114.445381 244.0
114.482735 188.0
114.503502 160.0
114.542595 116.0
114.600288 292.0
114.647583 348.0
114.67524 224.0
114.70652 132.0
114.725639 220.0
114.746956 144.0
114.790619 128.0
114.819962 136.0
114.852013 444.0
114.997314 156.0
115.017433 148.0
115.052704 300.0
115.097855 228.0
115.122513 144.0
115.154335 164.0
115.197525 100.0
115.249687 172.0
115.290146 324.0
115.327614 324.0
115.344002 168.0
115.447342 180.0
115.469635 184.0
115.525543 228.0
115.557632 172.0
115.639793 224.0
115.690025 288.0
115.704872 132.0
115.752907 228.0
115.80262 144.0
115.857483 124.0
115.942055 200.0
115.965454 140.0
115.996994 208.0
116.030373 172.0
116.04686 156.0
116.065948 144.0
116.127602 308.0
116.155754 296.0
116.18821 196.0
116.203491 140.0
116.252686 160.0
116.279945 172.0
116.316406 156.0
116.379395 168.0
116.408859 136.0
116.442947 248.0
116.480316 296.0
116.516953 344.0
116.548843 152.0
116.57357 276.0
116.606018 196.0
116.702843 156.0
116.757263 144.0
116.775818 236.0
116.885445 148.0
116.917938 276.0
116.968567 276.0
117.00383 168.0
117.044312 132.0
117.073105 224.0
117.127014 172.0
117.186081 144.0
117.220558 200.0
117.272461 144.0
117.311745 156.0
117.33007 104.0
117.382233 188.0
117.438309 288.0
117.474396 164.0
117.538147 144.0
117.575691 296.0
117.605713 116.0
117.623917 132.0
117.664169 192.0
117.709816 124.0
117.745216 176.0
117.851669 316.0
117.876457 292.0
117.895966 160.0
117.996025 180.0
118.030121 116.0
118.068687 152.0
118.098503 136.0
118.146584 112.0
118.169022 176.0
118.220108 144.0
118.239891 200.0
118.277267 192.0
118.315109 144.0
118.350113 196.0
118.375275 104.0
118.409424 196.0
118.462799 124.0
118.495537 140.0
118.527374 112.0
118.577759 144.0
118.627609 148.0
118.652107 160.0
118.693413 120.0
118.749039 216.0
118.780907 168.0
118.911308 164.0
118.950836 176.0
118.977249 168.0
119.061462 192.0
119.077072 204.0
119.150566 196.0
119.186996 228.0
119.269569 104.0
119.302368 336.0
119.331955 124.0
119.453072 136.0
119.503258 144.0
119.573174 156.0
119.609489 212.0
119.750816 384.0
119.786125 176.0
119.842522 176.0
119.857773 140.0
119.963432 192.0
120.077774 144.0
120.128777 136.0
120.160576 128.0
120.206276 196.0
120.223671 152.0
120.279114 268.0
120.304993 172.0
120.345779 132.0
120.402374 260.0
120.453217 152.0
120.5121 328.0
120.548172 240.0
120.617661 204.0
120.636948 244.0
120.666359 204.0
120.735176 104.0
120.776901 208.0
120.887718 184.0
120.967278 140.0
120.996452 288.0
121.045013 1340.0
121.155586 168.0
121.234901 192.0
121.258423 196.0
121.296432 228.0
121.371101 284.0
121.434006 156.0
121.455444 140.0
121.498589 316.0
121.567833 204.0
121.620506 144.0
121.659187 148.0
121.678833 228.0
121.711555 216.0
121.735962 184.0
121.761543 136.0
121.846344 244.0
121.865417 348.0
121.941185 160.0
121.974426 132.0
122.002464 128.0
122.017395 120.0
122.039368 380.0
122.057884 432.0
122.123024 168.0
122.170731 144.0
122.244682 196.0
122.264374 152.0
122.287048 96.0
122.337494 144.0
122.394638 300.0
122.420174 192.0
122.459007 160.0
122.500092 196.0
122.521126 124.0
122.538513 136.0
122.61467 176.0
122.631271 128.0
122.669777 236.0
122.685204 152.0
122.707253 140.0
122.740494 104.0
122.764091 280.0
122.795464 428.0
122.810898 172.0
122.83075 312.0
122.954315 200.0
122.996742 252.0
123.024475 832.0
123.059586 164.0
123.15596 244.0
123.186127 148.0
123.230278 228.0
123.285583 184.0
123.330696 176.0
123.375229 160.0
123.462616 144.0
123.50428 184.0
123.566414 160.0
123.585152 204.0
123.60675 156.0
123.67823 148.0
123.723549 160.0
123.756668 100.0
123.805061 152.0
123.845345 284.0
123.867493 148.0
123.890533 160.0
123.911026 148.0
123.93956 220.0
123.964111 184.0
124.023621 188.0
124.057365 308.0
124.094589 172.0
124.120346 184.0
124.155632 152.0
124.191124 212.0
124.21003 224.0
124.279762 348.0
124.359108 132.0
124.412704 120.0
124.434914 140.0
124.490746 232.0
124.539513 288.0
124.596764 164.0
124.627663 168.0
124.652908 268.0
124.68853 152.0
124.729675 140.0
124.747742 204.0
124.792946 232.0
124.848541 188.0
124.876869 244.0
124.911842 148.0
124.939293 200.0
124.967049 124.0
125.002037 152.0
125.041473 524.0
125.082161 168.0
125.101677 188.0
125.29924 136.0
125.329376 236.0
125.351654 172.0
125.428268 184.0
125.467018 164.0
125.500694 116.0
125.52845 232.0
125.552124 160.0
125.593063 120.0
125.625961 140.0
125.684486 136.0
125.708847 228.0
125.796844 180.0
125.837616 148.0
125.945114 160.0
125.977608 132.0
126.012939 332.0
126.038734 412.0
126.0709 160.0
126.188705 172.0
126.208511 140.0
126.26107 188.0
126.282684 160.0
126.30558 272.0
126.327599 104.0
126.376114 196.0
126.41716 152.0
126.453178 176.0
126.469269 276.0
126.494934 136.0
126.529343 192.0
126.616112 160.0
126.651947 196.0
126.668671 300.0
126.690536 180.0
126.757248 184.0
126.808792 196.0
126.857147 244.0
126.88028 112.0
126.917519 212.0
126.953239 128.0
126.97213 248.0
126.976044 248.0
127.020988 2976.0
127.053024 572.0
127.086479 132.0
127.129158 208.0
127.164963 200.0
127.187859 248.0
127.217896 252.0
127.233902 224.0
127.25679 136.0
127.312912 132.0
127.341324 156.0
127.372902 196.0
127.398148 152.0
127.42141 184.0
127.474655 184.0
127.542763 280.0
127.572487 180.0
127.590691 156.0
127.607964 332.0
127.67469 100.0
127.691162 144.0
127.768829 340.0
127.839645 200.0
127.86467 168.0
127.924088 140.0
127.999641 164.0
128.0242 228.0
128.062485 2884.0
128.10202 172.0
128.149811 200.0
128.195282 104.0
128.242432 236.0
128.331421 172.0
128.365265 136.0
128.377213 168.0
128.427307 120.0
128.489929 104.0
128.526947 144.0
128.545715 112.0
128.572083 176.0
128.592133 204.0
128.6866 188.0
128.714767 212.0
128.743179 164.0
128.771164 388.0
128.794205 260.0
128.844803 180.0
128.881088 124.0
128.916016 324.0
128.945084 128.0
128.96344 220.0
129.0159 152.0
129.070343 10844.0
129.170624 208.0
129.185333 236.0
129.213593 112.0
129.261551 136.0
129.3134 204.0
129.364273 240.0
129.389145 268.0
129.411774 188.0
129.463699 332.0
129.555756 136.0
129.592102 172.0
129.626144 164.0
129.649811 112.0
129.700714 180.0
129.796432 148.0
129.884735 236.0
129.943878 160.0
129.950638 128.0
129.986694 188.0
130.033829 200.0
130.072495 1652.0
130.133347 292.0
130.187958 208.0
130.224121 148.0
130.264648 244.0
130.297699 188.0
130.368973 148.0
130.397675 304.0
130.416458 108.0
130.432327 372.0
130.473648 316.0
130.513489 212.0
130.572327 160.0
130.616074 144.0
130.642395 160.0
130.668259 164.0
130.708038 240.0
130.750061 300.0
130.781937 284.0
130.836563 140.0
130.891891 160.0
130.918533 196.0
130.955811 196.0
130.977753 144.0
131.050995 276.0
131.07753 160.0
131.127121 144.0
131.177246 132.0
131.217041 188.0
131.255798 144.0
131.279175 132.0
131.346603 172.0
131.378708 176.0
131.404999 104.0
131.498093 128.0
131.533035 180.0
131.566772 180.0
131.609955 156.0
131.632324 160.0
131.711121 272.0
131.755188 192.0
131.806992 112.0
131.814789 228.0
131.856628 176.0
131.874313 160.0
131.919083 244.0
131.938492 160.0
131.970856 104.0
131.99321 160.0
132.049316 172.0
132.077713 164.0
132.175934 124.0
132.205627 168.0
132.230865 172.0
132.275635 152.0
132.298828 220.0
132.330826 124.0
132.399353 148.0
132.448822 168.0
132.47168 132.0
132.509705 200.0
132.526703 248.0
132.542633 160.0
132.561874 196.0
132.634415 196.0
132.667358 216.0
132.709503 176.0
132.739883 152.0
132.774277 152.0
132.800644 292.0
132.815445 156.0
132.881287 136.0
132.921677 232.0
132.957108 236.0
133.010757 124.0
133.044815 3708.0
133.079147 164.0
133.085785 200.0
133.110825 136.0
133.157623 144.0
133.208527 108.0
133.269531 152.0
133.333679 232.0
133.38295 400.0
133.410324 232.0
133.425812 228.0
133.455261 228.0
133.485672 208.0
133.541397 164.0
133.577393 104.0
133.601562 128.0
133.64032 244.0
133.689865 240.0
133.716446 152.0
133.78302 164.0
133.810669 308.0
133.834671 164.0
133.902206 220.0
133.930389 208.0
133.974304 180.0
133.993652 164.0
134.05249 7908.0
134.096939 280.0
134.141678 252.0
134.192581 160.0
134.249832 280.0
134.279556 156.0
134.417709 132.0
134.43367 348.0
134.479782 340.0
134.56041 164.0
134.668503 212.0
134.693909 148.0
134.778778 188.0
134.804749 180.0
134.853271 132.0
134.890991 244.0
134.95491 132.0
135.002579 204.0
135.024918 212.0
135.061279 41328.0
135.122192 288.0
135.160263 128.0
135.196976 376.0
135.233047 168.0
135.249649 332.0
135.268051 132.0
135.287125 152.0
135.3349 156.0
135.360962 144.0
135.397659 168.0
135.483292 172.0
135.516266 128.0
135.626007 112.0
135.668289 136.0
135.735611 300.0
135.761383 116.0
135.812775 236.0
135.825714 148.0
135.835205 116.0
135.843246 112.0
135.889435 304.0
135.945419 164.0
135.980728 212.0
135.989304 184.0
136.030945 1248.0
136.062485 3016.0
136.112579 212.0
136.136566 184.0
136.242661 148.0
136.282913 128.0
136.340576 248.0
136.365936 176.0
136.414474 156.0
136.450821 136.0
136.487244 148.0
136.560196 288.0
136.590393 156.0
136.611343 140.0
136.632462 408.0
136.777023 188.0
136.833054 124.0
136.850296 168.0
136.865997 284.0
136.893661 240.0
136.913605 152.0
136.936722 160.0
136.953629 372.0
137.034485 568.0
137.067429 324.0
137.113297 168.0
137.148529 212.0
137.186234 256.0
137.20488 144.0
137.284424 136.0
137.307404 128.0
137.31485 124.0
137.358795 152.0
137.376114 108.0
137.459122 176.0
137.475449 144.0
137.530441 168.0
137.601318 264.0
137.642273 208.0
137.678558 176.0
137.707565 208.0
137.778503 168.0
137.799286 256.0
137.825882 168.0
137.852295 224.0
137.882126 120.0
137.909866 140.0
137.929886 140.0
137.958954 324.0
137.975159 188.0
137.998215 232.0
138.041168 160.0
138.069962 212.0
138.146179 204.0
138.180786 168.0
138.236816 196.0
138.265869 168.0
138.328644 120.0
138.369583 224.0
138.424561 280.0
138.461502 296.0
138.497162 172.0
138.513565 176.0
138.597122 132.0
138.681473 108.0
138.757294 144.0
138.777649 164.0
138.813568 176.0
138.847107 264.0
138.875519 336.0
138.988281 116.0
139.021271 2980.0
139.080322 292.0
139.142059 152.0
139.167755 144.0
139.189026 140.0
139.238342 160.0
139.29393 192.0
139.324005 212.0
139.351089 144.0
139.393204 244.0
139.436279 272.0
139.461075 200.0
139.481842 188.0
139.516785 128.0
139.569199 136.0
139.651657 164.0
139.674423 180.0
139.698517 164.0
139.72493 176.0
139.802567 156.0
139.820541 176.0
139.856384 140.0
139.889633 144.0
139.924484 212.0
139.94426 168.0
139.989532 308.0
140.015152 160.0
140.034668 144.0
140.043198 156.0
140.072906 172.0
140.099045 132.0
140.114563 248.0
140.152359 172.0
140.22551 96.0
140.243423 176.0
140.281998 292.0
140.31572 132.0
140.335724 132.0
140.36087 208.0
140.39389 284.0
140.431625 216.0
140.48439 144.0
140.551361 180.0
140.57756 220.0
140.617538 216.0
140.667023 136.0
140.712219 188.0
140.784668 184.0
140.855774 184.0
141.034897 536.0
141.072906 156.0
141.099915 140.0
141.137848 292.0
141.159561 180.0
141.192139 140.0
141.213058 156.0
141.231522 216.0
141.277359 140.0
141.319275 204.0
141.344925 164.0
141.390289 196.0
141.446869 156.0
141.500809 136.0
141.546295 448.0
141.620529 152.0
141.644226 156.0
141.66832 116.0
141.699692 244.0
141.738663 176.0
141.774536 156.0
141.829041 364.0
141.848007 140.0
141.866058 160.0
141.92453 116.0
142.037079 128.0
142.093445 264.0
142.136505 240.0
142.165115 148.0
142.217621 284.0
142.248352 228.0
142.328293 240.0
142.358124 384.0
142.382721 124.0
142.410385 312.0
142.437973 248.0
142.460754 300.0
142.538132 160.0
142.564804 152.0
142.592361 272.0
142.641342 352.0
142.684052 136.0
142.72348 212.0
142.798706 168.0
142.82579 156.0
142.857269 180.0
142.885818 140.0
142.91774 144.0
142.935944 352.0
142.993225 232.0
143.035263 200.0
143.05069 428.0
143.136597 200.0
143.189041 252.0
143.250641 172.0
143.315628 148.0
143.346329 148.0
143.432632 244.0
143.485992 140.0
143.502686 164.0
143.580978 200.0
143.611847 252.0
143.666672 196.0
143.683212 256.0
143.707367 128.0
143.73851 132.0
143.800873 148.0
143.852585 380.0
143.894455 364.0
143.939346 152.0
143.960297 256.0
143.988831 100.0
144.007233 160.0
144.039413 116.0
144.05545 144.0
144.189072 128.0
144.246231 360.0
144.348663 136.0
144.396744 176.0
144.4245 160.0
144.483032 292.0
144.524918 136.0
144.588364 144.0
144.656006 156.0
144.697952 164.0
144.723602 184.0
144.793091 160.0
144.86496 156.0
144.888916 172.0
144.994766 112.0
145.009186 148.0
145.028351 464.0
145.046326 320.0
145.063553 300.0
145.091263 212.0
145.136795 204.0
145.171448 100.0
145.19397 136.0
145.310043 172.0
145.383606 108.0
145.408188 160.0
145.508438 128.0
145.548508 152.0
145.568939 136.0
145.589508 164.0
145.708694 104.0
145.736069 188.0
145.789612 108.0
145.832565 184.0
145.877655 248.0
145.899719 184.0
145.959991 124.0
145.9944 184.0
146.052399 1020.0
146.083099 356.0
146.106125 212.0
146.149429 168.0
146.187927 144.0
146.213989 160.0
146.262543 336.0
146.304016 156.0
146.327026 168.0
146.394501 168.0
146.447144 172.0
146.569534 192.0
146.602615 184.0
146.624908 108.0
146.65918 196.0
146.697449 156.0
146.728897 164.0
146.758743 120.0
146.796341 224.0
146.823669 184.0
146.902008 120.0
146.924438 260.0
146.955002 316.0
146.997635 152.0
147.020325 268.0
147.061066 10484.0
147.13446 268.0
147.16011 256.0
147.205246 224.0
147.224564 148.0
147.275757 200.0
147.301743 176.0
147.349808 180.0
147.42749 164.0
147.448349 152.0
147.464233 196.0
147.509552 156.0
147.531433 180.0
147.553482 196.0
147.61499 200.0
147.710373 160.0
147.760117 168.0
147.813171 172.0
147.853058 160.0
147.881622 104.0
147.912231 116.0
147.937531 188.0
148.021515 224.0
148.032104 284.0
148.063232 1492.0
148.126816 140.0
148.160995 176.0
148.194717 124.0
148.230682 260.0
148.268768 220.0
148.42572 344.0
148.456375 276.0
148.501785 212.0
148.552338 192.0
148.570557 164.0
148.597824 116.0
148.615677 184.0
148.642075 288.0
148.671478 380.0
148.692993 112.0
148.762375 176.0
148.785583 288.0
148.815018 276.0
148.866043 172.0
148.875931 164.0
148.93338 124.0
148.957901 260.0
148.974655 316.0
149.002335 228.0
149.040421 69108.0
149.07753 206540.0
149.146606 160.0
149.18512 136.0
149.224243 284.0
149.244873 132.0
149.263321 252.0
149.313934 320.0
149.35347 364.0
149.441467 156.0
149.476425 2584.0
149.500595 520.0
149.52533 240.0
149.549179 196.0
149.565216 408.0
149.655975 192.0
149.684296 220.0
149.702805 328.0
149.718613 144.0
149.744766 148.0
149.763443 164.0
149.793869 184.0
149.85524 212.0
149.883133 304.0
149.918304 264.0
149.943878 108.0
149.965698 304.0
149.99408 180.0
150.004776 120.0
150.011963 204.0
150.043533 4816.0
150.080032 25592.0
150.138672 136.0
150.180756 224.0
150.208191 112.0
150.24884 184.0
150.284637 196.0
150.301147 192.0
150.328354 292.0
150.414291 220.0
150.475372 152.0
150.545349 124.0
150.569763 220.0
150.596893 100.0
150.663025 204.0
150.698288 188.0
150.772217 304.0
150.819656 276.0
150.887161 164.0
150.900803 120.0
150.968231 204.0
151.00386 160.0
151.045914 244.0
151.082108 1476.0
151.133224 200.0
151.159668 160.0
151.192154 204.0
151.212463 384.0
151.249252 236.0
151.266724 492.0
151.289398 216.0
151.304855 364.0
151.325592 180.0
151.361664 144.0
151.407913 228.0
151.441986 168.0
151.476776 176.0
151.545135 152.0
151.566269 120.0
151.614929 208.0
151.654861 104.0
151.784286 304.0
151.805176 228.0
151.915466 232.0
151.952332 176.0
152.01712 116.0
152.059906 200.0
152.085831 128.0
152.169708 112.0
152.225876 136.0
152.249954 148.0
152.267181 264.0
152.355881 200.0
152.418396 180.0
152.440659 144.0
152.455078 196.0
152.527222 388.0
152.553589 280.0
152.617508 156.0
152.637177 220.0
152.690643 108.0
152.73674 112.0
152.759766 284.0
152.800873 188.0
152.825012 120.0
152.87825 248.0
152.899612 212.0
152.958847 156.0
152.998611 152.0
153.03978 188.0
153.085251 96.0
153.111679 128.0
153.146011 164.0
153.192764 152.0
153.239487 120.0
153.328949 148.0
153.355637 232.0
153.55513 276.0
153.577972 160.0
153.623993 152.0
153.649506 156.0
153.686508 148.0
153.740326 180.0
153.769409 216.0
153.800629 200.0
153.876266 132.0
153.909851 292.0
153.93634 236.0
153.960526 144.0
153.984558 404.0
154.031906 4004.0
154.091446 156.0
154.143036 164.0
154.186829 232.0
154.297867 108.0
154.358032 136.0
154.407852 276.0
154.452377 188.0
154.482056 156.0
154.565338 232.0
154.631226 156.0
154.790405 124.0
154.894211 460.0
154.923645 128.0
154.967957 236.0
155.000153 128.0
155.039215 6028.0
155.105118 140.0
155.132278 204.0
155.149384 252.0
155.248489 176.0
155.289032 144.0
155.361511 160.0
155.465729 164.0
155.494598 108.0
155.557495 140.0
155.606613 164.0
155.669296 168.0
155.695297 128.0
155.717133 200.0
155.739609 228.0
155.812073 192.0
155.869095 204.0
155.898102 128.0
155.946396 216.0
155.991684 200.0
156.028381 248.0
156.044632 332.0
156.161789 148.0
156.213852 248.0
156.322433 196.0
156.360748 124.0
156.388412 220.0
156.488419 116.0
156.562958 136.0
156.63533 192.0
156.705292 156.0
156.732834 244.0
156.760315 164.0
156.866013 180.0
156.903458 292.0
156.93338 160.0
156.996323 164.0
157.034042 272.0
157.065384 244.0
157.129303 164.0
157.197784 164.0
157.252701 168.0
157.272659 224.0
157.323669 176.0
157.37941 172.0
157.520523 160.0
157.548203 248.0
157.58078 136.0
157.635544 360.0
157.673492 132.0
157.81395 156.0
157.871201 128.0
157.91861 116.0
157.99884 156.0
158.068863 368.0
158.098282 96.0
158.182266 140.0
158.286301 136.0
158.322601 96.0
158.386932 236.0
158.423126 340.0
158.444199 232.0
158.475174 256.0
158.533691 124.0
158.563126 136.0
158.633453 256.0
158.716187 152.0
158.829727 292.0
158.853409 332.0
158.87822 100.0
158.898834 172.0
158.99826 100.0
159.059204 2172.0
159.090027 144.0
159.131805 196.0
159.173431 172.0
159.23819 148.0
159.259399 164.0
159.302551 196.0
159.409012 204.0
159.426392 200.0
159.448029 160.0
159.51561 176.0
159.560226 152.0
159.585556 156.0
159.631134 200.0
159.728333 148.0
159.746155 204.0
159.858337 208.0
159.897614 156.0
159.918518 252.0
160.001373 180.0
160.025299 144.0
160.045135 132.0
160.063232 352.0
160.088242 184.0
160.121826 144.0
160.180145 168.0
160.304092 164.0
160.344315 144.0
160.39679 168.0
160.478821 220.0
160.527267 132.0
160.565338 232.0
160.652084 120.0
160.727417 144.0
160.782501 176.0
160.842987 104.0
160.890747 384.0
160.91095 136.0
160.966614 128.0
161.039062 372.0
161.063583 1196.0
161.155258 180.0
161.184769 148.0
161.210434 96.0
161.286682 180.0
161.351501 304.0
161.391602 128.0
161.435852 156.0
161.482162 168.0
161.518448 152.0
161.536896 160.0
161.606918 172.0
161.633163 148.0
161.668594 268.0
161.747116 164.0
161.774902 140.0
161.881241 100.0
161.925812 180.0
162.004486 164.0
162.048431 4692.0
162.131897 352.0
162.180038 128.0
162.324829 172.0
162.38443 160.0
162.408615 144.0
162.432373 152.0
162.451996 120.0
162.496216 196.0
162.525803 160.0
162.569153 244.0
162.619003 212.0
162.69574 248.0
162.742371 308.0
162.83255 112.0
162.938705 124.0
162.968689 132.0
162.988708 104.0
163.018219 236.0
163.051224 1180.0
163.085648 212.0
163.168335 212.0
163.242538 180.0
163.275482 168.0
163.326965 100.0
163.378922 240.0
163.408508 276.0
163.444 172.0
163.474899 156.0
163.684555 156.0
163.765945 184.0
163.791199 184.0
163.88089 152.0
164.057449 364.0
164.244919 96.0
164.271423 184.0
164.360626 284.0
164.454147 232.0
164.501266 144.0
164.544296 152.0
164.651566 100.0
164.729187 144.0
164.785675 376.0
164.853928 108.0
164.878128 152.0
164.95491 148.0
165.043594 308.0
165.087769 100.0
165.226196 200.0
165.348724 164.0
165.400421 140.0
165.448273 364.0
165.50087 192.0
165.526611 120.0
165.581696 200.0
165.634552 128.0
165.769913 164.0
165.834122 140.0
165.873917 276.0
165.907135 316.0
166.029816 160.0
166.092773 168.0
166.143066 232.0
166.184128 160.0
166.219727 196.0
166.357819 352.0
166.489594 164.0
166.546753 140.0
166.617828 160.0
166.716873 180.0
166.767075 228.0
166.881821 184.0
166.95636 144.0
166.986099 128.0
167.045746 144.0
167.204315 148.0
167.240341 172.0
167.348465 144.0
167.449997 196.0
167.522903 148.0
167.597794 292.0
167.628372 280.0
167.688339 124.0
167.750046 124.0
167.833511 148.0
167.87413 160.0
168.013779 148.0
168.074493 168.0
168.116043 220.0
168.301697 180.0
168.46521 152.0
168.49794 132.0
168.530991 116.0
168.586655 300.0
168.648331 164.0
168.668167 192.0
168.721054 152.0
168.75061 164.0
168.768768 240.0
168.786591 184.0
168.803802 140.0
168.826553 240.0
168.85553 164.0
168.886566 144.0
168.906479 148.0
168.928589 112.0
168.968094 184.0
169.033188 1892.0
169.082535 204.0
169.166718 188.0
169.19548 180.0
169.313843 148.0
169.343811 188.0
169.383545 196.0
169.421387 148.0
169.464081 212.0
169.502731 140.0
169.529709 184.0
169.56752 160.0
169.611588 96.0
169.645279 292.0
169.677261 256.0
169.715286 140.0
169.742645 200.0
169.814728 172.0
169.852737 144.0
169.890121 180.0
169.923111 128.0
169.9617 196.0
170.008408 144.0
170.037033 292.0
170.077179 144.0
170.15535 276.0
170.280624 344.0
170.30867 216.0
170.367661 168.0
170.447418 124.0
170.543442 152.0
170.56424 168.0
170.60025 248.0
170.657822 144.0
170.68457 236.0
170.710663 164.0
170.75145 348.0
170.888885 172.0
170.897476 144.0
170.932144 156.0
170.971603 120.0
171.001007 180.0
171.021988 128.0
171.060089 140.0
171.077972 192.0
171.154816 136.0
171.21991 272.0
171.252899 216.0
171.275742 156.0
171.343185 136.0
171.424042 236.0
171.458374 136.0
171.557831 164.0
171.620941 108.0
171.662949 176.0
171.722244 168.0
171.73912 116.0
171.822708 100.0
171.846085 172.0
171.923828 256.0
172.016785 188.0
172.064972 192.0
172.110611 292.0
172.158783 144.0
172.209015 172.0
172.280106 284.0
172.319687 140.0
172.41481 180.0
172.448975 160.0
172.493881 168.0
172.545776 116.0
172.580811 392.0
172.629181 160.0
172.710739 152.0
172.742645 244.0
172.770416 172.0
172.871429 184.0
172.89241 164.0
172.934631 176.0
172.963593 176.0
173.020676 116.0
173.051178 124.0
173.113159 124.0
173.257599 180.0
173.290344 184.0
173.321716 152.0
173.359558 168.0
173.421646 168.0
173.443436 156.0
173.51384 168.0
173.543625 104.0
173.58197 116.0
173.609055 240.0
173.66893 176.0
173.691544 220.0
173.727859 112.0
173.839462 248.0
173.866455 128.0
173.897202 152.0
173.934189 136.0
173.981201 180.0
174.006805 160.0
174.070206 1116.0
174.121964 176.0
174.152313 148.0
174.179489 372.0
174.218094 308.0
174.304276 204.0
174.32164 252.0
174.341064 180.0
174.362091 144.0
174.477844 140.0
174.515503 220.0
174.557358 120.0
174.592789 216.0
174.631027 124.0
174.65387 156.0
174.753906 156.0
174.795624 140.0
174.853897 244.0
174.903412 148.0
174.927612 140.0
175.015045 136.0
175.035553 160.0
175.072388 460.0
175.118378 124.0
175.159668 128.0
175.187927 268.0
175.306885 220.0
175.341141 156.0
175.371567 236.0
175.39122 140.0
175.421631 140.0
175.48613 144.0
175.581055 148.0
175.616028 164.0
175.677795 140.0
175.77832 140.0
175.833893 176.0
175.893448 304.0
175.93869 136.0
175.960693 324.0
175.979523 148.0
176.041504 200.0
176.086395 10016.0
176.198669 152.0
176.214417 292.0
176.2565 104.0
176.28006 176.0
176.33371 148.0
176.358826 496.0
176.427734 136.0
176.445541 108.0
176.478424 240.0
176.499832 144.0
176.539291 168.0
176.577072 100.0
176.615356 376.0
176.686813 184.0
176.742203 104.0
176.783691 352.0
176.816925 136.0
176.847549 344.0
176.872284 192.0
176.898743 160.0
176.927719 444.0
176.97554 552.0
177.072937 248960.0
177.139847 156.0
177.173737 208.0
177.20224 264.0
177.229279 168.0
177.304276 368.0
177.354919 304.0
177.392944 132.0
177.476151 312.0
177.507446 5380.0
177.541321 260.0
177.570633 316.0
177.601791 116.0
177.648209 312.0
177.702347 364.0
177.759811 156.0
177.786621 108.0
177.815033 204.0
177.857208 100.0
177.917816 256.0
177.951111 212.0
178.013229 272.0
178.074829 41372.0
178.101776 3056.0
178.149902 196.0
178.22168 144.0
178.26767 104.0
178.291595 148.0
178.298004 164.0
178.344131 140.0
178.367233 216.0
178.48201 188.0
178.517975 256.0
178.551941 120.0
178.60585 192.0
178.638657 108.0
178.655807 176.0
178.710388 244.0
178.761368 124.0
178.819946 152.0
178.878143 144.0
178.90271 244.0
178.970795 152.0
179.035065 136.0
179.05542 320.0
179.077454 2332.0
179.105072 452.0
179.145248 100.0
179.169571 492.0
179.213058 128.0
179.292191 148.0
179.31041 228.0
179.353729 160.0
179.382812 124.0
179.411179 288.0
179.437363 220.0
179.476761 316.0
179.502289 308.0
179.572159 316.0
179.59549 232.0
179.718475 148.0
179.789322 176.0
179.924255 132.0
179.994553 116.0
180.088409 144.0
180.174774 208.0
180.238144 300.0
180.283539 100.0
180.323486 192.0
180.434692 152.0
180.511673 132.0
180.550232 236.0
180.602829 192.0
180.642075 156.0
180.802734 252.0
180.828217 160.0
180.868881 152.0
180.906113 176.0
180.925552 152.0
181.002502 240.0
181.030563 100.0
181.152649 180.0
181.204498 96.0
181.305801 216.0
181.366852 140.0
181.398285 132.0
181.449951 240.0
181.476776 152.0
181.520569 180.0
181.651093 168.0
181.677292 152.0
181.724792 144.0
181.782562 212.0
181.832031 176.0
181.939346 140.0
182.025757 192.0
182.094711 372.0
182.123062 248.0
182.151062 112.0
182.225616 164.0
182.272324 96.0
182.305023 204.0
182.341171 160.0
182.404755 184.0
182.42511 348.0
182.466721 244.0
182.495651 184.0
182.68158 208.0
182.753128 188.0
182.811813 304.0
182.871017 268.0
182.904831 200.0
182.944916 296.0
182.996399 104.0
183.036926 340.0
183.067429 168.0
183.081848 196.0
183.117447 152.0
183.300308 120.0
183.326508 132.0
183.363907 152.0
183.398834 176.0
183.539139 140.0
183.605011 116.0
183.642517 180.0
183.692871 156.0
183.793777 520.0
183.832611 176.0
183.987015 148.0
184.050095 156.0
184.106613 164.0
184.144821 108.0
184.177429 108.0
184.218582 148.0
184.257492 272.0
184.40242 180.0
184.445419 140.0
184.513855 140.0
184.552856 124.0
184.737991 132.0
184.814499 128.0
184.887131 176.0
184.961975 160.0
185.105057 152.0
185.175995 172.0
185.224396 164.0
185.275742 148.0
185.335373 144.0
185.374603 160.0
185.456589 128.0
185.505371 196.0
185.657059 168.0
185.717682 200.0
185.831055 240.0
186.038635 224.0
186.069641 960.0
186.138153 152.0
186.199432 224.0
186.350433 160.0
186.392899 128.0
186.490051 144.0
186.599548 192.0
186.963287 172.0
187.010132 132.0
187.067078 584.0
187.120132 284.0
187.194687 164.0
187.224411 140.0
187.298599 132.0
187.328156 288.0
187.382645 216.0
187.507996 172.0
187.550674 164.0
187.632339 160.0
187.678757 144.0
187.837921 144.0
187.889618 164.0
187.917496 164.0
187.965332 124.0
188.001617 244.0
188.032257 108.0
188.063583 312.0
188.086578 1580.0
188.230438 156.0
188.303696 252.0
188.557434 216.0
188.653702 136.0
188.677887 132.0
188.731033 128.0
188.809082 144.0
188.832947 196.0
188.859528 152.0
188.940964 104.0
189.013321 172.0
189.04982 108.0
189.089432 308.0
189.155045 152.0
189.199646 124.0
189.245392 140.0
189.264557 204.0
189.408707 152.0
189.457169 148.0
189.500122 144.0
189.546448 132.0
189.672775 156.0
189.732239 104.0
189.996368 148.0
190.021881 268.0
190.214981 252.0
190.311996 140.0
190.335587 136.0
190.366043 200.0
190.391632 148.0
190.442535 188.0
190.49855 160.0
190.545258 160.0
190.584061 156.0
190.633392 168.0
190.668961 112.0
190.707596 204.0
190.759827 164.0
190.933594 336.0
191.096207 140.0
191.166885 176.0
191.252213 148.0
191.273209 128.0
191.494095 108.0
191.527557 148.0
191.55632 148.0
191.620956 108.0
191.720428 144.0
191.781067 196.0
191.861618 160.0
191.905746 176.0
191.943726 160.0
192.043655 136.0
192.081543 764.0
192.255447 196.0
192.288467 120.0
192.37413 144.0
192.398987 144.0
192.448792 192.0
192.479141 132.0
192.517715 140.0
192.559753 200.0
192.647537 176.0
192.703949 220.0
192.740448 172.0
192.769104 100.0
192.823074 152.0
192.848419 160.0
192.924652 304.0
192.950531 148.0
193.004196 176.0
193.030121 200.0
193.062057 156.0
193.085068 208.0
193.117447 180.0
193.182907 172.0
193.209351 156.0
193.250244 144.0
193.334595 112.0
193.402451 156.0
193.462158 168.0
193.637604 168.0
193.745834 212.0
193.900269 180.0
193.963333 180.0
194.071564 128.0
194.099091 396.0
194.135391 104.0
194.154465 180.0
194.173996 112.0
194.281677 128.0
194.424774 164.0
194.455704 172.0
194.495071 268.0
194.562134 180.0
194.583176 176.0
194.62085 172.0
194.725418 96.0
194.752884 164.0
194.793152 176.0
194.82283 96.0
194.850037 164.0
194.906998 124.0
194.982559 144.0
195.110947 168.0
195.145355 140.0
195.479538 232.0
195.513 296.0
195.589462 256.0
195.662827 164.0
195.687195 140.0
195.744095 152.0
195.813965 168.0
195.917648 188.0
195.940781 176.0
195.982437 176.0
196.04335 1828.0
196.079987 172.0
196.136765 380.0
196.205414 148.0
196.238876 96.0
196.379135 204.0
196.398743 312.0
196.438339 264.0
196.503906 168.0
196.579178 140.0
196.626633 304.0
196.651749 176.0
196.830414 208.0
196.866714 152.0
196.922577 148.0
196.942123 212.0
196.96286 140.0
196.985168 296.0
197.049423 3180.0
197.084442 160.0
197.38205 156.0
197.442429 164.0
197.464798 328.0
197.58757 224.0
197.636505 152.0
197.771561 228.0
197.800568 236.0
197.933289 144.0
198.050201 416.0
198.184357 128.0
198.256226 100.0
198.286392 144.0
198.318771 252.0
198.579529 140.0
198.664337 172.0
198.790909 176.0
198.819565 180.0
198.922028 140.0
198.955551 140.0
199.05101 268.0
199.076294 140.0
199.103897 164.0
199.210724 176.0
199.244598 156.0
199.326309 144.0
199.368454 160.0
199.40329 132.0
199.496246 164.0
199.52594 156.0
199.65416 96.0
199.705841 140.0
199.735535 156.0
199.764038 116.0
199.795853 176.0
199.843048 132.0
199.933731 152.0
199.971954 104.0
200.052094 164.0
200.078354 168.0
200.157303 96.0
200.20578 184.0
200.256958 140.0
200.267075 112.0
200.394058 248.0
200.448196 180.0
200.525177 176.0
200.572464 160.0
200.613358 100.0
200.639847 300.0
200.685867 180.0
200.722519 224.0
200.747742 140.0
200.780777 116.0
200.804504 504.0
200.843796 156.0
200.893631 96.0
200.976776 144.0
201.100006 360.0
201.144791 152.0
201.179596 172.0
201.261948 196.0
201.313797 128.0
201.425674 236.0
201.469666 124.0
201.498734 144.0
201.543945 148.0
201.577576 296.0
201.679596 144.0
201.779877 156.0
201.892471 116.0
201.916214 168.0
201.953186 216.0
202.024994 208.0
202.095734 176.0
202.170929 196.0
202.196335 132.0
202.215179 112.0
202.344772 264.0
202.483139 212.0
202.505798 160.0
202.52774 156.0
202.568115 140.0
202.591705 160.0
202.663071 148.0
202.755127 488.0
202.796997 176.0
202.861496 236.0
202.930252 232.0
202.974579 160.0
203.019516 124.0
203.097366 136.0
203.115417 340.0
203.199738 196.0
203.221268 244.0
203.273056 132.0
203.30513 244.0
203.360229 180.0
203.387405 104.0
203.430206 216.0
203.477051 128.0
203.523895 208.0
203.55513 168.0
203.648849 340.0
203.684067 132.0
203.728256 136.0
203.991562 204.0
204.07547 136.0
204.105988 108.0
204.151901 176.0
204.182526 152.0
204.336868 184.0
204.356567 156.0
204.427856 208.0
204.469666 104.0
204.512314 124.0
204.588181 184.0
204.635712 188.0
204.678513 196.0
204.72406 196.0
204.773819 200.0
204.79892 96.0
204.86116 144.0
204.885956 172.0
204.950714 164.0
204.971573 160.0
205.018677 200.0
205.053009 268.0
205.079712 164.0
205.109589 320.0
205.137024 252.0
205.162201 300.0
205.196121 164.0
205.217072 276.0
205.244308 104.0
205.273758 272.0
205.309738 108.0
205.344833 212.0
205.365875 436.0
205.406494 440.0
205.432388 184.0
205.457275 280.0
205.510101 220.0
205.522308 292.0
205.54361 452.0
205.604645 468.0
205.645782 200.0
205.678116 272.0
205.721619 296.0
205.74382 344.0
205.790741 396.0
205.836243 244.0
205.863007 436.0
205.890411 512.0
205.929214 884.0
205.96698 508.0
206.005432 776.0
206.064026 1168.0
206.099487 331624.0
206.189529 180.0
206.208603 176.0
206.295029 132.0
206.362823 1168.0
206.412933 532.0
206.451538 768.0
206.492203 276.0
206.536346 1472.0
206.570572 11872.0
206.606277 600.0
206.667709 236.0
206.687363 164.0
206.721603 280.0
206.793381 216.0
206.843765 232.0
206.897583 168.0
206.932556 208.0
206.968155 112.0
207.03949 280.0
207.059082 288.0
207.101593 115172.0
207.154099 316.0
207.203033 188.0
207.258179 128.0
207.280411 304.0
207.333328 136.0
207.353577 284.0
207.449646 176.0
207.520691 116.0
207.570099 140.0
207.597733 252.0
207.635452 132.0
207.657059 156.0
207.681671 136.0
207.708969 188.0
207.740189 268.0
207.760345 248.0
207.821411 132.0
207.889236 184.0
207.900772 180.0
207.949905 108.0
208.002747 200.0
208.066025 104.0
208.103653 7360.0
208.170456 236.0
208.198013 184.0
208.231812 148.0
208.251785 244.0
208.288467 176.0
208.336014 336.0
208.39975 216.0
208.457138 240.0
208.478088 192.0
208.511429 344.0
208.542862 296.0
208.576065 292.0
208.6008 352.0
208.634598 200.0
208.659714 392.0
208.703232 424.0
208.746582 328.0
208.776138 308.0
208.806595 168.0
208.854553 384.0
208.888687 212.0
208.933853 156.0
208.962753 116.0
208.996185 120.0
209.108322 548.0
209.150894 128.0
209.242004 96.0
209.296249 192.0
209.319489 132.0
209.359253 296.0
209.492752 180.0
209.615005 196.0
209.65686 140.0
209.684113 184.0
209.760468 232.0
209.847778 180.0
209.953384 140.0
210.173172 164.0
210.50177 108.0
210.529114 136.0
210.571182 160.0
210.842484 188.0
211.300613 148.0
211.413391 196.0
211.755508 160.0
211.849442 100.0
212.301834 116.0
212.440216 120.0
212.474258 100.0
212.560364 120.0
212.594025 160.0
212.778595 208.0
212.966248 164.0
213.241684 168.0
213.275757 148.0
213.322235 104.0
213.470062 132.0
213.900574 224.0
213.982086 212.0
214.160233 132.0
214.22673 156.0
214.58728 208.0
214.634766 152.0
214.946884 156.0
215.024353 132.0
215.074982 148.0
215.21048 212.0
215.307587 196.0
215.353699 116.0
215.729523 180.0
215.862305 140.0
215.930283 104.0
216.127411 188.0
216.243652 160.0
216.291061 100.0
216.313843 100.0
216.383408 96.0
216.562988 112.0
216.636703 212.0
216.791031 140.0
216.86705 200.0
217.020386 156.0
217.049042 316.0
217.094818 188.0
217.136978 188.0
217.169754 320.0
217.209457 104.0
217.2323 164.0
217.314087 160.0
217.380112 96.0
217.588684 96.0
217.824142 100.0
217.851593 100.0
218.01387 288.0
218.048233 256.0
218.10408 128.0
218.172775 108.0
218.24588 120.0
218.360443 104.0
218.629929 116.0
218.707993 128.0
218.851334 184.0
219.041763 172.0
219.115433 144.0
219.503845 108.0
219.539505 96.0
219.577576 108.0
219.755615 124.0
219.891968 188.0
219.968948 100.0
220.13147 128.0
220.163025 108.0
220.359558 116.0
220.385132 144.0
220.543289 112.0
220.822647 180.0
220.861664 228.0
220.914352 144.0
221.060074 120.0
221.10939 244.0
221.156998 148.0
221.284286 140.0
221.572327 176.0
221.771408 120.0
221.802734 176.0
221.883957 140.0
222.083527 160.0
222.35318 172.0
222.412384 108.0
222.52565 112.0
222.627014 108.0
222.726913 180.0
222.851486 112.0
222.91275 160.0
222.984665 100.0
223.099884 100.0
223.156113 156.0
223.480698 140.0
223.916306 144.0
223.994202 120.0
224.044937 140.0
224.14856 136.0
224.179718 208.0
224.233124 176.0
224.387405 216.0
224.543182 132.0
224.692596 324.0
224.748901 148.0
225.18367 108.0
225.227707 152.0
225.341858 188.0
225.400986 144.0
225.459808 140.0
225.530655 144.0
225.559387 180.0
225.598251 148.0
225.628143 224.0
225.74617 144.0
225.813004 220.0
225.889404 132.0
225.90976 168.0
226.142151 208.0
226.329636 132.0
226.465576 132.0
226.528 204.0
226.639786 148.0
226.931107 276.0
227.021805 228.0
227.097366 184.0
227.129242 108.0
227.257462 144.0
227.303101 136.0
227.358932 172.0
227.439377 176.0
227.509583 152.0
227.653702 212.0
227.682495 132.0
227.707764 184.0
227.77684 264.0
227.800873 248.0
227.873245 184.0
228.065308 156.0
228.116409 144.0
228.364487 96.0
228.411118 180.0
228.481079 264.0
228.928787 176.0
229.151703 148.0
229.175797 272.0
229.317444 204.0
229.365662 148.0
229.465149 152.0
229.582199 132.0
229.641434 132.0
229.782166 148.0
229.810104 228.0
229.8452 144.0
230.001831 116.0
230.046051 124.0
230.406235 176.0
230.5186 212.0
230.627396 184.0
230.720108 184.0
231.10791 144.0
231.189957 144.0
231.478867 128.0
231.544174 144.0
231.602585 180.0
231.811707 192.0
231.833908 208.0
231.935028 144.0
232.05629 236.0
232.086609 168.0
232.107834 160.0
232.344421 176.0
232.626663 140.0
232.659332 112.0
232.757217 192.0
232.804901 136.0
232.864746 220.0
232.977722 180.0
232.997818 164.0
233.045776 148.0
233.118698 140.0
233.383163 172.0
233.498718 180.0
233.611267 152.0
233.761246 96.0
234.02948 156.0
234.16745 184.0
234.222931 120.0
234.451645 140.0
234.839355 168.0
234.948669 176.0
235.011337 156.0
235.065308 136.0
235.480499 172.0
235.747131 160.0
235.828125 188.0
235.907822 112.0
235.94429 144.0
236.002487 124.0
236.110901 724.0
236.207291 156.0
236.291687 232.0
236.331482 128.0
236.352448 108.0
236.41066 136.0
236.696976 148.0
236.791046 320.0
237.107635 128.0
237.248871 192.0
237.44136 120.0
237.469269 232.0
237.8741 120.0
237.911789 116.0
237.951065 176.0
238.265427 156.0
238.412933 156.0
238.524048 160.0
238.769287 148.0
238.936035 108.0
239.351212 152.0
239.685837 144.0
239.719727 176.0
239.743011 120.0
239.830688 196.0
239.958054 140.0
239.992966 116.0
240.171234 148.0
240.255875 168.0
240.453781 184.0
240.567932 144.0
240.719223 160.0
240.752213 164.0
240.866226 188.0
241.099945 236.0
241.297043 184.0
241.374344 148.0
241.496964 172.0
241.650742 108.0
241.810547 144.0
242.049744 156.0
242.251724 132.0
242.275024 172.0
242.485733 152.0
242.550827 152.0
242.586197 132.0
242.643829 164.0
242.710526 172.0
242.843613 256.0
243.121216 160.0
243.289139 164.0
243.345032 172.0
243.595657 160.0
243.680466 144.0
243.838821 108.0
243.896545 128.0
244.123169 152.0
244.358261 148.0
244.395432 152.0
244.468216 132.0
244.588562 148.0
244.778473 172.0
245.015854 152.0
245.134354 196.0
245.328384 164.0
245.490311 112.0
245.666763 360.0
245.84462 160.0
246.02565 188.0
246.068161 232.0
246.298065 120.0
246.342773 132.0
246.422302 144.0
246.477264 156.0
246.539764 128.0
246.658691 156.0
246.80867 140.0
247.064316 160.0
247.250961 228.0
247.336304 152.0
247.467072 212.0
247.540375 148.0
247.602844 152.0
247.788254 96.0
248.109406 128.0
248.187622 176.0
248.394623 216.0
248.434769 140.0
248.858246 104.0
249.147141 152.0
249.357147 156.0
249.702591 136.0
249.812393 136.0
249.899475 160.0
250.022202 176.0
250.129013 128.0
250.170135 180.0
250.233093 152.0
250.255142 216.0
250.378586 148.0
250.636276 160.0
251.055527 140.0
251.134384 256.0
251.191162 144.0
251.415176 148.0
251.632172 172.0
251.689819 172.0
251.947372 100.0
252.033035 116.0
252.116287 216.0
252.204773 196.0
252.333206 152.0
252.391312 236.0
252.717102 144.0
252.913315 144.0
252.957031 148.0
253.057602 104.0
253.098633 172.0
253.381989 168.0
253.6577 164.0
253.922882 108.0
254.031693 124.0
254.132492 312.0
254.219101 260.0
254.46315 176.0
254.525543 120.0
254.610748 220.0
254.640518 168.0
254.703186 128.0
254.960526 112.0
254.99852 148.0
255.19429 228.0
255.429626 156.0
255.585526 156.0
255.641037 144.0
255.690536 160.0
255.720581 124.0
255.903427 128.0
255.958847 128.0
256.502747 152.0
256.544189 148.0
256.576202 96.0
256.622894 112.0
256.899628 160.0
257.06076 160.0
257.284332 192.0
257.684357 160.0
257.808197 152.0
257.848267 104.0
258.048889 120.0
258.074158 188.0
258.239807 148.0
258.66864 136.0
258.732605 164.0
258.924713 144.0
259.048309 116.0
259.081696 144.0
259.132935 148.0
259.260284 140.0
259.483551 132.0
259.51178 140.0
259.549225 156.0
259.674438 140.0
259.767731 196.0
259.900421 156.0
260.103424 124.0
260.134705 156.0
260.346924 156.0
260.553375 172.0
260.634583 164.0
260.660278 164.0
260.756714 176.0
260.84671 204.0
260.883759 176.0
261.063599 156.0
261.113586 160.0
261.239014 164.0
261.303375 144.0
261.779755 244.0
262.079956 108.0
262.146484 100.0
262.22113 196.0
262.322479 100.0
262.424225 148.0
262.691315 152.0
263.485565 100.0
263.54425 172.0
263.605621 160.0
264.121796 148.0
264.25235 140.0
264.37207 160.0
264.433563 168.0
264.658752 156.0
264.691315 116.0
264.745941 132.0
264.838287 116.0
264.904724 140.0
264.96463 176.0
265.243317 148.0
265.502991 140.0
265.62735 168.0
265.699371 276.0
266.057587 164.0
266.083557 152.0
266.228271 112.0
266.284882 188.0
266.353088 208.0
266.42099 124.0
266.574036 140.0
266.616272 192.0
266.68869 132.0
266.866577 160.0
266.958832 160.0
267.071381 152.0
267.450073 120.0
267.512573 256.0
267.746338 136.0
267.82663 164.0
267.868958 160.0
268.134277 276.0
268.246979 144.0
268.661133 156.0
268.785126 184.0
268.857941 152.0
269.000519 164.0
269.094849 180.0
269.212555 132.0
269.404114 164.0
269.487152 188.0
270.128967 280.0
270.293091 124.0
270.427704 120.0
270.482971 192.0
270.627045 160.0
270.794434 116.0
270.903778 152.0
271.018036 128.0
271.08255 316.0
271.182709 128.0
271.388855 144.0
271.424835 116.0
271.452393 136.0
271.611633 116.0
271.700439 144.0
271.756805 192.0
272.064728 200.0
272.333984 168.0
272.455536 184.0
272.685547 144.0
272.797302 176.0
272.943146 124.0
273.698792 244.0
273.939636 128.0
274.209412 180.0
274.376556 148.0
274.661133 164.0
275.014221 172.0
275.062012 108.0
275.090118 140.0
275.216492 132.0
275.364197 280.0
275.409546 132.0
275.466583 144.0
275.63382 104.0
275.66153 352.0
275.701508 160.0
275.872375 156.0
275.945801 160.0
276.165802 160.0
276.564423 144.0
276.716705 168.0
276.879883 128.0
276.984955 144.0
277.172852 236.0
277.326111 204.0
277.369324 180.0
277.393768 196.0
277.53244 160.0
277.70813 116.0
277.756104 220.0
277.95636 176.0
278.219086 108.0
278.285797 132.0
278.331482 188.0
278.357544 132.0
278.418884 124.0
278.567291 156.0
279.094604 204.0
279.218781 144.0
279.383026 136.0
279.763489 120.0
279.834381 160.0
279.970917 156.0
280.032593 124.0
280.110809 144.0
280.189514 96.0
280.349304 144.0
280.709015 200.0
280.784119 144.0
280.829651 268.0
280.988403 180.0
281.147766 192.0
281.202057 132.0
281.302002 120.0
281.508026 176.0
281.559601 100.0
281.865723 160.0
282.001312 140.0
282.213379 152.0
282.251648 124.0
282.377228 156.0
282.768677 184.0
282.885834 148.0
283.073334 148.0
283.253296 180.0
283.418365 176.0
283.44516 140.0
283.626831 140.0
284.123993 116.0
284.249969 256.0
284.360718 172.0
284.499939 200.0
284.685272 124.0
284.716278 220.0
284.847595 192.0
285.025665 164.0
285.069672 148.0
285.106293 200.0
285.139191 200.0
285.485931 188.0
285.621338 264.0
285.793182 168.0
285.919556 128.0
286.260193 156.0
286.503204 112.0
286.557953 148.0
286.880157 144.0
287.128387 128.0
287.239532 148.0
287.27887 140.0
287.316376 116.0
287.379303 196.0
287.402924 152.0
287.619568 144.0
287.684601 168.0
287.759552 128.0
287.810272 168.0
288.149139 140.0
288.186279 144.0
288.402313 148.0
288.703491 240.0
288.749817 148.0
288.814484 192.0
288.928192 268.0
289.018097 140.0
289.096832 160.0
289.126373 164.0
289.242157 140.0
289.328674 312.0
289.366699 140.0
289.485229 140.0
289.555878 168.0
289.759583 148.0
290.104065 144.0
290.12854 128.0
290.235687 176.0
290.352814 144.0
290.493378 144.0
290.695465 164.0
290.941528 216.0
291.024841 112.0
291.430603 320.0
291.643005 180.0
291.768799 168.0
291.809601 144.0
292.000031 144.0
292.093933 164.0
292.156494 140.0
292.224548 220.0
292.537659 156.0
292.651154 128.0
292.737885 136.0
292.810059 164.0
292.890411 128.0
293.158813 280.0
293.289764 136.0
293.324554 140.0
293.494507 184.0
293.637848 172.0
293.720123 212.0
293.770691 116.0
293.862427 112.0
293.921417 172.0
294.008301 112.0
294.058929 148.0
294.145203 320.0
294.305237 144.0
294.491547 180.0
294.53595 148.0
294.594025 144.0
294.657501 144.0
294.715118 204.0
295.115021 232.0
295.331329 188.0
295.447632 104.0
295.572784 188.0
295.627228 132.0
295.714783 120.0
295.797729 160.0
295.93811 108.0
296.011505 104.0
296.133301 184.0
296.169067 152.0
296.223816 104.0
296.325134 156.0
296.38681 160.0
296.568451 188.0
296.606171 160.0
296.694031 152.0
296.914734 164.0
297.055389 200.0
297.120544 212.0
297.159698 156.0
297.192596 152.0
297.388214 188.0
297.667938 232.0
297.717804 140.0
297.7659 140.0
297.82428 200.0
298.00293 140.0
298.121582 128.0
298.515106 164.0
298.853302 164.0
299.155212 136.0
299.408264 136.0
299.639679 112.0
299.870056 104.0
299.999084 160.0
300.03125 156.0
300.147827 112.0
300.268036 188.0
300.523315 176.0
300.591614 156.0
300.666412 268.0
301.035095 156.0
301.137299 136.0
301.205536 160.0
301.357086 192.0
301.379974 140.0
301.472046 108.0
301.720184 272.0
301.977692 144.0
302.060699 196.0
302.08493 148.0
302.226776 180.0
302.398163 112.0
302.593414 148.0
302.723206 164.0
302.757874 124.0
303.084625 436.0
303.130554 144.0
303.154816 212.0
303.310791 148.0
303.339386 192.0
303.431305 200.0
303.746155 124.0
303.801697 128.0
303.899841 188.0
304.084564 264.0
304.285339 148.0
304.386292 196.0
304.821411 140.0
304.908875 132.0
305.119446 168.0
305.194458 104.0
305.311798 224.0
305.387207 176.0
305.41156 320.0
305.611237 132.0
305.644653 164.0
305.881317 140.0
306.091949 104.0
306.318451 180.0
306.602325 152.0
307.078979 172.0
307.341278 108.0
307.357697 172.0
307.467224 144.0
307.596375 152.0
307.646332 128.0
307.715088 172.0
307.802368 148.0
307.853363 112.0
307.899536 228.0
308.16214 140.0
308.308899 212.0
308.382538 124.0
308.40744 160.0
308.434723 168.0
308.502594 156.0
308.768433 272.0
308.943756 104.0
308.989197 116.0
309.0737 108.0
309.162231 140.0
309.218231 152.0
309.29834 144.0
309.372253 156.0
309.424774 148.0
309.496368 204.0
309.97818 220.0
310.067627 104.0
310.202393 144.0
310.252136 152.0
310.415619 292.0
310.605377 160.0
310.647858 152.0
310.688019 116.0
310.868896 168.0
310.925873 240.0
311.219025 140.0
311.763397 240.0
312.330475 152.0
312.672638 184.0
312.71402 156.0
312.773865 164.0
312.865387 148.0
313.494324 164.0
313.619232 156.0
313.691498 96.0
313.772827 112.0
313.806061 240.0
313.879364 168.0
313.926086 104.0
313.971802 148.0
314.007782 140.0
314.099213 212.0
314.157013 292.0
314.677551 176.0
314.71286 144.0
314.852264 184.0
314.956543 140.0
315.095215 140.0
315.150848 176.0
315.196777 164.0
315.305389 104.0
315.815491 140.0
315.90744 148.0
316.156677 100.0
316.197601 196.0
316.268402 148.0
316.402893 96.0
316.618896 196.0
316.693298 260.0
316.721619 172.0
317.015137 176.0
317.201508 112.0
317.298767 172.0
317.404144 116.0
317.536835 164.0
317.859406 100.0
318.205811 132.0
318.32074 176.0
318.548462 188.0
318.679932 156.0
318.942902 152.0
319.229919 160.0
319.27002 176.0
319.458527 156.0
319.553986 120.0
319.787079 132.0
319.835724 164.0
320.006378 124.0
320.183685 176.0
320.472992 144.0
320.530212 144.0
320.601471 152.0
320.650146 140.0
320.690582 176.0
321.027283 148.0
321.09201 156.0
321.483673 108.0
321.59726 268.0
321.650085 148.0
322.092773 144.0
322.197968 124.0
322.249146 168.0
322.301331 128.0
322.71817 104.0
322.92572 172.0
322.968628 148.0
323.023651 148.0
323.062866 328.0
323.500153 180.0
323.571716 184.0
323.731415 128.0
323.953033 144.0
324.003204 140.0
324.169403 144.0
324.311127 116.0
324.505737 204.0
324.689423 192.0
324.723114 140.0
324.763184 156.0
324.795441 216.0
324.820557 148.0
325.172211 184.0
325.437836 140.0
325.498901 152.0
325.911987 160.0
326.009003 176.0
326.127594 156.0
326.249603 144.0
326.325317 184.0
326.458374 152.0
326.891968 144.0
326.924194 152.0
327.05777 140.0
327.392853 104.0
327.636749 180.0
327.68808 112.0
327.841339 204.0
327.918823 208.0
328.087646 188.0
328.141327 212.0
328.233704 144.0
328.322052 112.0
328.37619 172.0
328.462006 324.0
328.715332 100.0
328.861542 136.0
328.933655 164.0
328.989105 232.0
329.180542 284.0
329.262207 180.0
329.320007 220.0
329.364227 200.0
329.392242 216.0
329.702545 136.0
329.747772 132.0
329.956024 168.0
330.0672 168.0
330.220001 120.0
330.358002 132.0
330.384674 196.0
330.485229 148.0
330.59787 144.0
330.764099 148.0
330.822388 192.0
331.033813 168.0
331.105469 140.0
331.197113 100.0
331.240723 164.0
331.347687 192.0
331.395721 148.0
331.451233 148.0
331.494354 164.0
331.527985 452.0
331.579346 292.0
331.602783 308.0
331.658691 184.0
331.684784 396.0
331.80835 248.0
331.876068 240.0
331.941864 192.0
331.983612 160.0
332.026428 372.0
332.063904 296.0
332.112793 131648.0
332.347778 152.0
332.449371 224.0
332.481903 112.0
332.526031 228.0
332.561951 320.0
332.650452 120.0
332.710388 516.0
332.827637 144.0
332.921936 184.0
332.954651 452.0
332.975952 220.0
333.010559 216.0
333.114624 22144.0
333.18573 140.0
333.312378 292.0
333.40332 160.0
333.494904 108.0
333.588623 148.0
333.617523 224.0
333.690521 116.0
333.737488 184.0
333.802826 284.0
333.866821 140.0
333.946045 152.0
333.988312 148.0
334.036316 208.0
334.111603 8136.0
334.186768 128.0
334.392822 176.0
334.562622 216.0
334.848419 144.0
334.941864 244.0
335.052643 136.0
335.114899 816.0
335.185303 128.0
335.214081 148.0
335.277618 124.0
335.315948 140.0
335.347382 188.0
335.422791 128.0
335.561066 196.0
335.661743 184.0
335.738525 148.0
335.899261 152.0
336.389252 176.0
336.478241 232.0
336.540405 140.0
336.623993 128.0
336.677582 180.0
337.012573 184.0
337.049133 236.0
337.320129 212.0
337.359039 140.0
337.617676 168.0
337.802032 160.0
338.240845 128.0
338.338531 264.0
338.4328 108.0
338.766479 112.0
339.016235 176.0
339.042542 176.0
339.082336 148.0
339.41571 172.0
339.70694 112.0
340.085999 172.0
340.167847 232.0
340.430695 136.0
340.680328 232.0
340.964996 176.0
341.235046 132.0
341.250824 180.0
341.305267 172.0
341.330078 180.0
341.451385 216.0
341.873291 180.0
341.965302 156.0
342.056244 148.0
342.134644 196.0
342.215637 144.0
342.455719 104.0
342.876678 116.0
343.14502 296.0
343.343262 272.0
343.483398 176.0
343.947266 176.0
344.042023 224.0
344.726318 156.0
345.314606 188.0
345.618835 144.0
345.64798 96.0
345.866791 184.0
346.128662 216.0
346.445801 100.0
346.630341 244.0
346.740417 152.0
347.050232 192.0
347.08197 412.0
347.301971 188.0
347.429779 124.0
347.645844 204.0
347.678223 160.0
347.840881 108.0
347.885773 144.0
348.115265 144.0
348.892639 120.0
349.037292 188.0
349.152374 116.0
349.265747 152.0
349.407806 168.0
349.626648 264.0
349.676666 164.0
349.764496 120.0
349.792664 156.0
349.912079 152.0
350.083405 188.0
350.112457 212.0
350.297943 160.0
350.450745 276.0
350.483154 252.0
350.565765 140.0
350.646118 148.0
351.359344 188.0
351.503754 108.0
351.685883 160.0
351.737823 152.0
351.990143 176.0
352.016266 144.0
352.090027 168.0
352.173615 160.0
352.527405 208.0
352.696899 140.0
352.931793 140.0
353.009033 164.0
353.066986 256.0
353.175598 144.0
353.496613 272.0
353.938324 184.0
354.299713 108.0
354.402802 176.0
354.54007 108.0
354.739868 128.0
354.80722 164.0
354.884216 148.0
355.041534 144.0
355.126587 124.0
355.232727 160.0
355.285431 108.0
355.909058 212.0
356.036438 172.0
356.147278 164.0
356.722229 176.0
356.890686 148.0
357.135834 156.0
357.325317 176.0
357.40918 104.0
357.568542 192.0
357.625 196.0
357.841827 236.0
358.187775 164.0
358.298157 116.0
358.330475 152.0
358.401154 204.0
358.445221 188.0
358.581085 128.0
358.687347 128.0
358.739899 144.0
358.822937 176.0
358.946899 128.0
359.03421 136.0
359.098206 244.0
359.747253 144.0
359.782928 144.0
359.845398 176.0
359.879395 160.0
360.151306 160.0
360.438416 152.0
360.634949 184.0
360.820953 196.0
360.857971 208.0
361.205811 144.0
361.459412 164.0
361.86441 176.0
361.8909 160.0
362.193878 144.0
362.419434 188.0
362.583588 304.0
362.634155 104.0
362.828674 180.0
362.978394 172.0
363.19989 120.0
363.388062 192.0
363.569336 104.0
363.780731 172.0
364.040955 160.0
364.161285 152.0
364.409424 96.0
364.786926 120.0
364.907318 248.0
364.989349 112.0
365.798492 96.0
365.930786 172.0
365.960602 116.0
366.051849 116.0
366.123291 172.0
366.243073 196.0
366.543335 132.0
366.609375 112.0
366.88916 176.0
367.180695 172.0
367.400696 132.0
367.468353 200.0
367.503387 252.0
367.733917 152.0
367.783783 128.0
367.825531 148.0
367.852234 140.0
367.911652 136.0
368.098267 176.0
368.147156 160.0
368.262543 188.0
368.325745 252.0
368.359894 128.0
368.45639 164.0
368.497681 144.0
368.540619 148.0
368.666351 136.0
368.895142 152.0
369.039948 128.0
369.112762 148.0
369.277527 148.0
369.339264 164.0
369.395447 164.0
369.429108 172.0
369.668793 116.0
369.726959 112.0
369.847626 192.0
369.884796 168.0
370.032257 172.0
370.115601 168.0
370.218994 220.0
370.287933 236.0
370.431671 160.0
370.521423 260.0
370.627991 168.0
370.720856 140.0
370.781036 172.0
370.821899 312.0
370.943787 100.0
371.004852 184.0
371.056793 244.0
371.129028 260.0
371.210449 320.0
371.39682 112.0
371.452393 156.0
371.523102 136.0
371.560608 172.0
371.598816 144.0
371.883545 512.0
371.933502 348.0
371.991791 320.0
372.107422 296.0
372.173706 144.0
372.290741 200.0
372.396759 156.0
372.483673 240.0
372.51947 176.0
372.551697 264.0
372.587219 116.0
372.726593 204.0
372.789429 300.0
372.826782 204.0
372.883972 160.0
372.922699 360.0
372.987274 208.0
373.031311 288.0
373.146606 208.0
373.177521 280.0
373.235809 208.0
373.311737 420.0
373.363495 436.0
373.434357 296.0
373.506531 384.0
373.519775 284.0
373.560303 240.0
373.58728 432.0
373.601349 132.0
373.674438 304.0
373.74527 380.0
373.804291 444.0
373.834015 808.0
373.865143 888.0
373.933167 512.0
373.968964 784.0
374.005798 640.0
374.068604 1888.0
374.124329 225560.0
374.266693 248.0
374.38855 492.0
374.479309 1504.0
374.540802 584.0
374.601257 532.0
374.658478 232.0
374.70697 952.0
374.763306 11200.0
374.80838 852.0
374.935089 260.0
375.002686 288.0
375.06369 684.0
375.126495 142860.0
375.308594 96.0
375.347076 168.0
375.400757 376.0
375.465485 236.0
375.501801 228.0
375.544098 364.0
375.691437 320.0
375.759766 832.0
375.884186 132.0
376.013885 212.0
376.059509 232.0
376.12204 41740.0
376.248199 184.0
376.33667 188.0
376.351685 176.0
376.549042 160.0
376.643341 160.0
376.713654 336.0
376.75769 140.0
376.868164 128.0
376.956177 216.0
377.034973 256.0
377.050903 328.0
377.065277 260.0
377.123322 4368.0
377.23175 168.0
377.272888 176.0
377.306366 372.0
377.36322 144.0
377.404724 144.0
377.431244 236.0
377.460632 316.0
377.504944 324.0
377.529419 364.0
377.596863 476.0
377.642944 420.0
377.652893 488.0
377.766998 244.0
377.781769 272.0
377.79361 288.0
377.899567 112.0
377.943817 180.0
377.986084 208.0
378.026733 108.0
378.123535 224.0
378.271027 172.0
378.358032 100.0
378.42157 184.0
378.465637 164.0
378.530426 140.0
378.586212 176.0
378.66449 156.0
378.752228 100.0
378.815704 104.0
379.053467 208.0
379.101929 188.0
379.187836 112.0
379.503021 140.0
379.631592 120.0
379.756226 96.0
379.826599 104.0
379.873993 104.0
380.184845 152.0
380.237 104.0
381.140137 172.0
382.255463 144.0
383.09082 120.0
383.671265 116.0
383.805145 96.0
384.735107 148.0
386.484955 96.0
386.682983 116.0
387.000977 96.0
387.807495 96.0
388.666748 156.0
389.16803 108.0
391.614441 100.0
394.286011 116.0
394.752441 136.0
415.142609 96.0
470.838531 104.0
471.682281 136.0
478.66153 108.0
525.254456 140.0
548.940613 156.0
554.644592 140.0
559.743286 116.0
587.076904 112.0
603.927307 144.0
613.853027 140.0
624.996826 144.0
636.531921 112.0
653.555725 148.0
661.679626 136.0
676.301575 140.0
707.799316 164.0
723.065308 104.0
732.636353 144.0
747.020447 144.0
791.419006 152.0
821.323669 148.0
886.872803 144.0
888.87146 184.0
929.055908 152.0
961.993713 180.0
971.471619 176.0
986.707764 152.0
1043.650146 148.0
1049.219482 160.0
1066.074829 208.0
1071.058716 204.0
1073.313599 192.0
1074.011475 156.0
1092.754272 164.0
1102.725098 184.0
1107.436035 196.0
1135.194092 152.0
1136.71106 168.0
1145.451416 156.0
1149.375244 180.0
1155.280396 200.0
1157.568115 140.0
1158.875488 160.0
1158.929688 184.0
1161.526245 192.0
1169.537598 232.0
1169.946045 168.0
1171.709961 152.0
1173.373779 164.0
1177.139404 164.0
1181.240234 192.0
1182.971558 148.0
1193.028687 140.0
1194.486572 160.0
1196.358398 192.0
1196.950439 172.0
1199.341187 156.0
1199.82373 144.0
1201.89978 196.0
1203.404541 184.0
1213.014038 144.0
1213.613403 152.0
1219.038574 176.0
1220.373169 160.0
1222.265137 168.0
1222.919312 192.0
1223.239502 212.0
1223.761719 180.0
1224.423218 176.0
1226.980591 196.0
1228.765991 156.0
1230.608643 192.0
1231.006592 180.0
1231.774902 156.0
1232.445557 200.0
1239.14856 216.0
1240.403076 144.0
1241.707275 148.0
1242.054321 156.0
1243.643799 184.0
1244.696899 144.0
1244.809204 148.0
1248.540894 152.0
1252.327393 204.0
1254.455444 152.0
1255.668213 160.0
1257.425781 156.0
1261.486572 184.0
1261.875366 144.0
1264.160156 152.0
1264.379517 228.0
1266.574463 168.0
1267.364746 152.0
1267.899414 180.0
1269.317261 144.0
1271.211304 156.0
1271.764893 192.0
1271.850098 184.0
1273.447632 192.0
1273.817017 192.0
1274.499023 140.0
1279.613159 172.0
1281.201294 156.0
1281.685791 164.0
1282.070679 140.0
1282.676514 144.0
1282.819092 156.0
1284.316528 208.0
1284.373535 236.0
1287.449829 188.0
1288.992798 152.0
1290.257935 200.0
1292.103149 160.0
1294.594116 196.0
1298.335083 152.0
1302.907471 252.0
1308.71167 236.0
1309.993652 164.0
1311.557373 140.0
1311.651123 176.0
1312.18457 176.0
1313.504272 152.0
1313.973267 228.0
1314.103149 148.0
1316.320923 176.0
1317.2146 188.0
1317.474731 148.0
1317.944336 148.0
1319.013916 192.0
1320.619263 168.0
1323.723999 184.0
1325.288574 148.0
1327.695312 144.0
1328.368774 208.0
1328.761597 148.0
1329.450928 160.0
1330.481689 204.0
1332.81311 164.0
1332.987549 176.0
1333.852417 164.0
1334.870361 176.0
1336.023071 140.0
1339.105957 164.0
1340.089355 264.0
1342.290771 148.0
1347.582764 168.0
1350.609253 148.0
1352.643555 140.0
1352.724121 208.0
1354.935791 200.0
1356.291504 184.0
1356.782593 164.0
1357.779907 156.0
1358.014526 144.0
1358.183228 156.0
1358.33728 164.0
1358.40332 176.0
1358.938843 156.0
1366.028564 152.0
1366.477295 164.0
1366.543579 172.0
1367.382446 140.0
1368.022827 176.0
1370.320679 196.0
1374.516113 168.0
1374.973755 144.0
1375.195068 180.0
1377.077881 176.0
1377.402954 176.0
1380.403564 196.0
1381.056396 168.0
1381.28186 204.0
1381.41687 184.0
1382.978271 176.0
1384.088745 164.0
1386.140625 164.0
1388.134766 204.0
1388.327515 160.0
1389.247314 164.0
1389.425293 168.0
1389.855713 168.0
1397.397339 168.0
1398.736938 160.0
1400.05481 152.0
1400.777344 168.0
1401.999268 156.0
1402.453857 196.0
1403.177002 148.0
1403.974854 204.0
1408.102051 172.0
1408.438232 140.0
1409.887695 260.0
1411.113525 180.0
1411.322998 196.0
1411.52478 148.0
1412.233154 164.0
1413.222778 200.0
1416.696777 188.0
1417.221191 180.0
1417.333618 148.0
1418.2854 208.0
1419.644165 236.0
1420.902588 252.0
1421.514648 148.0
1421.795532 284.0
1422.028198 200.0
1424.034546 236.0
1424.378418 164.0
1425.768433 164.0
1426.046509 140.0
1426.324585 200.0
1426.753174 152.0
1429.122314 144.0
1429.280273 216.0
1430.89856 148.0
1431.046021 152.0
1432.050781 156.0
1433.693237 236.0
1435.555298 156.0
1436.890381 196.0
1437.071411 152.0
1437.660034 152.0
1438.263794 156.0
1438.875366 148.0
1439.849365 180.0
1441.413208 156.0
1442.924927 168.0
1443.21228 168.0
1443.310547 204.0
1443.855591 172.0
1444.42981 184.0
1445.418945 196.0
1445.647949 160.0
1446.389771 204.0
1446.450317 188.0
1446.616821 204.0
1447.608643 168.0
1450.161865 148.0
1451.162476 152.0
1451.700928 152.0
1451.814087 152.0
1452.633789 212.0
1453.506348 152.0
1455.10022 204.0
1455.502686 152.0
1456.322876 152.0
1458.017212 140.0
1459.241089 144.0
1459.598389 140.0
1460.328491 160.0
1463.402954 228.0
1463.471436 180.0
1463.936035 164.0
1464.019775 172.0
1465.264893 140.0
1468.60791 244.0
1469.988892 140.0
1470.126221 232.0
1470.233032 208.0
1471.095581 188.0
1471.721558 188.0
1472.928345 152.0
1474.532837 160.0
1475.427246 184.0
1475.480713 160.0
1476.620117 180.0
1479.22937 148.0
1480.048584 152.0
1480.416138 168.0
1480.768433 140.0
1482.131958 140.0
1484.15564 184.0
1484.689331 108.0
1484.815186 204.0
1485.349365 180.0
1486.19165 124.0
1486.610352 184.0
1488.030396 196.0
1488.237183 168.0
1488.606323 148.0
1489.082397 188.0
1490.088745 176.0
1490.326904 148.0
1491.064697 180.0
1491.167358 224.0
1491.233765 176.0
1491.333618 192.0
1491.625732 168.0
1492.894409 160.0
1493.078979 144.0
1493.986572 216.0
1495.556396 140.0
1497.026978 164.0
1497.824341 184.0
1498.251709 168.0
1498.898926 196.0
1499.13501 168.0
1499.646484 164.0
1500.471313 160.0
1500.779663 248.0
1502.312988 100.0
1502.46875 172.0
1502.993408 164.0
1503.567871 176.0
1504.212891 196.0
1504.266968 148.0
1505.868042 200.0
1506.220581 180.0
1506.784546 184.0
1507.116821 148.0
1507.518555 164.0
1508.067383 148.0
1508.546631 188.0
1508.677979 208.0
1509.257935 148.0
1510.796997 148.0
1513.552368 156.0
1514.272583 176.0
1514.605713 152.0
1514.799316 152.0
1514.92334 140.0
1515.450073 168.0
1515.574097 212.0
1516.03125 192.0
1516.504028 144.0
1518.52771 208.0
1518.900024 156.0
1520.537231 172.0
1522.866455 224.0
1524.382812 180.0
1525.943848 164.0
1526.107056 196.0
1526.993652 160.0
1527.204834 184.0
1527.27356 148.0
1527.390259 176.0
1527.825928 140.0
1529.070923 200.0
1531.204224 228.0
1531.344482 156.0
1531.726074 152.0
1532.03772 208.0
1532.357178 164.0
1532.84021 168.0
1533.900146 180.0
1534.256714 136.0
1534.549438 200.0
1535.982178 200.0
1536.208496 160.0
1538.940063 140.0
1539.588135 152.0
1540.463013 224.0
1541.994507 276.0
1542.150879 196.0
1542.940308 164.0
1543.855225 180.0
1543.980347 212.0
1545.106812 164.0
1545.787476 244.0
1546.186646 220.0
1547.118652 120.0
1547.932373 140.0
1548.206421 156.0
1548.566772 164.0
1549.710449 192.0
1549.859375 148.0
1552.336426 160.0
1554.736938 184.0
1555.074463 144.0
1555.160767 144.0
1555.223633 232.0
1557.045166 180.0
1558.702759 192.0
1559.040649 200.0
1559.362915 264.0
1560.542114 196.0
1561.957642 152.0
1565.423584 120.0
1565.531006 196.0
1565.869629 164.0
1567.256104 208.0
1567.721069 160.0
1568.165283 132.0
1568.327881 160.0
1568.396606 196.0
1569.021606 192.0
1569.526245 160.0
1570.000366 160.0
1570.29126 220.0
1570.567261 176.0
1571.979492 200.0
1572.279419 208.0
1575.137695 152.0
1576.891846 168.0
1576.986694 140.0
1577.045166 160.0
1578.29895 220.0
1580.561768 132.0
1581.455566 176.0
1583.688354 172.0
1586.303345 140.0
1586.628296 200.0
1586.818604 144.0
1586.921753 184.0
1587.088257 152.0
1587.199219 188.0
1587.27063 164.0
1587.744385 200.0
1588.166748 148.0
1589.787476 180.0
1589.983765 192.0
1590.293213 152.0
1590.444092 264.0
1592.786499 148.0
1592.873901 200.0
1593.032715 156.0
1593.421997 176.0
1593.853516 208.0
1594.022217 188.0
1594.081543 188.0
1594.836548 284.0
1595.321533 152.0
1595.385132 148.0
1597.190186 180.0
1597.768433 164.0
1599.768555 152.0
1599.975464 164.0
1600.628418 172.0
1601.065918 192.0
1601.281372 148.0
1601.453857 148.0
1601.687622 152.0
1601.90271 144.0
1602.093872 176.0
1602.366699 184.0
1603.631836 200.0
1604.574707 188.0
1604.803711 212.0
1605.800537 168.0
1607.404053 176.0
1607.531738 160.0
1607.924194 168.0
1608.617188 152.0
1609.955078 128.0
1610.492065 196.0
1610.613525 260.0
1612.47522 164.0
1612.667114 172.0
1613.338501 200.0
1613.738281 208.0
1614.178101 172.0
1614.420654 168.0
1614.545898 172.0
1614.873901 148.0
1615.737793 184.0
1615.924927 200.0
1616.105835 160.0
1616.385864 156.0
1616.449951 160.0
1616.657959 144.0
1616.962158 148.0
1617.562378 164.0
1618.197998 196.0
1619.019653 144.0
1619.235962 176.0
1619.299927 192.0
1619.476196 156.0
1619.765625 188.0
1620.605713 168.0
1620.669922 164.0
1620.942261 192.0
1621.254883 140.0
1622.272827 172.0
1622.38501 192.0
1622.761841 152.0
1622.88208 212.0
1623.07605 152.0
1623.269531 140.0
1624.366211 156.0
1625.569336 152.0
1625.869141 232.0
1626.050781 160.0
1626.813232 156.0
1626.917725 196.0
1627.784912 148.0
1628.395264 152.0
1629.36731 188.0
1630.813721 200.0
1631.007568 136.0
1632.15625 156.0
1632.510132 152.0
1632.783569 144.0
1633.113281 188.0
1633.362671 188.0
1633.571777 168.0
1634.13501 176.0
1634.569458 160.0
1634.711792 184.0
1635.060425 156.0
1635.792847 196.0
1636.243652 164.0
1637.322754 188.0
1637.564331 220.0
1637.797974 140.0
1638.627686 160.0
1640.086304 144.0
1640.303955 140.0
1641.884277 192.0
1642.658691 188.0
1642.731201 180.0
1642.81189 152.0
1643.868896 148.0
1644.909912 172.0
1644.967163 180.0
1645.321777 236.0
1645.757812 172.0
1646.185791 164.0
1646.840454 124.0
1647.146851 176.0
1647.268066 164.0
1647.340698 148.0
1647.478027 160.0
1647.615479 176.0
1649.06189 160.0
1649.231567 172.0
1649.385254 196.0
1650.072388 200.0
1651.932495 200.0
1652.345093 164.0
1653.104736 140.0
1653.566895 192.0
1653.898804 144.0
1654.457397 184.0
1654.578613 172.0
1654.935059 140.0
1655.14563 160.0
1655.885742 140.0
1656.047119 184.0
1656.33606 292.0
1656.684448 180.0
1657.891724 148.0
1658.201416 156.0
1658.369873 212.0
1658.434814 156.0
1658.653687 184.0
1658.872559 180.0
1658.981323 200.0
1659.363159 128.0
1659.780518 216.0
1659.902222 204.0
1660.226562 200.0
1660.443726 184.0
1660.89978 184.0
1661.431274 196.0
1661.800293 156.0
1662.116699 148.0
1662.246582 180.0
1664.73877 188.0
1665.604248 164.0
1666.355591 164.0
1666.972778 172.0
1667.473145 136.0
1667.858643 184.0
1668.224854 196.0
1668.47644 144.0
1668.777222 180.0
1669.265137 160.0
1669.972656 192.0
1670.110962 184.0
1670.444458 148.0
1670.549683 172.0
1671.204346 180.0
1671.755249 160.0
1672.413696 168.0
1673.219604 188.0
1674.237427 180.0
1674.449219 164.0
1674.970459 176.0
1675.076416 184.0
1675.426636 160.0
1675.662964 140.0
1676.151855 140.0
1676.966797 160.0
1677.129761 204.0
1677.341797 172.0
1677.689453 444.0
1677.858521 164.0
1678.059204 176.0
1678.116211 152.0
1678.532104 188.0
1678.767212 172.0
1678.858276 212.0
1678.964355 208.0
1679.225342 164.0
1679.346069 188.0
1679.633179 172.0
1679.910522 192.0
1680.681274 136.0
1681.668579 228.0
1682.440308 148.0
1683.656982 252.0
1683.83667 152.0
1684.465576 140.0
1685.961914 148.0
1686.701538 104.0
1687.927246 156.0
1688.55249 204.0
1688.783325 244.0
1688.846924 148.0
1689.255981 232.0
1689.795898 140.0
1690.106812 152.0
1690.466919 152.0
1690.548706 272.0
1690.835205 216.0
1690.900635 164.0
1692.038452 156.0
1692.311279 236.0
1692.539307 164.0
1693.053833 152.0
1693.930298 148.0
1694.184204 148.0
1694.474243 292.0
1694.729248 236.0
1695.437866 144.0
1695.937866 148.0
1696.593628 140.0
1696.8396 156.0
1697.397217 164.0
1697.897461 168.0
1698.988403 156.0
1699.32373 168.0
1699.767822 144.0
1699.849854 176.0
1700.019043 184.0
1700.383301 232.0
1700.848511 108.0
1700.921875 164.0
1702.67395 184.0
1702.951294 176.0
1703.248901 200.0
1704.267578 164.0
1704.768921 168.0
1704.875732 164.0
1705.007202 168.0
1706.560913 140.0
1706.733521 168.0
1707.004883 196.0
1707.087158 168.0
1707.481934 184.0
1707.860229 184.0
1707.917847 144.0
1708.71582 216.0
1709.332886 148.0
1709.917236 196.0
1710.114746 164.0
1710.197021 152.0
1710.636108 180.0
1711.011963 204.0
1711.135498 160.0
1712.555786 152.0
1712.741333 268.0
1712.918579 200.0
1713.243896 256.0
1713.968994 156.0
1714.282104 196.0
1714.529297 160.0
1714.924927 224.0
1715.032104 180.0
1715.345337 208.0
1715.856445 164.0
1715.914185 140.0
1716.021362 164.0
1716.268677 148.0
1716.466553 156.0
1717.109863 152.0
1719.663208 152.0
1719.915161 196.0
1720.245361 204.0
1720.460083 180.0
1720.732422 192.0
1721.095825 208.0
1721.830688 176.0
1722.450195 196.0
1722.937622 196.0
1723.135864 192.0
1723.215454 172.0
1724.537231 168.0
1725.003662 148.0
1725.408691 168.0
1725.838623 176.0
1726.921997 228.0
1727.394409 180.0
1727.641724 208.0
1728.132935 128.0
1728.80835 168.0
1729.518066 156.0
1729.994751 164.0
1731.118042 164.0
1731.352905 124.0
1732.169312 152.0
1732.493042 200.0
1733.437622 140.0
1733.545288 156.0
1734.258911 312.0
1734.457031 172.0
1734.788574 152.0
1735.059326 304.0
1735.228027 148.0
1735.385498 152.0
1735.598999 196.0
1735.957642 156.0
1736.181519 208.0
1736.807861 180.0
1736.918945 176.0
1737.243286 180.0
1737.317993 164.0
1737.450684 172.0
1737.599976 200.0
1738.612427 160.0
1739.502686 184.0
1740.820679 184.0
1740.878784 180.0
1740.961792 152.0
1741.70105 176.0
1741.80896 164.0
1741.867188 164.0
1742.049927 208.0
1742.108032 160.0
1742.206177 152.0
1742.324097 144.0
1742.689575 176.0
1742.901978 172.0
1743.287964 148.0
1743.911255 172.0
1744.792358 168.0
1745.389404 196.0
1745.418091 156.0
1745.565674 144.0
1745.758545 204.0
1746.422241 164.0
1746.609009 180.0
1746.705078 140.0
1748.402466 140.0
1748.810303 208.0
1748.893555 224.0
1749.068359 204.0
1749.156372 124.0
1749.625732 112.0
1749.825928 140.0
1750.111572 156.0
1750.633545 312.0
1750.728638 180.0
1751.05835 192.0
1751.799683 208.0
1751.98291 184.0
1753.836182 140.0
1753.958008 184.0
1754.216431 224.0
1754.284668 168.0
1754.741577 216.0
1755.542114 168.0
1756.032227 224.0
1756.167603 180.0
1756.843262 188.0
1757.569214 264.0
1758.195068 180.0
1758.901001 180.0
1761.209106 272.0
1762.537476 216.0
1762.880127 344.0
1763.053345 224.0
1763.130859 168.0
1764.000122 140.0
1764.158936 148.0
1764.576904 224.0
1764.996216 216.0
1765.087036 148.0
1765.153931 196.0
1765.379639 140.0
1765.47998 176.0
1766.835083 180.0
1767.061035 180.0
1767.638306 168.0
1767.730347 156.0
1767.818115 152.0
1768.676147 164.0
1769.844238 136.0
1769.982178 156.0
1770.099487 160.0
1770.183228 188.0
1770.476318 144.0
1770.794556 144.0
1770.878296 152.0
1771.003906 148.0
1771.118042 136.0
1771.340332 192.0
1771.441772 148.0
1771.496338 180.0
1771.866821 216.0
1772.026001 188.0
1772.161621 156.0
1772.310791 196.0
1772.796875 220.0
1773.168457 108.0
1773.243408 156.0
1773.760742 208.0
1773.94397 164.0
1774.145386 144.0
1774.230225 172.0
1774.531982 172.0
1774.741577 140.0
1775.429199 172.0
1775.924072 144.0
1778.214722 152.0
1778.357422 144.0
1778.441284 144.0
1778.550415 180.0
1779.070923 144.0
1779.280762 164.0
1780.757446 160.0
1781.077881 196.0
1781.884399 188.0
1782.039062 248.0
1782.38855 176.0
1782.5448 120.0
1784.229248 180.0
1784.397339 164.0
1784.625732 192.0
1785.035645 176.0
1785.154175 180.0
1785.986816 176.0
1786.415771 152.0
1786.769165 224.0
1786.870117 244.0
1786.971069 160.0
1788.014526 172.0
1788.781982 132.0
1788.94043 184.0
1790.072021 248.0
1790.325195 176.0
1790.88562 192.0
1791.433105 232.0
1792.232422 160.0
1792.545288 184.0
1792.673584 196.0
1793.418091 188.0
1793.514526 152.0
1794.610474 140.0
1795.026367 164.0
1796.221313 140.0
1797.081787 172.0
1797.52063 156.0
1797.621826 144.0
1798.263306 140.0
1799.276245 172.0
1800.559692 228.0
1800.77771 164.0
1801.759277 156.0
1801.826782 212.0
1802.179932 220.0
1802.291504 144.0
1802.394165 140.0
1803.692017 212.0
1803.787476 172.0
1803.905762 172.0
1803.963501 148.0
1804.210083 148.0
1805.816772 140.0
1805.911377 248.0
1806.795898 220.0
1806.972534 108.0
1807.153442 148.0
1808.143433 140.0
1808.480469 212.0
1808.786743 176.0
1808.913696 200.0
1809.150757 140.0
1809.616455 148.0
1810.055664 124.0
1810.399292 196.0
1810.589844 156.0
1810.691895 164.0
1810.759644 232.0
1811.014404 148.0
1811.199219 168.0
1811.674438 220.0
1811.733765 148.0
1811.945557 148.0
1812.038818 376.0
1812.236816 128.0
1812.307739 188.0
1812.767456 148.0
1813.013184 156.0
1813.20813 368.0
1814.142456 200.0
1814.496582 172.0
1815.598999 244.0
1816.014526 140.0
1816.277466 196.0
1816.472656 156.0
1816.990112 140.0
1817.183716 204.0
1818.212036 168.0
1818.57605 176.0
1818.848633 152.0
1819.595703 196.0
1819.952271 156.0
1820.09668 300.0
1820.342896 204.0
1820.420166 160.0
1820.618164 168.0
1821.147705 196.0
1821.73584 144.0
1821.87439 264.0
1822.160645 160.0
1822.249512 184.0
1822.585205 180.0
1823.863159 224.0
1823.96228 172.0
1824.468262 144.0
1824.75293 164.0
1825.109985 160.0
1825.379395 180.0
1825.475586 268.0
1826.479248 148.0
1826.611328 172.0
1826.723633 116.0
1827.07373 172.0
1827.218506 120.0
1827.398071 196.0
1827.740845 140.0
1828.206421 152.0
1828.551636 188.0
1828.850952 160.0
1829.287354 144.0
1829.411621 160.0
1829.508667 188.0
1829.89978 180.0
1830.181274 180.0
1830.40271 164.0
1830.55603 172.0
1831.636108 160.0
1831.959106 208.0
1832.293091 192.0
1833.27356 172.0
1833.44397 144.0
1833.796997 144.0
1834.074707 184.0
1834.21106 156.0
1834.54834 128.0
1834.833374 148.0
1834.944214 172.0
1835.217041 140.0
1835.464355 228.0
1835.549683 144.0
1835.993042 148.0
1836.45874 196.0
1836.709473 148.0
1837.032837 156.0
1837.315186 140.0
1837.620972 152.0
1838.270874 176.0
1838.363403 132.0
1838.603638 168.0
1839.423096 236.0
1839.576782 196.0
1840.223511 212.0
1840.464722 148.0
1840.550049 144.0
1840.685303 180.0
1841.088013 164.0
1841.156372 156.0
1841.34375 200.0
1841.503052 176.0
1841.768433 204.0
1841.856934 252.0
1842.164307 280.0
1842.232666 176.0
1842.582886 188.0
1842.813599 224.0
1842.950439 164.0
1843.095581 144.0
1843.193237 232.0
1843.486694 232.0
1843.642456 160.0
1843.727905 164.0
1844.052734 152.0
1844.343262 160.0
1844.403076 184.0
1844.463013 156.0
1844.591187 176.0
1845.263062 192.0
1845.40332 180.0
1845.753906 188.0
1845.993408 188.0
1846.292725 212.0
1846.484131 220.0
1847.105225 220.0
1847.185303 136.0
1847.336182 184.0
1847.404663 180.0
1847.692139 224.0
1847.821899 172.0
1848.097656 148.0
1849.096558 164.0
1849.723755 140.0
1850.036499 296.0
1850.402832 172.0
1850.473633 204.0
1850.870972 260.0
1850.9823 156.0
1851.264893 140.0
1851.590332 148.0
1851.685181 156.0
1852.759155 184.0
1852.948608 220.0
1853.774902 176.0
1854.160645 144.0
1854.332031 140.0
1854.477661 224.0
1854.734863 168.0
1855.511108 184.0
1855.772217 212.0
1855.895874 140.0
1856.089478 148.0
1856.269531 152.0
1856.578247 140.0
1857.075684 216.0
1857.266602 160.0
1857.656616 144.0
1857.796265 156.0
1858.286011 200.0
1858.371094 148.0
1859.049683 144.0
1859.512451 160.0
1859.752319 136.0
1860.096069 176.0
1860.199097 164.0
1860.671265 164.0
1861.246216 116.0
1861.426392 156.0
1861.519531 184.0
1861.830444 204.0
1861.916382 184.0
1863.307983 164.0
1864.064087 148.0
1864.639526 196.0
1864.726807 148.0
1865.104004 356.0
1865.877686 148.0
1866.12146 184.0
1866.230225 140.0
1866.574219 144.0
1866.978394 156.0
1867.244995 216.0
1867.520264 192.0
1868.229858 184.0
1868.690186 192.0
1868.776245 200.0
1868.888062 288.0
1869.369995 172.0
1869.894897 144.0
1871.091431 148.0
1871.46167 176.0
1871.657715 172.0
1871.771606 144.0
1871.848267 148.0
1872.191895 184.0
1872.701782 148.0
1872.856812 208.0
1873.101929 196.0
1874.063965 160.0
1874.27832 160.0
1874.517334 164.0
1874.803955 328.0
1874.864258 196.0
1875.329712 152.0
1875.519409 156.0
1875.821045 200.0
1876.458984 192.0
1876.519409 140.0
1876.924683 176.0
1877.278198 192.0
1877.624512 156.0
1878.477051 144.0
1879.650513 216.0
1879.754028 176.0
1879.895874 156.0
1880.280396 228.0
1880.660156 208.0
1881.08313 208.0
1881.255859 240.0
1881.90332 208.0
1882.451416 220.0
1882.922363 336.0
1883.876953 180.0
1884.321777 184.0
1884.529053 176.0
1884.995728 184.0
1885.474854 152.0
1885.911865 140.0
1885.989624 188.0
1886.283447 140.0
1886.439087 176.0
1886.575073 284.0
1886.7146 260.0
1887.27771 164.0
1887.355591 176.0
1888.168457 140.0
1888.341431 196.0
1888.618164 176.0
1889.215088 204.0
1889.324829 176.0
1889.742798 188.0
1889.860596 200.0
1890.003296 152.0
1890.478394 212.0
1890.980347 152.0
1891.118774 164.0
1891.664185 148.0
1891.894775 232.0
1892.554321 128.0
1893.097412 152.0
1893.37854 184.0
1893.851318 268.0
1894.022827 180.0
1894.176147 104.0
1894.315918 216.0
1894.911743 196.0
1895.041748 164.0
1895.275757 184.0
1895.339966 164.0
1895.674316 144.0
1895.734985 140.0
1896.324341 144.0
1896.697021 192.0
1897.026489 144.0
1897.113159 184.0
1897.599121 188.0
1897.676636 172.0
1897.798096 160.0
1898.058228 200.0
1898.283691 204.0
1898.43103 212.0
1898.653931 228.0
1898.769287 208.0
1898.847412 312.0
1899.178101 160.0
1899.480591 144.0
1899.600952 168.0
1900.41748 140.0
1900.842407 132.0
1901.276611 144.0
1901.369141 200.0
1901.970947 176.0
1902.164185 124.0
1902.260376 144.0
1902.717529 140.0
1903.403442 164.0
1903.559814 156.0
1903.636597 152.0
1903.872437 140.0
1903.985352 168.0
1904.0896 220.0
1904.228516 200.0
1904.341431 152.0
1904.475586 172.0
1905.149292 176.0
1905.383789 144.0
1905.783569 196.0
1906.084473 216.0
1906.366943 176.0
1906.982788 152.0
1907.121826 216.0
1907.58252 176.0
1907.947632 144.0
1908.025879 168.0
1908.195557 156.0
1908.304199 176.0
1908.382446 160.0
1908.582397 196.0
1908.730225 148.0
1909.017212 172.0
1909.250244 160.0
1909.786499 140.0
1909.852051 172.0
1910.191406 232.0
1910.386597 208.0
1910.617676 200.0
1911.078735 256.0
1911.287598 140.0
1911.613403 172.0
1913.002686 128.0
1913.324219 152.0
1913.450562 192.0
1914.656494 232.0
1914.94397 156.0
1915.640869 296.0
1916.224487 152.0
1917.052368 148.0
1917.252808 156.0
1917.749512 188.0
1917.845459 156.0
1917.976196 148.0
1918.24646 180.0
1918.444824 188.0
1919.501953 176.0
1919.592041 192.0
1920.194092 152.0
1920.278076 172.0
1920.495483 156.0
1920.749146 156.0
1920.849976 136.0
1920.993286 152.0
1921.28125 164.0
1922.245483 120.0
1922.470825 192.0
1922.581299 192.0
1923.022095 176.0
1924.117676 144.0
1924.216675 164.0
1924.577515 216.0
1924.608032 144.0
1924.755615 168.0
1924.877319 180.0
1924.990845 216.0
1925.935181 180.0
1926.017944 132.0
1926.545532 164.0
1926.676514 268.0
1926.97583 140.0
1927.031738 232.0
1927.159546 132.0
1927.248657 108.0
1927.524048 188.0
1928.389282 148.0
1928.537842 140.0
1928.752808 176.0
1928.878784 176.0
1928.991211 196.0
1929.088623 144.0
1929.222168 168.0
1929.805542 148.0
1929.989136 204.0
1930.240601 208.0
1930.758667 164.0
1931.047241 188.0
1931.855835 228.0
1932.018188 168.0
1932.105713 152.0
1932.893188 172.0
1933.386597 128.0
1933.613892 236.0
1933.757446 196.0
1933.961914 204.0
1934.281494 192.0
1934.535767 180.0
1934.669922 156.0
1934.958862 152.0
1935.49292 196.0
1935.890625 208.0
1936.21106 148.0
1936.649048 176.0
1936.75415 140.0
1936.99939 264.0
1937.454956 204.0
1937.796631 156.0
1937.945557 172.0
1938.287231 152.0
1938.418701 200.0
1938.703857 148.0
1938.865723 172.0
1939.067261 176.0
1939.295166 148.0
1939.742188 152.0
1939.93457 128.0
1940.162964 184.0
1940.426025 156.0
1940.575073 156.0
1940.658203 224.0
1940.855591 156.0
1941.064941 188.0
1941.241455 200.0
1941.574707 164.0
1941.636108 140.0
1941.69751 184.0
1941.890503 200.0
1942.495728 156.0
1943.147583 220.0
1943.539673 168.0
1943.64502 144.0
1944.08374 188.0
1944.768799 172.0
1945.049194 224.0
1945.192383 264.0
1945.299316 168.0
1945.549561 196.0
1945.72522 144.0
1946.168213 200.0
1946.234497 148.0
1946.410034 192.0
1946.589966 132.0
1946.725952 156.0
1946.941284 156.0
1947.23584 120.0
1947.753784 168.0
1947.815308 152.0
1948.447876 176.0
1948.658691 172.0
1948.887085 156.0
1949.162964 224.0
1949.431885 208.0
1949.503662 152.0
1950.363525 164.0
1950.438721 188.0
1951.29541 196.0
1951.452026 168.0
1951.554565 144.0
1951.910889 176.0
1951.972412 232.0
1952.169556 176.0
1952.566528 224.0
1952.994263 112.0
1953.107056 208.0
1953.282959 144.0
1953.464966 200.0
1953.841797 184.0
1954.032959 168.0
1954.127441 188.0
1954.384033 148.0
1954.514648 176.0
1954.866577 188.0
1954.997192 188.0
1955.491455 172.0
1955.685181 216.0
1956.059814 140.0
1956.248535 208.0
1956.820801 140.0
1957.058472 140.0
1957.137573 168.0
1957.248535 132.0
1957.320312 148.0
1957.62207 240.0
1958.097656 336.0
1958.934448 192.0
1959.345703 220.0
1959.953613 224.0
1960.088623 140.0
1960.185547 212.0
1960.45874 196.0
1960.546509 108.0
1961.056641 200.0
1961.165649 152.0
1961.736816 152.0
1962.036499 156.0
1962.19519 180.0
1962.371582 140.0
1962.521484 160.0
1962.7771 192.0
1963.050537 140.0
1963.182739 244.0
1963.456177 168.0
1963.517944 160.0
1963.606079 180.0
1963.694336 180.0
1964.049438 136.0
1964.223511 152.0
1964.285278 176.0
1964.391724 180.0
1964.851807 128.0
1965.829346 380.0
1966.078125 172.0
1966.146973 164.0
1966.320312 96.0
1966.480591 196.0
1966.694214 160.0
1966.755981 144.0
1966.929565 188.0
1967.406372 132.0
1967.515747 136.0
1967.763184 200.0
1968.224731 100.0
1968.475708 128.0
1968.716064 236.0
1968.901489 188.0
1969.127686 160.0
1969.413818 220.0
1969.639038 148.0
1969.979126 152.0
1970.173462 156.0
1970.39917 112.0
1970.703613 220.0
1971.294312 192.0
1971.640015 128.0
1971.843628 144.0
1971.998779 192.0
1972.276733 172.0
1972.612549 204.0
1972.870239 276.0
1973.010376 164.0
1973.081177 188.0
1973.40625 180.0
1973.717773 164.0
1974.204102 144.0
1974.395142 136.0
1974.522461 156.0
1974.659058 208.0
1975.002563 204.0
1975.601685 140.0
1976.271606 160.0
1976.751831 144.0
1976.967896 260.0
1977.415649 144.0
1977.762329 140.0
1977.875854 152.0
1978.184814 184.0
1978.274292 148.0
1978.406982 160.0
1978.521973 188.0
1978.663818 308.0
1979.017944 180.0
1979.239258 204.0
1979.505005 168.0
1979.602417 192.0
1979.953979 308.0
1980.21106 324.0
1980.494873 144.0
1980.727173 152.0
1980.930908 276.0
1981.444824 200.0
1981.542236 156.0
1981.672729 192.0
1981.974365 260.0
1982.151367 172.0
1982.242188 172.0
1982.511719 184.0
1983.456421 212.0
1983.695801 160.0
1984.171997 164.0
1984.582397 144.0
1984.881714 148.0
1985.40979 128.0
1985.569214 152.0
1985.790405 128.0
1985.939209 236.0
1986.302856 164.0
1986.453735 156.0
1986.556396 200.0
1986.729614 116.0
1986.985962 172.0
1987.202393 176.0
1987.544922 164.0
1987.855591 284.0
1988.020142 264.0
1988.121826 236.0
1988.201904 236.0
1988.352539 160.0
1988.86731 160.0
1989.018188 168.0
1989.133667 180.0
1989.392212 148.0
1989.572998 196.0
1989.762573 128.0
1990.432983 224.0
1990.585571 204.0
1990.85083 168.0
1991.104736 192.0
1991.449585 160.0
1991.619873 308.0
1991.895264 148.0
1992.05542 196.0
1992.614014 172.0
1992.783691 156.0
1992.89917 156.0
1993.485718 152.0
1993.77002 140.0
1993.912231 180.0
1994.187744 176.0
1994.438232 220.0
1994.644165 116.0
1995.015137 164.0
1995.325684 144.0
1995.630249 140.0
1995.876953 168.0
1996.157227 140.0
1996.446045 196.0
1996.776123 136.0
1997.317627 164.0
1997.668579 172.0
1997.918091 136.0
1998.340698 176.0
1998.438599 144.0
1998.550781 204.0
1998.75415 220.0
1998.906494 160.0
1999.098877 216.0
1999.466919 208.0
1999.755737 192.0
1999.871338 196.0
1999.942627 156.0
2000.174072 204.0
2000.654785 204.0
2000.948486 160.0
2001.099854 152.0
2002.052734 196.0
2002.358398 164.0
2002.755493 152.0
2003.450195 160.0
