>compound MLS001160493-01!1-[2-[(4,8,8-trimethyl-2-oxo-9,10-dihydropyrano[2,3-h]chromen-5-yl)oxy]acetyl]piperidine-4-carboxylic acid
>formula C23H27NO7
>ionization [M+H]+
>parentmass 430.187042
#inchi InChI=1S/C23H27NO7/c1-13-10-19(26)30-21-15-4-7-23(2,3)31-16(15)11-17(20(13)21)29-12-18(25)24-8-5-14(6-9-24)22(27)28/h10-11,14H,4-9,12H2,1-3H3,(H,27,28)
#inchikey OGAYRHSSFLMCEZ
#Ion_Source LC-ESI
#Instrument qTof
#Compound_Source NIH Natural Product Library
#PI Dorrestein
#Data_Collector VVP/LMS
#Scan -1
#Precursor_MZ 430.187
#ExactMass 429.179
#Charge 1
#CAS_Number N/A
#Pubmed_ID N/A
#Smiles Cc1cc(=O)oc2c3CCC(C)(C)Oc3cc(OCC(=O)N4CCC(CC4)C(=O)O)c12
#INCHI_AUX N/A
#Library_Class 1
#SpectrumID CCMSLIB00000080400
#IonMode Positive
#UpdateWorkflowName UPDATE-SINGLE-ANNOTATED-GOLD
#LibraryQualityString Gold
#TaskID b1d8e8f6646f4e71acdff9ca3d919d08
##Scan# 1986
#SpectrumFile p2-D08_GD8_01_18020.mzXML
#LibraryName NIH_Natural_Products_Library.mgf
#MQScore -1
#Organism NIH_Natural_Products_Library
#TIC_Query 0
#RT_Query -1
#MZErrorPPM -1
#SharedPeaks 0
#MassDiff 0
#LibMZ -1
#SpecMZ 430.187
#SpecCharge 0
#internalFilename spec-00000.mgf

>collision 10
95.07486 44.0
95.148621 116.0
95.354523 176.0
95.556755 208.0
95.648216 180.0
96.014511 48.0
96.080994 672.0
96.369781 156.0
96.403 160.0
96.516373 132.0
96.798141 156.0
97.563332 124.0
97.634117 196.0
97.647888 108.0
97.925392 80.0
98.059364 124.0
98.189377 220.0
98.215126 36.0
98.23288 188.0
98.301933 188.0
98.426292 164.0
98.449989 152.0
98.613968 76.0
98.738518 196.0
98.778076 204.0
98.805099 132.0
98.821602 188.0
98.972031 164.0
99.044273 2140.0
99.094826 228.0
99.140404 116.0
99.348587 144.0
99.465668 36.0
99.5709 164.0
99.594734 160.0
99.763634 152.0
99.77755 216.0
99.801414 144.0
99.912788 160.0
100.047424 116.0
100.066032 220.0
100.15963 132.0
100.301102 172.0
100.580353 32.0
100.614288 260.0
100.710136 152.0
100.776062 112.0
101.081985 204.0
101.154037 152.0
101.240128 204.0
101.258156 92.0
101.492615 120.0
101.552773 220.0
101.649483 196.0
101.851845 176.0
101.932205 148.0
102.095032 208.0
102.580261 192.0
102.675026 224.0
102.699234 68.0
102.733521 68.0
102.810196 172.0
103.052505 176.0
103.268318 184.0
103.416504 104.0
103.465088 180.0
103.764923 84.0
103.965736 212.0
104.16674 176.0
104.422844 128.0
104.443184 168.0
104.465561 116.0
104.522522 136.0
104.569328 180.0
105.070358 168.0
105.191002 156.0
105.205292 152.0
105.35437 108.0
105.411575 164.0
105.810425 136.0
105.988617 160.0
106.066696 160.0
106.427559 176.0
106.820091 160.0
106.906502 160.0
107.102089 156.0
107.308167 236.0
107.413338 184.0
107.4711 116.0
107.677528 84.0
107.737434 168.0
107.782883 148.0
107.813881 160.0
107.93998 176.0
108.124092 104.0
108.140648 224.0
108.360512 116.0
108.436821 180.0
108.552917 156.0
108.889107 64.0
108.990898 232.0
109.029961 288.0
109.35482 132.0
109.444336 240.0
109.836128 124.0
110.061523 572.0
110.099106 180.0
110.456512 144.0
110.764214 152.0
110.83754 156.0
110.914513 208.0
111.01152 68.0
111.044289 352.0
111.068512 160.0
111.122688 156.0
111.303192 176.0
111.351166 180.0
111.721443 152.0
111.763519 116.0
111.828751 104.0
112.049858 132.0
112.076569 1412.0
112.102531 180.0
112.21003 180.0
112.38298 36.0
112.492722 188.0
112.598289 104.0
112.993568 224.0
113.080063 160.0
113.720406 160.0
114.002861 172.0
114.054878 472.0
114.086792 344.0
114.115517 124.0
114.192604 80.0
114.283546 176.0
114.86087 208.0
115.037987 144.0
115.193871 168.0
115.225914 160.0
115.515388 176.0
115.923447 152.0
116.14856 136.0
116.339539 120.0
116.960777 168.0
117.092117 164.0
117.458527 180.0
117.730469 128.0
117.961655 108.0
118.190895 200.0
118.463692 136.0
118.569855 140.0
118.626213 188.0
118.758484 152.0
118.986107 196.0
119.049294 156.0
119.151382 140.0
119.714729 224.0
119.747398 96.0
119.932594 196.0
120.045456 188.0
120.144112 52.0
120.242302 200.0
120.283775 208.0
120.368919 132.0
120.388573 112.0
120.569893 176.0
120.730682 228.0
120.860733 140.0
120.978912 156.0
121.016136 180.0
121.068687 144.0
121.268051 124.0
121.507072 148.0
121.667274 200.0
121.897896 208.0
122.096886 168.0
123.076355 148.0
123.350296 112.0
123.509506 136.0
123.88942 172.0
124.007683 216.0
124.076439 1256.0
124.360336 164.0
124.409172 148.0
124.640152 164.0
124.918053 188.0
124.960327 156.0
125.081169 224.0
125.294273 168.0
125.416832 68.0
125.436897 176.0
125.548378 140.0
125.744698 148.0
125.809433 108.0
125.856316 220.0
125.903206 208.0
126.090149 1188.0
126.182518 124.0
126.285378 196.0
126.332352 216.0
126.392761 152.0
126.408424 156.0
126.427361 56.0
126.495712 160.0
126.522575 72.0
126.784637 72.0
127.096336 192.0
127.677414 168.0
127.720871 196.0
127.78611 160.0
127.801857 88.0
127.961662 48.0
127.980949 176.0
127.98571 100.0
127.993874 144.0
128.071991 44700.0
128.098007 320.0
128.171127 64.0
128.224136 100.0
128.281555 92.0
128.32106 128.0
128.387527 68.0
128.441696 228.0
128.473618 96.0
128.50708 48.0
128.567657 76.0
128.615402 48.0
128.648987 64.0
128.687637 148.0
128.72377 60.0
128.827667 84.0
128.886398 48.0
128.929337 40.0
129.035446 132.0
129.042923 176.0
129.074982 3484.0
129.200668 96.0
129.499466 36.0
129.544769 64.0
129.615005 148.0
129.685257 60.0
129.712448 72.0
129.814026 140.0
129.857574 136.0
129.92009 56.0
129.976669 212.0
130.017746 232.0
130.085922 1468.0
130.120117 284.0
130.148041 100.0
130.163925 52.0
130.22525 100.0
130.413834 84.0
130.75499 52.0
130.950775 132.0
131.05101 52.0
131.087906 164.0
131.112534 188.0
131.201431 48.0
131.598404 148.0
131.660065 224.0
131.847397 144.0
131.929672 108.0
132.532852 168.0
132.696609 152.0
132.870911 164.0
132.921402 156.0
133.064377 148.0
133.275009 56.0
133.395065 228.0
133.4198 68.0
134.025101 176.0
134.629456 212.0
135.082474 204.0
135.260651 124.0
135.381042 176.0
135.526978 124.0
135.795883 140.0
136.16954 48.0
136.241547 144.0
136.625137 108.0
136.783371 68.0
136.799667 80.0
136.829926 188.0
136.92308 204.0
137.100128 176.0
137.207352 152.0
137.375259 52.0
137.496582 120.0
138.064285 196.0
138.17421 80.0
138.24675 176.0
138.32164 80.0
138.490234 164.0
138.744415 184.0
138.820679 192.0
139.029465 164.0
139.409897 80.0
139.468658 144.0
139.489807 200.0
140.074646 112.0
140.504776 56.0
140.698288 172.0
140.764404 232.0
140.834854 116.0
140.877777 124.0
141.026642 172.0
141.099915 44.0
141.293839 176.0
141.513947 48.0
141.551834 44.0
141.620514 112.0
141.698685 60.0
141.715271 96.0
141.788727 96.0
141.840866 92.0
141.878799 204.0
141.916733 184.0
141.985504 96.0
142.013962 124.0
142.040054 40.0
142.087891 38784.0
142.141068 104.0
142.161423 228.0
142.196655 40.0
142.225128 48.0
142.264069 60.0
142.313995 120.0
142.383026 104.0
142.434082 252.0
142.478088 144.0
142.529114 52.0
142.586151 36.0
142.626556 52.0
142.76445 124.0
142.933334 120.0
142.949997 60.0
142.980927 104.0
143.047577 144.0
143.090027 3516.0
143.130905 48.0
143.201157 80.0
143.247604 84.0
143.303772 104.0
143.483521 52.0
143.521667 72.0
143.63945 104.0
143.760208 116.0
143.827042 152.0
143.84375 52.0
143.877167 132.0
143.941147 176.0
143.978394 132.0
144.049103 192.0
144.091858 316.0
144.12616 104.0
144.257004 92.0
144.279221 296.0
144.293869 152.0
144.335892 164.0
144.658875 180.0
144.860031 68.0
145.063705 112.0
145.094879 88.0
145.195587 176.0
145.646805 156.0
145.807785 52.0
146.032547 164.0
146.99501 236.0
147.045624 508.0
147.079468 208.0
147.137405 60.0
147.446594 160.0
148.002975 144.0
148.196732 124.0
148.344574 92.0
148.776382 48.0
148.994949 120.0
149.02652 132.0
149.061234 212.0
149.114014 180.0
151.040192 128.0
151.07933 184.0
151.12825 44.0
151.213898 76.0
151.267761 128.0
151.953934 48.0
152.068817 292.0
152.201828 132.0
152.855667 108.0
152.90242 180.0
153.131393 168.0
153.802032 52.0
154.674576 168.0
154.994049 212.0
155.718414 256.0
156.071289 212.0
157.132309 64.0
157.636673 232.0
157.661667 180.0
157.894165 136.0
158.071777 116.0
158.527527 164.0
158.572647 224.0
158.66037 120.0
158.775711 208.0
158.866013 56.0
159.044037 432.0
159.070526 160.0
159.144592 140.0
159.224945 136.0
159.659714 156.0
160.055878 232.0
160.31929 196.0
160.42514 140.0
160.490692 172.0
160.889328 188.0
161.025681 96.0
161.061569 812.0
161.093872 84.0
161.381973 116.0
161.473007 64.0
162.062836 140.0
162.131241 148.0
162.323914 144.0
163.036423 556.0
163.083191 196.0
163.439011 228.0
164.834641 60.0
165.053604 144.0
165.557724 208.0
165.708847 200.0
167.525162 184.0
168.099686 192.0
168.106186 160.0
168.113937 248.0
168.820831 216.0
169.038132 172.0
169.102829 152.0
169.447235 112.0
169.512009 104.0
169.550873 144.0
169.654556 136.0
169.677887 180.0
169.701218 88.0
169.810135 68.0
169.833481 172.0
169.882767 104.0
169.957993 184.0
170.007172 84.0
170.082352 20768.0
170.149796 40.0
170.21756 60.0
170.245682 168.0
170.304001 112.0
170.344833 92.0
170.409775 132.0
170.484314 152.0
170.64888 120.0
170.716492 60.0
170.7659 112.0
170.818909 244.0
170.864746 44.0
171.007874 128.0
171.085541 1684.0
171.131516 96.0
171.276047 128.0
171.419342 120.0
171.659164 40.0
171.862625 68.0
171.961777 56.0
172.045303 96.0
172.089935 192.0
172.135208 148.0
172.162811 116.0
172.241165 124.0
172.418823 100.0
172.48053 144.0
173.051849 156.0
173.09375 136.0
173.229935 132.0
173.405487 120.0
173.43956 188.0
173.58638 52.0
174.947357 188.0
175.04213 72.0
175.07637 188.0
176.049103 2260.0
177.050934 452.0
177.276917 52.0
178.086075 52.0
178.237503 180.0
178.798599 196.0
179.038208 232.0
179.075485 60.0
179.110107 172.0
179.131424 72.0
179.499222 152.0
180.527298 192.0
181.542221 96.0
181.826584 152.0
184.834 68.0
185.454163 32.0
185.909775 108.0
186.053635 148.0
186.991409 176.0
187.032974 192.0
187.12207 92.0
187.250061 140.0
187.367188 256.0
187.756973 96.0
188.054352 160.0
188.39566 160.0
188.614273 176.0
188.764633 92.0
189.029984 68.0
189.056076 920.0
189.681808 60.0
190.059021 456.0
190.342987 144.0
190.590195 88.0
190.757843 44.0
191.035583 100.0
191.069992 292.0
191.090607 152.0
191.153885 240.0
192.047516 288.0
192.338959 144.0
193.046234 316.0
195.07019 176.0
198.355713 108.0
199.054291 172.0
199.315521 188.0
199.560059 104.0
199.641602 156.0
199.804733 40.0
200.046753 136.0
200.914719 48.0
201.897659 200.0
202.2117 160.0
203.032196 272.0
203.07016 108.0
203.129715 80.0
203.663345 116.0
203.995804 148.0
204.042053 1048.0
204.66153 32.0
204.729874 124.0
204.926422 108.0
205.014755 116.0
205.050522 2736.0
205.151566 72.0
205.180069 48.0
205.585098 36.0
206.001953 48.0
206.055801 540.0
206.323578 88.0
206.47641 84.0
206.788269 96.0
207.064255 160.0
207.601883 140.0
207.673996 116.0
208.139709 188.0
210.239868 68.0
210.849228 112.0
210.918579 236.0
212.114044 180.0
214.098526 168.0
214.416 44.0
215.10878 172.0
215.787949 148.0
216.083328 172.0
216.115509 152.0
216.745041 124.0
217.050476 6068.0
217.117325 148.0
217.168045 68.0
217.193588 108.0
217.339462 88.0
217.859924 76.0
217.992142 128.0
218.055435 1288.0
218.230225 76.0
218.309616 48.0
218.700912 108.0
218.868713 176.0
219.061035 472.0
219.337128 48.0
219.7854 176.0
220.01265 120.0
220.065796 168.0
220.272522 56.0
221.041199 92.0
221.109253 44.0
223.063873 128.0
223.739151 56.0
226.288757 200.0
226.525345 112.0
227.037872 144.0
227.067856 96.0
227.111237 164.0
227.244843 72.0
229.072662 136.0
229.64537 144.0
229.750946 172.0
230.212738 144.0
231.064072 304.0
231.106918 156.0
231.3284 180.0
232.113083 116.0
233.038132 156.0
233.061737 148.0
233.12088 164.0
234.044022 184.0
234.11496 164.0
234.642761 44.0
235.103348 144.0
235.989166 112.0
236.846039 120.0
237.996048 80.0
239.50293 208.0
242.010529 128.0
242.100327 144.0
243.107971 180.0
244.086975 96.0
244.120529 176.0
244.528076 188.0
244.854965 84.0
244.954636 204.0
245.045425 3948.0
245.083511 204.0
245.116653 164.0
245.166504 52.0
245.253769 184.0
245.422119 76.0
245.447052 184.0
245.626694 80.0
245.914993 40.0
246.049973 940.0
246.089813 128.0
246.183487 84.0
246.336517 104.0
246.677139 76.0
246.769363 92.0
246.858215 100.0
246.971054 52.0
247.056061 220.0
247.125946 148.0
247.781815 124.0
248.070129 140.0
248.368011 120.0
252.133575 152.0
255.103363 108.0
255.666443 68.0
255.707825 152.0
257.007965 120.0
257.086243 168.0
257.116486 208.0
258.119537 132.0
259.09491 160.0
260.106323 1504.0
261.117401 380.0
262.473694 96.0
262.528503 40.0
263.080231 36.0
263.118988 168.0
263.277191 120.0
264.033417 116.0
264.062531 112.0
264.30838 40.0
265.215149 56.0
265.847565 136.0
266.149445 136.0
271.080048 220.0
271.124084 92.0
271.533905 52.0
272.095703 168.0
272.203339 140.0
272.528534 44.0
273.112823 2244.0
273.363708 40.0
273.56778 104.0
274.117462 516.0
275.047821 80.0
275.122742 116.0
275.605957 88.0
275.668732 84.0
276.134857 40.0
277.512421 40.0
278.092926 196.0
279.335632 36.0
282.999969 92.0
283.636475 76.0
286.08017 168.0
287.07251 128.0
288.135712 140.0
292.68396 116.0
295.140656 52.0
296.09198 204.0
297.635101 40.0
299.092743 200.0
299.585175 48.0
300.474609 48.0
300.61261 116.0
301.110138 808.0
302.110504 216.0
302.603546 76.0
302.697052 32.0
303.098846 160.0
303.136963 144.0
303.383057 176.0
303.740204 60.0
304.111481 148.0
304.250336 120.0
305.13623 168.0
305.981628 76.0
311.092682 108.0
312.023651 192.0
312.139679 276.0
316.121582 156.0
323.622162 148.0
328.02301 160.0
328.127655 332.0
329.112518 108.0
332.381012 176.0
334.16864 72.0
342.007263 216.0
342.140259 212.0
343.163971 168.0
344.101074 152.0
345.257629 52.0
346.056915 132.0
354.201477 184.0
356.114899 140.0
357.114136 112.0
357.260834 60.0
360.114258 72.0
360.919159 132.0
361.543304 200.0
362.126129 160.0
363.134491 104.0
364.250397 104.0
364.280792 84.0
365.143585 140.0
365.607727 116.0
366.898956 116.0
367.421417 136.0
368.192444 124.0
369.725464 140.0
372.075104 124.0
372.447601 116.0
372.973999 152.0
373.154663 148.0
373.654633 148.0
373.885498 140.0
374.125153 4512.0
374.207092 44.0
374.293549 60.0
374.559296 92.0
374.736481 64.0
375.067902 220.0
375.127075 1248.0
375.283783 104.0
375.372467 76.0
375.430328 44.0
375.897064 76.0
376.132507 104.0
379.168671 156.0
380.134277 168.0
380.38266 92.0
381.516968 72.0
384.188049 180.0
384.325012 40.0
384.848022 88.0
385.191681 180.0
386.201508 172.0
388.119049 188.0
392.215454 160.0
395.640259 164.0
397.257111 80.0
398.396423 204.0
398.897125 144.0
400.751648 152.0
412.170197 120.0
413.088837 108.0
413.178619 104.0
413.542023 172.0
414.177704 116.0
418.950653 100.0
420.496918 204.0
424.550262 124.0
426.800537 144.0
429.378357 188.0
429.745483 64.0
429.819733 68.0
430.067352 256.0
430.129272 344.0
430.187042 4496.0
430.273743 128.0
430.430634 124.0
430.476074 64.0
430.682556 28.0
430.711487 52.0
430.769318 76.0
430.802338 176.0
430.876709 124.0
430.929382 112.0
431.1875 1776.0
431.261017 184.0
431.484222 68.0
432.117004 64.0
432.195251 432.0
432.808197 76.0
433.173828 180.0
433.207062 104.0
433.984924 96.0
434.192261 116.0
435.001312 96.0
437.428894 80.0
440.978455 84.0
453.025421 84.0
456.935333 104.0
469.041687 68.0
475.143341 132.0
538.181152 140.0
544.720276 28.0
550.290039 108.0
561.387146 96.0
567.63855 72.0
589.414062 72.0
612.825623 140.0
613.140991 76.0
641.336853 104.0
645.299561 48.0
645.567566 92.0
703.847778 96.0
704.793274 60.0
712.268311 68.0
718.496521 120.0
729.61969 56.0
744.364502 164.0
750.567566 56.0
757.502869 168.0
784.470093 116.0
826.154114 48.0
829.939697 80.0
839.404114 96.0
850.976257 92.0
857.007568 156.0
862.972534 168.0
872.617065 208.0
900.46814 60.0
922.628723 128.0
925.236084 60.0
928.168518 200.0
932.569702 76.0
935.854614 64.0
939.712646 172.0
942.997864 132.0
948.310303 212.0
971.476379 56.0
973.313416 192.0
973.487305 52.0
987.797058 168.0
991.251648 156.0
995.81366 100.0
1011.975708 212.0
1014.180176 140.0
1022.226562 140.0
1023.760681 92.0
1026.258423 164.0
1031.001221 48.0
1034.768677 112.0
1041.713867 164.0
1053.431152 88.0
1064.045166 160.0
1068.158691 212.0
1069.342896 116.0
1070.84021 168.0
1074.255737 104.0
1074.621094 172.0
1075.965454 160.0
1080.468262 144.0
1082.916382 176.0
1087.971802 212.0
1093.789307 148.0
1096.76001 160.0
1103.579224 72.0
1119.078003 228.0
1120.083618 136.0
1126.079712 112.0
1131.054199 160.0
1132.031616 168.0
1139.41626 68.0
1139.516968 108.0
1140.141968 168.0
1140.747192 328.0
1144.016113 108.0
1145.457153 164.0
1153.818115 72.0
1157.47168 152.0
1168.691406 132.0
1171.053467 120.0
1175.498291 124.0
1176.878296 120.0
1177.307251 188.0
1178.297729 144.0
1180.512207 212.0
1180.566895 88.0
1189.013672 164.0
1190.805542 132.0
1191.966553 48.0
1193.464966 128.0
1195.9552 152.0
1199.233643 196.0
1200.998657 136.0
1201.419434 68.0
1203.338013 164.0
1203.441528 164.0
1204.325439 196.0
1204.477417 216.0
1204.594849 84.0
1205.562134 144.0
1205.810913 88.0
1206.018188 44.0
1210.404175 156.0
1212.496216 244.0
1214.805054 176.0
1216.963379 156.0
1217.039795 180.0
1219.061035 76.0
1219.568359 152.0
1220.882324 108.0
1222.524048 148.0
1223.540283 184.0
1224.814575 144.0
1224.960938 160.0
1230.518921 212.0
1231.95752 200.0
1232.593262 140.0
1233.299072 164.0
1234.096069 180.0
1238.280518 92.0
1247.507324 148.0
1249.019165 188.0
1250.53186 124.0
1252.256714 184.0
1252.439941 188.0
1253.602295 136.0
1258.70105 96.0
1263.529541 180.0
1263.869141 228.0
1266.360962 160.0
1266.828491 200.0
1272.210693 112.0
1272.295898 152.0
1278.856812 112.0
1279.020508 200.0
1281.398926 176.0
1284.150391 108.0
1284.200317 60.0
1285.884033 80.0
1288.354614 192.0
1289.35498 120.0
1293.660645 168.0
1295.264648 120.0
1299.329224 112.0
1301.618774 132.0
1301.72644 124.0
1303.033691 244.0
1303.328247 128.0
1304.154663 188.0
1304.363037 148.0
1309.370728 176.0
1309.557983 160.0
1310.054932 188.0
1313.673584 224.0
1314.308472 120.0
1314.373413 116.0
1314.625977 212.0
1318.410034 192.0
1319.255615 44.0
1321.04895 196.0
1321.193726 148.0
1324.371338 148.0
1326.21167 196.0
1326.748169 132.0
1328.176636 108.0
1331.057739 220.0
1332.147095 132.0
1332.481323 284.0
1335.388916 128.0
1335.519775 168.0
1336.356323 148.0
1337.462524 264.0
1339.399292 108.0
1339.464844 164.0
1342.460205 200.0
1350.96167 156.0
1351.342163 164.0
1352.615479 40.0
1356.08728 148.0
1356.688232 168.0
1357.00354 184.0
1357.164795 184.0
1357.524048 180.0
1358.433594 188.0
1359.064453 176.0
1363.801025 188.0
1369.797729 236.0
1371.072388 176.0
1373.866821 148.0
1376.678833 184.0
1376.730591 64.0
1377.21228 164.0
1377.624268 116.0
1377.764648 64.0
1379.604736 204.0
1379.737793 164.0
1380.477173 48.0
1380.676758 116.0
1381.682739 148.0
1388.007812 124.0
1388.215454 132.0
1391.717651 56.0
1392.5271 160.0
1394.956787 140.0
1400.284058 168.0
1400.403198 120.0
1401.133301 252.0
1401.848511 188.0
1401.990112 228.0
1403.630005 264.0
1403.689697 152.0
1406.046997 52.0
1408.600464 188.0
1409.24292 92.0
1409.422241 144.0
1411.4552 128.0
1411.754395 216.0
1412.442383 96.0
1416.1698 140.0
1417.518311 172.0
1418.020386 172.0
1418.642456 164.0
1419.654663 224.0
1420.254639 148.0
1420.344604 228.0
1421.424927 204.0
1422.723389 60.0
1424.713379 120.0
1427.539429 164.0
1429.307129 212.0
1429.562866 208.0
1431.708374 176.0
1431.821289 80.0
1432.25061 52.0
1433.320312 176.0
1433.584106 144.0
1434.141724 80.0
1435.800415 136.0
1436.366089 192.0
1436.728149 140.0
1436.999756 200.0
1437.399658 148.0
1439.87561 72.0
1440.230591 120.0
1441.945679 208.0
1442.096802 140.0
1443.654175 176.0
1444.077637 180.0
1444.191162 228.0
1444.244019 48.0
1446.521606 200.0
1448.164673 132.0
1448.975098 140.0
1452.196655 168.0
1453.721558 200.0
1454.882812 128.0
1455.801514 180.0
1456.378662 56.0
1459.395508 160.0
1459.631226 80.0
1461.304565 364.0
1461.487183 176.0
1462.89502 208.0
1463.877197 180.0
1465.507202 160.0
1465.758667 124.0
1465.81958 192.0
1466.116821 220.0
1466.970459 140.0
1467.229614 64.0
1472.402954 196.0
1475.940918 212.0
1476.522095 204.0
1477.133911 136.0
1477.998413 124.0
1478.15918 156.0
1478.549438 136.0
1479.062134 216.0
1480.646973 164.0
1481.550781 180.0
1481.772949 176.0
1481.972168 176.0
1483.229004 184.0
1484.800659 164.0
1485.138184 176.0
1489.11377 100.0
1494.563965 176.0
1495.233521 184.0
1496.018555 160.0
1496.164795 108.0
1496.734497 148.0
1498.12085 204.0
1500.371094 264.0
1503.139893 112.0
