>compound Mitoxantrone Hydrochloride
>formula C22H28N4O6
>ionization [M+H]+
>parentmass 445.207703
#inchi InChI=1S/C22H28N4O6/c27-11-9-23-5-7-25-13-1-2-14(26-8-6-24-10-12-28)18-17(13)21(31)19-15(29)3-4-16(30)20(19)22(18)32/h1-4,23-30H,5-12H2
#inchikey KKZJGLLVHKMTCM
#origInchi InChI=1S/C22H28N4O6.2ClH/c27-11-9-23-5-7-25-13-1-2-14(26-8-6-24-10-12-28)18-17(13)21(31)19-15(29)3-4-16(30)20(19)22(18)32;;/h1-4,23-30H,5-12H2;2*1H
#Ion_Source LC-ESI
#Instrument qTof
#Compound_Source Commercial
#PI Dorrestein
#Data_Collector Garg_Neha
#Scan -1
#Precursor_MZ 445.208
#ExactMass 444.201
#Charge 1
#CAS_Number 70476-82-3, 65271-80-9 (free base), 70711-41-0 (diacetate)
#Pubmed_ID N/A
#Smiles C1(=CC(=C2C(=C1O)C(C3=C(C2=O)C(=CC=C3NCCNCCO)NCCNCCO)=O)O).Cl.Cl
#INCHI_AUX N/A
#Library_Class 1
#SpectrumID CCMSLIB00000078485
#IonMode Positive
#UpdateWorkflowName UPDATE-SINGLE-ANNOTATED-GOLD
#LibraryQualityString Gold
#TaskID 77f51c88eb8b467eb4a01dd2d0cb90d2
##Scan# 1014
#SpectrumFile Plate7_61_80_GD5_01_15771.mzXML
#LibraryName FDALibrary_2_04302014.mgf
#MQScore -1
#Organism FDALibrary_2_04302014
#TIC_Query 0
#RT_Query -1
#MZErrorPPM -1
#SharedPeaks 0
#MassDiff 0
#LibMZ -1
#SpecMZ 445.208
#SpecCharge 0
#internalFilename spec-00000.mgf

>collision 10
63.668697 184.0
124.5028 196.0
128.966049 152.0
136.05661 172.0
142.437561 216.0
143.923691 172.0
159.093689 172.0
160.099457 184.0
173.221909 196.0
174.944611 172.0
176.514511 164.0
212.03717 180.0
213.561478 180.0
223.059769 160.0
223.104355 228.0
232.376175 188.0
233.703964 140.0
235.719528 228.0
238.044617 156.0
238.416336 172.0
239.114471 144.0
240.094193 212.0
241.057388 172.0
241.731522 144.0
247.950836 140.0
249.080399 216.0
252.076675 144.0
253.05574 160.0
255.07666 240.0
256.083649 148.0
260.520416 180.0
261.118286 164.0
264.056427 156.0
267.076569 180.0
268.065918 268.0
269.06427 172.0
269.109772 140.0
270.09021 152.0
271.067535 396.0
272.068909 192.0
275.085144 152.0
276.056458 152.0
277.095184 152.0
278.060791 156.0
278.525635 176.0
279.07785 684.0
279.742706 152.0
280.063538 696.0
281.070068 384.0
282.088989 164.0
283.069061 1956.0
283.128479 140.0
284.077423 1244.0
285.080597 492.0
287.079346 104.0
291.376099 168.0
293.096222 140.0
294.083374 176.0
295.069 464.0
296.076508 968.0
297.085052 1368.0
298.088745 740.0
299.091248 160.0
302.463715 156.0
304.096283 168.0
305.08728 788.0
306.069641 328.0
306.099365 296.0
307.102478 188.0
309.086853 220.0
310.060394 200.0
310.102264 212.0
311.109467 348.0
317.407257 148.0
322.094513 140.0
323.102234 676.0
324.108124 400.0
333.924774 148.0
338.10025 184.0
339.113525 132.0
342.119232 144.0
345.81665 144.0
350.969391 168.0
352.563385 152.0
356.124878 360.0
357.126526 240.0
357.573975 144.0
358.140106 7364.0
358.541901 140.0
359.141907 2776.0
360.140991 120.0
362.999054 144.0
367.560059 152.0
369.772766 168.0
370.146606 344.0
371.145081 256.0
372.145996 320.0
377.981567 140.0
379.170471 144.0
384.155151 1440.0
384.229492 172.0
385.153839 296.0
386.229614 212.0
400.16095 140.0
412.55838 140.0
418.803558 156.0
423.152771 152.0
427.088287 172.0
427.182587 108.0
427.205658 408.0
427.306335 160.0
428.133698 180.0
443.18869 428.0
443.701111 196.0
444.201324 256.0
444.304352 100.0
444.551392 200.0
444.597565 160.0
444.692749 284.0
444.740265 144.0
444.818481 216.0
445.029175 132.0
445.150269 192.0
445.207703 54512.0
445.346771 136.0
445.641998 168.0
445.778778 120.0
445.920837 172.0
446.078644 156.0
446.132721 104.0
446.21051 13228.0
446.318024 108.0
446.520966 104.0
447.215363 2432.0
447.27774 252.0
448.005463 108.0
448.210785 296.0
448.684418 116.0
448.921875 108.0
449.000916 144.0
449.047913 296.0
449.091003 200.0
449.124329 120.0
449.909637 208.0
449.9888 200.0
450.048218 132.0
466.228546 164.0
597.981506 148.0
641.085327 148.0
730.781006 196.0
799.286682 220.0
