>compound Celecoxib
>formula C17H14F3N3O2S
>ionization [M+H]+
>parentmass 382.083099
#inchi InChI=1S/C17H14F3N3O2S/c1-11-2-4-12(5-3-11)15-10-16(17(18,19)20)22-23(15)13-6-8-14(9-7-13)26(21,24)25/h2-10H,1H3,(H2,21,24,25)
#inchikey RZEKVGVHFLEQIL
#Ion_Source LC-ESI
#Instrument qTof
#Compound_Source Commercial
#PI Dorrestein
#Data_Collector Garg_Neha
#Scan -1
#Precursor_MZ 382.083
#ExactMass 381.076
#Charge 1
#CAS_Number 169590-42-5,184007-95-2, 194044-54-7
#Pubmed_ID N/A
#Smiles C1(=CC=C(C=C1)S(N)(=O)=O)N2C(=CC(=N2)C(F)(F)F)C3=CC=C(C=C3)C
#INCHI_AUX N/A
#Library_Class 1
#SpectrumID CCMSLIB00000078076
#IonMode Positive
#UpdateWorkflowName UPDATE-SINGLE-ANNOTATED-GOLD
#LibraryQualityString Gold
#TaskID 77f51c88eb8b467eb4a01dd2d0cb90d2
##Scan# 2174
#SpectrumFile Plate1_61_88_GG4_01_16491.mzXML
#LibraryName FDALibrary_2_04302014.mgf
#MQScore -1
#Organism FDALibrary_2_04302014
#TIC_Query 0
#RT_Query -1
#MZErrorPPM -1
#SharedPeaks 0
#MassDiff 0
#LibMZ -1
#SpecMZ 382.083
#SpecCharge 0
#internalFilename spec-00000.mgf

>collision 10
45.973099 164.0
50.527325 184.0
51.834457 148.0
53.082844 168.0
54.244888 144.0
54.999512 204.0
55.456566 140.0
59.150471 168.0
59.262268 176.0
67.392975 156.0
67.535202 156.0
71.935905 144.0
72.028778 168.0
73.524658 180.0
75.098 176.0
78.025414 216.0
78.102791 196.0
78.196045 140.0
81.459068 220.0
81.973648 180.0
82.312782 148.0
82.672523 176.0
84.245338 172.0
85.352371 140.0
87.426132 248.0
90.045311 160.0
90.542717 192.0
90.914307 152.0
92.215111 148.0
94.813431 148.0
95.040321 196.0
96.419067 152.0
97.292694 176.0
100.600906 168.0
104.08622 160.0
105.067276 172.0
105.676125 204.0
107.748619 176.0
111.60257 192.0
113.125847 140.0
113.625999 164.0
114.868408 176.0
117.054573 168.0
117.073959 168.0
117.630241 144.0
118.029938 212.0
121.932724 140.0
123.641533 152.0
125.019928 176.0
125.113213 180.0
128.258453 160.0
128.60582 204.0
128.80452 172.0
130.063629 188.0
130.770432 156.0
131.071442 300.0
131.207794 160.0
131.712128 244.0
132.038986 140.0
132.487625 252.0
133.048233 172.0
137.120834 152.0
138.983597 188.0
139.9319 236.0
140.224014 180.0
140.785507 248.0
144.587067 196.0
144.910339 156.0
145.610809 200.0
146.387604 176.0
149.861252 180.0
152.168625 108.0
152.580475 180.0
153.058258 156.0
157.015518 152.0
158.906677 208.0
158.92926 184.0
158.959366 172.0
159.665298 152.0
160.960617 164.0
161.051529 172.0
161.342148 192.0
161.534332 160.0
162.033066 148.0
162.126816 140.0
162.705154 180.0
163.6586 172.0
165.040314 492.0
166.046844 168.0
169.054565 156.0
169.108917 196.0
172.021057 140.0
174.54068 168.0
174.70639 216.0
178.075562 164.0
179.090118 176.0
179.439224 236.0
180.059357 404.0
181.307724 196.0
182.930069 168.0
183.043152 196.0
184.017334 164.0
184.039734 292.0
185.044861 384.0
185.14415 244.0
185.27417 148.0
186.048035 300.0
187.050217 160.0
190.037338 148.0
190.820129 148.0
191.213501 220.0
192.078827 156.0
193.106201 152.0
193.706863 156.0
195.094421 180.0
198.039001 240.0
198.158859 180.0
200.034882 168.0
200.068649 264.0
201.080612 204.0
201.795319 168.0
203.035614 180.0
203.075592 124.0
204.085709 132.0
205.082718 208.0
205.467682 160.0
205.738815 148.0
205.807343 144.0
206.061539 140.0
206.092346 188.0
207.106033 644.0
207.145813 192.0
208.114029 328.0
209.078201 148.0
209.109741 188.0
210.095352 172.0
211.847275 180.0
211.911011 144.0
212.042191 192.0
215.221069 172.0
216.355499 224.0
217.102676 176.0
218.030396 152.0
218.082291 192.0
220.054108 204.0
220.213577 180.0
221.018372 516.0
223.102753 172.0
223.275223 268.0
225.060242 160.0
229.08287 176.0
229.528259 180.0
230.219299 160.0
231.089569 316.0
232.094299 296.0
232.183258 136.0
233.110199 964.0
234.111786 324.0
235.077133 136.0
235.397141 176.0
235.647598 148.0
236.103073 144.0
237.098663 184.0
237.254395 160.0
238.060013 144.0
238.390091 168.0
239.088181 140.0
239.882858 188.0
240.101776 176.0
240.135712 172.0
240.956833 156.0
242.070145 168.0
242.745926 196.0
244.127853 168.0
244.216064 224.0
244.563416 160.0
245.013245 136.0
245.644699 144.0
247.062988 164.0
247.388458 152.0
247.804993 244.0
248.381836 148.0
248.711304 180.0
250.028259 272.0
250.0849 184.0
254.072906 148.0
255.0755 296.0
256.092529 144.0
258.099487 160.0
258.242767 176.0
259.078247 180.0
260.897888 140.0
261.016846 152.0
261.085175 724.0
262.086029 600.0
262.965942 164.0
263.092896 1076.0
263.321075 140.0
263.608612 164.0
264.094849 152.0
264.533661 184.0
266.015137 116.0
266.071136 220.0
267.070831 848.0
268.081451 148.0
270.821625 344.0
271.014923 172.0
271.549286 228.0
272.059814 328.0
272.136688 164.0
272.422424 220.0
273.065613 212.0
273.695251 192.0
274.061981 320.0
274.095673 268.0
275.078308 664.0
275.604004 180.0
276.079651 392.0
277.085663 180.0
278.91925 140.0
279.074188 172.0
279.099365 204.0
280.079224 160.0
281.088562 1460.0
281.402313 152.0
282.095703 2244.0
282.327911 96.0
283.046295 140.0
283.101257 2052.0
283.344391 144.0
283.739868 192.0
284.103943 516.0
285.090668 188.0
285.489288 160.0
286.072296 436.0
286.212799 236.0
286.68103 224.0
287.077972 2384.0
287.18338 284.0
288.044128 164.0
288.086029 304.0
289.086823 132.0
289.698334 164.0
294.081635 112.0
294.303436 144.0
294.338745 140.0
295.075623 164.0
295.61264 144.0
297.267822 152.0
297.796539 176.0
298.076538 152.0
298.107788 336.0
299.065094 156.0
299.09198 440.0
299.292511 160.0
300.085663 720.0
301.095398 2696.0
301.175507 144.0
301.445007 216.0
302.001617 160.0
302.101715 4140.0
302.250702 156.0
302.326843 180.0
302.351074 156.0
303.109711 2424.0
303.310486 164.0
303.390228 160.0
303.959045 188.0
304.109772 552.0
305.119171 192.0
305.29303 172.0
308.270172 184.0
308.953217 220.0
311.073578 152.0
311.743042 144.0
314.087585 724.0
315.079681 140.0
316.083893 272.0
317.089172 468.0
317.681976 180.0
318.061584 96.0
318.178833 212.0
318.633423 144.0
319.075989 200.0
319.11087 204.0
322.058868 228.0
323.619659 172.0
326.976135 180.0
330.610413 208.0
332.073212 1848.0
333.08017 312.0
334.091431 776.0
334.563263 164.0
335.062958 332.0
335.09079 300.0
335.167877 156.0
336.097687 356.0
338.078308 140.0
339.015839 156.0
339.279083 180.0
342.072815 936.0
342.594666 208.0
343.071106 172.0
343.272858 160.0
344.306183 184.0
344.335724 204.0
345.600006 160.0
346.044159 140.0
347.007477 280.0
347.053772 436.0
348.176392 148.0
348.310089 176.0
349.008789 140.0
349.901764 148.0
353.062317 164.0
354.218903 140.0
354.994751 152.0
357.635956 156.0
358.992279 148.0
360.283173 152.0
360.959717 180.0
361.171509 228.0
361.733032 228.0
362.076141 11624.0
362.149658 144.0
362.364014 168.0
362.456787 156.0
363.079163 2124.0
363.402893 172.0
364.073883 1052.0
364.766296 176.0
365.062012 124.0
366.471283 144.0
367.28714 144.0
369.117157 124.0
371.092346 156.0
372.020782 248.0
373.650299 144.0
378.533051 140.0
378.726685 140.0
379.19165 144.0
380.879486 160.0
380.988251 180.0
381.084564 248.0
381.158997 140.0
381.19989 308.0
381.260254 304.0
381.530762 180.0
381.720032 148.0
381.767151 172.0
381.805573 164.0
381.848969 160.0
381.882599 176.0
381.916809 300.0
381.967987 152.0
382.083099 63268.0
382.282166 136.0
382.534698 208.0
382.794037 136.0
382.858765 184.0
383.022888 208.0
383.08551 10936.0
383.173584 296.0
383.337616 308.0
383.960114 108.0
384.083405 3868.0
384.191162 112.0
384.637177 208.0
385.08252 472.0
385.136963 168.0
385.249451 168.0
385.557556 148.0
385.633087 148.0
385.782227 144.0
387.279449 180.0
460.784271 144.0
472.26239 144.0
592.356079 184.0
603.19812 148.0
1266.502441 164.0
1572.364746 168.0
1659.170898 160.0
1713.374023 176.0
1815.877197 184.0
1983.481201 164.0
