>compound MLS001066393-01!5,7-Dichlorokynurenic acid monohydrate
>formula C10H5Cl2NO3
>ionization [M+H]+
>parentmass 257.971252
#inchi InChI=1S/C10H5Cl2NO3/c11-4-1-5(12)9-6(2-4)13-7(10(15)16)3-8(9)14/h1-3H,(H,13,14)(H,15,16)
#inchikey BGKFPRIGXAVYNX
#origInchi InChI=1S/C10H5Cl2NO3.H2O/c11-4-1-5(12)9-6(2-4)13-7(10(15)16)3-8(9)14;/h1-3H,(H,13,14)(H,15,16);1H2
#Ion_Source LC-ESI
#Instrument qTof
#Compound_Source NIH Pharmacologically Active Library
#PI Dorrestein
#Data_Collector VP/LMS
#Scan -1
#Precursor_MZ 257.976
#ExactMass 256.965
#Charge 1
#CAS_Number N/A
#Pubmed_ID N/A
#Smiles OC(=O)c1cc(O)c2c(Cl)cc(Cl)cc2n1.O
#INCHI_AUX N/A
#Library_Class 1
#SpectrumID CCMSLIB00000086016
#IonMode Positive
#UpdateWorkflowName UPDATE-SINGLE-ANNOTATED-GOLD
#LibraryQualityString Gold
#TaskID d252d724072548979f1f6f1ced849daf
##Scan# 1495
#SpectrumFile p5-B03_GB3_01_18442.mzXML
#LibraryName Pharm_Active_Library.mgf
#MQScore -1
#Organism Pharm_Active_Library
#TIC_Query 0
#RT_Query -1
#MZErrorPPM -1
#SharedPeaks 0
#MassDiff 0
#LibMZ -1
#SpecMZ 257.976
#SpecCharge 0
#internalFilename spec-00000.mgf

>collision 10
45.183701 112.0
45.274719 252.0
45.802547 84.0
45.957577 124.0
46.156132 228.0
46.806084 152.0
46.916439 136.0
46.995541 128.0
47.115685 120.0
47.137547 152.0
47.294819 228.0
47.54837 148.0
47.817741 40.0
47.883827 156.0
47.99131 48.0
48.080971 220.0
48.220459 180.0
48.680393 112.0
49.206711 156.0
49.275146 192.0
49.498932 212.0
49.605412 152.0
50.163471 152.0
50.404808 224.0
50.513668 192.0
50.748753 140.0
51.291809 180.0
51.371662 136.0
51.453003 192.0
51.500126 140.0
51.560131 232.0
52.238319 140.0
52.354904 188.0
52.475941 204.0
52.581242 184.0
52.870277 204.0
53.086288 176.0
53.366364 208.0
53.53661 108.0
53.777161 240.0
53.820953 156.0
54.057751 224.0
54.663792 60.0
54.868523 100.0
55.002762 148.0
55.017521 124.0
55.097271 156.0
55.19038 124.0
55.209602 160.0
55.409424 160.0
56.075127 184.0
56.191437 156.0
56.240681 232.0
56.406479 160.0
56.98193 156.0
57.156338 252.0
58.223576 64.0
58.33297 212.0
58.361855 200.0
58.409 156.0
58.439423 160.0
58.896755 152.0
59.214886 144.0
59.317543 144.0
59.70599 176.0
60.223831 116.0
60.297993 112.0
60.719093 132.0
61.365967 196.0
61.40807 132.0
61.973957 160.0
62.072704 112.0
62.146423 128.0
62.386711 144.0
62.45882 168.0
62.476349 68.0
62.865517 152.0
63.544319 176.0
63.790905 180.0
63.846115 144.0
64.215599 144.0
64.250687 40.0
64.34166 204.0
64.770218 204.0
64.7929 124.0
64.89682 200.0
64.965782 160.0
65.21788 112.0
65.351357 160.0
65.472076 168.0
65.531677 208.0
65.641281 164.0
65.83815 124.0
66.813919 140.0
66.934357 184.0
67.147835 256.0
67.531647 204.0
67.570908 100.0
68.00843 212.0
68.02977 180.0
68.440781 212.0
68.687981 180.0
68.725922 160.0
68.75563 172.0
68.810097 56.0
69.043083 148.0
69.249954 220.0
69.493637 184.0
69.892395 164.0
70.30732 184.0
70.710083 112.0
70.810532 112.0
71.150925 172.0
72.500305 196.0
72.57489 164.0
72.637642 132.0
72.682907 176.0
72.860016 104.0
73.292168 132.0
73.402962 120.0
73.460945 212.0
73.556503 256.0
73.781998 152.0
74.299187 52.0
74.338646 128.0
74.58596 84.0
75.045601 160.0
75.071465 108.0
75.425392 92.0
75.606987 124.0
75.830399 136.0
76.306023 188.0
76.491951 164.0
76.743027 176.0
76.907005 188.0
77.090378 120.0
77.251228 156.0
77.494576 208.0
77.583954 124.0
77.610252 160.0
78.117798 148.0
78.87957 172.0
79.338051 76.0
79.668129 116.0
79.765862 100.0
81.706146 200.0
81.898949 152.0
82.158333 128.0
82.338829 148.0
82.400246 192.0
82.693184 152.0
83.644264 56.0
83.757156 192.0
84.205841 204.0
84.692345 88.0
84.813278 236.0
84.934288 72.0
84.967308 172.0
86.182449 184.0
86.843323 144.0
87.460182 248.0
88.011993 104.0
88.200676 160.0
88.619865 176.0
88.728561 224.0
89.400993 112.0
89.645798 168.0
89.72496 132.0
89.77021 60.0
89.821136 56.0
89.945671 132.0
90.045738 220.0
90.096741 180.0
90.145859 220.0
90.289536 128.0
90.338707 124.0
90.427643 120.0
90.563957 148.0
91.182465 120.0
91.452538 188.0
91.578201 112.0
91.593437 196.0
92.196335 108.0
92.217354 196.0
92.416489 236.0
92.515747 204.0
93.004547 124.0
94.126915 80.0
94.337509 188.0
94.515434 80.0
94.538658 180.0
94.856285 228.0
96.734108 220.0
96.982872 232.0
96.999382 188.0
97.17112 104.0
97.438126 160.0
97.467598 156.0
98.367622 112.0
99.982971 112.0
100.040688 148.0
100.17411 164.0
100.317581 116.0
100.439217 192.0
100.608833 148.0
100.796577 188.0
100.940498 128.0
101.328789 204.0
101.697762 68.0
101.986984 72.0
102.013115 156.0
102.151863 160.0
102.836945 132.0
103.103531 184.0
103.672188 140.0
104.140831 80.0
104.205833 112.0
104.449783 192.0
104.865143 160.0
106.060822 140.0
106.42598 192.0
106.508125 164.0
106.569748 136.0
106.767082 176.0
106.880219 168.0
106.946075 348.0
106.9646 100.0
107.356056 196.0
107.721367 156.0
108.165947 240.0
108.292244 216.0
108.536781 76.0
108.634254 156.0
108.773285 188.0
108.798195 204.0
108.87294 184.0
108.989265 148.0
109.267868 108.0
109.94297 160.0
109.997238 160.0
110.531227 212.0
111.902847 164.0
111.934433 92.0
112.393936 176.0
112.455139 124.0
112.649391 140.0
113.21199 156.0
113.300949 152.0
113.99688 172.0
114.033394 352.0
114.518097 180.0
114.874054 140.0
114.914589 100.0
115.0364 172.0
115.123772 148.0
115.305359 92.0
115.477974 216.0
116.016388 212.0
116.367821 148.0
116.485931 96.0
116.649246 168.0
117.060173 104.0
117.879875 184.0
117.918777 236.0
117.987946 84.0
118.026863 148.0
118.282143 140.0
119.371246 196.0
119.449539 76.0
119.81308 224.0
120.312477 168.0
120.878555 152.0
121.614906 68.0
121.989685 292.0
122.29406 88.0
122.90007 128.0
122.97731 100.0
123.366066 148.0
123.547401 164.0
123.609352 180.0
123.968079 188.0
123.998344 180.0
124.622658 204.0
124.89386 196.0
125.002876 40.0
125.526344 128.0
125.608864 248.0
125.814163 100.0
125.843185 128.0
125.988037 200.0
126.14254 160.0
126.202904 176.0
126.637032 192.0
126.845413 176.0
127.119026 200.0
127.289627 136.0
127.334534 120.0
127.655899 196.0
127.673889 176.0
128.115051 164.0
128.243484 64.0
128.462204 80.0
128.502808 180.0
128.554703 240.0
128.794022 160.0
129.022247 184.0
129.246155 176.0
129.454391 72.0
130.055176 48.0
130.139175 172.0
130.666458 64.0
130.814377 148.0
131.552948 260.0
131.582626 212.0
131.653412 164.0
131.820175 204.0
132.028198 332.0
132.069366 152.0
132.263855 184.0
132.447021 140.0
132.625107 160.0
132.699097 156.0
133.580109 208.0
133.953857 104.0
134.099014 216.0
134.511887 212.0
134.657349 136.0
134.821365 80.0
134.955444 252.0
135.061813 124.0
135.207581 156.0
135.466904 160.0
135.638367 108.0
135.796036 204.0
135.812271 132.0
135.8517 168.0
136.153442 112.0
136.467133 128.0
136.511307 180.0
137.324081 128.0
137.945175 156.0
138.071426 112.0
138.331131 144.0
138.413086 156.0
138.502075 104.0
138.705917 76.0
138.832535 168.0
139.186859 144.0
139.642761 156.0
140.217209 140.0
140.250214 192.0
140.755066 128.0
140.884964 128.0
142.125488 188.0
142.396164 64.0
142.92865 216.0
142.978622 192.0
143.231003 44.0
143.994232 128.0
144.082611 160.0
144.149506 152.0
145.2556 116.0
145.723724 96.0
146.203751 84.0
146.317764 228.0
146.34906 168.0
146.797241 44.0
147.060196 148.0
147.425949 200.0
147.521545 128.0
147.719833 116.0
147.744019 164.0
147.908569 152.0
147.9953 1996.0
148.068375 136.0
148.087753 80.0
148.177368 60.0
148.320343 32.0
148.354279 120.0
148.511902 32.0
148.912369 192.0
149.001465 1832.0
149.109146 164.0
149.140747 36.0
149.182068 156.0
149.917114 52.0
149.992722 600.0
150.348755 240.0
150.656403 32.0
150.746796 76.0
150.998596 340.0
151.138031 260.0
151.324036 144.0
151.478317 208.0
151.772415 40.0
152.128143 108.0
152.282837 164.0
152.87532 40.0
153.513336 80.0
154.249069 172.0
154.642334 192.0
154.828018 152.0
155.093124 148.0
155.192276 108.0
155.244354 168.0
155.308838 208.0
155.388214 204.0
155.835098 36.0
155.959351 192.0
156.205521 144.0
156.265228 160.0
156.331635 220.0
156.431961 88.0
156.473007 156.0
156.57283 236.0
156.601273 152.0
156.631165 120.0
156.870377 192.0
156.897797 68.0
156.961853 19780.0
157.00502 80.0
157.028961 60.0
157.058868 108.0
157.117432 172.0
157.137222 28.0
157.31723 60.0
157.451736 44.0
157.626602 64.0
157.649078 120.0
157.729065 136.0
157.761551 148.0
157.85907 68.0
157.965088 1160.0
158.021652 48.0
158.101715 176.0
158.149261 64.0
158.214355 288.0
158.285294 64.0
158.362091 104.0
158.417191 152.0
158.4673 260.0
158.514908 44.0
158.642731 100.0
158.702896 80.0
158.729492 124.0
158.885971 64.0
158.958847 12088.0
159.03653 160.0
159.094269 68.0
159.146988 44.0
159.179626 100.0
159.204742 60.0
159.3228 80.0
159.360474 28.0
159.745117 160.0
159.797943 108.0
159.815567 44.0
159.960495 736.0
160.049637 144.0
160.11972 236.0
160.193192 216.0
160.341843 36.0
160.760468 128.0
160.856384 92.0
161.005341 120.0
161.077179 108.0
161.103851 84.0
161.124054 96.0
161.412186 116.0
162.120972 220.0
162.161514 184.0
162.965942 140.0
162.991348 96.0
163.344727 52.0
163.813095 196.0
165.183868 76.0
165.222244 144.0
165.24527 40.0
166.00592 312.0
166.049591 60.0
166.360062 136.0
166.943283 44.0
166.975433 200.0
167.084747 180.0
168.009613 80.0
168.621567 48.0
168.693939 156.0
168.965469 176.0
169.107788 124.0
169.180267 176.0
169.742477 136.0
169.885132 84.0
170.396545 176.0
170.656448 124.0
170.75267 148.0
170.773468 136.0
170.804688 176.0
170.851501 56.0
170.882721 172.0
171.122162 192.0
171.773666 128.0
171.953705 136.0
172.267029 96.0
172.661697 124.0
173.122284 164.0
173.544159 132.0
174.152969 120.0
174.189743 92.0
174.216003 196.0
175.479233 216.0
175.975235 172.0
176.120483 160.0
176.995956 1504.0
177.737991 88.0
177.964371 168.0
177.994736 292.0
178.545547 120.0
178.61203 196.0
178.999496 476.0
179.019226 160.0
179.269638 228.0
179.498871 200.0
179.733612 164.0
179.989853 92.0
180.591125 88.0
180.842255 140.0
181.434616 100.0
181.960434 248.0
182.078583 176.0
182.20752 132.0
182.530045 60.0
182.766739 88.0
183.569443 124.0
183.599106 128.0
183.806808 172.0
183.868881 200.0
183.912979 188.0
183.930954 224.0
183.972244 10532.0
184.048462 76.0
184.069412 140.0
184.111847 204.0
184.157761 116.0
184.236099 84.0
184.3591 44.0
184.438751 256.0
184.774078 120.0
184.793015 40.0
184.833603 36.0
184.97493 1084.0
185.119446 212.0
185.177399 176.0
185.526932 104.0
185.640808 168.0
185.912781 188.0
185.938217 216.0
185.969543 6940.0
186.010742 52.0
186.235336 120.0
186.290436 88.0
186.398163 36.0
186.781494 116.0
186.835892 196.0
186.97258 560.0
187.137985 28.0
187.862915 56.0
187.964874 160.0
188.116684 184.0
188.253204 100.0
188.321472 148.0
188.529114 116.0
189.171844 164.0
189.777298 52.0
190.091125 184.0
190.856354 116.0
191.602203 72.0
192.622879 148.0
193.928879 104.0
194.164536 184.0
194.811249 124.0
195.378357 132.0
195.45903 172.0
195.498001 196.0
195.820938 156.0
195.993652 156.0
196.970078 164.0
197.092987 56.0
197.38649 56.0
197.873322 224.0
198.792679 136.0
198.958267 40.0
199.368347 52.0
199.388016 116.0
199.673355 156.0
199.792923 156.0
199.849182 124.0
199.905457 88.0
200.006775 188.0
201.470276 156.0
201.611542 176.0
201.837692 192.0
202.965958 200.0
203.983826 104.0
204.003723 192.0
204.621048 164.0
204.959976 164.0
205.661514 192.0
206.412857 164.0
207.627045 180.0
207.896698 128.0
208.537125 148.0
211.128952 160.0
211.661392 120.0
211.75116 140.0
211.966873 10168.0
212.046677 72.0
212.165527 52.0
212.266998 48.0
212.339493 92.0
212.902512 72.0
212.934448 116.0
212.968246 932.0
213.036118 60.0
213.230789 164.0
213.312164 180.0
213.448807 88.0
213.54187 68.0
213.655304 100.0
213.844452 88.0
213.964798 5476.0
214.007462 176.0
214.036575 60.0
214.138504 80.0
214.196762 44.0
214.231705 56.0
214.319107 72.0
214.479599 56.0
214.613495 104.0
214.674728 96.0
214.782639 44.0
214.967392 572.0
215.126953 108.0
215.398529 56.0
215.509537 64.0
215.886612 52.0
216.211334 96.0
216.310837 56.0
217.753418 68.0
218.285324 104.0
218.998672 172.0
219.115326 116.0
220.295349 68.0
221.351196 104.0
221.751129 60.0
222.706482 48.0
223.366333 112.0
224.873993 180.0
225.169556 128.0
226.77916 176.0
228.617142 108.0
229.367065 160.0
229.51178 132.0
229.581131 168.0
229.611282 208.0
229.891846 68.0
229.976547 10656.0
230.036713 52.0
230.245041 52.0
230.646881 76.0
230.689194 56.0
230.922028 68.0
230.98201 732.0
231.015793 96.0
231.26088 64.0
231.533356 52.0
231.733276 104.0
231.812057 140.0
231.93631 112.0
231.975266 5880.0
232.037537 72.0
232.316437 112.0
232.404846 100.0
232.555069 80.0
232.597549 44.0
232.661301 84.0
232.879929 52.0
232.98143 416.0
233.201996 52.0
233.502975 40.0
233.807205 108.0
233.971573 180.0
234.236496 60.0
234.477203 60.0
235.852859 148.0
236.453156 56.0
242.238663 76.0
243.3582 116.0
244.054169 80.0
247.777588 128.0
252.995926 196.0
253.071899 104.0
257.971252 92.0
259.974487 396.0
275.713593 72.0
299.930359 128.0
305.631866 68.0
321.943237 120.0
350.724335 128.0
378.105103 32.0
388.222382 48.0
422.64679 104.0
424.473633 68.0
431.481323 88.0
466.993286 72.0
507.610962 108.0
509.837494 104.0
540.04895 44.0
657.174866 140.0
657.56781 84.0
710.8302 56.0
728.389771 152.0
759.816895 224.0
826.618225 96.0
830.181274 144.0
845.400879 80.0
969.350769 232.0
991.855652 204.0
1002.521057 152.0
1032.210571 112.0
1064.754272 84.0
1082.479004 144.0
1099.597534 84.0
1170.646729 136.0
1175.739014 136.0
1183.613892 168.0
1244.952148 172.0
1266.115479 140.0
1276.596924 72.0
1277.564209 140.0
1282.406128 116.0
1294.536743 204.0
1295.783081 56.0
1295.96936 152.0
1296.492432 100.0
1296.94397 192.0
1314.015381 140.0
1331.242188 152.0
1336.686646 124.0
1339.343872 168.0
1343.59375 120.0
1347.92334 112.0
1349.80188 144.0
1356.346802 168.0
1364.796509 164.0
1364.870117 172.0
1365.083374 104.0
1370.265015 44.0
1373.346313 204.0
1376.822388 164.0
1379.548828 148.0
1390.169678 232.0
1390.258667 120.0
1390.407104 156.0
1396.313354 164.0
1402.217041 116.0
1405.47583 136.0
1406.393677 132.0
1412.565552 240.0
1414.009644 232.0
1414.765625 132.0
1420.783325 148.0
1423.079834 96.0
1429.431152 168.0
1436.709229 172.0
1437.991943 116.0
1440.460938 192.0
1440.793335 56.0
1443.907471 56.0
1451.100952 120.0
1452.959106 144.0
1453.034912 248.0
1454.924561 192.0
1459.589478 60.0
1464.063965 192.0
1466.379883 144.0
1471.872437 164.0
1473.170776 152.0
1481.141235 124.0
1483.900024 36.0
1492.837524 208.0
1495.999634 140.0
