>compound MLS000876957-01!5,7-dihydroxy-2-(4-hydroxyphenyl)-6-methyl-2,3-dihydrochromen-4-one
>formula C16H14O5
>ionization [M+H]+
>parentmass 287.092
#inchi InChI=1S/C16H14O5/c1-8-11(18)6-14-15(16(8)20)12(19)7-13(21-14)9-2-4-10(17)5-3-9/h2-6,13,17-18,20H,7H2,1H3
#inchikey SLFZBNOERHGNMI
#Ion_Source LC-ESI
#Instrument qTof
#Compound_Source NIH Natural Product Library
#PI Dorrestein
#Data_Collector VVP/LMS
#Scan -1
#Precursor_MZ 287.092
#ExactMass 286.084
#Charge 1
#CAS_Number N/A
#Pubmed_ID N/A
#Smiles Cc1c(O)cc2OC(CC(=O)c2c1O)c3ccc(O)cc3
#INCHI_AUX N/A
#Library_Class 1
#SpectrumID CCMSLIB00000080485
#IonMode Positive
#UpdateWorkflowName UPDATE-SINGLE-ANNOTATED-GOLD
#LibraryQualityString Gold
#TaskID b1d8e8f6646f4e71acdff9ca3d919d08
##Scan# 2022
#SpectrumFile p2-F09_GF9_01_18045.mzXML
#LibraryName NIH_Natural_Products_Library.mgf
#MQScore -1
#Organism NIH_Natural_Products_Library
#TIC_Query 0
#RT_Query -1
#MZErrorPPM -1
#SharedPeaks 0
#MassDiff 0
#LibMZ -1
#SpecMZ 287.092
#SpecCharge 0
#internalFilename spec-00000.mgf

>collision 10
96.363113 176.0
97.024635 148.0
98.027069 144.0
98.048744 128.0
98.896057 156.0
98.931686 176.0
99.014847 156.0
99.582085 132.0
103.051849 144.0
104.648705 164.0
105.078156 172.0
106.920349 136.0
107.046471 784.0
107.235458 192.0
108.053207 200.0
110.03389 172.0
110.960732 204.0
111.676819 128.0
112.015709 160.0
112.633774 164.0
115.012009 108.0
115.535553 120.0
116.786171 140.0
117.018585 40.0
117.764725 176.0
117.788483 144.0
118.078117 160.0
118.21225 132.0
118.764717 168.0
119.025146 148.0
119.049156 2212.0
119.670937 132.0
120.052307 332.0
121.025795 204.0
121.697815 88.0
122.009804 84.0
123.035797 204.0
123.043869 144.0
123.168945 72.0
123.717361 124.0
124.007545 212.0
124.320259 124.0
128.062958 176.0
128.88414 168.0
129.074005 200.0
129.510788 188.0
130.573013 40.0
130.711777 64.0
131.016876 188.0
131.050018 228.0
132.453781 132.0
132.781555 68.0
137.059296 124.0
137.188904 128.0
137.632202 176.0
139.040634 308.0
140.623062 192.0
141.263412 72.0
141.62558 156.0
142.717239 160.0
144.054276 116.0
145.059341 200.0
146.997894 144.0
147.043045 2104.0
147.217575 96.0
147.29245 76.0
147.449493 56.0
148.054779 176.0
149.022003 156.0
152.435806 132.0
154.385788 224.0
156.903625 144.0
162.867935 204.0
163.04834 132.0
163.066132 136.0
163.732712 156.0
165.019623 324.0
165.061554 184.0
166.564148 124.0
166.995972 128.0
167.033661 7024.0
167.113632 92.0
167.25444 44.0
167.320206 40.0
167.343369 68.0
167.485016 40.0
167.611252 92.0
167.688568 72.0
167.894821 96.0
167.933502 44.0
168.035461 484.0
168.070236 48.0
168.101196 76.0
168.8685 88.0
169.037018 144.0
169.251511 92.0
169.300705 56.0
169.33696 128.0
171.037674 96.0
172.237137 76.0
172.793961 88.0
172.969299 136.0
175.127701 160.0
175.462372 80.0
179.010315 144.0
179.060913 148.0
180.106461 88.0
183.029739 208.0
184.04747 160.0
189.059052 212.0
193.050842 112.0
195.088776 200.0
196.687744 100.0
197.056381 160.0
198.761566 52.0
200.9422 156.0
205.008408 116.0
206.018478 172.0
211.07132 208.0
223.039902 156.0
229.051559 132.0
237.060684 172.0
245.082779 152.0
269.080811 128.0
270.090607 156.0
272.855072 108.0
283.044983 112.0
287.087128 404.0
287.941406 48.0
288.194763 144.0
827.565308 164.0
910.132996 252.0
927.580627 104.0
1027.658203 252.0
1070.479736 180.0
1115.710449 20.0
1127.655518 140.0
1144.554199 168.0
1184.276733 188.0
1231.358643 208.0
1236.518188 152.0
1238.261475 156.0
1251.181763 152.0
1258.951904 56.0
1271.482544 200.0
1280.1698 108.0
1323.75293 116.0
1325.839233 200.0
1332.703857 116.0
1344.434692 80.0
1357.947388 192.0
1365.387207 172.0
1374.152954 240.0
1384.501343 140.0
1388.911255 100.0
1394.130615 164.0
1400.30542 160.0
1406.255127 164.0
1425.494507 144.0
1448.233032 176.0
1467.954712 76.0
1476.760254 160.0
1494.865601 100.0
1500.274414 60.0
