>compound MLS002153304-01!Rutaecarpine84-26-4
>formula C18H13N3O
>ionization [M+H]+
>parentmass 288.114044
#inchi InChI=1S/C18H13N3O/c22-18-13-6-2-4-8-15(13)20-17-16-12(9-10-21(17)18)11-5-1-3-7-14(11)19-16/h1-8,19H,9-10H2
#inchikey ACVGWSKVRYFWRP
#Ion_Source LC-ESI
#Instrument qTof
#Compound_Source NIH Pharmacologically Active Library
#PI Dorrestein
#Data_Collector VP/LMS
#Scan -1
#Precursor_MZ 288.117
#ExactMass 287.106
#Charge 1
#CAS_Number N/A
#Pubmed_ID N/A
#Smiles O=c1n2CCc3c([nH]c4ccccc34)-c2nc5ccccc15
#INCHI_AUX N/A
#Library_Class 1
#SpectrumID CCMSLIB00000084901
#IonMode Positive
#UpdateWorkflowName UPDATE-SINGLE-ANNOTATED-GOLD
#LibraryQualityString Gold
#TaskID d252d724072548979f1f6f1ced849daf
##Scan# 2246
#SpectrumFile p3-C05_GC5_01_18250.mzXML
#LibraryName Pharm_Active_Library.mgf
#MQScore -1
#Organism Pharm_Active_Library
#TIC_Query 0
#RT_Query -1
#MZErrorPPM -1
#SharedPeaks 0
#MassDiff 0
#LibMZ -1
#SpecMZ 288.117
#SpecCharge 0
#internalFilename spec-00000.mgf

>collision 10
44.893597 112.0
44.930946 132.0
44.946957 168.0
45.07515 48.0
45.104553 220.0
45.163387 96.0
45.175426 176.0
45.210217 172.0
45.22628 168.0
45.249035 140.0
45.286533 136.0
45.307968 88.0
45.332085 132.0
45.458141 148.0
45.491699 112.0
45.540039 124.0
45.552128 80.0
45.632767 128.0
45.671764 124.0
45.686562 136.0
45.80368 152.0
45.838711 128.0
45.871059 148.0
45.888889 196.0
45.91016 108.0
45.974918 52.0
46.059978 224.0
46.107269 92.0
46.14502 108.0
46.204632 164.0
46.235752 204.0
46.24929 216.0
46.266148 212.0
46.28178 148.0
46.384048 140.0
46.510902 372.0
46.528549 84.0
46.591022 196.0
46.64674 104.0
46.669853 288.0
46.75964 152.0
46.819546 248.0
46.931286 244.0
46.942196 136.0
46.992668 200.0
47.021324 116.0
47.036339 116.0
47.123741 172.0
47.157906 144.0
47.352196 204.0
47.369839 200.0
47.397404 268.0
47.419331 108.0
47.439892 188.0
47.583946 100.0
47.651245 128.0
47.677357 224.0
47.692474 100.0
47.71722 148.0
47.735096 168.0
47.774982 152.0
47.831406 92.0
47.855705 240.0
47.887859 100.0
47.897503 164.0
47.944347 188.0
47.959511 168.0
48.013283 152.0
48.030735 196.0
48.03479 128.0
48.041328 144.0
48.062943 184.0
48.085026 112.0
48.109402 224.0
48.143009 212.0
48.16053 228.0
48.188595 140.0
48.202412 64.0
48.275681 28.0
48.296425 64.0
48.373917 36.0
48.415455 160.0
48.439003 152.0
48.469482 164.0
48.487499 132.0
48.534634 88.0
48.559952 172.0
48.610928 220.0
48.634521 72.0
48.747017 52.0
48.792889 44.0
48.819309 156.0
48.84977 200.0
48.873238 224.0
48.98494 168.0
48.997478 156.0
49.036774 180.0
49.046253 216.0
49.162018 164.0
49.187935 212.0
49.310059 180.0
49.324036 144.0
49.434528 188.0
49.468121 92.0
49.50032 196.0
49.519928 192.0
49.529736 204.0
49.561958 184.0
49.581577 128.0
49.604004 164.0
49.650272 196.0
49.763939 40.0
49.783596 220.0
49.862274 196.0
49.893196 392.0
49.926945 100.0
49.960705 48.0
49.979485 172.0
50.066273 116.0
50.10994 184.0
50.163975 212.0
50.215668 44.0
50.276337 80.0
50.358223 192.0
50.385063 180.0
50.411911 168.0
50.447247 176.0
50.478352 196.0
50.519371 136.0
50.660938 96.0
50.750229 164.0
50.792774 196.0
50.867985 132.0
50.91626 184.0
50.962357 160.0
51.014305 164.0
51.09679 192.0
51.119556 136.0
51.157986 176.0
51.190735 184.0
51.247715 136.0
51.269089 84.0
51.309002 112.0
51.326111 96.0
51.37603 168.0
51.417412 120.0
51.430256 124.0
51.478798 172.0
51.492588 244.0
51.568806 184.0
51.637436 176.0
51.726723 204.0
51.773399 136.0
51.813698 152.0
51.836433 124.0
51.873699 176.0
52.005764 120.0
52.022892 88.0
52.042995 428.0
52.077145 128.0
52.10358 176.0
52.209278 28.0
52.25647 184.0
52.314728 184.0
52.329124 44.0
52.344963 140.0
52.376591 204.0
52.440704 148.0
52.450138 172.0
52.484737 156.0
52.566959 172.0
52.590054 152.0
52.60593 136.0
52.617481 80.0
52.650692 156.0
52.694046 224.0
52.717148 140.0
52.72871 132.0
52.76318 240.0
52.774971 76.0
52.808231 132.0
52.887814 220.0
52.918858 160.0
52.947174 112.0
53.022514 164.0
53.038624 140.0
53.099354 120.0
53.126915 132.0
53.15303 152.0
53.164314 284.0
53.182056 148.0
53.243038 152.0
53.27354 204.0
53.294933 116.0
53.306957 204.0
53.362194 88.0
53.392731 144.0
53.500408 132.0
53.510601 72.0
53.542637 388.0
53.554287 200.0
53.584881 96.0
53.637344 152.0
53.681084 156.0
53.711712 112.0
53.723385 164.0
53.796352 172.0
53.824093 136.0
53.838696 176.0
53.888359 220.0
54.006775 216.0
54.046276 164.0
54.112141 52.0
54.155071 216.0
54.166328 172.0
54.273315 132.0
54.315845 208.0
54.348122 160.0
54.381874 192.0
54.467041 220.0
54.487606 152.0
54.575794 192.0
54.608147 124.0
54.618443 164.0
54.630211 180.0
54.647366 200.0
54.764168 196.0
54.792156 104.0
54.940498 196.0
54.951389 160.0
54.963192 160.0
55.051762 208.0
55.066822 212.0
55.084259 128.0
55.110851 188.0
55.156666 168.0
55.169968 144.0
55.193626 80.0
55.255749 220.0
55.272022 120.0
55.444641 128.0
55.461594 116.0
55.47197 180.0
55.528316 168.0
55.620308 136.0
55.630699 168.0
55.645992 168.0
55.703465 148.0
55.77182 168.0
55.792568 92.0
55.797634 204.0
55.802582 52.0
55.834267 172.0
55.858067 196.0
55.960754 140.0
55.993515 148.0
56.022198 204.0
56.072479 340.0
56.082912 156.0
56.144043 184.0
56.161942 256.0
56.209682 148.0
56.293278 212.0
56.32016 160.0
56.342567 104.0
56.397861 224.0
56.472584 164.0
56.557911 164.0
56.571381 188.0
56.598331 308.0
56.620796 176.0
56.668732 196.0
56.700199 176.0
56.731678 180.0
56.770569 192.0
56.829163 164.0
56.859177 56.0
56.886192 160.0
56.987827 220.0
57.104073 104.0
57.185322 180.0
57.504856 200.0
57.550144 200.0
57.587223 188.0
57.630196 116.0
57.66193 116.0
57.741131 180.0
57.752651 216.0
57.769291 140.0
57.793499 192.0
57.831333 212.0
57.902493 236.0
57.932789 192.0
57.944908 124.0
57.972183 324.0
58.010036 188.0
58.026752 164.0
58.108654 200.0
58.123825 180.0
58.164803 76.0
58.178467 176.0
58.21339 208.0
58.226875 168.0
58.2421 168.0
58.274738 248.0
58.31974 188.0
58.373795 164.0
58.404537 104.0
58.413353 184.0
58.442921 104.0
58.500755 128.0
58.564713 204.0
58.589085 144.0
58.65004 204.0
58.741535 172.0
58.752213 144.0
58.855999 156.0
58.872799 140.0
58.956623 184.0
58.966595 264.0
58.993507 164.0
59.024086 52.0
59.111279 112.0
59.135765 136.0
59.15107 148.0
59.166378 164.0
59.210423 168.0
59.214806 128.0
59.222427 120.0
59.238358 180.0
59.354839 68.0
59.376308 196.0
59.403549 232.0
59.511349 128.0
59.597366 200.0
59.615807 152.0
59.637321 224.0
59.651157 176.0
59.708279 188.0
59.726025 192.0
59.76189 120.0
59.80397 232.0
59.901989 176.0
59.922016 56.0
59.942047 84.0
60.034542 88.0
60.0839 148.0
60.127106 136.0
60.213566 124.0
60.232952 128.0
60.263 120.0
60.273396 128.0
60.326366 228.0
60.357288 88.0
60.416061 184.0
60.535244 108.0
60.555378 108.0
60.575512 184.0
60.618896 220.0
60.642143 152.0
60.674694 92.0
60.735176 152.0
60.755341 176.0
60.797237 80.0
60.825172 168.0
60.846909 40.0
60.902813 96.0
60.913685 220.0
60.955635 108.0
61.002262 196.0
61.095573 212.0
61.132915 144.0
61.150036 208.0
61.283958 76.0
61.326416 148.0
61.363449 116.0
61.420948 212.0
61.463276 172.0
61.486683 184.0
61.550869 176.0
61.614079 196.0
61.633476 36.0
61.653793 284.0
61.664734 208.0
61.721012 152.0
61.765377 284.0
61.785141 28.0
61.841946 200.0
61.87748 140.0
61.897835 328.0
61.919758 116.0
61.940121 164.0
61.952652 52.0
61.97929 40.0
61.991825 184.0
62.034145 160.0
62.048252 180.0
62.121964 104.0
62.13765 160.0
62.170605 140.0
62.198856 160.0
62.228683 88.0
62.258518 176.0
62.278934 132.0
62.311924 232.0
62.371643 92.0
62.423527 136.0
62.51162 148.0
62.566711 164.0
62.580719 116.0
62.669086 164.0
62.762081 120.0
62.855148 188.0
62.874084 164.0
62.927757 212.0
63.054131 200.0
63.099972 176.0
63.262924 144.0
63.297756 244.0
63.365868 104.0
63.38488 168.0
63.414993 120.0
63.460964 68.0
63.482491 160.0
63.541855 64.0
63.586285 68.0
63.606922 164.0
63.64185 136.0
63.683136 168.0
63.719673 140.0
63.803909 232.0
63.82935 44.0
63.912064 112.0
63.934227 164.0
63.964584 156.0
64.036232 160.0
64.048981 88.0
64.063316 212.0
64.079247 60.0
64.176476 196.0
64.230698 124.0
64.254623 184.0
64.310478 188.0
64.336021 192.0
64.375938 92.0
64.466995 160.0
64.484497 172.0
64.510147 204.0
64.540527 124.0
64.561348 184.0
64.602493 172.0
64.682915 148.0
64.698921 80.0
64.750168 144.0
64.788612 136.0
64.879959 152.0
65.094963 148.0
65.127083 88.0
65.172066 192.0
65.20742 180.0
65.306938 156.0
65.382919 164.0
65.487381 52.0
65.54454 160.0
65.561493 116.0
65.574387 96.0
65.627579 96.0
65.646935 152.0
65.6679 152.0
65.705002 148.0
65.727188 192.0
65.82283 48.0
65.842209 176.0
65.95369 140.0
66.003807 108.0
66.018364 176.0
66.131615 120.0
66.151039 108.0
66.172081 92.0
66.204468 88.0
66.256851 200.0
66.301674 148.0
66.326469 180.0
66.376244 80.0
66.407059 52.0
66.433655 252.0
66.463837 112.0
66.49305 188.0
66.544998 104.0
66.637573 28.0
66.658981 564.0
66.673325 172.0
66.696075 300.0
66.726967 124.0
66.792015 152.0
66.848961 64.0
66.902542 148.0
66.951523 132.0
66.966179 180.0
67.049271 180.0
67.244987 188.0
67.264572 156.0
67.310287 136.0
67.323349 60.0
67.369087 120.0
67.4132 48.0
67.431175 188.0
67.469322 156.0
67.566818 152.0
67.626495 220.0
67.725693 108.0
67.75354 172.0
67.776482 76.0
67.791229 176.0
67.809258 116.0
67.855156 148.0
67.892868 36.0
67.910912 144.0
68.006073 156.0
68.06353 212.0
68.112801 168.0
68.129944 228.0
68.232773 132.0
68.252502 140.0
68.267303 68.0
68.341324 216.0
68.359421 112.0
68.423615 168.0
68.435143 136.0
68.454903 140.0
68.505959 180.0
68.570221 116.0
68.636162 60.0
68.6576 212.0
68.708984 132.0
68.797859 208.0
68.819321 152.0
68.9366 156.0
68.961388 168.0
68.996101 240.0
69.007675 156.0
69.049019 148.0
69.068871 112.0
69.15345 240.0
69.217819 200.0
69.325493 208.0
69.365273 180.0
69.388481 192.0
69.406723 104.0
69.448181 196.0
69.489655 156.0
69.51786 196.0
69.539436 128.0
69.572639 136.0
69.656937 220.0
69.678925 124.0
69.709694 124.0
69.730438 188.0
69.755371 124.0
69.815231 224.0
69.850159 196.0
69.863464 152.0
69.876778 232.0
69.959076 204.0
69.979965 160.0
70.009941 108.0
70.083237 120.0
70.098351 176.0
70.163239 112.0
70.203255 140.0
70.26664 96.0
70.304688 160.0
70.321709 200.0
70.333397 140.0
70.353836 148.0
70.385147 148.0
70.430244 160.0
70.516083 140.0
70.541122 356.0
70.568352 112.0
70.586937 116.0
70.620789 148.0
70.655167 196.0
70.674324 180.0
70.694405 204.0
70.7071 136.0
70.721184 220.0
70.739594 148.0
70.76638 196.0
70.814262 256.0
70.853477 100.0
70.880051 204.0
70.960968 204.0
70.987564 80.0
71.00769 84.0
71.037094 108.0
71.071228 192.0
71.073914 160.0
71.08532 148.0
71.19062 52.0
71.241013 52.0
71.262856 168.0
71.30481 124.0
71.348564 132.0
71.367065 196.0
71.412468 172.0
71.463707 184.0
71.494904 200.0
71.539238 224.0
71.610275 180.0
71.662109 244.0
71.695312 168.0
71.800346 176.0
71.824005 196.0
71.862259 168.0
71.911194 192.0
71.956772 44.0
72.009842 216.0
72.031082 136.0
72.056419 76.0
72.081764 200.0
72.147232 164.0
72.167458 184.0
72.191422 180.0
72.208557 116.0
72.235619 120.0
72.257614 108.0
72.274536 144.0
72.315147 172.0
72.391335 84.0
72.457924 140.0
72.515007 148.0
72.539818 332.0
72.611649 68.0
72.686295 116.0
72.745697 148.0
72.815315 244.0
72.85778 96.0
72.91555 128.0
73.071999 124.0
73.106026 204.0
73.143471 192.0
73.205902 172.0
73.213188 148.0
73.234665 144.0
73.26268 136.0
73.295761 220.0
73.419495 144.0
73.459778 136.0
73.465981 172.0
73.489433 204.0
73.540627 188.0
73.586716 172.0
73.719955 72.0
73.757553 144.0
73.812263 184.0
73.82946 144.0
73.846466 112.0
73.877258 196.0
73.9748 192.0
74.036438 136.0
74.058708 148.0
74.072411 156.0
74.170082 124.0
74.202652 140.0
74.271248 152.0
74.317192 396.0
74.336449 164.0
74.381073 160.0
74.399956 156.0
74.415405 380.0
74.427422 72.0
74.463486 124.0
74.52877 204.0
74.549385 104.0
74.576889 108.0
74.592354 152.0
74.619865 136.0
74.747971 176.0
74.819435 132.0
74.900146 180.0
74.939995 156.0
74.971016 136.0
75.017555 144.0
75.062378 164.0
75.191765 180.0
75.240097 204.0
75.2547 192.0
75.371361 80.0
75.386917 128.0
75.399017 148.0
75.462975 152.0
75.478539 236.0
75.506203 216.0
75.745064 232.0
75.797035 164.0
75.812637 124.0
75.860207 208.0
75.875038 108.0
75.887169 128.0
75.911446 176.0
75.960014 176.0
76.000458 244.0
76.017265 136.0
76.03949 176.0
76.130104 156.0
76.230865 224.0
76.243027 76.0
76.336906 108.0
76.406479 164.0
76.430084 240.0
76.446495 140.0
76.486183 228.0
76.590111 132.0
76.625847 104.0
76.645859 164.0
76.711243 144.0
76.732162 160.0
76.77401 192.0
76.823814 116.0
76.882172 132.0
76.901375 148.0
76.951996 144.0
76.99041 148.0
77.00264 136.0
77.077469 196.0
77.110962 132.0
77.140678 240.0
77.152916 168.0
77.184387 136.0
77.207741 192.0
77.224609 136.0
77.264839 172.0
77.28759 172.0
77.320099 104.0
77.375099 224.0
77.392609 160.0
77.494202 240.0
77.511719 188.0
77.571312 196.0
77.604622 88.0
77.653244 176.0
77.68354 224.0
77.707329 152.0
77.734421 136.0
77.758995 160.0
77.790588 60.0
77.872253 212.0
77.894196 112.0
77.966232 36.0
77.980293 104.0
77.992599 240.0
78.025452 400.0
78.050613 32.0
78.071716 224.0
78.096336 120.0
78.127541 168.0
78.134644 124.0
78.141174 140.0
78.164948 116.0
78.190247 160.0
78.220177 168.0
78.328537 140.0
78.358635 176.0
78.392113 220.0
78.415024 320.0
78.444984 308.0
78.47496 68.0
78.559616 220.0
78.605087 140.0
78.626663 188.0
78.760849 52.0
78.779747 212.0
78.820801 180.0
78.877472 164.0
78.928749 124.0
78.980873 152.0
79.10154 204.0
79.128967 176.0
79.172066 176.0
79.229637 48.0
79.253822 104.0
79.281021 136.0
79.300461 132.0
79.393364 140.0
79.511574 108.0
79.548843 160.0
79.564827 156.0
79.67849 148.0
79.698029 164.0
79.765564 164.0
79.788673 92.0
79.813568 48.0
79.829575 116.0
79.850914 216.0
79.868698 120.0
79.89003 204.0
79.929291 136.0
80.000381 84.0
80.016403 172.0
80.03421 132.0
80.288506 188.0
80.317574 104.0
80.353256 196.0
80.371094 92.0
80.408569 120.0
80.429993 116.0
80.646828 192.0
80.685448 120.0
80.727867 188.0
80.740356 468.0
80.758759 208.0
80.771286 164.0
80.862534 168.0
80.96817 64.0
81.15274 168.0
81.196587 156.0
81.267532 128.0
81.283684 152.0
81.296242 116.0
81.371635 128.0
81.396767 228.0
81.434486 124.0
81.46682 144.0
81.524315 64.0
81.536896 172.0
81.558464 132.0
81.574638 144.0
81.650162 128.0
81.675339 148.0
81.756302 152.0
81.795898 184.0
81.825691 292.0
81.86792 168.0
81.893845 244.0
81.91655 108.0
81.936363 116.0
82.021065 216.0
82.07515 152.0
82.087776 260.0
82.246758 220.0
82.273613 144.0
82.313339 80.0
82.37294 104.0
82.430756 180.0
82.472321 240.0
82.52475 164.0
82.5989 196.0
82.660408 176.0
82.675179 148.0
82.694794 208.0
82.756348 108.0
82.810677 128.0
82.832405 164.0
82.899445 108.0
82.982826 188.0
83.019096 124.0
83.066254 144.0
83.104347 124.0
83.118622 208.0
83.227776 120.0
83.280441 172.0
83.300423 152.0
83.342209 192.0
83.425812 176.0
83.447624 60.0
83.460358 152.0
83.476723 180.0
83.716934 124.0
83.740402 184.0
83.82753 124.0
83.840813 176.0
83.860863 108.0
83.877266 60.0
83.921021 196.0
83.947098 340.0
83.962959 164.0
84.018669 260.0
84.039619 176.0
84.163696 164.0
84.222137 180.0
84.248703 172.0
84.397728 144.0
84.450615 52.0
84.474396 132.0
84.512718 160.0
84.534882 132.0
84.653763 180.0
84.681229 164.0
84.776543 156.0
84.846153 148.0
84.934174 104.0
84.958023 68.0
84.994713 268.0
85.069618 228.0
85.084106 148.0
85.108521 132.0
85.156265 176.0
85.255478 128.0
85.272018 136.0
85.470627 108.0
85.492714 164.0
85.505592 136.0
85.547928 128.0
85.59948 108.0
85.656578 188.0
85.702637 156.0
85.739441 156.0
85.743904 152.0
85.842728 52.0
85.927574 144.0
85.951561 180.0
86.012466 152.0
86.040443 104.0
86.101089 160.0
86.125099 196.0
86.170685 160.0
86.17569 260.0
86.226723 128.0
86.276634 164.0
86.313606 160.0
86.393143 144.0
86.411995 252.0
86.433846 132.0
86.465302 368.0
86.528244 152.0
86.551277 136.0
86.576385 248.0
86.629173 168.0
86.644768 172.0
86.698654 72.0
86.78022 136.0
86.821014 108.0
86.86367 132.0
86.889389 140.0
86.969437 192.0
87.039131 168.0
87.10685 48.0
87.127281 108.0
87.196037 204.0
87.251801 56.0
87.273941 176.0
87.297829 172.0
87.402458 88.0
87.476898 176.0
87.604103 196.0
87.63707 348.0
87.682648 132.0
87.696701 160.0
87.711609 140.0
87.734924 148.0
87.860802 352.0
87.88279 132.0
87.893433 204.0
87.950371 220.0
88.004509 136.0
88.025047 120.0
88.041855 116.0
88.088554 140.0
88.17263 144.0
88.190491 184.0
88.261765 212.0
88.350273 216.0
88.365234 172.0
88.387688 100.0
88.412018 160.0
88.425117 132.0
88.475655 136.0
88.5 180.0
88.623619 164.0
88.653603 76.0
88.764198 136.0
88.794205 180.0
88.826096 132.0
88.918037 136.0
89.043861 192.0
89.085152 128.0
89.105812 232.0
89.160309 116.0
89.203537 120.0
89.245186 336.0
89.261818 120.0
89.297554 216.0
89.333069 136.0
89.350227 188.0
89.38974 76.0
89.465027 156.0
89.480087 212.0
89.508331 204.0
89.55323 204.0
89.566017 120.0
89.573303 128.0
89.580467 184.0
89.615219 160.0
89.7005 48.0
89.734383 140.0
89.738869 136.0
89.801689 168.0
89.824959 84.0
89.857841 196.0
89.921188 328.0
90.009514 152.0
90.034981 556.0
90.050461 356.0
90.068459 76.0
90.161522 204.0
90.179939 208.0
90.242325 144.0
90.265015 168.0
90.281654 192.0
90.30851 112.0
90.431496 120.0
90.450424 184.0
90.539413 196.0
90.565926 120.0
90.596237 132.0
90.66626 88.0
90.700462 140.0
90.753548 224.0
90.774399 92.0
90.857857 84.0
90.874931 68.0
90.940735 160.0
90.979317 88.0
91.039917 448.0
91.056076 160.0
91.123657 176.0
91.266205 148.0
91.287125 116.0
91.327065 168.0
91.530701 56.0
91.551643 140.0
91.604973 144.0
91.63546 96.0
91.665947 140.0
91.686905 140.0
91.761246 128.0
91.784126 132.0
91.845154 48.0
91.859718 208.0
91.873772 204.0
91.890938 144.0
91.938019 208.0
92.049713 1100.0
92.144867 172.0
92.158241 80.0
92.225426 156.0
92.295868 112.0
92.349411 132.0
92.372368 116.0
92.401062 160.0
92.422112 116.0
92.49292 172.0
92.529289 60.0
92.575249 148.0
92.598228 156.0
92.612373 116.0
92.632706 64.0
92.653183 232.0
92.669106 212.0
92.71701 92.0
92.741928 56.0
92.764931 148.0
92.791771 212.0
92.822449 128.0
92.847382 372.0
92.939461 152.0
93.050781 320.0
93.1138 176.0
93.137199 152.0
93.166008 108.0
93.208282 116.0
93.231339 204.0
93.25248 152.0
93.265938 164.0
93.293732 160.0
93.326355 80.0
93.383224 140.0
93.414001 180.0
93.487114 44.0
93.523087 156.0
93.552986 232.0
93.57373 56.0
93.750893 144.0
93.806839 168.0
93.828049 148.0
93.870468 164.0
93.918678 84.0
93.963051 172.0
94.001274 148.0
94.082703 184.0
94.103943 132.0
94.129044 124.0
94.150284 180.0
94.185051 156.0
94.260239 96.0
94.287254 196.0
94.337708 136.0
94.358978 180.0
94.409248 116.0
94.478882 144.0
94.538864 96.0
94.596931 96.0
94.656952 136.0
94.693748 208.0
94.706841 168.0
94.738297 140.0
94.819397 220.0
94.86338 196.0
95.008537 172.0
95.112556 120.0
95.133911 224.0
95.244598 96.0
95.264023 252.0
95.288574 224.0
95.364265 224.0
95.427269 128.0
95.556679 112.0
95.705505 144.0
95.840584 184.0
95.908119 132.0
95.956848 108.0
95.97245 96.0
96.01535 156.0
96.030952 160.0
96.062706 72.0
96.255386 156.0
96.290535 212.0
96.317879 168.0
96.39994 180.0
96.415573 44.0
96.440979 64.0
96.460526 112.0
96.497673 144.0
96.517227 128.0
96.570023 132.0
96.628716 136.0
96.650238 168.0
96.690849 180.0
96.771591 148.0
96.844048 136.0
96.885185 140.0
97.000801 180.0
97.047852 104.0
97.061577 112.0
97.11721 160.0
97.151802 136.0
97.167496 60.0
97.314697 220.0
97.332367 192.0
97.355934 208.0
97.373291 148.0
97.380074 124.0
97.386032 184.0
97.424675 116.0
97.450676 188.0
97.537315 200.0
97.589767 128.0
97.603531 60.0
97.645599 256.0
97.723518 160.0
97.745163 48.0
97.798294 140.0
97.880981 152.0
97.903732 224.0
97.987343 116.0
98.036606 120.0
98.0504 96.0
98.089821 160.0
98.123589 124.0
98.202209 144.0
98.257446 40.0
98.304802 168.0
98.322273 216.0
98.468658 56.0
98.494339 144.0
98.521675 124.0
98.577316 64.0
98.616844 132.0
98.654404 172.0
98.668243 56.0
98.695747 140.0
98.747337 96.0
98.848228 196.0
98.875938 96.0
98.905624 128.0
98.955116 196.0
99.024429 148.0
99.050957 172.0
99.145279 176.0
99.228531 108.0
99.29026 124.0
99.343559 116.0
99.360329 124.0
99.400345 200.0
99.547997 140.0
99.621483 160.0
99.67852 232.0
99.700958 200.0
99.80632 176.0
99.852058 120.0
99.885872 244.0
99.917702 124.0
99.95475 148.0
100.02317 116.0
100.082893 172.0
100.138863 156.0
100.230843 160.0
100.3778 196.0
100.469551 68.0
100.547371 220.0
100.595276 192.0
100.659164 224.0
100.682686 180.0
100.701103 168.0
100.713791 136.0
100.754189 140.0
100.83297 196.0
100.848961 160.0
100.898125 168.0
100.928925 144.0
101.062935 116.0
101.098953 172.0
101.127586 224.0
101.159004 140.0
101.209053 36.0
101.233086 204.0
101.255112 120.0
101.279816 180.0
101.311241 184.0
101.333237 156.0
101.349266 136.0
101.413391 64.0
101.447815 116.0
101.493584 228.0
101.547729 144.0
101.583832 108.0
101.619949 148.0
101.672119 208.0
101.706238 160.0
101.786545 72.0
101.812653 156.0
101.840767 192.0
101.854828 156.0
101.88295 156.0
101.946022 196.0
101.971367 208.0
102.04213 452.0
102.083946 184.0
102.124168 268.0
102.220741 152.0
102.246902 144.0
102.297218 40.0
102.315338 44.0
102.331444 152.0
102.361649 204.0
102.407967 188.0
102.518776 136.0
102.559082 200.0
102.583275 172.0
102.611496 184.0
102.633675 148.0
102.663925 136.0
102.770836 216.0
102.784958 140.0
102.826286 100.0
102.853577 124.0
102.875786 216.0
102.978767 144.0
103.021187 124.0
103.052658 460.0
103.093925 80.0
103.151527 176.0
103.211166 160.0
103.243523 156.0
103.257675 164.0
103.273857 168.0
103.317497 112.0
103.329727 168.0
103.372993 132.0
103.395256 124.0
103.433708 124.0
103.447876 84.0
103.466103 160.0
103.484688 244.0
103.571877 136.0
103.654465 220.0
103.731682 164.0
103.792305 172.0
103.808525 140.0
103.826775 176.0
103.845146 144.0
103.885597 180.0
104.05024 840.0
104.086533 196.0
104.13324 188.0
104.207047 96.0
104.259254 156.0
104.393372 180.0
104.460495 132.0
104.482872 156.0
104.519493 88.0
104.535774 228.0
104.561554 328.0
104.636612 200.0
104.725113 76.0
104.76178 176.0
104.8657 132.0
104.904427 80.0
104.945198 96.0
104.981903 120.0
105.034134 388.0
105.05941 176.0
105.11042 72.0
105.14035 184.0
105.177055 184.0
105.205231 180.0
105.253304 172.0
105.271683 160.0
105.349297 92.0
105.38607 272.0
105.40242 156.0
105.422379 188.0
105.588448 140.0
105.608902 136.0
105.641876 132.0
105.709152 200.0
105.784882 116.0
105.825821 156.0
105.842079 128.0
105.93232 124.0
106.008125 132.0
106.051163 140.0
106.068687 168.0
106.094803 208.0
106.152695 220.0
106.19059 100.0
106.224701 156.0
106.260338 156.0
106.282906 264.0
106.334206 60.0
106.377312 320.0
106.45739 184.0
106.471764 132.0
106.497093 144.0
106.523109 140.0
106.558037 204.0
106.706017 172.0
106.726753 184.0
106.782097 140.0
106.891136 180.0
107.037285 248.0
107.056488 172.0
107.074348 176.0
107.092888 104.0
107.121254 156.0
107.308891 176.0
107.412376 116.0
107.437134 152.0
107.542671 140.0
107.618752 128.0
107.645599 136.0
107.660057 156.0
107.678642 60.0
107.788132 128.0
107.920418 136.0
108.021759 176.0
108.041451 108.0
108.104515 160.0
108.144737 172.0
108.234932 148.0
108.258659 52.0
108.307411 44.0
108.375778 236.0
108.450386 140.0
108.518791 196.0
108.539528 252.0
108.56649 200.0
108.601746 124.0
108.61834 144.0
108.632858 84.0
108.67643 128.0
108.730385 212.0
108.749062 100.0
108.769814 144.0
108.873627 196.0
108.894402 192.0
109.029442 76.0
109.046066 188.0
109.064774 188.0
109.100113 176.0
109.164566 200.0
109.208244 148.0
109.223221 100.0
109.270653 120.0
109.32267 60.0
109.399681 140.0
109.424667 228.0
109.451729 168.0
109.576706 180.0
109.591286 164.0
109.626709 208.0
109.670479 128.0
109.739273 204.0
109.804108 220.0
109.895706 140.0
109.968742 140.0
110.007126 236.0
110.056908 188.0
110.108627 168.0
110.127426 144.0
110.144135 192.0
110.194267 144.0
110.288307 208.0
110.311302 104.0
110.447838 204.0
110.629272 124.0
110.655678 216.0
110.706749 184.0
110.723503 120.0
110.738159 184.0
110.771675 164.0
110.801003 160.0
110.905785 112.0
110.920456 192.0
110.956291 208.0
111.021095 124.0
111.084015 132.0
111.149055 144.0
111.188927 132.0
111.262398 116.0
111.329582 244.0
111.377892 128.0
111.476639 132.0
111.506058 72.0
111.560707 116.0
111.579628 180.0
111.598557 152.0
111.656906 176.0
111.691513 216.0
111.884689 144.0
111.941536 160.0
112.008934 184.0
112.046852 116.0
112.067924 192.0
112.103172 280.0
112.185944 140.0
112.238655 156.0
112.289268 152.0
112.318794 120.0
112.341995 100.0
112.57206 144.0
112.616409 192.0
112.643867 124.0
112.673447 148.0
112.688232 84.0
112.703026 152.0
112.722038 224.0
112.745285 112.0
112.781219 152.0
112.836182 152.0
112.860596 160.0
112.965179 188.0
113.025238 152.0
113.042526 200.0
113.13871 132.0
113.183174 160.0
113.267891 88.0
113.301781 204.0
113.325089 60.0
113.348396 104.0
113.428932 72.0
113.464973 160.0
113.482643 296.0
113.628281 148.0
113.670715 64.0
113.751366 100.0
113.783073 192.0
113.816772 104.0
113.946739 184.0
114.023239 240.0
114.044495 136.0
114.14016 344.0
114.1912 164.0
114.212471 144.0
114.312462 124.0
114.352463 156.0
114.361 124.0
114.421021 164.0
114.444435 176.0
114.4636 180.0
114.504066 232.0
114.562958 224.0
114.601357 220.0
114.670242 168.0
114.746986 44.0
114.766174 100.0
114.830147 144.0
114.855743 192.0
114.874947 132.0
114.904808 148.0
114.940086 168.0
115.022018 104.0
115.054016 11404.0
115.158836 48.0
115.199425 76.0
115.231468 36.0
115.246422 152.0
115.269928 36.0
115.304123 60.0
115.328362 176.0
115.391762 40.0
115.413147 92.0
115.434525 152.0
115.45591 64.0
115.501106 124.0
115.541473 152.0
115.56073 92.0
115.644188 40.0
115.711555 152.0
115.73893 156.0
115.845467 188.0
115.950455 148.0
115.999901 180.0
116.050049 3460.0
116.082657 108.0
116.117683 116.0
116.175598 140.0
116.207779 120.0
116.265717 76.0
116.280746 112.0
116.469688 128.0
116.497612 228.0
116.518105 156.0
116.534134 60.0
116.553474 216.0
116.587318 176.0
116.619095 172.0
116.645081 224.0
116.708061 148.0
116.714912 228.0
116.754936 156.0
116.774902 156.0
116.820068 200.0
116.895378 128.0
117.00515 116.0
117.045486 3524.0
117.112816 120.0
117.196831 132.0
117.231308 208.0
117.25502 108.0
117.285194 52.0
117.311058 104.0
117.531952 124.0
117.558311 164.0
117.563766 196.0
117.592369 144.0
117.636803 152.0
117.679382 332.0
117.725327 212.0
117.742599 84.0
117.762642 172.0
117.781479 56.0
117.7966 184.0
117.844124 96.0
117.863571 120.0
117.932732 172.0
117.994461 244.0
118.002922 136.0
118.006683 172.0
118.030014 216.0
118.065155 1724.0
118.13166 128.0
118.177094 28.0
118.231987 196.0
118.254997 128.0
118.324272 264.0
118.410889 176.0
118.432549 148.0
118.452042 28.0
118.491035 144.0
118.588547 96.0
118.623672 188.0
118.655746 100.0
118.738152 148.0
118.775017 36.0
118.790207 92.0
118.806061 116.0
118.915611 332.0
118.946442 164.0
119.036743 1496.0
119.06192 484.0
119.083214 368.0
119.141281 188.0
119.237495 124.0
119.307053 136.0
119.322266 112.0
119.377892 124.0
119.483208 124.0
119.53257 216.0
119.711754 148.0
119.761848 104.0
119.835915 136.0
119.872955 164.0
119.92308 96.0
119.977577 132.0
119.995018 184.0
120.016182 164.0
120.044365 9616.0
120.09156 132.0
120.150681 64.0
120.288322 232.0
120.343552 140.0
120.430519 164.0
120.466408 56.0
120.486076 176.0
120.512291 164.0
120.562546 128.0
120.684959 320.0
120.781189 112.0
120.846817 196.0
120.884018 136.0
120.954048 144.0
120.986885 88.0
121.026299 224.0
121.048553 840.0
121.07885 244.0
121.127037 36.0
121.157707 112.0
121.197144 124.0
121.280418 116.0
121.385658 68.0
121.44487 32.0
121.473381 144.0
121.543594 112.0
121.585426 192.0
121.64016 164.0
121.679672 96.0
121.698914 152.0
121.732368 168.0
121.839996 128.0
121.881744 140.0
121.961823 192.0
121.982841 116.0
122.018852 204.0
122.051422 124.0
122.145561 156.0
122.262177 172.0
122.27758 136.0
122.316925 32.0
122.408852 212.0
122.428459 180.0
122.48455 248.0
122.52861 232.0
122.639236 176.0
122.669647 76.0
122.742401 56.0
122.799744 152.0
122.82621 108.0
122.861504 156.0
122.963013 132.0
122.985085 200.0
123.000534 212.0
123.051308 84.0
123.085098 132.0
123.226662 128.0
123.300919 184.0
123.318596 80.0
123.391548 56.0
123.431343 192.0
123.530251 200.0
123.552994 180.0
123.595032 204.0
123.645927 72.0
123.665848 200.0
123.721191 196.0
123.77211 184.0
123.816399 68.0
123.842979 84.0
123.984772 172.0
124.018021 92.0
124.066788 156.0
124.104477 148.0
124.158501 212.0
124.246422 136.0
124.312988 224.0
124.37513 148.0
124.437286 160.0
124.492798 188.0
124.557213 192.0
124.628304 156.0
124.710121 176.0
124.83725 408.0
124.870613 112.0
124.915092 232.0
124.957367 152.0
124.982185 180.0
125.081985 148.0
125.24231 112.0
125.289085 84.0
125.313599 120.0
125.369301 160.0
125.393814 112.0
125.438393 156.0
125.510361 320.0
125.536499 140.0
125.590027 128.0
125.612328 280.0
125.697113 156.0
125.746208 212.0
125.831032 236.0
125.931519 168.0
125.970459 120.0
126.140686 168.0
126.275719 160.0
126.295845 128.0
126.342819 108.0
126.416321 160.0
126.508423 72.0
126.537529 160.0
126.589996 148.0
126.661873 244.0
126.666016 128.0
126.677361 164.0
126.704071 200.0
126.726799 172.0
126.799614 44.0
127.026077 136.0
127.046623 204.0
127.06646 148.0
127.095627 264.0
127.142754 36.0
127.20784 84.0
127.228043 140.0
127.261726 152.0
127.28418 104.0
127.329094 140.0
127.405464 76.0
127.425682 60.0
127.473953 132.0
127.513321 124.0
127.58744 160.0
127.670319 144.0
127.693184 144.0
127.76741 224.0
127.823662 76.0
127.900963 104.0
127.981224 168.0
128.049927 1192.0
128.080322 204.0
128.137299 164.0
128.162521 156.0
128.283127 44.0
128.407135 208.0
128.472549 132.0
128.535721 68.0
128.580856 176.0
128.664383 124.0
128.718948 116.0
128.788101 268.0
128.817184 72.0
128.851822 228.0
128.867645 136.0
129.052658 508.0
129.120361 116.0
129.195465 156.0
129.213562 196.0
129.229401 200.0
129.34256 420.0
129.36293 160.0
129.387131 260.0
129.501053 56.0
129.544098 168.0
129.559952 212.0
129.664185 188.0
129.709518 132.0
129.747467 124.0
129.791122 184.0
129.9431 176.0
129.972595 168.0
129.990738 104.0
130.026978 1500.0
130.064774 4944.0
130.136017 80.0
130.190521 240.0
130.310898 64.0
130.372253 132.0
130.397247 276.0
130.424347 152.0
130.52002 64.0
130.548065 168.0
130.579132 128.0
130.676956 72.0
130.697433 184.0
130.731567 152.0
130.770248 88.0
130.822617 136.0
130.968338 144.0
131.032196 380.0
131.068192 552.0
131.100479 168.0
131.171143 120.0
131.219009 184.0
131.268616 212.0
131.32164 120.0
131.39006 164.0
131.469925 164.0
131.589691 256.0
131.606888 128.0
131.632004 220.0
131.714218 44.0
131.730209 80.0
131.821609 116.0
131.860458 80.0
132.006775 180.0
132.043152 1384.0
132.079956 152.0
132.10054 160.0
132.139099 192.0
132.264725 128.0
132.370605 268.0
132.443893 152.0
132.473679 220.0
132.59053 128.0
132.630722 216.0
132.796875 184.0
132.835876 212.0
132.937637 204.0
133.049606 296.0
133.069962 36.0
133.095215 132.0
133.129654 144.0
133.161804 172.0
133.189377 368.0
133.357101 120.0
133.380081 224.0
133.439865 88.0
133.478943 116.0
133.499649 204.0
133.62616 116.0
133.734314 160.0
133.805679 164.0
133.826401 196.0
133.854019 296.0
133.90419 148.0
133.925415 248.0
133.941544 140.0
133.985306 184.0
134.010651 132.0
134.056976 140.0
134.116653 152.0
134.132797 128.0
134.174286 52.0
134.259338 172.0
134.361099 216.0
134.384644 192.0
134.481094 220.0
134.552658 60.0
134.573425 116.0
134.665802 356.0
134.691208 156.0
134.721237 132.0
134.774384 36.0
134.813019 160.0
134.864502 184.0
134.896866 140.0
134.944183 164.0
135.021729 124.0
135.176727 136.0
135.236893 188.0
135.269302 184.0
135.304031 72.0
135.357407 228.0
135.415176 104.0
135.447601 212.0
135.475739 136.0
135.535645 104.0
135.600525 128.0
135.630661 120.0
135.646881 212.0
135.714111 192.0
135.732666 164.0
135.748901 48.0
135.778503 256.0
135.818481 132.0
135.867447 208.0
135.904312 148.0
135.946075 72.0
135.971603 84.0
136.011063 148.0
136.096954 132.0
136.18985 172.0
136.222366 188.0
136.278137 148.0
136.350174 156.0
136.382706 228.0
136.398972 132.0
136.422226 120.0
136.443146 136.0
136.49115 192.0
136.565521 244.0
136.605942 92.0
136.633286 188.0
136.647812 224.0
136.682709 180.0
136.712967 120.0
136.747879 196.0
136.819046 192.0
136.836334 100.0
136.917831 128.0
137.021042 260.0
137.110199 140.0
137.128769 96.0
137.160141 128.0
137.223083 152.0
137.23941 92.0
137.286041 180.0
137.351349 128.0
137.45401 76.0
137.554367 212.0
137.582367 136.0
137.717804 156.0
137.769196 212.0
137.841629 192.0
137.90239 440.0
137.932785 144.0
137.958496 100.0
137.99823 144.0
138.019287 88.0
138.064774 140.0
138.084763 184.0
138.164291 192.0
138.236816 104.0
138.264908 148.0
138.307037 160.0
138.365555 160.0
138.387863 156.0
138.417068 136.0
138.433456 172.0
138.513855 208.0
138.564636 192.0
138.612701 192.0
138.745773 164.0
138.784943 160.0
138.834198 152.0
138.876404 96.0
138.96048 200.0
139.03125 164.0
139.101669 96.0
139.127487 144.0
139.18071 288.0
139.249588 128.0
139.309387 160.0
139.329453 72.0
139.442291 224.0
139.482803 376.0
139.503357 148.0
139.53157 64.0
139.594376 192.0
139.693848 92.0
139.712662 192.0
139.729126 116.0
139.783249 184.0
139.799713 212.0
139.872681 156.0
139.915054 140.0
139.990402 232.0
140.048828 3884.0
140.110519 92.0
140.164719 216.0
140.193192 196.0
140.227631 192.0
140.287277 112.0
140.308487 160.0
140.420273 296.0
140.494797 172.0
140.541687 124.0
140.565292 200.0
140.603577 160.0
140.657623 116.0
140.761505 168.0
140.846527 40.0
140.884323 44.0
140.969391 160.0
140.997849 184.0
141.052948 1592.0
141.074936 200.0
141.175049 216.0
141.219986 160.0
141.260193 128.0
141.391815 128.0
141.462189 264.0
141.489746 132.0
141.539474 120.0
141.558411 148.0
141.584457 32.0
141.608139 144.0
141.650787 76.0
141.66806 176.0
141.701096 140.0
141.740814 104.0
141.787384 336.0
141.825714 204.0
141.848618 264.0
141.930435 176.0
141.961273 308.0
142.000092 152.0
142.064636 10452.0
142.116974 212.0
142.13681 128.0
142.155792 72.0
142.189392 152.0
142.223328 220.0
142.260223 40.0
142.281479 180.0
142.295914 168.0
142.333817 124.0
142.369141 144.0
142.433563 316.0
142.468964 160.0
142.547607 68.0
142.602264 84.0
142.652191 220.0
142.689133 160.0
142.731705 72.0
142.751465 132.0
142.78772 56.0
142.825775 168.0
142.863754 136.0
142.870529 132.0
142.932831 132.0
142.968521 104.0
142.985992 180.0
143.035004 176.0
143.06752 3660.0
143.101822 144.0
143.137543 64.0
143.170319 188.0
143.232803 200.0
143.25737 160.0
143.320953 140.0
143.368607 148.0
143.409134 192.0
143.480637 96.0
143.623428 140.0
143.668777 184.0
143.717056 188.0
143.8517 140.0
143.913971 140.0
143.957138 120.0
144.002548 200.0
144.009323 144.0
144.044724 2668.0
144.08078 11888.0
144.156128 176.0
144.173325 224.0
144.209152 200.0
144.244553 120.0
144.260086 52.0
144.285187 136.0
144.313812 132.0
144.337799 48.0
144.408051 184.0
144.51001 164.0
144.525909 152.0
144.570999 148.0
144.600937 48.0
144.621643 124.0
144.648819 100.0
144.686096 140.0
144.777695 228.0
144.829651 252.0
144.84996 172.0
144.903015 192.0
144.929016 152.0
144.972153 204.0
145.03978 14976.0
145.082214 1288.0
145.119293 208.0
145.142349 76.0
145.196136 84.0
145.218842 132.0
145.237335 132.0
145.295151 164.0
145.319839 176.0
145.340332 200.0
145.394226 156.0
145.415009 128.0
145.451828 144.0
145.47583 52.0
145.492645 176.0
145.54306 68.0
145.57428 60.0
145.604492 148.0
145.636719 68.0
145.662201 184.0
145.701584 80.0
145.717545 56.0
145.7323 168.0
145.800095 132.0
145.86499 40.0
145.934708 68.0
145.985626 116.0
146.043762 2008.0
146.059784 1588.0
146.095016 128.0
146.113098 184.0
146.153595 64.0
146.177658 144.0
146.218567 48.0
146.235413 80.0
146.281143 96.0
146.303345 164.0
146.324356 176.0
146.396713 136.0
146.437653 180.0
146.543655 52.0
146.587021 152.0
146.642456 72.0
146.685837 72.0
146.710541 160.0
146.736938 184.0
146.794571 124.0
146.881668 112.0
146.934235 180.0
146.953522 32.0
146.995453 204.0
147.020523 84.0
147.055145 1096.0
147.124878 64.0
147.141785 96.0
147.158676 116.0
147.19249 176.0
147.210876 172.0
147.250443 48.0
147.269775 56.0
147.296341 108.0
147.400223 60.0
147.492065 48.0
147.511398 88.0
147.603271 96.0
147.684418 116.0
147.784683 88.0
147.840332 148.0
147.866959 204.0
147.900848 216.0
148.004944 52.0
148.040237 280.0
148.044968 160.0
148.053894 204.0
148.13089 104.0
148.232635 144.0
148.249603 76.0
148.348984 84.0
148.419281 96.0
148.487183 76.0
148.51387 220.0
148.552673 156.0
148.643967 140.0
148.727386 292.0
148.744385 84.0
148.812698 116.0
148.848785 168.0
148.873062 44.0
148.910187 216.0
148.955643 152.0
148.979935 176.0
149.028275 120.0
149.09726 136.0
149.188934 188.0
149.2108 172.0
149.269165 188.0
149.376007 172.0
149.461334 104.0
149.587875 56.0
149.631699 32.0
149.712051 112.0
149.741806 204.0
149.782684 164.0
149.843597 148.0
149.871902 148.0
149.90451 140.0
149.933746 156.0
149.960556 124.0
149.989807 164.0
150.077576 124.0
150.136093 144.0
150.204391 140.0
150.238541 200.0
150.267822 224.0
150.297089 108.0
150.341797 212.0
150.546082 104.0
150.585159 28.0
150.621796 140.0
150.702408 92.0
150.773285 128.0
150.854492 176.0
150.908737 184.0
150.932175 148.0
150.995758 228.0
151.066452 164.0
151.167007 128.0
151.201263 120.0
151.252655 168.0
151.313858 132.0
151.478867 276.0
151.648605 204.0
151.752426 212.0
151.833344 208.0
151.85051 400.0
151.890198 88.0
151.963348 164.0
152.047394 336.0
152.126633 128.0
152.17067 196.0
152.282471 152.0
152.375824 184.0
152.518356 200.0
152.538025 88.0
152.598221 180.0
152.663406 60.0
152.771637 120.0
152.788849 204.0
152.830673 168.0
153.015274 152.0
153.044144 276.0
153.058502 352.0
153.111465 124.0
153.148254 168.0
153.195053 192.0
153.37001 160.0
153.443542 140.0
153.578217 264.0
153.665939 212.0
153.683197 224.0
153.818939 196.0
153.979431 80.0
154.047668 160.0
154.098007 140.0
154.126328 180.0
154.152908 144.0
154.210266 160.0
154.310562 200.0
154.357529 164.0
154.424881 188.0
154.458466 152.0
154.476257 312.0
154.496048 160.0
154.642029 104.0
154.736664 176.0
154.763336 120.0
154.822769 128.0
154.86734 144.0
154.909454 88.0
154.933578 168.0
155.061508 2488.0
155.100082 172.0
155.122574 124.0
155.139923 32.0
155.167191 168.0
155.385437 64.0
155.410248 196.0
155.499588 100.0
155.539307 144.0
155.592514 192.0
155.627472 108.0
155.655991 176.0
155.67337 132.0
155.723038 148.0
155.792587 120.0
155.847244 164.0
155.956589 180.0
155.993881 236.0
156.066513 1228.0
156.153015 180.0
156.1754 72.0
156.284866 236.0
156.309738 176.0
156.391876 376.0
156.46904 184.0
156.53627 136.0
156.553696 124.0
156.592651 156.0
156.690414 140.0
156.720596 168.0
156.762955 160.0
156.842712 156.0
157.04126 120.0
157.074661 1320.0
157.174393 56.0
157.320557 156.0
157.36409 128.0
157.396545 148.0
157.426163 200.0
157.52066 92.0
157.551407 132.0
157.62886 88.0
157.676346 116.0
157.706329 132.0
157.931366 124.0
158.013916 120.0
158.059265 296.0
158.195023 208.0
158.353943 120.0
158.371887 84.0
158.482117 80.0
158.537247 116.0
158.632492 108.0
158.742798 128.0
158.800491 192.0
158.875732 108.0
158.983627 156.0
159.005493 124.0
159.055344 112.0
159.15683 224.0
159.176926 204.0
159.205002 112.0
159.294968 124.0
159.316864 196.0
159.434128 196.0
159.511078 212.0
159.59906 40.0
159.699661 84.0
159.780411 200.0
159.848083 168.0
159.916046 92.0
159.953796 180.0
159.97142 196.0
159.991562 168.0
160.03688 116.0
160.07811 276.0
160.157745 196.0
160.195541 160.0
160.306396 104.0
160.359314 88.0
160.376968 108.0
160.409729 204.0
160.444641 132.0
160.54924 180.0
160.603897 80.0
160.624069 152.0
160.65686 192.0
160.709839 76.0
160.727509 184.0
160.755264 116.0
160.891571 92.0
160.916809 196.0
160.942062 156.0
160.969833 192.0
161.005188 100.0
161.048126 176.0
161.070862 116.0
161.115082 192.0
161.154221 84.0
161.209824 192.0
161.227509 120.0
161.252869 116.0
161.278061 124.0
161.32608 232.0
161.510681 156.0
161.556168 216.0
161.606812 124.0
161.757309 120.0
161.791565 172.0
161.858887 196.0
161.938431 152.0
161.968826 140.0
162.054657 588.0
162.08284 124.0
162.115768 148.0
162.141113 148.0
162.252655 188.0
162.333679 176.0
162.37944 116.0
162.478363 140.0
162.592545 164.0
162.650925 128.0
162.749939 192.0
162.805801 132.0
162.838821 152.0
162.942963 228.0
162.981079 148.0
163.003937 168.0
163.034439 224.0
163.051422 368.0
163.222549 164.0
163.288666 80.0
163.306473 168.0
163.32428 128.0
163.347168 56.0
163.400589 120.0
163.441299 148.0
163.487106 296.0
163.535461 180.0
163.604813 212.0
163.644928 200.0
163.76207 156.0
163.805374 156.0
163.833389 180.0
163.950592 72.0
164.011765 140.0
164.15181 172.0
164.161102 160.0
164.225952 148.0
164.243805 140.0
164.373917 156.0
164.498978 232.0
164.557693 44.0
164.630798 128.0
164.648575 140.0
164.75322 136.0
164.797775 144.0
164.82045 156.0
164.940887 148.0
165.041367 160.0
165.065903 152.0
165.070068 136.0
165.079956 224.0
165.15567 96.0
165.178696 60.0
165.373154 156.0
165.429474 124.0
165.478119 156.0
165.59079 156.0
165.610504 236.0
165.811127 120.0
165.834183 68.0
165.89827 100.0
165.952118 136.0
166.013657 136.0
166.049973 172.0
166.070923 372.0
166.131638 92.0
166.175247 144.0
166.223999 144.0
166.280457 56.0
166.32576 228.0
166.405472 176.0
166.434479 232.0
166.501251 172.0
166.528809 164.0
166.56546 176.0
166.68364 100.0
166.704208 192.0
166.724762 180.0
166.873856 240.0
166.9263 216.0
166.945847 144.0
166.970627 164.0
167.060257 7728.0
167.110474 224.0
167.293198 180.0
167.316376 316.0
167.352417 192.0
167.373016 200.0
167.438782 140.0
167.658951 152.0
167.687302 112.0
167.728546 36.0
167.752853 184.0
167.866821 196.0
167.983826 112.0
168.064529 2220.0
168.115952 132.0
168.159286 48.0
168.228973 56.0
168.254791 108.0
168.349518 216.0
168.49498 112.0
168.600922 164.0
168.655197 192.0
168.722397 156.0
168.756012 140.0
168.774109 244.0
168.816849 76.0
168.86203 148.0
168.938492 180.0
168.983612 104.0
169.076202 25156.0
169.142136 156.0
169.193253 100.0
169.213959 160.0
169.239853 92.0
169.260132 236.0
169.346725 104.0
169.388168 192.0
169.404785 164.0
169.447052 112.0
169.472382 220.0
169.540344 124.0
169.571442 200.0
169.628326 152.0
169.75032 60.0
169.934479 52.0
169.952637 172.0
169.988129 148.0
170.06044 4416.0
170.077942 4624.0
170.237747 72.0
170.271942 32.0
170.294449 204.0
170.349854 168.0
170.47197 224.0
170.492767 116.0
170.555145 40.0
170.659698 200.0
170.692932 168.0
170.744949 224.0
170.860611 188.0
170.895813 104.0
170.971283 76.0
171.00647 144.0
171.023331 180.0
171.054352 3712.0
171.140045 72.0
171.169128 36.0
171.208191 216.0
171.272919 192.0
171.322784 168.0
171.354492 120.0
171.380112 120.0
171.409927 180.0
171.426865 144.0
171.463501 192.0
171.505203 76.0
171.531067 108.0
171.612076 164.0
171.718994 128.0
171.74469 160.0
171.820724 32.0
171.865082 68.0
171.901611 160.0
172.003403 164.0
172.059174 368.0
172.113052 180.0
172.133942 196.0
172.152222 128.0
172.204453 48.0
172.264526 124.0
172.350754 68.0
172.392242 168.0
172.401169 148.0
172.439789 112.0
172.507553 108.0
172.560028 164.0
172.604294 112.0
172.648743 104.0
172.671844 188.0
172.731979 128.0
172.789993 140.0
172.82663 196.0
172.967941 156.0
173.004593 144.0
173.051727 60.0
173.096237 52.0
173.140747 160.0
173.184708 128.0
173.206238 204.0
173.235977 180.0
173.288391 200.0
173.413223 212.0
173.444687 124.0
173.546921 172.0
173.578384 192.0
173.612473 168.0
173.722641 280.0
173.740997 180.0
173.827423 128.0
173.848587 112.0
173.874817 180.0
173.956192 196.0
174.076965 72.0
174.149582 216.0
174.171509 172.0
174.293289 192.0
174.318634 152.0
174.392227 68.0
174.539444 140.0
174.723557 144.0
174.752502 60.0
174.936722 128.0
174.963043 204.0
175.018341 180.0
175.058456 172.0
175.447784 212.0
175.482986 148.0
175.524246 120.0
175.574692 188.0
175.603363 192.0
175.645569 168.0
175.712616 152.0
175.73526 168.0
175.774841 192.0
175.854019 148.0
175.875122 148.0
175.999207 104.0
176.022964 64.0
176.054657 180.0
176.176163 40.0
176.35585 252.0
176.383698 232.0
176.501251 256.0
176.546204 156.0
176.567352 288.0
176.585876 28.0
176.636932 212.0
176.833405 200.0
176.884857 132.0
176.919281 132.0
176.980164 168.0
177.011566 168.0
177.067322 176.0
177.152313 72.0
177.226501 120.0
177.311295 228.0
177.377563 124.0
177.446487 132.0
177.541946 124.0
177.58194 52.0
177.629471 124.0
177.711716 124.0
177.759476 144.0
177.778046 160.0
177.831131 244.0
177.852371 140.0
177.881561 184.0
177.955902 132.0
177.979797 148.0
178.029099 212.0
178.080704 152.0
178.205566 272.0
178.237442 184.0
178.333115 224.0
178.399567 188.0
178.503265 208.0
178.527191 92.0
178.588364 60.0
178.669052 180.0
178.722061 124.0
178.750656 204.0
178.859772 164.0
178.909637 152.0
178.945999 164.0
179.072083 212.0
179.099411 112.0
179.166 100.0
179.243271 100.0
179.320557 100.0
179.427185 172.0
179.453842 52.0
179.560501 88.0
179.629852 216.0
179.757919 140.0
179.813965 100.0
179.842758 192.0
179.913864 140.0
179.975525 184.0
179.99649 128.0
180.080505 148.0
180.190475 128.0
180.233231 172.0
180.321014 160.0
180.358826 56.0
180.393585 160.0
180.543304 108.0
180.634247 32.0
180.704941 180.0
180.754639 140.0
180.778732 128.0
180.853668 132.0
180.885788 116.0
181.067459 160.0
181.081848 176.0
181.132141 136.0
181.209824 220.0
181.268768 152.0
181.373291 148.0
181.402786 152.0
181.569016 112.0
181.603882 120.0
181.695099 204.0
181.742828 136.0
181.88089 104.0
181.992065 224.0
182.030594 148.0
182.065506 112.0
182.167572 192.0
182.213242 148.0
182.441681 112.0
182.476639 220.0
182.508896 132.0
182.550156 220.0
182.657867 112.0
182.678329 208.0
182.756348 100.0
182.847839 128.0
182.904617 176.0
182.929489 168.0
182.9384 56.0
182.952164 148.0
182.987823 128.0
183.059128 364.0
183.069748 172.0
183.111298 192.0
183.189804 128.0
183.27063 76.0
183.389206 44.0
183.503403 176.0
183.540161 168.0
183.568848 176.0
183.639954 64.0
183.785629 136.0
183.810837 216.0
183.885849 200.0
183.942154 144.0
184.044739 164.0
184.068634 156.0
184.18248 48.0
184.228394 160.0
184.258118 132.0
184.352692 164.0
184.387817 128.0
184.436462 88.0
184.66629 216.0
184.701462 72.0
184.801544 64.0
184.839432 112.0
184.858368 164.0
184.896255 188.0
184.931442 200.0
184.966629 352.0
185.070389 2672.0
185.125641 180.0
185.146835 180.0
185.213043 96.0
185.240128 144.0
185.319138 72.0
185.354797 136.0
185.429794 96.0
185.492661 124.0
185.532806 116.0
185.589737 88.0
185.616852 152.0
185.637878 148.0
185.785004 176.0
185.820282 116.0
186.021103 164.0
186.069611 428.0
186.137848 104.0
186.211166 172.0
186.243759 188.0
186.567139 172.0
186.600723 224.0
186.645981 104.0
186.700363 56.0
186.743622 192.0
186.811691 176.0
186.883865 84.0
186.907333 216.0
187.041214 188.0
187.071854 188.0
187.125275 128.0
187.160248 108.0
187.315475 164.0
187.443527 104.0
187.478958 124.0
187.620697 168.0
187.658859 68.0
187.710663 148.0
187.828918 100.0
187.849762 140.0
187.904327 56.0
188.070786 156.0
188.18544 176.0
188.245514 144.0
188.298172 156.0
188.398468 168.0
188.436676 224.0
188.474976 100.0
188.57608 92.0
188.65535 188.0
188.677216 208.0
188.795853 176.0
188.857697 180.0
188.890533 108.0
188.999954 120.0
189.027328 56.0
189.070709 624.0
189.418228 180.0
189.490067 96.0
189.57338 148.0
189.607895 184.0
189.65448 40.0
189.679153 124.0
189.739456 120.0
189.805267 44.0
189.824463 208.0
189.85463 132.0
189.991776 132.0
190.064819 1512.0
190.164642 128.0
190.216797 124.0
190.243439 232.0
190.318375 96.0
190.384277 196.0
190.617783 260.0
190.933914 124.0
190.997742 176.0
191.03569 160.0
191.067078 188.0
191.088531 152.0
191.121155 120.0
191.231049 128.0
191.283783 128.0
191.460297 220.0
191.520157 136.0
191.638611 140.0
191.973602 168.0
192.03006 112.0
192.067825 260.0
192.107285 188.0
192.590347 136.0
192.609695 60.0
192.658356 176.0
192.803085 52.0
192.956467 192.0
192.982773 144.0
193.035309 208.0
193.08252 224.0
193.136383 176.0
193.281494 68.0
193.342377 108.0
193.403259 60.0
193.469696 204.0
193.508453 128.0
193.6026 32.0
193.64415 156.0
193.680145 192.0
193.716156 132.0
193.816177 164.0
193.996841 112.0
194.043091 124.0
194.083145 608.0
194.251175 72.0
194.445389 104.0
194.473145 128.0
194.545319 68.0
194.634171 68.0
194.731369 104.0
194.914719 48.0
194.96196 64.0
194.981415 108.0
195.055191 424.0
195.095306 156.0
195.170441 224.0
195.226059 80.0
195.395721 60.0
195.434677 112.0
195.481979 204.0
195.672485 136.0
195.782639 144.0
195.867447 160.0
195.919113 92.0
196.069229 96.0
196.175842 64.0
196.292603 180.0
196.341248 144.0
196.54364 228.0
196.680389 104.0
196.775314 72.0
196.8479 104.0
196.9478 140.0
196.981628 168.0
197.015488 144.0
197.066895 80.0
197.093719 100.0
197.116074 84.0
197.317322 88.0
197.353668 124.0
197.443146 208.0
197.552231 220.0
197.720108 172.0
197.843277 160.0
197.946869 188.0
197.986069 164.0
198.140137 176.0
198.214645 108.0
198.225098 160.0
198.269028 128.0
198.305466 160.0
198.417587 148.0
198.501694 96.0
198.538162 120.0
198.634171 156.0
198.669983 176.0
198.742935 152.0
198.804672 40.0
198.95343 132.0
199.090561 152.0
199.197815 144.0
199.245499 116.0
199.270782 172.0
199.433777 136.0
199.453445 152.0
199.488297 272.0
199.511993 160.0
199.560272 44.0
199.579956 216.0
199.762756 168.0
199.796524 196.0
199.909073 156.0
199.976608 156.0
200.064865 192.0
200.159607 176.0
200.353943 88.0
200.410294 144.0
200.441284 120.0
200.496719 220.0
200.599106 272.0
200.630585 144.0
200.652679 172.0
200.735504 160.0
200.868317 136.0
200.886749 220.0
200.921082 208.0
200.957275 140.0
201.041931 64.0
201.078186 160.0
201.098373 152.0
201.379456 188.0
201.42308 172.0
201.496536 108.0
201.546631 192.0
201.635239 136.0
201.657196 168.0
201.818741 136.0
201.857056 260.0
201.903564 120.0
201.980972 44.0
202.068848 104.0
202.31102 128.0
202.495071 184.0
202.548889 192.0
202.670715 216.0
202.795395 168.0
202.84642 180.0
202.946594 204.0
203.070465 148.0
203.176559 212.0
203.314255 140.0
203.453491 60.0
203.485382 92.0
203.667786 172.0
203.73465 160.0
203.763062 196.0
203.811356 140.0
203.876709 124.0
203.927872 156.0
203.987564 172.0
204.030197 156.0
204.078506 688.0
204.195129 124.0
204.252228 108.0
204.280457 236.0
204.308899 172.0
204.331665 180.0
204.47963 164.0
204.502396 184.0
204.545105 132.0
204.633347 104.0
204.710236 132.0
204.738708 104.0
204.826996 164.0
204.928284 172.0
204.983704 96.0
205.026443 188.0
205.077118 436.0
205.197464 132.0
205.243088 120.0
205.268753 152.0
205.322937 176.0
205.365723 128.0
205.616791 152.0
205.651031 212.0
205.722397 204.0
205.850876 32.0
205.876587 100.0
206.081879 340.0
206.130829 68.0
206.162262 128.0
206.213699 112.0
206.365204 124.0
206.465286 176.0
206.491028 112.0
206.547028 160.0
206.611176 100.0
206.642639 44.0
206.846222 204.0
206.871597 104.0
207.066162 88.0
207.094574 464.0
207.128128 136.0
207.194748 232.0
207.238174 228.0
207.393204 160.0
207.521072 108.0
207.54274 108.0
207.809784 160.0
207.894821 156.0
207.966568 168.0
208.076752 336.0
208.135956 204.0
208.196259 116.0
208.291031 168.0
208.334122 40.0
208.374786 128.0
208.518021 140.0
208.607132 96.0
208.655991 184.0
208.684753 180.0
208.733627 204.0
208.765259 168.0
208.825653 196.0
208.8573 40.0
209.082718 172.0
209.257309 176.0
209.634644 132.0
209.723984 144.0
209.74704 124.0
209.785629 176.0
209.814957 136.0
209.865234 208.0
209.908493 152.0
210.035385 176.0
210.055573 88.0
210.084427 220.0
210.194061 36.0
210.30661 152.0
210.358566 92.0
210.422089 208.0
210.448074 180.0
210.468277 156.0
210.520264 180.0
210.716553 100.0
210.77446 176.0
210.895844 124.0
211.078888 176.0
211.286224 56.0
211.34697 140.0
211.45694 240.0
211.509048 144.0
211.639313 88.0
211.685654 200.0
211.711792 144.0
211.916122 120.0
211.934753 168.0
212.059372 168.0
212.146332 140.0
212.181122 244.0
212.233307 28.0
212.2565 164.0
212.276794 48.0
212.404404 140.0
212.459534 52.0
212.552368 208.0
212.590088 200.0
212.622025 200.0
212.65416 160.0
212.799088 56.0
212.877487 164.0
212.93924 152.0
213.08371 160.0
213.12149 116.0
213.229004 192.0
213.263885 88.0
213.310394 52.0
213.41214 156.0
213.569183 312.0
213.732086 80.0
213.752457 124.0
213.810669 72.0
213.887115 196.0
214.061905 428.0
214.173035 164.0
214.261993 124.0
214.305695 196.0
214.448486 156.0
214.61174 176.0
214.719635 112.0
214.8013 92.0
214.836075 204.0
214.871323 68.0
215.070297 760.0
215.209885 204.0
215.250763 204.0
215.282883 172.0
215.315002 56.0
215.35881 100.0
215.542862 248.0
215.680222 236.0
215.803009 180.0
215.843933 88.0
215.902939 188.0
215.937515 144.0
216.001862 132.0
216.024399 312.0
216.080612 6364.0
216.157135 164.0
216.312042 116.0
216.394012 68.0
216.455505 108.0
216.479614 188.0
216.531647 112.0
216.609604 136.0
216.632446 180.0
216.688507 204.0
216.710327 176.0
216.788162 172.0
216.809967 220.0
216.833405 132.0
216.859787 76.0
216.889099 52.0
216.918411 76.0
217.083405 2468.0
217.223373 40.0
217.314316 140.0
217.367142 52.0
217.414093 60.0
217.440506 112.0
217.549103 152.0
217.653305 172.0
217.713531 88.0
217.784027 188.0
217.900452 152.0
217.977921 120.0
218.084778 4116.0
218.142502 148.0
218.168961 124.0
218.198364 112.0
218.240601 76.0
218.336563 180.0
218.390533 136.0
218.483627 168.0
218.654297 92.0
218.700165 116.0
218.719055 176.0
218.763199 164.0
218.855911 164.0
218.913361 124.0
219.001709 144.0
219.034256 160.0
219.091446 3624.0
219.171524 128.0
219.201767 172.0
219.255096 152.0
219.299301 180.0
219.493866 140.0
219.544006 52.0
219.606308 96.0
219.634216 188.0
219.667877 108.0
219.714584 192.0
219.744583 172.0
219.765244 52.0
219.995438 128.0
220.024963 92.0
220.081482 824.0
220.169647 136.0
220.2612 68.0
220.42218 148.0
220.583298 180.0
220.723572 152.0
220.800232 204.0
220.828629 148.0
220.936813 176.0
220.964783 136.0
220.985489 116.0
221.069901 556.0
221.097931 248.0
221.226669 144.0
221.315048 140.0
221.355484 132.0
221.379181 60.0
221.420639 104.0
221.465057 108.0
221.497513 188.0
221.566696 152.0
221.61911 80.0
221.684296 172.0
221.728745 108.0
221.793961 208.0
221.847321 68.0
221.888824 140.0
221.977295 148.0
222.016327 76.0
222.039932 200.0
222.078888 368.0
222.179459 148.0
222.200226 164.0
222.256592 52.0
222.285583 148.0
222.422791 72.0
222.446533 168.0
222.467316 92.0
222.572159 128.0
222.608795 148.0
222.684082 164.0
222.779129 148.0
222.868256 172.0
223.305252 88.0
223.385559 116.0
223.418289 148.0
223.52388 188.0
223.649124 348.0
223.79924 132.0
223.942184 116.0
223.963028 176.0
224.001755 300.0
224.043457 72.0
224.097946 224.0
224.255035 340.0
224.490555 136.0
224.796768 184.0
224.854507 176.0
224.923157 168.0
224.985855 124.0
225.159027 216.0
225.179947 148.0
225.200851 136.0
225.529617 240.0
225.649094 136.0
225.693497 164.0
225.834488 180.0
225.888336 120.0
225.987061 112.0
226.064423 248.0
226.138504 216.0
226.205521 224.0
226.280365 44.0
226.48999 180.0
226.528931 84.0
226.56189 240.0
226.648773 204.0
226.726685 176.0
226.837585 88.0
226.865234 160.0
226.883865 64.0
226.924515 116.0
226.959442 216.0
227.071457 120.0
227.105011 64.0
227.160065 176.0
227.200439 164.0
227.26944 128.0
227.296448 164.0
227.389481 104.0
227.434509 176.0
227.491531 104.0
227.578598 140.0
227.644653 152.0
227.686707 160.0
227.710724 64.0
227.791824 108.0
227.815857 172.0
227.857925 228.0
227.954971 188.0
227.990128 148.0
228.035034 200.0
228.07579 200.0
228.149338 128.0
228.320831 28.0
228.426102 204.0
228.48024 172.0
228.51033 56.0
228.534409 164.0
228.567505 136.0
228.633698 168.0
228.853439 120.0
228.922699 144.0
229.043167 120.0
229.07486 808.0
229.136566 264.0
229.235992 220.0
229.266129 132.0
229.314346 168.0
229.425873 220.0
229.489197 96.0
229.540451 144.0
229.600769 36.0
229.700302 184.0
229.802872 120.0
229.827011 188.0
229.986954 168.0
230.074341 416.0
230.27301 204.0
230.294922 204.0
230.510941 144.0
230.730072 172.0
230.757278 124.0
230.981064 184.0
231.017365 120.0
231.09079 2984.0
231.141403 224.0
231.229172 148.0
231.262466 192.0
231.387054 224.0
231.431488 268.0
231.560272 88.0
231.598557 76.0
231.704575 96.0
231.775177 132.0
231.821045 164.0
231.859116 80.0
231.940948 228.0
231.990433 172.0
232.031891 208.0
232.097717 3596.0
232.136353 132.0
232.192596 116.0
232.232025 44.0
232.255783 48.0
232.296738 72.0
232.31575 60.0
232.345642 176.0
232.379303 200.0
232.420959 200.0
232.541504 88.0
232.723648 152.0
232.763107 84.0
232.855438 228.0
232.917999 60.0
232.940567 128.0
232.981796 168.0
233.070663 560.0
233.104156 2032.0
233.185379 184.0
233.24617 180.0
233.328247 132.0
233.398178 252.0
233.459 148.0
233.492447 164.0
233.645172 212.0
233.762589 128.0
233.817978 224.0
233.89711 216.0
233.956543 168.0
234.087097 1100.0
234.165054 92.0
234.210739 280.0
234.415756 96.0
234.472763 128.0
234.515442 56.0
234.606888 88.0
234.631271 56.0
234.689194 40.0
234.710541 184.0
234.751328 96.0
234.792877 156.0
234.8759 184.0
234.942337 120.0
234.969803 156.0
235.085007 1132.0
235.187775 280.0
235.210876 152.0
235.256668 176.0
235.329941 180.0
235.439865 136.0
235.641464 124.0
235.708694 108.0
235.815659 188.0
235.867615 168.0
236.01265 136.0
236.056473 176.0
236.088501 536.0
236.142792 72.0
236.234558 128.0
236.292694 164.0
236.314102 60.0
236.350815 220.0
236.401093 144.0
236.460983 196.0
236.644653 212.0
236.724274 108.0
236.77327 220.0
236.917221 84.0
237.003021 184.0
237.306458 96.0
237.343246 48.0
237.380035 112.0
237.484314 92.0
237.569153 152.0
237.674515 100.0
237.708267 192.0
237.756638 220.0
237.883209 156.0
238.045944 144.0
238.13324 156.0
238.393066 80.0
238.451447 268.0
238.479111 132.0
238.533173 172.0
238.574402 116.0
238.617447 112.0
238.708618 196.0
238.754379 180.0
238.826553 140.0
239.083069 160.0
239.168091 136.0
239.275833 96.0
239.343567 68.0
239.392838 96.0
239.432877 204.0
239.583801 180.0
239.688568 152.0
239.777924 288.0
239.817993 132.0
239.839569 132.0
239.935135 136.0
239.999878 204.0
240.030716 72.0
240.188004 156.0
240.255875 132.0
240.314484 160.0
240.561386 92.0
240.620041 148.0
240.734283 104.0
240.774429 156.0
240.833115 136.0
240.859314 124.0
240.943176 232.0
240.98201 180.0
241.050919 184.0
241.075577 456.0
241.24408 180.0
241.361572 164.0
241.395584 172.0
241.542419 192.0
241.596634 36.0
241.670883 72.0
241.734924 184.0
241.77919 104.0
241.855255 148.0
241.955017 164.0
242.028549 108.0
242.084076 6788.0
242.129013 232.0
242.221939 40.0
242.279282 196.0
242.408279 168.0
242.507004 168.0
242.634094 128.0
242.691986 208.0
242.704315 140.0
242.709732 112.0
242.740768 172.0
242.761215 184.0
242.798431 152.0
242.83255 256.0
242.910095 104.0
242.966599 264.0
243.015579 136.0
243.090622 11624.0
243.131042 116.0
243.173508 408.0
243.20433 152.0
243.231415 196.0
243.252945 184.0
243.277557 116.0
243.327225 184.0
243.3927 128.0
243.437576 236.0
243.533188 92.0
243.570663 120.0
243.65271 316.0
243.681625 92.0
243.729721 224.0
243.804291 44.0
243.850906 156.0
243.88002 220.0
243.949356 184.0
243.976913 188.0
243.999344 172.0
244.024994 168.0
244.087265 20688.0
244.164444 104.0
244.175949 88.0
244.239563 220.0
244.276886 92.0
244.345154 136.0
244.3685 104.0
244.420013 108.0
244.479126 48.0
244.519058 116.0
244.573044 68.0
244.63475 144.0
244.71225 112.0
244.745026 156.0
244.79277 144.0
244.824692 40.0
244.859985 224.0
244.87851 100.0
244.921234 80.0
244.943039 56.0
244.980423 40.0
245.005341 52.0
245.092987 9108.0
245.194519 56.0
245.218552 76.0
245.26297 148.0
245.362961 64.0
245.3918 176.0
245.429047 72.0
245.534012 248.0
245.581085 168.0
245.606064 68.0
245.638168 120.0
245.706802 84.0
245.769196 72.0
245.801498 80.0
245.867722 140.0
245.924744 76.0
245.943222 272.0
245.981995 80.0
246.022003 108.0
246.100739 2940.0
246.15625 80.0
246.190613 40.0
246.218719 140.0
246.328033 112.0
246.35614 68.0
246.388046 172.0
246.421753 48.0
246.462372 272.0
246.483459 80.0
246.518616 80.0
246.602997 180.0
246.628006 72.0
246.718903 268.0
246.767563 56.0
246.806198 168.0
246.849976 148.0
246.887497 216.0
246.960831 56.0
246.997787 180.0
247.021988 32.0
247.088058 2316.0
247.172165 80.0
247.200333 40.0
247.222229 196.0
247.328644 92.0
247.350555 64.0
247.375595 48.0
247.413162 120.0
247.444473 52.0
247.469528 116.0
247.550934 88.0
247.627136 132.0
247.723724 96.0
247.771667 144.0
247.81221 164.0
247.844864 172.0
247.873581 136.0
248.033783 140.0
248.091537 560.0
248.196442 40.0
248.265427 92.0
248.299927 92.0
248.419113 156.0
248.456757 32.0
248.500687 204.0
248.541473 128.0
248.596863 184.0
248.685242 172.0
248.726639 120.0
248.830231 140.0
248.896164 92.0
249.002655 88.0
249.059006 108.0
249.095993 284.0
249.15686 124.0
249.203979 192.0
249.335953 76.0
249.417679 48.0
249.477402 124.0
249.559143 92.0
249.63147 112.0
249.747833 40.0
249.838791 144.0
249.864227 136.0
249.924393 192.0
250.078125 152.0
250.152756 140.0
250.295425 152.0
250.417938 204.0
250.520874 124.0
250.657669 128.0
250.979187 108.0
251.187332 136.0
251.584946 176.0
251.761765 192.0
251.783859 192.0
251.847031 48.0
251.946426 204.0
252.008148 200.0
252.062515 136.0
252.126785 196.0
252.200912 220.0
252.226196 224.0
252.254654 136.0
252.387436 220.0
252.457001 108.0
252.51709 32.0
252.564529 140.0
252.605652 148.0
252.637283 152.0
252.757523 144.0
252.789154 120.0
252.839798 76.0
252.982224 124.0
253.017914 132.0
253.075165 1220.0
253.22287 176.0
253.454132 148.0
253.476318 196.0
253.520676 88.0
253.631607 132.0
253.777435 104.0
254.079102 580.0
254.154877 160.0
254.231033 152.0
254.286667 332.0
254.536621 180.0
254.624695 140.0
254.856598 108.0
254.974167 40.0
255.082794 92.0
255.152176 252.0
255.264694 240.0
255.330246 48.0
255.365219 196.0
255.416122 180.0
255.476547 136.0
255.505188 168.0
255.531631 204.0
255.585693 184.0
255.648376 116.0
255.68338 152.0
255.733154 144.0
255.794769 84.0
256.004913 168.0
256.083282 176.0
256.124878 168.0
256.17691 104.0
256.224701 124.0
256.368073 52.0
256.44455 92.0
256.702789 308.0
256.739471 212.0
256.830353 288.0
257.09137 504.0
257.136658 60.0
257.283508 124.0
257.433563 84.0
257.545349 92.0
257.768982 60.0
257.804138 184.0
257.88147 208.0
258.082153 440.0
258.104126 1064.0
258.165375 140.0
258.227142 200.0
258.286469 176.0
258.44046 224.0
258.469269 188.0
258.542847 116.0
258.595978 64.0
258.635681 124.0
258.674103 84.0
258.811737 124.0
258.846985 128.0
258.898224 44.0
259.001709 180.0
259.042542 132.0
259.088623 3004.0
259.173706 92.0
259.224976 108.0
259.273041 40.0
259.343536 156.0
259.539093 176.0
259.619263 88.0
259.654114 216.0
259.795685 68.0
259.825317 148.0
259.859833 88.0
260.11496 2256.0
260.18869 164.0
260.226746 128.0
260.257843 28.0
260.283508 212.0
260.358521 216.0
260.3927 64.0
260.48587 304.0
260.511566 128.0
260.556519 52.0
260.620789 72.0
260.656952 140.0
260.808228 180.0
260.831116 80.0
260.87146 208.0
260.961487 120.0
261.027374 156.0
261.101257 4396.0
261.178253 168.0
261.241272 148.0
261.318481 64.0
261.353882 88.0
261.440765 44.0
261.489044 120.0
261.592041 128.0
261.703033 136.0
261.75946 88.0
261.874786 84.0
261.968811 136.0
262.010071 144.0
262.045135 156.0
262.098236 5744.0
262.171814 48.0
262.278168 56.0
262.380859 200.0
262.423096 192.0
262.432129 128.0
262.466156 152.0
262.486877 184.0
262.516724 152.0
262.648956 132.0
262.671539 104.0
262.729614 60.0
262.760864 76.0
262.850861 200.0
262.924561 76.0
262.95871 72.0
263.058777 48.0
263.100342 1392.0
263.165314 168.0
263.21051 48.0
263.288025 80.0
263.465668 196.0
263.494751 128.0
263.551422 128.0
263.704803 120.0
263.7565 36.0
263.885803 240.0
263.947266 200.0
263.978302 128.0
264.031342 148.0
264.060425 236.0
264.109772 192.0
264.248047 156.0
264.28363 92.0
264.322479 104.0
264.348358 160.0
264.493988 88.0
264.545807 64.0
264.574921 68.0
264.646149 108.0
264.742218 288.0
264.772461 44.0
264.82428 124.0
264.895538 44.0
265.107483 168.0
265.128113 92.0
265.222809 148.0
265.251984 132.0
265.277893 96.0
265.349243 212.0
265.488647 124.0
265.517853 44.0
265.58667 236.0
265.611908 92.0
265.673553 136.0
265.735168 160.0
265.788208 180.0
265.902679 208.0
265.968842 152.0
266.1409 132.0
266.254547 92.0
266.295227 84.0
266.387726 40.0
266.428864 156.0
266.556671 52.0
266.624908 112.0
266.728912 172.0
266.761414 136.0
267.002136 128.0
267.044312 180.0
267.138641 76.0
267.320831 156.0
267.411957 136.0
267.538177 196.0
267.936218 204.0
268.087799 288.0
268.128479 144.0
268.373352 160.0
268.522949 348.0
268.552307 176.0
268.673828 160.0
268.73175 56.0
268.788818 184.0
268.832886 148.0
268.926819 108.0
269.005859 144.0
269.031982 252.0
269.058075 160.0
269.089355 528.0
269.329132 188.0
269.387115 140.0
269.395996 104.0
269.405731 188.0
269.463074 48.0
269.580719 124.0
269.70343 88.0
269.757202 136.0
269.965912 284.0
270.028595 204.0
270.101593 4636.0
270.23877 144.0
270.261597 164.0
270.326508 236.0
270.424469 56.0
270.483398 76.0
270.511169 188.0
270.542328 152.0
270.588165 76.0
270.624176 28.0
270.673279 104.0
270.822998 196.0
270.886169 60.0
270.909088 140.0
270.946472 156.0
270.967865 196.0
271.087128 30924.0
271.187836 204.0
271.226562 160.0
271.265472 64.0
271.312195 88.0
271.387817 180.0
271.421448 136.0
271.494019 176.0
271.54422 100.0
271.62262 212.0
271.653229 44.0
271.679474 52.0
271.729889 108.0
271.76358 200.0
271.773376 148.0
271.78775 100.0
271.85788 184.0
271.91864 36.0
271.983643 156.0
272.018585 168.0
272.085846 13732.0
272.183228 156.0
272.230316 112.0
272.297852 176.0
272.412628 36.0
272.496948 92.0
272.542023 92.0
272.591705 136.0
272.628387 164.0
272.682831 100.0
272.719177 120.0
272.759857 56.0
272.804932 168.0
272.83313 152.0
272.85788 68.0
272.911072 96.0
272.958557 128.0
273.000214 156.0
273.036987 236.0
273.089539 44040.0
273.198608 84.0
273.25235 88.0
273.310181 48.0
273.336426 44.0
273.390106 128.0
273.433563 140.0
273.473938 200.0
273.504364 140.0
273.549072 156.0
273.569794 268.0
273.625641 68.0
273.663757 132.0
273.693512 196.0
273.755035 132.0
273.797821 244.0
273.852783 316.0
273.923553 188.0
273.946411 224.0
273.965668 84.0
273.979004 84.0
274.0065 192.0
274.092285 8168.0
274.154724 188.0
274.178436 44.0
274.204773 112.0
274.2323 80.0
274.278412 152.0
274.361511 80.0
274.430298 88.0
274.502472 212.0
274.533081 76.0
274.557159 132.0
274.643311 168.0
274.685577 152.0
274.713837 64.0
274.762054 132.0
274.867645 48.0
274.907227 72.0
274.98645 100.0
275.009552 56.0
275.09613 1060.0
275.230743 192.0
275.381256 124.0
275.458618 48.0
275.498566 204.0
275.545135 88.0
275.600677 32.0
275.775818 160.0
275.79895 108.0
275.823944 160.0
275.865448 176.0
275.904724 108.0
275.965454 120.0
276.00705 72.0
276.056854 452.0
276.080597 240.0
276.13208 148.0
276.174774 96.0
276.222198 68.0
276.364441 80.0
276.416931 264.0
276.546478 52.0
276.705353 48.0
276.745087 72.0
276.800415 148.0
276.874237 68.0
276.92392 116.0
277.039856 160.0
277.118347 148.0
277.152496 152.0
277.215454 108.0
277.278412 136.0
277.460724 80.0
277.556885 96.0
277.580078 168.0
277.626526 92.0
277.659668 124.0
277.702789 164.0
277.825531 164.0
278.078644 184.0
278.183929 128.0
278.207153 140.0
278.356567 132.0
278.482758 104.0
278.52594 152.0
278.555847 140.0
278.682098 36.0
278.831635 40.0
278.944641 96.0
278.997833 108.0
279.041046 128.0
279.084259 196.0
279.117523 140.0
279.180695 88.0
279.207306 104.0
279.283813 56.0
279.569916 144.0
279.71637 72.0
279.926117 92.0
279.99939 68.0
280.185913 68.0
280.48584 196.0
280.6492 180.0
280.689209 164.0
280.742554 108.0
280.869293 120.0
280.932678 120.0
281.086151 48.0
281.456665 56.0
281.503418 132.0
281.69043 148.0
281.78064 100.0
281.861084 164.0
282.078064 128.0
282.101471 208.0
282.298737 84.0
282.432526 80.0
282.482697 140.0
282.512787 168.0
282.56424 136.0
282.666687 72.0
282.690125 32.0
282.730286 92.0
282.78717 208.0
282.857452 192.0
282.884247 92.0
283.004761 220.0
283.038086 160.0
283.215759 180.0
283.259277 84.0
283.416748 144.0
283.446899 88.0
283.574249 40.0
283.707214 144.0
283.846985 172.0
284.114105 88.0
284.167786 160.0
284.214783 216.0
284.382568 124.0
284.416138 60.0
284.469849 136.0
284.570557 168.0
284.61084 180.0
284.657867 144.0
284.708221 164.0
284.757324 312.0
284.996002 144.0
285.004913 212.0
285.091309 500.0
285.192017 96.0
285.235718 164.0
285.375916 172.0
285.42218 164.0
285.497986 160.0
285.585846 136.0
285.615692 76.0
285.642609 144.0
285.699799 136.0
285.799316 164.0
285.888214 136.0
285.915131 356.0
285.946289 220.0
285.985809 308.0
286.045624 140.0
286.097504 21692.0
286.177795 148.0
286.215881 144.0
286.241669 48.0
286.325867 180.0
286.396576 108.0
286.432678 84.0
286.484161 92.0
286.53598 116.0
286.60141 180.0
286.666595 60.0
286.730133 72.0
286.769653 72.0
286.799988 84.0
286.825012 80.0
286.851532 164.0
286.894714 140.0
286.928802 124.0
286.955994 92.0
287.014587 172.0
287.043671 304.0
287.10321 5496.0
287.180237 136.0
287.222412 28.0
287.268951 176.0
287.308899 100.0
287.356995 376.0
287.361847 144.0
287.436646 180.0
287.512848 232.0
287.565369 112.0
287.636047 420.0
287.662415 80.0
287.695526 564.0
287.752686 116.0
287.791504 196.0
287.818085 364.0
287.864563 196.0
287.897125 92.0
287.904694 284.0
287.960175 448.0
288.018005 332.0
288.114044 268628.0
288.1828 136.0
288.22348 144.0
288.261963 112.0
288.342407 356.0
288.388519 196.0
288.415771 152.0
288.457764 176.0
288.520569 220.0
288.555786 380.0
288.620392 248.0
288.670898 1592.0
288.713898 88.0
288.723785 68.0
288.741852 324.0
288.75354 104.0
288.759766 140.0
288.790588 120.0
288.829926 220.0
288.868195 208.0
288.897522 120.0
288.928345 184.0
288.963898 256.0
288.982361 116.0
289.003021 120.0
289.116547 49248.0
289.20874 212.0
289.230225 160.0
289.259674 152.0
289.307037 80.0
289.319733 152.0
289.325012 168.0
289.359467 132.0
289.420319 212.0
289.484619 168.0
289.520782 128.0
289.584503 216.0
289.595978 208.0
289.656006 124.0
289.727051 116.0
289.817627 116.0
289.860718 116.0
289.89621 64.0
289.944672 132.0
290.059204 152.0
290.117126 5412.0
290.176392 160.0
290.222229 112.0
290.261841 232.0
290.289429 184.0
290.317078 88.0
290.340485 72.0
290.365906 120.0
290.402924 88.0
290.435791 68.0
290.478516 168.0
290.513428 164.0
290.536377 204.0
290.58844 88.0
290.623505 216.0
290.677277 88.0
290.715179 148.0
290.740662 100.0
290.784729 168.0
290.805847 148.0
290.839142 208.0
290.868591 136.0
290.942535 224.0
291.007355 264.0
291.048035 396.0
291.078125 88.0
291.127319 460.0
291.153168 108.0
291.165314 172.0
291.224243 108.0
291.252289 80.0
291.291443 48.0
291.306305 128.0
291.334106 136.0
291.406677 52.0
291.460083 172.0
291.502441 368.0
291.528351 76.0
291.568726 132.0
291.60791 60.0
291.641144 68.0
291.775787 68.0
291.806732 208.0
291.848511 88.0
291.928986 144.0
291.972137 172.0
292.002411 48.0
292.025085 148.0
292.061981 152.0
292.128265 48.0
292.165131 92.0
292.222656 96.0
292.286102 56.0
292.355377 112.0
292.40097 108.0
292.476654 176.0
292.549377 60.0
292.597046 48.0
292.644714 52.0
292.709381 36.0
292.75708 92.0
292.78772 88.0
292.809845 72.0
292.845612 40.0
292.875366 60.0
292.927368 60.0
293.056061 72.0
293.076233 40.0
293.177094 108.0
293.285645 112.0
293.372009 92.0
293.527191 92.0
293.636322 160.0
293.669952 56.0
293.793243 120.0
293.888763 92.0
293.936523 96.0
293.987732 80.0
294.049164 44.0
294.199341 136.0
294.338013 248.0
294.448608 88.0
294.503235 64.0
294.527161 48.0
294.732147 116.0
294.848328 40.0
295.08075 76.0
295.176514 40.0
295.368011 80.0
295.457214 56.0
295.816284 84.0
296.011444 96.0
296.590424 60.0
296.950439 76.0
297.094513 56.0
297.245483 44.0
297.412231 104.0
297.471985 60.0
297.629913 68.0
297.784454 28.0
297.99057 48.0
298.509583 128.0
298.574921 44.0
298.740021 64.0
298.82605 128.0
298.881104 84.0
299.070374 120.0
299.469757 108.0
299.669556 84.0
299.700592 48.0
299.771881 104.0
299.828064 60.0
300.207306 92.0
300.479797 108.0
300.623596 108.0
300.714447 60.0
300.833435 76.0
301.021698 148.0
301.080383 92.0
301.298004 36.0
301.370575 108.0
301.591736 124.0
301.647034 84.0
301.920197 156.0
302.082733 52.0
302.166229 92.0
302.570709 48.0
302.605316 48.0
302.774719 52.0
302.894043 64.0
302.937103 112.0
303.038239 36.0
303.173401 116.0
303.2323 44.0
303.325897 64.0
303.443756 76.0
303.811951 72.0
303.974457 48.0
304.002197 116.0
304.200043 40.0
304.26947 124.0
304.481293 36.0
304.710541 72.0
304.964233 48.0
304.992035 128.0
305.169312 80.0
305.537994 104.0
305.736877 76.0
305.809418 56.0
305.986938 64.0
306.126221 48.0
306.213287 68.0
306.948578 60.0
307.252045 44.0
307.279938 32.0
307.876831 48.0
308.093384 44.0
308.421875 80.0
308.523254 76.0
308.719055 76.0
308.781982 44.0
310.666473 76.0
310.726105 148.0
311.895508 64.0
312.584808 100.0
313.285461 68.0
314.004517 104.0
314.752655 44.0
314.883575 108.0
315.607758 80.0
315.982666 176.0
316.078186 92.0
317.147705 40.0
317.750549 108.0
318.144501 116.0
319.029053 64.0
322.497406 84.0
324.505676 60.0
325.162109 64.0
334.705994 96.0
336.010834 116.0
338.2034 140.0
339.427032 44.0
339.955261 52.0
340.417786 36.0
340.718994 112.0
340.979858 32.0
341.538727 80.0
341.976593 124.0
342.009705 96.0
343.586884 108.0
344.568939 88.0
344.687164 92.0
346.096466 96.0
348.986847 112.0
351.034821 108.0
353.668701 164.0
353.702393 64.0
354.608795 76.0
354.837463 80.0
355.865479 84.0
355.944336 68.0
359.147003 72.0
359.384674 96.0
359.769623 60.0
359.988617 76.0
360.64978 72.0
363.725464 148.0
364.477417 104.0
364.503998 88.0
364.633209 108.0
365.83139 124.0
366.989563 100.0
368.233582 84.0
369.227264 72.0
370.655151 52.0
371.264648 56.0
371.444916 116.0
372.823303 88.0
373.942444 40.0
374.623993 100.0
374.751129 68.0
375.267578 84.0
376.297729 84.0
377.257599 92.0
377.716003 68.0
378.385498 68.0
380.82074 88.0
381.32193 36.0
381.635651 108.0
383.333923 76.0
386.402924 96.0
387.130981 76.0
388.706818 68.0
393.102295 56.0
394.231689 56.0
394.603241 52.0
395.081787 132.0
395.338989 80.0
396.657867 100.0
404.589325 68.0
405.526672 60.0
405.707031 88.0
407.464844 84.0
407.597443 88.0
407.778259 80.0
409.153961 48.0
409.391541 84.0
411.621521 112.0
412.146637 104.0
413.347565 104.0
413.772552 48.0
415.738434 60.0
415.774963 64.0
416.278351 48.0
421.43927 76.0
422.776398 60.0
422.989227 44.0
423.71817 56.0
424.21405 44.0
424.726624 100.0
426.175781 48.0
427.24884 60.0
428.479797 68.0
429.741425 96.0
430.620697 100.0
432.195709 88.0
432.295013 60.0
433.674133 84.0
433.810913 56.0
435.358551 48.0
435.499756 84.0
436.268494 44.0
437.64975 56.0
437.728851 28.0
438.657959 84.0
439.270935 176.0
442.10791 44.0
443.339111 88.0
443.368439 68.0
443.548676 72.0
444.584625 44.0
445.579773 112.0
445.882324 52.0
446.189178 48.0
446.618103 56.0
448.083038 104.0
448.445435 72.0
449.073669 92.0
449.394257 136.0
449.639008 52.0
452.949646 120.0
453.496246 100.0
453.644592 96.0
456.778473 44.0
456.99118 104.0
457.340118 36.0
457.578522 104.0
458.950439 64.0
460.200592 100.0
461.187439 124.0
461.315674 112.0
461.516602 60.0
461.567902 80.0
462.624695 88.0
462.765961 88.0
463.224213 72.0
464.737579 84.0
465.278351 72.0
465.677704 100.0
465.862396 92.0
470.88913 112.0
471.135345 32.0
473.70929 76.0
473.795929 52.0
474.190247 32.0
474.563049 52.0
476.181671 108.0
480.046204 96.0
483.549896 68.0
484.745453 40.0
484.903198 92.0
485.319672 64.0
485.854736 92.0
486.144318 56.0
486.179443 148.0
486.359375 64.0
486.877441 72.0
489.194611 96.0
490.348633 132.0
490.798279 136.0
492.656372 48.0
493.504242 108.0
496.205688 108.0
497.761078 196.0
501.6427 44.0
501.780914 64.0
501.905731 96.0
502.963074 88.0
503.619446 52.0
504.620422 44.0
508.48999 48.0
509.595398 100.0
509.80661 44.0
510.575348 84.0
510.849701 84.0
511.173645 52.0
511.70929 68.0
512.799438 64.0
513.235657 124.0
514.63092 68.0
514.856689 88.0
516.33905 100.0
516.764221 128.0
517.384277 100.0
517.696716 96.0
517.796326 108.0
517.868774 128.0
518.022827 28.0
519.346375 120.0
519.423523 92.0
519.55957 124.0
519.908997 52.0
522.87207 52.0
523.026855 136.0
524.552795 76.0
524.762512 128.0
526.47821 108.0
527.958862 84.0
528.539856 112.0
530.174622 40.0
530.756775 112.0
533.180603 108.0
534.307129 80.0
535.729675 104.0
535.983093 76.0
536.195068 48.0
537.186401 112.0
539.023926 36.0
542.662048 124.0
543.139709 56.0
544.132751 80.0
545.568298 84.0
547.718201 124.0
547.774109 88.0
548.925293 132.0
550.595947 96.0
551.249939 72.0
551.708008 76.0
551.82489 76.0
553.794983 76.0
556.06427 84.0
556.227661 108.0
559.062622 108.0
561.01947 44.0
561.097473 44.0
562.493835 48.0
564.459229 64.0
565.244446 92.0
566.385437 52.0
567.157776 84.0
571.607727 48.0
573.059998 92.0
573.608032 76.0
574.127747 40.0
575.039001 68.0
575.478149 68.0
576.911438 48.0
578.935364 72.0
586.714539 76.0
590.147217 48.0
590.335815 108.0
591.230774 60.0
596.614746 100.0
596.648804 44.0
597.971863 100.0
600.802917 60.0
601.193298 124.0
601.461731 52.0
604.27655 64.0
605.015564 104.0
606.083252 100.0
608.953064 48.0
609.139709 120.0
610.633972 96.0
613.203979 76.0
618.746338 92.0
618.919617 56.0
625.617188 64.0
626.971985 100.0
627.315918 56.0
633.332153 68.0
639.63385 104.0
640.172546 64.0
642.985596 88.0
644.348999 52.0
647.434509 96.0
647.637085 128.0
648.245056 140.0
648.52887 76.0
658.618713 84.0
659.620239 80.0
660.520203 76.0
661.43103 56.0
663.070068 156.0
667.469482 80.0
675.773865 52.0
677.259583 76.0
680.817444 124.0
686.521118 96.0
687.846313 104.0
691.656921 40.0
695.19989 32.0
695.530518 168.0
695.687988 40.0
698.646667 96.0
702.539795 112.0
705.306824 112.0
720.70282 36.0
721.852051 40.0
722.986145 64.0
726.147034 100.0
727.134216 32.0
727.279114 176.0
729.981506 144.0
730.164307 40.0
732.613403 64.0
738.45929 64.0
738.767639 64.0
741.594177 88.0
741.876038 92.0
745.001892 44.0
745.186584 88.0
745.371338 68.0
754.971008 40.0
757.888672 80.0
760.427673 76.0
761.361023 60.0
769.654114 68.0
776.738037 84.0
778.086548 112.0
782.801575 32.0
786.447693 108.0
790.628235 108.0
792.43689 96.0
796.857971 68.0
797.262573 36.0
797.841492 96.0
798.218201 96.0
807.037048 76.0
809.566467 100.0
811.402283 116.0
812.423096 80.0
814.540527 44.0
814.841614 48.0
816.529846 140.0
819.524109 152.0
819.626709 36.0
827.182556 100.0
829.685974 60.0
830.523193 40.0
833.180969 40.0
834.594849 44.0
836.361023 124.0
839.748901 80.0
845.387512 64.0
845.989502 168.0
847.390991 96.0
853.241211 44.0
860.062683 208.0
862.58606 44.0
866.214111 96.0
867.309814 72.0
869.579712 72.0
876.265747 84.0
877.491638 144.0
882.480652 104.0
891.044922 60.0
893.898926 48.0
899.292358 204.0
899.937134 172.0
902.356873 96.0
906.403015 68.0
911.09491 156.0
913.084534 64.0
913.40332 152.0
915.004028 84.0
915.359314 156.0
922.00116 132.0
924.910339 60.0
925.194824 132.0
927.939331 188.0
930.839661 140.0
933.993835 64.0
939.933838 68.0
941.301208 116.0
944.937988 56.0
946.327332 168.0
950.292847 68.0
952.773193 48.0
955.84613 116.0
959.401245 76.0
966.330627 164.0
967.593201 76.0
968.311523 52.0
969.507202 124.0
971.720825 56.0
974.434021 160.0
974.750916 44.0
979.485474 152.0
980.769043 160.0
985.811829 192.0
990.898926 36.0
992.258911 52.0
995.301941 68.0
998.179871 196.0
1000.998962 172.0
1001.987854 156.0
1006.813293 64.0
1017.431885 52.0
1019.11499 84.0
1022.472534 172.0
1022.6698 56.0
1026.28186 56.0
1027.525635 64.0
1029.312744 156.0
1030.385742 148.0
1031.082275 52.0
1034.209839 144.0
1036.848633 172.0
1038.130737 112.0
1040.507568 204.0
1041.58374 96.0
1043.801025 56.0
1044.225464 256.0
1045.306152 192.0
1046.252319 180.0
1047.347046 68.0
1049.983154 164.0
1053.778809 60.0
1054.050171 168.0
1056.27417 160.0
1060.307983 112.0
1063.726074 100.0
1067.422974 116.0
1068.183838 116.0
1068.665283 148.0
1069.30957 184.0
1070.045044 200.0
1072.742188 152.0
1073.759399 44.0
1074.196411 192.0
1076.330566 184.0
1077.172974 208.0
1081.089355 68.0
1081.482056 132.0
1081.789673 88.0
1085.248901 152.0
1086.816528 108.0
1087.387451 72.0
1091.25 152.0
1096.858887 140.0
1099.774414 124.0
1100.163818 144.0
1100.348755 160.0
1104.717041 236.0
1105.299316 184.0
1106.51709 104.0
1107.484009 108.0
1108.610229 84.0
1109.114014 80.0
1111.634155 68.0
1112.390747 76.0
1113.73877 148.0
1114.223755 188.0
1115.539551 192.0
1117.255249 224.0
1118.32666 44.0
1122.163696 164.0
1123.564209 252.0
1132.18689 124.0
1133.0979 108.0
1139.310303 172.0
1141.837646 168.0
1142.853394 140.0
1146.530151 76.0
1148.498779 208.0
1150.69873 48.0
1150.881104 204.0
1151.765747 64.0
1153.296143 200.0
1153.542969 68.0
1154.246094 68.0
1154.590942 148.0
1155.057617 84.0
1157.277344 128.0
1158.943604 112.0
1159.485718 124.0
1159.824585 152.0
1160.604248 136.0
1160.909424 132.0
1163.413086 120.0
1165.606812 168.0
1167.115845 120.0
1168.312866 156.0
1168.816406 80.0
1170.538574 80.0
1171.158325 180.0
1172.255127 132.0
1173.263916 88.0
1175.105347 76.0
1175.610229 100.0
1176.640991 188.0
1176.695557 156.0
1176.818481 168.0
1176.93457 184.0
1177.105225 92.0
1177.35791 196.0
1178.150269 108.0
1179.325562 188.0
1180.651978 176.0
1180.740845 244.0
1182.930298 116.0
1182.998779 224.0
1183.074097 172.0
1184.251953 84.0
1186.718872 112.0
1187.411499 136.0
1190.177002 148.0
1192.306519 52.0
1192.856445 112.0
1193.640259 144.0
1193.887817 144.0
1195.077759 80.0
1195.332397 100.0
1197.115234 168.0
1197.418335 48.0
1198.024414 224.0
1199.016724 124.0
1201.547363 180.0
1203.804321 172.0
1204.039185 220.0
1205.241211 64.0
1206.174194 164.0
1207.390991 152.0
1209.563599 76.0
1210.892944 160.0
1214.178101 148.0
1216.481689 160.0
1222.013672 108.0
1222.445068 56.0
1222.556396 136.0
1222.792969 160.0
1224.798218 160.0
1225.899048 192.0
1226.609985 168.0
1228.095215 124.0
1228.144043 184.0
1228.227661 172.0
1228.576416 204.0
1229.420776 168.0
1230.307251 40.0
1233.213135 148.0
1233.709351 156.0
1234.394531 172.0
1236.871216 168.0
1237.704346 156.0
1238.824951 108.0
1241.362183 180.0
1241.958252 164.0
1242.708862 208.0
1243.235229 164.0
1243.452759 32.0
1244.976196 164.0
1246.367065 48.0
1247.814941 44.0
1248.138428 136.0
1250.854126 236.0
1251.227173 200.0
1252.445435 124.0
1253.438843 148.0
1254.115356 184.0
1254.961304 104.0
1259.30835 104.0
1262.821045 156.0
1264.129639 180.0
1264.830566 112.0
1265.637695 156.0
1265.899658 180.0
1267.982422 180.0
1270.471313 124.0
1271.095703 120.0
1273.296387 152.0
1273.573364 188.0
1273.992432 164.0
1275.157715 148.0
1275.264404 176.0
1275.377075 212.0
1275.776123 104.0
1276.081909 68.0
1276.366333 160.0
1278.735229 164.0
1280.17334 204.0
1281.861572 180.0
1283.251587 88.0
1283.836304 68.0
1283.986084 104.0
1284.214233 148.0
1284.321289 100.0
1286.519043 196.0
1286.975952 140.0
1287.640137 136.0
1287.804443 188.0
1287.868652 152.0
1288.054443 172.0
1288.35437 152.0
1289.526245 32.0
1291.471069 136.0
1292.401123 196.0
1292.744507 232.0
1293.431641 204.0
1293.53186 72.0
1295.02832 56.0
1295.099976 196.0
1295.336304 84.0
1296.647583 204.0
1296.790894 160.0
1300.089966 264.0
1300.534912 52.0
1300.642578 72.0
1301.540039 124.0
1302.516724 120.0
1302.6604 72.0
1304.715698 44.0
1305.211792 176.0
1307.269165 196.0
1308.140015 224.0
1310.134766 100.0
1311.950806 180.0
1312.614136 168.0
1313.804199 64.0
1314.063965 128.0
1314.208252 200.0
1315.377441 96.0
1316.749268 76.0
1317.854492 172.0
1320.102539 152.0
1320.435181 180.0
1322.062988 136.0
1323.865601 236.0
1324.481201 140.0
1325.61145 192.0
1326.894287 168.0
1327.380127 136.0
1328.678467 204.0
1329.353271 112.0
1330.311279 192.0
1330.601685 52.0
1331.959717 144.0
1332.14856 132.0
1332.664307 80.0
1335.863281 164.0
1336.29248 224.0
1337.980957 120.0
1338.752808 164.0
1339.655762 152.0
1340.56665 160.0
1341.186157 140.0
1345.307617 132.0
1345.628784 124.0
1346.351685 176.0
1347.155151 152.0
1348.879761 164.0
1349.4646 56.0
1349.698608 108.0
1350.963867 48.0
1351.519897 332.0
1352.28833 164.0
1352.559082 220.0
1352.83728 100.0
1354.558105 144.0
1356.631958 156.0
1356.917847 72.0
1357.079224 168.0
1358.773438 216.0
1359.367798 156.0
1360.204468 216.0
1360.432007 128.0
1362.120972 68.0
1364.685791 176.0
1365.502075 196.0
1367.150024 220.0
1368.327759 120.0
1368.614868 64.0
1368.924194 228.0
1369.830078 172.0
1370.205811 136.0
1371.370117 132.0
1373.766602 360.0
1374.371582 120.0
1375.043091 152.0
1375.640991 184.0
1376.13562 176.0
1376.556519 172.0
1376.741089 144.0
1377.17688 124.0
1377.413208 152.0
1379.186646 188.0
1381.567749 168.0
1382.618408 204.0
1382.976074 168.0
1384.883911 196.0
1385.106201 204.0
1385.39502 128.0
1386.45459 140.0
1387.914917 192.0
1389.049683 76.0
1389.294434 164.0
1389.754517 132.0
1390.711792 100.0
1390.778564 84.0
1391.35022 160.0
1392.233765 164.0
1392.835327 88.0
1397.065063 136.0
1397.422241 160.0
1397.801636 144.0
1399.297729 104.0
1399.41687 84.0
1401.539673 216.0
1402.195435 184.0
1402.769409 120.0
1402.954102 148.0
1404.447144 48.0
1404.723145 144.0
1405.051392 160.0
1405.209839 84.0
1406.088623 104.0
1406.252808 160.0
1407.006714 192.0
1408.447998 60.0
1409.688232 136.0
1409.860107 184.0
1411.302734 144.0
1411.871094 228.0
1411.919312 216.0
1413.718872 144.0
1414.789185 176.0
1415.238403 40.0
1417.493042 148.0
1417.762817 52.0
1420.079468 200.0
1422.142822 184.0
1422.540649 180.0
1422.645752 172.0
1423.163818 188.0
1423.246338 280.0
1423.914795 156.0
1424.034912 180.0
1424.688354 196.0
1424.831177 136.0
1424.90625 160.0
1425.37207 128.0
1426.988159 160.0
1427.499512 192.0
1427.567139 268.0
1428.394409 264.0
1428.785645 128.0
1430.689697 144.0
1430.851562 192.0
1432.022461 128.0
1433.408691 180.0
1437.035522 124.0
1437.390137 172.0
1438.152344 200.0
1438.529785 160.0
1439.058228 120.0
1439.964355 188.0
1440.160767 196.0
1441.361938 120.0
1441.974121 208.0
1442.669556 60.0
1443.750732 168.0
1444.197021 136.0
1444.658447 192.0
1445.596558 184.0
1445.657104 124.0
1446.065796 172.0
1447.102905 156.0
1448.708496 132.0
1449.13269 192.0
1449.375244 208.0
1449.723755 132.0
1451.960205 76.0
1452.187744 144.0
1453.044922 144.0
1453.568481 88.0
1456.073608 72.0
1456.141968 216.0
1456.324219 204.0
1456.726807 148.0
1457.121948 160.0
1457.425781 164.0
1458.155396 112.0
1458.284546 140.0
1460.033203 104.0
1461.0448 108.0
1461.105713 148.0
1461.828491 208.0
1463.290039 120.0
1463.944824 200.0
1465.971191 188.0
1466.230347 200.0
1466.596069 172.0
1467.564331 212.0
1468.143799 152.0
1468.380249 196.0
1469.364258 176.0
1469.555054 192.0
1470.058594 228.0
1470.569946 100.0
1470.905762 216.0
1471.175781 224.0
1471.554688 176.0
1473.196655 160.0
1473.785034 196.0
1474.037109 188.0
1475.665161 64.0
1476.001587 132.0
1476.139282 128.0
1476.99585 116.0
1478.181763 36.0
1478.61792 204.0
1478.719849 204.0
1479.406372 168.0
1479.490479 168.0
1480.884155 208.0
1481.098633 108.0
1481.175293 180.0
1481.887695 132.0
1483.22876 84.0
1483.35144 196.0
1483.911133 220.0
1484.194824 192.0
1484.693237 128.0
1485.00769 128.0
1485.107422 196.0
1487.631958 104.0
1488.031128 136.0
1488.407349 196.0
1488.560913 188.0
1489.797485 148.0
1489.88208 160.0
1490.727173 140.0
1491.63208 152.0
1493.064209 72.0
1494.764404 92.0
1495.256836 180.0
1495.603271 132.0
1496.157471 152.0
1497.220093 180.0
1497.944092 188.0
1498.113525 32.0
1498.645142 92.0
1498.799316 120.0
1499.438843 156.0
1499.523682 148.0
1500.364746 176.0
1502.677612 208.0
1503.865967 56.0
1504.900391 124.0
1505.108887 240.0
