>compound Oxybutynin
>formula C22H31NO3 
>ionization [M+H]+
>parentmass 358.238464
#inchi InChI=1S/C22H31NO3/c1-3-23(4-2)17-11-12-18-26-21(24)22(25,19-13-7-5-8-14-19)20-15-9-6-10-16-20/h5,7-8,13-14,20,25H,3-4,6,9-10,15-18H2,1-2H3
#inchikey XIQVNETUBQGFHX
#Ion_Source LC-ESI
#Instrument qTof
#Compound_Source Isolated
#PI Sirenas
#Data_Collector Ed Esquenazi 
#Scan -1
#Precursor_MZ 358.238
#ExactMass 0.0
#Charge 1
#CAS_Number N/A
#Pubmed_ID N/A
#Smiles N/A
#INCHI_AUX N/A
#Library_Class 3
#SpectrumID CCMSLIB00000006548
#IonMode Positive
#UpdateWorkflowName UPDATE-SINGLE-ANNOTATED-BRONZE
#LibraryQualityString Bronze
#TaskID d19310cd93df49b68e9fcbec27720eb5
##Scan# 2
#SpectrumFile Oxybutynin.mgf
#LibraryName fda_library.mgf
#MQScore -1
#Organism fda_library
#TIC_Query 0
#RT_Query -1
#MZErrorPPM -1
#SharedPeaks 0
#MassDiff 0
#LibMZ -1
#SpecMZ 358.238
#SpecCharge 0
#internalFilename spec-00000.mgf

>collision 10
100.00843 4.333333
100.075325 57.354172
100.111031 64.464897
100.481773 9.949713
100.564796 3.555556
103.053902 39.66116
103.662804 3.858135
104.451538 18.348221
104.491287 7.892565
104.545776 5.460227
104.563431 7.30303
104.589424 2.844445
104.644173 22.385571
104.686638 6.428572
104.69976 3.222222
104.724701 8.350059
104.738907 3.051282
104.779549 6.259782
104.839684 19.68745
104.966949 6.794769
105.03363 12191.700195
105.069405 787.059875
105.103439 13.39444
105.123779 3.51929
105.130905 4.09375
105.140083 10.63203
105.152344 15.84135
105.167686 10.10292
105.173454 12.35227
105.184425 6.081667
105.191597 7.327851
105.206329 37.302361
105.212723 5.680744
105.224075 25.55822
105.245338 7.031746
105.254402 12.33532
105.267532 7.277778
105.280098 41.123741
105.291985 29.918751
105.300522 26.887621
105.329971 29.797791
105.340263 9.504807
105.364334 3.296296
105.382118 12.4886
105.418495 15.58004
105.43232 13.43256
105.439804 7.628205
105.458549 10.01021
105.47364 10.85319
105.488678 12.41157
105.505783 4.836742
105.522591 5.945833
105.559296 18.304461
105.738182 3.84127
105.863426 5.671875
105.919357 15.09025
105.985161 8.091216
106.181076 3.296474
106.21933 7.406746
106.412735 6.229167
106.494362 15.83354
106.511192 7.277778
106.526657 5.622874
106.537422 3.00463
106.548203 3.856771
106.55912 10.22917
106.614174 4.948994
106.629089 4.6875
106.740974 7.000992
107.01252 46.72963
107.048874 3499.774902
107.085602 1010.340027
107.131157 21.640829
107.152588 14.05918
107.199402 7.169643
107.206284 4.836538
107.222984 13.73642
107.235069 6.668651
107.255867 10.55545
107.267258 26.935699
107.285553 10.83405
107.310852 3.836806
107.31913 18.72917
107.352493 9.068182
107.372581 4.442935
107.38208 5.469697
107.418785 21.944
107.476715 7.627472
107.493149 8.513888
107.527847 8.198413
107.615768 23.07469
107.696945 8.400321
107.756691 16.782129
108.080566 1749.114014
108.123734 9.618055
108.209641 5.010417
108.221169 10.62604
108.237091 6.534997
108.283997 26.561899
108.295433 15.99423
108.312485 8.056019
108.334961 3.895833
108.474693 12.20083
108.488655 4.722222
108.536018 7.5
108.57589 7.023117
108.59066 8.174167
108.603897 5.185606
108.697197 16.73797
108.851685 9.875458
109.08847 3697.614014
109.132294 32.073238
109.149025 11.21286
109.160301 5.359509
109.167648 5.026175
109.185562 13.64479
109.196442 11.50397
109.237541 3.78125
109.287552 2.53125
109.325974 3.962963
109.349388 5.891026
109.405151 13.22222
109.422157 4.000906
109.438408 11.13038
109.447647 9.020202
109.466728 16.96599
109.483292 20.60597
109.494385 8.480183
109.520485 5.673132
109.761009 6.927469
109.831367 6.1875
110.034271 5.352623
110.268402 3.520833
111.36306 7.938802
113.023148 467.697815
113.069313 4.333929
113.079742 37.32658
113.295135 1.901389
114.052139 14.38435
114.092041 123.746201
114.126472 61.457241
114.349396 16.14723
115.05304 67.593384
116.101578 17.45602
117.069443 339.216187
117.115189 7.645833
119.048904 15.66964
119.084862 127.014603
120.078766 39.698399
121.063515 117.004501
121.347244 9.037635
121.40873 5.227904
121.515274 10.33681
121.534943 9.006667
121.548851 4.037138
121.633904 3.066667
122.095901 3784.147949
122.142563 25.21286
122.15876 27.42481
122.167915 5.591131
122.175911 25.66152
122.204803 7.126689
122.237427 30.259581
122.256363 4.684627
122.285919 6.795098
122.294876 6.461436
122.325104 9.45
122.353249 13.91886
122.410477 48.870491
122.43338 6.84
122.464256 7.508333
122.569595 3.9375
122.629753 9.33477
122.693459 8.794118
122.718559 14.17172
122.814796 10.16702
123.042023 120.1493
123.079567 11.42807
123.289436 4.535088
123.366776 2.942935
123.3899 6.180147
123.415115 10.93867
123.437759 83.990379
123.457535 36.188419
123.482178 36.023998
123.497025 111.018997
123.515015 28.39596
123.529816 17.69632
123.558922 72.351379
123.582825 10.35307
123.604401 38.730301
123.636559 15.88506
123.645157 5.185956
123.657524 31.654949
123.672943 38.870979
123.697037 23.80876
123.708427 14.36912
123.720306 14.54167
123.731865 3.726852
123.741783 8.509137
123.777115 30.277349
123.789429 10.50596
123.808327 5.000631
123.832932 13.8
123.855309 17.191759
123.877281 6.078526
123.900879 5.633333
123.908607 5.753592
123.997101 6.026175
124.047783 15.19089
124.082253 11.04273
124.112114 55758.859375
124.1446 6.761905
124.299301 15.40093
124.318077 4.75
124.33532 35.318352
124.373428 13.09075
124.410439 34.418449
124.44799 14.0876
124.454788 39.312881
124.472054 31.78632
124.480873 37.103088
124.507332 51.020248
124.526733 48.86554
124.536858 11.92556
124.587509 68.625877
124.619591 58.372711
124.630394 20.891581
124.637657 17.06255
124.651039 16.970539
124.657944 14.44255
124.671326 64.644997
124.690178 23.027241
124.69754 9.218251
124.723389 4.592672
124.73291 33.376911
124.741867 21.17392
124.757698 2.845834
124.777161 5.126689
124.821411 35.351978
124.862976 12.72299
124.899292 13.83192
124.923889 33.543579
124.932709 5.351191
124.959969 3.011029
125.023323 87.053207
125.17379 14.84186
125.181961 12.71626
125.199013 8.380952
125.215118 13.2348
125.247475 20.612801
125.259552 8.426183
125.286812 2.877717
125.309708 17.477711
125.327759 27.475229
125.354614 8.698074
125.366196 8.081644
125.43615 15.68074
125.548592 11.24833
125.766151 11.38194
125.785553 2.701389
125.851883 8.190407
125.969559 31.28392
126.08831 66.529953
126.127716 93.932228
126.168373 11.8344
126.414696 4.349116
126.705078 16.724369
126.810066 3.241071
127.037384 2.370833
127.051994 17.480801
127.425949 12.84205
127.603317 10.16667
127.917236 6.16711
128.065933 59.129921
128.381943 5.333929
128.422394 9.1125
129.069641 2276.174072
129.116165 7.265369
129.151733 7.188582
129.191284 3.339799
129.204407 6.906746
129.258636 8.022685
129.281189 14.98735
129.302414 17.72401
129.321793 6.869253
129.353622 13.58134
129.373734 7.225899
129.4077 3.080044
129.436966 6.854167
129.449844 22.426849
129.489029 8.40947
129.547394 7.401389
129.623932 10.46354
129.763077 10.42274
130.30481 8.32189
130.409378 7.538462
131.048767 82.008247
131.085358 177.098297
132.049118 24.94701
133.028137 40.397541
133.063919 121.0158
135.042969 9.689073
135.078796 84.586769
135.130081 2.604167
136.378433 7.847757
137.062317 7.428491
137.094589 52.19643
139.074844 115.802299
139.212494 1.845833
140.070847 55.154819
140.106216 139.181198
140.250687 3.878788
140.714798 9.525962
140.743622 2.845238
141.069534 221.753204
141.141556 10.29398
141.255829 4.862179
141.272995 5.427083
141.296432 7.5625
141.312027 50.079971
141.329025 59.71484
141.354736 33.210999
141.371628 6.194256
141.380585 7.834325
141.390182 93.678772
141.404755 3.022645
141.421188 7.921776
141.432724 32.832569
141.455505 32.044781
141.479874 21.991989
141.488495 21.98184
141.50946 52.656731
141.524567 23.43548
141.555908 43.399349
141.588593 10.1157
141.606277 13.18908
141.623199 4.167659
141.631622 18.92296
141.641129 5.898148
141.669586 7.338141
141.705933 3.245192
141.735901 3.211111
141.76506 15.92229
141.776413 4.15
141.786224 7.864583
141.856033 6.169741
141.914047 9.190341
142.040436 4.531863
142.0858 12.75219
142.122513 36465.628906
142.156555 2.213542
142.231827 2.340278
142.270325 15.77751
142.36113 25.42194
142.422256 42.682892
142.432541 15.1329
142.459412 19.732309
142.537567 38.6535
142.568039 35.729179
142.582596 45.979359
142.59404 44.223961
142.611771 29.351139
142.643997 31.423201
142.668991 19.74128
142.693619 17.30578
142.707748 7.023809
142.726013 21.09259
142.745544 40.100689
142.757156 17.335649
142.764526 16.724581
142.779434 37.64859
142.799927 9.908063
142.822433 10.5387
142.833221 12.9537
142.853149 13.50442
142.867935 8.329392
142.881546 9.422222
142.906281 11.67839
142.941818 10.53813
142.969315 72.309837
142.988159 8.733334
143.022736 1.833333
143.047958 73.69455
143.084351 505.842804
143.168365 10.66786
143.180878 8.880278
143.215576 24.80925
143.301254 8.833333
143.326614 7.515
143.382553 4.628205
143.434906 9.334636
143.500732 14.30104
143.559937 3.016801
143.618317 11.17519
143.676682 7.370535
143.731171 7.656609
144.022995 7.033088
144.277847 11.68711
144.356491 7.217949
144.407364 8.669845
144.745209 3.279166
144.817276 12.56818
144.876266 4.561237
145.064529 71.373734
145.26564 2.674167
145.521606 2.942935
145.605469 3.673132
145.630661 6.952712
145.815674 6.350101
146.29895 4.8
147.079086 20.609449
147.422745 6.531746
149.093582 7.382761
153.069687 41.897781
154.359894 3.674167
155.046249 41.42894
155.084885 94.885406
155.190872 5.169117
155.353012 3.316886
155.620392 11.98316
157.06485 491.149292
157.09993 114.204102
157.187485 16.230061
157.31813 11.17738
157.393738 4.208333
157.416885 3.782408
157.655411 4.320076
157.907043 10.63636
159.080154 175.310699
159.116699 9.195478
159.199051 9.015625
159.230087 7.907738
160.109604 23.34129
160.542923 26.23732
160.746048 7.8375
161.060043 89.832298
161.092407 9.275664
161.211411 3.600833
163.074295 17.16667
163.109695 32.7453
165.088623 13.64583
165.824875 9.671429
166.073151 29.071699
167.0448 8.430555
167.083267 95.856438
167.420013 9.129807
168.099838 87.977287
169.064636 59.409592
169.104019 123.908997
169.219666 2.667339
169.22876 7.880896
169.369034 3.333965
169.545624 5.372549
169.767685 4.677778
170.035233 6.625
170.116913 196.808197
170.343857 6.360577
170.407547 4.6875
170.49408 3.336806
170.561981 3.645833
170.772797 7.008333
171.078796 92.331123
171.116119 3999.426025
171.173035 25.9697
171.191559 21.079679
171.216873 7.314134
171.257462 27.08433
171.287476 12.64746
171.307785 8.367866
171.318481 4.928571
171.330063 11.00181
171.34877 3.026786
171.366394 2.2
171.409637 12.85301
171.438324 12.875
171.449249 11.39461
171.482971 7.004167
171.503723 9.80617
171.5867 8.362145
171.603882 11.44048
171.620087 8.677083
171.645584 8.942803
171.686203 14.90623
171.747437 15.85405
171.800217 16.14975
171.819641 10.78533
171.838516 11.06842
171.885727 3.234167
171.956055 14.93664
172.607956 11.92315
173.059113 774.031616
173.232849 15.89285
173.408722 2.544384
173.490692 7.126689
173.816696 11.01173
175.072983 226.0914
175.969833 6.246116
177.088394 4.372578
177.343094 7.0625
178.078354 22.55114
178.152954 18.270361
179.07869 56.84544
179.086151 115.873596
179.63446 4.012821
181.063034 50.760559
181.098969 247.563995
181.312271 4.44079
181.376541 5.296875
181.664368 6.890625
183.079834 182.338699
183.107376 105.699799
183.117905 29.94739
183.893158 15.0333
184.055954 16.11046
184.112503 121.8843
184.198318 4.241071
185.038773 35.597092
185.059341 744.753723
185.117233 69.760147
185.358505 3.000992
185.445221 3.501225
185.585922 4.100595
185.841248 11.2357
185.998703 8.366667
186.079117 16.17182
186.089355 27.216049
186.254333 7.514493
186.383835 12.61985
186.440964 10.4433
186.520737 6.397348
187.075897 840.148987
187.200317 14.87772
187.36264 7.521505
187.448196 7.35307
187.982208 4.869237
188.006058 3.199597
188.034119 12.26673
188.055893 13.46604
188.108185 13.12004
188.12056 4.004167
188.153915 3.018518
188.189072 14.4494
188.25882 32.822021
188.344894 5.813406
188.435623 10.64083
188.784836 5.990196
189.054184 35.13253
189.126999 6395.52002
189.15741 3.840833
189.18721 48.9841
189.205261 3.167339
189.238754 3.881548
189.269791 19.18544
189.292908 34.081429
189.324524 24.02376
189.343811 18.011299
189.360336 26.459129
189.372772 6.363636
189.397888 4.339015
189.420654 8.515237
189.442917 17.39043
189.468155 15.82946
189.478241 2.604167
189.492477 3.670455
189.516434 2.846154
189.534241 6.94079
189.585327 45.67551
189.715897 8.635417
189.739517 5.212121
189.823441 20.980419
189.887039 11.20119
190.101181 5.721491
190.424164 3.453373
190.437073 7.00119
190.629181 9.674569
190.782883 3.047619
191.02626 2.3
191.181931 8.366944
193.102829 85.780617
194.070847 9.240794
194.238907 6.35307
194.355347 3.8375
195.117172 44.045799
195.720535 3.366263
196.090164 10.20673
196.110489 30.40476
197.055771 6.871142
197.093719 136.197006
197.132553 241.125198
197.274384 4.640152
197.473297 5.833929
197.804245 3.013889
197.84317 11.71902
197.981049 4.778409
198.631821 9.684576
199.009705 5.691358
199.029526 27.33531
199.070511 101.385201
199.111008 2443.826904
199.170685 13.03665
199.186432 7.516735
199.210846 12.04748
199.223969 9.841269
199.248047 11.56116
199.277695 17.11475
199.296219 13.66699
199.310577 8.420592
199.345245 9.611574
199.429382 5.421614
199.487701 8.59375
199.620026 36.125729
199.71167 13.36
199.882935 8.681187
199.957336 9.084822
200.263138 3.569444
200.647324 5.707825
200.972702 2.842262
201.921432 6.449253
202.0047 3.185185
202.060638 27.36528
202.119247 15.86631
203.068848 876.581299
203.109955 6.260031
203.208084 3.375
203.420822 7.076389
203.943893 4.996058
205.10141 59.593731
205.563461 6.948994
207.114685 140.173996
207.976624 5.254902
209.131592 13.4184
209.839279 3.878788
210.103317 19.74898
210.998581 6.668651
211.100357 227.445099
211.149796 48.556629
211.412903 4.929167
212.105606 159.959305
212.139755 146.663101
212.470932 2.835938
212.547577 3.000992
212.679443 2.020833
212.72963 3.860119
213.093674 7.261905
214.117645 17.93815
214.159912 124.5485
214.519531 3.227273
214.585953 10.8
215.142334 22.06966
216.789215 7.047348
217.121735 297.589905
217.259262 7.641346
217.679901 7.012703
221.095383 21.449169
221.132202 177.058304
221.163773 13.14371
221.432617 3.837907
223.108566 16.362181
223.14537 73.709282
223.888046 3.960938
224.12236 61.84436
225.12677 166.992096
225.570694 13.5382
226.901627 3.565104
227.578125 6.833868
228.101334 173.503296
228.138687 42.747139
228.17012 13.26645
228.250305 4.520833
228.303116 8.547563
228.38887 8.082058
228.408096 3.364268
228.586182 7.774123
229.108765 644.842407
229.185303 3.246711
229.244843 2.4
229.323853 3.714881
229.345016 6.900589
229.508469 4.171297
230.148087 42.355999
230.760284 4.483477
232.617828 2.340278
234.096481 30.627529
238.115326 9.043403
239.142853 123.128098
239.722504 7.503205
240.061325 1.901389
240.139969 140.103195
240.24556 6.382761
240.288651 4.898551
240.364151 3.833796
240.952408 8.299342
241.411636 4.898551
242.120132 43.60088
242.15274 5.500563
242.412689 6.541274
242.542679 7.317282
242.954605 7.001667
243.127197 81.890846
245.105118 7.463235
248.116898 7.95919
248.163773 16.1943
249.124084 64.640213
250.129364 42.488701
252.107697 7.840868
254.203537 2.501389
254.626328 3.0375
255.132355 10.22727
256.135193 285.639099
256.57193 23.30246
257.553589 24.495411
257.756561 10.12731
258.148773 2692.350098
258.241486 5.686806
258.268677 19.35111
258.2966 13.41936
258.353424 7.640351
258.37204 3.211111
258.390747 8.583333
258.409637 8.29885
258.430878 2.867424
258.447052 10.12623
258.520691 3.863971
258.534576 20.11167
258.592102 6.44676
258.631805 11.87879
258.652588 2.320076
258.677032 3.760417
258.726257 13.82432
258.823029 6.770833
258.856171 7.220692
258.958282 12.54762
259.002441 4.594697
259.052032 3.502604
260.060455 3.791667
261.757935 6.805555
262.625427 3.844445
265.502716 6.370833
265.586334 4.204167
266.596283 16.59186
266.984436 5.03293
267.114166 6.578432
267.137115 1252.616943
267.228973 9.045725
267.262756 3.345834
267.347382 17.27083
267.576202 6.615
267.610138 7.633152
267.627747 4.225
267.752411 5.5
267.778473 9.037499
267.799377 14.79064
268.20636 24.628229
268.316315 3.780242
268.391785 14.90645
269.462921 6.0
270.905396 6.24074
275.147369 14.05408
276.152863 19.2134
278.115173 12.47444
280.197784 19.643709
285.144531 249.795898
285.290405 3.1675
288.111542 10.02667
294.228271 26.512119
296.205933 20.045271
296.235565 72.241142
296.582092 3.006048
296.659973 4.356019
298.213776 7.175926
305.326843 2.670139
307.255371 13.90139
312.203857 10.50987
312.230133 52.1273
322.208801 30.182711
326.03067 8.207992
337.991821 2.201389
338.068512 4.52374
338.114838 8.613575
338.139099 38.27747
338.184814 19.273479
338.203217 23.405161
338.231445 18.392111
338.281586 25.352779
338.330139 26.75963
338.362427 7.346154
338.418915 12.36705
338.46521 6.00436
338.550385 13.71519
338.580414 14.42275
338.616425 17.380251
338.88028 3.449074
339.156921 15.83456
339.414429 8.842803
339.510315 4.875
339.868317 2.683333
339.910583 25.58917
340.152527 81.534729
340.227081 12490.849609
340.301331 18.835831
340.333191 8.395833
340.368866 24.538639
340.423218 20.388889
340.441254 71.532928
340.47525 78.392052
340.497772 20.75775
340.537201 20.912781
340.57193 13.95924
340.596191 44.558819
340.628021 70.892014
340.670746 6.745614
340.694977 49.825069
340.73761 50.299648
340.775757 51.99403
340.798401 21.674089
340.822235 7.669445
340.846832 21.657841
340.873871 34.463001
340.994019 35.513199
341.022614 33.86956
341.055847 5.871913
341.114105 11.89147
341.329865 8.752141
341.398438 6.282407
341.679321 6.666667
341.928131 18.91699
341.94986 4.898148
341.97525 7.04023
342.66391 5.918561
343.045319 6.446428
343.759552 4.363636
347.381134 3.166667
349.888397 3.607143
350.800079 3.84375
351.340881 12.1702
351.954346 5.846036
352.032654 7.174679
352.286255 6.990196
352.633423 7.988556
352.783478 7.374492
353.745941 1.840278
355.087494 3.241071
355.153046 6.667824
355.303864 6.916667
355.415466 6.224915
355.454712 3.747984
355.671173 3.515783
355.841034 7.177296
355.861023 15.35862
355.890961 125.995903
355.912537 29.22197
355.945709 48.24297
355.975525 30.4307
355.995392 50.553638
356.03894 165.898499
356.078339 139.391006
356.114319 37.536011
356.141937 264.126007
356.174225 27.421881
356.202179 96.815643
356.236267 77.910583
356.265045 134.582199
356.313934 39.729561
356.360718 67.964211
356.433533 61.20237
356.520203 100.723801
356.664215 80.573677
356.806366 72.413353
356.847626 99.922836
356.912109 25.5154
356.992981 97.432793
357.101379 9.014881
357.218872 32.266201
357.294403 12.03194
357.33548 26.169941
357.406219 21.269661
357.464233 37.511349
357.553467 12.83343
357.576385 6.667175
357.597076 46.054531
357.702271 16.91971
357.747467 8.025962
357.877563 95.380997
357.939484 18.1385
358.029144 10.26017
358.043152 13.16928
358.086456 26.0196
358.126831 25.785469
358.238464 115403.796875
358.487854 10.40237
358.684052 2.520833
358.728546 4.1875
358.823853 137.164001
358.927582 180.368805
359.006958 93.25206
359.069214 147.925507
359.110809 170.139893
359.149506 102.470703
359.181458 33.071411
359.350189 45.004639
359.380219 44.260361
359.42749 17.501751
359.446228 96.139893
359.487366 60.94558
359.524292 42.60487
359.64093 14.64009
359.665344 13.90194
359.68399 28.30916
359.722107 42.03064
359.756348 44.479469
359.846771 76.203262
359.871216 74.839546
359.904449 2.949074
360.041443 35.540501
360.099091 7.446908
360.205383 64.322662
360.24118 13.70543
360.276215 46.445461
360.575806 31.334681
360.644287 8.149123
360.667694 12.37669
360.886444 3.440476
360.959991 7.738691
361.010803 25.45915
361.063446 6.94676
361.08548 11.40028
361.126221 31.466419
361.186829 14.59317
361.342316 5.016304
361.381775 4.711051
361.535309 13.00526
361.825348 3.722222
361.904144 8.102885
361.944611 6.796474
362.070374 6.697348
362.241028 6.481548
362.350616 7.538462
362.481537 3.520833
362.642059 17.86907
362.666382 7.553572
362.69989 10.18056
362.772522 3.282051
363.111145 4.340278
363.509338 3.518939
363.760468 9.436358
363.815033 10.51343
364.068726 5.409105
364.577118 16.35145
364.95578 1.835648
365.261963 5.248311
365.321686 4.898148
365.36795 7.135
366.105469 11.6157
367.738983 3.185957
368.547607 9.796296
368.68689 9.166667
371.468048 13.77604
408.70871 2.840278
409.366608 10.96955
427.028137 5.041667
428.534271 4.275735
430.194763 8.2664
468.060394 2.027412
591.10968 5.461436
609.458984 28.181
658.932678 1.833333
666.341675 25.27829
688.680542 43.86364
806.623779 4.834052
819.262939 3.78125
827.81134 17.00091
1193.653564 19.93889
1263.680786 2.588816
1638.244751 6.220238
