>compound MLS000876824-01!
>formula C25H32O7
>ionization [M+H]+
>parentmass 445.223
#inchi InChI=1S/C25H32O7/c1-13-15-12-30-21(27)18(15)20(29-6)14-11-16-23(4)8-7-17(26)31-22(2,3)25(23,28)10-9-24(16,5)32-19(13)14/h16,28H,7-12H2,1-6H3/t16-,23-,24+,25-/m1/s1
#inchikey GEOMINBWFXSCOW
#Ion_Source LC-ESI
#Instrument qTof
#Compound_Source NIH Natural Product Library
#PI Dorrestein
#Data_Collector VVP/LMS
#Scan -1
#Precursor_MZ 445.223
#ExactMass 444.215
#Charge 1
#CAS_Number N/A
#Pubmed_ID N/A
#Smiles COc1c2C(=O)OCc2c(C)c3O[C@@]4(C)CC[C@]5(O)[C@](C)(CCC(=O)OC5(C)C)[C@H]4Cc13
#INCHI_AUX N/A
#Library_Class 1
#SpectrumID CCMSLIB00000079617
#IonMode Positive
#UpdateWorkflowName UPDATE-SINGLE-ANNOTATED-GOLD
#LibraryQualityString Gold
#TaskID b1d8e8f6646f4e71acdff9ca3d919d08
##Scan# 1996
#SpectrumFile p1-H08_GH8_01_17964.mzXML
#LibraryName NIH_Natural_Products_Library.mgf
#MQScore -1
#Organism NIH_Natural_Products_Library
#TIC_Query 0
#RT_Query -1
#MZErrorPPM -1
#SharedPeaks 0
#MassDiff 0
#LibMZ -1
#SpecMZ 445.223
#SpecCharge 0
#internalFilename spec-00000.mgf

>collision 10
95.085884 232.0
95.237213 236.0
96.699547 184.0
99.042557 436.0
100.049438 348.0
103.066032 216.0
103.205498 60.0
104.267731 88.0
104.986382 76.0
105.068153 212.0
106.928581 172.0
107.087112 240.0
107.569611 176.0
108.057335 168.0
108.113205 132.0
109.101463 288.0
109.348053 208.0
109.848129 152.0
110.098595 204.0
111.546417 100.0
111.965118 164.0
112.040955 172.0
113.094681 136.0
113.350945 80.0
113.964165 128.0
114.557739 164.0
115.858757 120.0
117.075592 176.0
117.365402 108.0
117.851051 136.0
118.337708 128.0
118.93821 152.0
119.012016 180.0
119.044594 208.0
119.085014 536.0
120.473419 144.0
120.777267 88.0
121.031136 164.0
121.064804 404.0
121.101631 312.0
122.068581 152.0
122.152626 96.0
122.425179 120.0
123.113602 156.0
125.09359 192.0
125.887337 64.0
126.437286 188.0
126.997406 180.0
127.466614 160.0
128.06279 180.0
130.622864 76.0
131.383728 108.0
132.332199 204.0
132.916687 144.0
132.944229 176.0
133.063034 200.0
133.095474 176.0
133.231247 176.0
133.856857 148.0
134.034225 188.0
134.103363 184.0
134.22554 192.0
134.414688 92.0
134.691742 136.0
135.033829 120.0
135.080383 1776.0
135.116104 348.0
135.279099 100.0
136.053391 196.0
136.083755 248.0
137.098083 232.0
137.120087 212.0
137.89827 60.0
138.680008 160.0
139.109619 136.0
139.73204 164.0
141.594513 28.0
142.074265 204.0
143.0849 296.0
144.077866 116.0
144.742783 176.0
144.920044 184.0
145.051849 160.0
146.684036 120.0
147.077225 132.0
148.046738 176.0
148.560593 244.0
148.868835 96.0
149.058395 2076.0
149.098053 340.0
149.136078 76.0
149.264938 168.0
149.354919 156.0
149.552002 184.0
150.060135 532.0
151.074677 316.0
151.112427 180.0
152.057251 176.0
152.111252 36.0
155.108261 172.0
155.214981 240.0
155.306747 64.0
155.569778 124.0
156.903229 160.0
157.087769 160.0
159.044586 192.0
159.077209 200.0
159.109848 64.0
160.781235 40.0
161.057419 228.0
161.096848 124.0
161.127777 360.0
162.77861 96.0
162.849716 52.0
162.95134 216.0
163.065689 196.0
163.104797 72.0
164.038025 136.0
164.895645 104.0
165.051941 148.0
166.694702 96.0
167.108688 124.0
167.237366 108.0
167.675201 188.0
169.087936 136.0
171.803299 180.0
173.095947 120.0
173.129761 148.0
174.130341 132.0
174.784927 132.0
175.032364 44.0
175.065659 180.0
175.10347 124.0
176.050247 180.0
176.116272 128.0
177.053482 3748.0
177.129364 52.0
178.055679 116.0
178.453644 92.0
178.565323 64.0
179.060593 248.0
179.084335 68.0
179.260162 148.0
180.073853 140.0
180.116592 116.0
180.282242 128.0
181.068771 52.0
181.170563 160.0
183.074936 56.0
185.100266 168.0
185.227554 176.0
186.087234 192.0
186.668716 176.0
187.063217 124.0
187.106781 48.0
188.123657 176.0
188.246521 52.0
189.051208 320.0
189.090851 692.0
189.118637 120.0
189.321243 104.0
189.425323 68.0
190.088821 180.0
190.651779 148.0
191.122009 136.0
192.03421 184.0
192.11937 276.0
192.497498 172.0
193.047806 172.0
194.163483 176.0
195.035294 168.0
195.062027 300.0
195.70018 124.0
196.059525 124.0
196.082565 140.0
196.198883 52.0
197.402298 52.0
197.889175 192.0
198.715988 160.0
199.851105 156.0
201.059998 180.0
201.085403 104.0
201.452484 156.0
203.103912 172.0
203.31842 184.0
203.414917 108.0
204.031372 148.0
204.147949 164.0
205.039032 84.0
206.457916 140.0
206.892548 196.0
207.031708 160.0
207.063385 11640.0
207.156296 128.0
207.247986 32.0
207.276642 52.0
207.391266 60.0
207.442871 92.0
207.61203 44.0
207.764053 92.0
207.86734 76.0
207.941956 60.0
208.066422 1380.0
208.298004 60.0
208.456024 148.0
208.941956 68.0
209.074905 316.0
209.105972 80.0
209.16066 172.0
209.416916 100.0
209.638763 64.0
209.929916 76.0
211.087906 48.0
211.796967 180.0
212.083832 144.0
212.49852 104.0
215.033112 136.0
215.07309 236.0
215.108643 144.0
215.132355 92.0
216.108505 160.0
217.122055 120.0
218.052734 200.0
219.058517 300.0
219.409729 44.0
219.515869 56.0
220.029282 140.0
220.061752 144.0
220.259613 60.0
220.31279 88.0
220.694046 68.0
221.078629 328.0
221.146667 92.0
221.733093 68.0
222.077026 116.0
223.064804 176.0
224.116379 176.0
225.017136 116.0
225.414383 92.0
227.03392 120.0
227.068893 520.0
229.083908 120.0
230.054855 344.0
231.068802 324.0
232.069778 160.0
233.07222 284.0
233.156525 160.0
233.639984 140.0
235.105606 128.0
236.967819 144.0
237.1241 144.0
239.10199 168.0
241.24263 112.0
242.108978 180.0
242.917953 84.0
243.094803 104.0
244.073303 148.0
245.079056 1240.0
245.116074 32.0
245.571228 48.0
246.077042 180.0
247.062927 132.0
247.097046 552.0
247.18013 68.0
247.734314 120.0
248.091354 116.0
249.853378 36.0
253.120163 104.0
255.036377 128.0
255.106308 180.0
258.096863 108.0
259.093384 148.0
260.099213 104.0
261.110748 328.0
262.122162 180.0
265.727417 216.0
271.103058 276.0
272.236237 100.0
272.492432 140.0
272.666595 176.0
273.106049 564.0
275.120575 72.0
275.417755 40.0
281.076965 180.0
281.452148 152.0
283.04715 128.0
283.080536 128.0
284.099548 104.0
285.110168 216.0
285.187531 164.0
286.132812 164.0
287.124329 208.0
287.325867 64.0
288.088837 156.0
289.10318 136.0
291.106689 144.0
292.146729 132.0
293.113678 184.0
294.095886 92.0
294.720825 204.0
295.13443 152.0
296.099457 60.0
297.042023 180.0
297.127777 140.0
298.147614 112.0
299.127594 104.0
300.185608 92.0
301.093201 132.0
301.140106 104.0
302.147491 52.0
305.102295 128.0
309.088928 68.0
311.111237 156.0
313.115509 212.0
313.143677 156.0
314.109467 204.0
314.134155 84.0
315.12619 232.0
315.16153 88.0
317.038971 100.0
317.13623 176.0
318.122345 108.0
321.0578 136.0
325.129028 132.0
325.164917 124.0
327.121796 160.0
327.154724 224.0
327.483948 84.0
329.139282 128.0
329.178986 116.0
330.744446 120.0
331.11377 484.0
331.175323 172.0
333.704712 72.0
335.882477 196.0
335.90802 92.0
336.130554 200.0
339.158752 108.0
343.110535 144.0
345.124634 156.0
347.111176 88.0
347.144531 144.0
348.161346 156.0
351.355072 152.0
353.146667 84.0
353.675659 120.0
366.158447 68.0
366.219391 92.0
367.118835 196.0
368.175934 112.0
369.17392 184.0
369.816101 44.0
371.179962 140.0
373.161224 48.0
378.052338 76.0
378.168457 152.0
381.185669 104.0
382.091644 144.0
382.50415 64.0
396.206024 176.0
409.194275 160.0
410.205475 116.0
416.047028 68.0
420.406342 60.0
427.216492 272.0
427.327271 168.0
428.212311 100.0
428.912781 88.0
430.187408 156.0
430.236938 148.0
438.07074 64.0
442.895447 108.0
445.217285 2264.0
445.287048 176.0
445.361542 68.0
445.373322 64.0
445.668457 44.0
445.739899 32.0
445.81134 108.0
446.122375 44.0
446.224335 868.0
446.629608 32.0
446.786835 76.0
447.2034 176.0
447.23877 120.0
447.308655 128.0
447.468628 76.0
448.757874 124.0
449.247101 120.0
449.424286 128.0
468.194336 120.0
483.172943 188.0
509.870667 80.0
563.029114 40.0
593.010254 124.0
793.713501 112.0
942.119324 144.0
953.276794 20.0
1013.360352 40.0
1050.370483 220.0
1095.245117 168.0
1095.370361 76.0
1095.805176 40.0
1098.13208 120.0
1108.922363 168.0
1187.700684 160.0
1192.410767 192.0
1198.680176 244.0
1200.762085 96.0
1211.850098 196.0
1228.794067 128.0
1233.235352 224.0
1246.88147 144.0
1266.750977 40.0
1267.395752 112.0
1301.828857 108.0
1303.955322 32.0
1304.573486 128.0
1311.642456 232.0
1317.328735 296.0
1327.787964 140.0
1331.823364 192.0
1348.844971 244.0
1358.320435 188.0
1366.099731 72.0
1369.625732 128.0
1374.794067 100.0
1377.16394 204.0
1390.646973 152.0
1399.150879 160.0
1402.525391 176.0
1407.046021 48.0
1410.086304 204.0
1437.174072 212.0
1444.108276 120.0
1469.398193 128.0
1474.551392 64.0
1478.367554 248.0
1488.870361 180.0
