>compound GR 89696
>formula C19H25Cl2N3O3
>ionization [M+H]+
>parentmass 414.1345734720905
#inchi InChI=1S/C19H25Cl2N3O3/c1-27-19(26)23-8-9-24(15(13-23)12-22-6-2-3-7-22)18(25)11-14-4-5-16(20)17(21)10-14/h4-5,10,15H,2-3,6-9,11-13H2,1H3
#inchikey HJUAKZYKCANOOZ
#Ion_Source LC-ESI
#Instrument qTof
#Compound_Source Commercial
#PI Dorrestein
#Data_Collector Garg_Neha
#Scan -1
#Precursor_MZ 414.135
#ExactMass 413.127
#Charge 1
#CAS_Number N/A
#Pubmed_ID N/A
#Smiles COC(=O)N1CCN(C(CN2CCCC2)C1)C(=O)Cc3ccc(Cl)c(Cl)c3
#INCHI_AUX N/A
#Library_Class 1
#SpectrumID CCMSLIB00000079125
#IonMode Positive
#UpdateWorkflowName UPDATE-SINGLE-ANNOTATED-GOLD
#LibraryQualityString Gold
#TaskID 278b19f5865741e282cec7349aa7e7a1
##Scan# 1132
#SpectrumFile NCP003512_E2_F11_BD6_01_15730.mzXML
#LibraryName NIHcollectionI_05062014.mgf
#MQScore -1
#Organism NIHcollectionI_05062014
#TIC_Query 0
#RT_Query -1
#MZErrorPPM -1
#SharedPeaks 0
#MassDiff 0
#LibMZ -1
#SpecMZ 414.135
#SpecCharge 0
#internalFilename spec-00000.mgf

>collision 10
45.194443 100.0
45.49992 140.0
46.087147 172.0
46.313068 192.0
46.33881 172.0
47.138885 140.0
47.501705 156.0
47.901722 168.0
48.251656 128.0
48.281288 212.0
48.32832 180.0
48.563824 184.0
48.90387 232.0
49.619453 140.0
49.727467 152.0
50.575974 176.0
50.818302 172.0
50.90205 148.0
50.947498 164.0
51.528763 192.0
51.713234 140.0
52.044384 164.0
52.218266 152.0
52.510635 140.0
52.813946 236.0
52.866028 144.0
53.967182 160.0
53.99789 172.0
54.35387 144.0
55.231037 232.0
55.304432 172.0
55.956116 168.0
56.316994 144.0
56.87849 148.0
57.090332 224.0
57.782681 212.0
58.065254 120.0
58.83131 176.0
59.451206 148.0
59.472691 208.0
59.61245 156.0
60.624779 176.0
61.087467 192.0
61.631306 164.0
61.809826 240.0
62.137291 212.0
62.164547 232.0
62.515972 160.0
62.569489 144.0
65.974228 152.0
66.040527 168.0
66.609467 148.0
67.285286 144.0
68.186203 140.0
68.383568 172.0
69.500694 176.0
69.527245 176.0
70.018745 180.0
70.536575 140.0
70.956764 172.0
72.015228 144.0
72.697502 144.0
72.804451 168.0
72.845215 160.0
73.307991 220.0
73.406868 232.0
73.580902 200.0
73.705582 160.0
75.349884 140.0
75.680229 160.0
75.714859 160.0
75.77549 184.0
75.921089 188.0
75.959251 152.0
76.148438 176.0
76.210976 220.0
76.33091 184.0
77.384804 160.0
77.407562 188.0
77.521835 172.0
77.798553 148.0
78.035721 196.0
78.259171 152.0
79.039337 184.0
79.384758 184.0
79.666962 164.0
79.709602 176.0
79.780693 184.0
79.827637 192.0
80.063606 188.0
80.090317 180.0
80.765022 152.0
80.815109 176.0
81.259445 144.0
81.492851 196.0
82.231163 152.0
82.314201 144.0
82.435234 212.0
82.80143 148.0
83.330338 144.0
83.415749 152.0
83.726883 168.0
83.838005 144.0
83.965622 144.0
84.29422 240.0
84.542915 168.0
86.258942 244.0
86.758759 164.0
86.849625 140.0
87.280472 152.0
87.503746 168.0
87.678841 188.0
89.573105 144.0
89.876633 156.0
90.60833 212.0
90.67086 212.0
90.735306 360.0
91.052193 160.0
91.211792 216.0
91.284035 144.0
91.449547 240.0
91.53331 296.0
91.571404 148.0
92.051979 156.0
92.405586 152.0
92.642975 176.0
92.857658 140.0
93.894279 152.0
94.063301 224.0
94.328712 228.0
94.797081 156.0
95.119034 152.0
95.414307 220.0
95.71978 200.0
95.924347 180.0
96.077446 156.0
96.244301 156.0
96.435745 140.0
97.076271 1892.0
97.268196 160.0
97.515678 144.0
97.617912 192.0
98.081657 204.0
99.054611 144.0
99.090385 160.0
99.141899 156.0
99.701538 160.0
100.115326 148.0
100.785568 208.0
101.321762 164.0
101.556297 216.0
101.630524 264.0
101.752953 152.0
101.847603 152.0
102.006073 180.0
102.055626 16524.0
102.101036 140.0
102.307121 172.0
102.357666 148.0
102.551552 156.0
103.058556 388.0
103.807076 140.0
104.271896 144.0
105.012985 144.0
105.100708 144.0
105.182335 192.0
105.244286 140.0
105.961472 200.0
106.303894 188.0
107.120125 188.0
108.040817 156.0
108.587662 184.0
110.029686 148.0
110.095276 1228.0
110.759506 196.0
111.159935 148.0
111.366035 164.0
111.537971 144.0
111.655708 224.0
111.952446 208.0
112.009308 152.0
112.420433 232.0
113.029015 180.0
113.059196 244.0
113.51899 168.0
114.055893 260.0
114.502266 216.0
115.054276 184.0
115.233925 144.0
115.270248 164.0
116.069351 168.0
116.725739 168.0
117.106651 220.0
117.917877 160.0
118.201172 184.0
118.556313 188.0
118.616997 172.0
119.459534 140.0
120.225441 168.0
120.305054 172.0
121.245583 212.0
121.495544 164.0
121.895142 160.0
122.007233 176.0
122.350426 148.0
123.559822 192.0
124.29097 144.0
124.999802 156.0
125.070816 4316.0
125.204605 164.0
125.443016 224.0
125.581261 180.0
126.071121 276.0
127.778786 156.0
128.071838 1412.0
128.12442 160.0
128.186325 140.0
129.068115 136.0
130.736191 148.0
131.077515 148.0
131.194 192.0
131.418503 212.0
131.641342 128.0
132.521835 168.0
132.962097 164.0
133.143463 156.0
133.483582 148.0
133.930038 180.0
135.510147 140.0
135.741928 172.0
136.220032 164.0
136.282761 176.0
136.689667 140.0
137.223053 140.0
137.801865 156.0
137.984161 232.0
138.205688 156.0
138.904495 156.0
139.089493 148.0
140.071777 1480.0
140.392776 168.0
140.969284 184.0
141.071594 184.0
141.368927 144.0
141.669632 176.0
141.821274 180.0
142.071289 204.0
142.193649 144.0
143.273163 164.0
143.387543 152.0
143.64505 176.0
144.319382 176.0
144.473969 160.0
144.945633 200.0
145.13739 208.0
146.117325 164.0
146.868912 152.0
147.325134 140.0
147.400024 252.0
147.431442 152.0
147.561966 148.0
147.716736 196.0
147.757874 148.0
147.922424 196.0
148.307556 196.0
148.516083 204.0
148.821854 148.0
148.887405 200.0
149.015137 188.0
149.163773 140.0
149.198425 212.0
149.257965 104.0
149.665558 256.0
150.026749 144.0
150.724152 180.0
150.870789 148.0
150.924576 144.0
150.951904 140.0
151.524231 148.0
151.970444 140.0
152.116211 172.0
152.348526 176.0
153.705566 176.0
153.812408 136.0
153.882828 136.0
154.080399 152.0
154.631821 148.0
154.951248 176.0
155.040451 284.0
155.083282 804.0
155.216461 180.0
155.54393 148.0
155.750031 200.0
155.782318 144.0
156.091431 96.0
156.175064 156.0
156.272079 164.0
156.700317 196.0
156.814087 116.0
156.837372 120.0
156.884735 160.0
157.012405 116.0
157.06517 176.0
157.097916 44468.0
157.178131 220.0
157.316086 96.0
157.580124 188.0
158.100586 3044.0
158.421616 148.0
158.438431 168.0
158.569443 228.0
158.770004 156.0
158.976532 25948.0
159.184784 172.0
159.313583 120.0
159.334778 224.0
159.681656 148.0
159.762985 120.0
159.918152 148.0
159.980728 1988.0
160.10257 112.0
160.532867 144.0
160.590866 276.0
160.729614 188.0
160.873215 116.0
160.90564 168.0
160.973557 14184.0
161.063568 128.0
161.16391 156.0
161.97702 660.0
162.019058 152.0
162.092529 140.0
162.404358 168.0
162.816345 244.0
162.973083 524.0
163.124161 100.0
163.374878 168.0
164.026596 328.0
164.577637 192.0
165.063126 164.0
165.549316 168.0
165.726059 164.0
167.220612 160.0
167.429138 156.0
167.988449 156.0
169.288498 168.0
169.622726 144.0
170.003983 200.0
170.071457 208.0
170.463608 172.0
170.939468 168.0
170.983719 196.0
171.43425 192.0
172.329239 176.0
172.368439 176.0
172.991104 168.0
174.184021 164.0
174.859741 176.0
174.988724 272.0
175.01506 172.0
175.072983 156.0
175.30217 220.0
175.391785 164.0
175.410233 148.0
175.803207 152.0
175.832245 208.0
176.031677 176.0
176.159653 220.0
176.863007 156.0
178.013626 188.0
178.040176 156.0
178.332413 220.0
178.414825 224.0
178.686081 172.0
179.050751 332.0
179.585434 136.0
179.613129 148.0
179.858612 164.0
179.912003 156.0
180.498535 128.0
180.826157 148.0
181.228638 160.0
182.024475 184.0
182.077927 172.0
182.306519 140.0
182.857834 168.0
182.876678 140.0
182.914368 140.0
183.083984 152.0
183.423462 200.0
183.566345 180.0
184.000748 196.0
184.089859 224.0
184.362701 140.0
184.993881 252.0
185.18811 128.0
185.654984 188.0
185.963272 152.0
186.650574 140.0
186.9841 152.0
187.988052 192.0
188.34024 188.0
188.558823 176.0
189.779694 216.0
189.996368 188.0
190.372391 148.0
190.822327 140.0
191.254913 228.0
191.486191 172.0
191.946396 140.0
192.064987 168.0
192.592178 176.0
193.026993 160.0
193.060181 392.0
193.1035 140.0
193.175415 184.0
194.523392 144.0
194.577667 164.0
194.949875 172.0
195.074936 156.0
195.169464 144.0
195.522751 144.0
195.670273 208.0
195.912552 212.0
196.145416 312.0
196.528702 160.0
196.858078 168.0
196.994827 140.0
197.123444 148.0
198.424973 140.0
198.896255 200.0
198.984787 304.0
199.112442 148.0
199.528305 172.0
199.677338 176.0
199.868622 176.0
200.006195 136.0
200.147278 244.0
200.493759 208.0
200.555771 188.0
200.59523 188.0
200.990067 164.0
201.049316 160.0
201.419189 176.0
202.140976 144.0
203.066483 164.0
203.671036 152.0
204.051758 180.0
204.083099 180.0
204.290573 156.0
205.672729 140.0
206.037094 912.0
206.409805 232.0
206.838943 224.0
207.027893 168.0
207.070862 196.0
207.67688 144.0
208.033371 140.0
208.525452 160.0
209.060364 144.0
209.659363 164.0
210.051468 156.0
211.37178 152.0
211.638077 140.0
211.999207 148.0
212.203049 152.0
212.263947 140.0
212.736862 140.0
212.9953 172.0
213.028564 292.0
213.105682 220.0
213.754089 164.0
214.01033 204.0
214.587112 144.0
214.954636 164.0
215.018829 148.0
216.085388 172.0
216.263885 176.0
216.288818 116.0
216.319504 140.0
216.562531 200.0
216.896561 152.0
217.109573 140.0
218.005951 172.0
218.061798 140.0
218.926727 176.0
219.312668 164.0
219.516083 152.0
219.949478 120.0
220.366165 156.0
220.896927 144.0
221.059769 420.0
221.593994 148.0
221.857758 220.0
222.062347 156.0
222.516357 144.0
222.677017 120.0
222.843063 152.0
223.487579 160.0
223.815659 236.0
224.217804 140.0
224.384735 140.0
224.66507 176.0
224.756119 124.0
224.988754 256.0
225.456314 144.0
226.69223 172.0
226.860062 160.0
226.985855 276.0
227.222931 192.0
227.556076 148.0
227.580093 148.0
228.002167 276.0
228.171448 1688.0
229.025833 176.0
229.080795 172.0
229.176025 404.0
229.547958 148.0
230.016724 668.0
230.115204 200.0
230.1418 168.0
230.737579 144.0
231.020065 248.0
231.439499 148.0
231.793884 148.0
232.012772 496.0
232.080795 116.0
232.363403 144.0
232.600616 156.0
233.036697 180.0
233.81636 140.0
234.06955 140.0
234.207245 180.0
234.501617 144.0
235.057068 116.0
235.113327 196.0
235.337463 160.0
235.94545 144.0
236.318573 168.0
236.388947 180.0
236.805298 164.0
237.185226 240.0
237.550125 200.0
238.016113 172.0
238.535828 180.0
238.664948 156.0
238.747971 148.0
238.865692 160.0
238.938675 180.0
239.030975 144.0
239.652954 196.0
239.995087 328.0
240.028946 124.0
240.096832 140.0
240.467056 168.0
241.015778 260.0
241.687698 168.0
241.938385 164.0
242.003708 124.0
242.149811 144.0
242.872787 184.0
243.007599 168.0
243.109497 148.0
243.147232 156.0
243.656143 152.0
243.724823 176.0
244.029938 428.0
244.063629 212.0
244.299988 220.0
244.819778 156.0
245.605164 164.0
246.034073 152.0
246.166931 208.0
246.638672 176.0
246.691818 180.0
247.067078 144.0
247.095245 160.0
247.746414 168.0
247.909332 144.0
248.022156 196.0
248.294296 196.0
249.026199 144.0
249.078323 168.0
249.158127 168.0
250.136124 164.0
250.183334 176.0
250.457291 156.0
250.482498 212.0
251.510422 200.0
253.230438 156.0
253.372986 164.0
253.556763 200.0
254.022842 152.0
254.3797 120.0
255.057068 324.0
255.296463 156.0
255.776886 152.0
256.029114 6604.0
256.122742 136.0
256.527283 152.0
256.728912 108.0
256.837921 204.0
256.876221 224.0
257.032257 1128.0
257.722229 164.0
258.02713 2736.0
258.10144 132.0
258.259277 160.0
258.396851 152.0
258.562256 132.0
258.883362 156.0
259.030029 284.0
259.779388 136.0
260.025665 264.0
260.666931 156.0
260.978699 164.0
261.025787 152.0
262.023743 240.0
262.472717 140.0
262.888855 216.0
263.034088 184.0
263.764099 140.0
264.363983 116.0
264.430389 152.0
264.566315 264.0
264.679565 168.0
264.80307 144.0
264.99057 144.0
265.116943 144.0
266.184631 148.0
266.479767 144.0
267.043427 272.0
267.169891 176.0
267.562775 148.0
267.826538 144.0
267.922455 144.0
268.02063 184.0
268.126282 180.0
268.318604 168.0
268.554871 116.0
268.657776 156.0
268.899292 180.0
269.045624 184.0
269.11792 172.0
269.361023 148.0
269.477203 176.0
269.57196 152.0
269.980591 148.0
270.039459 188.0
270.108124 168.0
270.44516 160.0
270.72998 144.0
271.04126 160.0
271.700195 144.0
272.034058 260.0
272.547241 176.0
272.624298 188.0
273.201508 204.0
273.23111 180.0
273.279083 180.0
274.838928 152.0
275.053436 168.0
275.652893 120.0
276.084259 192.0
276.848724 144.0
277.223053 176.0
277.312531 160.0
277.726959 200.0
277.776733 192.0
277.83313 140.0
278.148376 188.0
278.267883 260.0
278.520264 188.0
279.537598 200.0
280.056946 140.0
280.436768 180.0
281.314026 160.0
281.905182 144.0
282.674286 156.0
282.998962 144.0
283.0401 468.0
283.119507 152.0
283.387482 140.0
284.044952 252.0
284.400238 164.0
284.544586 140.0
285.034454 448.0
285.122314 148.0
285.333099 164.0
286.037262 308.0
286.198761 176.0
286.410095 164.0
286.81189 160.0
287.020905 196.0
287.177551 116.0
287.827362 152.0
288.019379 796.0
288.563934 188.0
288.706116 152.0
289.02774 280.0
289.074677 160.0
289.232361 140.0
289.579071 188.0
290.016571 1140.0
290.216156 180.0
290.416229 160.0
291.228821 148.0
291.394958 220.0
292.475281 144.0
292.508026 136.0
292.938385 236.0
293.282532 164.0
293.463196 188.0
293.66098 164.0
293.736023 108.0
294.01239 140.0
294.572327 152.0
294.982941 172.0
296.282776 232.0
296.313599 164.0
297.177582 208.0
297.460297 160.0
297.764587 156.0
298.888702 168.0
299.2742 152.0
299.622955 180.0
300.356293 168.0
300.610992 136.0
301.516388 156.0
302.342926 168.0
302.374084 148.0
302.787384 116.0
303.42746 192.0
303.742676 164.0
304.240479 140.0
304.805023 212.0
304.857147 188.0
305.268677 208.0
305.619171 132.0
306.729584 148.0
307.085236 168.0
307.217773 192.0
307.538788 160.0
307.814606 148.0
308.095154 416.0
308.509857 144.0
308.551819 200.0
309.100311 108.0
309.181427 244.0
309.415955 156.0
310.088928 280.0
310.361938 216.0
310.83194 232.0
311.035797 868.0
311.275543 136.0
311.583313 148.0
311.639526 140.0
312.038605 532.0
312.38855 144.0
312.644196 184.0
313.030396 680.0
313.095825 140.0
313.376678 184.0
313.515045 152.0
313.797028 180.0
313.998016 148.0
314.259064 192.0
314.90152 164.0
315.491608 204.0
316.034119 120.0
316.322906 224.0
316.55304 188.0
316.606171 164.0
316.701782 160.0
317.039276 208.0
317.065063 148.0
317.336639 136.0
317.470856 144.0
317.942657 156.0
317.978149 204.0
318.230194 152.0
318.361572 160.0
318.542725 164.0
318.638641 144.0
318.802063 140.0
319.719574 140.0
319.893982 172.0
320.111145 160.0
320.609894 156.0
321.155365 220.0
321.894104 248.0
323.044922 140.0
323.292053 112.0
323.792999 148.0
323.936279 156.0
324.000763 168.0
324.432983 152.0
325.844788 168.0
325.931 148.0
326.186188 140.0
326.734161 136.0
327.040649 216.0
327.251038 176.0
327.391449 140.0
327.737274 148.0
327.82016 164.0
327.877808 156.0
330.412598 144.0
331.386505 152.0
331.59668 228.0
331.665527 232.0
332.058777 144.0
332.223969 160.0
332.368347 116.0
334.09436 116.0
334.513336 188.0
334.751495 144.0
335.154297 144.0
335.871979 116.0
336.095032 160.0
336.267578 156.0
336.467316 148.0
336.525726 196.0
336.598755 160.0
336.731781 112.0
337.915924 204.0
337.991394 160.0
338.093872 172.0
338.276855 204.0
339.035034 164.0
339.33194 168.0
339.432373 112.0
339.669312 164.0
339.750031 168.0
339.856415 164.0
340.095215 116.0
340.333557 212.0
340.381287 168.0
340.436371 144.0
340.658813 128.0
340.69516 124.0
340.92392 128.0
341.015076 116.0
341.041809 156.0
341.366089 316.0
341.424652 104.0
341.676941 116.0
341.76593 148.0
341.831696 200.0
341.919006 160.0
342.026581 136.0
342.058929 280.0
342.148041 144.0
342.219452 144.0
342.286774 140.0
342.347015 228.0
342.38089 396.0
342.449738 228.0
342.51413 204.0
342.642914 216.0
342.667084 184.0
342.75177 164.0
342.788391 188.0
342.843048 112.0
342.933685 308.0
343.008911 600.0
343.06311 260800.0
343.155853 372.0
343.261627 148.0
343.303497 296.0
343.39389 260.0
343.45929 260.0
343.515717 196.0
343.606262 228.0
343.669922 1172.0
343.734955 140.0
343.765076 192.0
343.808258 284.0
343.866302 156.0
344.016205 200.0
344.065399 48996.0
344.171387 272.0
344.209961 224.0
344.283752 128.0
344.338287 252.0
344.371246 152.0
344.393982 184.0
344.433655 176.0
344.479736 200.0
344.621185 456.0
344.669556 120.0
344.732391 196.0
344.843445 140.0
344.898468 232.0
344.926727 216.0
345.06012 172524.0
345.149658 252.0
345.26062 156.0
345.328583 120.0
345.440186 328.0
345.501099 284.0
345.547577 224.0
345.595276 184.0
345.668457 364.0
345.758087 252.0
345.782593 184.0
345.878937 140.0
345.923187 264.0
346.001251 196.0
346.061584 18916.0
346.141541 168.0
346.187439 176.0
346.226837 452.0
346.269623 120.0
346.328125 252.0
346.374084 152.0
346.386597 288.0
346.467041 304.0
346.53183 252.0
346.60788 140.0
346.661957 96.0
346.692993 152.0
346.753845 104.0
346.856201 120.0
346.946533 176.0
347.056488 5888.0
347.204498 112.0
347.295105 104.0
347.402863 176.0
347.507935 128.0
347.571838 140.0
347.696411 200.0
347.770905 204.0
347.844025 144.0
347.903839 184.0
347.966797 124.0
348.015015 152.0
348.044739 164.0
348.134369 140.0
348.20108 216.0
348.259705 264.0
348.297485 104.0
348.592957 160.0
349.244324 140.0
349.308258 200.0
349.822388 136.0
350.320404 108.0
350.444977 104.0
350.943176 172.0
351.676575 196.0
351.958099 168.0
353.70993 180.0
355.272552 192.0
356.325653 148.0
356.838593 144.0
356.997681 144.0
357.135681 156.0
357.61676 116.0
357.972015 104.0
358.272461 140.0
358.592743 156.0
358.810822 164.0
358.929718 104.0
359.001099 128.0
360.504456 100.0
361.272278 108.0
361.449768 168.0
362.086243 160.0
362.996948 172.0
363.128845 132.0
363.501465 144.0
364.059021 96.0
364.739563 144.0
365.062714 160.0
365.12738 144.0
366.226288 144.0
366.54425 100.0
367.023773 200.0
368.088348 184.0
369.448975 168.0
370.892731 120.0
371.874512 156.0
372.028046 156.0
372.208496 152.0
372.250732 164.0
374.284851 148.0
375.572021 188.0
375.653015 144.0
378.191681 164.0
378.354248 172.0
379.888855 204.0
379.970337 240.0
381.608307 172.0
382.040985 152.0
382.84668 212.0
383.275146 160.0
384.944641 144.0
385.24118 100.0
385.546234 180.0
386.375183 252.0
386.609955 144.0
387.671204 168.0
387.925964 152.0
389.970978 168.0
390.246124 164.0
391.446228 156.0
391.749512 140.0
392.005585 164.0
392.242065 156.0
392.928223 176.0
393.015045 140.0
394.20752 156.0
395.322662 140.0
395.617706 184.0
396.966614 176.0
397.049896 148.0
397.77597 148.0
399.011444 152.0
399.421021 140.0
399.775116 140.0
401.165161 148.0
401.492096 152.0
402.893097 140.0
403.125977 180.0
403.160797 192.0
403.410248 108.0
403.863098 184.0
403.934296 156.0
404.764893 184.0
405.093292 164.0
405.542084 160.0
405.608215 136.0
405.722443 184.0
406.916718 144.0
407.183014 144.0
407.440094 196.0
407.916992 108.0
408.183655 176.0
408.69046 144.0
409.221741 180.0
409.415009 160.0
410.216797 96.0
410.285339 188.0
410.391113 120.0
410.912109 292.0
411.225494 108.0
411.417542 160.0
411.489227 136.0
411.55423 116.0
411.660034 288.0
411.727051 168.0
411.817352 300.0
411.855591 124.0
411.939148 108.0
412.017426 104.0
412.124451 140.0
412.171844 212.0
412.320251 160.0
412.434784 160.0
412.482269 280.0
412.540833 192.0
412.650879 100.0
412.717957 140.0
412.770172 104.0
412.799774 216.0
412.951904 148.0
412.997803 116.0
413.087006 136.0
413.141724 148.0
413.203186 292.0
413.244476 184.0
413.333954 164.0
413.401947 412.0
413.466461 384.0
413.495056 188.0
413.543793 116.0
413.57489 388.0
413.662109 296.0
413.747498 344.0
413.789612 292.0
413.85025 256.0
413.885193 124.0
413.961975 172.0
414.01062 336.0
414.037476 568.0
414.073853 840.0
414.137451 194012.0
414.241577 124.0
414.294312 240.0
414.412842 196.0
414.431 168.0
414.503937 308.0
414.530365 436.0
414.58197 432.0
414.62442 128.0
414.767517 156.0
414.805634 5204.0
414.86615 316.0
414.921173 136.0
414.952271 396.0
415.001129 292.0
415.061218 352.0
415.139618 81112.0
415.276764 136.0
415.403168 212.0
415.440552 280.0
415.495361 216.0
415.531525 332.0
415.575897 188.0
415.694763 216.0
415.804749 440.0
415.890503 260.0
415.955048 376.0
416.001343 136.0
416.057983 560.0
416.13446 160416.0
416.234711 264.0
416.308441 152.0
416.416992 116.0
416.509125 256.0
416.578827 200.0
416.636963 164.0
416.679047 236.0
416.724731 180.0
416.766663 152.0
416.802765 2420.0
416.845551 228.0
416.900299 152.0
416.943024 184.0
417.136536 37040.0
417.24588 392.0
417.298462 124.0
417.346527 172.0
417.398651 132.0
417.475769 292.0
417.549622 184.0
417.601166 180.0
417.666779 180.0
417.678864 248.0
417.739929 504.0
417.778656 192.0
417.818634 248.0
417.873016 264.0
417.922638 244.0
417.994568 256.0
418.025024 184.0
418.074829 164.0
418.12973 8836.0
418.193604 240.0
418.380066 168.0
418.482452 100.0
418.534851 220.0
418.756134 132.0
418.841156 172.0
418.902039 212.0
419.002411 168.0
419.051483 136.0
419.118317 204.0
419.212891 192.0
419.322571 104.0
419.42923 104.0
419.523529 100.0
419.58606 188.0
419.697266 200.0
419.757843 324.0
419.791473 140.0
419.913635 236.0
420.142822 152.0
420.253082 108.0
420.337769 180.0
420.53653 112.0
420.568329 132.0
420.63797 116.0
420.818176 172.0
420.849426 112.0
420.96521 100.0
421.00528 96.0
421.196014 132.0
421.695862 152.0
421.886322 128.0
423.564301 104.0
427.316742 148.0
427.963531 96.0
430.361359 116.0
430.55365 220.0
431.267731 100.0
431.98703 100.0
433.134491 160.0
433.620911 100.0
434.500397 120.0
435.004608 168.0
437.477997 152.0
437.761108 212.0
440.021027 148.0
494.241699 184.0
504.730164 152.0
522.08728 168.0
533.366516 148.0
582.217102 108.0
616.531433 156.0
628.144653 160.0
646.618774 224.0
650.223511 140.0
663.478394 104.0
692.662354 160.0
838.236389 152.0
1077.303955 224.0
1141.619751 164.0
1205.031982 192.0
1227.144409 180.0
1235.280273 196.0
1261.333252 160.0
1275.765869 220.0
1300.954834 224.0
1319.939331 176.0
1326.339233 164.0
1333.05249 172.0
1336.321411 140.0
1342.362793 204.0
1350.856812 140.0
1369.390503 156.0
1376.388916 152.0
1378.309326 164.0
1383.301514 144.0
1398.257568 156.0
1400.707153 168.0
1402.316528 216.0
1406.866577 236.0
1444.379639 216.0
1450.357178 240.0
1451.877686 144.0
1465.072754 160.0
1469.342041 164.0
1481.492676 136.0
1483.160156 160.0
1495.518677 164.0
1513.14209 140.0
1520.374023 176.0
1528.34668 160.0
1531.149048 152.0
1532.714844 140.0
1537.994507 176.0
1538.400513 176.0
1546.044556 160.0
1548.988403 160.0
1554.099854 160.0
1556.776489 168.0
1557.687622 144.0
1559.471191 144.0
1587.180542 152.0
1593.172729 192.0
1597.258667 200.0
1598.261108 196.0
1602.496826 172.0
1612.151855 176.0
1614.478149 216.0
1617.010986 232.0
1645.865723 152.0
1647.553711 144.0
1660.666992 180.0
1660.958984 144.0
1664.42627 152.0
1674.223145 272.0
1677.685913 216.0
1679.439087 144.0
1680.230347 216.0
1680.458862 212.0
1693.01416 148.0
1693.489136 176.0
1693.874146 160.0
1727.484497 140.0
1748.218628 212.0
1749.450439 140.0
1754.165283 152.0
1754.548828 152.0
1759.395752 140.0
1763.7229 148.0
1765.461792 140.0
1767.728882 144.0
1780.034424 156.0
1786.430298 164.0
1789.173706 148.0
1796.235474 140.0
1815.358154 160.0
1823.975586 184.0
1830.918213 160.0
1848.375366 140.0
1850.874878 176.0
1858.100098 216.0
1858.366089 184.0
1865.674683 152.0
1871.929688 160.0
1876.548096 148.0
1876.962036 256.0
1886.752808 204.0
1888.464966 232.0
1901.313354 144.0
1915.894897 168.0
1921.308594 184.0
1923.568848 164.0
1924.511719 168.0
1941.443604 148.0
1946.515747 256.0
1951.357056 148.0
1959.004761 192.0
1970.623535 172.0
1977.00769 156.0
1978.716064 176.0
1989.238892 184.0
1989.758911 164.0
