>compound MLS002154263-01!Clofilium tosylate92953-10-1
>formula C21H37ClN
>ionization [M+H]+
>parentmass 339.26872931609057
#inchi InChI=1S/C21H37ClN/c1-4-7-8-9-11-18-23(5-2,6-3)19-12-10-13-20-14-16-21(22)17-15-20/h14-17H,4-13,18-19H2,1-3H3/q+1
#inchikey WPSYTTKBGAZSCX
#origInchi InChI=1S/C21H37ClN.C7H8O3S/c1-4-7-8-9-11-18-23(5-2,6-3)19-12-10-13-20-14-16-21(22)17-15-20;1-6-2-4-7(5-3-6)11(8,9)10/h14-17H,4-13,18-19H2,1-3H3;2-5H,1H3,(H,8,9,10)/q+1;/p-1
#Ion_Source LC-ESI
#Instrument qTof
#Compound_Source NIH Pharmacologically Active Library
#PI Dorrestein
#Data_Collector VP/LMS
#Scan -1
#Precursor_MZ 338.261
#ExactMass 338.261
#Charge 1
#CAS_Number N/A
#Pubmed_ID N/A
#Smiles CCCCCCC[N+](CC)(CC)CCCCc1ccc(Cl)cc1.Cc1ccc(cc1)S(=O)(=O)[O-]
#INCHI_AUX N/A
#Library_Class 1
#SpectrumID CCMSLIB00000085788
#IonMode Positive
#UpdateWorkflowName UPDATE-SINGLE-ANNOTATED-GOLD
#LibraryQualityString Gold
#TaskID d252d724072548979f1f6f1ced849daf
##Scan# 2158
#SpectrumFile p4-F06_GF6_01_18390.mzXML
#LibraryName Pharm_Active_Library.mgf
#MQScore -1
#Organism Pharm_Active_Library
#TIC_Query 0
#RT_Query -1
#MZErrorPPM -1
#SharedPeaks 0
#MassDiff 0
#LibMZ -1
#SpecMZ 338.261
#SpecCharge 0
#internalFilename spec-00000.mgf

>collision 10
44.908905 132.0
44.965546 192.0
44.993576 192.0
45.016277 140.0
45.032303 200.0
45.108467 148.0
45.133488 168.0
45.151257 32.0
45.188896 176.0
45.21949 164.0
45.228859 124.0
45.244926 40.0
45.270367 196.0
45.305035 136.0
45.377563 152.0
45.40036 144.0
45.409748 196.0
45.441944 188.0
45.462227 208.0
45.502773 236.0
45.525703 312.0
45.565468 200.0
45.574875 68.0
45.608471 40.0
45.678703 140.0
45.70396 136.0
45.720108 164.0
45.733566 156.0
45.775803 212.0
45.787422 188.0
45.838341 156.0
45.876358 292.0
45.899277 112.0
45.932995 208.0
45.953232 140.0
45.965378 140.0
46.004551 164.0
46.022072 144.0
46.05994 192.0
46.072174 124.0
46.089607 228.0
46.098103 196.0
46.106705 160.0
46.128998 168.0
46.154491 132.0
46.176128 152.0
46.187244 220.0
46.190784 48.0
46.196171 260.0
46.217606 152.0
46.24337 172.0
46.260025 100.0
46.305058 156.0
46.327736 100.0
46.360256 44.0
46.369743 88.0
46.403633 184.0
46.430756 232.0
46.453697 140.0
46.478142 216.0
46.521667 80.0
46.53117 148.0
46.559689 96.0
46.584137 108.0
46.608593 120.0
46.623539 124.0
46.646309 192.0
46.664322 60.0
46.701038 140.0
46.716003 196.0
46.729607 60.0
46.743214 60.0
46.756824 212.0
46.778603 188.0
46.833073 260.0
46.933159 172.0
46.943466 52.0
46.991806 160.0
47.024052 120.0
47.04034 76.0
47.053993 264.0
47.084034 96.0
47.100426 88.0
47.109989 60.0
47.12775 132.0
47.156448 204.0
47.187889 164.0
47.247395 160.0
47.260384 252.0
47.279541 132.0
47.2938 184.0
47.320667 184.0
47.339779 96.0
47.349365 160.0
47.36306 76.0
47.37809 136.0
47.424721 180.0
47.435688 144.0
47.478195 144.0
47.517975 164.0
47.557308 224.0
47.585228 200.0
47.598961 164.0
47.649563 152.0
47.688259 168.0
47.709896 184.0
47.743256 140.0
47.776268 256.0
47.801033 132.0
47.842327 104.0
47.894657 148.0
47.906239 140.0
47.938194 140.0
47.970356 124.0
47.979187 176.0
48.01733 172.0
48.047676 252.0
48.058716 172.0
48.129112 172.0
48.157784 184.0
48.167782 180.0
48.189888 140.0
48.210613 104.0
48.22858 144.0
48.247936 172.0
48.257076 144.0
48.284485 176.0
48.326427 156.0
48.347298 72.0
48.382435 180.0
48.415367 44.0
48.43824 140.0
48.454151 224.0
48.46801 140.0
48.517906 108.0
48.530384 192.0
48.552719 168.0
48.572525 208.0
48.601124 96.0
48.623329 212.0
48.656643 140.0
48.676083 148.0
48.712196 96.0
48.724266 244.0
48.734985 208.0
48.75666 136.0
48.775703 148.0
48.82061 124.0
48.851212 180.0
48.891563 136.0
48.923576 168.0
49.014111 92.0
49.04393 152.0
49.090782 168.0
49.107517 180.0
49.134514 148.0
49.150768 140.0
49.195431 136.0
49.244305 140.0
49.278835 156.0
49.290405 196.0
49.301586 72.0
49.350513 184.0
49.373501 200.0
49.389671 140.0
49.413452 272.0
49.440434 156.0
49.464142 204.0
49.475033 160.0
49.518444 88.0
49.608849 124.0
49.678535 112.0
49.689468 56.0
49.699287 160.0
49.718933 132.0
49.741394 124.0
49.79475 216.0
49.805988 180.0
49.841557 240.0
49.870251 212.0
49.890305 152.0
49.914242 160.0
49.929901 224.0
49.963436 168.0
49.987705 144.0
50.018318 48.0
50.052109 156.0
50.086838 164.0
50.107918 148.0
50.12899 236.0
50.164543 200.0
50.226524 196.0
50.301659 148.0
50.321426 156.0
50.394093 196.0
50.426598 172.0
50.437145 136.0
50.463974 144.0
50.486755 116.0
50.521877 140.0
50.551834 72.0
50.565987 108.0
50.59005 144.0
50.624031 180.0
50.658024 148.0
50.746105 188.0
50.8083 136.0
50.901981 156.0
50.911922 116.0
50.938457 164.0
50.961876 236.0
50.991482 96.0
51.003815 160.0
51.008541 108.0
51.011845 160.0
51.050636 244.0
51.096714 168.0
51.13628 204.0
51.192081 48.0
51.209175 188.0
51.230541 120.0
51.286118 72.0
51.304958 184.0
51.323181 208.0
51.344528 124.0
51.354916 160.0
51.398495 216.0
51.444172 160.0
51.474442 192.0
51.484436 176.0
51.523006 168.0
51.543007 128.0
51.553013 208.0
51.579647 176.0
51.604473 108.0
51.655956 128.0
51.684574 160.0
51.730373 140.0
51.779057 180.0
51.813503 172.0
51.85405 176.0
51.917732 184.0
51.948807 160.0
51.994114 104.0
52.015644 180.0
52.032871 56.0
52.049347 160.0
52.141537 316.0
52.166481 156.0
52.213932 264.0
52.226501 168.0
52.2686 152.0
52.310337 152.0
52.330494 212.0
52.349537 160.0
52.369377 180.0
52.491879 204.0
52.527939 144.0
52.582767 160.0
52.594315 160.0
52.614525 184.0
52.639072 100.0
52.656403 148.0
52.690323 116.0
52.721416 136.0
52.786472 96.0
52.858799 132.0
52.926834 92.0
52.940609 296.0
52.961594 180.0
53.007957 104.0
53.023899 60.0
53.04129 60.0
53.052887 224.0
53.071735 180.0
53.090588 48.0
53.100739 152.0
53.121048 180.0
53.147163 156.0
53.180542 172.0
53.227844 124.0
53.278191 180.0
53.347229 144.0
53.358566 208.0
53.376503 204.0
53.410122 144.0
53.498894 112.0
53.541492 172.0
53.55714 180.0
53.6325 156.0
53.670818 244.0
53.703457 136.0
53.721863 60.0
53.764179 172.0
53.778774 108.0
53.825493 208.0
53.878826 156.0
53.920452 96.0
53.933605 228.0
53.989166 140.0
54.005253 36.0
54.075485 148.0
54.124924 380.0
54.141949 148.0
54.17506 144.0
54.195572 144.0
54.274727 136.0
54.304058 188.0
54.327526 76.0
54.338516 204.0
54.403839 48.0
54.444954 164.0
54.481949 168.0
54.530926 132.0
54.534924 68.0
54.539783 148.0
54.555157 200.0
54.583817 212.0
54.610497 152.0
54.651775 180.0
54.669888 120.0
54.68755 120.0
54.718464 180.0
54.733284 180.0
54.755516 148.0
54.814533 144.0
54.856949 160.0
54.867268 104.0
54.883488 188.0
54.927734 100.0
54.939358 168.0
54.961666 88.0
55.011848 116.0
55.036945 28.0
55.082729 168.0
55.107845 160.0
55.15366 296.0
55.187664 152.0
55.20393 100.0
55.295654 380.0
55.352295 124.0
55.402115 152.0
55.44376 212.0
55.534283 148.0
55.54607 116.0
55.609875 208.0
55.652531 120.0
55.694511 192.0
55.741299 144.0
55.7584 140.0
55.771778 100.0
55.7859 136.0
55.811916 168.0
55.869923 88.0
55.907124 112.0
55.919029 68.0
55.98156 120.0
55.997345 180.0
56.032204 60.0
56.057537 140.0
56.085854 184.0
56.096287 164.0
56.120144 156.0
56.149967 196.0
56.163391 120.0
56.188751 108.0
56.213577 44.0
56.295925 200.0
56.311161 160.0
56.33506 164.0
56.354485 128.0
56.369843 144.0
56.521954 180.0
56.538414 144.0
56.589314 44.0
56.599792 164.0
56.614769 172.0
56.657692 128.0
56.713654 192.0
56.739609 320.0
56.786987 172.0
56.791676 116.0
56.814785 200.0
56.83213 40.0
56.934208 136.0
56.970592 180.0
56.9958 72.0
57.027363 168.0
57.066448 140.0
57.087944 176.0
57.110062 28.0
57.15369 144.0
57.210506 160.0
57.21933 308.0
57.277142 88.0
57.296867 200.0
57.352486 108.0
57.384144 148.0
57.403748 188.0
57.413948 136.0
57.4226 208.0
57.462574 116.0
57.476154 136.0
57.492199 76.0
57.522942 116.0
57.560688 188.0
57.578808 120.0
57.589382 236.0
57.611866 208.0
57.634705 32.0
57.65284 128.0
57.705746 72.0
57.762234 148.0
57.804066 104.0
57.818558 132.0
57.823978 76.0
57.82748 144.0
57.840389 156.0
57.928219 160.0
57.997925 128.0
58.010052 152.0
58.037342 180.0
58.060089 116.0
58.148087 100.0
58.15871 140.0
58.169338 164.0
58.185387 160.0
58.239189 160.0
58.251339 216.0
58.295403 212.0
58.307209 156.0
58.405243 212.0
58.450512 144.0
58.470978 204.0
58.508354 116.0
58.587547 164.0
58.627163 124.0
58.694241 128.0
58.802555 148.0
58.822399 144.0
58.929306 164.0
59.000969 220.0
59.048824 240.0
59.079136 332.0
59.140347 188.0
59.183212 36.0
59.215374 156.0
59.255199 180.0
59.279755 160.0
59.320026 188.0
59.354832 160.0
59.377834 160.0
59.397778 192.0
59.416065 156.0
59.428867 180.0
59.448406 44.0
59.49292 204.0
59.535915 312.0
59.620411 148.0
59.63488 164.0
59.651154 168.0
59.688053 104.0
59.741886 116.0
59.818832 40.0
59.865021 156.0
59.876438 300.0
59.925098 124.0
59.985203 176.0
59.999077 108.0
60.01141 144.0
60.051506 144.0
60.155407 192.0
60.167244 144.0
60.182682 152.0
60.198124 228.0
60.212025 204.0
60.237324 148.0
60.264545 172.0
60.314663 140.0
60.371208 176.0
60.501186 76.0
60.604958 136.0
60.63567 200.0
60.691422 156.0
60.710014 176.0
60.727428 124.0
60.739838 244.0
60.778622 116.0
60.812405 172.0
60.839157 208.0
60.862446 164.0
60.899715 76.0
60.913696 120.0
60.938557 160.0
60.975849 140.0
60.997269 344.0
61.053585 200.0
61.066029 128.0
61.091675 164.0
61.104919 132.0
61.151604 140.0
61.176163 180.0
61.193638 132.0
61.227894 192.0
61.251259 172.0
61.28709 184.0
61.31826 156.0
61.338524 188.0
61.391537 156.0
61.411434 192.0
61.424961 132.0
61.435207 168.0
61.478897 196.0
61.521095 120.0
61.553833 132.0
61.580379 168.0
61.636967 144.0
61.696018 228.0
61.742928 156.0
61.753876 196.0
61.77108 192.0
61.782032 160.0
61.800053 116.0
61.829205 164.0
61.871239 184.0
61.882198 136.0
61.897858 68.0
61.911953 140.0
61.92918 116.0
61.9561 152.0
62.007523 188.0
62.038872 168.0
62.059254 168.0
62.090618 132.0
62.105968 132.0
62.148659 164.0
62.162785 40.0
62.173767 84.0
62.237888 180.0
62.253834 128.0
62.311954 196.0
62.34671 136.0
62.365383 192.0
62.407833 120.0
62.447147 196.0
62.464451 248.0
62.499062 108.0
62.516373 212.0
62.533684 180.0
62.602959 36.0
62.640759 156.0
62.660809 176.0
62.788082 152.0
62.807854 152.0
62.818893 124.0
62.834671 132.0
62.856762 200.0
62.886749 148.0
62.929371 192.0
62.983067 160.0
63.017349 160.0
63.06049 136.0
63.081039 108.0
63.179089 160.0
63.396015 140.0
63.432472 160.0
63.448326 156.0
63.468937 188.0
63.492725 132.0
63.648247 80.0
63.702248 124.0
63.787663 180.0
63.811905 144.0
63.947124 268.0
63.967049 120.0
64.022041 148.0
64.042656 120.0
64.06974 196.0
64.096825 72.0
64.120728 220.0
64.131889 116.0
64.144638 116.0
64.174934 164.0
64.187691 184.0
64.203773 232.0
64.229156 160.0
64.318512 184.0
64.360786 188.0
64.454269 204.0
64.482201 252.0
64.495819 128.0
64.518799 216.0
64.599762 140.0
64.641685 160.0
64.782265 208.0
64.81591 132.0
64.862389 192.0
64.90097 176.0
64.919151 168.0
64.94577 128.0
64.986908 224.0
65.040443 160.0
65.091476 152.0
65.096474 120.0
65.131966 156.0
65.153069 148.0
65.196236 148.0
65.22467 192.0
65.244461 76.0
65.287338 180.0
65.332275 204.0
65.358429 168.0
65.397285 172.0
65.421425 128.0
65.435921 96.0
65.492279 172.0
65.506783 212.0
65.534172 232.0
65.544937 216.0
65.609917 184.0
65.629265 160.0
65.641144 120.0
65.687332 148.0
65.737831 172.0
65.800301 244.0
65.830673 136.0
65.855202 172.0
65.902054 148.0
65.944359 200.0
65.968292 224.0
65.98822 192.0
66.020058 156.0
66.032997 116.0
66.118744 136.0
66.159218 124.0
66.199692 124.0
66.219131 236.0
66.232086 104.0
66.32769 144.0
66.343903 160.0
66.380867 200.0
66.392082 560.0
66.437965 164.0
66.57106 148.0
66.588928 132.0
66.673416 84.0
66.712425 188.0
66.731934 228.0
66.778427 180.0
66.801865 112.0
66.881706 220.0
66.932076 224.0
66.948357 184.0
67.002113 176.0
67.057518 168.0
67.091751 92.0
67.12925 184.0
67.143929 180.0
67.170029 136.0
67.20755 116.0
67.220604 108.0
67.279129 160.0
67.303856 52.0
67.33815 160.0
67.375717 176.0
67.392677 216.0
67.405128 260.0
67.455795 36.0
67.468651 144.0
67.490135 156.0
67.557053 140.0
67.617249 136.0
67.632462 48.0
67.647194 156.0
67.658653 180.0
67.673393 140.0
67.695808 172.0
67.768394 212.0
67.824112 112.0
67.835587 188.0
67.874573 164.0
67.884476 168.0
67.911018 180.0
67.935623 224.0
67.951744 208.0
67.963387 200.0
67.999619 180.0
68.071854 116.0
68.106346 40.0
68.15892 92.0
68.183998 152.0
68.218086 48.0
68.273994 160.0
68.291199 148.0
68.341438 160.0
68.366119 168.0
68.405624 196.0
68.423302 180.0
68.478027 128.0
68.537384 140.0
68.580215 188.0
68.618149 36.0
68.656075 136.0
68.712524 200.0
68.778412 164.0
68.831688 180.0
68.913589 164.0
68.997887 208.0
69.136833 192.0
69.182037 180.0
69.211327 188.0
69.232857 196.0
69.246101 100.0
69.302429 132.0
69.314026 156.0
69.352074 180.0
69.424698 200.0
69.45163 160.0
69.463242 180.0
69.531273 68.0
69.556175 100.0
69.572777 140.0
69.605743 56.0
69.617218 204.0
69.644928 168.0
69.651611 76.0
69.654823 128.0
69.684052 144.0
69.70565 180.0
69.738892 180.0
69.767151 172.0
69.792091 112.0
69.841881 136.0
69.892265 108.0
69.903542 136.0
69.925499 164.0
69.943489 204.0
69.9618 124.0
70.009995 148.0
70.042389 104.0
70.053391 164.0
70.066719 192.0
70.078911 176.0
70.09845 264.0
70.127182 156.0
70.150047 164.0
70.164581 184.0
70.180061 208.0
70.213364 144.0
70.235092 200.0
70.306839 220.0
70.360252 172.0
70.395317 156.0
70.413345 176.0
70.428719 164.0
70.464508 180.0
70.478844 168.0
70.505096 196.0
70.528099 204.0
70.552383 36.0
70.600876 200.0
70.657745 160.0
70.674477 144.0
70.707909 160.0
70.721336 212.0
70.738075 124.0
70.786629 228.0
70.830322 152.0
70.843582 220.0
70.867035 180.0
70.912285 328.0
70.949158 116.0
71.068245 152.0
71.086952 160.0
71.151436 176.0
71.164497 116.0
71.194878 148.0
71.239037 192.0
71.257973 176.0
71.295647 144.0
71.300453 200.0
71.338646 228.0
71.375633 132.0
71.397499 200.0
71.421043 160.0
71.45974 128.0
71.477882 220.0
71.499825 252.0
71.530418 188.0
71.54702 200.0
71.559044 88.0
71.574196 136.0
71.594933 164.0
71.617981 244.0
71.658417 208.0
71.678635 48.0
71.702232 84.0
71.727509 176.0
71.766289 160.0
71.803734 136.0
71.832268 164.0
71.928246 100.0
71.992409 192.0
72.00592 132.0
72.037086 168.0
72.120819 144.0
72.173225 268.0
72.21212 120.0
72.339027 152.0
72.406761 168.0
72.427086 92.0
72.462662 172.0
72.482994 276.0
72.503326 124.0
72.550789 196.0
72.6763 144.0
72.708694 180.0
72.726349 188.0
72.818901 108.0
72.83419 172.0
72.846077 68.0
72.864769 60.0
72.919144 116.0
72.955147 180.0
72.971275 228.0
72.975555 152.0
72.981773 124.0
73.031364 112.0
73.164101 152.0
73.216438 260.0
73.249245 128.0
73.28389 248.0
73.303772 208.0
73.332741 48.0
73.351494 120.0
73.461823 148.0
73.494751 144.0
73.526978 172.0
73.545952 172.0
73.574974 168.0
73.597168 148.0
73.651817 124.0
73.682571 76.0
73.730415 164.0
73.841545 328.0
73.899979 128.0
73.926155 404.0
73.963036 152.0
74.005829 172.0
74.026382 120.0
74.105179 280.0
74.127449 168.0
74.141159 84.0
74.156586 200.0
74.201157 100.0
74.227539 104.0
74.274902 164.0
74.290337 156.0
74.338875 224.0
74.40876 144.0
74.42421 124.0
74.44825 152.0
74.468781 168.0
74.504936 140.0
74.51696 180.0
74.539299 164.0
74.551331 180.0
74.618294 192.0
74.657921 168.0
74.702637 132.0
74.714684 212.0
74.771469 484.0
74.785233 88.0
74.816223 188.0
74.8386 124.0
74.893501 180.0
74.924721 156.0
75.033302 140.0
75.047096 108.0
75.064339 220.0
75.076408 152.0
75.117805 184.0
75.135056 204.0
75.166679 148.0
75.178192 108.0
75.229332 224.0
75.245514 208.0
75.311134 144.0
75.330139 100.0
75.388885 304.0
75.418571 180.0
75.440742 192.0
75.518768 128.0
75.568726 176.0
75.603333 148.0
75.618904 120.0
75.637947 292.0
75.651512 172.0
75.717056 256.0
75.745308 144.0
75.771294 156.0
75.871819 164.0
75.923836 132.0
75.991493 164.0
76.132095 164.0
76.152939 132.0
76.231117 180.0
76.280266 160.0
76.317009 204.0
76.375427 124.0
76.39978 116.0
76.418915 152.0
76.464165 148.0
76.512901 128.0
76.530609 212.0
76.552948 108.0
76.56514 140.0
76.586044 164.0
76.62088 228.0
76.656136 240.0
76.738434 108.0
76.783302 160.0
76.803925 96.0
76.920845 124.0
76.938774 220.0
76.990181 236.0
77.01339 180.0
77.030273 156.0
77.067543 196.0
77.100746 160.0
77.177666 144.0
77.189903 80.0
77.230133 196.0
77.251122 44.0
77.377129 176.0
77.403137 192.0
77.406471 164.0
77.436668 112.0
77.464699 64.0
77.478714 112.0
77.508499 120.0
77.560982 156.0
77.583275 204.0
77.74173 112.0
77.855843 168.0
77.927864 184.0
77.959496 164.0
77.992889 40.0
78.072006 180.0
78.097801 144.0
78.182838 160.0
78.198685 108.0
78.214523 276.0
78.253258 116.0
78.272621 216.0
78.318413 156.0
78.388931 172.0
78.417084 136.0
78.46048 136.0
78.496422 172.0
78.524635 136.0
78.588699 436.0
78.614616 216.0
78.653442 96.0
78.671715 240.0
78.699348 152.0
78.71862 140.0
78.737389 152.0
78.762924 172.0
78.787659 160.0
78.807091 176.0
78.842041 180.0
78.878075 168.0
78.903389 140.0
78.945114 152.0
78.975037 108.0
78.999802 152.0
79.019264 184.0
79.032616 176.0
79.056427 80.0
79.09713 56.0
79.152016 168.0
79.215782 108.0
79.228867 208.0
79.244896 120.0
79.273338 140.0
79.332878 156.0
79.354019 200.0
79.389481 100.0
79.401894 116.0
79.446053 192.0
79.478638 124.0
79.513672 92.0
79.565575 216.0
79.586456 140.0
79.607765 168.0
79.634407 152.0
79.659271 108.0
79.673225 164.0
79.680283 140.0
79.74456 136.0
79.771225 116.0
79.872589 172.0
79.888596 112.0
79.94445 144.0
79.964142 132.0
79.986473 36.0
80.025642 136.0
80.038101 224.0
80.093849 200.0
80.118256 148.0
80.134293 128.0
80.175461 172.0
80.207359 36.0
80.221619 204.0
80.235878 184.0
80.264412 60.0
80.314064 128.0
80.341309 140.0
80.368958 176.0
80.433899 160.0
80.455322 92.0
80.471352 164.0
80.496391 144.0
80.528534 312.0
80.555328 176.0
80.567833 164.0
80.579292 132.0
80.62323 196.0
80.743011 108.0
80.775208 160.0
80.807411 196.0
80.82888 116.0
80.853424 172.0
80.920464 124.0
80.943451 156.0
80.984146 160.0
81.033859 172.0
81.083183 160.0
81.095734 180.0
81.118118 204.0
81.152443 180.0
81.166656 128.0
81.203171 256.0
81.285835 192.0
81.327309 260.0
81.352249 120.0
81.370201 176.0
81.38636 208.0
81.404312 220.0
81.447418 192.0
81.483353 176.0
81.499519 160.0
81.541832 192.0
81.562424 104.0
81.592987 172.0
81.627144 188.0
81.659515 196.0
81.705063 176.0
81.718651 184.0
81.744072 160.0
81.783669 200.0
81.838898 124.0
81.861092 76.0
81.8899 108.0
81.942192 160.0
82.057991 160.0
82.08094 196.0
82.097168 124.0
82.148972 172.0
82.169319 384.0
82.242828 172.0
82.273994 72.0
82.288002 148.0
82.324554 172.0
82.344421 136.0
82.380821 160.0
82.403 184.0
82.43837 96.0
82.479942 104.0
82.505249 152.0
82.521523 212.0
82.53418 208.0
82.55407 144.0
82.584816 220.0
82.601959 156.0
82.623299 232.0
82.646324 188.0
82.736824 228.0
82.791145 212.0
82.841858 208.0
82.936089 176.0
82.968719 220.0
83.021622 204.0
83.035812 68.0
83.075722 144.0
83.099304 116.0
83.113823 56.0
83.166451 148.0
83.191864 188.0
83.215469 116.0
83.239075 136.0
83.253601 176.0
83.266312 140.0
83.29174 120.0
83.333527 112.0
83.382591 188.0
83.399597 124.0
83.429947 160.0
83.482582 136.0
83.498955 76.0
83.517143 152.0
83.529877 100.0
83.597191 152.0
83.625328 140.0
83.641838 136.0
83.659081 184.0
83.671494 156.0
83.699135 56.0
83.722687 176.0
83.799316 380.0
83.837585 228.0
83.879509 140.0
83.892265 152.0
83.919777 176.0
83.952438 164.0
83.96946 84.0
84.007156 164.0
84.023552 180.0
84.052773 108.0
84.092918 184.0
84.107521 188.0
84.138557 100.0
84.19017 180.0
84.237175 72.0
84.249962 108.0
84.282852 212.0
84.315742 128.0
84.339508 140.0
84.399834 180.0
84.421783 52.0
84.447388 148.0
84.463806 164.0
84.504097 236.0
84.551674 144.0
84.574448 272.0
84.60659 148.0
84.634048 144.0
84.698151 184.0
84.727463 172.0
84.813591 84.0
84.846916 136.0
84.860252 160.0
84.871613 204.0
84.925446 204.0
84.978142 160.0
85.000259 164.0
85.024521 48.0
85.057556 136.0
85.078659 160.0
85.113365 312.0
85.132835 160.0
85.149368 152.0
85.189781 204.0
85.221008 136.0
85.28717 152.0
85.31842 176.0
85.418747 144.0
85.423645 184.0
85.447166 172.0
85.488304 208.0
85.500526 172.0
85.531815 204.0
85.555748 96.0
85.583366 140.0
85.627563 192.0
85.653351 184.0
85.674789 132.0
85.701248 164.0
85.72068 176.0
85.796509 176.0
85.803162 248.0
85.826591 120.0
85.843193 84.0
85.856102 120.0
85.918816 160.0
85.942802 124.0
85.970482 144.0
86.0037 204.0
86.07386 136.0
86.095322 552.0
86.121529 188.0
86.180435 172.0
86.214081 172.0
86.26416 152.0
86.315933 60.0
86.371414 172.0
86.421364 40.0
86.467628 132.0
86.5028 144.0
86.515755 164.0
86.534271 164.0
86.585121 164.0
86.643547 144.0
86.658371 96.0
86.689873 220.0
86.775139 132.0
86.817787 88.0
86.834114 184.0
86.872673 156.0
86.899628 132.0
86.934662 172.0
86.963387 248.0
87.002731 196.0
87.009697 132.0
87.023285 140.0
87.036758 196.0
87.05162 128.0
87.07576 140.0
87.090622 60.0
87.125916 220.0
87.142639 156.0
87.157501 40.0
87.196526 48.0
87.248322 148.0
87.269348 164.0
87.289124 228.0
87.348999 224.0
87.367599 160.0
87.382484 256.0
87.425285 124.0
87.447617 92.0
87.462509 160.0
87.507187 108.0
87.536049 104.0
87.559326 168.0
87.5774 148.0
87.610596 252.0
87.62645 128.0
87.666679 180.0
87.671555 236.0
87.71212 156.0
87.758728 212.0
87.853844 128.0
87.881828 128.0
87.911102 204.0
87.969551 56.0
88.029465 256.0
88.047974 212.0
88.06852 164.0
88.100273 180.0
88.14138 216.0
88.154457 120.0
88.189537 292.0
88.217438 156.0
88.253532 144.0
88.283241 144.0
88.330215 192.0
88.347534 184.0
88.373245 224.0
88.46682 120.0
88.535103 96.0
88.556702 176.0
88.59211 244.0
88.626022 168.0
88.682243 120.0
88.733284 244.0
88.819328 144.0
88.845383 164.0
88.860352 164.0
88.912941 104.0
89.038734 824.0
89.057449 132.0
89.139565 124.0
89.172241 196.0
89.226639 92.0
89.241676 156.0
89.260483 152.0
89.384293 308.0
89.408768 136.0
89.473099 88.0
89.49054 200.0
89.515442 164.0
89.532104 120.0
89.547371 172.0
89.596802 264.0
89.621895 28.0
89.644508 124.0
89.682205 132.0
89.721489 124.0
89.859474 176.0
89.90287 120.0
89.917969 88.0
89.94062 84.0
89.97271 264.0
90.03125 216.0
90.045227 244.0
90.103027 176.0
90.116257 172.0
90.146484 188.0
90.180504 36.0
90.205078 160.0
90.231544 120.0
90.254181 132.0
90.333672 216.0
90.420708 48.0
90.448242 176.0
90.467178 212.0
90.505898 32.0
90.606285 40.0
90.706726 104.0
90.731369 164.0
90.748436 152.0
90.792053 180.0
90.829826 428.0
90.869095 208.0
90.884293 204.0
90.900185 144.0
90.956154 216.0
91.000786 204.0
91.051155 176.0
91.073364 184.0
91.099548 52.0
91.148293 220.0
91.18232 192.0
91.223068 160.0
91.270599 112.0
91.316246 100.0
91.354286 164.0
91.384727 204.0
91.42659 168.0
91.464684 188.0
91.48941 148.0
91.531296 92.0
91.595795 160.0
91.626534 276.0
91.671883 120.0
91.698944 132.0
91.717628 184.0
91.809952 160.0
91.843658 156.0
91.868652 120.0
91.908722 124.0
91.948799 92.0
91.971245 168.0
92.011787 124.0
92.036613 72.0
92.052765 188.0
92.086266 120.0
92.194489 144.0
92.216187 180.0
92.244865 188.0
92.351944 180.0
92.38829 164.0
92.428474 156.0
92.449524 124.0
92.501404 228.0
92.523705 148.0
92.541306 152.0
92.543777 200.0
92.568214 116.0
92.583534 140.0
92.608429 112.0
92.627586 268.0
92.647583 160.0
92.673286 136.0
92.723389 124.0
92.772438 204.0
92.837448 180.0
92.851845 324.0
92.903168 180.0
92.951607 176.0
93.037384 104.0
93.064857 56.0
93.095581 144.0
93.126312 40.0
93.139755 44.0
93.176254 124.0
93.218529 88.0
93.28772 240.0
93.320641 132.0
93.414642 168.0
93.451881 168.0
93.468521 188.0
93.491608 184.0
93.537003 144.0
93.553207 132.0
93.60424 156.0
93.683372 156.0
93.726547 212.0
93.753067 184.0
93.793205 204.0
93.863411 120.0
93.927055 124.0
93.998444 56.0
94.021599 200.0
94.083366 180.0
94.118126 208.0
94.160606 160.0
94.226288 104.0
94.272659 160.0
94.297302 248.0
94.311317 168.0
94.398277 184.0
94.485359 44.0
94.549698 192.0
94.584053 152.0
94.620552 136.0
94.641098 152.0
94.661499 128.0
94.704109 168.0
94.7342 124.0
94.75853 176.0
94.783966 128.0
94.810669 48.0
94.878517 40.0
94.901779 192.0
94.956078 136.0
94.969658 204.0
95.010391 188.0
95.033676 112.0
95.095779 96.0
95.14431 408.0
95.16761 184.0
95.185081 160.0
95.236984 204.0
95.243561 148.0
95.249809 220.0
95.26825 132.0
95.320404 212.0
95.351707 156.0
95.373535 132.0
95.412415 276.0
95.492142 176.0
95.581635 176.0
95.687477 112.0
95.78688 132.0
95.821129 104.0
95.912727 108.0
95.947815 196.0
95.995445 168.0
96.016068 144.0
96.070679 176.0
96.125313 28.0
96.170464 176.0
96.265869 144.0
96.300369 168.0
96.307785 112.0
96.315651 220.0
96.347908 148.0
96.394798 168.0
96.425941 184.0
96.50853 176.0
96.547287 188.0
96.586182 140.0
96.666618 180.0
96.701843 144.0
96.764488 216.0
96.874161 164.0
96.921188 188.0
96.934906 180.0
96.976524 288.0
96.996284 252.0
97.07502 168.0
97.109726 208.0
97.125076 168.0
97.162354 208.0
97.19178 176.0
97.232994 116.0
97.282066 128.0
97.321335 104.0
97.339005 164.0
97.360611 128.0
97.413826 128.0
97.435249 148.0
97.449005 100.0
97.462761 100.0
97.485451 300.0
97.513802 140.0
97.570862 184.0
97.588554 92.0
97.616089 140.0
97.643623 128.0
97.665199 144.0
97.801208 128.0
97.871902 156.0
97.934921 172.0
97.978256 116.0
98.001778 252.0
98.049194 60.0
98.097244 336.0
98.135384 172.0
98.157623 132.0
98.234543 128.0
98.258217 192.0
98.339127 136.0
98.358864 148.0
98.400322 60.0
98.427971 60.0
98.504997 184.0
98.546196 276.0
98.573715 256.0
98.657707 188.0
98.665672 184.0
98.730324 136.0
98.769791 172.0
98.808853 200.0
98.833191 156.0
98.849022 124.0
98.862869 196.0
98.912407 160.0
98.998344 1408.0
99.043694 148.0
99.104668 196.0
99.134926 224.0
99.201988 260.0
99.245193 180.0
99.261055 108.0
99.310638 148.0
99.382057 116.0
99.431671 160.0
99.469383 200.0
99.509087 56.0
99.54599 48.0
99.576607 196.0
99.607933 192.0
99.611229 148.0
99.646133 136.0
99.6819 360.0
99.697327 236.0
99.721649 132.0
99.819061 164.0
99.832985 192.0
99.871658 152.0
99.891739 216.0
99.919182 144.0
99.936424 204.0
99.952339 144.0
100.003746 724.0
100.031952 196.0
100.081726 84.0
100.111435 184.0
100.139481 152.0
100.158035 228.0
100.207207 140.0
100.241318 172.0
100.269379 156.0
100.323868 180.0
100.348991 148.0
100.366669 148.0
100.412537 192.0
100.426498 140.0
100.443085 204.0
100.59198 176.0
100.634041 212.0
100.658005 184.0
100.677979 136.0
100.704979 108.0
100.724709 252.0
100.762161 164.0
100.783287 196.0
100.825813 196.0
100.8498 136.0
100.871788 140.0
100.916817 144.0
100.969765 156.0
100.995544 500.0
101.067787 120.0
101.091805 144.0
101.114464 172.0
101.137833 176.0
101.168137 144.0
101.211906 148.0
101.265984 116.0
101.312302 96.0
101.352127 112.0
101.385643 116.0
101.390717 156.0
101.405441 192.0
101.429596 200.0
101.456352 92.0
101.492439 92.0
101.521782 228.0
101.540565 144.0
101.574669 180.0
101.616676 68.0
101.679863 164.0
101.739227 316.0
101.753281 68.0
101.844162 204.0
101.871773 132.0
101.893867 164.0
101.972237 132.0
102.010429 164.0
102.038574 208.0
102.072762 84.0
102.090424 204.0
102.114639 184.0
102.163269 76.0
102.179367 220.0
102.193451 140.0
102.207535 140.0
102.23571 104.0
102.273949 132.0
102.300117 148.0
102.362534 160.0
102.382675 212.0
102.445114 156.0
102.551849 128.0
102.622475 120.0
102.681641 140.0
102.711205 144.0
102.739449 172.0
102.757607 164.0
102.7798 124.0
102.822182 188.0
102.853645 216.0
102.882736 112.0
102.900909 236.0
102.930099 220.0
102.959473 164.0
103.001884 208.0
103.022087 160.0
103.054207 1236.0
103.100891 48.0
103.151421 116.0
103.220406 200.0
103.241203 188.0
103.274773 140.0
103.331627 152.0
103.375793 232.0
103.412361 160.0
103.438675 160.0
103.462967 176.0
103.498047 160.0
103.568481 188.0
103.585182 388.0
103.61689 128.0
103.659439 112.0
103.747002 80.0
103.795258 152.0
103.853157 208.0
103.905304 188.0
104.002327 180.0
104.054222 300.0
104.097618 96.0
104.233719 212.0
104.280464 216.0
104.319084 104.0
104.441917 168.0
104.481934 160.0
104.549477 196.0
104.622208 136.0
104.64257 96.0
104.658859 252.0
104.681259 120.0
104.73217 188.0
104.762726 188.0
104.781067 156.0
104.816963 140.0
104.872765 184.0
104.907425 100.0
104.925774 132.0
104.952652 152.0
105.005295 136.0
105.102043 168.0
105.117508 128.0
105.135445 212.0
105.152199 140.0
105.195526 356.0
105.226273 196.0
105.250191 184.0
105.312233 252.0
105.470833 128.0
105.532433 188.0
105.552612 108.0
105.568977 208.0
105.605789 148.0
105.671143 128.0
105.769485 120.0
105.790619 296.0
105.820663 180.0
105.908722 164.0
105.931259 72.0
105.955841 112.0
105.9739 192.0
105.997879 176.0
106.045784 148.0
106.216835 232.0
106.232605 48.0
106.251076 120.0
106.296562 164.0
106.345467 164.0
106.361893 188.0
106.38652 188.0
106.431694 184.0
106.489197 168.0
106.504585 136.0
106.528221 76.0
106.547546 240.0
106.570343 168.0
106.593971 140.0
106.639725 152.0
106.661797 184.0
106.700859 168.0
106.779755 272.0
106.807793 56.0
106.85717 68.0
106.920959 108.0
106.939484 104.0
107.058899 144.0
107.08773 76.0
107.10833 132.0
107.12999 128.0
107.159828 224.0
107.234016 108.0
107.258888 180.0
107.302048 56.0
107.318542 208.0
107.363907 120.0
107.390717 64.0
107.409164 204.0
107.429909 160.0
107.471176 200.0
107.516579 132.0
107.53389 156.0
107.572304 208.0
107.588821 100.0
107.610306 128.0
107.648438 156.0
107.675545 44.0
107.710663 156.0
107.731323 32.0
107.770241 172.0
107.787102 292.0
107.873909 212.0
107.933868 176.0
107.969643 108.0
107.98912 212.0
108.066376 132.0
108.102371 228.0
108.136612 144.0
108.269836 172.0
108.2827 136.0
108.308472 64.0
108.335403 88.0
108.414139 60.0
108.439011 120.0
108.453514 320.0
108.499123 160.0
108.553032 344.0
108.588287 168.0
108.617332 160.0
108.652596 112.0
108.674873 288.0
108.70842 168.0
108.745979 28.0
108.760506 136.0
108.814667 180.0
108.878853 188.0
108.893394 172.0
108.924553 240.0
109.009735 192.0
109.034676 168.0
109.18853 140.0
109.271736 180.0
109.30722 152.0
109.341225 184.0
109.375793 116.0
109.428802 188.0
109.448654 112.0
109.469482 140.0
109.538216 136.0
109.584045 184.0
109.609055 204.0
109.6549 164.0
109.681999 192.0
109.696587 124.0
109.744583 184.0
109.798759 92.0
109.840477 96.0
109.857162 176.0
109.880112 120.0
109.898895 144.0
109.913498 152.0
109.940628 140.0
110.035469 332.0
110.075211 176.0
110.097206 116.0
110.241356 124.0
110.255981 152.0
110.323029 212.0
110.347961 148.0
110.383507 112.0
110.403305 128.0
110.44207 104.0
110.456711 148.0
110.483902 188.0
110.515289 180.0
110.535126 300.0
110.672272 152.0
110.724625 180.0
110.867752 152.0
110.946747 208.0
110.985565 140.0
110.9935 200.0
111.030617 108.0
111.059982 68.0
111.11821 196.0
111.192703 156.0
111.316032 108.0
111.335648 200.0
111.431557 144.0
111.445328 124.0
111.473587 144.0
111.496704 140.0
111.520172 144.0
111.549248 216.0
111.574478 192.0
111.624939 124.0
111.652283 72.0
111.698639 96.0
111.725151 180.0
111.763725 164.0
111.799545 152.0
111.814278 48.0
111.845078 144.0
111.87532 260.0
111.935211 136.0
111.953232 148.0
111.980614 172.0
112.014313 164.0
112.076859 128.0
112.110657 620.0
112.14917 280.0
112.186539 204.0
112.19088 148.0
112.225067 124.0
112.269348 172.0
112.289772 164.0
112.319969 108.0
112.34549 208.0
112.366379 160.0
112.484283 212.0
112.50605 136.0
112.510376 176.0
112.56057 68.0
112.678856 220.0
112.708435 112.0
112.750366 228.0
112.790161 408.0
112.80777 92.0
112.888123 40.0
112.909271 144.0
113.017159 96.0
113.044662 112.0
113.110779 160.0
113.169556 184.0
113.190727 176.0
113.227989 128.0
113.289017 268.0
113.317818 188.0
113.332649 168.0
113.372917 140.0
113.401955 120.0
113.430145 112.0
113.461761 140.0
113.467178 128.0
113.475426 200.0
113.517075 184.0
113.538277 32.0
113.559486 148.0
113.589188 100.0
113.635857 136.0
113.663277 52.0
113.684662 224.0
113.708008 164.0
113.735603 156.0
113.76532 40.0
113.818398 140.0
113.843887 200.0
113.899109 168.0
113.975594 96.0
114.001091 220.0
114.081863 152.0
114.129166 348.0
114.149902 300.0
114.181801 140.0
114.205193 84.0
114.222214 124.0
114.24987 200.0
114.311569 132.0
114.353073 160.0
114.411613 104.0
114.434319 96.0
114.492523 132.0
114.549171 152.0
114.587288 256.0
114.658707 92.0
114.732216 320.0
114.748238 156.0
114.777039 256.0
114.814339 212.0
114.874062 96.0
114.910332 136.0
114.993561 216.0
115.053032 316.0
115.075027 460.0
115.107742 140.0
115.162239 172.0
115.26265 260.0
115.30365 140.0
115.358826 212.0
115.452904 128.0
115.532051 132.0
115.636902 112.0
115.681854 180.0
115.722534 176.0
115.75251 112.0
115.771782 168.0
115.868172 184.0
115.896027 108.0
115.926025 184.0
115.962463 120.0
115.999268 116.0
116.028915 172.0
116.054855 160.0
116.088951 120.0
116.108253 136.0
116.260582 216.0
116.301361 124.0
116.324974 156.0
116.421593 272.0
116.473312 152.0
116.560143 184.0
116.614952 176.0
116.679443 224.0
116.709549 184.0
116.781769 192.0
116.810631 156.0
116.827843 152.0
116.879829 296.0
116.916061 144.0
116.938301 144.0
116.989243 200.0
117.036613 176.0
117.071068 476.0
117.086143 124.0
117.105522 136.0
117.133865 180.0
117.186768 180.0
117.26281 172.0
117.329636 128.0
117.409424 176.0
117.489227 152.0
117.531052 136.0
117.54834 160.0
117.584175 88.0
117.638336 196.0
117.696434 72.0
117.742119 156.0
117.759064 108.0
117.787971 136.0
117.823868 124.0
117.888695 192.0
117.930557 368.0
117.951149 172.0
117.979477 212.0
118.000946 180.0
118.042175 180.0
118.084869 308.0
118.133018 204.0
118.193596 276.0
118.245537 160.0
118.269348 212.0
118.408096 196.0
118.449074 64.0
118.479401 156.0
118.520569 280.0
118.550911 180.0
118.670601 148.0
118.724007 172.0
118.748199 116.0
118.767723 112.0
118.908752 244.0
118.950584 88.0
119.06073 148.0
119.123718 152.0
119.195419 228.0
119.221748 176.0
119.247581 200.0
119.284531 204.0
119.330185 200.0
119.414993 72.0
119.493309 100.0
119.573822 52.0
119.597771 176.0
119.728401 148.0
119.852577 156.0
119.950653 272.0
120.068398 120.0
120.08857 228.0
120.17083 196.0
120.240204 128.0
120.295319 108.0
120.326149 132.0
120.347717 124.0
120.389206 100.0
120.461288 84.0
120.491875 176.0
120.522461 148.0
120.577713 184.0
120.622993 44.0
120.718307 136.0
120.740166 116.0
120.762939 108.0
120.793564 156.0
120.82058 252.0
120.883171 180.0
120.9161 164.0
120.994904 80.0
121.029938 108.0
121.051834 84.0
121.095634 156.0
121.144463 184.0
121.161713 48.0
121.231468 128.0
121.279686 144.0
121.308182 120.0
121.378342 148.0
121.406853 200.0
121.454636 112.0
121.489517 420.0
121.55603 44.0
121.619675 268.0
121.646019 156.0
121.665771 168.0
121.72506 148.0
121.801926 152.0
121.830482 196.0
121.872231 180.0
121.953545 188.0
122.003311 100.0
122.041481 100.0
122.070068 132.0
122.14045 204.0
122.167404 188.0
122.230652 136.0
122.35611 136.0
122.384735 200.0
122.404556 124.0
122.432434 200.0
122.534508 100.0
122.596207 72.0
122.617821 184.0
122.644157 196.0
122.691986 132.0
122.752731 168.0
122.769585 168.0
122.776909 108.0
122.78215 164.0
122.821098 208.0
122.854187 92.0
122.892197 160.0
122.940247 192.0
122.994736 64.0
123.0158 172.0
123.047913 144.0
123.079315 116.0
123.113739 184.0
123.175964 184.0
123.208496 236.0
123.254791 100.0
123.298592 204.0
123.328499 172.0
123.357697 216.0
123.404129 220.0
123.435081 112.0
123.454987 244.0
123.488159 140.0
123.508072 52.0
123.555756 216.0
123.57444 148.0
123.625328 144.0
123.669594 116.0
123.744865 160.0
123.764793 140.0
123.788216 208.0
123.822372 176.0
123.897682 212.0
123.939781 148.0
123.969307 148.0
123.983154 112.0
124.03508 212.0
124.069664 40.0
124.121445 168.0
124.173073 120.0
124.179375 160.0
124.187073 132.0
124.202667 180.0
124.243256 192.0
124.301224 116.0
124.316757 116.0
124.350052 180.0
124.396667 148.0
124.431831 200.0
124.477318 160.0
124.527962 156.0
124.545334 156.0
124.554329 228.0
124.583015 184.0
124.609871 188.0
124.630882 176.0
124.65435 224.0
124.67733 200.0
124.705429 180.0
124.739616 136.0
124.76432 172.0
124.780006 160.0
124.797913 252.0
124.82869 108.0
124.840729 112.0
124.848724 204.0
124.875778 104.0
124.900116 284.0
124.950371 164.0
124.98867 1168.0
125.015388 183968.0
125.078934 144.0
125.10257 140.0
125.14032 312.0
125.166534 124.0
125.195137 272.0
125.216492 276.0
125.262871 108.0
125.299507 72.0
125.307678 132.0
125.330452 136.0
125.355942 220.0
125.380806 2144.0
125.423172 88.0
125.464508 44.0
125.481972 144.0
125.488365 120.0
125.496796 108.0
125.549538 480.0
125.586082 60.0
125.602776 72.0
125.624779 244.0
125.665749 88.0
125.691124 72.0
125.710312 140.0
125.742447 220.0
125.762955 112.0
125.782593 116.0
125.811897 180.0
125.829727 172.0
125.850502 36.0
125.870598 80.0
125.886253 304.0
125.908562 176.0
125.923286 76.0
125.944298 212.0
125.961594 156.0
126.018013 15140.0
126.065216 172.0
126.095093 180.0
126.114113 176.0
126.128632 160.0
126.145409 44.0
126.183418 52.0
126.225113 68.0
126.239738 188.0
126.268387 248.0
126.284805 136.0
126.306412 104.0
126.355629 136.0
126.391434 172.0
126.413811 232.0
126.449615 260.0
126.480446 160.0
126.510056 44.0
126.530205 60.0
126.564972 136.0
126.588417 148.0
126.635323 272.0
126.646126 68.0
126.678238 80.0
126.697426 204.0
126.713631 40.0
126.730804 64.0
126.753204 100.0
126.767502 132.0
126.805733 104.0
126.830162 216.0
126.874062 184.0
126.90406 116.0
126.925529 92.0
126.950424 276.0
126.984673 292.0
127.012108 58696.0
127.048294 300.0
127.110863 140.0
127.129951 168.0
127.153099 32.0
127.179298 160.0
127.196472 100.0
127.226891 80.0
127.270111 68.0
127.295464 248.0
127.305199 184.0
127.30938 164.0
127.33474 36.0
127.341667 88.0
127.380524 216.0
127.422844 32.0
127.456665 156.0
127.483513 104.0
127.499245 56.0
127.516449 152.0
127.541748 212.0
127.566048 204.0
127.581635 104.0
127.599007 168.0
127.629631 152.0
127.679108 232.0
127.712845 92.0
127.737991 112.0
127.77005 112.0
127.818581 92.0
127.841087 196.0
127.869408 48.0
127.928398 172.0
128.014786 3832.0
128.061172 488.0
128.102264 156.0
128.118042 52.0
128.147202 268.0
128.206848 68.0
128.221695 136.0
128.247833 60.0
128.300583 200.0
128.325211 52.0
128.34256 124.0
128.382126 76.0
128.397873 200.0
128.423645 84.0
128.460709 128.0
128.513443 96.0
128.547409 188.0
128.584808 156.0
128.607391 48.0
128.643036 148.0
128.722519 88.0
128.762894 252.0
128.782486 160.0
128.80751 128.0
128.82869 64.0
128.845337 140.0
128.864838 176.0
128.928574 116.0
128.959747 192.0
129.019104 192.0
129.069656 1236.0
129.111221 220.0
129.13385 48.0
129.179092 108.0
129.26506 56.0
129.346542 204.0
129.389557 116.0
129.441635 128.0
129.5345 44.0
129.575272 144.0
129.631927 148.0
129.697647 152.0
129.783798 124.0
129.876785 36.0
129.940308 156.0
129.962982 148.0
129.999298 140.0
130.042419 100.0
130.075867 1744.0
130.118317 192.0
130.167282 40.0
130.189987 60.0
130.209793 184.0
130.240173 168.0
130.323212 108.0
130.380142 184.0
130.617294 128.0
130.633224 116.0
130.701477 76.0
130.758377 100.0
130.83577 32.0
130.867645 140.0
130.901794 208.0
130.980408 68.0
131.020233 68.0
131.043015 156.0
131.061249 124.0
131.083618 472.0
131.125061 92.0
131.157471 144.0
131.207123 124.0
131.270966 72.0
131.340607 180.0
131.368866 212.0
131.398697 116.0
131.45575 180.0
131.528778 160.0
131.576721 104.0
131.636093 68.0
131.784561 100.0
131.853119 112.0
131.962845 144.0
132.036026 316.0
132.090927 176.0
132.118378 68.0
132.159561 192.0
132.239655 108.0
132.257965 124.0
132.303741 64.0
132.3358 144.0
132.450302 188.0
132.486969 148.0
132.505295 168.0
132.680801 152.0
132.688126 88.0
132.697464 132.0
132.728836 136.0
132.805695 188.0
132.826248 252.0
132.931778 92.0
133.028183 96.0
133.101654 136.0
133.170547 28.0
133.227982 108.0
133.316376 204.0
133.398041 260.0
133.421036 220.0
133.600418 180.0
133.61882 204.0
133.706268 84.0
133.745392 84.0
133.764481 124.0
133.853592 144.0
133.920578 180.0
133.984894 160.0
134.065536 128.0
134.081665 132.0
134.110153 200.0
134.127762 96.0
134.178482 148.0
134.26149 104.0
134.312241 144.0
134.365295 104.0
134.455292 264.0
134.515305 88.0
134.544312 92.0
134.605347 172.0
134.673767 136.0
134.697739 164.0
134.74054 204.0
134.757797 64.0
134.783218 116.0
134.854965 168.0
134.947327 256.0
134.988953 132.0
135.021332 136.0
135.067596 340.0
135.113861 68.0
135.234192 64.0
135.275848 164.0
135.292068 176.0
135.322159 144.0
135.359207 120.0
135.384674 160.0
135.405518 44.0
135.488922 68.0
135.512085 108.0
135.542206 188.0
135.567703 68.0
135.64418 80.0
135.674316 72.0
135.690552 120.0
135.883057 88.0
135.952667 76.0
135.980515 96.0
136.038544 80.0
136.084259 204.0
136.161621 168.0
136.182526 200.0
136.3591 196.0
136.473007 280.0
136.507889 88.0
136.528824 176.0
136.591629 144.0
136.617737 140.0
136.64978 88.0
136.756836 112.0
136.834702 116.0
136.87323 44.0
136.894196 116.0
136.926804 128.0
137.020187 132.0
137.03862 68.0
137.139404 128.0
137.197098 148.0
137.213425 164.0
137.335815 148.0
137.370941 184.0
137.400009 196.0
137.421005 140.0
137.528061 160.0
137.544693 168.0
137.612396 92.0
137.663773 236.0
137.715149 112.0
137.733841 176.0
137.750183 204.0
137.862335 80.0
137.97493 188.0
138.016296 168.0
138.031494 112.0
138.105499 304.0
138.167221 144.0
138.241196 92.0
138.355881 80.0
138.410843 160.0
138.44487 100.0
138.465942 84.0
138.487366 184.0
138.534637 196.0
138.561981 140.0
138.59198 100.0
138.702591 92.0
138.738495 192.0
138.789337 52.0
138.925369 200.0
138.958221 352.0
139.030121 4236.0
139.062775 180.0
139.107117 136.0
139.131897 40.0
139.15654 148.0
139.242508 204.0
139.390259 172.0
139.420822 140.0
139.481934 164.0
139.549606 168.0
139.652618 216.0
139.754745 188.0
139.806915 184.0
140.032135 704.0
140.077286 120.0
140.130417 116.0
140.151016 188.0
140.209229 260.0
140.225723 52.0
140.268158 188.0
140.357742 184.0
140.468597 76.0
140.524231 220.0
140.585678 180.0
140.657608 164.0
140.70932 92.0
140.761261 136.0
140.809937 184.0
140.959702 128.0
140.980957 188.0
141.024628 1156.0
141.05896 100.0
141.106247 60.0
141.205566 184.0
141.222122 308.0
141.278885 156.0
141.404312 84.0
141.543976 212.0
141.565292 96.0
141.581879 136.0
141.610291 132.0
141.655304 212.0
141.690842 36.0
141.721634 60.0
141.897034 116.0
141.949203 100.0
142.032211 136.0
142.103378 152.0
142.157623 1848.0
142.264771 216.0
142.322327 216.0
142.34787 56.0
142.378738 124.0
142.419113 176.0
142.440491 76.0
142.464249 136.0
142.526031 76.0
142.651993 164.0
142.675766 164.0
142.692413 52.0
142.723312 144.0
142.799423 140.0
142.850723 204.0
142.992142 128.0
143.068314 116.0
143.162506 328.0
143.182602 84.0
143.268356 176.0
143.363678 172.0
143.418488 136.0
143.444077 136.0
143.647415 200.0
143.757156 112.0
143.781021 84.0
144.036514 180.0
144.127304 148.0
144.170319 168.0
144.282654 180.0
144.459137 176.0
144.569687 156.0
144.622345 212.0
144.829712 180.0
144.888153 140.0
144.945663 284.0
145.070297 112.0
145.127838 108.0
145.147018 120.0
145.313873 200.0
145.341324 124.0
145.358109 224.0
145.402695 180.0
145.559753 200.0
145.626999 148.0
145.723099 92.0
145.910568 60.0
145.937012 216.0
145.953064 136.0
145.987518 148.0
146.006744 56.0
146.117401 260.0
146.235321 172.0
146.353287 120.0
146.377365 164.0
146.51947 184.0
146.61586 228.0
146.649597 144.0
146.666473 144.0
146.714691 156.0
146.828018 60.0
146.859375 148.0
146.89386 200.0
146.934158 168.0
146.952484 208.0
147.013412 52.0
147.052673 108.0
147.103088 104.0
147.175522 152.0
147.206909 92.0
147.351837 96.0
147.40741 212.0
147.424332 100.0
147.462997 144.0
147.579041 152.0
147.654007 176.0
147.676712 196.0
147.774963 148.0
147.85408 144.0
147.949219 144.0
148.117523 144.0
148.22049 252.0
148.341675 160.0
148.363495 68.0
148.499283 144.0
148.52597 172.0
148.618164 164.0
148.741928 156.0
148.775925 132.0
148.880325 124.0
148.96048 96.0
149.016357 156.0
149.09169 152.0
149.108704 112.0
149.213226 140.0
149.235107 92.0
149.291046 132.0
149.383469 148.0
149.548935 112.0
149.712067 128.0
149.733978 240.0
149.763214 168.0
149.85495 192.0
150.015518 208.0
150.088852 168.0
150.167816 168.0
150.192215 200.0
150.228806 176.0
150.27272 196.0
150.377655 240.0
150.414261 76.0
150.482101 168.0
150.572983 224.0
150.714661 184.0
150.802643 168.0
150.858871 144.0
150.976227 136.0
151.027588 148.0
151.088745 92.0
151.118118 212.0
151.191528 140.0
151.328842 172.0
151.352615 148.0
151.404526 116.0
151.523499 192.0
151.598053 116.0
151.656876 164.0
151.698547 104.0
151.739288 168.0
151.757385 304.0
151.799072 164.0
151.821152 100.0
151.963425 156.0
151.997086 200.0
152.04686 200.0
152.071396 28.0
152.094986 164.0
152.138611 116.0
152.172058 108.0
152.191696 116.0
152.221161 196.0
152.280106 108.0
152.33168 164.0
152.380829 164.0
152.410309 108.0
152.449631 308.0
152.496323 76.0
152.562698 48.0
152.658585 164.0
152.683182 200.0
152.711258 220.0
152.833237 100.0
152.867691 116.0
152.889832 196.0
153.046463 456.0
153.068146 176.0
153.128647 152.0
153.17984 144.0
153.219803 120.0
153.276474 144.0
153.296188 236.0
153.333145 88.0
153.46138 144.0
153.495865 152.0
153.536835 124.0
153.564911 120.0
153.668518 112.0
153.708527 112.0
153.759827 76.0
153.80426 80.0
153.883255 160.0
153.940048 140.0
153.96228 160.0
154.051193 140.0
154.068481 164.0
154.105545 144.0
154.12532 132.0
154.157486 228.0
154.184631 176.0
154.254807 192.0
154.29834 120.0
154.350266 184.0
154.40213 184.0
154.494858 148.0
154.525879 84.0
154.553101 92.0
154.624054 200.0
154.676834 132.0
154.746155 120.0
154.805588 32.0
154.822922 132.0
154.904663 132.0
154.929428 172.0
154.949249 160.0
155.035767 284.0
155.040131 260.0
155.127686 208.0
155.152481 140.0
155.198669 168.0
155.22934 136.0
155.260544 204.0
155.316147 160.0
155.346786 224.0
155.398026 64.0
155.465012 184.0
155.50473 96.0
155.58168 136.0
155.642334 140.0
155.67392 160.0
155.75116 180.0
155.772903 120.0
155.802719 236.0
155.830048 172.0
155.884705 80.0
155.921982 136.0
155.966278 112.0
156.005951 204.0
156.076111 168.0
156.108902 176.0
156.173355 34956.0
156.218445 264.0
156.235306 260.0
156.267136 140.0
156.285065 44.0
156.304367 116.0
156.371384 116.0
156.433289 144.0
156.451813 112.0
156.495056 120.0
156.531494 248.0
156.550598 140.0
156.573822 32.0
156.631119 48.0
156.661011 52.0
156.695892 80.0
156.735748 216.0
156.820496 48.0
156.855392 52.0
156.927689 128.0
157.004654 60.0
157.097275 76.0
157.127213 168.0
157.176285 3044.0
157.2686 196.0
157.31189 136.0
157.374313 172.0
157.391785 204.0
157.426758 112.0
157.484787 68.0
157.509171 216.0
157.641586 172.0
157.686203 212.0
157.729065 124.0
157.766571 124.0
157.834076 132.0
157.85408 116.0
157.899094 88.0
157.966629 164.0
158.022156 124.0
158.070053 148.0
158.109253 120.0
158.13678 132.0
158.183838 136.0
158.389679 124.0
158.417236 56.0
158.454819 100.0
158.545227 104.0
158.610199 72.0
158.657822 92.0
158.753113 100.0
158.803268 120.0
158.825836 152.0
158.872314 76.0
158.99144 148.0
159.096863 136.0
159.116943 184.0
159.16716 104.0
159.199814 68.0
159.272644 84.0
159.297775 100.0
159.325409 124.0
159.348022 232.0
159.390732 188.0
159.463608 232.0
159.549072 48.0
159.883621 124.0
159.921387 176.0
159.941513 56.0
160.029633 144.0
160.120285 32.0
160.150513 140.0
160.216003 116.0
160.312744 132.0
160.435272 164.0
160.465515 108.0
160.604218 116.0
160.801025 120.0
160.865631 196.0
160.914627 104.0
161.038361 124.0
161.096466 140.0
161.124084 124.0
161.152039 156.0
161.396469 132.0
161.462982 204.0
161.614761 136.0
161.837509 40.0
161.865356 168.0
162.15416 88.0
162.184586 144.0
162.217529 124.0
162.253036 208.0
162.3367 104.0
162.430542 92.0
162.455917 108.0
162.577713 248.0
162.605621 136.0
162.656387 92.0
162.775726 180.0
162.800797 188.0
162.834137 108.0
163.014511 156.0
163.037384 100.0
163.228043 156.0
163.267776 276.0
163.345047 108.0
163.378113 164.0
163.551147 152.0
163.640259 68.0
163.70137 180.0
163.87204 200.0
163.938293 84.0
164.167725 184.0
164.188126 108.0
164.249344 52.0
164.282501 128.0
164.359055 140.0
164.453476 124.0
164.481552 108.0
164.524948 280.0
164.670502 92.0
164.73436 124.0
164.777802 156.0
164.858047 112.0
164.965103 152.0
165.007828 96.0
165.04425 4632.0
165.143799 116.0
165.180573 64.0
165.358276 140.0
165.481995 208.0
165.537491 128.0
165.62561 256.0
165.703979 132.0
165.757797 88.0
165.816742 120.0
165.847504 60.0
165.937225 40.0
165.985947 176.0
166.016708 240.0
166.049561 916.0
166.098785 68.0
166.183319 76.0
166.225281 160.0
166.247787 168.0
166.286102 232.0
166.60965 164.0
166.640488 96.0
166.714996 144.0
166.824905 148.0
166.911819 144.0
166.948944 188.0
166.968277 140.0
167.060974 7184.0
167.224228 192.0
167.370438 232.0
167.567093 168.0
167.662689 268.0
167.679626 340.0
167.788376 128.0
167.819321 136.0
167.891525 172.0
167.909576 176.0
167.97406 88.0
168.064209 340.0
168.270844 60.0
168.410294 112.0
168.469376 156.0
168.521393 160.0
168.573059 148.0
168.629929 216.0
168.658356 160.0
168.7276 148.0
168.808304 96.0
168.826416 112.0
168.935043 56.0
168.979034 156.0
169.058228 2060.0
169.180908 104.0
169.204208 52.0
169.243042 204.0
169.40361 220.0
169.420044 200.0
169.476166 128.0
169.605743 152.0
169.652405 108.0
169.670547 296.0
169.722412 148.0
169.776871 204.0
169.823868 160.0
169.927322 88.0
169.950668 128.0
170.057068 140.0
170.121964 164.0
170.188782 20556.0
170.254166 92.0
170.284515 80.0
170.319321 144.0
170.346024 120.0
170.423233 152.0
170.521988 60.0
170.541519 148.0
170.615448 172.0
170.711777 44.0
170.755997 176.0
170.784607 148.0
170.844437 144.0
170.875656 132.0
170.911346 128.0
170.940704 164.0
170.98494 64.0
171.003159 52.0
171.191605 2276.0
171.295471 104.0
171.315643 40.0
171.42247 144.0
171.475937 68.0
171.683167 124.0
171.734268 236.0
171.787491 40.0
171.891632 140.0
171.919754 168.0
171.951889 176.0
171.996262 164.0
172.044617 84.0
172.077194 120.0
172.113739 140.0
172.141708 192.0
172.205154 41984.0
172.272659 128.0
172.312256 28.0
172.330536 44.0
172.361115 240.0
172.394608 64.0
172.415466 32.0
172.421127 96.0
172.4599 120.0
172.491928 64.0
172.522293 72.0
172.56665 96.0
172.5867 44.0
172.618073 140.0
172.652069 72.0
172.686066 384.0
172.740997 128.0
172.757462 108.0
172.805969 212.0
172.866592 80.0
172.948898 160.0
172.956253 124.0
172.997467 160.0
173.044586 188.0
173.099579 64.0
173.208069 3740.0
173.291946 128.0
173.337952 36.0
173.411331 80.0
173.437546 128.0
173.51619 132.0
173.555527 48.0
173.579117 28.0
173.600098 124.0
173.626328 92.0
173.702393 116.0
173.783722 48.0
173.807343 140.0
173.825714 52.0
173.938568 152.0
173.959564 132.0
174.067215 176.0
174.093475 112.0
174.118561 184.0
174.148636 128.0
174.186554 100.0
174.216034 212.0
174.302963 164.0
174.32991 188.0
174.387726 84.0
174.432419 84.0
174.467636 128.0
174.508652 248.0
174.532043 76.0
174.571762 132.0
174.648041 108.0
174.684097 68.0
174.784851 128.0
174.813797 92.0
175.089386 152.0
175.145538 236.0
175.293076 44.0
175.364227 84.0
175.49472 256.0
175.543503 128.0
175.57515 152.0
175.646362 100.0
175.667465 228.0
175.72023 76.0
175.751892 120.0
175.786209 56.0
175.82843 148.0
175.926102 72.0
175.973618 112.0
176.087173 148.0
176.182266 128.0
176.256241 76.0
176.335526 288.0
176.459778 116.0
176.491501 180.0
176.547028 196.0
176.70575 152.0
176.819534 72.0
176.946594 52.0
176.983673 200.0
177.041931 288.0
177.190262 64.0
177.298904 148.0
177.388168 172.0
177.471207 148.0
177.532196 120.0
177.625031 116.0
177.66217 212.0
177.721512 164.0
177.946152 88.0
178.044937 144.0
178.238327 208.0
178.302109 136.0
178.331345 132.0
178.400467 116.0
178.553436 144.0
178.639801 140.0
178.731186 184.0
178.766678 176.0
178.911255 56.0
178.977814 180.0
178.99646 124.0
179.161865 120.0
179.233536 112.0
179.266403 204.0
179.321472 112.0
179.343674 268.0
179.36412 140.0
179.425446 188.0
179.478775 132.0
179.502762 80.0
179.625458 44.0
179.660141 136.0
179.873627 96.0
179.921677 180.0
179.988434 240.0
180.076553 180.0
180.1754 108.0
180.38118 100.0
180.453735 112.0
180.472076 224.0
180.565674 140.0
180.601364 128.0
180.682434 172.0
180.738525 188.0
180.865341 100.0
181.001892 116.0
181.074188 184.0
181.098297 96.0
181.20546 48.0
181.232254 124.0
181.312637 196.0
181.626343 88.0
181.663895 108.0
181.725601 96.0
181.757812 116.0
181.781952 168.0
181.951065 32.0
181.996704 112.0
182.104126 160.0
182.185074 168.0
182.246506 148.0
182.26532 124.0
182.340561 116.0
182.405075 148.0
182.456146 60.0
182.544876 52.0
182.625565 112.0
182.695511 180.0
182.743942 144.0
182.865036 228.0
182.9431 188.0
183.031952 104.0
183.136978 164.0
183.186447 208.0
183.233963 100.0
183.277069 140.0
183.434509 172.0
183.568192 40.0
183.595169 104.0
183.65181 88.0
183.69426 112.0
183.75972 112.0
183.802887 84.0
183.851456 152.0
183.889252 116.0
184.018829 140.0
184.17276 104.0
184.205902 524.0
184.310532 140.0
184.359177 124.0
184.456482 104.0
184.525192 124.0
184.659012 164.0
184.70256 128.0
185.011063 100.0
185.051666 120.0
185.099503 120.0
185.230408 84.0
185.330658 180.0
185.439056 40.0
185.477005 36.0
185.803787 144.0
185.851273 148.0
185.886536 136.0
185.932678 160.0
186.00325 76.0
186.04126 164.0
186.079269 132.0
186.166153 76.0
186.185165 128.0
186.22522 176.0
186.256683 168.0
186.353592 124.0
186.386185 120.0
186.576447 188.0
186.687943 148.0
186.709686 80.0
186.774979 136.0
186.832092 100.0
186.976318 144.0
187.00354 148.0
187.077026 128.0
187.221344 208.0
187.335739 152.0
187.444733 112.0
187.499237 112.0
187.58493 164.0
187.629395 176.0
187.7146 172.0
187.741867 88.0
188.020142 144.0
188.271317 156.0
188.295898 128.0
188.32048 68.0
188.355988 148.0
188.391632 160.0
188.465271 132.0
188.536316 164.0
188.618317 200.0
188.637451 80.0
188.667664 132.0
188.69606 92.0
188.733139 104.0
188.778839 248.0
188.839798 40.0
188.880829 120.0
188.910919 160.0
189.532425 160.0
189.568054 40.0
189.704025 184.0
189.839447 128.0
190.023224 64.0
190.154953 156.0
190.212585 292.0
190.44223 128.0
190.465057 136.0
190.689499 184.0
190.740005 104.0
190.83226 124.0
190.855484 116.0
190.880234 136.0
190.93248 136.0
191.042511 64.0
191.213104 160.0
191.291611 200.0
191.317703 160.0
191.571075 208.0
191.841141 192.0
191.863205 248.0
191.937637 100.0
192.045197 100.0
192.072784 156.0
192.138992 160.0
192.221771 148.0
192.29628 156.0
192.356598 160.0
192.600006 128.0
192.767059 200.0
192.862518 148.0
192.939911 196.0
192.970322 132.0
193.00351 80.0
193.079224 244.0
193.183289 112.0
193.222015 132.0
193.241379 52.0
193.3078 204.0
193.374222 120.0
193.404663 148.0
193.429581 200.0
193.465561 64.0
193.493256 152.0
193.515396 72.0
193.534775 200.0
193.631699 184.0
193.806229 164.0
193.839478 140.0
193.933716 84.0
194.052917 124.0
194.083359 192.0
194.399658 84.0
194.498764 208.0
194.53566 92.0
194.580078 120.0
194.646637 152.0
194.871704 144.0
195.007874 32.0
195.082932 140.0
195.169113 136.0
195.231506 216.0
195.254105 136.0
195.291489 60.0
195.319305 244.0
195.419449 148.0
195.578079 164.0
195.603134 136.0
195.654404 84.0
195.714493 132.0
195.842606 116.0
195.884384 196.0
195.923386 132.0
195.96109 220.0
196.040421 100.0
196.08786 160.0
196.232758 152.0
196.273727 208.0
196.29689 188.0
196.427979 200.0
196.503296 140.0
196.570267 140.0
196.67598 128.0
196.887573 212.0
196.963928 52.0
197.025391 44.0
197.092453 68.0
197.125977 92.0
197.24057 124.0
197.288101 168.0
197.366379 212.0
197.391556 260.0
197.416718 212.0
197.506226 124.0
197.55098 48.0
197.646103 128.0
197.67688 64.0
197.749649 168.0
197.939819 168.0
198.03894 200.0
198.091263 224.0
198.371506 64.0
198.452805 116.0
198.514496 60.0
198.667358 76.0
198.842743 140.0
198.91011 212.0
198.962326 160.0
199.092606 80.0
199.249908 100.0
199.32016 100.0
199.446625 192.0
199.56752 104.0
199.665939 116.0
199.699692 152.0
199.758759 88.0
199.781265 184.0
199.871292 184.0
199.93602 168.0
200.068314 216.0
200.330231 100.0
200.558487 320.0
200.637405 152.0
200.674057 192.0
200.882767 236.0
200.979752 160.0
201.100037 176.0
201.150848 124.0
201.179077 36.0
201.385223 120.0
201.410645 124.0
201.495392 88.0
201.543427 148.0
201.679077 108.0
201.834564 128.0
201.947296 140.0
201.967499 92.0
202.015579 124.0
202.086319 152.0
202.196671 148.0
202.278763 136.0
202.403336 96.0
202.459976 204.0
202.61293 108.0
202.632767 192.0
202.833237 168.0
202.910522 104.0
202.970062 136.0
203.265076 112.0
203.301971 112.0
203.338867 52.0
203.36441 156.0
203.480804 140.0
203.540421 96.0
203.571671 128.0
203.627045 128.0
203.690948 116.0
203.810272 120.0
203.878479 140.0
204.313538 144.0
204.535507 160.0
204.931366 96.0
204.988358 172.0
205.085251 172.0
205.156525 96.0
205.253464 152.0
205.273422 168.0
205.424271 132.0
205.473083 136.0
205.575806 176.0
205.602142 316.0
205.901276 160.0
206.018387 160.0
206.044098 244.0
206.126236 176.0
206.301315 136.0
206.324173 68.0
206.355637 48.0
206.419998 188.0
206.475739 196.0
206.541519 172.0
206.561539 124.0
206.587387 124.0
206.615891 88.0
206.635925 208.0
206.68457 172.0
206.790451 168.0
206.88205 116.0
206.930725 56.0
207.020477 192.0
207.091095 156.0
207.131195 180.0
207.24292 120.0
207.328888 132.0
207.357559 184.0
207.572571 60.0
207.595001 180.0
207.753265 108.0
207.853683 124.0
207.908218 92.0
208.028763 108.0
208.078613 132.0
208.163712 216.0
208.215408 92.0
208.261368 44.0
208.410751 160.0
208.517075 192.0
208.735565 132.0
208.877914 160.0
208.911026 140.0
209.067352 96.0
209.174576 144.0
209.207443 56.0
209.334137 44.0
209.354294 204.0
209.460861 88.0
209.500397 176.0
209.555923 136.0
209.62796 236.0
209.74614 52.0
209.806198 196.0
209.86145 164.0
209.893173 228.0
209.962387 88.0
210.029282 144.0
210.102646 2440.0
210.193176 76.0
210.268204 100.0
210.351913 96.0
210.551147 52.0
210.577133 136.0
210.828491 152.0
210.93544 232.0
211.033737 156.0
211.10527 800.0
211.169647 72.0
211.343231 180.0
211.36348 188.0
211.424255 168.0
211.705078 196.0
211.751404 132.0
211.841202 216.0
211.967514 148.0
212.01796 120.0
212.055634 160.0
212.100098 1452.0
212.171585 228.0
212.273071 176.0
212.374573 132.0
212.396454 124.0
212.647324 64.0
212.690857 120.0
212.859848 136.0
213.010284 128.0
213.077103 160.0
213.104752 108.0
213.129395 272.0
213.302689 204.0
213.344482 180.0
213.379364 188.0
213.495682 40.0
213.533478 92.0
213.617844 152.0
213.719666 116.0
214.083542 100.0
214.112671 176.0
214.170914 124.0
214.197128 144.0
214.371948 100.0
214.468124 248.0
214.631073 180.0
214.710129 156.0
214.755219 76.0
214.825439 124.0
214.975616 200.0
215.057327 100.0
215.125793 168.0
215.285767 116.0
215.317184 104.0
215.358078 116.0
215.50415 72.0
215.545059 124.0
215.591812 128.0
215.644424 156.0
215.895859 112.0
216.001144 184.0
216.024551 164.0
216.053802 188.0
216.159134 172.0
216.267426 156.0
216.390381 184.0
216.413803 84.0
216.457733 176.0
216.542664 200.0
216.626343 248.0
216.731613 196.0
216.791687 152.0
217.084839 100.0
217.13887 124.0
217.37233 84.0
217.539627 100.0
217.566055 92.0
217.592468 148.0
217.63945 96.0
217.724609 72.0
217.842728 172.0
218.050735 76.0
218.091873 120.0
218.371216 100.0
218.503586 188.0
218.665436 192.0
218.836166 96.0
218.880341 156.0
218.908615 240.0
218.933243 120.0
218.980469 124.0
219.070801 144.0
219.142502 308.0
219.236786 136.0
219.310593 188.0
219.502106 176.0
219.608276 100.0
219.679169 132.0
219.785294 72.0
219.926941 68.0
220.077515 52.0
220.160736 220.0
220.207443 148.0
220.496994 188.0
220.609314 100.0
220.664215 188.0
220.771942 96.0
220.922791 124.0
221.008591 204.0
221.07666 52.0
221.14769 168.0
221.206894 120.0
221.239456 108.0
221.313477 208.0
221.366776 164.0
221.393433 148.0
221.42601 72.0
221.473389 152.0
221.562271 124.0
221.583008 124.0
221.814163 180.0
221.98613 108.0
222.107727 316.0
222.155197 128.0
222.253098 152.0
222.279816 92.0
222.48262 208.0
222.647919 244.0
222.728119 96.0
222.830139 152.0
222.876663 80.0
222.903412 176.0
222.975189 132.0
223.060928 208.0
223.084717 120.0
223.162018 216.0
223.183884 192.0
223.218506 212.0
223.284882 152.0
223.310715 60.0
223.438629 256.0
223.547607 168.0
223.605576 116.0
223.640976 184.0
223.673721 232.0
223.738403 132.0
223.794037 204.0
223.84938 228.0
223.902985 180.0
223.933685 196.0
223.983978 264.0
224.045197 124.0
224.073181 388.0
224.119476 42592.0
224.1884 96.0
224.239456 136.0
224.272675 116.0
224.312408 216.0
224.337234 60.0
224.367844 48.0
224.405823 148.0
224.448502 76.0
224.455078 200.0
224.531845 48.0
224.55571 32.0
224.582336 64.0
224.608536 84.0
224.678009 76.0
224.723557 120.0
224.752045 156.0
224.783997 44.0
224.823563 128.0
224.924103 144.0
224.949585 44.0
225.003311 72.0
225.024216 56.0
225.048111 44.0
225.069 180.0
225.122025 5232.0
225.180588 144.0
225.233688 224.0
225.290024 52.0
225.319901 44.0
225.400574 156.0
225.47229 124.0
225.496201 44.0
225.558975 96.0
225.578781 80.0
225.601929 96.0
225.707535 64.0
225.753326 76.0
225.774261 168.0
225.852097 156.0
225.890915 228.0
225.932785 52.0
225.97467 116.0
225.995621 36.0
226.016571 76.0
226.051041 176.0
226.116058 10980.0
226.289612 144.0
226.318405 148.0
226.353043 108.0
226.380264 188.0
226.447662 68.0
226.477615 116.0
226.591446 124.0
226.669357 112.0
226.71431 152.0
226.799484 204.0
226.819214 232.0
226.852188 112.0
226.885162 40.0
226.993103 152.0
227.041092 192.0
227.06395 160.0
227.118637 1244.0
227.170059 52.0
227.311081 60.0
227.341095 48.0
227.398117 88.0
227.543823 148.0
227.605255 228.0
227.662323 180.0
227.836533 64.0
227.919373 140.0
228.001801 52.0
228.134995 128.0
228.263351 56.0
228.383652 92.0
228.487671 100.0
228.540085 128.0
228.591385 80.0
228.654434 144.0
228.78688 140.0
228.915222 116.0
228.985626 156.0
229.404465 84.0
229.449692 92.0
229.636856 208.0
229.674881 208.0
229.745255 56.0
229.805588 172.0
230.016846 116.0
230.041 180.0
230.238007 196.0
230.30748 80.0
230.345993 116.0
230.539368 168.0
230.560532 44.0
230.772125 32.0
230.865875 168.0
230.956604 84.0
231.092743 172.0
231.329315 192.0
231.440826 128.0
231.477173 168.0
231.804337 60.0
231.875305 124.0
231.951111 140.0
231.996429 148.0
232.082336 180.0
232.480591 220.0
232.504868 80.0
232.528442 164.0
232.602005 156.0
232.638428 212.0
232.668793 164.0
232.714325 212.0
233.036285 160.0
233.306793 64.0
233.340225 160.0
233.391922 112.0
233.467941 92.0
233.556152 204.0
233.690002 144.0
233.805634 88.0
233.933487 204.0
233.997421 148.0
234.073532 128.0
234.247147 120.0
234.308075 76.0
234.43605 192.0
234.527481 48.0
234.56102 140.0
234.893402 144.0
234.945267 128.0
235.003235 156.0
235.026657 212.0
235.106979 160.0
235.23056 188.0
235.290131 196.0
235.43364 104.0
235.482513 228.0
235.506943 152.0
235.601639 60.0
235.65358 44.0
235.702469 168.0
235.861404 44.0
235.934769 212.0
236.124359 100.0
236.164108 144.0
236.21611 112.0
236.252823 164.0
236.379379 144.0
236.458252 148.0
236.488449 128.0
236.532913 168.0
236.687454 76.0
236.715012 116.0
236.773193 192.0
236.920898 144.0
237.001511 144.0
237.036652 176.0
237.094879 116.0
237.116333 64.0
237.220551 120.0
237.343185 256.0
237.367722 128.0
237.429062 36.0
237.475067 160.0
237.677536 144.0
237.721039 136.0
237.763474 120.0
237.794159 92.0
237.82486 216.0
237.90773 204.0
237.935364 144.0
238.076797 160.0
238.134186 18252.0
238.221283 128.0
238.24791 204.0
238.393036 136.0
238.439148 100.0
238.469879 132.0
238.491394 136.0
238.556885 184.0
238.654327 116.0
238.675858 100.0
238.703522 56.0
238.825638 228.0
238.865646 68.0
238.891144 76.0
238.92955 132.0
238.989609 132.0
239.011749 80.0
239.072693 32.0
239.100388 44.0
239.137604 2812.0
239.199951 80.0
239.22966 96.0
239.389771 244.0
239.445206 84.0
239.519012 100.0
239.571503 100.0
239.719406 48.0
239.764511 132.0
239.807861 228.0
239.848846 72.0
239.895081 260.0
239.973099 184.0
239.999817 140.0
240.043076 176.0
240.067749 192.0
240.149857 51592.0
240.22789 48.0
240.23671 72.0
240.24881 208.0
240.290283 88.0
240.317612 48.0
240.355484 88.0
240.361954 152.0
240.392868 228.0
240.428864 160.0
240.499695 52.0
240.526596 84.0
240.565247 152.0
240.599899 96.0
240.621674 196.0
240.661453 152.0
240.7211 236.0
240.758011 140.0
240.807266 100.0
240.889603 120.0
240.961304 176.0
241.01619 100.0
241.043259 192.0
241.086639 144.0
241.153488 6668.0
241.216339 96.0
241.237976 48.0
241.283661 72.0
241.302078 212.0
241.352371 108.0
241.383286 92.0
241.413666 112.0
241.454422 140.0
241.552322 208.0
241.631912 116.0
241.680252 52.0
241.714279 56.0
241.757614 72.0
241.814972 188.0
241.847366 208.0
241.877548 128.0
241.930939 44.0
241.974289 56.0
242.060806 136.0
242.108688 528.0
242.146683 12208.0
242.203461 156.0
242.234436 56.0
242.297623 152.0
242.345963 48.0
242.401749 48.0
242.426529 76.0
242.480484 88.0
242.502869 76.0
242.540207 136.0
242.563629 96.0
242.586563 108.0
242.674622 276.0
242.719971 100.0
242.75647 220.0
242.824814 288.0
242.866791 192.0
242.912628 272.0
242.934204 148.0
242.961807 196.0
242.995605 92.0
243.049835 136.0
243.071564 184.0
243.150726 1392.0
243.248474 260.0
243.27124 72.0
243.310562 72.0
243.450287 28.0
243.499985 100.0
243.533875 56.0
243.554901 88.0
243.821854 120.0
243.863495 36.0
244.04393 208.0
244.090454 76.0
244.130875 92.0
244.161972 124.0
244.197495 124.0
244.218521 220.0
244.270401 196.0
244.455734 132.0
244.494873 60.0
244.554001 116.0
244.662964 204.0
244.734573 132.0
244.787506 128.0
244.908966 72.0
244.999313 76.0
245.041138 84.0
245.189392 88.0
245.239258 100.0
245.298477 104.0
245.432541 120.0
245.707016 120.0
245.809982 44.0
245.859909 204.0
245.984772 76.0
246.043869 120.0
246.203339 120.0
246.284012 120.0
246.33139 156.0
246.412628 252.0
246.462616 300.0
246.568863 176.0
246.870941 212.0
247.250671 124.0
247.364639 172.0
247.632645 132.0
248.332047 164.0
248.499344 152.0
248.629654 184.0
248.968719 120.0
249.03154 40.0
249.053513 56.0
249.166611 112.0
249.207458 128.0
249.297607 168.0
249.361435 112.0
249.446304 124.0
249.616089 116.0
249.685272 184.0
249.707291 184.0
249.90863 220.0
249.930649 172.0
250.050232 56.0
250.188736 136.0
250.406021 220.0
250.661194 160.0
250.69902 180.0
250.743134 132.0
250.837692 180.0
250.913361 92.0
251.041489 132.0
251.164368 136.0
251.285522 112.0
251.500122 180.0
251.569565 112.0
251.623245 104.0
251.755859 60.0
251.923264 48.0
252.042831 152.0
252.132172 104.0
252.283539 144.0
252.454285 144.0
252.520691 92.0
252.685196 36.0
252.720001 92.0
252.804001 96.0
252.988327 200.0
253.115662 120.0
253.321533 40.0
253.413422 176.0
253.532318 176.0
253.641602 164.0
253.733536 44.0
253.778915 152.0
253.798309 84.0
253.945999 196.0
253.987228 56.0
254.044571 156.0
254.123642 100.0
254.145859 216.0
254.310883 64.0
254.555344 116.0
254.888885 140.0
254.939743 136.0
254.968338 156.0
254.990585 180.0
255.15271 116.0
255.235367 104.0
255.317505 152.0
255.431686 88.0
255.444885 64.0
255.514664 184.0
255.553452 116.0
255.623459 80.0
255.750763 156.0
255.80011 120.0
256.030945 240.0
256.075531 60.0
256.158356 96.0
256.311279 92.0
256.355896 108.0
256.763977 108.0
256.819153 228.0
256.933044 60.0
256.96814 212.0
257.073425 60.0
257.128418 124.0
257.201111 84.0
257.635406 96.0
257.849487 64.0
257.977356 136.0
258.082855 152.0
258.108429 84.0
258.143616 52.0
258.396301 128.0
258.482697 132.0
258.658722 100.0
258.732361 140.0
258.860443 32.0
258.908478 140.0
259.075043 112.0
259.113495 108.0
259.209625 148.0
259.264099 148.0
259.571838 136.0
259.686615 128.0
259.729004 148.0
259.77713 100.0
259.802795 36.0
259.825226 152.0
259.879791 132.0
259.902252 204.0
260.017761 72.0
260.043457 120.0
260.114075 192.0
260.325989 168.0
260.354889 72.0
260.438385 172.0
260.467285 120.0
260.541168 148.0
260.669708 60.0
260.711487 112.0
260.88504 92.0
261.077972 104.0
261.13266 60.0
261.332123 176.0
261.38681 136.0
261.444733 196.0
261.480133 176.0
261.608887 208.0
262.036438 208.0
262.069458 132.0
262.130676 176.0
262.48526 192.0
262.5448 204.0
262.57724 116.0
262.691681 188.0
262.853027 236.0
263.027283 52.0
263.253296 32.0
263.561829 200.0
263.93515 188.0
263.983643 92.0
264.177734 272.0
264.28772 136.0
264.358917 72.0
264.430115 180.0
264.530457 108.0
264.773315 148.0
264.889923 140.0
265.421448 192.0
265.521973 152.0
265.544678 224.0
265.658203 100.0
265.680908 100.0
265.83017 108.0
265.992462 168.0
266.073608 188.0
266.112579 120.0
266.35614 28.0
266.645325 60.0
266.921661 84.0
267.139587 108.0
267.269714 124.0
267.403137 128.0
267.60257 188.0
267.836212 48.0
267.891571 112.0
268.028412 120.0
268.155518 232.0
268.237 124.0
268.784943 136.0
268.824097 144.0
269.111359 196.0
269.215851 140.0
269.317108 188.0
269.470642 324.0
269.516388 140.0
269.581726 120.0
269.647095 132.0
269.87323 204.0
269.941345 100.0
270.137573 112.0
270.451721 144.0
270.648163 164.0
271.031158 160.0
271.064148 92.0
271.172302 124.0
271.244598 144.0
271.319824 184.0
271.3526 32.0
271.40506 108.0
271.480499 156.0
271.71994 152.0
271.782288 184.0
271.824951 40.0
271.913544 176.0
271.946381 184.0
272.154327 164.0
272.30426 184.0
272.455383 164.0
272.583527 188.0
272.823456 64.0
272.895782 184.0
272.925385 120.0
273.0625 132.0
273.149017 100.0
273.313507 156.0
273.408966 184.0
273.626221 144.0
273.693451 124.0
273.860016 100.0
274.034607 112.0
274.060974 176.0
274.110413 120.0
274.265289 148.0
274.311462 44.0
274.481506 212.0
274.611511 144.0
275.056976 104.0
275.215454 120.0
275.311218 52.0
275.344238 128.0
275.380554 336.0
275.436707 184.0
275.522614 220.0
275.677917 156.0
275.707642 136.0
275.869629 168.0
275.991943 128.0
276.110992 136.0
276.345856 100.0
276.375641 80.0
276.441833 164.0
276.498077 160.0
276.557678 96.0
276.637115 136.0
276.666901 164.0
276.938446 144.0
276.981506 180.0
277.041138 140.0
277.074249 128.0
277.120636 140.0
277.172943 108.0
277.296295 160.0
277.498505 316.0
277.548248 128.0
277.687531 200.0
277.710754 188.0
277.747223 100.0
277.889893 104.0
278.175293 60.0
278.333618 204.0
278.387787 212.0
278.504028 88.0
278.636475 120.0
278.898102 108.0
278.918213 180.0
279.143982 44.0
279.193787 160.0
279.298462 164.0
279.451508 180.0
279.724396 124.0
279.77356 152.0
279.992401 188.0
280.149841 176.0
280.159241 132.0
280.189972 180.0
280.233948 172.0
280.430573 124.0
280.58725 152.0
280.763977 68.0
280.874847 184.0
280.964111 52.0
281.147644 104.0
281.181122 192.0
281.21106 100.0
281.441406 132.0
281.574982 176.0
281.798798 196.0
282.066162 176.0
282.166443 316.0
282.236664 76.0
282.270111 160.0
282.4039 100.0
282.504242 208.0
282.601257 172.0
282.631378 104.0
282.902466 164.0
282.925903 84.0
283.133514 112.0
283.324463 132.0
283.384766 152.0
283.47522 160.0
283.542267 108.0
283.769684 240.0
283.852112 84.0
284.233093 140.0
284.320343 164.0
284.461334 76.0
284.642639 64.0
284.780334 112.0
284.830719 152.0
284.894531 108.0
285.192841 152.0
285.247375 112.0
285.391968 164.0
285.624023 128.0
285.797089 136.0
285.984039 132.0
286.202881 196.0
286.22644 112.0
286.283691 212.0
286.637756 116.0
286.785706 148.0
286.853119 216.0
286.998077 204.0
287.173462 44.0
287.392731 112.0
287.56485 92.0
287.69986 192.0
287.794403 132.0
287.838318 124.0
288.233521 72.0
288.331543 96.0
288.480255 180.0
288.534363 164.0
289.028168 172.0
289.163544 120.0
289.304077 152.0
289.461456 176.0
289.851013 188.0
290.535919 92.0
290.573242 188.0
290.596985 204.0
290.663757 188.0
290.892242 44.0
291.089172 72.0
291.228424 160.0
291.666748 76.0
291.839691 184.0
292.030579 204.0
292.148285 152.0
292.234711 144.0
292.510376 64.0
292.718048 116.0
292.963287 180.0
293.088196 176.0
293.266571 108.0
293.314301 124.0
293.416565 208.0
293.494995 84.0
293.652985 108.0
293.69278 160.0
294.040802 148.0
294.195923 1436.0
294.395874 88.0
294.50174 128.0
294.587158 144.0
294.628143 160.0
294.669861 96.0
294.706726 92.0
294.904938 136.0
295.000641 108.0
295.081299 148.0
295.194824 924.0
295.373383 236.0
295.434967 112.0
295.823639 140.0
295.972321 120.0
296.119568 136.0
296.19751 532.0
296.335388 180.0
296.506744 28.0
296.681549 64.0
296.743256 112.0
296.784424 124.0
296.99704 136.0
297.194794 236.0
297.288666 96.0
297.31955 128.0
297.353882 64.0
297.425964 144.0
297.556427 184.0
297.651672 156.0
297.762146 140.0
297.941071 200.0
297.996033 104.0
298.178162 112.0
298.215332 168.0
298.3638 180.0
298.542603 96.0
298.638916 184.0
298.776489 120.0
298.85907 112.0
299.179169 132.0
299.203278 132.0
299.385773 148.0
299.788818 152.0
300.023224 152.0
300.066376 96.0
300.116302 128.0
300.252838 156.0
300.464661 112.0
300.537109 112.0
300.564728 44.0
300.688965 152.0
300.792511 140.0
300.900818 116.0
300.992767 124.0
301.193085 188.0
301.355438 128.0
301.421112 100.0
301.555878 60.0
301.593903 80.0
301.780579 52.0
301.856659 136.0
301.912109 112.0
301.984619 164.0
302.126465 124.0
302.249664 120.0
302.279419 172.0
302.327148 116.0
302.48291 88.0
302.51059 124.0
302.631775 52.0
302.7547 120.0
303.34201 120.0
303.504944 96.0
303.629791 64.0
303.661011 188.0
303.796295 88.0
303.869141 60.0
304.171082 116.0
304.216187 64.0
304.407166 204.0
304.528717 136.0
304.8414 36.0
304.900482 152.0
305.143799 140.0
305.216827 128.0
305.328125 136.0
305.543793 180.0
305.90451 164.0
305.950989 72.0
306.123871 208.0
306.403717 112.0
306.609314 76.0
306.696472 136.0
306.933533 172.0
307.062561 124.0
307.153259 148.0
307.163574 96.0
307.177765 144.0
307.643433 136.0
307.788452 88.0
307.851837 132.0
307.928131 184.0
307.997986 168.0
308.02594 188.0
308.16568 180.0
308.212708 9560.0
308.316986 68.0
308.399841 40.0
308.606079 152.0
308.637573 96.0
308.75177 200.0
308.794922 164.0
308.889374 152.0
308.994324 48.0
309.046234 192.0
309.075623 84.0
309.098724 120.0
309.136749 40.0
309.216675 2624.0
309.277771 64.0
309.316284 224.0
309.361786 136.0
309.442322 76.0
309.669952 88.0
309.713959 92.0
309.775024 136.0
309.814606 200.0
309.880127 116.0
310.027313 108.0
310.051849 168.0
310.086884 56.0
310.146484 132.0
310.211792 2264.0
310.291656 252.0
310.334412 72.0
310.423462 148.0
310.472534 48.0
310.514618 76.0
310.56723 160.0
310.70755 96.0
310.791779 116.0
310.819855 68.0
310.921783 76.0
311.030426 68.0
311.104126 48.0
311.132111 192.0
311.221802 324.0
311.304291 96.0
311.328857 52.0
311.353455 124.0
311.38858 108.0
311.450043 128.0
311.539307 88.0
311.680145 76.0
311.737122 116.0
311.771515 52.0
312.024597 156.0
312.078583 136.0
312.222198 176.0
312.29187 200.0
312.344635 40.0
312.415955 160.0
312.446655 184.0
312.586243 212.0
312.689453 36.0
312.766876 112.0
312.953491 88.0
313.069672 160.0
313.143646 68.0
313.178864 108.0
313.232178 180.0
313.302155 196.0
313.383209 144.0
313.492432 148.0
313.569977 56.0
313.739166 176.0
314.165894 128.0
314.23645 80.0
314.310547 172.0
314.501129 132.0
314.529358 208.0
314.75885 168.0
314.840088 68.0
314.864807 136.0
315.108551 104.0
315.359436 52.0
315.469025 220.0
315.571747 156.0
315.815582 136.0
316.047302 216.0
316.264954 92.0
316.378235 168.0
316.487976 196.0
316.68631 160.0
316.781952 36.0
317.08667 44.0
317.143372 156.0
317.274536 164.0
317.348999 100.0
317.673828 224.0
317.884613 80.0
318.083374 144.0
318.165039 172.0
318.282196 148.0
318.584106 200.0
318.665833 100.0
318.857727 164.0
319.046539 64.0
319.095886 228.0
319.700592 124.0
319.732635 156.0
319.914154 108.0
320.013855 128.0
320.138489 48.0
320.206482 256.0
320.49115 124.0
320.615875 112.0
320.65152 188.0
320.680023 112.0
320.722778 172.0
320.983063 100.0
321.057953 80.0
321.207733 132.0
321.39328 140.0
321.432709 140.0
321.739471 136.0
321.825165 140.0
321.98587 108.0
322.243073 148.0
322.40744 152.0
322.443176 148.0
322.486084 100.0
322.557556 160.0
322.614746 144.0
322.675537 188.0
322.732727 116.0
322.782806 148.0
322.88797 204.0
322.972351 180.0
323.026001 132.0
323.058197 192.0
323.573578 72.0
323.652344 152.0
323.912415 168.0
323.985443 80.0
324.010498 36.0
324.06424 200.0
324.121582 116.0
324.350952 120.0
324.451324 96.0
324.73822 160.0
324.802704 200.0
324.921173 84.0
324.969482 184.0
325.096558 144.0
325.140045 96.0
325.290802 88.0
325.36261 164.0
325.4021 160.0
325.560089 88.0
325.822296 136.0
325.95166 188.0
326.242798 88.0
326.329071 200.0
326.365051 160.0
326.415375 136.0
326.54126 44.0
326.728302 152.0
326.839844 192.0
326.937012 80.0
327.127777 192.0
327.181763 216.0
327.264587 120.0
327.37384 152.0
327.655884 80.0
327.747253 48.0
327.874573 180.0
328.028381 128.0
328.39978 76.0
328.482758 192.0
328.659515 80.0
328.785828 80.0
328.82193 44.0
328.92511 136.0
328.995178 112.0
329.536926 152.0
329.576691 144.0
329.703156 128.0
329.87442 136.0
330.173157 208.0
330.632629 64.0
330.860687 92.0
330.925842 132.0
330.951874 204.0
331.20108 144.0
331.313385 180.0
331.349609 196.0
331.374969 132.0
331.538025 104.0
331.875153 188.0
332.100006 132.0
332.219727 72.0
332.44104 156.0
332.477356 100.0
332.88031 96.0
333.080078 252.0
333.168213 200.0
333.199951 208.0
333.261719 64.0
333.303345 132.0
333.46521 196.0
333.541565 168.0
333.8797 176.0
334.316864 124.0
334.34137 188.0
334.403625 108.0
334.501892 168.0
334.720337 148.0
334.889282 72.0
334.965393 184.0
335.084595 28.0
335.138031 212.0
335.244934 88.0
335.27771 132.0
335.497101 220.0
335.576111 136.0
335.717621 164.0
335.81366 140.0
335.861084 148.0
335.893921 76.0
335.985138 128.0
336.14566 232.0
336.204956 156.0
336.24054 60.0
336.313538 40.0
336.379272 96.0
336.432587 228.0
336.500793 240.0
336.548889 180.0
336.620789 148.0
336.72226 120.0
336.777588 192.0
336.816559 148.0
336.856079 132.0
336.881653 84.0
336.934174 168.0
336.992828 124.0
337.025848 200.0
337.05368 104.0
337.119843 236.0
337.173065 212.0
337.245117 228.0
337.297974 104.0
337.30722 140.0
337.320496 200.0
337.399384 212.0
337.427765 100.0
337.487976 160.0
337.529602 164.0
337.543274 88.0
337.576721 324.0
337.638763 304.0
337.675537 100.0
337.681824 76.0
337.700317 136.0
337.715179 80.0
337.747742 112.0
337.765656 152.0
337.80658 96.0
337.888336 112.0
337.916382 372.0
337.960297 304.0
338.033295 220.0
338.083679 268.0
338.121979 508.0
338.182648 724.0
338.209137 820.0
338.260773 218800.0
338.35498 164.0
338.380554 116.0
338.388641 96.0
338.486572 92.0
338.523895 248.0
338.548981 152.0
338.556396 224.0
338.609589 216.0
338.662628 596.0
338.714813 396.0
338.742218 296.0
338.806549 124.0
338.865051 1776.0
338.903992 312.0
338.945404 168.0
339.007751 220.0
339.048676 144.0
339.153778 196.0
339.203278 472.0
339.263428 44708.0
339.366119 232.0
339.389587 176.0
339.482666 104.0
339.541473 216.0
339.575562 132.0
339.593842 188.0
339.623535 104.0
339.649414 128.0
339.721405 192.0
339.746674 96.0
339.7901 288.0
339.817963 100.0
339.859589 196.0
339.908386 176.0
339.9375 156.0
339.989441 160.0
340.015747 184.0
340.046021 140.0
340.073059 152.0
340.088257 80.0
340.11969 204.0
340.165222 168.0
340.196503 440.0
340.257874 69428.0
340.358093 124.0
340.391266 128.0
340.435059 136.0
340.524689 104.0
340.552582 128.0
340.619781 104.0
340.655518 176.0
340.692871 232.0
340.729034 64.0
340.779968 224.0
340.814484 196.0
340.87085 108.0
340.936554 156.0
340.985962 228.0
341.05127 208.0
341.116516 236.0
341.160278 96.0
341.259735 8484.0
341.325562 384.0
341.363525 56.0
341.404266 152.0
341.417725 148.0
341.471619 340.0
341.568665 176.0
341.595642 124.0
341.641174 180.0
341.676697 136.0
341.705933 124.0
341.759674 156.0
341.79776 56.0
341.852814 132.0
341.887634 140.0
341.958221 52.0
341.988953 80.0
342.037811 88.0
342.101196 52.0
342.144226 60.0
342.171112 116.0
342.26593 176.0
342.312012 40.0
342.356323 84.0
342.40625 116.0
342.41568 80.0
342.43158 120.0
342.48288 88.0
342.516174 164.0
342.541687 140.0
342.625793 96.0
342.699066 68.0
342.729218 144.0
342.785217 64.0
342.818787 60.0
342.851807 140.0
342.908722 60.0
342.949524 88.0
343.01535 108.0
343.05069 96.0
343.085388 144.0
343.129181 124.0
343.169586 124.0
343.208008 80.0
343.243958 56.0
343.327667 120.0
343.383728 164.0
343.477844 152.0
343.489655 116.0
343.559296 120.0
343.5896 124.0
343.614441 72.0
343.66803 128.0
343.756714 120.0
343.830505 52.0
343.96109 100.0
344.00769 64.0
344.037231 36.0
344.074127 104.0
344.114746 60.0
344.14798 152.0
344.173828 40.0
344.306763 132.0
344.341492 80.0
344.461914 100.0
344.559204 144.0
344.602295 124.0
344.657715 52.0
344.739014 52.0
344.783356 84.0
344.874023 68.0
344.951538 48.0
345.001465 48.0
345.075409 52.0
345.14566 84.0
345.215912 216.0
345.241791 72.0
345.336853 120.0
345.608032 40.0
345.68573 48.0
346.166962 52.0
346.396606 56.0
346.455872 72.0
346.527924 72.0
346.541565 32.0
346.550659 76.0
346.64856 96.0
346.811615 56.0
346.848694 72.0
346.880432 136.0
346.941376 148.0
347.338165 104.0
347.453186 52.0
347.590454 68.0
347.727783 68.0
348.849548 32.0
348.998291 52.0
349.173065 44.0
349.459503 56.0
349.519043 64.0
349.552521 40.0
349.62323 96.0
349.664185 116.0
349.757233 60.0
350.591522 44.0
350.796539 96.0
350.949402 88.0
351.061249 112.0
351.161957 72.0
351.844849 28.0
352.169739 96.0
352.214539 108.0
352.341553 72.0
353.033081 80.0
353.13031 88.0
353.201385 88.0
353.250031 64.0
353.470764 96.0
353.583038 80.0
353.612976 48.0
353.684082 28.0
353.717773 76.0
353.807617 108.0
353.882507 64.0
353.953644 120.0
354.07724 164.0
354.107208 76.0
354.208344 84.0
354.250275 140.0
354.319427 128.0
354.378387 92.0
355.098236 48.0
355.167938 76.0
355.366791 108.0
355.591949 68.0
355.843445 60.0
355.957977 120.0
356.128845 80.0
356.158905 40.0
356.346741 80.0
356.558594 100.0
356.583496 132.0
357.087311 32.0
357.279144 52.0
357.399567 48.0
357.752808 56.0
357.83847 88.0
358.419983 32.0
358.94397 68.0
359.449432 40.0
359.687225 64.0
359.770264 80.0
359.826904 84.0
359.864655 52.0
360.495483 124.0
360.567291 84.0
360.646667 76.0
360.971802 44.0
363.282227 72.0
364.554199 52.0
365.379333 44.0
365.946442 76.0
366.544464 36.0
366.582581 56.0
367.116272 32.0
368.899384 36.0
369.591644 52.0
369.920807 52.0
370.204132 112.0
370.234772 60.0
371.637787 60.0
371.871887 104.0
372.194366 76.0
372.80899 84.0
373.024261 120.0
373.131897 64.0
373.171356 60.0
373.593414 52.0
373.654968 56.0
373.75116 88.0
374.097534 60.0
374.263092 100.0
376.638794 68.0
377.578033 52.0
382.354004 36.0
384.833282 60.0
388.237732 52.0
388.520142 80.0
389.010681 48.0
389.258057 204.0
389.309113 76.0
390.03598 100.0
390.857941 92.0
391.897461 76.0
394.320496 48.0
395.491272 256.0
397.135651 84.0
399.129303 120.0
401.131927 28.0
401.359192 40.0
401.610443 100.0
402.37265 72.0
403.547302 64.0
405.100159 72.0
406.098297 88.0
406.591797 72.0
408.041901 84.0
408.645233 128.0
410.937805 52.0
411.313141 84.0
413.686066 92.0
414.200348 104.0
414.402893 36.0
415.262329 104.0
420.319214 116.0
421.111206 68.0
422.615631 100.0
426.376068 52.0
426.536377 76.0
426.939301 40.0
429.059906 88.0
437.740662 104.0
438.111359 60.0
438.286346 120.0
440.865265 76.0
441.333466 56.0
443.342804 96.0
443.644592 48.0
447.06369 92.0
448.377655 120.0
449.541656 36.0
452.106873 104.0
452.991821 92.0
453.788574 64.0
455.231293 144.0
455.838776 60.0
456.161804 88.0
456.340363 48.0
457.931946 92.0
458.306824 60.0
458.788452 56.0
459.248993 104.0
462.188263 104.0
465.854065 76.0
467.840881 128.0
468.043243 88.0
469.43515 28.0
470.095154 128.0
470.1297 76.0
471.701874 40.0
473.077545 52.0
478.204041 92.0
479.031403 100.0
480.670746 32.0
481.819092 76.0
482.22113 64.0
483.340698 100.0
484.400208 48.0
485.09259 76.0
485.601257 68.0
485.781097 52.0
488.575134 56.0
488.97998 72.0
489.318939 48.0
491.280151 64.0
491.920044 76.0
492.507355 88.0
492.564758 64.0
492.622192 68.0
496.295654 68.0
498.568512 76.0
498.83075 108.0
501.332184 64.0
501.550598 72.0
502.268494 64.0
504.201843 56.0
504.769592 128.0
504.935059 36.0
505.006622 68.0
505.923981 52.0
508.999786 36.0
509.170441 60.0
511.814697 68.0
520.714722 104.0
521.355347 96.0
522.828857 64.0
523.320435 76.0
523.757629 48.0
523.821411 52.0
525.302979 120.0
527.321228 96.0
528.185913 80.0
528.578918 100.0
530.956543 56.0
531.396912 80.0
532.553772 68.0
533.532593 104.0
533.92804 124.0
536.354492 56.0
542.637207 56.0
543.694824 80.0
544.21936 104.0
544.525879 76.0
545.278564 32.0
545.873657 124.0
546.180603 52.0
546.408569 132.0
551.888977 92.0
552.239746 64.0
552.581238 60.0
554.037292 68.0
557.956116 44.0
560.262207 48.0
564.62854 72.0
569.515137 48.0
571.078979 168.0
571.911621 80.0
574.589844 124.0
577.083008 56.0
582.652344 64.0
585.524109 128.0
586.67572 92.0
588.924438 64.0
590.219666 48.0
592.45575 152.0
593.197266 44.0
594.259338 68.0
594.579651 64.0
596.663513 144.0
597.641174 88.0
598.833862 64.0
599.092041 64.0
602.663452 80.0
602.868652 80.0
603.367249 84.0
605.074707 92.0
605.510559 60.0
608.114014 76.0
610.580505 56.0
614.827332 68.0
615.429565 116.0
615.548096 124.0
616.723938 124.0
620.803589 44.0
621.150757 92.0
622.416382 48.0
623.037231 52.0
623.390015 76.0
624.274902 120.0
625.981812 160.0
627.272217 48.0
627.431763 96.0
633.148254 68.0
633.64917 48.0
635.037781 44.0
638.171448 84.0
638.442993 72.0
639.091919 48.0
639.197571 52.0
639.524719 164.0
642.260803 40.0
645.341431 28.0
648.556152 76.0
648.728455 132.0
650.438049 208.0
650.803589 60.0
653.131165 208.0
656.395813 76.0
658.181824 28.0
659.121704 108.0
660.358887 60.0
660.532837 56.0
665.175537 192.0
668.269409 52.0
668.77887 80.0
669.262817 108.0
669.808716 88.0
670.488831 68.0
672.670715 192.0
673.357422 168.0
674.819885 116.0
684.153564 44.0
685.987305 116.0
691.027161 20.0
691.356812 52.0
692.199646 208.0
692.650085 112.0
693.635254 32.0
696.857544 108.0
699.518738 88.0
699.602966 56.0
700.0979 68.0
701.119934 76.0
701.515259 88.0
702.622803 160.0
704.808716 192.0
705.17334 96.0
705.353088 52.0
705.908203 72.0
706.870972 124.0
708.083374 92.0
708.9151 56.0
709.052917 276.0
709.128479 172.0
710.44751 92.0
712.650818 116.0
714.878906 216.0
714.995972 60.0
715.53894 96.0
718.150146 240.0
719.014526 48.0
721.23645 32.0
723.108521 60.0
725.347473 60.0
725.481506 196.0
725.56189 116.0
725.626221 128.0
726.704346 88.0
727.020935 60.0
727.654358 88.0
728.954224 160.0
729.663757 32.0
730.47583 200.0
731.299072 104.0
732.769226 52.0
734.69397 176.0
735.589844 100.0
739.215698 136.0
739.84436 48.0
740.900452 156.0
742.43988 124.0
746.746765 240.0
747.437683 112.0
748.477417 52.0
751.638977 44.0
751.939148 168.0
753.877991 188.0
754.156677 64.0
761.938293 56.0
762.806641 72.0
763.400452 148.0
768.021362 48.0
771.931641 120.0
773.181885 76.0
779.698547 124.0
780.838318 76.0
781.611572 216.0
782.251648 60.0
783.933716 116.0
785.628784 120.0
789.717773 84.0
790.584961 160.0
791.648682 172.0
791.867065 172.0
793.251099 88.0
793.436096 64.0
794.507324 244.0
794.989868 72.0
796.893494 100.0
798.186279 88.0
798.878113 208.0
799.587097 168.0
800.566711 92.0
804.575806 112.0
804.779053 112.0
805.0896 40.0
808.181763 204.0
810.055786 200.0
811.863892 128.0
812.243896 56.0
813.043884 68.0
814.151001 88.0
816.191101 76.0
821.06012 44.0
821.362427 152.0
825.080139 76.0
826.069458 140.0
826.401306 100.0
826.824768 216.0
832.586609 84.0
833.161011 80.0
833.385132 144.0
833.52301 56.0
835.032593 100.0
836.605896 88.0
837.066528 40.0
837.13562 100.0
841.004272 136.0
841.235168 60.0
841.783691 64.0
848.055176 124.0
849.058228 72.0
849.377197 212.0
849.562866 160.0
849.823914 212.0
851.089294 56.0
852.123169 160.0
852.68103 180.0
854.536072 224.0
856.171814 64.0
856.241699 156.0
857.937378 64.0
858.269714 108.0
859.885681 88.0
860.434387 208.0
860.5979 124.0
861.3396 240.0
864.104797 140.0
864.198425 92.0
864.730957 148.0
865.925415 96.0
869.243652 116.0
869.554688 120.0
870.958008 136.0
871.962708 72.0
874.456543 84.0
877.814636 64.0
877.926697 188.0
877.985657 60.0
878.410339 72.0
879.218689 184.0
879.478394 28.0
879.79126 204.0
880.92511 140.0
881.25116 108.0
881.965149 100.0
883.632812 32.0
887.066284 176.0
887.559875 80.0
888.87085 44.0
890.960876 212.0
892.274292 188.0
893.517334 224.0
894.87439 224.0
897.036987 148.0
897.573608 144.0
897.859863 156.0
904.893188 108.0
905.300415 136.0
910.349915 144.0
912.471008 52.0
913.53009 192.0
914.787231 76.0
917.214905 224.0
917.896179 172.0
918.306274 76.0
919.265564 184.0
919.742371 212.0
921.536011 108.0
921.856262 196.0
922.81134 148.0
923.355591 68.0
923.664062 256.0
926.309387 180.0
926.612305 172.0
926.866821 200.0
928.533936 184.0
929.431763 180.0
931.489929 128.0
933.939636 196.0
934.085632 72.0
937.793945 168.0
942.102112 144.0
942.370911 164.0
942.633667 180.0
943.599426 196.0
945.752808 116.0
946.003784 108.0
946.830444 156.0
949.459656 36.0
949.668213 160.0
951.582886 48.0
952.626953 156.0
952.921814 172.0
953.481018 132.0
953.800659 108.0
957.141418 92.0
960.631287 168.0
962.629639 168.0
963.914551 160.0
964.588257 104.0
964.650024 144.0
964.959167 144.0
965.422913 156.0
969.06897 140.0
971.455872 164.0
971.797119 44.0
972.175659 252.0
972.349426 68.0
972.951538 48.0
975.803284 44.0
977.264954 184.0
977.918396 112.0
978.173584 104.0
978.540894 196.0
979.767822 212.0
984.739563 184.0
985.882874 56.0
986.601685 132.0
987.339539 72.0
988.446838 160.0
989.460815 208.0
990.249878 40.0
991.302368 44.0
991.678406 124.0
993.195862 272.0
994.369141 140.0
994.752075 240.0
995.938904 128.0
996.177612 68.0
996.730469 116.0
997.723572 160.0
998.383789 224.0
999.113464 144.0
999.988159 184.0
1000.825439 136.0
1001.367065 176.0
1002.885559 36.0
1003.888 180.0
1004.5755 176.0
1004.922485 100.0
1007.384766 164.0
1008.098694 108.0
1008.92041 228.0
1010.488953 176.0
1013.800659 168.0
1013.845032 128.0
1015.011475 132.0
1017.225769 180.0
1017.543213 120.0
1018.18457 128.0
1019.042114 196.0
1020.020813 124.0
1020.376831 144.0
1020.434082 212.0
1021.787292 188.0
1023.061646 48.0
1024.36084 168.0
1024.628418 144.0
1025.431274 144.0
1026.075073 196.0
1026.508667 40.0
1028.850464 76.0
1029.329224 220.0
1029.584717 60.0
1031.047729 160.0
1032.275269 48.0
1032.473511 196.0
1034.092163 124.0
1035.78894 236.0
1035.904297 208.0
1037.230835 208.0
1038.80835 148.0
1039.424194 116.0
1041.562256 204.0
1041.626465 184.0
1042.153198 92.0
1043.11084 44.0
1043.329468 428.0
1044.165405 216.0
1045.213989 60.0
1045.516479 152.0
1045.664429 60.0
1045.80603 92.0
1045.979858 164.0
1046.391846 160.0
1046.778198 68.0
1047.377197 184.0
1047.44165 140.0
1047.699341 68.0
1048.408081 76.0
1048.781982 116.0
1050.329468 108.0
1051.064941 260.0
1051.56189 120.0
1051.949219 116.0
1052.039551 56.0
1053.395752 148.0
1053.654175 204.0
1054.416626 128.0
1054.88208 144.0
1055.224731 36.0
1055.923096 224.0
1056.776978 184.0
1057.352905 176.0
1057.484863 136.0
1058.641235 164.0
1059.749023 160.0
1061.447266 128.0
1061.687256 132.0
1063.497437 132.0
1063.679199 132.0
1063.796021 56.0
1064.711548 128.0
1064.796021 180.0
1065.510498 196.0
1065.744385 92.0
1066.186279 148.0
1067.148438 176.0
1067.493042 164.0
1068.019897 116.0
1068.442749 88.0
1069.262573 220.0
1069.731201 176.0
1070.356323 172.0
1070.786133 224.0
1070.992676 136.0
1071.854492 96.0
1072.271606 140.0
1073.471191 104.0
1073.77771 196.0
1073.875488 224.0
1074.234253 192.0
1075.293579 176.0
1075.807007 164.0
1076.610229 136.0
1077.714111 144.0
1078.119385 120.0
1078.413452 208.0
1078.63562 124.0
1079.394043 180.0
1080.48645 220.0
1080.61731 56.0
1080.931396 180.0
1081.651245 136.0
1082.050659 168.0
1082.391113 52.0
1083.209839 152.0
1083.301514 172.0
1084.107422 132.0
1084.474487 96.0
1084.717041 112.0
1085.051392 168.0
1085.195557 140.0
1085.962891 152.0
1087.911743 180.0
1089.205444 136.0
1089.27771 144.0
1089.822998 44.0
1089.947876 228.0
1090.19104 112.0
1091.122681 148.0
1091.933228 56.0
1092.387085 144.0
1094.150879 164.0
1094.585449 64.0
1094.664429 48.0
1095.072754 196.0
1095.151855 112.0
1095.257202 140.0
1095.553589 44.0
1096.15979 144.0
1096.41687 188.0
1097.458374 192.0
1097.511108 200.0
1098.170654 148.0
1098.658813 40.0
1099.592285 172.0
1100.057861 148.0
1100.209717 164.0
1100.737915 116.0
1101.002075 208.0
1101.266968 176.0
1101.523926 132.0
1102.376221 120.0
1102.581055 176.0
1102.666992 164.0
1103.089966 176.0
1103.189209 200.0
1104.101685 112.0
1106.344849 128.0
1106.92749 192.0
1107.099731 160.0
1108.173462 156.0
1109.266357 172.0
1109.975708 220.0
1110.367065 160.0
1110.612427 172.0
1111.083496 192.0
1111.14978 148.0
1111.886353 60.0
1112.749268 60.0
1113.141113 160.0
1113.526245 124.0
1114.469604 96.0
1115.699219 196.0
1117.401855 204.0
1117.628052 196.0
1118.646362 124.0
1119.085693 196.0
1119.631836 160.0
1119.758301 88.0
1119.878174 168.0
1120.171265 92.0
1120.324585 144.0
1120.564331 140.0
1120.651001 228.0
1121.66394 172.0
1121.950684 132.0
1122.217285 148.0
1122.450684 164.0
1122.497437 36.0
1122.997559 228.0
1123.624634 168.0
1124.352051 120.0
1124.62561 172.0
1124.845947 128.0
1126.20813 220.0
1126.508789 164.0
1126.781372 172.0
1128.13269 172.0
1128.366699 176.0
1128.460205 40.0
1129.302856 116.0
1129.570435 172.0
1130.339844 156.0
1130.453613 80.0
1130.681152 140.0
1131.69873 64.0
1131.90625 56.0
1132.160767 84.0
1132.522461 188.0
1132.984619 72.0
1133.741821 148.0
1133.895996 232.0
1134.123901 100.0
1134.17749 124.0
1134.371826 200.0
1135.116089 172.0
1135.72644 124.0
1135.880737 204.0
1136.269775 212.0
1136.887207 136.0
1138.008179 236.0
1138.075317 136.0
1138.558838 152.0
1138.605835 156.0
1138.861084 184.0
1139.57312 148.0
1139.626953 220.0
1139.835205 192.0
1140.574585 156.0
1140.991333 160.0
1141.549438 156.0
1141.845337 204.0
1142.067261 92.0
1142.531494 152.0
1142.780396 208.0
1142.962036 36.0
1143.089966 180.0
1143.776489 164.0
1144.261108 216.0
1144.395752 156.0
1145.123169 112.0
1145.406006 144.0
1146.025879 212.0
1146.942383 156.0
1147.057007 132.0
1148.51355 156.0
1149.073486 212.0
1149.781982 168.0
1150.294922 60.0
1150.593262 176.0
1151.557617 140.0
1151.713013 180.0
1151.760254 128.0
1151.807617 132.0
1151.854858 84.0
1152.537231 176.0
1152.591309 168.0
1152.960571 232.0
1153.300903 128.0
1153.358276 204.0
1154.159546 152.0
1154.308228 156.0
1154.389404 144.0
1155.106323 140.0
1155.965698 136.0
1156.297241 136.0
1156.36499 72.0
1156.88623 132.0
1156.994507 196.0
1157.329712 132.0
1157.969604 148.0
1158.613159 172.0
1159.080688 196.0
1159.256836 104.0
1159.378784 340.0
1160.483765 168.0
1161.446777 140.0
1161.792725 144.0
1161.989502 88.0
1162.111572 84.0
1162.817383 132.0
1163.414795 188.0
1163.781372 144.0
1163.944336 176.0
1164.412964 204.0
1166.736938 148.0
1168.511963 172.0
1168.7229 208.0
1169.001953 100.0
1169.212891 224.0
1170.186401 308.0
1170.731079 144.0
1171.534912 48.0
1173.190918 152.0
1173.722778 112.0
1173.784058 144.0
1174.55481 160.0
1175.564575 68.0
1176.213013 96.0
1176.595215 208.0
1177.312256 172.0
1178.179688 96.0
1178.34375 48.0
1179.184204 180.0
1179.293579 152.0
1179.649048 144.0
1179.901978 116.0
1181.365479 40.0
1181.707642 32.0
1181.871826 184.0
1181.919678 164.0
1182.118164 128.0
1182.236816 188.0
1182.679443 120.0
1182.973755 196.0
1183.494141 148.0
1183.843262 132.0
1184.151489 156.0
1184.548828 52.0
1184.616699 132.0
1186.13855 164.0
1186.481323 184.0
1186.844727 164.0
1187.259033 172.0
1188.051514 128.0
1188.223389 124.0
1188.35376 168.0
1188.5802 160.0
1188.648804 68.0
1189.033203 152.0
1189.129272 172.0
1189.197876 144.0
1189.355713 208.0
1190.138428 176.0
1190.873169 132.0
1191.093018 116.0
1191.175415 120.0
1191.340332 156.0
1191.745728 328.0
1193.030396 152.0
1193.216553 132.0
1193.326538 124.0
1193.794189 180.0
1194.770874 172.0
1194.861084 180.0
1195.025513 152.0
1195.183716 192.0
1195.46582 200.0
1195.582886 160.0
1196.422607 148.0
1196.704956 116.0
1197.021606 120.0
1197.359131 156.0
1197.565796 120.0
1198.05481 160.0
1198.234009 96.0
1198.378662 32.0
1198.468262 200.0
1199.095337 88.0
1199.205566 112.0
1199.515747 140.0
1199.874268 96.0
1200.591431 128.0
1200.784546 164.0
1200.970703 208.0
1201.23291 88.0
1201.446777 164.0
1201.522583 188.0
1202.399414 208.0
1203.669312 128.0
1204.014526 108.0
1204.125 156.0
1204.283936 176.0
1204.774414 156.0
1204.891846 176.0
1205.085327 132.0
1206.571289 148.0
1207.0 220.0
1207.110596 216.0
1207.394165 132.0
1208.203491 296.0
1208.77771 196.0
1208.867676 136.0
1209.57373 156.0
1210.037476 164.0
1210.321411 132.0
1210.681519 136.0
1210.792358 196.0
1211.678955 148.0
1211.852173 184.0
1211.900757 208.0
1212.389282 136.0
1212.579834 172.0
1213.152466 144.0
1213.806885 56.0
1214.444946 152.0
1214.798706 192.0
1214.972168 164.0
1215.034668 228.0
1215.17334 168.0
1215.360718 104.0
1215.62439 144.0
1216.269897 184.0
1217.526611 208.0
1218.422729 136.0
1218.651978 140.0
1218.929932 100.0
1220.229736 136.0
1220.542603 100.0
1220.730347 116.0
1220.883423 168.0
1221.265869 56.0
1221.432861 180.0
1222.177246 136.0
1223.583252 196.0
1223.65979 204.0
1224.404907 160.0
1224.646606 148.0
1225.198975 104.0
1225.380127 204.0
1225.617065 76.0
1226.111816 200.0
1226.61377 148.0
1226.948364 108.0
1227.066895 136.0
1227.5271 168.0
1227.631714 80.0
1227.76416 204.0
1228.015259 252.0
1228.196655 188.0
1228.412842 168.0
1228.477051 144.0
1228.789551 160.0
1229.312988 132.0
1229.724731 200.0
1229.955078 140.0
1230.101685 188.0
1230.320679 212.0
1230.995361 128.0
1231.211792 56.0
1231.302612 164.0
1231.714722 176.0
1231.90332 128.0
1232.343506 156.0
1233.210083 48.0
1233.440674 160.0
1234.54541 196.0
1234.748291 96.0
1235.111938 128.0
1235.160889 68.0
1236.287476 276.0
1237.820557 240.0
1238.296753 52.0
1238.450806 184.0
1238.5979 128.0
1238.850098 168.0
1238.969238 56.0
1239.235474 156.0
1239.936279 28.0
1240.125488 132.0
1240.286743 172.0
1240.36377 192.0
1240.665283 196.0
1240.771362 176.0
1240.952759 32.0
1241.345337 104.0
1241.420654 224.0
1241.632935 152.0
1242.025757 132.0
1242.27124 164.0
1243.014893 160.0
1243.162354 136.0
1243.90625 160.0
1244.004639 120.0
1244.123901 36.0
1244.20813 152.0
1244.404785 132.0
1244.987549 196.0
1245.387939 76.0
1245.802368 160.0
1246.04834 220.0
1246.63147 172.0
1246.849365 224.0
1247.109375 164.0
1247.158691 184.0
1247.312866 152.0
1247.692871 120.0
1247.854614 164.0
1248.037476 176.0
1248.274048 192.0
1248.487427 88.0
1249.047485 248.0
1250.042236 196.0
1250.147705 124.0
1250.54187 148.0
1251.182495 204.0
1251.233765 228.0
1251.330322 164.0
1251.921875 104.0
1252.259888 168.0
1252.379639 152.0
1252.770874 140.0
1253.47168 156.0
1254.127075 144.0
1254.525757 200.0
1254.796753 164.0
1255.057739 44.0
1255.304443 132.0
1255.600708 80.0
1255.77002 148.0
1255.974487 136.0
1256.108521 104.0
1256.665894 160.0
1258.070435 64.0
1258.43042 256.0
1258.606934 144.0
1258.712891 92.0
1258.974243 160.0
1259.482666 232.0
1259.673462 192.0
1259.941895 248.0
1260.408203 140.0
1260.500122 176.0
1260.712158 192.0
1260.782715 116.0
1260.832275 136.0
1261.213867 68.0
1261.355347 72.0
1261.652222 56.0
1261.751221 188.0
1262.500732 240.0
1262.73645 180.0
1262.84021 136.0
1263.514893 84.0
1263.660767 148.0
1263.858887 40.0
1264.064087 144.0
1264.31189 176.0
1264.885132 176.0
1265.302856 176.0
1265.479858 152.0
1265.699341 164.0
1265.748901 164.0
1265.82373 200.0
1265.975586 168.0
1266.471313 132.0
1267.109497 212.0
1267.25061 44.0
1267.852905 160.0
1268.214355 96.0
1268.313477 188.0
1268.505005 172.0
1269.447998 48.0
1269.710449 68.0
1270.277832 144.0
1271.100952 80.0
1271.455688 196.0
1272.141479 172.0
1272.54187 124.0
1272.598633 136.0
1272.648315 176.0
1273.19519 116.0
1273.457886 156.0
1274.132812 176.0
1274.488037 144.0
1274.746338 128.0
1275.123779 240.0
1275.383545 148.0
1276.19397 108.0
1276.812622 384.0
1277.595093 204.0
1279.979492 176.0
1281.361328 116.0
1281.567993 104.0
1282.038208 188.0
1282.444458 164.0
1282.551392 160.0
1282.779541 124.0
1282.829468 120.0
1283.078979 88.0
1283.899048 216.0
1283.963135 236.0
1284.027344 188.0
1284.077271 148.0
1284.141479 144.0
1284.448242 172.0
1284.854858 152.0
1284.959473 200.0
1285.482788 156.0
1286.503418 156.0
1287.231689 112.0
1287.317383 208.0
1287.374512 124.0
1287.481689 196.0
1288.581787 220.0
1288.817505 96.0
1289.182007 168.0
1289.296265 180.0
1289.424927 184.0
1290.139771 164.0
1290.311401 44.0
1290.445435 188.0
1290.467407 140.0
1290.997803 204.0
1291.248169 148.0
1291.655884 104.0
1292.163818 128.0
1292.256836 132.0
1292.321167 40.0
1292.49292 132.0
1292.736206 56.0
1293.673828 216.0
1293.859985 204.0
1294.659424 156.0
1294.959106 180.0
1295.177734 176.0
1295.449829 148.0
1295.532349 148.0
1295.872559 148.0
1295.944214 124.0
1296.245239 384.0
1297.499512 212.0
1297.571289 144.0
1298.72583 160.0
1299.035034 196.0
1299.802002 176.0
1300.318726 160.0
1300.46228 244.0
1301.287842 72.0
1301.395508 56.0
1302.04187 148.0
1302.214233 168.0
1302.336304 160.0
1302.623657 208.0
1302.831909 112.0
1303.025879 152.0
1303.478638 56.0
1303.687012 168.0
1303.981689 72.0
1304.628662 152.0
1304.901855 188.0
1305.851074 292.0
1306.092529 192.0
1306.699951 216.0
1306.908569 120.0
1307.038086 204.0
1307.376343 188.0
1307.606689 140.0
1307.822632 188.0
1308.513672 128.0
1309.18335 132.0
1309.536255 148.0
1310.011719 224.0
1310.227783 76.0
1310.515991 224.0
1310.624023 100.0
1310.768188 124.0
1310.856445 200.0
1310.988281 48.0
1311.488892 356.0
1311.654663 144.0
1311.737915 104.0
1311.89978 144.0
1312.267456 188.0
1312.354004 156.0
1312.440552 112.0
1312.685669 140.0
1312.837158 208.0
1312.916504 104.0
1312.966919 216.0
1313.226562 192.0
1313.406982 160.0
1313.724365 120.0
1314.110474 140.0
1314.388184 196.0
1314.496338 180.0
1314.554077 128.0
1314.756226 100.0
1314.886108 112.0
1314.972656 196.0
1315.049805 128.0
1315.629639 120.0
1315.745117 248.0
1315.911133 140.0
1315.976196 228.0
1316.813843 120.0
1317.492798 120.0
1317.601196 180.0
1318.833008 236.0
1319.039307 184.0
1319.538208 108.0
1319.625 124.0
1320.261353 140.0
1320.319214 100.0
1320.407471 156.0
1320.832642 148.0
1320.919556 172.0
1322.250854 56.0
1322.648926 76.0
1323.061646 176.0
1323.706055 204.0
1323.807373 124.0
1324.00293 164.0
1324.191284 120.0
1324.321655 156.0
1324.473755 132.0
1324.79248 168.0
1325.046021 200.0
1325.219971 112.0
1325.379395 148.0
1325.495728 136.0
1325.807129 172.0
1325.995361 136.0
1326.060547 136.0
1326.111328 136.0
1326.567993 120.0
1326.662231 208.0
1327.191528 172.0
1327.670166 192.0
1327.844238 160.0
1328.30835 164.0
1328.366455 172.0
1329.062988 180.0
1329.309692 160.0
1329.585449 164.0
1330.078979 160.0
1330.442017 136.0
1330.674316 156.0
1330.833984 144.0
1330.89209 248.0
1330.95752 68.0
1331.124512 168.0
1331.204346 148.0
1331.28064 200.0
1331.473022 168.0
1331.640137 44.0
1331.98877 96.0
1332.562744 180.0
1332.693481 104.0
1332.78064 52.0
1333.151367 224.0
1333.776367 68.0
1333.925049 368.0
1334.059937 120.0
1334.473022 176.0
1334.561523 128.0
1334.626953 172.0
1334.895996 156.0
1334.946899 192.0
1335.266968 172.0
1335.492432 156.0
1336.045288 128.0
1336.56189 128.0
1337.18042 148.0
1337.717163 160.0
1337.998535 392.0
1338.090332 100.0
1338.803955 60.0
1339.44519 132.0
1339.867432 128.0
1340.148071 188.0
1340.250732 140.0
1340.41394 172.0
1340.690918 68.0
1341.237549 160.0
1342.061401 92.0
1342.207153 204.0
1343.578491 168.0
1343.702515 148.0
1343.965088 108.0
1344.059937 216.0
1344.264282 196.0
1344.5271 156.0
1344.651123 200.0
1344.716797 168.0
1344.804443 144.0
1345.016113 152.0
1345.162109 100.0
1345.563599 144.0
1345.673096 72.0
1345.789917 116.0
1346.267212 156.0
1346.556763 156.0
1346.651733 172.0
1346.702759 108.0
1347.199585 120.0
1347.257935 144.0
1348.624512 208.0
1348.682983 224.0
1349.055786 140.0
1349.31897 84.0
1349.406738 152.0
1349.567627 240.0
1349.677246 72.0
1350.196411 152.0
1350.291504 120.0
1350.510986 180.0
1350.606079 288.0
1350.957153 132.0
1351.103516 100.0
1351.293701 156.0
1351.696167 228.0
1351.915771 200.0
1352.369507 176.0
1352.933105 160.0
1353.372437 180.0
1353.738647 168.0
1353.841064 164.0
1354.126709 180.0
1354.441772 176.0
1354.55896 160.0
1354.727417 160.0
1355.269531 160.0
1355.43811 136.0
1355.570068 108.0
1357.120239 152.0
1357.197388 80.0
1357.248657 212.0
1357.351318 124.0
1357.485596 116.0
1357.798706 152.0
1357.910156 188.0
1358.070068 108.0
1358.128784 136.0
1358.260742 184.0
1358.378174 148.0
1358.539551 148.0
1359.464111 108.0
1359.574219 216.0
1360.256714 120.0
1360.902832 48.0
1361.108398 168.0
1361.255249 132.0
1361.306763 152.0
1361.688599 144.0
1361.835449 160.0
1362.045776 184.0
1362.268921 152.0
1362.599487 124.0
1362.680298 148.0
1363.356323 136.0
1363.723877 184.0
1364.017822 128.0
1364.275146 48.0
1364.603027 224.0
1364.870728 176.0
1365.069214 164.0
1365.716431 160.0
1365.995972 172.0
1366.19458 172.0
1366.430054 160.0
1366.488892 140.0
1366.981934 192.0
1367.49707 124.0
1367.885132 112.0
1368.0448 140.0
1368.910645 112.0
1369.271484 140.0
1369.352539 148.0
1369.41272 168.0
1369.477783 76.0
1369.763306 176.0
1370.118652 124.0
1370.302856 140.0
1370.41333 44.0
1370.509155 220.0
1370.803955 172.0
1371.039673 80.0
1371.585205 136.0
1371.880005 136.0
1372.705811 144.0
1372.786987 112.0
1373.11145 136.0
1373.406494 148.0
1373.679443 192.0
1373.790039 112.0
1374.80835 116.0
1374.985474 68.0
1375.147827 96.0
1375.206909 180.0
1375.265869 172.0
1375.413574 68.0
1375.46521 176.0
1375.657104 108.0
1375.730957 48.0
1375.782715 204.0
1376.594849 44.0
1376.854126 220.0
1376.964111 48.0
1377.02478 188.0
1377.503296 144.0
1378.101807 44.0
1378.168213 160.0
1378.604248 168.0
1378.885132 208.0
1379.055054 144.0
1379.387695 128.0
1379.683472 140.0
1379.87561 180.0
1379.957031 108.0
1380.119629 144.0
1380.422852 120.0
1381.251221 96.0
1381.39917 144.0
1381.480591 152.0
1382.0354 168.0
1382.094604 176.0
1382.420288 176.0
1382.87915 188.0
1383.0271 128.0
1383.086304 136.0
1383.339233 224.0
1383.560181 148.0
1383.884888 168.0
1384.122803 108.0
1384.226562 196.0
1384.530151 88.0
1384.604248 128.0
1384.766357 184.0
1384.87085 148.0
1384.959717 156.0
1385.144897 172.0
1385.537598 120.0
1385.730225 172.0
1385.819092 164.0
1386.345215 184.0
1386.404541 152.0
1386.471191 208.0
1386.545288 128.0
1386.656494 208.0
1387.205078 224.0
1387.694336 184.0
1387.775879 220.0
1388.092773 244.0
1388.161499 148.0
1388.79187 152.0
1389.548584 192.0
1389.726685 84.0
1389.838013 200.0
1389.934448 160.0
1390.001221 164.0
1390.260986 168.0
1390.706299 100.0
1391.28894 136.0
1391.745605 164.0
1391.98938 292.0
1392.228271 92.0
1392.688843 68.0
1392.889404 112.0
1392.985962 140.0
1393.550537 160.0
1393.773438 160.0
1394.247437 188.0
1394.761963 196.0
1395.081543 164.0
1395.854858 120.0
1396.330811 104.0
1396.486938 168.0
1396.925903 96.0
1396.992798 152.0
1397.230835 196.0
1397.41687 136.0
1397.491333 100.0
1398.257812 180.0
1398.927734 152.0
1399.073853 232.0
1399.277588 148.0
1399.880737 136.0
1401.333252 140.0
1401.437622 172.0
1401.676025 204.0
1402.026367 112.0
1402.242432 96.0
1402.488403 172.0
1403.054932 116.0
1403.606689 140.0
1404.359985 228.0
1404.635986 152.0
1404.904541 360.0
1405.135864 160.0
1405.419312 188.0
1405.553711 160.0
1406.001465 160.0
1406.158203 148.0
1406.210449 116.0
1406.42688 156.0
1406.613525 176.0
1406.725464 140.0
1407.337646 152.0
1407.554199 164.0
1407.725952 176.0
1408.039673 136.0
1408.106812 68.0
1408.868774 164.0
1408.936035 184.0
1409.062988 112.0
1409.115356 140.0
1409.391724 172.0
1409.690674 44.0
1409.825195 160.0
1410.37085 144.0
1410.92395 168.0
1411.043579 40.0
1411.182373 212.0
1412.000854 132.0
1412.075562 192.0
1412.285034 232.0
1412.53186 196.0
1412.96582 200.0
1413.39978 112.0
1413.474609 124.0
1413.751465 144.0
1414.230591 172.0
1414.814331 104.0
1414.874268 180.0
1415.173706 216.0
1415.518188 84.0
1415.80188 176.0
1415.997559 188.0
1416.763306 136.0
1417.016235 156.0
1417.128662 128.0
1417.552002 168.0
1417.668213 152.0
1417.901855 112.0
1418.417725 216.0
1418.680054 216.0
1418.905029 104.0
1418.972534 160.0
1419.047485 104.0
1419.61731 192.0
1419.894897 188.0
1419.977295 196.0
1420.134888 116.0
1420.329834 152.0
1420.622437 176.0
1420.719971 216.0
1420.985596 212.0
1421.2677 72.0
1421.335205 140.0
1421.447754 36.0
1421.560303 296.0
1421.665405 200.0
1421.740479 52.0
1421.905518 156.0
1421.95813 188.0
1422.070679 164.0
1422.331177 192.0
1422.408447 44.0
1423.406982 160.0
1423.940186 128.0
1424.248291 228.0
1424.375854 160.0
1424.759033 160.0
1424.99939 200.0
1425.127197 160.0
1425.765869 144.0
1425.931274 112.0
1426.4198 144.0
1426.47998 168.0
1426.57019 172.0
1426.848389 128.0
1427.013794 148.0
1427.119019 204.0
1428.074097 144.0
1428.375 164.0
1428.890259 172.0
1429.578857 64.0
1429.887451 124.0
1430.150879 200.0
1430.451904 140.0
1430.587402 172.0
1430.881104 64.0
1431.159668 148.0
1431.400635 92.0
1431.581299 184.0
1431.739502 100.0
1432.04834 152.0
1432.319458 172.0
1432.485229 108.0
1432.560547 128.0
1432.71875 124.0
1433.065308 128.0
1433.574585 220.0
1433.653076 164.0
1433.811401 120.0
1434.029907 152.0
1434.142944 188.0
1434.308838 140.0
1434.444458 156.0
1434.919434 180.0
1435.839478 156.0
1435.952515 124.0
1436.706909 192.0
1437.016235 144.0
1437.589722 164.0
1437.642578 96.0
1438.178467 108.0
1438.23877 192.0
1438.638916 120.0
1439.150513 172.0
1439.288208 216.0
1439.409058 152.0
1439.536987 220.0
1440.240234 144.0
1440.330444 164.0
1440.594849 140.0
1441.063232 192.0
1441.305054 180.0
1441.35791 148.0
1441.709961 200.0
1441.9021 104.0
1442.827759 148.0
1443.591309 128.0
1443.635864 84.0
1443.7771 116.0
1444.170288 224.0
1444.616699 104.0
1444.949585 148.0
1445.320312 224.0
1445.441406 172.0
1445.585083 204.0
1445.683472 232.0
1446.223999 148.0
1446.62207 128.0
1446.720459 144.0
1447.121826 172.0
1447.560913 124.0
1447.666992 188.0
1447.807129 160.0
1448.159302 176.0
1448.25769 112.0
1448.447144 148.0
1449.659424 224.0
1450.030762 196.0
1450.3396 192.0
1450.682617 180.0
1451.797241 216.0
1452.009521 180.0
1452.176392 96.0
1452.561401 176.0
1452.631592 128.0
1452.760498 116.0
1453.633057 176.0
1454.012573 164.0
1454.354126 180.0
1454.422363 136.0
1454.627319 216.0
1454.771606 116.0
1454.923462 228.0
1455.887817 164.0
1456.009277 84.0
1456.358643 180.0
1456.806885 152.0
1456.882812 128.0
1456.966431 196.0
1457.114136 108.0
1457.277954 180.0
1457.638428 208.0
1457.96936 148.0
1458.243042 184.0
1458.290283 176.0
1458.39502 184.0
1458.661133 76.0
1458.843506 180.0
1459.048828 108.0
1459.254028 156.0
1459.386475 164.0
1459.603882 152.0
1459.771118 88.0
1460.120972 176.0
1460.516479 172.0
1460.594727 228.0
1460.706665 200.0
1460.957764 176.0
1461.619629 212.0
1462.106689 116.0
1462.160034 116.0
1462.426392 176.0
1462.571045 128.0
1463.081055 196.0
1463.530273 272.0
1463.758667 88.0
1463.92627 136.0
1464.078491 148.0
1464.169922 160.0
1464.459351 192.0
1464.832642 56.0
1465.081055 236.0
1465.175415 220.0
1465.379028 172.0
1465.511475 156.0
1465.579224 108.0
1465.927246 244.0
1466.237427 120.0
1466.293823 192.0
1466.463257 192.0
1466.577637 132.0
1466.630981 208.0
1466.794312 156.0
1466.920654 188.0
1467.06543 92.0
1467.263672 160.0
1467.355225 192.0
1467.461914 176.0
1467.606812 120.0
1467.675415 152.0
1467.796875 108.0
1468.346558 156.0
1468.724731 172.0
1470.162354 36.0
1470.658447 168.0
1471.101196 184.0
1471.215698 128.0
1471.349731 200.0
1471.444702 196.0
1471.559204 160.0
1471.620239 188.0
1471.803589 160.0
1472.002075 108.0
1472.131958 180.0
1472.40271 148.0
1472.704712 116.0
1473.071411 172.0
1473.720825 120.0
1474.011108 164.0
1474.548828 172.0
1474.958862 168.0
1475.081177 76.0
1475.211182 160.0
1475.624023 192.0
1475.914551 188.0
1476.182129 120.0
1476.69458 160.0
1477.122437 120.0
1477.390747 224.0
1478.163452 212.0
1478.569092 144.0
1478.660889 168.0
1478.821655 96.0
1479.0896 156.0
1479.440308 192.0
1479.824463 220.0
1479.959717 328.0
1480.169067 120.0
1480.276245 156.0
1480.65918 176.0
1480.74292 164.0
1481.134155 224.0
1481.459595 156.0
1481.511963 360.0
1481.616699 156.0
1481.67041 172.0
1481.831299 256.0
1482.009888 168.0
1482.191162 192.0
1482.490234 168.0
1482.574585 156.0
1482.743164 136.0
1482.942383 136.0
1483.080444 132.0
1483.233643 144.0
1483.417725 64.0
1483.483887 176.0
1483.578613 120.0
1483.762695 68.0
1484.099976 68.0
1484.207397 160.0
1484.322388 124.0
1484.997314 208.0
1485.173706 76.0
1485.227417 216.0
1485.518921 212.0
1485.78833 168.0
1485.979248 160.0
1486.178711 248.0
1486.339844 180.0
1487.207031 180.0
1487.291504 276.0
1487.355103 216.0
1487.483398 196.0
1487.537109 156.0
1487.598633 40.0
1487.698364 104.0
1487.793945 184.0
1488.097656 132.0
1488.228149 164.0
1488.412476 196.0
1488.627441 100.0
1489.211182 152.0
1489.326294 192.0
1489.533691 152.0
1489.602905 204.0
1489.71814 172.0
1489.933228 144.0
1490.0177 132.0
1490.635376 228.0
1490.911743 160.0
1491.085815 132.0
1491.316406 120.0
1491.408691 192.0
1491.954468 232.0
1492.338867 116.0
1492.3927 156.0
1492.480347 176.0
1492.74646 184.0
1492.992554 128.0
1493.2771 56.0
1493.440186 212.0
1493.946899 152.0
1494.261719 104.0
1494.354126 72.0
1494.42981 132.0
1494.684937 140.0
1494.777344 236.0
1494.976929 212.0
1495.239014 92.0
1495.32373 208.0
1495.500732 80.0
1495.576172 220.0
1495.831787 100.0
1495.931885 228.0
1496.008789 184.0
1496.239746 108.0
1496.361816 184.0
1496.540039 196.0
1496.645264 140.0
1496.840332 88.0
1497.032837 140.0
1498.026489 144.0
1498.689087 108.0
1499.089722 244.0
1499.667847 144.0
1499.783447 156.0
1499.868164 120.0
1500.099487 116.0
1500.685425 92.0
1500.8396 68.0
1501.296753 204.0
1501.456543 164.0
1501.526367 140.0
1501.641724 144.0
1501.857666 236.0
1502.428467 196.0
1502.72168 104.0
1503.049072 184.0
1503.717163 192.0
1503.840698 120.0
1504.465942 180.0
1504.643433 144.0
1504.713013 152.0
1504.851929 160.0
