>compound MLS002153410-01!Naltriben methanesulfonate hydrate
>formula C26H25NO4
>ionization [M+H]+
>parentmass 416.187622
#inchi InChI=1S/C26H25NO4/c28-18-8-7-15-11-20-26(29)12-17-16-3-1-2-4-19(16)30-22(17)24-25(26,21(15)23(18)31-24)9-10-27(20)13-14-5-6-14/h1-4,7-8,14,20,24,28-29H,5-6,9-13H2/t20-,24+,25+,26-/m1/s1
#inchikey ZHVWWEYETMPAMX
#origInchi InChI=1S/C26H25NO4.CH4O3S.H2O/c28-18-8-7-15-11-20-26(29)12-17-16-3-1-2-4-19(16)30-22(17)24-25(26,21(15)23(18)31-24)9-10-27(20)13-14-5-6-14;1-5(2,3)4;/h1-4,7-8,14,20,24,28-29H,5-6,9-13H2;1H3,(H,2,3,4);1H2/t20-,24+,25+,26-;;/m1../s1
#Ion_Source LC-ESI
#Instrument qTof
#Compound_Source NIH Pharmacologically Active Library
#PI Dorrestein
#Data_Collector VP/LMS
#Scan -1
#Precursor_MZ 416.193
#ExactMass 415.178
#Charge 1
#CAS_Number N/A
#Pubmed_ID N/A
#Smiles Oc1ccc2C[C@H]3N(CC4CC4)CC[C@]5([C@H]6Oc1c25)[C@@]3(O)Cc7c6oc8ccccc78.CS(=O)(=O)O.O
#INCHI_AUX N/A
#Library_Class 1
#SpectrumID CCMSLIB00000086038
#IonMode Positive
#UpdateWorkflowName UPDATE-SINGLE-ANNOTATED-GOLD
#LibraryQualityString Gold
#TaskID d252d724072548979f1f6f1ced849daf
##Scan# 1538
#SpectrumFile p5-C02_GC2_01_18447.mzXML
#LibraryName Pharm_Active_Library.mgf
#MQScore -1
#Organism Pharm_Active_Library
#TIC_Query 0
#RT_Query -1
#MZErrorPPM -1
#SharedPeaks 0
#MassDiff 0
#LibMZ -1
#SpecMZ 416.193
#SpecCharge 0
#internalFilename spec-00000.mgf

>collision 10
44.924442 196.0
45.478409 152.0
45.529427 156.0
45.863083 144.0
46.147923 228.0
46.245319 232.0
46.340111 132.0
46.914978 204.0
47.157948 172.0
47.38921 244.0
47.478306 144.0
47.576344 180.0
47.81076 72.0
47.939571 196.0
48.097561 172.0
48.156803 160.0
48.335136 104.0
48.354511 68.0
48.462521 252.0
48.678844 188.0
48.909687 180.0
49.001595 116.0
49.124271 48.0
49.1759 120.0
49.375683 236.0
49.883244 228.0
49.994354 60.0
50.283257 208.0
50.95018 124.0
50.981438 48.0
51.065315 232.0
51.335899 152.0
51.370129 136.0
51.622925 232.0
51.640087 68.0
51.683002 148.0
51.780342 196.0
51.819019 108.0
51.959518 148.0
52.491692 112.0
52.534958 200.0
52.57103 248.0
52.69376 212.0
52.813744 196.0
53.067162 164.0
53.578735 180.0
53.651604 164.0
54.149868 196.0
54.234844 148.0
54.28616 68.0
54.333092 100.0
54.402065 156.0
54.707832 220.0
54.810928 76.0
54.92297 40.0
54.973129 124.0
55.147396 128.0
55.273098 172.0
55.465622 128.0
55.544209 196.0
55.608009 120.0
55.909538 184.0
56.070538 264.0
56.085442 116.0
56.315216 152.0
56.611328 184.0
56.920231 160.0
57.073494 180.0
57.587368 148.0
57.650818 140.0
57.789928 96.0
57.894371 264.0
58.136925 108.0
58.182457 72.0
58.209785 132.0
58.424088 204.0
58.570221 124.0
58.593071 216.0
58.608307 76.0
58.715012 208.0
58.789764 184.0
59.148926 164.0
59.253059 164.0
59.458527 256.0
59.489223 92.0
59.515324 156.0
59.60902 168.0
59.784325 160.0
59.813564 156.0
60.033882 172.0
60.288597 108.0
60.321053 88.0
60.450966 136.0
60.580563 108.0
60.608906 184.0
60.794983 56.0
61.063747 204.0
61.36272 232.0
61.407944 196.0
61.65461 220.0
61.748413 100.0
61.969128 136.0
62.078846 44.0
62.339428 160.0
62.65411 128.0
62.800705 180.0
62.825943 132.0
63.054893 124.0
63.220947 144.0
63.24152 116.0
63.323849 112.0
63.510872 176.0
63.866657 352.0
64.040146 160.0
64.231834 196.0
64.27449 152.0
64.715637 136.0
64.928757 184.0
64.957626 92.0
64.989708 156.0
65.008965 192.0
65.103676 152.0
65.182388 148.0
65.24025 148.0
65.431686 124.0
65.487999 132.0
65.84771 180.0
66.096657 168.0
66.542374 144.0
66.553741 72.0
66.584595 132.0
66.633324 132.0
66.644699 152.0
66.856087 88.0
67.664047 108.0
67.70826 160.0
67.734467 68.0
67.75576 160.0
67.796722 116.0
68.014046 124.0
68.333656 192.0
68.363274 148.0
68.522987 188.0
68.559242 164.0
68.580666 128.0
68.999947 64.0
69.02475 200.0
69.08429 52.0
69.104141 100.0
69.38237 120.0
69.412216 176.0
69.50013 132.0
69.57959 168.0
69.591415 160.0
69.739258 208.0
69.917213 120.0
70.195412 148.0
70.450768 192.0
70.614571 104.0
70.857292 152.0
70.938599 148.0
71.110489 204.0
71.340607 120.0
71.540794 60.0
71.835686 184.0
71.860992 152.0
71.911621 140.0
71.994339 60.0
72.021362 156.0
72.143028 188.0
72.165001 148.0
72.276634 188.0
72.469658 180.0
72.52388 180.0
72.659538 120.0
72.927834 148.0
72.972031 216.0
73.326096 80.0
73.418152 136.0
73.69297 132.0
73.886162 60.0
74.252716 180.0
74.367668 148.0
74.458664 156.0
74.750908 160.0
74.912743 136.0
75.041992 144.0
75.142029 228.0
75.15583 116.0
75.2145 180.0
75.563576 208.0
75.91172 148.0
75.944672 176.0
76.048775 172.0
76.251976 108.0
76.464661 164.0
76.556419 196.0
76.598221 200.0
76.619125 144.0
76.727173 136.0
76.828323 112.0
76.849258 288.0
76.94001 168.0
76.983658 96.0
77.039551 140.0
77.097206 76.0
77.158386 152.0
77.245819 104.0
77.340309 176.0
77.359566 144.0
77.550491 88.0
77.676735 64.0
77.743401 236.0
78.049049 124.0
78.49453 88.0
78.732597 196.0
79.167793 168.0
79.201447 160.0
79.215614 80.0
79.492195 176.0
79.557861 44.0
79.699944 168.0
79.803032 144.0
79.929314 208.0
80.091316 148.0
80.216049 108.0
80.337303 224.0
80.494362 72.0
80.553299 172.0
80.828629 192.0
80.914536 204.0
80.928856 44.0
80.953926 152.0
81.72123 160.0
81.827911 192.0
81.959839 168.0
82.022911 128.0
82.082405 192.0
82.123886 220.0
82.156357 116.0
82.212288 100.0
82.620628 152.0
82.638725 96.0
82.919395 148.0
83.02092 140.0
83.525818 104.0
83.598595 108.0
83.930115 132.0
84.2696 192.0
84.57682 176.0
84.694 172.0
84.712318 76.0
84.767281 152.0
85.514717 128.0
85.689651 136.0
86.182266 88.0
86.222923 148.0
86.733742 208.0
86.748573 196.0
86.902496 88.0
87.344635 144.0
87.512123 132.0
87.745003 248.0
87.834518 240.0
87.90728 80.0
87.922203 176.0
87.969749 136.0
87.985672 148.0
87.998734 148.0
88.211708 92.0
88.376282 104.0
88.451134 140.0
88.629044 124.0
88.734001 108.0
88.925339 160.0
89.116875 136.0
89.208366 152.0
89.634308 52.0
89.883202 192.0
90.088997 120.0
90.111664 132.0
90.757065 144.0
90.783615 40.0
90.842407 92.0
90.870865 200.0
90.971443 60.0
91.047394 148.0
91.129074 80.0
91.435219 208.0
91.473282 108.0
91.677078 204.0
92.156013 116.0
92.177032 152.0
92.325081 276.0
92.37204 228.0
92.484932 212.0
92.519386 192.0
92.532791 52.0
92.728172 144.0
93.05619 160.0
93.542557 48.0
93.564415 148.0
93.860443 80.0
93.947235 168.0
94.084244 140.0
94.272469 136.0
94.343109 116.0
94.449463 136.0
94.590714 148.0
94.654602 128.0
94.732071 92.0
94.776634 188.0
94.920067 140.0
94.93364 152.0
95.106308 176.0
95.463776 176.0
95.512398 120.0
95.684868 176.0
95.742058 116.0
95.81218 124.0
95.90181 168.0
96.02269 104.0
96.319366 52.0
96.424873 108.0
96.57737 100.0
96.62236 140.0
96.863144 188.0
97.037552 108.0
97.114029 116.0
97.145416 124.0
97.471321 108.0
97.565659 136.0
97.864708 192.0
97.927719 152.0
98.097084 568.0
98.308205 112.0
98.35952 164.0
98.499405 152.0
98.592575 112.0
98.694397 172.0
98.867462 92.0
98.944656 64.0
99.214081 124.0
99.424332 116.0
99.731621 188.0
99.996696 168.0
100.187843 140.0
100.896301 64.0
100.944283 160.0
101.079262 176.0
101.206406 168.0
101.615273 188.0
101.840103 148.0
101.9506 128.0
101.968727 184.0
102.063164 132.0
102.340828 176.0
102.578552 124.0
102.647095 44.0
102.856911 112.0
102.957863 164.0
102.988159 132.0
103.052803 184.0
103.167023 120.0
103.23674 208.0
103.329781 44.0
103.797211 220.0
103.899063 220.0
103.981026 112.0
104.006607 136.0
104.045181 172.0
104.065483 180.0
104.761009 92.0
104.795639 100.0
104.91996 164.0
105.369034 168.0
105.460892 168.0
105.739044 148.0
105.908974 148.0
106.101601 176.0
106.12825 160.0
106.255409 148.0
106.300545 136.0
106.384697 52.0
106.571587 136.0
106.774681 100.0
106.797714 64.0
106.917931 176.0
106.97261 152.0
106.993195 136.0
107.04673 120.0
108.05397 200.0
108.080109 200.0
108.267166 60.0
108.337593 180.0
108.435028 164.0
108.721169 164.0
108.764755 136.0
108.872719 152.0
108.901794 188.0
109.003586 88.0
109.026443 144.0
109.797028 132.0
109.905182 148.0
110.062004 152.0
110.159882 188.0
110.310341 112.0
110.35215 164.0
110.44207 44.0
110.483902 128.0
110.611557 160.0
110.804214 52.0
111.018005 224.0
111.141769 148.0
111.395798 140.0
111.421005 92.0
111.435707 80.0
111.669037 120.0
111.753181 116.0
111.969994 152.0
112.153297 132.0
112.168053 164.0
112.446465 196.0
112.461235 88.0
112.877411 100.0
112.923935 116.0
113.010666 204.0
113.048752 180.0
113.09108 220.0
113.129181 152.0
113.222343 168.0
113.552956 208.0
113.682365 132.0
113.69722 96.0
113.722687 88.0
113.796982 136.0
113.841576 124.0
114.000893 144.0
114.226257 108.0
114.46888 148.0
114.773582 112.0
115.055008 388.0
115.161972 248.0
115.198288 184.0
115.557442 216.0
115.602371 144.0
115.840027 204.0
115.893585 36.0
115.938583 180.0
115.968582 136.0
116.062912 144.0
116.281715 176.0
116.505028 156.0
116.60601 184.0
116.722099 156.0
116.915703 76.0
116.950134 140.0
117.036247 152.0
117.264587 164.0
117.342186 132.0
117.39473 228.0
117.610291 140.0
117.829933 152.0
117.944466 248.0
118.063377 176.0
118.400978 72.0
118.470284 148.0
118.567787 92.0
118.598129 116.0
118.665329 124.0
118.704361 308.0
118.940834 148.0
119.051559 164.0
119.075447 116.0
119.101517 104.0
119.347084 176.0
119.582016 80.0
119.666916 200.0
119.788864 124.0
119.913063 156.0
119.945755 96.0
120.067856 140.0
120.087479 164.0
120.113655 164.0
120.19001 184.0
120.280998 236.0
120.299133 100.0
120.35305 172.0
120.401749 164.0
120.517525 80.0
120.622421 56.0
120.68364 104.0
120.773293 92.0
120.978981 156.0
121.090652 160.0
121.419388 180.0
121.436935 128.0
121.544426 164.0
121.678314 112.0
121.728813 144.0
121.783714 32.0
121.871582 156.0
121.913338 116.0
121.948502 180.0
122.03643 192.0
122.06591 216.0
122.087006 168.0
122.267395 84.0
122.533829 148.0
122.600555 184.0
122.723366 212.0
122.948364 164.0
123.047134 288.0
123.335403 148.0
123.387917 108.0
123.491844 160.0
123.584755 128.0
123.655563 124.0
123.726395 148.0
124.264938 128.0
124.312599 192.0
124.564636 92.0
124.735733 160.0
124.949219 156.0
125.245277 168.0
125.50602 184.0
125.548386 96.0
125.733543 184.0
125.858551 92.0
125.970215 36.0
125.985855 132.0
126.099808 112.0
126.650208 176.0
126.695007 224.0
126.827217 188.0
126.984161 160.0
127.053696 76.0
127.152184 224.0
127.341011 52.0
127.358978 148.0
127.900856 52.0
127.972893 176.0
128.044952 156.0
128.061295 496.0
128.126038 96.0
128.216171 260.0
128.240967 132.0
128.306335 124.0
128.502533 80.0
128.626663 168.0
128.680832 160.0
128.843445 36.0
128.906708 216.0
129.031021 164.0
129.073853 148.0
129.116943 168.0
129.198364 128.0
129.297928 48.0
129.331879 244.0
129.562851 112.0
129.73735 172.0
129.941452 56.0
129.98909 96.0
130.062759 352.0
130.10939 188.0
130.227463 172.0
130.293335 224.0
130.322876 136.0
130.773132 96.0
131.051102 2968.0
131.085022 352.0
131.137543 172.0
131.192245 164.0
131.242401 136.0
131.272049 48.0
131.367844 88.0
131.609756 208.0
131.659988 116.0
131.929596 132.0
132.053955 196.0
132.081039 320.0
132.156021 40.0
132.380325 184.0
132.570465 204.0
132.62088 172.0
132.714874 160.0
132.94426 160.0
132.970795 120.0
133.011703 144.0
133.059021 124.0
133.095749 84.0
133.180725 104.0
133.4151 140.0
133.438095 64.0
133.488678 100.0
134.066467 180.0
134.097168 316.0
134.377762 192.0
134.76564 184.0
134.985214 180.0
135.001404 84.0
135.049347 148.0
135.100861 184.0
135.496735 48.0
135.582458 56.0
135.698364 100.0
135.828232 112.0
136.018494 96.0
136.090454 156.0
136.122971 60.0
136.178711 136.0
136.23909 156.0
136.283234 92.0
136.383163 164.0
136.529633 152.0
136.58313 76.0
136.818146 116.0
136.859161 52.0
136.901978 160.0
137.026871 148.0
137.06282 292.0
137.344788 156.0
137.454895 160.0
137.624817 44.0
137.84906 160.0
137.888794 188.0
137.965927 68.0
138.103882 116.0
138.153 104.0
138.325485 144.0
138.356598 192.0
138.693909 72.0
138.963593 140.0
139.057465 164.0
139.127869 96.0
139.172485 40.0
139.198318 72.0
139.271118 100.0
139.651871 212.0
139.722443 148.0
139.922485 172.0
139.971924 112.0
140.037872 80.0
140.083984 180.0
140.120316 124.0
140.400803 124.0
141.012268 160.0
141.06781 140.0
141.123367 76.0
141.61557 136.0
141.966324 136.0
142.066284 220.0
142.082245 256.0
142.476624 88.0
142.533646 84.0
142.71904 64.0
142.887909 228.0
142.940262 220.0
143.050751 168.0
143.086853 148.0
143.140198 196.0
143.218796 104.0
143.404633 148.0
143.626373 236.0
143.748047 204.0
144.052048 200.0
144.081253 136.0
144.285446 56.0
144.381088 84.0
144.823853 200.0
144.924469 224.0
145.066284 664.0
145.178543 116.0
145.197739 68.0
145.370453 224.0
145.540878 120.0
145.623505 128.0
145.740234 204.0
145.987823 60.0
146.061249 144.0
146.091248 196.0
146.279861 204.0
146.625412 216.0
147.042282 284.0
147.06955 216.0
147.257874 120.0
147.311005 144.0
147.666321 116.0
147.74614 124.0
147.915527 32.0
148.032333 212.0
148.053528 176.0
148.08017 148.0
148.106812 152.0
148.136292 140.0
148.196442 100.0
148.402466 140.0
148.448532 124.0
148.535843 88.0
148.793076 172.0
148.994644 164.0
149.074814 152.0
149.351974 168.0
149.378723 216.0
149.44928 188.0
149.82048 196.0
149.875366 156.0
149.911926 168.0
150.019165 180.0
150.051865 224.0
150.526642 132.0
150.685394 112.0
150.782211 136.0
151.034973 204.0
151.313934 128.0
151.487808 96.0
151.516937 164.0
151.580902 76.0
151.617661 204.0
151.720612 152.0
151.835846 164.0
151.870193 84.0
151.914337 140.0
151.960953 212.0
152.034561 232.0
152.062668 320.0
152.23587 88.0
152.36113 136.0
152.545441 128.0
152.648697 84.0
152.786423 128.0
153.015305 128.0
153.070908 184.0
153.153198 164.0
153.239426 168.0
153.394669 156.0
153.416855 100.0
153.453842 116.0
153.612808 392.0
153.641266 80.0
153.688156 160.0
153.80661 116.0
154.071259 180.0
154.436661 152.0
154.624695 120.0
154.713806 160.0
154.770752 256.0
155.08992 172.0
155.15477 72.0
155.226669 196.0
155.248993 136.0
155.395325 128.0
155.47226 132.0
155.516922 92.0
155.747833 84.0
155.978912 172.0
156.057495 132.0
156.082031 844.0
156.19693 100.0
156.551147 148.0
156.797775 152.0
157.064163 332.0
157.100662 276.0
157.139389 132.0
157.23671 160.0
157.388977 112.0
157.473877 112.0
157.636261 112.0
157.698746 128.0
157.90625 112.0
157.961273 108.0
158.033829 180.0
158.070053 160.0
158.09433 200.0
158.269104 60.0
158.361755 400.0
158.484512 84.0
158.692535 120.0
158.730148 176.0
158.790329 144.0
158.860565 112.0
159.046326 204.0
159.073853 192.0
159.493332 212.0
159.578186 128.0
159.609238 160.0
159.641663 128.0
159.674362 136.0
159.833755 144.0
159.903305 168.0
159.948608 144.0
160.04422 176.0
160.077408 176.0
160.191132 192.0
160.235687 216.0
160.334167 144.0
160.790421 216.0
160.94693 124.0
161.017639 180.0
161.058121 756.0
161.141403 152.0
161.262695 220.0
161.351181 140.0
161.464966 96.0
161.510483 172.0
161.616333 252.0
161.717957 88.0
162.061676 348.0
162.128235 196.0
162.279327 80.0
162.366531 196.0
162.653015 136.0
162.752243 128.0
162.805573 168.0
163.059418 204.0
163.12825 136.0
163.214691 44.0
163.491959 192.0
163.986023 228.0
164.037003 124.0
164.082886 188.0
164.297104 136.0
164.580399 224.0
164.598267 156.0
164.751511 96.0
164.820496 60.0
165.03775 140.0
165.074509 308.0
165.224457 136.0
165.352386 216.0
165.572556 44.0
165.703201 80.0
165.741623 144.0
165.933853 136.0
165.974319 148.0
166.013336 144.0
166.046677 104.0
166.090286 156.0
166.244217 56.0
166.403351 232.0
166.68074 196.0
166.989227 160.0
167.085388 364.0
167.128143 144.0
167.161591 104.0
167.424164 116.0
167.455063 128.0
167.534912 100.0
167.57872 212.0
167.825775 224.0
168.060562 184.0
168.076477 280.0
168.151169 36.0
168.510101 248.0
168.603119 84.0
168.654816 140.0
168.864243 208.0
168.967697 164.0
169.014282 160.0
169.037567 120.0
169.06987 580.0
169.095139 192.0
169.143677 108.0
169.166962 228.0
169.19545 128.0
169.247223 244.0
169.363754 164.0
169.420746 140.0
169.607315 224.0
169.700638 52.0
169.72139 272.0
169.825119 160.0
170.058273 152.0
170.094955 136.0
170.133896 136.0
170.172836 204.0
170.227371 112.0
170.385803 72.0
170.661301 64.0
170.684692 44.0
170.702896 136.0
170.728897 92.0
170.931808 188.0
171.040787 160.0
171.074951 132.0
171.154938 172.0
171.173889 76.0
171.569916 180.0
171.655945 168.0
171.676804 124.0
171.743713 172.0
172.027939 136.0
172.049927 192.0
172.086472 192.0
172.12825 96.0
172.475708 112.0
172.771194 84.0
172.975311 112.0
173.062653 308.0
173.095734 180.0
173.119308 52.0
173.153351 36.0
173.517578 152.0
173.661789 136.0
173.748352 204.0
173.827072 120.0
173.850693 308.0
173.908432 88.0
173.926804 108.0
174.063309 320.0
174.094818 104.0
174.126343 116.0
174.262924 96.0
174.283951 68.0
174.362778 84.0
174.801941 148.0
174.954605 136.0
175.059921 168.0
175.252197 104.0
175.328613 100.0
175.481506 80.0
175.565872 152.0
175.652908 76.0
176.069397 128.0
176.106903 160.0
176.450424 180.0
176.585281 172.0
176.643478 144.0
176.791641 268.0
176.913391 116.0
177.065247 176.0
177.085495 168.0
177.316803 52.0
177.345139 104.0
177.512161 184.0
178.073593 172.0
178.079865 96.0
178.089142 164.0
178.223526 208.0
178.250092 124.0
178.340454 208.0
178.401596 216.0
178.656876 148.0
178.680832 192.0
178.797897 172.0
178.856461 136.0
178.930984 108.0
179.056137 124.0
179.074783 96.0
179.128052 216.0
179.146698 120.0
179.319901 188.0
179.431854 124.0
179.519836 160.0
179.594513 112.0
179.671875 208.0
179.837311 44.0
179.957428 128.0
180.075211 116.0
180.195129 136.0
180.259262 128.0
180.40625 160.0
180.555984 64.0
180.601456 208.0
180.628204 76.0
180.652283 172.0
180.860992 88.0
180.882401 188.0
181.014389 148.0
181.06459 664.0
181.209122 68.0
181.423508 200.0
181.477127 108.0
181.739975 180.0
181.777542 100.0
181.807068 116.0
182.063461 368.0
182.085526 228.0
182.09758 220.0
182.282364 156.0
182.332504 116.0
182.71524 120.0
182.930527 176.0
183.040909 116.0
183.076385 288.0
183.523224 124.0
183.779449 204.0
183.857697 116.0
184.014252 172.0
184.076157 516.0
184.111465 160.0
184.162781 64.0
184.719589 136.0
184.803452 72.0
185.014542 116.0
185.043243 200.0
185.065079 48.0
185.096176 296.0
185.198685 48.0
185.252853 180.0
185.349945 148.0
185.466919 192.0
185.800461 132.0
185.846573 220.0
185.900848 124.0
186.057144 184.0
186.093567 456.0
186.158722 92.0
186.50647 200.0
186.547256 152.0
186.631989 188.0
186.691345 200.0
186.786118 76.0
186.914322 132.0
187.076843 500.0
187.666153 116.0
187.938904 216.0
188.064438 184.0
188.187286 140.0
188.576523 100.0
188.668106 120.0
188.761078 120.0
188.782944 76.0
188.93338 140.0
189.009979 88.0
189.076874 108.0
189.153336 148.0
189.18515 108.0
189.209778 120.0
189.248108 60.0
189.367233 184.0
189.415161 116.0
189.702881 176.0
189.812546 160.0
189.85643 148.0
190.46846 236.0
190.647049 108.0
190.806458 208.0
190.864197 52.0
190.883453 148.0
190.938446 132.0
191.062973 132.0
191.241089 124.0
191.436554 72.0
191.538452 32.0
191.957352 148.0
192.04837 164.0
192.360153 136.0
192.539627 116.0
192.55896 100.0
192.614197 128.0
192.990036 188.0
193.064514 240.0
193.097885 116.0
193.429901 72.0
193.579407 60.0
193.742813 136.0
193.778839 224.0
193.864731 116.0
194.06813 252.0
194.094803 144.0
194.250107 236.0
194.429108 132.0
194.480408 152.0
194.54425 140.0
194.60759 216.0
194.755295 176.0
194.958099 132.0
195.04068 196.0
195.081131 1380.0
195.130432 144.0
195.316742 64.0
195.569946 156.0
195.645096 96.0
195.887375 216.0
195.944778 204.0
196.082291 800.0
196.163239 100.0
196.29985 72.0
196.352325 108.0
196.380096 212.0
196.891464 140.0
196.966873 108.0
197.033905 52.0
197.058685 508.0
197.065674 220.0
197.0784 428.0
197.128906 108.0
197.288223 144.0
197.380478 164.0
197.811386 164.0
197.838806 152.0
197.903717 188.0
197.959717 48.0
197.982117 100.0
198.026917 44.0
198.070236 636.0
198.126602 196.0
198.248245 148.0
198.360352 156.0
198.408005 152.0
198.494919 52.0
198.646301 152.0
198.834351 164.0
198.879257 104.0
198.900497 184.0
199.068924 584.0
199.22464 112.0
199.40889 204.0
199.519714 176.0
199.64624 100.0
199.747498 148.0
199.885345 196.0
200.07457 332.0
200.110519 100.0
200.190674 160.0
200.445694 60.0
200.54715 112.0
200.651443 48.0
200.688095 204.0
200.868591 144.0
201.026581 176.0
201.054794 156.0
201.089249 176.0
201.128174 144.0
201.162048 172.0
201.464203 144.0
201.534836 140.0
201.563095 136.0
201.701569 72.0
201.783554 112.0
202.01828 148.0
202.079132 544.0
202.1371 104.0
202.462646 60.0
202.603867 116.0
202.632599 164.0
202.780716 204.0
203.086227 300.0
203.182587 180.0
203.310272 164.0
203.426636 128.0
203.633911 64.0
203.685043 64.0
203.835617 68.0
204.020355 212.0
204.054474 144.0
204.082901 440.0
204.290512 192.0
204.418533 116.0
204.643997 228.0
204.720276 132.0
204.78009 164.0
204.856995 140.0
205.06633 248.0
205.167618 156.0
205.210373 232.0
205.370071 76.0
205.449936 204.0
205.778137 120.0
206.064545 532.0
206.091568 204.0
206.146591 156.0
206.189453 152.0
206.441025 156.0
206.595474 88.0
206.761429 200.0
206.827255 136.0
206.850159 132.0
206.870193 196.0
206.921722 100.0
206.964676 208.0
207.074234 912.0
207.119308 112.0
207.47464 176.0
207.494705 140.0
207.531982 100.0
207.603668 144.0
207.7901 160.0
208.07579 900.0
208.103638 264.0
208.167542 216.0
208.235031 140.0
208.312576 192.0
208.436111 140.0
208.470596 148.0
208.505081 40.0
208.548203 172.0
208.611435 156.0
208.660309 84.0
208.735062 184.0
208.924881 196.0
209.076706 332.0
209.201141 60.0
209.578415 120.0
209.699448 52.0
210.055542 156.0
210.079437 204.0
210.136429 216.0
210.501434 148.0
210.54187 180.0
210.589462 188.0
210.978165 92.0
211.075195 1220.0
211.105377 148.0
211.140076 148.0
211.197922 224.0
211.281815 116.0
211.495941 116.0
211.527786 208.0
211.59726 80.0
211.736252 120.0
211.820236 152.0
211.967987 136.0
212.023056 48.0
212.077377 708.0
212.290848 120.0
212.466675 52.0
212.687225 112.0
212.951431 136.0
213.087006 152.0
213.538513 96.0
213.634506 68.0
213.689774 104.0
213.81781 68.0
214.047775 148.0
214.089325 164.0
214.129318 144.0
214.155533 172.0
214.248749 152.0
214.490616 148.0
214.531418 104.0
214.551819 160.0
214.578064 76.0
214.881378 96.0
215.047699 168.0
215.087448 404.0
215.140167 220.0
215.237457 120.0
215.398087 136.0
215.751663 52.0
215.813065 144.0
215.988525 160.0
216.098755 540.0
216.120163 140.0
216.380646 200.0
216.617859 180.0
216.872772 96.0
216.902084 184.0
217.060394 128.0
217.101547 588.0
217.182495 152.0
217.22464 216.0
217.441757 52.0
217.700104 160.0
217.770584 152.0
218.037933 60.0
218.07164 512.0
218.10553 304.0
218.273102 60.0
218.300491 192.0
218.473099 152.0
218.832138 136.0
218.893967 116.0
219.073959 300.0
219.100143 168.0
219.380096 100.0
219.400742 152.0
219.616531 152.0
219.722183 232.0
219.922836 188.0
220.023209 148.0
220.075531 1676.0
220.194473 88.0
220.288986 204.0
220.342163 116.0
220.534225 176.0
220.746902 192.0
220.918625 128.0
220.944305 100.0
220.986679 132.0
221.083008 812.0
221.208618 168.0
221.386597 108.0
221.451416 84.0
221.478073 160.0
221.646942 100.0
221.774368 284.0
221.967865 164.0
222.05899 176.0
222.091629 636.0
222.139084 120.0
222.201385 176.0
222.284454 144.0
222.370514 148.0
222.489243 72.0
222.566437 96.0
222.756516 44.0
222.863464 148.0
222.899109 136.0
223.041763 172.0
223.103851 248.0
223.29747 168.0
223.505692 192.0
223.635727 144.0
223.779526 136.0
223.810486 132.0
223.853958 128.0
223.92543 148.0
223.987976 168.0
224.03862 100.0
224.070541 304.0
224.092834 164.0
224.354507 108.0
224.443954 64.0
224.604996 188.0
224.810852 148.0
225.052322 264.0
225.078125 316.0
225.175064 92.0
225.282593 180.0
225.326279 100.0
225.626251 104.0
225.712692 160.0
225.850525 208.0
226.08609 1376.0
226.116272 684.0
226.221558 140.0
226.305389 52.0
226.329346 188.0
226.395218 172.0
226.811661 48.0
227.08551 664.0
227.131241 128.0
227.498581 80.0
227.588654 152.0
227.62468 160.0
227.693756 188.0
227.731903 244.0
227.870972 68.0
227.967117 156.0
228.089767 604.0
228.150467 92.0
228.288773 56.0
228.336884 176.0
228.764145 60.0
229.05925 236.0
229.100204 380.0
229.27919 124.0
229.402771 132.0
229.451004 72.0
229.502258 124.0
229.553513 180.0
229.818954 180.0
230.076096 84.0
230.114761 344.0
230.155243 76.0
230.277786 40.0
230.326187 156.0
230.489258 172.0
230.767944 136.0
230.870132 152.0
231.024384 88.0
231.08342 732.0
231.13028 196.0
231.230133 176.0
231.351212 92.0
231.53894 140.0
231.623734 72.0
231.666153 120.0
231.799454 104.0
231.869156 172.0
231.929764 128.0
231.984329 132.0
232.079773 800.0
232.20871 176.0
232.363403 92.0
233.010071 176.0
233.08786 496.0
233.158951 196.0
233.195419 192.0
233.228851 184.0
233.250137 80.0
233.286606 64.0
233.329178 40.0
233.456879 96.0
233.493362 48.0
233.718475 48.0
234.038055 148.0
234.06868 364.0
234.095291 448.0
234.135498 168.0
234.41272 152.0
234.653503 104.0
234.714493 196.0
234.741928 236.0
234.799866 196.0
235.03476 168.0
235.070679 164.0
235.095322 500.0
235.147659 132.0
235.36441 132.0
235.428528 180.0
235.514038 176.0
235.792068 76.0
235.886826 172.0
236.103333 300.0
236.186478 32.0
236.256836 120.0
236.630203 72.0
237.084869 424.0
237.141754 164.0
237.595581 168.0
237.642624 108.0
237.718307 140.0
237.785828 128.0
237.865616 200.0
237.970001 136.0
238.092224 284.0
238.126419 196.0
238.234116 172.0
238.636703 116.0
238.670532 244.0
238.784302 124.0
238.941177 48.0
239.048874 100.0
239.082718 76.0
239.131424 140.0
239.356689 64.0
239.436752 124.0
239.486023 88.0
239.659058 212.0
239.871185 152.0
240.099792 272.0
240.170273 184.0
240.256638 140.0
240.457214 144.0
240.617722 180.0
240.657852 148.0
240.802994 88.0
240.833878 184.0
241.035736 164.0
241.099136 824.0
241.130478 212.0
241.220108 144.0
241.330765 156.0
241.467468 164.0
241.572632 176.0
241.628311 192.0
241.829453 248.0
241.863495 104.0
241.98732 164.0
242.027573 140.0
242.07135 656.0
242.099838 264.0
243.081863 444.0
243.127945 112.0
243.37323 232.0
244.084061 904.0
244.651001 144.0
244.710159 72.0
244.884537 148.0
244.926788 156.0
244.95929 52.0
244.981094 44.0
245.035477 140.0
245.095932 2548.0
245.168045 56.0
245.201935 292.0
245.280838 84.0
245.323883 52.0
245.389343 48.0
245.567703 144.0
245.595154 48.0
245.688736 72.0
245.729294 80.0
245.810425 44.0
246.050751 108.0
246.100037 572.0
246.141296 156.0
246.414322 232.0
246.591919 160.0
246.759933 176.0
246.825592 112.0
246.950684 56.0
246.981262 72.0
247.10611 576.0
247.557816 132.0
247.585999 164.0
247.625702 160.0
247.704819 192.0
247.896912 144.0
247.965073 56.0
247.992279 128.0
248.04657 164.0
248.083527 152.0
248.10463 252.0
248.151337 420.0
248.280884 60.0
248.391479 116.0
248.529526 96.0
248.617386 104.0
248.815125 80.0
248.887344 172.0
249.052216 164.0
249.087448 396.0
249.136673 184.0
249.198288 144.0
249.25882 180.0
249.415115 136.0
249.87738 44.0
249.899399 144.0
249.924576 148.0
250.083542 140.0
250.124039 132.0
250.214127 172.0
250.806335 96.0
250.869385 132.0
251.090576 424.0
251.1371 208.0
251.322372 208.0
251.462372 316.0
251.654922 136.0
251.778076 32.0
251.819138 64.0
252.099457 468.0
252.103683 504.0
252.131897 148.0
252.302582 80.0
252.324722 164.0
252.346848 144.0
252.511276 220.0
252.555557 52.0
252.644119 108.0
252.985901 112.0
253.061874 32.0
253.105011 816.0
253.160034 32.0
253.198044 64.0
253.27037 124.0
253.365906 164.0
253.426102 148.0
253.571869 148.0
253.901581 124.0
254.117767 640.0
254.209305 100.0
254.27594 128.0
254.501328 148.0
254.542603 44.0
254.695038 76.0
254.745865 56.0
254.869766 136.0
254.919388 156.0
254.942841 204.0
255.080917 3816.0
255.127945 288.0
255.174881 128.0
255.209854 40.0
255.233658 68.0
255.311615 56.0
255.566086 196.0
255.616989 68.0
255.639267 136.0
255.760208 280.0
255.836594 36.0
255.963959 112.0
256.006805 148.0
256.088287 2096.0
256.130035 280.0
256.381256 124.0
256.464111 112.0
256.559753 196.0
256.680908 168.0
256.824402 152.0
256.859497 224.0
257.097443 776.0
257.130707 152.0
257.168976 208.0
257.344574 64.0
257.48233 224.0
257.695892 124.0
257.769379 172.0
257.804535 88.0
258.000702 160.0
258.067383 1848.0
258.102753 432.0
258.133789 132.0
258.242523 68.0
258.325684 228.0
258.547058 272.0
258.616852 48.0
259.073517 564.0
259.117798 228.0
259.18689 108.0
259.234955 132.0
259.475342 184.0
259.523438 140.0
259.577942 156.0
259.674133 88.0
259.856995 184.0
260.014221 92.0
260.080292 364.0
260.102295 172.0
260.296722 184.0
260.420319 164.0
260.439728 172.0
260.495819 48.0
260.566498 60.0
260.894318 68.0
260.936096 104.0
261.048645 184.0
261.096252 352.0
261.124573 144.0
261.206238 220.0
261.25769 88.0
261.560181 68.0
261.708252 152.0
261.988434 52.0
262.067383 120.0
262.123718 872.0
262.226898 196.0
262.3526 168.0
262.404816 100.0
262.60733 68.0
262.736359 200.0
263.080688 316.0
263.12616 220.0
263.272156 188.0
263.436859 160.0
263.74707 128.0
263.950745 184.0
263.976624 140.0
264.033386 116.0
264.076263 308.0
264.102814 252.0
264.144806 152.0
264.261261 192.0
264.834229 220.0
265.105072 292.0
265.180908 184.0
265.479156 196.0
265.563477 56.0
265.667267 192.0
265.767853 136.0
266.114197 612.0
266.794128 64.0
266.966461 212.0
267.07486 332.0
267.126007 1068.0
267.382843 208.0
267.451202 120.0
267.500031 96.0
267.731201 176.0
267.939667 108.0
268.086517 564.0
268.124329 184.0
268.461151 148.0
268.516602 112.0
268.568787 96.0
268.673157 60.0
268.738403 56.0
268.764526 68.0
268.816742 44.0
269.096558 2796.0
269.339081 140.0
269.518768 124.0
270.097931 760.0
270.208618 340.0
270.640656 140.0
270.706848 132.0
271.077026 780.0
271.111786 896.0
271.421326 172.0
271.659882 96.0
272.08136 1216.0
272.106598 672.0
272.168579 144.0
272.214539 100.0
272.454315 48.0
272.483887 144.0
272.572601 52.0
272.690887 196.0
272.7435 116.0
272.970337 136.0
273.016357 68.0
273.090973 4356.0
273.170959 40.0
273.235229 140.0
273.334686 156.0
273.388092 76.0
273.448975 176.0
273.506592 128.0
273.756805 120.0
273.874268 168.0
273.960999 100.0
274.097961 872.0
274.121979 2064.0
274.214722 48.0
274.254425 80.0
274.287231 160.0
274.338745 152.0
274.376221 52.0
274.630127 156.0
274.927063 188.0
275.021118 188.0
275.069458 440.0
275.129822 1040.0
275.224152 216.0
275.356232 128.0
275.385956 128.0
275.43219 84.0
275.567627 132.0
275.7659 180.0
275.825409 176.0
275.96756 72.0
276.080719 416.0
276.136658 664.0
276.235413 116.0
276.371063 40.0
276.417389 144.0
276.577209 136.0
276.927185 48.0
277.086487 348.0
277.145569 340.0
277.188904 124.0
277.245239 80.0
277.321472 108.0
277.553528 124.0
277.71933 136.0
277.759125 136.0
278.084198 300.0
278.132904 180.0
278.230347 148.0
278.526581 172.0
278.579041 88.0
278.678711 184.0
278.841522 188.0
279.037628 108.0
279.080353 344.0
279.130737 180.0
279.18396 204.0
279.237152 48.0
279.47998 104.0
279.559845 40.0
279.880127 148.0
279.95932 160.0
280.081573 596.0
280.135162 132.0
280.245789 160.0
280.432404 176.0
280.466461 92.0
280.474884 80.0
280.490173 132.0
280.625732 100.0
280.815796 160.0
280.882507 124.0
281.095856 5212.0
281.550018 48.0
281.820587 172.0
281.950928 72.0
281.994354 116.0
282.069946 284.0
282.097351 1548.0
282.154816 144.0
282.346985 160.0
282.562805 44.0
282.932129 92.0
283.077423 3812.0
283.185425 40.0
283.262482 92.0
283.299316 140.0
283.440033 72.0
283.58078 32.0
283.852325 100.0
283.895905 72.0
283.979767 164.0
284.080566 968.0
284.111816 292.0
284.157532 128.0
284.187744 52.0
284.302429 152.0
284.405853 100.0
284.6073 148.0
284.684509 148.0
284.718109 120.0
284.802063 200.0
284.889404 60.0
285.088928 1200.0
285.308899 260.0
285.403595 76.0
285.450897 120.0
285.509308 92.0
285.585205 92.0
285.730804 184.0
285.787048 44.0
285.861481 188.0
286.059723 2200.0
286.095734 1000.0
286.268372 36.0
286.325623 96.0
286.355927 64.0
286.524353 104.0
286.57489 144.0
286.66922 72.0
286.752167 144.0
287.066437 1068.0
287.113922 464.0
287.52243 64.0
287.767395 160.0
287.82959 120.0
287.979004 148.0
288.07489 888.0
288.142761 156.0
288.184265 140.0
288.218048 120.0
288.424194 120.0
288.745392 136.0
288.907745 76.0
288.976562 140.0
289.082977 276.0
289.125153 172.0
289.378143 48.0
289.428955 120.0
289.476349 108.0
289.89978 60.0
290.078125 136.0
290.130798 100.0
290.208221 180.0
290.588104 204.0
290.672913 132.0
290.886719 108.0
291.012329 132.0
291.03949 68.0
291.08252 444.0
291.122681 176.0
291.214691 136.0
291.30719 156.0
291.467468 132.0
291.727783 156.0
291.928497 184.0
292.018188 232.0
292.086212 528.0
292.17807 36.0
292.344788 92.0
292.508148 136.0
292.545593 60.0
292.634094 64.0
292.909943 116.0
293.096069 220.0
293.148438 192.0
293.243835 100.0
293.390411 124.0
294.101746 240.0
294.226227 36.0
294.458435 60.0
294.71463 148.0
295.005127 96.0
295.080109 736.0
295.106201 552.0
295.141479 172.0
295.179474 28.0
295.2034 56.0
295.27182 68.0
295.463348 148.0
295.555725 60.0
295.675507 140.0
296.085785 696.0
296.170135 128.0
296.476868 96.0
296.54541 160.0
296.864227 192.0
296.920074 208.0
297.091095 2736.0
297.172943 80.0
297.231262 64.0
297.306763 160.0
297.432098 204.0
297.488678 128.0
297.862946 164.0
297.901947 216.0
297.922913 140.0
298.003815 96.0
298.094971 1240.0
298.326843 52.0
298.374969 272.0
298.484985 164.0
298.581299 216.0
298.632874 76.0
298.804871 64.0
298.908081 144.0
298.963135 124.0
299.064575 624.0
299.108887 1736.0
299.147797 144.0
299.266052 116.0
299.328033 172.0
299.356964 264.0
299.414124 68.0
299.499146 192.0
299.620789 60.0
299.703461 188.0
299.783966 144.0
299.821716 128.0
299.859192 264.0
299.955048 44.0
299.984741 148.0
300.079803 1300.0
300.180237 176.0
300.206726 176.0
300.249695 104.0
300.291168 140.0
300.341248 64.0
300.377197 160.0
300.439545 112.0
300.525482 68.0
300.56546 60.0
300.603424 128.0
300.644836 64.0
300.684906 316.0
300.744934 200.0
300.796509 232.0
300.87027 484.0
300.938416 172.0
300.967224 260.0
301.015594 392.0
301.087494 91816.0
301.19519 192.0
301.272186 184.0
301.302002 180.0
301.338531 140.0
301.382294 244.0
301.444946 264.0
301.48288 136.0
301.564056 112.0
301.593964 88.0
301.656494 204.0
301.698669 144.0
301.725952 76.0
301.778687 112.0
301.812378 196.0
301.840057 96.0
301.873749 216.0
301.89978 100.0
301.936584 124.0
301.974915 112.0
302.020966 308.0
302.091125 20124.0
302.158508 216.0
302.21405 92.0
302.248016 100.0
302.305298 48.0
302.331238 184.0
302.36908 68.0
302.400299 104.0
302.462769 56.0
302.504761 124.0
302.551025 72.0
302.565765 96.0
302.617249 80.0
302.653168 28.0
302.682251 160.0
302.741638 124.0
302.783691 128.0
302.817566 68.0
302.899841 88.0
302.989136 84.0
303.013367 52.0
303.041077 196.0
303.094574 2948.0
303.189087 188.0
303.231689 180.0
303.300995 76.0
303.337402 104.0
303.384186 56.0
303.420288 112.0
303.48819 140.0
303.527832 56.0
303.576508 136.0
303.611877 72.0
303.655426 72.0
303.715149 36.0
303.787231 160.0
303.848907 52.0
303.909027 132.0
303.938446 64.0
303.975433 180.0
304.003357 116.0
304.036255 72.0
304.097809 476.0
304.173523 132.0
304.211121 192.0
304.254944 36.0
304.301178 164.0
304.404236 64.0
304.4841 60.0
304.546631 56.0
304.577881 28.0
304.616089 40.0
304.718414 128.0
304.768951 76.0
304.807739 72.0
304.882385 112.0
304.939209 88.0
304.96701 68.0
305.007111 112.0
305.046967 52.0
305.100525 108.0
305.141632 380.0
305.223053 108.0
305.249878 88.0
305.264709 76.0
305.274506 136.0
305.384247 88.0
305.443359 80.0
305.478149 36.0
305.631226 64.0
305.755066 136.0
305.993195 156.0
306.045441 84.0
306.101929 160.0
306.15686 80.0
306.236969 84.0
306.627167 40.0
306.714294 188.0
306.825836 100.0
306.874664 68.0
307.002014 84.0
307.087494 112.0
307.113098 572.0
307.143158 136.0
307.317596 64.0
307.481598 112.0
307.55838 100.0
307.774841 76.0
307.911896 172.0
308.08548 548.0
308.169495 176.0
308.365204 124.0
308.735779 48.0
308.763763 56.0
309.0401 116.0
309.090668 4696.0
309.138367 144.0
309.25354 44.0
309.344574 112.0
309.509094 196.0
309.782288 192.0
309.908386 36.0
310.099243 1460.0
310.178253 64.0
310.230835 44.0
310.45871 56.0
310.542877 32.0
310.626404 228.0
310.80249 164.0
310.883179 136.0
311.10321 1664.0
311.3479 200.0
311.894653 112.0
311.947388 136.0
312.0177 132.0
312.079742 688.0
312.109039 476.0
312.246246 48.0
312.299011 72.0
312.619141 52.0
312.821869 96.0
313.089172 1540.0
313.200043 172.0
313.305725 64.0
313.347992 152.0
313.38324 100.0
313.562958 100.0
313.661621 164.0
313.704132 68.0
313.837891 100.0
314.007172 48.0
314.096039 1144.0
314.157715 244.0
314.2435 92.0
314.663483 132.0
314.7341 36.0
314.981323 44.0
315.101746 2288.0
315.313049 76.0
315.366455 132.0
315.394714 232.0
315.578552 52.0
315.613892 132.0
315.95697 88.0
316.107697 768.0
316.575836 52.0
316.611786 44.0
316.654297 64.0
316.703247 92.0
317.118103 616.0
317.260986 36.0
317.423279 72.0
317.575775 36.0
318.050323 176.0
318.116211 312.0
318.227722 132.0
318.370758 104.0
318.427582 112.0
318.459534 68.0
318.647797 104.0
318.917877 76.0
319.024506 60.0
319.11377 188.0
319.170258 216.0
319.19516 104.0
319.244934 80.0
319.273376 32.0
319.394318 164.0
319.83197 236.0
320.053741 200.0
320.113556 160.0
320.248535 108.0
320.615509 72.0
320.797272 140.0
320.968414 164.0
321.007629 176.0
321.039734 60.0
321.105591 140.0
321.617676 168.0
321.685516 56.0
321.846161 52.0
321.978271 300.0
322.093597 568.0
322.150787 204.0
322.868134 112.0
323.090759 292.0
323.116211 708.0
323.42627 56.0
323.923981 76.0
323.956207 104.0
324.097382 432.0
324.318115 120.0
324.540375 88.0
324.845215 144.0
325.101135 508.0
325.16568 240.0
325.376343 180.0
325.501984 28.0
325.828827 108.0
325.990509 144.0
326.109894 692.0
326.267273 144.0
326.468628 96.0
326.544159 148.0
326.918304 44.0
327.101898 3264.0
327.159607 292.0
327.235046 76.0
327.355103 160.0
327.397064 136.0
327.555542 84.0
327.681641 124.0
327.951904 84.0
328.100952 1772.0
328.279968 108.0
328.344879 140.0
328.53244 128.0
328.647888 48.0
328.842743 132.0
328.89328 128.0
328.972687 168.0
329.111877 1412.0
329.270508 140.0
329.380737 152.0
329.409637 112.0
329.47464 128.0
329.53244 68.0
329.901062 56.0
330.115997 508.0
330.30246 104.0
330.479706 44.0
330.733032 156.0
330.816284 132.0
331.048004 28.0
331.122314 308.0
331.200104 84.0
331.29068 64.0
331.439209 128.0
331.533417 152.0
332.073608 96.0
332.113495 60.0
332.138885 104.0
332.171539 156.0
332.490814 104.0
332.596069 72.0
333.124939 260.0
333.293335 180.0
334.094086 96.0
334.358795 124.0
334.653625 148.0
335.083405 300.0
335.113037 92.0
335.218201 56.0
335.251007 160.0
335.626465 96.0
336.112976 320.0
336.153992 180.0
336.257538 88.0
336.743103 56.0
336.940369 184.0
337.079193 100.0
337.110168 144.0
337.309448 80.0
337.338684 140.0
337.521484 176.0
337.605591 44.0
338.120636 324.0
338.15802 144.0
338.505798 68.0
338.87207 156.0
339.00766 44.0
339.102631 620.0
339.209229 128.0
339.509857 120.0
339.561218 156.0
339.997772 164.0
340.023468 148.0
340.107513 540.0
340.313446 120.0
340.425568 144.0
340.493378 124.0
340.688049 88.0
340.923218 44.0
341.108795 708.0
341.296661 216.0
341.356964 188.0
341.62915 116.0
341.986053 32.0
342.113037 2732.0
342.183929 240.0
342.405762 52.0
342.61203 68.0
342.811005 56.0
342.840485 200.0
342.981171 112.0
343.013702 156.0
343.121277 2048.0
343.183289 136.0
343.279144 84.0
343.463562 120.0
343.588989 52.0
343.703339 32.0
343.910004 128.0
343.943237 40.0
343.991211 120.0
344.049866 36.0
344.065979 164.0
344.128418 8188.0
344.27002 148.0
344.364136 60.0
344.515594 60.0
344.548828 116.0
344.604248 72.0
344.657501 116.0
344.812592 352.0
345.062531 108.0
345.132874 2164.0
345.206726 80.0
345.424927 112.0
345.498932 36.0
345.749359 152.0
346.00592 104.0
346.132751 340.0
346.4133 60.0
346.491089 60.0
346.639282 100.0
346.691162 56.0
346.820892 60.0
346.909851 124.0
346.95462 48.0
347.023285 160.0
347.061829 64.0
347.095215 188.0
347.137756 212.0
347.347412 40.0
347.477234 96.0
347.670197 60.0
348.000549 68.0
348.110596 112.0
348.568817 96.0
348.609711 32.0
348.947937 64.0
349.137573 188.0
350.133453 212.0
350.459015 200.0
350.783234 120.0
351.077789 96.0
351.141113 140.0
351.480652 208.0
351.913605 156.0
352.113037 312.0
352.142609 228.0
352.187775 212.0
353.129364 176.0
353.170563 180.0
353.333801 196.0
354.048706 132.0
354.097412 148.0
354.130432 260.0
354.835602 188.0
355.01181 196.0
355.128448 820.0
355.185516 252.0
355.6008 76.0
355.889862 44.0
356.062592 132.0
356.126831 2052.0
356.490845 156.0
356.904327 184.0
356.960724 108.0
357.133606 960.0
357.190155 116.0
357.91272 48.0
358.145508 256.0
358.489044 44.0
358.775482 52.0
359.065826 220.0
359.12616 120.0
359.367584 64.0
359.416626 120.0
359.620422 108.0
359.809143 128.0
360.130127 180.0
360.167908 92.0
361.10144 180.0
361.139282 104.0
361.759827 152.0
362.134674 212.0
362.161194 116.0
362.555206 152.0
363.141418 160.0
363.355255 168.0
364.134644 148.0
364.904785 96.0
365.056854 128.0
365.136719 156.0
365.893921 92.0
366.152313 140.0
366.46521 120.0
367.166595 96.0
367.536621 120.0
368.139923 420.0
368.319214 192.0
369.14209 556.0
369.57312 204.0
370.040039 92.0
370.101318 156.0
370.144135 1556.0
370.172119 536.0
370.396179 104.0
370.668213 72.0
370.718018 68.0
371.140472 408.0
371.177063 460.0
371.546204 64.0
371.607574 120.0
371.753387 60.0
371.941437 68.0
372.140747 192.0
372.190979 68.0
372.467499 48.0
372.609619 108.0
372.924713 44.0
373.068115 180.0
373.167236 132.0
373.459137 44.0
374.145203 180.0
374.240326 108.0
374.455963 104.0
374.509888 48.0
374.937531 100.0
375.693268 192.0
376.357086 40.0
376.438171 132.0
376.484497 104.0
376.816681 56.0
377.036926 36.0
377.643921 116.0
377.725159 28.0
377.906982 184.0
379.16156 108.0
379.743103 140.0
380.088379 40.0
380.141785 180.0
380.171112 512.0
380.28241 104.0
380.40274 32.0
381.161469 428.0
381.226105 68.0
381.43988 124.0
381.844238 96.0
382.132721 172.0
382.19043 180.0
382.318848 96.0
383.154083 552.0
383.502808 160.0
384.138367 92.0
384.442688 136.0
384.704193 124.0
385.270416 188.0
386.384583 132.0
386.901184 124.0
386.963806 80.0
387.727631 156.0
387.770752 176.0
389.072998 52.0
389.12796 152.0
389.414612 48.0
389.60318 56.0
390.13327 228.0
390.932098 112.0
392.259369 164.0
392.499878 64.0
393.470459 132.0
394.102356 64.0
394.473846 72.0
394.881104 104.0
394.976044 40.0
395.154053 164.0
395.506226 228.0
395.767517 84.0
395.981354 104.0
396.076416 164.0
396.15744 452.0
396.266571 132.0
396.369568 60.0
396.452789 68.0
396.674744 68.0
396.773834 160.0
396.846558 128.0
396.956238 52.0
397.098999 68.0
397.166779 460.0
397.273529 140.0
397.44989 140.0
397.503632 72.0
397.562958 84.0
397.710571 140.0
397.809235 40.0
397.868774 152.0
397.932312 92.0
397.983917 208.0
398.062744 164.0
398.103973 188.0
398.175873 31668.0
398.280701 120.0
398.319489 52.0
398.359528 48.0
398.416962 52.0
398.449982 148.0
398.502014 80.0
398.563812 40.0
398.599579 52.0
398.647247 100.0
398.683014 56.0
398.727997 100.0
398.766479 68.0
398.826111 56.0
398.871613 124.0
398.946716 100.0
398.981812 152.0
399.051941 108.0
399.106171 172.0
399.178741 10532.0
399.306305 72.0
399.402618 48.0
399.444275 72.0
399.521973 168.0
399.564545 108.0
399.670807 64.0
399.724884 44.0
399.775177 168.0
399.825897 52.0
399.907928 136.0
399.951721 76.0
399.989777 128.0
400.178802 1496.0
400.25827 120.0
400.328918 140.0
400.457367 56.0
400.48526 44.0
400.61438 96.0
400.728241 48.0
400.756134 40.0
400.788025 44.0
400.89505 88.0
400.926971 92.0
401.007202 52.0
401.039062 80.0
401.127441 172.0
401.185364 276.0
401.232819 152.0
401.314117 72.0
401.363831 120.0
401.39389 48.0
401.441742 140.0
401.497559 112.0
401.533997 196.0
401.61972 76.0
401.700958 132.0
401.768799 256.0
401.795929 104.0
401.86853 64.0
401.912415 32.0
402.135895 80.0
402.187775 156.0
402.21759 72.0
402.259613 40.0
402.331482 40.0
402.411316 52.0
402.447266 100.0
402.552826 128.0
402.593292 84.0
402.668304 100.0
402.962463 96.0
403.066345 60.0
403.314117 52.0
403.514008 104.0
403.737915 48.0
404.077911 44.0
404.906494 104.0
405.860199 108.0
406.999725 68.0
407.674561 100.0
410.589142 84.0
411.222565 48.0
411.41629 48.0
411.81604 132.0
412.405945 72.0
412.794037 128.0
413.323944 40.0
414.923767 168.0
415.572662 172.0
415.64975 80.0
416.187622 5776.0
416.303284 160.0
416.510406 80.0
416.542908 60.0
416.664764 120.0
416.953278 48.0
417.191193 1592.0
417.339447 116.0
417.461426 64.0
417.559021 72.0
417.60376 56.0
417.839691 60.0
417.870575 68.0
418.067535 72.0
418.194153 180.0
419.065155 68.0
419.175171 84.0
419.823303 68.0
420.141449 72.0
422.302277 112.0
423.2435 64.0
423.726776 64.0
424.952637 68.0
431.104309 48.0
431.451508 36.0
433.769653 64.0
434.615692 112.0
435.217529 132.0
436.335144 104.0
444.274109 116.0
449.174744 88.0
450.120087 48.0
455.333038 60.0
455.604889 128.0
459.47467 84.0
462.418762 100.0
464.878632 76.0
466.46344 60.0
467.990662 80.0
470.914368 100.0
470.961884 84.0
480.158691 52.0
480.197937 104.0
482.201904 80.0
485.279175 80.0
488.546631 88.0
488.744598 108.0
489.404816 72.0
490.281403 92.0
491.299927 136.0
495.043518 36.0
495.743439 64.0
499.957733 44.0
500.572021 52.0
501.440704 88.0
505.410614 68.0
513.086182 36.0
515.948364 40.0
518.850281 116.0
521.792114 148.0
528.848938 92.0
529.558594 84.0
538.725891 124.0
544.678223 72.0
545.170715 52.0
546.202881 100.0
546.277283 60.0
551.499634 40.0
559.779968 148.0
560.524231 84.0
568.0224 72.0
568.425659 104.0
571.923401 68.0
575.747009 68.0
580.460571 32.0
580.508484 128.0
588.833984 76.0
592.427795 88.0
596.625488 48.0
597.466797 96.0
605.643127 52.0
607.049622 120.0
607.863953 40.0
615.231812 148.0
617.519592 92.0
617.831238 96.0
627.346069 108.0
633.036804 120.0
633.768127 40.0
636.401306 72.0
641.452148 104.0
644.737854 88.0
648.949341 60.0
650.03479 48.0
652.787964 92.0
656.785828 84.0
660.13092 124.0
661.312683 68.0
663.305176 80.0
670.01123 80.0
675.0849 100.0
675.928101 96.0
679.25415 100.0
682.271179 80.0
684.419861 72.0
686.025818 96.0
687.067505 52.0
691.577026 88.0
696.910156 92.0
699.976685 148.0
700.903748 60.0
704.850586 32.0
717.178589 60.0
719.338806 40.0
719.525635 64.0
720.834229 80.0
738.218689 56.0
744.282166 68.0
744.982727 80.0
748.599609 40.0
751.603027 124.0
773.847107 56.0
787.403992 48.0
789.790466 108.0
790.943115 68.0
799.445801 104.0
800.126831 56.0
801.799744 72.0
804.095093 88.0
804.34906 80.0
804.416809 100.0
805.111267 56.0
805.63092 48.0
806.410645 96.0
817.048279 152.0
823.415222 216.0
833.210083 64.0
833.347961 64.0
833.50885 48.0
845.196655 72.0
846.25 60.0
854.311035 84.0
854.636841 72.0
859.449585 96.0
861.539673 44.0
864.111938 68.0
869.174866 136.0
890.740723 64.0
904.688477 72.0
916.315063 92.0
927.233887 120.0
934.502441 56.0
934.721497 100.0
937.906555 56.0
941.982544 116.0
966.209717 52.0
976.463013 128.0
979.03949 72.0
980.802612 48.0
982.89801 84.0
985.882874 120.0
986.63916 76.0
993.860352 88.0
1002.84668 72.0
1008.343811 60.0
1019.802612 120.0
1053.38501 172.0
1054.703247 76.0
1056.656128 164.0
1060.709961 44.0
1078.165771 64.0
1081.147827 204.0
1083.400146 40.0
1089.573364 72.0
1089.763916 72.0
1105.265015 160.0
1106.939697 64.0
1135.36145 220.0
1150.000977 144.0
1154.108154 48.0
1157.701172 88.0
1158.344604 160.0
1166.969971 56.0
1167.615967 44.0
1181.838623 152.0
1183.200562 68.0
1185.714478 56.0
1190.296875 168.0
1196.780762 32.0
1200.24646 52.0
1200.887817 48.0
1208.320435 104.0
1209.247681 204.0
1212.703735 200.0
1213.105713 64.0
1214.020874 88.0
1239.499146 100.0
1268.727417 92.0
1271.160156 92.0
1278.344238 172.0
1296.561401 248.0
1296.611572 236.0
1303.400024 68.0
1312.873047 148.0
1319.768921 48.0
1324.617676 148.0
1326.334961 140.0
1371.485352 124.0
1381.305786 188.0
1385.636475 140.0
1385.695679 88.0
1387.348389 148.0
1388.631104 192.0
1392.497803 132.0
1395.656006 208.0
1398.706177 32.0
1399.331421 64.0
1402.661377 56.0
1414.890015 44.0
1421.86084 152.0
1425.946289 156.0
1431.302368 116.0
1437.158936 180.0
1440.775269 168.0
1445.704956 156.0
1447.476318 160.0
1448.710815 148.0
1460.483887 188.0
1461.70105 156.0
1461.929321 140.0
1462.340332 144.0
1466.735107 72.0
1467.68042 180.0
1475.865479 72.0
1476.981934 92.0
1477.647461 200.0
1486.604492 204.0
1499.331665 172.0
1499.524292 208.0
1503.935913 168.0
