>compound Fluoxetine
>formula C17H18F3NO 
>ionization [M+H]+
>parentmass 310.142
#inchi InChI=1S/C17H18F3NO/c1-21-12-11-16(13-5-3-2-4-6-13)22-15-9-7-14(8-10-15)17(18,19)20/h2-10,16,21H,11-12H2,1H3
#inchikey RTHCYVBBDHJXIQ
#Ion_Source LC-ESI
#Instrument qTof
#Compound_Source Isolated
#PI Sirenas
#Data_Collector Ed Esquenazi 
#Scan -1
#Precursor_MZ 310.142
#ExactMass 0.0
#Charge 1
#CAS_Number N/A
#Pubmed_ID N/A
#Smiles N/A
#INCHI_AUX N/A
#Library_Class 3
#SpectrumID CCMSLIB00000005002
#IonMode Positive
#UpdateWorkflowName UPDATE-SINGLE-ANNOTATED-BRONZE
#LibraryQualityString Bronze
#TaskID d19310cd93df49b68e9fcbec27720eb5
##Scan# 3
#SpectrumFile Fluoxetine.mgf
#LibraryName fda_library.mgf
#MQScore -1
#Organism fda_library
#TIC_Query 0
#RT_Query -1
#MZErrorPPM -1
#SharedPeaks 0
#MassDiff 0
#LibMZ -1
#SpecMZ 310.142
#SpecCharge 0
#internalFilename spec-00000.mgf

>collision 10
101.416443 67.818558
115.051903 131.448105
116.061554 36.89024
117.070961 434.206207
118.201965 9.0125
127.032433 184.042496
132.465393 12.625
138.282684 8.008333
152.059158 17.96023
153.050034 59.971119
154.075256 33.627258
175.046722 45.378052
223.072128 12.0
231.06691 46.784981
232.045975 58.340279
234.877701 19.66118
241.07756 17.70439
241.915268 11.00152
363.3302 13.02632
384.747253 9.125
666.209167 7.520833
689.765686 7.1125
1114.174805 12.56618
1263.053345 24.500931
1348.615234 11.17457
1456.485352 19.54044
1591.848511 6.502717
