>compound Naloxone HCl
>formula C19H21NO4
>ionization [M+H]+
>parentmass 328.155945
#inchi InChI=1S/C19H21NO4/c1-2-8-20-9-7-18-15-11-3-4-12(21)16(15)24-17(18)13(22)5-6-19(18,23)14(20)10-11/h2-4,14,17,21,23H,1,5-10H2/t14-,17+,18+,19-/m1/s1
#inchikey UZHSEJADLWPNLE
#origInchi InChI=1S/C19H21NO4.ClH/c1-2-8-20-9-7-18-15-11-3-4-12(21)16(15)24-17(18)13(22)5-6-19(18,23)14(20)10-11;/h2-4,14,17,21,23H,1,5-10H2;1H/t14-,17+,18+,19-;/m1./s1
#Ion_Source LC-ESI
#Instrument qTof
#Compound_Source Commercial
#PI Dorrestein
#Data_Collector Garg_Neha
#Scan -1
#Precursor_MZ 328.154
#ExactMass 327.147
#Charge 1
#CAS_Number 357-08-4, 465-65-6 (free base)
#Pubmed_ID N/A
#Smiles C12([C@]34[C@@]5([C@@H](CC=1C=CC(=C2O[C@]3(C(CC5)=O)[H])O)N(CC4)CC=C)O).Cl
#INCHI_AUX N/A
#Library_Class 1
#SpectrumID CCMSLIB00000078568
#IonMode Positive
#UpdateWorkflowName UPDATE-SINGLE-ANNOTATED-GOLD
#LibraryQualityString Gold
#TaskID 77f51c88eb8b467eb4a01dd2d0cb90d2
##Scan# 988
#SpectrumFile Plate9_21_40_GC5_01_15753.mzXML
#LibraryName FDALibrary_2_04302014.mgf
#MQScore -1
#Organism FDALibrary_2_04302014
#TIC_Query 0
#RT_Query -1
#MZErrorPPM -1
#SharedPeaks 0
#MassDiff 0
#LibMZ -1
#SpecMZ 328.154
#SpecCharge 0
#internalFilename spec-00000.mgf

>collision 10
45.999207 164.0
47.081367 192.0
47.433002 188.0
48.176109 224.0
49.48064 172.0
49.546463 200.0
50.580116 196.0
51.691677 184.0
51.969662 144.0
52.120426 176.0
53.293724 144.0
53.640099 224.0
53.891117 152.0
54.27314 140.0
55.333996 212.0
56.052898 140.0
56.175156 176.0
57.563499 168.0
57.679832 204.0
58.094753 172.0
60.913391 228.0
61.250942 192.0
61.402134 156.0
61.525402 184.0
62.779102 176.0
63.378208 180.0
63.741577 152.0
63.821053 192.0
64.629745 148.0
65.379288 128.0
65.767563 176.0
65.790161 204.0
66.806267 144.0
67.82032 200.0
68.911392 160.0
69.37645 156.0
69.71006 156.0
70.388046 152.0
70.466545 180.0
71.065948 164.0
71.104546 160.0
72.561996 140.0
72.65358 160.0
72.731636 140.0
72.928665 164.0
73.202576 204.0
73.245155 192.0
73.313309 176.0
74.922256 144.0
75.590454 140.0
75.616409 200.0
76.372894 232.0
76.888618 176.0
76.982887 144.0
77.007339 164.0
78.444427 140.0
78.65947 212.0
80.11734 144.0
80.815414 204.0
81.32975 152.0
81.609993 164.0
83.547028 160.0
84.223328 148.0
85.722252 172.0
86.479446 276.0
87.225105 172.0
87.466919 144.0
88.896698 216.0
89.51516 144.0
90.181129 188.0
90.273766 184.0
91.001389 148.0
91.166641 180.0
92.203377 140.0
93.075005 188.0
93.547958 164.0
94.070473 152.0
94.377556 232.0
94.497475 144.0
94.722046 180.0
94.921669 160.0
95.928787 216.0
96.081795 376.0
96.582939 216.0
96.618149 168.0
97.706985 204.0
97.836876 148.0
98.189583 232.0
98.649651 160.0
98.823685 140.0
99.930817 140.0
100.245422 200.0
100.532585 140.0
101.200218 144.0
101.948425 216.0
103.100021 192.0
103.562447 280.0
104.496254 140.0
105.017754 148.0
105.066711 140.0
105.775818 184.0
106.173309 168.0
106.410347 124.0
107.079643 140.0
107.205315 196.0
107.465134 176.0
107.514656 192.0
107.68808 208.0
108.004318 140.0
108.04155 232.0
108.081947 168.0
108.540703 160.0
109.005684 192.0
109.286392 172.0
109.37796 160.0
110.059685 320.0
110.54882 208.0
111.244675 176.0
112.020645 212.0
112.398033 232.0
113.08062 164.0
113.241531 200.0
113.502197 208.0
113.536125 216.0
113.947922 140.0
113.97554 184.0
114.77375 148.0
115.055511 168.0
116.069824 152.0
116.847069 164.0
117.067726 124.0
117.098923 204.0
118.357925 156.0
119.067039 156.0
119.082245 176.0
119.453934 156.0
119.551842 148.0
119.625847 164.0
120.087852 132.0
120.476334 148.0
120.769241 228.0
120.86113 160.0
120.91095 132.0
121.088791 168.0
121.623779 144.0
122.245064 184.0
122.538605 200.0
123.045868 356.0
123.065735 140.0
123.337463 156.0
123.737869 156.0
123.99704 184.0
124.056885 148.0
124.531738 156.0
124.785072 152.0
125.005272 288.0
125.116562 140.0
125.510925 140.0
127.357231 172.0
127.579689 148.0
128.060211 168.0
128.957474 140.0
129.036087 160.0
129.068237 164.0
129.631378 164.0
130.019165 212.0
130.066742 196.0
130.657486 148.0
131.149536 148.0
131.224762 220.0
133.065201 208.0
134.060196 356.0
134.108261 200.0
135.157089 156.0
135.26123 184.0
136.075684 360.0
136.735107 168.0
137.014526 160.0
137.060776 544.0
138.277802 156.0
138.685349 140.0
139.857407 180.0
140.130569 164.0
140.391068 212.0
141.06749 304.0
141.18808 144.0
141.457809 148.0
141.834442 148.0
141.98381 156.0
142.069412 132.0
142.138016 176.0
142.211578 152.0
142.774414 200.0
143.093506 248.0
143.553375 148.0
144.044754 172.0
144.049683 152.0
144.081558 256.0
144.451416 164.0
145.065079 196.0
145.094009 144.0
145.770065 156.0
146.034546 172.0
146.065475 280.0
146.381073 164.0
147.045227 396.0
147.071091 200.0
147.159897 156.0
147.179214 148.0
147.604492 196.0
147.645599 164.0
147.817352 204.0
148.035217 188.0
148.05217 204.0
148.074997 208.0
148.549042 160.0
148.575729 164.0
148.786865 216.0
148.897537 208.0
149.061325 160.0
149.082108 160.0
149.601273 148.0
149.82045 164.0
149.837494 188.0
150.601028 224.0
151.038559 172.0
151.105499 132.0
151.427719 168.0
151.606567 152.0
151.871353 192.0
152.063568 176.0
152.315628 144.0
152.706436 160.0
152.881119 152.0
153.069046 668.0
153.092178 180.0
153.598083 192.0
154.064682 156.0
154.531906 152.0
155.279999 152.0
156.08461 204.0
156.544968 144.0
156.699402 172.0
156.791595 216.0
157.065399 568.0
157.213058 192.0
157.752548 160.0
158.07077 488.0
158.096359 792.0
158.453278 144.0
159.042465 156.0
159.071167 160.0
159.10173 428.0
159.464554 168.0
160.048172 276.0
160.084686 172.0
160.108612 144.0
160.897842 152.0
161.059769 3888.0
161.88649 164.0
162.064774 628.0
163.068146 212.0
163.188187 144.0
163.333145 288.0
164.102234 168.0
165.069412 436.0
166.06839 216.0
167.086029 384.0
168.059662 140.0
168.081787 320.0
168.869949 160.0
169.061874 704.0
169.094955 268.0
169.3965 140.0
170.067184 184.0
170.366699 176.0
171.041183 268.0
171.082962 308.0
171.128723 220.0
171.699387 148.0
172.056335 196.0
172.103867 144.0
172.474838 176.0
173.003235 160.0
173.059097 2220.0
173.092712 356.0
173.545563 176.0
174.059082 608.0
174.093002 240.0
174.580154 140.0
174.974838 148.0
175.076279 452.0
175.847366 180.0
176.072525 184.0
177.206573 180.0
177.365585 188.0
177.845673 156.0
178.29187 164.0
178.536453 160.0
179.083267 284.0
180.076706 288.0
181.064438 2628.0
181.825165 212.0
182.068039 372.0
182.094986 104.0
182.744186 228.0
183.055634 140.0
183.080627 304.0
183.441696 168.0
184.05098 740.0
184.07579 636.0
184.11084 196.0
184.494522 148.0
185.059387 2220.0
186.063492 372.0
186.09166 1664.0
187.098511 2028.0
187.249374 172.0
187.334656 156.0
187.450272 204.0
187.566284 140.0
187.856522 164.0
187.908356 156.0
188.104675 628.0
188.402496 208.0
189.081573 136.0
189.110352 176.0
190.069885 160.0
191.108521 140.0
192.082611 220.0
193.003433 260.0
193.055145 188.0
193.332611 156.0
193.448853 192.0
193.750717 168.0
194.055481 116.0
194.075928 120.0
194.096176 196.0
194.302414 160.0
194.421829 112.0
194.838226 172.0
195.078842 320.0
195.541733 152.0
195.569565 144.0
196.081543 188.0
196.107132 184.0
196.366425 180.0
196.812912 140.0
197.05957 440.0
197.090515 292.0
197.131363 160.0
198.004196 156.0
198.065643 724.0
198.088959 524.0
198.124634 164.0
198.836853 184.0
199.07399 2716.0
199.603775 184.0
199.679703 148.0
199.997635 216.0
200.032242 96.0
200.073929 536.0
201.054535 308.0
201.089325 632.0
202.064407 224.0
202.087051 540.0
202.63237 208.0
203.066345 396.0
203.616684 212.0
204.079422 176.0
204.133896 160.0
205.106598 392.0
205.569611 240.0
205.74086 172.0
206.095245 212.0
207.078186 908.0
207.411469 172.0
208.028198 252.0
208.078705 672.0
208.107193 256.0
209.059921 1012.0
209.082184 376.0
209.468872 148.0
209.883881 160.0
210.065826 244.0
210.127853 168.0
210.446533 152.0
210.611145 144.0
210.770798 152.0
211.072495 1388.0
211.655151 200.0
212.069717 11700.0
212.180984 164.0
212.919495 140.0
213.081528 2304.0
213.145218 120.0
213.462936 156.0
213.524002 144.0
213.832397 160.0
214.084854 2180.0
215.033173 180.0
215.087891 620.0
216.020782 156.0
216.104797 240.0
216.193405 152.0
216.289993 140.0
216.486145 220.0
216.896332 156.0
217.057571 168.0
217.084717 128.0
218.072266 200.0
219.086823 216.0
220.020432 180.0
221.001663 148.0
221.095001 476.0
221.12851 148.0
221.297638 192.0
222.053711 228.0
222.092834 936.0
222.124573 264.0
222.171936 180.0
222.649826 200.0
223.072113 520.0
223.10321 496.0
223.163895 180.0
224.080612 632.0
224.103836 572.0
225.089706 940.0
226.087265 2696.0
226.437469 148.0
227.070099 3504.0
227.093719 2080.0
227.216827 160.0
227.78421 164.0
227.935074 148.0
228.079758 488.0
228.102875 752.0
228.793549 100.0
229.074524 288.0
229.09668 256.0
229.314697 104.0
229.648682 160.0
230.086426 188.0
231.097427 160.0
231.59285 128.0
232.079803 224.0
232.354767 184.0
233.078201 272.0
233.408707 180.0
234.094757 176.0
234.216522 184.0
234.469238 116.0
234.559525 156.0
234.97731 144.0
235.064468 192.0
235.096802 320.0
236.073029 172.0
236.108276 288.0
236.979919 168.0
237.095718 356.0
237.642181 148.0
237.995163 196.0
238.080597 240.0
238.119675 376.0
239.104813 784.0
239.612961 208.0
240.067001 408.0
240.10202 1476.0
240.135147 548.0
240.222412 116.0
240.523712 160.0
240.68631 188.0
240.739899 224.0
241.076477 588.0
241.108475 1804.0
241.162064 196.0
241.88858 200.0
242.08638 292.0
242.115189 548.0
242.963058 184.0
243.097717 508.0
243.815063 172.0
244.099533 372.0
244.511688 204.0
246.097809 180.0
246.313858 164.0
247.08783 248.0
247.906372 140.0
248.116379 164.0
248.260605 168.0
248.822266 164.0
248.929016 204.0
249.08226 172.0
249.102371 124.0
249.755585 164.0
250.087097 484.0
250.119904 424.0
250.174088 228.0
251.093277 1724.0
251.275177 176.0
251.438049 156.0
251.83902 192.0
252.100021 2168.0
252.240311 156.0
252.331985 180.0
252.581818 160.0
252.609222 168.0
252.874725 132.0
252.985641 188.0
253.10968 19604.0
253.157272 296.0
253.498077 148.0
254.08049 1244.0
254.114105 4552.0
254.155121 332.0
254.407074 144.0
254.66745 144.0
255.091965 336.0
255.118393 1068.0
255.207687 148.0
255.821716 176.0
255.899017 200.0
256.11972 256.0
256.178375 156.0
256.929749 128.0
257.131744 148.0
258.086914 216.0
259.143127 140.0
259.405945 160.0
259.434784 168.0
261.451904 188.0
262.086304 152.0
262.237762 148.0
263.089172 292.0
264.100861 1076.0
264.136993 436.0
265.102875 312.0
265.145966 120.0
265.765869 156.0
265.84375 160.0
266.083954 324.0
266.116058 516.0
266.808441 148.0
267.121979 300.0
267.267029 164.0
267.485077 148.0
267.908417 140.0
268.096283 1088.0
268.133484 15284.0
268.204071 104.0
268.822723 124.0
269.104309 7564.0
269.135559 2872.0
269.373108 144.0
270.107819 2004.0
270.555695 212.0
270.579834 160.0
271.112213 144.0
271.14325 360.0
271.375977 180.0
271.480927 148.0
271.973053 188.0
272.460999 148.0
272.549042 208.0
272.72522 160.0
273.096771 184.0
273.231628 140.0
274.121918 256.0
275.127014 288.0
276.121185 148.0
277.800537 156.0
278.112366 156.0
279.131561 132.0
280.094177 160.0
280.128174 180.0
281.091034 140.0
281.132965 260.0
282.120209 468.0
282.148376 1364.0
282.812164 152.0
283.112061 172.0
283.155914 328.0
284.115662 140.0
284.263306 140.0
284.461334 156.0
284.787903 232.0
284.894531 160.0
285.277618 148.0
285.378479 180.0
285.77536 140.0
285.809021 260.0
286.155701 192.0
286.182617 152.0
286.279205 320.0
286.856415 180.0
286.937317 164.0
287.848328 156.0
287.96991 160.0
288.615356 184.0
288.686371 140.0
289.300873 116.0
289.417267 164.0
290.117645 156.0
291.540771 148.0
291.80249 148.0
292.132324 1592.0
293.13559 500.0
293.165924 108.0
294.130554 260.0
294.498016 160.0
295.058411 160.0
295.122253 540.0
295.264679 160.0
296.119202 152.0
296.148254 212.0
296.557739 196.0
297.26767 204.0
297.765442 172.0
299.937225 140.0
300.412384 196.0
301.099274 144.0
301.178711 160.0
301.465454 140.0
301.939087 148.0
301.990967 168.0
302.108582 180.0
304.488586 132.0
305.470032 228.0
305.539612 252.0
306.096497 188.0
306.138275 256.0
306.200958 192.0
306.375122 160.0
307.282867 172.0
307.720062 100.0
307.766724 164.0
308.126404 396.0
308.922028 168.0
309.129974 152.0
309.374969 160.0
309.477692 184.0
309.593628 128.0
309.838654 100.0
309.910187 180.0
309.981903 208.0
310.028778 344.0
310.144531 109136.0
310.242828 188.0
310.271057 152.0
310.423706 100.0
310.481384 156.0
310.515778 132.0
310.586975 124.0
310.631836 204.0
310.717865 220.0
310.757965 276.0
310.793701 164.0
311.002258 120.0
311.147095 15952.0
311.256775 100.0
311.301086 148.0
311.353119 120.0
311.389099 156.0
311.561523 136.0
311.586426 132.0
311.627319 124.0
311.700073 168.0
312.060944 144.0
312.14978 3124.0
312.511444 164.0
312.63736 112.0
312.810638 148.0
312.900299 120.0
313.037018 180.0
313.146667 332.0
313.213959 168.0
313.25708 192.0
313.290619 200.0
313.348541 244.0
313.426147 112.0
313.475647 148.0
313.511932 104.0
315.012115 188.0
315.121643 152.0
318.646912 156.0
318.705017 180.0
319.147614 168.0
320.468536 176.0
321.848907 188.0
322.924561 200.0
324.138153 180.0
324.288666 220.0
324.833679 152.0
325.533905 260.0
325.775848 104.0
326.006226 180.0
326.093811 168.0
326.451141 152.0
326.58078 124.0
326.698944 316.0
327.01474 144.0
327.070892 140.0
327.149109 148.0
327.218933 256.0
327.292664 128.0
327.384705 336.0
327.428284 176.0
327.511597 132.0
327.647217 140.0
327.711792 120.0
327.792358 224.0
327.841766 208.0
327.925964 144.0
327.956543 224.0
328.006104 112.0
328.070343 240.0
328.110413 552.0
328.155945 185096.0
328.297821 156.0
328.408447 216.0
328.492401 228.0
328.555298 336.0
328.683502 204.0
328.749481 4000.0
328.801483 248.0
328.834747 144.0
328.864075 324.0
328.932404 140.0
328.976379 184.0
329.039337 224.0
329.08316 436.0
329.158539 62052.0
329.249603 144.0
329.290588 140.0
329.344574 180.0
329.380066 180.0
329.542877 140.0
329.658569 128.0
329.710724 96.0
329.901306 132.0
329.971588 108.0
330.160797 6308.0
330.498566 104.0
330.542511 196.0
330.584717 96.0
330.70639 200.0
331.116577 108.0
331.162872 424.0
331.282074 216.0
331.34256 236.0
331.401367 260.0
331.517456 192.0
331.569794 236.0
331.759583 140.0
331.983398 136.0
332.088135 112.0
332.307373 204.0
332.447174 140.0
334.347321 164.0
341.709686 264.0
341.736755 156.0
343.300903 172.0
344.759094 160.0
345.204041 120.0
368.246826 224.0
389.548859 216.0
410.465332 192.0
431.792267 148.0
467.868439 148.0
501.511078 148.0
664.775024 140.0
712.399292 160.0
754.240784 164.0
1205.436279 196.0
1261.981079 152.0
1367.335083 308.0
1410.100098 180.0
1429.222778 140.0
1491.980591 192.0
1546.648193 176.0
1603.980957 196.0
1645.811523 180.0
1686.03064 164.0
1704.033325 232.0
1814.014771 192.0
1826.54834 164.0
1846.11377 152.0
1885.617554 156.0
1894.096924 204.0
1930.512329 172.0
1951.682373 172.0
1982.983887 180.0
1986.424194 232.0
