>compound Kaempferol
>formula C15H10O6
>ionization [M+H]+
>parentmass 287.05501449209055
#inchi InChI=1S/C15H10O6/c16-8-3-1-7(2-4-8)15-14(20)13(19)12-10(18)5-9(17)6-11(12)21-15/h1-6,16-18,20H
#inchikey IYRMWMYZSQPJKC
#Ion_Source DI-ESI
#Instrument qTof
#Compound_Source Commercial
#PI Norberto Lopes
#Data_Collector Denise Silva
#Scan -1
#Precursor_MZ 287.047
#ExactMass 286.048
#Charge 1
#CAS_Number 520-18-3
#Pubmed_ID  
#Smiles O=C1C2=C(C=C(C=C2OC(C3=CC=C(C=C3)O)=C1O)O)O
#INCHI_AUX  
#Library_Class 3
#SpectrumID CCMSLIB00000078877
#IonMode Positive
#UpdateWorkflowName UPDATE-SINGLE-ANNOTATED-BRONZE
#LibraryQualityString Bronze
#TaskID 09d793c0e0ad47e3a1cb90cea12cd007
##Scan# 1
#SpectrumFile gnps_kaempferol_pos_MSMS_287.mgf
#LibraryName gnps_library.mgf
#MQScore -1
#Organism gnps_library
#TIC_Query 0
#RT_Query -1
#MZErrorPPM -1
#SharedPeaks 0
#MassDiff 0
#LibMZ -1
#SpecMZ 287.047
#SpecCharge 0
#internalFilename spec-00000.mgf

>collision 10
115.051819 427.0
119.047684 246.0
121.025917 4510.0
128.059296 1020.0
129.064957 712.0
131.045029 333.0
133.0242 577.0
135.040268 475.0
136.011063 258.0
137.020065 2619.0
139.051224 526.0
141.067444 508.0
143.046661 290.0
145.059204 1522.0
147.038895 2277.0
153.013016 22238.0
154.018494 1053.0
155.054703 698.0
157.060791 3864.0
158.062515 301.0
161.056152 787.0
163.034515 253.0
165.013275 3560.0
166.018692 356.0
168.054626 237.0
169.061493 282.0
171.038406 1834.0
183.024445 1593.0
184.046997 564.0
185.053284 2090.0
188.964767 413.0
195.043503 344.0
197.056381 395.0
201.049103 278.0
203.064117 490.0
212.041718 234.0
213.050797 5721.0
214.054825 536.0
216.03894 568.0
217.043686 269.0
229.045105 1543.0
230.049179 281.0
231.060806 1680.0
241.045074 1891.0
242.052185 439.0
243.057114 248.0
258.047729 3383.0
259.052185 1380.0
269.040375 668.0
287.047028 13359.0
