>compound Quetiapine fumarate (Seroquel)
>formula C21H25N3O2S
>ionization [M+H]+
>parentmass 384.175659
#inchi InChI=1S/C21H25N3O2S/c25-14-16-26-15-13-23-9-11-24(12-10-23)21-17-5-1-3-7-19(17)27-20-8-4-2-6-18(20)22-21/h1-8,25H,9-16H2
#inchikey URKOMYMAXPYINW
#origInchi InChI=1S/2C21H25N3O2S.C4H4O4/c2*25-14-16-26-15-13-23-9-11-24(12-10-23)21-17-5-1-3-7-19(17)27-20-8-4-2-6-18(20)22-21;5-3(6)1-2-4(7)8/h2*1-8,25H,9-16H2;1-2H,(H,5,6)(H,7,8)/b;;2-1+
#Ion_Source LC-ESI
#Instrument qTof
#Compound_Source Commercial
#PI Dorrestein
#Data_Collector Garg_Neha
#Scan -1
#Precursor_MZ 384.174
#ExactMass 383.167
#Charge 1
#CAS_Number 111974-72-2
#Pubmed_ID N/A
#Smiles C1(=CC=C2C(=C1)N=C(C3=C(S2)C=CC=C3)N4CCN(CC4)CCOCCO).OC(/C=C/C(O)=O)=O.C56=C(C=CC=C5)N=C(C7=C(S6)C=CC=C7)N8CCN(CC8)CCOCCO
#INCHI_AUX N/A
#Library_Class 1
#SpectrumID CCMSLIB00000078279
#IonMode Positive
#UpdateWorkflowName UPDATE-SINGLE-ANNOTATED-GOLD
#LibraryQualityString Gold
#TaskID 77f51c88eb8b467eb4a01dd2d0cb90d2
##Scan# 1110
#SpectrumFile Plate4_61_88_GH5_01_16506.mzXML
#LibraryName FDALibrary_2_04302014.mgf
#MQScore -1
#Organism FDALibrary_2_04302014
#TIC_Query 0
#RT_Query -1
#MZErrorPPM -1
#SharedPeaks 0
#MassDiff 0
#LibMZ -1
#SpecMZ 384.174
#SpecCharge 0
#internalFilename spec-00000.mgf

>collision 10
44.902199 208.0
44.912743 248.0
44.980091 160.0
45.163853 212.0
45.321823 148.0
45.356667 168.0
45.366051 160.0
45.408958 280.0
45.450546 148.0
45.489464 160.0
45.504017 200.0
45.539146 152.0
45.6749 180.0
45.715263 188.0
45.748913 236.0
45.766415 148.0
45.914646 184.0
45.998096 144.0
46.207176 212.0
46.437447 136.0
46.558838 160.0
46.576492 144.0
46.591179 168.0
46.73011 164.0
46.799522 144.0
46.817226 168.0
46.909878 184.0
46.923199 140.0
47.021721 204.0
47.036736 244.0
47.09272 172.0
47.107742 152.0
47.155567 140.0
47.235844 180.0
47.316982 180.0
47.36491 180.0
47.415604 204.0
47.42931 168.0
47.47044 200.0
47.499241 232.0
47.530056 148.0
47.572838 152.0
47.613735 240.0
47.681854 208.0
47.719727 160.0
47.788433 160.0
47.9268 148.0
48.012653 172.0
48.032074 144.0
48.16547 160.0
48.316147 212.0
48.406113 188.0
48.421349 160.0
48.436581 168.0
48.503094 144.0
48.534012 172.0
48.555782 200.0
48.585938 108.0
48.664017 208.0
48.735756 148.0
48.783497 160.0
48.832558 112.0
48.878071 148.0
49.013771 140.0
49.062138 152.0
49.073071 140.0
49.369095 168.0
49.443932 136.0
49.572079 172.0
49.598705 200.0
49.671623 208.0
49.702488 160.0
49.814888 132.0
49.939903 172.0
49.979294 176.0
50.019772 176.0
50.036999 156.0
50.079247 148.0
50.089104 176.0
50.350895 184.0
50.51965 148.0
50.533375 200.0
50.88813 164.0
50.906586 156.0
51.072868 148.0
51.330643 236.0
51.423374 148.0
51.461914 180.0
51.491901 140.0
51.549797 152.0
51.609661 148.0
51.650555 184.0
51.690613 176.0
51.886841 164.0
52.043224 164.0
52.069073 208.0
52.102112 164.0
52.113605 204.0
52.126869 156.0
52.181156 164.0
52.427296 180.0
52.526779 172.0
52.585938 180.0
52.636463 164.0
52.695686 172.0
52.81567 176.0
52.879333 188.0
53.000977 168.0
53.076351 180.0
53.190964 176.0
53.279682 212.0
53.455475 192.0
53.502052 180.0
53.625866 160.0
53.743988 216.0
53.769428 152.0
53.841789 192.0
54.052296 232.0
54.137199 160.0
54.185535 148.0
54.534786 188.0
54.549484 144.0
54.620831 200.0
54.667618 212.0
54.826191 148.0
54.874836 192.0
54.958904 232.0
54.981998 240.0
55.003181 416.0
55.026798 156.0
55.043041 164.0
55.133892 176.0
55.177494 160.0
55.297314 140.0
55.31329 156.0
55.405003 132.0
55.426243 128.0
55.47506 152.0
55.494331 160.0
55.556622 200.0
55.58778 176.0
55.682789 176.0
55.742214 168.0
55.754101 156.0
55.819511 228.0
55.846279 384.0
55.883179 144.0
55.919182 160.0
55.953419 144.0
55.990646 232.0
56.005539 144.0
56.019344 224.0
56.122467 156.0
56.200832 160.0
56.217724 212.0
56.324188 116.0
56.391979 156.0
56.412907 184.0
56.487675 212.0
56.532177 152.0
56.559498 212.0
56.57896 152.0
56.749756 180.0
56.821747 176.0
57.074074 148.0
57.094536 160.0
57.128216 144.0
57.1408 220.0
57.186901 140.0
57.241882 152.0
57.26218 212.0
57.362888 196.0
57.402023 156.0
57.412891 144.0
57.507938 204.0
57.615555 104.0
57.693943 144.0
57.844311 136.0
58.013157 164.0
58.037415 160.0
58.073154 176.0
58.123871 152.0
58.347706 140.0
58.412533 140.0
58.432346 156.0
58.63483 220.0
58.900314 160.0
58.975185 172.0
59.021046 208.0
59.047043 140.0
59.160271 176.0
59.270473 172.0
59.363609 236.0
59.457294 164.0
59.480652 164.0
59.554356 140.0
59.664398 124.0
59.692669 200.0
59.761887 212.0
59.926632 144.0
59.970154 132.0
60.134464 196.0
60.170315 160.0
60.212006 168.0
60.284615 180.0
60.304707 184.0
60.336872 268.0
60.382011 160.0
60.493416 200.0
60.529026 140.0
60.575432 224.0
60.603374 160.0
60.673119 176.0
60.694138 172.0
60.717976 112.0
60.82386 160.0
61.00378 144.0
61.090866 188.0
61.199806 172.0
61.216938 184.0
61.27145 144.0
61.35405 152.0
61.497559 152.0
61.616573 168.0
61.639675 152.0
61.666241 200.0
61.804955 188.0
61.861763 212.0
61.99646 340.0
62.068954 148.0
62.34425 104.0
62.391159 208.0
62.451759 160.0
62.46706 132.0
62.538296 176.0
62.640644 256.0
62.721008 136.0
62.829815 172.0
62.864529 208.0
62.903156 228.0
62.930824 148.0
63.000313 164.0
63.034588 104.0
63.073002 176.0
63.129974 116.0
63.268597 180.0
63.307396 160.0
63.345169 144.0
63.391117 152.0
63.534645 180.0
63.560787 196.0
63.660793 164.0
63.690968 148.0
63.806973 144.0
63.893745 148.0
63.919903 152.0
64.149246 148.0
64.366226 192.0
64.380127 176.0
64.613968 144.0
64.680641 144.0
64.725182 196.0
64.756432 208.0
64.80616 180.0
64.865387 216.0
64.883018 168.0
64.918297 156.0
65.085182 332.0
65.106789 124.0
65.1446 152.0
65.171913 192.0
65.306953 192.0
65.376129 144.0
65.436394 148.0
65.529099 208.0
65.572609 180.0
65.659447 200.0
65.730652 188.0
65.820679 160.0
65.833961 188.0
65.957619 172.0
66.042526 172.0
66.057945 152.0
66.0858 276.0
66.112015 188.0
66.137589 160.0
66.244034 260.0
66.299873 164.0
66.325806 140.0
66.348495 220.0
66.369576 216.0
66.392281 176.0
66.565918 188.0
66.583267 152.0
66.596771 164.0
66.695885 160.0
66.752785 204.0
66.789124 164.0
66.80809 172.0
66.848763 152.0
67.039078 152.0
67.251717 180.0
67.265999 240.0
67.292122 140.0
67.324738 156.0
67.377045 196.0
67.470184 192.0
67.677979 184.0
67.725471 144.0
67.850014 152.0
67.89257 176.0
67.915604 144.0
68.007713 376.0
68.124077 168.0
68.199104 196.0
68.211166 256.0
68.244049 200.0
68.384102 176.0
68.507545 184.0
68.555153 156.0
68.634209 104.0
68.812469 144.0
68.83223 132.0
69.013214 152.0
69.340149 240.0
69.552452 144.0
69.728622 172.0
69.754349 168.0
69.799995 144.0
69.823273 152.0
69.836235 192.0
69.931419 148.0
70.037979 236.0
70.08284 164.0
70.17704 180.0
70.199638 168.0
70.253098 160.0
70.431625 156.0
70.665665 160.0
70.679047 144.0
70.799576 140.0
70.928589 160.0
70.956795 164.0
71.085121 180.0
71.126518 144.0
71.297829 200.0
71.624252 324.0
71.688255 164.0
71.733765 332.0
71.750038 208.0
71.776344 124.0
71.843376 144.0
71.926064 156.0
71.981773 168.0
72.143799 208.0
72.186676 156.0
72.374062 152.0
72.486465 200.0
72.648621 192.0
72.779305 164.0
72.808876 184.0
72.854294 212.0
72.881218 220.0
72.893112 168.0
72.957695 140.0
73.024017 168.0
73.083603 136.0
73.115883 164.0
73.149925 152.0
73.431068 180.0
73.506134 172.0
73.522408 204.0
73.63929 144.0
73.875175 160.0
73.897415 160.0
74.066063 156.0
74.101158 168.0
74.221138 184.0
74.236565 156.0
74.253716 220.0
74.329201 180.0
74.518784 184.0
74.610878 172.0
74.631508 148.0
74.648705 140.0
74.74675 180.0
74.875862 180.0
74.894806 144.0
74.927483 132.0
74.938934 332.0
75.080307 108.0
75.175827 188.0
75.279404 144.0
75.291496 156.0
75.415886 220.0
75.450462 160.0
75.499901 116.0
75.516167 152.0
75.767166 160.0
75.859009 304.0
75.980408 152.0
75.996017 148.0
76.091476 200.0
76.188736 144.0
76.254761 140.0
76.283577 228.0
76.350235 140.0
76.386398 164.0
76.449821 124.0
76.536583 208.0
76.759621 140.0
76.778801 140.0
76.874748 140.0
76.893944 192.0
76.925362 160.0
76.950195 180.0
77.016167 168.0
77.040619 144.0
77.08255 200.0
77.194427 208.0
77.216232 212.0
77.285942 164.0
77.302879 176.0
77.317589 212.0
77.336136 188.0
77.396942 152.0
77.507759 176.0
77.549431 156.0
77.584877 152.0
77.609421 140.0
77.635719 280.0
77.664452 164.0
77.725182 160.0
77.853989 180.0
78.102898 180.0
78.21199 144.0
78.284607 180.0
78.363441 156.0
78.691757 132.0
78.717979 164.0
78.837677 168.0
78.942398 220.0
78.99369 164.0
79.007843 184.0
79.032829 132.0
79.083931 156.0
79.20256 220.0
79.25486 172.0
79.298241 204.0
79.411713 180.0
79.472031 140.0
79.496872 164.0
79.606934 216.0
79.624687 164.0
79.674423 168.0
79.708183 196.0
79.821945 184.0
79.917862 156.0
79.939888 212.0
80.090683 140.0
80.126305 160.0
80.284691 168.0
80.342026 144.0
80.383064 304.0
80.468735 148.0
80.553223 156.0
80.701004 144.0
80.835159 196.0
80.851265 172.0
81.035118 160.0
81.143234 152.0
81.23111 192.0
81.351334 168.0
81.368286 152.0
81.401611 156.0
81.478844 212.0
81.529152 208.0
81.54892 180.0
81.591301 252.0
81.674782 160.0
81.887169 148.0
81.908127 176.0
82.005043 152.0
82.039093 124.0
82.094353 108.0
82.178917 172.0
82.208069 296.0
82.265831 156.0
82.314575 160.0
82.508934 116.0
82.524406 216.0
82.553108 380.0
82.576614 148.0
82.618217 208.0
82.840889 152.0
82.924965 160.0
82.998566 152.0
83.199951 156.0
83.299828 208.0
83.428856 188.0
83.456772 204.0
83.532509 228.0
83.574348 196.0
83.800125 160.0
83.845192 180.0
84.239792 164.0
84.269836 148.0
84.407936 188.0
84.484749 140.0
84.6092 140.0
84.632996 152.0
84.711746 164.0
84.959076 144.0
84.995499 172.0
85.05098 160.0
85.100548 164.0
85.263794 212.0
85.355949 180.0
85.370659 148.0
85.435921 120.0
85.538086 144.0
85.62278 196.0
85.650414 148.0
85.683067 148.0
85.711205 192.0
85.760857 136.0
85.8218 232.0
85.950912 148.0
85.980438 196.0
86.097771 220.0
86.275772 108.0
86.322197 200.0
86.35598 180.0
86.398201 216.0
86.487518 312.0
86.536072 120.0
86.553497 160.0
86.590469 108.0
86.735008 144.0
86.844452 168.0
86.888977 144.0
86.922371 152.0
86.991043 180.0
87.022606 164.0
87.146698 128.0
87.195358 212.0
87.210228 152.0
87.357124 248.0
87.396111 172.0
87.478081 184.0
87.494835 152.0
87.53933 164.0
87.61216 176.0
87.653152 200.0
87.729568 144.0
87.742615 180.0
87.856377 184.0
87.979546 140.0
88.386879 136.0
88.637901 172.0
88.653397 240.0
88.795372 196.0
88.82914 140.0
88.867744 148.0
89.041229 192.0
89.061203 164.0
89.16523 204.0
89.22831 208.0
89.262398 128.0
89.283669 172.0
89.306145 168.0
89.385254 160.0
89.577286 224.0
89.631226 140.0
89.746902 184.0
89.823883 176.0
89.852524 168.0
89.9431 152.0
89.989105 188.0
90.113068 144.0
90.26049 240.0
90.281296 160.0
90.325768 156.0
90.371231 220.0
90.45536 196.0
90.504257 164.0
90.599281 156.0
90.745209 196.0
90.902641 176.0
91.060402 164.0
91.169083 228.0
91.235031 156.0
91.255943 168.0
91.276917 124.0
91.324402 188.0
91.343956 156.0
91.465202 168.0
91.566116 188.0
91.613731 204.0
91.655594 136.0
91.802429 156.0
91.828407 212.0
91.905434 144.0
92.090607 164.0
92.236237 148.0
92.282883 212.0
92.333328 140.0
92.553398 196.0
92.663979 120.0
92.804398 148.0
92.954964 284.0
93.013512 160.0
93.029648 228.0
93.057663 180.0
93.076866 180.0
93.155609 168.0
93.18557 148.0
93.219009 184.0
93.24015 160.0
93.259499 152.0
93.298943 164.0
93.401657 176.0
93.486305 140.0
93.524803 212.0
93.572075 136.0
93.633911 316.0
93.720184 228.0
93.812447 232.0
93.850372 196.0
94.03627 152.0
94.06424 140.0
94.108917 180.0
94.30983 232.0
94.360085 148.0
94.427765 160.0
94.449043 232.0
94.497406 148.0
94.510948 220.0
94.53804 204.0
94.727783 168.0
94.77346 192.0
94.875008 156.0
94.927597 124.0
94.9468 168.0
95.012749 144.0
95.196228 160.0
95.23188 188.0
95.296387 172.0
95.313698 148.0
95.337013 172.0
95.381714 164.0
95.463371 164.0
95.485748 152.0
95.560631 144.0
95.694923 192.0
95.712448 160.0
95.90921 224.0
95.926758 172.0
96.078163 628.0
96.149109 144.0
96.180336 188.0
96.223282 228.0
96.248665 180.0
96.26683 368.0
96.336555 160.0
96.350227 184.0
96.381485 140.0
96.467484 168.0
96.584808 156.0
96.659149 204.0
96.737259 164.0
96.880394 184.0
96.954666 132.0
97.077698 192.0
97.200325 200.0
97.235298 172.0
97.288292 160.0
97.305511 176.0
97.362335 180.0
97.508835 172.0
97.577087 156.0
97.673447 160.0
97.880089 152.0
97.91304 180.0
97.932167 144.0
97.982216 240.0
98.006149 148.0
98.100754 276.0
98.199844 188.0
98.226959 140.0
98.288116 176.0
98.353241 152.0
98.372559 132.0
98.581284 192.0
98.596176 148.0
98.734558 332.0
98.772141 148.0
99.080956 172.0
99.110672 168.0
99.152702 212.0
99.186935 100.0
99.213547 168.0
99.220207 152.0
99.269249 140.0
99.310562 188.0
99.397156 200.0
99.431923 144.0
99.639069 188.0
99.723885 152.0
99.850105 172.0
99.871017 148.0
99.921425 176.0
100.000397 144.0
100.10611 156.0
100.148079 140.0
100.197479 164.0
100.297119 184.0
100.327019 164.0
100.344963 180.0
100.36689 200.0
100.407333 156.0
100.439835 236.0
100.768074 164.0
100.899979 208.0
101.04998 164.0
101.077988 168.0
101.100006 144.0
101.152512 152.0
101.295341 176.0
101.332703 224.0
101.550774 184.0
101.635033 160.0
101.735382 224.0
101.897491 128.0
101.980042 200.0
102.006577 140.0
102.313583 228.0
102.342545 232.0
102.366714 164.0
102.388863 188.0
102.552055 168.0
102.575645 148.0
102.7174 152.0
102.75573 180.0
102.869644 152.0
102.915176 204.0
102.947479 140.0
103.015503 200.0
103.052383 180.0
103.076767 144.0
103.210175 208.0
103.487778 180.0
103.505188 180.0
103.700073 168.0
103.898796 300.0
103.926384 240.0
104.047699 168.0
104.100777 148.0
104.121567 240.0
104.359825 220.0
104.425217 128.0
104.530685 192.0
104.557137 276.0
104.588219 208.0
104.625587 140.0
104.6464 172.0
104.68132 156.0
104.713905 172.0
104.729355 212.0
104.801102 184.0
104.848366 156.0
104.919411 136.0
104.94825 208.0
105.022392 144.0
105.091026 140.0
105.15905 144.0
105.250229 236.0
105.434082 212.0
105.457565 188.0
105.552109 136.0
105.702415 128.0
105.76413 168.0
105.804306 148.0
105.855621 132.0
105.937424 164.0
106.043007 212.0
106.158737 148.0
106.167801 208.0
106.273415 180.0
106.333153 172.0
106.511787 232.0
106.60424 188.0
106.696732 172.0
106.734825 152.0
106.897041 196.0
106.942696 224.0
107.009453 160.0
107.186584 156.0
107.314384 180.0
107.603226 144.0
107.694397 268.0
107.774658 184.0
107.863518 140.0
107.905792 116.0
108.035156 200.0
108.057915 156.0
108.080124 172.0
108.189949 200.0
108.341545 156.0
108.36805 196.0
108.860069 140.0
108.884995 168.0
109.035202 252.0
109.134354 140.0
109.284111 168.0
109.33197 152.0
109.359024 140.0
109.415718 220.0
109.457199 152.0
109.535912 164.0
109.714279 168.0
109.740242 192.0
109.938408 196.0
110.057388 168.0
110.094978 188.0
110.136749 140.0
110.277809 140.0
110.333176 216.0
110.379173 152.0
110.433548 188.0
110.448189 152.0
110.494209 144.0
110.559074 228.0
110.623962 184.0
110.650299 192.0
110.697922 172.0
110.754494 156.0
110.798813 164.0
110.867477 120.0
110.922379 164.0
110.942375 180.0
110.98455 188.0
111.110153 184.0
111.164101 348.0
111.181496 192.0
111.196182 168.0
111.302658 108.0
111.408257 168.0
111.448174 228.0
111.488098 144.0
111.521812 168.0
111.549057 192.0
111.566238 136.0
111.683502 172.0
111.734024 176.0
111.805763 156.0
111.860382 192.0
111.923538 172.0
111.978294 180.0
112.126457 184.0
112.300568 132.0
112.404137 184.0
112.611595 132.0
112.680511 156.0
112.737778 164.0
112.896332 208.0
112.942856 160.0
112.981743 168.0
113.048645 172.0
113.085999 160.0
113.264038 152.0
113.355698 156.0
113.39373 156.0
113.644653 188.0
113.777779 184.0
113.856339 144.0
113.890762 192.0
113.931656 148.0
114.011971 140.0
114.028427 156.0
114.070084 120.0
114.0886 480.0
114.175117 148.0
114.198517 196.0
114.251694 148.0
114.270844 144.0
114.32737 156.0
114.377243 224.0
114.487961 180.0
114.526291 252.0
114.647736 176.0
114.781685 224.0
114.818283 164.0
114.850655 136.0
114.90332 120.0
114.944481 180.0
114.991096 284.0
115.054008 156.0
115.073097 232.0
115.131996 144.0
115.180389 244.0
115.251625 180.0
115.268715 140.0
115.315735 152.0
115.334969 144.0
115.362755 180.0
115.416672 148.0
115.439728 148.0
115.516724 168.0
115.549416 156.0
115.590149 164.0
115.622635 232.0
115.675072 152.0
115.764999 228.0
115.833794 164.0
115.897804 208.0
116.066353 132.0
116.118912 112.0
116.290688 156.0
116.426491 296.0
116.459862 172.0
116.578026 140.0
116.646805 148.0
116.699852 184.0
116.82959 192.0
116.945786 156.0
116.960854 156.0
117.014671 220.0
117.054787 348.0
117.080917 204.0
117.124496 156.0
117.294861 128.0
117.490959 204.0
117.510376 200.0
117.743507 240.0
117.794395 232.0
117.953087 148.0
117.9841 116.0
118.203781 144.0
118.236427 176.0
118.283112 252.0
118.300507 216.0
118.407455 176.0
118.520821 168.0
118.693504 176.0
118.786911 120.0
118.814964 168.0
118.908272 192.0
118.959312 192.0
119.027672 200.0
119.057854 160.0
119.120705 124.0
119.129166 104.0
119.156761 220.0
119.23864 104.0
119.26548 164.0
119.333733 116.0
119.497154 180.0
119.61335 252.0
119.68869 292.0
119.721764 172.0
119.808479 192.0
119.838593 112.0
119.917435 248.0
119.993729 184.0
120.032974 228.0
120.071716 136.0
120.131744 112.0
120.207481 188.0
120.238037 236.0
120.2771 136.0
120.302254 360.0
120.419662 104.0
120.569992 164.0
120.64431 156.0
120.770409 156.0
120.839722 172.0
120.882713 156.0
121.057388 176.0
121.103828 160.0
121.179054 140.0
121.239662 176.0
121.258377 192.0
121.355835 208.0
121.404785 148.0
121.4282 144.0
121.457664 148.0
121.531303 156.0
121.577385 156.0
121.902397 244.0
122.019341 156.0
122.104645 196.0
122.155037 132.0
122.207428 204.0
122.270462 216.0
122.395126 216.0
122.500839 232.0
122.602188 192.0
122.622025 140.0
122.638542 128.0
122.758713 140.0
122.890404 176.0
122.994774 180.0
123.02433 248.0
123.041138 172.0
123.080879 164.0
123.123817 180.0
123.396835 152.0
123.487495 232.0
123.562706 180.0
123.593681 192.0
123.632126 160.0
123.706551 228.0
123.753044 252.0
123.787766 176.0
123.994499 176.0
124.089813 180.0
124.189087 256.0
124.221947 152.0
124.282776 172.0
124.311623 204.0
124.333817 160.0
124.395966 192.0
124.487106 160.0
124.504761 184.0
124.53363 144.0
124.555847 148.0
124.577309 188.0
124.693604 152.0
124.847 144.0
124.891983 176.0
125.002716 140.0
125.031647 160.0
125.441475 152.0
125.504616 168.0
125.575516 172.0
125.610947 160.0
125.880997 148.0
125.908989 132.0
125.945763 168.0
126.036598 184.0
126.079132 216.0
126.115028 212.0
126.175934 144.0
126.227356 164.0
126.289978 164.0
126.305634 160.0
126.394066 156.0
126.468979 156.0
126.500313 152.0
126.54509 208.0
126.853401 220.0
126.896843 200.0
126.957382 168.0
126.981514 200.0
127.008972 160.0
127.042618 156.0
127.086784 128.0
127.267052 128.0
127.298012 152.0
127.336662 168.0
127.451233 152.0
127.541122 144.0
127.619804 148.0
127.64994 180.0
127.753288 136.0
127.803078 108.0
127.864998 140.0
127.896515 332.0
127.930275 144.0
128.005981 172.0
128.103668 160.0
128.271301 184.0
128.453079 184.0
128.573929 156.0
128.633606 160.0
128.710419 100.0
128.809738 152.0
128.88298 160.0
128.940781 184.0
129.166885 408.0
129.244858 104.0
129.329788 216.0
129.370544 144.0
129.391968 156.0
129.415817 148.0
129.50708 172.0
129.523346 184.0
129.550751 196.0
129.751724 204.0
129.83049 296.0
129.882599 164.0
129.912155 168.0
130.03241 172.0
130.116394 160.0
130.315781 164.0
130.386703 352.0
130.53447 148.0
130.58223 188.0
130.6362 164.0
130.655014 144.0
130.724014 196.0
130.77327 128.0
130.826324 124.0
130.900833 184.0
131.0466 140.0
131.071609 152.0
131.129486 156.0
131.196243 188.0
131.251877 140.0
131.322433 152.0
131.555176 152.0
131.591324 168.0
131.749329 180.0
131.854736 112.0
131.913452 148.0
131.998428 176.0
132.014435 232.0
132.101135 2716.0
132.197433 144.0
132.266098 140.0
132.307297 200.0
132.387436 152.0
132.422852 136.0
132.49968 160.0
132.568787 112.0
132.593628 172.0
132.680038 172.0
132.950012 140.0
133.070755 152.0
133.104019 372.0
133.142532 200.0
133.183334 148.0
133.237854 184.0
133.439362 136.0
133.561752 236.0
133.792648 160.0
133.858871 136.0
133.887863 140.0
133.959015 148.0
134.108231 204.0
134.209656 140.0
134.295334 132.0
134.585754 140.0
134.66658 144.0
134.777466 188.0
134.80928 188.0
134.940079 204.0
135.092255 308.0
135.140564 168.0
135.216843 172.0
135.237671 180.0
135.293228 204.0
135.420593 144.0
135.48674 168.0
135.543365 216.0
135.562057 128.0
135.702545 208.0
135.785873 144.0
135.85405 148.0
135.935257 216.0
135.96489 160.0
136.032547 196.0
136.172745 212.0
136.260315 200.0
136.376511 172.0
136.518799 196.0
136.643921 164.0
136.708481 140.0
136.769592 248.0
136.855728 152.0
136.91394 168.0
136.949554 300.0
137.023422 180.0
137.043289 144.0
137.121292 144.0
137.2052 164.0
137.228516 176.0
137.272156 112.0
137.319763 124.0
137.374634 184.0
137.436096 148.0
137.487442 148.0
137.655518 148.0
137.697556 144.0
137.858749 180.0
137.959259 176.0
138.048096 168.0
138.115921 152.0
138.158035 152.0
138.23056 140.0
138.319504 180.0
138.504486 180.0
138.565231 124.0
138.802109 192.0
138.840088 184.0
138.917694 228.0
139.055481 384.0
139.081085 140.0
139.147018 148.0
139.189178 288.0
139.229202 156.0
139.316116 144.0
139.3396 148.0
139.377197 192.0
139.424606 168.0
139.51236 372.0
139.529968 160.0
139.837418 160.0
139.969955 156.0
140.009979 156.0
140.050293 172.0
140.104202 232.0
140.127762 152.0
140.167816 184.0
140.232162 132.0
140.322159 200.0
140.346954 176.0
140.403625 272.0
140.646561 180.0
140.693771 180.0
140.779953 224.0
140.822571 148.0
140.856567 124.0
140.892151 164.0
140.926575 168.0
141.050476 160.0
141.108597 124.0
141.180511 156.0
141.205261 216.0
141.386337 156.0
141.417267 168.0
141.597046 140.0
141.931732 172.0
141.966736 144.0
142.009079 164.0
142.063934 172.0
142.128052 140.0
142.276596 156.0
142.3806 268.0
142.465179 224.0
142.600616 144.0
142.637894 136.0
142.724243 156.0
142.808609 192.0
142.937668 172.0
143.062073 280.0
143.143463 160.0
143.216858 160.0
143.309769 120.0
143.433685 196.0
143.51712 168.0
143.56958 188.0
143.626709 152.0
143.729416 172.0
143.934616 136.0
144.041245 156.0
144.078369 604.0
144.105698 300.0
144.185516 196.0
144.274933 196.0
144.336121 232.0
144.381561 232.0
144.3983 144.0
144.518372 144.0
144.667252 188.0
144.825317 180.0
144.95369 176.0
144.970474 156.0
145.011688 200.0
145.130005 148.0
145.333923 172.0
145.552048 152.0
145.58699 156.0
145.649445 172.0
145.740738 176.0
146.114105 164.0
146.179688 156.0
146.446457 120.0
146.517365 160.0
146.54509 184.0
146.592545 208.0
146.918045 196.0
147.007309 152.0
147.055588 180.0
147.073303 152.0
147.176285 144.0
147.22699 172.0
147.312454 168.0
147.333267 200.0
147.362259 144.0
147.466553 156.0
147.66684 164.0
147.833771 156.0
147.900558 176.0
147.988693 172.0
148.07843 264.0
148.218796 208.0
148.262421 204.0
148.375656 128.0
148.76207 236.0
148.82518 232.0
148.884766 164.0
148.983047 180.0
149.052505 232.0
149.077805 172.0
149.121384 112.0
149.16774 196.0
149.255264 160.0
149.374435 256.0
149.626175 156.0
149.732803 128.0
149.898666 112.0
149.917786 168.0
149.944183 140.0
150.051437 168.0
150.102631 156.0
150.125854 140.0
150.269409 192.0
150.383194 272.0
150.425003 180.0
150.453979 148.0
150.517456 220.0
150.608109 200.0
150.769073 192.0
150.857101 168.0
150.98175 144.0
151.047714 176.0
151.209274 184.0
151.312836 184.0
151.359787 108.0
151.631134 160.0
151.713867 188.0
151.837357 220.0
152.008194 164.0
152.089172 220.0
152.16037 144.0
152.187378 164.0
152.303085 100.0
152.361755 172.0
152.445297 236.0
152.474777 152.0
152.504272 188.0
152.523941 164.0
152.699875 152.0
152.814117 144.0
152.839539 180.0
152.8647 108.0
152.978149 144.0
153.015945 172.0
153.082413 140.0
153.146454 168.0
153.171234 188.0
153.200638 204.0
153.223846 220.0
153.301056 164.0
153.415039 164.0
153.513657 176.0
153.624649 164.0
153.734314 180.0
153.836884 196.0
153.883789 184.0
154.116714 116.0
154.139847 216.0
154.244461 188.0
154.311218 156.0
154.333694 172.0
154.444748 184.0
154.533798 228.0
154.584702 280.0
154.63031 144.0
154.647644 180.0
154.676758 188.0
154.754425 116.0
154.937927 196.0
154.959656 148.0
155.020538 140.0
155.046387 212.0
155.088516 192.0
155.140564 220.0
155.191803 144.0
155.525055 144.0
155.560806 196.0
155.591492 168.0
155.672363 184.0
155.781158 200.0
155.810623 140.0
155.828018 304.0
155.872742 216.0
155.908676 168.0
156.049026 156.0
156.06044 124.0
156.098343 164.0
156.220825 140.0
156.30043 168.0
156.330292 152.0
156.388596 156.0
156.430679 168.0
156.489075 212.0
156.645248 144.0
156.668259 224.0
156.783524 212.0
156.801865 168.0
157.110168 164.0
157.135117 144.0
157.27179 120.0
157.319855 172.0
157.35582 148.0
157.52858 132.0
157.610779 128.0
157.826965 204.0
157.846786 164.0
157.886475 200.0
157.91922 112.0
157.978363 168.0
158.116943 15920.0
158.157181 152.0
158.18222 184.0
158.209747 144.0
158.273697 156.0
158.344681 140.0
158.382538 140.0
158.491562 192.0
158.533096 216.0
158.624695 188.0
158.69931 240.0
158.734116 184.0
158.816162 192.0
158.934799 164.0
159.025345 320.0
159.114517 1216.0
159.177551 148.0
159.305405 128.0
159.363419 216.0
159.386032 156.0
159.421219 192.0
159.479797 248.0
159.501648 168.0
159.716888 100.0
159.740982 176.0
159.78833 292.0
159.846191 152.0
159.872681 168.0
159.929245 140.0
160.028732 116.0
160.052017 188.0
160.120224 560.0
160.218826 172.0
160.251663 196.0
160.276398 132.0
160.3423 156.0
160.532516 132.0
160.649536 132.0
160.768814 164.0
160.816574 168.0
160.848679 104.0
160.877029 160.0
160.919449 180.0
161.007141 196.0
161.038635 172.0
161.091858 148.0
161.194183 168.0
161.25087 144.0
161.283722 200.0
161.384842 176.0
161.483475 172.0
161.503708 164.0
161.525055 108.0
161.565674 144.0
161.657654 164.0
161.82962 172.0
161.86702 200.0
161.916626 136.0
161.951706 224.0
162.05304 164.0
162.167068 168.0
162.258331 164.0
162.296356 332.0
162.329315 160.0
162.354675 172.0
162.38765 188.0
162.471359 244.0
162.494186 280.0
162.583008 144.0
162.639069 180.0
162.727692 192.0
162.791168 172.0
162.872437 144.0
163.108154 112.0
163.214508 120.0
163.251129 148.0
163.271469 144.0
163.445389 140.0
163.569153 156.0
163.60733 192.0
163.626892 164.0
163.728622 184.0
163.770309 156.0
163.870804 116.0
163.900238 160.0
163.948654 164.0
163.972076 168.0
163.994476 200.0
164.055649 180.0
164.093933 144.0
164.155136 140.0
164.22879 200.0
164.292084 376.0
164.75238 144.0
164.810013 108.0
164.833466 152.0
164.872467 144.0
164.946869 152.0
164.986938 200.0
165.080368 148.0
165.152298 160.0
165.235565 320.0
165.258591 180.0
165.28418 152.0
165.423019 160.0
165.45311 220.0
165.504303 172.0
165.604187 172.0
165.637482 168.0
165.696396 204.0
165.716644 204.0
165.798889 148.0
165.991165 232.0
166.021271 124.0
166.063644 312.0
166.114258 216.0
166.201492 196.0
166.246399 184.0
166.274094 204.0
166.396561 156.0
166.478729 152.0
166.640549 176.0
166.856277 272.0
166.886871 172.0
166.901855 180.0
167.069885 148.0
167.148392 188.0
167.225937 168.0
167.352997 144.0
167.471451 188.0
167.49205 144.0
167.525543 212.0
167.682724 180.0
167.702789 168.0
167.893463 184.0
167.933762 120.0
168.129639 152.0
168.250198 152.0
168.26828 152.0
168.317413 252.0
168.415466 144.0
168.556641 124.0
168.624741 168.0
168.669907 152.0
168.720383 184.0
168.986404 140.0
169.076813 156.0
169.230057 148.0
169.310333 152.0
169.344009 156.0
169.395599 152.0
169.47612 192.0
169.545563 120.0
169.590149 184.0
169.610886 156.0
169.719772 144.0
169.743103 148.0
169.771622 316.0
169.846848 204.0
170.020264 208.0
170.076584 108.0
170.132278 176.0
170.168625 172.0
170.220566 232.0
170.265671 204.0
170.29068 184.0
170.353012 200.0
170.404984 196.0
170.451752 156.0
170.501129 140.0
170.550507 168.0
170.589035 132.0
170.705124 156.0
170.735092 204.0
170.758499 160.0
170.904175 204.0
171.018082 172.0
171.085449 160.0
171.138916 144.0
171.376602 208.0
171.431992 160.0
171.573532 364.0
171.678696 96.0
171.813797 136.0
171.846375 96.0
171.865631 320.0
171.936096 204.0
171.961731 136.0
172.00676 208.0
172.035278 172.0
172.144943 180.0
172.168442 172.0
172.190063 128.0
172.21022 140.0
172.301651 156.0
172.36174 232.0
172.49472 168.0
172.607452 208.0
172.701599 168.0
172.780075 216.0
172.816101 132.0
172.8638 328.0
172.908295 148.0
172.939697 172.0
172.98819 176.0
173.121887 320.0
173.209396 216.0
173.259171 176.0
173.317444 200.0
173.393097 172.0
173.49585 180.0
173.628754 340.0
173.662857 144.0
173.712692 148.0
173.732727 120.0
173.780899 156.0
173.85437 196.0
174.001358 212.0
174.035492 180.0
174.098511 164.0
174.139816 116.0
174.185181 140.0
174.225983 188.0
174.27713 156.0
174.303406 200.0
174.37587 272.0
174.413788 164.0
174.436371 244.0
174.510544 144.0
174.564178 160.0
174.729355 228.0
174.750336 152.0
174.824081 168.0
175.031723 368.0
175.118942 140.0
175.190063 144.0
175.208496 172.0
175.25592 204.0
175.371872 280.0
175.39032 152.0
175.458862 228.0
175.485825 132.0
175.565369 204.0
175.614441 172.0
175.698532 196.0
175.766281 180.0
175.802643 192.0
176.015579 152.0
176.043655 116.0
176.158203 176.0
176.20311 212.0
176.314728 180.0
176.33461 188.0
176.409088 148.0
176.447311 168.0
176.488556 148.0
176.59169 144.0
176.627731 208.0
176.65683 260.0
176.761993 148.0
176.795395 168.0
176.933044 304.0
176.967453 256.0
176.996582 140.0
177.057007 432.0
177.158142 152.0
177.21907 188.0
177.241714 132.0
177.380737 164.0
177.411194 180.0
177.441574 132.0
177.52655 144.0
177.686829 188.0
177.759995 168.0
177.83696 172.0
177.874115 196.0
177.964157 188.0
178.06395 680.0
178.188416 160.0
178.247681 140.0
178.317688 208.0
178.380066 160.0
178.427933 160.0
178.475647 148.0
178.564224 308.0
178.601822 212.0
178.727219 144.0
178.759949 408.0
178.792404 120.0
178.825684 144.0
178.881577 184.0
178.968216 176.0
179.00032 152.0
179.069504 372.0
179.128159 240.0
179.247421 164.0
179.272522 168.0
179.301422 152.0
179.398361 156.0
179.467682 200.0
179.630371 152.0
179.710403 160.0
179.812851 112.0
179.859848 164.0
179.898804 148.0
179.953018 120.0
180.081787 1044.0
180.110184 324.0
180.174942 180.0
180.207016 176.0
180.244415 200.0
180.265793 192.0
180.388733 212.0
180.417816 128.0
180.553558 144.0
180.608841 152.0
180.631409 96.0
180.751816 148.0
180.848816 168.0
180.88475 280.0
180.969269 180.0
181.199615 176.0
181.228409 192.0
181.418472 108.0
181.446167 152.0
181.470306 196.0
181.522156 176.0
181.55217 140.0
181.588287 148.0
181.722412 196.0
182.009613 200.0
182.16539 148.0
182.235825 220.0
182.298172 192.0
182.323914 188.0
182.356155 168.0
182.409912 192.0
182.645279 196.0
182.75415 168.0
182.789139 152.0
182.818726 140.0
182.902161 164.0
182.944702 292.0
183.025909 1096.0
183.109482 140.0
183.236084 260.0
183.343872 188.0
183.416641 176.0
183.5784 204.0
183.623688 132.0
183.652252 196.0
183.818375 192.0
183.896744 176.0
184.022675 388.0
184.061432 140.0
184.296417 172.0
184.3349 216.0
184.491638 208.0
184.520752 156.0
184.589905 180.0
184.625259 180.0
184.728058 128.0
184.853439 144.0
184.91568 212.0
185.020996 232.0
185.189377 136.0
185.232483 132.0
185.327301 264.0
185.430374 100.0
185.549545 168.0
185.679901 108.0
185.910294 168.0
185.944214 120.0
185.982559 128.0
186.037186 144.0
186.073151 264.0
186.103027 180.0
186.146729 96.0
186.187195 160.0
186.290115 184.0
186.346298 112.0
186.543137 200.0
186.630127 228.0
186.874222 172.0
187.020508 652.0
187.160706 200.0
187.229523 104.0
187.264191 176.0
187.388351 176.0
187.495453 260.0
187.585724 152.0
187.637512 144.0
187.800278 96.0
187.841858 112.0
187.994827 152.0
188.035263 172.0
188.080536 232.0
188.111755 168.0
188.286942 164.0
188.387451 160.0
188.428986 160.0
188.475433 188.0
188.51738 240.0
188.633087 232.0
188.674942 188.0
188.84996 144.0
188.871841 220.0
188.937485 192.0
189.019989 184.0
189.043457 176.0
189.127792 228.0
189.160904 156.0
189.17131 100.0
189.271332 160.0
189.531616 200.0
189.666809 180.0
189.704712 204.0
189.797485 192.0
190.162354 144.0
190.183044 348.0
190.228912 128.0
190.366104 184.0
190.436905 144.0
190.615479 192.0
190.717163 244.0
190.860992 164.0
191.027878 216.0
191.066742 180.0
191.098312 192.0
191.413193 148.0
191.47377 184.0
191.55365 168.0
191.83197 144.0
191.877014 276.0
191.914673 164.0
191.977142 116.0
192.068451 304.0
192.230774 128.0
192.300888 164.0
192.352188 112.0
192.396347 156.0
192.438416 168.0
192.49057 156.0
192.565933 196.0
192.59494 152.0
192.607117 184.0
192.648865 164.0
192.67366 144.0
192.764847 156.0
192.805206 176.0
192.838745 156.0
192.894745 200.0
193.049225 144.0
193.087051 588.0
193.12825 300.0
193.63118 172.0
193.658432 184.0
193.711761 188.0
193.851517 276.0
193.919891 292.0
194.015884 140.0
194.057465 368.0
194.091904 628.0
194.329041 324.0
194.366745 164.0
194.440277 264.0
194.476883 148.0
194.516754 160.0
194.57193 120.0
194.65416 196.0
194.732895 204.0
194.78035 264.0
195.045761 148.0
195.081894 176.0
195.154724 124.0
195.230118 156.0
195.318008 136.0
195.383987 140.0
195.43486 152.0
195.509125 160.0
195.615997 148.0
195.688431 144.0
195.812912 172.0
196.073959 264.0
196.178711 144.0
196.200943 168.0
196.245621 324.0
196.507782 236.0
196.574753 164.0
196.616608 156.0
196.717102 160.0
196.753128 168.0
196.81514 204.0
196.856689 240.0
196.906967 144.0
196.932098 184.0
197.037155 164.0
197.073212 144.0
197.147217 164.0
197.274033 148.0
197.328903 360.0
197.351273 140.0
197.463135 144.0
197.566635 176.0
197.765305 184.0
197.812881 148.0
197.962479 192.0
197.994888 156.0
198.112518 148.0
198.221786 140.0
198.434814 144.0
198.551376 140.0
198.597458 164.0
198.782623 160.0
198.824707 180.0
199.022476 164.0
199.052094 156.0
199.081879 324.0
199.105453 144.0
199.280548 180.0
199.358292 168.0
199.403259 236.0
199.479141 212.0
199.50444 392.0
199.584473 164.0
199.701218 168.0
199.802551 184.0
199.834579 148.0
199.85881 192.0
199.981567 144.0
200.069901 172.0
200.216324 172.0
200.33461 184.0
200.402237 144.0
200.591049 152.0
200.872253 184.0
200.922302 152.0
201.038803 360.0
201.115692 152.0
201.304855 188.0
201.417831 236.0
201.46225 116.0
201.529861 152.0
201.567566 192.0
201.8983 156.0
201.996368 176.0
202.03508 372.0
202.101379 192.0
202.215164 172.0
202.243469 148.0
202.311401 144.0
202.436737 212.0
202.5112 308.0
202.574768 144.0
202.676758 148.0
202.764603 164.0
202.834305 304.0
202.856888 180.0
202.880814 232.0
203.041702 360.0
203.065125 144.0
203.249725 164.0
203.378479 208.0
203.546036 164.0
203.579651 120.0
203.66684 156.0
203.715134 188.0
203.763428 288.0
203.789001 152.0
203.840149 328.0
203.938156 172.0
203.98793 152.0
204.074768 96.0
204.150208 108.0
204.19693 200.0
204.325394 204.0
204.534088 168.0
204.573944 160.0
204.625183 156.0
204.684967 156.0
204.944183 180.0
205.079575 372.0
205.194992 140.0
205.338577 204.0
205.413803 132.0
205.52478 140.0
205.625214 180.0
205.65712 232.0
205.70079 120.0
205.79129 208.0
205.854355 224.0
205.879807 180.0
205.971207 208.0
206.08017 400.0
206.107834 184.0
206.257507 280.0
206.320709 156.0
206.362717 180.0
206.408081 208.0
206.494247 144.0
206.559601 156.0
206.634415 204.0
206.677338 176.0
206.700226 280.0
206.721695 120.0
206.837601 252.0
206.903442 200.0
207.040878 180.0
207.063797 160.0
207.092224 112.0
207.209885 192.0
207.244263 208.0
207.276382 152.0
207.354797 140.0
207.437622 172.0
207.462082 160.0
207.502151 196.0
207.583603 216.0
207.605438 244.0
207.671402 232.0
207.710388 180.0
207.817703 140.0
208.014816 228.0
208.067398 184.0
208.228195 252.0
208.314362 160.0
208.371826 256.0
208.538498 184.0
208.597076 148.0
208.742157 176.0
208.856079 212.0
208.933182 120.0
208.975586 180.0
209.028992 4312.0
209.112885 180.0
209.181931 328.0
209.223099 144.0
209.254074 116.0
209.292206 176.0
209.31337 184.0
209.373413 100.0
209.473633 208.0
209.570023 132.0
209.619324 200.0
209.774277 156.0
209.911667 136.0
209.950745 120.0
210.036743 68264.0
210.090317 288.0
210.260773 316.0
210.295959 148.0
210.332565 216.0
210.406433 148.0
210.488358 196.0
210.602737 236.0
210.647095 216.0
210.754654 268.0
210.845291 152.0
210.900681 172.0
210.94751 100.0
211.038986 7932.0
211.089264 168.0
211.151367 152.0
211.279266 100.0
211.330841 148.0
211.438019 220.0
211.486389 144.0
211.60611 116.0
211.641907 200.0
211.726608 148.0
211.781555 156.0
211.806015 128.0
211.881653 136.0
211.903214 180.0
211.927292 156.0
211.950562 212.0
212.03476 2008.0
212.157516 124.0
212.295837 140.0
212.317734 264.0
212.373505 160.0
212.401016 168.0
212.450653 264.0
212.471466 140.0
212.580231 184.0
212.615448 148.0
212.649948 236.0
212.731644 152.0
212.765549 224.0
212.878845 180.0
212.910965 152.0
212.948486 144.0
213.033936 740.0
213.11058 148.0
213.192886 148.0
213.24556 344.0
213.348587 152.0
213.424347 168.0
213.469147 148.0
213.552094 160.0
213.839905 128.0
213.87793 344.0
213.909943 164.0
214.046692 408.0
214.126328 96.0
214.154541 192.0
214.185883 216.0
214.2798 216.0
214.376282 244.0
214.492538 164.0
214.577072 176.0
214.614975 164.0
214.652878 172.0
214.69371 204.0
214.746201 160.0
214.781982 104.0
214.936447 176.0
214.97084 248.0
215.040741 160.0
215.14888 204.0
215.172241 176.0
215.350372 228.0
215.397095 164.0
215.460236 216.0
215.625 276.0
215.680542 212.0
215.749161 184.0
215.8004 140.0
215.844254 184.0
215.935196 244.0
215.97406 312.0
215.998444 196.0
216.157242 152.0
216.220108 136.0
216.538422 136.0
216.637863 180.0
216.720795 172.0
216.986145 320.0
217.077957 332.0
217.136826 156.0
217.294785 136.0
217.372223 108.0
217.426132 144.0
217.592117 168.0
217.649231 156.0
217.722641 192.0
217.909805 168.0
218.025238 192.0
218.089325 268.0
218.157501 164.0
218.278046 168.0
218.384003 148.0
218.472778 200.0
218.525116 164.0
218.642822 320.0
218.703094 184.0
218.781158 160.0
218.807663 200.0
218.828278 148.0
218.854767 140.0
219.089066 2328.0
219.373611 108.0
219.467636 184.0
219.570847 152.0
219.687912 168.0
219.77742 144.0
219.815689 148.0
219.842255 156.0
219.957352 156.0
219.997635 204.0
220.045914 164.0
220.098419 768.0
220.191727 196.0
220.225983 192.0
220.289734 156.0
220.349426 132.0
220.39444 208.0
220.426117 124.0
220.522598 164.0
220.5457 216.0
220.613678 200.0
220.680359 152.0
220.727707 152.0
220.826233 248.0
220.870911 168.0
220.932983 160.0
220.959152 112.0
220.99408 144.0
221.004852 164.0
221.027771 280.0
221.059753 372.0
221.107391 168884.0
221.180145 228.0
221.22612 212.0
221.260818 268.0
221.293442 180.0
221.32515 152.0
221.413025 264.0
221.459229 156.0
221.537308 164.0
221.566422 252.0
221.595184 268.0
221.635803 164.0
221.774124 168.0
221.823715 156.0
221.873108 112.0
221.972763 112.0
222.009842 272.0
222.109711 20280.0
222.181625 120.0
222.213181 212.0
222.28775 148.0
222.316803 184.0
222.403351 128.0
222.42627 160.0
222.464722 124.0
222.489624 132.0
222.523117 160.0
222.594208 116.0
222.631165 184.0
222.691544 96.0
222.726028 140.0
222.795929 136.0
223.113449 1680.0
223.200531 104.0
223.267227 172.0
223.34169 280.0
223.433441 176.0
223.476868 100.0
223.533844 136.0
223.596527 168.0
223.629837 236.0
223.681183 112.0
223.747223 228.0
223.774094 332.0
223.824081 152.0
223.879791 144.0
224.013947 140.0
224.050873 388.0
224.125854 140.0
224.20314 168.0
224.237411 148.0
224.258286 160.0
224.309616 160.0
224.348175 108.0
224.4133 172.0
224.519485 144.0
224.546295 140.0
224.614899 228.0
224.643143 168.0
224.680405 100.0
224.720306 180.0
224.775482 144.0
224.880371 188.0
224.927505 192.0
225.044281 508.0
225.074966 184.0
225.188385 260.0
225.320267 108.0
225.345367 180.0
225.478973 156.0
225.503799 168.0
225.604507 324.0
225.705002 188.0
225.780029 176.0
225.896194 192.0
226.037216 228.0
226.066727 1184.0
226.150299 104.0
226.334518 152.0
226.424362 188.0
226.460297 148.0
226.55162 156.0
226.688324 180.0
226.738922 172.0
226.856445 96.0
226.885132 176.0
226.969345 116.0
227.028839 148.0
227.063843 708.0
227.107712 140.0
227.149796 124.0
227.192612 104.0
227.434753 156.0
227.485779 220.0
227.512268 136.0
227.605881 148.0
227.656921 160.0
227.919357 164.0
227.99939 172.0
228.046036 1284.0
228.342133 168.0
228.375214 144.0
228.483597 124.0
228.516602 168.0
228.595291 104.0
228.718918 140.0
228.883896 120.0
229.050934 524.0
229.082581 164.0
229.168152 128.0
229.309692 276.0
229.60704 144.0
229.649414 156.0
229.681854 184.0
229.763016 376.0
229.867874 172.0
229.91777 176.0
229.961929 152.0
229.970459 96.0
230.018524 168.0
230.087814 252.0
230.098404 228.0
230.165314 200.0
230.530731 140.0
230.82019 168.0
230.883041 180.0
230.993393 148.0
231.103729 236.0
231.138611 140.0
231.163254 220.0
231.312347 128.0
231.3535 192.0
231.496063 140.0
231.546219 204.0
231.591797 144.0
231.631119 296.0
231.665421 168.0
231.771454 192.0
231.953293 168.0
231.979248 236.0
232.09967 160.0
232.283813 180.0
232.397263 208.0
232.420334 284.0
232.517441 140.0
232.75119 140.0
232.875412 212.0
232.955765 112.0
233.031998 136.0
233.095413 136.0
233.155212 160.0
233.376358 112.0
233.421707 228.0
233.459274 204.0
233.641174 204.0
233.848053 168.0
234.100433 308.0
234.222229 132.0
234.25798 156.0
234.329773 200.0
234.445557 200.0
234.49736 168.0
234.552231 240.0
234.600998 172.0
234.710037 136.0
234.799271 152.0
234.833893 204.0
235.04306 164.0
235.077942 140.0
235.121918 184.0
235.171417 192.0
235.311829 140.0
235.377274 184.0
235.473679 172.0
235.560745 128.0
235.617249 144.0
235.867828 152.0
236.048447 620.0
236.185822 140.0
236.277435 148.0
236.383438 176.0
236.544983 160.0
236.591904 132.0
236.676834 216.0
236.811874 156.0
236.899521 468.0
236.964111 160.0
237.051865 260.0
237.106522 156.0
237.23349 176.0
237.334244 180.0
237.463043 140.0
237.571915 160.0
237.717682 264.0
237.813721 180.0
237.923325 148.0
238.057693 372.0
238.144409 260.0
238.492508 164.0
238.586899 232.0
238.771393 176.0
238.844482 180.0
239.031097 152.0
239.063065 160.0
239.108276 160.0
239.192917 144.0
239.217529 148.0
239.249344 120.0
239.316498 140.0
239.352585 116.0
239.388306 148.0
239.411514 140.0
239.474304 320.0
239.513153 284.0
239.588333 148.0
239.637482 188.0
239.948196 160.0
240.1586 148.0
240.49057 140.0
240.64183 152.0
240.774612 212.0
240.882721 216.0
241.061905 156.0
241.12471 360.0
241.147018 156.0
241.263092 196.0
241.371033 176.0
241.469543 196.0
241.540115 296.0
241.602997 180.0
241.777847 164.0
241.956207 184.0
242.133499 196.0
242.22522 176.0
242.621872 160.0
242.698593 204.0
242.751602 228.0
243.001434 176.0
243.03746 160.0
243.335434 320.0
243.512421 148.0
243.577652 144.0
243.607742 176.0
243.631897 116.0
243.652206 340.0
243.782715 304.0
244.015823 168.0
244.043808 140.0
244.090454 156.0
244.202408 148.0
244.34082 180.0
244.902451 148.0
244.94632 292.0
245.111923 696.0
245.145721 160.0
245.310898 176.0
245.395767 152.0
245.476151 140.0
245.53096 180.0
245.628082 180.0
245.674515 160.0
245.767426 200.0
246.005081 172.0
246.057022 144.0
246.087326 160.0
246.118622 312.0
246.389313 96.0
246.448715 144.0
246.487518 140.0
246.653168 152.0
246.796967 204.0
246.840225 204.0
246.884521 192.0
247.011154 148.0
247.064926 172.0
247.122589 39704.0
247.272217 292.0
247.323212 132.0
247.422287 176.0
247.508286 96.0
247.580429 108.0
247.64827 236.0
247.718674 196.0
247.765045 160.0
247.829865 324.0
247.89325 140.0
248.022842 152.0
248.051285 196.0
248.084442 156.0
248.125336 7120.0
248.3936 176.0
248.441467 148.0
248.473007 184.0
248.584686 188.0
248.608887 156.0
248.658829 160.0
248.75708 116.0
248.994308 172.0
249.061218 196.0
249.125351 732.0
249.183502 164.0
249.353729 216.0
249.457596 196.0
249.506821 140.0
249.597305 128.0
249.644257 160.0
249.69136 164.0
249.738541 140.0
249.836227 276.0
250.024841 156.0
250.065948 364.0
250.138062 168.0
250.301849 148.0
250.447601 100.0
250.676575 196.0
250.713013 176.0
250.809174 128.0
250.854248 132.0
250.951187 188.0
251.060654 1144.0
251.149612 136.0
251.235565 96.0
251.294083 188.0
251.316803 148.0
251.348724 104.0
251.424088 96.0
251.512466 180.0
251.548065 120.0
251.638733 176.0
251.713181 160.0
251.906769 184.0
251.923798 260.0
251.973831 112.0
252.064865 444.0
252.145081 144.0
252.192307 168.0
252.220367 208.0
252.264252 152.0
252.305954 136.0
252.332779 172.0
252.367386 164.0
252.448288 116.0
252.474945 188.0
252.530594 168.0
252.554932 264.0
252.596283 140.0
252.639969 148.0
252.684616 240.0
252.718765 260.0
252.741531 180.0
252.830582 288.0
252.856323 332.0
252.885468 204.0
252.911163 292.0
252.950912 256.0
253.025421 652.0
253.080093 293092.0
253.162659 180.0
253.204971 208.0
253.227875 352.0
253.275177 284.0
253.301208 244.0
253.339569 276.0
253.370178 364.0
253.405746 336.0
253.449219 232.0
253.48671 240.0
253.509354 252.0
253.549423 280.0
253.600266 1840.0
253.669647 176.0
253.705322 168.0
253.78476 156.0
253.84523 140.0
253.870712 172.0
253.89975 244.0
253.966263 320.0
254.081635 55052.0
254.158401 276.0
254.191666 188.0
254.218384 104.0
254.258026 136.0
254.295502 152.0
254.330246 220.0
254.482025 216.0
254.534622 124.0
254.57756 100.0
254.624817 100.0
254.682404 164.0
254.774094 124.0
254.808548 128.0
255.031769 180.0
255.076263 13464.0
255.154266 116.0
255.185349 180.0
255.325775 100.0
255.336487 116.0
255.34697 300.0
255.477112 292.0
255.518311 208.0
255.568451 112.0
255.60289 176.0
255.664627 108.0
255.768753 96.0
255.823624 356.0
255.871887 180.0
255.89505 332.0
255.947571 204.0
255.974289 220.0
256.00354 192.0
256.079742 1256.0
256.129669 244.0
256.215637 160.0
256.362366 180.0
256.39151 112.0
256.427399 116.0
256.47937 104.0
256.592224 220.0
256.648224 112.0
256.719421 160.0
256.783936 128.0
256.824951 204.0
256.897247 124.0
256.982849 140.0
257.006104 204.0
257.064911 108.0
257.121826 164.0
257.309814 208.0
257.537384 112.0
257.574097 140.0
257.625305 164.0
257.721954 160.0
257.949341 168.0
257.976807 228.0
258.261414 164.0
258.453339 236.0
258.772491 136.0
258.936737 112.0
258.973724 224.0
259.010864 112.0
259.08728 204.0
259.138428 104.0
259.264954 152.0
259.356445 180.0
259.507629 124.0
259.530579 176.0
259.651428 176.0
259.67572 160.0
259.752594 148.0
259.895233 148.0
259.970825 136.0
260.039185 208.0
260.094055 104.0
260.290039 160.0
260.328552 324.0
260.742981 212.0
260.973572 148.0
261.389374 144.0
261.955994 164.0
262.009094 116.0
262.059601 128.0
262.118256 288.0
262.221954 148.0
262.610168 152.0
262.635468 176.0
262.696869 160.0
262.768402 140.0
263.013519 96.0
263.062012 280.0
263.344574 212.0
263.456055 168.0
263.594971 144.0
263.738586 128.0
263.81131 116.0
263.987793 204.0
264.068268 324.0
264.156403 104.0
264.218994 220.0
264.312042 160.0
264.367249 188.0
264.464386 144.0
264.621033 124.0
264.690704 168.0
264.799225 144.0
264.928802 112.0
264.980225 184.0
265.056152 248.0
265.080261 236.0
265.154785 152.0
265.368744 160.0
265.404327 172.0
265.522003 136.0
265.5466 236.0
265.952667 156.0
266.130554 140.0
266.228729 128.0
266.437286 232.0
266.553467 204.0
266.612366 248.0
266.685516 184.0
266.748474 208.0
266.78421 140.0
266.880035 152.0
267.044342 140.0
267.170959 160.0
267.2854 128.0
267.366455 108.0
267.406891 184.0
267.632324 136.0
267.714783 144.0
267.776642 168.0
267.924164 152.0
268.118744 148.0
268.163513 168.0
268.484497 104.0
268.558868 168.0
268.650208 140.0
268.851654 228.0
268.927582 144.0
268.985229 180.0
269.009705 160.0
269.288818 116.0
269.514923 192.0
269.543457 136.0
269.624084 184.0
269.67627 172.0
269.750702 176.0
269.775909 100.0
269.840057 168.0
270.067871 200.0
270.162933 124.0
270.192169 216.0
270.434326 168.0
270.493256 228.0
270.723419 172.0
271.20871 132.0
271.449585 156.0
271.500153 136.0
271.534546 232.0
271.794342 160.0
271.817291 256.0
272.271484 124.0
272.457062 112.0
272.709198 220.0
272.939789 160.0
272.986176 96.0
273.019806 208.0
273.243286 140.0
273.589417 112.0
273.632507 180.0
273.747192 208.0
273.774994 112.0
273.858856 140.0
273.894043 188.0
274.076263 152.0
274.132294 156.0
274.397827 144.0
274.550964 216.0
274.758759 168.0
274.987427 128.0
275.217529 172.0
275.775818 152.0
275.937714 168.0
276.038086 316.0
276.083282 144.0
276.160461 216.0
276.448914 152.0
276.525818 352.0
276.750092 116.0
276.880859 192.0
277.078979 228.0
277.202179 196.0
277.405334 164.0
277.629822 204.0
277.669617 196.0
277.757812 136.0
278.038879 264.0
278.084351 264.0
278.12027 140.0
278.220428 144.0
278.27179 128.0
278.413025 156.0
278.537994 328.0
278.575775 176.0
278.697327 116.0
278.7341 128.0
278.74826 144.0
278.807678 276.0
278.851562 140.0
278.894745 404.0
278.952362 204.0
279.003845 240.0
279.02713 532.0
279.094849 95820.0
279.163666 176.0
279.241882 148.0
279.275604 144.0
279.386749 240.0
279.476196 136.0
279.564087 140.0
279.624634 128.0
279.649506 144.0
279.693054 152.0
279.927216 172.0
279.984802 128.0
280.035034 228.0
280.09787 15520.0
280.204742 168.0
280.297821 304.0
280.37915 124.0
280.422485 216.0
280.494629 168.0
280.546783 196.0
280.624084 184.0
280.712524 156.0
280.850372 196.0
280.960083 144.0
281.091949 4012.0
281.189423 100.0
281.514801 160.0
281.630585 236.0
281.765991 240.0
281.828857 108.0
281.865906 152.0
281.988342 188.0
282.049408 96.0
282.099609 688.0
282.29184 144.0
282.427399 100.0
282.493713 116.0
282.901642 232.0
282.945648 112.0
282.982513 96.0
283.163818 216.0
283.611847 104.0
283.714996 228.0
283.805511 100.0
284.239899 152.0
284.322113 176.0
284.98941 144.0
285.024658 132.0
285.06427 172.0
285.269287 200.0
285.306274 204.0
285.639862 100.0
285.685516 156.0
285.824219 228.0
285.960052 128.0
286.025909 168.0
286.138489 96.0
286.704254 136.0
286.733368 156.0
286.891876 188.0
286.990784 132.0
287.060455 168.0
287.458496 156.0
287.623169 212.0
288.147522 176.0
288.259125 176.0
288.292603 144.0
288.874146 216.0
289.236206 204.0
289.354706 156.0
289.933929 228.0
290.034912 232.0
290.110077 152.0
290.165833 268.0
290.411896 140.0
290.724792 156.0
290.754639 152.0
290.942657 180.0
291.202759 156.0
291.22995 212.0
291.613892 152.0
291.77597 180.0
291.926636 192.0
292.093201 144.0
292.128632 164.0
292.294281 160.0
292.345062 176.0
292.479309 144.0
292.54248 148.0
292.640198 112.0
292.745453 160.0
292.791046 164.0
292.859161 156.0
292.894806 148.0
292.96286 136.0
293.074341 180.0
293.288452 128.0
293.671783 152.0
293.704346 144.0
293.828461 316.0
294.100616 164.0
294.287994 184.0
294.387909 124.0
294.594208 188.0
294.698517 216.0
294.987488 140.0
295.092346 132.0
295.138794 148.0
295.17981 144.0
295.23111 156.0
295.473969 172.0
295.586121 180.0
295.67926 172.0
295.783508 152.0
296.138062 244.0
296.182587 144.0
296.503845 136.0
296.573181 204.0
296.734314 188.0
296.957184 220.0
297.145874 232.0
297.489044 148.0
297.993896 144.0
298.16571 184.0
298.392578 168.0
298.437256 160.0
298.473572 192.0
298.543854 144.0
298.601715 156.0
298.702057 324.0
298.953217 192.0
299.042694 140.0
299.128754 156.0
299.158875 144.0
299.312286 144.0
300.424469 148.0
300.49588 228.0
301.061829 108.0
301.147003 160.0
301.268707 212.0
301.321777 208.0
301.465057 184.0
301.696991 220.0
302.265167 208.0
302.324799 172.0
302.829102 160.0
302.878754 168.0
303.038879 160.0
303.256409 152.0
303.502563 148.0
303.83783 144.0
303.998596 188.0
304.166229 132.0
304.373474 332.0
304.450745 112.0
305.259583 152.0
305.44043 272.0
305.472687 156.0
305.556702 96.0
305.781403 148.0
305.993744 188.0
306.063385 184.0
306.303375 196.0
306.599823 168.0
306.662567 164.0
307.28717 132.0
307.51358 140.0
307.719543 160.0
307.86618 184.0
307.918579 160.0
308.047028 144.0
308.15097 128.0
308.288879 148.0
308.313354 188.0
308.371307 188.0
308.495087 156.0
308.689636 144.0
308.837769 156.0
308.942719 156.0
309.156494 272.0
309.261139 160.0
309.324158 160.0
309.408173 184.0
309.562225 156.0
309.7854 172.0
309.899994 140.0
309.997559 144.0
310.066681 140.0
310.10675 184.0
310.160858 148.0
310.29715 160.0
310.561035 164.0
310.622711 180.0
310.804962 228.0
310.992035 116.0
311.143555 152.0
311.233185 232.0
311.368286 160.0
311.424469 208.0
311.674988 168.0
311.768158 164.0
311.840668 96.0
311.895294 196.0
312.082581 148.0
312.266022 156.0
312.464996 172.0
312.545898 200.0
312.698334 240.0
312.897858 228.0
312.985901 140.0
313.090057 152.0
313.309906 172.0
313.447723 144.0
313.489624 148.0
313.588287 164.0
313.70462 144.0
313.739868 148.0
313.771576 152.0
313.87384 144.0
314.069977 104.0
314.26178 280.0
314.434723 172.0
314.591736 112.0
314.745392 152.0
314.837189 160.0
314.864014 180.0
314.985535 156.0
315.091522 244.0
315.403534 148.0
315.448456 192.0
315.508545 172.0
315.676392 220.0
316.085052 184.0
316.205383 172.0
316.378815 164.0
316.408783 232.0
316.438995 180.0
316.626678 156.0
316.67981 196.0
316.874634 160.0
317.064148 200.0
317.106567 220.0
317.177521 100.0
317.243073 124.0
317.512665 140.0
317.732941 160.0
318.009369 144.0
318.307587 140.0
318.716064 192.0
319.018158 160.0
319.057281 144.0
319.371246 188.0
319.540955 144.0
319.932648 264.0
319.99411 220.0
320.089081 144.0
320.691132 148.0
320.921844 156.0
321.373596 96.0
321.836273 196.0
321.922577 164.0
322.031982 144.0
322.136688 516.0
322.282745 184.0
322.382782 180.0
322.541687 136.0
322.6008 172.0
322.82605 152.0
323.113739 136.0
323.140625 208.0
323.205231 172.0
323.260193 180.0
323.351959 164.0
323.428162 192.0
323.586029 152.0
323.726471 172.0
323.786835 188.0
323.838867 168.0
323.915192 144.0
323.967834 172.0
324.135437 184.0
324.232971 160.0
324.301056 144.0
324.358429 152.0
324.426514 144.0
324.4552 180.0
324.534088 264.0
324.714417 152.0
324.830078 112.0
325.069946 164.0
325.449677 132.0
325.488525 164.0
325.847168 140.0
325.894409 180.0
325.97345 164.0
326.27536 140.0
326.300537 180.0
326.354462 140.0
326.527069 144.0
326.656555 148.0
326.734833 148.0
327.046478 120.0
327.203552 220.0
327.289978 172.0
327.387207 180.0
327.556732 108.0
327.635712 196.0
328.124054 200.0
328.201569 152.0
328.302277 112.0
328.338593 196.0
328.479279 148.0
328.512848 116.0
328.56488 136.0
328.803986 180.0
329.032806 268.0
329.071106 228.0
329.423492 208.0
329.509705 308.0
329.633118 176.0
329.840576 168.0
329.985199 256.0
330.133453 148.0
330.162384 140.0
330.191315 196.0
330.430054 192.0
330.585632 160.0
330.6492 156.0
330.802795 180.0
330.972961 160.0
331.122681 128.0
331.291656 252.0
331.396515 136.0
331.465576 180.0
331.878784 196.0
332.553528 176.0
332.729309 188.0
332.766083 260.0
332.888428 160.0
332.974701 160.0
333.000122 172.0
333.083038 200.0
333.371155 148.0
333.740143 196.0
333.83963 144.0
333.901428 184.0
333.92691 148.0
334.22168 136.0
334.432648 252.0
334.527283 172.0
334.774139 184.0
334.838501 144.0
334.913239 160.0
335.115387 148.0
335.154144 160.0
335.210266 148.0
335.36142 160.0
335.933899 156.0
336.028748 184.0
336.054291 144.0
336.092346 156.0
336.146423 188.0
336.185638 200.0
336.379089 140.0
336.441132 248.0
336.51416 200.0
336.704895 172.0
336.879364 192.0
337.054718 180.0
337.374359 128.0
337.460724 152.0
337.628662 176.0
337.759369 104.0
338.056671 172.0
338.481293 196.0
338.862213 164.0
338.946472 148.0
339.059784 100.0
339.112946 104.0
339.195709 152.0
339.272675 144.0
339.386322 156.0
339.544006 164.0
339.84848 176.0
339.874176 264.0
340.145752 168.0
340.17511 148.0
340.659851 260.0
340.931732 152.0
341.08609 152.0
341.129974 364.0
341.196381 160.0
341.26767 112.0
341.319672 112.0
341.36026 100.0
341.652405 156.0
341.796112 124.0
341.887878 172.0
342.093994 148.0
342.161011 140.0
342.410645 152.0
342.458527 148.0
342.519501 188.0
342.712708 148.0
342.830627 160.0
343.037048 140.0
343.121307 140.0
343.14505 160.0
343.2435 172.0
343.272308 128.0
343.485626 184.0
343.512207 216.0
343.686127 208.0
343.723785 156.0
343.976624 152.0
344.014587 208.0
344.450317 188.0
344.488525 124.0
344.56485 168.0
344.668304 148.0
344.756989 140.0
345.012024 212.0
345.058899 124.0
345.37442 172.0
345.452087 172.0
345.796204 160.0
346.089691 144.0
346.184937 160.0
346.284912 244.0
346.351593 224.0
346.688751 176.0
346.825867 140.0
346.862946 348.0
346.925964 204.0
346.98526 160.0
347.138855 124.0
347.30603 140.0
347.436249 160.0
347.500061 184.0
347.600983 188.0
347.791656 136.0
348.092102 180.0
348.120667 208.0
348.176605 128.0
348.417816 208.0
348.744812 148.0
348.778259 180.0
348.908356 160.0
348.952362 188.0
349.086853 176.0
349.230988 152.0
349.820618 108.0
350.365601 228.0
350.557037 144.0
350.624329 140.0
350.68396 144.0
350.780853 244.0
350.960144 132.0
351.19104 260.0
351.217133 160.0
351.34024 176.0
351.726501 220.0
351.832855 296.0
351.896332 180.0
352.168304 144.0
352.190948 156.0
352.258575 212.0
352.301453 192.0
352.333282 192.0
352.692017 180.0
352.889587 164.0
353.006073 148.0
353.102661 96.0
353.139099 164.0
353.185577 148.0
353.81424 140.0
353.935211 144.0
354.016449 184.0
354.186188 196.0
354.630737 128.0
354.660858 332.0
354.705811 204.0
354.990753 164.0
355.140778 284.0
355.18399 120.0
355.373352 208.0
355.571381 160.0
356.066284 100.0
356.488556 152.0
356.755402 176.0
356.909546 172.0
356.969727 192.0
357.278137 256.0
357.342102 148.0
357.447449 324.0
357.589539 164.0
357.783447 208.0
357.993286 176.0
358.079895 140.0
358.16275 144.0
358.887421 164.0
359.05603 184.0
359.166504 148.0
359.206879 164.0
359.504089 104.0
359.667236 152.0
360.033844 160.0
360.067444 152.0
360.39682 168.0
360.478363 212.0
360.569916 176.0
360.600159 176.0
360.664398 160.0
361.174866 188.0
361.295898 156.0
361.409424 184.0
361.895721 100.0
362.216125 140.0
362.29483 204.0
362.443817 272.0
362.666687 140.0
362.719757 176.0
363.100708 140.0
363.133057 280.0
363.178558 172.0
363.244476 192.0
363.302002 96.0
363.356842 156.0
363.425659 144.0
363.57312 180.0
363.649048 160.0
363.931061 136.0
364.011139 348.0
364.446503 180.0
364.769531 188.0
365.081299 168.0
365.351379 144.0
365.408417 164.0
365.453094 140.0
365.568146 156.0
365.695587 216.0
365.737976 228.0
365.947083 304.0
365.986969 140.0
366.032654 240.0
366.291626 152.0
366.398285 156.0
366.524017 220.0
366.650909 120.0
367.164429 180.0
367.194336 136.0
367.332275 328.0
367.461975 152.0
367.561188 140.0
367.748169 152.0
367.90097 128.0
368.063019 148.0
368.288513 124.0
368.959076 176.0
369.129395 172.0
369.356781 144.0
369.406494 172.0
369.433289 160.0
369.659027 156.0
370.191101 188.0
370.292725 208.0
370.491211 268.0
370.635437 152.0
370.673767 148.0
370.761902 148.0
371.202759 176.0
371.429047 164.0
371.542358 140.0
372.125763 144.0
372.254181 196.0
372.321564 140.0
372.815765 172.0
372.922638 140.0
373.345551 180.0
373.422485 112.0
373.544952 128.0
373.749451 192.0
374.534821 148.0
374.565613 184.0
374.685059 204.0
374.870605 124.0
375.078796 136.0
375.131226 128.0
375.170624 180.0
375.265442 128.0
375.371124 144.0
375.949738 140.0
375.976776 184.0
376.056274 184.0
376.13501 148.0
376.231506 160.0
376.304871 148.0
376.331909 160.0
376.378235 144.0
376.448059 152.0
376.491333 112.0
376.756073 120.0
376.857178 168.0
376.908691 196.0
376.969238 144.0
377.080292 292.0
377.189545 368.0
377.336426 188.0
377.367371 180.0
377.407471 172.0
377.59552 176.0
377.649658 164.0
378.171997 172.0
378.233551 128.0
378.303589 156.0
378.377136 156.0
378.514496 168.0
378.557465 144.0
378.959106 236.0
379.059601 160.0
379.167267 104.0
379.231262 252.0
379.322388 176.0
379.451141 228.0
379.581818 96.0
379.661896 120.0
379.694611 156.0
379.838104 144.0
379.927765 136.0
380.603882 176.0
380.638916 128.0
380.785156 148.0
380.824005 220.0
380.871063 208.0
380.955353 108.0
381.097412 156.0
381.363556 208.0
381.419769 124.0
381.496124 224.0
381.577881 188.0
381.627075 100.0
381.701202 100.0
381.824982 116.0
381.879364 232.0
381.991913 272.0
382.053864 220.0
382.110931 128.0
382.156464 316.0
382.199799 204.0
382.239075 212.0
382.379761 192.0
382.445709 172.0
382.491333 140.0
382.536682 164.0
382.566132 284.0
382.606201 124.0
382.782898 380.0
382.881287 288.0
382.960114 228.0
383.045197 272.0
383.113159 116.0
383.152161 328.0
383.200653 224.0
383.267151 172.0
383.312927 164.0
383.347687 296.0
383.460846 396.0
383.507721 460.0
383.546509 496.0
383.628082 612.0
383.674591 524.0
383.715149 548.0
383.768433 380.0
383.801025 852.0
383.891266 804.0
383.928436 340.0
383.981293 992.0
384.031067 1096.0
384.066895 968.0
384.119476 1376.0
384.175659 227296.0
384.273651 288.0
384.310516 164.0
384.441284 232.0
384.474884 188.0
384.537292 832.0
384.596985 380.0
384.64267 184.0
384.656097 384.0
384.764862 456.0
384.821381 11944.0
384.864319 652.0
384.917023 464.0
384.959778 348.0
384.999512 252.0
385.071411 248.0
385.126282 320.0
385.17804 143876.0
385.288849 184.0
385.393616 356.0
385.454865 384.0
385.514313 680.0
385.602692 196.0
385.631927 188.0
385.715454 236.0
385.771576 412.0
385.821655 1492.0
385.873718 368.0
385.921295 256.0
385.969971 300.0
386.089081 248.0
386.174133 48036.0
386.270752 208.0
386.366791 120.0
386.398712 104.0
386.474701 192.0
386.532654 148.0
386.690521 224.0
386.717102 176.0
386.753754 188.0
386.93512 112.0
386.996643 112.0
387.031494 252.0
387.086792 232.0
387.119507 272.0
387.172516 4456.0
387.258392 456.0
387.290558 260.0
387.332489 312.0
387.392822 344.0
387.434753 364.0
387.469177 208.0
387.495636 316.0
387.583344 280.0
387.615448 380.0
387.642517 392.0
387.694305 280.0
387.74231 300.0
387.804474 364.0
387.866516 212.0
387.995514 228.0
388.08902 136.0
388.117218 172.0
388.169952 136.0
388.272919 152.0
388.391968 172.0
388.428131 148.0
388.529755 140.0
388.571655 244.0
388.661499 100.0
388.689362 312.0
388.742462 192.0
388.776398 156.0
388.905151 164.0
388.984985 116.0
389.069397 284.0
389.141083 116.0
389.250092 132.0
389.940063 100.0
390.307373 104.0
390.38205 124.0
390.661652 128.0
392.263367 112.0
393.340149 108.0
394.517181 108.0
397.394775 140.0
397.486053 140.0
397.744019 148.0
398.877014 132.0
399.058655 132.0
399.852112 112.0
400.197144 112.0
400.262482 116.0
402.497528 152.0
402.875092 108.0
403.498718 120.0
404.136322 196.0
405.115173 96.0
405.825531 120.0
416.089539 120.0
417.008759 156.0
420.107422 152.0
423.40387 100.0
433.586121 140.0
434.838623 200.0
436.171875 168.0
444.063354 160.0
468.793488 128.0
472.612701 168.0
476.493134 144.0
477.284149 144.0
484.691498 144.0
485.533142 220.0
487.293365 172.0
520.766174 136.0
531.121887 160.0
585.457581 132.0
588.775818 116.0
588.966492 104.0
597.458557 180.0
604.030273 124.0
727.683289 144.0
746.124573 180.0
757.359863 108.0
789.088257 112.0
822.929749 140.0
839.53595 140.0
956.611633 144.0
964.103455 144.0
1323.119873 160.0
1382.136475 176.0
1395.450073 160.0
1396.074707 212.0
1404.98291 192.0
1407.057617 224.0
1418.990601 180.0
1422.681641 156.0
1430.6427 192.0
1508.528076 140.0
1526.118896 140.0
1535.439941 208.0
1541.044678 176.0
1581.362549 180.0
1589.469482 140.0
1598.074585 160.0
1609.168945 172.0
1622.321289 184.0
1626.37915 172.0
1628.580078 188.0
1631.593506 152.0
1637.29834 140.0
1641.262939 204.0
1649.271362 156.0
1650.087769 160.0
1656.489014 144.0
1658.595825 196.0
1672.005127 176.0
1673.576172 160.0
1677.144287 216.0
1682.438354 172.0
1683.164917 152.0
1695.738525 188.0
1708.710327 168.0
1709.543701 168.0
1714.657837 216.0
1716.859009 140.0
1717.048706 220.0
1721.521606 236.0
1723.479248 196.0
1731.909058 188.0
1736.741333 200.0
1739.836548 176.0
1743.175415 180.0
1743.466187 220.0
1744.157837 264.0
1746.600586 144.0
1749.762817 176.0
1751.953125 192.0
1754.4198 180.0
1763.451416 180.0
1765.089966 180.0
1775.515625 348.0
1792.774658 156.0
1794.426758 228.0
1796.02063 140.0
1800.324829 168.0
1805.623657 176.0
1815.803467 140.0
1819.3927 172.0
1826.079956 184.0
1828.206909 168.0
1831.373901 212.0
1832.898804 152.0
1836.742432 184.0
1837.709229 180.0
1845.343262 172.0
1847.197998 156.0
1850.065796 140.0
1860.687622 172.0
1862.877441 144.0
1863.478882 172.0
1864.234985 184.0
1867.372925 232.0
1872.373169 216.0
1876.224731 156.0
1879.010376 148.0
1883.447388 140.0
1885.814819 164.0
1888.270264 196.0
1889.368774 220.0
1890.770508 192.0
1891.644775 196.0
1898.428711 212.0
1899.122559 168.0
1901.230713 168.0
1908.927368 192.0
1909.910156 164.0
1911.258545 172.0
1915.193481 156.0
1916.151733 156.0
1919.333008 140.0
1920.492798 184.0
1921.199341 148.0
1922.804932 192.0
1923.668945 160.0
1924.900024 168.0
1926.777832 184.0
1929.793091 164.0
1930.011719 220.0
1933.493164 144.0
1934.561035 148.0
1936.102051 168.0
1950.983154 188.0
1954.175537 188.0
1957.432251 216.0
1961.079468 160.0
1961.150024 228.0
1962.225464 204.0
1962.595703 152.0
1965.030029 176.0
1969.80603 148.0
1970.574585 204.0
1971.219604 244.0
1972.536377 140.0
1973.012695 188.0
1973.287842 160.0
1973.818359 184.0
1974.154419 228.0
1978.241943 156.0
1981.341431 184.0
1982.130005 144.0
1985.917725 192.0
1987.70752 168.0
1988.719116 176.0
1990.228271 152.0
1991.240601 192.0
1991.977905 168.0
1998.200806 200.0
1999.339722 196.0
