>compound 5-Nonyloxytryptamine
>formula C19H30N2O
>ionization [M+H]+
>parentmass 303.243011
#inchi InChI=1S/C19H30N2O/c1-2-3-4-5-6-7-8-13-22-17-9-10-19-18(14-17)16(11-12-20)15-21-19/h9-10,14-15,21H,2-8,11-13,20H2,1H3
#inchikey YHSMSRREJYOGQJ
#Ion_Source LC-ESI
#Instrument qTof
#Compound_Source Commercial
#PI Dorrestein
#Data_Collector Garg_Neha
#Scan -1
#Precursor_MZ 303.243
#ExactMass 302.236
#Charge 1
#CAS_Number N/A
#Pubmed_ID N/A
#Smiles CCCCCCCCCOc1ccc2[nH]cc(CCN)c2c1
#INCHI_AUX N/A
#Library_Class 1
#SpectrumID CCMSLIB00000079219
#IonMode Positive
#UpdateWorkflowName UPDATE-SINGLE-ANNOTATED-GOLD
#LibraryQualityString Gold
#TaskID 278b19f5865741e282cec7349aa7e7a1
##Scan# 1626
#SpectrumFile NCP003672_A27B27C27D27_BE4_01_15740.mzXML
#LibraryName NIHcollectionI_05062014.mgf
#MQScore -1
#Organism NIHcollectionI_05062014
#TIC_Query 0
#RT_Query -1
#MZErrorPPM -1
#SharedPeaks 0
#MassDiff 0
#LibMZ -1
#SpecMZ 303.243
#SpecCharge 0
#internalFilename spec-00000.mgf

>collision 10
44.916187 208.0
45.033134 200.0
45.136036 152.0
45.255123 264.0
45.434715 144.0
45.753227 144.0
45.842125 196.0
46.213459 172.0
46.344795 188.0
46.843395 160.0
47.303589 200.0
47.588749 148.0
47.616211 192.0
47.731686 148.0
48.034641 200.0
48.145061 184.0
48.197556 244.0
48.211372 196.0
48.250076 140.0
48.642899 236.0
49.558395 196.0
49.590626 168.0
49.627075 144.0
49.725269 212.0
49.843235 144.0
49.86853 212.0
49.976814 220.0
50.064457 168.0
50.282608 152.0
50.30378 140.0
50.723907 248.0
50.986488 148.0
51.13155 180.0
51.244045 196.0
51.322437 164.0
51.49295 148.0
51.772564 152.0
51.901535 200.0
52.720615 160.0
52.88549 172.0
52.95499 200.0
53.601471 160.0
53.706882 144.0
53.815887 164.0
53.862621 164.0
54.128799 160.0
54.344269 208.0
54.646938 148.0
55.087746 196.0
55.29327 140.0
55.41766 200.0
55.500504 112.0
55.747074 148.0
57.066975 168.0
57.152706 144.0
57.220436 144.0
57.345467 168.0
57.60651 164.0
57.63068 156.0
57.692646 140.0
58.188049 144.0
58.203232 176.0
58.384068 164.0
58.938946 196.0
59.050541 172.0
59.292439 152.0
59.381363 176.0
59.520069 108.0
59.636234 140.0
59.982559 172.0
60.00877 184.0
60.039608 144.0
60.095139 228.0
60.124458 188.0
60.204739 168.0
60.26189 180.0
60.599182 164.0
60.866062 192.0
61.085102 184.0
61.285934 220.0
61.87632 164.0
61.920166 144.0
62.156883 164.0
62.238503 152.0
62.255779 160.0
62.770359 168.0
62.91954 196.0
63.02607 184.0
63.645397 164.0
63.735939 140.0
63.875843 144.0
63.890797 160.0
64.176842 164.0
64.189636 168.0
64.26297 196.0
64.371506 140.0
64.771339 212.0
65.154739 148.0
65.553825 120.0
65.871613 140.0
65.910393 160.0
65.939476 164.0
66.051041 236.0
66.259872 156.0
66.318741 188.0
66.417114 148.0
66.548569 176.0
66.987801 152.0
67.845619 200.0
68.024429 144.0
68.105728 212.0
68.461784 200.0
68.654594 176.0
68.666138 144.0
68.897232 168.0
69.080727 148.0
69.234657 204.0
69.267784 176.0
69.654282 184.0
69.931961 148.0
70.040184 164.0
70.231873 156.0
70.255226 156.0
70.713066 188.0
71.325279 140.0
71.337044 152.0
71.355537 232.0
71.61805 152.0
71.650063 164.0
71.918182 352.0
72.344154 220.0
72.423737 148.0
72.503372 188.0
72.951469 192.0
73.216896 176.0
73.327637 252.0
74.089737 160.0
74.163422 176.0
74.240578 176.0
74.295464 188.0
74.561607 188.0
74.983261 160.0
75.050491 196.0
75.064285 140.0
75.198853 140.0
75.267418 156.0
75.8284 248.0
75.928955 152.0
76.246666 160.0
76.408379 144.0
76.603355 144.0
76.955643 168.0
77.504852 140.0
77.729301 160.0
77.966606 148.0
78.244286 144.0
78.556213 140.0
78.930634 204.0
79.033226 184.0
79.2705 196.0
79.737236 176.0
79.788788 152.0
80.160782 188.0
80.603317 164.0
81.653831 144.0
81.738388 168.0
82.378426 164.0
82.414558 176.0
82.673141 140.0
83.829819 136.0
84.156433 188.0
84.512848 148.0
84.769203 148.0
84.823166 216.0
84.914024 140.0
85.161804 188.0
85.387871 212.0
86.08448 184.0
86.298828 140.0
86.365402 176.0
86.509911 164.0
88.146576 180.0
88.183823 168.0
88.208122 204.0
88.486862 188.0
88.602432 204.0
88.623589 140.0
88.670441 184.0
88.777298 168.0
88.827942 280.0
89.357712 172.0
89.455574 164.0
89.61377 192.0
89.708 232.0
89.768333 216.0
89.792847 160.0
90.476875 144.0
91.013428 140.0
91.053307 188.0
91.384064 152.0
91.397385 196.0
91.566811 152.0
91.696365 236.0
92.181381 212.0
92.358894 148.0
92.422028 188.0
92.57325 180.0
92.822357 164.0
93.037247 140.0
93.203316 128.0
93.470108 188.0
93.608292 144.0
94.043991 144.0
94.138588 160.0
94.272827 168.0
94.503311 236.0
94.592941 196.0
95.001823 156.0
95.025108 292.0
95.05809 168.0
95.141556 168.0
95.306641 148.0
95.573021 220.0
95.625565 168.0
95.855362 160.0
96.171295 180.0
96.391983 164.0
96.499481 144.0
96.565971 144.0
97.544395 176.0
97.65844 200.0
98.470467 220.0
98.56134 200.0
98.636841 196.0
99.539864 152.0
100.042885 152.0
100.228104 144.0
100.273941 184.0
100.419487 156.0
100.447411 220.0
100.888733 164.0
100.922722 176.0
100.944717 156.0
101.657852 244.0
102.334038 160.0
102.363434 160.0
102.619331 184.0
102.780693 200.0
103.053276 216.0
103.134109 160.0
103.162407 180.0
103.441566 148.0
103.597496 140.0
103.642067 196.0
103.830589 176.0
104.047707 160.0
104.096436 196.0
105.069931 1412.0
105.181587 164.0
105.557503 156.0
105.840164 144.0
106.066498 280.0
106.087784 140.0
106.112389 200.0
106.467369 156.0
106.668724 184.0
106.81884 140.0
106.897018 148.0
106.997871 172.0
107.048866 328.0
107.407959 160.0
107.476036 208.0
108.256134 176.0
108.487389 172.0
110.060265 156.0
110.250359 172.0
110.344421 368.0
110.819519 164.0
111.348137 168.0
112.02964 184.0
112.067566 148.0
112.337418 176.0
112.599144 236.0
113.024048 168.0
113.324715 144.0
113.430679 196.0
113.545174 196.0
114.190811 188.0
114.390823 160.0
114.650673 200.0
114.944954 196.0
115.019653 140.0
115.054382 4148.0
115.173386 144.0
116.021088 168.0
116.058838 488.0
116.589584 176.0
117.057877 2024.0
117.675224 152.0
117.947426 204.0
118.042549 156.0
118.063637 244.0
118.702026 176.0
119.115364 176.0
119.443596 140.0
119.74614 236.0
119.771317 168.0
120.077026 156.0
121.273369 160.0
121.418068 196.0
121.729691 228.0
121.749451 240.0
121.901031 144.0
122.019722 168.0
123.059639 168.0
123.594521 172.0
123.802605 216.0
123.884552 164.0
124.438988 160.0
124.570015 148.0
124.810043 172.0
125.680954 160.0
125.763527 152.0
125.819328 232.0
125.882462 160.0
126.617592 152.0
126.723389 176.0
127.099556 156.0
127.616165 148.0
129.061447 196.0
129.249191 240.0
129.507263 176.0
129.806412 220.0
130.033279 152.0
130.065582 1212.0
130.29895 152.0
130.508041 176.0
130.876648 148.0
130.965469 156.0
131.048065 864.0
131.073013 1224.0
131.250336 164.0
131.483017 176.0
131.54007 168.0
131.79129 152.0
131.978714 164.0
132.044022 360.0
132.081268 15612.0
132.287567 200.0
132.885712 152.0
133.063568 2980.0
133.083282 1092.0
133.22319 148.0
133.685349 164.0
133.821152 156.0
133.973938 128.0
134.05838 1304.0
134.09758 180.0
134.30278 148.0
135.059433 176.0
135.726715 216.0
136.22139 176.0
137.152466 188.0
137.408981 200.0
137.67041 180.0
137.836273 184.0
138.018585 160.0
138.070038 188.0
138.648285 220.0
138.709229 164.0
139.185486 152.0
139.211014 156.0
139.258286 160.0
139.354599 152.0
139.69548 172.0
139.756653 144.0
140.04892 156.0
140.616776 144.0
140.726517 172.0
140.992294 144.0
141.058319 176.0
141.541107 156.0
142.065125 5804.0
142.572998 148.0
142.696609 168.0
143.049789 104.0
143.073364 2348.0
143.20108 148.0
143.6492 144.0
144.050171 160.0
144.078674 456.0
145.053436 340.0
145.080399 164.0
145.247086 188.0
145.568695 164.0
145.660278 152.0
146.06041 468.0
146.103561 464.0
146.241837 168.0
146.277939 148.0
146.516357 188.0
147.106293 136.0
147.172363 156.0
147.77774 180.0
148.075485 1348.0
148.964539 144.0
149.077972 172.0
149.54567 212.0
149.657654 168.0
149.694168 224.0
149.742874 144.0
150.293808 160.0
150.613617 168.0
150.755325 156.0
150.892197 140.0
150.950882 144.0
152.337601 176.0
153.016861 176.0
153.16954 144.0
153.19664 220.0
153.818054 172.0
153.853149 204.0
154.257751 148.0
154.665894 168.0
155.104309 140.0
155.449051 156.0
155.533432 184.0
156.184433 208.0
156.254089 156.0
156.412628 164.0
157.057541 136.0
157.455551 164.0
157.752899 164.0
158.060226 216.0
158.368439 144.0
158.521271 164.0
158.646591 228.0
159.067551 6604.0
159.238754 176.0
159.37944 164.0
159.513763 160.0
159.536377 188.0
159.559814 172.0
159.676071 192.0
159.69368 140.0
159.826401 132.0
159.856277 152.0
159.871719 140.0
159.910049 152.0
159.973343 188.0
160.006287 156.0
160.041534 356.0
160.076782 184336.0
160.156708 100.0
160.174454 328.0
160.207825 136.0
160.278473 296.0
160.314331 120.0
160.340439 200.0
160.386749 108.0
160.489655 932.0
160.538483 144.0
160.615875 144.0
160.747238 180.0
160.914474 96.0
160.97644 184.0
161.01799 124.0
161.079361 17612.0
161.124985 104.0
161.353241 96.0
161.373581 156.0
161.493515 140.0
161.54454 212.0
161.617767 108.0
161.723175 108.0
161.83609 140.0
161.958908 128.0
162.022339 164.0
162.052841 196.0
162.088333 2032.0
162.145767 108.0
162.220917 148.0
162.252304 96.0
162.294769 156.0
162.31459 140.0
162.338593 112.0
162.370483 112.0
162.431519 188.0
162.498993 104.0
162.575165 148.0
162.842896 168.0
163.098099 196.0
163.151505 160.0
163.173706 160.0
163.216476 140.0
163.322708 108.0
163.766159 172.0
165.32608 148.0
165.894684 160.0
166.069046 188.0
166.101166 104.0
167.356522 152.0
168.584351 144.0
168.850632 144.0
170.070496 288.0
170.221527 208.0
170.76207 156.0
170.91217 108.0
171.057373 324.0
171.280029 176.0
171.92662 156.0
172.077835 356.0
172.493378 160.0
173.1147 228.0
174.051727 132.0
174.091843 604.0
174.275467 168.0
175.001404 152.0
175.061966 164.0
175.093521 144.0
175.978485 164.0
176.214645 196.0
176.799011 156.0
177.869781 168.0
178.72818 200.0
179.441986 208.0
179.732712 156.0
180.250732 224.0
180.358475 128.0
180.526062 148.0
180.741211 128.0
182.032074 180.0
182.150238 232.0
182.429718 232.0
183.269394 180.0
184.681274 172.0
185.542389 168.0
185.564087 144.0
185.930267 152.0
186.017136 188.0
186.095856 144.0
186.215347 196.0
186.579453 184.0
187.197098 144.0
187.987625 188.0
189.269653 244.0
189.894455 188.0
189.968521 144.0
191.199463 172.0
191.901886 188.0
192.299118 140.0
193.49881 164.0
193.764679 184.0
193.784073 196.0
195.202438 156.0
195.405487 204.0
196.38829 184.0
196.893997 172.0
197.707535 140.0
198.69664 196.0
199.530746 216.0
199.7276 152.0
199.97197 136.0
200.006653 160.0
200.108612 172.0
201.401886 184.0
202.187866 204.0
202.470978 160.0
204.421249 172.0
205.184586 208.0
205.59819 148.0
205.792297 140.0
206.175064 160.0
206.415192 164.0
206.575348 200.0
207.61792 144.0
207.830185 176.0
209.630234 180.0
210.253128 216.0
211.797043 168.0
211.944794 208.0
212.809143 196.0
213.087967 228.0
213.125732 200.0
215.745865 176.0
217.115997 132.0
217.758911 156.0
219.056061 144.0
220.563904 212.0
220.870621 132.0
220.972015 180.0
222.474564 156.0
222.854706 160.0
223.223282 156.0
224.781204 212.0
225.031921 144.0
225.435165 160.0
226.386459 148.0
227.05629 156.0
227.552856 192.0
228.824615 160.0
231.511978 172.0
231.869461 160.0
232.418335 208.0
232.512405 252.0
233.232224 196.0
233.262619 196.0
234.669113 156.0
235.48082 168.0
235.5755 140.0
236.756134 180.0
238.415802 220.0
238.84317 172.0
239.973358 156.0
240.176895 164.0
242.155014 144.0
242.452423 192.0
242.551605 176.0
243.196777 184.0
243.845901 140.0
244.704453 152.0
244.860153 176.0
246.282379 172.0
247.207779 160.0
247.436279 144.0
248.68074 168.0
249.307678 180.0
249.758453 172.0
253.566208 148.0
255.980591 184.0
257.080353 160.0
257.632721 168.0
258.215485 216.0
259.229309 188.0
259.556274 168.0
260.202057 596.0
260.237061 136.0
261.197998 204.0
264.857758 160.0
265.207703 152.0
265.653809 128.0
266.288116 164.0
267.803772 148.0
268.833984 144.0
270.386292 212.0
270.602325 196.0
271.10675 164.0
273.21405 216.0
273.37265 144.0
274.216766 4632.0
274.344299 224.0
274.367371 152.0
274.598175 176.0
274.677338 140.0
275.099731 188.0
275.217285 952.0
275.492706 172.0
275.711609 256.0
275.912415 140.0
276.024811 168.0
276.220367 144.0
276.315887 148.0
276.491241 152.0
276.514435 148.0
277.761292 124.0
278.028992 204.0
280.316895 188.0
280.710236 212.0
280.753601 144.0
282.209473 180.0
282.527191 240.0
282.828369 176.0
283.407715 160.0
283.637054 212.0
284.202881 180.0
284.495758 232.0
284.840057 164.0
285.167877 268.0
285.194397 288.0
285.275848 308.0
285.321899 160.0
285.376648 264.0
285.453491 120.0
285.498871 104.0
285.516388 280.0
285.5672 112.0
285.630646 164.0
285.678833 312.0
285.762207 132.0
285.794922 140.0
285.859589 356.0
285.925171 176.0
285.969513 368.0
285.999298 276.0
286.073456 376.0
286.136292 444.0
286.218719 270796.0
286.306274 136.0
286.358612 124.0
286.436951 196.0
286.481812 252.0
286.54126 244.0
286.578125 536.0
286.60672 252.0
286.652649 264.0
286.728302 252.0
286.771423 6264.0
286.816559 400.0
286.854401 188.0
286.910309 324.0
286.942474 188.0
286.990204 216.0
287.02243 220.0
287.075623 172.0
287.111572 228.0
287.220856 81336.0
287.323792 240.0
287.357025 172.0
287.410461 272.0
287.671722 108.0
287.703033 104.0
287.856506 108.0
287.901398 116.0
288.036469 124.0
288.12384 168.0
288.222931 7496.0
288.382812 160.0
288.493927 144.0
288.557465 100.0
288.613312 108.0
288.71344 140.0
288.76593 216.0
288.815948 268.0
288.887024 196.0
288.915802 236.0
288.964203 164.0
289.080688 280.0
289.138641 312.0
289.192444 268.0
289.227417 300.0
289.260468 140.0
289.300934 124.0
289.373413 344.0
289.509064 144.0
289.647919 140.0
289.774933 192.0
289.848816 112.0
289.933289 96.0
289.972748 112.0
290.134491 144.0
290.316772 136.0
290.500793 164.0
290.578278 144.0
290.916962 124.0
291.1427 144.0
291.423004 124.0
292.01825 112.0
297.057739 152.0
297.09082 96.0
297.950287 148.0
300.190979 152.0
301.064056 168.0
301.231445 156.0
302.267029 196.0
302.661652 160.0
303.139771 140.0
303.175385 156.0
303.243011 3660.0
304.244904 468.0
304.293304 100.0
304.725372 144.0
305.155243 220.0
315.612152 140.0
423.796234 156.0
743.506348 140.0
765.774719 152.0
770.220337 144.0
875.195923 180.0
961.459717 96.0
1017.832825 268.0
1128.840698 156.0
1149.874878 144.0
1151.110229 204.0
1177.391357 156.0
1217.785889 240.0
1247.609619 160.0
1266.769165 172.0
1321.221313 148.0
1327.044189 160.0
1328.342285 204.0
1330.744385 180.0
1341.861572 212.0
1346.568115 176.0
1353.369019 220.0
1364.888794 160.0
1365.146118 172.0
1370.003906 180.0
1374.936768 188.0
1391.406372 204.0
1429.308594 140.0
1440.889648 204.0
1442.469116 148.0
1478.047241 156.0
1489.839111 176.0
1490.699585 144.0
1504.934204 172.0
1514.260254 176.0
1518.460938 240.0
1566.469727 148.0
1572.525391 172.0
1573.685791 180.0
1583.847778 152.0
1593.025513 168.0
1623.483154 156.0
1624.718384 164.0
1636.661621 200.0
1640.198364 176.0
1641.875366 160.0
1642.197998 140.0
1650.208618 172.0
1675.408447 140.0
1682.144287 148.0
1698.796875 192.0
1699.116821 188.0
1702.835327 144.0
1706.796387 160.0
1719.812744 152.0
1720.562622 128.0
1728.647461 140.0
1729.839233 144.0
1733.557983 140.0
1734.138184 168.0
1734.859253 188.0
1735.729858 148.0
1736.683594 176.0
1736.857666 208.0
1737.936157 204.0
1758.540894 192.0
1759.192017 212.0
1764.438354 156.0
1769.38269 216.0
1776.539551 160.0
1783.164551 144.0
1786.418579 164.0
1789.515625 176.0
1798.637085 156.0
1802.403687 140.0
1804.812622 168.0
1809.754028 140.0
1817.28894 196.0
1820.242798 156.0
1821.983887 176.0
1823.114014 184.0
1823.470947 144.0
1824.805542 160.0
1826.855103 252.0
1827.195435 188.0
1827.978149 196.0
1835.533936 176.0
1836.463501 140.0
1847.277222 144.0
1850.657715 160.0
1850.828979 196.0
1851.471313 188.0
1853.312988 168.0
1860.937988 144.0
1864.898193 168.0
1874.735107 164.0
1877.269531 152.0
1877.416138 156.0
1877.778442 228.0
1892.113892 140.0
1892.347656 156.0
1895.855713 160.0
1899.306396 168.0
1899.471191 200.0
1900.191284 188.0
1907.169434 184.0
1914.159058 160.0
1921.131592 140.0
1925.478394 168.0
1932.66394 160.0
1935.578735 164.0
1936.318604 160.0
1938.811157 184.0
1939.258179 140.0
1943.300781 232.0
1950.243286 124.0
1956.985596 168.0
1957.839722 144.0
1958.086304 176.0
1964.062012 208.0
1969.260742 140.0
1971.495972 172.0
1972.512329 160.0
1973.263794 164.0
1977.81958 180.0
1979.04126 220.0
1984.561279 140.0
1984.738647 200.0
1988.917114 184.0
1989.387573 144.0
1989.849121 212.0
1991.065674 156.0
1991.554199 168.0
1992.362549 140.0
1994.637451 148.0
1994.770752 168.0
1995.144165 196.0
1998.915283 168.0
1999.778564 176.0
