>compound NCGC00160271-01!2,3,5,8-Tetrahydroxy-6-methyl-1,4-naphthoquinone
>formula C11H8O6
>ionization [M+H]+
>parentmass 237.038452
#inchi InChI=1S/C11H8O6/c1-3-2-4(12)5-6(7(3)13)9(15)11(17)10(16)8(5)14/h2,12-13,16-17H,1H3
#inchikey WXLPYHMWBMMBOS
#Ion_Source LC-ESI
#Instrument qTOF
#Compound_Source Prestwick Phytochem Lib
#PI Dorrestein
#Data_Collector VVP/LMS
#Scan -1
#Precursor_MZ 237.039
#ExactMass 236.032
#Charge 1
#CAS_Number N/A
#Pubmed_ID N/A
#Smiles CC1=C(O)C2=C(C(O)=C1)C(=O)C(O)=C(O)C2=O
#INCHI_AUX N/A
#Library_Class 3
#SpectrumID CCMSLIB00000078787
#IonMode Positive
#UpdateWorkflowName UPDATE-SINGLE-ANNOTATED-BRONZE
#LibraryQualityString Bronze
#TaskID 67c915c6594c435cadc1fe2b5358144d
##Scan# 1830
#SpectrumFile p1-A04_GA4_01_17877.mzXML
#LibraryName phytochem_lib.mgf
#MQScore -1
#Organism phytochem_lib
#TIC_Query 0
#RT_Query -1
#MZErrorPPM -1
#SharedPeaks 0
#MassDiff 0
#LibMZ -1
#SpecMZ 237.039
#SpecCharge 0
#internalFilename spec-00000.mgf

>collision 10
105.032799 152.0
106.981499 104.0
107.049438 148.0
107.185387 72.0
107.659828 104.0
133.031677 188.0
134.039017 252.0
135.040894 160.0
138.050201 216.0
145.025101 192.0
146.033478 136.0
146.136917 112.0
149.787567 32.0
163.036453 172.0
163.932114 48.0
163.957596 44.0
164.503418 224.0
168.97757 164.0
173.027008 128.0
190.094162 124.0
191.032669 268.0
209.044357 1176.0
210.049866 136.0
211.046173 216.0
219.027893 64.0
235.161026 156.0
237.038452 376.0
245.044678 212.0
916.403931 120.0
1417.470703 216.0
