>compound MLS001333220-01!FLUOCINONIDE356-12-7
>formula C26H32F2O7
>ionization [M+H]+
>parentmass 495.2188862560905
#inchi InChI=1S/C26H32F2O7/c1-13(29)33-12-20(32)26-21(34-22(2,3)35-26)10-15-16-9-18(27)17-8-14(30)6-7-23(17,4)25(16,28)19(31)11-24(15,26)5/h6-8,15-16,18-19,21,31H,9-12H2,1-5H3/t15?,16?,18-,19?,21+,23?,24?,25-,26+/m0/s1
#inchikey WJOHZNCJWYWUJD
#Ion_Source LC-ESI
#Instrument qTof
#Compound_Source NIH Pharmacologically Active Library
#PI Dorrestein
#Data_Collector VP/LMS
#Scan -1
#Precursor_MZ 495.222
#ExactMass 494.212
#Charge 1
#CAS_Number N/A
#Pubmed_ID N/A
#Smiles CC(=O)OCC(=O)[C@]12OC(C)(C)O[C@@H]2CC3C4C[C@H](F)C5=CC(=O)C=CC5(C)[C@@]4(F)C(O)CC31C
#INCHI_AUX N/A
#Library_Class 1
#SpectrumID CCMSLIB00000084772
#IonMode Positive
#UpdateWorkflowName UPDATE-SINGLE-ANNOTATED-GOLD
#LibraryQualityString Gold
#TaskID d252d724072548979f1f6f1ced849daf
##Scan# 2257
#SpectrumFile p3-A06_GA6_01_18228.mzXML
#LibraryName Pharm_Active_Library.mgf
#MQScore -1
#Organism Pharm_Active_Library
#TIC_Query 0
#RT_Query -1
#MZErrorPPM -1
#SharedPeaks 0
#MassDiff 0
#LibMZ -1
#SpecMZ 495.222
#SpecCharge 0
#internalFilename spec-00000.mgf

>collision 10
45.088326 196.0
45.144474 196.0
45.338593 136.0
45.76981 180.0
45.90591 200.0
46.144913 160.0
46.199009 124.0
46.739006 76.0
46.985619 112.0
47.019733 148.0
47.120781 156.0
47.185017 136.0
47.236984 160.0
47.269161 188.0
47.299931 228.0
47.44566 172.0
47.473938 156.0
47.655128 180.0
47.730728 216.0
47.796757 124.0
47.810516 156.0
47.864204 216.0
47.942726 56.0
48.409664 176.0
48.445675 48.0
48.494175 184.0
48.527443 108.0
48.553791 184.0
48.563499 144.0
48.682163 216.0
48.955425 156.0
48.970745 160.0
49.0 120.0
49.199436 100.0
49.259483 188.0
49.305592 180.0
49.360115 140.0
49.369904 80.0
49.544868 132.0
49.565884 168.0
49.612137 148.0
49.64719 260.0
49.81562 112.0
49.85918 160.0
49.949165 152.0
49.959015 184.0
50.381947 52.0
50.446953 92.0
50.570015 224.0
50.71307 140.0
51.009735 204.0
51.03817 108.0
51.238857 200.0
51.320095 156.0
51.338634 220.0
51.393341 228.0
51.435654 116.0
51.478485 168.0
51.545624 152.0
51.612808 140.0
51.740147 112.0
51.753033 180.0
51.889149 44.0
52.215111 76.0
52.230934 148.0
52.429626 120.0
52.458454 228.0
52.651798 56.0
52.854183 60.0
53.022678 216.0
53.203484 192.0
53.247044 136.0
53.393833 80.0
53.408379 140.0
53.556847 172.0
53.609295 164.0
53.674892 172.0
53.737614 100.0
53.81205 168.0
53.850018 132.0
54.306675 128.0
54.456383 60.0
54.516621 176.0
54.593063 152.0
54.650433 212.0
54.930351 188.0
54.970184 160.0
54.995274 128.0
55.03661 36.0
55.067623 220.0
55.116375 116.0
55.407848 104.0
55.434521 164.0
55.484917 140.0
55.566486 100.0
55.719406 168.0
55.888905 128.0
55.93504 212.0
55.958858 176.0
56.206287 184.0
56.547016 144.0
56.626366 144.0
56.68779 36.0
56.773239 76.0
57.089203 172.0
57.108158 160.0
57.216503 140.0
57.401833 280.0
57.601055 60.0
57.696259 148.0
57.920223 140.0
58.050564 148.0
58.099102 204.0
58.167389 80.0
58.492687 208.0
58.852482 160.0
58.918156 212.0
58.950241 204.0
59.093975 180.0
59.207253 208.0
59.414181 248.0
59.463284 124.0
59.524693 156.0
59.604568 132.0
59.701412 40.0
59.724483 188.0
59.735252 132.0
60.108097 76.0
60.120441 180.0
60.596703 204.0
60.623043 76.0
60.63699 176.0
60.990871 136.0
61.12151 156.0
61.426872 180.0
61.452187 160.0
61.675152 164.0
61.695473 176.0
61.709541 252.0
62.174778 224.0
62.185764 124.0
62.218727 88.0
62.245419 124.0
62.283112 260.0
62.385254 152.0
62.438713 136.0
62.804115 160.0
62.845131 204.0
63.075706 172.0
63.088352 196.0
63.102581 172.0
63.32412 128.0
63.339962 184.0
63.382736 240.0
63.639694 136.0
63.781082 132.0
63.863766 120.0
63.876492 76.0
64.034065 204.0
64.317879 44.0
64.41848 108.0
64.632713 208.0
64.71595 164.0
65.076706 140.0
65.09597 172.0
65.229324 164.0
65.314545 176.0
65.443291 236.0
65.478722 212.0
65.591507 132.0
65.609238 176.0
65.760864 112.0
65.922371 104.0
65.959541 204.0
66.003189 164.0
66.202232 164.0
66.226524 212.0
66.333466 128.0
66.349678 192.0
66.37886 132.0
66.434006 332.0
66.477814 188.0
66.648315 180.0
66.7117 104.0
66.778366 220.0
67.161133 188.0
67.288414 204.0
67.544983 208.0
67.785652 104.0
68.015259 104.0
68.095718 164.0
68.133499 36.0
68.233749 160.0
68.251831 200.0
68.421303 180.0
68.520119 124.0
68.551422 272.0
68.577789 172.0
68.651985 128.0
68.694862 164.0
68.800484 132.0
68.95575 96.0
69.033455 140.0
69.061569 136.0
69.200577 104.0
69.233696 144.0
69.440857 136.0
69.507217 124.0
69.543724 204.0
69.927658 188.0
70.034813 252.0
70.074203 192.0
70.097527 192.0
70.21756 224.0
70.264267 204.0
70.407814 136.0
70.635124 216.0
70.688667 164.0
70.785751 92.0
70.800827 156.0
70.876205 92.0
70.899666 220.0
71.062325 256.0
71.144562 104.0
71.364647 152.0
71.473976 112.0
71.494171 152.0
71.541298 256.0
71.6036 152.0
71.966156 164.0
72.248398 100.0
72.321167 164.0
72.365181 300.0
72.466797 240.0
72.556625 184.0
72.641418 160.0
72.843422 128.0
72.981079 120.0
72.994682 116.0
73.147804 168.0
73.186966 148.0
73.263603 180.0
73.319832 172.0
73.632042 140.0
74.03051 200.0
74.049347 204.0
74.280746 128.0
74.305084 148.0
74.558891 124.0
74.639687 88.0
74.797966 212.0
74.844963 148.0
74.894394 216.0
74.935738 156.0
75.009842 156.0
75.09433 120.0
75.147804 268.0
75.273811 68.0
75.384369 164.0
75.522675 204.0
75.699013 180.0
75.881134 136.0
75.895004 196.0
75.971321 52.0
76.011223 168.0
76.044197 224.0
76.292595 72.0
76.464798 112.0
76.508308 68.0
76.564384 236.0
76.631966 148.0
76.755714 128.0
76.80455 100.0
77.332222 200.0
77.642326 192.0
77.676216 212.0
77.793221 212.0
78.111282 152.0
78.128876 204.0
78.142952 88.0
78.42823 120.0
78.622238 220.0
78.652245 180.0
78.782913 192.0
78.81472 132.0
78.834152 212.0
78.924309 172.0
79.081589 212.0
79.168503 112.0
79.39534 172.0
79.432587 244.0
79.54438 204.0
79.657097 244.0
79.737984 252.0
79.782425 68.0
79.878448 156.0
80.072456 152.0
80.21151 188.0
80.484398 96.0
80.514755 120.0
80.532616 144.0
80.652328 148.0
80.686287 132.0
80.73278 172.0
80.775192 208.0
80.90097 140.0
80.922455 144.0
80.978439 212.0
81.094421 176.0
81.420952 188.0
81.571877 160.0
81.63121 112.0
81.668976 60.0
81.755333 148.0
82.066963 220.0
82.173378 204.0
82.234734 124.0
82.252785 196.0
82.294304 168.0
82.366539 196.0
82.382797 152.0
82.536423 128.0
82.563446 140.0
82.737251 112.0
82.76622 144.0
82.94014 136.0
82.972771 164.0
83.393906 152.0
83.417534 112.0
83.4739 180.0
83.608513 112.0
83.654015 132.0
83.79789 184.0
84.383751 136.0
84.992668 204.0
85.052399 172.0
85.072594 160.0
85.245239 164.0
85.511902 240.0
85.661049 60.0
85.991096 148.0
86.029861 148.0
86.131424 156.0
86.157288 116.0
86.177605 164.0
86.247833 176.0
86.284805 76.0
86.323631 64.0
86.336578 132.0
86.368019 256.0
86.393913 208.0
86.458679 168.0
86.482735 100.0
86.591972 124.0
86.604942 52.0
86.786552 128.0
86.888557 124.0
86.907112 48.0
87.148483 100.0
87.189369 172.0
87.594978 84.0
87.898872 200.0
87.994064 168.0
88.025803 104.0
88.070625 132.0
88.201424 172.0
88.266853 180.0
88.395927 156.0
88.511986 156.0
88.960075 56.0
89.007011 160.0
89.04081 148.0
89.129105 224.0
89.381065 160.0
89.484589 160.0
89.682388 168.0
89.699348 188.0
89.793625 164.0
89.855873 180.0
89.882286 72.0
89.921921 100.0
89.944565 88.0
89.972885 96.0
90.07486 152.0
90.123978 144.0
90.210915 120.0
90.453041 72.0
90.699287 188.0
90.866165 144.0
90.898422 156.0
91.020157 180.0
91.033203 228.0
91.054962 632.0
91.068184 104.0
91.077705 148.0
91.143372 228.0
91.19088 132.0
91.475601 180.0
91.651413 108.0
91.864937 136.0
92.056046 188.0
92.07299 156.0
92.185699 180.0
92.273621 124.0
92.44577 140.0
92.562538 136.0
92.706207 168.0
92.832733 116.0
92.894104 36.0
92.953583 156.0
93.078354 224.0
93.111 176.0
93.157097 108.0
93.206406 60.0
93.497421 140.0
93.724648 148.0
93.807526 112.0
94.044777 160.0
94.131653 172.0
94.25721 204.0
94.438934 220.0
94.514381 196.0
94.707977 128.0
95.051506 160.0
95.081596 204.0
95.299652 268.0
95.381279 192.0
95.595215 68.0
95.659439 168.0
95.733421 184.0
95.778221 52.0
95.897072 204.0
95.967255 140.0
96.052231 220.0
96.086227 180.0
96.158424 252.0
96.349785 52.0
96.369324 72.0
96.729156 184.0
96.90345 236.0
96.952438 128.0
96.977921 176.0
97.028999 340.0
97.0681 172.0
97.372276 136.0
98.475204 176.0
98.532486 180.0
98.836037 144.0
98.971565 132.0
99.072578 56.0
99.231125 124.0
99.421547 176.0
99.467194 136.0
99.498955 240.0
99.590302 108.0
99.630028 52.0
99.783058 148.0
99.886467 156.0
99.99192 192.0
100.159164 236.0
100.244835 196.0
100.366432 124.0
100.406311 124.0
100.508049 136.0
100.695702 200.0
100.859535 128.0
100.9935 220.0
101.022392 400.0
101.065521 84.0
101.159584 176.0
101.185608 64.0
101.257561 176.0
101.321793 164.0
101.39994 164.0
101.428001 120.0
101.476112 140.0
101.588417 220.0
101.913658 140.0
102.002083 148.0
102.022186 44.0
102.104622 236.0
102.249481 164.0
102.472618 192.0
102.54554 128.0
102.591896 120.0
102.648354 92.0
102.724991 152.0
102.80368 152.0
103.053879 308.0
103.112663 72.0
103.223854 184.0
103.640823 84.0
103.665146 52.0
103.697571 152.0
104.058388 228.0
104.089104 184.0
104.118721 164.0
104.166275 140.0
104.18718 152.0
104.359344 120.0
104.383743 136.0
104.465096 268.0
104.5709 172.0
104.638077 396.0
104.65844 116.0
104.94165 176.0
105.07103 864.0
105.461327 112.0
105.515358 44.0
105.656471 124.0
105.681023 56.0
105.914398 192.0
105.936928 168.0
106.018883 140.0
106.049629 220.0
106.076424 180.0
106.113174 192.0
106.182892 204.0
106.238274 112.0
106.390137 52.0
106.932793 96.0
107.047295 568.0
107.088722 208.0
107.359245 252.0
107.377808 152.0
107.62957 172.0
107.916771 156.0
107.96019 136.0
108.013962 152.0
108.061546 124.0
108.083435 236.0
108.227127 32.0
108.355537 100.0
108.75161 100.0
108.776512 104.0
108.909409 188.0
108.994583 172.0
109.047607 396.0
109.06501 860.0
109.329376 128.0
109.464684 224.0
109.990067 100.0
110.050606 184.0
110.069397 188.0
110.086105 208.0
110.253227 208.0
110.269951 144.0
110.295029 144.0
110.328476 40.0
110.401657 164.0
110.44767 172.0
110.485321 132.0
110.499969 60.0
110.556465 128.0
110.579483 152.0
110.604599 136.0
110.918793 216.0
110.998466 52.0
111.044624 348.0
111.080254 164.0
111.206154 172.0
111.220848 148.0
111.471771 160.0
111.506493 160.0
111.735687 172.0
111.824066 188.0
111.929329 180.0
111.975655 140.0
112.046272 160.0
112.102058 72.0
112.131561 124.0
112.28125 96.0
112.380394 40.0
112.583031 152.0
112.631607 172.0
112.671745 208.0
112.688644 72.0
112.794312 112.0
112.923286 84.0
112.9804 208.0
113.02906 196.0
113.052261 224.0
113.073395 164.0
113.107368 80.0
113.151825 168.0
113.231026 168.0
113.293716 152.0
113.382706 188.0
113.406021 164.0
113.558678 384.0
113.590492 100.0
113.705063 152.0
114.066139 232.0
114.095901 92.0
114.37883 92.0
114.500191 108.0
114.518501 208.0
114.745232 228.0
115.050507 680.0
115.225433 140.0
115.253204 160.0
115.385719 128.0
115.417793 148.0
115.494781 212.0
115.63385 172.0
115.826553 84.0
115.847969 152.0
115.877968 164.0
115.935326 156.0
116.042992 164.0
116.079445 80.0
116.480125 272.0
116.704285 216.0
116.773102 264.0
116.803215 140.0
116.826874 68.0
116.912941 176.0
116.996056 208.0
117.020561 56.0
117.068268 756.0
117.279068 32.0
117.352364 112.0
117.367455 52.0
117.398064 124.0
117.51844 112.0
117.764534 80.0
117.940414 328.0
118.235847 180.0
118.365738 184.0
118.510857 200.0
118.608376 108.0
118.818726 96.0
118.959785 148.0
119.049606 520.0
119.087379 584.0
119.183479 196.0
119.296494 164.0
119.437836 136.0
119.54879 224.0
119.564026 144.0
119.672867 128.0
119.871078 116.0
119.953896 80.0
120.053757 180.0
120.091263 132.0
120.195984 256.0
120.388077 72.0
120.420418 188.0
120.534431 124.0
120.81237 148.0
120.844917 112.0
121.017822 176.0
121.06572 11240.0
121.18866 60.0
121.263168 52.0
121.460503 96.0
121.539474 64.0
121.653603 44.0
121.766563 188.0
121.794136 196.0
121.842461 160.0
122.029274 144.0
122.068672 1336.0
122.209625 144.0
122.284447 188.0
122.436356 136.0
122.667702 152.0
122.704193 164.0
122.720612 72.0
122.784561 76.0
122.804413 60.0
122.901474 140.0
122.936783 128.0
123.046112 960.0
123.079185 572.0
123.120811 132.0
123.387375 120.0
123.503403 144.0
123.553238 228.0
123.642136 180.0
123.88752 216.0
124.04882 136.0
124.067024 108.0
124.126884 152.0
124.208946 140.0
124.262184 92.0
124.348724 128.0
124.471291 164.0
124.637413 48.0
124.664078 120.0
124.859711 200.0
124.88195 152.0
124.928665 228.0
124.948799 156.0
125.034172 172.0
125.059532 376.0
125.087967 184.0
125.151222 104.0
125.202438 156.0
125.270866 144.0
125.472046 156.0
125.804451 76.0
126.003204 212.0
126.087051 92.0
126.432526 120.0
126.477287 192.0
126.698975 120.0
126.923103 208.0
127.054512 504.0
127.08049 236.0
127.187828 116.0
127.531479 196.0
127.664124 296.0
127.938622 164.0
128.028687 164.0
128.06192 520.0
128.387009 72.0
128.459183 164.0
128.481735 184.0
129.035049 224.0
129.068222 628.0
129.100616 248.0
129.139069 152.0
129.225769 180.0
129.243134 80.0
129.367599 324.0
129.426468 60.0
129.471756 144.0
129.753754 152.0
129.818481 76.0
129.954575 52.0
130.020386 148.0
130.078369 176.0
130.597458 108.0
130.640686 156.0
130.711212 68.0
130.986694 40.0
131.012711 104.0
131.021439 140.0
131.050644 272.0
131.0858 700.0
131.164429 168.0
131.200897 180.0
131.346848 96.0
131.604721 356.0
131.837708 176.0
131.919998 184.0
132.058426 292.0
132.086929 400.0
132.194458 200.0
132.34552 116.0
132.496689 60.0
132.586044 200.0
132.604385 180.0
132.712128 188.0
132.987411 184.0
133.065704 1020.0
133.102188 148.0
133.122849 32.0
133.214722 64.0
133.292847 108.0
133.318115 100.0
133.814957 88.0
133.94162 36.0
133.976166 40.0
133.992294 208.0
134.064178 140.0
134.159714 204.0
134.188202 32.0
134.331177 44.0
134.398087 128.0
134.607437 160.0
134.779053 76.0
135.046066 788.0
135.080307 1456.0
135.123566 152.0
135.216125 104.0
135.531952 216.0
135.927551 96.0
136.008789 124.0
136.063995 112.0
136.084656 340.0
136.136475 168.0
136.220093 56.0
136.505951 144.0
136.643188 152.0
136.750229 228.0
136.785141 188.0
136.865204 56.0
137.074951 1016.0
137.150848 48.0
137.386353 160.0
137.442352 208.0
137.724823 200.0
138.008286 68.0
138.064575 188.0
138.094116 160.0
138.119843 132.0
138.267242 84.0
138.300018 104.0
138.44986 128.0
138.627884 180.0
138.799011 108.0
139.000732 148.0
139.056992 1764.0
139.193222 56.0
139.249573 104.0
139.266022 148.0
139.456329 136.0
139.505692 144.0
139.590332 220.0
139.976242 112.0
140.006851 80.0
140.063034 300.0
140.301392 52.0
140.317886 160.0
140.515823 252.0
140.667023 204.0
140.700073 36.0
140.931534 132.0
141.069565 664.0
141.1017 188.0
142.011002 116.0
142.058441 200.0
142.079803 184.0
142.198441 156.0
142.300507 252.0
142.319504 144.0
142.381241 188.0
142.549911 84.0
142.711548 148.0
142.873276 116.0
143.046707 236.0
143.068192 212.0
143.087112 532.0
143.294662 188.0
143.323257 80.0
143.578308 232.0
143.93985 152.0
144.022232 160.0
144.05809 368.0
144.089752 516.0
144.380737 132.0
144.715744 124.0
144.746872 148.0
144.952866 168.0
145.065506 3276.0
145.101379 688.0
145.163071 180.0
145.221375 172.0
145.252548 116.0
145.314926 64.0
145.427704 176.0
145.564545 232.0
145.665421 60.0
145.699051 164.0
145.727875 148.0
145.888901 132.0
146.030762 160.0
146.068024 668.0
146.103729 144.0
146.194366 60.0
146.442963 184.0
146.827454 312.0
146.847244 100.0
146.91478 64.0
147.054108 316.0
147.0802 2284.0
147.131973 220.0
147.153702 76.0
147.303436 156.0
147.50882 36.0
147.88858 152.0
147.920944 208.0
148.083328 444.0
148.647125 128.0
149.025909 184.0
149.071991 1312.0
149.59256 148.0
149.784927 184.0
149.828781 108.0
150.050552 164.0
150.069397 176.0
150.10907 180.0
150.216385 164.0
150.345688 112.0
150.580063 136.0
150.848831 72.0
150.971085 180.0
151.039124 452.0
151.076233 1048.0
151.193695 32.0
151.210831 68.0
151.230408 140.0
151.360153 132.0
151.414032 148.0
151.48996 156.0
151.507111 160.0
151.548767 52.0
151.882156 132.0
152.065002 224.0
152.093185 136.0
152.1521 152.0
152.186462 56.0
152.422256 56.0
152.569733 84.0
152.92215 220.0
153.071945 1196.0
153.105194 212.0
153.266251 148.0
153.485611 112.0
153.678009 132.0
153.840881 164.0
154.073029 128.0
154.228699 164.0
154.976059 216.0
155.059784 172.0
155.083084 608.0
155.119797 180.0
155.402512 200.0
155.434769 168.0
155.57872 136.0
156.028381 180.0
156.060699 144.0
156.093018 148.0
156.167633 228.0
156.745193 116.0
157.063599 1124.0
157.104218 180.0
157.186539 100.0
157.273895 136.0
157.323822 208.0
157.353775 84.0
157.418686 176.0
157.646011 80.0
157.931015 240.0
157.981049 148.0
158.043594 144.0
158.071976 1320.0
158.151199 76.0
158.318939 208.0
158.431656 128.0
158.574478 224.0
158.707336 28.0
158.807648 120.0
159.08078 3808.0
159.114746 84.0
159.179077 196.0
159.279526 128.0
159.303741 188.0
159.412689 48.0
159.571045 168.0
159.782303 60.0
159.885468 84.0
159.918518 60.0
160.049164 136.0
160.085159 720.0
160.290894 160.0
160.336258 176.0
160.366928 172.0
160.457245 164.0
160.502625 208.0
160.580795 208.0
160.600983 116.0
160.676651 160.0
160.772171 168.0
160.931564 224.0
161.03244 152.0
161.060822 1900.0
161.090668 440.0
161.313034 204.0
161.416702 172.0
161.570084 108.0
161.626648 88.0
161.657013 48.0
161.892441 200.0
161.993744 108.0
162.050583 188.0
162.108475 196.0
162.145767 40.0
162.381546 36.0
162.680954 168.0
162.76474 132.0
162.797745 208.0
162.833298 96.0
162.9095 168.0
162.947617 220.0
163.060913 756.0
163.077515 712.0
163.162857 92.0
163.364532 76.0
163.387436 104.0
163.425598 180.0
163.445953 148.0
163.578293 216.0
163.832947 144.0
163.983276 104.0
164.016418 176.0
164.063797 132.0
164.216537 164.0
164.613403 152.0
164.782425 140.0
164.850967 40.0
165.010513 200.0
165.070877 1480.0
165.127075 76.0
165.243195 60.0
165.313828 232.0
165.452942 124.0
165.528839 148.0
165.872147 132.0
166.031113 108.0
166.077316 328.0
166.102936 56.0
166.177322 148.0
166.300507 48.0
166.382645 72.0
166.475067 116.0
166.518738 236.0
166.660019 80.0
166.690857 204.0
166.928497 108.0
166.989059 184.0
167.056625 156.0
167.085403 640.0
167.259216 136.0
167.290115 88.0
167.359619 48.0
167.447174 176.0
167.532181 108.0
167.58371 136.0
167.776993 184.0
167.856918 160.0
168.06076 148.0
168.088623 160.0
168.125198 144.0
168.171661 228.0
168.401443 200.0
168.494446 128.0
168.685669 224.0
168.861496 180.0
168.946854 148.0
169.063507 844.0
169.100113 340.0
169.127991 60.0
169.23671 132.0
169.371384 180.0
169.485367 32.0
169.861282 256.0
170.069534 488.0
170.090317 164.0
170.38826 148.0
170.468811 160.0
170.601364 180.0
170.84581 184.0
170.923859 272.0
171.044525 208.0
171.080917 2576.0
171.116745 152.0
171.198944 172.0
171.223221 96.0
171.416 164.0
171.674072 96.0
171.807083 92.0
171.94017 160.0
172.086075 488.0
172.363205 160.0
172.512177 152.0
172.930695 224.0
172.969955 156.0
172.9935 68.0
173.065216 412.0
173.095764 580.0
173.142746 216.0
173.231812 140.0
173.294678 84.0
173.313019 92.0
173.365479 180.0
173.444046 132.0
173.4991 76.0
173.520081 72.0
173.798096 72.0
173.929306 156.0
173.966049 172.0
174.065826 132.0
174.103973 316.0
174.43364 180.0
174.501984 148.0
174.604538 200.0
175.033478 156.0
175.074921 1200.0
175.840149 148.0
175.974762 172.0
176.06546 268.0
176.511139 124.0
176.614273 68.0
176.902695 136.0
177.069473 1496.0
177.251419 192.0
177.360962 56.0
178.078522 824.0
178.106308 168.0
178.265961 132.0
178.366959 124.0
178.510513 76.0
178.563705 196.0
178.590302 212.0
178.856369 164.0
179.005463 124.0
179.052643 748.0
179.081375 908.0
179.12265 64.0
179.202576 108.0
179.415771 164.0
179.965378 132.0
180.009659 144.0
180.061325 124.0
180.09079 524.0
180.20575 160.0
180.285919 192.0
180.419556 56.0
180.475693 248.0
180.673615 76.0
181.067291 884.0
181.098816 580.0
181.163513 168.0
181.544098 152.0
181.597748 224.0
181.756012 80.0
182.071457 916.0
182.103592 132.0
182.247208 184.0
182.422073 184.0
182.732742 160.0
182.777069 180.0
182.806671 200.0
183.011246 108.0
183.078217 1484.0
183.117874 452.0
183.199768 40.0
183.374908 132.0
183.45578 44.0
183.620255 64.0
183.925125 176.0
184.012772 144.0
184.046616 152.0
184.086685 300.0
184.268082 104.0
184.330231 136.0
184.395096 164.0
184.576218 56.0
184.597839 160.0
184.654633 256.0
184.692505 212.0
184.819641 176.0
184.919769 52.0
185.062317 1804.0
185.095917 1476.0
185.122604 52.0
185.130035 156.0
185.173401 68.0
185.25824 44.0
185.393707 88.0
185.450623 32.0
185.605148 40.0
185.697342 48.0
185.786865 76.0
186.06218 340.0
186.100937 740.0
186.392319 28.0
186.628784 84.0
186.718521 204.0
187.031113 180.0
187.074936 1196.0
187.109802 600.0
187.38269 92.0
187.437195 160.0
187.810684 96.0
188.018036 172.0
188.039856 380.0
188.080566 368.0
188.108093 176.0
188.400284 140.0
188.528702 188.0
188.911484 44.0
189.069992 1636.0
189.253586 160.0
189.480911 116.0
189.598724 164.0
190.077255 468.0
190.251526 108.0
190.77623 104.0
191.086929 1356.0
191.499908 132.0
191.618347 116.0
191.885681 92.0
191.962021 240.0
192.053894 200.0
192.090637 560.0
192.208389 68.0
192.282898 144.0
192.31601 84.0
192.713669 116.0
193.066162 340.0
193.101822 1304.0
193.258347 196.0
193.601593 192.0
193.75116 144.0
193.864761 160.0
193.88797 344.0
194.008896 148.0
194.072449 448.0
194.10524 424.0
194.258469 52.0
194.833099 140.0
194.852554 128.0
195.022064 120.0
195.079315 1740.0
195.115402 924.0
195.155487 212.0
195.316788 64.0
195.344604 40.0
195.411377 132.0
195.450317 80.0
195.561646 236.0
195.929199 60.0
195.984924 140.0
196.05899 184.0
196.088043 1652.0
196.125244 280.0
196.238556 112.0
196.528625 60.0
196.760269 60.0
196.958542 84.0
196.990723 100.0
197.060501 136.0
197.09581 1860.0
197.129944 132.0
197.170883 88.0
197.43367 100.0
197.780594 164.0
197.875763 164.0
198.074142 196.0
198.098206 524.0
198.14743 140.0
198.259506 120.0
198.659744 220.0
198.886978 132.0
198.994415 132.0
199.051102 148.0
199.074707 844.0
199.111969 1116.0
199.190994 104.0
199.474808 156.0
200.020508 128.0
200.084122 340.0
200.10939 172.0
200.203506 80.0
200.265472 192.0
200.38942 224.0
201.0905 452.0
201.133911 148.0
201.193192 60.0
201.404968 160.0
201.571655 92.0
201.597092 80.0
201.650772 144.0
201.891083 136.0
202.07753 216.0
202.094009 124.0
202.101776 116.0
202.205109 200.0
202.544861 268.0
202.593018 108.0
203.084457 708.0
203.128784 72.0
203.494873 40.0
203.687988 196.0
203.73912 152.0
203.997711 172.0
204.089798 708.0
204.119965 220.0
204.341827 140.0
204.381653 68.0
204.589417 196.0
204.694763 200.0
204.751709 76.0
204.837158 80.0
204.905533 148.0
204.936874 152.0
205.013809 96.0
205.066635 1724.0
205.105194 1492.0
205.147766 132.0
205.264297 140.0
205.347366 152.0
205.390137 88.0
205.430084 44.0
205.475723 248.0
205.507111 88.0
205.746841 100.0
205.869614 96.0
206.070541 588.0
206.107544 448.0
206.235306 68.0
206.263885 116.0
206.34108 120.0
206.361084 84.0
206.475464 156.0
206.647095 240.0
206.667114 88.0
206.690018 88.0
206.895508 240.0
207.084076 488.0
207.115067 836.0
207.526367 56.0
207.815842 112.0
207.873444 52.0
207.910751 72.0
208.038361 164.0
208.090027 2000.0
208.128906 300.0
208.654694 148.0
208.847351 56.0
208.924927 132.0
208.959534 128.0
209.094711 2156.0
209.125 196.0
209.158096 204.0
209.181137 148.0
209.224304 60.0
209.3078 116.0
209.362518 200.0
209.549744 124.0
209.624664 84.0
209.693832 216.0
209.786057 148.0
210.102066 1236.0
210.151398 128.0
210.233124 176.0
210.351456 124.0
210.49292 148.0
210.580353 72.0
210.787552 76.0
210.946518 104.0
210.978302 104.0
211.078278 552.0
211.112534 3728.0
211.164673 80.0
211.254929 104.0
211.275314 228.0
211.313782 120.0
211.342712 88.0
211.36586 144.0
211.409271 104.0
211.432419 168.0
211.458939 216.0
211.481628 48.0
212.011612 160.0
212.092743 540.0
212.119415 1268.0
212.54808 192.0
212.574188 92.0
212.643845 108.0
213.009308 180.0
213.082199 840.0
213.126541 684.0
213.193741 80.0
213.343872 80.0
213.393295 168.0
213.605576 52.0
213.643402 44.0
213.751053 84.0
213.951874 140.0
214.075317 532.0
214.100372 304.0
214.130692 272.0
214.251831 96.0
214.298447 44.0
214.592819 212.0
214.659882 152.0
214.840714 180.0
215.086136 864.0
215.113968 160.0
215.252228 68.0
215.494659 128.0
215.611542 76.0
215.816162 156.0
216.009186 136.0
216.094147 248.0
216.664917 168.0
216.755737 72.0
216.77919 208.0
217.060593 152.0
217.105637 356.0
217.339249 152.0
217.658905 124.0
217.967606 144.0
218.066223 136.0
218.110977 812.0
219.080887 984.0
219.11795 716.0
219.253571 80.0
219.512985 104.0
219.577866 156.0
219.598511 56.0
219.790253 48.0
220.088516 380.0
220.126389 256.0
220.386688 68.0
220.504898 164.0
220.652802 268.0
220.705902 56.0
220.830505 152.0
221.02832 184.0
221.096649 2092.0
221.130035 352.0
221.16629 60.0
221.251892 140.0
221.558289 148.0
221.579605 180.0
221.656052 32.0
221.727173 64.0
221.851669 124.0
221.961365 128.0
222.029572 48.0
222.102234 2092.0
222.154144 148.0
222.201614 192.0
222.542923 108.0
222.640915 144.0
222.667633 76.0
222.756744 40.0
222.789413 144.0
222.851807 180.0
223.003433 160.0
223.027145 116.0
223.074966 1792.0
223.110886 4532.0
223.153946 140.0
223.181717 56.0
223.205505 28.0
223.348267 136.0
223.4375 96.0
223.613068 40.0
223.744034 40.0
223.90184 116.0
223.925674 40.0
224.030884 148.0
224.087296 728.0
224.114517 860.0
224.255112 84.0
224.348785 100.0
224.474014 76.0
224.649979 116.0
224.99913 92.0
225.091522 768.0
225.123245 1656.0
225.187256 36.0
225.238022 84.0
225.294785 228.0
225.503952 168.0
225.617538 96.0
225.683304 224.0
225.81189 180.0
225.880692 156.0
225.904617 100.0
226.077026 328.0
226.100632 248.0
226.130493 412.0
226.182907 48.0
226.209839 92.0
226.278702 204.0
226.581177 84.0
226.62912 40.0
226.704025 196.0
227.096893 632.0
227.137894 256.0
227.168747 168.0
227.201752 176.0
227.38295 176.0
227.754089 40.0
227.814163 76.0
228.027496 28.0
228.093964 432.0
228.322128 172.0
228.349182 72.0
228.376251 64.0
228.437927 128.0
228.798004 204.0
228.890869 176.0
228.936035 176.0
229.099304 1248.0
229.466354 140.0
229.592987 80.0
229.816208 56.0
229.939926 48.0
230.027466 84.0
230.10849 1224.0
230.196533 296.0
230.752487 204.0
230.949051 132.0
231.081604 952.0
231.118637 1016.0
231.172928 44.0
231.239502 112.0
231.31517 64.0
231.687637 144.0
231.720963 52.0
231.808838 144.0
231.875504 132.0
232.011902 144.0
232.085526 748.0
232.205963 52.0
232.421356 176.0
232.579163 232.0
232.897964 104.0
233.095627 1652.0
233.128326 632.0
233.250443 40.0
233.290451 148.0
233.533203 56.0
233.886154 156.0
233.916595 84.0
234.009521 76.0
234.072159 416.0
234.103348 2180.0
234.191681 160.0
234.501144 140.0
234.660431 164.0
234.708694 68.0
234.845932 52.0
234.931335 108.0
235.004562 124.0
235.111359 4532.0
235.148407 276.0
235.260925 116.0
235.288391 52.0
235.321976 52.0
235.392197 72.0
235.477707 112.0
235.694611 232.0
236.055298 260.0
236.08197 332.0
236.117218 1128.0
236.160461 216.0
236.189865 164.0
236.413208 192.0
236.471344 72.0
236.492767 68.0
236.523376 148.0
236.725449 84.0
237.092102 764.0
237.128006 1512.0
237.191132 40.0
237.230972 60.0
237.304077 52.0
237.347473 80.0
237.390411 132.0
237.488541 108.0
237.598984 144.0
237.666763 84.0
238.0961 960.0
238.131302 448.0
238.219086 208.0
238.314331 104.0
238.351196 192.0
238.538666 88.0
238.56633 48.0
238.606293 36.0
238.633972 32.0
238.790787 96.0
239.106384 2772.0
239.136124 492.0
239.295441 52.0
239.393982 36.0
239.880768 148.0
239.970169 128.0
240.097504 496.0
240.147156 112.0
240.300186 68.0
240.386581 196.0
240.639679 164.0
241.093353 1564.0
241.122269 1176.0
241.20192 120.0
241.517303 100.0
241.594635 84.0
241.641037 152.0
241.854568 148.0
241.962906 64.0
242.065079 152.0
242.110153 164.0
242.143219 192.0
242.371735 212.0
242.669296 48.0
242.749908 124.0
242.929794 36.0
243.09021 328.0
243.117645 1056.0
243.233887 48.0
243.370483 96.0
243.584778 36.0
243.991867 104.0
244.089554 540.0
244.125641 360.0
244.374405 104.0
244.529984 208.0
244.792343 96.0
244.833557 96.0
245.097412 1600.0
245.132935 1068.0
245.168427 132.0
245.302444 152.0
245.333618 76.0
245.485428 232.0
245.916916 80.0
246.013672 172.0
246.104309 1596.0
246.202164 136.0
246.279099 140.0
246.510269 116.0
246.608688 180.0
247.111313 1572.0
247.144211 364.0
247.276459 48.0
247.536301 148.0
247.724213 52.0
248.080719 408.0
248.120377 2140.0
248.157928 188.0
248.184906 32.0
248.376205 76.0
248.790421 164.0
248.900299 68.0
248.931702 144.0
248.966949 180.0
248.994507 156.0
249.035339 124.0
249.090042 848.0
249.127853 3684.0
249.863129 188.0
250.097031 404.0
250.131332 1048.0
250.775238 36.0
250.833984 132.0
250.860352 40.0
251.107574 1760.0
251.140945 2192.0
251.653961 100.0
251.847992 48.0
252.108521 772.0
252.137009 320.0
252.223129 220.0
252.356766 132.0
252.527527 48.0
252.72049 72.0
252.774277 52.0
252.80275 184.0
252.831238 120.0
253.002151 152.0
253.122314 1800.0
253.331497 72.0
253.360016 44.0
253.730804 96.0
253.845612 152.0
253.898849 156.0
253.987656 84.0
254.121765 928.0
254.997314 52.0
255.111832 904.0
255.20076 132.0
255.277084 100.0
255.448822 32.0
255.662689 164.0
255.843414 144.0
255.961227 64.0
255.999435 72.0
256.024902 232.0
256.085419 140.0
256.119324 284.0
256.174622 128.0
256.630341 44.0
256.818481 140.0
257.051361 240.0
257.098938 364.0
257.124725 348.0
257.948425 160.0
258.104919 3012.0
258.390137 80.0
258.423157 108.0
258.540527 68.0
258.646118 48.0
258.826233 184.0
258.902252 188.0
259.109924 3820.0
259.421326 68.0
259.591248 128.0
259.636139 96.0
259.822174 56.0
260.049988 228.0
260.114502 1004.0
260.191223 204.0
260.486664 52.0
260.586273 60.0
260.724426 100.0
260.856201 128.0
261.04834 148.0
261.093567 948.0
261.126617 2984.0
261.21637 68.0
261.25174 64.0
261.341827 52.0
261.724854 56.0
261.853668 48.0
261.940613 56.0
262.05661 132.0
262.100555 1424.0
262.131866 660.0
262.182251 80.0
262.301514 100.0
262.404663 84.0
262.517517 32.0
262.636871 28.0
262.665894 112.0
262.75943 84.0
262.907867 40.0
263.046661 192.0
263.105133 928.0
263.142487 2428.0
263.516846 80.0
263.573059 48.0
263.6474 64.0
263.783142 156.0
264.10556 828.0
264.146515 808.0
264.184875 200.0
264.219696 96.0
264.271454 68.0
264.313538 52.0
264.570374 112.0
264.805603 144.0
264.837982 132.0
264.863892 52.0
265.121552 1164.0
265.216614 56.0
265.246246 136.0
265.774841 36.0
266.100067 520.0
266.128021 660.0
266.336487 52.0
266.44693 68.0
266.814148 152.0
266.970245 52.0
267.106415 732.0
267.137268 1196.0
267.184906 60.0
267.365051 164.0
268.098145 208.0
268.133087 120.0
268.308441 128.0
268.464966 124.0
269.114624 536.0
269.128937 124.0
269.135559 420.0
269.166534 228.0
269.470306 120.0
269.522583 140.0
269.699036 152.0
269.793854 160.0
270.086426 176.0
270.111206 160.0
270.147034 180.0
270.601898 168.0
270.966827 76.0
270.991669 92.0
271.078796 208.0
271.107819 508.0
271.145386 308.0
271.539093 72.0
271.65387 204.0
271.72934 108.0
272.099701 280.0
272.122467 364.0
272.293915 104.0
272.441742 132.0
272.638885 80.0
273.076141 196.0
273.126556 3504.0
273.309692 152.0
273.343872 188.0
273.428162 156.0
273.474243 72.0
273.526886 68.0
273.800171 60.0
274.099274 684.0
274.130951 1272.0
274.363617 228.0
274.508698 116.0
274.719757 40.0
275.108582 1368.0
275.198303 192.0
275.234619 48.0
275.330383 192.0
275.710297 80.0
275.877899 192.0
275.974731 144.0
276.024353 60.0
276.111969 2644.0
276.262482 80.0
276.28894 72.0
276.480835 180.0
276.81189 80.0
276.835052 32.0
276.861542 152.0
276.931091 120.0
277.084564 272.0
277.122803 3636.0
277.231354 120.0
277.308807 160.0
277.388367 100.0
277.471222 156.0
277.912323 188.0
277.9422 40.0
278.048401 92.0
278.088043 520.0
278.125916 1208.0
278.403595 196.0
278.509888 64.0
278.659363 56.0
279.074829 28.0
279.136383 2792.0
279.197845 88.0
279.247742 120.0
279.434021 140.0
279.507233 104.0
279.75351 56.0
279.989899 76.0
280.09967 92.0
280.136932 272.0
280.224731 104.0
280.626343 100.0
281.069946 188.0
281.131683 1220.0
281.320282 164.0
281.45047 104.0
281.994995 52.0
282.138184 152.0
282.167236 172.0
282.45639 40.0
282.519958 112.0
282.653778 40.0
282.767578 80.0
283.1138 796.0
283.728912 140.0
283.75238 168.0
284.086395 100.0
284.120697 280.0
284.856445 112.0
284.956116 60.0
285.094269 92.0
285.123993 216.0
285.155487 204.0
285.725891 192.0
285.750671 72.0
285.929016 136.0
286.009796 60.0
286.09845 1096.0
286.153168 172.0
286.383545 56.0
287.095856 396.0
287.122253 164.0
287.132446 168.0
287.152924 172.0
287.276764 160.0
287.526459 92.0
287.597321 76.0
288.076813 72.0
288.113556 360.0
288.148773 160.0
288.357269 184.0
288.58374 60.0
289.026825 124.0
289.118805 900.0
289.487183 92.0
289.646362 124.0
290.052979 92.0
290.124023 380.0
290.269958 220.0
290.402222 44.0
290.772003 72.0
291.059875 236.0
291.13916 4676.0
291.437592 40.0
291.614288 40.0
292.141754 852.0
292.301239 184.0
292.342072 44.0
292.420349 40.0
292.546295 84.0
292.638214 36.0
292.822083 104.0
292.931091 100.0
293.127319 820.0
293.251373 36.0
293.282043 88.0
294.126373 752.0
294.180664 116.0
294.575256 48.0
294.862274 40.0
295.132812 1144.0
295.316986 68.0
295.488037 76.0
295.963776 48.0
296.141052 224.0
296.217194 116.0
296.714081 56.0
296.762085 64.0
297.082367 140.0
297.130554 488.0
298.128143 428.0
299.143463 420.0
299.797241 112.0
300.149323 488.0
300.383362 68.0
300.428223 52.0
300.828522 184.0
301.120544 1360.0
302.122498 360.0
302.193604 132.0
302.377014 56.0
302.757812 44.0
303.034943 56.0
303.129425 324.0
303.242828 164.0
303.329498 56.0
303.572174 96.0
303.631134 80.0
303.797638 84.0
304.040497 64.0
304.111237 1100.0
304.523071 80.0
305.085999 104.0
305.129761 168.0
305.186798 36.0
305.517212 96.0
305.767731 192.0
305.94873 36.0
306.087585 156.0
306.131073 172.0
307.130188 1072.0
307.241638 72.0
307.266052 140.0
308.138855 120.0
308.16333 64.0
308.561737 172.0
309.147858 1004.0
309.186371 196.0
309.236847 136.0
309.310364 68.0
309.429382 72.0
310.094482 124.0
310.153503 396.0
311.145599 1292.0
311.463287 60.0
311.653015 84.0
312.050171 100.0
312.156891 248.0
312.426453 192.0
312.630524 156.0
312.996613 124.0
313.143707 288.0
313.517975 92.0
313.722412 40.0
314.046814 76.0
314.148712 184.0
314.279633 48.0
314.32196 68.0
315.113434 128.0
315.139374 344.0
315.681946 28.0
317.135925 228.0
318.131073 264.0
318.236694 72.0
318.751709 68.0
318.982727 60.0
319.075134 180.0
319.135681 3032.0
319.676239 64.0
319.939636 160.0
320.135559 1020.0
320.189331 156.0
320.513031 100.0
320.815979 68.0
320.955017 112.0
321.124664 716.0
321.183258 132.0
321.979187 124.0
322.029175 104.0
322.082764 136.0
322.132324 428.0
322.847595 84.0
323.135254 292.0
323.141846 288.0
323.663452 124.0
324.107056 208.0
324.161346 200.0
325.154694 140.0
325.312622 80.0
326.118103 100.0
326.811279 84.0
327.155609 360.0
327.82309 120.0
328.100616 124.0
329.152344 344.0
330.100891 160.0
330.143311 180.0
331.113861 152.0
331.149292 228.0
332.144714 408.0
333.124359 144.0
334.156006 168.0
334.352509 144.0
335.126617 272.0
335.173065 140.0
336.139954 324.0
337.142029 2352.0
338.145905 312.0
338.744873 36.0
339.059967 80.0
339.137695 952.0
339.400879 196.0
339.866699 88.0
340.139252 468.0
340.310822 184.0
340.347534 44.0
341.140076 128.0
341.181335 152.0
341.365356 44.0
341.652252 48.0
342.136383 144.0
342.462067 168.0
343.143768 140.0
343.988556 56.0
344.26178 56.0
346.136566 112.0
347.003601 48.0
347.153412 168.0
349.144135 204.0
349.174255 128.0
349.46228 168.0
349.73764 36.0
350.169556 36.0
351.159424 296.0
353.152985 188.0
354.180908 88.0
355.001678 176.0
355.157562 936.0
355.50061 48.0
356.151703 600.0
356.852814 28.0
357.14505 732.0
357.477203 96.0
357.593872 104.0
357.665375 64.0
358.144531 324.0
358.17749 116.0
359.145538 700.0
359.504578 116.0
360.142853 308.0
360.279449 72.0
360.50531 112.0
361.136017 312.0
361.950287 52.0
363.12381 180.0
365.522125 64.0
367.183044 96.0
367.862213 72.0
369.16507 100.0
369.195648 148.0
371.16391 140.0
371.386322 88.0
371.862091 88.0
372.030975 48.0
372.17688 272.0
373.145081 152.0
375.096832 124.0
375.166962 148.0
376.168213 168.0
376.412415 120.0
377.151123 252.0
377.846344 52.0
378.163818 192.0
379.155121 168.0
380.158081 272.0
381.138062 48.0
381.165253 124.0
381.989471 60.0
383.25473 192.0
384.131897 120.0
389.533844 112.0
390.331635 124.0
391.1539 72.0
395.175232 124.0
395.638275 96.0
396.878357 104.0
397.161743 192.0
397.195618 152.0
399.167755 180.0
400.151917 160.0
400.534515 68.0
401.151428 112.0
401.188019 180.0
402.161285 192.0
403.115784 132.0
403.55545 88.0
406.110321 104.0
406.575714 48.0
410.13913 88.0
410.393097 40.0
411.542999 76.0
413.192047 168.0
414.191833 132.0
417.173767 144.0
418.183075 108.0
419.16861 120.0
423.429382 80.0
428.275818 68.0
430.63916 104.0
432.028015 84.0
432.234894 100.0
434.227448 160.0
437.19046 200.0
439.231049 92.0
440.161713 48.0
446.010132 84.0
447.17099 92.0
456.205963 116.0
457.192352 336.0
458.287079 72.0
459.19931 128.0
460.052704 36.0
461.804596 112.0
463.242798 44.0
464.215698 60.0
464.357208 36.0
465.442932 88.0
465.958313 124.0
468.406067 104.0
475.796478 48.0
476.213318 136.0
477.217133 156.0
479.519897 72.0
480.269806 96.0
480.946106 36.0
492.255432 64.0
493.214142 144.0
493.258331 160.0
494.319763 132.0
495.240601 100.0
497.11145 48.0
499.434998 88.0
500.324951 112.0
505.582947 88.0
508.006897 80.0
513.453796 116.0
520.281738 52.0
531.408447 72.0
538.710022 92.0
546.005493 104.0
549.261169 68.0
552.133545 68.0
558.03241 84.0
570.794067 56.0
574.456482 96.0
574.647339 80.0
579.667847 60.0
588.276917 76.0
594.889465 52.0
597.401855 52.0
626.537231 48.0
630.454041 100.0
632.109253 52.0
634.533447 56.0
641.879272 68.0
648.734985 92.0
651.338135 104.0
676.843079 48.0
679.709534 48.0
680.467285 140.0
684.569763 88.0
710.069214 76.0
711.358521 104.0
716.069458 100.0
723.298889 64.0
728.645325 56.0
737.142273 216.0
748.424744 116.0
750.664246 192.0
754.87439 64.0
763.022095 192.0
770.020142 112.0
784.374023 76.0
788.962646 124.0
793.687988 160.0
802.21106 156.0
804.083679 148.0
813.666809 132.0
818.573669 48.0
821.320618 104.0
835.153198 36.0
852.526428 164.0
854.40448 92.0
854.951477 240.0
876.065247 48.0
879.874878 176.0
892.441162 192.0
895.553467 180.0
896.232605 216.0
896.834473 116.0
907.948914 72.0
908.446716 116.0
909.754944 132.0
920.073364 124.0
921.438232 136.0
922.108948 112.0
938.468689 128.0
946.240234 100.0
950.180969 156.0
981.521362 112.0
984.629028 116.0
988.42981 172.0
993.115784 168.0
994.728394 184.0
997.479675 132.0
1010.540222 120.0
1012.65448 188.0
1022.934387 124.0
1023.762085 180.0
1036.089478 76.0
1036.140747 72.0
1044.936279 72.0
1046.558105 140.0
1057.189453 60.0
1077.012451 152.0
1082.087036 156.0
1083.436157 232.0
1085.185913 176.0
1089.708008 148.0
1095.97168 248.0
1099.209229 220.0
1099.387451 220.0
1100.687866 100.0
1102.405273 72.0
1102.980225 100.0
1111.331177 216.0
1113.760864 76.0
1125.862305 88.0
1142.323608 92.0
1143.837646 172.0
1143.911743 44.0
1150.437012 76.0
1154.065063 48.0
1154.734497 196.0
1156.669556 68.0
1160.070068 64.0
1161.616089 152.0
1164.942383 204.0
1172.549438 192.0
1173.762817 208.0
1174.867676 140.0
1178.896118 132.0
1180.133301 164.0
1195.746094 68.0
1196.916382 128.0
1198.245728 260.0
1200.692749 180.0
1201.879272 212.0
1211.683228 184.0
1213.048462 172.0
1214.317261 108.0
1222.201904 116.0
1223.579956 92.0
1227.202881 56.0
1246.809814 188.0
1248.48291 128.0
1251.339722 88.0
1253.650024 164.0
1256.230591 152.0
1261.19458 180.0
1261.94397 156.0
1263.655518 148.0
1267.641846 228.0
1268.697998 160.0
1271.336426 36.0
1273.359741 124.0
1275.58374 44.0
1275.882324 124.0
1276.771118 180.0
1282.174561 160.0
1284.477539 140.0
1287.875122 132.0
1289.025269 136.0
1289.325439 168.0
1289.961548 184.0
1290.504883 132.0
1293.037109 84.0
1293.223267 172.0
1295.177979 220.0
1299.723022 140.0
1302.013062 164.0
1302.063232 80.0
1306.24646 136.0
1309.687012 260.0
1310.601929 204.0
1312.504883 164.0
1312.894287 156.0
1315.008057 108.0
1320.426636 224.0
1321.744873 220.0
1323.422485 108.0
1333.77478 76.0
1337.01123 148.0
1340.878418 132.0
1353.765259 120.0
1357.319214 204.0
1359.505249 136.0
1363.125488 168.0
1364.977905 40.0
1365.169067 192.0
1365.5 144.0
1366.838867 180.0
1370.409912 140.0
1372.798096 128.0
1374.900635 184.0
1376.384399 104.0
1379.428223 156.0
1380.100952 164.0
1383.54126 180.0
1384.274292 44.0
1384.585327 144.0
1385.755615 140.0
1386.044556 120.0
1387.623291 116.0
1388.713379 100.0
1389.195557 88.0
1395.38916 120.0
1397.144287 100.0
1398.602783 160.0
1400.181152 140.0
1402.46106 56.0
1402.707031 172.0
1404.190796 144.0
1407.227905 148.0
1409.117432 240.0
1409.924438 180.0
1413.693481 200.0
1414.688965 132.0
1415.797119 208.0
1418.824219 172.0
1423.310913 212.0
1423.65625 192.0
1424.865601 208.0
1425.789795 132.0
1428.451416 28.0
1429.805786 196.0
1430.144409 100.0
1430.904785 212.0
1432.757446 172.0
1433.382812 280.0
1434.083618 120.0
1434.332397 84.0
1434.573608 192.0
1434.88269 116.0
1435.048462 184.0
1436.164551 136.0
1436.700195 108.0
1436.918945 128.0
1437.454712 176.0
1438.216919 240.0
1438.345215 128.0
1438.443359 148.0
1439.273804 196.0
1444.586792 244.0
1447.591553 212.0
1449.28064 116.0
1450.758545 204.0
1451.888306 136.0
1452.388916 148.0
1455.637085 212.0
1462.897949 132.0
1465.182495 208.0
1466.142578 104.0
1470.489624 236.0
1471.214844 180.0
1472.573975 208.0
1474.399902 104.0
1476.517578 212.0
1478.552612 140.0
1479.157227 60.0
1480.611938 148.0
1481.891235 188.0
1482.77478 144.0
1483.11731 204.0
1484.336304 88.0
1487.489502 164.0
1491.62207 176.0
1492.290894 252.0
1496.337769 216.0
1499.434326 152.0
1503.097412 148.0
