>compound Cinepazide maleate
>formula C22H31N3O5
>ionization [M+H]+
>parentmass 418.23364754409056
#inchi InChI=1S/C22H31N3O5/c1-28-18-14-17(15-19(29-2)22(18)30-3)6-7-20(26)25-12-10-23(11-13-25)16-21(27)24-8-4-5-9-24/h6-7,14-15H,4-5,8-13,16H2,1-3H3/b7-6+
#inchikey RCUDFXMNPQNBDU
#origInchi InChI=1S/C22H31N3O5.C4H4O4/c1-28-18-14-17(15-19(29-2)22(18)30-3)6-7-20(26)25-12-10-23(11-13-25)16-21(27)24-8-4-5-9-24;5-3(6)1-2-4(7)8/h6-7,14-15H,4-5,8-13,16H2,1-3H3;1-2H,(H,5,6)(H,7,8)/b7-6+;2-1-
#Ion_Source LC-ESI
#Instrument qTof
#Compound_Source Commercial
#PI Dorrestein
#Data_Collector Garg_Neha
#Scan -1
#Precursor_MZ 418.234
#ExactMass 417.226
#Charge 1
#CAS_Number 26328-04-1, 23887-46-9 (free base)
#Pubmed_ID N/A
#Smiles N1(CCN(CC1)C(/C=C/C2C=C(C(=C(C=2)OC)OC)OC)=O)CC(=O)N3(CCCC3).C(/C=C\C(O)=O)(O)=O
#INCHI_AUX N/A
#Library_Class 1
#SpectrumID CCMSLIB00000078556
#IonMode Positive
#UpdateWorkflowName UPDATE-SINGLE-ANNOTATED-GOLD
#LibraryQualityString Gold
#TaskID 77f51c88eb8b467eb4a01dd2d0cb90d2
##Scan# 1051
#SpectrumFile Plate9_1_20_GC4_01_15750.mzXML
#LibraryName FDALibrary_2_04302014.mgf
#MQScore -1
#Organism FDALibrary_2_04302014
#TIC_Query 0
#RT_Query -1
#MZErrorPPM -1
#SharedPeaks 0
#MassDiff 0
#LibMZ -1
#SpecMZ 418.234
#SpecCharge 0
#internalFilename spec-00000.mgf

>collision 10
44.933674 148.0
45.210274 144.0
45.291946 152.0
45.37867 196.0
45.439407 196.0
45.525314 168.0
45.696026 156.0
45.73909 156.0
45.786217 208.0
45.838753 152.0
45.995201 168.0
46.068123 168.0
46.364445 176.0
46.414604 196.0
46.478355 152.0
46.74197 200.0
46.981731 140.0
47.430305 184.0
47.798374 164.0
48.437607 148.0
48.574841 164.0
48.697437 160.0
48.783138 156.0
48.866581 172.0
48.89069 136.0
48.937565 152.0
48.993275 188.0
49.071247 148.0
49.416306 160.0
49.441494 184.0
49.556145 192.0
49.589882 244.0
49.716175 172.0
49.734421 184.0
49.897373 160.0
49.932529 152.0
49.943783 164.0
49.998653 168.0
50.118664 236.0
50.358173 168.0
50.444366 204.0
50.536293 164.0
50.571674 332.0
50.663715 180.0
50.758678 192.0
50.779949 216.0
50.792717 172.0
51.004292 140.0
51.328896 152.0
51.447315 228.0
51.467304 168.0
51.597324 188.0
51.614483 220.0
51.716057 224.0
51.856419 176.0
51.96397 176.0
52.017071 156.0
52.189472 176.0
52.559654 156.0
52.569756 152.0
52.589962 152.0
52.685265 144.0
52.719944 144.0
52.792225 148.0
52.834579 128.0
52.860741 144.0
52.900742 172.0
52.922459 144.0
53.170341 152.0
53.27634 160.0
53.315575 176.0
53.369358 176.0
53.437286 188.0
53.548351 184.0
53.884335 124.0
54.01836 196.0
54.067299 188.0
54.23682 148.0
54.284924 144.0
54.309856 236.0
54.371479 296.0
54.430199 196.0
54.481606 192.0
54.887829 164.0
54.955677 176.0
55.019142 144.0
55.110714 140.0
55.158005 200.0
55.180752 176.0
55.358994 184.0
55.412544 236.0
55.563488 148.0
55.985916 164.0
56.222954 184.0
56.491905 148.0
56.569721 148.0
56.682049 148.0
56.88002 156.0
56.896534 180.0
56.913048 176.0
57.209232 172.0
57.296581 156.0
57.358364 140.0
57.417496 184.0
57.433758 232.0
57.459404 160.0
57.658726 164.0
57.954662 164.0
57.991695 228.0
58.176758 184.0
58.202568 196.0
58.249649 152.0
58.349949 180.0
58.526443 160.0
58.663563 164.0
58.767269 144.0
58.793518 284.0
59.089649 184.0
59.10648 156.0
59.216705 148.0
59.304039 156.0
59.3853 204.0
59.461018 148.0
59.677074 140.0
59.835548 160.0
59.954155 148.0
59.968025 252.0
59.997314 160.0
60.49321 232.0
60.687359 176.0
60.750454 204.0
61.072739 212.0
61.090664 200.0
61.330471 204.0
61.369442 180.0
61.434948 180.0
61.803665 144.0
61.817749 156.0
61.878792 212.0
62.004108 380.0
62.077789 220.0
62.152401 220.0
62.404396 140.0
62.483036 240.0
62.619987 168.0
62.731861 168.0
62.95433 228.0
63.058601 196.0
63.403622 188.0
63.432152 264.0
63.468616 208.0
63.489231 212.0
63.546337 176.0
63.682858 156.0
63.778191 164.0
64.006935 164.0
64.17778 176.0
64.444328 180.0
64.49707 172.0
64.941811 216.0
65.281067 184.0
65.310471 172.0
65.437149 240.0
65.49173 148.0
65.588577 148.0
65.861015 148.0
65.900047 164.0
65.929993 140.0
66.128059 148.0
66.345116 160.0
66.406738 164.0
66.630753 160.0
66.716888 140.0
67.084801 144.0
67.447189 160.0
67.594376 180.0
67.71389 148.0
68.104248 164.0
68.364014 152.0
68.423264 152.0
68.43644 152.0
68.681992 180.0
69.080086 208.0
69.341705 152.0
69.383148 196.0
69.396408 148.0
69.531693 144.0
69.715118 156.0
69.740044 144.0
69.932983 156.0
69.964935 248.0
69.99292 204.0
70.057869 160.0
70.381432 160.0
70.565224 192.0
70.688744 184.0
70.774368 152.0
71.041336 152.0
71.233795 192.0
71.735374 180.0
71.909103 212.0
71.954681 192.0
71.966499 140.0
72.677399 164.0
72.731705 164.0
72.845474 196.0
73.197693 132.0
73.506073 160.0
73.53167 188.0
73.680229 180.0
74.070267 160.0
74.166222 156.0
74.233086 180.0
74.296547 156.0
74.394371 148.0
74.466492 164.0
74.834496 140.0
75.234474 140.0
75.308723 172.0
75.787926 152.0
76.446487 216.0
76.599251 140.0
76.806686 176.0
76.947647 160.0
77.252129 164.0
77.353622 144.0
77.406143 152.0
77.487938 172.0
77.649742 228.0
77.677803 140.0
77.788353 168.0
77.867371 164.0
77.937637 144.0
78.116966 144.0
78.273605 172.0
78.486816 252.0
78.580299 152.0
78.647354 140.0
79.087479 188.0
79.367386 160.0
79.647789 152.0
79.853966 192.0
79.928688 204.0
80.228615 176.0
80.286743 196.0
80.375305 192.0
80.433815 160.0
80.743942 204.0
80.865601 144.0
81.078728 152.0
81.311874 144.0
81.336853 144.0
81.478874 216.0
81.64064 148.0
81.696404 192.0
81.719788 188.0
81.761177 140.0
81.840385 164.0
81.932846 188.0
81.964668 184.0
82.161194 164.0
82.359764 216.0
82.424805 200.0
82.743134 216.0
82.788406 144.0
82.852142 148.0
82.993164 140.0
83.356201 144.0
83.374374 140.0
83.590782 176.0
83.625359 176.0
83.994423 160.0
84.095596 156.0
84.13028 168.0
84.185059 164.0
84.391541 144.0
84.499695 148.0
84.528725 172.0
84.673058 380.0
84.730133 168.0
84.764946 176.0
84.829094 144.0
84.948288 148.0
85.185707 216.0
85.425903 144.0
85.543678 212.0
85.580498 152.0
85.604439 152.0
85.914085 140.0
86.006355 196.0
86.181793 140.0
86.444366 172.0
87.089279 140.0
87.126694 172.0
87.182442 180.0
87.336754 248.0
87.41861 148.0
87.440056 100.0
87.459557 140.0
87.491203 152.0
87.588036 208.0
87.740845 204.0
87.899384 180.0
87.974045 152.0
88.018852 200.0
88.218765 140.0
88.271118 156.0
88.458206 140.0
88.495651 152.0
88.769226 188.0
88.793602 176.0
89.026314 176.0
89.107086 140.0
89.140907 236.0
89.424881 184.0
89.456879 196.0
89.626091 192.0
89.89415 160.0
89.996078 200.0
90.026291 140.0
90.128296 160.0
90.196335 160.0
90.232254 204.0
90.524681 124.0
90.599098 148.0
90.696045 164.0
90.845848 160.0
90.910049 196.0
91.054596 296.0
91.121124 144.0
91.377792 160.0
91.770149 224.0
91.892212 192.0
91.907478 152.0
92.081192 212.0
92.228714 172.0
93.065491 272.0
93.249908 172.0
93.280663 224.0
93.32296 180.0
93.399879 144.0
93.505707 176.0
93.666702 204.0
93.775345 180.0
93.908379 192.0
94.03186 152.0
94.182457 144.0
94.219162 260.0
94.458878 176.0
94.547874 168.0
94.884918 140.0
95.057297 156.0
95.236153 148.0
95.414932 204.0
95.745728 160.0
96.01252 156.0
96.098549 156.0
96.282043 160.0
96.389488 144.0
96.622528 168.0
96.716469 144.0
96.896248 168.0
97.009918 156.0
97.074989 708.0
97.129532 184.0
97.510445 140.0
97.762177 152.0
97.94706 168.0
98.033936 208.0
98.108833 148.0
98.40477 212.0
98.464012 180.0
98.505486 148.0
98.813889 144.0
99.007874 140.0
99.065315 188.0
99.091736 3136.0
99.150513 160.0
99.199211 204.0
99.412292 188.0
99.511536 144.0
99.690308 180.0
99.934891 176.0
100.094719 368.0
100.391037 212.0
100.636475 160.0
100.788277 188.0
100.868217 168.0
100.976189 156.0
101.046204 156.0
101.284622 164.0
101.474808 180.0
101.625549 152.0
101.827736 164.0
101.902306 172.0
101.998772 180.0
102.028923 156.0
102.044731 772.0
102.299484 128.0
102.443153 120.0
102.516022 152.0
102.806412 148.0
103.054787 504.0
103.167961 228.0
103.325706 232.0
103.576729 176.0
103.712486 220.0
103.750999 248.0
103.836166 168.0
103.913246 156.0
104.064949 124.0
104.27877 280.0
104.427193 164.0
104.459732 156.0
104.798645 212.0
104.824173 208.0
104.977066 140.0
105.018364 144.0
105.04641 184.0
105.068596 396.0
105.254585 140.0
105.377594 124.0
105.626541 156.0
105.839386 188.0
106.066795 152.0
106.126244 144.0
106.292389 188.0
106.319923 196.0
106.478172 152.0
106.813805 192.0
106.947975 144.0
107.048546 240.0
107.178635 140.0
107.312019 140.0
107.401283 160.0
107.615906 368.0
107.725365 172.0
107.839012 164.0
107.94651 156.0
107.963058 152.0
108.010628 244.0
108.031311 164.0
108.053696 356.0
108.097519 156.0
108.147186 160.0
108.174095 172.0
108.397781 216.0
108.472389 172.0
108.530441 164.0
108.578629 168.0
108.779404 176.0
108.854141 164.0
108.912292 208.0
109.082687 148.0
109.174171 148.0
109.199127 180.0
109.214821 192.0
109.248779 156.0
109.44677 140.0
109.478004 148.0
109.653 168.0
109.750977 188.0
110.036255 176.0
110.063965 176.0
110.126183 176.0
110.141731 204.0
110.43177 184.0
110.467331 172.0
110.522865 176.0
110.548927 180.0
110.743629 184.0
110.785522 152.0
110.856766 144.0
111.374977 176.0
111.393883 164.0
111.452705 188.0
111.736549 168.0
111.963745 252.0
112.187225 196.0
112.252586 168.0
112.342476 188.0
112.415016 164.0
112.533226 180.0
112.674728 140.0
112.742348 164.0
112.971382 136.0
112.989738 148.0
113.004547 176.0
113.095543 176.0
113.273415 156.0
113.470497 192.0
113.551079 188.0
113.580772 156.0
113.614716 184.0
113.754715 148.0
114.062782 144.0
114.091454 160.0
114.173347 208.0
114.435081 148.0
114.5373 360.0
114.833572 188.0
114.861298 156.0
114.897568 164.0
115.023468 152.0
115.052353 332.0
115.196434 192.0
115.919601 204.0
116.24984 152.0
116.436615 144.0
116.614937 220.0
116.743317 168.0
116.767586 144.0
116.80938 180.0
117.033363 140.0
117.069443 168.0
117.48056 208.0
117.69416 136.0
117.895119 160.0
117.952225 160.0
118.041985 616.0
118.145935 180.0
118.338554 140.0
118.377525 204.0
118.464165 148.0
118.654877 208.0
118.797768 184.0
119.049515 1144.0
119.188805 188.0
119.537537 140.0
119.841568 144.0
120.019646 188.0
120.055206 864.0
120.129341 216.0
120.203522 152.0
120.428391 140.0
120.607559 192.0
120.631599 140.0
121.061859 296.0
121.488365 168.0
122.043495 228.0
122.074684 132.0
122.452812 196.0
122.858299 180.0
122.900314 192.0
123.102058 152.0
123.242554 332.0
123.460678 148.0
123.788918 176.0
123.855354 180.0
124.107994 220.0
124.17231 260.0
124.578506 200.0
125.045456 156.0
125.07177 564.0
125.261436 176.0
125.423271 164.0
125.624786 196.0
125.667175 168.0
125.736351 180.0
126.038269 196.0
126.074692 136.0
126.659767 172.0
126.850235 148.0
126.924217 160.0
127.086792 264.0
127.512383 164.0
127.640518 156.0
127.721481 140.0
127.801262 140.0
127.951019 168.0
128.056854 284.0
128.151459 168.0
128.180756 148.0
128.277664 180.0
128.409866 136.0
128.787628 144.0
129.032547 104.0
129.199036 156.0
129.232971 164.0
129.26239 196.0
129.321228 180.0
129.416306 164.0
129.506897 164.0
129.527283 160.0
129.556732 144.0
129.58165 176.0
129.812851 144.0
129.998047 192.0
130.041382 1496.0
130.119171 216.0
130.158752 128.0
130.50769 144.0
130.614578 192.0
130.65097 160.0
130.775345 164.0
130.869461 164.0
130.888763 108.0
131.049194 1404.0
131.117752 212.0
131.156494 184.0
131.329788 180.0
131.359451 152.0
131.681274 176.0
131.703339 164.0
131.96405 140.0
132.022537 280.0
132.055878 984.0
132.264328 140.0
132.468124 208.0
132.523102 148.0
132.942734 144.0
133.028152 716.0
133.064529 2036.0
133.096527 160.0
133.128311 196.0
133.153946 180.0
133.236633 468.0
133.488022 128.0
133.521667 180.0
133.556168 176.0
133.895721 152.0
134.034088 152.0
134.071945 368.0
134.099548 348.0
134.127197 164.0
134.457031 160.0
134.496262 204.0
134.611694 184.0
134.952652 240.0
135.042953 2872.0
135.075974 144.0
135.366714 136.0
135.518433 320.0
135.638931 196.0
135.699219 164.0
135.754868 140.0
135.873154 172.0
135.949722 188.0
136.051346 144.0
136.08548 160.0
136.135437 220.0
136.253906 180.0
136.39566 140.0
136.439819 184.0
136.665421 160.0
136.700333 176.0
136.821365 188.0
137.057297 340.0
137.198776 144.0
137.245087 360.0
137.747177 212.0
137.863998 148.0
137.892029 220.0
138.19603 208.0
138.366882 140.0
138.512711 208.0
138.64798 192.0
138.978607 228.0
139.12648 192.0
139.328445 164.0
139.351929 156.0
139.539963 144.0
139.915283 204.0
140.00116 184.0
140.028351 132.0
140.093018 192.0
140.140137 148.0
140.227829 132.0
140.302933 180.0
140.333405 176.0
140.397064 144.0
140.458389 296.0
140.689651 168.0
140.873856 144.0
140.916245 152.0
141.104294 188.0
141.363266 164.0
141.584976 172.0
141.697128 328.0
141.770172 180.0
141.863022 200.0
141.972092 140.0
142.041138 140.0
142.328033 176.0
142.418289 140.0
142.46817 160.0
142.510925 156.0
143.003189 236.0
143.04776 140.0
143.086502 200.0
143.422394 148.0
143.439072 148.0
143.792084 168.0
144.057541 704.0
144.171799 184.0
144.26741 148.0
144.834534 144.0
144.875259 200.0
144.99028 176.0
145.029404 588.0
145.061569 392.0
145.165283 140.0
145.323593 196.0
145.575623 212.0
145.707932 144.0
145.816101 124.0
146.036102 1344.0
146.076599 156.0
146.104416 168.0
146.205475 152.0
146.309616 212.0
146.398071 140.0
146.634155 156.0
146.700394 108.0
146.762985 244.0
146.791336 120.0
146.85199 104.0
146.971771 140.0
147.043884 11824.0
147.225235 180.0
147.545547 120.0
147.794098 144.0
148.049057 2536.0
148.081375 180.0
148.549866 156.0
148.596619 152.0
148.779724 176.0
148.896271 144.0
148.93895 128.0
148.960663 204.0
149.023148 132.0
149.059128 2060.0
149.09549 152.0
149.311859 200.0
149.41835 164.0
149.511353 140.0
149.57045 128.0
149.813278 228.0
149.884872 136.0
149.982071 236.0
150.037491 204.0
150.06868 1332.0
150.203308 200.0
150.320419 148.0
150.49617 204.0
150.691284 176.0
150.828415 168.0
151.035233 144.0
151.070435 156.0
151.089935 156.0
151.232895 164.0
151.437119 160.0
151.52449 232.0
151.599365 196.0
152.052612 184.0
152.076691 184.0
152.544296 152.0
152.689377 208.0
152.755783 152.0
152.929047 144.0
153.058868 160.0
153.088043 164.0
153.117599 152.0
153.262939 168.0
153.408356 156.0
153.477386 192.0
153.551361 148.0
153.603165 200.0
153.817719 164.0
153.993149 164.0
154.116669 236.0
154.178452 156.0
154.367554 144.0
154.48999 148.0
154.829086 176.0
154.965332 156.0
155.117691 108.0
155.425659 220.0
155.724411 220.0
155.875961 144.0
155.960449 144.0
156.058746 180.0
156.14444 152.0
156.271301 160.0
156.413162 152.0
156.76683 376.0
156.956268 156.0
157.028336 160.0
157.805908 172.0
158.036606 416.0
158.09787 256.0
158.185471 144.0
158.24556 156.0
158.64006 240.0
158.781799 212.0
158.803833 128.0
158.902206 172.0
159.009033 448.0
159.045197 700.0
159.173355 148.0
159.359512 144.0
159.743805 152.0
159.779022 212.0
160.006973 196.0
160.051361 2844.0
160.098694 176.0
160.345581 272.0
160.455795 144.0
160.549606 104.0
160.620346 152.0
160.903046 144.0
160.993958 168.0
161.023758 476.0
161.05957 4408.0
161.212875 176.0
161.280823 124.0
161.407318 180.0
161.705521 136.0
161.837433 140.0
161.909439 152.0
162.067856 24128.0
162.164246 104.0
162.288361 104.0
162.586136 132.0
162.688782 188.0
162.823486 116.0
162.849594 164.0
162.882751 180.0
162.960892 228.0
163.038803 13392.0
163.07399 4940.0
163.179169 124.0
163.250549 164.0
163.291748 188.0
163.511414 168.0
163.536865 144.0
163.892914 192.0
163.962982 116.0
164.000427 180.0
164.042435 1236.0
164.079636 848.0
164.177765 204.0
164.452545 136.0
164.578125 140.0
164.628036 272.0
164.676361 104.0
164.781296 148.0
164.877975 168.0
165.060181 168.0
165.089935 1904.0
165.122498 192.0
165.282516 120.0
165.304581 128.0
165.446838 168.0
165.558899 152.0
165.684402 184.0
165.853531 176.0
165.902237 184.0
166.057678 176.0
166.100327 164.0
166.351166 152.0
166.381973 164.0
166.759583 140.0
166.777573 148.0
166.895828 200.0
166.949692 160.0
167.047562 184.0
167.069412 632.0
167.150482 200.0
167.214813 184.0
168.073517 128.0
168.150375 176.0
168.534439 148.0
168.886734 156.0
169.15065 160.0
169.40184 176.0
169.422562 144.0
169.696899 160.0
169.731247 160.0
169.795822 168.0
169.829544 168.0
169.861053 132.0
170.038391 100.0
170.832199 156.0
171.040375 144.0
171.074203 144.0
171.134094 156.0
171.261688 164.0
171.324219 140.0
171.548325 172.0
171.741287 192.0
171.856064 156.0
172.049057 516.0
172.320816 184.0
172.346939 176.0
172.844955 96.0
173.021484 536.0
173.239868 312.0
173.267914 156.0
173.349136 208.0
173.388443 152.0
174.030258 3704.0
174.0784 176.0
174.238617 148.0
174.283279 160.0
174.488297 156.0
174.786163 132.0
174.874969 184.0
175.039581 9912.0
175.241013 164.0
175.317429 196.0
175.412308 156.0
175.68129 140.0
175.710312 144.0
175.860733 164.0
175.979706 116.0
176.007446 160.0
176.046478 7968.0
176.130051 164.0
176.968369 168.0
177.054199 5928.0
177.673355 148.0
177.862671 164.0
177.913025 116.0
177.963242 160.0
178.02269 108.0
178.062744 23584.0
178.113754 184.0
178.220291 216.0
178.255768 136.0
178.46315 184.0
178.584488 180.0
178.682907 152.0
178.712875 152.0
178.803009 184.0
178.842575 156.0
178.998734 100.0
179.065796 2812.0
179.114288 176.0
179.221817 148.0
179.540619 180.0
179.732681 160.0
179.893509 140.0
180.069824 316.0
180.149796 1084.0
180.266739 164.0
180.328201 152.0
180.356369 156.0
180.394592 124.0
180.434113 136.0
180.574173 192.0
180.975586 176.0
181.086914 1124.0
181.148849 276.0
181.508789 160.0
181.640213 216.0
182.082352 272.0
182.130981 120.0
182.246948 148.0
182.526489 144.0
182.607162 208.0
182.664551 192.0
182.835846 212.0
182.913742 136.0
182.948898 176.0
183.325974 180.0
183.549713 176.0
183.569687 128.0
184.057007 168.0
184.367661 140.0
184.417984 168.0
184.445023 148.0
184.629578 140.0
184.647034 188.0
184.887604 200.0
184.947464 160.0
184.973511 156.0
185.01683 164.0
185.079102 176.0
185.643814 168.0
185.854309 148.0
186.049713 156.0
186.231644 188.0
186.256104 172.0
186.286179 216.0
186.37767 144.0
187.035309 188.0
187.112701 152.0
187.197113 168.0
187.227066 148.0
187.24614 144.0
187.371445 196.0
187.602753 132.0
187.812653 108.0
187.900345 140.0
188.00676 204.0
188.046204 1916.0
188.203308 176.0
188.287949 160.0
188.547501 164.0
188.593964 224.0
188.859177 112.0
189.019257 352.0
189.055298 7308.0
189.296829 140.0
189.358398 152.0
189.431274 184.0
189.455917 140.0
189.491531 180.0
189.590591 216.0
189.650482 168.0
189.705231 152.0
189.847107 172.0
189.897949 108.0
189.95343 156.0
189.970764 204.0
189.99173 156.0
190.025955 148.0
190.063339 121396.0
190.16243 184.0
190.306122 140.0
190.446182 168.0
190.512573 196.0
190.559723 144.0
190.600021 172.0
190.654221 116.0
190.70575 136.0
190.853134 136.0
190.89006 200.0
190.911652 152.0
191.034576 22384.0
191.067856 20384.0
191.134872 156.0
191.205597 136.0
191.229309 132.0
191.310043 176.0
191.350906 176.0
191.427429 232.0
191.482315 116.0
191.567383 128.0
191.718369 148.0
191.767914 136.0
191.886429 128.0
192.036911 2132.0
192.071167 2080.0
192.167862 112.0
192.257065 156.0
192.318497 168.0
192.37851 220.0
192.433273 104.0
192.491287 328.0
192.527939 116.0
192.549957 144.0
192.575272 172.0
192.603867 152.0
192.625153 136.0
192.664581 120.0
192.68576 144.0
192.709564 172.0
192.78447 144.0
192.829315 160.0
192.893021 200.0
193.003159 144.0
193.038193 460.0
193.086273 105508.0
193.163742 152.0
193.197906 252.0
193.25116 96.0
193.414917 168.0
193.509872 136.0
193.708679 132.0
193.863815 228.0
193.884613 172.0
194.048737 112.0
194.089294 10400.0
194.413589 204.0
194.476425 120.0
194.879059 108.0
195.090805 948.0
195.134552 164.0
195.342072 168.0
195.47702 184.0
195.534317 208.0
195.591415 148.0
195.61853 252.0
195.645889 172.0
195.687958 156.0
195.721954 140.0
195.987488 148.0
196.097107 252.0
196.143692 5692.0
196.184311 304.0
196.783829 156.0
197.058899 144.0
197.149185 956.0
197.243347 156.0
197.321609 224.0
197.39151 152.0
197.450241 216.0
197.47168 120.0
197.518158 100.0
197.809448 148.0
198.007843 152.0
198.083664 180.0
198.160843 99172.0
198.295135 180.0
198.325653 128.0
198.408844 116.0
198.515366 168.0
198.545013 116.0
198.568329 108.0
198.670502 148.0
198.707642 100.0
198.974167 180.0
199.162674 9148.0
199.231323 192.0
199.282318 140.0
199.315125 232.0
199.497025 116.0
199.986572 192.0
200.163559 680.0
200.196198 148.0
200.275024 116.0
200.412445 176.0
200.499161 156.0
200.536636 148.0
200.706894 104.0
200.757401 104.0
200.786301 132.0
201.16748 144.0
201.889664 184.0
202.05571 160.0
202.088959 160.0
202.547577 160.0
202.881958 200.0
202.913147 284.0
203.054932 216.0
203.10022 116.0
203.140015 204.0
203.275024 96.0
203.477737 188.0
203.624664 124.0
203.778015 208.0
203.877579 120.0
203.920868 160.0
203.955673 112.0
204.074707 172.0
204.308914 188.0
204.466934 144.0
204.552261 148.0
204.634888 160.0
204.668274 148.0
205.049973 1424.0
205.075974 176.0
205.213257 144.0
205.485596 164.0
205.880966 188.0
205.934845 144.0
205.987015 188.0
206.020844 132.0
206.058197 51756.0
206.120071 256.0
206.282959 104.0
206.458115 256.0
206.557831 108.0
206.652756 204.0
206.828415 168.0
207.000626 180.0
207.061539 6068.0
207.267014 144.0
207.727081 208.0
207.798798 152.0
207.832047 144.0
207.914536 120.0
207.970047 148.0
208.063126 460.0
208.137497 144.0
208.188049 116.0
208.381226 164.0
208.644608 136.0
208.812744 100.0
209.047653 168.0
209.072021 164.0
209.129303 160.0
209.175369 156.0
210.043045 100.0
210.202942 148.0
210.377441 220.0
210.631561 164.0
210.735565 152.0
210.842484 148.0
211.157608 156.0
211.2285 168.0
211.753815 176.0
211.919922 128.0
212.475586 160.0
212.533249 156.0
212.85968 128.0
213.114334 156.0
213.83551 148.0
213.905365 164.0
214.158691 144.0
214.272552 136.0
214.441315 156.0
214.479202 152.0
214.752792 168.0
215.004196 156.0
215.185165 168.0
216.163406 296.0
216.503937 152.0
217.010864 140.0
217.447952 180.0
217.867844 152.0
218.029846 148.0
218.077621 212.0
218.115906 136.0
218.147018 140.0
218.295395 164.0
218.55928 276.0
218.950287 168.0
218.979736 156.0
219.07547 188.0
219.287033 160.0
219.672241 264.0
219.788727 144.0
219.8508 136.0
219.890167 440.0
220.013229 236.0
220.071838 344.0
220.09581 352.0
220.144089 228.0
220.169601 116.0
220.255447 140.0
220.317551 200.0
220.354004 96.0
220.381897 96.0
220.412994 176.0
220.42955 140.0
220.511063 104.0
220.580078 328.0
220.629578 196.0
220.658371 264.0
220.715851 172.0
220.753983 332.0
220.790588 216.0
220.826477 448.0
220.891113 272.0
220.946182 352.0
220.988388 440.0
221.043289 792.0
221.082916 414132.0
221.157181 216.0
221.195984 156.0
221.230392 96.0
221.266373 216.0
221.325897 460.0
221.359329 444.0
221.394836 228.0
221.416885 276.0
221.458527 128.0
221.485703 172.0
221.535507 388.0
221.568527 8788.0
221.609161 296.0
221.647797 204.0
221.710114 264.0
221.745865 184.0
221.802429 164.0
221.838593 212.0
221.910721 200.0
221.97699 152.0
221.997025 112.0
222.023346 292.0
222.084991 86996.0
222.178391 188.0
222.224426 180.0
222.28447 288.0
222.386673 192.0
222.419037 160.0
222.437363 124.0
222.500275 188.0
222.595047 104.0
222.68277 96.0
222.801453 208.0
223.013397 128.0
223.086884 6972.0
223.173523 168.0
223.195908 144.0
223.236847 156.0
223.259872 160.0
223.289871 196.0
223.329773 136.0
223.382751 248.0
223.425552 176.0
223.455475 188.0
223.505447 412.0
223.541641 324.0
223.563995 268.0
223.619247 216.0
223.672241 356.0
223.711258 176.0
223.76265 240.0
223.789566 344.0
223.864365 328.0
223.953354 108.0
224.090134 908.0
224.138809 2208.0
224.385193 108.0
224.438477 116.0
224.546829 120.0
224.679169 112.0
224.727448 108.0
224.869995 160.0
224.940948 132.0
225.10321 160.0
225.14418 356.0
225.214401 204.0
225.442154 196.0
225.727554 108.0
225.927628 140.0
227.14505 140.0
227.285187 96.0
228.108963 192.0
229.099014 144.0
229.378906 100.0
229.747162 148.0
230.668213 164.0
231.085541 144.0
231.337814 116.0
231.367004 152.0
231.954697 248.0
232.084167 176.0
232.622055 192.0
233.194565 116.0
233.332138 104.0
233.993118 160.0
234.07576 144.0
234.717056 120.0
235.412933 128.0
235.829071 164.0
236.670792 144.0
237.050323 204.0
237.179352 140.0
237.270309 148.0
237.887314 100.0
238.296387 144.0
241.214828 144.0
241.821075 164.0
243.572937 140.0
244.157272 144.0
245.10405 140.0
245.533798 148.0
245.914429 156.0
246.576553 140.0
246.610931 172.0
247.608994 180.0
248.082581 168.0
249.106735 136.0
251.829788 168.0
256.092621 156.0
258.045593 212.0
258.408325 116.0
260.095856 392.0
260.500427 172.0
263.07666 140.0
264.078369 160.0
264.12207 1016.0
265.124298 124.0
266.129669 132.0
266.292023 160.0
266.79895 200.0
266.823639 132.0
267.205475 152.0
267.974487 140.0
268.928406 132.0
269.252533 232.0
272.571014 208.0
273.133209 196.0
275.724731 160.0
276.71048 156.0
277.432678 176.0
279.896576 220.0
281.214783 224.0
284.072327 152.0
285.170319 160.0
285.853027 144.0
286.496124 168.0
288.16272 188.0
290.134369 708.0
290.193451 180.0
291.13855 240.0
292.936035 152.0
293.876984 160.0
295.280975 228.0
299.617767 172.0
300.73703 188.0
302.139923 236.0
303.175293 168.0
305.77652 152.0
306.908661 140.0
307.463318 156.0
308.318939 188.0
308.784912 196.0
309.07077 260.0
309.80249 176.0
309.995209 228.0
310.17395 164.0
310.365692 168.0
310.573669 244.0
311.068451 200.0
313.474121 152.0
313.590424 160.0
314.306305 164.0
317.546783 232.0
317.773804 152.0
317.90509 148.0
318.073517 224.0
318.309784 180.0
318.881744 148.0
319.06543 96.0
319.16571 15292.0
319.484894 96.0
319.724518 220.0
320.167725 1744.0
321.140717 188.0
321.176849 432.0
321.881348 280.0
322.051422 196.0
322.188965 172.0
325.562592 176.0
329.308136 164.0
330.190002 188.0
331.4534 152.0
332.176086 120.0
333.620178 156.0
336.005554 196.0
336.328888 160.0
337.038818 172.0
338.30426 152.0
338.567902 192.0
339.971985 156.0
340.78714 164.0
341.419403 156.0
343.607391 160.0
344.722473 188.0
344.940552 156.0
347.160553 4376.0
348.163727 548.0
348.479736 172.0
348.516296 128.0
348.75473 180.0
349.159576 260.0
349.520813 152.0
350.163055 136.0
353.262909 172.0
353.595917 152.0
355.601044 176.0
355.980225 172.0
356.016907 136.0
356.972626 152.0
357.040222 176.0
357.197937 144.0
357.636108 160.0
360.370148 136.0
360.50827 164.0
361.533112 208.0
361.900299 148.0
362.36615 144.0
362.566986 160.0
362.688263 164.0
362.741333 140.0
363.272217 192.0
363.420197 220.0
364.992706 140.0
369.40918 148.0
370.710968 224.0
371.390686 108.0
371.669586 172.0
372.057251 192.0
374.199951 132.0
374.776398 144.0
374.969086 324.0
375.026886 160.0
375.194489 380.0
376.21814 264.0
376.52774 172.0
376.859955 160.0
377.091797 140.0
377.231354 188.0
379.391083 152.0
380.181458 160.0
383.901367 168.0
384.619263 160.0
385.639679 144.0
387.172333 156.0
388.140259 148.0
388.187317 172.0
389.435333 172.0
393.238708 148.0
394.966675 132.0
396.152893 140.0
397.223206 164.0
397.584259 208.0
398.35788 152.0
398.500519 192.0
398.696228 144.0
399.403931 188.0
399.949066 180.0
400.221436 112.0
401.028473 172.0
403.363495 200.0
404.687683 152.0
406.29483 180.0
408.146393 156.0
410.046478 144.0
411.450195 140.0
411.587494 192.0
411.914612 160.0
412.306519 144.0
412.593506 144.0
413.730316 144.0
414.503906 148.0
414.888977 148.0
414.974731 112.0
415.32135 168.0
415.636963 188.0
416.125 104.0
416.203186 108.0
416.251038 104.0
416.642426 116.0
416.699677 228.0
416.750183 108.0
417.006134 200.0
417.065582 160.0
417.157166 180.0
417.241852 120.0
417.308594 124.0
417.347076 240.0
417.394684 196.0
417.442902 308.0
417.504364 100.0
417.567139 140.0
417.65155 432.0
417.67923 340.0
417.796387 432.0
417.872833 288.0
417.953888 252.0
418.001923 200.0
418.053833 216.0
418.101135 316.0
418.236969 223900.0
418.378479 312.0
418.513702 148.0
418.678528 176.0
418.711945 164.0
418.791809 264.0
418.837036 256.0
418.905823 5428.0
418.961273 336.0
419.000122 140.0
419.051361 296.0
419.10672 252.0
419.132965 232.0
419.238251 92756.0
419.428711 104.0
419.481567 140.0
419.590363 272.0
419.686707 372.0
419.795898 96.0
419.906555 288.0
419.998932 164.0
420.066772 232.0
420.179474 100.0
420.240997 13840.0
420.397552 120.0
420.637482 152.0
420.684601 176.0
420.828827 148.0
421.002563 168.0
421.109863 180.0
421.187073 112.0
421.242157 1596.0
421.380157 144.0
421.471954 144.0
421.506409 488.0
421.563293 168.0
421.676575 268.0
421.723206 232.0
421.753876 184.0
421.809265 208.0
421.856964 168.0
421.927185 268.0
421.963257 368.0
422.015137 112.0
422.05545 196.0
422.100769 144.0
422.1539 112.0
422.23468 208.0
422.277649 248.0
422.399353 136.0
422.438812 148.0
422.498779 160.0
422.597198 152.0
422.735352 120.0
422.821259 144.0
422.876465 100.0
422.903259 228.0
423.004639 348.0
423.129303 144.0
423.611389 144.0
424.312347 108.0
428.834473 96.0
430.382202 112.0
431.642548 104.0
432.553986 172.0
436.428162 120.0
474.539551 148.0
525.805176 164.0
562.100952 112.0
573.703552 108.0
599.630676 152.0
612.433289 140.0
657.394226 160.0
659.388123 140.0
678.127869 144.0
960.50824 144.0
1068.004883 148.0
1099.916016 160.0
1159.353149 208.0
1172.108154 176.0
1217.366211 152.0
1275.4021 164.0
1320.148438 292.0
1326.991089 144.0
1376.780396 176.0
1382.591187 184.0
1383.960571 196.0
1387.109131 140.0
1403.875122 180.0
1405.687866 148.0
1412.015381 164.0
1423.301147 176.0
1443.042114 204.0
1453.122803 172.0
1456.493408 220.0
1457.351929 144.0
1483.514404 176.0
1487.334473 184.0
1500.697266 152.0
1502.224243 188.0
1514.809082 180.0
1517.971313 164.0
1535.843384 228.0
1553.066895 192.0
1556.928345 152.0
1566.075195 224.0
1566.634521 172.0
1567.319946 164.0
1568.171021 184.0
1575.02771 196.0
1579.588623 148.0
1579.651855 192.0
1590.00769 240.0
1612.714722 256.0
1614.737549 156.0
1617.810181 200.0
1630.435181 140.0
1630.724487 164.0
1633.329712 176.0
1633.66748 164.0
1643.117432 180.0
1648.486816 156.0
1654.132202 172.0
1655.387085 140.0
1660.695435 184.0
1662.593994 180.0
1679.060181 144.0
1680.993652 180.0
1686.874146 192.0
1688.239624 184.0
1691.356689 172.0
1709.001099 180.0
1709.478271 184.0
1723.834717 148.0
1726.563232 140.0
1728.581787 208.0
1730.535156 156.0
1731.504028 156.0
1737.297974 176.0
1739.638184 144.0
1739.721191 160.0
1750.246826 196.0
1753.212402 200.0
1757.123047 140.0
1762.491699 196.0
1766.111572 144.0
1772.50769 176.0
1772.851196 188.0
1775.022339 156.0
1776.498535 164.0
1786.335449 144.0
1788.287598 164.0
1788.674683 188.0
1790.821899 184.0
1791.049316 168.0
1791.959106 196.0
1804.467163 224.0
1806.344482 180.0
1809.441895 156.0
1809.958374 184.0
1814.381104 152.0
1815.619019 156.0
1816.976196 164.0
1823.336182 144.0
1828.464478 176.0
1832.39856 180.0
1832.960938 180.0
1833.327393 172.0
1834.571777 140.0
1835.160034 172.0
1835.535156 144.0
1837.087402 180.0
1837.377563 148.0
1838.486816 188.0
1838.879395 160.0
1842.138428 220.0
1850.333862 148.0
1852.920288 200.0
1854.059937 180.0
1854.882812 152.0
1856.949219 200.0
1858.724976 220.0
1859.548828 208.0
1861.626465 248.0
1874.219727 164.0
1878.375122 160.0
1881.360962 152.0
1885.999756 144.0
1889.398193 180.0
1889.467285 184.0
1894.523193 160.0
1899.854736 204.0
1905.940918 148.0
1912.254395 240.0
1913.103271 132.0
1913.560181 180.0
1915.101562 208.0
1918.055298 168.0
1918.255859 160.0
1919.825195 196.0
1922.782715 140.0
1923.262695 156.0
1924.476196 188.0
1927.253662 212.0
1928.861694 160.0
1930.243042 168.0
1932.42981 140.0
1937.447632 136.0
1939.61084 156.0
1940.791748 200.0
1943.36438 200.0
1946.849121 152.0
1955.359253 180.0
1956.63562 172.0
1958.132568 160.0
1958.388062 180.0
1959.312988 200.0
1963.517578 144.0
1964.505371 148.0
1969.598755 168.0
1971.993286 204.0
1972.057251 244.0
1976.361816 140.0
1978.300049 152.0
1978.769287 204.0
1980.921265 140.0
1984.97168 216.0
1985.911621 172.0
1986.230957 140.0
1988.24231 172.0
1990.331177 172.0
1990.402222 164.0
1994.22229 144.0
1994.684448 208.0
1995.691284 140.0
1996.418213 156.0
1996.771851 120.0
1996.854004 164.0
1999.078125 176.0
2003.182617 176.0
2003.432007 164.0
