>compound MLS001141238-01!4-phenyl-1-[2-(3,4,8-trimethyl-2-oxochromen-7-yl)oxyacetyl]piperidine-4-carboxylic acid
>formula C26H27NO6
>ionization [M+H]+
>parentmass 450.190979
#inchi InChI=1S/C26H27NO6/c1-16-17(2)24(29)33-23-18(3)21(10-9-20(16)23)32-15-22(28)27-13-11-26(12-14-27,25(30)31)19-7-5-4-6-8-19/h4-10H,11-15H2,1-3H3,(H,30,31)
#inchikey DUGCQBOAAOTXDO
#Ion_Source LC-ESI
#Instrument qTof
#Compound_Source NIH Natural Product Library
#PI Dorrestein
#Data_Collector VVP/LMS
#Scan -1
#Precursor_MZ 450.192
#ExactMass 449.184
#Charge 1
#CAS_Number N/A
#Pubmed_ID N/A
#Smiles Cc1c(C)c2ccc(OCC(=O)N3CCC(CC3)(C(=O)O)c4ccccc4)c(C)c2oc1=O
#INCHI_AUX N/A
#Library_Class 1
#SpectrumID CCMSLIB00000080178
#IonMode Positive
#UpdateWorkflowName UPDATE-SINGLE-ANNOTATED-GOLD
#LibraryQualityString Gold
#TaskID b1d8e8f6646f4e71acdff9ca3d919d08
##Scan# 2190
#SpectrumFile p2-B05_GB5_01_17993.mzXML
#LibraryName NIH_Natural_Products_Library.mgf
#MQScore -1
#Organism NIH_Natural_Products_Library
#TIC_Query 0
#RT_Query -1
#MZErrorPPM -1
#SharedPeaks 0
#MassDiff 0
#LibMZ -1
#SpecMZ 450.192
#SpecCharge 0
#internalFilename spec-00000.mgf

>collision 10
94.955063 152.0
94.984642 160.0
95.343353 212.0
95.374451 128.0
95.463882 68.0
95.677917 200.0
95.716858 204.0
95.755806 100.0
95.855156 256.0
95.952614 108.0
96.044266 340.0
96.080986 224.0
96.137917 184.0
96.157433 48.0
96.303864 208.0
96.328606 240.0
96.391777 40.0
96.48951 176.0
96.552078 60.0
96.615128 156.0
96.634239 88.0
96.649887 108.0
96.719933 208.0
96.790825 132.0
96.835869 116.0
96.912262 176.0
97.07692 132.0
97.43808 128.0
97.499611 204.0
97.774323 152.0
97.855034 188.0
97.93264 220.0
98.058952 348.0
98.193512 208.0
98.320229 160.0
98.369576 52.0
98.448555 248.0
98.4683 124.0
98.511398 220.0
98.549294 232.0
98.622414 232.0
98.756866 156.0
98.778488 120.0
98.911201 184.0
99.028023 160.0
99.224205 52.0
99.293602 184.0
99.319389 156.0
99.388824 144.0
99.418587 152.0
99.464241 108.0
99.478424 208.0
99.499969 168.0
99.563515 52.0
99.637009 96.0
99.662834 104.0
100.006874 140.0
100.052658 140.0
100.078545 160.0
100.285721 248.0
100.323593 100.0
100.393379 160.0
100.543007 272.0
100.636826 140.0
100.754662 248.0
100.826591 148.0
101.134605 96.0
101.218689 144.0
101.262741 216.0
101.370926 128.0
101.449097 164.0
101.53331 204.0
101.615547 100.0
101.713882 208.0
101.782143 100.0
101.803238 200.0
101.844398 148.0
101.870514 160.0
101.918732 156.0
101.940834 208.0
101.964569 148.0
101.989067 144.0
102.046379 156.0
102.067474 72.0
102.264496 200.0
102.657486 188.0
102.972313 228.0
103.054146 2600.0
103.192574 100.0
103.285599 40.0
103.303802 144.0
103.635834 192.0
103.714867 144.0
103.753342 204.0
104.051262 1088.0
104.102371 152.0
104.411278 144.0
104.445854 224.0
104.527229 188.0
104.563858 212.0
104.789894 48.0
104.84491 48.0
104.908096 96.0
105.032448 408.0
105.049759 160.0
105.071732 1044.0
105.340721 68.0
105.430618 80.0
105.510338 180.0
105.65554 176.0
105.746292 172.0
106.040504 156.0
106.060997 228.0
106.079552 156.0
106.143005 144.0
106.425568 192.0
106.592545 120.0
106.645981 128.0
106.66037 132.0
106.970856 136.0
107.08503 144.0
107.127487 200.0
107.440834 176.0
107.651367 212.0
107.68441 124.0
107.742249 120.0
107.795967 64.0
107.880714 240.0
107.90345 200.0
108.033745 176.0
108.120926 148.0
108.347511 184.0
108.493484 144.0
108.715424 184.0
108.78614 168.0
108.844124 160.0
109.026932 140.0
109.234489 140.0
109.611687 208.0
109.715759 180.0
109.803474 140.0
109.82016 212.0
109.849365 208.0
109.957863 180.0
110.024658 188.0
110.061195 1256.0
110.089386 104.0
110.118629 48.0
110.139511 156.0
110.181297 208.0
110.206367 212.0
110.220993 132.0
110.283401 176.0
110.31086 200.0
110.482338 112.0
110.496986 168.0
110.530464 208.0
110.756569 204.0
110.886475 164.0
110.947945 256.0
110.976608 132.0
111.06469 172.0
111.1138 204.0
111.180084 160.0
111.27034 160.0
111.495102 144.0
111.610718 120.0
111.629646 160.0
111.665398 144.0
111.795883 168.0
112.076279 644.0
112.118759 176.0
112.137009 268.0
112.185486 72.0
112.328888 196.0
112.38163 136.0
112.438606 168.0
112.596611 228.0
112.622292 40.0
112.799782 76.0
112.875893 108.0
113.119202 136.0
113.242012 224.0
113.52388 56.0
113.61084 160.0
113.753021 148.0
114.010025 208.0
114.051186 212.0
114.104568 192.0
114.169464 244.0
114.352432 200.0
114.448227 112.0
114.466171 156.0
114.530045 220.0
114.554718 120.0
114.659119 192.0
114.819016 140.0
115.054642 2496.0
115.122055 192.0
115.141281 240.0
115.179726 164.0
115.20536 164.0
115.284416 76.0
115.335709 128.0
115.372047 68.0
115.389153 188.0
115.52816 164.0
115.883553 184.0
115.913551 200.0
116.061852 840.0
116.284554 160.0
116.404778 140.0
116.428795 196.0
116.628212 148.0
116.69915 32.0
116.831734 192.0
116.865555 104.0
116.991745 72.0
117.033432 144.0
117.070084 2268.0
117.153259 72.0
117.176956 36.0
117.212349 208.0
117.465836 264.0
117.590988 120.0
117.657898 200.0
117.783318 156.0
117.828514 172.0
117.962502 76.0
118.042198 232.0
118.061485 184.0
118.076126 752.0
118.150642 332.0
118.178772 120.0
118.282646 172.0
118.668266 48.0
118.722473 48.0
118.750671 80.0
118.772362 56.0
118.824425 116.0
119.043648 356.0
119.083778 188.0
119.230476 232.0
119.358734 192.0
119.547989 196.0
119.648422 140.0
119.691658 156.0
120.041817 156.0
120.092651 236.0
120.217003 104.0
120.278114 52.0
120.328323 136.0
120.533638 44.0
120.55986 132.0
120.61232 104.0
121.025795 120.0
121.066315 168.0
121.10128 476.0
121.126534 72.0
121.172539 164.0
121.275536 184.0
121.34568 68.0
121.466301 176.0
121.606728 148.0
121.777985 84.0
121.949356 148.0
122.123055 164.0
122.307884 156.0
122.417961 68.0
122.525894 140.0
122.63607 140.0
122.717636 236.0
122.75071 204.0
122.821289 208.0
122.872025 68.0
122.907326 136.0
122.980148 44.0
123.225273 228.0
123.265045 108.0
123.3004 136.0
123.419777 144.0
123.643196 136.0
123.720673 132.0
123.760521 220.0
124.044098 208.0
124.083015 144.0
124.194878 172.0
124.421227 136.0
124.92347 116.0
125.028046 144.0
125.108177 188.0
125.15493 212.0
125.259605 136.0
125.32975 156.0
125.440102 36.0
125.50029 204.0
125.616264 224.0
125.647499 116.0
125.783081 236.0
125.834969 140.0
125.942162 132.0
126.023834 164.0
126.031128 92.0
126.054436 316.0
126.190208 156.0
126.228226 116.0
126.31321 204.0
126.513405 196.0
127.005356 160.0
127.06131 308.0
127.283646 136.0
127.344276 148.0
127.465591 192.0
127.490311 132.0
127.538467 160.0
127.555489 96.0
127.663406 144.0
127.721886 140.0
127.814125 144.0
127.951424 40.0
127.982941 196.0
128.018967 160.0
128.064163 2360.0
128.124832 172.0
128.26004 64.0
128.275818 172.0
128.541962 164.0
128.681427 152.0
128.75914 216.0
128.853546 68.0
128.880661 120.0
129.070297 1488.0
129.102188 44.0
129.219803 148.0
129.362381 152.0
129.489182 224.0
129.588852 176.0
129.629639 124.0
129.826859 76.0
130.006088 148.0
130.076416 1552.0
130.171799 196.0
130.674133 136.0
130.760605 144.0
130.803848 104.0
130.824341 68.0
131.048492 1000.0
131.082916 2984.0
131.1465 84.0
131.171768 132.0
131.234421 72.0
131.291428 140.0
131.353012 88.0
131.375824 92.0
131.501328 116.0
131.526428 132.0
131.542404 40.0
131.606339 52.0
131.667984 148.0
131.786774 120.0
132.054581 316.0
132.08165 1004.0
132.136581 132.0
132.168625 152.0
132.267029 64.0
132.370056 128.0
132.631226 144.0
132.65416 256.0
132.709183 92.0
132.807785 128.0
132.849075 152.0
132.900192 128.0
132.931671 92.0
133.063461 384.0
133.101791 1000.0
133.436996 80.0
133.464584 160.0
133.55658 100.0
134.051559 192.0
134.071594 168.0
134.105331 208.0
134.12146 116.0
134.533615 108.0
134.690643 144.0
134.815399 268.0
134.85701 108.0
135.032715 176.0
135.081635 804.0
135.118301 120.0
135.13913 112.0
135.18309 152.0
135.240952 224.0
135.324295 116.0
135.409973 64.0
135.6185 180.0
135.885178 72.0
136.0858 308.0
136.296143 124.0
136.498367 160.0
136.693771 328.0
136.859039 72.0
136.94986 140.0
137.110626 56.0
137.140915 180.0
137.332108 188.0
137.371765 116.0
137.460419 120.0
137.721909 204.0
137.838715 160.0
137.883118 136.0
138.056107 204.0
138.119263 108.0
138.268997 60.0
138.479721 156.0
138.714035 108.0
138.800781 208.0
138.842987 120.0
138.908661 192.0
139.03067 172.0
139.126907 244.0
139.674438 168.0
139.689987 232.0
139.752075 228.0
139.773239 116.0
139.836792 192.0
139.954483 124.0
140.053406 92.0
140.182983 100.0
140.390427 144.0
140.418732 148.0
140.439957 136.0
140.697159 232.0
140.745346 196.0
140.968796 120.0
141.070938 1148.0
141.273804 160.0
141.316376 60.0
141.356613 180.0
141.439438 124.0
141.465485 92.0
141.493881 184.0
141.647812 76.0
141.730499 204.0
141.759171 56.0
141.813675 80.0
141.846863 172.0
142.047684 232.0
142.076492 948.0
142.216888 112.0
142.243011 76.0
142.387848 240.0
142.587402 220.0
142.994095 204.0
143.045776 124.0
143.086533 6676.0
143.134552 168.0
143.184753 52.0
143.225052 36.0
143.260788 120.0
143.344177 116.0
143.368011 36.0
143.396606 64.0
143.439514 80.0
143.473831 128.0
143.651733 240.0
143.675797 140.0
143.797287 100.0
143.816391 128.0
143.86174 148.0
143.933365 192.0
144.014557 228.0
144.057785 3596.0
144.083359 4808.0
144.154419 96.0
144.255905 40.0
144.282196 196.0
144.399368 68.0
144.432846 124.0
144.538116 60.0
144.588364 56.0
144.770309 52.0
144.794266 104.0
144.822998 188.0
144.875702 156.0
144.894867 68.0
144.933197 64.0
144.985916 112.0
145.065155 552.0
145.08989 1932.0
145.132141 116.0
145.18251 84.0
145.484833 128.0
145.549652 44.0
145.643311 144.0
145.662537 44.0
145.76825 188.0
145.886017 224.0
145.942841 188.0
146.071762 1116.0
146.097107 292.0
146.246826 200.0
146.292572 48.0
146.333496 196.0
146.427414 136.0
146.511719 136.0
146.567123 184.0
146.964981 124.0
147.003586 200.0
147.044617 188.0
147.081833 180.0
147.571228 164.0
147.631668 140.0
147.675201 160.0
147.733261 172.0
147.905075 164.0
148.041367 616.0
148.088394 236.0
148.304733 188.0
148.40654 164.0
148.668518 116.0
148.823883 240.0
148.904007 124.0
148.964737 104.0
149.005264 176.0
149.040054 228.0
149.097336 184.0
149.363388 88.0
149.709 176.0
149.777191 200.0
149.891693 76.0
149.930695 144.0
150.176376 196.0
150.225723 108.0
150.330627 72.0
150.350159 196.0
150.464874 232.0
150.596741 160.0
150.633377 132.0
150.740875 108.0
150.821533 148.0
150.909744 192.0
150.929108 112.0
151.015686 456.0
151.200638 60.0
151.23262 120.0
151.340164 244.0
151.577759 220.0
151.933273 156.0
152.047623 212.0
152.124695 224.0
152.253906 184.0
152.471176 128.0
152.652939 144.0
152.741486 156.0
153.07637 160.0
153.485245 168.0
153.611328 128.0
153.640625 400.0
153.744263 68.0
154.554779 164.0
154.720612 148.0
154.745361 136.0
154.851852 188.0
155.010391 144.0
155.05986 376.0
155.08078 692.0
155.1492 132.0
155.213654 152.0
155.354218 148.0
155.764618 200.0
155.812149 184.0
156.023071 228.0
156.077194 176.0
156.259338 212.0
156.794708 188.0
157.011597 136.0
157.067078 464.0
157.106384 264.0
157.183731 140.0
157.216171 80.0
157.350967 144.0
157.378433 168.0
157.42836 152.0
157.46582 176.0
157.578232 120.0
157.643204 144.0
157.680695 156.0
157.803177 184.0
157.900696 116.0
157.918213 124.0
157.968231 68.0
158.040787 44.0
158.09729 21240.0
158.164993 48.0
158.183441 180.0
158.241013 88.0
158.277603 72.0
158.409531 124.0
158.471436 84.0
158.666931 36.0
158.70018 92.0
158.757202 160.0
158.80986 128.0
159.082535 3052.0
159.104126 7048.0
159.212326 168.0
159.279236 76.0
159.33606 64.0
159.359634 44.0
159.382629 104.0
159.414917 184.0
159.495331 168.0
159.520477 48.0
159.570755 156.0
159.588348 128.0
159.610977 148.0
159.678879 152.0
159.938202 60.0
160.006012 196.0
160.046295 76.0
160.079544 716.0
160.111267 6344.0
160.196182 124.0
160.220078 76.0
160.237701 92.0
160.285583 144.0
160.315826 44.0
160.333466 44.0
160.371262 152.0
160.393951 60.0
160.485992 124.0
160.512451 80.0
160.595673 156.0
160.637924 172.0
160.706665 68.0
160.749557 40.0
160.772278 56.0
160.860611 52.0
160.961609 44.0
161.061691 1616.0
161.093506 2476.0
161.115952 1108.0
161.368927 96.0
161.459427 88.0
161.585907 48.0
161.654221 60.0
161.712433 128.0
161.808624 128.0
162.031494 180.0
162.065735 392.0
162.09671 316.0
162.130005 208.0
162.180573 176.0
162.325516 128.0
162.352768 156.0
162.673111 128.0
162.736572 240.0
162.769577 172.0
162.825455 52.0
162.939758 72.0
162.977875 316.0
163.076157 344.0
163.132904 136.0
163.260025 56.0
163.371948 196.0
163.420288 52.0
163.504257 36.0
163.621353 164.0
163.88623 64.0
163.988159 92.0
164.079926 164.0
164.306915 188.0
164.378357 168.0
164.452362 180.0
164.546814 124.0
164.628525 124.0
164.804779 96.0
165.04248 44.0
165.062943 88.0
165.677216 180.0
165.738693 124.0
165.846329 144.0
166.390167 216.0
166.680405 160.0
167.08432 192.0
167.212723 220.0
167.36203 188.0
168.063126 120.0
168.092804 364.0
168.272186 208.0
168.50058 120.0
168.807053 152.0
169.079025 180.0
169.202927 184.0
169.76001 160.0
170.071991 128.0
170.097992 504.0
170.159592 120.0
170.240097 180.0
170.286835 180.0
170.3284 100.0
170.416351 140.0
170.53183 96.0
170.572647 132.0
170.663651 156.0
170.705246 188.0
170.814484 172.0
170.897736 144.0
170.954987 112.0
171.027847 204.0
171.051193 120.0
171.080307 1156.0
171.102219 168.0
171.150208 156.0
171.374207 108.0
171.535797 144.0
171.911362 156.0
172.044083 188.0
172.074051 804.0
172.11261 4728.0
172.156754 164.0
172.208984 32.0
172.386642 52.0
172.640213 176.0
172.682053 64.0
172.907059 96.0
173.003906 200.0
173.060165 168.0
173.097733 876.0
173.145294 128.0
173.231735 72.0
173.29985 36.0
173.323441 124.0
173.59343 224.0
173.677353 48.0
173.792786 116.0
173.902054 88.0
174.067825 552.0
174.131424 152.0
174.156982 60.0
174.283783 44.0
174.430954 128.0
174.467758 88.0
174.538757 96.0
174.638687 92.0
174.693924 156.0
174.854431 148.0
175.016266 204.0
175.076523 1180.0
175.112442 164.0
175.2099 124.0
175.38382 120.0
175.47345 136.0
175.560471 144.0
175.792618 120.0
175.956268 232.0
176.048676 168.0
176.083206 5812.0
176.205795 100.0
176.25737 180.0
176.439743 72.0
176.77095 212.0
176.905334 72.0
176.987411 48.0
177.087982 1124.0
177.114822 184.0
177.803711 184.0
178.013611 76.0
178.053452 188.0
178.087967 104.0
178.111877 168.0
178.20752 100.0
178.247375 120.0
178.348358 88.0
178.414825 88.0
178.694077 128.0
178.752609 176.0
178.904312 40.0
179.058746 224.0
179.413147 84.0
179.525131 56.0
179.658493 88.0
179.685165 108.0
179.83461 112.0
180.056213 188.0
180.44902 108.0
180.495087 172.0
180.52655 68.0
180.752213 204.0
180.783371 196.0
180.909164 204.0
181.061783 120.0
181.096603 228.0
181.187683 164.0
181.372589 108.0
181.54686 200.0
181.876862 148.0
181.911758 116.0
182.01915 144.0
182.097351 268.0
182.16687 172.0
182.583481 52.0
183.100525 132.0
183.127136 112.0
183.256439 120.0
183.391174 216.0
183.509796 84.0
183.903656 132.0
183.95224 120.0
184.011627 160.0
184.054825 216.0
184.20607 96.0
184.37088 256.0
184.641235 148.0
184.963211 232.0
185.114822 164.0
185.285461 88.0
185.355911 88.0
185.480576 76.0
185.692062 120.0
185.808701 48.0
186.055679 196.0
186.092346 3192.0
186.16156 48.0
186.219727 184.0
186.245758 60.0
186.359863 144.0
186.492645 116.0
186.639816 68.0
186.680603 100.0
186.786835 140.0
186.816605 192.0
186.880157 312.0
186.958267 220.0
187.041992 340.0
187.100449 53856.0
187.152618 60.0
187.198074 104.0
187.240784 76.0
187.259064 172.0
187.289246 76.0
187.320206 96.0
187.35289 76.0
187.385422 140.0
187.418289 132.0
187.438507 76.0
187.455032 140.0
187.488968 68.0
187.545822 80.0
187.58667 148.0
187.620575 72.0
187.652679 80.0
187.707504 104.0
187.764481 64.0
187.816315 40.0
187.872101 80.0
187.889969 192.0
187.924713 164.0
187.952713 136.0
188.102707 8468.0
188.153824 56.0
188.225677 68.0
188.277557 44.0
188.307602 52.0
188.442825 128.0
188.534363 92.0
188.627029 128.0
188.660095 76.0
188.698364 76.0
188.769455 80.0
188.788605 64.0
188.903473 144.0
188.939041 136.0
188.98555 60.0
189.037537 128.0
189.056702 148.0
189.093048 6484.0
189.213928 100.0
189.275909 52.0
189.297592 152.0
189.320877 64.0
189.337631 84.0
189.387787 172.0
189.511978 152.0
189.555099 128.0
189.581924 116.0
189.613266 68.0
189.664719 108.0
189.689392 96.0
189.755188 56.0
189.92482 140.0
190.090836 1740.0
190.121765 3532.0
190.279205 164.0
190.416504 64.0
190.471436 68.0
190.623978 100.0
190.666519 80.0
190.790207 36.0
191.090042 156.0
191.126602 508.0
191.516663 52.0
191.54422 60.0
191.673706 156.0
191.737076 60.0
191.91626 172.0
192.023804 180.0
192.070694 160.0
192.092758 140.0
192.12587 44.0
192.368713 84.0
192.509521 48.0
192.560898 140.0
192.600662 80.0
192.62001 56.0
192.691833 120.0
192.747086 120.0
192.780243 96.0
193.203293 32.0
193.25032 180.0
193.363785 32.0
193.496643 208.0
193.596329 112.0
193.867813 136.0
194.38916 112.0
194.913971 136.0
195.230881 80.0
195.748474 228.0
195.8181 144.0
195.854309 156.0
196.238876 80.0
196.375519 180.0
196.674072 40.0
197.053864 168.0
197.305115 204.0
197.607437 156.0
198.318726 84.0
198.458893 112.0
198.512177 160.0
198.534607 120.0
198.972336 140.0
199.011642 228.0
199.077789 436.0
199.097641 128.0
199.102646 216.0
199.166092 96.0
199.274185 160.0
199.537033 160.0
199.64389 136.0
199.700134 124.0
199.894257 112.0
199.930832 88.0
200.080948 304.0
200.109344 996.0
200.815475 160.0
201.080231 224.0
201.114349 1852.0
201.348892 40.0
201.433624 52.0
201.651199 92.0
201.710556 92.0
202.027267 212.0
202.061218 152.0
202.123322 4160.0
202.178055 180.0
202.216858 148.0
202.460327 80.0
202.539642 180.0
202.635956 76.0
202.669952 36.0
202.777634 160.0
202.990265 144.0
203.071594 1344.0
203.100006 500.0
203.126801 392.0
203.185974 56.0
203.322174 76.0
203.347717 48.0
203.430023 176.0
203.455582 44.0
203.529404 36.0
203.608902 144.0
203.787872 52.0
204.011444 236.0
204.079987 3852.0
204.101746 3972.0
204.193451 136.0
204.315674 68.0
204.376434 48.0
204.477982 140.0
204.507339 76.0
204.544342 92.0
204.604126 108.0
204.686691 152.0
204.74649 52.0
204.78067 132.0
204.957291 196.0
204.977234 80.0
205.017136 164.0
205.039932 200.0
205.08461 1496.0
205.108856 1056.0
205.28511 64.0
205.37352 80.0
205.402039 72.0
205.424866 56.0
205.464798 124.0
205.524719 168.0
205.57608 68.0
206.118378 3904.0
206.278687 80.0
206.541748 36.0
206.593246 104.0
206.856522 60.0
206.87941 56.0
206.94812 200.0
207.120026 1196.0
207.162918 44.0
207.234543 104.0
207.567032 36.0
207.627258 88.0
207.693222 100.0
207.756332 64.0
207.813721 96.0
207.91127 48.0
208.123962 352.0
208.430008 188.0
208.852539 152.0
209.351562 88.0
209.590652 52.0
209.98558 92.0
210.020203 144.0
210.100967 172.0
210.141357 64.0
210.245239 124.0
210.712341 136.0
211.551697 172.0
211.679077 176.0
212.525482 136.0
212.696701 36.0
212.943512 132.0
213.167206 216.0
213.193359 144.0
213.242767 132.0
214.153442 124.0
214.380676 56.0
214.418564 44.0
215.094788 232.0
215.457352 68.0
215.507019 144.0
215.869476 180.0
216.103485 88.0
216.574799 60.0
216.766418 176.0
216.779388 72.0
216.787781 236.0
216.952805 56.0
216.973328 188.0
216.993851 112.0
217.087524 20352.0
217.158066 200.0
217.2314 60.0
217.307678 84.0
217.350113 164.0
217.449448 64.0
217.551254 52.0
217.592361 20.0
217.648148 68.0
217.706146 80.0
217.815552 84.0
217.84198 52.0
217.880173 88.0
217.96521 140.0
218.091965 2844.0
218.118057 9740.0
218.209335 40.0
218.247559 84.0
218.311218 108.0
218.33107 100.0
218.359634 108.0
218.408447 92.0
218.479904 76.0
218.524033 72.0
218.735931 72.0
218.765366 68.0
219.021545 140.0
219.089798 488.0
219.118851 1936.0
219.161209 148.0
219.230728 140.0
219.299957 172.0
219.377686 84.0
219.440018 96.0
219.590408 76.0
219.634644 112.0
219.749695 56.0
219.78511 64.0
220.047791 88.0
220.100937 56.0
220.122787 404.0
220.506958 136.0
220.567719 120.0
220.751022 80.0
220.789474 116.0
220.833832 92.0
221.020203 116.0
221.043884 140.0
221.114899 144.0
221.254028 92.0
221.965118 96.0
222.02739 172.0
222.519974 100.0
223.21524 136.0
226.570068 44.0
227.072556 288.0
228.076492 144.0
228.102066 204.0
228.744263 60.0
228.795441 212.0
228.973099 52.0
229.087555 264.0
229.106613 220.0
230.052551 380.0
230.109512 152.0
231.058914 104.0
231.637115 104.0
233.741089 104.0
234.615219 100.0
235.573441 60.0
237.268845 64.0
240.99292 156.0
241.088715 164.0
243.104736 136.0
243.135757 152.0
243.763062 124.0
245.082245 4372.0
245.543762 64.0
246.014923 76.0
246.081223 512.0
246.111252 544.0
246.524033 60.0
246.680313 44.0
247.033661 196.0
247.084564 120.0
247.117706 624.0
247.644043 36.0
248.126694 376.0
249.743835 152.0
254.684189 68.0
255.106812 184.0
256.086853 148.0
258.117432 240.0
258.193298 56.0
258.24765 56.0
259.115875 124.0
259.560669 108.0
262.108734 688.0
263.090179 88.0
263.112793 172.0
266.211456 108.0
268.114563 44.0
268.430756 144.0
273.907349 44.0
274.105835 596.0
275.112732 288.0
276.208069 32.0
276.760742 44.0
276.846832 140.0
279.0867 104.0
279.119934 92.0
280.58493 120.0
282.070465 104.0
282.113922 148.0
282.997162 64.0
286.109436 116.0
288.805634 48.0
291.314026 108.0
295.237122 48.0
296.562073 72.0
296.932343 60.0
298.498322 72.0
307.132446 140.0
310.507629 48.0
312.400879 56.0
314.296326 32.0
316.87384 116.0
318.594513 88.0
320.92923 60.0
323.938416 64.0
331.508331 52.0
338.627045 96.0
342.575714 112.0
352.433472 92.0
352.971741 104.0
355.188843 124.0
356.296265 96.0
357.085632 120.0
358.489868 56.0
359.213776 40.0
375.163971 152.0
376.189178 356.0
377.181335 188.0
377.223694 132.0
377.587158 64.0
378.197876 136.0
382.102295 44.0
386.632538 60.0
388.172089 96.0
391.126495 48.0
393.085236 64.0
395.325806 140.0
400.100739 128.0
400.275909 176.0
400.761871 60.0
402.684631 76.0
402.760529 72.0
403.395874 88.0
403.783722 60.0
404.190948 2000.0
404.555969 52.0
404.704102 76.0
404.800201 56.0
404.896301 68.0
405.190338 924.0
405.673615 48.0
406.192749 148.0
406.331329 100.0
406.957428 60.0
407.182312 104.0
407.575989 68.0
407.720642 60.0
409.076111 48.0
409.184814 60.0
413.026581 120.0
418.187683 84.0
422.20224 112.0
432.177277 124.0
433.204407 84.0
434.481232 60.0
436.158905 172.0
436.424957 92.0
445.502594 56.0
446.057281 112.0
448.262665 144.0
448.692566 188.0
449.207062 140.0
449.396912 68.0
449.628998 116.0
449.675415 60.0
450.190979 2608.0
450.312927 36.0
450.769196 124.0
450.886047 80.0
450.946686 116.0
451.043915 56.0
451.194031 872.0
451.542816 40.0
451.728943 40.0
452.042023 76.0
452.195709 272.0
452.516083 56.0
454.754303 44.0
456.981049 88.0
467.602142 56.0
479.747925 96.0
480.90387 64.0
484.463226 32.0
486.673615 96.0
489.527374 48.0
503.045929 60.0
506.256165 136.0
519.602905 104.0
548.941589 48.0
554.370911 56.0
571.295959 76.0
591.102234 76.0
591.353882 80.0
612.230469 32.0
626.361023 188.0
640.753601 72.0
641.2323 116.0
641.595215 48.0
641.64563 104.0
655.554138 128.0
657.272583 100.0
681.213623 92.0
718.589539 40.0
725.124023 96.0
752.993347 44.0
771.975403 120.0
776.588684 96.0
789.923462 140.0
819.159363 132.0
839.875427 216.0
858.900818 156.0
860.458923 140.0
880.683105 160.0
880.931213 72.0
885.805481 88.0
888.615479 176.0
890.342834 44.0
896.27356 88.0
928.847168 276.0
931.026062 164.0
960.798828 224.0
976.209106 192.0
983.179993 140.0
991.246887 144.0
993.6922 52.0
994.068665 148.0
994.293762 144.0
998.698853 240.0
999.919373 168.0
1004.360901 200.0
1014.668823 164.0
1024.118042 72.0
1032.235718 132.0
1032.72168 76.0
1034.961548 164.0
1037.395996 76.0
1038.19751 244.0
1039.146851 176.0
1049.630859 44.0
1053.658325 80.0
1063.974976 168.0
1068.452637 128.0
1070.92627 204.0
1071.460327 88.0
1071.922974 120.0
1075.431519 52.0
1077.067993 32.0
1079.331665 56.0
1082.609985 216.0
1085.296631 168.0
1088.505127 232.0
1088.892578 60.0
1089.477173 104.0
1090.482544 124.0
1096.755005 152.0
1097.139282 208.0
1097.658203 172.0
1098.937866 140.0
1100.548218 240.0
1101.175537 124.0
1102.411011 124.0
1108.518799 176.0
1115.494141 204.0
1116.438354 100.0
1120.505249 224.0
1123.405151 124.0
1123.978882 192.0
1125.000122 160.0
1137.269653 180.0
1137.390503 144.0
1142.739746 176.0
1146.187012 136.0
1151.921631 136.0
1152.543091 132.0
1154.320801 172.0
1158.070068 156.0
1164.037964 176.0
1165.158569 176.0
1169.047119 196.0
1170.096069 148.0
1172.459595 208.0
1174.76416 132.0
1177.228882 164.0
1177.719849 180.0
1177.897461 220.0
1178.457642 168.0
1178.867554 176.0
1179.339111 116.0
1185.498535 116.0
1186.643188 144.0
1188.220581 232.0
1189.222534 88.0
1194.272461 228.0
1198.05835 156.0
1199.395264 196.0
1199.905273 56.0
1200.20874 180.0
1201.594971 204.0
1201.719238 36.0
1205.019409 164.0
1205.134766 148.0
1208.815308 188.0
1214.628052 188.0
1215.515991 128.0
1220.767456 160.0
1221.428223 144.0
1222.214355 224.0
1223.04248 164.0
1225.556519 168.0
1225.946655 80.0
1229.119507 124.0
1231.40918 160.0
1235.162476 164.0
1236.512939 140.0
1236.771851 124.0
1239.804443 168.0
1241.052124 128.0
1241.374634 84.0
1245.803467 136.0
1246.414673 96.0
1250.078125 208.0
1251.478882 172.0
1251.781738 36.0
1255.290894 56.0
1257.837769 116.0
1258.374268 132.0
1258.452026 232.0
1259.518311 140.0
1261.475586 188.0
1262.268555 136.0
1262.557373 228.0
1263.462769 172.0
1265.557739 180.0
1267.696777 176.0
1269.199585 84.0
1272.725952 144.0
1274.309814 304.0
1275.923096 176.0
1276.790649 204.0
1278.626099 180.0
1278.889404 160.0
1279.223999 156.0
1282.89978 20.0
1285.48877 216.0
1286.109619 152.0
1290.982056 208.0
1291.883301 204.0
1294.989746 188.0
1295.168823 172.0
1295.526978 128.0
1296.358154 212.0
1298.609131 96.0
1301.46521 244.0
1303.641724 156.0
1306.870239 164.0
1308.033447 152.0
1308.612061 228.0
1308.864014 64.0
1310.26123 164.0
1310.679199 124.0
1310.772827 160.0
1311.003418 168.0
1311.10437 88.0
1313.786499 140.0
1313.894775 68.0
1315.431885 188.0
1321.676025 180.0
1321.914795 152.0
1322.652954 136.0
1323.333496 136.0
1325.26001 180.0
1325.419434 204.0
1327.934937 168.0
1329.13916 204.0
1330.677856 108.0
1330.924683 176.0
1331.353149 208.0
1332.922241 152.0
1333.009399 176.0
1333.329102 172.0
1336.092163 160.0
1336.419556 128.0
1336.776123 140.0
1342.552856 204.0
1344.113892 208.0
1346.983032 52.0
1352.650024 48.0
1352.847656 176.0
1358.512207 192.0
1363.519775 204.0
1365.40918 132.0
1366.939331 152.0
1367.064453 268.0
1368.55127 132.0
1369.700195 140.0
1370.178955 96.0
1370.886353 164.0
1372.743896 188.0
1374.920166 172.0
1375.208008 220.0
1375.672974 204.0
1379.270386 168.0
1380.978271 36.0
1383.109253 224.0
1385.026978 196.0
1385.678833 208.0
1385.782593 184.0
1386.47168 136.0
1387.509399 96.0
1388.161865 48.0
1389.660156 216.0
1389.838257 120.0
1389.994019 180.0
1391.245239 176.0
1394.9552 156.0
1395.512695 224.0
1397.349731 152.0
1398.153442 156.0
1398.86792 144.0
1399.590088 216.0
1399.664551 172.0
1400.111328 256.0
1400.848633 156.0
1401.675659 148.0
1402.734009 164.0
1404.232666 160.0
1404.501099 180.0
1407.12793 168.0
1409.107056 60.0
1410.085938 216.0
1410.781006 168.0
1410.953003 104.0
1411.012817 52.0
1411.109985 72.0
1411.289429 128.0
1411.782959 44.0
1413.801758 144.0
1417.659424 144.0
1417.764282 48.0
1418.881104 260.0
1419.21106 184.0
1419.938354 168.0
1420.455933 192.0
1421.446289 200.0
1423.638184 188.0
1423.825928 180.0
1425.967041 160.0
1426.20752 44.0
1428.500977 184.0
1429.637085 204.0
1429.84021 164.0
1432.136475 184.0
1432.294678 196.0
1433.070679 108.0
1433.869385 124.0
1435.490112 196.0
1436.651733 160.0
1436.870483 236.0
1440.6073 144.0
1441.710449 56.0
1442.957642 212.0
1443.069946 140.0
1443.532227 116.0
1445.408203 116.0
1446.051392 144.0
1447.012695 140.0
1447.2323 108.0
1447.32312 104.0
1447.436768 132.0
1448.066284 208.0
1448.837891 108.0
1449.512207 204.0
1450.618774 116.0
1451.316162 204.0
1451.695312 196.0
1453.599365 156.0
1455.998169 196.0
1456.658936 136.0
1457.069092 48.0
1459.546875 232.0
1459.980347 184.0
1460.09436 216.0
1460.839722 172.0
1462.673584 240.0
1463.14563 132.0
1465.643677 152.0
1466.146606 180.0
1467.945679 172.0
1468.555786 164.0
1468.700684 52.0
1468.937134 60.0
1469.216919 120.0
1469.371948 200.0
1471.134888 164.0
1471.699829 248.0
1473.158447 196.0
1475.107056 132.0
1475.282837 156.0
1475.588623 36.0
1476.460327 136.0
1476.842773 196.0
1477.255859 164.0
1480.531616 208.0
1481.542725 192.0
1481.634644 152.0
1483.887817 64.0
1484.34021 188.0
1484.876953 180.0
1485.164551 40.0
1485.321777 108.0
1485.40625 212.0
1487.224731 152.0
1489.30542 140.0
1490.496216 148.0
1491.702759 188.0
1492.602295 196.0
1493.05603 88.0
1494.218506 152.0
1494.525269 200.0
1496.973022 192.0
1498.189941 116.0
1498.681152 200.0
1498.883301 172.0
1499.862061 156.0
1500.679199 200.0
1501.087891 216.0
1501.257446 168.0
1502.190674 64.0
1503.309448 160.0
1503.672119 156.0
