>compound Staurosporine
>formula C28H26N4O3 
>ionization [M+H]+
>parentmass 467.205902
#inchi InChI=1S/C28H26N4O3/c1-28-26(34-3)17(29-2)12-20(35-28)31-18-10-6-4-8-14(18)22-23-16(13-30-27(23)33)21-15-9-5-7-11-19(15)32(28)25(21)24(22)31/h4-11,17,20,26,29H,12-13H2,1-3H3,(H,30,33)/t17-,20?,26-,28+/m1/s1
#inchikey HKSZLNNOFSGOKW
#Ion_Source LC-ESI
#Instrument qTof
#Compound_Source Isolated
#PI Fenical-Jensen-Moore
#Data_Collector Max
#Scan -1
#Precursor_MZ 467.208
#ExactMass 466.2
#Charge 1
#CAS_Number N/A
#Pubmed_ID N/A
#Smiles N/A
#INCHI_AUX N/A
#Library_Class 1
#SpectrumID CCMSLIB00000001655
#IonMode Positive
#UpdateWorkflowName UPDATE-SINGLE-ANNOTATED-GOLD
#LibraryQualityString Gold
#TaskID d14a5843653040ba9fa2c4376f2be358
##Scan# 1
#SpectrumFile e4.mgf
#LibraryName gnps_library.mgf
#MQScore -1
#Organism gnps_library
#TIC_Query 0
#RT_Query -1
#MZErrorPPM -1
#SharedPeaks 0
#MassDiff 0
#LibMZ -1
#SpecMZ 467.208
#SpecCharge 0
#internalFilename spec-00000.mgf

>collision 10
58.027966 20.01936
58.066936 14.22778
73.051628 72.116257
88.075836 1066.968018
88.139503 12.34064
88.162636 19.28944
89.079102 62.83535
130.086411 1223.583008
130.192551 25.012159
130.936798 11.52381
131.086716 107.174599
235.053925 10.80671
282.106506 10.90936
295.121155 247.741806
296.123016 61.600609
297.126648 10.00082
309.094147 10.68504
338.12912 1979.432983
338.298767 26.793751
338.351593 15.06716
338.780884 11.14525
339.133331 739.556274
339.292511 15.11198
340.134583 118.397003
341.141327 13.56488
467.205902 15.70238
468.208588 18.27669
