>compound Terbinafine (Lamisil, Terbinex)
>formula C21H25N
>ionization [M+H]+
>parentmass 292.20755
#inchi InChI=1S/C21H25N/c1-21(2,3)15-8-5-9-16-22(4)17-19-13-10-12-18-11-6-7-14-20(18)19/h5-7,9-14H,16-17H2,1-4H3/b9-5+
#inchikey DOMXUEMWDBAQBQ
#Ion_Source LC-ESI
#Instrument qTof
#Compound_Source Commercial
#PI Dorrestein
#Data_Collector Garg_Neha
#Scan -1
#Precursor_MZ 292.206
#ExactMass 291.199
#Charge 1
#CAS_Number 91161-71-6
#Pubmed_ID N/A
#Smiles C1=CC=C2C(=C1)C(=CC=C2)CN(C)C/C=C/C#CC(C)(C)C
#INCHI_AUX N/A
#Library_Class 1
#SpectrumID CCMSLIB00000078259
#IonMode Positive
#UpdateWorkflowName UPDATE-SINGLE-ANNOTATED-GOLD
#LibraryQualityString Gold
#TaskID 77f51c88eb8b467eb4a01dd2d0cb90d2
##Scan# 1319
#SpectrumFile Plate4_21_40_GH3_01_16504.mzXML
#LibraryName FDALibrary_2_04302014.mgf
#MQScore -1
#Organism FDALibrary_2_04302014
#TIC_Query 0
#RT_Query -1
#MZErrorPPM -1
#SharedPeaks 0
#MassDiff 0
#LibMZ -1
#SpecMZ 292.206
#SpecCharge 0
#internalFilename spec-00000.mgf

>collision 10
44.897839 160.0
44.907177 140.0
44.927185 144.0
44.937859 216.0
44.958595 184.0
44.983231 360.0
45.019646 132.0
45.0313 160.0
45.062168 148.0
45.07827 200.0
45.141117 116.0
45.161041 132.0
45.173481 140.0
45.190376 144.0
45.211784 176.0
45.222492 140.0
45.25563 164.0
45.267879 124.0
45.302761 148.0
45.332191 184.0
45.335693 168.0
45.352325 188.0
45.37252 180.0
45.400703 216.0
45.415432 208.0
45.426163 144.0
45.435551 228.0
45.463699 236.0
45.488708 360.0
45.506683 152.0
45.565205 188.0
45.59409 172.0
45.611835 248.0
45.68766 176.0
45.707283 164.0
45.782043 164.0
45.810623 204.0
45.823845 152.0
45.855087 160.0
45.904526 196.0
45.934639 176.0
45.968369 148.0
45.980515 180.0
46.009422 200.0
46.049026 348.0
46.123821 156.0
46.147575 136.0
46.164997 156.0
46.195351 156.0
46.205158 264.0
46.230312 200.0
46.294155 200.0
46.31176 180.0
46.330341 212.0
46.345627 148.0
46.371971 188.0
46.385136 184.0
46.401836 136.0
46.419697 292.0
46.467358 240.0
46.512608 156.0
46.538227 196.0
46.58033 196.0
46.599579 308.0
46.656429 152.0
46.701962 140.0
46.730827 176.0
46.765907 232.0
46.807564 196.0
46.830605 176.0
46.847603 200.0
46.89156 168.0
46.923267 148.0
46.957027 148.0
46.97509 180.0
46.996918 140.0
47.007835 152.0
47.040501 124.0
47.04393 116.0
47.081551 172.0
47.12936 148.0
47.153957 140.0
47.174461 160.0
47.257919 328.0
47.281013 148.0
47.333168 220.0
47.35371 176.0
47.378365 156.0
47.433178 140.0
47.445515 300.0
47.455898 168.0
47.472939 384.0
47.503113 224.0
47.514149 180.0
47.534668 164.0
47.552509 196.0
47.590237 124.0
47.613705 348.0
47.669239 176.0
47.67886 148.0
47.68848 204.0
47.710457 168.0
47.733391 120.0
47.747601 148.0
47.762691 140.0
47.800987 168.0
47.860264 156.0
47.886604 144.0
47.910896 296.0
47.921043 224.0
47.9375 184.0
47.965141 176.0
47.977303 156.0
48.01202 148.0
48.052021 148.0
48.068096 252.0
48.083759 160.0
48.094799 148.0
48.110626 224.0
48.126553 164.0
48.159554 196.0
48.174629 128.0
48.185684 236.0
48.200089 420.0
48.237076 156.0
48.24675 140.0
48.273521 144.0
48.287277 152.0
48.317635 124.0
48.36018 224.0
48.387863 164.0
48.434948 196.0
48.450184 192.0
48.459885 248.0
48.483669 168.0
48.496429 204.0
48.519855 192.0
48.549984 176.0
48.598347 120.0
48.603783 184.0
48.619625 180.0
48.630451 160.0
48.642944 140.0
48.665154 152.0
48.68578 164.0
48.710743 184.0
48.737381 164.0
48.752319 160.0
48.760426 288.0
48.770969 164.0
48.786953 104.0
48.797802 212.0
48.835773 136.0
48.846733 292.0
48.89925 384.0
48.914654 316.0
48.932098 176.0
48.962971 212.0
48.972855 308.0
49.03883 136.0
49.075607 240.0
49.090942 176.0
49.1021 192.0
49.135403 160.0
49.154182 204.0
49.173256 184.0
49.193218 184.0
49.21883 136.0
49.233288 180.0
49.26326 148.0
49.273365 212.0
49.286228 164.0
49.329693 200.0
49.344986 200.0
49.359402 176.0
49.385063 460.0
49.423359 160.0
49.443604 136.0
49.490582 148.0
49.503181 156.0
49.529316 212.0
49.573944 216.0
49.59119 156.0
49.614071 340.0
49.635719 184.0
49.658058 320.0
49.692646 212.0
49.727554 172.0
49.762585 160.0
49.782639 124.0
49.809742 152.0
49.869724 148.0
49.901676 176.0
49.962643 176.0
49.975872 176.0
50.022663 288.0
50.03252 144.0
50.067192 160.0
50.087437 160.0
50.124069 164.0
50.14098 176.0
50.164658 160.0
50.180447 164.0
50.233536 188.0
50.296124 140.0
50.306957 160.0
50.332184 128.0
50.366562 152.0
50.394978 188.0
50.411934 196.0
50.434582 316.0
50.475548 160.0
50.537136 316.0
50.548901 116.0
50.580238 200.0
50.663471 180.0
50.66832 140.0
50.689289 164.0
50.736061 184.0
50.8172 212.0
50.849541 176.0
50.888435 148.0
50.936562 152.0
50.970249 232.0
50.991783 180.0
51.011463 192.0
51.031311 208.0
51.055973 140.0
51.084179 180.0
51.09679 156.0
51.119179 136.0
51.128143 228.0
51.157543 168.0
51.173645 164.0
51.248951 216.0
51.266525 156.0
51.287609 148.0
51.320396 244.0
51.333435 168.0
51.360947 148.0
51.373165 168.0
51.443729 148.0
51.45594 172.0
51.479683 220.0
51.578644 140.0
51.604633 428.0
51.648857 172.0
51.676022 180.0
51.707138 224.0
51.728989 192.0
51.757954 200.0
51.794857 176.0
51.859337 160.0
51.869797 188.0
51.905212 112.0
51.958023 224.0
51.990505 148.0
52.025909 160.0
52.055882 168.0
52.169388 180.0
52.182323 176.0
52.204525 292.0
52.220364 312.0
52.245163 104.0
52.265884 124.0
52.288063 244.0
52.380634 164.0
52.405617 168.0
52.441437 180.0
52.479855 160.0
52.50721 168.0
52.537094 188.0
52.54974 192.0
52.587692 348.0
52.606968 116.0
52.642796 144.0
52.681652 160.0
52.69397 180.0
52.715252 476.0
52.739323 104.0
52.776352 284.0
52.786472 176.0
52.806648 164.0
52.816238 372.0
52.853012 172.0
52.870487 104.0
52.895679 164.0
52.921272 176.0
52.955795 140.0
52.971237 136.0
52.99342 140.0
53.02063 184.0
53.04998 164.0
53.077526 244.0
53.094929 176.0
53.109432 220.0
53.119587 200.0
53.229847 184.0
53.282177 180.0
53.292347 260.0
53.304539 204.0
53.335941 148.0
53.35601 244.0
53.398464 156.0
53.429626 104.0
53.461021 156.0
53.493042 144.0
53.519245 172.0
53.535263 148.0
53.561878 128.0
53.577503 256.0
53.596516 408.0
53.613647 164.0
53.645996 156.0
53.658672 184.0
53.672237 240.0
53.716785 176.0
53.748089 140.0
53.765598 164.0
53.778435 136.0
53.802437 168.0
53.815231 168.0
53.838593 140.0
53.853977 164.0
53.877522 400.0
53.909916 180.0
53.96172 212.0
54.015236 196.0
54.020283 168.0
54.025093 152.0
54.041153 328.0
54.064072 152.0
54.083584 176.0
54.097099 284.0
54.113495 168.0
54.144245 140.0
54.163044 112.0
54.198444 188.0
54.215694 156.0
54.266129 200.0
54.30986 160.0
54.325016 120.0
54.337063 184.0
54.39056 148.0
54.409645 140.0
54.537029 128.0
54.566845 200.0
54.578606 172.0
54.601913 160.0
54.653622 184.0
54.672363 172.0
54.693356 196.0
54.753723 156.0
54.778545 164.0
54.818542 140.0
54.846542 164.0
54.871712 168.0
54.956184 356.0
54.980915 156.0
54.997578 232.0
55.016594 172.0
55.102215 172.0
55.129913 164.0
55.154354 156.0
55.170834 376.0
55.198189 128.0
55.216591 228.0
55.233406 152.0
55.27483 156.0
55.287308 168.0
55.314568 212.0
55.33189 160.0
55.344234 144.0
55.371056 192.0
55.48222 164.0
55.534084 180.0
55.551201 188.0
55.56308 240.0
55.58601 160.0
55.604591 144.0
55.662628 252.0
55.68486 144.0
55.70924 160.0
55.72261 172.0
55.764763 236.0
55.791103 136.0
55.807789 168.0
55.827431 108.0
55.839931 268.0
55.853313 204.0
55.893894 216.0
55.914433 168.0
55.936653 188.0
55.993847 244.0
56.006187 204.0
56.032066 140.0
56.070808 148.0
56.233223 160.0
56.250637 296.0
56.273678 328.0
56.286129 172.0
56.327145 384.0
56.342209 176.0
56.361462 176.0
56.39706 188.0
56.445702 152.0
56.473518 164.0
56.510208 140.0
56.52116 164.0
56.542221 240.0
56.620594 208.0
56.63419 156.0
56.668526 188.0
56.742023 108.0
56.821453 200.0
56.865463 280.0
56.888985 156.0
56.907001 144.0
56.950462 348.0
56.982098 164.0
56.992615 220.0
57.019665 172.0
57.035694 240.0
57.080132 160.0
57.121906 152.0
57.159164 136.0
57.20892 136.0
57.236401 156.0
57.250366 160.0
57.288303 192.0
57.304066 252.0
57.337215 208.0
57.362839 316.0
57.386341 292.0
57.42392 200.0
57.487961 192.0
57.501606 216.0
57.549911 180.0
57.560478 172.0
57.648094 148.0
57.684368 164.0
57.702057 156.0
57.72065 344.0
57.735775 156.0
57.801746 248.0
57.807991 148.0
57.824402 172.0
57.843918 160.0
57.860775 216.0
57.908306 152.0
57.920422 224.0
57.948662 300.0
57.96579 144.0
58.028019 400.0
58.045174 192.0
58.092487 188.0
58.140266 144.0
58.17733 160.0
58.217018 100.0
58.249672 204.0
58.263256 200.0
58.281487 148.0
58.308842 152.0
58.33012 212.0
58.344597 152.0
58.406178 212.0
58.419231 188.0
58.43647 176.0
58.4538 168.0
58.49374 176.0
58.528492 168.0
58.58416 336.0
58.601845 420.0
58.678143 216.0
58.697731 192.0
58.72448 192.0
58.748886 164.0
58.767193 180.0
58.78643 112.0
58.846561 172.0
58.867939 168.0
58.892372 216.0
58.932091 164.0
58.944317 144.0
59.01004 140.0
59.031445 176.0
59.051727 184.0
59.068153 168.0
59.10128 208.0
59.127823 180.0
59.146713 140.0
59.165699 172.0
59.187271 120.0
59.215092 196.0
59.236534 148.0
59.247257 244.0
59.264111 248.0
59.297825 160.0
59.342918 220.0
59.374481 276.0
59.434307 160.0
59.486385 120.0
59.520824 200.0
59.56736 108.0
59.602722 152.0
59.64497 160.0
59.658539 156.0
59.675755 152.0
59.735294 188.0
59.748341 264.0
59.767349 192.0
59.783138 392.0
59.806885 120.0
59.858551 208.0
59.888638 216.0
59.906296 148.0
59.94173 172.0
59.955269 288.0
59.981804 376.0
60.020672 132.0
60.040291 120.0
60.060108 204.0
60.077412 232.0
60.119476 304.0
60.148396 188.0
60.188786 172.0
60.256016 220.0
60.269627 144.0
60.293579 156.0
60.307072 140.0
60.331505 164.0
60.381699 140.0
60.404007 256.0
60.422268 176.0
60.460396 180.0
60.491184 100.0
60.573627 184.0
60.586975 156.0
60.606159 164.0
60.670437 196.0
60.723976 172.0
60.746819 124.0
60.787582 220.0
60.827934 168.0
60.841103 224.0
60.854923 156.0
60.872738 112.0
60.905918 108.0
60.919212 172.0
60.980827 184.0
61.019497 116.0
61.059174 116.0
61.073128 160.0
61.138561 140.0
61.15279 260.0
61.247158 316.0
61.279938 160.0
61.296066 240.0
61.310089 176.0
61.340237 140.0
61.376354 228.0
61.400162 196.0
61.432091 148.0
61.460571 120.0
61.475174 228.0
61.499413 308.0
61.527195 148.0
61.555004 160.0
61.606548 168.0
61.637428 188.0
61.736416 180.0
61.761112 200.0
61.795368 184.0
61.8255 172.0
61.855183 200.0
61.875633 256.0
61.912525 180.0
61.925575 280.0
61.949306 332.0
61.975475 148.0
62.004845 196.0
62.053677 136.0
62.112164 140.0
62.128834 240.0
62.139614 360.0
62.216072 212.0
62.265129 244.0
62.291245 188.0
62.33382 192.0
62.42942 148.0
62.442001 156.0
62.456944 128.0
62.49073 184.0
62.500229 232.0
62.528103 352.0
62.541122 152.0
62.558437 140.0
62.586102 168.0
62.616695 204.0
62.640324 180.0
62.65765 176.0
62.674175 156.0
62.73204 176.0
62.764492 176.0
62.817036 252.0
62.831638 120.0
62.862099 96.0
62.901115 176.0
62.91629 156.0
62.942062 140.0
62.992092 164.0
63.040207 132.0
63.050232 296.0
63.076313 196.0
63.114872 180.0
63.138744 168.0
63.163757 120.0
63.187428 156.0
63.226093 348.0
63.245945 96.0
63.281498 180.0
63.324253 164.0
63.395103 352.0
63.411392 180.0
63.463551 208.0
63.466553 216.0
63.513443 176.0
63.529202 200.0
63.594936 160.0
63.632225 168.0
63.652527 272.0
63.666748 212.0
63.718792 216.0
63.745434 188.0
63.760777 140.0
63.775017 192.0
63.797432 136.0
63.822433 172.0
63.837975 148.0
63.877361 128.0
63.90823 156.0
63.957767 288.0
63.973034 216.0
64.009338 256.0
64.062004 312.0
64.080658 208.0
64.113075 172.0
64.139351 140.0
64.150513 168.0
64.176292 164.0
64.190369 224.0
64.218117 340.0
64.23024 152.0
64.246193 196.0
64.278419 140.0
64.303604 140.0
64.340347 208.0
64.432976 172.0
64.494339 120.0
64.522476 144.0
64.575241 152.0
64.607231 288.0
64.653313 120.0
64.667076 188.0
64.684044 156.0
64.730476 160.0
64.773811 136.0
64.78904 120.0
64.80674 164.0
64.850624 160.0
64.867294 200.0
64.909378 248.0
65.00753 140.0
65.034531 188.0
65.051048 164.0
65.070396 164.0
65.083237 164.0
65.117767 200.0
65.137421 176.0
65.162361 304.0
65.190865 300.0
65.222839 116.0
65.232758 244.0
65.296967 192.0
65.317879 160.0
65.333839 160.0
65.36467 188.0
65.387703 176.0
65.458824 192.0
65.477943 168.0
65.508919 132.0
65.526825 316.0
65.543266 164.0
65.635139 156.0
65.681915 168.0
65.734238 268.0
65.752907 284.0
65.777092 184.0
65.799568 164.0
65.891769 212.0
65.930054 168.0
65.957664 196.0
65.995209 200.0
66.073509 184.0
66.096924 124.0
66.113976 404.0
66.135834 160.0
66.191322 200.0
66.206215 340.0
66.224564 236.0
66.260643 220.0
66.275978 300.0
66.287514 336.0
66.362747 156.0
66.391937 176.0
66.46331 140.0
66.496643 288.0
66.549423 148.0
66.565842 364.0
66.58181 184.0
66.598228 188.0
66.629471 140.0
66.647522 204.0
66.683777 200.0
66.706924 212.0
66.733444 132.0
66.754074 208.0
66.783203 136.0
66.803658 148.0
66.814949 196.0
66.843468 152.0
66.890862 104.0
66.921669 188.0
66.951645 332.0
66.981926 152.0
67.014503 168.0
67.028099 280.0
67.052933 172.0
67.128601 140.0
67.167519 344.0
67.194771 192.0
67.223221 188.0
67.271973 156.0
67.31118 132.0
67.326263 160.0
67.380943 152.0
67.463898 164.0
67.506302 232.0
67.548447 132.0
67.569611 156.0
67.592155 180.0
67.611832 224.0
67.639694 204.0
67.66423 108.0
67.682549 168.0
67.719887 160.0
67.772636 252.0
67.792809 272.0
67.844742 164.0
67.8778 148.0
67.903778 152.0
67.92514 324.0
68.08609 116.0
68.098183 364.0
68.119385 156.0
68.179146 120.0
68.194695 176.0
68.235954 400.0
68.284157 116.0
68.30381 168.0
68.345673 160.0
68.361176 188.0
68.378006 360.0
68.433556 228.0
68.462753 224.0
68.479103 220.0
68.494293 188.0
68.507172 172.0
68.556442 160.0
68.601791 204.0
68.616333 192.0
68.654678 200.0
68.686691 328.0
68.714241 200.0
68.757645 172.0
68.771255 160.0
68.802719 220.0
68.847847 232.0
68.871521 160.0
68.891747 332.0
68.965744 180.0
68.977318 148.0
68.994148 176.0
69.025261 212.0
69.036835 152.0
69.083046 136.0
69.169197 168.0
69.19297 184.0
69.242043 160.0
69.27742 124.0
69.295052 148.0
69.318253 312.0
69.338135 272.0
69.351395 172.0
69.372681 212.0
69.397911 156.0
69.424347 196.0
69.460831 184.0
69.482399 188.0
69.503967 144.0
69.530518 164.0
69.542137 148.0
69.634575 148.0
69.709869 160.0
69.758072 148.0
69.773033 164.0
69.81308 188.0
69.832893 232.0
69.880348 152.0
69.901566 144.0
69.937531 184.0
69.979332 172.0
70.015465 200.0
70.063988 220.0
70.179268 148.0
70.212616 168.0
70.230965 156.0
70.242645 200.0
70.260124 200.0
70.3554 172.0
70.368279 352.0
70.398605 196.0
70.448669 224.0
70.469017 220.0
70.500519 148.0
70.536339 176.0
70.593376 196.0
70.632805 172.0
70.654305 112.0
70.671112 144.0
70.701691 540.0
70.722908 264.0
70.740326 140.0
70.783363 172.0
70.828667 204.0
70.852478 204.0
70.869568 328.0
70.891495 140.0
70.92926 236.0
70.958191 200.0
71.001678 192.0
71.025818 232.0
71.056625 336.0
71.073288 200.0
71.092361 120.0
71.134544 164.0
71.171478 372.0
71.201706 212.0
71.218498 204.0
71.235107 144.0
71.272255 188.0
71.297462 164.0
71.350449 148.0
71.374794 204.0
71.394966 140.0
71.408424 176.0
71.437019 140.0
71.576385 144.0
71.580658 116.0
71.645256 268.0
71.671631 204.0
71.690178 100.0
71.705452 212.0
71.744934 156.0
71.765427 176.0
71.791908 264.0
71.807625 160.0
71.82782 180.0
71.855232 240.0
71.882828 192.0
71.900375 184.0
71.919678 292.0
71.974648 160.0
72.081062 208.0
72.093193 136.0
72.136841 144.0
72.162193 192.0
72.192635 272.0
72.281357 196.0
72.32338 188.0
72.408249 176.0
72.434601 324.0
72.456429 212.0
72.485878 172.0
72.542519 196.0
72.565147 156.0
72.59053 136.0
72.606514 212.0
72.664253 116.0
72.719986 280.0
72.73394 192.0
72.777367 244.0
72.811623 280.0
72.841766 284.0
72.876289 188.0
72.906334 160.0
73.054253 156.0
73.112106 256.0
73.141754 180.0
73.226784 292.0
73.241318 184.0
73.274689 132.0
73.318993 248.0
73.358414 144.0
73.371628 176.0
73.464806 152.0
73.484535 244.0
73.541588 156.0
73.556656 160.0
73.584267 228.0
73.607315 164.0
73.643997 188.0
73.66732 284.0
73.69651 184.0
73.729462 204.0
73.755791 148.0
73.823387 220.0
73.936844 228.0
73.968521 176.0
74.008286 164.0
74.038208 152.0
74.100868 144.0
74.1465 164.0
74.191605 148.0
74.208748 172.0
74.22258 124.0
74.237778 164.0
74.301361 320.0
74.330528 172.0
74.378609 320.0
74.464432 196.0
74.48848 164.0
74.510811 140.0
74.526276 160.0
74.546898 180.0
74.569527 168.0
74.642128 200.0
74.677551 172.0
74.68959 180.0
74.712776 176.0
74.739922 172.0
74.757263 108.0
74.77562 144.0
74.803162 200.0
74.823822 188.0
74.857262 228.0
74.901314 184.0
74.934265 216.0
74.958397 180.0
74.975395 168.0
75.003716 100.0
75.027046 176.0
75.079582 132.0
75.115128 184.0
75.173775 176.0
75.194824 172.0
75.241028 188.0
75.291641 180.0
75.314072 176.0
75.365387 152.0
75.398216 196.0
75.427597 156.0
75.503387 192.0
75.523987 164.0
75.563385 192.0
75.59536 176.0
75.662865 192.0
75.688835 152.0
75.721512 140.0
75.755508 208.0
75.788033 148.0
75.800117 180.0
75.82309 160.0
75.865318 148.0
75.882423 104.0
75.918625 152.0
75.946861 176.0
75.953857 156.0
75.958099 164.0
76.033257 216.0
76.068474 168.0
76.160896 152.0
76.182304 388.0
76.306274 168.0
76.338089 152.0
76.35173 152.0
76.376755 164.0
76.425797 124.0
76.443932 172.0
76.485703 172.0
76.499207 264.0
76.538261 188.0
76.577286 252.0
76.595398 160.0
76.655647 208.0
76.695557 100.0
76.717377 216.0
76.764847 196.0
76.843613 188.0
76.863251 144.0
76.881332 156.0
76.929459 216.0
76.987823 180.0
77.01577 144.0
77.061623 192.0
77.14682 136.0
77.173851 148.0
77.210403 164.0
77.22551 156.0
77.239502 164.0
77.274612 172.0
77.300735 176.0
77.323021 212.0
77.341698 128.0
77.38475 224.0
77.461411 200.0
77.484581 176.0
77.517662 200.0
77.539589 132.0
77.5578 184.0
77.59066 180.0
77.656677 204.0
77.688522 168.0
77.72654 168.0
77.744576 156.0
77.75988 156.0
77.787254 288.0
77.819229 312.0
77.844475 152.0
77.957199 160.0
77.971512 208.0
77.988213 180.0
78.058037 172.0
78.106018 144.0
78.149208 204.0
78.216339 172.0
78.239754 284.0
78.255043 228.0
78.312798 148.0
78.3507 160.0
78.386658 252.0
78.409279 180.0
78.435287 168.0
78.458862 332.0
78.470634 184.0
78.49469 156.0
78.512627 116.0
78.530502 144.0
78.588715 156.0
78.636749 200.0
78.650444 192.0
78.747597 176.0
78.761017 240.0
78.807785 216.0
78.902168 236.0
78.94191 176.0
78.977364 164.0
78.993317 196.0
79.019821 196.0
79.037514 172.0
79.070831 164.0
79.087067 148.0
79.135689 184.0
79.218102 160.0
79.235245 124.0
79.25885 152.0
79.29689 240.0
79.321007 164.0
79.348732 196.0
79.426743 356.0
79.452103 160.0
79.470367 108.0
79.49646 140.0
79.539055 164.0
79.601852 184.0
79.707771 192.0
79.75235 436.0
79.851395 152.0
79.886345 236.0
79.941429 180.0
80.006577 216.0
80.035065 176.0
80.055283 168.0
80.074295 236.0
80.163162 144.0
80.193611 160.0
80.219696 148.0
80.280968 172.0
80.29702 192.0
80.335739 192.0
80.363167 144.0
80.39135 96.0
80.40564 188.0
80.432259 120.0
80.444389 236.0
80.492096 204.0
80.505928 176.0
80.572609 184.0
80.60228 168.0
80.649963 400.0
80.687561 160.0
80.737076 228.0
80.852074 128.0
80.888191 160.0
80.933189 112.0
80.951248 328.0
80.982025 176.0
81.021942 188.0
81.048264 180.0
81.076302 292.0
81.101082 156.0
81.162537 140.0
81.262978 216.0
81.285446 212.0
81.327667 168.0
81.390419 268.0
81.408852 164.0
81.47821 168.0
81.526939 168.0
81.548546 164.0
81.588051 200.0
81.625809 148.0
81.65638 176.0
81.673386 208.0
81.697746 188.0
81.753525 156.0
81.792686 200.0
81.811119 180.0
81.876114 168.0
81.935387 184.0
81.955452 204.0
82.00386 220.0
82.023193 324.0
82.04789 140.0
82.097046 220.0
82.119102 152.0
82.159416 120.0
82.196083 156.0
82.210754 180.0
82.266739 184.0
82.311142 236.0
82.348106 200.0
82.373749 276.0
82.413498 168.0
82.426147 184.0
82.449554 180.0
82.487595 192.0
82.518326 164.0
82.568153 160.0
82.592758 224.0
82.655792 148.0
82.673973 172.0
82.755341 192.0
82.810768 204.0
82.834068 136.0
82.860886 116.0
82.907776 212.0
82.936111 188.0
82.996323 152.0
83.044243 188.0
83.070679 176.0
83.097527 180.0
83.13237 324.0
83.150513 244.0
83.164742 148.0
83.195442 176.0
83.219498 164.0
83.239159 116.0
83.263458 152.0
83.301086 108.0
83.366623 216.0
83.49189 124.0
83.538986 196.0
83.569107 192.0
83.601929 132.0
83.634636 144.0
83.662193 136.0
83.688591 164.0
83.73539 164.0
83.75779 196.0
83.776939 180.0
83.797867 140.0
83.815041 160.0
83.867538 260.0
83.889282 152.0
83.902573 312.0
83.960732 184.0
83.976517 156.0
84.00145 248.0
84.018089 172.0
84.047661 404.0
84.078682 164.0
84.138206 356.0
84.153526 288.0
84.180283 140.0
84.215614 140.0
84.257629 152.0
84.2855 156.0
84.313622 284.0
84.332596 152.0
84.350822 152.0
84.383896 240.0
84.425789 188.0
84.474838 176.0
84.502609 184.0
84.542274 136.0
84.559341 140.0
84.586517 132.0
84.600304 152.0
84.664642 340.0
84.75013 204.0
84.825096 172.0
84.851006 140.0
84.901932 160.0
84.921173 228.0
84.954048 152.0
84.968155 184.0
84.999153 200.0
85.015671 144.0
85.0588 116.0
85.091888 344.0
85.127647 180.0
85.187988 300.0
85.219528 208.0
85.250565 180.0
85.257988 312.0
85.285652 160.0
85.34462 208.0
85.360336 248.0
85.381256 152.0
85.441101 148.0
85.479401 192.0
85.499763 196.0
85.528397 152.0
85.558594 216.0
85.584534 308.0
85.607613 172.0
85.621689 124.0
85.649971 196.0
85.670258 164.0
85.688835 164.0
85.754974 228.0
85.81263 200.0
85.858559 160.0
85.891434 148.0
85.937553 156.0
85.957855 160.0
85.983688 164.0
86.001053 204.0
86.037308 164.0
86.054688 264.0
86.108833 148.0
86.155411 140.0
86.22747 164.0
86.266289 184.0
86.35025 156.0
86.449394 148.0
86.479004 232.0
86.504074 180.0
86.529633 160.0
86.567505 176.0
86.609726 352.0
86.634544 208.0
86.6716 144.0
86.696899 184.0
86.748497 364.0
86.769836 224.0
86.804718 128.0
86.839951 172.0
86.871834 176.0
86.909454 344.0
86.93306 144.0
86.969353 144.0
87.036392 168.0
87.071976 212.0
87.102013 164.0
87.179779 168.0
87.206062 152.0
87.235092 188.0
87.312035 240.0
87.338074 160.0
87.380859 220.0
87.395744 140.0
87.440727 184.0
87.4646 164.0
87.482414 168.0
87.520454 160.0
87.555832 152.0
87.584999 164.0
87.602394 164.0
87.625473 144.0
87.642311 124.0
87.695465 152.0
87.740082 168.0
87.786034 156.0
87.813026 164.0
87.830223 180.0
87.89241 144.0
87.923096 140.0
87.967216 188.0
87.995895 180.0
88.035057 140.0
88.061256 188.0
88.109024 232.0
88.137848 144.0
88.180588 404.0
88.278038 364.0
88.301201 188.0
88.3302 200.0
88.341751 196.0
88.371971 204.0
88.403374 144.0
88.446419 160.0
88.47953 152.0
88.533264 156.0
88.60112 236.0
88.620583 140.0
88.656944 276.0
88.680473 168.0
88.709412 192.0
88.722076 144.0
88.757408 168.0
88.796577 208.0
88.827461 160.0
88.866135 116.0
88.94426 132.0
88.975883 196.0
89.065895 128.0
89.149734 204.0
89.211029 216.0
89.255737 308.0
89.278877 184.0
89.308853 164.0
89.322174 144.0
89.377266 160.0
89.428078 208.0
89.465935 172.0
89.538887 168.0
89.555534 132.0
89.590759 168.0
89.623924 152.0
89.650307 224.0
89.673126 148.0
89.689163 220.0
89.712509 176.0
89.771957 384.0
89.853943 152.0
89.880363 140.0
89.927544 160.0
89.951042 196.0
89.98159 196.0
90.003052 332.0
90.033264 168.0
90.100609 184.0
90.122261 176.0
90.212463 176.0
90.231262 224.0
90.280647 168.0
90.293251 232.0
90.34864 136.0
90.381088 188.0
90.437859 192.0
90.511116 304.0
90.572807 188.0
90.607445 208.0
90.644463 128.0
90.701141 388.0
90.728539 248.0
90.835602 180.0
90.851105 192.0
90.907448 224.0
90.957031 124.0
91.003967 144.0
91.029358 144.0
91.053673 4844.0
91.087967 172.0
91.122589 144.0
91.153435 164.0
91.173737 296.0
91.237518 108.0
91.285896 160.0
91.364479 140.0
91.400932 252.0
91.432373 180.0
91.476151 140.0
91.495186 156.0
91.52327 188.0
91.540207 172.0
91.609451 192.0
91.64267 192.0
91.685616 144.0
91.708458 200.0
91.754112 176.0
91.778328 164.0
91.809677 164.0
91.928841 220.0
91.952797 176.0
91.992126 208.0
92.03717 376.0
92.056503 780.0
92.126183 156.0
92.211494 100.0
92.242989 152.0
92.264023 308.0
92.314522 216.0
92.340508 200.0
92.354904 136.0
92.375038 228.0
92.408592 236.0
92.436844 168.0
92.48436 192.0
92.562492 176.0
92.579872 164.0
92.641022 320.0
92.661263 196.0
92.683578 132.0
92.715744 160.0
92.759781 152.0
92.801521 168.0
92.823349 152.0
92.858414 264.0
92.902771 136.0
92.930344 232.0
92.964317 188.0
92.9804 148.0
93.015045 164.0
93.033096 212.0
93.069611 8296.0
93.183517 204.0
93.201126 136.0
93.235168 164.0
93.276192 188.0
93.310791 192.0
93.326172 184.0
93.343475 160.0
93.358864 264.0
93.378288 156.0
93.399345 108.0
93.42926 220.0
93.453117 160.0
93.472359 224.0
93.489288 200.0
93.574318 160.0
93.639839 200.0
93.685005 216.0
93.702988 208.0
93.734703 148.0
93.758682 204.0
93.78479 172.0
93.811401 212.0
93.840248 152.0
93.854675 196.0
93.876884 148.0
93.912735 272.0
93.930885 188.0
93.980629 184.0
93.999298 212.0
94.046661 156.0
94.073845 1176.0
94.104149 128.0
94.129669 216.0
94.177643 172.0
94.221657 288.0
94.246338 180.0
94.271767 172.0
94.327393 232.0
94.347237 164.0
94.371201 156.0
94.399269 212.0
94.450058 180.0
94.526237 132.0
94.581696 168.0
94.613304 148.0
94.658119 156.0
94.766037 420.0
94.786301 184.0
94.831924 160.0
94.855186 180.0
94.916595 148.0
94.963768 376.0
94.980194 160.0
94.993263 252.0
95.014206 184.0
95.03714 156.0
95.066498 164.0
95.086014 292.0
95.115356 152.0
95.13353 112.0
95.150642 180.0
95.177238 176.0
95.216072 152.0
95.286919 140.0
95.369225 160.0
95.452606 184.0
95.484818 332.0
95.500648 428.0
95.573242 152.0
95.596069 128.0
95.625175 152.0
95.639923 192.0
95.65313 456.0
95.6735 256.0
95.704163 204.0
95.717796 152.0
95.749008 144.0
95.769501 196.0
95.805794 132.0
95.837326 164.0
95.856094 272.0
95.872444 164.0
95.894196 152.0
95.92041 152.0
95.9711 148.0
95.997772 112.0
96.016991 292.0
96.032265 296.0
96.096642 152.0
96.117271 360.0
96.148888 260.0
96.182304 168.0
96.204521 180.0
96.224739 160.0
96.240356 256.0
96.277458 144.0
96.2966 100.0
96.371223 288.0
96.386002 184.0
96.483925 180.0
96.531273 200.0
96.563171 176.0
96.59967 108.0
96.63517 176.0
96.663437 108.0
96.701942 132.0
96.739548 132.0
96.76033 156.0
96.827705 200.0
96.877388 176.0
96.896072 184.0
96.916756 244.0
96.952385 168.0
97.019936 176.0
97.040489 220.0
97.103203 164.0
97.160744 172.0
97.260307 224.0
97.285225 172.0
97.348656 152.0
97.376556 176.0
97.407578 184.0
97.502342 172.0
97.524864 180.0
97.550705 228.0
97.611183 172.0
97.816338 192.0
97.892632 300.0
97.938583 160.0
97.954422 148.0
97.991058 224.0
97.997528 164.0
98.054909 152.0
98.069588 188.0
98.096031 296.0
98.141647 172.0
98.192528 140.0
98.239136 148.0
98.263931 152.0
98.318771 172.0
98.376419 212.0
98.393791 180.0
98.462044 308.0
98.498856 192.0
98.51268 144.0
98.57679 188.0
98.638054 188.0
98.660934 208.0
98.709549 204.0
98.75779 176.0
98.784409 140.0
98.798943 332.0
98.831726 320.0
98.852463 168.0
98.88063 176.0
98.900246 232.0
98.92202 164.0
98.982994 192.0
99.049805 196.0
99.074501 152.0
99.108185 148.0
99.194527 144.0
99.210083 144.0
99.290337 172.0
99.369644 220.0
99.383789 152.0
99.458946 124.0
99.535316 236.0
99.550529 204.0
99.583748 176.0
99.626595 148.0
99.683624 152.0
99.715416 220.0
99.740089 188.0
99.900337 164.0
99.93615 208.0
99.954681 152.0
99.983902 136.0
100.015747 204.0
100.061539 144.0
100.093391 188.0
100.13044 304.0
100.24437 332.0
100.301323 272.0
100.360138 156.0
100.448143 132.0
100.508064 256.0
100.544411 176.0
100.604454 288.0
100.629066 312.0
100.676674 160.0
100.746109 120.0
100.808144 408.0
100.827499 176.0
100.921455 140.0
100.986504 220.0
101.038658 220.0
101.115356 160.0
101.157524 156.0
101.215584 208.0
101.275879 152.0
101.316017 152.0
101.343414 288.0
101.366486 144.0
101.405899 160.0
101.423531 180.0
101.482574 160.0
101.549988 168.0
101.570312 152.0
101.611389 172.0
101.663803 216.0
101.720901 172.0
101.748459 124.0
101.807144 180.0
101.82473 148.0
101.858826 136.0
101.872292 284.0
101.885826 184.0
101.911827 172.0
101.936745 132.0
101.963837 176.0
102.000015 176.0
102.02816 212.0
102.045242 184.0
102.102562 208.0
102.116638 148.0
102.141678 268.0
102.166924 140.0
102.207161 100.0
102.229301 180.0
102.266121 216.0
102.297089 164.0
102.330559 280.0
102.38517 172.0
102.411758 184.0
102.441032 196.0
102.459709 168.0
102.493912 156.0
102.548637 156.0
102.604546 252.0
102.644264 164.0
102.667992 120.0
102.685661 160.0
102.71682 156.0
102.753693 172.0
102.798325 128.0
102.833427 212.0
102.88343 156.0
102.924736 280.0
102.984436 136.0
103.00914 152.0
103.028625 164.0
103.054199 1316.0
103.105812 176.0
103.148773 184.0
103.2034 188.0
103.267441 148.0
103.291138 140.0
103.310005 172.0
103.355278 144.0
103.403839 212.0
103.44635 176.0
103.475609 352.0
103.520187 204.0
103.566093 148.0
103.587425 144.0
103.658821 132.0
103.70639 148.0
103.751534 148.0
103.796684 152.0
103.849884 256.0
103.898346 184.0
103.926666 192.0
104.012871 204.0
104.058922 264.0
104.124039 292.0
104.154739 184.0
104.223106 168.0
104.291824 192.0
104.313065 136.0
104.396416 108.0
104.416222 148.0
104.489014 148.0
104.519493 196.0
104.560081 176.0
104.590965 312.0
104.611557 216.0
104.674553 136.0
104.760902 224.0
104.84446 252.0
104.948578 216.0
104.974319 160.0
104.992569 184.0
105.028381 108.0
105.069405 5840.0
105.122383 164.0
105.204636 180.0
105.227234 152.0
105.246796 144.0
105.274193 220.0
105.309868 220.0
105.328697 192.0
105.362854 128.0
105.384499 152.0
105.420586 204.0
105.458817 368.0
105.498741 288.0
105.513985 220.0
105.539185 176.0
105.58606 132.0
105.652931 216.0
105.670738 224.0
105.692268 176.0
105.748497 196.0
105.816048 192.0
105.838348 208.0
105.89006 112.0
105.920486 192.0
105.979897 172.0
106.028587 100.0
106.074989 1304.0
106.137825 160.0
106.187683 144.0
106.273102 144.0
106.303879 148.0
106.339905 140.0
106.455788 152.0
106.479004 104.0
106.535889 172.0
106.552322 180.0
106.595467 248.0
106.666985 168.0
106.695694 124.0
106.724968 212.0
106.784599 248.0
106.810379 196.0
106.827637 200.0
106.862495 204.0
106.883125 252.0
106.932205 260.0
106.978516 204.0
107.002304 156.0
107.051071 148.0
107.070602 180.0
107.102516 164.0
107.122086 192.0
107.183975 184.0
107.211174 200.0
107.254471 172.0
107.274658 184.0
107.290718 172.0
107.313484 240.0
107.337425 216.0
107.415443 204.0
107.476768 204.0
107.526016 176.0
107.530319 152.0
107.544968 168.0
107.619843 160.0
107.643967 204.0
107.660553 124.0
107.677559 136.0
107.794945 232.0
107.880768 176.0
107.906433 180.0
107.947731 204.0
108.003029 168.0
108.042786 180.0
108.078323 536.0
108.119667 140.0
108.144897 288.0
108.176125 164.0
108.193153 136.0
108.214653 152.0
108.258133 180.0
108.307838 140.0
108.328903 96.0
108.361542 104.0
108.379028 136.0
108.394714 180.0
108.441574 140.0
108.483284 192.0
108.535805 168.0
108.557533 192.0
108.592957 172.0
108.618126 100.0
108.691376 184.0
108.70797 140.0
108.73056 140.0
108.777153 204.0
108.805862 124.0
108.858429 140.0
108.89698 164.0
108.925652 340.0
108.99453 168.0
109.03244 148.0
109.100845 956.0
109.122574 192.0
109.139259 184.0
109.169037 160.0
109.214897 144.0
109.268082 176.0
109.287704 168.0
109.358459 160.0
109.409798 224.0
109.452042 208.0
109.495544 256.0
109.513306 216.0
109.581444 200.0
109.655914 176.0
109.714661 176.0
109.729256 140.0
109.776207 176.0
109.803345 180.0
109.840309 204.0
109.894127 156.0
109.922585 116.0
109.955971 116.0
109.98584 124.0
110.049461 168.0
110.100456 192.0
110.162926 152.0
110.182137 296.0
110.208359 152.0
110.254143 208.0
110.294983 172.0
110.443901 180.0
110.468536 228.0
110.510643 156.0
110.587807 124.0
110.630981 320.0
110.646416 140.0
110.709236 200.0
110.749481 220.0
110.848816 164.0
110.892395 308.0
110.927391 164.0
110.957832 116.0
111.01519 276.0
111.031967 156.0
111.142365 172.0
111.184006 136.0
111.197937 264.0
111.230118 136.0
111.296341 244.0
111.445503 188.0
111.463982 176.0
111.499268 300.0
111.550583 152.0
111.570625 252.0
111.630478 200.0
111.664124 172.0
111.692619 240.0
111.765099 140.0
111.79245 200.0
111.817368 124.0
111.88546 128.0
111.92086 200.0
111.939102 128.0
111.962975 164.0
111.985657 192.0
111.994316 204.0
112.10952 128.0
112.159912 288.0
112.186317 196.0
112.275131 164.0
112.363464 232.0
112.386475 208.0
112.393227 188.0
112.402 228.0
112.458427 196.0
112.482674 164.0
112.512352 140.0
112.530197 184.0
112.555534 140.0
112.587212 216.0
112.607719 152.0
112.638771 260.0
112.661133 156.0
112.726631 140.0
112.753273 192.0
112.784019 236.0
112.818901 128.0
112.839493 172.0
112.88961 172.0
112.945007 248.0
113.035645 196.0
113.056526 160.0
113.077171 164.0
113.093254 352.0
113.234856 136.0
113.27037 152.0
113.302139 216.0
113.340393 152.0
113.361473 164.0
113.398193 148.0
113.46109 152.0
113.483681 304.0
113.52684 212.0
113.543785 188.0
113.570717 132.0
113.653496 156.0
113.726189 144.0
113.761734 200.0
113.791176 136.0
113.799835 144.0
113.815697 200.0
113.860001 176.0
113.95034 212.0
114.017921 208.0
114.0746 152.0
114.099457 168.0
114.106956 164.0
114.140755 140.0
114.180916 140.0
114.206436 160.0
114.231964 184.0
114.271767 168.0
114.294334 176.0
114.320137 208.0
114.38517 328.0
114.456024 172.0
114.532097 188.0
114.556664 120.0
114.604523 168.0
114.639915 224.0
114.664192 148.0
114.723877 144.0
114.762253 308.0
114.807297 96.0
114.83049 140.0
114.952156 132.0
114.986237 296.0
115.014847 148.0
115.05381 21168.0
115.104515 128.0
115.146576 196.0
115.240486 188.0
115.27623 212.0
115.308723 204.0
115.325829 144.0
115.39637 196.0
115.425339 176.0
115.448784 156.0
115.475487 148.0
115.534615 156.0
115.562836 168.0
115.595291 208.0
115.630074 220.0
115.662094 132.0
115.695137 140.0
115.740845 144.0
115.775108 172.0
115.877922 204.0
115.901939 212.0
115.955269 172.0
115.986404 148.0
116.004364 168.0
116.03009 224.0
116.057068 1440.0
116.093658 184.0
116.142586 148.0
116.160904 152.0
116.187378 164.0
116.20723 196.0
116.344872 132.0
116.422157 144.0
116.473648 184.0
116.509254 180.0
116.561424 228.0
116.591507 148.0
116.624969 132.0
116.704247 240.0
116.735817 192.0
116.77182 240.0
116.822533 160.0
116.837593 172.0
116.865562 208.0
116.924805 248.0
116.966476 168.0
116.990456 124.0
117.059059 396.0
117.106407 132.0
117.138977 148.0
117.161491 136.0
117.184311 216.0
117.204834 288.0
117.286102 172.0
117.318253 164.0
117.375313 328.0
117.402641 168.0
117.429138 124.0
117.457512 176.0
117.506958 196.0
117.526947 148.0
117.559402 188.0
117.576668 220.0
117.60128 128.0
117.632782 136.0
117.656021 220.0
117.680275 316.0
117.723587 140.0
117.777458 240.0
117.820549 160.0
117.857391 144.0
117.954643 196.0
117.989571 132.0
118.056259 180.0
118.076698 208.0
118.116714 168.0
118.162964 156.0
118.192535 172.0
118.219383 176.0
118.273735 168.0
118.300987 216.0
118.360695 288.0
118.38736 228.0
118.447998 168.0
118.47023 184.0
118.495659 156.0
118.522141 144.0
118.570366 184.0
118.65387 156.0
118.685463 272.0
118.85685 204.0
118.885956 232.0
118.959755 232.0
118.983635 144.0
118.999985 180.0
119.043381 232.0
119.084595 2264.0
119.123787 312.0
119.149551 260.0
119.185623 164.0
119.211266 180.0
119.228722 252.0
119.266029 184.0
119.28994 160.0
119.321281 156.0
119.344292 172.0
119.402748 172.0
119.446381 156.0
119.47744 160.0
119.496582 128.0
119.572701 164.0
119.629295 212.0
119.652306 168.0
119.68428 124.0
119.747726 316.0
119.815529 108.0
119.848473 156.0
119.890663 152.0
119.911209 188.0
119.929893 164.0
119.946587 164.0
120.009727 192.0
120.032356 168.0
120.057892 444.0
120.084602 332.0
120.154739 148.0
120.189407 188.0
120.267967 216.0
120.291985 316.0
120.313812 160.0
120.348442 404.0
120.397606 160.0
120.423721 164.0
120.464493 188.0
120.556259 176.0
120.589043 188.0
120.613441 196.0
120.634941 276.0
120.687347 140.0
120.729156 176.0
120.789391 116.0
120.858299 184.0
120.883217 132.0
120.969635 184.0
121.046555 192.0
121.101074 11832.0
121.226875 124.0
121.309761 180.0
121.326027 152.0
121.342415 164.0
121.3881 216.0
121.41935 128.0
121.458565 184.0
121.484848 312.0
121.532043 172.0
121.571945 104.0
121.577278 120.0
121.585976 160.0
121.622849 168.0
121.646721 160.0
121.651604 148.0
121.693069 296.0
121.741951 196.0
121.773148 308.0
121.788795 332.0
121.8153 328.0
121.842438 184.0
121.908356 204.0
121.954514 256.0
121.971222 220.0
121.991875 220.0
122.012558 128.0
122.053032 152.0
122.104103 572.0
122.139534 176.0
122.158798 232.0
122.193718 144.0
122.23381 144.0
122.253616 180.0
122.352661 204.0
122.378448 144.0
122.461609 168.0
122.490173 164.0
122.544266 208.0
122.579521 208.0
122.609146 168.0
122.678703 172.0
122.727203 208.0
122.755875 192.0
122.773041 160.0
122.791153 140.0
122.864105 172.0
122.9049 196.0
122.949341 424.0
122.990189 116.0
123.018181 144.0
123.080162 432.0
123.105927 344.0
123.202118 180.0
123.250412 188.0
123.276024 164.0
123.311111 196.0
123.321358 224.0
123.367844 368.0
123.461708 236.0
123.565239 148.0
123.638138 184.0
123.65609 344.0
123.695213 96.0
123.71505 128.0
123.794411 252.0
123.839249 168.0
123.898582 152.0
124.018105 192.0
124.045036 268.0
124.082527 196.0
124.110611 204.0
124.15358 120.0
124.23555 160.0
124.300858 120.0
124.327919 260.0
124.367378 176.0
124.406891 172.0
124.447098 144.0
124.47963 172.0
124.542397 272.0
124.566307 160.0
124.597412 140.0
124.652596 188.0
124.708519 368.0
124.737411 168.0
124.774963 148.0
124.806076 104.0
124.819969 236.0
124.868591 224.0
124.944221 160.0
124.976906 304.0
125.006523 148.0
125.02655 156.0
125.057663 184.0
125.115738 172.0
125.166794 156.0
125.282608 168.0
125.329399 288.0
125.405167 188.0
125.42968 144.0
125.452896 260.0
125.583717 144.0
125.600693 352.0
125.654434 204.0
125.724091 168.0
125.743851 252.0
125.773186 148.0
125.842308 204.0
125.90715 164.0
125.934151 132.0
126.031685 144.0
126.050117 168.0
126.073669 156.0
126.14473 216.0
126.170815 156.0
126.20211 168.0
126.280144 180.0
126.322884 228.0
126.389526 152.0
126.424271 164.0
126.469978 280.0
126.498459 172.0
126.519333 168.0
126.582718 204.0
126.637276 148.0
126.716888 184.0
126.806976 200.0
126.844498 136.0
126.882858 156.0
126.914604 168.0
126.961967 240.0
127.019012 200.0
127.137482 168.0
127.165375 352.0
127.212875 148.0
127.255165 180.0
127.284401 256.0
127.312119 188.0
127.344337 124.0
127.393387 220.0
127.428299 208.0
127.484283 180.0
127.524681 172.0
127.563446 144.0
127.591606 224.0
127.600143 180.0
127.607872 192.0
127.706802 172.0
127.761635 136.0
127.820427 388.0
127.853294 132.0
127.871094 180.0
127.950371 172.0
127.980209 212.0
128.091751 296.0
128.141312 140.0
128.170837 188.0
128.224075 492.0
128.269455 116.0
128.303238 316.0
128.323029 224.0
128.34343 232.0
128.379654 168.0
128.408966 200.0
128.465942 328.0
128.494507 176.0
128.526871 156.0
128.580856 156.0
128.632935 168.0
128.666794 144.0
128.700668 176.0
128.746323 240.0
128.830154 216.0
128.907669 156.0
128.956085 168.0
128.980804 148.0
128.996063 144.0
129.069199 324.0
129.102173 164.0
129.193863 144.0
129.215988 144.0
129.2453 180.0
129.308762 148.0
129.344971 140.0
129.370758 112.0
129.379837 140.0
129.404266 168.0
129.449554 252.0
129.511765 424.0
129.576859 152.0
129.603149 176.0
129.62175 172.0
129.738815 288.0
129.788589 172.0
129.826218 296.0
129.868378 148.0
129.895538 200.0
129.922821 188.0
129.970474 168.0
130.005585 192.0
130.041977 252.0
130.068268 176.0
130.090759 144.0
130.111191 160.0
130.150574 184.0
130.183838 160.0
130.213364 176.0
130.231537 296.0
130.276718 144.0
130.341705 192.0
130.383759 176.0
130.479355 152.0
130.56044 120.0
130.636673 172.0
130.662292 144.0
130.683914 240.0
130.774109 280.0
130.830505 272.0
130.85791 224.0
130.902435 192.0
130.92244 204.0
131.007523 144.0
131.062408 104.0
131.084824 160.0
131.148819 192.0
131.194199 112.0
131.221344 216.0
131.257904 208.0
131.336609 160.0
131.357239 188.0
131.379944 212.0
131.453247 160.0
131.533966 248.0
131.595596 248.0
131.62529 176.0
131.662842 160.0
131.697586 152.0
131.777359 124.0
131.795654 292.0
131.852783 136.0
131.883438 156.0
131.906631 128.0
131.9375 264.0
131.980301 216.0
132.018127 96.0
132.068481 176.0
132.078384 152.0
132.156479 172.0
132.239319 140.0
132.285309 128.0
132.33577 208.0
132.361481 148.0
132.381165 100.0
132.405075 156.0
132.517319 144.0
132.596985 188.0
132.670868 192.0
132.716721 216.0
132.802826 176.0
132.826813 184.0
132.870422 160.0
132.89241 188.0
132.981308 176.0
133.035233 236.0
133.075714 676.0
133.102737 308.0
133.126755 324.0
133.17128 340.0
133.205139 152.0
133.258392 140.0
133.304352 148.0
133.352615 184.0
133.427002 200.0
133.456055 160.0
133.47905 184.0
133.510406 172.0
133.540085 180.0
133.659241 216.0
133.740692 144.0
133.773544 160.0
133.791962 148.0
133.855621 248.0
133.874847 144.0
133.922119 160.0
134.02919 140.0
134.047623 144.0
134.068008 156.0
134.093674 256.0
134.243561 148.0
134.282761 152.0
134.310593 128.0
134.340057 196.0
134.360626 388.0
134.395874 292.0
134.434418 392.0
134.478348 208.0
134.529221 168.0
134.558289 220.0
134.595108 196.0
134.627304 236.0
134.668198 144.0
134.688995 212.0
134.707474 228.0
134.735992 224.0
134.755981 156.0
134.783707 200.0
134.809357 164.0
134.873917 260.0
134.894638 152.0
134.927002 372.0
134.949158 288.0
135.004028 228.0
135.103165 508.0
135.142105 224.0
135.172028 316.0
135.252563 224.0
135.365082 276.0
135.403671 208.0
135.454025 152.0
135.481079 124.0
135.520676 196.0
135.555313 152.0
135.576126 156.0
135.595917 196.0
135.671036 336.0
135.708847 144.0
135.732803 144.0
135.786346 172.0
135.816238 176.0
135.834427 156.0
135.872299 188.0
135.892929 164.0
136.007828 160.0
136.030838 156.0
136.113693 588.0
136.148834 300.0
136.194565 176.0
136.228897 144.0
136.27356 244.0
136.308411 300.0
136.332825 100.0
136.383865 136.0
136.406021 144.0
136.452515 160.0
136.485062 140.0
136.511475 224.0
136.581024 136.0
136.612976 156.0
136.655289 240.0
136.68045 144.0
136.723251 236.0
136.823425 432.0
136.847961 180.0
136.933121 164.0
136.966797 172.0
136.992432 184.0
137.029709 208.0
137.094208 140.0
137.134613 184.0
137.169525 192.0
137.2332 116.0
137.308167 192.0
137.333389 188.0
137.386398 176.0
137.405762 188.0
137.461182 160.0
137.481949 172.0
137.489227 164.0
137.543777 144.0
137.614914 144.0
137.693634 204.0
137.745346 224.0
137.797607 176.0
137.829086 196.0
137.867035 184.0
137.909927 196.0
137.958084 228.0
138.009323 200.0
138.052734 268.0
138.1082 188.0
138.129242 288.0
138.162155 160.0
138.194748 180.0
138.226074 196.0
138.306015 380.0
138.382355 144.0
138.421738 156.0
138.466919 196.0
138.49205 176.0
138.529053 176.0
138.569366 164.0
138.597153 116.0
138.652649 140.0
138.677719 196.0
138.710663 136.0
138.742783 176.0
138.83667 188.0
138.868347 124.0
138.892868 148.0
138.964722 152.0
139.006714 144.0
139.053696 3168.0
139.109253 112.0
139.141479 204.0
139.15715 228.0
139.214401 228.0
139.269836 112.0
139.305664 192.0
139.344742 136.0
139.382675 180.0
139.390244 168.0
139.428009 160.0
139.462967 184.0
139.509186 216.0
139.538651 200.0
139.593994 164.0
139.628006 148.0
139.65274 152.0
139.672348 136.0
139.693069 296.0
139.789917 168.0
139.853455 268.0
139.968826 140.0
139.995132 160.0
140.036682 180.0
140.059662 900.0
140.106659 148.0
140.125961 236.0
140.178879 176.0
140.208435 148.0
140.277283 100.0
140.292984 376.0
140.337143 164.0
140.361908 204.0
140.398636 180.0
140.416977 156.0
140.439941 168.0
140.484604 248.0
140.536606 152.0
140.584656 160.0
140.616562 168.0
140.647064 180.0
140.660172 152.0
140.687729 220.0
140.708252 392.0
140.725449 252.0
140.745697 268.0
140.765335 476.0
140.802002 476.0
140.819443 384.0
140.851669 364.0
140.89592 448.0
140.938538 884.0
140.96991 1012.0
140.99707 1612.0
141.029495 1436.0
141.071442 410332.0
141.153732 272.0
141.206345 156.0
141.232346 160.0
141.273712 488.0
141.293396 412.0
141.326508 448.0
141.354828 704.0
141.415131 240.0
141.434021 1184.0
141.458633 24220.0
141.492279 412.0
141.528397 212.0
141.546677 272.0
141.587479 132.0
141.612778 128.0
141.632477 392.0
141.66095 224.0
141.701263 176.0
141.723648 432.0
141.791824 200.0
141.818466 200.0
141.839233 164.0
141.871933 248.0
141.949814 440.0
141.991211 152.0
142.019272 200.0
142.038971 564.0
142.07312 141604.0
142.165192 232.0
142.218094 164.0
142.24559 116.0
142.273926 236.0
142.296494 144.0
142.327347 196.0
142.41597 284.0
142.431702 168.0
142.474564 224.0
142.497665 164.0
142.516113 224.0
142.569839 128.0
142.620529 140.0
142.643875 248.0
142.700699 108.0
142.734253 256.0
142.762451 288.0
142.814636 268.0
142.841629 248.0
142.861099 304.0
142.897034 260.0
142.944992 224.0
142.968811 292.0
142.990784 280.0
143.0345 156.0
143.076645 5780.0
143.118546 320.0
143.138168 324.0
143.168533 640.0
143.206985 536.0
143.228668 348.0
143.243271 464.0
143.283463 156.0
143.313431 152.0
143.354889 116.0
143.378067 112.0
143.407913 128.0
143.466034 100.0
143.555878 96.0
143.581253 172.0
143.600922 120.0
143.694077 108.0
143.718536 184.0
143.813187 116.0
143.85733 140.0
143.952927 360.0
143.980072 100.0
144.000046 148.0
144.052277 136.0
144.078522 240.0
144.09494 204.0
144.135162 180.0
144.160355 164.0
144.25676 128.0
144.303223 196.0
144.377716 148.0
144.398972 152.0
144.530838 120.0
144.556015 112.0
144.639206 168.0
144.877472 96.0
144.903931 192.0
145.044815 180.0
145.091614 176.0
145.440994 168.0
145.503891 160.0
145.530533 152.0
145.588654 184.0
145.857742 208.0
146.143921 172.0
146.191223 152.0
146.485779 160.0
146.526093 136.0
146.707474 152.0
146.734406 96.0
146.823212 160.0
146.917282 164.0
147.031097 216.0
147.37117 356.0
147.43399 140.0
147.494415 168.0
147.943314 248.0
147.974884 144.0
148.007294 188.0
148.073807 160.0
148.428909 140.0
148.586517 160.0
148.66658 144.0
148.921829 108.0
148.983307 120.0
149.117279 180.0
149.324081 100.0
149.350723 196.0
149.481552 160.0
149.646606 124.0
149.782288 124.0
149.812424 164.0
149.850021 124.0
149.889511 244.0
149.911728 140.0
149.984848 156.0
150.025787 156.0
150.067734 168.0
150.126923 15048.0
150.192093 212.0
150.218933 172.0
150.360855 96.0
150.466705 244.0
150.487183 144.0
150.744934 108.0
150.763641 156.0
150.8134 140.0
150.899063 260.0
150.973648 236.0
150.995651 152.0
151.047012 144.0
151.130508 1568.0
151.268845 128.0
151.317383 100.0
151.438324 124.0
151.443405 128.0
151.47049 180.0
151.549255 156.0
151.748917 156.0
151.811157 144.0
151.833237 176.0
151.870026 148.0
152.061401 208.0
152.129807 112.0
152.311829 140.0
152.360962 168.0
152.43222 152.0
152.866623 144.0
152.910904 160.0
153.067535 468.0
153.089905 144.0
153.13089 160.0
153.576996 172.0
153.59903 296.0
153.625717 148.0
153.886383 128.0
153.985397 144.0
154.072296 356.0
154.449585 116.0
154.664719 216.0
155.008408 140.0
155.084427 680.0
155.107544 156.0
155.180679 200.0
155.502838 108.0
155.580215 160.0
155.629974 212.0
155.648392 188.0
155.939041 140.0
156.07402 256.0
156.119278 224.0
156.258362 136.0
156.324509 172.0
156.564911 204.0
156.934158 112.0
157.442947 172.0
157.518753 152.0
157.791153 144.0
157.886169 184.0
158.098083 180.0
158.213943 184.0
158.309494 124.0
158.629791 192.0
158.747635 152.0
158.817856 208.0
159.465637 300.0
159.500824 144.0
159.592026 116.0
159.707001 180.0
159.737183 152.0
159.845367 132.0
160.134888 164.0
160.379272 200.0
160.775452 96.0
160.878723 236.0
160.977203 152.0
161.487701 156.0
161.687561 180.0
161.771088 140.0
161.84198 140.0
161.984329 212.0
162.243149 220.0
162.712677 200.0
162.905502 252.0
163.00116 164.0
163.029114 160.0
163.202927 132.0
163.231415 316.0
163.609039 192.0
163.764374 156.0
163.812759 140.0
163.899384 164.0
163.963089 156.0
164.082901 252.0
164.142319 732.0
164.284363 156.0
164.307327 180.0
164.343048 160.0
164.440018 156.0
164.467712 188.0
164.853989 120.0
165.069534 2668.0
165.239471 168.0
165.276123 136.0
165.585403 180.0
165.767288 172.0
165.94928 184.0
166.039108 136.0
166.076019 224.0
166.173111 132.0
166.375168 148.0
166.400833 168.0
166.685562 136.0
166.733002 216.0
166.891571 204.0
166.91214 272.0
167.086075 1024.0
167.115341 168.0
167.138489 180.0
167.169373 176.0
167.649185 312.0
167.772079 148.0
167.803009 148.0
167.987579 204.0
168.1008 124.0
168.1306 168.0
168.294846 128.0
168.304184 148.0
168.406143 116.0
168.476593 188.0
168.507416 176.0
168.569901 140.0
168.69223 144.0
168.759827 204.0
168.854767 128.0
169.101334 376.0
169.224289 112.0
169.279373 180.0
169.32666 144.0
169.361267 144.0
169.457108 156.0
169.546097 188.0
169.809662 208.0
169.829453 152.0
169.993851 140.0
170.036087 292.0
170.095749 23612.0
170.203522 212.0
170.510986 152.0
170.624741 228.0
170.659714 220.0
170.744629 160.0
170.905899 148.0
171.045532 244.0
171.09874 3680.0
171.382111 268.0
171.408447 216.0
171.435593 124.0
171.513702 304.0
171.536819 140.0
171.880402 148.0
171.987976 128.0
172.106445 140.0
172.256363 144.0
172.319061 140.0
172.451233 172.0
172.61441 184.0
172.634705 132.0
172.723663 176.0
172.873383 172.0
173.048752 232.0
173.127319 208.0
173.234695 204.0
173.440079 148.0
173.501999 176.0
173.525589 160.0
173.625244 172.0
173.759445 172.0
174.377258 180.0
174.586685 156.0
174.632629 252.0
174.750275 312.0
175.185974 232.0
175.302444 164.0
175.385742 152.0
175.444778 156.0
175.502777 180.0
175.54834 216.0
175.582733 188.0
175.660431 180.0
175.70668 144.0
175.733475 120.0
175.82724 172.0
176.06221 160.0
176.26297 148.0
176.551102 140.0
176.5802 164.0
177.075317 152.0
177.178421 160.0
177.324036 172.0
177.469955 192.0
177.54155 220.0
177.774994 140.0
177.838699 180.0
178.079712 492.0
178.217361 168.0
178.310455 192.0
178.796951 148.0
178.903229 184.0
178.957855 144.0
179.084213 4012.0
179.134872 144.0
179.254318 120.0
179.343307 116.0
179.394775 144.0
179.490753 156.0
179.802872 180.0
180.087799 1040.0
180.131287 216.0
180.200378 180.0
180.291595 176.0
180.441269 140.0
181.013214 148.0
181.094406 508.0
181.222794 200.0
181.474976 176.0
181.702698 188.0
181.887863 172.0
182.070435 140.0
182.105347 148.0
182.30043 188.0
182.368652 152.0
182.397461 140.0
182.650986 160.0
182.790878 152.0
182.815094 192.0
182.938904 164.0
183.039764 144.0
183.117554 116.0
183.348312 144.0
184.114441 140.0
184.246841 160.0
184.300873 152.0
184.330597 196.0
184.54837 212.0
184.835342 196.0
184.985291 172.0
185.098816 140.0
185.183609 208.0
185.372406 144.0
185.442871 172.0
185.56485 140.0
185.648911 168.0
185.714005 232.0
185.761826 200.0
186.729782 164.0
187.065536 204.0
187.353119 148.0
187.55629 132.0
187.805618 148.0
187.944748 172.0
188.130341 144.0
188.153168 220.0
188.454788 140.0
188.66304 156.0
188.803375 172.0
188.876328 208.0
189.073395 184.0
189.190552 152.0
189.289597 164.0
189.327927 148.0
189.349838 148.0
189.369003 168.0
189.401871 148.0
189.579956 184.0
189.60463 164.0
189.714264 156.0
190.078278 1644.0
190.111023 128.0
190.479385 160.0
190.768402 156.0
191.084534 3844.0
191.198532 148.0
191.249771 196.0
191.285568 208.0
191.626953 116.0
191.918884 176.0
192.026749 144.0
192.088745 1136.0
192.203308 176.0
192.273087 124.0
192.393738 232.0
192.418594 268.0
192.458557 176.0
192.614655 236.0
192.78595 232.0
192.841522 188.0
192.979446 184.0
193.04628 164.0
193.100586 3712.0
193.134308 156.0
193.178558 180.0
193.602036 224.0
193.79039 140.0
194.102997 280.0
194.242279 140.0
195.103485 156.0
195.506439 184.0
195.561356 280.0
195.832169 152.0
195.977036 160.0
196.121948 368.0
196.186951 100.0
196.441971 172.0
196.744003 164.0
196.889191 160.0
197.213287 144.0
197.708313 180.0
197.866623 292.0
198.344086 144.0
198.571198 184.0
198.655334 172.0
199.015747 124.0
199.132507 168.0
199.205536 148.0
199.444382 144.0
199.676895 172.0
199.708694 160.0
199.764221 172.0
199.795883 144.0
199.907654 172.0
200.0215 164.0
200.164597 208.0
200.225235 256.0
200.569458 192.0
200.660492 148.0
200.770538 152.0
200.795837 224.0
200.900208 140.0
201.211945 200.0
201.470459 152.0
201.56369 176.0
201.651306 140.0
201.707825 156.0
201.733276 168.0
201.801117 192.0
201.906799 156.0
201.948166 156.0
202.077133 288.0
202.150208 144.0
202.499146 196.0
202.715378 148.0
203.013031 168.0
203.08342 2160.0
203.141006 136.0
203.367676 188.0
203.550995 152.0
203.651245 172.0
203.767288 176.0
203.991226 212.0
204.020996 168.0
204.09259 616.0
204.208664 160.0
204.251328 180.0
204.416351 152.0
204.557526 192.0
204.93457 324.0
204.966553 124.0
205.100082 13816.0
205.201645 244.0
205.269531 144.0
205.307983 164.0
205.481003 168.0
205.773102 208.0
206.104919 2932.0
206.154404 320.0
206.207291 144.0
206.266754 144.0
206.591003 180.0
206.982544 164.0
207.115128 2444.0
207.16011 180.0
207.588943 104.0
207.85968 160.0
207.919937 168.0
208.044205 132.0
208.114059 700.0
208.313293 152.0
208.457748 216.0
208.526855 124.0
208.824936 192.0
208.893967 152.0
209.03653 168.0
209.109497 172.0
209.128479 184.0
209.201874 156.0
209.44664 176.0
209.512894 164.0
209.748032 120.0
210.009766 156.0
210.072144 168.0
210.12822 220.0
210.170242 208.0
210.211426 132.0
210.385849 244.0
210.528183 188.0
210.652374 164.0
210.788162 188.0
210.964462 204.0
211.133484 152.0
211.262329 152.0
211.653046 144.0
211.674591 108.0
211.898041 184.0
212.235443 184.0
212.521225 156.0
213.007416 196.0
213.112 176.0
213.164307 156.0
213.300903 236.0
213.382843 168.0
213.565491 144.0
213.594299 160.0
213.658585 160.0
214.026657 136.0
214.176743 140.0
214.258301 156.0
214.308929 148.0
214.333832 156.0
214.398163 168.0
214.520798 156.0
214.946396 200.0
215.118591 164.0
215.175781 108.0
215.209091 188.0
215.281891 236.0
215.320969 256.0
215.39151 204.0
215.43396 156.0
215.743317 140.0
216.097122 216.0
216.303848 160.0
216.358078 152.0
216.448837 196.0
216.522049 156.0
217.099792 524.0
218.104141 572.0
218.226532 144.0
218.815369 188.0
219.11525 2880.0
219.4151 212.0
219.518295 156.0
219.652298 176.0
219.982788 172.0
220.032974 168.0
220.119614 828.0
220.209793 132.0
220.429916 184.0
220.59549 116.0
220.680008 148.0
221.034943 172.0
221.127258 560.0
221.197723 168.0
221.312012 136.0
221.600479 160.0
221.663284 160.0
222.126404 384.0
222.280136 108.0
222.433807 140.0
222.554123 204.0
222.645889 204.0
222.739639 168.0
223.001114 168.0
223.102188 164.0
223.136749 216.0
223.215164 164.0
223.23912 136.0
223.298431 140.0
223.536423 140.0
223.698456 188.0
223.985977 148.0
224.146072 316.0
224.196579 140.0
224.208069 96.0
224.555862 184.0
224.620895 180.0
224.764099 168.0
225.014816 172.0
225.092438 240.0
225.352905 208.0
225.650513 156.0
225.678085 148.0
225.830597 160.0
225.913086 180.0
225.956238 140.0
226.028046 152.0
226.086578 168.0
226.132782 192.0
226.995575 172.0
227.064545 196.0
227.088531 148.0
227.316208 180.0
228.279984 192.0
228.358994 148.0
228.413925 168.0
228.470108 136.0
228.497375 184.0
228.735107 148.0
228.789291 156.0
228.861252 164.0
229.019684 148.0
229.104416 156.0
229.378967 176.0
229.436996 144.0
229.883392 168.0
230.010147 240.0
230.209412 152.0
230.417831 144.0
230.605179 144.0
230.647385 116.0
230.778702 184.0
230.840988 220.0
230.906036 212.0
231.03154 164.0
231.116776 468.0
231.202332 156.0
231.400757 140.0
231.707764 140.0
231.800568 172.0
231.95665 104.0
232.120941 844.0
232.303864 148.0
232.370605 140.0
232.470398 148.0
232.558289 136.0
232.716873 132.0
232.912094 128.0
233.131561 824.0
233.568222 120.0
233.654129 132.0
233.710495 200.0
233.774384 232.0
234.051392 140.0
234.131744 540.0
234.270401 136.0
234.340744 140.0
234.383133 108.0
234.605896 192.0
234.926086 180.0
234.961792 176.0
235.017624 244.0
235.093903 260.0
235.146042 2344.0
235.273987 140.0
235.313675 192.0
235.461227 188.0
235.487732 176.0
235.536606 148.0
235.573029 160.0
235.924683 168.0
235.958313 168.0
236.012741 260.0
236.083679 236.0
236.14267 5332.0
236.365112 196.0
236.529587 172.0
236.83963 188.0
236.949493 156.0
237.148804 860.0
237.211716 100.0
237.339157 156.0
237.46489 172.0
237.650009 104.0
237.725662 168.0
237.817734 348.0
238.02034 168.0
238.050919 184.0
238.141342 448.0
238.69635 152.0
238.74556 176.0
238.822342 128.0
238.996078 132.0
239.157822 156.0
239.228622 180.0
239.884766 176.0
240.029663 152.0
240.433777 152.0
240.46991 164.0
240.609726 164.0
240.700912 124.0
240.733231 144.0
241.623398 164.0
241.726288 112.0
242.245651 164.0
242.548904 148.0
242.912125 148.0
242.935562 144.0
243.094711 244.0
243.186096 188.0
243.57019 152.0
243.644745 140.0
243.822495 156.0
243.952393 140.0
244.12114 236.0
244.438232 196.0
244.836044 140.0
244.917023 204.0
245.076767 188.0
245.131241 116.0
245.212921 128.0
245.253983 112.0
245.613052 184.0
245.68074 140.0
245.899155 224.0
246.13623 688.0
246.211349 204.0
246.242172 344.0
246.286316 176.0
246.392197 156.0
246.58313 164.0
246.748795 164.0
246.989594 180.0
247.145065 132.0
247.30986 264.0
247.53801 120.0
247.609314 144.0
247.693878 140.0
247.723541 144.0
247.778458 256.0
247.86618 304.0
248.117371 112.0
248.163956 152.0
248.214127 204.0
248.392883 156.0
248.456177 136.0
248.674423 176.0
248.731781 156.0
248.838516 180.0
249.001801 188.0
249.163208 3340.0
249.344238 188.0
249.784424 184.0
249.919708 144.0
250.1633 928.0
250.401337 144.0
250.445435 152.0
250.555679 140.0
250.675415 144.0
250.926224 140.0
251.144028 156.0
251.171112 392.0
251.35968 184.0
251.614426 220.0
252.572845 264.0
252.696213 184.0
253.061569 156.0
253.178314 144.0
253.462936 232.0
253.754044 144.0
254.093399 164.0
254.11879 176.0
254.204453 188.0
254.302841 140.0
254.544693 124.0
254.633026 196.0
255.628067 156.0
255.653519 248.0
255.722916 180.0
255.921997 164.0
256.032349 188.0
256.134277 188.0
256.158234 216.0
256.217102 140.0
256.299927 180.0
257.245697 96.0
257.279083 148.0
257.342926 168.0
257.598419 164.0
257.796509 176.0
258.094757 104.0
258.362946 124.0
258.599243 168.0
258.67926 168.0
258.810516 148.0
259.046448 172.0
259.412811 144.0
260.253357 148.0
260.402008 140.0
260.73053 176.0
260.773773 172.0
260.815552 216.0
260.857361 188.0
261.018097 172.0
261.163544 8420.0
261.250519 184.0
261.497955 176.0
261.537109 116.0
261.668945 128.0
261.710754 268.0
261.880554 140.0
261.918274 152.0
262.166168 2208.0
262.287262 108.0
262.573517 168.0
262.666687 220.0
262.700592 140.0
263.059509 128.0
263.131744 288.0
263.167999 248.0
263.409454 208.0
263.538696 208.0
263.87735 144.0
264.188812 128.0
264.360016 180.0
264.654572 156.0
264.879211 164.0
265.127502 212.0
265.578156 144.0
265.610931 152.0
265.730621 172.0
265.967529 168.0
266.133087 180.0
266.5177 184.0
267.003967 180.0
267.596191 328.0
267.697113 268.0
267.756226 108.0
267.970734 152.0
268.153198 188.0
268.215637 184.0
268.29007 156.0
268.644958 148.0
268.84787 200.0
268.890289 160.0
269.415985 144.0
269.742767 156.0
270.059937 148.0
270.354919 172.0
270.911011 144.0
271.209198 140.0
271.393951 168.0
271.674835 152.0
271.718719 156.0
271.829041 172.0
271.934052 224.0
272.319061 164.0
272.480316 136.0
272.630798 128.0
273.067535 144.0
273.111328 192.0
273.208984 140.0
273.245178 192.0
273.370209 180.0
273.637115 208.0
273.706879 208.0
273.90036 128.0
274.282501 192.0
274.338531 176.0
274.393219 136.0
274.432068 180.0
274.787048 152.0
274.88208 184.0
275.067535 148.0
275.226013 208.0
275.252441 168.0
275.344879 160.0
275.66864 160.0
276.022339 148.0
276.110107 208.0
276.211517 100.0
276.241119 132.0
276.296875 144.0
276.392822 144.0
276.419281 140.0
276.700623 172.0
276.929108 196.0
277.022888 192.0
277.114624 156.0
277.180206 372.0
277.359833 144.0
277.455963 160.0
277.921783 116.0
277.993286 144.0
278.046387 188.0
278.188354 136.0
278.394989 164.0
278.478455 120.0
279.155365 176.0
279.192535 248.0
279.242432 184.0
279.535187 204.0
279.72821 152.0
279.89801 216.0
280.391052 160.0
280.774109 212.0
281.347931 96.0
281.929535 224.0
282.43103 228.0
282.869354 156.0
283.170715 160.0
283.342712 132.0
283.763824 168.0
283.805084 184.0
283.902649 260.0
284.206543 172.0
284.381042 232.0
284.708008 136.0
284.750153 184.0
284.955292 204.0
285.829468 172.0
286.320953 176.0
286.53064 196.0
286.700531 112.0
287.256958 168.0
287.446686 120.0
287.500885 144.0
287.534637 216.0
287.707672 124.0
287.987061 216.0
288.040436 184.0
288.114502 148.0
288.16272 192.0
288.214417 200.0
288.280975 224.0
288.336151 148.0
288.412781 144.0
288.662964 188.0
288.772949 100.0
288.980927 144.0
289.180145 132.0
289.38028 192.0
289.487549 108.0
289.743958 152.0
289.948578 104.0
290.039398 120.0
290.074768 168.0
290.110718 140.0
290.162903 160.0
290.218292 204.0
290.251373 132.0
290.284302 176.0
290.313751 124.0
290.442841 124.0
290.551666 152.0
290.592072 180.0
290.674408 144.0
290.721252 224.0
290.817902 196.0
290.900787 128.0
290.969269 152.0
291.007568 164.0
291.098877 220.0
291.12851 240.0
291.141052 120.0
291.154999 148.0
291.210724 152.0
291.268799 224.0
291.336456 136.0
291.349365 240.0
291.551147 176.0
291.639923 232.0
291.691162 152.0
291.746826 372.0
291.808899 244.0
291.844849 288.0
291.896912 176.0
291.936737 212.0
291.962067 324.0
292.00177 440.0
292.065063 412.0
292.100006 676.0
292.138397 600.0
292.152283 1072.0
292.20755 217440.0
292.291962 104.0
292.335022 172.0
292.443054 456.0
292.473938 252.0
292.524475 320.0
292.580261 196.0
292.610016 284.0
292.705566 236.0
292.7677 7772.0
292.816467 504.0
292.898254 272.0
292.930664 192.0
292.951355 304.0
292.989075 148.0
293.034515 396.0
293.067017 400.0
293.128418 312.0
293.170288 468.0
293.210236 93624.0
293.293121 124.0
293.332275 156.0
293.375336 148.0
293.425446 140.0
293.505493 136.0
293.536163 200.0
293.586548 168.0
293.615662 148.0
293.677429 124.0
293.784424 128.0
293.876495 232.0
293.916107 192.0
293.942291 316.0
294.044647 212.0
294.100555 264.0
294.137482 216.0
294.212555 8488.0
294.278168 156.0
294.307709 152.0
294.355774 192.0
294.415466 120.0
294.45816 208.0
294.560364 120.0
294.606659 132.0
294.66095 176.0
294.723694 204.0
294.753021 116.0
294.855896 192.0
294.907867 124.0
294.945618 224.0
295.000183 388.0
295.03598 224.0
295.073059 148.0
295.084869 116.0
295.102875 244.0
295.216248 560.0
295.276245 272.0
295.401947 140.0
295.45401 392.0
295.713043 116.0
295.899017 196.0
296.015564 124.0
296.122314 424.0
296.152313 176.0
296.257538 152.0
296.32843 112.0
296.373352 120.0
296.446503 112.0
296.704315 120.0
296.815063 168.0
296.916473 132.0
297.053101 104.0
297.195496 136.0
297.526642 140.0
298.161316 216.0
302.393433 128.0
303.910126 100.0
310.102753 160.0
310.758575 104.0
318.313049 160.0
481.42572 144.0
481.871277 148.0
486.127258 140.0
753.563599 152.0
889.306213 160.0
906.703613 172.0
941.435974 156.0
978.065613 220.0
1031.810059 160.0
1033.460083 224.0
1035.277954 172.0
1037.373169 208.0
1037.738525 144.0
1046.328369 176.0
1049.360352 152.0
1054.055298 156.0
1057.009277 168.0
1059.950073 176.0
1062.446167 164.0
1063.419556 140.0
1064.828369 156.0
1067.356323 180.0
1068.754761 200.0
1069.750488 140.0
1071.776001 196.0
1078.595703 160.0
1078.765747 152.0
1079.988403 144.0
1081.827148 184.0
1089.999146 140.0
1092.050293 140.0
1096.131836 160.0
1100.742676 148.0
1103.967407 208.0
1109.973511 144.0
1111.684937 224.0
1113.743042 156.0
1122.474487 212.0
1125.363647 168.0
1128.674683 136.0
1129.620728 164.0
1131.253418 156.0
1132.445312 160.0
1132.974487 140.0
1133.597656 184.0
1137.272705 148.0
1138.111938 164.0
1138.64917 172.0
1142.076782 160.0
1143.80603 168.0
1146.695557 144.0
1148.839722 152.0
1149.480713 188.0
1151.8302 156.0
1152.107178 172.0
1155.737671 196.0
1157.429932 200.0
1157.93103 144.0
1158.188354 156.0
1159.597656 140.0
1161.346924 144.0
1164.414673 148.0
1165.888916 244.0
1169.342285 232.0
1170.126465 148.0
1171.28418 152.0
1173.560303 160.0
1175.415649 144.0
1175.784058 152.0
1178.522339 180.0
1179.554321 188.0
1183.707153 144.0
1185.129395 204.0
1185.536133 176.0
1186.15979 220.0
1187.236206 176.0
1188.100464 192.0
1189.122803 164.0
1189.253296 168.0
1189.884766 260.0
1190.756836 152.0
1191.244507 164.0
1191.402588 148.0
1191.519287 184.0
1191.801025 168.0
1192.247681 172.0
1194.949951 176.0
1195.355957 176.0
1195.438477 172.0
1195.522705 168.0
1196.787598 176.0
1197.269653 212.0
1197.614014 140.0
1199.212524 192.0
1201.018921 220.0
1201.13623 156.0
1201.598389 216.0
1202.785278 252.0
1203.924561 168.0
1204.120605 152.0
1204.435547 172.0
1204.663574 220.0
1205.520264 176.0
1208.54895 148.0
1210.639404 148.0
1212.010864 148.0
1212.315796 152.0
1212.44751 216.0
1214.673096 140.0
1217.886841 168.0
1218.817749 216.0
1221.313477 176.0
1221.362183 164.0
1221.725098 176.0
1222.572754 164.0
1223.01123 152.0
1223.366211 140.0
1224.27832 264.0
1224.542969 164.0
1225.483398 164.0
1226.180176 156.0
1226.486816 160.0
1226.765625 180.0
1227.34436 240.0
1227.734863 140.0
1229.255615 148.0
1230.38623 152.0
1231.126343 236.0
1231.538452 164.0
1232.369751 152.0
1232.796021 148.0
1232.865845 232.0
1234.417725 140.0
1235.166138 156.0
1235.753784 148.0
1236.364014 160.0
1237.538452 192.0
1238.511841 204.0
1238.778076 148.0
1238.883179 168.0
1240.69812 152.0
1242.633789 152.0
1243.005737 160.0
1245.687622 220.0
1246.333984 140.0
1246.446411 180.0
1246.516602 144.0
1247.831055 144.0
1248.604492 168.0
1248.885864 176.0
1248.970215 192.0
1249.244507 188.0
1251.454346 200.0
1251.827637 176.0
1252.475464 208.0
1252.926392 152.0
1253.144775 156.0
1253.588623 140.0
1254.742554 164.0
1256.246704 212.0
1256.613525 264.0
1257.305054 180.0
1257.396851 180.0
1258.328613 164.0
1259.783325 164.0
1260.193115 164.0
1260.942139 168.0
1261.500488 164.0
1261.670166 208.0
1262.23584 184.0
1263.126953 200.0
1263.841431 172.0
1263.99707 180.0
1264.336792 152.0
1265.646362 152.0
1266.921143 200.0
1267.275391 200.0
1267.544678 140.0
1268.246216 160.0
1269.813232 220.0
1270.338013 184.0
1270.827515 156.0
1271.274536 220.0
1271.395264 140.0
1272.893066 152.0
1274.135986 164.0
1274.654663 200.0
1274.917603 164.0
1275.325439 212.0
1279.640625 152.0
1280.046509 152.0
1281.243042 148.0
1281.38562 164.0
1282.05542 144.0
1282.340454 292.0
1283.973022 208.0
1285.678101 140.0
1285.735229 180.0
1286.870117 224.0
1287.198608 188.0
1287.462769 192.0
1287.848511 180.0
1288.203247 196.0
1288.898682 156.0
1289.355957 168.0
1290.035034 236.0
1291.629639 216.0
1291.822754 160.0
1291.922241 144.0
1292.788574 164.0
1292.853027 196.0
1293.411255 148.0
1293.94812 164.0
1294.143311 176.0
1294.234619 164.0
1295.666992 180.0
1295.867554 180.0
1296.010864 188.0
1297.164673 188.0
1298.390747 168.0
1298.921509 164.0
1299.674805 160.0
1299.933105 144.0
1300.348877 200.0
1300.8302 160.0
1301.067139 208.0
1302.115479 248.0
1302.187256 156.0
1302.975464 200.0
1303.178589 216.0
1303.394165 168.0
1303.473267 228.0
1305.162354 204.0
1305.315063 168.0
1305.859863 148.0
1306.090088 192.0
1306.399414 220.0
1307.35376 172.0
1307.48584 196.0
1308.234375 168.0
1309.451294 152.0
1310.106812 156.0
1311.414917 192.0
1311.76416 172.0
1312.182251 204.0
1312.723022 220.0
1312.881714 144.0
1313.660645 208.0
1314.408081 164.0
1314.663574 168.0
1314.736572 164.0
1315.428589 188.0
1316.063965 160.0
1316.258057 216.0
1317.204956 200.0
1317.436157 252.0
1317.508423 220.0
1319.127075 176.0
1319.633179 144.0
1319.770508 156.0
1319.907837 220.0
1320.001953 176.0
1320.615479 132.0
1321.173584 200.0
1321.678589 164.0
1322.109253 148.0
1322.338501 212.0
1323.706787 152.0
1324.641113 180.0
1324.981567 220.0
1325.113892 184.0
1325.880005 152.0
1326.067383 220.0
1326.387329 180.0
1328.599121 176.0
1330.406128 204.0
1331.320923 156.0
1332.548462 204.0
1332.984497 140.0
1334.554443 184.0
1335.412598 144.0
1335.761719 184.0
1335.972656 144.0
1336.169067 168.0
1336.672363 188.0
1336.736572 152.0
1337.733643 144.0
1338.075806 196.0
1338.367065 248.0
1338.636475 140.0
1338.709351 176.0
1339.015137 140.0
1339.077515 208.0
1339.168091 208.0
1339.291992 224.0
1339.677979 236.0
1340.158813 208.0
1340.639771 168.0
1341.055176 236.0
1341.317627 276.0
1341.843994 172.0
1344.570557 156.0
1344.898926 144.0
1344.958618 196.0
1345.621582 204.0
1346.395996 192.0
1346.468628 180.0
1346.709717 156.0
1347.016479 200.0
1347.21106 176.0
1347.571655 196.0
1348.594727 156.0
1349.195068 156.0
1350.210449 140.0
1350.473755 180.0
1350.576172 156.0
1351.629639 200.0
1352.434692 192.0
1352.646973 152.0
1353.22522 164.0
1354.789185 144.0
1355.752319 160.0
1355.979492 212.0
1356.170044 156.0
1356.353271 164.0
1356.617188 176.0
1356.925171 144.0
1357.203735 224.0
1357.423706 144.0
1358.003052 176.0
1358.62915 208.0
1359.147461 208.0
1359.374878 176.0
1359.976685 168.0
1360.167603 140.0
1360.439209 176.0
1360.732788 140.0
1362.113403 204.0
1362.598267 192.0
1363.355103 156.0
1363.568237 216.0
1363.876953 156.0
1364.229736 160.0
1364.435547 160.0
1364.494385 144.0
1365.784058 172.0
1367.127686 184.0
1367.223267 140.0
1367.937256 144.0
1369.593994 188.0
1371.4729 168.0
1371.59082 164.0
1372.350098 168.0
1372.563965 152.0
1372.630249 192.0
1372.71875 188.0
1373.684937 144.0
1373.982422 172.0
1376.482056 184.0
1377.080322 140.0
1377.560425 188.0
1377.878052 144.0
1378.07019 184.0
1378.247437 212.0
1378.653931 140.0
1378.720459 140.0
1379.078613 164.0
1379.570557 160.0
1381.273926 172.0
1382.625122 192.0
1382.861938 156.0
1383.365356 156.0
1384.283325 160.0
1386.817017 180.0
1387.291382 184.0
1389.031006 200.0
1389.991089 176.0
1390.273071 160.0
1390.405518 156.0
1391.523926 148.0
1392.017578 220.0
1392.121582 164.0
1393.978638 140.0
1394.298218 192.0
1394.498901 216.0
1394.565796 216.0
1395.365112 188.0
1395.494995 144.0
1396.409546 148.0
1396.498901 248.0
1396.869019 176.0
1397.108765 144.0
1398.046265 144.0
1398.388672 144.0
1398.537476 184.0
1398.86499 160.0
1398.924561 184.0
1399.609497 144.0
1400.160522 292.0
1400.294556 220.0
1400.34668 144.0
1401.873901 172.0
1403.088867 140.0
1405.23291 148.0
1406.17334 240.0
1406.490479 152.0
1408.01355 212.0
1409.066772 160.0
1409.350708 188.0
1409.703003 136.0
1409.94104 192.0
1411.205688 136.0
1411.685059 188.0
1411.94458 204.0
1412.56543 156.0
1412.834717 144.0
1413.029175 168.0
1413.69519 140.0
1413.86731 200.0
1414.15918 200.0
1414.675659 164.0
1414.975098 180.0
1415.431763 412.0
1416.300537 300.0
1416.375366 140.0
1416.854858 180.0
1417.049683 168.0
1417.161987 152.0
1417.28186 144.0
1417.46167 144.0
1418.121216 152.0
1418.271118 176.0
1418.443481 220.0
1418.915771 192.0
1419.110718 192.0
1419.958008 152.0
1420.741089 164.0
1421.135742 148.0
1421.848633 152.0
1422.257202 204.0
1422.351562 192.0
1422.989624 164.0
1423.272339 220.0
1423.695435 184.0
1424.243652 148.0
1424.401367 184.0
1424.484009 164.0
1424.743408 108.0
1425.528442 152.0
1425.64856 160.0
1426.490356 176.0
1426.745972 176.0
1426.915894 148.0
1427.332397 184.0
1427.828735 172.0
1428.626099 248.0
1429.438599 140.0
1429.551514 160.0
1429.694458 268.0
1430.251343 280.0
1430.388184 184.0
1430.469727 248.0
1431.320435 204.0
1432.209106 204.0
1432.307007 144.0
1432.540527 152.0
1433.640503 184.0
1434.416138 208.0
1434.673096 148.0
1435.396973 160.0
1435.572266 180.0
1436.203857 172.0
1437.192139 156.0
1437.652466 168.0
1437.916504 160.0
1438.090088 192.0
1439.033691 176.0
1439.969971 172.0
1440.166504 156.0
1441.329834 192.0
1441.722778 164.0
1442.493774 164.0
1442.629761 144.0
1443.068237 164.0
1443.688354 152.0
1443.794189 200.0
1443.975708 160.0
1445.361938 208.0
1446.396851 180.0
1446.570923 176.0
1446.9646 188.0
1447.540039 312.0
1448.320068 160.0
1449.51709 208.0
1449.736816 180.0
1449.986938 180.0
1450.172241 220.0
1451.578857 140.0
1452.185547 148.0
1452.473755 156.0
1452.572388 168.0
1453.02002 220.0
1453.141357 152.0
1453.575562 212.0
1454.681885 140.0
1455.14502 184.0
1455.731323 208.0
1456.20813 192.0
1456.45874 172.0
1457.188599 208.0
1457.364746 208.0
1457.431152 212.0
1457.819092 152.0
1458.008667 144.0
1458.312744 156.0
1458.426636 148.0
1458.579346 176.0
1459.437744 180.0
1460.558105 188.0
1461.217529 232.0
1461.780518 140.0
1462.008789 188.0
1462.231689 196.0
1462.435059 152.0
1463.186523 172.0
1463.325684 144.0
1463.508423 176.0
1463.691162 204.0
1463.790771 188.0
1463.957642 248.0
1464.513672 176.0
1465.176392 156.0
1466.189697 160.0
1466.448853 180.0
1466.549438 148.0
1466.654663 140.0
1467.150146 200.0
1467.714355 168.0
1468.359375 208.0
1470.140015 228.0
1470.505615 196.0
1471.071533 164.0
1471.765869 160.0
1471.92627 224.0
1472.162964 144.0
1472.521729 144.0
1472.605957 160.0
1472.674683 208.0
1473.056641 160.0
1473.853149 144.0
1474.913452 176.0
1475.026245 168.0
1475.440796 160.0
1475.873169 208.0
1476.714722 224.0
1477.291504 200.0
1477.831543 244.0
1477.888184 196.0
1478.228516 316.0
1478.605591 172.0
1478.951904 156.0
1479.074463 160.0
1479.62561 208.0
1479.84375 192.0
1479.985474 152.0
1480.230469 172.0
1480.80835 208.0
1481.030762 176.0
1482.669556 220.0
1483.954224 200.0
1484.421997 160.0
1484.623413 204.0
1485.050781 148.0
1485.386108 160.0
1485.699219 212.0
1485.948364 180.0
1486.30127 168.0
1486.393311 204.0
1486.968872 148.0
1488.949707 156.0
1489.110962 192.0
1489.341309 148.0
1490.109497 152.0
1491.413086 164.0
1491.577271 180.0
1491.73877 152.0
1492.791992 172.0
1493.366455 132.0
1494.08728 168.0
1494.203003 148.0
1494.399658 216.0
1494.484253 168.0
1494.538086 148.0
1494.915161 340.0
1495.538574 216.0
1496.138916 192.0
1496.369873 172.0
1496.654785 184.0
1498.310669 160.0
1498.572632 204.0
1498.803833 272.0
1499.119751 208.0
1499.582153 160.0
1499.76709 148.0
1499.990601 152.0
1501.156006 132.0
1501.432373 208.0
1502.851807 148.0
1503.345581 196.0
1503.546265 192.0
1503.939819 208.0
1505.483887 156.0
1505.592041 140.0
1506.418457 180.0
1506.822998 284.0
1507.26062 140.0
1507.932861 140.0
1508.381226 172.0
1508.574463 164.0
1508.69812 188.0
1508.821899 148.0
1509.109619 176.0
1510.755249 164.0
1510.902222 144.0
1511.002808 156.0
1511.265747 172.0
1511.614014 196.0
1511.846191 188.0
1512.318237 188.0
1512.713013 172.0
1513.100098 188.0
1513.680786 176.0
1513.814575 176.0
1514.160889 148.0
1514.749512 204.0
1515.175659 160.0
1515.229858 228.0
1515.400269 144.0
1515.996948 164.0
1516.136475 196.0
1516.289429 188.0
1516.454224 160.0
1516.833984 184.0
1517.795288 256.0
1518.120972 204.0
1518.640625 140.0
1519.098267 168.0
1519.271973 132.0
1519.586914 232.0
1520.696655 172.0
1521.139038 196.0
1521.333984 144.0
1521.533813 188.0
1521.899902 168.0
1522.016357 180.0
1522.462158 216.0
1522.754028 184.0
1523.266724 200.0
1524.230103 216.0
1524.704102 180.0
1524.896118 252.0
1525.201538 152.0
1525.255981 180.0
1525.333618 192.0
1526.328735 140.0
1526.42981 148.0
1526.670898 248.0
1527.689819 176.0
1527.900024 156.0
1528.167847 100.0
1528.265503 196.0
1529.534058 184.0
1530.016602 168.0
1530.871094 208.0
1531.106812 296.0
1531.737671 144.0
1532.457275 116.0
1532.58252 224.0
1532.734863 192.0
1534.675659 224.0
1534.741943 144.0
1534.940796 140.0
1535.040405 244.0
1535.135742 168.0
1535.565918 196.0
1536.02478 196.0
1536.149658 172.0
1536.227661 148.0
1536.328979 200.0
1536.399292 200.0
1536.917236 228.0
1537.351196 208.0
1538.373535 200.0
1538.779541 164.0
1539.638428 204.0
1540.487427 192.0
1541.388306 140.0
1542.513672 140.0
1542.861328 112.0
1543.811523 144.0
1544.125366 128.0
1546.385376 176.0
1546.512695 196.0
1546.894165 156.0
1547.129028 220.0
1548.859619 164.0
1548.954468 204.0
1549.694946 188.0
1549.870239 176.0
1550.055298 136.0
1550.238525 188.0
1550.316895 188.0
1550.552002 152.0
1550.88916 152.0
1551.206909 184.0
1551.421997 156.0
1551.637695 176.0
1551.756104 184.0
1552.135498 188.0
1552.491333 200.0
1552.864746 144.0
1552.958862 184.0
1554.331787 140.0
1554.64563 192.0
1554.826172 196.0
1555.077271 180.0
1555.973877 144.0
1556.223755 144.0
1557.040039 184.0
1557.346313 184.0
1557.45874 128.0
1557.644775 228.0
1558.296875 160.0
1558.579712 184.0
1558.776123 152.0
1558.831177 140.0
1559.074707 152.0
1560.10437 160.0
1560.36377 308.0
1560.615356 176.0
1560.686157 192.0
1560.772705 160.0
1560.977051 368.0
1561.155273 184.0
1561.88147 192.0
1562.322998 188.0
1562.794067 160.0
1563.242554 168.0
1563.819702 144.0
1564.179199 176.0
1564.423218 152.0
1564.730225 204.0
1565.037231 180.0
1565.446777 156.0
1565.557007 236.0
1566.383911 140.0
1566.578003 136.0
1566.651733 148.0
1566.706909 160.0
1566.958984 236.0
1567.266235 348.0
1567.453735 204.0
1568.393188 172.0
1568.692749 184.0
1568.787354 184.0
1569.118408 152.0
1569.331299 160.0
1569.930664 208.0
1570.064697 172.0
1570.238159 156.0
1570.348633 228.0
1570.758789 176.0
1570.914795 208.0
1571.082153 160.0
1571.234863 224.0
1571.571289 100.0
1572.068359 144.0
1572.271118 176.0
1572.544434 164.0
1572.865112 148.0
1573.228638 196.0
1573.54187 204.0
1573.765503 140.0
1573.881714 172.0
1574.04187 224.0
1574.447998 140.0
1574.815063 164.0
1575.637329 188.0
1576.664551 140.0
1576.791016 164.0
1578.292969 148.0
1578.735718 140.0
1579.597778 172.0
1579.835083 164.0
1580.040771 144.0
1580.159546 168.0
1580.396851 160.0
1580.460083 176.0
1580.539307 156.0
1580.713867 184.0
1580.998169 228.0
1581.314819 160.0
1581.615601 164.0
1581.70813 212.0
1582.391357 164.0
1582.706177 220.0
1584.39502 184.0
1584.596924 236.0
1584.759399 152.0
1584.933716 148.0
1585.366699 200.0
1585.752319 208.0
1586.04895 160.0
1586.28894 192.0
1586.399902 204.0
1586.510986 240.0
1586.796387 176.0
1586.891479 160.0
1587.073853 164.0
1587.415161 176.0
1587.570679 212.0
1588.017578 160.0
1588.707642 140.0
1589.318481 244.0
1589.601318 232.0
1590.040649 160.0
1590.548584 180.0
1590.786133 236.0
1590.858154 152.0
1590.929565 164.0
1591.779175 164.0
1591.849121 228.0
1592.041138 352.0
1592.319092 188.0
1592.501831 176.0
1592.90686 164.0
1593.614014 164.0
1593.852295 180.0
1594.933105 152.0
1595.171631 196.0
1595.584961 204.0
1596.507324 152.0
1596.590332 184.0
1597.072021 144.0
1597.644653 156.0
1598.04248 176.0
1598.153931 140.0
1598.6073 144.0
1598.726807 216.0
1598.878052 360.0
1599.164551 188.0
1599.586426 164.0
1599.872925 224.0
1599.935791 228.0
1600.087891 164.0
1600.656738 228.0
1600.807251 176.0
1600.931885 168.0
1601.465454 140.0
1601.800415 196.0
1601.871704 164.0
1602.349731 140.0
1602.532959 212.0
1602.937866 260.0
1603.233643 168.0
1603.36377 212.0
1603.440796 172.0
1603.815918 160.0
1604.589233 148.0
1604.812378 200.0
1606.247925 184.0
1606.463257 140.0
1606.68689 168.0
1607.088867 192.0
1607.729126 164.0
1608.051147 160.0
1608.547485 188.0
1608.809448 212.0
1609.264526 240.0
1609.783447 348.0
1610.374512 144.0
1610.454346 172.0
1610.717896 148.0
1610.773804 196.0
1611.515381 200.0
1611.588745 160.0
1611.748535 192.0
1612.387817 148.0
1612.603516 168.0
1612.939209 164.0
1613.259033 148.0
1613.818604 164.0
1613.949829 148.0
1614.16626 232.0
1614.376465 216.0
1614.626221 172.0
1615.162109 240.0
1615.418091 188.0
1615.538086 156.0
1615.654053 168.0
1615.761597 132.0
1615.978149 192.0
1616.194092 188.0
1616.283936 212.0
1617.098389 200.0
1617.370605 252.0
1618.363159 216.0
1618.749512 200.0
1619.115967 140.0
1619.348145 172.0
1620.2854 172.0
1620.742065 192.0
1621.070557 144.0
1621.431274 180.0
1621.487305 172.0
1621.743774 156.0
1621.799927 208.0
1622.144531 168.0
1622.320923 220.0
1622.410645 160.0
1622.513306 144.0
1623.066528 156.0
1623.451416 160.0
1623.515625 184.0
1624.06897 164.0
1624.146973 220.0
1624.293579 168.0
1624.437988 168.0
1624.502075 176.0
1625.315552 388.0
1625.850098 164.0
1626.01416 156.0
1626.171143 192.0
1626.484131 156.0
1627.957642 216.0
1628.210571 156.0
1628.481689 188.0
1628.692261 204.0
1629.407104 164.0
1629.816895 156.0
1629.948608 232.0
1630.266846 200.0
1630.553223 172.0
1630.949219 192.0
1631.26355 164.0
1631.649414 212.0
1632.76709 188.0
1633.619629 188.0
1633.812744 172.0
1634.552856 160.0
1634.818481 160.0
1635.17395 168.0
1636.541016 204.0
1636.735962 172.0
1637.297974 188.0
1637.410645 176.0
1637.950317 156.0
1638.074829 164.0
1638.397339 156.0
1638.949341 156.0
1639.174927 284.0
1639.37854 164.0
1640.472534 148.0
1640.666016 200.0
1640.867554 192.0
1641.028809 172.0
1641.278687 172.0
1641.423828 220.0
1641.88855 192.0
1642.2948 168.0
1642.577148 160.0
1643.053101 176.0
1643.190186 148.0
1643.295166 164.0
1643.529053 188.0
1643.593628 160.0
1643.659912 164.0
1643.868042 216.0
1644.529785 156.0
1645.046387 180.0
1645.280518 140.0
1645.365234 184.0
1645.579224 140.0
1645.980103 160.0
1646.679565 220.0
1647.065063 148.0
1647.652222 312.0
1647.824463 136.0
1647.929443 172.0
1648.390015 168.0
1648.971924 184.0
1649.141602 152.0
1649.295166 176.0
1649.941895 180.0
1650.427002 140.0
1650.540161 152.0
1650.684448 180.0
1651.015625 156.0
1651.712769 152.0
1652.505615 176.0
1652.675537 180.0
1652.804932 148.0
1653.290283 132.0
1653.463501 176.0
1653.601807 148.0
1653.86084 152.0
1654.170288 148.0
1654.941772 168.0
1655.152344 220.0
1655.262329 176.0
1655.605713 168.0
1656.185547 128.0
1656.391357 172.0
1656.637085 160.0
1657.063721 184.0
1657.201538 216.0
1657.379761 160.0
1657.687622 176.0
1657.890259 212.0
1657.995605 164.0
1658.530029 192.0
1658.712158 156.0
1658.789917 276.0
1658.885254 208.0
1659.315186 156.0
1659.689819 172.0
1659.957397 192.0
1660.322266 144.0
1660.47644 148.0
1661.603882 156.0
1662.21814 236.0
1662.676514 164.0
1662.747192 164.0
1662.926514 164.0
1662.983398 148.0
1664.59082 236.0
1665.37854 184.0
1665.500366 140.0
1665.577393 172.0
1665.670898 208.0
1665.894287 176.0
1666.404541 156.0
1666.572754 188.0
1666.645874 156.0
1666.924438 164.0
1667.084595 160.0
1667.190308 188.0
1667.28772 208.0
1667.55603 168.0
1667.843872 176.0
1668.092407 236.0
1668.287476 160.0
1668.462769 172.0
1668.612671 152.0
1668.80249 176.0
1669.572144 192.0
1669.643433 180.0
1669.899292 176.0
1670.274414 184.0
1670.393677 148.0
1670.847534 160.0
1671.057129 144.0
1671.30481 204.0
1671.532593 200.0
1671.817505 184.0
1671.980225 152.0
1672.558105 192.0
1672.769775 160.0
1672.940674 200.0
1673.096436 180.0
1673.575684 164.0
1673.966553 412.0
1674.227173 140.0
1674.408691 136.0
1674.492432 200.0
1674.645264 172.0
1674.780884 160.0
1674.870483 196.0
1675.027588 140.0
1675.967163 144.0
1676.2229 192.0
1676.353271 212.0
1676.757812 252.0
1677.396484 184.0
1677.575806 212.0
1678.196411 176.0
1678.930176 220.0
1679.449463 112.0
1679.818359 148.0
1680.053345 204.0
1680.310547 152.0
1680.536255 164.0
1680.748413 172.0
1680.895264 184.0
1680.96875 156.0
1681.094116 132.0
1681.156372 152.0
1681.286987 192.0
1681.344116 228.0
1681.543213 188.0
1681.915405 176.0
1682.095947 128.0
1683.140015 180.0
1683.254272 172.0
1683.48291 208.0
1683.815674 144.0
1684.152588 144.0
1684.47937 196.0
1684.7052 148.0
1685.099731 276.0
1685.492432 252.0
1685.990845 164.0
1686.236084 152.0
1686.851562 172.0
1687.94458 156.0
1688.353516 180.0
1688.549683 224.0
1689.02417 188.0
1689.187744 144.0
1689.385742 136.0
1689.613159 228.0
1689.752197 160.0
1689.981323 200.0
1690.336182 184.0
1690.701294 176.0
1691.053833 236.0
1691.519775 216.0
1691.683472 204.0
1692.295776 164.0
1692.395752 188.0
1692.616821 184.0
1693.179932 332.0
1693.274414 396.0
1693.583252 156.0
1693.763428 144.0
1693.853516 152.0
1694.05835 192.0
1694.967651 144.0
1695.123413 224.0
1695.211914 188.0
1695.393799 180.0
1695.467529 160.0
1695.745117 144.0
1696.328125 276.0
1696.680664 180.0
1696.87146 116.0
1696.951172 244.0
1697.249634 200.0
1697.516968 220.0
1697.59082 160.0
1697.918823 188.0
1698.070923 176.0
1698.181274 192.0
1698.30896 184.0
1698.484741 208.0
1698.812012 148.0
1698.903076 200.0
1699.05896 148.0
1699.789185 160.0
1699.953247 160.0
1700.138672 164.0
1700.209473 216.0
1700.502075 172.0
1700.691895 144.0
1700.921753 168.0
1701.053101 152.0
1701.291138 176.0
1701.394897 144.0
1701.57019 164.0
1701.773926 184.0
1701.972046 120.0
1702.079346 192.0
1702.506348 148.0
1702.71167 192.0
1702.925171 172.0
1703.475464 248.0
1704.198486 164.0
1704.576416 188.0
1704.716064 160.0
1704.78186 172.0
1705.225586 232.0
1705.776367 208.0
1706.57373 220.0
1706.935547 164.0
1707.371338 180.0
1707.478271 144.0
1707.724976 192.0
1708.070435 192.0
1708.234985 232.0
1708.493042 208.0
1708.588745 160.0
1709.107056 276.0
1709.238647 144.0
1709.525391 176.0
1710.028687 176.0
1710.831299 184.0
1710.89856 444.0
1711.009888 164.0
1711.378784 144.0
1711.46106 256.0
1711.700073 156.0
1712.033936 176.0
1712.317505 248.0
1712.504028 196.0
1712.770508 160.0
1712.869385 200.0
1712.936401 204.0
1713.072998 208.0
1713.610718 224.0
1713.770874 200.0
1713.932129 284.0
1714.087769 180.0
1714.220459 156.0
1714.970459 176.0
1715.153564 160.0
1715.43042 124.0
1715.588623 188.0
1715.835938 212.0
1716.058594 212.0
1716.525269 316.0
1717.221313 172.0
1717.526489 180.0
1717.707886 168.0
1718.065674 264.0
1718.499878 180.0
1718.590698 172.0
1719.005371 180.0
1719.267334 200.0
1719.432373 168.0
1719.593018 128.0
1719.752563 252.0
1720.306274 168.0
1720.389771 140.0
1720.868652 176.0
1721.352783 140.0
1721.545776 172.0
1721.669556 192.0
1721.754883 184.0
1722.024658 160.0
1723.000977 192.0
1723.082031 212.0
1724.141357 200.0
1724.478516 216.0
1724.6604 224.0
1724.966187 168.0
1725.032349 176.0
1725.130249 160.0
1725.279419 156.0
1725.553101 164.0
1725.82605 176.0
1726.274048 176.0
1726.553711 180.0
1727.852295 144.0
1728.216309 156.0
1728.596924 184.0
1728.663208 184.0
1728.771606 188.0
1729.117554 144.0
1729.308716 188.0
1729.465942 164.0
1729.676758 200.0
1730.033081 152.0
1730.301147 224.0
1730.583496 252.0
1731.353516 160.0
1731.742798 156.0
1731.930542 188.0
1732.190063 148.0
1732.355713 140.0
1732.584961 180.0
1732.77832 168.0
1732.845703 112.0
1732.919067 188.0
1732.977051 172.0
1733.540527 140.0
1733.631714 188.0
1733.764282 200.0
1733.826416 188.0
1734.02124 192.0
1734.112427 348.0
1734.59314 160.0
1734.676025 176.0
1735.372437 172.0
1736.068848 184.0
1736.215942 212.0
1736.9729 196.0
1737.061646 212.0
1737.180298 172.0
1737.503784 172.0
1737.682495 220.0
1737.860596 192.0
1738.076294 172.0
1738.906616 144.0
1739.0354 180.0
1739.362671 156.0
1739.545288 172.0
1739.727905 176.0
1739.946045 156.0
1740.134644 200.0
1740.432983 172.0
1740.766724 180.0
1741.072998 196.0
1741.486084 200.0
1741.641479 212.0
1742.127808 184.0
1742.385376 184.0
1742.614258 168.0
1742.90918 156.0
1743.23291 372.0
1743.67334 176.0
1744.766724 164.0
1744.933716 140.0
1745.348511 132.0
1745.452148 160.0
1746.275024 108.0
1746.394165 196.0
1746.758057 196.0
1747.065552 172.0
1747.515015 152.0
1748.206299 140.0
1748.521851 232.0
1748.71936 160.0
1748.779175 176.0
1748.988037 224.0
1749.062866 280.0
1749.121216 152.0
1749.462524 160.0
1749.570679 172.0
1749.728638 132.0
1749.9729 156.0
1750.444946 148.0
1750.786377 204.0
1751.244385 156.0
1751.710815 204.0
1751.810791 172.0
1752.019043 488.0
1752.144043 192.0
1752.715576 120.0
1752.785522 156.0
1752.860596 160.0
1753.618896 224.0
1753.852295 184.0
1754.019043 164.0
1754.244019 144.0
1754.519165 200.0
1754.769287 212.0
1754.975464 120.0
1755.208496 212.0
1755.391968 136.0
1756.003418 188.0
1756.15686 172.0
1756.312012 244.0
1756.403687 164.0
1756.637329 152.0
1756.818726 236.0
1756.995972 140.0
1757.15332 192.0
1757.388184 148.0
1757.530029 180.0
1757.851807 240.0
1757.968018 176.0
1758.172485 156.0
1758.489624 192.0
1758.990479 172.0
1759.132324 216.0
1759.21582 208.0
1759.282593 164.0
1759.733398 144.0
1759.965088 124.0
1760.284546 216.0
1760.363892 128.0
1760.526733 180.0
1760.835693 224.0
1761.011108 176.0
1761.148804 236.0
1761.428711 164.0
1761.721069 160.0
1762.097046 164.0
1762.21228 192.0
1762.957642 164.0
1763.308228 180.0
1763.500854 152.0
1763.583496 188.0
1763.705811 188.0
1763.985596 204.0
1764.453735 144.0
1764.776367 152.0
1764.88855 184.0
1764.954102 172.0
1765.15564 124.0
1765.25647 216.0
1765.406982 180.0
1765.839355 204.0
1766.362427 188.0
1766.803833 160.0
1766.987793 180.0
1767.171875 184.0
1767.381104 176.0
1767.515015 144.0
1767.650391 168.0
1768.121216 144.0
1768.200928 160.0
1768.325562 204.0
1768.468994 144.0
1768.540649 164.0
1769.088379 180.0
1769.163696 212.0
1769.599121 176.0
1769.716309 188.0
1770.126587 192.0
1770.507568 156.0
1770.721191 148.0
1770.890625 224.0
1771.215332 152.0
1771.684448 212.0
1771.910645 156.0
1772.304443 144.0
1772.671997 156.0
1772.815552 140.0
1773.092041 160.0
1773.212402 156.0
1773.553101 156.0
1773.695557 156.0
1773.963745 160.0
1774.164917 156.0
1774.508667 200.0
1774.642822 208.0
1774.978271 184.0
1775.12915 176.0
1775.412231 280.0
1775.573608 168.0
1775.720703 128.0
1776.118774 184.0
1776.208984 148.0
1776.316772 132.0
1776.469116 188.0
1776.745483 140.0
1777.331177 152.0
1777.419189 188.0
1777.609375 412.0
1777.719604 208.0
1777.939453 156.0
1778.171265 128.0
1778.43457 188.0
1779.139648 164.0
1779.315918 140.0
1779.435303 224.0
1779.55957 224.0
1779.687134 236.0
1779.937256 200.0
1780.04541 168.0
1780.256348 168.0
1780.348755 256.0
1780.415894 176.0
1780.693115 176.0
1781.045898 164.0
1781.281006 160.0
1781.898315 180.0
1782.471802 168.0
1782.911011 324.0
1783.053833 140.0
1783.383423 168.0
1783.818726 224.0
1784.012085 164.0
1784.442627 164.0
1784.524902 172.0
1784.842285 248.0
1784.945312 180.0
1785.046265 176.0
1785.224609 212.0
1785.693726 180.0
1785.786255 180.0
1785.875244 180.0
1785.971313 176.0
1786.114258 152.0
1786.352661 240.0
1786.534912 164.0
1786.612183 172.0
1786.694702 208.0
1787.016235 376.0
1787.30896 180.0
1787.689209 120.0
1787.901978 244.0
1788.01062 112.0
1788.243042 184.0
1788.436646 152.0
1788.655396 160.0
1788.722778 176.0
1789.716187 176.0
1789.974731 188.0
1790.069824 156.0
1790.154053 176.0
1790.271973 152.0
1790.777222 164.0
1790.996826 180.0
1791.072021 156.0
1791.196411 188.0
1791.408936 208.0
1791.594238 164.0
1791.715576 140.0
1792.099731 140.0
1792.479004 224.0
1792.790771 176.0
1792.856445 180.0
1792.993042 212.0
1793.313232 160.0
1793.402954 200.0
1793.499878 172.0
1794.073608 152.0
1794.198853 128.0
1794.504883 268.0
1794.805054 212.0
1795.029175 192.0
1795.227051 176.0
1796.063843 180.0
1796.17041 136.0
1796.382446 176.0
1796.568115 184.0
1796.886108 176.0
1797.209229 188.0
1797.320435 184.0
1797.641846 276.0
1797.918091 156.0
1798.019287 140.0
1798.145874 148.0
1798.204956 240.0
1798.848755 160.0
1798.974976 160.0
1799.150391 156.0
1799.343018 192.0
1799.488037 152.0
1800.155151 144.0
1800.214233 168.0
1801.240723 148.0
1801.464233 184.0
1801.574097 180.0
1801.965088 236.0
1802.122803 164.0
1802.317505 168.0
1803.557251 196.0
1803.940186 232.0
1804.160034 164.0
1804.219116 220.0
1804.517212 184.0
1805.149048 176.0
1805.479004 140.0
1805.622803 172.0
1805.724243 196.0
1805.854858 144.0
1806.434814 188.0
1806.502441 172.0
1806.84082 180.0
1807.026978 160.0
1807.29834 140.0
1807.695435 148.0
1807.859863 160.0
1807.935425 172.0
1807.989502 260.0
1808.109985 160.0
1808.21875 148.0
1808.296265 172.0
1808.536621 128.0
1809.009766 200.0
1809.100098 136.0
1809.572754 136.0
1809.701416 168.0
1809.845337 148.0
1809.98938 140.0
1810.980103 140.0
1811.081787 212.0
1811.166504 152.0
1811.276611 140.0
1811.606934 200.0
1811.746704 152.0
1812.01355 164.0
1812.292725 168.0
1812.63208 160.0
1812.700928 208.0
1812.784668 140.0
1812.843994 176.0
1812.911743 168.0
1813.098145 152.0
1813.277832 204.0
1813.609863 204.0
1813.692139 228.0
1814.081421 176.0
1814.161743 176.0
1814.462891 156.0
1814.590088 160.0
1814.678467 188.0
1814.751099 168.0
1815.064087 184.0
1815.225952 152.0
1815.380981 144.0
1815.760254 208.0
1816.006226 172.0
1816.258301 216.0
1816.362427 144.0
1816.587402 116.0
1816.750977 172.0
1816.850464 220.0
1817.108276 308.0
1817.388916 156.0
1817.477905 144.0
1817.567139 144.0
1817.7677 124.0
1818.005005 152.0
1818.186035 180.0
1818.320068 148.0
1818.475098 188.0
1818.789185 196.0
1818.857056 208.0
1819.116333 156.0
1819.833374 148.0
1819.969116 180.0
1820.368286 176.0
1820.657471 352.0
1820.862793 216.0
1820.964233 140.0
1821.486938 184.0
1821.848755 228.0
1822.209717 200.0
1822.274048 232.0
1822.415283 492.0
1822.542725 160.0
1822.779785 144.0
1822.959106 176.0
1823.093018 180.0
1823.513184 160.0
1824.021484 164.0
1824.727051 152.0
1824.795044 192.0
1824.949219 180.0
1825.203247 232.0
1825.347778 144.0
1826.053589 216.0
1826.249268 400.0
1826.342773 192.0
1826.606445 212.0
1826.759521 148.0
1826.852173 184.0
1826.963745 272.0
1827.048828 156.0
1827.567749 148.0
1827.712402 164.0
1827.842163 176.0
1828.082031 164.0
1828.146362 172.0
1828.25708 148.0
1828.410156 148.0
1828.749634 196.0
1828.775391 172.0
1829.043579 116.0
1829.397583 160.0
1829.525269 144.0
1829.78894 132.0
1830.001953 184.0
1830.14856 192.0
1830.255981 168.0
1830.402222 168.0
1830.524292 180.0
1830.640625 168.0
1830.700195 276.0
1830.821777 172.0
1831.424072 200.0
1831.72229 164.0
1832.001343 136.0
1832.489014 180.0
1832.548584 176.0
1832.766235 152.0
1833.153564 200.0
1833.451538 108.0
1833.845459 192.0
1834.033203 188.0
1834.849731 184.0
1835.020264 156.0
1835.131714 108.0
1835.267456 352.0
1835.327148 196.0
1835.446533 236.0
1835.6427 228.0
1836.231079 252.0
1836.385498 160.0
1836.567993 268.0
1836.926392 160.0
1837.089844 276.0
1837.220581 164.0
1837.599609 156.0
1837.860352 196.0
1838.05835 172.0
1838.191406 168.0
1838.423584 172.0
1838.969727 168.0
1839.247681 144.0
1839.362427 252.0
1839.562012 164.0
1839.70105 136.0
1840.318604 180.0
1840.386841 168.0
1840.56665 144.0
1840.685669 188.0
1840.941895 144.0
1841.001709 216.0
1841.061401 208.0
1841.28064 192.0
1842.022705 180.0
1842.248657 156.0
1842.496338 316.0
1842.838135 144.0
1842.983398 176.0
1843.179932 148.0
1843.54187 180.0
1843.718994 388.0
1843.880615 168.0
1844.666992 196.0
1844.769531 144.0
1845.114746 104.0
1845.205566 156.0
1845.385132 204.0
1846.000732 196.0
1846.816162 288.0
1846.915771 144.0
1847.206665 168.0
1847.789429 240.0
1848.113525 220.0
1848.207642 160.0
1849.302979 176.0
1849.480469 168.0
1849.707153 224.0
1849.869019 180.0
1849.962036 176.0
1850.34729 204.0
1850.621216 208.0
1850.826782 144.0
1850.886719 212.0
1851.005615 168.0
1851.143555 196.0
1851.209106 176.0
1851.323364 140.0
1851.409058 180.0
1851.85437 140.0
1852.059937 152.0
1852.488281 152.0
1852.6427 168.0
1852.736694 188.0
1852.779297 176.0
1852.796875 184.0
1852.903564 128.0
1853.122192 152.0
1853.285034 244.0
1853.538086 276.0
1854.820068 156.0
1854.913818 192.0
1854.990479 216.0
1855.052002 248.0
1855.171265 172.0
1855.239014 180.0
1855.410522 220.0
1855.496216 176.0
1855.581909 148.0
1855.80481 144.0
1856.005981 168.0
1856.113525 168.0
1856.259277 152.0
1856.496216 160.0
1856.59375 192.0
1856.739502 156.0
1856.838013 232.0
1856.911011 164.0
1857.305542 216.0
1857.797485 140.0
1857.885742 196.0
1858.214844 176.0
1858.337891 132.0
1858.41394 180.0
1858.664795 120.0
1859.004517 144.0
1859.248657 152.0
1859.321777 152.0
1859.519897 188.0
1859.622192 164.0
1859.916382 128.0
1860.041138 188.0
1860.154419 148.0
1860.42334 184.0
1860.574951 144.0
1860.643677 188.0
1860.723999 200.0
1860.793091 168.0
1860.8927 172.0
1860.995728 272.0
1861.248413 204.0
1862.017578 256.0
1862.077637 160.0
1862.713257 220.0
1862.893677 172.0
1863.340332 204.0
1863.812622 140.0
1863.933228 312.0
1863.996826 288.0
1864.126587 348.0
1864.354248 176.0
1864.841309 180.0
1865.246582 192.0
1865.813354 148.0
1866.015991 152.0
1866.167969 148.0
1866.253906 152.0
1866.460327 152.0
1866.921875 196.0
1867.131104 152.0
1867.199097 140.0
1867.311646 172.0
1867.389038 140.0
1867.449219 148.0
1867.521729 108.0
1867.608521 172.0
1867.94812 156.0
1868.016968 144.0
1868.138306 160.0
1868.243164 160.0
1868.352417 200.0
1868.447144 168.0
1868.507324 160.0
1868.739624 196.0
1868.883301 192.0
1868.980347 148.0
1869.08374 144.0
1869.454102 108.0
1869.726562 184.0
1870.245605 160.0
1870.765869 156.0
1870.960327 192.0
1871.183838 164.0
1871.74353 196.0
1872.053467 148.0
1872.251587 168.0
1872.421631 208.0
1872.584473 176.0
1872.794189 216.0
1872.914795 360.0
1873.009521 152.0
1873.19043 196.0
1873.328247 164.0
1873.603882 172.0
1873.819214 204.0
1874.181152 192.0
1874.491333 228.0
1874.603394 252.0
1874.810181 188.0
1874.87915 160.0
1875.008423 212.0
1875.792725 148.0
1876.284058 156.0
1876.542725 148.0
1876.758301 208.0
1877.023315 124.0
1877.094482 200.0
1877.301514 220.0
1877.5177 180.0
1878.612427 184.0
1878.802246 152.0
1879.47522 140.0
1880.349854 168.0
1880.605713 172.0
1880.769653 160.0
1880.885132 168.0
1881.02002 148.0
1881.310181 164.0
1881.503296 144.0
1881.626221 180.0
1881.791992 108.0
1881.983521 140.0
1882.427246 144.0
1882.505005 152.0
1882.893677 220.0
1883.03186 148.0
1883.239136 172.0
1884.111572 208.0
1884.189331 160.0
1884.310181 328.0
1884.557617 152.0
1884.684937 140.0
1884.880493 176.0
1885.174316 148.0
1885.355713 144.0
1885.723999 132.0
1885.951904 220.0
1886.046753 160.0
1886.516357 140.0
1886.781982 140.0
1886.851074 192.0
1886.920288 140.0
1887.476929 180.0
1887.966553 164.0
1888.341187 324.0
1888.469238 152.0
1888.5979 140.0
1889.160156 244.0
1889.696533 152.0
1889.904175 144.0
1890.049316 212.0
1890.328125 168.0
1890.488159 264.0
1890.596436 192.0
1890.838745 168.0
1890.959351 144.0
1891.213257 176.0
1891.367188 144.0
1891.748169 172.0
1891.816772 180.0
1892.128418 144.0
1892.284302 192.0
1892.389038 160.0
1892.604614 176.0
1892.760498 164.0
1893.22998 184.0
1893.341431 108.0
1893.461914 140.0
1893.574463 164.0
1893.873901 332.0
1893.998901 164.0
1894.51001 176.0
1894.674561 204.0
1894.788086 144.0
1895.029297 152.0
1895.543823 148.0
1895.887573 188.0
1896.355591 168.0
1896.5896 200.0
1896.771606 96.0
1896.866943 164.0
1896.96228 144.0
1897.208008 204.0
1897.459961 208.0
1897.525879 156.0
1897.647217 164.0
1897.751221 156.0
1898.120972 176.0
1898.228149 140.0
1898.7229 188.0
1899.00708 196.0
1899.189209 132.0
1899.364258 184.0
1899.485718 196.0
1899.657471 188.0
1899.958008 252.0
1900.153687 152.0
1900.327637 160.0
1900.717651 216.0
1900.899902 304.0
1901.082031 168.0
1901.272949 164.0
1901.4552 164.0
1901.764893 172.0
1902.06958 204.0
1902.103027 296.0
1902.191284 196.0
1902.307983 268.0
1902.470825 148.0
1902.687866 172.0
1902.791992 200.0
1902.913574 336.0
1903.10083 196.0
1903.373779 188.0
1903.81665 164.0
1903.886108 176.0
1903.998901 176.0
1904.355103 160.0
1904.55481 148.0
1904.630737 212.0
1904.875732 208.0
1905.145508 140.0
1905.33728 156.0
1905.584351 164.0
1905.996948 176.0
1906.059448 168.0
1906.474854 168.0
1906.697021 136.0
1906.770386 180.0
1906.916626 172.0
1907.009277 180.0
1907.139893 124.0
1907.430908 184.0
1907.511353 168.0
1907.546631 168.0
1907.662964 188.0
1907.787231 196.0
1907.848145 188.0
1907.917725 192.0
1907.978516 160.0
1908.178345 160.0
1908.358521 228.0
1908.577515 216.0
1908.839722 184.0
1908.917603 292.0
1909.630737 144.0
1909.917725 144.0
1910.291748 140.0
1910.37146 148.0
1910.700562 144.0
1910.787598 172.0
1910.950073 232.0
1911.180664 136.0
1911.527222 200.0
1911.849121 164.0
1912.018066 204.0
1912.222046 180.0
1912.754272 204.0
1912.896729 124.0
1913.032837 176.0
1913.550781 124.0
1913.716431 256.0
1914.119873 264.0
1914.321411 168.0
1914.438477 304.0
1915.020874 112.0
1915.133057 144.0
1915.270752 168.0
1915.453613 200.0
1915.854126 132.0
1915.950195 176.0
1916.28125 256.0
1916.487183 172.0
1916.577515 148.0
1916.838867 160.0
1916.943481 160.0
1917.056763 160.0
1917.138672 192.0
1917.265869 164.0
1917.382446 112.0
1918.063477 316.0
1918.194702 188.0
1918.372803 140.0
1918.514648 144.0
1918.660522 164.0
1918.730225 164.0
1919.044067 148.0
1919.202271 168.0
1919.61084 144.0
1919.837524 176.0
1920.186401 140.0
1920.657349 144.0
1920.828491 188.0
1921.023804 176.0
1921.110962 196.0
1921.189453 140.0
1921.25061 176.0
1921.558105 208.0
1921.68457 188.0
1921.97168 296.0
1922.070679 224.0
1922.14917 148.0
1922.293213 144.0
1922.978271 140.0
1923.305298 328.0
1923.773315 100.0
1923.885986 172.0
1923.955933 148.0
1924.038696 164.0
1924.137817 176.0
1924.409912 180.0
1924.663086 188.0
1924.767822 284.0
1924.837646 144.0
1925.361694 332.0
1925.483887 208.0
1925.58374 216.0
1925.745972 204.0
1925.824585 176.0
1925.929321 144.0
1926.161621 188.0
1926.322388 160.0
1926.907715 248.0
1927.495117 112.0
1927.670166 200.0
1927.895142 332.0
1928.139771 200.0
1928.498169 196.0
1928.588501 236.0
1928.996338 144.0
1929.101196 196.0
1929.171143 204.0
1929.359253 224.0
1929.59082 304.0
1930.089111 200.0
1930.309082 212.0
1930.595459 128.0
1930.953979 192.0
1931.051147 164.0
1931.156006 148.0
1931.346313 132.0
1931.427246 276.0
1931.803345 180.0
1932.013306 140.0
1932.074463 144.0
1932.190063 232.0
1932.38501 324.0
1932.651978 240.0
1933.019409 188.0
1933.205688 128.0
1933.556885 188.0
1933.698853 184.0
1933.833374 160.0
1934.340942 192.0
1934.720337 164.0
1934.804932 164.0
1934.935791 168.0
1935.046387 112.0
1935.3302 168.0
1935.400269 156.0
1935.592896 196.0
1936.004517 180.0
1936.088623 144.0
1936.150024 232.0
1936.438965 236.0
1936.622803 240.0
1936.722656 176.0
1937.046753 184.0
1937.169434 168.0
1937.519775 200.0
1937.931519 140.0
1938.227295 248.0
1938.260498 192.0
1938.886719 188.0
1938.969971 96.0
1939.085083 184.0
1939.281128 144.0
1939.953979 192.0
1940.061157 156.0
1940.595459 124.0
1940.668945 164.0
1940.964233 212.0
1941.082031 100.0
1941.178345 188.0
1941.341309 144.0
1941.462769 264.0
1941.569336 176.0
1941.919434 208.0
1942.542847 140.0
1942.623047 328.0
1942.718384 204.0
1942.890015 184.0
1943.052246 180.0
1943.139404 172.0
1943.411377 400.0
1943.525513 144.0
1943.604492 200.0
1943.811523 168.0
1944.358887 168.0
1944.565796 184.0
1944.745239 184.0
1944.824219 176.0
1944.938354 200.0
1945.359741 152.0
1946.184937 180.0
1946.272705 156.0
1946.390869 176.0
1946.527344 172.0
1946.881104 112.0
1947.071899 236.0
1947.212402 152.0
1947.389771 240.0
1947.497192 176.0
1947.6427 168.0
1947.954956 152.0
1948.0271 200.0
1948.120972 120.0
1948.510254 148.0
1948.711304 244.0
1949.109863 152.0
1949.268066 148.0
1949.42395 176.0
1949.59314 140.0
1949.768921 300.0
1950.10376 208.0
1950.287476 216.0
1950.372314 116.0
1950.515991 196.0
1950.595093 188.0
1951.025879 328.0
1951.44812 160.0
1951.735107 216.0
1951.887451 176.0
1952.115356 148.0
1952.165894 408.0
1952.524292 204.0
1952.661377 176.0
1952.806396 188.0
1953.027954 152.0
1953.329834 196.0
1953.461792 148.0
1953.785034 304.0
1954.033569 176.0
1954.447144 140.0
1954.508667 196.0
1954.755005 188.0
1954.93103 152.0
1955.192505 164.0
1955.449097 144.0
1955.517456 336.0
1955.599854 200.0
1956.008423 460.0
1956.876343 180.0
1957.087646 168.0
1957.175659 168.0
1957.500488 152.0
1958.267578 176.0
1958.38208 152.0
1958.499756 184.0
1958.602051 176.0
1958.734497 220.0
1959.148438 152.0
1959.324707 260.0
1959.554443 136.0
1959.674194 168.0
1959.77002 152.0
1960.091187 152.0
1960.379028 144.0
1960.461304 204.0
1960.611084 216.0
1960.75708 208.0
1961.078247 164.0
1961.348877 112.0
1961.466064 140.0
1961.965698 208.0
1962.257568 240.0
1962.338745 384.0
1962.500977 236.0
1962.594482 204.0
1962.797241 176.0
1962.879395 188.0
1963.22937 160.0
1963.414307 184.0
1963.802612 200.0
1963.88916 172.0
1964.128906 192.0
1964.216797 108.0
1965.213989 200.0
1965.460571 140.0
1965.637573 196.0
1966.211182 164.0
1966.336914 196.0
1966.433838 184.0
1966.723022 180.0
1966.82666 192.0
1966.918457 168.0
1967.208496 164.0
1967.340942 268.0
1967.40271 148.0
1967.727295 116.0
1967.868652 124.0
1968.193481 128.0
1968.267944 184.0
1968.382812 148.0
1968.453369 164.0
1968.603516 160.0
1968.698975 216.0
1969.009766 196.0
1969.142212 140.0
1969.25708 172.0
1969.873901 128.0
1970.069702 164.0
1970.162964 212.0
1970.643921 172.0
1970.7323 140.0
1971.220825 136.0
1971.545166 244.0
1971.642456 144.0
1971.766113 148.0
1972.262085 216.0
1972.703003 156.0
1972.853394 188.0
1972.959473 164.0
1973.340698 256.0
1973.622559 264.0
1973.887817 196.0
1974.020386 276.0
1974.527832 176.0
1974.605713 176.0
1974.718994 208.0
1974.948975 188.0
1975.122559 140.0
1975.180664 156.0
1975.338135 180.0
1975.506226 196.0
1975.755737 184.0
1976.523682 212.0
1976.682983 208.0
1976.842285 148.0
1976.930786 164.0
1977.072388 284.0
1977.304932 152.0
1977.541382 168.0
1977.67688 208.0
1978.089478 148.0
1978.304565 144.0
1978.577026 164.0
1978.656738 184.0
1979.015869 224.0
1979.203369 124.0
1979.33313 200.0
1979.595215 148.0
1979.743774 160.0
1980.041016 156.0
1980.101562 180.0
1980.371948 160.0
1980.835938 180.0
1981.054321 136.0
1981.216064 256.0
1981.422485 256.0
1981.599487 220.0
1982.075562 180.0
1982.75293 224.0
1982.979614 180.0
1983.050293 152.0
1983.269043 100.0
1983.440308 168.0
1983.599854 220.0
1983.883545 192.0
1984.50415 344.0
1984.90918 152.0
1985.061523 180.0
1985.204346 164.0
1985.479492 192.0
1985.615601 212.0
1986.011597 164.0
1986.162476 156.0
1986.384155 148.0
1986.616699 168.0
1986.685791 176.0
1986.818848 156.0
1987.093872 224.0
1987.297974 164.0
1987.475464 144.0
1987.572998 252.0
1987.714966 188.0
1988.380493 248.0
1988.575806 192.0
1988.824341 164.0
1988.895264 148.0
1989.231201 208.0
1989.481201 148.0
1989.596558 152.0
1990.09375 144.0
1990.170654 164.0
1990.327271 176.0
1990.53772 188.0
1991.254761 140.0
1991.789917 156.0
1991.914307 176.0
1992.154175 156.0
1992.349609 144.0
1992.482544 152.0
1993.095825 172.0
1993.293579 208.0
1993.442383 172.0
1993.639893 228.0
1993.760132 180.0
1993.913452 192.0
1994.104126 160.0
1994.222168 172.0
1994.397461 424.0
1994.628662 136.0
1994.695557 152.0
1994.837769 220.0
1994.957397 192.0
1995.264526 304.0
1995.608765 176.0
1995.806641 168.0
1996.318726 164.0
1996.535034 148.0
1996.758301 264.0
1997.211914 140.0
1997.328003 184.0
1997.568848 152.0
1997.692261 204.0
1997.754517 148.0
1997.873657 224.0
1998.018433 200.0
1998.38623 184.0
1998.624634 156.0
1998.733154 164.0
1998.860962 164.0
1999.075317 172.0
1999.412354 352.0
1999.569702 372.0
1999.681885 180.0
1999.861084 152.0
1999.956543 192.0
2000.157104 176.0
2000.33728 180.0
2000.589966 208.0
2000.808228 204.0
2001.054199 208.0
2001.136353 152.0
2001.269897 172.0
2001.55481 108.0
2001.748291 164.0
2001.848633 148.0
2002.062378 216.0
2002.124756 168.0
2002.338501 152.0
2002.596802 180.0
2002.694702 168.0
2002.949951 148.0
2003.08667 204.0
2003.33606 144.0
