>compound MLS001141252-01!(2S)-2-[2-[(6-oxo-7,8,9,10-tetrahydrobenzo[c]chromen-3-yl)oxy]propanoylamino]-2-phenylacetic acid
>formula C24H23NO6
>ionization [M+H]+
>parentmass 422.16
#inchi InChI=1S/C24H23NO6/c1-14(22(26)25-21(23(27)28)15-7-3-2-4-8-15)30-16-11-12-18-17-9-5-6-10-19(17)24(29)31-20(18)13-16/h2-4,7-8,11-14,21H,5-6,9-10H2,1H3,(H,25,26)(H,27,28)/t14?,21-/m0/s1
#inchikey SVYPFMPUTFLZBK
#Ion_Source LC-ESI
#Instrument qTof
#Compound_Source NIH Natural Product Library
#PI Dorrestein
#Data_Collector VVP/LMS
#Scan -1
#Precursor_MZ 422.16
#ExactMass 421.153
#Charge 1
#CAS_Number N/A
#Pubmed_ID N/A
#Smiles CC(Oc1ccc2c3CCCCc3c(=O)oc2c1)C(=O)N[C@H](C(=O)O)c4ccccc4
#INCHI_AUX N/A
#Library_Class 1
#SpectrumID CCMSLIB00000079551
#IonMode Positive
#UpdateWorkflowName UPDATE-SINGLE-ANNOTATED-GOLD
#LibraryQualityString Gold
#TaskID b1d8e8f6646f4e71acdff9ca3d919d08
##Scan# 2203
#SpectrumFile p1-A08_GA8_01_17873.mzXML
#LibraryName NIH_Natural_Products_Library.mgf
#MQScore -1
#Organism NIH_Natural_Products_Library
#TIC_Query 0
#RT_Query -1
#MZErrorPPM -1
#SharedPeaks 0
#MassDiff 0
#LibMZ -1
#SpecMZ 422.16
#SpecCharge 0
#internalFilename spec-00000.mgf

>collision 10
95.012108 176.0
95.662544 184.0
95.86364 100.0
95.949394 160.0
96.197121 256.0
96.269356 156.0
96.718979 92.0
97.868355 196.0
98.145096 188.0
98.379852 208.0
99.022408 172.0
99.36927 212.0
99.404984 152.0
99.504219 36.0
99.93148 172.0
100.030975 212.0
100.27993 208.0
100.345703 148.0
101.184723 188.0
101.246796 156.0
101.328911 112.0
101.505272 204.0
101.752037 48.0
101.834358 172.0
102.178062 204.0
102.467941 168.0
102.812706 176.0
103.329933 120.0
103.59713 152.0
103.726807 192.0
104.006699 148.0
104.276802 188.0
104.496399 168.0
104.534035 208.0
104.575752 116.0
104.98317 168.0
105.034477 208.0
105.070396 760.0
105.115746 204.0
105.295372 48.0
106.065437 1904.0
106.107643 120.0
106.1548 212.0
106.327103 68.0
106.398941 88.0
106.563225 84.0
106.844856 200.0
107.050476 812.0
107.310257 36.0
107.464928 144.0
107.733292 180.0
107.7808 80.0
107.842796 144.0
107.857262 144.0
108.271011 92.0
108.358002 232.0
108.886894 68.0
109.028152 192.0
109.209015 224.0
109.271416 176.0
109.508698 176.0
109.579514 156.0
110.017426 76.0
110.048737 56.0
110.600578 168.0
110.751312 204.0
110.822533 128.0
110.971329 160.0
111.139107 220.0
111.153793 200.0
111.23983 60.0
111.697868 184.0
112.049393 144.0
112.110489 48.0
112.131561 92.0
112.976082 104.0
113.009933 168.0
113.429474 156.0
114.178619 104.0
114.408394 156.0
114.832382 64.0
115.052658 172.0
116.05545 152.0
116.637177 164.0
116.809181 152.0
116.946877 228.0
116.976295 204.0
117.070877 296.0
117.181572 216.0
117.394943 236.0
117.487679 96.0
117.638718 112.0
118.072975 204.0
118.092438 52.0
119.084999 84.0
119.161018 140.0
119.258797 216.0
119.767883 92.0
119.804916 152.0
119.839767 52.0
120.243141 64.0
120.638451 92.0
120.706223 244.0
120.752136 108.0
120.77401 176.0
120.8265 128.0
120.953415 244.0
121.02784 128.0
121.062485 316.0
121.08696 172.0
121.161423 164.0
121.57579 56.0
121.755791 136.0
121.850235 172.0
122.012848 100.0
122.030434 136.0
122.750366 44.0
122.805496 52.0
123.044952 228.0
123.262428 28.0
123.311043 188.0
123.521072 136.0
123.600708 104.0
123.785553 200.0
124.276909 224.0
124.37851 88.0
124.473961 188.0
125.339157 160.0
125.615578 172.0
125.801888 148.0
126.044189 156.0
126.060501 120.0
126.222992 88.0
126.428772 200.0
126.796013 188.0
127.056091 132.0
127.657745 188.0
127.772682 196.0
127.84243 372.0
128.060425 764.0
128.128357 72.0
128.164398 224.0
128.195938 128.0
128.308624 108.0
128.459702 148.0
128.504822 100.0
128.540237 200.0
129.066101 340.0
129.114655 180.0
129.130478 128.0
129.886902 148.0
130.071136 160.0
130.770676 152.0
130.932312 92.0
131.053406 236.0
131.06636 140.0
131.082703 208.0
131.509064 204.0
131.986465 200.0
132.05368 204.0
132.080078 1492.0
132.167145 40.0
132.359406 164.0
132.742035 176.0
133.063751 664.0
133.084137 272.0
133.251907 172.0
133.296387 176.0
133.511246 88.0
133.561844 88.0
133.82341 160.0
134.077515 128.0
134.093643 176.0
134.767395 184.0
134.943039 144.0
135.044128 2336.0
135.266876 196.0
135.537811 236.0
135.660645 84.0
135.964462 108.0
135.987656 136.0
136.048462 348.0
136.122299 156.0
136.261642 168.0
136.689423 128.0
137.055206 188.0
137.269379 192.0
138.292526 112.0
138.667221 200.0
138.812561 152.0
138.904022 240.0
139.007233 196.0
139.054169 188.0
139.352356 40.0
139.625 124.0
139.768494 96.0
139.966187 172.0
140.38559 180.0
141.068756 172.0
141.273575 164.0
141.344543 100.0
141.633331 148.0
141.915314 100.0
142.040985 192.0
142.071854 368.0
142.216553 112.0
142.273529 164.0
142.644073 164.0
142.727264 76.0
142.996048 176.0
143.031754 108.0
143.084076 1696.0
143.22699 72.0
143.377075 140.0
143.412811 88.0
143.453339 148.0
143.7061 140.0
144.058655 372.0
144.089294 144.0
144.350952 216.0
144.609299 144.0
144.728973 168.0
144.807999 116.0
145.030792 72.0
145.063385 404.0
145.101776 208.0
145.234573 112.0
145.560928 152.0
145.71463 208.0
146.070389 168.0
146.107742 212.0
146.20752 124.0
146.587967 132.0
147.046158 264.0
147.07988 792.0
147.101624 212.0
147.229584 200.0
147.517075 164.0
147.572678 124.0
147.720184 220.0
147.783081 140.0
147.879868 104.0
147.899216 212.0
148.053223 124.0
148.086945 188.0
148.199478 140.0
148.327911 148.0
148.992752 72.0
149.023911 160.0
149.059204 1088.0
149.476547 28.0
149.690735 92.0
150.06105 268.0
150.094406 176.0
150.685791 56.0
150.847061 28.0
151.067123 176.0
152.069809 484.0
152.811234 108.0
153.067764 516.0
153.264221 120.0
153.720352 164.0
153.828934 148.0
153.888168 100.0
154.072586 480.0
154.86734 188.0
155.075378 136.0
155.363052 164.0
155.725418 256.0
156.093689 140.0
156.451431 192.0
156.62323 156.0
156.670547 164.0
157.071854 156.0
157.431213 144.0
157.783478 100.0
158.068787 172.0
158.494217 192.0
158.674652 180.0
158.832626 184.0
158.8853 256.0
159.043381 136.0
159.069656 504.0
159.116882 436.0
159.74437 200.0
160.049103 188.0
160.074188 472.0
160.120148 312.0
160.53009 112.0
160.613312 108.0
160.648621 148.0
161.057205 840.0
161.093735 428.0
161.163589 44.0
161.669266 36.0
162.061722 120.0
162.089584 132.0
162.119995 156.0
162.193481 144.0
162.340515 180.0
162.698227 188.0
162.865814 64.0
162.919144 224.0
163.040237 312.0
163.079224 184.0
163.437744 136.0
163.801773 100.0
164.472321 108.0
165.671478 156.0
166.240616 160.0
166.898148 144.0
167.082062 132.0
167.222244 60.0
167.312317 36.0
167.453934 132.0
167.518326 176.0
167.819809 96.0
168.010651 200.0
168.333237 168.0
168.844864 160.0
169.062149 128.0
169.103561 136.0
169.232971 76.0
169.344315 200.0
169.642273 100.0
169.764114 136.0
170.041672 228.0
170.062439 156.0
170.090561 148.0
170.878311 200.0
171.079819 1776.0
171.221878 116.0
172.087158 572.0
172.395706 196.0
172.416611 224.0
173.057556 532.0
173.092773 384.0
173.53421 116.0
173.670563 152.0
173.877808 160.0
174.009048 212.0
174.037918 188.0
174.064743 504.0
174.090942 3768.0
174.227005 216.0
174.253265 44.0
174.31369 180.0
174.46875 116.0
174.823792 84.0
174.860641 88.0
175.037231 264.0
175.057556 148.0
175.080399 124.0
175.087112 160.0
175.109085 784.0
175.13443 36.0
175.258224 188.0
175.413712 128.0
176.117859 216.0
176.580643 188.0
176.7314 200.0
176.752563 48.0
177.055954 136.0
177.780624 64.0
177.84697 160.0
178.089462 164.0
178.415359 136.0
178.596161 180.0
178.963379 36.0
179.084915 200.0
179.290985 136.0
179.413574 112.0
179.762939 60.0
180.486755 280.0
180.829132 172.0
180.906754 148.0
180.981705 248.0
181.011154 124.0
181.067398 188.0
181.102203 176.0
181.576553 40.0
181.635544 76.0
181.678467 232.0
181.930695 184.0
182.076889 180.0
182.328186 208.0
183.071548 684.0
183.111206 148.0
183.172928 204.0
183.261826 164.0
184.073273 184.0
184.093597 224.0
184.370758 80.0
184.513992 108.0
184.995483 284.0
185.073669 300.0
185.094559 188.0
185.637558 72.0
186.065735 160.0
186.089005 312.0
186.568741 204.0
187.072296 740.0
187.110855 904.0
187.243484 168.0
187.295227 52.0
187.360596 224.0
187.524078 124.0
187.875793 40.0
188.047684 172.0
188.075333 392.0
188.1129 316.0
188.119354 428.0
188.216919 148.0
188.76062 76.0
188.995834 124.0
189.085098 420.0
189.122131 128.0
189.179718 124.0
189.751694 192.0
190.078049 192.0
190.374481 124.0
190.495316 196.0
191.719574 96.0
192.075195 128.0
192.224167 104.0
192.420105 152.0
192.975388 160.0
193.027908 200.0
193.193848 164.0
193.343231 208.0
193.775162 116.0
194.032883 124.0
194.110504 216.0
194.177048 68.0
194.326828 60.0
194.623779 176.0
195.18222 164.0
195.566086 188.0
195.61618 100.0
195.863983 208.0
196.078506 188.0
196.270828 196.0
196.870712 100.0
196.91539 188.0
197.093124 168.0
197.611374 80.0
197.681305 176.0
198.00882 156.0
198.034775 104.0
198.089996 2180.0
198.202087 60.0
198.330994 100.0
198.373032 160.0
198.838593 204.0
199.082092 904.0
199.109619 460.0
199.189514 68.0
199.228851 136.0
199.619476 48.0
199.667282 140.0
199.866989 72.0
199.957031 216.0
200.08493 440.0
200.277969 124.0
200.424438 116.0
200.444168 80.0
200.514618 40.0
200.65593 116.0
200.702484 172.0
201.053894 684.0
201.092911 172.0
201.247467 112.0
201.298782 76.0
201.352432 132.0
201.569931 112.0
202.054596 256.0
202.088455 180.0
202.18634 56.0
202.582703 220.0
202.676193 160.0
203.002136 196.0
203.07019 216.0
203.270218 144.0
203.580978 236.0
204.368271 172.0
204.52478 116.0
204.735443 184.0
204.809479 176.0
205.228348 132.0
205.650513 136.0
205.83606 148.0
206.307434 52.0
206.624832 124.0
206.868057 176.0
206.994019 92.0
208.830521 176.0
209.080795 104.0
209.236206 124.0
209.432007 152.0
209.599075 108.0
210.083115 216.0
210.822464 96.0
210.923599 60.0
211.076813 152.0
211.305283 60.0
212.075485 256.0
212.707748 108.0
213.032944 164.0
213.077377 272.0
213.100082 1428.0
213.154953 120.0
213.652084 164.0
213.67244 76.0
213.698624 116.0
213.783005 56.0
213.98674 84.0
214.078659 132.0
214.110809 816.0
214.269211 64.0
214.304169 140.0
214.834717 92.0
214.887222 64.0
214.913483 204.0
215.024353 140.0
215.071518 912.0
215.11058 6156.0
215.187805 140.0
215.217545 64.0
215.237442 180.0
215.345474 60.0
215.693146 48.0
215.780838 60.0
215.968933 268.0
216.008911 200.0
216.076523 488.0
216.11264 1084.0
216.149323 212.0
216.237106 56.0
216.389313 72.0
216.834518 116.0
216.863815 120.0
216.92244 44.0
216.998215 192.0
217.042679 244.0
217.085159 7900.0
217.15181 188.0
217.224442 60.0
217.280624 104.0
217.318314 128.0
217.389877 92.0
217.450348 96.0
217.479691 252.0
217.521042 136.0
217.564804 176.0
217.596588 192.0
217.673431 76.0
217.703262 236.0
217.732162 84.0
217.805573 132.0
217.85257 152.0
217.896637 72.0
218.089401 1168.0
218.275757 44.0
219.052643 232.0
219.095871 124.0
219.146912 188.0
219.807327 128.0
219.9375 172.0
220.090652 84.0
220.468719 64.0
220.681091 80.0
221.006851 128.0
221.720428 104.0
222.093948 196.0
222.239304 32.0
222.907318 108.0
223.463287 172.0
223.57634 196.0
224.011002 128.0
224.091431 60.0
224.112274 164.0
224.505707 116.0
225.097549 244.0
225.189072 36.0
225.329453 120.0
225.849548 132.0
226.069946 328.0
226.114594 352.0
226.148712 56.0
226.205582 160.0
226.552917 68.0
226.65477 48.0
227.076859 436.0
227.115936 312.0
227.197388 84.0
227.455429 176.0
227.980972 188.0
228.047089 160.0
228.086792 224.0
228.119308 120.0
228.131058 132.0
228.140747 192.0
229.082062 200.0
229.506958 96.0
229.585358 100.0
230.572449 108.0
231.407242 188.0
232.059998 152.0
232.301163 232.0
232.386093 36.0
232.589401 216.0
233.142105 132.0
234.069809 160.0
234.350006 72.0
234.444458 80.0
235.267914 144.0
236.352783 148.0
237.072311 64.0
237.673264 116.0
237.949463 108.0
238.923599 60.0
239.295944 108.0
240.127869 104.0
240.275085 60.0
240.538193 88.0
240.569061 100.0
240.683273 344.0
240.76355 140.0
240.927246 88.0
241.004471 116.0
241.053909 124.0
241.095993 6636.0
241.130524 1084.0
241.335159 112.0
241.400085 56.0
241.628952 108.0
241.891968 44.0
241.972443 180.0
242.098633 336.0
242.131958 288.0
242.213974 48.0
242.313095 160.0
242.340973 140.0
242.396744 124.0
242.849304 96.0
242.877228 104.0
242.926849 156.0
242.985779 164.0
243.047836 140.0
243.101501 13472.0
243.212296 108.0
243.252823 136.0
243.324036 100.0
243.389236 76.0
243.519653 108.0
243.578659 228.0
243.619034 136.0
243.646988 28.0
243.700424 80.0
243.730865 32.0
243.783691 48.0
244.104126 1648.0
244.231339 112.0
244.324646 52.0
244.477097 52.0
244.511841 72.0
244.638931 48.0
245.108398 508.0
245.511246 60.0
245.809509 144.0
245.888031 112.0
245.979202 36.0
246.072845 44.0
246.094696 144.0
246.363266 104.0
246.863297 44.0
247.004013 176.0
247.842941 212.0
248.046631 212.0
248.112457 204.0
248.171448 108.0
248.827682 56.0
249.088303 88.0
251.070969 76.0
252.100006 112.0
252.251694 160.0
252.634293 236.0
253.115311 92.0
253.441528 84.0
253.920151 188.0
254.097763 132.0
254.929581 136.0
255.018555 96.0
255.110733 124.0
255.457321 68.0
256.141632 156.0
256.262695 60.0
257.720642 164.0
257.963501 188.0
258.968109 48.0
259.58017 160.0
261.095764 200.0
262.103241 180.0
262.81897 164.0
263.067444 72.0
263.361267 152.0
264.159576 116.0
265.273407 88.0
265.390106 160.0
265.613831 36.0
266.146027 64.0
266.766479 144.0
266.877014 176.0
267.109528 348.0
267.137146 96.0
267.729462 224.0
268.149414 180.0
268.253998 108.0
269.091827 856.0
269.123688 396.0
269.379669 88.0
269.50708 104.0
269.729279 140.0
270.087799 432.0
270.113403 344.0
270.599365 152.0
271.09726 196.0
271.808685 44.0
272.002319 116.0
272.102234 136.0
272.632843 208.0
273.619507 172.0
274.03775 132.0
274.309326 152.0
275.852661 148.0
276.256042 112.0
277.023956 172.0
277.113403 176.0
277.958832 80.0
278.280762 44.0
278.330566 36.0
278.739075 168.0
280.412811 128.0
280.562805 180.0
281.393433 56.0
281.663879 140.0
282.014679 56.0
282.118317 232.0
282.21524 120.0
282.255371 216.0
282.984711 156.0
283.055023 76.0
283.095184 96.0
283.560822 140.0
283.65799 48.0
283.892242 92.0
283.942963 120.0
284.025452 184.0
284.083832 160.0
284.139038 32796.0
284.240082 132.0
284.325378 44.0
284.375732 52.0
284.452911 64.0
284.50116 64.0
284.541565 116.0
284.579224 68.0
284.661041 40.0
284.802094 76.0
284.849121 48.0
284.973389 68.0
285.141205 2384.0
285.201874 64.0
285.225403 76.0
285.312805 64.0
285.366577 48.0
285.52597 116.0
285.861267 96.0
285.911865 100.0
285.945129 64.0
286.005676 44.0
286.14032 72.0
286.200928 88.0
286.392853 108.0
286.578125 48.0
286.942078 52.0
286.985901 128.0
287.100861 128.0
287.147766 56.0
287.352051 148.0
287.605225 60.0
288.121277 2024.0
288.319122 180.0
288.366425 52.0
288.563049 100.0
289.127197 408.0
289.181458 148.0
289.215302 48.0
289.608032 56.0
289.790924 84.0
290.131989 300.0
290.563843 28.0
290.764038 216.0
291.025391 84.0
291.558655 72.0
291.731964 64.0
291.861145 84.0
293.195404 56.0
293.870514 156.0
294.058167 56.0
294.112762 84.0
294.597595 128.0
295.105042 104.0
296.564941 108.0
297.103241 124.0
297.134094 164.0
297.820587 124.0
298.126312 108.0
298.53537 92.0
298.889648 140.0
299.058258 112.0
299.092651 168.0
299.612579 84.0
300.760773 124.0
301.081818 96.0
303.091431 112.0
305.042877 152.0
305.119965 284.0
306.917999 132.0
308.261749 100.0
308.342102 64.0
309.303833 44.0
310.775574 96.0
311.579498 80.0
311.983582 44.0
312.008209 80.0
312.133179 9300.0
312.198059 52.0
312.247284 108.0
312.58847 76.0
312.905212 72.0
312.965088 60.0
313.137146 616.0
313.352448 64.0
314.33255 60.0
314.8479 68.0
315.148132 120.0
315.314209 88.0
315.480316 212.0
315.681824 68.0
317.760773 64.0
321.617889 56.0
329.373016 92.0
331.058228 144.0
331.135468 244.0
332.123627 152.0
333.121765 88.0
335.490509 56.0
337.827454 92.0
338.398315 80.0
338.51181 148.0
338.764496 64.0
339.143738 416.0
339.211517 104.0
340.122253 128.0
340.605743 52.0
340.631439 36.0
341.667999 52.0
342.551422 40.0
350.447296 20.0
351.023102 52.0
351.310272 92.0
351.351288 132.0
352.196289 144.0
357.518158 80.0
359.134247 212.0
362.37738 52.0
366.011902 120.0
369.928619 112.0
373.519958 64.0
375.113953 128.0
375.916077 104.0
376.147156 160.0
376.386963 84.0
376.804077 56.0
389.051239 64.0
390.037109 192.0
392.0914 96.0
396.010223 72.0
407.196655 140.0
409.189362 244.0
410.330994 84.0
418.359772 112.0
422.15387 196.0
423.053925 68.0
424.290985 92.0
424.623077 84.0
424.713318 56.0
424.930695 140.0
425.213806 196.0
426.207489 120.0
426.297882 56.0
430.226776 44.0
434.974396 64.0
438.62619 108.0
445.366394 52.0
463.467224 84.0
468.889771 48.0
483.703949 56.0
484.697998 144.0
495.872742 48.0
525.638916 48.0
539.827332 56.0
550.402344 40.0
551.336548 192.0
562.480896 120.0
586.110596 20.0
588.551025 96.0
589.879456 96.0
590.009949 48.0
597.78418 76.0
622.191223 60.0
634.257141 88.0
646.87915 84.0
648.216064 92.0
654.55481 76.0
674.59314 36.0
675.058411 68.0
689.477844 296.0
717.643188 56.0
789.723328 112.0
819.112061 176.0
827.460205 168.0
836.852112 32.0
865.029785 204.0
869.601196 124.0
876.174622 76.0
959.739929 64.0
978.629639 164.0
1009.87854 212.0
1020.105225 176.0
1022.859314 140.0
1030.057617 256.0
1035.954956 68.0
1038.967651 116.0
1052.656372 60.0
1079.812012 156.0
1086.302368 116.0
1091.240356 164.0
1094.148071 208.0
1094.246826 216.0
1097.125488 168.0
1103.621338 60.0
1109.871094 108.0
1113.27478 232.0
1116.344604 56.0
1116.969727 148.0
1132.265991 204.0
1135.744141 228.0
1152.484985 180.0
1161.582886 108.0
1171.043457 124.0
1177.965942 196.0
1183.361206 152.0
1188.569702 164.0
1188.6521 124.0
1220.492432 132.0
1229.575317 160.0
1233.353394 160.0
1233.417114 152.0
1233.51416 160.0
1242.041992 212.0
1248.594238 140.0
1250.352905 136.0
1251.274902 220.0
1257.950195 120.0
1259.609497 112.0
1263.900391 136.0
1268.177246 96.0
1268.340332 208.0
1268.978271 176.0
1276.319092 184.0
1286.570312 152.0
1287.669922 284.0
1293.797119 172.0
1303.36377 152.0
1303.442871 52.0
1305.865234 172.0
1311.574341 204.0
1329.958984 156.0
1334.833252 204.0
1342.281738 196.0
1346.236328 148.0
1357.709961 140.0
1358.369995 112.0
1359.184204 164.0
1362.318848 116.0
1371.796021 232.0
1372.216187 164.0
1374.458252 112.0
1377.699097 180.0
1378.799927 76.0
1386.814453 60.0
1388.423096 120.0
1397.730103 140.0
1401.921997 212.0
1407.755005 204.0
1409.734375 172.0
1421.369751 144.0
1423.403809 128.0
1428.446167 176.0
1429.634888 180.0
1429.905762 48.0
1435.291382 176.0
1442.886108 132.0
1444.11853 96.0
1444.625244 156.0
1445.026245 156.0
1447.48584 240.0
1448.076538 176.0
1448.894531 88.0
1451.493896 124.0
1454.482788 96.0
1456.160522 204.0
1457.945679 180.0
1459.283325 168.0
1462.843384 136.0
1464.54126 88.0
1470.701294 144.0
1471.136353 140.0
1473.763306 144.0
1481.183228 160.0
