>compound MLS002153855-01!Norcyclobenzaprine303-50-4
>formula C19H19N
>ionization [M+H]+
>parentmass 262.1590260600905
#inchi InChI=1S/C19H19N/c1-20-14-6-11-19-17-9-4-2-7-15(17)12-13-16-8-3-5-10-18(16)19/h2-5,7-13,20H,6,14H2,1H3
#inchikey XECQQDXTQRYYBH
#Ion_Source LC-ESI
#Instrument qTof
#Compound_Source NIH Pharmacologically Active Library
#PI Dorrestein
#Data_Collector VP/LMS
#Scan -1
#Precursor_MZ 262.164
#ExactMass 261.152
#Charge 1
#CAS_Number N/A
#Pubmed_ID N/A
#Smiles CNCCC=C1c2ccccc2C=Cc3ccccc13
#INCHI_AUX N/A
#Library_Class 1
#SpectrumID CCMSLIB00000085637
#IonMode Positive
#UpdateWorkflowName UPDATE-SINGLE-ANNOTATED-GOLD
#LibraryQualityString Gold
#TaskID d252d724072548979f1f6f1ced849daf
##Scan# 1728
#SpectrumFile p4-D08_GD8_01_18368.mzXML
#LibraryName Pharm_Active_Library.mgf
#MQScore -1
#Organism Pharm_Active_Library
#TIC_Query 0
#RT_Query -1
#MZErrorPPM -1
#SharedPeaks 0
#MassDiff 0
#LibMZ -1
#SpecMZ 262.164
#SpecCharge 0
#internalFilename spec-00000.mgf

>collision 10
44.891266 128.0
44.93103 176.0
44.948376 300.0
44.974991 276.0
44.99509 60.0
45.019127 104.0
45.041309 216.0
45.051182 180.0
45.063206 172.0
45.078716 112.0
45.083172 172.0
45.08696 108.0
45.091629 148.0
45.105183 136.0
45.11533 76.0
45.177761 200.0
45.202156 192.0
45.225018 212.0
45.239559 172.0
45.259823 128.0
45.270538 160.0
45.298012 156.0
45.311787 136.0
45.32412 108.0
45.335747 160.0
45.359703 176.0
45.369839 72.0
45.389801 132.0
45.405891 160.0
45.418453 252.0
45.437199 260.0
45.482372 112.0
45.502506 204.0
45.523098 264.0
45.537422 28.0
45.568874 300.0
45.585907 180.0
45.628799 132.0
45.643589 108.0
45.68996 176.0
45.708603 168.0
45.724304 96.0
45.741802 372.0
45.763832 132.0
45.788929 104.0
45.821915 172.0
45.840122 144.0
45.865726 88.0
45.922359 144.0
45.935848 128.0
45.949276 176.0
45.977676 108.0
45.996571 212.0
46.023571 156.0
46.049229 184.0
46.064087 172.0
46.094723 220.0
46.121841 108.0
46.149734 204.0
46.162518 160.0
46.173573 124.0
46.184391 140.0
46.219566 156.0
46.253403 132.0
46.300789 136.0
46.327518 120.0
46.387665 272.0
46.410553 128.0
46.420048 116.0
46.436321 196.0
46.470901 252.0
46.493244 176.0
46.514606 224.0
46.536533 144.0
46.57748 152.0
46.5965 140.0
46.608093 120.0
46.625034 344.0
46.654221 272.0
46.665287 72.0
46.693012 220.0
46.720219 164.0
46.734097 120.0
46.760445 216.0
46.778736 172.0
46.807003 148.0
46.818066 140.0
46.837288 136.0
46.852272 188.0
46.869984 168.0
46.901329 224.0
46.929958 52.0
46.961708 228.0
46.976063 248.0
46.988605 220.0
47.011185 168.0
47.063675 168.0
47.080463 136.0
47.096748 128.0
47.119793 184.0
47.145638 96.0
47.157936 300.0
47.171604 104.0
47.185318 132.0
47.201923 296.0
47.218094 232.0
47.229038 100.0
47.244843 288.0
47.290607 168.0
47.315247 164.0
47.325859 176.0
47.350254 92.0
47.364861 176.0
47.376392 204.0
47.386951 264.0
47.400169 116.0
47.427578 196.0
47.464596 52.0
47.488903 168.0
47.517525 184.0
47.527691 128.0
47.537296 152.0
47.548908 188.0
47.559872 168.0
47.576939 136.0
47.587105 168.0
47.601547 164.0
47.618298 136.0
47.629284 164.0
47.69249 120.0
47.711071 120.0
47.726173 160.0
47.740612 264.0
47.792885 56.0
47.810772 148.0
47.857574 180.0
47.866577 116.0
47.905777 184.0
47.940685 180.0
47.945251 148.0
47.96917 144.0
47.981575 160.0
48.005016 164.0
48.019073 104.0
48.045017 92.0
48.076752 152.0
48.102734 160.0
48.119541 188.0
48.191364 316.0
48.219002 176.0
48.255241 92.0
48.273258 420.0
48.289513 136.0
48.313026 124.0
48.351887 96.0
48.364227 152.0
48.373917 100.0
48.422379 108.0
48.451202 140.0
48.479652 188.0
48.491653 176.0
48.506901 188.0
48.524925 348.0
48.541561 52.0
48.588787 184.0
48.601208 272.0
48.615086 160.0
48.635902 196.0
48.692829 100.0
48.708427 348.0
48.726025 192.0
48.741451 48.0
48.752831 192.0
48.763527 140.0
48.79277 204.0
48.826252 116.0
48.849895 92.0
48.862419 108.0
48.886074 68.0
48.903946 128.0
48.925045 52.0
48.937576 48.0
48.950108 140.0
48.96682 96.0
48.987503 80.0
49.001926 216.0
49.021152 196.0
49.039268 168.0
49.049026 68.0
49.082485 168.0
49.10759 188.0
49.122086 252.0
49.153625 120.0
49.173084 212.0
49.211071 180.0
49.237385 52.0
49.252258 332.0
49.263924 92.0
49.277897 136.0
49.293266 144.0
49.318504 160.0
49.346382 48.0
49.3633 180.0
49.380848 148.0
49.385189 96.0
49.388649 124.0
49.41169 100.0
49.430305 184.0
49.468864 124.0
49.515701 136.0
49.549805 116.0
49.56847 192.0
49.571781 128.0
49.576763 116.0
49.609581 164.0
49.651646 132.0
49.673428 204.0
49.702316 168.0
49.717587 136.0
49.727409 60.0
49.748463 160.0
49.763988 140.0
49.806038 212.0
49.821491 168.0
49.842564 148.0
49.868752 160.0
49.89035 136.0
49.9016 136.0
49.917065 144.0
49.931129 176.0
49.946468 188.0
49.963131 224.0
49.997253 168.0
50.011124 252.0
50.036667 136.0
50.068447 252.0
50.08736 60.0
50.108494 152.0
50.122753 200.0
50.153267 160.0
50.171337 196.0
50.184601 144.0
50.194473 168.0
50.245251 208.0
50.260952 124.0
50.272617 212.0
50.283348 216.0
50.308353 140.0
50.329895 192.0
50.356766 148.0
50.386375 104.0
50.416103 184.0
50.428822 176.0
50.438717 160.0
50.46558 176.0
50.478653 168.0
50.497559 176.0
50.509708 172.0
50.524979 232.0
50.581585 168.0
50.591496 136.0
50.612732 132.0
50.641056 304.0
50.671028 152.0
50.674389 136.0
50.680977 200.0
50.704987 228.0
50.724709 104.0
50.734997 176.0
50.751591 120.0
50.771381 176.0
50.795353 112.0
50.811161 116.0
50.826771 240.0
50.8438 64.0
50.853733 176.0
50.878593 272.0
50.894901 92.0
50.904842 100.0
50.931309 264.0
50.943192 152.0
50.970184 144.0
50.983833 104.0
50.995766 120.0
51.018368 120.0
51.034149 112.0
51.048367 124.0
51.069702 104.0
51.09325 144.0
51.113804 172.0
51.135754 136.0
51.15155 188.0
51.188141 108.0
51.200165 168.0
51.223431 156.0
51.24765 112.0
51.268578 140.0
51.293255 128.0
51.330322 76.0
51.344582 100.0
51.355991 52.0
51.370758 228.0
51.402184 308.0
51.451603 164.0
51.475159 176.0
51.485355 100.0
51.507332 116.0
51.52837 260.0
51.540154 164.0
51.560688 184.0
51.577312 164.0
51.603848 192.0
51.638794 116.0
51.672268 216.0
51.7089 140.0
51.721783 172.0
51.731804 144.0
51.759007 200.0
51.779739 100.0
51.792835 180.0
51.828339 208.0
51.839748 164.0
51.864025 144.0
51.875053 168.0
51.88509 108.0
51.904366 280.0
51.919502 72.0
51.929543 116.0
51.956799 132.0
51.986931 280.0
52.000183 68.0
52.022812 120.0
52.03286 124.0
52.052963 112.0
52.091602 164.0
52.12495 176.0
52.141891 164.0
52.150883 176.0
52.172218 128.0
52.188034 196.0
52.223984 124.0
52.236931 112.0
52.255634 104.0
52.278656 172.0
52.306 160.0
52.336235 192.0
52.349194 132.0
52.372238 116.0
52.386642 148.0
52.416313 188.0
52.441399 216.0
52.481762 160.0
52.50589 224.0
52.550419 120.0
52.575527 36.0
52.597176 36.0
52.610531 144.0
52.627495 112.0
52.643711 156.0
52.666485 64.0
52.679485 136.0
52.695377 156.0
52.724277 120.0
52.754631 76.0
52.776318 256.0
52.786213 128.0
52.810863 144.0
52.825489 112.0
52.86311 100.0
52.878933 120.0
52.88916 156.0
52.911564 176.0
52.93404 148.0
52.945976 132.0
52.974548 128.0
53.029694 152.0
53.049309 156.0
53.0891 152.0
53.117619 188.0
53.148571 152.0
53.159348 160.0
53.177597 132.0
53.192112 164.0
53.247288 140.0
53.280697 168.0
53.309757 160.0
53.322838 144.0
53.346092 168.0
53.380989 188.0
53.4314 164.0
53.444191 160.0
53.458088 104.0
53.468273 108.0
53.493019 96.0
53.53767 180.0
53.594158 184.0
53.621197 148.0
53.641682 148.0
53.658089 220.0
53.670872 156.0
53.68856 328.0
53.710823 204.0
53.761204 200.0
53.794201 164.0
53.821636 120.0
53.848797 176.0
53.871414 116.0
53.918869 100.0
53.928257 156.0
53.954269 180.0
53.983486 124.0
54.019127 212.0
54.043224 180.0
54.062248 228.0
54.077213 332.0
54.088314 168.0
54.105297 136.0
54.12373 176.0
54.13596 148.0
54.158878 228.0
54.173527 192.0
54.213531 92.0
54.23214 180.0
54.243866 200.0
54.258526 144.0
54.279053 128.0
54.298267 272.0
54.317184 156.0
54.327454 44.0
54.356628 140.0
54.378284 156.0
54.403763 96.0
54.41404 144.0
54.429623 176.0
54.435024 248.0
54.449284 52.0
54.469845 196.0
54.491882 200.0
54.505104 148.0
54.531303 208.0
54.544632 188.0
54.578339 180.0
54.598061 120.0
54.610954 44.0
54.622723 116.0
54.639263 180.0
54.668427 188.0
54.699493 140.0
54.732784 148.0
54.736553 116.0
54.760983 60.0
54.77581 136.0
54.797165 208.0
54.815975 216.0
54.830559 128.0
54.859211 168.0
54.898144 140.0
54.925358 124.0
54.929478 164.0
54.940918 324.0
54.980988 228.0
55.004372 308.0
55.042759 176.0
55.056 116.0
55.082634 144.0
55.108955 152.0
55.13522 264.0
55.171299 88.0
55.185997 132.0
55.21418 108.0
55.228973 160.0
55.291367 188.0
55.345737 160.0
55.385872 92.0
55.412537 160.0
55.422909 164.0
55.455513 120.0
55.474781 96.0
55.492138 96.0
55.51746 160.0
55.544476 168.0
55.562363 140.0
55.60157 100.0
55.639187 112.0
55.661724 112.0
55.676575 208.0
55.72229 164.0
55.734509 160.0
55.746395 104.0
55.773643 156.0
55.825184 152.0
55.839371 156.0
55.855583 164.0
55.866177 164.0
55.878731 52.0
55.903252 148.0
55.918911 104.0
55.932789 148.0
55.950798 220.0
55.975216 156.0
56.003777 124.0
56.015694 120.0
56.028553 196.0
56.058422 124.0
56.075294 164.0
56.101379 248.0
56.124489 52.0
56.137909 92.0
56.149193 156.0
56.170326 120.0
56.187134 164.0
56.233826 96.0
56.269218 108.0
56.279671 88.0
56.305473 128.0
56.322979 128.0
56.349869 76.0
56.36182 124.0
56.376766 36.0
56.390217 160.0
56.412468 176.0
56.446915 220.0
56.4734 132.0
56.496384 108.0
56.524811 144.0
56.546814 148.0
56.563137 164.0
56.5742 196.0
56.598156 180.0
56.623028 112.0
56.640652 128.0
56.66592 280.0
56.708752 136.0
56.741993 140.0
56.762985 140.0
56.774982 48.0
56.789978 180.0
56.807117 200.0
56.824482 184.0
56.834621 148.0
56.848492 164.0
56.872505 92.0
56.890602 140.0
56.905621 132.0
56.933395 352.0
56.95895 252.0
56.995651 132.0
57.036888 148.0
57.047661 148.0
57.06028 152.0
57.070805 112.0
57.093868 196.0
57.114059 168.0
57.138489 120.0
57.152027 168.0
57.168079 180.0
57.192184 164.0
57.224274 152.0
57.251122 116.0
57.267944 160.0
57.281502 136.0
57.296566 200.0
57.319168 96.0
57.356846 128.0
57.38398 184.0
57.421318 184.0
57.435257 124.0
57.459393 48.0
57.491077 196.0
57.539379 144.0
57.562103 164.0
57.594982 176.0
57.617756 152.0
57.654526 192.0
57.722206 80.0
57.733547 112.0
57.753326 104.0
57.805931 256.0
57.865952 216.0
57.891865 104.0
57.909927 200.0
57.925915 136.0
57.949924 72.0
57.978043 68.0
57.988651 44.0
57.99926 348.0
58.026588 156.0
58.059738 176.0
58.098812 148.0
58.116035 132.0
58.147297 80.0
58.160046 184.0
58.191788 132.0
58.205742 360.0
58.228733 184.0
58.24052 120.0
58.261345 192.0
58.276981 144.0
58.295216 168.0
58.31953 180.0
58.340813 172.0
58.380344 124.0
58.392345 172.0
58.420292 216.0
58.442818 116.0
58.461277 140.0
58.482281 100.0
58.50386 68.0
58.532516 168.0
58.579037 236.0
58.613251 116.0
58.634354 132.0
58.651352 156.0
58.663548 172.0
58.677265 296.0
58.695564 144.0
58.707764 88.0
58.757259 212.0
58.774883 188.0
58.797401 260.0
58.813034 120.0
58.833931 232.0
58.856812 160.0
58.871723 128.0
58.890163 148.0
58.913818 132.0
58.929859 208.0
58.947823 128.0
58.9697 140.0
58.996342 100.0
59.013161 168.0
59.023865 176.0
59.036098 184.0
59.055977 208.0
59.107994 84.0
59.199047 324.0
59.240196 184.0
59.262283 136.0
59.29081 144.0
59.327015 184.0
59.345955 192.0
59.382984 180.0
59.408291 164.0
59.42664 192.0
59.446651 64.0
59.466602 112.0
59.478523 132.0
59.493492 116.0
59.500065 60.0
59.504093 104.0
59.53569 156.0
59.566406 184.0
59.598671 124.0
59.632431 132.0
59.657547 156.0
59.677059 136.0
59.708424 252.0
59.733963 164.0
59.760117 48.0
59.784737 164.0
59.803204 148.0
59.824753 100.0
59.857086 324.0
59.879417 136.0
59.910995 64.0
59.942795 244.0
59.98959 180.0
60.038929 112.0
60.057438 136.0
60.076763 236.0
60.088543 160.0
60.126865 84.0
60.153107 124.0
60.17384 204.0
60.193497 220.0
60.214867 224.0
60.239582 196.0
60.251942 140.0
60.274025 164.0
60.289024 140.0
60.332447 304.0
60.383331 92.0
60.409626 124.0
60.453274 144.0
60.478806 164.0
60.515175 60.0
60.542736 272.0
60.553577 184.0
60.581459 140.0
60.598259 204.0
60.636768 184.0
60.677544 112.0
60.702774 148.0
60.717861 84.0
60.733372 140.0
60.775257 104.0
60.792248 160.0
60.798412 152.0
60.818001 260.0
60.846825 164.0
60.868683 128.0
60.896252 132.0
60.933628 64.0
60.956429 148.0
60.974945 224.0
60.992554 100.0
61.015331 112.0
61.037224 196.0
61.070423 124.0
61.118652 132.0
61.135181 212.0
61.17001 96.0
61.180908 152.0
61.204842 300.0
61.238522 128.0
61.274349 168.0
61.315086 216.0
61.329865 192.0
61.344479 192.0
61.356949 160.0
61.367863 228.0
61.388134 164.0
61.411556 164.0
61.463009 100.0
61.495785 108.0
61.516075 84.0
61.534077 128.0
61.550423 164.0
61.572014 152.0
61.597275 112.0
61.609776 80.0
61.634773 156.0
61.653599 172.0
61.68578 132.0
61.701828 164.0
61.745274 128.0
61.78487 200.0
61.79895 128.0
61.852158 292.0
61.893215 160.0
61.917919 148.0
61.957706 152.0
62.058952 164.0
62.109135 128.0
62.121685 160.0
62.15934 120.0
62.182716 152.0
62.214226 132.0
62.237041 136.0
62.248817 96.0
62.26609 180.0
62.28651 164.0
62.31636 180.0
62.339928 168.0
62.419201 140.0
62.435825 136.0
62.448406 116.0
62.460991 132.0
62.484589 68.0
62.515285 196.0
62.539692 244.0
62.55698 132.0
62.572723 172.0
62.584751 100.0
62.601067 112.0
62.625103 168.0
62.653042 116.0
62.679829 76.0
62.705044 160.0
62.727108 64.0
62.752003 172.0
62.778053 116.0
62.79018 320.0
62.813839 124.0
62.831192 104.0
62.84539 124.0
62.862015 172.0
62.871181 116.0
62.888 140.0
62.90852 204.0
62.924309 184.0
62.939655 100.0
62.954308 240.0
62.973488 168.0
62.985897 168.0
63.036453 136.0
63.047516 120.0
63.080765 112.0
63.106003 120.0
63.140255 188.0
63.176849 172.0
63.210186 156.0
63.237301 196.0
63.269188 168.0
63.311741 236.0
63.33466 176.0
63.344975 312.0
63.366562 148.0
63.386337 296.0
63.397022 160.0
63.409939 284.0
63.421032 92.0
63.457493 136.0
63.488056 132.0
63.499493 204.0
63.502224 136.0
63.555313 164.0
63.574173 136.0
63.579937 168.0
63.604431 148.0
63.613377 124.0
63.632019 200.0
63.668652 172.0
63.694256 188.0
63.703922 160.0
63.730492 184.0
63.74453 180.0
63.769184 188.0
63.793243 256.0
63.814732 192.0
63.860847 156.0
63.90274 36.0
63.940399 148.0
63.967842 200.0
63.984158 180.0
64.028969 108.0
64.040703 92.0
64.123558 136.0
64.143379 216.0
64.160217 208.0
64.202454 180.0
64.207108 88.0
64.212189 216.0
64.225601 160.0
64.293594 188.0
64.31176 148.0
64.344032 172.0
64.380501 144.0
64.393188 164.0
64.423599 108.0
64.438484 152.0
64.454376 308.0
64.47287 128.0
64.490395 124.0
64.508133 148.0
64.51828 184.0
64.535416 176.0
64.585098 176.0
64.649803 180.0
64.666588 148.0
64.704758 232.0
64.719414 60.0
64.747986 152.0
64.773125 112.0
64.7995 84.0
64.833153 148.0
64.864662 152.0
64.901337 156.0
64.942169 152.0
64.955002 168.0
64.967842 152.0
64.99868 72.0
65.028816 104.0
65.040047 160.0
65.054825 156.0
65.073761 100.0
65.091423 140.0
65.128365 144.0
65.148148 164.0
65.166916 136.0
65.187805 160.0
65.208702 116.0
65.240997 152.0
65.271622 136.0
65.294022 176.0
65.350212 112.0
65.371132 96.0
65.388832 148.0
65.46933 108.0
65.487045 164.0
65.498322 184.0
65.527313 152.0
65.549873 256.0
65.571655 116.0
65.586945 124.0
65.603065 112.0
65.636147 92.0
65.647194 156.0
65.654289 88.0
65.658455 136.0
65.671707 144.0
65.689537 192.0
65.711113 156.0
65.730476 144.0
65.747505 116.0
65.763351 332.0
65.781662 168.0
65.80957 152.0
65.833794 116.0
65.845093 164.0
65.858017 132.0
65.869324 100.0
65.902893 164.0
65.936981 124.0
65.959053 136.0
65.98568 140.0
65.998985 176.0
66.010956 108.0
66.063309 180.0
66.10376 100.0
66.134506 96.0
66.152313 152.0
66.170853 200.0
66.182953 156.0
66.216713 140.0
66.242996 132.0
66.257286 180.0
66.285004 112.0
66.322395 132.0
66.34433 256.0
66.389542 264.0
66.437531 136.0
66.456184 200.0
66.480667 184.0
66.567375 176.0
66.592781 108.0
66.615242 204.0
66.632622 144.0
66.646187 128.0
66.673294 160.0
66.683281 140.0
66.718224 152.0
66.741241 132.0
66.757629 160.0
66.799797 320.0
66.830399 192.0
66.853485 184.0
66.8778 136.0
66.896225 264.0
66.920227 80.0
66.969078 160.0
66.99514 176.0
67.019691 176.0
67.071915 212.0
67.092972 136.0
67.115181 196.0
67.14846 220.0
67.16304 56.0
67.176094 192.0
67.203011 152.0
67.242065 232.0
67.257591 140.0
67.272369 148.0
67.332787 180.0
67.357285 72.0
67.378525 60.0
67.423485 288.0
67.439926 168.0
67.462006 96.0
67.475655 176.0
67.489662 108.0
67.511604 240.0
67.52401 184.0
67.550179 92.0
67.622169 80.0
67.667557 188.0
67.68428 132.0
67.695847 172.0
67.708946 164.0
67.723686 160.0
67.77504 264.0
67.790817 160.0
67.810524 176.0
67.848312 148.0
67.876099 272.0
67.887573 44.0
67.941704 80.0
67.967957 56.0
67.980774 256.0
68.005699 48.0
68.022118 284.0
68.066986 420.0
68.097137 360.0
68.140358 124.0
68.169174 164.0
68.184525 132.0
68.232391 148.0
68.25769 196.0
68.294884 188.0
68.317909 96.0
68.337654 244.0
68.349174 192.0
68.429825 96.0
68.446289 300.0
68.469551 156.0
68.501251 216.0
68.524696 180.0
68.563698 252.0
68.592918 148.0
68.615936 112.0
68.632484 108.0
68.644028 140.0
68.663818 204.0
68.691002 100.0
68.720848 216.0
68.741356 100.0
68.782616 164.0
68.840401 156.0
68.884995 112.0
68.909775 204.0
68.9263 120.0
68.962654 188.0
68.98745 180.0
69.008942 136.0
69.050285 180.0
69.084381 176.0
69.109741 212.0
69.122047 168.0
69.148788 252.0
69.177689 192.0
69.194244 72.0
69.219086 152.0
69.241737 188.0
69.258827 224.0
69.296936 84.0
69.346489 172.0
69.381691 140.0
69.427887 192.0
69.462715 176.0
69.497559 84.0
69.53698 148.0
69.550995 132.0
69.561569 112.0
69.632614 112.0
69.655273 168.0
69.669312 136.0
69.724274 136.0
69.729446 112.0
69.751648 180.0
69.776283 196.0
69.800362 200.0
69.824257 152.0
69.844765 136.0
69.878036 244.0
69.905563 176.0
69.917931 156.0
69.96257 212.0
69.984558 100.0
70.012871 80.0
70.033531 108.0
70.05661 184.0
70.073524 260.0
70.083664 112.0
70.123177 228.0
70.146164 144.0
70.169624 220.0
70.184509 72.0
70.227303 176.0
70.24955 96.0
70.267906 48.0
70.302948 144.0
70.336197 160.0
70.338448 148.0
70.381401 104.0
70.403107 56.0
70.440376 140.0
70.461029 136.0
70.486633 112.0
70.503975 212.0
70.516716 172.0
70.533264 200.0
70.537216 180.0
70.5746 192.0
70.605324 72.0
70.630226 144.0
70.652161 136.0
70.687881 160.0
70.714073 132.0
70.733948 128.0
70.7509 128.0
70.778732 152.0
70.796104 208.0
70.838211 176.0
70.877525 192.0
70.894035 144.0
70.905678 136.0
70.926788 176.0
70.940285 80.0
70.958542 136.0
70.988823 196.0
71.000565 88.0
71.017029 152.0
71.030754 132.0
71.074371 72.0
71.101341 56.0
71.121986 140.0
71.137077 128.0
71.151138 348.0
71.177559 196.0
71.196533 108.0
71.212563 164.0
71.228188 220.0
71.240189 148.0
71.253601 156.0
71.262108 124.0
71.265137 216.0
71.290993 120.0
71.313515 120.0
71.385132 88.0
71.432228 60.0
71.446884 180.0
71.465874 52.0
71.52478 164.0
71.575287 152.0
71.652023 112.0
71.705772 184.0
71.743767 116.0
71.759399 188.0
71.77243 136.0
71.796654 176.0
71.819649 196.0
71.850014 60.0
71.8787 172.0
71.904999 152.0
71.918236 124.0
71.934052 156.0
72.000656 164.0
72.054298 188.0
72.098015 156.0
72.134773 200.0
72.14444 188.0
72.166634 164.0
72.211502 224.0
72.242386 156.0
72.279968 316.0
72.304558 140.0
72.326561 132.0
72.358444 180.0
72.388443 220.0
72.411217 44.0
72.432243 136.0
72.45018 144.0
72.468811 136.0
72.489601 172.0
72.516899 96.0
72.537216 320.0
72.579933 268.0
72.614693 156.0
72.640045 116.0
72.653221 208.0
72.673973 228.0
72.686676 156.0
72.724884 116.0
72.75544 152.0
72.774117 152.0
72.81147 76.0
72.828461 180.0
72.849571 224.0
72.88282 104.0
72.932106 168.0
72.954651 272.0
72.984802 124.0
73.003952 352.0
73.037529 84.0
73.059639 136.0
73.077164 200.0
73.109863 232.0
73.135857 200.0
73.190697 160.0
73.213158 180.0
73.245193 160.0
73.26075 148.0
73.306923 156.0
73.355957 136.0
73.425865 172.0
73.437798 116.0
73.468506 164.0
73.51712 236.0
73.596512 72.0
73.618706 128.0
73.637497 128.0
73.673363 144.0
73.695854 172.0
73.709648 68.0
73.724625 108.0
73.756271 128.0
73.77932 52.0
73.799835 108.0
73.811806 120.0
73.845299 144.0
73.868187 236.0
73.909309 120.0
73.927467 144.0
73.986328 136.0
74.000023 84.0
74.012009 132.0
74.032555 160.0
74.056534 100.0
74.093414 348.0
74.109642 240.0
74.126778 128.0
74.15387 204.0
74.183334 196.0
74.210648 336.0
74.228088 196.0
74.242142 120.0
74.257401 184.0
74.286224 148.0
74.303383 184.0
74.317108 172.0
74.351128 116.0
74.373741 84.0
74.397476 176.0
74.426956 44.0
74.461304 108.0
74.486794 248.0
74.507576 192.0
74.555222 192.0
74.572983 200.0
74.606544 220.0
74.628441 152.0
74.65976 152.0
74.674004 116.0
74.689903 148.0
74.704506 120.0
74.726585 128.0
74.748398 96.0
74.793144 124.0
74.813011 140.0
74.853104 116.0
74.858421 96.0
74.913681 164.0
74.953308 192.0
74.977676 144.0
75.018387 104.0
75.041214 52.0
75.067078 124.0
75.091225 168.0
75.111923 156.0
75.18541 128.0
75.209122 156.0
75.222702 200.0
75.256439 124.0
75.270699 104.0
75.308693 176.0
75.336334 128.0
75.3657 156.0
75.386803 196.0
75.419395 168.0
75.44693 108.0
75.490158 124.0
75.536911 132.0
75.553177 176.0
75.568001 64.0
75.580109 220.0
75.604027 276.0
75.649002 164.0
75.667465 128.0
75.683968 184.0
75.708206 208.0
75.770081 128.0
75.781708 204.0
75.8022 356.0
75.825333 160.0
75.840919 308.0
75.851624 124.0
75.862587 196.0
75.887856 160.0
75.903137 184.0
75.917465 240.0
75.932709 156.0
75.957451 212.0
75.971848 208.0
76.035866 176.0
76.078659 172.0
76.102859 224.0
76.122673 252.0
76.139023 192.0
76.165443 140.0
76.199837 160.0
76.23037 160.0
76.244278 60.0
76.256439 176.0
76.297562 248.0
76.319023 136.0
76.35405 140.0
76.371193 84.0
76.388588 76.0
76.414749 292.0
76.440781 144.0
76.477333 124.0
76.510406 152.0
76.528595 152.0
76.569862 276.0
76.583542 268.0
76.600266 80.0
76.616638 156.0
76.663689 168.0
76.691574 36.0
76.721207 100.0
76.737984 224.0
76.768593 152.0
76.80761 124.0
76.828606 140.0
76.844025 256.0
76.889954 140.0
76.925117 180.0
76.970375 232.0
77.007378 292.0
77.033577 180.0
77.067596 140.0
77.096481 336.0
77.122696 116.0
77.147163 148.0
77.161049 136.0
77.172516 184.0
77.19088 340.0
77.225853 96.0
77.287086 192.0
77.301079 192.0
77.378944 240.0
77.40947 148.0
77.427124 184.0
77.4534 124.0
77.486443 224.0
77.500702 76.0
77.526451 212.0
77.549767 128.0
77.562042 212.0
77.604111 172.0
77.616386 96.0
77.646202 136.0
77.665031 168.0
77.684784 156.0
77.735672 132.0
77.747955 64.0
77.761406 156.0
77.786514 152.0
77.823433 124.0
77.856796 56.0
77.877876 196.0
77.916519 112.0
77.933067 128.0
77.957352 168.0
77.963058 140.0
77.968651 96.0
77.995941 148.0
78.014786 184.0
78.039551 116.0
78.060646 40.0
78.092308 120.0
78.10675 208.0
78.125725 152.0
78.148598 76.0
78.173882 148.0
78.196045 280.0
78.254204 172.0
78.279671 172.0
78.294701 264.0
78.332703 160.0
78.350029 92.0
78.384544 156.0
78.41803 172.0
78.516762 176.0
78.592613 92.0
78.614868 184.0
78.633202 316.0
78.650299 204.0
78.663208 192.0
78.68969 84.0
78.708908 204.0
78.737854 164.0
78.75721 120.0
78.792374 116.0
78.809181 92.0
78.837463 176.0
78.857506 76.0
78.87944 168.0
78.901077 136.0
78.924683 128.0
78.970665 136.0
78.987862 144.0
79.005501 144.0
79.035393 156.0
79.074188 180.0
79.08036 92.0
79.08477 180.0
79.116821 208.0
79.149406 172.0
79.168884 196.0
79.191322 228.0
79.224197 140.0
79.248596 144.0
79.284256 128.0
79.307854 252.0
79.312096 144.0
79.319984 228.0
79.35054 176.0
79.357193 176.0
79.362694 172.0
79.398514 320.0
79.420555 104.0
79.440063 272.0
79.453484 212.0
79.476128 160.0
79.496841 152.0
79.514587 140.0
79.530563 160.0
79.562515 132.0
79.574944 104.0
79.624664 152.0
79.650864 176.0
79.677956 152.0
79.704605 44.0
79.717041 40.0
79.73304 112.0
79.761909 296.0
79.829041 164.0
79.865372 260.0
79.891289 176.0
79.921539 244.0
79.950005 132.0
79.985603 172.0
80.034531 116.0
80.063942 140.0
80.084785 200.0
80.106689 196.0
80.119164 156.0
80.152191 148.0
80.171722 128.0
80.201134 168.0
80.221413 180.0
80.242134 140.0
80.285217 148.0
80.313736 184.0
80.345573 164.0
80.375908 148.0
80.409813 200.0
80.427704 168.0
80.443237 84.0
80.474075 152.0
80.497292 152.0
80.511574 172.0
80.534798 76.0
80.550873 156.0
80.568733 152.0
80.581238 232.0
80.641998 156.0
80.67775 136.0
80.695091 148.0
80.733177 228.0
80.780815 132.0
80.810097 140.0
80.886566 148.0
80.898079 128.0
80.95137 160.0
81.008812 156.0
81.043274 136.0
81.087738 168.0
81.118736 200.0
81.143227 144.0
81.173706 192.0
81.18531 188.0
81.200333 132.0
81.277328 164.0
81.308929 180.0
81.322281 132.0
81.340561 132.0
81.353127 132.0
81.367485 152.0
81.392624 128.0
81.430336 324.0
81.448631 184.0
81.486023 152.0
81.507011 180.0
81.527351 160.0
81.590981 140.0
81.622681 136.0
81.639999 188.0
81.692123 248.0
81.713074 112.0
81.779144 60.0
81.834946 180.0
81.870964 156.0
81.882744 140.0
81.912384 136.0
81.944817 88.0
81.964638 200.0
81.977249 160.0
82.0205 200.0
82.076393 132.0
82.133865 212.0
82.170181 136.0
82.192764 124.0
82.217094 68.0
82.238625 164.0
82.253143 140.0
82.291656 124.0
82.333786 88.0
82.343567 152.0
82.368759 132.0
82.385017 204.0
82.437416 152.0
82.469948 132.0
82.484406 204.0
82.511353 124.0
82.516884 112.0
82.574814 168.0
82.589287 72.0
82.612335 172.0
82.63205 136.0
82.66935 204.0
82.755623 192.0
82.775696 96.0
82.788368 160.0
82.820168 148.0
82.866852 196.0
82.883606 244.0
82.899979 92.0
82.907333 132.0
82.913734 180.0
82.919868 144.0
82.945236 220.0
82.976364 112.0
82.988762 204.0
83.011269 144.0
83.023964 108.0
83.038467 164.0
83.072197 100.0
83.105026 224.0
83.109871 188.0
83.140068 92.0
83.158218 140.0
83.211021 136.0
83.240845 140.0
83.248489 72.0
83.251938 192.0
83.274414 244.0
83.27874 168.0
83.298027 128.0
83.312561 176.0
83.333679 160.0
83.347084 132.0
83.392715 184.0
83.454323 88.0
83.474701 136.0
83.49427 144.0
83.51252 156.0
83.530708 176.0
83.543442 200.0
83.565269 188.0
83.585289 132.0
83.629356 184.0
83.650002 316.0
83.679932 328.0
83.701782 128.0
83.727165 128.0
83.75177 268.0
83.768982 144.0
83.782028 144.0
83.811073 160.0
83.840317 176.0
83.856636 152.0
83.871216 304.0
83.887711 168.0
83.902206 64.0
83.91497 224.0
83.93502 172.0
83.967239 192.0
83.986885 160.0
84.000679 312.0
84.020973 192.0
84.042641 116.0
84.080078 148.0
84.148506 216.0
84.172241 108.0
84.192329 164.0
84.211456 160.0
84.228859 136.0
84.275726 220.0
84.289864 152.0
84.30925 120.0
84.340317 132.0
84.353111 92.0
84.420761 340.0
84.484779 228.0
84.532059 76.0
84.536484 140.0
84.589088 88.0
84.603729 160.0
84.619682 324.0
84.631783 200.0
84.644241 32.0
84.660492 168.0
84.694641 472.0
84.729866 96.0
84.74659 104.0
84.78846 132.0
84.824379 268.0
84.843727 80.0
84.874474 156.0
84.902428 248.0
84.946419 164.0
84.962929 168.0
84.978897 228.0
85.008453 168.0
85.070732 164.0
85.100578 388.0
85.157509 164.0
85.190247 160.0
85.252464 128.0
85.280609 144.0
85.319214 120.0
85.369301 132.0
85.409447 112.0
85.477272 244.0
85.501236 188.0
85.527084 52.0
85.543648 144.0
85.571259 104.0
85.591148 120.0
85.642982 228.0
85.672035 204.0
85.687294 84.0
85.710884 184.0
85.73262 260.0
85.759773 156.0
85.790222 160.0
85.802711 176.0
85.82795 140.0
85.841545 140.0
85.85688 40.0
85.87532 108.0
85.900955 168.0
85.915276 308.0
85.928818 136.0
85.981285 212.0
86.006264 248.0
86.023064 116.0
86.031746 124.0
86.040222 212.0
86.059547 188.0
86.085709 136.0
86.104179 136.0
86.133072 180.0
86.157745 192.0
86.183701 228.0
86.20929 116.0
86.252762 240.0
86.279716 156.0
86.33149 140.0
86.346291 136.0
86.381432 192.0
86.412132 128.0
86.442482 376.0
86.460991 188.0
86.477295 168.0
86.527977 212.0
86.561798 196.0
86.619011 188.0
86.661026 168.0
86.701683 120.0
86.720284 148.0
86.759209 164.0
86.78611 124.0
86.805084 216.0
86.845421 280.0
86.911293 160.0
86.935455 180.0
86.951942 208.0
86.970169 224.0
86.974854 112.0
87.001526 252.0
87.089027 92.0
87.111801 248.0
87.132347 132.0
87.147102 188.0
87.193199 124.0
87.215858 140.0
87.229752 204.0
87.278557 160.0
87.315506 148.0
87.339401 100.0
87.346329 168.0
87.364624 120.0
87.381432 140.0
87.403694 164.0
87.417053 332.0
87.493034 44.0
87.543091 172.0
87.568672 148.0
87.595703 152.0
87.610359 228.0
87.632713 216.0
87.661598 336.0
87.677437 144.0
87.705299 160.0
87.717735 116.0
87.779968 80.0
87.799904 244.0
87.835922 112.0
87.889519 132.0
87.918015 344.0
87.963875 140.0
87.96711 92.0
87.986435 104.0
88.006416 168.0
88.046829 140.0
88.059906 184.0
88.080452 120.0
88.094254 176.0
88.116295 64.0
88.132759 188.0
88.171356 116.0
88.19838 144.0
88.212708 216.0
88.221848 144.0
88.229416 168.0
88.250076 136.0
88.257416 104.0
88.30555 148.0
88.356819 196.0
88.361504 164.0
88.383316 160.0
88.404999 108.0
88.430099 112.0
88.501236 160.0
88.527451 148.0
88.557419 188.0
88.597343 200.0
88.621109 152.0
88.65377 144.0
88.692322 96.0
88.726067 128.0
88.742943 160.0
88.761688 184.0
88.790756 148.0
88.808578 176.0
88.821709 76.0
88.851242 172.0
88.869148 208.0
88.884583 132.0
88.909683 160.0
88.936165 160.0
88.949303 124.0
88.998405 120.0
89.02964 196.0
89.052574 172.0
89.078186 300.0
89.091568 148.0
89.106621 340.0
89.122086 160.0
89.144547 180.0
89.150383 136.0
89.183411 208.0
89.208534 160.0
89.228653 272.0
89.276222 140.0
89.308197 124.0
89.329735 196.0
89.392036 256.0
89.415443 164.0
89.434265 252.0
89.447395 184.0
89.467392 196.0
89.497917 220.0
89.530281 128.0
89.579857 112.0
89.594276 164.0
89.629112 224.0
89.667816 164.0
89.699852 168.0
89.784126 344.0
89.809219 184.0
89.862907 192.0
89.919952 64.0
89.980675 168.0
89.988388 144.0
89.992325 156.0
90.020599 296.0
90.040031 508.0
90.066406 204.0
90.09935 184.0
90.122536 160.0
90.158501 152.0
90.184959 108.0
90.201973 96.0
90.235054 200.0
90.262474 60.0
90.303375 328.0
90.351936 188.0
90.370293 132.0
90.466377 228.0
90.491425 108.0
90.568558 120.0
90.582207 196.0
90.634071 128.0
90.653633 196.0
90.722954 208.0
90.740341 176.0
90.776886 116.0
90.803162 100.0
90.892914 180.0
90.942818 172.0
90.97258 156.0
91.012833 172.0
91.053391 796.0
91.071182 184.0
91.103996 100.0
91.120682 128.0
91.133339 156.0
91.174301 100.0
91.202812 184.0
91.229424 116.0
91.242729 48.0
91.275055 140.0
91.311241 152.0
91.337776 180.0
91.356842 152.0
91.38887 172.0
91.41658 160.0
91.440559 152.0
91.457321 184.0
91.46505 148.0
91.510994 196.0
91.531937 136.0
91.545273 208.0
91.583359 136.0
91.608101 172.0
91.627174 156.0
91.666122 196.0
91.680527 80.0
91.699585 196.0
91.722458 64.0
91.766304 160.0
91.852119 172.0
91.865471 204.0
91.886459 148.0
91.903412 172.0
91.947525 104.0
91.992317 188.0
92.037247 152.0
92.056755 512.0
92.084984 276.0
92.138474 144.0
92.172523 268.0
92.197571 228.0
92.21682 52.0
92.243736 188.0
92.260361 108.0
92.335358 124.0
92.34874 148.0
92.371696 108.0
92.43866 120.0
92.465569 192.0
92.494164 156.0
92.547035 176.0
92.586067 112.0
92.628204 144.0
92.659142 80.0
92.742111 188.0
92.773567 140.0
92.777039 60.0
92.794792 164.0
92.930641 148.0
92.952217 84.0
93.007248 124.0
93.046143 124.0
93.069305 200.0
93.082634 140.0
93.167252 88.0
93.195999 108.0
93.221054 160.0
93.268105 108.0
93.285561 164.0
93.299858 112.0
93.316521 60.0
93.358658 124.0
93.388924 380.0
93.438332 52.0
93.457573 28.0
93.477844 164.0
93.50058 136.0
93.529434 164.0
93.563423 132.0
93.586533 184.0
93.603493 168.0
93.710106 132.0
93.742554 116.0
93.771935 276.0
93.796516 132.0
93.838379 140.0
93.862808 136.0
93.915947 164.0
93.937286 112.0
93.956459 132.0
93.988373 148.0
94.045341 108.0
94.059822 120.0
94.089195 240.0
94.132217 144.0
94.157036 132.0
94.188225 96.0
94.226868 184.0
94.277252 208.0
94.311005 96.0
94.335091 148.0
94.36409 156.0
94.379555 144.0
94.398895 200.0
94.425964 144.0
94.445305 180.0
94.459305 68.0
94.489799 144.0
94.532372 144.0
94.559464 164.0
94.590431 100.0
94.611725 216.0
94.648689 132.0
94.668007 168.0
94.716301 56.0
94.734634 172.0
94.751167 184.0
94.787659 144.0
94.807358 36.0
94.822624 192.0
94.855812 100.0
94.925369 160.0
94.937408 332.0
94.977798 132.0
94.985672 120.0
95.040054 76.0
95.127388 144.0
95.17421 140.0
95.20533 256.0
95.22448 104.0
95.240013 140.0
95.278824 168.0
95.319672 144.0
95.36544 148.0
95.383804 160.0
95.422684 36.0
95.446869 284.0
95.469353 76.0
95.485611 332.0
95.542213 128.0
95.576744 192.0
95.598015 144.0
95.624649 224.0
95.642303 188.0
95.669762 168.0
95.700516 156.0
95.728706 132.0
95.748329 160.0
95.773827 172.0
95.804138 128.0
95.833359 240.0
95.850655 64.0
95.854515 56.0
95.86161 112.0
95.882973 176.0
95.903404 140.0
95.951797 312.0
96.011757 116.0
96.036331 136.0
96.062828 120.0
96.069069 160.0
96.074516 104.0
96.118042 160.0
96.131699 100.0
96.147308 176.0
96.170731 128.0
96.195915 124.0
96.201263 112.0
96.208656 196.0
96.233093 148.0
96.310654 292.0
96.334755 144.0
96.360153 112.0
96.373825 108.0
96.389366 160.0
96.396866 152.0
96.453957 156.0
96.473717 256.0
96.545845 160.0
96.56736 140.0
96.597023 172.0
96.622833 164.0
96.657272 188.0
96.678749 120.0
96.698448 328.0
96.714104 176.0
96.730217 192.0
96.753258 96.0
96.810043 180.0
96.835808 260.0
96.919739 140.0
96.941292 168.0
96.968971 164.0
97.002052 124.0
97.061241 560.0
97.110252 264.0
97.13343 192.0
97.149124 148.0
97.180519 80.0
97.208405 132.0
97.25705 232.0
97.27079 188.0
97.283974 168.0
97.310974 128.0
97.348747 176.0
97.363075 124.0
97.380745 200.0
97.407028 184.0
97.443611 116.0
97.461288 184.0
97.485596 240.0
97.522217 68.0
97.537941 168.0
97.57058 264.0
97.602814 120.0
97.620514 156.0
97.634277 240.0
97.67775 116.0
97.708893 240.0
97.72673 192.0
97.770378 176.0
97.801514 120.0
97.840881 116.0
97.854668 128.0
97.870415 184.0
97.888382 188.0
97.915283 92.0
97.937378 132.0
97.951469 128.0
97.975334 148.0
98.045738 116.0
98.072151 276.0
98.098534 148.0
98.120644 112.0
98.194176 280.0
98.241684 180.0
98.278427 40.0
98.311974 124.0
98.331886 132.0
98.409149 416.0
98.446213 112.0
98.460037 80.0
98.507439 224.0
98.549782 176.0
98.566711 120.0
98.584496 160.0
98.630775 116.0
98.701126 92.0
98.744629 180.0
98.760101 176.0
98.77977 196.0
98.826996 132.0
98.888252 156.0
98.908859 56.0
98.957634 100.0
99.003891 140.0
99.02282 140.0
99.037292 148.0
99.052254 220.0
99.075195 180.0
99.123703 280.0
99.142113 140.0
99.146606 108.0
99.152969 144.0
99.172249 112.0
99.178391 108.0
99.213921 64.0
99.2397 140.0
99.267258 120.0
99.29731 148.0
99.319023 152.0
99.332909 152.0
99.365204 244.0
99.396393 120.0
99.420212 160.0
99.439598 332.0
99.499603 172.0
99.515488 120.0
99.548553 196.0
99.572655 104.0
99.625977 184.0
99.663078 208.0
99.705521 136.0
99.72805 248.0
99.763832 44.0
99.798927 208.0
99.827454 132.0
99.868805 268.0
99.892151 296.0
99.910477 124.0
99.942825 96.0
100.000534 120.0
100.016464 220.0
100.067787 148.0
100.102066 128.0
100.125969 172.0
100.169785 216.0
100.183731 456.0
100.209633 144.0
100.227562 132.0
100.243507 360.0
100.275795 176.0
100.295319 164.0
100.309273 108.0
100.333199 136.0
100.38665 208.0
100.423943 220.0
100.460831 152.0
100.480782 76.0
100.508713 156.0
100.54631 124.0
100.568581 124.0
100.584549 160.0
100.612099 120.0
100.673645 148.0
100.694366 192.0
100.715378 164.0
100.742012 188.0
100.775406 168.0
100.796516 296.0
100.824226 204.0
100.84568 164.0
100.85228 120.0
100.872078 232.0
100.920181 136.0
100.939728 160.0
100.953484 360.0
100.981133 92.0
101.007034 172.0
101.054192 208.0
101.072197 72.0
101.112312 84.0
101.140923 164.0
101.170265 100.0
101.186279 268.0
101.209023 168.0
101.238342 108.0
101.268387 176.0
101.286415 120.0
101.303703 76.0
101.345871 288.0
101.364548 100.0
101.40062 104.0
101.418655 192.0
101.433548 168.0
101.469856 252.0
101.500679 140.0
101.555473 304.0
101.607155 124.0
101.629227 140.0
101.659325 160.0
101.678253 148.0
101.694168 100.0
101.722702 204.0
101.747055 192.0
101.784889 116.0
101.815674 132.0
101.84111 44.0
101.876175 136.0
101.892639 164.0
101.896935 120.0
101.906685 292.0
101.944565 100.0
101.991005 184.0
102.024712 276.0
102.048866 224.0
102.082146 284.0
102.105316 236.0
102.151161 172.0
102.178017 248.0
102.246147 184.0
102.268288 140.0
102.296463 228.0
102.318611 136.0
102.340759 224.0
102.373505 168.0
102.39666 216.0
102.400436 164.0
102.43644 184.0
102.453545 176.0
102.479736 280.0
102.509003 220.0
102.571304 192.0
102.590576 184.0
102.606705 184.0
102.639091 132.0
102.66317 136.0
102.690231 256.0
102.753296 200.0
102.788239 156.0
102.812912 184.0
102.849747 376.0
102.907326 112.0
102.923477 120.0
102.969063 160.0
102.993004 160.0
103.034203 156.0
103.053932 5956.0
103.127159 136.0
103.143547 344.0
103.170776 124.0
103.210403 32.0
103.240738 184.0
103.276558 180.0
103.292725 176.0
103.296783 124.0
103.332756 244.0
103.445091 40.0
103.515953 316.0
103.566582 128.0
103.620369 240.0
103.651672 112.0
103.672951 88.0
103.686127 184.0
103.704361 152.0
103.726662 128.0
103.766792 156.0
103.785454 100.0
103.803589 140.0
103.833496 168.0
103.843758 64.0
103.880302 120.0
103.943672 84.0
103.961937 44.0
104.007889 156.0
104.032974 308.0
104.058289 352.0
104.081703 76.0
104.104034 336.0
104.119751 92.0
104.160904 48.0
104.210381 284.0
104.240143 196.0
104.261406 232.0
104.305176 96.0
104.333977 144.0
104.351997 132.0
104.429398 176.0
104.45002 192.0
104.504822 380.0
104.539497 152.0
104.586601 188.0
104.635674 216.0
104.681572 220.0
104.708046 124.0
104.73452 128.0
104.762268 148.0
104.818123 116.0
104.885307 92.0
104.903648 64.0
104.926079 148.0
104.968147 120.0
104.985748 196.0
105.009682 104.0
105.028893 160.0
105.052803 340.0
105.069763 320.0
105.100723 140.0
105.143761 128.0
105.15551 176.0
105.20211 176.0
105.220924 176.0
105.238235 36.0
105.255569 164.0
105.289284 156.0
105.307671 152.0
105.32605 200.0
105.379166 140.0
105.409813 76.0
105.426163 168.0
105.449638 140.0
105.499413 184.0
105.512627 172.0
105.525955 156.0
105.542679 264.0
105.581535 136.0
105.61348 176.0
105.638206 68.0
105.724739 208.0
105.75544 108.0
105.769768 208.0
105.78614 156.0
105.816849 216.0
105.847565 108.0
105.865997 80.0
105.889114 152.0
105.903915 148.0
105.939728 68.0
105.958168 64.0
105.997337 360.0
106.02169 96.0
106.050018 288.0
106.067612 128.0
106.101105 140.0
106.128281 100.0
106.161896 184.0
106.193207 140.0
106.228775 204.0
106.245186 132.0
106.265701 128.0
106.280067 216.0
106.34095 108.0
106.360901 76.0
106.382683 72.0
106.407318 68.0
106.423073 236.0
106.464813 184.0
106.485352 112.0
106.512054 224.0
106.534653 60.0
106.551086 124.0
106.6064 204.0
106.625061 88.0
106.650146 232.0
106.688782 180.0
106.723732 112.0
106.760742 44.0
106.788307 240.0
106.812462 444.0
106.838905 88.0
106.85331 32.0
106.871826 116.0
106.88623 204.0
106.931328 144.0
106.948082 148.0
106.966492 280.0
107.001381 148.0
107.035782 136.0
107.052963 144.0
107.073608 168.0
107.133492 168.0
107.155457 180.0
107.184296 180.0
107.205406 120.0
107.223961 80.0
107.256935 184.0
107.27549 176.0
107.329094 48.0
107.384773 168.0
107.417442 172.0
107.471413 164.0
107.512192 184.0
107.515121 200.0
107.526512 80.0
107.560844 204.0
107.596283 128.0
107.615898 144.0
107.636543 116.0
107.662193 228.0
107.717094 44.0
107.73362 60.0
107.779381 376.0
107.798386 172.0
107.820396 208.0
107.859673 324.0
107.876328 140.0
107.930656 272.0
107.960022 164.0
107.993256 112.0
108.012161 156.0
108.025185 192.0
108.042473 180.0
108.062714 176.0
108.0784 84.0
108.116783 192.0
108.134888 176.0
108.16581 80.0
108.213425 128.0
108.292114 200.0
108.333542 104.0
108.362549 60.0
108.393631 196.0
108.414352 96.0
108.437149 156.0
108.464096 212.0
108.501282 168.0
108.528358 172.0
108.550247 124.0
108.609238 28.0
108.646584 172.0
108.725937 164.0
108.758636 188.0
108.816765 120.0
108.878319 124.0
108.950859 232.0
108.967003 176.0
108.985931 152.0
109.0037 156.0
109.017578 100.0
109.078346 144.0
109.109833 188.0
109.140892 192.0
109.159782 220.0
109.255455 192.0
109.284409 108.0
109.32811 108.0
109.354713 168.0
109.369736 208.0
109.427673 240.0
109.488388 196.0
109.50663 160.0
109.534111 136.0
109.579758 136.0
109.5998 192.0
109.637604 156.0
109.764801 184.0
109.792679 64.0
109.811447 136.0
109.84021 188.0
109.846512 148.0
109.89698 132.0
109.913673 80.0
109.930977 136.0
109.957497 144.0
109.984383 184.0
109.989517 164.0
110.030327 148.0
110.063957 152.0
110.086334 324.0
110.109901 200.0
110.146408 148.0
110.172737 148.0
110.197639 184.0
110.230583 176.0
110.244911 256.0
110.287498 192.0
110.319427 116.0
110.337669 212.0
110.370369 144.0
110.405624 184.0
110.444321 148.0
110.478111 156.0
110.494522 108.0
110.538429 172.0
110.552544 308.0
110.578949 220.0
110.610168 308.0
110.645226 276.0
110.670593 196.0
110.708023 140.0
110.767479 248.0
110.784851 156.0
110.819046 124.0
110.846283 132.0
110.873528 144.0
110.930176 144.0
110.946129 188.0
110.978546 120.0
111.002724 156.0
111.041245 152.0
111.055931 168.0
111.075104 196.0
111.106277 96.0
111.127319 248.0
111.144043 168.0
111.206284 152.0
111.295166 280.0
111.311157 228.0
111.330505 164.0
111.404839 460.0
111.432289 196.0
111.498932 56.0
111.522827 120.0
111.546867 124.0
111.583015 164.0
111.609123 248.0
111.650299 88.0
111.676826 196.0
111.692368 56.0
111.721268 168.0
111.733902 204.0
111.749641 160.0
111.780731 176.0
111.818611 120.0
111.835449 100.0
111.861664 356.0
111.877007 200.0
111.907982 48.0
111.925117 128.0
111.94043 176.0
111.987198 168.0
112.006004 164.0
112.027626 136.0
112.054176 120.0
112.119957 140.0
112.137314 212.0
112.155823 116.0
112.197769 144.0
112.227287 56.0
112.250481 48.0
112.272377 188.0
112.296227 104.0
112.334846 224.0
112.351723 140.0
112.37796 192.0
112.395142 200.0
112.42379 180.0
112.472 68.0
112.490311 256.0
112.524445 176.0
112.540108 200.0
112.579903 112.0
112.598686 188.0
112.664169 220.0
112.716034 152.0
112.725296 116.0
112.741455 160.0
112.79747 140.0
112.812721 204.0
112.867912 216.0
112.931938 176.0
112.981277 268.0
113.021477 220.0
113.044754 168.0
113.085777 276.0
113.11248 160.0
113.14595 168.0
113.209991 144.0
113.22757 196.0
113.270401 208.0
113.33213 144.0
113.356789 192.0
113.375114 148.0
113.391907 160.0
113.421745 124.0
113.474579 156.0
113.491974 188.0
113.517151 116.0
113.544609 160.0
113.551025 152.0
113.5718 260.0
113.60817 140.0
113.633812 160.0
113.658035 140.0
113.686859 160.0
113.705956 92.0
113.728897 188.0
113.759018 180.0
113.792992 188.0
113.856377 188.0
113.863632 104.0
113.905128 144.0
113.911255 116.0
113.935287 140.0
113.956528 148.0
113.981758 148.0
114.031258 160.0
114.047913 192.0
114.064911 164.0
114.094048 68.0
114.109558 140.0
114.131912 156.0
114.169098 140.0
114.196472 196.0
114.211632 184.0
114.256882 132.0
114.297272 172.0
114.320137 240.0
114.385834 152.0
114.422791 140.0
114.43721 196.0
114.453636 136.0
114.495667 156.0
114.538185 212.0
114.556473 124.0
114.596687 128.0
114.616005 136.0
114.715034 196.0
114.750732 132.0
114.771233 172.0
114.796196 192.0
114.811928 160.0
114.852768 144.0
114.889145 156.0
114.917809 208.0
114.932411 364.0
114.960869 120.0
114.977257 248.0
115.000587 144.0
115.054649 31488.0
115.106102 204.0
115.13546 80.0
115.164398 140.0
115.185898 188.0
115.217026 44.0
115.229942 88.0
115.2584 60.0
115.27977 96.0
115.303276 104.0
115.319389 112.0
115.362221 132.0
115.401115 208.0
115.45507 104.0
115.509727 324.0
115.526131 160.0
115.562843 156.0
115.576157 428.0
115.59198 112.0
115.609581 212.0
115.636147 144.0
115.674347 72.0
115.709648 160.0
115.717987 156.0
115.754662 76.0
115.786453 128.0
115.798157 156.0
115.832764 60.0
115.838905 144.0
115.868187 96.0
115.904915 132.0
115.94104 176.0
115.97319 124.0
115.98819 108.0
116.013176 116.0
116.035927 300.0
116.058098 2000.0
116.108261 248.0
116.199677 196.0
116.240173 224.0
116.286331 120.0
116.305649 216.0
116.331406 136.0
116.352875 184.0
116.385078 164.0
116.421585 160.0
116.453209 220.0
116.470581 188.0
116.507507 44.0
116.535431 112.0
116.565514 108.0
116.58271 136.0
116.597748 136.0
116.638344 176.0
116.654839 148.0
116.686737 188.0
116.711685 96.0
116.737488 88.0
116.752541 148.0
116.774048 92.0
116.801682 332.0
116.808914 200.0
116.849152 236.0
116.855522 216.0
116.866173 152.0
116.925026 208.0
116.950478 120.0
116.973267 116.0
117.009644 240.0
117.048988 148.0
117.068932 772.0
117.105011 176.0
117.133507 124.0
117.157196 72.0
117.174431 132.0
117.196053 120.0
117.239075 120.0
117.264938 168.0
117.321945 224.0
117.353325 176.0
117.376534 136.0
117.430954 168.0
117.456841 316.0
117.491356 196.0
117.515846 136.0
117.582977 164.0
117.609322 156.0
117.631622 168.0
117.6856 36.0
117.710068 144.0
117.737663 72.0
117.761177 176.0
117.802444 152.0
117.821663 104.0
117.864838 228.0
117.897293 152.0
117.923225 132.0
117.964149 164.0
117.998886 80.0
118.016991 128.0
118.04213 148.0
118.132965 156.0
118.176353 144.0
118.207344 168.0
118.229355 152.0
118.24868 224.0
118.271347 240.0
118.301483 148.0
118.342987 148.0
118.379707 44.0
118.40493 128.0
118.45768 64.0
118.517601 164.0
118.549881 108.0
118.555687 240.0
118.579453 180.0
118.610153 152.0
118.635628 232.0
118.661392 176.0
118.685539 172.0
118.709091 88.0
118.724274 116.0
118.755829 160.0
118.780663 236.0
118.800804 148.0
118.840897 152.0
118.849113 116.0
118.853302 100.0
118.878296 172.0
118.904343 148.0
118.936897 112.0
118.955666 136.0
118.99334 156.0
119.019394 156.0
119.040527 164.0
119.075188 140.0
119.155312 164.0
119.178749 164.0
119.225578 120.0
119.250488 180.0
119.266747 196.0
119.308357 148.0
119.427956 112.0
119.491249 216.0
119.510628 192.0
119.554146 100.0
119.592133 132.0
119.609749 240.0
119.630325 132.0
119.649918 80.0
119.697823 228.0
119.723953 192.0
119.741928 204.0
119.758072 168.0
119.775139 32.0
119.810913 160.0
119.837563 180.0
119.867729 72.0
119.88298 136.0
119.900414 180.0
119.915733 144.0
119.94603 164.0
119.961342 172.0
119.976067 136.0
120.02063 124.0
120.068542 172.0
120.118454 132.0
120.146118 176.0
120.194817 156.0
120.247475 152.0
120.292229 176.0
120.332321 116.0
120.369438 192.0
120.385445 244.0
120.402199 240.0
120.478645 140.0
120.50486 320.0
120.520157 92.0
120.553955 316.0
120.589035 116.0
120.617996 156.0
120.639015 256.0
120.64743 172.0
120.672295 152.0
120.705788 212.0
120.732193 120.0
120.806564 104.0
120.831871 204.0
120.848129 184.0
120.88533 140.0
120.930763 604.0
120.946609 152.0
120.96312 192.0
120.981636 64.0
121.062645 160.0
121.128922 124.0
121.148071 104.0
121.208771 136.0
121.255951 136.0
121.278168 280.0
121.297981 160.0
121.312424 224.0
121.327774 192.0
121.400131 164.0
121.424255 172.0
121.564117 180.0
121.606293 148.0
121.648064 148.0
121.665817 136.0
121.709534 132.0
121.740273 104.0
121.777611 132.0
121.801773 64.0
121.818985 172.0
121.899948 152.0
121.945671 260.0
121.977562 156.0
122.008339 164.0
122.046204 144.0
122.136574 128.0
122.177681 92.0
122.223885 64.0
122.255623 92.0
122.272293 156.0
122.316315 92.0
122.355942 180.0
122.375671 184.0
122.393814 60.0
122.400742 184.0
122.445053 128.0
122.471321 264.0
122.520966 180.0
122.526939 168.0
122.548904 284.0
122.607269 120.0
122.632233 140.0
122.653336 164.0
122.686401 152.0
122.732353 256.0
122.774597 336.0
122.803879 172.0
122.82312 204.0
122.868568 160.0
122.872437 124.0
122.906952 196.0
122.951675 196.0
122.993027 52.0
123.063667 108.0
123.098999 212.0
123.115875 144.0
123.170486 120.0
123.185684 176.0
123.199196 132.0
123.223785 316.0
123.253487 64.0
123.306145 136.0
123.337608 136.0
123.361923 112.0
123.404495 220.0
123.476898 56.0
123.496735 132.0
123.515533 132.0
123.543259 100.0
123.600616 160.0
123.65168 80.0
123.679611 168.0
123.707802 180.0
123.745941 192.0
123.770409 316.0
123.78746 192.0
123.815514 232.0
123.842087 184.0
123.87854 316.0
123.919624 204.0
123.944 168.0
123.968948 184.0
124.001617 204.0
124.065376 136.0
124.105331 188.0
124.13385 136.0
124.154587 168.0
124.183197 160.0
124.206963 208.0
124.224182 180.0
124.259308 96.0
124.283249 176.0
124.326164 176.0
124.358704 104.0
124.394333 172.0
124.410408 176.0
124.442726 172.0
124.476677 244.0
124.510139 152.0
124.531883 112.0
124.571869 176.0
124.602966 140.0
124.622963 120.0
124.639961 320.0
124.720749 112.0
124.748955 124.0
124.770638 172.0
124.787163 136.0
124.818565 196.0
124.845253 108.0
124.889236 160.0
124.90863 172.0
124.931999 116.0
124.974266 184.0
125.016548 152.0
125.039612 300.0
125.05661 188.0
125.082916 156.0
125.147881 116.0
125.169785 248.0
125.194641 392.0
125.214684 140.0
125.239189 160.0
125.265472 176.0
125.348106 148.0
125.395966 208.0
125.416031 152.0
125.45533 152.0
125.504913 84.0
125.524834 164.0
125.544518 156.0
125.567924 156.0
125.586044 116.0
125.635971 52.0
125.689514 180.0
125.705139 108.0
125.748718 156.0
125.776558 232.0
125.794411 116.0
125.843529 108.0
125.932854 84.0
125.958542 216.0
125.977531 116.0
125.993164 36.0
126.010063 128.0
126.046928 484.0
126.080208 84.0
126.099045 168.0
126.15834 160.0
126.175423 116.0
126.209023 188.0
126.250854 168.0
126.285995 108.0
126.313904 172.0
126.372452 212.0
126.392311 180.0
126.429985 168.0
126.458282 100.0
126.487381 80.0
126.570114 88.0
126.617165 360.0
126.653076 140.0
126.679955 316.0
126.699188 144.0
126.723587 168.0
126.765099 136.0
126.794853 168.0
126.8144 188.0
126.843285 212.0
126.881683 176.0
126.926491 188.0
126.973587 188.0
127.00251 164.0
127.054588 2888.0
127.08799 224.0
127.109383 200.0
127.146339 56.0
127.172447 196.0
127.211723 120.0
127.231232 160.0
127.321274 188.0
127.390007 176.0
127.465477 140.0
127.498932 168.0
127.53714 144.0
127.559616 140.0
127.591087 124.0
127.638306 48.0
127.654045 236.0
127.703522 160.0
127.737259 128.0
127.768753 148.0
127.798416 356.0
127.813759 116.0
127.830673 216.0
127.858765 156.0
127.874519 60.0
127.919533 164.0
127.995979 172.0
128.06105 3232.0
128.102661 212.0
128.148911 160.0
128.169983 160.0
128.228607 184.0
128.250656 344.0
128.28447 164.0
128.311523 144.0
128.338531 220.0
128.381424 184.0
128.410736 100.0
128.435654 336.0
128.452805 160.0
128.488083 156.0
128.525665 140.0
128.552872 60.0
128.588974 144.0
128.608185 84.0
128.659378 84.0
128.688309 136.0
128.714737 68.0
128.728348 180.0
128.798203 252.0
128.81929 188.0
128.863464 140.0
128.921783 220.0
128.944016 296.0
128.980301 360.0
129.035843 152.0
129.068832 2320.0
129.125961 320.0
129.165146 104.0
129.195023 164.0
129.213654 132.0
129.230759 180.0
129.248856 164.0
129.30098 116.0
129.341644 52.0
129.36969 164.0
129.395676 92.0
129.41745 156.0
129.460327 104.0
129.525055 164.0
129.57489 156.0
129.593018 172.0
129.610168 192.0
129.634842 228.0
129.667801 160.0
129.697815 196.0
129.752701 236.0
129.772079 112.0
129.823624 252.0
129.850281 132.0
129.87413 112.0
129.908752 76.0
129.933105 180.0
129.955795 200.0
130.021606 64.0
130.0439 180.0
130.070099 340.0
130.089767 184.0
130.123947 96.0
130.14621 116.0
130.171432 120.0
130.196411 68.0
130.223663 152.0
130.265106 164.0
130.34407 164.0
130.367569 176.0
130.384979 224.0
130.405426 108.0
130.428162 80.0
130.46875 56.0
130.486786 192.0
130.504944 160.0
130.553207 216.0
130.571396 140.0
130.605515 184.0
130.641357 148.0
130.666122 168.0
130.681793 144.0
130.712448 144.0
130.773895 176.0
130.810425 148.0
130.873825 124.0
130.898727 148.0
130.935532 196.0
130.971466 204.0
130.985306 132.0
130.996277 168.0
131.022461 124.0
131.071671 312.0
131.125061 236.0
131.194382 72.0
131.227798 172.0
131.280548 264.0
131.300308 152.0
131.340225 188.0
131.375458 124.0
131.402832 188.0
131.432495 256.0
131.448074 140.0
131.482483 204.0
131.519211 172.0
131.537476 196.0
131.570251 236.0
131.59227 168.0
131.610535 132.0
131.644791 128.0
131.727005 188.0
131.756516 140.0
131.827545 108.0
131.869308 116.0
131.889252 124.0
131.914383 160.0
131.937256 144.0
131.966965 108.0
132.005844 172.0
132.078964 132.0
132.121933 164.0
132.147659 196.0
132.169632 304.0
132.18721 112.0
132.207153 120.0
132.225464 152.0
132.248489 136.0
132.27124 88.0
132.317032 140.0
132.339401 140.0
132.371979 128.0
132.396194 140.0
132.437439 144.0
132.477341 112.0
132.504242 188.0
132.571625 296.0
132.59877 200.0
132.626282 336.0
132.644623 116.0
132.66066 132.0
132.679001 148.0
132.695053 160.0
132.762268 232.0
132.835754 216.0
132.867065 328.0
132.921738 168.0
133.011627 116.0
133.038864 148.0
133.073624 204.0
133.103378 104.0
133.193039 104.0
133.2229 196.0
133.250031 272.0
133.281784 216.0
133.298721 160.0
133.358383 104.0
133.382462 164.0
133.398865 100.0
133.408005 88.0
133.412277 148.0
133.435196 256.0
133.455017 168.0
133.472977 148.0
133.507812 200.0
133.556213 128.0
133.581192 112.0
133.589188 96.0
133.598389 144.0
133.636246 268.0
133.663635 144.0
133.724167 100.0
133.806808 116.0
133.819824 232.0
133.847916 144.0
133.865112 148.0
133.891647 188.0
133.897354 240.0
133.91925 288.0
133.972992 180.0
134.00827 108.0
134.033646 200.0
134.068741 176.0
134.096176 208.0
134.136475 116.0
134.164139 180.0
134.189499 200.0
134.205643 124.0
134.231003 100.0
134.25087 256.0
134.293274 492.0
134.342712 348.0
134.399384 184.0
134.431686 252.0
134.452759 92.0
134.475357 192.0
134.480438 132.0
134.551712 88.0
134.574799 96.0
134.607071 136.0
134.670929 188.0
134.75885 152.0
134.764908 104.0
134.774445 184.0
134.803757 132.0
134.835831 220.0
134.862579 64.0
134.902496 248.0
134.930603 132.0
134.965912 120.0
134.983307 152.0
134.999985 140.0
135.039291 128.0
135.103607 184.0
135.122421 184.0
135.145706 156.0
135.191986 152.0
135.219757 52.0
135.271255 176.0
135.297256 144.0
135.398026 212.0
135.443649 176.0
135.459381 184.0
135.545898 96.0
135.562515 188.0
135.582062 256.0
135.605927 148.0
135.636017 140.0
135.65387 240.0
135.66423 144.0
135.670837 108.0
135.734039 116.0
135.782745 272.0
135.8013 140.0
135.829132 152.0
135.857925 116.0
135.880173 164.0
135.90947 196.0
135.944702 320.0
135.998932 136.0
136.024048 124.0
136.065842 184.0
136.107407 204.0
136.150085 100.0
136.174973 128.0
136.202576 172.0
136.228409 136.0
136.275909 116.0
136.307404 136.0
136.339935 164.0
136.406891 144.0
136.428253 64.0
136.444534 136.0
136.474762 148.0
136.502655 148.0
136.518936 84.0
136.546082 216.0
136.593369 152.0
136.620987 168.0
136.658188 176.0
136.685654 156.0
136.702713 176.0
136.748352 112.0
136.773911 204.0
136.816757 140.0
136.854019 188.0
136.883118 280.0
136.931885 164.0
136.958817 180.0
136.999893 132.0
137.033356 136.0
137.062027 144.0
137.119583 200.0
137.147552 128.0
137.173187 152.0
137.217545 132.0
137.23761 104.0
137.268784 240.0
137.306091 92.0
137.343597 96.0
137.362076 144.0
137.380737 160.0
137.421478 124.0
137.477966 200.0
137.526657 180.0
137.581436 52.0
137.623459 228.0
137.67482 264.0
137.699951 216.0
137.730408 208.0
137.779938 60.0
137.814758 184.0
137.876877 144.0
137.910797 96.0
138.005661 148.0
138.034042 156.0
138.071335 144.0
138.10675 184.0
138.128952 240.0
138.162094 180.0
138.193848 144.0
138.224411 164.0
138.263718 152.0
138.289703 44.0
138.31311 112.0
138.347351 192.0
138.369293 52.0
138.430176 140.0
138.461411 164.0
138.52475 148.0
138.558487 256.0
138.603516 132.0
138.669128 204.0
138.692322 152.0
138.739456 168.0
138.771408 184.0
138.812637 228.0
138.835999 116.0
138.963074 80.0
138.990417 88.0
139.028687 192.0
139.055176 208.0
139.085907 156.0
139.134827 144.0
139.195679 180.0
139.248642 168.0
139.290924 48.0
139.344955 180.0
139.399002 44.0
139.42485 72.0
139.477936 204.0
139.507614 112.0
139.537338 164.0
139.545609 140.0
139.554962 216.0
139.630859 260.0
139.691803 224.0
139.736511 188.0
139.770523 164.0
139.786743 180.0
139.841125 120.0
139.867538 140.0
139.903427 188.0
139.947006 164.0
139.972961 180.0
140.001648 44.0
140.02478 308.0
140.057022 288.0
140.081924 184.0
140.088715 216.0
140.109573 144.0
140.165817 188.0
140.199112 80.0
140.217896 156.0
140.297043 164.0
140.353592 136.0
140.421066 164.0
140.451385 76.0
140.515076 40.0
140.569946 188.0
140.630081 152.0
140.674408 156.0
140.678253 140.0
140.706253 184.0
140.732605 96.0
140.758392 140.0
140.838928 236.0
140.92424 160.0
140.956619 188.0
141.070435 568.0
141.125259 172.0
141.176453 140.0
141.22139 200.0
141.311295 72.0
141.335495 104.0
141.427246 128.0
141.446182 248.0
141.49353 176.0
141.524307 192.0
141.545609 96.0
141.574036 200.0
141.621399 152.0
141.639557 132.0
141.682983 196.0
141.70195 184.0
141.73494 156.0
141.779678 204.0
141.813324 344.0
141.871582 124.0
141.948456 188.0
141.998245 172.0
142.04332 224.0
142.0737 156.0
142.109741 60.0
142.133469 48.0
142.152451 188.0
142.175964 128.0
142.222351 240.0
142.249771 164.0
142.273209 176.0
142.306747 140.0
142.323364 180.0
142.389862 128.0
142.413925 296.0
142.436005 252.0
142.453995 224.0
142.476959 188.0
142.568039 312.0
142.601456 128.0
142.618301 136.0
142.656387 92.0
142.692642 144.0
142.710663 136.0
142.732788 232.0
142.798645 172.0
142.845123 148.0
142.93663 244.0
142.985413 144.0
143.046112 124.0
143.069122 464.0
143.145203 148.0
143.173615 108.0
143.23819 168.0
143.267578 128.0
143.303314 104.0
143.320709 252.0
143.345734 164.0
143.378738 324.0
143.384689 212.0
143.427231 112.0
143.468536 148.0
143.486008 140.0
143.531296 184.0
143.539917 120.0
143.545792 132.0
143.582214 112.0
143.633606 44.0
143.665695 68.0
143.684784 148.0
143.722961 148.0
143.758743 156.0
143.792282 160.0
143.86116 272.0
143.901917 220.0
143.952682 132.0
144.023758 200.0
144.056885 92.0
144.080505 280.0
144.097031 160.0
144.143204 44.0
144.167114 144.0
144.202957 112.0
144.235397 192.0
144.269653 204.0
144.300964 176.0
144.322311 216.0
144.363129 268.0
144.418137 148.0
144.476425 200.0
144.537598 232.0
144.553802 148.0
144.594147 204.0
144.621521 44.0
144.659821 196.0
144.69165 224.0
144.712143 112.0
144.731644 324.0
144.761536 124.0
144.784332 144.0
144.813065 140.0
144.85556 124.0
144.904099 204.0
144.926727 260.0
144.96553 200.0
144.987961 88.0
145.022751 132.0
145.040695 364.0
145.065353 1164.0
145.088608 172.0
145.115005 112.0
145.160934 128.0
145.213318 156.0
145.273285 248.0
145.339462 188.0
145.359299 292.0
145.414856 108.0
145.451233 128.0
145.513336 156.0
145.551697 156.0
145.578644 368.0
145.620773 212.0
145.66217 60.0
145.692841 136.0
145.712524 284.0
145.75296 152.0
145.769012 180.0
145.800079 332.0
145.856323 136.0
145.874283 148.0
145.897675 116.0
145.928925 92.0
145.963196 176.0
145.978806 108.0
145.995865 220.0
146.019547 164.0
146.06012 220.0
146.076767 204.0
146.098648 276.0
146.124084 140.0
146.152618 152.0
146.174271 188.0
146.210114 152.0
146.241669 156.0
146.311462 216.0
146.353439 240.0
146.378479 48.0
146.410187 120.0
146.44632 128.0
146.465591 208.0
146.483002 176.0
146.52179 232.0
146.549911 168.0
146.576416 132.0
146.598099 192.0
146.671799 180.0
146.71077 172.0
146.756866 152.0
146.836624 132.0
146.884964 204.0
146.928314 176.0
146.959793 140.0
146.981506 104.0
147.012878 124.0
147.031189 160.0
147.05632 184.0
147.08287 148.0
147.110077 180.0
147.155304 292.0
147.179443 160.0
147.203583 228.0
147.280869 200.0
147.327087 172.0
147.367844 100.0
147.395386 100.0
147.425827 184.0
147.466919 168.0
147.497269 116.0
147.52977 112.0
147.581207 104.0
147.597458 84.0
147.655426 132.0
147.691788 72.0
147.71019 120.0
147.730484 160.0
147.775864 148.0
147.784119 144.0
147.827271 260.0
147.858719 156.0
147.911972 96.0
147.946762 164.0
147.971207 172.0
148.004913 256.0
148.053284 164.0
148.073196 180.0
148.098267 196.0
148.132324 184.0
148.163589 164.0
148.192902 72.0
148.231903 164.0
148.265594 28.0
148.304367 124.0
148.379517 216.0
148.413467 176.0
148.437714 124.0
148.503387 256.0
148.52803 164.0
148.548309 240.0
148.573532 52.0
148.637329 176.0
148.680298 96.0
148.721558 112.0
148.771286 224.0
148.791016 108.0
148.827362 220.0
148.869659 180.0
148.886658 112.0
148.908508 176.0
148.955582 128.0
148.974777 200.0
149.010544 104.0
149.055923 112.0
149.072861 176.0
149.127182 144.0
149.158783 188.0
149.209824 64.0
149.315689 156.0
149.338715 328.0
149.35817 228.0
149.428726 188.0
149.472519 152.0
149.509018 156.0
149.542923 224.0
149.58934 172.0
149.631882 244.0
149.685287 164.0
149.759781 148.0
149.798767 276.0
149.886475 176.0
149.905151 228.0
149.945908 184.0
149.975998 168.0
149.998581 176.0
150.045654 652.0
150.10463 160.0
150.154633 136.0
150.181458 164.0
150.234192 296.0
150.28685 196.0
150.305527 124.0
150.335159 184.0
150.362 140.0
150.381531 92.0
150.410812 76.0
150.437668 76.0
150.479172 44.0
150.508331 136.0
150.535339 88.0
150.562195 136.0
150.593948 100.0
150.635071 216.0
150.639053 180.0
150.65062 120.0
150.657364 204.0
150.667847 112.0
150.684937 160.0
150.788895 152.0
150.815536 116.0
150.838287 112.0
150.872513 228.0
150.923859 116.0
150.971817 228.0
151.001862 160.0
151.052902 1480.0
151.085388 148.0
151.140488 156.0
151.178253 120.0
151.212524 168.0
151.229645 136.0
151.298187 116.0
151.325119 156.0
151.352432 132.0
151.378998 192.0
151.41481 192.0
151.435181 204.0
151.494965 184.0
151.523514 292.0
151.631317 200.0
151.656586 184.0
151.679245 116.0
151.71257 172.0
151.746536 48.0
151.766739 184.0
151.800079 124.0
151.84462 136.0
151.866638 196.0
151.976242 156.0
152.026169 252.0
152.061768 16180.0
152.13475 168.0
152.17598 116.0
152.216293 80.0
152.250458 144.0
152.286087 184.0
152.30928 216.0
152.328476 252.0
152.369919 184.0
152.398453 196.0
152.436264 152.0
152.475586 264.0
152.517365 100.0
152.551788 168.0
152.577042 176.0
152.614441 320.0
152.648087 240.0
152.672256 152.0
152.689484 220.0
152.721451 164.0
152.759338 152.0
152.792404 260.0
152.798965 180.0
152.819489 168.0
152.840942 324.0
152.876724 316.0
152.92305 180.0
152.9552 136.0
152.986221 100.0
153.011002 180.0
153.028366 160.0
153.06955 35952.0
153.11525 248.0
153.13121 92.0
153.153671 216.0
153.179291 148.0
153.197113 236.0
153.21434 52.0
153.254547 172.0
153.298187 156.0
153.337936 52.0
153.403458 124.0
153.466537 148.0
153.521881 128.0
153.539139 60.0
153.570755 116.0
153.634262 192.0
153.663345 304.0
153.700638 92.0
153.743576 152.0
153.749023 148.0
153.777451 172.0
153.78743 120.0
153.79335 128.0
153.828186 108.0
153.879669 48.0
153.901886 164.0
153.919174 116.0
153.93782 196.0
153.962158 176.0
153.996445 168.0
154.022034 96.0
154.072601 3660.0
154.100037 236.0
154.118958 172.0
154.122757 76.0
154.157532 156.0
154.17894 104.0
154.203995 68.0
154.28421 176.0
154.307327 208.0
154.356552 88.0
154.382614 172.0
154.415894 64.0
154.456131 256.0
154.482681 124.0
154.527222 160.0
154.555984 172.0
154.569992 152.0
154.616714 168.0
154.647858 224.0
154.672134 100.0
154.693436 200.0
154.742538 64.0
154.780823 132.0
154.829208 28.0
154.891129 180.0
154.923874 108.0
154.958008 76.0
154.993484 256.0
155.019958 80.0
155.06012 1456.0
155.082199 1324.0
155.121582 160.0
155.138931 124.0
155.158051 168.0
155.179688 100.0
155.201721 172.0
155.230667 172.0
155.25676 192.0
155.280136 76.0
155.305298 128.0
155.344757 52.0
155.373352 84.0
155.406311 212.0
155.430405 208.0
155.508575 180.0
155.545761 104.0
155.595413 44.0
155.65242 156.0
155.676834 216.0
155.72702 220.0
155.764221 184.0
155.779861 252.0
155.813965 232.0
155.830261 172.0
155.878555 176.0
155.941742 180.0
155.96431 156.0
156.005325 160.0
156.082535 860.0
156.128403 60.0
156.164459 96.0
156.209229 88.0
156.230164 208.0
156.2789 156.0
156.298798 108.0
156.322357 184.0
156.356613 216.0
156.431259 284.0
156.468048 152.0
156.490036 96.0
156.525314 120.0
156.55687 268.0
156.580093 220.0
156.609985 128.0
156.647354 348.0
156.689697 108.0
156.710678 168.0
156.770691 200.0
156.811935 156.0
156.844208 72.0
156.883255 168.0
156.953903 144.0
156.986313 96.0
157.017334 256.0
157.041183 164.0
157.060379 144.0
157.087311 384.0
157.125992 164.0
157.213333 96.0
157.235794 104.0
157.258255 168.0
157.289505 144.0
157.326172 136.0
157.368088 148.0
157.395554 148.0
157.445496 120.0
157.486389 152.0
157.540421 124.0
157.580399 168.0
157.611267 132.0
157.645355 152.0
157.665344 124.0
157.775513 192.0
157.836426 248.0
157.869751 116.0
157.91655 172.0
157.942871 212.0
157.983063 128.0
158.017319 148.0
158.052948 260.0
158.080475 164.0
158.086487 80.0
158.115387 200.0
158.175583 232.0
158.195312 168.0
158.241547 160.0
158.291809 164.0
158.319077 232.0
158.348358 60.0
158.370895 176.0
158.398743 204.0
158.463577 140.0
158.52121 100.0
158.560287 148.0
158.60643 140.0
158.704193 112.0
158.721756 116.0
158.776917 136.0
158.796982 96.0
158.831406 216.0
158.893219 176.0
158.914886 164.0
158.94751 136.0
158.991135 124.0
158.998215 156.0
159.043823 168.0
159.128952 268.0
159.191193 152.0
159.215149 268.0
159.272385 180.0
159.311249 164.0
159.386932 116.0
159.41481 172.0
159.449753 204.0
159.485596 140.0
159.522644 140.0
159.547791 76.0
159.572922 144.0
159.595551 216.0
159.62825 96.0
159.731354 100.0
159.781677 180.0
159.819412 132.0
159.857437 148.0
159.935181 164.0
159.970413 172.0
160.000626 152.0
160.019348 176.0
160.042404 168.0
160.074966 152.0
160.122711 132.0
160.173233 188.0
160.185669 200.0
160.209656 188.0
160.239426 160.0
160.257523 32.0
160.275162 188.0
160.295319 132.0
160.345551 172.0
160.449402 152.0
160.515945 192.0
160.534515 208.0
160.577179 164.0
160.679123 92.0
160.698761 240.0
160.723984 208.0
160.769669 80.0
160.808411 212.0
160.989044 140.0
161.035767 176.0
161.079071 204.0
161.120377 168.0
161.155991 128.0
161.181686 212.0
161.192932 56.0
161.202576 196.0
161.226181 184.0
161.254303 144.0
161.28244 188.0
161.350723 112.0
161.438141 84.0
161.548599 196.0
161.625458 68.0
161.640579 216.0
161.694382 284.0
161.712097 216.0
161.744995 104.0
161.765259 132.0
161.796951 168.0
161.876648 224.0
161.919708 200.0
161.952637 120.0
161.999603 132.0
162.004974 72.0
162.014938 180.0
162.043823 116.0
162.145187 128.0
162.166794 156.0
162.206024 128.0
162.22377 140.0
162.247711 168.0
162.332779 120.0
162.378433 68.0
162.42662 100.0
162.45961 120.0
162.507812 160.0
162.534653 160.0
162.621033 156.0
162.657532 156.0
162.677841 168.0
162.736237 88.0
162.80603 288.0
162.837097 156.0
162.86322 76.0
162.914978 168.0
162.944504 60.0
162.967377 116.0
163.01062 184.0
163.05661 148.0
163.061661 312.0
163.098923 136.0
163.145096 456.0
163.179871 112.0
163.197556 164.0
163.262238 164.0
163.322052 116.0
163.354324 176.0
163.379242 44.0
163.400986 124.0
163.449554 176.0
163.459259 132.0
163.492722 192.0
163.580276 196.0
163.653976 172.0
163.718552 92.0
163.771255 104.0
163.811951 188.0
163.830719 104.0
163.871628 356.0
163.92157 64.0
163.993805 184.0
164.058945 156.0
164.064621 196.0
164.07486 252.0
164.085709 212.0
164.097366 264.0
164.21666 276.0
164.271729 172.0
164.367813 136.0
164.388229 152.0
164.471863 104.0
164.508347 196.0
164.553818 184.0
164.588043 228.0
164.599457 64.0
164.621506 136.0
164.642303 144.0
164.662735 152.0
164.68692 160.0
164.71109 104.0
164.771225 100.0
164.80014 176.0
164.842773 56.0
164.880798 204.0
164.906662 152.0
164.96228 116.0
165.021912 344.0
165.069321 14488.0
165.120712 152.0
165.156754 116.0
165.178589 92.0
165.206512 160.0
165.237991 336.0
165.271194 128.0
165.30249 180.0
165.338882 40.0
165.386841 76.0
165.429718 196.0
165.466476 180.0
165.48735 152.0
165.518448 140.0
165.552689 196.0
165.584656 164.0
165.612839 120.0
165.65126 172.0
165.69194 68.0
165.723648 124.0
165.761429 148.0
165.792175 64.0
165.810669 116.0
165.862213 220.0
165.883438 428.0
166.002243 144.0
166.018814 148.0
166.075348 2488.0
166.135193 108.0
166.205368 92.0
166.230698 96.0
166.255341 132.0
166.278778 124.0
166.36673 72.0
166.395752 172.0
166.437561 160.0
166.461731 64.0
166.495117 236.0
166.517014 136.0
166.536209 128.0
166.590149 116.0
166.629929 156.0
166.682648 88.0
166.721191 56.0
166.808578 160.0
166.841995 64.0
166.873978 164.0
166.938721 284.0
166.968597 132.0
166.99826 224.0
167.041382 260.0
167.075073 312.0
167.1436 164.0
167.163879 304.0
167.182449 88.0
167.217545 152.0
167.262238 188.0
167.280014 192.0
167.307632 128.0
167.326843 140.0
167.375137 116.0
167.486694 196.0
167.512436 276.0
167.553787 104.0
167.578064 112.0
167.611557 184.0
167.67424 184.0
167.761047 188.0
167.791031 140.0
167.842026 228.0
167.931229 180.0
167.982819 160.0
168.020004 280.0
168.060364 136.0
168.116837 276.0
168.157288 180.0
168.238297 32.0
168.285995 176.0
168.307999 284.0
168.32692 160.0
168.361069 164.0
168.413818 164.0
168.46521 208.0
168.496216 188.0
168.594849 180.0
168.643219 164.0
168.685211 200.0
168.717453 168.0
168.755005 180.0
168.85025 164.0
168.86969 184.0
168.892227 128.0
168.952515 216.0
169.028656 136.0
169.067139 692.0
169.105408 124.0
169.128571 208.0
169.150818 148.0
169.197418 120.0
169.215546 76.0
169.242935 352.0
169.309769 164.0
169.331543 236.0
169.336044 188.0
169.37352 144.0
169.402008 136.0
169.492157 176.0
169.560059 144.0
169.585892 124.0
169.630112 144.0
169.663742 120.0
169.694855 120.0
169.716721 308.0
169.764862 116.0
169.817352 184.0
169.845352 140.0
169.910126 128.0
169.928284 48.0
169.982773 80.0
170.006134 112.0
170.037735 220.0
170.095398 1808.0
170.120987 128.0
170.138824 104.0
170.19165 128.0
170.231979 120.0
170.252747 92.0
170.273224 172.0
170.309891 116.0
170.346252 248.0
170.4086 216.0
170.447586 120.0
170.465775 132.0
170.512543 104.0
170.54332 148.0
170.550858 124.0
170.57753 156.0
170.595718 188.0
170.619125 72.0
170.675537 232.0
170.717926 60.0
170.741333 236.0
170.758286 168.0
170.794907 120.0
170.828339 80.0
170.856049 116.0
170.881805 100.0
170.900803 212.0
170.959869 136.0
171.01712 152.0
171.042603 188.0
171.102875 668.0
171.145294 152.0
171.178726 160.0
171.215378 132.0
171.245224 132.0
171.257553 128.0
171.267792 176.0
171.298096 268.0
171.329605 200.0
171.386292 116.0
171.407761 172.0
171.434418 156.0
171.463287 104.0
171.485031 160.0
171.519836 248.0
171.543228 176.0
171.600403 212.0
171.678864 116.0
171.752579 340.0
171.798859 60.0
171.861465 220.0
171.882339 108.0
171.918869 104.0
171.947586 132.0
172.018051 180.0
172.051346 144.0
172.105087 324.0
172.130325 164.0
172.157562 112.0
172.190384 200.0
172.213898 176.0
172.24588 172.0
172.315765 132.0
172.365417 108.0
172.442352 280.0
172.490799 164.0
172.555527 164.0
172.595444 76.0
172.626816 192.0
172.64769 208.0
172.664139 200.0
172.728821 100.0
172.799454 68.0
172.822998 184.0
172.885635 128.0
172.914597 208.0
173.002167 184.0
173.040314 152.0
173.069046 160.0
173.089981 80.0
173.110931 124.0
173.166214 176.0
173.275955 112.0
173.307388 128.0
173.40007 132.0
173.457993 112.0
173.465469 164.0
173.498718 236.0
173.538284 336.0
173.557388 200.0
173.61409 152.0
173.638321 84.0
173.672104 132.0
173.681107 116.0
173.703796 120.0
173.745239 212.0
173.774094 156.0
173.823959 164.0
173.903992 512.0
173.942062 244.0
173.977432 140.0
174.018188 52.0
174.057571 36.0
174.188889 176.0
174.241425 152.0
174.265778 188.0
174.291351 104.0
174.357468 124.0
174.420135 120.0
174.471405 132.0
174.538437 164.0
174.559464 124.0
174.616608 192.0
174.648117 192.0
174.701828 160.0
174.726288 104.0
174.800446 368.0
174.851486 140.0
174.886917 260.0
174.929947 168.0
174.975204 84.0
175.062531 192.0
175.131363 132.0
175.149002 164.0
175.175339 56.0
175.238632 156.0
175.264572 184.0
175.300079 152.0
175.330795 88.0
175.363174 140.0
175.391235 176.0
175.437363 532.0
175.457321 180.0
175.483688 176.0
175.513351 192.0
175.548523 116.0
175.568649 144.0
175.589828 128.0
175.641922 96.0
175.699951 160.0
175.723694 212.0
175.752716 172.0
175.786346 188.0
175.818314 204.0
175.884399 168.0
175.896408 168.0
175.921631 140.0
175.95195 240.0
175.985382 296.0
176.025421 192.0
176.061935 1068.0
176.114395 96.0
176.15036 180.0
176.183075 148.0
176.203217 100.0
176.220062 240.0
176.260971 156.0
176.296036 176.0
176.363739 120.0
176.403275 148.0
176.444489 144.0
176.468506 180.0
176.487015 164.0
176.530212 136.0
176.625748 140.0
176.653625 128.0
176.673355 184.0
176.717133 156.0
176.76152 504.0
176.812546 380.0
176.860031 204.0
176.897568 232.0
176.920914 192.0
176.947388 188.0
176.987106 248.0
177.005966 160.0
177.03418 232.0
177.070023 1132.0
177.156601 92.0
177.185745 180.0
177.205032 340.0
177.258255 132.0
177.283478 204.0
177.306915 148.0
177.388412 144.0
177.424271 156.0
177.45874 224.0
177.49585 200.0
177.51442 144.0
177.55957 148.0
177.592377 188.0
177.631119 300.0
177.649689 156.0
177.684174 148.0
177.739883 124.0
177.790314 180.0
177.811539 464.0
177.851959 192.0
177.881729 140.0
177.901276 124.0
177.928894 192.0
177.981094 288.0
178.029846 132.0
178.077835 26852.0
178.154739 128.0
178.197403 156.0
178.222214 100.0
178.246902 192.0
178.267883 72.0
178.300858 200.0
178.335068 208.0
178.37294 96.0
178.40387 140.0
178.441956 148.0
178.500381 108.0
178.614197 88.0
178.654953 204.0
178.693481 124.0
178.731018 164.0
178.76561 148.0
178.788132 120.0
178.824158 140.0
178.870193 148.0
178.904007 232.0
178.925552 176.0
178.949265 260.0
179.00798 228.0
179.083603 9044.0
179.136734 92.0
179.173431 96.0
179.204956 136.0
179.285049 212.0
179.316284 180.0
179.345154 244.0
179.39418 76.0
179.427948 244.0
179.4375 80.0
179.446899 212.0
179.487488 152.0
179.536896 168.0
179.559128 108.0
179.605698 112.0
179.636841 216.0
179.752029 116.0
179.7836 44.0
179.812958 164.0
179.927734 400.0
179.950165 152.0
179.986465 72.0
180.03186 264.0
180.085037 1304.0
180.113953 148.0
180.124771 100.0
180.154739 168.0
180.192139 160.0
180.218857 124.0
180.256256 168.0
180.354553 120.0
180.365387 48.0
180.36972 208.0
180.421036 172.0
180.439819 160.0
180.475937 44.0
180.504044 104.0
180.531479 160.0
180.541412 156.0
180.579742 32.0
180.622543 104.0
180.648514 148.0
180.697449 120.0
180.761658 148.0
180.793091 172.0
180.835007 176.0
180.863525 176.0
180.926727 160.0
180.989182 116.0
181.065598 256.0
181.094437 252.0
181.125763 160.0
181.144516 80.0
181.187378 184.0
181.207809 192.0
181.275803 160.0
181.313324 140.0
181.350311 204.0
181.411194 248.0
181.435089 280.0
181.484879 160.0
181.503647 148.0
181.526947 128.0
181.541901 120.0
181.578735 140.0
181.602875 84.0
181.651154 112.0
181.706924 196.0
181.750549 168.0
181.79068 92.0
181.814835 388.0
181.874969 128.0
182.057755 180.0
182.063309 136.0
182.112839 220.0
182.157196 140.0
182.167755 72.0
182.177567 88.0
182.217422 56.0
182.232971 184.0
182.297653 184.0
182.322403 156.0
182.34375 140.0
182.40303 100.0
182.447906 244.0
182.497131 200.0
182.54895 132.0
182.575119 140.0
182.617203 160.0
182.749573 192.0
182.779556 160.0
182.798401 48.0
182.820724 120.0
182.877914 160.0
182.900345 132.0
182.975082 204.0
183.024628 176.0
183.050003 332.0
183.096802 132.0
183.139709 252.0
183.19957 180.0
183.231888 60.0
183.264221 192.0
183.29039 176.0
183.328903 132.0
183.407059 180.0
183.425919 136.0
183.465759 144.0
183.484024 232.0
183.573456 244.0
183.696381 340.0
183.720581 200.0
183.75444 108.0
183.779221 144.0
183.825851 212.0
183.88176 44.0
183.910446 140.0
183.947433 120.0
183.986359 176.0
184.041031 204.0
184.112625 204.0
184.147903 300.0
184.192261 132.0
184.235489 276.0
184.308441 112.0
184.340866 136.0
184.37059 120.0
184.420517 136.0
184.467896 64.0
184.489517 152.0
184.519257 272.0
184.54985 152.0
184.573792 232.0
184.593903 92.0
184.615723 136.0
184.722092 164.0
184.754547 44.0
184.789719 240.0
184.808655 96.0
184.833008 68.0
184.856964 164.0
184.915512 172.0
184.94397 184.0
184.995392 116.0
185.01976 124.0
185.045364 176.0
185.068649 136.0
185.095581 120.0
185.148987 144.0
185.175476 192.0
185.263321 152.0
185.327774 144.0
185.382721 160.0
185.424591 204.0
185.472687 144.0
185.52095 164.0
185.556183 308.0
185.591431 100.0
185.713867 332.0
185.762299 48.0
185.783997 116.0
185.819504 200.0
185.862564 164.0
185.898331 176.0
185.930527 76.0
185.984314 300.0
186.025528 140.0
186.044525 256.0
186.068954 152.0
186.173965 172.0
186.213974 148.0
186.245468 192.0
186.297089 232.0
186.330658 176.0
186.412231 168.0
186.468262 112.0
186.536224 144.0
186.583359 204.0
186.628647 152.0
186.680313 84.0
186.725189 352.0
186.766556 156.0
186.835892 120.0
186.859833 136.0
186.904984 276.0
186.933304 120.0
186.955078 100.0
187.028564 100.0
187.061951 348.0
187.091629 204.0
187.115799 180.0
187.153183 196.0
187.16217 152.0
187.171753 208.0
187.214249 120.0
187.259216 196.0
187.291183 116.0
187.311752 32.0
187.42038 128.0
187.458878 136.0
187.49736 164.0
187.52002 128.0
187.55426 88.0
187.595795 68.0
187.628876 184.0
187.661575 120.0
187.690567 156.0
187.712387 76.0
187.736588 236.0
187.796936 164.0
187.84259 92.0
187.861206 156.0
187.90036 76.0
187.945862 148.0
187.974258 104.0
187.999084 164.0
188.049011 164.0
188.07962 252.0
188.113449 260.0
188.134827 208.0
188.184433 168.0
188.216644 136.0
188.235031 256.0
188.288208 88.0
188.345566 112.0
188.372879 164.0
188.416412 124.0
188.454498 132.0
188.487 52.0
188.513229 140.0
188.542282 148.0
188.567642 184.0
188.615295 56.0
188.631592 124.0
188.684418 164.0
188.728165 36.0
188.76918 164.0
188.791061 84.0
188.815674 40.0
188.84581 180.0
188.869766 128.0
188.914139 48.0
188.941406 120.0
189.018265 68.0
189.069656 19504.0
189.129868 260.0
189.219498 152.0
189.243774 232.0
189.260345 80.0
189.295715 144.0
189.354324 264.0
189.373993 164.0
189.407196 68.0
189.442169 108.0
189.46492 136.0
189.493835 140.0
189.538666 264.0
189.563034 40.0
189.584961 136.0
189.606873 124.0
189.631546 164.0
189.675629 96.0
189.716522 176.0
189.750168 88.0
189.778534 180.0
189.80426 112.0
189.823456 88.0
189.846802 140.0
189.86557 112.0
189.909195 152.0
189.961609 116.0
189.985367 216.0
190.07663 26196.0
190.147171 144.0
190.179535 124.0
190.19931 124.0
190.243515 80.0
190.305557 252.0
190.3479 116.0
190.392609 208.0
190.418198 172.0
190.427032 124.0
190.435791 164.0
190.447128 144.0
190.455444 200.0
190.482849 156.0
190.509567 212.0
190.539322 64.0
190.549744 164.0
190.604446 140.0
190.643692 196.0
190.682068 268.0
190.693069 172.0
190.699005 156.0
190.72316 28.0
190.754181 180.0
190.772644 144.0
190.804886 236.0
190.838608 164.0
190.848068 244.0
190.883331 160.0
190.90181 208.0
190.931183 200.0
190.971405 88.0
190.993591 396.0
191.030655 180.0
191.085541 80720.0
191.168915 252.0
191.195129 292.0
191.221481 152.0
191.250137 252.0
191.284927 64.0
191.31105 240.0
191.357834 164.0
191.384644 184.0
191.440155 240.0
191.516144 228.0
191.573212 292.0
191.602417 228.0
191.645538 100.0
191.680435 176.0
191.707245 132.0
191.730453 224.0
191.752213 88.0
191.807144 152.0
191.835007 64.0
191.875336 172.0
191.896042 188.0
191.915985 148.0
191.951584 280.0
192.013611 140.0
192.053543 476.0
192.088577 11524.0
192.141785 352.0
192.164215 28.0
192.194565 100.0
192.230072 148.0
192.237305 132.0
192.273315 180.0
192.295776 196.0
192.303787 132.0
192.362 144.0
192.389908 216.0
192.440872 168.0
192.475281 152.0
192.489304 72.0
192.544937 104.0
192.565918 100.0
192.591064 168.0
192.615051 120.0
192.636307 48.0
192.668945 132.0
192.703506 160.0
192.740036 232.0
192.817871 132.0
192.857361 148.0
192.882874 188.0
192.915405 104.0
192.945816 76.0
193.000443 228.0
193.037064 48.0
193.09317 808.0
193.160339 84.0
193.185394 176.0
193.222382 52.0
193.248734 124.0
193.306427 64.0
193.348511 200.0
193.37619 268.0
193.405975 128.0
193.446136 160.0
193.465652 204.0
193.490845 92.0
193.521301 80.0
193.542694 104.0
193.569855 232.0
193.647217 236.0
193.66806 176.0
193.687454 320.0
193.706848 36.0
193.726242 72.0
193.76152 288.0
193.791779 152.0
193.815887 200.0
193.854141 220.0
193.912018 244.0
193.939423 188.0
193.984711 168.0
194.018005 140.0
194.069901 160.0
194.103729 244.0
194.142731 228.0
194.176193 136.0
194.212387 84.0
194.294556 120.0
194.312653 80.0
194.356277 188.0
194.380569 100.0
194.405533 96.0
194.452713 48.0
194.491577 112.0
194.534927 200.0
194.626068 188.0
194.651352 80.0
194.677597 196.0
194.761993 232.0
194.779663 440.0
194.816467 188.0
194.85704 192.0
194.904846 192.0
194.966507 152.0
195.005417 104.0
195.038162 148.0
195.081207 132.0
195.255569 168.0
195.357651 260.0
195.391937 96.0
195.428101 76.0
195.492111 116.0
195.525497 116.0
195.577286 264.0
195.600647 128.0
195.667465 100.0
195.703659 136.0
195.743454 136.0
195.776062 168.0
195.812866 204.0
195.83844 240.0
195.880295 188.0
196.040283 160.0
196.063629 216.0
196.073059 200.0
196.159012 224.0
196.222855 188.0
196.289642 228.0
196.344574 76.0
196.366898 144.0
196.419891 104.0
196.4422 116.0
196.47847 160.0
196.500793 120.0
196.520325 116.0
196.632217 160.0
196.737396 292.0
196.846893 140.0
196.948914 288.0
196.992142 144.0
197.053589 160.0
197.148605 192.0
197.187729 172.0
197.235245 124.0
197.282379 148.0
197.289658 128.0
197.361053 112.0
197.399521 72.0
197.439484 168.0
197.501007 164.0
197.548782 64.0
197.653839 172.0
197.661499 116.0
197.715805 88.0
197.780685 100.0
197.805878 140.0
197.87027 132.0
197.934662 144.0
197.981415 184.0
198.021469 180.0
198.087387 196.0
198.113907 160.0
198.136322 104.0
198.159393 68.0
198.18396 32.0
198.22319 196.0
198.242798 192.0
198.297516 256.0
198.342422 160.0
198.363312 284.0
198.413773 176.0
198.453033 160.0
198.490692 208.0
198.545563 84.0
198.585281 364.0
198.612885 120.0
198.632523 332.0
198.716675 208.0
198.764374 180.0
198.851379 140.0
198.887863 172.0
198.963455 172.0
198.983307 296.0
199.002731 48.0
199.069748 148.0
199.10405 136.0
199.165833 160.0
199.197754 176.0
199.209732 64.0
199.218384 216.0
199.258545 156.0
199.342834 88.0
199.375198 240.0
199.47522 196.0
199.505859 68.0
199.533966 156.0
199.580368 120.0
199.629822 136.0
199.719574 220.0
199.761765 164.0
199.803955 32.0
199.84935 132.0
199.989151 268.0
200.021942 104.0
200.061096 412.0
200.085388 300.0
200.145172 104.0
200.159363 148.0
200.203659 112.0
200.249191 236.0
200.28801 164.0
200.319138 124.0
200.426193 40.0
200.465637 168.0
200.491013 168.0
200.51355 96.0
200.538925 160.0
200.561462 152.0
200.600937 180.0
200.640396 188.0
200.69072 156.0
200.784302 112.0
200.840607 152.0
200.949066 180.0
201.011185 128.0
201.068176 552.0
201.107651 168.0
201.16304 176.0
201.226776 144.0
201.309586 168.0
201.351471 140.0
201.388184 164.0
201.450333 136.0
201.477356 96.0
201.499817 140.0
201.521515 156.0
201.545929 140.0
201.579132 272.0
201.602905 40.0
201.626755 64.0
201.697449 260.0
201.721619 160.0
201.755539 168.0
201.793839 204.0
201.816147 128.0
201.854767 124.0
201.891266 92.0
201.911057 28.0
201.948563 208.0
201.995071 256.0
202.030579 152.0
202.07753 46264.0
202.139786 180.0
202.160309 148.0
202.185898 184.0
202.235504 136.0
202.286209 88.0
202.318558 300.0
202.352615 264.0
202.416 120.0
202.465759 160.0
202.497467 224.0
202.519562 172.0
202.560455 120.0
202.614288 64.0
202.63855 88.0
202.697495 176.0
202.772507 244.0
202.825577 112.0
202.856247 240.0
202.88327 172.0
202.935822 212.0
202.974289 220.0
203.01149 196.0
203.023666 88.0
203.04248 128.0
203.084915 50404.0
203.141052 204.0
203.178116 152.0
203.201477 232.0
203.23848 148.0
203.260834 124.0
203.28418 160.0
203.308716 152.0
203.347748 208.0
203.398453 184.0
203.426132 160.0
203.460175 116.0
203.503601 188.0
203.54747 232.0
203.611893 176.0
203.66832 68.0
203.692154 92.0
203.743973 240.0
203.810364 228.0
203.898102 432.0
203.956131 108.0
204.018982 208.0
204.052948 320.0
204.092438 35792.0
204.157379 52.0
204.184586 124.0
204.215698 124.0
204.246841 156.0
204.287933 168.0
204.321274 80.0
204.339645 180.0
204.366196 180.0
204.410919 420.0
204.438797 32.0
204.487808 184.0
204.510742 144.0
204.551041 156.0
204.587143 208.0
204.627655 136.0
204.646835 376.0
204.673447 96.0
204.700684 104.0
204.740555 208.0
204.79425 136.0
204.834549 372.0
204.855591 104.0
204.901596 176.0
204.922226 124.0
204.948151 248.0
204.990219 232.0
205.015244 76.0
205.100525 36256.0
205.170059 136.0
205.214066 164.0
205.232681 160.0
205.244522 224.0
205.281342 68.0
205.342361 192.0
205.380219 120.0
205.401123 112.0
205.44989 248.0
205.461151 240.0
205.504501 124.0
205.566116 136.0
205.592957 92.0
205.647263 160.0
205.694687 212.0
205.751511 280.0
205.810944 176.0
205.869141 156.0
205.888611 152.0
205.919586 196.0
205.955551 132.0
205.981262 84.0
206.018402 56.0
206.103195 3640.0
206.156372 140.0
206.193344 208.0
206.211655 120.0
206.238434 148.0
206.263611 280.0
206.343414 188.0
206.372314 96.0
206.392212 76.0
206.419968 80.0
206.461441 152.0
206.52739 68.0
206.564407 296.0
206.603256 112.0
206.677292 184.0
206.741791 84.0
206.765411 128.0
206.827652 136.0
206.899231 204.0
206.991196 196.0
207.041046 88.0
207.073166 192.0
207.107254 596.0
207.134048 72.0
207.169861 324.0
207.302734 416.0
207.331741 204.0
207.480789 88.0
207.532394 100.0
207.570938 172.0
207.602692 176.0
207.633484 208.0
207.654465 120.0
207.678406 136.0
207.727158 176.0
207.767578 148.0
207.807755 132.0
207.842178 124.0
207.875977 164.0
207.936874 208.0
207.990631 148.0
208.048828 136.0
208.089478 152.0
208.16301 208.0
208.203629 236.0
208.241211 76.0
208.393463 128.0
208.432175 228.0
208.508408 180.0
208.544891 252.0
208.610901 176.0
208.675568 132.0
208.710785 100.0
208.716568 88.0
208.766876 132.0
208.83165 144.0
208.862061 124.0
208.896576 104.0
209.008972 184.0
209.144043 96.0
209.181458 48.0
209.253433 180.0
209.309006 172.0
209.341248 164.0
209.385895 84.0
209.427094 204.0
209.469421 164.0
209.503983 72.0
209.556473 260.0
209.633652 204.0
209.71199 160.0
209.794937 96.0
209.840225 112.0
209.894485 140.0
209.924805 108.0
209.944992 76.0
210.200989 156.0
210.259949 184.0
210.302216 132.0
210.381744 192.0
210.437439 176.0
210.444809 224.0
210.467285 192.0
210.506607 124.0
210.546738 212.0
210.582809 116.0
210.667786 144.0
210.764801 148.0
210.790817 216.0
210.816818 72.0
210.851501 148.0
210.935318 184.0
210.984467 168.0
211.060364 192.0
211.103012 96.0
211.152176 152.0
211.192657 64.0
211.227371 60.0
211.260895 228.0
211.288132 164.0
211.317825 164.0
211.350571 216.0
211.388199 136.0
211.43129 160.0
211.632538 176.0
211.671692 176.0
211.694489 172.0
211.855148 144.0
211.899002 180.0
211.951157 68.0
211.971436 140.0
211.997086 212.0
212.004349 108.0
212.030182 280.0
212.060852 148.0
212.103409 180.0
212.139542 144.0
212.252411 116.0
212.293213 52.0
212.427536 256.0
212.451584 200.0
212.48172 264.0
212.503159 180.0
212.580399 124.0
212.600723 168.0
212.630264 88.0
212.680649 96.0
212.701569 204.0
212.731491 148.0
212.774521 132.0
212.911346 164.0
212.935623 236.0
212.980194 108.0
213.021133 156.0
213.069946 2172.0
213.10704 168.0
213.153122 196.0
213.193268 92.0
213.23674 96.0
213.290253 148.0
213.315338 208.0
213.341385 60.0
213.394012 152.0
213.42775 136.0
213.463501 120.0
213.48967 60.0
213.55365 224.0
213.585648 44.0
213.645325 140.0
213.686035 220.0
213.739426 56.0
213.773544 128.0
213.825684 160.0
213.885361 64.0
213.924316 280.0
213.968689 208.0
213.990158 212.0
214.023285 164.0
214.07637 1880.0
214.135834 140.0
214.146942 124.0
214.15773 272.0
214.223465 184.0
214.259262 200.0
214.267471 104.0
214.283981 132.0
214.307571 200.0
214.365387 316.0
214.394379 140.0
214.430023 348.0
214.461197 184.0
214.499222 204.0
214.521805 372.0
214.564896 192.0
214.592911 360.0
214.614304 128.0
214.636292 400.0
214.673721 296.0
214.691666 172.0
214.738861 272.0
214.782333 332.0
214.792862 256.0
214.799133 296.0
214.856628 480.0
214.913254 336.0
214.941132 172.0
214.959579 356.0
214.968719 392.0
214.986771 600.0
215.011124 644.0
215.050568 884.0
215.086685 360312.0
215.168335 412.0
215.188812 304.0
215.220032 100.0
215.260956 172.0
215.293121 288.0
215.298233 44.0
215.358414 728.0
215.385757 232.0
215.411285 424.0
215.449051 192.0
215.477402 304.0
215.482315 56.0
215.491318 104.0
215.527496 376.0
215.569077 4528.0
215.60437 692.0
215.636078 304.0
215.675797 204.0
215.703064 148.0
215.730774 304.0
215.756088 172.0
215.764481 128.0
215.794479 444.0
215.828766 248.0
215.861786 268.0
215.871796 216.0
215.900192 172.0
215.940796 248.0
215.967865 512.0
215.991959 272.0
216.02272 660.0
216.092743 247664.0
216.167099 340.0
216.206863 208.0
216.232849 108.0
216.281723 292.0
216.307083 208.0
216.348938 108.0
216.379501 56.0
216.417236 132.0
216.469528 184.0
216.478745 148.0
216.497299 288.0
216.534698 180.0
216.573822 1496.0
216.621674 152.0
216.66687 176.0
216.712448 132.0
216.743622 124.0
216.78389 256.0
216.822632 276.0
216.844162 84.0
216.90448 232.0
216.91539 208.0
216.961487 112.0
216.987747 288.0
217.034393 224.0
217.095642 32224.0
217.180161 56.0
217.203339 156.0
217.242706 204.0
217.274918 88.0
217.298874 196.0
217.33017 176.0
217.351456 292.0
217.404343 236.0
217.468002 352.0
217.503098 152.0
217.527496 260.0
217.558578 172.0
217.609161 404.0
217.630936 148.0
217.6595 360.0
217.707642 372.0
217.75441 284.0
217.785721 252.0
217.815262 316.0
217.849304 252.0
217.874817 112.0
217.893326 300.0
217.946762 156.0
217.969589 124.0
217.995346 188.0
218.032181 136.0
218.098557 2272.0
218.149231 136.0
218.178406 160.0
218.2117 96.0
218.23941 68.0
218.246719 72.0
218.257568 136.0
218.28685 84.0
218.341156 76.0
218.354706 84.0
218.410522 92.0
218.415955 80.0
218.441238 136.0
218.45195 200.0
218.47934 232.0
218.520279 76.0
218.578506 168.0
218.618988 332.0
218.652557 216.0
218.681976 232.0
218.737579 184.0
218.764587 152.0
218.783386 180.0
218.805984 96.0
218.837921 316.0
218.858002 88.0
218.897659 148.0
218.917603 148.0
218.956558 144.0
218.997803 60.0
219.028168 64.0
219.057419 116.0
219.116241 604.0
219.179153 64.0
219.251404 52.0
219.286316 104.0
219.33252 36.0
219.367432 36.0
219.4151 144.0
219.48317 40.0
219.523376 84.0
219.587265 36.0
219.620193 124.0
219.656021 168.0
219.68399 128.0
219.712418 100.0
219.783142 80.0
219.820328 132.0
219.85881 140.0
219.89212 184.0
219.96199 40.0
219.985306 76.0
220.012177 44.0
220.038757 104.0
220.065323 84.0
220.118195 212.0
220.152573 88.0
220.177536 28.0
220.199921 76.0
220.272781 64.0
220.381363 60.0
220.429779 72.0
220.547348 72.0
220.576416 48.0
220.659821 188.0
220.682343 72.0
220.724228 96.0
220.768585 52.0
220.827744 48.0
220.889847 92.0
220.934235 160.0
220.957901 144.0
221.0289 72.0
221.085236 116.0
221.124878 176.0
221.239044 80.0
221.271606 84.0
221.406876 212.0
221.428558 36.0
221.470016 56.0
221.501755 28.0
221.535187 120.0
221.766312 132.0
221.828552 76.0
221.875992 44.0
221.994598 88.0
222.045013 92.0
222.113235 80.0
222.199265 100.0
222.258606 60.0
222.279373 84.0
222.463379 104.0
222.588089 84.0
222.631027 104.0
222.653412 88.0
222.799393 56.0
222.837158 56.0
222.864319 52.0
222.977249 44.0
223.087219 56.0
223.241837 128.0
223.283478 68.0
223.424866 116.0
223.458969 124.0
223.551224 56.0
223.589905 60.0
223.650803 104.0
223.76268 92.0
223.831741 84.0
223.89357 116.0
224.12294 48.0
224.169586 104.0
224.22171 140.0
224.283875 232.0
224.373306 60.0
224.474762 136.0
224.546249 76.0
224.695404 72.0
224.7491 64.0
225.065506 76.0
225.116257 116.0
225.21022 52.0
225.307419 100.0
225.41861 148.0
225.615234 40.0
225.63916 52.0
225.752777 124.0
225.776871 228.0
225.812592 104.0
225.839508 156.0
225.959167 100.0
225.996201 64.0
226.030975 164.0
226.078217 920.0
226.189606 144.0
226.255463 140.0
226.289658 100.0
226.380371 92.0
226.417145 44.0
226.521988 76.0
226.567215 92.0
226.629837 160.0
226.653809 84.0
226.67778 84.0
226.704742 164.0
226.830627 132.0
226.881592 176.0
226.931152 128.0
226.977539 140.0
227.083527 2588.0
227.134201 152.0
227.232483 128.0
227.313492 248.0
227.37352 120.0
227.40271 176.0
227.445557 72.0
227.469559 92.0
227.490585 160.0
227.550629 172.0
227.577637 180.0
227.614792 172.0
227.70076 32.0
227.775848 32.0
227.838806 88.0
227.958405 116.0
227.981247 148.0
228.007202 152.0
228.037262 172.0
228.092606 31772.0
228.139206 156.0
228.180344 160.0
228.214554 128.0
228.240417 76.0
228.301086 196.0
228.341766 128.0
228.388611 76.0
228.425995 112.0
228.457489 196.0
228.479294 52.0
228.513733 152.0
228.522507 132.0
228.533386 200.0
228.584595 92.0
228.623947 104.0
228.694214 124.0
228.755661 464.0
228.777222 32.0
228.856461 128.0
228.903687 140.0
228.942825 40.0
228.97348 204.0
229.029465 248.0
229.100174 40580.0
229.170303 132.0
229.197968 224.0
229.244598 68.0
229.298889 44.0
229.330856 124.0
229.429276 168.0
229.453262 140.0
229.485229 48.0
229.509338 96.0
229.545532 232.0
229.642029 48.0
229.713516 80.0
229.722183 56.0
229.73349 112.0
229.760651 124.0
229.804932 56.0
229.866196 92.0
229.899643 72.0
229.990265 68.0
230.040329 196.0
230.105347 10332.0
230.205093 116.0
230.253479 64.0
230.280823 168.0
230.384598 80.0
230.411789 60.0
230.490341 76.0
230.533218 232.0
230.564545 84.0
230.596115 176.0
230.6203 208.0
230.645981 72.0
230.708893 116.0
230.752396 120.0
230.774475 152.0
230.81929 68.0
230.828674 56.0
230.839584 120.0
230.865768 132.0
230.94986 52.0
230.998703 56.0
231.044281 204.0
231.059998 128.0
231.117233 26216.0
231.184845 72.0
231.220078 56.0
231.249405 272.0
231.303421 64.0
231.361176 52.0
231.393539 196.0
231.437103 124.0
231.490341 84.0
231.511475 56.0
231.540497 136.0
231.563461 44.0
231.588516 128.0
231.620193 184.0
231.67952 180.0
231.708176 56.0
231.719589 60.0
231.731735 52.0
231.7612 40.0
231.802338 152.0
231.842728 108.0
231.8853 164.0
231.890381 76.0
231.902969 56.0
231.936966 64.0
231.973343 48.0
232.003662 116.0
232.039001 164.0
232.076416 32.0
232.118469 2996.0
232.319046 48.0
232.346344 40.0
232.458618 60.0
232.485031 96.0
232.555725 140.0
232.605453 136.0
232.678574 60.0
232.728775 84.0
232.80043 100.0
232.825943 48.0
232.865417 56.0
233.005157 48.0
233.056259 244.0
233.122849 916.0
233.187485 60.0
233.221848 128.0
233.27562 88.0
233.351624 60.0
233.375946 192.0
233.430679 148.0
233.490829 72.0
233.556931 92.0
233.584396 104.0
233.610031 120.0
233.617264 116.0
233.691406 120.0
233.82312 60.0
233.884003 100.0
233.966187 128.0
234.04332 108.0
234.123871 148.0
234.228073 56.0
234.270721 92.0
234.29509 92.0
234.487061 40.0
234.645584 44.0
234.733994 120.0
234.889542 44.0
235.06459 64.0
235.113342 80.0
235.228256 84.0
235.25087 128.0
235.408386 164.0
235.500015 52.0
235.570267 72.0
235.80249 56.0
235.872787 92.0
236.340698 132.0
236.456985 36.0
236.518204 64.0
236.597794 108.0
236.73558 36.0
236.796829 48.0
236.989822 72.0
237.044983 108.0
237.149185 56.0
237.216614 60.0
237.814758 76.0
237.937546 80.0
238.045685 108.0
238.352188 60.0
238.456665 104.0
238.656494 56.0
238.807175 52.0
239.201019 64.0
239.65683 48.0
240.646896 100.0
240.779678 132.0
240.906326 56.0
241.02063 32.0
241.589523 60.0
241.796829 104.0
241.902069 36.0
241.939224 112.0
241.991852 68.0
242.440994 36.0
242.893661 152.0
242.983627 60.0
243.067413 120.0
243.089127 140.0
243.452332 88.0
243.533081 124.0
243.700836 72.0
243.744339 52.0
243.984818 68.0
244.126694 48.0
244.618286 48.0
245.041824 84.0
245.125946 180.0
245.914963 48.0
246.060242 104.0
246.133484 116.0
246.174088 124.0
246.19809 128.0
246.461472 76.0
246.536469 64.0
247.071243 152.0
247.133347 136.0
247.158752 180.0
247.643982 72.0
247.982361 68.0
248.1297 136.0
248.302155 40.0
248.681793 84.0
248.964355 104.0
249.416779 96.0
249.682266 100.0
249.740646 28.0
250.037735 56.0
250.650467 72.0
250.688278 88.0
251.18013 72.0
251.404144 100.0
251.789291 152.0
251.842987 52.0
252.607925 36.0
253.088989 132.0
253.906555 108.0
254.081024 48.0
254.884308 124.0
255.192627 96.0
255.452408 64.0
256.093201 36.0
256.761658 76.0
256.941132 100.0
257.052826 64.0
257.123016 72.0
257.384796 52.0
257.748932 148.0
258.030212 96.0
258.468384 124.0
258.980621 84.0
259.987335 52.0
260.067566 92.0
260.144592 152.0
261.131073 96.0
261.327301 68.0
262.15567 1592.0
262.490509 88.0
263.161713 304.0
263.309784 88.0
263.639313 36.0
264.171173 120.0
266.932892 156.0
267.023956 108.0
267.176849 56.0
267.980988 100.0
268.874481 64.0
269.076874 60.0
269.191132 56.0
269.828308 136.0
271.560577 100.0
273.532043 100.0
274.213867 108.0
274.883331 92.0
275.243134 28.0
275.699005 124.0
275.877472 64.0
275.960144 80.0
276.19162 32.0
277.781616 96.0
278.751068 120.0
279.549164 56.0
279.619049 76.0
282.97052 120.0
283.117828 92.0
283.7612 96.0
284.304596 44.0
286.112946 84.0
286.197144 40.0
286.699036 60.0
287.174408 100.0
287.319458 88.0
288.014862 32.0
289.029083 84.0
289.069702 76.0
289.289703 76.0
289.838348 96.0
290.028137 124.0
290.387177 76.0
291.348175 84.0
291.569031 48.0
292.364838 100.0
292.626923 108.0
292.970917 52.0
293.069702 64.0
294.999176 92.0
295.138153 164.0
295.203125 60.0
295.829254 56.0
296.699402 120.0
297.594879 108.0
299.410492 88.0
303.1138 84.0
303.48468 84.0
304.164642 100.0
304.730713 96.0
304.755035 80.0
306.512207 104.0
306.717804 60.0
306.770111 36.0
307.474213 128.0
307.722534 40.0
307.788849 48.0
308.047302 96.0
308.707886 60.0
310.353668 36.0
311.915924 76.0
314.190826 32.0
314.5896 40.0
314.709656 108.0
315.098145 68.0
315.469238 68.0
315.497528 64.0
315.600037 80.0
316.190796 124.0
316.608551 208.0
316.728973 112.0
317.991241 108.0
318.46701 120.0
320.127869 160.0
321.343353 100.0
323.008118 88.0
323.423187 108.0
323.598602 88.0
324.193207 68.0
324.835022 52.0
325.168701 36.0
325.700867 92.0
326.505188 60.0
326.537567 72.0
328.132782 104.0
328.222931 56.0
328.565552 84.0
328.825378 88.0
328.875885 128.0
329.013062 44.0
329.518677 84.0
330.010223 56.0
332.82193 40.0
333.141541 84.0
334.112183 88.0
335.16806 60.0
335.266449 40.0
336.116119 44.0
336.218292 56.0
336.262085 104.0
336.579681 40.0
337.208038 96.0
337.387146 96.0
338.561676 100.0
338.601959 140.0
339.136871 32.0
339.793274 36.0
339.95108 52.0
341.060211 76.0
341.449951 64.0
341.497772 68.0
341.751587 84.0
342.955811 64.0
343.106964 52.0
345.011932 44.0
345.082153 56.0
345.300354 108.0
346.203339 116.0
346.7146 60.0
347.471039 48.0
348.376892 84.0
349.588989 68.0
349.719238 96.0
349.767639 36.0
351.480865 108.0
351.728302 80.0
352.763031 44.0
353.065887 56.0
353.222961 76.0
353.249146 52.0
354.923279 100.0
356.251862 132.0
356.717865 96.0
356.789276 140.0
356.894562 88.0
358.72049 112.0
359.920258 56.0
360.789246 120.0
361.78418 32.0
362.329529 112.0
362.594788 128.0
363.190033 80.0
363.774414 72.0
364.328857 84.0
364.518829 76.0
364.830475 68.0
365.663513 28.0
365.914764 68.0
366.478455 152.0
367.229431 104.0
368.298157 64.0
370.340668 68.0
370.96524 76.0
371.329498 76.0
372.254395 84.0
372.377289 84.0
373.238098 80.0
373.491943 52.0
374.816284 92.0
375.43692 132.0
375.942291 72.0
376.587036 68.0
377.530029 80.0
377.870422 72.0
378.563293 52.0
378.714325 104.0
378.96225 44.0
379.20639 68.0
379.46225 104.0
380.230286 68.0
380.599091 92.0
381.605408 56.0
382.184937 36.0
382.445679 52.0
384.550415 152.0
387.052399 52.0
387.526337 96.0
388.357422 72.0
389.476074 72.0
390.13623 96.0
390.265961 40.0
390.867798 72.0
391.505493 76.0
391.588196 116.0
391.682739 76.0
391.753632 60.0
392.427551 124.0
392.494598 32.0
392.971863 68.0
393.702118 72.0
395.117188 108.0
395.60791 56.0
395.659363 112.0
395.71875 72.0
396.055359 80.0
396.879669 96.0
396.931213 72.0
398.181274 68.0
398.510986 108.0
398.650085 64.0
399.401489 72.0
400.683319 68.0
401.380829 48.0
404.833405 152.0
405.13382 100.0
406.139984 108.0
406.172058 60.0
406.396729 52.0
407.504883 60.0
407.713837 72.0
407.770081 52.0
407.866547 60.0
408.324921 64.0
408.426666 68.0
409.480011 104.0
410.023895 72.0
410.777893 88.0
411.694092 40.0
411.952606 76.0
412.566864 104.0
412.744751 32.0
414.39212 40.0
414.517731 40.0
414.61499 56.0
415.973755 136.0
417.839081 60.0
418.034363 52.0
418.221588 68.0
418.278564 80.0
419.822723 112.0
421.026642 88.0
422.845917 52.0
423.10791 92.0
423.263489 52.0
425.588409 88.0
425.69516 56.0
426.541504 108.0
426.792297 152.0
427.705597 96.0
430.129333 76.0
431.083405 32.0
431.748962 148.0
431.802734 76.0
432.005402 44.0
432.133667 36.0
433.790222 76.0
434.121918 76.0
435.865356 64.0
437.399994 92.0
437.44162 104.0
440.172485 84.0
440.264374 60.0
440.343719 76.0
441.355011 72.0
441.501373 52.0
442.698242 96.0
443.142273 64.0
445.773163 76.0
447.118866 60.0
449.123138 108.0
449.575836 44.0
449.833282 56.0
450.872345 140.0
451.180908 44.0
451.350037 56.0
451.912567 52.0
453.187012 32.0
453.517578 60.0
454.357208 64.0
454.425079 64.0
454.552368 72.0
455.197601 52.0
457.12326 36.0
458.929321 60.0
461.833252 40.0
462.119873 56.0
463.931488 68.0
464.214478 108.0
465.763824 80.0
468.383392 72.0
468.999573 64.0
469.758484 32.0
469.879272 88.0
470.2547 56.0
471.762238 80.0
473.79187 64.0
474.61969 68.0
474.658722 148.0
475.717346 60.0
475.821564 72.0
476.477356 92.0
478.125336 40.0
479.675934 60.0
481.3862 48.0
481.451721 48.0
481.508484 108.0
481.844849 60.0
482.050201 36.0
483.121399 148.0
483.690308 48.0
484.877258 112.0
485.942841 96.0
486.557281 36.0
487.800507 80.0
487.914795 60.0
488.385345 108.0
488.499695 56.0
489.340271 40.0
492.157684 36.0
496.06424 64.0
496.534241 96.0
497.47937 56.0
498.612 124.0
498.994293 84.0
499.986237 52.0
501.291077 56.0
501.879456 48.0
501.919586 76.0
502.200562 104.0
503.709259 36.0
505.502075 52.0
506.366119 72.0
508.226501 92.0
508.289307 88.0
510.571381 68.0
510.97171 112.0
511.984497 52.0
512.241211 64.0
512.835999 52.0
515.345093 56.0
516.298889 68.0
516.515991 96.0
517.226379 92.0
518.512756 108.0
521.503723 92.0
523.960999 80.0
524.093079 132.0
524.156921 68.0
524.799622 80.0
527.973267 108.0
530.069885 52.0
533.296143 68.0
536.426208 64.0
538.830566 76.0
540.520752 96.0
542.370728 112.0
546.341064 60.0
548.525085 72.0
548.59967 84.0
549.364502 72.0
551.479736 104.0
552.939026 68.0
554.540771 76.0
555.824341 68.0
556.459412 76.0
557.365906 52.0
558.5271 76.0
559.077576 60.0
561.060608 56.0
561.475525 84.0
561.980286 76.0
565.01825 60.0
565.22644 112.0
565.884338 32.0
568.164001 80.0
569.193909 72.0
570.220032 52.0
573.09906 44.0
574.834778 68.0
575.269104 116.0
575.598511 40.0
575.789551 76.0
576.993713 84.0
577.778015 104.0
578.13208 80.0
578.955505 96.0
581.438843 68.0
582.000488 88.0
584.244995 36.0
585.679504 44.0
587.328003 40.0
588.577942 84.0
589.10437 64.0
590.78186 76.0
594.833069 72.0
595.100098 56.0
595.911194 84.0
596.008362 64.0
596.139587 68.0
596.241638 44.0
597.291809 52.0
598.099548 40.0
599.788086 68.0
600.413879 120.0
600.477295 128.0
601.711853 64.0
602.512817 68.0
602.840149 40.0
604.263062 68.0
606.295166 48.0
607.055054 52.0
609.027954 28.0
610.600769 68.0
617.594604 64.0
618.584229 92.0
619.926453 56.0
623.191528 120.0
623.246155 76.0
626.305725 80.0
627.222534 80.0
633.328552 104.0
635.132996 100.0
638.910645 80.0
639.388672 48.0
639.474182 72.0
639.620178 56.0
640.586975 52.0
648.292175 56.0
651.016357 252.0
651.895203 60.0
654.270508 112.0
654.463989 88.0
658.278137 104.0
664.009888 60.0
664.687012 44.0
665.421021 76.0
666.021851 100.0
666.38147 52.0
668.067749 48.0
668.397034 92.0
668.870483 52.0
673.764343 60.0
674.487854 108.0
674.973816 84.0
679.12207 104.0
686.841003 140.0
687.200989 124.0
688.58429 64.0
689.854004 96.0
689.995178 92.0
690.125916 180.0
694.330872 40.0
695.269958 60.0
696.288452 60.0
697.388794 84.0
697.644104 68.0
700.606934 76.0
700.87561 32.0
701.270874 52.0
702.446716 120.0
705.224121 40.0
711.835876 40.0
712.032349 80.0
715.089417 100.0
725.216187 48.0
725.548523 120.0
726.867981 108.0
727.538879 76.0
728.140259 132.0
730.623657 116.0
732.146912 140.0
732.89032 88.0
737.48822 88.0
741.466309 108.0
744.602112 116.0
749.454529 28.0
751.777466 36.0
753.464661 44.0
756.335632 112.0
757.014526 48.0
757.715637 116.0
758.734985 112.0
761.599487 40.0
766.539917 40.0
767.135132 108.0
767.791321 120.0
776.645874 72.0
779.633179 236.0
780.194519 72.0
781.039795 96.0
781.156616 228.0
788.047302 40.0
793.358521 52.0
793.442627 84.0
798.788879 188.0
805.745422 76.0
806.870117 88.0
808.63501 76.0
811.524048 60.0
821.442444 60.0
825.823547 116.0
828.170227 120.0
830.807068 52.0
834.27002 68.0
834.511475 96.0
841.892944 108.0
846.872559 88.0
852.174744 132.0
854.035034 120.0
854.157166 104.0
856.683594 148.0
858.910339 40.0
863.507141 116.0
869.553467 116.0
869.929138 64.0
870.351868 52.0
874.77301 116.0
877.583252 72.0
878.845459 128.0
881.733093 84.0
882.205933 68.0
882.891846 208.0
884.93927 192.0
885.063599 200.0
886.437866 88.0
886.823059 88.0
887.37439 52.0
893.134766 208.0
895.712158 132.0
897.44635 88.0
900.555542 148.0
901.32019 52.0
903.299133 52.0
907.449341 28.0
908.558838 68.0
912.642944 84.0
913.105957 176.0
915.30249 68.0
916.350525 32.0
917.23645 112.0
918.834534 108.0
922.427734 88.0
923.419373 36.0
923.854858 108.0
925.02887 220.0
925.622192 44.0
928.179321 184.0
929.386353 144.0
932.586792 156.0
932.866394 104.0
936.93158 56.0
937.358093 132.0
943.779541 108.0
945.131287 244.0
945.724915 156.0
946.049377 36.0
946.961731 160.0
950.799683 128.0
951.806458 156.0
951.886292 92.0
954.448669 100.0
955.37738 80.0
957.593384 32.0
958.215515 76.0
961.113403 224.0
961.674988 136.0
963.280396 72.0
963.848816 48.0
964.343201 124.0
965.190125 60.0
966.699463 68.0
967.97467 148.0
971.805359 36.0
973.562012 188.0
974.854187 72.0
975.811401 144.0
977.932678 56.0
978.60498 120.0
979.838196 76.0
981.776733 36.0
983.192871 68.0
983.898254 156.0
987.486633 200.0
988.179382 72.0
990.483154 56.0
992.921326 132.0
995.864868 40.0
996.065857 180.0
996.430237 96.0
997.567749 156.0
997.8255 152.0
998.567505 56.0
1000.014587 200.0
1000.171936 60.0
1002.174622 60.0
1002.464478 44.0
1004.03418 152.0
1005.037231 92.0
1007.284729 116.0
1007.575317 76.0
1007.733276 88.0
1007.783813 192.0
1011.38855 124.0
1012.490173 216.0
1013.28833 220.0
1014.302246 116.0
1014.530457 152.0
1014.606567 184.0
1015.126465 72.0
1015.424561 112.0
1015.545044 72.0
1018.128174 156.0
1018.852295 196.0
1020.498352 32.0
1020.701843 96.0
1021.026184 124.0
1021.802185 56.0
1022.941345 216.0
1023.221436 120.0
1023.858215 144.0
1023.928284 180.0
1024.901123 144.0
1026.107544 152.0
1026.987549 188.0
1027.370361 184.0
1027.714844 136.0
1028.278198 72.0
1028.404053 136.0
1028.557251 144.0
1034.476562 92.0
1036.449219 120.0
1036.692627 72.0
1036.788818 84.0
1037.211792 128.0
1037.455444 172.0
1038.308228 108.0
1038.577637 88.0
1043.078857 28.0
1043.612427 84.0
1044.171875 200.0
1045.001709 52.0
1045.670898 76.0
1046.057129 100.0
1046.475586 152.0
1047.216187 196.0
1049.452271 200.0
1049.677979 132.0
1050.903564 176.0
1051.097168 160.0
1053.046753 68.0
1053.382568 172.0
1055.321411 96.0
1056.679688 40.0
1056.957886 144.0
1057.287964 120.0
1058.174683 184.0
1059.146118 244.0
1060.027222 84.0
1060.707764 72.0
1064.574707 84.0
1064.847412 100.0
1064.996826 92.0
1066.003784 180.0
1066.380737 84.0
1066.627686 60.0
1067.037231 152.0
1068.266479 144.0
1070.694214 252.0
1070.843994 96.0
1071.182739 160.0
1071.945068 172.0
1072.160034 124.0
1072.824951 104.0
1073.796509 68.0
1074.657593 44.0
1075.081787 180.0
1075.505981 156.0
1076.602783 148.0
1078.28833 200.0
1078.863525 128.0
1079.177368 120.0
1079.360474 180.0
1079.654785 28.0
1081.2052 152.0
1083.877075 164.0
1085.90271 148.0
1087.083618 40.0
1087.946289 176.0
1088.652588 52.0
1089.296265 100.0
1089.591919 184.0
1090.4198 144.0
1091.570312 196.0
1091.629517 144.0
1091.800415 188.0
1092.129272 168.0
1095.532471 72.0
1095.578613 132.0
1096.916382 260.0
1097.232788 108.0
1098.063599 156.0
1098.202148 100.0
1098.446167 124.0
1100.194946 188.0
1101.601562 92.0
1103.326416 144.0
1104.0802 168.0
1104.212524 80.0
1105.231201 216.0
1105.754028 68.0
1105.926147 172.0
1106.018799 100.0
1110.915771 172.0
1111.015259 144.0
1111.507812 152.0
1113.072754 84.0
1114.314819 108.0
1114.607178 68.0
1114.992676 80.0
1115.265137 136.0
1115.338257 132.0
1116.396118 152.0
1116.508423 40.0
1116.821045 208.0
1116.907471 196.0
1118.031982 224.0
1122.108521 244.0
1122.655273 100.0
1122.955444 100.0
1123.295654 140.0
1123.795898 88.0
1124.122925 60.0
1124.189697 172.0
1124.803711 228.0
1125.611572 40.0
1125.771729 92.0
1126.252686 116.0
1126.359497 208.0
1128.083618 80.0
1128.491333 168.0
1129.193481 140.0
1129.347412 120.0
1129.661743 184.0
1130.348267 192.0
1130.852783 176.0
1131.07373 192.0
1131.957397 76.0
1132.607056 164.0
1132.868286 120.0
1133.598633 164.0
1134.081177 200.0
1134.309082 160.0
1134.389526 148.0
1137.24707 204.0
1137.495361 52.0
1137.737061 108.0
1137.965332 196.0
1138.113037 104.0
1139.026367 64.0
1139.335449 48.0
1139.516846 104.0
1140.094727 144.0
1140.544922 208.0
1140.786987 148.0
1142.32019 80.0
1143.235229 132.0
1143.800659 156.0
1143.975586 176.0
1146.252075 32.0
1147.222656 116.0
1147.472046 112.0
1148.166626 44.0
1149.407837 228.0
1149.502319 248.0
1150.757812 136.0
1151.264282 260.0
1153.460083 240.0
1154.704224 80.0
1155.255249 188.0
1155.935425 120.0
1157.228271 168.0
1158.994751 176.0
1159.151978 168.0
1162.413696 132.0
1163.085571 172.0
1163.275635 136.0
1163.805176 80.0
1165.319824 192.0
1165.462524 96.0
1166.203247 152.0
1166.733521 40.0
1167.930298 184.0
1168.317993 128.0
1168.733032 216.0
1168.796997 196.0
1172.164917 48.0
1172.403442 208.0
1172.880493 120.0
1173.807739 184.0
1174.203247 36.0
1174.257812 128.0
1174.360107 176.0
1174.858154 108.0
1175.274292 136.0
1176.113647 36.0
1176.229736 136.0
1176.373047 180.0
1176.495972 180.0
1176.646118 56.0
1176.789551 124.0
1177.2948 204.0
1178.674683 124.0
1179.043701 200.0
1179.576904 100.0
1179.898193 132.0
1181.88855 220.0
1182.456421 156.0
1183.56543 144.0
1183.764038 152.0
1184.339355 164.0
1184.627075 156.0
1184.894287 156.0
1185.668579 160.0
1185.771362 164.0
1186.833862 164.0
1187.183594 136.0
1188.150757 156.0
1188.795776 148.0
1189.097656 64.0
1189.564453 124.0
1190.61499 76.0
1190.972168 104.0
1191.020142 140.0
1192.140137 80.0
1192.696777 28.0
1193.745239 152.0
1193.810547 76.0
1195.482178 140.0
1196.900269 204.0
1197.292847 160.0
1198.546509 180.0
1198.973755 172.0
1199.242554 96.0
1199.313843 72.0
1199.614868 76.0
1199.787109 144.0
1201.125 156.0
1201.235352 200.0
1201.580322 156.0
1202.015015 148.0
1202.346191 224.0
1202.532593 176.0
1202.72583 216.0
1202.898438 180.0
1203.858154 148.0
1204.894165 156.0
1205.108398 56.0
1205.294922 144.0
1205.877563 136.0
1206.193359 116.0
1206.297119 196.0
1206.753296 96.0
1206.801758 104.0
1208.122681 248.0
1208.697021 160.0
1208.766113 216.0
1209.008423 100.0
1209.056763 156.0
1209.125977 48.0
1209.217896 144.0
1210.746094 136.0
1211.030029 160.0
1211.96521 140.0
1212.117676 104.0
1213.261353 148.0
1213.483154 196.0
1213.913086 136.0
1215.008911 164.0
1215.362793 120.0
1215.938843 92.0
1216.535767 92.0
1216.834229 180.0
1217.348022 184.0
1217.820312 176.0
1217.882812 132.0
1218.626221 120.0
1219.126465 180.0
1220.294312 68.0
1220.36377 168.0
1220.551514 184.0
1220.947876 120.0
1221.017456 208.0
1221.156494 64.0
1221.406982 48.0
1221.657349 212.0
1221.970459 32.0
1222.102661 180.0
1222.227905 72.0
1222.91687 136.0
1223.111694 92.0
1223.271851 284.0
1224.163086 100.0
1224.539062 200.0
1224.671387 184.0
1225.096313 172.0
1225.493408 164.0
1225.660645 132.0
1226.406372 124.0
1227.131348 104.0
1227.215088 160.0
1229.733398 92.0
1230.459351 160.0
1231.709351 176.0
1231.786255 156.0
1232.275269 60.0
1232.743408 152.0
1233.30249 136.0
1233.484253 108.0
1233.617065 188.0
1234.148438 76.0
1235.155518 168.0
1235.393311 144.0
1236.309937 184.0
1237.513916 132.0
1237.723999 116.0
1238.088623 164.0
1239.811523 220.0
1239.944702 80.0
1240.932495 140.0
1241.157471 68.0
1241.501099 152.0
1242.104248 100.0
1242.819824 100.0
1243.289917 192.0
1243.577759 132.0
1244.792236 68.0
1245.059082 144.0
1246.535522 216.0
1246.646851 96.0
1246.942017 216.0
1247.356689 132.0
1247.623779 124.0
1248.326904 92.0
1248.903564 112.0
1250.092651 204.0
1250.514893 224.0
1250.831665 144.0
1251.014648 52.0
1251.507446 48.0
1251.690552 188.0
1252.098999 120.0
1252.542725 144.0
1252.634277 172.0
1252.935669 180.0
1253.127441 152.0
1253.190796 140.0
1253.390991 212.0
1253.536133 160.0
1255.552368 176.0
1255.735718 84.0
1256.949097 232.0
1257.400757 208.0
1257.570068 176.0
1258.918579 124.0
1259.264648 32.0
1259.462402 164.0
1259.787354 104.0
1259.915649 128.0
1260.713013 136.0
1261.144043 84.0
1261.858032 164.0
1261.999512 116.0
1262.437866 100.0
1262.671631 212.0
1262.874023 120.0
1263.152222 144.0
1263.824341 188.0
1264.439941 124.0
1264.659424 140.0
1264.865845 164.0
1265.303589 128.0
1266.422363 112.0
1266.925415 260.0
1267.20166 116.0
1267.251221 156.0
1268.044922 116.0
1268.806152 192.0
1269.065674 132.0
1269.247559 180.0
1269.562134 104.0
1270.072754 56.0
1270.143677 116.0
1270.924072 228.0
1271.335693 168.0
1271.655029 248.0
1273.082031 180.0
1274.765625 76.0
1275.014404 188.0
1275.405273 164.0
1275.824707 152.0
1276.599731 152.0
1277.225586 152.0
1277.424805 92.0
1277.986816 200.0
1278.876343 140.0
1278.94043 124.0
1279.488525 168.0
1279.858765 32.0
1280.113892 212.0
1280.656372 156.0
1281.204834 192.0
1281.318848 60.0
1281.418579 152.0
1281.603882 84.0
1282.637207 148.0
1282.943726 164.0
1283.74231 128.0
1284.391357 212.0
1284.55542 84.0
1284.626709 104.0
1285.026245 124.0
1286.010986 124.0
1286.510742 204.0
1286.696289 156.0
1286.76062 132.0
1287.081909 152.0
1287.738892 156.0
1287.967407 164.0
1288.267456 132.0
1288.881958 172.0
1289.232056 40.0
1289.582275 232.0
1289.853882 156.0
1290.146973 144.0
1290.239868 84.0
1291.541382 168.0
1291.820312 124.0
1291.999268 164.0
1292.228149 100.0
1292.292603 144.0
1293.573608 132.0
1294.898193 60.0
1295.435425 192.0
1295.521362 72.0
1295.97998 112.0
1296.194946 32.0
1296.624878 140.0
1296.847046 164.0
1297.32019 156.0
1298.367065 160.0
1298.517578 44.0
1299.148804 308.0
1299.249268 128.0
1299.851929 128.0
1300.239502 72.0
1300.318481 184.0
1300.426147 132.0
1300.634277 88.0
1300.790283 108.0
1300.849609 60.0
1300.921387 116.0
1301.380859 116.0
1301.854858 180.0
1301.94104 216.0
1302.953735 104.0
1303.01123 128.0
1303.62207 124.0
1305.138794 180.0
1305.224976 172.0
1305.814697 280.0
1306.404541 164.0
1306.634766 88.0
1306.742676 152.0
1306.944092 72.0
1308.081299 76.0
1308.1604 104.0
1308.84436 112.0
1309.182861 224.0
1309.586182 184.0
1309.694214 144.0
1310.288208 172.0
1310.846924 152.0
1311.286499 88.0
1311.473999 248.0
1312.122681 184.0
1312.230835 100.0
1312.548096 140.0
1312.649048 184.0
1312.865356 188.0
1313.442383 156.0
1313.795898 136.0
1314.019531 148.0
1314.567871 152.0
1316.069336 80.0
1316.437622 40.0
1317.116455 184.0
1317.253784 152.0
1317.304321 140.0
1317.41272 120.0
1317.802856 116.0
1317.940063 164.0
1318.330322 176.0
1318.77832 168.0
1318.973511 128.0
1319.2771 116.0
1319.47229 148.0
1319.96521 116.0
1320.614868 112.0
1321.200806 132.0
1321.309326 180.0
1321.859253 148.0
1322.069092 112.0
1323.133179 136.0
1323.444458 28.0
1323.849976 160.0
1324.936401 176.0
1325.682739 56.0
1326.190063 208.0
1326.545288 160.0
1326.806274 144.0
1327.060059 156.0
1328.27832 160.0
1328.749878 176.0
1328.916748 164.0
1329.519043 132.0
1330.070679 160.0
1330.259399 148.0
1330.324707 184.0
1330.709473 108.0
1331.517334 148.0
1331.929565 136.0
1333.490356 164.0
1333.97876 188.0
1334.124146 184.0
1334.175049 160.0
1335.389404 120.0
1335.53479 88.0
1335.665771 56.0
1336.451416 164.0
1336.706177 76.0
1336.946289 132.0
1337.157349 168.0
1337.639893 172.0
1338.416748 140.0
1338.897339 180.0
1339.305176 132.0
1339.370728 136.0
1339.756836 128.0
1339.832031 160.0
1339.938965 188.0
1340.784302 168.0
1340.86438 136.0
1341.097656 40.0
1341.501831 160.0
1342.388062 128.0
1342.905884 128.0
1343.204956 104.0
1343.394653 160.0
1343.649902 120.0
1343.877441 160.0
1343.941772 128.0
1344.233643 148.0
1344.802856 124.0
1345.145996 256.0
1345.42334 116.0
1345.759277 220.0
1346.14624 116.0
1346.365356 204.0
1346.467529 176.0
1346.708618 160.0
1347.738647 96.0
1348.1698 144.0
1348.228271 212.0
1348.805664 84.0
1349.617188 176.0
1349.69751 60.0
1349.814575 92.0
1350.377686 200.0
1350.428833 76.0
1351.079956 168.0
1351.723755 76.0
1351.855469 188.0
1352.053101 108.0
1352.250732 172.0
1353.590454 128.0
1354.40332 200.0
1354.549805 176.0
1355.055298 144.0
1355.524292 120.0
1355.700195 148.0
1356.213135 176.0
1356.557739 236.0
1356.71167 60.0
1357.25415 128.0
1357.488892 100.0
1357.811523 144.0
1358.016846 204.0
1358.163574 148.0
1358.244263 240.0
1358.552368 140.0
1359.300781 108.0
1360.276855 116.0
1360.36499 168.0
1360.504395 188.0
1360.944946 124.0
1361.19458 172.0
1361.591187 124.0
1362.075928 240.0
1362.281616 108.0
1362.347778 160.0
1362.754883 184.0
1362.817993 120.0
1362.979614 160.0
1363.65564 168.0
1363.942383 136.0
1364.045288 132.0
1364.287842 160.0
1365.03186 148.0
1365.236328 92.0
1365.630249 188.0
1366.136108 244.0
1366.817871 172.0
1367.112305 212.0
1367.261719 188.0
1367.575928 156.0
1367.649536 40.0
1368.164795 120.0
1368.415161 100.0
1368.555054 124.0
1368.672852 164.0
1368.74646 176.0
1369.969116 192.0
1370.101685 64.0
1370.801636 224.0
1370.890137 100.0
1371.41333 180.0
1371.988403 88.0
1372.408569 96.0
1372.681396 124.0
1373.145386 168.0
1373.241943 132.0
1373.567383 144.0
1373.957397 108.0
1374.370605 112.0
1374.776489 140.0
1375.160278 208.0
1375.337402 164.0
1378.542725 172.0
1379.105957 96.0
1379.607056 128.0
1380.398193 64.0
1380.575684 152.0
1380.989868 156.0
1381.115601 116.0
1381.640747 140.0
1381.921875 128.0
1381.973755 220.0
1382.543457 140.0
1382.624878 200.0
1382.913574 36.0
1383.498291 152.0
1383.713013 92.0
1384.009155 212.0
1384.223877 132.0
1384.92749 108.0
1385.147339 164.0
1385.208984 216.0
1385.268188 212.0
1385.712769 152.0
1386.009155 144.0
1386.060913 136.0
1386.283325 76.0
1386.824341 180.0
1387.076294 156.0
1387.150391 100.0
1387.29126 68.0
1387.377563 188.0
1387.39209 120.0
1388.092041 136.0
1388.150391 148.0
1388.23291 56.0
1388.559204 208.0
1388.670532 136.0
1388.996826 100.0
1389.078491 140.0
1389.516113 128.0
1389.581421 172.0
1390.145996 132.0
1390.171143 116.0
1390.362061 188.0
1390.451172 72.0
1390.577271 112.0
1390.79248 224.0
1390.851929 120.0
1391.193359 48.0
1391.63147 136.0
1391.827759 164.0
1391.891357 128.0
1391.943237 140.0
1392.02771 252.0
1392.203125 188.0
1392.678467 172.0
1392.960815 148.0
1393.072144 220.0
1393.139038 92.0
1393.250488 92.0
1393.406494 92.0
1393.5625 72.0
1395.286865 128.0
1395.442993 48.0
1396.409668 124.0
1396.664917 176.0
1397.733887 84.0
1398.050659 212.0
1398.403687 112.0
1398.619507 28.0
1398.679077 132.0
1399.624512 48.0
1399.92981 164.0
1400.078735 320.0
1400.250122 76.0
1400.324585 168.0
1400.526733 192.0
1400.704468 88.0
1400.786377 332.0
1401.076904 176.0
1401.769775 124.0
1402.090332 164.0
1402.187134 76.0
1402.276611 80.0
1402.425659 152.0
1402.835693 140.0
1403.476807 112.0
1403.730347 96.0
1403.916748 128.0
1404.595459 176.0
1404.87146 108.0
1405.102783 100.0
1405.38623 88.0
1406.050415 124.0
1406.177368 80.0
1406.617676 132.0
1406.748291 160.0
1407.20752 124.0
1407.483765 76.0
1407.879517 144.0
1407.939209 216.0
1408.028931 32.0
1408.115845 64.0
1408.584717 200.0
1408.65625 196.0
1409.481201 128.0
1409.59021 28.0
1409.739624 80.0
1409.904053 164.0
1410.105835 132.0
1410.262817 204.0
1410.584229 104.0
1410.838379 48.0
1411.279541 104.0
1411.847778 132.0
1412.408813 132.0
1412.65564 192.0
1412.715454 120.0
1413.111938 64.0
1413.261597 108.0
1414.336304 224.0
1414.59375 40.0
1415.072876 76.0
1415.185181 216.0
1415.287109 196.0
1416.023926 80.0
1416.11377 76.0
1416.510864 116.0
1416.675659 160.0
1416.862915 128.0
1416.97522 128.0
1417.432373 120.0
1417.535156 144.0
1417.634644 112.0
1417.732056 204.0
1417.859497 68.0
1417.949463 152.0
1418.226685 128.0
1418.833984 176.0
1419.075317 148.0
1419.246338 148.0
1419.808716 124.0
1420.17627 196.0
1420.408691 212.0
1420.98645 160.0
1421.03894 80.0
1421.407227 188.0
1422.449829 152.0
1422.877686 152.0
1423.177979 156.0
1423.565674 168.0
1423.997314 228.0
1424.304565 152.0
1424.484863 148.0
1424.619995 56.0
1424.69519 212.0
1425.210815 208.0
1425.371338 144.0
1425.472412 136.0
1425.566772 120.0
1425.634399 160.0
1425.799683 156.0
1426.34082 192.0
1426.408569 168.0
1426.491211 32.0
1426.601685 172.0
1426.761841 164.0
1427.167847 68.0
1427.28064 140.0
1427.516602 148.0
1428.356079 260.0
1429.296509 140.0
1429.522217 136.0
1429.60498 44.0
1430.041504 148.0
1430.154419 160.0
1430.297485 48.0
1430.44043 136.0
1430.628662 200.0
1431.246094 208.0
1431.502075 152.0
1431.684326 140.0
1431.856079 48.0
1432.345581 40.0
1432.699707 60.0
1433.060303 176.0
1433.437988 152.0
1433.513428 136.0
1434.199219 132.0
1434.704346 176.0
1434.75708 180.0
1434.953125 128.0
1435.292358 92.0
1435.511108 208.0
1436.242676 160.0
1436.484009 72.0
1436.680176 160.0
1436.80835 168.0
1436.868774 88.0
1437.29126 80.0
1437.502563 252.0
1437.789307 100.0
1437.887451 144.0
1438.257324 96.0
1438.415771 108.0
1439.729614 68.0
1440.197876 140.0
1440.250732 188.0
1440.41687 164.0
1440.960815 176.0
1441.489746 196.0
1441.731567 172.0
1441.791992 204.0
1442.29834 164.0
1442.819946 68.0
1443.039185 196.0
1443.122437 164.0
1443.583618 144.0
1443.939087 128.0
1444.990601 196.0
1445.130737 184.0
1445.187256 128.0
1445.248291 140.0
1445.709351 164.0
1445.981812 204.0
1446.140747 116.0
1446.246704 184.0
1446.88269 76.0
1447.564087 180.0
1447.731201 160.0
1447.867065 88.0
1448.260864 96.0
1448.62439 248.0
1449.291138 80.0
1449.397217 196.0
1449.566772 120.0
1450.056519 136.0
1450.329346 148.0
1450.496094 208.0
1450.648193 136.0
1451.186035 100.0
1451.694092 128.0
1451.762329 168.0
1452.073242 156.0
1452.323608 160.0
1452.520752 36.0
1452.983521 104.0
1453.150391 56.0
1453.279419 192.0
1453.711914 172.0
1454.023071 148.0
1454.252197 164.0
1454.380859 148.0
1454.584717 180.0
1454.979492 148.0
1455.237671 140.0
1455.328735 168.0
1455.640137 152.0
1455.898315 52.0
1456.445068 192.0
1456.589478 184.0
1456.77417 176.0
1457.010986 156.0
1457.189575 200.0
1457.447998 136.0
1457.615112 164.0
1457.761597 200.0
1458.048218 168.0
1458.321899 152.0
1458.547607 176.0
1458.686768 148.0
1458.907227 128.0
1459.028809 128.0
1459.112427 52.0
1459.22644 152.0
1459.325317 136.0
1459.538208 68.0
1459.637085 192.0
1459.857666 120.0
1459.914062 168.0
1460.184692 104.0
1460.564941 224.0
1460.755127 144.0
1460.884399 120.0
1461.082275 168.0
1461.242432 180.0
1461.614868 120.0
1461.698486 184.0
1461.942017 88.0
1462.101807 116.0
1462.276855 156.0
1462.374146 144.0
1462.57373 128.0
1462.860962 120.0
1462.961914 124.0
1463.08374 84.0
1463.342651 212.0
1463.472046 176.0
1463.868042 120.0
1463.997437 160.0
1464.307373 152.0
1464.726074 140.0
1465.261963 200.0
1465.452393 204.0
1465.597168 124.0
1465.650513 80.0
1465.764771 124.0
1465.88269 120.0
1465.940063 140.0
1466.206787 88.0
1466.603149 192.0
1467.997925 172.0
1468.196533 120.0
1468.333862 92.0
1468.516846 160.0
1468.707642 196.0
1469.142334 196.0
1469.200562 168.0
1469.409424 208.0
1470.180054 144.0
1470.292969 188.0
1470.439575 140.0
1470.958618 200.0
1471.409058 112.0
1471.470093 68.0
1471.834961 204.0
1471.966431 132.0
1472.065674 132.0
1472.630859 96.0
1472.76062 188.0
1473.142578 144.0
1473.383789 168.0
1473.633057 216.0
1473.8302 56.0
1474.166382 152.0
1475.068237 136.0
1475.144775 160.0
1475.366455 224.0
1475.427612 144.0
1475.878662 120.0
1476.054565 168.0
1476.138672 32.0
1476.487671 152.0
1476.589844 112.0
1476.696899 192.0
1477.125244 112.0
1477.262939 220.0
1477.56897 196.0
1477.91333 128.0
1478.158203 116.0
1478.627686 284.0
1478.804565 152.0
1479.0 36.0
1479.298584 28.0
1479.558838 136.0
1479.658325 184.0
1479.742554 32.0
1480.49292 112.0
1480.623169 196.0
1480.868286 312.0
1481.075073 180.0
1481.144043 212.0
1481.32019 164.0
1481.641968 140.0
1481.726196 144.0
1481.96167 236.0
1482.510864 184.0
1482.661011 208.0
1482.791382 116.0
1482.929321 80.0
1483.266602 116.0
1483.366211 140.0
1483.488892 248.0
1483.841553 196.0
1483.910522 128.0
1484.056152 136.0
1484.953369 60.0
1485.160522 124.0
1485.229492 52.0
1485.336914 160.0
1485.444336 124.0
1485.643799 128.0
1485.751221 236.0
1486.83313 92.0
1487.086304 72.0
1487.408691 360.0
1487.493164 200.0
1487.623657 64.0
1488.038208 148.0
1488.122681 76.0
1488.253174 92.0
1488.337646 140.0
1488.414429 88.0
1488.480347 116.0
1488.567993 188.0
1488.852173 160.0
1488.910889 228.0
1489.09021 120.0
1489.206299 176.0
1489.249756 68.0
1489.271362 160.0
1489.397461 96.0
1489.479248 100.0
1489.538696 200.0
1489.63562 188.0
1489.689453 44.0
1489.850708 156.0
1490.089722 188.0
1490.419312 208.0
1490.64209 208.0
1490.872681 120.0
1491.182495 112.0
1491.368896 192.0
1491.533691 152.0
1491.848755 116.0
1491.994873 144.0
1492.094849 188.0
1492.23938 144.0
1492.402344 236.0
1492.845825 172.0
1492.925293 224.0
1493.040649 164.0
1493.494385 184.0
1494.271362 116.0
1494.494507 156.0
1494.702271 112.0
1494.786865 120.0
1495.16394 84.0
1495.330933 200.0
1495.529541 112.0
1495.733521 164.0
1496.01062 140.0
1496.079956 160.0
1496.141479 148.0
1496.218506 84.0
1496.460083 140.0
1497.080933 92.0
1497.188721 180.0
1497.31189 88.0
1497.412109 64.0
1497.53772 204.0
1497.735596 100.0
1497.828003 152.0
1498.151489 176.0
1498.205444 140.0
1498.436523 72.0
1498.583008 124.0
1498.715576 136.0
1498.791016 164.0
1499.145508 112.0
1499.261108 104.0
1499.39978 136.0
1499.549438 212.0
1499.916138 100.0
1500.409546 156.0
1500.767212 152.0
1500.848999 276.0
1500.995605 108.0
1501.879761 240.0
1502.02124 136.0
1502.383911 144.0
1502.91626 192.0
1503.039673 184.0
1503.209473 136.0
1503.356079 128.0
1503.490601 168.0
1503.89624 72.0
1503.996582 164.0
1504.13562 164.0
1504.784058 128.0
1505.054321 176.0
