>compound diphenylcyclopropenone
>formula C15H10O
>ionization [M+H]+
>parentmass 207.080811
#inchi InChI=1S/C15H10O/c16-15-13(11-7-3-1-4-8-11)14(15)12-9-5-2-6-10-12/h1-10H
#inchikey HCIBTBXNLVOFER
#Ion_Source LC-ESI
#Instrument qTof
#Compound_Source Commercial
#PI Dorrestein
#Data_Collector Garg_Neha
#Scan -1
#Precursor_MZ 207.08
#ExactMass 206.073
#Charge 1
#CAS_Number N/A
#Pubmed_ID N/A
#Smiles O=c1c(c1c2ccccc2)c3ccccc3
#INCHI_AUX N/A
#Library_Class 1
#SpectrumID CCMSLIB00000079170
#IonMode Positive
#UpdateWorkflowName UPDATE-SINGLE-ANNOTATED-GOLD
#LibraryQualityString Gold
#TaskID 278b19f5865741e282cec7349aa7e7a1
##Scan# 1345
#SpectrumFile NCP003592_C2_D11_BE1_01_15735.mzXML
#LibraryName NIHcollectionI_05062014.mgf
#MQScore -1
#Organism NIHcollectionI_05062014
#TIC_Query 0
#RT_Query -1
#MZErrorPPM -1
#SharedPeaks 0
#MassDiff 0
#LibMZ -1
#SpecMZ 207.08
#SpecCharge 0
#internalFilename spec-00000.mgf

>collision 10
50.504005 164.0
51.379059 148.0
54.072716 152.0
55.658966 168.0
56.505562 148.0
62.627995 140.0
63.074535 148.0
63.313442 196.0
68.076401 160.0
68.699623 228.0
69.042107 156.0
69.633766 184.0
71.381836 180.0
72.247086 148.0
76.484306 176.0
77.147171 156.0
78.838051 220.0
84.068108 144.0
84.537758 156.0
86.592331 212.0
88.016823 148.0
91.005074 156.0
91.945435 144.0
93.155533 160.0
93.472763 180.0
95.638382 164.0
95.704575 140.0
100.424622 208.0
104.449188 176.0
104.948135 168.0
109.024055 212.0
110.986267 176.0
111.454338 192.0
111.506874 220.0
113.962402 212.0
115.854797 152.0
117.914009 140.0
118.024261 168.0
125.260773 172.0
125.619659 184.0
125.970131 168.0
126.332268 152.0
128.062912 148.0
128.497971 140.0
129.03775 140.0
131.212753 160.0
138.537003 200.0
139.052856 140.0
141.265381 168.0
142.540909 172.0
142.690659 140.0
143.554977 200.0
145.469025 168.0
147.504517 164.0
147.685867 144.0
147.862488 156.0
150.044632 180.0
150.952057 160.0
151.054245 796.0
151.58606 148.0
152.06134 704.0
152.816223 156.0
153.061295 184.0
154.043945 188.0
155.055923 188.0
156.551468 196.0
160.939743 160.0
160.982666 188.0
161.538696 228.0
162.156509 160.0
164.249069 260.0
165.990723 140.0
166.177963 204.0
166.77887 148.0
167.937515 148.0
168.06134 216.0
169.065491 176.0
170.24086 148.0
171.71907 180.0
171.802536 184.0
172.541611 144.0
172.818832 140.0
173.041306 160.0
176.062195 1612.0
177.069626 2648.0
177.432434 200.0
177.709061 172.0
177.775391 176.0
177.878906 140.0
177.985092 196.0
178.027588 216.0
178.078476 35488.0
178.36087 144.0
178.724945 104.0
179.083725 6764.0
179.268021 136.0
180.086136 1128.0
180.306641 124.0
180.393997 120.0
180.428299 168.0
183.874603 144.0
184.033859 164.0
194.103973 152.0
197.065536 208.0
200.331116 172.0
205.074554 264.0
206.599365 144.0
206.752289 184.0
206.905579 148.0
207.008652 204.0
207.041245 332.0
207.080811 48736.0
207.171555 144.0
207.335693 224.0
207.582321 104.0
207.664932 144.0
207.705093 180.0
208.083023 5536.0
209.087479 680.0
209.559311 104.0
209.598373 108.0
209.736328 132.0
219.101349 140.0
228.037582 220.0
236.053375 168.0
267.033569 412.0
268.023041 172.0
269.042053 128.0
1194.509644 172.0
1318.36145 144.0
1512.358398 164.0
1670.013794 160.0
1797.44043 176.0
1807.978149 148.0
1838.401733 172.0
1894.314941 160.0
1965.633545 236.0
2003.323486 176.0
