>compound MLS001140319-01!
>formula C30H34N4O4
>ionization [M+H]+
>parentmass 515.266
#inchi InChI=1S/C30H34N4O4/c1-3-17(2)25(29(36)31-16-18-9-8-14-38-18)33-28(35)24-15-22-19-10-6-7-13-23(19)32-26(22)27-20-11-4-5-12-21(20)30(37)34(24)27/h4-7,10-13,17-18,24-25,27,32H,3,8-9,14-16H2,1-2H3,(H,31,36)(H,33,35)/t17?,18?,24-,25-,27?/m0/s1
#inchikey LZHWTBSLFVCYEU
#Ion_Source LC-ESI
#Instrument qTof
#Compound_Source NIH Natural Product Library
#PI Dorrestein
#Data_Collector VVP/LMS
#Scan -1
#Precursor_MZ 515.266
#ExactMass 514.258
#Charge 1
#CAS_Number N/A
#Pubmed_ID N/A
#Smiles CCC(C)[C@H](NC(=O)[C@@H]1Cc2c([nH]c3ccccc23)C4N1C(=O)c5ccccc45)C(=O)NCC6CCCO6
#INCHI_AUX N/A
#Library_Class 1
#SpectrumID CCMSLIB00000080403
#IonMode Positive
#UpdateWorkflowName UPDATE-SINGLE-ANNOTATED-GOLD
#LibraryQualityString Gold
#TaskID b1d8e8f6646f4e71acdff9ca3d919d08
##Scan# 2140
#SpectrumFile p2-D08_GD8_01_18020.mzXML
#LibraryName NIH_Natural_Products_Library.mgf
#MQScore -1
#Organism NIH_Natural_Products_Library
#TIC_Query 0
#RT_Query -1
#MZErrorPPM -1
#SharedPeaks 0
#MassDiff 0
#LibMZ -1
#SpecMZ 515.266
#SpecCharge 0
#internalFilename spec-00000.mgf

>collision 10
94.958313 228.0
95.231979 136.0
95.343964 212.0
95.593582 244.0
96.260254 160.0
96.307121 156.0
96.355957 208.0
96.606194 44.0
97.476707 96.0
97.632004 180.0
98.197227 120.0
98.276138 96.0
98.722549 124.0
98.874878 132.0
99.019402 156.0
99.094681 128.0
99.229446 208.0
99.344475 156.0
99.35836 96.0
99.572739 112.0
99.835068 204.0
100.430557 88.0
100.606155 56.0
100.839859 136.0
101.007812 148.0
101.713142 128.0
102.092369 3160.0
102.135101 152.0
102.207527 208.0
102.57608 224.0
102.642609 220.0
102.921066 28.0
102.945297 40.0
103.098824 152.0
103.147331 132.0
103.620819 140.0
103.679634 148.0
103.744499 84.0
103.888481 76.0
104.121902 28.0
104.48719 156.0
104.799889 216.0
105.141861 208.0
105.188805 240.0
105.248009 160.0
105.812309 116.0
106.259094 160.0
106.764397 100.0
106.922806 76.0
107.108109 68.0
107.169914 132.0
107.45237 180.0
107.549362 156.0
107.743469 140.0
108.045303 116.0
108.366203 232.0
108.567268 132.0
108.670982 196.0
108.843254 304.0
109.396286 148.0
110.048828 136.0
110.439613 116.0
110.552582 156.0
110.724251 160.0
110.753571 160.0
111.332428 148.0
111.714958 128.0
111.849632 160.0
112.606575 172.0
113.01033 152.0
113.095665 196.0
113.558983 192.0
113.93895 180.0
114.015442 104.0
114.155746 120.0
114.2855 68.0
114.926834 116.0
114.958839 160.0
115.020737 100.0
115.050621 132.0
115.311218 144.0
115.620323 120.0
116.487541 208.0
116.569183 44.0
116.986435 176.0
117.520912 152.0
117.887993 112.0
117.909599 40.0
118.147453 132.0
118.318413 128.0
118.968781 200.0
119.344635 140.0
119.82782 132.0
119.899727 32.0
120.063232 120.0
120.696503 140.0
120.893372 176.0
120.991867 128.0
121.083832 124.0
121.195557 112.0
122.082367 224.0
122.31118 120.0
122.663612 184.0
122.701088 84.0
123.252869 248.0
123.885628 200.0
125.149727 176.0
125.592789 208.0
125.842728 76.0
126.417183 36.0
126.759796 164.0
126.921188 144.0
127.026596 148.0
127.217339 172.0
127.286934 156.0
127.592506 188.0
127.783669 104.0
127.828667 216.0
128.031265 196.0
128.542999 204.0
128.689713 196.0
128.8591 136.0
129.034805 236.0
129.558167 68.0
129.657867 144.0
129.873245 108.0
129.88913 136.0
130.013092 220.0
130.027588 608.0
130.041779 216.0
130.066116 180.0
130.088821 148.0
130.111511 176.0
130.131943 56.0
130.631927 148.0
130.82991 120.0
131.283325 176.0
131.774078 136.0
131.812912 208.0
131.972916 132.0
132.04538 300.0
132.167328 196.0
132.24057 164.0
132.467255 140.0
132.645981 184.0
132.767502 104.0
132.790436 148.0
132.856949 124.0
132.957916 108.0
133.042664 152.0
133.217361 172.0
134.059464 192.0
134.140137 160.0
134.211594 184.0
134.44458 136.0
134.474579 156.0
134.490738 200.0
134.830246 132.0
135.225723 156.0
135.255814 128.0
135.49202 160.0
135.596283 352.0
135.774796 112.0
135.930222 196.0
135.992889 120.0
136.041626 164.0
136.153076 112.0
136.434235 108.0
136.666809 128.0
136.818085 196.0
136.93219 144.0
137.14653 36.0
137.580414 160.0
138.096817 208.0
138.479401 104.0
139.292221 148.0
139.531921 88.0
139.621262 100.0
140.056686 148.0
140.080231 152.0
140.334763 116.0
140.790176 48.0
141.021698 140.0
141.099701 180.0
141.29364 136.0
141.412323 176.0
141.712692 96.0
141.90448 256.0
142.006638 152.0
142.074799 136.0
142.201187 136.0
142.707169 152.0
143.164032 156.0
143.478546 120.0
143.73613 136.0
144.079941 104.0
144.142059 116.0
144.316544 100.0
144.472 152.0
145.001175 188.0
145.377686 156.0
145.572128 128.0
145.939774 140.0
146.060013 184.0
146.132187 136.0
146.209183 184.0
146.541489 92.0
146.968246 180.0
147.187897 108.0
147.562393 176.0
147.995483 184.0
148.08992 152.0
148.150482 172.0
148.240128 176.0
148.259521 200.0
148.291016 152.0
148.662079 164.0
149.055466 88.0
149.39827 104.0
149.636765 184.0
149.736603 116.0
149.865707 168.0
150.221649 260.0
150.253372 140.0
150.536499 160.0
150.802795 148.0
151.759949 156.0
152.046951 152.0
152.137772 68.0
152.208969 228.0
152.579971 164.0
152.814056 132.0
153.18782 72.0
153.335648 116.0
153.458908 264.0
153.732697 140.0
153.878326 124.0
154.177216 144.0
154.360138 224.0
154.389816 160.0
154.736221 176.0
155.318588 180.0
155.375641 112.0
155.589066 68.0
155.864761 184.0
155.941788 160.0
156.026306 116.0
156.220276 88.0
156.37207 100.0
156.815384 96.0
157.576477 164.0
158.029007 92.0
158.086563 192.0
158.434586 128.0
158.805573 76.0
158.845703 108.0
158.880829 168.0
158.968643 112.0
159.770142 112.0
160.082245 140.0
160.251007 180.0
160.596375 132.0
160.672043 80.0
160.719986 192.0
161.053223 204.0
161.715652 188.0
161.796661 168.0
162.295776 132.0
162.643326 108.0
162.719482 204.0
162.937897 144.0
163.05986 160.0
163.136108 140.0
163.866516 128.0
164.299911 112.0
164.698135 160.0
164.802872 52.0
164.884644 68.0
164.925537 120.0
165.123383 260.0
165.188904 144.0
165.229843 116.0
165.437134 176.0
166.105957 144.0
166.675888 152.0
167.068192 168.0
167.151596 44.0
167.197922 56.0
167.236526 136.0
167.396133 136.0
167.560974 100.0
167.76973 184.0
167.92186 164.0
168.012146 56.0
168.252151 160.0
168.409668 168.0
168.546585 168.0
168.704239 156.0
168.755936 124.0
168.792145 128.0
169.151749 112.0
169.203522 176.0
169.514343 40.0
169.669861 136.0
169.778763 104.0
169.866943 176.0
169.939575 180.0
170.058334 464.0
170.256271 180.0
170.373154 100.0
171.012817 140.0
171.063599 144.0
171.314865 128.0
171.398239 48.0
171.416473 108.0
171.638046 176.0
171.677155 96.0
172.996613 128.0
173.124908 200.0
173.389496 200.0
173.554642 100.0
173.685776 108.0
173.782837 172.0
173.942917 48.0
174.071564 136.0
174.58136 152.0
174.707611 112.0
174.891815 180.0
175.023438 164.0
175.086639 140.0
175.223618 160.0
175.342194 48.0
175.576828 100.0
175.648041 120.0
175.737732 124.0
175.92511 52.0
176.078247 32.0
176.265808 52.0
176.453476 96.0
176.74176 180.0
177.266052 120.0
177.666412 176.0
177.857468 160.0
177.891983 192.0
178.189407 124.0
178.431259 196.0
178.524323 184.0
178.604111 176.0
178.835602 116.0
178.883514 120.0
178.976685 128.0
179.053909 236.0
179.176437 196.0
179.267029 228.0
179.493607 156.0
179.872452 176.0
180.046005 120.0
180.224976 52.0
180.297119 180.0
180.473541 60.0
180.700882 172.0
180.778488 164.0
180.987274 124.0
181.172073 80.0
181.231003 116.0
181.598267 168.0
181.635818 168.0
181.764587 136.0
182.035706 176.0
182.186111 192.0
182.447403 176.0
183.159897 168.0
183.715195 136.0
183.811874 200.0
183.844696 52.0
183.993149 148.0
184.563232 120.0
185.009644 124.0
185.064728 280.0
185.31839 112.0
185.388458 144.0
185.779266 176.0
186.732666 152.0
186.800674 112.0
186.860519 148.0
187.328766 144.0
187.587631 140.0
187.841232 96.0
188.160522 176.0
188.250626 72.0
188.597595 108.0
188.824524 196.0
189.191177 188.0
189.895386 172.0
190.024307 168.0
190.296021 124.0
190.661362 128.0
190.947281 204.0
191.302216 236.0
191.563828 104.0
191.850418 172.0
192.128952 176.0
192.159302 212.0
192.791611 152.0
192.882828 184.0
192.924286 240.0
193.14827 148.0
193.488647 156.0
193.726807 120.0
194.936493 100.0
195.150528 152.0
195.197784 104.0
195.261749 176.0
195.353943 168.0
195.54274 184.0
195.626251 136.0
196.041245 156.0
196.49295 152.0
196.671539 148.0
196.959137 144.0
197.179855 200.0
197.336395 276.0
197.700027 104.0
197.859573 168.0
199.023102 244.0
199.75943 140.0
200.105179 84.0
200.13179 192.0
200.609848 44.0
201.140167 108.0
201.230499 160.0
201.419708 136.0
201.521408 192.0
201.651398 144.0
201.774399 164.0
201.911499 136.0
202.177429 196.0
202.2397 172.0
202.367081 128.0
202.565323 48.0
202.92807 160.0
203.101044 124.0
203.174805 116.0
203.623291 132.0
203.728378 164.0
204.166092 92.0
204.772278 156.0
205.253098 188.0
205.261856 136.0
205.359406 184.0
205.476364 180.0
206.118774 192.0
206.376022 112.0
207.604446 132.0
207.897049 128.0
208.195602 92.0
208.224319 196.0
208.635223 168.0
208.675461 172.0
208.787613 128.0
209.032135 76.0
209.541763 208.0
210.054901 152.0
210.13916 136.0
210.23378 236.0
210.292389 200.0
210.872025 108.0
210.895142 208.0
210.952957 124.0
211.152466 136.0
211.299988 172.0
211.447556 88.0
211.543076 140.0
211.936951 120.0
212.23259 152.0
212.287689 132.0
212.441406 180.0
212.66774 172.0
212.690964 96.0
212.990036 124.0
213.056839 148.0
213.280594 116.0
213.417221 164.0
213.472473 152.0
213.923447 176.0
214.200073 216.0
214.59642 64.0
214.616821 172.0
215.121536 188.0
215.15657 176.0
215.293808 128.0
215.597626 236.0
216.047897 64.0
216.080078 144.0
216.249802 208.0
216.372742 88.0
216.422516 168.0
216.926422 172.0
217.012436 152.0
217.096466 208.0
217.22403 152.0
217.580612 140.0
217.618774 68.0
218.096924 136.0
218.447525 164.0
219.104004 144.0
219.785065 228.0
219.82637 96.0
219.906052 164.0
220.270798 136.0
220.564713 156.0
221.316147 96.0
222.116302 152.0
222.205292 144.0
222.297272 188.0
222.525833 200.0
222.653503 208.0
222.852524 184.0
223.0784 104.0
223.658432 136.0
223.747742 56.0
224.385284 136.0
224.665619 168.0
224.722305 168.0
225.03569 68.0
225.450897 200.0
225.758804 100.0
225.90535 92.0
225.959213 228.0
226.072906 192.0
226.108826 176.0
226.168686 200.0
226.848633 184.0
227.044983 172.0
227.121506 336.0
227.313507 260.0
227.388535 172.0
227.754837 192.0
227.841949 188.0
227.959122 116.0
228.088364 176.0
228.24469 124.0
228.6492 188.0
228.759155 140.0
228.870544 188.0
228.96991 132.0
229.066299 156.0
229.102448 128.0
229.436951 128.0
229.500275 88.0
229.653656 148.0
230.095139 480.0
230.321121 96.0
230.411743 204.0
230.599091 36.0
230.762329 180.0
231.101624 464.0
231.264481 100.0
232.067245 136.0
232.103638 144.0
232.482803 140.0
232.704391 68.0
233.01506 152.0
233.92041 200.0
234.133545 164.0
234.154861 220.0
234.435135 112.0
235.078568 204.0
235.436737 160.0
235.65567 196.0
236.007156 156.0
236.352798 96.0
236.398697 132.0
236.576218 128.0
236.64357 108.0
236.772171 180.0
236.946762 152.0
237.109161 140.0
237.546082 56.0
238.444183 132.0
238.730087 172.0
238.942322 184.0
239.031555 72.0
239.099243 72.0
239.841507 136.0
240.220779 152.0
240.523178 144.0
240.645279 160.0
241.125458 332.0
241.292374 112.0
241.96373 204.0
242.45932 36.0
242.92131 84.0
243.026794 236.0
243.087555 180.0
243.118881 204.0
243.16954 48.0
243.936737 88.0
244.089874 296.0
244.157486 104.0
244.599289 124.0
244.702026 132.0
244.729645 156.0
244.802368 140.0
244.994766 176.0
245.108612 2732.0
245.189651 88.0
245.231583 188.0
245.265869 100.0
245.29393 44.0
245.319901 60.0
245.671249 160.0
246.002029 32.0
246.042603 176.0
246.097931 1504.0
246.164383 56.0
246.417374 84.0
246.47049 240.0
246.49057 104.0
246.733032 176.0
246.964432 156.0
247.094131 508.0
247.386856 160.0
247.477646 132.0
248.163803 60.0
248.223389 48.0
248.568436 156.0
248.615494 80.0
248.828934 64.0
248.932556 192.0
249.620728 88.0
249.924149 168.0
250.382278 60.0
250.53389 152.0
250.64209 160.0
250.70047 192.0
250.78653 168.0
250.839142 148.0
251.129227 160.0
251.413162 100.0
251.435257 64.0
251.533096 148.0
251.896225 172.0
252.076309 164.0
252.253311 96.0
252.348145 36.0
252.474625 132.0
252.555374 180.0
252.746674 256.0
252.952377 192.0
253.138031 184.0
253.208847 136.0
254.004395 164.0
254.470886 144.0
254.782135 232.0
255.093826 1292.0
255.160156 176.0
255.185745 240.0
255.370193 156.0
255.465607 100.0
255.723343 144.0
255.974838 172.0
256.096924 2032.0
256.216919 44.0
256.309296 200.0
256.392151 108.0
256.414459 184.0
256.526031 64.0
256.982056 100.0
257.106903 1780.0
257.385468 164.0
257.805878 188.0
257.994476 192.0
258.081512 180.0
258.093262 192.0
258.108765 508.0
258.173523 116.0
258.44696 68.0
258.535004 180.0
258.675842 152.0
258.842316 104.0
258.896759 156.0
258.992828 176.0
259.095764 252.0
259.116669 92.0
260.079987 476.0
260.567902 220.0
260.60965 52.0
260.979279 164.0
261.365265 60.0
261.47522 144.0
262.168549 224.0
262.20575 192.0
262.260529 268.0
262.318542 172.0
262.424927 136.0
262.579712 124.0
262.640991 140.0
262.673248 176.0
262.841003 40.0
263.557831 172.0
264.062134 172.0
264.152679 156.0
264.524811 112.0
265.007355 196.0
265.240692 188.0
265.344421 56.0
265.921814 152.0
266.00946 172.0
266.301697 128.0
266.389374 128.0
266.811859 80.0
266.954895 144.0
266.984161 144.0
267.127289 176.0
267.618713 164.0
267.735931 136.0
267.885742 156.0
268.018402 140.0
268.270264 44.0
268.416992 92.0
268.55069 128.0
268.707275 96.0
268.733368 100.0
268.814941 60.0
268.880219 164.0
269.056488 200.0
269.085876 136.0
269.193604 188.0
269.239319 208.0
269.788269 136.0
270.262482 100.0
270.455566 172.0
270.491577 80.0
270.589783 64.0
270.632324 128.0
270.748505 208.0
270.835358 96.0
270.897614 140.0
270.955933 104.0
271.087952 6544.0
271.153168 132.0
271.254791 48.0
271.353119 60.0
271.382629 28.0
271.540497 200.0
271.618469 132.0
271.865387 164.0
271.904816 192.0
271.95166 112.0
272.035492 88.0
272.093536 1916.0
272.136566 240.0
272.186523 220.0
272.220032 132.0
272.304749 56.0
272.331024 60.0
272.373718 56.0
272.429565 148.0
272.467743 228.0
272.49527 196.0
272.56427 156.0
272.585632 116.0
272.640686 204.0
272.664948 144.0
272.733582 108.0
272.746674 56.0
272.758728 80.0
272.784454 116.0
272.81076 116.0
272.860077 172.0
272.902802 148.0
272.962006 256.0
272.988342 248.0
273.03717 472.0
273.047974 244.0
273.104126 102424.0
273.183441 180.0
273.204529 156.0
273.238525 112.0
273.273438 224.0
273.310028 116.0
273.336975 48.0
273.371918 284.0
273.385468 76.0
273.395813 100.0
273.451599 72.0
273.464294 60.0
273.541931 276.0
273.573853 148.0
273.644562 520.0
273.694153 276.0
273.755768 120.0
273.817749 144.0
273.867004 68.0
273.913605 176.0
273.939697 296.0
274.002075 252.0
274.047363 140.0
274.106628 17812.0
274.211029 68.0
274.241791 64.0
274.289581 48.0
274.344818 64.0
274.393738 176.0
274.453491 184.0
274.499756 72.0
274.522858 72.0
274.548553 96.0
274.578491 128.0
274.611877 76.0
274.673798 104.0
274.710144 56.0
274.74054 56.0
274.82962 68.0
274.881653 88.0
274.933502 116.0
275.047424 64.0
275.109253 2304.0
275.209564 72.0
275.287811 108.0
275.328064 48.0
275.419281 104.0
275.522614 236.0
275.569183 108.0
275.62207 144.0
275.676178 64.0
275.7146 40.0
275.746277 88.0
275.806427 96.0
275.853394 84.0
275.883789 84.0
275.922821 80.0
275.950623 156.0
276.033051 48.0
276.065399 164.0
276.116974 340.0
276.178131 144.0
276.220459 104.0
276.310822 136.0
276.399109 112.0
276.44873 60.0
276.505005 72.0
276.561249 64.0
276.587738 100.0
276.753265 84.0
276.791351 144.0
276.900452 160.0
276.968506 112.0
276.995026 96.0
277.024841 68.0
277.054657 136.0
277.179352 156.0
277.319733 60.0
277.419586 64.0
277.601532 40.0
277.757416 64.0
277.800537 68.0
277.846985 104.0
277.963104 64.0
278.02948 52.0
278.221985 92.0
278.892975 56.0
280.36734 108.0
280.547333 64.0
281.141052 80.0
281.631805 132.0
282.112976 52.0
282.935944 64.0
283.071045 176.0
283.093323 176.0
284.108154 56.0
284.985138 48.0
285.035522 148.0
285.378387 76.0
285.442261 108.0
285.701233 92.0
286.105072 152.0
286.738312 80.0
287.193481 68.0
287.605103 60.0
287.750275 80.0
287.81781 60.0
288.314362 32.0
288.425903 88.0
288.81134 28.0
288.922974 136.0
289.210602 60.0
289.5401 76.0
289.691437 48.0
289.871002 84.0
289.92392 124.0
290.030273 68.0
290.864716 44.0
290.905426 108.0
291.000488 68.0
295.851837 176.0
296.554047 68.0
296.595184 196.0
299.084473 200.0
299.967224 116.0
300.077545 144.0
300.398254 136.0
300.864136 212.0
300.991882 132.0
301.098663 1580.0
301.21637 148.0
301.589539 64.0
301.675934 108.0
302.105743 792.0
302.416168 80.0
303.099823 260.0
303.594086 68.0
304.111023 152.0
304.263763 80.0
305.055817 148.0
305.542664 44.0
313.346466 44.0
317.414673 116.0
318.110046 108.0
320.781494 68.0
321.262909 80.0
324.980072 40.0
328.57785 36.0
329.104797 164.0
329.520142 196.0
330.120148 160.0
332.024994 96.0
334.725037 68.0
335.329742 132.0
336.507996 112.0
337.103363 188.0
340.007385 60.0
341.162506 532.0
344.935455 64.0
345.090729 104.0
347.520386 148.0
348.058563 76.0
352.080292 112.0
353.631805 56.0
358.020599 124.0
358.193848 104.0
360.193024 172.0
365.671875 96.0
368.181946 308.0
368.688538 64.0
369.162567 128.0
369.686646 132.0
370.046448 80.0
370.20343 80.0
372.190277 140.0
373.042633 88.0
379.885406 76.0
382.165894 116.0
383.010651 104.0
384.308807 96.0
384.913818 292.0
386.187225 2920.0
386.265106 164.0
386.778625 136.0
387.095764 64.0
387.190582 664.0
387.342499 28.0
387.608887 80.0
388.191223 452.0
390.364502 36.0
390.706665 52.0
390.836517 60.0
396.404083 52.0
398.141602 72.0
399.528809 132.0
405.153717 92.0
412.081604 120.0
415.58783 96.0
417.740997 112.0
418.066498 100.0
419.345276 88.0
419.610229 56.0
422.117218 76.0
422.767639 88.0
426.643646 92.0
435.852051 112.0
440.250885 88.0
442.651154 132.0
446.129303 80.0
472.097687 120.0
477.423004 64.0
483.517487 100.0
485.554657 60.0
492.875336 72.0
495.937683 44.0
508.892456 48.0
513.184692 124.0
514.222229 108.0
519.312134 128.0
527.777832 72.0
544.756653 96.0
561.108154 112.0
563.992371 140.0
600.359558 28.0
603.875793 40.0
607.024719 60.0
620.059021 120.0
621.487122 76.0
632.270508 68.0
642.990173 52.0
652.111511 108.0
657.657959 64.0
664.079102 68.0
664.202148 108.0
665.182251 124.0
670.160339 76.0
678.278992 84.0
695.140381 84.0
696.542175 76.0
737.213013 56.0
743.066162 64.0
751.526428 68.0
800.655884 56.0
805.738037 76.0
817.941467 32.0
820.214172 96.0
852.496826 76.0
873.491943 88.0
883.898926 88.0
884.727478 160.0
912.036255 104.0
955.659363 92.0
973.429932 200.0
974.398865 168.0
987.770508 168.0
1015.243774 72.0
1020.386841 168.0
1035.375366 72.0
1035.426636 40.0
1048.89978 72.0
1051.240967 224.0
1055.775757 120.0
1057.742554 76.0
1061.247314 184.0
1065.634766 60.0
1105.740601 32.0
1114.713013 188.0
1165.154297 48.0
1177.879272 92.0
1198.205078 64.0
1198.832153 236.0
1211.808472 164.0
1212.633057 168.0
1229.079224 80.0
1261.908081 196.0
1263.633789 40.0
1273.430054 96.0
1284.868896 80.0
1304.497681 148.0
1310.636475 124.0
1314.522949 176.0
1322.117798 60.0
1323.109497 180.0
1328.290649 228.0
1346.011841 160.0
1348.451782 68.0
1356.928101 120.0
1379.50647 32.0
1386.671387 164.0
1390.780273 236.0
1406.806152 156.0
1415.770752 248.0
1420.530029 120.0
1424.02771 160.0
1425.282227 228.0
1432.030029 68.0
1442.585938 228.0
1447.973145 56.0
1469.866333 112.0
1473.729858 160.0
1484.737183 172.0
1485.250977 56.0
1488.858154 156.0
1491.869995 156.0
