>compound NCGC00015366-03!DUBINIDINE
>formula C15H17NO4
>ionization [M+H]+
>parentmass 276.122284
#inchi InChI=1S/C15H17NO4/c1-15(18,8-17)12-7-10-13(19-2)9-5-3-4-6-11(9)16-14(10)20-12/h3-6,12,17-18H,7-8H2,1-2H3
#inchikey NETGEQWGGLFVRL
#Ion_Source LC-ESI
#Instrument qTOF
#Compound_Source Prestwick Phytochem Lib
#PI Dorrestein
#Data_Collector VVP/LMS
#Scan -1
#Precursor_MZ 276.124
#ExactMass 275.116
#Charge 1
#CAS_Number N/A
#Pubmed_ID N/A
#Smiles COC1=C2C=CC=CC2=NC3=C1CC(O3)C(C)(O)CO
#INCHI_AUX N/A
#Library_Class 1
#SpectrumID CCMSLIB00000078698
#IonMode Positive
#UpdateWorkflowName UPDATE-SINGLE-ANNOTATED-GOLD
#LibraryQualityString Gold
#TaskID 67c915c6594c435cadc1fe2b5358144d
##Scan# 1454
#SpectrumFile p1-C02_GC2_01_17898.mzXML
#LibraryName phytochem_lib.mgf
#MQScore -1
#Organism phytochem_lib
#TIC_Query 0
#RT_Query -1
#MZErrorPPM -1
#SharedPeaks 0
#MassDiff 0
#LibMZ -1
#SpecMZ 276.124
#SpecCharge 0
#internalFilename spec-00000.mgf

>collision 10
94.948021 200.0
94.985985 224.0
95.140114 48.0
95.243034 132.0
95.287712 84.0
95.404312 224.0
95.445145 104.0
95.49765 200.0
95.579353 220.0
95.65136 136.0
95.814934 224.0
95.926018 116.0
96.04496 116.0
96.204971 204.0
96.247917 160.0
96.290878 148.0
96.462822 192.0
96.52343 140.0
96.677963 168.0
96.793777 196.0
97.207054 140.0
97.232567 244.0
97.269859 176.0
97.330719 152.0
97.366066 208.0
97.430885 136.0
97.637268 156.0
97.717918 172.0
97.743492 124.0
97.84584 132.0
97.895065 144.0
97.91082 168.0
97.938393 152.0
97.975815 108.0
98.032738 216.0
98.182777 180.0
98.228142 156.0
98.265625 120.0
98.409698 68.0
98.526222 224.0
98.559807 124.0
98.640839 124.0
98.715965 176.0
98.9534 188.0
99.046478 148.0
99.088074 164.0
99.143555 228.0
99.183197 176.0
99.203018 180.0
99.26844 136.0
99.302376 180.0
99.387459 164.0
99.500587 204.0
99.564125 48.0
99.657486 128.0
99.729988 204.0
99.766792 156.0
99.906441 144.0
99.949768 164.0
100.166771 252.0
100.206612 216.0
100.256477 156.0
100.278351 144.0
100.327415 136.0
100.346123 148.0
100.44384 144.0
100.608292 252.0
100.875145 208.0
100.94912 124.0
100.971123 72.0
101.015121 188.0
101.029129 144.0
101.047134 188.0
101.091148 156.0
101.143188 176.0
101.165207 216.0
101.307381 192.0
101.364899 164.0
101.389275 184.0
101.4804 144.0
101.513824 120.0
101.528137 144.0
101.660263 116.0
101.732513 184.0
101.768654 156.0
102.042793 152.0
102.064789 196.0
102.09417 160.0
102.130371 124.0
102.19072 208.0
102.265175 248.0
102.45446 36.0
102.480652 264.0
102.496765 124.0
102.645927 216.0
102.886589 156.0
103.055679 2952.0
103.077263 240.0
103.093765 192.0
103.209282 92.0
103.365028 192.0
103.460152 124.0
103.4804 184.0
103.545197 76.0
103.648506 140.0
103.818787 136.0
103.843117 168.0
103.905998 176.0
104.050819 564.0
104.208931 76.0
104.243637 236.0
104.393471 272.0
104.432114 148.0
104.468727 164.0
104.482971 216.0
104.501282 160.0
104.596924 80.0
104.615242 196.0
104.653923 128.0
104.75808 196.0
104.973831 84.0
104.988106 52.0
105.016655 176.0
105.032974 164.0
105.069695 148.0
105.130905 124.0
105.261551 220.0
105.365715 124.0
105.434288 220.0
105.449493 180.0
105.589775 192.0
105.677521 172.0
105.719444 172.0
105.920082 168.0
106.038605 216.0
106.068481 356.0
106.098366 344.0
106.122139 228.0
106.22345 48.0
106.40609 100.0
106.440994 208.0
106.463585 168.0
106.708099 136.0
107.051353 316.0
107.160889 144.0
107.261864 40.0
107.319588 192.0
107.367012 216.0
107.437141 240.0
107.532059 152.0
107.583664 132.0
107.608437 60.0
107.647667 144.0
107.719353 180.0
107.788132 84.0
107.895607 192.0
107.972107 40.0
108.05278 44.0
108.079674 172.0
108.131409 156.0
108.197647 168.0
108.234459 200.0
108.284615 152.0
108.369545 192.0
108.500114 192.0
108.520844 196.0
108.65773 156.0
108.743187 284.0
108.796768 212.0
108.95536 164.0
109.110466 164.0
109.141655 164.0
109.29557 104.0
109.41394 156.0
109.43502 172.0
109.455849 204.0
109.834427 224.0
109.874771 176.0
109.912331 136.0
110.046951 192.0
110.106468 104.0
110.258972 196.0
110.353035 152.0
110.378128 184.0
110.564301 100.0
110.779961 128.0
110.87458 152.0
110.893112 152.0
111.010506 100.0
111.035675 108.0
111.111183 144.0
111.233131 72.0
111.310577 112.0
111.466019 228.0
111.592133 40.0
111.615257 220.0
111.718315 76.0
111.842461 188.0
111.92878 212.0
112.017227 172.0
112.056808 188.0
112.070473 204.0
112.255386 184.0
112.327095 156.0
112.407265 152.0
112.869858 236.0
113.04966 184.0
113.070816 156.0
113.108917 152.0
113.233833 152.0
113.293144 160.0
113.346107 192.0
113.490242 140.0
113.598404 184.0
113.70237 112.0
113.74482 140.0
113.825493 164.0
113.970024 176.0
114.00605 156.0
114.044304 168.0
114.069809 136.0
114.146347 280.0
114.297371 164.0
114.339935 152.0
114.429337 108.0
114.680695 204.0
114.98568 56.0
115.053558 2140.0
115.092415 188.0
115.158615 204.0
115.224831 96.0
115.406502 196.0
115.423607 96.0
115.521629 96.0
115.714592 160.0
115.759552 208.0
115.894501 196.0
115.915924 228.0
116.02523 56.0
116.057854 408.0
116.132446 196.0
116.149605 80.0
116.1968 176.0
116.231133 196.0
116.336296 32.0
116.355614 116.0
116.420029 152.0
116.563957 84.0
116.583298 136.0
116.783234 200.0
116.806892 152.0
116.837013 260.0
116.951057 140.0
116.981194 156.0
117.056557 480.0
117.091736 188.0
117.149155 236.0
117.243958 116.0
117.599808 180.0
117.692635 224.0
117.76606 128.0
117.817902 140.0
117.845985 152.0
117.874077 188.0
118.031868 176.0
118.066345 364.0
118.207672 116.0
118.352104 200.0
118.449554 172.0
118.579559 184.0
118.813736 132.0
118.86364 116.0
118.87883 200.0
119.039001 316.0
119.313225 272.0
119.500267 132.0
119.559013 56.0
119.626488 164.0
119.708405 192.0
119.889206 212.0
119.922714 164.0
119.946693 232.0
119.970673 148.0
120.044563 1180.0
120.081879 132.0
120.173492 184.0
120.313171 84.0
120.337181 168.0
120.548561 220.0
120.586205 188.0
120.645226 272.0
120.732681 160.0
120.758926 168.0
120.848618 148.0
120.872681 188.0
121.049988 340.0
121.102547 280.0
121.24057 124.0
121.435692 136.0
121.567314 176.0
121.584877 112.0
121.69902 180.0
121.940651 116.0
121.962631 188.0
122.006599 144.0
122.031914 68.0
122.107742 52.0
122.156136 196.0
122.182533 152.0
122.256874 152.0
122.264458 120.0
122.402626 68.0
122.455475 184.0
122.554604 204.0
122.61631 320.0
122.803703 152.0
122.969177 168.0
123.046432 132.0
123.070724 184.0
123.143593 56.0
123.174515 148.0
123.222618 176.0
123.245209 124.0
123.273933 188.0
123.307083 112.0
123.472893 120.0
123.48838 144.0
123.665375 116.0
123.934532 184.0
123.962128 144.0
124.002022 232.0
124.061867 132.0
124.143906 96.0
124.252586 116.0
124.288086 204.0
124.35022 156.0
124.401276 128.0
124.443451 180.0
124.523392 196.0
124.676682 64.0
125.119774 156.0
125.136688 164.0
125.163841 120.0
125.192795 112.0
125.272415 112.0
125.357635 68.0
125.375465 168.0
125.395523 164.0
125.455383 196.0
125.509529 120.0
125.547119 188.0
125.647491 220.0
125.709969 152.0
125.741211 224.0
125.792542 160.0
125.826691 148.0
125.848358 168.0
126.011398 180.0
126.04715 64.0
126.105247 196.0
126.302002 116.0
126.460861 136.0
126.496674 132.0
126.512344 176.0
126.532494 140.0
126.915619 192.0
127.054276 184.0
127.133202 56.0
127.213997 144.0
127.252167 104.0
127.577919 144.0
127.701584 128.0
127.737572 128.0
127.852318 64.0
127.944603 144.0
127.978378 160.0
128.051849 1724.0
128.138718 164.0
128.297394 200.0
128.417801 100.0
128.44487 128.0
128.593781 64.0
128.647949 172.0
128.670532 112.0
128.80603 224.0
128.885086 144.0
128.943848 160.0
129.035782 364.0
129.069641 2056.0
129.113403 148.0
129.212463 216.0
129.260315 176.0
129.303436 104.0
129.353592 200.0
129.384918 28.0
129.590271 132.0
129.640411 156.0
129.658997 180.0
129.700729 88.0
129.721024 228.0
129.740601 60.0
129.797272 100.0
129.85498 180.0
129.908401 60.0
129.937775 144.0
129.950027 208.0
129.974197 156.0
130.003708 340.0
130.028442 924.0
130.065933 53784.0
130.141174 156.0
130.185303 52.0
130.204697 104.0
130.237549 80.0
130.267807 184.0
130.32019 136.0
130.398697 56.0
130.420258 124.0
130.442886 32.0
130.489517 104.0
130.502914 232.0
130.532074 80.0
130.553635 48.0
130.596664 60.0
130.67627 228.0
130.6922 44.0
130.716537 132.0
130.746277 184.0
130.842163 108.0
130.872009 88.0
130.922104 52.0
130.940323 44.0
131.008652 340.0
131.068237 6860.0
131.222885 112.0
131.270767 60.0
131.334625 172.0
131.403656 196.0
131.462372 188.0
131.521713 64.0
131.555573 216.0
131.622162 60.0
131.665558 40.0
131.690674 156.0
131.750061 192.0
131.79805 144.0
131.817368 208.0
131.929657 132.0
131.980225 220.0
132.011459 188.0
132.044678 1704.0
132.078094 1660.0
132.124863 80.0
132.223755 120.0
132.280716 144.0
132.353851 56.0
132.597061 224.0
132.640228 56.0
132.681488 44.0
132.700348 176.0
132.743393 144.0
132.954437 136.0
133.047836 116.0
133.084366 320.0
133.289703 100.0
133.383926 192.0
133.503479 128.0
133.586273 108.0
133.680603 100.0
134.058121 308.0
134.097443 160.0
134.182724 124.0
134.256516 156.0
134.284195 208.0
134.450302 96.0
134.549545 92.0
134.667313 68.0
134.812866 164.0
134.872955 112.0
134.907623 72.0
134.958481 152.0
135.032486 192.0
135.134262 40.0
135.182861 40.0
135.231461 144.0
135.511642 152.0
135.527863 80.0
135.590439 92.0
135.606659 172.0
135.68779 152.0
135.847794 48.0
136.058975 132.0
136.360947 160.0
136.391159 164.0
136.419052 176.0
136.591125 128.0
136.672546 44.0
136.982178 232.0
137.047409 172.0
137.222214 124.0
137.401794 132.0
137.422791 28.0
137.523132 160.0
137.618851 236.0
137.749619 200.0
137.833725 172.0
137.910843 196.0
137.92955 144.0
138.104919 192.0
138.275711 80.0
138.402115 148.0
138.519211 176.0
138.563721 104.0
138.650421 72.0
138.910675 204.0
139.045837 188.0
139.063187 68.0
139.161575 232.0
139.192307 164.0
139.229874 92.0
139.35437 180.0
139.561203 136.0
139.659973 116.0
139.827011 148.0
140.050247 792.0
140.194397 228.0
140.361755 144.0
140.397125 224.0
140.456085 36.0
140.526855 228.0
140.542755 184.0
140.588211 144.0
140.649567 212.0
140.77626 340.0
140.797745 216.0
141.018036 56.0
141.045456 240.0
141.065567 160.0
141.110229 144.0
141.140961 60.0
141.266312 140.0
141.346741 184.0
141.403534 140.0
141.50769 184.0
141.562149 52.0
141.659256 140.0
141.720856 196.0
141.900986 252.0
141.967377 168.0
142.064529 2232.0
142.113297 188.0
142.161896 144.0
142.185623 120.0
142.292435 148.0
142.510941 124.0
142.62738 180.0
142.655914 184.0
142.703461 124.0
142.781921 144.0
142.812851 180.0
142.860413 80.0
142.998428 220.0
143.038559 572.0
143.073166 764.0
143.157928 188.0
143.300842 184.0
143.42952 240.0
143.51297 112.0
143.780121 124.0
144.002151 136.0
144.021255 36.0
144.045563 564.0
144.081161 1132.0
144.164612 160.0
144.231522 52.0
144.286514 108.0
144.407928 144.0
144.587891 144.0
144.796173 136.0
144.851913 192.0
144.918335 144.0
144.944702 204.0
145.004608 200.0
145.050812 192.0
145.074921 168.0
145.10289 200.0
145.12207 200.0
145.141647 344.0
145.203598 128.0
145.234772 68.0
145.377808 188.0
145.445923 188.0
145.573166 44.0
145.688446 44.0
145.736496 124.0
145.786957 52.0
145.861465 104.0
145.927567 88.0
145.979263 144.0
146.022339 416.0
146.06044 1732.0
146.200577 48.0
146.323334 172.0
146.359451 76.0
146.407608 292.0
146.641296 160.0
146.720856 160.0
146.764252 104.0
146.841415 136.0
146.887238 160.0
146.925842 140.0
147.026962 132.0
147.063843 420.0
147.121307 64.0
147.604523 76.0
148.066727 204.0
148.18541 36.0
148.202377 128.0
148.221756 168.0
148.357483 100.0
148.388519 164.0
148.735886 96.0
148.760162 168.0
148.789291 116.0
148.917999 140.0
149.061325 96.0
149.114792 84.0
149.299545 80.0
149.323868 212.0
149.581787 176.0
149.618301 168.0
149.645081 44.0
149.725433 160.0
149.820419 132.0
149.859406 140.0
149.88739 164.0
150.069016 168.0
150.234848 176.0
150.386139 116.0
150.4496 136.0
150.478897 168.0
150.649841 80.0
150.747574 76.0
150.852676 172.0
150.923569 144.0
151.054123 332.0
151.258728 52.0
151.346863 180.0
151.559952 96.0
151.63591 116.0
151.783005 68.0
151.935059 164.0
152.060867 756.0
152.097015 136.0
152.153488 180.0
152.217316 120.0
152.482635 136.0
152.798782 196.0
152.908096 140.0
152.989319 168.0
153.069748 884.0
153.134598 132.0
153.19371 92.0
153.213425 32.0
153.238068 172.0
153.410568 56.0
153.450638 188.0
153.573318 132.0
154.005234 200.0
154.065323 2276.0
154.128036 164.0
154.197952 132.0
154.215256 156.0
154.253845 156.0
154.289413 176.0
154.343796 144.0
154.635712 148.0
154.761948 180.0
154.917984 300.0
154.967529 252.0
154.994781 124.0
155.070221 1332.0
155.116211 204.0
155.465927 144.0
155.520523 132.0
155.635132 240.0
155.719147 136.0
155.865707 180.0
155.905472 136.0
156.044937 1076.0
156.07991 1856.0
156.131699 156.0
156.373016 60.0
156.417816 60.0
156.68428 204.0
157.050278 564.0
157.086472 300.0
157.157974 176.0
157.190414 100.0
157.32019 152.0
157.37262 108.0
157.439148 144.0
157.58992 104.0
157.807358 196.0
157.93898 152.0
157.97464 148.0
158.060669 18204.0
158.096268 1024.0
158.156082 40.0
158.196243 108.0
158.257706 56.0
158.310303 52.0
158.337845 44.0
158.35788 60.0
158.485641 72.0
158.593399 68.0
158.648544 72.0
158.671097 180.0
158.721252 56.0
158.748825 156.0
158.801498 48.0
158.853226 160.0
158.918274 172.0
158.936966 92.0
159.001511 72.0
159.024796 188.0
159.063538 2448.0
159.186783 152.0
159.195251 80.0
159.201645 144.0
159.265823 32.0
159.348724 224.0
159.454254 148.0
159.584976 172.0
159.64917 168.0
159.68808 216.0
159.713669 180.0
159.935974 136.0
159.987503 196.0
160.037659 716.0
160.075699 1360.0
160.146133 120.0
160.179382 164.0
160.254456 48.0
160.302338 128.0
160.319977 84.0
160.354584 136.0
160.370224 124.0
160.627563 140.0
160.678024 84.0
160.776428 132.0
160.811752 180.0
160.862244 144.0
161.021301 216.0
161.048889 156.0
161.076965 192.0
161.117294 176.0
161.407944 172.0
161.982437 168.0
162.05603 464.0
162.417038 228.0
162.580795 176.0
162.647141 220.0
163.195496 176.0
163.406601 36.0
163.424408 124.0
163.568329 208.0
163.597458 112.0
163.841934 68.0
163.905624 148.0
163.92601 112.0
163.963257 52.0
163.999924 128.0
164.196243 160.0
164.412567 80.0
164.512634 228.0
164.659882 196.0
164.859985 60.0
165.069901 624.0
165.136093 160.0
165.527634 264.0
165.650558 72.0
165.776108 136.0
165.947845 228.0
166.036301 224.0
166.065536 2148.0
166.096573 160.0
166.160706 92.0
166.186371 92.0
166.206894 88.0
166.286438 156.0
166.357681 180.0
166.404526 160.0
166.67746 168.0
166.890121 208.0
166.98526 292.0
167.072296 1440.0
167.121597 88.0
167.180786 72.0
167.263138 236.0
167.337799 184.0
167.525787 244.0
167.590195 80.0
167.858261 160.0
167.904678 80.0
168.04184 1880.0
168.079422 1440.0
168.144608 68.0
168.258179 140.0
168.340805 188.0
168.418289 104.0
168.43895 192.0
168.537125 96.0
168.738708 180.0
168.787842 200.0
168.839554 152.0
168.888702 64.0
169.051651 2192.0
169.088043 352.0
169.116379 44.0
169.168152 144.0
169.315735 96.0
169.354584 72.0
169.512619 40.0
169.54631 124.0
169.57222 188.0
169.603317 180.0
169.683685 80.0
169.774429 184.0
169.868134 160.0
170.060913 4992.0
170.096649 1356.0
170.155853 184.0
170.194809 116.0
170.212982 140.0
170.246735 168.0
170.265152 96.0
170.28508 100.0
170.42337 144.0
170.446747 116.0
170.483139 144.0
170.618286 144.0
170.665085 140.0
170.70929 48.0
170.818527 84.0
170.935608 92.0
170.995453 132.0
171.062637 792.0
171.101807 316.0
171.154251 76.0
171.175079 200.0
171.207565 268.0
171.334076 184.0
171.461639 108.0
171.584137 140.0
171.624237 212.0
171.831894 64.0
171.868423 128.0
171.959763 104.0
172.039673 1420.0
172.076309 1280.0
172.126831 68.0
172.189514 128.0
172.360062 152.0
172.403732 160.0
172.463837 108.0
172.60762 136.0
172.67038 124.0
172.743622 132.0
172.937256 240.0
172.986984 212.0
173.050262 660.0
173.080399 756.0
173.264572 56.0
173.377243 88.0
173.437515 152.0
173.694473 172.0
173.867645 76.0
173.904388 80.0
174.054703 6616.0
174.086136 140.0
174.151184 64.0
174.189514 76.0
174.296982 104.0
174.340347 48.0
174.382385 76.0
174.406052 44.0
174.455994 56.0
174.511963 184.0
174.897903 172.0
174.916321 36.0
175.062561 1564.0
175.243317 224.0
175.45108 104.0
175.495895 64.0
175.52327 136.0
175.840393 176.0
175.874863 196.0
175.960251 152.0
175.982132 176.0
176.03418 144.0
176.069519 3684.0
176.121323 36.0
176.155884 48.0
176.197937 132.0
176.327408 92.0
176.348557 160.0
176.47934 160.0
176.750519 176.0
177.075592 284.0
177.10791 140.0
177.144989 168.0
177.354324 96.0
177.608856 60.0
177.643341 76.0
177.693756 64.0
177.752121 192.0
177.996323 164.0
178.06424 472.0
178.121155 84.0
178.192871 108.0
178.214127 72.0
178.376587 156.0
178.463974 196.0
178.4879 168.0
178.82309 140.0
179.072006 428.0
179.23053 68.0
179.254501 160.0
179.349243 204.0
179.465073 96.0
179.489075 72.0
179.554306 168.0
180.044113 172.0
180.080887 3528.0
180.188354 188.0
180.27356 176.0
180.31395 56.0
180.385452 180.0
180.477005 156.0
180.594666 136.0
180.798004 200.0
181.085617 428.0
181.124634 164.0
182.017685 172.0
182.059036 1356.0
182.705734 204.0
182.869873 56.0
182.931778 128.0
182.964371 180.0
182.999084 184.0
183.068283 7976.0
183.128342 44.0
183.168747 128.0
183.257645 76.0
183.289978 40.0
183.311539 76.0
183.33609 108.0
183.446289 184.0
183.573013 148.0
183.608063 68.0
183.90657 168.0
183.978699 156.0
184.02092 168.0
184.074524 4332.0
184.153229 84.0
184.185638 88.0
184.35585 64.0
184.4991 100.0
184.552048 48.0
184.910248 100.0
184.942719 64.0
184.97406 224.0
185.045837 384.0
185.079544 796.0
185.150803 264.0
185.513763 108.0
185.573914 228.0
185.609161 168.0
185.628128 136.0
185.692841 84.0
185.728485 120.0
185.767578 144.0
185.800262 192.0
185.83699 148.0
185.880402 172.0
185.920059 132.0
185.95639 136.0
186.006348 88.0
186.05545 32376.0
186.142151 224.0
186.170853 68.0
186.198013 152.0
186.236664 52.0
186.295792 140.0
186.336929 72.0
186.434372 136.0
186.487747 108.0
186.525635 56.0
186.594742 44.0
186.681747 260.0
186.730698 60.0
186.782364 76.0
186.815018 144.0
186.863983 212.0
186.910233 48.0
186.964661 180.0
186.994736 76.0
187.057709 3788.0
187.122528 100.0
187.350769 232.0
187.422134 40.0
187.460175 104.0
187.492981 64.0
187.555664 96.0
187.634369 188.0
187.657562 264.0
187.717422 156.0
187.806519 152.0
187.857498 180.0
187.884491 116.0
187.948364 56.0
187.987244 276.0
188.009079 176.0
188.070938 54388.0
188.173492 60.0
188.232239 52.0
188.24794 88.0
188.294144 60.0
188.321579 140.0
188.347763 80.0
188.39682 124.0
188.423431 88.0
188.442566 72.0
188.462387 236.0
188.488464 100.0
188.515594 108.0
188.538193 40.0
188.582809 196.0
188.620193 52.0
188.653687 140.0
188.721344 60.0
188.776031 144.0
188.806107 36.0
188.8526 116.0
188.929611 128.0
189.07515 6220.0
189.11116 64.0
189.198334 104.0
189.365784 48.0
189.3918 40.0
189.429489 84.0
189.457535 184.0
189.48494 56.0
189.520554 56.0
189.558914 52.0
189.585419 140.0
189.751053 40.0
189.833038 196.0
190.048737 344.0
190.077835 324.0
190.170471 140.0
190.232574 128.0
190.306229 88.0
190.392853 64.0
190.428558 56.0
190.461517 112.0
190.480743 64.0
190.524689 136.0
190.579636 104.0
190.610306 128.0
190.774765 44.0
190.846252 200.0
191.070801 180.0
191.096527 76.0
191.245132 56.0
191.415817 116.0
191.490173 48.0
191.523224 164.0
191.550766 104.0
191.732605 88.0
191.95314 96.0
192.041382 120.0
192.074493 144.0
192.171036 92.0
192.245544 84.0
192.282272 104.0
192.361465 104.0
192.411148 88.0
192.66246 152.0
192.916702 40.0
192.974747 156.0
193.007935 120.0
193.087662 168.0
193.359253 140.0
193.602875 64.0
193.915924 136.0
194.061691 168.0
194.137711 80.0
194.329102 84.0
194.801041 152.0
194.967743 108.0
195.063675 148.0
196.075653 1984.0
196.189651 156.0
196.303955 32.0
196.398483 148.0
196.580124 68.0
196.599655 104.0
196.647095 216.0
196.672211 116.0
196.697342 292.0
196.917908 88.0
196.968185 44.0
197.045151 264.0
197.08075 608.0
197.152588 188.0
197.32869 132.0
197.835052 80.0
197.928558 60.0
197.994644 124.0
198.055008 860.0
198.091171 1876.0
198.154297 88.0
198.207535 76.0
198.504669 172.0
198.538315 172.0
198.703812 72.0
198.821655 56.0
199.059586 268.0
199.099716 380.0
199.229813 132.0
199.237808 168.0
199.44516 160.0
199.733688 52.0
199.889496 64.0
199.993622 148.0
200.021774 196.0
200.070389 3528.0
200.112564 180.0
200.360214 128.0
200.393494 52.0
200.48085 32.0
200.53157 104.0
200.649902 176.0
200.678162 228.0
200.70636 128.0
201.033569 80.0
201.076004 1280.0
201.598343 84.0
201.763824 88.0
201.813171 60.0
201.98851 152.0
202.047516 256.0
202.086151 4772.0
202.415848 96.0
202.435669 100.0
202.591446 76.0
202.789795 148.0
202.911682 64.0
202.979736 84.0
203.057159 172.0
203.087784 1312.0
203.405289 220.0
203.501801 160.0
203.956329 124.0
204.068405 764.0
204.101318 124.0
204.126907 44.0
204.246353 128.0
204.428436 92.0
204.485352 36.0
204.536591 60.0
204.792847 144.0
204.849808 40.0
204.952377 144.0
205.072052 168.0
205.693848 192.0
206.133667 120.0
206.305161 80.0
206.508179 44.0
206.636902 132.0
207.069138 412.0
207.779999 176.0
207.877563 220.0
208.073959 1468.0
208.414505 176.0
208.44899 136.0
208.543823 44.0
208.816956 168.0
208.845718 116.0
209.077118 336.0
209.464569 104.0
209.545227 92.0
209.892242 100.0
210.052292 844.0
210.092987 184.0
210.156448 84.0
210.462402 72.0
210.546143 144.0
210.595245 88.0
210.676514 144.0
210.757019 52.0
210.823471 148.0
210.873795 232.0
211.056595 264.0
211.526276 144.0
211.627609 104.0
211.752502 132.0
211.95491 68.0
212.018661 44.0
212.07103 448.0
212.109222 292.0
212.331757 92.0
212.920883 208.0
212.981873 176.0
213.083801 140.0
213.115509 160.0
213.839584 112.0
213.859955 144.0
213.929825 84.0
214.086792 340.0
214.121994 140.0
214.197723 212.0
214.301605 164.0
214.801102 104.0
215.060333 128.0
215.086227 268.0
215.122086 60.0
215.256393 196.0
215.325638 168.0
215.381973 56.0
215.705383 96.0
215.726776 60.0
215.774399 204.0
215.817398 92.0
215.954697 156.0
215.989136 88.0
216.014236 144.0
216.059341 176.0
216.102448 45920.0
216.160919 108.0
216.188889 168.0
216.21405 116.0
216.285461 156.0
216.339752 92.0
216.383209 72.0
216.431839 116.0
216.490402 60.0
216.516769 60.0
216.585983 68.0
216.637054 112.0
216.660294 40.0
216.715958 108.0
216.774551 80.0
216.843201 76.0
216.880051 52.0
216.910751 76.0
217.000244 156.0
217.060791 80.0
217.105057 6540.0
217.16745 196.0
217.193787 20.0
217.231918 48.0
217.264191 48.0
217.287659 68.0
217.355148 72.0
217.686844 92.0
217.927704 60.0
217.962952 28.0
217.998215 116.0
218.079636 1808.0
218.221603 92.0
218.270523 252.0
218.342163 40.0
218.409805 48.0
218.43335 64.0
218.503952 112.0
218.589264 92.0
218.621643 128.0
218.702286 100.0
218.745255 164.0
218.823349 68.0
219.033829 36.0
219.086273 376.0
219.313049 68.0
219.366791 64.0
219.791489 88.0
219.841644 88.0
219.88591 72.0
220.358368 68.0
220.556366 92.0
220.775146 164.0
220.973328 40.0
222.087036 164.0
222.238434 152.0
222.416489 52.0
222.722321 68.0
223.163345 216.0
223.203751 216.0
224.001358 140.0
224.073807 1260.0
224.323181 44.0
224.358948 176.0
224.42453 188.0
224.624344 40.0
224.86911 168.0
225.028137 232.0
225.078644 5464.0
225.140686 52.0
225.322891 36.0
225.457352 76.0
225.552979 120.0
225.884888 64.0
226.036423 68.0
226.080795 944.0
226.408661 68.0
226.558426 68.0
226.624344 72.0
226.72023 128.0
226.747192 40.0
227.082596 360.0
227.428024 48.0
227.668198 32.0
227.842407 72.0
228.074036 148.0
228.096832 476.0
229.100922 268.0
229.241501 20.0
229.503738 112.0
229.576111 96.0
229.738983 196.0
229.965286 136.0
230.11676 2760.0
230.371185 112.0
230.750671 76.0
230.777878 64.0
231.120544 668.0
231.34967 52.0
231.840347 76.0
232.12529 132.0
232.647141 84.0
232.671432 108.0
233.151337 92.0
234.587952 76.0
235.814987 48.0
236.634781 92.0
237.535751 116.0
237.679947 76.0
237.701416 76.0
237.857941 80.0
238.082062 148.0
238.88118 148.0
239.469086 52.0
240.063873 128.0
240.101715 1716.0
240.230423 140.0
240.614761 44.0
241.005325 68.0
241.105759 220.0
242.081757 112.0
244.098755 220.0
245.238159 64.0
245.397141 40.0
245.89624 80.0
246.112457 716.0
246.899094 96.0
247.116928 168.0
249.652496 96.0
253.414688 160.0
255.68544 52.0
257.014252 56.0
258.113281 2904.0
258.253723 48.0
258.282532 208.0
258.420074 72.0
258.442474 64.0
258.765747 88.0
259.116486 436.0
259.217346 72.0
259.493011 60.0
259.759186 60.0
260.031891 76.0
260.638824 32.0
260.722382 52.0
261.214294 100.0
264.780823 44.0
266.912842 136.0
267.156769 152.0
269.821136 40.0
276.122284 316.0
276.157745 172.0
277.121063 128.0
278.371521 56.0
278.823303 100.0
281.755524 104.0
282.87915 132.0
285.990723 64.0
286.465485 136.0
288.466522 28.0
289.505219 68.0
290.627197 56.0
294.549042 44.0
294.600281 56.0
295.430969 92.0
296.619202 68.0
298.239319 104.0
300.22583 64.0
301.983673 84.0
308.136444 80.0
309.010498 36.0
312.23056 100.0
313.152649 88.0
314.856079 100.0
324.101501 56.0
324.291412 32.0
326.53894 80.0
331.278168 92.0
331.673157 96.0
334.939697 148.0
338.365997 76.0
345.493591 96.0
356.857574 56.0
358.314087 76.0
359.162262 48.0
364.739685 72.0
367.054382 128.0
379.939301 68.0
384.768921 92.0
390.592133 96.0
391.166626 40.0
395.615448 108.0
398.975525 108.0
403.048767 128.0
403.260559 92.0
409.684662 72.0
412.889496 44.0
414.626251 76.0
422.341583 64.0
422.439728 88.0
422.869354 88.0
428.956543 104.0
430.99527 48.0
443.299774 64.0
444.058594 76.0
452.228027 116.0
453.914093 76.0
454.516418 84.0
455.43338 80.0
458.739594 48.0
464.405151 40.0
464.76123 76.0
465.254761 76.0
470.049408 100.0
474.32663 104.0
474.703827 100.0
484.046417 40.0
487.832672 96.0
516.295044 52.0
521.454224 96.0
523.378479 68.0
528.119934 92.0
540.828308 112.0
554.273315 92.0
554.437317 36.0
554.535706 112.0
559.9151 100.0
566.703003 124.0
608.083374 72.0
614.095581 196.0
618.725586 104.0
620.32074 152.0
635.37616 52.0
636.630981 104.0
643.897949 56.0
644.17572 104.0
645.783081 60.0
647.402588 52.0
669.809082 80.0
671.742126 240.0
675.140564 164.0
681.98407 144.0
686.883728 152.0
688.334595 76.0
701.487549 72.0
738.817993 116.0
756.394836 92.0
759.150635 184.0
759.364502 204.0
797.830627 188.0
818.339355 216.0
825.683228 60.0
841.542969 164.0
846.561951 52.0
852.054749 236.0
866.980408 236.0
869.572571 168.0
871.328247 216.0
880.452271 172.0
884.129333 156.0
886.960388 48.0
895.951172 168.0
896.445679 84.0
924.550598 60.0
934.93396 132.0
934.98877 76.0
939.631836 200.0
940.54718 44.0
946.305725 184.0
951.940674 52.0
952.689941 180.0
953.24292 48.0
957.937195 164.0
959.860107 156.0
960.014221 164.0
962.871521 52.0
963.093872 176.0
967.682312 180.0
971.295166 152.0
971.72937 132.0
975.094971 176.0
975.380859 40.0
981.332214 68.0
985.326477 48.0
987.176575 156.0
992.712219 244.0
993.973022 48.0
999.968201 116.0
1002.203674 196.0
1005.186096 224.0
1011.76947 144.0
1012.50647 160.0
1012.785095 192.0
1015.079285 140.0
1016.804749 88.0
1018.639709 176.0
1019.31311 152.0
1023.027405 52.0
1024.625854 100.0
1027.641479 96.0
1034.383545 180.0
1034.556396 88.0
1035.792236 216.0
1036.182983 180.0
1037.964844 196.0
1040.794434 120.0
1049.197021 56.0
1053.11377 128.0
1059.303833 72.0
1061.338867 144.0
1064.044312 168.0
1067.533447 168.0
1068.509155 52.0
1069.237915 136.0
1075.083496 140.0
1075.860229 168.0
1078.093994 136.0
1083.773804 148.0
1084.389771 144.0
1085.602539 168.0
1085.845215 140.0
1086.028809 160.0
1087.846436 64.0
1089.061157 192.0
1097.088867 104.0
1102.44165 164.0
1102.501221 160.0
1103.453003 180.0
1104.563965 96.0
1108.914062 120.0
1110.100708 140.0
1113.212891 180.0
1114.734131 120.0
1115.205933 108.0
1122.24231 132.0
1123.936401 148.0
1124.590454 136.0
1125.551758 232.0
1125.832153 184.0
1125.965698 128.0
1126.720581 228.0
1126.880859 172.0
1127.495605 160.0
1128.057007 204.0
1131.254517 60.0
1132.345947 72.0
1134.235352 176.0
1134.664429 180.0
1135.06665 152.0
1135.515991 192.0
1136.287354 120.0
1136.676514 176.0
1138.301025 148.0
1139.933228 72.0
1142.75061 136.0
1144.594727 96.0
1148.584473 332.0
1150.791138 148.0
1151.885132 60.0
1152.270264 240.0
1152.783691 60.0
1153.64209 152.0
1155.03125 84.0
1158.148682 164.0
1158.82605 156.0
1159.408813 240.0
1161.915283 224.0
1163.410522 180.0
1163.899414 160.0
1163.960571 92.0
1164.483398 208.0
1164.920044 200.0
1165.577148 160.0
1165.876099 224.0
1166.596558 116.0
1166.75293 152.0
1168.058594 72.0
1168.133423 92.0
1168.53479 236.0
1170.140991 180.0
1171.680054 104.0
1171.761841 108.0
1173.929321 124.0
1174.236206 156.0
1174.884155 176.0
1177.518921 124.0
1182.680908 160.0
1182.831543 168.0
1183.632446 184.0
1184.162842 36.0
1184.235107 40.0
1184.502319 164.0
1185.255859 68.0
1185.427124 144.0
1186.153687 224.0
1186.510132 68.0
1186.729492 216.0
1188.1698 196.0
1188.478516 164.0
1188.650024 180.0
1191.561157 196.0
1199.88855 128.0
1200.150635 164.0
1200.571167 56.0
1201.447144 132.0
1201.633423 184.0
1204.768066 136.0
1206.405518 60.0
1210.785278 96.0
1210.91687 172.0
1211.962891 144.0
1212.378662 132.0
1212.531128 44.0
1212.766724 152.0
1213.667969 144.0
1214.326782 140.0
1214.985718 124.0
1216.984497 68.0
1217.248291 204.0
1218.442993 168.0
1221.967773 172.0
1223.457153 120.0
1224.306519 220.0
1224.515503 116.0
1224.821899 40.0
1225.037842 132.0
1227.32373 152.0
1228.223389 200.0
1228.362915 168.0
1228.948975 188.0
1232.006836 164.0
1234.501953 184.0
1234.613892 132.0
1235.22937 56.0
1236.705688 136.0
1236.817749 212.0
1237.258667 192.0
1239.247681 140.0
1240.663452 112.0
1240.810669 148.0
1242.998901 168.0
1244.767822 156.0
1245.708862 220.0
1248.576538 156.0
1256.134033 148.0
1256.895874 72.0
1259.154907 164.0
1262.966187 196.0
1263.112915 188.0
1263.218994 128.0
1267.332153 64.0
1270.345215 40.0
1270.4729 52.0
1271.203613 84.0
1272.325073 164.0
1273.546509 68.0
1275.263184 152.0
1275.841675 144.0
1277.263794 176.0
1277.505615 120.0
1278.423462 156.0
1279.113892 160.0
1280.523682 144.0
1281.128662 152.0
1281.278687 164.0
1282.31189 172.0
1285.285522 160.0
1285.478271 192.0
1286.270386 188.0
1286.977173 136.0
1287.377075 196.0
1288.612793 160.0
1291.565063 132.0
1292.4021 216.0
1292.824219 152.0
1293.182129 144.0
1293.790527 172.0
1294.857422 224.0
1295.717041 184.0
1296.218506 192.0
1300.456787 352.0
1300.84436 40.0
1301.65564 244.0
1303.393921 60.0
1304.414429 200.0
1304.795532 160.0
1306.917114 40.0
1307.032227 136.0
1307.312866 140.0
1308.536499 160.0
1308.586914 140.0
1308.838989 104.0
1309.976807 216.0
1310.553223 168.0
1310.776611 224.0
1311.994629 96.0
1312.398315 152.0
1313.234863 128.0
1313.573853 144.0
1313.8479 164.0
1314.021118 84.0
1314.742676 168.0
1315.767578 100.0
1316.684692 68.0
1316.77124 140.0
1317.630859 164.0
1321.505981 156.0
1321.71582 88.0
1322.765259 264.0
1323.243042 176.0
1323.974365 188.0
1324.705933 156.0
1324.920288 212.0
1326.03186 180.0
1326.597168 124.0
1327.554199 108.0
1329.839478 88.0
1330.057251 168.0
1330.369385 136.0
1330.826782 176.0
1331.28418 232.0
1332.192139 200.0
1332.373657 160.0
1332.729736 272.0
1333.841553 160.0
1336.030396 124.0
1337.099976 204.0
1337.318359 180.0
1338.089966 164.0
1339.211304 56.0
1342.483643 188.0
1343.475586 188.0
1343.650635 168.0
1343.920532 168.0
1345.752563 152.0
1346.994019 180.0
1348.236084 144.0
1348.396851 188.0
1348.491821 164.0
1349.040039 204.0
1350.568237 108.0
1350.626831 112.0
1351.797363 196.0
1352.551147 184.0
1354.213257 176.0
1354.916382 184.0
1356.455322 144.0
1358.127075 216.0
1359.183472 204.0
1361.613281 88.0
1362.942871 128.0
1363.339722 184.0
1363.758667 180.0
1364.831909 160.0
1365.214233 168.0
1365.927734 140.0
1366.001221 148.0
1368.1427 168.0
1368.547607 224.0
1368.871582 176.0
1369.762695 52.0
1369.917358 220.0
1369.983643 184.0
1370.528931 144.0
1370.970947 88.0
1371.730103 56.0
1371.929199 60.0
1373.595703 228.0
1373.655518 164.0
1374.451538 200.0
1374.702393 108.0
1375.27063 80.0
1376.274658 164.0
1376.592163 228.0
1376.710327 52.0
1377.958618 152.0
1379.052246 172.0
1379.17041 244.0
1380.271973 128.0
1380.419922 104.0
1381.070679 212.0
1381.825195 168.0
1384.882446 192.0
1384.949097 148.0
1385.037964 100.0
1385.445435 156.0
1386.015869 116.0
1390.583862 168.0
1391.608276 140.0
1391.719727 228.0
1392.759399 56.0
1392.915283 236.0
1393.955444 200.0
1394.349365 52.0
1395.709717 140.0
1396.06665 100.0
1396.192993 80.0
1396.802856 176.0
1399.75 252.0
1400.219238 128.0
1400.345825 100.0
1401.507935 112.0
1402.148682 36.0
1404.392822 124.0
1404.541992 136.0
1405.362671 140.0
1407.153931 72.0
1409.140503 180.0
1410.351074 192.0
1411.62207 256.0
1412.650146 228.0
1412.97583 112.0
1413.3125 124.0
1413.394775 96.0
1413.813843 148.0
1415.131226 120.0
1415.303467 152.0
1416.052246 144.0
1416.209595 140.0
1417.28833 124.0
1418.592407 116.0
1419.379517 124.0
1421.689941 156.0
1424.235107 108.0
1424.445435 188.0
1426.564453 148.0
1427.007935 272.0
1427.286133 172.0
1427.406494 96.0
1427.978027 232.0
1428.338989 136.0
1428.632446 188.0
1428.797974 180.0
1429.663208 112.0
1429.851318 64.0
1430.799805 224.0
1432.200317 172.0
1432.479004 160.0
1433.368042 160.0
1434.883057 104.0
1436.549683 164.0
1436.813721 192.0
1437.515381 156.0
1437.998291 204.0
1438.700317 160.0
1439.795166 116.0
1439.878174 180.0
1440.723267 228.0
1441.109497 200.0
1443.475342 128.0
1446.90271 156.0
1447.856812 136.0
1448.371826 132.0
1449.189941 212.0
1449.493042 148.0
1449.932617 144.0
1450.000732 228.0
1451.964355 136.0
1452.358765 148.0
1453.04895 88.0
1453.276611 188.0
1453.90979 232.0
1454.065796 92.0
1454.15686 92.0
1455.037354 148.0
1455.113281 180.0
1455.341064 116.0
1455.71106 144.0
1458.577393 112.0
1460.067505 172.0
1460.204468 160.0
1461.147583 172.0
1461.642212 224.0
1462.448853 200.0
1462.753296 76.0
1462.897949 124.0
1463.491699 208.0
1463.796387 184.0
1463.8573 200.0
1464.527222 136.0
1465.357788 184.0
1467.156372 184.0
1470.414673 108.0
1472.344849 228.0
1472.634399 184.0
1473.353027 160.0
1473.421753 128.0
1473.979492 148.0
1474.61377 92.0
1474.797241 248.0
1475.355225 128.0
1475.653442 308.0
1476.089233 212.0
1476.339233 140.0
1476.876953 184.0
1477.032227 232.0
1477.305298 120.0
1477.488892 76.0
1478.315186 216.0
1478.51416 56.0
1479.279541 156.0
1481.546265 80.0
1481.860352 96.0
1482.312378 240.0
1482.710938 104.0
1483.048096 136.0
1483.124756 164.0
1483.607666 216.0
1484.006348 164.0
1484.957275 164.0
1485.133667 128.0
1485.532471 144.0
1485.670532 172.0
1486.092529 116.0
1486.164062 128.0
1486.338013 156.0
1486.468506 208.0
1487.028687 208.0
1487.504639 160.0
1487.99585 156.0
1488.671631 260.0
1488.901978 176.0
1489.239868 172.0
1489.431885 124.0
1489.5625 172.0
1490.699585 160.0
1492.974976 112.0
1495.329102 120.0
1495.790894 196.0
1495.929443 140.0
1496.329712 192.0
1496.899536 128.0
1497.20752 184.0
1497.754395 196.0
1498.201172 64.0
1499.041016 216.0
1500.363892 196.0
1501.052856 100.0
1501.592651 172.0
1501.885742 188.0
1502.086304 120.0
1503.691162 272.0
1503.76062 116.0
