>compound MLS002222333-01!64887-14-5
>formula C20H29N5O3
>ionization [M+H]+
>parentmass 388.233551
#inchi InChI=1S/C20H29N5O3/c1-22-18(15-19(26)23(2)20(22)27)21-9-6-10-24-11-13-25(14-12-24)16-7-4-5-8-17(16)28-3/h4-5,7-8H,6,9-15H2,1-3H3/b21-18+
#inchikey BGHFNLPNJHBAHX
#origInchi InChI=1S/C20H29N5O3.ClH/c1-22-18(15-19(26)23(2)20(22)27)21-9-6-10-24-11-13-25(14-12-24)16-7-4-5-8-17(16)28-3;/h4-5,7-8H,6,9-15H2,1-3H3;1H/b21-18+;
#Ion_Source LC-ESI
#Instrument qTof
#Compound_Source NIH Pharmacologically Active Library
#PI Dorrestein
#Data_Collector VP/LMS
#Scan -1
#Precursor_MZ 388.239
#ExactMass 387.227
#Charge 1
#CAS_Number N/A
#Pubmed_ID N/A
#Smiles COc1ccccc1N2CCN(CCC\N=C\3/CC(=O)N(C)C(=O)N3C)CC2.Cl
#INCHI_AUX N/A
#Library_Class 1
#SpectrumID CCMSLIB00000086175
#IonMode Positive
#UpdateWorkflowName UPDATE-SINGLE-ANNOTATED-GOLD
#LibraryQualityString Gold
#TaskID d252d724072548979f1f6f1ced849daf
##Scan# 1294
#SpectrumFile p5-H02_GH2_01_18477.mzXML
#LibraryName Pharm_Active_Library.mgf
#MQScore -1
#Organism Pharm_Active_Library
#TIC_Query 0
#RT_Query -1
#MZErrorPPM -1
#SharedPeaks 0
#MassDiff 0
#LibMZ -1
#SpecMZ 388.239
#SpecCharge 0
#internalFilename spec-00000.mgf

>collision 10
44.999195 64.0
45.052616 200.0
45.06731 216.0
45.154202 164.0
45.180954 232.0
45.22913 156.0
45.411354 232.0
45.668884 168.0
45.725746 248.0
45.778252 192.0
45.824047 208.0
45.833481 184.0
45.855042 176.0
46.147972 100.0
46.158791 156.0
46.172314 124.0
46.31443 92.0
46.352364 56.0
46.650955 208.0
46.693108 176.0
46.727116 184.0
46.736637 124.0
46.761135 56.0
47.070595 228.0
47.152561 192.0
47.168964 148.0
47.203144 168.0
47.30439 176.0
47.542877 244.0
47.617577 196.0
47.996834 204.0
48.022079 52.0
48.162441 156.0
48.243973 92.0
48.311737 108.0
48.457104 148.0
48.659595 176.0
48.6707 192.0
48.799919 160.0
48.925137 120.0
49.019848 156.0
49.083969 180.0
49.152321 188.0
49.231888 156.0
49.249722 240.0
49.269604 204.0
49.300983 180.0
49.415005 176.0
49.482182 164.0
49.525597 96.0
49.5382 112.0
49.557816 144.0
50.032528 148.0
50.14381 132.0
50.218536 60.0
50.345554 168.0
50.357685 68.0
50.5378 164.0
50.692146 176.0
51.017174 152.0
51.152317 208.0
51.368916 164.0
51.41172 184.0
52.283058 112.0
52.476082 208.0
52.530884 92.0
52.631912 120.0
52.799541 80.0
52.881943 180.0
53.003654 272.0
53.051483 196.0
53.147205 176.0
53.183487 104.0
53.29871 224.0
53.363625 216.0
53.376709 140.0
53.413597 132.0
53.446529 112.0
53.462536 160.0
53.67522 176.0
53.692719 240.0
53.713139 120.0
53.764206 148.0
53.848881 196.0
53.871342 224.0
53.905857 196.0
53.962864 136.0
54.008198 180.0
54.047699 176.0
54.134064 132.0
54.348076 216.0
54.387699 124.0
54.400909 188.0
54.537521 192.0
54.737602 188.0
54.849571 128.0
54.886429 116.0
55.107834 124.0
55.131474 136.0
55.385956 160.0
55.427437 184.0
55.473381 128.0
55.483757 196.0
55.514896 172.0
55.687054 128.0
55.817829 172.0
56.120098 164.0
56.41272 140.0
56.463558 120.0
56.506935 156.0
56.566799 132.0
56.619202 176.0
56.635677 128.0
56.698605 168.0
56.719589 144.0
56.781063 164.0
57.004749 156.0
57.024284 136.0
57.097954 72.0
57.275558 120.0
57.30117 104.0
57.349392 124.0
57.430813 184.0
57.539463 164.0
57.553051 124.0
57.587784 40.0
57.634617 164.0
57.667862 140.0
57.701118 172.0
57.728336 40.0
57.799435 236.0
57.83197 188.0
58.301373 56.0
58.316574 192.0
58.521942 160.0
58.633144 56.0
58.659054 100.0
58.710896 56.0
58.991837 236.0
59.05912 112.0
59.237518 168.0
59.271919 92.0
59.469753 152.0
59.592606 160.0
59.744812 192.0
59.820217 216.0
59.864868 44.0
60.009712 224.0
60.187153 168.0
60.333931 128.0
60.358669 124.0
60.531979 176.0
60.597034 184.0
60.691051 188.0
60.71484 240.0
60.877789 144.0
60.971001 144.0
61.157639 140.0
61.249504 220.0
61.619228 232.0
61.647354 112.0
61.744282 160.0
61.80529 84.0
61.839718 116.0
61.872589 132.0
62.110786 208.0
62.168839 148.0
62.319584 156.0
62.432762 116.0
62.583824 100.0
62.627922 156.0
62.735073 136.0
62.79184 156.0
62.821991 208.0
62.900707 188.0
62.911758 332.0
62.987556 172.0
63.185165 128.0
63.243713 104.0
63.367233 108.0
63.682915 144.0
63.751232 148.0
63.789375 220.0
63.917671 100.0
63.98505 196.0
64.008377 184.0
64.047157 156.0
64.147545 44.0
64.241631 200.0
64.263969 208.0
64.372513 124.0
64.415634 108.0
64.437996 52.0
64.450783 132.0
64.633064 184.0
64.799583 240.0
64.86689 212.0
65.024864 160.0
65.059395 124.0
65.208778 216.0
65.268265 160.0
65.374428 100.0
65.450089 140.0
65.491959 192.0
65.54351 176.0
65.578964 184.0
65.675705 96.0
65.774139 160.0
65.79512 184.0
65.913025 184.0
65.988998 136.0
66.00193 112.0
66.013252 132.0
66.074715 184.0
66.094131 188.0
66.254417 168.0
66.291687 192.0
66.367874 120.0
66.423012 108.0
66.434364 164.0
66.462555 180.0
66.567459 144.0
66.635681 136.0
66.655174 152.0
66.705559 140.0
66.82428 168.0
66.943108 168.0
66.977303 116.0
67.084854 168.0
67.243073 188.0
67.434166 172.0
67.458687 164.0
67.584618 168.0
67.654991 124.0
67.72377 80.0
67.74015 204.0
67.856506 152.0
67.867981 216.0
67.881104 200.0
67.910622 264.0
67.96328 164.0
68.225899 108.0
68.265358 188.0
68.339386 164.0
68.479309 176.0
68.657303 204.0
68.713387 132.0
68.752991 104.0
68.901596 172.0
69.085106 56.0
69.124817 124.0
69.248978 204.0
69.341759 140.0
69.638748 112.0
69.77002 144.0
69.813255 168.0
70.012093 224.0
70.15625 108.0
70.186264 104.0
70.316383 136.0
70.421562 68.0
70.508446 76.0
70.550232 208.0
70.650574 132.0
70.699097 68.0
70.913467 172.0
70.946991 44.0
70.96376 160.0
71.22892 240.0
71.292763 192.0
71.334778 176.0
71.484474 124.0
71.541695 148.0
71.556847 136.0
71.61747 156.0
71.630974 176.0
71.718567 180.0
71.762398 176.0
71.926041 132.0
72.061142 88.0
72.096626 60.0
72.142265 192.0
72.171005 140.0
72.270798 176.0
72.626556 144.0
72.726669 220.0
72.789482 152.0
72.845528 72.0
72.983192 72.0
73.030807 172.0
73.241875 164.0
73.257202 184.0
73.338997 176.0
73.412308 144.0
73.695663 64.0
73.721298 188.0
73.746933 236.0
73.760605 116.0
73.873466 172.0
74.084717 208.0
74.315483 96.0
74.344154 180.0
74.380692 176.0
74.511208 176.0
74.605728 176.0
74.659035 200.0
74.693428 52.0
74.715797 124.0
74.893425 148.0
74.962013 144.0
75.008545 96.0
75.08786 160.0
75.10511 164.0
75.156868 188.0
75.256973 136.0
75.447021 144.0
75.500626 292.0
75.557518 180.0
75.616539 188.0
75.722153 220.0
75.935333 120.0
76.091507 172.0
76.228729 152.0
76.263481 172.0
76.470459 128.0
76.547066 164.0
76.592346 116.0
76.838142 144.0
76.893982 216.0
76.976036 208.0
77.037163 196.0
77.058128 184.0
77.082588 220.0
77.107056 160.0
77.134148 136.0
77.23819 184.0
77.283676 104.0
77.434227 120.0
77.518318 156.0
77.626999 96.0
77.741852 212.0
77.786659 192.0
77.82177 100.0
77.876213 144.0
78.020302 144.0
78.247253 236.0
78.312408 132.0
78.502747 160.0
79.041527 156.0
79.190231 352.0
79.229202 48.0
79.262863 252.0
79.388725 168.0
79.520012 132.0
79.535988 208.0
79.617661 124.0
79.660286 148.0
79.88427 176.0
79.941406 144.0
79.980522 44.0
80.065819 168.0
80.103226 216.0
80.115273 204.0
80.176277 48.0
80.588486 148.0
80.760101 156.0
80.803032 124.0
80.906837 252.0
80.980766 224.0
81.08596 52.0
81.116432 120.0
81.135094 224.0
81.166634 184.0
81.225815 136.0
81.256317 188.0
81.372971 164.0
81.547218 120.0
81.62812 120.0
81.710861 164.0
81.921494 120.0
82.117966 236.0
82.150436 148.0
82.22081 92.0
82.262321 140.0
82.280373 212.0
82.3508 168.0
82.462822 132.0
82.484512 196.0
82.605667 124.0
82.676231 76.0
82.690704 144.0
82.709122 160.0
82.804436 196.0
82.996864 156.0
83.055244 168.0
83.180099 136.0
83.350815 204.0
83.363541 196.0
83.468971 48.0
83.641808 128.0
83.687317 180.0
84.020851 180.0
84.077415 256.0
84.210693 68.0
84.22348 168.0
84.415421 196.0
84.446472 132.0
84.561737 140.0
84.577095 156.0
84.68441 232.0
84.715546 204.0
84.873474 144.0
84.889671 88.0
84.975876 148.0
85.01992 104.0
85.126389 196.0
85.141083 104.0
85.170471 152.0
85.196976 140.0
85.238449 184.0
85.328514 180.0
85.365288 176.0
85.558479 136.0
85.632133 124.0
85.999046 100.0
86.085815 140.0
86.204048 120.0
86.338997 156.0
86.35379 208.0
86.379684 64.0
86.442596 196.0
86.592545 148.0
86.666649 64.0
86.72171 84.0
87.002342 128.0
87.032478 200.0
87.07476 176.0
87.123055 144.0
87.19738 108.0
87.219688 128.0
87.288475 156.0
87.454056 172.0
87.53038 168.0
87.689613 228.0
87.727875 124.0
87.882675 156.0
87.901329 240.0
88.069611 176.0
88.097374 136.0
88.263718 240.0
88.418983 140.0
88.462944 132.0
88.527565 164.0
88.645584 188.0
88.754303 220.0
88.842453 44.0
88.874352 184.0
88.928772 224.0
88.958801 132.0
89.005737 160.0
89.101532 188.0
89.144745 180.0
89.18985 136.0
89.225571 164.0
89.360985 152.0
89.609512 168.0
89.66227 124.0
89.788589 140.0
89.820656 152.0
89.833855 40.0
89.981056 184.0
90.007492 168.0
90.032043 200.0
90.107376 212.0
90.137833 164.0
90.156731 148.0
90.436638 164.0
90.457123 156.0
90.506683 108.0
90.584335 240.0
90.8647 148.0
90.963593 160.0
91.054245 528.0
91.075623 164.0
91.088921 220.0
91.164917 148.0
91.252357 136.0
91.288483 172.0
91.436874 244.0
91.627289 148.0
91.718628 168.0
91.764519 192.0
91.808372 164.0
91.911385 132.0
91.93428 196.0
91.993454 224.0
92.387123 336.0
92.52491 132.0
92.666641 92.0
92.685799 176.0
92.814224 136.0
92.902451 144.0
93.065926 204.0
93.092468 48.0
93.132797 100.0
93.159691 140.0
93.175064 48.0
93.19043 112.0
93.20388 188.0
93.274994 124.0
93.437683 160.0
93.507729 92.0
93.617462 172.0
93.879547 168.0
93.958633 92.0
94.082146 80.0
94.095657 188.0
94.246307 196.0
94.271431 52.0
94.335213 188.0
94.364212 144.0
94.43383 52.0
94.985863 140.0
95.094521 156.0
95.17411 164.0
95.267075 180.0
95.317856 192.0
95.3368 192.0
95.84713 144.0
95.925087 144.0
96.022575 256.0
96.052948 240.0
96.080231 164.0
96.157196 108.0
96.336838 172.0
96.430626 32.0
96.594872 120.0
96.635956 124.0
96.653564 176.0
96.741638 84.0
96.866966 72.0
96.961021 128.0
96.981461 168.0
97.076599 1312.0
97.125717 76.0
97.19046 96.0
97.451599 140.0
97.675713 180.0
97.819359 44.0
97.937508 252.0
97.994637 192.0
98.030106 152.0
98.053757 212.0
98.086029 528.0
98.112892 152.0
98.16021 128.0
98.179932 136.0
98.290398 120.0
98.323944 180.0
98.365395 180.0
98.553017 48.0
98.673576 224.0
98.754654 192.0
98.956505 180.0
98.976303 152.0
99.045616 140.0
99.087219 340.0
99.400497 128.0
99.42157 116.0
99.509254 160.0
99.527542 128.0
100.402496 140.0
100.415825 196.0
100.435036 60.0
100.474937 236.0
100.53318 208.0
100.696503 96.0
100.734459 160.0
100.749939 176.0
100.842354 148.0
100.958313 204.0
101.086342 124.0
101.162399 184.0
101.198433 52.0
101.21846 176.0
101.426819 228.0
101.502678 148.0
101.532082 216.0
101.669502 152.0
101.711655 200.0
101.783928 112.0
101.869263 196.0
101.894394 152.0
101.929543 128.0
102.099426 48.0
102.133614 132.0
102.218994 176.0
102.324791 204.0
102.467789 208.0
102.735924 196.0
102.915543 176.0
103.014511 136.0
103.054916 184.0
103.208527 128.0
103.287399 160.0
103.546478 140.0
103.856583 184.0
103.917442 168.0
104.006729 100.0
104.161812 140.0
104.185432 128.0
104.293129 64.0
104.691902 192.0
104.755043 188.0
105.071449 432.0
105.13224 128.0
105.375229 156.0
105.497856 60.0
105.520035 132.0
105.538742 52.0
105.690102 180.0
105.759689 124.0
105.929642 184.0
106.065674 700.0
106.183807 52.0
106.215775 212.0
106.366417 152.0
106.61467 92.0
106.738403 136.0
106.812317 196.0
106.981056 144.0
107.050285 328.0
107.147873 180.0
107.265335 104.0
107.506653 244.0
107.642899 64.0
107.680069 240.0
107.694527 232.0
107.748238 116.0
107.917717 92.0
108.044266 548.0
108.081116 80.0
108.487053 92.0
108.534744 116.0
108.563774 100.0
108.596954 196.0
108.615623 220.0
108.663338 160.0
108.68409 152.0
108.918678 200.0
109.134811 88.0
109.295822 176.0
109.344917 136.0
109.361572 104.0
109.401123 200.0
109.667747 152.0
109.684425 148.0
109.817871 176.0
109.892967 136.0
109.911751 32.0
109.929688 188.0
109.96183 148.0
110.062088 164.0
110.233322 156.0
110.335739 188.0
110.44239 124.0
110.469925 244.0
110.570152 184.0
110.64119 124.0
110.796165 128.0
111.03093 168.0
111.056129 748.0
111.090408 500.0
111.15094 172.0
111.251244 156.0
111.28904 152.0
111.520119 200.0
111.621033 56.0
111.837723 124.0
111.869301 60.0
111.907196 36.0
112.023026 240.0
112.054054 208.0
112.103088 132.0
112.42363 148.0
112.459511 156.0
112.558731 140.0
112.581963 172.0
112.607307 232.0
112.622093 268.0
112.636879 156.0
112.703316 160.0
112.746742 92.0
112.776337 172.0
112.93914 160.0
113.040695 128.0
113.498238 128.0
113.57782 328.0
113.69976 132.0
113.822891 140.0
114.065086 176.0
114.160767 208.0
114.285316 128.0
114.460808 160.0
114.55452 160.0
114.71209 176.0
114.951088 240.0
114.989502 160.0
115.040733 332.0
115.066353 88.0
115.132545 224.0
115.190216 208.0
115.275673 40.0
115.346207 124.0
115.435997 156.0
115.643517 124.0
115.673248 144.0
115.681442 184.0
115.789108 124.0
115.840515 248.0
116.001236 144.0
116.14061 212.0
116.204971 80.0
116.260757 280.0
116.384163 156.0
116.411034 168.0
116.571976 152.0
116.853821 152.0
117.032471 168.0
117.053505 192.0
117.070099 344.0
117.168159 224.0
117.258659 140.0
117.491539 140.0
117.674988 308.0
117.700897 140.0
117.804565 188.0
117.886673 160.0
117.903961 192.0
118.067184 972.0
118.133156 160.0
118.176422 124.0
118.256493 164.0
118.280304 156.0
118.340919 156.0
118.560448 128.0
118.661583 248.0
119.034935 284.0
119.071358 532.0
119.134697 132.0
119.238991 224.0
119.293335 104.0
119.332466 216.0
119.410751 156.0
119.621811 164.0
119.815628 136.0
119.878922 164.0
119.989983 160.0
120.045052 2688.0
120.083916 156.0
120.102386 44.0
120.107094 148.0
120.195923 76.0
120.234421 264.0
120.264839 48.0
120.339462 180.0
120.354347 148.0
120.730202 204.0
120.756447 40.0
120.881149 148.0
120.968697 232.0
121.054077 1784.0
121.191216 192.0
121.265678 192.0
121.284126 256.0
121.352089 56.0
121.368294 92.0
121.43322 196.0
121.485352 204.0
121.777809 32.0
121.844856 208.0
121.927208 84.0
121.951385 52.0
122.058548 324.0
122.256187 156.0
122.298904 32.0
122.353943 160.0
122.408989 164.0
122.437614 48.0
122.515778 140.0
122.549957 92.0
122.638107 144.0
122.668968 76.0
122.706444 140.0
122.758392 116.0
122.92823 196.0
122.962326 116.0
122.988815 64.0
123.070709 164.0
123.078682 164.0
123.231735 156.0
123.286972 148.0
123.302444 168.0
123.327744 224.0
123.423912 152.0
123.576645 176.0
123.660736 36.0
123.678444 172.0
123.798004 160.0
123.995171 112.0
124.071449 184.0
124.091484 116.0
124.100044 168.0
124.20137 224.0
124.305641 40.0
124.325615 132.0
124.374443 116.0
124.394424 176.0
124.483231 136.0
124.798759 92.0
124.904968 164.0
125.036789 300.0
125.06572 112.0
125.101334 116.0
125.271088 140.0
125.388672 212.0
125.427116 232.0
125.480064 144.0
125.575958 164.0
125.633949 188.0
125.698654 76.0
125.770073 72.0
125.890633 104.0
125.991142 124.0
126.109581 156.0
126.152046 148.0
126.277267 84.0
126.333183 152.0
126.474159 80.0
126.60302 188.0
126.751869 68.0
126.810135 80.0
127.081474 120.0
127.151039 40.0
127.19593 116.0
127.433983 184.0
127.486435 232.0
127.665504 124.0
127.759972 144.0
127.864944 160.0
127.964775 164.0
128.104401 112.0
128.370361 112.0
128.469604 152.0
128.485397 140.0
128.604996 160.0
128.656921 236.0
128.91893 180.0
129.045502 128.0
129.074905 160.0
129.243332 164.0
129.27623 160.0
129.534332 84.0
129.731491 64.0
129.915176 144.0
130.063889 308.0
130.144409 44.0
130.178467 160.0
130.271591 184.0
130.380646 156.0
130.767288 220.0
130.960815 200.0
131.024597 136.0
131.058594 848.0
131.177292 188.0
131.244492 136.0
131.476074 204.0
131.713531 132.0
131.743225 196.0
131.779785 136.0
131.864334 172.0
131.900909 48.0
131.923767 128.0
132.023758 180.0
132.044785 924.0
132.077087 400.0
132.152466 152.0
132.454666 168.0
132.522446 108.0
132.61734 72.0
132.711334 156.0
132.826004 156.0
132.977432 68.0
133.051102 1040.0
133.08992 204.0
133.167999 92.0
133.413879 112.0
133.508148 176.0
133.581757 148.0
133.620865 116.0
133.669174 220.0
133.779648 172.0
133.804977 92.0
133.840576 104.0
133.876358 148.0
133.991531 148.0
134.061707 6640.0
134.097092 300.0
134.118271 228.0
134.144775 128.0
134.175903 64.0
134.307343 44.0
134.450394 272.0
134.531174 148.0
134.725159 120.0
134.755203 128.0
134.778305 176.0
134.819901 208.0
134.866119 124.0
134.910049 52.0
135.025009 172.0
135.066467 1016.0
135.127441 48.0
135.365845 68.0
135.437637 148.0
135.459763 212.0
135.500183 112.0
135.583603 152.0
135.641556 64.0
135.963943 192.0
136.019653 88.0
136.076553 1356.0
136.12645 100.0
136.400604 164.0
136.705292 144.0
136.768265 132.0
136.791397 76.0
136.863571 168.0
137.082535 348.0
137.105835 200.0
137.220062 128.0
137.511658 136.0
137.579346 52.0
137.680649 300.0
137.775513 144.0
137.871307 88.0
138.070038 176.0
138.09816 136.0
138.163589 156.0
138.439789 196.0
138.648285 272.0
138.685791 220.0
138.866333 176.0
138.920273 196.0
138.952042 164.0
139.046982 124.0
139.086227 6416.0
139.143234 32.0
139.201035 116.0
139.237625 60.0
139.255951 40.0
139.298218 28.0
139.399246 232.0
139.425095 160.0
139.700211 48.0
139.721375 268.0
139.83432 180.0
139.8508 84.0
139.890823 160.0
140.01561 152.0
140.060364 232.0
140.087952 712.0
140.168732 176.0
140.20491 172.0
140.333725 188.0
140.359665 128.0
140.630966 56.0
141.015961 120.0
141.065887 4388.0
141.106323 156.0
141.240585 108.0
141.354141 144.0
141.429871 128.0
141.477219 76.0
141.512726 76.0
141.642975 80.0
141.738327 212.0
141.820694 124.0
141.898926 192.0
142.066086 384.0
142.235794 128.0
142.264282 104.0
142.340256 220.0
142.363998 80.0
142.822693 168.0
142.937195 224.0
143.068817 180.0
143.095184 208.0
143.122559 176.0
143.16066 168.0
143.284515 168.0
143.301193 216.0
143.348846 44.0
143.849716 224.0
143.952377 136.0
144.038361 148.0
144.05986 176.0
144.079361 648.0
144.346909 164.0
144.396881 152.0
144.43277 144.0
144.468643 184.0
144.57933 172.0
144.731918 224.0
144.760651 56.0
144.964264 176.0
145.016998 128.0
145.052078 332.0
145.075851 788.0
145.407944 112.0
145.491943 68.0
145.549576 56.0
145.762268 124.0
145.801804 96.0
145.90036 196.0
146.059326 820.0
146.084244 1228.0
146.148087 128.0
146.410477 160.0
146.427338 164.0
146.480316 68.0
146.509232 184.0
146.564636 136.0
146.687561 84.0
146.730957 140.0
147.022812 192.0
147.065445 756.0
147.088181 428.0
147.167648 96.0
147.211121 156.0
147.302902 112.0
147.365707 92.0
147.542145 188.0
147.559067 76.0
147.805771 92.0
147.955841 164.0
148.035736 232.0
148.076294 2048.0
148.151993 92.0
148.217407 192.0
148.282852 224.0
148.447693 228.0
148.476807 128.0
148.508331 136.0
148.566544 132.0
148.607788 60.0
148.646606 160.0
148.782532 148.0
148.8246 136.0
149.017303 192.0
149.079453 300.0
149.112885 140.0
149.197968 216.0
149.295227 60.0
149.34082 192.0
149.385223 116.0
149.63588 44.0
150.023254 160.0
150.041977 176.0
150.092224 5640.0
150.179306 156.0
150.203705 184.0
150.248642 76.0
150.301285 100.0
150.64798 104.0
150.665085 216.0
150.735931 200.0
150.914368 140.0
150.965729 208.0
151.09288 488.0
151.183746 64.0
151.305832 256.0
151.425827 120.0
151.472366 136.0
151.506653 64.0
151.558105 100.0
151.763992 104.0
151.901337 188.0
152.122192 132.0
152.235138 36.0
152.327026 96.0
152.360397 180.0
152.419373 172.0
152.977661 172.0
153.058914 196.0
153.113083 96.0
153.24118 108.0
153.435883 204.0
153.492599 144.0
153.613449 136.0
153.830597 132.0
153.894791 176.0
154.070145 216.0
154.094849 184.0
154.228302 200.0
154.599289 136.0
154.713135 160.0
154.884003 92.0
154.973602 256.0
155.045059 356.0
155.084702 160.0
155.283066 152.0
155.320267 96.0
155.412064 104.0
155.729813 276.0
155.834152 208.0
155.933548 208.0
156.023041 140.0
156.050385 172.0
156.077728 144.0
156.1026 184.0
156.124985 132.0
156.204575 168.0
156.448441 228.0
156.597855 164.0
156.699982 112.0
156.737961 232.0
156.864471 200.0
157.077805 172.0
157.098877 172.0
157.145264 208.0
157.533249 108.0
157.603195 196.0
157.918182 208.0
158.060013 168.0
158.079636 112.0
158.109573 192.0
158.251007 212.0
158.560638 212.0
158.589203 244.0
158.60675 204.0
158.732101 28.0
158.962891 164.0
158.990494 200.0
159.063828 652.0
159.090439 648.0
159.26918 176.0
159.319412 52.0
159.349564 40.0
159.583313 128.0
159.792068 156.0
159.81723 128.0
159.839874 188.0
159.935501 188.0
160.041245 140.0
160.067398 144.0
160.094498 272.0
160.129379 44.0
160.33345 124.0
160.383865 140.0
160.477127 184.0
160.571014 228.0
160.608276 120.0
161.027252 128.0
161.070129 172.0
161.085419 668.0
161.113495 256.0
161.13588 184.0
161.302673 180.0
161.335526 132.0
161.419266 172.0
161.512543 104.0
161.547958 116.0
161.593491 164.0
161.768112 60.0
161.945374 192.0
162.036453 176.0
162.046402 168.0
162.091415 13972.0
162.145752 44.0
162.172897 60.0
162.274811 80.0
162.324356 236.0
162.366089 96.0
162.454865 36.0
162.533524 52.0
162.579193 124.0
162.635025 124.0
162.690872 152.0
162.814484 176.0
162.87117 112.0
162.888947 44.0
163.028687 216.0
163.094666 2052.0
163.153244 32.0
163.305817 176.0
163.488998 40.0
163.621353 64.0
163.825089 228.0
163.913956 100.0
163.927399 104.0
163.955032 100.0
164.023849 64.0
164.102005 856.0
164.199783 148.0
164.262497 132.0
164.429398 120.0
164.697495 192.0
164.815002 144.0
164.858444 148.0
164.978577 140.0
165.043732 132.0
165.113251 188.0
165.183151 152.0
165.231766 164.0
165.410904 52.0
165.487701 212.0
165.577332 92.0
165.659286 140.0
165.682343 176.0
165.743835 164.0
166.059158 248.0
166.467209 160.0
166.765228 84.0
166.873199 132.0
166.940048 224.0
166.996628 168.0
167.05304 116.0
167.083359 208.0
167.122681 184.0
167.210175 172.0
167.400681 100.0
167.611908 188.0
167.712418 172.0
167.738205 176.0
167.833588 148.0
167.959961 204.0
167.978012 208.0
168.034775 112.0
168.076187 7000.0
168.112183 240.0
168.192184 96.0
168.279968 116.0
168.48468 164.0
168.546005 96.0
168.564087 192.0
168.620941 76.0
168.677811 160.0
168.817429 148.0
168.869156 84.0
168.931229 176.0
169.078888 464.0
169.140839 84.0
169.17189 80.0
169.358337 136.0
169.565613 188.0
169.897522 228.0
169.996109 120.0
170.188202 344.0
170.216766 104.0
170.300323 112.0
170.328445 40.0
170.442749 192.0
170.910782 104.0
170.960236 120.0
171.087769 188.0
171.142441 204.0
171.320007 112.0
171.376862 168.0
171.697495 152.0
171.812271 160.0
171.833145 76.0
171.960999 136.0
172.109802 188.0
172.209045 208.0
172.279572 156.0
172.42067 136.0
172.465103 120.0
172.566772 192.0
172.629807 180.0
172.682114 132.0
173.073578 244.0
173.109512 576.0
173.14798 60.0
173.271088 192.0
173.336594 128.0
173.386383 232.0
173.677414 140.0
173.80072 104.0
173.921432 188.0
173.966064 72.0
173.994934 52.0
174.090317 952.0
174.115768 880.0
174.205032 52.0
174.286484 56.0
174.360062 132.0
174.407364 132.0
174.499374 68.0
174.536179 124.0
174.622971 124.0
174.733444 72.0
174.936096 128.0
174.959778 64.0
175.08522 3532.0
175.320648 108.0
175.702972 56.0
175.747833 64.0
175.790054 116.0
176.030273 124.0
176.093094 1140.0
176.172897 48.0
176.360504 96.0
176.474182 168.0
176.545578 124.0
176.611694 96.0
176.714874 188.0
176.810135 52.0
176.886887 188.0
176.953079 180.0
176.976898 144.0
177.101776 3636.0
177.451172 40.0
177.51033 116.0
177.567856 92.0
177.801315 192.0
177.83847 204.0
178.066803 208.0
178.106079 484.0
178.191666 80.0
178.260742 144.0
178.377686 200.0
178.396301 148.0
178.63829 160.0
178.827209 140.0
179.218674 128.0
179.482559 116.0
179.821365 184.0
180.069656 128.0
180.123077 204.0
180.155136 128.0
180.280716 108.0
180.486053 152.0
180.97084 148.0
180.989594 60.0
181.080643 188.0
181.142242 224.0
181.45311 104.0
181.498688 216.0
181.528198 184.0
181.59523 148.0
182.094177 780.0
182.123032 144.0
182.133591 160.0
182.191147 204.0
182.250259 68.0
182.519058 176.0
182.632004 84.0
183.057236 108.0
183.109665 204.0
183.353561 192.0
183.510681 168.0
183.590805 180.0
183.838989 76.0
184.027954 192.0
184.073853 152.0
184.114365 28.0
184.187286 120.0
184.265625 40.0
184.292648 312.0
184.454788 88.0
184.487228 188.0
184.535904 104.0
184.6035 40.0
184.63324 168.0
184.708984 180.0
184.795547 72.0
184.917328 92.0
184.963333 140.0
185.039139 104.0
185.128494 32.0
185.307266 184.0
185.456314 96.0
185.594574 160.0
185.816971 208.0
186.001511 228.0
186.044952 132.0
186.120972 80.0
186.501312 92.0
186.63179 204.0
186.699783 160.0
186.999054 164.0
187.087601 232.0
187.238632 108.0
187.282211 60.0
187.328522 128.0
187.551956 140.0
187.737366 236.0
187.778275 164.0
187.830093 128.0
187.868286 152.0
188.091843 420.0
188.131531 156.0
188.206711 144.0
188.307755 52.0
188.941925 224.0
189.101212 3056.0
189.286804 128.0
189.319656 80.0
189.388474 160.0
189.421005 144.0
189.464828 156.0
189.631989 124.0
189.689545 152.0
189.741623 112.0
189.900681 264.0
189.939804 60.0
190.002167 164.0
190.031921 204.0
190.038971 136.0
190.110428 54784.0
190.187256 176.0
190.199417 32.0
190.204514 296.0
190.25119 76.0
190.266861 108.0
190.286911 176.0
190.328568 52.0
190.3535 124.0
190.378265 160.0
190.411346 168.0
190.44751 132.0
190.467285 84.0
190.501816 40.0
190.534088 64.0
190.563309 152.0
190.623947 88.0
190.660385 84.0
190.668594 140.0
190.708939 116.0
190.762878 76.0
190.828857 32.0
190.893631 72.0
190.947098 144.0
190.966354 72.0
191.023239 212.0
191.113083 7204.0
191.178192 52.0
191.213852 92.0
191.274612 72.0
191.293793 112.0
191.346558 84.0
191.39566 120.0
191.424026 84.0
191.453491 60.0
191.541626 308.0
191.692947 128.0
191.723465 56.0
191.742767 40.0
191.770325 48.0
191.93573 212.0
191.977097 68.0
192.029495 112.0
192.082977 144.0
192.117584 724.0
192.219711 80.0
192.251022 108.0
192.317993 148.0
192.339905 172.0
192.395157 148.0
192.426865 132.0
192.463501 104.0
192.508575 108.0
192.581024 208.0
192.631226 80.0
192.694763 168.0
192.738968 48.0
192.808853 100.0
192.88269 52.0
193.043045 84.0
193.134048 840.0
193.422089 80.0
193.546661 64.0
193.577118 108.0
193.646362 112.0
193.923431 184.0
194.087891 416.0
194.131027 340.0
194.178497 84.0
194.227615 124.0
194.261719 68.0
194.480927 200.0
194.600296 104.0
194.62529 220.0
195.072586 36.0
195.158768 188.0
195.208817 60.0
195.283905 224.0
195.320068 100.0
195.367355 136.0
195.576065 88.0
195.665146 160.0
195.718048 172.0
195.935287 224.0
195.979858 100.0
196.016083 132.0
196.054794 144.0
196.108582 26528.0
196.170975 112.0
196.195786 68.0
196.241867 96.0
196.303207 64.0
196.351578 100.0
196.376587 168.0
196.406403 60.0
196.425934 68.0
196.484512 104.0
196.624023 96.0
196.64357 76.0
196.671478 56.0
196.699387 60.0
196.763596 56.0
196.865463 56.0
196.952332 56.0
197.000977 180.0
197.05806 120.0
197.111435 2564.0
197.403458 80.0
197.534912 144.0
197.677597 72.0
197.842743 156.0
197.909927 56.0
197.968735 60.0
198.066757 100.0
198.112045 436.0
198.150803 112.0
198.190033 96.0
198.229263 40.0
198.34697 36.0
198.383408 88.0
198.445084 172.0
198.493652 100.0
198.51799 112.0
198.585297 92.0
198.644211 140.0
198.692032 80.0
198.717148 84.0
198.885529 44.0
198.950089 124.0
199.118561 88.0
199.351746 72.0
199.421997 96.0
199.492279 60.0
199.576614 136.0
199.62442 156.0
200.254822 76.0
200.404129 112.0
200.488663 60.0
200.564758 88.0
200.759308 100.0
201.109512 180.0
201.287003 92.0
201.326538 92.0
201.59491 52.0
201.651428 160.0
201.914368 144.0
202.112503 188.0
202.14917 248.0
202.168976 220.0
202.273712 180.0
202.347305 108.0
202.503052 144.0
202.624863 76.0
202.664536 124.0
203.058563 104.0
203.117874 3072.0
203.27417 56.0
203.322418 60.0
203.36499 36.0
203.413239 80.0
203.475693 88.0
203.762543 124.0
203.901779 96.0
204.06665 36.0
204.123093 1984.0
204.191772 92.0
204.351074 76.0
204.44783 176.0
204.728989 136.0
204.778076 180.0
204.803711 76.0
204.849289 344.0
204.886322 120.0
204.911957 136.0
204.981812 148.0
205.016144 220.0
205.035446 208.0
205.133301 29916.0
205.239441 116.0
205.262543 48.0
205.330994 64.0
205.360138 128.0
205.385788 76.0
205.422028 96.0
205.445084 80.0
205.508804 84.0
205.569702 148.0
205.60202 28.0
205.624847 60.0
205.657928 116.0
205.728851 92.0
205.890366 56.0
205.978912 72.0
206.011078 184.0
206.073181 64.0
206.136993 4580.0
206.213211 80.0
206.348297 108.0
206.710068 92.0
206.718063 68.0
206.765198 48.0
206.796677 84.0
207.139389 552.0
207.226227 76.0
207.332245 52.0
207.481293 156.0
207.550964 108.0
207.575912 120.0
207.607468 68.0
207.655457 212.0
207.685944 84.0
207.727203 128.0
208.310654 40.0
208.41983 64.0
209.02655 64.0
209.274094 88.0
209.645691 180.0
209.686035 180.0
210.046448 64.0
210.568878 72.0
210.924271 28.0
211.12088 132.0
212.121368 180.0
212.415543 92.0
213.109406 180.0
213.144272 92.0
214.206192 68.0
214.287766 104.0
214.343124 108.0
214.86795 120.0
215.350327 80.0
215.633011 140.0
215.764557 124.0
215.828873 40.0
215.872742 32.0
216.124115 184.0
216.182816 88.0
216.472626 80.0
216.753845 52.0
217.133194 936.0
217.413651 136.0
217.718979 140.0
217.874649 144.0
218.03038 220.0
218.137863 344.0
218.165588 148.0
219.149094 6316.0
219.275299 32.0
219.319504 84.0
219.764816 48.0
219.809067 56.0
219.885803 44.0
219.933029 68.0
220.153656 800.0
220.296234 88.0
220.31691 152.0
220.381912 48.0
220.467606 144.0
220.869705 64.0
221.005783 76.0
221.156708 148.0
221.39653 84.0
221.752045 68.0
222.265091 140.0
222.3927 120.0
222.766846 140.0
222.847061 52.0
223.289978 96.0
223.340546 76.0
223.516068 40.0
224.09967 116.0
224.490158 208.0
225.092941 136.0
225.136215 268.0
226.435699 184.0
227.026093 64.0
227.116074 160.0
228.070908 196.0
228.221222 112.0
228.275345 72.0
228.407669 136.0
229.624527 96.0
230.333832 112.0
230.698471 204.0
231.151398 700.0
231.583054 100.0
232.07399 212.0
232.147552 1184.0
232.298401 84.0
232.665604 120.0
232.856903 120.0
232.896393 48.0
232.957153 148.0
233.002716 80.0
233.072601 132.0
233.106018 180.0
233.165222 14848.0
233.25798 92.0
233.303589 44.0
233.358307 56.0
233.379593 64.0
233.492111 48.0
233.54686 60.0
233.568146 104.0
233.601608 48.0
233.638107 80.0
233.665497 100.0
233.692871 32.0
233.764893 64.0
233.835907 48.0
233.857208 80.0
233.908951 32.0
233.971191 108.0
233.997009 108.0
234.085541 92.0
234.168015 1840.0
234.202942 160.0
234.26828 72.0
234.374908 72.0
234.467102 64.0
234.588257 36.0
234.713257 72.0
234.740707 64.0
234.923706 84.0
235.166992 176.0
235.338013 128.0
235.564774 52.0
235.647247 92.0
235.702255 112.0
235.762863 72.0
236.04155 76.0
236.515762 148.0
236.616776 52.0
237.03334 132.0
237.852203 56.0
238.134689 216.0
239.14978 944.0
239.312469 108.0
239.617386 44.0
240.067413 96.0
240.149445 368.0
240.258652 56.0
240.727814 56.0
241.97081 108.0
242.714417 116.0
243.114594 124.0
243.446762 164.0
245.139053 116.0
245.503784 112.0
246.981079 60.0
247.040512 48.0
247.081177 44.0
247.167847 3844.0
247.416046 92.0
247.813797 48.0
248.111542 84.0
248.169937 748.0
248.572601 60.0
249.174576 144.0
249.304291 88.0
249.555756 72.0
249.945786 156.0
250.128326 88.0
250.185852 192.0
250.225922 80.0
250.310928 48.0
250.666885 72.0
250.867554 48.0
253.001007 56.0
253.504623 160.0
254.132462 128.0
254.408569 100.0
254.494293 116.0
255.979233 96.0
256.945007 72.0
257.708069 52.0
258.120422 168.0
258.190765 120.0
262.161987 100.0
265.148132 140.0
267.56485 76.0
269.587158 112.0
270.129883 124.0
270.159332 132.0
270.620789 88.0
273.16095 36.0
274.148682 156.0
274.425568 132.0
274.735596 116.0
276.168152 544.0
277.169342 200.0
278.17392 152.0
284.154388 188.0
285.736816 148.0
287.515961 108.0
288.171051 144.0
292.842285 44.0
293.459076 116.0
297.111786 108.0
297.626587 212.0
297.867004 128.0
299.239166 76.0
300.186737 236.0
300.231567 68.0
300.90097 160.0
305.743439 88.0
307.011536 132.0
307.119659 56.0
309.149536 148.0
310.37558 144.0
313.2117 176.0
313.837036 156.0
315.98999 80.0
318.172516 220.0
319.17511 100.0
319.972107 60.0
320.898438 76.0
327.766052 104.0
327.946259 168.0
331.198151 152.0
332.220612 140.0
332.899139 96.0
333.502228 164.0
333.905792 140.0
338.668854 120.0
341.37735 184.0
343.878876 92.0
345.116425 76.0
347.17157 60.0
351.009247 156.0
354.305847 64.0
354.849274 88.0
356.155212 152.0
365.116699 152.0
370.717163 88.0
371.775604 128.0
376.132477 100.0
376.321655 72.0
378.552734 112.0
382.252167 96.0
384.766205 120.0
385.10202 92.0
386.219757 156.0
386.438965 52.0
387.210144 144.0
387.253204 152.0
387.425568 96.0
387.617554 112.0
387.648895 116.0
387.895813 128.0
387.938934 108.0
388.162415 120.0
388.233551 4956.0
388.31134 148.0
388.444794 104.0
388.521942 64.0
388.817535 48.0
388.889587 124.0
388.996033 76.0
389.237091 1408.0
390.243805 308.0
390.687897 40.0
391.238861 100.0
391.778381 128.0
391.951752 76.0
392.211853 80.0
392.322235 68.0
392.961121 76.0
397.408325 48.0
398.766449 72.0
401.593323 80.0
402.738861 72.0
408.71225 56.0
413.085632 88.0
430.973022 92.0
433.874329 48.0
439.952423 108.0
445.156891 76.0
448.337219 44.0
449.467346 80.0
466.835266 120.0
470.679077 68.0
521.51416 88.0
522.419067 48.0
523.985107 64.0
528.02948 100.0
560.939453 96.0
597.142517 132.0
605.787048 52.0
613.147522 120.0
628.580566 108.0
648.374695 44.0
652.155823 112.0
659.045776 40.0
682.691528 96.0
698.823608 32.0
709.677734 80.0
770.983704 92.0
778.14032 44.0
822.236877 52.0
825.40741 80.0
832.811768 56.0
866.112976 72.0
867.531067 168.0
872.203674 52.0
873.250305 168.0
894.581909 60.0
915.267517 152.0
923.106018 176.0
924.279541 176.0
927.271118 168.0
932.788513 164.0
939.407776 60.0
960.725769 164.0
982.432617 68.0
987.048218 160.0
1000.44989 48.0
1014.740601 216.0
1018.491089 116.0
1031.69458 68.0
1050.368896 124.0
1051.188232 100.0
1052.07251 200.0
1071.44397 140.0
1075.917847 336.0
1076.342285 208.0
1086.57251 192.0
1087.825928 124.0
1087.970337 132.0
1094.104004 204.0
1095.750488 140.0
1104.351929 152.0
1105.476685 84.0
1114.820435 172.0
1115.378662 252.0
1132.540527 164.0
1136.489136 180.0
1138.314819 176.0
1142.690552 172.0
1142.852051 232.0
1147.384766 156.0
1147.634277 140.0
1147.877075 128.0
1151.994141 212.0
1155.577148 72.0
1156.477173 204.0
1161.504883 120.0
1165.653076 108.0
1166.63855 60.0
1168.726562 132.0
1175.131226 216.0
1178.80481 208.0
1183.031616 92.0
1183.442383 228.0
1185.380859 180.0
1191.618042 64.0
1195.909058 168.0
1196.652588 220.0
1202.670776 168.0
1203.395508 172.0
1204.66626 32.0
1210.669922 172.0
1214.315308 172.0
1218.681763 148.0
1221.066162 148.0
1225.172974 76.0
1228.519165 88.0
1242.026978 184.0
1242.349609 60.0
1243.605713 180.0
1246.203979 132.0
1246.773193 124.0
1247.433838 196.0
1247.96814 176.0
1250.592163 192.0
1251.972046 208.0
1252.922974 140.0
1256.187012 68.0
1259.186768 72.0
1262.79126 192.0
1264.69458 208.0
1265.090942 176.0
1266.401001 196.0
1266.719727 152.0
1271.299927 208.0
1272.130371 184.0
1275.049683 216.0
1277.993652 120.0
1279.345825 148.0
1279.445557 136.0
1287.609985 120.0
1289.88208 152.0
1291.684082 216.0
1291.927368 156.0
1292.657104 168.0
1292.821655 208.0
1297.21936 100.0
1297.893311 216.0
1299.600464 168.0
1300.031006 176.0
1305.404297 204.0
1305.88623 48.0
1306.231445 224.0
1306.663086 128.0
1306.828613 132.0
1308.764771 76.0
1314.610718 180.0
1314.834473 104.0
1318.214111 216.0
1322.220581 120.0
1323.900146 224.0
1324.29126 144.0
1326.356201 136.0
1326.443237 68.0
1326.667969 228.0
1327.247925 88.0
1328.110962 172.0
1333.963623 68.0
1335.388794 156.0
1335.55603 176.0
1336.63269 116.0
1337.069336 168.0
1337.229492 76.0
1337.411499 60.0
1337.506104 176.0
1338.408813 28.0
1339.268188 160.0
1339.494019 52.0
1339.887329 196.0
1348.863403 264.0
1350.384277 204.0
1350.55249 192.0
1352.023071 176.0
1355.120483 184.0
1356.454346 176.0
1357.385376 160.0
1358.793701 56.0
1361.575684 176.0
1361.818115 200.0
1363.331543 156.0
1368.031494 164.0
1370.565063 192.0
1371.117676 176.0
1372.496216 164.0
1373.145142 44.0
1374.096802 152.0
1374.650146 200.0
1377.352295 176.0
1379.428711 172.0
1380.456421 132.0
1380.863159 184.0
1381.484497 184.0
1382.039429 136.0
1383.519653 160.0
1385.156128 172.0
1388.283936 164.0
1388.610229 192.0
1389.619019 164.0
1390.739624 152.0
1395.902954 68.0
1396.817749 128.0
1396.959106 128.0
1397.271484 200.0
1400.278809 164.0
1402.148804 148.0
1411.64502 164.0
1412.781738 148.0
1413.791748 200.0
1414.974487 132.0
1416.299927 88.0
1417.11145 136.0
1418.667847 168.0
1419.155151 132.0
1421.270386 144.0
1422.80896 204.0
1425.542969 136.0
1425.670776 264.0
1426.264526 148.0
1428.460205 188.0
1429.250122 168.0
1429.468384 180.0
1432.472412 108.0
1433.112793 60.0
1433.775879 172.0
1435.585205 148.0
1437.96167 172.0
1438.203125 56.0
1438.323975 244.0
1438.905151 148.0
1439.290283 148.0
1440.09082 80.0
1440.785767 188.0
1441.367554 152.0
1446.442261 228.0
1446.950439 188.0
1448.229248 156.0
1451.67749 52.0
1454.469482 104.0
1454.856689 192.0
1455.570312 160.0
1455.919678 84.0
1457.446533 180.0
1459.217407 128.0
1461.111206 84.0
1461.179688 104.0
1461.666626 152.0
1463.333496 124.0
1464.308228 276.0
1465.908081 164.0
1466.677856 252.0
1469.369751 92.0
1473.523071 164.0
1474.279541 212.0
1474.478149 236.0
1474.67688 156.0
1477.804565 116.0
1477.99585 80.0
1481.61731 124.0
1481.862549 148.0
1483.050293 152.0
1483.977905 172.0
1484.526489 140.0
1485.250977 120.0
1488.420532 168.0
1488.881226 208.0
1492.446777 136.0
1493.000488 64.0
1496.247559 172.0
1497.225464 228.0
1498.835571 180.0
1500.199707 128.0
1501.703369 188.0
1501.896118 160.0
1502.065796 124.0
1502.243286 196.0
1502.451538 128.0
1504.064331 116.0
