>compound Cefoperazone (Cefobid)
>formula C25H27N9O8S2
>ionization [M+H]+
>parentmass 646.15
#inchi InChI=1S/C25H27N9O8S2/c1-3-32-8-9-33(21(39)20(32)38)24(42)27-15(12-4-6-14(35)7-5-12)18(36)26-16-19(37)34-17(23(40)41)13(10-43-22(16)34)11-44-25-28-29-30-31(25)2/h4-7,15-16,22,35H,3,8-11H2,1-2H3,(H,26,36)(H,27,42)(H,40,41)/t15-,16-,22-/m1/s1
#inchikey GCFBRXLSHGKWDP
#Ion_Source LC-ESI
#Instrument qTof
#Compound_Source Commercial
#PI Dorrestein
#Data_Collector Garg_Neha
#Scan -1
#Precursor_MZ 646.15
#ExactMass 645.142
#Charge 1
#CAS_Number 62893-19-0
#Pubmed_ID N/A
#Smiles C1(CS[C@]2(N(C=1C(=O)O)C([C@H]2NC(=O)[C@@H](C3=CC=C(C=C3)O)NC(N4C(C(N(CC4)CC)=O)=O)=O)=O)[H])CSC5=NN=NN5C
#INCHI_AUX N/A
#Library_Class 1
#SpectrumID CCMSLIB00000078200
#IonMode Positive
#UpdateWorkflowName UPDATE-SINGLE-ANNOTATED-GOLD
#LibraryQualityString Gold
#TaskID 77f51c88eb8b467eb4a01dd2d0cb90d2
##Scan# 1094
#SpectrumFile Plate3_41_60_GG11_01_16500.mzXML
#LibraryName FDALibrary_2_04302014.mgf
#MQScore -1
#Organism FDALibrary_2_04302014
#TIC_Query 0
#RT_Query -1
#MZErrorPPM -1
#SharedPeaks 0
#MassDiff 0
#LibMZ -1
#SpecMZ 646.15
#SpecCharge 0
#internalFilename spec-00000.mgf

>collision 10
45.417355 184.0
45.531437 196.0
45.554272 260.0
45.882633 288.0
45.928482 156.0
46.818943 148.0
46.838009 160.0
46.869343 200.0
47.372112 140.0
48.464645 228.0
48.517315 164.0
49.208763 176.0
49.464596 156.0
50.126095 168.0
50.514355 160.0
50.963768 220.0
51.107376 180.0
51.189934 156.0
51.27541 180.0
51.289661 176.0
51.299641 148.0
51.376648 140.0
51.784031 152.0
51.871437 204.0
51.981869 160.0
52.020622 192.0
52.092422 204.0
52.25631 204.0
53.09412 172.0
53.298801 156.0
53.885983 168.0
54.460957 152.0
54.842777 140.0
55.996128 208.0
56.613773 152.0
57.194443 232.0
57.377079 140.0
58.390255 192.0
58.68399 208.0
59.342964 212.0
60.054966 224.0
60.752594 152.0
60.848812 148.0
61.059502 136.0
61.158161 204.0
61.45425 196.0
62.305958 168.0
62.442711 148.0
62.603233 140.0
62.984905 176.0
63.131889 144.0
64.03138 164.0
64.16877 200.0
65.590736 216.0
65.829514 144.0
66.070343 188.0
66.133453 188.0
66.38781 156.0
67.807793 172.0
68.047287 172.0
68.380981 208.0
69.011139 208.0
69.239494 240.0
69.878571 184.0
70.048378 164.0
70.505112 156.0
70.851906 176.0
71.019539 152.0
71.34362 160.0
71.535393 144.0
72.107155 180.0
73.009117 176.0
73.300209 236.0
73.665321 148.0
74.576912 168.0
74.76265 152.0
74.821449 124.0
74.847 200.0
75.43013 148.0
75.603088 256.0
76.26696 216.0
76.434296 160.0
77.555496 160.0
77.59581 176.0
77.662445 220.0
77.806343 156.0
77.967941 176.0
78.670731 148.0
79.586044 144.0
79.866829 148.0
81.141869 192.0
81.930832 164.0
82.479408 340.0
83.214905 172.0
83.278465 156.0
84.955994 148.0
85.134033 152.0
85.498032 152.0
85.903381 212.0
85.982719 144.0
86.468781 148.0
88.752686 160.0
89.794487 180.0
89.886925 196.0
89.977524 208.0
90.049278 164.0
90.259048 204.0
90.380104 156.0
90.66983 196.0
91.492302 164.0
91.597038 248.0
91.852463 152.0
92.289795 216.0
92.335693 164.0
93.644623 204.0
94.045662 160.0
94.192413 212.0
95.33358 164.0
95.358841 220.0
95.463829 172.0
95.853149 184.0
95.977898 164.0
96.131996 164.0
96.786835 236.0
96.827957 256.0
97.900238 144.0
98.132751 160.0
98.385284 160.0
98.515625 180.0
99.047737 236.0
99.364922 148.0
99.760124 180.0
100.497002 148.0
101.244606 208.0
102.087463 184.0
102.224251 164.0
102.776367 152.0
103.534416 184.0
104.814194 140.0
104.98951 184.0
105.1017 144.0
105.375298 176.0
105.575615 220.0
105.83242 124.0
107.059349 160.0
107.68837 212.0
107.73381 168.0
107.760666 216.0
108.068733 152.0
108.435265 152.0
108.79203 160.0
108.99765 248.0
109.070389 144.0
109.519829 140.0
110.477959 160.0
110.718666 184.0
110.944954 248.0
111.280632 144.0
111.513802 152.0
111.614716 152.0
112.02301 176.0
112.038948 284.0
112.784767 140.0
113.496086 212.0
113.540619 144.0
114.554474 356.0
114.603477 156.0
114.803848 188.0
115.051353 688.0
115.211517 140.0
115.553581 164.0
115.874733 156.0
116.355141 200.0
117.940613 188.0
118.353813 148.0
118.5401 172.0
118.702682 196.0
118.798111 168.0
119.314964 164.0
120.050919 168.0
121.030701 232.0
121.698616 180.0
122.032585 192.0
122.058968 260.0
122.129341 160.0
122.316376 172.0
122.750397 160.0
123.366386 188.0
123.401764 164.0
123.543304 176.0
123.713699 204.0
125.07222 148.0
125.776581 152.0
125.801132 148.0
127.330444 176.0
127.44725 180.0
129.104065 140.0
129.19455 148.0
129.43219 204.0
129.672318 140.0
129.756195 140.0
130.32132 180.0
130.394043 176.0
130.494064 172.0
130.519073 212.0
130.572586 112.0
130.874023 176.0
131.640182 240.0
131.907501 172.0
131.92807 196.0
132.307831 152.0
132.361389 172.0
132.406281 184.0
132.509369 168.0
133.030746 172.0
133.271103 168.0
134.032181 124.0
134.059555 128.0
134.240173 148.0
134.290909 160.0
134.882202 188.0
134.974472 156.0
135.36116 148.0
136.507233 140.0
136.563049 212.0
137.866302 148.0
138.622162 192.0
139.0392 148.0
139.1147 212.0
139.535217 208.0
140.014435 224.0
140.135376 172.0
140.576309 196.0
141.022659 168.0
141.048401 688.0
141.301697 140.0
142.051453 288.0
142.197403 164.0
142.465729 204.0
142.484726 176.0
142.78186 228.0
142.89296 192.0
143.049469 208.0
143.082611 50312.0
143.19812 124.0
144.021683 232.0
144.084885 2540.0
144.205933 168.0
144.865601 140.0
145.087296 344.0
145.349899 160.0
145.746094 164.0
146.078842 168.0
146.202972 160.0
146.508774 156.0
147.167191 164.0
147.964874 172.0
148.040192 15200.0
149.042404 640.0
149.654861 140.0
149.969116 240.0
150.000198 144.0
150.0522 564.0
150.295898 140.0
150.361786 144.0
150.67923 144.0
151.029663 312.0
152.057907 144.0
153.01651 196.0
153.045044 196.0
153.19136 176.0
156.011978 2552.0
157.017899 160.0
157.575104 144.0
157.875046 156.0
158.026672 1676.0
158.259323 100.0
158.886978 248.0
159.025528 260.0
159.070175 192.0
160.867523 148.0
161.286835 176.0
161.413239 152.0
161.463821 156.0
162.023224 204.0
162.062866 204.0
163.06105 232.0
164.163376 156.0
164.255188 196.0
166.803055 256.0
167.026154 568.0
168.034012 204.0
170.026474 172.0
170.746109 168.0
171.730591 152.0
175.05899 176.0
175.095856 188.0
175.960754 140.0
177.548401 160.0
178.031387 172.0
179.895172 164.0
180.694229 196.0
182.741333 216.0
183.018448 180.0
184.024261 144.0
184.840546 236.0
185.037979 768.0
185.336075 324.0
185.834961 144.0
185.967926 152.0
186.03746 116.0
186.088333 4988.0
187.090744 376.0
187.850876 160.0
187.935455 172.0
188.088272 364.0
189.039383 176.0
189.488419 168.0
190.051941 372.0
191.053299 196.0
193.008743 216.0
193.927841 180.0
195.019165 184.0
195.939713 164.0
196.02887 176.0
197.029099 224.0
199.370209 152.0
202.105484 156.0
203.027954 184.0
203.080002 200.0
203.116867 168.0
205.11586 176.0
205.18428 236.0
206.024475 440.0
207.689301 140.0
208.059479 176.0
208.576553 220.0
209.802856 204.0
210.46933 200.0
210.992279 200.0
211.019989 444.0
212.08136 176.0
213.108002 144.0
213.811707 180.0
214.02153 148.0
214.044586 204.0
215.038254 136.0
216.588318 148.0
218.067108 160.0
218.681808 140.0
219.035141 152.0
221.001312 148.0
223.017746 1112.0
223.472855 168.0
224.012421 284.0
224.763016 224.0
225.064484 148.0
226.02977 268.0
230.059174 168.0
233.05069 148.0
233.253235 148.0
234.021378 196.0
235.245438 216.0
236.085022 1484.0
237.04689 168.0
237.082489 140.0
238.090256 176.0
238.64917 140.0
240.065613 184.0
240.713638 160.0
243.032059 152.0
243.081696 204.0
243.416946 140.0
243.898499 216.0
245.074234 624.0
246.076035 200.0
246.794647 196.0
247.07222 208.0
248.351059 208.0
248.768402 160.0
253.211151 212.0
253.746674 192.0
254.035339 176.0
254.790817 144.0
255.067276 160.0
256.050507 188.0
256.391327 160.0
258.540588 156.0
262.121155 220.0
262.437042 176.0
263.09845 236.0
266.023529 608.0
267.025696 240.0
271.052582 264.0
272.097992 188.0
273.067108 460.0
274.049866 156.0
274.113739 112.0
274.179321 204.0
275.125977 468.0
276.123871 192.0
280.110168 188.0
282.092316 160.0
282.430054 196.0
287.071503 192.0
288.067169 168.0
289.061462 264.0
289.298065 204.0
290.052734 216.0
290.113922 11500.0
290.217224 120.0
290.295441 120.0
291.023041 140.0
291.11731 2476.0
292.115173 300.0
292.192902 148.0
293.089722 100.0
297.095367 328.0
298.761505 148.0
298.847534 168.0
298.912903 148.0
300.025513 128.0
300.106506 164.0
301.071594 156.0
302.062836 164.0
305.841553 192.0
311.109467 140.0
312.019348 168.0
314.067017 340.0
316.076508 340.0
316.1604 148.0
317.055176 588.0
317.12738 136.0
317.694611 228.0
318.052948 180.0
318.109161 5212.0
318.713562 164.0
319.049561 148.0
319.109741 1104.0
320.115967 196.0
320.378601 152.0
320.781311 208.0
322.198029 160.0
327.046356 124.0
328.841156 200.0
329.133392 168.0
333.942535 156.0
335.065369 144.0
338.848663 144.0
341.896362 200.0
343.443787 232.0
344.060974 204.0
345.055817 1780.0
345.120605 1936.0
345.198029 156.0
346.064178 528.0
346.122528 672.0
351.113861 144.0
351.886292 156.0
357.113281 144.0
360.065125 1664.0
361.070679 488.0
362.070557 312.0
363.058411 172.0
365.190125 224.0
368.165527 164.0
368.665985 152.0
369.491882 216.0
375.130646 3248.0
376.005035 200.0
376.135132 1204.0
377.132111 180.0
379.412811 176.0
382.034149 180.0
387.993622 164.0
388.060913 3464.0
388.138062 208.0
389.062927 968.0
390.059998 228.0
391.073303 180.0
392.168243 140.0
392.278625 180.0
409.327698 144.0
410.152466 272.0
413.534302 168.0
415.000732 192.0
418.755585 160.0
424.12851 164.0
425.133331 340.0
428.10965 192.0
440.131927 292.0
443.406677 176.0
456.117249 132.0
457.583221 160.0
458.126282 148.0
459.138519 140.0
466.11203 180.0
468.123962 332.0
470.112457 148.0
478.578156 152.0
484.133667 280.0
486.008667 172.0
486.133606 304.0
486.748077 212.0
487.162781 128.0
493.085297 148.0
494.885712 168.0
498.012085 208.0
502.140808 1156.0
503.148651 648.0
503.199982 144.0
504.084595 168.0
504.123596 196.0
505.577972 148.0
505.819305 96.0
512.126526 340.0
513.124268 264.0
513.169312 156.0
514.134644 228.0
518.390076 164.0
518.924927 144.0
527.512695 108.0
527.873474 144.0
528.238098 156.0
528.640747 172.0
528.910767 148.0
529.734985 176.0
529.812866 148.0
529.970886 140.0
530.047791 188.0
530.133911 19868.0
530.717224 100.0
530.889221 144.0
531.136963 5424.0
531.645203 108.0
531.777466 108.0
531.91864 124.0
532.135315 888.0
532.768799 144.0
533.138123 316.0
534.337402 112.0
534.393677 152.0
534.982117 168.0
619.305725 196.0
640.086731 164.0
646.176147 196.0
646.629272 204.0
647.152588 148.0
648.178894 144.0
923.03894 140.0
1023.227173 172.0
1123.18689 176.0
1136.520142 176.0
1185.090088 156.0
1219.651367 160.0
1263.395874 148.0
1263.990112 228.0
1355.423584 160.0
1362.584717 144.0
1382.959473 172.0
1385.262329 208.0
1387.2854 172.0
1404.716187 204.0
1409.382202 236.0
1412.634399 200.0
1418.220337 156.0
1431.593384 156.0
1439.442627 172.0
1442.631836 200.0
1443.123169 168.0
1447.330078 144.0
1447.519409 224.0
1457.752441 148.0
1479.038574 216.0
1482.684204 180.0
1493.994507 168.0
1501.465942 140.0
1512.971313 176.0
1515.248169 200.0
1559.471069 184.0
1561.011963 220.0
1562.065796 180.0
1567.939575 172.0
1568.916992 176.0
1573.192627 140.0
1575.656616 164.0
1579.213867 168.0
1590.330078 180.0
1590.806274 156.0
1607.296875 216.0
1619.977051 200.0
1624.530273 184.0
1626.881592 248.0
1650.900391 164.0
1660.626953 160.0
1692.384399 216.0
1699.408569 312.0
1716.69873 180.0
1718.612427 140.0
1725.500732 200.0
1744.560059 192.0
1749.110229 156.0
1754.391602 196.0
1759.054688 156.0
1761.843872 196.0
1766.65918 184.0
1773.039429 172.0
1779.296875 212.0
1786.339233 176.0
1788.13147 156.0
1802.408447 184.0
1808.835938 188.0
1813.494629 140.0
1815.486938 252.0
1817.913208 180.0
1819.143799 148.0
1823.917725 152.0
1837.150635 140.0
1841.871216 140.0
1842.913452 144.0
1843.733765 212.0
1850.294434 160.0
1854.020508 176.0
1856.858154 192.0
1862.437012 184.0
1865.074951 140.0
1876.463989 172.0
1877.524536 188.0
1878.663086 228.0
1885.337402 140.0
1886.270874 184.0
1889.877197 164.0
1893.980591 192.0
1894.699585 172.0
1895.462036 196.0
1897.958374 260.0
1899.597534 160.0
1900.144043 204.0
1903.320801 204.0
1913.798218 188.0
1919.958984 148.0
1930.272217 164.0
1930.998047 184.0
1933.062744 252.0
1939.93811 172.0
1942.261841 144.0
1943.463623 152.0
1966.926025 144.0
1968.515137 232.0
1970.900146 184.0
1973.330688 152.0
1973.878906 188.0
1976.382202 172.0
1979.790161 188.0
