>compound NCGC00160206-01!PEUARENARINE
>formula C24H26O8
>ionization [M+H]+
>parentmass 443.168335
#inchi InChI=1S/C24H26O8/c1-7-12(2)21(26)30-20-19(29-22(27)24(6)13(3)31-24)15-10-14-8-9-18(25)28-16(14)11-17(15)32-23(20,4)5/h7-11,13,19-20H,1-6H3/b12-7+
#inchikey SHZIIRHXBSCNRY
#Ion_Source LC-ESI
#Instrument qTOF
#Compound_Source Prestwick Phytochem Lib
#PI Dorrestein
#Data_Collector VVP/LMS
#Scan -1
#Precursor_MZ 443.171
#ExactMass 442.163
#Charge 1
#CAS_Number N/A
#Pubmed_ID N/A
#Smiles C\C=C(/C)C(=O)OC1C(OC(=O)C2(C)OC2C)C3=C(OC1(C)C)C=C4OC(=O)C=CC4=C3
#INCHI_AUX N/A
#Library_Class 1
#SpectrumID CCMSLIB00000078815
#IonMode Positive
#UpdateWorkflowName UPDATE-SINGLE-ANNOTATED-GOLD
#LibraryQualityString Gold
#TaskID 67c915c6594c435cadc1fe2b5358144d
##Scan# 2533
#SpectrumFile p1-G04_GG4_01_17948.mzXML
#LibraryName phytochem_lib.mgf
#MQScore -1
#Organism phytochem_lib
#TIC_Query 0
#RT_Query -1
#MZErrorPPM -1
#SharedPeaks 0
#MassDiff 0
#LibMZ -1
#SpecMZ 443.171
#SpecCharge 0
#internalFilename spec-00000.mgf

>collision 10
95.085724 204.0
95.198318 160.0
95.41011 144.0
95.525993 88.0
95.684418 200.0
96.109314 148.0
96.183472 128.0
96.259613 156.0
96.316246 136.0
96.386581 164.0
96.658379 148.0
96.754288 116.0
96.973679 156.0
97.234528 120.0
97.729935 172.0
97.78286 144.0
97.834038 180.0
97.857658 140.0
97.89901 100.0
97.960068 208.0
97.97583 300.0
98.084213 216.0
98.099983 180.0
98.431442 160.0
98.55983 188.0
98.737747 68.0
98.801041 168.0
98.862381 148.0
98.961349 192.0
99.318062 44.0
99.3498 200.0
99.371628 80.0
99.667465 220.0
99.824501 100.0
100.138939 132.0
100.282394 200.0
101.127251 108.0
101.145264 228.0
101.33551 56.0
101.411659 124.0
101.554016 120.0
101.845055 168.0
101.989723 132.0
102.011833 224.0
102.033943 172.0
102.096283 224.0
102.492844 184.0
102.791679 236.0
102.918442 164.0
103.051987 396.0
103.080032 176.0
103.320641 192.0
103.391457 152.0
103.500771 156.0
103.764168 152.0
103.820946 116.0
104.060432 160.0
104.198486 44.0
104.605751 168.0
104.731461 156.0
104.778313 124.0
104.839439 264.0
105.071693 208.0
105.131065 196.0
105.421043 168.0
105.703239 116.0
105.740082 124.0
106.266716 248.0
106.377541 172.0
106.495605 184.0
106.673347 44.0
106.83992 124.0
106.881065 32.0
107.048836 688.0
107.086929 132.0
107.332161 132.0
107.40641 164.0
107.645813 220.0
108.050934 208.0
108.148193 148.0
108.245491 32.0
108.413284 104.0
108.427795 88.0
108.479614 256.0
108.67041 72.0
108.819847 112.0
108.867607 116.0
109.035881 136.0
109.114868 48.0
109.129425 192.0
109.383224 208.0
109.476921 180.0
109.689438 120.0
109.779083 148.0
109.802025 208.0
110.067055 104.0
110.117172 68.0
110.165215 128.0
110.43277 112.0
110.86615 176.0
110.965401 204.0
111.040154 200.0
111.243683 160.0
111.550377 184.0
112.03228 204.0
112.074417 148.0
112.399139 84.0
112.625031 204.0
112.821175 68.0
112.994972 200.0
113.047867 212.0
113.106483 196.0
113.274414 192.0
113.359161 140.0
113.437576 156.0
114.474403 140.0
114.516998 224.0
114.695976 156.0
115.049873 660.0
115.323509 100.0
115.612228 140.0
115.648613 128.0
115.824188 152.0
115.922745 164.0
116.057785 164.0
116.111397 92.0
116.132843 108.0
116.184326 140.0
116.210068 108.0
116.302345 184.0
116.338844 128.0
116.37104 172.0
116.596596 132.0
116.635277 188.0
117.028633 180.0
117.06546 148.0
117.13665 144.0
117.168961 164.0
117.354309 208.0
117.500977 148.0
117.658516 208.0
117.814011 108.0
118.008522 164.0
118.168571 100.0
118.430504 180.0
118.449997 112.0
118.480331 172.0
118.634193 140.0
119.044899 164.0
119.068153 120.0
119.089874 192.0
119.328911 156.0
119.411545 44.0
119.685738 48.0
119.999496 244.0
120.025658 124.0
120.054008 284.0
120.071449 248.0
120.095444 96.0
120.117256 136.0
120.53862 152.0
120.711311 136.0
120.875374 132.0
120.897255 56.0
121.027641 360.0
121.100861 148.0
121.184105 164.0
121.453743 160.0
121.793968 164.0
121.82692 136.0
122.119263 140.0
122.400955 200.0
122.422974 176.0
122.654549 224.0
122.671951 268.0
122.989586 220.0
123.360687 140.0
123.469032 132.0
123.495567 68.0
123.641594 148.0
123.701355 148.0
123.745628 160.0
124.086823 88.0
124.177742 96.0
124.386314 216.0
124.447098 136.0
124.515633 196.0
124.559509 172.0
124.735054 228.0
124.846222 88.0
124.888481 60.0
125.008621 124.0
125.262436 200.0
125.420639 188.0
125.641403 132.0
126.038826 140.0
126.291443 184.0
127.003716 180.0
127.02166 156.0
127.054161 188.0
127.111397 192.0
127.255051 188.0
127.477425 204.0
127.522369 128.0
127.625778 156.0
127.778725 204.0
127.805725 160.0
127.837227 176.0
127.992546 144.0
128.059784 776.0
128.560608 152.0
128.770569 192.0
128.799927 180.0
128.867691 144.0
128.940002 84.0
129.069641 808.0
129.123138 128.0
129.265656 204.0
129.415054 148.0
129.677826 152.0
129.732224 168.0
130.065689 104.0
130.083847 144.0
130.197372 196.0
130.347305 124.0
130.43367 40.0
130.608749 44.0
131.049362 692.0
131.08403 388.0
131.166626 220.0
131.20993 104.0
131.260101 148.0
131.74852 176.0
131.7668 184.0
131.876495 116.0
132.052536 472.0
132.079987 180.0
132.204605 144.0
132.324844 120.0
132.434769 68.0
132.618073 184.0
132.647858 140.0
133.0233 508.0
133.063431 188.0
133.193985 124.0
133.460571 144.0
133.554871 136.0
133.596268 240.0
133.669891 48.0
133.743546 180.0
133.761948 180.0
133.82872 124.0
133.943863 96.0
134.033844 168.0
134.070587 100.0
134.178925 176.0
134.474182 136.0
134.594223 148.0
134.626556 56.0
134.980118 156.0
135.039307 176.0
135.102692 144.0
135.324875 188.0
135.542603 40.0
135.846313 40.0
136.048218 208.0
136.150375 220.0
136.185211 64.0
136.222382 180.0
136.471054 328.0
137.024979 128.0
137.057602 216.0
137.26506 108.0
137.393448 88.0
137.657089 176.0
138.109161 148.0
138.152588 192.0
138.2883 192.0
138.438141 156.0
138.459213 68.0
138.759155 52.0
138.892822 156.0
139.115738 100.0
139.174438 52.0
139.212006 240.0
139.416382 124.0
139.75264 132.0
139.900909 200.0
140.059143 208.0
140.195328 144.0
140.273117 160.0
140.317902 180.0
140.737869 180.0
140.997726 132.0
141.028442 188.0
141.065353 236.0
141.21524 72.0
141.262543 112.0
141.438263 184.0
141.499191 192.0
141.518143 156.0
141.674042 116.0
142.076202 172.0
142.362289 184.0
142.740128 116.0
142.859039 148.0
142.908997 56.0
143.048981 320.0
143.084747 1788.0
143.151794 176.0
143.492523 120.0
143.606995 108.0
144.051819 200.0
144.087067 308.0
144.266037 108.0
144.282761 204.0
144.402328 212.0
144.778061 240.0
144.871475 184.0
144.955338 84.0
144.978806 212.0
145.029297 644.0
145.065399 340.0
145.101898 188.0
145.13031 96.0
145.151901 112.0
145.400467 220.0
145.600281 168.0
145.713547 184.0
146.028442 96.0
146.074677 164.0
146.33165 200.0
147.002151 212.0
147.043976 1692.0
147.079239 252.0
147.103104 120.0
147.291412 212.0
147.376007 132.0
148.047638 428.0
148.155045 44.0
148.237427 184.0
148.281052 148.0
148.414383 68.0
148.528366 248.0
148.572021 208.0
148.591431 56.0
148.74675 76.0
148.831726 112.0
148.919144 140.0
148.987152 60.0
149.062485 52.0
149.091644 112.0
149.39801 220.0
150.082382 196.0
150.104324 60.0
150.184799 88.0
150.240906 60.0
150.294586 116.0
150.350708 124.0
150.46788 180.0
150.589966 88.0
150.726776 132.0
150.856308 112.0
150.912537 72.0
151.044601 220.0
151.291748 120.0
151.480316 32.0
151.661636 172.0
151.877411 104.0
152.07254 212.0
152.465347 164.0
152.651031 216.0
152.934967 184.0
153.034882 140.0
153.066589 300.0
153.604248 144.0
153.722595 108.0
153.944763 180.0
154.078903 104.0
154.513275 160.0
154.877167 176.0
154.988647 148.0
155.059814 156.0
155.084564 520.0
155.191895 172.0
155.25885 184.0
155.330765 96.0
155.765045 168.0
156.055771 308.0
156.083878 136.0
156.10318 192.0
156.257401 252.0
156.299698 168.0
156.389282 184.0
156.466446 72.0
156.511261 120.0
156.633301 140.0
156.730453 136.0
156.839859 120.0
156.912781 132.0
157.009659 180.0
157.064255 432.0
157.088593 248.0
157.19426 152.0
157.711227 176.0
157.728729 196.0
157.848724 160.0
158.073853 240.0
158.414368 112.0
158.96344 180.0
159.039078 172.0
159.071014 172.0
159.345093 152.0
159.455658 104.0
159.83287 224.0
159.895798 144.0
160.047287 88.0
160.079559 148.0
160.218094 152.0
160.407089 120.0
160.472641 132.0
160.588638 156.0
161.01593 172.0
161.057236 608.0
161.09436 512.0
161.28804 144.0
161.45491 48.0
162.029739 172.0
162.097916 128.0
162.138458 204.0
162.258911 200.0
162.336197 108.0
162.742188 160.0
162.772659 172.0
162.993652 228.0
163.036285 400.0
163.352127 176.0
163.749207 168.0
163.774673 192.0
163.986145 68.0
164.475861 48.0
164.496292 120.0
164.7491 128.0
165.064484 112.0
165.693115 140.0
165.762299 124.0
166.205902 104.0
166.257217 372.0
166.408234 164.0
166.47287 216.0
166.524231 128.0
166.639816 176.0
166.673218 164.0
166.719482 124.0
166.914841 188.0
167.091766 188.0
167.180771 212.0
167.455276 84.0
167.578918 88.0
167.916611 208.0
167.934662 144.0
168.052963 448.0
168.505157 136.0
168.807571 188.0
169.064041 200.0
169.181885 196.0
169.224167 180.0
169.444382 164.0
169.498718 108.0
169.672379 164.0
169.73201 72.0
169.942108 100.0
170.26384 140.0
170.272568 132.0
170.282867 180.0
170.552383 72.0
170.606979 92.0
170.812408 132.0
170.952911 152.0
171.039642 148.0
171.079025 2152.0
171.343475 44.0
171.366928 60.0
171.572815 104.0
171.606705 104.0
171.716232 124.0
171.883194 92.0
172.053986 136.0
172.080185 460.0
172.483871 244.0
172.530914 168.0
172.570145 160.0
172.745361 84.0
172.886642 108.0
172.918045 184.0
172.999191 160.0
173.054871 312.0
173.092865 684.0
173.221786 180.0
173.261078 84.0
173.386856 172.0
173.730347 208.0
173.992767 36.0
174.060425 224.0
174.1035 372.0
174.267807 172.0
174.310577 216.0
174.436737 176.0
174.721863 200.0
174.844421 128.0
175.036118 1836.0
175.072144 500.0
175.176178 200.0
175.23941 36.0
175.257843 72.0
175.349365 176.0
175.471344 72.0
175.568909 80.0
175.613739 136.0
175.648026 180.0
175.772018 100.0
175.795776 196.0
175.851196 108.0
175.901352 148.0
175.933029 404.0
176.045334 6416.0
176.281662 172.0
176.413818 56.0
176.458755 60.0
176.63176 96.0
176.715317 44.0
176.73912 136.0
176.810577 156.0
176.882034 116.0
176.937622 52.0
177.003815 56.0
177.049347 992.0
177.107101 60.0
177.186569 120.0
177.223663 156.0
177.332321 40.0
177.411835 76.0
177.555023 48.0
177.753983 176.0
177.812363 192.0
178.056625 344.0
178.088486 160.0
178.136307 140.0
178.18222 184.0
178.200989 80.0
178.271805 80.0
178.348877 128.0
178.420654 156.0
178.44458 120.0
179.080582 140.0
179.389664 156.0
179.426987 152.0
179.536316 132.0
179.688354 156.0
179.9953 188.0
180.06076 148.0
180.147537 128.0
180.33725 172.0
180.468246 104.0
180.682205 48.0
180.711639 156.0
180.861496 80.0
181.061066 356.0
181.174805 112.0
181.217667 152.0
181.239105 40.0
181.292694 184.0
181.767334 184.0
181.815643 104.0
181.904221 60.0
182.068146 148.0
182.105591 128.0
182.522141 52.0
182.677444 156.0
182.723862 160.0
183.078522 1524.0
183.119568 88.0
183.143814 104.0
183.200378 92.0
183.267731 52.0
183.294678 48.0
183.316238 96.0
183.612778 56.0
183.836685 148.0
184.048492 500.0
184.078186 260.0
184.252502 160.0
184.279526 176.0
184.322098 200.0
184.379501 68.0
184.756393 228.0
184.787811 184.0
184.808289 248.0
184.844635 188.0
184.947479 88.0
185.017853 180.0
185.057556 4440.0
185.118042 36.0
185.196579 116.0
186.029037 188.0
186.059784 684.0
186.124054 44.0
186.159363 152.0
186.248978 220.0
186.284302 164.0
186.436447 172.0
186.485367 88.0
186.60498 136.0
186.675674 140.0
186.724625 172.0
186.806229 172.0
186.923218 108.0
186.944992 188.0
187.037323 3004.0
187.070663 520.0
187.097809 204.0
187.149139 112.0
187.249893 44.0
187.350677 60.0
187.371658 120.0
187.486923 88.0
187.519623 136.0
187.707733 56.0
187.831451 176.0
187.915024 84.0
188.035034 528.0
188.041 240.0
188.075882 144.0
188.19342 128.0
188.2453 204.0
188.29718 48.0
188.324493 100.0
188.346344 140.0
188.513 220.0
188.55127 244.0
188.873901 44.0
189.017517 5700.0
189.05101 648.0
189.090958 304.0
189.16394 60.0
189.311798 188.0
189.380264 56.0
189.407654 228.0
189.485458 120.0
189.580261 144.0
189.621368 40.0
189.714569 36.0
190.020798 448.0
190.055817 140.0
190.088181 216.0
190.139709 196.0
190.356583 184.0
190.381302 196.0
190.521393 100.0
190.551605 44.0
190.609314 80.0
190.807205 88.0
190.895187 184.0
191.033539 7168.0
191.068466 180.0
191.123505 36.0
191.189545 148.0
191.21431 64.0
191.307892 108.0
191.495132 56.0
191.781677 80.0
191.836807 148.0
192.035553 620.0
192.079483 48.0
192.153961 220.0
192.444519 160.0
192.753113 148.0
192.935532 212.0
192.988068 100.0
193.032852 204.0
193.062729 108.0
193.275726 116.0
193.414108 128.0
193.508224 68.0
193.552521 168.0
194.040619 196.0
194.081207 160.0
194.259262 168.0
194.665237 116.0
195.089569 100.0
195.456696 132.0
195.484528 56.0
195.629257 116.0
196.094421 52.0
197.055695 192.0
197.306625 168.0
197.389771 168.0
198.061447 160.0
198.081055 108.0
198.386505 176.0
198.411728 92.0
198.528275 228.0
198.593994 224.0
199.032196 304.0
199.074326 2020.0
199.453201 212.0
199.495361 64.0
199.661255 240.0
199.908813 168.0
199.931335 108.0
200.001694 64.0
200.04541 400.0
200.075455 712.0
200.125565 52.0
200.488937 112.0
200.511475 240.0
200.559402 156.0
200.624237 184.0
200.818802 168.0
200.906235 52.0
201.014984 180.0
201.054657 2216.0
201.081635 184.0
201.093964 196.0
201.338089 36.0
201.371994 164.0
201.41153 136.0
201.462372 72.0
201.572662 112.0
201.632797 44.0
201.702576 92.0
201.829788 88.0
201.866547 124.0
201.891998 140.0
202.017883 140.0
202.060745 564.0
202.203201 144.0
202.285278 76.0
202.409851 152.0
202.457993 96.0
202.545792 192.0
202.636444 56.0
202.741287 232.0
203.002106 200.0
203.032135 816.0
203.064255 424.0
203.095688 40.0
203.126892 132.0
203.158096 132.0
203.370911 136.0
203.609406 152.0
203.697449 40.0
203.973083 168.0
204.030762 444.0
204.79541 132.0
204.818192 148.0
204.906509 56.0
204.932144 88.0
204.963486 180.0
205.047989 828.0
205.111679 68.0
205.182953 124.0
205.582275 84.0
205.756393 72.0
206.046829 312.0
206.133423 108.0
206.193436 92.0
206.848419 136.0
206.919983 140.0
207.02449 828.0
207.053818 92.0
207.065079 168.0
207.103256 164.0
207.323868 64.0
207.401245 44.0
207.490112 212.0
207.989258 104.0
208.025986 288.0
208.141418 40.0
208.770737 192.0
208.989349 52.0
209.02388 100.0
209.058411 172.0
209.130371 236.0
209.334778 144.0
209.366455 76.0
209.406128 152.0
209.911102 56.0
210.603729 72.0
210.664398 144.0
210.996735 196.0
211.07251 1124.0
211.116394 156.0
211.268585 84.0
211.50267 188.0
212.046448 276.0
212.076233 288.0
212.183731 168.0
212.38092 80.0
212.453445 200.0
212.717514 28.0
212.944 92.0
213.013702 176.0
213.053116 7044.0
213.103775 112.0
213.158981 180.0
213.188034 92.0
213.254883 64.0
213.324646 40.0
213.3479 56.0
213.382782 100.0
213.522354 96.0
213.551437 36.0
213.641617 132.0
213.702713 76.0
213.784195 144.0
213.958832 188.0
214.056488 1156.0
214.113159 168.0
214.200531 40.0
214.398651 40.0
214.433624 84.0
214.5065 128.0
214.728104 64.0
214.777679 156.0
214.996506 200.0
215.06601 2112.0
215.154114 132.0
215.276749 76.0
215.478287 116.0
215.545502 140.0
215.609787 132.0
215.717926 104.0
215.758865 156.0
215.817337 136.0
215.881668 152.0
216.039612 168.0
216.084137 128.0
216.147858 100.0
216.320541 116.0
216.797943 136.0
216.875015 284.0
217.038788 260.0
217.084381 15736.0
217.152695 108.0
217.180649 180.0
217.231888 104.0
217.296432 84.0
217.331329 76.0
217.465286 96.0
217.495972 60.0
217.557617 60.0
217.59285 124.0
217.704681 152.0
217.823456 168.0
217.857162 172.0
217.883606 36.0
217.94693 180.0
218.009949 200.0
218.088257 2508.0
218.210709 80.0
218.248047 36.0
218.29216 32.0
218.33197 104.0
218.489227 104.0
218.512756 68.0
218.892456 136.0
218.989639 208.0
219.06189 276.0
219.083481 140.0
219.088013 380.0
219.122192 312.0
219.225327 56.0
219.402176 32.0
219.490631 100.0
219.511261 208.0
219.641037 200.0
219.680038 72.0
219.721664 96.0
219.806244 108.0
220.006943 72.0
220.036469 56.0
220.067139 144.0
220.228409 52.0
220.455902 136.0
220.756393 80.0
220.866867 44.0
220.887573 48.0
220.928986 40.0
221.017746 116.0
221.074753 164.0
221.106522 116.0
221.817368 108.0
222.084229 148.0
222.211792 176.0
222.802597 120.0
222.954132 168.0
222.983856 68.0
223.175308 236.0
223.409058 76.0
223.703674 212.0
223.748322 204.0
223.772141 160.0
223.953796 144.0
224.719925 120.0
224.806458 152.0
224.916885 76.0
224.943741 76.0
225.083862 120.0
226.342941 116.0
226.435776 92.0
226.900223 120.0
226.948044 228.0
226.999176 84.0
227.069427 14580.0
227.143127 112.0
227.168274 168.0
227.217087 116.0
227.339035 64.0
227.386169 100.0
227.472015 160.0
227.534149 80.0
227.557266 68.0
227.60231 92.0
227.818558 68.0
227.926971 92.0
227.958115 220.0
228.076035 7492.0
228.256317 68.0
228.278412 64.0
228.344574 128.0
228.374649 56.0
228.401718 156.0
228.440826 116.0
228.461884 60.0
228.555145 48.0
228.794556 132.0
228.88324 72.0
228.985443 188.0
228.993912 176.0
229.049393 1272.0
229.084137 9148.0
229.125412 188.0
229.20253 44.0
229.256775 76.0
229.307999 80.0
229.383362 44.0
229.482574 124.0
229.502319 96.0
229.546158 72.0
229.635529 208.0
229.733871 120.0
229.792786 84.0
230.054855 608.0
230.08725 1344.0
230.121979 264.0
230.324814 60.0
230.463776 68.0
230.542343 36.0
230.566528 80.0
230.605804 40.0
230.642075 68.0
230.672302 64.0
230.729752 88.0
230.799286 60.0
230.84465 224.0
230.883957 112.0
231.004944 76.0
231.08963 376.0
231.162277 44.0
231.324265 48.0
231.365067 64.0
231.577026 64.0
231.607315 76.0
231.661072 236.0
231.684937 64.0
231.773941 136.0
231.841309 104.0
231.943649 84.0
232.074005 104.0
232.296326 212.0
232.404617 96.0
232.632233 88.0
232.777969 80.0
233.063507 176.0
233.899841 60.0
234.108932 224.0
234.268295 88.0
234.499878 232.0
234.679733 64.0
235.103241 152.0
235.289917 96.0
235.558655 248.0
235.787811 52.0
235.962051 148.0
236.405579 224.0
236.610641 48.0
238.054825 140.0
238.088593 196.0
238.208389 196.0
239.055374 124.0
239.065369 60.0
239.074326 168.0
239.213928 72.0
239.30014 124.0
239.833069 124.0
240.147568 48.0
240.307983 176.0
240.453018 56.0
240.551788 52.0
240.940887 104.0
240.977966 120.0
241.042847 116.0
241.076843 112.0
242.054352 168.0
242.085327 144.0
242.729874 128.0
242.912857 80.0
243.068817 312.0
243.164185 68.0
243.348267 140.0
243.6082 128.0
243.794632 116.0
243.937607 140.0
244.065765 448.0
244.10463 116.0
244.330002 88.0
244.47879 136.0
244.565933 28.0
244.609512 92.0
244.636642 112.0
244.79631 132.0
244.846146 84.0
244.883514 196.0
244.932251 180.0
245.079453 26096.0
245.19989 164.0
245.240036 56.0
245.300354 68.0
245.332214 424.0
245.355759 44.0
245.40213 76.0
245.442032 36.0
245.489746 92.0
245.530411 56.0
245.570633 120.0
245.603516 164.0
245.639557 252.0
245.7005 88.0
245.737656 200.0
245.784454 56.0
245.82814 68.0
245.854797 80.0
245.912399 40.0
245.959229 152.0
245.988419 176.0
246.017624 136.0
246.081161 5160.0
246.149673 52.0
246.184021 172.0
246.294632 96.0
246.343307 44.0
246.393295 44.0
246.442001 92.0
246.546402 56.0
246.644806 148.0
246.829544 92.0
246.868393 80.0
246.909042 84.0
246.996628 76.0
247.084335 680.0
247.178085 32.0
247.300751 80.0
247.343948 136.0
247.3909 68.0
247.534927 136.0
247.610092 104.0
247.668518 128.0
247.735382 80.0
247.785507 88.0
247.813705 64.0
247.863831 120.0
248.05188 48.0
248.086365 112.0
248.249405 48.0
248.674637 44.0
248.785934 64.0
248.908371 76.0
249.071686 48.0
249.096817 136.0
249.492767 36.0
250.099884 104.0
251.906693 140.0
253.086594 264.0
254.033966 148.0
254.077606 232.0
254.376678 92.0
254.738693 152.0
255.053268 136.0
255.511185 136.0
255.778503 36.0
256.062836 172.0
256.852325 48.0
257.077332 244.0
258.078674 184.0
258.193787 60.0
258.472107 140.0
258.77298 68.0
259.098694 148.0
259.471405 84.0
259.984619 76.0
260.286377 120.0
261.078491 488.0
261.392761 104.0
261.775208 80.0
262.058655 156.0
262.081207 168.0
262.516357 188.0
263.086456 180.0
265.083069 208.0
266.101562 92.0
267.102478 116.0
269.074066 172.0
269.109985 152.0
269.237335 136.0
270.40448 116.0
271.053864 188.0
271.095337 360.0
271.301971 160.0
271.672546 108.0
272.063049 104.0
273.025787 128.0
273.075134 120.0
273.136108 148.0
275.090454 216.0
276.807617 56.0
277.596283 52.0
278.794678 60.0
279.117126 80.0
279.393188 32.0
279.905762 48.0
280.188873 108.0
281.082428 160.0
281.119141 152.0
282.087708 168.0
283.054596 72.0
283.095123 180.0
283.138336 148.0
285.154663 200.0
287.093842 192.0
287.124634 384.0
288.772339 228.0
289.059906 340.0
289.090363 136.0
289.347595 52.0
289.987823 212.0
290.078033 120.0
291.087006 128.0
291.131134 156.0
291.875336 184.0
292.106598 108.0
293.612061 132.0
295.265381 184.0
299.091492 280.0
299.217987 172.0
299.303101 72.0
302.591064 132.0
303.084778 128.0
303.114075 244.0
305.648926 88.0
307.08609 100.0
309.105255 288.0
309.138428 52.0
310.105011 112.0
311.097687 80.0
311.122253 112.0
311.687744 72.0
311.951324 120.0
313.094849 104.0
313.292084 60.0
314.378052 104.0
314.731049 164.0
315.122375 1016.0
315.250305 68.0
315.837219 72.0
316.120239 356.0
316.456512 56.0
316.612305 92.0
317.122498 92.0
318.55957 132.0
319.142426 148.0
321.643311 120.0
321.746826 140.0
322.02179 100.0
322.715057 140.0
323.115631 156.0
324.426361 176.0
325.333984 104.0
325.632019 96.0
326.598846 88.0
326.850677 228.0
327.120544 4896.0
327.286224 48.0
327.379852 96.0
327.408661 104.0
327.513123 68.0
327.642792 140.0
327.754486 64.0
327.819336 124.0
327.99234 52.0
328.123077 1644.0
328.293182 72.0
328.507996 52.0
328.659515 72.0
329.049316 64.0
329.124786 160.0
329.724792 116.0
330.047852 120.0
330.136932 92.0
330.394714 120.0
330.542084 136.0
331.023529 80.0
331.139404 52.0
331.273438 108.0
331.33139 64.0
333.152557 44.0
334.811188 40.0
334.971436 224.0
341.240417 60.0
341.696472 168.0
341.847351 116.0
341.909912 96.0
342.52478 96.0
342.620544 84.0
343.033295 152.0
343.07016 128.0
343.116943 2320.0
343.307495 76.0
343.852142 60.0
344.11853 672.0
344.853027 48.0
344.945435 36.0
345.107391 144.0
346.118225 56.0
346.570129 84.0
346.773926 44.0
346.918488 60.0
347.697418 68.0
347.753082 96.0
352.112885 72.0
352.508881 64.0
356.85318 120.0
358.148315 124.0
360.467926 108.0
367.568878 48.0
373.091888 28.0
383.02179 100.0
383.883118 52.0
387.909332 72.0
399.719482 44.0
404.396729 116.0
410.36618 104.0
418.005493 80.0
419.060089 72.0
424.307861 68.0
424.890228 104.0
431.463165 112.0
434.457367 104.0
436.658844 120.0
438.845062 84.0
442.178558 136.0
442.948975 64.0
443.168335 632.0
443.305084 112.0
443.640411 40.0
443.820679 44.0
444.179413 464.0
444.579926 56.0
445.243256 84.0
446.09198 40.0
447.871918 136.0
453.084686 40.0
454.360779 40.0
480.250641 100.0
501.981018 84.0
507.8172 84.0
511.618683 68.0
542.494568 48.0
544.489746 92.0
547.419556 72.0
553.761597 68.0
570.969666 132.0
577.32196 132.0
587.659119 76.0
604.990417 44.0
606.626587 96.0
611.336792 116.0
620.47467 84.0
633.00592 32.0
651.379761 128.0
657.326294 180.0
688.93689 52.0
752.139832 80.0
795.515625 68.0
854.478577 60.0
867.560486 76.0
876.770996 240.0
897.191101 48.0
904.850159 116.0
905.910156 88.0
906.101868 52.0
920.157166 28.0
965.790527 52.0
996.952026 80.0
1014.06781 64.0
1018.718933 104.0
1027.197998 132.0
1028.946533 168.0
1053.182129 68.0
1053.672974 72.0
1056.427002 216.0
1061.563232 176.0
1069.352661 132.0
1070.426758 152.0
1095.551514 176.0
1108.660522 172.0
1127.668091 112.0
1152.161377 40.0
1168.024048 116.0
1193.526855 96.0
1206.302124 72.0
1224.564819 144.0
1227.192017 208.0
1237.630737 200.0
1238.317017 104.0
1242.151001 112.0
1253.110962 164.0
1266.313599 56.0
1267.439941 196.0
1268.928467 164.0
1273.093506 176.0
1273.448608 148.0
1276.341064 108.0
1282.691528 176.0
1288.271729 60.0
1293.792603 132.0
1294.716309 212.0
1298.019897 208.0
1304.582153 84.0
1326.404297 184.0
1327.919678 256.0
1329.210938 124.0
1345.463623 176.0
1345.792236 20.0
1350.856812 172.0
1354.38501 140.0
1354.619507 48.0
1355.447388 176.0
1355.549927 160.0
1363.953247 144.0
1365.313477 120.0
1369.921143 144.0
1371.954956 240.0
1379.233521 104.0
1380.298096 180.0
1382.221313 212.0
1382.976196 76.0
1383.398071 32.0
1390.484131 20.0
1396.903809 160.0
1397.923218 132.0
1401.266357 152.0
1408.554932 100.0
1413.713745 248.0
1416.648682 108.0
1418.005005 184.0
1419.324341 128.0
1420.929443 136.0
1423.173584 228.0
1429.901489 200.0
1436.177612 168.0
1436.268188 244.0
1437.098022 48.0
1439.211304 176.0
1440.034546 188.0
1446.824829 168.0
1447.10498 88.0
1448.634766 260.0
1457.047974 136.0
1460.005249 260.0
1465.401611 152.0
1467.101196 140.0
1470.014771 136.0
1477.089478 140.0
1482.088745 48.0
1482.295654 144.0
1490.928711 224.0
1491.989502 160.0
1496.436279 172.0
1498.508179 28.0
1500.388672 180.0
1501.892334 252.0
1503.991089 64.0
