>compound Uvedalin
>formula C23H28O9
>ionization [M+K]+
>parentmass 487.1364905760905
#inchi InChI=1S/C23H28O9/c1-11-8-7-9-15(21(26)28-6)18(29-14(4)24)19(31-22(27)23(5)13(3)32-23)17-12(2)20(25)30-16(17)10-11/h9-10,13,16-19H,2,7-8H2,1,3-6H3/b11-10+,15-9?/t13-,16+,17-,18-,19-,23-/m0/s1
#inchikey JIEVJXRUYDZFTD
#Ion_Source DI-ESI
#Instrument qTof
#Compound_Source Isolated
#PI Norberto Lopes
#Data_Collector Monica Pupo
#Scan -1
#Precursor_MZ 487.116
#ExactMass 448.173
#Charge 1
#CAS_Number 24694-79-9
#Pubmed_ID N/A
#Smiles O=C([C@@]1([C@@H](O1)C)C)O[C@H]2[C@@H]3[C@H](OC(C3=C)=O)/C=C(C)/CCC=C(C(OC)=O)[C@@H]2OC(C)=O
#INCHI_AUX N/A
#Library_Class 3
#SpectrumID CCMSLIB00000081681
#IonMode Positive
#UpdateWorkflowName UPDATE-SINGLE-ANNOTATED-BRONZE
#LibraryQualityString Bronze
#TaskID 52bd5f0db6314c93924d5ce5c86348eb
##Scan# 1
#SpectrumFile gnps_Uvedalin_pos_MplusK.mgf
#LibraryName gnps_library.mgf
#MQScore -1
#Organism batch_27_05_V02
#TIC_Query 0
#RT_Query -1
#MZErrorPPM -1
#SharedPeaks 0
#MassDiff 0
#LibMZ -1
#SpecMZ 487.116
#SpecCharge 0
#internalFilename spec-00000.mgf

>collision 10
153.037155 401.0
201.073776 114.0
229.062531 227.0
257.055847 144.0
349.093994 307.0
371.078888 1000.0
375.071625 132.0
389.084656 658.0
412.102234 120.0
487.116089 3276.0
