>compound Sibutramine
>formula C17H26ClN
>ionization [M+H]+
>parentmass 280.18396
#inchi InChI=1S/C17H26ClN/c1-13(2)12-16(19(3)4)17(10-5-11-17)14-6-8-15(18)9-7-14/h6-9,13,16H,5,10-12H2,1-4H3
#inchikey UNAANXDKBXWMLN
#Ion_Source LC-ESI
#Instrument qTof
#Compound_Source Commercial
#PI Dorrestein
#Data_Collector Garg_Neha
#Scan -1
#Precursor_MZ 280.183
#ExactMass 279.175
#Charge 1
#CAS_Number N/A
#Pubmed_ID N/A
#Smiles CC(C)CC(N(C)C)C1(CCC1)c2ccc(Cl)cc2
#INCHI_AUX N/A
#Library_Class 1
#SpectrumID CCMSLIB00000079253
#IonMode Positive
#UpdateWorkflowName UPDATE-SINGLE-ANNOTATED-GOLD
#LibraryQualityString Gold
#TaskID 278b19f5865741e282cec7349aa7e7a1
##Scan# 1249
#SpectrumFile NCP003672_E27F27G26H26_BE5_01_15741.mzXML
#LibraryName NIHcollectionI_05062014.mgf
#MQScore -1
#Organism NIHcollectionI_05062014
#TIC_Query 0
#RT_Query -1
#MZErrorPPM -1
#SharedPeaks 0
#MassDiff 0
#LibMZ -1
#SpecMZ 280.183
#SpecCharge 0
#internalFilename spec-00000.mgf

>collision 10
44.938389 144.0
45.087948 144.0
45.248466 172.0
45.402081 156.0
45.493042 212.0
45.628147 176.0
45.714233 144.0
45.935192 256.0
45.95813 176.0
46.02562 160.0
46.076221 160.0
46.24733 292.0
46.26347 156.0
46.388203 192.0
46.795769 192.0
46.904755 184.0
46.933384 156.0
46.964752 192.0
47.339226 148.0
47.348812 160.0
47.375504 152.0
47.388538 184.0
47.404621 228.0
47.651966 240.0
47.700294 168.0
47.884441 140.0
47.986416 172.0
48.00296 140.0
48.073315 248.0
48.203121 164.0
48.257027 192.0
48.283302 148.0
48.539494 148.0
48.578331 144.0
48.653267 192.0
48.675514 172.0
48.696972 160.0
48.742157 248.0
48.851994 264.0
48.864517 152.0
48.925751 196.0
49.33242 132.0
49.342896 252.0
49.373657 164.0
49.422428 128.0
49.485603 160.0
49.496803 156.0
49.613094 164.0
49.79969 156.0
49.869976 168.0
50.066051 176.0
50.327824 184.0
50.448471 192.0
50.527107 224.0
50.575089 172.0
50.739544 168.0
50.810455 168.0
50.949585 152.0
50.962372 192.0
51.108826 204.0
51.262215 172.0
51.31963 208.0
51.37014 144.0
51.405212 156.0
51.4566 260.0
52.108707 180.0
52.151184 152.0
52.21751 212.0
52.288006 140.0
52.459412 184.0
52.551712 192.0
52.595596 140.0
52.623878 264.0
52.842121 148.0
52.85804 268.0
52.910923 216.0
52.98111 212.0
53.341 160.0
53.519131 236.0
53.805714 200.0
53.943035 176.0
54.111202 168.0
54.151306 196.0
54.177177 156.0
54.188896 204.0
54.229061 108.0
54.266579 144.0
54.560699 204.0
54.581581 176.0
54.674942 192.0
54.78624 148.0
54.797161 148.0
54.916565 188.0
55.075974 148.0
55.108475 160.0
55.214905 140.0
55.275558 216.0
55.434006 148.0
55.518505 172.0
55.866066 172.0
55.919636 144.0
55.952385 212.0
56.018417 176.0
56.146091 172.0
56.202721 104.0
56.289352 160.0
56.440617 228.0
56.453732 208.0
56.500099 220.0
56.521046 148.0
56.798283 160.0
56.84058 148.0
57.154259 164.0
57.172276 144.0
57.241566 160.0
57.255119 168.0
57.297295 200.0
57.538761 132.0
57.733257 116.0
57.88623 140.0
58.182026 172.0
58.213909 160.0
58.282841 164.0
58.378033 144.0
58.403885 140.0
58.453976 156.0
58.522587 188.0
58.700867 196.0
58.833611 168.0
59.030708 192.0
59.081184 144.0
59.266438 160.0
59.280228 212.0
59.390614 188.0
59.498211 204.0
59.594791 284.0
59.667233 180.0
59.707005 144.0
59.757767 144.0
59.882458 208.0
59.930214 168.0
60.153835 152.0
60.290932 168.0
60.399529 236.0
60.439751 148.0
60.492374 176.0
60.526432 164.0
60.57909 180.0
60.636421 172.0
60.837482 132.0
60.989983 176.0
61.312477 176.0
61.40134 144.0
61.421619 168.0
61.669884 172.0
61.723038 144.0
61.943867 160.0
62.425549 144.0
62.630146 164.0
62.697895 160.0
62.779873 148.0
63.013485 228.0
63.064053 208.0
63.139942 156.0
63.463142 164.0
63.483597 180.0
63.995758 152.0
64.054878 204.0
64.37635 140.0
64.476997 144.0
64.529747 164.0
64.563438 176.0
64.720146 220.0
64.776199 148.0
64.888382 204.0
64.91362 180.0
64.938095 152.0
65.108215 148.0
65.137352 140.0
65.419167 200.0
65.542549 200.0
65.800613 164.0
65.945999 144.0
66.02037 288.0
66.096397 268.0
66.259926 152.0
66.272888 144.0
66.295578 200.0
66.353928 156.0
66.480446 196.0
66.815811 212.0
66.978928 188.0
67.11322 188.0
67.140938 148.0
67.168671 196.0
67.260086 160.0
67.55909 152.0
67.595085 192.0
67.692444 176.0
67.8424 196.0
67.858795 152.0
67.918518 172.0
67.958839 144.0
68.081955 188.0
68.127945 160.0
68.142555 148.0
68.234764 168.0
68.328514 168.0
68.402565 152.0
68.557388 196.0
68.742081 156.0
68.768486 164.0
68.950165 160.0
69.075821 144.0
69.214844 140.0
69.261215 172.0
69.316772 180.0
69.528152 188.0
69.75238 244.0
69.890411 160.0
70.036911 196.0
70.296997 156.0
70.538185 156.0
70.584312 308.0
70.89727 164.0
71.226913 188.0
71.281639 152.0
71.328697 160.0
71.412773 152.0
71.480064 176.0
71.511147 144.0
71.673706 180.0
71.768097 156.0
72.105713 152.0
72.220688 152.0
72.623802 164.0
72.750168 196.0
72.798615 168.0
72.888641 164.0
72.943024 180.0
73.028046 196.0
73.146057 212.0
73.198227 192.0
73.24762 328.0
73.261246 184.0
73.283394 160.0
73.389069 180.0
73.544312 192.0
73.898048 148.0
73.954521 144.0
74.216629 196.0
74.43129 156.0
74.472328 184.0
74.531395 208.0
74.723305 176.0
75.052277 216.0
75.356056 188.0
75.388885 228.0
75.449379 204.0
75.68988 164.0
75.845802 176.0
76.066093 184.0
76.088661 140.0
76.366692 164.0
76.417145 144.0
76.528534 176.0
76.66433 100.0
76.680084 156.0
76.778488 244.0
76.906197 188.0
76.934319 176.0
77.161865 144.0
77.205582 152.0
77.2808 196.0
77.792549 144.0
77.969948 212.0
78.233788 196.0
78.316551 180.0
78.330643 176.0
78.385262 156.0
78.570389 168.0
78.59333 152.0
78.625092 152.0
78.828178 148.0
78.960762 220.0
79.481583 164.0
79.696434 176.0
79.767517 192.0
79.881325 216.0
79.925804 164.0
79.975632 140.0
80.283852 148.0
80.615677 228.0
80.687393 164.0
80.844795 176.0
81.072227 160.0
81.087776 208.0
81.134964 140.0
81.210281 172.0
81.448494 184.0
81.566483 252.0
81.589172 332.0
81.72226 160.0
82.050049 172.0
82.078896 152.0
82.093323 236.0
82.186783 148.0
82.302643 144.0
82.367653 152.0
82.497765 180.0
82.644096 224.0
82.952133 204.0
83.117172 160.0
83.142578 160.0
83.295097 208.0
83.347778 192.0
83.400482 184.0
83.434479 224.0
83.656967 152.0
83.709763 216.0
83.87738 160.0
84.072533 172.0
84.105385 152.0
84.245033 176.0
84.333702 220.0
84.47084 180.0
84.576973 156.0
84.603317 172.0
84.699654 140.0
84.76194 176.0
84.815086 200.0
84.950783 212.0
85.013496 200.0
85.158203 168.0
85.236755 200.0
85.35183 264.0
85.55439 96.0
85.647453 144.0
85.660347 152.0
85.820686 212.0
86.003319 240.0
86.080856 192.0
86.356224 156.0
87.05677 188.0
87.177513 152.0
87.219009 208.0
88.087967 188.0
88.167076 144.0
88.329742 140.0
88.404358 132.0
88.509407 180.0
88.730499 212.0
89.039299 576.0
89.10862 184.0
89.122765 140.0
89.196571 176.0
89.346497 168.0
89.417999 228.0
89.566742 156.0
89.610069 152.0
89.649643 140.0
89.753319 148.0
89.905846 168.0
90.045845 332.0
90.15976 156.0
90.179962 168.0
90.329147 192.0
90.350151 156.0
90.72702 144.0
90.757149 112.0
90.800972 168.0
90.852623 120.0
90.907204 176.0
90.94706 188.0
91.052162 112.0
91.159767 140.0
91.264313 140.0
91.656418 224.0
92.081833 260.0
92.173531 236.0
92.188812 192.0
92.30542 156.0
92.445068 176.0
92.535027 204.0
92.870384 176.0
92.894386 140.0
93.075897 132.0
93.25631 160.0
93.292931 148.0
93.420448 188.0
93.558311 168.0
93.641106 140.0
93.814133 156.0
93.856941 152.0
93.883942 184.0
93.950859 196.0
94.030563 152.0
94.08075 148.0
94.904892 192.0
95.085304 692.0
95.15522 144.0
95.786049 252.0
95.832062 192.0
95.853493 140.0
95.915855 176.0
95.962646 212.0
96.083923 352.0
96.10405 168.0
96.347122 180.0
96.360802 200.0
96.433098 148.0
96.67952 148.0
96.84594 160.0
96.86161 156.0
97.013725 172.0
97.03994 148.0
97.101387 4892.0
97.192932 192.0
97.514992 160.0
97.617218 172.0
97.902565 184.0
97.922256 184.0
98.052292 164.0
98.104446 660.0
98.344185 144.0
98.377747 156.0
98.442902 144.0
98.456726 164.0
98.851463 176.0
98.998756 416.0
99.065567 164.0
99.34346 184.0
99.715759 148.0
99.981262 168.0
100.102501 200.0
100.169472 212.0
100.307907 172.0
100.413582 148.0
100.515327 140.0
100.834846 152.0
100.934799 144.0
100.995438 652.0
101.194916 168.0
101.252983 184.0
101.307068 152.0
101.614861 148.0
101.635864 188.0
101.676003 224.0
101.784401 196.0
101.875015 172.0
101.916969 184.0
102.003387 204.0
102.047615 200.0
102.168289 180.0
102.22287 136.0
102.740891 156.0
102.819122 156.0
102.948326 168.0
102.974579 140.0
103.031136 280.0
103.053871 7228.0
103.107056 144.0
103.239326 168.0
103.275726 156.0
103.578026 184.0
103.85096 164.0
104.058632 1256.0
104.190567 172.0
104.538261 184.0
104.68869 160.0
104.849281 140.0
104.868401 156.0
104.912407 176.0
105.157181 212.0
105.175552 144.0
105.342995 144.0
105.579803 144.0
105.96286 200.0
106.109528 128.0
106.288872 204.0
106.45623 136.0
106.528114 216.0
106.549263 160.0
106.755165 208.0
107.086052 180.0
107.124367 200.0
107.251343 144.0
107.321434 160.0
107.531845 180.0
107.785858 208.0
107.907799 184.0
108.091743 168.0
108.321701 152.0
108.456383 164.0
108.568344 192.0
108.703842 196.0
109.013786 160.0
109.045845 152.0
109.101448 16204.0
109.208611 100.0
109.41819 144.0
109.4515 180.0
109.748764 156.0
109.790588 172.0
109.916328 164.0
109.985199 192.0
110.104172 860.0
110.296425 212.0
110.392601 188.0
110.539032 156.0
110.682053 148.0
110.863617 188.0
110.996979 224.0
111.102097 168.0
111.150902 180.0
111.632942 132.0
111.672745 160.0
111.962334 260.0
112.021309 296.0
112.221519 168.0
112.419327 108.0
112.440903 144.0
112.567566 148.0
112.637833 192.0
112.865509 148.0
113.012749 204.0
113.47953 144.0
113.583443 180.0
113.72773 184.0
113.863609 156.0
114.236382 116.0
114.271744 188.0
114.413094 212.0
114.433495 196.0
114.47821 196.0
114.691261 168.0
114.721107 152.0
114.852158 152.0
115.054741 2520.0
115.258942 300.0
115.770187 184.0
116.061661 2644.0
116.267548 164.0
116.407089 148.0
116.525223 140.0
116.789635 140.0
116.828354 180.0
116.969574 172.0
116.989754 276.0
117.067337 116.0
117.319351 160.0
117.351692 184.0
117.416382 180.0
117.465988 148.0
117.586823 160.0
117.92807 188.0
118.027512 144.0
118.059944 140.0
118.267647 152.0
118.332588 188.0
118.447365 200.0
118.62072 180.0
119.043793 172.0
119.384972 180.0
119.674377 172.0
119.720108 148.0
120.156044 148.0
120.537025 164.0
120.597145 160.0
120.645241 176.0
120.681381 324.0
120.946014 144.0
121.021545 144.0
121.101753 204.0
121.141998 144.0
121.358963 144.0
121.587097 164.0
122.034027 148.0
122.074791 204.0
122.437851 176.0
122.823608 224.0
122.886192 184.0
122.933922 164.0
122.958199 152.0
122.973648 184.0
123.11676 2404.0
123.470749 176.0
123.638885 172.0
123.728706 116.0
123.811562 148.0
123.852127 140.0
123.953339 168.0
124.11808 460.0
124.208298 160.0
124.257103 260.0
124.391167 268.0
124.423553 176.0
124.50222 140.0
124.517799 180.0
124.592331 140.0
124.707047 180.0
124.722549 268.0
124.806252 320.0
124.888069 292.0
124.914673 144.0
124.957848 128.0
124.981644 312.0
124.989281 296.0
125.016136 176480.0
125.136627 236.0
125.192062 236.0
125.228348 156.0
125.261093 96.0
125.336189 200.0
125.381943 1272.0
125.438789 112.0
125.505463 148.0
125.575989 120.0
125.61937 172.0
125.640221 236.0
125.660904 144.0
125.880615 100.0
125.906364 156.0
125.932426 120.0
126.019043 14440.0
126.075493 244.0
126.104576 128.0
126.279175 104.0
126.315636 184.0
126.469933 284.0
126.488495 136.0
126.61702 172.0
126.666351 176.0
126.687828 104.0
126.722244 176.0
126.745102 124.0
126.775787 224.0
126.842621 104.0
126.882568 116.0
126.898239 216.0
126.917297 236.0
126.940689 220.0
126.975487 148.0
127.012466 65284.0
127.075195 412.0
127.113907 132.0
127.135056 140.0
127.245934 184.0
127.522285 208.0
127.618515 148.0
127.650002 212.0
127.696098 128.0
127.968506 124.0
128.015503 2368.0
128.061783 844.0
128.315414 144.0
128.381744 152.0
128.76326 220.0
128.918213 152.0
128.960007 148.0
129.00795 288.0
129.023773 124.0
129.069962 2112.0
129.224396 148.0
130.077148 2704.0
130.454834 132.0
130.58548 168.0
131.057404 200.0
131.081238 744.0
131.54599 128.0
132.086304 164.0
132.159515 148.0
132.484619 144.0
132.745911 232.0
133.062622 136.0
133.087799 148.0
133.767029 100.0
134.095383 148.0
134.173752 148.0
134.277527 200.0
134.512863 180.0
134.693619 160.0
135.15535 224.0
135.481018 176.0
135.706604 184.0
135.727478 152.0
135.848083 184.0
136.008194 180.0
136.200912 140.0
136.375183 156.0
136.396088 192.0
136.458694 116.0
136.561188 156.0
136.953598 208.0
137.014786 428.0
137.047791 120.0
137.208527 184.0
137.423096 168.0
137.495819 172.0
137.630829 164.0
137.978134 148.0
138.201141 148.0
138.320496 152.0
138.527878 128.0
138.587479 188.0
138.688248 164.0
138.771317 220.0
138.789047 208.0
138.820923 148.0
138.881775 148.0
138.94873 348.0
139.031616 142364.0
139.07312 460.0
139.158005 104.0
139.253052 204.0
139.321442 116.0
139.374832 268.0
139.395218 128.0
139.417038 864.0
139.528351 168.0
139.650909 192.0
139.873306 176.0
139.902069 124.0
139.995728 172.0
140.034744 9232.0
140.583115 132.0
140.642853 156.0
140.69191 236.0
140.760468 152.0
140.79187 176.0
140.815247 176.0
140.92305 136.0
141.02858 38596.0
141.094543 292.0
141.203217 148.0
141.229874 348.0
141.399567 100.0
141.482819 108.0
141.776276 140.0
141.805237 116.0
142.031326 2348.0
142.074188 524.0
142.187515 152.0
142.207291 104.0
142.651138 228.0
142.971466 112.0
143.085876 796.0
143.200485 128.0
143.871246 172.0
144.024078 184.0
144.092529 1968.0
144.136353 144.0
144.672104 156.0
145.098526 200.0
145.235214 156.0
145.395966 172.0
145.984543 152.0
146.80571 176.0
146.919067 180.0
146.982742 144.0
147.114548 180.0
147.137863 192.0
147.696899 176.0
148.2556 164.0
148.440414 156.0
148.522873 204.0
148.578247 116.0
149.013062 164.0
149.137177 188.0
149.528763 148.0
150.001282 168.0
150.19635 232.0
150.723679 164.0
151.030655 14692.0
151.090118 196.0
151.904755 144.0
151.94545 280.0
152.033371 1104.0
152.114777 184.0
152.227707 176.0
152.367706 148.0
152.657745 200.0
152.78717 136.0
152.932068 152.0
152.976471 140.0
153.046799 66760.0
153.085449 320.0
153.124161 140.0
153.23793 136.0
153.449234 96.0
153.769608 112.0
153.926147 192.0
154.050064 5824.0
154.098557 128.0
154.203506 232.0
154.507645 208.0
154.802185 188.0
154.821381 96.0
154.908081 180.0
154.942108 140.0
155.043381 16000.0
155.213531 124.0
156.048828 468.0
156.093857 168.0
157.047806 168.0
157.108734 164.0
157.243484 148.0
157.460678 152.0
157.490662 232.0
157.755524 140.0
157.878036 200.0
158.108826 176.0
158.332626 180.0
159.01796 172.0
160.378662 172.0
160.50975 144.0
161.347992 152.0
161.745163 228.0
163.028168 156.0
163.901321 156.0
164.005798 140.0
164.039948 356.0
164.461166 136.0
164.656403 176.0
165.046417 13360.0
165.117126 220.0
165.441391 100.0
165.711655 152.0
165.748734 156.0
165.902512 164.0
166.050354 556.0
167.04509 3620.0
167.058151 4304.0
167.469971 180.0
167.784348 156.0
167.843643 184.0
168.049057 376.0
168.067795 436.0
169.05809 1324.0
169.219315 120.0
169.859421 188.0
170.06488 256.0
171.125626 176.0
171.316635 152.0
172.093826 140.0
172.171967 164.0
172.964371 148.0
173.066467 184.0
173.645599 180.0
173.886978 184.0
174.238831 180.0
174.430679 228.0
177.047653 288.0
177.787643 204.0
178.058441 140.0
178.308655 112.0
178.748611 200.0
178.851944 180.0
178.973221 140.0
179.014847 120.0
179.062195 31432.0
179.233505 188.0
179.328033 144.0
179.407486 156.0
179.455475 188.0
179.775558 192.0
180.065796 2800.0
180.248215 168.0
180.700089 156.0
181.059601 7156.0
181.106979 148.0
181.177887 136.0
181.41864 116.0
181.471436 140.0
182.062347 844.0
182.249802 156.0
183.064835 144.0
183.110611 168.0
183.657745 144.0
184.343491 184.0
185.553391 148.0
186.560577 144.0
187.944138 152.0
188.036911 148.0
188.279892 160.0
188.309937 140.0
188.490234 160.0
188.558548 192.0
188.659683 192.0
189.412216 168.0
189.757507 168.0
190.292511 164.0
191.060303 272.0
191.183105 152.0
192.927704 96.0
193.077423 2488.0
193.454681 168.0
194.090057 224.0
195.077042 472.0
198.010056 168.0
198.158508 176.0
198.528503 196.0
199.142044 104.0
199.258301 144.0
199.584335 172.0
199.702454 232.0
200.998337 172.0
201.452896 168.0
202.391846 228.0
202.573105 164.0
203.250702 176.0
203.80722 156.0
204.051651 172.0
204.119888 140.0
204.444183 164.0
204.512497 180.0
205.492783 176.0
207.993942 152.0
208.594284 412.0
209.693802 148.0
210.273514 168.0
210.891586 156.0
212.675781 152.0
213.06781 172.0
215.071259 164.0
215.447952 140.0
216.184769 188.0
216.424805 156.0
216.69133 144.0
217.568222 188.0
217.717972 156.0
218.498215 116.0
218.579285 140.0
219.955612 164.0
221.545624 144.0
222.186874 236.0
225.931686 160.0
228.292221 224.0
230.432327 184.0
232.869507 256.0
234.873627 148.0
235.123688 4236.0
235.410767 160.0
235.613785 112.0
236.125732 584.0
237.120224 1056.0
237.691299 144.0
238.122589 248.0
238.920273 160.0
239.619125 208.0
240.887039 196.0
244.219208 188.0
244.349854 152.0
244.782501 176.0
248.759415 144.0
249.485077 140.0
252.195969 164.0
252.243393 140.0
252.290802 192.0
253.322449 220.0
253.810745 268.0
253.88028 144.0
255.656097 204.0
256.149597 200.0
256.436371 164.0
257.591431 172.0
258.230682 148.0
258.614624 200.0
259.34491 176.0
260.182129 180.0
260.567505 204.0
261.426025 180.0
262.00882 156.0
263.160187 144.0
264.197632 208.0
265.178741 152.0
267.205017 156.0
268.2341 144.0
271.267578 160.0
274.206085 200.0
275.370728 196.0
275.608582 144.0
275.646423 140.0
276.276428 192.0
277.690796 144.0
277.952881 140.0
278.000061 148.0
278.140778 120.0
278.172058 96.0
278.210236 184.0
278.666748 192.0
278.783051 116.0
278.963867 160.0
279.088867 208.0
279.144989 164.0
279.193512 120.0
279.256165 136.0
279.421448 208.0
279.474701 100.0
279.586639 168.0
279.614471 196.0
279.787201 276.0
279.81543 128.0
279.875732 172.0
279.995239 164.0
280.049469 304.0
280.079346 168.0
280.109711 364.0
280.18396 157396.0
280.306519 208.0
280.395172 136.0
280.50531 460.0
280.547852 304.0
280.575836 200.0
280.601532 260.0
280.668549 132.0
280.693787 140.0
280.731567 2372.0
280.765442 192.0
280.869873 216.0
280.915161 128.0
280.977997 148.0
281.003204 132.0
281.050476 220.0
281.062469 236.0
281.089691 200.0
281.186188 33776.0
281.317047 164.0
281.46167 192.0
281.542542 116.0
281.569916 160.0
281.607697 236.0
281.734161 128.0
281.937225 104.0
281.979462 184.0
282.082428 152.0
282.134949 240.0
282.18042 62092.0
282.328552 200.0
282.408752 124.0
282.454071 228.0
282.48407 120.0
282.603882 276.0
282.693268 144.0
282.870331 184.0
282.903137 260.0
282.936951 236.0
282.98819 208.0
283.102051 104.0
283.1828 7124.0
283.315125 224.0
283.342804 108.0
283.374878 148.0
283.463867 192.0
283.504333 152.0
283.760864 144.0
283.812225 104.0
284.465759 116.0
284.497955 144.0
284.831177 120.0
285.119324 196.0
285.16452 108.0
285.194733 132.0
285.285095 128.0
285.621582 116.0
286.422363 112.0
287.412567 160.0
290.939484 104.0
295.104065 140.0
298.894135 108.0
316.164246 140.0
327.039337 260.0
352.596222 140.0
358.620056 160.0
386.779388 184.0
429.238739 160.0
489.203613 144.0
575.377502 140.0
848.338684 200.0
967.564453 180.0
1013.748596 156.0
1015.796448 192.0
1019.987366 148.0
1020.45697 148.0
1024.384399 152.0
1039.594971 152.0
1042.81897 140.0
1044.64502 176.0
1053.366821 200.0
1061.353027 240.0
1067.859985 152.0
1076.521118 208.0
1083.506714 140.0
1084.601074 140.0
1088.182861 276.0
1097.868774 148.0
1102.866577 152.0
1110.062988 204.0
1120.257324 204.0
1124.612671 216.0
1129.884399 188.0
1137.920776 156.0
1148.2229 256.0
1148.357788 148.0
1150.436035 208.0
1162.741577 260.0
1179.134521 160.0
1179.277954 164.0
1180.501709 152.0
1189.188721 156.0
1194.135498 176.0
1197.824829 172.0
1202.817139 172.0
1205.513428 196.0
1215.156006 180.0
1216.835571 148.0
1228.71582 160.0
1231.494019 148.0
1235.863159 192.0
1236.248047 184.0
1236.625977 172.0
1264.270874 160.0
1264.787476 244.0
1265.056519 184.0
1266.748901 200.0
1266.833984 168.0
1272.088623 160.0
1272.784302 160.0
1279.410645 196.0
1281.17688 192.0
1281.568726 228.0
1286.98938 184.0
1288.86792 212.0
1295.213623 272.0
1298.037354 148.0
1300.533936 164.0
1302.968262 144.0
1307.296875 240.0
1307.63501 160.0
1316.740967 180.0
1317.600464 200.0
1318.539795 272.0
1322.5177 156.0
1324.407471 192.0
1331.558838 224.0
1332.612183 156.0
1340.951416 140.0
1343.664062 144.0
1347.328979 152.0
1351.84021 164.0
1362.192749 156.0
1362.662842 168.0
1362.875977 144.0
1371.021851 176.0
1371.744141 140.0
1371.876831 216.0
1376.436401 176.0
1379.384277 168.0
1383.993286 140.0
1384.134033 148.0
1386.726807 164.0
1393.345825 188.0
1397.687988 188.0
1400.79248 192.0
1401.030884 180.0
1401.223511 128.0
1404.265869 152.0
1404.340454 196.0
1409.573853 212.0
1414.547363 148.0
1416.771362 156.0
1418.210205 200.0
1443.097778 200.0
1443.513672 200.0
1444.095947 172.0
1457.43811 212.0
1458.935425 140.0
1459.954224 152.0
1461.346191 188.0
1465.130005 160.0
1467.263916 248.0
1467.363037 148.0
1468.720459 156.0
1469.910645 184.0
1472.544312 156.0
1474.270874 160.0
1482.397827 168.0
1491.25415 264.0
1491.792236 160.0
1493.36084 188.0
1497.255127 216.0
1499.219604 148.0
1502.257568 216.0
1503.391724 144.0
1507.49231 152.0
1508.442871 168.0
1508.744385 160.0
1510.662231 216.0
1518.865479 200.0
1521.265015 140.0
1524.882812 160.0
1525.636841 140.0
1526.764282 276.0
1527.755859 212.0
1528.919189 204.0
1532.509033 160.0
1538.053711 152.0
1541.804077 292.0
1543.006348 248.0
1543.170532 148.0
1543.649536 220.0
1543.741333 148.0
1546.424805 160.0
1551.931885 180.0
1552.355347 168.0
1558.336426 228.0
1559.829834 136.0
1561.056152 144.0
1566.927979 240.0
1570.333252 176.0
1571.92688 180.0
1572.33728 156.0
1574.231934 148.0
1574.838257 148.0
1582.661133 172.0
1584.181763 180.0
1584.506592 156.0
1585.124634 140.0
1589.168457 160.0
1591.0177 168.0
1592.534302 192.0
1599.626953 180.0
1599.857788 148.0
1603.075562 164.0
1608.052002 200.0
1608.323364 144.0
1610.910522 208.0
1612.860229 148.0
1613.044067 164.0
1617.307495 192.0
1617.923828 172.0
1617.995972 144.0
1619.357178 156.0
1621.841064 204.0
1622.20166 144.0
1623.96582 164.0
1625.522095 148.0
1625.819092 208.0
1626.902588 184.0
1626.998901 212.0
1627.785767 144.0
1629.335938 140.0
1630.263916 172.0
1632.703857 140.0
1635.721069 168.0
1636.671021 180.0
1637.089722 188.0
1639.36145 168.0
1639.667725 224.0
1642.755859 180.0
1642.836548 144.0
1644.555298 180.0
1645.001099 172.0
1647.244141 184.0
1648.32666 172.0
1649.951294 172.0
1650.614258 140.0
1650.921631 168.0
1652.466553 144.0
1655.469482 172.0
1661.418823 164.0
1661.808228 160.0
1662.140869 232.0
1664.373047 200.0
1667.687622 180.0
1668.947632 160.0
1669.37854 200.0
1671.355225 148.0
1672.323608 192.0
1672.905151 180.0
1673.039917 156.0
1673.267944 196.0
1678.417236 200.0
1684.236084 156.0
1684.783325 200.0
1686.172485 340.0
1686.540161 264.0
1688.715088 224.0
1689.819458 212.0
1690.07312 172.0
1690.203979 156.0
1691.775391 160.0
1692.471313 176.0
1692.848022 172.0
1693.322998 180.0
1695.338379 168.0
1696.182495 144.0
1698.215942 192.0
1702.426147 164.0
1702.754639 204.0
1703.510254 144.0
1705.827637 200.0
1705.934448 164.0
1706.008423 148.0
1706.107178 168.0
1710.746826 180.0
1714.412109 192.0
1717.074951 232.0
1719.640869 208.0
1719.913208 196.0
1720.763428 176.0
1721.837402 136.0
1722.09021 180.0
1723.431274 196.0
1723.728027 244.0
1724.199707 164.0
1725.373535 180.0
1726.167236 192.0
1726.828857 148.0
1728.26001 164.0
1729.807617 176.0
1730.743042 240.0
1734.081543 176.0
1735.300171 156.0
1735.601807 156.0
1735.781006 196.0
1737.995728 192.0
1739.589233 196.0
1740.643555 204.0
1742.089478 172.0
1747.201416 160.0
1748.982788 252.0
1751.493042 176.0
1752.92981 144.0
1754.596802 140.0
1755.730835 188.0
1756.022705 260.0
1756.306274 148.0
1756.981934 156.0
1760.237061 172.0
1761.364502 156.0
1762.116333 148.0
1763.252808 184.0
1764.194702 140.0
1764.690552 156.0
1764.946289 160.0
1765.451538 140.0
1765.786011 172.0
1766.279541 204.0
1766.664307 268.0
1767.894287 152.0
1769.57666 280.0
1769.986938 152.0
1770.062378 236.0
1772.449585 168.0
1773.161987 152.0
1773.689941 160.0
1775.18103 136.0
1775.240967 236.0
1777.153442 216.0
1777.396851 168.0
1779.856201 216.0
1780.141724 184.0
1783.527466 192.0
1783.628296 180.0
1784.342896 140.0
1784.477417 164.0
1785.478027 176.0
1785.940674 176.0
1786.849121 192.0
1788.136597 148.0
1790.451782 164.0
1790.923462 172.0
1791.120972 176.0
1791.395142 180.0
1791.454102 144.0
1792.473633 172.0
1792.64209 212.0
1793.012939 160.0
1796.731445 196.0
1797.828369 176.0
1801.804443 160.0
1802.472778 204.0
1802.971436 208.0
1803.317871 152.0
1804.526733 152.0
1804.907227 160.0
1805.346924 148.0
1805.965332 148.0
1806.108032 148.0
1807.013306 164.0
1807.789551 184.0
1807.927124 148.0
1808.392578 176.0
1808.621094 192.0
1809.052856 196.0
1811.114868 164.0
1811.19519 148.0
1811.534058 172.0
1811.796631 144.0
1813.432007 220.0
1814.974854 164.0
1815.093628 188.0
1815.899292 156.0
1817.731689 184.0
1818.351196 140.0
1819.098145 152.0
1820.520508 176.0
1824.467041 176.0
1825.130127 240.0
1827.273438 192.0
1827.341553 160.0
1829.324463 152.0
1829.511719 216.0
1829.971436 164.0
1833.932617 196.0
1836.217651 180.0
1838.657593 148.0
1840.868652 184.0
1842.18396 168.0
1842.472778 180.0
1843.858643 164.0
1844.012573 172.0
1845.300659 260.0
1845.397339 144.0
1845.542725 224.0
1845.636719 200.0
1846.098511 160.0
1846.637329 176.0
1849.572021 144.0
1852.79187 164.0
1854.387573 252.0
1856.606201 164.0
1857.395264 180.0
1857.481079 212.0
1858.177246 132.0
1858.682129 140.0
1859.059692 152.0
1859.583252 208.0
1860.072388 164.0
1860.862183 148.0
1865.432617 200.0
1866.438477 272.0
1866.997437 168.0
1869.474487 128.0
1870.559448 204.0
1871.893555 192.0
1872.290039 172.0
1873.384033 176.0
1873.884766 160.0
1875.03833 152.0
1875.839966 164.0
1876.05542 148.0
1876.262329 144.0
1876.710693 292.0
1876.771973 156.0
1877.046875 164.0
1877.59021 220.0
1877.978271 152.0
1878.383667 236.0
1880.299194 208.0
1881.585327 140.0
1881.801147 196.0
1882.172485 208.0
1882.483276 176.0
1883.036011 140.0
1883.476562 152.0
1884.619995 168.0
1885.135254 180.0
1885.27356 152.0
1889.839233 152.0
1891.362305 152.0
1892.27124 224.0
1893.231934 216.0
1894.642944 188.0
1895.406738 164.0
1896.273315 208.0
1897.573608 140.0
1899.516113 180.0
1899.759033 168.0
1899.915161 276.0
1900.678711 164.0
1900.756836 172.0
1900.921631 168.0
1902.952759 140.0
1903.430298 160.0
1903.864502 164.0
1904.957275 168.0
1905.401978 220.0
1905.653931 172.0
1909.30481 176.0
1910.061401 164.0
1910.252808 184.0
1911.731934 164.0
1915.04895 144.0
1916.172607 152.0
1916.773804 156.0
1916.956787 176.0
1918.99646 232.0
1921.12439 140.0
1921.203003 168.0
1922.180176 200.0
1923.593994 164.0
1924.213867 148.0
1924.685303 172.0
1926.362183 140.0
1928.69519 144.0
1929.106079 152.0
1929.411987 156.0
1930.889771 156.0
1931.082153 160.0
1931.152222 140.0
1932.805542 172.0
1934.906128 176.0
1935.172974 204.0
1935.501587 184.0
1937.209351 144.0
1937.90564 144.0
1938.115112 136.0
1938.185913 176.0
1940.092529 164.0
1943.144409 180.0
1943.688477 160.0
1943.749878 148.0
1944.767822 164.0
1945.575439 220.0
1946.699341 172.0
1947.893799 260.0
1948.543823 288.0
1948.614136 148.0
1948.693237 152.0
1950.028931 168.0
1950.2323 148.0
1951.253662 184.0
1952.059692 188.0
1952.28833 184.0
1952.607422 172.0
1953.167847 140.0
1953.551147 184.0
1954.532837 128.0
1954.812988 208.0
1954.971436 188.0
1956.265259 188.0
1958.854248 176.0
1959.382812 192.0
1960.21106 176.0
1960.36084 168.0
1960.457764 164.0
1961.929688 176.0
1962.187256 160.0
1964.654663 248.0
1964.839478 196.0
1965.272339 160.0
1965.854614 192.0
1966.188477 204.0
1966.710693 152.0
1967.087769 112.0
1968.803223 256.0
1969.403687 184.0
1969.69519 356.0
1970.499146 220.0
1970.887939 164.0
1971.42688 228.0
1971.550659 232.0
1972.858765 164.0
1973.521851 172.0
1974.255737 212.0
1976.493774 152.0
1978.618042 160.0
1980.389038 156.0
1981.576782 208.0
1982.612793 208.0
1982.825439 212.0
1983.08252 144.0
1984.084106 152.0
1984.279175 160.0
1984.514282 100.0
1985.254517 184.0
1985.55603 172.0
1987.685181 144.0
1987.773926 172.0
1988.190918 192.0
1988.297485 148.0
1990.197144 160.0
1990.383545 316.0
1991.920044 244.0
1993.394897 148.0
1993.839111 216.0
1994.123535 168.0
1996.470581 180.0
1997.377808 156.0
1998.970337 228.0
1999.148315 252.0
1999.673462 164.0
2002.032593 180.0
