>compound MLS002154157-01!Mephenytoin50-12-4
>formula C12H14N2O2
>ionization [M+H]+
>parentmass 219.11280414009053
#inchi InChI=1S/C12H14N2O2/c1-3-12(9-7-5-4-6-8-9)10(15)14(2)11(16)13-12/h4-8H,3H2,1-2H3,(H,13,16)
#inchikey GMHKMTDVRCWUDX
#Ion_Source LC-ESI
#Instrument qTof
#Compound_Source NIH Pharmacologically Active Library
#PI Dorrestein
#Data_Collector VP/LMS
#Scan -1
#Precursor_MZ 219.117
#ExactMass 218.106
#Charge 1
#CAS_Number N/A
#Pubmed_ID N/A
#Smiles CCC1(NC(=O)N(C)C1=O)c2ccccc2
#INCHI_AUX N/A
#Library_Class 1
#SpectrumID CCMSLIB00000086074
#IonMode Positive
#UpdateWorkflowName UPDATE-SINGLE-ANNOTATED-GOLD
#LibraryQualityString Gold
#TaskID d252d724072548979f1f6f1ced849daf
##Scan# 1624
#SpectrumFile p5-D03_GD3_01_18454.mzXML
#LibraryName Pharm_Active_Library.mgf
#MQScore -1
#Organism Pharm_Active_Library
#TIC_Query 0
#RT_Query -1
#MZErrorPPM -1
#SharedPeaks 0
#MassDiff 0
#LibMZ -1
#SpecMZ 219.117
#SpecCharge 0
#internalFilename spec-00000.mgf

>collision 10
45.257408 160.0
45.449074 176.0
46.268524 176.0
46.755814 216.0
46.79665 168.0
46.806179 80.0
49.81881 216.0
50.19318 184.0
51.394596 192.0
52.42704 208.0
54.433125 220.0
54.547718 236.0
58.328529 188.0
58.361977 236.0
61.47216 216.0
61.687691 208.0
62.021099 156.0
62.758389 148.0
62.808853 200.0
62.898792 152.0
65.023674 52.0
65.25499 44.0
65.974014 180.0
67.00779 152.0
68.177734 196.0
69.061417 136.0
69.462257 192.0
71.130928 152.0
72.921341 92.0
74.851051 80.0
74.957848 152.0
75.403076 184.0
75.84269 168.0
76.077881 200.0
77.011925 192.0
77.64724 140.0
78.184822 148.0
78.383812 136.0
79.347084 232.0
79.620338 160.0
81.092209 168.0
81.753098 152.0
82.765762 152.0
84.185928 68.0
84.796959 216.0
84.818954 96.0
85.163902 216.0
86.484055 164.0
86.945541 80.0
89.502823 176.0
89.678024 232.0
89.757202 124.0
91.05645 324.0
91.37851 164.0
92.058983 200.0
93.079613 220.0
93.154518 144.0
94.6763 152.0
97.389214 32.0
97.658485 240.0
100.621025 204.0
101.892754 196.0
102.051529 204.0
102.083694 192.0
102.49836 216.0
103.037064 72.0
103.342072 176.0
104.051247 268.0
104.439827 140.0
104.922432 188.0
105.069267 200.0
106.054893 116.0
106.354347 188.0
106.888672 164.0
106.989525 172.0
107.897247 212.0
113.316017 220.0
115.05481 3160.0
115.166725 64.0
115.483047 88.0
116.060669 500.0
116.883911 88.0
117.07029 3072.0
117.357765 84.0
117.84771 112.0
118.035759 52.0
118.072845 568.0
118.90226 40.0
118.956528 148.0
119.07077 584.0
120.081436 148.0
127.056465 112.0
129.860321 64.0
131.710785 224.0
133.737701 156.0
134.011734 144.0
134.097351 6000.0
134.18689 28.0
134.223785 44.0
134.516785 76.0
134.565262 100.0
134.978836 68.0
135.100494 528.0
136.017044 156.0
136.095673 72.0
137.266068 84.0
141.06012 180.0
142.762436 44.0
147.046021 232.0
148.113663 272.0
148.318237 112.0
151.716339 124.0
154.964584 164.0
158.094543 160.0
162.070633 152.0
162.090897 184.0
176.110275 144.0
188.067947 100.0
190.073929 160.0
192.085022 128.0
194.931122 252.0
205.191269 76.0
219.109894 216.0
229.961731 176.0
260.982178 116.0
266.002625 28.0
307.894836 92.0
317.009857 132.0
349.879486 148.0
814.425476 216.0
837.764038 40.0
907.62793 156.0
942.389648 228.0
981.430115 212.0
986.399475 76.0
1076.79834 144.0
1117.644287 88.0
1122.760132 192.0
1141.315552 188.0
1145.414062 132.0
1188.043701 156.0
1193.441895 120.0
1205.255737 100.0
1236.801025 216.0
1246.718018 184.0
1250.051147 160.0
1271.357056 156.0
1278.093384 192.0
1279.545288 116.0
1280.228882 188.0
1318.33606 228.0
1318.567261 212.0
1319.412964 116.0
1327.398926 152.0
1331.259399 212.0
1332.748535 116.0
1340.111572 232.0
1340.709106 140.0
1344.603394 56.0
1347.845703 248.0
1353.2948 128.0
1364.233276 76.0
1375.643921 140.0
1386.575806 140.0
1400.282959 200.0
1408.584351 148.0
1416.19873 148.0
1490.281006 172.0
1502.946655 160.0
1504.891724 120.0
