>compound MLS001158282-01!(2S)-2-[[(2S)-2-(1,2-dihydroimidazo[1,2-a]benzimidazole-3-carbonylamino)-4-methylpentanoyl]amino]-3-phenylpropanoic acid
>formula C25H29N5O4
>ionization [M+H]+
>parentmass 464.23
#inchi InChI=1S/C25H29N5O4/c1-16(2)14-19(22(31)26-20(23(32)33)15-17-8-4-3-5-9-17)28-25(34)30-13-12-29-21-11-7-6-10-18(21)27-24(29)30/h3-11,16,19-20H,12-15H2,1-2H3,(H,26,31)(H,28,34)(H,32,33)/t19-,20-/m0/s1
#inchikey RWSJPESCUJCQNS
#Ion_Source LC-ESI
#Instrument qTof
#Compound_Source NIH Natural Product Library
#PI Dorrestein
#Data_Collector VVP/LMS
#Scan -1
#Precursor_MZ 464.23
#ExactMass 463.222
#Charge 1
#CAS_Number N/A
#Pubmed_ID N/A
#Smiles CC(C)C[C@H](NC(=O)N1CCn2c1nc3ccccc23)C(=O)N[C@@H](Cc4ccccc4)C(=O)O
#INCHI_AUX N/A
#Library_Class 1
#SpectrumID CCMSLIB00000079592
#IonMode Positive
#UpdateWorkflowName UPDATE-SINGLE-ANNOTATED-GOLD
#LibraryQualityString Gold
#TaskID b1d8e8f6646f4e71acdff9ca3d919d08
##Scan# 2092
#SpectrumFile p1-E08_GE8_01_17928.mzXML
#LibraryName NIH_Natural_Products_Library.mgf
#MQScore -1
#Organism NIH_Natural_Products_Library
#TIC_Query 0
#RT_Query -1
#MZErrorPPM -1
#SharedPeaks 0
#MassDiff 0
#LibMZ -1
#SpecMZ 464.23
#SpecCharge 0
#internalFilename spec-00000.mgf

>collision 10
95.004166 96.0
95.026215 352.0
95.048798 168.0
95.081795 144.0
95.098198 216.0
95.117165 180.0
95.150055 184.0
95.230316 148.0
95.274055 68.0
95.316803 160.0
95.353737 152.0
95.382896 88.0
95.398445 144.0
95.436195 196.0
95.452103 176.0
95.511246 184.0
95.537247 132.0
95.557945 180.0
95.573311 192.0
95.589081 232.0
95.626595 248.0
95.66317 148.0
95.690315 184.0
95.729324 124.0
95.761147 292.0
95.791595 192.0
95.823593 180.0
95.852303 288.0
95.885139 76.0
95.906059 180.0
95.945778 216.0
95.964386 304.0
95.978455 172.0
96.020767 108.0
96.024628 136.0
96.034218 216.0
96.048187 196.0
96.055626 132.0
96.061218 412.0
96.081924 208.0
96.100189 152.0
96.121216 492.0
96.135231 176.0
96.150932 168.0
96.17775 180.0
96.253899 180.0
96.275383 116.0
96.297523 228.0
96.33107 332.0
96.357437 184.0
96.383675 192.0
96.398476 148.0
96.415977 88.0
96.450958 188.0
96.48423 380.0
96.508644 136.0
96.525047 216.0
96.569206 88.0
96.594017 116.0
96.607712 200.0
96.621086 168.0
96.639023 240.0
96.662025 164.0
96.680122 216.0
96.731018 108.0
96.754807 160.0
96.778008 164.0
96.808311 200.0
96.828934 168.0
96.877907 80.0
96.897758 124.0
96.924561 188.0
96.993866 144.0
97.015305 80.0
97.079628 320.0
97.107285 184.0
97.121468 52.0
97.137115 192.0
97.153969 156.0
97.185768 48.0
97.213966 184.0
97.248573 108.0
97.28653 108.0
97.31414 172.0
97.334297 236.0
97.366768 168.0
97.39994 200.0
97.431221 88.0
97.462227 160.0
97.52623 424.0
97.56144 160.0
97.590446 156.0
97.62191 136.0
97.648422 184.0
97.676987 132.0
97.691742 168.0
97.715614 324.0
97.730118 128.0
97.757668 176.0
97.777542 204.0
97.806877 184.0
97.826508 144.0
97.843803 164.0
97.862991 140.0
97.881699 132.0
97.906647 156.0
97.958633 184.0
97.994827 284.0
98.013695 52.0
98.029465 96.0
98.05706 128.0
98.074684 132.0
98.120277 120.0
98.13987 208.0
98.153671 184.0
98.177994 128.0
98.193115 124.0
98.263107 152.0
98.319214 364.0
98.364807 132.0
98.3806 108.0
98.404297 72.0
98.42672 204.0
98.452446 240.0
98.474159 352.0
98.506081 308.0
98.52874 128.0
98.55806 268.0
98.576172 172.0
98.604881 196.0
98.634407 260.0
98.639847 168.0
98.695862 196.0
98.717316 164.0
98.752144 144.0
98.776436 228.0
98.831169 200.0
98.852821 132.0
98.875893 164.0
98.881165 140.0
98.890213 52.0
98.895805 128.0
98.92823 156.0
99.001396 152.0
99.02552 160.0
99.062965 160.0
99.091438 184.0
99.12439 200.0
99.148178 180.0
99.171753 228.0
99.197365 276.0
99.204605 224.0
99.212753 380.0
99.239372 240.0
99.257225 188.0
99.302986 112.0
99.340538 116.0
99.358154 152.0
99.391052 124.0
99.421486 192.0
99.451279 200.0
99.479469 396.0
99.522728 188.0
99.53067 148.0
99.55101 160.0
99.582741 144.0
99.606575 152.0
99.621635 152.0
99.684074 196.0
99.709 192.0
99.72081 108.0
99.739731 176.0
99.831642 108.0
99.853081 100.0
99.872971 160.0
99.902641 136.0
99.92466 168.0
99.938942 192.0
99.968483 116.0
100.002327 204.0
100.018875 204.0
100.050102 144.0
100.07798 148.0
100.113831 172.0
100.137733 212.0
100.163635 104.0
100.181564 96.0
100.196533 272.0
100.209633 152.0
100.216194 148.0
100.233376 280.0
100.264732 180.0
100.30619 172.0
100.400055 40.0
100.419815 220.0
100.453789 148.0
100.469589 132.0
100.481285 88.0
100.512169 176.0
100.524551 252.0
100.550499 132.0
100.568466 156.0
100.594421 156.0
100.619926 284.0
100.636353 108.0
100.66153 112.0
100.708107 212.0
100.731552 196.0
100.740723 276.0
100.778183 328.0
100.798225 140.0
100.824158 108.0
100.848671 212.0
100.871155 148.0
100.910744 180.0
100.918808 116.0
100.942116 164.0
100.978867 204.0
100.985909 76.0
100.993347 196.0
101.009453 200.0
101.035492 124.0
101.075233 112.0
101.0979 152.0
101.115654 320.0
101.154228 176.0
101.168243 168.0
101.208855 200.0
101.302437 124.0
101.322472 108.0
101.348526 88.0
101.368561 168.0
101.428696 156.0
101.459328 208.0
101.479317 212.0
101.508904 204.0
101.541351 136.0
101.559052 136.0
101.571609 124.0
101.587219 236.0
101.611649 168.0
101.645332 164.0
101.729645 216.0
101.744858 208.0
101.767227 132.0
101.78315 148.0
101.817039 292.0
101.86882 340.0
101.888237 148.0
101.956642 120.0
102.010239 156.0
102.041084 128.0
102.06945 176.0
102.093803 148.0
102.117661 264.0
102.137627 148.0
102.167412 184.0
102.195099 156.0
102.244278 100.0
102.260384 196.0
102.314743 244.0
102.337738 176.0
102.353004 124.0
102.387215 188.0
102.407387 144.0
102.421486 172.0
102.444206 144.0
102.469841 32.0
102.49604 132.0
102.518776 212.0
102.546486 300.0
102.577713 216.0
102.592796 192.0
102.606911 132.0
102.639175 220.0
102.652046 168.0
102.671448 180.0
102.704018 136.0
102.733986 208.0
102.823135 272.0
102.865814 128.0
102.911613 160.0
102.942871 168.0
102.973274 144.0
102.992409 156.0
103.044373 172.0
103.052307 124.0
103.056946 136.0
103.089386 2104.0
103.139198 132.0
103.154083 180.0
103.228905 184.0
103.266312 316.0
103.289589 184.0
103.310181 180.0
103.319687 32.0
103.323616 176.0
103.350288 152.0
103.364456 84.0
103.40538 200.0
103.439941 192.0
103.457573 212.0
103.479851 140.0
103.494026 152.0
103.525414 176.0
103.541885 240.0
103.579048 156.0
103.63076 156.0
103.656097 92.0
103.675987 172.0
103.690147 188.0
103.718315 144.0
103.736366 196.0
103.751373 128.0
103.786682 204.0
103.811836 216.0
103.903023 204.0
103.929878 232.0
103.948143 104.0
103.964157 320.0
104.036346 180.0
104.054161 168.0
104.091606 184.0
104.107773 168.0
104.153229 72.0
104.16745 128.0
104.195892 288.0
104.213448 144.0
104.224159 88.0
104.229568 168.0
104.235725 160.0
104.271095 140.0
104.287354 124.0
104.314613 260.0
104.335167 176.0
104.359901 144.0
104.375648 132.0
104.383354 168.0
104.407631 344.0
104.437454 212.0
104.47039 156.0
104.508469 368.0
104.578575 128.0
104.627113 160.0
104.652534 116.0
104.671913 164.0
104.691742 180.0
104.712654 148.0
104.727852 140.0
104.74321 128.0
104.759506 116.0
104.789719 184.0
104.798111 148.0
104.802628 176.0
104.847015 132.0
104.881744 180.0
104.910332 164.0
104.930725 52.0
104.971619 156.0
105.016388 208.0
105.030663 144.0
105.046989 292.0
105.080803 1880.0
105.108002 224.0
105.137466 248.0
105.165352 228.0
105.190056 200.0
105.211082 180.0
105.21991 144.0
105.238136 136.0
105.263367 124.0
105.297905 188.0
105.311768 132.0
105.332741 112.0
105.339851 108.0
105.371635 108.0
105.409439 192.0
105.431305 204.0
105.453384 156.0
105.470345 108.0
105.490746 176.0
105.531532 164.0
105.553986 144.0
105.57914 240.0
105.59417 208.0
105.63707 176.0
105.694641 164.0
105.699196 156.0
105.707405 192.0
105.723389 156.0
105.762688 184.0
105.828117 224.0
105.852379 180.0
105.893341 168.0
105.912804 84.0
105.94046 204.0
105.978966 192.0
106.032539 168.0
106.036629 156.0
106.063431 192.0
106.087929 512.0
106.143402 44.0
106.16391 120.0
106.188522 132.0
106.214302 304.0
106.272377 212.0
106.279961 184.0
106.321899 92.0
106.34243 228.0
106.356796 120.0
106.37117 180.0
106.438972 204.0
106.516983 124.0
106.543694 220.0
106.564964 228.0
106.588577 152.0
106.621788 124.0
106.658791 176.0
106.683464 176.0
106.716255 224.0
106.734116 164.0
106.793839 108.0
106.838524 164.0
106.863869 176.0
106.902824 164.0
106.92749 136.0
106.947693 288.0
106.978867 160.0
107.018181 180.0
107.059746 160.0
107.096642 692.0
107.122406 120.0
107.140404 196.0
107.161003 192.0
107.196609 160.0
107.219017 228.0
107.30851 184.0
107.324661 144.0
107.370491 184.0
107.386314 156.0
107.408432 340.0
107.438629 220.0
107.443207 252.0
107.478767 180.0
107.518372 52.0
107.544632 28.0
107.56321 108.0
107.602409 240.0
107.62722 204.0
107.646797 180.0
107.662331 108.0
107.689827 224.0
107.711235 284.0
107.738174 152.0
107.755302 132.0
107.776093 260.0
107.804901 176.0
107.833839 136.0
107.87027 288.0
107.904129 184.0
107.920677 148.0
107.978584 56.0
108.007545 100.0
108.025787 196.0
108.072083 380.0
108.085487 96.0
108.111008 216.0
108.126915 172.0
108.208351 196.0
108.256287 168.0
108.274414 176.0
108.295761 196.0
108.326378 152.0
108.352341 160.0
108.374702 268.0
108.388542 160.0
108.42878 212.0
108.448647 156.0
108.463158 140.0
108.481873 144.0
108.506699 140.0
108.528137 212.0
108.552322 152.0
108.575142 184.0
108.610405 164.0
108.631149 216.0
108.646881 220.0
108.68721 260.0
108.768127 72.0
108.790962 172.0
108.816727 216.0
108.835426 200.0
108.865921 124.0
108.897919 152.0
108.962143 184.0
109.004379 144.0
109.033157 184.0
109.078804 200.0
109.119202 268.0
109.165016 108.0
109.194138 192.0
109.233665 52.0
109.256546 152.0
109.299866 172.0
109.348122 132.0
109.365982 220.0
109.424644 148.0
109.451683 232.0
109.481483 160.0
109.508461 32.0
109.539711 100.0
109.591805 128.0
109.622879 208.0
109.662453 300.0
109.66935 212.0
109.673721 160.0
109.702881 256.0
109.721039 148.0
109.752319 192.0
109.79805 228.0
109.829498 104.0
109.869881 112.0
109.934677 196.0
109.971397 184.0
110.022057 152.0
110.035744 220.0
110.06118 196.0
110.089882 108.0
110.130707 140.0
110.182343 144.0
110.221695 168.0
110.252281 184.0
110.260712 152.0
110.278427 156.0
110.324432 112.0
110.424858 256.0
110.446152 112.0
110.451324 172.0
110.459686 204.0
110.483437 140.0
110.519012 92.0
110.560486 216.0
110.566467 172.0
110.594841 156.0
110.680206 224.0
110.706421 416.0
110.732986 100.0
110.798363 400.0
110.817581 160.0
110.837334 176.0
110.858292 124.0
110.87925 216.0
110.899223 332.0
110.942139 140.0
110.961014 196.0
110.995735 172.0
111.033279 140.0
111.086861 204.0
111.103645 224.0
111.154007 172.0
111.218063 132.0
111.240074 172.0
111.259888 340.0
111.292389 172.0
111.348969 136.0
111.366783 192.0
111.402687 132.0
111.425636 184.0
111.490059 180.0
111.515282 224.0
111.553123 136.0
111.576248 208.0
111.603584 200.0
111.618309 184.0
111.639343 212.0
111.664581 124.0
111.679306 340.0
111.708519 212.0
111.724991 160.0
111.74102 108.0
111.759651 192.0
111.836151 120.0
111.884758 136.0
111.889771 84.0
111.905327 192.0
111.927605 244.0
111.956482 156.0
111.995079 212.0
112.029228 172.0
112.049858 160.0
112.092918 148.0
112.115196 1288.0
112.16172 180.0
112.183701 120.0
112.191116 340.0
112.235573 200.0
112.253922 160.0
112.2752 144.0
112.307076 184.0
112.323952 96.0
112.342529 196.0
112.388557 52.0
112.414116 88.0
112.431068 132.0
112.480125 144.0
112.509689 192.0
112.5327 116.0
112.583603 52.0
112.613174 180.0
112.630135 132.0
112.642654 92.0
112.646088 220.0
112.681313 176.0
112.719414 140.0
112.744186 124.0
112.75898 144.0
112.798576 268.0
112.822403 164.0
112.849892 88.0
112.868927 104.0
112.939507 152.0
112.957893 132.0
112.998924 124.0
113.008095 56.0
113.015953 112.0
113.048409 244.0
113.080383 208.0
113.117065 264.0
113.136444 176.0
113.15461 144.0
113.216026 152.0
113.237206 48.0
113.266861 164.0
113.295219 364.0
113.326187 196.0
113.349503 188.0
113.372818 112.0
113.387657 120.0
113.415215 456.0
113.440651 88.0
113.472458 196.0
113.529716 144.0
113.548386 180.0
113.571175 140.0
113.633316 176.0
113.679756 396.0
113.750412 136.0
113.780693 112.0
113.789871 116.0
113.795738 184.0
113.823372 100.0
113.85009 200.0
113.86721 128.0
113.88208 136.0
113.905449 272.0
113.944588 144.0
113.960991 200.0
113.984322 168.0
114.001068 236.0
114.032677 216.0
114.081856 132.0
114.133179 144.0
114.150734 168.0
114.173294 220.0
114.191544 192.0
114.236366 148.0
114.266693 200.0
114.294571 156.0
114.322075 160.0
114.345581 124.0
114.386017 204.0
114.424423 180.0
114.467415 148.0
114.492966 196.0
114.538445 172.0
114.596962 172.0
114.61512 316.0
114.637459 140.0
114.673691 112.0
114.688614 144.0
114.709938 184.0
114.742668 156.0
114.775505 180.0
114.82592 176.0
114.87207 388.0
114.908295 128.0
114.93177 156.0
114.955437 180.0
114.965187 128.0
115.038498 152.0
115.110695 168.0
115.137039 364.0
115.173141 184.0
115.229561 312.0
115.267067 140.0
115.284164 128.0
115.325562 316.0
115.367188 184.0
115.393013 48.0
115.408775 100.0
115.435966 160.0
115.459892 156.0
115.515114 284.0
115.532959 188.0
115.578323 148.0
115.584007 184.0
115.607132 188.0
115.642906 140.0
115.662781 168.0
115.679909 204.0
115.694901 52.0
115.712029 104.0
115.736603 160.0
115.744614 204.0
115.771996 256.0
115.786537 208.0
115.802055 232.0
115.829048 176.0
115.882065 200.0
115.931038 228.0
115.946892 120.0
115.969131 32.0
116.003433 100.0
116.02916 156.0
116.059181 100.0
116.092285 416.0
116.112801 164.0
116.172836 152.0
116.193764 168.0
116.217926 32.0
116.2351 188.0
116.258156 204.0
116.284264 172.0
116.326508 144.0
116.360123 184.0
116.383232 116.0
116.398262 172.0
116.429733 184.0
116.490219 200.0
116.515121 180.0
116.559128 232.0
116.585182 248.0
116.612305 84.0
116.649673 76.0
116.671173 44.0
116.692673 96.0
116.709274 184.0
116.729393 216.0
116.752449 212.0
116.804749 160.0
116.86692 192.0
116.88327 172.0
116.909927 224.0
116.951736 148.0
116.961342 108.0
116.964996 248.0
117.002533 148.0
117.032677 192.0
117.062515 280.0
117.086357 320.0
117.089508 156.0
117.150963 320.0
117.172699 284.0
117.188667 176.0
117.233322 152.0
117.27726 148.0
117.316071 124.0
117.338371 168.0
117.374275 104.0
117.390434 160.0
117.420631 120.0
117.439377 104.0
117.480011 176.0
117.504768 180.0
117.529854 64.0
117.565071 336.0
117.582466 188.0
117.599731 152.0
117.640755 144.0
117.679619 180.0
117.718491 208.0
117.735054 192.0
117.762993 152.0
117.800583 132.0
117.832993 264.0
117.872658 112.0
117.900627 328.0
117.932243 208.0
117.967651 212.0
117.990784 96.0
118.00808 60.0
118.031174 176.0
118.068497 120.0
118.094933 4292.0
118.17495 172.0
118.225677 312.0
118.261925 148.0
118.277603 120.0
118.284531 68.0
118.29528 172.0
118.334839 132.0
118.360474 148.0
118.378151 180.0
118.427521 212.0
118.455124 284.0
118.482208 116.0
118.489113 180.0
118.49633 152.0
118.56015 48.0
118.588158 152.0
118.604576 276.0
118.623016 168.0
118.640366 156.0
118.663994 164.0
118.686157 220.0
118.714096 180.0
118.740074 176.0
118.774834 52.0
118.795853 284.0
118.824295 152.0
118.871986 176.0
118.933258 140.0
118.94812 132.0
118.955971 112.0
118.960159 184.0
118.983696 360.0
119.019073 428.0
119.041336 236.0
119.069893 164.0
119.102448 26560.0
119.137405 496.0
119.159134 188.0
119.212898 228.0
119.248245 100.0
119.265633 164.0
119.291092 164.0
119.336845 144.0
119.362457 168.0
119.396111 56.0
119.41861 104.0
119.44725 224.0
119.468796 204.0
119.491829 148.0
119.537445 96.0
119.542648 148.0
119.575264 204.0
119.59848 192.0
119.617264 368.0
119.646378 308.0
119.673424 176.0
119.742981 192.0
119.759216 136.0
119.800911 156.0
119.855499 136.0
119.875969 316.0
119.901131 188.0
119.929611 112.0
119.955727 212.0
119.980843 144.0
120.006218 236.0
120.03154 320.0
120.049316 196.0
120.123283 27164.0
120.194153 140.0
120.228783 80.0
120.26442 236.0
120.29129 72.0
120.318954 140.0
120.339737 148.0
120.351746 152.0
120.371407 152.0
120.390892 152.0
120.418419 212.0
120.447914 184.0
120.465874 172.0
120.490013 52.0
120.516144 84.0
120.537399 44.0
120.562309 216.0
120.599434 344.0
120.62822 136.0
120.64698 172.0
120.692749 188.0
120.743309 108.0
120.773689 56.0
120.792244 156.0
120.816635 288.0
120.824516 144.0
120.872787 144.0
120.880684 116.0
120.897194 160.0
120.923187 144.0
120.969528 96.0
121.008781 168.0
121.02951 240.0
121.050003 144.0
121.070755 160.0
121.126808 2388.0
121.157837 292.0
121.188568 168.0
121.214478 252.0
121.222282 208.0
121.229996 124.0
121.237091 152.0
121.273575 168.0
121.295967 84.0
121.326111 176.0
121.358727 116.0
121.381485 116.0
121.396835 164.0
121.429741 76.0
121.446228 108.0
121.485573 160.0
121.526276 148.0
121.543831 136.0
121.562241 176.0
121.587471 120.0
121.618996 148.0
121.638214 140.0
121.669395 80.0
121.684479 160.0
121.714058 196.0
121.765892 172.0
121.787552 176.0
121.818314 200.0
121.856316 216.0
121.885086 104.0
121.918243 164.0
121.942215 116.0
121.969955 164.0
121.987549 320.0
122.018204 144.0
122.023499 148.0
122.052879 180.0
122.095116 132.0
122.128822 100.0
122.159096 172.0
122.191444 108.0
122.218506 72.0
122.251724 44.0
122.293343 140.0
122.313004 172.0
122.319427 160.0
122.332283 224.0
122.393425 188.0
122.418945 192.0
122.521774 352.0
122.5495 220.0
122.588776 196.0
122.612747 108.0
122.659042 200.0
122.685501 124.0
122.736343 148.0
122.760475 160.0
122.775917 164.0
122.797974 104.0
122.831062 100.0
122.850922 80.0
122.884796 216.0
122.91127 188.0
122.928963 164.0
122.954643 88.0
122.98056 220.0
123.070435 144.0
123.10218 500.0
123.11882 124.0
123.159256 176.0
123.186523 148.0
123.224083 360.0
123.260399 208.0
123.279335 140.0
123.339073 156.0
123.361122 72.0
123.3965 276.0
123.429672 136.0
123.45108 200.0
123.519524 168.0
123.554588 196.0
123.582314 288.0
123.614708 320.0
123.639931 128.0
123.683029 104.0
123.735535 148.0
123.762138 140.0
123.810356 100.0
123.832504 152.0
123.85466 80.0
123.882233 188.0
123.898361 148.0
123.932205 156.0
123.954102 164.0
123.971237 188.0
124.003128 244.0
124.035011 168.0
124.050644 120.0
124.067177 36.0
124.071213 124.0
124.105118 152.0
124.168617 140.0
124.225464 204.0
124.243919 140.0
124.291473 184.0
124.31366 132.0
124.333641 244.0
124.39518 260.0
124.415779 100.0
124.45797 160.0
124.475739 212.0
124.496155 332.0
124.531265 80.0
124.546585 76.0
124.581284 132.0
124.597229 80.0
124.6241 128.0
124.653473 116.0
124.67173 320.0
124.704491 252.0
124.72683 180.0
124.746834 88.0
124.782097 140.0
124.815773 140.0
124.893623 184.0
124.915932 132.0
124.982811 188.0
125.020454 136.0
125.053848 80.0
125.071083 172.0
125.075554 128.0
125.086411 140.0
125.090248 216.0
125.117233 348.0
125.143616 88.0
125.168579 196.0
125.203033 212.0
125.225311 128.0
125.240906 184.0
125.263672 200.0
125.330032 120.0
125.346687 244.0
125.352623 116.0
125.360237 260.0
125.379059 304.0
125.399124 72.0
125.422218 156.0
125.460739 88.0
125.481613 188.0
125.510605 160.0
125.590904 200.0
125.619537 168.0
125.639984 44.0
125.708778 208.0
125.738632 340.0
125.769432 228.0
125.827927 180.0
125.877632 44.0
125.893684 56.0
125.926949 216.0
125.94622 368.0
125.96048 132.0
125.979424 168.0
126.003944 236.0
126.025909 140.0
126.032478 188.0
126.040321 260.0
126.061096 112.0
126.071968 128.0
126.080612 168.0
126.09938 120.0
126.122818 148.0
126.140442 60.0
126.164886 200.0
126.185005 152.0
126.204178 216.0
126.241547 156.0
126.261047 152.0
126.296837 268.0
126.314735 136.0
126.340721 108.0
126.366646 120.0
126.391083 168.0
126.420311 156.0
126.449837 200.0
126.48259 48.0
126.502335 200.0
126.535477 112.0
126.551994 28.0
126.572151 104.0
126.592636 136.0
126.646065 344.0
126.693062 168.0
126.70153 212.0
126.726112 160.0
126.762314 196.0
126.770592 168.0
126.777771 160.0
126.801956 120.0
126.852325 132.0
126.869896 120.0
126.888893 152.0
126.906746 156.0
126.948677 56.0
126.977837 172.0
126.999817 144.0
127.023727 148.0
127.056854 220.0
127.086967 112.0
127.122276 224.0
127.169388 220.0
127.211449 188.0
127.233292 232.0
127.266197 312.0
127.305542 136.0
127.322014 156.0
127.355446 204.0
127.3899 116.0
127.408958 144.0
127.434669 184.0
127.460312 136.0
127.466225 108.0
127.477692 200.0
127.486641 152.0
127.519005 184.0
127.564278 120.0
127.593193 120.0
127.618057 208.0
127.676407 184.0
127.7034 232.0
127.761894 256.0
127.795647 216.0
127.812744 260.0
127.836151 112.0
127.899529 156.0
127.930107 152.0
127.961014 208.0
128.027374 108.0
128.033661 128.0
128.04245 336.0
128.095032 2780.0
128.12384 256.0
128.159119 140.0
128.178925 144.0
128.206131 208.0
128.25061 120.0
128.283066 132.0
128.33078 144.0
128.381409 152.0
128.40538 108.0
128.445251 248.0
128.488251 176.0
128.516769 92.0
128.562836 356.0
128.593506 144.0
128.609314 152.0
128.632492 248.0
128.650864 132.0
128.681564 224.0
128.697372 156.0
128.727783 144.0
128.760544 156.0
128.78511 160.0
128.825775 176.0
128.860016 120.0
128.886154 168.0
128.893433 96.0
128.899216 148.0
128.91925 188.0
128.941376 40.0
128.984207 224.0
129.011108 184.0
129.028229 204.0
129.07283 112.0
129.095276 336.0
129.115097 184.0
129.128143 100.0
129.152863 204.0
129.181427 184.0
129.210007 164.0
129.244675 160.0
129.264816 128.0
129.316879 112.0
129.343063 148.0
129.378006 136.0
129.423645 180.0
129.466934 176.0
129.48671 44.0
129.520691 120.0
129.552399 172.0
129.605927 188.0
129.627182 144.0
129.645309 196.0
129.661179 160.0
129.707321 136.0
129.733994 176.0
129.756409 52.0
129.775833 212.0
129.792419 100.0
129.80748 436.0
129.828766 180.0
129.866806 136.0
129.89801 188.0
129.924789 168.0
129.960556 148.0
130.008224 156.0
130.083176 184.0
130.110413 128.0
130.135361 152.0
130.160339 136.0
130.185394 136.0
130.228485 92.0
130.244385 220.0
130.262939 268.0
130.30632 152.0
130.352982 216.0
130.373611 152.0
130.398911 160.0
130.434448 212.0
130.46257 140.0
130.493225 356.0
130.511398 160.0
130.532486 204.0
130.551254 164.0
130.582275 156.0
130.610397 220.0
130.636307 216.0
130.674103 320.0
130.717514 156.0
130.744659 156.0
130.76741 204.0
130.84343 136.0
130.859268 176.0
130.876511 136.0
130.919983 128.0
130.942749 188.0
130.974457 196.0
131.016434 128.0
131.068069 144.0
131.106735 1732.0
131.164948 176.0
131.1866 52.0
131.220139 228.0
131.248047 332.0
131.291473 300.0
131.387314 148.0
131.406464 144.0
131.430679 156.0
131.464905 176.0
131.48317 72.0
131.507965 148.0
131.528824 132.0
131.551651 136.0
131.599136 192.0
131.613159 128.0
131.627121 208.0
131.652237 168.0
131.683777 164.0
131.725235 208.0
131.741226 168.0
131.765137 104.0
131.796066 360.0
131.819275 288.0
131.838654 120.0
131.86937 176.0
131.893677 228.0
131.94635 324.0
131.976929 308.0
132.006393 160.0
132.041183 272.0
132.103149 5140.0
132.163498 132.0
132.195129 168.0
132.216446 180.0
132.231949 248.0
132.260391 88.0
132.287964 172.0
132.316498 176.0
132.34906 288.0
132.380569 364.0
132.395264 40.0
132.404129 172.0
132.421249 148.0
132.455048 52.0
132.477966 128.0
132.523026 48.0
132.563522 168.0
132.584473 188.0
132.606308 152.0
132.63649 304.0
132.677368 256.0
132.699783 124.0
132.716904 152.0
132.763245 144.0
132.789749 200.0
132.815384 140.0
132.840225 184.0
132.857269 296.0
132.903503 180.0
132.953842 288.0
133.016998 152.0
133.052887 164.0
133.121582 5388.0
133.181091 312.0
133.234314 124.0
133.25824 220.0
133.291901 160.0
133.313263 32.0
133.347748 92.0
133.374817 180.0
133.398331 124.0
133.421143 104.0
133.424286 96.0
133.433441 132.0
133.452866 172.0
133.472931 124.0
133.497208 156.0
133.535828 132.0
133.569931 388.0
133.586914 116.0
133.65596 216.0
133.714813 212.0
133.74028 164.0
133.755569 100.0
133.764801 168.0
133.805588 184.0
133.837814 196.0
133.86499 196.0
133.893936 396.0
133.910172 136.0
133.949936 260.0
133.991104 176.0
134.018509 164.0
134.056686 152.0
134.119125 1672.0
134.15683 176.0
134.185974 224.0
134.206543 160.0
134.229126 136.0
134.278046 148.0
134.305679 240.0
134.336487 468.0
134.379745 192.0
134.414337 168.0
134.451096 184.0
134.499069 180.0
134.539291 452.0
134.582245 160.0
134.590561 128.0
134.60173 212.0
134.631454 176.0
134.670288 160.0
134.695877 116.0
134.713364 148.0
134.726837 140.0
134.797546 60.0
134.825363 112.0
134.842758 292.0
134.864578 164.0
134.890015 124.0
134.915451 176.0
134.931625 180.0
134.970947 212.0
134.995438 156.0
135.054031 100.0
135.075653 224.0
135.083054 60.0
135.0905 192.0
135.122482 156.0
135.146759 120.0
135.177475 132.0
135.228592 164.0
135.250916 156.0
135.274078 108.0
135.304947 300.0
135.354538 244.0
135.380859 76.0
135.422287 160.0
135.444351 84.0
135.477814 132.0
135.500107 184.0
135.52655 108.0
135.553223 188.0
135.577545 160.0
135.593765 108.0
135.616898 176.0
135.648209 140.0
135.667358 156.0
135.68428 96.0
135.716644 124.0
135.737518 156.0
135.842697 116.0
135.860397 148.0
135.879608 192.0
135.900421 180.0
135.927444 180.0
135.934372 156.0
135.965363 192.0
135.986053 320.0
136.019623 216.0
136.057541 208.0
136.064362 168.0
136.099548 188.0
136.122772 136.0
136.166916 216.0
136.184311 160.0
136.211044 128.0
136.22963 132.0
136.250549 164.0
136.271454 180.0
136.324234 152.0
136.371399 168.0
136.392395 124.0
136.432556 132.0
136.47821 204.0
136.49733 228.0
136.532593 148.0
136.550461 116.0
136.595703 344.0
136.622086 472.0
136.680603 192.0
136.688507 180.0
136.70755 148.0
136.777725 172.0
136.808777 132.0
136.845734 156.0
136.877319 148.0
136.894501 344.0
136.921539 204.0
136.945969 128.0
136.984909 168.0
137.005417 180.0
137.020737 372.0
137.097641 184.0
137.15126 180.0
137.188568 128.0
137.214203 112.0
137.235199 112.0
137.253845 120.0
137.297455 156.0
137.33316 132.0
137.357712 268.0
137.368027 140.0
137.374359 200.0
137.401978 104.0
137.435822 164.0
137.452148 156.0
137.47435 172.0
137.505844 120.0
137.54512 420.0
137.58522 116.0
137.622406 224.0
137.650604 268.0
137.753387 160.0
137.776917 184.0
137.82872 228.0
137.886322 104.0
137.928314 156.0
137.942383 184.0
137.987442 144.0
138.017029 324.0
138.052643 236.0
138.111084 60.0
138.160492 136.0
138.199982 152.0
138.218704 140.0
138.255127 280.0
138.309998 132.0
138.333405 228.0
138.349792 92.0
138.37088 228.0
138.403839 156.0
138.432037 172.0
138.455185 348.0
138.494431 132.0
138.585098 196.0
138.621536 200.0
138.644272 240.0
138.698883 180.0
138.718765 136.0
138.750717 304.0
138.799713 116.0
138.838623 136.0
138.944519 180.0
138.982712 144.0
139.023773 120.0
139.050766 132.0
139.135284 148.0
139.154068 160.0
139.176849 172.0
139.223862 140.0
139.245667 200.0
139.287537 204.0
139.317307 180.0
139.334946 172.0
139.353928 152.0
139.379593 132.0
139.396042 132.0
139.425766 180.0
139.483017 152.0
139.503067 116.0
139.546005 76.0
139.583069 152.0
139.607651 56.0
139.633514 144.0
139.665771 192.0
139.687622 176.0
139.708206 220.0
139.754105 204.0
139.772339 180.0
139.819412 112.0
139.843613 212.0
139.871201 120.0
139.90036 176.0
139.923004 192.0
139.953613 284.0
139.979523 180.0
140.011795 164.0
140.043106 160.0
140.070541 192.0
140.160919 120.0
140.288208 72.0
140.344193 188.0
140.369492 208.0
140.385727 160.0
140.410843 124.0
140.448593 88.0
140.465103 276.0
140.502853 108.0
140.532471 152.0
140.555725 108.0
140.5867 188.0
140.611404 32.0
140.634109 176.0
140.68103 148.0
140.705841 88.0
140.801727 120.0
140.823929 192.0
140.858139 216.0
140.88913 148.0
140.912811 160.0
140.932617 176.0
140.975433 340.0
141.025909 120.0
141.043594 228.0
141.080261 208.0
141.120209 136.0
141.148941 184.0
141.195053 184.0
141.223984 172.0
141.285355 116.0
141.30899 124.0
141.337372 188.0
141.369232 52.0
141.391449 260.0
141.436432 228.0
141.46199 168.0
141.479355 160.0
141.495972 184.0
141.52092 140.0
141.547714 64.0
141.572815 208.0
141.582626 124.0
141.591736 300.0
141.68985 160.0
141.777542 140.0
141.824951 224.0
141.841537 68.0
141.886581 100.0
141.912674 180.0
141.935822 168.0
141.962479 104.0
142.006516 260.0
142.060684 176.0
142.085205 120.0
142.102249 248.0
142.137222 204.0
142.159927 180.0
142.181946 120.0
142.20575 168.0
142.259109 172.0
142.349594 216.0
142.368347 400.0
142.430099 164.0
142.458618 140.0
142.482056 152.0
142.563583 212.0
142.59549 248.0
142.626541 284.0
142.651123 184.0
142.691193 184.0
142.718903 80.0
142.779999 252.0
142.785141 160.0
142.818985 144.0
142.828079 80.0
142.848663 352.0
142.891357 156.0
142.953232 144.0
142.988342 144.0
143.015488 164.0
143.040787 164.0
143.067017 176.0
143.110947 3120.0
143.196106 108.0
143.229462 136.0
143.263535 92.0
143.279495 200.0
143.310745 176.0
143.353821 184.0
143.377151 196.0
143.434006 132.0
143.464691 172.0
143.501175 152.0
143.522629 64.0
143.553635 176.0
143.57988 140.0
143.607788 160.0
143.625198 264.0
143.663513 144.0
143.718735 176.0
143.753189 216.0
143.798843 136.0
143.874268 144.0
143.914551 160.0
143.932205 320.0
143.955627 152.0
143.976105 100.0
143.999985 136.0
144.02626 128.0
144.052551 104.0
144.1138 572.0
144.183975 124.0
144.214813 120.0
144.24852 204.0
144.31308 172.0
144.338043 208.0
144.352341 144.0
144.402115 168.0
144.432678 120.0
144.451813 52.0
144.499222 168.0
144.512802 440.0
144.568848 132.0
144.612152 80.0
144.657639 196.0
144.683609 180.0
144.705414 168.0
144.731918 196.0
144.7556 108.0
144.777893 188.0
144.804901 228.0
144.825287 204.0
144.875946 140.0
144.889877 96.0
144.921127 156.0
144.957138 156.0
144.988235 240.0
145.008606 136.0
145.038742 168.0
145.071213 156.0
145.107559 364.0
145.141678 128.0
145.188354 208.0
145.223221 140.0
145.261673 140.0
145.326065 144.0
145.412918 192.0
145.432007 284.0
145.473831 180.0
145.50531 256.0
145.527847 188.0
145.534424 104.0
145.543213 152.0
145.626572 188.0
145.646851 156.0
145.68718 176.0
145.721771 372.0
145.763474 264.0
145.780243 164.0
145.828369 108.0
145.875427 140.0
145.91011 188.0
145.931763 128.0
145.967834 140.0
146.003937 280.0
146.030365 172.0
146.067307 204.0
146.11116 11152.0
146.142776 184.0
146.188217 336.0
146.211517 212.0
146.254166 140.0
146.280655 176.0
146.35289 120.0
146.391418 156.0
146.417923 248.0
146.438965 212.0
146.497482 108.0
146.55043 96.0
146.574524 192.0
146.604752 96.0
146.627548 144.0
146.650101 72.0
146.681656 260.0
146.7108 128.0
146.773361 228.0
146.809158 204.0
146.853943 176.0
146.882416 228.0
146.909714 184.0
146.942627 172.0
146.959091 128.0
147.015884 116.0
147.115921 952.0
147.167175 36.0
147.216293 88.0
147.252014 172.0
147.274261 172.0
147.312134 124.0
147.334656 160.0
147.351578 92.0
147.371582 156.0
147.443024 152.0
147.477249 132.0
147.496597 168.0
147.547363 192.0
147.570679 212.0
147.596252 184.0
147.652298 184.0
147.6828 44.0
147.716263 116.0
147.766541 152.0
147.847565 176.0
147.893341 160.0
147.925995 132.0
147.940399 164.0
147.998505 276.0
148.032211 240.0
148.055588 136.0
148.076813 192.0
148.121964 180.0
148.145218 184.0
148.185181 228.0
148.207169 148.0
148.21846 124.0
148.224854 60.0
148.269653 324.0
148.313049 108.0
148.339111 164.0
148.375488 208.0
148.392166 164.0
148.414276 136.0
148.455902 148.0
148.482193 236.0
148.523239 148.0
148.545197 144.0
148.628983 160.0
148.677734 184.0
148.696091 180.0
148.717636 144.0
148.758469 104.0
148.81955 144.0
148.843262 372.0
148.907303 128.0
148.926422 148.0
148.965286 184.0
149.00174 132.0
149.038116 160.0
149.118362 304.0
149.145798 416.0
149.169022 92.0
149.204819 152.0
149.236069 180.0
149.294983 248.0
149.327209 164.0
149.351837 144.0
149.383469 88.0
149.402634 96.0
149.453568 360.0
149.508438 164.0
149.544083 104.0
149.582062 188.0
149.601196 176.0
149.63237 232.0
149.663391 412.0
149.699921 100.0
149.751083 116.0
149.787857 120.0
149.816849 140.0
149.848526 100.0
149.902405 280.0
149.93457 184.0
149.959381 168.0
149.980148 144.0
150.018478 160.0
150.049133 108.0
150.087845 192.0
150.114258 124.0
150.170578 276.0
150.197708 132.0
150.253311 128.0
150.29686 168.0
150.337479 156.0
150.377777 220.0
150.399292 108.0
150.40918 88.0
150.420914 96.0
150.425064 152.0
150.502594 132.0
150.532257 120.0
150.559341 348.0
150.611298 172.0
150.619461 228.0
150.6436 192.0
150.683075 116.0
150.712601 140.0
150.761276 140.0
150.778381 132.0
150.834412 152.0
150.890839 48.0
150.922806 176.0
150.954422 208.0
150.97496 164.0
151.001648 220.0
151.024857 184.0
151.052689 140.0
151.091888 152.0
151.123505 180.0
151.150146 152.0
151.190399 124.0
151.226028 212.0
151.250504 92.0
151.294342 172.0
151.345184 108.0
151.444595 236.0
151.491394 224.0
151.522278 96.0
151.576691 248.0
151.648682 156.0
151.669327 180.0
151.679855 276.0
151.73819 188.0
151.816757 164.0
151.845703 232.0
151.852493 156.0
151.938049 152.0
152.001007 332.0
152.046295 196.0
152.079117 204.0
152.117249 276.0
152.138031 176.0
152.160141 156.0
152.219711 76.0
152.248871 180.0
152.280853 140.0
152.293869 88.0
152.302689 92.0
152.349274 156.0
152.417099 172.0
152.422028 112.0
152.477066 164.0
152.550812 160.0
152.623383 364.0
152.641739 176.0
152.673767 40.0
152.72789 168.0
152.754944 164.0
152.783081 124.0
152.813995 136.0
152.833679 124.0
152.8638 184.0
152.932098 224.0
152.985168 52.0
153.035141 120.0
153.041809 88.0
153.057083 172.0
153.082336 148.0
153.109436 132.0
153.141815 364.0
153.163727 188.0
153.193192 36.0
153.22522 148.0
153.28299 200.0
153.306549 92.0
153.341064 148.0
153.357117 140.0
153.380493 116.0
153.397751 240.0
153.414413 164.0
153.442139 200.0
153.476669 156.0
153.550659 136.0
153.576187 204.0
153.614792 200.0
153.649429 108.0
153.655991 132.0
153.666473 196.0
153.684174 168.0
153.713089 144.0
153.727341 152.0
153.769165 108.0
153.813278 160.0
153.911011 32.0
153.944092 180.0
153.960403 276.0
153.977692 344.0
154.007339 104.0
154.032043 208.0
154.087982 196.0
154.108627 156.0
154.135818 156.0
154.159775 168.0
154.190201 208.0
154.219864 148.0
154.246597 220.0
154.274246 144.0
154.313812 212.0
154.338547 140.0
154.370697 124.0
154.392944 148.0
154.427948 136.0
154.490189 292.0
154.512375 148.0
154.542664 156.0
154.609253 220.0
154.628021 120.0
154.66301 176.0
154.68248 124.0
154.705795 184.0
154.755295 128.0
154.781525 128.0
154.945023 152.0
154.985474 160.0
155.006973 88.0
155.043015 324.0
155.066467 216.0
155.108612 224.0
155.163437 172.0
155.186417 136.0
155.217712 180.0
155.243378 264.0
155.280426 84.0
155.287796 156.0
155.36055 144.0
155.417587 212.0
155.4534 32.0
155.490631 92.0
155.518097 184.0
155.541199 304.0
155.562622 92.0
155.584976 80.0
155.609238 124.0
155.634888 308.0
155.682632 160.0
155.698196 128.0
155.733994 128.0
155.751373 112.0
155.77066 204.0
155.823425 140.0
155.86644 320.0
155.902954 124.0
155.946304 100.0
155.997421 200.0
156.042725 200.0
156.047882 136.0
156.090652 340.0
156.133179 196.0
156.183411 188.0
156.206345 48.0
156.226242 32.0
156.2491 380.0
156.276001 152.0
156.292648 116.0
156.310852 176.0
156.338226 144.0
156.36586 120.0
156.376633 112.0
156.387177 144.0
156.444 268.0
156.469681 184.0
156.507523 184.0
156.559311 156.0
156.631165 188.0
156.700897 224.0
156.726746 148.0
156.75914 188.0
156.781586 336.0
156.801514 128.0
156.832657 188.0
156.854965 192.0
156.908722 144.0
156.930084 168.0
156.957901 144.0
157.002625 156.0
157.03093 120.0
157.060867 168.0
157.081604 140.0
157.120819 580.0
157.153671 164.0
157.190659 144.0
157.221176 228.0
157.272049 128.0
157.297836 88.0
157.331131 168.0
157.364609 144.0
157.384583 292.0
157.410934 164.0
157.4328 236.0
157.500992 120.0
157.512375 168.0
157.521133 264.0
157.548767 332.0
157.594055 188.0
157.625183 180.0
157.665375 104.0
157.700562 128.0
157.741959 300.0
157.79332 180.0
157.827469 144.0
157.860199 292.0
157.880203 36.0
157.90416 124.0
157.925232 112.0
157.959091 360.0
157.992737 208.0
158.040329 96.0
158.073395 56.0
158.125732 3840.0
158.177124 216.0
158.183701 100.0
158.238297 160.0
158.28537 340.0
158.325729 140.0
158.341553 128.0
158.353043 40.0
158.362503 124.0
158.415421 180.0
158.440979 184.0
158.464218 216.0
158.527802 284.0
158.574722 228.0
158.601379 148.0
158.618927 144.0
158.641663 60.0
158.692001 176.0
158.761749 88.0
158.781433 244.0
158.82457 108.0
158.856934 200.0
158.897339 132.0
158.934982 100.0
158.954941 312.0
158.987244 160.0
158.997025 116.0
159.006577 352.0
159.02533 100.0
159.050797 200.0
159.058853 136.0
159.074295 208.0
159.102722 160.0
159.133896 2332.0
159.175522 152.0
159.199524 200.0
159.205032 128.0
159.216171 140.0
159.250168 128.0
159.284882 232.0
159.331299 520.0
159.354538 168.0
159.361206 124.0
159.373062 240.0
159.393478 296.0
159.432999 356.0
159.453613 320.0
159.482147 196.0
159.525711 192.0
159.534454 212.0
159.559189 440.0
159.599747 252.0
159.618637 304.0
159.624084 236.0
159.648285 292.0
159.688248 324.0
159.734589 648.0
159.76535 176.0
159.792709 572.0
159.849243 352.0
159.852661 296.0
159.875854 256.0
159.890503 412.0
159.916824 428.0
159.936447 344.0
159.997696 916.0
160.030273 468.0
160.07518 1296.0
160.14505 478852.0
160.228836 288.0
160.264099 132.0
160.342789 316.0
160.349991 436.0
160.379883 1472.0
160.421494 524.0
160.456665 400.0
160.529861 1716.0
160.559616 18924.0
160.602249 460.0
160.653091 316.0
160.670151 172.0
160.699219 128.0
160.753159 348.0
160.791061 108.0
160.809479 348.0
160.822418 156.0
160.826935 304.0
160.867157 304.0
160.895416 264.0
160.903961 116.0
160.911438 204.0
160.952179 432.0
160.976517 300.0
160.992813 132.0
161.021103 172.0
161.053604 356.0
161.088806 268.0
161.109207 480.0
161.147202 127108.0
161.226608 232.0
161.253967 212.0
161.284592 188.0
161.360596 236.0
161.388718 380.0
161.414459 252.0
161.45192 80.0
161.476776 132.0
161.494125 112.0
161.531479 116.0
161.541931 104.0
161.56485 400.0
161.609421 156.0
161.626877 224.0
161.659271 200.0
161.695908 180.0
161.721832 144.0
161.749344 152.0
161.778122 80.0
161.788681 172.0
161.806335 156.0
161.847092 88.0
161.894119 68.0
161.91893 64.0
161.974594 140.0
162.009262 240.0
162.029877 220.0
162.039017 180.0
162.048279 164.0
162.089218 252.0
162.149506 3956.0
162.229492 344.0
162.243042 252.0
162.249847 156.0
162.281586 256.0
162.303619 548.0
162.334122 464.0
162.369263 300.0
162.393372 492.0
162.412537 640.0
162.430161 264.0
162.452682 396.0
162.504761 328.0
162.542465 148.0
162.548553 68.0
162.585281 212.0
162.635101 52.0
162.673248 116.0
162.708237 152.0
162.736313 56.0
162.78096 208.0
162.833038 100.0
162.85405 108.0
162.8918 176.0
162.91687 92.0
162.950867 196.0
162.97728 156.0
162.983887 100.0
162.994125 96.0
163.01413 68.0
163.033844 204.0
163.071564 76.0
163.089905 92.0
163.127182 268.0
163.1465 432.0
163.190109 100.0
163.218796 64.0
163.238632 244.0
163.276276 140.0
163.3004 68.0
163.307663 48.0
163.370316 200.0
163.39212 72.0
163.420929 124.0
163.43309 100.0
163.456894 120.0
163.474457 120.0
163.506119 164.0
163.536697 168.0
163.591019 140.0
163.620651 172.0
163.639603 96.0
163.68544 120.0
163.708359 88.0
163.742538 152.0
163.778793 104.0
163.806427 64.0
163.833191 64.0
163.863205 168.0
163.903366 52.0
163.933731 96.0
163.996292 80.0
164.044739 236.0
164.063217 64.0
164.082977 32.0
164.150833 68.0
164.229523 96.0
164.289581 28.0
164.31572 132.0
164.344849 84.0
164.377319 52.0
164.406052 92.0
164.437607 164.0
164.471222 208.0
164.519302 136.0
164.543976 48.0
164.61673 80.0
164.634842 180.0
164.694977 56.0
164.700165 44.0
164.746628 108.0
164.782394 32.0
164.800278 116.0
164.833496 96.0
164.862045 96.0
164.887177 136.0
164.956207 48.0
164.984329 196.0
165.009109 184.0
165.069946 224.0
165.094284 60.0
165.114746 60.0
165.173584 36.0
165.242676 76.0
165.333572 100.0
165.382309 72.0
165.467484 68.0
165.488419 92.0
165.562683 36.0
165.598541 44.0
165.680527 68.0
165.698471 88.0
165.744598 32.0
165.791946 80.0
165.85994 64.0
165.885223 88.0
165.986954 88.0
166.020386 84.0
166.090744 52.0
166.143097 728.0
166.187363 160.0
166.216476 68.0
166.257538 104.0
166.290909 156.0
166.346558 136.0
166.380661 88.0
166.493027 84.0
166.522018 164.0
166.540009 132.0
166.573395 136.0
166.7173 140.0
166.750717 48.0
166.77771 32.0
166.835556 92.0
166.886993 156.0
166.928131 208.0
167.002136 156.0
167.077423 120.0
167.15773 184.0
167.213745 48.0
167.257507 44.0
167.347626 132.0
167.507309 28.0
167.649048 80.0
167.69696 144.0
167.728958 32.0
167.772781 108.0
167.799423 156.0
167.81517 92.0
167.886261 72.0
167.932571 96.0
168.035217 124.0
168.082336 80.0
168.208817 52.0
168.252808 116.0
168.366348 136.0
168.423569 112.0
168.472122 148.0
168.503265 92.0
168.533142 128.0
168.593719 56.0
168.656433 200.0
168.679031 72.0
168.708755 104.0
168.746246 76.0
168.781067 112.0
168.823837 64.0
168.857193 76.0
168.871887 160.0
168.904022 176.0
168.927307 140.0
168.984238 108.0
169.006943 124.0
169.043762 68.0
169.077408 156.0
169.105881 76.0
169.143311 52.0
169.187469 168.0
169.25087 148.0
169.292313 160.0
169.392624 72.0
169.4646 128.0
169.481445 244.0
169.534714 196.0
169.554001 76.0
169.655685 92.0
169.725128 80.0
169.743286 48.0
169.782181 132.0
169.821091 88.0
169.891144 52.0
169.947525 136.0
170.053055 72.0
170.084167 224.0
170.129562 200.0
170.198654 112.0
170.214935 196.0
170.267166 52.0
170.306946 228.0
170.340775 132.0
170.36499 128.0
170.389679 172.0
170.413055 108.0
170.462433 112.0
170.51442 124.0
170.596451 152.0
170.621017 56.0
170.644424 112.0
170.73349 112.0
170.779663 56.0
170.822632 120.0
170.852509 112.0
170.874542 128.0
170.90976 164.0
170.946198 32.0
171.032089 96.0
171.071152 60.0
171.097473 108.0
171.130859 124.0
171.162277 64.0
171.185837 96.0
171.250839 124.0
171.271683 44.0
171.300339 88.0
171.357666 40.0
171.384796 176.0
171.40979 132.0
171.490585 176.0
171.579224 100.0
171.617874 180.0
171.722458 96.0
171.806152 48.0
171.8479 156.0
171.870346 120.0
171.907928 88.0
171.966629 212.0
172.061951 144.0
172.085373 132.0
172.147308 4912.0
172.192535 196.0
172.219223 148.0
172.237885 204.0
172.27803 132.0
172.303528 148.0
172.336227 108.0
172.362366 56.0
172.410172 180.0
172.435547 136.0
172.464035 200.0
172.610733 60.0
172.629044 76.0
172.753983 84.0
172.799088 152.0
172.909012 200.0
172.943039 108.0
173.032684 100.0
173.060852 200.0
173.148331 404.0
173.289566 184.0
173.341827 100.0
173.370544 168.0
173.397339 124.0
173.492264 120.0
173.528442 120.0
173.562164 156.0
173.59549 116.0
173.705658 156.0
173.840515 164.0
173.884933 204.0
173.925629 152.0
173.98912 48.0
174.012756 140.0
174.044769 128.0
174.070541 260.0
174.112564 116.0
174.152969 440.0
174.185837 292.0
174.228149 88.0
174.272827 96.0
174.342117 76.0
174.370071 180.0
174.468552 104.0
174.537918 124.0
174.63829 172.0
174.656708 84.0
174.719849 136.0
174.761948 140.0
174.797775 72.0
174.890915 96.0
174.940948 88.0
174.964645 40.0
175.069977 208.0
175.126495 88.0
175.149765 896.0
175.193787 160.0
175.24913 152.0
175.37355 116.0
175.42746 152.0
175.449463 72.0
175.530487 160.0
175.583954 164.0
175.723785 112.0
175.779205 80.0
175.824081 84.0
175.866318 80.0
175.921753 56.0
176.07756 64.0
176.133041 100.0
176.162094 96.0
176.209656 96.0
176.336517 84.0
176.418472 116.0
176.450211 56.0
176.503098 96.0
176.58078 172.0
176.706787 188.0
176.725311 176.0
176.781281 220.0
176.913467 148.0
176.974152 80.0
177.000641 144.0
177.135727 184.0
177.22052 64.0
177.345093 212.0
177.396652 184.0
177.443192 216.0
177.477661 52.0
177.551926 112.0
177.573151 140.0
177.657501 176.0
177.745605 144.0
177.830551 72.0
177.886292 104.0
178.037659 192.0
178.154205 164.0
178.31192 132.0
178.361847 116.0
178.388443 124.0
178.460236 68.0
178.782806 228.0
178.806107 196.0
178.846039 52.0
178.881866 168.0
178.925903 72.0
179.03775 188.0
179.285553 124.0
179.453506 132.0
179.495926 124.0
179.597717 176.0
179.712265 140.0
179.776947 136.0
179.838943 128.0
179.893784 124.0
179.941849 188.0
180.019089 156.0
180.080719 36.0
180.112778 88.0
180.198273 104.0
180.31485 156.0
180.524429 92.0
180.585953 136.0
180.73497 184.0
180.796387 124.0
180.861588 84.0
180.907104 244.0
181.13475 84.0
181.16423 132.0
181.236572 224.0
181.311615 164.0
181.362549 52.0
181.389359 192.0
181.416168 132.0
181.609268 56.0
181.638779 72.0
181.662918 144.0
181.743423 152.0
181.770264 224.0
181.858032 80.0
181.930222 176.0
181.952805 148.0
181.974777 176.0
182.097839 80.0
182.129517 116.0
182.170364 156.0
182.217819 200.0
182.29129 204.0
182.335175 196.0
182.605881 68.0
182.66507 140.0
182.818451 140.0
182.990753 64.0
183.017685 68.0
183.133499 144.0
183.167328 136.0
183.238571 144.0
183.384109 124.0
183.40567 132.0
183.486557 128.0
183.602524 96.0
183.630219 164.0
183.665344 112.0
183.745514 136.0
183.815674 48.0
184.096466 76.0
184.14238 184.0
184.228836 112.0
184.469376 160.0
184.5522 76.0
185.029465 108.0
185.061951 136.0
185.102585 72.0
185.158432 2204.0
185.334045 100.0
185.357254 116.0
185.37973 68.0
185.506332 68.0
185.568695 208.0
185.644638 116.0
185.704315 44.0
185.801971 112.0
185.864395 180.0
185.899673 188.0
185.924103 80.0
185.955475 152.0
186.024551 80.0
186.048981 84.0
186.094025 184.0
186.128433 236.0
186.167755 4948.0
186.222488 176.0
186.268982 132.0
186.354279 184.0
186.418427 60.0
186.505417 128.0
186.719009 44.0
186.818176 104.0
186.839951 132.0
186.916138 64.0
186.951523 84.0
186.992355 116.0
187.053192 200.0
187.133621 184.0
187.171738 768.0
187.227539 160.0
187.261307 224.0
187.347198 188.0
187.485367 84.0
187.586243 224.0
187.793503 96.0
187.822723 152.0
187.916275 112.0
187.962677 148.0
188.025452 156.0
188.06517 268.0
188.167404 128.0
188.208328 2616.0
188.314896 44.0
188.474365 76.0
188.511627 92.0
188.544418 128.0
188.596359 96.0
188.651184 76.0
188.686584 140.0
188.711197 76.0
188.792908 200.0
188.918732 156.0
188.960129 128.0
189.075073 36.0
189.215454 240.0
189.239761 128.0
189.313278 188.0
189.346146 156.0
189.417374 80.0
189.461212 104.0
189.592758 72.0
189.614685 204.0
189.74353 124.0
189.799026 152.0
189.853241 60.0
189.877914 232.0
189.979431 112.0
190.119385 140.0
190.470871 72.0
190.523071 104.0
190.645096 180.0
190.715454 40.0
190.745697 116.0
190.828979 168.0
191.017975 80.0
191.309723 136.0
191.392319 152.0
191.441895 124.0
191.491486 196.0
191.665054 176.0
191.852509 168.0
191.882843 236.0
191.969452 128.0
192.147644 108.0
192.200073 288.0
192.41539 148.0
192.559006 132.0
192.666748 124.0
192.879562 108.0
193.211472 164.0
193.272339 172.0
193.335999 116.0
193.383057 132.0
193.446732 128.0
193.538101 96.0
193.626587 148.0
193.851166 172.0
193.892746 72.0
193.914917 180.0
194.02858 96.0
194.075729 248.0
194.175568 192.0
194.258804 140.0
194.314285 96.0
194.342041 92.0
194.372574 136.0
194.394775 132.0
194.51413 140.0
194.689087 156.0
194.836319 72.0
194.866882 224.0
194.886337 108.0
194.940308 152.0
195.055893 48.0
195.103149 116.0
195.175446 68.0
195.203262 172.0
195.41748 124.0
195.645721 144.0
195.796112 136.0
195.907547 136.0
195.957703 160.0
196.152802 180.0
196.172318 168.0
196.214142 128.0
196.30896 132.0
196.384277 140.0
196.607513 200.0
196.783386 136.0
196.80574 92.0
196.964951 124.0
197.014938 152.0
197.081879 216.0
197.127014 128.0
197.185715 148.0
197.205276 168.0
197.272369 96.0
197.303131 180.0
197.342285 128.0
197.459747 180.0
197.526886 84.0
197.552063 80.0
197.633209 128.0
197.685944 100.0
197.862747 152.0
197.974777 148.0
198.17308 368.0
198.198196 476.0
198.33905 100.0
198.44841 28.0
198.538147 132.0
198.574615 92.0
198.63913 76.0
198.756989 156.0
198.861481 156.0
198.922607 120.0
199.155701 120.0
199.188339 188.0
199.220322 120.0
199.242798 48.0
199.278641 164.0
199.307419 108.0
199.41423 156.0
199.622299 40.0
199.681366 176.0
199.827667 204.0
199.883957 280.0
200.101822 80.0
200.157043 160.0
200.185196 168.0
200.218994 80.0
200.334503 132.0
200.362671 176.0
200.796844 116.0
200.957657 168.0
201.00563 36.0
201.098785 100.0
201.118546 88.0
201.141129 36.0
201.180649 212.0
201.499832 60.0
201.533737 140.0
201.56044 108.0
201.728775 112.0
201.799469 108.0
201.86734 144.0
202.031418 156.0
202.099319 144.0
202.203354 168.0
202.218765 156.0
202.331436 184.0
202.691208 252.0
202.957703 116.0
203.048462 108.0
203.099518 68.0
203.164169 364.0
203.194336 152.0
203.437241 72.0
203.494232 60.0
203.528107 88.0
203.641724 104.0
203.670135 92.0
203.702881 136.0
203.897461 180.0
204.059525 204.0
204.119247 80.0
204.148819 388.0
204.17392 196.0
204.207413 60.0
204.25293 132.0
204.366745 144.0
204.591095 236.0
204.64003 88.0
204.659958 104.0
204.874329 196.0
204.917358 168.0
205.084503 160.0
205.152924 224.0
205.249878 156.0
205.349701 144.0
205.469528 148.0
205.552597 164.0
205.655045 180.0
205.675018 104.0
205.740692 68.0
205.843491 32.0
206.226379 124.0
206.294983 124.0
206.423676 124.0
206.451553 80.0
206.54953 200.0
206.632507 44.0
206.7155 124.0
206.855759 136.0
206.913025 172.0
207.084869 168.0
207.181015 64.0
207.325562 136.0
207.377151 112.0
207.454559 164.0
207.629501 44.0
207.770065 160.0
207.873642 200.0
207.982452 52.0
208.209305 152.0
208.342148 152.0
208.375946 160.0
208.580017 120.0
208.657639 76.0
208.733368 204.0
208.809082 128.0
208.97406 152.0
209.069031 180.0
209.123718 108.0
209.222336 64.0
209.243637 160.0
209.290726 136.0
209.530975 148.0
209.717148 160.0
209.884384 160.0
209.910339 312.0
209.997498 148.0
210.019943 196.0
210.063217 100.0
210.158447 160.0
210.198853 224.0
210.337234 136.0
210.41597 192.0
210.444229 156.0
210.519318 52.0
210.602188 232.0
210.639465 88.0
210.66954 108.0
210.721542 112.0
210.785126 100.0
210.819809 84.0
210.880508 40.0
210.900742 132.0
210.967239 212.0
211.071335 204.0
211.473526 132.0
211.583542 132.0
211.68779 152.0
211.855804 48.0
211.925354 152.0
212.339951 152.0
212.424088 208.0
212.59668 132.0
212.731735 136.0
212.821747 156.0
212.856598 144.0
212.891449 116.0
213.02507 64.0
213.155838 120.0
213.195068 144.0
213.228912 168.0
213.353516 76.0
213.469833 152.0
213.539642 156.0
213.97847 272.0
214.039841 116.0
214.138031 92.0
214.185898 172.0
214.219238 200.0
214.255829 112.0
214.308273 56.0
214.346161 112.0
214.429764 176.0
214.509399 80.0
214.568298 60.0
214.698959 124.0
214.795212 148.0
214.906097 180.0
214.947845 276.0
214.996567 52.0
215.022766 168.0
215.05043 168.0
215.12793 180.0
215.168152 3364.0
215.227554 976.0
215.30899 44.0
215.379837 156.0
215.402466 44.0
215.44046 80.0
215.715195 80.0
215.914047 76.0
215.943298 68.0
215.984192 168.0
216.022293 168.0
216.063248 188.0
216.133484 148.0
216.168976 240.0
216.216568 668.0
216.312042 44.0
216.379379 188.0
216.660583 196.0
216.720779 88.0
216.774872 112.0
216.818832 96.0
216.980072 76.0
217.000595 188.0
217.088577 76.0
217.16777 132.0
217.222733 320.0
217.249924 152.0
217.296875 140.0
217.34906 92.0
217.365097 96.0
217.390778 168.0
217.432083 112.0
217.581604 48.0
217.605087 156.0
217.688446 280.0
217.731369 176.0
217.7883 196.0
217.976578 88.0
218.036957 124.0
218.186905 136.0
218.227844 104.0
218.325119 168.0
218.381577 124.0
218.44278 72.0
218.551651 60.0
218.625229 80.0
218.765839 136.0
218.824814 96.0
219.010986 124.0
219.11705 144.0
219.2202 60.0
219.50618 32.0
219.815964 132.0
219.874985 96.0
219.984222 104.0
220.027313 152.0
220.241165 116.0
220.276611 212.0
220.498245 40.0
220.737747 120.0
220.776199 128.0
221.027679 152.0
221.092789 112.0
221.252655 176.0
221.320755 152.0
221.390045 212.0
221.498474 116.0
221.646637 144.0
221.871933 72.0
221.919373 216.0
221.980682 124.0
222.195236 88.0
222.293167 164.0
222.48613 84.0
222.548492 88.0
222.717789 120.0
223.050644 120.0
223.538467 100.0
223.639679 64.0
223.955811 128.0
224.050674 112.0
224.074509 112.0
224.119217 148.0
224.148346 144.0
224.289108 120.0
224.321899 60.0
224.345764 184.0
224.835007 44.0
224.984375 124.0
225.008163 184.0
225.081039 136.0
225.145538 192.0
225.21257 56.0
225.253082 140.0
225.435364 148.0
225.839035 40.0
226.012573 112.0
226.168213 164.0
226.199051 148.0
226.228088 192.0
226.323914 68.0
226.476669 112.0
226.530594 160.0
226.734375 132.0
227.106216 148.0
227.217224 40.0
227.280243 88.0
227.508377 176.0
227.589447 112.0
227.625488 100.0
227.649506 96.0
227.706589 160.0
227.772675 200.0
227.867874 240.0
227.895859 220.0
227.940445 192.0
228.049149 212.0
228.109512 248.0
228.177307 492.0
228.229889 17508.0
228.326736 64.0
228.358612 44.0
228.379379 64.0
228.421829 320.0
228.446121 36.0
228.472626 228.0
228.525864 88.0
228.582977 100.0
228.617661 80.0
228.665817 132.0
228.710968 72.0
228.861084 112.0
228.896149 200.0
228.930786 44.0
228.966934 48.0
228.994049 88.0
229.065247 168.0
229.094543 156.0
229.117569 124.0
229.188797 1312.0
229.233292 3796.0
229.28331 44.0
229.355667 80.0
229.397873 88.0
229.455154 36.0
229.479584 40.0
229.548645 64.0
229.606674 84.0
229.827118 172.0
229.891525 132.0
229.94603 108.0
229.983154 128.0
230.031448 152.0
230.167343 116.0
230.203415 76.0
230.238434 260.0
230.291168 208.0
230.318359 76.0
230.366699 76.0
230.4785 100.0
230.499664 116.0
230.54277 76.0
230.626602 64.0
230.662888 104.0
230.747543 192.0
230.783829 212.0
230.832809 184.0
230.862473 96.0
230.886658 160.0
230.987396 148.0
231.042343 200.0
231.080292 88.0
231.163269 212.0
231.191986 44.0
231.230728 10336.0
231.334015 116.0
231.45108 124.0
231.482925 32.0
231.531387 60.0
231.555618 88.0
231.61171 64.0
231.661652 156.0
231.737396 72.0
231.791946 76.0
231.861664 32.0
231.931381 40.0
231.988983 184.0
232.091705 200.0
232.14061 176.0
232.232224 1900.0
232.304413 48.0
232.34993 64.0
232.381409 64.0
232.416687 44.0
232.456146 88.0
232.528458 68.0
232.57756 68.0
232.662567 40.0
232.761673 228.0
232.951111 92.0
232.990616 116.0
233.08786 104.0
233.238953 128.0
233.330032 84.0
233.413147 88.0
233.446609 48.0
233.531784 184.0
233.577408 188.0
233.616104 156.0
233.718704 128.0
233.744766 180.0
233.851303 172.0
233.903046 148.0
233.931427 100.0
234.000488 128.0
234.235443 360.0
234.292908 184.0
234.375183 160.0
234.484909 128.0
234.60379 156.0
234.636353 116.0
234.658676 152.0
234.731873 160.0
234.774567 116.0
235.027802 100.0
235.099747 108.0
235.237671 292.0
235.245499 100.0
235.30864 56.0
235.375824 32.0
235.464401 32.0
235.488846 172.0
235.604935 108.0
235.64772 68.0
235.711884 72.0
235.828903 212.0
235.910583 68.0
236.031174 156.0
236.08754 148.0
236.239288 104.0
236.29599 64.0
236.449005 112.0
236.473114 128.0
236.571457 148.0
236.592896 200.0
236.632706 80.0
236.730698 240.0
236.782776 112.0
236.822128 156.0
236.876907 148.0
237.009491 132.0
237.049332 160.0
237.070786 48.0
237.119827 92.0
237.175018 200.0
237.283936 168.0
237.570648 120.0
237.659637 64.0
237.696457 116.0
237.977097 108.0
238.01268 100.0
238.353683 112.0
238.396713 44.0
238.577179 188.0
238.608841 236.0
238.716476 76.0
238.741074 152.0
238.905396 112.0
239.094925 160.0
239.154434 72.0
239.378189 100.0
239.408081 164.0
239.464432 176.0
239.622406 148.0
239.873978 156.0
239.904205 124.0
239.921402 156.0
239.99147 88.0
240.090164 124.0
240.15802 140.0
240.207382 176.0
240.548767 144.0
240.750687 208.0
240.778488 108.0
240.830994 132.0
240.951492 164.0
241.025665 112.0
241.084381 140.0
241.210632 320.0
241.263031 96.0
241.316254 176.0
241.356445 128.0
241.39975 76.0
241.603912 156.0
241.628677 76.0
241.870087 68.0
241.901047 104.0
241.928909 164.0
241.99704 84.0
242.164291 40.0
242.204407 128.0
242.228378 128.0
242.251038 140.0
242.353287 56.0
242.427658 36.0
242.455566 116.0
242.548553 116.0
243.110016 156.0
243.134842 104.0
243.234634 136.0
243.314911 108.0
243.339752 116.0
243.377014 92.0
243.420502 64.0
243.687668 148.0
243.802658 80.0
243.90213 76.0
244.048264 72.0
244.18512 108.0
244.216217 72.0
244.374893 160.0
244.640839 100.0
244.73912 76.0
244.773376 176.0
245.106735 188.0
245.159714 96.0
245.2314 80.0
245.365463 148.0
245.627457 124.0
245.661774 128.0
245.824051 60.0
245.858383 144.0
245.934509 228.0
245.961395 248.0
245.998856 148.0
246.114395 116.0
246.201843 176.0
246.248688 144.0
246.273682 108.0
246.417404 100.0
246.640274 208.0
246.748749 128.0
246.954254 96.0
247.02713 172.0
247.095963 184.0
247.233658 156.0
247.271225 176.0
247.365143 68.0
247.534225 104.0
247.606277 156.0
248.468414 144.0
248.540588 160.0
248.669281 168.0
248.713226 168.0
249.205185 196.0
249.233337 244.0
249.270203 164.0
249.382355 168.0
249.451523 140.0
249.512589 180.0
249.618179 88.0
249.649628 160.0
249.728271 140.0
249.801559 148.0
249.810349 44.0
249.821732 152.0
250.112198 148.0
250.326309 228.0
250.348358 120.0
250.442856 128.0
250.603546 112.0
250.860229 184.0
251.000763 128.0
251.256287 100.0
251.31308 196.0
251.717178 44.0
251.827728 140.0
252.064697 160.0
252.089981 140.0
252.169006 72.0
252.273331 164.0
252.304947 40.0
252.608597 136.0
252.858597 108.0
253.061218 108.0
253.230347 252.0
253.34314 96.0
253.384323 96.0
253.447708 180.0
253.495239 120.0
253.587158 156.0
253.63176 176.0
253.704468 40.0
253.958679 152.0
253.98674 28.0
254.135864 88.0
254.221115 148.0
254.32312 104.0
254.374817 184.0
254.494583 96.0
254.577148 144.0
254.632248 116.0
254.770935 180.0
254.805893 164.0
254.901215 152.0
255.10466 116.0
255.149185 128.0
255.200058 140.0
255.27124 104.0
255.476791 104.0
255.597717 36.0
255.702744 76.0
255.779144 112.0
256.020294 240.0
256.103119 224.0
256.225037 184.0
256.253723 132.0
256.451324 304.0
256.479858 144.0
256.693665 172.0
256.763824 156.0
256.840393 204.0
256.897827 208.0
256.932922 200.0
256.999939 68.0
257.032745 56.0
257.12439 116.0
257.264862 216.0
257.392609 116.0
257.440521 92.0
257.555511 84.0
257.648163 72.0
257.951782 116.0
258.00296 124.0
258.066895 96.0
258.130859 76.0
258.162567 176.0
258.242554 204.0
258.249451 156.0
258.329956 272.0
258.377197 56.0
258.485992 80.0
258.533997 100.0
258.572418 104.0
258.764496 100.0
258.892609 60.0
258.956665 208.0
258.998322 88.0
259.023926 160.0
259.062378 28.0
259.08905 124.0
259.144104 168.0
259.180542 184.0
259.235107 33124.0
259.298065 196.0
259.358673 108.0
259.382233 152.0
259.413086 96.0
259.450226 152.0
259.48172 232.0
259.5336 100.0
259.575287 100.0
259.630493 112.0
259.672089 180.0
259.704041 56.0
259.769531 136.0
259.826141 60.0
259.866058 184.0
259.916382 164.0
259.944244 100.0
259.989166 48.0
260.033234 160.0
260.069427 160.0
260.095978 88.0
260.157715 176.0
260.238403 5008.0
260.334259 84.0
260.372681 156.0
260.47406 48.0
260.56723 52.0
260.592407 184.0
260.724701 128.0
260.814728 52.0
260.843658 52.0
260.914398 72.0
260.969055 132.0
261.00766 88.0
261.059113 72.0
261.117004 52.0
261.200653 132.0
261.240387 844.0
261.281067 128.0
261.313263 48.0
261.345428 88.0
261.371185 140.0
261.400146 84.0
261.441986 64.0
261.514465 240.0
261.567535 72.0
261.666168 88.0
261.720703 272.0
261.767181 212.0
261.805817 104.0
261.838043 68.0
261.902466 52.0
261.935669 192.0
261.996979 108.0
262.128693 172.0
262.218262 112.0
262.250488 120.0
262.456848 176.0
262.503357 188.0
262.550385 32.0
262.624573 92.0
262.648926 88.0
262.743958 124.0
262.808502 188.0
262.914978 112.0
262.9505 104.0
262.99707 112.0
263.115143 96.0
263.150665 136.0
263.196838 104.0
263.230835 224.0
263.27829 156.0
263.334045 176.0
263.367065 204.0
263.421692 136.0
263.476929 128.0
263.512451 168.0
263.696686 144.0
263.732239 140.0
263.880981 84.0
264.016815 100.0
264.1203 120.0
264.175323 88.0
264.311218 164.0
264.382416 232.0
264.473053 76.0
264.498962 116.0
264.525177 160.0
264.586365 76.0
264.641418 68.0
264.686768 84.0
264.7117 148.0
264.748291 172.0
264.855194 56.0
265.078125 160.0
265.176483 56.0
265.279755 108.0
265.334869 120.0
265.419189 92.0
265.445129 64.0
265.57489 152.0
265.649506 188.0
265.711151 84.0
265.970795 100.0
266.149384 120.0
266.201355 132.0
266.464478 88.0
266.523926 68.0
266.617218 216.0
266.659332 176.0
266.704987 152.0
266.744019 104.0
266.831787 212.0
266.897949 140.0
267.036682 56.0
267.17984 104.0
267.209137 144.0
267.319763 80.0
267.375122 132.0
267.43045 76.0
267.563171 156.0
267.606262 156.0
267.658752 164.0
267.977631 200.0
268.08844 180.0
268.326416 188.0
268.407928 124.0
268.760284 156.0
268.858185 116.0
268.965912 52.0
269.031189 64.0
269.106293 80.0
269.178162 148.0
269.22403 172.0
269.269592 160.0
269.380676 140.0
269.576752 112.0
269.651489 88.0
269.694427 148.0
269.730377 84.0
269.802216 152.0
269.848083 116.0
269.897125 60.0
269.921661 160.0
269.955566 172.0
270.024689 164.0
270.050537 40.0
270.080292 108.0
270.104523 148.0
270.191559 144.0
270.220825 144.0
270.230133 136.0
270.266144 136.0
270.302673 100.0
270.390991 72.0
270.434296 164.0
270.476105 168.0
270.528259 124.0
270.561523 188.0
270.589355 112.0
270.631897 164.0
270.663757 124.0
270.708466 360.0
270.773438 136.0
270.804626 140.0
270.827606 172.0
270.869904 396.0
270.909882 304.0
270.922638 252.0
270.939209 152.0
270.967682 188.0
270.996948 360.0
271.020966 276.0
271.033813 156.0
271.092163 428.0
271.169983 240.0
271.251923 252308.0
271.354034 124.0
271.371368 296.0
271.420868 196.0
271.469696 172.0
271.522766 280.0
271.566772 264.0
271.614075 392.0
271.643585 172.0
271.673798 144.0
271.71756 132.0
271.791931 1612.0
271.824585 144.0
271.86792 76.0
271.900391 232.0
271.950409 92.0
271.978516 84.0
272.029694 104.0
272.064056 184.0
272.13858 76.0
272.162201 156.0
272.254242 49640.0
272.325165 84.0
272.380402 204.0
272.418274 132.0
272.429718 52.0
272.441071 192.0
272.506409 220.0
272.533478 56.0
272.564178 200.0
272.615326 104.0
272.649231 88.0
272.676697 160.0
272.708313 160.0
272.755981 220.0
272.802399 120.0
272.843994 136.0
272.88736 48.0
272.918976 104.0
272.965332 124.0
272.973663 104.0
272.99704 220.0
273.023224 84.0
273.058319 80.0
273.106628 84.0
273.184326 68.0
273.212189 76.0
273.255005 4336.0
273.302185 60.0
273.339294 76.0
273.377197 68.0
273.432709 100.0
273.466949 64.0
273.506683 60.0
273.554688 56.0
273.587952 48.0
273.6008 144.0
273.652649 100.0
273.68985 104.0
273.732513 92.0
273.791534 216.0
273.82724 216.0
273.858551 52.0
273.889648 180.0
273.987 132.0
274.021454 228.0
274.065155 192.0
274.107178 120.0
274.1698 360.0
274.220367 288.0
274.229614 252.0
274.252899 556.0
274.319519 224.0
274.385895 136.0
274.431396 152.0
274.468597 212.0
274.503387 80.0
274.537781 140.0
274.614014 136.0
274.674622 204.0
274.752289 60.0
274.80838 72.0
274.853394 104.0
274.901611 80.0
274.963501 36.0
275.012177 196.0
275.056885 224.0
275.094025 128.0
275.133698 244.0
275.214752 160.0
275.296997 56.0
275.323425 164.0
275.346558 52.0
275.376282 88.0
275.448944 84.0
275.481995 112.0
275.559906 96.0
275.653809 64.0
275.7034 128.0
275.739746 52.0
275.802582 108.0
275.858765 112.0
275.923981 72.0
275.991028 56.0
276.017181 128.0
276.146484 40.0
276.179565 36.0
276.301971 56.0
276.334686 68.0
276.464142 64.0
276.570068 44.0
276.613098 84.0
276.757294 80.0
276.81842 68.0
276.997284 52.0
277.255768 68.0
277.381744 64.0
277.41156 96.0
277.457977 68.0
277.497772 40.0
277.567413 36.0
277.680206 88.0
277.792999 96.0
277.87262 72.0
278.045197 92.0
278.118225 72.0
278.161377 32.0
278.324097 72.0
278.726074 80.0
278.888947 40.0
279.001984 80.0
279.158264 36.0
279.25473 96.0
279.70401 32.0
279.730621 88.0
279.820526 48.0
280.576935 80.0
280.70697 36.0
280.740326 60.0
281.160736 136.0
281.828705 84.0
281.862122 124.0
282.162994 136.0
282.530945 140.0
282.577789 72.0
282.611237 36.0
282.745117 60.0
283.100037 40.0
283.136871 96.0
283.297668 40.0
283.344604 112.0
283.381439 56.0
283.418304 36.0
283.741516 100.0
284.397705 192.0
284.441345 64.0
284.538727 80.0
284.585754 92.0
284.72345 84.0
284.787262 64.0
284.98587 104.0
285.109833 100.0
285.388885 108.0
285.526794 88.0
285.637787 116.0
285.718536 120.0
285.880096 72.0
285.987793 56.0
286.152771 76.0
286.391907 44.0
286.432343 36.0
286.685059 48.0
286.796295 68.0
286.867096 76.0
286.982666 116.0
287.062683 64.0
287.242523 424.0
287.298828 64.0
287.450684 40.0
287.879456 40.0
287.903107 76.0
288.09903 144.0
288.146332 136.0
288.558746 56.0
288.670349 32.0
288.947723 104.0
289.059418 96.0
289.184662 132.0
289.225281 72.0
289.353943 68.0
289.591003 72.0
289.696045 68.0
290.09259 124.0
290.302826 76.0
290.686218 100.0
291.233124 56.0
291.640686 132.0
291.769867 60.0
292.021545 52.0
292.154236 72.0
292.661438 64.0
292.729095 92.0
293.342896 48.0
293.373596 68.0
293.700989 100.0
293.929626 52.0
294.049072 36.0
294.120758 92.0
294.284668 100.0
294.899658 40.0
295.234741 128.0
295.789124 144.0
295.915802 40.0
296.0802 52.0
296.385132 56.0
296.542786 80.0
296.594208 92.0
297.091492 56.0
297.819336 152.0
298.073608 132.0
298.183594 28.0
299.005707 44.0
299.254486 2764.0
299.315582 164.0
299.361115 180.0
299.463684 136.0
299.773804 64.0
299.832397 76.0
299.908234 96.0
300.070282 48.0
300.1427 68.0
300.261749 764.0
300.397949 48.0
300.867371 100.0
300.926056 44.0
301.157471 96.0
301.259613 324.0
301.983673 192.0
302.246613 84.0
302.527008 76.0
303.133209 88.0
303.427887 52.0
303.469513 144.0
303.500702 92.0
303.559662 88.0
303.635986 84.0
303.71228 100.0
304.059296 92.0
304.291901 76.0
305.25592 1600.0
305.362366 60.0
306.259735 392.0
306.622894 68.0
307.006439 152.0
307.261108 100.0
308.113098 104.0
308.382202 124.0
308.413666 64.0
308.545746 88.0
310.195648 136.0
311.694489 100.0
311.894836 68.0
312.165619 64.0
312.58429 100.0
313.320282 96.0
313.898407 52.0
314.237061 108.0
316.935272 108.0
317.009674 64.0
317.084137 144.0
317.169189 128.0
317.272064 2996.0
317.491882 96.0
318.276367 640.0
318.358917 88.0
318.49646 80.0
318.581757 80.0
318.613708 92.0
319.274963 112.0
319.313202 60.0
319.356781 36.0
319.588043 144.0
320.114929 92.0
320.285919 128.0
320.652954 48.0
321.380554 92.0
321.473328 60.0
321.716095 76.0
321.830353 80.0
322.05896 128.0
322.523529 104.0
322.559265 92.0
322.695129 116.0
323.374908 88.0
323.464417 72.0
325.476013 164.0
325.723846 44.0
326.158722 84.0
327.875793 80.0
328.205017 52.0
328.492462 60.0
329.192749 56.0
329.376984 80.0
329.752808 104.0
331.236542 40.0
332.139282 40.0
332.592896 104.0
333.23941 68.0
333.406586 68.0
334.203094 72.0
334.228577 160.0
334.701843 56.0
334.978668 116.0
336.422974 116.0
337.058594 52.0
337.38028 112.0
337.793549 60.0
341.509888 80.0
341.535645 84.0
341.69754 68.0
341.863129 92.0
342.603333 88.0
344.130432 108.0
345.579529 76.0
346.412659 72.0
347.131775 56.0
348.119049 40.0
349.263916 136.0
349.647217 80.0
351.193634 136.0
351.271973 116.0
351.656372 44.0
351.846771 100.0
352.77713 60.0
353.641357 48.0
355.384186 76.0
355.977356 120.0
356.131348 64.0
356.330475 96.0
356.390625 116.0
356.695068 132.0
358.841248 128.0
360.018707 52.0
361.179199 52.0
361.527344 48.0
361.671173 96.0
363.539948 92.0
364.375427 72.0
365.405914 48.0
368.441132 60.0
371.703766 56.0
372.053101 56.0
372.398743 60.0
373.163605 44.0
373.205902 112.0
373.390503 80.0
373.49823 112.0
374.360474 48.0
375.304688 168.0
375.350952 88.0
375.424255 80.0
375.51297 84.0
375.918091 28.0
376.338928 60.0
376.524292 44.0
377.366821 152.0
377.981934 52.0
378.307098 184.0
378.539429 68.0
378.686615 80.0
380.474518 100.0
381.022186 88.0
381.655823 96.0
382.430115 116.0
382.796112 124.0
383.474091 80.0
385.210724 84.0
385.76181 92.0
386.184174 144.0
388.052399 68.0
389.540009 104.0
392.567169 104.0
394.458649 76.0
394.727539 40.0
394.925323 124.0
395.261627 92.0
395.3685 68.0
395.67334 56.0
396.945404 88.0
397.881927 32.0
400.220123 108.0
401.611176 116.0
402.916718 100.0
403.392365 100.0
404.32196 320.0
404.432526 124.0
405.273651 164.0
405.329773 64.0
405.466034 136.0
405.622375 48.0
406.171814 76.0
406.46875 36.0
406.793884 104.0
407.303955 100.0
408.028229 96.0
408.316956 180.0
408.803833 68.0
409.30307 88.0
409.786469 108.0
411.529144 92.0
411.702789 64.0
412.664642 40.0
414.247284 80.0
414.948517 140.0
417.74707 72.0
419.196747 56.0
419.2742 100.0
419.947021 100.0
420.216278 100.0
420.755096 64.0
421.249329 48.0
422.230438 104.0
422.349091 120.0
422.426819 64.0
422.627319 92.0
423.50351 84.0
424.179718 68.0
425.004181 100.0
425.073944 84.0
425.123199 36.0
427.29306 104.0
427.354797 100.0
429.371887 116.0
429.447845 132.0
430.029694 88.0
430.281525 104.0
431.295349 116.0
431.798279 76.0
432.0672 56.0
432.278259 140.0
432.51004 96.0
432.584564 56.0
433.852417 80.0
434.229797 108.0
436.227325 112.0
437.679565 64.0
437.886414 156.0
438.28363 40.0
438.604584 88.0
438.92981 48.0
440.5578 44.0
440.695709 32.0
440.896301 68.0
441.268402 80.0
441.657379 64.0
441.686646 132.0
442.708038 132.0
442.850464 68.0
444.397552 136.0
445.119629 36.0
446.262726 84.0
446.318024 112.0
446.37207 272.0
446.426727 112.0
447.08139 108.0
447.497223 88.0
447.950592 112.0
448.40152 56.0
448.890594 76.0
449.004486 88.0
449.057861 80.0
449.945618 96.0
450.389099 52.0
450.718658 48.0
451.314728 68.0
451.945068 84.0
453.431671 128.0
453.63092 88.0
453.694519 120.0
454.173767 52.0
454.564148 48.0
454.924988 88.0
454.984406 40.0
455.234955 52.0
455.298676 76.0
456.863129 108.0
457.671906 72.0
458.455811 92.0
458.583679 36.0
460.01712 88.0
460.072632 108.0
460.499695 32.0
460.538147 60.0
460.820129 44.0
460.918427 80.0
461.179169 72.0
462.616638 92.0
463.036316 88.0
463.383362 72.0
463.829102 40.0
463.957733 44.0
464.394073 2608.0
464.549622 48.0
464.605408 68.0
464.931549 48.0
465.08609 172.0
465.143433 156.0
465.39447 996.0
465.957977 48.0
466.396484 212.0
466.546844 52.0
466.822052 80.0
467.007019 48.0
467.054352 48.0
467.39856 156.0
467.876404 48.0
468.044342 72.0
468.238159 40.0
468.285522 88.0
468.643127 76.0
469.24234 96.0
469.427765 80.0
469.690887 80.0
469.738342 124.0
470.325287 100.0
470.804596 56.0
471.530518 44.0
471.660217 40.0
472.122894 96.0
472.174805 120.0
472.897461 96.0
473.451721 96.0
474.821411 60.0
474.991913 132.0
475.329071 40.0
475.893433 72.0
476.162689 56.0
477.57547 80.0
477.688599 88.0
478.058472 104.0
481.075073 92.0
481.734589 60.0
482.14975 36.0
482.726898 64.0
482.766266 104.0
482.831879 56.0
483.256256 84.0
483.352509 96.0
484.302673 84.0
484.460388 84.0
485.315155 88.0
487.031342 64.0
487.760864 84.0
490.931366 36.0
492.785583 116.0
492.975616 60.0
494.811523 92.0
495.174683 68.0
495.210144 88.0
495.409485 60.0
495.462677 48.0
496.393585 68.0
496.575439 76.0
497.285461 104.0
499.836731 52.0
499.943573 84.0
500.028137 92.0
501.614044 124.0
501.952942 56.0
502.144745 84.0
502.532898 72.0
503.131042 76.0
505.558502 36.0
506.118134 32.0
506.413757 108.0
506.592957 60.0
509.091614 36.0
514.771118 104.0
515.489441 64.0
517.720032 40.0
517.919373 84.0
517.991821 44.0
519.070679 168.0
520.641052 48.0
521.922729 52.0
524.486206 56.0
524.746094 100.0
525.088196 112.0
525.179382 56.0
526.494019 100.0
527.334839 88.0
527.371399 44.0
528.17627 28.0
529.824463 92.0
530.466187 88.0
531.158691 76.0
531.544128 116.0
533.266541 100.0
534.292175 52.0
540.114746 72.0
541.21637 76.0
542.898743 108.0
543.432251 44.0
544.16571 60.0
545.768921 116.0
545.889832 76.0
546.522583 76.0
546.941467 88.0
547.153931 76.0
547.75647 76.0
548.567444 124.0
549.705627 68.0
550.78894 72.0
554.106201 32.0
555.991516 92.0
556.756836 60.0
556.944763 112.0
558.552551 76.0
560.516113 40.0
560.563232 124.0
561.921387 92.0
563.026123 68.0
563.333191 92.0
563.574219 104.0
564.567017 40.0
564.73407 64.0
567.470154 48.0
567.840088 84.0
568.290833 72.0
572.426819 92.0
573.694397 60.0
574.276245 80.0
577.778198 48.0
581.866943 60.0
582.572998 76.0
584.034546 128.0
585.252258 92.0
587.363464 132.0
595.117554 56.0
595.379822 44.0
597.134583 52.0
602.233521 48.0
605.996033 56.0
607.319824 100.0
608.728577 132.0
611.4328 76.0
612.437378 84.0
613.186401 80.0
614.690735 76.0
616.740601 60.0
621.510498 108.0
622.339539 56.0
622.726929 112.0
624.063904 80.0
625.705994 36.0
627.051147 72.0
631.125305 64.0
635.047058 48.0
638.744507 100.0
639.469177 36.0
643.144104 104.0
646.146301 92.0
646.227234 56.0
648.126282 44.0
648.182007 52.0
649.246765 60.0
649.784485 152.0
652.405457 80.0
657.076294 64.0
657.612183 40.0
658.510925 56.0
659.517639 80.0
660.018738 80.0
677.287964 128.0
679.496704 104.0
681.797363 76.0
682.03125 72.0
683.050598 72.0
683.362793 64.0
687.130249 40.0
688.075073 56.0
691.002258 48.0
696.460266 60.0
698.952637 80.0
700.11615 56.0
706.658691 80.0
707.038391 64.0
708.918701 116.0
713.696838 64.0
716.235779 172.0
717.744263 52.0
722.022339 80.0
727.017944 112.0
729.551758 76.0
730.988037 68.0
732.414978 44.0
734.226196 32.0
735.148865 84.0
735.370178 160.0
735.699524 92.0
737.482361 68.0
737.89325 44.0
738.401611 64.0
738.499023 196.0
741.292969 120.0
741.488098 112.0
741.835083 36.0
743.495056 56.0
743.549377 44.0
744.782043 76.0
745.048279 48.0
745.646057 68.0
746.989258 116.0
752.439758 208.0
755.900208 72.0
759.742676 100.0
761.190796 96.0
761.514893 56.0
763.988831 140.0
767.740417 164.0
768.176208 108.0
770.069763 72.0
771.611755 68.0
781.146301 32.0
781.446777 100.0
784.175842 40.0
784.25946 136.0
787.071594 144.0
791.42804 96.0
791.792114 148.0
792.520447 260.0
794.051086 64.0
794.797302 128.0
797.167297 52.0
800.717712 120.0
801.816528 96.0
802.278809 68.0
802.667847 160.0
806.027039 188.0
807.010681 140.0
808.272217 168.0
810.010559 140.0
811.796204 112.0
812.278381 148.0
814.447021 72.0
816.243225 164.0
820.730896 180.0
821.683533 28.0
822.739502 64.0
823.190613 56.0
823.493347 188.0
826.100281 40.0
827.519836 224.0
828.797302 72.0
829.806213 40.0
829.96106 48.0
832.227844 108.0
832.670044 136.0
833.359497 168.0
835.003845 116.0
837.582825 160.0
838.233948 68.0
840.096497 184.0
840.298462 76.0
840.973755 124.0
841.753235 52.0
842.585083 160.0
844.672363 68.0
846.240906 136.0
846.281433 80.0
847.526978 180.0
847.921082 112.0
849.045959 44.0
849.219971 80.0
851.344482 152.0
852.663452 60.0
854.50708 60.0
856.614807 112.0
856.795471 68.0
856.865356 92.0
858.795227 148.0
859.215271 220.0
859.752197 120.0
860.87323 52.0
861.083496 172.0
861.381409 244.0
861.580078 124.0
861.889771 80.0
863.345581 120.0
863.860352 108.0
868.212891 56.0
868.582458 228.0
869.421631 52.0
869.914734 36.0
870.184814 120.0
870.443237 148.0
871.224487 52.0
871.541809 232.0
872.347107 128.0
872.564697 100.0
873.346924 160.0
873.641052 72.0
873.967834 60.0
874.194214 64.0
875.691284 196.0
876.49115 172.0
883.875977 36.0
884.275818 156.0
885.134338 132.0
886.449585 136.0
886.799316 188.0
887.350647 144.0
891.108154 116.0
891.672791 208.0
893.474792 176.0
894.010376 204.0
894.784302 136.0
896.827881 48.0
897.954956 176.0
898.718628 96.0
899.297607 108.0
899.578186 160.0
900.061829 148.0
900.904114 156.0
901.770691 160.0
902.978577 108.0
903.624695 184.0
904.684204 84.0
905.205139 128.0
906.343445 156.0
906.625122 52.0
911.582764 96.0
912.250061 200.0
913.278442 48.0
914.367615 44.0
914.963623 156.0
915.901245 136.0
916.825195 68.0
918.423157 176.0
920.064758 176.0
920.155334 100.0
920.408936 44.0
921.115662 240.0
921.327148 120.0
921.556763 144.0
923.449219 76.0
925.815918 48.0
926.155151 108.0
929.083496 128.0
929.514343 160.0
930.097046 124.0
930.722717 188.0
930.916809 116.0
931.226562 128.0
931.803772 96.0
932.326416 132.0
933.785767 52.0
935.617615 92.0
937.676758 216.0
937.89624 116.0
938.213257 40.0
939.530762 44.0
939.5979 132.0
940.366882 120.0
941.551453 108.0
944.577454 64.0
946.003479 108.0
946.162659 132.0
946.346375 156.0
947.865662 44.0
949.012085 140.0
949.165405 92.0
949.968018 212.0
952.535278 152.0
952.933105 252.0
953.733704 52.0
954.859009 112.0
954.982056 172.0
955.203491 248.0
955.985046 136.0
957.062439 108.0
957.204041 164.0
957.425781 100.0
957.512024 212.0
957.856995 60.0
958.28833 116.0
958.836853 292.0
959.527344 28.0
959.662964 156.0
959.786316 140.0
959.841797 232.0
960.916138 244.0
962.761108 176.0
962.915527 172.0
962.97113 52.0
963.144104 224.0
963.391235 152.0
963.558044 140.0
965.159119 136.0
965.678711 176.0
966.037476 132.0
966.761536 84.0
967.157715 72.0
967.312439 176.0
967.864685 200.0
968.786499 180.0
969.102539 200.0
969.43103 40.0
970.212097 80.0
970.255493 132.0
970.52832 168.0
970.702026 108.0
971.899353 136.0
973.227844 32.0
973.339661 112.0
973.684326 120.0
973.911072 56.0
974.793396 76.0
975.887573 140.0
976.434875 224.0
976.783264 132.0
977.001038 152.0
977.859863 96.0
978.700378 148.0
978.974426 80.0
979.454041 56.0
980.179565 64.0
980.862549 120.0
981.598328 224.0
982.571472 208.0
982.708801 172.0
983.40155 52.0
983.576355 148.0
985.362671 140.0
985.825134 208.0
986.151672 132.0
986.637817 216.0
987.131836 124.0
989.234375 128.0
990.324097 184.0
991.007019 128.0
991.842773 192.0
992.060059 204.0
992.774963 160.0
994.070679 252.0
995.844421 208.0
997.899658 152.0
998.742432 136.0
999.152588 236.0
999.315002 164.0
999.673706 248.0
1001.172241 124.0
1001.461975 120.0
1002.64032 56.0
1003.087891 264.0
1003.195068 108.0
1003.289673 124.0
1003.928345 72.0
1004.059082 152.0
1004.582642 164.0
1005.238953 120.0
1006.028015 132.0
1006.135376 156.0
1006.602661 176.0
1007.430176 124.0
1008.100037 120.0
1008.378174 160.0
1009.383484 184.0
1009.933777 56.0
1009.978027 216.0
1010.534851 132.0
1010.977844 128.0
1011.851501 180.0
1012.383423 148.0
1013.954834 140.0
1014.335205 176.0
1015.115112 168.0
1016.282471 180.0
1016.529968 148.0
1017.234558 116.0
1017.278992 204.0
1017.825134 116.0
1018.441223 56.0
1018.523804 152.0
1018.574646 168.0
1018.771606 96.0
1018.841492 88.0
1019.000366 100.0
1019.224548 144.0
1019.381653 208.0
1019.902893 68.0
1020.233459 192.0
1020.405151 108.0
1020.627747 188.0
1020.799438 224.0
1021.168335 204.0
1021.887268 156.0
1022.237305 76.0
1022.708313 172.0
1022.912048 180.0
1023.243164 220.0
1023.485107 140.0
1023.587036 84.0
1023.816345 120.0
1024.510742 60.0
1024.612671 176.0
1025.944824 160.0
1026.461304 208.0
1027.584106 180.0
1027.801025 84.0
1028.29895 152.0
1028.726685 180.0
1029.192749 260.0
1029.307739 108.0
1030.214844 116.0
1030.451294 164.0
1031.052002 168.0
1031.787231 172.0
1032.222046 184.0
1032.573853 104.0
1032.625 60.0
1033.117554 168.0
1033.239136 76.0
1033.341553 140.0
1033.751099 100.0
1033.892944 184.0
1034.141602 40.0
1034.295288 136.0
1034.340088 116.0
1035.230103 192.0
1035.435059 208.0
1036.152588 148.0
1036.505127 196.0
1036.764282 132.0
1037.543579 176.0
1038.140015 140.0
1038.595337 52.0
1038.640259 96.0
1038.794312 200.0
1039.095825 152.0
1039.437256 80.0
1039.609253 192.0
1039.78418 112.0
1040.097046 120.0
1041.137329 208.0
1041.356323 212.0
1041.760498 112.0
1042.647339 260.0
1042.910889 144.0
1043.650269 48.0
1044.460815 76.0
1044.634521 124.0
1044.994751 140.0
1045.110596 196.0
1045.567627 168.0
1045.760742 164.0
1045.818604 168.0
1047.570312 124.0
1048.42749 160.0
1049.323608 192.0
1049.51062 160.0
1050.14917 208.0
1051.091187 164.0
1051.15564 212.0
1051.885132 144.0
1052.130493 136.0
1052.44043 164.0
1052.543701 224.0
1052.69873 172.0
1052.789185 192.0
1053.073364 172.0
1054.120117 100.0
1054.94751 88.0
1055.369507 144.0
1055.852905 128.0
1056.765137 144.0
1056.907471 172.0
1057.179321 228.0
1057.645386 180.0
1057.742554 120.0
1058.027344 228.0
1058.266968 228.0
1058.402954 128.0
1058.59729 160.0
1058.753906 128.0
1058.921875 136.0
1059.096069 32.0
1059.368164 164.0
1059.594849 52.0
1060.353149 100.0
1061.011475 252.0
1061.542725 228.0
1062.123535 208.0
1062.259766 188.0
1062.454468 208.0
1062.700928 36.0
1062.941162 96.0
1063.083862 164.0
1063.311035 96.0
1063.609619 148.0
1063.784912 76.0
1064.265503 148.0
1064.940918 180.0
1065.538696 108.0
1066.299072 84.0
1066.981689 164.0
1067.202759 144.0
1067.352417 208.0
1067.521484 236.0
1067.703613 108.0
1068.555908 140.0
1068.744507 36.0
1069.707886 188.0
1069.799072 180.0
1070.092041 156.0
1070.749878 224.0
1071.681519 68.0
1071.81189 88.0
1072.118164 208.0
1072.522339 128.0
1072.972168 148.0
1073.259155 172.0
1073.376587 144.0
1073.689575 140.0
1073.8396 180.0
1074.596436 100.0
1074.883545 120.0
1075.085938 248.0
1075.399292 204.0
1075.653809 104.0
1075.790894 200.0
1075.849731 148.0
1076.062988 132.0
1076.248047 172.0
1076.582153 148.0
1076.966553 140.0
1077.051392 244.0
1077.541504 116.0
1078.051147 124.0
1078.247314 68.0
1078.534912 116.0
1078.979492 108.0
1080.104492 52.0
1080.43811 164.0
1082.122437 240.0
1082.297241 168.0
1082.847412 196.0
1083.181519 56.0
1083.856445 176.0
1084.05957 172.0
1084.682251 168.0
1085.15686 160.0
1085.888916 200.0
1086.190674 164.0
1086.359253 140.0
1087.024048 160.0
1087.155273 188.0
1087.470337 44.0
1087.67395 184.0
1087.884033 76.0
1087.975952 200.0
1088.317383 168.0
1088.619507 72.0
1088.685181 116.0
1089.184326 128.0
1089.414307 56.0
1089.519409 60.0
1089.900635 144.0
1090.334351 232.0
1090.689331 112.0
1091.28772 132.0
1092.433472 252.0
1092.511108 144.0
1092.991455 56.0
1093.636597 116.0
1093.814331 216.0
1093.886719 136.0
1094.703247 152.0
1094.933838 116.0
1095.17749 136.0
1095.223633 168.0
1095.757324 200.0
1095.900757 152.0
1096.238403 240.0
1097.075562 104.0
1097.266846 84.0
1097.886719 192.0
1098.025269 152.0
1098.236328 92.0
1098.55957 116.0
1099.443848 124.0
1099.800293 76.0
1100.427612 144.0
1100.592651 64.0
1101.107788 172.0
1101.338989 136.0
1101.847778 144.0
1102.032837 144.0
1102.356689 228.0
1102.971436 172.0
1103.453979 216.0
1103.559814 164.0
1103.983154 120.0
1104.406494 256.0
1105.432007 148.0
1105.564453 144.0
1105.809326 176.0
1106.709839 52.0
1107.021118 80.0
1108.551514 96.0
1108.611206 32.0
1108.717285 140.0
1108.922729 172.0
1109.81311 204.0
1110.618042 116.0
1111.031738 144.0
1111.735107 128.0
1112.584839 140.0
1113.21582 164.0
1113.375122 68.0
1113.561157 136.0
1113.713989 160.0
1113.807007 124.0
1114.085938 124.0
1115.042969 112.0
1115.269043 188.0
1115.608032 128.0
1115.661255 88.0
1116.0802 176.0
1116.239746 32.0
1116.378662 164.0
1116.990845 204.0
1117.117798 148.0
1117.643555 136.0
1117.879761 172.0
1118.442261 244.0
1118.71521 124.0
1118.775146 120.0
1118.988281 132.0
1119.594238 120.0
1119.86731 208.0
1120.173828 160.0
1121.733398 136.0
1121.873413 100.0
1122.446899 148.0
1122.5802 172.0
1122.766968 96.0
1123.274048 144.0
1123.347412 164.0
1123.754395 120.0
1124.248291 168.0
1124.515259 172.0
1124.608765 160.0
1124.762207 172.0
1124.902466 56.0
1125.456665 160.0
1125.667358 264.0
1125.884155 240.0
1126.084473 156.0
1126.585571 156.0
1126.88623 140.0
1127.145874 168.0
1127.394165 116.0
1127.501099 184.0
1127.908813 120.0
1127.990845 164.0
1128.116089 176.0
1128.470459 228.0
1128.590942 148.0
1128.953735 172.0
1129.112793 156.0
1129.206177 148.0
1129.647705 168.0
1129.841797 128.0
1130.336914 128.0
1130.671631 132.0
1130.885864 220.0
1131.173706 188.0
1131.220581 144.0
1131.568726 300.0
1131.762939 192.0
1132.030884 104.0
1132.124634 172.0
1132.2854 60.0
1132.948608 124.0
1133.13623 148.0
1133.283569 180.0
1134.339111 172.0
1134.480347 132.0
1134.557251 136.0
1134.677979 224.0
1134.865723 160.0
1135.060181 152.0
1135.227783 116.0
1135.355225 140.0
1135.435791 56.0
1135.677246 96.0
1135.965698 160.0
1136.086548 148.0
1136.133423 180.0
1136.254272 80.0
1136.592407 184.0
1137.072998 212.0
1137.18042 140.0
1137.227417 160.0
1137.381836 104.0
1137.47583 112.0
1137.542969 124.0
1137.603394 200.0
1137.710815 148.0
1137.784668 104.0
1137.878662 160.0
1138.120361 240.0
1138.207764 168.0
1138.254761 152.0
1138.315186 340.0
1138.671143 132.0
1139.282471 76.0
1139.732666 212.0
1140.046021 160.0
1140.263672 164.0
1140.438477 132.0
1140.59314 28.0
1140.680542 60.0
1141.258789 188.0
1141.334229 176.0
1141.843872 152.0
1142.193726 132.0
1142.853027 104.0
1142.953979 216.0
1143.721313 120.0
1143.816406 180.0
1144.153931 192.0
1144.455322 156.0
1144.657349 140.0
1144.724609 56.0
1145.044312 88.0
1145.101807 108.0
1145.216431 56.0
1145.378052 112.0
1145.5802 244.0
1145.768799 224.0
1145.81958 324.0
1145.964233 68.0
1146.031616 140.0
1146.928101 140.0
1147.059692 108.0
1147.223022 160.0
1147.325806 148.0
1147.770874 144.0
1148.185669 204.0
1148.431885 152.0
1148.498047 144.0
1148.647827 136.0
1148.890747 172.0
1149.024536 148.0
1149.255127 160.0
1149.62207 172.0
1149.727539 156.0
1149.90979 116.0
1150.584839 128.0
1150.708496 100.0
1150.753662 144.0
1150.881958 164.0
1151.341309 104.0
1151.976318 120.0
1152.733154 172.0
1152.807495 180.0
1153.057495 136.0
1153.192749 132.0
1153.456421 164.0
1153.571289 148.0
1153.909424 44.0
1154.439697 208.0
1154.626221 232.0
1154.788574 176.0
1155.018677 104.0
1155.505737 152.0
1155.986206 160.0
1156.087769 96.0
1156.209595 196.0
1156.581909 108.0
1156.744385 60.0
1157.218384 148.0
1157.672119 124.0
1158.285034 180.0
1158.681519 232.0
1158.817017 112.0
1159.0 180.0
1159.244019 144.0
1159.529053 204.0
1159.69812 56.0
1160.106812 368.0
1160.240479 184.0
1160.891602 52.0
1161.284912 96.0
1161.447754 196.0
1161.974731 148.0
1162.0448 36.0
1162.295898 164.0
1162.479126 112.0
1163.103638 164.0
1163.408691 160.0
1164.067871 212.0
1164.150146 168.0
1164.584106 180.0
1164.80835 68.0
1164.896606 188.0
1165.388672 232.0
1165.689575 172.0
1165.750977 216.0
1166.312256 224.0
1166.466553 96.0
1166.656982 148.0
1166.867798 216.0
1167.541016 172.0
1167.887939 140.0
1167.993408 196.0
1168.105713 124.0
1168.200928 140.0
1168.357422 136.0
1168.513916 292.0
1168.724854 164.0
1168.915405 144.0
1169.187622 176.0
1169.282959 56.0
1169.841187 120.0
1170.04541 172.0
1170.528931 112.0
1170.671997 124.0
1171.042236 228.0
1171.244141 176.0
1171.394043 140.0
1171.516724 160.0
1171.97998 128.0
1172.457153 176.0
1172.688843 340.0
1173.002441 100.0
1173.288818 80.0
1173.4729 176.0
1173.977661 120.0
1174.46875 176.0
1174.618774 20.0
1174.946289 180.0
1175.000977 36.0
1175.110107 120.0
1175.273926 180.0
1175.376221 168.0
1175.669678 164.0
1176.195312 100.0
1176.306885 164.0
1176.652832 196.0
1176.878174 152.0
1176.960083 200.0
1177.02832 148.0
1177.137695 156.0
1177.205933 60.0
1177.507812 228.0
1177.563843 208.0
1178.005127 136.0
1178.257935 44.0
1178.777344 156.0
1178.900391 124.0
1179.26416 132.0
1179.816406 52.0
1179.946289 228.0
1180.74646 168.0
1180.835449 160.0
1181.020142 156.0
1181.184326 144.0
1181.546997 196.0
1182.047607 200.0
1182.354614 172.0
1182.477661 92.0
1182.939209 216.0
1183.121216 124.0
1183.319824 64.0
1183.64856 236.0
1183.881348 180.0
1184.210205 160.0
1184.511597 268.0
1184.580078 228.0
1185.12146 108.0
1185.570312 276.0
1186.019287 204.0
1186.430664 152.0
1186.763306 148.0
1186.944946 132.0
1187.054688 96.0
1187.178223 112.0
1187.226196 180.0
1187.541748 184.0
1187.610352 144.0
1187.822998 156.0
1188.036743 172.0
1188.310181 44.0
1189.456421 132.0
1189.641724 92.0
1190.164673 148.0
1190.500122 192.0
1190.658081 164.0
1190.774902 216.0
1190.871094 184.0
1190.990601 224.0
1191.125244 212.0
1191.2146 180.0
1191.262695 136.0
1191.455078 128.0
1191.53064 140.0
1191.613037 160.0
1191.709229 376.0
1191.931274 120.0
1192.379639 176.0
1192.602783 100.0
1193.049683 136.0
1193.255981 44.0
1193.348511 248.0
1193.421021 144.0
1193.599854 112.0
1193.698853 188.0
1193.778564 156.0
1193.995728 176.0
1194.129395 148.0
1194.608765 128.0
1195.044434 124.0
1195.161499 156.0
1195.216553 136.0
1195.471191 160.0
1195.774048 196.0
1195.842896 156.0
1196.001221 136.0
1196.199463 176.0
1196.462524 104.0
1196.517578 196.0
1196.627686 116.0
1196.758545 136.0
1197.034058 200.0
1197.412842 144.0
1197.46106 188.0
1197.530029 244.0
1197.688354 120.0
1197.757324 108.0
1197.819336 168.0
1198.053589 176.0
1198.22583 180.0
1198.405029 128.0
1198.758789 152.0
1199.17688 116.0
1199.232056 168.0
1199.804321 192.0
1200.004272 112.0
1200.590454 76.0
1200.824951 220.0
1200.997437 172.0
1201.12854 140.0
1201.408325 160.0
1201.839233 120.0
1202.308594 116.0
1202.380981 212.0
1202.877319 196.0
1203.047241 160.0
1203.862061 188.0
1204.086182 116.0
1204.456177 160.0
1204.61499 56.0
1204.697998 60.0
1204.856812 120.0
1205.084839 152.0
1205.223145 164.0
1205.423584 216.0
1205.485718 180.0
1205.541016 172.0
1205.665405 80.0
1206.605591 144.0
1207.138184 164.0
1207.380249 112.0
1207.567017 128.0
1207.822876 188.0
1208.016602 156.0
1208.494141 136.0
1208.563232 160.0
1208.653198 104.0
1208.97168 136.0
1209.123901 204.0
1209.200073 40.0
1209.87854 200.0
1209.982422 136.0
1210.321655 136.0
1210.723389 184.0
1210.827271 236.0
1210.989258 212.0
1211.267822 180.0
1211.339966 140.0
1212.036255 144.0
1212.178345 236.0
1212.324341 200.0
1212.483398 116.0
1212.545776 120.0
1212.850708 132.0
1212.913086 60.0
1213.051758 308.0
1213.183472 180.0
1213.523315 136.0
1213.578735 168.0
1213.675903 112.0
1213.856201 172.0
1214.036987 168.0
1214.182129 72.0
1214.334717 136.0
1214.848145 224.0
1214.96814 228.0
1215.144287 208.0
1215.334961 220.0
1215.417114 196.0
1215.875244 156.0
1216.111206 184.0
1216.444458 80.0
1216.493042 172.0
1216.59021 188.0
1217.458374 144.0
1217.875122 88.0
1218.111328 136.0
1218.232422 148.0
1218.479614 184.0
1218.667236 116.0
1218.806152 208.0
1219.355225 120.0
1219.619385 132.0
1219.987915 100.0
1220.111938 336.0
1220.293823 156.0
1220.648438 92.0
1221.406738 196.0
1221.608398 120.0
1221.671021 136.0
1221.935425 152.0
1222.123413 144.0
1222.248657 84.0
1222.492188 144.0
1222.998779 144.0
1223.146484 140.0
1223.529419 88.0
1223.745361 192.0
1223.821899 124.0
1223.905518 52.0
1224.119507 176.0
1224.26001 176.0
1225.333618 144.0
1225.591431 404.0
1225.76416 188.0
1226.037476 140.0
1226.53833 144.0
1226.563354 124.0
1226.636963 140.0
1226.887939 140.0
1227.335327 212.0
1227.789673 204.0
1227.878296 260.0
1228.153809 208.0
1228.234009 196.0
1228.282837 76.0
1228.56189 128.0
1228.785156 144.0
1228.882935 152.0
1228.982178 180.0
1229.085327 120.0
1229.155029 148.0
1229.217896 68.0
1229.783203 156.0
1229.950806 112.0
1230.174194 152.0
1230.265015 160.0
1230.418579 376.0
1230.711914 164.0
1230.858521 192.0
1231.410278 124.0
1231.675781 160.0
1231.731689 160.0
1232.143921 124.0
1232.234741 220.0
1232.283691 84.0
1232.347412 216.0
1232.434814 288.0
1232.563232 168.0
1232.807739 196.0
1233.09436 92.0
1233.520874 108.0
1233.737549 60.0
1233.912354 140.0
1234.679932 184.0
1235.801025 140.0
1235.88501 192.0
1235.975952 196.0
1236.03894 152.0
1236.500977 36.0
1236.605957 92.0
1237.20105 48.0
1237.30603 156.0
1237.474121 172.0
1237.579102 104.0
1237.810303 188.0
1237.894287 128.0
1237.957275 52.0
1238.224976 128.0
1238.377563 64.0
1238.608765 248.0
1238.699829 172.0
1238.769897 200.0
1238.81897 188.0
1239.372559 136.0
1240.031372 120.0
1240.255737 116.0
1240.314697 164.0
1240.452026 320.0
1240.921753 188.0
1242.048706 160.0
1242.212402 136.0
1242.619385 132.0
1242.780762 164.0
1242.935059 192.0
1242.991211 120.0
1243.406616 180.0
1243.594849 216.0
1243.651001 148.0
1243.728271 164.0
1244.254883 172.0
1244.54248 128.0
1244.816528 220.0
1244.832886 216.0
1245.086304 240.0
1245.153809 168.0
1245.561279 116.0
1245.690796 224.0
1245.758301 160.0
1245.849243 148.0
1245.947632 120.0
1246.067139 144.0
1246.186523 232.0
1246.355225 224.0
1246.854248 124.0
1246.91748 120.0
1247.001831 112.0
1247.254883 112.0
1247.458862 156.0
1247.550171 96.0
1247.72998 364.0
1247.901855 148.0
1248.246338 168.0
1248.450317 160.0
1248.633179 136.0
1248.703613 132.0
1248.781006 212.0
1249.104614 188.0
1249.308594 164.0
1249.442261 176.0
1249.505615 124.0
1249.702637 172.0
1250.026367 132.0
1250.096802 56.0
1250.181152 112.0
1250.300903 80.0
1250.885132 128.0
1250.994751 176.0
1251.208984 168.0
1251.644287 172.0
1251.800537 132.0
1252.716309 208.0
1252.944092 144.0
1253.012207 252.0
1253.301147 148.0
1253.702881 208.0
1253.900269 112.0
1254.210449 108.0
1254.35144 84.0
1254.499512 124.0
1254.781494 168.0
1255.063599 208.0
1255.134155 156.0
1255.197632 252.0
1255.275757 160.0
1255.524292 136.0
1255.653687 132.0
1255.712524 100.0
1255.952271 116.0
1256.206299 96.0
1256.770752 220.0
1256.996582 180.0
1257.060181 180.0
1257.144897 136.0
1257.300171 132.0
1257.765991 92.0
1257.81543 124.0
1257.942505 164.0
1258.087646 168.0
1258.601929 144.0
1258.726318 144.0
1258.856201 156.0
1258.938232 144.0
1259.022949 160.0
1259.107788 124.0
1259.545654 144.0
1259.941406 200.0
1260.132202 188.0
1260.315918 68.0
1260.492554 164.0
1260.648071 76.0
1260.944946 104.0
1261.623657 212.0
1261.828613 200.0
1262.550049 136.0
1262.726807 116.0
1262.802368 160.0
1263.009766 120.0
1263.250366 148.0
1263.342285 188.0
1263.618286 152.0
1263.880127 188.0
1264.262329 180.0
1264.55249 108.0
1264.842773 160.0
1264.919312 192.0
1265.019775 152.0
1265.4375 272.0
1265.487061 80.0
1265.777466 128.0
1266.006226 224.0
1266.152832 200.0
1266.407837 108.0
1266.54248 140.0
1267.34314 120.0
1267.428101 160.0
1267.541504 224.0
1267.980957 84.0
1268.200684 128.0
1268.314087 192.0
1268.874268 200.0
1269.285522 100.0
1269.630249 112.0
1269.946045 128.0
1270.037476 192.0
1270.139771 160.0
1270.200562 120.0
1270.406372 212.0
1270.711426 232.0
1271.36438 76.0
1271.520508 192.0
1271.641235 128.0
1271.719238 184.0
1271.783447 196.0
1272.230469 136.0
1272.514526 144.0
1272.575806 180.0
1272.699097 44.0
1272.862427 184.0
1272.933472 252.0
1273.047119 128.0
1273.622437 152.0
1273.707764 156.0
1274.119751 116.0
1274.269043 388.0
1274.340088 188.0
1274.574585 120.0
1274.986816 204.0
1275.036621 196.0
1275.129028 84.0
1275.27832 192.0
1275.40625 80.0
1275.491577 136.0
1275.683472 112.0
1275.766846 256.0
1275.847046 144.0
1276.046143 172.0
1276.295044 156.0
1276.366089 152.0
1276.548706 156.0
1277.091675 152.0
1277.219727 88.0
1277.47583 148.0
1277.660767 176.0
1277.710571 212.0
1277.859985 144.0
1278.009521 152.0
1278.066406 148.0
1278.300049 188.0
1278.377441 152.0
1278.436523 124.0
1278.991699 216.0
1279.079834 64.0
1279.19104 140.0
1279.333496 256.0
1279.789185 92.0
1280.309082 92.0
1280.4729 104.0
1281.064209 148.0
1281.192505 112.0
1281.363525 136.0
1281.498901 120.0
1281.560059 184.0
1281.954956 168.0
1282.076172 64.0
1282.147461 136.0
1282.609253 156.0
1282.682007 172.0
1282.753296 164.0
1282.871826 208.0
1283.01001 192.0
1283.109863 180.0
1283.547607 380.0
1283.651855 160.0
1283.758789 116.0
1283.985718 220.0
1284.279541 128.0
1284.643433 188.0
1285.12146 216.0
1285.214233 172.0
1285.521118 344.0
1285.806641 72.0
1286.246216 144.0
1286.334839 180.0
1286.53479 148.0
1286.606201 116.0
1286.924683 112.0
1287.041748 108.0
1287.175049 156.0
1287.277466 200.0
1287.698853 332.0
1287.834595 88.0
1287.991821 40.0
1288.406128 256.0
1288.570557 180.0
1288.700073 160.0
1289.263672 132.0
1289.52002 176.0
1289.59729 152.0
1289.699707 156.0
1289.842773 92.0
1290.200195 200.0
1290.307495 168.0
1290.400391 80.0
1290.572021 128.0
1290.640503 304.0
1290.802002 176.0
1290.901367 176.0
1291.078247 148.0
1291.466064 148.0
1291.680786 204.0
1291.806396 184.0
1292.067139 192.0
1292.341064 168.0
1292.692383 232.0
1292.796997 48.0
1292.940186 152.0
1292.997437 160.0
1293.305298 116.0
1293.460083 180.0
1293.713379 88.0
1293.799316 160.0
1294.02124 132.0
1294.185913 120.0
1294.429443 208.0
1294.643799 164.0
1294.737427 160.0
1294.859253 108.0
1295.04541 144.0
1295.152954 148.0
1295.267578 128.0
1295.525513 144.0
1295.699585 224.0
1295.919556 152.0
1296.03418 92.0
1296.242065 108.0
1296.442749 64.0
1296.507202 240.0
1296.605713 120.0
1297.410522 136.0
1297.632812 68.0
1297.697388 152.0
1297.908813 116.0
1297.969849 188.0
1298.091797 148.0
1298.156372 84.0
1298.249512 144.0
1298.756714 188.0
1298.852173 216.0
1299.698975 188.0
1299.856689 212.0
1299.990845 188.0
1300.026123 112.0
1300.03772 144.0
1300.646729 136.0
1300.710938 100.0
1301.112915 124.0
1301.184814 116.0
1301.450439 124.0
1301.6875 124.0
1301.737671 200.0
1301.996338 132.0
1302.075317 140.0
1302.278931 192.0
1302.39856 244.0
1302.463257 120.0
1302.63562 148.0
1302.70752 212.0
1303.037964 200.0
1303.196045 132.0
1303.318237 52.0
1303.400269 180.0
1303.6521 168.0
1303.988525 156.0
1304.137695 80.0
1304.619385 236.0
1304.67688 128.0
1304.892578 136.0
1305.000488 152.0
1305.115479 48.0
1305.19458 60.0
1305.467896 156.0
1305.577026 144.0
1306.187256 136.0
1306.316772 164.0
1306.424683 160.0
1306.546997 144.0
1306.91394 84.0
1307.201782 92.0
1307.633667 128.0
1307.705688 164.0
1307.855469 192.0
1307.900269 232.0
1308.332031 100.0
1308.512085 172.0
1308.596436 200.0
1308.727539 112.0
1308.792847 140.0
1308.963257 188.0
1309.044922 200.0
1309.152954 152.0
1309.43396 164.0
1309.923828 184.0
1310.010254 108.0
1310.067871 84.0
1310.154297 156.0
1310.211914 176.0
1310.557861 192.0
1310.68042 220.0
1310.765259 188.0
1311.127197 48.0
1311.35791 188.0
1311.49939 192.0
1311.653076 156.0
1311.768799 132.0
1312.050049 136.0
1312.12207 172.0
1312.36731 152.0
1312.828857 128.0
1312.908203 172.0
1313.108765 172.0
1313.261597 168.0
1313.891479 172.0
1314.250122 172.0
1314.365601 136.0
1314.430542 168.0
1314.582153 176.0
1314.661499 208.0
1314.863647 164.0
1314.976196 88.0
1315.094604 228.0
1315.33667 224.0
1315.455566 68.0
1315.607178 184.0
1315.751587 148.0
1315.823853 188.0
1315.87439 124.0
1315.99707 124.0
1316.15332 164.0
1316.423218 148.0
1316.618164 152.0
1316.834961 148.0
1317.167358 152.0
1317.282837 160.0
1317.398438 220.0
1317.475586 160.0
1317.557373 84.0
1317.810303 148.0
1317.868042 220.0
1317.940308 80.0
1318.063232 164.0
1318.316162 152.0
1318.699219 204.0
1318.959473 208.0
1319.122803 104.0
1319.279175 152.0
1319.371582 132.0
1319.509033 144.0
1319.593506 192.0
1319.675293 204.0
1319.783813 112.0
1320.000732 28.0
1320.286011 192.0
1320.463623 204.0
1320.528809 156.0
1320.630005 116.0
1321.035156 120.0
1321.310181 128.0
1321.69873 132.0
1321.729248 92.0
1321.738892 124.0
1321.802246 124.0
1321.874634 172.0
1321.981079 156.0
1322.04834 108.0
1322.272705 252.0
1322.42688 356.0
1322.612915 192.0
1322.735962 148.0
1322.880737 192.0
1323.153931 188.0
1323.380371 188.0
1323.561401 140.0
1323.647095 68.0
1323.771484 48.0
1323.887329 200.0
1323.967041 144.0
1324.262939 160.0
1324.488647 188.0
1324.552124 204.0
1324.894287 168.0
1324.988525 136.0
1325.241211 148.0
1325.330688 188.0
1325.785645 168.0
1325.879883 104.0
1326.082886 64.0
1326.165161 216.0
1326.561401 132.0
1326.686646 168.0
1326.851318 136.0
1326.908081 180.0
1326.926025 148.0
1327.082642 156.0
1327.192261 192.0
1327.456177 156.0
1327.562134 128.0
1327.704956 236.0
1327.730103 164.0
1327.837646 192.0
1327.910278 204.0
1327.982788 196.0
1328.106079 124.0
1328.497925 64.0
1328.584961 140.0
1328.911011 168.0
1329.076782 148.0
1329.419434 92.0
1329.891357 240.0
1330.718994 228.0
1330.794067 180.0
1330.842407 136.0
1331.024048 80.0
1331.115967 140.0
1331.343628 60.0
1331.452515 124.0
1331.517944 164.0
1331.597778 176.0
1331.648682 236.0
1331.772095 136.0
1332.149902 104.0
1332.207764 116.0
1332.383667 120.0
1332.542236 164.0
1332.956543 136.0
1333.036499 200.0
1333.428955 164.0
1333.508911 220.0
1333.930542 220.0
1334.121826 160.0
1334.344971 144.0
1334.468628 80.0
1334.548584 80.0
1334.640015 236.0
1334.749268 176.0
1334.963135 192.0
1335.028564 68.0
1335.392334 172.0
1335.479614 224.0
1335.690552 120.0
1335.79248 268.0
1336.15625 184.0
1336.310669 180.0
1336.396362 160.0
1336.452393 204.0
1336.478638 144.0
1336.515015 104.0
1336.716553 132.0
1336.89856 108.0
1337.00769 120.0
1337.104736 184.0
1337.182373 92.0
1337.378906 192.0
1337.553711 112.0
1337.661743 224.0
1338.17981 112.0
1338.230835 80.0
1338.466309 208.0
1338.537354 232.0
1338.632935 204.0
1338.871704 136.0
1339.055786 212.0
1339.323364 176.0
1339.439941 176.0
1339.527344 196.0
1339.738647 172.0
1340.088379 268.0
1340.236694 196.0
1340.503784 136.0
1340.619873 180.0
1340.678711 224.0
1340.809937 124.0
1340.904663 204.0
1341.407715 188.0
1341.473267 140.0
1341.918091 56.0
1342.100342 180.0
1342.202759 196.0
1342.260864 228.0
1342.362915 64.0
1342.478638 224.0
1342.613525 124.0
1342.748169 168.0
1343.018921 120.0
1343.290161 152.0
1343.384155 196.0
1343.515503 152.0
1343.715332 180.0
1343.894897 108.0
1344.090454 240.0
1344.347412 188.0
1344.456909 156.0
1344.601074 128.0
1344.76355 36.0
1344.840088 144.0
1345.048218 128.0
1345.288086 168.0
1345.388306 204.0
1346.122559 176.0
1346.209229 108.0
1346.428345 132.0
1346.574463 136.0
1346.63208 148.0
1346.712891 180.0
1346.910522 224.0
1346.983521 204.0
1347.072876 200.0
1347.101929 160.0
1347.18811 140.0
1347.484863 188.0
1347.692261 36.0
1348.102905 180.0
1348.269653 212.0
1348.421509 148.0
1348.471069 176.0
1348.598633 108.0
1348.749268 164.0
1348.991699 156.0
1349.059204 224.0
1349.110352 168.0
1349.161621 172.0
1349.5896 152.0
1349.695435 92.0
1349.746582 188.0
1349.874878 208.0
1349.929443 192.0
1350.061035 56.0
1350.148804 240.0
1350.324341 140.0
1350.399292 180.0
1350.675537 56.0
1350.821899 216.0
1350.9198 132.0
1350.981812 140.0
1351.092041 160.0
1351.208984 196.0
1351.289551 156.0
1351.361694 188.0
1351.480347 196.0
1351.699951 200.0
1351.858521 132.0
1352.073242 144.0
1352.172363 176.0
1352.248901 212.0
1352.307495 152.0
1352.446533 124.0
1352.644165 76.0
1352.87854 100.0
1352.944458 76.0
1353.156738 124.0
1353.222656 116.0
1353.349121 272.0
1353.479004 408.0
1353.706055 108.0
1353.80127 144.0
1354.101562 208.0
1354.189453 144.0
1354.401855 88.0
1354.459351 160.0
1354.621704 152.0
1355.146362 220.0
1355.603638 148.0
1355.786865 84.0
1355.838135 196.0
1355.944336 164.0
1356.073975 188.0
1356.210205 84.0
1356.299927 152.0
1356.439209 128.0
1356.512573 196.0
1356.813232 112.0
1356.937866 108.0
1357.077148 192.0
1357.216431 144.0
1357.319214 68.0
1357.53186 156.0
1357.595337 248.0
1357.766602 64.0
1357.854614 36.0
1357.942627 124.0
1358.118652 220.0
1358.525879 120.0
1358.756958 120.0
1358.911011 180.0
1359.021118 208.0
1359.095947 60.0
1359.167969 88.0
1359.329346 68.0
1359.461426 140.0
1359.518433 172.0
1359.637695 140.0
1359.7771 220.0
1360.166138 244.0
1360.349731 144.0
1360.856323 228.0
1360.93811 220.0
1361.150146 172.0
1361.260254 212.0
1361.451294 172.0
1361.583496 160.0
1361.693604 116.0
1361.825806 108.0
1362.009521 136.0
1362.222534 208.0
1362.400391 96.0
1362.755615 152.0
1362.891113 172.0
1363.02356 124.0
1363.111694 172.0
1363.611572 164.0
1363.699707 216.0
1363.805786 204.0
1364.059937 80.0
1364.207031 120.0
1364.339355 92.0
1364.545288 156.0
1364.802612 108.0
1364.898193 116.0
1364.979126 136.0
1365.052612 44.0
1365.118896 36.0
1365.229126 180.0
1365.427734 188.0
1365.645508 196.0
1365.780884 204.0
1366.156128 200.0
1366.251709 136.0
1366.55896 148.0
1366.649048 164.0
1366.737427 132.0
1366.824463 144.0
1367.109619 208.0
1367.237915 184.0
1367.466064 144.0
1367.878296 128.0
1367.981445 100.0
1368.297974 244.0
1368.614624 264.0
1368.784058 140.0
1368.845703 164.0
1368.897949 112.0
1369.001221 224.0
1369.091187 160.0
1369.171143 216.0
1369.307007 144.0
1369.41748 156.0
1369.609009 192.0
1369.697388 168.0
1369.837402 116.0
1369.934448 160.0
1370.00354 72.0
1370.065796 188.0
1370.183716 208.0
1370.44165 192.0
1370.552124 192.0
1370.709229 192.0
1371.060669 156.0
1371.141724 188.0
1371.2229 176.0
1371.318726 108.0
1371.445923 148.0
1371.532837 268.0
1371.641846 248.0
1371.937988 144.0
1372.033813 80.0
1372.481567 160.0
1372.59082 128.0
1372.667969 132.0
1372.859741 116.0
1373.016846 148.0
1373.140015 192.0
1373.20752 192.0
1373.325806 176.0
1373.671143 188.0
1373.899902 160.0
1374.054077 148.0
1374.187744 420.0
1374.261475 108.0
1374.320557 128.0
1374.453369 124.0
1374.574341 112.0
1374.785522 168.0
1375.014282 96.0
1375.089966 160.0
1375.17334 236.0
1375.408691 144.0
1375.590088 108.0
1375.668091 180.0
1375.767334 228.0
1376.203003 160.0
1376.321167 176.0
1376.40979 140.0
1376.461426 128.0
1376.623901 200.0
1376.848511 208.0
1377.034058 100.0
1377.091919 176.0
1377.325684 176.0
1377.569458 124.0
1377.635986 184.0
1377.798462 148.0
1378.005371 124.0
1378.100586 68.0
1378.389648 164.0
1378.50061 156.0
1378.626221 192.0
1378.742065 172.0
1378.958862 116.0
1379.069702 72.0
1379.12146 156.0
1379.335815 176.0
1379.749878 124.0
1380.097412 108.0
1380.230591 112.0
1380.629883 248.0
1380.703857 48.0
1381.044189 188.0
1381.095947 152.0
1381.428833 160.0
1381.525024 136.0
1381.917236 116.0
1382.020874 160.0
1382.324219 104.0
1382.427856 164.0
1382.590698 136.0
1382.723999 120.0
1382.848877 164.0
1382.923828 176.0
1383.02356 208.0
1383.108887 44.0
1383.368042 108.0
1383.480591 176.0
1383.738281 168.0
1384.019653 180.0
1384.256592 128.0
1384.352051 172.0
1384.506104 140.0
1384.560303 128.0
1384.819946 160.0
1385.086182 160.0
1385.189941 128.0
1385.491211 208.0
1385.916138 40.0
1386.442261 148.0
1386.598022 108.0
1386.771606 144.0
1386.879639 316.0
1387.376343 228.0
1387.450562 124.0
1387.502441 160.0
1387.583984 204.0
1388.203369 184.0
1388.296875 192.0
1388.370117 144.0
1388.481445 128.0
1388.637207 192.0
1388.711304 124.0
1388.859741 148.0
1389.031616 96.0
1389.084229 212.0
1389.453247 196.0
1389.653564 112.0
1389.742676 128.0
1389.841064 380.0
1389.961792 132.0
1390.110229 380.0
1390.447021 180.0
1390.529419 52.0
1390.662964 128.0
1390.729858 240.0
1390.937622 204.0
1391.212402 160.0
1391.561768 220.0
1391.828735 200.0
1391.94751 144.0
1392.029175 156.0
1392.192627 140.0
1392.408081 184.0
1392.599976 156.0
1392.74231 164.0
1392.794312 152.0
1393.032104 204.0
1393.403564 132.0
1393.485352 232.0
1393.619019 112.0
1393.789429 168.0
1393.958984 152.0
1394.074341 156.0
1394.191284 340.0
1394.254761 204.0
1394.399414 220.0
1394.748901 116.0
1395.041504 244.0
1395.105713 44.0
1395.224731 184.0
1395.566772 256.0
1395.797241 104.0
1396.042725 352.0
1396.347656 184.0
1396.511353 192.0
1396.65271 112.0
1396.816284 160.0
1397.098633 192.0
1397.126221 180.0
1397.306396 120.0
1397.479858 188.0
1397.59021 68.0
1397.694336 244.0
1398.147583 152.0
1398.267456 160.0
1398.353394 148.0
1398.437866 120.0
1398.766235 136.0
1398.885376 164.0
1398.952393 144.0
1399.086426 196.0
1399.220459 112.0
1399.369385 196.0
1399.562988 80.0
1399.644897 132.0
1399.859375 156.0
1399.92041 180.0
1400.135498 156.0
1400.328735 192.0
1400.494019 120.0
1400.553589 156.0
1400.710083 36.0
1400.85022 128.0
1401.179443 132.0
1401.335938 200.0
1401.395508 256.0
1401.522217 156.0
1401.621338 148.0
1401.718262 240.0
1401.857544 204.0
1402.092407 168.0
1402.319702 76.0
1402.450806 136.0
1402.506104 64.0
1402.588135 56.0
1402.819214 52.0
1402.888428 188.0
1402.968384 204.0
1403.097778 208.0
1403.303833 160.0
1403.356079 164.0
1403.508667 144.0
1403.633545 172.0
1403.753662 208.0
1403.98999 196.0
1404.131714 152.0
1404.206299 100.0
1404.282959 160.0
1404.519653 128.0
1404.897095 204.0
1405.079224 148.0
1405.222168 164.0
1405.507446 172.0
1405.661255 188.0
1405.9375 188.0
1406.019531 104.0
1406.191284 104.0
1406.280762 240.0
1406.355469 188.0
1406.430054 68.0
1406.482422 120.0
1406.646606 124.0
1406.726318 184.0
1406.75769 124.0
1406.775513 168.0
1407.012451 196.0
1407.184204 180.0
1407.43811 128.0
1407.57251 80.0
1407.781616 292.0
1407.88623 108.0
1408.013184 160.0
1408.125244 120.0
1408.199951 172.0
1408.334351 176.0
1408.424072 112.0
1408.629517 144.0
1408.692993 64.0
1408.921265 192.0
1408.987061 56.0
1409.073608 172.0
1409.190308 80.0
1409.417847 112.0
1409.559814 100.0
1409.731689 160.0
1409.963623 196.0
1410.075562 116.0
1410.150269 112.0
1410.247437 364.0
1410.344604 144.0
1410.456787 164.0
1410.539062 152.0
1410.589844 140.0
1410.785767 152.0
1410.960327 240.0
1411.069946 200.0
1411.279297 188.0
1411.383911 124.0
1411.466187 144.0
1411.533569 180.0
1411.728027 132.0
1411.907471 152.0
1412.019653 176.0
1412.143433 388.0
1412.206665 96.0
1412.306519 184.0
1412.451538 192.0
1412.633179 152.0
1412.73291 180.0
1412.81897 192.0
1412.924927 68.0
1413.171875 152.0
1413.236816 340.0
1413.38147 132.0
1413.734497 208.0
1413.813232 168.0
1414.037964 368.0
1414.227173 176.0
1414.427246 176.0
1414.526611 92.0
1414.586548 148.0
1414.717529 140.0
1414.856079 148.0
1414.908569 156.0
1415.208984 124.0
1415.243042 112.0
1415.268311 120.0
1415.393188 236.0
1415.492676 100.0
1415.597168 192.0
1415.702393 104.0
1415.827759 256.0
1415.917969 148.0
1415.994507 76.0
1416.101074 200.0
1416.196655 160.0
1416.359619 140.0
1416.414795 180.0
1416.547852 188.0
1416.565063 164.0
1417.095825 124.0
1417.223145 124.0
1417.60144 196.0
1417.68396 128.0
1417.762817 120.0
1417.927734 96.0
1418.040161 328.0
1418.100098 172.0
1418.171997 212.0
1418.265015 184.0
1418.407837 180.0
1418.692383 144.0
1418.797363 300.0
1418.933472 192.0
1419.101807 184.0
1419.207764 184.0
1419.4198 96.0
1419.531738 172.0
1419.616333 156.0
1419.734741 200.0
1420.235352 192.0
1420.379883 108.0
1420.818604 120.0
1421.004517 264.0
1421.126953 272.0
1421.257812 176.0
1421.37854 172.0
1421.512939 120.0
1421.56543 72.0
1421.670532 140.0
1421.753174 164.0
1421.850708 76.0
1421.988037 220.0
1422.053101 132.0
1422.17395 172.0
1422.286133 104.0
1422.466309 136.0
1422.518799 288.0
1422.705322 124.0
1422.961792 172.0
1423.104492 260.0
1423.179565 204.0
1423.277222 44.0
1423.389893 196.0
1423.449951 144.0
1423.748657 136.0
1423.962769 60.0
1424.095947 128.0
1424.20105 80.0
1424.253662 96.0
1424.351318 136.0
1424.623657 160.0
1424.712036 92.0
1424.832153 144.0
1425.215454 180.0
1425.568726 144.0
1425.651367 168.0
1425.718994 152.0
1425.944458 172.0
1426.064819 88.0
1426.427002 188.0
1426.53833 148.0
1426.748901 96.0
1426.824097 120.0
1426.884277 200.0
1427.327393 168.0
1427.418213 168.0
1427.621216 176.0
1427.76416 144.0
1427.959717 144.0
1428.305176 136.0
1428.463745 172.0
1428.727173 156.0
1429.028076 196.0
1429.080811 248.0
1429.396851 120.0
1429.547363 232.0
1429.705688 148.0
1429.855957 160.0
1430.149536 184.0
1430.511353 196.0
1430.729248 236.0
1430.781982 152.0
1430.887451 88.0
1430.962646 160.0
1431.038818 152.0
1431.173584 144.0
1431.24585 256.0
1431.301514 188.0
1431.422119 176.0
1431.512451 176.0
1431.612549 152.0
1431.700684 204.0
1431.821411 188.0
1431.889038 156.0
1432.273193 152.0
1432.349609 120.0
1432.431396 128.0
1432.637085 228.0
1433.215088 160.0
1433.433594 128.0
1433.572266 204.0
1433.689941 176.0
1433.75769 92.0
1433.851562 188.0
1433.911987 200.0
1434.002563 140.0
1434.090454 416.0
1434.164795 248.0
1434.225098 112.0
1434.36084 92.0
1434.467163 140.0
1434.63501 284.0
1434.761719 144.0
1434.840454 148.0
1434.971558 132.0
1435.039429 68.0
1435.235474 176.0
1435.325928 172.0
1435.424072 160.0
1435.514526 128.0
1435.945923 240.0
1436.034912 68.0
1436.26123 124.0
1436.419678 52.0
1436.533813 124.0
1436.729004 100.0
1436.902588 68.0
1437.08374 196.0
1437.209106 200.0
1437.241211 124.0
1437.259766 184.0
1437.355347 128.0
1437.506348 168.0
1437.596924 128.0
1437.702515 120.0
1438.017456 104.0
1438.155518 180.0
1438.329102 60.0
1438.397095 100.0
1438.449951 128.0
1438.570679 44.0
1438.714111 152.0
1438.806152 128.0
1439.204956 132.0
1439.311768 144.0
1439.5448 164.0
1439.62793 96.0
1439.688354 68.0
1439.794067 96.0
1439.869629 116.0
1439.930054 156.0
1440.013184 124.0
1440.111328 192.0
1440.247314 168.0
1440.342163 196.0
1440.443726 168.0
1440.662842 144.0
1441.025513 152.0
1441.078491 208.0
1441.214233 152.0
1441.297607 224.0
1441.503662 192.0
1441.569702 200.0
1441.634644 148.0
1441.651123 88.0
1441.677856 128.0
1441.834229 188.0
1442.182495 144.0
1442.28772 184.0
1442.370972 136.0
1442.438965 140.0
1442.505371 152.0
1442.61084 160.0
1442.67334 32.0
1442.960693 176.0
1443.028687 156.0
1443.10437 268.0
1443.23291 140.0
1443.455078 160.0
1443.709351 40.0
1443.838013 196.0
1443.921143 128.0
1443.989258 284.0
1444.178345 204.0
1444.269165 72.0
1444.390137 120.0
1444.473389 168.0
1444.586914 136.0
1444.639893 164.0
1444.715454 168.0
1444.843018 180.0
1445.10144 200.0
1445.212891 312.0
1445.366333 132.0
1445.464722 164.0
1445.532837 172.0
1445.653931 36.0
1445.737183 164.0
1445.873413 168.0
1445.953125 216.0
1445.981689 116.0
1446.115601 76.0
1446.206421 152.0
1446.259399 176.0
1446.474609 212.0
1446.57373 148.0
1446.662109 176.0
1447.06958 124.0
1447.126343 200.0
1447.258911 136.0
1447.421021 208.0
1447.576904 84.0
1447.637573 132.0
1447.870361 188.0
1448.129883 200.0
1448.30188 204.0
1448.39502 208.0
1448.49353 196.0
1448.660156 168.0
1448.735962 104.0
1448.819336 72.0
1449.198242 144.0
1449.388306 136.0
1449.53772 164.0
1449.645386 164.0
1449.713501 176.0
1449.804443 132.0
1449.895508 196.0
1449.963623 116.0
1450.062256 140.0
1450.175903 208.0
1450.234009 128.0
1450.497559 184.0
1450.554932 164.0
1450.627808 204.0
1450.679688 168.0
1450.751587 120.0
1450.934937 148.0
1451.05542 28.0
1451.260132 156.0
1451.461304 168.0
1451.517944 200.0
1451.604248 132.0
1451.687622 188.0
1451.897217 104.0
1452.246094 224.0
1452.504028 120.0
1452.686401 148.0
1452.974487 164.0
1453.065552 88.0
1453.186646 116.0
1453.315918 176.0
1453.437744 332.0
1453.634155 168.0
1453.763916 144.0
1454.052124 148.0
1454.105347 172.0
1454.188843 144.0
1454.272339 96.0
1454.332031 180.0
1454.591187 104.0
1454.781006 200.0
1455.001099 176.0
1455.251709 112.0
1455.479492 52.0
1455.604126 184.0
1455.783325 160.0
1455.973267 120.0
1456.253174 160.0
1456.580933 160.0
1456.922852 188.0
1456.976074 176.0
1457.120361 100.0
1457.310425 216.0
1457.371216 164.0
1457.495483 136.0
1457.584595 196.0
1457.637207 164.0
1457.819458 200.0
1457.933594 120.0
1458.115967 116.0
1458.258179 176.0
1458.526489 152.0
1458.678589 76.0
1458.807739 172.0
1458.895752 160.0
1459.454102 136.0
1459.77356 180.0
1459.834351 200.0
1460.30603 116.0
1460.435303 128.0
1460.53418 128.0
1460.587402 68.0
1460.709229 400.0
1460.85376 124.0
1460.92981 92.0
1461.279785 156.0
1461.371094 168.0
1461.508179 100.0
1461.622314 92.0
1461.97998 160.0
1462.150879 216.0
1462.254028 136.0
1462.32251 104.0
1462.550903 240.0
1462.631348 180.0
1462.808716 200.0
1462.969604 44.0
1463.115601 180.0
1463.182861 152.0
1463.236084 212.0
1463.35791 64.0
1463.533081 88.0
1463.751831 220.0
1463.883423 184.0
1464.309937 136.0
1464.379639 132.0
1464.465698 220.0
1464.58252 220.0
1464.762451 184.0
1464.960083 200.0
1465.109863 200.0
1465.224243 196.0
1465.35376 144.0
1465.612793 204.0
1465.681396 116.0
1466.1604 204.0
1466.237793 112.0
1466.657104 144.0
1466.984863 192.0
1467.228882 280.0
1467.432373 188.0
1467.564453 100.0
1467.70166 168.0
1467.770264 148.0
1468.090698 228.0
1468.264893 204.0
1468.40332 164.0
1468.54834 40.0
1468.601685 204.0
1468.685669 184.0
1469.013062 208.0
1469.199585 156.0
1469.279297 132.0
1469.440918 184.0
1469.696167 144.0
1469.727173 64.0
1469.758667 176.0
1469.784424 176.0
1469.998779 136.0
1470.09729 40.0
1470.234619 232.0
1470.315186 184.0
1470.519043 172.0
1470.759521 208.0
1470.824951 248.0
1470.963989 148.0
1471.059082 204.0
1471.188965 52.0
1471.570679 156.0
1471.659912 184.0
1471.769775 160.0
1471.9021 256.0
1471.988403 200.0
1472.158813 148.0
1472.326782 236.0
1472.403198 140.0
1472.540161 164.0
1472.815674 144.0
1472.930298 188.0
1473.037231 124.0
1473.105957 164.0
1473.202759 152.0
1473.220947 100.0
1473.253662 156.0
1473.396362 68.0
1473.579712 180.0
1473.663818 144.0
1473.822998 248.0
1473.956665 204.0
1474.151733 180.0
1474.282837 180.0
1474.366943 84.0
1474.550293 196.0
1474.680298 144.0
1474.856079 144.0
1474.922241 116.0
1474.985229 176.0
1475.116089 64.0
1475.227051 160.0
1475.295044 168.0
1475.375366 144.0
1475.437134 160.0
1475.536621 164.0
1475.605347 48.0
1475.81189 100.0
1476.011841 164.0
1476.36853 152.0
1476.432373 180.0
1476.568115 128.0
1476.637939 120.0
1476.783203 104.0
1476.951904 160.0
1477.045288 164.0
1477.142822 80.0
1477.198486 316.0
1477.262939 176.0
1477.471802 196.0
1477.532959 164.0
1477.643555 216.0
1477.701294 108.0
1477.869751 180.0
1478.144775 136.0
1478.328857 156.0
1478.63501 152.0
1478.934082 184.0
1479.376587 180.0
1479.484863 168.0
1479.616333 136.0
1479.706909 136.0
1479.798828 128.0
1479.858765 96.0
1480.089722 172.0
1480.266479 220.0
1480.426758 204.0
1480.488037 132.0
1480.571533 76.0
1480.599243 184.0
1480.720459 324.0
1481.024292 48.0
1481.146851 208.0
1481.206909 200.0
1481.445312 172.0
1481.706177 156.0
1482.234863 144.0
1482.357544 208.0
1482.564453 76.0
1482.785889 136.0
1483.085693 76.0
1483.165283 176.0
1483.261963 144.0
1483.477295 168.0
1483.676025 196.0
1484.044067 88.0
1484.189819 188.0
1484.327881 168.0
1484.435181 144.0
1484.657715 164.0
1485.002808 172.0
1485.225342 148.0
1485.367065 84.0
1485.501465 128.0
1485.555176 112.0
1485.754639 116.0
1485.941284 404.0
1486.107666 188.0
1486.204712 148.0
1486.29187 116.0
1486.402832 124.0
1486.457397 232.0
1486.790771 136.0
1487.074707 204.0
1487.155884 320.0
1487.489258 156.0
1487.57373 164.0
1487.642822 180.0
1487.734985 88.0
1487.788696 92.0
1487.865479 168.0
1487.949951 172.0
1488.088135 208.0
1488.141968 104.0
1488.25708 132.0
1488.318604 152.0
1488.388672 208.0
1488.725586 128.0
1488.825439 164.0
1488.986816 120.0
1489.609009 200.0
1489.771606 100.0
1489.916382 152.0
1490.016235 48.0
1490.162231 168.0
1490.239014 192.0
1490.56958 176.0
1490.637817 164.0
1490.754028 60.0
1490.976929 144.0
1491.03833 272.0
1491.285889 204.0
1491.415039 112.0
1491.707153 256.0
1491.884033 92.0
1492.130005 188.0
1492.192993 344.0
1492.395996 204.0
1492.836304 188.0
1492.95752 176.0
1493.129883 224.0
1493.183716 100.0
1493.359741 148.0
1493.452881 168.0
1493.514526 328.0
1493.683716 144.0
1493.922241 148.0
1494.052979 232.0
1494.22229 324.0
1494.319214 200.0
1494.583984 152.0
1494.707153 280.0
1494.768677 204.0
1494.82251 184.0
1494.96106 148.0
1495.022705 148.0
1495.11499 160.0
1495.384399 160.0
1495.515869 176.0
1495.615356 164.0
1496.138916 188.0
1496.192871 116.0
1496.624023 172.0
1496.876709 240.0
1497.214966 160.0
1497.284912 164.0
1497.46106 240.0
1497.540649 132.0
1497.710083 56.0
1497.771729 104.0
1497.825684 112.0
1497.979736 188.0
1498.095337 148.0
1498.24353 200.0
1498.3573 164.0
1498.438354 284.0
1498.626465 208.0
1498.698975 332.0
1499.097046 256.0
1499.174194 172.0
1499.258911 192.0
1499.37793 112.0
1499.466064 156.0
1499.54187 136.0
1499.66748 188.0
1499.744629 240.0
1499.82019 188.0
1499.951294 156.0
1499.981689 128.0
1500.068359 204.0
1500.180542 144.0
1500.322754 52.0
1500.553467 132.0
1500.700684 172.0
1500.800537 184.0
1500.847656 180.0
1500.97229 208.0
1501.070801 160.0
1501.387085 176.0
1501.487305 36.0
1501.617188 228.0
1501.687866 228.0
1501.978882 212.0
1502.181641 160.0
1502.289673 144.0
1502.660034 192.0
1502.736084 132.0
1503.080566 216.0
1503.184814 160.0
1503.32373 164.0
1503.516602 192.0
1503.65564 152.0
1503.734863 116.0
1503.786865 156.0
1503.987549 160.0
1504.057007 136.0
1504.136475 216.0
1504.259277 172.0
1504.314331 332.0
1504.427612 160.0
1504.520264 68.0
1504.72876 144.0
