>compound MLS001049009-01!
>formula C17H20FN3O3
>ionization [M+H]+
>parentmass 334.156372
#inchi InChI=1S/C17H20FN3O3/c1-3-20-10-12(17(23)24)16(22)11-8-13(18)15(9-14(11)20)21-6-4-19(2)5-7-21/h8-10H,3-7H2,1-2H3,(H,23,24)
#inchikey FHFYDNQZQSQIAI
#origInchi InChI=1S/C17H20FN3O3.CH4O3S/c1-3-20-10-12(17(23)24)16(22)11-8-13(18)15(9-14(11)20)21-6-4-19(2)5-7-21;1-5(2,3)4/h8-10H,3-7H2,1-2H3,(H,23,24);1H3,(H,2,3,4)
#Ion_Source LC-ESI
#Instrument qTof
#Compound_Source NIH Natural Product Library
#PI Dorrestein
#Data_Collector VVP/LMS
#Scan -1
#Precursor_MZ 334.157
#ExactMass 333.149
#Charge 1
#CAS_Number N/A
#Pubmed_ID N/A
#Smiles CCn1cc(C(=O)O)c(=O)c2cc(F)c(cc12)N3CCN(C)CC3.CS(=O)(=O)O
#INCHI_AUX N/A
#Library_Class 1
#SpectrumID CCMSLIB00000079784
#IonMode Positive
#UpdateWorkflowName UPDATE-SINGLE-ANNOTATED-GOLD
#LibraryQualityString Gold
#TaskID b1d8e8f6646f4e71acdff9ca3d919d08
##Scan# 1439
#SpectrumFile p1-A11_GA11_01_17883.mzXML
#LibraryName NIH_Natural_Products_Library.mgf
#MQScore -1
#Organism NIH_Natural_Products_Library
#TIC_Query 0
#RT_Query -1
#MZErrorPPM -1
#SharedPeaks 0
#MassDiff 0
#LibMZ -1
#SpecMZ 334.157
#SpecCharge 0
#internalFilename spec-00000.mgf

>collision 10
94.999481 160.0
95.007042 80.0
95.013222 192.0
95.06736 152.0
95.087761 156.0
95.103554 148.0
95.147934 144.0
95.194946 132.0
95.216599 208.0
95.388817 188.0
95.451035 156.0
95.46524 108.0
95.490273 180.0
95.511322 144.0
95.561897 176.0
95.579407 136.0
95.600815 136.0
95.626114 120.0
95.733185 152.0
95.770195 76.0
95.803116 208.0
95.818123 148.0
95.871498 140.0
95.902679 140.0
95.92997 176.0
95.943352 128.0
96.066475 184.0
96.101593 204.0
96.199509 160.0
96.232353 84.0
96.283127 192.0
96.310471 156.0
96.409134 208.0
96.550865 100.0
96.584114 92.0
96.611496 128.0
96.679977 108.0
96.740654 128.0
96.869293 196.0
96.926712 208.0
97.029434 188.0
97.082497 228.0
97.211037 196.0
97.287582 100.0
97.315071 100.0
97.346481 88.0
97.399231 168.0
97.52816 132.0
97.542953 164.0
97.598 184.0
97.633392 136.0
97.743553 108.0
97.836052 88.0
97.869522 204.0
97.904968 164.0
98.038925 116.0
98.063065 128.0
98.090172 76.0
98.12368 56.0
98.207489 232.0
98.271599 220.0
98.305145 76.0
98.366325 212.0
98.443214 144.0
98.484329 220.0
98.56382 160.0
98.690323 124.0
98.719978 188.0
98.814919 56.0
98.840645 108.0
98.858452 296.0
98.949745 224.0
98.997025 184.0
99.093163 184.0
99.29258 196.0
99.312134 244.0
99.365753 136.0
99.417282 252.0
99.562195 40.0
99.58886 160.0
99.627747 232.0
99.643639 124.0
99.677414 144.0
99.729088 132.0
99.808601 52.0
99.836441 208.0
99.886162 260.0
99.908043 176.0
99.92794 148.0
99.985054 144.0
100.019478 200.0
100.089157 228.0
100.176788 204.0
100.220619 204.0
100.346077 164.0
100.402016 36.0
100.537666 168.0
100.551636 380.0
100.573593 160.0
100.60553 140.0
100.629486 220.0
100.699379 108.0
100.757301 244.0
100.789268 48.0
100.84922 136.0
100.871208 132.0
100.923187 152.0
100.945183 116.0
101.003181 184.0
101.038116 144.0
101.071198 212.0
101.115227 100.0
101.147247 120.0
101.253365 192.0
101.305443 196.0
101.343506 88.0
101.391594 96.0
101.545639 196.0
101.603363 216.0
101.686409 140.0
101.728561 120.0
101.742615 164.0
101.883186 148.0
101.963562 212.0
101.983658 164.0
102.021851 192.0
102.05201 244.0
102.160194 196.0
102.184746 236.0
102.241089 156.0
102.290306 44.0
102.320305 124.0
102.487267 220.0
102.517082 172.0
102.613731 148.0
102.656075 356.0
102.698425 180.0
102.720612 192.0
102.781136 76.0
102.906273 156.0
102.920403 116.0
102.952713 96.0
102.97493 136.0
103.021385 160.0
103.056183 208.0
103.071892 176.0
103.114334 48.0
103.166481 140.0
103.185081 184.0
103.207321 80.0
103.237648 120.0
103.282143 132.0
103.314507 88.0
103.622231 208.0
103.644516 172.0
103.749908 236.0
103.855347 152.0
103.890266 208.0
103.948669 136.0
103.98317 136.0
104.053757 160.0
104.058533 160.0
104.083656 40.0
104.119194 120.0
104.224823 132.0
104.271561 132.0
104.302048 216.0
104.332542 152.0
104.348801 208.0
104.369133 180.0
104.405739 212.0
104.446609 168.0
104.529999 192.0
104.611237 164.0
104.641769 324.0
104.741554 168.0
104.796562 200.0
104.814896 184.0
104.84343 124.0
104.890305 188.0
104.953499 188.0
105.022835 40.0
105.049355 196.0
105.102402 116.0
105.494522 156.0
105.613121 168.0
105.715408 92.0
105.763702 228.0
105.856659 196.0
105.881233 164.0
105.954971 112.0
106.010292 180.0
106.110725 120.0
106.210999 116.0
106.278191 160.0
106.326103 160.0
106.371254 196.0
106.459541 64.0
106.486237 156.0
106.509483 164.0
106.541702 152.0
106.572517 120.0
106.656769 176.0
106.700554 188.0
106.764381 152.0
106.833611 204.0
106.896477 152.0
106.915916 156.0
106.981781 140.0
107.018837 144.0
107.037369 132.0
107.055901 148.0
107.092972 144.0
107.109451 96.0
107.189796 164.0
107.325104 224.0
107.340271 96.0
107.37326 144.0
107.428955 160.0
107.460709 244.0
107.523865 144.0
107.538315 212.0
107.633278 200.0
107.649796 148.0
107.715881 96.0
107.739609 280.0
107.787239 176.0
107.831589 196.0
107.926682 160.0
107.996323 124.0
108.079742 144.0
108.125267 52.0
108.166656 188.0
108.323059 176.0
108.377899 152.0
108.39946 188.0
108.434517 148.0
108.454575 68.0
108.515358 360.0
108.531273 196.0
108.676094 204.0
108.767776 116.0
108.956741 108.0
108.977516 92.0
109.014778 172.0
109.045113 296.0
109.081429 168.0
109.158356 100.0
109.199944 60.0
109.2995 112.0
109.318527 92.0
109.343498 124.0
109.387207 140.0
109.586342 212.0
109.616302 152.0
109.648888 188.0
109.739281 64.0
109.806007 84.0
109.820602 208.0
109.837288 144.0
109.876923 144.0
110.042458 216.0
110.066856 100.0
110.164284 148.0
110.277847 160.0
110.313385 88.0
110.332199 132.0
110.461845 132.0
110.520424 280.0
110.543442 136.0
110.634491 176.0
110.692932 232.0
110.746513 108.0
110.780029 192.0
110.794693 140.0
110.8806 116.0
110.903656 184.0
110.960251 68.0
111.023575 160.0
111.228767 132.0
111.361046 152.0
111.426697 220.0
111.480797 124.0
111.50811 184.0
111.575378 156.0
111.621635 164.0
111.67421 112.0
111.752579 172.0
111.849174 168.0
111.86779 140.0
111.899368 140.0
111.930946 212.0
111.949898 148.0
112.038475 220.0
112.133179 160.0
112.149155 256.0
112.346146 124.0
112.373573 208.0
112.49041 132.0
112.504417 160.0
112.549744 128.0
112.597321 172.0
112.626892 68.0
112.821564 188.0
112.933365 68.0
112.994713 188.0
113.043373 124.0
113.108986 252.0
113.132271 284.0
113.380081 120.0
113.411873 180.0
113.426712 160.0
113.441551 200.0
113.494553 316.0
113.515755 220.0
113.564529 100.0
113.651505 104.0
113.785217 144.0
113.836174 184.0
113.980621 84.0
114.012497 236.0
114.031624 408.0
114.064423 204.0
114.084763 148.0
114.11805 188.0
114.149872 224.0
114.169075 244.0
114.200508 220.0
114.293182 156.0
114.314461 192.0
114.335739 164.0
114.378311 156.0
114.42514 44.0
114.54866 132.0
114.606178 188.0
114.625351 176.0
114.66433 208.0
114.687157 120.0
114.711136 160.0
114.746841 124.0
114.819344 188.0
114.908524 188.0
114.97081 92.0
115.050987 136.0
115.105293 192.0
115.177231 140.0
115.229172 140.0
115.254814 176.0
115.32106 208.0
115.338158 132.0
115.460709 188.0
115.494247 204.0
115.510262 156.0
115.586235 136.0
115.742493 188.0
115.798172 132.0
115.836723 184.0
115.864571 164.0
115.951019 168.0
115.96743 84.0
116.048103 1252.0
116.222618 96.0
116.252655 52.0
116.280556 168.0
116.299873 148.0
116.331169 152.0
116.415504 144.0
116.459679 192.0
116.484535 144.0
116.701584 184.0
116.760162 164.0
116.789757 104.0
116.847832 96.0
116.882263 68.0
116.927452 116.0
116.951805 164.0
117.056221 320.0
117.06546 400.0
117.125534 152.0
117.170769 156.0
117.216011 156.0
117.231094 104.0
117.252647 248.0
117.312996 232.0
117.338867 92.0
117.366898 144.0
117.381989 60.0
117.411781 108.0
117.460503 168.0
117.545929 168.0
117.583977 192.0
117.599876 80.0
117.623619 188.0
117.660316 132.0
117.677589 132.0
117.86982 180.0
117.934364 148.0
117.980049 204.0
118.014641 192.0
118.047073 152.0
118.069916 192.0
118.131424 172.0
118.229073 152.0
118.252594 112.0
118.302376 152.0
118.350693 176.0
118.401978 112.0
118.432297 208.0
118.48243 196.0
118.585197 252.0
118.653023 172.0
118.672836 164.0
118.710709 156.0
118.768257 136.0
118.811638 152.0
118.909492 204.0
118.926407 180.0
118.987427 148.0
119.100342 216.0
119.122063 308.0
119.206795 204.0
119.252434 140.0
119.324165 200.0
119.339386 88.0
119.526443 56.0
119.599663 124.0
119.663567 176.0
119.683159 208.0
119.70929 92.0
119.881378 212.0
119.968689 212.0
120.042145 352.0
120.065613 188.0
120.138329 160.0
120.462982 168.0
120.507942 184.0
120.533829 168.0
120.584091 216.0
120.623436 192.0
120.689018 128.0
120.706512 88.0
120.777313 160.0
121.036423 176.0
121.067574 160.0
121.230782 48.0
121.477432 160.0
121.49279 160.0
121.604698 128.0
121.637474 176.0
121.673668 164.0
121.711517 176.0
121.75618 156.0
121.828667 100.0
121.850632 160.0
121.914352 212.0
121.941345 184.0
122.040718 320.0
122.063835 164.0
122.099014 132.0
122.356461 216.0
122.437927 192.0
122.515022 220.0
122.55468 160.0
122.656052 132.0
122.671478 180.0
122.797165 148.0
122.896431 164.0
122.914078 180.0
122.938354 68.0
122.960419 36.0
122.986908 144.0
123.048714 360.0
123.077415 160.0
123.092873 176.0
123.116211 184.0
123.170174 116.0
123.251915 192.0
123.289482 164.0
123.349152 256.0
123.381577 60.0
123.450897 212.0
123.472969 140.0
123.509941 212.0
123.548172 72.0
123.601273 176.0
123.665764 112.0
123.716362 156.0
123.815994 104.0
123.866936 160.0
123.915672 172.0
124.035339 120.0
124.057579 188.0
124.081894 148.0
124.11293 248.0
124.166153 64.0
124.188332 116.0
124.217163 204.0
124.268188 212.0
124.332542 156.0
124.348076 52.0
124.385574 228.0
124.392929 192.0
124.452408 116.0
124.49292 180.0
124.514122 212.0
124.530624 216.0
124.574554 220.0
124.594551 116.0
124.616119 220.0
124.70787 152.0
124.803459 216.0
124.832367 168.0
124.970276 140.0
125.065964 168.0
125.099358 136.0
125.121613 84.0
125.168083 136.0
125.261909 56.0
125.315376 164.0
125.429031 120.0
125.476807 204.0
125.515976 132.0
125.610931 196.0
125.723427 200.0
125.74128 112.0
125.817177 96.0
125.906487 152.0
125.942223 128.0
125.957855 160.0
125.977882 116.0
126.036049 168.0
126.163437 160.0
126.196976 140.0
126.219337 276.0
126.250725 104.0
126.269157 100.0
126.317314 148.0
126.416183 116.0
126.452942 248.0
126.480064 100.0
126.521378 144.0
126.572868 164.0
126.668381 216.0
126.776932 208.0
126.857399 236.0
127.117569 168.0
127.191628 192.0
127.236526 40.0
127.344307 192.0
127.373505 200.0
127.395966 188.0
127.411957 172.0
127.467865 148.0
127.510559 180.0
127.582489 120.0
127.620705 188.0
127.674675 128.0
127.90641 156.0
127.922173 144.0
127.982956 212.0
128.000961 128.0
128.048447 316.0
128.070786 140.0
128.151886 236.0
128.203705 236.0
128.219482 160.0
128.284851 172.0
128.352478 160.0
128.462982 68.0
128.508102 204.0
128.569031 212.0
128.629974 68.0
128.78299 140.0
128.858063 148.0
128.910019 168.0
128.930359 124.0
129.02179 224.0
129.054688 196.0
129.174545 144.0
129.201691 196.0
129.233368 60.0
129.262787 148.0
129.373459 164.0
129.608597 156.0
129.655319 372.0
129.704407 176.0
129.747482 140.0
129.767883 44.0
129.820038 140.0
129.922104 168.0
129.956131 160.0
129.983185 180.0
130.042358 204.0
130.06636 1216.0
130.127823 136.0
130.162674 80.0
130.199005 124.0
130.258057 260.0
130.310318 192.0
130.334732 128.0
130.368301 168.0
130.589905 96.0
130.63768 112.0
130.664627 256.0
130.705933 68.0
130.751221 124.0
130.878922 132.0
131.021088 176.0
131.048599 192.0
131.067368 192.0
131.210342 240.0
131.295929 48.0
131.321014 148.0
131.441925 128.0
131.462463 168.0
131.567444 100.0
131.683899 112.0
131.713593 92.0
131.793549 156.0
131.855255 228.0
131.904739 184.0
132.008408 220.0
132.045197 324.0
132.067871 132.0
132.105682 196.0
132.136505 176.0
132.168533 116.0
132.292877 144.0
132.397446 160.0
132.427216 156.0
132.442245 196.0
132.523422 164.0
132.584152 160.0
132.676971 92.0
132.706787 64.0
132.764114 144.0
132.856506 196.0
132.923599 144.0
132.982056 164.0
133.044922 348.0
133.072769 172.0
133.177216 140.0
133.218109 224.0
133.253021 164.0
133.271133 172.0
133.287476 52.0
133.310455 356.0
133.496658 104.0
133.520523 216.0
133.680695 168.0
133.864838 168.0
133.890182 152.0
133.906296 148.0
133.929321 200.0
133.962265 216.0
134.039551 992.0
134.242065 212.0
134.290924 188.0
134.364365 144.0
134.44606 152.0
134.571777 204.0
134.598114 124.0
134.676636 180.0
134.72052 120.0
134.83374 400.0
134.873032 156.0
135.018692 128.0
135.046753 1600.0
135.106583 60.0
135.150543 128.0
135.213013 196.0
135.231537 120.0
135.250046 224.0
135.282455 148.0
135.314865 80.0
135.344971 176.0
135.382019 168.0
135.414444 236.0
135.504776 256.0
135.537216 208.0
135.557724 132.0
135.561874 112.0
135.570694 204.0
135.692505 84.0
135.708725 192.0
135.731918 128.0
135.752792 140.0
135.77597 208.0
135.799164 80.0
135.826996 160.0
135.939011 188.0
136.055511 1400.0
136.079956 196.0
136.18045 200.0
136.242523 64.0
136.326492 144.0
136.419128 132.0
136.47493 196.0
136.581909 52.0
136.616791 136.0
136.665649 80.0
136.737793 236.0
136.754074 132.0
136.849518 172.0
136.884445 124.0
136.905411 56.0
136.991196 120.0
137.029892 248.0
137.053818 276.0
137.167191 168.0
137.19899 32.0
137.27359 204.0
137.303909 68.0
137.376221 376.0
137.455536 148.0
137.509216 136.0
137.525543 152.0
137.644745 200.0
137.670303 56.0
137.68898 48.0
137.734833 240.0
137.815125 68.0
137.831482 144.0
137.847839 176.0
137.892227 148.0
137.917938 120.0
137.943649 172.0
137.976379 84.0
138.03595 192.0
138.086288 72.0
138.112015 136.0
138.196228 100.0
138.22197 128.0
138.256668 236.0
138.308548 92.0
138.32962 220.0
138.449036 172.0
138.502899 224.0
138.526321 172.0
138.559113 116.0
138.596603 72.0
138.863846 128.0
138.952667 184.0
139.068359 116.0
139.157166 128.0
139.248016 168.0
139.337997 160.0
139.497803 204.0
139.523666 68.0
139.624771 128.0
139.716507 144.0
139.765915 152.0
139.793823 144.0
139.855331 80.0
140.028229 172.0
140.048767 268.0
140.144989 172.0
140.312332 140.0
140.338257 44.0
140.354767 188.0
140.411362 184.0
140.434952 140.0
140.555252 164.0
140.615005 340.0
140.712875 220.0
140.781876 164.0
140.874603 168.0
140.921234 96.0
140.946991 180.0
141.013382 192.0
141.045944 160.0
141.072479 172.0
141.155228 104.0
141.254562 128.0
141.286194 184.0
141.334991 244.0
141.38147 212.0
141.5504 220.0
141.713821 164.0
141.764969 220.0
141.866287 104.0
141.912918 156.0
141.953232 120.0
141.991165 72.0
142.022003 124.0
142.066833 364.0
142.140625 252.0
142.210648 188.0
142.292526 176.0
142.313889 156.0
142.378006 120.0
142.425507 92.0
142.45639 156.0
142.480133 172.0
142.574585 160.0
142.646484 120.0
142.677383 168.0
142.758224 136.0
142.805786 148.0
142.862885 104.0
142.90332 160.0
142.924744 52.0
143.029449 148.0
143.062332 1380.0
143.216293 264.0
143.34726 156.0
143.372406 136.0
143.401016 84.0
143.428696 260.0
143.52243 176.0
143.586975 196.0
143.620361 144.0
143.695404 340.0
143.716385 208.0
143.7659 176.0
143.804077 144.0
143.858978 84.0
143.975525 128.0
143.995743 144.0
144.018509 128.0
144.046738 756.0
144.076889 364.0
144.146896 44.0
144.422897 108.0
144.446808 88.0
144.506622 128.0
144.539368 232.0
144.587982 172.0
144.609512 144.0
144.686371 152.0
144.767517 180.0
144.796265 148.0
144.987915 56.0
145.044617 304.0
145.076935 112.0
145.110168 184.0
145.129349 52.0
145.203674 48.0
145.319901 168.0
145.352417 108.0
145.43161 188.0
145.468231 184.0
145.573242 156.0
145.618881 116.0
145.671722 88.0
145.875977 164.0
146.036819 248.0
146.054962 156.0
146.147736 152.0
146.239182 160.0
146.268066 100.0
146.29454 68.0
146.364365 104.0
146.429382 116.0
146.496826 52.0
146.520905 140.0
146.588379 112.0
146.640732 160.0
146.684708 136.0
146.793274 172.0
146.839081 80.0
146.906616 180.0
146.945221 136.0
147.024857 160.0
147.043457 372.0
147.068542 196.0
147.089752 184.0
147.126938 232.0
147.173965 160.0
147.266907 76.0
147.285355 200.0
147.336319 156.0
147.367737 164.0
147.393158 148.0
147.447479 48.0
147.499115 132.0
147.5224 112.0
147.576248 192.0
147.597351 96.0
147.730362 180.0
147.761826 124.0
147.788437 60.0
147.836823 124.0
147.92395 200.0
147.960449 216.0
147.986893 244.0
148.018372 188.0
148.05423 2628.0
148.124939 208.0
148.168549 184.0
148.207306 164.0
148.231537 156.0
148.321213 432.0
148.338181 160.0
148.418182 168.0
148.592804 152.0
148.624344 176.0
148.688232 232.0
148.772064 120.0
148.816086 188.0
148.875626 124.0
148.908615 156.0
148.976379 128.0
149.007965 92.0
149.057129 1068.0
149.163483 72.0
149.182938 160.0
149.214539 148.0
149.263168 40.0
149.283234 144.0
149.343414 212.0
149.379898 124.0
149.423691 188.0
149.46019 180.0
149.499115 100.0
149.615952 124.0
149.667084 172.0
149.69873 136.0
149.801025 88.0
149.849747 260.0
149.944183 180.0
149.978897 64.0
150.03624 376.0
150.068192 552.0
150.107132 200.0
150.142258 188.0
150.249573 164.0
150.322769 176.0
150.427719 144.0
150.493637 160.0
150.581543 112.0
150.700272 192.0
150.752548 200.0
150.769653 68.0
150.860092 272.0
150.928543 52.0
150.950546 128.0
150.967667 68.0
151.036148 48.0
151.063751 236.0
151.097778 248.0
151.122223 152.0
151.156021 172.0
151.190292 196.0
151.251465 280.0
151.285736 124.0
151.376328 160.0
151.449799 128.0
151.528183 160.0
151.545334 128.0
151.567398 160.0
151.609055 208.0
151.784409 164.0
151.86647 108.0
151.891006 128.0
151.949875 128.0
152.048172 136.0
152.079926 156.0
152.119202 108.0
152.350037 156.0
152.372147 120.0
152.463058 152.0
152.515305 172.0
152.556458 116.0
152.615463 256.0
152.644974 132.0
152.68042 156.0
152.706451 192.0
152.758102 132.0
152.851593 156.0
152.886047 152.0
152.964798 44.0
153.001724 172.0
153.05835 320.0
153.151932 152.0
153.388474 156.0
153.426514 176.0
153.499176 204.0
153.605469 128.0
153.62767 80.0
153.684418 188.0
153.711548 216.0
153.775711 104.0
153.832489 124.0
153.849762 156.0
153.876923 184.0
153.894211 112.0
153.9189 216.0
153.995453 152.0
154.050278 184.0
154.069977 440.0
154.163452 116.0
154.185684 132.0
154.279617 196.0
154.306808 84.0
154.423019 48.0
154.598679 160.0
154.672928 164.0
154.692734 216.0
154.762039 108.0
154.816528 84.0
154.875961 184.0
154.955231 172.0
154.975052 104.0
155.026505 188.0
155.059875 1272.0
155.112778 148.0
155.151398 128.0
155.277466 92.0
155.366776 224.0
155.470978 116.0
155.558594 212.0
155.584656 236.0
155.614944 144.0
155.642899 264.0
155.669571 136.0
155.7435 312.0
155.818604 44.0
155.980133 164.0
156.068466 2164.0
156.115524 196.0
156.290985 108.0
156.357956 180.0
156.509628 148.0
156.574768 168.0
156.612122 224.0
156.647003 68.0
156.728424 216.0
156.796494 56.0
156.884903 188.0
156.903671 216.0
156.995926 124.0
157.013382 136.0
157.046921 172.0
157.075424 2040.0
157.116898 144.0
157.134399 148.0
157.222946 148.0
157.287842 136.0
157.337769 248.0
157.668625 348.0
157.694962 176.0
157.722458 148.0
157.794418 168.0
157.840103 128.0
157.973816 160.0
158.058548 684.0
158.094101 556.0
158.122635 264.0
158.142731 140.0
158.247787 120.0
158.285355 136.0
158.320404 188.0
158.356171 156.0
158.453156 76.0
158.518311 268.0
158.628586 236.0
158.824158 100.0
158.942627 200.0
159.05217 188.0
159.097305 384.0
159.142868 304.0
159.167343 144.0
159.193085 180.0
159.249039 144.0
159.286011 96.0
159.378204 144.0
159.416153 100.0
159.488632 144.0
159.559921 128.0
159.585068 140.0
159.62027 108.0
159.642685 140.0
159.680618 100.0
159.7435 92.0
159.773697 160.0
159.889435 64.0
159.907059 200.0
160.057205 628.0
160.078629 252.0
160.086929 124.0
160.094849 308.0
160.125076 140.0
160.226837 208.0
160.349243 180.0
160.420883 176.0
160.438538 236.0
160.618759 128.0
160.660446 80.0
160.78981 224.0
160.827103 184.0
160.869904 64.0
160.900192 180.0
160.920395 132.0
160.991089 168.0
161.062729 1100.0
161.180542 124.0
161.354095 156.0
161.399323 224.0
161.474686 124.0
161.504135 180.0
161.534485 116.0
161.639496 348.0
161.705338 196.0
161.757172 128.0
161.80043 204.0
161.858429 120.0
161.87616 140.0
161.914139 132.0
161.977463 100.0
162.034515 2076.0
162.058105 704.0
162.190308 156.0
162.233398 48.0
162.344955 140.0
162.395676 168.0
162.446411 160.0
162.466705 64.0
162.511719 148.0
162.626572 140.0
162.695099 68.0
162.735718 276.0
162.756027 68.0
162.860153 152.0
162.890945 164.0
162.921112 264.0
163.008484 124.0
163.041687 1980.0
163.067276 1620.0
163.139664 192.0
163.208313 164.0
163.238892 152.0
163.275803 96.0
163.31575 128.0
163.373383 168.0
163.410736 224.0
163.454849 108.0
163.469376 144.0
163.49649 144.0
163.605194 132.0
163.691757 112.0
163.829727 156.0
163.852219 120.0
163.905731 76.0
163.923569 72.0
163.96434 156.0
164.049652 3292.0
164.114731 40.0
164.142776 112.0
164.178482 128.0
164.201431 180.0
164.29071 140.0
164.308563 68.0
164.328979 68.0
164.372345 48.0
164.459122 164.0
164.545914 48.0
164.563782 156.0
164.607193 36.0
164.635284 116.0
164.686356 176.0
164.740005 224.0
164.843307 92.0
164.8703 56.0
164.918869 176.0
164.95874 164.0
165.054459 596.0
165.08107 600.0
165.113174 76.0
165.132019 88.0
165.292236 124.0
165.338303 80.0
165.356216 120.0
165.397171 140.0
165.425858 172.0
165.444641 124.0
165.630173 88.0
165.78479 204.0
165.837708 128.0
165.914612 120.0
166.001785 164.0
166.050323 164.0
166.073196 128.0
166.089676 148.0
166.114639 220.0
166.137726 100.0
166.253174 192.0
166.296814 140.0
166.338425 260.0
166.434143 200.0
166.471375 76.0
166.509903 208.0
166.542252 148.0
166.581818 148.0
166.614044 184.0
166.738556 144.0
166.769394 132.0
166.807953 132.0
166.84137 120.0
166.861938 168.0
166.948105 196.0
166.982788 40.0
167.059235 704.0
167.094772 164.0
167.168015 124.0
167.219482 108.0
167.31575 220.0
167.355911 92.0
167.440887 140.0
167.492401 144.0
167.634094 112.0
167.708832 124.0
167.726883 100.0
167.796021 156.0
167.946045 96.0
167.987518 248.0
168.03891 132.0
168.066208 620.0
168.108582 52.0
168.129227 152.0
168.152451 148.0
168.232468 136.0
168.369308 168.0
168.423615 180.0
168.459717 164.0
168.482956 148.0
168.519135 136.0
168.619904 160.0
168.684525 216.0
168.710373 108.0
168.904312 40.0
168.987091 192.0
169.01297 144.0
169.03862 224.0
169.048126 204.0
169.075653 908.0
169.129425 208.0
169.160339 136.0
169.198334 212.0
169.243332 92.0
169.333969 324.0
169.416855 204.0
169.541214 64.0
169.621567 136.0
169.709702 188.0
169.857529 156.0
169.902145 160.0
169.948334 188.0
170.064911 608.0
170.078995 268.0
170.174133 176.0
170.194901 108.0
170.259827 84.0
170.30397 108.0
170.366318 148.0
170.431259 136.0
170.511719 96.0
170.556 148.0
170.579391 148.0
170.652191 152.0
170.675583 40.0
170.769211 32.0
170.787415 152.0
170.839432 152.0
170.865448 172.0
170.91748 172.0
171.051682 388.0
171.091919 500.0
171.135818 208.0
171.20903 160.0
171.281952 180.0
171.365326 248.0
171.459122 248.0
171.490402 104.0
171.580429 224.0
171.602493 76.0
171.712006 108.0
171.805908 168.0
171.928543 116.0
171.959869 152.0
171.983353 140.0
172.027725 172.0
172.075958 2900.0
172.168716 52.0
172.202667 120.0
172.241852 152.0
172.32283 160.0
172.36203 100.0
172.425995 116.0
172.513611 108.0
172.53714 148.0
172.602493 96.0
172.667877 160.0
172.694031 176.0
172.733261 164.0
172.775116 92.0
172.84053 156.0
172.882385 308.0
172.994797 148.0
173.026352 144.0
173.05072 324.0
173.07756 980.0
173.108185 296.0
173.152039 132.0
173.227997 192.0
173.318878 180.0
173.379959 196.0
173.414032 192.0
173.466446 144.0
173.547714 168.0
173.600159 100.0
173.655243 92.0
173.721024 152.0
173.74704 128.0
173.859863 144.0
173.891357 100.0
174.000366 212.0
174.03476 668.0
174.058029 644.0
174.113098 336.0
174.169678 124.0
174.190994 240.0
174.337814 152.0
174.374603 128.0
174.442856 220.0
174.750351 144.0
174.757217 128.0
174.871689 120.0
174.890106 60.0
174.91481 124.0
174.934006 148.0
175.028931 340.0
175.067459 2964.0
175.101852 272.0
175.156052 184.0
175.203461 44.0
175.248245 44.0
175.274429 60.0
175.307831 196.0
175.356293 136.0
175.503906 80.0
175.559143 228.0
175.722824 144.0
175.793457 192.0
175.893463 188.0
175.932602 204.0
175.977844 204.0
176.001877 300.0
176.074326 10380.0
176.117584 228.0
176.141739 168.0
176.173691 168.0
176.210587 60.0
176.266266 180.0
176.327515 152.0
176.446457 60.0
176.467606 144.0
176.48877 144.0
176.581314 140.0
176.602478 168.0
176.623642 248.0
176.642151 192.0
176.660675 56.0
176.787674 176.0
176.830017 180.0
176.848541 172.0
176.88559 108.0
176.930939 152.0
176.993057 196.0
177.05957 1980.0
177.081863 4968.0
177.146866 84.0
177.171585 168.0
177.202057 180.0
177.280212 56.0
177.304077 40.0
177.42334 48.0
177.474792 148.0
177.500229 80.0
177.531219 148.0
177.587753 44.0
177.616928 176.0
177.638138 76.0
177.680588 92.0
177.770798 80.0
177.853073 200.0
177.914124 184.0
177.938019 124.0
178.000549 80.0
178.00946 44.0
178.032303 472.0
178.064362 2352.0
178.104736 300.0
178.131882 88.0
178.150467 84.0
178.224869 104.0
178.264725 192.0
178.288635 44.0
178.324188 160.0
178.357742 72.0
178.426849 116.0
178.4561 52.0
178.586395 32.0
178.607681 200.0
178.743362 84.0
178.825851 140.0
178.852463 136.0
178.888489 132.0
178.977585 112.0
179.035568 300.0
179.064209 864.0
179.148041 88.0
179.289261 176.0
179.307907 188.0
179.326569 176.0
179.347885 68.0
179.378098 92.0
179.397491 184.0
179.491852 188.0
179.558517 156.0
179.657211 176.0
179.878555 168.0
179.926529 148.0
179.958771 124.0
180.066803 328.0
180.098282 420.0
180.200241 128.0
180.271713 204.0
180.30603 92.0
180.386215 140.0
180.469086 164.0
180.664322 180.0
180.68573 180.0
180.760635 132.0
180.827545 216.0
180.856979 168.0
180.907852 64.0
180.953354 36.0
180.982056 156.0
181.050186 376.0
181.080215 336.0
181.162247 120.0
181.18367 164.0
181.221176 136.0
181.384659 220.0
181.457031 188.0
181.518219 156.0
181.612564 128.0
181.689194 176.0
181.746536 208.0
181.854034 132.0
181.879868 232.0
181.990952 140.0
182.031555 216.0
182.08844 476.0
182.181625 236.0
182.283722 232.0
182.375427 160.0
182.529999 264.0
182.557907 152.0
182.61145 216.0
182.684326 124.0
182.703156 168.0
182.783859 236.0
182.80809 164.0
182.845764 128.0
182.926498 124.0
182.956116 152.0
183.026123 212.0
183.054184 208.0
183.090698 744.0
183.136536 184.0
183.230804 136.0
183.260452 128.0
183.281998 160.0
183.306259 108.0
183.392487 168.0
183.419449 208.0
183.476059 188.0
183.594696 164.0
183.637848 72.0
183.699875 124.0
183.810501 244.0
183.845581 116.0
183.945435 44.0
184.063629 2704.0
184.08815 532.0
184.150635 76.0
184.193863 180.0
184.224319 72.0
184.291107 184.0
184.358658 44.0
184.429199 164.0
184.466766 96.0
184.512726 68.0
184.595139 184.0
184.674973 168.0
184.772354 180.0
184.813507 172.0
184.843781 188.0
184.875168 160.0
184.940048 152.0
184.988846 144.0
185.026749 96.0
185.070435 7940.0
185.106262 792.0
185.166306 156.0
185.237976 40.0
185.302994 192.0
185.357178 44.0
185.384277 68.0
185.441193 168.0
185.500824 96.0
185.578583 152.0
185.611969 72.0
185.644516 32.0
185.693329 112.0
185.763855 204.0
185.796402 132.0
185.845245 124.0
185.951065 112.0
185.983643 324.0
186.027069 144.0
186.065033 1256.0
186.101929 300.0
186.16011 176.0
186.217133 152.0
186.271454 144.0
186.29863 148.0
186.387115 252.0
186.43808 132.0
186.488831 168.0
186.613876 52.0
186.662811 80.0
186.749847 176.0
186.851791 52.0
186.902344 68.0
186.986542 132.0
187.034546 404.0
187.066437 3912.0
187.120346 340.0
187.16893 108.0
187.226578 164.0
187.294205 204.0
187.367325 356.0
187.456879 104.0
187.510788 212.0
187.558502 148.0
187.720062 192.0
187.857147 176.0
187.952332 136.0
188.050491 2040.0
188.121552 344.0
188.150452 188.0
188.219086 172.0
188.282959 144.0
188.30336 80.0
188.418076 132.0
188.472733 160.0
188.505508 216.0
188.584763 144.0
188.650375 156.0
188.759735 144.0
188.800751 180.0
188.863647 180.0
188.989487 48.0
189.047058 1584.0
189.0793 996.0
189.197495 132.0
189.21666 72.0
189.264069 152.0
189.361786 196.0
189.422043 132.0
189.474091 124.0
189.528885 140.0
189.665909 132.0
189.759109 84.0
189.843719 140.0
189.898697 180.0
189.934616 128.0
190.064697 6452.0
190.143143 76.0
190.183609 284.0
190.206268 104.0
190.34079 104.0
190.358917 100.0
190.399536 152.0
190.524796 112.0
190.567169 72.0
190.70961 140.0
190.768112 200.0
190.799622 72.0
190.854599 200.0
190.912354 72.0
190.931595 88.0
190.94989 148.0
191.000366 248.0
191.030624 236.0
191.063126 4536.0
191.123093 140.0
191.151672 156.0
191.210587 148.0
191.275513 132.0
191.314056 208.0
191.365311 220.0
191.399399 156.0
191.437958 156.0
191.468246 136.0
191.606888 60.0
191.798874 48.0
191.846786 176.0
191.885498 132.0
191.895996 136.0
191.901337 164.0
191.944977 196.0
191.978073 136.0
192.026108 48.0
192.080536 1736.0
192.162872 56.0
192.220825 120.0
192.322937 108.0
192.347778 52.0
192.436111 128.0
192.463135 220.0
192.587997 108.0
192.610092 200.0
192.748215 72.0
192.980392 248.0
193.010803 116.0
193.062424 360.0
193.080414 1012.0
193.10228 328.0
193.124741 164.0
193.278076 128.0
193.302994 76.0
193.398117 64.0
193.420258 184.0
193.44516 216.0
193.519913 108.0
193.566208 156.0
193.586365 196.0
193.605759 92.0
193.666687 216.0
193.733154 128.0
193.805191 120.0
193.899414 160.0
194.001236 212.0
194.079742 152.0
194.110092 148.0
194.282043 92.0
194.33754 184.0
194.41246 160.0
194.470734 124.0
194.640518 128.0
194.667847 184.0
194.698395 116.0
194.717834 96.0
194.909073 152.0
194.982391 160.0
195.033401 528.0
195.088165 412.0
195.243591 200.0
195.265335 172.0
195.337646 188.0
195.441315 152.0
195.493942 116.0
195.566956 200.0
195.596436 84.0
195.632614 144.0
195.654892 208.0
195.674377 84.0
195.704483 108.0
195.774612 52.0
195.835876 136.0
195.905518 144.0
195.96402 176.0
195.994675 84.0
196.021057 384.0
196.04834 108.0
196.086227 356.0
196.241211 188.0
196.33255 132.0
196.465851 80.0
196.577454 148.0
196.835709 100.0
196.870316 192.0
196.990646 152.0
197.03212 156.0
197.070862 740.0
197.105515 644.0
197.208603 208.0
197.309235 164.0
197.353958 136.0
197.418274 184.0
197.43573 152.0
197.489151 140.0
197.600082 108.0
197.67775 216.0
197.793167 108.0
198.025574 164.0
198.076355 3348.0
198.105804 432.0
198.23288 160.0
198.358994 288.0
198.4431 160.0
198.525192 228.0
198.584885 172.0
198.664642 128.0
198.762848 244.0
198.882248 116.0
198.905975 196.0
198.996078 124.0
199.084946 284.0
199.118179 452.0
199.232315 176.0
199.296326 128.0
199.45932 80.0
199.625198 36.0
199.644882 184.0
199.727966 156.0
199.771454 136.0
199.889618 124.0
200.073502 120.0
200.079071 300.0
200.09024 172.0
200.135208 220.0
200.216156 80.0
200.320374 204.0
200.356995 188.0
200.382355 100.0
200.482071 204.0
200.62471 112.0
200.652908 40.0
200.861588 200.0
200.929291 80.0
200.965958 136.0
200.999161 136.0
201.021072 240.0
201.07785 372.0
201.105499 428.0
201.214325 176.0
201.234085 140.0
201.324448 44.0
201.402588 144.0
201.530106 104.0
201.553253 76.0
201.63237 44.0
201.773712 68.0
201.898117 244.0
201.934891 112.0
201.971649 128.0
202.027328 1040.0
202.054291 348.0
202.086914 528.0
202.158371 128.0
202.192337 220.0
202.231964 224.0
202.25177 68.0
202.272522 228.0
202.345184 120.0
202.553894 140.0
202.569794 152.0
202.58873 196.0
202.617065 128.0
202.645401 144.0
202.704895 68.0
202.811523 148.0
202.858383 204.0
202.884766 164.0
202.957169 112.0
203.000778 156.0
203.061737 32176.0
203.097198 768.0
203.148514 52.0
203.195404 68.0
203.229462 112.0
203.253418 108.0
203.289917 104.0
203.368332 64.0
203.419601 96.0
203.511154 168.0
203.533157 160.0
203.585953 176.0
203.63736 144.0
203.720612 132.0
203.80867 156.0
203.862671 112.0
203.925186 128.0
203.979187 160.0
204.068985 24484.0
204.155472 156.0
204.175369 52.0
204.239044 124.0
204.251221 48.0
204.257858 156.0
204.29361 84.0
204.314117 216.0
204.354584 132.0
204.400101 100.0
204.443283 184.0
204.475342 208.0
204.49971 36.0
204.536713 28.0
204.596481 156.0
204.622955 180.0
204.661972 76.0
204.717056 220.0
204.774582 132.0
204.795227 320.0
204.839767 260.0
204.881271 284.0
204.90863 224.0
204.955338 224.0
204.995239 60.0
205.021423 292.0
205.07753 58224.0
205.147247 260.0
205.178986 76.0
205.185211 112.0
205.197495 180.0
205.242905 76.0
205.290527 68.0
205.33139 244.0
205.342178 112.0
205.353638 184.0
205.382965 64.0
205.418839 180.0
205.42746 60.0
205.457321 300.0
205.489899 132.0
205.504196 56.0
205.515976 104.0
205.545578 108.0
205.570831 80.0
205.581329 68.0
205.590042 48.0
205.636368 156.0
205.676849 96.0
205.699692 120.0
205.72226 192.0
205.759628 152.0
205.782471 140.0
205.850998 124.0
205.892288 140.0
205.948151 260.0
206.002365 160.0
206.080063 6756.0
206.173798 48.0
206.217697 200.0
206.256042 120.0
206.266693 80.0
206.305283 68.0
206.333862 204.0
206.368179 60.0
206.403122 180.0
206.434082 252.0
206.468262 56.0
206.512985 80.0
206.574539 100.0
206.616989 44.0
206.639877 124.0
206.662766 64.0
206.696243 232.0
206.778275 104.0
206.80368 148.0
206.840195 112.0
206.894226 124.0
206.92894 88.0
206.970932 132.0
207.031006 124.0
207.089645 1420.0
207.152771 144.0
207.278183 60.0
207.321365 64.0
207.35965 120.0
207.410202 60.0
207.436752 168.0
207.467255 80.0
207.483505 56.0
207.552444 188.0
207.57724 152.0
207.643875 72.0
207.655685 84.0
207.68222 100.0
207.785858 196.0
207.811691 32.0
207.837509 84.0
207.980881 104.0
208.042206 204.0
208.084473 268.0
208.136246 204.0
208.217346 88.0
208.242172 108.0
208.348557 152.0
208.389755 200.0
208.466354 152.0
208.495087 176.0
208.688858 108.0
208.741791 196.0
208.791199 140.0
208.811325 72.0
208.84584 56.0
209.058746 172.0
209.083466 176.0
209.113419 144.0
209.141129 64.0
209.176743 56.0
209.254471 64.0
209.289017 136.0
209.378281 56.0
209.487732 136.0
209.513657 168.0
209.715363 104.0
209.755722 52.0
209.810486 192.0
209.850861 68.0
210.039246 304.0
210.071548 124.0
210.105331 876.0
210.188324 184.0
210.222946 144.0
210.347046 176.0
210.399002 180.0
210.418823 144.0
210.627136 60.0
210.739807 36.0
210.843826 68.0
210.87851 160.0
211.011734 92.0
211.048645 292.0
211.081619 364.0
211.108459 312.0
211.208115 232.0
211.244217 100.0
211.271759 252.0
211.407745 120.0
211.476532 132.0
211.540878 36.0
211.564041 248.0
211.595886 316.0
211.645096 152.0
211.697891 140.0
211.755142 180.0
211.946335 104.0
212.011398 116.0
212.084152 1332.0
212.116837 1632.0
212.189789 156.0
212.294174 132.0
212.328979 44.0
212.357986 248.0
212.39859 68.0
212.680038 108.0
212.746796 128.0
212.775833 176.0
212.813568 132.0
212.871643 128.0
212.942764 112.0
212.964584 60.0
213.100952 3268.0
213.238251 180.0
213.316162 60.0
213.36673 112.0
213.572037 80.0
213.860092 44.0
213.909576 76.0
213.932861 148.0
213.959061 200.0
214.002731 192.0
214.028931 92.0
214.098618 624.0
214.314377 96.0
214.340591 140.0
214.363907 132.0
214.445511 196.0
214.489227 80.0
214.514008 24.0
214.538788 92.0
214.675812 140.0
214.699142 188.0
214.719559 88.0
214.801224 160.0
214.830399 156.0
214.863785 180.0
214.907059 144.0
214.928711 132.0
214.973267 112.0
215.022583 568.0
215.057922 340.0
215.098114 3396.0
215.138306 304.0
215.215637 136.0
215.241913 96.0
215.311996 84.0
215.361649 200.0
215.450867 44.0
215.522324 84.0
215.618744 28.0
215.714127 196.0
215.760742 160.0
215.78537 64.0
215.81102 160.0
215.960815 136.0
216.033325 1236.0
216.067703 1652.0
216.098969 536.0
216.15097 124.0
216.27388 36.0
216.335358 140.0
216.508102 224.0
216.53447 120.0
216.560822 168.0
216.727798 124.0
216.885345 168.0
216.91243 136.0
217.039291 1416.0
217.076721 4768.0
217.193924 84.0
217.252396 68.0
217.305389 160.0
217.331802 76.0
217.352341 180.0
217.419678 228.0
217.446243 160.0
217.466782 80.0
217.531357 48.0
217.55484 152.0
217.685303 92.0
217.733948 64.0
217.789764 84.0
217.810318 92.0
217.833817 140.0
217.962067 264.0
218.083832 7764.0
218.165878 72.0
218.218796 32.0
218.315918 136.0
218.362885 40.0
218.383469 224.0
218.47171 104.0
218.504074 64.0
218.529877 68.0
218.580566 52.0
218.621765 92.0
218.645309 160.0
218.715942 128.0
218.795425 204.0
218.830429 144.0
218.857254 160.0
218.883759 132.0
218.91304 216.0
218.966888 140.0
219.009399 268.0
219.045563 160.0
219.092972 18928.0
219.2164 112.0
219.291153 136.0
219.322708 76.0
219.391647 52.0
219.400558 68.0
219.452423 96.0
219.507874 144.0
219.588058 36.0
219.614609 140.0
219.670654 164.0
219.71936 76.0
219.804535 168.0
219.850632 160.0
219.871292 128.0
219.925934 180.0
219.968689 164.0
220.015915 80.0
220.054291 116.0
220.095596 2332.0
220.169449 40.0
220.204895 160.0
220.240341 132.0
220.278732 120.0
220.323044 152.0
220.36145 92.0
220.388046 128.0
220.414642 156.0
220.444183 188.0
220.532852 196.0
220.590256 152.0
220.617294 84.0
220.654037 64.0
220.690475 136.0
220.716125 92.0
220.739792 68.0
220.840332 128.0
220.966003 124.0
221.046021 228.0
221.074814 192.0
221.097565 160.0
221.140808 320.0
221.328613 64.0
221.359039 204.0
221.391754 176.0
221.461884 152.0
221.556671 172.0
221.60704 152.0
221.645554 284.0
221.971603 184.0
221.991898 276.0
222.057617 316.0
222.11026 204.0
222.194061 232.0
222.245895 180.0
222.291977 152.0
222.446304 48.0
222.491241 144.0
222.547241 200.0
222.6185 144.0
222.70166 72.0
222.723984 116.0
222.903671 44.0
222.924469 180.0
222.948242 36.0
222.993729 132.0
223.063477 520.0
223.100906 192.0
223.128372 140.0
223.177124 164.0
223.3853 152.0
223.474548 164.0
223.501328 120.0
223.733475 20.0
223.879379 156.0
223.932983 180.0
224.058105 572.0
224.117569 560.0
224.16832 76.0
224.258591 188.0
224.5961 132.0
224.618515 144.0
224.639389 160.0
224.667526 176.0
224.708008 76.0
224.736069 208.0
224.767685 104.0
224.824371 164.0
225.064148 544.0
225.124237 3472.0
225.209503 64.0
225.263275 188.0
225.337952 68.0
225.493347 116.0
225.67569 64.0
225.712051 100.0
225.750443 44.0
225.784103 236.0
225.808563 72.0
225.896988 52.0
225.917938 60.0
226.010681 52.0
226.066254 316.0
226.100693 1492.0
226.131042 592.0
226.222275 200.0
226.271057 104.0
226.317062 132.0
226.37886 40.0
226.399811 120.0
226.465698 160.0
226.507645 52.0
226.576538 92.0
226.627472 40.0
226.860153 156.0
227.10614 1528.0
227.284103 172.0
227.42215 68.0
227.446167 80.0
227.575241 68.0
227.674332 176.0
227.734406 132.0
227.758438 64.0
227.800491 204.0
227.836533 188.0
227.863571 80.0
227.929672 76.0
228.046875 172.0
228.074265 144.0
228.112686 448.0
228.14888 136.0
228.299408 140.0
228.455811 48.0
228.515976 184.0
228.663422 128.0
228.690094 144.0
228.726624 156.0
228.813934 104.0
229.040695 360.0
229.07402 196.0
229.113495 144.0
229.121872 192.0
229.271774 196.0
229.537048 68.0
229.588303 124.0
229.66069 236.0
229.926178 56.0
229.950333 220.0
229.995605 172.0
230.048996 612.0
230.078995 364.0
230.112457 288.0
230.227249 160.0
230.297531 112.0
230.324722 72.0
230.370026 52.0
230.481812 44.0
230.788986 96.0
230.79425 124.0
230.879013 260.0
230.926086 120.0
230.985916 140.0
231.005722 188.0
231.055878 2580.0
231.090637 2304.0
231.174271 68.0
231.204529 84.0
231.26506 200.0
231.305984 84.0
231.440155 152.0
231.541306 164.0
231.598114 188.0
231.623688 172.0
231.678329 132.0
231.752609 172.0
231.845062 148.0
231.864639 400.0
231.946808 100.0
231.995056 164.0
232.060089 796.0
232.100021 596.0
232.180008 212.0
232.210342 196.0
232.33168 84.0
232.443924 120.0
232.47731 104.0
232.504303 152.0
232.534973 44.0
232.560516 212.0
232.610855 208.0
232.651749 164.0
232.728012 196.0
232.771439 148.0
232.779572 56.0
232.825348 396.0
232.852325 136.0
232.858627 212.0
232.87027 264.0
232.911453 132.0
232.944931 396.0
232.975403 420.0
232.990326 180.0
232.99675 408.0
233.023865 292.0
233.031067 228.0
233.109283 137712.0
233.175552 52.0
233.216278 284.0
233.250305 224.0
233.295975 52.0
233.349762 208.0
233.41156 140.0
233.451859 176.0
233.485474 236.0
233.533234 120.0
233.568878 104.0
233.609253 376.0
233.646118 124.0
233.684921 208.0
233.755524 236.0
233.819458 80.0
233.844879 80.0
233.868896 72.0
233.896622 68.0
233.932327 184.0
233.961716 104.0
233.984909 68.0
234.009048 336.0
234.026382 172.0
234.038879 248.0
234.111343 14764.0
234.180466 72.0
234.240707 48.0
234.278687 76.0
234.318192 104.0
234.399765 116.0
234.412445 76.0
234.465988 244.0
234.504776 108.0
234.543839 108.0
234.600098 148.0
234.626877 72.0
234.683853 116.0
234.742966 60.0
234.800262 108.0
234.832016 56.0
234.880814 48.0
234.902176 84.0
234.978027 60.0
234.986176 52.0
235.021149 80.0
235.054596 184.0
235.116837 1048.0
235.206268 132.0
235.239182 172.0
235.367416 200.0
235.425537 100.0
235.475998 48.0
235.5578 56.0
235.578247 84.0
235.601562 72.0
235.639343 92.0
235.690964 124.0
235.754547 100.0
235.806686 232.0
235.848114 116.0
235.882004 164.0
235.914551 196.0
235.977127 36.0
236.010757 40.0
236.070953 204.0
236.108124 192.0
236.235718 180.0
236.276855 172.0
236.31662 216.0
236.423721 60.0
236.564514 80.0
236.615372 52.0
236.621658 156.0
236.696152 148.0
236.745148 160.0
236.766586 120.0
236.848846 112.0
236.8983 52.0
236.965683 160.0
237.008591 36.0
237.064804 184.0
237.107147 176.0
237.149551 96.0
237.338409 92.0
237.434677 108.0
237.459213 64.0
237.539597 96.0
237.729172 168.0
237.793625 80.0
237.856903 136.0
238.058655 348.0
238.091187 268.0
238.134872 560.0
238.221802 160.0
238.583038 96.0
238.638382 148.0
238.693726 56.0
238.761368 144.0
238.979767 140.0
239.080444 644.0
239.108841 464.0
239.135559 428.0
239.238281 80.0
239.281387 140.0
239.544388 168.0
239.875946 72.0
239.956085 164.0
240.002335 136.0
240.026749 144.0
240.076172 1328.0
240.113434 3128.0
240.147537 1420.0
240.301514 180.0
240.357941 140.0
240.449631 84.0
240.557663 68.0
240.579269 176.0
240.610138 96.0
240.637924 200.0
240.668793 164.0
240.712021 40.0
240.80159 40.0
240.913971 176.0
240.980743 112.0
241.009979 260.0
241.051819 164.0
241.075958 340.0
241.121628 2884.0
241.203247 48.0
241.30217 180.0
241.405533 56.0
241.496979 164.0
241.608337 48.0
241.630005 92.0
241.679504 40.0
241.725922 68.0
241.824951 96.0
241.905426 140.0
241.942566 44.0
242.072601 80.0
242.128723 2152.0
242.17012 164.0
242.252243 152.0
242.376175 44.0
242.549713 112.0
242.762177 68.0
242.813263 172.0
242.834961 108.0
243.05864 1332.0
243.102859 192.0
243.12999 504.0
243.232117 84.0
243.260056 32.0
243.328354 112.0
243.353333 88.0
243.409073 140.0
243.440125 80.0
243.548828 44.0
243.570572 184.0
243.592316 64.0
243.629593 180.0
243.744324 116.0
243.903046 68.0
244.064713 456.0
244.088623 332.0
244.130066 236.0
244.223297 52.0
244.263733 96.0
244.425507 140.0
244.556213 68.0
244.780365 148.0
244.876892 168.0
244.926727 164.0
245.0233 96.0
245.071533 1656.0
245.107132 4820.0
245.198456 152.0
245.344299 100.0
245.398849 64.0
245.543854 172.0
245.575043 52.0
245.618698 104.0
245.643661 180.0
245.734131 76.0
245.824615 108.0
245.852692 64.0
246.072388 228.0
246.110748 724.0
246.183594 176.0
246.214828 84.0
246.405365 140.0
246.511597 148.0
246.549103 160.0
246.789795 128.0
246.996185 68.0
247.043106 152.0
247.086288 196.0
247.123215 1508.0
247.189072 80.0
247.293427 56.0
247.330994 152.0
247.446823 48.0
247.478119 100.0
247.556412 92.0
247.631561 156.0
247.734924 52.0
247.788483 84.0
247.841446 160.0
247.900986 168.0
248.048294 124.0
248.126511 396.0
248.198776 80.0
248.810577 88.0
248.907913 120.0
249.067627 268.0
249.125015 140.0
249.206299 232.0
249.25029 156.0
249.366562 36.0
249.589752 36.0
249.718689 68.0
250.076294 276.0
250.102539 208.0
250.174927 188.0
250.244202 124.0
250.300873 120.0
250.411087 36.0
250.474075 204.0
250.710754 164.0
250.789169 184.0
250.871124 76.0
250.975159 36.0
251.085007 252.0
251.142303 144.0
251.590378 112.0
251.909317 120.0
251.931427 160.0
251.959869 64.0
252.07431 440.0
252.116898 80.0
252.125458 236.0
252.151077 364.0
252.181061 92.0
252.279037 248.0
252.471909 148.0
252.658524 156.0
252.785095 104.0
252.921173 40.0
253.031967 148.0
253.088089 440.0
253.119247 264.0
253.14595 164.0
253.288467 184.0
253.662369 136.0
253.72261 148.0
254.092804 236.0
254.127716 664.0
254.284042 64.0
254.325302 124.0
254.363403 192.0
254.598343 144.0
254.655502 36.0
254.76033 40.0
255.101456 92.0
255.136292 528.0
255.173462 144.0
255.316559 40.0
255.443771 208.0
255.504211 84.0
255.679214 260.0
255.790909 216.0
255.844742 164.0
256.013489 108.0
256.042145 136.0
256.13681 272.0
256.224915 220.0
256.316101 156.0
256.367096 140.0
256.634827 132.0
256.727325 100.0
256.848511 88.0
257.103485 288.0
257.127625 232.0
257.256958 52.0
257.544342 184.0
257.576263 76.0
258.065887 444.0
258.101257 872.0
258.27948 44.0
258.381836 164.0
258.433014 92.0
258.465027 60.0
258.493835 120.0
258.861938 120.0
259.088684 1456.0
259.116394 1144.0
259.26236 60.0
259.326477 32.0
259.355316 140.0
259.380951 108.0
259.669525 176.0
259.868408 60.0
259.916534 28.0
260.006378 32.0
260.048096 156.0
260.08728 428.0
260.120636 544.0
260.150787 636.0
260.186127 112.0
260.304932 228.0
260.426971 144.0
260.613281 56.0
260.796448 36.0
261.034363 80.0
261.060089 100.0
261.126038 2404.0
261.298096 88.0
261.352783 72.0
261.433228 104.0
261.594147 56.0
261.832428 60.0
261.880737 120.0
261.909729 144.0
261.951599 48.0
262.080444 104.0
262.133118 764.0
262.206146 184.0
262.593018 68.0
262.660736 196.0
262.763824 96.0
263.080719 184.0
263.12677 164.0
263.173859 104.0
263.215851 140.0
263.390228 64.0
263.726257 136.0
263.813538 172.0
264.114594 152.0
264.143555 152.0
264.389252 80.0
264.417358 112.0
264.460449 64.0
264.573761 180.0
264.638519 144.0
264.674133 136.0
264.709747 132.0
264.755066 124.0
264.81662 80.0
264.842529 180.0
264.887878 100.0
265.002594 96.0
265.027161 124.0
265.105347 168.0
265.130859 176.0
265.442078 128.0
265.568542 164.0
265.769684 192.0
265.853027 64.0
266.088013 408.0
266.14328 196.0
266.393799 196.0
266.448242 108.0
266.662689 100.0
266.82196 108.0
266.90863 104.0
267.097443 2816.0
267.173187 132.0
267.472565 148.0
267.755829 248.0
267.899139 152.0
267.980591 104.0
268.107391 2340.0
268.143677 1632.0
268.260864 68.0
268.374969 108.0
268.427124 84.0
268.626068 96.0
268.707642 64.0
268.821838 168.0
268.880585 44.0
268.903412 40.0
269.084808 168.0
269.10907 260.0
269.148895 680.0
269.27887 80.0
269.402985 164.0
269.795135 76.0
269.860535 204.0
269.932465 236.0
270.086182 180.0
270.160126 2812.0
270.266083 48.0
270.427917 64.0
270.541016 208.0
270.658875 192.0
270.685059 76.0
270.829163 136.0
270.901215 28.0
270.94281 180.0
271.028992 44.0
271.0849 180.0
271.163147 892.0
271.415771 140.0
271.553497 128.0
271.61911 44.0
271.642059 124.0
271.766724 184.0
272.033936 104.0
272.079468 500.0
272.153473 368.0
272.554749 96.0
272.602448 112.0
272.656616 76.0
272.699341 64.0
272.972198 132.0
273.001801 68.0
273.089325 1460.0
273.126556 3268.0
273.218872 44.0
273.258362 52.0
273.524902 32.0
273.768524 80.0
273.860748 72.0
273.966156 196.0
274.087769 276.0
274.129974 756.0
274.206696 124.0
274.239655 116.0
274.391296 52.0
274.513275 64.0
274.661682 40.0
274.760651 56.0
275.093994 172.0
275.136108 456.0
275.206207 128.0
275.338287 116.0
275.79422 92.0
275.840485 152.0
275.923126 60.0
276.055389 128.0
276.150208 208.0
276.190979 144.0
276.320007 152.0
276.472198 52.0
276.627777 152.0
276.69397 156.0
276.86615 108.0
277.098846 416.0
277.13446 64.0
277.562042 32.0
277.596497 224.0
277.681427 92.0
277.906982 152.0
278.101318 128.0
278.175812 68.0
278.378326 144.0
278.444763 100.0
278.727112 172.0
278.825592 120.0
278.913208 32.0
279.485229 68.0
279.541779 100.0
279.654938 84.0
279.714844 64.0
280.044495 140.0
280.074463 100.0
280.103302 212.0
280.194366 88.0
280.231018 108.0
280.797699 176.0
281.107941 248.0
281.191376 176.0
281.518555 124.0
281.685547 92.0
281.78241 160.0
281.949493 204.0
282.063141 120.0
282.116608 220.0
282.614929 184.0
282.765503 52.0
282.875977 204.0
283.981689 96.0
284.105804 136.0
284.270203 116.0
284.41452 84.0
284.498413 136.0
285.08139 176.0
285.375275 168.0
285.812531 204.0
285.873077 212.0
285.994263 88.0
286.098846 1592.0
286.186127 104.0
286.610535 188.0
286.667816 40.0
286.69812 144.0
286.782379 184.0
287.004883 128.0
287.043304 100.0
287.102081 1264.0
287.144409 304.0
287.305054 172.0
287.469604 156.0
287.645874 48.0
287.729767 140.0
287.770782 132.0
287.936249 40.0
287.959869 148.0
288.017303 172.0
288.114197 5444.0
288.149597 7160.0
288.297699 56.0
288.331512 76.0
288.361908 48.0
288.388947 128.0
288.4534 308.0
288.517426 136.0
288.635254 164.0
288.746796 152.0
288.831787 100.0
288.906311 156.0
288.940155 44.0
288.963837 124.0
289.06781 148.0
289.117767 512.0
289.151642 1328.0
289.209625 100.0
289.248077 40.0
289.309021 92.0
289.384247 72.0
289.434296 108.0
289.483185 100.0
289.532288 204.0
289.628845 92.0
289.658844 52.0
289.695068 72.0
289.73233 176.0
289.806854 160.0
289.830566 108.0
289.897217 228.0
289.922058 220.0
289.951569 100.0
290.02713 148.0
290.077972 156.0
290.10556 148.0
290.167236 49344.0
290.249481 104.0
290.285431 172.0
290.380676 160.0
290.4133 72.0
290.444183 120.0
290.493073 68.0
290.555695 96.0
290.60025 76.0
290.628723 104.0
290.693054 68.0
290.727417 136.0
290.849426 28.0
290.906311 292.0
291.007324 76.0
291.044861 136.0
291.077515 160.0
291.084045 52.0
291.125763 84.0
291.169373 6652.0
291.228241 164.0
291.259216 196.0
291.313171 52.0
291.36911 72.0
291.455841 40.0
291.53653 108.0
291.707336 36.0
291.826141 80.0
291.855164 108.0
291.911346 92.0
292.077057 116.0
292.109375 68.0
292.171967 812.0
292.220856 28.0
292.27771 96.0
292.316132 64.0
292.394409 80.0
292.448853 128.0
292.488678 40.0
292.497345 180.0
292.574799 64.0
292.625854 44.0
292.683746 68.0
292.721954 232.0
292.762054 32.0
292.874451 124.0
292.898285 100.0
292.939178 96.0
292.967407 96.0
293.054077 152.0
293.119751 104.0
293.143402 128.0
293.176117 148.0
293.317413 124.0
293.344666 48.0
293.702698 112.0
293.835754 56.0
293.910797 120.0
293.965393 176.0
294.118011 84.0
294.26236 48.0
294.443329 88.0
294.897736 92.0
294.952423 124.0
295.020782 72.0
295.12677 124.0
295.164368 64.0
295.203491 36.0
295.824677 96.0
295.852051 92.0
296.137512 2300.0
296.413757 48.0
296.506287 148.0
296.605682 124.0
297.145813 312.0
297.968018 56.0
298.150116 128.0
298.906647 80.0
298.963959 128.0
299.042725 96.0
299.099396 176.0
299.436798 176.0
299.719269 144.0
299.795074 176.0
299.91571 72.0
300.123108 96.0
301.118652 132.0
301.721069 120.0
301.779846 36.0
302.319427 88.0
302.617126 132.0
302.724457 64.0
302.800659 124.0
302.890686 116.0
302.928802 184.0
302.970367 208.0
303.036194 168.0
303.178253 60.0
303.379303 52.0
303.500641 148.0
303.587311 152.0
303.899506 92.0
304.00708 108.0
304.086884 144.0
304.350708 36.0
304.402802 96.0
305.042053 132.0
305.08725 108.0
305.11853 52.0
305.466309 128.0
306.126831 912.0
306.211151 56.0
306.838348 156.0
306.894135 56.0
307.127594 148.0
307.249878 40.0
307.952576 184.0
308.143829 128.0
308.209991 72.0
308.272888 80.0
308.783295 104.0
308.940704 92.0
309.28363 156.0
309.574219 56.0
309.651245 100.0
309.994568 52.0
310.404694 112.0
311.13797 56.0
311.176605 172.0
311.208191 44.0
311.425934 188.0
311.485626 44.0
311.555878 156.0
311.752655 64.0
311.974091 184.0
312.522705 148.0
312.723297 60.0
312.793701 216.0
313.149323 60.0
313.31488 116.0
313.46286 96.0
313.498077 84.0
313.536835 132.0
313.684875 88.0
313.769501 160.0
313.995148 120.0
314.097443 72.0
314.156586 736.0
314.280884 60.0
314.337341 112.0
314.474976 128.0
314.517334 192.0
314.559692 116.0
314.654999 76.0
314.697754 180.0
314.750336 120.0
314.778564 148.0
314.950714 92.0
315.033905 96.0
315.136017 124.0
315.151672 76.0
315.276672 116.0
315.361481 156.0
315.499329 112.0
315.534698 108.0
315.591248 88.0
315.700867 96.0
315.764526 56.0
315.799896 196.0
315.900665 132.0
315.930786 236.0
315.977539 216.0
316.020782 192.0
316.056183 160.0
316.146484 62252.0
316.25766 108.0
316.337738 72.0
316.390381 248.0
316.433319 140.0
316.473358 128.0
316.506348 76.0
316.54306 52.0
316.578491 36.0
316.615601 92.0
316.648163 184.0
316.654785 124.0
316.725006 72.0
316.774994 84.0
316.834473 160.0
316.92688 144.0
316.97522 56.0
317.017731 52.0
317.04425 92.0
317.085083 112.0
317.14917 8612.0
317.236053 188.0
317.250793 164.0
317.322571 52.0
317.375153 48.0
317.457306 40.0
317.485687 40.0
317.538879 72.0
317.562256 64.0
317.599182 28.0
317.655029 88.0
317.737518 72.0
317.833313 44.0
317.886536 72.0
318.074646 120.0
318.153015 1088.0
318.291199 72.0
318.323151 44.0
318.546906 48.0
318.578888 48.0
318.637085 104.0
318.6922 80.0
318.797058 88.0
318.859558 32.0
318.888 64.0
318.916443 96.0
318.967285 112.0
319.058411 68.0
319.068573 120.0
319.108398 32.0
319.154327 172.0
319.211517 116.0
319.236389 44.0
319.268402 184.0
319.296844 136.0
319.355713 68.0
319.424896 68.0
319.584991 100.0
319.638367 48.0
319.67395 144.0
319.759338 56.0
319.829437 52.0
319.997833 52.0
320.165192 100.0
321.106049 140.0
321.359314 36.0
321.701935 60.0
321.787598 32.0
322.544922 72.0
322.58783 80.0
322.730835 88.0
323.721985 64.0
323.775696 76.0
323.875977 64.0
323.93689 128.0
323.961945 76.0
324.524628 120.0
325.267212 48.0
325.450287 60.0
327.118408 184.0
327.298431 28.0
327.944702 100.0
328.624817 120.0
328.985687 84.0
329.162598 96.0
329.335968 40.0
329.697235 64.0
331.12262 160.0
331.42691 156.0
331.847351 128.0
331.927124 36.0
332.057678 68.0
332.148346 100.0
332.242645 208.0
332.275299 80.0
332.304321 52.0
332.366028 84.0
332.405914 100.0
332.576508 152.0
332.718079 120.0
332.747101 108.0
332.961334 104.0
333.063049 84.0
333.179291 116.0
333.219238 96.0
333.288269 116.0
333.317352 160.0
333.647766 140.0
333.764435 104.0
333.84079 56.0
333.869873 64.0
333.957153 80.0
333.99353 88.0
334.050659 164.0
334.096313 164.0
334.156372 29088.0
334.293182 100.0
334.351288 72.0
334.517517 56.0
334.553925 96.0
334.623077 48.0
334.663147 88.0
334.688629 28.0
334.828491 92.0
334.85614 52.0
334.910767 72.0
335.016388 112.0
335.15741 3420.0
335.216797 104.0
335.278748 112.0
335.343567 56.0
335.433838 116.0
335.493774 48.0
335.579651 68.0
335.668793 32.0
335.738068 64.0
335.785492 184.0
335.835022 76.0
335.88031 68.0
335.964203 56.0
336.080963 100.0
336.162537 828.0
336.19278 192.0
336.233795 68.0
336.314514 48.0
336.404266 68.0
336.467834 100.0
336.523499 48.0
336.584656 40.0
336.639435 56.0
336.779816 56.0
336.997406 136.0
337.110657 76.0
337.16217 192.0
337.212982 80.0
337.265747 140.0
337.30072 100.0
337.390472 80.0
337.44693 152.0
337.567596 72.0
339.163818 144.0
340.124817 36.0
340.249634 44.0
341.160706 60.0
343.15976 48.0
347.279205 80.0
347.683594 108.0
348.359344 52.0
349.528168 52.0
350.062775 120.0
351.326263 52.0
351.482971 80.0
352.057831 60.0
352.442566 68.0
353.07431 80.0
354.65799 76.0
356.767578 28.0
358.182465 52.0
361.451843 48.0
361.541901 100.0
363.418335 104.0
366.463806 80.0
368.569946 64.0
369.135651 92.0
370.743439 68.0
372.239502 124.0
372.347015 80.0
372.381592 72.0
373.450043 52.0
374.223541 96.0
380.378052 56.0
381.838959 92.0
384.710602 104.0
385.655884 124.0
386.261932 104.0
386.782349 84.0
387.902618 56.0
388.196655 52.0
388.756989 76.0
390.049744 60.0
390.574432 88.0
390.690704 108.0
391.741791 76.0
392.230408 76.0
392.979675 96.0
393.686218 100.0
396.471222 108.0
397.260223 88.0
398.2883 108.0
403.788544 80.0
404.020538 40.0
406.942139 124.0
408.143494 108.0
409.435181 48.0
410.1604 72.0
410.208771 72.0
411.297882 96.0
415.068359 100.0
415.153503 76.0
415.91217 96.0
418.196411 60.0
418.277832 92.0
418.680908 44.0
420.197205 84.0
420.568542 80.0
424.51239 80.0
426.355591 80.0
426.610413 84.0
427.033936 80.0
428.033936 108.0
428.903198 96.0
428.969177 56.0
430.908752 44.0
431.794525 84.0
432.235962 100.0
432.550507 32.0
435.81012 116.0
436.778748 76.0
437.927521 112.0
439.954041 80.0
444.402832 60.0
446.852234 64.0
447.875183 100.0
449.076416 108.0
450.739685 84.0
450.862244 72.0
452.494965 20.0
454.058533 68.0
455.420898 80.0
455.828735 84.0
456.993774 64.0
457.572601 64.0
459.110809 104.0
459.409363 84.0
461.506287 40.0
464.019501 60.0
470.105774 40.0
471.924255 88.0
472.196686 100.0
475.107452 44.0
482.178772 68.0
482.93512 84.0
484.48468 60.0
487.65274 92.0
497.40979 124.0
497.849335 52.0
498.648987 84.0
498.755646 40.0
501.314697 84.0
501.751495 72.0
503.64801 52.0
504.327148 52.0
506.20163 84.0
507.738708 88.0
508.133453 80.0
511.823456 44.0
512.472046 96.0
513.797546 80.0
520.854797 44.0
521.627258 100.0
522.959961 40.0
526.625671 96.0
527.617249 80.0
529.378784 52.0
529.703979 48.0
534.740845 92.0
537.159851 80.0
541.222107 116.0
543.827393 80.0
551.031189 56.0
551.685486 52.0
552.62085 88.0
556.759827 112.0
564.346313 112.0
565.103088 68.0
565.547913 68.0
566.00708 76.0
570.766296 56.0
577.705566 68.0
579.544006 64.0
580.377991 64.0
583.763184 48.0
586.753235 96.0
587.356018 32.0
594.676575 60.0
595.817688 56.0
597.028015 56.0
597.446289 124.0
597.572754 48.0
601.681213 20.0
604.065979 72.0
607.028992 48.0
608.25061 156.0
611.035645 76.0
612.114868 60.0
614.855713 120.0
616.085144 68.0
617.315857 140.0
618.275574 76.0
619.404419 92.0
622.558716 108.0
622.78717 64.0
624.472046 104.0
632.760437 68.0
634.483826 72.0
635.441772 40.0
637.143677 72.0
644.595459 60.0
645.611511 56.0
650.318054 96.0
660.334656 108.0
673.802246 96.0
675.125488 64.0
685.09613 116.0
685.60675 80.0
703.193054 76.0
704.453552 52.0
704.605957 76.0
706.795654 48.0
709.81488 124.0
711.019043 56.0
713.733521 152.0
724.155701 128.0
724.889587 72.0
726.197693 88.0
734.372864 40.0
752.672241 76.0
754.163635 72.0
755.437683 80.0
759.299133 92.0
761.247314 128.0
772.324768 116.0
776.584045 64.0
788.459351 56.0
793.222412 144.0
800.070129 76.0
800.610657 92.0
800.830322 76.0
803.000183 44.0
804.704285 100.0
808.638611 52.0
809.199036 128.0
819.570068 44.0
826.999573 64.0
843.727295 36.0
848.236816 44.0
848.462891 132.0
851.22467 136.0
852.246948 84.0
856.184998 220.0
863.433228 84.0
868.933472 176.0
874.080383 48.0
882.237122 208.0
883.360718 188.0
886.972717 152.0
895.260742 68.0
896.035095 48.0
902.289551 100.0
907.756042 36.0
908.463745 72.0
928.616272 84.0
929.210754 176.0
933.772583 44.0
946.024719 88.0
957.709839 104.0
962.069397 76.0
964.608276 52.0
966.797729 204.0
977.079102 56.0
983.272766 184.0
992.800598 68.0
996.692444 32.0
998.106689 80.0
1000.37793 132.0
1005.805176 72.0
1006.171326 88.0
1013.178467 40.0
1015.853638 132.0
1018.125854 148.0
1020.165405 120.0
1022.563354 104.0
1033.987305 192.0
1034.588989 72.0
1044.059448 116.0
1044.32312 92.0
1048.488525 128.0
1052.416992 88.0
1052.630005 108.0
1053.146729 48.0
1056.656738 152.0
1058.721558 112.0
1060.386475 192.0
1075.142944 164.0
1081.875122 148.0
1082.73291 76.0
1093.045654 48.0
1093.605103 152.0
1094.869141 92.0
1096.292114 72.0
1098.823975 168.0
1100.256104 92.0
1100.837158 68.0
1102.349854 156.0
1104.353027 168.0
1104.736572 136.0
1106.404297 168.0
1107.42395 32.0
1112.250977 152.0
1117.401001 116.0
1120.99646 160.0
1124.87146 120.0
1127.188843 48.0
1145.066895 180.0
1155.692017 44.0
1156.799927 72.0
1156.937256 84.0
1158.250977 64.0
1160.243164 132.0
1162.386475 172.0
1163.207642 120.0
1163.404419 132.0
1165.285645 124.0
1166.386597 228.0
1166.529297 228.0
1168.072876 204.0
1177.642578 112.0
1180.581299 124.0
1182.852783 192.0
1190.126465 168.0
1190.236328 208.0
1194.538574 52.0
1203.546021 196.0
1206.164307 204.0
1207.422607 136.0
1208.562744 108.0
1209.166016 124.0
1212.171509 148.0
1212.989258 72.0
1213.0448 244.0
1214.174927 156.0
1219.666748 160.0
1225.470581 60.0
1226.034912 208.0
1227.952148 52.0
1228.349731 148.0
1229.961548 124.0
1230.987793 164.0
1232.531494 192.0
1237.063477 128.0
1237.924561 168.0
1238.97522 56.0
1239.781006 140.0
1242.999634 200.0
1246.053833 48.0
1251.244141 96.0
1252.920166 100.0
1254.026489 220.0
1257.249512 188.0
1260.22937 80.0
1260.342407 156.0
1260.504883 120.0
1261.685181 220.0
1264.825928 48.0
1265.02417 80.0
1265.378174 64.0
1265.873779 148.0
1268.048584 232.0
1269.863647 204.0
1271.921265 72.0
1274.97522 88.0
1277.691406 220.0
1279.399292 140.0
1280.360596 108.0
1280.68103 44.0
1280.759399 88.0
1281.044312 236.0
1281.671265 140.0
1283.310669 196.0
1285.72876 132.0
1289.692505 156.0
1290.264404 80.0
1291.544434 76.0
1291.995117 144.0
1293.111328 120.0
1295.646118 100.0
1296.577637 120.0
1301.914917 112.0
1303.33728 172.0
1305.522461 224.0
1308.350098 112.0
1308.645264 128.0
1311.887207 232.0
1317.65332 192.0
1318.426514 244.0
1319.315552 128.0
1321.499634 160.0
1321.904785 152.0
1323.562378 164.0
1326.873413 76.0
1327.446289 80.0
1328.062744 148.0
1330.457275 184.0
1335.463867 148.0
1336.416748 120.0
1337.246338 124.0
1338.796997 152.0
1338.898926 196.0
1340.217407 88.0
1341.121094 152.0
1345.132812 60.0
1346.549316 56.0
1347.177368 148.0
1348.339233 56.0
1349.581909 140.0
1352.778931 88.0
1354.294556 136.0
1354.529297 160.0
1356.324219 240.0
1357.599854 224.0
1358.362671 148.0
1359.404419 164.0
1359.602539 136.0
1359.888794 200.0
1360.137451 164.0
1360.564087 56.0
1362.282471 152.0
1363.722656 192.0
1364.678345 192.0
1367.996216 156.0
1369.891602 136.0
1370.058228 176.0
1370.419189 176.0
1373.721924 168.0
1373.987549 100.0
1376.72583 144.0
1379.977051 168.0
1382.787964 168.0
1383.298706 192.0
1384.305542 68.0
1384.549927 160.0
1385.194336 172.0
1385.46106 344.0
1386.7948 128.0
1387.017212 48.0
1387.306274 160.0
1388.759521 92.0
1390.028198 204.0
1390.258179 168.0
1391.052368 128.0
1391.802124 180.0
1396.067383 132.0
1396.714478 156.0
1397.220337 156.0
1400.227417 176.0
1405.982788 160.0
1406.17688 144.0
1406.639648 112.0
1407.333862 104.0
1408.663208 212.0
1410.755615 164.0
1411.024658 104.0
1411.690186 144.0
1413.867065 140.0
1423.131958 220.0
1424.033081 128.0
1426.369873 144.0
1427.956299 128.0
1428.904053 176.0
1429.51355 168.0
1437.584106 160.0
1437.742554 112.0
1438.52002 60.0
1439.350464 164.0
1439.56189 192.0
1440.112183 124.0
1441.435303 76.0
1441.745117 120.0
1441.81311 196.0
1442.52356 148.0
1442.644531 60.0
1443.340088 156.0
1444.209717 176.0
1445.072144 240.0
1446.290405 196.0
1447.039917 92.0
1448.092407 112.0
1448.221191 188.0
1448.493896 120.0
1449.160522 40.0
1450.031982 156.0
1451.957642 208.0
1452.276123 140.0
1452.716064 176.0
1453.254761 112.0
1457.164795 184.0
1459.04187 76.0
1460.311768 160.0
1462.046387 92.0
1462.472534 112.0
1463.484985 176.0
1463.713379 184.0
1464.276978 124.0
1464.749146 192.0
1464.893921 156.0
1466.356812 164.0
1469.117065 116.0
1470.421753 232.0
1470.818726 40.0
1471.200317 156.0
1471.520996 80.0
1473.185791 160.0
1475.134399 184.0
1476.740112 212.0
1480.237427 176.0
1480.71228 188.0
1483.018311 212.0
1485.180542 180.0
1486.323608 184.0
1488.564941 116.0
1488.83374 124.0
1489.018066 152.0
1489.707886 176.0
1493.060425 168.0
1493.583496 160.0
1495.768677 96.0
1495.868774 160.0
1496.089966 156.0
1497.188232 236.0
1497.246948 136.0
1498.101929 160.0
1498.548706 120.0
1499.319336 184.0
1500.259644 156.0
1501.500977 76.0
1502.056396 80.0
1502.411133 240.0
1502.4729 120.0
1503.445068 116.0
