>compound Linagliptin (BI-1356)
>formula C25H28N8O2
>ionization [M+H]+
>parentmass 473.242706
#inchi InChI=1S/C25H28N8O2/c1-4-5-13-32-21-22(29-24(32)31-12-8-9-17(26)14-31)30(3)25(35)33(23(21)34)15-20-27-16(2)18-10-6-7-11-19(18)28-20/h6-7,10-11,17H,8-9,12-15,26H2,1-3H3/t17-/m1/s1
#inchikey LTXREWYXXSTFRX
#Ion_Source LC-ESI
#Instrument qTof
#Compound_Source Commercial
#PI Dorrestein
#Data_Collector Garg_Neha
#Scan -1
#Precursor_MZ 473.241
#ExactMass 472.234
#Charge 1
#CAS_Number 668270-12-0
#Pubmed_ID N/A
#Smiles C1=CC=C2C(=C1)N=C(N=C2C)CN3C(N(C4=C(C3=O)N(C(=N4)N5C[C@@H](CCC5)N)CC#CC)C)=O
#INCHI_AUX N/A
#Library_Class 1
#SpectrumID CCMSLIB00000078544
#IonMode Positive
#UpdateWorkflowName UPDATE-SINGLE-ANNOTATED-GOLD
#LibraryQualityString Gold
#TaskID 77f51c88eb8b467eb4a01dd2d0cb90d2
##Scan# 1073
#SpectrumFile Plate9_1_20_GC4_01_15750.mzXML
#LibraryName FDALibrary_2_04302014.mgf
#MQScore -1
#Organism FDALibrary_2_04302014
#TIC_Query 0
#RT_Query -1
#MZErrorPPM -1
#SharedPeaks 0
#MassDiff 0
#LibMZ -1
#SpecMZ 473.241
#SpecCharge 0
#internalFilename spec-00000.mgf

>collision 10
44.940281 140.0
48.06287 284.0
48.802528 180.0
49.82703 220.0
50.052074 148.0
54.406624 192.0
58.497429 164.0
60.13451 212.0
61.797314 144.0
64.548134 228.0
65.956512 148.0
66.375824 140.0
66.978783 148.0
68.589546 172.0
73.366104 260.0
73.5896 140.0
73.608383 152.0
73.758728 188.0
74.743156 160.0
75.33625 156.0
76.060089 160.0
77.320251 168.0
77.586502 208.0
78.744347 148.0
80.094139 144.0
82.466248 172.0
85.460739 180.0
85.54171 140.0
87.191605 164.0
88.205551 172.0
88.345795 168.0
88.966103 168.0
92.319946 148.0
94.066467 164.0
94.689064 212.0
94.780113 152.0
96.563332 164.0
97.076431 208.0
99.083 144.0
102.052902 144.0
106.50164 144.0
109.072128 148.0
111.069778 212.0
111.088348 308.0
111.753212 148.0
112.769653 172.0
115.347984 192.0
116.047859 144.0
116.153122 144.0
117.053635 300.0
120.504669 172.0
121.074486 308.0
121.836723 152.0
122.17968 164.0
122.366745 180.0
122.452629 208.0
123.071373 220.0
123.092171 140.0
124.076332 140.0
125.08094 172.0
126.103027 316.0
127.426804 192.0
128.045395 140.0
128.097214 180.0
131.181381 180.0
132.940247 144.0
133.839035 208.0
134.115479 220.0
135.483475 192.0
136.086288 152.0
137.08429 728.0
138.055481 140.0
138.28241 148.0
138.383072 288.0
139.063873 792.0
139.096848 184.0
140.063065 192.0
140.107162 128.0
143.060898 340.0
143.417404 160.0
144.066696 200.0
145.575409 176.0
147.077744 168.0
148.072205 172.0
148.439819 160.0
149.070221 960.0
149.187637 228.0
149.311646 164.0
150.084442 408.0
150.666901 164.0
151.062729 580.0
151.092285 148.0
153.077621 1132.0
154.084381 172.0
154.319122 184.0
155.024567 192.0
155.282394 144.0
157.078476 480.0
158.083786 6480.0
158.480759 144.0
158.779068 144.0
159.085724 1236.0
159.705841 156.0
160.058167 148.0
160.085861 180.0
160.350388 152.0
161.08812 220.0
161.324707 160.0
162.05426 144.0
162.075378 160.0
162.884903 216.0
163.063553 188.0
163.096542 344.0
163.139801 152.0
163.238968 180.0
163.551895 228.0
164.074097 180.0
164.104691 132.0
164.965057 144.0
165.077133 1080.0
165.111481 388.0
166.077652 184.0
166.119965 440.0
167.02417 164.0
167.095001 504.0
170.797195 156.0
171.090012 244.0
172.086151 180.0
172.466904 140.0
172.775467 176.0
173.093109 168.0
174.064072 124.0
174.101776 348.0
175.065399 288.0
175.095673 356.0
176.061691 276.0
176.080673 208.0
176.106644 188.0
176.536804 144.0
177.072388 316.0
177.112549 1652.0
177.574951 148.0
178.021759 128.0
178.068604 244.0
178.121048 1752.0
179.09021 148.0
179.125824 308.0
180.088684 168.0
181.090469 148.0
181.12796 148.0
181.48439 168.0
182.071381 316.0
183.074829 212.0
183.690887 156.0
184.681 172.0
186.02594 184.0
186.073868 184.0
186.100555 184.0
186.225937 172.0
187.044373 160.0
188.084061 176.0
189.077393 280.0
190.08493 152.0
190.814133 144.0
191.094788 316.0
192.125595 224.0
192.257492 260.0
192.279572 172.0
192.6026 188.0
193.105911 188.0
193.797714 140.0
194.067444 1000.0
194.139511 1048.0
194.568741 140.0
195.121597 200.0
195.143326 408.0
196.146042 140.0
196.207382 140.0
197.148026 164.0
197.542252 140.0
197.850082 256.0
198.061661 296.0
199.073837 740.0
200.081573 1160.0
200.11911 172.0
200.200241 168.0
201.083069 156.0
201.11557 124.0
202.1064 340.0
203.063141 168.0
203.093491 504.0
203.128891 200.0
204.099731 736.0
204.842468 192.0
205.067566 308.0
205.109009 8180.0
205.150238 168.0
206.068527 444.0
206.109741 1216.0
207.073044 108.0
207.116226 144.0
207.408493 144.0
208.082306 1116.0
209.101471 248.0
209.131424 128.0
211.333755 140.0
212.025833 160.0
212.087616 152.0
213.090775 196.0
214.085571 148.0
214.113144 132.0
215.088516 156.0
215.129379 148.0
216.127167 160.0
217.069977 184.0
217.10817 136.0
217.1427 316.0
218.071609 188.0
218.098999 296.0
219.084167 600.0
219.132584 152.0
219.262238 212.0
220.084595 620.0
220.119934 696.0
220.155014 136.0
220.960129 140.0
221.088379 260.0
221.125763 324.0
222.0858 164.0
222.134491 1512.0
222.721954 148.0
222.762573 160.0
223.047836 172.0
223.142548 336.0
223.803482 192.0
224.02388 164.0
224.092392 144.0
224.473923 144.0
224.891602 160.0
226.06456 280.0
227.096832 112.0
227.240723 172.0
228.087585 204.0
228.112823 296.0
228.568771 144.0
229.067673 124.0
229.111511 344.0
229.1436 688.0
229.297546 236.0
230.070496 160.0
230.111206 168.0
230.148926 200.0
230.175415 160.0
231.136871 156.0
231.366669 180.0
231.387863 172.0
232.081421 412.0
232.117615 280.0
232.149673 160.0
232.794769 152.0
234.099625 420.0
234.388733 188.0
234.425293 180.0
235.05957 160.0
235.099228 512.0
236.115112 792.0
236.156326 144.0
236.906265 212.0
237.116272 172.0
238.130157 204.0
239.843964 140.0
240.757202 172.0
242.118576 176.0
242.613708 212.0
243.11618 312.0
244.517792 164.0
244.704559 212.0
245.141739 204.0
245.361938 148.0
246.098999 4396.0
246.168167 244.0
246.639465 164.0
246.696289 104.0
247.102448 1872.0
247.152695 112.0
248.116745 200.0
249.121674 180.0
249.14473 556.0
249.676819 140.0
250.114151 168.0
252.113007 168.0
253.108398 164.0
255.121719 264.0
256.14743 184.0
256.321625 144.0
257.13974 992.0
258.097198 140.0
258.140198 256.0
258.832306 152.0
259.101898 164.0
259.151276 132.0
259.838745 148.0
260.118866 124.0
260.265594 140.0
262.115631 188.0
262.682587 152.0
263.012756 204.0
263.066589 164.0
263.125732 6568.0
263.425049 164.0
264.127045 1448.0
265.128479 264.0
265.661926 152.0
266.096802 160.0
266.142487 108.0
267.106384 180.0
268.152649 180.0
269.516724 160.0
270.095184 140.0
271.835052 176.0
273.104797 116.0
273.504822 124.0
274.16861 732.0
275.167114 328.0
275.46991 144.0
275.539276 180.0
276.130981 144.0
276.187195 176.0
277.13443 220.0
278.122253 296.0
279.124359 340.0
280.137482 188.0
280.620575 140.0
281.153259 184.0
281.204346 192.0
281.768677 172.0
284.117554 152.0
285.109406 156.0
285.18335 180.0
287.807648 152.0
289.108063 120.0
289.66098 224.0
290.139435 128.0
290.386322 148.0
291.585754 120.0
293.14209 144.0
294.123688 144.0
295.006989 168.0
295.109772 320.0
295.156006 184.0
295.183441 228.0
296.365692 152.0
296.406799 180.0
298.098511 172.0
298.215363 152.0
299.135223 292.0
301.019684 144.0
301.150909 164.0
302.986328 228.0
304.159546 380.0
304.298706 200.0
305.140472 380.0
306.124146 152.0
306.535248 148.0
306.991913 156.0
307.141113 132.0
308.098358 172.0
308.122314 152.0
308.828918 196.0
309.133301 180.0
310.120911 296.0
310.559204 160.0
311.809082 196.0
314.224701 172.0
314.295258 144.0
314.581146 144.0
315.11441 140.0
315.14621 212.0
315.885101 184.0
316.702759 156.0
316.757782 208.0
317.138062 172.0
318.153076 216.0
318.192139 236.0
319.183441 144.0
319.556915 180.0
320.102692 176.0
320.165527 372.0
321.136841 260.0
321.970123 152.0
322.118896 508.0
322.638306 172.0
323.125946 1096.0
323.532684 172.0
324.129822 236.0
324.198914 164.0
330.132568 156.0
330.243744 140.0
330.81546 292.0
330.905975 184.0
331.144104 116.0
331.17395 248.0
331.576111 204.0
332.159851 140.0
333.182831 200.0
334.133331 440.0
334.18515 276.0
334.820404 172.0
335.122925 648.0
336.132599 7144.0
336.778595 164.0
337.12851 8060.0
337.472321 168.0
337.528809 192.0
338.132477 2956.0
338.46048 180.0
339.143524 568.0
340.132111 200.0
340.584595 144.0
340.72052 168.0
341.944214 188.0
342.611481 152.0
342.75885 148.0
344.164978 220.0
344.352539 176.0
345.66861 188.0
346.512817 152.0
347.12442 144.0
347.161987 276.0
348.142639 1152.0
349.139587 3152.0
349.195343 272.0
349.653595 196.0
350.093292 156.0
350.137299 16640.0
350.246185 180.0
350.365814 124.0
350.466064 148.0
350.496979 108.0
350.553253 112.0
350.586517 188.0
350.689667 144.0
351.143463 15000.0
351.38327 140.0
351.440613 176.0
352.145844 4228.0
352.208282 160.0
352.269958 108.0
352.404999 152.0
352.68396 104.0
353.147736 548.0
353.282623 148.0
353.311035 160.0
353.761902 116.0
354.10083 192.0
355.176849 152.0
356.177948 168.0
357.092102 192.0
357.182556 140.0
357.276428 180.0
358.172333 432.0
359.191162 244.0
360.131195 132.0
360.159485 280.0
360.390594 176.0
361.147705 312.0
361.411499 160.0
362.142212 1192.0
362.193237 96.0
362.428284 116.0
362.571869 168.0
363.082031 144.0
363.141602 4480.0
363.207214 184.0
363.692444 140.0
363.877106 140.0
364.015747 148.0
364.152191 32992.0
364.37442 144.0
364.421692 104.0
364.708588 160.0
364.790955 96.0
365.157471 10844.0
365.433105 112.0
365.616028 232.0
365.64267 152.0
365.720093 116.0
365.83078 132.0
365.959686 140.0
366.161316 892.0
366.630463 200.0
367.167847 164.0
367.592743 264.0
367.717896 180.0
368.477753 112.0
368.980316 144.0
370.190216 152.0
372.056702 160.0
372.142914 132.0
372.179565 200.0
373.13559 236.0
373.862823 116.0
374.015503 156.0
374.135315 1720.0
374.84906 208.0
375.143799 8080.0
375.342224 132.0
376.14975 4448.0
376.221436 180.0
376.276184 196.0
377.155334 1684.0
378.161224 748.0
378.325165 176.0
378.391602 124.0
378.454742 128.0
379.172668 628.0
380.186523 232.0
382.138641 256.0
382.534149 152.0
382.864197 140.0
383.13208 344.0
384.128876 144.0
384.985687 168.0
385.145813 180.0
385.210052 120.0
386.052521 164.0
386.149872 732.0
386.38501 168.0
386.431946 168.0
387.155487 536.0
387.162506 404.0
388.153809 992.0
388.504456 152.0
389.15509 296.0
390.168579 2140.0
391.171387 676.0
391.850067 148.0
392.178345 296.0
393.188202 1228.0
393.348633 192.0
394.194305 528.0
394.676086 144.0
395.130005 136.0
395.184937 228.0
396.290955 176.0
397.15213 316.0
398.155029 104.0
399.148804 140.0
399.190002 136.0
399.228363 152.0
400.147522 168.0
400.191315 180.0
402.168121 4256.0
402.789856 128.0
403.10968 124.0
403.17569 18508.0
403.266205 100.0
403.416412 176.0
403.593231 188.0
403.640533 144.0
403.842712 136.0
403.969635 164.0
404.06897 208.0
404.182098 16736.0
404.69809 112.0
405.120575 116.0
405.183899 3728.0
405.314514 124.0
406.187286 876.0
406.692322 136.0
406.825195 104.0
407.145172 116.0
407.187378 140.0
407.382141 152.0
407.774048 144.0
409.171753 156.0
411.211426 156.0
412.161957 160.0
414.515472 164.0
416.211853 216.0
417.222687 288.0
418.292297 124.0
418.722351 156.0
418.76532 152.0
419.195709 2332.0
419.635193 124.0
419.692261 168.0
420.144836 284.0
420.202209 26244.0
420.285065 204.0
420.442474 116.0
420.680664 152.0
420.887512 104.0
421.038269 136.0
421.203583 7620.0
421.43689 200.0
421.482513 120.0
422.205505 1144.0
423.104279 128.0
423.1633 364.0
423.21463 208.0
423.547821 172.0
423.862946 96.0
424.154877 108.0
424.463013 116.0
424.535553 188.0
424.994995 148.0
425.46759 132.0
425.553192 248.0
425.779053 140.0
426.05014 172.0
427.719696 148.0
427.774567 156.0
429.809143 168.0
430.267303 160.0
431.122314 144.0
431.34137 148.0
432.897003 160.0
432.992249 140.0
433.209045 120.0
435.170135 176.0
436.1745 168.0
437.102051 140.0
437.843048 140.0
438.022156 156.0
440.032227 172.0
440.20105 164.0
441.196136 144.0
441.285614 172.0
441.569977 144.0
442.19754 248.0
448.139587 148.0
448.902008 164.0
451.499664 196.0
452.104614 184.0
452.18927 200.0
452.252747 144.0
453.264923 216.0
456.214905 524.0
457.21344 284.0
458.212952 128.0
459.754181 148.0
460.070038 180.0
462.059479 124.0
462.759186 196.0
464.297516 204.0
465.241486 156.0
466.431396 176.0
466.674896 132.0
467.820831 204.0
468.166718 144.0
469.074402 184.0
469.445953 112.0
469.863556 128.0
470.341766 108.0
470.489349 256.0
470.970947 160.0
471.223541 156.0
471.285919 192.0
471.465515 236.0
471.615723 164.0
471.668671 200.0
471.728729 180.0
471.866211 132.0
472.07193 172.0
472.125122 132.0
472.212097 372.0
472.258362 136.0
472.274323 224.0
472.345642 236.0
472.395111 176.0
472.443695 104.0
472.556305 308.0
472.617249 136.0
472.672272 132.0
472.708801 248.0
472.736755 176.0
472.843018 288.0
472.942078 148.0
472.971863 128.0
473.051544 128.0
473.069305 100.0
473.122986 160.0
473.169586 300.0
473.181122 500.0
473.242706 199328.0
473.34729 128.0
473.399261 216.0
473.475586 180.0
473.522766 148.0
473.556335 164.0
473.593628 176.0
473.811707 220.0
473.88028 344.0
473.954285 1028.0
474.014374 244.0
474.077545 224.0
474.109406 312.0
474.142853 188.0
474.244263 64832.0
474.381622 368.0
474.457733 192.0
474.641479 232.0
474.684753 244.0
474.80899 120.0
474.843109 124.0
474.901276 108.0
474.965485 148.0
475.007599 260.0
475.110291 164.0
475.144043 96.0
475.247101 6436.0
475.432404 240.0
475.526703 96.0
475.625488 128.0
475.717346 148.0
475.829956 116.0
475.870178 100.0
475.945557 148.0
476.047974 120.0
476.15152 120.0
476.24762 860.0
476.496246 156.0
476.626801 140.0
476.835907 192.0
476.904724 300.0
476.956299 176.0
477.028931 296.0
477.103027 308.0
477.173859 228.0
477.245056 108.0
477.299133 136.0
477.333649 168.0
477.394409 104.0
477.448547 144.0
477.600403 148.0
477.649597 108.0
477.720581 116.0
477.754211 112.0
477.799347 100.0
477.864349 232.0
477.951935 124.0
478.227661 124.0
478.450226 204.0
479.078552 112.0
676.717834 140.0
710.593872 144.0
855.872009 124.0
1187.39209 144.0
1580.314087 172.0
1602.434082 144.0
1740.689941 176.0
1761.344482 140.0
1797.386353 176.0
1810.912598 144.0
1855.428589 152.0
1870.083374 172.0
1897.771362 104.0
1942.282349 144.0
1942.984131 172.0
