>compound MLS002707301-01!7-hydroxy-2-(4-methoxyphenyl)chromen-4-one
>formula C16H12O4
>ionization [M+H]+
>parentmass 269.08083531609054
#inchi InChI=1S/C16H12O4/c1-19-12-5-2-10(3-6-12)15-9-14(18)13-7-4-11(17)8-16(13)20-15/h2-9,17H,1H3
#inchikey SQVXWIUVAILQRH
#Ion_Source LC-ESI
#Instrument qTof
#Compound_Source NIH Natural Product Library
#PI Dorrestein
#Data_Collector VVP/LMS
#Scan -1
#Precursor_MZ 269.081
#ExactMass 268.074
#Charge 1
#CAS_Number N/A
#Pubmed_ID N/A
#Smiles COc1ccc(cc1)c2cc(=O)c3ccc(O)cc3o2
#INCHI_AUX N/A
#Library_Class 1
#SpectrumID CCMSLIB00000080254
#IonMode Positive
#UpdateWorkflowName UPDATE-SINGLE-ANNOTATED-GOLD
#LibraryQualityString Gold
#TaskID b1d8e8f6646f4e71acdff9ca3d919d08
##Scan# 1968
#SpectrumFile p2-B06_GB6_01_17994.mzXML
#LibraryName NIH_Natural_Products_Library.mgf
#MQScore -1
#Organism NIH_Natural_Products_Library
#TIC_Query 0
#RT_Query -1
#MZErrorPPM -1
#SharedPeaks 0
#MassDiff 0
#LibMZ -1
#SpecMZ 269.081
#SpecCharge 0
#internalFilename spec-00000.mgf

>collision 10
95.014915 140.0
95.084778 116.0
95.249046 192.0
95.311981 168.0
95.462265 116.0
95.562805 188.0
95.586151 36.0
95.608536 120.0
95.644539 132.0
95.665955 160.0
95.790581 208.0
95.819801 124.0
95.850975 136.0
95.917244 160.0
95.973778 124.0
96.02005 148.0
96.040085 80.0
96.176666 188.0
96.268433 68.0
96.360237 200.0
96.426674 156.0
96.44622 148.0
96.474648 208.0
96.512688 144.0
96.543976 152.0
96.683083 224.0
96.700485 116.0
96.735718 216.0
96.768997 72.0
96.847336 100.0
96.892387 100.0
96.959007 184.0
97.033501 228.0
97.047218 128.0
97.070755 136.0
97.171577 208.0
97.351372 112.0
97.388687 180.0
97.406364 164.0
97.501472 204.0
97.600929 212.0
97.636322 36.0
97.760056 168.0
97.996552 64.0
98.02253 176.0
98.130577 144.0
98.335159 124.0
98.422592 100.0
98.473938 208.0
98.501595 32.0
98.523323 148.0
98.592476 248.0
98.628052 180.0
98.71109 384.0
98.746689 112.0
98.821854 200.0
98.855835 116.0
99.02179 36.0
99.099045 136.0
99.166428 60.0
99.305214 144.0
99.352249 264.0
99.366707 136.0
99.40242 160.0
99.439522 144.0
99.503647 156.0
99.678436 176.0
99.905098 164.0
100.010559 152.0
100.094177 104.0
100.11409 156.0
100.175835 120.0
100.367538 148.0
100.572647 132.0
100.586617 196.0
100.619247 220.0
100.644516 48.0
100.698433 120.0
100.770348 148.0
100.822304 136.0
101.084274 280.0
101.20237 140.0
101.22039 156.0
101.258438 160.0
101.286484 164.0
101.667419 272.0
101.739685 56.0
101.771805 204.0
101.834061 160.0
101.924461 164.0
102.045059 212.0
102.09935 100.0
102.117447 120.0
102.145607 112.0
102.169754 128.0
102.274391 204.0
102.334785 212.0
102.352905 108.0
102.375053 112.0
102.397209 44.0
102.550331 100.0
102.671303 148.0
102.810501 180.0
102.826645 152.0
102.969994 192.0
103.006348 88.0
103.024529 184.0
103.054527 452.0
103.079781 184.0
103.153862 196.0
103.321709 160.0
103.339996 204.0
103.394554 96.0
103.499817 108.0
103.570839 236.0
103.595886 148.0
103.633499 60.0
103.659843 124.0
103.858528 152.0
103.944214 152.0
103.973656 220.0
104.024132 384.0
104.055367 96.0
104.091919 44.0
104.128815 188.0
104.203629 72.0
104.238174 116.0
104.303207 180.0
104.380463 220.0
104.51268 132.0
104.526924 140.0
104.578049 292.0
104.602226 192.0
104.674866 180.0
104.754951 108.0
104.787544 128.0
104.842567 120.0
104.964874 144.0
105.032181 288.0
105.067688 400.0
105.115822 108.0
105.207672 168.0
105.303642 148.0
105.444618 144.0
105.487541 136.0
105.51207 148.0
105.563187 140.0
105.593864 164.0
105.665459 56.0
105.788246 224.0
105.931595 156.0
105.976669 308.0
106.001251 180.0
106.031464 200.0
106.390953 208.0
106.534706 188.0
106.581963 168.0
106.606621 172.0
106.674446 160.0
106.725845 192.0
106.747803 212.0
106.845131 116.0
106.880112 260.0
106.993309 220.0
107.053024 176.0
107.090096 148.0
107.125107 92.0
107.178673 164.0
107.493362 72.0
107.584984 116.0
107.609375 212.0
107.69735 144.0
107.737801 180.0
107.781044 168.0
107.855591 96.0
107.944489 224.0
107.971375 156.0
108.0214 356.0
108.05204 220.0
108.399895 224.0
108.584404 156.0
108.679108 332.0
108.796051 176.0
108.814735 180.0
108.856262 28.0
108.93103 204.0
108.987129 112.0
109.028915 328.0
109.103516 164.0
109.128464 172.0
109.384354 196.0
109.432236 208.0
109.460724 188.0
109.513451 132.0
109.592613 64.0
109.638458 132.0
109.74128 248.0
109.82975 144.0
109.99511 252.0
110.030602 112.0
110.122482 156.0
110.39402 324.0
110.488289 164.0
110.856804 144.0
110.89872 188.0
110.938545 116.0
110.953224 180.0
110.984673 204.0
111.011421 132.0
111.033394 172.0
111.055977 176.0
111.104218 48.0
111.219635 172.0
111.25322 260.0
111.383415 128.0
111.435936 172.0
111.66507 184.0
111.753418 224.0
111.867065 128.0
112.010254 56.0
112.027107 116.0
112.094528 216.0
112.237869 256.0
112.296913 148.0
112.434052 104.0
112.4636 224.0
112.501595 156.0
112.562828 104.0
112.67688 264.0
112.712799 128.0
112.738159 84.0
112.812134 208.0
112.945358 160.0
112.979202 144.0
113.082886 136.0
113.099815 104.0
113.142159 136.0
113.180267 124.0
113.387871 180.0
113.572327 156.0
113.835495 204.0
113.852478 80.0
113.867348 72.0
114.073654 168.0
114.217613 176.0
114.258469 284.0
114.307404 184.0
114.330811 220.0
114.615501 116.0
114.637474 240.0
114.673698 112.0
114.750443 128.0
114.767502 176.0
114.788826 132.0
114.84214 228.0
114.933876 180.0
115.027779 160.0
115.053871 1224.0
115.085419 160.0
115.10891 84.0
115.123856 208.0
115.215698 204.0
115.318268 216.0
115.401642 112.0
115.429436 132.0
115.489136 184.0
115.57489 112.0
115.611267 152.0
115.729004 172.0
116.024796 860.0
116.069687 212.0
116.106865 220.0
116.134026 196.0
116.161911 144.0
116.237 132.0
116.260605 104.0
116.282066 44.0
116.344315 208.0
116.367935 40.0
116.460274 152.0
116.541908 200.0
116.711708 144.0
116.81279 120.0
116.896698 232.0
117.029678 556.0
117.075378 160.0
117.226173 160.0
117.256348 64.0
117.277901 56.0
117.295143 128.0
117.385696 100.0
117.465492 148.0
117.575531 156.0
117.681305 64.0
117.71801 160.0
117.802246 192.0
117.927574 120.0
118.011879 52.0
118.040771 1188.0
118.226028 200.0
118.301781 124.0
118.327766 104.0
118.410049 116.0
118.455536 164.0
118.680923 32.0
118.76767 44.0
118.800209 156.0
118.850113 184.0
119.014999 340.0
119.038956 84.0
119.065018 200.0
119.136696 112.0
119.16494 176.0
119.31369 172.0
119.44973 208.0
119.543282 168.0
119.569397 136.0
119.634697 72.0
119.785934 176.0
119.824173 144.0
119.86557 116.0
119.905632 236.0
119.942177 212.0
120.015968 156.0
120.055222 120.0
120.212288 220.0
120.263023 196.0
120.332336 200.0
120.362907 72.0
120.536041 168.0
120.585732 168.0
120.725105 160.0
120.765015 168.0
120.78421 192.0
120.80658 164.0
120.883156 148.0
121.028679 152.0
121.069229 172.0
121.178757 144.0
121.343132 60.0
121.625465 160.0
121.714569 180.0
121.90065 132.0
121.920433 108.0
122.056725 180.0
122.417603 164.0
122.521126 188.0
122.604858 256.0
122.743736 104.0
122.779022 80.0
122.807693 148.0
122.823128 184.0
122.951096 224.0
123.023941 100.0
123.05043 64.0
123.083549 48.0
123.125511 220.0
123.149803 204.0
123.185143 164.0
123.277939 216.0
123.390671 188.0
123.450371 176.0
123.549904 164.0
123.594154 228.0
123.660538 76.0
123.719734 200.0
123.769012 224.0
123.819946 120.0
123.881691 128.0
123.915199 168.0
123.948433 108.0
123.968063 196.0
124.05925 100.0
124.12133 124.0
124.187859 172.0
124.216698 192.0
124.25885 188.0
124.403099 148.0
124.42086 220.0
124.436401 172.0
124.55632 172.0
124.605194 136.0
124.638519 168.0
124.799828 168.0
125.003197 172.0
125.049934 124.0
125.065514 116.0
125.127121 124.0
125.167213 188.0
125.219917 172.0
125.308243 32.0
125.336159 136.0
125.454468 196.0
125.461426 120.0
125.469307 164.0
125.535599 96.0
125.575745 128.0
125.631508 152.0
125.714066 52.0
125.91275 64.0
125.955193 216.0
126.022209 52.0
126.040085 124.0
126.178711 172.0
126.236794 124.0
126.357582 188.0
126.426949 96.0
126.460518 32.0
126.482903 196.0
126.555435 80.0
126.693398 176.0
126.818878 168.0
126.854744 108.0
126.922005 160.0
127.020889 216.0
127.043114 172.0
127.062775 152.0
127.094719 132.0
127.188972 188.0
127.276535 148.0
127.319199 156.0
127.339409 176.0
127.393318 80.0
127.468849 52.0
127.539383 196.0
127.645042 184.0
127.681023 140.0
127.741753 148.0
127.7575 56.0
127.883514 144.0
127.94429 116.0
128.06189 316.0
128.13797 196.0
128.205566 196.0
128.221344 148.0
128.336319 208.0
128.372391 40.0
128.557373 156.0
128.600357 168.0
128.656693 84.0
128.768265 212.0
128.835098 112.0
128.87941 124.0
128.916428 200.0
129.069824 504.0
129.203598 148.0
129.249191 128.0
129.280518 116.0
129.309937 164.0
129.334839 144.0
129.4254 168.0
129.47522 152.0
129.509186 216.0
129.554932 188.0
129.642853 152.0
129.674591 156.0
129.710846 212.0
129.765259 56.0
129.866455 180.0
129.918167 176.0
129.944443 208.0
130.028397 132.0
130.074005 620.0
130.124084 128.0
130.160065 224.0
130.175964 180.0
130.239548 80.0
130.282715 88.0
130.319061 84.0
130.341782 84.0
130.419052 128.0
130.461121 148.0
130.569107 116.0
130.730469 276.0
130.751114 188.0
130.803467 56.0
130.887695 124.0
130.981079 128.0
131.052505 736.0
131.094986 176.0
131.158417 140.0
131.23175 196.0
131.256836 192.0
131.443878 176.0
131.462143 100.0
131.478119 100.0
131.494095 44.0
131.55835 212.0
131.580826 308.0
131.615082 120.0
131.724701 184.0
131.817551 256.0
132.024124 36.0
132.046982 104.0
132.093964 216.0
132.122467 200.0
132.207138 112.0
132.458984 156.0
132.55751 144.0
132.633133 244.0
132.709183 212.0
132.832352 168.0
132.836227 148.0
132.847183 104.0
132.851974 184.0
132.87674 212.0
132.938171 120.0
132.983017 176.0
133.066452 5604.0
133.108368 168.0
133.192169 76.0
133.262985 140.0
133.299133 232.0
133.334137 76.0
133.365341 268.0
133.441208 128.0
133.476486 140.0
133.558487 96.0
133.710342 136.0
133.786301 140.0
133.830048 84.0
133.952103 120.0
133.979752 120.0
134.040939 708.0
134.070786 572.0
134.179504 188.0
134.387817 36.0
134.415512 136.0
134.459351 152.0
134.766479 176.0
134.856613 148.0
134.965256 72.0
134.999954 148.0
135.042511 676.0
135.07164 196.0
135.132263 216.0
135.189636 176.0
135.22435 72.0
135.272964 152.0
135.291489 200.0
135.33316 148.0
135.423477 140.0
135.503555 228.0
135.564789 132.0
135.667465 80.0
135.750244 140.0
135.775757 156.0
135.794312 232.0
135.884781 140.0
135.934311 116.0
136.016144 160.0
136.093674 124.0
136.135468 160.0
136.193527 180.0
136.221405 220.0
136.318985 208.0
136.402649 80.0
136.504944 132.0
136.553787 160.0
136.57547 232.0
136.607285 160.0
136.716644 68.0
136.745026 124.0
136.860062 164.0
136.94014 128.0
136.984131 172.0
136.987885 248.0
137.024582 40852.0
137.064453 212.0
137.101135 120.0
137.164917 164.0
137.203354 88.0
137.225342 172.0
137.295868 228.0
137.366455 120.0
137.406357 32.0
137.461075 132.0
137.495682 112.0
137.551041 188.0
137.583725 116.0
137.632751 124.0
137.65097 160.0
137.744858 236.0
137.784988 180.0
137.819611 104.0
137.859894 256.0
137.88504 168.0
137.915436 120.0
137.957504 120.0
137.994919 96.0
138.028122 2676.0
138.151611 96.0
138.322433 60.0
138.343506 56.0
138.451202 156.0
138.481659 44.0
138.504745 116.0
138.578247 204.0
138.613342 228.0
138.643311 172.0
138.793335 160.0
138.814651 128.0
138.861343 96.0
138.949188 156.0
138.999756 100.0
139.0298 672.0
139.125717 48.0
139.20163 156.0
139.257996 100.0
139.309662 172.0
139.401306 164.0
139.425064 180.0
139.495316 48.0
139.683426 56.0
139.730484 116.0
139.837616 84.0
140.062454 196.0
140.104813 120.0
140.220276 52.0
140.25563 32.0
140.391037 152.0
140.53627 184.0
140.57402 172.0
140.592896 228.0
140.659729 216.0
140.694397 180.0
140.888046 188.0
141.071564 904.0
141.13385 100.0
141.178772 152.0
141.197693 184.0
141.299408 68.0
141.337265 164.0
141.365662 152.0
141.481628 84.0
141.540833 124.0
141.590561 164.0
141.668716 128.0
141.794296 124.0
141.83223 132.0
141.927048 212.0
141.993454 168.0
142.038513 224.0
142.077271 756.0
142.128677 48.0
142.292435 108.0
142.370804 284.0
142.458679 148.0
142.516785 152.0
142.572723 180.0
142.693954 140.0
142.72963 120.0
142.774811 136.0
142.83902 140.0
142.879471 164.0
142.962738 144.0
142.984161 156.0
143.003204 128.0
143.050812 304.0
143.082458 148.0
143.1008 28.0
143.169861 132.0
143.338989 116.0
143.431946 116.0
143.467621 148.0
143.508224 140.0
143.543991 44.0
143.649536 204.0
143.684723 180.0
143.730057 172.0
143.782547 176.0
143.892929 184.0
143.925781 36.0
143.983093 112.0
144.020599 1224.0
144.060104 196.0
144.080597 224.0
144.195724 156.0
144.245911 232.0
144.269821 48.0
144.317642 156.0
144.346024 156.0
144.432434 184.0
144.575974 48.0
144.633423 108.0
144.844131 216.0
145.026474 336.0
145.068512 132.0
145.278015 128.0
145.360336 168.0
145.532684 148.0
145.553986 196.0
145.578049 136.0
145.623672 116.0
145.678925 160.0
145.90242 124.0
146.05632 84.0
146.075562 188.0
146.10202 196.0
146.301773 136.0
146.371597 40.0
146.475143 180.0
146.609024 144.0
146.651047 180.0
146.672745 96.0
146.759521 148.0
146.852875 240.0
146.925949 112.0
146.988678 124.0
147.086349 104.0
147.126251 152.0
147.278381 128.0
147.302536 76.0
147.355682 140.0
147.474091 176.0
147.549026 184.0
147.566849 204.0
147.737671 112.0
147.795731 120.0
147.822342 136.0
147.856232 152.0
147.902222 128.0
147.938522 192.0
148.025681 176.0
148.041061 148.0
148.055588 80.0
148.168594 164.0
148.191559 168.0
148.321259 132.0
148.493408 160.0
148.566177 180.0
148.588013 44.0
148.617126 180.0
148.794296 148.0
148.838013 160.0
148.974014 132.0
149.011932 152.0
149.059052 264.0
149.144119 144.0
149.17572 104.0
149.550308 124.0
149.569778 164.0
149.598984 164.0
149.635513 192.0
149.66716 120.0
149.715866 128.0
149.749954 172.0
149.77919 144.0
149.986298 196.0
150.025314 172.0
150.044815 104.0
150.139908 208.0
150.169785 160.0
150.317993 156.0
150.366791 164.0
150.486404 240.0
150.51326 196.0
150.554779 196.0
150.618286 196.0
150.702179 128.0
150.913986 192.0
150.982452 140.0
151.055954 168.0
151.139008 160.0
151.170822 136.0
151.205078 80.0
151.29126 156.0
151.329926 188.0
151.395721 124.0
151.523697 172.0
151.672897 128.0
151.777069 140.0
151.942642 216.0
152.066116 888.0
152.104614 44.0
152.293686 188.0
152.379654 168.0
152.448456 200.0
152.615616 232.0
152.684464 132.0
152.771652 240.0
152.795151 168.0
152.883728 224.0
152.905884 152.0
153.068771 624.0
153.186584 32.0
153.206284 160.0
153.235855 60.0
153.33934 208.0
153.410202 172.0
153.489716 180.0
153.524246 208.0
153.551376 160.0
153.65744 272.0
153.677185 140.0
153.762344 148.0
153.884506 228.0
154.077606 260.0
154.21553 172.0
154.269913 168.0
154.293213 168.0
154.393539 164.0
154.465256 112.0
154.601349 144.0
154.65332 192.0
154.712723 124.0
154.81424 292.0
154.86377 104.0
154.990112 216.0
155.04628 264.0
155.085602 128.0
155.116516 148.0
155.158661 120.0
155.45134 140.0
155.528275 116.0
155.933121 204.0
155.962952 96.0
156.032547 112.0
156.054367 452.0
156.129532 44.0
156.418152 116.0
156.4505 208.0
156.66716 84.0
157.066452 1540.0
157.175781 116.0
157.268127 116.0
157.293076 208.0
157.310562 180.0
157.348114 196.0
157.470367 132.0
157.712723 136.0
157.765213 56.0
157.782715 64.0
157.900238 72.0
158.00029 236.0
158.020309 256.0
158.073013 2312.0
158.300644 124.0
158.335709 168.0
158.380798 120.0
158.453644 144.0
158.491028 188.0
158.581238 92.0
158.686523 76.0
158.744186 148.0
158.769272 64.0
159.045319 4960.0
159.069839 324.0
159.077682 828.0
159.130615 124.0
159.185852 76.0
159.205933 68.0
159.260437 120.0
159.287384 196.0
159.355637 208.0
159.399368 240.0
159.555206 36.0
159.575317 48.0
159.736267 136.0
159.814255 148.0
159.846085 200.0
159.983597 152.0
160.020645 80.0
160.0448 412.0
160.131439 64.0
160.19693 168.0
160.254868 108.0
160.411133 144.0
160.560043 248.0
160.701141 88.0
160.832367 132.0
160.945984 132.0
161.031845 216.0
161.057098 120.0
161.11084 204.0
161.137939 116.0
161.196045 80.0
161.241531 140.0
161.339172 128.0
161.438736 60.0
161.572784 156.0
161.633514 168.0
161.757523 236.0
161.871979 152.0
161.987961 88.0
162.167862 208.0
162.294617 108.0
162.453079 176.0
162.530502 200.0
162.692932 128.0
162.774185 216.0
163.033295 272.0
163.216324 68.0
163.274811 116.0
163.328217 168.0
163.386734 180.0
163.435074 212.0
163.506317 116.0
163.55722 144.0
163.577591 264.0
163.603043 88.0
163.842438 256.0
163.926514 184.0
163.964737 108.0
164.082001 164.0
164.171082 128.0
164.245209 136.0
164.436569 164.0
164.482513 144.0
164.551437 104.0
165.018982 48.0
165.072418 156.0
165.100815 176.0
165.264526 60.0
165.318268 116.0
165.441116 76.0
165.546097 184.0
165.622925 140.0
165.6716 96.0
165.899673 168.0
165.935562 248.0
166.035568 140.0
166.061218 136.0
166.129868 200.0
166.258774 236.0
166.381973 36.0
166.420486 140.0
166.44873 156.0
166.744156 112.0
166.832016 156.0
166.908676 160.0
166.965256 136.0
167.065567 92.0
167.158203 224.0
167.30748 172.0
167.408066 180.0
167.472275 136.0
167.52301 364.0
167.541824 176.0
167.595932 172.0
167.757706 224.0
167.767654 172.0
167.969757 88.0
168.0616 584.0
168.168442 68.0
168.238129 184.0
168.289764 144.0
168.411133 140.0
168.434387 96.0
168.532562 172.0
168.595261 180.0
168.687622 128.0
168.71347 164.0
168.922943 136.0
169.067078 2836.0
169.095184 56.0
169.155838 244.0
169.176544 180.0
169.257874 192.0
169.277512 168.0
169.396652 320.0
169.609131 196.0
169.79332 200.0
169.834717 188.0
169.964432 148.0
170.072098 1072.0
170.203232 140.0
170.273346 208.0
170.351273 124.0
170.439606 68.0
170.481186 128.0
170.579956 164.0
170.598145 160.0
170.619049 108.0
170.639084 156.0
170.66835 216.0
170.907639 148.0
171.049179 188.0
171.081558 348.0
171.152313 184.0
171.37619 168.0
171.410187 116.0
171.444061 100.0
171.571777 140.0
171.929123 164.0
172.054413 412.0
172.083817 404.0
172.158859 104.0
172.179749 132.0
172.311539 160.0
172.473175 144.0
172.508972 156.0
172.592636 232.0
172.741714 64.0
172.893463 168.0
172.954926 240.0
173.024338 192.0
173.05307 132.0
173.104736 188.0
173.207657 204.0
173.367477 56.0
173.453964 176.0
173.494324 132.0
173.571945 192.0
173.674225 200.0
173.726685 160.0
173.755539 184.0
173.792267 144.0
173.884125 132.0
174.204453 164.0
174.323486 172.0
174.427826 200.0
174.546127 216.0
174.801285 180.0
175.109299 156.0
175.135635 176.0
175.218781 240.0
175.438675 176.0
175.496674 108.0
175.583694 64.0
175.612701 248.0
175.67601 120.0
175.718216 168.0
176.003281 124.0
176.047089 1064.0
176.100983 196.0
176.132675 152.0
176.159088 48.0
176.460373 168.0
176.529114 372.0
176.566147 144.0
176.637558 172.0
176.695755 212.0
176.854523 108.0
176.93129 168.0
177.05159 392.0
177.386948 116.0
177.416107 168.0
177.522156 84.0
177.593765 184.0
177.636215 180.0
177.675995 64.0
177.699875 108.0
177.923843 144.0
177.970596 232.0
177.990082 216.0
178.076828 208.0
178.246841 236.0
178.318604 120.0
178.587143 64.0
178.685562 196.0
178.823929 248.0
178.85321 152.0
178.89006 176.0
178.986328 212.0
179.045868 144.0
179.09285 76.0
179.135468 248.0
179.516602 88.0
179.655304 48.0
179.679932 120.0
179.799377 168.0
179.924835 144.0
180.054672 180.0
180.167862 152.0
180.186569 44.0
180.22287 156.0
180.312149 112.0
180.408386 104.0
180.451157 188.0
180.518005 56.0
180.788193 128.0
180.852417 140.0
180.964859 52.0
181.00235 136.0
181.066376 668.0
181.152328 168.0
181.187149 152.0
181.243423 248.0
181.273529 200.0
181.33989 56.0
181.374741 140.0
181.479294 92.0
181.575821 160.0
181.793121 144.0
181.956863 156.0
182.066071 376.0
182.155579 124.0
182.209305 152.0
182.314102 160.0
182.421616 272.0
182.535873 204.0
182.599075 104.0
182.693222 188.0
182.77124 164.0
182.94725 124.0
182.973633 208.0
183.013489 84.0
183.043106 168.0
183.077591 224.0
183.115829 200.0
183.185852 208.0
183.207413 160.0
183.247818 192.0
183.266678 156.0
183.344818 124.0
183.927399 112.0
184.051392 268.0
184.08783 204.0
184.156906 208.0
184.378448 172.0
184.464951 252.0
184.500092 144.0
184.554153 236.0
184.675858 120.0
184.727249 96.0
184.767822 156.0
184.826218 96.0
184.904068 160.0
184.968079 156.0
185.060944 160.0
185.09642 248.0
185.13324 68.0
185.168442 164.0
185.209076 124.0
185.404144 164.0
185.576187 136.0
185.621017 168.0
185.767471 152.0
185.858749 180.0
185.878708 156.0
186.022552 180.0
186.069901 984.0
186.116058 100.0
186.174591 192.0
186.226196 64.0
186.245209 116.0
186.277802 180.0
186.296829 92.0
186.32399 196.0
186.345718 212.0
186.718124 164.0
186.856857 312.0
186.976593 108.0
187.038345 1272.0
187.085464 164.0
187.115417 180.0
187.221603 140.0
187.40683 76.0
187.496765 100.0
187.537643 140.0
187.731216 184.0
187.810303 128.0
187.848495 56.0
188.04541 212.0
188.102264 180.0
188.162323 140.0
188.184174 220.0
188.427246 140.0
188.719681 76.0
188.744293 144.0
188.881042 144.0
188.908401 196.0
188.976791 208.0
189.060226 244.0
189.171097 124.0
189.360031 168.0
189.417557 172.0
189.634018 48.0
189.658676 184.0
189.72995 96.0
189.910934 316.0
190.028885 72.0
190.2155 244.0
190.748413 100.0
190.841873 188.0
190.918869 88.0
190.960129 152.0
191.063324 60.0
191.130692 88.0
191.149948 136.0
191.271042 224.0
191.301331 112.0
191.474792 176.0
191.568436 172.0
191.612518 136.0
191.675888 172.0
191.750305 156.0
192.006699 200.0
192.103241 136.0
192.289612 212.0
192.989761 208.0
193.022949 68.0
193.064957 164.0
193.343842 204.0
193.545914 144.0
193.676987 184.0
193.759186 228.0
193.790253 132.0
193.983658 92.0
194.03537 128.0
194.100098 228.0
194.174973 124.0
194.277603 172.0
194.333084 140.0
194.383041 124.0
194.519028 164.0
194.68663 228.0
194.730301 184.0
194.835602 68.0
194.907852 140.0
194.968979 144.0
195.041245 164.0
195.082123 752.0
195.344345 116.0
195.436142 88.0
195.602844 156.0
195.678299 60.0
195.834229 140.0
195.856522 160.0
195.99115 148.0
196.04039 152.0
196.101715 104.0
196.171402 184.0
196.386108 128.0
196.426254 136.0
196.53212 176.0
196.62883 148.0
196.651169 52.0
196.743271 164.0
196.785156 200.0
196.827408 180.0
196.96109 92.0
196.993225 192.0
197.060623 6040.0
197.120941 364.0
197.159454 84.0
197.179031 124.0
197.198593 96.0
197.234924 48.0
197.408264 40.0
197.480972 160.0
197.500549 40.0
197.556503 152.0
197.632034 28.0
197.920334 120.0
198.021393 144.0
198.067657 2012.0
198.106644 192.0
198.357391 120.0
198.536835 200.0
198.66304 168.0
198.820175 148.0
198.867889 80.0
198.926834 68.0
198.971741 156.0
199.076141 552.0
199.362106 160.0
199.429626 84.0
199.544876 132.0
199.572998 92.0
199.598312 236.0
199.722046 56.0
199.820511 92.0
199.851456 192.0
199.894989 120.0
200.005234 56.0
200.047592 1164.0
200.220215 148.0
200.406128 32.0
200.547043 100.0
200.826172 128.0
200.849167 184.0
200.874115 224.0
200.896683 232.0
200.995438 92.0
201.060883 236.0
201.094162 312.0
201.147842 184.0
201.170425 136.0
201.252289 132.0
201.299957 168.0
201.435867 172.0
201.633652 84.0
201.760849 52.0
201.930511 152.0
202.02597 192.0
202.130585 168.0
202.354965 228.0
202.454071 132.0
202.490891 104.0
202.570206 52.0
202.620651 168.0
202.890427 108.0
203.097427 108.0
203.139984 144.0
203.352798 188.0
203.406723 52.0
203.537323 176.0
203.582275 236.0
203.716248 112.0
203.759552 148.0
203.835571 148.0
204.06012 52.0
204.080017 152.0
204.209656 232.0
204.252609 116.0
204.461197 124.0
204.540894 80.0
204.704544 196.0
204.749847 164.0
204.777222 140.0
204.908325 160.0
204.93959 196.0
204.967499 156.0
205.03363 164.0
205.079239 96.0
205.116287 84.0
205.150497 176.0
205.208206 212.0
205.281052 96.0
205.427109 56.0
205.613632 140.0
205.634827 256.0
205.842545 108.0
205.86824 136.0
205.980896 136.0
206.409592 152.0
206.478226 128.0
206.886139 172.0
206.938934 108.0
207.013382 88.0
207.116486 156.0
207.188095 116.0
207.282654 128.0
207.328491 196.0
207.420212 136.0
207.606583 152.0
207.666306 140.0
207.678177 116.0
207.706955 92.0
207.761459 60.0
207.839478 272.0
207.925018 156.0
207.979553 96.0
208.046585 196.0
208.148926 136.0
208.304016 52.0
208.508026 96.0
208.62587 176.0
208.689117 208.0
208.712128 112.0
208.766754 180.0
208.804138 176.0
209.061127 692.0
209.105652 40.0
209.235764 196.0
209.316391 164.0
209.376862 56.0
209.4431 180.0
209.549698 140.0
209.58139 140.0
209.688004 228.0
209.748535 104.0
209.784973 128.0
209.882996 212.0
210.066986 180.0
210.166702 96.0
210.230743 188.0
210.357178 140.0
210.432251 120.0
210.461121 132.0
210.669067 136.0
210.709503 160.0
210.804855 92.0
211.037659 188.0
211.060303 196.0
211.117065 128.0
211.221191 164.0
211.31955 76.0
211.391876 180.0
211.453674 184.0
211.606079 220.0
211.837753 208.0
211.878403 132.0
211.947845 172.0
212.002914 148.0
212.027939 188.0
212.069565 216.0
212.165222 168.0
212.3508 128.0
212.646744 172.0
212.693176 176.0
212.762848 144.0
212.97963 184.0
213.030014 52.0
213.056854 184.0
213.090546 696.0
213.198318 160.0
213.460175 152.0
213.666687 200.0
213.76561 152.0
213.858734 124.0
213.963531 196.0
214.272247 132.0
214.353821 200.0
214.530334 196.0
214.601471 100.0
214.814484 220.0
214.840729 140.0
215.107178 184.0
215.190948 60.0
215.281464 124.0
215.474243 184.0
215.518082 232.0
215.547302 176.0
215.617432 140.0
215.672958 152.0
215.808731 108.0
215.974121 104.0
216.003372 240.0
216.06189 184.0
216.389679 220.0
216.553665 72.0
216.714783 188.0
216.776306 168.0
216.843719 288.0
217.034256 148.0
217.104645 160.0
217.195557 92.0
217.265961 144.0
217.397995 184.0
217.541809 180.0
217.618546 148.0
217.691559 140.0
217.788467 152.0
217.955597 176.0
218.002945 52.0
218.317047 160.0
218.367493 32.0
218.805939 48.0
218.879547 104.0
218.908997 200.0
218.98851 156.0
219.330292 204.0
219.427582 152.0
219.501282 204.0
219.536682 128.0
219.816925 104.0
219.866699 120.0
220.054688 144.0
220.076675 128.0
220.107819 168.0
220.262726 140.0
220.283401 124.0
220.345169 172.0
220.38089 44.0
220.445908 164.0
220.49614 180.0
220.655762 136.0
220.812485 108.0
221.244492 96.0
221.371811 120.0
221.392548 156.0
221.451782 120.0
221.554184 192.0
221.694717 176.0
221.789551 72.0
221.822159 160.0
221.848831 140.0
221.954559 200.0
222.068268 188.0
222.249222 160.0
222.290756 152.0
222.314011 120.0
222.338242 128.0
222.361984 92.0
222.421341 180.0
222.451035 144.0
222.54306 132.0
222.602448 112.0
222.644028 216.0
222.697479 164.0
222.778137 156.0
222.846024 148.0
223.024323 204.0
223.079163 204.0
223.11647 180.0
223.250275 164.0
223.339493 52.0
223.387085 280.0
223.513199 196.0
223.768021 128.0
223.88414 184.0
223.919891 156.0
223.979462 152.0
224.012222 136.0
224.042587 208.0
224.137344 68.0
224.276398 176.0
224.337036 132.0
224.372818 112.0
224.394623 184.0
224.444534 148.0
224.517303 192.0
224.579346 76.0
224.621857 188.0
224.657562 192.0
224.679993 140.0
224.722992 80.0
224.742645 240.0
224.796356 164.0
224.83049 200.0
224.897827 100.0
224.933273 228.0
224.983109 200.0
224.992676 224.0
225.056625 7940.0
225.121735 100.0
225.164215 160.0
225.199387 136.0
225.2733 136.0
225.330826 116.0
225.355316 384.0
225.375305 212.0
225.439514 96.0
225.469421 200.0
225.562759 204.0
225.572983 164.0
225.598297 168.0
225.636795 372.0
225.701355 200.0
225.766983 140.0
225.84993 332.0
225.909286 196.0
225.946884 164.0
226.005234 360.0
226.064896 203424.0
226.169617 212.0
226.212738 148.0
226.242432 176.0
226.253738 196.0
226.273148 268.0
226.325058 132.0
226.337036 320.0
226.345215 260.0
226.372162 296.0
226.409775 184.0
226.452774 132.0
226.475479 224.0
226.517654 124.0
226.525284 164.0
226.557739 1876.0
226.586136 96.0
226.618515 188.0
226.672134 156.0
226.682083 132.0
226.724838 68.0
226.770721 212.0
226.803574 120.0
226.811966 128.0
226.851913 192.0
226.873688 136.0
226.952179 180.0
226.996048 128.0
227.067535 29968.0
227.117798 132.0
227.127045 168.0
227.181686 84.0
227.243561 88.0
227.268311 72.0
227.299347 88.0
227.34816 92.0
227.385788 96.0
227.407867 52.0
227.412979 64.0
227.426025 48.0
227.436417 32.0
227.502075 108.0
227.545212 120.0
227.582306 244.0
227.636703 76.0
227.656067 120.0
227.700623 64.0
227.747284 152.0
227.769226 112.0
227.822266 132.0
227.844437 48.0
227.870468 132.0
227.904526 64.0
227.946594 40.0
227.976639 208.0
228.070679 5924.0
228.098221 216.0
228.126923 76.0
228.165466 68.0
228.170761 48.0
228.221008 108.0
228.247177 92.0
228.273209 132.0
228.318954 120.0
228.36615 136.0
228.389267 112.0
228.433121 204.0
228.483963 296.0
228.50885 152.0
228.550751 316.0
228.573654 120.0
228.593109 196.0
228.631851 144.0
228.668045 288.0
228.688568 128.0
228.711258 156.0
228.736008 92.0
228.766006 280.0
228.778534 264.0
228.817856 156.0
228.864243 284.0
228.907761 76.0
228.933075 72.0
228.95134 76.0
229.003403 100.0
229.058441 136.0
229.066757 112.0
229.102585 76.0
229.146011 100.0
229.173477 152.0
229.23526 212.0
229.307724 204.0
229.355072 100.0
229.405899 116.0
229.481674 40.0
229.620392 100.0
229.68071 116.0
229.716415 120.0
229.730942 92.0
229.773315 132.0
229.797165 180.0
229.820633 84.0
229.869965 44.0
229.917511 108.0
230.03981 100.0
230.062607 188.0
230.112259 108.0
230.208878 84.0
230.254181 84.0
230.290421 44.0
230.441467 52.0
230.513977 36.0
230.541183 64.0
230.637894 116.0
230.659058 52.0
230.767883 188.0
230.952347 72.0
231.096115 136.0
231.176239 124.0
231.248871 76.0
231.32756 188.0
231.709137 36.0
232.066772 52.0
232.515335 152.0
232.524643 132.0
232.532089 144.0
232.855759 208.0
232.99852 128.0
233.22644 56.0
233.3526 152.0
233.451416 96.0
233.484863 92.0
233.670425 100.0
233.913879 52.0
233.974762 72.0
234.117874 28.0
234.259537 220.0
234.34024 96.0
234.434692 100.0
234.617569 36.0
235.02626 148.0
235.142227 52.0
235.32843 72.0
235.838593 52.0
236.064835 48.0
236.133469 120.0
236.239166 112.0
236.545181 104.0
236.569672 88.0
236.600281 148.0
237.053223 264.0
237.11795 136.0
237.221207 132.0
237.27121 56.0
237.295746 96.0
237.335602 124.0
237.519608 64.0
237.580963 164.0
237.863281 76.0
237.992218 56.0
238.050552 164.0
238.078201 152.0
238.105835 84.0
238.133484 132.0
238.197983 68.0
238.338699 164.0
238.366959 144.0
238.391541 200.0
238.462219 72.0
238.711243 128.0
238.798325 76.0
238.82196 48.0
238.957306 200.0
239.051407 172.0
239.502182 272.0
239.548386 264.0
239.711685 144.0
239.918198 200.0
239.955185 52.0
240.060028 44.0
240.457993 64.0
240.72348 88.0
241.047134 432.0
241.087311 736.0
241.203781 188.0
241.360031 104.0
241.381683 144.0
241.615128 128.0
241.697189 116.0
241.871307 184.0
241.935501 208.0
241.963364 132.0
242.053162 144.0
242.085129 160.0
242.427979 108.0
242.488235 108.0
242.756577 180.0
242.784485 120.0
242.85582 40.0
243.066772 196.0
243.088501 136.0
243.380722 56.0
243.436172 100.0
243.498291 172.0
243.619431 60.0
243.81517 204.0
243.868011 68.0
244.054535 104.0
244.322006 360.0
244.586517 204.0
244.617645 144.0
244.701691 124.0
245.125305 100.0
245.783249 192.0
245.84877 76.0
245.895584 176.0
246.092255 120.0
246.242142 180.0
246.354584 172.0
246.432693 60.0
246.520187 36.0
246.610809 132.0
247.295776 136.0
247.3396 172.0
247.405334 216.0
247.480484 236.0
248.278717 168.0
248.55246 28.0
248.806686 172.0
249.230682 96.0
249.387817 64.0
249.966476 72.0
250.004242 96.0
250.067184 264.0
250.155319 76.0
250.586761 176.0
250.791595 216.0
250.920853 40.0
251.075348 116.0
251.138428 44.0
251.480621 132.0
251.510757 100.0
251.77597 144.0
251.810699 52.0
251.835968 100.0
252.081375 112.0
252.262543 84.0
252.678711 208.0
252.809723 232.0
253.051956 440.0
253.157944 104.0
253.23584 328.0
253.347977 204.0
253.46521 144.0
253.493729 92.0
253.52449 232.0
253.550766 208.0
253.651138 120.0
253.660446 80.0
253.788406 216.0
253.816162 156.0
253.865402 124.0
253.918533 344.0
253.964081 188.0
254.059036 55436.0
254.11673 92.0
254.160263 84.0
254.19136 96.0
254.240143 136.0
254.296341 48.0
254.330414 88.0
254.382751 204.0
254.413284 52.0
254.484711 152.0
254.530914 88.0
254.556412 96.0
254.623093 124.0
254.658035 60.0
254.691223 100.0
254.710724 116.0
254.770203 116.0
254.92836 160.0
254.967834 108.0
255.017059 124.0
255.061401 8792.0
255.182144 60.0
255.23642 60.0
255.271393 104.0
255.315918 80.0
255.398605 96.0
255.452682 68.0
255.592667 92.0
255.665863 144.0
255.714127 96.0
255.793167 56.0
255.880219 184.0
255.919083 120.0
255.961914 80.0
255.984192 200.0
256.016052 60.0
256.066711 1076.0
256.111603 164.0
256.175293 32.0
256.223602 48.0
256.331421 124.0
256.372833 56.0
256.446136 48.0
256.493958 88.0
256.532196 112.0
256.557709 88.0
256.586395 188.0
256.631958 140.0
256.687073 264.0
256.716736 188.0
256.83252 44.0
256.882996 96.0
256.930847 88.0
256.985077 128.0
257.056549 80.0
257.094849 124.0
257.134277 152.0
257.253143 76.0
257.346893 100.0
257.665131 88.0
257.895203 136.0
257.920776 144.0
258.013458 56.0
258.128571 112.0
258.170135 40.0
258.294891 68.0
258.550842 68.0
258.627655 148.0
258.890198 152.0
259.075958 164.0
259.588776 236.0
260.622375 44.0
261.42627 100.0
261.551788 136.0
262.076721 124.0
262.183044 140.0
262.534454 104.0
262.686035 184.0
262.800262 148.0
263.215332 136.0
264.281982 140.0
264.385559 76.0
264.466461 128.0
264.5065 196.0
264.871216 104.0
265.007263 156.0
265.059113 84.0
265.315155 100.0
265.483765 52.0
265.69458 96.0
265.785431 128.0
265.960693 136.0
266.174957 36.0
266.714264 76.0
266.958099 52.0
267.182526 40.0
267.26712 52.0
267.367981 60.0
267.5177 180.0
267.539337 112.0
267.80426 96.0
267.849854 196.0
267.882446 68.0
267.950836 96.0
267.983429 140.0
268.055115 40.0
268.077911 240.0
268.126801 144.0
268.209564 80.0
268.328918 76.0
268.37973 156.0
268.433258 104.0
268.519775 104.0
268.577271 124.0
268.641724 200.0
268.729431 124.0
268.73764 100.0
268.750824 156.0
268.833984 128.0
268.877594 192.0
268.904816 208.0
268.951721 252.0
269.020721 508.0
269.083313 78808.0
269.185242 136.0
269.207977 188.0
269.234619 48.0
269.264221 76.0
269.28772 92.0
269.320953 112.0
269.346588 144.0
269.387146 156.0
269.426941 88.0
269.482208 108.0
269.533295 72.0
269.544983 156.0
269.556854 132.0
269.570526 132.0
269.623596 120.0
269.68689 128.0
269.726105 196.0
269.768616 44.0
269.813446 220.0
269.853271 80.0
269.912445 52.0
269.96048 232.0
270.085815 7972.0
270.15448 56.0
270.180664 56.0
270.265717 168.0
270.298431 68.0
270.344421 76.0
270.380249 28.0
270.419525 36.0
270.464355 52.0
270.506409 324.0
270.594757 76.0
270.665833 128.0
270.732727 84.0
270.76001 80.0
270.852173 40.0
270.884491 44.0
271.086456 1472.0
271.189209 64.0
271.264587 72.0
271.336731 44.0
271.461334 160.0
271.500671 56.0
271.551086 96.0
271.588745 112.0
271.703796 104.0
271.732422 156.0
271.760712 280.0
271.846954 108.0
271.862823 72.0
271.872192 64.0
271.893616 124.0
271.953918 52.0
271.989532 100.0
272.038757 116.0
272.089417 232.0
272.133972 48.0
272.21936 76.0
272.28833 52.0
272.317871 60.0
272.656281 36.0
272.835846 116.0
272.912689 96.0
272.942261 76.0
273.031067 164.0
273.090271 160.0
273.139587 36.0
273.182373 60.0
273.21524 80.0
273.554199 48.0
273.870331 80.0
273.94278 40.0
273.998779 76.0
274.087738 44.0
274.189911 112.0
274.483307 92.0
274.717468 116.0
274.941833 40.0
275.129974 68.0
275.279663 84.0
276.442169 72.0
276.587769 40.0
276.730133 60.0
277.233612 116.0
277.382751 108.0
277.876892 96.0
278.358185 52.0
278.457794 52.0
278.833221 100.0
278.883087 76.0
280.564117 144.0
281.074402 36.0
281.097748 88.0
281.404846 52.0
282.25351 112.0
282.76535 56.0
282.835632 108.0
283.301086 164.0
283.361389 84.0
284.343903 100.0
284.545288 76.0
284.884491 56.0
285.539948 36.0
287.149811 200.0
287.595154 96.0
288.314545 64.0
289.793274 68.0
293.593597 56.0
294.672241 140.0
295.085785 120.0
296.554352 84.0
297.274536 128.0
297.713959 36.0
300.236481 84.0
305.306549 80.0
305.849304 28.0
307.525818 88.0
312.846863 88.0
313.928558 76.0
314.182495 52.0
314.937927 104.0
317.968628 56.0
320.618164 76.0
320.849854 56.0
322.216705 92.0
324.317291 88.0
324.740356 92.0
328.037628 164.0
330.081116 72.0
330.431946 56.0
335.046326 60.0
339.575317 44.0
341.084381 64.0
341.85672 44.0
348.152374 96.0
348.178375 80.0
348.572144 132.0
350.372955 44.0
350.913361 132.0
354.201996 40.0
354.378052 60.0
354.846558 84.0
354.914032 60.0
358.779053 84.0
358.978882 48.0
362.399689 56.0
367.914398 68.0
368.502533 32.0
371.21637 108.0
372.425293 88.0
376.25296 68.0
379.894562 36.0
379.925598 44.0
381.249634 48.0
381.797791 120.0
385.876465 84.0
386.658783 84.0
388.665192 88.0
390.401428 112.0
392.137604 128.0
392.303162 56.0
394.921112 116.0
396.762451 64.0
396.952759 44.0
397.190704 68.0
400.015961 56.0
404.66687 64.0
407.675262 108.0
407.795807 72.0
415.715515 64.0
415.983398 44.0
419.102722 144.0
420.175018 80.0
420.68515 32.0
421.828918 84.0
422.646881 92.0
422.736908 108.0
422.794189 84.0
429.46228 136.0
429.767578 68.0
431.915771 32.0
435.285187 108.0
438.788544 116.0
440.708435 88.0
448.177063 44.0
449.978027 116.0
450.560852 104.0
451.258179 72.0
451.503448 96.0
452.590973 52.0
454.604431 56.0
456.554321 60.0
462.10495 76.0
462.441895 36.0
463.602478 20.0
468.746277 112.0
471.806396 120.0
473.931458 112.0
476.560791 96.0
476.765015 56.0
478.644257 84.0
479.297607 80.0
483.047852 56.0
483.371613 128.0
483.507263 76.0
485.816376 28.0
486.378052 104.0
488.852417 32.0
491.955292 44.0
493.298218 128.0
494.510193 124.0
495.121155 108.0
501.144623 124.0
511.516693 128.0
512.223633 136.0
514.081177 48.0
514.582214 64.0
518.853027 80.0
519.388123 92.0
520.300232 88.0
521.535828 64.0
522.863892 92.0
523.765381 36.0
524.75885 92.0
528.591064 132.0
529.227295 60.0
530.267151 52.0
532.111145 68.0
533.87561 48.0
537.902466 48.0
539.77356 100.0
543.386353 92.0
543.882874 108.0
546.941345 80.0
547.327759 40.0
548.296692 68.0
558.992676 112.0
562.253723 48.0
578.361328 52.0
591.773254 64.0
593.764832 52.0
595.750061 68.0
609.19397 92.0
609.734436 128.0
610.098206 48.0
613.465393 32.0
617.707214 72.0
618.345459 44.0
620.06897 84.0
625.079712 52.0
631.880432 32.0
634.60498 88.0
636.039795 68.0
637.229919 72.0
638.044128 64.0
642.369934 96.0
648.113098 100.0
653.159363 116.0
660.688721 68.0
667.032104 72.0
676.958679 56.0
678.015503 32.0
680.718201 76.0
688.989319 108.0
697.657227 56.0
706.781433 108.0
710.527283 80.0
715.853088 116.0
720.092773 84.0
723.413208 116.0
728.341125 80.0
746.147156 72.0
747.349121 44.0
747.974976 88.0
750.257446 52.0
764.569885 124.0
770.547119 52.0
777.679443 92.0
804.294861 108.0
821.060669 52.0
833.603394 192.0
835.161377 164.0
850.142212 140.0
850.235046 60.0
859.966064 128.0
873.001343 120.0
883.038757 160.0
915.656128 80.0
917.120178 64.0
943.123108 196.0
949.564087 92.0
952.110962 108.0
961.227905 56.0
964.488708 108.0
970.964905 160.0
981.648743 164.0
984.706665 60.0
985.94989 72.0
990.943237 136.0
997.507507 64.0
1003.910522 132.0
1004.774658 68.0
1009.657288 180.0
1011.669373 152.0
1018.282715 88.0
1022.784241 76.0
1028.712402 200.0
1033.787109 156.0
1034.407959 192.0
1034.452759 72.0
1034.657593 132.0
1044.070557 196.0
1044.932373 52.0
1052.85437 68.0
1056.538574 164.0
1057.955811 180.0
1061.629517 148.0
1066.446777 128.0
1067.454346 112.0
1068.833374 76.0
1076.995361 112.0
1078.596191 164.0
1087.366333 92.0
1087.471313 128.0
1091.616699 216.0
1091.682373 180.0
1097.668213 72.0
1099.383301 172.0
1102.302002 196.0
1103.868652 136.0
1107.515137 76.0
1111.950684 176.0
1116.581299 112.0
1117.406128 184.0
1125.183716 156.0
1128.871948 164.0
1129.192871 200.0
1130.009033 64.0
1130.718262 120.0
1138.36731 52.0
1141.713867 152.0
1147.821655 88.0
1148.388062 136.0
1150.648682 120.0
1160.675659 124.0
1167.473022 208.0
1167.561401 48.0
1167.949097 80.0
1168.581665 156.0
1170.87561 60.0
1173.778687 220.0
1176.910522 236.0
1177.695801 152.0
1180.99707 160.0
1181.605957 108.0
1181.735962 128.0
1184.357788 208.0
1188.189697 56.0
1189.390625 120.0
1190.839355 192.0
1193.086304 36.0
1193.821899 76.0
1197.276489 52.0
1203.634521 20.0
1206.633057 48.0
1211.124146 180.0
1211.276489 204.0
1212.897949 220.0
1213.431641 156.0
1214.30542 120.0
1217.810303 184.0
1217.942261 108.0
1218.254883 32.0
1218.678711 136.0
1226.681885 144.0
1232.090088 172.0
1238.932617 224.0
1239.695679 56.0
1242.991455 120.0
1243.180908 160.0
1243.693237 168.0
1244.535645 212.0
1244.879639 68.0
1246.621826 156.0
1249.38501 176.0
1250.327881 96.0
1253.376953 164.0
1254.913452 252.0
1264.435547 220.0
1266.332886 188.0
1267.239624 76.0
1270.557617 192.0
1274.56189 100.0
1275.841187 144.0
1277.939209 164.0
1278.316284 232.0
1280.03186 100.0
1280.779663 168.0
1281.043213 120.0
1281.613159 180.0
1283.345093 188.0
1284.186523 128.0
1287.319458 160.0
1288.012329 172.0
1288.640869 44.0
1289.734253 184.0
1292.430298 104.0
1293.110107 184.0
1311.114868 160.0
1311.295044 144.0
1315.904419 96.0
1316.287109 120.0
1317.298218 64.0
1317.428223 176.0
1318.006226 144.0
1318.295288 152.0
1323.829224 172.0
1324.459229 132.0
1325.067749 208.0
1327.060791 152.0
1327.242065 116.0
1327.626465 132.0
1328.663696 276.0
1328.859497 172.0
1335.397217 252.0
1335.695435 92.0
1336.473877 104.0
1337.208862 208.0
1337.485474 136.0
1339.283813 184.0
1340.420288 196.0
1341.192871 180.0
1347.950806 76.0
1350.860596 124.0
1351.343384 196.0
1352.001953 196.0
1352.360596 248.0
1352.638672 196.0
1353.107178 200.0
1353.246338 188.0
1355.341064 84.0
1360.203369 144.0
1361.260498 44.0
1361.3927 184.0
1363.883301 104.0
1364.383179 144.0
1365.302246 120.0
1367.472534 132.0
1373.027466 168.0
1373.949463 176.0
1374.916138 180.0
1376.665649 160.0
1378.438599 140.0
1378.771118 164.0
1380.515747 208.0
1381.225708 176.0
1381.74353 188.0
1387.379272 144.0
1388.617554 180.0
1389.22583 160.0
1389.975098 124.0
1391.210693 204.0
1393.26416 200.0
1393.925415 196.0
1395.15918 176.0
1395.583008 176.0
1395.739136 168.0
1396.244751 104.0
1396.371216 144.0
1400.799927 124.0
1401.395874 184.0
1404.832642 168.0
1407.773315 208.0
1407.982422 184.0
1408.736816 204.0
1408.960938 88.0
1410.201294 152.0
1411.158203 128.0
1414.906372 108.0
1415.72998 148.0
1417.63269 192.0
1417.685181 160.0
1417.902588 180.0
1418.697021 100.0
1420.856812 188.0
1424.257324 236.0
1425.173828 76.0
1425.339111 136.0
1425.900024 228.0
1427.082886 80.0
1428.6698 136.0
1428.955688 156.0
1429.16626 156.0
1429.459717 168.0
1430.626343 128.0
1431.944092 124.0
1433.714478 176.0
1435.041138 168.0
1435.433228 168.0
1435.945923 144.0
1437.703735 140.0
1439.779785 72.0
1440.134766 192.0
1441.056396 176.0
1442.469482 100.0
1443.127197 80.0
1444.435547 204.0
1444.564087 152.0
1445.207153 164.0
1446.746704 144.0
1448.651855 76.0
1449.409424 136.0
1450.36438 116.0
1451.046631 140.0
1451.637939 164.0
1451.736572 204.0
1452.237061 180.0
1452.563232 208.0
1453.382568 140.0
1453.959351 232.0
1456.791382 224.0
1457.566284 96.0
1458.501099 148.0
1459.002808 140.0
1460.546387 192.0
1462.547485 88.0
1462.699829 228.0
1463.316406 256.0
1463.857056 176.0
1464.207275 52.0
1464.900391 160.0
1464.968994 220.0
1466.409058 164.0
1466.569092 40.0
1467.0802 156.0
1468.147217 144.0
1468.703979 188.0
1469.314331 176.0
1472.955566 124.0
1473.108276 156.0
1473.604858 120.0
1474.644165 192.0
1475.133301 196.0
1476.85376 32.0
1484.105835 124.0
1484.680908 220.0
1486.805908 144.0
1488.364136 52.0
1488.694336 132.0
1490.745361 132.0
1491.014404 196.0
1492.574829 112.0
1494.16687 100.0
1494.299316 148.0
1494.890137 152.0
1496.032227 176.0
1500.173706 188.0
1501.453613 212.0
1502.232544 220.0
1503.305054 148.0
