>compound MLS000028483-01!1-(2-CHLOROPHENYL)-N-METHYL-N-(1-METHYLPROPYL)-3-ISOQUINOLINECARBOXAMIDE85532-75-8
>formula C21H21ClN2O
>ionization [M+H]+
>parentmass 353.1415174240905
#inchi InChI=1S/C21H21ClN2O/c1-4-14(2)24(3)21(25)19-13-15-9-5-6-10-16(15)20(23-19)17-11-7-8-12-18(17)22/h5-14H,4H2,1-3H3
#inchikey RAVIZVQZGXBOQO
#Ion_Source LC-ESI
#Instrument qTof
#Compound_Source NIH Pharmacologically Active Library
#PI Dorrestein
#Data_Collector VP/LMS
#Scan -1
#Precursor_MZ 353.142
#ExactMass 352.134
#Charge 1
#CAS_Number N/A
#Pubmed_ID N/A
#Smiles CCC(C)N(C)C(=O)c1cc2ccccc2c(n1)c3ccccc3Cl
#INCHI_AUX N/A
#Library_Class 1
#SpectrumID CCMSLIB00000085971
#IonMode Positive
#UpdateWorkflowName UPDATE-SINGLE-ANNOTATED-GOLD
#LibraryQualityString Gold
#TaskID d252d724072548979f1f6f1ced849daf
##Scan# 2400
#SpectrumFile p4-H10_GH10_01_18418.mzXML
#LibraryName Pharm_Active_Library.mgf
#MQScore -1
#Organism Pharm_Active_Library
#TIC_Query 0
#RT_Query -1
#MZErrorPPM -1
#SharedPeaks 0
#MassDiff 0
#LibMZ -1
#SpecMZ 353.142
#SpecCharge 0
#internalFilename spec-00000.mgf

>collision 10
44.890617 148.0
44.894032 132.0
44.900799 76.0
44.913223 76.0
44.919731 148.0
44.935528 92.0
44.952763 200.0
44.974136 144.0
45.002304 132.0
45.014 136.0
45.037067 352.0
45.047932 380.0
45.057507 200.0
45.081661 152.0
45.09235 168.0
45.101707 84.0
45.113194 228.0
45.135723 152.0
45.149117 208.0
45.160095 156.0
45.164246 104.0
45.167511 132.0
45.180904 232.0
45.19693 200.0
45.210724 104.0
45.228428 212.0
45.242168 60.0
45.257446 248.0
45.274765 228.0
45.29636 244.0
45.30238 212.0
45.314316 116.0
45.327026 144.0
45.348701 168.0
45.365242 228.0
45.381779 176.0
45.411846 100.0
45.421696 128.0
45.429764 276.0
45.451256 200.0
45.464943 100.0
45.478096 124.0
45.498547 264.0
45.509769 404.0
45.524059 152.0
45.554157 256.0
45.56654 168.0
45.583691 160.0
45.594944 176.0
45.606133 296.0
45.61776 152.0
45.619831 148.0
45.62714 80.0
45.632393 124.0
45.658546 312.0
45.679123 132.0
45.693256 72.0
45.712448 176.0
45.717621 128.0
45.74395 200.0
45.779224 176.0
45.78928 176.0
45.797539 160.0
45.80666 288.0
45.821896 148.0
45.84602 164.0
45.866047 200.0
45.882076 168.0
45.896042 144.0
45.918198 164.0
45.939285 116.0
45.952229 92.0
45.964985 180.0
45.980759 156.0
45.990131 164.0
46.002243 236.0
46.009338 164.0
46.025436 144.0
46.042908 160.0
46.05357 132.0
46.066254 456.0
46.075764 140.0
46.084358 168.0
46.093983 116.0
46.105415 212.0
46.119968 60.0
46.125587 104.0
46.128342 132.0
46.133957 68.0
46.147911 212.0
46.162861 124.0
46.197372 232.0
46.211746 80.0
46.223061 100.0
46.239624 368.0
46.25906 132.0
46.28241 152.0
46.306576 160.0
46.318211 192.0
46.332973 272.0
46.346985 100.0
46.370792 152.0
46.382404 356.0
46.397877 92.0
46.411865 192.0
46.421444 212.0
46.43187 400.0
46.452061 128.0
46.476818 236.0
46.490532 88.0
46.495426 124.0
46.498844 168.0
46.515682 120.0
46.519936 80.0
46.524754 184.0
46.527676 144.0
46.533882 112.0
46.538216 152.0
46.559834 88.0
46.572239 152.0
46.582153 348.0
46.596569 300.0
46.625401 156.0
46.670784 588.0
46.690613 312.0
46.712471 292.0
46.725422 292.0
46.759968 228.0
46.764713 108.0
46.79007 176.0
46.79982 148.0
46.815594 320.0
46.824146 76.0
46.834507 144.0
46.852375 80.0
46.873837 116.0
46.888485 124.0
46.892712 160.0
46.89724 140.0
46.909744 220.0
46.921642 164.0
46.939857 124.0
46.951042 424.0
46.988018 108.0
47.002308 56.0
47.019596 408.0
47.033318 184.0
47.036613 252.0
47.052292 144.0
47.057743 92.0
47.062645 144.0
47.085503 168.0
47.090084 180.0
47.103313 244.0
47.115818 160.0
47.132782 136.0
47.151417 160.0
47.16317 240.0
47.171913 152.0
47.192448 192.0
47.203941 136.0
47.224701 224.0
47.247002 132.0
47.25732 328.0
47.260902 164.0
47.266323 220.0
47.27697 312.0
47.281921 180.0
47.285389 280.0
47.295853 148.0
47.30648 104.0
47.320866 132.0
47.342403 148.0
47.358517 288.0
47.371529 128.0
47.38715 60.0
47.398567 116.0
47.408161 104.0
47.418789 180.0
47.443226 208.0
47.449642 196.0
47.471008 208.0
47.488953 172.0
47.495247 116.0
47.499336 368.0
47.518585 164.0
47.528473 228.0
47.544868 216.0
47.558186 108.0
47.579338 352.0
47.589718 112.0
47.611462 280.0
47.621696 56.0
47.625126 180.0
47.632412 108.0
47.636688 144.0
47.641365 212.0
47.651638 64.0
47.663261 276.0
47.684017 144.0
47.694225 148.0
47.708073 96.0
47.720467 128.0
47.741756 156.0
47.756329 148.0
47.769684 140.0
47.787838 88.0
47.806332 328.0
47.82233 156.0
47.844585 132.0
47.849701 180.0
47.855568 136.0
47.860512 108.0
47.875793 192.0
47.881371 108.0
47.885056 132.0
47.890583 120.0
47.905613 184.0
47.92186 244.0
47.945934 228.0
47.968395 272.0
47.978718 88.0
47.995735 360.0
48.009609 384.0
48.014542 168.0
48.018337 180.0
48.040016 260.0
48.045319 136.0
48.057529 120.0
48.079288 188.0
48.090279 296.0
48.121017 240.0
48.13876 152.0
48.143845 152.0
48.148914 312.0
48.159641 100.0
48.181034 184.0
48.195854 116.0
48.223808 200.0
48.241192 148.0
48.253197 176.0
48.274281 136.0
48.305752 84.0
48.316956 132.0
48.335865 204.0
48.359268 104.0
48.376106 124.0
48.392796 172.0
48.410885 200.0
48.428173 160.0
48.442081 376.0
48.45956 64.0
48.473259 208.0
48.475647 184.0
48.492344 100.0
48.509453 36.0
48.529594 160.0
48.541042 116.0
48.587692 196.0
48.597252 312.0
48.616608 224.0
48.632195 264.0
48.63792 212.0
48.64188 268.0
48.657894 92.0
48.676247 204.0
48.680389 320.0
48.696419 248.0
48.71529 124.0
48.720913 128.0
48.732697 260.0
48.746498 172.0
48.751446 92.0
48.755424 204.0
48.76738 128.0
48.784653 168.0
48.798912 208.0
48.816208 124.0
48.842327 112.0
48.862774 144.0
48.888947 272.0
48.909454 184.0
48.924515 156.0
48.937927 216.0
48.943501 220.0
48.948742 228.0
48.982876 220.0
48.992954 196.0
49.007748 148.0
49.022961 300.0
49.049953 372.0
49.065758 152.0
49.078732 104.0
49.105057 236.0
49.120838 104.0
49.133461 228.0
49.146435 60.0
49.163528 96.0
49.181004 156.0
49.202114 148.0
49.235775 168.0
49.255928 260.0
49.281773 176.0
49.304234 240.0
49.321854 336.0
49.332569 220.0
49.345158 232.0
49.358879 120.0
49.370747 180.0
49.374104 236.0
49.398987 368.0
49.414703 136.0
49.424809 144.0
49.436611 292.0
49.449661 216.0
49.464146 328.0
49.479656 252.0
49.499153 140.0
49.51059 184.0
49.515865 164.0
49.530712 84.0
49.544205 432.0
49.573448 152.0
49.578136 56.0
49.585049 136.0
49.587219 84.0
49.619968 308.0
49.655125 148.0
49.660904 172.0
49.66766 92.0
49.671627 156.0
49.677788 168.0
49.681805 148.0
49.711761 108.0
49.734219 160.0
49.745327 188.0
49.7584 124.0
49.770016 144.0
49.78495 180.0
49.798939 144.0
49.822319 184.0
49.852982 136.0
49.885223 56.0
49.889107 168.0
49.895111 128.0
49.908676 156.0
49.9202 456.0
49.93837 272.0
49.956242 48.0
49.987194 128.0
50.001816 144.0
50.005959 252.0
50.026035 168.0
50.029251 100.0
50.034836 156.0
50.039497 76.0
50.056896 132.0
50.073082 268.0
50.093914 284.0
50.106438 236.0
50.12289 132.0
50.128761 196.0
50.132961 108.0
50.149155 96.0
50.159935 200.0
50.186512 200.0
50.190392 96.0
50.213943 80.0
50.229477 108.0
50.241882 296.0
50.253197 92.0
50.276909 172.0
50.308491 192.0
50.312485 56.0
50.317978 196.0
50.346745 236.0
50.357658 196.0
50.376602 108.0
50.39188 168.0
50.407742 332.0
50.417198 176.0
50.433437 196.0
50.443993 172.0
50.466362 308.0
50.488327 104.0
50.504498 236.0
50.517208 200.0
50.52647 160.0
50.541634 228.0
50.555908 116.0
50.572891 176.0
50.592003 104.0
50.605358 116.0
50.607521 104.0
50.615547 92.0
50.629757 228.0
50.646435 152.0
50.67313 96.0
50.689781 172.0
50.699627 224.0
50.710709 280.0
50.723377 84.0
50.757908 128.0
50.772419 96.0
50.793606 160.0
50.803509 180.0
50.806999 224.0
50.823734 172.0
50.847359 148.0
50.861202 352.0
50.866589 136.0
50.869755 160.0
50.901806 172.0
50.921307 120.0
50.933891 312.0
50.944809 192.0
50.968437 176.0
50.973709 128.0
50.979317 184.0
50.990086 412.0
51.00441 264.0
51.020882 268.0
51.024284 240.0
51.031559 76.0
51.058208 284.0
51.076458 228.0
51.092403 164.0
51.113377 196.0
51.115978 228.0
51.128105 128.0
51.143494 276.0
51.160595 176.0
51.189465 180.0
51.210567 148.0
51.236057 188.0
51.249569 132.0
51.281998 216.0
51.30209 180.0
51.312817 196.0
51.326385 160.0
51.341404 256.0
51.354671 268.0
51.360191 204.0
51.365604 188.0
51.370098 204.0
51.400784 252.0
51.42123 328.0
51.426739 184.0
51.438251 264.0
51.458549 136.0
51.469955 340.0
51.484913 300.0
51.507908 172.0
51.517212 120.0
51.5327 192.0
51.548481 100.0
51.562828 136.0
51.585445 124.0
51.588184 168.0
51.616917 340.0
51.645206 260.0
51.648396 168.0
51.663338 152.0
51.674419 112.0
51.681107 124.0
51.686245 108.0
51.704601 452.0
51.710316 328.0
51.753044 124.0
51.763828 112.0
51.794346 188.0
51.816452 184.0
51.835136 200.0
51.852047 136.0
51.885094 140.0
51.902336 100.0
51.916721 240.0
51.926647 316.0
51.943932 176.0
51.962677 176.0
51.985497 220.0
52.011974 284.0
52.032227 140.0
52.044384 180.0
52.055775 120.0
52.093464 500.0
52.105453 232.0
52.107914 156.0
52.114967 136.0
52.118855 100.0
52.124557 132.0
52.13155 192.0
52.134106 124.0
52.159431 292.0
52.173912 156.0
52.185963 128.0
52.189743 88.0
52.208538 376.0
52.226357 72.0
52.239624 148.0
52.254971 24.0
52.259632 128.0
52.282944 136.0
52.29567 300.0
52.316513 140.0
52.329182 176.0
52.348282 172.0
52.364025 132.0
52.405128 184.0
52.410595 176.0
52.427998 160.0
52.446243 148.0
52.451435 228.0
52.462818 176.0
52.466454 140.0
52.489471 204.0
52.506817 224.0
52.517296 204.0
52.542953 184.0
52.553059 72.0
52.564976 172.0
52.585091 32.0
52.603184 176.0
52.620483 232.0
52.639023 140.0
52.661098 232.0
52.679337 232.0
52.696877 204.0
52.718319 328.0
52.730061 224.0
52.749908 176.0
52.764412 180.0
52.795544 180.0
52.8228 228.0
52.842236 288.0
52.852673 132.0
52.879379 288.0
52.909248 120.0
52.941433 88.0
52.955933 152.0
52.975643 104.0
52.989632 40.0
53.000938 92.0
53.017437 116.0
53.025646 124.0
53.04052 156.0
53.061928 240.0
53.075485 268.0
53.089256 232.0
53.100395 88.0
53.109524 132.0
53.119518 260.0
53.125229 136.0
53.134544 448.0
53.148048 320.0
53.152794 108.0
53.157768 212.0
53.192085 196.0
53.197052 84.0
53.200504 236.0
53.228962 124.0
53.258732 120.0
53.269886 248.0
53.28413 216.0
53.30925 232.0
53.321049 36.0
53.332771 260.0
53.354847 172.0
53.388378 40.0
53.403534 148.0
53.420086 236.0
53.438206 88.0
53.457958 140.0
53.474911 308.0
53.49321 124.0
53.5037 112.0
53.524132 408.0
53.554699 176.0
53.573662 168.0
53.584415 128.0
53.595116 124.0
53.607697 164.0
53.623032 352.0
53.645355 144.0
53.66724 80.0
53.672302 168.0
53.684277 188.0
53.70705 168.0
53.729244 112.0
53.74897 224.0
53.75309 112.0
53.766956 164.0
53.798027 232.0
53.809204 132.0
53.822575 128.0
53.833744 144.0
53.851318 200.0
53.868549 220.0
53.882782 212.0
53.904594 200.0
53.921715 196.0
53.944096 84.0
53.95911 116.0
53.976933 188.0
53.999126 252.0
54.020485 132.0
54.034321 292.0
54.062805 516.0
54.082573 368.0
54.10577 104.0
54.138317 432.0
54.16201 144.0
54.177155 136.0
54.190666 128.0
54.218998 304.0
54.23394 172.0
54.251808 288.0
54.268158 100.0
54.288677 184.0
54.309811 144.0
54.326992 292.0
54.357658 236.0
54.385986 144.0
54.400978 300.0
54.417355 372.0
54.436272 128.0
54.450905 184.0
54.461391 272.0
54.47744 152.0
54.500477 196.0
54.512646 508.0
54.530468 196.0
54.543022 144.0
54.555851 284.0
54.572037 236.0
54.590858 80.0
54.601536 200.0
54.611732 176.0
54.628727 232.0
54.643158 112.0
54.668156 320.0
54.67952 164.0
54.693821 248.0
54.704704 156.0
54.739128 116.0
54.751904 212.0
54.758732 304.0
54.786957 348.0
54.824535 68.0
54.845444 216.0
54.86068 336.0
54.872463 332.0
54.900337 152.0
54.9118 164.0
54.926914 392.0
54.935394 144.0
54.95528 100.0
54.96804 164.0
54.984303 156.0
55.009579 152.0
55.029968 244.0
55.042217 244.0
55.060787 168.0
55.0793 332.0
55.103798 220.0
55.114246 252.0
55.125854 108.0
55.137711 256.0
55.153114 680.0
55.169979 200.0
55.185516 156.0
55.196552 176.0
55.212551 88.0
55.225063 148.0
55.235374 100.0
55.248974 140.0
55.262531 372.0
55.293816 240.0
55.315708 156.0
55.336651 160.0
55.367168 188.0
55.392136 296.0
55.405579 148.0
55.42572 132.0
55.453426 196.0
55.464256 236.0
55.478271 88.0
55.50423 208.0
55.516186 356.0
55.530273 384.0
55.548779 552.0
55.559971 300.0
55.566185 120.0
55.570496 188.0
55.577553 132.0
55.587452 108.0
55.606812 108.0
55.625942 188.0
55.636333 148.0
55.662121 196.0
55.685944 240.0
55.710941 300.0
55.725117 272.0
55.740479 136.0
55.765514 244.0
55.771172 104.0
55.774181 136.0
55.794903 164.0
55.809505 156.0
55.844559 180.0
55.861614 168.0
55.87561 324.0
55.888916 204.0
55.922485 416.0
55.941563 156.0
55.960075 144.0
55.963707 260.0
55.975552 196.0
56.002644 304.0
56.019947 244.0
56.049789 284.0
56.066746 400.0
56.085785 336.0
56.103745 140.0
56.118221 336.0
56.156036 104.0
56.169575 148.0
56.194603 196.0
56.211754 240.0
56.246803 340.0
56.258411 332.0
56.270569 124.0
56.287392 276.0
56.297913 276.0
56.314564 252.0
56.334312 300.0
56.350292 148.0
56.363491 136.0
56.373634 200.0
56.400593 116.0
56.41346 128.0
56.431953 192.0
56.449352 148.0
56.456898 144.0
56.462612 136.0
56.468792 136.0
56.478451 120.0
56.497314 172.0
56.51355 240.0
56.528183 140.0
56.538265 144.0
56.54895 260.0
56.568604 204.0
56.587345 408.0
56.601871 216.0
56.624317 552.0
56.634624 540.0
56.645306 292.0
56.67944 268.0
56.701443 412.0
56.715168 148.0
56.729 132.0
56.741585 168.0
56.748775 124.0
56.759777 272.0
56.78178 220.0
56.806007 192.0
56.839573 348.0
56.855858 372.0
56.867268 120.0
56.880859 176.0
56.891106 108.0
56.92028 184.0
56.924587 328.0
56.931328 264.0
56.946743 60.0
56.951115 144.0
56.957306 92.0
56.967335 116.0
56.98035 168.0
57.00153 204.0
57.007256 64.0
57.023148 300.0
57.033981 108.0
57.040539 180.0
57.043369 100.0
57.050541 164.0
57.064228 112.0
57.090294 216.0
57.09911 132.0
57.121929 100.0
57.146103 284.0
57.151253 112.0
57.156223 164.0
57.179817 208.0
57.190937 180.0
57.203396 196.0
57.237862 272.0
57.255341 140.0
57.275654 132.0
57.297523 176.0
57.303326 152.0
57.313786 132.0
57.32589 88.0
57.33065 68.0
57.343636 236.0
57.358727 100.0
57.378876 132.0
57.401211 172.0
57.425388 140.0
57.434875 96.0
57.450966 128.0
57.485641 188.0
57.491196 124.0
57.495152 112.0
57.513832 196.0
57.535057 204.0
57.554012 284.0
57.574696 144.0
57.589649 172.0
57.60973 156.0
57.617874 144.0
57.633591 188.0
57.643921 192.0
57.662247 268.0
57.683811 64.0
57.708996 108.0
57.724331 164.0
57.727726 120.0
57.733124 172.0
57.755352 124.0
57.779167 124.0
57.806473 168.0
57.812004 152.0
57.817699 212.0
57.870872 120.0
57.884911 292.0
57.908226 284.0
57.920181 284.0
57.933372 180.0
57.952068 192.0
57.964451 216.0
57.98278 212.0
58.001514 212.0
58.026691 252.0
58.046951 112.0
58.06361 140.0
58.07233 156.0
58.096581 172.0
58.11319 196.0
58.136261 176.0
58.164112 300.0
58.169971 272.0
58.177036 132.0
58.184139 276.0
58.208508 192.0
58.220524 408.0
58.226929 84.0
58.230953 344.0
58.243057 304.0
58.256653 180.0
58.271851 216.0
58.27726 304.0
58.295681 104.0
58.321217 128.0
58.331902 184.0
58.354103 160.0
58.370209 152.0
58.398514 292.0
58.412724 244.0
58.42469 276.0
58.447495 200.0
58.465908 100.0
58.489773 108.0
58.501034 304.0
58.524406 176.0
58.545879 292.0
58.568836 232.0
58.579586 124.0
58.609829 164.0
58.642235 168.0
58.654438 280.0
58.667156 224.0
58.684937 204.0
58.720459 216.0
58.756229 156.0
58.761036 204.0
58.779346 180.0
58.799015 180.0
58.821224 276.0
58.841469 164.0
58.851315 216.0
58.871609 264.0
58.888916 148.0
58.921215 188.0
58.944237 140.0
58.964088 284.0
58.979237 344.0
58.990204 168.0
59.017296 196.0
59.022579 280.0
59.029552 296.0
59.039494 324.0
59.059982 264.0
59.096153 132.0
59.114513 96.0
59.118954 172.0
59.126953 104.0
59.134686 400.0
59.157856 324.0
59.176437 132.0
59.191147 128.0
59.202137 56.0
59.206844 132.0
59.248257 360.0
59.267014 104.0
59.287197 128.0
59.303913 212.0
59.319653 164.0
59.33569 152.0
59.359695 156.0
59.384373 196.0
59.389011 156.0
59.393986 204.0
59.414356 188.0
59.432735 100.0
59.449387 136.0
59.461567 180.0
59.485939 144.0
59.495277 264.0
59.507843 148.0
59.541725 260.0
59.553509 244.0
59.570911 44.0
59.594372 148.0
59.611973 116.0
59.62439 348.0
59.64621 204.0
59.660042 160.0
59.687866 372.0
59.710365 220.0
59.714329 92.0
59.720646 156.0
59.745049 108.0
59.767704 308.0
59.779942 132.0
59.789459 292.0
59.806767 168.0
59.81633 180.0
59.83844 176.0
59.863659 120.0
59.891838 252.0
59.913513 148.0
59.927341 148.0
59.9538 156.0
59.95816 172.0
59.97253 316.0
59.997349 148.0
60.012615 120.0
60.03883 140.0
60.075825 284.0
60.086708 156.0
60.123589 204.0
60.138599 60.0
60.156094 184.0
60.17643 164.0
60.193275 296.0
60.208282 240.0
60.224247 176.0
60.253273 108.0
60.255318 128.0
60.262547 168.0
60.28466 168.0
60.295269 232.0
60.31461 412.0
60.327274 188.0
60.345974 200.0
60.363567 184.0
60.376534 100.0
60.389828 240.0
60.409733 400.0
60.420853 188.0
60.450264 220.0
60.468567 152.0
60.486507 188.0
60.501083 200.0
60.507458 116.0
60.510899 232.0
60.538479 152.0
60.557522 356.0
60.578972 88.0
60.593414 124.0
60.605186 160.0
60.620987 128.0
60.638237 148.0
60.668152 40.0
60.672653 208.0
60.691715 152.0
60.710922 124.0
60.72924 232.0
60.753563 160.0
60.778755 88.0
60.7911 164.0
60.832756 340.0
60.865818 300.0
60.886936 72.0
60.907154 156.0
60.93544 176.0
60.963882 136.0
60.980587 164.0
60.992592 124.0
61.019226 328.0
61.061371 152.0
61.094688 176.0
61.130871 120.0
61.150391 212.0
61.160671 204.0
61.191998 112.0
61.20792 128.0
61.227459 248.0
61.247101 156.0
61.262264 304.0
61.279716 128.0
61.294331 164.0
61.299744 204.0
61.321911 160.0
61.342377 272.0
61.369106 160.0
61.383373 252.0
61.403236 304.0
61.40955 224.0
61.412483 164.0
61.427303 252.0
61.471951 132.0
61.481892 184.0
61.497421 116.0
61.515991 48.0
61.532383 136.0
61.564663 140.0
61.586262 292.0
61.60519 68.0
61.636131 228.0
61.649132 116.0
61.662819 116.0
61.685787 156.0
61.698574 156.0
61.701473 88.0
61.72633 160.0
61.742165 112.0
61.767582 52.0
61.801998 68.0
61.820919 96.0
61.834198 132.0
61.851833 152.0
61.87117 144.0
61.894531 140.0
61.92622 516.0
61.941738 264.0
61.966446 140.0
61.980942 272.0
61.997974 108.0
62.003384 140.0
62.010342 100.0
62.01527 148.0
62.041084 192.0
62.058022 272.0
62.070549 124.0
62.075901 56.0
62.079475 88.0
62.105412 208.0
62.117481 76.0
62.124275 80.0
62.14167 132.0
62.15498 388.0
62.180592 156.0
62.204674 116.0
62.229237 312.0
62.286648 148.0
62.304596 164.0
62.324512 148.0
62.338409 156.0
62.348068 148.0
62.365002 72.0
62.38588 128.0
62.39204 160.0
62.413307 204.0
62.467209 160.0
62.480247 160.0
62.504829 176.0
62.516617 428.0
62.530998 52.0
62.55685 272.0
62.573551 212.0
62.578621 96.0
62.583931 148.0
62.594769 132.0
62.611111 324.0
62.625969 144.0
62.648746 376.0
62.672276 192.0
62.694798 236.0
62.718636 144.0
62.724415 264.0
62.729984 204.0
62.765667 284.0
62.785107 248.0
62.814117 196.0
62.827518 172.0
62.84343 240.0
62.869625 176.0
62.896385 172.0
62.913208 312.0
62.927345 460.0
62.951084 236.0
62.967228 144.0
62.984673 168.0
63.019104 260.0
63.037968 144.0
63.071346 272.0
63.086967 68.0
63.104168 168.0
63.111847 76.0
63.116467 152.0
63.148266 172.0
63.165798 80.0
63.184265 236.0
63.208393 216.0
63.227398 132.0
63.243626 112.0
63.266853 124.0
63.276215 232.0
63.295574 212.0
63.332241 84.0
63.357395 164.0
63.363106 132.0
63.36763 200.0
63.381351 124.0
63.403461 84.0
63.407974 80.0
63.419041 92.0
63.429829 116.0
63.463192 144.0
63.493423 152.0
63.522217 172.0
63.550926 72.0
63.567886 120.0
63.577839 204.0
63.595154 108.0
63.607868 136.0
63.628723 104.0
63.668484 372.0
63.681187 72.0
63.698471 136.0
63.725925 124.0
63.778236 180.0
63.800365 60.0
63.811497 148.0
63.834373 144.0
63.857426 136.0
63.877228 120.0
63.894417 224.0
63.91761 148.0
63.925186 128.0
63.949959 100.0
63.972019 168.0
64.007744 360.0
64.022209 180.0
64.040176 120.0
64.053055 216.0
64.087334 260.0
64.091438 164.0
64.110191 132.0
64.137848 88.0
64.15451 316.0
64.163727 188.0
64.179344 412.0
64.194084 132.0
64.217529 144.0
64.228416 100.0
64.250221 348.0
64.265213 116.0
64.284401 160.0
64.297234 116.0
64.309006 236.0
64.330444 148.0
64.344032 144.0
64.361534 128.0
64.390457 248.0
64.406967 128.0
64.419434 112.0
64.434349 120.0
64.449547 172.0
64.466629 152.0
64.487579 224.0
64.499397 200.0
64.509491 308.0
64.535927 156.0
64.540901 336.0
64.5616 196.0
64.577904 120.0
64.596352 60.0
64.612457 140.0
64.624069 104.0
64.644386 156.0
64.680984 300.0
64.720322 148.0
64.732811 136.0
64.74958 120.0
64.764053 120.0
64.775711 236.0
64.799736 204.0
64.816101 124.0
64.835991 120.0
64.846947 264.0
64.870033 104.0
64.886719 248.0
64.904442 136.0
64.918686 136.0
64.934708 132.0
64.951645 116.0
64.955116 212.0
64.96833 132.0
65.002113 128.0
65.014954 320.0
65.033585 32.0
65.04789 356.0
65.062607 204.0
65.074577 172.0
65.10347 244.0
65.115341 108.0
65.12925 316.0
65.148544 392.0
65.179733 120.0
65.204994 176.0
65.215622 236.0
65.243988 204.0
65.262276 136.0
65.277145 80.0
65.294998 156.0
65.316544 272.0
65.336212 124.0
65.354897 240.0
65.377258 148.0
65.405151 196.0
65.42778 164.0
65.455254 128.0
65.471924 176.0
65.49234 256.0
65.502754 216.0
65.518684 356.0
65.543396 44.0
65.561394 116.0
65.565735 80.0
65.584221 192.0
65.602119 168.0
65.609131 284.0
65.636002 116.0
65.675392 416.0
65.690224 164.0
65.718071 132.0
65.742546 156.0
65.752815 144.0
65.7714 124.0
65.799179 144.0
65.812737 208.0
65.831306 224.0
65.845093 148.0
65.858826 440.0
65.877495 252.0
65.898796 336.0
65.913277 328.0
65.928154 224.0
65.945343 268.0
65.979752 172.0
66.006897 188.0
66.026627 456.0
66.045189 220.0
66.065605 164.0
66.097595 76.0
66.11544 84.0
66.119156 60.0
66.133896 136.0
66.161606 212.0
66.171707 176.0
66.186897 180.0
66.204239 92.0
66.218964 176.0
66.241348 184.0
66.256126 164.0
66.268387 232.0
66.292633 160.0
66.307365 296.0
66.325356 240.0
66.353981 220.0
66.37645 236.0
66.398361 152.0
66.415855 156.0
66.460709 200.0
66.467606 156.0
66.47374 156.0
66.50045 116.0
66.517021 128.0
66.528458 132.0
66.556374 272.0
66.568787 104.0
66.575241 128.0
66.598305 200.0
66.614456 116.0
66.627548 188.0
66.645325 52.0
66.663895 176.0
66.683075 356.0
66.697906 276.0
66.739853 76.0
66.75502 124.0
66.782143 172.0
66.820923 208.0
66.836205 112.0
66.857498 100.0
66.867416 112.0
66.885872 92.0
66.901268 120.0
66.916283 108.0
66.940994 96.0
66.955421 396.0
66.973335 224.0
66.992142 420.0
67.012947 132.0
67.020233 184.0
67.040459 160.0
67.051964 160.0
67.066566 152.0
67.084244 128.0
67.098206 132.0
67.115311 120.0
67.140488 156.0
67.155563 104.0
67.170868 144.0
67.193329 264.0
67.220291 208.0
67.241119 88.0
67.24369 156.0
67.266586 124.0
67.278885 60.0
67.291359 156.0
67.316589 144.0
67.328979 164.0
67.349739 308.0
67.376152 304.0
67.389816 100.0
67.403015 208.0
67.416466 256.0
67.433762 172.0
67.448776 152.0
67.461266 88.0
67.469086 76.0
67.476189 120.0
67.483109 48.0
67.513245 196.0
67.526138 284.0
67.545021 112.0
67.566345 72.0
67.578903 248.0
67.5933 204.0
67.603638 60.0
67.621468 428.0
67.637413 288.0
67.675941 136.0
67.701759 136.0
67.72773 208.0
67.754837 108.0
67.77179 188.0
67.791527 252.0
67.815613 124.0
67.843086 344.0
67.862999 160.0
67.88446 148.0
67.902328 172.0
67.938126 216.0
67.954987 316.0
67.97287 76.0
67.99263 132.0
68.013695 132.0
68.025925 248.0
68.044167 228.0
68.067757 288.0
68.086922 76.0
68.112152 196.0
68.125603 180.0
68.132561 124.0
68.136993 92.0
68.152115 148.0
68.177734 224.0
68.182419 168.0
68.18766 152.0
68.208496 232.0
68.244133 188.0
68.262489 180.0
68.288132 220.0
68.297272 140.0
68.317101 212.0
68.332451 152.0
68.360069 100.0
68.371239 132.0
68.388245 392.0
68.398766 204.0
68.41774 224.0
68.431465 132.0
68.444115 88.0
68.462685 272.0
68.476738 104.0
68.49826 180.0
68.516312 132.0
68.538612 160.0
68.557739 140.0
68.579025 272.0
68.593155 156.0
68.618309 404.0
68.637428 304.0
68.666489 388.0
68.676033 108.0
68.704521 148.0
68.717064 204.0
68.73362 188.0
68.744972 212.0
68.76049 148.0
68.76474 236.0
68.789482 232.0
68.821205 84.0
68.826561 164.0
68.8424 192.0
68.855133 100.0
68.862671 124.0
68.865822 92.0
68.889908 192.0
68.896065 132.0
68.898605 96.0
68.913803 192.0
68.942062 204.0
68.972069 276.0
69.000214 212.0
69.003357 168.0
69.022179 140.0
69.034698 140.0
69.046883 408.0
69.064362 148.0
69.085022 148.0
69.118843 188.0
69.13913 160.0
69.159492 96.0
69.172218 176.0
69.189697 372.0
69.200623 248.0
69.214127 236.0
69.247017 172.0
69.250931 124.0
69.270088 152.0
69.301376 112.0
69.310066 308.0
69.359161 72.0
69.395561 344.0
69.416931 144.0
69.444588 172.0
69.461662 172.0
69.475548 88.0
69.479004 64.0
69.49131 104.0
69.500549 100.0
69.514854 224.0
69.541077 192.0
69.57225 64.0
69.584984 156.0
69.609497 204.0
69.629181 224.0
69.644836 256.0
69.672577 88.0
69.675682 272.0
69.683525 128.0
69.704796 60.0
69.724106 160.0
69.740112 308.0
69.76796 404.0
69.785309 128.0
69.802704 172.0
69.834 240.0
69.845543 120.0
69.866783 176.0
69.881279 256.0
69.910355 184.0
69.930031 124.0
69.958626 116.0
69.970741 276.0
69.984924 160.0
70.000626 228.0
70.004929 144.0
70.025597 260.0
70.043083 460.0
70.071991 256.0
70.095718 276.0
70.109901 312.0
70.120605 192.0
70.13604 232.0
70.148956 96.0
70.187996 200.0
70.229446 160.0
70.254578 296.0
70.273949 272.0
70.289314 132.0
70.293434 152.0
70.325188 252.0
70.341835 156.0
70.359573 460.0
70.381424 204.0
70.40403 88.0
70.417313 108.0
70.43367 428.0
70.448227 136.0
70.461594 48.0
70.475121 188.0
70.501534 320.0
70.519135 340.0
70.536171 376.0
70.561249 132.0
70.572899 164.0
70.612862 208.0
70.633698 152.0
70.639038 192.0
70.667953 340.0
70.698524 340.0
70.711945 180.0
70.729401 168.0
70.753777 108.0
70.769859 104.0
70.791161 184.0
70.806709 204.0
70.812004 84.0
70.824501 220.0
70.845169 176.0
70.865692 136.0
70.89045 168.0
70.921326 100.0
70.938194 204.0
70.957756 220.0
70.970619 248.0
70.982559 216.0
71.014992 112.0
71.031075 168.0
71.048508 52.0
71.081261 208.0
71.116615 140.0
71.139343 156.0
71.160004 356.0
71.174217 104.0
71.195961 356.0
71.218781 132.0
71.238174 132.0
71.256035 208.0
71.261345 108.0
71.266167 136.0
71.285988 88.0
71.304207 180.0
71.328247 196.0
71.353218 112.0
71.373291 212.0
71.381805 132.0
71.40464 264.0
71.416504 76.0
71.421112 356.0
71.438774 252.0
71.474266 124.0
71.489586 168.0
71.520439 428.0
71.545563 208.0
71.566185 188.0
71.585228 68.0
71.597557 256.0
71.61586 216.0
71.630424 188.0
71.645058 100.0
71.673943 272.0
71.694237 88.0
71.724831 124.0
71.746864 136.0
71.757072 244.0
71.794685 148.0
71.811584 244.0
71.832756 280.0
71.854782 180.0
71.881645 264.0
71.904549 260.0
71.917145 112.0
71.932999 308.0
71.957306 180.0
71.970619 164.0
71.986076 116.0
72.011932 116.0
72.033661 360.0
72.04731 124.0
72.065933 376.0
72.100967 176.0
72.119827 328.0
72.149239 408.0
72.171455 180.0
72.188927 176.0
72.201492 148.0
72.241516 204.0
72.257126 160.0
72.275833 136.0
72.289993 164.0
72.308464 268.0
72.333649 208.0
72.346886 372.0
72.374008 124.0
72.397133 140.0
72.401863 284.0
72.417755 72.0
72.435715 140.0
72.456841 172.0
72.480003 140.0
72.496666 108.0
72.504257 120.0
72.515869 324.0
72.532211 164.0
72.549706 232.0
72.573776 152.0
72.58564 116.0
72.593941 96.0
72.609558 92.0
72.621429 104.0
72.665504 140.0
72.684204 140.0
72.697777 248.0
72.713364 132.0
72.721077 208.0
72.735115 316.0
72.771706 180.0
72.784401 304.0
72.799721 156.0
72.818321 96.0
72.848755 100.0
72.866501 244.0
72.883385 160.0
72.909073 144.0
72.933441 208.0
72.959602 56.0
72.974655 272.0
72.986824 264.0
72.999161 280.0
73.017258 156.0
73.029182 252.0
73.050735 120.0
73.064217 304.0
73.083435 164.0
73.095787 112.0
73.117195 232.0
73.143929 324.0
73.164978 204.0
73.170586 176.0
73.183594 276.0
73.200409 172.0
73.227287 120.0
73.264923 312.0
73.279808 328.0
73.291245 116.0
73.30677 72.0
73.335381 76.0
73.362831 176.0
73.406479 172.0
73.430084 136.0
73.452415 320.0
73.466957 320.0
73.479271 180.0
73.508629 116.0
73.5317 224.0
73.547279 248.0
73.564064 164.0
73.579033 176.0
73.601288 144.0
73.623108 140.0
73.649879 168.0
73.669388 192.0
73.679733 296.0
73.704147 232.0
73.739418 136.0
73.770348 320.0
73.796188 140.0
73.801407 132.0
73.809593 156.0
73.830086 172.0
73.866264 144.0
73.870842 200.0
73.877151 296.0
73.913277 200.0
73.926483 192.0
73.942802 112.0
73.96019 120.0
73.980217 112.0
73.992386 180.0
74.022278 340.0
74.030121 164.0
74.033447 316.0
74.047523 192.0
74.068947 172.0
74.1091 124.0
74.137474 216.0
74.163841 288.0
74.19091 156.0
74.213264 96.0
74.233643 440.0
74.268738 180.0
74.294479 156.0
74.312401 184.0
74.34774 300.0
74.384521 140.0
74.397453 356.0
74.404228 168.0
74.410034 200.0
74.419716 108.0
74.425468 152.0
74.446465 280.0
74.469116 244.0
74.481956 252.0
74.511826 216.0
74.525719 176.0
74.542694 168.0
74.557907 280.0
74.578659 152.0
74.618103 192.0
74.635735 252.0
74.65255 116.0
74.6661 184.0
74.695282 216.0
74.721497 124.0
74.735252 176.0
74.740166 116.0
74.746536 196.0
74.765526 136.0
74.791603 260.0
74.803741 220.0
74.829865 112.0
74.85038 320.0
74.872421 96.0
74.878777 52.0
74.887146 212.0
74.893829 140.0
74.906067 276.0
74.927597 396.0
74.94384 148.0
74.965622 212.0
74.978622 172.0
75.011154 168.0
75.022614 184.0
75.038994 248.0
75.053909 144.0
75.075165 176.0
75.095413 208.0
75.11631 340.0
75.143089 108.0
75.162033 204.0
75.18412 240.0
75.187378 64.0
75.190025 144.0
75.21241 96.0
75.232796 404.0
75.259895 224.0
75.264618 196.0
75.287674 164.0
75.303596 216.0
75.322594 192.0
75.34491 96.0
75.350044 72.0
75.35585 160.0
75.370613 156.0
75.401756 260.0
75.415489 184.0
75.433769 272.0
75.448051 256.0
75.463516 248.0
75.489845 172.0
75.504181 200.0
75.518784 132.0
75.521851 192.0
75.530022 76.0
75.536346 116.0
75.553284 372.0
75.566254 252.0
75.594383 228.0
75.614807 160.0
75.637192 184.0
75.641365 116.0
75.658455 224.0
75.675911 364.0
75.687462 124.0
75.719292 292.0
75.756004 352.0
75.776939 168.0
75.801842 124.0
75.822487 224.0
75.840698 188.0
75.864906 332.0
75.885124 264.0
75.900009 76.0
75.906693 148.0
75.92041 212.0
75.924263 84.0
75.932251 264.0
75.939194 124.0
75.943863 48.0
75.963081 240.0
75.984749 188.0
76.001183 192.0
76.013733 192.0
76.027016 104.0
76.034103 176.0
76.054543 136.0
76.08371 300.0
76.096718 176.0
76.123459 148.0
76.141083 204.0
76.157127 132.0
76.176559 164.0
76.181725 76.0
76.189865 76.0
76.206848 136.0
76.23394 252.0
76.257156 204.0
76.275658 144.0
76.303055 84.0
76.31424 124.0
76.320183 228.0
76.34761 176.0
76.35318 156.0
76.35775 148.0
76.381699 156.0
76.402412 180.0
76.415985 260.0
76.439972 364.0
76.478485 132.0
76.494591 140.0
76.513428 168.0
76.533783 108.0
76.553673 324.0
76.572075 152.0
76.593536 172.0
76.623924 64.0
76.64122 232.0
76.663986 188.0
76.673889 128.0
76.690926 124.0
76.712807 128.0
76.717186 88.0
76.759041 168.0
76.779259 144.0
76.811111 280.0
76.841507 236.0
76.867592 160.0
76.881363 204.0
76.900421 268.0
76.925079 224.0
76.93914 312.0
76.943672 148.0
76.952225 100.0
76.95578 324.0
76.980148 80.0
77.005493 232.0
77.033211 104.0
77.055885 232.0
77.089523 200.0
77.107071 124.0
77.132469 176.0
77.149521 156.0
77.165886 184.0
77.169914 156.0
77.193657 68.0
77.216438 148.0
77.228569 244.0
77.244102 292.0
77.250999 76.0
77.255493 88.0
77.280151 260.0
77.304276 68.0
77.319008 204.0
77.337944 228.0
77.35128 148.0
77.366051 300.0
77.392662 260.0
77.42366 160.0
77.426216 96.0
77.429527 156.0
77.433861 276.0
77.46402 212.0
77.491173 88.0
77.502815 248.0
77.518684 140.0
77.535858 296.0
77.564156 112.0
77.579987 188.0
77.601593 132.0
77.608986 56.0
77.627663 156.0
77.671951 116.0
77.694672 252.0
77.710251 116.0
77.713959 64.0
77.717499 152.0
77.737953 252.0
77.752831 112.0
77.76004 68.0
77.773361 184.0
77.795456 108.0
77.817421 344.0
77.833763 136.0
77.877136 344.0
77.901443 232.0
77.916901 312.0
77.938538 208.0
77.986923 248.0
78.020988 356.0
78.054588 164.0
78.061066 164.0
78.083191 264.0
78.097206 128.0
78.115425 160.0
78.150665 296.0
78.17363 132.0
78.218384 204.0
78.249039 176.0
78.277214 72.0
78.293503 112.0
78.318665 224.0
78.332832 284.0
78.351425 60.0
78.376862 320.0
78.379738 336.0
78.40023 168.0
78.420799 232.0
78.439217 232.0
78.458862 128.0
78.469933 128.0
78.486855 340.0
78.507332 212.0
78.531288 312.0
78.545692 336.0
78.561722 76.0
78.594292 132.0
78.628273 476.0
78.639946 156.0
78.667007 148.0
78.686096 156.0
78.726852 168.0
78.733788 164.0
78.737869 152.0
78.773003 76.0
78.785881 356.0
78.799652 236.0
78.831596 164.0
78.853493 184.0
78.880028 136.0
78.912689 84.0
78.930305 76.0
78.941711 216.0
78.968498 188.0
78.989319 144.0
79.015129 124.0
79.030075 164.0
79.045319 168.0
79.051414 140.0
79.059059 108.0
79.069427 124.0
79.085625 120.0
79.09269 112.0
79.10527 84.0
79.120705 140.0
79.138321 120.0
79.157967 304.0
79.184242 160.0
79.191277 176.0
79.204926 116.0
79.22625 204.0
79.248772 252.0
79.26564 204.0
79.282394 168.0
79.299034 124.0
79.328621 144.0
79.333954 200.0
79.361122 136.0
79.391487 60.0
79.414261 32.0
79.418571 104.0
79.425873 104.0
79.445389 264.0
79.462959 176.0
79.477974 144.0
79.496628 204.0
79.548622 88.0
79.567131 192.0
79.616333 284.0
79.630127 168.0
79.650902 276.0
79.671432 136.0
79.68969 68.0
79.70652 92.0
79.73851 160.0
79.754051 112.0
79.771568 80.0
79.792824 124.0
79.814499 172.0
79.830482 136.0
79.843971 208.0
79.850883 136.0
79.858765 208.0
79.874313 180.0
79.88752 92.0
79.916061 220.0
79.932442 124.0
79.971909 252.0
79.979042 192.0
79.982422 164.0
80.00177 244.0
80.014229 180.0
80.041206 524.0
80.068466 244.0
80.087944 332.0
80.112732 324.0
80.138542 452.0
80.156723 68.0
80.177574 156.0
80.191383 188.0
80.20961 320.0
80.231445 52.0
80.273933 308.0
80.314995 224.0
80.34713 320.0
80.387726 88.0
80.420456 136.0
80.44648 76.0
80.468758 128.0
80.487305 160.0
80.499893 96.0
80.523109 292.0
80.544914 420.0
80.565933 92.0
80.5793 316.0
80.592926 128.0
80.607201 108.0
80.635742 292.0
80.652275 116.0
80.662865 352.0
80.679543 100.0
80.690788 224.0
80.719025 148.0
80.742844 348.0
80.782669 156.0
80.796371 148.0
80.81707 172.0
80.829796 220.0
80.844276 220.0
80.8741 148.0
80.891869 216.0
80.916557 288.0
80.934387 248.0
80.974716 168.0
80.99688 128.0
81.010918 92.0
81.044838 136.0
81.072845 172.0
81.08725 228.0
81.110504 152.0
81.130234 168.0
81.154137 60.0
81.169273 100.0
81.194252 260.0
81.213127 148.0
81.237221 356.0
81.257805 148.0
81.268768 308.0
81.280739 228.0
81.292999 180.0
81.307549 200.0
81.311806 184.0
81.317963 296.0
81.341209 272.0
81.361427 336.0
81.380157 168.0
81.411896 280.0
81.445717 276.0
81.469414 332.0
81.499756 224.0
81.524551 288.0
81.5383 364.0
81.569183 176.0
81.583504 244.0
81.615852 300.0
81.648567 100.0
81.653893 108.0
81.67347 112.0
81.708412 172.0
81.728317 108.0
81.759094 52.0
81.774574 240.0
81.792877 112.0
81.81842 148.0
81.831963 116.0
81.865723 364.0
81.878334 92.0
81.913864 88.0
81.936966 88.0
81.956772 120.0
81.993698 224.0
82.007225 420.0
82.028076 264.0
82.051552 148.0
82.0681 156.0
82.086456 204.0
82.108833 196.0
82.131622 128.0
82.143333 332.0
82.167625 184.0
82.198532 288.0
82.241913 116.0
82.249168 224.0
82.262856 264.0
82.33078 324.0
82.359116 208.0
82.366096 104.0
82.382484 144.0
82.387505 172.0
82.405281 156.0
82.422989 108.0
82.429924 116.0
82.465508 144.0
82.483376 120.0
82.505013 160.0
82.527267 176.0
82.548668 108.0
82.551979 124.0
82.560081 132.0
82.579483 116.0
82.608551 248.0
82.637321 272.0
82.659508 428.0
82.6838 176.0
82.696861 436.0
82.726624 40.0
82.75457 324.0
82.76931 164.0
82.78714 220.0
82.807457 372.0
82.835403 244.0
82.85305 136.0
82.86293 64.0
82.887634 132.0
82.902779 192.0
82.930016 256.0
82.947388 164.0
82.954597 112.0
82.959846 312.0
82.972343 176.0
82.99102 120.0
83.008675 416.0
83.022896 140.0
83.046997 200.0
83.080215 184.0
83.083138 168.0
83.100327 160.0
83.131226 216.0
83.15007 272.0
83.16658 192.0
83.185387 100.0
83.199966 80.0
83.204155 328.0
83.229652 96.0
83.233917 144.0
83.243408 120.0
83.247734 232.0
83.261436 256.0
83.268013 192.0
83.300354 68.0
83.334854 48.0
83.361809 180.0
83.391983 132.0
83.395653 128.0
83.409943 264.0
83.443184 152.0
83.459015 220.0
83.467979 128.0
83.477997 144.0
83.489639 164.0
83.526344 168.0
83.548622 180.0
83.564735 120.0
83.584236 124.0
83.602814 184.0
83.625275 244.0
83.644455 148.0
83.671814 184.0
83.675102 132.0
83.695618 120.0
83.730736 440.0
83.750969 216.0
83.789406 160.0
83.813591 248.0
83.84771 124.0
83.878944 148.0
83.902718 260.0
83.919586 196.0
83.94001 108.0
83.959267 296.0
83.9646 128.0
83.999565 328.0
84.015472 132.0
84.045914 128.0
84.080818 120.0
84.11293 116.0
84.118454 184.0
84.123489 344.0
84.137177 116.0
84.149399 132.0
84.179192 200.0
84.193863 172.0
84.231133 260.0
84.259521 112.0
84.283119 112.0
84.31514 172.0
84.322525 312.0
84.341591 128.0
84.349213 264.0
84.354248 212.0
84.402763 168.0
84.418343 116.0
84.44474 100.0
84.475716 252.0
84.494751 140.0
84.509895 220.0
84.537781 168.0
84.552681 564.0
84.570984 104.0
84.593834 128.0
84.616188 176.0
84.643509 268.0
84.661942 300.0
84.681778 124.0
84.702652 176.0
84.733421 108.0
84.747292 280.0
84.760696 292.0
84.780037 132.0
84.798668 172.0
84.825554 164.0
84.848671 164.0
84.871544 268.0
84.889206 156.0
84.91539 140.0
84.943619 144.0
84.971779 136.0
84.994118 164.0
85.012611 204.0
85.019653 120.0
85.022469 288.0
85.045311 128.0
85.05056 100.0
85.065445 64.0
85.08577 200.0
85.088654 204.0
85.119148 124.0
85.135506 172.0
85.158051 328.0
85.172798 152.0
85.205475 136.0
85.235268 188.0
85.26992 196.0
85.294067 128.0
85.329384 336.0
85.334305 304.0
85.361969 356.0
85.386948 292.0
85.409142 108.0
85.429764 64.0
85.434181 140.0
85.44191 120.0
85.462524 384.0
85.495827 216.0
85.519936 176.0
85.545357 128.0
85.559875 120.0
85.577087 168.0
85.593575 108.0
85.610146 212.0
85.633591 148.0
85.651749 212.0
85.676605 100.0
85.697121 56.0
85.716721 332.0
85.74073 172.0
85.764763 108.0
85.79023 136.0
85.802757 120.0
85.823021 352.0
85.845963 200.0
85.876312 160.0
85.90136 176.0
85.918396 240.0
85.950615 236.0
85.981476 328.0
86.010979 424.0
86.028694 92.0
86.041618 412.0
86.057289 288.0
86.080788 140.0
86.100708 120.0
86.132843 200.0
86.148193 336.0
86.162125 244.0
86.167648 132.0
86.219841 208.0
86.238487 168.0
86.259605 64.0
86.27948 160.0
86.286537 120.0
86.291992 108.0
86.299149 176.0
86.321777 160.0
86.344368 148.0
86.356979 144.0
86.369865 112.0
86.394119 284.0
86.398964 124.0
86.423515 268.0
86.445648 300.0
86.467209 168.0
86.484818 228.0
86.5131 256.0
86.536186 160.0
86.575447 224.0
86.597267 116.0
86.616341 224.0
86.639214 124.0
86.672943 172.0
86.690887 400.0
86.762909 92.0
86.78183 156.0
86.809372 176.0
86.842957 100.0
86.866402 124.0
86.880257 276.0
86.907814 124.0
86.922661 356.0
86.948769 208.0
86.982307 256.0
86.988647 136.0
86.997894 160.0
87.020668 80.0
87.044533 144.0
87.061859 160.0
87.088928 168.0
87.092201 120.0
87.112137 148.0
87.139908 124.0
87.164093 340.0
87.180298 236.0
87.19709 272.0
87.224358 100.0
87.255135 136.0
87.284103 256.0
87.326416 348.0
87.348671 148.0
87.374687 172.0
87.391121 188.0
87.408279 120.0
87.431641 128.0
87.444023 120.0
87.467285 212.0
87.479584 136.0
87.507133 108.0
87.51413 120.0
87.546219 396.0
87.569839 204.0
87.583969 280.0
87.599129 204.0
87.603996 228.0
87.611267 156.0
87.637405 204.0
87.659897 192.0
87.677681 84.0
87.706924 116.0
87.73674 184.0
87.754341 160.0
87.778915 380.0
87.797752 128.0
87.815079 184.0
87.830307 168.0
87.856064 168.0
87.875748 220.0
87.895622 268.0
87.918785 128.0
87.925232 152.0
87.93158 88.0
87.955589 72.0
87.976997 128.0
87.993401 220.0
88.038719 176.0
88.061424 348.0
88.068298 176.0
88.072372 208.0
88.108208 152.0
88.11319 300.0
88.129456 244.0
88.151527 172.0
88.175995 152.0
88.190498 168.0
88.224426 180.0
88.246513 132.0
88.275681 172.0
88.305954 368.0
88.321434 196.0
88.330688 160.0
88.359245 316.0
88.376884 56.0
88.406296 132.0
88.436699 164.0
88.455269 236.0
88.483749 144.0
88.518188 144.0
88.550179 268.0
88.579475 432.0
88.596657 168.0
88.601059 400.0
88.608223 240.0
88.613213 248.0
88.638626 264.0
88.660378 308.0
88.688408 440.0
88.706139 120.0
88.727577 88.0
88.754234 104.0
88.761673 136.0
88.765442 188.0
88.784454 184.0
88.803017 108.0
88.832733 200.0
88.837669 108.0
88.846313 196.0
88.866272 104.0
88.882187 128.0
88.915726 304.0
88.922691 244.0
88.947685 132.0
88.970329 128.0
88.995651 156.0
89.017159 144.0
89.03791 152.0
89.053673 72.0
89.067467 144.0
89.07692 88.0
89.089989 320.0
89.135269 252.0
89.181839 116.0
89.202843 184.0
89.241257 196.0
89.254616 104.0
89.262306 96.0
89.265541 204.0
89.285767 304.0
89.309441 332.0
89.351059 188.0
89.36618 240.0
89.386955 300.0
89.411362 208.0
89.429008 228.0
89.449409 124.0
89.48362 268.0
89.510506 168.0
89.527481 140.0
89.545616 88.0
89.567307 188.0
89.580521 268.0
89.597351 216.0
89.624001 244.0
89.640816 172.0
89.65731 128.0
89.672096 316.0
89.688416 80.0
89.708191 156.0
89.72908 112.0
89.778702 192.0
89.814171 192.0
89.842972 204.0
89.846397 92.0
89.85376 264.0
89.88488 284.0
89.92775 292.0
89.944107 204.0
89.969894 212.0
89.986343 140.0
90.013741 216.0
90.047501 120.0
90.058281 84.0
90.089905 92.0
90.106117 152.0
90.123947 120.0
90.140182 156.0
90.156494 196.0
90.169411 300.0
90.182678 136.0
90.19841 124.0
90.209511 276.0
90.221703 180.0
90.248062 92.0
90.26236 84.0
90.274246 136.0
90.311951 176.0
90.337418 260.0
90.377693 188.0
90.419472 152.0
90.455711 196.0
90.488579 216.0
90.512711 276.0
90.528877 184.0
90.535957 252.0
90.553246 160.0
90.567299 196.0
90.569954 288.0
90.593224 232.0
90.616707 248.0
90.646721 384.0
90.669456 288.0
90.699295 152.0
90.714272 108.0
90.735451 264.0
90.765884 196.0
90.794327 160.0
90.826477 184.0
90.833572 236.0
90.85788 176.0
90.886726 196.0
90.901497 248.0
90.917091 204.0
90.93692 252.0
90.942039 144.0
90.975151 136.0
90.985359 128.0
91.002129 308.0
91.019684 108.0
91.039749 124.0
91.0606 116.0
91.080719 88.0
91.1063 136.0
91.12899 56.0
91.148979 104.0
91.175354 40.0
91.197403 188.0
91.218178 348.0
91.247589 80.0
91.268547 104.0
91.295593 68.0
91.309174 168.0
91.324577 204.0
91.353233 128.0
91.382118 148.0
91.399445 252.0
91.413071 100.0
91.425888 148.0
91.450493 168.0
91.470039 120.0
91.494156 140.0
91.516304 112.0
91.536789 240.0
91.550285 200.0
91.581596 128.0
91.614006 236.0
91.640373 192.0
91.663849 264.0
91.682732 184.0
91.702034 184.0
91.718254 100.0
91.732285 160.0
91.761597 192.0
91.779228 176.0
91.796364 312.0
91.810226 296.0
91.845535 72.0
91.870193 280.0
91.894867 128.0
91.920799 232.0
91.938469 120.0
91.969475 176.0
91.986084 392.0
92.013176 152.0
92.033432 156.0
92.062035 204.0
92.077759 136.0
92.084396 120.0
92.093201 56.0
92.113106 140.0
92.137344 276.0
92.15551 284.0
92.163155 132.0
92.203209 128.0
92.208725 92.0
92.231758 284.0
92.25412 188.0
92.269691 128.0
92.291679 48.0
92.310989 172.0
92.334435 112.0
92.347054 352.0
92.383858 164.0
92.400925 172.0
92.415421 384.0
92.43412 576.0
92.446915 252.0
92.470291 200.0
92.494537 208.0
92.513016 140.0
92.532761 128.0
92.556816 176.0
92.571495 416.0
92.606903 188.0
92.639168 320.0
92.646637 268.0
92.663597 228.0
92.688202 104.0
92.712273 112.0
92.741875 368.0
92.756462 108.0
92.77224 116.0
92.807884 104.0
92.821198 112.0
92.826645 116.0
92.851387 100.0
92.872337 180.0
92.905327 140.0
92.926781 220.0
92.948853 344.0
92.970284 332.0
92.997795 236.0
93.018631 344.0
93.055626 152.0
93.087883 96.0
93.10125 160.0
93.12368 132.0
93.148781 284.0
93.162727 140.0
93.188431 200.0
93.191483 260.0
93.223534 296.0
93.254868 232.0
93.292694 480.0
93.316856 160.0
93.344398 128.0
93.363449 320.0
93.404411 220.0
93.425186 152.0
93.44442 92.0
93.475708 148.0
93.50177 304.0
93.520973 264.0
93.555061 136.0
93.576927 128.0
93.608574 68.0
93.645622 152.0
93.658508 208.0
93.695053 172.0
93.713974 104.0
93.745293 160.0
93.769432 216.0
93.772415 148.0
93.800858 164.0
93.819717 180.0
93.822548 180.0
93.845787 172.0
93.861526 108.0
93.883171 160.0
93.913788 364.0
93.93116 240.0
93.949524 116.0
93.981133 252.0
94.005959 284.0
94.025925 104.0
94.052574 196.0
94.068382 136.0
94.078712 148.0
94.127586 296.0
94.158173 204.0
94.175583 268.0
94.205994 160.0
94.233528 160.0
94.250381 176.0
94.264946 212.0
94.309479 372.0
94.32692 80.0
94.340652 128.0
94.36911 132.0
94.401161 148.0
94.428276 100.0
94.449348 144.0
94.474312 144.0
94.492363 184.0
94.543221 148.0
94.556488 316.0
94.578613 228.0
94.608986 156.0
94.615089 64.0
94.621101 192.0
94.635025 172.0
94.653549 132.0
94.67186 172.0
94.701309 180.0
94.725372 212.0
94.760612 332.0
94.773651 140.0
94.807838 140.0
94.841087 264.0
94.87278 112.0
94.890976 108.0
94.903297 264.0
94.932899 228.0
94.963768 120.0
94.98085 92.0
94.999657 96.0
95.019539 184.0
95.048752 376.0
95.096359 212.0
95.121086 124.0
95.145134 208.0
95.16552 164.0
95.191498 112.0
95.218315 328.0
95.248764 172.0
95.26844 164.0
95.298088 168.0
95.310143 200.0
95.341049 108.0
95.361816 244.0
95.377602 200.0
95.413315 144.0
95.434319 176.0
95.459999 284.0
95.476646 196.0
95.498878 132.0
95.520615 180.0
95.549103 196.0
95.571297 124.0
95.576042 148.0
95.586983 480.0
95.613373 132.0
95.629333 228.0
95.653976 356.0
95.679558 380.0
95.698471 312.0
95.709602 460.0
95.732422 248.0
95.756363 152.0
95.783798 148.0
95.81694 184.0
95.847794 88.0
95.864655 164.0
95.882301 300.0
95.888664 244.0
95.924553 276.0
95.955956 136.0
95.963676 112.0
95.971344 328.0
95.986015 60.0
95.993484 112.0
96.001068 220.0
96.006813 140.0
96.04171 276.0
96.060806 124.0
96.081299 148.0
96.094833 248.0
96.119606 196.0
96.13781 76.0
96.14444 228.0
96.167969 200.0
96.21167 184.0
96.22451 168.0
96.244263 324.0
96.252281 156.0
96.257774 260.0
96.271454 128.0
96.289734 344.0
96.299767 84.0
96.305626 216.0
96.322487 180.0
96.352745 160.0
96.361275 164.0
96.376831 124.0
96.40155 152.0
96.43486 220.0
96.455002 272.0
96.468552 256.0
96.487633 288.0
96.495819 176.0
96.504532 152.0
96.509666 84.0
96.532852 224.0
96.551521 148.0
96.564743 392.0
96.589081 96.0
96.605431 296.0
96.621498 172.0
96.627068 116.0
96.670761 304.0
96.685013 304.0
96.697487 164.0
96.714157 280.0
96.73098 200.0
96.763855 268.0
96.790276 272.0
96.811462 104.0
96.835732 160.0
96.845306 100.0
96.858871 484.0
96.889122 64.0
96.913177 328.0
96.955383 212.0
96.979294 136.0
97.002182 136.0
97.014702 348.0
97.042915 128.0
97.051865 292.0
97.090187 144.0
97.125244 320.0
97.151611 196.0
97.180359 164.0
97.198143 96.0
97.229431 132.0
97.248848 140.0
97.262329 120.0
97.294983 440.0
97.345261 184.0
97.362518 192.0
97.382889 228.0
97.388939 200.0
97.408333 384.0
97.4263 176.0
97.444801 300.0
97.469269 240.0
97.503098 148.0
97.520134 144.0
97.553856 352.0
97.567802 252.0
97.580101 172.0
97.611633 276.0
97.643692 148.0
97.66449 116.0
97.706932 108.0
97.729752 264.0
97.744408 252.0
97.768806 64.0
97.808701 172.0
97.830597 248.0
97.848846 264.0
97.864311 216.0
97.877541 312.0
97.906639 120.0
97.928886 412.0
97.947479 360.0
97.950951 152.0
97.958115 252.0
97.968956 220.0
97.979347 364.0
98.015434 196.0
98.05555 180.0
98.075523 196.0
98.107498 144.0
98.148804 136.0
98.164406 108.0
98.187592 132.0
98.204239 164.0
98.220978 152.0
98.239357 72.0
98.266167 224.0
98.288155 308.0
98.303902 84.0
98.311272 284.0
98.337936 196.0
98.342049 100.0
98.361626 232.0
98.381447 296.0
98.414436 96.0
98.429634 256.0
98.467331 460.0
98.47493 160.0
98.482178 300.0
98.498543 108.0
98.517441 204.0
98.543846 156.0
98.558395 300.0
98.590637 248.0
98.595779 212.0
98.621376 104.0
98.635078 124.0
98.657982 124.0
98.689163 240.0
98.720352 372.0
98.739044 96.0
98.757057 144.0
98.775742 136.0
98.785629 212.0
98.810387 96.0
98.815315 128.0
98.829926 188.0
98.84726 124.0
98.860703 136.0
98.88295 272.0
98.908791 120.0
98.932724 168.0
98.95536 208.0
98.981674 264.0
99.020134 96.0
99.051872 336.0
99.068939 176.0
99.082382 132.0
99.112396 140.0
99.131737 132.0
99.140228 136.0
99.158417 144.0
99.178551 128.0
99.199364 264.0
99.217018 196.0
99.268616 192.0
99.298798 80.0
99.321922 124.0
99.337158 132.0
99.352699 176.0
99.376495 292.0
99.414375 104.0
99.434967 236.0
99.470787 192.0
99.492661 184.0
99.509018 208.0
99.522804 92.0
99.530663 64.0
99.547173 80.0
99.585899 216.0
99.601257 196.0
99.640503 132.0
99.672882 312.0
99.692024 288.0
99.713264 176.0
99.748505 144.0
99.788757 96.0
99.796494 72.0
99.80056 148.0
99.816559 216.0
99.833832 68.0
99.85173 184.0
99.881752 128.0
99.911713 128.0
99.926239 208.0
99.943481 352.0
99.958984 148.0
99.972427 228.0
99.9879 164.0
100.009575 120.0
100.037079 216.0
100.074493 160.0
100.096512 296.0
100.124901 76.0
100.143463 244.0
100.169502 148.0
100.200249 272.0
100.227005 312.0
100.253685 180.0
100.271278 192.0
100.299545 132.0
100.328407 144.0
100.34848 140.0
100.367203 368.0
100.370277 268.0
100.38839 312.0
100.409386 152.0
100.424164 176.0
100.464745 172.0
100.473068 128.0
100.48027 116.0
100.512344 144.0
100.56459 108.0
100.598015 188.0
100.630753 96.0
100.647957 248.0
100.683228 160.0
100.712082 152.0
100.730705 172.0
100.744064 168.0
100.761391 260.0
100.782692 108.0
100.797409 120.0
100.819031 260.0
100.851967 184.0
100.867767 196.0
100.871307 160.0
100.894615 460.0
100.911957 208.0
100.943451 176.0
100.97596 100.0
100.993835 152.0
101.007027 188.0
101.039886 200.0
101.047264 296.0
101.071983 100.0
101.101799 132.0
101.119247 148.0
101.124107 88.0
101.132019 124.0
101.159401 176.0
101.174599 156.0
101.179337 252.0
101.209541 108.0
101.244118 252.0
101.286133 104.0
101.302872 236.0
101.324654 320.0
101.356537 200.0
101.363823 132.0
101.39016 308.0
101.411072 192.0
101.431114 224.0
101.453041 124.0
101.493088 216.0
101.512062 236.0
101.535782 96.0
101.561035 116.0
101.597908 92.0
101.62439 68.0
101.638382 208.0
101.652557 88.0
101.673706 152.0
101.681473 88.0
101.684349 192.0
101.702049 176.0
101.729591 172.0
101.749336 96.0
101.766953 160.0
101.801567 336.0
101.823845 168.0
101.843491 172.0
101.866646 280.0
101.89756 188.0
101.93602 148.0
101.964127 108.0
101.987457 176.0
102.001968 84.0
102.024895 112.0
102.041801 168.0
102.087364 164.0
102.09536 148.0
102.103195 148.0
102.127495 104.0
102.161407 64.0
102.17128 188.0
102.191315 60.0
102.218796 84.0
102.244308 304.0
102.258194 136.0
102.304749 144.0
102.312782 172.0
102.335075 128.0
102.342628 124.0
102.358482 264.0
102.365646 116.0
102.369797 240.0
102.385796 84.0
102.401619 92.0
102.427803 288.0
102.44474 176.0
102.477348 128.0
102.507896 292.0
102.539673 228.0
102.55555 256.0
102.576256 268.0
102.590149 92.0
102.605461 148.0
102.62841 140.0
102.63549 76.0
102.640373 144.0
102.659035 148.0
102.671883 224.0
102.686989 164.0
102.72258 172.0
102.737534 372.0
102.763657 152.0
102.780617 164.0
102.799026 156.0
102.829521 188.0
102.862556 220.0
102.895836 192.0
102.924286 184.0
102.95018 196.0
102.971474 148.0
102.999664 88.0
103.021675 284.0
103.040039 132.0
103.052597 80.0
103.093712 172.0
103.108742 116.0
103.120934 124.0
103.149353 320.0
103.165169 140.0
103.206612 116.0
103.224182 196.0
103.252808 144.0
103.291962 160.0
103.318565 192.0
103.340645 172.0
103.349327 88.0
103.356422 140.0
103.37365 184.0
103.400032 312.0
103.45237 412.0
103.477493 188.0
103.504265 108.0
103.529266 152.0
103.571487 124.0
103.597382 400.0
103.611725 200.0
103.651299 288.0
103.65477 148.0
103.662758 148.0
103.677605 296.0
103.698387 112.0
103.747398 168.0
103.776527 196.0
103.794029 120.0
103.822792 172.0
103.846924 268.0
103.86805 368.0
103.887329 52.0
103.906204 304.0
103.923424 172.0
103.930122 172.0
103.944099 416.0
103.976608 160.0
103.994431 188.0
104.034279 324.0
104.048088 288.0
104.075371 180.0
104.095688 184.0
104.143661 180.0
104.173004 228.0
104.190376 160.0
104.206299 88.0
104.235229 516.0
104.28476 176.0
104.305984 172.0
104.324966 164.0
104.342247 180.0
104.363625 232.0
104.398651 304.0
104.433113 244.0
104.455475 124.0
104.479042 224.0
104.514755 384.0
104.542015 112.0
104.573044 148.0
104.589653 272.0
104.610786 112.0
104.643082 88.0
104.656227 144.0
104.661308 108.0
104.668282 156.0
104.696091 140.0
104.720268 256.0
104.747993 116.0
104.778297 236.0
104.799843 112.0
104.845268 276.0
104.860291 156.0
104.875732 176.0
104.899094 356.0
104.935074 60.0
104.962341 116.0
104.984085 132.0
105.0009 176.0
105.021423 100.0
105.038719 404.0
105.057938 128.0
105.081635 216.0
105.106865 308.0
105.138863 216.0
105.153755 232.0
105.173294 192.0
105.188484 144.0
105.210045 292.0
105.226067 100.0
105.230148 80.0
105.245773 132.0
105.270111 276.0
105.296593 128.0
105.313789 256.0
105.326904 128.0
105.351044 472.0
105.40358 168.0
105.41964 308.0
105.447243 160.0
105.473518 200.0
105.521271 344.0
105.541985 372.0
105.571571 144.0
105.574409 376.0
105.588814 100.0
105.614067 144.0
105.644615 160.0
105.666954 108.0
105.68145 252.0
105.721169 308.0
105.749794 92.0
105.767166 304.0
105.794678 144.0
105.812729 156.0
105.848518 316.0
105.871498 176.0
105.886971 320.0
105.907059 124.0
105.919838 332.0
105.93924 124.0
105.964813 152.0
105.975815 76.0
105.982124 164.0
106.004593 356.0
106.039696 392.0
106.060501 132.0
106.081253 160.0
106.104179 152.0
106.153084 216.0
106.170746 320.0
106.198898 188.0
106.227226 276.0
106.252907 372.0
106.276833 156.0
106.303352 172.0
106.330597 256.0
106.3507 404.0
106.377922 368.0
106.39814 268.0
106.423317 160.0
106.456375 112.0
106.470276 272.0
106.487907 96.0
106.516441 332.0
106.54982 164.0
106.566338 140.0
106.587234 268.0
106.614441 300.0
106.628731 96.0
106.660912 500.0
106.680511 148.0
106.704735 164.0
106.718971 64.0
106.729553 112.0
106.7351 156.0
106.755737 176.0
106.774963 168.0
106.799202 160.0
106.820305 124.0
106.849052 140.0
106.878387 96.0
106.886078 204.0
106.912231 292.0
106.933945 68.0
106.941483 60.0
106.949745 104.0
106.971764 116.0
106.97718 356.0
106.986656 144.0
106.996338 108.0
107.031151 176.0
107.068535 116.0
107.083305 312.0
107.09935 148.0
107.115273 124.0
107.136658 188.0
107.153107 196.0
107.172295 200.0
107.19751 244.0
107.252396 220.0
107.290436 252.0
107.307869 176.0
107.32811 88.0
107.344475 252.0
107.356789 156.0
107.370567 232.0
107.377464 212.0
107.399368 188.0
107.438538 136.0
107.461113 228.0
107.491928 392.0
107.520142 252.0
107.552544 180.0
107.572304 152.0
107.599129 128.0
107.636948 296.0
107.657639 416.0
107.661499 116.0
107.681572 212.0
107.704536 364.0
107.734138 136.0
107.759109 264.0
107.784477 136.0
107.793701 264.0
107.828758 124.0
107.848747 412.0
107.863235 240.0
107.882156 128.0
107.902115 232.0
107.92749 116.0
107.960236 228.0
107.978699 220.0
108.012047 144.0
108.03183 160.0
108.053841 444.0
108.071793 152.0
108.093277 280.0
108.115913 104.0
108.141502 332.0
108.155128 96.0
108.175781 348.0
108.190315 180.0
108.203308 264.0
108.243034 120.0
108.260674 140.0
108.269211 260.0
108.30442 152.0
108.341545 152.0
108.365997 128.0
108.373375 128.0
108.404526 72.0
108.420944 160.0
108.441216 312.0
108.459892 196.0
108.513603 144.0
108.538506 256.0
108.55793 104.0
108.589165 256.0
108.618813 328.0
108.644005 144.0
108.659698 108.0
108.681976 176.0
108.707436 148.0
108.714088 232.0
108.737396 180.0
108.772995 176.0
108.809669 260.0
108.838425 216.0
108.874794 460.0
108.896736 192.0
108.920189 248.0
108.945251 316.0
108.975433 216.0
109.00489 128.0
109.026497 200.0
109.044441 148.0
109.076218 288.0
109.090813 92.0
109.120644 88.0
109.137276 84.0
109.175613 616.0
109.208832 144.0
109.22934 56.0
109.242912 152.0
109.264122 316.0
109.305283 272.0
109.313477 164.0
109.322227 268.0
109.329926 232.0
109.335899 224.0
109.353088 196.0
109.384361 184.0
109.417984 212.0
109.468285 160.0
109.473404 172.0
109.518883 172.0
109.534569 316.0
109.55909 252.0
109.573601 140.0
109.583473 52.0
109.593636 124.0
109.611206 104.0
109.635231 228.0
109.651253 140.0
109.67588 152.0
109.703575 116.0
109.72464 148.0
109.744888 388.0
109.777473 244.0
109.796684 184.0
109.822884 332.0
109.861702 108.0
109.888222 164.0
109.931 272.0
109.95047 336.0
109.958534 120.0
109.967545 140.0
109.977432 132.0
109.98214 160.0
109.991814 272.0
110.008759 308.0
110.028893 204.0
110.044586 184.0
110.070641 232.0
110.099533 312.0
110.113152 276.0
110.139114 100.0
110.17527 248.0
110.201035 112.0
110.207703 180.0
110.229912 168.0
110.247002 304.0
110.269249 184.0
110.287514 108.0
110.30426 328.0
110.309479 396.0
110.347481 244.0
110.361572 288.0
110.375992 128.0
110.389771 80.0
110.41909 292.0
110.447639 324.0
110.462898 156.0
110.499207 408.0
110.526688 224.0
110.575951 152.0
110.591125 180.0
110.599571 112.0
110.606323 196.0
110.622101 116.0
110.641838 304.0
110.662437 100.0
110.678596 152.0
110.692886 196.0
110.721046 156.0
110.754433 316.0
110.785881 128.0
110.813042 88.0
110.831459 140.0
110.848 300.0
110.870262 204.0
110.899956 136.0
110.925842 168.0
110.944283 348.0
110.973885 132.0
111.000343 444.0
111.024178 204.0
111.048584 328.0
111.074745 212.0
111.083672 172.0
111.091782 476.0
111.113487 164.0
111.139153 332.0
111.167694 144.0
111.196869 152.0
111.225372 192.0
111.243744 676.0
111.257248 144.0
111.27063 372.0
111.285469 76.0
111.312431 152.0
111.351173 172.0
111.371399 132.0
111.393402 144.0
111.415543 308.0
111.440369 128.0
111.460373 424.0
111.505569 68.0
111.525902 244.0
111.572784 112.0
111.596245 224.0
111.621742 140.0
111.677345 280.0
111.709633 128.0
111.740402 180.0
111.768021 76.0
111.795425 68.0
111.828735 160.0
111.868675 152.0
111.907166 248.0
111.915573 148.0
111.942596 136.0
111.960434 92.0
111.977661 168.0
112.013008 300.0
112.054939 276.0
112.077583 132.0
112.082169 128.0
112.102158 180.0
112.13205 140.0
112.147591 156.0
112.162521 148.0
112.180786 144.0
112.192772 160.0
112.214684 156.0
112.230194 144.0
112.250496 220.0
112.274269 104.0
112.294411 208.0
112.33297 268.0
112.346527 108.0
112.354141 92.0
112.365829 180.0
112.390793 168.0
112.452095 164.0
112.472404 132.0
112.495811 124.0
112.529755 292.0
112.557442 148.0
112.59037 220.0
112.643318 168.0
112.663734 148.0
112.672943 96.0
112.676025 84.0
112.690819 108.0
112.699219 92.0
112.742546 316.0
112.756447 204.0
112.772835 292.0
112.779419 264.0
112.815941 112.0
112.843811 140.0
112.857849 136.0
112.880348 212.0
112.904106 216.0
112.939697 124.0
112.966866 188.0
112.997833 504.0
113.043037 224.0
113.069931 336.0
113.098869 196.0
113.156647 192.0
113.176064 160.0
113.193535 56.0
113.220642 140.0
113.24778 300.0
113.27182 244.0
113.306 164.0
113.33876 248.0
113.359451 236.0
113.392677 192.0
113.422195 196.0
113.446617 116.0
113.462158 72.0
113.482033 420.0
113.500793 104.0
113.524025 180.0
113.5532 296.0
113.611198 472.0
113.627304 328.0
113.662514 160.0
113.684669 320.0
113.698715 124.0
113.735611 164.0
113.762917 204.0
113.812965 164.0
113.851944 160.0
113.871429 264.0
113.887909 228.0
113.906998 252.0
113.942383 224.0
113.97345 204.0
113.998116 204.0
114.020622 156.0
114.042984 312.0
114.070328 172.0
114.092056 140.0
114.108894 108.0
114.135071 96.0
114.158699 140.0
114.179321 376.0
114.22728 68.0
114.255913 244.0
114.289536 212.0
114.308243 172.0
114.326591 124.0
114.341545 240.0
114.345314 52.0
114.378967 364.0
114.395676 160.0
114.411217 120.0
114.437538 248.0
114.453026 236.0
114.485855 192.0
114.518265 156.0
114.556412 336.0
114.582382 212.0
114.600319 208.0
114.61834 316.0
114.649193 232.0
114.686768 240.0
114.714226 196.0
114.740318 300.0
114.765587 344.0
114.791107 156.0
114.814278 240.0
114.844955 232.0
114.867065 176.0
114.874611 72.0
114.886032 240.0
114.912254 68.0
114.94397 104.0
114.958443 272.0
114.98558 288.0
114.992165 332.0
114.998825 340.0
115.05352 1304.0
115.077225 136.0
115.095116 124.0
115.147415 152.0
115.165276 176.0
115.187401 136.0
115.213455 132.0
115.245224 412.0
115.266281 300.0
115.292442 252.0
115.307709 280.0
115.321579 328.0
115.339294 108.0
115.372391 256.0
115.404808 180.0
115.422752 288.0
115.428368 148.0
115.436981 228.0
115.451164 164.0
115.484436 180.0
115.508751 192.0
115.53775 112.0
115.56266 288.0
115.599815 372.0
115.623245 128.0
115.641365 292.0
115.682007 136.0
115.716309 144.0
115.753212 248.0
115.796783 248.0
115.837135 332.0
115.85952 244.0
115.87204 128.0
115.894165 232.0
115.918671 128.0
115.937561 208.0
115.950874 124.0
115.972099 352.0
116.008293 152.0
116.016357 176.0
116.024551 172.0
116.042763 388.0
116.057915 180.0
116.064728 80.0
116.077965 192.0
116.105827 120.0
116.121773 144.0
116.144638 272.0
116.152206 216.0
116.176331 212.0
116.209236 200.0
116.227936 156.0
116.248062 456.0
116.262779 192.0
116.29245 136.0
116.319405 152.0
116.335373 148.0
116.352638 256.0
116.393486 144.0
116.416122 144.0
116.436623 156.0
116.457352 160.0
116.481697 292.0
116.511276 252.0
116.551979 120.0
116.579353 124.0
116.614151 120.0
116.640976 164.0
116.672485 136.0
116.677399 160.0
116.687126 308.0
116.709801 172.0
116.725525 152.0
116.739555 152.0
116.761795 140.0
116.803757 392.0
116.852531 200.0
116.879128 148.0
116.914993 260.0
116.934471 156.0
116.970428 212.0
116.980339 92.0
117.007133 188.0
117.028633 180.0
117.051468 192.0
117.073746 156.0
117.098221 128.0
117.11837 244.0
117.125908 216.0
117.136871 156.0
117.143623 256.0
117.168427 84.0
117.198746 340.0
117.223305 128.0
117.244804 148.0
117.261993 148.0
117.295998 204.0
117.314583 316.0
117.355553 220.0
117.373039 276.0
117.39798 212.0
117.436043 276.0
117.453888 288.0
117.485054 252.0
117.495201 76.0
117.503105 200.0
117.518425 252.0
117.53672 128.0
117.542015 116.0
117.549728 300.0
117.572731 188.0
117.60556 52.0
117.620911 236.0
117.631073 92.0
117.634918 152.0
117.677124 172.0
117.682961 120.0
117.699677 420.0
117.740585 96.0
117.757408 292.0
117.78083 228.0
117.80439 208.0
117.84346 224.0
117.858948 224.0
117.88221 152.0
117.915085 156.0
117.949226 336.0
117.977936 152.0
118.00238 156.0
118.03376 176.0
118.056442 208.0
118.078735 188.0
118.109779 404.0
118.131378 208.0
118.163933 152.0
118.18264 140.0
118.202438 120.0
118.223412 204.0
118.240311 188.0
118.269897 160.0
118.294296 168.0
118.328217 296.0
118.352203 184.0
118.365044 232.0
118.381683 340.0
118.404205 116.0
118.4272 188.0
118.453728 116.0
118.47699 160.0
118.522743 228.0
118.550804 96.0
118.578773 84.0
118.6092 176.0
118.64006 208.0
118.662888 312.0
118.682404 320.0
118.715652 124.0
118.745285 304.0
118.775658 160.0
118.803429 268.0
118.824821 108.0
118.850052 96.0
118.866737 112.0
118.903992 312.0
118.931068 152.0
118.952202 136.0
118.975945 216.0
119.000031 140.0
119.004364 124.0
119.020607 144.0
119.055603 292.0
119.093971 168.0
119.104477 144.0
119.114235 148.0
119.121071 112.0
119.155228 108.0
119.182533 132.0
119.19902 128.0
119.229935 232.0
119.262337 132.0
119.283897 120.0
119.309052 96.0
119.33535 176.0
119.366684 164.0
119.382027 164.0
119.388168 124.0
119.422096 152.0
119.440231 240.0
119.476509 196.0
119.498039 312.0
119.509789 120.0
119.527542 212.0
119.544479 372.0
119.580956 64.0
119.605446 164.0
119.62928 164.0
119.636887 156.0
119.643692 132.0
119.697205 172.0
119.716469 232.0
119.756012 128.0
119.769264 172.0
119.774742 140.0
119.803062 88.0
119.819244 160.0
119.845581 156.0
119.868431 60.0
119.898903 248.0
119.920677 220.0
119.97097 228.0
120.000954 180.0
120.019356 160.0
120.046028 400.0
120.094734 244.0
120.100044 320.0
120.12941 252.0
120.161186 436.0
120.187279 180.0
120.204842 44.0
120.219421 340.0
120.235687 144.0
120.282051 204.0
120.306831 280.0
120.341324 260.0
120.351952 72.0
120.360992 236.0
120.375671 160.0
120.384216 176.0
120.399994 184.0
120.440323 244.0
120.465195 108.0
120.491989 124.0
120.516365 200.0
120.545647 368.0
120.587166 156.0
120.625862 308.0
120.654587 200.0
120.684715 100.0
120.691727 168.0
120.715416 168.0
120.761246 280.0
120.7817 104.0
120.798683 56.0
120.824699 248.0
120.857597 144.0
120.886108 284.0
120.912308 120.0
120.934807 76.0
120.979523 264.0
121.02581 236.0
121.075989 252.0
121.10865 160.0
121.126671 380.0
121.143494 172.0
121.152725 276.0
121.189972 208.0
121.218513 300.0
121.258713 264.0
121.28981 416.0
121.329979 120.0
121.34964 160.0
121.358658 132.0
121.367805 228.0
121.37294 140.0
121.38649 132.0
121.421349 288.0
121.428246 204.0
121.452896 132.0
121.470856 144.0
121.494553 512.0
121.533737 160.0
121.565437 324.0
121.590889 180.0
121.594925 104.0
121.61393 472.0
121.633224 88.0
121.638855 168.0
121.666878 320.0
121.694206 232.0
121.721245 88.0
121.741875 336.0
121.81208 156.0
121.827415 316.0
121.854622 232.0
121.873772 248.0
121.899269 232.0
121.919746 208.0
121.96225 348.0
121.982002 180.0
122.058891 212.0
122.082253 300.0
122.098717 156.0
122.126595 168.0
122.147995 300.0
122.19133 128.0
122.202492 188.0
122.205055 164.0
122.226379 100.0
122.234871 152.0
122.239288 72.0
122.256882 424.0
122.274109 156.0
122.282677 252.0
122.315712 176.0
122.344269 252.0
122.364471 148.0
122.373634 144.0
122.4039 296.0
122.412582 328.0
122.438484 296.0
122.465927 180.0
122.474419 120.0
122.483101 108.0
122.504913 168.0
122.529121 272.0
122.572304 156.0
122.58918 232.0
122.597572 220.0
122.604767 332.0
122.636208 176.0
122.653137 264.0
122.684593 336.0
122.724228 284.0
122.748055 64.0
122.774315 196.0
122.791763 344.0
122.796165 136.0
122.805801 360.0
122.839554 108.0
122.864952 160.0
122.890205 288.0
122.906555 312.0
122.923988 220.0
122.961983 168.0
122.987617 100.0
123.019188 152.0
123.045341 268.0
123.06221 220.0
123.088165 392.0
123.10527 124.0
123.110634 116.0
123.143921 64.0
123.172104 100.0
123.194725 108.0
123.227005 396.0
123.263802 260.0
123.279259 200.0
123.296089 228.0
123.312279 196.0
123.320061 100.0
123.330299 212.0
123.339371 292.0
123.381279 376.0
123.416718 144.0
123.446693 204.0
123.477913 136.0
123.499596 188.0
123.522148 216.0
123.538513 148.0
123.545639 120.0
123.566406 112.0
123.618301 280.0
123.653702 232.0
123.673065 100.0
123.688988 148.0
123.698586 80.0
123.704262 136.0
123.736916 220.0
123.760193 220.0
123.807411 156.0
123.834763 392.0
123.861923 336.0
123.878159 384.0
123.901505 184.0
123.923706 88.0
123.954643 156.0
123.982956 136.0
123.990555 96.0
123.998245 164.0
124.020912 308.0
124.047859 156.0
124.097908 112.0
124.141891 212.0
124.178604 224.0
124.196533 172.0
124.213867 272.0
124.244324 184.0
124.264046 220.0
124.281799 148.0
124.298576 112.0
124.322342 100.0
124.347336 60.0
124.3731 304.0
124.397057 328.0
124.419868 336.0
124.467232 304.0
124.502594 232.0
124.542122 304.0
124.562515 72.0
124.584908 120.0
124.633255 356.0
124.667885 244.0
124.696548 304.0
124.716408 308.0
124.731247 68.0
124.768524 92.0
124.792664 92.0
124.809402 128.0
124.819061 96.0
124.837074 148.0
124.841316 136.0
124.846031 156.0
124.870224 120.0
124.901375 160.0
124.93441 240.0
124.973724 356.0
125.017792 152.0
125.050713 104.0
125.07061 136.0
125.074814 120.0
125.08551 284.0
125.112595 280.0
125.152481 212.0
125.192513 248.0
125.223572 376.0
125.260582 220.0
125.276596 192.0
125.295662 132.0
125.340546 252.0
125.356888 164.0
125.395706 260.0
125.421394 240.0
125.473862 312.0
125.491005 252.0
125.531586 308.0
125.559021 176.0
125.599258 364.0
125.614586 200.0
125.643234 124.0
125.664719 120.0
125.680641 264.0
125.688934 176.0
125.722549 152.0
125.76152 248.0
125.78083 164.0
125.809418 204.0
125.831528 232.0
125.863029 400.0
125.873535 48.0
125.87928 196.0
125.90255 276.0
125.927299 152.0
125.952156 140.0
125.98275 312.0
125.997116 268.0
126.032494 204.0
126.062996 144.0
126.080421 104.0
126.096748 136.0
126.121338 152.0
126.1567 124.0
126.177132 204.0
126.20311 104.0
126.208061 196.0
126.218254 80.0
126.244751 300.0
126.265839 184.0
126.286697 400.0
126.324059 136.0
126.350182 92.0
126.389709 124.0
126.425789 64.0
126.453354 100.0
126.473854 160.0
126.482292 152.0
126.520699 288.0
126.53743 192.0
126.555267 120.0
126.579559 240.0
126.597885 144.0
126.622643 152.0
126.653091 456.0
126.679977 80.0
126.700165 284.0
126.730049 400.0
126.744629 324.0
126.769478 264.0
126.800171 192.0
126.817368 212.0
126.838234 352.0
126.875732 100.0
126.911606 108.0
126.931786 248.0
126.949432 128.0
126.968018 124.0
126.984863 108.0
127.00116 120.0
127.029976 428.0
127.051888 204.0
127.092285 196.0
127.11454 68.0
127.132507 92.0
127.147522 144.0
127.204994 152.0
127.225861 252.0
127.248512 152.0
127.285339 136.0
127.321053 56.0
127.35231 88.0
127.376335 136.0
127.405731 252.0
127.44825 232.0
127.468285 128.0
127.486702 148.0
127.508736 116.0
127.528587 104.0
127.550896 344.0
127.570511 116.0
127.615158 176.0
127.639038 332.0
127.656853 316.0
127.69088 284.0
127.716232 268.0
127.773933 188.0
127.807968 324.0
127.824203 100.0
127.834244 92.0
127.848534 92.0
127.883789 212.0
127.919739 276.0
127.935661 220.0
127.942459 100.0
127.9505 288.0
127.981079 280.0
127.999992 360.0
128.047852 268.0
128.07756 84.0
128.105957 384.0
128.155914 148.0
128.186356 272.0
128.205582 208.0
128.236008 264.0
128.261292 68.0
128.286926 144.0
128.304565 184.0
128.33847 164.0
128.355881 224.0
128.374466 152.0
128.391556 324.0
128.408997 116.0
128.449677 192.0
128.464645 160.0
128.511398 216.0
128.530701 120.0
128.560471 140.0
128.592072 172.0
128.610809 324.0
128.640991 260.0
128.673584 344.0
128.705078 228.0
128.733261 148.0
128.761047 124.0
128.782669 100.0
128.809311 192.0
128.838501 160.0
128.856277 384.0
128.876602 136.0
128.901932 244.0
128.93457 172.0
128.960022 252.0
128.966858 196.0
129.005936 188.0
129.029068 132.0
129.038971 164.0
129.05513 132.0
129.077393 208.0
129.092026 176.0
129.120743 164.0
129.140656 240.0
129.149078 160.0
129.17131 208.0
129.198532 104.0
129.220352 120.0
129.269806 180.0
129.275833 160.0
129.309708 312.0
129.354568 132.0
129.380157 112.0
129.389969 168.0
129.411453 140.0
129.446411 404.0
129.470718 176.0
129.503662 132.0
129.538483 176.0
129.565048 168.0
129.607742 128.0
129.628555 260.0
129.642761 188.0
129.664322 216.0
129.700089 124.0
129.708389 216.0
129.736099 248.0
129.760422 148.0
129.775192 388.0
129.815308 352.0
129.834518 296.0
129.852203 312.0
129.855637 348.0
129.903168 164.0
129.928284 240.0
129.946182 248.0
129.96286 148.0
129.977905 324.0
129.996323 156.0
130.002838 112.0
130.032059 292.0
130.053558 196.0
130.092712 84.0
130.096024 264.0
130.106949 108.0
130.115646 288.0
130.138229 168.0
130.171753 68.0
130.219284 236.0
130.222656 340.0
130.254959 312.0
130.277649 280.0
130.299957 296.0
130.355606 160.0
130.371765 164.0
130.385559 292.0
130.419922 88.0
130.440323 268.0
130.454895 104.0
130.474976 128.0
130.501511 172.0
130.518524 108.0
130.545517 116.0
130.576767 168.0
130.608475 104.0
130.648804 264.0
130.694366 176.0
130.71286 308.0
130.730179 96.0
130.736816 84.0
130.755142 176.0
130.782578 180.0
130.80336 120.0
130.828217 160.0
130.84877 180.0
130.896286 156.0
130.922745 84.0
130.951065 276.0
130.990128 560.0
131.007217 268.0
131.046524 140.0
131.080902 428.0
131.114105 196.0
131.136902 160.0
131.172485 164.0
131.204712 176.0
131.224594 120.0
131.233932 132.0
131.277023 156.0
131.281586 200.0
131.297989 212.0
131.320068 176.0
131.343613 152.0
131.386719 144.0
131.427292 132.0
131.468155 124.0
131.492218 112.0
131.507843 252.0
131.530685 156.0
131.555557 128.0
131.58757 264.0
131.618256 360.0
131.650406 156.0
131.675095 108.0
131.712524 188.0
131.722687 100.0
131.727615 200.0
131.744003 352.0
131.767136 272.0
131.790756 112.0
131.842133 232.0
131.852707 120.0
131.86467 144.0
131.884705 160.0
131.902176 160.0
131.924927 144.0
131.950089 328.0
131.99028 264.0
132.043854 356.0
132.062546 216.0
132.098831 148.0
132.116302 200.0
132.132843 148.0
132.169968 264.0
132.174759 96.0
132.186966 212.0
132.190643 132.0
132.214905 156.0
132.24614 128.0
132.277695 176.0
132.318542 264.0
132.338104 272.0
132.354233 144.0
132.369507 284.0
132.391342 172.0
132.415207 180.0
132.428635 216.0
132.453293 240.0
132.498642 132.0
132.5672 472.0
132.594437 188.0
132.620865 224.0
132.634674 252.0
132.667114 148.0
132.705826 324.0
132.742935 348.0
132.769333 196.0
132.790237 200.0
132.81163 180.0
132.844925 168.0
132.860565 304.0
132.90625 128.0
132.911209 108.0
132.931 184.0
132.947083 224.0
132.980087 84.0
133.009445 620.0
133.043106 188.0
133.065079 252.0
133.110397 160.0
133.134186 176.0
133.159988 148.0
133.186172 104.0
133.214615 112.0
133.245773 300.0
133.264191 124.0
133.289948 56.0
133.311447 192.0
133.346298 180.0
133.387833 272.0
133.417664 132.0
133.443512 100.0
133.480865 212.0
133.498672 308.0
133.524033 104.0
133.528061 152.0
133.537399 184.0
133.569458 200.0
133.5979 148.0
133.622208 144.0
133.641632 168.0
133.69165 616.0
133.718796 108.0
133.740219 164.0
133.765244 152.0
133.770615 96.0
133.779526 208.0
133.802856 184.0
133.823456 164.0
133.8526 144.0
133.87146 208.0
133.876373 56.0
133.901382 112.0
133.924072 160.0
133.948441 172.0
133.984131 340.0
134.014114 268.0
134.056122 168.0
134.081772 156.0
134.09938 180.0
134.151047 108.0
134.201889 276.0
134.205109 204.0
134.218628 252.0
134.265579 228.0
134.274994 136.0
134.278641 184.0
134.302933 284.0
134.340927 188.0
134.369278 168.0
134.39415 188.0
134.451797 168.0
134.472107 296.0
134.491959 196.0
134.517471 224.0
134.542068 80.0
134.553726 140.0
134.582687 152.0
134.634476 152.0
134.661072 184.0
134.668243 192.0
134.687134 232.0
134.704773 328.0
134.723541 128.0
134.747421 144.0
134.771545 260.0
134.817566 444.0
134.86319 368.0
134.893097 152.0
134.927994 124.0
134.975479 100.0
135.006897 188.0
135.034714 116.0
135.050507 72.0
135.079971 252.0
135.109802 192.0
135.130188 144.0
135.135406 56.0
135.164871 144.0
135.177963 344.0
135.197372 384.0
135.234848 68.0
135.252136 164.0
135.281723 120.0
135.306335 60.0
135.348022 192.0
135.369751 156.0
135.40596 208.0
135.446442 156.0
135.465363 204.0
135.49968 180.0
135.544693 212.0
135.562286 132.0
135.591324 300.0
135.616837 108.0
135.636276 172.0
135.65448 160.0
135.676926 200.0
135.69841 124.0
135.73819 228.0
135.753754 140.0
135.761139 236.0
135.799133 124.0
135.807327 148.0
135.832321 252.0
135.870148 292.0
135.894119 316.0
135.90358 228.0
135.907501 192.0
135.944504 352.0
135.971115 268.0
136.017029 412.0
136.038925 216.0
136.068741 76.0
136.076996 60.0
136.084824 256.0
136.110031 180.0
136.127563 324.0
136.161194 352.0
136.179306 376.0
136.197083 176.0
136.22464 148.0
136.243851 132.0
136.281342 140.0
136.300278 188.0
136.321533 268.0
136.327148 112.0
136.335312 172.0
136.356598 84.0
136.373428 184.0
136.378754 192.0
136.391129 136.0
136.396973 124.0
136.417282 184.0
136.455612 56.0
136.481033 180.0
136.51001 160.0
136.515594 212.0
136.545441 180.0
136.570724 252.0
136.600525 280.0
136.62825 212.0
136.667664 432.0
136.692719 164.0
136.707397 304.0
136.745255 336.0
136.796631 244.0
136.830841 44.0
136.867813 316.0
136.892944 304.0
136.919861 120.0
136.928543 88.0
136.963242 172.0
137.002396 384.0
137.037262 144.0
137.074707 180.0
137.094864 264.0
137.119247 144.0
137.14978 300.0
137.209396 280.0
137.268539 124.0
137.301468 132.0
137.320602 172.0
137.352005 308.0
137.378174 140.0
137.393433 156.0
137.414276 108.0
137.4832 344.0
137.502762 136.0
137.537369 436.0
137.570343 48.0
137.611511 144.0
137.64653 348.0
137.679504 152.0
137.705688 156.0
137.712723 112.0
137.721939 156.0
137.730331 240.0
137.737839 204.0
137.764435 184.0
137.785324 320.0
137.827637 212.0
137.847153 204.0
137.862137 304.0
137.881454 140.0
137.909668 156.0
137.931671 164.0
137.978683 240.0
137.997208 212.0
138.014404 216.0
138.050079 100.0
138.067001 152.0
138.09549 296.0
138.115799 256.0
138.131531 528.0
138.154572 48.0
138.169037 184.0
138.195435 148.0
138.205261 156.0
138.220764 212.0
138.239822 288.0
138.273041 104.0
138.326675 168.0
138.336578 152.0
138.363358 196.0
138.407837 252.0
138.450012 80.0
138.475723 140.0
138.508072 100.0
138.566116 416.0
138.585083 248.0
138.601608 288.0
138.625595 112.0
138.658401 148.0
138.683243 140.0
138.686829 364.0
138.711731 160.0
138.726624 260.0
138.763031 120.0
138.78653 164.0
138.7966 80.0
138.806732 160.0
138.834106 128.0
138.853455 152.0
138.874649 192.0
138.895325 468.0
138.925705 168.0
138.98259 216.0
139.010544 224.0
139.038605 144.0
139.089264 196.0
139.105698 200.0
139.126038 112.0
139.158279 200.0
139.181213 144.0
139.187744 124.0
139.197693 100.0
139.208206 112.0
139.217163 140.0
139.232742 124.0
139.265396 124.0
139.273895 172.0
139.283676 164.0
139.289688 384.0
139.336151 284.0
139.356339 216.0
139.395996 168.0
139.432892 124.0
139.475983 156.0
139.517349 248.0
139.543732 80.0
139.597153 148.0
139.639557 144.0
139.664871 176.0
139.686783 88.0
139.694565 224.0
139.712646 124.0
139.727875 108.0
139.772827 116.0
139.78038 140.0
139.801468 284.0
139.828491 136.0
139.875183 144.0
139.897202 184.0
139.923737 180.0
139.949158 124.0
139.964767 220.0
139.991867 136.0
140.009293 112.0
140.02269 76.0
140.050156 1116.0
140.088593 84.0
140.11586 316.0
140.133957 284.0
140.160797 296.0
140.179459 188.0
140.232803 156.0
140.266113 156.0
140.311783 184.0
140.330536 248.0
140.356369 288.0
140.385666 124.0
140.401199 324.0
140.428757 168.0
140.459045 120.0
140.483597 132.0
140.500183 220.0
140.531403 208.0
140.580414 100.0
140.596619 260.0
140.61232 132.0
140.631363 356.0
140.639374 196.0
140.690491 112.0
140.714722 176.0
140.743683 216.0
140.759995 268.0
140.769928 176.0
140.775391 160.0
140.814911 140.0
140.825333 144.0
140.831589 192.0
140.888474 164.0
140.914185 276.0
140.94046 152.0
140.949768 328.0
140.982178 124.0
141.006683 140.0
141.047012 172.0
141.073502 236.0
141.119888 140.0
141.152344 292.0
141.178741 128.0
141.202316 128.0
141.231308 264.0
141.254654 128.0
141.276825 120.0
141.298126 128.0
141.345322 164.0
141.354599 156.0
141.377884 136.0
141.398941 132.0
141.435638 316.0
141.478073 164.0
141.494492 204.0
141.531525 188.0
141.567062 264.0
141.581314 452.0
141.607544 84.0
141.646072 260.0
141.672409 160.0
141.688019 140.0
141.718857 156.0
141.761307 188.0
141.784973 120.0
141.819534 204.0
141.894287 272.0
141.901321 192.0
141.924408 120.0
141.946274 124.0
141.996109 204.0
142.029739 340.0
142.062546 120.0
142.116516 300.0
142.132874 188.0
142.157654 276.0
142.187805 404.0
142.214325 328.0
142.246262 168.0
142.279861 152.0
142.318512 116.0
142.339401 240.0
142.356781 352.0
142.387115 112.0
142.417419 120.0
142.451614 192.0
142.472687 148.0
142.491043 104.0
142.498444 132.0
142.521881 220.0
142.557205 268.0
142.581558 320.0
142.606979 208.0
142.635773 220.0
142.659317 96.0
142.716354 152.0
142.761688 252.0
142.769531 176.0
142.77977 348.0
142.784317 208.0
142.810013 348.0
142.848297 120.0
142.876144 88.0
142.924911 148.0
142.974319 456.0
143.001007 124.0
143.023849 156.0
143.050415 88.0
143.089249 148.0
143.125275 388.0
143.147537 196.0
143.172668 140.0
143.201935 108.0
143.231171 132.0
143.255493 112.0
143.285263 360.0
143.34137 280.0
143.347198 276.0
143.357071 140.0
143.387238 256.0
143.39296 456.0
143.409622 196.0
143.444489 308.0
143.472519 124.0
143.496506 164.0
143.51236 384.0
143.560226 228.0
143.592712 100.0
143.617966 112.0
143.649933 156.0
143.685165 156.0
143.709869 548.0
143.725616 204.0
143.745575 288.0
143.763626 140.0
143.779907 212.0
143.808578 176.0
143.840042 156.0
143.872162 56.0
143.890549 144.0
143.908829 368.0
143.930603 184.0
143.979797 112.0
144.000534 180.0
144.042389 260.0
144.07695 208.0
144.111343 188.0
144.140121 168.0
144.164932 160.0
144.180634 152.0
144.206329 112.0
144.211853 128.0
144.238892 308.0
144.265335 320.0
144.286087 172.0
144.296783 60.0
144.330078 184.0
144.338852 92.0
144.348099 228.0
144.355682 152.0
144.377609 200.0
144.387512 140.0
144.39743 264.0
144.412643 144.0
144.417068 172.0
144.426971 360.0
144.457047 152.0
144.474625 240.0
144.49498 120.0
144.530579 220.0
144.547897 416.0
144.581863 304.0
144.600388 324.0
144.650253 268.0
144.690979 292.0
144.708496 208.0
144.728897 220.0
144.775208 268.0
144.808197 140.0
144.8255 260.0
144.862061 100.0
144.899811 348.0
144.936127 160.0
144.967178 156.0
144.993622 156.0
145.022064 304.0
145.052216 272.0
145.073792 124.0
145.110352 384.0
145.126404 684.0
145.176865 216.0
145.194092 160.0
145.204681 140.0
145.243195 256.0
145.259995 92.0
145.290802 104.0
145.314194 316.0
145.348953 292.0
145.382355 116.0
145.408752 128.0
145.425064 244.0
145.448868 264.0
145.481018 148.0
145.510986 416.0
145.541916 136.0
145.569321 136.0
145.610626 240.0
145.634445 76.0
145.655396 172.0
145.671997 152.0
145.720413 92.0
145.742584 380.0
145.76088 128.0
145.795822 192.0
145.826019 180.0
145.852127 108.0
145.881958 392.0
145.909683 112.0
145.928589 100.0
145.947617 156.0
145.963959 120.0
145.99147 116.0
146.043198 148.0
146.071136 176.0
146.111572 296.0
146.141037 252.0
146.19783 272.0
146.242386 228.0
146.282883 84.0
146.32782 120.0
146.361725 156.0
146.389374 176.0
146.39743 248.0
146.424011 284.0
146.472687 284.0
146.489304 124.0
146.528091 108.0
146.560684 204.0
146.590485 152.0
146.617493 276.0
146.647385 324.0
146.690674 144.0
146.712585 264.0
146.739014 180.0
146.785568 172.0
146.792297 168.0
146.801086 280.0
146.820236 144.0
146.840881 116.0
146.901245 304.0
146.911331 376.0
146.937164 312.0
146.980499 200.0
147.008789 180.0
147.037384 128.0
147.0634 400.0
147.09259 100.0
147.102844 152.0
147.119171 344.0
147.185989 156.0
147.211365 164.0
147.215424 64.0
147.244751 104.0
147.279282 136.0
147.314331 52.0
147.336838 376.0
147.355469 192.0
147.387512 116.0
147.407974 112.0
147.434998 148.0
147.457062 180.0
147.499313 136.0
147.527969 188.0
147.55043 196.0
147.573395 264.0
147.590332 324.0
147.634766 196.0
147.648895 236.0
147.682022 100.0
147.721695 444.0
147.759171 220.0
147.779633 128.0
147.809921 132.0
147.849777 84.0
147.890533 172.0
147.913101 52.0
147.939209 268.0
147.97435 136.0
147.991959 168.0
148.023209 92.0
148.073441 164.0
148.09166 184.0
148.120178 124.0
148.144821 288.0
148.183502 80.0
148.193954 124.0
148.197937 200.0
148.231186 216.0
148.252228 208.0
148.275482 100.0
148.300247 160.0
148.339493 252.0
148.379501 424.0
148.415268 88.0
148.446503 192.0
148.464798 380.0
148.487991 140.0
148.530899 80.0
148.55452 64.0
148.583176 272.0
148.613373 80.0
148.646088 132.0
148.668945 168.0
148.71698 216.0
148.734451 304.0
148.754013 152.0
148.804581 116.0
148.809952 124.0
148.817764 248.0
148.845108 144.0
148.866943 68.0
148.889938 112.0
148.928101 400.0
148.946869 240.0
148.979385 128.0
148.995499 120.0
149.02002 260.0
149.037262 556.0
149.06514 104.0
149.082672 200.0
149.101593 144.0
149.125214 156.0
149.161346 248.0
149.197754 288.0
149.2332 136.0
149.283707 132.0
149.312683 240.0
149.330704 172.0
149.362656 208.0
149.386078 92.0
149.426025 208.0
149.452652 300.0
149.487183 224.0
149.52356 152.0
149.527847 168.0
149.540756 64.0
149.566467 160.0
149.582291 352.0
149.599762 228.0
149.63797 344.0
149.672974 128.0
149.700607 296.0
149.724472 176.0
149.746475 140.0
149.77536 232.0
149.797684 244.0
149.828445 176.0
149.861343 240.0
149.882767 220.0
149.901154 140.0
149.933273 224.0
149.97374 160.0
150.003693 148.0
150.046906 1100.0
150.077606 160.0
150.104858 156.0
150.154938 136.0
150.180344 304.0
150.196106 68.0
150.216034 92.0
150.237228 324.0
150.271088 168.0
150.328873 152.0
150.353302 364.0
150.382706 444.0
150.400574 236.0
150.422867 160.0
150.443649 140.0
150.461792 184.0
150.487869 156.0
150.505981 320.0
150.559708 112.0
150.582275 248.0
150.60347 236.0
150.633514 340.0
150.673843 212.0
150.698944 104.0
150.724258 140.0
150.751053 216.0
150.783691 176.0
150.838608 192.0
150.867523 188.0
150.901886 144.0
150.928192 152.0
150.94635 184.0
150.965729 360.0
150.986298 76.0
151.053207 2020.0
151.084625 128.0
151.105347 340.0
151.124054 204.0
151.16893 136.0
151.191315 136.0
151.203094 232.0
151.237366 156.0
151.245255 216.0
151.293762 148.0
151.312775 128.0
151.346848 164.0
151.385941 256.0
151.415451 120.0
151.446747 196.0
151.470505 204.0
151.501999 272.0
151.524521 156.0
151.547531 176.0
151.564575 116.0
151.593964 120.0
151.625168 112.0
151.641953 108.0
151.6707 248.0
151.687057 300.0
151.702545 340.0
151.723694 248.0
151.745895 80.0
151.76413 292.0
151.784149 276.0
151.822525 152.0
151.872803 112.0
151.898956 220.0
151.914978 248.0
151.935944 276.0
151.969894 156.0
152.005081 176.0
152.061325 936.0
152.139664 96.0
152.14624 84.0
152.156784 132.0
152.177307 188.0
152.198074 84.0
152.215103 168.0
152.240005 252.0
152.263046 284.0
152.301407 220.0
152.325775 104.0
152.347733 152.0
152.360458 164.0
152.400467 228.0
152.416092 148.0
152.434586 116.0
152.457932 248.0
152.490158 164.0
152.502686 192.0
152.519775 388.0
152.54837 136.0
152.570709 116.0
152.597519 108.0
152.615433 180.0
152.65242 192.0
152.678055 116.0
152.693085 296.0
152.715881 184.0
152.750549 228.0
152.786896 132.0
152.821304 260.0
152.855637 304.0
152.902267 144.0
152.939606 164.0
152.986053 172.0
153.040649 284.0
153.089371 96.0
153.124847 168.0
153.163269 184.0
153.180359 200.0
153.215927 180.0
153.245972 196.0
153.288086 344.0
153.329529 324.0
153.347855 160.0
153.382019 252.0
153.419983 68.0
153.458344 152.0
153.495972 124.0
153.531708 264.0
153.557632 28.0
153.57901 284.0
153.62883 228.0
153.668533 64.0
153.709274 372.0
153.731308 20.0
153.759201 212.0
153.793564 180.0
153.810165 240.0
153.833221 412.0
153.87822 156.0
153.886688 176.0
153.904785 408.0
153.92926 212.0
153.944275 132.0
153.980118 168.0
154.015945 128.0
154.022522 196.0
154.050476 252.0
154.077148 104.0
154.117691 196.0
154.12619 284.0
154.144012 176.0
154.154053 308.0
154.164627 240.0
154.168015 152.0
154.198547 364.0
154.214874 312.0
154.252426 284.0
154.282272 124.0
154.307541 88.0
154.339478 160.0
154.375092 160.0
154.380768 196.0
154.393387 312.0
154.424927 188.0
154.45018 152.0
154.489502 260.0
154.541519 224.0
154.575211 292.0
154.598938 132.0
154.643753 244.0
154.664566 280.0
154.694855 220.0
154.720093 248.0
154.74263 180.0
154.766602 284.0
154.78624 296.0
154.820023 364.0
154.838364 212.0
154.866135 232.0
154.890945 152.0
154.909607 100.0
154.924576 440.0
154.973404 136.0
154.990402 168.0
155.016815 212.0
155.053314 152.0
155.084793 360.0
155.139389 156.0
155.166046 140.0
155.185745 156.0
155.215027 252.0
155.265457 168.0
155.310989 276.0
155.32843 488.0
155.376999 188.0
155.421814 128.0
155.440659 244.0
155.480591 308.0
155.537201 260.0
155.545303 144.0
155.553253 280.0
155.584641 172.0
155.65213 192.0
155.75116 532.0
155.801041 176.0
155.829437 312.0
155.857071 260.0
155.876144 156.0
155.901459 220.0
155.939178 68.0
155.973984 144.0
156.00148 124.0
156.037659 120.0
156.07692 176.0
156.090454 136.0
156.101288 356.0
156.129486 112.0
156.15834 244.0
156.188766 136.0
156.202042 124.0
156.22995 136.0
156.26236 204.0
156.278809 96.0
156.297577 144.0
156.353897 152.0
156.357773 164.0
156.386856 128.0
156.440689 208.0
156.468491 232.0
156.497543 180.0
156.540283 208.0
156.577316 328.0
156.594788 188.0
156.638031 160.0
156.644089 204.0
156.673538 224.0
156.709625 188.0
156.714569 136.0
156.725082 152.0
156.737717 100.0
156.743164 196.0
156.769867 156.0
156.782242 152.0
156.788208 116.0
156.815338 128.0
156.837265 284.0
156.887741 260.0
156.91684 360.0
156.945831 112.0
156.968979 248.0
157.011215 168.0
157.038986 180.0
157.059982 104.0
157.084045 232.0
157.127411 304.0
157.163544 132.0
157.190033 164.0
157.22406 344.0
157.266174 124.0
157.291107 228.0
157.318771 164.0
157.346283 184.0
157.37056 300.0
157.415115 236.0
157.438736 244.0
157.459473 292.0
157.500824 164.0
157.530823 100.0
157.552246 128.0
157.580032 152.0
157.608841 260.0
157.62764 192.0
157.659073 192.0
157.682831 220.0
157.707855 100.0
157.734467 228.0
157.756622 160.0
157.787598 316.0
157.826599 292.0
157.857605 300.0
157.891647 124.0
157.918121 112.0
157.947693 176.0
157.97554 208.0
158.024826 212.0
158.046432 104.0
158.074921 152.0
158.114441 312.0
158.13707 172.0
158.192749 304.0
158.233429 124.0
158.253769 152.0
158.270996 256.0
158.285919 192.0
158.304169 124.0
158.341858 168.0
158.376648 200.0
158.398071 116.0
158.412979 276.0
158.448669 196.0
158.494675 192.0
158.513672 196.0
158.549789 156.0
158.594772 128.0
158.632797 56.0
158.668869 140.0
158.679382 96.0
158.70285 136.0
158.726212 156.0
158.746658 176.0
158.789459 444.0
158.834457 152.0
158.844513 164.0
158.882477 172.0
158.929916 148.0
158.962341 568.0
159.005981 208.0
159.026031 120.0
159.061325 208.0
159.092819 180.0
159.110474 148.0
159.148911 160.0
159.166412 164.0
159.203751 144.0
159.212463 144.0
159.26503 144.0
159.29335 52.0
159.318405 104.0
159.344925 196.0
159.370163 156.0
159.391418 320.0
159.41597 128.0
159.439835 288.0
159.493607 548.0
159.517365 188.0
159.571182 164.0
159.590897 96.0
159.636993 88.0
159.662262 204.0
159.709854 268.0
159.718018 144.0
159.765137 156.0
159.799454 220.0
159.872055 132.0
159.896332 192.0
159.934448 304.0
159.962402 128.0
160.006073 168.0
160.02121 204.0
160.056046 352.0
160.101685 124.0
160.14119 128.0
160.169235 104.0
160.221451 168.0
160.23996 144.0
160.276016 148.0
160.322266 144.0
160.377808 228.0
160.401947 200.0
160.42392 384.0
160.455841 180.0
160.481125 172.0
160.522537 164.0
160.542175 232.0
160.564026 396.0
160.618546 260.0
160.625732 176.0
160.632401 216.0
160.657211 136.0
160.690002 140.0
160.720627 136.0
160.748032 84.0
160.776657 176.0
160.798767 276.0
160.842957 112.0
160.885513 224.0
160.923508 144.0
160.96553 128.0
160.976913 120.0
161.006348 100.0
161.037949 340.0
161.054276 120.0
161.10405 324.0
161.122955 172.0
161.166428 256.0
161.172745 212.0
161.202469 340.0
161.242035 508.0
161.313797 144.0
161.329834 140.0
161.361862 160.0
161.398239 148.0
161.447754 136.0
161.47377 252.0
161.500137 104.0
161.534851 144.0
161.546387 244.0
161.565399 188.0
161.594818 136.0
161.612152 132.0
161.639603 176.0
161.668045 188.0
161.719437 156.0
161.755219 64.0
161.779266 184.0
161.802994 140.0
161.814514 52.0
161.820892 96.0
161.867188 220.0
161.89061 316.0
161.920212 220.0
161.944901 136.0
161.951096 56.0
161.960815 184.0
161.995789 208.0
162.005524 104.0
162.01358 196.0
162.047302 216.0
162.079117 144.0
162.104309 300.0
162.121902 144.0
162.149979 132.0
162.169327 228.0
162.203262 216.0
162.238113 224.0
162.285797 176.0
162.312897 156.0
162.325333 184.0
162.342804 184.0
162.349899 180.0
162.360138 224.0
162.36972 248.0
162.394211 160.0
162.42038 288.0
162.469879 192.0
162.501556 384.0
162.532455 184.0
162.553894 276.0
162.591522 180.0
162.616989 180.0
162.710709 448.0
162.744858 196.0
162.754135 144.0
162.75914 224.0
162.793411 152.0
162.823853 224.0
162.863907 120.0
162.895676 400.0
162.922852 128.0
162.94458 100.0
162.949417 92.0
162.960022 180.0
162.977173 152.0
163.003143 140.0
163.060196 256.0
163.094055 132.0
163.10965 184.0
163.166534 220.0
163.221039 412.0
163.249023 228.0
163.277847 292.0
163.315079 208.0
163.354645 56.0
163.375534 116.0
163.402496 188.0
163.426743 316.0
163.479385 176.0
163.482895 220.0
163.493317 292.0
163.546921 328.0
163.595795 188.0
163.635849 56.0
163.658859 248.0
163.688248 172.0
163.729797 204.0
163.755402 208.0
163.780289 112.0
163.806931 96.0
163.841278 336.0
163.857834 108.0
163.864517 348.0
163.914429 156.0
163.980804 192.0
163.985443 416.0
164.006378 104.0
164.051544 328.0
164.05629 128.0
164.067917 220.0
164.092758 168.0
164.131348 64.0
164.154099 324.0
164.208527 472.0
164.223007 128.0
164.233032 444.0
164.262207 300.0
164.299255 124.0
164.338425 300.0
164.358322 132.0
164.369095 176.0
164.379135 236.0
164.388275 288.0
164.41568 184.0
164.456238 132.0
164.489838 136.0
164.537796 284.0
164.564514 116.0
164.590042 132.0
164.638916 132.0
164.681671 304.0
164.702042 180.0
164.737732 352.0
164.756317 164.0
164.801361 440.0
164.818314 200.0
164.838516 132.0
164.845856 164.0
164.897842 160.0
164.935577 136.0
164.97438 344.0
164.980362 324.0
164.993912 112.0
165.001724 236.0
165.035095 168.0
165.045258 144.0
165.07251 712.0
165.101776 188.0
165.149902 188.0
165.199646 136.0
165.216125 256.0
165.248047 308.0
165.313248 156.0
165.333313 236.0
165.365982 336.0
165.411499 88.0
165.449875 136.0
165.472046 144.0
165.49408 304.0
165.541199 76.0
165.581741 52.0
165.600983 432.0
165.62355 216.0
165.643829 112.0
165.678497 156.0
165.70253 228.0
165.740097 168.0
165.781052 312.0
165.807648 124.0
165.828079 200.0
165.846313 260.0
165.856964 192.0
165.863251 228.0
165.896774 192.0
165.920639 108.0
165.946609 180.0
165.956253 156.0
165.967117 168.0
165.978699 212.0
165.986374 100.0
166.014069 68.0
166.042618 296.0
166.075485 140.0
166.112335 400.0
166.142258 164.0
166.165405 192.0
166.190872 304.0
166.245941 140.0
166.279358 224.0
166.318222 336.0
166.351868 156.0
166.37439 280.0
166.394592 280.0
166.427399 112.0
166.449677 128.0
166.45961 84.0
166.469284 180.0
166.484558 128.0
166.515533 200.0
166.535065 136.0
166.567535 156.0
166.571854 100.0
166.58493 88.0
166.592484 136.0
166.615173 244.0
166.66684 136.0
166.703262 228.0
166.721893 268.0
166.747421 280.0
166.773651 124.0
166.79538 144.0
166.82991 248.0
166.868774 308.0
166.888153 220.0
166.936066 204.0
166.958206 164.0
166.991364 152.0
167.060181 1788.0
167.105911 220.0
167.134064 68.0
167.165878 156.0
167.185684 268.0
167.23291 316.0
167.25563 144.0
167.302444 120.0
167.340866 128.0
167.370438 116.0
167.405792 180.0
167.426727 380.0
167.465988 112.0
167.49147 180.0
167.519302 108.0
167.54126 232.0
167.579391 228.0
167.615891 100.0
167.655716 228.0
167.680908 80.0
167.707016 168.0
167.736969 316.0
167.7724 140.0
167.808807 272.0
167.815048 156.0
167.824875 144.0
167.843521 208.0
167.865433 212.0
167.902496 148.0
167.913696 44.0
167.926666 132.0
167.943497 280.0
167.973557 312.0
168.011642 244.0
168.037643 128.0
168.062637 292.0
168.091965 180.0
168.114792 144.0
168.142258 148.0
168.198685 388.0
168.219147 220.0
168.254379 236.0
168.285278 316.0
168.309464 52.0
168.330215 120.0
168.372482 184.0
168.432022 248.0
168.463608 112.0
168.505676 104.0
168.533798 208.0
168.571442 144.0
168.610794 140.0
168.640915 176.0
168.668579 96.0
168.706024 516.0
168.726196 124.0
168.746643 220.0
168.793533 132.0
168.799225 128.0
168.817474 124.0
168.852936 132.0
168.860703 132.0
168.888031 192.0
168.911285 268.0
168.944077 140.0
168.971634 124.0
169.002853 176.0
169.025482 104.0
169.049347 108.0
169.070084 572.0
169.131165 220.0
169.147675 236.0
169.16362 92.0
169.188507 276.0
169.225311 300.0
169.26976 168.0
169.288864 280.0
169.328125 248.0
169.402588 220.0
169.433121 324.0
169.460327 256.0
169.510452 84.0
169.522186 128.0
169.526413 136.0
169.557144 172.0
169.580185 168.0
169.619644 232.0
169.643219 196.0
169.680435 144.0
169.707153 188.0
169.750793 112.0
169.771545 164.0
169.800308 296.0
169.832428 188.0
169.883987 148.0
169.915359 84.0
169.937561 84.0
169.972473 176.0
169.990036 180.0
170.036224 168.0
170.063797 236.0
170.088165 588.0
170.105667 260.0
170.137009 276.0
170.165176 172.0
170.196228 212.0
170.225967 184.0
170.277237 184.0
170.316772 148.0
170.355545 148.0
170.406708 284.0
170.430115 252.0
170.450928 168.0
170.473862 224.0
170.509033 128.0
170.529648 148.0
170.571182 144.0
170.588638 296.0
170.609238 336.0
170.617493 376.0
170.65007 160.0
170.658905 120.0
170.665466 260.0
170.729736 208.0
170.734787 256.0
170.776596 212.0
170.802658 300.0
170.823364 104.0
170.84697 116.0
170.884827 440.0
170.948578 140.0
170.979446 92.0
171.033768 144.0
171.051773 120.0
171.060928 160.0
171.095612 176.0
171.115204 196.0
171.14592 188.0
171.165573 248.0
171.186905 220.0
171.228775 232.0
171.271332 320.0
171.307663 84.0
171.343628 256.0
171.374817 320.0
171.411057 328.0
171.461212 460.0
171.480453 180.0
171.503586 236.0
171.539551 268.0
171.567841 124.0
171.603897 144.0
171.619843 324.0
171.650696 260.0
171.698395 196.0
171.726227 200.0
171.749924 132.0
171.79657 44.0
171.834061 136.0
171.861771 208.0
171.917862 132.0
171.952438 116.0
171.97171 304.0
171.993149 156.0
172.040329 80.0
172.076889 140.0
172.094879 128.0
172.113708 156.0
172.127609 104.0
172.152054 136.0
172.182175 148.0
172.193283 292.0
172.230118 128.0
172.250519 200.0
172.299362 180.0
172.345291 160.0
172.3741 228.0
172.417313 264.0
172.461029 216.0
172.497238 136.0
172.542633 556.0
172.570663 588.0
172.604095 200.0
172.662323 300.0
172.672745 180.0
172.678421 400.0
172.699936 184.0
172.744171 200.0
172.7715 148.0
172.79274 356.0
172.821915 164.0
172.859161 52.0
172.878494 272.0
172.906967 120.0
172.94696 164.0
172.954742 212.0
172.978668 260.0
173.009933 176.0
173.044739 520.0
173.065262 236.0
173.113312 288.0
173.139038 140.0
173.164597 172.0
173.173645 124.0
173.207474 164.0
173.266098 356.0
173.298325 132.0
173.342087 128.0
173.371628 52.0
173.381744 204.0
173.385345 176.0
173.429382 208.0
173.437897 224.0
173.46257 272.0
173.486176 168.0
173.516403 308.0
173.53418 164.0
173.572876 328.0
173.644745 256.0
173.701523 200.0
173.709564 68.0
173.71907 164.0
173.738327 140.0
173.74826 172.0
173.795868 156.0
173.822495 100.0
173.851135 52.0
173.881088 272.0
173.910797 304.0
173.963928 124.0
174.049454 760.0
174.083221 140.0
174.090637 112.0
174.102341 140.0
174.107666 72.0
174.142075 164.0
174.161636 128.0
174.193512 144.0
174.224808 136.0
174.287659 300.0
174.326614 160.0
174.334 100.0
174.34111 152.0
174.359192 132.0
174.39093 160.0
174.423584 252.0
174.469681 140.0
174.524933 132.0
174.53891 92.0
174.574188 144.0
174.596878 156.0
174.624146 148.0
174.664917 56.0
174.6978 108.0
174.70845 84.0
174.737274 312.0
174.7668 108.0
174.78833 288.0
174.839966 272.0
174.869675 164.0
174.899597 320.0
174.931671 124.0
174.939911 108.0
174.950012 124.0
174.97467 280.0
175.053101 5460.0
175.125656 140.0
175.145187 172.0
175.201355 72.0
175.226578 120.0
175.243225 200.0
175.295853 240.0
175.33815 352.0
175.360611 168.0
175.393539 164.0
175.418289 148.0
175.430466 132.0
175.459702 188.0
175.46637 120.0
175.498611 64.0
175.521912 228.0
175.528946 120.0
175.552658 144.0
175.576447 76.0
175.5952 64.0
175.603363 268.0
175.61116 232.0
175.630936 192.0
175.651764 120.0
175.690475 84.0
175.707687 152.0
175.749802 296.0
175.77507 124.0
175.784454 132.0
175.81662 100.0
175.839966 292.0
175.858353 232.0
175.881287 592.0
175.910919 196.0
175.938217 400.0
175.942749 248.0
175.972931 308.0
175.989838 204.0
176.007996 244.0
176.061432 11528.0
176.117401 236.0
176.135864 228.0
176.168365 116.0
176.178726 168.0
176.186279 164.0
176.206772 132.0
176.265518 280.0
176.275818 168.0
176.28653 376.0
176.306946 144.0
176.359558 216.0
176.382751 100.0
176.442474 196.0
176.49852 220.0
176.536972 228.0
176.562103 156.0
176.595001 260.0
176.619736 116.0
176.645157 212.0
176.664886 172.0
176.698242 108.0
176.721375 152.0
176.74411 252.0
176.782761 140.0
176.826828 216.0
176.849472 68.0
176.867188 328.0
176.904114 256.0
176.927734 124.0
176.94783 228.0
176.985229 140.0
177.014725 144.0
177.059982 3084.0
177.124756 108.0
177.133789 292.0
177.167847 132.0
177.176331 124.0
177.186356 228.0
177.205338 280.0
177.227386 140.0
177.249649 212.0
177.297272 224.0
177.317642 168.0
177.357224 320.0
177.380814 152.0
177.420074 120.0
177.442047 160.0
177.483551 148.0
177.506378 308.0
177.545685 372.0
177.575104 116.0
177.584549 172.0
177.595825 92.0
177.603897 156.0
177.625549 136.0
177.670334 476.0
177.726151 180.0
177.766724 160.0
177.790848 160.0
177.79892 212.0
177.84491 108.0
177.882462 336.0
177.906616 196.0
177.936203 168.0
177.983887 148.0
178.027069 356.0
178.063995 908.0
178.103897 72.0
178.154572 132.0
178.175446 320.0
178.183594 96.0
178.193039 172.0
178.217987 140.0
178.247421 92.0
178.274872 168.0
178.336655 120.0
178.360153 64.0
178.381134 188.0
178.441742 312.0
178.460968 176.0
178.482788 292.0
178.504898 84.0
178.513733 68.0
178.517929 128.0
178.546158 140.0
178.585129 116.0
178.608963 244.0
178.636871 200.0
178.666763 220.0
178.693405 316.0
178.711365 172.0
178.739029 60.0
178.756027 132.0
178.766571 64.0
178.785309 108.0
178.818558 228.0
178.828735 196.0
178.856827 148.0
178.899063 124.0
178.939499 228.0
178.976807 252.0
179.018173 108.0
179.052444 600.0
179.122452 144.0
179.145325 408.0
179.231308 160.0
179.262482 144.0
179.299744 84.0
179.321747 264.0
179.340088 168.0
179.366501 124.0
179.401703 212.0
179.422485 116.0
179.445847 136.0
179.472931 188.0
179.499802 320.0
179.519928 124.0
179.551712 168.0
179.582077 136.0
179.607864 116.0
179.631668 96.0
179.667191 260.0
179.691727 236.0
179.711334 120.0
179.742554 100.0
179.766571 152.0
179.803955 220.0
179.837357 336.0
179.857315 72.0
179.879059 140.0
179.904343 84.0
179.936401 96.0
179.986053 160.0
180.005859 188.0
180.035172 200.0
180.042633 364.0
180.058487 276.0
180.091568 120.0
180.116318 256.0
180.144455 328.0
180.177002 148.0
180.214401 308.0
180.242645 160.0
180.264511 228.0
180.322906 248.0
180.354141 296.0
180.384872 132.0
180.418182 140.0
180.446472 176.0
180.465652 216.0
180.491409 104.0
180.525665 328.0
180.564636 144.0
180.609497 268.0
180.665268 172.0
180.688492 240.0
180.712479 76.0
180.733215 128.0
180.750031 144.0
180.780533 84.0
180.815384 152.0
180.854263 172.0
180.861725 120.0
180.885223 88.0
180.908981 352.0
180.931137 224.0
180.969482 128.0
180.997742 188.0
181.022247 372.0
181.056778 188.0
181.06282 128.0
181.074173 288.0
181.097977 320.0
181.126022 332.0
181.149643 204.0
181.178345 128.0
181.200699 136.0
181.227829 120.0
181.273315 152.0
181.306442 500.0
181.324783 80.0
181.346283 260.0
181.384995 164.0
181.428619 236.0
181.474258 200.0
181.510193 172.0
181.516663 140.0
181.545059 304.0
181.584366 204.0
181.612335 184.0
181.633316 100.0
181.650452 144.0
181.673523 116.0
181.708008 140.0
181.729996 200.0
181.76059 272.0
181.78569 124.0
181.808456 88.0
181.829239 196.0
181.861389 224.0
181.894547 56.0
181.929153 212.0
181.940826 116.0
181.950989 192.0
181.978439 124.0
181.990738 40.0
182.000488 120.0
182.040604 228.0
182.069458 148.0
182.09288 200.0
182.146439 264.0
182.164795 124.0
182.189743 152.0
182.222641 156.0
182.250854 140.0
182.275116 160.0
182.305954 344.0
182.331757 380.0
182.383835 140.0
182.407318 104.0
182.472534 128.0
182.497147 128.0
182.539154 188.0
182.572464 316.0
182.605026 164.0
182.633286 120.0
182.679901 284.0
182.691925 80.0
182.699127 228.0
182.728287 416.0
182.747955 152.0
182.782272 184.0
182.820404 216.0
182.853531 172.0
182.888733 176.0
182.898773 160.0
182.912277 192.0
182.935226 344.0
182.964096 136.0
183.016266 52.0
183.044968 404.0
183.089508 172.0
183.145187 272.0
183.185471 208.0
183.219299 244.0
183.257858 100.0
183.295486 124.0
183.318924 60.0
183.358902 140.0
183.394913 400.0
183.434509 248.0
183.458374 204.0
183.480774 152.0
183.494949 120.0
183.522736 196.0
183.546326 176.0
183.604172 236.0
183.640656 136.0
183.661194 208.0
183.693604 388.0
183.738266 300.0
183.76886 180.0
183.797119 144.0
183.82428 64.0
183.85379 184.0
183.879196 116.0
183.904022 268.0
183.960724 160.0
184.000305 456.0
184.033859 240.0
184.052292 224.0
184.063416 268.0
184.084991 168.0
184.124191 152.0
184.164276 160.0
184.187744 180.0
184.211746 220.0
184.229919 120.0
184.250565 140.0
184.274872 216.0
184.293808 212.0
184.342209 84.0
184.348969 296.0
184.443726 152.0
184.465897 420.0
184.487381 120.0
184.529739 252.0
184.549622 120.0
184.588058 104.0
184.62326 224.0
184.643539 276.0
184.668137 164.0
184.697739 168.0
184.735352 212.0
184.747025 152.0
184.754211 120.0
184.789291 556.0
184.813995 60.0
184.832718 176.0
184.851074 216.0
184.864151 120.0
184.868805 200.0
184.911331 256.0
184.948151 152.0
184.971954 220.0
185.001862 92.0
185.03215 60.0
185.069214 676.0
185.141434 192.0
185.190475 380.0
185.224152 120.0
185.242264 252.0
185.272537 172.0
185.299683 180.0
185.334717 96.0
185.377365 152.0
185.403122 148.0
185.429382 292.0
185.452972 100.0
185.502426 120.0
185.542633 204.0
185.583405 132.0
185.612076 176.0
185.649033 144.0
185.674377 308.0
185.71756 276.0
185.727997 124.0
185.734467 196.0
185.76062 272.0
185.799652 156.0
185.808472 180.0
185.833221 488.0
185.86058 220.0
185.886627 112.0
185.937027 196.0
185.94223 108.0
185.960373 148.0
186.002899 196.0
186.048996 268.0
186.077881 172.0
186.115738 204.0
186.135437 220.0
186.171265 136.0
186.205276 324.0
186.241913 92.0
186.248428 100.0
186.262375 132.0
186.293411 104.0
186.35878 136.0
186.39505 108.0
186.425934 124.0
186.451004 140.0
186.472046 184.0
186.508194 164.0
186.528961 60.0
186.544708 124.0
186.581223 408.0
186.644379 300.0
186.664902 200.0
186.689896 164.0
186.748215 264.0
186.776596 144.0
186.797623 300.0
186.827744 384.0
186.873917 316.0
186.893372 116.0
186.913971 204.0
186.938705 352.0
186.966156 168.0
187.006561 424.0
187.029129 180.0
187.063385 448.0
187.08255 356.0
187.108292 352.0
187.125793 528.0
187.20015 292.0
187.240097 172.0
187.273727 144.0
187.303757 136.0
187.349976 192.0
187.380783 496.0
187.406113 232.0
187.433395 384.0
187.455154 244.0
187.511902 140.0
187.521851 292.0
187.534409 92.0
187.569351 100.0
187.593201 260.0
187.649673 420.0
187.682388 572.0
187.722992 120.0
187.755478 108.0
187.77623 188.0
187.81012 196.0
187.865097 156.0
187.891907 396.0
187.916718 172.0
187.933487 328.0
187.975769 80.0
187.993195 128.0
188.045593 436.0
188.074219 148.0
188.103134 196.0
188.17804 188.0
188.205734 56.0
188.254349 76.0
188.28595 296.0
188.313248 204.0
188.355545 124.0
188.377396 192.0
188.39653 160.0
188.443802 300.0
188.483948 100.0
188.503082 44.0
188.549545 120.0
188.584671 164.0
188.59108 140.0
188.603287 192.0
188.608795 112.0
188.661606 120.0
188.707504 264.0
188.725479 144.0
188.750214 156.0
188.771255 276.0
188.813019 208.0
188.850296 168.0
188.901901 228.0
188.91214 172.0
188.923355 224.0
188.95134 176.0
188.957199 288.0
188.999817 124.0
189.004044 296.0
189.034393 164.0
189.065338 252.0
189.129135 208.0
189.156479 120.0
189.221542 128.0
189.244095 120.0
189.260986 496.0
189.292938 196.0
189.324799 144.0
189.342224 300.0
189.393829 104.0
189.42627 156.0
189.437668 200.0
189.445343 220.0
189.464584 108.0
189.470474 108.0
189.501556 332.0
189.553543 172.0
189.574173 168.0
189.60321 212.0
189.650223 208.0
189.660767 184.0
189.689987 148.0
189.708145 100.0
189.740067 132.0
189.782837 324.0
189.804764 168.0
189.825928 336.0
189.866348 244.0
189.915131 124.0
189.962402 100.0
189.990067 260.0
190.01767 292.0
190.06369 336.0
190.072876 96.0
190.080536 328.0
190.104218 312.0
190.128738 116.0
190.136597 152.0
190.161118 256.0
190.202179 184.0
190.234009 116.0
190.266418 164.0
190.30928 188.0
190.362671 180.0
190.40686 168.0
190.431778 128.0
190.479767 236.0
190.485291 192.0
190.491089 228.0
190.496704 428.0
190.562027 360.0
190.58931 140.0
190.617325 148.0
190.637222 160.0
190.689621 288.0
190.707489 220.0
190.742249 688.0
190.76857 220.0
190.85614 128.0
190.889908 544.0
190.938217 164.0
190.962448 416.0
190.992996 292.0
191.061279 208.0
191.073486 288.0
191.122452 296.0
191.142532 196.0
191.169815 252.0
191.190598 256.0
191.223724 152.0
191.244934 168.0
191.27243 232.0
191.288422 420.0
191.337631 96.0
191.34993 100.0
191.374649 212.0
191.393051 176.0
191.418732 184.0
191.488174 232.0
191.511871 152.0
191.531128 100.0
191.555618 324.0
191.564056 152.0
191.575623 404.0
191.603485 152.0
191.648331 120.0
191.677216 164.0
191.707458 176.0
191.744171 184.0
191.782013 148.0
191.834213 144.0
191.846878 136.0
191.872345 216.0
191.934128 156.0
191.942398 172.0
191.951721 176.0
191.994278 196.0
192.004852 108.0
192.01619 244.0
192.078857 708.0
192.131561 228.0
192.17572 436.0
192.222824 328.0
192.277573 180.0
192.313889 268.0
192.357208 140.0
192.406921 60.0
192.463852 120.0
192.500076 124.0
192.545303 144.0
192.591156 180.0
192.618073 256.0
192.628662 236.0
192.643478 272.0
192.648026 108.0
192.674026 172.0
192.713165 192.0
192.722488 116.0
192.748993 232.0
192.792786 152.0
192.812347 352.0
192.838852 208.0
192.865799 232.0
192.912399 152.0
192.954285 208.0
192.999985 324.0
193.034225 148.0
193.06282 1880.0
193.108459 256.0
193.139069 216.0
193.148224 128.0
193.159683 256.0
193.198441 72.0
193.203201 448.0
193.224609 160.0
193.251266 124.0
193.282166 172.0
193.316406 160.0
193.326294 64.0
193.338211 176.0
193.364075 76.0
193.38678 148.0
193.391678 176.0
193.439163 208.0
193.477951 104.0
193.5121 152.0
193.549973 284.0
193.585541 144.0
193.629791 112.0
193.663544 180.0
193.673294 100.0
193.69783 252.0
193.729141 208.0
193.752777 164.0
193.762497 276.0
193.785889 164.0
193.792953 140.0
193.81955 144.0
193.840652 300.0
193.863892 268.0
193.901108 148.0
193.945755 112.0
193.965134 136.0
193.988663 156.0
194.011597 236.0
194.060623 1616.0
194.101303 124.0
194.165344 324.0
194.185135 244.0
194.226257 160.0
194.276321 412.0
194.332153 124.0
194.347275 264.0
194.38327 188.0
194.403809 160.0
194.419846 112.0
194.430908 156.0
194.442276 280.0
194.457504 188.0
194.495148 460.0
194.535904 256.0
194.547928 340.0
194.61705 156.0
194.669495 160.0
194.675018 216.0
194.688904 92.0
194.701019 156.0
194.758194 248.0
194.775223 188.0
194.811157 160.0
194.842194 112.0
194.864258 200.0
194.880112 124.0
194.890533 148.0
194.897629 268.0
194.931335 116.0
194.95932 264.0
195.010101 100.0
195.043396 136.0
195.055084 288.0
195.086395 136.0
195.137802 128.0
195.165787 252.0
195.191513 156.0
195.241852 124.0
195.251022 116.0
195.275024 184.0
195.311707 212.0
195.344879 256.0
195.374146 380.0
195.393066 128.0
195.40477 104.0
195.428818 180.0
195.456741 388.0
195.491089 276.0
195.55069 144.0
195.578293 188.0
195.611893 128.0
195.651657 192.0
195.674393 240.0
195.706726 184.0
195.735733 332.0
195.760742 164.0
195.768188 140.0
195.813507 260.0
195.84671 136.0
195.857147 284.0
195.889664 200.0
195.912827 156.0
195.937317 136.0
195.978546 140.0
196.010147 128.0
196.034958 268.0
196.086472 176.0
196.130997 232.0
196.154648 168.0
196.204086 104.0
196.208328 216.0
196.21434 80.0
196.227722 368.0
196.28038 224.0
196.297485 76.0
196.329376 112.0
196.337097 96.0
196.362045 144.0
196.370239 204.0
196.382812 252.0
196.415359 144.0
196.422852 108.0
196.430908 192.0
196.443024 80.0
196.451172 160.0
196.475403 152.0
196.523697 100.0
196.543503 164.0
196.571228 288.0
196.599442 304.0
196.665314 272.0
196.686264 332.0
196.745789 128.0
196.754761 248.0
196.763428 204.0
196.783554 176.0
196.812286 136.0
196.840942 140.0
196.862289 224.0
196.872971 180.0
196.880615 164.0
196.907532 372.0
196.937027 276.0
196.966141 128.0
196.995834 128.0
197.018051 96.0
197.045837 204.0
197.085938 184.0
197.117798 116.0
197.126572 104.0
197.134705 196.0
197.176102 56.0
197.196533 140.0
197.221848 336.0
197.260941 96.0
197.301483 104.0
197.341141 256.0
197.36525 168.0
197.389404 552.0
197.424408 112.0
197.435699 184.0
197.464539 64.0
197.492432 144.0
197.516815 100.0
197.566467 124.0
197.593567 128.0
197.613937 200.0
197.657578 384.0
197.68219 72.0
197.711151 328.0
197.744507 132.0
197.78743 228.0
197.831116 88.0
197.836533 188.0
197.891815 76.0
197.928482 168.0
197.967606 276.0
198.004669 280.0
198.07251 120.0
198.108658 480.0
198.183304 236.0
198.23912 308.0
198.280746 116.0
198.296432 144.0
198.344757 348.0
198.349304 244.0
198.383408 112.0
198.411362 260.0
198.456955 388.0
198.496124 136.0
198.514481 228.0
198.559128 192.0
198.589066 148.0
198.613907 96.0
198.633469 236.0
198.652771 240.0
198.682022 148.0
198.728027 312.0
198.780411 164.0
198.786697 128.0
198.800613 244.0
198.861465 188.0
198.88768 204.0
198.928391 336.0
198.95285 300.0
198.993057 152.0
199.033722 396.0
199.073929 176.0
199.095032 208.0
199.118866 140.0
199.172638 160.0
199.217133 304.0
199.236877 284.0
199.245911 100.0
199.297577 84.0
199.35437 320.0
199.388062 280.0
199.425323 272.0
199.45929 176.0
199.481262 320.0
199.514679 152.0
199.546417 248.0
199.583298 124.0
199.625702 128.0
199.656662 132.0
199.685928 60.0
199.691681 140.0
199.732193 148.0
199.761475 148.0
199.778992 124.0
199.815933 160.0
199.866592 152.0
199.880707 204.0
199.88623 120.0
199.920959 96.0
199.958191 116.0
199.982895 340.0
200.005676 128.0
200.023788 144.0
200.053131 112.0
200.094147 100.0
200.151566 116.0
200.185074 144.0
200.209366 88.0
200.255997 164.0
200.263733 64.0
200.285873 168.0
200.307388 324.0
200.339722 188.0
200.383102 152.0
200.40361 308.0
200.442062 104.0
200.463654 312.0
200.486328 292.0
200.530746 256.0
200.538879 116.0
200.549606 296.0
200.584366 204.0
200.624756 156.0
200.660385 248.0
200.687515 212.0
200.731323 168.0
200.750717 144.0
200.797729 464.0
200.83609 312.0
200.88736 136.0
200.904373 260.0
200.958557 124.0
200.999649 332.0
201.057114 13452.0
201.108627 160.0
201.130722 144.0
201.16748 64.0
201.201126 164.0
201.251068 180.0
201.277832 152.0
201.309814 124.0
201.340866 364.0
201.376663 196.0
201.385254 112.0
201.43132 412.0
201.457428 548.0
201.48111 296.0
201.502075 128.0
201.530609 300.0
201.556259 168.0
201.586899 232.0
201.613022 288.0
201.623703 140.0
201.631271 296.0
201.658936 276.0
201.717987 156.0
201.738892 176.0
201.765121 136.0
201.797745 404.0
201.818573 308.0
201.850693 192.0
201.871445 212.0
201.896606 276.0
201.929047 584.0
201.9599 164.0
201.984512 340.0
202.025406 428.0
202.065735 133184.0
202.164337 168.0
202.201965 256.0
202.253387 528.0
202.282028 356.0
202.316406 240.0
202.351166 400.0
202.360672 248.0
202.370407 420.0
202.402649 220.0
202.429993 332.0
202.470947 176.0
202.531494 700.0
202.607269 260.0
202.642349 220.0
202.64859 208.0
202.686203 324.0
202.725525 400.0
202.756073 252.0
202.801056 480.0
202.829529 636.0
202.869003 240.0
202.926193 452.0
202.943497 436.0
202.947815 512.0
202.992889 708.0
203.039307 1916.0
203.074478 276520.0
203.186722 384.0
203.235199 260.0
203.267654 372.0
203.298218 448.0
203.305786 388.0
203.338776 372.0
203.389923 312.0
203.421143 260.0
203.453323 376.0
203.506561 420.0
203.540588 7424.0
203.596176 228.0
203.603943 64.0
203.634857 176.0
203.680191 368.0
203.711212 248.0
203.758255 472.0
203.797623 256.0
203.831726 372.0
203.858627 332.0
203.914261 356.0
203.956863 268.0
203.978973 132.0
204.076569 75096.0
204.158691 452.0
204.219482 140.0
204.250504 312.0
204.334412 184.0
204.392807 456.0
204.415741 196.0
204.436966 140.0
204.454117 156.0
204.484528 108.0
204.50943 168.0
204.529343 444.0
204.558853 224.0
204.591721 188.0
204.640823 116.0
204.667969 144.0
204.687164 144.0
204.725403 144.0
204.776413 208.0
204.810638 44.0
204.839005 168.0
204.889099 164.0
204.914581 136.0
204.952911 332.0
205.00853 144.0
205.079453 3456.0
205.136505 148.0
205.176605 144.0
205.223999 396.0
205.254944 88.0
205.303192 188.0
205.333603 204.0
205.363342 296.0
205.392471 216.0
205.420547 308.0
205.450485 360.0
205.488068 180.0
205.514374 148.0
205.523712 196.0
205.548813 164.0
205.57196 184.0
205.608841 284.0
205.661987 204.0
205.690613 352.0
205.71817 228.0
205.744324 304.0
205.78627 244.0
205.809464 328.0
205.879562 280.0
205.903351 212.0
205.930588 84.0
205.957108 336.0
206.060715 816.0
206.1353 132.0
206.17543 180.0
206.197159 324.0
206.235733 100.0
206.254883 112.0
206.284073 120.0
206.317398 124.0
206.339767 236.0
206.403046 140.0
206.422318 136.0
206.443527 136.0
206.488922 64.0
206.523392 128.0
206.566879 164.0
206.597748 80.0
206.649429 380.0
206.714401 136.0
206.749008 316.0
206.769836 116.0
206.802979 80.0
206.808838 116.0
206.854523 272.0
206.874664 212.0
206.910873 204.0
206.961914 176.0
207.000122 192.0
207.031387 200.0
207.065643 228.0
207.095245 168.0
207.128693 204.0
207.175003 228.0
207.203979 244.0
207.230148 124.0
207.268997 152.0
207.275345 108.0
207.301407 160.0
207.320938 116.0
207.352966 216.0
207.375626 172.0
207.404327 140.0
207.427124 124.0
207.462753 120.0
207.503021 320.0
207.545258 124.0
207.589584 120.0
207.606033 68.0
207.616623 248.0
207.655991 144.0
207.69957 144.0
207.752487 64.0
207.800064 312.0
207.856812 188.0
207.882965 84.0
207.904083 120.0
207.929764 132.0
207.968597 52.0
207.974884 124.0
208.008987 296.0
208.04361 280.0
208.096817 92.0
208.131729 60.0
208.168915 396.0
208.19223 132.0
208.214294 68.0
208.249756 320.0
208.277771 188.0
208.311691 192.0
208.357407 216.0
208.391647 164.0
208.433899 292.0
208.495758 136.0
208.519943 164.0
208.547821 124.0
208.591019 84.0
208.617615 160.0
208.649231 272.0
208.682098 292.0
208.72551 124.0
208.764099 264.0
208.784851 116.0
208.833725 252.0
208.890091 36.0
208.922287 84.0
208.960098 132.0
208.983521 84.0
209.02243 144.0
209.032684 192.0
209.09552 316.0
209.13385 284.0
209.173172 64.0
209.195969 136.0
209.21405 300.0
209.257431 116.0
209.290344 108.0
209.336151 148.0
209.369507 224.0
209.399124 328.0
209.433395 132.0
209.459183 168.0
209.482788 252.0
209.490234 132.0
209.501511 340.0
209.538498 104.0
209.588425 200.0
209.633514 96.0
209.683182 188.0
209.709854 152.0
209.74559 128.0
209.784393 152.0
209.816895 140.0
209.82605 204.0
209.83313 140.0
209.862015 152.0
209.8871 292.0
209.929306 108.0
209.936676 76.0
209.958054 136.0
209.993988 240.0
210.03009 116.0
210.066895 140.0
210.12561 356.0
210.181488 220.0
210.207779 272.0
210.237381 180.0
210.295074 268.0
210.311554 144.0
210.363815 176.0
210.375305 176.0
210.420212 136.0
210.4561 128.0
210.492569 80.0
210.541061 236.0
210.586349 320.0
210.613739 96.0
210.617569 184.0
210.651291 200.0
210.661575 160.0
210.704651 276.0
210.726624 160.0
210.751038 292.0
210.790497 192.0
210.817703 348.0
210.853455 236.0
210.860733 144.0
210.890656 144.0
210.907562 268.0
210.931152 124.0
210.980423 204.0
211.031128 6424.0
211.084915 160.0
211.126083 88.0
211.152695 132.0
211.159729 112.0
211.175888 148.0
211.250778 300.0
211.272156 160.0
211.301163 176.0
211.331726 268.0
211.372559 268.0
211.41304 268.0
211.445435 188.0
211.470154 268.0
211.511032 248.0
211.55629 168.0
211.601273 112.0
211.645477 136.0
211.675262 248.0
211.71019 316.0
211.780334 100.0
211.805603 316.0
211.835648 140.0
211.85994 160.0
211.880356 172.0
211.914413 228.0
211.926132 192.0
211.951981 160.0
211.977509 148.0
212.03215 964.0
212.11792 156.0
212.132828 152.0
212.136414 300.0
212.148346 200.0
212.195877 256.0
212.218887 232.0
212.252197 152.0
212.282791 288.0
212.307861 232.0
212.315079 128.0
212.325867 204.0
212.360916 224.0
212.394028 80.0
212.421951 168.0
212.45163 148.0
212.487823 132.0
212.519791 212.0
212.558258 172.0
212.584793 32.0
212.618073 128.0
212.646454 192.0
212.72287 124.0
212.754425 188.0
212.775299 148.0
212.812622 236.0
212.849594 148.0
212.89502 144.0
212.920425 88.0
212.938934 76.0
212.957779 104.0
212.990829 232.0
213.028366 2076.0
213.145248 252.0
213.180618 248.0
213.224655 200.0
213.263626 148.0
213.293396 212.0
213.346786 220.0
213.392059 192.0
213.433731 172.0
213.455994 156.0
213.482376 132.0
213.502533 224.0
213.530594 244.0
213.603622 332.0
213.656982 120.0
213.684006 240.0
213.713974 84.0
213.735336 156.0
213.760895 88.0
213.78862 108.0
213.820709 232.0
213.868469 260.0
213.897049 188.0
213.931183 168.0
213.960358 216.0
214.026047 64.0
214.030655 256.0
214.063934 168.0
214.098129 168.0
214.130753 148.0
214.148849 220.0
214.162354 176.0
214.174133 108.0
214.203674 160.0
214.233322 236.0
214.241287 148.0
214.321289 172.0
214.379883 224.0
214.404739 268.0
214.466461 272.0
214.5224 140.0
214.565796 64.0
214.574295 160.0
214.584595 232.0
214.622772 112.0
214.64151 224.0
214.69249 184.0
214.729309 176.0
214.754715 360.0
214.7948 272.0
214.848633 212.0
214.885757 108.0
214.917892 256.0
214.948395 124.0
214.958038 252.0
215.028168 672.0
215.068283 136.0
215.099991 164.0
215.124374 156.0
215.154846 172.0
215.195389 144.0
215.233444 276.0
215.260101 284.0
215.324631 288.0
215.373428 280.0
215.424347 156.0
215.454575 92.0
215.49614 112.0
215.528107 132.0
215.56015 128.0
215.587326 344.0
215.607025 116.0
215.613693 60.0
215.630493 124.0
215.65596 136.0
215.685425 144.0
215.730972 204.0
215.769714 296.0
215.824539 308.0
215.834213 188.0
215.86676 276.0
215.885635 268.0
215.919342 232.0
215.985123 100.0
216.025696 356.0
216.079773 2448.0
216.13707 188.0
216.180099 60.0
216.228455 128.0
216.260651 192.0
216.287796 268.0
216.309402 312.0
216.332855 148.0
216.342834 152.0
216.364624 192.0
216.40773 348.0
216.428314 88.0
216.459579 160.0
216.500732 144.0
216.542175 104.0
216.568756 140.0
216.599152 320.0
216.619568 388.0
216.644241 92.0
216.67572 204.0
216.718277 60.0
216.740936 336.0
216.768097 196.0
216.830078 208.0
216.865921 172.0
216.877136 144.0
216.888641 172.0
216.976151 244.0
217.024567 244.0
217.087906 6092.0
217.174881 284.0
217.19989 88.0
217.22493 224.0
217.274628 160.0
217.327774 176.0
217.376648 124.0
217.408676 136.0
217.440628 96.0
217.469162 164.0
217.497589 80.0
217.538208 168.0
217.542786 272.0
217.570114 192.0
217.595566 144.0
217.614471 244.0
217.645782 92.0
217.669403 84.0
217.706268 152.0
217.717316 148.0
217.730164 264.0
217.73848 88.0
217.783249 252.0
217.828415 112.0
217.870132 204.0
217.903534 132.0
217.938049 136.0
218.003922 252.0
218.037628 212.0
218.057861 328.0
218.091751 1468.0
218.128464 140.0
218.133423 140.0
218.146774 344.0
218.183868 168.0
218.217331 96.0
218.248642 236.0
218.269348 104.0
218.305389 160.0
218.339676 152.0
218.377106 72.0
218.403458 100.0
218.475311 140.0
218.502762 300.0
218.528671 220.0
218.563553 256.0
218.591873 132.0
218.620316 88.0
218.630692 84.0
218.652145 172.0
218.678452 244.0
218.697891 156.0
218.734314 192.0
218.795456 144.0
218.820023 284.0
218.843414 264.0
218.865097 216.0
218.904892 48.0
218.933563 136.0
218.989212 188.0
219.014694 160.0
219.026566 264.0
219.081711 288.0
219.122192 100.0
219.14946 92.0
219.19519 56.0
219.201096 296.0
219.272003 128.0
219.285294 132.0
219.328583 176.0
219.402512 152.0
219.451004 292.0
219.474579 364.0
219.523636 308.0
219.554199 40.0
219.59729 148.0
219.638565 292.0
219.654541 176.0
219.691162 120.0
219.701431 320.0
219.726883 148.0
219.759491 156.0
219.796341 352.0
219.852295 164.0
219.874237 172.0
219.886948 148.0
219.914032 180.0
219.960144 164.0
220.013138 272.0
220.076248 51316.0
220.175522 160.0
220.214142 292.0
220.248795 152.0
220.261658 156.0
220.291931 68.0
220.304123 124.0
220.353012 136.0
220.373413 152.0
220.440445 112.0
220.470245 256.0
220.519058 124.0
220.550339 284.0
220.580795 132.0
220.61525 92.0
220.648193 184.0
220.667145 332.0
220.707611 68.0
220.730316 276.0
220.778473 388.0
220.814316 132.0
220.847366 292.0
220.858002 140.0
220.871307 184.0
220.900543 120.0
220.925507 216.0
220.971176 124.0
221.010666 188.0
221.031204 216.0
221.078629 8752.0
221.120544 140.0
221.1604 152.0
221.192825 236.0
221.230576 116.0
221.259506 132.0
221.282074 168.0
221.303421 160.0
221.331711 272.0
221.354477 204.0
221.380127 72.0
221.401688 116.0
221.433197 176.0
221.453247 96.0
221.489563 80.0
221.508926 264.0
221.539062 116.0
221.562515 308.0
221.584747 272.0
221.617203 140.0
221.648621 160.0
221.68544 124.0
221.690598 104.0
221.705017 200.0
221.748566 132.0
221.774292 144.0
221.799713 192.0
221.84491 128.0
221.861099 224.0
221.888458 156.0
221.912109 104.0
221.927673 208.0
221.932297 144.0
221.978836 176.0
222.003265 128.0
222.025528 76.0
222.034821 204.0
222.080017 432.0
222.147125 140.0
222.198318 172.0
222.229324 192.0
222.257034 232.0
222.296677 180.0
222.323898 252.0
222.373749 112.0
222.399612 284.0
222.428574 184.0
222.46257 104.0
222.480682 616.0
222.54097 48.0
222.573975 80.0
222.605652 204.0
222.629974 104.0
222.665298 164.0
222.710159 184.0
222.74379 104.0
222.772827 144.0
222.813553 148.0
222.82692 68.0
222.832092 172.0
222.870758 144.0
222.920303 352.0
222.95192 132.0
222.979507 420.0
223.032013 272.0
223.115387 360.0
223.156235 88.0
223.169037 56.0
223.177048 88.0
223.209015 100.0
223.252045 272.0
223.327728 364.0
223.376724 204.0
223.418488 68.0
223.430344 116.0
223.44136 160.0
223.470154 164.0
223.520645 164.0
223.544678 120.0
223.570892 292.0
223.598343 260.0
223.640228 176.0
223.68457 140.0
223.724243 160.0
223.743576 288.0
223.78717 208.0
223.812241 92.0
223.840973 232.0
223.904907 176.0
223.960617 92.0
223.985184 196.0
224.01619 144.0
224.049515 204.0
224.092026 176.0
224.103912 144.0
224.111954 292.0
224.133392 132.0
224.143097 92.0
224.162506 192.0
224.182648 140.0
224.227188 160.0
224.254807 272.0
224.302292 108.0
224.352966 140.0
224.37941 184.0
224.407455 172.0
224.454193 124.0
224.506332 188.0
224.553146 116.0
224.558853 116.0
224.584106 68.0
224.592499 224.0
224.630951 152.0
224.660782 324.0
224.687454 144.0
224.700165 76.0
224.712097 204.0
224.733261 164.0
224.759338 148.0
224.77887 220.0
224.814621 172.0
224.836456 288.0
224.864929 104.0
224.893433 196.0
224.930511 152.0
224.995407 56.0
225.046036 904.0
225.092102 164.0
225.105988 128.0
225.120682 260.0
225.153275 172.0
225.165405 56.0
225.186569 164.0
225.2285 356.0
225.285233 116.0
225.296402 192.0
225.364639 284.0
225.44577 128.0
225.498795 128.0
225.525635 144.0
225.58136 324.0
225.619293 464.0
225.64357 176.0
225.685181 120.0
225.718063 200.0
225.744614 256.0
225.818817 120.0
225.885956 140.0
225.926117 116.0
225.945053 284.0
225.981674 212.0
225.993378 84.0
226.004044 120.0
226.042786 208.0
226.094116 156.0
226.106186 164.0
226.11998 164.0
226.12851 124.0
226.153931 164.0
226.184418 340.0
226.216888 200.0
226.264282 188.0
226.291382 132.0
226.345901 244.0
226.374893 116.0
226.409576 160.0
226.441086 160.0
226.475266 68.0
226.551239 80.0
226.590332 52.0
226.611313 48.0
226.63768 192.0
226.654922 152.0
226.689392 84.0
226.715485 204.0
226.745163 72.0
226.75676 100.0
226.783127 112.0
226.812103 88.0
226.839081 44.0
226.86496 152.0
226.903534 156.0
226.951965 172.0
226.959854 196.0
226.978271 112.0
227.0009 256.0
227.039322 432.0
227.082779 120.0
227.109665 204.0
227.148834 136.0
227.183945 128.0
227.221008 136.0
227.23674 100.0
227.244736 76.0
227.32077 280.0
227.328491 340.0
227.375443 80.0
227.38649 128.0
227.444839 192.0
227.48526 108.0
227.52948 144.0
227.553513 160.0
227.599274 136.0
227.644989 116.0
227.703232 128.0
227.756744 376.0
227.783615 152.0
227.841858 80.0
227.848206 136.0
227.903793 136.0
227.940521 232.0
227.969971 148.0
227.99559 248.0
228.020432 164.0
228.05484 228.0
228.09761 188.0
228.15509 96.0
228.163513 176.0
228.182159 200.0
228.228043 148.0
228.279205 104.0
228.29837 148.0
228.329575 188.0
228.386597 100.0
228.416382 184.0
228.451691 116.0
228.492828 208.0
228.510574 84.0
228.53894 192.0
228.611816 148.0
228.634064 124.0
228.688553 268.0
228.726318 260.0
228.738449 136.0
228.752304 300.0
228.7854 152.0
228.833908 44.0
228.872208 216.0
228.877609 156.0
228.893784 140.0
228.946518 204.0
229.00148 124.0
229.035324 372.0
229.077301 472.0
229.111099 172.0
229.133575 156.0
229.179916 100.0
229.203247 180.0
229.215683 112.0
229.2258 160.0
229.284409 108.0
229.312592 256.0
229.359283 212.0
229.366135 84.0
229.37825 268.0
229.411179 176.0
229.469635 128.0
229.498047 208.0
229.533676 116.0
229.568192 244.0
229.605103 156.0
229.624863 180.0
229.656601 128.0
229.703705 176.0
229.74408 112.0
229.782181 268.0
229.795364 92.0
229.815247 68.0
229.822647 228.0
229.852692 116.0
229.880966 96.0
229.910217 192.0
229.937302 116.0
229.972839 124.0
230.035629 104.0
230.071472 1624.0
230.127243 416.0
230.147064 176.0
230.17601 200.0
230.205887 112.0
230.230042 52.0
230.261536 168.0
230.302536 368.0
230.330841 148.0
230.352173 248.0
230.385391 204.0
230.412338 172.0
230.439682 120.0
230.453323 144.0
230.457153 260.0
230.506256 140.0
230.552658 152.0
230.58197 168.0
230.622818 176.0
230.661804 80.0
230.708466 244.0
230.734543 96.0
230.773468 120.0
230.805786 140.0
230.829727 148.0
230.867447 140.0
230.893539 144.0
230.930206 84.0
230.96254 112.0
231.0242 236.0
231.06723 376.0
231.129166 380.0
231.154114 104.0
231.179001 40.0
231.213837 68.0
231.258804 164.0
231.327042 136.0
231.388474 152.0
231.422913 84.0
231.455902 64.0
231.509781 48.0
231.550583 100.0
231.593384 172.0
231.618835 164.0
231.665329 288.0
231.713196 272.0
231.740158 356.0
231.762665 272.0
231.825455 432.0
231.847946 96.0
231.856461 120.0
231.887482 152.0
231.897598 164.0
231.906616 192.0
231.946274 104.0
231.966537 252.0
232.015259 192.0
232.043884 140.0
232.070328 236.0
232.08963 216.0
232.120209 192.0
232.1409 104.0
232.170212 176.0
232.198303 124.0
232.22963 88.0
232.262283 240.0
232.316437 180.0
232.331665 100.0
232.388947 244.0
232.411331 180.0
232.419525 244.0
232.487518 364.0
232.52504 264.0
232.552216 372.0
232.586655 168.0
232.614182 148.0
232.638977 144.0
232.670609 244.0
232.701859 148.0
232.730453 140.0
232.787506 104.0
232.809921 188.0
232.880417 152.0
232.91275 168.0
232.937042 152.0
232.979889 124.0
232.987518 80.0
233.045609 260.0
233.064163 76.0
233.092255 160.0
233.113342 68.0
233.132721 144.0
233.167587 76.0
233.186996 104.0
233.219864 192.0
233.22702 120.0
233.236771 160.0
233.278122 176.0
233.328232 148.0
233.369202 152.0
233.390274 88.0
233.438004 156.0
233.447189 272.0
233.499832 360.0
233.509628 288.0
233.579422 180.0
233.619949 188.0
233.640564 252.0
233.678406 188.0
233.722595 260.0
233.74469 136.0
233.777008 40.0
233.801346 68.0
233.831512 132.0
233.85228 136.0
233.879044 144.0
233.91951 156.0
233.956085 160.0
233.988983 188.0
234.038696 256.0
234.052658 152.0
234.084885 136.0
234.129547 140.0
234.175827 96.0
234.198349 112.0
234.250977 364.0
234.277267 40.0
234.287323 196.0
234.30986 96.0
234.358322 336.0
234.39061 64.0
234.419205 140.0
234.43158 112.0
234.443527 108.0
234.466476 192.0
234.520889 96.0
234.552383 152.0
234.589081 148.0
234.59697 172.0
234.611588 156.0
234.622192 172.0
234.709869 232.0
234.749664 152.0
234.810074 284.0
234.884674 180.0
234.921112 264.0
234.947342 160.0
234.980881 264.0
234.990295 128.0
235.056686 704.0
235.138657 156.0
235.167633 300.0
235.203125 496.0
235.243484 148.0
235.288803 212.0
235.323212 160.0
235.356918 164.0
235.370895 92.0
235.386566 112.0
235.419662 104.0
235.440002 128.0
235.448929 112.0
235.462097 240.0
235.499557 156.0
235.527054 236.0
235.57843 44.0
235.593842 144.0
235.603424 112.0
235.664536 124.0
235.727356 180.0
235.758896 424.0
235.778946 236.0
235.818008 180.0
235.867371 280.0
235.897064 416.0
235.930099 296.0
235.961868 84.0
235.993546 692.0
236.035172 644.0
236.063004 156.0
236.112122 164.0
236.149109 124.0
236.16304 120.0
236.213699 352.0
236.248596 304.0
236.297424 136.0
236.33345 188.0
236.364456 416.0
236.39566 280.0
236.464294 348.0
236.509628 260.0
236.586319 132.0
236.60936 200.0
236.664307 216.0
236.706726 160.0
236.755707 196.0
236.807541 356.0
236.867935 444.0
236.911224 352.0
236.935989 320.0
236.965439 316.0
236.996048 204.0
237.033966 2772.0
237.136093 324.0
237.170135 348.0
237.221527 388.0
237.258026 576.0
237.281448 412.0
237.301437 444.0
237.331467 300.0
237.36705 364.0
237.388794 524.0
237.415573 408.0
237.477737 576.0
237.514252 436.0
237.522095 468.0
237.59404 496.0
237.631439 624.0
237.669678 820.0
237.699799 500.0
237.712936 388.0
237.723633 348.0
237.76178 476.0
237.792374 976.0
237.829529 544.0
237.858658 792.0
237.882339 636.0
237.92067 1128.0
237.964737 1616.0
238.044174 489196.0
238.155197 288.0
238.195084 228.0
238.253067 1032.0
238.296356 332.0
238.328476 1644.0
238.381485 496.0
238.41452 760.0
238.462402 1088.0
238.51091 1404.0
238.549683 23952.0
238.576874 3872.0
238.631149 420.0
238.641037 420.0
238.668213 456.0
238.732452 376.0
238.775894 348.0
238.801666 804.0
238.830612 776.0
238.841431 476.0
238.853683 564.0
238.875198 484.0
238.892807 408.0
238.899506 616.0
238.922806 100.0
238.955566 376.0
238.9841 636.0
239.045792 205336.0
239.105545 168.0
239.128922 208.0
239.177444 172.0
239.185226 128.0
239.198166 336.0
239.261459 608.0
239.330002 536.0
239.367859 280.0
239.380661 264.0
239.393433 336.0
239.4272 432.0
239.455475 256.0
239.501633 372.0
239.551971 1272.0
239.587799 208.0
239.59436 360.0
239.600418 256.0
239.607361 280.0
239.641769 260.0
239.700073 304.0
239.73912 464.0
239.772415 376.0
239.798676 280.0
239.827118 652.0
239.880554 312.0
239.899094 616.0
239.945847 576.0
239.971695 436.0
240.040146 340688.0
240.138428 292.0
240.185242 132.0
240.247253 400.0
240.266571 476.0
240.309891 572.0
240.341721 524.0
240.369415 240.0
240.386429 276.0
240.397339 452.0
240.411667 372.0
240.422073 260.0
240.436172 148.0
240.482224 412.0
240.507187 416.0
240.547897 2052.0
240.610367 716.0
240.637619 340.0
240.663605 512.0
240.704926 284.0
240.76123 560.0
240.778992 548.0
240.785721 484.0
240.816177 500.0
240.847382 1064.0
240.891327 408.0
240.924377 264.0
240.956879 504.0
240.968536 416.0
240.997345 564.0
241.042725 41900.0
241.120209 188.0
241.189285 144.0
241.226913 168.0
241.264267 176.0
241.273544 156.0
241.293411 160.0
241.357483 88.0
241.397079 136.0
241.428192 272.0
241.451797 160.0
241.476334 32.0
241.508484 220.0
241.55014 304.0
241.562683 232.0
241.584991 176.0
241.591141 288.0
241.643951 176.0
241.718231 228.0
241.749237 300.0
241.782455 192.0
241.820908 100.0
241.860153 380.0
241.923752 124.0
241.97789 156.0
242.045944 524.0
242.11937 284.0
242.153259 80.0
242.186707 56.0
242.201843 112.0
242.21228 128.0
242.24115 80.0
242.253174 160.0
242.278854 96.0
242.323318 376.0
242.349503 200.0
242.387054 212.0
242.397522 120.0
242.409286 116.0
242.420181 160.0
242.46846 112.0
242.508484 224.0
242.570312 244.0
242.610321 200.0
242.660294 160.0
242.699326 240.0
242.745575 196.0
242.783691 256.0
242.845703 148.0
242.894104 464.0
242.947449 356.0
242.979446 164.0
243.033768 160.0
243.091522 700.0
243.145676 148.0
243.17511 76.0
243.210068 48.0
243.221939 92.0
243.25354 136.0
243.296951 108.0
243.376907 136.0
243.403168 144.0
243.426437 72.0
243.455078 104.0
243.493896 288.0
243.554932 80.0
243.59259 168.0
243.642395 104.0
243.69249 160.0
243.729126 68.0
243.768753 100.0
243.802933 148.0
243.819336 128.0
243.852127 80.0
243.863449 208.0
243.913116 236.0
243.949341 80.0
243.992371 408.0
244.03389 192.0
244.096222 608.0
244.18132 192.0
244.243362 108.0
244.270538 88.0
244.293777 48.0
244.334091 172.0
244.368958 68.0
244.410446 72.0
244.436447 132.0
244.504425 108.0
244.576614 44.0
244.629547 164.0
244.678101 124.0
244.707962 96.0
244.761154 276.0
244.788483 36.0
244.823608 144.0
244.883606 212.0
244.907516 132.0
244.934769 116.0
244.961548 104.0
244.994736 136.0
245.021149 160.0
245.055786 176.0
245.094437 84.0
245.137024 120.0
245.162994 176.0
245.238342 136.0
245.281433 32.0
245.32077 104.0
245.349396 160.0
245.359924 68.0
245.370605 232.0
245.458344 172.0
245.48996 136.0
245.517273 156.0
245.555817 260.0
245.583893 72.0
245.615082 160.0
245.635773 144.0
245.660751 188.0
245.706482 164.0
245.744797 136.0
245.77562 96.0
245.82045 68.0
245.843826 64.0
245.944977 136.0
245.995789 60.0
246.05748 84.0
246.134354 284.0
246.20697 176.0
246.221542 132.0
246.231003 84.0
246.246628 76.0
246.253326 92.0
246.267029 68.0
246.298691 148.0
246.339294 136.0
246.373947 128.0
246.440964 104.0
246.483017 64.0
246.529602 136.0
246.569733 112.0
246.594299 100.0
246.617401 140.0
246.662552 116.0
246.701797 128.0
246.752106 172.0
246.792191 188.0
246.812592 100.0
246.837784 180.0
246.870071 164.0
246.893051 96.0
246.948822 208.0
246.972534 172.0
247.008011 136.0
247.051086 188.0
247.076416 188.0
247.107422 132.0
247.186584 120.0
247.211166 144.0
247.266617 128.0
247.292999 44.0
247.32605 100.0
247.366394 116.0
247.448776 188.0
247.52533 208.0
247.610825 180.0
247.661057 188.0
247.696915 76.0
247.720078 92.0
247.772293 136.0
247.815964 208.0
247.84906 156.0
247.88765 132.0
247.966599 116.0
248.004211 236.0
248.072952 232.0
248.113708 40.0
248.141464 188.0
248.197388 280.0
248.24971 172.0
248.269135 148.0
248.304733 196.0
248.31517 180.0
248.322052 136.0
248.371277 208.0
248.413467 144.0
248.455551 92.0
248.481323 204.0
248.513977 148.0
248.535187 312.0
248.569504 404.0
248.651154 84.0
248.700317 104.0
248.726044 124.0
248.756821 68.0
248.819611 60.0
248.861938 108.0
248.89151 120.0
248.903915 108.0
248.915741 104.0
248.926636 144.0
248.957672 136.0
249.020447 176.0
249.067291 92.0
249.085754 176.0
249.107483 144.0
249.140656 200.0
249.171371 156.0
249.193359 108.0
249.231064 80.0
249.277924 136.0
249.313065 168.0
249.382767 104.0
249.437958 212.0
249.465271 216.0
249.489609 184.0
249.513672 144.0
249.522583 192.0
249.548172 36.0
249.559494 120.0
249.584152 256.0
249.659393 124.0
249.698776 92.0
249.730606 204.0
249.79213 208.0
249.828201 164.0
249.879257 156.0
249.913071 124.0
249.920166 128.0
249.985748 64.0
250.010925 112.0
250.039246 184.0
250.062683 36.0
250.111359 136.0
250.165878 136.0
250.205612 160.0
250.246017 124.0
250.274933 120.0
250.280075 56.0
250.327911 244.0
250.352325 108.0
250.386765 144.0
250.416779 156.0
250.44136 56.0
250.500458 152.0
250.552673 128.0
250.575211 196.0
250.603973 84.0
250.647034 52.0
250.71405 192.0
250.748718 76.0
250.774277 96.0
250.829834 104.0
250.8582 80.0
250.905746 116.0
250.937546 216.0
250.969788 276.0
251.047333 780.0
251.117188 188.0
251.191284 280.0
251.204834 48.0
251.216766 288.0
251.24115 112.0
251.27327 76.0
251.293427 116.0
251.323608 128.0
251.368546 128.0
251.412552 144.0
251.462708 100.0
251.499802 148.0
251.542007 260.0
251.573959 108.0
251.613617 124.0
251.634949 112.0
251.677979 48.0
251.709106 144.0
251.755783 116.0
251.777481 116.0
251.826675 156.0
251.838272 180.0
251.863007 216.0
251.881973 112.0
251.904922 144.0
251.954956 184.0
251.990601 148.0
252.057312 23780.0
252.115219 208.0
252.149765 124.0
252.21962 100.0
252.249603 124.0
252.283417 104.0
252.322266 48.0
252.347748 144.0
252.403549 52.0
252.431396 212.0
252.472855 208.0
252.505722 120.0
252.560562 196.0
252.581345 116.0
252.658127 244.0
252.696991 156.0
252.719879 172.0
252.787903 224.0
252.821503 100.0
252.887238 116.0
252.92627 136.0
252.968811 164.0
253.020782 236.0
253.061096 4792.0
253.134354 104.0
253.159668 268.0
253.190063 76.0
253.242889 112.0
253.288254 124.0
253.322861 204.0
253.369125 228.0
253.394974 216.0
253.425461 164.0
253.454071 176.0
253.496307 132.0
253.57518 132.0
253.599854 380.0
253.616028 144.0
253.627151 144.0
253.666992 192.0
253.692001 68.0
253.747574 124.0
253.798355 84.0
253.873245 84.0
253.910461 144.0
253.933151 296.0
253.955673 136.0
253.995483 144.0
254.054352 6532.0
254.087585 232.0
254.120438 104.0
254.168701 96.0
254.222076 68.0
254.26239 72.0
254.285751 216.0
254.341156 156.0
254.386703 100.0
254.437241 272.0
254.463776 96.0
254.498032 132.0
254.536758 136.0
254.564835 120.0
254.593521 96.0
254.616821 124.0
254.636292 228.0
254.670166 120.0
254.694397 136.0
254.724823 32.0
254.776932 360.0
254.828171 236.0
254.874512 384.0
254.906219 244.0
254.948318 292.0
254.977982 224.0
255.009384 268.0
255.057007 1212.0
255.09639 268.0
255.146561 164.0
255.177368 280.0
255.267456 436.0
255.318039 220.0
255.394897 256.0
255.41626 128.0
255.449554 152.0
255.500153 176.0
255.504822 180.0
255.520554 160.0
255.560974 232.0
255.59581 156.0
255.623535 240.0
255.641632 356.0
255.669662 464.0
255.711914 268.0
255.747742 256.0
255.789322 348.0
255.818222 220.0
255.86673 212.0
255.878342 208.0
255.913544 552.0
255.959564 520.0
256.053925 392928.0
256.140686 180.0
256.149536 148.0
256.170074 232.0
256.215302 204.0
256.258453 232.0
256.303009 300.0
256.343811 628.0
256.415527 396.0
256.44516 228.0
256.483948 128.0
256.496979 148.0
256.504059 268.0
256.517944 128.0
256.547363 200.0
256.577179 4528.0
256.640991 128.0
256.646637 152.0
256.677063 268.0
256.711578 196.0
256.752014 188.0
256.781189 288.0
256.82901 340.0
256.875031 132.0
256.921509 188.0
256.952698 208.0
257.006317 352.0
257.055939 75596.0
257.166595 344.0
257.182648 60.0
257.190796 216.0
257.221588 272.0
257.262207 188.0
257.270996 116.0
257.302856 400.0
257.355957 308.0
257.414948 296.0
257.449402 96.0
257.470856 200.0
257.512543 84.0
257.542816 336.0
257.575317 184.0
257.623505 324.0
257.627686 432.0
257.671265 256.0
257.696075 132.0
257.731354 224.0
257.744324 144.0
257.759674 244.0
257.783051 200.0
257.841034 416.0
257.876709 48.0
257.889435 280.0
257.930267 312.0
257.972107 436.0
257.984009 324.0
258.050232 150788.0
258.132568 332.0
258.161835 184.0
258.192505 164.0
258.226379 204.0
258.263123 152.0
258.270203 180.0
258.293915 268.0
258.359802 272.0
258.391022 296.0
258.435974 108.0
258.454132 128.0
258.459778 96.0
258.495789 288.0
258.535522 100.0
258.569244 352.0
258.62088 300.0
258.645569 364.0
258.695831 192.0
258.706909 132.0
258.719604 276.0
258.731873 244.0
258.744202 124.0
258.788696 120.0
258.842194 468.0
258.860809 180.0
258.870728 204.0
258.923462 324.0
258.941406 368.0
258.966309 176.0
258.977997 256.0
259.052368 14528.0
259.1185 260.0
259.149719 64.0
259.183228 280.0
259.230835 100.0
259.242249 40.0
259.253387 132.0
259.289886 180.0
259.342712 164.0
259.380035 68.0
259.423096 84.0
259.461487 180.0
259.511963 88.0
259.558807 164.0
259.594208 276.0
259.602814 124.0
259.62326 192.0
259.672516 56.0
259.69809 80.0
259.731354 156.0
259.800903 100.0
259.856232 52.0
259.891968 188.0
259.93692 232.0
259.989838 128.0
260.051727 340.0
260.121948 64.0
260.166901 64.0
260.216675 144.0
260.272308 92.0
260.30954 140.0
260.372833 116.0
260.420319 108.0
260.471375 256.0
260.518677 60.0
260.58667 88.0
260.612701 168.0
260.660919 296.0
260.714325 112.0
260.740051 164.0
260.764374 156.0
260.800018 152.0
260.852478 200.0
260.925598 216.0
260.976532 120.0
261.005798 216.0
261.048798 132.0
261.107483 268.0
261.133606 60.0
261.148834 88.0
261.184509 60.0
261.224182 148.0
261.264984 100.0
261.333557 52.0
261.361359 144.0
261.388916 120.0
261.447113 56.0
261.453949 68.0
261.518463 96.0
261.526306 48.0
261.53714 120.0
261.618652 132.0
261.687622 124.0
261.717804 96.0
261.759705 92.0
261.809967 104.0
261.851837 36.0
261.876373 84.0
261.924316 88.0
261.937927 44.0
261.94339 76.0
261.970337 164.0
262.046631 88.0
262.101349 80.0
262.141785 156.0
262.182556 68.0
262.21936 60.0
262.317383 144.0
262.386749 40.0
262.476471 68.0
262.520569 112.0
262.614502 168.0
262.689178 124.0
262.735077 40.0
262.770569 52.0
262.834961 188.0
262.867371 68.0
262.918274 152.0
263.037201 516.0
263.095856 136.0
263.143677 92.0
263.170776 164.0
263.297699 144.0
263.348389 72.0
263.393616 40.0
263.416229 152.0
263.464691 120.0
263.506683 92.0
263.584229 128.0
263.623016 48.0
263.665039 88.0
263.703186 104.0
263.713226 44.0
263.721344 180.0
263.755524 48.0
263.847931 68.0
263.858002 40.0
263.92041 84.0
263.962433 56.0
263.988007 132.0
264.040436 112.0
264.068024 160.0
264.14679 104.0
264.180664 120.0
264.224426 116.0
264.25354 140.0
264.313873 156.0
264.344147 100.0
264.389679 56.0
264.457428 116.0
264.548065 52.0
264.575592 128.0
264.599426 152.0
264.658142 48.0
264.680817 160.0
264.771484 88.0
264.796051 128.0
264.829773 104.0
264.881622 68.0
264.943146 264.0
264.982025 92.0
265.034576 204.0
265.074371 52.0
265.095459 244.0
265.118134 108.0
265.178955 104.0
265.214172 140.0
265.226715 56.0
265.239685 112.0
265.283447 96.0
265.309937 64.0
265.347809 112.0
265.419952 116.0
265.448792 116.0
265.481232 196.0
265.522858 116.0
265.629456 68.0
265.65155 132.0
265.664642 116.0
265.677307 80.0
265.689362 72.0
265.726532 80.0
265.7724 136.0
265.815002 116.0
265.845062 128.0
265.870514 48.0
265.924377 324.0
265.977509 120.0
265.992523 224.0
266.03717 43784.0
266.116577 60.0
266.12149 88.0
266.156647 84.0
266.171326 84.0
266.191956 232.0
266.278442 156.0
266.326508 36.0
266.358215 120.0
266.399963 148.0
266.452942 120.0
266.482025 88.0
266.515564 44.0
266.554932 128.0
266.591461 28.0
266.618286 48.0
266.659424 80.0
266.700714 100.0
266.763489 52.0
266.786499 148.0
266.847626 60.0
266.866913 184.0
266.923065 168.0
266.969208 132.0
267.039307 5544.0
267.135803 96.0
267.254822 56.0
267.332947 64.0
267.381744 268.0
267.443604 72.0
267.493378 120.0
267.550415 76.0
267.580322 104.0
267.631226 100.0
267.704041 56.0
267.75531 104.0
267.784454 140.0
267.832367 60.0
267.872467 216.0
267.924194 196.0
267.94397 164.0
268.034607 14516.0
268.127563 340.0
268.172119 72.0
268.226288 172.0
268.338745 228.0
268.376312 140.0
268.419342 80.0
268.457794 132.0
268.489441 32.0
268.551117 136.0
268.577454 208.0
268.613647 100.0
268.642517 108.0
268.683014 116.0
268.697327 148.0
268.703461 124.0
268.743896 60.0
268.785217 220.0
268.818939 28.0
268.850159 44.0
268.894775 168.0
268.926636 140.0
268.97226 92.0
269.037567 1976.0
269.178925 144.0
269.257263 120.0
269.328247 104.0
269.35791 96.0
269.382416 48.0
269.436066 60.0
269.478516 128.0
269.503296 192.0
269.523376 104.0
269.532532 84.0
269.570007 68.0
269.612488 84.0
269.70401 48.0
269.732483 96.0
269.750458 152.0
269.817169 72.0
269.880554 36.0
269.923065 160.0
269.990112 68.0
270.069305 656.0
270.144043 64.0
270.176514 92.0
270.243622 288.0
270.279602 44.0
270.309052 60.0
270.364685 224.0
270.414886 168.0
270.479248 84.0
270.518524 72.0
270.577911 144.0
270.602997 100.0
270.639679 108.0
270.721527 40.0
270.773926 108.0
270.813995 176.0
270.840393 108.0
270.868195 180.0
270.925415 240.0
270.974884 140.0
271.037476 80.0
271.048096 128.0
271.079468 196.0
271.121216 68.0
271.189056 124.0
271.2276 280.0
271.240936 128.0
271.247894 140.0
271.332062 148.0
271.381714 120.0
271.432617 168.0
271.468689 56.0
271.561737 184.0
271.673462 104.0
271.699463 124.0
271.803314 212.0
271.835846 96.0
271.878784 44.0
271.920166 124.0
271.953644 128.0
271.992493 124.0
272.025238 64.0
272.066681 188.0
272.09433 108.0
272.118408 164.0
272.140198 136.0
272.19928 76.0
272.308868 36.0
272.36142 108.0
272.480286 136.0
272.617676 80.0
272.67865 248.0
272.708771 84.0
272.729279 276.0
272.760742 68.0
272.789825 144.0
272.870789 240.0
272.93985 44.0
272.976013 116.0
273.085297 156.0
273.156891 92.0
273.222687 148.0
273.37439 188.0
273.398956 132.0
273.472778 188.0
273.511047 148.0
273.568237 76.0
273.609436 208.0
273.63739 36.0
273.660431 132.0
273.693542 136.0
273.797424 104.0
273.838257 140.0
273.875153 60.0
273.927185 96.0
273.992065 144.0
274.085327 40.0
274.151245 64.0
274.210571 128.0
274.24173 88.0
274.28714 104.0
274.401764 52.0
274.454498 60.0
274.497589 116.0
274.533661 120.0
274.593018 52.0
274.639191 72.0
274.668884 112.0
274.707092 96.0
274.790955 60.0
274.82724 160.0
274.903137 92.0
274.946045 136.0
274.98233 88.0
275.020294 176.0
275.058258 48.0
275.111084 120.0
275.239838 148.0
275.336731 188.0
275.385132 172.0
275.436676 84.0
275.530487 80.0
275.583344 60.0
275.629608 84.0
275.670929 224.0
275.726654 132.0
275.784943 236.0
275.855377 152.0
275.917877 192.0
275.969666 136.0
276.019653 108.0
276.075897 100.0
276.105652 204.0
276.144135 120.0
276.198273 68.0
276.266571 116.0
276.295258 112.0
276.393463 112.0
276.437653 112.0
276.50705 136.0
276.531433 116.0
276.568848 116.0
276.649628 80.0
276.696289 228.0
276.817169 124.0
276.888031 200.0
277.025818 60.0
277.082855 92.0
277.111969 128.0
277.19812 216.0
277.227936 148.0
277.257751 100.0
277.32074 68.0
277.368164 184.0
277.406921 100.0
277.430115 180.0
277.480164 44.0
277.518555 136.0
277.566071 84.0
277.613647 124.0
277.646179 196.0
277.721924 76.0
277.765869 132.0
277.833008 164.0
277.863373 144.0
277.956329 148.0
277.978363 164.0
278.013885 160.0
278.043701 220.0
278.09024 160.0
278.114014 96.0
278.143005 204.0
278.155426 100.0
278.186371 120.0
278.239624 60.0
278.278351 108.0
278.302979 148.0
278.331116 64.0
278.364288 232.0
278.413391 132.0
278.481384 124.0
278.515442 136.0
278.551788 140.0
278.582947 104.0
278.613281 100.0
278.663971 124.0
278.706482 336.0
278.729034 140.0
278.753815 224.0
278.788177 204.0
278.798157 208.0
278.813568 136.0
278.823395 64.0
278.872589 268.0
278.922699 480.0
278.950928 292.0
278.976624 216.0
279.069153 194072.0
279.150909 124.0
279.182739 324.0
279.204315 156.0
279.238831 296.0
279.265991 184.0
279.323425 128.0
279.398071 300.0
279.439911 184.0
279.449036 132.0
279.466858 124.0
279.515686 124.0
279.558472 72.0
279.572388 64.0
279.579865 96.0
279.61261 384.0
279.670654 72.0
279.710571 160.0
279.753357 244.0
279.825989 180.0
279.878143 256.0
279.929779 204.0
279.979004 436.0
280.013123 292.0
280.071198 28776.0
280.14978 116.0
280.183655 112.0
280.209564 112.0
280.24823 108.0
280.290894 44.0
280.318237 56.0
280.351807 116.0
280.443542 80.0
280.471313 260.0
280.529907 76.0
280.564819 88.0
280.617676 200.0
280.661804 200.0
280.688477 52.0
280.713287 92.0
280.753937 192.0
280.780243 140.0
280.843018 84.0
280.868591 176.0
280.91626 272.0
280.96405 136.0
280.988586 336.0
281.065948 45120.0
281.170624 84.0
281.213684 120.0
281.240997 124.0
281.291992 72.0
281.322418 136.0
281.359039 84.0
281.387604 100.0
281.433411 64.0
281.45752 120.0
281.500977 100.0
281.565979 100.0
281.596008 180.0
281.628754 76.0
281.662415 172.0
281.684723 120.0
281.6922 184.0
281.70694 108.0
281.780579 200.0
281.814941 52.0
281.839478 224.0
281.898651 140.0
281.906433 112.0
281.92981 228.0
281.985077 212.0
281.99823 196.0
282.066681 4580.0
282.113831 152.0
282.128143 236.0
282.162079 64.0
282.206085 112.0
282.256409 208.0
282.347382 64.0
282.377869 60.0
282.413239 108.0
282.428223 80.0
282.478088 184.0
282.541534 332.0
282.585358 112.0
282.659332 112.0
282.704498 148.0
282.801636 76.0
282.82666 80.0
282.862946 164.0
282.910156 68.0
282.931427 144.0
282.967438 212.0
283.027222 156.0
283.078308 332.0
283.10968 96.0
283.121307 72.0
283.159546 124.0
283.238525 56.0
283.287994 164.0
283.326263 168.0
283.382568 60.0
283.426147 152.0
283.481232 216.0
283.507477 116.0
283.543427 36.0
283.566895 76.0
283.644928 100.0
283.688751 256.0
283.727325 296.0
283.798737 92.0
283.830872 268.0
283.868866 268.0
283.897949 160.0
283.930573 248.0
283.953247 100.0
283.979309 248.0
284.047607 47500.0
284.113953 132.0
284.153107 44.0
284.174927 164.0
284.206512 136.0
284.214111 112.0
284.243652 124.0
284.310181 148.0
284.357574 48.0
284.389984 176.0
284.421234 200.0
284.460175 64.0
284.471985 48.0
284.514008 104.0
284.582397 116.0
284.618103 112.0
284.677368 76.0
284.706909 80.0
284.754608 52.0
284.81842 72.0
284.867523 152.0
284.9151 184.0
284.960541 72.0
284.986664 160.0
285.04953 5872.0
285.157776 72.0
285.188019 148.0
285.224304 96.0
285.246918 108.0
285.319122 72.0
285.35437 180.0
285.409912 84.0
285.446899 76.0
285.497345 64.0
285.527618 92.0
285.570465 172.0
285.608551 172.0
285.648682 40.0
285.672241 80.0
285.71933 104.0
285.752991 76.0
285.786621 92.0
285.818787 72.0
285.840454 172.0
285.907776 44.0
285.938049 52.0
285.971069 132.0
286.044189 12920.0
286.104828 236.0
286.135101 120.0
286.230957 108.0
286.267975 76.0
286.305023 64.0
286.331207 84.0
286.343567 72.0
286.353455 32.0
286.379395 360.0
286.430603 188.0
286.466705 36.0
286.505371 92.0
286.525299 72.0
286.587311 40.0
286.628937 140.0
286.693359 224.0
286.769958 64.0
286.793579 32.0
286.862701 232.0
286.894684 52.0
286.905975 80.0
286.92334 80.0
286.932892 120.0
286.957031 172.0
286.970306 84.0
286.977386 76.0
287.047089 1176.0
287.138519 156.0
287.151794 48.0
287.16452 168.0
287.192749 92.0
287.263519 108.0
287.353363 52.0
287.398315 112.0
287.440979 132.0
287.542328 72.0
287.640228 44.0
287.669464 48.0
287.738129 64.0
287.776337 84.0
287.82077 124.0
287.831604 108.0
287.883301 112.0
287.913696 28.0
287.993652 96.0
288.042053 188.0
288.126495 56.0
288.214355 100.0
288.298828 76.0
288.363037 64.0
288.41687 52.0
288.457703 28.0
288.548981 108.0
288.712128 128.0
288.782288 112.0
288.829651 176.0
288.869568 100.0
288.941284 84.0
289.005585 92.0
289.080017 64.0
289.137543 76.0
289.266174 32.0
289.290588 176.0
289.316956 60.0
289.367737 84.0
289.460968 128.0
289.533661 76.0
289.564148 48.0
289.611572 84.0
289.662384 64.0
289.753845 52.0
289.796997 144.0
289.821594 104.0
289.910522 100.0
289.938843 124.0
290.075775 116.0
290.157135 168.0
290.180878 112.0
290.377563 72.0
290.503052 112.0
290.703247 76.0
290.74057 88.0
290.816986 76.0
290.923859 92.0
291.042694 72.0
291.080048 136.0
291.185333 44.0
291.262146 124.0
291.311005 88.0
291.399353 92.0
291.429932 64.0
291.47113 96.0
291.545441 108.0
291.593048 40.0
291.637207 44.0
291.671204 192.0
291.779999 96.0
291.926208 116.0
291.980621 44.0
292.045227 112.0
292.106476 72.0
292.14389 64.0
292.229095 88.0
292.252747 132.0
292.365051 36.0
292.409302 120.0
292.469116 132.0
292.507996 92.0
292.596527 176.0
292.63736 128.0
292.671417 112.0
292.781616 156.0
292.820282 96.0
292.994995 136.0
293.133087 188.0
293.20285 36.0
293.266357 76.0
293.308502 32.0
293.332367 60.0
293.489197 28.0
293.569458 112.0
293.601715 100.0
293.664124 108.0
293.782501 128.0
293.932617 192.0
294.00473 64.0
294.069122 176.0
294.09668 108.0
294.198853 44.0
294.335419 52.0
294.368958 112.0
294.417389 104.0
294.525391 108.0
294.567657 64.0
294.608643 172.0
294.666748 48.0
294.714569 180.0
294.78653 180.0
294.827332 108.0
294.856323 108.0
294.91861 96.0
294.987976 128.0
295.065033 176.0
295.087433 120.0
295.117126 196.0
295.154266 196.0
295.204681 136.0
295.264954 224.0
295.352356 72.0
295.423553 140.0
295.569397 60.0
295.665222 44.0
295.696014 96.0
295.864441 140.0
295.911682 72.0
295.960449 100.0
296.042877 232.0
296.094452 116.0
296.175385 52.0
296.235565 224.0
296.279968 112.0
296.315826 92.0
296.385468 172.0
296.436279 172.0
296.466125 148.0
296.490753 156.0
296.540131 124.0
296.552551 48.0
296.565887 128.0
296.597015 252.0
296.644928 156.0
296.682312 144.0
296.690918 136.0
296.708435 196.0
296.729156 60.0
296.752411 204.0
296.762543 192.0
296.77774 216.0
296.794586 164.0
296.813721 156.0
296.92688 208.0
296.967438 268.0
297.079834 170656.0
297.178833 132.0
297.213165 156.0
297.254791 76.0
297.26413 112.0
297.31485 208.0
297.357422 32.0
297.380554 192.0
297.394226 104.0
297.403046 208.0
297.429626 124.0
297.475739 136.0
297.532379 136.0
297.608704 52.0
297.644135 448.0
297.691101 68.0
297.699493 72.0
297.738373 208.0
297.795013 124.0
297.871124 80.0
297.918945 256.0
297.968018 260.0
297.990692 124.0
298.08197 28496.0
298.138916 244.0
298.196198 208.0
298.203583 240.0
298.233795 108.0
298.28656 64.0
298.336029 96.0
298.375854 52.0
298.424103 88.0
298.450012 60.0
298.496948 80.0
298.557037 96.0
298.56366 76.0
298.603363 72.0
298.646271 60.0
298.684113 152.0
298.729309 48.0
298.763397 48.0
298.810486 88.0
298.84549 72.0
298.884033 112.0
298.895325 132.0
298.976105 268.0
299.000641 48.0
299.009674 128.0
299.077209 40988.0
299.166901 224.0
299.214844 140.0
299.238373 148.0
299.300476 136.0
299.36496 76.0
299.417206 68.0
299.459229 104.0
299.48465 64.0
299.535034 64.0
299.592743 72.0
299.66098 112.0
299.683136 160.0
299.732941 172.0
299.788055 248.0
299.814301 52.0
299.868469 112.0
299.905334 60.0
299.956146 88.0
299.971893 76.0
299.98349 100.0
300.036102 176.0
300.0784 4428.0
300.148285 136.0
300.195618 140.0
300.28125 116.0
300.325134 128.0
300.396606 84.0
300.43454 160.0
300.510437 68.0
300.556427 136.0
300.613983 36.0
300.64502 88.0
300.671844 52.0
300.743347 68.0
300.797058 80.0
300.819458 52.0
300.855591 180.0
300.886658 44.0
301.038391 72.0
301.083527 244.0
301.132568 92.0
301.194 72.0
301.263092 104.0
301.297638 96.0
301.378906 76.0
301.412628 100.0
301.447693 28.0
301.487671 32.0
301.532593 56.0
301.563721 124.0
301.590698 84.0
301.61322 100.0
301.639771 44.0
301.684692 56.0
301.791229 292.0
301.816071 76.0
301.847198 112.0
301.916626 52.0
301.978607 104.0
302.071869 96.0
302.102203 220.0
302.164459 108.0
302.213867 124.0
302.237274 112.0
302.322083 116.0
302.473419 32.0
302.653717 48.0
302.722687 52.0
302.758453 84.0
302.819672 128.0
302.940918 100.0
303.034454 84.0
303.13147 48.0
303.178284 148.0
303.335968 68.0
303.481567 68.0
303.568237 44.0
303.641083 48.0
303.713928 56.0
303.73819 56.0
303.842285 80.0
303.873505 64.0
303.897797 52.0
303.925537 72.0
303.956757 104.0
304.064362 64.0
304.234436 64.0
304.303864 40.0
304.348999 44.0
304.463593 44.0
304.516205 56.0
304.738037 80.0
304.807526 156.0
304.932617 92.0
304.960449 44.0
305.013733 108.0
305.12381 100.0
305.172485 92.0
305.581818 64.0
305.660675 80.0
305.972717 60.0
306.230408 36.0
306.268707 44.0
306.617126 84.0
306.868134 80.0
307.00061 140.0
307.094147 108.0
307.269196 68.0
307.439056 136.0
307.665192 52.0
308.189331 136.0
308.414642 56.0
308.515991 84.0
308.946167 100.0
309.058105 116.0
309.096588 72.0
309.159607 44.0
309.25058 60.0
309.425629 128.0
309.572693 44.0
309.604187 148.0
309.849396 68.0
309.94751 96.0
310.01059 72.0
310.126221 104.0
310.217377 80.0
310.273468 48.0
310.354095 136.0
310.382172 76.0
310.406708 96.0
310.54071 116.0
310.911865 96.0
310.953979 100.0
311.087372 64.0
311.17865 88.0
311.224304 40.0
311.25589 72.0
311.41394 120.0
311.529846 116.0
311.779327 68.0
311.983185 56.0
312.014832 40.0
312.095703 120.0
312.1203 100.0
312.338348 44.0
312.598694 48.0
312.686676 80.0
312.714844 64.0
312.802856 52.0
312.838043 60.0
313.035217 64.0
313.068085 64.0
313.130951 64.0
313.553101 64.0
313.630615 52.0
313.9021 52.0
314.077545 80.0
314.240723 100.0
314.30423 44.0
314.332458 64.0
314.727814 36.0
314.773712 52.0
314.85141 76.0
314.886719 104.0
314.960876 48.0
315.084534 124.0
315.331879 100.0
315.370758 36.0
315.434387 92.0
315.950714 124.0
316.032074 32.0
316.060394 140.0
316.219635 72.0
316.325012 88.0
316.414337 104.0
316.453735 60.0
317.02002 28.0
317.144073 80.0
317.282318 56.0
317.353241 72.0
317.484192 56.0
317.512817 72.0
317.541199 52.0
317.697266 92.0
317.860474 116.0
317.885315 48.0
317.98468 80.0
318.460449 60.0
318.648712 76.0
318.829956 80.0
319.139221 72.0
319.174774 64.0
319.395264 40.0
319.452179 64.0
319.651428 104.0
319.704803 76.0
319.872101 44.0
319.95752 76.0
319.989563 48.0
320.48822 88.0
320.705597 52.0
320.748383 112.0
320.794708 64.0
321.051453 100.0
321.131104 132.0
321.600891 44.0
321.879364 40.0
321.947205 76.0
322.136505 44.0
322.268127 52.0
322.508118 108.0
322.937195 56.0
323.133942 52.0
323.255585 116.0
323.323608 68.0
323.638611 64.0
324.097076 48.0
324.179504 80.0
324.416077 152.0
324.591766 60.0
325.029388 56.0
325.442169 100.0
326.153473 100.0
326.257721 88.0
326.354797 52.0
326.462677 72.0
326.674896 60.0
326.79361 40.0
327.222382 64.0
327.315552 80.0
327.416382 88.0
327.486603 72.0
327.81192 80.0
328.187531 124.0
328.234406 48.0
328.407532 48.0
328.566254 60.0
329.280975 64.0
329.497711 60.0
329.595245 108.0
329.627777 112.0
329.765106 64.0
330.045837 104.0
330.126648 80.0
330.249603 64.0
330.412018 40.0
330.520935 80.0
330.61142 52.0
330.652039 104.0
330.832214 80.0
330.948059 72.0
331.397186 36.0
331.509521 136.0
331.589264 92.0
331.621887 136.0
331.712494 44.0
332.187531 68.0
332.358063 56.0
332.401611 28.0
332.746429 80.0
332.926331 88.0
333.0224 72.0
333.062347 64.0
333.152618 80.0
333.638336 128.0
334.025635 68.0
334.126923 52.0
334.225739 76.0
334.327637 68.0
334.436249 80.0
334.538727 88.0
334.698944 92.0
334.804535 96.0
335.34375 112.0
335.598938 68.0
335.646332 100.0
335.693726 68.0
335.963654 80.0
336.036621 116.0
336.118103 108.0
336.394775 56.0
336.861694 116.0
336.894562 56.0
337.285583 72.0
337.469879 48.0
337.771912 64.0
337.801178 60.0
337.863373 100.0
338.115845 84.0
338.189056 76.0
338.528473 88.0
338.621094 116.0
338.983765 68.0
339.069458 84.0
339.251343 44.0
339.324646 104.0
339.451233 100.0
339.563019 40.0
339.63269 56.0
339.823456 108.0
339.91153 100.0
340.206329 76.0
340.410767 36.0
340.530487 80.0
340.838226 108.0
341.108856 100.0
341.164001 64.0
341.285309 120.0
341.406677 108.0
341.469177 68.0
342.253021 60.0
342.606598 108.0
342.785004 48.0
342.842438 64.0
343.177887 36.0
343.247925 48.0
343.349426 108.0
343.635223 148.0
343.694275 80.0
344.403076 84.0
344.573029 60.0
344.691254 128.0
344.735596 52.0
345.208771 96.0
345.441803 112.0
345.578674 88.0
346.019135 44.0
346.148712 88.0
346.259827 56.0
346.343903 68.0
347.008362 64.0
347.190063 64.0
347.256805 104.0
347.561005 76.0
347.813385 64.0
348.021271 84.0
348.266388 80.0
348.325806 76.0
348.454468 120.0
348.760559 88.0
348.92041 92.0
349.173279 80.0
349.225342 60.0
349.467133 56.0
349.887726 92.0
350.189331 120.0
350.256378 68.0
350.30481 44.0
350.539551 56.0
350.705505 120.0
350.865875 64.0
351.065155 120.0
351.438202 160.0
351.647186 140.0
351.703156 52.0
352.024231 68.0
352.151215 44.0
352.405243 40.0
352.46875 84.0
352.68927 40.0
352.745331 160.0
352.850342 64.0
352.936005 104.0
353.01828 60.0
353.139191 3340.0
353.328735 68.0
353.37735 96.0
353.403564 204.0
353.478394 124.0
353.598145 72.0
353.796539 28.0
353.854523 132.0
353.905121 60.0
354.013702 68.0
354.047424 52.0
354.143433 804.0
354.268402 104.0
354.47821 56.0
354.63562 48.0
355.033051 40.0
355.139496 656.0
355.216827 132.0
355.295624 68.0
355.321869 112.0
355.37439 44.0
355.461945 156.0
355.764709 112.0
355.892365 56.0
356.023804 64.0
356.138763 144.0
356.181549 72.0
356.249176 96.0
356.410736 80.0
356.639954 44.0
356.685089 96.0
356.782806 104.0
357.023468 56.0
357.194183 116.0
357.270447 72.0
357.48996 100.0
357.647888 120.0
357.719543 52.0
358.148804 48.0
358.744202 100.0
358.785675 44.0
358.950531 88.0
359.053375 64.0
359.226044 136.0
359.340057 72.0
359.37677 96.0
359.57782 52.0
359.800507 76.0
360.200806 56.0
360.518188 92.0
360.63913 96.0
360.756317 68.0
360.934021 100.0
361.086426 132.0
361.142029 84.0
361.33493 44.0
361.384125 68.0
361.421967 132.0
361.467377 68.0
361.584686 44.0
361.622528 76.0
361.845886 68.0
361.891327 120.0
362.039001 92.0
362.44812 84.0
362.497375 36.0
362.561798 136.0
362.918121 60.0
363.020508 36.0
363.904633 44.0
363.957794 44.0
364.003357 60.0
364.033752 140.0
364.14389 64.0
364.3414 108.0
364.40979 88.0
364.455383 68.0
364.535187 36.0
364.983734 76.0
365.055542 68.0
365.128235 72.0
365.375488 52.0
365.546722 72.0
365.950195 32.0
366.033966 92.0
366.098694 104.0
366.163452 40.0
366.388184 60.0
366.529175 68.0
366.597748 92.0
366.685394 40.0
366.779388 76.0
366.853119 48.0
366.89505 64.0
367.051392 44.0
367.394653 88.0
367.425171 64.0
367.619781 96.0
367.745728 80.0
367.787689 56.0
367.967133 88.0
368.043488 160.0
368.100769 56.0
368.34903 40.0
368.494202 40.0
368.638336 88.0
368.720367 104.0
368.985199 76.0
369.166931 72.0
369.214417 96.0
369.296967 52.0
369.595367 52.0
370.127441 44.0
370.253815 60.0
370.284454 100.0
370.441498 60.0
370.579407 92.0
370.897491 112.0
371.050842 104.0
371.572418 48.0
371.68988 112.0
372.091705 108.0
372.182709 64.0
372.324799 112.0
372.620575 88.0
372.908783 80.0
373.097137 112.0
373.15094 104.0
373.254761 112.0
373.300903 84.0
373.373993 48.0
373.693268 60.0
373.774048 48.0
373.858734 32.0
374.197449 48.0
374.52478 88.0
374.829163 36.0
375.010284 44.0
375.041107 52.0
375.400482 112.0
375.44516 100.0
375.565521 48.0
375.596375 68.0
375.920441 56.0
376.070984 64.0
376.325745 40.0
377.732513 84.0
377.949158 60.0
377.980103 108.0
378.185242 92.0
378.40976 52.0
378.897766 56.0
379.106995 92.0
379.343414 108.0
379.417084 56.0
379.463593 52.0
379.694061 136.0
379.832642 128.0
380.58493 72.0
380.654816 112.0
380.685883 132.0
380.814056 32.0
380.848999 84.0
380.969421 120.0
382.221375 80.0
382.509369 88.0
382.559967 84.0
382.602814 124.0
382.723511 88.0
382.805267 56.0
382.883148 84.0
383.101288 72.0
383.156219 120.0
383.296112 64.0
383.323364 80.0
383.381836 44.0
383.81842 60.0
384.017334 68.0
384.130432 112.0
384.243561 40.0
384.270874 96.0
384.668945 84.0
384.772003 108.0
384.805603 44.0
384.875885 52.0
385.266449 92.0
385.407104 36.0
385.528229 76.0
385.567322 116.0
385.624451 84.0
385.711945 124.0
385.809662 52.0
385.934784 112.0
386.01297 68.0
386.095093 80.0
386.552795 92.0
386.661713 92.0
386.850281 120.0
386.928558 76.0
387.053864 60.0
387.167419 100.0
387.214752 48.0
387.445526 84.0
387.982452 40.0
388.19809 112.0
388.300079 96.0
388.569275 76.0
388.913177 76.0
389.022064 92.0
389.249786 64.0
389.296906 44.0
389.367584 40.0
389.505066 64.0
389.701477 52.0
389.901886 104.0
390.074829 84.0
390.397247 76.0
390.527039 56.0
390.601776 88.0
390.652924 60.0
390.794556 40.0
391.345581 84.0
391.763062 52.0
391.852631 60.0
391.960052 76.0
392.074341 48.0
392.12558 76.0
392.282288 100.0
392.452759 48.0
392.52951 60.0
392.592865 212.0
392.810333 96.0
393.028656 68.0
393.198334 64.0
393.356232 100.0
393.64444 48.0
393.861664 40.0
394.027588 72.0
394.078949 84.0
394.233063 84.0
394.470184 60.0
394.537415 60.0
394.608582 112.0
394.849792 116.0
394.924927 216.0
394.976349 76.0
395.281006 100.0
395.31662 40.0
395.387848 144.0
395.423462 92.0
395.518463 44.0
395.60553 52.0
395.664917 104.0
395.835175 60.0
396.236053 136.0
396.251404 96.0
396.260315 144.0
396.354095 44.0
396.694946 76.0
397.075592 96.0
397.329468 72.0
397.805695 80.0
397.841431 60.0
398.182922 88.0
398.389465 96.0
398.56427 64.0
398.615936 40.0
398.727203 92.0
398.774902 28.0
398.830566 180.0
398.972198 88.0
399.100891 52.0
399.482697 56.0
399.570221 40.0
399.629883 60.0
400.07962 36.0
400.147308 32.0
400.319702 96.0
400.621246 72.0
400.740753 88.0
400.924225 92.0
401.565948 44.0
401.641724 32.0
401.669647 56.0
401.797302 56.0
402.177032 52.0
402.465942 84.0
402.883209 72.0
403.094971 88.0
403.162903 92.0
403.262848 48.0
403.638641 44.0
403.686615 64.0
403.758606 112.0
404.242676 60.0
404.330719 76.0
404.44278 68.0
404.55661 92.0
404.594879 64.0
404.714996 72.0
404.867188 68.0
405.144897 60.0
405.527863 64.0
405.624451 44.0
405.807526 72.0
406.217926 40.0
406.334259 92.0
406.462646 52.0
406.912201 80.0
407.233459 44.0
407.293701 100.0
407.386108 52.0
407.525024 76.0
407.771851 92.0
407.876373 44.0
408.077362 88.0
408.206055 56.0
408.382996 108.0
408.4664 76.0
408.511719 96.0
408.648499 88.0
408.849701 52.0
408.961212 136.0
409.089111 92.0
409.352905 76.0
409.501923 32.0
409.739594 112.0
409.767792 44.0
410.090179 80.0
410.264648 100.0
410.465118 60.0
410.505432 40.0
410.594147 84.0
410.781525 80.0
410.876526 64.0
410.904755 92.0
410.985443 84.0
411.235657 88.0
411.409241 52.0
411.506134 108.0
411.538422 56.0
411.817078 84.0
412.265533 108.0
412.309998 36.0
412.382721 100.0
412.508057 80.0
412.576752 112.0
412.645508 104.0
412.904297 60.0
412.98114 96.0
413.563782 136.0
413.741913 104.0
414.134705 60.0
414.677643 40.0
414.965454 44.0
415.054657 40.0
415.318268 40.0
415.403442 56.0
415.671234 28.0
416.261017 108.0
416.316681 56.0
416.71814 48.0
416.901672 148.0
416.978882 84.0
417.02359 60.0
417.068329 68.0
417.267517 60.0
417.637573 64.0
417.668152 100.0
417.727051 52.0
417.816559 120.0
417.93454 112.0
418.365967 92.0
418.720215 84.0
418.862793 80.0
418.976837 80.0
419.127594 60.0
419.188721 68.0
419.28653 76.0
419.319122 96.0
419.637085 88.0
419.681946 52.0
419.747192 44.0
419.877686 48.0
419.947021 84.0
420.118347 80.0
420.212189 60.0
420.379486 40.0
420.803986 56.0
421.041168 48.0
421.163361 68.0
421.25885 64.0
421.365814 72.0
421.547394 80.0
422.254669 76.0
422.671936 136.0
422.753784 44.0
422.901123 136.0
423.06485 56.0
423.449768 40.0
423.482513 80.0
423.920898 60.0
424.047943 88.0
424.671143 80.0
425.093719 116.0
425.372833 88.0
425.40155 112.0
425.479553 56.0
425.67392 72.0
425.762878 52.0
425.918945 96.0
426.173676 48.0
426.222961 88.0
426.259949 104.0
426.350128 68.0
426.436676 52.0
426.514771 80.0
426.98349 124.0
427.16568 68.0
427.497742 68.0
427.789978 76.0
428.061707 80.0
428.358246 84.0
428.387085 60.0
428.918671 76.0
429.133057 60.0
429.197083 76.0
429.302124 76.0
429.533752 100.0
429.906677 88.0
430.065369 112.0
430.34198 36.0
430.44519 88.0
430.503021 72.0
430.709503 88.0
430.763214 136.0
430.800385 60.0
430.945007 88.0
430.990448 68.0
431.052429 68.0
431.14032 108.0
431.254944 92.0
431.350006 52.0
431.403748 32.0
431.569122 40.0
431.7883 64.0
432.0737 40.0
432.264038 68.0
432.404755 92.0
432.570312 68.0
433.005066 64.0
433.261902 84.0
433.344757 68.0
433.883545 132.0
433.94989 76.0
434.038361 144.0
434.211151 96.0
434.592773 64.0
434.696533 52.0
435.252777 52.0
435.319214 52.0
435.348267 92.0
435.439636 72.0
435.47287 44.0
435.585022 80.0
435.726868 84.0
435.954803 76.0
436.34137 60.0
437.03595 88.0
437.077576 80.0
437.189911 52.0
438.864502 52.0
439.093842 52.0
439.281555 52.0
439.448425 56.0
439.58197 80.0
439.986816 72.0
440.074493 84.0
440.139465 36.0
440.759521 48.0
441.03952 48.0
441.470154 136.0
442.369751 92.0
443.131958 92.0
443.232513 76.0
443.316315 80.0
443.471405 56.0
443.585815 80.0
444.003876 48.0
444.868225 48.0
445.212524 120.0
445.363739 80.0
445.668488 96.0
445.779663 96.0
446.074066 88.0
446.553223 72.0
446.713074 88.0
446.940247 80.0
447.066498 100.0
447.127899 108.0
447.297974 80.0
448.216125 80.0
448.464752 56.0
449.563995 76.0
449.810333 96.0
450.0383 104.0
450.308594 96.0
450.355042 52.0
450.431061 68.0
450.499023 48.0
451.014191 40.0
451.673828 52.0
451.749969 88.0
452.249298 56.0
452.401672 60.0
452.689606 72.0
452.871704 112.0
453.196808 76.0
453.252991 60.0
453.727722 124.0
453.893066 72.0
454.020294 48.0
454.151764 64.0
454.249329 56.0
454.592987 68.0
454.648163 100.0
454.686371 48.0
454.716064 92.0
454.96228 64.0
455.289215 100.0
455.327454 52.0
455.501587 52.0
455.641785 36.0
455.688507 36.0
456.015717 112.0
456.092224 40.0
456.126251 56.0
456.177246 64.0
456.398346 168.0
456.436615 104.0
456.636475 32.0
456.772583 64.0
456.989563 76.0
457.330017 36.0
457.947388 72.0
458.863586 60.0
459.24527 64.0
459.934357 96.0
460.367523 68.0
460.510803 68.0
460.549225 76.0
461.083313 108.0
461.26709 28.0
461.42099 96.0
461.814423 60.0
462.220856 96.0
462.323547 36.0
462.499023 48.0
462.554657 60.0
462.802979 40.0
463.533905 88.0
463.672607 128.0
464.032684 88.0
464.15274 88.0
464.212769 68.0
464.405762 76.0
464.435791 84.0
464.748962 48.0
464.950653 72.0
465.23822 88.0
465.779297 76.0
465.899597 72.0
465.983124 100.0
466.527039 76.0
466.72052 44.0
466.86673 88.0
467.146301 72.0
467.279663 68.0
467.615295 36.0
467.73584 84.0
467.783173 76.0
467.890808 44.0
468.019958 88.0
468.778107 128.0
469.485107 68.0
469.791351 100.0
470.063171 76.0
470.322113 32.0
470.430023 120.0
470.642548 72.0
470.766815 32.0
471.086426 44.0
471.220367 116.0
471.28949 92.0
471.362946 68.0
471.458038 92.0
471.700073 36.0
471.898926 84.0
471.950836 72.0
472.283813 80.0
472.48642 72.0
472.738098 128.0
473.248871 88.0
473.34848 116.0
473.58667 56.0
473.976562 92.0
474.188934 76.0
474.496704 52.0
474.654724 72.0
475.194977 64.0
475.437988 32.0
475.611572 76.0
475.87207 44.0
476.123932 40.0
476.392731 108.0
476.471405 76.0
476.646729 104.0
476.753845 44.0
476.792969 40.0
476.919006 84.0
477.066803 68.0
477.536438 76.0
477.988861 80.0
478.0672 128.0
478.284821 52.0
478.56781 32.0
479.055573 64.0
479.32309 80.0
479.482605 88.0
479.513092 60.0
479.62207 56.0
479.761566 124.0
480.053711 36.0
480.193268 76.0
480.638214 124.0
480.882629 52.0
481.297333 48.0
481.703522 56.0
482.057404 36.0
482.122955 48.0
482.175415 88.0
482.442047 48.0
482.774353 56.0
482.835571 116.0
483.028046 80.0
483.216156 64.0
483.294891 76.0
483.553101 80.0
483.719421 92.0
483.90329 124.0
483.960205 76.0
484.060944 96.0
484.139771 64.0
484.647888 44.0
484.871399 60.0
484.985352 80.0
485.042328 84.0
485.103699 88.0
485.463226 52.0
485.590424 68.0
485.814117 48.0
485.913971 132.0
486.507507 64.0
486.551422 48.0
486.740204 108.0
487.131104 84.0
487.320007 52.0
487.610046 52.0
488.375092 52.0
488.661011 100.0
488.78421 56.0
489.19635 84.0
489.277191 48.0
489.466522 36.0
489.779205 84.0
489.832062 104.0
489.906952 80.0
489.990662 64.0
490.083191 80.0
490.334381 44.0
490.484222 76.0
490.691437 40.0
490.801666 52.0
491.079498 72.0
491.317688 76.0
491.454468 104.0
492.286133 68.0
492.319672 76.0
492.363831 44.0
493.136993 108.0
493.225403 36.0
493.269592 60.0
493.397797 104.0
493.596771 76.0
493.640991 56.0
493.822327 44.0
494.388611 48.0
494.437286 44.0
494.485992 68.0
494.609924 36.0
494.817993 28.0
494.941956 80.0
496.328888 40.0
496.395386 28.0
496.457489 48.0
496.568359 64.0
496.648193 32.0
496.976471 64.0
497.469116 28.0
497.722198 124.0
497.784363 108.0
498.006409 44.0
498.126343 56.0
498.305878 136.0
498.477325 76.0
498.686218 52.0
499.032959 40.0
499.09967 100.0
499.20639 88.0
500.13623 68.0
500.465668 88.0
500.603699 56.0
500.710602 36.0
501.053589 88.0
501.298859 88.0
501.343231 92.0
501.624023 56.0
501.673065 84.0
502.016388 100.0
502.301819 52.0
502.560577 52.0
503.328339 48.0
503.498016 100.0
503.551605 64.0
504.038574 44.0
504.118988 92.0
504.306702 60.0
504.387177 40.0
504.557037 52.0
504.838745 48.0
504.914764 132.0
504.963959 88.0
505.281555 68.0
505.344208 92.0
505.894684 52.0
506.369324 92.0
506.754578 40.0
506.78595 68.0
506.817291 80.0
506.875549 88.0
507.113068 104.0
507.408936 76.0
507.440308 60.0
507.538971 60.0
508.274597 116.0
508.754852 56.0
509.028717 52.0
509.064667 76.0
509.0961 76.0
509.338623 104.0
509.585693 84.0
509.751953 28.0
509.892761 136.0
509.963196 120.0
510.165466 60.0
510.259888 44.0
510.813019 44.0
510.867004 92.0
510.903015 44.0
511.111694 52.0
511.249481 100.0
511.402496 52.0
511.551025 92.0
511.771637 136.0
512.055359 44.0
512.217468 44.0
512.636536 52.0
512.965515 32.0
513.033936 92.0
513.813354 44.0
514.402832 64.0
514.524048 76.0
514.666382 108.0
514.720581 104.0
514.932861 76.0
516.053528 68.0
516.085205 128.0
516.184692 88.0
516.451477 56.0
517.370117 52.0
517.422424 124.0
517.764038 84.0
518.289551 60.0
518.362061 112.0
518.611328 104.0
518.656616 48.0
519.128174 28.0
519.232483 52.0
519.391235 104.0
519.504639 76.0
519.781372 100.0
519.854004 80.0
520.952759 80.0
521.052734 36.0
521.143555 72.0
521.879944 52.0
521.911743 32.0
522.002686 92.0
522.084534 144.0
522.300049 72.0
522.53186 72.0
522.739624 52.0
523.586365 48.0
523.683289 100.0
523.75946 36.0
523.814148 64.0
524.019104 84.0
524.442932 84.0
524.702759 72.0
525.541992 36.0
526.340759 60.0
526.400146 88.0
526.601074 48.0
526.856934 52.0
527.016785 76.0
527.249878 76.0
527.31842 40.0
527.844177 72.0
528.168884 40.0
528.663025 56.0
528.727051 112.0
529.720642 80.0
530.036804 48.0
530.417175 52.0
530.49054 80.0
530.77478 108.0
531.091248 72.0
531.12793 68.0
531.568359 104.0
531.90802 60.0
531.949341 60.0
532.082458 108.0
532.252319 48.0
532.390076 76.0
532.651917 56.0
532.766724 92.0
532.962219 44.0
533.033203 68.0
533.203247 80.0
534.179077 36.0
534.730225 68.0
534.817688 52.0
534.93927 76.0
535.077209 116.0
535.641907 80.0
535.950562 108.0
536.075012 36.0
536.194824 68.0
536.2547 48.0
536.86792 80.0
537.103149 112.0
537.730652 56.0
537.795227 64.0
538.266174 80.0
538.575562 76.0
538.894348 108.0
538.94519 44.0
539.222473 84.0
539.4505 108.0
539.647705 44.0
540.619141 40.0
540.864441 52.0
540.938477 76.0
541.410767 140.0
541.767456 104.0
541.938843 56.0
542.04541 60.0
542.253967 64.0
542.740723 32.0
543.626709 48.0
544.165161 72.0
545.642639 72.0
545.879761 88.0
546.186707 72.0
546.261169 68.0
546.531006 68.0
546.582153 52.0
547.559814 44.0
547.727478 84.0
547.957764 84.0
548.016296 84.0
548.351868 48.0
548.771362 40.0
549.191101 84.0
549.526978 80.0
549.715942 104.0
550.217712 32.0
550.353149 40.0
550.427856 48.0
550.866882 40.0
551.595825 84.0
551.909119 52.0
552.016663 60.0
552.091492 56.0
552.741699 80.0
552.821289 44.0
552.96167 60.0
553.055298 84.0
553.19104 44.0
553.35022 40.0
553.701416 92.0
553.74823 40.0
554.059753 68.0
555.679565 48.0
556.411743 52.0
556.460388 72.0
557.008118 68.0
557.42627 48.0
557.463867 80.0
557.9245 56.0
557.995056 120.0
558.136108 76.0
558.314758 68.0
559.086304 52.0
559.149658 96.0
559.48645 72.0
559.79248 60.0
560.042114 88.0
560.371826 52.0
560.701721 64.0
560.984497 52.0
561.830933 132.0
562.007935 92.0
562.121216 28.0
562.616821 56.0
562.975647 104.0
563.08429 80.0
563.207092 76.0
563.301575 44.0
563.457458 56.0
563.655884 36.0
563.811829 92.0
564.431091 52.0
564.979797 48.0
565.269043 140.0
565.457703 104.0
565.959473 64.0
566.281494 52.0
566.565735 92.0
566.812134 100.0
567.015869 64.0
567.162842 100.0
567.243408 64.0
568.327209 76.0
568.880005 36.0
569.088928 76.0
569.801331 40.0
570.257507 40.0
571.208496 40.0
571.670044 68.0
572.122192 88.0
572.160278 52.0
573.422607 56.0
573.9375 76.0
577.897156 44.0
578.045471 36.0
578.351807 68.0
579.256775 52.0
579.496338 44.0
579.755127 112.0
579.908447 44.0
580.589294 56.0
580.853088 72.0
580.925049 48.0
581.059387 68.0
581.299255 104.0
581.428833 48.0
582.0625 56.0
582.244995 44.0
583.297241 76.0
583.335693 64.0
583.778076 64.0
583.917542 64.0
584.095459 84.0
584.220581 96.0
584.884644 56.0
585.067566 80.0
585.482178 36.0
587.168457 60.0
587.636414 48.0
588.452087 76.0
588.659668 44.0
589.331116 52.0
589.88208 64.0
590.278503 80.0
590.467102 64.0
590.660583 92.0
591.367065 76.0
591.521973 84.0
592.640686 52.0
592.689148 48.0
593.168945 32.0
593.91571 44.0
594.032104 64.0
594.279541 68.0
594.575562 56.0
594.667786 76.0
596.348267 68.0
596.601074 80.0
597.656494 80.0
597.690552 44.0
597.787842 60.0
598.932007 60.0
599.302246 52.0
600.311279 84.0
600.345398 68.0
600.803894 128.0
601.330933 100.0
601.565186 60.0
601.726318 48.0
601.843506 40.0
602.053467 96.0
602.092529 72.0
602.263489 80.0
602.874207 48.0
603.074585 76.0
603.108826 48.0
603.358093 48.0
603.465698 84.0
604.659241 104.0
605.197754 52.0
605.276123 48.0
605.677673 60.0
605.844238 48.0
605.898132 36.0
606.192139 92.0
606.38324 84.0
607.101379 80.0
607.334473 72.0
607.599365 80.0
609.573181 144.0
610.138489 104.0
610.246643 52.0
610.458069 40.0
610.895813 76.0
611.274353 64.0
611.309937 72.0
611.402588 68.0
611.732361 56.0
611.806213 96.0
611.882751 52.0
611.99823 68.0
612.244446 72.0
612.303589 84.0
613.441772 88.0
614.038391 76.0
615.084412 48.0
615.573242 104.0
617.545105 64.0
618.054688 56.0
618.396179 80.0
618.856567 60.0
619.862061 60.0
620.055359 76.0
620.570862 56.0
621.126343 104.0
621.751526 76.0
622.262756 60.0
622.749451 32.0
623.0177 72.0
623.410217 48.0
624.135986 80.0
625.409546 76.0
625.748047 68.0
626.654541 60.0
626.988403 68.0
627.07312 68.0
627.287476 100.0
627.34729 52.0
627.835938 40.0
627.91571 60.0
628.823792 56.0
629.203186 140.0
629.268066 132.0
629.407837 52.0
629.617615 84.0
629.767456 80.0
630.951782 100.0
631.506836 44.0
632.062134 52.0
632.512573 32.0
633.033264 112.0
633.273682 100.0
633.849792 56.0
634.195618 108.0
634.581604 64.0
635.012878 100.0
636.423035 100.0
636.799622 64.0
637.754272 68.0
637.955383 124.0
638.065979 104.0
638.453186 52.0
638.679504 92.0
638.850525 68.0
639.202698 56.0
639.937622 56.0
640.128967 40.0
640.743469 92.0
640.924866 52.0
641.383484 76.0
641.564941 56.0
641.983459 124.0
642.588745 48.0
642.745178 48.0
643.158997 76.0
643.613342 104.0
644.386169 52.0
645.058289 52.0
645.255432 120.0
645.675171 96.0
645.917969 56.0
645.953369 32.0
646.297363 48.0
647.112305 28.0
650.971069 52.0
651.946411 60.0
652.002319 88.0
653.202271 92.0
653.395569 120.0
654.367676 80.0
654.423706 40.0
654.617188 92.0
655.391479 68.0
655.809326 68.0
656.1203 48.0
656.365051 72.0
656.706726 40.0
657.349548 44.0
657.609802 68.0
657.95697 72.0
658.171387 92.0
659.417908 68.0
659.949524 32.0
662.713501 52.0
663.959167 72.0
664.549072 108.0
664.677368 100.0
665.421631 80.0
665.822144 104.0
666.83429 28.0
666.870239 52.0
667.163269 140.0
667.677429 100.0
668.18158 40.0
668.361633 104.0
668.495422 80.0
670.905945 80.0
671.591797 72.0
672.68573 68.0
673.837402 84.0
674.30249 100.0
676.371399 104.0
676.53186 84.0
676.780396 56.0
677.800842 56.0
678.127319 48.0
678.500549 88.0
678.57312 88.0
680.134644 72.0
680.222839 40.0
680.586304 80.0
680.731689 32.0
681.9422 80.0
682.264465 48.0
682.477661 52.0
682.519226 44.0
682.976868 60.0
683.179749 76.0
683.450317 44.0
683.512756 120.0
684.173767 36.0
686.841858 104.0
687.207031 76.0
687.436646 28.0
688.02124 112.0
688.933594 92.0
689.69812 68.0
690.372559 56.0
690.900879 48.0
692.481689 104.0
692.806458 48.0
693.576782 56.0
695.433594 44.0
695.570068 60.0
697.245605 84.0
697.34021 44.0
697.639832 124.0
698.328674 40.0
699.054688 64.0
699.096802 76.0
700.349854 92.0
700.386719 56.0
700.934631 60.0
701.150696 88.0
702.352844 124.0
702.540222 76.0
703.191772 48.0
703.55072 56.0
703.988953 36.0
704.226624 60.0
704.358643 76.0
705.293945 92.0
705.362671 40.0
708.495483 52.0
708.691528 48.0
708.945862 56.0
709.120789 88.0
709.200256 76.0
709.417603 160.0
709.539551 80.0
709.783447 76.0
710.032715 84.0
710.908081 48.0
711.353882 144.0
711.422913 100.0
711.529114 68.0
712.575378 40.0
712.617859 80.0
713.143982 64.0
716.075623 92.0
716.528442 132.0
717.530396 32.0
718.554382 40.0
718.906555 48.0
719.354919 44.0
719.467041 48.0
719.579163 56.0
720.428284 104.0
720.647339 76.0
721.192444 100.0
721.256592 44.0
721.443665 64.0
721.921997 80.0
722.647034 112.0
723.262451 80.0
723.449829 48.0
723.591553 68.0
723.7229 36.0
724.017395 52.0
725.269226 80.0
726.043213 44.0
726.982056 48.0
727.534912 76.0
727.741211 64.0
728.039612 92.0
728.415588 28.0
729.097961 64.0
730.017273 56.0
730.135559 44.0
730.565857 88.0
731.082397 56.0
731.932983 64.0
732.056824 60.0
732.099915 76.0
732.940247 52.0
734.250244 52.0
735.426392 48.0
735.539795 48.0
736.203857 56.0
736.522522 100.0
737.370789 56.0
737.435669 52.0
737.803284 40.0
737.927612 64.0
738.26825 92.0
738.668518 40.0
738.744263 104.0
739.328613 128.0
739.788696 52.0
741.099365 48.0
741.240234 40.0
741.717163 80.0
741.755127 68.0
742.248474 128.0
743.490784 40.0
743.566711 168.0
744.869873 64.0
745.342529 88.0
745.440369 76.0
745.764099 120.0
746.016479 76.0
746.424255 92.0
747.093262 60.0
748.078247 68.0
748.900513 72.0
750.191956 84.0
750.73175 56.0
751.293518 112.0
752.34137 80.0
753.182312 60.0
754.187744 84.0
755.894043 44.0
756.288086 104.0
756.342834 80.0
756.643921 80.0
757.17511 88.0
757.8927 52.0
757.963928 152.0
758.057129 48.0
758.495544 84.0
758.605225 60.0
759.263184 76.0
759.877563 52.0
762.200134 56.0
762.282532 84.0
762.529846 36.0
763.783508 68.0
764.025513 52.0
765.924744 44.0
766.86145 68.0
766.927612 92.0
768.692444 36.0
769.205688 76.0
769.857239 72.0
769.940063 72.0
770.56427 84.0
771.371094 104.0
771.713867 92.0
773.702759 84.0
774.785583 144.0
775.716614 92.0
775.910645 48.0
776.587158 108.0
776.931091 120.0
777.352783 80.0
780.152161 56.0
781.587097 48.0
781.843079 48.0
784.460938 40.0
784.678345 112.0
784.951599 76.0
785.626465 88.0
785.665527 100.0
786.272949 56.0
786.452332 60.0
786.826355 40.0
787.340088 72.0
788.764832 40.0
789.491699 64.0
789.804871 48.0
790.073425 64.0
790.263611 92.0
790.509827 96.0
790.666565 68.0
790.823242 88.0
791.931885 56.0
792.48645 76.0
792.632141 92.0
793.304749 44.0
793.4729 52.0
793.629883 32.0
793.882263 152.0
794.841492 32.0
795.004211 96.0
795.324158 40.0
796.840393 56.0
797.037048 44.0
798.060059 68.0
798.318726 84.0
798.403076 72.0
799.325684 40.0
801.211853 60.0
802.036255 68.0
802.604004 40.0
803.309021 112.0
803.91272 60.0
805.024841 52.0
805.753479 56.0
806.222473 52.0
807.749084 104.0
807.997986 60.0
808.467651 60.0
808.586487 64.0
808.795959 56.0
811.486877 76.0
811.639954 80.0
813.148987 132.0
815.596985 100.0
815.733398 44.0
816.239441 72.0
816.887817 104.0
817.399841 40.0
818.367493 52.0
818.862976 112.0
819.307251 68.0
821.696045 44.0
823.528503 48.0
825.193665 52.0
825.585999 44.0
826.220947 52.0
826.301025 44.0
827.468567 96.0
829.617004 116.0
830.838501 80.0
831.274597 128.0
833.231506 84.0
834.393555 72.0
834.612 52.0
834.945557 76.0
835.693359 72.0
836.585449 44.0
836.948181 64.0
837.44342 88.0
838.261536 84.0
838.687988 76.0
839.04541 28.0
841.670654 136.0
842.438843 164.0
843.028198 80.0
844.606567 84.0
846.331177 72.0
846.979797 80.0
848.034363 44.0
849.872742 80.0
850.952332 64.0
852.764771 72.0
853.061218 72.0
853.537964 84.0
856.121704 108.0
856.436218 148.0
856.733276 32.0
857.36261 52.0
857.729797 80.0
858.55188 140.0
858.966003 52.0
859.164368 88.0
860.676025 104.0
860.804504 76.0
862.49292 80.0
863.124329 64.0
863.171143 96.0
863.270508 64.0
863.317322 64.0
868.098267 132.0
868.565125 48.0
871.506409 64.0
871.794373 92.0
873.458252 44.0
873.758301 108.0
875.259155 108.0
875.983582 68.0
876.643494 40.0
877.22699 96.0
877.392029 80.0
878.036926 84.0
878.789856 48.0
879.557068 48.0
880.442688 40.0
880.950684 40.0
881.316956 52.0
882.564148 64.0
882.936707 164.0
884.102173 60.0
884.469116 96.0
884.871704 108.0
885.09668 64.0
885.434265 112.0
886.228027 64.0
888.1073 68.0
888.279358 68.0
890.659668 44.0
893.150269 140.0
893.644043 44.0
895.614502 68.0
896.013672 36.0
897.119019 100.0
900.326294 60.0
900.81012 132.0
901.883179 60.0
902.848328 68.0
902.932007 72.0
904.619385 72.0
906.374268 68.0
907.351196 72.0
907.872864 56.0
907.920837 124.0
908.316711 52.0
908.862671 80.0
909.600891 84.0
909.889038 72.0
910.495483 92.0
911.192322 56.0
912.424377 84.0
916.119507 180.0
916.167725 88.0
916.577454 80.0
916.655762 72.0
917.415222 40.0
918.132751 84.0
918.54895 56.0
919.152222 44.0
919.315186 44.0
921.313782 44.0
922.250427 48.0
922.353149 128.0
924.016235 72.0
924.972412 40.0
925.17218 44.0
926.244019 84.0
927.29834 76.0
927.40741 136.0
928.292542 32.0
930.80481 148.0
932.706421 128.0
933.156311 40.0
934.549133 60.0
937.843811 100.0
940.747375 136.0
942.74469 64.0
942.824158 44.0
942.92804 96.0
945.21521 60.0
945.961914 76.0
946.684387 204.0
947.517456 44.0
948.332458 88.0
949.712036 48.0
950.153687 28.0
950.908508 56.0
951.58374 176.0
951.810913 56.0
952.207947 116.0
952.984131 48.0
954.576172 60.0
956.533203 44.0
960.488708 100.0
961.198181 156.0
961.648743 60.0
963.062683 56.0
965.361755 56.0
965.745178 52.0
965.930786 52.0
966.097778 32.0
967.453064 64.0
968.158936 60.0
968.431458 36.0
969.075745 68.0
969.422729 72.0
970.265747 80.0
970.550964 48.0
971.741821 56.0
972.176208 52.0
972.709961 60.0
973.939453 72.0
974.566895 60.0
974.622803 56.0
975.741577 92.0
975.897034 40.0
975.953003 52.0
976.388306 68.0
976.599792 48.0
977.452087 120.0
977.621704 108.0
977.956177 40.0
978.062012 68.0
979.164062 44.0
980.54718 72.0
980.684326 56.0
981.631958 56.0
982.006165 72.0
982.860779 132.0
984.758606 96.0
984.852356 72.0
986.201965 72.0
986.958435 72.0
987.696411 60.0
988.791321 64.0
989.761658 76.0
990.387939 52.0
992.167603 60.0
993.145874 48.0
993.793823 172.0
994.062866 76.0
994.388184 60.0
994.997131 92.0
995.901367 60.0
996.850037 88.0
997.283691 52.0
997.51001 104.0
998.207886 72.0
998.264465 128.0
999.289795 188.0
999.547729 112.0
1000.284119 64.0
1000.617798 96.0
1004.865784 40.0
1005.597778 96.0
1006.083801 56.0
1007.934448 156.0
1008.705505 72.0
1009.736145 32.0
1009.970154 60.0
1010.982422 180.0
1011.48877 56.0
1012.007935 96.0
1013.09729 72.0
1013.319031 36.0
1013.597778 36.0
1015.53772 76.0
1017.289124 104.0
1017.523987 84.0
1017.612854 40.0
1018.095459 112.0
1018.216125 40.0
1018.279663 144.0
1018.571838 44.0
1018.673462 84.0
1019.760071 132.0
1020.046082 124.0
1022.144897 56.0
1022.755859 100.0
1023.901917 96.0
1024.462402 56.0
1026.151367 40.0
1026.706055 92.0
1027.85437 56.0
1027.924561 32.0
1030.197632 108.0
1031.085693 40.0
1032.556274 84.0
1033.835693 96.0
1035.128906 100.0
1035.397827 48.0
1035.554077 60.0
1036.486938 68.0
1036.698364 36.0
1037.332886 48.0
1038.224121 144.0
1038.839844 164.0
1039.494385 64.0
1040.1875 36.0
1041.208374 44.0
1041.580933 60.0
1043.110352 28.0
1043.528198 172.0
1043.643921 136.0
1043.695312 136.0
1044.428467 120.0
1044.518555 152.0
1045.367798 48.0
1046.970825 92.0
1047.582764 140.0
1047.924194 188.0
1048.562134 112.0
1049.019775 60.0
1050.199829 80.0
1051.206299 48.0
1052.03894 72.0
1053.769775 40.0
1056.032349 80.0
1056.65332 84.0
1057.13208 40.0
1059.385376 184.0
1059.748169 48.0
1059.819458 116.0
1060.020264 80.0
1060.337891 168.0
1060.435059 44.0
1061.783691 64.0
1062.21167 104.0
1063.470581 100.0
1063.743164 56.0
1064.197632 52.0
1065.243286 128.0
1065.723999 72.0
1067.602661 40.0
1067.947388 116.0
1068.383179 36.0
1068.695435 48.0
1068.903687 96.0
1069.535034 132.0
1070.57019 104.0
1071.045654 132.0
1072.74646 172.0
1073.502686 96.0
1073.659302 48.0
1074.716064 56.0
1075.016235 96.0
1075.212036 52.0
1075.505737 72.0
1077.046631 40.0
1077.595459 104.0
1078.601807 52.0
1078.680298 164.0
1078.739136 56.0
1080.230103 44.0
1081.798706 132.0
1082.193481 240.0
1083.346191 96.0
1083.611572 140.0
1085.030396 140.0
1085.784546 96.0
1086.145264 52.0
1086.44043 132.0
1087.25415 80.0
1087.713623 60.0
1088.52771 72.0
1089.204224 56.0
1089.453857 28.0
1090.690674 52.0
1091.13623 136.0
1091.984497 56.0
1092.58313 132.0
1093.905884 64.0
1094.340454 52.0
1094.386475 40.0
1095.209717 56.0
1095.763062 44.0
1095.993652 160.0
1096.586792 168.0
1097.549316 40.0
1097.602051 152.0
1099.198364 172.0
1099.561279 124.0
1099.640503 136.0
1100.076172 88.0
1100.221436 164.0
1101.588379 48.0
1102.440796 64.0
1103.425659 128.0
1104.093506 64.0
1104.496948 76.0
1104.821167 32.0
1106.018921 52.0
1106.164551 100.0
1106.343262 80.0
1107.608032 32.0
1109.171631 128.0
1109.682373 164.0
1109.72876 144.0
1109.881226 36.0
1109.940918 56.0
1110.895996 120.0
1111.599365 60.0
1111.785156 60.0
1111.831543 212.0
1113.557739 216.0
1114.647339 220.0
1115.23877 168.0
1115.837036 64.0
1116.408936 104.0
1117.41333 36.0
1117.50647 92.0
1118.850952 116.0
1119.829834 100.0
1120.276123 76.0
1120.515869 88.0
1121.548828 40.0
1121.595459 104.0
1121.875488 72.0
1122.002197 84.0
1122.56897 164.0
1122.882324 64.0
1123.656128 80.0
1124.136597 104.0
1124.243408 60.0
1124.43689 64.0
1124.710571 112.0
1124.997559 124.0
1125.084351 172.0
1125.344727 40.0
1125.551758 60.0
1126.052612 132.0
1126.647095 176.0
1127.408813 156.0
1127.910156 40.0
1128.050537 156.0
1128.104004 76.0
1128.237671 60.0
1128.859497 124.0
1129.006592 212.0
1129.635376 128.0
1130.036743 136.0
1130.679199 44.0
1131.917725 92.0
1133.92749 48.0
1134.229126 88.0
1134.443604 96.0
1135.985962 108.0
1136.770996 76.0
1137.576416 92.0
1138.462646 192.0
1139.154541 80.0
1139.295532 100.0
1139.429932 96.0
1139.51062 116.0
1140.404297 60.0
1140.89502 140.0
1141.701904 144.0
1141.775879 116.0
1141.991089 88.0
1142.81189 52.0
1143.013672 80.0
1143.208862 160.0
1143.269409 52.0
1143.410767 108.0
1143.65979 72.0
1144.290649 176.0
1145.450928 172.0
1145.848389 164.0
1145.929321 180.0
1146.313354 140.0
1146.481812 120.0
1146.953613 84.0
1147.047974 184.0
1148.349365 100.0
1149.266846 172.0
1149.637939 124.0
1149.69873 152.0
1149.980713 92.0
1150.434448 112.0
1150.927246 104.0
1151.042114 148.0
1151.325684 116.0
1151.467529 112.0
1151.575562 100.0
1151.785034 140.0
1152.109253 60.0
1152.298462 84.0
1153.136353 60.0
1153.55542 208.0
1154.319458 56.0
1154.414062 144.0
1155.496338 80.0
1155.733154 128.0
1156.646851 68.0
1157.181641 96.0
1157.323853 72.0
1157.493164 172.0
1158.003418 148.0
1158.095825 56.0
1158.338379 144.0
1158.502319 64.0
1159.328979 144.0
1159.552612 148.0
1160.318604 208.0
1160.603394 48.0
1161.010254 100.0
1161.240845 204.0
1161.356079 112.0
1161.466431 216.0
1162.479492 116.0
1162.687378 132.0
1163.425781 156.0
1164.294922 124.0
1164.395752 132.0
1164.824707 116.0
1165.035278 128.0
1165.150757 116.0
1165.544922 60.0
1166.136108 148.0
1166.278809 92.0
1166.550781 160.0
1166.700317 48.0
1166.951904 60.0
1167.244263 68.0
1167.835938 40.0
1168.414185 176.0
1169.775269 104.0
1170.544556 52.0
1171.198364 188.0
1171.436768 108.0
1172.125 112.0
1172.172607 72.0
1172.593994 140.0
1173.079102 52.0
1173.842773 140.0
1174.354248 64.0
1174.879517 40.0
1175.725586 64.0
1176.376953 120.0
1176.592529 92.0
1177.138794 180.0
1177.937866 56.0
1178.75769 36.0
1179.49585 60.0
1179.810303 120.0
1180.446167 140.0
1180.514526 152.0
1180.753906 80.0
1182.430176 104.0
1182.478027 160.0
1182.580688 136.0
1182.888794 176.0
1183.936279 112.0
1184.039062 116.0
1184.333618 128.0
1185.224121 116.0
1186.903564 192.0
1187.198486 72.0
1187.294434 140.0
1188.090088 140.0
1188.975342 32.0
1189.716553 72.0
1190.046143 388.0
1190.389526 80.0
1190.602417 100.0
1190.973267 76.0
1191.035034 140.0
1191.309814 176.0
1191.625854 116.0
1191.880127 120.0
1192.03125 156.0
1192.127441 84.0
1192.954224 212.0
1193.253296 56.0
1193.564209 92.0
1193.694824 72.0
1194.224365 80.0
1195.1875 132.0
1195.92395 52.0
1196.453979 72.0
1197.025391 104.0
1197.294067 180.0
1198.361694 88.0
1198.837158 72.0
1199.057739 164.0
1199.119751 68.0
1199.960815 52.0
1200.036621 120.0
1200.140015 96.0
1200.395142 144.0
1201.167603 32.0
1202.071411 128.0
1202.2854 96.0
1203.051514 56.0
1203.182739 148.0
1203.652588 144.0
1203.859375 80.0
1205.897461 96.0
1206.118652 148.0
1206.388306 160.0
1206.87915 84.0
1207.010498 124.0
1207.169556 124.0
1207.335571 40.0
1207.397827 48.0
1208.137939 144.0
1208.227905 112.0
1208.820679 128.0
1209.785034 148.0
1210.643555 80.0
1210.76123 160.0
1212.444824 136.0
1212.689331 168.0
1212.791382 76.0
1213.454956 176.0
1214.857788 100.0
1215.308716 108.0
1215.51001 92.0
1216.662109 136.0
1216.710693 68.0
1218.592896 184.0
1219.809082 112.0
1219.934204 108.0
1220.393066 40.0
1220.921631 92.0
1221.005005 100.0
1221.144165 140.0
1221.311035 144.0
1221.568481 140.0
1221.624146 48.0
1222.40625 148.0
1222.643799 108.0
1223.398682 96.0
1223.781616 52.0
1223.859253 104.0
1224.310791 328.0
1224.549072 176.0
1224.707886 56.0
1224.84021 64.0
1224.958618 64.0
1225.043823 172.0
1225.258179 40.0
1225.404419 136.0
1225.599609 132.0
1225.850464 132.0
1226.26001 176.0
1226.491577 124.0
1227.404907 120.0
1227.59314 176.0
1227.732666 88.0
1228.730103 160.0
1229.476807 68.0
1229.700073 148.0
1229.88855 164.0
1230.440063 152.0
1230.897339 152.0
1230.970703 128.0
1231.424683 200.0
1231.697021 132.0
1231.955566 60.0
1232.067383 36.0
1233.136475 188.0
1233.227295 196.0
1233.499878 84.0
1233.975342 132.0
1234.289917 68.0
1234.401855 48.0
1234.471802 132.0
1234.751465 60.0
1235.03125 52.0
1235.422974 148.0
1235.679199 120.0
1236.248657 88.0
1236.297607 44.0
1236.738525 48.0
1236.822632 44.0
1236.997559 188.0
1237.347656 144.0
1237.648682 184.0
1237.858765 120.0
1238.124878 184.0
1238.657227 156.0
1240.401978 48.0
1240.811157 152.0
1241.040039 96.0
1241.355591 104.0
1241.481812 104.0
1241.727295 164.0
1242.835693 160.0
1243.018066 64.0
1243.109253 136.0
1243.27771 148.0
1243.333862 156.0
1243.649658 92.0
1243.804199 84.0
1244.471069 132.0
1244.641602 156.0
1245.201416 144.0
1245.700073 128.0
1245.749268 136.0
1245.826538 88.0
1246.114624 160.0
1247.302246 160.0
1247.718872 144.0
1248.39209 36.0
1248.870361 164.0
1249.334595 124.0
1249.609009 96.0
1249.665283 112.0
1249.84375 88.0
1249.857178 120.0
1250.052246 120.0
1250.143799 160.0
1250.460449 144.0
1250.56604 204.0
1251.122192 92.0
1251.276978 116.0
1251.502319 120.0
1251.678345 216.0
1252.093872 192.0
1253.925659 100.0
1253.974976 172.0
1254.567139 168.0
1254.80896 180.0
1255.250977 108.0
1255.455566 156.0
1255.652954 108.0
1255.733398 200.0
1256.069214 44.0
1256.31604 112.0
1256.675903 136.0
1257.155762 128.0
1257.6427 68.0
1257.797974 80.0
1258.080322 144.0
1258.228638 68.0
1258.419189 144.0
1258.913574 148.0
1258.991211 148.0
1259.393799 152.0
1259.591553 52.0
1259.72583 96.0
1259.895386 164.0
1259.994263 92.0
1260.416138 84.0
1260.580688 128.0
1260.912842 148.0
1260.96936 156.0
1261.71875 172.0
1261.768188 68.0
1261.980347 100.0
1262.213623 48.0
1262.330078 148.0
1263.005737 44.0
1263.125977 104.0
1263.810913 188.0
1264.268799 52.0
1264.725342 176.0
1265.114502 56.0
1265.305664 32.0
1265.560547 176.0
1265.86499 168.0
1265.964111 56.0
1266.013794 88.0
1266.233276 200.0
1266.523682 188.0
1266.807007 184.0
1266.856567 200.0
1267.331299 72.0
1267.75647 132.0
1267.834473 48.0
1267.936401 188.0
1268.018677 160.0
1268.188843 172.0
1268.344727 76.0
1268.500732 112.0
1269.067871 176.0
1269.175293 80.0
1269.238037 152.0
1269.531372 112.0
1269.649292 76.0
1269.904663 144.0
1270.429565 84.0
1270.578613 116.0
1270.890747 72.0
1271.394531 164.0
1272.217896 168.0
1273.003418 148.0
1273.304321 68.0
1273.588501 100.0
1273.638184 128.0
1273.773193 92.0
1274.163818 84.0
1274.60437 120.0
1275.030762 100.0
1275.187134 88.0
1275.5354 28.0
1275.627808 188.0
1275.720215 168.0
1275.833984 128.0
1276.004639 140.0
1276.438354 148.0
1277.128174 128.0
1277.30603 144.0
1277.654663 84.0
1277.83252 108.0
1277.910767 176.0
1278.8573 116.0
1279.042358 108.0
1279.120605 144.0
1279.334229 100.0
1279.633179 216.0
1279.989258 132.0
1280.29541 120.0
1280.509033 172.0
1280.56604 144.0
1280.808228 188.0
1281.114502 92.0
1281.164429 164.0
1281.399536 148.0
1281.52063 140.0
1281.919678 144.0
1282.240356 120.0
1282.813843 148.0
1283.010254 108.0
1283.088623 84.0
1283.159912 192.0
1283.273315 76.0
1283.430908 64.0
1283.502197 76.0
1283.67334 136.0
1283.9729 116.0
1284.158325 124.0
1284.229614 44.0
1284.757446 208.0
1284.857422 120.0
1285.292603 176.0
1285.349731 232.0
1285.513794 120.0
1285.563721 80.0
1285.777832 172.0
1286.29895 60.0
1286.427368 124.0
1286.548706 52.0
1286.727295 48.0
1287.243286 132.0
1287.40564 148.0
1287.553467 148.0
1287.674805 92.0
1287.78418 180.0
1287.898438 144.0
1287.955566 124.0
1288.03418 68.0
1288.098389 216.0
1288.41272 80.0
1288.491333 160.0
1288.791382 120.0
1288.941406 132.0
1289.145264 156.0
1289.348755 128.0
1289.448853 116.0
1289.541748 44.0
1289.734741 160.0
1290.363892 40.0
1290.485352 148.0
1290.621216 184.0
1290.75 72.0
1290.996338 192.0
1291.615356 48.0
1291.672607 56.0
1292.366577 212.0
1293.11792 160.0
1293.727173 140.0
1294.221802 188.0
1294.406616 64.0
1294.456665 152.0
1294.597046 112.0
1295.036743 160.0
1295.150757 88.0
1295.172485 80.0
1295.197998 164.0
1295.531006 140.0
1295.73877 152.0
1295.88208 180.0
1296.003906 120.0
1296.138184 196.0
1296.21167 116.0
1296.283325 36.0
1296.53418 140.0
1296.633423 104.0
1296.914062 160.0
1297.150635 96.0
1297.344116 116.0
1297.573608 96.0
1297.738525 80.0
1298.135986 220.0
1298.448364 152.0
1298.546021 248.0
1299.359375 140.0
1299.409668 108.0
1299.50293 116.0
1299.560303 80.0
1299.752808 140.0
1299.890381 60.0
1300.012451 156.0
1300.256348 140.0
1300.981323 80.0
1301.074707 64.0
1301.33313 224.0
1302.246704 112.0
1302.317017 144.0
1302.475098 248.0
1302.704956 184.0
1302.927612 212.0
1303.22937 144.0
1303.65332 92.0
1303.782715 176.0
1303.912109 52.0
1303.998291 96.0
1304.206787 184.0
1304.37207 68.0
1304.638062 200.0
1304.759155 208.0
1305.126953 192.0
1305.299561 160.0
1305.788574 188.0
1305.967285 148.0
1306.076294 64.0
1306.162598 72.0
1306.414307 140.0
1306.76709 148.0
1306.846069 76.0
1307.58728 52.0
1307.796021 44.0
1307.871094 124.0
1308.055054 128.0
1308.391846 176.0
1308.998291 164.0
1309.322388 180.0
1309.372803 68.0
1309.459229 88.0
1309.516846 100.0
1309.624878 136.0
1309.747314 140.0
1309.920166 60.0
1310.179565 136.0
1310.438843 56.0
1311.166748 168.0
1311.325317 36.0
1311.764893 148.0
1311.973999 112.0
1312.154297 68.0
1312.507568 96.0
1312.882568 188.0
1313.142212 80.0
1313.329712 188.0
1313.481201 40.0
1313.596558 72.0
1314.188232 100.0
1314.44873 196.0
1314.794312 56.0
1314.895386 156.0
1315.147949 92.0
1315.761597 132.0
1315.855469 164.0
1315.949341 140.0
1316.023315 192.0
1316.526978 152.0
1316.902588 100.0
1317.018188 168.0
1317.119263 108.0
1317.321533 216.0
1317.899536 76.0
1317.964478 68.0
1318.231934 88.0
1318.412598 108.0
1318.853394 124.0
1319.135376 136.0
1319.279907 108.0
1319.330566 152.0
1319.576294 168.0
1319.851074 96.0
1319.937866 128.0
1320.096924 92.0
1320.259888 120.0
1320.415161 68.0
1320.567017 52.0
1321.102295 32.0
1321.362793 100.0
1321.471313 52.0
1321.64502 140.0
1322.267334 56.0
1322.354126 84.0
1322.556885 184.0
1322.926025 56.0
1323.092529 76.0
1323.324219 272.0
1323.729736 64.0
1323.794922 64.0
1323.946899 100.0
1324.185913 144.0
1324.280151 152.0
1324.345337 164.0
1324.953857 128.0
1325.077026 168.0
1325.241333 204.0
1326.258179 168.0
1326.577148 116.0
1326.816406 236.0
1327.171631 96.0
1327.338379 132.0
1327.456299 128.0
1327.532471 132.0
1327.795288 76.0
1328.128906 56.0
1328.215942 120.0
1328.285645 236.0
1328.665771 104.0
1328.954834 128.0
1329.180908 124.0
1329.239014 152.0
1329.826782 32.0
1330.015503 44.0
1330.538208 116.0
1330.713501 140.0
1330.777832 164.0
1331.213501 200.0
1331.295288 132.0
1331.400146 180.0
1331.55481 156.0
1331.620117 56.0
1332.201294 212.0
1332.433716 124.0
1332.579102 112.0
1332.993286 160.0
1333.094971 64.0
1333.400269 164.0
1333.574707 124.0
1333.640015 100.0
1333.865356 212.0
1334.054443 120.0
1334.243408 84.0
1334.381592 96.0
1334.563354 56.0
1334.985107 64.0
1335.239624 104.0
1335.312866 128.0
1335.486938 128.0
1336.22168 108.0
1336.279907 132.0
1336.359375 120.0
1336.713989 108.0
1337.108276 132.0
1337.276855 52.0
1337.509766 128.0
1337.873657 40.0
1338.092163 160.0
1338.215942 52.0
1338.427002 120.0
1338.616333 76.0
1338.722168 120.0
1338.808838 160.0
1339.331421 116.0
1339.446655 108.0
1339.650635 88.0
1339.738037 164.0
1339.883789 40.0
1340.167969 160.0
1340.306396 44.0
1340.554077 184.0
1340.623535 168.0
1340.787354 92.0
1340.867554 108.0
1341.049683 144.0
1341.559937 188.0
1341.76416 108.0
1342.055786 104.0
1342.879761 152.0
1343.018433 72.0
1343.156982 116.0
1343.353882 180.0
1343.492554 100.0
1343.842773 44.0
1344.258667 120.0
1344.305664 92.0
1344.536011 140.0
1344.879028 136.0
1344.926147 48.0
1345.422607 180.0
1345.499023 120.0
1345.57251 88.0
1345.660156 128.0
1345.755005 236.0
1345.864624 92.0
1346.241211 188.0
1346.660645 104.0
1346.813965 156.0
1346.958984 132.0
1347.084229 44.0
1347.201172 160.0
1347.427612 168.0
1347.559082 148.0
1347.880615 124.0
1347.98291 112.0
1348.041382 108.0
1348.311768 220.0
1348.384888 164.0
1348.75354 236.0
1349.240112 80.0
1349.634888 156.0
1349.700439 84.0
1350.300415 124.0
1350.366211 56.0
1350.678711 156.0
1350.892944 176.0
1351.178223 160.0
1351.273315 88.0
1351.390381 144.0
1351.858643 152.0
1351.953857 56.0
1352.070923 88.0
1352.38562 96.0
1352.546631 152.0
1352.62439 220.0
1352.780884 104.0
1352.949463 240.0
1353.483765 180.0
1353.549683 116.0
1353.835327 204.0
1354.787476 84.0
1354.860718 176.0
1354.956055 116.0
1355.095215 88.0
1355.153809 96.0
1355.362061 136.0
1355.428467 108.0
1355.713989 136.0
1355.828003 176.0
1355.886597 112.0
1356.04248 176.0
1356.443726 76.0
1356.546265 148.0
1356.612305 140.0
1356.751587 288.0
1356.8396 112.0
1356.912842 148.0
1357.059937 120.0
1357.220825 124.0
1357.316162 56.0
1357.374756 100.0
1357.426147 96.0
1357.671631 92.0
1357.998169 148.0
1358.159546 164.0
1358.408936 196.0
1358.504272 144.0
1358.775757 180.0
1358.852295 188.0
1358.92981 212.0
1359.046143 136.0
1359.32605 156.0
1359.839722 132.0
1359.935181 164.0
1359.993896 128.0
1360.168701 88.0
1360.566528 128.0
1360.830811 140.0
1361.00708 120.0
1361.263672 84.0
1361.440308 184.0
1361.645874 100.0
1361.851562 204.0
1361.970093 60.0
1362.346802 152.0
1362.367798 208.0
1362.483032 208.0
1362.72583 132.0
1362.808228 160.0
1362.894775 156.0
1363.019653 152.0
1363.071167 136.0
1363.151978 64.0
1363.512085 120.0
1363.673706 104.0
1363.747192 104.0
1363.901611 132.0
1364.078003 148.0
1364.180908 200.0
1364.244385 280.0
1364.680908 88.0
1364.738281 140.0
1364.848267 88.0
1365.026489 96.0
1365.217651 208.0
1365.305908 52.0
1365.401489 184.0
1365.548584 132.0
1365.629517 60.0
1366.306274 88.0
1366.369995 176.0
1366.48291 140.0
1366.605347 92.0
1366.971924 104.0
1367.027344 184.0
1367.167236 264.0
1367.371216 168.0
1367.454224 40.0
1367.564697 160.0
1367.859253 184.0
1367.964355 148.0
1368.293457 92.0
1368.367065 48.0
1368.764648 104.0
1368.897217 44.0
1369.36853 68.0
1369.522339 164.0
1369.549438 148.0
1369.751587 176.0
1370.016724 128.0
1370.178833 188.0
1370.237793 132.0
1370.407227 52.0
1370.480957 140.0
1370.923096 68.0
1371.203125 72.0
1371.321045 116.0
1371.615845 188.0
1371.888672 168.0
1372.131958 64.0
1372.48584 48.0
1373.533081 144.0
1373.673218 92.0
1373.86499 112.0
1374.042114 196.0
1374.123291 132.0
1374.182251 252.0
1374.241333 136.0
1374.292969 176.0
1374.470093 48.0
1374.598877 160.0
1374.676636 48.0
1374.823486 112.0
1375.208008 152.0
1375.259766 140.0
1375.363037 196.0
1375.643555 156.0
1376.005249 184.0
1376.108643 156.0
1376.1604 140.0
1376.285889 100.0
1376.359741 144.0
1376.455688 80.0
1376.522217 136.0
1376.699463 120.0
1376.80835 112.0
1377.464478 144.0
1377.652222 148.0
1377.986816 104.0
1378.088135 60.0
1378.598022 124.0
1378.915771 164.0
1379.257446 104.0
1379.374023 68.0
1379.447998 248.0
1379.706665 152.0
1379.86438 124.0
1379.915405 120.0
1380.115967 368.0
1380.253906 136.0
1380.349976 68.0
1380.468262 124.0
1380.727173 148.0
1380.875122 172.0
1380.960571 332.0
1381.067383 92.0
1381.296631 212.0
1381.411621 292.0
1381.49646 148.0
1381.569458 160.0
1381.636963 244.0
1381.762695 64.0
1381.88855 324.0
1381.992065 144.0
1382.043945 168.0
1382.228882 104.0
1382.421265 272.0
1382.554443 100.0
1382.724731 128.0
1382.791382 80.0
1382.847656 124.0
1383.220581 32.0
1383.302124 148.0
1383.427856 160.0
1383.568604 152.0
1383.694458 56.0
1383.790649 128.0
1383.8573 120.0
1383.985229 128.0
1384.131348 148.0
1384.486694 140.0
1384.599243 216.0
1384.792603 192.0
1384.997803 60.0
1385.08667 120.0
1385.160767 136.0
1385.25708 136.0
1385.457031 124.0
1385.738647 120.0
1386.101685 52.0
1386.6427 168.0
1386.822754 148.0
1387.020752 72.0
1387.124512 108.0
1387.346924 48.0
1387.45813 116.0
1387.612793 128.0
1388.095703 36.0
1388.258911 104.0
1388.429443 140.0
1388.813843 156.0
1388.904175 40.0
1388.993164 164.0
1389.10437 84.0
1389.460449 156.0
1389.622437 452.0
1389.920532 96.0
1389.997803 268.0
1390.06897 128.0
1390.135742 76.0
1390.432617 128.0
1390.488525 124.0
1390.573608 148.0
1390.640381 84.0
1390.781372 144.0
1391.015015 152.0
1391.100586 136.0
1391.20459 76.0
1391.293579 160.0
1391.443726 72.0
1391.704102 324.0
1391.931519 204.0
1392.065796 52.0
1392.373047 76.0
1392.511475 36.0
1392.59314 96.0
1392.882812 112.0
1393.120483 172.0
1393.217163 64.0
1393.35083 136.0
1393.568237 172.0
1393.629761 96.0
1393.922974 68.0
1393.991943 112.0
1394.212769 88.0
1394.539795 188.0
1394.636475 72.0
1395.030396 96.0
1395.272217 68.0
1395.454224 112.0
1395.52832 288.0
1395.6698 84.0
1395.867432 160.0
1395.974731 260.0
1396.078735 128.0
1396.272217 80.0
1396.45813 92.0
1396.651489 80.0
1396.770508 124.0
1396.82251 104.0
1396.889526 104.0
1397.202026 108.0
1397.272217 140.0
1397.514404 144.0
1397.60376 64.0
1397.798218 148.0
1397.938599 112.0
1398.139526 196.0
1398.228882 96.0
1398.343506 160.0
1398.437256 200.0
1398.541504 120.0
1398.608398 116.0
1398.774902 112.0
1398.862305 156.0
1398.943359 64.0
1399.099731 32.0
1399.278442 92.0
1399.344727 120.0
1399.545288 120.0
1399.650757 48.0
1399.78479 76.0
1400.328369 76.0
1400.4375 164.0
1400.499756 128.0
1400.641235 112.0
1400.730591 56.0
1400.942139 144.0
1401.006226 72.0
1401.082275 200.0
1401.181274 156.0
1401.356445 128.0
1401.44397 112.0
1401.538452 340.0
1401.684326 252.0
1401.803467 88.0
1402.325195 92.0
1402.451904 148.0
1402.779907 152.0
1402.973755 116.0
1403.294312 64.0
1403.354004 120.0
1403.46582 56.0
1403.883423 120.0
1404.308472 44.0
1404.368164 128.0
1404.42041 124.0
1404.472656 60.0
1404.733643 72.0
1404.815796 64.0
1404.979858 152.0
1405.129028 112.0
1405.181274 208.0
1405.330566 136.0
1405.713379 132.0
1405.883179 144.0
1406.046875 32.0
1406.106567 60.0
1406.373779 152.0
1406.546997 44.0
1406.708618 176.0
1406.793335 120.0
1407.166626 92.0
1407.323364 120.0
1407.383179 104.0
1407.466187 180.0
1407.507812 164.0
1407.599731 100.0
1407.719116 88.0
1407.813477 244.0
1407.988037 148.0
1408.044922 196.0
1408.126099 140.0
1408.458618 140.0
1408.615479 108.0
1408.796387 188.0
1408.884399 172.0
1408.966553 212.0
1409.053711 212.0
1409.130859 56.0
1409.581421 180.0
1409.736206 148.0
1409.908081 124.0
1409.967896 140.0
1410.020142 132.0
1410.256226 192.0
1410.341553 132.0
1410.401367 120.0
1410.468628 44.0
1410.57373 128.0
1410.834961 136.0
1411.16394 100.0
1411.320923 108.0
1411.687256 108.0
1411.926636 140.0
1412.016357 40.0
1412.188354 156.0
1412.442749 160.0
1412.539917 136.0
1412.689575 160.0
1412.793579 160.0
1412.928955 100.0
1413.250732 144.0
1413.392822 128.0
1413.724609 132.0
1413.90918 116.0
1413.984009 104.0
1414.169556 168.0
1414.358276 48.0
1414.508057 164.0
1414.646973 168.0
1414.829956 152.0
1415.007324 104.0
1415.1604 112.0
1415.444214 100.0
1415.613647 148.0
1415.752563 112.0
1415.975586 116.0
1416.2677 136.0
1416.402466 144.0
1416.7771 140.0
1416.952148 144.0
1417.048706 112.0
1417.323486 184.0
1417.449097 208.0
1417.526367 80.0
1417.668701 132.0
1417.724243 132.0
1417.993896 184.0
1418.140869 188.0
1418.268311 64.0
1418.431152 136.0
1418.805542 144.0
1418.914551 132.0
1418.985596 116.0
1419.062988 124.0
1419.280396 116.0
1419.37793 68.0
1419.887817 176.0
1420.174072 144.0
1420.251343 160.0
1420.307861 168.0
1420.358521 100.0
1420.421631 168.0
1420.515747 128.0
1420.697876 80.0
1420.892944 148.0
1421.102783 120.0
1421.298218 152.0
1421.500732 128.0
1421.605835 112.0
1421.695923 168.0
1421.830933 96.0
1422.438232 44.0
1422.578857 168.0
1422.686646 68.0
1422.806763 84.0
1422.87439 208.0
1423.029419 164.0
1423.32019 168.0
1423.407471 144.0
1423.602661 132.0
1423.662842 120.0
1423.7229 132.0
1423.864014 320.0
1423.943237 128.0
1424.03833 112.0
1424.133667 184.0
1424.218628 132.0
1424.293701 136.0
1424.511475 60.0
1424.631714 136.0
1424.747925 104.0
1424.809082 124.0
1424.909668 56.0
1425.009155 148.0
1425.147461 204.0
1425.2854 112.0
1425.353027 96.0
1425.428101 196.0
1425.587891 112.0
1425.758789 220.0
1425.833984 128.0
1426.442749 152.0
1426.634277 172.0
1426.728516 176.0
1426.978394 196.0
1427.215332 144.0
1427.367554 208.0
1427.510132 116.0
1427.675903 84.0
1427.916504 272.0
1428.006836 136.0
1428.23999 316.0
1428.355347 96.0
1428.522583 136.0
1428.623657 208.0
1428.815552 164.0
1428.969727 200.0
1429.037354 76.0
1429.123047 136.0
1429.240601 80.0
1429.639404 84.0
1429.791138 140.0
1430.39209 112.0
1430.655518 164.0
1430.828735 136.0
1430.911499 172.0
1431.002563 132.0
1431.084717 352.0
1431.318115 44.0
1431.580811 140.0
1431.606445 196.0
1431.739746 80.0
1431.882935 144.0
1432.154053 60.0
1432.244385 112.0
1432.312256 92.0
1432.36499 160.0
1432.643677 164.0
1432.703979 56.0
1432.764282 156.0
1432.97522 108.0
1433.207764 228.0
1433.585571 176.0
1433.785889 124.0
1434.128174 160.0
1434.293945 76.0
1434.402222 100.0
1434.592896 232.0
1434.889526 152.0
1435.006592 160.0
1435.138306 164.0
1435.19873 116.0
1435.333984 68.0
1435.361328 64.0
1435.382568 104.0
1435.537964 80.0
1435.696411 144.0
1435.783569 152.0
1435.869873 64.0
1435.922607 68.0
1436.126343 76.0
1436.329956 164.0
1436.400757 152.0
1436.669434 124.0
1436.722168 208.0
1436.933472 256.0
1437.12207 184.0
1437.189941 44.0
1437.295654 196.0
1437.401245 132.0
1437.555176 112.0
1437.6427 56.0
1437.76355 136.0
1437.861572 172.0
1437.937134 132.0
1438.088013 132.0
1438.210693 144.0
1438.388794 100.0
1438.39917 136.0
1438.55603 200.0
1438.639038 52.0
1438.978882 72.0
1439.613159 80.0
1439.703735 104.0
1439.771729 184.0
1439.862305 56.0
1439.968018 28.0
1440.024658 168.0
1440.32312 176.0
1440.39856 180.0
1440.538696 160.0
1440.711914 224.0
1440.881104 176.0
1441.121704 148.0
1441.411011 156.0
1441.554565 72.0
1441.61499 28.0
1441.728394 172.0
1441.900024 180.0
1441.983276 152.0
1442.15918 128.0
1442.559814 144.0
1442.779053 100.0
1442.922729 104.0
1442.996216 160.0
1443.096558 84.0
1443.157104 104.0
1443.255371 96.0
1443.494019 100.0
1443.542725 152.0
1443.664917 104.0
1443.917603 132.0
1443.988892 152.0
1444.109985 144.0
1444.175781 172.0
1444.324585 100.0
1444.669678 164.0
1444.904175 56.0
1445.04895 132.0
1445.419678 176.0
1445.630615 120.0
1445.751709 92.0
1445.842529 136.0
1446.039307 264.0
1446.092285 60.0
1446.281006 120.0
1446.387451 64.0
1446.595093 196.0
1446.720581 184.0
1446.90979 220.0
1447.099121 52.0
1447.216675 108.0
1447.38269 88.0
1447.58374 108.0
1447.750366 64.0
1447.863892 140.0
1448.022949 92.0
1448.151733 160.0
1448.242676 144.0
1448.41687 144.0
1448.540527 208.0
1448.644043 96.0
1448.71228 52.0
1448.783936 96.0
1448.957886 252.0
1449.21228 80.0
1449.295654 164.0
1449.356323 132.0
1449.406494 120.0
1449.539551 160.0
1449.767456 92.0
1449.932251 128.0
1450.015625 180.0
1450.068604 208.0
1450.149048 148.0
1450.205078 164.0
1450.311157 40.0
1450.371826 128.0
1450.750854 44.0
1450.85498 168.0
1450.925171 188.0
1451.084473 108.0
1451.167603 168.0
1451.320557 136.0
1451.459717 188.0
1451.651245 148.0
1451.797241 104.0
1452.047485 160.0
1452.349487 108.0
1452.578491 216.0
1452.728882 228.0
1452.836304 172.0
1453.04126 124.0
1453.144043 208.0
1453.230835 144.0
1453.408325 92.0
1453.549561 76.0
1453.614502 180.0
1453.792358 136.0
1454.194702 112.0
1454.376831 136.0
1454.467896 120.0
1454.55896 52.0
1454.687988 96.0
1454.770142 64.0
1454.813721 136.0
1454.93103 100.0
1455.006836 48.0
1455.227051 132.0
1455.318359 128.0
1455.475952 180.0
1455.766235 72.0
1456.145874 156.0
1456.286621 92.0
1456.392944 124.0
1456.442139 212.0
1456.695679 116.0
1456.897949 204.0
1457.011841 112.0
1457.217041 144.0
1457.376587 76.0
1457.647095 100.0
1457.748901 188.0
1457.890381 164.0
1458.235718 164.0
1458.496948 84.0
1458.788208 124.0
1458.927002 100.0
1459.101929 156.0
1459.216797 96.0
1459.300903 168.0
1459.496948 112.0
1459.79126 192.0
1460.087524 172.0
1460.149414 128.0
1460.311035 140.0
1460.379395 136.0
1460.622803 128.0
1460.830322 188.0
1461.375977 152.0
1461.535767 204.0
1461.619507 72.0
1461.733643 112.0
1461.817383 140.0
1461.921265 164.0
1462.114136 132.0
1462.258789 180.0
1462.360474 108.0
1462.47583 120.0
1462.578491 168.0
1462.668579 116.0
1462.844849 128.0
1462.989502 184.0
1463.161621 92.0
1463.250244 232.0
1463.507202 72.0
1463.758545 128.0
1463.935059 200.0
1463.994629 88.0
1464.050781 148.0
1464.355225 172.0
1464.626709 64.0
1464.784058 176.0
1464.946655 196.0
1465.116943 148.0
1465.48291 92.0
1465.556152 136.0
1465.632324 132.0
1465.853394 92.0
1466.091919 184.0
1466.242065 188.0
1466.4021 132.0
1466.638306 96.0
1466.903442 128.0
1467.042358 104.0
1467.118652 72.0
1467.171997 160.0
1467.293945 164.0
1467.423584 44.0
1467.545532 164.0
1467.613037 128.0
1467.69043 136.0
1467.76416 244.0
1468.186035 128.0
1468.24707 80.0
1468.317261 200.0
1468.376709 100.0
1468.529297 208.0
1468.681885 156.0
1468.788696 152.0
1468.8573 184.0
1469.063232 156.0
1469.124268 192.0
1469.177734 124.0
1469.299805 156.0
1469.397949 156.0
1469.428589 136.0
1469.507935 208.0
1469.559204 184.0
1469.643066 156.0
1469.765137 88.0
1469.826172 288.0
1469.933105 136.0
1470.177246 348.0
1470.245972 196.0
1470.310547 164.0
1470.37146 72.0
1470.385864 108.0
1470.557617 100.0
1470.584717 84.0
1470.599854 132.0
1470.804688 160.0
1471.110962 136.0
1471.191284 196.0
1471.241699 164.0
1471.352783 92.0
1471.40625 52.0
1471.574219 176.0
1471.848999 112.0
1471.948364 192.0
1472.032349 132.0
1472.151733 228.0
1472.305542 124.0
1472.467651 172.0
1472.780762 76.0
1472.895386 60.0
1473.053101 124.0
1473.464844 84.0
1473.544678 92.0
1473.636353 68.0
1473.802368 264.0
1473.934326 116.0
1474.178955 192.0
1474.27063 132.0
1474.431152 104.0
1474.623413 120.0
1474.843872 204.0
1474.966187 136.0
1475.042603 100.0
1475.10376 168.0
1475.30249 104.0
1475.355957 60.0
1475.487671 140.0
1475.55481 44.0
1475.715332 104.0
1475.78418 132.0
1475.853394 168.0
1475.998291 84.0
1476.449463 64.0
1476.518311 60.0
1476.640625 268.0
1476.752686 212.0
1476.854858 164.0
1476.931274 148.0
1476.984863 88.0
1477.137817 172.0
1477.375 48.0
1477.589233 116.0
1477.710083 188.0
1477.856934 100.0
1478.086548 108.0
1478.270142 44.0
1478.328613 132.0
1478.430908 124.0
1478.545654 144.0
1478.704224 120.0
1478.935059 220.0
1479.242188 100.0
1479.494873 80.0
1479.571411 156.0
1479.847046 72.0
1479.931274 144.0
1480.015503 120.0
1480.241455 140.0
1480.41626 228.0
1480.582153 112.0
1480.743042 100.0
1480.796631 104.0
1480.85022 88.0
1480.980469 84.0
1481.049316 80.0
1481.171875 60.0
1481.233154 120.0
1481.417114 128.0
1481.833008 192.0
1482.067749 176.0
1482.229248 132.0
1482.589355 160.0
1482.643066 120.0
1482.719604 116.0
1482.77771 156.0
1482.865234 52.0
1482.949585 72.0
1483.09436 108.0
1483.151733 116.0
1483.348145 124.0
1483.440186 172.0
1483.578125 112.0
1483.746826 68.0
1483.877197 140.0
1484.007446 40.0
1484.099487 128.0
1484.168579 116.0
1484.30542 156.0
1484.427856 132.0
1484.620972 96.0
1484.866333 64.0
1484.924927 76.0
1485.088745 180.0
1485.144409 220.0
1485.282959 200.0
1485.717773 108.0
1485.791016 120.0
1485.848267 196.0
1485.986084 124.0
1486.122925 104.0
1486.36145 76.0
1486.508057 104.0
1486.584839 116.0
1486.688477 164.0
1486.861084 136.0
1486.999268 128.0
1487.129761 92.0
1487.302979 220.0
1487.452148 148.0
1487.736206 76.0
1487.87439 48.0
1487.978027 128.0
1488.081665 168.0
1488.28894 112.0
1488.342773 132.0
1488.515869 108.0
1488.540894 60.0
1488.5625 156.0
1488.703613 208.0
1488.995483 80.0
1489.617676 144.0
1489.727783 48.0
1490.01709 96.0
1490.132324 44.0
1490.193848 156.0
1490.27063 116.0
1490.327881 140.0
1490.380737 108.0
1490.462769 152.0
1490.547241 168.0
1490.654907 240.0
1490.723999 80.0
1490.823975 92.0
1490.964844 136.0
1491.200562 92.0
1491.323486 204.0
1491.38501 180.0
1491.521729 76.0
1491.692505 100.0
1491.774048 168.0
1491.884644 92.0
1491.976929 116.0
1492.072388 204.0
1492.20752 84.0
1492.261353 100.0
1492.361328 124.0
1492.428101 188.0
1492.730469 80.0
1492.888672 164.0
1493.009888 152.0
1493.191406 132.0
1493.313843 140.0
1493.589722 148.0
1493.661011 144.0
1493.884277 112.0
1494.399536 88.0
1494.499634 180.0
1494.61499 120.0
1494.707397 108.0
1494.922852 140.0
1494.994873 120.0
1495.105469 436.0
1495.253784 336.0
1495.515503 120.0
1495.577026 72.0
1495.783691 136.0
1495.912354 148.0
1496.03894 144.0
1496.146118 132.0
1496.262207 156.0
1496.554688 88.0
1496.689575 196.0
1496.802856 432.0
1497.10144 140.0
1497.155396 120.0
1497.232422 276.0
1497.286255 40.0
1497.394165 152.0
1497.535645 180.0
1497.602051 104.0
1497.656006 248.0
1497.740723 128.0
1497.825439 56.0
1497.993042 144.0
1498.28772 132.0
1498.372437 72.0
1498.522461 112.0
1498.75 136.0
1498.803955 64.0
1498.888672 72.0
1499.011963 100.0
1499.289429 136.0
1499.404663 96.0
1499.744141 28.0
1499.895142 164.0
1500.083252 40.0
1500.183472 372.0
1500.245117 184.0
1500.422485 132.0
1500.597656 160.0
1500.900513 140.0
1500.954468 124.0
1501.039307 84.0
1501.101074 160.0
1501.322998 56.0
1501.468262 148.0
1501.602295 240.0
1501.775757 172.0
1501.849121 52.0
1502.018799 204.0
1502.188477 120.0
1502.257935 172.0
1502.328979 116.0
1502.42395 148.0
1502.566528 116.0
1502.651367 128.0
1502.774902 308.0
1502.967773 96.0
1503.110718 136.0
1503.171875 132.0
1503.209106 156.0
1503.251221 216.0
1503.399902 116.0
1503.46582 108.0
1503.608276 120.0
1503.765137 172.0
1503.971069 124.0
1504.032837 176.0
1504.089722 192.0
1504.210327 176.0
1504.276855 156.0
1504.380127 104.0
1504.449585 132.0
1504.575073 196.0
1504.70105 160.0
1504.766113 84.0
1504.835693 104.0
1505.044189 100.0
1505.118896 136.0
1505.244873 96.0
1505.29895 136.0
