>compound MLS000860055-01!FPL 64176
>formula C22H21NO3
>ionization [M+H]+
>parentmass 348.15941998409056
#inchi InChI=1S/C22H21NO3/c1-14-19(20(15(2)23-14)22(25)26-3)21(24)18-12-8-7-11-17(18)13-16-9-5-4-6-10-16/h4-12,23H,13H2,1-3H3
#inchikey MDMWHKZANMNXTF
#Ion_Source LC-ESI
#Instrument qTof
#Compound_Source NIH Pharmacologically Active Library
#PI Dorrestein
#Data_Collector VP/LMS
#Scan -1
#Precursor_MZ 348.166
#ExactMass 347.152
#Charge 1
#CAS_Number N/A
#Pubmed_ID N/A
#Smiles COC(=O)c1c(C)[nH]c(C)c1C(=O)c2ccccc2Cc3ccccc3
#INCHI_AUX N/A
#Library_Class 1
#SpectrumID CCMSLIB00000086030
#IonMode Positive
#UpdateWorkflowName UPDATE-SINGLE-ANNOTATED-GOLD
#LibraryQualityString Gold
#TaskID d252d724072548979f1f6f1ced849daf
##Scan# 2241
#SpectrumFile p5-B05_GB5_01_18444.mzXML
#LibraryName Pharm_Active_Library.mgf
#MQScore -1
#Organism Pharm_Active_Library
#TIC_Query 0
#RT_Query -1
#MZErrorPPM -1
#SharedPeaks 0
#MassDiff 0
#LibMZ -1
#SpecMZ 348.166
#SpecCharge 0
#internalFilename spec-00000.mgf

>collision 10
45.005852 104.0
45.081989 104.0
45.466331 136.0
45.486462 152.0
45.67189 120.0
45.841522 132.0
46.030373 148.0
46.057381 124.0
46.123589 96.0
46.517765 204.0
46.750175 144.0
46.84412 180.0
46.921795 144.0
46.976345 200.0
47.055496 236.0
47.152481 220.0
47.224941 128.0
47.457741 184.0
47.530434 200.0
47.688362 124.0
47.841042 256.0
47.856186 144.0
48.091911 164.0
48.419579 100.0
48.466679 232.0
48.480534 192.0
48.504097 28.0
48.55563 212.0
48.869328 104.0
49.127064 184.0
49.174503 152.0
49.440037 80.0
49.596897 224.0
49.74839 184.0
49.812984 160.0
50.176056 180.0
50.22118 136.0
50.416008 208.0
50.455585 236.0
50.643784 204.0
50.904728 148.0
51.166344 180.0
51.550022 192.0
51.893547 168.0
51.906452 196.0
51.95665 148.0
52.00544 160.0
52.117451 156.0
52.205132 132.0
52.356236 144.0
52.395123 180.0
52.556599 220.0
52.847015 120.0
53.051373 184.0
53.236931 44.0
53.842747 224.0
54.145473 76.0
54.441708 160.0
54.478428 136.0
54.547493 132.0
54.682812 44.0
54.76968 176.0
54.810928 164.0
55.001171 204.0
55.338223 248.0
55.621368 160.0
56.256981 160.0
56.446728 164.0
57.251053 200.0
57.638729 84.0
57.678024 104.0
57.721867 240.0
57.779339 32.0
57.833817 160.0
58.53215 232.0
58.573269 132.0
58.96386 200.0
59.289082 232.0
59.556789 176.0
59.765858 176.0
60.44323 68.0
60.52372 156.0
60.54385 64.0
60.675552 208.0
61.015095 152.0
61.216259 132.0
61.440701 136.0
61.526531 164.0
62.267166 132.0
62.286015 184.0
62.32843 152.0
62.573792 148.0
62.643082 240.0
62.657261 112.0
62.807014 136.0
62.885902 48.0
62.963264 124.0
63.48867 192.0
63.680702 164.0
64.486885 152.0
64.653206 152.0
64.690018 172.0
64.747658 160.0
64.83577 132.0
64.968857 208.0
65.053902 172.0
65.222565 200.0
65.280441 92.0
65.607285 112.0
65.726639 68.0
66.085327 208.0
66.187302 148.0
66.198631 216.0
66.303932 208.0
66.459602 144.0
66.608955 136.0
66.678825 160.0
67.077591 140.0
67.198265 148.0
67.572403 72.0
67.636223 156.0
68.322144 184.0
68.572426 148.0
68.707634 208.0
68.874359 176.0
69.529999 216.0
69.691071 172.0
69.953827 188.0
70.150391 180.0
70.257118 200.0
70.559395 180.0
70.726677 144.0
71.291862 168.0
71.312035 168.0
71.439827 184.0
71.534058 164.0
71.84581 132.0
72.028122 152.0
72.27063 160.0
72.329102 168.0
72.452713 224.0
72.839485 124.0
72.949936 196.0
73.043457 160.0
73.067276 224.0
73.675888 156.0
73.745949 164.0
74.197853 192.0
74.331635 152.0
74.554871 116.0
74.604713 160.0
74.70961 160.0
74.73542 160.0
74.754349 216.0
75.31292 124.0
75.387207 180.0
75.610298 60.0
76.003654 204.0
76.055717 152.0
76.251976 168.0
76.502449 84.0
76.53727 148.0
76.558167 140.0
76.653969 208.0
77.195107 224.0
77.23008 140.0
77.399834 208.0
77.55925 152.0
77.687256 224.0
77.724098 192.0
78.302452 252.0
78.960739 168.0
79.079277 164.0
79.220932 168.0
79.83326 160.0
80.075287 172.0
80.102005 128.0
80.478294 176.0
80.499725 104.0
80.621193 240.0
80.807152 188.0
80.968254 128.0
81.034531 160.0
81.420189 160.0
81.815758 240.0
81.911201 208.0
82.475967 204.0
82.600731 56.0
82.707489 192.0
82.841484 164.0
82.959274 136.0
83.249565 220.0
83.480354 140.0
83.862663 48.0
84.185577 144.0
84.382912 56.0
85.161713 132.0
85.209473 72.0
85.325256 184.0
85.33812 204.0
85.420876 204.0
85.84079 224.0
85.942238 144.0
86.33754 156.0
86.352333 180.0
86.563301 100.0
86.611458 204.0
86.687416 136.0
86.78936 120.0
87.255379 256.0
87.411613 136.0
87.464607 260.0
87.517708 144.0
87.582886 144.0
87.787895 208.0
88.185539 84.0
88.215446 128.0
88.563477 96.0
88.788383 188.0
88.957245 124.0
89.01545 68.0
89.470451 160.0
89.570251 100.0
89.739861 140.0
89.872726 208.0
90.013451 140.0
90.041771 152.0
90.628181 160.0
90.72863 112.0
90.747589 172.0
90.861382 196.0
90.878456 180.0
90.918304 64.0
90.961212 204.0
90.999924 232.0
91.017014 292.0
91.05584 29488.0
91.136429 124.0
91.19558 128.0
91.214592 80.0
91.227898 80.0
91.278946 108.0
91.328674 68.0
91.362572 88.0
91.389549 32.0
91.44854 32.0
91.564674 80.0
91.581818 60.0
91.677078 68.0
91.82959 92.0
91.89254 40.0
92.035683 152.0
92.058662 3268.0
92.17321 80.0
92.310837 96.0
92.362473 132.0
92.550606 52.0
92.618958 144.0
92.799095 128.0
92.906494 116.0
92.967896 192.0
93.000519 120.0
93.062263 364.0
93.170692 116.0
93.791039 52.0
94.352776 52.0
94.395317 156.0
95.430725 72.0
95.64666 72.0
95.936897 136.0
96.661491 108.0
96.814178 184.0
97.746605 48.0
98.032135 168.0
99.313225 216.0
99.606987 80.0
99.853447 148.0
99.875328 128.0
100.231682 188.0
101.118332 132.0
102.209999 148.0
103.050285 180.0
103.202362 36.0
103.659813 200.0
104.549255 104.0
105.035744 288.0
105.107597 68.0
105.587654 148.0
105.640831 204.0
105.892593 144.0
106.06675 212.0
106.304649 52.0
106.824455 160.0
106.914986 148.0
106.92939 172.0
107.221832 72.0
108.078804 240.0
108.167793 144.0
108.683823 124.0
109.088799 184.0
109.21772 232.0
109.463295 160.0
110.024147 204.0
110.43998 96.0
111.217316 184.0
112.075584 140.0
112.600578 144.0
112.860497 208.0
112.907021 140.0
113.937157 192.0
114.579636 140.0
115.050552 132.0
115.955727 176.0
116.907089 32.0
118.325195 88.0
118.726044 168.0
118.791115 44.0
119.047218 172.0
119.181892 96.0
119.545021 120.0
120.578712 44.0
120.887062 224.0
121.347031 196.0
121.634407 120.0
121.733208 144.0
121.825447 168.0
121.939705 124.0
122.0597 232.0
122.095802 160.0
122.216782 132.0
122.260796 200.0
122.322418 224.0
122.520607 104.0
123.330444 120.0
123.828255 72.0
124.1119 100.0
125.125031 180.0
125.77372 96.0
125.802742 148.0
126.455421 216.0
127.060425 232.0
127.132225 228.0
128.062973 148.0
129.071716 140.0
129.304718 168.0
132.348282 64.0
133.178421 184.0
133.304779 120.0
133.532379 112.0
134.590103 88.0
134.962097 108.0
135.204987 176.0
135.281357 188.0
135.43187 124.0
136.178711 44.0
136.91362 136.0
137.328461 132.0
137.561798 172.0
138.975327 132.0
139.054443 112.0
139.198318 172.0
139.689514 112.0
140.913025 236.0
141.009903 144.0
141.050079 68.0
141.070679 368.0
142.037476 164.0
142.075531 184.0
142.906952 124.0
143.047348 140.0
143.085449 148.0
144.084702 420.0
144.153992 196.0
144.591614 148.0
144.859787 64.0
145.065857 192.0
145.082642 140.0
146.259689 220.0
146.787292 152.0
147.0961 296.0
148.293381 168.0
148.805206 196.0
150.055069 2044.0
150.12645 88.0
150.587692 176.0
151.069214 128.0
151.76474 168.0
151.880005 188.0
152.253052 68.0
153.067001 272.0
153.177841 80.0
154.070129 324.0
154.711334 40.0
154.993668 180.0
155.054138 60.0
155.087845 364.0
155.47226 192.0
155.804962 124.0
156.080841 132.0
156.732986 84.0
157.726242 72.0
158.765259 116.0
158.910736 124.0
159.003586 96.0
160.210495 92.0
160.235687 68.0
161.126251 88.0
162.072495 132.0
164.468079 156.0
165.071945 564.0
166.090286 176.0
166.855515 184.0
167.050964 340.0
167.076889 388.0
167.264542 96.0
167.906082 116.0
168.059921 344.0
168.07074 164.0
168.081863 336.0
168.91597 148.0
169.065018 1944.0
169.15921 48.0
170.06308 164.0
170.484543 172.0
170.918793 116.0
171.069748 232.0
171.252014 84.0
171.614227 76.0
172.005539 112.0
172.073425 232.0
172.303238 76.0
172.572433 144.0
172.682266 148.0
172.988403 176.0
173.239792 224.0
174.042313 132.0
174.081696 180.0
174.452148 148.0
175.534241 184.0
176.905441 276.0
177.069321 492.0
177.949966 140.0
178.003067 160.0
178.058838 144.0
178.081406 192.0
178.234161 132.0
178.686142 72.0
179.052673 200.0
179.089981 368.0
179.144043 164.0
179.234619 44.0
179.92807 60.0
180.066544 904.0
180.123001 196.0
180.408936 80.0
180.550644 184.0
181.066772 320.0
181.093933 108.0
181.324341 236.0
182.095474 296.0
182.352234 68.0
183.040909 96.0
184.070953 616.0
184.746643 40.0
185.95784 116.0
186.770218 112.0
187.453552 40.0
187.884338 136.0
187.979843 52.0
188.22551 80.0
189.420639 200.0
189.609695 80.0
189.95517 128.0
190.353119 84.0
191.085358 192.0
191.1035 200.0
192.219406 168.0
192.42366 132.0
192.821426 40.0
192.84906 148.0
193.064728 1588.0
193.142136 80.0
193.161499 116.0
193.183624 72.0
193.662491 80.0
193.920166 96.0
194.066071 428.0
194.114212 48.0
194.401505 168.0
194.444336 200.0
194.491516 176.0
195.079514 192.0
195.135986 208.0
195.169357 132.0
196.075851 1848.0
196.188324 180.0
196.659729 124.0
197.054886 280.0
197.079742 488.0
197.137299 80.0
198.075974 308.0
198.130569 44.0
198.461273 104.0
199.061737 136.0
200.324554 40.0
200.987076 100.0
201.588516 136.0
202.080078 160.0
202.445648 96.0
203.082123 336.0
203.103165 168.0
203.562927 136.0
204.095306 368.0
204.299042 208.0
204.410004 160.0
205.364365 248.0
206.941772 108.0
207.047516 172.0
207.073013 312.0
207.635208 68.0
208.048386 136.0
208.243652 220.0
208.312576 52.0
208.427505 88.0
208.881729 152.0
209.048599 128.0
209.084763 324.0
209.794571 236.0
210.057404 192.0
210.091583 4136.0
210.209885 76.0
210.252075 72.0
210.501434 64.0
210.689178 144.0
211.062012 60.0
211.09671 1204.0
211.508102 60.0
211.603058 68.0
211.750732 36.0
211.99408 68.0
212.073608 176.0
212.098404 324.0
212.414474 144.0
212.562424 80.0
212.591446 72.0
212.620468 128.0
214.085632 152.0
214.551819 96.0
214.750107 120.0
215.082977 232.0
215.228699 180.0
216.808304 168.0
217.086792 164.0
217.107315 176.0
218.070267 160.0
218.905746 128.0
219.086334 180.0
219.117813 152.0
219.150223 116.0
221.060104 156.0
221.110947 100.0
221.454391 76.0
222.890198 64.0
223.04335 180.0
223.066528 384.0
223.789108 100.0
223.833115 152.0
223.880768 120.0
224.022522 188.0
224.070541 7480.0
224.136948 160.0
224.166733 36.0
224.241241 80.0
224.300858 40.0
224.369415 52.0
224.408173 196.0
224.432022 100.0
224.488678 68.0
224.542358 136.0
224.655701 68.0
224.748184 168.0
224.816818 76.0
224.855606 52.0
224.879486 56.0
225.076019 2068.0
225.133255 32.0
225.545547 40.0
225.796692 152.0
226.076828 320.0
226.362274 140.0
226.494049 84.0
226.556961 152.0
226.664825 56.0
226.694778 112.0
226.721756 32.0
226.874619 152.0
227.083466 188.0
227.303497 60.0
227.519592 132.0
228.094452 440.0
229.104691 232.0
229.414825 124.0
230.066086 140.0
230.094528 416.0
230.785461 60.0
231.066742 380.0
231.215012 76.0
231.24527 104.0
231.829758 76.0
232.086182 148.0
233.46904 160.0
236.709808 164.0
237.083771 260.0
237.660004 160.0
238.086441 4460.0
238.258682 44.0
238.470703 48.0
238.519882 64.0
238.704346 176.0
238.941177 40.0
239.03656 76.0
239.09082 1312.0
239.347443 112.0
240.028412 152.0
240.096161 260.0
240.100189 360.0
240.154846 68.0
240.207291 36.0
240.43869 32.0
240.565231 84.0
240.864761 132.0
240.991425 152.0
241.091476 328.0
241.53241 44.0
242.080215 200.0
243.128006 100.0
244.075439 136.0
244.107971 164.0
245.095535 204.0
245.111633 180.0
246.063232 112.0
246.100708 188.0
247.103958 184.0
247.132126 40.0
248.11734 200.0
251.096405 136.0
252.095627 152.0
252.365814 40.0
252.944748 208.0
253.09671 116.0
254.098831 340.0
255.087296 148.0
255.100266 152.0
256.069031 172.0
256.095886 196.0
257.082581 180.0
257.090302 156.0
257.119019 340.0
258.090302 328.0
260.145813 272.0
260.640411 40.0
261.11618 108.0
262.085114 80.0
266.011261 192.0
268.076508 120.0
269.103973 164.0
269.492615 52.0
270.127075 112.0
270.274078 136.0
271.086121 192.0
271.13913 276.0
271.577881 72.0
272.108917 624.0
272.970337 128.0
273.116028 1408.0
273.924774 40.0
274.086182 140.0
274.118774 996.0
274.920441 92.0
275.03598 96.0
275.1185 160.0
276.986816 160.0
278.848175 100.0
279.942657 188.0
281.857361 64.0
282.09256 340.0
283.100006 1208.0
283.175385 88.0
283.543915 208.0
284.106659 244.0
284.687866 80.0
285.105835 364.0
286.111115 172.0
287.077118 128.0
287.126831 172.0
287.13855 220.0
288.134888 1056.0
289.145355 304.0
289.354462 208.0
289.557617 92.0
292.681763 40.0
293.063232 88.0
296.101379 80.0
296.250732 128.0
297.111176 108.0
298.122498 384.0
298.206543 116.0
299.128326 272.0
300.096985 336.0
300.130859 220.0
301.112091 128.0
301.25943 140.0
302.030243 56.0
303.096527 48.0
303.31485 120.0
306.324036 104.0
310.027527 56.0
310.613037 152.0
312.41156 212.0
314.114288 172.0
314.659973 144.0
315.124847 168.0
315.228607 80.0
315.412384 148.0
315.486633 148.0
316.132355 6168.0
316.218811 160.0
316.243591 68.0
316.342712 52.0
316.448914 48.0
316.544495 92.0
316.579926 132.0
316.661377 48.0
317.027649 112.0
317.138458 784.0
317.494202 56.0
317.572235 68.0
318.146454 244.0
318.69754 124.0
319.141815 172.0
319.177368 148.0
319.433441 116.0
320.587006 104.0
321.278687 168.0
321.699799 72.0
337.185181 112.0
356.11142 152.0
361.892334 56.0
374.105591 80.0
378.216553 188.0
388.484375 28.0
388.880676 80.0
401.266296 96.0
401.904449 60.0
406.004578 64.0
515.275024 32.0
562.986572 68.0
598.902771 92.0
610.84613 36.0
640.404175 92.0
644.904663 92.0
661.932129 140.0
665.788391 72.0
682.910767 180.0
703.387695 128.0
715.601807 264.0
729.54895 152.0
735.862915 64.0
751.439331 208.0
755.952576 136.0
758.976196 192.0
765.267273 160.0
772.889587 176.0
776.035583 220.0
779.965942 156.0
781.545288 80.0
785.974915 156.0
792.656799 60.0
794.686523 180.0
800.368958 228.0
806.70459 188.0
812.62262 164.0
821.223633 56.0
823.483765 152.0
824.860718 216.0
826.353333 192.0
828.717896 152.0
832.658691 68.0
832.922852 164.0
835.135742 180.0
836.672119 148.0
838.872681 204.0
838.97644 40.0
843.479004 132.0
844.681763 160.0
844.924683 164.0
845.323914 144.0
845.451233 72.0
847.837158 212.0
848.96759 160.0
849.170593 192.0
852.520264 132.0
853.3573 156.0
853.741089 116.0
857.641785 192.0
866.758423 164.0
868.446777 184.0
869.496948 140.0
869.6026 68.0
871.364197 188.0
871.951782 48.0
873.168762 164.0
876.312073 236.0
877.484924 40.0
878.487427 224.0
889.007141 148.0
890.443787 172.0
902.403198 108.0
908.271851 184.0
909.753967 68.0
912.800049 244.0
914.195618 216.0
914.677124 148.0
918.352539 52.0
919.716125 176.0
919.957581 176.0
921.642517 172.0
922.162231 164.0
922.54303 140.0
924.242493 188.0
927.221802 132.0
930.254456 240.0
935.768372 128.0
939.058899 184.0
941.268005 152.0
942.685181 164.0
942.996826 124.0
943.88324 160.0
947.978333 212.0
949.910278 176.0
950.5354 72.0
951.713867 132.0
954.626404 44.0
957.186218 160.0
957.629639 56.0
960.088623 136.0
965.448914 176.0
966.655151 160.0
966.933655 208.0
972.505371 156.0
975.636047 180.0
977.029053 248.0
978.360779 192.0
978.84021 176.0
979.649841 192.0
982.51123 116.0
982.823181 192.0
983.802979 152.0
985.08313 192.0
985.620422 144.0
986.364136 184.0
988.85968 176.0
990.149414 172.0
992.336243 192.0
997.0 204.0
998.326416 228.0
1000.106873 36.0
1001.454285 172.0
1002.323608 144.0
1002.493774 208.0
1003.13031 76.0
1004.132812 204.0
1004.814087 148.0
1005.994141 160.0
1008.583984 212.0
1009.171875 180.0
1010.848083 212.0
1014.66095 224.0
1016.690674 156.0
1019.065491 88.0
1020.247559 152.0
1021.971069 44.0
1025.524414 192.0
1025.843262 156.0
1026.391479 36.0
1027.265137 144.0
1028.962646 212.0
1029.377686 244.0
1030.968262 144.0
1035.58728 208.0
1036.30481 148.0
1036.59314 192.0
1040.402832 212.0
1040.576172 160.0
1043.454468 160.0
1044.283936 164.0
1044.348267 152.0
1045.081299 220.0
1046.6521 156.0
1047.238159 220.0
1049.132568 64.0
1050.731812 168.0
1053.301147 208.0
1054.115112 192.0
1054.373657 112.0
1054.871338 168.0
1057.024902 116.0
1058.902222 208.0
1058.960571 56.0
1060.560913 192.0
1061.397217 152.0
1062.045654 196.0
1063.99231 56.0
1064.278076 68.0
1067.305908 172.0
1069.52417 168.0
1070.507324 168.0
1070.891479 188.0
1072.722412 212.0
1072.885376 236.0
1074.861572 204.0
1076.166992 188.0
1077.98938 188.0
1078.969727 192.0
1079.05481 144.0
1079.185547 116.0
1082.718994 220.0
1083.085815 240.0
1085.543457 200.0
1085.602417 220.0
1085.720459 156.0
1086.245117 180.0
1087.734741 156.0
1088.12854 180.0
1089.717896 160.0
1090.710205 172.0
1093.031738 148.0
1093.36731 196.0
1094.894653 136.0
1096.877808 140.0
1097.477783 172.0
1098.012329 228.0
1098.513184 204.0
1099.938477 148.0
1100.651367 156.0
1103.935547 236.0
1104.10083 108.0
1104.147095 40.0
1105.748169 268.0
1105.801025 136.0
1108.966919 168.0
1109.802124 84.0
1110.478516 176.0
1110.670898 60.0
1114.760498 156.0
1117.240479 152.0
1117.872559 196.0
1119.410156 132.0
1120.569092 72.0
1120.955566 176.0
1122.248657 196.0
1122.375366 40.0
1122.795532 112.0
1126.573242 204.0
1127.334961 172.0
1128.083496 144.0
1130.584961 148.0
1131.521973 84.0
1134.905396 136.0
1138.220093 172.0
1139.428955 172.0
1141.660522 48.0
1142.783813 68.0
1144.123169 152.0
1146.453613 228.0
1147.538818 132.0
1149.474609 164.0
1149.562256 152.0
1149.670288 196.0
1149.933472 268.0
1151.14856 136.0
1152.573853 216.0
1152.904907 84.0
1153.073975 128.0
1154.378662 176.0
1154.689697 108.0
1155.386353 168.0
1158.486938 132.0
1159.110229 200.0
1159.882812 232.0
1160.147095 116.0
1161.754272 204.0
1164.679932 80.0
1167.629639 188.0
1168.527466 148.0
1168.901733 148.0
1169.936157 116.0
1173.990234 144.0
1177.060913 100.0
1177.989746 184.0
1178.201538 228.0
1182.543457 172.0
1185.837769 232.0
1186.365601 120.0
1186.584961 64.0
1187.44397 232.0
1187.860474 44.0
1188.141724 168.0
1188.793579 184.0
1191.375122 168.0
1192.268311 136.0
1192.721924 140.0
1194.076416 172.0
1196.691284 132.0
1197.531372 204.0
1198.254639 196.0
1198.668091 188.0
1199.184937 60.0
1206.805786 28.0
1207.919189 232.0
1208.652588 80.0
1208.880859 144.0
1210.133789 184.0
1210.279175 36.0
1211.103271 180.0
1212.371094 112.0
1215.519287 168.0
1216.928223 188.0
1221.466187 164.0
1222.259277 180.0
1224.981445 132.0
1225.476074 184.0
1225.747803 64.0
1226.172852 144.0
1226.25647 236.0
1228.487671 136.0
1230.462646 176.0
1231.531006 196.0
1232.187622 148.0
1233.109985 124.0
1233.578369 204.0
1234.578125 148.0
1235.319458 148.0
1236.341064 184.0
1239.134766 128.0
1241.686279 108.0
1242.794678 168.0
1243.040161 184.0
1243.412109 180.0
1245.223389 144.0
1251.165039 136.0
1254.877808 212.0
1255.061157 184.0
1256.380005 204.0
1256.9021 60.0
1262.206787 128.0
1264.003418 252.0
1264.71106 76.0
1265.114502 208.0
1266.622803 132.0
1266.700684 80.0
1272.409302 204.0
1272.856567 144.0
1273.176147 156.0
1276.530273 204.0
1276.736572 172.0
1278.009766 132.0
1278.173462 160.0
1281.227783 180.0
1281.690918 132.0
1281.762207 212.0
1284.021851 76.0
1285.969604 140.0
1287.404541 136.0
1287.668823 156.0
1288.647461 208.0
1296.188721 144.0
1299.429565 172.0
1299.78833 52.0
1300.534668 96.0
1302.480469 184.0
1303.953369 212.0
1305.290405 148.0
1305.952026 200.0
1306.045532 164.0
1306.721802 188.0
1307.563599 228.0
1307.981079 148.0
1308.074707 164.0
1310.681763 224.0
1314.979614 176.0
1315.643677 200.0
1315.831421 192.0
1316.120239 164.0
1318.800293 164.0
1320.723511 216.0
1323.502441 160.0
1324.212158 184.0
1326.175537 156.0
1327.473267 192.0
1327.763306 144.0
1329.3302 104.0
1332.054199 108.0
1336.08728 172.0
1336.996826 164.0
1338.976929 132.0
1340.652588 220.0
1341.170044 184.0
1341.359497 172.0
1341.476074 72.0
1343.583618 272.0
1345.583252 164.0
1347.146118 280.0
1348.746338 36.0
1348.929077 208.0
1349.733276 84.0
1350.80835 48.0
1352.974365 136.0
1353.691895 144.0
1353.962891 168.0
1354.299805 212.0
1354.629395 48.0
1355.882202 184.0
1357.979004 264.0
1359.512329 88.0
1359.622437 204.0
1362.478638 248.0
1362.61084 144.0
1363.279541 176.0
1363.455933 224.0
1364.69812 160.0
1364.819336 148.0
1365.815918 144.0
1366.610474 192.0
1366.853271 200.0
1372.15625 216.0
1376.826904 168.0
1377.057251 220.0
1379.161621 164.0
1382.785645 180.0
1383.00769 124.0
1383.111328 160.0
1384.94751 236.0
1385.503052 56.0
1392.081909 220.0
1393.8573 156.0
1394.414551 208.0
1394.868042 208.0
1397.396362 44.0
1397.664307 196.0
1398.177734 184.0
1402.609253 148.0
1402.810425 184.0
1404.562744 144.0
1405.092407 184.0
1405.487793 196.0
1405.704224 196.0
1405.860962 188.0
1406.435547 76.0
1406.637085 156.0
1407.652466 184.0
1409.093994 188.0
1409.228516 92.0
1411.754883 64.0
1412.083984 124.0
1412.30835 196.0
1413.842041 64.0
1413.946899 36.0
1416.440063 216.0
1416.702271 140.0
1418.523193 192.0
1421.012939 160.0
1422.145996 168.0
1423.745117 176.0
1425.608154 132.0
1428.18689 188.0
1428.442627 152.0
1431.43042 116.0
1431.69397 160.0
1431.950073 168.0
1434.881226 204.0
1435.341187 100.0
1436.04248 140.0
1438.351318 152.0
1438.600342 180.0
1440.065186 168.0
1440.533447 136.0
1441.598755 132.0
1442.702271 44.0
1442.883667 188.0
1443.594482 212.0
1446.673828 140.0
1447.42334 112.0
1451.044922 120.0
1451.856201 40.0
1452.174805 132.0
1452.607056 32.0
1452.840698 132.0
1453.532715 156.0
1454.86084 120.0
1456.11377 120.0
1460.095947 168.0
1460.91748 184.0
1463.162476 216.0
1466.552124 160.0
1468.305664 160.0
1469.060791 72.0
1469.884766 216.0
1470.724243 152.0
1471.380737 156.0
1471.77771 176.0
1471.968628 140.0
1472.739868 208.0
1473.794189 108.0
1474.72644 180.0
1474.932861 188.0
1480.984985 152.0
1483.429321 144.0
1485.146851 224.0
1485.231201 124.0
1486.090454 144.0
1486.481812 232.0
1487.018921 60.0
1487.164795 184.0
1488.147339 180.0
1488.753906 144.0
1489.283813 144.0
1490.981812 128.0
1491.965576 172.0
1493.51123 148.0
1494.31897 176.0
1494.418945 176.0
1495.373169 188.0
1498.337646 160.0
1498.892456 176.0
1499.262329 208.0
1499.770996 64.0
1499.901978 184.0
1500.472412 176.0
1500.842529 232.0
1501.143188 252.0
1501.652222 176.0
1503.009888 140.0
