>compound Minoxidil
>formula C9H15N5O 
>ionization [M+H]+
>parentmass 210.136841
#inchi InChI=1S/C9H15N5O/c10-7-6-8(12-9(11)14(7)15)13-4-2-1-3-5-13/h6,11,15H,1-5,10H2
#inchikey ZIMGGGWCDYVHOY
#Ion_Source LC-ESI
#Instrument qTof
#Compound_Source Commercial
#PI Dorrestein
#Data_Collector Garg_Neha
#Scan -1
#Precursor_MZ 210.136
#ExactMass 209.128
#Charge 1
#CAS_Number N/A
#Pubmed_ID N/A
#Smiles N/A
#INCHI_AUX N/A
#Library_Class 1
#SpectrumID CCMSLIB00000077123
#IonMode Positive
#UpdateWorkflowName UPDATE-SINGLE-ANNOTATED-GOLD
#LibraryQualityString Gold
#TaskID 48f7f52fc6d249b5abbcc6e7b3df5969
##Scan# 1042
#SpectrumFile NCP003106_G2_H11_BB5_01_15708.mzXML
#LibraryName NIH_Clinical_Collection_2.mgf
#MQScore -1
#Organism NIHcollection2_04212014_2_mgf
#TIC_Query 0
#RT_Query -1
#MZErrorPPM -1
#SharedPeaks 0
#MassDiff 0
#LibMZ -1
#SpecMZ 210.136
#SpecCharge 0
#internalFilename spec-00000.mgf

>collision 10
45.041382 152.0
45.184422 164.0
46.320648 140.0
46.412807 144.0
46.868721 156.0
47.208057 208.0
48.039028 188.0
48.090084 152.0
49.063885 204.0
49.288597 192.0
49.312355 144.0
49.379467 224.0
49.58107 196.0
49.672207 160.0
50.514595 172.0
51.157436 160.0
51.287064 168.0
51.503948 176.0
51.515377 160.0
51.542522 172.0
51.71986 156.0
51.7714 180.0
51.79718 152.0
52.200478 184.0
52.500011 148.0
52.58802 152.0
52.624107 212.0
52.644325 204.0
52.70644 156.0
52.81776 168.0
53.200321 244.0
53.521633 184.0
53.933037 144.0
53.988594 156.0
54.022236 140.0
54.063202 144.0
54.57515 180.0
54.71492 144.0
54.905003 152.0
55.151569 152.0
55.641903 160.0
56.05093 148.0
56.068813 152.0
56.247795 168.0
56.715981 168.0
56.808952 200.0
57.351791 212.0
57.48753 140.0
57.798206 184.0
57.876015 160.0
58.135223 164.0
58.401096 160.0
58.752979 156.0
58.861347 208.0
58.894947 148.0
58.99427 180.0
59.027908 148.0
59.086029 144.0
59.2621 176.0
59.324936 208.0
59.556644 168.0
60.06768 164.0
60.34721 156.0
60.525146 220.0
60.852306 148.0
60.956375 188.0
60.971916 184.0
61.199028 168.0
61.216156 196.0
61.410965 144.0
61.837505 148.0
62.948601 128.0
62.991638 236.0
63.130726 156.0
63.410946 176.0
63.748978 216.0
63.877762 148.0
63.943733 208.0
64.00827 184.0
64.530029 152.0
65.357658 180.0
65.729881 192.0
65.779915 276.0
66.059708 156.0
66.474869 204.0
66.699997 192.0
67.244011 164.0
67.718155 172.0
67.98539 144.0
68.059258 184.0
68.569221 212.0
68.711029 144.0
68.74733 192.0
68.78199 204.0
68.985176 208.0
69.077774 216.0
69.485313 148.0
69.732735 188.0
69.850792 192.0
69.940643 144.0
71.535912 184.0
71.62516 172.0
71.656792 180.0
71.830811 164.0
72.226074 152.0
72.369919 184.0
72.498657 192.0
72.673317 148.0
73.079399 172.0
73.1679 196.0
73.22068 164.0
73.753014 144.0
74.582619 176.0
74.926926 224.0
75.07502 196.0
75.131943 152.0
75.589806 148.0
75.625282 188.0
76.104614 156.0
76.177559 172.0
76.478378 180.0
76.628143 156.0
76.764099 148.0
78.625435 172.0
78.897453 180.0
79.451767 168.0
80.607315 160.0
80.977631 204.0
81.31649 152.0
81.436783 232.0
81.537399 180.0
81.654259 184.0
81.97831 144.0
83.746552 180.0
84.032753 160.0
84.0802 160.0
84.313965 140.0
84.447426 140.0
84.619438 160.0
84.770714 120.0
85.061256 172.0
85.112785 220.0
85.410378 144.0
85.942795 204.0
86.208694 152.0
86.251205 172.0
86.321457 148.0
86.736176 212.0
87.451286 172.0
87.466171 180.0
88.227272 148.0
88.723022 208.0
89.958694 160.0
90.199257 216.0
90.64212 224.0
90.683815 200.0
90.75206 192.0
90.888626 148.0
91.114563 140.0
91.487312 188.0
91.578331 176.0
91.784531 220.0
92.624634 304.0
92.957611 156.0
93.830353 140.0
93.92099 140.0
94.015526 160.0
94.040619 196.0
94.792923 152.0
94.860756 204.0
95.055733 180.0
95.070229 164.0
96.019615 148.0
96.07618 144.0
96.286987 164.0
96.316284 192.0
97.052124 484.0
97.729767 184.0
97.956169 144.0
98.058922 500.0
98.212418 152.0
98.555916 168.0
98.654739 144.0
98.680435 156.0
98.949509 212.0
99.066353 148.0
99.419289 176.0
99.731102 180.0
99.816582 140.0
100.0495 188.0
100.364166 144.0
100.412025 144.0
100.809303 180.0
100.877258 184.0
100.92524 184.0
101.063255 212.0
101.105278 140.0
101.915405 152.0
102.399483 132.0
102.440498 224.0
102.708595 204.0
102.835709 164.0
103.045723 176.0
103.433327 240.0
103.977196 208.0
104.430267 168.0
104.845596 156.0
105.045029 344.0
106.802933 176.0
106.935677 128.0
107.048843 156.0
107.262108 144.0
107.301277 140.0
107.757393 180.0
108.056335 648.0
108.208267 164.0
108.63311 216.0
108.7929 148.0
109.050011 344.0
109.88134 160.0
109.931412 192.0
109.994026 168.0
110.059166 8072.0
110.138107 172.0
110.301384 200.0
110.44558 172.0
110.736298 160.0
110.817993 172.0
111.06675 1448.0
111.518898 172.0
112.097641 148.0
112.530045 176.0
112.68634 148.0
112.961166 188.0
113.024635 172.0
113.044579 348.0
113.304115 164.0
113.774925 156.0
114.338203 144.0
114.636345 144.0
114.990364 160.0
115.054398 148.0
115.101372 148.0
115.717163 148.0
115.864426 252.0
116.231575 236.0
116.607384 188.0
118.036674 148.0
118.233528 164.0
119.061684 164.0
119.82518 172.0
120.019157 200.0
120.059929 828.0
120.490593 204.0
121.372643 160.0
121.802795 320.0
122.071205 2184.0
122.173492 152.0
122.643333 200.0
122.66317 160.0
123.070023 656.0
123.486763 168.0
123.891838 144.0
123.960526 188.0
124.074532 1792.0
124.117905 228.0
124.61731 176.0
125.049629 200.0
125.06926 2228.0
125.300346 252.0
125.523232 152.0
125.688293 148.0
125.976303 224.0
126.054985 1496.0
126.077026 488.0
126.095398 132.0
126.222153 152.0
126.557785 200.0
127.611122 164.0
128.190811 156.0
128.980728 176.0
129.179718 180.0
130.220123 164.0
130.315262 136.0
131.655243 192.0
132.277985 148.0
132.565384 176.0
132.966721 188.0
133.055038 168.0
133.083786 220.0
133.430725 156.0
133.653824 204.0
133.695236 160.0
134.070389 232.0
134.515762 176.0
134.954712 216.0
135.056458 292.0
135.304062 152.0
135.746613 212.0
135.994858 196.0
136.058655 348.0
136.090469 212.0
136.55014 164.0
136.619919 160.0
136.910873 188.0
136.978424 192.0
137.048309 144.0
137.082825 18868.0
137.117752 188.0
138.085739 3140.0
138.523712 168.0
138.993729 144.0
139.035965 148.0
139.086472 912.0
139.912704 160.0
140.117599 180.0
140.367447 160.0
141.10051 528.0
141.120667 184.0
142.001572 208.0
142.047562 348.0
142.262589 152.0
142.478699 220.0
143.049438 152.0
143.673798 204.0
145.015259 148.0
145.051208 196.0
146.069351 144.0
146.44725 236.0
147.067352 3016.0
147.157639 144.0
148.044739 168.0
148.07045 716.0
149.081024 1692.0
149.361526 192.0
149.950745 180.0
150.078644 12920.0
150.191833 136.0
150.218964 196.0
151.027481 164.0
151.086029 2772.0
152.092178 2228.0
152.174347 144.0
152.221878 144.0
152.552689 160.0
153.097794 460.0
153.246704 176.0
153.456207 220.0
153.966995 152.0
154.100037 200.0
154.578659 112.0
154.654312 216.0
154.810287 200.0
154.931656 224.0
155.406647 116.0
155.557068 184.0
156.244949 144.0
156.56604 144.0
158.083862 196.0
159.344757 156.0
160.009048 156.0
160.051849 192.0
160.079544 212.0
160.331467 180.0
161.08316 304.0
161.19957 140.0
161.285492 220.0
161.459946 196.0
161.697769 140.0
162.076782 1520.0
162.341248 224.0
162.394501 156.0
162.47821 148.0
162.671661 124.0
162.87677 208.0
163.084412 984.0
163.344788 164.0
163.42334 184.0
163.459991 128.0
163.58876 152.0
163.612396 140.0
163.737717 180.0
163.782288 152.0
163.814224 112.0
163.855637 216.0
163.895386 136.0
164.01358 196.0
164.037094 208.0
164.05687 224.0
164.093948 97336.0
164.329422 120.0
164.351379 148.0
164.384216 124.0
164.446396 248.0
164.48526 96.0
164.539703 196.0
164.876831 156.0
165.096375 7296.0
165.301331 204.0
165.461716 176.0
165.500992 148.0
165.959641 160.0
166.067337 172.0
166.103745 824.0
166.122238 900.0
166.162247 160.0
166.215958 144.0
166.352737 212.0
166.443695 152.0
167.153458 176.0
167.385712 184.0
168.11264 716.0
168.445709 144.0
169.117996 172.0
169.560883 180.0
169.617905 148.0
170.038422 156.0
170.08078 284.0
170.645935 176.0
170.776978 152.0
171.076553 140.0
171.24704 144.0
173.041962 180.0
173.94809 204.0
174.641785 148.0
174.878586 160.0
175.097 712.0
176.105331 1332.0
176.507523 188.0
177.116516 448.0
177.263351 148.0
177.36824 160.0
177.498795 176.0
178.108887 5876.0
178.867493 272.0
179.043228 180.0
179.108734 388.0
179.998367 172.0
180.39064 140.0
180.767761 160.0
181.108871 644.0
181.179443 192.0
181.418594 144.0
182.139191 972.0
182.352356 156.0
182.597366 180.0
183.321548 280.0
183.914871 160.0
185.513535 176.0
187.586945 104.0
188.182404 152.0
188.679642 148.0
190.049057 156.0
190.746628 188.0
190.914337 292.0
191.117722 128.0
191.150909 176.0
191.511566 172.0
191.763275 188.0
191.853241 156.0
191.913895 168.0
191.982834 180.0
192.125427 40516.0
192.223846 152.0
192.30188 196.0
192.356415 100.0
192.525024 132.0
192.772186 116.0
193.019501 148.0
193.050415 184.0
193.133362 65868.0
193.444077 364.0
193.50708 236.0
193.538986 112.0
193.75795 96.0
193.81694 96.0
194.135559 6252.0
194.175171 248.0
194.233032 184.0
194.578888 148.0
194.629898 156.0
194.92482 144.0
195.134308 180.0
195.181213 192.0
195.348816 124.0
195.382858 144.0
195.482742 120.0
195.601807 156.0
195.760803 152.0
196.573975 140.0
196.66777 132.0
197.963303 140.0
198.101761 312.0
198.363953 152.0
198.720108 176.0
199.118713 160.0
200.4888 140.0
202.330444 220.0
204.72406 144.0
205.442322 152.0
206.876892 184.0
206.994278 164.0
207.048691 148.0
207.292191 140.0
208.01207 180.0
208.090912 116.0
208.923019 180.0
209.000702 188.0
209.07933 232.0
209.12619 704.0
209.152786 104.0
209.312729 188.0
209.52182 144.0
209.655014 144.0
209.785416 128.0
209.866287 208.0
209.900208 228.0
209.924942 112.0
209.989594 312.0
210.030746 200.0
210.080399 160.0
210.136841 152596.0
210.215759 224.0
210.244171 160.0
210.339233 236.0
210.405991 344.0
210.578049 148.0
210.610428 2392.0
210.642136 136.0
210.673019 180.0
210.760315 140.0
210.973434 156.0
211.047104 208.0
211.137985 18024.0
211.197845 144.0
211.361954 100.0
212.139008 1568.0
212.188629 144.0
212.539093 96.0
212.582748 108.0
212.60318 136.0
212.681061 256.0
212.841278 128.0
212.865631 168.0
213.833221 136.0
217.518738 112.0
223.837433 152.0
224.997253 164.0
225.121735 1192.0
226.123322 176.0
439.119019 140.0
692.999268 140.0
1075.872925 160.0
1094.894775 168.0
1111.998291 140.0
1133.317871 144.0
1199.883545 260.0
1299.061401 148.0
1328.690918 188.0
1355.639404 232.0
1365.410645 224.0
1369.716309 156.0
1380.218262 152.0
1435.145996 188.0
1454.171387 228.0
1493.390381 156.0
1507.970215 168.0
1510.668823 180.0
1519.818481 148.0
1525.651245 152.0
1544.93689 152.0
1547.206421 228.0
1560.197998 152.0
1563.332642 160.0
1567.659668 160.0
1577.762695 192.0
1582.287964 208.0
1583.659058 132.0
1590.889526 252.0
1604.03894 156.0
1636.323853 172.0
1645.038696 188.0
1661.872192 220.0
1671.907715 148.0
1675.245972 160.0
1679.337891 180.0
1689.982178 216.0
1701.858765 180.0
1703.706665 168.0
1709.683472 196.0
1725.331421 156.0
1748.640137 180.0
1748.889893 176.0
1751.154541 172.0
1755.988525 188.0
1758.299561 144.0
1759.368042 140.0
1762.566895 180.0
1776.540405 204.0
1780.628052 224.0
1785.822144 164.0
1793.821411 144.0
1799.178223 148.0
1810.144409 172.0
1816.712891 152.0
1819.250366 224.0
1824.109375 144.0
1825.690796 180.0
1827.298462 176.0
1828.557861 248.0
1833.361084 148.0
1840.389893 152.0
1856.099731 212.0
1856.897217 148.0
1860.097656 160.0
1866.781982 180.0
1867.521606 272.0
1870.860229 164.0
1881.861084 164.0
1882.102905 204.0
1884.771973 188.0
1885.592896 176.0
1890.704102 152.0
1894.089355 180.0
1900.730347 144.0
1902.882812 172.0
1904.133301 164.0
1906.39209 140.0
1908.400024 144.0
1911.496582 184.0
1912.375488 268.0
1916.60791 272.0
1924.222168 144.0
1925.130249 220.0
1928.922119 152.0
1933.216431 192.0
1934.678223 140.0
1935.439819 252.0
1935.833862 176.0
1935.973999 184.0
1952.112061 144.0
1954.96228 148.0
1956.575806 168.0
1957.858643 140.0
1963.331299 176.0
1964.733765 176.0
1974.476562 140.0
1974.971924 144.0
1976.679321 144.0
1976.803223 156.0
1977.944946 236.0
1984.784302 232.0
1989.193604 144.0
1990.685181 216.0
1991.040405 200.0
