>compound VALSARTAN
>formula C24H29N5O3
>ionization [M+Na]+
>parentmass 458.21626048809054
#inchi InChI=1S/C24H29N5O3/c1-4-5-10-21(30)29(22(16(2)3)24(31)32)15-17-11-13-18(14-12-17)19-8-6-7-9-20(19)23-25-27-28-26-23/h6-9,11-14,16,22H,4-5,10,15H2,1-3H3,(H,31,32)(H,25,26,27,28)/t22-/m0/s1
#inchikey ACWBQPMHZXGDFX
#Ion_Source LC-ESI
#Instrument qTof
#Compound_Source Commercial
#PI Dorrestein
#Data_Collector Garg_Neha
#Scan -1
#Precursor_MZ 458.216
#ExactMass 435.227
#Charge 1
#CAS_Number N/A
#Pubmed_ID N/A
#Smiles CCCCC(=O)N(Cc1ccc(cc1)c2ccccc2c3nn[nH]n3)[C@@H](C(C)C)C(=O)O
#INCHI_AUX N/A
#Library_Class 1
#SpectrumID CCMSLIB00000079130
#IonMode Positive
#UpdateWorkflowName UPDATE-SINGLE-ANNOTATED-GOLD
#LibraryQualityString Gold
#TaskID 278b19f5865741e282cec7349aa7e7a1
##Scan# 1539
#SpectrumFile NCP003512_E2_F11_BD6_01_15730.mzXML
#LibraryName NIHcollectionI_05062014.mgf
#MQScore -1
#Organism NIHcollectionI_05062014
#TIC_Query 0
#RT_Query -1
#MZErrorPPM -1
#SharedPeaks 0
#MassDiff 0
#LibMZ -1
#SpecMZ 458.216
#SpecCharge 0
#internalFilename spec-00000.mgf

>collision 10
47.970581 176.0
52.834152 168.0
53.247265 180.0
60.347652 140.0
61.187012 188.0
63.619164 176.0
64.407394 156.0
65.378998 156.0
65.493309 140.0
67.211777 164.0
67.396286 164.0
71.416824 196.0
75.74424 180.0
75.884613 172.0
77.889801 156.0
78.498749 152.0
82.686539 176.0
88.854912 212.0
91.721848 212.0
93.170464 176.0
96.265701 196.0
96.289139 204.0
96.644913 152.0
96.811295 184.0
97.038589 164.0
99.353973 140.0
99.520691 172.0
102.217163 168.0
102.245338 144.0
102.597389 184.0
103.912392 184.0
109.560364 152.0
110.447533 152.0
111.548386 180.0
113.210968 148.0
116.977356 152.0
121.585403 168.0
123.091141 184.0
123.654869 140.0
125.057182 332.0
127.008156 144.0
127.091164 152.0
129.04393 164.0
130.040649 188.0
130.854446 196.0
132.057022 208.0
134.566406 156.0
135.123398 140.0
137.299896 188.0
137.6698 188.0
139.056885 208.0
140.039093 272.0
141.309662 172.0
142.364456 156.0
148.268661 188.0
152.06633 284.0
153.067917 220.0
154.06955 140.0
154.196411 160.0
154.896622 172.0
155.630692 148.0
156.018265 144.0
156.578125 160.0
157.101562 148.0
157.366104 160.0
158.779907 152.0
161.591064 144.0
161.71759 140.0
161.983459 184.0
162.016388 152.0
163.070007 192.0
167.072784 172.0
167.41098 204.0
168.716553 144.0
169.117493 156.0
170.154373 144.0
173.647156 108.0
176.067047 228.0
176.196487 156.0
177.069229 140.0
177.551712 184.0
177.641907 160.0
178.077896 3176.0
178.12767 200.0
178.148926 140.0
179.085419 5536.0
179.35701 140.0
179.91452 144.0
180.084793 968.0
180.981262 164.0
181.084518 588.0
183.153854 144.0
183.399048 184.0
188.61879 160.0
188.922318 148.0
190.066177 772.0
190.471115 148.0
191.072662 836.0
191.375885 140.0
192.028976 152.0
192.080231 448.0
193.048035 152.0
193.078186 168.0
194.94693 148.0
195.089905 136.0
196.10466 156.0
196.715515 152.0
197.064606 148.0
197.699341 160.0
198.427612 184.0
198.534149 164.0
201.662003 212.0
203.412476 192.0
205.079727 532.0
205.875259 140.0
206.083267 1240.0
206.775803 156.0
206.864532 180.0
207.092133 24292.0
207.329575 120.0
207.497192 132.0
208.014664 124.0
208.095398 4856.0
208.941132 116.0
209.098129 420.0
209.606033 180.0
211.091019 184.0
212.234772 144.0
212.446487 152.0
213.047409 160.0
213.42981 160.0
214.114883 204.0
217.301071 180.0
218.911819 156.0
219.088837 160.0
219.38913 220.0
220.097198 160.0
220.782761 188.0
223.666626 200.0
224.124649 1052.0
225.125015 264.0
225.157379 172.0
225.255936 156.0
229.073761 1556.0
230.075989 332.0
230.861343 180.0
231.090164 752.0
231.115433 180.0
231.814911 216.0
232.658096 152.0
233.05484 196.0
233.864868 224.0
235.097519 936.0
235.340317 184.0
236.09761 652.0
242.133255 140.0
242.309814 164.0
246.104187 300.0
247.032471 144.0
247.061615 300.0
247.083649 256.0
247.1138 200.0
248.19751 208.0
249.05426 140.0
249.148682 128.0
249.616806 144.0
250.019363 144.0
250.419296 148.0
251.087433 172.0
251.649124 144.0
252.894623 164.0
254.08609 148.0
254.184448 152.0
254.692398 156.0
257.0802 164.0
260.965637 140.0
261.145721 156.0
263.046997 176.0
263.152405 332.0
263.193329 112.0
264.156921 216.0
265.062531 144.0
265.372803 148.0
265.476562 188.0
266.054108 164.0
268.419434 192.0
268.941437 148.0
269.664642 120.0
270.736298 172.0
271.133667 1748.0
271.247437 188.0
272.138672 964.0
272.675171 140.0
273.143585 372.0
274.123169 212.0
274.144836 152.0
275.016907 148.0
275.571686 172.0
278.167664 484.0
278.879944 136.0
279.043091 156.0
279.17807 340.0
279.85022 168.0
279.970123 172.0
280.183289 152.0
281.069 188.0
282.045319 180.0
283.099182 148.0
283.356262 96.0
283.977234 144.0
284.061096 160.0
285.049805 164.0
285.135773 3708.0
286.140503 1160.0
287.136292 112.0
289.314728 168.0
289.487396 188.0
290.147919 148.0
291.146576 132.0
292.156616 328.0
293.154694 140.0
293.316376 164.0
294.066742 184.0
294.753174 160.0
300.08017 188.0
300.14798 22828.0
300.38028 280.0
300.435394 180.0
300.652771 164.0
301.007019 160.0
301.150208 4784.0
301.578339 196.0
302.14624 412.0
303.145844 180.0
303.36792 144.0
305.778473 172.0
306.171051 1660.0
307.175323 464.0
308.175232 124.0
312.834991 152.0
315.147583 612.0
316.10321 240.0
316.137054 136.0
317.139496 216.0
318.153839 1012.0
318.904877 160.0
319.108215 160.0
319.151855 160.0
320.163818 292.0
321.872406 176.0
322.411804 144.0
323.692474 160.0
324.754395 112.0
325.93515 160.0
327.40921 140.0
327.603699 144.0
328.076141 176.0
328.154022 19028.0
328.200256 244.0
328.434906 108.0
328.640656 128.0
329.096771 140.0
329.154877 2332.0
329.582581 140.0
330.115723 172.0
330.157867 1216.0
331.110504 468.0
332.142792 188.0
336.8797 176.0
337.493683 232.0
341.167267 144.0
346.152313 2316.0
347.106354 172.0
347.15744 1028.0
348.153076 164.0
349.116302 436.0
350.126617 236.0
351.114044 120.0
351.463593 148.0
351.601654 156.0
351.862946 160.0
352.171814 252.0
353.132294 228.0
354.171661 164.0
357.086487 176.0
358.165192 364.0
358.905334 160.0
359.172729 120.0
359.2146 144.0
359.422089 176.0
361.90918 148.0
362.228424 160.0
362.628937 168.0
364.135162 264.0
365.130676 160.0
365.431366 152.0
365.90332 144.0
369.180939 164.0
370.01123 152.0
370.731323 152.0
374.022766 156.0
374.157593 1152.0
375.166351 408.0
376.675629 140.0
382.155884 136.0
383.138458 164.0
383.422913 144.0
384.262756 96.0
384.296387 240.0
385.100525 188.0
386.209595 360.0
386.656586 200.0
387.220062 108.0
387.819794 164.0
389.601288 148.0
390.121826 108.0
390.442413 188.0
391.957977 156.0
392.126465 180.0
392.155212 208.0
394.100494 156.0
399.384888 148.0
399.750916 140.0
399.926025 140.0
400.324127 160.0
400.873871 144.0
400.921692 224.0
401.196686 2464.0
401.55957 176.0
401.727081 140.0
402.19696 592.0
403.204285 540.0
403.315521 156.0
405.185089 160.0
408.320038 180.0
409.064392 144.0
410.146667 188.0
411.733551 196.0
412.113251 172.0
412.141541 176.0
412.200317 396.0
413.175629 276.0
413.655579 160.0
414.407318 148.0
415.019348 164.0
415.198761 2184.0
415.676453 220.0
415.704865 216.0
416.195953 520.0
417.385193 104.0
418.22403 452.0
419.230591 400.0
420.225891 336.0
420.625397 192.0
421.225647 228.0
421.299164 184.0
425.722687 140.0
425.995728 116.0
427.753723 148.0
429.11319 144.0
430.019012 216.0
430.210541 24236.0
430.44278 164.0
430.82843 188.0
430.912659 200.0
430.949005 100.0
431.166473 364.0
431.212769 7016.0
431.357208 112.0
432.03302 176.0
432.099213 152.0
432.129456 168.0
432.217224 520.0
432.696564 176.0
433.172699 152.0
433.212433 220.0
433.327484 160.0
433.606445 140.0
433.719025 200.0
433.910217 100.0
434.894745 128.0
435.112183 148.0
437.109558 120.0
437.232056 164.0
440.213623 116.0
441.203766 124.0
441.282379 152.0
446.700653 144.0
448.578735 172.0
449.013031 200.0
449.17804 96.0
449.380005 160.0
450.1745 128.0
451.208893 100.0
451.512024 160.0
451.827087 132.0
452.039124 132.0
452.191895 112.0
452.876648 128.0
453.006042 136.0
453.326935 120.0
453.549652 148.0
453.681854 132.0
453.873199 112.0
454.209473 112.0
454.585571 164.0
454.988586 132.0
455.172607 192.0
455.210876 160.0
455.311523 128.0
455.708252 140.0
456.220428 100.0
456.409973 144.0
456.433746 184.0
456.724792 184.0
456.815582 124.0
456.915314 140.0
457.212891 316.0
457.401031 168.0
457.447937 136.0
457.500153 292.0
457.551239 96.0
457.593811 184.0
457.755127 168.0
457.80542 160.0
457.884033 232.0
457.921692 260.0
458.011047 188.0
458.043762 256.0
458.111511 156.0
458.218567 150852.0
458.363159 528.0
458.465729 160.0
458.546692 208.0
458.572571 332.0
458.622101 284.0
458.701691 204.0
458.754944 168.0
458.856995 244.0
458.919189 1112.0
458.995819 380.0
459.059387 204.0
459.220795 60764.0
459.480133 172.0
459.528107 136.0
459.562408 248.0
459.615082 328.0
459.682648 172.0
459.865021 152.0
460.037781 204.0
460.104401 164.0
460.222076 7228.0
460.31488 140.0
460.510925 96.0
460.541626 212.0
460.729492 96.0
461.223572 1604.0
461.29306 100.0
461.328827 128.0
461.400452 124.0
461.559631 152.0
461.58667 308.0
461.664886 168.0
461.705811 180.0
461.789948 192.0
461.983673 152.0
462.114838 112.0
462.144409 220.0
462.193512 116.0
462.291626 160.0
462.335052 156.0
462.596313 96.0
462.668976 136.0
462.810608 132.0
462.871429 108.0
463.033478 116.0
463.304413 136.0
463.930634 160.0
464.123474 108.0
464.19165 128.0
464.538391 200.0
468.187439 152.0
474.179993 1308.0
474.313965 208.0
475.179657 200.0
476.173248 128.0
477.479126 212.0
478.1745 104.0
478.206421 220.0
479.20697 128.0
480.179321 140.0
488.14679 104.0
492.193298 1340.0
493.197174 668.0
494.197571 360.0
496.183624 132.0
497.199005 120.0
499.191559 176.0
500.259369 160.0
501.167877 204.0
511.205658 188.0
518.264771 144.0
576.254822 216.0
597.674866 96.0
608.710938 160.0
638.285828 156.0
675.308044 188.0
676.322144 140.0
695.530029 168.0
809.428223 156.0
829.304993 160.0
1408.941528 152.0
1475.175171 240.0
1699.52124 228.0
1716.910889 208.0
1809.730347 188.0
1921.036621 164.0
1924.064819 160.0
