>compound EFAVIRENZ
>formula C14H9ClF3NO2
>ionization [M+H]+
>parentmass 316.033569
#inchi InChI=1S/C14H9ClF3NO2/c15-9-3-4-11-10(7-9)13(14(16,17)18,21-12(20)19-11)6-5-8-1-2-8/h3-4,7-8H,1-2H2,(H,19,20)/t13-/m0/s1
#inchikey XPOQHMRABVBWPR
#Ion_Source LC-ESI
#Instrument qTof
#Compound_Source Commercial
#PI Dorrestein
#Data_Collector Garg_Neha
#Scan -1
#Precursor_MZ 316.035
#ExactMass 315.027
#Charge 1
#CAS_Number N/A
#Pubmed_ID N/A
#Smiles FC(F)(F)[C@]1(OC(=O)Nc2ccc(Cl)cc21)C#CC3CC3
#INCHI_AUX N/A
#Library_Class 1
#SpectrumID CCMSLIB00000079120
#IonMode Positive
#UpdateWorkflowName UPDATE-SINGLE-ANNOTATED-GOLD
#LibraryQualityString Gold
#TaskID 278b19f5865741e282cec7349aa7e7a1
##Scan# 2177
#SpectrumFile NCP003512_E2_F11_BD6_01_15730.mzXML
#LibraryName NIHcollectionI_05062014.mgf
#MQScore -1
#Organism NIHcollectionI_05062014
#TIC_Query 0
#RT_Query -1
#MZErrorPPM -1
#SharedPeaks 0
#MassDiff 0
#LibMZ -1
#SpecMZ 316.035
#SpecCharge 0
#internalFilename spec-00000.mgf

>collision 10
51.082592 148.0
51.123852 144.0
52.792294 164.0
53.882458 156.0
54.696346 144.0
55.016232 248.0
55.840096 176.0
58.747429 152.0
60.603138 172.0
63.049053 184.0
66.252632 188.0
72.067657 156.0
76.397064 180.0
81.098122 220.0
83.874527 148.0
85.416321 152.0
91.280312 248.0
91.426788 172.0
91.529579 168.0
96.500336 152.0
106.326553 208.0
108.691475 200.0
109.656395 176.0
112.933907 140.0
114.219284 192.0
114.903099 160.0
114.939369 148.0
116.779594 148.0
117.740822 148.0
122.348328 160.0
123.234924 232.0
127.174408 192.0
127.273186 156.0
129.752777 180.0
133.727539 160.0
139.040375 176.0
139.143967 172.0
141.066971 168.0
143.037537 168.0
145.041611 156.0
145.067978 144.0
146.415924 140.0
149.682724 156.0
151.019226 756.0
152.027008 172.0
154.059708 192.0
162.007828 140.0
162.993469 180.0
163.03038 156.0
164.02504 528.0
165.058151 204.0
166.02478 116.0
166.065475 896.0
167.072495 2816.0
167.158981 140.0
168.048187 184.0
168.081055 10172.0
168.530746 152.0
169.086151 1236.0
170.053192 324.0
170.083023 168.0
172.056686 176.0
173.014603 132.0
174.014404 168.0
174.991501 148.0
175.016647 232.0
175.042847 128.0
176.003967 168.0
177.056305 240.0
179.045578 140.0
182.016571 492.0
183.067978 168.0
183.990112 168.0
185.01741 140.0
185.047043 336.0
185.992935 252.0
186.045135 156.0
187.98793 152.0
188.0271 1760.0
188.056442 140.0
189.012558 152.0
189.036774 788.0
190.025558 600.0
191.58551 164.0
191.999451 316.0
192.026535 160.0
194.043686 272.0
194.061508 320.0
195.047226 304.0
196.055954 276.0
196.991913 144.0
197.064285 408.0
198.060638 204.0
198.994659 276.0
199.036789 164.0
199.238998 160.0
200.013535 156.0
200.990234 144.0
201.034424 1856.0
201.07489 160.0
201.532349 156.0
201.656006 216.0
201.823471 144.0
202.007751 196.0
202.043091 1632.0
202.352554 160.0
202.76329 144.0
203.049591 2852.0
203.086502 192.0
204.00322 276.0
204.048615 820.0
205.045975 660.0
205.672897 144.0
205.999969 176.0
206.04541 240.0
207.031815 156.0
207.784775 148.0
208.035309 348.0
209.046692 612.0
209.986725 132.0
210.011108 140.0
212.006851 1172.0
212.033707 316.0
212.980942 148.0
213.016968 320.0
213.893967 156.0
214.001343 336.0
214.036621 140.0
214.290024 148.0
215.008881 180.0
215.056458 608.0
215.731705 296.0
216.011963 180.0
216.035583 232.0
216.062927 1104.0
216.363586 176.0
217.00705 192.0
217.068527 776.0
218.034546 288.0
218.072281 176.0
219.022797 356.0
220.012146 1888.0
220.307266 152.0
221.017502 140.0
221.943924 160.0
222.009659 660.0
222.054047 2936.0
223.057983 900.0
224.008392 6096.0
224.05722 280.0
224.930832 200.0
225.00972 572.0
225.046524 344.0
225.190598 248.0
225.866104 176.0
226.00386 1036.0
226.323975 144.0
226.380875 140.0
226.590546 140.0
227.00145 160.0
227.0448 156.0
228.023575 144.0
229.028503 876.0
230.006378 180.0
230.037933 140.0
230.964569 148.0
231.028091 272.0
231.975922 160.0
232.015686 4088.0
233.023773 288.0
234.017197 1088.0
234.468292 148.0
235.015488 440.0
235.059113 1072.0
236.07048 948.0
237.017731 980.0
237.076721 4564.0
238.019073 340.0
238.076736 604.0
239.013641 216.0
239.083893 188.0
240.018204 128.0
241.412598 152.0
242.840286 156.0
243.006073 180.0
243.051239 144.0
243.159851 152.0
243.979889 144.0
244.014725 10916.0
245.016403 808.0
246.011826 2780.0
246.907761 140.0
246.954681 148.0
247.009369 132.0
247.040543 144.0
248.022064 124.0
248.040466 264.0
250.022629 1752.0
250.983795 144.0
251.031662 268.0
252.038055 2400.0
253.01532 144.0
253.041931 536.0
254.037994 664.0
255.57341 156.0
256.014252 144.0
257.018097 208.0
258.00885 144.0
258.038849 220.0
259.018097 220.0
260.003662 232.0
263.063629 228.0
264.065002 136.0
269.013947 152.0
270.030914 1068.0
271.031586 236.0
271.847229 176.0
272.046051 5760.0
272.287964 152.0
273.043793 880.0
273.89151 160.0
273.988525 188.0
274.04245 1316.0
274.974457 144.0
275.041412 192.0
276.028381 112.0
277.017853 152.0
277.700684 140.0
278.019073 1392.0
278.989014 172.0
279.029327 256.0
279.5112 216.0
280.016327 520.0
281.019196 164.0
282.015717 152.0
283.568695 172.0
287.034637 168.0
288.052643 232.0
296.035156 440.0
298.023071 1232.0
299.064362 300.0
300.026184 232.0
300.977753 156.0
314.058228 156.0
316.033569 2420.0
316.316101 148.0
317.034424 440.0
317.091766 208.0
317.173309 148.0
318.034546 488.0
319.093811 160.0
319.122253 240.0
319.179138 292.0
319.225372 152.0
1535.085815 148.0
1664.24707 140.0
1666.423828 152.0
1789.789917 164.0
1839.360596 212.0
1917.682739 196.0
