>compound Repaglinide
>formula C27H36N2O4
>ionization [M+H]+
>parentmass 453.276703
#inchi InChI=1S/C27H36N2O4/c1-4-33-25-17-20(12-13-22(25)27(31)32)18-26(30)28-23(16-19(2)3)21-10-6-7-11-24(21)29-14-8-5-9-15-29/h6-7,10-13,17,19,23H,4-5,8-9,14-16,18H2,1-3H3,(H,28,30)(H,31,32)/t23-/m0/s1
#inchikey FAEKWTJYAYMJKF
#Ion_Source LC-ESI
#Instrument qTof
#Compound_Source Commercial
#PI Dorrestein
#Data_Collector Garg_Neha
#Scan -1
#Precursor_MZ 453.275
#ExactMass 452.268
#Charge 1
#CAS_Number 135062-02-1, 847829-40-7 (sodium salt), 172041-25-7 (calcium salt)
#Pubmed_ID N/A
#Smiles C1(=C(C=CC(=C1)CC(N[C@H](C2=CC=CC=C2N3CCCCC3)CC(C)C)=O)C(O)=O)OCC
#INCHI_AUX N/A
#Library_Class 1
#SpectrumID CCMSLIB00000078141
#IonMode Positive
#UpdateWorkflowName UPDATE-SINGLE-ANNOTATED-GOLD
#LibraryQualityString Gold
#TaskID 77f51c88eb8b467eb4a01dd2d0cb90d2
##Scan# 1301
#SpectrumFile Plate2_61_88_GG8_01_16496.mzXML
#LibraryName FDALibrary_2_04302014.mgf
#MQScore -1
#Organism FDALibrary_2_04302014
#TIC_Query 0
#RT_Query -1
#MZErrorPPM -1
#SharedPeaks 0
#MassDiff 0
#LibMZ -1
#SpecMZ 453.275
#SpecCharge 0
#internalFilename spec-00000.mgf

>collision 10
44.888409 176.0
44.898048 160.0
44.924133 180.0
45.032845 164.0
45.14912 280.0
45.173199 144.0
45.189854 204.0
45.203648 168.0
45.259998 196.0
45.292084 152.0
45.336544 192.0
45.38369 140.0
45.430744 188.0
45.444145 132.0
45.466629 188.0
45.488842 180.0
45.504215 152.0
45.577984 204.0
45.623787 364.0
45.656258 188.0
45.694729 144.0
45.761585 104.0
45.877926 212.0
45.893696 152.0
45.942959 196.0
45.953854 156.0
45.983856 180.0
45.995586 168.0
46.128437 112.0
46.148243 168.0
46.159061 208.0
46.16988 268.0
46.21244 116.0
46.244194 112.0
46.306572 212.0
46.33176 208.0
46.438763 240.0
46.453857 280.0
46.465622 264.0
46.50045 144.0
46.528648 136.0
46.534142 176.0
46.549896 132.0
46.599049 248.0
46.775013 148.0
46.797436 172.0
46.843102 176.0
46.879887 144.0
46.923504 220.0
46.938503 160.0
46.994427 196.0
47.013718 148.0
47.034782 112.0
47.050743 184.0
47.085766 136.0
47.124138 200.0
47.13868 112.0
47.175068 120.0
47.267708 360.0
47.312874 160.0
47.335377 140.0
47.348476 236.0
47.384037 208.0
47.459732 128.0
47.513763 188.0
47.548637 156.0
47.558247 156.0
47.58403 128.0
47.711422 276.0
47.736782 168.0
47.773411 340.0
47.834534 184.0
47.854324 160.0
47.888077 104.0
47.915783 192.0
47.970127 152.0
47.995728 156.0
48.026066 180.0
48.103336 172.0
48.121284 176.0
48.153046 152.0
48.188961 268.0
48.20953 140.0
48.237331 148.0
48.25679 160.0
48.299301 196.0
48.314461 176.0
48.324459 192.0
48.360439 164.0
48.384132 172.0
48.400585 168.0
48.426693 164.0
48.441345 204.0
48.48735 164.0
48.552616 216.0
48.581886 148.0
48.640591 208.0
48.659866 172.0
48.669849 168.0
48.732723 236.0
48.769608 168.0
48.790459 160.0
48.814098 152.0
48.951862 164.0
48.984955 168.0
49.107437 152.0
49.131664 192.0
49.178848 108.0
49.204922 120.0
49.223782 208.0
49.234863 300.0
49.272057 204.0
49.304806 172.0
49.364922 144.0
49.37471 296.0
49.419472 228.0
49.458656 168.0
49.483398 196.0
49.499256 204.0
49.574902 172.0
49.613083 180.0
49.645393 312.0
49.657619 160.0
49.695496 188.0
49.725071 132.0
49.749954 184.0
49.799377 204.0
49.829597 132.0
49.874775 252.0
49.901958 160.0
49.949776 168.0
49.966373 200.0
50.070965 156.0
50.104626 212.0
50.131615 156.0
50.202835 140.0
50.237144 140.0
50.302937 348.0
50.319 140.0
50.344852 168.0
50.359951 160.0
50.393856 360.0
50.426895 168.0
50.450386 144.0
50.533226 216.0
50.561577 184.0
50.606014 164.0
50.646282 156.0
50.659832 148.0
50.742027 164.0
50.773224 356.0
50.861767 148.0
50.875385 196.0
50.913822 172.0
51.018871 160.0
51.041927 148.0
51.085709 152.0
51.107475 120.0
51.120567 152.0
51.162685 132.0
51.221321 164.0
51.301369 112.0
51.335434 288.0
51.459099 160.0
51.496941 184.0
51.557041 120.0
51.591965 148.0
51.610554 220.0
51.624851 148.0
51.636295 164.0
51.657749 208.0
51.670433 120.0
51.731884 144.0
51.752205 180.0
51.862282 148.0
51.88908 136.0
51.901222 152.0
51.912693 212.0
52.010513 132.0
52.142471 288.0
52.156765 164.0
52.188271 144.0
52.257431 164.0
52.339436 156.0
52.363289 172.0
52.384121 164.0
52.413502 132.0
52.447525 180.0
52.521061 160.0
52.557659 184.0
52.647133 148.0
52.676956 172.0
52.717304 188.0
52.765594 132.0
52.78688 216.0
52.822826 176.0
52.867809 144.0
52.877941 140.0
52.893753 160.0
52.972057 144.0
52.983646 172.0
53.077572 164.0
53.114113 152.0
53.217117 164.0
53.262981 156.0
53.292679 184.0
53.340637 152.0
53.36256 152.0
53.410168 152.0
53.43306 152.0
53.4599 240.0
53.48901 164.0
53.509106 164.0
53.529778 144.0
53.566185 156.0
53.629978 216.0
53.660915 180.0
53.685703 164.0
53.702251 184.0
53.726543 256.0
53.74551 200.0
53.763523 168.0
53.833862 164.0
53.896507 252.0
53.951511 192.0
53.984196 216.0
54.005768 188.0
54.01725 172.0
54.037731 204.0
54.165348 184.0
54.184139 164.0
54.222958 116.0
54.273544 148.0
54.305809 140.0
54.350845 120.0
54.402454 152.0
54.425205 128.0
54.501057 168.0
54.567238 144.0
54.57896 272.0
54.592758 188.0
54.68261 192.0
54.724091 132.0
54.759628 164.0
54.78059 208.0
54.795322 176.0
54.831158 188.0
54.852448 152.0
54.901451 148.0
54.935375 280.0
55.028351 156.0
55.069698 196.0
55.093334 152.0
55.130966 128.0
55.159832 184.0
55.316566 172.0
55.327667 300.0
55.342522 160.0
55.372898 148.0
55.390305 192.0
55.402287 100.0
55.418823 168.0
55.439568 148.0
55.499424 148.0
55.607155 156.0
55.640991 156.0
55.686485 176.0
55.756645 348.0
55.76828 132.0
55.824055 148.0
55.840664 96.0
55.858078 116.0
55.887909 164.0
55.911346 236.0
56.02499 184.0
56.087578 236.0
56.157658 148.0
56.202412 184.0
56.274055 160.0
56.318855 192.0
56.342953 132.0
56.38525 164.0
56.424057 160.0
56.549114 144.0
56.697418 176.0
56.710873 188.0
56.72279 160.0
56.737549 176.0
56.758167 160.0
56.777592 136.0
56.863598 132.0
56.952442 152.0
57.0145 192.0
57.062973 188.0
57.08181 100.0
57.120792 160.0
57.142723 208.0
57.203285 132.0
57.292408 144.0
57.308979 180.0
57.347309 120.0
57.384342 200.0
57.434574 180.0
57.452377 144.0
57.489361 212.0
57.506531 172.0
57.530682 148.0
57.5639 200.0
57.583759 160.0
57.612827 208.0
57.652004 148.0
57.741619 220.0
57.78912 188.0
57.825039 176.0
57.848141 156.0
57.864796 208.0
57.956417 284.0
57.970825 152.0
58.061783 180.0
58.101757 136.0
58.131569 156.0
58.199875 236.0
58.217102 220.0
58.235928 148.0
58.283417 216.0
58.30621 168.0
58.342224 156.0
58.429203 176.0
58.455246 248.0
58.495232 164.0
58.538967 156.0
58.554199 208.0
58.65575 160.0
58.670002 176.0
58.710251 304.0
58.754326 164.0
58.775833 164.0
58.810223 104.0
58.823135 136.0
58.901184 292.0
59.004345 148.0
59.03722 184.0
59.177288 288.0
59.243393 220.0
59.278328 160.0
59.30344 176.0
59.326019 204.0
59.35973 484.0
59.440678 220.0
59.491837 136.0
59.571377 152.0
59.582718 160.0
59.649746 200.0
59.692795 144.0
59.70356 176.0
59.758457 372.0
59.787487 108.0
59.815273 184.0
59.833313 160.0
59.934246 312.0
59.996113 160.0
60.036613 164.0
60.117691 196.0
60.144741 184.0
60.1647 244.0
60.203854 112.0
60.250755 168.0
60.303383 156.0
60.384075 208.0
60.40844 164.0
60.428257 252.0
60.493622 172.0
60.513149 200.0
60.57373 144.0
60.589169 156.0
60.699493 156.0
60.715118 172.0
60.752392 136.0
60.770962 248.0
60.794239 220.0
60.814102 180.0
60.841469 112.0
60.932549 216.0
60.961956 164.0
61.004612 144.0
61.064713 124.0
61.090237 168.0
61.114414 176.0
61.142353 228.0
61.176155 184.0
61.189049 184.0
61.206177 176.0
61.254459 164.0
61.277927 124.0
61.351074 188.0
61.420734 188.0
61.43605 212.0
61.476223 188.0
61.546097 188.0
61.579697 148.0
61.620228 200.0
61.634228 152.0
61.662796 268.0
61.713654 224.0
61.735176 364.0
61.993031 168.0
62.012283 140.0
62.08754 152.0
62.112633 212.0
62.142311 192.0
62.16441 284.0
62.178482 128.0
62.206699 160.0
62.222485 144.0
62.284561 196.0
62.305721 168.0
62.329899 176.0
62.383392 292.0
62.41045 164.0
62.514843 188.0
62.540028 212.0
62.596703 168.0
62.612854 156.0
62.643658 128.0
62.657475 208.0
62.673695 164.0
62.702141 172.0
62.71492 108.0
62.734707 344.0
62.752693 184.0
62.789017 116.0
62.870998 168.0
62.888359 168.0
62.966694 172.0
63.119015 164.0
63.139572 140.0
63.186897 200.0
63.243996 188.0
63.266106 124.0
63.285152 176.0
63.30159 200.0
63.372086 176.0
63.429768 212.0
63.447628 124.0
63.46233 180.0
63.489571 208.0
63.514946 280.0
63.581318 192.0
63.629204 240.0
63.644012 172.0
63.685661 116.0
63.707531 200.0
63.724499 188.0
63.814705 164.0
63.835766 164.0
63.888252 160.0
63.900978 148.0
63.947128 188.0
64.051613 212.0
64.077278 164.0
64.099396 228.0
64.17057 104.0
64.237839 196.0
64.32489 196.0
64.390205 172.0
64.467041 196.0
64.500603 160.0
64.534172 144.0
64.553711 164.0
64.569756 208.0
64.612541 168.0
64.62632 196.0
64.650375 196.0
64.721382 232.0
64.758217 168.0
64.774231 140.0
64.810188 120.0
64.833511 232.0
64.863274 296.0
64.926498 168.0
64.958572 220.0
65.025963 220.0
65.054855 140.0
65.098625 156.0
65.138634 120.0
65.164284 120.0
65.19854 172.0
65.238884 108.0
65.413338 168.0
65.49868 140.0
65.551445 192.0
65.574409 188.0
65.58989 152.0
65.616432 176.0
65.652084 128.0
65.665749 172.0
65.745361 252.0
65.77285 144.0
65.79863 164.0
65.862007 148.0
65.876152 188.0
65.895538 160.0
65.916542 156.0
66.032829 176.0
66.073746 212.0
66.097649 204.0
66.113045 152.0
66.146202 180.0
66.183434 204.0
66.217445 144.0
66.280624 168.0
66.312088 192.0
66.386955 128.0
66.499779 176.0
66.555313 172.0
66.585045 136.0
66.602852 232.0
66.650581 208.0
66.713966 192.0
66.782829 208.0
66.825188 160.0
66.849358 200.0
66.866135 132.0
66.893723 176.0
66.945015 176.0
66.956413 184.0
66.995506 144.0
67.012741 160.0
67.060684 188.0
67.119377 188.0
67.150986 140.0
67.166359 148.0
67.22686 184.0
67.259323 164.0
67.340858 172.0
67.377258 152.0
67.405144 172.0
67.431473 296.0
67.473679 160.0
67.51619 172.0
67.568535 300.0
67.584747 220.0
67.622086 116.0
67.721741 160.0
67.749565 180.0
67.822357 176.0
67.853508 156.0
67.873184 188.0
67.938866 164.0
67.968323 196.0
68.041878 196.0
68.121414 396.0
68.162079 140.0
68.270576 140.0
68.292175 152.0
68.369286 172.0
68.401245 128.0
68.442139 156.0
68.478958 180.0
68.510193 104.0
68.542191 144.0
68.580093 152.0
68.650986 140.0
68.733467 180.0
68.812698 228.0
68.825905 140.0
68.918663 228.0
68.96302 144.0
69.010963 192.0
69.034111 252.0
69.058205 204.0
69.077217 188.0
69.133209 116.0
69.161507 172.0
69.193199 132.0
69.283371 168.0
69.354843 172.0
69.44545 344.0
69.468422 128.0
69.494293 108.0
69.539925 180.0
69.623711 108.0
69.652313 192.0
69.66893 144.0
69.698837 156.0
69.75972 132.0
69.855949 140.0
69.87175 144.0
69.948303 148.0
70.000412 252.0
70.0149 156.0
70.073479 144.0
70.175056 160.0
70.223228 184.0
70.31897 168.0
70.336151 220.0
70.396278 244.0
70.41684 184.0
70.510399 224.0
70.532265 192.0
70.622421 168.0
70.659218 172.0
70.670555 164.0
70.70105 260.0
70.714439 144.0
70.790634 148.0
70.803078 172.0
70.880234 164.0
70.894516 160.0
70.93335 200.0
70.948952 176.0
71.003677 140.0
71.047897 192.0
71.07196 164.0
71.098877 188.0
71.158669 184.0
71.177238 192.0
71.232559 148.0
71.247681 168.0
71.267838 172.0
71.300308 136.0
71.363472 196.0
71.402786 232.0
71.453377 148.0
71.468948 136.0
71.579224 136.0
71.602379 156.0
71.688515 144.0
71.753471 156.0
71.764893 128.0
71.813271 140.0
71.838013 204.0
71.851677 196.0
71.867256 216.0
71.924637 144.0
72.000992 180.0
72.041847 176.0
72.056358 180.0
72.078323 188.0
72.122391 160.0
72.155281 180.0
72.187141 176.0
72.222023 148.0
72.242577 184.0
72.273018 332.0
72.301544 144.0
72.313385 152.0
72.352417 140.0
72.390579 148.0
72.457321 168.0
72.518326 184.0
72.539467 144.0
72.553078 248.0
72.613274 168.0
72.660767 152.0
72.73204 188.0
72.87999 160.0
72.988579 140.0
73.044701 208.0
73.078323 136.0
73.145096 164.0
73.225121 144.0
73.290154 156.0
73.326492 152.0
73.34687 220.0
73.416 172.0
73.442474 160.0
73.470581 216.0
73.513237 168.0
73.532135 160.0
73.664024 164.0
73.721581 224.0
73.789948 156.0
73.837547 132.0
73.857552 128.0
73.885727 236.0
73.928497 168.0
73.959114 180.0
74.034637 184.0
74.056465 172.0
74.084427 176.0
74.123306 132.0
74.173409 508.0
74.28109 132.0
74.496544 172.0
74.538979 152.0
74.595856 132.0
74.622841 156.0
74.646149 232.0
74.702316 140.0
74.773758 100.0
74.815895 172.0
74.911697 196.0
74.949409 284.0
75.015678 140.0
75.026169 144.0
75.041588 140.0
75.07869 132.0
75.092087 196.0
75.132996 148.0
75.17746 140.0
75.199394 324.0
75.397179 260.0
75.467476 156.0
75.493988 140.0
75.511848 148.0
75.761658 168.0
75.86972 172.0
75.890984 184.0
75.938637 108.0
76.00238 164.0
76.03286 164.0
76.053596 168.0
76.125793 172.0
76.249863 176.0
76.280533 304.0
76.29332 156.0
76.484924 192.0
76.563759 152.0
76.626694 144.0
76.716347 164.0
76.75296 192.0
76.816681 124.0
76.845406 376.0
76.920448 204.0
76.932671 192.0
76.967583 152.0
76.979134 236.0
77.058411 176.0
77.108192 140.0
77.121902 120.0
77.135307 140.0
77.174088 180.0
77.21376 184.0
77.330841 96.0
77.393356 112.0
77.418747 160.0
77.480606 140.0
77.516846 368.0
77.549767 204.0
77.571564 164.0
77.606239 156.0
77.67099 204.0
77.688675 156.0
77.706322 200.0
77.723297 196.0
77.771149 180.0
77.832588 176.0
77.869469 156.0
77.974884 280.0
77.991829 200.0
78.043442 140.0
78.08503 228.0
78.147217 156.0
78.17009 156.0
78.202522 112.0
78.233452 148.0
78.315155 212.0
78.34285 132.0
78.360085 168.0
78.376114 252.0
78.507629 132.0
78.607834 264.0
78.658371 176.0
78.685555 104.0
78.718323 176.0
78.744659 140.0
78.78463 280.0
78.896576 140.0
78.955124 144.0
78.977646 136.0
79.048698 112.0
79.120499 96.0
79.172806 172.0
79.199371 176.0
79.235107 160.0
79.255836 160.0
79.265213 168.0
79.325081 140.0
79.375206 184.0
79.414101 188.0
79.43335 220.0
79.483025 152.0
79.509644 160.0
79.534897 124.0
79.575958 188.0
79.682076 164.0
79.782982 216.0
79.833176 176.0
79.860847 172.0
79.889091 116.0
79.932594 192.0
80.013695 156.0
80.104317 120.0
80.140923 192.0
80.2481 120.0
80.297791 184.0
80.312065 140.0
80.328934 136.0
80.408554 148.0
80.426254 160.0
80.447639 172.0
80.457291 224.0
80.471176 148.0
80.507668 172.0
80.535172 144.0
80.554771 144.0
80.670982 144.0
80.688858 228.0
80.713539 144.0
80.752975 252.0
80.842033 264.0
80.866241 148.0
80.963356 216.0
81.009193 184.0
81.021736 172.0
81.061157 160.0
81.088036 216.0
81.127472 232.0
81.140022 148.0
81.159424 180.0
81.243935 136.0
81.33197 152.0
81.346573 176.0
81.36393 168.0
81.430855 216.0
81.549301 276.0
81.563683 216.0
81.592316 224.0
81.63485 144.0
81.713669 192.0
81.735031 188.0
81.853485 144.0
81.91713 124.0
81.971138 172.0
82.01368 144.0
82.089394 268.0
82.137085 168.0
82.162605 160.0
82.183197 176.0
82.217178 144.0
82.221695 120.0
82.228745 184.0
82.259911 156.0
82.278854 204.0
82.304802 156.0
82.325798 192.0
82.367737 164.0
82.392632 140.0
82.464005 168.0
82.498528 112.0
82.526176 164.0
82.6036 148.0
82.630295 244.0
82.736649 144.0
82.760544 200.0
82.824974 148.0
82.857582 148.0
82.892998 176.0
82.910133 176.0
82.933372 112.0
82.997452 276.0
83.043655 124.0
83.11438 104.0
83.147713 160.0
83.247116 132.0
83.259552 252.0
83.280251 176.0
83.343575 168.0
83.46756 120.0
83.565063 244.0
83.58931 268.0
83.653275 116.0
83.717697 144.0
83.79332 180.0
83.855194 352.0
84.002892 168.0
84.01931 248.0
84.051567 112.0
84.106903 160.0
84.166817 132.0
84.20002 312.0
84.243881 268.0
84.279266 200.0
84.295013 156.0
84.340706 192.0
84.362427 168.0
84.415077 128.0
84.518097 172.0
84.583153 184.0
84.600533 200.0
84.643272 132.0
84.69619 144.0
84.717201 176.0
84.734154 196.0
84.784454 124.0
84.817291 152.0
84.834717 196.0
84.885284 168.0
84.902786 160.0
84.955978 156.0
84.992676 156.0
85.005516 148.0
85.018364 156.0
85.04406 208.0
85.079956 208.0
85.141426 252.0
85.229095 136.0
85.243401 140.0
85.339264 184.0
85.359543 216.0
85.388733 188.0
85.432648 144.0
85.45018 136.0
85.487579 308.0
85.542198 224.0
85.558762 144.0
85.584541 192.0
85.604797 156.0
85.618629 180.0
85.685112 104.0
85.714157 196.0
85.778313 204.0
85.793564 184.0
85.831223 164.0
85.868507 172.0
85.897842 232.0
85.916046 152.0
85.951347 140.0
85.975334 144.0
86.06031 124.0
86.097107 160.0
86.139664 172.0
86.20433 212.0
86.25869 272.0
86.270149 288.0
86.318939 180.0
86.447037 144.0
86.460197 344.0
86.509506 192.0
86.57061 200.0
86.728622 152.0
86.758156 164.0
86.781845 172.0
86.824501 196.0
86.895958 124.0
86.959122 128.0
86.987244 196.0
87.029739 152.0
87.058334 180.0
87.125198 268.0
87.16037 232.0
87.206963 140.0
87.235771 120.0
87.266449 160.0
87.290619 228.0
87.340981 156.0
87.383621 204.0
87.425079 356.0
87.439445 168.0
87.474808 156.0
87.505402 188.0
87.572983 144.0
87.597649 224.0
87.678307 156.0
87.717636 124.0
87.764 124.0
87.843773 140.0
87.922142 164.0
87.967636 128.0
87.987473 148.0
88.008583 144.0
88.06488 176.0
88.097656 252.0
88.112602 152.0
88.157448 164.0
88.242554 136.0
88.328262 200.0
88.398827 204.0
88.442253 128.0
88.577629 124.0
88.614014 220.0
88.640244 156.0
88.756462 268.0
88.800606 248.0
88.885887 176.0
88.91967 244.0
89.133759 228.0
89.165703 180.0
89.19014 216.0
89.228859 160.0
89.275681 152.0
89.295425 188.0
89.333046 168.0
89.397316 172.0
89.42337 144.0
89.438423 168.0
89.498634 136.0
89.51107 320.0
89.564583 164.0
89.580872 96.0
89.743683 112.0
89.761444 132.0
89.843575 164.0
89.886055 116.0
89.979454 152.0
90.019104 152.0
90.047676 124.0
90.073776 176.0
90.145676 140.0
90.162682 148.0
90.196701 144.0
90.217033 384.0
90.25425 164.0
90.338524 188.0
90.357445 164.0
90.452065 300.0
90.511086 320.0
90.625679 160.0
90.645836 136.0
90.712372 240.0
90.901505 144.0
90.961975 164.0
91.017036 200.0
91.056862 316.0
91.077415 176.0
91.102242 116.0
91.144302 152.0
91.170906 164.0
91.190224 160.0
91.212715 264.0
91.226021 140.0
91.267853 352.0
91.322998 200.0
91.351532 156.0
91.442314 204.0
91.479935 160.0
91.69236 140.0
91.730484 172.0
91.768616 156.0
91.785126 248.0
91.811867 164.0
91.850563 152.0
91.977791 160.0
91.993736 156.0
92.051979 136.0
92.114037 180.0
92.129318 192.0
92.171356 148.0
92.214241 244.0
92.236336 140.0
92.453224 180.0
92.471809 164.0
92.493065 220.0
92.617111 140.0
92.710655 180.0
92.730156 180.0
92.761116 260.0
92.874031 112.0
93.000427 204.0
93.062027 180.0
93.093437 168.0
93.199341 180.0
93.227226 148.0
93.269974 164.0
93.312256 220.0
93.389496 188.0
93.41288 128.0
93.449562 172.0
93.49646 160.0
93.550819 148.0
93.567284 176.0
93.62352 180.0
93.660118 148.0
93.715981 300.0
93.743172 160.0
93.766869 128.0
93.796928 160.0
93.825211 172.0
93.880753 148.0
93.897186 184.0
93.931114 204.0
93.964699 172.0
94.066879 144.0
94.100533 116.0
94.11911 168.0
94.137566 236.0
94.164291 200.0
94.223778 152.0
94.28138 196.0
94.347092 220.0
94.373146 176.0
94.446259 112.0
94.4786 188.0
94.518021 204.0
94.575356 312.0
94.610199 156.0
94.656616 148.0
94.680511 140.0
94.693733 344.0
94.759415 168.0
94.851883 100.0
94.898064 140.0
94.939598 156.0
94.983711 188.0
95.015244 168.0
95.034752 148.0
95.069786 192.0
95.109413 156.0
95.137505 196.0
95.156921 140.0
95.176025 176.0
95.184105 148.0
95.258453 200.0
95.289108 128.0
95.314857 204.0
95.330612 268.0
95.44751 172.0
95.465874 140.0
95.480629 132.0
95.533951 160.0
95.555351 216.0
95.649208 140.0
95.668228 140.0
95.687691 164.0
95.765564 176.0
95.781166 152.0
95.809601 148.0
95.872742 156.0
95.934929 128.0
95.939011 164.0
95.972443 136.0
95.99556 156.0
96.018051 96.0
96.115189 312.0
96.137039 220.0
96.153984 204.0
96.176636 160.0
96.280479 164.0
96.391823 212.0
96.424614 252.0
96.45311 168.0
96.487602 236.0
96.508354 176.0
96.570572 296.0
96.602638 188.0
96.711128 164.0
96.781044 200.0
96.83004 160.0
96.851585 148.0
96.904472 160.0
96.950539 152.0
97.164345 184.0
97.196495 180.0
97.257462 192.0
97.302612 152.0
97.365448 140.0
97.395386 148.0
97.412712 188.0
97.497299 140.0
97.5187 156.0
97.555565 132.0
97.594299 160.0
97.613838 212.0
97.674034 304.0
97.692017 140.0
97.746071 212.0
97.808418 228.0
97.835396 120.0
97.85508 172.0
97.869972 248.0
97.898399 224.0
97.957489 156.0
97.973984 96.0
97.998863 164.0
98.020599 212.0
98.069023 212.0
98.146935 160.0
98.199409 196.0
98.212379 168.0
98.310219 284.0
98.361732 156.0
98.379242 124.0
98.386734 108.0
98.438728 236.0
98.470726 160.0
98.506424 204.0
98.521255 148.0
98.568695 200.0
98.641617 180.0
98.673859 192.0
98.74147 188.0
98.760872 248.0
98.779259 348.0
98.872879 152.0
98.895416 156.0
99.012451 160.0
99.039963 144.0
99.057785 180.0
99.073181 184.0
99.144966 196.0
99.319336 156.0
99.428391 176.0
99.472229 184.0
99.535767 208.0
99.701981 232.0
99.748741 160.0
99.815941 296.0
99.86512 176.0
99.902107 124.0
99.922409 164.0
99.937279 192.0
99.992996 144.0
100.019592 176.0
100.133453 136.0
100.165535 208.0
100.217102 216.0
100.241936 176.0
100.281792 284.0
100.351303 132.0
100.387451 172.0
100.437317 204.0
100.463028 252.0
100.525101 168.0
100.595482 236.0
100.616913 156.0
100.708771 308.0
100.774849 156.0
100.846054 152.0
100.93206 208.0
100.950378 148.0
101.051346 296.0
101.079346 100.0
101.140663 172.0
101.170273 192.0
101.327972 152.0
101.376076 192.0
101.409058 168.0
101.455162 176.0
101.5093 188.0
101.583191 128.0
101.636337 180.0
101.703903 184.0
101.730003 200.0
101.772163 152.0
101.796257 156.0
101.815727 132.0
101.849541 256.0
101.880615 180.0
101.900703 152.0
101.960991 152.0
101.986885 240.0
102.077583 192.0
102.139626 156.0
102.217484 196.0
102.249268 108.0
102.343277 196.0
102.38195 228.0
102.451996 200.0
102.501968 384.0
102.557564 156.0
102.582939 192.0
102.639397 164.0
102.730286 120.0
102.747719 192.0
102.800774 176.0
102.816917 176.0
102.856117 152.0
102.87545 140.0
102.891602 184.0
102.916504 192.0
103.139565 160.0
103.178429 148.0
103.232269 216.0
103.265366 176.0
103.374992 156.0
103.485634 216.0
103.514297 140.0
103.583862 172.0
103.655457 144.0
103.83416 124.0
103.850777 192.0
103.883598 224.0
103.900986 192.0
103.948158 212.0
103.964073 128.0
103.972359 108.0
104.051674 148.0
104.071976 264.0
104.107658 160.0
104.126007 172.0
104.205353 144.0
104.271057 188.0
104.295509 296.0
104.334068 212.0
104.460007 168.0
104.478462 160.0
104.586082 176.0
104.607346 204.0
104.716621 260.0
104.767838 192.0
104.818481 316.0
104.987633 168.0
105.043373 276.0
105.070709 316.0
105.217987 196.0
105.248985 152.0
105.283592 152.0
105.381401 204.0
105.424797 228.0
105.444992 156.0
105.459297 344.0
105.542366 284.0
105.583778 140.0
105.65448 196.0
105.692551 136.0
105.760201 208.0
105.823425 268.0
105.893013 184.0
105.959526 240.0
105.980476 160.0
106.023262 188.0
106.06591 1796.0
106.128716 204.0
106.160133 224.0
106.252464 176.0
106.325645 188.0
106.352081 132.0
106.372856 188.0
106.406525 200.0
106.429756 196.0
106.448021 212.0
106.495781 176.0
106.572868 144.0
106.593506 152.0
106.638496 148.0
106.728279 204.0
106.745392 212.0
106.765297 168.0
106.821426 316.0
106.844269 224.0
106.876068 324.0
106.923706 172.0
106.967003 116.0
107.044968 204.0
107.067902 168.0
107.170815 168.0
107.320595 196.0
107.374901 172.0
107.402542 168.0
107.477493 476.0
107.529633 140.0
107.564056 260.0
107.674156 168.0
107.701057 156.0
107.76091 144.0
107.785706 184.0
107.924194 144.0
107.943069 188.0
107.957603 128.0
107.982101 164.0
108.082649 144.0
108.126312 176.0
108.146263 232.0
108.161499 136.0
108.257347 236.0
108.361862 140.0
108.42308 172.0
108.474556 284.0
108.545624 216.0
108.568199 164.0
108.666832 124.0
108.763229 192.0
108.850426 160.0
108.892838 164.0
108.933502 212.0
109.010117 224.0
109.160049 140.0
109.18042 176.0
109.22036 196.0
109.240692 176.0
109.281128 172.0
109.468025 424.0
109.486771 232.0
109.512596 280.0
109.528427 172.0
109.54509 148.0
109.565048 124.0
109.675819 152.0
109.704788 196.0
109.749931 104.0
109.897934 196.0
109.934601 196.0
110.012207 172.0
110.028915 244.0
110.053108 156.0
110.090828 180.0
110.150032 144.0
110.170921 160.0
110.185547 212.0
110.21933 228.0
110.24823 156.0
110.287941 168.0
110.310936 160.0
110.377838 176.0
110.407341 148.0
110.432213 228.0
110.494972 160.0
110.564018 140.0
110.637344 140.0
110.683853 196.0
110.74913 116.0
110.775177 156.0
110.799416 220.0
110.862465 112.0
110.877831 152.0
110.928467 160.0
110.99469 328.0
111.02282 164.0
111.052185 340.0
111.109924 244.0
111.198647 124.0
111.325012 156.0
111.351265 164.0
111.378471 124.0
111.400627 188.0
111.492119 140.0
111.796944 128.0
111.851089 148.0
111.886299 136.0
111.919968 308.0
111.952957 140.0
112.012077 244.0
112.058205 240.0
112.075974 140.0
112.120071 160.0
112.252785 164.0
112.273659 108.0
112.318939 144.0
112.35006 180.0
112.381363 196.0
112.459793 144.0
112.491318 132.0
112.573669 200.0
112.596199 112.0
112.736458 164.0
112.789299 144.0
112.82206 104.0
112.880203 156.0
112.94577 148.0
113.170372 268.0
113.208336 196.0
113.242096 160.0
113.260246 140.0
113.293411 176.0
113.326828 140.0
113.368675 348.0
113.409477 152.0
113.456116 168.0
113.511238 168.0
113.572746 168.0
113.595215 128.0
113.65197 236.0
113.669609 152.0
113.727638 448.0
113.800674 188.0
113.888649 176.0
113.913254 164.0
114.00798 188.0
114.032593 176.0
114.047874 192.0
114.199409 100.0
114.335442 172.0
114.352211 168.0
114.369545 144.0
114.388702 136.0
114.449615 196.0
114.554321 124.0
114.622978 144.0
114.701691 180.0
114.708786 168.0
114.76091 180.0
114.796822 108.0
114.832489 116.0
114.909515 208.0
115.079437 148.0
115.150017 164.0
115.181297 184.0
115.223404 108.0
115.320831 176.0
115.339401 128.0
115.389236 140.0
115.445892 224.0
115.470497 168.0
115.520058 176.0
115.562485 184.0
115.609283 156.0
115.648079 220.0
115.678741 272.0
115.717781 164.0
115.793793 140.0
115.827187 148.0
115.953819 160.0
116.020874 136.0
116.06369 204.0
116.119736 148.0
116.157516 192.0
116.207397 152.0
116.252281 100.0
116.28894 252.0
116.370514 152.0
116.387695 148.0
116.40329 272.0
116.434219 168.0
116.463272 164.0
116.522781 152.0
116.576088 256.0
116.65625 140.0
117.002266 152.0
117.030594 164.0
117.057259 156.0
117.129662 140.0
117.163132 156.0
117.211525 228.0
117.233078 164.0
117.256783 164.0
117.332397 184.0
117.364227 152.0
117.463776 184.0
117.571655 296.0
117.59108 140.0
117.665688 152.0
117.683632 220.0
117.72493 160.0
117.750847 144.0
117.784149 156.0
117.827232 100.0
117.909561 296.0
117.943542 260.0
117.975571 156.0
118.010353 192.0
118.040436 168.0
118.06559 2048.0
118.177849 108.0
118.276253 156.0
118.306557 232.0
118.321709 140.0
118.356354 152.0
118.384506 152.0
118.501472 164.0
118.603325 164.0
118.659645 180.0
118.77784 184.0
118.818672 196.0
118.848953 200.0
118.927368 208.0
118.950394 184.0
119.013405 160.0
119.039772 120.0
119.051178 196.0
119.077316 220.0
119.101059 220.0
119.121941 200.0
119.141487 152.0
119.211075 156.0
119.261009 232.0
119.297958 172.0
119.366234 180.0
119.399567 356.0
119.416725 284.0
119.49826 196.0
119.56115 232.0
119.57856 180.0
119.669983 176.0
119.691162 176.0
119.719772 148.0
119.737488 144.0
119.783882 148.0
119.80954 104.0
119.826019 244.0
119.901093 128.0
119.985901 140.0
120.028275 124.0
120.044182 148.0
120.081367 588.0
120.157196 280.0
120.212746 224.0
120.23394 144.0
120.278221 160.0
120.304413 140.0
120.363365 160.0
120.415306 112.0
120.447708 336.0
120.487236 156.0
120.536774 124.0
120.557098 180.0
120.621162 300.0
120.676849 144.0
120.704239 156.0
120.721733 160.0
120.74424 108.0
120.76548 264.0
120.782974 152.0
120.889069 132.0
120.982109 120.0
120.998413 164.0
121.085777 136.0
121.106926 164.0
121.141624 152.0
121.179214 140.0
121.227425 192.0
121.3414 156.0
121.359848 164.0
121.376068 196.0
121.408798 152.0
121.45105 160.0
121.602364 108.0
121.669174 160.0
121.694641 168.0
121.711586 212.0
121.756439 224.0
121.78907 148.0
121.825447 200.0
121.861565 220.0
121.901115 172.0
122.038269 152.0
122.054932 148.0
122.094521 168.0
122.18251 196.0
122.223488 232.0
122.416626 128.0
122.492958 152.0
122.521812 164.0
122.557693 200.0
122.585495 148.0
122.614143 216.0
122.660385 216.0
122.742981 204.0
122.787895 148.0
122.809792 184.0
122.825806 232.0
122.842354 200.0
122.886299 152.0
122.986885 164.0
123.006752 172.0
123.046486 140.0
123.064743 104.0
123.121124 220.0
123.145859 172.0
123.185616 240.0
123.264305 208.0
123.285042 192.0
123.310631 160.0
123.362404 156.0
123.412109 168.0
123.455696 196.0
123.513412 192.0
123.560028 176.0
123.694221 176.0
123.727295 136.0
123.764275 124.0
123.818306 192.0
123.884659 180.0
124.004997 156.0
124.049881 208.0
124.073853 140.0
124.120773 120.0
124.170189 196.0
124.232887 148.0
124.261543 220.0
124.305138 124.0
124.404022 180.0
124.43145 116.0
124.476601 144.0
124.562225 152.0
124.589897 156.0
124.67112 284.0
124.780991 360.0
124.923584 180.0
125.010361 168.0
125.036667 244.0
125.131538 136.0
125.213524 184.0
125.252914 148.0
125.319786 160.0
125.367416 196.0
125.447098 188.0
125.494072 152.0
125.553474 248.0
125.693497 128.0
125.756958 180.0
125.786919 124.0
125.87751 144.0
125.904312 280.0
125.927757 176.0
125.944511 196.0
125.982117 200.0
126.03653 184.0
126.080452 180.0
126.093422 316.0
126.147919 140.0
126.259567 108.0
126.283287 288.0
126.309868 160.0
126.344849 224.0
126.384926 172.0
126.467728 144.0
126.485634 160.0
126.582191 188.0
126.640793 104.0
126.7593 144.0
126.81041 164.0
126.905823 256.0
127.0336 172.0
127.127518 284.0
127.162537 248.0
127.225388 152.0
127.282135 160.0
127.402802 196.0
127.456726 168.0
127.48336 108.0
127.498413 204.0
127.519653 176.0
127.557312 148.0
127.591705 216.0
127.647293 380.0
127.721466 164.0
127.741615 112.0
127.818169 200.0
127.963928 280.0
127.999146 172.0
128.026871 168.0
128.044205 168.0
128.060989 248.0
128.192291 140.0
128.312012 140.0
128.327805 140.0
128.386032 136.0
128.424774 144.0
128.477249 136.0
128.50528 208.0
128.571625 132.0
128.629608 200.0
128.656204 156.0
128.749771 148.0
128.774643 244.0
128.866165 136.0
128.957291 272.0
129.014633 220.0
129.064987 328.0
129.228989 216.0
129.300232 240.0
129.327545 156.0
129.378357 204.0
129.414581 260.0
129.433273 172.0
129.461563 188.0
129.493591 204.0
129.520752 132.0
129.548203 468.0
129.572998 188.0
129.609375 208.0
129.673859 284.0
129.817932 144.0
129.839859 204.0
129.960831 204.0
129.985947 200.0
130.006348 144.0
130.046402 136.0
130.065781 2500.0
130.095993 208.0
130.152893 156.0
130.176468 212.0
130.208267 176.0
130.22644 156.0
130.299789 164.0
130.381989 176.0
130.4673 228.0
130.500122 192.0
130.519592 184.0
130.571899 276.0
130.61911 164.0
130.646957 224.0
130.677948 180.0
130.735703 212.0
130.768906 284.0
130.830872 168.0
130.863174 212.0
130.96109 144.0
131.019196 236.0
131.0728 2156.0
131.122208 284.0
131.156586 216.0
131.196899 380.0
131.248245 208.0
131.335663 144.0
131.368881 224.0
131.3965 308.0
131.44783 296.0
131.494614 160.0
131.515152 152.0
131.536896 196.0
131.66037 180.0
131.678772 164.0
131.776291 164.0
131.835571 300.0
131.890991 260.0
131.910324 192.0
131.926117 180.0
131.952682 152.0
131.99205 156.0
132.081482 2972.0
132.224655 284.0
132.260254 512.0
132.317642 144.0
132.349304 328.0
132.365616 144.0
132.423813 264.0
132.47966 152.0
132.51593 148.0
132.570114 144.0
132.625259 176.0
132.690125 304.0
132.734543 180.0
132.781387 188.0
132.830872 148.0
132.849213 408.0
132.898163 168.0
132.939713 172.0
132.990585 184.0
133.021988 124.0
133.070374 184.0
133.085571 304.0
133.131226 196.0
133.162186 220.0
133.237595 116.0
133.283142 148.0
133.310715 144.0
133.404953 152.0
133.450699 116.0
133.459076 104.0
133.494629 208.0
133.533554 280.0
133.590698 176.0
133.619186 104.0
133.768723 180.0
133.791397 228.0
133.832886 192.0
133.888702 184.0
133.906387 216.0
133.938141 204.0
133.983963 124.0
134.010239 156.0
134.033279 184.0
134.079285 104.0
134.097778 152.0
134.164932 100.0
134.221359 168.0
134.240021 284.0
134.298401 188.0
134.353378 96.0
134.427597 144.0
134.502258 136.0
134.524536 148.0
134.553802 252.0
134.680405 164.0
134.784531 160.0
134.835663 160.0
134.882004 96.0
134.923294 108.0
134.949539 112.0
134.971222 176.0
135.038651 136.0
135.075546 204.0
135.097168 292.0
135.132339 208.0
135.171997 116.0
135.36084 212.0
135.393204 156.0
135.448685 136.0
135.529434 184.0
135.600113 172.0
135.623291 152.0
135.716019 140.0
135.736542 156.0
135.81221 224.0
135.86528 112.0
135.884125 116.0
135.907974 148.0
135.936371 152.0
135.969864 140.0
136.036316 144.0
136.07193 188.0
136.090622 136.0
136.156921 168.0
136.18425 240.0
136.236176 164.0
136.479324 184.0
136.500854 140.0
136.541855 292.0
136.581116 172.0
136.613464 176.0
136.686951 180.0
136.705566 140.0
136.79245 148.0
136.833588 144.0
136.886856 164.0
136.983566 104.0
137.01033 148.0
137.0746 140.0
137.171387 188.0
137.194687 160.0
137.215668 172.0
137.25676 116.0
137.299973 176.0
137.36026 164.0
137.433273 176.0
137.468262 124.0
137.512527 196.0
137.540466 112.0
137.592148 176.0
137.643219 132.0
137.795227 112.0
137.886597 204.0
137.939377 340.0
138.066788 276.0
138.091019 164.0
138.15773 204.0
138.181854 176.0
138.230942 232.0
138.250443 164.0
138.278534 300.0
138.322266 152.0
138.345398 208.0
138.426773 136.0
138.539001 152.0
138.593338 148.0
138.650589 144.0
138.847839 172.0
138.871078 128.0
138.959396 180.0
139.024506 144.0
139.131882 156.0
139.155243 168.0
139.359726 132.0
139.421402 284.0
139.502945 328.0
139.534607 128.0
139.559372 168.0
139.580994 160.0
139.61705 156.0
139.726639 168.0
139.834137 160.0
139.913284 156.0
139.9785 144.0
140.032364 152.0
140.075806 104.0
140.152512 172.0
140.201996 140.0
140.231995 220.0
140.29393 168.0
140.325836 292.0
140.361282 168.0
140.477921 176.0
140.530075 132.0
140.556076 136.0
140.58046 116.0
140.633011 180.0
140.658249 108.0
140.780746 344.0
140.798157 212.0
140.830414 284.0
140.85556 144.0
140.905167 232.0
140.954056 168.0
141.042236 148.0
141.117569 176.0
141.177856 264.0
141.219055 148.0
141.3862 196.0
141.602997 192.0
141.685898 140.0
141.723099 196.0
141.776077 136.0
141.798706 164.0
141.824356 232.0
141.910294 100.0
141.923447 208.0
141.998306 156.0
142.075531 160.0
142.188599 184.0
142.231628 184.0
142.269897 172.0
142.356491 160.0
142.458527 188.0
142.483337 128.0
142.519318 132.0
142.583588 312.0
142.618393 104.0
142.65889 152.0
142.847305 272.0
142.873169 316.0
142.913376 176.0
142.96904 164.0
142.996658 148.0
143.072388 148.0
143.236023 304.0
143.288483 308.0
143.330322 144.0
143.389206 132.0
143.436356 160.0
143.500351 136.0
143.58136 192.0
143.599228 216.0
143.742584 160.0
143.781708 204.0
143.849335 116.0
143.895859 172.0
143.944763 200.0
143.975098 164.0
144.030426 128.0
144.080643 3236.0
144.131805 172.0
144.187332 280.0
144.207123 148.0
144.295151 164.0
144.318253 156.0
144.363678 296.0
144.395355 164.0
144.466919 208.0
144.492844 140.0
144.521561 212.0
144.543976 324.0
144.605316 184.0
144.720215 300.0
144.759369 148.0
144.788864 312.0
144.809723 148.0
144.848907 180.0
144.874191 192.0
144.89267 164.0
144.909439 176.0
144.933395 140.0
145.08876 1464.0
145.113663 132.0
145.144333 152.0
145.162628 192.0
145.223465 140.0
145.246933 172.0
145.269043 156.0
145.324219 152.0
145.365021 148.0
145.383011 156.0
145.416504 176.0
145.441635 164.0
145.48262 164.0
145.521378 140.0
145.554657 108.0
145.619492 208.0
145.644104 192.0
145.669464 140.0
145.700089 136.0
145.744461 172.0
145.811386 124.0
145.866898 128.0
145.916458 296.0
145.960068 284.0
145.99382 196.0
146.028793 120.0
146.057968 360.0
146.096695 15472.0
146.135559 200.0
146.152771 144.0
146.18631 140.0
146.211426 152.0
146.286362 188.0
146.420624 192.0
146.485748 156.0
146.522903 168.0
146.630035 232.0
146.669647 148.0
146.767853 148.0
146.799988 224.0
146.928986 160.0
146.968552 164.0
147.048462 184.0
147.098694 920.0
147.165512 140.0
147.196045 216.0
147.263855 116.0
147.315872 172.0
147.349075 220.0
147.433289 176.0
147.461578 100.0
147.489227 148.0
147.51001 276.0
147.585938 168.0
147.60527 152.0
147.630371 176.0
147.6996 148.0
147.721359 164.0
147.759079 172.0
147.798782 140.0
147.82103 228.0
147.845703 304.0
147.888321 144.0
147.907684 208.0
147.955383 148.0
147.9944 176.0
148.016205 200.0
148.050888 112.0
148.094727 164.0
148.161957 148.0
148.243393 192.0
148.311523 236.0
148.37973 184.0
148.418289 132.0
148.435791 176.0
148.458282 308.0
148.476746 176.0
148.507431 256.0
148.537598 176.0
148.569092 128.0
148.606186 228.0
148.668732 236.0
148.686676 208.0
148.737885 136.0
148.784286 112.0
148.873932 144.0
148.935791 156.0
148.994095 184.0
149.055176 144.0
149.089325 232.0
149.20079 312.0
149.217682 148.0
149.236679 148.0
149.295792 132.0
149.314072 128.0
149.358353 152.0
149.464462 236.0
149.512009 300.0
149.543365 156.0
149.681198 112.0
149.794449 140.0
149.813934 256.0
149.905228 164.0
149.932007 176.0
149.965988 176.0
150.005081 212.0
150.046661 132.0
150.131348 208.0
150.164261 172.0
150.194397 108.0
150.228958 120.0
150.266983 140.0
150.338318 132.0
150.381363 252.0
150.430908 160.0
150.454651 144.0
150.509033 188.0
150.619659 164.0
150.64093 184.0
150.691269 356.0
150.736206 188.0
150.777756 160.0
150.868607 144.0
150.898376 116.0
150.934204 160.0
150.956207 156.0
150.980408 116.0
151.038467 636.0
151.071091 324.0
151.10228 156.0
151.189407 208.0
151.382004 140.0
151.408829 168.0
151.476913 128.0
151.504471 216.0
151.53093 180.0
151.568176 152.0
151.585327 140.0
151.641693 156.0
151.669006 240.0
151.733002 128.0
151.767807 432.0
151.801407 108.0
151.908966 332.0
152.012009 152.0
152.040466 240.0
152.079041 156.0
152.102829 184.0
152.169678 184.0
152.214996 176.0
152.274704 148.0
152.425446 100.0
152.472275 200.0
152.500732 156.0
152.517944 176.0
152.556992 136.0
152.632507 224.0
152.680222 208.0
152.712189 164.0
152.731049 168.0
152.808472 140.0
152.833221 128.0
152.89032 168.0
153.096115 144.0
153.156433 164.0
153.257751 156.0
153.374527 188.0
153.441086 392.0
153.497528 240.0
153.582092 180.0
153.613724 172.0
153.69725 228.0
153.724747 212.0
153.823471 144.0
153.858032 192.0
153.913254 196.0
154.035828 172.0
154.051987 144.0
154.220123 164.0
154.270584 192.0
154.437622 124.0
154.490692 188.0
154.544617 180.0
154.634064 148.0
154.673798 160.0
154.725784 144.0
154.822357 212.0
154.89418 148.0
154.918167 128.0
154.952408 200.0
154.988327 156.0
155.02832 144.0
155.056427 160.0
155.170959 292.0
155.246124 208.0
155.29776 200.0
155.344238 156.0
155.367462 144.0
155.392471 264.0
155.46196 176.0
155.50415 160.0
155.664627 112.0
155.692764 140.0
155.756958 196.0
156.08252 136.0
156.180801 156.0
156.209381 160.0
156.264877 152.0
156.374039 160.0
156.406403 236.0
156.454559 144.0
156.49353 140.0
156.513809 136.0
156.77002 212.0
156.797623 104.0
156.827347 152.0
156.847 196.0
156.87471 180.0
156.906616 140.0
156.95079 224.0
156.974442 144.0
157.007919 180.0
157.050812 164.0
157.086044 248.0
157.158173 140.0
157.1763 144.0
157.221344 148.0
157.281479 224.0
157.45726 204.0
157.566818 132.0
157.645157 164.0
157.665939 160.0
157.690933 212.0
157.786789 196.0
157.871857 152.0
157.905365 196.0
157.940338 188.0
158.024063 248.0
158.057297 280.0
158.096375 3088.0
158.176178 184.0
158.258392 172.0
158.347687 248.0
158.384003 148.0
158.426849 460.0
158.551254 192.0
158.609818 172.0
158.637222 252.0
158.673645 152.0
158.712311 260.0
158.782532 184.0
158.855591 144.0
158.895325 188.0
158.89946 300.0
158.941208 204.0
158.992249 124.0
159.03244 304.0
159.073593 172.0
159.10408 1928.0
159.191299 140.0
159.203903 120.0
159.268585 152.0
159.29834 120.0
159.359894 188.0
159.519852 148.0
159.567947 156.0
159.586151 176.0
159.614197 228.0
159.633865 144.0
159.722321 168.0
159.772202 180.0
159.842651 172.0
159.95491 252.0
160.111847 2492.0
160.245773 164.0
160.27388 188.0
160.315948 148.0
160.352768 276.0
160.390671 168.0
160.474884 176.0
160.601227 204.0
160.638321 328.0
160.726929 212.0
160.78949 136.0
160.861282 148.0
160.891312 208.0
160.931564 140.0
160.967178 116.0
161.021545 544.0
161.060043 296.0
161.115662 812.0
161.137314 396.0
161.196793 148.0
161.311005 148.0
161.32962 180.0
161.348923 244.0
161.380859 160.0
161.407196 112.0
161.550125 384.0
161.607727 200.0
161.678802 172.0
161.746155 148.0
161.769547 152.0
161.823883 100.0
161.864746 140.0
161.887665 152.0
161.906998 228.0
161.944458 244.0
162.002289 192.0
162.027405 344.0
162.072495 160.0
162.128967 180096.0
162.222702 296.0
162.346359 172.0
162.373764 192.0
162.453354 108.0
162.486649 176.0
162.508224 192.0
162.545349 564.0
162.572037 176.0
162.632675 240.0
162.684158 196.0
162.715332 160.0
162.742081 124.0
162.821808 148.0
162.957809 128.0
163.001968 132.0
163.067429 144.0
163.098663 220.0
163.13147 22916.0
163.224396 116.0
163.266449 220.0
163.332047 156.0
163.358307 468.0
163.483582 284.0
163.511612 148.0
163.622253 192.0
163.669937 224.0
163.759735 144.0
163.787262 164.0
163.808319 168.0
163.837341 244.0
163.86322 256.0
163.913254 196.0
163.986649 324.0
164.018204 112.0
164.075974 276.0
164.135239 704.0
164.188934 112.0
164.254379 248.0
164.304642 216.0
164.363312 168.0
164.431503 196.0
164.465088 252.0
164.49556 108.0
164.621552 200.0
164.764175 176.0
164.802505 148.0
164.826248 136.0
164.856552 212.0
164.883087 140.0
164.912384 232.0
164.937943 188.0
165.016174 200.0
165.073456 144.0
165.1604 296.0
165.206345 176.0
165.273605 232.0
165.305161 172.0
165.329865 224.0
165.404617 164.0
165.459335 140.0
165.52298 160.0
165.57666 152.0
165.59552 204.0
165.613342 204.0
165.663223 144.0
165.787674 188.0
165.831512 156.0
165.867004 160.0
165.947357 268.0
165.988083 268.0
166.059601 120.0
166.116745 160.0
166.1483 136.0
166.269806 164.0
166.304443 172.0
166.360748 112.0
166.429703 260.0
166.475342 268.0
166.538635 136.0
166.583069 156.0
166.60907 96.0
166.643707 192.0
166.706131 120.0
166.777023 140.0
166.924805 116.0
166.99176 460.0
167.040314 184.0
167.121445 188.0
167.145355 136.0
167.174072 176.0
167.196625 256.0
167.267075 144.0
167.335999 312.0
167.393478 124.0
167.466141 204.0
167.565811 260.0
167.604446 140.0
167.658569 168.0
167.742188 280.0
167.7948 136.0
167.81842 280.0
167.916336 188.0
167.956268 180.0
167.996338 180.0
168.021194 152.0
168.047241 164.0
168.102127 180.0
168.133087 208.0
168.171814 180.0
168.220856 156.0
168.41391 172.0
168.554474 340.0
168.667496 132.0
168.768387 172.0
168.817688 152.0
168.835312 264.0
168.879364 104.0
168.91597 168.0
168.951126 164.0
168.977875 152.0
169.159225 164.0
169.200317 180.0
169.248825 124.0
169.283829 124.0
169.312042 160.0
169.342651 208.0
169.428192 176.0
169.460693 272.0
169.600098 140.0
169.630676 140.0
169.682526 144.0
169.830338 160.0
169.887405 144.0
169.921127 168.0
170.001572 176.0
170.062592 148.0
170.087906 136.0
170.234573 228.0
170.271561 156.0
170.293823 96.0
170.31572 140.0
170.463806 164.0
170.48143 144.0
170.581924 188.0
170.60936 160.0
170.631592 152.0
170.749542 180.0
170.844498 96.0
170.91626 148.0
170.959351 164.0
171.013031 196.0
171.060364 204.0
171.107651 192.0
171.129089 216.0
171.181778 188.0
171.207809 152.0
171.314606 288.0
171.413239 140.0
171.499207 180.0
171.530701 112.0
171.553665 152.0
171.769775 312.0
171.868027 312.0
171.91629 120.0
171.969009 112.0
172.050079 160.0
172.111969 9628.0
172.406509 268.0
172.428772 140.0
172.50502 116.0
172.533325 160.0
172.857315 108.0
172.971909 196.0
173.119644 2792.0
173.23941 188.0
173.264053 184.0
173.303375 144.0
173.341202 176.0
173.404129 172.0
173.441406 108.0
173.490189 112.0
173.531296 112.0
173.554718 140.0
173.62442 116.0
173.69342 272.0
173.796371 196.0
173.821884 148.0
173.908783 172.0
173.951309 216.0
173.977615 160.0
174.007751 152.0
174.052536 192.0
174.087387 476.0
174.128387 85592.0
174.211716 280.0
174.227448 180.0
174.257614 344.0
174.3508 96.0
174.431122 236.0
174.492477 128.0
174.523636 168.0
174.558121 456.0
174.600662 148.0
174.811325 224.0
174.842484 140.0
174.914337 164.0
174.991638 180.0
175.017593 196.0
175.099991 464.0
175.131226 12984.0
175.170731 116.0
175.211594 156.0
175.244019 192.0
175.26918 228.0
175.330292 100.0
175.398483 120.0
175.436935 240.0
175.542938 108.0
175.585251 172.0
175.758652 180.0
175.815414 204.0
175.84404 212.0
175.909653 184.0
176.027893 164.0
176.062225 152.0
176.111038 108.0
176.135178 1024.0
176.213623 152.0
176.244568 148.0
176.307922 156.0
176.331558 152.0
176.379425 116.0
176.41893 168.0
176.446487 148.0
176.486984 164.0
176.530609 108.0
176.638412 152.0
176.751297 144.0
176.785156 268.0
176.90834 140.0
176.974518 148.0
176.998352 328.0
177.036133 120.0
177.05661 256.0
177.134232 164.0
177.166718 168.0
177.176544 152.0
177.201187 224.0
177.243484 104.0
177.265427 172.0
177.296585 140.0
177.499161 224.0
177.558899 124.0
177.581375 156.0
177.613205 192.0
177.639725 140.0
177.67392 280.0
177.721146 256.0
177.739349 160.0
177.769745 220.0
177.798935 164.0
177.963226 148.0
178.019791 220.0
178.111343 156.0
178.146103 148.0
178.204025 108.0
178.292435 160.0
178.317902 260.0
178.358459 132.0
178.386337 184.0
178.542801 200.0
178.730896 152.0
178.762299 204.0
178.877167 144.0
178.979218 192.0
179.007736 96.0
179.032166 100.0
179.070587 7952.0
179.135559 148.0
179.188309 180.0
179.322693 160.0
179.436951 292.0
179.57338 192.0
179.746902 144.0
179.797165 96.0
179.848312 164.0
179.926651 140.0
180.075607 1132.0
180.132401 108.0
180.204956 116.0
180.299774 132.0
180.369171 152.0
180.429855 200.0
180.534195 116.0
180.741516 180.0
180.819489 168.0
180.896561 128.0
180.932434 144.0
180.979568 204.0
181.001816 156.0
181.076172 248.0
181.120071 148.0
181.130112 184.0
181.176468 148.0
181.383316 120.0
181.448013 152.0
181.490448 348.0
181.496521 164.0
181.533813 172.0
181.577011 180.0
181.670609 200.0
181.743042 204.0
181.784485 244.0
181.806213 288.0
181.921448 204.0
181.995361 220.0
182.087921 340.0
182.145752 212.0
182.172943 128.0
182.210281 160.0
182.230759 188.0
182.260376 192.0
182.384323 152.0
182.43779 240.0
182.608002 212.0
182.74794 280.0
182.791611 176.0
182.858276 192.0
182.956818 224.0
182.991379 152.0
183.040298 196.0
183.073013 168.0
183.122894 120.0
183.161285 208.0
183.269348 160.0
183.356522 152.0
183.378387 180.0
183.433365 112.0
183.461655 164.0
183.550323 144.0
183.629807 128.0
183.701385 156.0
183.803452 128.0
184.067337 228.0
184.106964 192.0
184.178223 144.0
184.320984 196.0
184.372147 184.0
184.512146 136.0
184.610794 100.0
184.68338 152.0
184.757935 140.0
184.882584 172.0
184.908463 144.0
184.984329 164.0
185.020447 212.0
185.040527 180.0
185.088135 156.0
185.121353 464.0
185.266891 320.0
185.441238 128.0
185.488602 144.0
185.549316 168.0
185.619232 284.0
185.84166 176.0
185.867554 176.0
185.945969 164.0
186.000763 340.0
186.061432 296.0
186.093246 220.0
186.128296 2404.0
186.181763 264.0
186.230896 136.0
186.267883 140.0
186.293884 204.0
186.368408 172.0
186.432587 252.0
186.538834 152.0
186.591385 108.0
186.664688 148.0
186.996506 144.0
187.040146 176.0
187.132828 1244.0
187.198044 224.0
187.230728 188.0
187.257965 144.0
187.378006 116.0
187.440491 192.0
187.459564 180.0
187.634003 164.0
187.682327 336.0
187.750122 164.0
187.791077 184.0
188.007004 124.0
188.036957 156.0
188.142502 1948.0
188.196045 148.0
188.217896 160.0
188.270935 104.0
188.332596 168.0
188.353668 140.0
188.407379 128.0
188.439621 204.0
188.501984 140.0
188.523346 176.0
188.567566 140.0
188.750122 160.0
188.780807 176.0
188.863541 112.0
188.911194 176.0
188.951981 180.0
189.005127 196.0
189.05455 5236.0
189.09169 460.0
189.144913 156.0
189.19397 160.0
189.333618 144.0
189.369919 244.0
189.399353 200.0
189.436569 252.0
189.508926 144.0
189.547974 208.0
189.622742 176.0
189.697525 152.0
189.774017 152.0
189.831406 204.0
189.87616 116.0
189.942078 148.0
189.999695 208.0
190.056915 748.0
190.161591 140.0
190.288635 156.0
190.328278 128.0
190.362167 144.0
190.392822 192.0
190.454346 180.0
190.550659 176.0
190.59964 156.0
190.616486 224.0
190.658875 152.0
190.691666 200.0
190.729889 256.0
190.759018 112.0
190.822052 204.0
190.850876 316.0
190.961121 220.0
191.163757 164.0
191.40419 208.0
191.631317 164.0
191.745789 212.0
191.770508 160.0
191.883606 164.0
191.956451 152.0
192.005219 172.0
192.098892 320.0
192.167435 348.0
192.202347 136.0
192.305664 140.0
192.337723 180.0
192.389084 144.0
192.463013 156.0
192.509491 116.0
192.554153 156.0
192.580246 204.0
192.790039 212.0
192.82373 132.0
192.843369 108.0
192.966522 156.0
193.006134 120.0
193.051758 200.0
193.142868 144.0
193.306107 172.0
193.332642 156.0
193.494507 184.0
193.573898 316.0
193.647568 148.0
193.706039 256.0
193.730042 160.0
193.812836 140.0
193.903549 228.0
193.954178 208.0
194.005005 176.0
194.036682 184.0
194.077988 140.0
194.126068 152.0
194.150742 224.0
194.173218 264.0
194.192032 160.0
194.216492 152.0
194.254166 240.0
194.349243 200.0
194.508942 168.0
194.533859 168.0
194.754471 236.0
194.81517 192.0
194.885101 124.0
194.908813 176.0
194.951477 156.0
195.01355 168.0
195.135315 188.0
195.156113 160.0
195.180557 272.0
195.272614 232.0
195.306427 204.0
195.328674 168.0
195.392563 124.0
195.49469 276.0
195.540146 208.0
195.580948 436.0
195.614716 140.0
195.669205 196.0
195.719254 168.0
195.79071 168.0
195.819778 200.0
195.892685 104.0
195.932877 396.0
196.184753 344.0
196.242081 264.0
196.307632 196.0
196.33223 212.0
196.367615 148.0
196.389435 180.0
196.428986 216.0
196.495926 176.0
196.589233 128.0
196.654999 172.0
196.759766 128.0
196.825287 188.0
196.856003 144.0
196.879303 152.0
196.95134 180.0
196.976105 140.0
197.012421 140.0
197.031967 180.0
197.052063 148.0
197.09903 160.0
197.127762 268.0
197.183365 172.0
197.21817 216.0
197.27594 280.0
197.426086 156.0
197.459885 168.0
197.523422 140.0
197.595078 192.0
197.618103 136.0
197.694656 180.0
197.735977 172.0
197.891922 176.0
197.95253 228.0
198.029999 316.0
198.063583 140.0
198.128784 164.0
198.165878 124.0
198.273895 96.0
198.314819 164.0
198.356766 124.0
198.394882 196.0
198.523865 140.0
198.552109 172.0
198.596512 168.0
198.613007 224.0
198.693878 176.0
198.774124 152.0
198.797318 184.0
198.824036 196.0
198.861588 184.0
198.88298 140.0
198.905441 224.0
198.945221 140.0
198.986359 140.0
199.118027 156.0
199.205643 224.0
199.247253 216.0
199.354813 224.0
199.413834 204.0
199.503372 176.0
199.635925 152.0
199.80751 284.0
199.897552 272.0
200.057983 148.0
200.097229 136.0
200.144226 512.0
200.1875 156.0
200.23819 204.0
200.261414 296.0
200.361816 148.0
200.558884 128.0
200.641144 180.0
200.672928 160.0
200.733307 156.0
200.830643 172.0
200.914688 164.0
200.940094 168.0
200.987305 136.0
201.061417 176.0
201.14328 256.0
201.213852 216.0
201.236435 140.0
201.275223 152.0
201.339508 136.0
201.415802 132.0
201.436554 148.0
201.459641 208.0
201.521698 332.0
201.565781 248.0
201.635788 108.0
201.663239 140.0
201.695908 248.0
201.722351 204.0
201.795868 144.0
201.889984 140.0
201.942917 144.0
202.071274 276.0
202.159409 5204.0
202.253662 352.0
202.303574 156.0
202.382767 140.0
202.486328 164.0
202.525497 220.0
202.554306 152.0
202.619278 184.0
202.790237 220.0
202.830856 320.0
203.051147 124.0
203.164429 824.0
203.217819 172.0
203.245163 164.0
203.296616 132.0
203.495117 192.0
203.572495 196.0
203.613892 132.0
203.656647 184.0
203.791214 296.0
203.845917 156.0
203.870789 128.0
203.916458 164.0
204.084885 100.0
204.133698 140.0
204.163544 196.0
204.199127 120.0
204.270508 136.0
204.316864 168.0
204.402557 188.0
204.533463 180.0
204.591537 160.0
204.619568 148.0
204.641647 160.0
204.668228 120.0
204.713867 188.0
204.785065 176.0
204.910202 380.0
204.984909 228.0
205.043457 148.0
205.131378 164.0
205.250229 136.0
205.298477 112.0
205.407471 188.0
205.488144 312.0
205.536957 144.0
205.681915 400.0
205.743698 176.0
205.859207 148.0
205.884918 176.0
205.926712 168.0
205.975006 168.0
206.084213 156.0
206.16716 100.0
206.395645 116.0
206.544586 136.0
206.676743 156.0
206.724792 96.0
206.759735 148.0
206.814362 180.0
206.892487 164.0
206.927704 176.0
207.064667 1608.0
207.110748 196.0
207.250534 112.0
207.315308 256.0
207.441223 156.0
207.594513 112.0
207.639267 140.0
207.747055 180.0
207.794174 176.0
207.818344 200.0
207.940521 144.0
208.065094 144.0
208.167313 160.0
208.225327 140.0
208.268845 148.0
208.311157 144.0
208.348175 132.0
208.371246 172.0
208.424713 148.0
208.463196 208.0
208.610352 160.0
208.644272 140.0
208.681854 116.0
208.759216 160.0
208.834061 152.0
208.864746 132.0
208.89447 208.0
208.921188 264.0
209.022232 176.0
209.044632 208.0
209.118912 524.0
209.258026 220.0
209.285217 176.0
209.305862 168.0
209.544327 256.0
209.569916 144.0
209.639374 272.0
209.708542 144.0
209.744537 176.0
209.912354 232.0
209.948288 140.0
210.092575 312.0
210.166733 192.0
210.225586 140.0
210.251556 152.0
210.306152 140.0
210.381454 156.0
210.48407 148.0
210.560471 152.0
210.61824 152.0
210.674683 148.0
210.762695 168.0
210.885406 164.0
210.93866 180.0
210.98381 156.0
211.123734 120.0
211.178009 312.0
211.283112 168.0
211.335999 244.0
211.440689 132.0
211.46701 152.0
211.532104 208.0
211.564423 156.0
211.58699 256.0
211.693237 104.0
211.776688 280.0
211.802734 168.0
211.860535 344.0
211.888199 204.0
211.932037 268.0
211.954834 252.0
211.978012 188.0
212.013855 164.0
212.197479 220.0
212.233093 160.0
212.393143 192.0
212.500748 136.0
212.575378 160.0
212.723404 204.0
212.9142 152.0
212.965088 156.0
213.036118 152.0
213.144104 192.0
213.220093 160.0
213.260818 256.0
213.308517 180.0
213.332993 120.0
213.407425 188.0
213.577713 172.0
213.639297 140.0
213.704849 108.0
213.736557 192.0
213.769424 192.0
213.862854 200.0
213.900421 124.0
213.976868 144.0
214.019379 220.0
214.044785 148.0
214.098679 152.0
214.13945 156.0
214.161331 248.0
214.190216 160.0
214.246231 220.0
214.25795 208.0
214.481064 100.0
214.512421 148.0
214.542236 176.0
214.573639 160.0
214.632767 200.0
214.674042 156.0
214.808044 152.0
214.89325 144.0
214.942657 116.0
214.967407 164.0
215.03746 288.0
215.083328 112.0
215.139618 164.0
215.172775 180.0
215.455017 232.0
215.495926 144.0
215.554367 160.0
215.578613 108.0
215.610138 140.0
215.652802 188.0
215.726807 144.0
215.760498 124.0
215.794052 216.0
215.88504 200.0
215.99057 220.0
216.043488 124.0
216.210968 128.0
216.304901 272.0
216.370407 196.0
216.441818 144.0
216.477325 212.0
216.60762 168.0
216.637405 96.0
216.691055 108.0
216.736526 164.0
216.803925 188.0
216.914032 176.0
216.935822 148.0
216.968842 136.0
217.016388 108.0
217.053436 168.0
217.255463 172.0
217.278931 144.0
217.312927 152.0
217.346802 124.0
217.447601 208.0
217.478485 168.0
217.516647 152.0
217.719238 148.0
217.768494 160.0
217.80188 256.0
217.83107 164.0
217.910156 144.0
217.983215 204.0
218.027695 160.0
218.051208 200.0
218.083633 140.0
218.143555 116.0
218.170685 144.0
218.254333 164.0
218.34227 184.0
218.392273 148.0
218.418747 184.0
218.439331 176.0
218.509933 156.0
218.5354 296.0
218.663147 340.0
218.727661 192.0
218.833923 156.0
218.873032 460.0
218.903 156.0
218.941574 132.0
219.041351 140.0
219.100143 116.0
219.128784 152.0
219.180817 216.0
219.246078 152.0
219.511398 140.0
219.668091 128.0
219.731232 144.0
219.791626 184.0
219.819504 180.0
219.954697 172.0
220.084457 96.0
220.134293 156.0
220.234451 156.0
220.388077 220.0
220.547379 128.0
220.598892 156.0
220.631805 164.0
220.776321 124.0
220.832184 192.0
220.880035 168.0
220.904617 140.0
220.950745 116.0
221.003281 120.0
221.057587 240.0
221.110916 192.0
221.138306 220.0
221.212799 120.0
221.242966 156.0
221.272858 136.0
221.319565 152.0
221.430634 184.0
221.520615 104.0
221.559525 176.0
221.58992 276.0
221.618958 184.0
221.688263 272.0
221.753159 112.0
221.841873 112.0
222.060654 208.0
222.084381 204.0
222.150543 464.0
222.190216 160.0
222.252121 268.0
222.347824 96.0
222.36554 316.0
222.409149 168.0
222.458817 184.0
222.56218 164.0
222.630478 160.0
222.671249 360.0
222.721786 140.0
222.786331 144.0
222.826096 204.0
222.857315 184.0
222.885223 188.0
223.003098 180.0
223.0233 164.0
223.147507 172.0
223.16832 152.0
223.205032 156.0
223.270752 164.0
223.33783 172.0
223.366531 160.0
223.409225 364.0
223.63446 144.0
223.727371 172.0
223.815811 204.0
223.908691 204.0
223.955872 232.0
223.992981 116.0
224.050201 284.0
224.090988 144.0
224.125687 144.0
224.304245 100.0
224.463287 204.0
224.520569 144.0
224.593002 100.0
224.711136 164.0
224.767838 156.0
224.814499 124.0
225.012634 204.0
225.129501 128.0
225.26181 148.0
225.359039 140.0
225.424774 276.0
225.541336 152.0
225.575363 168.0
225.629745 160.0
225.728973 220.0
225.832825 132.0
225.901794 96.0
225.939407 172.0
225.966904 108.0
225.995911 140.0
226.072632 100.0
226.133316 156.0
226.172226 148.0
226.198441 148.0
226.238327 240.0
226.273865 184.0
226.319168 188.0
226.354324 280.0
226.424042 164.0
226.486679 196.0
226.514954 128.0
226.599655 148.0
226.639175 100.0
226.676956 136.0
226.738113 140.0
226.83577 164.0
226.866104 216.0
226.916565 264.0
226.970108 292.0
227.10733 160.0
227.18161 248.0
227.224426 108.0
227.298843 268.0
227.463318 212.0
227.512939 116.0
227.534225 224.0
227.543732 156.0
227.553787 248.0
227.614044 156.0
227.643356 152.0
227.745895 236.0
227.809189 156.0
227.875824 140.0
227.902863 196.0
227.954941 172.0
228.021591 236.0
228.095306 116.0
228.127106 144.0
228.175018 1384.0
228.223923 248.0
228.254135 116.0
228.265427 132.0
228.35379 192.0
228.392899 164.0
228.421524 300.0
228.45932 144.0
228.53511 284.0
228.598099 252.0
228.647507 96.0
228.685974 196.0
228.733353 328.0
228.79274 128.0
228.835709 360.0
228.907532 172.0
228.99675 160.0
229.036301 280.0
229.096527 212.0
229.137177 200.0
229.182892 524.0
229.223892 300.0
229.295807 276.0
229.324722 200.0
229.352524 108.0
229.389999 200.0
229.460449 280.0
229.488464 316.0
229.560806 124.0
229.629425 260.0
229.686111 360.0
229.720932 276.0
229.731018 420.0
229.768539 308.0
229.780609 124.0
229.790024 328.0
229.830078 304.0
229.881256 480.0
229.915375 388.0
229.946487 532.0
229.981796 440.0
230.019012 428.0
230.052521 532.0
230.07341 620.0
230.110428 844.0
230.118057 952.0
230.14595 1216.0
230.192734 370096.0
230.2957 396.0
230.39975 396.0
230.475327 720.0
230.507843 292.0
230.529602 420.0
230.560974 272.0
230.584991 528.0
230.652649 736.0
230.688644 16852.0
230.728989 572.0
230.777542 544.0
230.828888 404.0
230.892761 480.0
230.961288 316.0
231.011627 184.0
231.033768 736.0
231.080002 304.0
231.194763 181308.0
231.28215 332.0
231.365921 264.0
231.398514 320.0
231.437088 220.0
231.457642 352.0
231.479446 216.0
231.530991 132.0
231.539719 184.0
231.567017 100.0
231.63063 188.0
231.653061 220.0
231.69104 464.0
231.803772 140.0
231.888763 180.0
231.947037 160.0
231.968292 164.0
232.028992 260.0
232.079285 204.0
232.118622 196.0
232.158264 192.0
232.197479 11476.0
232.246292 248.0
232.306351 168.0
232.355042 340.0
232.385956 192.0
232.433609 256.0
232.460083 264.0
232.518982 156.0
232.57959 208.0
232.641647 416.0
232.707581 308.0
232.730011 332.0
232.763412 464.0
232.796646 428.0
232.83075 356.0
232.851746 468.0
232.899139 316.0
232.922897 280.0
232.971527 384.0
233.003891 300.0
233.027298 600.0
233.097733 284.0
233.122314 240.0
233.195801 496.0
233.230759 168.0
233.318283 112.0
233.350967 184.0
233.389313 164.0
233.444855 276.0
233.513412 148.0
233.556 156.0
233.639297 104.0
233.741211 216.0
233.779007 116.0
233.841858 120.0
233.853333 116.0
233.903168 188.0
233.964462 148.0
234.015121 152.0
234.05217 372.0
234.102753 276.0
234.279999 336.0
234.345367 112.0
234.597549 228.0
234.654739 184.0
234.696487 192.0
234.71553 176.0
234.786697 144.0
234.87114 140.0
234.93663 212.0
235.041779 136.0
235.092316 112.0
235.161972 192.0
235.220352 156.0
235.313004 184.0
235.375183 100.0
235.411362 116.0
235.476883 140.0
235.655853 164.0
235.71167 192.0
236.019501 232.0
236.135315 132.0
236.289566 188.0
236.391464 152.0
236.61171 168.0
236.755447 176.0
236.910706 112.0
237.036987 188.0
237.172043 136.0
237.217926 140.0
237.26239 148.0
237.355545 104.0
237.570572 172.0
237.592514 272.0
237.652985 196.0
237.734329 104.0
237.906799 180.0
237.947617 216.0
238.03714 128.0
238.146606 200.0
238.288528 160.0
238.411438 148.0
238.480927 104.0
238.587402 148.0
238.646057 124.0
238.752487 124.0
238.980316 184.0
239.368164 140.0
239.626892 168.0
239.840012 176.0
239.890915 172.0
239.994995 204.0
240.05484 220.0
240.144684 176.0
240.208206 196.0
240.246567 164.0
240.479874 224.0
240.53627 100.0
240.86557 164.0
240.98555 132.0
241.026489 120.0
241.305878 328.0
241.346222 172.0
241.880066 172.0
242.042923 136.0
242.08873 152.0
242.173248 128.0
242.224762 148.0
242.288208 120.0
242.35202 168.0
242.582886 108.0
242.635498 132.0
242.670578 252.0
242.707047 104.0
242.776321 132.0
242.979111 124.0
243.034531 108.0
243.162781 184.0
243.209564 116.0
243.447952 160.0
243.575775 148.0
243.615494 124.0
243.929382 184.0
243.998291 124.0
244.039703 228.0
244.12439 144.0
244.165756 160.0
244.235306 120.0
244.379547 208.0
244.405426 112.0
244.434967 108.0
244.708466 264.0
244.863251 124.0
244.915726 152.0
244.991318 148.0
245.084991 288.0
245.202682 112.0
245.282669 164.0
245.425995 148.0
245.443008 168.0
245.483093 248.0
245.536087 136.0
245.741776 132.0
245.876419 144.0
245.921478 160.0
245.966843 128.0
245.993896 148.0
246.107574 116.0
246.234329 220.0
246.439072 184.0
246.572464 128.0
246.932617 168.0
246.978195 212.0
247.181549 164.0
247.318878 100.0
247.441345 272.0
247.480728 124.0
247.665817 172.0
247.879852 160.0
247.954758 200.0
248.008347 212.0
248.072128 172.0
248.156067 260.0
248.460861 132.0
248.630585 112.0
248.682709 168.0
248.749374 116.0
248.792572 140.0
248.859222 208.0
248.927246 148.0
249.28569 172.0
249.656372 168.0
249.723419 136.0
249.7565 144.0
249.895706 128.0
249.920868 148.0
250.146927 232.0
250.199371 172.0
250.232468 160.0
250.263962 212.0
250.361572 192.0
250.416733 140.0
250.588364 180.0
250.763077 164.0
250.949219 288.0
251.223251 292.0
251.444916 172.0
251.499741 152.0
251.610229 144.0
251.711121 176.0
251.920898 132.0
251.979218 96.0
252.036606 156.0
252.07048 148.0
252.146011 220.0
252.187836 352.0
252.218338 96.0
252.476013 248.0
252.676071 136.0
252.777039 144.0
252.835358 136.0
252.91452 180.0
253.095078 120.0
253.327438 164.0
253.365463 204.0
253.423264 164.0
253.729919 180.0
253.793335 160.0
253.96933 112.0
254.156555 124.0
254.251709 120.0
254.329468 144.0
254.417374 116.0
254.507248 168.0
254.592987 184.0
254.678741 152.0
254.74498 164.0
254.812164 144.0
254.855728 112.0
255.088638 184.0
255.433914 104.0
255.527512 240.0
255.65715 140.0
255.902298 132.0
255.958038 184.0
256.401184 184.0
256.5383 124.0
256.685883 108.0
256.928741 256.0
256.95166 140.0
257.175934 112.0
257.470978 216.0
257.551086 200.0
257.970398 152.0
258.178223 244.0
258.207001 164.0
258.272919 184.0
258.31897 124.0
258.467102 160.0
258.645355 144.0
258.842865 104.0
258.876709 124.0
258.995636 140.0
259.258301 212.0
259.336151 240.0
259.418701 192.0
259.63147 184.0
259.689911 192.0
260.017609 148.0
260.052338 172.0
260.312592 200.0
260.3414 148.0
260.38208 96.0
260.572693 248.0
260.604828 168.0
260.841034 160.0
260.871552 172.0
261.070923 156.0
261.127472 184.0
261.176636 124.0
261.35321 152.0
261.545776 108.0
261.644287 120.0
261.817108 120.0
261.856384 160.0
262.288666 296.0
262.565002 116.0
262.654907 148.0
262.703918 140.0
262.781342 164.0
262.813599 160.0
262.874115 176.0
263.197357 152.0
263.275208 216.0
263.328339 124.0
263.439941 288.0
263.585327 256.0
263.636139 180.0
263.857178 116.0
263.927765 128.0
264.516785 188.0
264.620361 208.0
264.69809 192.0
264.723999 168.0
264.777527 144.0
264.893555 96.0
265.381409 132.0
265.536316 224.0
265.647034 116.0
265.70871 212.0
265.750793 360.0
265.877167 140.0
265.98056 176.0
266.04361 140.0
266.205322 152.0
266.234192 236.0
266.285492 96.0
266.325378 156.0
266.401672 232.0
266.521454 156.0
266.550293 152.0
266.593445 128.0
266.650421 244.0
266.826569 148.0
266.940369 156.0
267.297272 292.0
267.369232 116.0
267.42511 232.0
267.486969 140.0
267.678345 128.0
268.105804 168.0
268.154694 168.0
268.301361 188.0
268.447784 168.0
268.724457 132.0
268.780823 96.0
268.930939 144.0
269.030212 148.0
269.166016 176.0
269.401154 148.0
269.473022 188.0
269.606995 228.0
269.664673 100.0
269.750824 196.0
269.847137 140.0
269.954498 160.0
270.112152 168.0
270.378815 148.0
270.451935 128.0
270.589722 124.0
270.626953 160.0
270.869934 328.0
270.948669 136.0
271.034119 112.0
271.389099 116.0
271.789368 116.0
271.898865 124.0
271.965118 172.0
271.990082 176.0
272.405151 144.0
272.60556 160.0
272.648285 196.0
272.783997 152.0
272.931 172.0
272.966949 124.0
273.1297 124.0
273.30719 108.0
273.365204 180.0
273.464691 192.0
273.694366 200.0
273.845856 264.0
274.145081 280.0
274.309204 116.0
274.36261 180.0
274.513153 272.0
274.639435 124.0
274.724548 104.0
274.790009 196.0
274.876099 268.0
274.900818 152.0
274.93219 144.0
275.079041 144.0
275.181396 188.0
275.223816 128.0
275.495148 236.0
275.683472 308.0
275.752167 132.0
275.974365 160.0
276.009521 136.0
276.037201 164.0
276.110321 140.0
276.324951 144.0
276.414276 140.0
276.546661 108.0
276.753632 132.0
276.811859 120.0
276.856903 148.0
277.084442 220.0
277.340302 112.0
277.381378 296.0
277.50592 144.0
277.663208 156.0
278.204071 216.0
278.316956 156.0
278.355743 160.0
278.416565 160.0
278.456177 224.0
278.509552 144.0
279.094452 148.0
279.144348 200.0
279.167633 176.0
279.23349 148.0
279.294006 168.0
279.39798 172.0
279.46994 180.0
279.571594 148.0
279.671265 180.0
279.804932 116.0
279.967773 132.0
280.077393 148.0
280.396057 148.0
280.446075 156.0
280.469391 184.0
280.526062 184.0
280.599396 244.0
280.637421 148.0
280.666077 156.0
280.75174 128.0
280.816162 220.0
281.006317 272.0
281.119843 128.0
281.208923 144.0
281.34671 244.0
281.570984 144.0
281.653931 124.0
281.707672 148.0
281.907227 260.0
281.98877 172.0
282.168579 172.0
282.362518 168.0
282.544952 104.0
282.628754 184.0
282.653564 148.0
282.826874 148.0
282.884491 196.0
283.001678 324.0
283.218811 240.0
283.374603 176.0
283.669983 156.0
283.744934 124.0
283.787933 112.0
283.85611 212.0
283.934631 196.0
283.969147 124.0
284.089996 180.0
284.286682 272.0
284.341339 176.0
284.380432 180.0
285.438965 140.0
285.585693 236.0
285.694824 208.0
285.793091 120.0
285.934662 172.0
286.008606 116.0
286.072083 176.0
286.106659 260.0
286.185516 152.0
286.278992 160.0
286.303864 168.0
286.414246 152.0
286.456329 128.0
286.636047 160.0
286.797516 264.0
286.85321 148.0
286.939087 192.0
286.999451 136.0
287.382538 104.0
287.430023 236.0
287.475128 216.0
287.64447 268.0
287.830444 144.0
287.894165 168.0
288.228546 124.0
288.385376 152.0
288.458588 180.0
288.562225 296.0
288.597198 188.0
288.761475 124.0
288.806854 364.0
288.850403 164.0
288.975281 96.0
289.122833 112.0
289.290192 108.0
289.334747 148.0
289.378754 184.0
289.43512 156.0
289.484558 116.0
289.59549 168.0
289.653076 212.0
289.686951 140.0
289.742004 144.0
289.81427 116.0
289.861298 148.0
289.915649 128.0
290.069885 144.0
290.328003 120.0
290.388611 172.0
290.561615 156.0
290.588745 288.0
290.654968 240.0
291.108978 136.0
291.165802 180.0
291.210724 124.0
291.248169 192.0
291.306458 168.0
291.54834 196.0
291.695862 140.0
291.746857 140.0
291.789948 116.0
291.839569 104.0
291.887634 252.0
291.933105 204.0
292.029175 156.0
292.097321 340.0
292.154694 50132.0
292.258209 108.0
292.384644 128.0
292.504608 180.0
292.551025 144.0
292.589417 120.0
292.637573 152.0
292.720062 144.0
292.903839 144.0
292.939606 128.0
293.025055 152.0
293.110291 188.0
293.156952 6680.0
293.234344 204.0
293.421295 100.0
293.602875 136.0
293.681 176.0
293.746674 96.0
293.959686 120.0
294.040802 140.0
294.109436 120.0
294.159424 844.0
294.312347 128.0
294.473328 152.0
294.584808 108.0
294.824738 224.0
294.855774 132.0
295.117401 124.0
295.146057 268.0
295.20636 104.0
295.292389 204.0
295.429932 204.0
295.467285 120.0
295.638672 180.0
295.718597 168.0
295.903931 176.0
295.993042 116.0
296.059326 100.0
296.18277 156.0
296.218506 192.0
296.321655 172.0
296.385162 256.0
296.658081 208.0
296.79538 124.0
296.847931 192.0
297.066681 144.0
297.452637 128.0
297.511627 156.0
297.740173 208.0
297.866974 140.0
298.008118 160.0
298.161072 124.0
298.224945 324.0
298.353851 140.0
298.435242 236.0
298.785126 168.0
298.908997 164.0
298.93924 152.0
299.136261 232.0
299.262512 124.0
299.399292 196.0
299.464935 100.0
299.514923 228.0
299.652893 152.0
299.71048 152.0
299.971954 108.0
300.021484 212.0
300.061127 352.0
300.233185 204.0
300.53537 168.0
300.721741 144.0
300.849457 172.0
301.039337 148.0
301.109589 160.0
301.180939 184.0
301.317566 160.0
301.533356 208.0
301.677643 136.0
302.013977 164.0
302.316895 100.0
302.539948 152.0
302.739044 176.0
302.777802 144.0
302.856201 240.0
302.971008 168.0
303.029449 220.0
303.360046 176.0
303.458405 112.0
303.576813 144.0
303.697906 184.0
304.076752 236.0
304.203918 176.0
304.231689 192.0
304.343781 112.0
304.408783 148.0
304.62912 204.0
304.679321 152.0
304.808258 292.0
304.863861 188.0
305.040863 168.0
305.197571 200.0
305.247986 144.0
305.328003 152.0
305.853668 156.0
305.990845 300.0
306.030365 184.0
306.16275 172.0
306.433167 184.0
306.475189 128.0
306.565582 140.0
306.716553 256.0
307.147736 184.0
307.186188 144.0
307.256256 192.0
307.3078 140.0
307.957306 144.0
308.023987 228.0
308.175385 144.0
308.208923 140.0
308.548615 160.0
308.658813 148.0
309.151367 132.0
309.497772 196.0
309.620331 148.0
309.684937 224.0
309.727081 180.0
309.83905 136.0
310.027191 156.0
310.250916 108.0
310.596924 100.0
310.659912 144.0
310.691498 144.0
310.721161 140.0
310.746582 96.0
310.758667 132.0
310.943146 144.0
311.231995 148.0
311.256561 184.0
311.377014 188.0
311.415253 128.0
311.572662 148.0
311.682281 184.0
311.873413 200.0
311.908936 116.0
312.142059 164.0
312.353088 156.0
312.666473 132.0
312.722229 140.0
312.83429 172.0
312.963837 136.0
313.140747 196.0
313.520599 128.0
313.815582 200.0
313.856598 96.0
313.92691 204.0
313.952118 168.0
314.1073 168.0
314.281219 160.0
314.32605 176.0
314.359314 140.0
314.414459 148.0
314.618988 144.0
314.718475 204.0
314.801819 144.0
314.87677 148.0
315.254242 108.0
315.31839 188.0
315.356415 124.0
315.410278 168.0
315.482422 168.0
315.614044 152.0
315.937286 132.0
316.0896 100.0
316.278259 188.0
316.305206 160.0
316.495636 208.0
316.535339 264.0
316.684082 200.0
317.060242 164.0
317.165955 160.0
317.265228 140.0
317.293427 136.0
317.396149 160.0
317.431854 184.0
317.463776 192.0
317.642548 108.0
317.694336 152.0
317.739349 184.0
318.004578 188.0
318.081116 196.0
318.313965 152.0
318.379364 152.0
318.441528 288.0
318.497681 116.0
318.682983 128.0
318.733185 96.0
318.831787 120.0
319.012512 120.0
319.127075 124.0
319.232269 144.0
319.265411 156.0
319.301331 152.0
319.601074 164.0
319.719635 232.0
319.883362 152.0
319.990173 144.0
320.036438 168.0
320.150391 248.0
320.836945 240.0
321.087677 196.0
321.164276 144.0
321.276306 132.0
321.424164 140.0
321.476532 204.0
321.845612 132.0
321.899017 172.0
321.982666 160.0
322.1716 116.0
322.330719 176.0
322.508698 208.0
322.559631 144.0
322.590912 176.0
323.02359 160.0
323.227539 132.0
323.463745 152.0
323.608215 132.0
323.648987 108.0
323.850464 152.0
323.948547 168.0
324.180511 164.0
324.405853 148.0
324.44873 272.0
324.531342 148.0
324.617157 184.0
324.739349 120.0
324.778778 140.0
325.092834 132.0
325.295288 128.0
325.303772 120.0
325.369659 116.0
325.507324 176.0
325.563263 108.0
325.602386 172.0
325.670197 184.0
325.846924 96.0
325.87265 248.0
326.015442 96.0
326.391754 152.0
326.799255 220.0
327.00647 192.0
327.24765 148.0
327.28006 176.0
327.368561 132.0
327.465302 96.0
327.568176 152.0
327.769928 144.0
328.0979 140.0
328.324341 160.0
328.687164 140.0
328.732727 164.0
328.961517 268.0
329.008148 120.0
329.115356 164.0
329.144226 168.0
329.266541 208.0
329.741577 252.0
330.131378 160.0
330.257324 156.0
330.346405 224.0
330.532288 172.0
330.697937 172.0
330.75827 144.0
330.839233 176.0
330.901489 148.0
331.140472 164.0
331.17691 128.0
331.347839 128.0
331.437531 148.0
331.488251 356.0
331.555267 180.0
331.85437 192.0
332.016876 156.0
332.195251 200.0
332.244019 208.0
332.296844 156.0
332.394012 208.0
332.608948 144.0
332.779572 140.0
332.837646 176.0
332.866241 128.0
332.922729 132.0
332.975647 148.0
333.015594 172.0
333.134857 96.0
333.3078 112.0
333.389404 176.0
333.475159 232.0
333.568237 128.0
333.680603 196.0
333.773285 216.0
333.82605 148.0
333.927887 148.0
334.246613 104.0
334.420929 156.0
334.482819 148.0
334.803131 164.0
334.961609 196.0
335.041321 168.0
335.333252 148.0
335.460938 240.0
335.533752 172.0
335.56665 172.0
335.653809 108.0
335.761139 132.0
335.933624 96.0
336.291626 136.0
336.454163 152.0
336.527985 156.0
336.648773 184.0
336.847504 152.0
336.898468 164.0
336.970459 152.0
337.247406 172.0
337.334991 124.0
337.361053 128.0
337.482422 176.0
337.548462 136.0
337.624146 280.0
337.703827 172.0
337.77063 180.0
337.854248 112.0
338.045654 124.0
338.266327 216.0
338.326447 104.0
338.419006 140.0
338.631897 124.0
338.841278 188.0
339.044525 112.0
339.120453 216.0
339.262726 164.0
339.305603 324.0
339.515747 140.0
339.669861 168.0
339.780853 144.0
339.854889 132.0
339.919281 180.0
339.987152 152.0
340.480164 124.0
340.668274 140.0
340.699677 240.0
341.08075 168.0
341.24527 152.0
341.28833 156.0
341.46521 148.0
341.588928 116.0
341.608612 156.0
341.690277 200.0
341.895325 132.0
342.03418 124.0
342.174347 136.0
342.214569 152.0
342.254639 216.0
342.346161 108.0
342.415436 152.0
342.500153 156.0
342.53833 120.0
342.601959 124.0
342.667847 108.0
342.719818 108.0
342.839417 144.0
342.918854 196.0
343.006378 148.0
343.15097 148.0
343.205566 260.0
343.373352 196.0
343.466522 120.0
344.030487 148.0
344.247986 172.0
344.345459 144.0
344.421906 152.0
344.605042 120.0
344.702698 140.0
344.77124 180.0
344.855255 184.0
345.070343 180.0
345.279114 136.0
345.599304 140.0
345.79364 168.0
345.882477 152.0
345.95282 148.0
346.01947 104.0
346.151886 156.0
346.666992 148.0
346.771545 120.0
346.976959 224.0
347.021851 216.0
347.051575 160.0
347.631836 164.0
348.401611 124.0
348.529114 100.0
348.618469 128.0
348.742279 152.0
349.054565 160.0
349.225555 172.0
349.27597 120.0
349.317139 168.0
349.372681 188.0
349.432007 144.0
349.45993 116.0
349.538147 172.0
349.659912 244.0
349.746063 180.0
349.77771 120.0
349.865692 412.0
350.083252 164.0
350.193512 96.0
350.297668 164.0
350.372162 152.0
350.498047 152.0
350.657532 168.0
350.810791 252.0
350.902557 132.0
350.938934 180.0
350.988647 100.0
351.147491 160.0
351.563873 192.0
351.606293 168.0
351.91333 144.0
352.142181 148.0
352.968903 188.0
352.998077 152.0
353.149048 120.0
353.278015 100.0
353.543945 116.0
353.592346 180.0
353.725677 156.0
353.7742 128.0
353.935333 176.0
353.972778 260.0
354.141296 180.0
354.236816 96.0
354.326569 152.0
354.463593 248.0
354.790405 176.0
354.921844 184.0
354.973175 128.0
355.117371 104.0
355.238831 184.0
355.318359 168.0
355.37088 224.0
355.552704 120.0
355.606567 160.0
355.899353 180.0
356.036102 152.0
356.090485 132.0
356.480255 160.0
356.528473 160.0
356.688263 148.0
356.880798 236.0
356.963531 196.0
357.056427 176.0
357.093903 264.0
357.171692 128.0
357.217896 120.0
357.475128 156.0
357.530914 140.0
357.569183 148.0
357.694672 264.0
357.74234 140.0
357.843994 148.0
358.012604 172.0
358.336975 152.0
358.367523 140.0
358.790527 120.0
358.827484 112.0
359.151642 132.0
359.37146 144.0
359.476105 168.0
359.505096 136.0
359.56604 140.0
359.784363 180.0
359.836945 108.0
360.034088 124.0
360.14389 128.0
360.355469 108.0
360.401245 144.0
360.634857 132.0
360.71817 140.0
361.155823 120.0
361.21228 128.0
361.372955 168.0
361.428406 128.0
361.556183 112.0
361.581085 244.0
361.645416 160.0
361.709778 184.0
361.910431 156.0
361.996124 132.0
362.175507 128.0
362.23465 112.0
362.446503 332.0
362.482391 148.0
362.614716 96.0
362.721405 124.0
362.751495 152.0
362.829376 204.0
362.91449 144.0
363.011536 116.0
363.13446 152.0
363.214111 140.0
363.394257 104.0
363.492188 168.0
363.541016 120.0
363.603149 148.0
363.658051 148.0
363.688416 144.0
363.870605 160.0
363.986145 168.0
364.033905 196.0
364.114044 148.0
364.185364 104.0
364.346375 128.0
364.45575 136.0
364.56192 144.0
364.602051 124.0
364.630341 156.0
364.77478 176.0
364.821899 132.0
365.038025 132.0
365.18924 140.0
365.269104 156.0
365.314453 96.0
365.359528 140.0
365.798035 168.0
365.849121 232.0
365.895172 196.0
365.957947 172.0
366.082306 100.0
366.228333 148.0
366.30603 200.0
366.566711 120.0
366.86087 196.0
366.932892 152.0
366.973846 164.0
367.165894 144.0
367.224579 124.0
367.672638 180.0
367.760284 172.0
367.880524 264.0
367.952362 124.0
368.106476 128.0
368.141449 96.0
368.310211 160.0
368.439636 156.0
368.498444 276.0
368.745209 152.0
368.922058 152.0
369.100739 148.0
369.221649 100.0
369.255005 184.0
369.467133 148.0
369.644958 176.0
369.719971 136.0
369.909698 156.0
369.960114 308.0
370.00882 212.0
370.061829 384.0
370.117493 132.0
370.422424 140.0
370.545013 152.0
370.617065 104.0
370.763428 152.0
371.318085 112.0
371.539032 96.0
371.791077 108.0
372.030945 168.0
372.112671 124.0
372.167419 144.0
372.321014 152.0
372.362854 188.0
372.409973 184.0
372.525604 164.0
372.562988 196.0
372.597565 208.0
372.628052 124.0
372.790985 132.0
372.88739 104.0
372.91922 136.0
373.098846 124.0
373.233276 180.0
373.312866 132.0
373.39325 188.0
373.427765 124.0
373.604828 160.0
373.657318 200.0
373.693298 172.0
373.837189 172.0
373.962067 148.0
374.041138 208.0
374.207581 252.0
374.266266 140.0
374.444763 172.0
374.51712 140.0
374.667358 140.0
374.764099 188.0
374.806061 144.0
375.072174 176.0
375.204071 136.0
375.30957 148.0
375.415131 196.0
375.505035 152.0
375.59314 152.0
375.627258 192.0
375.737488 236.0
375.873566 280.0
376.051117 132.0
376.247192 180.0
376.331329 192.0
376.383698 180.0
376.501465 104.0
376.595428 104.0
376.642944 160.0
376.746765 188.0
376.996246 160.0
377.055817 232.0
377.176727 164.0
377.20932 108.0
377.434723 164.0
377.697693 192.0
377.779602 116.0
377.978333 140.0
378.007202 148.0
378.20459 96.0
378.578949 120.0
378.61499 216.0
378.66684 184.0
378.96283 100.0
379.120331 172.0
379.246521 156.0
379.503815 192.0
379.543274 152.0
379.614807 224.0
379.812622 156.0
379.875031 196.0
380.150146 164.0
380.180176 112.0
380.216125 140.0
380.288666 168.0
380.346069 176.0
380.526672 252.0
380.581024 168.0
380.626648 144.0
380.656494 292.0
380.765076 212.0
380.897186 204.0
381.190643 148.0
381.335846 132.0
381.422638 152.0
381.519989 160.0
381.584534 208.0
381.738861 148.0
381.958008 224.0
381.990479 156.0
382.104614 144.0
382.153137 136.0
382.212036 200.0
382.291382 164.0
382.4198 148.0
382.554901 152.0
382.699219 160.0
382.745422 280.0
382.820801 228.0
383.012604 148.0
383.5065 140.0
383.554962 120.0
383.967896 104.0
384.056366 180.0
384.133026 296.0
384.175171 140.0
384.39209 344.0
384.488312 120.0
384.563507 156.0
384.696198 176.0
384.759857 200.0
384.887512 164.0
384.936279 148.0
384.989685 208.0
385.076782 172.0
385.199371 132.0
385.477814 104.0
385.51709 192.0
385.590698 188.0
385.691528 572.0
385.743805 116.0
385.791168 96.0
385.918915 124.0
386.044189 148.0
386.390076 120.0
386.443176 148.0
386.591858 272.0
386.759399 148.0
386.926086 248.0
386.95462 300.0
387.005096 152.0
387.088593 116.0
387.330383 260.0
387.383636 124.0
387.596832 224.0
387.715149 144.0
387.972748 116.0
388.005859 176.0
388.110321 124.0
388.450531 208.0
388.547089 184.0
388.621277 140.0
388.970795 112.0
389.086975 120.0
389.26004 168.0
389.63092 120.0
389.756378 208.0
389.965424 164.0
390.107269 172.0
390.282684 120.0
390.344208 128.0
390.432526 144.0
390.684265 160.0
390.729523 132.0
390.792847 192.0
390.895844 164.0
391.079956 280.0
391.177338 132.0
391.215515 140.0
391.373016 152.0
391.51236 144.0
391.569916 200.0
391.60498 168.0
391.657257 136.0
391.692017 156.0
391.845642 152.0
391.873474 128.0
392.145142 144.0
392.266479 132.0
392.542969 140.0
392.680359 192.0
392.723541 200.0
392.843964 192.0
392.898285 168.0
393.030121 192.0
393.17276 316.0
393.251068 180.0
393.434998 144.0
393.553192 164.0
393.592926 268.0
393.630798 156.0
393.739746 112.0
393.878052 148.0
394.435394 116.0
394.601105 160.0
394.729584 148.0
394.86261 124.0
394.92981 228.0
395.03656 152.0
395.122528 196.0
395.197998 112.0
395.504425 184.0
395.52002 208.0
395.634399 168.0
395.829102 132.0
395.911224 164.0
396.07074 144.0
396.176544 144.0
396.298431 172.0
396.415314 128.0
396.478516 152.0
396.781952 252.0
396.896942 184.0
396.94931 136.0
396.998749 148.0
397.055328 120.0
397.168121 236.0
397.235321 204.0
397.608917 96.0
397.678467 156.0
397.833282 160.0
397.88092 148.0
398.055634 168.0
398.097168 200.0
398.162842 148.0
398.307404 152.0
398.397186 196.0
398.516937 116.0
398.589813 124.0
398.68222 196.0
398.716461 196.0
398.756897 176.0
398.795319 188.0
398.839508 144.0
399.003204 148.0
399.189606 180.0
399.224274 96.0
399.277405 208.0
399.343231 168.0
399.418823 148.0
399.453186 176.0
399.551575 156.0
399.689362 164.0
399.729156 196.0
399.783386 252.0
399.934113 120.0
400.166107 108.0
400.362427 140.0
400.569214 180.0
400.642029 152.0
400.782562 108.0
401.38623 168.0
401.414154 132.0
401.458008 196.0
401.485931 172.0
401.525818 144.0
401.63559 160.0
401.957214 116.0
402.074677 312.0
402.161346 180.0
402.544586 156.0
402.576385 108.0
402.605377 124.0
402.716522 180.0
402.816986 156.0
402.901764 136.0
402.939331 108.0
403.111908 132.0
403.39447 128.0
403.44809 96.0
403.524841 220.0
403.580627 100.0
403.782318 172.0
403.837372 164.0
404.030853 96.0
404.2099 100.0
404.286407 168.0
404.386444 176.0
404.590607 180.0
404.809601 132.0
404.845398 232.0
405.043396 108.0
405.176971 144.0
405.246216 212.0
405.283325 100.0
405.33313 156.0
405.365173 124.0
405.399353 132.0
405.562164 136.0
405.930939 168.0
406.026215 220.0
406.113342 180.0
406.149414 164.0
406.262787 156.0
406.361786 140.0
406.48642 144.0
406.855682 144.0
406.935974 152.0
407.257263 116.0
407.322723 132.0
407.594574 152.0
407.65741 324.0
407.751434 172.0
407.949371 148.0
408.000641 152.0
408.347412 104.0
408.418854 140.0
408.672699 128.0
408.738586 156.0
408.801086 384.0
409.198792 184.0
409.349823 152.0
409.419739 148.0
409.549927 144.0
409.578979 276.0
409.645264 108.0
410.077728 348.0
410.395081 144.0
410.445099 128.0
410.522797 136.0
410.630096 160.0
410.717438 172.0
410.802643 152.0
410.847443 200.0
411.10907 144.0
411.189423 124.0
411.317566 156.0
411.352356 148.0
411.520355 184.0
411.548706 148.0
411.660126 124.0
411.740479 368.0
411.968658 200.0
412.019287 108.0
412.055786 152.0
412.172028 180.0
412.355255 116.0
412.445221 152.0
412.506073 112.0
412.588531 144.0
412.623932 180.0
412.717896 156.0
412.841644 180.0
412.874115 292.0
412.952454 144.0
413.1539 140.0
413.196442 100.0
413.320587 216.0
413.369141 148.0
413.470306 160.0
413.567444 168.0
413.636261 148.0
413.718628 128.0
413.753479 252.0
413.847504 328.0
413.91156 228.0
413.984467 144.0
414.167358 172.0
414.271698 144.0
414.319794 196.0
414.492615 180.0
414.651398 140.0
414.823151 156.0
414.865479 128.0
414.900177 244.0
415.082886 128.0
415.123596 120.0
415.197876 200.0
415.31485 160.0
415.390869 156.0
415.467651 224.0
415.594574 96.0
415.773193 160.0
415.869659 148.0
415.924316 144.0
415.96756 104.0
416.040161 200.0
416.403107 156.0
416.707062 116.0
416.768188 256.0
416.83783 132.0
417.179443 136.0
417.250153 96.0
417.551727 152.0
417.742889 144.0
418.024994 192.0
418.174408 292.0
418.363861 140.0
418.650696 104.0
418.708771 148.0
418.781586 136.0
418.867981 144.0
418.908752 172.0
418.978058 112.0
419.061951 168.0
419.242828 184.0
419.29715 156.0
419.408356 292.0
419.47403 140.0
419.628479 140.0
420.248444 204.0
420.32019 160.0
420.38092 276.0
420.417877 152.0
420.654358 148.0
420.881104 148.0
420.977478 132.0
421.023224 208.0
421.085297 176.0
421.154205 196.0
421.214417 104.0
421.260925 192.0
421.338104 212.0
421.428436 148.0
421.48764 220.0
421.599762 116.0
421.651855 144.0
421.722656 144.0
421.771698 168.0
421.890259 140.0
421.960907 128.0
422.021088 140.0
422.166748 180.0
422.264038 116.0
422.307343 168.0
422.377441 148.0
422.526825 104.0
422.626556 120.0
422.79422 236.0
422.896301 136.0
423.07663 196.0
423.10791 244.0
423.238983 160.0
423.363251 140.0
423.479828 144.0
423.527466 128.0
423.621613 152.0
423.686829 204.0
423.727814 140.0
423.965485 148.0
424.009186 132.0
424.094788 160.0
424.37616 104.0
424.698608 132.0
424.741638 116.0
424.839874 156.0
424.975922 136.0
425.035767 216.0
425.221985 144.0
425.332733 164.0
425.461273 148.0
425.643799 156.0
425.6828 160.0
425.743805 140.0
425.809998 240.0
425.904236 156.0
425.962006 224.0
426.051239 144.0
426.080841 112.0
426.250885 104.0
426.312836 160.0
426.398438 204.0
426.473145 284.0
426.825897 184.0
426.970703 168.0
427.151581 96.0
427.19339 144.0
427.320251 152.0
427.419006 168.0
427.489777 96.0
427.649017 144.0
427.930786 112.0
428.332977 192.0
428.440308 152.0
428.557617 172.0
428.675903 176.0
428.897491 172.0
429.028015 152.0
429.183624 140.0
429.257812 152.0
429.417023 168.0
429.555084 180.0
429.582001 332.0
429.679352 216.0
429.777924 200.0
429.84436 160.0
430.030701 152.0
430.12027 180.0
430.162842 180.0
430.3414 152.0
430.531342 308.0
430.588318 104.0
430.813049 136.0
431.005737 252.0
431.262238 256.0
431.376282 96.0
431.486603 152.0
431.654236 104.0
431.696136 264.0
431.822083 128.0
431.911926 112.0
432.000214 136.0
432.035889 140.0
432.135162 148.0
432.201385 208.0
432.266083 144.0
432.553162 164.0
432.675476 124.0
432.765442 144.0
432.827026 216.0
432.865601 128.0
432.910919 116.0
433.086609 316.0
433.159882 108.0
433.207825 248.0
433.272644 156.0
433.381439 140.0
433.479279 256.0
433.54361 172.0
433.731445 104.0
434.264282 124.0
434.531525 144.0
434.720795 160.0
434.796234 264.0
434.980499 132.0
435.071198 200.0
435.148621 116.0
435.479645 112.0
435.50415 280.0
435.646698 216.0
435.730591 144.0
435.971252 148.0
436.055145 268.0
436.163361 144.0
436.220154 152.0
436.249268 196.0
436.302002 152.0
436.850006 128.0
436.914642 244.0
437.115631 156.0
437.209656 156.0
437.357727 160.0
437.669586 132.0
437.715912 148.0
437.755432 144.0
437.926483 276.0
438.045624 248.0
438.123993 236.0
438.156586 156.0
438.256104 164.0
438.430298 140.0
438.611633 124.0
438.715302 128.0
439.043121 192.0
439.103546 140.0
439.138428 108.0
439.148438 160.0
439.235291 108.0
439.506165 224.0
439.691803 124.0
439.825073 116.0
439.931854 180.0
439.993622 156.0
440.060089 224.0
440.131104 156.0
440.635712 132.0
440.754639 172.0
441.08606 268.0
441.252014 216.0
441.288788 220.0
441.407104 120.0
441.487305 108.0
441.657959 116.0
441.80307 152.0
441.863983 112.0
442.048615 200.0
442.300659 300.0
442.386871 120.0
442.516754 100.0
442.59436 112.0
442.666473 180.0
442.809143 256.0
443.058197 280.0
443.153992 176.0
443.326965 124.0
443.468964 176.0
443.525574 124.0
443.700653 116.0
443.755371 180.0
444.061829 172.0
444.128967 292.0
444.200256 184.0
444.288361 148.0
444.35968 152.0
444.414734 96.0
444.451874 140.0
444.519135 208.0
444.595856 160.0
444.644379 104.0
444.711548 132.0
444.854889 100.0
444.947235 140.0
445.076874 156.0
445.178406 112.0
445.256805 100.0
445.542603 128.0
445.590302 140.0
445.631836 152.0
445.703979 164.0
445.736877 240.0
445.778137 156.0
445.858765 148.0
445.892365 180.0
445.962341 396.0
446.010071 168.0
446.050323 484.0
446.098694 276.0
446.203308 128.0
446.307983 148.0
446.436737 136.0
446.498199 160.0
446.546906 176.0
446.719421 124.0
446.814209 188.0
446.860535 156.0
446.893188 280.0
446.964722 144.0
447.13623 196.0
447.161774 248.0
447.379852 164.0
447.40625 168.0
447.491455 168.0
447.53717 160.0
447.583405 228.0
447.660858 144.0
447.739532 116.0
447.815125 164.0
447.862244 256.0
447.9935 176.0
448.046783 140.0
448.116119 120.0
448.232178 180.0
448.33017 96.0
448.508728 104.0
448.582001 140.0
448.628113 148.0
448.71167 148.0
448.801849 156.0
448.86557 120.0
448.954346 180.0
449.091644 252.0
449.137329 184.0
449.17157 208.0
449.238464 152.0
449.31366 112.0
449.345306 264.0
449.435425 180.0
449.505219 264.0
449.541748 192.0
449.583893 112.0
449.720673 172.0
449.742981 240.0
449.846588 204.0
450.063965 108.0
450.097198 316.0
450.177246 224.0
450.252289 148.0
450.383179 280.0
450.420471 264.0
450.456787 152.0
450.552216 116.0
450.578156 560.0
450.681274 276.0
450.744537 272.0
450.803009 204.0
450.853546 188.0
450.88559 168.0
450.932098 176.0
450.982544 188.0
451.016876 284.0
451.069733 308.0
451.106537 336.0
451.187866 304.0
451.242859 292.0
451.324799 204.0
451.391541 220.0
451.428925 276.0
451.475372 224.0
451.518982 372.0
451.566925 208.0
451.578888 264.0
451.672699 336.0
451.704681 356.0
451.781891 404.0
451.835541 156.0
451.904846 276.0
451.952087 360.0
451.968872 432.0
451.986237 228.0
452.055664 520.0
452.087952 448.0
452.127197 476.0
452.200836 772.0
452.217987 584.0
452.26416 460.0
452.296692 360.0
452.315277 340.0
452.392151 596.0
452.41275 504.0
452.423431 568.0
452.453217 608.0
452.506042 484.0
452.573975 328.0
452.590057 664.0
452.651917 628.0
452.700043 680.0
452.728577 768.0
452.776764 324.0
452.831421 600.0
452.872131 772.0
452.911713 436.0
452.955048 992.0
452.98288 748.0
453.04248 564.0
453.090454 392.0
453.13443 1056.0
453.179779 1836.0
453.215637 2220.0
453.276703 243000.0
453.430725 172.0
453.569031 864.0
453.668976 2864.0
453.740845 860.0
453.802307 1156.0
453.918579 968.0
453.98587 25632.0
454.086914 564.0
454.144073 320.0
454.203278 516.0
454.280334 221876.0
454.421722 184.0
454.564178 220.0
454.640717 632.0
454.690125 944.0
454.984406 2772.0
455.090698 384.0
455.281891 59356.0
455.393494 204.0
455.435608 188.0
455.571411 156.0
455.682587 396.0
455.760071 224.0
455.922058 136.0
456.016296 244.0
456.085632 300.0
456.179077 232.0
456.284912 4932.0
456.364166 328.0
456.436066 384.0
456.491943 148.0
456.551453 188.0
456.583466 232.0
456.656433 260.0
456.69928 220.0
456.712585 480.0
456.764496 424.0
456.825012 396.0
456.862732 352.0
456.897766 372.0
456.915771 328.0
456.930115 308.0
456.985962 528.0
457.02243 328.0
457.059387 588.0
457.112244 740.0
457.210419 368.0
457.277649 416.0
457.31369 492.0
457.37381 376.0
457.504059 160.0
457.633026 212.0
457.719635 100.0
457.805389 184.0
457.878998 228.0
457.963379 224.0
458.012268 108.0
458.043762 116.0
458.058441 144.0
458.139618 352.0
458.195221 188.0
458.228699 208.0
458.30722 256.0
458.414001 148.0
458.608978 160.0
458.916046 248.0
458.976593 100.0
459.042938 220.0
459.28775 100.0
459.367035 216.0
459.413422 176.0
459.502808 100.0
459.589966 140.0
459.743958 132.0
459.908722 152.0
460.10376 148.0
460.400085 188.0
460.667084 104.0
460.733948 96.0
460.798767 116.0
462.556213 116.0
464.240723 112.0
465.249115 188.0
466.188873 176.0
467.281036 144.0
467.573059 96.0
468.57135 172.0
469.142944 108.0
469.324524 148.0
469.53833 112.0
469.657288 96.0
469.797241 152.0
470.166199 100.0
470.878998 108.0
471.094727 120.0
471.239349 112.0
473.320038 164.0
475.312286 108.0
475.565735 132.0
476.966949 124.0
478.005127 144.0
478.733307 116.0
479.322693 140.0
484.656677 184.0
491.872406 176.0
498.156036 168.0
500.410828 192.0
506.793396 144.0
509.624603 152.0
517.766907 144.0
519.854736 156.0
549.27301 176.0
554.252075 168.0
566.148438 148.0
580.280945 108.0
587.109802 132.0
607.491272 124.0
611.168396 180.0
633.796814 116.0
650.34613 120.0
653.846741 112.0
665.994385 264.0
704.96344 116.0
705.006653 104.0
709.169434 140.0
709.479004 124.0
736.00769 112.0
740.765442 112.0
763.013916 160.0
790.998535 100.0
802.142273 124.0
852.508179 140.0
853.87439 140.0
885.557312 172.0
894.088928 144.0
1019.940613 96.0
1026.058716 140.0
1039.606323 148.0
1043.807495 188.0
1086.741943 196.0
1102.244629 144.0
1105.895142 176.0
1108.804932 128.0
1117.554932 156.0
1137.121582 172.0
1138.296387 148.0
1165.253906 164.0
1209.681763 168.0
1219.364746 144.0
1231.494873 144.0
1235.319092 120.0
1237.809937 164.0
1244.071045 156.0
1251.903687 160.0
1252.417847 172.0
1264.031372 208.0
1272.089844 148.0
1276.203369 256.0
1277.120728 140.0
1290.113037 140.0
1292.108398 208.0
1294.692383 140.0
1298.003174 168.0
1298.34729 248.0
1300.758179 140.0
1310.200317 240.0
1321.340088 140.0
1324.722778 140.0
1328.464355 100.0
1340.902588 212.0
1341.20874 144.0
1341.762817 212.0
1343.25769 172.0
1352.933105 248.0
1357.057983 172.0
1357.94519 156.0
1358.289917 152.0
1362.19519 156.0
1369.305298 152.0
1370.89917 144.0
1374.106689 184.0
1374.187866 228.0
1381.265137 168.0
1384.90686 160.0
1386.744385 152.0
1394.277466 164.0
1395.637939 176.0
1399.298584 176.0
1406.156494 156.0
1409.407349 116.0
1411.124023 168.0
1416.579834 140.0
1416.692139 164.0
1423.344727 152.0
1425.87793 196.0
1431.54126 168.0
1433.484741 140.0
1437.602173 188.0
1440.584595 176.0
1440.833862 188.0
1447.111206 148.0
1447.171875 180.0
1449.497192 144.0
1450.709839 152.0
1456.051636 160.0
1459.752563 160.0
1460.847778 164.0
1463.311035 144.0
1463.922729 172.0
1464.636841 152.0
1468.053101 232.0
1475.222534 216.0
1476.27002 168.0
1480.241699 160.0
1480.861938 176.0
1481.313843 140.0
1485.238525 172.0
1485.361328 184.0
1489.560181 176.0
1490.766357 152.0
1494.141846 192.0
1495.349976 272.0
1496.004272 148.0
1496.073608 204.0
1503.017822 176.0
1503.442261 144.0
1505.600464 120.0
1506.244995 164.0
1506.43811 164.0
1507.882935 192.0
1512.036133 144.0
1516.153564 176.0
1520.289795 192.0
1523.302246 188.0
1527.34436 160.0
1527.974487 148.0
1534.32959 184.0
1539.955811 172.0
1540.776001 164.0
1543.151855 168.0
1544.14502 196.0
1546.296509 144.0
1551.019531 140.0
1552.250366 184.0
1556.08728 148.0
1556.723267 204.0
1557.760132 148.0
1558.718628 152.0
1561.124023 164.0
1561.206909 172.0
1561.437012 180.0
1562.351074 152.0
1563.248047 148.0
1564.916748 216.0
1565.302612 172.0
1565.908936 160.0
1566.436768 188.0
1569.951904 156.0
1572.729126 240.0
1572.926392 144.0
1574.718872 148.0
1575.382324 140.0
1577.189819 152.0
1577.286743 140.0
1579.408936 124.0
1579.761841 144.0
1580.307739 160.0
1581.225708 184.0
1581.558105 140.0
1581.716431 184.0
1582.080566 140.0
1583.471069 128.0
1583.640503 232.0
1583.949341 176.0
1584.21875 168.0
1584.990601 144.0
1586.04126 204.0
1589.538818 228.0
1589.911743 176.0
1590.419678 188.0
1591.14209 148.0
1591.864624 180.0
1592.269653 176.0
1596.163574 140.0
1599.409546 168.0
1600.107422 188.0
1600.918701 140.0
1601.655029 188.0
1605.576416 192.0
1608.799927 196.0
1608.975586 164.0
1609.135254 164.0
1610.612671 140.0
1611.42749 200.0
1615.434937 180.0
1618.137817 184.0
1620.196045 148.0
1621.109497 144.0
1623.64502 152.0
1623.739014 148.0
1625.937256 164.0
1626.816284 192.0
1627.550781 160.0
1628.193237 144.0
1629.582886 144.0
1630.000732 148.0
1630.539062 232.0
1631.90564 180.0
1632.854492 156.0
1633.536987 160.0
1634.519775 232.0
1636.084473 160.0
1637.961304 156.0
1643.108765 144.0
1646.264893 152.0
1646.789795 148.0
1647.330933 176.0
1647.621826 176.0
1648.203491 152.0
1648.470215 180.0
1652.715454 160.0
1654.890137 228.0
1655.823975 192.0
1656.374756 212.0
1656.504395 192.0
1656.998535 188.0
1658.060059 204.0
1660.500366 224.0
1660.597656 260.0
1661.368286 188.0
1661.944336 192.0
1664.989258 152.0
1666.158081 152.0
1666.669922 184.0
1666.767456 192.0
1668.864624 140.0
1669.637085 148.0
1673.58374 204.0
1674.202637 148.0
1678.717285 156.0
1680.462891 156.0
1681.654297 160.0
1684.136475 208.0
1684.209961 160.0
1684.691895 176.0
1685.394531 148.0
1686.563232 144.0
1687.683228 144.0
1690.300659 216.0
1692.003174 196.0
1692.273315 156.0
1694.569702 128.0
1694.779663 144.0
1696.853271 180.0
1697.902832 160.0
1698.271973 204.0
1698.345703 160.0
1698.919922 152.0
1699.518921 156.0
1700.126099 156.0
1702.523315 176.0
1702.769653 160.0
1702.966797 216.0
1703.254272 140.0
1703.525391 204.0
1703.989258 172.0
1704.157959 140.0
1705.768677 176.0
1707.150024 148.0
1707.256958 184.0
1707.914917 144.0
1708.186279 144.0
1708.359009 184.0
1709.050171 140.0
1709.214722 160.0
1709.906006 256.0
1712.268799 148.0
1713.413818 212.0
1716.545898 164.0
1717.566284 196.0
1718.773071 160.0
1719.499268 140.0
1719.903687 144.0
1721.018188 144.0
1721.19165 152.0
1721.24939 144.0
1721.860596 152.0
1726.496826 180.0
1726.935181 184.0
1728.622925 140.0
1729.996826 248.0
1730.104492 172.0
1730.290039 180.0
1730.352905 148.0
1730.617798 156.0
1731.669434 140.0
1735.365356 196.0
1737.065552 156.0
1737.803833 180.0
1738.944214 148.0
1740.999634 160.0
1742.170166 148.0
1744.298218 164.0
1745.104614 144.0
1745.337402 148.0
1745.412231 164.0
1747.591553 172.0
1748.773193 160.0
1749.197754 168.0
1750.588135 188.0
1751.545898 144.0
1754.720947 208.0
1756.855957 176.0
1757.840576 160.0
1759.042358 140.0
1759.843872 168.0
1760.428345 168.0
1760.486816 160.0
1760.929443 156.0
1761.146606 148.0
1761.380493 208.0
1761.789795 156.0
1762.274414 192.0
1764.071167 144.0
1765.659912 156.0
1766.14502 184.0
1766.220215 220.0
1766.328979 156.0
1766.998291 224.0
1767.332886 236.0
1768.411011 116.0
1768.939819 216.0
1771.30957 148.0
1771.410034 240.0
1772.172485 180.0
1773.890503 156.0
1774.041382 224.0
1775.055908 152.0
1777.387817 168.0
1779.805298 196.0
1779.921387 172.0
1780.309082 144.0
1780.586182 188.0
1781.342163 164.0
1781.711792 180.0
1781.77063 344.0
1782.241089 220.0
1782.963867 184.0
1783.291016 168.0
1783.728638 208.0
1785.208374 140.0
1786.099976 144.0
1786.806519 156.0
1788.526733 128.0
1788.826294 184.0
1790.779785 168.0
1792.473145 192.0
1793.273804 180.0
1793.484863 152.0
1793.560303 140.0
1794.445435 184.0
1794.978149 180.0
1796.19043 144.0
1797.608521 216.0
1798.292114 148.0
1798.984253 172.0
1799.271362 152.0
1800.875732 176.0
1802.835815 172.0
1803.917725 144.0
1804.205078 188.0
1804.413086 168.0
1805.845581 180.0
1807.258301 192.0
1807.330933 96.0
1808.206909 128.0
1808.502319 196.0
1809.210327 188.0
1809.619751 156.0
1810.40271 172.0
1810.94873 164.0
1811.144165 140.0
1811.296631 152.0
1812.143799 352.0
1812.402466 160.0
1812.847046 176.0
1813.630859 160.0
1814.923828 184.0
1815.01709 144.0
1815.162476 144.0
1816.054199 164.0
1816.900024 168.0
1817.400635 196.0
1818.911255 172.0
1820.380005 196.0
1821.517456 172.0
1821.891846 224.0
1823.117188 172.0
1823.77832 140.0
1823.854858 192.0
1825.682739 164.0
1827.052246 176.0
1827.800903 148.0
1828.762573 188.0
1828.86853 152.0
1829.239258 228.0
1829.69043 152.0
1829.801147 148.0
1829.970947 180.0
1830.073608 160.0
1830.150269 188.0
1830.627075 140.0
1832.100586 140.0
1832.253174 184.0
1832.381714 180.0
1833.970459 196.0
1838.085938 208.0
1838.507202 100.0
1839.613647 140.0
1840.740723 140.0
1841.176147 168.0
1841.996094 140.0
1844.796997 180.0
1845.431641 168.0
1846.503174 148.0
1846.774292 172.0
1847.244751 172.0
1847.458618 140.0
1848.913208 192.0
1849.238403 288.0
1849.375366 172.0
1850.212891 224.0
1850.569092 164.0
1851.884033 180.0
1852.646484 220.0
1853.468994 152.0
1854.531616 148.0
1855.205078 168.0
1855.483154 164.0
1856.803711 140.0
1856.99231 184.0
1857.601318 140.0
1858.03894 180.0
1858.244751 144.0
1858.871216 196.0
1859.008423 168.0
1859.068481 192.0
1859.210571 116.0
1860.613525 244.0
1861.128662 168.0
1861.911621 144.0
1862.056152 168.0
1862.124878 144.0
1862.330933 176.0
1862.820557 192.0
1862.939575 180.0
1863.561279 168.0
1864.793701 140.0
1865.534058 212.0
1867.22998 160.0
1868.649414 176.0
1869.025391 200.0
1869.191406 164.0
1870.189697 152.0
1870.847168 240.0
1871.446655 180.0
1871.747925 164.0
1872.70752 132.0
1875.633545 140.0
1876.719727 184.0
1876.793945 316.0
1877.297485 164.0
1877.944336 156.0
1878.297974 208.0
1879.134766 144.0
1879.482544 204.0
1879.980347 156.0
1880.170288 248.0
1880.475464 184.0
1880.903809 160.0
1881.007446 160.0
1881.801636 152.0
1882.08667 164.0
1882.526978 192.0
1883.759766 176.0
1884.651978 172.0
1885.282715 152.0
1885.567993 140.0
1886.051514 160.0
1887.158569 172.0
1888.376709 184.0
1888.723877 148.0
1889.943604 148.0
1890.627319 164.0
1891.137939 152.0
1892.557617 172.0
1893.105591 184.0
1893.849487 188.0
1894.497681 152.0
1895.312012 164.0
1895.869629 224.0
1896.040039 168.0
1896.576294 156.0
1898.528076 240.0
1900.098145 168.0
1900.384399 176.0
1900.509521 200.0
1900.748779 168.0
1901.08728 180.0
1901.48645 184.0
1902.033325 184.0
1903.926025 144.0
1904.141968 228.0
1904.264771 164.0
1904.681641 192.0
1905.950073 164.0
1907.184204 148.0
1907.297363 148.0
1907.401489 160.0
1907.775269 156.0
1907.923096 180.0
1908.7229 156.0
1909.096802 160.0
1910.458252 168.0
1912.072144 220.0
1912.263672 200.0
1913.10791 140.0
1914.300781 152.0
1914.361816 156.0
1916.051514 192.0
1916.182251 160.0
1916.434937 152.0
1917.245239 204.0
1919.14563 148.0
1920.528198 156.0
1920.685669 148.0
1921.252075 144.0
1922.355591 152.0
1923.472778 164.0
1924.040161 148.0
1924.363281 180.0
1924.909424 176.0
1925.262573 188.0
1925.518555 132.0
1925.725464 184.0
1925.952637 164.0
1926.197144 168.0
1929.019653 224.0
1929.259277 248.0
1930.580566 216.0
1931.092041 164.0
1931.205688 172.0
1931.350708 208.0
1931.476807 140.0
1931.920654 164.0
1933.095459 184.0
1933.209229 168.0
1933.567993 220.0
1933.708008 160.0
1933.91272 196.0
1934.310669 168.0
1936.430908 168.0
1936.649902 200.0
1936.733276 164.0
1937.289307 164.0
1937.368164 164.0
1938.095337 188.0
1938.857544 180.0
1940.409302 180.0
1940.55835 272.0
1942.610474 160.0
1943.865112 172.0
1946.665405 160.0
1947.28894 152.0
1948.064087 176.0
1949.750977 156.0
1951.3927 200.0
1951.480591 148.0
1952.210449 156.0
1953.263062 168.0
1953.749756 152.0
1954.110474 160.0
1954.682373 156.0
1954.875977 200.0
1955.087158 152.0
1955.483154 156.0
1956.680298 192.0
1956.741943 176.0
1956.976196 232.0
1957.860229 168.0
1958.139282 180.0
1958.309448 236.0
1960.027344 144.0
1960.192505 144.0
1960.979126 260.0
1961.172974 172.0
1961.877441 152.0
1961.994263 148.0
1962.557007 168.0
1962.680542 204.0
1963.125488 192.0
1963.535889 164.0
1964.170898 168.0
1964.356201 152.0
1965.12207 212.0
1967.541992 140.0
1967.639038 204.0
1967.948975 164.0
1968.575073 176.0
1968.755127 172.0
1969.020386 152.0
1969.21106 168.0
1969.281494 212.0
1969.470337 120.0
1970.368042 240.0
1971.030762 156.0
1971.168457 164.0
1971.552124 144.0
1971.711182 160.0
1972.869141 240.0
1974.142334 176.0
1975.920166 168.0
1976.167969 192.0
1976.38916 148.0
1977.043945 192.0
1977.849365 200.0
1978.174316 176.0
1978.628418 176.0
1978.858643 140.0
1978.938232 144.0
1979.23938 148.0
1979.33667 224.0
1980.20459 144.0
1980.819946 152.0
1980.948608 148.0
1981.063843 208.0
1981.694702 164.0
1982.122314 184.0
1982.61438 152.0
1982.96936 196.0
1983.119507 216.0
1983.766602 144.0
1984.794678 188.0
1985.513428 156.0
1986.151978 148.0
1986.595459 168.0
1986.719727 152.0
1988.147339 188.0
1989.062378 140.0
1989.387451 136.0
1989.888062 156.0
1990.429688 200.0
1990.54187 180.0
1991.438721 212.0
1991.699585 144.0
1992.268188 208.0
1992.458862 196.0
1992.952271 172.0
1993.322876 260.0
1993.671997 156.0
1993.796509 184.0
1994.000854 192.0
1994.738647 160.0
1995.592041 188.0
1995.75061 148.0
1996.801392 156.0
1997.032715 188.0
1997.940063 180.0
1998.467407 128.0
1998.553955 144.0
1998.972168 180.0
1999.09082 164.0
1999.29248 148.0
1999.523926 176.0
2000.12915 140.0
2000.369507 184.0
2000.868042 188.0
2001.037109 220.0
2001.802856 176.0
2002.168091 148.0
2002.381836 156.0
2002.470825 192.0
