>compound cyclic 3,17-bis(1,2-ethanediyl acetal) estra-5(10),9(11)- diene-3,17-dione
>formula C22H30O4
>ionization [M+H]+
>parentmass 359.22168589209053
#inchi InChI=1S/C22H30O4/c1-20-7-4-17-16-5-8-21(23-10-11-24-21)14-15(16)2-3-18(17)19(20)6-9-22(20)25-12-13-26-22/h4,18-19H,2-3,5-14H2,1H3/t18-,19+,20+/m1/s1
#inchikey VCJRIJKZDDFALD
#Ion_Source DI-ESI
#Instrument qTof
#Compound_Source Commercial
#PI Norberto Lopes
#Data_Collector Norberto Lopes
#Scan -1
#Precursor_MZ 359.217
#ExactMass 358.214
#Charge 1
#CAS_Number 57905-07-4
#Pubmed_ID N/A
#Smiles C[C@@]12[C@](CCC23OCCO3)([H])[C@](C4=CC1)([H])CCC5=C4CCC6(OCCO6)C5
#INCHI_AUX N/A
#Library_Class 3
#SpectrumID CCMSLIB00000081584
#IonMode Positive
#UpdateWorkflowName UPDATE-SINGLE-ANNOTATED-BRONZE
#LibraryQualityString Bronze
#TaskID 4a07f16a650f4095b43fe6b0b09ff8bb
##Scan# 1
#SpectrumFile gnps_cyclic_3_17_bis_1_2_ethanediyl_acetal_estra_5_10_9_11_diene_3_17_dione_pos_MplusH.mgf
#LibraryName gnps_library.mgf
#MQScore -1
#Organism batch_27_05
#TIC_Query 0
#RT_Query -1
#MZErrorPPM -1
#SharedPeaks 0
#MassDiff 0
#LibMZ -1
#SpecMZ 359.217
#SpecCharge 0
#internalFilename spec-00000.mgf

>collision 10
141.085968 82124.0
142.089905 8438.0
143.080673 5804.0
155.081482 4659.0
157.094711 7587.0
159.076126 9348.0
167.099915 15837.0
169.095306 10548.0
171.110657 6531.0
179.089874 13649.0
183.110016 9713.0
185.126953 4849.0
187.140991 4629.0
191.091202 5000.0
193.094803 64876.0
194.100327 12792.0
195.111908 19375.0
196.116135 4356.0
197.090988 6886.0
201.116638 4250.0
203.100433 5611.0
205.116074 10885.0
207.109222 4219.0
209.124466 7757.0
211.14238 111580.0
212.144409 20671.0
213.155792 24963.0
214.159424 4576.0
219.129623 4257.0
223.137711 3955.0
225.156113 5490.0
229.153137 13982.0
233.126907 13551.0
235.142273 89596.0
236.146225 20685.0
237.156296 15396.0
251.136169 13347.0
253.153046 64038.0
254.157028 13967.0
255.132782 22142.0
256.13678 5042.0
257.147644 6648.0
269.146118 9377.0
271.163269 7207.0
273.178101 42136.0
295.162323 14963.0
297.180573 149354.0
299.19397 20793.0
315.190308 11951.0
359.21698 58939.0
