>compound MLS001306444-01!15962-46-6
>formula C16H14O3
>ionization [M+H]+
>parentmass 255.1015707600905
#inchi InChI=1S/C16H14O3/c1-11(16(18)19)13-8-5-9-14(10-13)15(17)12-6-3-2-4-7-12/h2-11H,1H3,(H,18,19)
#inchikey DKYWVDODHFEZIM
#Ion_Source LC-ESI
#Instrument qTof
#Compound_Source NIH Pharmacologically Active Library
#PI Dorrestein
#Data_Collector VP/LMS
#Scan -1
#Precursor_MZ 255.104
#ExactMass 254.094
#Charge 1
#CAS_Number N/A
#Pubmed_ID N/A
#Smiles CC(C(=O)O)c1cccc(c1)C(=O)c2ccccc2
#INCHI_AUX N/A
#Library_Class 1
#SpectrumID CCMSLIB00000084842
#IonMode Positive
#UpdateWorkflowName UPDATE-SINGLE-ANNOTATED-GOLD
#LibraryQualityString Gold
#TaskID d252d724072548979f1f6f1ced849daf
##Scan# 2046
#SpectrumFile p3-B06_GB6_01_18239.mzXML
#LibraryName Pharm_Active_Library.mgf
#MQScore -1
#Organism Pharm_Active_Library
#TIC_Query 0
#RT_Query -1
#MZErrorPPM -1
#SharedPeaks 0
#MassDiff 0
#LibMZ -1
#SpecMZ 255.104
#SpecCharge 0
#internalFilename spec-00000.mgf

>collision 10
46.14473 168.0
47.591759 192.0
48.266941 136.0
48.379009 152.0
49.054157 180.0
49.546074 156.0
50.127773 160.0
50.48917 252.0
50.8022 160.0
50.993896 140.0
51.436878 168.0
51.568287 144.0
51.785767 228.0
52.217781 108.0
53.625114 176.0
53.960861 124.0
54.249271 140.0
54.673759 196.0
54.941933 196.0
55.03344 164.0
55.592976 40.0
56.180698 176.0
56.531826 152.0
57.523811 84.0
57.582699 76.0
58.357059 176.0
59.242245 168.0
59.555172 160.0
60.141811 88.0
61.435989 136.0
62.209061 128.0
63.642616 132.0
64.247414 136.0
64.699677 148.0
64.786156 144.0
64.943253 72.0
65.472015 168.0
65.496178 184.0
66.096748 200.0
66.596069 184.0
66.691933 240.0
66.887123 168.0
66.932709 220.0
67.579071 212.0
68.457253 160.0
69.049713 136.0
69.553406 96.0
70.055595 228.0
70.705116 152.0
71.669014 56.0
72.023285 92.0
72.063835 224.0
72.975693 156.0
73.900124 152.0
74.42289 244.0
75.451477 36.0
76.210602 184.0
76.828667 152.0
77.398293 236.0
78.915154 196.0
79.148712 168.0
79.758995 164.0
80.032967 144.0
80.161217 240.0
82.200119 168.0
82.487282 200.0
82.681473 132.0
83.59726 268.0
84.118523 224.0
85.533653 72.0
85.607292 180.0
86.127388 224.0
86.612007 156.0
86.877083 140.0
87.084976 172.0
87.931717 208.0
88.507889 152.0
89.224602 52.0
89.540726 128.0
89.86306 172.0
90.418617 136.0
90.448898 180.0
91.057632 208.0
91.660576 140.0
92.235023 164.0
92.884148 252.0
93.074142 200.0
93.283554 232.0
93.370079 120.0
93.757034 156.0
94.052124 176.0
94.666924 144.0
95.375069 168.0
96.310333 168.0
98.87616 168.0
99.179184 148.0
99.401306 152.0
99.820442 80.0
100.659355 132.0
101.299355 228.0
102.021782 92.0
102.048973 160.0
102.480644 108.0
102.922363 168.0
103.053825 1568.0
103.363014 76.0
103.502678 60.0
103.841103 188.0
103.946594 64.0
104.025749 160.0
104.05748 496.0
104.218681 144.0
104.436203 144.0
104.582703 128.0
104.982018 96.0
105.008522 160.0
105.033936 8908.0
105.066895 160.0
105.286087 40.0
105.337143 36.0
105.973381 48.0
106.039398 228.0
106.254265 48.0
106.529358 64.0
106.588936 44.0
106.640312 60.0
106.994118 128.0
108.498108 136.0
109.102226 172.0
110.110725 156.0
110.288322 140.0
110.738159 204.0
111.079819 216.0
113.944122 156.0
115.105362 144.0
116.433067 196.0
116.695221 168.0
116.766182 64.0
117.39502 212.0
121.063637 384.0
121.124649 140.0
122.070564 288.0
123.309517 172.0
126.427544 200.0
126.660393 196.0
129.645676 192.0
131.049103 1412.0
131.750366 128.0
132.053635 360.0
133.051147 136.0
133.529099 164.0
134.035141 300.0
134.96344 136.0
137.09436 156.0
141.068192 196.0
141.332932 252.0
144.000168 148.0
144.045547 180.0
144.067047 160.0
144.093323 144.0
144.296478 172.0
144.930725 196.0
145.031372 212.0
148.641678 144.0
149.061234 172.0
150.067856 232.0
151.144165 96.0
151.291 80.0
152.060669 188.0
153.080887 68.0
153.100586 176.0
157.830368 276.0
159.083038 156.0
159.309036 68.0
160.083694 140.0
160.913254 188.0
161.879135 164.0
161.924713 152.0
162.873291 144.0
163.00795 152.0
164.569336 172.0
164.63829 184.0
165.029236 200.0
165.07077 1572.0
165.395065 60.0
165.453934 60.0
166.077942 912.0
166.399948 40.0
166.536057 164.0
166.564301 68.0
166.949829 72.0
167.080002 268.0
167.142746 204.0
167.446518 40.0
167.931046 96.0
168.054871 140.0
168.902206 244.0
174.880096 124.0
177.054672 2460.0
177.172119 80.0
177.190659 44.0
177.299301 88.0
177.890762 52.0
178.061768 168.0
178.501831 52.0
179.087601 372.0
179.140579 68.0
179.305786 64.0
179.340424 128.0
179.799164 72.0
179.839188 48.0
180.100845 168.0
181.09906 208.0
182.029083 104.0
184.105286 100.0
185.821396 156.0
189.072586 208.0
190.080612 376.0
190.662781 192.0
190.753479 140.0
191.000961 108.0
191.087036 608.0
192.094513 188.0
193.064682 332.0
194.073364 2860.0
195.075836 968.0
196.070328 184.0
196.321426 76.0
198.937485 160.0
199.490875 128.0
203.130814 160.0
208.087891 188.0
208.561874 140.0
209.062302 188.0
209.096375 2240.0
209.127914 160.0
209.450974 156.0
209.81694 76.0
209.889023 68.0
210.062057 180.0
210.097275 444.0
210.154373 80.0
210.734711 80.0
211.102158 204.0
212.132507 176.0
215.201736 36.0
224.151184 180.0
234.948715 176.0
238.076859 208.0
240.172745 100.0
252.963165 164.0
253.181625 120.0
254.170654 148.0
254.19603 164.0
255.094849 148.0
255.183853 220.0
270.489532 36.0
275.045349 172.0
278.107025 84.0
374.806305 120.0
483.129059 112.0
507.103638 68.0
527.74231 92.0
590.903564 164.0
807.040466 64.0
813.039246 20.0
851.163818 196.0
886.958191 192.0
900.118042 124.0
907.603516 20.0
947.436829 60.0
948.754395 68.0
965.459045 276.0
982.933411 180.0
984.156799 76.0
986.112061 164.0
1004.477844 156.0
1041.325928 252.0
1057.185303 208.0
1084.244263 172.0
1103.742798 104.0
1104.304932 40.0
1150.695801 220.0
1203.289307 112.0
1213.917236 124.0
1216.435669 256.0
1216.498169 160.0
1258.935913 156.0
1262.40564 208.0
1269.657227 156.0
1282.119629 212.0
1294.363525 168.0
1298.684937 92.0
1302.90564 216.0
1304.407593 148.0
1316.042358 228.0
1322.418213 80.0
1323.446167 164.0
1339.517822 156.0
1340.989746 180.0
1346.928955 176.0
1348.660645 20.0
1364.884155 164.0
1372.342896 208.0
1373.987549 192.0
1395.019409 152.0
1399.885254 68.0
1404.752075 164.0
1413.590576 140.0
1425.408447 148.0
1428.340454 196.0
1433.203735 272.0
1440.098755 52.0
1443.242432 196.0
1447.328369 204.0
1452.436157 112.0
1452.891357 232.0
1454.955566 128.0
1465.13855 176.0
1466.807495 192.0
1469.072266 252.0
1474.546875 188.0
1477.773804 144.0
1478.699829 228.0
1482.505981 252.0
1486.44751 188.0
1500.777466 288.0
