>compound Malyngamide C
>formula C24H38ClNO5 
>ionization [M+H]+
>parentmass 456.252075
#inchi InChI=1S/C24H38ClNO5/c1-3-4-5-6-8-11-19(30-2)12-9-7-10-13-22(29)26-17-18(16-25)24-21(28)15-14-20(27)23(24)31-24/h7,9,16,19-20,23,27H,3-6,8,10-15,17H2,1-2H3,(H,26,29)/b9-7+,18-16-/t19-,20-,23-,24+/m0/s1
#inchikey WXDBUBIFYCCNLE
#Ion_Source LC-ESI
#Instrument qToF
#Compound_Source Isolated
#PI Dorrestein/Gerwick
#Data_Collector Luzzatto/Garg
#Scan -1
#Precursor_MZ 456.258
#ExactMass 455.244
#Charge 1
#CAS_Number N/A
#Pubmed_ID 20701935
#Smiles N/A
#INCHI_AUX N/A
#Library_Class 2
#SpectrumID CCMSLIB00000070262
#IonMode Positive
#UpdateWorkflowName UPDATE-SINGLE-ANNOTATED-SILVER
#LibraryQualityString Silver
#TaskID 6c7cf0ddbcd944488b3f58728dc48405
##Scan# 1952
#SpectrumFile 1B8_MalyngamideC_MH_456.mzXML
#LibraryName gnps_library.mgf
#MQScore -1
#Organism Dorrestein_TLK_Lib
#TIC_Query 0
#RT_Query -1
#MZErrorPPM -1
#SharedPeaks 0
#MassDiff 0
#LibMZ -1
#SpecMZ 456.258
#SpecCharge 0
#internalFilename spec-00000.mgf

>collision 10
95.047829 492.0
95.086456 1412.0
95.65493 240.0
95.814552 236.0
96.792709 260.0
97.045372 236.0
97.062508 924.0
98.059326 376.0
98.74218 232.0
100.095078 248.0
101.060791 284.0
101.158813 292.0
101.475227 248.0
103.054855 448.0
104.062843 248.0
104.74588 248.0
104.786613 280.0
105.069633 560.0
106.024422 264.0
107.085541 1096.0
107.537537 240.0
108.041687 408.0
108.081146 884.0
108.797661 260.0
109.027718 1812.0
109.065292 1796.0
109.100044 1408.0
109.267159 276.0
110.029648 236.0
110.057686 256.0
110.845047 240.0
111.039673 236.0
111.078758 232.0
111.116577 444.0
113.014816 408.0
113.913689 260.0
115.030518 328.0
116.024017 524.0
117.824478 232.0
118.016563 236.0
118.066727 1340.0
118.102814 284.0
118.49015 240.0
118.852097 256.0
119.048607 3596.0
119.085396 704.0
119.103828 240.0
120.053329 448.0
121.064323 740.0
121.1007 868.0
121.448738 236.0
121.583153 232.0
122.059471 900.0
122.261963 236.0
122.947075 232.0
123.04406 864.0
123.094009 252.0
123.116852 1028.0
123.20311 264.0
124.120323 280.0
124.950172 300.0
125.09613 324.0
125.705185 276.0
126.423729 248.0
127.03231 968.0
128.025757 1908.0
129.010239 548.0
129.027878 704.0
130.022873 352.0
131.00882 468.0
131.087692 256.0
131.424927 264.0
132.016312 240.0
132.929977 232.0
133.052841 308.0
133.100891 1956.0
134.061859 1384.0
134.105652 344.0
134.46666 244.0
134.838348 236.0
135.043655 944.0
135.117477 524.0
136.046402 356.0
136.07608 6508.0
136.3349 248.0
136.979126 384.0
137.017715 720.0
137.05899 7172.0
137.098587 660.0
137.251694 280.0
138.059921 432.0
138.529617 244.0
139.013367 492.0
139.033173 592.0
140.025589 700.0
140.317337 256.0
142.02327 608.0
142.121262 240.0
142.358536 232.0
143.022583 248.0
143.142532 908.0
144.14444 376.0
144.534042 232.0
145.005127 1780.0
145.063126 248.0
145.098038 376.0
145.665207 252.0
146.010056 332.0
146.060318 2728.0
146.747742 240.0
147.003906 716.0
147.04393 6600.0
147.116119 840.0
148.048492 548.0
149.05687 824.0
149.134842 540.0
149.559204 256.0
150.990051 260.0
151.0616 304.0
151.111282 356.0
152.917282 316.0
153.034119 248.0
154.040787 2344.0
155.025284 11308.0
156.027237 1504.0
157.022903 3044.0
157.88623 236.0
158.018814 488.0
158.035751 236.0
159.001434 344.0
159.039764 236.0
159.081711 440.0
160.014435 232.0
160.035309 236.0
160.49913 240.0
161.131729 608.0
161.458344 432.0
162.054077 396.0
163.146088 664.0
163.713181 232.0
163.848511 248.0
164.025436 324.0
164.070648 13732.0
165.010269 440.0
165.054398 8792.0
165.126221 300.0
165.161728 428.0
166.057678 1080.0
166.977859 240.0
168.080002 280.0
170.036606 308.0
170.099518 236.0
171.019226 388.0
171.272751 256.0
172.026047 312.0
172.051727 2636.0
172.692093 256.0
173.019791 404.0
173.056381 516.0
174.049393 1292.0
175.049377 392.0
175.073074 324.0
175.152588 232.0
175.435028 272.0
176.025803 264.0
179.177719 452.0
180.058945 324.0
180.139755 344.0
181.00592 360.0
181.8853 240.0
182.036942 3076.0
182.081665 2376.0
182.780731 252.0
182.945938 248.0
183.02095 21140.0
183.070862 384.0
183.626297 276.0
183.949951 284.0
184.02652 2508.0
184.07431 384.0
185.017792 5180.0
186.01828 1012.0
186.234406 236.0
187.022598 240.0
187.146759 404.0
187.793381 240.0
188.08522 232.0
188.216415 240.0
188.240768 252.0
189.164139 4476.0
190.05011 512.0
190.165802 632.0
191.748169 252.0
193.111526 264.0
194.183899 316.0
197.624725 268.0
198.033508 352.0
199.362579 256.0
200.04747 15552.0
201.031815 7360.0
201.075516 232.0
202.044449 6064.0
202.086838 244.0
202.504211 264.0
203.028259 1472.0
205.156113 420.0
206.18985 252.0
207.174423 2760.0
207.345779 240.0
208.128601 256.0
208.175995 424.0
208.202591 412.0
208.392746 272.0
209.096985 332.0
209.3013 232.0
213.620636 248.0
213.896957 240.0
214.450165 260.0
214.528839 252.0
215.220871 244.0
216.104126 364.0
217.179977 240.0
218.003632 292.0
218.058456 34332.0
219.061371 3608.0
220.054565 7252.0
221.058624 524.0
222.185089 568.0
223.458038 232.0
223.82399 280.0
224.201401 2304.0
225.129578 372.0
225.202606 580.0
229.460739 260.0
236.20134 2748.0
236.716965 236.0
237.090561 232.0
237.203125 996.0
238.034271 244.0
240.972321 236.0
242.117874 236.0
242.164459 400.0
244.041306 408.0
244.82959 232.0
246.154388 240.0
246.66658 256.0
248.802185 236.0
251.287506 268.0
254.108551 244.0
254.816284 228.0
255.359634 284.0
257.012329 244.0
258.270538 228.0
262.791962 248.0
263.841187 272.0
266.056244 444.0
266.179565 252.0
268.717377 248.0
269.196808 332.0
270.186981 248.0
272.503967 228.0
273.667847 236.0
276.585022 336.0
277.701172 244.0
278.205353 232.0
281.450195 228.0
283.396088 228.0
284.079803 232.0
285.335266 304.0
285.631073 232.0
286.22403 248.0
286.334259 240.0
286.927063 256.0
290.663025 240.0
291.146851 260.0
293.256775 228.0
295.779968 264.0
295.940796 244.0
296.094116 272.0
298.087616 352.0
299.514374 244.0
300.102936 312.0
301.350891 268.0
302.667053 236.0
303.608398 236.0
303.812958 304.0
304.097382 228.0
305.223785 360.0
305.298981 248.0
305.33252 232.0
306.259186 256.0
308.320221 252.0
309.164368 240.0
310.21048 388.0
310.287476 228.0
312.192902 340.0
314.115479 5084.0
314.224213 284.0
314.246918 268.0
315.116882 600.0
316.11203 1516.0
317.113983 376.0
317.258606 276.0
318.799622 252.0
318.910889 284.0
322.196167 400.0
323.197113 564.0
324.171417 428.0
324.266052 248.0
325.15155 228.0
325.176666 528.0
325.218048 384.0
326.42276 260.0
328.225525 256.0
329.579132 228.0
329.832001 248.0
332.083252 264.0
334.37854 236.0
335.218658 260.0
336.886169 264.0
340.165833 276.0
340.204437 512.0
341.12439 316.0
341.174561 276.0
342.196381 328.0
342.242432 384.0
343.104156 232.0
343.2453 408.0
344.103546 244.0
344.893799 236.0
345.503693 252.0
349.190674 264.0
349.494263 232.0
352.230438 712.0
353.210205 608.0
355.174286 236.0
357.766113 244.0
358.019806 256.0
359.650909 272.0
360.252167 328.0
362.383179 236.0
362.489227 228.0
364.219666 244.0
364.446411 232.0
364.978333 236.0
365.242462 268.0
366.204926 276.0
367.689545 312.0
370.236938 7200.0
371.23822 2440.0
372.24234 620.0
373.968811 252.0
377.768066 232.0
378.219818 3360.0
379.221619 572.0
379.664703 252.0
380.212463 1108.0
381.226227 408.0
382.049133 272.0
382.204712 284.0
386.870728 236.0
387.101624 244.0
387.920166 284.0
388.206268 228.0
388.24765 2720.0
389.254608 808.0
389.850433 232.0
390.205139 320.0
390.640411 232.0
393.628723 344.0
394.954071 268.0
398.739044 236.0
400.966858 244.0
406.214691 4888.0
407.217468 1784.0
407.657349 260.0
407.832275 244.0
408.212463 2248.0
409.212616 336.0
414.620239 252.0
416.869568 244.0
419.1539 252.0
419.807556 340.0
420.464081 284.0
422.983185 344.0
423.305328 312.0
423.399841 292.0
423.491486 280.0
423.632874 244.0
423.769836 268.0
423.815704 228.0
423.852081 228.0
423.88681 272.0
423.9133 252.0
424.086426 384.0
424.146545 1132.0
424.227753 208008.0
424.302673 328.0
424.500885 312.0
424.539368 232.0
424.612274 304.0
424.680542 432.0
424.690155 556.0
424.855377 348.0
424.902924 2860.0
424.989441 460.0
425.085968 400.0
425.118805 312.0
425.229767 91596.0
425.339355 276.0
425.490265 312.0
425.562378 276.0
425.638855 336.0
425.651489 240.0
425.905823 500.0
425.958832 268.0
426.066833 268.0
426.120331 648.0
426.224365 95168.0
426.581909 264.0
426.619415 468.0
426.824371 284.0
426.898682 616.0
426.982208 268.0
427.227661 20756.0
427.533691 344.0
427.60788 252.0
427.657898 500.0
427.727722 260.0
427.855682 368.0
427.931854 360.0
428.047791 256.0
428.134247 328.0
428.22702 1332.0
428.896759 304.0
429.251984 232.0
429.91153 236.0
430.125916 276.0
450.381653 252.0
454.123657 236.0
455.829132 284.0
456.252075 62208.0
456.77301 228.0
457.255219 19988.0
458.138367 312.0
458.250244 18992.0
458.907867 252.0
459.251648 3564.0
460.253265 572.0
460.505463 240.0
948.484375 260.0
1190.220215 236.0
1218.861328 236.0
1266.324097 228.0
1268.789062 248.0
1324.05127 248.0
1339.720581 292.0
1384.094971 256.0
1484.242065 236.0
1502.779419 228.0
1520.407593 236.0
1524.521973 248.0
1530.143433 236.0
1535.276367 252.0
1545.028442 232.0
1568.294312 244.0
1584.384644 236.0
1588.426025 252.0
1605.240601 280.0
1618.563965 320.0
1631.773682 228.0
1641.480347 244.0
1643.109009 380.0
1676.853394 256.0
1687.747192 276.0
1739.972656 312.0
1752.476685 268.0
1814.116821 300.0
1825.200562 252.0
1829.886963 264.0
1846.349243 240.0
1858.122681 256.0
1868.299194 240.0
1868.574341 244.0
1875.185059 244.0
1890.335449 248.0
1895.736938 244.0
1896.32605 236.0
1906.75415 264.0
1914.163208 264.0
1917.341553 324.0
1922.013916 260.0
1931.664062 284.0
1934.139404 240.0
1934.585693 244.0
1945.337646 272.0
1947.760376 228.0
1960.900513 256.0
1989.939331 240.0
2004.823853 256.0
