>compound MLS001333174-01!BIS-(2-ETHYLHEXYL) PHTHALATE117-81-7
>formula C24H38O4
>ionization [M+H]+
>parentmass 391.28428614809053
#inchi InChI=1S/C24H38O4/c1-5-9-13-19(7-3)17-27-23(25)21-15-11-12-16-22(21)24(26)28-18-20(8-4)14-10-6-2/h11-12,15-16,19-20H,5-10,13-14,17-18H2,1-4H3
#inchikey BJQHLKABXJIVAM
#Ion_Source LC-ESI
#Instrument qTof
#Compound_Source NIH Pharmacologically Active Library
#PI Dorrestein
#Data_Collector VP/LMS
#Scan -1
#Precursor_MZ 391.289
#ExactMass 390.277
#Charge 1
#CAS_Number N/A
#Pubmed_ID N/A
#Smiles CCCCC(CC)COC(=O)c1ccccc1C(=O)OCC(CC)CCCC
#INCHI_AUX N/A
#Library_Class 1
#SpectrumID CCMSLIB00000086068
#IonMode Positive
#UpdateWorkflowName UPDATE-SINGLE-ANNOTATED-GOLD
#LibraryQualityString Gold
#TaskID d252d724072548979f1f6f1ced849daf
##Scan# 3485
#SpectrumFile p5-D02_GD2_01_18453.mzXML
#LibraryName Pharm_Active_Library.mgf
#MQScore -1
#Organism Pharm_Active_Library
#TIC_Query 0
#RT_Query -1
#MZErrorPPM -1
#SharedPeaks 0
#MassDiff 0
#LibMZ -1
#SpecMZ 391.289
#SpecCharge 0
#internalFilename spec-00000.mgf

>collision 10
50.584412 152.0
51.710293 176.0
52.203796 92.0
55.106125 192.0
55.184456 116.0
56.13475 160.0
57.123234 48.0
59.02359 196.0
63.007614 184.0
66.769997 132.0
68.028114 92.0
68.2976 68.0
71.013321 48.0
73.2155 104.0
75.038689 104.0
75.766273 160.0
81.515549 224.0
84.467194 56.0
84.54953 72.0
84.688675 36.0
84.745461 140.0
84.802269 100.0
91.524864 164.0
95.800674 164.0
95.826004 184.0
95.925392 144.0
96.597115 84.0
97.228012 180.0
97.702309 236.0
100.144218 60.0
101.715813 136.0
103.435211 196.0
103.996666 164.0
105.069038 200.0
105.348709 160.0
107.49012 244.0
117.379066 84.0
120.083351 180.0
121.02935 668.0
122.030411 180.0
123.500931 176.0
128.144318 152.0
128.927292 56.0
133.562531 136.0
141.09053 176.0
141.971344 156.0
144.804977 176.0
148.393051 124.0
149.024628 4700.0
149.055664 168.0
149.089691 140.0
149.143158 80.0
149.296326 60.0
149.432541 112.0
149.824493 56.0
150.027725 844.0
150.592865 196.0
150.646606 32.0
151.079285 60.0
151.198395 112.0
152.120758 76.0
167.029617 212.0
174.08728 164.0
174.108292 80.0
177.152054 128.0
184.882278 120.0
189.166351 116.0
209.00296 196.0
209.034622 124.0
211.128922 120.0
217.198654 184.0
219.209579 180.0
230.994583 144.0
231.206375 156.0
242.164291 156.0
246.216721 180.0
256.65271 120.0
266.690613 156.0
277.219269 80.0
279.155609 356.0
279.540436 88.0
280.163025 92.0
280.606262 88.0
281.490479 64.0
282.821045 80.0
285.269684 152.0
293.135376 148.0
294.247284 184.0
317.122559 128.0
322.246796 160.0
331.222473 176.0
336.236298 124.0
342.152374 140.0
350.072296 72.0
350.925568 52.0
352.306427 156.0
361.15509 184.0
376.299896 200.0
378.182434 168.0
388.347839 136.0
388.583191 32.0
389.124786 160.0
389.215088 140.0
389.254364 164.0
389.580353 96.0
390.201263 120.0
390.287781 92.0
391.220184 92.0
391.280701 600.0
392.185242 136.0
392.285828 584.0
393.204498 120.0
393.321198 240.0
394.213776 124.0
394.288849 224.0
394.359985 124.0
755.456116 88.0
759.388916 108.0
850.500854 80.0
900.677856 228.0
1245.275024 84.0
1365.7229 160.0
1374.452637 68.0
1428.061768 44.0
1439.562012 160.0
