>compound MLS001143180-01!3-methoxyxanthen-9-one
>formula C14H10O3
>ionization [M+H]+
>parentmass 227.071548
#inchi InChI=1S/C14H10O3/c1-16-9-6-7-11-13(8-9)17-12-5-3-2-4-10(12)14(11)15/h2-8H,1H3
#inchikey HGWDKWJYTURSFE
#Ion_Source LC-ESI
#Instrument qTof
#Compound_Source NIH Natural Product Library
#PI Dorrestein
#Data_Collector VVP/LMS
#Scan -1
#Precursor_MZ 227.071
#ExactMass 226.063
#Charge 1
#CAS_Number N/A
#Pubmed_ID N/A
#Smiles COc1ccc2c(=O)c3ccccc3oc2c1
#INCHI_AUX N/A
#Library_Class 1
#SpectrumID CCMSLIB00000080487
#IonMode Positive
#UpdateWorkflowName UPDATE-SINGLE-ANNOTATED-GOLD
#LibraryQualityString Gold
#TaskID b1d8e8f6646f4e71acdff9ca3d919d08
##Scan# 2231
#SpectrumFile p2-F09_GF9_01_18045.mzXML
#LibraryName NIH_Natural_Products_Library.mgf
#MQScore -1
#Organism NIH_Natural_Products_Library
#TIC_Query 0
#RT_Query -1
#MZErrorPPM -1
#SharedPeaks 0
#MassDiff 0
#LibMZ -1
#SpecMZ 227.071
#SpecCharge 0
#internalFilename spec-00000.mgf

>collision 10
95.013046 168.0
95.140152 188.0
95.320786 148.0
95.334389 140.0
95.388809 208.0
95.4552 164.0
95.480194 156.0
95.618324 112.0
95.645576 100.0
96.002121 188.0
96.154297 200.0
96.177719 204.0
96.207001 148.0
96.234329 180.0
96.345657 188.0
96.378868 80.0
96.394501 124.0
96.517654 296.0
96.552002 192.0
96.631096 192.0
96.658493 208.0
96.723076 116.0
96.740692 136.0
96.768105 140.0
96.795517 192.0
96.8386 60.0
96.86602 248.0
96.934601 216.0
97.03064 136.0
97.169891 140.0
97.285683 176.0
97.370445 176.0
97.399582 64.0
97.468338 208.0
97.59021 164.0
97.763313 172.0
97.781021 184.0
97.865669 36.0
98.011429 156.0
98.117867 100.0
98.334854 104.0
98.348671 104.0
98.442444 120.0
98.617363 116.0
98.729988 180.0
98.769547 124.0
98.78933 96.0
98.89222 192.0
98.951607 216.0
99.01696 196.0
99.096191 184.0
99.145737 136.0
99.27063 196.0
99.365837 176.0
99.395599 112.0
99.679558 164.0
99.747131 168.0
99.840584 168.0
99.967903 168.0
100.005722 148.0
100.163025 152.0
100.196892 72.0
100.226776 232.0
100.581772 152.0
100.655029 104.0
100.713562 128.0
100.741524 100.0
100.761505 200.0
100.805458 132.0
100.847427 80.0
100.865417 112.0
100.947395 156.0
101.053406 124.0
101.109436 196.0
101.169487 116.0
101.3778 244.0
101.461983 156.0
101.481529 160.0
101.510101 172.0
101.690666 140.0
101.728798 128.0
101.742851 140.0
101.775742 168.0
101.921608 124.0
102.014061 148.0
102.045761 2744.0
102.265503 156.0
102.279594 180.0
102.307777 140.0
102.404427 84.0
102.424576 160.0
102.513222 136.0
102.62812 100.0
102.809669 236.0
102.971184 120.0
103.052734 516.0
103.140427 136.0
103.185379 204.0
103.256157 144.0
103.272339 108.0
103.292564 64.0
103.339096 156.0
103.359329 164.0
103.677261 108.0
103.762398 220.0
103.855682 192.0
103.984276 220.0
104.026474 544.0
104.064003 208.0
104.079643 72.0
104.212364 160.0
104.265808 68.0
104.352203 120.0
104.420326 80.0
104.613632 176.0
104.686928 196.0
104.745628 220.0
104.851944 192.0
104.923294 92.0
105.03241 1276.0
105.086456 144.0
105.144104 80.0
105.390686 132.0
105.550117 88.0
105.607384 160.0
105.756752 176.0
105.830444 108.0
105.922607 140.0
105.941048 80.0
106.009277 200.0
106.039375 340.0
106.055794 200.0
106.084496 172.0
106.11747 144.0
106.148056 128.0
106.292488 204.0
106.375793 48.0
106.449707 112.0
106.515434 144.0
106.64283 200.0
106.720947 164.0
106.988266 168.0
107.012932 3720.0
107.046272 144.0
107.079018 44.0
107.116089 72.0
107.188202 152.0
107.266518 248.0
107.320122 80.0
107.544983 144.0
107.683319 188.0
107.73703 164.0
107.801079 108.0
107.817612 160.0
107.927177 212.0
107.951988 108.0
108.020935 396.0
108.078171 116.0
108.111282 136.0
108.220993 160.0
108.239632 96.0
108.36805 184.0
108.569122 188.0
108.660393 124.0
108.681335 212.0
108.71434 216.0
108.807747 136.0
108.963516 160.0
109.015465 108.0
109.111076 188.0
109.190094 100.0
109.41066 64.0
109.514786 48.0
109.53978 180.0
109.72525 152.0
109.85038 40.0
109.979759 212.0
110.013153 116.0
110.150467 212.0
110.186493 148.0
110.249184 120.0
110.295166 128.0
110.31189 128.0
110.35997 104.0
110.428986 168.0
110.477097 148.0
110.498016 60.0
110.556602 244.0
110.749222 168.0
110.776451 156.0
110.847687 200.0
110.939911 120.0
111.109779 200.0
111.324341 92.0
111.370087 136.0
111.434669 208.0
111.578125 116.0
111.651726 144.0
111.876869 144.0
111.910553 140.0
111.986366 156.0
112.19709 260.0
112.248856 284.0
112.366959 184.0
112.458817 164.0
112.548454 164.0
112.566338 164.0
112.697296 120.0
112.813538 116.0
112.85582 400.0
112.906578 224.0
113.096992 72.0
113.26004 188.0
113.302406 212.0
113.368088 128.0
113.425316 172.0
113.533447 164.0
113.592834 52.0
113.662849 216.0
113.703171 208.0
113.974991 216.0
114.034172 132.0
114.049377 200.0
114.068504 168.0
114.181198 148.0
114.221611 160.0
114.613342 52.0
114.653831 196.0
114.668755 172.0
114.702858 168.0
114.751892 192.0
114.860649 164.0
114.928925 144.0
114.952217 144.0
114.984848 96.0
115.055504 700.0
115.103958 136.0
115.25666 180.0
115.368896 108.0
115.501472 216.0
115.559235 136.0
115.785446 196.0
115.839691 88.0
115.891113 96.0
115.936111 192.0
115.970772 208.0
116.019707 56.0
116.058296 192.0
116.077599 208.0
116.171967 260.0
116.244919 132.0
116.262085 104.0
116.371056 260.0
116.502571 136.0
116.631508 48.0
116.648705 176.0
116.751907 192.0
116.775566 156.0
116.790619 52.0
116.829346 160.0
116.960609 112.0
117.032745 348.0
117.087646 212.0
117.143646 184.0
117.163033 212.0
117.285866 216.0
117.320358 152.0
117.337601 148.0
117.359161 56.0
117.393669 148.0
117.449745 132.0
117.579201 160.0
117.7584 160.0
117.920441 188.0
117.980965 76.0
118.080559 144.0
118.147491 152.0
118.179947 60.0
118.216728 112.0
118.331451 48.0
118.353104 156.0
118.474396 144.0
118.777885 140.0
118.807098 120.0
118.938454 108.0
119.018784 160.0
119.049187 212.0
119.105652 56.0
119.227325 52.0
119.523079 168.0
119.671089 68.0
119.695038 196.0
119.712463 80.0
119.747307 188.0
119.773445 152.0
119.904175 152.0
119.954308 80.0
120.133125 132.0
120.205124 124.0
120.237862 168.0
120.384132 180.0
120.412521 60.0
120.582939 128.0
120.716293 116.0
120.911003 208.0
120.928505 60.0
120.954773 160.0
121.027626 640.0
121.090828 148.0
121.112434 72.0
121.156242 144.0
121.184723 124.0
121.241699 168.0
121.445602 224.0
121.51799 148.0
121.559685 160.0
121.728714 204.0
121.893463 148.0
121.952805 56.0
122.049538 124.0
122.130905 216.0
122.155281 200.0
122.218903 172.0
122.238708 156.0
122.254112 156.0
122.368576 124.0
122.45446 236.0
122.491905 160.0
122.635132 148.0
122.879906 224.0
122.941689 148.0
123.028923 160.0
123.116096 132.0
123.151436 296.0
123.372841 304.0
123.410583 180.0
123.515678 208.0
123.622345 116.0
124.210564 160.0
124.444725 220.0
124.533554 136.0
124.604637 264.0
124.643654 100.0
124.675743 176.0
124.702415 204.0
124.717972 92.0
124.85437 196.0
124.871582 212.0
124.953697 48.0
124.973717 160.0
125.073868 176.0
125.107254 120.0
125.138428 144.0
125.189644 68.0
125.37455 164.0
125.623032 208.0
125.706825 44.0
125.753693 156.0
125.796104 188.0
125.912216 208.0
126.044769 180.0
126.222847 272.0
126.245209 228.0
126.319016 180.0
126.341385 40.0
126.39061 176.0
126.471176 204.0
126.486847 304.0
126.536095 168.0
126.670464 56.0
126.834045 160.0
126.849731 132.0
126.958061 216.0
126.984268 80.0
127.053749 1456.0
127.116631 68.0
127.168251 96.0
127.273766 116.0
127.329903 88.0
127.345627 148.0
127.363594 220.0
127.406281 116.0
127.496155 128.0
127.6063 168.0
127.65802 160.0
127.698502 204.0
127.729988 256.0
127.766777 136.0
127.841606 112.0
127.898758 116.0
127.922089 236.0
127.945236 176.0
128.014572 252.0
128.021622 112.0
128.033096 204.0
128.062683 26060.0
128.095184 268.0
128.103806 64.0
128.112778 192.0
128.162247 168.0
128.197098 172.0
128.225342 80.0
128.250763 100.0
128.278366 48.0
128.338745 172.0
128.385803 184.0
128.431686 64.0
128.462845 164.0
128.482407 60.0
128.513992 108.0
128.545578 76.0
128.561386 80.0
128.625702 112.0
128.647156 100.0
128.740601 216.0
128.788223 152.0
128.823303 92.0
128.952087 56.0
129.01413 136.0
129.037994 204.0
129.065186 2656.0
129.103577 192.0
129.189011 160.0
129.198242 112.0
129.205856 144.0
129.32077 136.0
129.347931 124.0
129.399994 68.0
129.436218 128.0
129.495102 144.0
129.535873 100.0
129.651428 56.0
129.672638 204.0
129.767044 100.0
129.923538 100.0
129.980255 104.0
130.002945 144.0
130.041611 296.0
130.068939 156.0
130.132339 220.0
130.205002 152.0
130.279953 168.0
130.354935 176.0
130.407211 156.0
130.477676 204.0
130.584549 136.0
130.772079 124.0
130.793884 152.0
130.845062 108.0
130.869003 48.0
130.959824 100.0
130.998825 196.0
131.051285 300.0
131.073288 228.0
131.119583 296.0
131.190247 76.0
131.231293 64.0
131.320221 148.0
131.363571 28.0
131.404633 116.0
131.626038 84.0
131.651154 36.0
131.699112 172.0
131.836197 160.0
131.883636 180.0
131.955063 168.0
132.012222 28.0
132.048813 180.0
132.064835 164.0
132.094559 160.0
132.15863 184.0
132.192947 204.0
132.275345 184.0
132.433334 52.0
132.50206 44.0
132.903305 160.0
133.089294 136.0
133.449966 116.0
133.468353 60.0
133.523544 168.0
133.65007 172.0
133.693802 304.0
133.801987 220.0
133.861847 112.0
133.986221 136.0
134.064575 140.0
134.113083 172.0
134.172897 148.0
134.228241 156.0
134.548965 136.0
134.565125 144.0
134.581284 156.0
134.634399 184.0
134.712921 172.0
134.890869 164.0
135.043472 156.0
135.339691 200.0
135.37674 164.0
135.566696 176.0
135.814774 60.0
136.002731 124.0
136.216354 36.0
136.314209 156.0
136.337173 64.0
136.41156 40.0
136.448746 56.0
136.511536 144.0
136.627823 100.0
136.711594 232.0
136.848938 144.0
136.995651 228.0
137.02594 160.0
137.04924 164.0
137.135468 136.0
137.280014 180.0
137.347656 180.0
137.394302 192.0
137.559998 216.0
137.585678 120.0
137.606689 264.0
137.667404 140.0
137.954788 168.0
138.026886 72.0
138.144211 152.0
138.176971 156.0
138.235458 232.0
138.282272 124.0
138.319717 228.0
138.574997 212.0
138.633575 124.0
138.7836 188.0
138.905548 156.0
138.950119 180.0
138.987656 260.0
139.051514 872.0
139.278778 164.0
139.31871 120.0
139.35672 156.0
139.443924 152.0
139.463486 112.0
139.648712 104.0
139.707901 212.0
139.727936 128.0
139.784256 180.0
140.014954 392.0
140.031448 148.0
140.059875 156.0
140.20343 84.0
140.297714 160.0
140.454071 184.0
140.476944 84.0
140.531204 180.0
140.790863 132.0
140.833374 228.0
140.8759 168.0
140.904251 144.0
140.977493 216.0
141.069122 436.0
141.164261 204.0
141.185532 120.0
141.203583 236.0
141.464737 192.0
141.535767 64.0
141.557083 152.0
141.616287 212.0
141.817688 132.0
141.83902 188.0
141.917252 48.0
141.966705 136.0
142.076157 156.0
142.11412 148.0
142.171799 196.0
142.339615 120.0
142.403732 60.0
142.43396 160.0
142.455994 196.0
142.479752 132.0
142.598572 136.0
142.746384 112.0
142.993378 36.0
143.090973 208.0
143.34346 80.0
143.381592 100.0
143.494858 140.0
143.536545 124.0
143.600937 160.0
143.61763 120.0
143.690048 168.0
143.74408 140.0
143.806122 92.0
144.059235 164.0
144.090302 176.0
144.154816 88.0
144.219696 160.0
144.279099 200.0
144.502563 156.0
144.731049 188.0
144.848648 164.0
145.02597 184.0
145.065247 580.0
145.105652 100.0
145.177017 128.0
145.260956 156.0
145.428925 280.0
145.460129 164.0
145.637817 88.0
145.729111 104.0
145.75795 152.0
145.810822 140.0
145.942749 172.0
145.989502 196.0
146.065887 144.0
146.160797 160.0
146.236526 164.0
146.26059 132.0
146.409866 100.0
146.523087 152.0
146.871368 100.0
146.920868 332.0
146.976364 36.0
147.080139 112.0
147.140503 208.0
147.319214 96.0
147.413437 132.0
147.449692 136.0
147.519791 160.0
147.592316 104.0
147.63826 148.0
147.783401 76.0
147.819702 260.0
147.991562 248.0
148.165939 48.0
148.191208 164.0
148.221664 96.0
148.245895 112.0
148.435364 104.0
148.535721 336.0
148.609634 100.0
148.670288 140.0
148.883392 232.0
148.954361 248.0
148.973801 188.0
149.017532 40.0
149.049118 188.0
149.083145 156.0
149.243576 232.0
149.301941 144.0
149.603653 132.0
149.630432 152.0
149.674271 136.0
149.761932 68.0
149.786301 212.0
149.832581 156.0
149.891052 144.0
149.966614 180.0
149.998291 64.0
150.051926 332.0
150.481339 80.0
150.588791 228.0
150.654739 176.0
150.686768 184.0
150.781799 140.0
150.906464 92.0
151.028748 128.0
151.045868 216.0
151.072769 92.0
151.124146 116.0
151.182877 100.0
151.464447 112.0
151.751175 152.0
151.84436 132.0
152.064499 160.0
152.126541 48.0
152.241943 156.0
152.293518 156.0
152.359848 176.0
152.477783 180.0
152.593323 156.0
152.657257 164.0
152.799911 208.0
152.846664 192.0
152.98204 208.0
153.069199 336.0
153.19136 228.0
153.265274 116.0
153.319489 140.0
153.362 192.0
153.423004 160.0
153.576797 76.0
153.64003 156.0
153.75354 164.0
153.93869 164.0
154.010315 224.0
154.081955 140.0
154.138779 148.0
154.178314 140.0
154.289551 176.0
154.316742 240.0
154.457718 152.0
154.51709 220.0
154.769547 124.0
154.87355 140.0
154.910721 168.0
154.998672 160.0
155.049637 3828.0
155.113907 72.0
155.151093 152.0
155.306992 152.0
155.416489 168.0
155.590225 60.0
155.716858 64.0
155.741699 100.0
155.773987 184.0
155.982727 132.0
156.057098 11188.0
156.146835 80.0
156.196396 112.0
156.222961 152.0
156.260757 80.0
156.295273 84.0
156.351227 184.0
156.502686 168.0
156.550003 84.0
156.654617 52.0
156.764236 160.0
156.876404 128.0
156.970215 236.0
157.016037 132.0
157.033493 108.0
157.060074 1228.0
157.115814 48.0
157.20813 240.0
157.342926 72.0
157.427826 56.0
157.48526 136.0
157.505249 68.0
157.557709 204.0
157.647659 156.0
157.740128 188.0
157.797638 176.0
157.817642 132.0
157.837646 152.0
158.041321 196.0
158.063965 288.0
158.095306 168.0
158.18541 160.0
158.21579 164.0
158.305878 104.0
158.435837 200.0
158.901154 172.0
158.942612 220.0
158.977432 120.0
159.041916 236.0
159.105438 176.0
159.241043 160.0
159.381729 104.0
159.421936 132.0
159.439514 236.0
159.514923 92.0
159.670822 164.0
159.940033 236.0
159.972763 256.0
160.057739 156.0
160.143982 148.0
160.176727 80.0
160.325394 108.0
160.413605 160.0
160.485275 168.0
160.529587 164.0
160.567413 240.0
160.610291 252.0
160.733597 192.0
160.809631 188.0
160.983826 140.0
161.044434 132.0
161.350204 144.0
161.509521 176.0
161.54747 244.0
161.56517 324.0
161.939819 144.0
162.028473 80.0
162.086746 176.0
162.233749 300.0
162.335175 76.0
162.365601 80.0
162.43663 160.0
162.525421 160.0
162.652313 192.0
162.812271 204.0
162.982468 164.0
163.284988 152.0
163.503784 152.0
163.539413 212.0
163.605606 172.0
163.750397 176.0
163.837357 112.0
163.946228 372.0
163.980057 132.0
164.024323 184.0
164.158508 216.0
164.235016 88.0
164.290054 476.0
164.326859 236.0
164.431488 112.0
164.536148 128.0
164.709793 92.0
164.776215 128.0
165.047318 116.0
165.141769 132.0
165.282471 100.0
165.492355 184.0
165.548691 244.0
165.712631 136.0
165.753632 200.0
165.776688 176.0
166.392303 188.0
166.453918 60.0
166.484741 128.0
166.579773 36.0
166.659409 140.0
166.7108 156.0
166.731369 52.0
166.775055 196.0
166.883026 196.0
166.970459 96.0
167.001328 180.0
167.045059 208.0
167.168549 168.0
167.2715 144.0
167.33696 216.0
167.384796 128.0
167.407959 248.0
167.462051 36.0
167.524963 208.0
167.644974 204.0
167.699097 84.0
167.913086 184.0
168.057587 516.0
168.132385 160.0
168.282104 176.0
168.400894 116.0
168.439636 208.0
168.643768 108.0
168.796295 164.0
168.972183 160.0
168.99617 132.0
169.035278 176.0
169.0616 220.0
169.12056 96.0
169.482254 212.0
169.837418 180.0
169.85817 196.0
170.068253 200.0
170.138443 168.0
170.167007 232.0
170.279587 224.0
170.385162 148.0
170.411148 36.0
170.55928 204.0
170.595673 200.0
170.66066 136.0
170.781097 192.0
170.889557 124.0
170.957214 200.0
170.993637 204.0
171.043091 344.0
171.07901 552.0
171.149841 200.0
171.324341 88.0
171.428558 108.0
171.70491 176.0
171.871857 124.0
172.208633 180.0
172.228302 324.0
172.326187 128.0
172.477753 168.0
172.846527 192.0
173.048065 180.0
173.268066 176.0
173.383362 84.0
173.417435 164.0
173.459366 72.0
173.506561 120.0
173.614075 92.0
173.650787 188.0
173.876419 156.0
173.910538 164.0
174.028671 220.0
174.196762 152.0
174.575241 156.0
174.601532 44.0
174.627838 276.0
174.89621 232.0
175.268127 220.0
175.655106 168.0
175.771194 244.0
175.871475 152.0
176.040451 100.0
176.114395 136.0
176.175156 136.0
176.270279 120.0
176.346909 180.0
176.505539 48.0
176.635132 176.0
176.764771 212.0
176.907684 136.0
176.960648 112.0
177.153976 88.0
177.403076 116.0
177.429596 140.0
177.567474 56.0
177.619431 184.0
177.652359 180.0
177.763794 132.0
177.88588 164.0
178.000046 76.0
178.116913 84.0
178.135498 112.0
178.162064 96.0
178.4039 88.0
178.483673 196.0
178.52887 176.0
178.693802 184.0
178.788467 200.0
179.111755 160.0
179.234314 172.0
179.399551 152.0
179.450211 84.0
179.567535 72.0
179.684387 164.0
179.863708 240.0
179.92511 68.0
179.991867 156.0
180.064392 152.0
180.264328 176.0
180.285706 116.0
180.395294 196.0
180.414001 164.0
180.47818 152.0
180.504913 52.0
180.761719 132.0
180.828613 180.0
181.065704 576.0
181.109756 240.0
181.542404 140.0
181.70488 220.0
181.81221 172.0
181.836365 160.0
181.924942 76.0
182.021606 72.0
182.057831 220.0
182.078613 140.0
182.120972 136.0
182.163956 140.0
182.333221 112.0
182.389679 124.0
182.698914 172.0
182.747345 104.0
182.817047 208.0
182.852295 244.0
182.962189 176.0
183.007416 192.0
183.044357 8140.0
183.094604 164.0
183.118835 196.0
183.19696 156.0
183.225418 192.0
183.300186 140.0
183.311462 80.0
183.317001 180.0
183.372025 80.0
183.376724 196.0
183.401215 100.0
183.411392 152.0
183.439484 160.0
183.471649 128.0
183.523071 180.0
183.590485 128.0
183.681641 160.0
183.688339 100.0
183.721298 72.0
183.769379 144.0
183.77504 200.0
183.827179 140.0
183.839462 124.0
183.857956 308.0
183.899841 380.0
183.920135 172.0
183.943405 456.0
183.968903 144.0
183.991516 172.0
184.053268 122972.0
184.11792 168.0
184.155121 168.0
184.198792 168.0
184.219788 236.0
184.252258 120.0
184.297989 116.0
184.340958 268.0
184.371521 92.0
184.394806 52.0
184.406021 156.0
184.423233 100.0
184.450211 256.0
184.496002 1136.0
184.542404 88.0
184.563248 88.0
184.626053 96.0
184.649155 52.0
184.670029 256.0
184.692886 48.0
184.698532 172.0
184.753845 68.0
184.777908 100.0
184.815308 172.0
184.85228 124.0
184.876404 216.0
184.896927 268.0
184.950424 112.0
184.97467 144.0
185.000504 52.0
185.056152 19248.0
185.116348 268.0
185.144196 188.0
185.206711 48.0
185.273331 56.0
185.296417 116.0
185.334503 108.0
185.358002 76.0
185.368225 64.0
185.377121 76.0
185.387115 96.0
185.421967 60.0
185.462463 104.0
185.494919 200.0
185.524979 132.0
185.553589 116.0
185.577087 112.0
185.603638 184.0
185.648499 60.0
185.668427 92.0
185.690384 64.0
185.730331 68.0
185.790955 100.0
185.88179 52.0
185.93663 76.0
185.984299 52.0
186.056366 1564.0
186.113327 80.0
186.153839 152.0
186.175201 104.0
186.204849 88.0
186.263123 92.0
186.321808 72.0
186.355804 256.0
186.379318 144.0
186.402328 268.0
186.461594 48.0
186.491974 140.0
186.521194 216.0
186.55809 44.0
186.577118 52.0
186.612457 60.0
186.643188 84.0
186.723526 128.0
186.783798 148.0
186.805557 72.0
186.883835 88.0
186.998749 72.0
187.048782 200.0
187.140305 48.0
187.254684 72.0
187.273743 40.0
187.415405 88.0
187.499878 84.0
187.58165 88.0
187.625809 80.0
187.684402 88.0
187.758881 32.0
187.848892 120.0
187.933716 88.0
188.099945 192.0
188.157272 124.0
188.342972 64.0
188.383942 96.0
188.422195 56.0
188.498703 168.0
188.925232 100.0
189.289246 44.0
189.341278 80.0
190.004639 168.0
190.539993 144.0
190.98259 88.0
191.001846 184.0
191.150406 64.0
191.566147 168.0
192.216827 160.0
192.586777 52.0
192.82991 184.0
193.158951 92.0
193.294525 144.0
193.438446 144.0
193.477188 152.0
193.502106 180.0
193.673813 180.0
193.82341 104.0
194.110382 84.0
194.269791 68.0
194.455704 80.0
194.830566 132.0
194.925034 76.0
195.04393 624.0
195.164093 104.0
195.28923 88.0
195.350433 128.0
195.723373 60.0
195.816513 144.0
195.97406 140.0
196.051636 280.0
196.197021 160.0
196.576355 80.0
196.757782 32.0
196.933716 116.0
197.060699 700.0
197.218719 56.0
197.727753 192.0
197.747345 44.0
198.021729 40.0
198.064926 276.0
198.116959 132.0
198.201019 152.0
198.27388 100.0
198.41684 256.0
198.736572 64.0
198.831985 68.0
198.989182 196.0
199.074142 612.0
199.140823 104.0
199.188568 56.0
199.315002 168.0
199.792969 40.0
199.936478 216.0
200.015289 76.0
200.043442 184.0
200.082611 176.0
200.181396 108.0
200.51947 48.0
200.736542 348.0
200.956558 132.0
201.057648 392.0
201.083542 84.0
201.137177 132.0
201.543854 224.0
201.673859 292.0
202.15181 56.0
202.400925 244.0
203.773743 164.0
204.598511 248.0
204.931747 48.0
204.968781 120.0
205.504837 76.0
206.49707 212.0
206.805115 132.0
207.575775 288.0
208.20137 52.0
208.24733 144.0
208.301895 188.0
208.365097 176.0
208.58638 120.0
208.638123 136.0
209.046555 200.0
209.092606 88.0
209.193344 160.0
209.959793 148.0
210.109787 96.0
210.138641 112.0
210.536987 100.0
210.779648 60.0
211.002197 80.0
211.038666 1572.0
211.635834 132.0
211.735794 208.0
211.841461 160.0
211.902313 100.0
212.047211 16100.0
212.127808 128.0
212.168945 48.0
212.203735 68.0
212.247223 36.0
212.290726 72.0
212.32843 48.0
212.356552 80.0
212.519516 64.0
212.577911 116.0
212.627243 192.0
212.679489 188.0
212.714325 44.0
213.051529 1400.0
213.161606 76.0
213.216812 144.0
213.304016 108.0
213.612259 72.0
213.667526 64.0
214.022614 156.0
214.048813 312.0
214.252701 60.0
214.447937 176.0
214.555801 84.0
214.625778 112.0
214.672424 88.0
215.060455 176.0
215.145111 80.0
215.378723 76.0
215.542328 136.0
215.56279 180.0
215.975006 80.0
216.29689 52.0
216.791855 144.0
217.111404 148.0
217.54567 80.0
217.889267 72.0
218.60672 84.0
219.809021 140.0
220.305038 276.0
220.603516 128.0
221.002777 92.0
221.683838 100.0
223.156128 172.0
223.560684 40.0
223.635086 244.0
223.730331 148.0
223.825607 160.0
224.192017 200.0
225.077988 180.0
225.31395 140.0
225.687561 196.0
225.768295 148.0
225.902435 104.0
226.064453 132.0
226.130295 124.0
226.288208 80.0
226.369797 56.0
226.45665 100.0
226.528534 100.0
226.549515 224.0
226.591461 104.0
226.628403 84.0
226.687332 88.0
226.751709 92.0
226.795227 128.0
226.826447 152.0
226.855103 160.0
226.864792 156.0
226.873734 192.0
226.895386 204.0
226.908722 84.0
226.91983 192.0
226.964401 148.0
227.028076 368.0
227.071548 44864.0
227.189453 144.0
227.249527 128.0
227.28299 120.0
227.32608 124.0
227.394852 48.0
227.429474 80.0
227.493958 60.0
227.505524 56.0
227.51355 104.0
227.542648 80.0
227.565018 32.0
227.602249 64.0
227.629669 60.0
227.662308 148.0
227.713364 48.0
227.759781 48.0
227.839523 116.0
227.863556 188.0
227.890945 68.0
227.93837 80.0
227.957199 72.0
227.983749 64.0
228.017349 156.0
228.074203 5172.0
228.145172 68.0
228.218216 60.0
228.395645 36.0
228.590424 76.0
228.601303 56.0
228.607513 96.0
228.635437 92.0
228.666443 108.0
228.7146 40.0
228.795883 76.0
228.822983 60.0
228.874161 112.0
228.904282 52.0
229.006668 80.0
229.077896 864.0
229.148254 52.0
229.324265 108.0
229.365128 120.0
229.401413 120.0
229.509277 128.0
229.594376 140.0
229.677399 160.0
229.718048 104.0
229.76329 72.0
229.805313 56.0
229.880966 60.0
230.013763 64.0
230.070526 120.0
230.255325 32.0
230.324783 168.0
230.379166 88.0
230.418442 96.0
230.560455 92.0
230.581619 76.0
230.623932 64.0
230.645081 108.0
230.735779 32.0
230.86882 64.0
231.62851 112.0
231.773941 76.0
233.8116 68.0
237.051788 104.0
237.189713 96.0
237.925949 112.0
239.007843 52.0
239.870178 60.0
240.18779 56.0
240.465485 96.0
241.778992 96.0
246.143631 40.0
254.281799 64.0
254.894714 64.0
259.398102 56.0
262.539398 68.0
263.966766 140.0
265.002563 56.0
266.358643 96.0
267.773529 156.0
268.408997 56.0
268.908142 116.0
272.257385 76.0
278.473114 104.0
281.003082 112.0
281.831116 68.0
293.490234 40.0
298.279846 32.0
299.539276 60.0
300.811707 108.0
302.201019 48.0
303.125549 68.0
306.600708 100.0
308.842194 52.0
310.484833 104.0
310.607605 108.0
314.485199 76.0
316.277252 100.0
318.38327 108.0
319.570557 64.0
327.294861 104.0
327.572174 48.0
338.51944 44.0
339.77298 32.0
339.945435 72.0
345.387177 124.0
346.123657 136.0
347.409729 68.0
349.12204 88.0
357.754211 60.0
358.0065 80.0
362.869629 104.0
373.897919 76.0
375.327118 92.0
377.887939 96.0
382.366028 84.0
386.647369 32.0
390.625977 76.0
396.687592 68.0
403.903107 84.0
404.467316 88.0
408.178406 52.0
408.649017 80.0
409.893188 80.0
411.559082 100.0
412.346832 88.0
413.539978 72.0
417.24762 108.0
422.034241 136.0
436.62027 60.0
437.152771 32.0
442.303009 72.0
443.249512 64.0
446.96991 40.0
448.844391 76.0
450.367889 92.0
454.262207 92.0
457.223724 96.0
457.956024 36.0
458.595154 56.0
460.237579 108.0
463.137085 112.0
473.084351 48.0
473.435059 56.0
476.997192 80.0
479.090363 100.0
488.924866 72.0
490.162323 52.0
498.770416 144.0
513.005676 64.0
520.498108 44.0
520.78418 84.0
524.036804 76.0
525.646423 92.0
537.222412 104.0
547.484497 72.0
575.644653 52.0
583.834534 48.0
599.64679 52.0
620.708008 76.0
622.55896 84.0
623.806091 28.0
640.363647 64.0
645.728699 52.0
664.064514 96.0
679.338074 84.0
684.004517 88.0
684.702209 116.0
686.510559 68.0
695.593445 40.0
702.523926 44.0
717.911072 64.0
721.975098 100.0
737.140259 124.0
755.835449 44.0
759.851624 156.0
787.944458 124.0
788.531189 72.0
794.988403 84.0
810.739319 152.0
821.531189 32.0
829.565796 184.0
829.691956 140.0
845.144775 36.0
863.966431 184.0
868.212952 208.0
872.346497 76.0
874.446411 68.0
880.459961 156.0
888.59314 156.0
889.993896 56.0
892.727295 44.0
904.151611 188.0
904.438904 140.0
904.947754 204.0
907.805908 56.0
925.42511 220.0
925.87323 92.0
928.266907 136.0
929.856384 60.0
936.800232 84.0
941.759399 156.0
943.128052 184.0
954.666504 224.0
955.835266 168.0
973.806702 136.0
980.289246 144.0
985.00592 276.0
995.848328 76.0
996.011658 240.0
998.620117 204.0
1000.640076 164.0
1002.939392 184.0
1006.112366 156.0
1020.303406 152.0
1022.777954 56.0
1029.593628 188.0
1030.852173 44.0
1033.716919 68.0
1033.883301 200.0
1036.399902 76.0
1042.110352 168.0
1058.124756 200.0
1060.087402 144.0
1061.1698 56.0
1061.656128 256.0
1062.142578 212.0
1083.236572 184.0
1086.70459 36.0
1094.098389 236.0
1095.751343 216.0
1098.355347 144.0
1099.536377 204.0
1101.418091 68.0
1103.387329 124.0
1103.85022 148.0
1107.973633 184.0
1114.601929 180.0
1115.286377 108.0
1117.3479 164.0
1122.456421 160.0
1128.559448 84.0
1130.071045 200.0
1131.289062 116.0
1132.561279 36.0
1135.845703 72.0
1136.624023 116.0
1138.194702 188.0
1144.461304 32.0
1145.181885 156.0
1148.356445 160.0
1150.752075 140.0
1153.846313 248.0
1154.867432 124.0
1168.869873 184.0
1169.461914 164.0
1169.523193 148.0
1170.449097 172.0
1172.260986 200.0
1172.819946 124.0
1174.742798 156.0
1176.810669 164.0
1177.445679 196.0
1179.085327 160.0
1180.05603 188.0
1180.226929 172.0
1181.841187 136.0
1183.367554 172.0
1185.867798 240.0
1185.970703 204.0
1186.327148 44.0
1187.581909 164.0
1190.155396 120.0
1191.164917 84.0
1192.161133 192.0
1192.394775 160.0
1192.827881 180.0
1194.643311 168.0
1199.884033 164.0
1200.180542 240.0
1201.118408 88.0
1201.339233 204.0
1204.576782 108.0
1204.638916 124.0
1212.679321 144.0
1213.351685 140.0
1218.681885 140.0
1220.384766 200.0
1221.497559 120.0
1223.640015 160.0
1229.670654 32.0
1230.431519 160.0
1234.197388 116.0
1235.274414 116.0
1237.366821 76.0
1240.806763 236.0
1242.279419 148.0
1243.823242 156.0
1245.339844 160.0
1248.62207 120.0
1253.183594 240.0
1254.466187 220.0
1256.715942 132.0
1257.040527 116.0
1258.388672 132.0
1259.497437 152.0
1260.903442 68.0
1261.179077 116.0
1261.362793 116.0
1261.730469 172.0
1261.808228 168.0
1262.347046 192.0
1262.635498 36.0
1263.505493 108.0
1265.0979 208.0
1265.742065 208.0
1265.869629 200.0
1268.611572 164.0
1269.203979 192.0
1272.932373 160.0
1273.330078 172.0
1274.004883 144.0
1277.666016 200.0
1277.929321 204.0
1280.840942 156.0
1283.221191 160.0
1283.420776 260.0
1284.775879 128.0
1291.21875 136.0
1292.348999 208.0
1292.51355 60.0
1292.699585 216.0
1293.336548 128.0
1294.274414 196.0
1296.272949 164.0
1297.42688 200.0
1297.821167 148.0
1299.284302 124.0
1299.470825 148.0
1299.757812 184.0
1300.353394 160.0
1302.493042 220.0
1302.945679 40.0
1303.146851 52.0
1304.835815 84.0
1309.009033 164.0
1311.991943 148.0
1312.1073 140.0
1313.073486 132.0
1314.610107 84.0
1314.841064 200.0
1314.934814 188.0
1315.201904 136.0
1316.0177 160.0
1316.183716 196.0
1316.970947 228.0
1317.288696 52.0
1319.580322 180.0
1319.955566 212.0
1320.45459 152.0
1320.599243 148.0
1321.648193 176.0
1321.814575 216.0
1323.312866 176.0
1323.624268 144.0
1324.478882 176.0
1324.739624 148.0
1325.029419 44.0
1325.993164 136.0
1327.116699 144.0
1327.421265 204.0
1327.638794 64.0
1328.03772 192.0
1329.974976 136.0
1332.552979 140.0
1332.91626 176.0
1335.991699 80.0
1336.821167 156.0
1337.235962 128.0
1337.31604 152.0
1338.546387 196.0
1338.997925 96.0
1339.580566 120.0
1340.265381 160.0
1341.992798 32.0
1342.539673 196.0
1342.969971 172.0
1344.305054 108.0
1347.145264 80.0
1349.045288 100.0
1353.347046 148.0
1354.709351 148.0
1357.633789 156.0
1359.005493 180.0
1362.162231 140.0
1363.631836 120.0
1364.991821 160.0
1365.822876 180.0
1366.087646 176.0
1366.514404 208.0
1366.926392 148.0
1368.082031 196.0
1368.413208 208.0
1368.582642 44.0
1368.891846 212.0
1369.488403 176.0
1372.111694 108.0
1373.169922 20.0
1373.999756 180.0
1378.3302 132.0
1380.63269 128.0
1380.751099 188.0
1381.29834 128.0
1384.095947 128.0
1384.784668 192.0
1385.488281 220.0
1385.984741 120.0
1386.414551 188.0
1388.023071 240.0
1389.818115 156.0
1389.959106 164.0
1391.168823 204.0
1392.297485 156.0
1393.552856 128.0
1395.091187 48.0
1396.132202 152.0
1396.258545 172.0
1397.158569 188.0
1397.753784 132.0
1398.27478 228.0
1399.115845 136.0
1400.575439 236.0
1400.63501 192.0
1401.131348 172.0
1403.198486 104.0
1403.817383 148.0
1404.108276 164.0
1404.384155 180.0
1404.891479 120.0
1405.659912 220.0
1406.503296 220.0
1406.928711 164.0
1407.033203 104.0
1407.511108 140.0
1409.714722 132.0
1410.402344 148.0
1410.798462 184.0
1414.194458 180.0
1414.748413 148.0
1415.130249 164.0
1415.294922 176.0
1415.669312 308.0
1416.208496 184.0
1417.553589 304.0
1417.826782 136.0
1421.351318 156.0
1422.191895 136.0
1422.35376 156.0
1423.92627 136.0
1424.339355 168.0
1424.519531 180.0
1424.90271 188.0
1425.030396 112.0
1425.842041 180.0
1428.766968 236.0
1431.657349 64.0
1432.267334 140.0
1432.817261 232.0
1432.983032 148.0
1433.533081 160.0
1433.721436 128.0
1434.784302 92.0
1434.859619 136.0
1435.17627 212.0
1437.160034 100.0
1437.861816 208.0
1438.239136 156.0
1438.550171 212.0
1438.654297 56.0
1438.835571 132.0
1440.338257 124.0
1440.48938 260.0
1441.87207 132.0
1442.431396 152.0
1443.4823 124.0
1444.457886 144.0
1445.025269 192.0
1445.842529 164.0
1446.039307 248.0
1446.402588 172.0
1447.606323 176.0
1448.21228 128.0
1448.856079 100.0
1449.083374 48.0
1449.242432 124.0
1451.554321 164.0
1451.713623 212.0
1451.804565 188.0
1452.070068 108.0
1454.938232 172.0
1455.052124 152.0
1456.001343 64.0
1456.054443 124.0
1456.882446 148.0
1457.087524 172.0
1457.186279 156.0
1457.322998 164.0
1458.082886 148.0
1458.69104 68.0
1458.950562 132.0
1459.268799 80.0
1459.740234 56.0
1460.52356 44.0
1462.84436 132.0
1463.042236 144.0
1464.123535 180.0
1467.201782 192.0
1468.498169 100.0
1468.696411 148.0
1469.932373 200.0
1470.581055 156.0
1471.886475 192.0
1471.962769 116.0
1472.352295 192.0
1473.054932 48.0
1474.797119 124.0
1475.668579 176.0
1477.756592 200.0
1479.180054 160.0
1479.74646 228.0
1479.916748 136.0
1480.95813 176.0
1482.15918 236.0
1486.890625 168.0
1487.773315 80.0
1489.278442 152.0
1489.938965 196.0
1490.692017 156.0
1490.930176 160.0
1491.260742 44.0
1491.337524 144.0
1494.705933 64.0
1494.759766 216.0
1495.152222 120.0
1495.983521 148.0
1497.354126 152.0
1497.615967 168.0
1497.978027 144.0
1498.347778 236.0
1499.195312 168.0
1500.359253 168.0
1501.654663 92.0
1501.724121 128.0
1501.878296 136.0
1502.888916 136.0
