>compound MLS001160489-01!2-[(8,8-dimethyl-2-oxo-4-propyl-9,10-dihydropyrano[2,3-h]chromen-5-yl)oxy]-N-(pyridin-4-ylmethyl)acetamide
>formula C25H28N2O5
>ionization [M+H]+
>parentmass 437.208588
#inchi InChI=1S/C25H28N2O5/c1-4-5-17-12-22(29)31-24-18-6-9-25(2,3)32-19(18)13-20(23(17)24)30-15-21(28)27-14-16-7-10-26-11-8-16/h7-8,10-13H,4-6,9,14-15H2,1-3H3,(H,27,28)
#inchikey GEFIBBIDRKCZAF
#Ion_Source LC-ESI
#Instrument qTof
#Compound_Source NIH Natural Product Library
#PI Dorrestein
#Data_Collector VVP/LMS
#Scan -1
#Precursor_MZ 437.208
#ExactMass 436.2
#Charge 1
#CAS_Number N/A
#Pubmed_ID N/A
#Smiles CCCc1cc(=O)oc2c3CCC(C)(C)Oc3cc(OCC(=O)NCc4ccncc4)c12
#INCHI_AUX N/A
#Library_Class 1
#SpectrumID CCMSLIB00000080064
#IonMode Positive
#UpdateWorkflowName UPDATE-SINGLE-ANNOTATED-GOLD
#LibraryQualityString Gold
#TaskID b1d8e8f6646f4e71acdff9ca3d919d08
##Scan# 1788
#SpectrumFile p2-F03_GF3_01_18039.mzXML
#LibraryName NIH_Natural_Products_Library.mgf
#MQScore -1
#Organism NIH_Natural_Products_Library
#TIC_Query 0
#RT_Query -1
#MZErrorPPM -1
#SharedPeaks 0
#MassDiff 0
#LibMZ -1
#SpecMZ 437.208
#SpecCharge 0
#internalFilename spec-00000.mgf

>collision 10
94.954987 136.0
94.972389 152.0
94.993721 156.0
95.007301 140.0
95.042229 204.0
95.069641 304.0
95.092682 144.0
95.153831 220.0
95.163506 132.0
95.21888 124.0
95.234032 120.0
95.275215 160.0
95.370369 236.0
95.375923 224.0
95.407364 192.0
95.455971 116.0
95.471535 168.0
95.508209 176.0
95.576065 76.0
95.58757 160.0
95.610527 188.0
95.618927 84.0
95.622635 252.0
95.672836 184.0
95.684723 192.0
95.700325 132.0
95.716019 208.0
95.826416 344.0
95.858925 132.0
95.878418 92.0
95.925194 240.0
95.964188 168.0
96.001236 128.0
96.042091 1264.0
96.081207 156.0
96.128036 196.0
96.216393 208.0
96.240807 176.0
96.269028 300.0
96.309601 200.0
96.338905 176.0
96.377975 124.0
96.487434 48.0
96.501114 156.0
96.553368 100.0
96.667381 192.0
96.726013 156.0
96.753502 132.0
96.839661 84.0
96.871002 148.0
96.921944 128.0
96.941536 164.0
96.961136 180.0
97.017982 152.0
97.047752 260.0
97.155945 172.0
97.192535 128.0
97.211533 152.0
97.225899 296.0
97.24366 164.0
97.296562 76.0
97.337791 184.0
97.404716 160.0
97.504776 168.0
97.528366 180.0
97.549988 144.0
97.597168 156.0
97.614868 208.0
97.628632 64.0
97.654251 152.0
97.719116 124.0
97.744698 124.0
97.768311 140.0
97.841141 156.0
97.873703 104.0
97.908089 56.0
98.005135 212.0
98.018158 64.0
98.076027 168.0
98.133698 244.0
98.174141 112.0
98.234993 164.0
98.29509 292.0
98.314209 148.0
98.385262 188.0
98.406784 200.0
98.503754 128.0
98.539314 128.0
98.563515 144.0
98.600571 140.0
98.653938 240.0
98.693481 224.0
98.717209 164.0
98.772591 188.0
98.808197 136.0
98.855682 152.0
98.879433 180.0
98.904732 128.0
98.956635 200.0
98.991386 132.0
99.004158 168.0
99.05764 64.0
99.095818 132.0
99.117073 192.0
99.130943 168.0
99.178513 132.0
99.198334 60.0
99.214195 108.0
99.347061 168.0
99.415604 208.0
99.436356 120.0
99.460175 28.0
99.483994 168.0
99.504112 328.0
99.51857 224.0
99.545547 168.0
99.569374 228.0
99.603142 136.0
99.688309 148.0
99.720375 164.0
99.740211 200.0
99.750549 376.0
99.772057 164.0
99.87944 156.0
99.906067 160.0
99.937538 176.0
99.96698 56.0
99.991592 196.0
100.02684 104.0
100.044609 100.0
100.070488 104.0
100.10434 196.0
100.146164 184.0
100.164085 208.0
100.178032 132.0
100.257736 140.0
100.288208 192.0
100.321518 344.0
100.339752 216.0
100.375351 144.0
100.399277 152.0
100.445152 204.0
100.469093 176.0
100.510994 156.0
100.534935 152.0
100.58683 176.0
100.611923 204.0
100.629372 168.0
100.64473 164.0
100.662697 272.0
100.802528 80.0
100.848495 148.0
100.864136 136.0
100.900475 172.0
100.922173 184.0
100.963287 116.0
101.022461 196.0
101.054474 160.0
101.086487 140.0
101.142975 36.0
101.162094 196.0
101.188576 68.0
101.218742 120.0
101.232628 172.0
101.264671 32.0
101.298721 160.0
101.404915 208.0
101.457039 164.0
101.471069 156.0
101.495132 196.0
101.523201 216.0
101.549942 240.0
101.618591 184.0
101.645912 164.0
101.681694 180.0
101.788094 140.0
101.810181 200.0
101.827339 200.0
101.857124 216.0
101.887772 236.0
101.911362 184.0
101.926697 36.0
102.025185 168.0
102.061371 128.0
102.075447 156.0
102.119438 300.0
102.195679 124.0
102.247475 344.0
102.304817 72.0
102.358864 180.0
102.415565 132.0
102.449814 180.0
102.497742 176.0
102.579277 132.0
102.602974 136.0
102.627174 80.0
102.652916 188.0
102.70179 152.0
102.715912 216.0
102.7724 188.0
102.800682 240.0
102.841011 232.0
102.870277 216.0
102.889961 80.0
102.915703 212.0
102.983452 176.0
103.022751 236.0
103.053123 240.0
103.087402 68.0
103.133888 128.0
103.194534 164.0
103.239021 52.0
103.281883 168.0
103.342186 148.0
103.375122 156.0
103.506142 296.0
103.546638 108.0
103.58918 76.0
103.68441 168.0
103.723709 196.0
103.736465 240.0
103.773605 40.0
103.827888 140.0
103.871101 160.0
103.913551 84.0
103.92775 44.0
103.982544 172.0
104.004051 208.0
104.049042 3212.0
104.122192 132.0
104.145454 136.0
104.163254 132.0
104.201851 124.0
104.224205 152.0
104.268913 92.0
104.305435 132.0
104.316727 312.0
104.342285 168.0
104.366486 80.0
104.384789 168.0
104.462784 160.0
104.506836 168.0
104.53125 144.0
104.583145 152.0
104.612663 148.0
104.63913 124.0
104.657455 200.0
104.673744 136.0
104.720589 140.0
104.777618 144.0
104.808739 108.0
104.861168 64.0
104.921158 316.0
104.975334 132.0
105.002762 128.0
105.04541 360.0
105.067764 412.0
105.114189 176.0
105.15728 176.0
105.185486 164.0
105.209976 220.0
105.246727 204.0
105.330467 96.0
105.367233 128.0
105.416275 140.0
105.451187 192.0
105.503387 228.0
105.523926 180.0
105.553238 140.0
105.579819 104.0
105.62191 200.0
105.659592 128.0
105.708702 128.0
105.791763 96.0
105.81514 144.0
105.840157 184.0
105.880661 192.0
105.905243 56.0
105.970795 152.0
105.991287 108.0
106.016006 188.0
106.065292 12652.0
106.089828 152.0
106.108612 316.0
106.145401 172.0
106.203407 180.0
106.25238 152.0
106.267975 204.0
106.302979 160.0
106.327606 184.0
106.345764 132.0
106.387131 36.0
106.414017 164.0
106.432297 132.0
106.491707 344.0
106.498291 356.0
106.521294 132.0
106.544334 160.0
106.579453 224.0
106.602791 128.0
106.622704 180.0
106.64595 140.0
106.678017 104.0
106.722252 104.0
106.773422 344.0
106.799522 160.0
106.81456 172.0
106.866173 188.0
106.906921 324.0
106.962585 168.0
106.970207 168.0
106.978683 196.0
106.998657 236.0
107.021599 352.0
107.060768 86044.0
107.10099 228.0
107.129059 36.0
107.148659 176.0
107.171608 84.0
107.18399 64.0
107.20607 132.0
107.224098 80.0
107.246979 92.0
107.267586 40.0
107.296448 160.0
107.348778 152.0
107.365608 100.0
107.398827 940.0
107.434052 188.0
107.455742 48.0
107.497665 312.0
107.533669 124.0
107.561195 176.0
107.602753 140.0
107.611771 80.0
107.618538 292.0
107.643715 128.0
107.665558 200.0
107.704933 144.0
107.727768 88.0
107.749214 84.0
107.766624 208.0
107.809486 328.0
107.833916 216.0
107.889091 264.0
107.930832 160.0
107.958572 228.0
108.000473 208.0
108.044662 35688.0
108.06498 9368.0
108.099243 72.0
108.106148 84.0
108.140915 180.0
108.162956 80.0
108.177208 88.0
108.209412 72.0
108.230499 160.0
108.26194 124.0
108.287292 56.0
108.348816 120.0
108.386581 188.0
108.452019 52.0
108.476265 80.0
108.483551 56.0
108.488068 92.0
108.52346 52.0
108.54818 104.0
108.57486 176.0
108.595558 164.0
108.615593 108.0
108.631943 208.0
108.659386 40.0
108.7005 84.0
108.729462 128.0
108.758194 176.0
108.773079 92.0
108.800514 120.0
108.83461 180.0
108.851082 80.0
108.872589 188.0
108.887611 72.0
108.893105 176.0
108.943367 88.0
108.963417 112.0
108.98027 204.0
109.028305 712.0
109.049614 3460.0
109.072495 2596.0
109.132141 156.0
109.183258 220.0
109.202568 152.0
109.259811 256.0
109.297256 156.0
109.322227 228.0
109.335289 116.0
109.382149 76.0
109.468895 88.0
109.505646 160.0
109.528351 64.0
109.547844 112.0
109.603348 200.0
109.654793 164.0
109.724243 104.0
109.761772 276.0
109.77845 152.0
109.821304 88.0
109.85743 120.0
109.865089 104.0
109.869354 124.0
109.938957 132.0
109.959953 152.0
109.976654 60.0
110.021057 144.0
110.051491 152.0
110.074112 440.0
110.101921 184.0
110.133255 88.0
110.183388 140.0
110.237717 68.0
110.302452 152.0
110.329681 172.0
110.349457 152.0
110.39032 148.0
110.507454 152.0
110.524193 176.0
110.568138 76.0
110.620468 120.0
110.690781 168.0
110.712593 60.0
110.90744 172.0
110.934692 92.0
110.987984 168.0
111.009415 176.0
111.036903 200.0
111.057388 320.0
111.07798 276.0
111.09407 128.0
111.18325 160.0
111.220016 200.0
111.293457 64.0
111.314453 164.0
111.351768 156.0
111.383759 60.0
111.402664 148.0
111.417374 120.0
111.436279 88.0
111.495117 172.0
111.530716 128.0
111.549767 128.0
111.625458 232.0
111.692757 148.0
111.707481 124.0
111.768494 144.0
111.84005 144.0
111.896889 36.0
111.947426 116.0
111.966377 160.0
111.997971 212.0
112.059059 112.0
112.091637 160.0
112.147568 176.0
112.202377 208.0
112.271965 120.0
112.30571 124.0
112.324692 172.0
112.349716 176.0
112.367378 136.0
112.430191 120.0
112.459732 236.0
112.478729 128.0
112.514618 116.0
112.531509 128.0
112.554733 128.0
112.569519 128.0
112.630226 140.0
112.713158 128.0
112.816071 180.0
112.846321 164.0
112.973289 116.0
112.998604 44.0
113.096176 224.0
113.130997 40.0
113.308769 104.0
113.343735 40.0
113.364922 32.0
113.428505 196.0
113.469269 124.0
113.501328 172.0
113.530281 120.0
113.617241 196.0
113.638458 192.0
113.665627 204.0
113.823128 132.0
113.8526 228.0
113.9272 156.0
113.965439 68.0
114.005814 168.0
114.031319 160.0
114.075867 188.0
114.097214 124.0
114.129944 152.0
114.2397 176.0
114.290764 104.0
114.318428 156.0
114.335449 176.0
114.42485 160.0
114.439758 176.0
114.486603 160.0
114.500496 84.0
114.521263 212.0
114.554764 120.0
114.569672 144.0
114.590981 148.0
114.661301 64.0
114.690071 176.0
114.712456 160.0
114.791344 32.0
114.852478 120.0
114.876839 188.0
114.897987 120.0
114.917191 72.0
114.944321 140.0
114.974808 168.0
114.992393 184.0
115.011093 128.0
115.029648 172.0
115.051743 264.0
115.096489 164.0
115.143463 144.0
115.181915 32.0
115.216095 64.0
115.237457 96.0
115.33149 176.0
115.361412 132.0
115.451218 104.0
115.473122 148.0
115.497162 116.0
115.548447 140.0
115.56459 204.0
115.590263 140.0
115.622368 180.0
115.678017 168.0
115.712273 216.0
115.791496 164.0
115.825768 184.0
115.895966 120.0
115.930077 164.0
115.987167 100.0
116.06366 276.0
116.178558 160.0
116.334984 172.0
116.369438 172.0
116.396255 176.0
116.419876 44.0
116.449944 200.0
116.516533 76.0
116.572403 136.0
116.599457 156.0
116.671272 156.0
116.686317 108.0
116.707825 152.0
116.73793 128.0
116.78978 108.0
116.884369 188.0
116.95092 60.0
116.972443 164.0
117.004738 228.0
117.044601 144.0
117.075005 200.0
117.114563 164.0
117.243828 164.0
117.276161 184.0
117.312805 232.0
117.330055 92.0
117.347298 56.0
117.407623 152.0
117.424934 124.0
117.455124 192.0
117.489647 168.0
117.541428 164.0
117.567322 124.0
117.603615 196.0
117.625595 164.0
117.657982 104.0
117.678276 140.0
117.712715 148.0
117.733551 216.0
117.819954 172.0
117.858841 124.0
117.91935 100.0
118.027443 132.0
118.051895 644.0
118.120438 96.0
118.200493 208.0
118.280571 124.0
118.314758 156.0
118.332527 48.0
118.362221 140.0
118.416977 188.0
118.447304 136.0
118.471069 132.0
118.497131 192.0
118.546967 76.0
118.611984 160.0
118.629326 112.0
118.70372 168.0
118.726898 164.0
118.755096 172.0
118.785461 164.0
118.836876 132.0
118.857857 152.0
118.891312 148.0
118.926506 148.0
118.960808 184.0
118.998276 148.0
119.021706 300.0
119.060677 26256.0
119.127724 24.0
119.152344 168.0
119.169441 152.0
119.184937 160.0
119.206665 72.0
119.245789 144.0
119.304558 264.0
119.350021 76.0
119.369705 196.0
119.4132 68.0
119.439301 88.0
119.47628 52.0
119.536324 208.0
119.556786 36.0
119.624992 72.0
119.651497 204.0
119.672157 100.0
119.723343 420.0
119.744019 44.0
119.795113 264.0
119.813148 60.0
119.833336 216.0
119.85569 216.0
119.877228 168.0
119.894348 196.0
119.930893 276.0
119.946884 152.0
119.961494 164.0
119.983719 156.0
120.044846 64420.0
120.112854 64.0
120.19487 140.0
120.237556 76.0
120.273788 128.0
120.280632 76.0
120.34153 156.0
120.363907 112.0
120.388504 156.0
120.403885 500.0
120.419487 144.0
120.449059 168.0
120.468201 64.0
120.507004 184.0
120.556183 64.0
120.61721 148.0
120.651253 220.0
120.68837 260.0
120.691833 148.0
120.700531 100.0
120.742531 132.0
120.779648 176.0
120.796455 272.0
120.814629 196.0
120.849632 180.0
120.870003 300.0
120.913994 136.0
120.931892 284.0
120.970406 80.0
121.019226 296.0
121.04702 5092.0
121.076332 83396.0
121.123993 132.0
121.168365 176.0
121.194778 68.0
121.224205 260.0
121.250854 168.0
121.27729 128.0
121.318024 84.0
121.339218 124.0
121.370262 76.0
121.397499 184.0
121.412216 68.0
121.435661 964.0
121.475861 128.0
121.49054 140.0
121.520706 68.0
121.538162 68.0
121.569534 28.0
121.62001 240.0
121.64196 228.0
121.683113 152.0
121.727478 104.0
121.756134 96.0
121.785065 108.0
121.813751 104.0
121.840538 216.0
121.854774 84.0
121.907532 92.0
121.932434 180.0
121.965889 180.0
121.996567 312.0
122.011803 192.0
122.03228 60.0
122.057915 1044.0
122.078354 7920.0
122.142975 56.0
122.160568 132.0
122.180275 92.0
122.22963 128.0
122.243553 56.0
122.261787 40.0
122.297531 200.0
122.32782 160.0
122.348671 76.0
122.389465 52.0
122.404877 80.0
122.426895 52.0
122.459564 216.0
122.507759 236.0
122.562904 124.0
122.578896 32.0
122.642815 96.0
122.679085 88.0
122.694244 48.0
122.701271 100.0
122.718102 400.0
122.7332 152.0
122.748634 40.0
122.787514 108.0
122.814796 48.0
122.830238 60.0
122.856079 112.0
122.864388 100.0
122.870697 176.0
122.912766 236.0
122.945419 316.0
122.972816 168.0
123.006584 96.0
123.027473 148.0
123.045212 232.0
123.061172 160.0
123.084221 300.0
123.128899 128.0
123.157372 132.0
123.223785 180.0
123.313797 48.0
123.373482 104.0
123.470772 212.0
123.490677 120.0
123.534912 44.0
123.61245 184.0
123.628883 136.0
123.694244 136.0
123.792213 128.0
123.813805 76.0
123.839989 180.0
123.848167 148.0
123.854744 108.0
123.863556 200.0
123.906837 48.0
124.048676 100.0
124.064194 68.0
124.141792 124.0
124.252701 72.0
124.28598 156.0
124.376976 120.0
124.437958 68.0
124.472435 140.0
124.523514 128.0
124.5578 184.0
124.573616 180.0
124.653923 160.0
124.728874 132.0
124.759056 228.0
124.816864 84.0
124.974792 168.0
125.010391 84.0
125.02597 60.0
125.043427 152.0
125.128365 132.0
125.172897 32.0
125.270897 152.0
125.324364 92.0
125.361534 136.0
125.42688 100.0
125.50045 128.0
125.594116 168.0
125.750298 104.0
125.855225 184.0
125.935616 152.0
125.957954 104.0
125.975822 36.0
126.001007 192.0
126.053444 184.0
126.094254 120.0
126.219444 164.0
126.295479 52.0
126.405106 144.0
126.434196 184.0
126.452103 140.0
126.503586 164.0
126.52597 100.0
126.581947 296.0
126.622253 96.0
126.642044 96.0
126.698418 28.0
126.716339 52.0
126.745468 48.0
126.801491 240.0
126.823906 32.0
126.890038 136.0
126.911339 84.0
127.034462 120.0
127.067039 160.0
127.108727 44.0
127.189522 60.0
127.241867 152.0
127.283157 204.0
127.38488 160.0
127.456779 56.0
127.472504 76.0
127.522873 148.0
127.587906 188.0
127.606422 152.0
127.668083 164.0
127.70182 124.0
127.735558 144.0
127.785049 180.0
127.814545 136.0
128.023651 56.0
128.044846 232.0
128.070953 40.0
128.096207 132.0
128.156555 144.0
128.241455 244.0
128.298553 152.0
128.325607 152.0
128.409042 164.0
128.440613 84.0
128.497009 168.0
128.55159 148.0
128.623383 108.0
128.648224 128.0
128.722733 228.0
128.810852 120.0
128.913788 180.0
128.953171 168.0
128.980286 60.0
129.044342 204.0
129.069366 168.0
129.109161 148.0
129.146591 248.0
129.213211 180.0
129.235977 136.0
129.25737 132.0
129.283356 80.0
129.344467 92.0
129.425964 216.0
129.448608 156.0
129.480316 52.0
129.596466 216.0
129.641174 168.0
129.769485 124.0
129.793045 108.0
129.820267 128.0
129.836136 32.0
129.887711 168.0
129.976776 152.0
130.009018 156.0
130.051682 204.0
130.09935 64.0
130.178192 188.0
130.237869 192.0
130.309097 112.0
130.38327 160.0
130.421906 80.0
130.487839 136.0
130.508301 188.0
130.670547 220.0
130.701645 368.0
130.728943 388.0
130.772186 120.0
130.851868 92.0
130.867798 188.0
130.979385 96.0
131.059052 2540.0
131.081635 712.0
131.24147 152.0
131.410263 196.0
131.458176 144.0
131.595139 52.0
131.61705 160.0
131.64537 224.0
131.707031 236.0
131.908127 128.0
131.974426 156.0
132.009659 300.0
132.044617 2776.0
132.067078 2592.0
132.09491 176.0
132.228348 76.0
132.378815 192.0
132.413788 220.0
132.457306 200.0
132.475632 124.0
132.493958 232.0
132.562698 140.0
132.693359 176.0
132.787369 188.0
132.865372 44.0
132.902893 124.0
132.938797 200.0
133.014526 132.0
133.044907 436.0
133.071213 500.0
133.122437 76.0
133.175262 92.0
133.221207 204.0
133.31633 188.0
133.384354 132.0
133.402756 188.0
133.464127 132.0
133.522308 104.0
133.559113 100.0
133.648834 168.0
133.713272 80.0
133.777725 48.0
133.862915 148.0
133.971161 168.0
134.050995 328.0
134.263901 116.0
134.427689 36.0
134.579742 156.0
134.610062 56.0
134.732285 48.0
134.897522 188.0
134.928909 208.0
134.975159 48.0
135.052826 900.0
135.080841 1564.0
135.118591 224.0
135.310654 136.0
135.461182 116.0
135.522278 184.0
135.560822 168.0
135.602524 152.0
135.669754 152.0
135.688293 148.0
135.746262 28.0
135.787216 200.0
135.87384 96.0
135.941132 164.0
135.96666 60.0
135.992188 156.0
136.022354 188.0
136.040939 164.0
136.05719 92.0
136.084991 560.0
136.1129 160.0
136.210449 120.0
136.255844 148.0
136.38472 204.0
136.503296 72.0
136.624237 140.0
136.710327 156.0
136.777832 124.0
136.836029 248.0
136.85466 232.0
136.950134 144.0
136.9711 204.0
136.999054 172.0
137.022354 96.0
137.059677 208.0
137.090546 168.0
137.344055 180.0
137.393036 144.0
137.547058 176.0
137.664032 160.0
137.708176 148.0
137.775909 128.0
137.829651 52.0
137.876389 188.0
137.89975 176.0
137.972382 172.0
138.021317 144.0
138.077637 196.0
138.147614 132.0
138.217804 124.0
138.28801 184.0
138.515137 76.0
138.557312 140.0
138.688538 192.0
138.746933 212.0
138.791687 148.0
138.885498 164.0
138.923035 156.0
138.980484 176.0
139.000687 176.0
139.039383 216.0
139.174164 196.0
139.190598 68.0
139.216431 208.0
139.315079 176.0
139.416107 208.0
139.535995 56.0
139.608887 172.0
139.681793 128.0
139.735901 108.0
139.785309 196.0
139.851212 212.0
139.898727 156.0
139.928894 180.0
140.056061 212.0
140.090988 92.0
140.11496 88.0
140.213928 76.0
140.341217 96.0
140.430832 108.0
140.468155 184.0
140.595978 72.0
140.652634 172.0
140.677292 124.0
140.777756 96.0
140.819229 164.0
140.876968 96.0
140.919479 132.0
141.010437 212.0
141.040909 180.0
141.070023 332.0
141.170044 184.0
141.252823 160.0
141.388779 260.0
141.411362 176.0
141.536835 172.0
141.555771 128.0
141.588928 352.0
141.638672 188.0
141.723953 172.0
141.795044 56.0
141.821121 200.0
141.875641 124.0
141.939651 128.0
142.044189 180.0
142.072479 112.0
142.110428 52.0
142.547348 192.0
142.615082 160.0
142.768433 148.0
142.820755 184.0
142.965881 36.0
142.999619 228.0
143.069931 208.0
143.085541 308.0
143.139664 136.0
143.215866 92.0
143.325455 156.0
143.435089 192.0
143.49469 228.0
143.582916 240.0
143.623459 288.0
143.706955 188.0
143.835831 68.0
143.859695 132.0
143.920242 196.0
143.981476 212.0
144.023239 148.0
144.053131 72.0
144.069855 132.0
144.088959 144.0
144.112854 172.0
144.145401 208.0
144.162842 144.0
144.222794 164.0
144.292114 144.0
144.349503 168.0
144.402115 68.0
144.440933 120.0
144.489777 160.0
144.512146 144.0
144.578308 160.0
144.761093 176.0
144.792221 120.0
144.904816 108.0
144.94075 176.0
144.9767 192.0
145.024094 184.0
145.061996 300.0
145.101883 160.0
145.21405 112.0
145.300629 208.0
145.342102 136.0
145.638885 188.0
145.694122 184.0
145.759003 184.0
145.775818 52.0
145.816681 92.0
145.915237 172.0
145.948898 152.0
146.024841 124.0
146.100418 144.0
146.143723 160.0
146.167786 188.0
146.331467 208.0
146.3564 244.0
146.389252 204.0
146.513718 148.0
146.555466 164.0
146.632568 152.0
146.651855 220.0
146.7314 200.0
146.813385 136.0
147.054703 3584.0
147.112579 164.0
147.129486 256.0
147.187424 48.0
147.213989 184.0
147.325714 204.0
147.349258 144.0
147.402405 36.0
147.513657 144.0
147.532928 180.0
147.675598 104.0
147.716721 96.0
147.825592 192.0
148.002304 164.0
148.0616 2760.0
148.104019 228.0
148.153427 140.0
148.208191 176.0
148.232422 104.0
148.317245 164.0
148.341476 108.0
148.424484 172.0
148.503937 184.0
148.528198 176.0
148.562164 272.0
148.584 152.0
148.61554 56.0
148.639801 160.0
148.662354 136.0
148.67926 164.0
148.722321 180.0
148.731781 164.0
148.787857 40.0
148.813828 172.0
148.874084 148.0
148.909531 228.0
148.931137 144.0
148.948135 88.0
148.984314 188.0
148.997452 160.0
149.006378 184.0
149.024506 320.0
149.028687 408.0
149.071533 100244.0
149.126572 128.0
149.149597 136.0
149.172913 124.0
149.204239 52.0
149.224014 80.0
149.2789 148.0
149.299683 136.0
149.316483 48.0
149.3423 100.0
149.361359 156.0
149.414169 188.0
149.446518 64.0
149.470673 396.0
149.514648 96.0
149.537827 84.0
149.557388 100.0
149.595032 164.0
149.631485 92.0
149.655838 136.0
149.680191 72.0
149.705048 76.0
149.734909 220.0
149.774246 84.0
149.811707 116.0
149.831329 152.0
149.886536 152.0
149.975754 136.0
150.007065 92.0
150.021957 108.0
150.077393 26340.0
150.11882 200.0
150.137802 204.0
150.177475 80.0
150.224457 116.0
150.286896 44.0
150.293228 40.0
150.336823 120.0
150.375488 172.0
150.418915 144.0
150.455536 136.0
150.48262 84.0
150.519196 52.0
150.557816 144.0
150.57724 76.0
150.648453 44.0
150.665558 120.0
150.684235 192.0
150.729202 164.0
150.753525 64.0
150.780411 44.0
150.814621 64.0
150.839066 116.0
150.878174 92.0
150.911041 212.0
150.939301 76.0
150.9711 88.0
151.012665 68.0
151.037094 416.0
151.081268 2392.0
151.161911 36.0
151.179031 100.0
151.217407 136.0
151.261505 144.0
151.307312 108.0
151.335083 72.0
151.363205 68.0
151.386215 88.0
151.470398 104.0
151.509583 36.0
151.572784 232.0
151.69339 108.0
151.754669 140.0
151.877289 48.0
151.896149 64.0
151.904282 84.0
151.950882 108.0
151.97052 48.0
152.000259 100.0
152.042297 204.0
152.082703 336.0
152.108994 56.0
152.1586 76.0
152.190948 148.0
152.199844 120.0
152.21254 80.0
152.23317 168.0
152.315079 132.0
152.376984 84.0
152.414948 188.0
152.621414 72.0
152.692734 128.0
152.746841 288.0
152.773911 88.0
152.820648 128.0
152.988007 128.0
153.059402 224.0
153.130829 84.0
153.290955 104.0
153.325455 76.0
153.450043 160.0
153.771866 152.0
153.875534 92.0
153.937271 204.0
153.994064 52.0
154.026184 228.0
154.171951 48.0
154.218918 204.0
154.268341 144.0
154.352417 336.0
154.394455 88.0
154.419189 128.0
154.437546 124.0
154.691864 80.0
154.795349 112.0
154.958939 92.0
155.005905 100.0
155.028214 68.0
155.08522 80.0
155.260086 120.0
155.303406 116.0
155.330688 116.0
155.375351 168.0
155.484528 132.0
155.59375 148.0
156.028519 80.0
156.090683 168.0
156.170258 252.0
156.222504 96.0
156.287186 200.0
156.364334 176.0
156.693024 156.0
156.86058 204.0
156.992142 44.0
157.054214 140.0
157.14679 220.0
157.186722 172.0
157.234131 36.0
157.264084 164.0
157.319 36.0
157.461334 152.0
157.48381 96.0
157.561249 40.0
157.893692 132.0
157.993759 76.0
158.031281 156.0
158.06131 52.0
158.093842 168.0
158.176437 40.0
158.221497 116.0
158.349197 120.0
158.394287 204.0
158.444382 136.0
158.550674 172.0
158.577194 76.0
158.732635 44.0
158.99353 104.0
159.011093 52.0
159.041214 140.0
159.078217 828.0
159.154907 208.0
159.274734 112.0
159.433578 128.0
159.500885 144.0
159.699524 72.0
159.810211 104.0
159.83429 196.0
159.878159 128.0
159.912994 132.0
160.045837 144.0
160.08519 208.0
160.145035 120.0
160.2332 96.0
160.31131 156.0
160.427246 60.0
160.480545 144.0
160.545761 128.0
160.618896 144.0
160.722336 128.0
160.848526 56.0
161.002533 92.0
161.025269 160.0
161.055542 572.0
161.096893 396.0
161.128845 152.0
161.151581 56.0
161.184418 72.0
161.275406 108.0
161.309021 108.0
161.362732 96.0
161.558624 184.0
161.664886 176.0
161.756012 140.0
161.778793 200.0
161.811707 192.0
162.032837 116.0
162.065155 316.0
162.102829 60.0
162.290573 156.0
162.331131 76.0
162.432587 68.0
162.468109 152.0
162.561981 216.0
162.655884 204.0
162.67366 92.0
162.712524 180.0
162.820923 132.0
162.917816 164.0
162.923126 120.0
162.93364 192.0
163.006378 100.0
163.036713 688.0
163.074646 1436.0
163.102951 240.0
163.268219 132.0
163.357239 56.0
163.508377 100.0
163.662643 140.0
163.812912 92.0
163.848572 88.0
163.925018 208.0
164.075851 292.0
164.098343 140.0
164.14679 40.0
164.216553 124.0
164.246262 72.0
164.289627 172.0
164.343201 96.0
164.465698 160.0
164.486115 120.0
164.547379 216.0
164.565262 52.0
164.721039 168.0
164.994476 44.0
165.057343 164.0
165.092102 176.0
165.447311 124.0
165.655319 136.0
165.969971 164.0
165.990494 88.0
166.093079 212.0
166.139252 80.0
166.234192 196.0
166.433426 168.0
166.71698 136.0
166.84549 180.0
166.866058 120.0
167.083267 652.0
167.161865 148.0
167.195312 164.0
167.36264 28.0
167.390961 132.0
167.48111 156.0
167.622955 68.0
167.852219 152.0
167.880585 104.0
167.973434 176.0
168.084381 116.0
168.105026 96.0
168.210846 148.0
168.383835 168.0
168.440659 160.0
168.476837 164.0
168.562088 96.0
168.939575 56.0
168.96286 116.0
169.062683 180.0
169.087067 144.0
169.139008 120.0
169.172485 116.0
169.229446 104.0
169.294174 92.0
169.410736 136.0
169.602493 116.0
169.719147 208.0
169.758041 144.0
169.804733 88.0
169.838455 140.0
169.912415 64.0
169.937027 80.0
170.071976 80.0
170.134277 60.0
170.404373 136.0
170.560303 112.0
170.588898 108.0
170.664291 120.0
170.737106 148.0
170.838547 52.0
170.997269 116.0
171.078644 404.0
171.11441 104.0
171.268051 204.0
171.314941 196.0
171.382675 200.0
171.479095 108.0
171.512985 136.0
171.919861 116.0
172.019043 160.0
172.073853 60.0
172.123474 88.0
172.167862 128.0
172.308914 188.0
172.402985 140.0
172.450027 212.0
172.488251 32.0
172.549362 200.0
172.850159 112.0
172.9496 208.0
173.01767 108.0
173.064102 76.0
173.093155 140.0
173.130264 168.0
173.303146 148.0
173.463013 176.0
173.539047 232.0
173.562637 144.0
173.629364 172.0
173.733124 136.0
173.787018 132.0
173.8302 84.0
173.973114 256.0
174.06723 268.0
174.087463 156.0
174.122849 124.0
174.281845 112.0
174.329147 124.0
174.536804 136.0
174.763016 132.0
174.80249 92.0
174.835541 232.0
174.9841 36.0
175.013062 212.0
175.036346 340.0
175.074692 1204.0
175.31073 88.0
175.613922 92.0
175.724716 168.0
175.848022 132.0
176.043915 592.0
176.082153 356.0
176.115417 84.0
176.299438 188.0
176.326248 100.0
176.543564 196.0
176.62027 172.0
176.704926 232.0
176.927231 112.0
176.94577 172.0
176.964294 68.0
177.052567 764.0
177.09108 2232.0
177.173523 40.0
177.276871 44.0
177.30867 128.0
177.371719 152.0
177.437988 224.0
177.462418 220.0
177.531357 128.0
177.584396 212.0
177.661331 232.0
177.72937 192.0
177.770111 220.0
178.024963 184.0
178.058411 220.0
178.094894 316.0
178.202927 164.0
178.261383 188.0
178.301254 64.0
178.431503 196.0
178.551163 56.0
178.596375 132.0
178.678848 184.0
178.721405 72.0
178.785278 60.0
179.039185 140.0
179.067398 128.0
179.088165 188.0
179.178223 112.0
179.261963 128.0
179.392563 168.0
179.456543 64.0
179.928787 112.0
180.011566 228.0
180.032928 104.0
180.075653 176.0
180.142426 192.0
180.214569 88.0
180.281372 52.0
180.398972 64.0
180.599518 44.0
180.746658 72.0
181.035767 136.0
181.06778 172.0
181.094696 104.0
181.212555 168.0
181.472549 116.0
181.542267 140.0
181.563721 144.0
181.654907 124.0
181.793579 164.0
181.82663 76.0
182.07164 512.0
182.3853 120.0
182.450211 136.0
182.471329 200.0
182.511658 156.0
182.56543 80.0
182.600403 128.0
182.690414 96.0
182.756424 76.0
182.775253 176.0
182.985199 116.0
183.065918 172.0
183.098297 116.0
183.402756 136.0
183.486328 144.0
183.847763 220.0
183.877457 140.0
183.905914 140.0
184.541992 144.0
184.807053 128.0
184.978073 168.0
185.060043 264.0
185.096146 164.0
185.135056 160.0
185.210419 88.0
185.253769 128.0
185.289307 136.0
185.321503 100.0
185.359436 104.0
185.413635 60.0
185.49765 136.0
185.622375 120.0
185.641357 156.0
185.725281 152.0
185.861084 136.0
185.972351 76.0
186.235641 136.0
186.344376 148.0
186.643372 88.0
186.68959 188.0
186.715637 132.0
186.852798 60.0
186.885452 148.0
187.037842 292.0
187.075668 1820.0
187.122238 160.0
187.276901 176.0
187.440918 168.0
187.694427 64.0
187.836243 136.0
187.904449 168.0
188.046417 156.0
188.079498 508.0
188.319382 76.0
188.442307 68.0
188.543411 156.0
188.619949 92.0
188.693756 156.0
188.822281 128.0
188.907074 152.0
189.011032 132.0
189.054626 1440.0
189.089737 1228.0
189.260117 144.0
189.610764 64.0
189.679291 156.0
189.698471 132.0
189.732635 200.0
189.87944 196.0
189.991913 164.0
190.061539 420.0
190.089264 528.0
190.310272 148.0
191.033936 3600.0
191.070801 3548.0
191.111328 108.0
191.140381 108.0
191.167908 28.0
191.289001 60.0
191.403107 216.0
191.564377 72.0
191.674591 192.0
191.744583 80.0
191.765533 92.0
191.902267 140.0
191.953003 52.0
191.972305 156.0
192.03923 464.0
192.072861 932.0
192.154358 152.0
192.226089 172.0
192.388931 96.0
192.471771 96.0
192.496613 56.0
192.535278 216.0
192.670624 208.0
192.770096 48.0
192.795639 232.0
192.847473 120.0
192.908295 40.0
193.004288 172.0
193.050171 192.0
193.087906 160.0
193.09111 336.0
193.123978 160.0
193.146103 128.0
193.176529 80.0
193.370224 112.0
193.395126 48.0
193.613861 100.0
193.685867 72.0
193.874268 96.0
193.901978 124.0
193.985138 108.0
194.098816 64.0
194.256897 36.0
194.301285 52.0
194.323486 236.0
194.359558 96.0
194.498932 72.0
194.58992 108.0
194.942688 56.0
195.064987 184.0
195.109467 176.0
195.148392 172.0
195.206772 140.0
195.493301 164.0
195.543396 76.0
195.583328 92.0
195.679794 224.0
195.796753 176.0
195.860809 92.0
195.966675 84.0
196.029404 172.0
196.10112 132.0
196.197998 160.0
196.306747 108.0
196.479675 80.0
196.52153 116.0
196.602448 100.0
196.652679 104.0
196.733643 120.0
196.797852 104.0
196.901169 136.0
197.004517 180.0
197.059586 424.0
197.082748 148.0
197.11348 144.0
197.214096 180.0
197.348282 148.0
197.370651 140.0
197.443359 28.0
197.476913 124.0
197.504883 56.0
197.639175 108.0
197.678345 88.0
197.723129 220.0
197.793106 112.0
198.069992 360.0
198.108627 124.0
198.143158 236.0
198.235504 108.0
198.269241 148.0
198.305679 128.0
198.33931 156.0
198.440231 152.0
198.524353 136.0
198.96489 160.0
199.007004 104.0
199.077347 604.0
199.147415 68.0
199.203583 80.0
199.369354 160.0
199.394653 168.0
199.417145 44.0
199.445251 224.0
199.796753 140.0
199.861465 56.0
200.045151 260.0
200.077744 264.0
200.12323 156.0
200.192337 152.0
200.356995 216.0
200.762894 148.0
200.785446 160.0
200.830582 72.0
201.025238 208.0
201.091553 276.0
201.412033 116.0
201.431808 116.0
201.601334 132.0
201.680466 144.0
201.864548 148.0
202.047226 184.0
202.070724 320.0
202.149948 100.0
202.20372 140.0
202.370743 88.0
202.614304 148.0
202.675552 176.0
202.704971 140.0
202.777283 140.0
202.816727 116.0
203.035904 236.0
203.070831 2612.0
203.106476 136.0
203.20401 160.0
203.277786 180.0
203.300491 100.0
203.365768 40.0
203.459442 72.0
203.510544 168.0
203.544617 124.0
203.868469 120.0
203.902573 180.0
203.948044 156.0
203.967941 212.0
204.041473 504.0
204.079025 592.0
204.135681 144.0
204.164124 112.0
204.379517 424.0
204.485611 84.0
204.522614 112.0
204.565308 200.0
204.625092 172.0
204.756073 72.0
204.901352 128.0
204.952637 100.0
204.987473 108.0
205.048523 424.0
205.086014 20828.0
205.141342 120.0
205.206314 52.0
205.237671 60.0
205.281693 68.0
205.306122 124.0
205.32608 28.0
205.349731 176.0
205.388824 116.0
205.428223 64.0
205.477264 56.0
205.518158 84.0
205.607346 68.0
205.697006 136.0
205.734116 180.0
205.768372 72.0
205.859741 188.0
205.905441 60.0
205.956848 92.0
205.993988 156.0
206.041138 132.0
206.089798 3112.0
206.151123 112.0
206.200424 272.0
206.288315 148.0
206.35318 64.0
206.394104 128.0
206.451294 188.0
206.470367 132.0
206.522797 228.0
206.800339 208.0
206.831818 100.0
206.897659 68.0
206.992142 48.0
207.094299 172.0
207.204102 136.0
207.387497 88.0
207.496155 40.0
207.59639 156.0
207.639816 44.0
207.674225 84.0
207.731598 132.0
207.847977 128.0
207.869308 160.0
207.932449 112.0
208.05014 180.0
208.0858 248.0
208.142593 200.0
208.271255 108.0
208.317215 156.0
208.343063 164.0
208.432129 216.0
208.656326 52.0
208.802979 168.0
208.85762 188.0
208.932419 156.0
209.052429 208.0
209.120789 136.0
209.272034 100.0
209.338257 192.0
209.372818 144.0
209.421783 72.0
209.457977 120.0
209.594635 108.0
209.646179 184.0
209.689728 112.0
209.937668 136.0
210.139587 220.0
210.37558 232.0
210.648575 168.0
210.750366 192.0
211.535446 228.0
211.625198 172.0
211.700485 112.0
211.761307 92.0
211.993073 36.0
212.146683 96.0
212.253967 68.0
212.555634 204.0
212.677521 144.0
212.845917 128.0
212.961197 172.0
212.982407 192.0
213.017273 96.0
213.054672 128.0
213.0914 200.0
213.201035 128.0
213.552109 92.0
213.572464 148.0
213.851791 172.0
213.875076 184.0
213.895447 128.0
213.987808 116.0
214.026459 160.0
214.09462 128.0
214.145859 140.0
214.242737 232.0
214.358536 88.0
214.393494 192.0
214.542938 104.0
214.565475 88.0
214.66568 220.0
214.757767 204.0
214.801697 48.0
214.862961 156.0
214.900879 36.0
214.924225 144.0
215.027756 132.0
215.072525 1004.0
215.140198 128.0
215.18399 136.0
215.28035 156.0
215.370895 124.0
215.403015 148.0
215.446838 216.0
215.560791 112.0
215.660156 144.0
216.042847 224.0
216.072662 288.0
216.139771 140.0
216.365143 60.0
216.397354 96.0
216.64212 200.0
216.985931 112.0
217.050232 1324.0
217.086548 6400.0
217.179794 104.0
217.223785 64.0
217.311798 48.0
217.358749 92.0
217.385162 64.0
217.42038 144.0
217.459839 116.0
217.499619 92.0
217.638794 148.0
217.69046 56.0
217.802063 120.0
217.865555 344.0
217.947281 100.0
218.056931 444.0
218.089737 1204.0
218.257584 104.0
218.278168 52.0
218.328171 76.0
218.357574 116.0
218.422287 104.0
218.47818 68.0
218.63118 168.0
218.707703 148.0
218.748917 144.0
218.81073 172.0
218.857849 64.0
218.878464 36.0
218.928513 140.0
219.019821 248.0
219.058899 300.0
219.100006 544.0
219.143555 220.0
219.193649 56.0
219.388168 148.0
219.413574 156.0
219.503159 76.0
219.526749 40.0
219.570984 140.0
219.656525 148.0
219.695511 92.0
219.812881 92.0
219.877808 96.0
220.001785 52.0
220.022446 44.0
220.06485 232.0
220.095169 280.0
220.311874 128.0
220.34436 208.0
220.385727 80.0
220.468475 204.0
220.504562 168.0
220.548264 148.0
220.639908 176.0
220.737488 200.0
220.864655 124.0
220.932693 104.0
220.95636 108.0
221.002548 176.0
221.0392 36.0
221.080444 316.0
221.359833 152.0
221.474411 52.0
221.551422 88.0
221.678833 64.0
221.912994 196.0
221.960434 124.0
222.070175 212.0
222.090515 116.0
222.12059 204.0
222.227386 72.0
222.274872 48.0
222.298615 112.0
222.452942 112.0
222.503418 100.0
222.539047 104.0
222.637039 160.0
222.785553 160.0
222.981659 36.0
223.13623 236.0
223.160431 228.0
223.287888 164.0
223.713379 124.0
223.826523 188.0
223.905899 144.0
224.008194 124.0
224.15419 52.0
224.327057 116.0
224.431396 148.0
224.520859 136.0
224.678955 112.0
224.834106 204.0
224.87291 116.0
225.141617 168.0
225.359665 196.0
225.790131 112.0
226.0504 208.0
226.095291 188.0
226.244949 180.0
226.373703 44.0
226.5755 96.0
226.883057 28.0
227.071289 224.0
227.102371 120.0
227.149963 116.0
227.311966 144.0
227.353989 28.0
227.595291 228.0
227.738281 188.0
227.821045 224.0
228.052979 136.0
228.131927 208.0
228.23114 152.0
228.255203 144.0
228.324356 200.0
228.408585 136.0
228.72229 156.0
228.778717 196.0
228.849258 136.0
229.082123 252.0
229.102402 232.0
229.221756 164.0
229.366135 120.0
229.450531 100.0
229.519882 228.0
229.658615 220.0
229.69783 68.0
229.758163 64.0
229.839615 132.0
230.001083 136.0
230.044846 140.0
230.065979 160.0
230.099197 144.0
230.13681 96.0
230.189774 192.0
230.398178 76.0
230.420807 180.0
230.443497 148.0
230.558334 204.0
230.658066 132.0
230.772949 84.0
230.812256 136.0
230.874466 140.0
230.948349 76.0
231.026993 120.0
231.065002 1172.0
231.103027 356.0
231.141968 72.0
231.169205 124.0
231.250916 128.0
231.32962 96.0
231.4039 112.0
231.505219 148.0
231.568832 176.0
231.624924 184.0
231.759674 68.0
231.820282 128.0
231.888916 252.0
231.920288 120.0
231.983948 120.0
232.014267 152.0
232.077805 636.0
232.107056 132.0
232.18103 208.0
232.372147 104.0
232.435684 68.0
232.462936 164.0
232.482773 104.0
232.505661 172.0
232.535095 160.0
232.630676 84.0
232.701004 180.0
232.773132 180.0
232.809235 172.0
232.859894 188.0
232.897324 188.0
232.955032 28.0
232.993225 196.0
233.023727 176.0
233.081787 44396.0
233.157883 216.0
233.200562 148.0
233.301468 44.0
233.338165 184.0
233.392426 192.0
233.426132 88.0
233.502151 164.0
233.555008 148.0
233.583389 68.0
233.62146 72.0
233.698654 112.0
233.733353 60.0
233.824661 52.0
233.852051 72.0
233.900742 96.0
233.926224 88.0
233.976929 160.0
234.021317 132.0
234.085403 5604.0
234.205246 88.0
234.245514 144.0
234.317963 164.0
234.353333 124.0
234.474609 88.0
234.519073 56.0
234.619675 68.0
234.695892 84.0
234.787384 48.0
234.852081 56.0
234.982605 156.0
235.007004 64.0
235.089798 372.0
235.17485 64.0
235.326004 148.0
235.410599 184.0
235.452682 168.0
235.501556 48.0
235.574875 124.0
235.683044 176.0
235.709305 40.0
235.758194 84.0
235.791809 88.0
235.825424 60.0
235.881668 100.0
235.903107 68.0
235.932419 132.0
236.042496 64.0
236.085297 128.0
236.109772 56.0
236.134232 112.0
236.308594 64.0
236.437119 52.0
236.49527 56.0
236.645874 164.0
236.682022 84.0
236.795319 64.0
236.899475 108.0
237.000565 96.0
237.041977 124.0
237.092499 128.0
237.144608 300.0
237.245758 44.0
237.423599 140.0
237.512543 132.0
237.616852 64.0
237.95752 92.0
237.982086 48.0
238.286148 80.0
238.323029 148.0
238.485901 80.0
238.624603 164.0
238.741074 40.0
239.062424 44.0
239.525925 128.0
239.775497 176.0
239.858719 88.0
240.049866 56.0
240.077621 88.0
240.574387 120.0
240.633041 116.0
240.750732 144.0
241.087112 72.0
241.127289 144.0
241.170563 132.0
241.349869 116.0
241.396255 72.0
241.721054 176.0
241.840866 160.0
241.916046 136.0
241.965576 172.0
242.166855 72.0
242.250488 84.0
242.293869 200.0
242.534775 184.0
242.678177 172.0
242.879761 92.0
242.907684 68.0
243.016266 192.0
243.075211 200.0
243.099442 144.0
243.13649 376.0
243.183838 132.0
243.323532 44.0
243.45372 116.0
243.533691 236.0
243.596817 188.0
243.67215 192.0
243.895126 60.0
243.954178 168.0
244.010147 140.0
244.118774 128.0
244.126053 116.0
244.144562 208.0
244.218491 108.0
244.36055 84.0
244.413269 72.0
244.520294 80.0
244.626724 84.0
244.735092 96.0
244.806702 232.0
244.831619 180.0
244.89537 180.0
244.921204 84.0
244.953094 212.0
244.974899 136.0
245.010727 116.0
245.030975 144.0
245.080765 13244.0
245.11557 464.0
245.164032 256.0
245.186783 96.0
245.220474 64.0
245.249115 172.0
245.293961 144.0
245.37381 64.0
245.436157 156.0
245.539078 40.0
245.657593 136.0
245.726227 48.0
245.785522 60.0
245.819839 76.0
245.84169 84.0
245.98526 156.0
246.040955 348.0
246.08551 2844.0
246.124374 292.0
246.238174 88.0
246.303772 48.0
246.328751 120.0
246.372482 80.0
246.42247 60.0
246.488098 36.0
246.694366 80.0
246.719376 52.0
246.844452 64.0
246.881973 128.0
246.906998 84.0
247.092056 1084.0
247.154129 156.0
247.526611 116.0
247.586121 208.0
247.611176 80.0
247.654236 80.0
247.836716 100.0
247.905655 120.0
247.965195 144.0
248.068634 48.0
248.097305 360.0
248.147247 160.0
248.366531 76.0
248.457504 120.0
248.557907 248.0
248.661469 60.0
248.821564 140.0
248.878082 44.0
248.950302 124.0
248.975418 240.0
249.016251 72.0
249.088654 164.0
249.537888 92.0
249.572479 104.0
249.698273 76.0
249.80835 100.0
250.034897 148.0
250.091553 176.0
250.148209 84.0
250.258408 76.0
250.601715 100.0
250.689941 52.0
250.740372 56.0
250.831772 160.0
250.920044 52.0
250.984924 208.0
251.051346 188.0
251.056366 120.0
251.071533 96.0
251.081573 124.0
251.370392 72.0
251.475235 96.0
251.560471 56.0
251.718323 156.0
251.753067 200.0
251.911865 160.0
251.974167 168.0
252.021561 72.0
252.521042 160.0
252.622253 112.0
252.73616 56.0
252.821594 100.0
252.948196 156.0
252.989349 120.0
253.212662 184.0
253.38205 84.0
253.489792 128.0
253.594376 152.0
253.629242 148.0
253.651428 156.0
253.676788 116.0
254.019257 212.0
254.082703 184.0
254.158859 72.0
254.336578 144.0
254.422287 132.0
254.52388 144.0
254.892365 196.0
254.959091 128.0
255.003586 92.0
255.057617 116.0
255.099869 276.0
255.13797 256.0
255.340591 192.0
255.378769 132.0
255.416931 56.0
255.639648 176.0
255.6651 196.0
255.685745 132.0
255.776505 44.0
255.903839 144.0
256.050323 80.0
256.099487 160.0
256.241455 192.0
256.286041 84.0
256.403961 164.0
256.636658 136.0
256.91095 96.0
257.013031 112.0
257.082581 312.0
257.233246 168.0
257.440796 148.0
257.626038 80.0
257.932831 128.0
258.131042 136.0
258.364532 136.0
258.422119 88.0
258.521301 64.0
258.566101 52.0
258.975922 104.0
259.094635 392.0
259.135254 424.0
259.184174 96.0
259.219421 176.0
259.358429 32.0
259.70993 108.0
259.892792 128.0
260.103333 788.0
260.140808 292.0
260.178436 96.0
260.30365 52.0
260.398773 196.0
260.528503 136.0
260.628082 100.0
260.846619 52.0
260.914154 108.0
261.076385 1316.0
261.146515 520.0
261.255035 124.0
261.5466 216.0
261.56781 164.0
261.660553 132.0
261.81189 212.0
261.976135 48.0
262.034149 172.0
262.067963 192.0
262.117157 172.0
262.2146 116.0
262.246826 156.0
263.011261 132.0
263.096039 160.0
263.15329 60.0
263.347046 196.0
263.527954 172.0
263.712158 40.0
263.776825 88.0
263.805908 144.0
263.87381 56.0
263.922302 160.0
263.957855 72.0
264.003143 96.0
264.077515 124.0
264.404297 148.0
264.43988 172.0
265.042236 188.0
265.509033 88.0
265.783508 112.0
265.856171 32.0
266.076904 300.0
266.245178 96.0
266.265228 180.0
266.333435 132.0
266.573853 112.0
266.814392 132.0
266.872894 188.0
267.071289 188.0
267.151123 148.0
267.308777 96.0
267.331543 28.0
267.494293 132.0
267.59845 136.0
267.657074 132.0
267.911102 48.0
268.07077 148.0
268.183624 152.0
268.282623 204.0
268.608734 188.0
268.696808 144.0
268.788177 104.0
268.889343 100.0
269.104767 48.0
269.311646 92.0
269.509796 44.0
269.741821 176.0
269.777802 136.0
270.031952 164.0
270.075348 72.0
270.129547 260.0
270.382904 128.0
270.418915 176.0
270.533478 80.0
270.602234 124.0
270.644806 76.0
270.680817 180.0
270.798706 124.0
270.877319 120.0
270.952667 116.0
270.975616 76.0
271.044403 100.0
271.097229 136.0
271.133331 292.0
271.172211 276.0
271.414825 76.0
271.483673 164.0
271.608307 44.0
272.09024 144.0
272.098389 128.0
272.113129 112.0
272.12851 148.0
272.208893 112.0
272.33371 168.0
272.363251 132.0
272.497955 132.0
272.783875 188.0
272.944977 60.0
272.990112 160.0
273.076935 3116.0
273.11438 1124.0
273.151184 304.0
273.253754 152.0
273.443359 216.0
273.57666 40.0
273.599731 152.0
273.738007 176.0
274.078339 972.0
274.109985 288.0
274.116943 412.0
274.245361 48.0
274.377228 48.0
274.51239 52.0
274.545105 148.0
274.627838 220.0
274.713043 120.0
274.782867 148.0
274.858765 52.0
275.046875 80.0
275.095612 184.0
275.654572 88.0
276.011566 88.0
276.103699 140.0
276.186859 44.0
276.246399 40.0
276.352264 132.0
276.809052 92.0
276.992462 136.0
277.097229 148.0
277.203247 152.0
277.431946 168.0
277.677307 80.0
278.095367 136.0
278.424072 96.0
278.566895 220.0
278.699768 96.0
278.759583 68.0
278.839355 60.0
279.005554 164.0
279.105286 112.0
279.166931 120.0
279.30484 80.0
279.464508 152.0
279.579132 72.0
279.904694 184.0
279.963837 48.0
280.033783 200.0
280.08374 164.0
280.343597 72.0
280.406921 120.0
280.580261 176.0
280.993805 140.0
281.017181 120.0
281.103912 96.0
281.138885 200.0
281.23407 116.0
281.394318 48.0
281.638092 116.0
281.801788 84.0
281.846771 120.0
282.043091 216.0
282.139343 132.0
282.37677 208.0
282.400177 88.0
282.433624 100.0
282.526794 192.0
282.631012 144.0
282.875305 128.0
283.056915 164.0
283.132355 120.0
283.297272 188.0
283.602203 164.0
283.803345 236.0
283.850281 120.0
283.922089 204.0
284.083191 316.0
284.145447 140.0
284.189056 136.0
284.319916 48.0
284.397125 188.0
284.514618 48.0
284.796112 116.0
284.984802 96.0
285.088989 136.0
285.156189 140.0
285.305542 112.0
285.394867 68.0
285.558655 176.0
285.670654 140.0
285.768219 152.0
285.889374 92.0
285.933105 148.0
286.118256 156.0
286.263031 120.0
286.347229 148.0
286.407837 108.0
286.700958 216.0
286.765015 132.0
286.852631 180.0
286.982666 168.0
287.119904 596.0
287.375366 56.0
287.432739 152.0
288.083221 108.0
288.13855 548.0
288.185699 64.0
288.351288 96.0
288.560883 116.0
288.736725 148.0
288.784363 140.0
288.861847 84.0
289.031036 108.0
289.058105 156.0
289.143066 4156.0
289.261169 156.0
289.288239 68.0
289.42041 120.0
289.486328 112.0
289.528656 88.0
289.616699 68.0
289.677673 108.0
289.718323 212.0
289.840302 72.0
289.979248 104.0
290.019928 128.0
290.08548 244.0
290.144257 904.0
290.189423 104.0
290.223328 112.0
290.457336 56.0
290.531952 232.0
290.585052 136.0
290.715179 76.0
290.895081 156.0
290.96637 64.0
291.095398 140.0
291.154663 168.0
291.285583 68.0
291.455444 104.0
291.598175 120.0
291.679749 236.0
291.829346 124.0
291.965363 40.0
292.033386 100.0
292.119141 156.0
292.605072 136.0
292.77533 60.0
292.887726 164.0
293.010345 128.0
293.119385 132.0
293.201172 184.0
293.525024 104.0
293.569366 144.0
293.702362 156.0
293.825165 180.0
294.053802 152.0
294.355774 204.0
294.586456 64.0
294.695801 124.0
294.767548 56.0
294.94458 140.0
295.038879 136.0
295.075165 132.0
295.143555 52.0
295.16748 164.0
295.382965 60.0
295.441101 156.0
295.523224 216.0
295.817535 104.0
295.848358 84.0
295.971619 188.0
296.043518 176.0
296.307281 136.0
296.427185 184.0
296.60199 184.0
296.8797 116.0
297.064911 120.0
297.325684 76.0
297.675842 180.0
297.806335 296.0
298.009033 96.0
298.112122 160.0
298.139618 136.0
298.33551 136.0
298.503998 144.0
299.116394 140.0
299.302307 156.0
299.526184 64.0
299.608856 112.0
299.674011 132.0
299.781128 172.0
299.808685 120.0
300.084473 32.0
300.305176 128.0
300.446594 52.0
300.574249 100.0
300.715729 132.0
300.860077 180.0
301.143433 3300.0
301.215088 252.0
301.239655 160.0
301.320038 28.0
301.361511 60.0
301.586121 80.0
301.627319 92.0
301.738251 152.0
302.039093 168.0
302.063324 68.0
302.14975 1112.0
302.209564 144.0
302.509705 124.0
302.537415 140.0
302.713989 136.0
302.748627 140.0
302.914856 224.0
302.942566 224.0
303.061554 212.0
303.112335 108.0
303.154266 144.0
303.233643 68.0
303.417358 40.0
303.559509 192.0
303.608063 148.0
303.760681 120.0
304.15625 156.0
304.333313 96.0
304.572632 188.0
304.878693 104.0
305.233276 184.0
305.542816 104.0
305.750122 188.0
305.918671 60.0
305.998749 136.0
306.09848 168.0
306.207672 152.0
306.263397 72.0
306.416687 148.0
306.52121 100.0
306.800049 84.0
306.841888 172.0
306.897675 84.0
307.110382 100.0
307.249939 164.0
307.411469 188.0
307.591919 136.0
307.864258 44.0
308.061584 160.0
308.199585 68.0
308.27298 40.0
308.761963 100.0
308.874329 112.0
309.105225 128.0
309.364227 120.0
309.493774 108.0
309.654877 204.0
309.861542 188.0
309.956146 184.0
310.075287 184.0
310.134888 180.0
310.275085 128.0
310.388489 220.0
310.51355 140.0
310.639801 124.0
311.064423 176.0
311.092499 272.0
311.134613 124.0
311.970734 80.0
312.097229 180.0
312.143036 144.0
312.406799 224.0
312.684662 116.0
312.755188 116.0
313.036835 132.0
313.082611 60.0
313.136841 172.0
313.311554 136.0
313.417267 164.0
313.639282 96.0
313.773254 108.0
313.821503 44.0
313.914276 68.0
314.122375 60.0
314.221161 40.0
314.346252 104.0
314.390533 64.0
314.482269 152.0
314.570526 124.0
314.637604 152.0
314.711731 48.0
315.227448 52.0
315.287537 140.0
315.421844 56.0
315.454498 68.0
315.542053 112.0
315.800201 176.0
315.939697 100.0
316.123932 132.0
316.249542 100.0
316.476105 148.0
316.706909 116.0
317.039337 120.0
317.294556 60.0
317.41156 172.0
317.581787 144.0
317.723663 160.0
317.755585 140.0
317.982697 128.0
318.117584 240.0
318.238281 168.0
318.394531 228.0
319.107574 228.0
319.194122 180.0
319.233246 52.0
319.290131 116.0
319.514221 216.0
319.578278 40.0
319.677887 364.0
319.756195 144.0
320.026733 152.0
320.094391 148.0
320.122894 140.0
320.165619 120.0
320.304535 148.0
320.528015 208.0
320.692902 116.0
320.819458 184.0
320.856873 88.0
320.970978 64.0
321.13147 120.0
321.452545 108.0
321.509644 172.0
321.538177 32.0
321.609558 124.0
321.866608 108.0
321.938019 152.0
321.998749 132.0
322.113617 124.0
322.139435 144.0
322.273804 112.0
322.398865 52.0
322.523956 48.0
322.624054 156.0
322.684845 236.0
322.910126 136.0
322.970917 168.0
323.135468 148.0
323.19989 124.0
323.647308 192.0
323.683105 112.0
324.123444 180.0
324.302887 100.0
324.621979 124.0
324.71521 108.0
325.097839 140.0
325.141266 112.0
325.300079 180.0
325.429321 72.0
325.486786 112.0
325.709442 136.0
325.842346 72.0
325.903442 92.0
325.957336 156.0
326.018433 188.0
326.093903 76.0
326.162201 168.0
326.388672 72.0
326.503754 184.0
326.546906 160.0
326.687195 68.0
326.802338 100.0
326.870697 196.0
326.980377 148.0
327.007446 188.0
327.097443 88.0
327.140625 80.0
327.22702 140.0
327.684448 108.0
327.767303 372.0
327.810547 144.0
327.835785 136.0
327.990753 184.0
328.109985 152.0
328.197845 144.0
328.221497 144.0
328.246735 188.0
328.701233 132.0
328.769806 132.0
329.051361 144.0
329.139923 1216.0
329.454498 128.0
329.51004 128.0
329.864197 92.0
329.90033 40.0
329.961792 44.0
330.036682 244.0
330.14035 532.0
330.17981 180.0
330.591187 80.0
330.699738 56.0
331.180969 132.0
331.235657 88.0
331.442139 116.0
331.49649 76.0
331.554474 152.0
331.677704 48.0
331.898865 152.0
331.993134 196.0
332.134583 104.0
332.228912 116.0
332.323242 96.0
332.421204 112.0
332.66803 232.0
332.842285 84.0
332.933075 72.0
333.314514 44.0
333.623444 160.0
334.096191 188.0
334.121674 144.0
334.390961 100.0
334.427338 108.0
334.463745 140.0
334.99173 136.0
335.046387 96.0
335.101044 176.0
335.133606 128.0
335.19577 164.0
335.23587 120.0
335.538391 180.0
335.775421 52.0
336.083099 160.0
336.121979 148.0
336.147308 140.0
336.29715 64.0
336.326355 128.0
337.148071 160.0
337.191986 152.0
337.400116 68.0
337.52829 148.0
337.561218 44.0
337.736755 168.0
338.111176 260.0
338.157532 112.0
338.467468 108.0
338.81665 160.0
338.889923 40.0
339.096283 1172.0
339.134186 1288.0
339.494751 132.0
339.601105 180.0
339.761841 132.0
339.856293 136.0
340.104248 592.0
340.169861 172.0
340.391083 184.0
340.523315 152.0
340.856659 132.0
341.024445 160.0
341.095551 156.0
341.154663 812.0
341.191132 136.0
341.492645 180.0
341.764893 60.0
341.806732 192.0
341.845825 100.0
342.098785 144.0
342.152527 112.0
342.243378 72.0
342.578522 124.0
342.674316 192.0
342.843811 156.0
342.876984 52.0
342.902771 116.0
343.163086 300.0
343.315704 44.0
343.378387 124.0
343.444794 88.0
343.55545 72.0
343.592346 164.0
343.965057 176.0
344.192993 168.0
344.319519 60.0
344.75174 144.0
344.825653 136.0
345.025269 216.0
345.132507 160.0
345.167633 232.0
345.402466 108.0
345.480164 188.0
345.972351 92.0
346.118134 128.0
346.157471 156.0
346.324127 136.0
346.531586 136.0
346.639038 116.0
346.891083 176.0
347.02243 168.0
347.069031 108.0
347.146912 132.0
347.18399 180.0
347.369446 96.0
347.510406 180.0
347.658844 132.0
347.848114 104.0
347.997467 196.0
348.295807 136.0
348.460876 40.0
348.665253 112.0
348.706146 140.0
348.802795 100.0
349.105927 268.0
349.211792 60.0
349.382904 100.0
349.416382 156.0
349.487091 132.0
349.734741 160.0
350.205566 88.0
350.250275 180.0
350.313599 156.0
350.507324 120.0
350.615387 116.0
350.794312 36.0
350.835297 168.0
351.035461 188.0
351.070221 28.0
351.11496 104.0
351.211945 88.0
351.390991 100.0
351.45816 128.0
351.678345 232.0
351.80899 108.0
352.160004 36.0
352.186127 112.0
352.230957 192.0
352.320618 72.0
352.354248 140.0
352.481293 112.0
352.580292 132.0
352.623291 356.0
352.866272 48.0
353.042023 116.0
353.149628 5692.0
353.262695 80.0
353.318787 116.0
353.371185 72.0
353.550781 80.0
353.68927 68.0
353.877686 152.0
354.05246 56.0
354.153992 796.0
354.216095 168.0
354.277679 60.0
354.31839 108.0
354.38208 52.0
354.475769 56.0
354.936829 116.0
355.166077 208.0
355.300629 28.0
355.55954 120.0
355.698425 208.0
355.829803 140.0
356.276733 52.0
356.511932 152.0
356.908142 64.0
357.186462 92.0
357.318115 208.0
357.385498 220.0
357.434753 68.0
357.55896 104.0
357.649292 112.0
357.743378 180.0
357.976807 32.0
358.38739 172.0
358.545685 72.0
358.594666 180.0
358.681366 232.0
358.756744 188.0
358.986755 104.0
359.156464 72.0
359.243225 92.0
359.311127 128.0
359.405457 88.0
359.454498 92.0
359.518677 120.0
359.726257 84.0
360.069855 120.0
360.217163 64.0
360.27005 68.0
360.363739 128.0
360.387177 160.0
360.432526 108.0
360.973053 184.0
361.139465 188.0
361.52536 200.0
361.7146 84.0
361.816803 156.0
362.0755 176.0
362.253845 160.0
362.426605 180.0
362.657776 124.0
362.877625 92.0
363.025513 148.0
363.131439 572.0
363.196289 136.0
363.340332 64.0
363.575592 184.0
363.61734 84.0
363.655304 88.0
363.727417 76.0
364.004547 72.0
364.110596 104.0
364.140015 520.0
364.183044 156.0
364.262817 132.0
364.37204 96.0
364.414795 48.0
364.696014 252.0
364.779633 152.0
365.235931 148.0
365.427368 160.0
365.540283 112.0
365.730591 204.0
365.993256 172.0
366.118927 176.0
366.153198 156.0
366.217957 56.0
366.621796 132.0
366.78949 156.0
367.171417 168.0
367.269928 180.0
367.510284 220.0
367.693451 68.0
367.731628 140.0
368.139496 272.0
368.182129 140.0
368.315796 36.0
368.457153 76.0
368.778137 168.0
368.82019 116.0
369.011322 244.0
369.068665 148.0
369.145081 4900.0
369.252228 80.0
369.293213 140.0
369.328735 52.0
369.38446 148.0
369.435822 40.0
369.630951 140.0
369.715149 56.0
369.9151 180.0
369.971588 52.0
370.072418 64.0
370.149872 1452.0
370.238892 212.0
370.427307 100.0
370.480927 104.0
371.013641 112.0
371.149536 416.0
371.37793 52.0
371.508331 60.0
371.807556 184.0
371.815918 220.0
372.071472 92.0
372.156952 112.0
372.183838 176.0
372.302856 60.0
372.372009 168.0
372.483398 148.0
372.606323 108.0
372.675476 64.0
373.25589 160.0
373.371246 68.0
373.475098 136.0
373.502014 72.0
373.805969 140.0
373.899719 120.0
373.952209 192.0
374.135254 168.0
374.213959 172.0
374.344879 164.0
374.491241 48.0
374.845673 116.0
375.219543 128.0
375.429871 44.0
375.516449 152.0
375.746704 64.0
375.798065 140.0
375.932983 120.0
376.05661 124.0
376.187866 36.0
376.42337 36.0
376.489014 148.0
376.570129 228.0
376.686005 76.0
376.770996 200.0
376.991241 84.0
377.169006 144.0
377.196075 48.0
377.439636 132.0
377.478302 76.0
377.516968 60.0
377.656219 40.0
377.791229 124.0
377.838501 64.0
377.900818 140.0
377.985046 120.0
378.058563 68.0
378.085663 48.0
378.15921 220.0
378.279205 60.0
378.333374 36.0
378.372101 132.0
378.403076 100.0
378.47641 116.0
378.594482 56.0
378.631531 108.0
378.733917 176.0
378.805847 140.0
378.844574 92.0
378.92511 112.0
378.980164 196.0
379.026672 156.0
379.059174 92.0
379.131287 36.0
379.22818 96.0
379.274719 196.0
379.309601 92.0
379.336731 72.0
379.402618 172.0
379.517609 176.0
379.632263 108.0
379.663116 148.0
379.711243 108.0
379.755493 120.0
379.78833 120.0
379.861603 132.0
379.895325 84.0
379.986115 132.0
380.028931 228.0
380.075989 176.0
380.130737 88.0
380.180237 260.0
380.262878 180.0
380.293732 156.0
380.351685 244.0
380.406555 132.0
380.445709 236.0
380.475769 128.0
380.515564 396.0
380.560028 124.0
380.612213 148.0
380.66629 224.0
380.707764 44.0
380.717285 108.0
380.764587 200.0
380.809479 172.0
380.841614 160.0
380.88147 224.0
380.911713 280.0
380.949677 368.0
380.974884 148.0
380.990021 460.0
381.00827 248.0
381.061371 728.0
381.147552 197940.0
381.291107 192.0
381.330811 184.0
381.370911 76.0
381.407837 212.0
381.454315 136.0
381.497528 128.0
381.575836 232.0
381.614502 228.0
381.724304 224.0
381.787689 1148.0
381.827515 356.0
381.869049 124.0
381.900604 96.0
381.928467 396.0
381.959076 116.0
382.013123 428.0
382.069366 204.0
382.149536 46196.0
382.253571 144.0
382.281342 176.0
382.337708 76.0
382.396057 164.0
382.437378 124.0
382.491425 100.0
382.561188 84.0
382.595551 236.0
382.63382 92.0
382.691162 112.0
382.729065 64.0
382.759369 84.0
382.77475 72.0
382.798706 76.0
382.848022 192.0
382.893463 124.0
382.923126 76.0
382.991028 92.0
383.037231 192.0
383.078979 388.0
383.152313 5716.0
383.207367 296.0
383.277283 188.0
383.306458 88.0
383.366699 28.0
383.373657 100.0
383.446869 148.0
383.476929 56.0
383.548645 112.0
383.628052 72.0
383.639587 120.0
383.667664 120.0
383.742554 144.0
383.812653 76.0
383.85495 104.0
383.935211 92.0
383.970306 108.0
383.983887 48.0
384.023468 152.0
384.036285 92.0
384.049683 160.0
384.097534 108.0
384.158264 804.0
384.216797 168.0
384.245483 192.0
384.271942 300.0
384.322601 136.0
384.358551 204.0
384.389587 276.0
384.445984 168.0
384.551147 336.0
384.594452 128.0
384.644745 228.0
384.678833 176.0
384.733643 224.0
384.766754 152.0
384.798401 236.0
384.881042 120.0
384.914612 72.0
384.969116 152.0
385.023193 72.0
385.051392 96.0
385.090912 156.0
385.148041 64.0
385.218506 168.0
385.257477 68.0
385.306519 72.0
385.346497 216.0
385.379913 56.0
385.407959 228.0
385.490143 116.0
385.527069 36.0
385.61438 128.0
385.644257 140.0
385.677734 84.0
385.759827 92.0
385.809753 80.0
385.886658 136.0
385.952118 104.0
385.994415 36.0
386.064789 144.0
386.229065 80.0
386.291656 76.0
386.412933 76.0
386.459869 48.0
386.522491 76.0
386.557709 144.0
386.60025 64.0
386.682922 92.0
386.746979 120.0
386.847321 52.0
386.943359 76.0
387.019592 64.0
387.20755 56.0
387.3237 100.0
387.399506 116.0
387.462189 56.0
387.513123 96.0
387.662018 68.0
387.850128 92.0
387.955963 32.0
388.226501 32.0
388.274048 68.0
388.35202 48.0
388.433624 104.0
388.779663 72.0
388.826752 152.0
388.905243 72.0
389.168274 56.0
389.309631 132.0
389.714233 180.0
390.158356 132.0
390.339203 140.0
390.441467 40.0
390.752197 60.0
391.126068 60.0
391.157532 92.0
391.20871 148.0
391.413452 104.0
391.486694 80.0
391.56311 96.0
391.842773 96.0
392.192749 144.0
392.335419 56.0
392.426086 132.0
392.777435 44.0
392.966431 56.0
393.10849 128.0
393.175568 128.0
393.217346 164.0
393.345276 80.0
393.440033 32.0
394.090179 52.0
394.166779 68.0
394.210236 144.0
394.395996 60.0
394.448639 112.0
394.84671 56.0
395.161621 872.0
395.189819 428.0
395.345184 76.0
395.586639 72.0
395.614349 88.0
395.737091 52.0
396.026672 92.0
396.164001 160.0
396.186401 400.0
396.259888 144.0
396.66806 104.0
396.834595 104.0
396.937683 44.0
396.969391 96.0
397.02887 100.0
397.152832 144.0
397.773865 120.0
397.92627 128.0
398.227448 100.0
398.275116 68.0
398.55719 108.0
398.902954 40.0
399.058014 36.0
399.15741 196.0
399.209106 156.0
400.07077 120.0
400.191956 68.0
400.339294 92.0
400.893402 84.0
401.016571 72.0
401.076355 56.0
401.120209 228.0
401.41922 68.0
401.487 36.0
402.430756 100.0
402.564484 100.0
403.499481 120.0
403.583435 100.0
403.851379 92.0
403.915375 56.0
404.168762 96.0
404.263458 56.0
404.954529 52.0
405.416809 72.0
405.508972 36.0
405.877808 80.0
406.327026 112.0
406.916992 92.0
407.182007 136.0
407.611847 176.0
407.885162 104.0
408.649261 184.0
408.943024 112.0
409.059753 92.0
409.210663 684.0
409.381836 148.0
409.933746 92.0
410.138824 128.0
410.219757 136.0
411.216187 276.0
411.724884 44.0
412.573425 84.0
412.686615 188.0
413.011414 64.0
413.560425 88.0
413.940979 156.0
414.37439 56.0
415.28244 60.0
415.558289 72.0
417.739899 68.0
418.081696 164.0
419.194214 412.0
419.266785 136.0
420.20462 100.0
421.200714 40.0
421.519409 116.0
422.153015 76.0
422.5784 96.0
422.843628 84.0
423.022369 124.0
423.077728 88.0
424.093597 88.0
424.175568 104.0
425.041229 112.0
425.742889 56.0
426.092041 72.0
426.391998 44.0
428.202271 172.0
428.853241 128.0
429.838898 108.0
430.012207 28.0
430.342468 152.0
432.11969 48.0
432.218994 56.0
432.272797 224.0
432.980682 104.0
433.084229 36.0
433.241638 108.0
433.457092 56.0
433.494385 116.0
433.557648 76.0
433.813538 104.0
434.070587 132.0
434.35675 76.0
434.481201 96.0
434.817322 80.0
434.896179 132.0
435.01239 52.0
435.178467 132.0
435.348694 120.0
435.668518 40.0
435.780701 184.0
435.872131 64.0
436.025879 64.0
436.146423 148.0
436.196716 80.0
436.260864 172.0
436.304749 128.0
436.454041 76.0
436.508118 44.0
436.591278 80.0
436.791138 156.0
436.899078 152.0
436.994232 192.0
437.063782 88.0
437.101929 116.0
437.208588 30476.0
437.344116 132.0
437.445923 88.0
437.50119 104.0
437.560089 48.0
437.586823 60.0
437.666199 128.0
437.703949 144.0
437.751404 36.0
437.822144 152.0
437.851501 64.0
437.883209 80.0
437.937256 108.0
437.993073 228.0
438.028839 72.0
438.106354 136.0
438.212036 10572.0
438.33136 28.0
438.367218 144.0
438.439697 68.0
438.498871 160.0
438.677277 28.0
438.710632 152.0
438.798187 56.0
438.859406 76.0
438.876099 52.0
438.895752 60.0
438.9552 164.0
439.126312 116.0
439.217407 1480.0
439.311707 148.0
439.695007 68.0
439.728394 68.0
440.049835 40.0
440.083221 92.0
440.192047 136.0
440.221161 228.0
440.55246 148.0
440.709747 100.0
440.843475 68.0
440.910339 36.0
440.977203 92.0
441.031525 112.0
441.115143 128.0
441.1828 260.0
441.278168 72.0
441.529083 140.0
441.65036 88.0
441.73822 64.0
441.901367 92.0
442.098022 48.0
442.269623 40.0
442.449615 64.0
442.621307 68.0
442.730164 40.0
442.834869 56.0
443.932892 72.0
444.03775 72.0
444.18454 140.0
444.360748 72.0
444.515991 32.0
444.688049 60.0
444.815674 108.0
446.137238 56.0
449.481384 88.0
450.093445 88.0
450.325714 84.0
451.158173 92.0
451.268066 28.0
451.513336 80.0
452.037903 124.0
452.414612 56.0
452.550079 124.0
453.384583 112.0
453.98233 104.0
455.22464 112.0
455.701447 92.0
455.867157 32.0
457.457855 40.0
457.900696 44.0
458.95752 136.0
459.328552 64.0
459.366943 44.0
460.331543 48.0
461.90863 64.0
462.811615 100.0
465.714935 84.0
465.822296 80.0
469.321228 96.0
469.398865 48.0
478.119293 108.0
479.495514 120.0
479.774506 108.0
482.901001 60.0
486.085907 96.0
488.102142 84.0
489.268097 72.0
491.76593 80.0
492.482727 84.0
495.778809 68.0
496.785309 56.0
498.694672 76.0
499.886566 104.0
500.028961 136.0
501.788513 96.0
505.01712 56.0
506.579315 100.0
506.691315 76.0
506.857086 108.0
508.498413 40.0
510.614532 104.0
510.67749 48.0
510.794434 112.0
512.735046 40.0
516.324158 64.0
517.16571 64.0
518.973267 52.0
519.091125 144.0
519.136475 164.0
520.870239 32.0
523.148438 120.0
525.481873 72.0
526.335388 116.0
527.253601 72.0
528.419617 124.0
529.174805 156.0
529.335022 64.0
530.966492 36.0
532.366211 32.0
532.908203 84.0
538.939514 56.0
540.02124 96.0
542.911194 68.0
543.259094 128.0
544.029419 108.0
545.701904 100.0
546.371643 60.0
546.999878 96.0
547.847412 84.0
548.355286 48.0
548.453186 128.0
550.968384 72.0
552.36615 124.0
552.562622 36.0
553.99054 100.0
554.14978 136.0
556.452637 68.0
557.114868 112.0
558.750854 64.0
558.835571 60.0
561.218811 80.0
562.124512 52.0
563.139526 72.0
564.046692 88.0
564.869507 68.0
565.886963 104.0
566.15686 100.0
566.246826 68.0
566.583191 68.0
568.612671 76.0
569.547974 96.0
570.721802 112.0
571.16687 76.0
573.854797 52.0
574.217163 60.0
574.846924 44.0
575.257385 44.0
580.050537 20.0
584.295715 44.0
585.465393 36.0
590.204041 44.0
590.411987 64.0
591.379639 48.0
595.214294 104.0
599.514526 76.0
600.957886 104.0
601.870667 104.0
604.613037 96.0
604.852844 56.0
605.229797 64.0
606.763367 72.0
606.974182 56.0
607.302795 124.0
608.08783 108.0
614.929016 76.0
620.305664 72.0
620.613037 168.0
622.53833 52.0
633.621582 108.0
634.413391 36.0
634.513672 60.0
637.274048 68.0
637.309204 52.0
638.882874 60.0
639.290405 112.0
639.793762 56.0
640.030396 96.0
640.886658 52.0
649.912109 88.0
650.135437 64.0
650.998413 60.0
651.75531 68.0
652.111023 80.0
656.219055 44.0
659.000671 68.0
660.473022 128.0
669.444336 76.0
672.589294 136.0
673.095215 124.0
673.36377 104.0
673.565186 60.0
674.355713 68.0
675.426025 60.0
677.258362 184.0
678.600586 84.0
679.850647 92.0
680.302246 120.0
681.470764 68.0
681.803284 72.0
683.280029 64.0
685.315735 80.0
689.532166 52.0
690.515076 28.0
692.938721 112.0
692.98584 88.0
694.464172 236.0
696.973511 40.0
697.409729 84.0
698.824341 128.0
700.21405 56.0
700.256165 44.0
700.735535 76.0
701.615662 100.0
702.443604 60.0
702.559631 60.0
702.971191 84.0
703.509521 64.0
704.12207 88.0
707.352661 92.0
711.232727 44.0
713.777527 72.0
716.262878 40.0
716.593201 96.0
717.568542 72.0
718.464478 224.0
721.898865 80.0
725.218201 152.0
726.349548 80.0
729.152283 84.0
732.272766 184.0
738.468811 140.0
739.204529 80.0
740.260132 92.0
740.438843 120.0
741.484436 112.0
745.076599 48.0
746.527832 108.0
747.03363 80.0
749.510864 48.0
751.50647 52.0
753.701416 48.0
753.97467 156.0
756.315552 48.0
757.235352 64.0
758.32019 84.0
759.614197 40.0
760.256165 128.0
761.189331 176.0
761.639709 36.0
763.398376 204.0
763.667908 76.0
766.574707 116.0
767.302246 172.0
767.506287 124.0
768.879822 76.0
773.306763 184.0
777.307983 132.0
778.606995 172.0
778.95697 44.0
782.744385 44.0
784.739136 148.0
785.927185 188.0
786.563416 76.0
787.37854 64.0
787.819824 76.0
791.970398 152.0
792.099243 176.0
792.468994 196.0
792.956482 108.0
793.040588 80.0
794.644348 264.0
795.160645 216.0
795.216736 156.0
796.098145 108.0
796.749695 104.0
796.789062 40.0
798.497864 92.0
798.548462 84.0
800.354919 124.0
802.095703 180.0
802.828674 92.0
803.894836 112.0
804.137512 76.0
804.843201 120.0
805.955933 72.0
807.425659 64.0
808.393066 40.0
812.00177 192.0
813.622437 176.0
817.455505 236.0
819.747314 104.0
820.890503 28.0
821.141418 120.0
821.574951 92.0
822.39093 68.0
822.824768 156.0
823.972717 100.0
825.024231 204.0
826.894714 148.0
827.146545 100.0
827.472839 180.0
827.587341 36.0
836.267212 76.0
837.844971 172.0
839.147461 144.0
839.228149 32.0
839.787537 176.0
840.456726 184.0
841.103088 80.0
844.084229 88.0
844.431213 64.0
845.576721 104.0
846.097717 116.0
846.213501 132.0
847.174866 144.0
848.299072 160.0
848.971619 240.0
849.14563 76.0
852.05957 108.0
853.495178 44.0
854.972717 140.0
855.50238 52.0
855.741089 172.0
857.039917 172.0
857.919983 40.0
860.580383 184.0
861.222717 128.0
862.169189 112.0
862.321167 56.0
862.441284 176.0
864.309448 172.0
864.724976 40.0
866.10675 176.0
866.270752 76.0
866.968018 180.0
867.513062 48.0
868.363281 140.0
869.624756 68.0
870.769653 40.0
873.061646 108.0
873.367493 124.0
874.291199 92.0
874.785583 208.0
877.247925 188.0
878.828491 148.0
879.997131 116.0
880.286438 196.0
880.640808 48.0
881.450134 160.0
881.958435 172.0
882.08844 152.0
882.159363 36.0
885.247864 156.0
888.080688 96.0
888.134094 228.0
888.567139 172.0
888.691711 192.0
888.822266 116.0
888.899414 104.0
890.169739 56.0
891.042847 144.0
892.837952 244.0
892.903381 120.0
893.76001 156.0
895.051636 72.0
895.790161 100.0
896.093994 208.0
896.439575 212.0
897.095215 100.0
897.244202 136.0
897.303833 144.0
897.649658 140.0
899.546936 188.0
900.436584 132.0
900.52948 180.0
900.573975 160.0
900.711365 232.0
900.771057 184.0
900.830811 232.0
901.727051 168.0
902.109619 68.0
902.809143 144.0
903.820129 120.0
904.681946 152.0
904.783691 136.0
905.759827 212.0
905.999451 104.0
906.304993 196.0
907.389832 152.0
908.025452 172.0
908.133423 168.0
909.099304 196.0
909.303345 132.0
909.405396 68.0
909.801575 28.0
910.137756 76.0
911.381104 224.0
911.93396 188.0
912.637329 104.0
913.202576 196.0
913.473267 100.0
914.454041 72.0
915.923157 180.0
916.947449 76.0
917.272949 140.0
917.592468 120.0
918.545288 112.0
918.587524 124.0
919.383911 148.0
919.794312 92.0
920.072021 152.0
920.301453 176.0
920.385986 152.0
920.530884 56.0
920.977783 60.0
923.093079 120.0
923.976135 144.0
924.393616 116.0
925.228882 144.0
925.640564 56.0
926.173523 136.0
926.379517 132.0
926.955078 48.0
927.468994 100.0
927.943054 108.0
927.99762 84.0
928.597961 44.0
931.007324 60.0
932.732849 128.0
933.164429 164.0
933.96106 168.0
934.143555 220.0
934.526855 172.0
935.551147 148.0
935.76239 148.0
935.823242 132.0
936.822021 240.0
937.041382 180.0
937.138855 180.0
937.949341 128.0
938.424866 164.0
938.577332 152.0
939.040771 160.0
939.345764 128.0
939.699768 136.0
940.035156 144.0
940.49292 84.0
941.524719 148.0
941.805664 60.0
942.746521 164.0
943.431091 72.0
944.40332 160.0
944.776489 72.0
944.917175 212.0
945.186401 44.0
945.480164 44.0
945.755554 120.0
946.104492 144.0
946.196289 172.0
946.710632 184.0
946.875977 104.0
947.310852 160.0
947.496399 156.0
947.660095 140.0
948.033875 156.0
948.618103 176.0
948.781616 60.0
949.020752 212.0
949.695312 88.0
949.781189 204.0
950.051086 144.0
950.406921 40.0
950.455994 200.0
951.05127 120.0
951.094238 144.0
951.984497 192.0
952.058167 124.0
952.506531 60.0
952.69696 64.0
954.356323 172.0
955.857178 252.0
956.287964 124.0
956.574219 200.0
956.989746 112.0
957.205261 176.0
957.593201 72.0
958.3078 140.0
958.578918 224.0
959.028809 76.0
959.263062 152.0
959.411011 236.0
959.996704 56.0
961.360046 76.0
961.703491 216.0
961.804443 156.0
961.872314 104.0
962.180969 104.0
962.49585 68.0
963.181396 112.0
963.317261 128.0
963.521118 80.0
963.867126 164.0
964.639709 144.0
964.862244 48.0
965.097168 116.0
965.410278 144.0
965.789001 120.0
965.956787 172.0
966.581665 180.0
967.095337 188.0
967.349121 136.0
967.398621 92.0
968.135437 164.0
968.562805 144.0
968.643311 232.0
968.779602 144.0
969.002625 152.0
969.070801 140.0
969.182312 200.0
969.38678 132.0
969.547913 196.0
969.938354 156.0
970.093323 124.0
970.645142 116.0
970.986206 204.0
971.730591 160.0
971.873291 36.0
972.208374 148.0
972.624207 76.0
972.798035 104.0
973.158081 160.0
973.207764 48.0
973.4375 128.0
973.847412 60.0
974.431335 152.0
974.586609 120.0
976.650574 116.0
976.855835 60.0
977.3349 48.0
978.355591 132.0
978.803833 140.0
979.009338 96.0
979.12146 216.0
979.401733 144.0
979.881409 160.0
980.308899 164.0
980.51709 180.0
980.872253 176.0
980.990662 256.0
981.252502 148.0
982.387512 144.0
982.687012 212.0
983.292297 140.0
983.562866 148.0
983.666809 168.0
983.985168 204.0
984.247375 120.0
984.390991 140.0
984.472229 148.0
985.021851 108.0
985.690308 104.0
985.959045 180.0
986.734131 136.0
986.840393 116.0
986.90918 128.0
987.18042 192.0
987.246826 208.0
987.365662 116.0
987.615845 160.0
988.335266 44.0
988.466675 184.0
988.63562 64.0
989.048706 216.0
990.025391 252.0
990.670532 152.0
991.077759 156.0
991.184265 144.0
991.829773 88.0
992.130676 124.0
992.456726 60.0
992.803162 128.0
993.465027 144.0
993.529175 124.0
993.65332 172.0
994.30481 188.0
994.539429 128.0
994.639893 144.0
994.73407 144.0
995.255127 180.0
996.046448 148.0
996.190918 132.0
996.310242 116.0
996.354248 96.0
996.781494 136.0
996.856873 128.0
997.32196 200.0
997.460266 92.0
998.132935 152.0
998.246155 164.0
998.969421 176.0
999.227356 136.0
999.29657 120.0
999.630066 124.0
999.831421 196.0
1000.448242 100.0
1000.561584 248.0
1000.788208 152.0
1001.468323 92.0
1001.550232 144.0
1001.676208 184.0
1002.110901 256.0
1002.608704 136.0
1002.841919 40.0
1002.96167 128.0
1003.447021 124.0
1003.92627 128.0
1004.916565 116.0
1005.320435 140.0
1005.875854 188.0
1006.065186 144.0
1006.53241 168.0
1008.212769 144.0
1008.737366 48.0
1009.483398 188.0
1010.098633 160.0
1010.255005 172.0
1011.476318 188.0
1011.552307 120.0
1011.862488 152.0
1012.29303 124.0
1012.945374 112.0
1013.769775 68.0
1014.231689 140.0
1014.301392 196.0
1014.821228 84.0
1015.499756 172.0
1015.728149 180.0
1015.77887 192.0
1015.874023 124.0
1016.127808 100.0
1016.427307 192.0
1016.489441 180.0
1016.660767 164.0
1017.320862 116.0
1017.612915 60.0
1017.841492 144.0
1018.838623 132.0
1019.562988 112.0
1019.690125 164.0
1019.804504 196.0
1019.950684 92.0
1020.967957 148.0
1021.082458 64.0
1021.196899 220.0
1021.46405 152.0
1021.985718 108.0
1022.762146 176.0
1022.806702 88.0
1023.175903 108.0
1023.258667 64.0
1023.538818 172.0
1023.984619 72.0
1024.940186 124.0
1025.284302 160.0
1025.934448 180.0
1026.355225 92.0
1027.184326 196.0
1028.536987 136.0
1028.747681 132.0
1029.373413 156.0
1029.667114 124.0
1030.074707 224.0
1030.842651 248.0
1031.289917 228.0
1031.628784 132.0
1031.743774 112.0
1032.453491 244.0
1032.600586 168.0
1033.349121 144.0
1033.745728 128.0
1033.875366 80.0
1034.078613 168.0
1034.424194 84.0
1034.612671 188.0
1035.339844 104.0
1035.833008 180.0
1036.178833 120.0
1036.960693 44.0
1037.081665 144.0
1037.146484 272.0
1037.377197 188.0
1037.633667 96.0
1037.77478 148.0
1038.852173 240.0
1038.897095 208.0
1039.179443 132.0
1039.699097 88.0
1040.051392 140.0
1040.218994 120.0
1040.726196 164.0
1041.194946 88.0
1041.599609 160.0
1041.824463 164.0
1042.074951 176.0
1042.40918 232.0
1042.454102 136.0
1043.213623 168.0
1043.361572 180.0
1043.611084 148.0
1044.318481 180.0
1044.517944 108.0
1044.685181 88.0
1044.762329 184.0
1044.878174 64.0
1045.553833 176.0
1045.656738 228.0
1046.042969 196.0
1046.448486 48.0
1046.783325 108.0
1047.519531 292.0
1047.652832 152.0
1048.078003 204.0
1048.368042 156.0
1048.426025 152.0
1048.477539 112.0
1048.94812 80.0
1049.979736 148.0
1050.111084 88.0
1050.173218 112.0
1050.4729 136.0
1050.863403 216.0
1050.947388 228.0
1051.353027 148.0
1051.457153 212.0
1051.560425 80.0
1051.643188 136.0
1051.72168 116.0
1051.766968 72.0
1052.021973 220.0
1052.390259 260.0
1052.441895 136.0
1052.851562 216.0
1052.916138 172.0
1053.148682 124.0
1053.439331 176.0
1053.930298 52.0
1054.098389 128.0
1054.38916 112.0
1054.563599 144.0
1054.667114 200.0
1054.789917 132.0
1054.854492 132.0
1055.106689 204.0
1055.358765 104.0
1055.572144 168.0
1055.682129 152.0
1055.823486 132.0
1056.626465 96.0
1056.846436 104.0
1056.943481 188.0
1057.137573 192.0
1058.069702 180.0
1058.140869 84.0
1058.212158 156.0
1058.814331 204.0
1058.930908 128.0
1059.33252 80.0
1059.831299 68.0
1060.271973 120.0
1060.686768 152.0
1060.959106 148.0
1061.004395 36.0
1061.289673 120.0
1061.643921 188.0
1061.847412 196.0
1062.262451 172.0
1062.509033 176.0
1062.794434 180.0
1062.929932 148.0
1063.105957 312.0
1063.37854 52.0
1063.761475 172.0
1063.930298 116.0
1064.080322 212.0
1064.235474 212.0
1064.936768 100.0
1065.157593 108.0
1065.683838 116.0
1066.827637 168.0
1066.912109 140.0
1067.035645 112.0
1067.081177 88.0
1067.178711 140.0
1067.718384 136.0
1067.842041 148.0
1067.906982 32.0
1067.991577 112.0
1068.06311 208.0
1068.27124 184.0
1068.798706 196.0
1068.941406 160.0
1069.266846 80.0
1069.546631 156.0
1069.689941 160.0
1069.805298 188.0
1069.950317 156.0
1070.14563 112.0
1070.725098 128.0
1070.803345 96.0
1071.005249 176.0
1071.14856 148.0
1071.820923 196.0
1072.001953 96.0
1072.269165 84.0
1072.497314 136.0
1073.126831 160.0
1073.266602 92.0
1073.716553 108.0
1073.827393 140.0
1074.062256 140.0
1074.760254 48.0
1075.151733 164.0
1075.437988 144.0
1076.393433 348.0
1076.535767 120.0
1076.640259 128.0
1076.791382 240.0
1077.15625 128.0
1077.783447 112.0
1078.534912 184.0
1078.685303 80.0
1078.81604 128.0
1078.985962 124.0
1079.822998 136.0
1080.025757 180.0
1080.54248 136.0
1080.791138 156.0
1080.948242 112.0
1081.046387 48.0
1081.209961 44.0
1081.458618 300.0
1081.759766 140.0
1081.911133 168.0
1082.060913 268.0
1082.78772 124.0
1083.187256 180.0
1083.449341 104.0
1083.580322 84.0
1083.809692 120.0
1084.164429 192.0
1084.34082 160.0
1084.412598 140.0
1084.583008 284.0
1084.635376 44.0
1084.759888 200.0
1084.884521 184.0
1085.526978 116.0
1085.69751 116.0
1085.743408 112.0
1086.150024 152.0
1086.852051 168.0
1087.075195 104.0
1087.278564 136.0
1087.327148 168.0
1087.783936 92.0
1087.9021 200.0
1088.14502 100.0
1088.355103 92.0
1088.401123 176.0
1088.532471 172.0
1088.650635 164.0
1088.762329 108.0
1088.869507 144.0
1089.116943 220.0
1089.307373 228.0
1089.800171 68.0
1089.953003 104.0
1090.002075 120.0
1090.174683 128.0
1090.581299 144.0
1090.739868 176.0
1091.653809 224.0
1091.989136 120.0
1092.357544 100.0
1092.910278 196.0
1093.430054 208.0
1093.476074 172.0
1093.568237 140.0
1094.193604 132.0
1094.32312 184.0
1094.397705 140.0
1094.615601 196.0
1094.799316 204.0
1095.332886 116.0
1095.932373 148.0
1096.03772 156.0
1096.255249 184.0
1096.439697 136.0
1096.835205 156.0
1096.960449 164.0
1097.046143 216.0
1097.395508 212.0
1097.480347 88.0
1097.72522 136.0
1098.29895 76.0
1098.384766 160.0
1098.549683 152.0
1098.727783 240.0
1099.229248 76.0
1099.30835 172.0
1099.41394 168.0
1099.565796 196.0
1099.611938 112.0
1099.737427 136.0
1099.803345 140.0
1100.120239 140.0
1100.390869 184.0
1100.5271 108.0
1100.926025 120.0
1101.2229 96.0
1101.691895 104.0
1101.777832 168.0
1102.06189 112.0
1102.229858 204.0
1102.6698 168.0
1102.78125 136.0
1103.264771 72.0
1103.416748 188.0
1103.568848 104.0
1103.727539 140.0
1103.790771 168.0
1104.025146 176.0
1104.223511 188.0
1104.289673 316.0
1104.997437 164.0
1105.434204 160.0
1105.590088 96.0
1105.687012 192.0
1105.937134 176.0
1106.036377 136.0
1106.605713 112.0
1106.744751 116.0
1107.844238 148.0
1108.003174 180.0
1108.129028 132.0
1108.288086 40.0
1108.592896 76.0
1108.652588 208.0
1108.765137 136.0
1109.282227 104.0
1109.401489 136.0
1109.620239 148.0
1109.739624 124.0
1110.170654 108.0
1110.787598 132.0
1111.072632 232.0
1111.245239 40.0
1111.683105 172.0
1111.975098 144.0
1112.118164 176.0
1112.266602 188.0
1112.333496 160.0
1112.512817 152.0
1112.672119 188.0
1112.990845 184.0
1113.08374 148.0
1113.375977 172.0
1113.56189 164.0
1113.747925 160.0
1113.874023 172.0
1114.246094 120.0
1114.292603 180.0
1114.343628 188.0
1114.394043 176.0
1114.664673 68.0
1115.143188 208.0
1115.342529 144.0
1115.839111 144.0
1115.967407 140.0
1116.692261 124.0
1116.812012 136.0
1116.945068 80.0
1117.523804 184.0
1117.590332 136.0
1117.800903 188.0
1117.903076 300.0
1118.615234 52.0
1118.794922 92.0
1118.88147 168.0
1119.094604 140.0
1119.387573 204.0
1119.540771 144.0
1120.060181 156.0
1120.67981 192.0
1120.90625 84.0
1121.286133 140.0
1121.526123 188.0
1121.572754 196.0
1122.595093 188.0
1123.099609 148.0
1123.24646 204.0
1123.940186 152.0
1124.207153 120.0
1124.300537 140.0
1124.374023 96.0
1124.487427 124.0
1124.598389 196.0
1125.408691 72.0
1125.522217 52.0
1125.647827 168.0
1125.668701 136.0
1125.862793 100.0
1126.009644 124.0
1126.353882 204.0
1126.403687 156.0
1126.69104 140.0
1127.018311 172.0
1127.887085 168.0
1128.321655 196.0
1128.521118 116.0
1129.009399 160.0
1129.391602 92.0
1129.598999 192.0
1129.699341 84.0
1129.799683 108.0
1130.000366 176.0
1130.207764 152.0
1130.319458 180.0
1130.388428 160.0
1130.441895 48.0
1130.843628 156.0
1131.151367 136.0
1131.539673 144.0
1131.586548 116.0
1132.001709 172.0
1132.142334 144.0
1132.483887 140.0
1132.626587 384.0
1132.939331 44.0
1133.133667 184.0
1133.301147 148.0
1134.205811 108.0
1134.286255 184.0
1134.520874 96.0
1134.641602 180.0
1135.117676 212.0
1135.224976 176.0
1135.291992 56.0
1135.359009 196.0
1135.466309 204.0
1135.513306 196.0
1135.744629 136.0
1135.762695 168.0
1135.848633 136.0
1136.029785 140.0
1136.103516 80.0
1136.16394 88.0
1136.613403 148.0
1137.203979 156.0
1137.318115 152.0
1137.519531 52.0
1137.774536 488.0
1137.855103 108.0
1137.928955 176.0
1138.083374 116.0
1138.224487 100.0
1138.432617 148.0
1138.667603 128.0
1138.949707 60.0
1138.996704 64.0
1139.191528 116.0
1139.312256 252.0
1139.480469 128.0
1139.742432 232.0
1139.84729 192.0
1139.95752 176.0
1140.004517 304.0
1140.273315 136.0
1140.320435 76.0
1140.53894 152.0
1140.858154 128.0
1141.012817 176.0
1141.254761 164.0
1141.369141 140.0
1141.496826 136.0
1141.752441 176.0
1142.324097 140.0
1142.936401 108.0
1143.346802 196.0
1143.68335 364.0
1143.75061 180.0
1144.209961 152.0
1144.821167 184.0
1145.326294 124.0
1145.939331 84.0
1145.993164 144.0
1146.404175 164.0
1146.599609 156.0
1146.950073 96.0
1147.300659 168.0
1147.35376 136.0
1147.651245 132.0
1147.920898 136.0
1148.548218 188.0
1148.723511 176.0
1149.060913 148.0
1149.108032 200.0
1149.411743 204.0
1149.633301 192.0
1149.998779 36.0
1150.095947 220.0
1150.916992 140.0
1151.136475 196.0
1151.89624 128.0
1151.963745 52.0
1152.105591 212.0
1152.2948 176.0
1152.729004 208.0
1152.943481 156.0
1153.0448 128.0
1153.502441 180.0
1153.554077 196.0
1153.645874 184.0
1153.869507 116.0
1153.923584 156.0
1154.383301 124.0
1154.964966 116.0
1155.276123 132.0
1155.337036 84.0
1155.445312 132.0
1155.567017 176.0
1155.621216 104.0
1155.733154 80.0
1155.790283 172.0
1156.352051 124.0
1156.399414 136.0
1156.771729 172.0
1156.866455 272.0
1156.924072 156.0
1157.04248 172.0
1157.150757 112.0
1157.218506 136.0
1157.32251 372.0
1157.536743 92.0
1157.70105 56.0
1157.766968 136.0
1157.976929 120.0
1158.024292 128.0
1158.268188 52.0
1158.4646 108.0
1159.108276 132.0
1159.176025 160.0
1159.30481 176.0
1159.643799 144.0
1159.720581 228.0
1160.840942 196.0
1160.931763 228.0
1161.121582 168.0
1161.223389 160.0
1161.317993 172.0
1161.542114 140.0
1161.894897 56.0
1161.962769 44.0
1162.084839 148.0
1162.193359 160.0
1162.437622 112.0
1162.586914 140.0
1162.641235 204.0
1162.722656 132.0
1162.804077 224.0
1162.967041 144.0
1163.17749 240.0
1163.255981 224.0
1163.632324 140.0
1163.700195 144.0
1163.873535 128.0
1164.148315 144.0
1164.555786 204.0
1165.03125 168.0
1165.4729 160.0
1165.540894 140.0
1166.016602 88.0
1166.281616 168.0
1166.512695 168.0
1166.716675 140.0
1167.029419 196.0
1167.661865 148.0
1168.552856 124.0
1168.954346 124.0
1169.192505 180.0
1169.355835 72.0
1169.478394 132.0
1169.526001 224.0
1169.682617 108.0
1169.927612 144.0
1169.975342 144.0
1170.32251 56.0
1170.526855 48.0
1170.753662 188.0
1171.500732 172.0
1171.834595 152.0
1171.909546 92.0
1172.502319 92.0
1173.204468 136.0
1173.613525 124.0
1173.824829 172.0
1173.948486 176.0
1174.772827 120.0
1174.943481 48.0
1175.018433 212.0
1175.091187 152.0
1175.154907 108.0
1175.298218 184.0
1175.376953 176.0
1175.550659 112.0
1175.615356 136.0
1176.178589 100.0
1176.260498 144.0
1176.369751 164.0
1176.580566 180.0
1176.772461 164.0
1176.904053 164.0
1176.99939 184.0
1177.612427 100.0
1177.878784 140.0
1178.035889 80.0
1178.090576 128.0
1178.1521 224.0
1178.321167 180.0
1178.438965 176.0
1179.22168 204.0
1179.327393 276.0
1179.559814 156.0
1179.837769 160.0
1179.90625 208.0
1180.093018 132.0
1180.154541 176.0
1180.544312 76.0
1180.598999 136.0
1180.667358 60.0
1180.852051 92.0
1180.981934 176.0
1181.241943 164.0
1181.522339 244.0
1181.625 164.0
1181.670044 116.0
1181.741333 132.0
1182.199829 108.0
1182.357178 164.0
1182.418823 212.0
1182.487427 112.0
1182.932129 148.0
1183.025513 132.0
1183.31543 196.0
1183.397583 148.0
1183.466064 124.0
1183.692017 160.0
1183.746826 156.0
1183.801636 176.0
1183.915283 156.0
1184.149048 208.0
1184.376953 120.0
1184.452271 192.0
1184.890747 136.0
1184.959229 84.0
1185.020874 124.0
1185.096191 208.0
1185.42749 68.0
1185.563477 172.0
1185.877441 132.0
1186.0625 244.0
1186.3573 216.0
1186.405273 152.0
1186.686279 168.0
1186.905762 136.0
1187.145752 160.0
1187.289795 172.0
1187.694458 136.0
1187.797363 132.0
1187.900146 160.0
1187.982544 128.0
1188.222656 172.0
1188.810303 180.0
1188.963745 124.0
1189.271606 120.0
1189.444092 124.0
1189.499023 172.0
1190.583862 132.0
1190.91272 140.0
1191.044067 156.0
1191.133423 184.0
1191.579834 172.0
1191.669189 184.0
1191.895874 192.0
1192.033325 84.0
1192.122681 148.0
1192.528198 192.0
1193.256836 104.0
1193.724365 136.0
1193.800049 92.0
1193.971924 100.0
1194.148315 56.0
1194.27771 224.0
1195.361572 152.0
1195.588623 176.0
1195.650513 172.0
1195.800659 108.0
1196.077271 168.0
1196.264893 188.0
1196.414551 180.0
1196.646973 180.0
1196.979126 148.0
1197.153564 236.0
1197.292847 128.0
1197.35791 176.0
1197.481934 128.0
1197.667847 144.0
1198.191406 228.0
1198.391235 40.0
1198.839111 156.0
1199.142334 116.0
1199.21814 204.0
1199.293213 148.0
1199.784424 156.0
1199.845337 100.0
1200.0177 104.0
1200.148804 120.0
1200.383179 156.0
1200.855835 100.0
1201.15564 68.0
1201.4729 148.0
1201.915161 184.0
1202.011108 196.0
1202.514893 240.0
1202.632202 148.0
1203.163818 132.0
1203.757568 172.0
1203.833496 176.0
1203.97168 152.0
1204.222656 136.0
1204.807373 124.0
1204.917969 156.0
1205.049194 172.0
1205.221924 180.0
1205.408447 164.0
1205.526001 160.0
1205.581299 164.0
1205.80542 224.0
1205.820068 100.0
1205.846924 180.0
1206.292847 112.0
1206.638794 88.0
1206.742554 168.0
1206.839355 212.0
1207.28186 216.0
1207.392456 48.0
1207.710693 156.0
1207.793701 156.0
1207.934326 104.0
1208.021973 152.0
1208.418701 176.0
1208.52002 72.0
1208.675903 132.0
1208.75354 192.0
1208.845215 136.0
1208.942139 204.0
1209.25354 104.0
1209.387695 128.0
1209.648071 48.0
1209.876587 184.0
1209.987305 176.0
1210.265747 180.0
1210.416626 112.0
1210.465088 124.0
1211.143799 40.0
1211.219971 72.0
1211.400024 164.0
1211.753296 116.0
1212.210693 164.0
1212.307739 136.0
1212.400757 176.0
1212.487915 128.0
1212.571045 60.0
1212.737427 56.0
1212.973022 40.0
1213.430542 160.0
1213.631592 116.0
1213.798096 140.0
1213.922852 168.0
1213.985229 116.0
1214.033813 216.0
1214.096191 168.0
1214.498535 152.0
1214.574829 136.0
1214.956299 104.0
1215.004883 272.0
1215.143677 196.0
1215.539185 96.0
1216.12207 212.0
1216.27478 164.0
1216.344238 140.0
1216.503906 108.0
1216.663574 132.0
1216.829468 208.0
1217.128662 200.0
1217.232788 124.0
1217.399536 184.0
1217.774536 136.0
1217.907593 224.0
1218.066284 100.0
1218.53479 116.0
1218.698486 228.0
1218.78186 88.0
1219.087524 224.0
1219.261353 156.0
1219.386353 124.0
1219.717041 132.0
1219.817383 220.0
1219.952759 184.0
1220.102417 80.0
1220.206665 188.0
1220.387451 184.0
1221.082764 244.0
1221.138428 144.0
1221.187134 208.0
1221.583618 128.0
1221.653198 136.0
1221.71582 200.0
1221.7854 144.0
1221.966187 72.0
1222.035767 156.0
1222.286255 48.0
1222.334961 128.0
1222.397583 84.0
1222.968262 136.0
1223.058838 160.0
1223.232788 180.0
1223.51123 148.0
1223.720093 200.0
1223.935913 164.0
1223.984741 172.0
1224.305054 112.0
1224.35376 92.0
1224.482178 220.0
1224.674194 120.0
1225.505127 96.0
1225.893311 108.0
1226.102417 208.0
1226.206909 112.0
1226.255737 204.0
1226.499634 136.0
1226.922607 232.0
1227.238647 128.0
1227.30835 180.0
1227.364136 176.0
1227.789551 168.0
1227.874023 164.0
1227.963867 108.0
1228.131226 84.0
1228.662231 140.0
1228.717163 164.0
1228.845337 156.0
1228.964478 240.0
1229.055054 204.0
1229.449829 156.0
1229.854126 108.0
1230.084961 136.0
1230.160034 180.0
1230.177368 136.0
1230.206177 212.0
1230.35022 140.0
1230.671387 164.0
1231.054688 184.0
1231.160278 80.0
1231.450562 152.0
1231.593262 120.0
1231.865723 208.0
1232.228882 144.0
1232.298828 180.0
1232.410645 180.0
1233.095459 112.0
1233.486816 132.0
1233.759521 140.0
1233.829346 216.0
1234.067139 124.0
1234.262817 120.0
1234.45166 120.0
1234.696411 128.0
1234.766357 164.0
1234.878296 128.0
1234.948242 236.0
1235.060059 156.0
1235.257568 208.0
1235.696655 184.0
1235.752686 224.0
1236.046509 176.0
1236.19043 172.0
1236.515381 168.0
1236.662354 192.0
1236.760376 104.0
1236.900391 160.0
1237.27832 172.0
1237.474365 148.0
1237.56543 180.0
1237.628418 216.0
1237.705444 100.0
1237.817505 32.0
1237.899292 196.0
1238.06958 140.0
1238.307739 148.0
1238.384766 160.0
1238.497437 148.0
1238.713989 128.0
1238.931152 148.0
1239.085205 160.0
1239.325806 176.0
1239.687866 148.0
1239.954102 76.0
1240.613037 116.0
1240.760254 140.0
1241.706909 176.0
1241.77002 176.0
1241.882202 124.0
1242.190796 132.0
1242.380249 140.0
1242.471436 144.0
1242.602783 188.0
1242.688965 132.0
1243.018677 220.0
1243.425659 144.0
1244.078491 240.0
1244.254028 112.0
1244.591797 264.0
1244.696289 136.0
1244.745483 160.0
1244.815674 68.0
1244.949097 164.0
1245.033447 176.0
1245.215942 152.0
1245.272217 44.0
1245.441895 192.0
1245.581177 120.0
1245.756836 140.0
1245.862183 40.0
1246.108154 156.0
1246.157349 184.0
1246.445312 108.0
1246.501587 168.0
1246.72644 172.0
1247.014648 36.0
1247.113037 128.0
1247.183228 344.0
1247.344971 228.0
1247.52771 76.0
1247.612061 168.0
1247.815918 160.0
1248.026855 100.0
1248.258911 116.0
1248.484009 112.0
1249.138062 96.0
1249.405396 168.0
1249.45459 172.0
1249.593994 152.0
1249.775513 172.0
1249.876709 128.0
1249.97522 176.0
1250.080811 140.0
1250.268555 148.0
1250.327148 120.0
1250.404541 144.0
1250.517212 196.0
1250.608643 136.0
1250.664917 68.0
1251.066162 128.0
1251.256226 168.0
1251.446411 176.0
1251.495605 132.0
1251.868896 144.0
1251.967407 152.0
1252.5802 124.0
1252.678833 140.0
1252.812622 280.0
1253.385376 148.0
1254.151489 164.0
1254.27832 60.0
1254.581543 140.0
1254.870483 160.0
1254.94104 156.0
1255.011597 144.0
1255.096191 52.0
1255.928345 144.0
1256.704346 60.0
1256.889648 140.0
1257.452271 168.0
1257.579346 156.0
1258.073486 108.0
1258.407349 224.0
1258.715942 148.0
1258.857178 136.0
1258.958496 184.0
1259.84375 212.0
1259.916626 188.0
1260.065063 116.0
1260.354736 116.0
1260.56665 132.0
1260.750366 160.0
1260.806885 128.0
1261.301636 212.0
1261.414795 244.0
1261.662231 208.0
1261.736206 224.0
1261.763306 264.0
1261.838989 132.0
1262.220703 132.0
1262.963379 100.0
1263.408936 160.0
1263.479736 204.0
1263.529297 140.0
1263.649536 156.0
1264.038696 140.0
1264.166016 112.0
1264.321777 160.0
1264.491577 112.0
1265.001709 200.0
1265.057861 140.0
1265.291504 200.0
1265.461426 252.0
1265.553467 152.0
1265.680908 120.0
1265.737549 200.0
1266.034912 172.0
1266.134033 44.0
1266.459839 136.0
1266.53064 124.0
1266.601562 92.0
1266.672363 132.0
1266.906128 140.0
1267.097412 152.0
1267.611206 164.0
1268.011475 124.0
1268.231201 76.0
1268.454956 196.0
1268.557251 152.0
1268.650269 180.0
1269.110229 104.0
1269.67749 132.0
1269.783936 208.0
1270.14563 164.0
1270.415771 140.0
1270.479004 56.0
1270.62439 172.0
1270.713135 164.0
1270.81958 140.0
1271.025391 180.0
1271.096313 76.0
1271.330444 108.0
1271.408569 144.0
1271.891113 192.0
1271.962158 144.0
1272.097046 156.0
1272.160889 48.0
1272.288696 80.0
1272.501709 96.0
1272.785645 60.0
1272.963257 32.0
1273.076782 128.0
1273.319946 184.0
1273.787109 184.0
1273.872314 204.0
1273.993042 200.0
1274.078369 112.0
1274.168335 388.0
1274.746216 156.0
1274.930908 180.0
1275.101562 144.0
1275.514771 192.0
1275.670166 164.0
1275.734131 188.0
1275.926025 164.0
1276.011353 160.0
1277.689819 144.0
1278.123779 176.0
1278.219482 308.0
1278.499512 168.0
1278.89563 164.0
1278.956421 164.0
1279.219849 132.0
1279.305176 100.0
1279.889038 120.0
1280.116943 164.0
1280.259277 128.0
1280.309204 232.0
1280.416016 188.0
1280.586914 180.0
1280.785889 128.0
1280.957275 116.0
1281.009033 216.0
1281.092651 116.0
1281.384766 148.0
1281.769531 116.0
1281.93335 180.0
1282.132935 164.0
1282.211304 292.0
1282.474976 136.0
1282.674561 44.0
1282.810059 132.0
1282.859985 232.0
1282.981079 108.0
1283.045288 172.0
1283.145142 100.0
1283.252075 132.0
1283.351929 88.0
1283.480225 44.0
1283.59436 148.0
1283.722656 172.0
1284.023193 144.0
1284.197876 144.0
1284.372192 148.0
1284.521484 100.0
1284.664062 188.0
1284.920898 132.0
1285.049316 160.0
1285.156372 140.0
1285.227783 120.0
1285.333618 192.0
1285.713013 176.0
1285.77002 136.0
1285.834351 64.0
1285.941406 156.0
1286.112671 160.0
1286.162598 56.0
1286.255371 156.0
1286.341064 112.0
1286.490967 180.0
1286.786987 176.0
1286.912231 152.0
1287.083618 116.0
1287.162109 152.0
1287.232422 152.0
1287.340576 88.0
1287.42627 140.0
1287.483398 168.0
1288.083374 220.0
1288.14978 176.0
1288.447754 108.0
1288.662109 148.0
1288.733521 124.0
1289.193726 120.0
1289.221802 48.0
1289.245483 136.0
1289.576782 68.0
1289.712524 72.0
1290.069946 176.0
1290.255859 92.0
1290.420288 144.0
1290.556152 52.0
1290.77063 112.0
1290.820679 144.0
1291.113892 160.0
1291.357056 128.0
1291.528687 60.0
1291.943848 128.0
1292.080444 144.0
1292.163818 112.0
1292.39624 120.0
1292.616089 92.0
1293.203003 152.0
1293.401123 192.0
1293.769897 96.0
1293.901978 188.0
1294.003052 220.0
1294.248169 152.0
1294.423462 144.0
1294.570312 136.0
1294.922852 188.0
1295.451294 160.0
1295.888306 164.0
1295.974243 128.0
1296.128296 280.0
1296.339722 188.0
1296.649658 184.0
1296.7052 96.0
1297.006226 180.0
1297.120972 148.0
1297.246704 172.0
1297.586914 96.0
1297.70874 100.0
1297.873657 252.0
1297.943726 168.0
1297.995605 104.0
1298.14624 152.0
1298.275269 140.0
1298.612305 220.0
1298.719971 228.0
1298.820312 156.0
1299.413696 192.0
1299.587891 152.0
1299.698486 144.0
1300.032837 176.0
1300.105591 148.0
1300.226562 144.0
1300.413208 152.0
1301.105835 120.0
1301.281738 152.0
1301.784424 136.0
1301.892334 220.0
1302.179443 228.0
1302.588745 72.0
1302.854614 188.0
1303.005493 128.0
1303.091675 220.0
1303.182007 236.0
1303.425781 56.0
1303.666504 152.0
1303.921631 292.0
1304.320557 128.0
1304.687134 52.0
1304.749268 200.0
1304.852539 144.0
1305.478027 188.0
1305.643433 92.0
1305.808838 128.0
1306.312378 172.0
1306.463379 136.0
1306.674561 224.0
1306.974243 136.0
1307.024658 200.0
1307.089355 148.0
1307.413208 60.0
1307.679443 160.0
1307.758667 152.0
1307.860596 96.0
1307.90979 180.0
1307.967407 196.0
1308.334473 144.0
1308.428101 120.0
1308.759888 160.0
1308.852905 80.0
1309.140991 148.0
1309.371338 132.0
1309.522583 180.0
1309.64502 116.0
1309.789185 160.0
1310.070068 136.0
1310.33667 112.0
1310.819336 168.0
1311.02832 76.0
1311.129272 104.0
1311.295044 196.0
1311.691406 48.0
1312.05188 100.0
1312.177124 204.0
1312.599854 64.0
1312.791626 136.0
1313.126221 364.0
1313.313843 156.0
1313.385864 132.0
1313.450806 152.0
1313.638428 100.0
1314.179443 172.0
1314.273193 216.0
1314.540283 168.0
1314.634033 116.0
1314.749512 220.0
1314.966064 116.0
1315.218628 364.0
1315.269165 152.0
1315.449585 172.0
1315.578125 184.0
1315.644531 100.0
1315.766602 192.0
1315.897217 104.0
1315.998291 48.0
1316.236572 96.0
1316.411011 124.0
1317.276611 172.0
1317.464355 96.0
1317.522217 136.0
1317.572754 188.0
1317.659424 128.0
1317.869019 256.0
1317.93396 240.0
1318.296875 168.0
1318.461548 140.0
1318.613281 112.0
1318.671021 144.0
1318.811646 172.0
1319.741821 160.0
1319.957886 168.0
1320.066284 144.0
1320.164062 120.0
1320.218262 52.0
1320.319458 144.0
1320.391724 140.0
1320.741211 160.0
1320.847412 156.0
1321.049927 48.0
1321.484009 128.0
1321.570923 176.0
1321.925415 216.0
1322.033936 76.0
1322.14978 144.0
1322.200439 144.0
1322.504395 144.0
1322.567139 192.0
1322.768188 152.0
1322.87085 328.0
1323.061768 184.0
1323.163086 160.0
1323.286255 204.0
1323.351318 88.0
1323.423828 164.0
1323.546875 116.0
1323.597534 136.0
1324.046509 124.0
1324.328979 160.0
1324.415894 352.0
1324.466553 108.0
1324.698364 156.0
1324.828735 188.0
1325.009521 160.0
1325.140259 72.0
1325.850464 52.0
1325.959106 212.0
1326.198364 104.0
1326.321533 44.0
1326.401245 116.0
1326.517212 176.0
1326.635376 192.0
1326.706177 140.0
1327.082764 112.0
1327.155273 212.0
1327.394531 156.0
1327.597534 200.0
1327.670044 148.0
1327.720825 116.0
1327.894897 220.0
1328.03833 212.0
1328.192261 204.0
1328.264771 232.0
1328.550659 140.0
1328.582397 56.0
1328.603516 184.0
1328.823364 156.0
1328.968506 116.0
1329.186157 164.0
1329.54895 276.0
1329.999023 128.0
1330.138672 176.0
1330.768555 144.0
1330.855591 268.0
1331.196899 84.0
1331.45105 104.0
1331.697998 124.0
1331.886719 156.0
1332.199219 172.0
1332.468018 216.0
1332.832886 136.0
1333.03479 144.0
1333.258545 160.0
1333.44165 128.0
1334.045044 124.0
1334.226685 172.0
1334.415771 124.0
1334.814941 156.0
1334.990234 136.0
1335.11377 152.0
1335.186523 144.0
1335.433838 180.0
1335.723145 192.0
1335.908691 152.0
1336.248535 208.0
1336.699707 56.0
1336.81604 192.0
1336.899536 228.0
1336.96167 204.0
1337.04895 132.0
1337.194458 152.0
1337.369141 192.0
1337.558472 72.0
1337.791382 104.0
1337.966064 216.0
1338.046143 140.0
1338.199097 40.0
1338.301025 180.0
1338.381104 144.0
1338.526733 40.0
1338.606812 124.0
1338.723389 232.0
1338.956421 276.0
1339.211304 132.0
1339.305908 144.0
1339.619141 184.0
1339.750366 152.0
1340.070923 132.0
1340.49353 152.0
1340.627686 96.0
1340.879761 160.0
1340.974487 76.0
1341.455566 168.0
1341.679688 144.0
1342.315796 120.0
1342.519287 156.0
1342.607544 116.0
1342.716919 160.0
1342.862793 124.0
1343.001343 160.0
1343.504639 112.0
1343.56311 184.0
1343.723022 152.0
1343.803833 80.0
1343.986206 72.0
1344.117554 188.0
1344.168579 180.0
1344.246582 140.0
1344.303955 196.0
1344.372925 144.0
1344.591919 160.0
1344.749146 108.0
1344.84729 128.0
1344.941406 168.0
1345.299927 140.0
1345.387451 156.0
1345.453247 96.0
1345.821411 144.0
1345.920532 176.0
1346.039917 176.0
1346.177246 120.0
1346.322144 108.0
1346.972168 120.0
1347.176636 220.0
1347.515747 156.0
1347.622314 148.0
1348.022339 176.0
1348.287231 132.0
1348.594238 152.0
1348.762329 124.0
1348.850098 164.0
1348.908569 80.0
1349.47876 124.0
1349.544556 172.0
1349.668457 208.0
1349.78125 132.0
1349.880859 196.0
1350.190186 136.0
1350.313477 180.0
1350.480591 104.0
1350.729248 128.0
1351.058472 196.0
1351.431641 176.0
1351.855957 248.0
1352.130615 308.0
1352.624512 128.0
1352.778198 176.0
1352.858765 88.0
1352.990479 184.0
1353.195435 156.0
1353.400513 96.0
1353.883789 176.0
1354.074219 116.0
1354.148804 148.0
1354.220703 212.0
1354.289185 136.0
1354.550293 120.0
1354.615967 156.0
1354.835938 132.0
1355.11438 132.0
1355.630981 172.0
1355.83252 180.0
1356.269165 188.0
1356.367554 116.0
1356.477417 208.0
1356.594727 128.0
1356.741333 136.0
1357.115234 140.0
1357.195923 188.0
1357.403076 120.0
1357.687256 148.0
1357.753296 76.0
1357.819214 160.0
1358.310913 144.0
1358.523438 108.0
1358.726318 212.0
1358.81189 176.0
1359.021484 220.0
1359.25708 152.0
1359.523804 160.0
1359.609253 204.0
1359.873535 60.0
1360.005615 100.0
1360.064331 188.0
1360.607544 96.0
1360.691406 132.0
1360.945312 184.0
1361.021606 212.0
1361.324097 188.0
1361.731079 120.0
1361.808594 220.0
1361.929321 48.0
1362.222534 148.0
1362.553711 120.0
1362.943115 212.0
1363.038696 84.0
1363.119507 168.0
1363.222412 152.0
1363.332642 140.0
1363.406128 128.0
1363.77356 272.0
1363.994019 116.0
1364.0896 112.0
1364.207275 108.0
1364.29541 164.0
1364.54541 152.0
1364.899414 144.0
1365.038086 124.0
1365.138672 152.0
1365.320312 196.0
1365.516113 160.0
1365.692627 60.0
1365.972046 184.0
1366.34729 152.0
1366.582642 192.0
1367.164062 180.0
1367.252319 84.0
1367.570557 124.0
1367.671875 40.0
1367.752808 88.0
1367.83374 140.0
1367.927368 184.0
1367.983154 188.0
1368.314575 180.0
1368.404419 120.0
1368.886597 132.0
1368.989624 128.0
1369.107544 52.0
1369.173828 152.0
1369.424194 180.0
1369.821899 144.0
1370.057617 160.0
1370.234497 192.0
1370.539062 164.0
1370.735474 124.0
1370.874878 132.0
1370.949219 196.0
1371.162964 148.0
1371.376709 148.0
1371.472534 144.0
1371.715698 136.0
1371.849487 156.0
1372.563599 136.0
1373.092529 208.0
1373.272583 140.0
1373.559448 132.0
1373.976807 172.0
1374.178833 104.0
1374.550781 224.0
1374.713867 160.0
1374.832886 392.0
1374.97583 104.0
1375.175049 100.0
1375.279297 148.0
1375.366943 124.0
1375.44812 116.0
1375.709717 172.0
1375.979614 160.0
1376.053467 128.0
1376.260254 168.0
1376.51123 104.0
1376.6073 236.0
1376.688477 164.0
1376.762329 196.0
1376.836182 200.0
1377.013428 140.0
1377.065186 76.0
1377.146362 196.0
1377.316284 236.0
1377.508301 128.0
1377.567383 192.0
1377.766846 176.0
1377.948975 248.0
1378.047852 124.0
1378.324707 160.0
1379.441528 372.0
1379.510864 212.0
1379.570068 76.0
1380.139282 48.0
1380.204468 176.0
1380.834473 136.0
1381.625854 84.0
1381.936646 168.0
1382.032837 120.0
1382.533936 176.0
1382.924927 96.0
1383.01709 120.0
1383.305786 196.0
1383.409424 176.0
1383.490845 48.0
1383.675903 128.0
1384.068359 188.0
1384.157104 68.0
1384.349731 204.0
1384.416382 160.0
1384.4823 176.0
1384.564453 196.0
1384.645874 40.0
1384.755493 100.0
1384.90271 208.0
1384.921875 140.0
1385.1698 164.0
1385.408813 216.0
1385.808838 184.0
1386.016357 112.0
1386.283081 260.0
1386.624023 124.0
1387.468262 144.0
1387.61438 144.0
1388.217896 112.0
1388.470093 152.0
1388.588745 104.0
1388.721313 140.0
1388.937256 64.0
1389.026367 248.0
1389.15979 180.0
1389.226562 200.0
1389.434326 144.0
1389.686523 88.0
1389.849854 152.0
1390.08728 124.0
1390.168823 116.0
1390.235718 112.0
1390.398926 152.0
1390.465698 96.0
1390.584473 144.0
1390.792236 32.0
1390.955566 216.0
1391.11145 188.0
1391.304443 176.0
1391.423218 108.0
1391.482666 140.0
1391.571777 120.0
1391.63855 136.0
1391.757324 76.0
1391.905884 92.0
1392.106323 144.0
1392.296997 208.0
1392.516479 160.0
1392.670776 200.0
1392.837036 208.0
1393.086792 140.0
1393.250244 284.0
1393.577148 132.0
1393.684814 176.0
1393.822266 212.0
1393.911499 172.0
1394.141846 192.0
1394.201294 104.0
1394.375732 200.0
1394.468872 192.0
1394.582031 196.0
1394.654663 128.0
1394.75 120.0
1395.048584 124.0
1395.733521 168.0
1395.903564 60.0
1396.052124 164.0
1396.349854 136.0
1396.913818 168.0
1396.935669 140.0
1397.063843 136.0
1397.153198 308.0
1397.313232 136.0
1397.621826 112.0
1397.889771 252.0
1398.068359 172.0
1398.172485 168.0
1398.622803 116.0
1398.736816 136.0
1398.805176 172.0
1398.968994 124.0
1399.155029 132.0
1399.33374 168.0
1399.713501 124.0
1399.944336 152.0
1400.078857 148.0
1400.137939 212.0
1400.339966 208.0
1400.428345 108.0
1400.665771 160.0
1400.733765 184.0
1401.06897 140.0
1401.19873 168.0
1401.282715 88.0
1401.53833 108.0
1401.801147 180.0
1401.942749 192.0
1402.037598 144.0
1402.410278 132.0
1402.536987 168.0
1402.678589 144.0
1403.163208 120.0
1403.416626 52.0
1403.595581 184.0
1403.772217 76.0
1403.908203 188.0
1404.009399 156.0
1404.095215 168.0
1404.162354 116.0
1404.381958 200.0
1404.403809 88.0
1404.42627 144.0
1404.520386 176.0
1404.594971 96.0
1404.900757 104.0
1404.953003 228.0
1405.161987 180.0
1405.303711 152.0
1405.363403 132.0
1405.639404 60.0
1405.69165 152.0
1405.890015 204.0
1405.987427 152.0
1406.199097 136.0
1406.311157 176.0
1406.974731 132.0
1406.984619 120.0
1407.051025 184.0
1407.170654 168.0
1407.338135 200.0
1407.438354 184.0
1407.587646 124.0
1407.647461 56.0
1407.773438 168.0
1407.983521 32.0
1408.184326 164.0
1408.282227 168.0
1408.543701 192.0
1408.741455 124.0
1409.021729 152.0
1409.153809 216.0
1409.298218 176.0
1409.350464 152.0
1409.417725 44.0
1409.514282 104.0
1409.601074 168.0
1409.866089 140.0
1409.987915 144.0
1410.090332 172.0
1410.53125 124.0
1410.755493 124.0
1410.987305 112.0
1411.047119 224.0
1411.331909 168.0
1411.428345 192.0
1411.779053 140.0
1411.884521 128.0
1412.042114 172.0
1412.108887 136.0
1412.221069 144.0
1412.34082 148.0
1412.505371 156.0
1413.178589 56.0
1413.432983 184.0
1413.608765 124.0
1413.657471 228.0
1413.7323 148.0
1414.07666 184.0
1414.256226 184.0
1414.308594 168.0
1414.39209 180.0
1414.461914 144.0
1414.489868 184.0
1414.570557 52.0
1414.742798 120.0
1414.862549 232.0
1415.072144 212.0
1415.160522 140.0
1415.491455 180.0
1415.693726 116.0
1415.918335 84.0
1416.07312 188.0
1416.596191 232.0
1416.749756 108.0
1416.832153 132.0
1416.952026 132.0
1417.101929 132.0
1417.176758 176.0
1417.296631 156.0
1417.584595 160.0
1417.806274 136.0
1418.473267 392.0
1418.585693 236.0
1418.858521 224.0
1418.979126 136.0
1419.110474 148.0
1419.417969 132.0
1419.576294 196.0
1419.871704 196.0
1420.220337 172.0
1420.371094 204.0
1420.557983 188.0
1420.924927 160.0
1421.090576 56.0
1421.456665 176.0
1422.081177 164.0
1422.148682 144.0
1422.328857 152.0
1422.55957 124.0
1422.580811 92.0
1422.618042 84.0
1422.809204 152.0
1423.034424 160.0
1423.597656 180.0
1423.650146 124.0
1423.792847 176.0
1423.950562 136.0
1424.286133 124.0
1424.555298 224.0
1424.746826 104.0
1424.871704 160.0
1425.241699 64.0
1425.369141 204.0
1425.528198 208.0
1425.690674 232.0
1425.768677 136.0
1426.151978 144.0
1426.227173 120.0
1426.332397 148.0
1426.775879 180.0
1426.881104 192.0
1426.978882 160.0
1427.16687 220.0
1427.264648 132.0
1427.422485 172.0
1427.486938 140.0
1427.569702 380.0
1427.783447 120.0
1427.848267 164.0
1427.926392 200.0
1428.159546 144.0
1428.340088 160.0
1428.528076 292.0
1428.580811 124.0
1429.062256 188.0
1429.152588 120.0
1429.413086 140.0
1429.533081 208.0
1429.64917 244.0
1429.96521 160.0
1430.025513 188.0
1430.108276 104.0
1430.19104 192.0
1430.287598 164.0
1430.672852 236.0
1430.755615 176.0
1430.853516 152.0
1430.985352 188.0
1431.041748 168.0
1431.221436 132.0
1431.371338 204.0
1431.500977 124.0
1431.937744 180.0
1432.025391 268.0
1432.337036 112.0
1432.463257 204.0
1432.492676 156.0
1432.574463 148.0
1433.082764 164.0
1433.256104 200.0
1433.678101 160.0
1433.764282 184.0
1433.932007 156.0
1434.085083 144.0
1434.350464 136.0
1434.431763 132.0
1434.484497 172.0
1434.537354 188.0
1434.695679 160.0
1434.793579 152.0
1435.048828 184.0
1435.163086 132.0
1435.230957 164.0
1435.29126 128.0
1435.834229 216.0
1436.052856 40.0
1436.203735 132.0
1436.279175 128.0
1436.482788 68.0
1436.580933 224.0
1436.784546 176.0
1436.859985 188.0
1437.161621 200.0
1437.365601 168.0
1437.587402 192.0
1437.976807 140.0
1438.165527 100.0
1438.280396 144.0
1438.490112 160.0
1438.880615 192.0
1439.441406 152.0
1439.69812 136.0
1439.962402 148.0
1440.143677 76.0
1440.5 284.0
1440.831055 152.0
1440.898682 200.0
1441.035034 132.0
1441.171143 120.0
1441.375122 60.0
1441.521729 224.0
1441.647095 80.0
1441.934326 212.0
1442.032593 260.0
1442.297119 44.0
1442.372681 116.0
1442.806641 272.0
1442.864014 116.0
1442.969849 116.0
1443.083252 132.0
1443.363037 128.0
1443.499146 144.0
1443.703369 160.0
1443.831909 176.0
1443.952881 156.0
1444.18689 68.0
1444.338623 196.0
1444.605591 156.0
1444.762207 116.0
1444.859985 160.0
1445.0271 152.0
1445.231323 136.0
1445.365723 152.0
1445.571777 172.0
1445.639893 136.0
1445.783691 140.0
1445.858032 128.0
1446.169678 168.0
1446.404297 208.0
1446.464844 176.0
1446.61084 176.0
1446.760132 84.0
1446.971069 196.0
1447.396118 148.0
1447.494507 132.0
1447.623291 136.0
1447.948853 140.0
1448.085205 152.0
1448.418457 104.0
1449.018677 160.0
1449.100342 128.0
1449.236694 212.0
1449.456421 180.0
1449.668823 148.0
1449.774658 184.0
1449.841919 184.0
1450.206665 104.0
1450.406372 224.0
1450.585693 92.0
1450.744873 168.0
1451.101196 152.0
1451.299927 188.0
1451.495483 116.0
1451.639526 124.0
1451.715332 128.0
1451.897339 188.0
1451.958008 168.0
1452.132446 176.0
1452.359985 88.0
1452.466187 60.0
1452.531006 196.0
1452.803589 132.0
1453.061279 172.0
1453.202026 152.0
1453.558594 132.0
1453.657349 148.0
1453.793945 120.0
1453.915283 120.0
1454.036743 68.0
1454.188477 160.0
1454.279663 128.0
1454.366821 128.0
1454.651489 156.0
1454.788208 188.0
1454.883667 152.0
1455.07666 196.0
1455.312012 48.0
1455.414673 184.0
1455.479126 128.0
1455.560791 248.0
1455.820801 152.0
1455.934692 120.0
1456.206177 172.0
1456.248657 196.0
1456.496704 172.0
1457.020874 220.0
1457.469116 132.0
1457.696411 136.0
1457.864258 184.0
1458.110962 220.0
1458.178467 156.0
1458.365845 116.0
1458.419067 124.0
1458.552612 120.0
1458.791504 208.0
1459.065186 108.0
1459.356323 208.0
1459.551758 112.0
1459.635498 144.0
1459.825562 48.0
1459.932007 204.0
1460.106934 156.0
1460.43396 204.0
1460.502441 72.0
1460.707764 116.0
1460.768677 140.0
1460.920776 156.0
1461.255493 136.0
1461.422852 120.0
1462.161865 148.0
1462.221924 92.0
1462.389404 124.0
1462.473022 140.0
1462.627686 220.0
1462.724243 52.0
1462.876465 124.0
1463.241943 376.0
1463.455078 212.0
1463.723633 148.0
1463.843384 92.0
1464.170898 172.0
1464.277466 220.0
1464.486816 172.0
1465.014771 168.0
1465.264038 148.0
1465.351562 132.0
1465.473511 124.0
1465.601685 160.0
1466.024048 144.0
1466.338989 184.0
1466.433594 156.0
1466.717163 140.0
1466.807129 68.0
1466.997681 240.0
1467.424561 184.0
1467.615234 116.0
1467.851562 156.0
1468.080322 100.0
1468.22522 148.0
1468.46167 112.0
1468.598999 196.0
1468.83728 196.0
1468.93457 148.0
1469.071899 112.0
1469.300781 188.0
1469.499512 196.0
1469.69751 304.0
1469.956909 140.0
1470.040894 132.0
1470.128052 192.0
1470.254517 160.0
1470.330811 52.0
1470.587524 76.0
1470.826904 172.0
1471.139893 160.0
1471.300171 120.0
1471.422363 188.0
1471.529297 100.0
1471.590332 148.0
1471.796509 164.0
1471.972168 48.0
1472.025513 264.0
1472.23938 104.0
1472.39209 144.0
1472.537231 220.0
1472.73584 96.0
1472.865601 180.0
1472.949707 196.0
1473.262817 180.0
1473.331665 140.0
1473.430908 84.0
1473.597046 220.0
1473.810425 204.0
1473.838989 136.0
1473.973389 180.0
1474.070801 180.0
1474.185303 176.0
1474.313843 144.0
1474.378418 36.0
1474.57373 116.0
1474.779419 144.0
1475.127441 168.0
1475.452881 188.0
1475.769653 148.0
1475.920532 164.0
1476.098389 100.0
1476.182495 176.0
1476.281982 132.0
1476.5802 204.0
1476.656738 152.0
1477.322144 44.0
1477.620483 192.0
1477.77356 132.0
1477.857666 196.0
1477.995361 204.0
1478.202026 104.0
1478.324463 144.0
1478.38562 180.0
1478.745361 200.0
1478.862671 144.0
1479.036743 168.0
1479.189331 136.0
1479.311768 160.0
1479.380615 124.0
1479.755737 152.0
1479.839966 120.0
1479.939575 176.0
1480.008423 52.0
1480.249023 236.0
1480.383667 136.0
1480.659302 152.0
1480.720581 84.0
1480.866089 60.0
1481.080566 168.0
1481.203125 164.0
1481.408936 144.0
1481.685791 180.0
1481.776367 164.0
1481.913696 164.0
1482.030518 316.0
1482.229736 148.0
1482.344727 212.0
1482.559326 164.0
1482.635864 192.0
1482.711548 164.0
1483.176758 112.0
1483.226074 140.0
1483.302734 124.0
1483.425415 264.0
1483.831665 96.0
1484.023315 156.0
1484.115356 160.0
1484.245728 104.0
1484.437378 180.0
1484.928223 76.0
1484.997192 156.0
1485.096924 144.0
1485.150635 164.0
1485.442139 220.0
1485.82373 48.0
1485.891968 144.0
1486.022095 172.0
1486.547974 180.0
1486.76062 180.0
1487.061035 296.0
1487.319092 264.0
1487.521606 252.0
1487.590698 172.0
1487.675171 200.0
1487.813354 104.0
1487.890137 76.0
1487.951538 124.0
1488.05896 140.0
1488.273926 240.0
1488.34314 172.0
1488.431763 176.0
1488.604126 144.0
1488.75769 176.0
1488.880615 132.0
1489.026489 140.0
1489.441284 188.0
1489.565186 160.0
1489.779297 44.0
1489.838745 180.0
1489.955933 156.0
1490.201782 164.0
1490.294067 144.0
1490.562988 172.0
1490.639771 172.0
1490.937256 68.0
1491.047119 208.0
1491.131592 164.0
1491.346802 140.0
1491.731201 188.0
1491.792603 100.0
1491.868042 172.0
1491.885986 140.0
1491.910034 192.0
1491.992554 112.0
1492.569214 76.0
1492.747681 144.0
1492.945923 224.0
1493.007446 124.0
1493.07666 108.0
1493.341431 116.0
1493.461182 276.0
1493.730469 200.0
1494.020264 96.0
1494.070068 112.0
1494.505615 196.0
1494.745972 152.0
1494.992798 164.0
1495.215454 164.0
1495.269287 148.0
1495.392456 48.0
1495.60791 108.0
1495.823486 224.0
1496.03894 184.0
1496.354614 176.0
1496.470093 148.0
1496.52771 124.0
1496.677979 188.0
1496.918335 92.0
1497.062988 176.0
1497.378784 92.0
1497.501953 216.0
1497.648315 160.0
1497.970825 156.0
1498.213135 160.0
1498.262085 160.0
1498.380127 136.0
1498.53064 372.0
1498.865601 40.0
1498.992432 152.0
1499.395142 172.0
1499.458984 200.0
1499.736328 108.0
1499.896484 160.0
1500.018433 168.0
1500.268311 148.0
1500.869629 188.0
1500.987671 168.0
1501.402222 216.0
1501.501953 148.0
1501.644043 196.0
1501.810425 128.0
1502.111328 140.0
1502.219238 220.0
1502.304932 148.0
1502.404419 164.0
1502.728394 168.0
1502.811279 184.0
1503.013916 160.0
1503.114258 60.0
1503.268555 220.0
1503.49231 80.0
1503.56958 28.0
1503.68396 188.0
1504.009521 172.0
1504.125244 168.0
