>compound Asenapine
>formula C17H16ClNO
>ionization [M+H]+
>parentmass 286.0993182640905
#inchi InChI=1S/C17H16ClNO/c1-19-9-14-12-4-2-3-5-16(12)20-17-7-6-11(18)8-13(17)15(14)10-19/h2-8,14-15H,9-10H2,1H3/t14-,15-/m1/s1
#inchikey VSWBSWWIRNCQIJ
#origInchi InChI=1S/C17H16ClNO.C4H4O4/c1-19-9-14-12-4-2-3-5-16(12)20-17-7-6-11(18)8-13(17)15(14)10-19;5-3(6)1-2-4(7)8/h2-8,14-15H,9-10H2,1H3;1-2H,(H,5,6)(H,7,8)/b;2-1-/t14-,15-;/m1./s1
#Ion_Source LC-ESI
#Instrument qTof
#Compound_Source Commercial
#PI Dorrestein
#Data_Collector Garg_Neha
#Scan -1
#Precursor_MZ 286.099
#ExactMass 285.092
#Charge 1
#CAS_Number 65576-45-6, 135883-08-8 (Maleic acid)
#Pubmed_ID N/A
#Smiles C12(=C([C@@]3([C@@](C4=C(O1)C=CC(=C4)Cl)(CN(C3)C)[H])[H])C=CC=C2).C(/C=C\C(=O)O)(=O)O
#INCHI_AUX N/A
#Library_Class 1
#SpectrumID CCMSLIB00000078083
#IonMode Positive
#UpdateWorkflowName UPDATE-SINGLE-ANNOTATED-GOLD
#LibraryQualityString Gold
#TaskID 77f51c88eb8b467eb4a01dd2d0cb90d2
##Scan# 1173
#SpectrumFile Plate1_61_88_GG4_01_16491.mzXML
#LibraryName FDALibrary_2_04302014.mgf
#MQScore -1
#Organism FDALibrary_2_04302014
#TIC_Query 0
#RT_Query -1
#MZErrorPPM -1
#SharedPeaks 0
#MassDiff 0
#LibMZ -1
#SpecMZ 286.099
#SpecCharge 0
#internalFilename spec-00000.mgf

>collision 10
44.921192 188.0
44.959682 104.0
44.973324 176.0
45.050385 232.0
45.070915 140.0
45.142166 160.0
45.182888 144.0
45.204445 172.0
45.21386 112.0
45.278801 204.0
45.302521 192.0
45.34446 124.0
45.510071 140.0
45.527695 160.0
45.563145 116.0
45.613659 116.0
45.735596 180.0
45.754772 176.0
45.798859 240.0
45.817593 180.0
45.846313 192.0
45.891254 148.0
45.908516 136.0
45.921867 164.0
45.987984 192.0
45.997433 160.0
46.009583 140.0
46.028324 204.0
46.126022 308.0
46.141785 164.0
46.169029 144.0
46.187412 284.0
46.237919 152.0
46.270512 148.0
46.29406 144.0
46.312492 168.0
46.324684 140.0
46.397602 144.0
46.429562 180.0
46.49979 144.0
46.520981 184.0
46.596203 176.0
46.64719 244.0
46.702988 128.0
46.749672 172.0
46.778252 160.0
46.793713 180.0
46.819099 176.0
46.837376 172.0
46.913235 372.0
46.934933 144.0
46.975513 196.0
47.056484 144.0
47.105923 212.0
47.146206 172.0
47.167027 156.0
47.178825 152.0
47.200737 184.0
47.320248 184.0
47.3358 136.0
47.429844 316.0
47.448223 128.0
47.482586 172.0
47.518642 160.0
47.545189 124.0
47.604572 148.0
47.724293 168.0
47.795166 252.0
47.819935 372.0
47.855728 208.0
47.875576 212.0
47.936562 180.0
47.951431 152.0
48.058029 168.0
48.141167 164.0
48.207478 204.0
48.221298 140.0
48.263981 192.0
48.312752 116.0
48.340237 176.0
48.350426 160.0
48.531303 160.0
48.588261 172.0
48.653988 128.0
48.665985 184.0
48.678482 160.0
48.699726 216.0
48.78928 124.0
48.803543 152.0
48.843872 184.0
48.923473 200.0
48.983074 224.0
49.045044 136.0
49.096474 212.0
49.128056 160.0
49.157188 100.0
49.202023 140.0
49.294628 212.0
49.327477 184.0
49.410866 116.0
49.432652 188.0
49.492844 164.0
49.741898 112.0
49.762768 204.0
49.798565 224.0
49.836494 152.0
49.871521 156.0
49.936306 168.0
50.040443 220.0
50.058746 152.0
50.082863 196.0
50.096298 212.0
50.110348 200.0
50.135578 104.0
50.148621 192.0
50.178474 268.0
50.268616 200.0
50.345024 292.0
50.35891 212.0
50.425556 180.0
50.465137 180.0
50.483521 192.0
50.540104 268.0
50.55497 152.0
50.614166 176.0
50.635601 108.0
50.666714 264.0
50.7006 320.0
50.74852 112.0
50.773842 148.0
50.79512 180.0
50.835629 196.0
50.891624 172.0
51.063644 164.0
51.076378 232.0
51.146103 256.0
51.16888 164.0
51.198601 156.0
51.216541 132.0
51.250454 124.0
51.332096 212.0
51.39325 172.0
51.449112 172.0
51.535439 184.0
51.587776 148.0
51.629784 152.0
51.648956 148.0
51.661251 160.0
51.67556 180.0
51.770035 156.0
51.84185 124.0
51.876385 160.0
51.901871 240.0
51.975559 172.0
51.996334 132.0
52.042828 204.0
52.161236 128.0
52.235069 120.0
52.267826 212.0
52.296944 172.0
52.322567 140.0
52.363316 108.0
52.380463 164.0
52.396309 160.0
52.439697 180.0
52.454453 184.0
52.481869 132.0
52.520283 196.0
52.606422 196.0
52.654709 208.0
52.693127 148.0
52.79406 144.0
52.877056 160.0
52.900326 160.0
52.930733 248.0
52.962383 116.0
53.065125 160.0
53.090137 164.0
53.14526 216.0
53.199619 220.0
53.215267 172.0
53.266163 144.0
53.284058 300.0
53.306442 236.0
53.322628 176.0
53.493126 136.0
53.566879 212.0
53.609135 376.0
53.652863 196.0
53.728214 144.0
53.833145 144.0
53.857162 200.0
53.905834 140.0
53.99894 176.0
54.061771 152.0
54.079411 160.0
54.115829 280.0
54.12941 236.0
54.135357 132.0
54.184849 152.0
54.196571 148.0
54.237606 144.0
54.258896 168.0
54.285988 140.0
54.463058 212.0
54.47533 148.0
54.533169 232.0
54.554684 148.0
54.594769 168.0
54.716515 168.0
54.768059 188.0
54.813728 188.0
54.856472 184.0
54.866791 140.0
54.891758 168.0
54.930386 164.0
54.953808 176.0
55.040962 176.0
55.081905 120.0
55.096531 156.0
55.108845 144.0
55.200935 172.0
55.240421 176.0
55.283367 160.0
55.29665 184.0
55.355869 164.0
55.368408 128.0
55.475994 160.0
55.588608 200.0
55.61087 140.0
55.823551 156.0
55.839062 216.0
55.869431 220.0
55.909607 144.0
55.937309 124.0
55.952816 280.0
55.981064 192.0
56.031708 144.0
56.156929 172.0
56.186764 200.0
56.206615 144.0
56.246487 184.0
56.265862 180.0
56.32225 216.0
56.340427 108.0
56.387478 212.0
56.41526 156.0
56.432419 136.0
56.44854 172.0
56.490757 256.0
56.594299 192.0
56.669418 156.0
56.799416 196.0
56.851387 164.0
56.864132 188.0
56.895283 116.0
56.980267 156.0
57.02021 184.0
57.085484 184.0
57.167942 128.0
57.196247 284.0
57.223633 148.0
57.347878 168.0
57.473587 156.0
57.519051 120.0
57.553516 128.0
57.57074 180.0
57.598515 144.0
57.644352 136.0
57.662495 336.0
57.690105 400.0
57.721165 152.0
57.800518 156.0
57.82019 208.0
57.852852 148.0
57.898918 148.0
57.92012 256.0
57.954967 184.0
57.965572 144.0
57.98679 268.0
58.006348 124.0
58.074238 148.0
58.125614 192.0
58.172359 296.0
58.281197 140.0
58.362942 144.0
58.372643 176.0
58.383358 176.0
58.413467 160.0
58.481941 144.0
58.521931 164.0
58.545887 148.0
58.573658 188.0
58.695229 188.0
58.71981 168.0
58.841778 172.0
58.866432 148.0
58.934875 188.0
58.99287 124.0
59.038101 160.0
59.070271 100.0
59.119907 232.0
59.144684 148.0
59.245121 124.0
59.263527 208.0
59.276642 196.0
59.299095 96.0
59.473953 176.0
59.578373 248.0
59.58913 360.0
59.635231 164.0
59.674618 176.0
59.685963 228.0
59.723419 192.0
59.75518 232.0
59.821358 224.0
59.83577 188.0
59.912262 144.0
59.969234 164.0
60.010231 168.0
60.03553 148.0
60.080261 152.0
60.182125 160.0
60.198769 100.0
60.247608 188.0
60.283978 124.0
60.297985 172.0
60.309566 152.0
60.34436 160.0
60.434071 140.0
60.446449 176.0
60.536236 196.0
60.66267 224.0
60.851009 152.0
60.894947 136.0
60.93615 132.0
60.98616 156.0
61.001705 152.0
61.062901 236.0
61.183723 144.0
61.20517 148.0
61.259415 172.0
61.310978 172.0
61.341976 212.0
61.371929 140.0
61.461155 176.0
61.50272 152.0
61.528271 216.0
61.563469 156.0
61.590736 212.0
61.61417 188.0
61.6432 200.0
61.667301 160.0
61.714924 112.0
61.728069 240.0
61.812183 168.0
61.880547 164.0
61.89571 144.0
61.927029 176.0
61.939171 176.0
61.964626 144.0
61.989071 140.0
62.024178 152.0
62.041512 224.0
62.106865 180.0
62.162735 156.0
62.193584 188.0
62.213993 204.0
62.268951 196.0
62.308342 104.0
62.389114 204.0
62.410385 164.0
62.476181 120.0
62.522961 220.0
62.566151 328.0
62.754478 172.0
62.771389 216.0
62.795536 204.0
62.880085 376.0
62.903511 204.0
62.927517 176.0
62.94772 192.0
63.077278 172.0
63.087688 204.0
63.104725 144.0
63.119373 96.0
63.177219 160.0
63.194801 180.0
63.208549 148.0
63.241783 252.0
63.260464 140.0
63.317783 144.0
63.352631 292.0
63.382099 160.0
63.474674 148.0
63.516495 108.0
63.531055 204.0
63.585815 136.0
63.598969 200.0
63.633347 148.0
63.775249 172.0
63.785599 344.0
63.82032 148.0
63.839226 160.0
63.902901 208.0
63.949097 128.0
63.967205 196.0
64.01178 192.0
64.083931 176.0
64.096207 176.0
64.370499 148.0
64.484009 168.0
64.510628 172.0
64.562355 148.0
64.613998 140.0
64.722374 284.0
64.770096 156.0
64.853745 148.0
64.9291 220.0
64.951988 164.0
64.990952 152.0
65.006111 200.0
65.025146 116.0
65.046234 164.0
65.12973 140.0
65.190788 148.0
65.221321 180.0
65.269218 96.0
65.325844 144.0
65.382668 228.0
65.406715 172.0
65.429916 144.0
65.459763 176.0
65.493256 164.0
65.510979 176.0
65.566895 296.0
65.61412 148.0
65.657837 144.0
65.669922 152.0
65.699554 208.0
65.749619 248.0
65.760918 164.0
65.833084 148.0
65.859512 188.0
66.000008 124.0
66.097061 144.0
66.150391 160.0
66.176376 172.0
66.221008 100.0
66.23468 160.0
66.249207 128.0
66.312149 220.0
66.347916 392.0
66.370247 160.0
66.39695 172.0
66.444771 132.0
66.458405 184.0
66.477882 220.0
66.522934 148.0
66.539459 136.0
66.600044 196.0
66.677963 140.0
66.693573 244.0
66.820732 164.0
66.931419 152.0
66.992943 232.0
67.00956 168.0
67.126961 148.0
67.14164 160.0
67.162361 124.0
67.194794 116.0
67.224838 184.0
67.255852 168.0
67.272171 188.0
67.325783 128.0
67.343895 200.0
67.384857 144.0
67.408104 224.0
67.458405 168.0
67.47966 144.0
67.569611 168.0
67.597107 284.0
67.716942 144.0
67.732452 240.0
67.775917 180.0
67.794258 164.0
67.808212 136.0
68.003227 168.0
68.060432 172.0
68.158043 132.0
68.20755 168.0
68.226616 144.0
68.344482 152.0
68.363983 144.0
68.497162 184.0
68.523521 332.0
68.615723 208.0
68.648888 148.0
68.673538 224.0
68.70488 144.0
68.732796 148.0
68.853439 176.0
68.898033 220.0
68.922462 148.0
68.955872 140.0
69.026962 316.0
69.05043 168.0
69.078033 100.0
69.105606 220.0
69.124557 180.0
69.205933 124.0
69.238785 176.0
69.269318 204.0
69.281029 168.0
69.288254 172.0
69.291328 200.0
69.31665 148.0
69.47731 392.0
69.593666 204.0
69.622238 116.0
69.660095 160.0
69.681198 180.0
69.726562 192.0
69.743179 204.0
69.776184 176.0
69.798546 224.0
69.854469 108.0
69.94445 172.0
70.018341 148.0
70.055649 124.0
70.10434 184.0
70.122673 144.0
70.139343 204.0
70.162682 140.0
70.175491 176.0
70.199364 164.0
70.302795 172.0
70.326164 228.0
70.371231 152.0
70.566307 260.0
70.612167 316.0
70.76696 252.0
70.839516 164.0
70.853905 156.0
70.876373 148.0
71.032402 184.0
71.067528 148.0
71.154808 180.0
71.190071 180.0
71.236755 216.0
71.331001 200.0
71.360023 160.0
71.388367 200.0
71.400139 180.0
71.413597 232.0
71.456398 184.0
71.46862 204.0
71.497719 156.0
71.529701 216.0
71.572868 112.0
71.584557 200.0
71.600288 160.0
71.7369 144.0
71.7976 316.0
71.831337 176.0
71.868454 196.0
71.96553 140.0
72.026123 112.0
72.130981 144.0
72.348503 136.0
72.378929 216.0
72.501625 168.0
72.538185 148.0
72.552879 144.0
72.683144 120.0
72.713165 152.0
72.732079 212.0
72.860428 172.0
72.881058 168.0
72.975914 164.0
73.05954 252.0
73.148033 208.0
73.19986 100.0
73.242416 168.0
73.287476 160.0
73.417709 220.0
73.439117 160.0
73.489098 128.0
73.610909 128.0
73.630226 196.0
73.65078 168.0
73.703094 144.0
73.794418 176.0
73.819336 124.0
73.87442 164.0
73.895531 160.0
73.938087 180.0
74.003365 216.0
74.023911 148.0
74.092422 180.0
74.145546 176.0
74.160973 160.0
74.227303 104.0
74.298027 216.0
74.351143 132.0
74.399414 188.0
74.493866 148.0
74.512733 144.0
74.533379 144.0
74.631355 204.0
74.671387 160.0
74.688896 192.0
74.708466 96.0
74.989189 172.0
75.087708 276.0
75.152534 180.0
75.173973 172.0
75.298073 176.0
75.320724 248.0
75.336906 228.0
75.38166 180.0
75.422676 164.0
75.437012 136.0
75.53334 192.0
75.572426 108.0
75.687515 152.0
75.727562 116.0
75.82943 176.0
75.850235 144.0
75.872826 124.0
75.978798 148.0
76.023674 176.0
76.146706 136.0
76.231209 292.0
76.245728 172.0
76.327332 180.0
76.379753 140.0
76.414986 124.0
76.439003 100.0
76.47876 152.0
76.55191 168.0
76.566391 196.0
76.603905 180.0
76.658424 140.0
76.681076 176.0
76.70845 176.0
76.800377 124.0
76.814407 164.0
76.867805 176.0
76.907822 204.0
76.981285 104.0
77.094704 284.0
77.159378 160.0
77.237396 144.0
77.317497 132.0
77.33181 196.0
77.455055 176.0
77.551552 156.0
77.671112 168.0
77.7146 140.0
77.740921 184.0
77.805412 128.0
77.867119 104.0
77.916512 216.0
77.941292 152.0
78.037003 144.0
78.104614 128.0
78.178505 164.0
78.210457 240.0
78.230995 132.0
78.286263 252.0
78.359879 176.0
78.422241 196.0
78.450089 448.0
78.482513 200.0
78.522057 180.0
78.617989 180.0
78.680786 168.0
78.746208 176.0
78.775864 136.0
78.80899 160.0
78.83712 260.0
78.889969 128.0
78.905243 156.0
78.92823 148.0
78.980347 128.0
78.993118 180.0
79.00959 156.0
79.138794 156.0
79.196243 172.0
79.292915 156.0
79.326767 120.0
79.348381 152.0
79.444305 116.0
79.595734 196.0
79.706406 196.0
79.763283 152.0
79.84436 260.0
79.875305 140.0
79.912933 188.0
79.931824 188.0
79.994087 192.0
80.035484 180.0
80.061195 164.0
80.099602 184.0
80.117416 188.0
80.158394 232.0
80.190475 196.0
80.220779 140.0
80.333397 156.0
80.353363 220.0
80.427025 148.0
80.459831 160.0
80.499321 176.0
80.535904 228.0
80.559845 152.0
80.620026 188.0
80.654617 168.0
80.676003 156.0
80.739288 132.0
80.751801 164.0
80.802986 204.0
80.930367 164.0
80.958153 192.0
80.987373 152.0
81.010658 184.0
81.024986 168.0
81.064827 172.0
81.109215 164.0
81.153313 124.0
81.250885 168.0
81.308311 144.0
81.366165 136.0
81.468246 112.0
81.489601 196.0
81.556778 212.0
81.58493 144.0
81.599312 148.0
81.675552 112.0
81.716965 116.0
81.737076 136.0
81.782028 172.0
81.800804 148.0
81.884087 160.0
81.925621 156.0
81.968307 176.0
82.051216 196.0
82.087685 196.0
82.30056 124.0
82.346466 176.0
82.387314 228.0
82.426582 140.0
82.458252 124.0
82.490402 132.0
82.55777 176.0
82.575859 172.0
82.630386 272.0
82.649071 172.0
82.727516 232.0
82.839172 224.0
82.855476 148.0
82.966911 176.0
83.122314 400.0
83.30777 312.0
83.509254 224.0
83.574692 200.0
83.603584 168.0
83.669113 152.0
83.736595 136.0
83.789925 360.0
83.80806 196.0
83.882256 180.0
83.905472 164.0
83.932297 188.0
83.98999 148.0
84.011917 276.0
84.033226 180.0
84.057884 180.0
84.170525 212.0
84.213371 148.0
84.225487 328.0
84.340431 148.0
84.361839 124.0
84.415627 156.0
84.458374 144.0
84.494049 208.0
84.513054 144.0
84.558319 128.0
84.586838 148.0
84.648781 172.0
84.678932 200.0
84.693588 188.0
84.722893 156.0
84.758224 156.0
84.794357 208.0
84.959061 216.0
85.003426 216.0
85.058487 204.0
85.074844 132.0
85.155807 228.0
85.170357 152.0
85.281517 232.0
85.315674 232.0
85.344666 128.0
85.396202 136.0
85.440544 192.0
85.484894 148.0
85.532745 164.0
85.576927 172.0
85.609123 144.0
85.72245 144.0
85.751938 144.0
85.771423 252.0
85.82328 256.0
85.918213 192.0
85.933327 160.0
85.947258 184.0
86.072937 140.0
86.104332 192.0
86.157898 316.0
86.179039 96.0
86.265884 148.0
86.309456 180.0
86.34539 112.0
86.412094 204.0
86.444496 156.0
86.577736 148.0
86.60186 148.0
86.637062 164.0
86.664635 184.0
86.719101 204.0
86.750107 144.0
86.882034 144.0
86.926476 264.0
86.983841 172.0
87.015404 264.0
87.088928 176.0
87.187042 140.0
87.235893 164.0
87.269333 168.0
87.297844 200.0
87.322021 140.0
87.424347 156.0
87.496941 164.0
87.5457 192.0
87.646461 172.0
87.686943 148.0
87.752998 160.0
87.836899 152.0
87.864799 168.0
87.916336 144.0
87.98851 196.0
88.127472 124.0
88.163383 212.0
88.200737 164.0
88.237625 188.0
88.258255 120.0
88.306839 264.0
88.339447 180.0
88.359192 160.0
88.380005 256.0
88.407761 180.0
88.436272 192.0
88.46212 168.0
88.508926 176.0
88.551453 172.0
88.643692 140.0
88.675659 160.0
88.688782 148.0
88.810661 140.0
88.851082 176.0
89.003914 156.0
89.023148 168.0
89.0532 148.0
89.072853 288.0
89.103889 140.0
89.129707 140.0
89.151787 168.0
89.169159 112.0
89.195595 252.0
89.214394 144.0
89.274567 164.0
89.310394 160.0
89.372055 136.0
89.392319 128.0
89.454735 132.0
89.497696 132.0
89.532265 120.0
89.659584 172.0
89.683121 160.0
89.698196 164.0
89.711395 152.0
89.730103 156.0
89.899231 148.0
89.95475 320.0
89.983063 236.0
90.013275 220.0
90.055923 220.0
90.113388 260.0
90.161629 204.0
90.185204 164.0
90.278053 144.0
90.391342 140.0
90.420212 360.0
90.451912 160.0
90.515152 188.0
90.584465 184.0
90.609093 168.0
90.639412 152.0
90.658173 164.0
90.700058 152.0
90.713326 140.0
90.736023 144.0
90.825127 148.0
90.940384 172.0
91.010246 120.0
91.035416 120.0
91.055023 280.0
91.08107 176.0
91.219559 208.0
91.258812 100.0
91.305443 256.0
91.39463 140.0
91.448441 168.0
91.50174 164.0
91.539825 144.0
91.574234 180.0
91.607063 264.0
91.676361 172.0
91.690323 208.0
91.735954 132.0
91.763268 196.0
91.845566 172.0
91.872406 172.0
91.97261 148.0
91.98597 176.0
92.020332 196.0
92.091858 220.0
92.125374 252.0
92.14257 168.0
92.16452 188.0
92.20372 152.0
92.240593 228.0
92.260094 208.0
92.280182 152.0
92.368156 144.0
92.423111 116.0
92.460571 260.0
92.558571 316.0
92.732224 176.0
92.767029 136.0
92.798828 164.0
92.831276 120.0
92.848915 164.0
92.887932 164.0
93.004326 140.0
93.036377 284.0
93.072441 176.0
93.093346 164.0
93.111855 172.0
93.13298 152.0
93.296318 232.0
93.309776 172.0
93.347061 144.0
93.477859 212.0
93.51844 136.0
93.552567 180.0
93.632523 228.0
93.66687 108.0
93.70433 224.0
93.888893 188.0
93.969307 340.0
94.060951 148.0
94.111305 168.0
94.133965 136.0
94.166458 164.0
94.292892 148.0
94.36248 208.0
94.395126 304.0
94.479309 168.0
94.495934 196.0
94.518814 160.0
94.54818 168.0
94.707474 176.0
94.725227 376.0
94.811569 184.0
94.841255 152.0
94.866951 140.0
94.914314 148.0
95.060326 192.0
95.112816 152.0
95.152771 152.0
95.228706 200.0
95.259789 144.0
95.285568 220.0
95.428871 152.0
95.627296 144.0
95.696724 96.0
95.722687 152.0
95.759209 180.0
95.899368 128.0
95.914116 176.0
96.032562 164.0
96.106697 152.0
96.134018 160.0
96.186714 144.0
96.225761 160.0
96.239426 156.0
96.253098 204.0
96.285774 180.0
96.316704 196.0
96.344894 140.0
96.455055 216.0
96.569542 152.0
96.587296 220.0
96.648598 156.0
96.773216 232.0
96.8759 112.0
96.922241 248.0
96.937614 168.0
96.993507 188.0
97.054314 208.0
97.185081 216.0
97.314377 148.0
97.347755 144.0
97.381142 160.0
97.400108 228.0
97.616982 172.0
97.661194 116.0
97.739937 156.0
97.755096 456.0
97.793152 300.0
97.923996 152.0
97.979149 208.0
98.039345 204.0
98.084129 208.0
98.112068 208.0
98.139694 172.0
98.165657 180.0
98.184685 148.0
98.204277 176.0
98.2509 100.0
98.30529 196.0
98.35424 176.0
98.377861 188.0
98.417007 160.0
98.451668 240.0
98.567886 124.0
98.598755 192.0
98.614296 176.0
98.639641 268.0
98.76088 160.0
98.793709 148.0
98.843285 120.0
98.858025 120.0
98.92012 192.0
98.964722 212.0
99.07959 292.0
99.142998 320.0
99.246033 160.0
99.434807 148.0
99.470268 196.0
99.525856 160.0
99.593384 152.0
99.625168 160.0
99.662918 176.0
99.699272 148.0
99.721985 204.0
99.764168 148.0
99.936363 136.0
99.986755 148.0
100.029381 152.0
100.102524 184.0
100.118126 192.0
100.154305 140.0
100.17218 148.0
100.279152 140.0
100.335655 148.0
100.36087 148.0
100.42112 160.0
100.517212 156.0
100.534294 308.0
100.583023 156.0
100.612968 144.0
100.630936 156.0
100.661682 180.0
100.736786 264.0
100.772957 204.0
100.804718 196.0
100.828255 108.0
100.851509 120.0
100.873497 136.0
100.922653 260.0
100.948967 228.0
101.172745 200.0
101.190765 156.0
101.204781 148.0
101.278885 196.0
101.294312 148.0
101.328064 168.0
101.351318 152.0
101.510284 212.0
101.551476 172.0
101.584694 172.0
101.629715 176.0
101.705132 152.0
101.830086 168.0
101.855904 260.0
101.870857 148.0
101.969986 148.0
102.013321 252.0
102.029404 156.0
102.045822 328.0
102.152687 156.0
102.329185 188.0
102.379219 184.0
102.446259 132.0
102.466316 224.0
102.494347 148.0
102.53392 140.0
102.579956 160.0
102.61335 192.0
102.760063 184.0
102.812019 288.0
102.887657 172.0
102.927551 184.0
102.988625 192.0
103.055008 260.0
103.172516 168.0
103.298546 204.0
103.37252 172.0
103.442047 152.0
103.466232 132.0
103.501717 356.0
103.636986 156.0
103.686661 168.0
103.778214 172.0
103.881317 168.0
103.918846 444.0
103.991432 136.0
104.045181 436.0
104.060844 548.0
104.081772 200.0
104.189224 180.0
104.235947 180.0
104.317543 168.0
104.366722 208.0
104.395187 188.0
104.41349 228.0
104.450104 156.0
104.474518 272.0
104.569923 104.0
104.637329 216.0
104.783745 176.0
104.808426 160.0
104.838989 140.0
104.86956 152.0
104.883827 144.0
104.926643 256.0
104.949066 152.0
104.985153 208.0
105.068863 948.0
105.109795 176.0
105.208183 208.0
105.253105 260.0
105.288574 108.0
105.330315 124.0
105.449562 144.0
105.520767 184.0
105.545303 208.0
105.599899 132.0
105.642357 168.0
105.688377 148.0
105.706909 180.0
105.754044 136.0
105.779907 144.0
105.874771 176.0
105.906769 148.0
105.922775 156.0
105.94313 140.0
105.996689 160.0
106.012032 188.0
106.040726 148.0
106.066772 136.0
106.12162 140.0
106.165787 148.0
106.262199 192.0
106.288185 204.0
106.319656 140.0
106.35865 200.0
106.397652 304.0
106.460739 116.0
106.547081 180.0
106.569214 128.0
106.611115 152.0
106.615669 172.0
106.650375 188.0
106.792206 204.0
106.811974 164.0
106.839516 212.0
106.872437 184.0
106.9039 220.0
106.948929 164.0
106.969162 176.0
107.014458 204.0
107.049034 884.0
107.072121 144.0
107.094772 200.0
107.140091 184.0
107.187218 124.0
107.240753 184.0
107.286087 152.0
107.322433 132.0
107.341751 148.0
107.382782 164.0
107.481956 184.0
107.508385 196.0
107.645905 176.0
107.672279 144.0
107.708321 160.0
107.725555 192.0
107.805794 288.0
107.988083 176.0
108.030334 144.0
108.129471 152.0
108.206825 176.0
108.232704 156.0
108.275581 176.0
108.336258 172.0
108.354904 248.0
108.533943 132.0
108.586571 148.0
108.620728 144.0
108.700882 140.0
108.732307 164.0
108.863098 172.0
108.897926 120.0
108.949379 144.0
108.989159 172.0
109.033455 208.0
109.106209 160.0
109.129082 408.0
109.214348 168.0
109.239754 148.0
109.267967 120.0
109.30452 152.0
109.364937 160.0
109.384148 344.0
109.467216 208.0
109.51638 164.0
109.561989 152.0
109.60157 152.0
109.617004 148.0
109.639282 128.0
109.706352 176.0
109.750458 140.0
109.839249 224.0
109.964439 148.0
110.016113 164.0
110.054871 164.0
110.080978 152.0
110.160721 260.0
110.19146 300.0
110.227257 156.0
110.314026 144.0
110.415031 108.0
110.446579 224.0
110.499405 160.0
110.595474 128.0
110.692032 136.0
110.713379 108.0
110.746429 168.0
110.775749 196.0
110.811859 296.0
110.892273 124.0
111.04303 124.0
111.077995 132.0
111.103065 272.0
111.13636 196.0
111.270691 188.0
111.392494 292.0
111.444397 108.0
111.495735 120.0
111.573227 152.0
111.617378 164.0
111.632103 200.0
111.683189 124.0
111.725525 124.0
111.763237 152.0
111.835304 176.0
112.024803 264.0
112.262138 112.0
112.293396 200.0
112.308159 156.0
112.374695 276.0
112.555084 200.0
112.574089 164.0
112.720139 156.0
112.80439 148.0
112.930183 188.0
112.944695 172.0
112.971458 148.0
112.993523 140.0
113.020592 144.0
113.053253 308.0
113.086319 156.0
113.133423 160.0
113.157501 128.0
113.162369 116.0
113.215965 120.0
113.250267 180.0
113.278625 200.0
113.32502 196.0
113.348267 128.0
113.37249 216.0
113.388596 144.0
113.464104 180.0
113.541245 140.0
113.581169 136.0
113.615593 160.0
113.677017 156.0
113.714531 184.0
113.751305 436.0
113.768227 144.0
113.819244 268.0
113.865967 140.0
113.986862 352.0
114.026657 164.0
114.08709 128.0
114.108849 132.0
114.160583 172.0
114.235817 164.0
114.277504 180.0
114.3106 272.0
114.369667 200.0
114.422089 168.0
114.512199 152.0
114.550926 140.0
114.626976 160.0
114.646759 160.0
114.6698 128.0
114.702179 428.0
114.781799 104.0
114.79557 184.0
114.847176 180.0
114.869408 160.0
114.931976 128.0
114.988335 200.0
115.010307 308.0
115.034958 144.0
115.053871 1284.0
115.097527 144.0
115.125 116.0
115.160942 152.0
115.260048 204.0
115.338287 148.0
115.393867 204.0
115.409714 184.0
115.503021 208.0
115.539307 164.0
115.577438 168.0
115.59922 188.0
115.624901 164.0
115.639877 208.0
115.678413 164.0
115.765633 168.0
115.801064 144.0
115.824211 276.0
115.891037 144.0
115.942764 172.0
115.956253 252.0
116.044579 220.0
116.060547 624.0
116.102661 164.0
116.182022 176.0
116.209297 180.0
116.257126 224.0
116.344215 108.0
116.389297 124.0
116.42131 148.0
116.484787 120.0
116.520081 260.0
116.641586 144.0
116.674202 228.0
116.743904 136.0
116.786041 176.0
116.810677 164.0
116.849411 144.0
117.035294 200.0
117.070984 504.0
117.190376 152.0
117.209526 176.0
117.34201 216.0
117.381638 164.0
117.509483 156.0
117.534637 152.0
117.577332 116.0
117.617737 148.0
117.650261 180.0
117.746284 140.0
117.774231 176.0
117.804199 172.0
117.830734 156.0
117.904816 156.0
117.930351 152.0
117.980934 164.0
118.021545 108.0
118.061058 312.0
118.170631 200.0
118.434929 124.0
118.466507 168.0
118.50209 144.0
118.523567 320.0
118.540901 212.0
118.560402 176.0
118.67746 152.0
118.792412 140.0
118.836388 176.0
118.929115 144.0
118.989159 152.0
119.048447 172.0
119.073288 252.0
119.127129 148.0
119.193558 152.0
119.287529 144.0
119.341881 140.0
119.496857 192.0
119.572052 124.0
119.628044 132.0
119.679146 420.0
119.810989 180.0
119.837158 192.0
119.890442 164.0
119.92231 148.0
119.984657 164.0
120.064644 296.0
120.078575 528.0
120.147873 136.0
120.199547 200.0
120.398766 168.0
120.531425 160.0
120.569176 256.0
120.622879 168.0
120.678391 100.0
120.749466 148.0
120.852562 156.0
120.898407 148.0
120.945 188.0
121.017014 304.0
121.064995 404.0
121.09774 204.0
121.139076 148.0
121.188995 164.0
121.259949 284.0
121.381134 132.0
121.393494 184.0
121.415115 192.0
121.431793 208.0
121.521027 136.0
121.561234 300.0
121.670586 156.0
121.77639 172.0
121.812225 152.0
121.875305 140.0
121.92733 348.0
121.949471 232.0
121.971947 140.0
121.996277 172.0
122.064285 164.0
122.079681 228.0
122.130264 168.0
122.173569 216.0
122.31057 136.0
122.365738 148.0
122.422859 136.0
122.481499 184.0
122.518265 156.0
122.600113 172.0
122.616013 180.0
122.632912 184.0
122.671967 140.0
122.698898 204.0
122.771873 180.0
122.841766 116.0
122.954445 136.0
122.999313 152.0
123.049217 212.0
123.077919 188.0
123.124298 168.0
123.178413 224.0
123.194977 320.0
123.304039 112.0
123.368057 164.0
123.426689 172.0
123.466568 124.0
123.481522 184.0
123.539848 156.0
123.561974 140.0
123.63913 136.0
123.655556 308.0
123.781105 160.0
123.874123 140.0
123.896278 140.0
123.922226 276.0
123.970848 380.0
124.025146 132.0
124.211075 172.0
124.238197 140.0
124.25766 200.0
124.304977 200.0
124.438469 224.0
124.476456 168.0
124.517082 180.0
124.540901 160.0
124.615044 228.0
124.621559 220.0
124.62867 192.0
124.690186 144.0
124.728462 208.0
124.746246 256.0
124.809654 208.0
124.921928 188.0
124.984222 188.0
125.015587 280.0
125.109047 196.0
125.1623 144.0
125.244698 168.0
125.264748 200.0
125.284798 156.0
125.306732 156.0
125.348564 168.0
125.42556 144.0
125.525665 244.0
125.553093 204.0
125.646179 164.0
125.688354 224.0
125.73848 120.0
125.777626 148.0
125.807312 108.0
125.851059 148.0
125.921921 172.0
125.951797 256.0
126.010048 164.0
126.045639 168.0
126.122932 180.0
126.167641 192.0
126.214203 144.0
126.279022 172.0
126.373055 140.0
126.414787 100.0
126.436989 192.0
126.459442 124.0
126.537025 168.0
126.604897 196.0
126.670776 204.0
126.734825 148.0
126.800217 252.0
126.823952 140.0
126.86277 168.0
126.881905 148.0
127.018013 228.0
127.055923 148.0
127.072449 124.0
127.103523 180.0
127.122757 164.0
127.22364 176.0
127.27803 164.0
127.318069 148.0
127.357666 144.0
127.380959 140.0
127.447647 164.0
127.569725 140.0
127.589661 180.0
127.632675 148.0
127.65966 272.0
127.758308 164.0
127.778877 140.0
127.881889 160.0
127.913399 124.0
128.017471 232.0
128.03775 272.0
128.061844 1632.0
128.082153 264.0
128.106796 196.0
128.176529 204.0
128.206711 144.0
128.263062 200.0
128.326767 172.0
128.374405 156.0
128.475647 148.0
128.549179 144.0
128.61026 216.0
128.627472 176.0
128.634705 288.0
128.654419 116.0
128.68042 156.0
128.787827 156.0
128.815308 160.0
128.834 160.0
128.901443 164.0
128.933258 128.0
128.974106 144.0
129.039047 208.0
129.07074 1480.0
129.139938 204.0
129.383484 136.0
129.406189 344.0
129.435455 100.0
129.44928 156.0
129.476395 156.0
129.496124 100.0
129.578323 148.0
129.616562 124.0
129.723373 136.0
129.751831 116.0
129.794312 120.0
129.844849 160.0
129.924347 180.0
129.993851 96.0
130.028244 188.0
130.068222 876.0
130.236969 284.0
130.281693 168.0
130.359467 172.0
130.402069 220.0
130.431625 156.0
130.458908 156.0
130.518021 156.0
130.540298 152.0
130.614029 204.0
130.658173 208.0
130.884644 96.0
130.935791 124.0
130.960907 164.0
130.986694 172.0
131.004715 272.0
131.049866 376.0
131.074448 1436.0
131.311661 152.0
131.371246 148.0
131.465652 324.0
131.494888 144.0
131.584534 276.0
131.80864 132.0
131.848373 152.0
131.992554 308.0
132.027618 152.0
132.047684 180.0
132.079666 1612.0
132.11763 168.0
132.157379 276.0
132.326141 156.0
132.350998 176.0
132.38501 176.0
132.448837 228.0
132.482224 144.0
132.550629 180.0
132.567932 200.0
132.61496 256.0
132.647247 432.0
132.679306 188.0
132.719238 244.0
132.837341 168.0
132.92276 176.0
132.970093 160.0
133.024017 188.0
133.043427 212.0
133.065689 144.0
133.088669 3064.0
133.121826 296.0
133.211807 148.0
133.236191 172.0
133.26001 160.0
133.335846 212.0
133.365173 180.0
133.411942 124.0
133.435135 368.0
133.486191 144.0
133.51973 124.0
133.55748 156.0
133.605789 196.0
133.628799 172.0
133.65181 140.0
133.688629 160.0
133.708832 144.0
133.794785 168.0
133.842636 168.0
133.900528 180.0
133.931458 180.0
133.974655 376.0
134.015793 152.0
134.062653 172.0
134.095566 624.0
134.226318 140.0
134.266876 164.0
134.333847 136.0
134.352234 180.0
134.382538 116.0
134.490692 176.0
134.506851 168.0
134.523773 252.0
134.596893 140.0
134.723923 156.0
134.84407 248.0
134.919342 172.0
134.951538 164.0
135.022095 176.0
135.055786 120.0
135.077621 216.0
135.184052 176.0
135.232651 232.0
135.353027 156.0
135.477448 120.0
135.596863 180.0
135.632828 240.0
135.716125 184.0
135.765274 172.0
135.876862 140.0
135.910873 152.0
135.955826 128.0
136.074875 600.0
136.184143 184.0
136.20726 204.0
136.241364 176.0
136.280853 156.0
136.329224 108.0
136.35289 216.0
136.380112 192.0
136.412979 156.0
136.451797 140.0
136.469223 224.0
136.494705 152.0
136.556732 208.0
136.584976 152.0
136.629608 156.0
136.675385 136.0
136.694 220.0
136.757599 168.0
136.776215 188.0
136.835403 132.0
136.935074 160.0
136.98642 152.0
137.019501 112.0
137.046814 172.0
137.083008 300.0
137.113953 148.0
137.139587 288.0
137.205307 220.0
137.263153 152.0
137.379776 208.0
137.477768 160.0
137.50087 120.0
137.531448 180.0
137.547791 140.0
137.575806 220.0
137.627167 180.0
137.652847 184.0
137.680878 152.0
137.703033 280.0
137.757278 96.0
137.811127 132.0
137.908691 236.0
137.965942 164.0
137.98465 196.0
138.018951 204.0
138.051636 220.0
138.212372 324.0
138.277344 452.0
138.384186 152.0
138.440063 220.0
138.485291 192.0
138.53389 144.0
138.575577 160.0
138.611145 232.0
138.699539 236.0
138.802872 164.0
138.832077 176.0
138.94725 220.0
138.967453 196.0
138.995468 276.0
139.031616 320.0
139.054962 128.0
139.09938 184.0
139.13031 144.0
139.25946 232.0
139.274902 172.0
139.407471 216.0
139.68483 224.0
139.75592 132.0
139.777985 108.0
139.821381 140.0
139.950623 168.0
140.00502 160.0
140.0215 376.0
140.03891 196.0
140.115662 140.0
140.213058 248.0
140.341934 140.0
140.390533 260.0
140.530502 104.0
140.552658 168.0
140.602814 184.0
140.658646 144.0
140.844681 144.0
140.905136 128.0
140.952087 180.0
141.010178 2120.0
141.069366 444.0
141.102417 196.0
141.161377 192.0
141.229965 316.0
141.248886 140.0
141.293839 200.0
141.352997 204.0
141.369553 144.0
141.393707 252.0
141.413147 224.0
141.454453 120.0
141.544724 148.0
141.676483 172.0
141.702072 132.0
141.737396 216.0
141.788742 148.0
141.861832 124.0
142.020233 132.0
142.065964 240.0
142.107422 380.0
142.149445 124.0
142.222672 164.0
142.298752 120.0
142.320114 212.0
142.340103 144.0
142.406708 172.0
142.445999 144.0
142.469955 168.0
142.494354 152.0
142.538651 200.0
142.570541 332.0
142.61911 136.0
142.654922 144.0
142.700531 192.0
142.740234 160.0
142.785889 172.0
142.823425 128.0
142.892944 196.0
142.930023 132.0
143.009979 748.0
143.048492 196.0
143.074127 472.0
143.152023 128.0
143.235809 148.0
143.292923 180.0
143.43811 152.0
143.46788 196.0
143.505051 152.0
143.54631 240.0
143.568298 100.0
143.616928 136.0
143.677994 180.0
143.708817 216.0
143.729919 160.0
143.769684 184.0
143.843826 300.0
143.864822 116.0
143.901123 200.0
143.919128 148.0
143.965942 196.0
144.020523 180.0
144.081375 4548.0
144.137589 144.0
144.178223 164.0
144.247528 156.0
144.295822 204.0
144.334549 212.0
144.368744 156.0
144.412521 152.0
144.441559 176.0
144.497406 192.0
144.595505 192.0
144.652557 256.0
144.68576 152.0
144.753677 192.0
144.783493 184.0
144.834778 136.0
144.862595 172.0
144.994324 172.0
145.051224 216.0
145.088745 2288.0
145.124191 140.0
145.188889 260.0
145.327103 156.0
145.398376 148.0
145.475388 124.0
145.50766 168.0
145.580582 176.0
145.647507 140.0
145.713608 176.0
145.759094 148.0
145.807938 148.0
145.840286 156.0
145.959381 156.0
145.995453 152.0
146.014542 128.0
146.05954 512.0
146.095596 1984.0
146.168991 148.0
146.190323 184.0
146.23201 236.0
146.303452 180.0
146.336197 360.0
146.373276 144.0
146.395538 148.0
146.423737 172.0
146.459412 208.0
146.504547 176.0
146.567703 112.0
146.597305 184.0
146.633453 152.0
146.65274 140.0
146.676788 208.0
146.710587 152.0
146.751572 276.0
146.782791 144.0
146.838242 156.0
146.90834 332.0
146.982346 292.0
147.031403 180.0
147.067932 660.0
147.100113 388.0
147.183487 204.0
147.22496 164.0
147.243866 156.0
147.28009 160.0
147.381134 136.0
147.41539 288.0
147.51207 148.0
147.554474 184.0
147.61348 156.0
147.696686 252.0
147.782318 124.0
147.821655 188.0
147.8526 180.0
147.882278 328.0
147.911209 144.0
147.947662 200.0
147.971725 160.0
148.020157 204.0
148.073105 496.0
148.157715 172.0
148.188141 112.0
148.213943 160.0
148.264206 160.0
148.281982 312.0
148.344818 164.0
148.379364 192.0
148.425278 128.0
148.446655 232.0
148.478012 124.0
148.516129 124.0
148.531601 172.0
148.586044 112.0
148.604324 144.0
148.628586 152.0
148.807938 108.0
148.853668 144.0
148.894241 156.0
148.941223 140.0
148.972519 140.0
149.015656 2080.0
149.062897 268.0
149.117325 160.0
149.160461 188.0
149.18721 180.0
149.272308 192.0
149.288315 164.0
149.330673 140.0
149.367813 228.0
149.397949 152.0
149.489532 240.0
149.520447 196.0
149.542358 172.0
149.642166 148.0
149.682022 172.0
149.71521 176.0
149.738983 164.0
149.767578 108.0
149.803177 172.0
149.85643 140.0
149.89061 208.0
150.017303 292.0
150.112167 140.0
150.188049 144.0
150.231247 164.0
150.275879 152.0
150.307434 164.0
150.336243 208.0
150.389633 176.0
150.429626 224.0
150.491302 152.0
150.539169 120.0
150.561401 180.0
150.589432 144.0
150.613785 164.0
150.652451 152.0
150.676285 152.0
150.821777 180.0
150.87352 176.0
150.934006 132.0
151.028595 768.0
151.160233 304.0
151.237045 104.0
151.349808 184.0
151.41748 188.0
151.448639 144.0
151.48851 172.0
151.593246 252.0
151.642136 172.0
151.681549 228.0
151.719193 156.0
151.785538 128.0
151.899933 168.0
151.991898 192.0
152.022781 512.0
152.061737 356.0
152.127533 132.0
152.16539 160.0
152.198288 168.0
152.26236 188.0
152.300842 156.0
152.327484 192.0
152.344681 148.0
152.414032 328.0
152.472443 192.0
152.5112 136.0
152.516525 176.0
152.551102 156.0
152.643082 264.0
152.67717 176.0
152.696182 144.0
152.759644 144.0
152.796631 112.0
152.852371 292.0
153.010132 296.0
153.029816 716.0
153.06781 692.0
153.124435 140.0
153.205719 96.0
153.343521 152.0
153.358688 152.0
153.515701 232.0
153.568085 160.0
153.70816 144.0
153.735519 212.0
153.882065 204.0
153.950623 140.0
153.978714 160.0
154.009537 188.0
154.039307 404.0
154.070572 224.0
154.154633 148.0
154.19429 96.0
154.216187 148.0
154.25206 168.0
154.323349 176.0
154.331757 168.0
154.373428 188.0
154.412781 140.0
154.521622 168.0
154.540344 148.0
154.604523 184.0
154.649582 108.0
154.691956 208.0
154.773682 120.0
154.818588 116.0
154.8405 152.0
154.916199 116.0
154.987122 148.0
155.02449 476.0
155.051666 276.0
155.08873 256.0
155.18103 188.0
155.261536 168.0
155.310944 232.0
155.358185 144.0
155.471786 188.0
155.50238 196.0
155.543106 176.0
155.576996 192.0
155.609528 128.0
155.636993 196.0
155.722504 212.0
155.803406 184.0
155.914734 280.0
155.942566 192.0
156.009674 616.0
156.033905 296.0
156.079056 432.0
156.130753 212.0
156.183746 272.0
156.238388 200.0
156.282852 172.0
156.350449 180.0
156.412445 176.0
156.440063 164.0
156.480103 164.0
156.552109 140.0
156.597916 172.0
156.717972 144.0
156.796249 272.0
156.99527 164.0
157.02388 368.0
157.087555 448.0
157.161865 156.0
157.22023 240.0
157.262665 276.0
157.312576 364.0
157.337555 176.0
157.372009 100.0
157.516235 152.0
157.569809 152.0
157.654205 228.0
157.767441 156.0
158.095779 1688.0
158.19754 156.0
158.261566 204.0
158.300201 188.0
158.342285 124.0
158.421875 192.0
158.678513 196.0
158.707581 160.0
158.81398 156.0
158.841568 144.0
158.864319 196.0
158.907379 140.0
159.105026 584.0
159.149017 160.0
159.169754 116.0
159.19632 188.0
159.236252 184.0
159.303467 144.0
159.356232 176.0
159.401459 156.0
159.496902 160.0
159.535233 100.0
159.602554 168.0
159.689056 152.0
159.708191 208.0
159.80629 204.0
159.926392 244.0
159.957306 176.0
159.989609 120.0
160.01268 152.0
160.073578 560.0
160.157379 192.0
160.353867 108.0
160.382034 136.0
160.437943 324.0
160.497681 204.0
160.578217 152.0
160.716858 244.0
160.82048 172.0
160.929855 204.0
160.986008 284.0
161.06575 160.0
161.076813 140.0
161.082443 116.0
161.121231 144.0
161.143646 256.0
161.17041 292.0
161.191269 288.0
161.241165 176.0
161.270767 196.0
161.311447 224.0
161.336288 184.0
161.361359 136.0
161.395004 140.0
161.413559 252.0
161.578354 128.0
161.601807 136.0
161.681534 144.0
161.706528 140.0
161.735626 196.0
161.759689 172.0
161.911606 160.0
161.990128 184.0
162.023453 1608.0
162.062271 180.0
162.084702 160.0
162.116821 224.0
162.135727 140.0
162.19751 272.0
162.241013 204.0
162.284119 160.0
162.514938 120.0
162.553207 148.0
162.588074 416.0
162.626602 216.0
162.684982 236.0
162.726044 180.0
162.782928 180.0
162.814484 180.0
162.937393 352.0
162.969437 156.0
163.030655 164.0
163.059631 192.0
163.096909 124.0
163.202866 204.0
163.253708 256.0
163.316254 104.0
163.348511 200.0
163.558197 148.0
163.617188 228.0
163.665573 160.0
163.876404 132.0
163.941498 184.0
163.980652 208.0
164.027466 340.0
164.059586 148.0
164.08046 132.0
164.179611 180.0
164.214798 160.0
164.238953 152.0
164.304321 144.0
164.421967 192.0
164.465591 172.0
164.507904 124.0
164.561356 172.0
164.643066 176.0
164.663666 192.0
164.878387 336.0
164.936905 148.0
164.984924 112.0
165.020981 444.0
165.036102 332.0
165.070465 16660.0
165.179672 132.0
165.230637 144.0
165.408371 256.0
165.437149 172.0
165.461334 168.0
165.495483 212.0
165.517654 144.0
165.54483 268.0
165.586273 172.0
165.658524 172.0
165.68248 204.0
165.71489 220.0
165.735382 140.0
165.764755 104.0
165.809067 144.0
165.873779 140.0
165.932297 136.0
165.969147 132.0
166.013351 320.0
166.040146 1036.0
166.078232 33396.0
166.159653 304.0
166.306458 452.0
166.334122 176.0
166.396805 128.0
166.419174 156.0
166.513763 168.0
166.593781 280.0
166.719147 200.0
166.761917 140.0
166.790329 140.0
166.836456 344.0
166.856308 144.0
166.972733 140.0
167.049042 3268.0
167.081223 5040.0
167.163116 144.0
167.183807 200.0
167.28833 160.0
167.303894 288.0
167.334473 124.0
167.380447 252.0
167.474915 236.0
167.517883 188.0
167.618912 152.0
167.661224 176.0
167.730179 176.0
167.751053 448.0
167.785599 156.0
167.908325 168.0
167.973145 212.0
168.035889 624.0
168.054871 768.0
168.083496 496.0
168.164124 212.0
168.240509 128.0
168.272446 144.0
168.299896 144.0
168.399063 268.0
168.461502 168.0
168.496185 156.0
168.622818 160.0
168.65712 160.0
168.722672 120.0
168.788269 156.0
168.84697 120.0
168.865005 148.0
168.899124 148.0
168.941956 200.0
169.001221 164.0
169.050293 564.0
169.107101 148.0
169.156464 180.0
169.266571 152.0
169.388718 144.0
169.430725 272.0
169.466431 188.0
169.517456 208.0
169.540405 124.0
169.680557 128.0
169.702682 160.0
169.742325 292.0
169.813675 148.0
169.863022 200.0
169.925354 180.0
169.969467 176.0
170.03595 904.0
170.129181 144.0
170.159653 204.0
170.195297 144.0
170.221909 176.0
170.268051 248.0
170.306961 172.0
170.332947 180.0
170.399048 224.0
170.497971 248.0
170.588242 252.0
170.629211 356.0
170.757309 152.0
170.787842 276.0
170.855469 304.0
170.892181 184.0
170.921555 192.0
170.96283 232.0
171.094635 208.0
171.206009 144.0
171.446945 160.0
171.467407 144.0
171.489441 144.0
171.52475 200.0
171.631058 304.0
171.690689 176.0
171.75528 136.0
171.891052 152.0
171.96817 180.0
172.00975 112.0
172.033432 312.0
172.218826 156.0
172.263382 152.0
172.294159 96.0
172.323044 108.0
172.41217 148.0
172.498077 212.0
172.695374 200.0
172.748596 144.0
172.869095 184.0
172.990295 172.0
173.000916 144.0
173.036575 188.0
173.07663 144.0
173.132217 280.0
173.460861 216.0
173.523285 120.0
173.554794 132.0
173.615479 140.0
173.636551 260.0
173.826324 196.0
173.913818 212.0
173.955246 136.0
173.991684 184.0
174.015244 136.0
174.053833 180.0
174.083588 196.0
174.183853 204.0
174.232712 140.0
174.256821 164.0
174.29126 164.0
174.342239 124.0
174.422516 292.0
174.448029 176.0
174.490875 188.0
174.549026 172.0
174.590851 164.0
174.738098 140.0
174.785538 148.0
174.811188 144.0
174.887543 152.0
174.915741 112.0
175.041977 196.0
175.123886 180.0
175.154312 156.0
175.243622 212.0
175.288422 200.0
175.35466 144.0
175.383301 200.0
175.518936 112.0
175.567856 164.0
175.591583 144.0
175.717575 148.0
175.735718 308.0
175.781769 272.0
175.816238 216.0
175.835922 192.0
175.900299 164.0
175.95047 240.0
175.972824 128.0
176.034958 248.0
176.060562 248.0
176.169662 144.0
176.193436 180.0
176.238358 124.0
176.436249 300.0
176.497391 204.0
176.560867 144.0
176.716934 216.0
176.751328 160.0
176.77507 128.0
176.784027 124.0
176.984909 168.0
177.020111 224.0
177.068451 316.0
177.095306 164.0
177.126236 172.0
177.208939 156.0
177.25061 160.0
177.280365 196.0
177.327087 216.0
177.370163 176.0
177.427353 228.0
177.6483 140.0
177.689316 196.0
177.803406 184.0
177.877731 176.0
177.912933 156.0
177.964584 208.0
178.042068 1484.0
178.07756 708.0
178.119476 184.0
178.172348 128.0
178.224426 148.0
178.242966 108.0
178.432648 256.0
178.452499 104.0
178.556152 160.0
178.680313 152.0
178.755234 128.0
178.800644 128.0
178.840363 196.0
178.921219 200.0
178.997971 280.0
179.047989 1248.0
179.08609 484.0
179.203598 184.0
179.226196 200.0
179.252777 248.0
179.380035 140.0
179.439362 144.0
179.532455 220.0
179.60318 108.0
179.630173 144.0
179.660309 152.0
179.695419 316.0
179.748779 140.0
179.775467 140.0
179.795425 276.0
179.863754 148.0
179.896576 132.0
179.931046 136.0
179.981018 172.0
180.057785 1412.0
180.093887 448.0
180.162628 160.0
180.184006 192.0
180.206741 196.0
180.23259 152.0
180.284378 260.0
180.368942 136.0
180.475342 320.0
180.525406 108.0
180.619751 144.0
180.638474 176.0
180.662552 216.0
180.750854 176.0
180.826324 236.0
180.8927 152.0
180.978622 228.0
181.06337 1316.0
181.129089 212.0
181.250122 140.0
181.280258 184.0
181.420853 208.0
181.460663 148.0
181.485458 144.0
181.538193 324.0
181.669846 152.0
181.702682 168.0
181.736923 180.0
181.806702 172.0
181.969223 156.0
182.039673 1056.0
182.07341 776.0
182.098785 256.0
182.14769 152.0
182.197647 120.0
182.256882 124.0
182.279343 164.0
182.360367 184.0
182.394897 168.0
182.419342 132.0
182.490936 212.0
182.547897 124.0
182.667587 128.0
182.690704 144.0
182.787567 160.0
182.882812 164.0
182.914642 208.0
183.039322 240.0
183.081055 808.0
183.139404 140.0
183.184372 180.0
183.242447 192.0
183.367554 144.0
183.404633 100.0
183.43573 140.0
183.476395 160.0
183.513321 148.0
183.560684 188.0
183.683212 112.0
183.74231 192.0
183.811554 140.0
183.841248 140.0
183.875763 192.0
183.90332 164.0
183.991455 120.0
184.029312 560.0
184.086105 244.0
184.12793 104.0
184.15712 220.0
184.354355 180.0
184.396759 168.0
184.455139 132.0
184.549911 128.0
184.629593 128.0
184.720154 176.0
184.760406 116.0
184.824097 140.0
184.855087 144.0
184.900543 104.0
184.918747 148.0
185.084564 176.0
185.15007 124.0
185.216141 168.0
185.319244 172.0
185.369156 164.0
185.47757 196.0
185.514923 304.0
185.613388 164.0
185.674698 176.0
185.802994 188.0
185.873535 172.0
185.894135 188.0
185.983597 228.0
186.047241 152.0
186.103561 232.0
186.251343 180.0
186.329697 160.0
186.413513 132.0
186.492752 144.0
186.528076 144.0
186.644424 136.0
186.830643 156.0
186.870758 160.0
186.900681 144.0
186.940033 276.0
186.971436 124.0
187.044922 180.0
187.073257 148.0
187.105591 212.0
187.142929 192.0
187.19194 236.0
187.239731 184.0
187.284546 168.0
187.467972 148.0
187.521744 152.0
187.565201 164.0
187.5914 112.0
187.715836 212.0
187.839981 244.0
187.884766 144.0
187.903366 228.0
187.992355 192.0
188.026169 164.0
188.051788 124.0
188.081924 236.0
188.218399 144.0
188.294342 176.0
188.408447 164.0
188.520401 144.0
188.556 216.0
188.616135 196.0
188.761047 212.0
188.838852 160.0
188.903259 284.0
189.047058 420.0
189.0672 380.0
189.133133 200.0
189.158295 164.0
189.368607 140.0
189.448044 200.0
189.472336 152.0
189.554901 212.0
189.648087 284.0
189.670013 176.0
189.892441 128.0
189.944214 196.0
189.999084 220.0
190.051224 248.0
190.075607 884.0
190.171967 240.0
190.235107 164.0
190.307007 148.0
190.350204 156.0
190.468521 256.0
190.487747 224.0
190.541809 160.0
190.628448 192.0
190.723526 184.0
190.83403 196.0
190.909683 180.0
190.943161 304.0
191.013794 164.0
191.042938 228.0
191.085129 4424.0
191.204895 156.0
191.230164 200.0
191.310654 184.0
191.351288 156.0
191.37056 180.0
191.398102 196.0
191.433456 176.0
191.520569 140.0
191.545593 172.0
191.587112 256.0
191.717651 188.0
191.763458 132.0
191.92038 332.0
192.054153 364.0
192.093521 7904.0
192.143616 384.0
192.227829 144.0
192.258667 308.0
192.280197 164.0
192.305099 172.0
192.386505 268.0
192.471634 192.0
192.606079 140.0
192.625931 232.0
192.66861 188.0
192.694473 356.0
192.874527 184.0
192.931854 112.0
192.971909 192.0
193.073776 1764.0
193.198547 184.0
193.223862 280.0
193.3526 168.0
193.435135 216.0
193.564804 216.0
193.614365 124.0
193.670029 192.0
193.89267 184.0
193.95282 200.0
194.001312 176.0
194.073273 15240.0
194.294083 100.0
194.371567 220.0
194.420837 144.0
194.69371 136.0
194.741455 152.0
194.789948 200.0
194.880569 176.0
194.901077 316.0
194.942474 136.0
194.965118 168.0
195.002838 196.0
195.033173 152.0
195.077042 3588.0
195.124664 180.0
195.136078 112.0
195.239716 100.0
195.265701 136.0
195.345749 112.0
195.405472 148.0
195.480804 116.0
195.634277 208.0
195.679993 124.0
195.709457 152.0
195.760025 148.0
195.796341 180.0
195.836441 160.0
195.921906 184.0
195.985062 152.0
196.083298 320.0
196.137222 176.0
196.16864 152.0
196.247223 144.0
196.324066 144.0
196.35318 160.0
196.39502 236.0
196.423416 132.0
196.450806 140.0
196.573135 152.0
196.65451 132.0
196.680161 228.0
196.770721 204.0
196.804153 212.0
196.911377 160.0
196.960571 268.0
196.991364 252.0
197.054611 292.0
197.084427 116.0
197.154449 144.0
197.276978 160.0
197.339813 152.0
197.361313 232.0
197.425552 184.0
197.458939 136.0
197.552109 108.0
197.610245 104.0
197.676361 140.0
197.699539 136.0
197.773209 156.0
197.842545 148.0
197.915329 148.0
198.052078 140.0
198.086182 216.0
198.123093 228.0
198.195435 156.0
198.22731 320.0
198.271103 192.0
198.292023 156.0
198.39444 148.0
198.436493 140.0
198.543045 176.0
198.573898 168.0
198.671707 152.0
198.775894 164.0
198.820801 172.0
198.93428 232.0
199.030823 448.0
199.183182 124.0
199.319168 264.0
199.417099 180.0
199.491425 136.0
199.526978 268.0
199.587708 160.0
199.654907 160.0
199.752884 136.0
199.932266 164.0
199.987183 204.0
200.046249 536.0
200.15329 140.0
200.206787 148.0
200.234528 132.0
200.313828 204.0
200.34935 196.0
200.378433 116.0
200.405441 216.0
200.508759 152.0
200.589325 372.0
200.672104 156.0
200.702759 156.0
200.726898 136.0
200.748108 144.0
200.77243 164.0
200.880447 324.0
200.904572 352.0
200.927704 168.0
200.955963 192.0
201.046814 27800.0
201.199188 328.0
201.306396 268.0
201.474884 148.0
201.555878 188.0
201.589127 252.0
201.639435 156.0
201.672226 100.0
201.698608 112.0
201.751846 120.0
201.793579 180.0
201.824051 116.0
201.874466 176.0
201.942535 164.0
201.979309 196.0
202.048767 3080.0
202.078171 3336.0
202.138489 180.0
202.256348 160.0
202.369614 144.0
202.424057 168.0
202.449402 180.0
202.490891 108.0
202.515259 144.0
202.591934 112.0
202.646362 160.0
202.694855 200.0
202.735748 164.0
202.824661 156.0
202.947983 152.0
203.003998 216.0
203.043427 6684.0
203.081894 1248.0
203.251373 172.0
203.310974 140.0
203.33345 308.0
203.375198 128.0
203.518204 172.0
203.630371 260.0
203.694855 100.0
203.724106 168.0
203.871933 120.0
203.892609 296.0
203.932617 132.0
203.954544 284.0
203.977631 140.0
204.048355 1024.0
204.089737 256.0
204.239075 140.0
204.345123 192.0
204.383774 132.0
204.41214 312.0
204.439209 152.0
204.638474 144.0
204.692017 164.0
204.725037 220.0
204.76416 232.0
204.882431 216.0
204.906204 156.0
204.932053 164.0
204.957397 160.0
205.006989 296.0
205.031281 192.0
205.064316 5056.0
205.235641 100.0
205.367035 232.0
205.407745 164.0
205.489258 120.0
205.63591 148.0
205.679031 288.0
205.740921 136.0
205.767532 200.0
205.844635 156.0
205.893173 172.0
205.930313 164.0
206.028549 160.0
206.067886 1032.0
206.154236 116.0
206.226318 160.0
206.254288 124.0
206.264313 184.0
206.420319 184.0
206.477768 132.0
206.58432 120.0
206.653564 148.0
206.702209 156.0
206.768021 184.0
206.796646 124.0
206.842728 200.0
206.882523 200.0
206.934769 112.0
206.987534 224.0
207.013245 184.0
207.036667 192.0
207.081039 1336.0
207.101135 536.0
207.413742 228.0
207.453995 100.0
207.586609 196.0
207.593826 144.0
207.794891 156.0
207.859619 156.0
207.887543 164.0
207.928772 176.0
207.970078 216.0
208.012009 144.0
208.061493 128.0
208.091019 612.0
208.110245 796.0
208.131622 168.0
208.185669 136.0
208.370987 176.0
208.422089 168.0
208.479675 160.0
208.547699 124.0
208.577911 184.0
208.598022 172.0
208.783371 104.0
208.9086 144.0
208.936661 176.0
208.993591 176.0
209.057205 224.0
209.095734 1120.0
209.138626 128.0
209.207901 156.0
209.288513 200.0
209.35762 156.0
209.387466 308.0
209.567123 212.0
209.646866 260.0
209.685547 180.0
210.060913 180.0
210.097641 412.0
210.226349 188.0
210.300217 188.0
210.343811 116.0
210.467087 120.0
210.520813 268.0
210.592026 172.0
210.687363 144.0
210.716248 152.0
211.038895 404.0
211.104034 128.0
211.139557 132.0
211.328491 176.0
211.421295 228.0
211.457458 172.0
211.569427 140.0
211.69812 180.0
211.731583 164.0
211.772949 132.0
211.811646 300.0
212.001923 152.0
212.03949 672.0
212.271561 160.0
212.419342 148.0
212.476547 188.0
212.507294 108.0
212.581009 128.0
212.610138 112.0
212.717422 192.0
212.80162 160.0
212.865967 100.0
212.946091 192.0
213.045395 760.0
213.09053 144.0
213.128464 160.0
213.241852 192.0
213.60083 140.0
213.705551 164.0
213.742004 152.0
213.892365 148.0
213.92244 108.0
213.996613 152.0
214.029892 272.0
214.047562 380.0
214.077698 312.0
214.159698 304.0
214.214645 200.0
214.244186 204.0
214.277252 204.0
214.308884 136.0
214.391708 216.0
214.432159 360.0
214.507019 120.0
214.588089 152.0
214.635696 292.0
214.700882 176.0
214.818787 156.0
214.872238 112.0
214.904236 132.0
214.926437 292.0
214.98378 184.0
215.026199 27672.0
215.149902 224.0
215.199921 212.0
215.368912 164.0
215.492889 180.0
215.611786 248.0
215.65361 148.0
215.713593 152.0
215.76651 168.0
215.887512 172.0
215.986954 188.0
216.030899 3148.0
216.062668 168.0
216.093826 212.0
216.362717 188.0
216.458282 176.0
216.513794 224.0
216.568588 152.0
216.601074 220.0
216.651459 184.0
216.680206 192.0
216.765732 348.0
216.894684 152.0
216.917847 156.0
216.964508 152.0
217.023987 8084.0
217.122787 236.0
217.146652 180.0
217.25795 156.0
217.342422 120.0
217.399155 276.0
217.456909 112.0
217.522049 288.0
217.559891 116.0
217.654922 112.0
217.698608 152.0
217.733734 228.0
217.827301 136.0
217.975067 140.0
218.029297 1140.0
218.072311 1524.0
218.15007 268.0
218.195679 144.0
218.245163 388.0
218.364883 124.0
218.397141 148.0
218.426392 168.0
218.509888 180.0
218.567017 172.0
218.600006 148.0
218.643372 132.0
218.721771 148.0
218.749542 136.0
218.790955 288.0
218.851868 320.0
218.958389 136.0
219.023148 264.0
219.040039 472.0
219.081207 10748.0
219.182846 144.0
219.22644 160.0
219.261597 144.0
219.381287 308.0
219.497375 124.0
219.730453 100.0
219.788574 156.0
219.839676 96.0
219.861435 160.0
219.904678 180.0
219.961044 136.0
219.986389 140.0
220.027725 208.0
220.087845 18832.0
220.155777 164.0
220.184219 164.0
220.304306 180.0
220.341232 208.0
220.492493 176.0
220.529358 172.0
220.604858 168.0
220.6306 232.0
220.811752 184.0
220.989441 180.0
221.092239 4360.0
221.156738 152.0
221.210953 236.0
221.318542 264.0
221.413818 160.0
221.532928 112.0
221.571548 160.0
221.614807 120.0
221.712402 180.0
221.788803 116.0
221.886368 180.0
221.952194 104.0
222.004318 148.0
222.1017 1060.0
222.310837 236.0
222.338898 160.0
222.588928 260.0
222.668533 204.0
222.752274 140.0
222.794327 104.0
222.832489 532.0
222.890213 176.0
222.956482 264.0
223.105667 536.0
223.159439 164.0
223.199463 164.0
223.317856 264.0
223.360199 144.0
223.498337 196.0
223.601532 136.0
223.688995 208.0
223.769379 240.0
223.919968 252.0
223.98082 328.0
224.123734 132.0
224.263885 160.0
224.347977 192.0
224.380157 168.0
224.43605 148.0
224.478546 152.0
224.547134 144.0
224.680374 168.0
224.739609 124.0
224.785812 152.0
224.897675 208.0
225.009979 152.0
225.058441 156.0
225.333588 100.0
225.391983 176.0
225.489166 124.0
225.634338 156.0
225.757248 192.0
225.824265 248.0
226.009552 196.0
226.05275 112.0
226.246552 140.0
226.352203 184.0
226.415085 144.0
226.535156 184.0
226.674866 160.0
226.773041 144.0
226.804596 148.0
226.910599 156.0
226.957489 192.0
226.991684 100.0
227.065002 1432.0
227.14505 216.0
227.180634 168.0
227.25264 160.0
227.347595 188.0
227.482895 236.0
227.510635 100.0
227.562027 112.0
227.688034 136.0
227.776825 156.0
227.883789 136.0
228.033401 904.0
228.063873 248.0
228.182358 220.0
228.232788 156.0
228.287766 184.0
228.338898 216.0
228.40152 148.0
228.600632 244.0
228.642761 300.0
228.672867 140.0
228.735031 128.0
228.766174 172.0
228.795242 140.0
228.82724 204.0
228.876968 312.0
228.943329 192.0
228.974182 344.0
229.04216 60880.0
229.144897 144.0
229.179535 180.0
229.223114 124.0
229.289505 108.0
229.358154 104.0
229.446671 180.0
229.528198 96.0
229.564636 112.0
229.590469 184.0
229.71022 164.0
229.740784 140.0
229.771576 132.0
229.850616 176.0
229.88269 176.0
229.941696 140.0
229.990936 100.0
230.04422 8932.0
230.13797 164.0
230.201767 268.0
230.546295 280.0
230.5867 228.0
230.67511 116.0
230.721405 148.0
230.752823 128.0
230.817841 352.0
230.910538 104.0
230.981155 176.0
231.038971 14504.0
231.114029 196.0
231.148331 152.0
231.254761 104.0
231.303192 104.0
231.399872 108.0
231.444092 108.0
231.514221 100.0
231.580704 300.0
231.685577 96.0
231.748505 208.0
231.811966 108.0
231.967377 188.0
232.042847 1432.0
232.115494 248.0
232.155121 184.0
232.293991 108.0
232.423035 180.0
232.496109 160.0
232.608414 228.0
232.639832 160.0
232.676636 136.0
232.734619 176.0
232.788956 156.0
232.84642 176.0
232.890472 216.0
232.968246 244.0
233.023392 208.0
233.058578 160.0
233.090775 400.0
233.111877 392.0
233.192749 192.0
233.343094 164.0
233.504715 112.0
233.576691 168.0
233.666534 184.0
233.869965 160.0
233.90947 172.0
233.95195 204.0
234.091522 3804.0
234.125336 256.0
234.210922 156.0
234.244034 156.0
234.497299 308.0
234.56134 188.0
234.775757 176.0
234.889175 220.0
235.013306 164.0
235.044525 132.0
235.100113 1332.0
235.175247 140.0
235.230164 176.0
235.266037 148.0
235.317215 156.0
235.406204 172.0
235.488617 184.0
235.506897 160.0
235.518982 144.0
235.568375 152.0
235.624619 164.0
235.692551 136.0
235.756851 128.0
235.799988 216.0
235.876709 120.0
235.906326 116.0
235.95343 160.0
236.106796 8092.0
236.213501 104.0
236.246109 132.0
236.27565 284.0
236.315659 120.0
236.360245 188.0
236.402466 240.0
236.510742 252.0
236.666336 180.0
236.864212 200.0
236.905548 152.0
236.933899 108.0
236.984879 144.0
237.045364 320.0
237.111908 708.0
237.158661 136.0
237.234695 204.0
237.461823 152.0
237.557251 180.0
237.637268 208.0
237.680008 176.0
237.726959 168.0
237.849731 144.0
237.874283 160.0
237.935684 164.0
238.052826 240.0
238.110367 256.0
238.151871 180.0
238.288879 148.0
238.379593 208.0
238.44458 364.0
238.537811 180.0
238.626083 140.0
238.665588 100.0
238.749969 184.0
238.780167 196.0
238.822037 232.0
238.967148 176.0
239.027206 796.0
239.128387 144.0
239.20842 216.0
239.253708 116.0
239.351456 208.0
239.388412 288.0
239.518112 96.0
239.573013 144.0
239.666992 148.0
239.899933 112.0
239.987885 300.0
240.033401 912.0
240.075806 152.0
240.177017 280.0
240.212234 140.0
240.273438 124.0
240.320999 292.0
240.419937 128.0
240.475296 160.0
240.515045 96.0
240.570389 164.0
240.614212 160.0
240.676941 140.0
240.719193 156.0
240.753174 152.0
240.844772 164.0
240.906601 172.0
240.97403 168.0
241.040222 2256.0
241.156952 188.0
241.207352 184.0
241.291595 208.0
241.358856 148.0
241.490723 168.0
241.541321 228.0
241.582382 176.0
241.660736 240.0
241.729065 188.0
241.775253 324.0
241.856949 220.0
241.896774 196.0
241.925049 180.0
242.046768 1440.0
242.13028 128.0
242.184982 244.0
242.225433 212.0
242.326889 224.0
242.475006 168.0
242.690308 152.0
242.749222 144.0
242.798843 204.0
242.833801 148.0
242.972549 160.0
243.040009 1012.0
243.056717 1984.0
243.134872 104.0
243.320847 108.0
243.36673 140.0
243.457718 120.0
243.595306 180.0
243.652481 164.0
243.714615 180.0
243.773331 192.0
243.86113 168.0
243.891754 148.0
243.925949 156.0
244.010925 156.0
244.047516 508.0
244.151962 352.0
244.28302 112.0
244.397568 112.0
244.462814 236.0
244.529388 184.0
244.613312 108.0
244.851791 116.0
244.899902 148.0
244.982208 160.0
245.05629 496.0
245.166092 128.0
245.198914 132.0
245.240631 136.0
245.34552 156.0
245.487686 128.0
245.591873 144.0
245.696198 144.0
245.745667 320.0
245.785919 120.0
245.862091 204.0
245.924774 248.0
245.970154 236.0
246.003983 352.0
246.080063 164.0
246.117203 132.0
246.176437 120.0
246.278564 192.0
246.307739 100.0
246.340744 128.0
246.631653 148.0
246.73259 164.0
246.963089 180.0
246.987473 156.0
247.075531 140.0
247.150803 152.0
247.45784 244.0
247.676758 184.0
247.74115 136.0
247.92215 256.0
247.971283 480.0
248.01619 256.0
248.104721 444.0
248.148758 120.0
248.332565 212.0
248.570282 144.0
248.592255 168.0
248.762787 144.0
248.808838 176.0
248.837082 264.0
248.87941 144.0
248.909302 272.0
248.950134 164.0
249.055374 244.0
249.080566 184.0
249.135452 164.0
249.427704 156.0
249.657227 180.0
249.841934 152.0
249.886856 172.0
250.122772 1524.0
250.227448 168.0
250.325958 112.0
250.414383 236.0
250.469269 156.0
250.636246 216.0
250.702286 300.0
250.817261 164.0
250.843964 180.0
250.904068 148.0
250.973511 164.0
251.128143 1356.0
251.178513 196.0
251.295242 144.0
251.340134 156.0
251.393051 188.0
251.431076 168.0
251.521408 204.0
251.591125 160.0
251.667358 152.0
251.734985 140.0
251.768738 180.0
251.797028 96.0
251.818542 140.0
251.967743 164.0
252.027771 140.0
252.057938 140.0
252.099106 216.0
252.136261 256.0
252.250259 140.0
252.304123 144.0
252.366165 140.0
252.454514 152.0
252.500778 312.0
252.665527 172.0
252.694595 228.0
252.795212 144.0
252.872131 128.0
252.948288 148.0
253.03804 716.0
253.141235 196.0
253.305557 360.0
253.390961 176.0
253.601471 148.0
253.653336 152.0
253.774979 204.0
253.906525 208.0
253.927826 140.0
253.997849 252.0
254.04657 1580.0
254.123871 172.0
254.231766 200.0
254.263504 204.0
254.326981 148.0
254.380951 152.0
254.433319 112.0
254.45784 168.0
254.560654 108.0
254.633423 248.0
254.687332 140.0
254.723846 232.0
254.802719 148.0
254.892288 144.0
254.989899 168.0
255.056976 8792.0
255.132401 140.0
255.17836 140.0
255.274246 140.0
255.396301 128.0
255.437271 156.0
255.572159 196.0
255.656097 160.0
255.693695 176.0
255.79686 156.0
255.869476 144.0
255.904617 108.0
255.964005 160.0
255.984421 196.0
256.054352 8008.0
256.12326 168.0
256.275391 172.0
256.357178 204.0
256.407104 140.0
256.506012 140.0
256.534607 148.0
256.574402 132.0
256.623871 172.0
256.652588 160.0
256.707764 144.0
256.856689 264.0
256.909729 180.0
257.059845 2576.0
257.127899 144.0
257.178558 152.0
257.337891 128.0
257.465149 176.0
257.537231 116.0
257.606781 180.0
257.649567 228.0
257.723267 212.0
257.995972 440.0
258.053619 1484.0
258.154388 132.0
258.299988 180.0
258.334839 160.0
258.588531 144.0
258.691986 196.0
258.750275 136.0
258.810974 188.0
258.956726 236.0
258.979156 284.0
259.001556 164.0
259.07254 396.0
259.246277 180.0
259.292084 152.0
259.315582 184.0
259.411743 172.0
259.475861 176.0
259.499268 172.0
259.613312 124.0
259.685333 148.0
259.73584 108.0
259.886414 156.0
259.923035 164.0
260.067474 420.0
260.111755 156.0
260.172668 168.0
260.322235 196.0
260.355072 156.0
260.404938 168.0
260.5 96.0
260.587738 188.0
260.695618 168.0
260.808105 204.0
260.834656 184.0
260.962402 160.0
261.033386 112.0
261.064789 184.0
261.158569 184.0
261.22934 180.0
261.267944 164.0
261.324707 292.0
261.495605 240.0
261.665894 160.0
261.707916 144.0
261.861847 208.0
261.934326 360.0
261.976318 108.0
262.085236 124.0
262.113617 156.0
262.175964 156.0
262.225464 168.0
262.321014 164.0
262.353271 288.0
262.394379 176.0
262.531586 184.0
262.569305 156.0
262.595093 140.0
262.777374 104.0
262.804779 172.0
262.887848 168.0
262.919464 132.0
263.009644 176.0
263.034973 224.0
263.062195 200.0
263.121094 176.0
263.207794 156.0
263.272858 148.0
263.332916 120.0
263.428192 260.0
263.476349 172.0
263.502197 176.0
263.613495 140.0
263.663879 112.0
263.750824 116.0
263.789825 216.0
263.848755 172.0
263.904175 216.0
264.042053 192.0
264.078003 132.0
264.113617 144.0
264.151398 188.0
264.331757 116.0
264.362335 160.0
264.500244 196.0
264.582428 160.0
264.680176 108.0
264.84845 196.0
264.880371 148.0
264.936157 176.0
265.010468 300.0
265.256805 140.0
265.4216 168.0
265.453247 180.0
265.473236 152.0
265.514648 192.0
265.584778 168.0
265.642151 160.0
265.717224 176.0
265.860504 248.0
265.888763 160.0
265.934204 160.0
265.974091 148.0
266.086761 216.0
266.151703 168.0
266.193909 204.0
266.258453 184.0
266.349823 144.0
266.38562 156.0
266.445648 280.0
266.484863 136.0
266.505768 336.0
266.613007 232.0
266.754883 116.0
266.783264 148.0
266.834045 180.0
266.915649 164.0
267.02887 148.0
267.161255 124.0
267.325195 164.0
267.543793 124.0
267.573242 176.0
267.702393 128.0
267.784241 188.0
267.810303 200.0
267.863464 176.0
267.986206 276.0
268.052795 120.0
268.113312 260.0
268.182465 324.0
268.276978 120.0
268.406708 200.0
268.431702 156.0
268.468994 200.0
268.579651 116.0
268.641541 144.0
268.693726 160.0
268.937134 244.0
269.079376 368.0
269.10498 140.0
269.141388 152.0
269.411987 148.0
269.595978 124.0
269.638702 104.0
269.75946 156.0
269.948029 144.0
270.068298 2204.0
270.148407 180.0
270.19989 192.0
270.33075 144.0
270.383118 168.0
270.410736 156.0
270.480804 120.0
270.661377 168.0
270.697418 156.0
270.781372 212.0
270.915894 148.0
271.00531 140.0
271.075714 3512.0
271.160828 124.0
271.220337 240.0
271.292908 168.0
271.506165 112.0
271.592133 140.0
271.627502 108.0
271.732605 200.0
271.926239 160.0
271.933868 132.0
272.069 1436.0
272.2742 144.0
272.384583 144.0
272.439056 168.0
272.593506 332.0
272.710907 148.0
272.800568 144.0
272.885223 208.0
272.975922 284.0
273.072296 1408.0
273.116241 228.0
273.212738 96.0
273.270874 208.0
273.309113 152.0
273.471619 156.0
273.5849 184.0
273.63974 156.0
273.672424 248.0
273.748169 144.0
273.909912 148.0
273.978729 172.0
274.077271 440.0
274.211029 144.0
274.258209 152.0
274.347931 148.0
274.463226 156.0
274.522766 144.0
274.631927 136.0
274.672974 148.0
274.743591 176.0
274.822144 196.0
274.872253 140.0
274.959076 152.0
275.05484 136.0
275.11145 112.0
275.215424 188.0
275.347748 352.0
275.435303 252.0
275.497772 116.0
275.55072 156.0
275.641663 152.0
275.710083 176.0
275.77359 144.0
275.820984 124.0
275.907745 176.0
275.966125 200.0
276.019653 148.0
276.099213 180.0
276.174988 176.0
276.230164 152.0
276.279816 164.0
276.35083 264.0
276.508118 164.0
276.620117 148.0
276.657074 196.0
276.748596 228.0
276.91098 232.0
277.035828 140.0
277.06955 160.0
277.11673 184.0
277.150146 252.0
277.22348 176.0
277.276489 144.0
277.385864 140.0
277.417725 284.0
277.462341 184.0
277.644501 220.0
277.684296 188.0
277.733246 148.0
277.823608 160.0
277.899933 156.0
277.972015 160.0
278.299835 124.0
278.650085 120.0
278.721222 284.0
278.974915 112.0
279.016876 148.0
279.045807 140.0
279.103363 168.0
279.195648 128.0
279.235352 168.0
279.371735 144.0
279.462677 132.0
279.516693 184.0
279.547028 316.0
279.575531 148.0
279.657166 152.0
279.68454 172.0
279.707855 144.0
279.781097 164.0
279.822205 148.0
280.034149 108.0
280.077454 144.0
280.141571 132.0
280.213104 212.0
280.307343 144.0
280.375336 100.0
280.421967 144.0
280.485168 124.0
280.515961 156.0
280.567322 152.0
280.600677 140.0
280.694031 160.0
280.782013 116.0
280.831085 212.0
280.873718 164.0
280.924164 188.0
280.951477 228.0
280.994232 196.0
281.068817 168.0
281.27121 228.0
281.4198 204.0
281.47467 136.0
281.521637 156.0
281.595093 268.0
281.644531 312.0
281.788574 148.0
281.861267 160.0
281.923218 228.0
281.986603 176.0
282.186584 172.0
282.228546 212.0
282.300262 148.0
282.370941 272.0
282.512573 144.0
282.563812 208.0
282.612244 168.0
282.772736 216.0
282.840851 112.0
282.920441 140.0
282.972839 168.0
283.045349 244.0
283.083344 144.0
283.162933 116.0
283.216827 132.0
283.268616 252.0
283.406372 96.0
283.468597 256.0
283.564423 208.0
283.603271 108.0
283.655029 140.0
283.724731 124.0
283.758514 204.0
283.780243 172.0
283.817352 196.0
283.894043 180.0
283.969879 300.0
284.085083 932.0
284.179901 188.0
284.288727 348.0
284.384064 368.0
284.493866 284.0
284.53595 280.0
284.588226 300.0
284.636566 176.0
284.699463 168.0
284.722748 196.0
284.769043 168.0
284.830994 176.0
284.86792 120.0
284.913483 116.0
284.958038 184.0
285.024384 188.0
285.078583 372.0
285.168457 220.0
285.179321 372.0
285.25116 348.0
285.283691 272.0
285.33667 336.0
285.381805 272.0
285.418121 592.0
285.447876 364.0
285.48822 328.0
285.547668 292.0
285.559082 492.0
285.617126 268.0
285.688141 384.0
285.753479 436.0
285.780396 464.0
285.805725 860.0
285.847504 276.0
285.858551 680.0
285.885132 840.0
285.894501 632.0
285.918213 692.0
285.960419 992.0
285.99884 716.0
286.052368 1168.0
286.101624 265468.0
286.215454 364.0
286.33371 264.0
286.415527 2800.0
286.47049 788.0
286.524017 1020.0
286.565186 940.0
286.614563 2372.0
286.666138 7708.0
286.748169 376.0
286.778046 176.0
286.78894 204.0
286.801727 344.0
286.829315 140.0
286.85614 372.0
286.893127 312.0
286.922668 348.0
286.965607 516.0
287.060638 496.0
287.104248 150532.0
287.201935 144.0
287.234406 440.0
287.319336 96.0
287.373749 348.0
287.421509 320.0
287.469452 264.0
287.567383 304.0
287.5979 192.0
287.684631 248.0
287.72171 228.0
287.747009 196.0
287.753387 372.0
287.796265 460.0
287.832489 280.0
287.877777 312.0
287.953491 368.0
287.982574 312.0
288.023926 752.0
288.09848 194060.0
288.315613 112.0
288.352203 204.0
288.411438 164.0
288.47876 388.0
288.51593 284.0
288.556824 244.0
288.598206 288.0
288.654449 732.0
288.695374 504.0
288.733734 164.0
288.766632 152.0
288.843109 224.0
288.878662 532.0
288.917145 264.0
288.949524 356.0
288.99939 244.0
289.042694 376.0
289.10083 33916.0
289.208221 200.0
289.242462 436.0
289.296814 232.0
289.328583 216.0
289.454926 236.0
289.492706 148.0
289.5401 172.0
289.720245 128.0
289.747223 212.0
289.843567 124.0
289.923828 240.0
289.985138 152.0
290.074799 256.0
290.102173 376.0
290.141663 260.0
290.196289 220.0
290.280701 160.0
290.333771 108.0
290.39093 160.0
290.422302 128.0
290.490997 160.0
290.535095 132.0
290.603333 104.0
290.649048 96.0
290.683319 184.0
290.76947 264.0
290.84964 172.0
290.946411 164.0
291.002716 200.0
291.102509 208.0
291.162445 292.0
291.208405 136.0
291.236908 292.0
291.328766 160.0
291.597778 108.0
291.747559 132.0
291.854431 104.0
292.090332 128.0
294.387787 96.0
295.580139 112.0
295.821167 112.0
296.026276 100.0
296.76532 100.0
297.630768 116.0
297.689636 100.0
298.529938 144.0
298.739105 144.0
299.247986 168.0
299.602814 148.0
300.400391 168.0
300.468079 104.0
301.762817 128.0
302.166321 96.0
302.485931 116.0
302.866333 128.0
303.001251 160.0
303.116669 176.0
303.296234 132.0
303.76944 148.0
303.813995 136.0
303.884644 100.0
304.653717 104.0
304.761414 184.0
306.109772 172.0
307.737122 108.0
308.050323 140.0
308.868286 156.0
313.056305 152.0
316.83493 168.0
327.125397 640.0
327.281921 152.0
329.120178 100.0
330.126678 192.0
353.891479 120.0
371.371033 100.0
378.145996 132.0
384.844391 160.0
402.084534 156.0
436.865631 172.0
442.039368 144.0
471.084686 112.0
531.10614 152.0
537.648804 156.0
551.929138 148.0
634.994995 148.0
661.113159 144.0
693.624512 124.0
723.153137 224.0
813.432129 124.0
864.794189 108.0
943.159363 248.0
1121.429077 144.0
1129.504883 140.0
1175.896729 144.0
1241.587891 156.0
1258.512085 140.0
1265.0448 172.0
1283.75293 184.0
1306.271729 176.0
1307.797241 148.0
1313.475342 212.0
1322.558228 152.0
1325.194336 140.0
1334.114014 172.0
1335.386475 156.0
1340.577515 172.0
1344.48645 152.0
1351.501709 148.0
1354.495972 188.0
1356.335327 140.0
1357.413086 144.0
1359.239624 192.0
1369.613281 140.0
1374.088013 200.0
1374.582397 168.0
1388.713013 164.0
1402.11084 220.0
1407.735962 168.0
1421.142456 168.0
1440.355347 216.0
1442.879395 224.0
1443.575073 212.0
1451.842651 224.0
1453.468262 168.0
1455.692383 184.0
1455.942993 164.0
1457.036743 148.0
1482.422974 180.0
1484.193848 156.0
1484.914673 224.0
1485.904175 140.0
1488.206787 160.0
1488.805786 240.0
1497.829102 120.0
1498.644409 208.0
1506.985229 176.0
1515.233032 220.0
1518.566284 156.0
1519.512695 184.0
1523.930542 160.0
1525.259521 336.0
1526.938965 224.0
1529.779053 212.0
1533.650513 144.0
1533.985718 172.0
1537.698608 168.0
1538.908691 152.0
1551.975586 156.0
1571.100708 196.0
1576.646606 180.0
1592.312378 96.0
1597.937866 188.0
1599.696655 172.0
1599.863892 176.0
1624.702515 176.0
1628.017578 164.0
1635.285522 216.0
1635.655762 208.0
1642.626221 228.0
1658.645264 168.0
1660.32373 184.0
1660.802246 140.0
1662.89563 176.0
1669.655273 160.0
1685.576538 184.0
1687.767212 144.0
1691.195068 144.0
1692.758789 160.0
1696.216064 128.0
1696.470459 168.0
1699.431152 144.0
1700.1698 140.0
1704.045532 144.0
1711.332886 144.0
1715.682739 188.0
1715.839722 196.0
1721.467163 200.0
1721.805786 144.0
1722.590454 168.0
1723.350464 164.0
1726.083008 104.0
1730.36438 264.0
1730.463745 180.0
1732.699951 164.0
1738.885986 144.0
1740.861938 152.0
1743.404053 156.0
1743.711548 164.0
1744.459595 200.0
1744.91687 160.0
1747.719849 180.0
1748.577026 168.0
1752.932617 244.0
1755.450195 160.0
1758.411865 152.0
1759.104614 188.0
1759.897705 204.0
1760.215088 168.0
1761.576416 172.0
1762.671021 156.0
1764.442993 200.0
1767.094238 144.0
1767.880859 160.0
1768.332764 220.0
1777.618652 140.0
1779.624756 180.0
1780.682861 164.0
1781.064575 228.0
1784.338257 160.0
1788.350952 228.0
1790.893799 152.0
1795.731812 148.0
1795.875244 164.0
1797.916992 216.0
1799.444824 180.0
1800.475098 192.0
1800.905762 196.0
1804.497314 156.0
1808.507202 176.0
1810.090332 192.0
1811.598022 144.0
1812.013184 144.0
1813.199463 184.0
1813.436768 168.0
1813.869141 180.0
1814.623657 148.0
1814.725342 152.0
1815.16626 168.0
1816.234863 144.0
1819.281372 148.0
1820.351196 188.0
1820.818237 164.0
1821.718628 208.0
1822.279297 284.0
1825.262817 168.0
1826.427979 176.0
1827.379639 152.0
1827.8573 196.0
1831.509644 148.0
1831.901489 216.0
1832.56604 228.0
1835.233887 228.0
1836.325439 196.0
1837.848267 152.0
1844.535156 176.0
1847.062256 156.0
1847.900635 172.0
1852.044067 148.0
1853.90332 188.0
1854.246094 188.0
1855.720581 204.0
1860.044312 140.0
1861.491211 208.0
1861.838867 140.0
1863.848999 176.0
1864.390381 212.0
1865.439087 160.0
1867.700562 228.0
1868.913696 140.0
1875.588135 164.0
1877.79541 144.0
1878.3302 152.0
1879.62439 160.0
1880.19397 200.0
1880.461426 144.0
1881.031128 140.0
1886.940308 148.0
1887.018066 172.0
1890.74646 156.0
1892.512329 152.0
1893.828735 216.0
1893.993286 212.0
1896.012085 172.0
1902.040161 168.0
1902.63916 176.0
1907.255493 232.0
1907.591064 152.0
1910.826172 176.0
1911.08728 144.0
1912.114136 204.0
1917.365845 164.0
1918.568726 244.0
1921.760864 172.0
1925.907593 200.0
1928.214233 208.0
1929.28064 156.0
1929.656616 180.0
1931.099487 248.0
1931.825562 168.0
1932.219238 172.0
1932.97168 160.0
1933.426758 148.0
1936.768433 244.0
1938.436035 192.0
1939.145874 188.0
1939.750732 156.0
1940.63623 192.0
1943.820312 164.0
1944.702759 180.0
1945.277222 156.0
1948.886841 144.0
1950.477661 176.0
1951.597534 188.0
1952.290039 148.0
1953.75769 144.0
1961.419189 160.0
1962.720337 156.0
1962.970947 212.0
1966.799927 180.0
1967.135376 164.0
1967.585571 192.0
1971.560547 176.0
1973.571411 196.0
1975.69873 196.0
1978.654663 148.0
1979.575562 164.0
1979.726074 240.0
1980.222046 188.0
1980.532104 284.0
1982.15332 172.0
1982.357178 180.0
1983.429565 240.0
1983.695557 212.0
1983.855103 192.0
1989.236572 128.0
1990.305298 144.0
1991.122314 140.0
1993.263306 152.0
1993.512085 148.0
1995.34314 148.0
1995.947754 160.0
1996.872681 160.0
1997.521973 196.0
1999.265991 148.0
2000.173828 184.0
2000.271729 172.0
2001.856567 216.0
2002.747192 140.0
