>compound MLS000574930-01!
>formula C19H22O7
>ionization [M+Na]+
>parentmass 385.123932
#inchi InChI=1S/C19H22O7/c1-8-4-12(21)26-17(8)18(3)6-11-19(7-20)10(5-13(22)25-11)9(2)14(23)15(24)16(18)19/h4,9-11,17,20,24H,5-7H2,1-3H3/t9-,10+,11-,17+,18+,19-/m1/s1
#inchikey SRNFRTSVHROPLE
#Ion_Source LC-ESI
#Instrument qTof
#Compound_Source NIH Natural Product Library
#PI Dorrestein
#Data_Collector VVP/LMS
#Scan -1
#Precursor_MZ 385.126
#ExactMass 362.137
#Charge 1
#CAS_Number N/A
#Pubmed_ID N/A
#Smiles C[C@@H]1[C@@H]2CC(=O)O[C@@H]3C[C@](C)([C@H]4OC(=O)C=C4C)C(=C(O)C1=O)[C@@]32CO
#INCHI_AUX N/A
#Library_Class 3
#SpectrumID CCMSLIB00000079375
#IonMode Positive
#UpdateWorkflowName UPDATE-SINGLE-ANNOTATED-BRONZE
#LibraryQualityString Bronze
#TaskID b1d8e8f6646f4e71acdff9ca3d919d08
##Scan# 1373
#SpectrumFile p1-C05_GC5_01_17901.mzXML
#LibraryName NIH_Natural_Products_Library.mgf
#MQScore -1
#Organism NIH_Natural_Products_Library
#TIC_Query 0
#RT_Query -1
#MZErrorPPM -1
#SharedPeaks 0
#MassDiff 0
#LibMZ -1
#SpecMZ 385.126
#SpecCharge 0
#internalFilename spec-00000.mgf

>collision 10
99.050179 108.0
102.694061 124.0
110.626808 136.0
112.57373 192.0
113.77636 80.0
115.203171 48.0
115.667191 196.0
120.017654 780.0
120.149178 180.0
121.024948 308.0
130.078262 188.0
131.188339 56.0
135.726852 204.0
137.679199 152.0
143.088501 124.0
143.307617 144.0
144.714386 164.0
146.003311 128.0
160.090317 140.0
160.443054 208.0
161.013306 160.0
161.086548 156.0
162.166977 204.0
162.491562 148.0
168.399765 80.0
171.080902 124.0
172.092438 160.0
173.809448 40.0
176.036362 168.0
182.479355 56.0
184.990967 136.0
186.988663 168.0
187.06488 140.0
188.018829 172.0
189.089325 148.0
190.093124 152.0
191.541992 148.0
191.900253 84.0
196.088791 164.0
200.12822 180.0
201.089478 188.0
203.030243 44.0
203.069946 140.0
204.32547 140.0
211.083084 236.0
212.44722 60.0
214.028244 96.0
217.988831 156.0
222.573242 204.0
222.840561 92.0
224.042465 200.0
225.232681 220.0
225.5793 252.0
225.719818 100.0
226.183533 180.0
229.054108 216.0
230.08844 152.0
230.487122 156.0
236.566818 152.0
237.866531 256.0
239.09285 180.0
239.24675 84.0
239.268311 248.0
239.35759 180.0
240.038574 76.0
240.374802 60.0
242.533447 80.0
242.852798 140.0
244.577225 152.0
247.07872 232.0
249.054703 192.0
250.27803 176.0
250.914459 172.0
251.971695 136.0
252.031723 88.0
252.0728 152.0
254.746811 184.0
257.075928 176.0
257.358276 56.0
257.808685 180.0
258.01004 120.0
261.146057 56.0
261.767181 88.0
262.001556 160.0
262.040955 172.0
262.334229 36.0
266.92514 204.0
267.934113 140.0
268.14917 136.0
269.08136 144.0
272.074371 164.0
273.94223 112.0
275.046875 84.0
280.063568 196.0
281.293945 144.0
283.987488 132.0
284.56131 48.0
285.82843 32.0
286.04718 108.0
287.088531 1108.0
287.854279 68.0
288.095947 5164.0
288.587494 156.0
288.91214 40.0
289.098511 828.0
289.358856 120.0
289.643341 84.0
290.095062 284.0
290.561981 48.0
291.006592 32.0
291.862793 52.0
292.114471 84.0
292.192688 144.0
292.45813 52.0
296.340851 104.0
297.097076 172.0
299.24646 132.0
300.245728 68.0
301.094696 212.0
303.045624 292.0
303.971405 100.0
304.141449 148.0
305.082794 120.0
306.103577 552.0
306.238037 36.0
307.116272 192.0
307.21051 32.0
308.127869 124.0
312.532257 92.0
314.311646 128.0
320.082275 184.0
321.080048 208.0
321.233429 144.0
331.197632 208.0
338.184784 176.0
339.071106 188.0
342.13446 152.0
353.353699 112.0
354.836792 112.0
355.117737 204.0
359.123596 120.0
365.427032 164.0
367.118256 120.0
379.9422 108.0
383.079346 196.0
383.110504 144.0
385.123932 4436.0
385.224823 276.0
385.693726 80.0
385.979126 76.0
386.00647 156.0
386.129303 888.0
387.02774 40.0
387.132721 284.0
387.556488 68.0
388.109161 160.0
389.75769 60.0
389.985596 80.0
390.013123 52.0
394.170837 160.0
405.060028 52.0
427.151855 128.0
433.145386 180.0
457.639252 96.0
487.734192 176.0
599.109253 64.0
958.19342 152.0
1034.073608 64.0
1160.029297 64.0
1162.735596 176.0
1169.708984 72.0
1252.394897 148.0
1310.549805 152.0
1316.710083 136.0
1388.629028 20.0
1410.878174 184.0
1503.687256 128.0
