>compound Bendrofluazide
>formula C15H14F3N3O4S2 
>ionization [M+H]+
>parentmass 422.045563
#inchi InChI=1S/C15H14F3N3O4S2/c16-15(17,18)10-7-11-13(8-12(10)26(19,22)23)27(24,25)21-14(20-11)6-9-4-2-1-3-5-9/h1-5,7-8,14,20-21H,6H2,(H2,19,22,23)
#inchikey HDWIHXWEUNVBIY
#Ion_Source LC-ESI
#Instrument qTof
#Compound_Source Commercial
#PI Dorrestein
#Data_Collector Garg_Neha
#Scan -1
#Precursor_MZ 422.048
#ExactMass 421.038
#Charge 1
#CAS_Number N/A
#Pubmed_ID N/A
#Smiles N/A
#INCHI_AUX N/A
#Library_Class 1
#SpectrumID CCMSLIB00000077089
#IonMode Positive
#UpdateWorkflowName UPDATE-SINGLE-ANNOTATED-GOLD
#LibraryQualityString Gold
#TaskID 48f7f52fc6d249b5abbcc6e7b3df5969
##Scan# 1420
#SpectrumFile NCP003106_A2_B11_BB2_01_15705.mzXML
#LibraryName NIH_Clinical_Collection_2.mgf
#MQScore -1
#Organism NIHcollection2_04212014_2_mgf
#TIC_Query 0
#RT_Query -1
#MZErrorPPM -1
#SharedPeaks 0
#MassDiff 0
#LibMZ -1
#SpecMZ 422.048
#SpecCharge 0
#internalFilename spec-00000.mgf

>collision 10
46.927021 164.0
51.77454 168.0
54.122044 152.0
56.400455 140.0
57.205982 164.0
62.066555 160.0
63.98632 140.0
66.255707 156.0
67.050293 224.0
68.177895 140.0
76.98613 164.0
82.372063 140.0
85.298668 156.0
86.127861 156.0
89.033455 216.0
90.796158 196.0
91.054375 716.0
91.369804 240.0
93.053352 164.0
93.453362 152.0
95.40287 148.0
97.048721 164.0
97.885788 176.0
100.302895 228.0
101.175873 148.0
103.055138 176.0
104.048798 188.0
105.033661 3496.0
105.056175 212.0
106.034958 376.0
107.322472 224.0
112.349144 160.0
116.024147 140.0
117.031792 196.0
117.058655 144.0
118.041626 188.0
118.064827 712.0
119.073051 5280.0
119.105759 316.0
120.080429 3268.0
121.082237 152.0
126.648041 160.0
127.038071 172.0
131.023788 168.0
135.053207 172.0
136.075531 460.0
143.0383 140.0
145.032806 232.0
146.022018 148.0
147.809616 140.0
149.026825 152.0
152.993851 156.0
155.039032 148.0
158.019272 164.0
159.026764 160.0
161.916367 232.0
163.019913 148.0
163.049316 316.0
164.026245 180.0
165.067062 168.0
167.806595 160.0
172.021011 188.0
173.144073 196.0
175.003235 148.0
175.048264 164.0
175.997269 140.0
176.030304 188.0
178.994934 140.0
180.004211 156.0
181.089005 144.0
183.065155 160.0
185.452179 192.0
186.03537 188.0
186.2173 160.0
186.877487 124.0
187.018112 128.0
187.106491 160.0
188.00325 176.0
189.999115 132.0
190.065598 140.0
191.043152 488.0
192.030273 116.0
192.083344 164.0
195.026566 184.0
200.025146 144.0
205.008652 124.0
205.982941 176.0
206.00293 156.0
207.020889 220.0
207.594284 140.0
207.809418 148.0
208.00975 164.0
209.010452 200.0
209.059372 188.0
210.044724 188.0
210.29863 164.0
216.065292 204.0
216.497177 192.0
217.074158 544.0
217.144852 208.0
218.080765 336.0
219.085815 136.0
221.072739 536.0
221.983673 152.0
222.054703 148.0
224.056046 192.0
225.65274 160.0
231.078537 216.0
233.056396 308.0
235.068039 304.0
237.081818 468.0
237.997467 144.0
239.007874 2004.0
239.901886 180.0
240.014725 120.0
240.042923 140.0
240.114639 216.0
241.013016 280.0
242.015106 172.0
242.071793 324.0
244.090683 232.0
244.937469 196.0
248.058411 136.0
249.073242 252.0
249.179504 196.0
250.003235 460.0
250.075714 172.0
251.939301 164.0
253.023727 196.0
255.003036 1020.0
256.006989 148.0
256.993378 116.0
257.082855 372.0
258.018951 140.0
258.722748 140.0
259.023773 156.0
259.057251 184.0
259.11026 172.0
260.073151 884.0
261.076599 5028.0
262.014435 300.0
262.080261 820.0
263.085815 136.0
263.706451 128.0
264.018188 124.0
264.054626 192.0
265.006317 220.0
265.988953 160.0
267.009186 144.0
267.067719 180.0
270.982147 4912.0
271.070282 156.0
271.982574 564.0
272.057526 184.0
272.976715 820.0
275.072906 164.0
276.028748 480.0
277.093506 616.0
278.029846 180.0
278.099518 180.0
279.032867 412.0
280.039337 228.0
281.032166 216.0
281.090118 152.0
281.99231 700.0
282.038788 336.0
282.981934 644.0
283.042236 192.0
283.977783 180.0
284.9776 148.0
286.006653 152.0
286.976593 3288.0
287.969238 112.0
288.976624 816.0
291.804962 160.0
292.078796 164.0
293.067139 200.0
294.561951 148.0
295.053009 340.0
296.044434 340.0
298.245514 168.0
301.048492 492.0
302.972168 320.0
303.964172 140.0
305.037842 140.0
309.079926 156.0
310.10257 236.0
311.0224 904.0
312.026215 424.0
312.321594 168.0
313.957794 112.0
315.314972 168.0
315.972687 196.0
319.990265 180.0
320.98053 688.0
321.97876 152.0
322.979736 172.0
325.029968 164.0
329.678894 180.0
330.709625 144.0
331.977631 144.0
332.061035 184.0
332.162598 220.0
339.009766 180.0
340.048798 148.0
341.054688 3084.0
341.668121 196.0
341.866791 140.0
342.058563 432.0
343.056 152.0
343.956543 208.0
344.077576 148.0
344.996246 584.0
345.99527 144.0
349.028381 176.0
349.314758 144.0
356.019806 684.0
356.213745 136.0
357.049286 460.0
358.006622 128.0
358.05838 104.0
358.708679 140.0
358.902496 156.0
358.940216 176.0
359.013123 3272.0
359.845764 184.0
360.016388 892.0
361.013519 364.0
364.196899 192.0
364.413452 156.0
364.99884 196.0
370.006653 100.0
373.043274 112.0
376.015869 848.0
376.595703 140.0
376.989746 152.0
377.991302 144.0
379.823822 148.0
382.01651 160.0
383.589569 184.0
385.011993 192.0
387.007599 1788.0
388.004181 748.0
388.043793 184.0
389.004669 120.0
391.943604 172.0
393.256805 148.0
397.138245 172.0
402.042328 292.0
403.038116 164.0
404.013641 152.0
404.910248 200.0
404.953156 136.0
405.018341 12484.0
405.347717 240.0
405.715668 152.0
406.02182 2788.0
406.903168 156.0
407.017303 1544.0
408.01944 168.0
409.0177 232.0
416.94516 140.0
418.865601 164.0
421.15271 180.0
421.239777 132.0
421.405609 160.0
422.045563 37828.0
422.134033 264.0
422.198242 100.0
422.269684 168.0
422.383118 184.0
422.516754 120.0
422.984894 144.0
423.047577 6804.0
423.453705 108.0
423.833466 156.0
424.04483 2932.0
425.048035 384.0
425.734192 112.0
425.885712 132.0
1465.837524 180.0
1584.268433 164.0
1594.098877 152.0
1612.923828 188.0
1624.727417 184.0
1635.583984 148.0
1647.704346 140.0
1648.019409 168.0
1695.55957 144.0
1772.575684 180.0
1790.300659 152.0
1792.912231 144.0
1842.287231 180.0
1858.597168 188.0
1872.833618 152.0
1884.80896 156.0
1899.334961 176.0
1901.486816 192.0
1910.66272 168.0
1911.898315 140.0
1948.000488 140.0
1963.015503 180.0
1994.47168 208.0
