>compound MLS002153247-01!Meloxicam sodium salt hydrate
>formula C14H13N3O4S2
>ionization [M+H]+
>parentmass 352.04202434809054
#inchi InChI=1S/C14H13N3O4S2/c1-8-7-15-14(22-8)16-13(19)11-12(18)9-5-3-4-6-10(9)23(20,21)17(11)2/h3-7,18H,1-2H3,(H,15,16,19)/p-1
#inchikey ZRVUJXDFFKFLMG
#origInchi InChI=1S/C14H13N3O4S2.Na/c1-8-7-15-14(22-8)16-13(19)11-12(18)9-5-3-4-6-10(9)23(20,21)17(11)2;/h3-7,18H,1-2H3,(H,15,16,19);/q;+1/p-1
#Ion_Source LC-ESI
#Instrument qTof
#Compound_Source NIH Pharmacologically Active Library
#PI Dorrestein
#Data_Collector VP/LMS
#Scan -1
#Precursor_MZ 352.043
#ExactMass 351.034
#Charge 1
#CAS_Number N/A
#Pubmed_ID N/A
#Smiles CN1C(=C([O-])c2ccccc2S1(=O)=O)C(=O)Nc3ncc(C)s3.[Na+]
#INCHI_AUX N/A
#Library_Class 1
#SpectrumID CCMSLIB00000085709
#IonMode Positive
#UpdateWorkflowName UPDATE-SINGLE-ANNOTATED-GOLD
#LibraryQualityString Gold
#TaskID d252d724072548979f1f6f1ced849daf
##Scan# 2025
#SpectrumFile p4-E06_GE6_01_18378.mzXML
#LibraryName Pharm_Active_Library.mgf
#MQScore -1
#Organism Pharm_Active_Library
#TIC_Query 0
#RT_Query -1
#MZErrorPPM -1
#SharedPeaks 0
#MassDiff 0
#LibMZ -1
#SpecMZ 352.043
#SpecCharge 0
#internalFilename spec-00000.mgf

>collision 10
44.908356 172.0
44.941704 208.0
44.98394 336.0
45.007111 212.0
45.052979 152.0
45.067894 148.0
45.087261 204.0
45.155449 176.0
45.179527 152.0
45.192905 120.0
45.211639 148.0
45.233055 84.0
45.243763 124.0
45.283936 224.0
45.352272 180.0
45.399128 156.0
45.42334 156.0
45.446148 48.0
45.47567 68.0
45.664776 188.0
45.689331 208.0
45.716244 112.0
45.775475 188.0
45.795677 164.0
45.818577 104.0
45.835278 172.0
45.888664 184.0
45.910675 148.0
45.926422 156.0
45.953403 288.0
45.972294 112.0
45.98444 152.0
46.001457 224.0
46.020889 212.0
46.031693 116.0
46.043846 148.0
46.068913 244.0
46.099236 176.0
46.146545 180.0
46.192528 176.0
46.229061 72.0
46.2453 196.0
46.261543 228.0
46.285915 232.0
46.307583 132.0
46.327904 112.0
46.37262 180.0
46.417358 196.0
46.437702 128.0
46.506283 164.0
46.524548 204.0
46.543556 152.0
46.577507 96.0
46.588375 144.0
46.614193 124.0
46.637672 144.0
46.660404 112.0
46.676723 56.0
46.687603 168.0
46.710762 140.0
46.740654 168.0
46.758347 164.0
46.767876 188.0
46.789654 92.0
46.806725 224.0
46.829147 136.0
46.878193 160.0
46.893185 132.0
46.922028 176.0
46.934082 196.0
46.949081 180.0
46.96545 168.0
47.025486 100.0
47.048691 144.0
47.066998 108.0
47.081463 132.0
47.129272 192.0
47.151138 140.0
47.212662 140.0
47.222233 204.0
47.270119 120.0
47.359108 172.0
47.382397 68.0
47.446281 172.0
47.460522 96.0
47.483833 196.0
47.496178 104.0
47.505779 128.0
47.540085 188.0
47.554935 224.0
47.572285 148.0
47.60598 140.0
47.649933 160.0
47.666718 204.0
47.710403 168.0
47.720833 180.0
47.790176 176.0
47.828712 212.0
47.889263 184.0
47.927868 136.0
47.967838 204.0
48.002026 176.0
48.040924 108.0
48.051964 176.0
48.098114 196.0
48.155495 64.0
48.185932 124.0
48.210758 84.0
48.223709 404.0
48.239784 188.0
48.408947 160.0
48.511116 280.0
48.544392 116.0
48.55965 128.0
48.584618 80.0
48.604042 28.0
48.635651 160.0
48.660767 180.0
48.703064 132.0
48.733173 108.0
48.756798 180.0
48.796925 120.0
48.902836 152.0
48.940422 124.0
48.982204 312.0
49.010357 212.0
49.043514 136.0
49.055546 152.0
49.102074 236.0
49.111839 108.0
49.125896 152.0
49.148109 60.0
49.174625 180.0
49.212318 132.0
49.22628 196.0
49.245834 44.0
49.281815 196.0
49.289486 196.0
49.307308 156.0
49.326878 164.0
49.350643 184.0
49.366028 164.0
49.395596 200.0
49.479366 244.0
49.515903 172.0
49.531956 144.0
49.542389 136.0
49.565685 200.0
49.585068 200.0
49.642387 128.0
49.696609 168.0
49.731693 160.0
49.756962 172.0
49.773811 196.0
49.794876 156.0
49.808922 144.0
49.872677 140.0
49.888885 164.0
49.894604 132.0
49.95512 348.0
49.970596 88.0
50.008591 168.0
50.049416 104.0
50.067722 184.0
50.088852 208.0
50.097916 156.0
50.119846 164.0
50.138165 140.0
50.157898 188.0
50.218529 152.0
50.251652 192.0
50.280609 212.0
50.341061 228.0
50.411949 104.0
50.519409 256.0
50.534973 180.0
50.639729 172.0
50.675144 124.0
50.687897 168.0
50.724747 164.0
50.776844 140.0
50.794231 172.0
50.824024 148.0
50.882217 136.0
50.891552 152.0
50.906609 180.0
50.941864 112.0
50.958183 164.0
50.984047 192.0
50.998703 292.0
51.012917 144.0
51.055576 132.0
51.066952 36.0
51.086868 180.0
51.158073 112.0
51.193619 116.0
51.224953 140.0
51.253448 172.0
51.280525 216.0
51.337471 208.0
51.362568 200.0
51.408882 204.0
51.4203 112.0
51.434574 36.0
51.500256 148.0
51.527397 104.0
51.544544 148.0
51.588852 204.0
51.700935 128.0
51.716164 360.0
51.726181 140.0
51.776299 228.0
51.786324 132.0
51.806377 204.0
51.816406 128.0
51.830734 56.0
51.888065 120.0
51.932522 192.0
51.945431 164.0
51.971783 152.0
51.992783 172.0
52.070984 104.0
52.096199 160.0
52.107658 160.0
52.178741 148.0
52.215469 116.0
52.243725 168.0
52.284454 236.0
52.29892 272.0
52.321953 196.0
52.365154 292.0
52.421341 32.0
52.445839 176.0
52.474674 236.0
52.487648 204.0
52.502071 76.0
52.517937 80.0
52.575645 128.0
52.588638 76.0
52.623283 120.0
52.681053 176.0
52.721111 188.0
52.750221 176.0
52.772102 100.0
52.785179 184.0
52.798134 140.0
52.892181 152.0
52.91824 148.0
52.97617 152.0
53.000801 164.0
53.032684 128.0
53.071827 184.0
53.087776 120.0
53.132744 196.0
53.161366 204.0
53.184982 44.0
53.211113 188.0
53.250324 116.0
53.288094 32.0
53.317413 148.0
53.347679 48.0
53.360764 200.0
53.41021 108.0
53.427189 304.0
53.442261 128.0
53.461132 152.0
53.485874 204.0
53.49752 208.0
53.523727 172.0
53.54266 108.0
53.555767 224.0
53.568878 156.0
53.584904 120.0
53.624249 200.0
53.654861 196.0
53.692772 220.0
53.739452 152.0
53.765133 348.0
53.793453 116.0
53.806591 140.0
53.819733 184.0
53.84602 156.0
53.869389 208.0
53.918468 244.0
53.932102 48.0
53.936234 188.0
53.987782 156.0
53.999481 124.0
54.037518 32.0
54.052147 228.0
54.062393 176.0
54.131195 188.0
54.153164 144.0
54.207371 156.0
54.252808 252.0
54.340805 120.0
54.370152 208.0
54.437683 144.0
54.450901 160.0
54.486156 128.0
54.499252 188.0
54.554214 168.0
54.611107 200.0
54.701962 204.0
54.740387 76.0
54.773022 296.0
54.786278 28.0
54.834538 144.0
54.868809 140.0
54.883556 68.0
55.0047 140.0
55.0252 168.0
55.059746 152.0
55.095421 132.0
55.119732 84.0
55.175171 136.0
55.191048 228.0
55.218781 136.0
55.258724 176.0
55.269081 204.0
55.285358 132.0
55.31052 112.0
55.363819 144.0
55.430485 164.0
55.458641 124.0
55.478188 208.0
55.512779 140.0
55.575802 192.0
55.611416 104.0
55.625553 176.0
55.655952 176.0
55.687141 124.0
55.718334 180.0
55.748055 180.0
55.76886 216.0
55.813461 132.0
55.826435 204.0
55.840229 124.0
55.854404 204.0
55.85907 108.0
55.865475 276.0
55.867634 236.0
55.890808 72.0
55.914619 408.0
55.93248 204.0
55.947369 120.0
55.993526 200.0
56.008423 152.0
56.048649 124.0
56.070583 228.0
56.084415 168.0
56.135105 84.0
56.150021 100.0
56.193279 144.0
56.260441 176.0
56.273876 64.0
56.33511 148.0
56.348557 104.0
56.371998 180.0
56.42868 184.0
56.521999 156.0
56.613316 60.0
56.627251 184.0
56.688221 156.0
56.704704 144.0
56.745178 116.0
56.791668 120.0
56.81567 140.0
56.870029 160.0
56.92524 232.0
56.943264 156.0
57.00486 200.0
57.027401 164.0
57.066486 208.0
57.084259 132.0
57.152748 172.0
57.216248 112.0
57.245552 136.0
57.284714 284.0
57.301693 148.0
57.360058 164.0
57.388702 144.0
57.436962 76.0
57.454594 232.0
57.462105 168.0
57.496239 308.0
57.532032 172.0
57.599991 100.0
57.631714 32.0
57.698219 180.0
57.775349 440.0
57.810677 184.0
57.83588 184.0
57.866158 124.0
57.885841 112.0
57.932793 192.0
57.958549 144.0
58.004017 148.0
58.082436 196.0
58.108295 200.0
58.114368 152.0
58.120068 316.0
58.202766 168.0
58.298466 156.0
58.321266 196.0
58.368393 64.0
58.417736 136.0
58.465755 260.0
58.496922 168.0
58.503326 76.0
58.509094 144.0
58.523964 152.0
58.55101 148.0
58.566242 184.0
58.60128 144.0
58.613468 104.0
58.634804 116.0
58.648521 52.0
58.668339 144.0
58.810482 132.0
58.845318 144.0
58.859058 60.0
58.883492 140.0
58.904877 176.0
58.932377 164.0
59.050087 80.0
59.094452 172.0
59.115437 168.0
59.135769 144.0
59.159256 116.0
59.180134 208.0
59.219101 188.0
59.225113 80.0
59.230137 216.0
59.282795 144.0
59.299652 136.0
59.334911 112.0
59.368645 132.0
59.413128 172.0
59.476044 224.0
59.502876 176.0
59.57729 172.0
59.606987 232.0
59.643883 196.0
59.666534 152.0
59.688061 112.0
59.725258 172.0
59.854248 124.0
59.900452 212.0
59.945133 144.0
59.976738 160.0
59.994675 196.0
60.00679 188.0
60.028378 160.0
60.038643 140.0
60.056137 252.0
60.147175 140.0
60.161842 128.0
60.209156 140.0
60.221916 200.0
60.244114 124.0
60.303181 172.0
60.323277 148.0
60.343372 128.0
60.361927 104.0
60.403687 156.0
60.43927 144.0
60.459469 156.0
60.473316 140.0
60.493443 196.0
60.536793 208.0
60.546902 228.0
60.591007 64.0
60.643696 148.0
60.693954 172.0
60.744484 164.0
60.793629 320.0
60.797527 216.0
60.850014 144.0
60.863991 204.0
60.933884 216.0
61.00071 140.0
61.060158 156.0
61.073795 124.0
61.094017 132.0
61.134472 220.0
61.16716 96.0
61.19622 216.0
61.212311 112.0
61.227882 148.0
61.246574 144.0
61.26215 108.0
61.308895 36.0
61.322922 192.0
61.349422 88.0
61.36657 204.0
61.407116 124.0
61.461716 104.0
61.488247 180.0
61.544445 132.0
61.556938 104.0
61.585049 212.0
61.617855 208.0
61.631508 184.0
61.663593 164.0
61.697563 136.0
61.721016 28.0
61.753857 116.0
61.804771 120.0
61.960976 180.0
62.005489 212.0
62.08812 360.0
62.189438 124.0
62.205135 204.0
62.277367 152.0
62.335495 232.0
62.357498 156.0
62.371643 168.0
62.423527 172.0
62.502182 224.0
62.52253 172.0
62.567959 176.0
62.6171 112.0
62.697266 136.0
62.707405 216.0
62.725822 164.0
62.762978 268.0
62.768681 152.0
62.792046 148.0
62.817661 168.0
62.837791 128.0
62.884804 228.0
62.908813 176.0
62.926178 140.0
62.973553 196.0
63.08086 132.0
63.096813 152.0
63.141087 184.0
63.152161 36.0
63.222191 228.0
63.262928 172.0
63.275978 196.0
63.456211 248.0
63.499027 120.0
63.552727 188.0
63.57518 152.0
63.619621 168.0
63.697433 256.0
63.743275 188.0
63.765759 52.0
63.781654 156.0
63.799141 136.0
63.824581 200.0
63.885017 148.0
63.912064 100.0
63.966175 184.0
64.083862 152.0
64.10479 128.0
64.142998 188.0
64.17543 344.0
64.19561 172.0
64.225914 296.0
64.267395 152.0
64.278015 116.0
64.307289 136.0
64.321655 72.0
64.35997 164.0
64.386803 204.0
64.457413 168.0
64.575714 136.0
64.601303 184.0
64.618904 124.0
64.729347 152.0
64.772591 256.0
64.908455 176.0
64.923256 140.0
64.970634 148.0
65.003464 176.0
65.040382 140.0
65.066063 108.0
65.122269 148.0
65.159286 172.0
65.186531 116.0
65.19928 180.0
65.231537 204.0
65.294243 184.0
65.308716 176.0
65.35376 228.0
65.419754 216.0
65.44873 204.0
65.629196 128.0
65.646935 140.0
65.69371 180.0
65.73082 148.0
65.798615 168.0
65.893791 60.0
65.910057 212.0
65.926216 224.0
66.079834 240.0
66.099251 96.0
66.118668 140.0
66.129997 168.0
66.170471 100.0
66.186661 168.0
66.215813 112.0
66.249825 212.0
66.260361 144.0
66.314644 128.0
66.331055 380.0
66.343819 208.0
66.413628 168.0
66.428146 168.0
66.462219 152.0
66.519028 260.0
66.541756 188.0
66.5653 240.0
66.580727 200.0
66.614838 112.0
66.684708 160.0
66.749733 108.0
66.793648 224.0
66.811539 108.0
66.832695 136.0
66.865242 68.0
66.891281 240.0
66.907562 128.0
66.920586 136.0
66.982475 184.0
67.00528 184.0
67.023689 156.0
67.087021 236.0
67.111221 40.0
67.309105 132.0
67.335854 300.0
67.378891 128.0
67.416473 160.0
67.467148 168.0
67.490036 120.0
67.519623 132.0
67.550552 108.0
67.585785 232.0
67.629097 164.0
67.648735 64.0
67.665108 180.0
67.684753 80.0
67.712593 116.0
67.7257 108.0
67.737167 212.0
67.802704 112.0
67.904358 164.0
67.955208 200.0
68.03727 84.0
68.111168 208.0
68.125954 168.0
68.186752 188.0
68.25415 108.0
68.286186 156.0
68.366013 132.0
68.393997 156.0
68.420334 240.0
68.441734 200.0
68.457298 160.0
68.524094 232.0
68.558693 132.0
68.585068 208.0
68.6325 164.0
68.659187 180.0
68.680702 112.0
68.715347 180.0
68.739212 200.0
68.766014 228.0
68.787964 156.0
68.809425 140.0
68.839142 128.0
68.854012 172.0
68.981239 92.0
68.992805 108.0
69.00769 228.0
69.021797 244.0
69.106926 192.0
69.126785 212.0
69.19796 148.0
69.236046 184.0
69.284081 176.0
69.317223 192.0
69.353683 136.0
69.368599 252.0
69.381691 196.0
69.403419 204.0
69.428291 156.0
69.444878 140.0
69.469757 104.0
69.61084 72.0
69.673958 64.0
69.71434 144.0
69.773674 112.0
69.826881 152.0
69.886772 180.0
69.923386 220.0
69.978317 200.0
70.009956 192.0
70.139702 188.0
70.238297 88.0
70.323395 136.0
70.393517 120.0
70.44529 172.0
70.46701 196.0
70.533859 144.0
70.557259 136.0
70.649246 140.0
70.720055 196.0
70.73011 124.0
70.814964 184.0
70.83506 116.0
70.848465 236.0
70.959076 180.0
70.975189 188.0
70.995964 188.0
71.017769 116.0
71.02951 156.0
71.046288 260.0
71.13121 232.0
71.167976 176.0
71.189461 200.0
71.214149 152.0
71.358673 156.0
71.400711 124.0
71.434349 156.0
71.457909 108.0
71.530273 104.0
71.542862 148.0
71.582466 76.0
71.611092 172.0
71.653206 252.0
71.713875 96.0
71.759392 180.0
71.870712 308.0
71.933006 176.0
71.938629 232.0
71.958481 132.0
72.075027 116.0
72.098686 160.0
72.162918 116.0
72.176445 200.0
72.284706 116.0
72.301628 148.0
72.347176 172.0
72.382889 144.0
72.455894 196.0
72.476051 124.0
72.51503 120.0
72.550629 144.0
72.611671 248.0
72.623543 104.0
72.645592 144.0
72.665955 148.0
72.71347 196.0
72.73893 152.0
72.786469 204.0
72.822449 192.0
72.878189 236.0
72.898582 172.0
72.922379 96.0
72.961472 124.0
73.003983 196.0
73.097542 48.0
73.12307 260.0
73.152008 164.0
73.167328 132.0
73.209152 192.0
73.300186 116.0
73.337677 172.0
73.375183 124.0
73.426338 188.0
73.458176 84.0
73.484337 120.0
73.530411 180.0
73.57309 128.0
73.617477 68.0
73.709007 180.0
73.752457 184.0
73.798615 180.0
73.85334 164.0
73.902946 228.0
73.925194 120.0
73.973114 32.0
73.988525 172.0
74.091286 152.0
74.134117 240.0
74.149544 136.0
74.161545 128.0
74.236977 172.0
74.25927 156.0
74.317596 176.0
74.354584 200.0
74.369087 192.0
74.386246 128.0
74.513336 60.0
74.570038 160.0
74.695564 92.0
74.717926 212.0
74.743736 220.0
74.799889 228.0
74.840126 136.0
74.855629 88.0
74.910744 128.0
74.953659 88.0
74.988281 128.0
75.013077 208.0
75.03138 144.0
75.045166 196.0
75.071037 136.0
75.097061 176.0
75.124504 228.0
75.177994 32.0
75.22805 148.0
75.328209 136.0
75.357574 124.0
75.39045 160.0
75.506241 204.0
75.527245 168.0
75.540833 156.0
75.571976 192.0
75.622162 128.0
75.650558 208.0
75.674095 152.0
75.696602 136.0
75.757225 156.0
75.861206 172.0
75.89241 148.0
75.907768 228.0
75.928825 152.0
75.982605 208.0
76.010452 156.0
76.045074 140.0
76.064163 144.0
76.139526 168.0
76.174881 148.0
76.189201 136.0
76.232635 148.0
76.248283 200.0
76.416954 208.0
76.441315 140.0
76.510696 144.0
76.598015 192.0
76.671196 164.0
76.688622 128.0
76.747894 60.0
76.79847 148.0
76.845573 160.0
76.864761 104.0
76.906647 236.0
76.941566 104.0
76.982903 240.0
77.027138 172.0
77.05159 104.0
77.068817 200.0
77.123238 332.0
77.137222 148.0
77.182678 104.0
77.257889 432.0
77.277901 160.0
77.303383 232.0
77.343231 260.0
77.399658 160.0
77.410797 148.0
77.424179 204.0
77.462708 124.0
77.518776 176.0
77.55909 144.0
77.620445 96.0
77.650177 168.0
77.669685 228.0
77.685341 132.0
77.702888 176.0
77.737984 148.0
77.784676 176.0
77.818726 148.0
77.839798 212.0
77.855598 32.0
77.930794 164.0
77.961006 140.0
77.97683 196.0
77.9944 144.0
78.020775 172.0
78.079727 160.0
78.238922 152.0
78.302315 216.0
78.326035 200.0
78.367493 184.0
78.399216 152.0
78.432701 204.0
78.547737 152.0
78.566719 176.0
78.656723 164.0
78.705048 172.0
78.720284 336.0
78.748543 144.0
78.77327 176.0
78.796234 80.0
78.863388 164.0
78.898743 164.0
78.926781 176.0
78.931503 144.0
78.958862 184.0
78.985397 172.0
79.033165 96.0
79.073868 132.0
79.08625 220.0
79.102188 180.0
79.116348 116.0
79.151756 252.0
79.18718 172.0
79.230659 164.0
79.275757 124.0
79.295258 168.0
79.360443 176.0
79.370171 184.0
79.383896 184.0
79.409981 136.0
79.442429 156.0
79.463722 192.0
79.499207 168.0
79.530853 212.0
79.622536 248.0
79.66906 176.0
79.718552 132.0
79.814827 196.0
79.850517 92.0
79.92569 72.0
79.941704 176.0
79.963066 132.0
79.986206 220.0
80.052078 148.0
80.079636 236.0
80.103729 172.0
80.344398 200.0
80.394356 204.0
80.447906 180.0
80.487183 120.0
80.60508 308.0
80.633675 164.0
80.667633 140.0
80.703392 164.0
80.721619 144.0
80.762405 124.0
80.780296 92.0
80.799538 232.0
80.862602 216.0
80.898399 88.0
80.936005 176.0
80.964653 136.0
81.032722 108.0
81.066765 140.0
81.208405 184.0
81.242485 136.0
81.307083 56.0
81.341187 180.0
81.38456 256.0
81.465096 156.0
81.504616 136.0
81.517197 276.0
81.562126 120.0
81.59269 52.0
81.612465 208.0
81.673615 176.0
81.686203 120.0
81.792374 196.0
81.817177 108.0
81.893463 200.0
81.911217 208.0
81.954239 196.0
81.991714 172.0
82.013931 196.0
82.062607 156.0
82.091454 176.0
82.197884 164.0
82.215935 140.0
82.257446 200.0
82.273697 164.0
82.300774 128.0
82.317024 120.0
82.342308 212.0
82.409241 156.0
82.434448 184.0
82.45742 276.0
82.537811 132.0
82.651184 196.0
82.656441 168.0
82.673157 196.0
82.691254 140.0
82.709267 156.0
82.743752 96.0
82.766869 172.0
82.827057 152.0
82.843361 164.0
82.882248 172.0
82.894814 100.0
82.912216 140.0
82.98291 112.0
83.024612 56.0
83.05545 184.0
83.097176 188.0
83.148628 204.0
83.193359 164.0
83.210602 156.0
83.309586 152.0
83.387314 196.0
83.493172 132.0
83.549561 108.0
83.58049 124.0
83.698807 232.0
83.717018 132.0
83.729767 236.0
83.753448 116.0
83.886467 188.0
83.930229 188.0
83.977638 184.0
84.008652 140.0
84.054848 220.0
84.070572 184.0
84.178398 88.0
84.202438 160.0
84.225883 148.0
84.315933 140.0
84.375732 144.0
84.423271 72.0
84.494606 108.0
84.533035 120.0
84.61174 88.0
84.772926 80.0
84.813248 152.0
84.835251 168.0
84.853584 172.0
84.868248 200.0
84.89209 180.0
84.936104 52.0
84.980133 92.0
85.038857 224.0
85.075569 144.0
85.106781 116.0
85.202293 172.0
85.226173 164.0
85.270279 208.0
85.356682 124.0
85.406296 164.0
85.437614 220.0
85.457848 216.0
85.509377 180.0
85.54435 132.0
85.608795 140.0
85.643784 188.0
85.721169 172.0
85.761711 120.0
85.777969 268.0
85.811485 76.0
85.92215 128.0
86.00753 164.0
86.067955 132.0
86.099106 212.0
86.152916 192.0
86.204651 116.0
86.289841 168.0
86.313316 184.0
86.320366 208.0
86.389549 132.0
86.463791 160.0
86.483925 220.0
86.554276 136.0
86.607681 196.0
86.630211 172.0
86.663132 156.0
86.728424 32.0
86.745102 176.0
86.771057 132.0
86.818405 192.0
86.861717 208.0
86.864227 184.0
86.90274 148.0
86.981277 164.0
87.002968 148.0
87.047699 172.0
87.073524 204.0
87.102791 180.0
87.127396 208.0
87.177567 168.0
87.266792 124.0
87.326302 160.0
87.361641 124.0
87.396988 144.0
87.423042 220.0
87.447235 136.0
87.516113 156.0
87.609238 128.0
87.668861 180.0
87.721054 100.0
87.745285 140.0
87.848404 152.0
87.898239 160.0
87.926231 112.0
87.993332 152.0
88.000221 144.0
88.022575 712.0
88.152199 112.0
88.181938 212.0
88.251266 164.0
88.277451 160.0
88.322334 236.0
88.351807 164.0
88.390778 224.0
88.405716 184.0
88.428986 156.0
88.445831 152.0
88.546005 112.0
88.573906 252.0
88.591896 124.0
88.619194 112.0
88.659348 184.0
88.681839 152.0
88.696983 204.0
88.751205 176.0
88.843109 136.0
88.938812 172.0
88.959457 104.0
89.032684 168.0
89.045837 116.0
89.098434 176.0
89.119095 164.0
89.132248 164.0
89.218712 44.0
89.254059 160.0
89.331543 336.0
89.491798 160.0
89.514114 148.0
89.662941 168.0
89.687447 52.0
89.706291 184.0
89.72551 164.0
89.8554 124.0
89.938316 84.0
89.980782 196.0
90.018463 388.0
90.074272 172.0
90.09127 40.0
90.108429 200.0
90.131409 132.0
90.229233 180.0
90.253815 172.0
90.278397 144.0
90.338921 184.0
90.367302 192.0
90.388115 128.0
90.41082 92.0
90.437981 172.0
90.497902 228.0
90.698593 188.0
90.740417 164.0
90.765068 200.0
90.861801 152.0
90.933296 148.0
91.053909 548.0
91.083763 204.0
91.110802 128.0
91.188416 176.0
91.30249 88.0
91.456657 136.0
91.541245 272.0
91.565132 112.0
91.594528 240.0
91.643234 172.0
91.687065 152.0
91.746155 132.0
91.763313 108.0
91.786194 172.0
91.831963 196.0
91.858665 252.0
91.90255 176.0
91.965523 164.0
91.986519 216.0
92.029137 280.0
92.045708 148.0
92.156494 76.0
92.190895 52.0
92.208092 116.0
92.297943 184.0
92.315155 172.0
92.328537 148.0
92.347664 136.0
92.378273 188.0
92.452888 120.0
92.485428 124.0
92.598396 88.0
92.621376 144.0
92.694183 144.0
92.721016 188.0
92.734428 156.0
92.75502 172.0
92.824532 140.0
92.841797 132.0
92.859055 96.0
93.012558 112.0
93.031754 124.0
93.14431 124.0
93.162338 124.0
93.181915 148.0
93.196922 168.0
93.254578 64.0
93.283875 164.0
93.360321 196.0
93.478104 124.0
93.533478 224.0
93.571983 152.0
93.585701 160.0
93.635529 248.0
93.712585 188.0
93.814728 108.0
93.830154 120.0
93.843651 208.0
93.869629 220.0
93.882713 140.0
93.903427 88.0
93.930435 164.0
93.960121 124.0
93.982521 188.0
94.004768 240.0
94.057793 112.0
94.092537 132.0
94.119568 88.0
94.166122 188.0
94.196823 156.0
94.216141 416.0
94.258652 312.0
94.277977 152.0
94.332092 172.0
94.360535 196.0
94.399765 188.0
94.421036 140.0
94.457787 108.0
94.481003 188.0
94.554047 208.0
94.616478 288.0
94.632942 164.0
94.662949 104.0
94.752045 180.0
94.775299 172.0
94.812119 128.0
94.917671 196.0
94.963341 28.0
95.025421 252.0
95.06617 128.0
95.115318 148.0
95.129402 152.0
95.157402 188.0
95.185265 228.0
95.254501 156.0
95.305016 144.0
95.326393 440.0
95.386642 164.0
95.479973 144.0
95.521774 140.0
95.679131 148.0
95.695969 156.0
95.816727 96.0
95.836212 136.0
95.87323 212.0
95.896622 220.0
95.935608 216.0
96.009705 204.0
96.124802 144.0
96.174026 196.0
96.206314 136.0
96.24778 380.0
96.273163 200.0
96.298553 148.0
96.313614 168.0
96.353249 216.0
96.368881 184.0
96.470505 156.0
96.497879 204.0
96.5233 140.0
96.606331 168.0
96.68145 156.0
96.747757 144.0
96.830544 208.0
97.008369 952.0
97.036301 136.0
97.050026 80.0
97.10437 124.0
97.163788 228.0
97.179482 176.0
97.227692 148.0
97.29528 184.0
97.32473 208.0
97.373825 156.0
97.40918 136.0
97.483841 148.0
97.542801 212.0
97.574257 140.0
97.694221 124.0
97.709961 160.0
97.760979 160.0
97.855606 168.0
97.875298 200.0
97.910744 176.0
97.970772 204.0
98.014038 416.0
98.082161 36.0
98.160362 96.0
98.186661 132.0
98.218216 176.0
98.232025 116.0
98.266792 360.0
98.281189 148.0
98.287155 136.0
98.306999 124.0
98.34845 192.0
98.376083 192.0
98.3899 172.0
98.407669 140.0
98.510536 188.0
98.543953 184.0
98.597313 132.0
98.644745 180.0
98.660561 164.0
98.696152 136.0
98.713951 124.0
98.731743 156.0
98.759438 148.0
98.828674 160.0
98.842529 156.0
98.864441 160.0
98.890022 184.0
98.91774 164.0
99.018723 184.0
99.088051 56.0
99.103905 72.0
99.123718 140.0
99.152466 140.0
99.167313 216.0
99.183174 104.0
99.212906 136.0
99.226784 212.0
99.256531 172.0
99.369591 148.0
99.530365 228.0
99.576035 132.0
99.625694 144.0
99.766571 180.0
99.779839 200.0
99.787109 256.0
99.852615 176.0
99.906006 116.0
99.929878 152.0
99.95575 224.0
99.984367 188.0
100.009178 132.0
100.022163 444.0
100.111023 132.0
100.126953 120.0
100.170776 132.0
100.320229 72.0
100.346092 132.0
100.384033 140.0
100.397995 152.0
100.479546 136.0
100.567581 180.0
100.581558 84.0
100.595528 204.0
100.64344 84.0
100.667404 208.0
100.731476 100.0
100.765282 148.0
100.834549 164.0
100.879555 200.0
100.929909 164.0
100.945175 48.0
100.984268 160.0
101.023178 116.0
101.040321 240.0
101.138199 92.0
101.225441 148.0
101.367447 144.0
101.409645 48.0
101.481819 92.0
101.612488 188.0
101.630241 44.0
101.646294 220.0
101.662346 152.0
101.682419 184.0
101.700485 160.0
101.734612 144.0
101.756691 160.0
101.794846 164.0
101.816933 184.0
101.85405 184.0
101.931442 144.0
101.959579 212.0
102.011833 124.0
102.102318 160.0
102.208939 168.0
102.247169 80.0
102.26931 96.0
102.295479 100.0
102.316872 236.0
102.320724 148.0
102.353867 208.0
102.416862 172.0
102.453873 172.0
102.513191 188.0
102.611778 216.0
102.637985 180.0
102.690422 180.0
102.710594 124.0
102.738831 152.0
102.79129 168.0
102.807434 180.0
102.829636 172.0
102.959869 300.0
103.026505 260.0
103.049751 208.0
103.071976 156.0
103.086121 84.0
103.152817 116.0
103.175056 112.0
103.20134 152.0
103.330788 220.0
103.377327 200.0
103.454239 44.0
103.470436 176.0
103.486633 176.0
103.510933 136.0
103.547386 144.0
103.585869 136.0
103.657784 188.0
103.674026 196.0
103.786514 184.0
103.891975 180.0
103.922409 132.0
103.95488 172.0
103.971573 124.0
104.025963 184.0
104.045792 324.0
104.081413 36.0
104.098839 192.0
104.155876 176.0
104.192444 120.0
104.251373 200.0
104.326324 164.0
104.36927 276.0
104.405457 156.0
104.497414 132.0
104.639404 152.0
104.644867 116.0
104.652977 204.0
104.694862 84.0
104.778381 136.0
104.821167 160.0
104.853775 168.0
104.945503 364.0
104.976097 48.0
105.002609 176.0
105.034668 996.0
105.127052 208.0
105.145424 176.0
105.267914 192.0
105.294456 168.0
105.388428 216.0
105.48513 356.0
105.56765 172.0
105.590813 208.0
105.627625 200.0
105.657143 168.0
105.675133 200.0
105.812325 176.0
105.997978 184.0
106.034996 180.0
106.098015 224.0
106.155998 168.0
106.211426 148.0
106.32222 44.0
106.375587 104.0
106.39196 176.0
106.394775 172.0
106.40612 236.0
106.455658 124.0
106.486465 160.0
106.533707 136.0
106.563919 216.0
106.570312 152.0
106.577248 188.0
106.627243 164.0
106.683449 204.0
106.798882 112.0
106.837967 156.0
106.854424 40.0
106.901756 220.0
106.991928 148.0
107.009872 160.0
107.047913 168.0
107.082901 172.0
107.101463 144.0
107.138542 116.0
107.179749 100.0
107.217598 152.0
107.23951 172.0
107.34053 164.0
107.374275 132.0
107.391174 144.0
107.468018 184.0
107.505226 148.0
107.604645 156.0
107.720291 148.0
107.740952 148.0
107.775917 156.0
107.800873 152.0
107.838699 264.0
107.860809 204.0
107.903206 252.0
107.941444 176.0
108.008095 140.0
108.032448 184.0
108.069878 172.0
108.09404 172.0
108.201157 216.0
108.224922 184.0
108.297409 188.0
108.311745 152.0
108.355415 156.0
108.400993 216.0
108.463173 172.0
108.488052 140.0
108.54818 228.0
108.589653 168.0
108.631142 128.0
108.64566 68.0
108.660187 40.0
108.683006 152.0
108.736961 104.0
108.869835 176.0
108.896835 128.0
108.923836 140.0
108.96331 276.0
108.979927 52.0
109.01033 3008.0
109.043236 172.0
109.137161 204.0
109.144829 132.0
109.237724 156.0
109.264771 264.0
109.327194 180.0
109.35009 132.0
109.366737 108.0
109.39743 124.0
109.429192 104.0
109.484245 164.0
109.585403 248.0
109.616661 164.0
109.631248 224.0
109.722961 152.0
109.745895 116.0
109.798027 108.0
109.833488 312.0
109.87104 52.0
109.958679 160.0
110.010864 136.0
110.037956 176.0
110.113174 148.0
110.280617 200.0
110.316895 148.0
110.359764 144.0
110.378586 144.0
110.41832 204.0
110.49939 164.0
110.533379 144.0
110.59407 48.0
110.660316 180.0
110.715508 116.0
110.753204 112.0
110.780441 200.0
110.839104 264.0
110.872635 156.0
110.912453 156.0
110.945992 144.0
111.002693 308.0
111.021912 296.0
111.046646 172.0
111.178825 196.0
111.203499 232.0
111.218704 160.0
111.294144 128.0
111.336281 160.0
111.403488 164.0
111.451813 56.0
111.479134 132.0
111.546387 88.0
111.598946 144.0
111.634697 156.0
111.692375 228.0
111.73632 192.0
111.753723 348.0
111.786156 52.0
111.818199 160.0
111.857719 168.0
111.937729 200.0
111.988983 308.0
112.011436 356.0
112.10836 116.0
112.144188 156.0
112.433136 192.0
112.526016 88.0
112.671745 88.0
112.745628 124.0
112.779518 128.0
112.859848 132.0
112.946556 184.0
112.961365 164.0
112.976173 200.0
113.015625 2064.0
113.081497 184.0
113.145485 76.0
113.256821 180.0
113.283379 176.0
113.366463 172.0
113.391289 100.0
113.471245 232.0
113.501442 152.0
113.524765 120.0
113.55658 156.0
113.637192 192.0
113.688118 128.0
113.739052 136.0
113.799911 60.0
113.835869 180.0
113.852997 168.0
113.861076 212.0
113.883438 184.0
113.904686 172.0
113.963211 160.0
113.999908 5776.0
114.022469 252.0
114.049171 164.0
114.074684 184.0
114.183281 164.0
114.215027 136.0
114.235191 152.0
114.256302 200.0
114.278854 188.0
114.31456 164.0
114.346947 244.0
114.361847 136.0
114.389519 148.0
114.417191 168.0
114.435158 164.0
114.459778 172.0
114.478943 184.0
114.534317 88.0
114.581329 180.0
114.607849 256.0
114.634453 132.0
114.686981 160.0
114.733551 252.0
114.746109 292.0
114.768745 228.0
114.794334 288.0
114.832016 152.0
114.853645 168.0
114.896606 148.0
114.915062 244.0
114.938049 692.0
114.950935 460.0
114.988449 272.0
115.033165 165540.0
115.078133 36.0
115.110832 348.0
115.14521 96.0
115.159203 116.0
115.180504 124.0
115.232689 316.0
115.286453 48.0
115.310837 288.0
115.361687 256.0
115.383842 3592.0
115.41217 304.0
115.429108 192.0
115.455681 296.0
115.481491 64.0
115.501274 68.0
115.515335 64.0
115.530403 140.0
115.552361 120.0
115.56974 104.0
115.604568 416.0
115.638756 64.0
115.655495 164.0
115.695297 84.0
115.737473 44.0
115.782677 76.0
115.818245 100.0
115.834206 68.0
115.872208 116.0
115.911858 160.0
115.938057 64.0
115.953056 52.0
115.972351 120.0
115.996681 468.0
116.034309 11524.0
116.065575 132.0
116.080795 48.0
116.084381 84.0
116.098846 144.0
116.134468 72.0
116.161301 68.0
116.181351 172.0
116.207039 64.0
116.238899 112.0
116.245583 100.0
116.288345 184.0
116.342072 116.0
116.361588 108.0
116.37793 72.0
116.412163 56.0
116.480896 76.0
116.531746 204.0
116.567421 192.0
116.607132 112.0
116.619659 96.0
116.655464 84.0
116.677505 220.0
116.692497 84.0
116.710754 84.0
116.735451 64.0
116.752289 120.0
116.757904 80.0
116.767326 128.0
116.795464 112.0
116.818878 140.0
116.863022 260.0
116.880623 212.0
116.888016 100.0
116.904121 256.0
116.930328 224.0
116.937035 296.0
116.971611 132.0
116.993172 92.0
117.027283 10240.0
117.059647 412.0
117.104973 88.0
117.12825 136.0
117.173264 224.0
117.201622 92.0
117.255493 336.0
117.296181 32.0
117.315849 116.0
117.376221 84.0
117.41288 40.0
117.460365 192.0
117.490532 84.0
117.50779 188.0
117.533684 92.0
117.626488 156.0
117.654549 80.0
117.682053 168.0
117.704216 148.0
117.747406 72.0
117.771164 84.0
117.818687 152.0
117.842453 192.0
117.874863 136.0
117.900795 36.0
117.969963 164.0
118.006714 68.0
118.031715 428.0
118.06398 524.0
118.097687 60.0
118.117012 36.0
118.142967 84.0
118.330002 124.0
118.374565 204.0
118.466743 236.0
118.697441 36.0
118.75383 60.0
118.779861 68.0
118.816734 184.0
118.847115 92.0
118.940437 120.0
118.96431 180.0
119.014244 116.0
119.061844 144.0
119.096771 52.0
119.111977 56.0
119.188019 164.0
119.211922 32.0
119.309731 188.0
119.36409 52.0
119.440933 136.0
119.47937 156.0
119.62735 120.0
119.677429 184.0
119.814644 128.0
119.880081 124.0
119.926323 208.0
119.951935 32.0
119.971558 112.0
120.016922 296.0
120.249382 76.0
120.399223 72.0
120.488785 116.0
120.605598 140.0
120.713921 236.0
120.768593 172.0
120.834221 128.0
120.934883 76.0
120.958961 164.0
120.987419 132.0
121.007858 124.0
121.027924 296.0
121.08596 68.0
121.134148 192.0
121.186729 60.0
121.359879 132.0
121.381813 112.0
121.401543 156.0
121.445412 92.0
121.491478 124.0
121.557297 172.0
121.579247 140.0
121.801193 184.0
121.877541 100.0
121.899872 152.0
121.959206 64.0
122.013969 172.0
122.021736 144.0
122.030907 372.0
122.099922 176.0
122.119972 140.0
122.229721 52.0
122.27153 148.0
122.403618 56.0
122.469688 168.0
122.502731 88.0
122.590912 172.0
122.644707 176.0
122.780457 176.0
122.890755 124.0
122.921646 120.0
122.961365 148.0
122.9869 120.0
123.029793 104.0
123.182175 164.0
123.202057 72.0
123.228569 236.0
123.345695 172.0
123.389908 88.0
123.520386 168.0
123.546242 116.0
123.566154 256.0
123.715584 268.0
123.770477 28.0
123.850204 136.0
123.901154 136.0
123.9366 108.0
123.952118 164.0
124.080673 148.0
124.273628 44.0
124.309135 128.0
124.375717 96.0
124.533363 128.0
124.548912 72.0
124.793373 200.0
124.836777 100.0
124.973534 200.0
125.008873 700.0
125.160507 156.0
125.191681 180.0
125.216179 200.0
125.343163 344.0
125.369904 100.0
125.402222 148.0
125.436775 228.0
125.498077 96.0
125.521492 120.0
125.539337 184.0
125.563866 112.0
125.587166 116.0
125.606247 40.0
125.699951 148.0
125.715569 112.0
125.74765 180.0
125.903099 60.0
125.987976 32.0
126.01062 148.0
126.200302 48.0
126.309639 108.0
126.432945 40.0
126.450851 68.0
126.629059 188.0
126.67028 116.0
126.760521 188.0
126.804726 128.0
126.93251 132.0
126.950447 144.0
127.03228 2244.0
127.352188 44.0
127.44429 184.0
127.536438 68.0
127.567902 56.0
127.654427 124.0
127.70507 176.0
127.736565 68.0
127.817558 176.0
127.854553 136.0
127.880569 148.0
128.046127 344.0
128.139542 176.0
128.319839 212.0
128.349152 136.0
128.44487 128.0
128.520584 84.0
128.595062 72.0
128.771164 136.0
128.820862 148.0
128.913498 72.0
128.963226 156.0
129.027069 164.0
129.103394 116.0
129.119232 124.0
129.193863 196.0
129.266281 208.0
129.291473 180.0
129.547028 208.0
129.669388 136.0
129.848129 196.0
129.887054 132.0
130.027008 224.0
130.067871 228.0
130.222992 176.0
130.409302 80.0
130.491806 152.0
130.673096 148.0
130.841522 84.0
130.923584 188.0
130.958191 216.0
130.989548 144.0
131.055618 148.0
131.105743 100.0
131.206039 260.0
131.222 108.0
131.243149 204.0
131.363388 172.0
131.495743 184.0
131.57106 144.0
131.621292 84.0
131.710373 176.0
131.792618 156.0
131.920593 60.0
132.005203 112.0
132.044067 400.0
132.069229 184.0
132.190491 176.0
132.282043 144.0
132.341568 100.0
132.36676 180.0
132.472107 204.0
132.5271 164.0
132.820541 112.0
132.955917 188.0
133.004517 224.0
133.030151 116.0
133.049606 180.0
133.065262 144.0
133.116608 216.0
133.151062 88.0
133.174026 40.0
133.580887 196.0
133.599289 144.0
133.718948 176.0
133.776489 84.0
134.007965 196.0
134.031509 160.0
134.057495 180.0
134.170425 148.0
134.203232 196.0
134.264969 196.0
134.375702 168.0
134.405685 64.0
134.581116 192.0
134.604202 116.0
134.964676 160.0
135.006302 108.0
135.140472 104.0
135.283966 84.0
135.318695 156.0
135.710251 196.0
135.74968 236.0
135.786789 128.0
135.812759 144.0
135.858688 144.0
135.999863 612.0
136.021576 416.0
136.104721 100.0
136.253357 240.0
136.278915 40.0
136.313782 80.0
136.367233 112.0
136.436966 200.0
136.569519 152.0
136.604401 104.0
136.778931 176.0
136.804535 104.0
136.911652 132.0
137.004715 3704.0
137.086365 132.0
137.219223 96.0
137.291519 40.0
137.494492 104.0
137.615875 92.0
137.641556 132.0
137.767685 236.0
137.846237 116.0
137.943542 140.0
138.00621 128.0
138.031799 44.0
138.151077 116.0
138.169785 176.0
138.312546 148.0
138.357025 136.0
138.572495 128.0
138.598267 144.0
138.668564 84.0
138.734207 80.0
138.75296 164.0
138.804535 148.0
138.896011 132.0
138.935883 220.0
138.9617 108.0
139.000565 340.0
139.034439 312.0
139.074341 112.0
139.224594 128.0
139.243393 28.0
139.338974 196.0
139.36319 268.0
139.400787 76.0
139.647644 168.0
139.700424 164.0
139.763931 164.0
140.014801 236.0
140.086884 240.0
140.250412 204.0
140.311707 116.0
140.504288 152.0
140.547134 372.0
140.612366 208.0
140.641968 148.0
140.686829 176.0
140.719635 168.0
140.741394 172.0
140.78363 268.0
140.804886 168.0
140.821426 272.0
140.853271 148.0
140.894653 348.0
140.92662 180.0
140.965485 224.0
141.011856 141176.0
141.087769 92.0
141.109726 116.0
141.169495 124.0
141.197952 316.0
141.229294 212.0
141.246338 96.0
141.275269 84.0
141.298935 48.0
141.315491 168.0
141.330826 116.0
141.36438 272.0
141.400513 1376.0
141.433197 116.0
141.471985 152.0
141.510223 64.0
141.564331 284.0
141.586227 88.0
141.603104 104.0
141.655121 104.0
141.707596 152.0
141.781799 52.0
141.81424 196.0
141.860199 44.0
141.886276 40.0
141.952667 128.0
141.968231 96.0
142.013931 9784.0
142.04277 188.0
142.092621 52.0
142.127197 96.0
142.195908 68.0
142.243835 216.0
142.270615 76.0
142.330795 80.0
142.382217 64.0
142.432098 56.0
142.500427 120.0
142.56752 56.0
142.607925 252.0
142.636444 32.0
142.655304 56.0
142.664246 52.0
142.747925 108.0
142.763489 112.0
142.773758 96.0
142.780518 88.0
142.818924 108.0
142.847229 100.0
142.869492 44.0
142.890915 164.0
142.909302 104.0
142.93396 116.0
142.962296 160.0
143.007172 5596.0
143.069305 144.0
143.098633 132.0
143.137268 280.0
143.205063 88.0
143.211487 48.0
143.231674 168.0
143.264694 120.0
143.281357 128.0
143.362381 148.0
143.421967 76.0
143.467255 84.0
143.538788 88.0
143.574554 40.0
143.615097 60.0
143.686661 64.0
143.710526 80.0
143.834625 76.0
143.877594 156.0
143.911026 84.0
143.949219 96.0
144.009689 196.0
144.037598 28.0
144.16423 28.0
144.197678 132.0
144.57077 40.0
144.707214 64.0
144.917984 156.0
144.953934 80.0
145.054596 48.0
145.356781 36.0
145.596848 136.0
145.632874 156.0
145.6521 176.0
145.673706 80.0
145.904419 60.0
145.995789 96.0
146.059174 2588.0
146.118469 52.0
146.349533 160.0
147.007599 160.0
147.064941 548.0
147.236954 64.0
147.299744 72.0
147.459213 52.0
147.882492 104.0
148.031494 160.0
148.073959 192.0
148.119781 100.0
148.248184 116.0
148.801239 168.0
148.922653 44.0
148.980957 152.0
149.003418 552.0
149.039261 64.0
149.170502 68.0
149.318832 148.0
149.355316 52.0
149.386932 80.0
149.479401 76.0
149.584045 52.0
149.608887 60.0
149.679001 156.0
149.88118 84.0
149.995728 140.0
150.04306 248.0
150.090805 124.0
150.210312 96.0
150.688812 48.0
150.735229 148.0
150.899002 160.0
151.008774 144.0
151.048187 72.0
151.092224 132.0
151.141159 92.0
151.659592 164.0
151.741241 56.0
151.79274 120.0
151.829514 100.0
151.991806 408.0
152.012085 268.0
152.106781 116.0
152.131317 192.0
152.277527 156.0
152.593201 84.0
152.753052 36.0
152.780106 48.0
152.858841 148.0
152.908066 176.0
152.947449 132.0
152.99968 13560.0
153.047745 200.0
153.199356 80.0
153.225723 52.0
153.255295 76.0
153.292252 140.0
153.311966 68.0
153.361252 72.0
153.553574 92.0
153.585632 160.0
153.610306 76.0
153.652252 80.0
153.79538 136.0
153.904007 76.0
154.002258 1364.0
154.044769 104.0
154.422958 60.0
154.672867 56.0
154.848679 100.0
154.895737 48.0
154.915558 140.0
154.997711 1068.0
155.237762 88.0
155.389069 108.0
155.884583 144.0
155.997528 168.0
156.056305 748.0
156.193985 68.0
156.542419 80.0
156.906204 188.0
157.050842 68.0
157.155624 128.0
157.188065 168.0
157.205536 80.0
157.530121 104.0
157.590073 172.0
158.053802 148.0
158.631195 36.0
158.656265 80.0
158.806717 60.0
158.8293 96.0
159.057648 156.0
159.082748 140.0
159.12291 56.0
160.035599 216.0
161.818161 100.0
161.93718 72.0
161.995438 208.0
162.013794 116.0
162.939178 56.0
162.977295 88.0
163.114532 128.0
163.651337 68.0
163.692078 136.0
163.811783 52.0
164.015945 3036.0
164.071732 52.0
164.250229 72.0
164.298706 192.0
164.658615 48.0
165.014557 584.0
165.083221 220.0
166.031219 596.0
166.466675 64.0
167.014114 132.0
167.050125 180.0
167.382141 60.0
167.840805 144.0
167.979675 180.0
168.014542 144.0
168.034622 164.0
168.156586 128.0
168.659195 68.0
168.994171 6056.0
169.023468 160.0
169.080795 132.0
169.378555 60.0
169.412231 64.0
169.658417 44.0
169.997284 884.0
170.094238 76.0
170.42926 196.0
170.704803 60.0
170.90509 68.0
170.964951 216.0
170.989044 540.0
171.050842 96.0
171.121124 104.0
171.201859 48.0
171.298218 80.0
171.338165 156.0
172.043304 124.0
172.258194 100.0
172.29216 96.0
172.375763 104.0
172.914505 56.0
173.04277 200.0
173.092514 40.0
174.032486 132.0
174.056274 332.0
174.325439 32.0
175.040955 160.0
175.288574 80.0
175.926865 180.0
176.015793 456.0
176.87059 128.0
176.926178 84.0
177.001511 204.0
177.029434 116.0
177.177765 48.0
177.625793 96.0
177.875229 220.0
177.949554 152.0
178.026566 132.0
178.449066 100.0
178.983887 152.0
180.018524 164.0
180.991882 204.0
181.364273 136.0
182.025635 1156.0
182.97879 76.0
183.026672 160.0
183.291229 80.0
183.420593 120.0
184.029724 128.0
184.052338 1236.0
184.476089 44.0
184.616684 76.0
185.046921 96.0
185.065872 192.0
185.233795 160.0
185.269012 108.0
187.000366 160.0
187.010757 96.0
187.050461 156.0
188.04071 120.0
188.51236 172.0
189.039597 180.0
190.051285 176.0
191.065125 188.0
192.722153 80.0
193.145142 60.0
193.203232 92.0
193.864151 236.0
194.027817 1200.0
194.108948 60.0
194.133896 120.0
194.192139 68.0
195.025299 240.0
196.025635 192.0
196.311371 136.0
196.598709 84.0
196.796906 56.0
198.315964 136.0
199.036957 112.0
199.534286 104.0
200.043488 40.0
201.044083 120.0
201.284027 56.0
201.526947 68.0
202.044357 240.0
205.584808 64.0
206.047379 120.0
207.120148 144.0
208.718719 100.0
209.066788 168.0
209.112839 56.0
210.021393 5148.0
210.085464 52.0
210.265701 80.0
210.418686 96.0
210.958939 72.0
211.028152 528.0
211.447769 56.0
211.650421 84.0
211.682266 52.0
211.864746 48.0
212.015289 264.0
212.067581 56.0
212.311127 52.0
212.528687 132.0
213.065826 92.0
213.141373 132.0
213.402969 160.0
213.877167 96.0
215.051819 64.0
215.975128 132.0
216.032822 100.0
217.041153 204.0
218.356781 52.0
219.175186 116.0
219.4375 112.0
221.024048 164.0
222.005051 80.0
226.420883 56.0
226.450836 68.0
227.158234 176.0
227.284256 96.0
227.572403 48.0
227.920822 144.0
228.958679 128.0
230.077362 216.0
230.349152 92.0
231.041443 92.0
231.992371 72.0
232.872345 108.0
232.933105 108.0
233.0112 96.0
235.042969 96.0
236.561966 92.0
238.024384 176.0
238.095078 180.0
238.359268 52.0
239.811874 208.0
242.005234 64.0
242.076462 164.0
242.941223 68.0
244.046875 156.0
245.444962 48.0
246.003433 120.0
246.615677 72.0
247.021347 244.0
248.024216 192.0
248.53334 248.0
248.843002 100.0
249.011902 848.0
249.078537 180.0
249.10054 52.0
249.449341 160.0
250.024948 188.0
250.116226 32.0
251.010971 124.0
253.669968 84.0
254.777512 52.0
255.324234 120.0
255.499176 148.0
255.766495 52.0
257.047699 168.0
258.073059 168.0
259.260651 172.0
259.991852 120.0
260.733734 52.0
260.933014 144.0
261.011902 216.0
262.014404 136.0
263.007629 160.0
263.033478 104.0
263.947784 124.0
264.614319 124.0
265.009369 1872.0
266.000885 148.0
266.54425 124.0
266.999725 140.0
267.035156 88.0
267.663239 84.0
267.858643 40.0
268.01178 208.0
268.050873 148.0
268.76825 96.0
270.029266 124.0
272.039154 188.0
274.973999 32.0
275.859222 120.0
277.444977 100.0
278.048676 120.0
279.411072 72.0
283.029144 148.0
283.230103 168.0
286.124847 48.0
286.498657 52.0
288.025848 256.0
292.95578 76.0
292.993256 128.0
294.964905 148.0
302.115234 100.0
303.202515 52.0
303.462494 48.0
305.741241 88.0
306.040619 116.0
307.25351 72.0
308.028534 144.0
309.490417 96.0
311.594849 52.0
312.501953 72.0
315.892365 160.0
316.023254 120.0
316.086945 100.0
317.915527 128.0
318.014893 176.0
322.799561 112.0
323.268188 244.0
326.270386 148.0
328.827942 40.0
332.261993 124.0
334.405975 60.0
335.003143 108.0
337.210754 112.0
339.289948 52.0
342.590149 100.0
345.122009 88.0
348.376099 80.0
349.190155 108.0
351.01123 32.0
352.050354 140.0
353.020294 120.0
353.824768 56.0
354.026947 60.0
354.247955 132.0
356.28125 148.0
358.602997 100.0
370.106567 88.0
370.194641 112.0
379.706207 48.0
380.354156 64.0
392.31308 48.0
393.082184 92.0
393.342682 48.0
417.18045 80.0
418.539368 100.0
420.781891 100.0
438.091797 52.0
456.256378 48.0
457.596558 68.0
480.252686 44.0
486.097687 40.0
490.88382 136.0
493.418304 68.0
498.102539 64.0
499.066925 52.0
510.289764 60.0
511.211884 52.0
528.373169 140.0
536.105713 68.0
553.189514 92.0
572.892212 80.0
589.194397 84.0
595.307129 60.0
613.568542 84.0
624.671692 68.0
625.368347 40.0
638.386414 88.0
639.266724 56.0
643.733154 48.0
646.832458 68.0
650.781799 32.0
652.270325 60.0
658.455994 96.0
671.177917 32.0
679.204468 128.0
681.493958 56.0
685.505859 84.0
689.15332 68.0
689.932068 40.0
703.401611 184.0
715.3396 80.0
715.451355 160.0
719.999756 184.0
725.291382 212.0
736.019043 76.0
737.937195 36.0
743.885803 36.0
744.358154 144.0
745.884827 124.0
746.085999 144.0
758.088806 140.0
773.029236 140.0
774.850952 188.0
777.745728 196.0
778.362 44.0
779.145142 224.0
786.641052 204.0
787.506531 176.0
796.137207 60.0
797.598022 196.0
805.842834 112.0
810.952942 108.0
814.908325 180.0
822.682373 152.0
823.904541 156.0
826.56897 204.0
832.950073 124.0
833.174133 192.0
833.254578 128.0
835.795959 100.0
835.888 208.0
837.615234 92.0
838.053101 176.0
841.571533 124.0
843.11969 172.0
846.422852 156.0
847.193176 68.0
849.918213 80.0
854.642212 204.0
856.761475 196.0
859.215942 120.0
861.428528 236.0
862.427734 156.0
865.786072 140.0
867.754944 100.0
868.306152 96.0
868.892761 172.0
869.508911 52.0
872.375366 224.0
880.500854 52.0
884.243347 176.0
885.397827 168.0
888.385254 196.0
889.227844 196.0
893.351624 192.0
893.649109 184.0
895.399292 108.0
898.701782 120.0
899.75824 56.0
901.777283 200.0
903.535339 156.0
904.079895 188.0
906.738953 112.0
908.945862 152.0
909.714111 168.0
910.374573 200.0
910.530762 56.0
911.16748 108.0
912.784302 56.0
914.733704 76.0
915.600708 144.0
917.106995 180.0
917.167236 164.0
917.408386 180.0
922.032043 100.0
922.563965 212.0
922.775574 92.0
924.783997 240.0
928.085632 68.0
933.629883 180.0
934.578796 160.0
935.004822 116.0
935.461304 96.0
937.483459 112.0
939.007629 76.0
941.009155 168.0
943.385742 52.0
943.642517 124.0
944.235657 60.0
949.895325 144.0
951.589172 200.0
952.123413 116.0
952.25238 184.0
952.872803 236.0
955.190491 128.0
955.590393 148.0
956.704346 136.0
957.233826 140.0
958.693848 164.0
962.845825 192.0
965.157043 124.0
965.29303 160.0
965.942444 160.0
966.25177 156.0
967.749573 240.0
970.699097 136.0
970.816956 60.0
970.996765 128.0
971.232483 84.0
972.994873 152.0
973.34259 80.0
973.44812 176.0
974.858337 120.0
977.48877 152.0
977.824829 276.0
978.8396 156.0
979.848633 156.0
980.216248 152.0
981.101318 100.0
982.136475 160.0
982.685486 168.0
987.689514 244.0
988.06488 144.0
988.75946 144.0
989.253906 140.0
990.31842 120.0
992.499329 120.0
992.844238 196.0
995.297913 100.0
996.818054 148.0
997.484253 176.0
997.93689 192.0
998.748169 172.0
1001.788574 200.0
1002.153992 184.0
1003.137146 144.0
1004.650696 204.0
1005.540405 160.0
1006.032715 176.0
1006.84729 40.0
1008.079224 188.0
1009.052612 128.0
1009.950623 60.0
1013.166382 168.0
1013.280457 164.0
1014.142273 188.0
1014.414612 200.0
1014.567017 224.0
1015.651367 132.0
1016.856934 144.0
1017.936157 92.0
1020.57959 136.0
1020.891174 132.0
1021.272766 188.0
1022.055298 160.0
1022.360718 60.0
1022.608948 72.0
1023.029053 132.0
1024.028809 180.0
1024.207153 128.0
1024.869751 56.0
1025.717285 56.0
1028.083618 196.0
1029.130493 156.0
1030.050171 168.0
1030.861572 204.0
1031.494263 152.0
1031.701904 200.0
1031.78833 148.0
1032.018555 52.0
1032.817993 168.0
1033.470459 140.0
1035.448608 184.0
1035.679199 220.0
1035.807251 140.0
1036.736328 212.0
1037.210571 156.0
1037.922241 192.0
1038.942017 160.0
1040.565796 120.0
1040.719849 68.0
1040.784058 168.0
1041.567627 196.0
1042.171509 148.0
1042.306396 156.0
1042.916992 140.0
1044.112915 128.0
1044.312256 164.0
1044.498779 60.0
1044.620972 128.0
1045.360962 160.0
1046.171875 164.0
1046.744995 172.0
1047.595093 176.0
1047.71106 180.0
1047.923706 156.0
1048.400513 168.0
1048.722778 124.0
1050.75415 172.0
1050.870239 168.0
1051.567261 124.0
1052.070679 120.0
1052.574341 220.0
1053.652954 156.0
1055.314087 76.0
1055.766724 160.0
1055.973633 144.0
1056.685181 60.0
1060.267334 192.0
1060.518921 160.0
1061.076416 180.0
1062.068604 112.0
1062.503174 120.0
1062.568115 236.0
1063.405273 172.0
1063.450684 144.0
1063.840088 200.0
1064.48938 172.0
1064.684204 152.0
1065.405273 88.0
1067.654297 52.0
1067.979492 52.0
1068.220093 180.0
1069.202637 64.0
1069.365356 248.0
1070.016357 136.0
1070.253906 228.0
1070.713013 52.0
1071.338379 168.0
1071.564697 160.0
1072.975586 152.0
1073.358887 204.0
1074.095825 224.0
1074.296753 204.0
1074.585205 152.0
1074.65686 216.0
1075.113647 196.0
1075.165894 48.0
1075.537964 172.0
1076.020996 104.0
1076.497681 124.0
1077.255371 124.0
1079.562622 200.0
1079.641113 120.0
1079.758789 96.0
1079.863403 132.0
1081.014893 168.0
1081.158813 140.0
1082.075317 156.0
1082.304443 156.0
1082.40918 364.0
1083.601318 136.0
1085.390747 152.0
1085.521851 172.0
1085.967773 204.0
1086.295776 176.0
1086.77478 136.0
1088.054565 144.0
1088.277832 156.0
1088.611084 212.0
1089.387695 156.0
1089.604492 112.0
1090.018555 136.0
1090.340454 132.0
1090.918945 144.0
1091.050415 148.0
1091.260864 44.0
1091.45813 128.0
1092.299927 120.0
1092.641968 140.0
1092.895508 164.0
1093.490601 112.0
1093.892334 108.0
1094.07019 188.0
1094.122803 72.0
1094.66272 148.0
1094.742798 184.0
1094.945923 160.0
1095.097412 132.0
1095.36084 180.0
1095.677124 384.0
1095.775879 128.0
1095.953857 180.0
1096.223999 208.0
1096.322876 132.0
1096.513916 72.0
1097.357666 96.0
1097.54895 176.0
1098.854858 148.0
1099.67981 248.0
1099.996582 112.0
1100.108887 100.0
1100.749268 192.0
1100.980469 144.0
1101.581543 52.0
1102.28186 124.0
1103.094849 144.0
1103.253418 160.0
1104.159302 148.0
1105.032471 104.0
1106.144287 240.0
1106.336304 52.0
1109.327148 140.0
1109.589233 188.0
1109.675415 112.0
1109.880981 140.0
1111.333618 120.0
1112.083496 148.0
1112.329102 168.0
1112.840332 160.0
1112.993042 196.0
1113.351562 164.0
1114.500854 108.0
1114.633789 100.0
1115.072388 192.0
1115.630737 224.0
1116.144775 188.0
1116.249023 244.0
1116.847656 128.0
1117.838867 160.0
1119.043701 180.0
1119.276733 152.0
1119.369995 136.0
1119.483154 152.0
1119.636353 192.0
1119.782837 192.0
1120.255859 156.0
1121.042114 180.0
1121.095337 200.0
1121.768555 184.0
1122.321899 124.0
1122.768677 132.0
1123.255615 148.0
1123.462402 152.0
1123.598877 228.0
1123.822754 216.0
1124.363281 52.0
1124.623535 200.0
1124.84375 84.0
1124.990723 60.0
1125.444702 188.0
1126.092407 140.0
1126.720337 136.0
1127.462036 176.0
1127.689331 168.0
1127.843018 164.0
1128.077026 72.0
1128.284424 176.0
1128.397949 216.0
1128.772339 136.0
1128.946167 64.0
1129.227051 160.0
1129.548218 164.0
1130.264038 192.0
1131.395142 156.0
1132.111572 240.0
1132.392944 160.0
1132.821655 148.0
1133.190063 200.0
1134.081421 384.0
1134.664551 92.0
1136.421875 152.0
1136.623169 156.0
1136.670044 136.0
1136.891602 128.0
1137.388916 164.0
1139.115845 188.0
1139.308838 208.0
1139.402832 156.0
1139.86499 156.0
1141.378906 212.0
1141.432739 136.0
1142.838623 188.0
1143.020264 168.0
1143.525024 144.0
1144.938843 144.0
1145.241943 124.0
1145.733643 160.0
1146.235107 200.0
1147.418579 52.0
1148.051025 220.0
1148.167114 236.0
1149.334106 176.0
1150.123657 92.0
1150.238525 208.0
1150.656982 112.0
1151.203979 144.0
1151.291748 116.0
1152.696899 140.0
1153.197021 100.0
1153.305176 104.0
1154.718262 132.0
1155.205322 172.0
1155.272949 124.0
1156.051025 116.0
1156.815918 124.0
1157.014038 204.0
1157.702881 152.0
1157.790894 192.0
1158.366699 196.0
1158.685059 48.0
1159.071289 220.0
1159.260986 132.0
1160.508301 180.0
1160.657471 108.0
1161.037231 160.0
1161.227051 132.0
1162.570435 124.0
1162.760376 164.0
1163.371338 60.0
1163.705322 224.0
1164.844971 180.0
1165.259399 136.0
1165.429199 120.0
1165.476807 140.0
1165.850586 172.0
1166.061279 204.0
1167.135376 188.0
1167.488892 208.0
1167.726929 220.0
1168.47522 112.0
1169.223755 64.0
1169.509644 184.0
1169.958862 192.0
1170.210815 156.0
1170.380981 108.0
1170.462769 200.0
1170.55127 96.0
1172.387329 180.0
1172.445068 148.0
1172.492798 152.0
1172.731323 208.0
1173.222168 104.0
1174.163208 100.0
1174.674683 164.0
1174.93396 116.0
1174.995361 212.0
1175.208008 148.0
1175.281982 152.0
1175.602661 184.0
1176.496826 232.0
1176.681152 228.0
1176.927002 152.0
1177.152344 188.0
1177.650879 120.0
1177.794312 176.0
1177.876221 124.0
1178.156372 144.0
1178.258789 144.0
1179.249634 176.0
1180.569214 116.0
1180.775757 180.0
1181.02063 180.0
1182.039917 140.0
1182.217896 96.0
1182.43689 192.0
1182.539551 164.0
1182.717529 116.0
1183.217285 64.0
1183.723877 152.0
1183.997925 184.0
1184.168213 160.0
1184.497925 132.0
1184.703369 128.0
1185.224121 168.0
1185.991699 60.0
1186.128784 148.0
1186.814331 136.0
1186.937744 132.0
1187.102295 84.0
1187.671631 188.0
1187.74707 168.0
1188.138062 160.0
1188.227295 140.0
1189.352661 196.0
1189.87439 144.0
1190.664062 32.0
1190.828979 148.0
1190.877075 164.0
1191.076172 196.0
1191.199829 112.0
1191.247925 88.0
1191.460938 136.0
1191.550293 148.0
1191.622559 172.0
1192.127441 148.0
1192.36792 152.0
1193.33728 148.0
1193.557251 180.0
1193.619141 176.0
1193.715454 108.0
1193.918335 232.0
1194.039673 108.0
1194.35498 172.0
1194.781494 108.0
1194.864136 64.0
1195.325073 100.0
1195.407715 124.0
1197.121826 216.0
1197.225098 152.0
1197.61084 156.0
1197.665894 28.0
1197.962158 172.0
1198.478882 148.0
1198.595947 136.0
1198.802002 156.0
1199.078369 152.0
1199.595337 168.0
1199.678101 72.0
1199.87793 132.0
1200.108887 224.0
1200.19519 120.0
1200.657227 128.0
1201.33313 168.0
1201.650513 180.0
1202.078369 64.0
1202.209473 120.0
1202.706421 168.0
1202.761597 160.0
1202.934204 216.0
1203.652222 48.0
1203.783447 112.0
1203.845581 208.0
1203.983643 104.0
1204.170166 144.0
1204.391235 136.0
1204.480957 196.0
1204.708984 144.0
1205.849121 184.0
1206.256836 188.0
1206.408936 144.0
1206.678589 192.0
1206.796143 140.0
1206.844604 184.0
1208.428467 156.0
1208.587158 180.0
1208.670654 128.0
1208.899048 196.0
1209.113525 212.0
1209.881836 148.0
1210.179565 152.0
1210.283447 80.0
1210.629639 372.0
1210.698975 232.0
1210.879028 144.0
1211.031372 192.0
1211.14917 92.0
1211.405396 232.0
1211.530151 148.0
1212.306152 176.0
1212.444824 216.0
1212.560059 196.0
1212.756714 200.0
1212.929932 104.0
1213.304321 120.0
1213.775757 192.0
1213.865967 116.0
1213.921387 184.0
1214.538696 112.0
1216.322021 196.0
1216.870483 220.0
1216.932983 160.0
1217.446777 208.0
1217.537109 152.0
1217.717651 176.0
1217.884277 80.0
1218.578979 88.0
1218.634644 144.0
1219.322632 136.0
1219.433838 68.0
1219.746582 208.0
1219.809082 160.0
1220.386108 160.0
1220.594727 104.0
1221.345825 168.0
1221.763306 136.0
1221.944214 104.0
1222.47998 136.0
1222.813965 40.0
1223.294312 188.0
1223.601196 144.0
1223.69812 104.0
1224.148682 124.0
1224.484985 184.0
1224.909912 152.0
1225.042236 140.0
1225.617065 148.0
1226.066528 164.0
1226.261597 160.0
1226.345215 168.0
1226.533447 200.0
1226.875 128.0
1227.363159 128.0
1227.55835 132.0
1227.63501 148.0
1227.990723 144.0
1228.039551 80.0
1228.248779 108.0
1228.360474 136.0
1228.855835 84.0
1228.988403 64.0
1229.344238 152.0
1229.427979 160.0
1229.742065 112.0
1229.790894 116.0
1230.414673 244.0
1231.31958 164.0
1231.438721 140.0
1231.571411 36.0
1232.039429 132.0
1232.221069 72.0
1232.304932 60.0
1233.150513 172.0
1233.695679 120.0
1234.366577 176.0
1234.639648 60.0
1234.74292 208.0
1234.954346 216.0
1235.024292 188.0
1235.4021 132.0
1235.601074 188.0
1235.884888 72.0
1236.234741 148.0
1236.668701 164.0
1237.00769 272.0
1237.088623 220.0
1237.914795 140.0
1238.082886 116.0
1238.320679 160.0
1238.657227 160.0
1238.859375 168.0
1238.925659 204.0
1238.99353 200.0
1239.049561 196.0
1239.427856 136.0
1239.526001 184.0
1239.694214 184.0
1239.797485 76.0
1239.897461 148.0
1240.044678 112.0
1240.1427 180.0
1240.264526 120.0
1240.815674 172.0
1241.355591 172.0
1242.281494 172.0
1242.569092 180.0
1242.815552 180.0
1242.877808 180.0
1242.990112 148.0
1243.495361 188.0
1243.986694 48.0
1244.056885 56.0
1244.288574 136.0
1244.436035 120.0
1244.752075 164.0
1244.850342 148.0
1244.913574 184.0
1245.044434 180.0
1245.257935 212.0
1245.608887 128.0
1246.184937 144.0
1246.452026 168.0
1246.508179 132.0
1246.613647 96.0
1246.915771 80.0
1247.175903 44.0
1247.274292 144.0
1248.153076 152.0
1248.364014 260.0
1248.448486 148.0
1248.532837 156.0
1248.70166 164.0
1249.383911 284.0
1249.651245 176.0
1250.188599 164.0
1250.217529 60.0
1250.246216 132.0
1250.608398 208.0
1251.199707 64.0
1251.403809 216.0
1251.939087 216.0
1252.171387 148.0
1252.27002 44.0
1252.340454 72.0
1252.460205 132.0
1252.7229 152.0
1252.960327 232.0
1253.05896 160.0
1253.157715 140.0
1253.325806 300.0
1254.221802 144.0
1254.348633 148.0
1255.067749 144.0
1255.505005 88.0
1255.698364 184.0
1255.892944 112.0
1255.998779 204.0
1256.273804 192.0
1256.450195 112.0
1257.473389 180.0
1257.932251 196.0
1258.546509 104.0
1258.800659 144.0
1260.347656 188.0
1260.496094 160.0
1260.552612 220.0
1260.729248 144.0
1261.570312 172.0
1261.87439 176.0
1261.959229 160.0
1262.086548 148.0
1262.213745 176.0
1262.638062 68.0
1263.182739 176.0
1263.394897 92.0
1263.560547 156.0
1263.734497 160.0
1264.123779 128.0
1264.612061 176.0
1264.852661 156.0
1264.965942 176.0
1265.964355 96.0
1266.679688 244.0
1266.870972 92.0
1266.991333 164.0
1267.317261 164.0
1267.551147 88.0
1267.721191 180.0
1267.869995 156.0
1269.365845 192.0
1269.713379 168.0
1269.833862 188.0
1270.302002 104.0
1270.351685 152.0
1270.642578 200.0
1270.713501 124.0
1271.29541 180.0
1271.955444 156.0
1272.260742 172.0
1272.374268 172.0
1272.530518 164.0
1272.715088 240.0
1272.835815 248.0
1272.977905 104.0
1273.886963 44.0
1274.869507 264.0
1276.007202 216.0
1276.154175 160.0
1276.388794 132.0
1276.445679 148.0
1276.765625 224.0
1276.915039 132.0
1277.107056 116.0
1277.356079 160.0
1277.854004 156.0
1277.910889 184.0
1277.960693 176.0
1278.095947 196.0
1278.195557 80.0
1278.771118 60.0
1278.819702 172.0
1278.957031 188.0
1280.022217 216.0
1280.373901 56.0
1280.423828 76.0
1280.737183 164.0
1281.143188 192.0
1281.303711 236.0
1282.140747 188.0
1282.254883 156.0
1282.361694 152.0
1282.518555 148.0
1282.782349 112.0
1283.245728 164.0
1283.345459 100.0
1283.637817 144.0
1283.916016 196.0
1284.072876 172.0
1284.308228 220.0
1284.372437 120.0
1284.985962 172.0
1285.264282 232.0
1285.770874 204.0
1286.441895 140.0
1286.922974 348.0
1286.977295 148.0
1287.091553 120.0
1287.484375 148.0
1287.541504 224.0
1288.055786 148.0
1288.327271 140.0
1288.452271 192.0
1288.527222 224.0
1288.770142 128.0
1289.075684 184.0
1289.090088 140.0
1289.598755 156.0
1289.772095 140.0
1289.885132 156.0
1290.078125 124.0
1290.213989 216.0
1290.342651 64.0
1290.599976 172.0
1291.350952 396.0
1291.572632 164.0
1291.687134 208.0
1291.822998 160.0
1292.123535 200.0
1292.52417 52.0
1292.63147 156.0
1292.974976 140.0
1293.161133 144.0
1293.526123 204.0
1293.819702 136.0
1295.065674 168.0
1295.398193 168.0
1295.502686 108.0
1295.925293 152.0
1296.233398 436.0
1296.462769 176.0
1296.620483 56.0
1296.703613 172.0
1296.821167 148.0
1297.143677 196.0
1297.416138 120.0
1298.00769 272.0
1298.298096 160.0
1298.742676 176.0
1299.094238 160.0
1299.309448 136.0
1299.754272 176.0
1300.192017 184.0
1300.687256 196.0
1300.952881 128.0
1301.175415 180.0
1301.426758 188.0
1301.577515 36.0
1302.116211 132.0
1302.281372 188.0
1303.028442 180.0
1303.193726 200.0
1303.251221 128.0
1303.359009 108.0
1303.454834 232.0
1303.725464 168.0
1303.790161 168.0
1304.077637 204.0
1304.674316 124.0
1305.235107 96.0
1305.371704 80.0
1305.796021 132.0
1305.939819 132.0
1306.508179 220.0
1306.58728 192.0
1306.702393 124.0
1306.781494 108.0
1307.249268 148.0
1307.335571 148.0
1307.78186 160.0
1308.508911 108.0
1309.495483 148.0
1310.107788 188.0
1310.223022 136.0
1310.47522 176.0
1310.556274 188.0
1311.071167 140.0
1311.224609 164.0
1311.512939 224.0
1312.082397 184.0
1312.633667 140.0
1312.79834 188.0
1312.854004 216.0
1313.06311 76.0
1313.80603 136.0
1313.935913 116.0
1314.087524 160.0
1314.311157 156.0
1314.523804 164.0
1314.810669 184.0
1315.227661 156.0
1315.549194 180.0
1316.195068 176.0
1316.267334 248.0
1316.476685 84.0
1316.888428 232.0
1316.9823 48.0
1317.386841 116.0
1317.668579 160.0
1317.885376 180.0
1318.073242 132.0
1318.739746 192.0
1319.247559 184.0
1319.663208 184.0
1319.807983 116.0
1319.916504 168.0
1320.624512 168.0
1320.704834 152.0
1320.769897 168.0
1321.167725 152.0
1321.319702 204.0
1321.413696 228.0
1321.623535 100.0
1321.674194 184.0
1321.753784 124.0
1322.072266 120.0
1322.252319 68.0
1322.455811 188.0
1322.539673 192.0
1322.618042 140.0
1323.12561 264.0
1323.550293 160.0
1324.512207 212.0
1324.62085 144.0
1324.881714 204.0
1325.258423 76.0
1325.640625 168.0
1325.736694 160.0
1325.886353 356.0
1326.454224 128.0
1326.578979 188.0
1326.809448 160.0
1327.077759 140.0
1327.578003 100.0
1328.129272 160.0
1328.310669 148.0
1328.411621 148.0
1328.51123 136.0
1328.571777 52.0
1328.658813 196.0
1328.724121 184.0
1328.841309 180.0
1328.951782 184.0
1329.217529 136.0
1329.435181 164.0
1330.030396 204.0
1330.53125 180.0
1330.7854 156.0
1331.860229 164.0
1332.412354 220.0
1332.664673 164.0
1333.320557 112.0
1333.625854 192.0
1333.800293 92.0
1333.873047 120.0
1334.032959 164.0
1334.592773 220.0
1334.861816 212.0
1335.334473 156.0
1335.538208 156.0
1335.756348 116.0
1335.836426 192.0
1335.967407 140.0
1336.120117 84.0
1336.178345 116.0
1336.374756 140.0
1336.491211 36.0
1337.047607 156.0
1337.1875 172.0
1337.291748 248.0
1337.764893 180.0
1338.085205 60.0
1338.456543 208.0
1338.551147 168.0
1338.640747 172.0
1338.900757 372.0
1339.473511 84.0
1339.556274 160.0
1339.62915 152.0
1340.153687 36.0
1340.357788 48.0
1340.44519 128.0
1340.547241 124.0
1340.835938 200.0
1341.239624 272.0
1341.3125 168.0
1341.480103 152.0
1341.596802 188.0
1341.858643 148.0
1341.874634 136.0
1341.896973 164.0
1342.632202 176.0
1343.12085 196.0
1343.208374 144.0
1343.777466 160.0
1343.828491 224.0
1344.21521 140.0
1344.675049 172.0
1345.244385 220.0
1345.419556 164.0
1345.572876 124.0
1345.624023 124.0
1345.718872 184.0
1345.967163 164.0
1346.066284 184.0
1346.562256 132.0
1346.62085 128.0
1346.807007 160.0
1347.026245 172.0
1347.106567 380.0
1347.165039 132.0
1347.26001 208.0
1347.522949 156.0
1347.61792 156.0
1347.82251 120.0
1348.149414 176.0
1348.334106 264.0
1348.758057 84.0
1348.809204 76.0
1348.911499 92.0
1349.165405 188.0
1349.920532 348.0
1350.052124 108.0
1350.110596 152.0
1350.564087 112.0
1350.922607 176.0
1351.376099 156.0
1351.463989 208.0
1351.588379 164.0
1351.859131 188.0
1352.310181 196.0
1352.750122 172.0
1353.008301 204.0
1353.096191 124.0
1353.18396 196.0
1353.520752 68.0
1353.806396 120.0
1353.901123 200.0
1354.013428 176.0
1354.24585 160.0
1354.465576 204.0
1354.590088 56.0
1355.080933 180.0
1355.132202 184.0
1355.242188 180.0
1355.314453 184.0
1355.462036 112.0
1355.630493 112.0
1355.7771 152.0
1355.93103 236.0
1356.092285 212.0
1356.238892 108.0
1356.290161 156.0
1356.378052 216.0
1356.57605 156.0
1356.686035 152.0
1356.751953 136.0
1356.920654 136.0
1356.971924 188.0
1357.221191 68.0
1357.306396 164.0
1357.580566 132.0
1357.658691 136.0
1357.895874 128.0
1358.123291 76.0
1358.468018 132.0
1358.534058 180.0
1360.111816 136.0
1360.420044 208.0
1360.802612 156.0
1361.404053 200.0
1361.565552 132.0
1361.653687 208.0
1362.160522 192.0
1362.219238 124.0
1362.770264 56.0
1362.829102 188.0
1362.887085 152.0
1363.012817 196.0
1363.152344 116.0
1363.255737 200.0
1363.453735 176.0
1363.600708 200.0
1363.916748 188.0
1364.056396 80.0
1364.681274 48.0
1364.871582 192.0
1365.276978 52.0
1365.563721 116.0
1365.637329 136.0
1366.417114 108.0
1366.498047 148.0
1366.799683 180.0
1366.991089 144.0
1367.403198 224.0
1367.609253 128.0
1367.749146 180.0
1367.888916 160.0
1368.279175 60.0
1368.352783 140.0
1368.470581 168.0
1368.691406 136.0
1368.787231 100.0
1368.853516 220.0
1368.934448 208.0
1369.022827 168.0
1369.354248 116.0
1370.024536 52.0
1370.805542 324.0
1371.093018 180.0
1371.358398 144.0
1371.468872 104.0
1371.859619 104.0
1372.161865 232.0
1372.25769 196.0
1372.471558 168.0
1372.773926 156.0
1373.039307 216.0
1373.430298 180.0
1373.54834 176.0
1373.776978 144.0
1374.005615 140.0
1374.802612 216.0
1375.208496 260.0
1375.263672 164.0
1375.89502 80.0
1376.441406 208.0
1377.091309 188.0
1377.239014 120.0
1377.586182 148.0
1377.829956 172.0
1377.948242 140.0
1378.435913 116.0
1378.620605 172.0
1378.857178 160.0
1379.31543 176.0
1379.588867 148.0
1379.788574 128.0
1379.862427 140.0
1379.973389 60.0
1380.165649 28.0
1380.446655 200.0
1380.513184 176.0
1380.616699 108.0
1380.764648 116.0
1381.447388 156.0
1382.325562 228.0
1382.818604 220.0
1383.443237 176.0
1384.07251 208.0
1384.405762 240.0
1384.657593 88.0
1384.850098 124.0
1385.072388 212.0
1385.213135 216.0
1385.302002 124.0
1385.768799 184.0
1386.065186 112.0
1386.154053 132.0
1386.806274 168.0
1387.006348 240.0
1387.317749 144.0
1387.473389 204.0
1388.103638 132.0
1388.214844 204.0
1388.526367 116.0
1388.786743 192.0
1388.860107 124.0
1388.956543 188.0
1389.075195 100.0
1389.601929 392.0
1389.980347 124.0
1390.258179 144.0
1390.33667 164.0
1390.76709 176.0
1390.878418 180.0
1390.93042 176.0
1391.264404 128.0
1391.717407 68.0
1392.172852 128.0
1392.259399 188.0
1392.4823 200.0
1392.615967 188.0
1392.712524 164.0
1392.86853 188.0
1393.150757 140.0
1393.284546 128.0
1393.737671 128.0
1393.819458 124.0
1394.057251 240.0
1394.347046 120.0
1394.919434 160.0
1395.157349 136.0
1395.298584 132.0
1395.410156 56.0
1395.499268 172.0
1396.681763 124.0
1396.890015 136.0
1397.507568 152.0
1397.790161 184.0
1397.931641 124.0
1398.13269 176.0
1398.199585 200.0
1398.378296 40.0
1399.06311 128.0
1399.36084 176.0
1400.02356 168.0
1400.165161 248.0
1400.232178 196.0
1400.291748 120.0
1400.38855 216.0
1400.679077 220.0
1401.356934 352.0
1401.588013 76.0
1401.729492 176.0
1401.945679 156.0
1402.094727 216.0
1402.146851 160.0
1402.415161 144.0
1402.743164 204.0
1402.974243 160.0
1403.041382 176.0
1403.250122 120.0
1403.3396 108.0
1403.39624 176.0
1403.809326 124.0
1403.936279 184.0
1404.607422 184.0
1404.853638 184.0
1404.928223 160.0
1405.0177 156.0
1405.092285 140.0
1405.308716 124.0
1405.413208 132.0
1405.510132 120.0
1406.062378 140.0
1406.137085 108.0
1406.346069 124.0
1406.46875 176.0
1406.592285 212.0
1406.726685 176.0
1407.085083 140.0
1407.495728 144.0
1408.070801 128.0
1408.360474 192.0
1408.453003 180.0
1408.810181 116.0
1408.866577 244.0
1409.303345 136.0
1409.445312 188.0
1409.58728 188.0
1410.147827 128.0
1410.529053 180.0
1410.81311 160.0
1411.067261 256.0
1411.381348 140.0
1411.717773 172.0
1411.807495 152.0
1412.016968 108.0
1412.069336 176.0
1412.75 224.0
1413.161499 124.0
1413.595459 140.0
1413.978394 200.0
1414.074463 128.0
1414.29895 152.0
1414.813477 160.0
1415.010132 216.0
1415.264771 56.0
1415.332153 200.0
1415.667847 208.0
1415.78894 156.0
1416.410645 140.0
1416.994995 220.0
1417.15979 152.0
1417.219727 128.0
1417.721802 132.0
1417.927124 208.0
1417.991577 120.0
1418.328857 132.0
1418.46814 208.0
1418.568726 152.0
1418.958618 164.0
1419.123535 180.0
1419.760986 220.0
1420.165894 168.0
1420.315918 220.0
1420.578491 84.0
1420.803589 168.0
1421.216187 140.0
1421.433838 152.0
1421.591431 148.0
1421.906616 116.0
1421.989136 228.0
1422.184326 144.0
1422.251953 144.0
1422.709839 140.0
1423.195679 228.0
1423.32959 96.0
1423.676514 192.0
1423.866211 152.0
1424.21167 176.0
1424.286743 148.0
1424.406982 124.0
1424.662354 36.0
1424.812622 200.0
1425.038086 88.0
1425.090698 120.0
1425.368652 116.0
1425.443848 180.0
1425.609131 120.0
1425.736938 136.0
1425.83667 412.0
1425.992432 100.0
1426.150269 156.0
1426.240479 84.0
1426.738037 188.0
1427.157593 120.0
1427.383179 140.0
1427.887085 336.0
1428.195435 132.0
1428.307983 176.0
1428.421143 68.0
1428.519897 228.0
1429.414307 148.0
1429.760376 56.0
1430.084106 160.0
1430.287354 72.0
1430.996338 192.0
1431.443726 160.0
1431.522095 148.0
1431.778076 116.0
1431.845825 132.0
1432.312866 140.0
1433.063477 176.0
1433.14917 172.0
1433.239502 108.0
1433.571045 156.0
1433.631348 88.0
1433.970581 164.0
1434.196655 180.0
1434.362549 124.0
1434.522705 172.0
1435.244751 180.0
1435.862915 136.0
1436.043945 176.0
1436.126953 144.0
1436.262695 164.0
1436.737915 152.0
1436.79834 244.0
1437.288696 124.0
1437.424194 160.0
1437.53772 140.0
1437.651001 200.0
1437.771729 160.0
1437.900024 196.0
1438.239624 136.0
1438.618774 236.0
1438.805786 84.0
1438.956787 88.0
1439.122925 156.0
1439.216064 232.0
1439.4552 92.0
1439.538208 176.0
1439.704346 164.0
1440.082031 132.0
1440.580566 160.0
1440.708984 136.0
1440.766357 172.0
1441.064087 108.0
1441.120483 168.0
1441.260498 176.0
1441.668579 220.0
1441.827271 124.0
1441.917969 92.0
1441.99353 144.0
1442.143799 164.0
1442.658813 192.0
1443.588745 160.0
1443.702271 140.0
1443.830811 128.0
1444.148438 120.0
1444.413208 184.0
1444.753662 152.0
1444.957886 184.0
1445.041138 144.0
1445.374023 172.0
1445.646484 116.0
1445.699463 80.0
1445.775146 192.0
1445.94165 124.0
1446.093018 172.0
1446.342773 188.0
1446.501709 180.0
1446.978638 168.0
1447.198242 160.0
1447.580688 232.0
1447.864624 136.0
1447.937134 168.0
1448.402344 84.0
1448.584229 132.0
1448.728149 160.0
1448.947876 196.0
1449.297607 176.0
1449.553955 180.0
1450.034058 184.0
1450.10022 176.0
1450.349731 172.0
1450.615112 92.0
1450.706055 156.0
1450.997437 164.0
1451.123047 212.0
1451.305054 176.0
1451.405762 144.0
1452.028442 212.0
1452.443604 148.0
1452.510864 156.0
1452.745972 120.0
1452.867432 160.0
1452.973633 164.0
1453.466797 128.0
1453.838623 156.0
1454.244873 184.0
1454.324341 144.0
1454.377563 92.0
1454.453491 132.0
1455.311279 156.0
1455.706177 176.0
1456.541626 48.0
1456.617554 192.0
1456.905396 144.0
1457.058228 168.0
1457.415283 156.0
1457.612915 112.0
1458.008057 136.0
1458.464111 144.0
1459.094971 56.0
1459.200317 188.0
1459.284302 144.0
1459.612061 104.0
1461.179932 152.0
1461.262573 52.0
1461.580566 200.0
1461.609863 156.0
1461.719116 228.0
1461.780029 152.0
1462.02356 224.0
1462.307129 268.0
1462.982666 192.0
1463.119629 164.0
1463.309937 128.0
1464.162842 180.0
1464.307617 72.0
1464.635132 172.0
1464.798462 196.0
1464.993164 184.0
1465.236938 96.0
1465.518799 204.0
1465.838867 128.0
1465.907471 148.0
1465.984741 168.0
1466.21228 116.0
1466.31897 172.0
1466.47522 156.0
1466.677246 168.0
1466.738159 252.0
1466.860718 120.0
1467.05835 160.0
1467.332764 176.0
1467.49292 216.0
1467.645386 208.0
1467.897095 108.0
1468.095337 160.0
1468.156372 200.0
1468.446167 144.0
1468.568237 172.0
1468.644409 120.0
1468.827515 192.0
1469.056396 136.0
1469.676514 156.0
1469.90332 116.0
1470.147461 136.0
1470.212036 140.0
1470.284912 216.0
1470.635986 192.0
1470.735229 72.0
1470.826782 160.0
1470.981445 196.0
1471.200806 148.0
1471.468018 128.0
1471.865112 172.0
1471.979614 180.0
1472.04834 132.0
1472.223999 44.0
1472.563843 148.0
1472.743408 168.0
1472.827393 128.0
1473.147095 192.0
1473.255127 196.0
1473.461426 104.0
1473.88855 192.0
1474.065063 148.0
1474.141479 136.0
1474.263794 36.0
1474.661133 132.0
1474.913452 36.0
1475.292603 164.0
1475.433228 212.0
1475.849121 264.0
1476.144287 164.0
1476.5802 256.0
1476.970337 88.0
1477.046875 36.0
1477.567017 152.0
1477.895996 148.0
1478.110229 152.0
1478.194458 168.0
1478.375977 220.0
1478.538818 216.0
1478.768433 140.0
1478.944458 120.0
1479.296631 128.0
1479.602783 160.0
1480.113281 136.0
1480.36084 376.0
1480.491089 192.0
1480.544678 144.0
1481.187988 124.0
1481.433228 180.0
1481.586426 80.0
1481.655396 144.0
1481.793213 40.0
1482.069092 140.0
1482.306641 156.0
1482.452271 132.0
1482.580078 120.0
1482.873779 156.0
1483.275269 232.0
1483.348999 204.0
1483.401245 176.0
1483.716919 160.0
1483.851074 180.0
1484.023682 92.0
1484.353394 144.0
1484.836548 92.0
1485.304321 200.0
1485.595825 128.0
1485.941162 196.0
1486.086914 128.0
1486.347778 204.0
1486.570312 120.0
1486.831299 140.0
1488.750488 140.0
1489.00354 196.0
1489.218994 96.0
1489.633789 212.0
1489.856567 148.0
1490.386719 156.0
1490.532715 152.0
1490.809448 80.0
1490.951782 136.0
1491.132202 156.0
1491.470337 92.0
1491.52417 132.0
1491.785522 240.0
1491.886475 184.0
1491.947021 140.0
1492.146118 164.0
1492.239136 216.0
1492.446777 204.0
1492.623535 212.0
1492.738892 192.0
1492.984985 192.0
1493.161865 188.0
1493.477295 168.0
1493.531128 160.0
1493.807983 188.0
1493.938843 160.0
1494.015137 168.0
1495.116455 140.0
1496.416992 276.0
1496.617188 144.0
1497.240967 156.0
1497.672241 168.0
1497.980347 128.0
1498.119019 224.0
1498.203735 144.0
1498.997437 216.0
1499.158203 116.0
1499.172485 100.0
1499.201416 188.0
1499.28479 204.0
1499.351929 140.0
1499.409424 164.0
1499.875977 164.0
1499.991577 144.0
1500.43103 172.0
1500.694336 136.0
1500.885986 168.0
1501.038086 176.0
1501.209839 60.0
1501.279297 180.0
1501.61853 100.0
1501.772827 132.0
1501.89624 236.0
1502.166382 156.0
1502.374512 172.0
1502.775757 72.0
1502.976318 196.0
1503.431641 144.0
1503.687378 176.0
1504.025879 128.0
1504.427368 144.0
1504.736206 188.0
1504.875122 204.0
1505.083618 108.0
1505.177612 136.0
