>compound Adefovir Dipivoxil (Preveon, Hepsera)
>formula C20H32N5O8P
>ionization [M+H]+
>parentmass 502.207855
#inchi InChI=1S/C20H32N5O8P/c1-19(2,3)17(26)30-11-32-34(28,33-12-31-18(27)20(4,5)6)13-29-8-7-25-10-24-14-15(21)22-9-23-16(14)25/h9-10H,7-8,11-13H2,1-6H3,(H2,21,22,23)
#inchikey WOZSCQDILHKSGG
#Ion_Source LC-ESI
#Instrument qTof
#Compound_Source Commercial
#PI Dorrestein
#Data_Collector Garg_Neha
#Scan -1
#Precursor_MZ 502.206
#ExactMass 501.199
#Charge 1
#CAS_Number 142340-99-6
#Pubmed_ID N/A
#Smiles C12=C(N=CN=C1N)N(C=N2)CCOCP(OCOC(C(C)(C)C)=O)(=O)OCOC(C(C)(C)C)=O
#INCHI_AUX N/A
#Library_Class 1
#SpectrumID CCMSLIB00000078253
#IonMode Positive
#UpdateWorkflowName UPDATE-SINGLE-ANNOTATED-GOLD
#LibraryQualityString Gold
#TaskID 77f51c88eb8b467eb4a01dd2d0cb90d2
##Scan# 1176
#SpectrumFile Plate4_21_40_GH3_01_16504.mzXML
#LibraryName FDALibrary_2_04302014.mgf
#MQScore -1
#Organism FDALibrary_2_04302014
#TIC_Query 0
#RT_Query -1
#MZErrorPPM -1
#SharedPeaks 0
#MassDiff 0
#LibMZ -1
#SpecMZ 502.206
#SpecCharge 0
#internalFilename spec-00000.mgf

>collision 10
44.991207 200.0
45.035271 240.0
45.047295 144.0
45.108109 188.0
45.274178 196.0
45.288063 188.0
45.448685 152.0
45.567085 176.0
45.730682 160.0
45.770184 152.0
45.821365 184.0
45.897076 160.0
45.954838 140.0
45.964283 152.0
46.019627 184.0
46.137165 176.0
46.352367 208.0
46.393024 120.0
46.440487 188.0
46.631924 156.0
46.671398 104.0
46.791077 144.0
46.8619 152.0
46.910545 196.0
47.285217 168.0
47.396675 204.0
47.548355 144.0
47.56208 228.0
47.714561 172.0
48.051983 156.0
48.3288 148.0
48.347687 160.0
48.416904 208.0
48.51944 156.0
48.591557 172.0
48.622086 292.0
48.695667 252.0
48.726227 140.0
48.743206 128.0
48.781815 176.0
48.795719 156.0
48.890305 164.0
48.943199 140.0
49.207417 204.0
49.233246 232.0
49.306591 152.0
49.371414 148.0
49.385586 180.0
49.437351 192.0
49.47374 212.0
49.690968 196.0
49.779396 156.0
49.946251 188.0
50.059975 152.0
50.093033 148.0
50.222713 184.0
50.274914 216.0
50.737442 272.0
50.775887 140.0
51.002895 140.0
51.019287 132.0
51.650249 164.0
51.665985 152.0
51.826336 156.0
51.887966 200.0
51.945328 148.0
51.956802 176.0
52.02282 152.0
52.063019 148.0
52.111858 164.0
52.223309 204.0
52.448605 148.0
52.530796 176.0
52.582741 312.0
52.596889 204.0
52.717045 204.0
52.743542 180.0
52.82259 212.0
52.835609 140.0
52.853313 136.0
52.867443 144.0
53.025299 172.0
53.038342 140.0
53.42606 228.0
53.488632 144.0
53.654209 204.0
53.691154 160.0
53.729267 344.0
53.825409 144.0
54.054901 192.0
54.069538 164.0
54.094418 236.0
54.117844 180.0
54.166172 176.0
54.193481 200.0
54.243446 136.0
54.349426 164.0
54.584446 160.0
54.651325 196.0
54.768406 192.0
54.838669 192.0
54.874508 152.0
54.890728 144.0
54.920223 172.0
55.048119 188.0
55.091454 300.0
55.295506 208.0
55.391747 140.0
55.421104 196.0
55.526627 152.0
55.759716 140.0
55.800896 108.0
55.832561 140.0
55.868259 148.0
55.906944 144.0
55.979889 192.0
55.994781 224.0
56.141438 128.0
56.234333 172.0
56.378193 164.0
56.421539 256.0
56.518505 164.0
56.547623 148.0
56.560661 208.0
56.586109 156.0
56.889545 328.0
57.01511 160.0
57.081253 176.0
57.095444 124.0
57.204624 160.0
57.261841 148.0
57.275166 156.0
57.291965 304.0
57.4035 160.0
57.415565 140.0
57.43819 148.0
57.453274 148.0
57.625381 152.0
57.962795 168.0
58.152363 148.0
58.28994 180.0
58.372643 164.0
58.458336 216.0
58.489788 200.0
58.844986 172.0
58.886806 96.0
58.896908 208.0
58.929356 204.0
59.264065 188.0
59.342358 144.0
59.412781 176.0
59.477741 208.0
59.546322 216.0
59.578579 156.0
59.644657 140.0
59.775383 140.0
59.850807 200.0
59.873905 176.0
59.940876 124.0
60.17115 140.0
60.363831 124.0
60.539505 176.0
60.572029 184.0
60.674309 140.0
60.91795 176.0
60.930378 184.0
60.987877 144.0
61.014301 148.0
61.12162 156.0
61.169865 140.0
61.274204 184.0
61.583321 148.0
61.675255 232.0
61.686195 168.0
61.722153 144.0
61.748737 144.0
61.803398 204.0
61.856701 216.0
61.992958 176.0
62.0149 164.0
62.032143 176.0
62.276924 164.0
62.313183 148.0
62.417252 136.0
62.484421 164.0
62.511169 184.0
62.651299 140.0
62.780548 164.0
62.861 200.0
63.028378 236.0
63.254536 152.0
63.317867 192.0
63.340126 152.0
63.54792 156.0
63.570717 224.0
63.749374 204.0
63.80735 128.0
63.836807 148.0
63.860661 176.0
63.886112 144.0
64.085503 184.0
64.146912 212.0
64.234978 164.0
64.292412 144.0
64.303581 140.0
64.408966 140.0
64.427414 200.0
64.479263 200.0
64.509636 152.0
64.640785 160.0
64.727219 288.0
64.873779 168.0
64.889046 152.0
64.927536 172.0
64.996513 156.0
65.141296 196.0
65.206879 148.0
65.440132 168.0
65.586723 148.0
65.795898 168.0
65.89518 140.0
65.917572 168.0
65.940193 192.0
66.012947 160.0
66.142372 160.0
66.377289 156.0
66.40361 192.0
66.700371 148.0
67.060081 164.0
67.139969 152.0
67.599014 344.0
67.611877 116.0
67.644836 160.0
67.661209 148.0
67.961136 168.0
68.051407 152.0
68.268311 160.0
68.35878 148.0
68.391701 156.0
68.419685 180.0
68.472374 176.0
68.505318 148.0
68.579468 280.0
68.657692 132.0
68.744186 168.0
68.809105 120.0
68.911697 108.0
69.111214 188.0
69.248619 176.0
69.290031 184.0
69.341438 168.0
69.39444 140.0
69.444191 184.0
69.512207 172.0
69.52916 168.0
69.58358 144.0
69.692245 216.0
69.711479 192.0
69.736404 196.0
69.787941 144.0
69.871101 240.0
69.944321 148.0
69.970306 144.0
70.065247 220.0
70.090744 156.0
70.269279 200.0
70.284615 124.0
70.501381 164.0
70.556534 188.0
70.609291 216.0
70.643494 184.0
70.658554 184.0
70.85611 212.0
70.907776 144.0
70.981506 152.0
71.015617 360.0
71.094208 212.0
71.122734 140.0
71.224678 152.0
71.300766 180.0
71.431915 172.0
71.447495 168.0
71.463463 112.0
71.559814 204.0
71.847534 156.0
71.871628 140.0
71.913239 116.0
71.93576 176.0
72.037895 116.0
72.434601 144.0
72.475266 164.0
72.504066 284.0
72.604759 224.0
72.651993 184.0
72.756805 140.0
72.8806 144.0
72.931091 108.0
73.013374 180.0
73.078018 240.0
73.163109 300.0
73.214195 184.0
73.273811 184.0
73.287437 148.0
73.3153 184.0
73.51252 192.0
73.575676 156.0
73.621407 148.0
73.646477 112.0
73.69352 156.0
73.829437 124.0
73.862411 156.0
73.993576 156.0
74.018501 196.0
74.094543 292.0
74.194977 148.0
74.271767 128.0
74.328758 208.0
74.526215 188.0
74.713615 172.0
74.727379 212.0
74.967422 240.0
74.98568 152.0
75.090851 200.0
75.111549 168.0
75.155586 212.0
75.306587 160.0
75.32386 156.0
75.355331 184.0
75.44828 180.0
75.479408 164.0
75.607414 140.0
75.662804 152.0
75.799637 144.0
75.981689 164.0
76.074722 184.0
76.216148 200.0
76.456825 196.0
76.614502 152.0
76.666771 164.0
76.681847 160.0
76.769623 176.0
76.845284 128.0
76.893486 140.0
77.152008 316.0
77.308441 164.0
77.424965 144.0
77.452988 192.0
77.700157 208.0
77.892693 160.0
77.982872 172.0
77.9953 172.0
78.07753 124.0
78.247467 164.0
78.272659 116.0
78.394691 172.0
78.443375 148.0
78.477722 116.0
78.86248 136.0
78.941933 176.0
79.21981 192.0
79.244278 172.0
79.331451 192.0
79.345634 176.0
79.363365 148.0
79.41124 152.0
79.474274 204.0
79.572723 184.0
79.723701 140.0
79.988449 164.0
80.024315 208.0
80.15612 144.0
80.181068 156.0
80.202461 140.0
80.241676 152.0
80.281006 140.0
80.384369 252.0
80.401093 156.0
80.437912 148.0
80.530762 240.0
80.814995 204.0
80.923866 136.0
81.033424 152.0
81.091316 156.0
81.149925 232.0
81.19117 196.0
81.20372 168.0
81.261124 148.0
81.418167 164.0
81.462189 152.0
81.546646 188.0
81.649124 160.0
81.811058 208.0
81.99913 116.0
82.056068 192.0
82.179932 136.0
82.287003 152.0
82.317017 180.0
82.459839 176.0
82.521881 172.0
82.594215 140.0
82.657532 176.0
82.702042 216.0
82.773384 200.0
82.803696 168.0
82.825905 148.0
82.869377 172.0
82.92012 180.0
82.972687 152.0
83.02346 156.0
83.097824 180.0
83.292068 144.0
83.328094 140.0
83.384735 140.0
83.514687 152.0
83.684883 172.0
83.753624 224.0
83.916275 152.0
83.992867 148.0
84.062195 144.0
84.102043 172.0
84.263039 200.0
84.544632 256.0
84.575363 212.0
84.676445 156.0
84.79187 244.0
84.820992 184.0
84.880775 104.0
85.068787 172.0
85.096367 140.0
85.240318 184.0
85.280067 152.0
85.300285 228.0
85.33889 172.0
85.442276 208.0
85.534576 152.0
85.625961 184.0
85.666481 168.0
85.714386 160.0
85.778885 168.0
85.791794 220.0
85.919037 200.0
85.948563 176.0
85.974396 244.0
86.255127 160.0
86.460434 196.0
86.712303 172.0
87.055511 176.0
87.124199 224.0
87.262604 124.0
87.28965 172.0
87.321266 160.0
87.43103 160.0
87.477562 200.0
87.493385 112.0
87.568802 328.0
87.798035 148.0
87.934227 160.0
88.106018 204.0
88.362144 152.0
88.410789 204.0
88.442612 144.0
88.484673 144.0
88.501839 144.0
88.529358 180.0
88.650497 148.0
88.806099 156.0
88.822327 172.0
88.850418 204.0
88.901779 172.0
88.977715 308.0
88.997513 140.0
89.021927 172.0
89.426559 208.0
89.443062 148.0
89.476952 144.0
89.544739 204.0
89.596626 140.0
89.838341 152.0
89.906708 304.0
90.049431 208.0
90.14843 188.0
90.317169 224.0
90.371552 200.0
90.576515 224.0
90.635689 208.0
90.691376 172.0
90.742264 192.0
90.886925 140.0
91.090065 172.0
91.150856 152.0
91.28582 232.0
91.316254 148.0
91.339073 200.0
91.605568 304.0
91.719307 196.0
91.771233 160.0
91.881989 236.0
92.049133 224.0
92.12635 144.0
92.145454 212.0
92.17794 148.0
92.351906 200.0
92.498375 132.0
92.521881 160.0
92.556679 152.0
92.649353 196.0
92.959221 156.0
93.199242 192.0
93.235756 180.0
93.283806 164.0
93.478058 172.0
93.605103 216.0
93.62394 128.0
93.705261 184.0
93.724525 256.0
93.764061 132.0
93.861382 144.0
93.973251 212.0
94.417534 144.0
94.480858 228.0
94.508453 164.0
94.551674 156.0
94.669113 144.0
94.698166 184.0
94.751663 220.0
94.887337 212.0
94.934601 140.0
95.383095 216.0
95.675835 172.0
95.809265 160.0
95.828743 156.0
95.858604 124.0
95.910027 124.0
96.062141 128.0
96.115364 144.0
96.171959 188.0
96.208549 172.0
96.418045 188.0
96.476685 160.0
96.556854 152.0
96.680099 168.0
96.725121 140.0
96.7584 248.0
96.785805 260.0
96.901367 180.0
97.007195 156.0
97.06601 212.0
97.089539 184.0
97.28968 176.0
97.366035 180.0
97.407501 176.0
97.531296 200.0
97.545052 280.0
97.589638 160.0
97.838165 252.0
97.926773 148.0
98.007538 220.0
98.068634 192.0
98.139603 160.0
98.295425 168.0
98.330078 164.0
98.412712 160.0
98.436478 176.0
98.467171 188.0
98.602798 148.0
98.676636 144.0
98.690475 152.0
98.832886 176.0
99.235802 156.0
99.318939 172.0
99.368668 124.0
99.577301 156.0
99.703415 172.0
99.774971 228.0
99.816177 188.0
99.89827 140.0
100.034012 188.0
100.105263 188.0
100.204849 196.0
100.404182 188.0
100.582863 152.0
100.667603 216.0
100.685577 148.0
100.712997 132.0
100.824593 164.0
100.841415 156.0
100.944054 100.0
100.985367 160.0
101.163506 152.0
101.305634 164.0
101.473976 156.0
101.534134 184.0
101.564217 152.0
101.620384 176.0
101.951706 164.0
101.98185 160.0
102.054222 200.0
102.088402 172.0
102.212151 108.0
102.262367 144.0
102.429764 164.0
102.511139 192.0
102.565559 220.0
102.605873 144.0
102.835831 172.0
102.933144 216.0
103.086258 160.0
103.167107 276.0
103.254051 152.0
103.290459 140.0
103.45639 188.0
103.674911 108.0
103.698479 124.0
103.760269 344.0
103.794739 156.0
103.832458 220.0
103.961075 144.0
104.013847 156.0
104.040237 156.0
104.097084 192.0
104.188484 248.0
104.409637 264.0
104.446655 148.0
104.505646 176.0
104.570763 164.0
104.603333 200.0
104.619621 192.0
104.686806 144.0
104.788651 168.0
104.81514 152.0
104.874237 172.0
104.937431 156.0
105.112846 152.0
105.245522 180.0
105.278198 188.0
105.333344 180.0
105.396675 188.0
105.470245 204.0
105.515221 160.0
105.539749 184.0
105.588829 156.0
105.68293 152.0
105.809822 144.0
105.973 184.0
105.992111 160.0
106.055641 264.0
106.198204 188.0
106.309738 156.0
106.408478 188.0
106.532906 136.0
106.862686 212.0
106.961472 180.0
107.00058 140.0
107.066475 168.0
107.132385 152.0
107.225105 144.0
107.270454 380.0
107.497322 232.0
107.52002 168.0
107.59227 204.0
107.907318 164.0
108.243279 180.0
108.353333 196.0
108.537796 204.0
108.570976 180.0
108.589638 180.0
108.726562 184.0
108.746719 336.0
108.910652 108.0
109.198174 172.0
109.304268 164.0
109.432968 168.0
109.464554 152.0
109.576393 164.0
109.702065 168.0
109.915321 148.0
109.960709 212.0
109.977409 180.0
110.088058 196.0
110.240555 164.0
110.312752 148.0
110.445442 164.0
110.547958 184.0
110.661194 164.0
110.687317 152.0
110.962685 208.0
111.199722 172.0
111.363487 196.0
111.414047 172.0
111.460121 140.0
111.504463 160.0
111.607262 140.0
112.000793 180.0
112.049248 152.0
112.148285 164.0
112.310638 232.0
112.430901 228.0
112.527832 156.0
112.595566 168.0
112.612465 180.0
112.718094 160.0
112.814194 136.0
112.992256 204.0
113.028931 176.0
113.062508 152.0
113.105408 116.0
113.263924 188.0
113.365616 160.0
113.38681 188.0
113.514008 152.0
113.575508 176.0
113.606316 168.0
113.660637 176.0
113.889648 172.0
113.906639 244.0
114.003334 180.0
114.050049 140.0
114.089188 208.0
114.127327 176.0
114.189926 172.0
114.244637 164.0
114.308464 272.0
114.338211 184.0
114.387207 144.0
114.497925 188.0
114.650513 308.0
114.693214 152.0
114.738152 200.0
114.832535 196.0
114.847458 192.0
114.865143 124.0
114.934929 180.0
115.062988 176.0
115.09288 188.0
115.122772 172.0
115.153625 224.0
115.213562 156.0
115.274445 140.0
115.320328 112.0
115.406967 180.0
115.560966 168.0
115.632973 228.0
115.725769 140.0
115.766457 172.0
115.886406 160.0
115.980698 256.0
116.072884 192.0
116.102905 168.0
116.158669 152.0
116.282852 96.0
116.392601 176.0
116.560143 168.0
116.598824 164.0
116.659912 228.0
116.684807 184.0
116.822441 220.0
117.168671 164.0
117.492424 160.0
117.535576 208.0
117.701775 168.0
117.723373 196.0
117.890114 140.0
117.930771 148.0
118.125374 224.0
118.162155 156.0
118.263863 144.0
118.298492 188.0
118.391594 168.0
118.419746 144.0
118.447906 140.0
118.521568 156.0
118.558403 144.0
118.606087 172.0
118.796906 152.0
119.033478 160.0
119.070396 180.0
119.242027 208.0
119.328979 196.0
119.409439 172.0
119.883301 168.0
119.974548 212.0
120.034241 172.0
120.248978 176.0
120.43222 184.0
120.461388 180.0
120.612991 156.0
120.853546 164.0
121.127197 284.0
121.210457 288.0
121.346344 220.0
121.428619 168.0
121.444336 228.0
121.513031 180.0
121.581055 208.0
121.637146 108.0
121.666656 188.0
121.690804 140.0
121.772057 140.0
121.972 144.0
122.136909 140.0
122.268921 204.0
122.319542 224.0
122.504517 200.0
122.548576 152.0
122.702858 160.0
122.731461 156.0
122.776489 160.0
122.968987 192.0
123.013916 152.0
123.137566 212.0
123.331993 156.0
123.351891 184.0
123.38726 180.0
123.404945 188.0
123.539482 168.0
123.591568 128.0
123.78669 152.0
123.953873 156.0
124.111252 160.0
124.148422 168.0
124.248764 204.0
124.26651 260.0
124.30423 172.0
124.347565 144.0
124.428528 152.0
124.46225 224.0
124.53067 144.0
124.606812 160.0
124.646194 144.0
124.7883 184.0
124.82402 156.0
124.850708 180.0
124.889923 196.0
125.102135 156.0
125.14666 288.0
125.173378 160.0
125.201843 184.0
125.220886 180.0
125.42067 168.0
125.492004 144.0
125.723991 196.0
125.828896 208.0
125.848221 152.0
125.922684 176.0
125.958542 172.0
125.979576 196.0
126.041084 188.0
126.061195 156.0
126.240028 140.0
126.271339 260.0
126.336205 220.0
126.575684 172.0
126.678711 144.0
126.705589 164.0
126.813148 152.0
127.055321 312.0
127.128441 136.0
127.222633 188.0
127.410034 156.0
127.543755 128.0
127.654297 148.0
127.726997 192.0
127.803482 156.0
127.834724 104.0
127.884499 168.0
128.075882 132.0
128.223953 144.0
128.292206 140.0
128.392395 164.0
128.463593 220.0
128.513229 140.0
128.632843 144.0
128.813492 140.0
128.845108 160.0
128.881256 176.0
128.982956 180.0
129.054291 356.0
129.177429 160.0
129.194656 136.0
129.230133 160.0
129.333557 140.0
129.547989 172.0
129.973663 196.0
130.031631 148.0
130.180542 196.0
130.370026 172.0
130.426361 152.0
130.483673 164.0
130.598602 156.0
130.665619 184.0
130.711121 200.0
130.747528 188.0
130.777115 148.0
130.813538 144.0
130.902817 204.0
131.052658 184.0
131.156906 216.0
131.248688 168.0
131.310257 144.0
131.337631 152.0
131.440292 156.0
131.513321 172.0
131.561249 140.0
131.586365 204.0
131.716537 236.0
131.755371 164.0
131.849396 208.0
131.874191 156.0
131.965622 172.0
132.13765 184.0
132.182922 204.0
132.231583 196.0
132.291702 236.0
132.367874 160.0
132.565552 128.0
132.599152 196.0
132.699402 148.0
132.929947 156.0
132.952896 160.0
132.975845 168.0
133.076843 188.0
133.129654 168.0
133.398483 168.0
133.467453 160.0
133.550232 228.0
133.61235 148.0
133.67247 180.0
133.787247 156.0
133.869049 172.0
133.895477 168.0
133.930023 144.0
133.962265 196.0
134.095322 140.0
134.264206 144.0
134.297958 136.0
134.448761 196.0
134.589584 212.0
134.616531 160.0
134.649612 204.0
134.675018 148.0
134.730469 140.0
134.821426 180.0
134.938461 156.0
135.03096 164.0
135.065781 1204.0
135.290115 168.0
135.396179 188.0
135.584274 168.0
135.747528 200.0
135.832596 232.0
135.888046 348.0
135.950684 152.0
136.01799 172.0
136.061966 1264.0
136.211472 236.0
136.285065 192.0
136.378021 192.0
136.394287 180.0
136.436447 240.0
136.470901 184.0
136.584961 168.0
136.605896 168.0
136.664062 192.0
136.780411 216.0
136.826981 148.0
137.038544 148.0
137.059891 208.0
137.120468 140.0
137.168152 168.0
137.241684 196.0
137.391922 240.0
137.439957 184.0
137.551971 212.0
137.884796 132.0
137.952377 128.0
138.15329 352.0
138.391251 200.0
138.412323 180.0
138.58136 152.0
138.674698 208.0
138.712204 152.0
138.782913 196.0
138.897446 144.0
138.932632 160.0
138.988937 272.0
139.02301 108.0
139.115204 156.0
139.145615 160.0
139.167664 168.0
139.276855 188.0
139.344116 204.0
139.42572 252.0
139.710236 168.0
139.809052 152.0
139.963699 184.0
140.02446 200.0
140.302139 124.0
140.329163 144.0
140.462601 164.0
140.612686 160.0
140.749878 208.0
140.777939 140.0
140.98111 396.0
141.030731 176.0
141.279022 148.0
141.347641 160.0
141.369827 212.0
141.402069 204.0
141.487274 228.0
141.665939 108.0
141.698059 168.0
141.816544 160.0
142.07988 144.0
142.158569 164.0
142.330719 184.0
142.409302 140.0
142.627029 140.0
142.687729 140.0
142.782837 164.0
142.899399 140.0
143.154083 160.0
143.196945 184.0
143.368484 152.0
143.400574 112.0
143.677933 188.0
143.765579 220.0
143.900406 160.0
144.01265 156.0
144.036911 280.0
144.065536 168.0
144.223221 208.0
144.460968 276.0
144.529007 148.0
144.710922 228.0
144.856995 156.0
144.943253 168.0
144.972 176.0
145.015152 152.0
145.049744 356.0
145.290909 232.0
145.338882 160.0
145.377274 144.0
145.450241 200.0
145.511917 132.0
145.566925 256.0
145.75679 196.0
146.115189 152.0
146.140915 140.0
146.370056 204.0
146.463989 176.0
146.559967 204.0
146.673615 160.0
146.724243 168.0
146.779694 156.0
146.900894 96.0
146.936478 148.0
147.065216 160.0
147.173187 156.0
147.228531 156.0
147.259933 156.0
147.28653 208.0
147.324188 180.0
147.412125 152.0
147.472549 296.0
147.516052 152.0
147.656296 164.0
147.745346 152.0
147.854675 184.0
147.903091 164.0
147.932129 164.0
147.999924 180.0
148.059143 436.0
148.116211 132.0
148.198532 160.0
148.404556 168.0
148.52095 156.0
148.744751 224.0
148.895554 256.0
149.051178 208.0
149.073151 180.0
149.171509 140.0
149.230057 160.0
149.324097 208.0
149.38327 168.0
149.658768 120.0
149.699036 168.0
149.771179 144.0
149.940857 152.0
149.997345 160.0
150.084671 168.0
150.119904 164.0
150.168411 132.0
150.286453 412.0
150.347504 312.0
150.462845 180.0
150.50412 128.0
150.528778 244.0
150.912399 140.0
151.000427 180.0
151.027328 128.0
151.086044 144.0
151.103912 128.0
151.196152 144.0
151.252304 144.0
151.289154 160.0
151.386322 140.0
151.708069 156.0
151.80368 160.0
151.951111 152.0
151.992569 168.0
152.38559 172.0
152.413055 160.0
152.46405 140.0
152.48468 152.0
152.537781 188.0
152.582031 144.0
152.604156 172.0
152.899017 156.0
153.283508 208.0
153.507828 208.0
153.579178 124.0
153.691208 220.0
153.786911 192.0
153.806351 180.0
153.972595 156.0
154.024902 180.0
154.050812 224.0
154.18045 196.0
154.335022 196.0
154.354797 160.0
154.423645 148.0
154.462387 128.0
154.587326 192.0
154.639786 140.0
154.685608 152.0
154.758621 156.0
154.80249 236.0
154.926529 208.0
155.058884 96.0
155.087601 176.0
155.191711 148.0
155.35788 236.0
155.427856 156.0
155.452164 152.0
155.478806 112.0
155.85939 160.0
155.924316 196.0
155.980042 140.0
156.06073 176.0
156.132843 140.0
156.163895 204.0
156.267166 200.0
156.394073 160.0
156.418961 148.0
156.445618 124.0
156.47374 208.0
156.531006 180.0
156.556732 168.0
156.585785 188.0
156.702866 148.0
156.73761 144.0
156.821365 100.0
156.877319 156.0
156.944626 148.0
157.034409 220.0
157.059341 160.0
157.131683 176.0
157.261444 152.0
157.414795 132.0
157.646057 152.0
157.736023 148.0
157.874512 124.0
157.963577 220.0
158.021118 244.0
158.159409 192.0
158.178772 164.0
158.203613 104.0
158.417923 168.0
158.499344 188.0
158.717422 232.0
158.780106 232.0
158.918304 132.0
159.043549 192.0
159.066147 180.0
159.108368 180.0
159.231277 160.0
159.269531 152.0
159.297165 140.0
159.397659 176.0
159.623886 160.0
159.664124 196.0
159.772278 164.0
159.850143 144.0
159.948441 176.0
160.02594 208.0
160.056686 140.0
160.212845 140.0
160.343872 140.0
160.411926 188.0
160.610077 192.0
160.653915 120.0
161.069687 196.0
161.191589 156.0
161.406143 120.0
161.445496 132.0
161.497864 232.0
161.596344 148.0
161.626709 160.0
161.663406 152.0
161.895905 184.0
161.976578 160.0
162.048386 192.0
162.076523 19760.0
162.279022 96.0
162.384155 340.0
162.412048 144.0
162.436508 200.0
162.496979 168.0
162.653961 176.0
162.724182 200.0
162.749573 148.0
162.793961 116.0
162.829056 172.0
162.903427 100.0
163.027222 144.0
163.080002 1536.0
163.308304 180.0
163.540192 176.0
163.634369 192.0
163.712234 220.0
163.739975 124.0
163.765427 240.0
163.803619 192.0
163.829407 208.0
163.898392 188.0
164.005402 148.0
164.079117 176.0
164.118134 184.0
164.168259 152.0
164.266693 176.0
164.307205 144.0
164.400146 160.0
164.427887 292.0
164.4552 148.0
164.554764 156.0
164.802505 152.0
164.95433 324.0
165.012085 228.0
165.129715 172.0
165.180527 148.0
165.251923 196.0
165.303665 140.0
165.508957 200.0
165.564789 216.0
165.649078 176.0
165.735321 104.0
165.790222 180.0
165.826111 168.0
165.91069 172.0
166.190247 184.0
166.236435 148.0
166.30687 188.0
166.406998 116.0
166.488007 140.0
166.588181 352.0
166.688889 160.0
166.732391 172.0
166.852524 144.0
167.029419 184.0
167.076614 292.0
167.247543 164.0
167.292786 192.0
167.321991 116.0
167.349426 208.0
167.496216 164.0
167.588959 176.0
167.632767 168.0
167.697189 196.0
167.915451 184.0
167.964432 192.0
168.076279 144.0
168.213058 156.0
168.249207 308.0
168.266647 212.0
168.39006 248.0
168.484207 280.0
168.613403 172.0
168.659927 160.0
168.990723 144.0
169.060806 148.0
169.084167 148.0
169.12175 116.0
169.204468 240.0
169.266891 196.0
169.475174 176.0
169.562531 136.0
169.607193 116.0
169.659134 176.0
169.678253 212.0
169.871201 296.0
170.079361 152.0
170.126083 180.0
170.313049 144.0
170.398773 168.0
170.443802 156.0
170.518967 124.0
170.556992 140.0
170.635269 140.0
170.744492 152.0
170.806915 232.0
171.000793 140.0
171.059311 208.0
171.318192 204.0
171.3992 144.0
171.447403 148.0
171.692459 288.0
171.710709 156.0
171.739395 180.0
171.937683 156.0
172.029556 196.0
172.052017 140.0
172.444443 112.0
172.589203 196.0
172.657028 220.0
172.677048 188.0
172.740631 140.0
172.896576 224.0
172.925583 240.0
173.11409 152.0
173.171692 156.0
173.208069 208.0
173.231949 144.0
173.378677 228.0
173.438812 156.0
173.564789 304.0
173.588394 164.0
173.674927 172.0
173.781204 120.0
173.875153 132.0
173.952133 136.0
173.987289 120.0
174.075592 516.0
174.249832 156.0
174.282272 184.0
174.323395 156.0
174.449554 264.0
174.542465 132.0
174.839005 120.0
175.079742 436.0
175.418274 200.0
175.46106 124.0
175.540909 180.0
175.60759 216.0
175.730148 140.0
175.788437 120.0
175.85878 172.0
175.924774 144.0
175.943253 148.0
175.998688 160.0
176.016693 144.0
176.092041 736.0
176.122635 248.0
176.186203 216.0
176.251984 172.0
176.332535 212.0
176.352676 192.0
176.42543 184.0
176.445847 116.0
176.700592 164.0
176.794357 184.0
176.847275 168.0
176.889633 164.0
176.9664 180.0
176.995529 352.0
177.1147 196.0
177.143845 144.0
177.522858 172.0
177.708527 164.0
177.758942 252.0
177.950714 176.0
178.048294 204.0
178.069199 188.0
178.135941 152.0
178.186417 152.0
178.321106 140.0
178.380417 144.0
178.904465 148.0
178.936417 144.0
179.021332 184.0
179.053574 156.0
179.160706 204.0
179.209961 144.0
179.29335 168.0
179.36264 168.0
179.415955 148.0
179.480057 176.0
179.506607 208.0
179.530609 180.0
179.631973 408.0
179.768036 152.0
179.88913 108.0
179.998352 156.0
180.04628 176.0
180.084061 288.0
180.120453 140.0
180.211288 228.0
180.429153 180.0
180.532043 184.0
180.633682 160.0
180.791534 144.0
180.8638 156.0
180.917328 176.0
180.952133 196.0
180.976776 180.0
181.083344 172.0
181.325485 288.0
181.589813 128.0
181.710602 176.0
181.756226 164.0
181.790771 144.0
181.946777 216.0
181.970947 200.0
182.02298 136.0
182.051498 188.0
182.218033 176.0
182.290619 148.0
182.415649 192.0
182.449158 148.0
182.545944 168.0
182.617249 148.0
182.688385 192.0
182.712448 160.0
183.07608 172.0
183.097626 148.0
183.153091 124.0
183.191895 240.0
183.221527 160.0
183.243866 164.0
183.278748 152.0
183.380508 168.0
183.480255 164.0
183.526733 212.0
183.553055 164.0
183.623169 180.0
183.671707 176.0
183.739151 144.0
183.766129 204.0
183.84169 152.0
184.014282 168.0
184.071228 156.0
184.225891 108.0
184.266632 200.0
184.438553 144.0
184.512512 224.0
184.622406 156.0
184.916702 184.0
185.171783 172.0
185.22496 208.0
185.262726 156.0
185.404785 160.0
185.567413 256.0
185.598511 188.0
185.640625 164.0
185.703339 128.0
185.746399 172.0
185.968903 156.0
186.048538 188.0
186.091476 128.0
186.171082 144.0
186.221405 172.0
186.251282 188.0
186.395264 156.0
186.46376 156.0
186.493103 160.0
186.555618 140.0
186.593674 144.0
186.776535 148.0
186.86409 164.0
187.042648 148.0
187.077927 144.0
187.213791 168.0
187.422058 180.0
187.455215 160.0
187.496674 152.0
187.608124 140.0
187.682755 140.0
187.704559 148.0
187.783722 160.0
187.982803 164.0
188.132919 164.0
188.239395 144.0
188.26944 160.0
188.318604 144.0
188.455566 136.0
188.686401 100.0
188.774796 168.0
188.846008 236.0
188.887558 180.0
189.013718 132.0
189.042648 180.0
189.073334 148.0
189.229309 148.0
189.35791 152.0
189.389465 192.0
189.490631 176.0
189.59021 156.0
189.704636 184.0
189.754532 140.0
189.890152 180.0
189.927994 172.0
190.068207 408.0
190.128708 180.0
190.213364 148.0
190.367111 244.0
190.402512 108.0
190.449509 168.0
190.471481 180.0
190.502487 220.0
190.521698 164.0
190.644577 164.0
190.77478 236.0
190.878235 204.0
190.941162 136.0
191.032242 140.0
191.075287 144.0
191.114777 292.0
191.136627 132.0
191.221436 164.0
191.282654 160.0
191.334961 156.0
191.37587 168.0
191.421783 164.0
191.524399 152.0
191.686142 160.0
191.758911 132.0
191.800507 196.0
191.887711 144.0
191.941116 108.0
191.992172 116.0
192.042297 208.0
192.087631 75564.0
192.18866 172.0
192.241318 156.0
192.303726 424.0
192.349976 104.0
192.380707 228.0
192.45433 188.0
192.50679 172.0
192.52803 128.0
192.576965 104.0
192.614441 168.0
192.670441 160.0
192.803375 216.0
192.833466 244.0
192.939514 164.0
193.090332 5656.0
193.217148 148.0
193.246338 116.0
193.270874 180.0
193.383575 120.0
193.424164 208.0
193.453125 176.0
193.499435 188.0
193.595642 204.0
193.648407 176.0
193.682205 176.0
193.831421 144.0
193.912521 160.0
194.00528 312.0
194.028381 256.0
194.094406 528.0
194.31813 160.0
194.383545 144.0
194.425339 120.0
194.461319 136.0
194.497833 104.0
194.549301 144.0
194.58783 216.0
194.609192 160.0
194.7258 124.0
194.756454 136.0
194.851242 248.0
195.033478 164.0
195.099731 120.0
195.211044 152.0
195.421249 128.0
195.45462 232.0
195.488388 148.0
195.535217 112.0
195.587006 140.0
195.673294 160.0
195.866562 148.0
195.895325 232.0
195.917023 140.0
196.03183 144.0
196.145996 176.0
196.212494 104.0
196.305801 140.0
196.350418 152.0
196.431305 176.0
196.473419 184.0
196.669357 140.0
196.694962 108.0
196.79007 108.0
196.816437 204.0
197.049347 144.0
197.10199 144.0
197.130859 184.0
197.287613 192.0
197.343033 140.0
197.366882 140.0
197.400436 220.0
197.513687 236.0
197.576645 176.0
197.68541 136.0
197.713745 192.0
197.73494 144.0
197.792114 200.0
197.867706 152.0
198.055328 168.0
198.083908 120.0
198.204666 156.0
198.243027 344.0
198.348236 104.0
198.478394 104.0
198.621521 224.0
198.702881 140.0
198.801086 160.0
199.056534 188.0
199.127808 164.0
199.354294 232.0
199.42334 288.0
199.626968 168.0
199.713455 96.0
199.956116 144.0
200.06308 152.0
200.106583 168.0
200.164658 160.0
200.320877 212.0
200.401047 204.0
200.629318 152.0
200.810516 172.0
200.86731 112.0
201.110596 224.0
201.450531 348.0
201.489822 136.0
201.519302 244.0
201.625702 156.0
201.663773 136.0
201.81369 152.0
201.879822 108.0
202.093475 104.0
202.14888 208.0
202.488892 116.0
202.716812 176.0
202.75705 148.0
202.784454 128.0
202.920822 164.0
203.07811 152.0
203.19725 184.0
203.221802 184.0
203.415756 268.0
203.515121 152.0
203.581573 120.0
203.638184 180.0
203.697922 132.0
204.103287 176.0
204.306366 244.0
204.448349 120.0
204.598343 176.0
204.651794 120.0
204.817612 164.0
204.845093 132.0
204.883133 148.0
204.917313 172.0
204.940445 172.0
205.016586 148.0
205.065491 140.0
205.093124 156.0
205.119659 156.0
205.304077 140.0
205.347763 188.0
205.664459 176.0
205.787598 208.0
205.864304 224.0
205.987122 164.0
206.01268 156.0
206.144684 188.0
206.272873 192.0
206.318298 112.0
206.481583 288.0
206.527344 140.0
206.654404 300.0
206.807755 180.0
206.935181 132.0
207.006104 136.0
207.071152 180.0
207.09407 188.0
207.182861 224.0
207.283142 200.0
207.33876 108.0
207.540298 140.0
207.673035 232.0
207.698853 176.0
207.921494 160.0
208.033905 336.0
208.083984 1452.0
208.336121 176.0
208.36438 200.0
208.422302 140.0
208.471161 220.0
208.571747 172.0
208.632111 156.0
208.652237 144.0
208.722549 176.0
208.752869 196.0
208.781631 188.0
208.975372 136.0
209.088303 380.0
209.155655 152.0
209.175797 196.0
209.236252 176.0
209.274551 160.0
209.359146 124.0
209.449463 168.0
209.472397 148.0
209.498322 140.0
209.530014 264.0
209.633743 180.0
209.658356 124.0
209.705795 192.0
209.777847 140.0
209.827545 112.0
209.858566 192.0
209.909195 116.0
209.950851 172.0
210.046021 168.0
210.10083 192.0
210.134598 176.0
210.175842 212.0
210.366333 160.0
210.402176 160.0
210.45871 224.0
210.917297 156.0
211.001114 144.0
211.039474 140.0
211.134628 176.0
211.221756 128.0
211.364975 148.0
211.419449 288.0
211.537811 140.0
211.626816 148.0
211.677658 164.0
211.795883 116.0
211.844025 156.0
211.864304 156.0
211.92804 176.0
211.96405 140.0
212.033798 572.0
212.089783 140.0
212.203384 148.0
212.228561 176.0
212.291794 212.0
212.388977 140.0
212.413574 104.0
212.644302 168.0
212.673325 160.0
212.748795 152.0
212.914368 144.0
212.989822 188.0
213.019699 112.0
213.07869 128.0
213.348022 148.0
213.512146 156.0
213.58226 112.0
213.688263 108.0
213.726883 160.0
213.803894 220.0
213.879242 144.0
214.035019 1108.0
214.206909 172.0
214.237747 224.0
214.26297 212.0
214.363022 184.0
214.526245 176.0
214.669098 200.0
214.736176 152.0
214.797424 152.0
214.931625 160.0
214.965286 112.0
215.024628 152.0
215.042099 332.0
215.092148 152.0
215.429565 196.0
215.486389 172.0
215.661713 224.0
215.74649 180.0
215.815262 160.0
216.062332 168.0
216.088669 148.0
216.11499 180.0
216.296432 248.0
216.416473 156.0
216.501389 144.0
216.5793 192.0
216.678009 160.0
216.743912 132.0
216.785538 148.0
216.882889 168.0
216.962952 152.0
217.009232 176.0
217.047073 220.0
217.145477 160.0
217.237061 192.0
217.295731 144.0
217.527725 212.0
217.565155 172.0
217.609772 144.0
217.688156 208.0
217.715485 252.0
217.818283 188.0
217.883835 176.0
218.14151 196.0
218.263062 164.0
218.314987 152.0
218.635635 144.0
218.676849 156.0
218.697449 176.0
218.763672 304.0
218.848587 224.0
218.93306 152.0
219.003662 156.0
219.068466 168.0
219.089081 152.0
219.217987 176.0
219.277664 196.0
219.369034 196.0
219.489349 188.0
219.560944 192.0
219.591293 192.0
219.815521 188.0
219.874832 132.0
219.914154 184.0
219.99147 144.0
220.149216 188.0
220.281693 104.0
220.347504 172.0
220.494125 160.0
220.716339 160.0
220.8685 140.0
220.903351 200.0
220.966721 140.0
221.108749 228.0
221.140305 404.0
221.203461 156.0
221.363342 152.0
221.39296 180.0
221.552902 152.0
221.811951 96.0
221.884827 140.0
221.977188 156.0
222.035782 132.0
222.07756 144.0
222.216995 224.0
222.301208 136.0
222.481125 140.0
222.606995 112.0
222.66066 112.0
222.857361 100.0
222.92482 124.0
223.011795 196.0
223.092377 168.0
223.17485 176.0
223.244843 112.0
223.287201 228.0
223.424637 156.0
223.521378 192.0
223.866669 148.0
223.902405 152.0
223.988785 168.0
224.009644 172.0
224.063263 172.0
224.090073 248.0
224.119873 152.0
224.143707 148.0
224.447739 156.0
224.525726 128.0
224.574371 204.0
224.748672 144.0
224.801743 136.0
224.988647 164.0
225.046463 152.0
225.174362 188.0
225.363266 132.0
225.422882 448.0
225.476089 296.0
225.504532 172.0
225.552353 180.0
225.613419 144.0
225.671448 148.0
225.731735 152.0
225.818466 144.0
225.839401 156.0
225.877274 196.0
225.941788 320.0
226.00853 224.0
226.048248 45952.0
226.195465 180.0
226.275818 176.0
226.44606 156.0
226.457901 116.0
226.503204 136.0
226.696625 168.0
226.84407 196.0
226.903976 172.0
226.944427 180.0
227.007507 140.0
227.04985 4856.0
227.239639 140.0
227.271347 204.0
227.394394 140.0
227.456009 108.0
227.608994 140.0
227.842926 192.0
227.877853 244.0
227.934937 200.0
228.051651 968.0
228.278778 116.0
228.408127 132.0
228.494064 236.0
228.551346 144.0
228.581757 148.0
228.641983 136.0
228.686768 132.0
228.803467 156.0
228.869583 176.0
228.939667 160.0
229.002899 172.0
229.045914 532.0
229.077866 104.0
229.277649 124.0
229.42067 156.0
229.554413 148.0
229.644882 200.0
229.666 160.0
229.699173 140.0
229.720291 144.0
229.997894 144.0
230.042679 204.0
230.125961 172.0
230.173309 116.0
230.260574 148.0
230.286911 184.0
230.517365 172.0
230.604996 144.0
230.792419 156.0
230.817749 128.0
230.865005 140.0
230.897522 148.0
230.916962 132.0
230.961777 144.0
231.043457 108.0
231.135345 268.0
231.191711 172.0
231.299011 132.0
231.383301 136.0
231.452042 144.0
231.474808 200.0
231.500488 172.0
231.681229 196.0
231.72229 212.0
231.754944 368.0
231.806442 160.0
231.854935 212.0
231.891296 272.0
231.942078 144.0
231.9776 108.0
232.046555 220.0
232.115753 148.0
232.221054 168.0
232.306702 116.0
232.593338 204.0
232.632675 144.0
232.702225 220.0
232.783218 168.0
232.929001 144.0
232.953293 140.0
233.006622 260.0
233.091568 164.0
233.183624 200.0
233.310272 128.0
233.392761 344.0
233.426331 144.0
233.482162 396.0
233.532043 144.0
233.622086 148.0
233.727615 168.0
233.745056 200.0
233.778259 312.0
233.848038 140.0
233.916382 208.0
234.02742 192.0
234.113968 144.0
234.17337 176.0
234.261261 136.0
234.415787 148.0
234.524994 112.0
234.553894 168.0
234.719986 320.0
234.867065 152.0
234.950439 188.0
235.05043 180.0
235.081512 144.0
235.121185 232.0
235.257156 168.0
235.359283 140.0
235.411194 144.0
235.501221 160.0
235.546402 148.0
235.592392 136.0
235.667786 172.0
235.873428 124.0
235.908447 220.0
235.964249 140.0
236.616302 156.0
236.830261 200.0
236.891434 140.0
237.049866 164.0
237.116745 252.0
237.266495 200.0
237.300644 200.0
237.354309 140.0
237.397232 212.0
237.447662 172.0
237.480042 172.0
237.68251 164.0
237.725479 144.0
237.900101 236.0
237.978775 104.0
238.048477 8380.0
238.27565 208.0
238.316467 96.0
238.38945 128.0
238.600861 156.0
238.64389 172.0
238.766891 144.0
238.900635 184.0
238.994537 172.0
239.048431 1092.0
239.08992 188.0
239.122177 144.0
239.176743 128.0
239.208847 352.0
239.323242 332.0
239.348511 336.0
239.41832 184.0
239.43895 192.0
239.577148 220.0
239.627335 152.0
239.784286 252.0
239.837112 172.0
239.87532 204.0
239.91127 272.0
240.042206 196.0
240.14772 140.0
240.277847 212.0
240.313248 144.0
240.382385 136.0
240.424637 120.0
240.459259 304.0
240.533218 144.0
240.621887 148.0
240.696548 152.0
240.765793 148.0
240.810242 292.0
240.838043 192.0
240.906754 148.0
240.928024 380.0
240.960831 160.0
241.067337 164.0
241.181015 388.0
241.257111 188.0
241.396393 144.0
241.450714 120.0
241.480713 120.0
241.524536 168.0
241.637115 260.0
241.856537 140.0
241.979126 164.0
242.044144 280.0
242.090591 148.0
242.156784 140.0
242.205185 156.0
242.259705 160.0
242.332199 164.0
242.418961 140.0
242.444153 220.0
242.52861 180.0
242.643005 152.0
242.694839 144.0
242.806473 140.0
242.8685 184.0
242.905731 148.0
243.154541 144.0
243.375626 164.0
243.852737 176.0
243.899368 192.0
244.051331 208.0
244.194733 184.0
244.256943 144.0
244.546524 116.0
244.583664 148.0
244.909622 204.0
244.944 176.0
245.123428 152.0
245.187897 144.0
245.212723 132.0
245.303207 164.0
245.501511 100.0
245.543304 148.0
245.817825 180.0
245.864746 116.0
245.958878 164.0
246.047699 240.0
246.233032 160.0
246.271942 244.0
246.348587 228.0
246.378143 244.0
246.55481 116.0
246.589188 192.0
246.763367 144.0
247.080124 152.0
247.184372 124.0
247.277252 148.0
247.401276 96.0
247.681152 144.0
247.781403 228.0
247.897324 144.0
248.027588 164.0
248.100983 212.0
248.157486 156.0
248.191986 184.0
248.306763 324.0
248.430328 224.0
248.48053 188.0
248.578979 180.0
248.789658 144.0
248.841461 168.0
248.938797 164.0
248.993652 196.0
249.236298 124.0
249.424026 144.0
249.504364 216.0
249.626984 156.0
249.684448 268.0
249.757492 184.0
249.856262 168.0
249.932861 180.0
250.023346 164.0
250.061615 128.0
250.118668 112.0
250.203781 124.0
250.31926 152.0
250.344452 144.0
250.648254 132.0
250.872025 136.0
250.958908 196.0
250.980972 148.0
251.114731 144.0
251.274292 164.0
251.333649 184.0
251.367661 204.0
251.487961 192.0
251.5457 168.0
251.580048 172.0
251.671509 136.0
251.769867 196.0
251.839355 156.0
251.95047 112.0
252.000381 184.0
252.044983 132.0
252.109421 232.0
252.240631 156.0
252.462387 204.0
252.594788 236.0
252.655624 224.0
252.680206 148.0
252.705521 168.0
252.797272 144.0
252.822235 144.0
252.866898 180.0
253.050491 144.0
253.123856 104.0
253.227829 200.0
253.291733 136.0
253.322845 164.0
253.452576 304.0
253.476868 164.0
253.503448 180.0
253.53595 156.0
253.59758 176.0
253.740753 124.0
253.794647 180.0
253.921906 172.0
253.955063 160.0
254.015854 116.0
254.055283 152.0
254.17569 144.0
254.251862 248.0
254.275558 100.0
254.461105 104.0
254.69313 204.0
254.777695 328.0
254.838516 120.0
254.874252 208.0
254.918976 316.0
255.00296 164.0
255.070496 300.0
255.156326 192.0
255.188278 240.0
255.244644 228.0
255.267624 164.0
255.296631 256.0
255.356079 152.0
255.384491 108.0
255.418793 140.0
255.459641 128.0
255.496323 248.0
255.570023 268.0
255.592728 168.0
255.663986 276.0
255.688446 256.0
255.711365 564.0
255.743774 308.0
255.783081 352.0
255.827454 396.0
255.869247 148.0
255.92038 412.0
255.961395 348.0
255.984146 484.0
256.060699 242272.0
256.133118 244.0
256.143707 200.0
256.220245 192.0
256.243347 268.0
256.263519 236.0
256.294006 160.0
256.351318 392.0
256.500214 272.0
256.546051 296.0
256.58374 6568.0
256.632172 168.0
256.664276 220.0
256.739075 168.0
256.90152 128.0
256.994171 152.0
257.061584 46648.0
257.13678 132.0
257.16861 312.0
257.252563 312.0
257.35202 156.0
257.381378 236.0
257.413361 236.0
257.467468 116.0
257.506439 168.0
257.57077 136.0
257.632385 288.0
257.708282 180.0
257.741852 96.0
257.881653 252.0
257.926239 168.0
257.955658 180.0
257.999817 144.0
258.06189 3772.0
258.115326 176.0
258.148804 120.0
258.187683 112.0
258.240356 120.0
258.276947 144.0
258.338318 296.0
258.408539 232.0
258.454712 168.0
258.498047 168.0
258.676178 164.0
258.723969 296.0
258.803223 104.0
258.847198 100.0
258.898834 248.0
258.945129 244.0
259.025665 276.0
259.067078 448.0
259.194855 160.0
259.230042 100.0
259.350037 100.0
259.391449 140.0
259.60434 160.0
259.804535 112.0
259.826965 224.0
259.933594 216.0
259.965698 108.0
260.016876 112.0
260.120209 136.0
260.258331 132.0
260.323425 268.0
260.375183 192.0
260.486084 236.0
260.535583 116.0
260.699646 180.0
260.744202 348.0
260.810822 164.0
260.896973 124.0
261.064819 116.0
261.101501 176.0
261.170197 144.0
261.232452 140.0
261.26181 124.0
261.455475 144.0
261.517761 148.0
261.576324 224.0
261.630402 216.0
261.722565 156.0
261.958557 100.0
262.09729 108.0
262.134857 280.0
262.171387 104.0
262.284424 160.0
262.342957 96.0
262.435455 180.0
262.55072 188.0
262.596222 112.0
262.636017 196.0
262.934631 188.0
262.979828 184.0
263.034698 164.0
263.078949 220.0
263.108307 104.0
263.181244 128.0
263.20697 168.0
263.312378 180.0
263.334961 196.0
263.518127 200.0
264.109131 176.0
264.294617 140.0
264.560547 148.0
264.607819 128.0
264.78244 116.0
265.089752 124.0
265.122894 240.0
265.185638 152.0
265.271912 104.0
265.46582 112.0
265.545502 160.0
265.767609 172.0
265.843994 200.0
265.902405 184.0
266.042969 256.0
266.175079 160.0
266.477142 140.0
266.715515 188.0
267.135254 288.0
267.270477 240.0
267.319183 108.0
267.357208 160.0
267.398987 280.0
267.669403 116.0
267.708557 172.0
267.83371 176.0
267.861115 116.0
267.932404 168.0
268.016144 192.0
268.056702 784.0
268.177216 216.0
268.292908 100.0
268.736694 140.0
268.78891 140.0
268.859131 124.0
268.945801 172.0
269.068024 192.0
269.19696 148.0
269.478699 220.0
269.55722 180.0
269.797943 136.0
270.089172 152.0
270.112061 184.0
270.158813 148.0
270.220551 144.0
270.246704 260.0
270.340546 144.0
270.380371 148.0
270.464691 228.0
270.553741 160.0
270.626373 132.0
270.668427 180.0
270.71109 148.0
270.805847 112.0
270.988586 96.0
271.205688 180.0
271.337952 140.0
271.37616 156.0
271.44696 108.0
271.623932 116.0
271.690002 144.0
271.906342 96.0
271.944855 136.0
271.983063 152.0
272.10791 124.0
272.255341 116.0
272.435486 180.0
272.514282 168.0
272.590637 152.0
272.643402 144.0
272.692505 140.0
272.734497 160.0
272.80014 108.0
273.100616 160.0
273.202179 140.0
273.340942 164.0
273.396759 216.0
273.427582 284.0
273.458832 140.0
273.485168 152.0
273.517059 116.0
273.526215 128.0
273.537598 176.0
273.582092 108.0
273.60791 112.0
273.648254 96.0
273.691406 192.0
273.741974 176.0
273.770081 152.0
273.794647 168.0
273.824768 200.0
273.872345 296.0
273.94165 120.0
273.991791 304.0
274.069763 104916.0
274.139893 284.0
274.21579 120.0
274.301514 220.0
274.378326 196.0
274.42981 208.0
274.480988 140.0
274.561981 168.0
274.610229 132.0
274.741516 200.0
274.766327 200.0
274.884033 116.0
274.947388 444.0
274.99292 180.0
275.071289 10132.0
275.216614 196.0
275.352386 120.0
275.385406 176.0
275.583069 144.0
275.865051 148.0
275.950775 96.0
276.003326 140.0
276.073822 916.0
276.157166 172.0
276.286713 188.0
276.320343 240.0
276.374268 112.0
276.399933 132.0
276.476898 144.0
276.646973 232.0
276.718506 124.0
276.779877 228.0
276.814484 192.0
276.914978 168.0
276.986633 124.0
277.078369 192.0
277.119873 104.0
277.155548 268.0
277.478973 144.0
277.532013 140.0
277.611603 176.0
277.686646 168.0
277.726349 120.0
277.787384 168.0
277.878143 168.0
277.905975 240.0
277.928955 184.0
278.09201 124.0
278.151215 180.0
278.200287 148.0
278.401398 140.0
278.73468 144.0
278.921753 116.0
279.038086 188.0
279.09256 168.0
279.126648 112.0
279.204742 180.0
279.340485 204.0
279.405212 196.0
279.603699 128.0
279.974396 176.0
280.098785 132.0
280.151276 184.0
280.228699 188.0
280.319733 120.0
280.484711 160.0
280.607483 156.0
280.858856 200.0
281.000519 128.0
281.150604 136.0
281.211273 156.0
281.338104 156.0
281.442566 224.0
281.639923 124.0
282.012543 224.0
282.105652 188.0
282.256897 184.0
282.829681 132.0
282.863708 116.0
283.102966 152.0
283.215698 120.0
283.266937 272.0
283.386566 104.0
283.701691 136.0
283.937958 108.0
284.051941 1020.0
284.140747 244.0
284.261902 100.0
284.336823 140.0
284.501678 220.0
284.602386 224.0
284.872375 156.0
284.916016 112.0
285.05307 164.0
285.091766 152.0
285.122437 348.0
285.155823 128.0
285.253754 140.0
285.426697 264.0
285.520752 164.0
285.624023 172.0
285.952728 144.0
286.01358 124.0
286.069336 7944.0
286.507751 140.0
286.548584 176.0
286.615051 172.0
286.777008 96.0
286.9104 160.0
287.070648 960.0
287.109344 148.0
287.146698 152.0
287.365692 140.0
287.450043 320.0
287.536285 116.0
287.893188 176.0
288.078522 148.0
288.20462 188.0
288.439606 232.0
288.536346 180.0
288.62207 136.0
288.710083 236.0
288.835938 204.0
289.014526 152.0
289.042999 172.0
289.246216 172.0
289.4617 112.0
289.47641 96.0
289.540344 120.0
289.694885 148.0
289.781952 152.0
289.950653 108.0
290.169464 144.0
290.315277 176.0
290.386505 148.0
290.873535 156.0
290.937317 108.0
291.042725 136.0
291.096588 132.0
291.133118 172.0
291.350494 156.0
291.380554 100.0
291.528656 176.0
291.848175 196.0
291.895142 180.0
292.097015 120.0
292.137878 104.0
292.282074 140.0
292.392487 264.0
292.438629 144.0
292.532593 112.0
292.598602 200.0
292.683746 148.0
292.83017 172.0
292.881256 172.0
293.108704 120.0
293.140167 216.0
293.36734 160.0
293.489777 156.0
293.575409 144.0
293.613373 124.0
293.685669 140.0
293.748016 164.0
294.118744 168.0
294.204315 176.0
294.238464 144.0
294.313568 228.0
294.58667 108.0
294.868439 148.0
295.188324 152.0
295.407227 148.0
295.540894 160.0
295.704895 172.0
295.908295 268.0
296.146576 212.0
296.512054 160.0
296.717712 272.0
297.336243 156.0
297.401459 216.0
297.46521 124.0
297.521606 156.0
297.649445 140.0
297.877045 108.0
298.267029 144.0
298.584473 184.0
298.941132 196.0
299.321472 124.0
299.39444 176.0
299.743469 396.0
299.798615 148.0
299.960724 180.0
300.064026 176.0
300.230682 212.0
300.295044 148.0
300.491669 140.0
300.519287 184.0
300.899017 132.0
301.022247 196.0
301.078461 152.0
301.188782 132.0
301.254425 132.0
301.351349 160.0
301.396271 156.0
301.714478 180.0
301.997803 156.0
302.125793 164.0
302.198242 200.0
302.260712 140.0
302.453827 140.0
302.683014 148.0
302.766113 148.0
302.802582 152.0
302.952576 172.0
303.03775 156.0
303.234528 300.0
303.27887 172.0
303.344757 160.0
303.400208 140.0
303.431396 184.0
303.637024 160.0
303.757568 176.0
303.842804 340.0
303.975952 144.0
304.156067 156.0
304.290131 132.0
304.324249 224.0
304.34729 152.0
304.587006 156.0
304.648651 128.0
304.816833 176.0
304.858002 152.0
304.923645 220.0
305.205261 172.0
305.243835 216.0
305.316864 184.0
305.351654 188.0
305.394531 196.0
305.486694 212.0
305.54776 144.0
305.635162 152.0
305.817871 172.0
305.856842 164.0
306.071991 200.0
306.099854 148.0
306.124115 132.0
306.176483 168.0
306.250214 164.0
306.441193 140.0
306.524841 168.0
306.633118 264.0
307.138611 152.0
307.393097 188.0
307.421021 236.0
307.472626 144.0
307.601074 160.0
307.692169 116.0
308.075439 192.0
308.2677 112.0
308.353455 164.0
308.44281 148.0
308.487793 176.0
308.807953 244.0
309.194397 132.0
309.329315 164.0
309.448334 160.0
309.651428 164.0
309.710999 140.0
310.03421 188.0
310.104584 1276.0
310.597076 220.0
310.703033 128.0
310.822296 192.0
310.846863 172.0
310.992706 108.0
311.103577 288.0
311.254059 204.0
311.321533 132.0
311.351471 156.0
311.510437 144.0
311.554779 256.0
311.795258 204.0
311.898712 120.0
312.116547 348.0
312.35025 132.0
312.480713 128.0
312.554504 148.0
312.607391 164.0
312.765778 144.0
312.804688 104.0
313.10376 176.0
313.128418 196.0
313.163635 152.0
313.377594 156.0
313.671021 180.0
313.745056 204.0
313.84024 236.0
313.981293 156.0
314.047729 144.0
314.111786 148.0
314.446991 188.0
314.534821 144.0
314.725861 140.0
314.76947 156.0
314.863129 140.0
314.946045 128.0
315.062683 240.0
315.227448 148.0
315.363464 104.0
315.439514 180.0
315.488983 144.0
315.637482 148.0
315.723022 104.0
315.754181 148.0
315.803711 196.0
315.971375 148.0
316.054871 112.0
316.093781 176.0
316.175171 172.0
316.24646 116.0
316.320312 228.0
316.384552 160.0
316.50943 152.0
316.704163 180.0
316.752289 168.0
317.351227 140.0
317.473999 180.0
317.585266 172.0
318.003937 172.0
318.092682 156.0
318.472595 240.0
318.497467 312.0
318.564972 152.0
318.720062 152.0
318.852753 140.0
318.964111 172.0
319.168579 304.0
319.260986 156.0
319.375397 164.0
319.40741 160.0
319.461151 156.0
319.499908 148.0
319.524811 144.0
319.6716 144.0
320.05899 148.0
320.09787 216.0
320.179779 180.0
320.276917 200.0
320.322235 112.0
320.463684 188.0
320.653198 148.0
320.871033 180.0
321.060028 184.0
321.227661 180.0
321.276093 184.0
321.625885 224.0
321.720917 160.0
321.787933 152.0
321.832336 156.0
321.931061 140.0
322.100555 164.0
322.452362 192.0
322.572083 152.0
322.724121 152.0
322.770325 200.0
322.849182 172.0
322.884949 160.0
322.942169 168.0
323.287048 100.0
323.606384 144.0
323.76532 180.0
324.037567 248.0
324.258789 304.0
324.456116 96.0
324.664825 204.0
324.822632 180.0
324.923523 288.0
324.982849 108.0
325.173004 192.0
325.195984 160.0
325.267578 192.0
325.35733 152.0
325.46225 168.0
325.596069 132.0
325.651093 124.0
326.032593 164.0
326.273071 124.0
326.371887 164.0
326.437103 160.0
326.499969 188.0
326.889587 144.0
326.96637 212.0
327.033905 196.0
327.153168 132.0
327.262817 184.0
327.33844 148.0
327.544495 152.0
327.576141 148.0
327.666809 120.0
327.756287 140.0
327.818787 104.0
327.893433 132.0
327.931 148.0
328.082153 96.0
328.312531 140.0
328.787598 208.0
329.011169 200.0
329.372498 140.0
329.625153 116.0
329.81369 168.0
329.856323 112.0
329.92984 264.0
330.064575 120.0
330.229126 144.0
330.43454 132.0
330.529755 116.0
330.581848 120.0
330.916168 172.0
330.981842 188.0
331.275208 148.0
331.47937 160.0
331.545074 140.0
331.586365 188.0
331.598663 164.0
331.662933 148.0
331.713898 124.0
331.752838 248.0
331.902679 148.0
331.983582 160.0
332.332245 216.0
332.500763 188.0
332.557007 224.0
332.621613 188.0
332.901306 132.0
333.009033 164.0
333.040436 124.0
333.16687 140.0
333.230621 156.0
333.36142 236.0
333.49588 180.0
333.712097 112.0
334.05127 200.0
334.082397 188.0
334.183197 140.0
334.411957 172.0
334.532562 152.0
334.645416 164.0
334.846558 152.0
335.01239 136.0
335.449341 108.0
335.511993 108.0
335.868622 116.0
335.89444 308.0
335.940857 220.0
335.993927 236.0
336.128906 152.0
336.541382 148.0
336.856567 180.0
337.119049 132.0
337.246429 156.0
337.290283 184.0
337.352814 148.0
337.523041 192.0
337.593719 160.0
337.743683 168.0
337.815857 184.0
337.949371 188.0
337.981476 224.0
338.032715 148.0
338.364502 264.0
338.67337 268.0
338.839996 116.0
338.987457 148.0
339.036072 168.0
339.077057 204.0
339.142365 264.0
339.280243 176.0
339.329315 192.0
339.375549 164.0
339.481873 152.0
339.505951 168.0
339.56424 132.0
339.593353 172.0
339.663025 140.0
339.72995 176.0
340.116058 17480.0
340.326599 188.0
340.401703 152.0
340.477661 144.0
340.584778 176.0
340.630798 124.0
340.671173 176.0
340.726135 140.0
340.773621 300.0
340.878876 188.0
340.956421 208.0
341.010559 152.0
341.044434 184.0
341.117371 3312.0
341.358398 104.0
341.427063 96.0
341.491943 120.0
341.533234 128.0
341.592834 112.0
341.697968 124.0
341.850739 252.0
342.126099 244.0
342.333618 196.0
342.40863 232.0
342.470306 172.0
342.533844 156.0
342.633331 140.0
342.721741 108.0
342.990753 168.0
343.049744 168.0
343.111237 124.0
343.407288 120.0
343.463165 108.0
343.505554 156.0
343.76355 128.0
343.816925 228.0
343.889343 148.0
343.956299 204.0
344.075317 100.0
344.326416 208.0
344.511078 168.0
344.888 156.0
345.06543 176.0
345.302094 144.0
345.569946 176.0
345.637238 128.0
345.919556 140.0
345.990326 176.0
346.356506 100.0
346.468079 148.0
346.521118 152.0
346.555145 216.0
346.586792 96.0
346.827515 152.0
346.964661 180.0
347.116699 188.0
347.365173 168.0
347.515289 144.0
347.564087 176.0
347.621185 188.0
347.821594 168.0
347.853882 172.0
348.007202 196.0
348.183563 188.0
348.233734 168.0
348.419464 148.0
348.649841 156.0
348.914948 136.0
348.999237 148.0
349.188904 180.0
349.356079 152.0
349.529144 156.0
349.55719 156.0
349.61673 140.0
350.018768 148.0
350.088654 104.0
350.126068 176.0
350.16983 204.0
350.234772 164.0
350.469788 144.0
350.701721 124.0
350.871979 156.0
350.897522 128.0
351.178986 120.0
351.372925 136.0
351.620728 104.0
351.655334 168.0
351.817719 124.0
351.860626 176.0
351.914764 112.0
352.061127 172.0
352.166931 204.0
352.263947 152.0
352.340179 148.0
352.394714 168.0
352.500732 160.0
352.732422 136.0
352.76944 132.0
352.921417 108.0
353.082489 144.0
353.138611 260.0
353.164795 308.0
353.366791 196.0
353.465271 260.0
353.552582 160.0
353.741028 156.0
353.799896 132.0
353.86264 148.0
353.980499 104.0
354.040283 164.0
354.257782 180.0
354.354584 124.0
354.420227 124.0
354.894897 140.0
354.988647 184.0
355.168671 156.0
355.264954 144.0
355.348724 180.0
355.555115 208.0
355.804047 136.0
355.918549 108.0
356.12027 112.0
356.152069 156.0
356.333191 148.0
356.515106 160.0
356.542816 164.0
356.634949 108.0
356.775848 160.0
356.807465 212.0
356.881134 188.0
356.951355 276.0
356.977173 296.0
357.035309 216.0
357.124451 136.0
357.230652 128.0
357.299957 152.0
357.428894 184.0
357.54245 148.0
357.588501 184.0
357.734283 176.0
357.780304 100.0
357.823212 288.0
357.877838 260.0
357.915314 384.0
358.001343 300.0
358.059601 184.0
358.126984 49336.0
358.243225 120.0
358.367218 96.0
358.474915 220.0
358.606995 128.0
358.634064 104.0
358.688782 124.0
358.778473 100.0
358.875336 216.0
358.907501 284.0
358.988037 136.0
359.038788 212.0
359.129791 7312.0
359.348602 208.0
359.66922 132.0
360.064301 132.0
360.131653 1304.0
360.255585 128.0
360.422577 160.0
360.53302 220.0
360.934662 104.0
361.017426 124.0
361.129303 300.0
361.151459 268.0
361.235443 172.0
361.272949 104.0
361.367584 172.0
361.489166 152.0
361.520355 108.0
361.631683 172.0
361.719757 216.0
361.812225 208.0
361.847351 204.0
361.988129 128.0
362.096222 176.0
362.170471 192.0
362.24826 144.0
362.319794 192.0
362.461792 176.0
362.537994 112.0
362.592529 152.0
362.897491 124.0
362.921661 192.0
363.278198 148.0
363.339508 140.0
363.462616 116.0
363.616516 148.0
363.671692 148.0
363.771942 144.0
363.784088 136.0
363.893616 492.0
364.159424 176.0
364.269592 164.0
364.317474 208.0
364.370148 152.0
364.502686 136.0
364.557129 112.0
364.61084 212.0
364.683746 172.0
364.725555 160.0
364.809204 152.0
364.876099 100.0
364.974487 168.0
365.003082 156.0
365.044647 112.0
365.171967 140.0
365.225098 180.0
365.375824 176.0
365.437469 224.0
365.487427 132.0
365.581299 160.0
365.643555 188.0
365.947906 120.0
366.211975 128.0
366.28183 144.0
366.312317 156.0
366.556152 152.0
366.652985 192.0
366.745483 180.0
366.863678 104.0
367.124115 160.0
367.274323 104.0
367.427246 180.0
367.494141 148.0
367.589508 168.0
367.644409 208.0
367.715332 112.0
367.801819 160.0
367.848724 144.0
367.934937 120.0
367.977325 140.0
368.029114 148.0
368.122162 180.0
368.276703 152.0
368.307251 156.0
368.888611 168.0
369.140991 132.0
369.201599 208.0
369.228149 152.0
369.303253 180.0
369.356018 224.0
369.601501 176.0
369.708588 152.0
369.782166 148.0
370.055664 216.0
370.127533 19696.0
370.201691 260.0
370.415619 168.0
370.48114 120.0
370.54895 184.0
370.589874 172.0
370.650574 216.0
370.708405 136.0
370.865143 188.0
371.015564 140.0
371.07785 164.0
371.128906 2948.0
371.183502 124.0
371.355011 168.0
371.421539 200.0
371.453674 148.0
371.575439 124.0
371.668518 160.0
371.744049 132.0
371.859802 136.0
371.946167 160.0
372.033112 216.0
372.132324 744.0
372.322845 136.0
372.446442 144.0
372.520813 332.0
372.611267 148.0
372.816681 144.0
373.127594 112.0
373.166565 168.0
373.262573 148.0
373.545929 148.0
373.603424 116.0
373.730255 168.0
373.805725 164.0
373.85376 164.0
374.010284 172.0
374.11618 160.0
374.141541 160.0
374.23587 156.0
374.397797 160.0
374.429565 176.0
374.546783 244.0
374.698242 144.0
374.773071 160.0
374.993286 172.0
375.15683 192.0
375.280212 228.0
375.601379 140.0
375.760162 164.0
375.933685 164.0
376.001556 140.0
376.073151 196.0
376.404236 232.0
376.459015 140.0
376.505707 156.0
376.648407 112.0
376.72229 156.0
376.856323 284.0
376.997925 144.0
377.318481 184.0
378.087738 104.0
378.483765 208.0
379.007355 96.0
379.068512 188.0
379.132233 332.0
379.238739 172.0
379.278656 108.0
379.324371 156.0
379.408234 132.0
379.971619 156.0
380.18396 116.0
380.45517 128.0
380.51181 128.0
380.713379 120.0
380.774139 172.0
380.828552 192.0
381.039276 152.0
381.151947 168.0
381.365692 152.0
381.447601 160.0
381.57019 112.0
381.613312 184.0
381.719543 228.0
381.862701 140.0
381.988464 144.0
382.081177 140.0
382.194031 176.0
382.332733 272.0
382.997284 120.0
383.184906 156.0
383.226227 112.0
383.366089 168.0
383.413391 144.0
383.586517 116.0
383.662933 200.0
383.871063 104.0
384.162903 188.0
384.594482 164.0
384.723419 264.0
384.824921 288.0
384.860931 148.0
384.954987 116.0
385.032135 164.0
385.295715 200.0
385.38031 144.0
385.603821 100.0
385.777588 264.0
386.160065 256.0
386.29599 124.0
386.369476 156.0
386.463501 120.0
386.520996 160.0
386.623688 120.0
386.697388 180.0
386.756104 236.0
386.800262 252.0
386.894409 132.0
387.113647 120.0
387.210266 144.0
387.296417 100.0
387.629425 284.0
387.914032 148.0
387.957581 188.0
388.079285 160.0
388.137909 1848.0
388.189972 264.0
388.264954 100.0
388.35611 180.0
388.42923 164.0
388.46814 152.0
388.530853 128.0
388.833344 180.0
388.886383 116.0
388.940125 412.0
389.015656 152.0
389.14212 316.0
389.380066 188.0
389.607513 124.0
389.69928 240.0
389.754211 128.0
389.820557 216.0
389.903503 220.0
389.944824 180.0
389.9841 188.0
390.035461 144.0
390.134705 116.0
390.255005 316.0
390.290741 148.0
390.320312 100.0
390.618896 136.0
390.924774 176.0
391.194275 128.0
391.899048 176.0
391.956299 144.0
392.110199 144.0
392.235565 232.0
392.712646 188.0
392.852356 192.0
393.058685 140.0
393.188904 132.0
393.757019 124.0
393.804321 168.0
394.169373 156.0
394.227539 156.0
394.365295 104.0
394.485321 124.0
394.592316 196.0
394.671387 212.0
394.728424 112.0
394.814087 128.0
394.877014 144.0
394.950012 96.0
394.966248 128.0
395.093872 144.0
395.178467 156.0
395.260742 140.0
395.315216 316.0
395.430084 192.0
395.542969 204.0
395.895721 136.0
396.016876 168.0
396.071259 120.0
396.266449 168.0
396.339142 196.0
396.420105 128.0
396.523407 160.0
396.589233 136.0
397.046783 152.0
397.09491 140.0
397.228058 212.0
397.285309 272.0
397.539246 184.0
397.724121 192.0
397.827423 192.0
397.907104 188.0
398.379547 156.0
398.466431 180.0
398.542267 200.0
398.631287 240.0
398.751923 356.0
398.913452 180.0
399.154083 184.0
399.284332 116.0
399.68103 152.0
399.884003 180.0
400.083008 144.0
400.138123 780.0
400.329865 168.0
400.776001 176.0
400.835785 172.0
400.875946 148.0
400.907501 272.0
400.97525 176.0
401.011108 148.0
401.139099 288.0
401.198456 148.0
401.233185 124.0
401.424194 136.0
401.548096 96.0
401.779205 128.0
401.833496 204.0
401.939117 108.0
401.9711 128.0
402.091309 100.0
402.143219 184.0
402.220917 180.0
402.365723 252.0
402.428986 148.0
402.549164 172.0
402.682526 112.0
402.758698 196.0
402.786682 192.0
402.874542 120.0
402.944275 176.0
402.994415 160.0
403.091339 140.0
403.134125 352.0
403.210175 144.0
403.42926 312.0
403.539856 128.0
403.67392 144.0
403.808502 104.0
404.151093 132.0
404.278381 148.0
404.490082 168.0
404.75769 132.0
404.909668 156.0
405.007538 208.0
405.20993 144.0
405.249176 212.0
405.408081 172.0
405.587616 176.0
405.820129 184.0
405.868225 168.0
405.948425 208.0
406.068756 212.0
406.131897 140.0
406.591858 124.0
406.737427 280.0
407.085266 136.0
407.132263 176.0
407.35318 120.0
407.409393 156.0
407.617493 152.0
407.763 188.0
408.244202 132.0
408.277588 140.0
408.394226 144.0
408.62674 160.0
408.706116 128.0
408.760712 128.0
408.848846 400.0
408.897675 216.0
409.078278 196.0
409.200897 140.0
409.375488 112.0
409.464813 152.0
409.600922 232.0
409.805573 128.0
409.883362 272.0
409.932129 192.0
409.97644 148.0
410.046478 116.0
410.105713 108.0
410.24649 232.0
410.561615 184.0
410.669891 244.0
410.772522 180.0
410.855438 148.0
410.936127 204.0
410.964386 196.0
411.04837 176.0
411.150543 116.0
411.195496 176.0
411.311432 176.0
411.432526 140.0
411.610199 140.0
411.722168 148.0
411.791901 192.0
412.031067 204.0
413.02652 132.0
413.192657 152.0
413.298035 112.0
413.631439 176.0
413.842133 204.0
413.890717 144.0
413.945404 152.0
413.997498 132.0
414.056061 136.0
414.146118 124.0
414.197845 144.0
414.434479 124.0
414.603668 248.0
414.684723 212.0
414.763 156.0
415.092133 140.0
415.376984 140.0
415.471375 152.0
415.544708 152.0
415.829987 128.0
416.063873 200.0
416.131653 208.0
416.4263 188.0
416.59314 140.0
416.758392 148.0
416.976196 212.0
417.236816 212.0
417.484406 152.0
417.61615 276.0
417.742676 144.0
417.849792 172.0
418.088531 176.0
418.120636 140.0
418.295654 160.0
418.427124 176.0
418.629517 148.0
418.868988 160.0
419.163147 156.0
419.238342 184.0
419.438934 172.0
419.619629 216.0
419.721558 156.0
419.901001 152.0
420.028809 180.0
420.270691 204.0
420.398712 140.0
420.558228 136.0
420.592285 112.0
420.930908 140.0
421.023315 244.0
421.178497 152.0
421.211182 144.0
421.245483 152.0
421.369354 276.0
421.415192 136.0
421.456299 176.0
421.521667 160.0
421.574982 176.0
422.122101 240.0
422.178833 168.0
422.262604 164.0
422.34613 120.0
422.396942 136.0
422.550995 140.0
422.726135 124.0
422.815887 192.0
423.253693 148.0
423.309845 228.0
423.568542 116.0
423.6492 228.0
423.856506 180.0
423.894135 144.0
423.936005 280.0
424.077576 144.0
424.214722 168.0
424.833923 180.0
424.87973 100.0
425.055908 152.0
425.31192 164.0
425.344818 104.0
426.016205 176.0
426.075867 184.0
426.171631 192.0
426.257355 156.0
426.310272 140.0
426.374481 248.0
426.418457 148.0
426.534332 176.0
426.609863 148.0
426.74762 128.0
426.849243 176.0
427.090881 160.0
427.197021 292.0
427.300598 144.0
427.360565 156.0
427.47168 188.0
427.526642 212.0
427.605713 112.0
427.67746 196.0
427.787415 184.0
427.857056 224.0
427.994598 204.0
428.083282 388.0
428.451141 140.0
428.539001 176.0
428.630402 136.0
428.736023 148.0
428.882904 168.0
428.991455 152.0
429.125183 136.0
429.265625 136.0
429.387299 184.0
429.420197 172.0
429.692535 168.0
429.730591 196.0
429.782043 132.0
430.088684 156.0
430.360901 128.0
430.460114 124.0
430.63443 180.0
430.861572 120.0
430.905609 116.0
431.09198 308.0
431.174927 144.0
431.203857 188.0
431.277466 168.0
431.516022 120.0
431.629639 240.0
431.665344 196.0
431.861237 156.0
432.15979 324.0
432.19632 140.0
432.251373 128.0
432.368805 176.0
432.452881 144.0
432.487915 108.0
432.655731 112.0
432.843994 148.0
433.000275 132.0
433.123657 212.0
433.397064 148.0
433.490479 156.0
433.635071 120.0
433.743958 96.0
433.856293 180.0
433.989777 192.0
434.130646 140.0
434.190399 136.0
434.313385 200.0
434.528015 176.0
434.575409 112.0
434.607788 220.0
434.636841 204.0
434.670044 168.0
434.708527 132.0
435.203583 104.0
435.308777 196.0
435.469299 164.0
435.656677 184.0
435.730103 164.0
435.772919 156.0
435.814056 184.0
435.844086 240.0
435.973114 140.0
436.04657 160.0
436.304688 160.0
436.352875 100.0
436.392334 208.0
436.468628 240.0
436.511749 144.0
436.595947 164.0
436.664154 228.0
436.815704 132.0
436.911377 140.0
437.020355 192.0
437.111755 148.0
437.171631 140.0
437.247986 172.0
437.279816 148.0
437.30896 176.0
437.356049 140.0
437.440491 196.0
437.526947 120.0
437.650299 176.0
437.815613 120.0
437.849579 136.0
437.914276 124.0
437.964172 236.0
438.054291 184.0
438.106781 232.0
438.171265 100.0
438.309418 132.0
438.40332 156.0
438.5336 132.0
438.653137 144.0
438.955841 152.0
439.019012 128.0
439.073517 100.0
439.111206 136.0
439.165894 132.0
439.212219 228.0
439.267303 288.0
439.356598 124.0
439.410248 108.0
439.492584 252.0
439.533386 256.0
439.581329 236.0
439.634644 156.0
439.751251 140.0
439.764374 124.0
439.841919 108.0
439.88736 172.0
439.94751 100.0
439.995941 184.0
440.082947 152.0
440.160309 136.0
440.280396 444.0
440.373962 188.0
440.422485 164.0
440.473999 156.0
440.5784 280.0
440.595398 444.0
440.638275 176.0
440.700012 220.0
440.74704 136.0
440.826569 180.0
440.868744 256.0
440.913025 216.0
441.042023 236.0
441.092804 280.0
441.127716 160.0
441.1745 340.0
441.192108 152.0
441.206482 316.0
441.239319 248.0
441.306702 164.0
441.336548 264.0
441.404053 336.0
441.48056 296.0
441.535889 520.0
441.623383 388.0
441.685486 308.0
441.726593 516.0
441.794342 152.0
441.880157 288.0
441.919312 308.0
442.011963 424.0
442.094543 940.0
442.125244 876.0
442.187164 222724.0
442.308075 148.0
442.342102 196.0
442.462677 212.0
442.480316 140.0
442.582794 424.0
442.660706 440.0
442.671417 280.0
442.812286 156.0
442.878326 6336.0
442.925232 520.0
442.936188 448.0
442.951752 556.0
443.018707 500.0
443.064758 364.0
443.188538 109212.0
443.319794 228.0
443.448883 128.0
443.503967 164.0
443.564728 192.0
443.623688 228.0
443.678894 196.0
443.719269 188.0
443.828247 152.0
443.879364 572.0
443.935547 280.0
443.971924 112.0
444.030701 196.0
444.077606 184.0
444.189514 13408.0
444.312225 104.0
444.346527 172.0
444.571259 228.0
444.625793 288.0
444.689301 192.0
444.924561 144.0
445.02536 332.0
445.062561 140.0
445.103424 152.0
445.192963 1536.0
445.25412 232.0
445.310211 260.0
445.374054 204.0
445.478943 152.0
445.518005 188.0
445.553619 324.0
445.60257 232.0
445.657288 360.0
445.713104 312.0
445.76709 236.0
445.806549 220.0
445.875824 432.0
445.93103 280.0
446.008911 288.0
446.036804 228.0
446.071045 232.0
446.109467 304.0
446.187805 228.0
446.19693 304.0
446.251129 392.0
446.393219 112.0
446.453918 224.0
446.505676 216.0
446.546692 120.0
446.596375 128.0
446.655609 148.0
446.708832 168.0
446.759491 168.0
446.967682 148.0
447.003876 260.0
447.069061 116.0
447.103424 152.0
447.153748 248.0
447.215637 196.0
447.277832 144.0
447.454865 156.0
447.562653 184.0
447.644592 108.0
447.767914 156.0
447.979065 136.0
448.106964 156.0
448.161377 100.0
448.226776 184.0
448.374084 108.0
448.426025 172.0
448.556091 228.0
448.624084 188.0
448.677551 176.0
448.861633 124.0
448.930725 212.0
448.967133 172.0
449.020508 140.0
449.2995 176.0
449.444153 168.0
449.690308 192.0
450.055115 164.0
450.132477 116.0
450.212189 104.0
450.275604 124.0
450.351257 172.0
450.440979 96.0
450.515442 96.0
450.795319 160.0
450.873413 144.0
451.078308 104.0
451.152649 188.0
451.750641 104.0
451.984802 144.0
452.090973 140.0
452.167786 136.0
452.279266 124.0
452.61972 144.0
453.123962 160.0
453.212738 220.0
453.28476 240.0
453.335602 140.0
453.751007 248.0
453.78067 148.0
454.105896 264.0
454.152557 144.0
454.512238 108.0
454.652344 136.0
454.979675 228.0
455.057037 196.0
455.451416 108.0
455.613617 144.0
455.897034 148.0
456.200134 128.0
456.65976 160.0
456.785248 104.0
456.987305 144.0
457.199005 128.0
457.432465 120.0
457.683136 108.0
458.075134 276.0
458.313293 168.0
458.489624 144.0
458.712097 140.0
458.751434 156.0
459.144928 148.0
459.193909 260.0
459.472137 156.0
459.537628 96.0
459.849945 104.0
460.072906 160.0
460.147736 144.0
460.512695 312.0
460.654205 128.0
460.760315 128.0
460.794067 176.0
461.003845 104.0
462.108368 116.0
462.40451 100.0
462.438934 216.0
462.861145 136.0
462.918915 100.0
462.97467 152.0
463.057983 108.0
463.131073 136.0
463.201599 100.0
463.251343 248.0
463.535217 136.0
463.687286 164.0
464.306213 152.0
464.351807 236.0
464.387451 212.0
464.476593 264.0
464.69928 144.0
464.898987 176.0
465.028259 268.0
465.469574 112.0
465.50531 220.0
465.911682 164.0
466.073212 168.0
466.139191 124.0
466.179901 152.0
466.647186 104.0
467.018982 168.0
467.049103 144.0
467.238281 104.0
467.367249 164.0
467.438446 260.0
467.478699 188.0
467.64682 100.0
467.838715 184.0
468.202545 176.0
468.331177 284.0
468.401886 156.0
468.528442 152.0
468.583801 228.0
468.629669 232.0
468.671112 96.0
468.842682 108.0
468.989014 140.0
469.250458 128.0
469.325989 136.0
469.356995 248.0
469.469086 260.0
469.553131 252.0
469.800446 176.0
470.004669 152.0
470.043274 148.0
470.212097 120.0
470.387878 212.0
470.468048 96.0
470.564941 120.0
470.635315 352.0
470.699524 256.0
470.770111 200.0
470.809204 124.0
470.877625 116.0
471.004211 212.0
471.039368 180.0
471.141846 120.0
471.169708 152.0
471.214783 176.0
471.268524 184.0
471.297852 344.0
471.329346 216.0
471.379761 180.0
471.452209 200.0
471.524933 272.0
471.576569 232.0
471.62262 268.0
471.655823 220.0
471.712402 392.0
471.777008 196.0
471.857513 368.0
471.93454 220.0
471.981201 344.0
472.074219 528.0
472.1091 664.0
472.130524 700.0
472.141907 1028.0
472.197632 208836.0
472.344055 152.0
472.471252 148.0
472.511902 128.0
472.561646 392.0
472.606445 420.0
472.697266 356.0
472.743805 264.0
472.79834 420.0
472.851715 156.0
472.910858 2920.0
472.956787 316.0
472.970306 236.0
473.065826 416.0
473.110168 428.0
473.199341 93624.0
473.32666 280.0
473.388428 140.0
473.466248 184.0
473.617523 208.0
473.657349 240.0
473.712921 156.0
473.778748 128.0
473.827057 152.0
473.940582 188.0
474.021088 220.0
474.060333 204.0
474.131775 144.0
474.19989 9100.0
474.313416 204.0
474.491119 136.0
474.696594 348.0
474.758728 160.0
474.819824 112.0
474.919403 152.0
474.964661 208.0
475.081024 104.0
475.207489 1276.0
475.308411 120.0
475.528931 140.0
475.63385 236.0
475.68399 200.0
475.726959 180.0
475.775574 292.0
475.821167 244.0
475.889618 180.0
475.934052 136.0
475.95874 384.0
476.01416 392.0
476.102173 196.0
476.150452 204.0
476.181183 208.0
476.210236 304.0
476.260864 128.0
476.291199 372.0
476.402344 100.0
476.549591 132.0
476.629333 152.0
476.662537 96.0
476.998413 264.0
477.058044 236.0
477.095673 200.0
477.171814 256.0
477.210236 148.0
477.324799 268.0
477.387024 148.0
477.457336 184.0
477.593719 148.0
477.669373 140.0
477.8013 116.0
477.894379 148.0
477.946106 196.0
478.089081 196.0
478.292542 164.0
478.8909 156.0
478.991669 152.0
479.076538 148.0
479.333038 124.0
479.634094 104.0
480.140228 100.0
480.373505 208.0
480.979523 148.0
481.351105 176.0
481.401581 108.0
482.087189 128.0
482.446503 112.0
482.909637 236.0
483.004913 108.0
483.061951 188.0
483.449371 156.0
484.384064 148.0
484.549286 120.0
484.969086 208.0
485.80661 188.0
486.984009 184.0
487.393524 96.0
487.498199 148.0
487.877686 156.0
487.927734 152.0
488.033264 108.0
488.144897 152.0
488.405396 148.0
488.44223 196.0
488.542053 128.0
488.750183 168.0
488.886993 140.0
489.148438 180.0
489.927917 144.0
490.02243 160.0
490.379578 180.0
490.618439 128.0
490.708191 132.0
490.935059 140.0
491.084839 112.0
491.63208 148.0
491.783691 156.0
492.085571 124.0
492.235962 100.0
492.384766 112.0
492.714966 224.0
492.792389 108.0
492.818756 332.0
493.19928 136.0
493.2323 196.0
493.27066 148.0
493.730469 160.0
494.201782 152.0
494.275391 112.0
494.370789 116.0
494.597961 176.0
494.830566 104.0
494.91864 220.0
495.653748 128.0
495.871704 208.0
496.387512 164.0
496.784454 96.0
496.889099 184.0
497.215759 164.0
497.294067 148.0
497.559875 104.0
497.703217 108.0
498.206055 180.0
498.630737 164.0
498.767578 204.0
498.832397 240.0
498.956177 136.0
499.223694 164.0
499.288544 128.0
499.362915 148.0
499.443604 208.0
499.499084 172.0
499.556427 144.0
499.735901 104.0
499.912506 108.0
499.930267 132.0
500.000671 104.0
500.044739 168.0
500.079254 356.0
500.120422 236.0
500.20813 148.0
500.311462 144.0
500.351105 156.0
500.464417 144.0
500.50351 136.0
500.552887 132.0
500.642792 280.0
500.709351 144.0
500.763947 112.0
500.782349 108.0
500.817505 256.0
500.827637 272.0
500.892944 348.0
501.005859 224.0
501.052734 184.0
501.115479 108.0
501.188141 332.0
501.238525 452.0
501.319885 152.0
501.366913 288.0
501.427429 400.0
501.504303 556.0
501.56781 256.0
501.632538 476.0
501.658356 600.0
501.695984 268.0
501.735352 420.0
501.78241 120.0
501.822754 352.0
501.866669 156.0
501.909546 292.0
501.927521 356.0
501.946289 596.0
501.960815 360.0
502.012451 216.0
502.098694 776.0
502.145203 1076.0
502.207855 212580.0
502.318726 124.0
502.352386 380.0
502.44635 100.0
502.526917 324.0
502.615509 540.0
502.677673 288.0
502.71051 508.0
502.75647 340.0
502.813019 244.0
502.860779 248.0
502.944092 3468.0
503.009521 328.0
503.021423 492.0
503.100708 280.0
503.210083 103064.0
503.369934 148.0
503.632782 100.0
503.726166 260.0
503.791962 240.0
503.846161 204.0
503.882935 164.0
503.96637 264.0
504.016907 188.0
504.068542 340.0
504.139893 256.0
504.210297 12848.0
504.376038 228.0
504.413757 128.0
504.666199 140.0
504.705078 140.0
504.751312 284.0
505.057556 108.0
505.159973 216.0
505.209564 1404.0
505.302094 140.0
505.408813 108.0
505.535431 112.0
505.572083 180.0
505.742615 216.0
505.899078 228.0
506.004242 152.0
506.061371 244.0
506.1073 144.0
506.166412 308.0
506.224396 444.0
506.290497 192.0
506.366211 176.0
506.594299 96.0
506.911346 168.0
507.104004 124.0
507.233093 96.0
507.406921 100.0
507.648376 128.0
507.947296 124.0
507.975464 132.0
508.10141 132.0
508.151154 116.0
508.21933 164.0
508.815216 108.0
509.493134 116.0
509.970428 100.0
514.263123 100.0
516.766479 112.0
516.800232 148.0
519.900208 96.0
521.774231 108.0
523.260986 132.0
523.422668 176.0
523.979614 112.0
524.529724 168.0
527.2677 100.0
528.283325 140.0
537.287476 140.0
549.980591 136.0
556.038696 100.0
571.768799 140.0
577.28064 128.0
585.369324 144.0
592.142517 104.0
600.948181 152.0
605.767456 124.0
607.302734 152.0
615.070496 140.0
618.344055 152.0
625.765137 144.0
628.336792 148.0
628.820801 140.0
635.224304 100.0
644.392822 140.0
655.348999 128.0
689.953308 108.0
692.394836 148.0
693.643799 112.0
698.497009 208.0
699.808777 104.0
732.74762 100.0
741.558655 140.0
750.931885 228.0
756.516235 140.0
763.41449 132.0
764.546204 148.0
769.10791 100.0
772.281189 152.0
854.713684 172.0
876.466736 160.0
922.846863 136.0
978.618896 152.0
1004.600891 104.0
1049.669067 104.0
1170.690796 152.0
1203.97876 144.0
1235.109131 148.0
1292.100708 140.0
1310.296753 104.0
1350.487305 164.0
1355.692627 196.0
1383.045898 172.0
1421.224731 200.0
1434.950928 196.0
1452.374023 168.0
1506.409546 200.0
1515.228638 156.0
1522.605347 180.0
1525.969971 156.0
1544.45166 236.0
1558.892822 164.0
1559.890869 224.0
1593.946411 176.0
1599.324585 224.0
1604.683594 140.0
1606.852905 216.0
1609.287231 208.0
1611.515503 172.0
1613.937256 216.0
1615.168823 152.0
1620.196045 156.0
1620.764893 172.0
1629.277344 204.0
1629.470093 164.0
1630.771973 212.0
1630.892456 192.0
1633.063354 172.0
1635.130981 216.0
1635.509277 144.0
1637.095337 280.0
1638.126221 208.0
1639.874756 160.0
1645.900879 192.0
1651.145386 148.0
1664.340942 104.0
1664.83313 188.0
1667.343384 176.0
1685.311279 148.0
1690.871826 156.0
1696.400635 140.0
1697.942139 172.0
1712.09375 168.0
1713.724731 180.0
1717.673584 156.0
1718.539795 140.0
1734.227051 200.0
1735.05603 208.0
1739.535645 160.0
1751.10144 156.0
1757.486938 172.0
1762.839233 140.0
1763.106689 172.0
1770.205444 172.0
1771.3396 188.0
1775.955444 220.0
1777.585571 144.0
1778.634644 204.0
1779.087891 156.0
1779.155029 200.0
1791.972046 168.0
1794.989502 228.0
1800.989868 168.0
1803.07666 188.0
1805.663696 152.0
1805.866577 228.0
1812.366821 228.0
1815.741821 192.0
1825.414307 140.0
1843.844971 176.0
1847.692871 176.0
1848.231812 156.0
1849.181763 160.0
1850.020508 148.0
1852.958008 152.0
1853.017944 160.0
1853.677734 176.0
1861.732666 184.0
1871.871216 164.0
1880.293579 148.0
1882.512207 164.0
1888.060181 196.0
1890.127563 168.0
1900.421143 156.0
1907.038208 172.0
1909.716187 236.0
1910.516479 172.0
1914.04126 164.0
1918.179565 184.0
1933.473022 156.0
1933.94873 164.0
1934.190674 192.0
1939.086792 192.0
1941.690552 184.0
1943.851562 176.0
1947.09668 220.0
1949.088867 200.0
1953.205078 144.0
1955.968018 212.0
1958.442261 200.0
1958.565552 180.0
1960.882812 196.0
1962.839844 200.0
1967.957397 152.0
1969.692383 140.0
1976.009033 152.0
1978.022583 176.0
1978.088623 152.0
1980.736206 224.0
1982.161865 140.0
1984.387329 140.0
1985.043457 204.0
1985.460205 192.0
1985.732422 156.0
1988.103882 224.0
1989.275391 152.0
1991.024536 152.0
1994.622925 164.0
1995.316284 164.0
1995.422974 140.0
1997.913086 176.0
1999.657104 224.0
2000.671875 212.0
2002.230103 176.0
