>compound pateamine
>formula C31H45N3O4S 
>ionization [M+H]+
>parentmass 556.3203543720906
#inchi InChI=1S/C31H45N3O4S/c1-21(13-14-34(6)7)11-12-23(3)16-27-19-29-33-28(20-39-29)24(4)17-26(32)18-31(36)37-25(5)15-22(2)9-8-10-30(35)38-27/h8-13,16,20,24-27H,14-15,17-19,32H2,1-7H3/b10-8-,12-11+,21-13+,22-9+,23-16+/t24-,25-,26+,27+/m0/s1
#inchikey DSPNTLCJTJBXTD
#Ion_Source DI-ESI
#Instrument qTof
#Compound_Source Isolated
#PI Keyzers
#Data_Collector Keyzers
#Scan -1
#Precursor_MZ 556.32
#ExactMass 555.313
#Charge 1
#CAS_Number 139220-18-1
#Pubmed_ID N/A
#Smiles N/A
#INCHI_AUX N/A
#Library_Class 3
#SpectrumID CCMSLIB00000007054
#IonMode Positive
#UpdateWorkflowName UPDATE-SINGLE-ANNOTATED-BRONZE
#LibraryQualityString Bronze
#TaskID 76b66bf1ccd04cec9993212b36387ea3
##Scan# 4
#SpectrumFile pateamine_pos_MSMS_single_charge_001.mgf
#LibraryName gnps_library.mgf
#MQScore -1
#Organism test_rob_keyzers
#TIC_Query 0
#RT_Query -1
#MZErrorPPM -1
#SharedPeaks 0
#MassDiff 0
#LibMZ -1
#SpecMZ 556.32
#SpecCharge 0
#internalFilename spec-00000.mgf

>collision 10
24.861349 41.92308
41.039097 80.00338
42.036488 158.625
43.019737 672.289307
43.042419 211.0121
44.051468 331.781494
46.065109 536.351685
47.015335 134.111801
47.874432 49.00338
55.024345 43.32692
55.058167 216.537506
56.050491 197.681702
57.033375 155.238403
58.065662 3429.594971
58.136002 46.52174
67.053482 802.692017
67.349754 57.112499
67.423058 50.367649
68.047096 177.913605
69.068993 127.112503
70.029785 90.537788
70.064842 453.225006
71.073135 159.769196
72.081123 445.40451
73.011765 65.210533
73.048164 565.609497
77.040489 189.563599
79.055 1669.098999
79.312469 40.520828
80.046623 50.64286
81.03241 63.047619
81.070023 1509.168945
82.064598 460.470306
83.057655 52.291672
83.082588 42.244999
84.005325 60.125
84.04039 256.07019
84.081139 782.352112
85.08725 353.064301
86.006393 126.5
90.052719 111.4944
91.055161 2975.041992
91.123093 39.333328
91.140907 47.3689
91.478966 64.841217
92.054276 143.024994
93.069244 963.592712
94.069122 717.555298
95.084846 1087.989014
96.078125 607.679993
97.019852 101.010399
97.064003 185.347794
97.098053 58.210529
97.294983 42.4879
98.011154 46.020828
98.058372 67.034088
98.095367 1569.296997
101.032555 96.602272
102.050293 62.521549
103.049706 54.174999
105.069748 1903.906982
106.0681 132.532898
107.045456 251.629807
107.084908 10521.44043
107.179169 105.686401
107.310165 49.349998
107.372261 48.76923
107.639885 43.520828
108.081734 2218.093994
108.271217 59.0
108.332741 71.100609
109.061157 271.847687
109.103294 1023.955017
109.278633 45.349998
110.096832 376.600708
111.044678 478.481903
111.077194 554.614014
112.021507 1179.713013
112.112495 183.600006
113.033485 122.128998
114.040733 340.006714
115.051865 408.235504
116.063248 136.375
117.067589 1154.338013
118.068657 291.941895
119.08728 955.055725
120.079552 207.214294
121.101074 653.289429
122.097351 324.407288
123.102127 1183.208984
123.930107 74.47406
124.018867 718.124207
124.110504 105.859703
125.038704 745.739929
125.097328 1500.848022
125.533836 43.39674
126.037109 1531.41394
126.100685 230.570297
126.139404 38.5
126.877243 77.449471
127.049255 350.337311
128.053284 1090.837036
128.950912 140.889694
129.070099 235.778595
129.847198 74.728447
130.075165 266.072693
130.329498 42.889709
131.084564 12149.379883
131.188431 173.375
131.214767 38.367649
131.256348 36.027779
132.02182 41.160709
132.090393 2285.25293
132.295609 43.625
133.101059 1996.192017
134.097763 382.450012
134.43605 36.337959
135.02037 182.020798
135.081131 2473.89502
135.183914 41.721149
136.076981 437.408813
137.028427 161.631897
137.121811 52.242649
138.034897 1011.802002
138.089737 154.668503
139.050446 52.603569
140.051956 350.895508
141.061783 285.628998
142.087936 48.00658
143.085846 319.0
144.082703 423.329102
145.099976 5264.348145
145.207367 68.198532
146.09668 981.102112
147.067078 73.208344
147.119553 270.327209
147.440536 41.640629
148.028397 54.575001
148.113876 270.787201
149.095367 224.782394
149.124771 229.165802
150.031189 568.018311
150.091888 65.0
150.12561 164.680801
151.049454 83.862068
151.125229 109.208298
152.053253 1745.81897
153.083954 677.679993
154.028381 87.25
154.083908 1538.545044
155.064423 355.242401
155.180313 49.875
155.756073 45.140629
156.045364 106.212997
156.097366 182.523499
157.093887 239.375
158.096405 472.299286
159.109589 344.979706
160.10997 1836.811035
161.119888 1164.020996
162.043854 167.140594
162.126419 4800.480957
162.24231 56.55172
162.796555 72.102272
163.049667 53.285709
163.088638 99.275002
163.12854 225.818497
164.053162 332.188507
164.141953 320.366913
164.912613 88.002449
165.057587 204.323303
166.068436 870.153076
167.073288 100.160103
168.063065 238.086502
169.100662 1144.072021
170.064133 419.683685
170.107346 135.321793
171.01709 64.112503
171.10788 998.484375
171.601776 177.486099
172.111038 707.393677
172.574417 72.565224
173.122192 242.205002
174.057602 356.900787
174.128067 973.545288
175.13063 595.557312
176.053497 248.7052
176.142761 21881.900391
176.26358 168.487793
176.318268 66.0
176.419189 51.025002
176.484955 62.56818
176.533401 50.224998
176.598434 63.028851
176.675873 57.778851
176.827774 41.375
176.93187 51.89286
177.029175 81.685966
177.07132 114.557701
177.152191 1335.469971
178.019958 44.041672
178.067078 647.492188
178.147003 86.322357
178.570633 36.007351
178.723938 38.44643
179.057816 115.656799
180.047226 1328.506958
180.07814 660.682312
181.087006 210.901306
183.101685 36.135872
184.098312 103.410004
185.125214 277.463104
186.054291 60.285709
186.12619 3192.381104
187.053528 427.395386
187.638824 41.185612
188.073914 696.457092
189.077377 129.938293
190.074493 261.302399
190.158325 1206.092041
190.745483 40.76923
191.063156 241.406494
191.104141 98.809998
192.088303 148.022095
193.062012 92.100609
193.151718 136.066193
194.07431 337.034088
195.099136 51.23077
197.664932 49.515629
198.057465 4184.875
198.186203 39.102268
198.420822 39.008339
201.073242 87.166656
201.144363 261.790405
202.028778 292.478485
203.086151 108.0494
204.081131 985.880127
204.160873 119.035698
205.083694 263.012604
206.091675 661.621399
207.031784 666.376587
207.092453 128.142899
207.785385 39.39674
208.034485 291.813812
208.100479 203.7108
209.022507 68.289284
210.056656 241.097595
210.119293 92.75
211.064545 903.812927
211.135788 53.142239
212.071915 2024.401001
214.064316 84.074997
215.074188 89.406914
215.147995 153.370605
216.080841 480.328796
217.087845 132.560303
217.16951 1786.420044
217.296494 40.125
217.739258 70.520157
218.101624 169.766006
219.049911 77.480766
219.193527 55.01786
220.044113 109.1856
220.128769 250.148895
221.095154 59.570648
221.130692 62.125
222.126266 361.223114
223.066635 142.401703
224.073013 1702.300049
224.149353 138.016693
224.58287 46.211208
225.086624 230.0979
225.15062 93.054817
226.093155 144.560104
227.077545 64.165321
228.09198 355.230103
229.106293 148.493195
230.098251 1230.015015
231.10585 195.716995
231.188385 60.64286
232.118698 486.875
233.10672 78.491379
233.253326 38.0
234.141052 88.132347
235.057159 159.375
236.066818 314.329712
237.086655 77.05896
238.061981 224.065598
238.147797 83.92308
239.064102 186.666702
239.102707 87.157051
239.150681 43.027779
240.080658 244.451797
241.098816 484.965912
242.099396 212.127502
244.074036 44.0
245.150757 40.96196
246.11554 55.55603
248.077835 63.19104
248.153076 120.789497
249.142273 44.33654
250.085861 189.817596
250.183334 101.449997
250.964554 117.702698
251.06073 60.291672
252.077621 54.408779
253.097458 280.326599
253.174789 49.0
254.098755 338.133087
255.099854 145.156693
256.114227 5350.039062
256.254822 49.049999
257.12973 503.85199
257.578979 46.205002
258.123535 842.565125
259.130554 83.002121
260.141357 92.260406
260.490845 52.75
261.122772 129.892899
261.772339 36.520828
262.088287 379.166412
262.16156 69.349136
264.100983 481.930786
265.019653 124.593803
265.100037 87.094704
265.169891 88.025002
266.093506 89.816673
267.004425 559.278198
267.089905 43.226849
267.174896 123.0019
267.996368 182.173599
268.108887 47.0
269.109314 143.128204
270.126617 317.513885
270.246155 36.20454
272.146729 527.006592
273.140564 685.56012
276.111328 267.640594
277.091766 157.574005
278.128723 384.361115
279.114777 415.05249
279.182098 67.183823
281.051514 285.272186
282.05069 110.656799
282.13028 953.979797
282.297119 70.328949
283.110718 137.094696
283.950104 46.242649
284.14621 193.5
286.098602 58.289291
286.129333 63.125
286.601044 129.324203
287.15274 153.464294
290.12088 60.875
291.775787 39.135872
292.133179 54.45454
293.143188 94.211197
294.144684 180.600006
295.134064 68.8125
296.14267 1053.685059
297.147461 77.157051
298.158661 497.25
298.298157 38.11364
299.159363 2159.010986
300.158142 118.003998
301.164856 248.337906
301.290985 42.640629
302.126862 164.75
302.193512 63.900002
303.142273 85.556824
305.147247 63.48214
306.123566 154.491394
307.144012 58.0
308.132385 105.5
309.130737 54.603569
309.168884 69.328949
310.161865 47.30682
311.176514 39.048908
313.17981 77.112503
313.289368 46.008339
314.208282 70.289284
315.175629 206.032196
316.136902 2915.218018
317.128021 128.070297
318.161743 113.520798
321.143799 78.925926
322.129761 83.941177
324.139832 2168.740967
324.30719 39.440479
324.766754 114.881699
324.922028 43.80357
325.00473 117.592598
325.182068 258.927612
326.159393 206.262299
326.194977 146.809998
327.126343 79.160713
328.119904 40.400002
329.187439 57.01667
330.156494 123.0028
331.152496 58.8811
332.10202 52.2663
333.159424 684.786804
335.182373 38.92046
338.31604 36.048908
339.027985 148.181198
339.14743 61.44907
340.139771 206.002701
341.171234 396.545685
342.152039 10688.150391
342.319183 84.889709
342.665253 56.640148
342.795166 66.240387
343.007812 42.222832
343.146515 435.603607
343.216766 701.880981
343.321991 67.91848
343.40332 40.242649
343.491791 38.595589
344.169403 1053.378052
344.718384 55.008339
345.158783 209.587006
345.206787 82.333344
346.153839 89.802643
350.026855 38.326611
350.14624 112.002098
355.074585 94.020447
355.187378 40.125
356.066742 46.00658
356.128296 109.802803
357.159607 46.185612
358.154633 84.094704
359.177917 1989.917969
360.162384 94.0625
360.242981 47.11842
360.313904 39.025002
361.195496 226.006607
364.167603 72.020844
369.19754 142.678604
371.137268 157.531906
371.193298 66.160713
372.193909 65.165543
373.120178 44.083328
373.183716 79.889282
375.188843 60.42857
375.300354 84.476692
376.156372 216.905502
383.167999 77.5
385.1875 86.666656
387.195587 277.690002
388.149261 42.1875
388.189514 95.967102
391.155029 40.333328
397.167145 52.083328
399.187988 48.96983
404.234711 777.880981
407.237335 71.485291
409.198761 76.29657
412.901642 43.291672
419.199524 45.68145
430.276917 66.355392
431.208649 165.777802
434.216766 37.720242
440.184723 50.521549
445.210358 95.675926
449.2052 56.55603
451.203156 87.49128
451.275391 64.361107
452.21048 75.240387
453.447052 41.003571
454.209351 54.297619
459.225006 60.94231
464.678558 38.01923
475.222473 69.25
477.276611 115.163498
478.282898 264.966888
485.238403 90.449997
486.57019 37.625
489.382782 85.5625
494.233032 909.0896
495.550323 39.48214
496.256622 151.272705
497.512115 37.083328
511.256348 585.86792
513.26947 42.083328
515.206787 74.529411
518.266541 59.200001
520.244995 71.75
526.075317 38.244999
539.285156 76.307693
556.32428 259.133209
632.573059 37.39674
666.607971 41.34914
693.295166 41.778851
708.583374 41.1875
708.675476 59.297619
748.10968 48.07692
861.850403 52.94231
907.585266 53.603569
940.664734 46.23077
981.455139 51.125
