>compound MLS000028503-01!3,5-DIIODO-L-TYROSINE
>formula C9H9I2NO3
>ionization [M+H]+
>parentmass 433.8744656000905
#inchi InChI=1S/C9H9I2NO3/c10-5-1-4(2-6(11)8(5)13)3-7(12)9(14)15/h1-2,7,13H,3,12H2,(H,14,15)/t7-/m0/s1
#inchikey NYPYHUZRZVSYKL
#Ion_Source LC-ESI
#Instrument qTof
#Compound_Source NIH Pharmacologically Active Library
#PI Dorrestein
#Data_Collector VP/LMS
#Scan -1
#Precursor_MZ 433.871
#ExactMass 432.867
#Charge 1
#CAS_Number N/A
#Pubmed_ID N/A
#Smiles N[C@@H](Cc1cc(I)c(O)c(I)c1)C(=O)O
#INCHI_AUX N/A
#Library_Class 1
#SpectrumID CCMSLIB00000085952
#IonMode Positive
#UpdateWorkflowName UPDATE-SINGLE-ANNOTATED-GOLD
#LibraryQualityString Gold
#TaskID d252d724072548979f1f6f1ced849daf
##Scan# 1234
#SpectrumFile p4-H07_GH7_01_18415.mzXML
#LibraryName Pharm_Active_Library.mgf
#MQScore -1
#Organism Pharm_Active_Library
#TIC_Query 0
#RT_Query -1
#MZErrorPPM -1
#SharedPeaks 0
#MassDiff 0
#LibMZ -1
#SpecMZ 433.871
#SpecCharge 0
#internalFilename spec-00000.mgf

>collision 10
45.02224 176.0
45.151875 212.0
45.229195 132.0
45.261612 124.0
45.296581 160.0
45.374161 180.0
45.418415 156.0
45.553997 120.0
45.592964 180.0
45.609093 184.0
45.728802 92.0
45.81229 84.0
45.91608 140.0
46.059155 176.0
46.111851 184.0
46.174042 152.0
46.191628 176.0
46.201096 96.0
46.243046 144.0
46.36866 156.0
46.406963 32.0
46.427303 200.0
46.495136 192.0
46.586113 124.0
46.640469 96.0
46.70982 112.0
47.001377 104.0
47.046421 48.0
47.064167 108.0
47.114704 112.0
47.170734 144.0
47.245949 204.0
47.451385 204.0
47.480183 136.0
47.552898 208.0
47.750183 156.0
47.805779 44.0
47.853958 196.0
47.8815 112.0
47.892517 132.0
47.955898 176.0
48.077271 128.0
48.106255 48.0
48.245785 116.0
48.374443 132.0
48.471397 112.0
48.542091 172.0
48.553188 180.0
48.576767 136.0
48.660038 128.0
48.723927 172.0
48.871304 172.0
48.89357 104.0
49.165337 132.0
49.216988 144.0
49.229553 84.0
49.265869 188.0
49.342739 120.0
49.373501 116.0
49.429459 176.0
49.440655 152.0
49.463047 52.0
49.517658 196.0
49.572296 144.0
49.670441 144.0
49.786938 212.0
49.926067 276.0
50.159798 180.0
50.250057 128.0
50.27969 108.0
50.28957 136.0
50.371468 148.0
50.429401 52.0
50.543953 152.0
50.570843 40.0
50.611752 192.0
50.650139 52.0
50.752811 104.0
50.762104 188.0
50.776287 148.0
50.801819 112.0
50.857162 36.0
50.945202 124.0
51.024788 224.0
51.112976 272.0
51.302406 44.0
51.313812 112.0
51.446495 104.0
51.475052 188.0
51.620811 176.0
51.894306 148.0
52.095234 60.0
52.126846 140.0
52.151279 120.0
52.174278 52.0
52.201599 144.0
52.241726 120.0
52.406002 148.0
52.416088 116.0
52.460766 184.0
52.567501 184.0
52.703419 160.0
52.727806 248.0
52.774063 192.0
52.839149 140.0
52.998421 208.0
53.041897 236.0
53.229057 176.0
53.275536 116.0
53.306049 168.0
53.368553 136.0
53.425278 156.0
53.449703 164.0
53.5126 176.0
53.5359 132.0
53.582512 224.0
53.592712 148.0
53.693298 40.0
53.756142 208.0
53.923096 152.0
54.071701 232.0
54.093655 132.0
54.203503 184.0
54.338402 108.0
54.389763 136.0
54.407288 128.0
54.516075 48.0
54.531849 224.0
54.548412 216.0
54.585125 140.0
54.686062 188.0
55.006546 156.0
55.143917 124.0
55.263699 96.0
55.355476 48.0
55.496246 136.0
55.641647 188.0
55.665405 100.0
55.742653 156.0
55.776836 184.0
56.074528 192.0
56.198303 168.0
56.289356 112.0
56.326694 44.0
56.408886 108.0
56.458672 160.0
56.480663 128.0
56.518063 124.0
56.57494 96.0
56.614925 136.0
56.628845 180.0
56.703758 128.0
56.805923 120.0
56.846233 60.0
56.882256 140.0
56.99189 168.0
57.014606 208.0
57.073059 176.0
57.098625 184.0
57.116673 136.0
57.181374 148.0
57.228039 184.0
57.25816 60.0
57.39077 224.0
57.472221 76.0
57.515991 96.0
57.561283 212.0
57.585445 144.0
57.683662 164.0
57.727016 196.0
57.739609 148.0
57.797096 136.0
58.015194 144.0
58.030357 112.0
58.248898 64.0
58.269981 132.0
58.30912 176.0
58.332474 216.0
58.349197 132.0
58.443497 96.0
58.495243 132.0
58.539398 32.0
58.569859 152.0
58.670437 124.0
58.687206 188.0
58.725334 132.0
58.764996 164.0
58.777203 176.0
58.855053 116.0
58.887123 268.0
58.943649 116.0
59.093498 160.0
59.128693 44.0
59.190693 240.0
59.239693 212.0
59.287971 108.0
59.304276 144.0
59.473877 248.0
59.713249 180.0
59.754784 104.0
59.864071 120.0
59.882553 96.0
59.968834 100.0
59.98579 112.0
59.998123 44.0
60.263588 148.0
60.415104 104.0
60.492481 188.0
60.566811 100.0
60.613289 188.0
60.640217 96.0
60.693897 40.0
60.749729 132.0
60.850609 220.0
60.867687 88.0
60.965557 36.0
61.004414 140.0
61.023071 188.0
61.044842 400.0
61.136627 100.0
61.158245 184.0
61.195778 216.0
61.213783 256.0
61.276768 160.0
61.328197 164.0
61.574718 120.0
61.730999 160.0
61.801392 164.0
61.834255 148.0
61.936028 48.0
62.001835 272.0
62.056698 212.0
62.095905 76.0
62.131985 204.0
62.309391 48.0
62.351822 220.0
62.461884 108.0
62.529545 152.0
62.608261 148.0
62.619286 136.0
62.639763 188.0
62.692276 220.0
63.038944 120.0
63.290459 168.0
63.320549 136.0
63.51075 172.0
63.547237 236.0
63.566277 44.0
63.582146 136.0
63.607544 156.0
63.710766 120.0
63.755257 212.0
63.775917 208.0
63.903648 176.0
63.922237 212.0
64.097404 56.0
64.19783 168.0
64.309509 140.0
64.696358 96.0
64.710762 112.0
64.787643 296.0
64.846931 60.0
64.909454 204.0
65.042618 192.0
65.565201 204.0
65.776649 164.0
65.852539 140.0
65.922012 140.0
66.157433 204.0
66.211601 224.0
66.25209 152.0
66.269913 184.0
66.349335 136.0
66.410957 136.0
66.462326 180.0
66.621979 144.0
66.729248 180.0
66.81057 136.0
66.834969 176.0
67.165695 124.0
67.199959 116.0
67.284828 52.0
67.296257 124.0
67.325645 52.0
67.40406 356.0
67.475983 88.0
67.561028 204.0
67.605202 92.0
67.621567 216.0
67.664131 112.0
67.708344 160.0
67.747658 72.0
67.803368 56.0
67.914856 140.0
68.026443 88.0
68.136475 120.0
68.182487 72.0
68.248238 76.0
68.633545 96.0
68.674774 148.0
68.70282 136.0
68.760574 136.0
68.818611 176.0
68.919106 80.0
69.001747 180.0
69.261261 152.0
69.312927 240.0
69.420677 236.0
69.581627 264.0
69.643074 164.0
69.66301 152.0
69.694572 216.0
69.741104 136.0
69.777679 176.0
69.874146 112.0
69.915741 144.0
69.935036 204.0
69.957359 140.0
69.974319 128.0
70.063072 200.0
70.068588 96.0
70.073051 180.0
70.103928 124.0
70.20562 48.0
70.248993 248.0
70.317978 192.0
70.414238 144.0
70.442635 64.0
70.476051 176.0
70.505569 168.0
70.583031 128.0
70.675026 76.0
70.686745 144.0
70.87429 56.0
70.9011 120.0
70.99498 176.0
71.0084 116.0
71.03524 176.0
71.072151 156.0
71.112427 160.0
71.149353 96.0
71.285408 196.0
71.495621 100.0
71.608421 108.0
71.67244 156.0
71.884911 224.0
71.959023 188.0
72.014908 172.0
72.341263 156.0
72.63443 144.0
72.775291 180.0
72.885696 224.0
72.950287 188.0
73.438995 160.0
73.471405 356.0
73.493584 168.0
73.534546 184.0
73.582344 156.0
73.681396 132.0
73.966995 128.0
73.98925 64.0
74.011505 108.0
74.035477 180.0
74.337204 84.0
74.352646 216.0
74.615463 128.0
74.661888 136.0
74.858078 180.0
74.889076 176.0
74.913193 244.0
74.935593 132.0
74.955498 188.0
75.063148 164.0
75.159744 200.0
75.294395 200.0
75.328941 140.0
75.365219 156.0
75.489685 160.0
75.590019 164.0
75.659248 200.0
75.733559 180.0
75.756233 116.0
75.77356 216.0
75.96656 172.0
76.007637 152.0
76.104836 76.0
76.116997 224.0
76.170837 116.0
76.228172 128.0
76.459465 88.0
76.598763 120.0
76.827209 172.0
76.912636 164.0
77.085541 216.0
77.106339 120.0
77.147736 212.0
77.181686 124.0
77.249893 212.0
77.270889 160.0
77.489746 172.0
77.51252 168.0
77.879196 60.0
77.940681 144.0
78.065353 152.0
78.172798 52.0
78.281944 128.0
78.382355 44.0
78.438751 180.0
78.495171 144.0
78.563957 156.0
78.757889 140.0
78.761086 120.0
78.767776 220.0
78.943718 224.0
78.99324 132.0
79.145447 236.0
79.18618 168.0
79.232239 184.0
79.482704 136.0
79.617157 92.0
79.693535 160.0
79.825172 152.0
80.00618 168.0
80.10273 132.0
80.181946 160.0
80.2043 204.0
80.309502 192.0
80.339828 112.0
80.402283 132.0
80.500465 80.0
80.598717 44.0
80.63446 88.0
80.670212 68.0
80.722061 116.0
80.786446 92.0
80.800758 180.0
80.918884 236.0
80.952904 72.0
81.006638 144.0
81.090858 100.0
81.135056 232.0
81.34198 164.0
81.473076 168.0
81.64743 120.0
81.670815 140.0
81.821976 44.0
81.906616 120.0
82.032753 228.0
82.305191 148.0
82.341309 112.0
82.406342 96.0
82.563606 128.0
82.612442 168.0
82.795113 144.0
82.85141 100.0
82.86953 148.0
82.894897 156.0
82.925713 144.0
83.14698 148.0
83.449104 128.0
83.750618 204.0
83.867233 104.0
84.027718 132.0
84.120789 176.0
84.1427 144.0
84.208435 212.0
84.233612 200.0
84.444214 76.0
84.480797 144.0
84.585106 100.0
84.742607 120.0
84.764595 144.0
84.944275 124.0
85.159035 52.0
85.199448 228.0
85.276627 88.0
85.296844 60.0
85.409012 148.0
85.482605 124.0
85.55439 188.0
85.580162 52.0
85.766235 128.0
85.821541 152.0
85.875023 120.0
85.913757 188.0
85.996796 108.0
86.254471 192.0
86.382996 100.0
86.462555 148.0
86.503273 36.0
86.529198 200.0
86.872055 108.0
86.903595 156.0
86.955551 212.0
86.968544 200.0
87.13382 128.0
87.176559 160.0
87.397842 144.0
87.412727 152.0
87.44809 140.0
87.509521 140.0
87.530006 204.0
87.766655 212.0
88.049561 84.0
88.095863 120.0
88.660217 104.0
88.673332 176.0
88.701454 196.0
88.755821 120.0
88.836472 108.0
88.905891 140.0
88.947189 116.0
88.962204 180.0
89.020409 176.0
89.038086 640.0
89.257187 168.0
89.360634 124.0
89.482979 144.0
89.522522 116.0
89.554535 124.0
89.597862 348.0
89.612938 176.0
89.675125 124.0
89.702614 144.0
89.737335 192.0
89.758926 212.0
89.905785 240.0
90.018486 128.0
90.040916 132.0
90.120491 192.0
90.315208 128.0
90.354935 164.0
90.440094 136.0
90.80957 100.0
90.83992 172.0
90.934799 128.0
91.05806 188.0
91.098099 144.0
91.236832 180.0
91.284363 196.0
91.312889 128.0
91.339523 36.0
91.354736 196.0
91.379471 176.0
91.421333 156.0
91.435173 148.0
91.573647 136.0
91.69558 84.0
91.912987 128.0
92.052292 184.0
92.145927 196.0
92.308403 116.0
92.463364 160.0
92.503555 108.0
92.771751 92.0
92.850372 160.0
92.874023 48.0
92.992348 124.0
93.033409 144.0
93.069138 184.0
93.170937 124.0
93.23819 196.0
93.507446 220.0
93.563271 156.0
93.640442 156.0
93.665337 104.0
93.721207 140.0
93.985374 148.0
94.052917 48.0
94.156151 172.0
94.255707 212.0
94.278893 100.0
94.443237 92.0
94.608688 192.0
94.656128 92.0
94.681297 184.0
94.758781 116.0
94.803352 84.0
94.85762 252.0
94.902214 140.0
94.925484 112.0
94.981728 124.0
95.008888 188.0
95.133087 204.0
95.168037 176.0
95.261261 160.0
95.467285 140.0
95.548988 216.0
95.585953 128.0
95.607361 244.0
95.63266 84.0
95.685219 68.0
95.866371 172.0
95.889763 156.0
95.907303 132.0
95.946289 208.0
96.024292 96.0
96.059402 136.0
96.078911 40.0
96.164772 92.0
96.244812 204.0
96.276054 144.0
96.371773 212.0
96.481224 172.0
96.545753 152.0
96.653343 144.0
96.706184 120.0
96.766869 128.0
96.780571 140.0
96.813866 176.0
96.986282 96.0
97.04792 208.0
97.124901 160.0
97.506409 48.0
97.545723 132.0
97.600769 80.0
97.624367 96.0
97.766014 92.0
97.797501 84.0
97.821121 128.0
97.953064 212.0
97.968819 44.0
98.071289 200.0
98.16198 144.0
98.254684 180.0
98.27639 140.0
98.310989 232.0
98.379021 84.0
98.412582 80.0
98.491577 116.0
98.587212 188.0
98.637802 176.0
98.689926 220.0
98.815956 188.0
98.920677 148.0
99.188103 92.0
99.243614 100.0
99.519417 160.0
99.584953 160.0
99.739937 124.0
99.757828 108.0
99.774605 164.0
99.859238 132.0
99.996468 136.0
100.034348 156.0
100.062218 136.0
100.137886 196.0
100.157806 168.0
100.387009 132.0
100.48674 184.0
100.554588 144.0
100.6604 128.0
100.682365 128.0
100.714325 140.0
100.790245 140.0
101.064178 148.0
101.154243 88.0
101.212303 116.0
101.42868 136.0
101.46476 148.0
101.528931 132.0
101.942482 156.0
102.026901 148.0
102.147568 188.0
102.35688 192.0
102.473709 192.0
102.493858 148.0
102.534157 88.0
102.649071 112.0
102.663185 56.0
102.879089 172.0
102.976013 116.0
103.09935 208.0
103.151802 168.0
103.174042 92.0
103.386429 176.0
103.611191 184.0
103.821999 228.0
103.836197 192.0
103.939659 148.0
103.968071 168.0
103.986336 128.0
104.048187 308.0
104.185333 80.0
104.305229 96.0
104.363144 156.0
104.535057 116.0
104.714218 152.0
104.732224 176.0
104.765137 168.0
104.822189 112.0
105.034264 804.0
105.056686 332.0
105.107956 256.0
105.26281 84.0
105.360855 140.0
105.604111 212.0
105.806702 188.0
105.929573 104.0
106.04081 1500.0
106.066124 4968.0
106.132477 44.0
106.194 68.0
106.563515 36.0
106.777298 164.0
106.805885 192.0
106.813797 172.0
106.85067 180.0
106.911026 96.0
106.958366 188.0
107.002007 176.0
107.020416 236.0
107.04969 8484.0
107.069717 760.0
107.098389 152.0
107.116928 60.0
107.145096 100.0
107.190704 84.0
107.211708 192.0
107.252922 100.0
107.275604 76.0
107.382828 156.0
107.40345 208.0
107.434807 120.0
107.473595 44.0
107.50042 80.0
107.595367 188.0
107.63047 36.0
107.698624 132.0
107.712463 120.0
107.733742 128.0
107.810188 48.0
107.917679 40.0
107.969376 40.0
108.054565 636.0
108.101028 44.0
108.126617 80.0
108.194923 132.0
108.244621 136.0
108.296913 176.0
108.34404 228.0
108.379257 300.0
108.42485 144.0
108.543015 152.0
108.58242 164.0
108.72654 184.0
108.82106 176.0
108.864662 108.0
109.00177 148.0
109.028786 156.0
109.059967 228.0
109.193031 120.0
109.367805 112.0
109.518356 184.0
109.651077 152.0
109.727524 144.0
109.744011 172.0
109.930534 184.0
109.945145 248.0
109.988976 240.0
110.007759 172.0
110.128876 132.0
110.331573 120.0
110.498886 212.0
110.57003 152.0
110.647484 128.0
110.664238 168.0
110.75219 44.0
110.77523 168.0
110.884193 148.0
110.909348 160.0
110.940788 144.0
110.972237 204.0
111.047729 148.0
111.129547 228.0
111.156822 128.0
111.199402 176.0
111.303764 124.0
111.419281 160.0
111.463554 176.0
112.092598 88.0
112.176903 168.0
112.204308 208.0
112.225395 160.0
112.261238 152.0
112.497551 192.0
112.643265 180.0
112.68129 176.0
112.808098 84.0
112.852493 152.0
112.915932 120.0
112.934967 192.0
113.152939 172.0
113.250351 112.0
113.296951 156.0
113.354515 120.0
113.532234 236.0
113.574654 172.0
113.731674 176.0
114.352318 196.0
114.460892 88.0
114.624916 160.0
114.740013 216.0
114.753838 116.0
114.997025 108.0
115.017342 180.0
115.047234 156.0
115.158272 104.0
115.380508 208.0
115.412582 200.0
115.613663 160.0
115.947762 184.0
115.972946 160.0
116.049843 1864.0
116.175049 196.0
116.36821 88.0
116.445511 40.0
116.494629 148.0
116.684044 100.0
116.709839 192.0
116.763603 156.0
116.780807 124.0
116.845345 48.0
116.869011 168.0
116.897987 164.0
116.987923 192.0
117.033432 1568.0
117.056961 1848.0
117.22216 140.0
117.329926 156.0
117.409714 36.0
117.495995 220.0
117.703201 148.0
117.718315 212.0
117.876015 192.0
117.904106 316.0
118.040733 744.0
118.146286 160.0
118.260971 208.0
118.31076 136.0
118.486183 72.0
118.516518 88.0
118.598869 144.0
118.624886 60.0
118.718117 52.0
118.789696 176.0
118.841766 152.0
118.93074 60.0
119.019753 168.0
119.04921 748.0
119.171799 132.0
119.206566 196.0
119.39135 232.0
119.528404 216.0
119.658997 132.0
119.702545 144.0
119.813629 60.0
119.91169 180.0
119.937843 104.0
120.019737 272.0
120.045494 320.0
120.070847 56.0
120.088295 184.0
120.169014 108.0
120.286858 164.0
120.505249 120.0
120.538025 188.0
120.607964 252.0
120.848526 108.0
120.870407 76.0
120.986412 56.0
121.028633 680.0
121.050385 184.0
121.082756 40.0
121.231735 128.0
121.28653 124.0
121.319412 144.0
121.429047 196.0
121.446594 132.0
121.577179 160.0
121.659447 164.0
121.707756 168.0
121.745087 156.0
121.832947 188.0
121.997772 164.0
122.026352 344.0
122.054832 180.0
122.145103 68.0
122.217705 204.0
122.407013 200.0
122.455467 164.0
122.470879 184.0
122.517143 64.0
122.543579 148.0
122.656265 152.0
122.700066 124.0
122.733139 112.0
122.889252 196.0
122.949326 72.0
123.130363 216.0
123.238609 104.0
123.512741 212.0
123.585678 256.0
123.689766 144.0
123.904579 124.0
123.940025 92.0
123.997643 148.0
124.161713 176.0
124.252655 128.0
124.268188 152.0
124.321442 220.0
124.412445 228.0
124.470177 124.0
124.603447 96.0
124.621223 172.0
124.796814 164.0
125.250816 192.0
125.291801 180.0
125.384499 108.0
125.413475 144.0
125.431305 160.0
125.50042 184.0
125.52533 140.0
125.712334 40.0
125.745811 144.0
125.859665 104.0
125.897629 152.0
126.00708 164.0
126.062943 84.0
126.411797 184.0
126.483421 40.0
126.620003 124.0
126.76786 180.0
126.819412 168.0
126.870972 92.0
126.960655 228.0
127.216454 104.0
127.30851 96.0
127.432053 124.0
127.564651 148.0
127.580391 104.0
127.609848 196.0
127.627274 136.0
127.652336 92.0
127.91333 200.0
128.003387 104.0
128.032669 92.0
128.381973 52.0
128.400024 196.0
128.497025 132.0
128.627914 172.0
128.677582 152.0
128.748825 128.0
128.819855 136.0
128.985184 176.0
129.122742 104.0
129.373917 100.0
129.530167 168.0
129.92009 156.0
129.94278 260.0
130.158401 112.0
130.185654 200.0
130.222748 132.0
130.392395 108.0
130.691376 136.0
130.713058 40.0
130.822296 176.0
130.861008 140.0
130.913376 116.0
131.016159 176.0
131.034103 316.0
131.091064 176.0
131.125259 136.0
131.145767 148.0
131.182236 432.0
131.243805 156.0
131.410309 204.0
131.442245 96.0
131.599747 232.0
131.758606 216.0
132.02478 152.0
132.045959 244.0
132.130005 216.0
132.301651 76.0
132.388657 108.0
132.427597 144.0
132.477982 140.0
132.70488 88.0
132.78743 76.0
132.897888 108.0
132.95491 52.0
132.99675 192.0
133.052597 7040.0
133.102203 124.0
133.143173 28.0
133.212082 48.0
133.341675 80.0
133.39592 48.0
133.469498 68.0
133.494781 80.0
133.563782 152.0
133.584488 104.0
133.60289 136.0
133.637405 112.0
133.664932 112.0
133.713348 156.0
133.740967 232.0
133.766815 240.0
133.789307 164.0
133.814636 172.0
133.829834 152.0
133.851471 152.0
133.879852 160.0
133.975845 40.0
134.007782 296.0
134.035873 252.0
134.060364 19012.0
134.111801 36.0
134.16713 52.0
134.187881 56.0
134.204025 120.0
134.227081 60.0
134.250137 40.0
134.274017 192.0
134.365479 168.0
134.400085 44.0
134.490082 48.0
134.545486 44.0
134.647095 140.0
134.715805 144.0
134.737183 48.0
134.815735 48.0
134.878143 132.0
134.922073 72.0
134.942871 156.0
134.959061 60.0
135.007614 204.0
135.061234 1964.0
135.141785 128.0
135.218155 40.0
135.236664 168.0
135.269073 136.0
135.306122 176.0
135.442749 184.0
135.558594 144.0
135.614212 56.0
135.676804 44.0
135.764023 180.0
135.8461 72.0
135.980789 84.0
136.0271 144.0
136.04567 64.0
136.066437 524.0
136.126938 76.0
136.182678 152.0
136.2547 88.0
136.368561 124.0
136.43132 40.0
136.497391 124.0
136.747681 172.0
136.865234 224.0
137.00383 116.0
137.148132 168.0
137.180939 40.0
137.225235 92.0
137.241547 104.0
137.332504 212.0
137.456146 196.0
137.659302 160.0
137.899887 116.0
138.147751 76.0
138.208572 152.0
138.227295 124.0
138.613678 112.0
138.829987 188.0
138.951324 108.0
139.069244 80.0
139.129684 168.0
139.195435 204.0
139.237701 164.0
139.254135 60.0
139.275284 76.0
139.357162 168.0
139.601974 44.0
139.637253 40.0
139.803818 120.0
140.049149 120.0
140.29422 192.0
140.41684 144.0
140.54422 28.0
140.699997 192.0
140.730698 52.0
140.751938 76.0
140.799179 196.0
141.021271 152.0
141.108734 116.0
141.224609 208.0
141.257721 160.0
141.281372 204.0
141.374435 232.0
141.473068 76.0
141.513321 128.0
141.544098 92.0
141.778625 124.0
141.863953 148.0
142.215027 148.0
142.50238 120.0
142.552277 220.0
142.747208 180.0
143.025574 140.0
143.073181 92.0
143.416214 76.0
143.592651 84.0
143.649902 140.0
143.801559 64.0
143.967346 116.0
144.058578 372.0
144.191925 96.0
144.232559 224.0
144.256454 132.0
144.335358 144.0
144.356873 168.0
144.462112 260.0
144.507568 60.0
144.629623 224.0
144.763702 112.0
144.787643 140.0
144.969727 60.0
145.029297 1416.0
145.180679 148.0
145.21666 236.0
145.329407 44.0
145.351013 60.0
145.490219 216.0
145.543045 180.0
145.655914 64.0
145.854599 140.0
145.9216 144.0
146.03656 696.0
146.083801 156.0
146.38707 112.0
146.418381 36.0
146.524368 156.0
146.791916 168.0
146.9077 104.0
146.951126 136.0
147.199738 192.0
147.530762 48.0
147.591202 96.0
147.76535 180.0
147.813751 160.0
147.874252 128.0
147.90329 36.0
147.963165 180.0
148.000137 160.0
148.04129 132.0
148.084885 96.0
148.145447 188.0
148.37326 164.0
148.508316 144.0
148.683746 196.0
148.710449 164.0
148.758987 88.0
148.802689 188.0
148.860962 140.0
148.953262 224.0
149.02858 208.0
149.32515 216.0
149.534393 116.0
149.566833 208.0
149.675598 120.0
150.238617 192.0
150.341095 128.0
150.392349 124.0
150.585953 164.0
150.687836 156.0
150.839783 208.0
150.981171 148.0
151.000732 148.0
151.093689 68.0
151.110825 368.0
151.220932 140.0
151.311508 168.0
151.345795 132.0
151.522141 124.0
151.676529 164.0
151.867783 120.0
151.988007 32.0
152.027267 152.0
152.099594 144.0
152.19664 108.0
152.235931 160.0
152.280136 160.0
152.781601 188.0
152.894791 108.0
153.014999 200.0
153.059723 76.0
153.160706 60.0
153.185333 140.0
153.513153 180.0
153.628418 136.0
153.940079 56.0
153.989471 64.0
154.038864 140.0
154.281052 68.0
154.445602 220.0
154.455963 120.0
154.462463 188.0
154.506104 144.0
154.649628 52.0
154.713852 144.0
154.744064 136.0
155.321121 192.0
155.373215 260.0
155.638794 156.0
155.678528 216.0
155.869812 176.0
155.931931 96.0
155.969223 116.0
156.066177 144.0
156.329849 100.0
156.494141 124.0
156.623642 160.0
156.810516 168.0
157.245697 192.0
157.444229 188.0
157.614105 156.0
157.684067 60.0
157.851578 132.0
157.904099 80.0
157.961624 160.0
158.031677 128.0
158.096725 88.0
158.129272 108.0
158.199356 80.0
158.565063 52.0
158.605164 84.0
158.768143 148.0
159.054169 132.0
159.197281 148.0
159.234955 176.0
159.400757 120.0
159.451019 92.0
159.954086 60.0
160.009338 156.0
160.193314 228.0
160.457932 136.0
160.604187 236.0
160.861572 64.0
160.972672 164.0
161.361801 188.0
161.396057 180.0
161.470535 176.0
161.612198 124.0
161.693176 200.0
161.758987 140.0
161.784302 156.0
161.842529 116.0
161.948898 136.0
162.029877 392.0
162.116104 124.0
162.13385 120.0
162.169327 208.0
162.187073 168.0
162.31131 128.0
162.526917 92.0
162.788376 52.0
162.841705 104.0
162.917908 172.0
163.037582 1948.0
163.128845 216.0
163.248337 56.0
163.352615 100.0
163.469666 196.0
163.58165 120.0
163.655487 148.0
163.736969 120.0
163.970673 176.0
164.041077 320.0
164.093719 156.0
164.119217 48.0
164.320724 156.0
164.402374 128.0
164.563187 148.0
164.609146 104.0
164.698532 156.0
164.846725 120.0
164.902954 120.0
165.064011 84.0
165.099808 88.0
165.340302 72.0
165.463165 144.0
165.547668 152.0
165.685974 168.0
165.739792 116.0
165.767303 152.0
165.883316 64.0
165.97818 136.0
166.196198 164.0
166.306564 116.0
166.329651 92.0
166.524796 224.0
166.648117 144.0
166.92572 116.0
167.023453 104.0
167.098053 160.0
167.257614 140.0
167.283356 208.0
167.303955 120.0
167.358017 80.0
167.430115 140.0
167.806335 136.0
168.072006 164.0
168.13652 152.0
168.326187 164.0
168.387924 172.0
168.40976 204.0
168.430878 184.0
168.517258 140.0
168.627243 116.0
168.790115 224.0
169.175629 136.0
169.23259 128.0
169.289551 148.0
169.447556 156.0
169.784546 192.0
169.841599 64.0
170.015442 112.0
170.272461 44.0
170.594666 128.0
170.685669 208.0
170.703873 36.0
170.896362 144.0
171.010864 180.0
171.047302 196.0
171.100922 220.0
171.187897 184.0
171.213943 172.0
171.333755 188.0
171.398895 204.0
171.456223 152.0
171.479691 172.0
171.849991 220.0
171.891739 156.0
172.019623 160.0
172.168457 108.0
172.367737 152.0
172.437561 172.0
172.510742 184.0
172.573486 188.0
172.712097 44.0
172.853378 132.0
173.081116 156.0
173.204208 96.0
173.233017 104.0
173.340439 108.0
173.634064 144.0
173.655045 184.0
173.962051 172.0
174.056564 156.0
174.219406 152.0
174.382339 104.0
174.553223 188.0
174.629486 148.0
174.866287 100.0
175.024231 76.0
175.309784 120.0
175.437881 136.0
175.582916 108.0
175.685791 208.0
175.704254 132.0
175.775497 116.0
176.034195 176.0
176.256088 172.0
176.443756 144.0
176.900543 180.0
176.994095 184.0
177.020569 300.0
177.107971 196.0
177.240433 204.0
177.282837 220.0
177.643433 92.0
177.786713 152.0
177.943329 152.0
178.028641 216.0
178.123917 68.0
178.293961 56.0
178.371048 164.0
178.509308 212.0
178.654877 120.0
178.863159 136.0
178.921722 160.0
178.990952 100.0
179.247086 264.0
179.537247 156.0
179.555923 300.0
179.670624 180.0
179.764008 180.0
179.862762 160.0
179.902802 184.0
180.060349 152.0
180.268723 172.0
180.66713 208.0
180.723312 64.0
180.827667 136.0
181.22049 180.0
181.256165 132.0
181.414291 80.0
182.060944 120.0
182.117355 160.0
182.157639 92.0
182.197937 228.0
182.275864 180.0
182.351105 176.0
182.498962 76.0
182.574249 196.0
182.727585 212.0
182.83252 112.0
182.851364 112.0
182.941544 152.0
182.972504 140.0
183.120605 140.0
183.152924 100.0
183.300049 188.0
183.379257 116.0
183.444946 184.0
183.473602 136.0
183.541016 140.0
183.705536 152.0
183.797272 184.0
184.186035 112.0
184.356247 168.0
184.442734 184.0
184.577927 196.0
184.748322 84.0
184.851135 196.0
185.0 180.0
185.032486 124.0
185.259979 96.0
185.281647 192.0
185.352097 192.0
185.379196 160.0
185.41713 180.0
185.476761 28.0
185.579788 216.0
185.840179 188.0
186.111603 168.0
186.163193 196.0
186.619705 176.0
186.701294 68.0
186.736649 112.0
186.804642 144.0
187.032471 216.0
187.06044 180.0
187.096497 200.0
187.286453 100.0
187.597107 188.0
187.938019 100.0
188.186401 120.0
188.325684 124.0
188.388504 116.0
188.645386 188.0
189.036514 164.0
189.339676 200.0
189.56778 120.0
189.976059 184.0
190.022949 180.0
190.083313 188.0
190.341354 124.0
190.3853 176.0
190.577576 148.0
190.635284 164.0
190.885452 100.0
190.937698 176.0
190.978958 184.0
191.127518 116.0
191.232086 168.0
191.303665 124.0
191.383499 152.0
191.515686 104.0
192.036636 220.0
192.098648 200.0
192.133179 100.0
192.329117 144.0
192.373276 164.0
192.527908 108.0
192.8004 176.0
192.837341 72.0
192.881561 228.0
193.200714 176.0
193.329636 144.0
193.429276 120.0
193.576004 64.0
193.600937 108.0
193.628632 100.0
193.697876 192.0
193.829498 116.0
193.930634 164.0
194.166306 124.0
194.245041 108.0
194.268936 128.0
194.343842 132.0
194.648087 152.0
194.738693 204.0
194.782486 184.0
195.102066 168.0
195.121536 144.0
195.149338 108.0
195.369049 208.0
195.472 92.0
195.563843 172.0
195.655701 144.0
195.753159 92.0
195.875702 104.0
195.991455 120.0
196.18924 128.0
196.241821 152.0
196.343964 240.0
196.927292 180.0
196.958008 128.0
197.002701 156.0
197.039032 172.0
197.461121 144.0
197.497482 152.0
197.527206 192.0
197.588348 192.0
197.622253 120.0
198.169373 164.0
198.42366 176.0
198.446854 88.0
198.657196 108.0
198.793579 316.0
198.856415 168.0
198.881683 328.0
199.128387 176.0
199.167465 144.0
199.263596 172.0
199.316986 136.0
199.524979 156.0
199.710571 224.0
199.769653 152.0
199.85968 132.0
200.118637 212.0
200.304504 156.0
200.341125 300.0
200.498917 168.0
200.848541 196.0
200.961395 64.0
201.065796 204.0
201.288818 240.0
201.353775 188.0
201.396149 132.0
201.763504 40.0
202.411453 124.0
202.487915 140.0
202.595551 156.0
202.955505 124.0
202.981018 120.0
203.298737 208.0
203.565582 168.0
203.591141 232.0
203.616714 140.0
203.67067 168.0
203.812729 184.0
203.915024 92.0
203.954819 220.0
203.983246 36.0
204.094131 120.0
204.375992 132.0
204.463943 68.0
204.66037 84.0
204.691696 244.0
204.731552 200.0
204.805603 132.0
204.952072 148.0
205.144714 168.0
205.184616 112.0
205.350021 120.0
205.575394 108.0
205.629623 140.0
205.90657 276.0
206.020828 148.0
206.275162 104.0
206.801483 104.0
206.850143 132.0
206.915985 156.0
206.984711 184.0
207.402985 112.0
207.456619 124.0
207.494339 180.0
207.566406 48.0
207.592209 148.0
207.620895 136.0
207.695465 40.0
207.715546 120.0
207.758575 72.0
208.111588 116.0
208.214966 168.0
208.275482 180.0
208.459167 144.0
208.804153 216.0
208.873184 104.0
208.919144 184.0
209.281845 104.0
209.348083 184.0
209.425842 124.0
209.486343 180.0
209.567001 44.0
210.23024 164.0
210.308151 124.0
210.348572 164.0
210.380325 92.0
210.518921 176.0
210.589127 220.0
210.660446 64.0
210.7789 108.0
210.85405 188.0
210.958099 228.0
211.010147 120.0
211.224152 208.0
211.632217 32.0
211.70575 212.0
211.745148 144.0
211.858124 136.0
211.950836 264.0
212.002991 220.0
212.281296 80.0
212.39151 164.0
212.484344 164.0
212.508102 168.0
212.879105 160.0
212.992371 120.0
213.038849 140.0
213.288757 176.0
213.331833 152.0
213.579544 136.0
213.690094 80.0
213.73877 120.0
214.316086 220.0
214.616318 188.0
214.84964 228.0
214.872986 260.0
214.986786 196.0
215.23407 164.0
215.483185 144.0
215.573776 132.0
215.614685 140.0
215.760849 140.0
215.943588 756.0
216.097183 224.0
216.290329 180.0
216.363525 92.0
216.436722 140.0
216.562653 32.0
216.644669 108.0
216.794098 80.0
216.952377 324.0
217.002228 268.0
217.269608 96.0
217.339539 216.0
217.364517 76.0
217.459854 148.0
217.60437 140.0
217.644806 180.0
217.724091 112.0
217.841583 112.0
217.923843 136.0
217.958847 156.0
218.020813 172.0
218.114868 156.0
218.220703 136.0
218.300095 156.0
218.400101 208.0
218.50444 208.0
218.660828 136.0
218.68045 164.0
218.835648 56.0
218.944595 236.0
219.357101 64.0
219.578247 176.0
219.610687 196.0
219.746384 72.0
219.84816 212.0
219.938538 24968.0
220.009064 136.0
220.034821 44.0
220.065155 56.0
220.097641 48.0
220.221664 92.0
220.343307 136.0
220.401886 156.0
220.426865 24.0
220.449875 132.0
220.526001 96.0
220.564423 120.0
220.604248 136.0
220.699554 96.0
220.771393 184.0
220.877869 168.0
220.939682 1616.0
221.108658 80.0
221.235947 160.0
221.274307 100.0
221.333649 52.0
221.360718 140.0
221.650604 68.0
221.671341 84.0
221.861038 76.0
221.941086 272.0
222.009293 120.0
222.059433 128.0
222.181335 40.0
222.22287 72.0
222.3564 152.0
222.427643 72.0
222.564209 100.0
222.590927 92.0
222.754288 108.0
222.834503 88.0
222.908783 44.0
222.992004 164.0
223.048477 128.0
223.152527 148.0
223.21199 88.0
223.637421 180.0
223.93219 160.0
223.961975 148.0
224.531265 148.0
224.713226 120.0
225.035568 192.0
225.438828 72.0
225.480667 88.0
225.516541 112.0
225.549423 144.0
225.742874 176.0
225.845444 40.0
226.117722 124.0
226.180573 100.0
226.485992 200.0
226.779633 176.0
226.920532 128.0
227.040482 140.0
227.066711 188.0
227.102112 152.0
227.247467 136.0
227.322479 144.0
227.661697 168.0
227.709763 160.0
227.940735 356.0
227.97113 120.0
228.313858 84.0
228.396317 200.0
228.431152 140.0
228.470261 212.0
228.659836 196.0
228.741104 136.0
228.840454 132.0
229.090424 108.0
229.241074 148.0
229.316422 116.0
229.681274 176.0
230.153778 120.0
230.381607 112.0
230.535706 172.0
230.729156 108.0
230.765442 172.0
230.93309 300.0
230.962006 104.0
230.989243 136.0
231.092102 104.0
231.194977 152.0
231.464737 180.0
231.506805 52.0
231.743073 140.0
231.837021 100.0
231.930969 184.0
231.954987 204.0
232.176559 80.0
232.231155 144.0
232.258453 140.0
232.316086 148.0
232.401031 56.0
232.495102 140.0
232.519394 64.0
232.628662 72.0
232.744034 192.0
232.792618 156.0
232.850784 208.0
232.906372 160.0
232.946854 11812.0
232.996124 164.0
233.163254 128.0
233.242279 120.0
233.275726 84.0
233.339569 124.0
233.36084 120.0
233.442276 140.0
233.485519 212.0
233.522797 188.0
233.588181 128.0
233.609482 196.0
233.698456 80.0
233.753235 140.0
233.808014 156.0
233.876831 236.0
233.954529 29120.0
234.124634 36.0
234.147186 172.0
234.194473 60.0
234.224823 192.0
234.311584 96.0
234.350388 36.0
234.389664 140.0
234.474457 272.0
234.548599 160.0
234.575577 44.0
234.648743 76.0
234.696365 200.0
234.743271 208.0
234.81076 92.0
234.844147 160.0
234.876862 180.0
234.956009 2616.0
235.014755 144.0
235.089066 248.0
235.142929 76.0
235.234497 172.0
235.466553 68.0
235.506256 112.0
235.533752 48.0
235.683456 48.0
235.714981 128.0
235.755646 96.0
235.906387 108.0
235.95723 352.0
236.074921 124.0
236.132843 36.0
236.16037 44.0
236.187897 248.0
236.276611 144.0
236.346985 104.0
236.388702 76.0
236.454086 88.0
236.481628 164.0
236.503983 80.0
236.520508 120.0
236.570251 80.0
236.838089 172.0
236.86438 92.0
236.891953 188.0
237.008911 184.0
237.210648 144.0
237.235184 160.0
237.278107 52.0
237.345551 128.0
237.408279 124.0
237.698318 136.0
237.741272 116.0
238.24791 152.0
238.284775 36.0
238.312439 164.0
238.389252 176.0
238.438431 144.0
238.610565 148.0
238.745865 156.0
238.813522 28.0
238.853516 148.0
239.111969 120.0
239.330551 152.0
239.525589 180.0
239.684769 152.0
239.965271 64.0
240.113281 88.0
240.208908 180.0
240.369339 144.0
240.427979 232.0
240.474274 104.0
240.675003 168.0
240.802444 124.0
240.849487 140.0
241.382553 112.0
241.481506 172.0
241.651657 164.0
241.918259 128.0
242.046646 196.0
242.215317 220.0
242.273956 128.0
242.298737 164.0
242.413391 172.0
242.472275 88.0
242.502731 164.0
242.583862 156.0
242.828812 184.0
242.956039 412.0
243.135971 84.0
243.36879 56.0
243.435532 168.0
243.558228 148.0
243.626572 100.0
243.688705 156.0
243.847733 140.0
243.874786 124.0
243.938797 13716.0
244.046158 52.0
244.120773 60.0
244.217194 48.0
244.338516 84.0
244.38829 188.0
244.469208 32.0
244.618607 40.0
244.640396 64.0
244.880157 112.0
244.942886 2424.0
245.010986 28.0
245.101349 52.0
245.188599 192.0
245.241592 44.0
245.277161 68.0
245.344467 64.0
245.484772 64.0
245.578339 100.0
245.622009 128.0
245.643845 84.0
245.950943 2900.0
246.196304 200.0
246.377472 80.0
246.51535 92.0
246.577454 184.0
246.599335 192.0
246.639969 120.0
246.707108 152.0
246.765015 156.0
246.802536 196.0
246.865067 152.0
246.925308 5824.0
247.039673 156.0
247.067154 132.0
247.115311 48.0
247.162247 88.0
247.253006 92.0
247.307083 164.0
247.359421 32.0
247.456467 224.0
247.566071 136.0
247.851135 92.0
247.93222 4652.0
247.98349 172.0
248.037415 64.0
248.101868 48.0
248.333923 80.0
248.362152 140.0
248.502792 120.0
248.594315 76.0
248.625702 60.0
248.845444 64.0
248.879974 140.0
248.937134 444.0
248.980469 140.0
249.046417 132.0
249.184647 72.0
249.338623 48.0
249.63414 216.0
250.0746 160.0
250.118652 92.0
250.184769 80.0
250.52803 160.0
250.848007 88.0
251.044968 120.0
251.227905 172.0
251.341492 136.0
251.391968 160.0
251.856094 140.0
252.50087 124.0
252.5578 112.0
252.751923 164.0
253.032486 112.0
253.225662 168.0
253.308014 104.0
253.441071 40.0
253.574173 76.0
253.919754 248.0
254.11644 188.0
254.189423 212.0
254.233841 300.0
254.348099 176.0
254.383026 80.0
254.516373 104.0
254.679718 168.0
254.929337 172.0
255.05011 176.0
255.565308 164.0
255.848572 136.0
256.04599 56.0
256.128815 212.0
256.195709 148.0
256.246674 88.0
256.421936 160.0
256.539886 228.0
256.855804 180.0
256.967255 204.0
257.008728 240.0
257.101257 220.0
257.366211 120.0
257.497162 144.0
257.561035 124.0
257.75592 132.0
257.904785 152.0
258.417816 96.0
258.494598 68.0
258.542603 128.0
258.744263 100.0
258.875092 140.0
258.920807 168.0
259.003662 116.0
259.077209 104.0
259.218323 104.0
259.279205 180.0
259.663177 152.0
259.721588 152.0
259.734161 148.0
259.817902 92.0
259.843567 180.0
259.869232 172.0
259.891693 280.0
259.957153 8140.0
260.009491 220.0
260.036255 216.0
260.074615 44.0
260.098877 56.0
260.122772 76.0
260.180573 96.0
260.207184 136.0
260.220062 40.0
260.231049 148.0
260.31543 60.0
260.368195 228.0
260.418182 164.0
260.456726 144.0
260.488861 92.0
260.551788 156.0
260.575592 120.0
260.617065 124.0
260.63858 232.0
260.673706 120.0
260.72641 240.0
260.751923 92.0
260.78125 180.0
260.803772 128.0
260.845764 168.0
260.96524 87024.0
261.024109 248.0
261.054321 180.0
261.095276 68.0
261.129761 116.0
261.173126 96.0
261.213806 240.0
261.310669 208.0
261.352631 96.0
261.377167 56.0
261.43222 168.0
261.495361 124.0
261.527191 160.0
261.555634 112.0
261.598785 76.0
261.682007 96.0
261.743042 84.0
261.771454 180.0
261.813782 52.0
261.880188 184.0
261.964142 5944.0
262.038605 144.0
262.047363 92.0
262.105682 120.0
262.156219 36.0
262.186279 80.0
262.216736 108.0
262.245758 56.0
262.289093 56.0
262.331604 88.0
262.363953 60.0
262.416443 124.0
262.514832 104.0
262.60849 60.0
262.644409 96.0
262.693085 144.0
262.697845 180.0
262.722992 72.0
262.78363 236.0
262.813354 52.0
262.887573 44.0
262.958527 612.0
263.092682 132.0
263.132874 48.0
263.24588 84.0
263.294342 84.0
263.332794 88.0
263.345032 80.0
263.407379 152.0
263.475891 220.0
263.540619 136.0
263.59021 96.0
263.623871 48.0
263.646484 60.0
263.672333 192.0
263.764404 140.0
263.788696 140.0
263.817932 104.0
263.844879 124.0
263.873505 108.0
263.914795 104.0
263.968414 124.0
264.102356 68.0
264.167053 80.0
264.335297 100.0
264.578064 108.0
264.662231 32.0
264.728516 132.0
264.769104 68.0
264.820923 124.0
265.083344 60.0
265.290771 36.0
265.326447 112.0
265.439911 72.0
265.504791 136.0
265.530731 36.0
265.572906 116.0
265.663727 80.0
265.933044 132.0
265.95578 256.0
266.010956 56.0
266.066772 124.0
266.413635 88.0
266.517609 116.0
266.582611 192.0
266.686584 52.0
267.796112 60.0
267.887329 148.0
267.926422 112.0
268.164307 40.0
268.284912 84.0
268.441406 180.0
268.695831 116.0
268.894897 128.0
269.322632 136.0
269.378143 76.0
269.748779 76.0
270.116943 52.0
270.241241 116.0
270.29361 60.0
270.355774 120.0
270.480164 80.0
270.558716 68.0
270.699524 96.0
270.784668 80.0
270.843628 148.0
270.928314 148.0
271.112274 76.0
271.156982 120.0
271.502411 64.0
271.646729 128.0
271.75827 132.0
271.826324 120.0
271.93161 9932.0
272.020844 72.0
272.043823 64.0
272.083221 60.0
272.118103 76.0
272.209137 80.0
272.355774 80.0
272.444458 40.0
272.510193 112.0
272.769806 100.0
272.939606 5168.0
273.042725 76.0
273.138092 52.0
273.259827 96.0
273.421722 60.0
273.585632 100.0
273.71405 48.0
273.756866 36.0
273.826019 60.0
273.94342 464.0
274.11264 76.0
274.198334 68.0
274.254364 88.0
274.389526 92.0
274.438202 104.0
274.501617 136.0
274.570862 120.0
274.629608 104.0
274.769684 104.0
274.811676 108.0
274.890869 132.0
275.082306 44.0
275.191254 76.0
275.518219 52.0
275.623962 80.0
275.954651 368.0
276.391113 132.0
276.444061 284.0
276.924103 76.0
277.066559 76.0
277.136139 104.0
277.288574 56.0
277.374756 56.0
277.444366 112.0
277.494263 152.0
277.537201 136.0
277.580292 128.0
279.859802 124.0
280.059601 140.0
280.282806 108.0
280.349457 160.0
280.592804 228.0
280.832886 104.0
281.20993 40.0
281.26001 80.0
281.540466 140.0
282.422821 116.0
283.279755 208.0
283.675171 128.0
283.886414 124.0
284.020569 112.0
284.168182 128.0
284.275543 172.0
284.732147 52.0
284.83963 132.0
285.468109 160.0
285.777588 48.0
286.110779 60.0
286.24884 120.0
286.683411 112.0
287.793213 104.0
287.954529 156.0
288.154602 156.0
288.424957 64.0
288.621063 96.0
288.813721 148.0
288.872009 100.0
288.935394 5588.0
289.060791 28.0
289.121704 136.0
289.17926 140.0
289.236786 44.0
289.294342 160.0
289.331573 48.0
289.368835 184.0
289.470398 140.0
289.527985 64.0
289.619415 64.0
289.802368 180.0
289.836243 148.0
289.887085 128.0
289.942596 18856.0
290.014038 56.0
290.039581 152.0
290.122284 72.0
290.186981 76.0
290.233093 92.0
290.259949 48.0
290.347595 76.0
290.365631 76.0
290.429535 68.0
290.51297 96.0
290.771179 128.0
290.850281 28.0
290.875641 144.0
290.945618 1940.0
291.009857 36.0
291.087952 68.0
291.220398 64.0
291.298523 92.0
291.471802 120.0
291.532959 52.0
291.597534 48.0
291.685913 80.0
291.767517 80.0
291.818512 100.0
291.94751 132.0
291.952698 248.0
292.042938 168.0
292.093964 160.0
292.172211 44.0
292.729065 60.0
292.958649 208.0
292.992706 156.0
293.054016 156.0
293.12558 44.0
293.442596 52.0
293.950836 40.0
294.022491 68.0
294.104401 92.0
294.589294 108.0
294.674713 44.0
294.743042 104.0
294.794312 112.0
294.872894 144.0
295.184021 200.0
295.553436 204.0
295.885437 84.0
296.108032 84.0
297.29425 148.0
297.850464 148.0
298.3797 36.0
299.394775 220.0
300.853333 76.0
301.157196 180.0
301.395569 144.0
302.118195 100.0
302.52655 180.0
302.862457 168.0
303.305969 148.0
303.458527 80.0
304.10376 52.0
304.339813 92.0
306.545197 140.0
306.987946 68.0
307.354218 76.0
307.741669 92.0
307.956451 108.0
309.356445 132.0
309.468903 112.0
309.573975 124.0
310.457092 116.0
310.807892 112.0
311.138062 112.0
311.988007 80.0
312.596497 52.0
314.171478 120.0
314.37262 56.0
314.732666 116.0
314.757385 168.0
314.842133 100.0
314.94458 100.0
316.143127 160.0
317.9328 160.0
318.504456 120.0
318.991272 144.0
319.250824 60.0
319.375305 64.0
319.567413 96.0
319.720428 124.0
321.909332 100.0
324.062683 124.0
324.352966 120.0
324.826324 64.0
325.091827 136.0
325.572876 88.0
326.180084 164.0
326.618805 68.0
328.802277 172.0
328.892487 120.0
329.213837 40.0
329.278839 76.0
331.630615 152.0
331.724884 96.0
332.515625 216.0
333.042084 148.0
333.670776 108.0
333.779846 128.0
334.205414 160.0
334.995483 188.0
336.187775 88.0
336.362976 80.0
338.714233 148.0
340.463776 124.0
341.007538 116.0
341.478149 48.0
341.779816 128.0
341.853394 208.0
342.230469 92.0
342.840363 120.0
343.253235 88.0
343.954224 124.0
344.759979 132.0
344.811157 52.0
345.321381 164.0
346.039276 124.0
346.172577 160.0
346.83194 168.0
347.106415 104.0
347.644318 148.0
347.740814 84.0
348.108337 80.0
348.155304 56.0
348.490936 328.0
348.516968 116.0
348.951843 72.0
349.186096 96.0
350.653046 156.0
351.50705 92.0
351.757111 128.0
352.03714 116.0
352.377075 116.0
353.423981 128.0
353.558716 80.0
354.731079 60.0
354.813538 120.0
354.937286 152.0
355.84668 144.0
356.003021 84.0
356.664276 36.0
357.337433 64.0
357.378815 68.0
358.847656 328.0
359.00238 112.0
359.436188 140.0
359.515442 116.0
359.847626 124.0
360.852631 124.0
360.958496 132.0
362.108978 132.0
364.377441 64.0
366.351959 108.0
366.493927 196.0
366.595795 116.0
367.289703 188.0
368.152283 104.0
368.194305 104.0
369.084686 96.0
369.145874 120.0
369.56665 60.0
369.995331 120.0
370.523834 76.0
370.592804 112.0
370.842102 3428.0
370.930054 168.0
370.991394 48.0
371.033569 120.0
371.09491 64.0
371.152435 100.0
371.367188 44.0
371.532135 136.0
371.84549 420.0
372.061768 68.0
372.184631 132.0
372.460693 104.0
372.845581 216.0
372.90686 88.0
373.014465 104.0
373.079834 120.0
373.448975 132.0
373.868347 176.0
374.172455 72.0
374.287964 104.0
374.48822 200.0
374.750183 100.0
374.836975 10620.0
374.956879 44.0
375.008911 56.0
375.270508 88.0
375.374634 68.0
375.405487 124.0
375.532745 252.0
375.598328 200.0
375.841003 1020.0
376.065216 52.0
376.165558 116.0
376.250488 96.0
376.846405 136.0
376.918701 104.0
376.961212 104.0
377.057831 52.0
377.088745 76.0
377.138977 88.0
377.390259 108.0
377.564301 48.0
377.668701 92.0
377.715118 56.0
377.769287 40.0
377.947266 32.0
378.016907 152.0
378.275604 172.0
378.442719 48.0
379.446198 80.0
379.721527 164.0
380.253082 68.0
380.986969 100.0
381.235657 104.0
381.523285 36.0
381.923828 124.0
382.943604 92.0
383.341003 84.0
383.921844 128.0
383.949158 48.0
384.331451 112.0
384.534393 108.0
384.885742 120.0
385.276306 84.0
385.327087 92.0
385.467773 160.0
385.553741 56.0
385.811707 132.0
386.011139 232.0
386.183197 120.0
386.23407 104.0
386.431793 96.0
386.664459 112.0
386.78186 212.0
386.840851 116.0
386.941772 176.0
387.03244 164.0
387.069305 96.0
387.41626 208.0
387.443695 32.0
387.473846 160.0
387.488892 112.0
387.589264 204.0
387.623993 192.0
387.652924 148.0
387.721893 152.0
387.783997 252.0
387.869904 51136.0
388.008057 100.0
388.046417 112.0
388.106323 168.0
388.169708 136.0
388.254578 64.0
388.330841 128.0
388.404114 56.0
388.446472 196.0
388.474731 40.0
388.513977 88.0
388.556702 76.0
388.606567 96.0
388.645874 84.0
388.708191 80.0
388.739929 184.0
388.87262 4396.0
388.973114 44.0
389.008453 112.0
389.067322 76.0
389.110504 84.0
389.17923 72.0
389.291138 64.0
389.436462 48.0
389.51651 52.0
389.573944 60.0
389.676086 36.0
389.821472 72.0
389.877655 416.0
390.010132 96.0
390.084808 96.0
390.135925 80.0
390.40329 104.0
390.463379 72.0
390.529144 128.0
390.891083 60.0
390.993408 32.0
391.036713 148.0
391.075104 180.0
391.123291 64.0
391.154785 52.0
391.225647 52.0
391.280762 100.0
391.320129 60.0
391.362244 224.0
391.434326 76.0
391.489624 216.0
391.548523 100.0
391.678497 40.0
391.820343 84.0
391.875488 128.0
391.926697 40.0
392.017334 88.0
392.490387 96.0
392.742798 140.0
392.845337 148.0
392.94397 76.0
393.113647 64.0
393.539948 52.0
394.28656 88.0
394.503967 52.0
395.251495 116.0
396.911224 76.0
398.836395 972.0
399.059357 48.0
399.833801 152.0
400.623444 68.0
401.113617 80.0
401.627991 88.0
404.276917 60.0
404.328949 72.0
404.401001 112.0
405.354156 44.0
406.376648 56.0
407.344208 104.0
409.584778 64.0
410.036072 76.0
410.390808 108.0
411.41156 88.0
411.480194 64.0
411.726501 120.0
412.077942 48.0
413.845459 60.0
415.864349 68.0
415.925232 100.0
416.193176 52.0
416.847778 1336.0
417.847351 136.0
418.84906 100.0
419.623199 60.0
420.761505 112.0
421.52533 92.0
423.689789 40.0
424.52597 72.0
428.941803 88.0
430.117432 52.0
431.927338 120.0
432.83783 160.0
433.872345 360.0
433.931732 104.0
434.877411 116.0
434.906616 152.0
435.570984 40.0
435.795319 72.0
437.213318 64.0
438.316895 140.0
440.97113 68.0
444.665222 88.0
448.75415 88.0
452.158936 76.0
468.264069 60.0
471.603607 132.0
475.914154 36.0
478.222565 80.0
483.560577 92.0
483.858246 44.0
486.102448 64.0
495.166595 80.0
495.357086 96.0
498.329529 220.0
498.960632 56.0
501.970612 92.0
510.159882 56.0
518.496948 56.0
519.748596 40.0
523.899658 104.0
527.56427 36.0
528.039856 80.0
528.282288 40.0
531.204956 60.0
533.285034 40.0
534.614197 48.0
548.444214 32.0
551.880188 76.0
551.992432 108.0
552.422729 64.0
561.912842 44.0
585.847168 40.0
590.969666 96.0
593.93457 128.0
595.895874 80.0
604.443481 76.0
606.61322 72.0
614.338928 52.0
615.567932 88.0
620.228516 80.0
622.441223 116.0
632.617432 56.0
647.654053 60.0
653.420959 100.0
655.957092 104.0
665.745117 76.0
678.7547 104.0
678.811768 76.0
710.155029 88.0
719.627625 84.0
720.476807 120.0
720.877563 116.0
748.596191 52.0
749.963684 52.0
760.690552 64.0
765.457397 188.0
774.56488 52.0
783.614807 124.0
784.478638 88.0
802.588257 124.0
809.187744 56.0
811.941711 176.0
818.767395 128.0
823.718323 104.0
825.289978 144.0
830.782532 80.0
836.995667 128.0
837.041748 52.0
837.116577 92.0
837.283569 128.0
857.533203 72.0
859.031799 164.0
867.118591 40.0
874.901794 56.0
878.08374 188.0
883.305237 92.0
886.970703 140.0
889.373047 100.0
891.475525 52.0
895.890503 144.0
904.405884 100.0
906.903687 144.0
909.074768 64.0
911.741211 180.0
918.937195 104.0
919.902771 52.0
921.726807 80.0
924.889832 156.0
929.174316 172.0
930.108887 196.0
934.587952 64.0
941.561829 168.0
945.566406 220.0
945.98877 32.0
946.141846 136.0
961.879639 36.0
968.793335 60.0
972.805725 48.0
973.407959 80.0
974.507385 244.0
974.613037 76.0
974.90509 120.0
977.5979 148.0
979.291321 184.0
979.552917 184.0
988.199646 164.0
993.04834 68.0
997.827148 180.0
997.908936 180.0
1002.768738 60.0
1008.49353 148.0
1011.947571 76.0
1016.44165 164.0
1022.708008 76.0
1022.822632 152.0
1025.191895 200.0
1025.54248 144.0
1031.018555 192.0
1034.312622 132.0
1036.765625 128.0
1037.118164 240.0
1040.441162 144.0
1043.036377 168.0
1051.571045 120.0
1052.171387 76.0
1052.229492 52.0
1062.4552 128.0
1064.454346 200.0
1070.5802 180.0
1075.476685 224.0
1075.829102 124.0
1075.979248 148.0
1076.371094 88.0
1079.703979 96.0
1081.692993 44.0
1082.996094 112.0
1086.424438 96.0
1100.641235 120.0
1108.459961 156.0
1110.846802 212.0
1110.926514 164.0
1116.505981 128.0
1118.262451 164.0
1118.94812 212.0
1123.513428 124.0
1125.635986 88.0
1130.703369 128.0
1131.372681 188.0
1132.497681 200.0
1136.278564 196.0
1139.125122 148.0
1144.613281 100.0
1149.689453 176.0
1150.789795 132.0
1154.709229 188.0
1157.016724 112.0
1163.145142 92.0
1163.348755 112.0
1164.469116 184.0
1164.876709 172.0
1166.799927 160.0
1167.269165 176.0
1169.364502 140.0
1169.677612 80.0
1171.11438 152.0
1175.19104 168.0
1180.122559 48.0
1180.861084 196.0
1182.332031 160.0
1183.817627 124.0
1186.400879 100.0
1186.5448 192.0
1188.074219 128.0
1190.744385 204.0
1192.255859 144.0
1192.620117 104.0
1197.780884 156.0
1198.221802 164.0
1198.807495 212.0
1200.40686 196.0
1201.738159 120.0
1202.138306 196.0
1203.035645 204.0
1206.448364 48.0
1206.55896 92.0
1209.852173 180.0
1212.401123 184.0
1212.858643 124.0
1213.226074 148.0
1215.438599 160.0
1216.056152 208.0
1218.042114 192.0
1223.236572 196.0
1223.689087 128.0
1228.525879 56.0
1228.602661 120.0
1230.528931 136.0
1234.539795 172.0
1236.372803 72.0
1237.254761 144.0
1238.956543 140.0
1242.188354 128.0
1243.78125 96.0
1245.761475 76.0
1248.024658 216.0
1248.56604 52.0
1249.987183 112.0
1251.542847 40.0
1252.9021 208.0
1255.75 208.0
1259.519165 172.0
1261.123169 160.0
1264.249268 224.0
1264.560669 156.0
1272.768555 140.0
1276.664307 180.0
1277.133789 188.0
1277.596191 164.0
1278.371704 240.0
1279.311279 176.0
1280.642822 188.0
1283.735962 128.0
1284.763062 164.0
1286.661499 244.0
1291.17749 156.0
1291.234741 216.0
1292.007324 64.0
1292.336426 160.0
1295.701538 120.0
1295.909302 140.0
1296.102783 100.0
1296.468262 84.0
1300.132935 120.0
1302.746582 156.0
1303.033936 132.0
1304.226929 140.0
1306.528076 140.0
1307.60022 220.0
1307.880981 136.0
1309.501099 188.0
1311.223022 220.0
1312.33313 148.0
1314.894043 176.0
1318.432983 124.0
1319.849854 164.0
1324.112305 224.0
1325.032227 112.0
1326.40918 44.0
1327.025391 136.0
1327.866577 44.0
1329.332031 108.0
1330.021606 180.0
1334.496704 28.0
1336.307739 148.0
1338.97937 144.0
1339.343506 136.0
1339.78064 160.0
1339.999146 140.0
1340.181396 152.0
1340.829956 204.0
1342.463013 132.0
1344.753784 184.0
1344.921753 188.0
1351.403931 180.0
1354.075928 140.0
1354.87439 204.0
1355.003418 224.0
1355.68042 180.0
1356.757935 156.0
1357.021851 96.0
1359.325073 128.0
1359.530518 116.0
1359.655273 100.0
1359.838745 176.0
1360.117676 72.0
1360.293945 168.0
1360.64624 68.0
1367.578369 196.0
1369.131958 120.0
1369.43396 132.0
1369.993774 112.0
1372.779907 184.0
1373.672363 48.0
1374.011719 148.0
1376.019165 120.0
1376.948975 196.0
1379.935059 184.0
1380.65979 120.0
1383.989746 224.0
1385.248901 220.0
1385.485962 204.0
1385.87854 172.0
1385.997192 180.0
1386.08606 152.0
1386.730835 88.0
1386.842041 160.0
1387.08667 136.0
1388.495361 156.0
1391.552734 60.0
1392.592407 96.0
1393.810791 84.0
1394.390381 144.0
1395.85498 188.0
1397.111938 192.0
1398.56311 120.0
1399.79895 136.0
1400.074463 116.0
1400.469238 224.0
1401.683594 128.0
1403.248901 148.0
1404.442139 104.0
1405.703003 140.0
1405.829834 72.0
1407.039062 204.0
1407.143555 212.0
1409.137817 212.0
1410.924072 136.0
1413.848755 112.0
1416.963867 88.0
1417.570801 168.0
1418.800049 112.0
1418.994873 164.0
1419.249878 168.0
1421.350098 184.0
1421.86792 148.0
1423.624756 160.0
1425.916138 180.0
1425.998779 196.0
1428.532837 148.0
1429.390625 52.0
1430.263672 168.0
1431.761963 196.0
1432.070801 152.0
1432.462402 132.0
1434.0448 136.0
1434.399048 124.0
1437.129272 284.0
1438.223511 116.0
1438.397095 124.0
1438.570801 140.0
1440.020508 180.0
1440.791016 176.0
1441.932129 140.0
1442.476318 152.0
1442.869385 72.0
1442.9375 264.0
1444.881226 172.0
1446.493164 44.0
1447.129028 228.0
1447.46228 156.0
1447.575806 212.0
1448.24231 88.0
1448.825562 180.0
1450.576172 168.0
1451.425293 84.0
1455.447021 152.0
1456.7229 196.0
1458.265503 180.0
1460.191772 172.0
1460.447632 96.0
1461.261597 204.0
1461.535522 176.0
1463.575562 232.0
1463.94873 264.0
1464.809326 220.0
1465.182617 168.0
1465.639771 212.0
1466.699097 164.0
1466.935425 208.0
1467.209839 180.0
1467.499634 180.0
1467.934204 120.0
1468.101074 164.0
1468.41748 232.0
1468.666382 216.0
1470.001587 136.0
1470.886963 224.0
1472.177246 124.0
1472.872314 180.0
1473.987793 184.0
1475.554688 208.0
1476.181641 148.0
1476.961792 172.0
1478.6604 192.0
1481.003296 188.0
1481.999268 136.0
1482.688965 96.0
1483.877075 60.0
1484.682251 148.0
1486.531128 112.0
1488.711304 68.0
1488.964722 180.0
1489.778931 192.0
1490.816284 164.0
1491.100586 116.0
1491.354248 104.0
1492.961182 180.0
1496.824219 32.0
1496.893555 192.0
1497.555908 200.0
1499.173828 156.0
1500.908325 168.0
1504.936157 148.0
