>compound MLS002154067-01!Bephenium hydroxynaphthoate3818-50-6
>formula C17H22NO
>ionization [M+H]+
>parentmass 257.1774157760905
#inchi InChI=1S/C17H22NO/c1-18(2,15-16-9-5-3-6-10-16)13-14-19-17-11-7-4-8-12-17/h3-12H,13-15H2,1-2H3/q+1
#inchikey AVWWVJUMXRXPNF
#origInchi InChI=1S/C17H22NO.C11H8O3/c1-18(2,15-16-9-5-3-6-10-16)13-14-19-17-11-7-4-8-12-17;12-10-8-4-2-1-3-7(8)5-6-9(10)11(13)14/h3-12H,13-15H2,1-2H3;1-6,12H,(H,13,14)/q+1;
#Ion_Source LC-ESI
#Instrument qTof
#Compound_Source NIH Pharmacologically Active Library
#PI Dorrestein
#Data_Collector VP/LMS
#Scan -1
#Precursor_MZ 256.17
#ExactMass 256.17
#Charge 1
#CAS_Number N/A
#Pubmed_ID N/A
#Smiles C[N+](C)(CCOc1ccccc1)Cc2ccccc2.Oc1c(C(O)=O)ccc2ccccc12
#INCHI_AUX N/A
#Library_Class 1
#SpectrumID CCMSLIB00000085679
#IonMode Positive
#UpdateWorkflowName UPDATE-SINGLE-ANNOTATED-GOLD
#LibraryQualityString Gold
#TaskID d252d724072548979f1f6f1ced849daf
##Scan# 1561
#SpectrumFile p4-E02_GE2_01_18374.mzXML
#LibraryName Pharm_Active_Library.mgf
#MQScore -1
#Organism Pharm_Active_Library
#TIC_Query 0
#RT_Query -1
#MZErrorPPM -1
#SharedPeaks 0
#MassDiff 0
#LibMZ -1
#SpecMZ 256.17
#SpecCharge 0
#internalFilename spec-00000.mgf

>collision 10
45.090691 212.0
45.168243 104.0
45.370457 72.0
45.483139 120.0
45.563713 200.0
45.59193 132.0
45.62957 172.0
45.697124 204.0
45.707581 140.0
45.88942 192.0
45.902905 192.0
45.990597 200.0
46.152714 236.0
46.183819 200.0
46.392357 212.0
46.418118 140.0
46.522591 212.0
46.621746 56.0
46.69965 200.0
46.719646 48.0
46.857151 104.0
46.887131 188.0
46.926014 168.0
46.986671 176.0
47.070602 204.0
47.21479 164.0
47.409191 232.0
47.496941 176.0
47.542217 120.0
47.553196 68.0
47.583397 176.0
47.614979 164.0
47.658939 44.0
47.799194 156.0
47.830849 148.0
48.080322 164.0
48.116211 224.0
48.250225 44.0
48.467529 224.0
48.488316 196.0
48.608967 184.0
48.6395 64.0
48.795094 188.0
48.811779 64.0
48.824051 160.0
49.112602 168.0
49.124599 120.0
49.151665 104.0
49.164467 252.0
49.201912 140.0
49.559738 224.0
49.634945 144.0
49.783001 164.0
49.93338 168.0
50.03751 44.0
50.1675 152.0
50.243275 156.0
50.581024 224.0
50.671658 152.0
50.823372 88.0
50.915642 168.0
51.020794 172.0
51.042118 56.0
51.054916 212.0
51.093323 160.0
51.104706 152.0
51.181568 144.0
51.428204 184.0
51.45961 188.0
51.6926 152.0
51.843964 224.0
51.960545 228.0
52.187477 196.0
52.220551 68.0
52.337116 152.0
52.51582 136.0
52.842297 172.0
52.932037 168.0
53.062443 140.0
53.121902 168.0
53.175591 208.0
53.275784 224.0
53.504112 124.0
53.582756 112.0
53.636677 156.0
53.779625 72.0
53.858471 180.0
53.874538 44.0
54.10561 144.0
54.126106 168.0
54.181767 136.0
54.219864 132.0
54.467827 164.0
54.489864 152.0
54.554527 168.0
54.647182 136.0
54.798836 208.0
54.868107 176.0
54.890221 344.0
55.232864 168.0
55.275768 100.0
55.321651 124.0
55.348301 164.0
55.506557 200.0
55.526131 176.0
55.627029 116.0
55.655239 352.0
55.849922 128.0
55.946648 140.0
56.386375 156.0
56.391647 124.0
56.430035 204.0
56.467419 164.0
56.492847 200.0
56.551205 128.0
56.632057 288.0
57.097332 192.0
57.208679 152.0
57.705036 184.0
57.75948 148.0
57.785198 116.0
57.894184 192.0
57.932049 64.0
58.050274 152.0
58.203537 208.0
58.23391 152.0
58.420258 108.0
58.477177 160.0
58.493923 204.0
58.568535 152.0
58.588337 148.0
58.627956 108.0
58.682831 164.0
58.936203 124.0
58.968296 140.0
59.214622 172.0
59.450722 236.0
59.573559 200.0
59.691906 140.0
59.70882 168.0
59.776512 48.0
59.793438 172.0
59.899681 144.0
59.917896 188.0
59.948986 204.0
60.144115 160.0
60.449326 156.0
60.472542 244.0
60.500404 64.0
60.529823 152.0
60.570087 144.0
60.638264 176.0
60.774731 176.0
60.888054 144.0
60.937546 200.0
60.973503 164.0
60.992153 188.0
61.009254 212.0
61.077675 172.0
61.189724 172.0
61.217751 248.0
61.25174 180.0
61.392292 164.0
61.450005 140.0
61.541222 172.0
61.659252 176.0
61.674885 192.0
61.688953 108.0
61.717094 188.0
61.862595 164.0
61.873554 208.0
62.204334 144.0
62.857498 164.0
62.895374 204.0
62.974323 108.0
63.073868 176.0
63.346043 120.0
63.366638 68.0
63.575947 188.0
63.59182 84.0
63.669617 100.0
63.961662 88.0
64.174057 76.0
64.201164 204.0
64.293694 136.0
64.341583 176.0
64.408653 172.0
64.427818 48.0
64.451294 260.0
64.698097 208.0
64.722115 224.0
64.887787 216.0
64.901573 160.0
65.261238 220.0
65.335228 136.0
65.365799 180.0
65.391548 144.0
65.576767 184.0
65.610619 172.0
65.836517 208.0
65.895096 228.0
66.070892 148.0
66.112968 84.0
66.138863 144.0
66.242493 212.0
66.333244 116.0
66.344589 236.0
66.401344 92.0
66.46299 204.0
66.536026 120.0
66.565254 52.0
66.58149 116.0
66.599358 112.0
66.613976 136.0
66.696854 176.0
66.831833 200.0
66.883911 112.0
67.051674 176.0
67.110359 124.0
67.141342 224.0
67.211487 108.0
67.297997 192.0
67.574219 260.0
67.760872 220.0
67.785446 172.0
68.085655 240.0
68.307549 136.0
68.427689 236.0
68.536392 176.0
68.562759 64.0
68.575943 160.0
68.801933 264.0
68.977043 208.0
69.182167 136.0
69.248405 120.0
69.286507 152.0
69.352791 156.0
69.508682 164.0
69.614922 132.0
69.697983 176.0
69.757812 172.0
70.063301 204.0
70.973251 176.0
70.98835 184.0
71.07222 132.0
71.105782 144.0
71.372887 184.0
71.494003 136.0
71.596703 116.0
71.6287 160.0
71.670822 188.0
71.77533 76.0
71.820862 276.0
71.940674 160.0
71.972748 52.0
71.993019 160.0
72.08593 32.0
72.121422 124.0
72.327782 200.0
72.344711 216.0
72.56665 140.0
72.597168 120.0
72.65654 172.0
72.877251 60.0
72.953735 136.0
72.965637 168.0
72.999641 192.0
73.403229 184.0
73.483391 160.0
73.623367 140.0
73.79937 148.0
73.843834 164.0
74.006409 144.0
74.061211 180.0
74.080048 128.0
74.203445 56.0
74.253174 104.0
74.378426 104.0
74.407608 120.0
74.514091 152.0
74.557053 116.0
74.665359 124.0
74.842613 176.0
75.875832 168.0
75.959068 168.0
76.047569 104.0
76.117432 164.0
76.184746 120.0
76.247299 172.0
76.301186 168.0
76.664978 148.0
76.720757 212.0
76.785271 112.0
76.82016 116.0
76.877739 152.0
76.992958 156.0
77.008675 188.0
77.031387 140.0
77.227158 144.0
77.288391 180.0
77.430183 104.0
77.495003 176.0
77.544067 108.0
77.596657 100.0
77.88797 164.0
77.937164 184.0
78.354156 184.0
78.650414 244.0
78.685722 160.0
78.729866 124.0
78.977303 176.0
79.164909 92.0
79.235756 156.0
79.379333 184.0
79.453827 116.0
79.650879 104.0
79.665085 108.0
79.713058 56.0
79.732605 196.0
79.855286 172.0
79.889084 92.0
79.954918 148.0
79.974495 160.0
80.236359 208.0
80.345146 60.0
80.393326 188.0
80.418312 192.0
80.561165 180.0
80.798935 248.0
80.92601 128.0
81.115913 236.0
81.200188 176.0
81.34552 116.0
81.514351 212.0
81.55928 144.0
81.606026 124.0
81.854332 196.0
81.929985 180.0
82.375519 172.0
82.833237 140.0
82.853165 60.0
82.905708 120.0
83.007225 160.0
83.047127 180.0
83.243134 172.0
83.481186 204.0
83.668602 160.0
83.743263 180.0
83.885391 112.0
83.95285 136.0
84.01487 128.0
84.299706 152.0
84.378304 148.0
84.402069 212.0
84.436821 152.0
84.585022 156.0
84.612488 148.0
84.689392 200.0
84.808495 160.0
85.00106 160.0
85.714539 128.0
85.834351 192.0
85.911819 120.0
85.949509 140.0
86.011467 216.0
86.161049 128.0
86.229416 148.0
86.268234 184.0
86.325554 180.0
86.588348 36.0
86.693947 144.0
86.708771 156.0
86.84597 64.0
86.946159 200.0
86.992569 176.0
87.006508 120.0
87.245216 112.0
87.265671 184.0
87.282402 172.0
87.559685 176.0
87.611839 204.0
87.960564 92.0
88.100616 180.0
88.227699 144.0
88.308105 240.0
88.778191 164.0
88.808197 156.0
88.890747 140.0
88.932037 144.0
89.040283 184.0
89.17057 156.0
89.354851 164.0
89.405663 144.0
89.433891 28.0
89.618446 196.0
89.667442 164.0
89.707024 224.0
89.723991 192.0
89.810738 64.0
89.916397 144.0
90.097672 136.0
90.156242 188.0
90.330193 64.0
90.356606 232.0
90.421013 164.0
90.589539 136.0
90.623634 200.0
90.689964 220.0
90.758217 152.0
90.801826 228.0
90.817001 164.0
90.832176 204.0
90.863884 112.0
90.87326 216.0
90.925148 220.0
90.982094 156.0
91.016937 240.0
91.054939 44116.0
91.118057 332.0
91.149239 80.0
91.174683 144.0
91.192947 128.0
91.210052 164.0
91.229843 156.0
91.288307 76.0
91.315414 68.0
91.366745 272.0
91.385406 116.0
91.472557 108.0
91.4935 76.0
91.5289 128.0
91.541931 212.0
91.569672 172.0
91.683983 156.0
91.729301 72.0
91.832687 48.0
91.849854 56.0
91.939529 156.0
91.968163 92.0
91.995972 224.0
92.023521 164.0
92.057022 5412.0
92.075432 276.0
92.157219 68.0
92.172508 64.0
92.187798 68.0
92.289658 208.0
92.392387 64.0
92.40564 56.0
92.432564 64.0
92.604866 84.0
92.664841 208.0
92.705559 100.0
92.744949 108.0
92.772972 104.0
92.871284 68.0
92.890472 112.0
92.926918 116.0
93.028633 56.0
93.071014 1092.0
93.157303 144.0
93.209175 56.0
93.272598 120.0
93.345657 80.0
93.524582 120.0
93.763405 88.0
93.938873 92.0
94.072021 80.0
94.406288 48.0
94.807022 212.0
94.838028 168.0
95.0242 92.0
95.072708 204.0
95.296021 64.0
95.365974 176.0
95.402908 64.0
95.579903 88.0
95.84082 160.0
96.080635 52.0
96.694206 104.0
96.723572 196.0
96.756851 128.0
96.786217 128.0
96.87043 224.0
97.647728 180.0
99.952477 120.0
100.055969 116.0
100.552315 120.0
100.777969 80.0
101.151955 196.0
101.22403 152.0
101.352234 164.0
101.72728 124.0
101.922096 104.0
101.992432 172.0
102.042694 124.0
102.463333 228.0
102.798042 100.0
102.911079 168.0
103.012062 40.0
103.054222 2280.0
103.165642 140.0
103.6129 192.0
103.785179 180.0
103.864273 100.0
104.058617 296.0
104.235802 88.0
104.286613 208.0
104.825935 92.0
105.070702 580.0
105.348259 140.0
105.57309 168.0
106.071953 328.0
106.822197 176.0
107.049721 592.0
107.087723 200.0
107.464973 116.0
107.692055 160.0
108.056091 892.0
108.097267 160.0
109.583992 152.0
110.517311 112.0
111.189987 148.0
112.13221 144.0
112.349396 176.0
112.934532 224.0
113.682411 124.0
114.910179 80.0
115.053169 376.0
115.960144 64.0
116.044685 200.0
116.191734 172.0
116.662056 88.0
116.763115 220.0
117.027802 124.0
117.070869 124.0
117.659515 200.0
118.039902 168.0
118.954102 184.0
119.014893 112.0
119.048058 640.0
119.086052 172.0
119.26255 44.0
119.388649 168.0
119.791313 160.0
119.893723 124.0
120.056076 216.0
120.081223 164.0
120.935516 132.0
121.00338 172.0
121.064194 9380.0
121.104637 200.0
121.154495 116.0
121.196121 120.0
121.259674 48.0
121.345169 64.0
121.478943 52.0
121.496498 60.0
121.564514 140.0
121.746727 68.0
121.795044 84.0
121.827652 52.0
121.918083 48.0
121.97303 88.0
122.067665 496.0
122.098351 224.0
122.195145 216.0
122.316177 96.0
123.063538 92.0
123.101074 172.0
123.22477 120.0
123.386108 28.0
123.784386 56.0
124.376335 208.0
125.350464 164.0
125.642555 268.0
127.777664 168.0
129.042938 148.0
129.065552 152.0
129.602982 168.0
129.926224 108.0
130.792023 164.0
131.051651 228.0
131.071808 132.0
132.08287 300.0
132.66748 156.0
133.06221 580.0
133.093475 232.0
133.977432 172.0
134.064804 160.0
134.095108 740.0
134.429352 120.0
135.07724 428.0
135.108658 168.0
135.648239 124.0
136.10968 152.0
136.623581 108.0
137.068298 144.0
137.097137 192.0
137.418045 168.0
138.23587 232.0
138.254593 116.0
138.47467 68.0
138.716003 28.0
139.286224 164.0
139.596466 236.0
140.005936 144.0
140.03656 48.0
142.022003 116.0
142.380386 92.0
142.530045 156.0
142.908112 100.0
142.977112 240.0
143.749237 76.0
144.078735 140.0
144.140869 52.0
145.686249 96.0
146.098938 392.0
146.191177 176.0
146.93573 156.0
147.03949 156.0
147.078354 164.0
147.104675 120.0
148.048584 224.0
148.073318 532.0
148.826035 208.0
149.081467 2192.0
149.112045 152.0
149.56752 76.0
149.64299 60.0
150.044998 168.0
150.082611 188.0
150.198624 92.0
150.288895 60.0
151.310547 120.0
152.065933 204.0
153.064865 184.0
153.492416 68.0
153.842773 200.0
153.889679 108.0
154.633759 204.0
154.9086 56.0
155.079544 180.0
156.15715 180.0
157.925537 52.0
159.447418 96.0
159.764252 120.0
160.948822 112.0
161.135742 160.0
161.912308 176.0
162.091293 376.0
162.7621 188.0
163.099731 188.0
163.137863 108.0
163.231934 116.0
163.491409 140.0
163.555038 168.0
163.708725 176.0
163.967651 148.0
163.988052 252.0
164.027084 216.0
164.03302 260.0
164.045395 192.0
164.106293 28060.0
164.17308 136.0
164.213867 112.0
164.235107 76.0
164.282227 108.0
164.41095 44.0
164.520462 72.0
164.549255 92.0
164.586151 80.0
164.610535 88.0
164.773178 172.0
164.937561 152.0
165.00914 100.0
165.064819 316.0
165.082062 92.0
165.109344 2888.0
165.147232 112.0
165.331436 124.0
165.372391 68.0
165.446625 128.0
165.531113 112.0
165.777039 48.0
165.823166 56.0
165.856491 48.0
165.974426 116.0
166.007751 80.0
166.056488 88.0
166.084702 132.0
166.111099 428.0
166.233505 60.0
166.322189 152.0
166.359268 96.0
166.408051 100.0
166.482513 60.0
166.652054 120.0
166.906525 60.0
166.993958 76.0
167.112961 148.0
167.132874 120.0
167.336212 112.0
167.454666 92.0
167.717484 128.0
168.07338 172.0
168.574326 44.0
168.607925 48.0
169.052734 96.0
169.096741 116.0
170.952347 40.0
171.467987 48.0
171.942657 168.0
172.125397 140.0
172.763123 72.0
175.526199 44.0
175.919327 112.0
176.437119 96.0
176.741272 136.0
179.082779 132.0
181.278854 64.0
183.64743 160.0
183.91185 184.0
183.960449 88.0
184.087341 136.0
186.12912 160.0
192.371689 56.0
195.080978 40.0
195.103226 164.0
196.116486 148.0
198.933319 120.0
199.863602 172.0
199.950836 148.0
211.103683 188.0
211.740356 32.0
215.297211 116.0
217.936539 40.0
218.501053 44.0
221.604111 132.0
222.054688 44.0
232.077301 128.0
234.951477 132.0
240.240494 128.0
242.941193 136.0
250.626343 36.0
252.947617 108.0
256.021088 120.0
256.169769 2204.0
257.169281 460.0
257.852356 60.0
258.172058 68.0
258.981781 56.0
259.161194 84.0
261.44754 72.0
263.356201 100.0
272.474457 108.0
276.768829 92.0
278.367126 100.0
283.032196 72.0
292.887299 216.0
310.246704 40.0
340.812408 84.0
362.214417 64.0
366.640869 72.0
383.176453 104.0
386.143188 84.0
387.474091 32.0
407.246613 52.0
455.481354 44.0
543.288757 136.0
556.060364 40.0
573.885681 144.0
600.711792 68.0
608.915466 100.0
662.47821 124.0
677.267517 220.0
684.658325 168.0
689.64093 68.0
691.764648 148.0
697.36676 40.0
697.498169 136.0
700.602966 176.0
701.778259 140.0
708.018982 144.0
713.28772 148.0
718.837402 156.0
718.874756 220.0
725.26593 164.0
739.155579 176.0
742.031738 196.0
749.330933 104.0
758.046204 200.0
759.987366 124.0
760.645935 72.0
763.101624 156.0
764.983154 192.0
765.429077 192.0
767.104004 196.0
769.029114 196.0
771.122375 192.0
779.446228 68.0
780.063171 116.0
783.474487 124.0
787.898621 156.0
788.658569 212.0
796.59314 116.0
801.961243 208.0
802.214905 128.0
806.250671 136.0
806.793274 148.0
808.218567 176.0
810.024597 216.0
811.764587 172.0
814.619446 140.0
815.801453 104.0
816.728394 192.0
819.985168 176.0
823.265625 176.0
824.493896 132.0
824.836853 164.0
826.266541 72.0
827.124939 176.0
829.691345 140.0
832.255981 176.0
834.3703 156.0
834.749817 100.0
835.92334 188.0
836.424011 292.0
837.28772 136.0
838.076904 216.0
838.653198 132.0
839.800598 180.0
839.92749 208.0
841.502991 36.0
842.542542 176.0
843.467163 168.0
847.837036 124.0
848.567444 248.0
849.39093 204.0
850.406372 256.0
850.452759 160.0
850.754639 244.0
851.015869 132.0
851.521118 280.0
852.206604 180.0
855.05603 200.0
855.3703 120.0
857.752808 48.0
862.381592 100.0
865.236206 72.0
867.356873 68.0
869.075195 192.0
870.137573 252.0
870.290222 224.0
870.410156 200.0
871.882141 176.0
872.07019 236.0
874.040344 188.0
876.301331 180.0
876.43689 80.0
879.816406 204.0
880.637207 108.0
883.640259 184.0
885.842529 144.0
886.197998 156.0
886.618713 168.0
890.368225 204.0
892.014038 160.0
895.078064 128.0
895.131653 144.0
897.020325 248.0
897.407837 140.0
898.564941 180.0
902.584717 152.0
909.126221 188.0
911.726562 72.0
912.814697 160.0
913.909424 144.0
914.354736 144.0
914.800171 168.0
915.962402 172.0
918.687134 156.0
919.990662 156.0
921.180298 224.0
922.358643 180.0
925.916382 200.0
927.588684 176.0
928.56488 204.0
929.875427 112.0
930.822449 180.0
931.782166 160.0
933.538818 192.0
933.921936 144.0
935.978943 160.0
940.380554 196.0
941.845947 244.0
942.548523 144.0
942.621826 168.0
943.214661 220.0
945.36145 132.0
947.657715 220.0
948.963196 140.0
949.165527 144.0
949.858582 60.0
950.729858 72.0
952.780701 64.0
952.909729 168.0
954.354126 164.0
954.809143 188.0
955.485779 124.0
957.69574 160.0
958.009888 188.0
958.391907 108.0
959.754089 120.0
960.019287 176.0
960.974487 136.0
961.185181 132.0
961.271545 104.0
961.481384 232.0
961.854187 188.0
962.018372 48.0
963.574707 172.0
964.526367 168.0
965.138428 180.0
965.206421 172.0
966.493042 152.0
968.35022 208.0
969.862061 204.0
970.376587 188.0
973.243164 188.0
973.460449 128.0
974.566162 60.0
975.069519 196.0
975.336792 196.0
976.424866 188.0
978.584167 52.0
979.007568 112.0
979.101013 164.0
980.577576 180.0
980.96405 148.0
981.300659 180.0
981.406677 128.0
981.699768 172.0
981.768372 168.0
982.579224 176.0
982.641663 208.0
983.715088 168.0
984.008484 176.0
986.763794 160.0
988.202332 212.0
988.327454 132.0
989.466553 116.0
990.769226 148.0
991.508667 124.0
992.097839 180.0
993.326965 52.0
993.747314 156.0
994.939758 96.0
997.873779 160.0
997.930359 192.0
998.257324 52.0
998.634705 176.0
999.276306 60.0
1004.082703 132.0
1004.429565 220.0
1007.952515 132.0
1008.38855 124.0
1008.856323 192.0
1011.462585 196.0
1013.520874 168.0
1015.365601 112.0
1015.651001 148.0
1016.107727 136.0
1016.228333 80.0
1017.034241 180.0
1017.605591 152.0
1018.119934 168.0
1018.863098 180.0
1019.168091 188.0
1019.301514 164.0
1020.096008 240.0
1020.814453 232.0
1022.15033 148.0
1023.448853 124.0
1025.200562 212.0
1026.32251 220.0
1026.379883 164.0
1026.679688 196.0
1026.730713 176.0
1026.813599 76.0
1026.928345 152.0
1028.070435 160.0
1028.861816 164.0
1029.640869 244.0
1029.813354 148.0
1029.90918 40.0
1032.92627 128.0
1033.022217 128.0
1033.546753 104.0
1034.084351 216.0
1034.327637 48.0
1034.449219 108.0
1034.794922 144.0
1034.865356 192.0
1035.729858 200.0
1036.235962 72.0
1036.761475 132.0
1036.940918 204.0
1037.419189 104.0
1038.97998 196.0
1039.904053 172.0
1040.122314 148.0
1040.340576 164.0
1040.732178 180.0
1041.200928 148.0
1042.138794 188.0
1043.919434 224.0
1044.067261 120.0
1044.633301 76.0
1045.489014 160.0
1047.311157 136.0
1047.472168 80.0
1048.341919 128.0
1050.592285 140.0
1054.828491 152.0
1055.513794 172.0
1056.166992 104.0
1056.354614 200.0
1057.351074 164.0
1057.681152 168.0
1057.862427 252.0
1058.088989 184.0
1059.572144 192.0
1060.330322 52.0
1060.446899 140.0
1060.699707 152.0
1061.276733 156.0
1061.508911 192.0
1062.541504 192.0
1062.697144 188.0
1063.644653 220.0
1064.787476 168.0
1065.573486 144.0
1065.709839 196.0
1066.685425 200.0
1067.991699 52.0
1069.11731 268.0
1069.410156 188.0
1069.579468 188.0
1069.63147 56.0
1071.12915 152.0
1072.019897 188.0
1074.010254 156.0
1074.493042 132.0
1075.478394 128.0
1076.379395 152.0
1078.339966 144.0
1078.692261 228.0
1079.914917 160.0
1080.039185 200.0
1080.143921 36.0
1081.216919 112.0
1081.334717 112.0
1082.179199 156.0
1082.427979 204.0
1082.840576 172.0
1083.069824 216.0
1084.085327 172.0
1086.767334 84.0
1087.259521 112.0
1087.338257 168.0
1088.007812 188.0
1089.025635 168.0
1089.408325 148.0
1089.465698 116.0
1089.925659 164.0
1091.73999 116.0
1091.865967 224.0
1092.595093 48.0
1092.818726 136.0
1092.976685 176.0
1093.424194 148.0
1093.667725 220.0
1093.720337 76.0
1095.880371 80.0
1096.05835 132.0
1096.387817 148.0
1097.172241 164.0
1097.719482 184.0
1098.074829 180.0
1098.66272 116.0
1098.959595 164.0
1099.989136 204.0
1100.134277 204.0
1100.721924 180.0
1101.118164 168.0
1102.188354 152.0
1102.558472 148.0
1102.703857 200.0
1103.219482 124.0
1103.477295 256.0
1103.583008 164.0
1103.655762 180.0
1104.594971 160.0
1104.95874 96.0
1106.08374 192.0
1106.990845 136.0
1107.679688 188.0
1111.92981 192.0
1113.901855 188.0
1116.680298 56.0
1117.957642 200.0
1119.015991 56.0
1120.074951 220.0
1121.440796 216.0
1122.787598 148.0
1123.107788 256.0
1124.448853 208.0
1127.140137 48.0
1127.200317 164.0
1127.400757 176.0
1128.878174 144.0
1129.078857 164.0
1130.028687 160.0
1130.543945 200.0
1131.976562 100.0
1132.840576 164.0
1133.262573 212.0
1133.812134 152.0
1133.859009 184.0
1135.079102 156.0
1138.528442 132.0
1139.000854 132.0
1139.106079 96.0
1139.683838 208.0
1139.80481 136.0
1141.209595 60.0
1141.532349 208.0
1143.335327 436.0
1143.564087 148.0
1144.809692 68.0
1145.018433 140.0
1145.227173 140.0
1146.527588 152.0
1146.952148 152.0
1148.287231 216.0
1148.368164 184.0
1149.3396 200.0
1149.710693 160.0
1149.896973 132.0
1150.74353 160.0
1150.986572 152.0
1151.736206 160.0
1153.195679 212.0
1153.324097 172.0
1153.594482 148.0
1154.635742 180.0
1154.804932 124.0
1155.806152 140.0
1155.887329 172.0
1156.929688 168.0
1158.155273 156.0
1159.503662 76.0
1163.655151 148.0
1165.991821 160.0
1166.406494 64.0
1166.895996 152.0
1169.351685 200.0
1169.657959 156.0
1169.794067 176.0
1170.760986 140.0
1170.863159 56.0
1171.040161 164.0
1172.430054 260.0
1173.888916 176.0
1175.232666 188.0
1176.119873 252.0
1177.895264 216.0
1178.025024 180.0
1178.940674 168.0
1179.54895 136.0
1181.073853 200.0
1181.190063 200.0
1183.181519 80.0
1183.722412 176.0
1185.140381 156.0
1185.853027 84.0
1186.223145 212.0
1186.32605 148.0
1186.819702 56.0
1188.294312 144.0
1190.999146 116.0
1191.129639 136.0
1191.18457 56.0
1192.050293 108.0
1192.627563 44.0
1194.298462 184.0
1194.711182 156.0
1194.793701 152.0
1195.041382 156.0
1195.206543 96.0
1195.426758 80.0
1195.77771 68.0
1195.853394 196.0
1197.512695 204.0
1198.118896 164.0
1200.324585 124.0
1201.855835 412.0
1202.338867 144.0
1202.61499 208.0
1202.677124 204.0
1203.036011 172.0
1203.243164 216.0
1203.75415 156.0
1203.830078 168.0
1203.878418 256.0
1204.230591 132.0
1204.389526 84.0
1205.045776 100.0
1205.363525 196.0
1207.921753 180.0
1210.004761 176.0
1211.985718 144.0
1212.540039 148.0
1214.758911 188.0
1217.056152 232.0
1217.597778 188.0
1218.236816 108.0
1218.543457 144.0
1218.764893 168.0
1219.049805 140.0
1219.772583 140.0
1220.217529 100.0
1220.898926 120.0
1222.005005 52.0
1222.958374 256.0
1223.104492 152.0
1223.953857 60.0
1225.374756 120.0
1225.723145 248.0
1225.841675 240.0
1227.089355 188.0
1227.556519 32.0
1227.626221 228.0
1227.835449 136.0
1229.272583 148.0
1229.321411 180.0
1229.907715 128.0
1233.14856 204.0
1233.253418 180.0
1233.34436 204.0
1233.595947 160.0
1233.924561 148.0
1234.092407 168.0
1234.532837 172.0
1235.237061 172.0
1235.994751 196.0
1236.589722 136.0
1236.918701 256.0
1237.030762 48.0
1237.436768 216.0
1237.719727 208.0
1240.715576 148.0
1241.500977 40.0
1241.886719 184.0
1242.854858 216.0
1243.282837 96.0
1244.848389 52.0
1244.939697 96.0
1246.646729 92.0
1247.145752 192.0
1247.398804 168.0
1248.122925 220.0
1250.613403 28.0
1251.063965 200.0
1252.134155 128.0
1252.944336 196.0
1255.376099 124.0
1255.799194 204.0
1256.68811 212.0
1256.867065 140.0
1257.943237 132.0
1259.469604 200.0
1260.734253 180.0
1261.137085 128.0
1261.327881 144.0
1261.660156 116.0
1262.070312 208.0
1263.025024 220.0
1263.661743 160.0
1264.326904 216.0
1267.52771 148.0
1268.25769 252.0
1268.605103 152.0
1268.902832 176.0
1269.994873 180.0
1270.257324 228.0
1270.441772 152.0
1270.817749 196.0
1272.322388 188.0
1272.634888 108.0
1272.819458 76.0
1272.897583 112.0
1274.126343 188.0
1274.183228 160.0
1274.680542 72.0
1274.936401 144.0
1275.234863 140.0
1275.632935 276.0
1278.022583 188.0
1278.655884 132.0
1278.81958 140.0
1279.417603 220.0
1279.766479 132.0
1280.656616 168.0
1280.884521 164.0
1280.984253 188.0
1281.575562 188.0
1282.94397 216.0
1283.535767 192.0
1284.30603 156.0
1284.484375 144.0
1284.634155 160.0
1285.954224 124.0
1290.926636 96.0
1291.041138 168.0
1291.198364 184.0
1291.463013 100.0
1292.679321 224.0
1293.366333 208.0
1293.516724 144.0
1296.001831 236.0
1297.406616 88.0
1297.958618 36.0
1298.202515 208.0
1298.360229 80.0
1299.127686 168.0
1299.400391 148.0
1299.630005 144.0
1299.787842 176.0
1300.096436 140.0
1301.819336 152.0
1302.085083 128.0
1302.207153 92.0
1303.830811 188.0
1304.096802 120.0
1304.736572 140.0
1304.815674 220.0
1304.887573 48.0
1305.671387 168.0
1305.980591 188.0
1306.628052 120.0
1306.72876 160.0
1309.622681 140.0
1310.368286 212.0
1310.789795 128.0
1311.092407 228.0
1312.144897 216.0
1312.93811 128.0
1313.078369 244.0
1313.334717 104.0
1314.705566 168.0
1315.304565 156.0
1316.683716 204.0
1317.005005 204.0
1318.46814 192.0
1319.104248 228.0
1320.521484 152.0
1321.411255 116.0
1322.684937 176.0
1322.771729 132.0
1322.887573 124.0
1323.22168 216.0
1324.422729 168.0
1324.755981 176.0
1325.03125 176.0
1325.096436 164.0
1325.197876 200.0
1327.321655 192.0
1328.133911 152.0
1328.228271 144.0
1329.164185 164.0
1329.810059 116.0
1330.296387 164.0
1330.354492 204.0
1330.463379 208.0
1331.327393 108.0
1332.831177 136.0
1333.717773 180.0
1334.357422 192.0
1335.20105 176.0
1335.331909 180.0
1337.289062 144.0
1337.776733 96.0
1338.351929 120.0
1341.594116 176.0
1342.687622 196.0
1343.526733 56.0
1343.650757 120.0
1343.935303 44.0
1344.037476 60.0
1344.869385 208.0
1345.154053 192.0
1345.964478 68.0
1348.959961 184.0
1351.058838 36.0
1351.988037 156.0
1352.368652 192.0
1352.888428 168.0
1353.612061 152.0
1354.045288 132.0
1354.199097 184.0
1354.265015 180.0
1354.624023 84.0
1355.393311 212.0
1355.576416 152.0
1356.624512 192.0
1357.286499 196.0
1357.775757 128.0
1357.900391 212.0
1358.164551 248.0
1358.443237 164.0
1358.523926 188.0
1359.463135 152.0
1359.756714 232.0
1360.380615 128.0
1360.432007 208.0
1360.498047 224.0
1360.938599 168.0
1361.481934 64.0
1362.018066 220.0
1364.502075 208.0
1364.634399 192.0
1364.994629 116.0
1365.149048 136.0
1365.597656 204.0
1365.935181 188.0
1368.762207 200.0
1369.263062 172.0
1369.800659 32.0
1370.286865 88.0
1370.38269 144.0
1371.215454 212.0
1371.429199 208.0
1371.510254 164.0
1371.900879 148.0
1372.306396 212.0
1373.611816 204.0
1374.142944 68.0
1374.320068 84.0
1374.925171 84.0
1375.235107 196.0
1375.884766 160.0
1378.107788 172.0
1379.14978 180.0
1381.7677 104.0
1382.108032 88.0
1383.588257 224.0
1384.928589 140.0
1385.69165 168.0
1385.884277 88.0
1386.677246 140.0
1387.166504 148.0
1387.364502 252.0
1388.871948 172.0
1388.931274 192.0
1389.242798 128.0
1389.324463 160.0
1389.628662 180.0
1389.828979 72.0
1391.246582 180.0
1391.432373 188.0
1391.810791 172.0
1392.575806 164.0
1393.964966 196.0
1395.905151 160.0
1396.44812 148.0
1396.686157 180.0
1396.909302 180.0
1397.065552 212.0
1397.623535 28.0
1397.69043 192.0
1398.397461 152.0
1398.57605 156.0
1401.115479 132.0
1401.256958 132.0
1402.166138 156.0
1402.330078 200.0
1402.956299 196.0
1404.201538 108.0
1404.425293 204.0
1404.835571 176.0
1405.24585 180.0
1405.618896 256.0
1406.46228 152.0
1407.067017 160.0
1408.808594 192.0
1409.023682 152.0
1409.225464 232.0
1409.628906 100.0
1409.830688 184.0
1411.482788 156.0
1412.096069 148.0
1413.061035 140.0
1414.400635 96.0
1416.287476 192.0
1416.606323 192.0
1418.115723 108.0
1418.85791 164.0
1420.265015 208.0
1421.197998 104.0
1421.317993 172.0
1421.85083 176.0
1423.427368 140.0
1424.043091 180.0
1424.591431 132.0
1424.861938 168.0
1426.207031 176.0
1426.470215 204.0
1426.575439 128.0
1426.703247 156.0
1427.077393 208.0
1427.891235 156.0
1428.019165 260.0
1428.154541 140.0
1429.741211 204.0
1429.88501 212.0
1430.411987 60.0
1432.091064 176.0
1432.776611 224.0
1432.851929 168.0
1434.035034 152.0
1435.429688 128.0
1435.595581 172.0
1435.686157 148.0
1437.39856 172.0
1438.130615 140.0
1438.893066 52.0
1440.09375 148.0
1440.630005 188.0
1441.13623 120.0
1441.975098 212.0
1443.585327 60.0
1444.27356 136.0
1445.037598 144.0
1447.944458 144.0
1448.171631 160.0
1448.974609 188.0
1449.444458 220.0
1449.702026 144.0
1449.800537 160.0
1450.543335 240.0
1450.952759 176.0
1451.111938 108.0
1452.469482 196.0
1452.712158 160.0
1453.425415 200.0
1454.070435 164.0
1454.260132 144.0
1455.581177 156.0
1455.93811 116.0
1456.553589 168.0
1457.236938 136.0
1460.057129 132.0
1460.133179 48.0
1462.012329 36.0
1462.282349 160.0
1462.545166 188.0
1462.796387 56.0
1462.887695 176.0
1463.237915 44.0
1464.060303 164.0
1464.281128 64.0
1465.469482 56.0
1465.797119 128.0
1466.010498 128.0
1467.626587 116.0
1467.80957 196.0
1468.03833 108.0
1468.099365 196.0
1468.648438 228.0
1469.632568 152.0
1470.97644 204.0
1471.449097 160.0
1471.762207 160.0
1471.823242 176.0
1472.197388 180.0
1473.091064 152.0
1473.396606 260.0
1474.015503 148.0
1474.481689 52.0
1474.810425 140.0
1475.085571 160.0
1475.895996 80.0
1476.500122 136.0
1477.509766 132.0
1477.67041 116.0
1477.938232 224.0
1478.34375 152.0
1479.231689 84.0
1479.361816 120.0
1479.844116 160.0
1479.912964 52.0
1480.648193 188.0
1481.061768 128.0
1481.604736 176.0
1482.624756 188.0
1482.931274 140.0
1483.368286 168.0
1484.019897 200.0
1484.311279 216.0
1485.177856 140.0
1485.599854 168.0
1485.768555 228.0
1486.505127 180.0
1487.518311 160.0
1488.616211 176.0
1488.831177 132.0
1489.2229 104.0
1490.897827 164.0
1491.089966 144.0
1491.320557 160.0
1492.412231 192.0
1492.481323 176.0
1492.712036 132.0
1494.304321 204.0
1494.758301 176.0
1495.189209 164.0
1495.366211 132.0
1495.804932 184.0
1495.866577 168.0
1496.05896 144.0
1496.268066 220.0
1496.528687 188.0
1497.344849 176.0
1498.446411 204.0
1498.623291 192.0
1501.005493 100.0
1501.560669 192.0
1502.108398 160.0
1502.505615 220.0
1502.58667 152.0
1503.504883 220.0
1503.643799 156.0
