>compound MLS000060711-01!
>formula C11H13NO3
>ionization [M+H]+
>parentmass 208.097
#inchi InChI=1S/C11H13NO3/c1-8(13)12-10(11(14)15)7-9-5-3-2-4-6-9/h2-6,10H,7H2,1H3,(H,12,13)(H,14,15)
#inchikey CBQJSKKFNMDLON
#Ion_Source LC-ESI
#Instrument qTof
#Compound_Source NIH Natural Product Library
#PI Dorrestein
#Data_Collector VVP/LMS
#Scan -1
#Precursor_MZ 208.097
#ExactMass 207.09
#Charge 1
#CAS_Number N/A
#Pubmed_ID N/A
#Smiles CC(=O)NC(Cc1ccccc1)C(=O)O
#INCHI_AUX N/A
#Library_Class 1
#SpectrumID CCMSLIB00000080029
#IonMode Positive
#UpdateWorkflowName UPDATE-SINGLE-ANNOTATED-GOLD
#LibraryQualityString Gold
#TaskID b1d8e8f6646f4e71acdff9ca3d919d08
##Scan# 1489
#SpectrumFile p2-B03_GB3_01_17991.mzXML
#LibraryName NIH_Natural_Products_Library.mgf
#MQScore -1
#Organism NIH_Natural_Products_Library
#TIC_Query 0
#RT_Query -1
#MZErrorPPM -1
#SharedPeaks 0
#MassDiff 0
#LibMZ -1
#SpecMZ 208.097
#SpecCharge 0
#internalFilename spec-00000.mgf

>collision 10
95.071899 160.0
95.927704 256.0
102.051849 252.0
102.970757 108.0
103.055458 1180.0
103.18293 48.0
103.549194 52.0
103.893784 72.0
104.056908 188.0
105.073761 240.0
107.049484 192.0
119.072418 168.0
120.080772 2220.0
120.145546 60.0
120.265564 88.0
121.084373 492.0
121.956505 52.0
126.87587 156.0
129.26564 208.0
131.048111 184.0
133.05162 76.0
148.943542 136.0
151.049622 172.0
166.07785 132.0
200.850235 148.0
702.391174 40.0
986.394775 248.0
994.525024 92.0
1159.15918 200.0
1182.627441 156.0
1241.857178 116.0
1262.322632 144.0
1281.843506 152.0
1313.4823 68.0
1350.278198 200.0
1364.3125 176.0
1365.930176 136.0
1369.610596 228.0
1383.22644 244.0
1399.454956 56.0
1420.919922 168.0
1465.010376 228.0
1490.518311 144.0
1492.716675 196.0
