>compound Mizolastine (Mizollen)
>formula C24H25FN6O
>ionization [M+H]+
>parentmass 433.214355
#inchi InChI=1S/C24H25FN6O/c1-29(23-26-13-10-22(32)28-23)19-11-14-30(15-12-19)24-27-20-4-2-3-5-21(20)31(24)16-17-6-8-18(25)9-7-17/h2-10,13,19H,11-12,14-16H2,1H3,(H,26,28,32)
#inchikey PVLJETXTTWAYEW
#Ion_Source LC-ESI
#Instrument qTof
#Compound_Source Commercial
#PI Dorrestein
#Data_Collector Garg_Neha
#Scan -1
#Precursor_MZ 433.215
#ExactMass 432.207
#Charge 1
#CAS_Number 108612-45-9,1056596-82-7 (2HCl)
#Pubmed_ID N/A
#Smiles C1(NC(C=CN=1)=O)N(C)C2CCN(CC2)C3=NC4C(N3CC5C=CC(=CC=5)F)=CC=CC=4
#INCHI_AUX N/A
#Library_Class 1
#SpectrumID CCMSLIB00000078438
#IonMode Positive
#UpdateWorkflowName UPDATE-SINGLE-ANNOTATED-GOLD
#LibraryQualityString Gold
#TaskID 77f51c88eb8b467eb4a01dd2d0cb90d2
##Scan# 1053
#SpectrumFile Plate7_1_20_GD2_01_15767.mzXML
#LibraryName FDALibrary_2_04302014.mgf
#MQScore -1
#Organism FDALibrary_2_04302014
#TIC_Query 0
#RT_Query -1
#MZErrorPPM -1
#SharedPeaks 0
#MassDiff 0
#LibMZ -1
#SpecMZ 433.215
#SpecCharge 0
#internalFilename spec-00000.mgf

>collision 10
46.595596 240.0
49.642368 144.0
67.255455 176.0
74.725555 164.0
88.111961 184.0
105.393532 176.0
109.045418 1268.0
110.049492 152.0
110.678871 144.0
116.132111 192.0
116.402527 148.0
118.926361 212.0
119.058678 144.0
121.063004 156.0
127.978554 160.0
132.067215 564.0
136.071121 152.0
139.677139 192.0
145.072723 180.0
146.071304 320.0
147.075974 1112.0
147.680557 256.0
150.065567 316.0
151.208557 168.0
156.063538 144.0
158.068115 484.0
159.081619 456.0
160.087097 660.0
160.266205 168.0
161.082047 332.0
161.657562 168.0
162.089264 136.0
164.081497 144.0
165.084854 376.0
169.328186 156.0
170.070435 296.0
171.074356 168.0
171.38826 216.0
172.097473 164.0
172.633408 212.0
173.096985 136.0
174.099472 188.0
176.321915 192.0
179.070709 180.0
182.082169 292.0
183.085327 248.0
184.088913 388.0
186.102112 480.0
186.165176 120.0
187.106445 144.0
191.096939 144.0
193.060959 204.0
197.203568 164.0
198.101685 744.0
198.934677 140.0
199.106934 1160.0
200.11586 376.0
201.110413 176.0
212.117126 164.0
216.014847 168.0
218.108551 168.0
237.562775 164.0
238.106064 148.0
240.087952 136.0
240.930725 148.0
254.108414 1272.0
255.112183 1136.0
256.112213 188.0
257.068695 140.0
268.114685 156.0
280.122223 636.0
281.127502 296.0
282.987579 148.0
289.164856 160.0
303.471436 224.0
308.154358 2268.0
309.154907 852.0
349.549438 224.0
353.95047 200.0
390.000702 148.0
413.217316 136.0
415.525757 160.0
421.969055 184.0
430.24353 148.0
432.660126 128.0
433.214355 11476.0
433.308136 136.0
433.629028 128.0
433.954712 144.0
434.217499 4164.0
435.21817 684.0
435.456909 160.0
436.263062 164.0
591.363281 140.0
913.634827 156.0
1487.431274 208.0
1555.340698 160.0
1565.546021 168.0
1602.085083 148.0
1618.674316 156.0
