>compound Dapoxetine hydrochloride (Priligy)
>formula C21H23NO
>ionization [M+H]+
>parentmass 306.186462
#inchi InChI=1S/C21H23NO/c1-22(2)20(18-10-4-3-5-11-18)15-16-23-21-14-8-12-17-9-6-7-13-19(17)21/h3-14,20H,15-16H2,1-2H3/t20-/m0/s1
#inchikey USRHYDPUVLEVMC
#origInchi InChI=1S/C21H23NO.ClH/c1-22(2)20(18-10-4-3-5-11-18)15-16-23-21-14-8-12-17-9-6-7-13-19(17)21;/h3-14,20H,15-16H2,1-2H3;1H/t20-;/m0./s1
#Ion_Source LC-ESI
#Instrument qTof
#Compound_Source Commercial
#PI Dorrestein
#Data_Collector Garg_Neha
#Scan -1
#Precursor_MZ 306.185
#ExactMass 305.178
#Charge 1
#CAS_Number 129938-20-1
#Pubmed_ID N/A
#Smiles C1(=CC=C2C(=C1OCC[C@@H](C3=CC=CC=C3)N(C)C)C=CC=C2).Cl
#INCHI_AUX N/A
#Library_Class 1
#SpectrumID CCMSLIB00000078323
#IonMode Positive
#UpdateWorkflowName UPDATE-SINGLE-ANNOTATED-GOLD
#LibraryQualityString Gold
#TaskID 77f51c88eb8b467eb4a01dd2d0cb90d2
##Scan# 1220
#SpectrumFile Plate5_21_40_GH7_01_16509.mzXML
#LibraryName FDALibrary_2_04302014.mgf
#MQScore -1
#Organism FDALibrary_2_04302014
#TIC_Query 0
#RT_Query -1
#MZErrorPPM -1
#SharedPeaks 0
#MassDiff 0
#LibMZ -1
#SpecMZ 306.185
#SpecCharge 0
#internalFilename spec-00000.mgf

>collision 10
44.895897 240.0
44.923458 300.0
44.959263 164.0
45.008984 212.0
45.031528 160.0
45.070099 148.0
45.120411 224.0
45.173973 192.0
45.205151 140.0
45.246647 172.0
45.275448 176.0
45.332367 184.0
45.34309 188.0
45.436184 168.0
45.517757 156.0
45.539768 140.0
45.608086 228.0
45.639122 120.0
45.677414 192.0
45.725311 228.0
45.741688 152.0
45.784527 220.0
45.802219 184.0
45.82785 172.0
45.844364 196.0
45.861885 168.0
45.98793 156.0
46.022419 284.0
46.039974 188.0
46.068588 260.0
46.084553 144.0
46.096226 144.0
46.15078 360.0
46.185089 152.0
46.206829 136.0
46.263489 284.0
46.359238 196.0
46.382107 176.0
46.403126 184.0
46.529236 144.0
46.588539 164.0
46.602127 184.0
46.625225 148.0
46.691513 132.0
46.838036 136.0
46.88147 164.0
46.895119 156.0
46.917534 144.0
46.944279 180.0
46.964237 204.0
46.990154 180.0
47.012169 120.0
47.028366 148.0
47.045784 168.0
47.078297 172.0
47.103668 160.0
47.158119 228.0
47.169052 180.0
47.210072 148.0
47.301781 128.0
47.320671 140.0
47.334599 200.0
47.385517 136.0
47.424877 160.0
47.47163 300.0
47.489979 116.0
47.505917 184.0
47.526703 160.0
47.535931 192.0
47.549427 152.0
47.591652 168.0
47.603367 144.0
47.648693 180.0
47.665203 244.0
47.67865 364.0
47.702286 160.0
47.738033 276.0
47.753162 152.0
47.77301 176.0
47.816452 180.0
47.888042 268.0
47.933506 156.0
47.965302 172.0
47.989475 172.0
48.072781 188.0
48.101765 148.0
48.129837 144.0
48.268143 140.0
48.298264 188.0
48.387928 148.0
48.410862 196.0
48.455791 152.0
48.477409 332.0
48.50845 148.0
48.517811 292.0
48.563915 180.0
48.587345 148.0
48.609234 180.0
48.740223 196.0
48.75927 204.0
48.784264 180.0
48.822781 164.0
48.86536 192.0
48.885654 116.0
48.918961 348.0
48.941738 164.0
48.971821 192.0
48.988106 260.0
49.030487 228.0
49.106346 160.0
49.188671 328.0
49.212402 176.0
49.234146 168.0
49.257542 112.0
49.282238 180.0
49.313046 184.0
49.357719 168.0
49.40667 172.0
49.462681 324.0
49.497646 176.0
49.543865 304.0
49.581696 180.0
49.593567 104.0
49.634968 164.0
49.724747 140.0
49.754139 128.0
49.77388 156.0
49.797394 172.0
49.841305 240.0
49.903065 204.0
49.92992 200.0
49.942524 212.0
49.966438 144.0
49.981098 232.0
50.019913 152.0
50.038216 148.0
50.057755 164.0
50.101006 212.0
50.152641 140.0
50.163006 168.0
50.275021 196.0
50.321598 164.0
50.345604 176.0
50.387978 160.0
50.481266 140.0
50.574642 148.0
50.592159 160.0
50.640537 192.0
50.663853 172.0
50.690773 232.0
50.70433 148.0
50.763172 160.0
50.830421 224.0
50.844082 224.0
50.886513 212.0
50.89756 128.0
50.934795 144.0
50.960232 168.0
50.985348 228.0
51.011528 344.0
51.029613 144.0
51.081207 140.0
51.131828 180.0
51.213585 208.0
51.227829 148.0
51.281975 168.0
51.360394 148.0
51.385612 248.0
51.407475 148.0
51.418892 176.0
51.438259 176.0
51.454578 228.0
51.49881 160.0
51.529064 208.0
51.548748 172.0
51.568623 148.0
51.608883 156.0
51.63176 172.0
51.688984 156.0
51.708038 152.0
51.752472 124.0
51.880283 176.0
51.892212 176.0
51.925354 208.0
51.935394 144.0
51.948784 132.0
51.965519 192.0
51.975563 220.0
52.010788 184.0
52.016056 152.0
52.117714 140.0
52.201084 152.0
52.232502 156.0
52.316013 132.0
52.362263 148.0
52.408974 216.0
52.489079 148.0
52.525135 164.0
52.62471 136.0
52.637707 180.0
52.659023 168.0
52.840839 200.0
52.876026 236.0
52.945724 148.0
52.958759 192.0
52.989651 148.0
53.016014 120.0
53.032417 172.0
53.049667 152.0
53.063095 192.0
53.094997 280.0
53.156292 444.0
53.175758 204.0
53.205273 188.0
53.247383 196.0
53.273529 172.0
53.293869 180.0
53.305492 160.0
53.32729 176.0
53.466911 200.0
53.511292 180.0
53.539703 152.0
53.597969 168.0
53.663528 176.0
53.692722 148.0
53.717815 348.0
53.751076 164.0
53.79924 160.0
53.816757 184.0
53.847424 380.0
53.882481 184.0
53.906456 236.0
53.977486 224.0
53.995037 164.0
54.043308 176.0
54.081181 164.0
54.105671 200.0
54.120518 160.0
54.161888 180.0
54.172142 176.0
54.188076 128.0
54.206013 136.0
54.219028 164.0
54.251617 240.0
54.277664 152.0
54.321163 176.0
54.365681 160.0
54.427334 156.0
54.450829 188.0
54.49448 372.0
54.549274 152.0
54.615444 172.0
54.634956 180.0
54.66988 312.0
54.691956 164.0
54.712563 184.0
54.733177 148.0
54.761158 144.0
54.778831 144.0
54.805859 160.0
54.862827 152.0
54.912697 200.0
54.9505 152.0
54.966072 144.0
54.977875 272.0
55.026588 376.0
55.04726 136.0
55.106915 124.0
55.197983 220.0
55.210674 140.0
55.223728 184.0
55.240108 184.0
55.266022 208.0
55.291874 140.0
55.316341 204.0
55.386101 180.0
55.402229 164.0
55.425938 144.0
55.440132 152.0
55.452148 188.0
55.482258 148.0
55.498566 240.0
55.545059 160.0
55.610188 196.0
55.627228 200.0
55.675453 196.0
55.729893 192.0
55.743484 172.0
55.782291 324.0
55.829704 196.0
55.854801 192.0
55.918968 204.0
55.944271 212.0
55.977028 156.0
56.026176 164.0
56.043964 132.0
56.0741 148.0
56.095135 204.0
56.176296 160.0
56.208073 252.0
56.221504 184.0
56.243603 220.0
56.33498 188.0
56.348427 156.0
56.367897 228.0
56.44558 160.0
56.465019 144.0
56.482967 160.0
56.494743 156.0
56.547306 204.0
56.55928 140.0
56.574249 164.0
56.658112 168.0
56.68808 216.0
56.709061 148.0
56.727871 160.0
56.812527 176.0
56.823029 140.0
56.844589 140.0
56.868046 172.0
56.880051 212.0
56.928097 160.0
56.950623 156.0
57.00214 124.0
57.017189 184.0
57.060322 144.0
57.109226 184.0
57.14304 192.0
57.17765 164.0
57.194206 152.0
57.206501 96.0
57.228485 156.0
57.263466 184.0
57.290581 148.0
57.334274 148.0
57.358101 188.0
57.394573 168.0
57.454304 172.0
57.482521 144.0
57.516773 172.0
57.533714 412.0
57.593777 176.0
57.688473 96.0
57.734875 112.0
57.75145 164.0
57.767612 140.0
57.825401 104.0
57.913185 208.0
57.929585 312.0
57.981102 176.0
58.000805 212.0
58.014446 312.0
58.029423 164.0
58.050835 228.0
58.0751 200.0
58.133892 176.0
58.204098 152.0
58.231716 128.0
58.277111 172.0
58.289158 200.0
58.308483 152.0
58.332462 124.0
58.380367 192.0
58.397652 164.0
58.419456 352.0
58.502087 168.0
58.566761 220.0
58.605003 188.0
58.674236 208.0
58.694935 180.0
58.713638 152.0
58.752014 180.0
58.7957 288.0
58.843582 236.0
58.869541 188.0
58.887867 264.0
58.920452 192.0
59.026936 360.0
59.071774 264.0
59.131794 220.0
59.164635 144.0
59.175354 184.0
59.190247 128.0
59.25193 144.0
59.315544 164.0
59.337753 212.0
59.401211 172.0
59.445122 224.0
59.466179 144.0
59.48555 176.0
59.537231 148.0
59.57563 160.0
59.617115 196.0
59.672718 276.0
59.726273 160.0
59.766273 348.0
59.781658 180.0
59.813019 160.0
59.860783 180.0
59.915596 148.0
59.930378 200.0
59.957722 196.0
59.988625 128.0
60.002235 216.0
60.04047 172.0
60.072861 196.0
60.129951 148.0
60.154011 272.0
60.254005 212.0
60.266254 164.0
60.289021 228.0
60.302929 224.0
60.341572 176.0
60.352398 196.0
60.392605 140.0
60.462227 164.0
60.514854 192.0
60.530464 296.0
60.556667 160.0
60.661568 200.0
60.701786 212.0
60.807835 180.0
60.829563 196.0
60.850353 156.0
60.864239 208.0
60.887169 224.0
60.943886 164.0
60.958473 140.0
61.020172 144.0
61.047302 172.0
61.082851 184.0
61.106186 208.0
61.126839 176.0
61.152149 224.0
61.180759 144.0
61.268227 148.0
61.287884 172.0
61.333549 156.0
61.371731 148.0
61.409607 164.0
61.46455 168.0
61.528503 168.0
61.545715 196.0
61.55941 208.0
61.580196 180.0
61.594128 208.0
61.635422 176.0
61.672256 140.0
61.736355 180.0
61.759815 152.0
61.851093 228.0
61.903214 344.0
61.919456 140.0
61.974285 224.0
62.000923 188.0
62.036972 144.0
62.074562 156.0
62.107536 200.0
62.167984 144.0
62.256512 200.0
62.284904 180.0
62.324181 184.0
62.347687 192.0
62.367687 216.0
62.468536 156.0
62.503597 152.0
62.53648 280.0
62.573929 204.0
62.649853 148.0
62.690819 140.0
62.817059 180.0
62.892693 180.0
62.957546 164.0
63.009548 152.0
63.043476 220.0
63.097744 144.0
63.147072 144.0
63.170799 144.0
63.207878 128.0
63.241711 156.0
63.256893 164.0
63.26984 204.0
63.314873 156.0
63.332253 172.0
63.345333 156.0
63.384533 164.0
63.447933 168.0
63.485985 152.0
63.508282 208.0
63.585182 196.0
63.628792 204.0
63.657372 152.0
63.687847 136.0
63.762218 156.0
63.785187 180.0
63.824215 176.0
63.854431 224.0
63.867764 136.0
63.921932 176.0
63.962788 196.0
64.056519 220.0
64.074387 132.0
64.0998 152.0
64.112068 164.0
64.150551 148.0
64.169533 272.0
64.192612 180.0
64.242325 176.0
64.2705 172.0
64.319679 144.0
64.429863 152.0
64.485794 160.0
64.509766 168.0
64.548141 284.0
64.570526 172.0
64.585274 200.0
64.607315 152.0
64.65731 132.0
64.675941 176.0
64.69986 184.0
64.728958 172.0
64.743111 176.0
64.871552 168.0
64.925316 132.0
64.958145 140.0
65.022324 156.0
65.041946 212.0
65.079857 216.0
65.099884 164.0
65.120445 104.0
65.169487 204.0
65.21566 180.0
65.242378 176.0
65.259041 188.0
65.284187 168.0
65.320862 184.0
65.337425 232.0
65.363007 236.0
65.464417 148.0
65.476601 204.0
65.515961 160.0
65.55677 392.0
65.582024 156.0
65.62233 152.0
65.661057 204.0
65.739487 196.0
65.761055 164.0
65.875023 176.0
65.908012 256.0
65.971565 100.0
66.030869 168.0
66.045425 144.0
66.063461 164.0
66.082634 240.0
66.114403 120.0
66.289803 224.0
66.315819 140.0
66.366051 280.0
66.41259 164.0
66.447174 188.0
66.493187 280.0
66.525131 104.0
66.545341 176.0
66.591644 184.0
66.603012 160.0
66.622505 160.0
66.637123 164.0
66.708633 152.0
66.794746 196.0
66.835907 124.0
66.848503 144.0
66.897331 176.0
66.947807 224.0
66.975227 148.0
67.017853 148.0
67.029259 168.0
67.065109 232.0
67.097145 224.0
67.164749 184.0
67.180885 156.0
67.285332 160.0
67.326668 188.0
67.370247 184.0
67.387459 224.0
67.483017 168.0
67.541893 164.0
67.605698 208.0
67.658073 192.0
67.708832 152.0
67.737579 248.0
67.749786 152.0
67.775993 164.0
67.856308 168.0
67.912857 132.0
67.928162 196.0
68.025284 200.0
68.044983 156.0
68.061401 176.0
68.103546 172.0
68.118881 172.0
68.235565 172.0
68.298492 148.0
68.344116 144.0
68.363861 204.0
68.470871 172.0
68.496368 208.0
68.533989 164.0
68.562752 160.0
68.581253 140.0
68.592796 212.0
68.634644 176.0
68.676888 200.0
68.728027 156.0
68.741226 232.0
68.767105 212.0
68.781433 156.0
68.801804 148.0
68.83297 228.0
68.84919 220.0
68.87661 212.0
68.893127 192.0
68.936081 152.0
68.968285 116.0
68.985664 172.0
69.010384 156.0
69.023697 188.0
69.053459 156.0
69.073311 160.0
69.113014 148.0
69.178299 192.0
69.229652 140.0
69.280235 176.0
69.300537 188.0
69.323311 196.0
69.334908 148.0
69.347626 392.0
69.364746 252.0
69.430901 200.0
69.468925 160.0
69.558708 228.0
69.569771 288.0
69.590363 368.0
69.602898 212.0
69.640968 144.0
69.663437 172.0
69.686607 224.0
69.71328 196.0
69.746521 196.0
69.77977 188.0
69.795738 232.0
69.813026 156.0
69.826332 168.0
69.93866 148.0
69.950836 324.0
69.981087 176.0
70.046036 188.0
70.065559 128.0
70.126015 160.0
70.147682 148.0
70.247734 216.0
70.3078 168.0
70.322731 144.0
70.34285 148.0
70.447273 256.0
70.524918 220.0
70.573402 172.0
70.587753 140.0
70.624962 144.0
70.787582 288.0
70.830475 184.0
70.868912 288.0
70.891441 196.0
70.925735 324.0
70.97419 208.0
70.999977 140.0
71.059113 232.0
71.094353 156.0
71.131279 244.0
71.203751 220.0
71.254143 148.0
71.270935 252.0
71.296425 180.0
71.342575 148.0
71.431618 196.0
71.491585 232.0
71.597008 268.0
71.610481 148.0
71.623955 252.0
71.664391 180.0
71.693962 168.0
71.762146 196.0
71.794685 112.0
71.814888 176.0
71.838966 148.0
71.861656 148.0
71.909286 340.0
71.967987 152.0
72.007851 132.0
72.03804 164.0
72.062454 172.0
72.11039 188.0
72.145386 180.0
72.183296 180.0
72.275612 148.0
72.327988 160.0
72.349655 160.0
72.399109 180.0
72.423981 224.0
72.555649 152.0
72.572021 160.0
72.588982 152.0
72.620743 192.0
72.672096 156.0
72.694946 264.0
72.707726 176.0
72.789467 184.0
72.809593 144.0
72.861496 136.0
72.922287 156.0
72.940414 152.0
72.983063 188.0
73.023735 212.0
73.045052 164.0
73.061638 192.0
73.07476 240.0
73.096771 252.0
73.121918 188.0
73.144539 152.0
73.196991 188.0
73.241898 112.0
73.265442 160.0
73.327263 228.0
73.430824 164.0
73.458572 192.0
73.542191 188.0
73.586067 436.0
73.652672 152.0
73.668045 168.0
73.698792 176.0
73.714172 200.0
73.817589 176.0
73.837402 216.0
73.934776 196.0
73.987366 132.0
74.032356 140.0
74.058044 232.0
74.077652 188.0
74.088875 332.0
74.107719 164.0
74.196396 168.0
74.259064 392.0
74.303574 172.0
74.327446 136.0
74.344666 168.0
74.441437 188.0
74.471397 364.0
74.486862 156.0
74.505753 156.0
74.565895 160.0
74.589958 196.0
74.672493 160.0
74.708656 152.0
74.727539 168.0
74.744743 328.0
74.786964 172.0
74.863518 176.0
74.889351 200.0
74.912369 216.0
74.938515 112.0
74.976387 124.0
74.99855 148.0
75.06514 144.0
75.125504 156.0
75.145432 196.0
75.189346 192.0
75.273476 228.0
75.286499 232.0
75.325745 216.0
75.339569 192.0
75.407005 144.0
75.437996 196.0
75.55117 336.0
75.604233 172.0
75.647385 176.0
75.6595 148.0
75.742622 148.0
75.791725 244.0
75.818138 312.0
75.837921 180.0
75.924606 168.0
75.9645 156.0
75.980927 108.0
75.995728 152.0
76.043663 152.0
76.059937 292.0
76.129387 164.0
76.192276 116.0
76.255722 124.0
76.271851 168.0
76.287491 140.0
76.323685 152.0
76.386093 112.0
76.400528 172.0
76.45137 128.0
76.504944 224.0
76.524094 256.0
76.557182 140.0
76.588531 296.0
76.645126 156.0
76.68087 204.0
76.755638 140.0
76.783737 192.0
76.836067 192.0
76.879684 180.0
76.915237 184.0
76.945213 140.0
76.979187 212.0
77.013901 160.0
77.025146 204.0
77.040321 192.0
77.076172 176.0
77.090363 100.0
77.162521 160.0
77.176239 208.0
77.227997 296.0
77.279427 172.0
77.289345 240.0
77.328835 228.0
77.346336 152.0
77.372559 188.0
77.41053 192.0
77.442642 192.0
77.465408 164.0
77.48143 228.0
77.629074 116.0
77.679268 196.0
77.700325 156.0
77.717865 180.0
77.771095 192.0
77.83252 324.0
77.896935 456.0
77.940857 200.0
78.004128 172.0
78.093803 156.0
78.128983 152.0
78.15873 168.0
78.190567 220.0
78.213448 156.0
78.242485 148.0
78.272789 172.0
78.288719 208.0
78.30677 144.0
78.405426 176.0
78.479462 248.0
78.495331 156.0
78.520157 264.0
78.647621 224.0
78.729019 216.0
78.742638 164.0
78.853699 168.0
78.876114 100.0
78.894745 272.0
78.926178 168.0
79.039383 236.0
79.101395 184.0
79.127884 200.0
79.161522 176.0
79.178505 176.0
79.28553 184.0
79.348648 112.0
79.374031 160.0
79.406082 160.0
79.464622 160.0
79.485916 224.0
79.524956 212.0
79.537384 252.0
79.551582 160.0
79.570732 204.0
79.608398 148.0
79.665237 196.0
79.680511 180.0
79.7061 200.0
79.723259 184.0
79.79319 188.0
79.810234 164.0
79.837646 208.0
79.891006 140.0
79.928368 212.0
79.960396 156.0
80.042091 216.0
80.064583 176.0
80.150734 312.0
80.218666 196.0
80.347069 200.0
80.381821 368.0
80.396606 204.0
80.43808 180.0
80.466637 180.0
80.507706 148.0
80.559776 168.0
80.586304 176.0
80.706055 144.0
80.788322 144.0
80.818741 196.0
80.858109 144.0
80.896423 148.0
80.985275 152.0
81.050972 212.0
81.106628 252.0
81.128578 172.0
81.169815 140.0
81.230698 208.0
81.270264 204.0
81.300766 244.0
81.312584 152.0
81.359215 128.0
81.396606 248.0
81.421051 184.0
81.461113 156.0
81.48098 180.0
81.534233 176.0
81.572205 124.0
81.586357 180.0
81.609726 288.0
81.656326 184.0
81.70797 128.0
81.7808 124.0
81.807625 288.0
81.849464 184.0
81.931114 204.0
81.971252 184.0
81.997986 164.0
82.068733 172.0
82.108452 188.0
82.180687 180.0
82.255684 172.0
82.319672 232.0
82.344955 180.0
82.382889 188.0
82.461693 164.0
82.480469 224.0
82.505775 132.0
82.541939 148.0
82.579643 188.0
82.632378 148.0
82.650909 180.0
82.676697 160.0
82.697517 224.0
82.720886 132.0
82.750015 164.0
82.806152 180.0
82.818024 156.0
82.836945 188.0
82.851433 176.0
82.903137 120.0
82.958359 196.0
83.021812 196.0
83.038979 164.0
83.052017 220.0
83.065346 160.0
83.130356 216.0
83.22123 156.0
83.225723 140.0
83.323128 164.0
83.357475 168.0
83.530457 180.0
83.559471 216.0
83.585083 248.0
83.624985 188.0
83.765182 236.0
83.797241 208.0
83.831749 172.0
83.845352 144.0
83.881805 236.0
83.991211 360.0
84.013107 144.0
84.028984 204.0
84.080612 216.0
84.097038 232.0
84.151909 144.0
84.184998 208.0
84.313042 164.0
84.370262 356.0
84.393181 180.0
84.408333 208.0
84.433075 172.0
84.499062 200.0
84.517441 176.0
84.537483 192.0
84.599716 164.0
84.667107 144.0
84.782875 152.0
84.797615 236.0
84.819534 176.0
84.863533 228.0
84.905708 160.0
84.927719 172.0
84.975212 144.0
85.006607 204.0
85.021286 224.0
85.037483 136.0
85.127762 240.0
85.149796 168.0
85.17141 172.0
85.197556 268.0
85.221436 176.0
85.263702 212.0
85.293114 244.0
85.377953 136.0
85.454086 188.0
85.489815 160.0
85.516716 176.0
85.550644 320.0
85.578255 160.0
85.601593 172.0
85.712715 168.0
85.725876 140.0
85.747818 332.0
85.795296 264.0
85.810402 164.0
85.863838 164.0
85.88063 196.0
85.907043 120.0
85.961609 176.0
85.981377 180.0
86.114029 400.0
86.142586 172.0
86.161064 144.0
86.191345 100.0
86.205406 164.0
86.227951 208.0
86.253456 196.0
86.291878 148.0
86.310196 336.0
86.360474 160.0
86.410652 176.0
86.430939 176.0
86.462593 164.0
86.520348 256.0
86.553169 148.0
86.583488 224.0
86.608727 160.0
86.634659 236.0
86.771797 184.0
86.827194 220.0
86.858955 148.0
87.012985 188.0
87.025978 220.0
87.066704 168.0
87.115746 112.0
87.167145 168.0
87.192894 136.0
87.240097 156.0
87.341904 180.0
87.357033 152.0
87.387802 220.0
87.482819 160.0
87.519333 212.0
87.546585 152.0
87.65654 168.0
87.731094 152.0
87.759521 160.0
87.771774 224.0
87.788895 172.0
87.807541 180.0
87.844849 300.0
87.857903 168.0
87.912231 168.0
87.93486 132.0
87.968002 296.0
87.984329 156.0
88.019417 264.0
88.066971 160.0
88.081909 192.0
88.132355 148.0
88.14917 200.0
88.208977 344.0
88.248932 204.0
88.281609 156.0
88.321587 144.0
88.383049 156.0
88.411629 184.0
88.61882 164.0
88.695656 204.0
88.746277 160.0
88.781906 180.0
88.80761 136.0
88.904572 176.0
88.920731 144.0
88.935745 184.0
88.967232 176.0
89.031494 144.0
89.046524 140.0
89.101341 152.0
89.116028 256.0
89.1418 424.0
89.156677 252.0
89.168465 252.0
89.219604 192.0
89.251358 144.0
89.274963 336.0
89.320824 200.0
89.367065 284.0
89.478477 156.0
89.535507 164.0
89.560616 168.0
89.578827 156.0
89.622154 212.0
89.652657 192.0
89.709465 132.0
89.729935 232.0
89.759758 196.0
89.789925 164.0
89.821991 160.0
89.842239 120.0
89.861015 152.0
89.889908 236.0
90.028954 140.0
90.080597 144.0
90.105156 156.0
90.154289 316.0
90.203468 176.0
90.238319 184.0
90.258255 296.0
90.289253 180.0
90.329102 312.0
90.352402 200.0
90.394447 164.0
90.437881 248.0
90.475235 164.0
90.529312 264.0
90.550644 136.0
90.57457 144.0
90.621666 260.0
90.721199 192.0
90.754341 152.0
90.770622 340.0
90.786026 208.0
90.802818 172.0
90.818382 332.0
90.864342 164.0
90.882172 152.0
90.907982 200.0
90.942741 140.0
91.008629 204.0
91.052788 1308.0
91.090248 180.0
91.112831 212.0
91.186783 196.0
91.205498 308.0
91.23307 128.0
91.272697 124.0
91.392532 144.0
91.504829 152.0
91.51815 160.0
91.562744 192.0
91.590172 240.0
91.687729 196.0
91.733437 152.0
91.760124 240.0
91.798256 184.0
91.811607 144.0
91.826866 140.0
91.852425 108.0
91.866585 184.0
91.924973 216.0
91.956604 184.0
91.977165 248.0
92.019592 200.0
92.05587 140.0
92.084518 152.0
92.118904 148.0
92.14756 160.0
92.17926 108.0
92.235466 184.0
92.296638 156.0
92.32724 208.0
92.340622 180.0
92.354446 140.0
92.394028 100.0
92.434364 184.0
92.562569 160.0
92.63253 340.0
92.65258 140.0
92.689285 152.0
92.706154 144.0
92.729279 184.0
92.750366 180.0
92.772552 140.0
92.827049 196.0
92.848145 212.0
92.918823 184.0
92.93486 200.0
92.957687 144.0
93.016991 160.0
93.061142 140.0
93.089943 172.0
93.112991 172.0
93.13546 172.0
93.159546 176.0
93.176376 160.0
93.213158 168.0
93.34021 184.0
93.359779 116.0
93.410912 192.0
93.4263 140.0
93.485947 220.0
93.579514 164.0
93.653442 152.0
93.686653 116.0
93.705505 164.0
93.730499 172.0
93.745918 140.0
93.761337 152.0
93.847717 148.0
93.940926 140.0
93.961334 300.0
93.988701 124.0
94.050552 172.0
94.069946 268.0
94.093109 152.0
94.11821 124.0
94.193283 212.0
94.234947 404.0
94.258537 148.0
94.29303 128.0
94.307526 220.0
94.343414 184.0
94.374519 208.0
94.446739 220.0
94.468521 200.0
94.502243 200.0
94.516525 168.0
94.574135 176.0
94.628647 164.0
94.677803 312.0
94.708046 160.0
94.755348 204.0
94.774544 196.0
94.798317 136.0
94.85331 140.0
94.880508 172.0
94.976891 228.0
95.024025 224.0
95.093887 148.0
95.15406 176.0
95.200661 164.0
95.243385 156.0
95.270622 184.0
95.35025 156.0
95.385231 172.0
95.404671 392.0
95.436089 128.0
95.513573 144.0
95.551796 148.0
95.640045 168.0
95.660469 148.0
95.710129 168.0
95.732071 124.0
95.749855 160.0
95.764656 240.0
95.797768 192.0
95.807373 168.0
95.854828 196.0
95.897812 152.0
95.969276 144.0
96.013603 196.0
96.096054 148.0
96.1558 144.0
96.231773 148.0
96.264595 172.0
96.372742 112.0
96.465088 124.0
96.515396 160.0
96.538925 164.0
96.605949 184.0
96.639206 140.0
96.715302 104.0
96.733147 148.0
96.761971 144.0
96.812126 224.0
96.868263 188.0
96.895233 208.0
96.921158 160.0
96.951515 212.0
97.038757 200.0
97.054443 212.0
97.10347 200.0
97.131584 156.0
97.150543 204.0
97.165924 124.0
97.237297 188.0
97.311478 148.0
97.325218 204.0
97.390915 144.0
97.436188 160.0
97.45092 168.0
97.535423 156.0
97.576706 160.0
97.664787 96.0
97.689285 148.0
97.783249 192.0
97.811462 324.0
97.833443 200.0
97.956123 160.0
98.004555 168.0
98.070808 160.0
98.106285 164.0
98.137833 152.0
98.153603 140.0
98.173485 172.0
98.226204 184.0
98.299576 148.0
98.416031 140.0
98.445175 148.0
98.51281 160.0
98.545334 164.0
98.613579 172.0
98.631371 140.0
98.666954 152.0
98.683907 188.0
98.75396 200.0
98.878815 260.0
98.919785 164.0
98.933487 132.0
99.001343 168.0
99.033913 160.0
99.069008 148.0
99.097511 124.0
99.146774 208.0
99.190048 172.0
99.205421 180.0
99.235161 160.0
99.261421 248.0
99.27919 156.0
99.366058 232.0
99.500092 120.0
99.528084 228.0
99.556435 176.0
99.59832 176.0
99.612228 204.0
99.642021 188.0
99.666885 140.0
99.683746 188.0
99.729012 232.0
99.772034 172.0
99.799034 188.0
99.820908 276.0
99.836815 168.0
99.876595 196.0
99.910492 192.0
99.932297 172.0
99.988998 196.0
100.025864 228.0
100.043747 144.0
100.089661 132.0
100.116997 188.0
100.150154 144.0
100.217758 192.0
100.26683 212.0
100.390434 156.0
100.472214 160.0
100.518211 324.0
100.600899 156.0
100.628777 192.0
100.651482 224.0
100.674515 228.0
100.710464 192.0
100.807541 224.0
100.892937 196.0
101.011581 168.0
101.032776 200.0
101.053886 164.0
101.071465 184.0
101.140274 176.0
101.201279 136.0
101.228638 124.0
101.248993 220.0
101.333885 140.0
101.36795 140.0
101.456703 172.0
101.474472 156.0
101.501717 180.0
101.548378 152.0
101.634644 156.0
101.65963 164.0
101.708725 188.0
101.746017 332.0
101.817314 172.0
101.849449 168.0
101.986076 172.0
102.100677 176.0
102.179131 140.0
102.243515 152.0
102.265556 160.0
102.428749 168.0
102.452927 172.0
102.470238 128.0
102.487175 172.0
102.519417 156.0
102.533081 200.0
102.635925 100.0
102.66658 204.0
102.736061 176.0
102.75489 184.0
102.784477 152.0
102.815865 148.0
102.834724 196.0
102.975281 216.0
103.01722 356.0
103.054047 6776.0
103.075462 168.0
103.163925 316.0
103.233208 136.0
103.276939 300.0
103.331421 164.0
103.403976 196.0
103.549744 224.0
103.57608 248.0
103.594414 164.0
103.623093 176.0
103.685486 160.0
103.715889 168.0
103.73008 176.0
103.771767 172.0
103.836044 212.0
103.900978 248.0
103.943031 208.0
104.017387 232.0
104.055809 772.0
104.103073 176.0
104.132072 164.0
104.195869 184.0
104.247627 124.0
104.267708 136.0
104.374573 204.0
104.403633 176.0
104.456078 120.0
104.473312 212.0
104.49366 216.0
104.518074 176.0
104.560806 140.0
104.600868 152.0
104.66777 200.0
104.682953 196.0
104.733673 208.0
104.753441 164.0
104.793556 304.0
104.819435 160.0
104.880569 168.0
104.917854 236.0
104.962868 164.0
104.992935 188.0
105.02858 148.0
105.049576 356.0
105.072258 360.0
105.09343 164.0
105.112755 184.0
105.142624 124.0
105.169746 160.0
105.221405 204.0
105.307564 176.0
105.374008 140.0
105.40976 216.0
105.430801 208.0
105.448982 252.0
105.488861 148.0
105.511345 192.0
105.584999 188.0
105.664734 160.0
105.685196 148.0
105.717934 128.0
105.768547 312.0
105.795898 148.0
105.831276 140.0
105.869423 176.0
105.945518 184.0
106.191177 128.0
106.221947 172.0
106.24588 216.0
106.332748 148.0
106.363533 156.0
106.408691 156.0
106.42923 148.0
106.457977 164.0
106.523567 188.0
106.558624 144.0
106.618553 120.0
106.668083 152.0
106.710709 152.0
106.766228 204.0
106.799736 220.0
106.812363 232.0
106.853745 188.0
106.873199 200.0
106.899948 196.0
107.062897 280.0
107.096741 204.0
107.207466 204.0
107.250504 148.0
107.285103 188.0
107.402641 164.0
107.431519 176.0
107.450089 208.0
107.468658 144.0
107.501671 200.0
107.567184 140.0
107.601204 236.0
107.645309 144.0
107.668884 224.0
107.689537 180.0
107.737053 140.0
107.760307 300.0
107.796967 440.0
107.815567 160.0
107.851738 164.0
107.87075 200.0
107.885262 128.0
107.93293 196.0
108.026466 204.0
108.088531 120.0
108.11129 140.0
108.125778 160.0
108.160362 124.0
108.178886 140.0
108.215157 136.0
108.239861 184.0
108.268631 212.0
108.299698 200.0
108.350983 132.0
108.364906 316.0
108.399139 212.0
108.422043 148.0
108.460114 136.0
108.496552 160.0
108.574326 148.0
108.600693 144.0
108.623711 204.0
108.64119 128.0
108.701889 156.0
108.724716 156.0
108.743393 156.0
108.824768 232.0
108.940331 156.0
108.982201 232.0
108.998825 152.0
109.06311 180.0
109.09407 208.0
109.129776 204.0
109.156807 188.0
109.260803 172.0
109.299934 168.0
109.311371 196.0
109.331551 148.0
109.375252 208.0
109.446693 140.0
109.475189 184.0
109.496017 164.0
109.591835 148.0
109.702293 148.0
109.743988 164.0
109.81189 184.0
109.877701 144.0
109.902878 224.0
109.941322 228.0
109.992294 176.0
110.016655 144.0
110.099197 212.0
110.159294 188.0
110.192726 180.0
110.221977 180.0
110.253319 168.0
110.382416 196.0
110.428223 140.0
110.443695 144.0
110.466354 180.0
110.491257 172.0
110.6026 168.0
110.65226 188.0
110.675873 148.0
110.753822 180.0
110.778496 144.0
110.835518 204.0
110.872017 164.0
110.886238 152.0
110.902596 248.0
110.971298 172.0
111.015709 156.0
111.033569 184.0
111.067551 168.0
111.137886 168.0
111.194939 124.0
111.254868 220.0
111.27552 196.0
111.308861 168.0
111.355316 200.0
111.38932 188.0
111.45752 160.0
111.498886 324.0
111.524315 156.0
111.551865 140.0
111.601593 268.0
111.683197 152.0
111.81897 168.0
111.849419 156.0
111.878891 144.0
111.893631 180.0
111.933632 224.0
111.961014 140.0
111.979774 176.0
112.078056 184.0
112.140091 196.0
112.178032 144.0
112.207542 184.0
112.241814 204.0
112.287674 184.0
112.326782 152.0
112.367317 264.0
112.445343 196.0
112.468063 136.0
112.602135 180.0
112.62326 172.0
112.687187 136.0
112.74157 164.0
112.808548 172.0
112.888771 196.0
112.984047 136.0
113.050323 168.0
113.194267 160.0
113.213326 280.0
113.228149 152.0
113.276871 212.0
113.293816 200.0
113.315002 256.0
113.336655 196.0
113.493034 148.0
113.573624 164.0
113.601196 316.0
113.738739 220.0
113.800049 184.0
113.834663 148.0
113.912201 196.0
114.021614 284.0
114.059868 148.0
114.08963 204.0
114.105507 164.0
114.129318 144.0
114.185844 176.0
114.209541 164.0
114.251251 152.0
114.273567 196.0
114.309265 136.0
114.341133 132.0
114.41465 148.0
114.46196 152.0
114.493088 376.0
114.526276 180.0
114.560295 188.0
114.647293 196.0
114.670937 192.0
114.698441 172.0
114.732018 240.0
114.75441 340.0
114.780167 120.0
114.799072 224.0
114.845566 224.0
114.871788 96.0
114.973312 160.0
115.00309 140.0
115.022667 320.0
115.053482 7192.0
115.092186 184.0
115.171402 140.0
115.189224 156.0
115.289642 144.0
115.340881 168.0
115.370865 176.0
115.413422 172.0
115.536346 200.0
115.568588 168.0
115.633957 144.0
115.670349 200.0
115.702896 176.0
115.73243 348.0
115.779007 144.0
115.840561 172.0
115.875931 164.0
116.013237 180.0
116.034531 184.0
116.058243 1304.0
116.133171 148.0
116.158913 140.0
116.183624 144.0
116.243729 240.0
116.263107 124.0
116.425049 148.0
116.463707 176.0
116.532455 252.0
116.698692 272.0
116.751709 160.0
116.803787 468.0
116.827736 196.0
116.870193 176.0
116.912697 176.0
116.998718 148.0
117.041672 208.0
117.069901 63592.0
117.150032 188.0
117.187218 332.0
117.217796 116.0
117.325752 200.0
117.353554 152.0
117.369728 156.0
117.41597 228.0
117.4506 144.0
117.467812 176.0
117.524597 232.0
117.544449 232.0
117.576363 264.0
117.609192 248.0
117.656319 168.0
117.715714 188.0
117.749527 168.0
117.831612 220.0
117.857544 216.0
117.912674 148.0
117.946144 256.0
117.991234 332.0
118.043434 256.0
118.072166 3228.0
118.108261 168.0
118.142929 152.0
118.242218 108.0
118.276794 248.0
118.30426 196.0
118.371651 124.0
118.427528 184.0
118.45871 168.0
118.497978 216.0
118.517235 180.0
118.591156 176.0
118.631302 208.0
118.662697 216.0
118.699554 140.0
118.714729 164.0
118.735542 176.0
118.775192 128.0
118.812927 176.0
118.871704 144.0
118.90966 136.0
118.92952 152.0
118.96859 168.0
118.994644 204.0
119.041031 132.0
119.07737 732.0
119.137596 184.0
119.235756 200.0
119.269562 180.0
119.32724 140.0
119.383583 160.0
119.442307 148.0
119.472763 148.0
119.491737 196.0
119.68605 196.0
119.716537 148.0
119.763748 424.0
119.81955 164.0
119.86467 180.0
119.903893 184.0
119.949661 188.0
120.023453 196.0
120.101089 208.0
120.180832 156.0
120.208389 184.0
120.23394 172.0
120.318832 156.0
120.395462 124.0
120.421875 124.0
120.493401 124.0
120.525818 192.0
120.572212 208.0
120.743073 136.0
120.773422 204.0
120.845047 180.0
120.946442 108.0
120.964333 448.0
121.017952 200.0
121.033279 176.0
121.050346 176.0
121.08654 168.0
121.124931 132.0
121.173454 140.0
121.198875 312.0
121.319626 224.0
121.380638 120.0
121.410492 144.0
121.435013 476.0
121.513283 140.0
121.574722 184.0
121.625549 124.0
121.648849 176.0
121.682274 164.0
121.719604 168.0
121.741562 156.0
121.776703 184.0
121.820633 200.0
121.877266 200.0
121.947166 300.0
122.020615 180.0
122.090263 160.0
122.144127 144.0
122.17244 320.0
122.346214 144.0
122.360733 176.0
122.379242 252.0
122.414215 140.0
122.456314 172.0
122.483994 212.0
122.51918 156.0
122.56646 256.0
122.631485 248.0
122.75087 176.0
122.853073 140.0
122.881752 148.0
123.008011 172.0
123.014717 192.0
123.104248 140.0
123.136101 168.0
123.181351 248.0
123.230598 268.0
123.283623 152.0
123.402328 104.0
123.540733 156.0
123.562225 156.0
123.639282 180.0
123.681725 192.0
123.776169 152.0
123.937737 160.0
123.958885 112.0
123.976288 176.0
123.991806 264.0
124.026115 160.0
124.078247 212.0
124.164726 256.0
124.181396 124.0
124.282295 168.0
124.35479 216.0
124.41227 164.0
124.42878 140.0
124.53981 156.0
124.585854 204.0
124.655342 148.0
124.679787 176.0
124.712479 124.0
124.734726 328.0
124.761932 188.0
124.768494 180.0
124.890999 160.0
124.915466 152.0
124.944382 192.0
125.020035 140.0
125.042564 324.0
125.061531 260.0
125.104614 184.0
125.142464 140.0
125.166954 156.0
125.198982 348.0
125.227974 160.0
125.296135 168.0
125.362465 240.0
125.390343 144.0
125.454361 236.0
125.472198 140.0
125.50341 172.0
125.550446 176.0
125.60154 324.0
125.670219 132.0
125.704163 176.0
125.742104 160.0
125.762894 172.0
125.847023 140.0
125.874809 144.0
125.912277 180.0
125.995796 164.0
126.015404 204.0
126.04599 1680.0
126.124992 144.0
126.231346 184.0
126.282784 184.0
126.30291 172.0
126.347649 176.0
126.412621 112.0
126.457298 304.0
126.546494 156.0
126.647614 184.0
126.674492 264.0
126.694534 156.0
126.721535 164.0
126.750481 148.0
126.764442 160.0
126.784279 200.0
126.807716 180.0
126.864967 172.0
126.968979 436.0
127.02227 156.0
127.053596 16328.0
127.13221 108.0
127.161049 160.0
127.21302 288.0
127.262215 180.0
127.312332 176.0
127.398201 192.0
127.428268 220.0
127.599075 200.0
127.668785 220.0
127.707466 160.0
127.731758 148.0
127.811996 148.0
127.827187 148.0
127.873512 160.0
127.910156 156.0
127.9711 140.0
127.996696 176.0
128.016632 236.0
128.061386 22024.0
128.164566 176.0
128.217453 328.0
128.292328 152.0
128.366882 248.0
128.38324 172.0
128.434906 172.0
128.465485 128.0
128.619553 144.0
128.637619 184.0
128.781448 236.0
128.823013 180.0
128.845337 192.0
128.896179 272.0
128.928558 212.0
128.944839 408.0
128.970139 456.0
128.98732 204.0
129.015213 160.0
129.069901 79840.0
129.13063 176.0
129.155945 356.0
129.186737 120.0
129.255524 120.0
129.303665 364.0
129.345657 164.0
129.400406 108.0
129.433121 116.0
129.494888 180.0
129.543091 172.0
129.651947 96.0
129.684891 184.0
129.710678 96.0
129.751801 152.0
129.794144 296.0
129.826172 200.0
129.857208 180.0
129.885773 128.0
129.917679 116.0
129.947266 148.0
130.005066 100.0
130.022827 176.0
130.044693 264.0
130.072937 6328.0
130.132614 296.0
130.152481 140.0
130.171631 172.0
130.189865 184.0
130.229553 160.0
130.311783 448.0
130.348511 192.0
130.411194 148.0
130.436203 144.0
130.468033 196.0
130.484375 148.0
130.514099 152.0
130.541779 160.0
130.56044 96.0
130.604462 224.0
130.635864 264.0
130.672592 356.0
130.723907 200.0
130.740967 176.0
130.765198 112.0
130.806107 252.0
130.91243 216.0
130.946411 236.0
130.998367 164.0
131.04895 1048.0
131.075623 320.0
131.182587 140.0
131.21019 172.0
131.347244 332.0
131.437744 120.0
131.556961 228.0
131.582336 168.0
131.636597 204.0
131.798843 180.0
131.864487 176.0
131.889008 132.0
131.922943 152.0
131.942123 120.0
131.969269 152.0
132.020218 180.0
132.049789 228.0
132.068802 152.0
132.119141 156.0
132.194641 152.0
132.219818 196.0
132.255447 168.0
132.328415 224.0
132.499161 148.0
132.588531 176.0
132.690323 176.0
132.774231 144.0
132.808624 316.0
132.830414 176.0
133.003662 172.0
133.018661 144.0
133.067673 140.0
133.119583 184.0
133.152069 188.0
133.196533 252.0
133.258041 228.0
133.27507 204.0
133.310333 204.0
133.3367 172.0
133.377274 140.0
133.45163 152.0
133.469269 196.0
133.536713 172.0
133.580231 216.0
133.642532 244.0
133.697052 184.0
133.803192 208.0
133.884232 216.0
133.978668 160.0
134.061081 160.0
134.090714 292.0
134.18927 380.0
134.272629 128.0
134.306 228.0
134.419052 168.0
134.449051 176.0
134.48735 220.0
134.521805 176.0
134.609955 236.0
134.643448 192.0
134.832413 196.0
134.864761 188.0
134.882111 136.0
134.915619 172.0
134.984985 144.0
135.031235 180.0
135.10141 212.0
135.127396 176.0
135.156158 144.0
135.193542 180.0
135.28038 172.0
135.343323 144.0
135.394592 268.0
135.434448 152.0
135.568329 196.0
135.661331 196.0
135.685272 124.0
135.714371 232.0
135.746826 188.0
135.851196 256.0
135.872269 240.0
135.916168 168.0
136.035355 168.0
136.056564 148.0
136.076309 176.0
136.094894 180.0
136.150726 200.0
136.199387 180.0
136.274338 124.0
136.348587 136.0
136.385269 220.0
136.485245 192.0
136.576721 204.0
136.666794 164.0
136.744568 160.0
136.785355 152.0
136.812912 148.0
136.959991 144.0
137.026428 192.0
137.056656 212.0
137.121078 148.0
137.13707 344.0
137.194962 192.0
137.279282 184.0
137.326813 232.0
137.452835 300.0
137.482239 176.0
137.558899 128.0
137.592743 176.0
137.669647 128.0
137.769424 284.0
137.904892 140.0
137.965729 140.0
138.042892 180.0
138.143463 172.0
138.17244 164.0
138.271194 156.0
138.314285 192.0
138.578354 184.0
138.61171 200.0
138.666504 148.0
138.691391 172.0
138.79689 192.0
138.93544 164.0
138.993927 148.0
139.054703 320.0
139.187637 112.0
139.221619 248.0
139.360458 152.0
139.42601 172.0
139.648651 212.0
139.733719 144.0
139.802277 144.0
139.82933 164.0
139.855286 192.0
139.902863 296.0
140.018982 160.0
140.056549 360.0
140.073044 164.0
140.182541 232.0
140.226196 148.0
140.252121 176.0
140.286392 116.0
140.314499 208.0
140.377075 152.0
140.444534 232.0
140.523315 156.0
140.553986 160.0
140.700317 196.0
140.764069 156.0
140.846725 176.0
140.918304 172.0
140.942123 168.0
141.011429 180.0
141.032028 248.0
141.069656 1680.0
141.119385 180.0
141.142136 196.0
141.163422 208.0
141.213669 112.0
141.288193 152.0
141.314804 348.0
141.366852 160.0
141.473373 208.0
141.526245 156.0
141.556229 184.0
141.579208 216.0
141.679398 224.0
141.702469 108.0
141.740997 212.0
141.769974 200.0
141.805969 192.0
141.83342 156.0
141.880829 176.0
141.902878 136.0
141.923508 232.0
141.942474 144.0
141.980423 172.0
141.99939 176.0
142.029434 168.0
142.073135 284.0
142.144958 188.0
142.193939 156.0
142.2509 156.0
142.274643 148.0
142.367249 228.0
142.391068 144.0
142.493408 144.0
142.556946 252.0
142.611954 164.0
142.638107 144.0
142.661926 192.0
142.688019 252.0
142.705795 192.0
142.73082 172.0
142.778381 384.0
142.82074 128.0
142.880661 368.0
142.934708 156.0
143.020782 104.0
143.048721 832.0
143.080078 176.0
143.113373 200.0
143.221069 168.0
143.249649 160.0
143.306641 204.0
143.402145 256.0
143.464127 204.0
143.4832 220.0
143.552841 228.0
143.580963 136.0
143.600037 144.0
143.646484 288.0
143.693069 204.0
143.750336 144.0
143.825241 160.0
143.869675 180.0
143.924576 248.0
143.955627 248.0
143.98761 224.0
144.051163 356.0
144.077332 176.0
144.131088 212.0
144.167496 208.0
144.195862 220.0
144.22081 180.0
144.250595 140.0
144.349915 180.0
144.39296 180.0
144.434937 260.0
144.548447 168.0
144.571671 160.0
144.677704 140.0
144.876465 164.0
144.926773 148.0
145.0 188.0
145.064316 5680.0
145.11908 172.0
145.154907 212.0
145.205826 168.0
145.274094 152.0
145.315979 184.0
145.451263 212.0
145.483185 172.0
145.528809 140.0
145.572021 204.0
145.588715 160.0
145.61525 140.0
145.79451 120.0
145.857925 300.0
145.896881 176.0
145.96611 144.0
146.021423 160.0
146.067719 712.0
146.117645 172.0
146.135437 116.0
146.162262 124.0
146.211487 196.0
146.392044 228.0
146.582962 180.0
146.634201 184.0
146.720749 160.0
146.760712 156.0
146.840286 124.0
146.905411 172.0
146.925385 128.0
147.005539 328.0
147.041748 576.0
147.097351 140.0
147.195038 172.0
147.224014 148.0
147.277145 156.0
147.315674 160.0
147.446274 296.0
147.531082 176.0
147.671173 160.0
147.781433 192.0
147.997177 140.0
148.072876 148.0
148.164429 160.0
148.209656 232.0
148.32486 200.0
148.375763 240.0
148.426682 156.0
148.481064 136.0
148.52533 132.0
148.555222 140.0
148.617172 100.0
148.666824 224.0
148.70755 156.0
148.758347 256.0
148.810043 148.0
148.875992 376.0
148.916885 160.0
148.948181 136.0
148.970322 164.0
148.992767 168.0
149.064667 184.0
149.125839 196.0
149.210175 264.0
149.225327 164.0
149.291153 152.0
149.359253 152.0
149.403275 264.0
149.441833 168.0
149.53595 180.0
149.600159 188.0
149.690247 180.0
149.86319 140.0
149.944824 168.0
149.980301 208.0
150.024033 144.0
150.053299 148.0
150.202438 228.0
150.236282 132.0
150.325226 156.0
150.428757 128.0
150.497345 160.0
150.543732 168.0
150.605194 244.0
150.645264 152.0
150.684631 144.0
150.805145 220.0
150.836548 184.0
150.970795 164.0
151.001221 144.0
151.026779 268.0
151.056168 164.0
151.088882 316.0
151.201355 196.0
151.220932 168.0
151.284576 148.0
151.341537 164.0
151.41066 120.0
151.574982 124.0
151.623657 188.0
151.672424 156.0
151.834412 212.0
151.923004 180.0
151.985352 180.0
152.041962 148.0
152.060715 364.0
152.093857 108.0
152.17691 160.0
152.242188 128.0
152.273743 136.0
152.393097 172.0
152.437332 176.0
152.476654 168.0
152.509506 164.0
152.650085 204.0
152.6866 160.0
152.71759 144.0
152.793854 164.0
152.924606 148.0
152.946625 140.0
153.035049 316.0
153.069427 3364.0
153.107941 292.0
153.176239 168.0
153.204971 168.0
153.227158 164.0
153.303528 384.0
153.344894 148.0
153.36348 172.0
153.40921 192.0
153.447159 224.0
153.501877 164.0
153.695602 200.0
153.757294 176.0
153.81456 220.0
153.871826 332.0
153.996658 152.0
154.076401 844.0
154.112885 148.0
154.158264 132.0
154.206863 372.0
154.24881 216.0
154.317734 136.0
154.383667 180.0
154.502243 132.0
154.539566 232.0
154.585251 188.0
154.657501 160.0
154.696121 116.0
154.732483 108.0
154.749863 172.0
154.755737 176.0
154.835205 168.0
154.888947 172.0
154.916946 264.0
154.93428 276.0
154.984116 144.0
155.00737 148.0
155.059723 9432.0
155.084839 16392.0
155.139099 124.0
155.173599 184.0
155.226746 172.0
155.271393 180.0
155.332748 184.0
155.365646 200.0
155.478424 124.0
155.497162 172.0
155.606461 116.0
155.635818 144.0
155.675339 212.0
155.73439 160.0
155.841202 204.0
155.884567 216.0
156.060532 1508.0
156.088867 1620.0
156.155655 216.0
156.210266 468.0
156.336624 168.0
156.382919 256.0
156.433426 124.0
156.458313 432.0
156.497299 152.0
156.553467 168.0
156.607498 184.0
156.6297 220.0
156.68306 152.0
156.700195 100.0
156.717041 172.0
156.752029 324.0
156.797302 140.0
156.812698 508.0
156.852448 452.0
156.884644 272.0
156.910583 372.0
156.934753 260.0
156.956787 480.0
156.973907 440.0
156.991608 712.0
157.001221 656.0
157.010483 548.0
157.034103 548.0
157.06575 246676.0
157.152924 144.0
157.198822 200.0
157.263443 140.0
157.291306 132.0
157.311401 140.0
157.353424 204.0
157.39418 144.0
157.447815 380.0
157.474869 5672.0
157.559982 180.0
157.58046 136.0
157.606766 204.0
157.691101 112.0
157.727188 228.0
157.814789 164.0
157.848099 152.0
157.876984 104.0
157.898651 176.0
157.921722 268.0
157.996429 220.0
158.028214 164.0
158.067978 38724.0
158.159348 128.0
158.304367 144.0
158.348389 124.0
158.367752 140.0
158.408905 176.0
158.524872 96.0
158.617065 224.0
158.635757 148.0
158.717606 152.0
158.754166 160.0
158.860703 144.0
158.890808 108.0
158.938354 228.0
158.976044 128.0
159.034943 100.0
159.069885 3072.0
159.112686 184.0
159.130783 128.0
159.15535 252.0
159.17894 260.0
159.206863 176.0
159.24234 184.0
159.290329 404.0
159.314819 136.0
159.35231 216.0
159.374557 248.0
159.436707 160.0
159.512161 192.0
159.586121 216.0
159.624222 156.0
159.696625 152.0
159.76828 112.0
159.918594 176.0
159.98497 224.0
160.016006 132.0
160.038696 180.0
160.075851 176.0
160.140015 184.0
160.200058 320.0
160.281952 200.0
160.324036 184.0
160.345688 156.0
160.390381 136.0
160.454758 204.0
160.515625 224.0
160.644241 180.0
160.745117 204.0
160.769836 216.0
160.834885 196.0
160.889038 144.0
160.963577 188.0
160.99704 264.0
161.086853 152.0
161.120544 228.0
161.21991 152.0
161.339111 176.0
161.450836 176.0
161.487854 116.0
161.527756 180.0
161.60051 164.0
161.798767 128.0
161.914673 128.0
162.060013 144.0
162.22551 160.0
162.298264 188.0
162.403442 244.0
162.742294 160.0
162.851486 168.0
162.975723 172.0
163.031876 228.0
163.33696 220.0
163.375122 196.0
163.418381 152.0
163.553909 140.0
163.611801 192.0
163.632156 188.0
163.68309 200.0
163.783585 188.0
163.852188 184.0
163.884018 104.0
164.082169 108.0
164.118332 156.0
164.215714 204.0
164.322845 168.0
164.350311 172.0
164.44278 180.0
164.507248 128.0
164.662491 148.0
164.68689 164.0
164.713425 236.0
164.746643 172.0
164.79007 160.0
164.820724 264.0
164.887115 212.0
165.015839 168.0
165.038193 172.0
165.069336 4936.0
165.127487 184.0
165.243973 192.0
165.263077 172.0
165.339844 232.0
165.359756 244.0
165.529282 180.0
165.562561 172.0
165.711136 164.0
165.732819 224.0
165.82132 196.0
165.852081 160.0
165.94693 228.0
166.074203 712.0
166.158951 180.0
166.244476 156.0
166.354279 172.0
166.380508 144.0
166.429291 200.0
166.514038 172.0
166.537155 188.0
166.565399 196.0
166.716995 140.0
166.773529 184.0
166.807419 176.0
166.877258 164.0
166.931076 200.0
167.075546 152.0
167.127731 220.0
167.275116 140.0
167.353683 196.0
167.395309 128.0
167.44429 136.0
167.790268 144.0
167.830429 232.0
167.988907 176.0
168.055069 848.0
168.216293 136.0
168.355408 148.0
168.407074 200.0
168.518143 176.0
168.621506 212.0
168.742996 188.0
168.785721 184.0
168.825745 140.0
168.880615 392.0
169.009399 220.0
169.064713 812.0
169.110947 100.0
169.205872 200.0
169.265656 180.0
169.38826 188.0
169.417068 236.0
169.54689 128.0
169.584305 180.0
169.677536 108.0
169.736298 204.0
169.761124 156.0
169.796906 236.0
169.880112 144.0
169.921417 144.0
169.966476 208.0
170.069 340.0
170.244125 112.0
170.292526 228.0
170.399124 164.0
170.426376 164.0
170.455826 228.0
170.510864 176.0
170.559174 156.0
170.705826 160.0
170.829269 140.0
170.908722 200.0
171.051041 192.0
171.078903 164.0
171.226562 180.0
171.317474 212.0
171.369583 220.0
171.588501 168.0
171.641144 148.0
171.684982 232.0
171.718887 164.0
171.802353 288.0
171.888458 160.0
171.967514 164.0
172.030121 124.0
172.079651 112.0
172.147751 208.0
172.166565 192.0
172.367432 176.0
172.415955 188.0
172.440659 164.0
172.601562 160.0
173.234055 132.0
173.34938 140.0
173.46814 148.0
173.520569 160.0
173.681854 136.0
173.756607 148.0
173.822205 200.0
173.849243 172.0
173.979691 172.0
174.195023 140.0
174.733932 192.0
174.837982 184.0
174.876465 240.0
174.964569 184.0
174.992447 164.0
175.526733 216.0
175.55574 188.0
175.650696 152.0
175.769409 172.0
176.078278 140.0
176.117889 160.0
176.183929 200.0
176.350403 152.0
176.378296 180.0
176.596298 252.0
176.65184 148.0
176.694168 140.0
176.735291 140.0
176.764313 164.0
176.813828 196.0
176.908524 164.0
177.034225 144.0
177.124161 196.0
177.15683 220.0
177.17865 216.0
177.221039 164.0
177.30249 212.0
177.361496 156.0
177.43042 164.0
177.483444 184.0
177.570953 208.0
177.607422 160.0
177.706238 168.0
177.794617 180.0
178.0168 160.0
178.051315 160.0
178.072357 152.0
178.1026 156.0
178.11969 156.0
178.255875 152.0
178.33667 228.0
178.377029 248.0
178.481812 176.0
178.865173 120.0
178.947433 152.0
179.069931 140.0
179.092072 152.0
179.151428 168.0
179.220901 320.0
179.294189 228.0
179.34436 164.0
179.39946 112.0
179.448212 184.0
179.489914 168.0
179.58432 152.0
179.63501 148.0
179.775452 156.0
179.859146 160.0
179.9953 168.0
180.219666 168.0
180.350616 152.0
180.378723 156.0
180.631378 244.0
180.684875 156.0
180.741074 192.0
180.777313 172.0
180.956116 220.0
180.977997 184.0
181.062943 248.0
181.237167 200.0
181.360199 156.0
181.466919 160.0
181.488373 152.0
181.552719 188.0
181.713669 192.0
181.795334 104.0
181.83403 140.0
181.869308 156.0
181.99295 140.0
182.035172 164.0
182.068741 368.0
182.110962 208.0
182.180801 172.0
182.253342 140.0
182.317825 156.0
182.417282 188.0
182.468353 144.0
182.503311 160.0
182.536285 212.0
182.612381 272.0
182.637421 176.0
182.654846 272.0
182.677216 168.0
182.707214 304.0
182.743179 176.0
182.799118 148.0
182.839554 176.0
182.86647 144.0
182.910065 160.0
182.939987 204.0
182.963379 344.0
183.009567 236.0
183.080261 155140.0
183.144958 120.0
183.243271 216.0
183.272232 148.0
183.329758 176.0
183.409515 164.0
183.495056 208.0
183.523132 244.0
183.57962 140.0
183.797394 228.0
183.835175 196.0
183.902832 124.0
183.935883 232.0
183.963516 192.0
183.986237 164.0
184.08345 17392.0
184.211517 196.0
184.281754 120.0
184.452515 120.0
184.522202 160.0
184.684998 240.0
184.815918 264.0
184.935837 164.0
184.974518 144.0
185.086548 1372.0
185.182114 188.0
185.279694 180.0
185.370529 288.0
185.407822 216.0
185.438385 124.0
185.463989 160.0
185.489914 116.0
185.54393 104.0
185.573227 156.0
185.632141 132.0
185.702179 144.0
185.735931 140.0
185.773254 132.0
185.803024 192.0
186.016083 180.0
186.03714 280.0
186.072433 148.0
186.092834 124.0
186.128448 152.0
186.290848 208.0
186.3694 140.0
186.441376 152.0
186.486694 128.0
186.536118 140.0
186.621185 144.0
186.666931 160.0
186.694672 180.0
186.753311 100.0
186.808914 172.0
186.904556 152.0
187.132095 132.0
187.200836 324.0
187.249847 176.0
187.325928 116.0
187.707687 184.0
187.764954 168.0
187.944992 140.0
187.977875 152.0
188.003677 108.0
188.043228 164.0
188.088272 176.0
188.114197 188.0
188.250717 160.0
188.30806 148.0
188.372742 124.0
188.403671 168.0
188.491013 144.0
188.554779 148.0
188.800003 288.0
189.013367 148.0
189.120102 204.0
189.388428 152.0
189.413071 140.0
189.458939 228.0
189.493561 116.0
189.544586 180.0
189.659683 204.0
189.82692 152.0
189.996979 260.0
190.074966 308.0
190.402023 176.0
190.544434 300.0
190.595016 160.0
190.73291 160.0
190.853439 176.0
190.897217 200.0
190.934631 272.0
190.974884 168.0
191.026642 196.0
191.084412 444.0
191.350174 136.0
191.437241 172.0
191.47464 220.0
191.553955 180.0
191.594238 160.0
191.757339 228.0
191.803665 156.0
191.861557 140.0
191.938751 316.0
192.173203 156.0
192.22287 160.0
192.509949 164.0
192.570709 164.0
192.79866 196.0
192.844238 192.0
193.068909 408.0
193.104126 148.0
193.173279 140.0
193.234146 164.0
193.426498 188.0
193.55394 140.0
193.800735 180.0
193.820755 180.0
193.881805 156.0
194.001373 368.0
194.033844 192.0
194.084442 140.0
194.123337 148.0
194.151001 248.0
194.253616 156.0
194.291534 156.0
194.367371 160.0
194.42009 144.0
194.554337 132.0
194.57489 208.0
194.817139 180.0
194.847702 160.0
195.03389 164.0
195.068817 156.0
195.345993 312.0
195.375916 164.0
195.517822 188.0
195.605835 212.0
195.812927 156.0
195.944748 100.0
196.168152 172.0
196.306198 224.0
196.50531 156.0
196.529358 160.0
196.660507 168.0
196.780548 196.0
196.967651 140.0
197.268829 148.0
197.326126 248.0
197.372879 188.0
197.465164 160.0
197.503983 244.0
197.55748 208.0
197.666595 148.0
197.741165 332.0
197.764542 192.0
197.852814 200.0
197.945236 220.0
198.033325 140.0
198.136963 148.0
198.165634 276.0
198.324722 156.0
198.434052 160.0
198.621933 220.0
198.642975 168.0
198.664017 216.0
198.722931 164.0
198.944641 200.0
199.014832 148.0
199.051331 156.0
199.346283 188.0
199.389404 196.0
199.46994 144.0
199.759583 144.0
199.888306 244.0
200.066574 180.0
200.103424 244.0
200.125427 248.0
200.295563 176.0
200.423996 176.0
200.454987 168.0
200.488815 152.0
200.882629 172.0
200.925064 272.0
200.96817 140.0
201.060822 144.0
201.193954 164.0
201.300125 120.0
201.357727 196.0
201.54364 132.0
201.654816 132.0
201.753326 164.0
201.821716 144.0
201.960541 128.0
202.03894 160.0
202.251175 140.0
202.27916 172.0
202.36441 144.0
202.467743 204.0
202.494675 208.0
202.677994 168.0
202.716919 116.0
202.756058 124.0
202.826172 156.0
203.047333 280.0
203.083801 688.0
203.121002 164.0
203.189163 316.0
203.213135 160.0
203.29335 172.0
203.396317 152.0
203.464355 140.0
203.559891 172.0
204.041168 208.0
204.09079 304.0
204.395386 160.0
204.519653 156.0
204.65094 208.0
204.7155 264.0
204.743988 156.0
204.777206 168.0
204.85791 204.0
204.954788 180.0
205.070526 172.0
205.10022 3048.0
205.325363 148.0
205.564194 184.0
205.584976 172.0
205.634537 240.0
205.950409 196.0
206.104355 108.0
206.279007 148.0
206.316177 252.0
206.379074 188.0
206.455704 176.0
206.477554 188.0
206.950226 136.0
206.98822 144.0
207.112122 156.0
207.249191 168.0
207.303635 148.0
207.358093 300.0
207.427032 144.0
207.546173 100.0
207.643326 228.0
207.776733 180.0
207.834122 184.0
207.911591 188.0
207.944489 104.0
208.069458 160.0
208.36937 104.0
208.425613 188.0
208.454346 188.0
208.54631 152.0
208.658417 192.0
208.799316 208.0
208.830948 172.0
209.029449 232.0
209.057083 180.0
209.108795 172.0
209.527557 152.0
209.574448 176.0
209.80423 168.0
209.977234 176.0
210.086838 168.0
210.277847 184.0
210.31604 252.0
210.373016 144.0
210.511124 164.0
210.568451 160.0
210.623764 152.0
211.063034 164.0
211.326248 140.0
211.43042 244.0
211.482788 124.0
211.543304 160.0
211.598297 196.0
211.718124 212.0
211.819107 212.0
211.954559 156.0
212.262573 184.0
212.374908 184.0
212.415527 144.0
212.820267 200.0
212.946686 196.0
213.084747 228.0
213.370697 192.0
213.468704 152.0
213.560532 180.0
213.591949 144.0
213.875336 184.0
213.922165 192.0
213.990005 148.0
214.083817 144.0
214.220703 228.0
214.295685 200.0
214.316849 208.0
214.43924 156.0
214.652054 200.0
214.684128 200.0
214.707458 168.0
214.818298 172.0
214.838715 172.0
214.91748 172.0
214.961258 168.0
215.084351 4052.0
215.460541 176.0
215.707794 144.0
216.030594 208.0
216.086975 1100.0
216.150558 144.0
216.17981 160.0
216.199081 152.0
216.227417 180.0
216.29689 324.0
216.353683 356.0
216.396286 168.0
216.525253 196.0
216.687744 132.0
216.82309 172.0
217.097382 412.0
217.181778 160.0
217.271225 124.0
217.319656 204.0
217.348999 200.0
217.399734 152.0
217.748245 180.0
217.795227 144.0
217.827545 160.0
217.865738 140.0
218.012634 188.0
218.06987 480.0
218.103745 156.0
218.139023 156.0
218.215454 196.0
218.274261 204.0
218.369965 148.0
218.579636 204.0
218.830368 200.0
218.97583 132.0
219.075638 320.0
219.107208 188.0
219.129105 224.0
219.236862 168.0
219.519852 204.0
219.730438 152.0
219.797821 156.0
219.8237 176.0
220.056885 160.0
220.077545 176.0
220.128784 276.0
220.375854 172.0
220.417221 160.0
220.452682 180.0
220.480667 256.0
220.582733 216.0
220.639282 152.0
220.763077 148.0
220.888214 168.0
220.981964 188.0
221.064819 156.0
221.14769 152.0
221.168396 220.0
221.245361 144.0
221.269897 180.0
221.470413 212.0
221.5504 176.0
221.645203 144.0
221.796341 164.0
221.844391 244.0
222.027603 248.0
222.057266 180.0
222.177429 164.0
222.288666 200.0
222.751816 204.0
223.019104 152.0
223.085007 160.0
223.307007 188.0
223.414719 148.0
223.556137 228.0
223.678802 108.0
223.787704 160.0
223.920746 172.0
224.215683 112.0
224.314041 168.0
224.373672 208.0
224.466095 160.0
224.547638 280.0
224.659149 192.0
224.704712 192.0
224.755432 140.0
225.212189 160.0
225.362976 120.0
225.385452 172.0
225.415344 140.0
225.43924 144.0
225.509918 160.0
225.537872 172.0
225.661484 180.0
225.693329 200.0
225.723221 152.0
225.890854 160.0
226.148804 188.0
226.219711 148.0
226.282745 188.0
226.735062 156.0
227.001862 204.0
227.028854 196.0
227.08284 168.0
227.493912 148.0
227.858795 108.0
228.091309 432.0
228.182281 176.0
228.326538 148.0
228.554825 188.0
228.732742 172.0
228.887726 224.0
229.032043 216.0
229.092911 176.0
229.190384 152.0
229.274521 192.0
229.304657 180.0
229.457291 200.0
229.56694 140.0
229.591064 176.0
229.647598 104.0
229.711716 240.0
229.847473 188.0
230.013474 196.0
230.156845 140.0
230.264191 104.0
230.300308 228.0
230.436249 180.0
230.489548 144.0
231.078125 172.0
231.316284 168.0
231.425278 208.0
231.470688 180.0
231.582748 184.0
231.610001 304.0
231.764511 220.0
231.868271 148.0
231.973846 180.0
232.012711 188.0
232.046371 160.0
232.083008 124.0
232.152512 188.0
232.22226 160.0
232.30719 148.0
232.376968 152.0
232.48317 156.0
232.562073 140.0
232.638626 172.0
232.775238 112.0
232.849075 104.0
232.882141 116.0
232.938583 144.0
232.978088 200.0
233.041885 188.0
233.095322 14144.0
233.187744 144.0
233.242447 144.0
233.286133 132.0
233.40274 124.0
233.519135 216.0
233.568771 212.0
233.611862 208.0
233.732086 144.0
234.058899 224.0
234.098282 2316.0
234.295349 140.0
234.426361 140.0
234.473923 208.0
234.613403 132.0
234.677368 104.0
234.807434 276.0
234.901993 200.0
235.100342 236.0
235.16745 152.0
235.210114 160.0
235.283447 172.0
235.52774 196.0
235.582733 148.0
235.613281 148.0
235.681671 104.0
235.880798 140.0
235.923508 140.0
236.013657 196.0
236.35318 148.0
236.405197 188.0
236.497009 140.0
236.583572 156.0
236.72113 96.0
236.944412 152.0
237.029877 168.0
237.085037 160.0
237.25975 188.0
237.342529 160.0
237.437592 148.0
237.581757 160.0
237.716751 168.0
237.749237 144.0
237.907059 164.0
238.103668 232.0
238.158035 168.0
238.22435 148.0
238.399368 152.0
238.561386 160.0
238.591599 116.0
238.791412 268.0
238.847351 140.0
238.933487 140.0
239.084259 204.0
239.161209 144.0
239.284348 248.0
239.312042 144.0
239.373627 168.0
239.438309 320.0
239.758698 176.0
239.804932 220.0
239.976913 152.0
240.097824 140.0
240.305817 172.0
240.43718 208.0
240.582245 176.0
240.674866 176.0
240.75206 176.0
240.88179 212.0
241.103943 164.0
241.19696 172.0
241.279358 104.0
241.379364 196.0
241.422668 212.0
241.710342 204.0
242.029175 148.0
242.255249 168.0
242.398804 108.0
242.438065 180.0
242.710846 144.0
242.779068 176.0
242.986893 184.0
243.01889 152.0
243.070496 212.0
243.111313 696.0
243.204102 144.0
243.620209 180.0
243.747589 160.0
243.858444 172.0
244.001404 236.0
244.116714 176.0
244.369446 200.0
244.814316 156.0
244.855042 180.0
244.932907 408.0
245.031082 148.0
245.093018 132.0
245.133911 120.0
245.160355 144.0
245.634109 160.0
245.646652 152.0
245.702881 152.0
245.737213 168.0
245.833939 156.0
245.903595 200.0
245.951614 136.0
246.011841 164.0
246.047836 196.0
246.243973 268.0
246.532303 168.0
246.609741 172.0
246.639709 144.0
246.677216 152.0
246.902344 384.0
247.302795 156.0
247.402969 144.0
247.687927 168.0
247.788757 152.0
247.932312 220.0
248.089035 212.0
248.183945 132.0
248.302246 164.0
248.358704 152.0
248.656769 184.0
248.961288 184.0
249.353989 140.0
249.492294 172.0
249.592911 208.0
250.045898 208.0
250.121445 204.0
250.171799 176.0
250.206436 168.0
250.22847 144.0
250.351273 144.0
250.5056 264.0
250.83017 152.0
250.855392 176.0
250.951019 264.0
251.087677 196.0
251.127396 212.0
251.334763 192.0
251.524124 176.0
251.615662 160.0
251.710388 148.0
252.073654 236.0
252.102097 176.0
252.275925 140.0
252.324799 108.0
252.366486 236.0
252.3927 312.0
252.468063 120.0
252.506744 212.0
252.581284 120.0
252.651093 120.0
252.690216 204.0
252.994034 160.0
253.075226 168.0
253.111176 208.0
253.249435 128.0
253.276794 164.0
253.320206 152.0
253.375336 200.0
253.743729 212.0
254.20015 252.0
254.359146 244.0
254.433304 164.0
254.463898 144.0
254.605331 148.0
254.659317 160.0
255.027328 156.0
255.148117 160.0
255.373886 140.0
255.445206 228.0
255.525223 188.0
255.583847 152.0
255.615662 140.0
255.672485 136.0
255.723862 164.0
255.819366 148.0
255.879852 172.0
256.167908 196.0
256.271606 168.0
256.427734 152.0
256.56839 160.0
256.692352 180.0
256.749725 216.0
256.96344 184.0
257.049011 152.0
257.178162 224.0
257.265045 116.0
257.294159 160.0
257.407104 144.0
257.626465 172.0
257.707367 156.0
257.956726 160.0
258.077332 176.0
258.236603 136.0
258.295593 216.0
258.362762 220.0
258.41922 192.0
258.543793 140.0
258.650787 228.0
258.756409 372.0
258.881287 192.0
258.94632 116.0
258.977356 220.0
259.090912 160.0
259.193848 112.0
259.227264 148.0
259.393921 132.0
259.464447 176.0
259.751312 188.0
259.799133 176.0
259.879852 160.0
259.903625 120.0
260.015289 184.0
260.03714 248.0
260.075928 148.0
260.112457 380.0
260.210785 132.0
260.221436 152.0
260.256165 220.0
260.277954 152.0
260.306366 280.0
260.378418 264.0
260.417053 232.0
260.462219 320.0
260.506714 280.0
260.540863 136.0
260.593262 192.0
260.631714 416.0
260.68634 116.0
260.6987 200.0
260.724152 380.0
260.75824 352.0
260.772125 256.0
260.795624 196.0
260.810791 492.0
260.86554 248.0
260.89093 408.0
260.948853 496.0
260.977905 868.0
261.04245 744.0
261.05365 620.0
261.06543 1004.0
261.088837 696.0
261.129272 223652.0
261.242615 244.0
261.341339 348.0
261.399902 236.0
261.429688 656.0
261.465576 480.0
261.513947 372.0
261.567932 276.0
261.61618 156.0
261.657867 9116.0
261.691162 472.0
261.72934 188.0
261.754456 412.0
261.792755 184.0
261.898254 308.0
261.928711 284.0
261.98053 468.0
262.039734 320.0
262.070587 184.0
262.131134 105996.0
262.244904 120.0
262.302094 156.0
262.348602 180.0
262.385132 212.0
262.417023 196.0
262.471649 156.0
262.516449 264.0
262.543243 172.0
262.733917 112.0
262.789581 312.0
262.827667 148.0
262.862671 128.0
262.960083 180.0
263.023407 148.0
263.134186 12488.0
263.407593 292.0
263.487061 188.0
263.547882 192.0
263.615814 220.0
263.642029 172.0
263.680939 168.0
263.742554 240.0
263.819183 308.0
263.895203 280.0
263.942444 396.0
263.981812 404.0
264.072052 228.0
264.094635 460.0
264.136566 1116.0
264.166779 272.0
264.201813 164.0
264.289673 100.0
264.347168 116.0
264.386871 112.0
264.427643 96.0
264.495392 208.0
264.607178 120.0
264.656891 104.0
264.696808 148.0
264.723785 312.0
264.824677 176.0
264.877045 128.0
264.932617 160.0
264.972687 148.0
265.496704 260.0
266.018951 172.0
266.333435 176.0
266.549591 188.0
266.828705 144.0
267.312927 128.0
267.498871 228.0
268.085114 96.0
268.245636 160.0
268.655701 140.0
268.822113 172.0
269.034241 172.0
269.369019 148.0
269.516602 100.0
269.664551 96.0
270.53476 156.0
270.891693 160.0
271.057373 148.0
271.461426 116.0
272.329193 144.0
272.387512 224.0
272.835266 200.0
272.88269 224.0
273.278229 104.0
273.31131 148.0
273.549866 124.0
274.011108 96.0
274.113647 144.0
274.162231 168.0
274.287109 136.0
274.839966 96.0
275.100922 184.0
275.130615 164.0
275.431122 176.0
275.535004 160.0
275.612823 188.0
275.949951 180.0
276.481354 124.0
277.302307 104.0
277.590363 188.0
277.651978 224.0
277.779846 116.0
278.558075 220.0
279.049927 172.0
279.17627 204.0
279.395813 140.0
280.111511 144.0
281.308655 204.0
281.383545 176.0
281.642548 160.0
281.731537 148.0
282.598663 184.0
283.402222 148.0
284.015686 160.0
284.713806 244.0
284.780975 160.0
286.008209 164.0
286.49649 164.0
286.715485 180.0
287.474274 172.0
288.017822 176.0
289.006866 220.0
289.20462 164.0
289.569794 112.0
290.607574 152.0
290.651703 176.0
291.908508 156.0
292.241852 140.0
292.902313 140.0
293.306732 192.0
293.734009 212.0
293.880707 148.0
294.14743 180.0
294.638641 212.0
294.737732 196.0
296.462372 144.0
296.616608 164.0
296.726288 156.0
296.921753 164.0
296.94577 140.0
297.044952 152.0
297.338257 148.0
298.295166 144.0
298.350159 168.0
298.442993 176.0
299.010315 108.0
299.698456 172.0
299.857697 120.0
300.174957 172.0
300.290192 176.0
300.381897 180.0
300.575104 168.0
301.087433 336.0
301.165436 236.0
301.52475 232.0
302.067596 148.0
302.351318 260.0
302.496674 176.0
302.624786 140.0
302.91449 136.0
303.576874 124.0
303.849396 128.0
304.113678 188.0
304.353546 128.0
304.413971 164.0
304.559845 160.0
304.601959 124.0
304.719635 228.0
304.816925 140.0
304.856201 108.0
304.96344 128.0
304.999054 168.0
305.045166 196.0
305.151062 112.0
305.195312 280.0
305.252197 228.0
305.279266 144.0
305.341675 120.0
305.374634 132.0
305.539307 224.0
305.628357 112.0
305.658203 136.0
305.759674 176.0
305.804718 184.0
305.895294 300.0
305.931091 412.0
306.023315 144.0
306.035309 328.0
306.067688 176.0
306.113312 276.0
306.186462 183132.0
306.374176 128.0
306.406464 172.0
306.483063 212.0
306.556366 252.0
306.594208 232.0
306.626709 252.0
306.684753 140.0
306.758362 1452.0
306.803741 212.0
306.868652 200.0
306.956543 108.0
307.012146 320.0
307.044586 200.0
307.188019 36132.0
307.277496 196.0
307.37793 136.0
307.431519 156.0
307.490509 124.0
307.56543 144.0
307.610352 112.0
307.665039 120.0
307.742523 108.0
307.779236 148.0
307.82309 224.0
307.973022 96.0
308.191193 5200.0
308.331848 120.0
308.366791 132.0
308.751038 116.0
308.780609 116.0
308.90451 256.0
309.018707 96.0
309.050354 140.0
309.075409 332.0
309.134125 288.0
309.195099 280.0
309.284393 200.0
309.367554 244.0
309.513611 324.0
309.597565 128.0
309.818207 104.0
310.133179 152.0
310.453186 108.0
310.536865 108.0
311.202026 148.0
311.272247 240.0
311.808746 144.0
313.173584 100.0
315.289886 108.0
318.658813 120.0
320.614014 108.0
323.628204 96.0
335.64447 140.0
365.091309 152.0
374.055908 144.0
378.569275 192.0
414.989624 160.0
440.332581 160.0
446.653687 96.0
474.062988 112.0
580.662781 128.0
597.821167 152.0
669.360962 100.0
695.109741 140.0
808.895996 176.0
863.015503 200.0
883.523926 228.0
921.997009 148.0
923.599182 160.0
946.965759 140.0
948.509827 148.0
960.65448 172.0
968.591492 236.0
989.02124 140.0
998.822205 160.0
1002.864563 188.0
1004.598572 268.0
1027.602539 168.0
1029.16626 188.0
1035.875 212.0
1036.943481 124.0
1039.651367 168.0
1043.351074 148.0
1044.392822 144.0
1052.164185 176.0
1063.57019 144.0
1067.734863 192.0
1071.581909 164.0
1073.73291 164.0
1073.974243 160.0
1080.853394 208.0
1082.712524 272.0
1083.190552 140.0
1083.367432 168.0
1085.458252 276.0
1087.807007 160.0
1092.051636 156.0
1093.768921 200.0
1096.763062 128.0
1097.161499 180.0
1100.328125 140.0
1100.506348 228.0
1106.284546 180.0
1107.595703 148.0
1108.198486 148.0
1108.828003 176.0
1110.193726 144.0
1111.653076 200.0
1119.410645 212.0
1120.189941 196.0
1122.589233 168.0
1126.446899 144.0
1126.994751 236.0
1143.524902 176.0
1147.998169 192.0
1157.431396 204.0
1159.904175 204.0
1163.424805 148.0
1164.042603 180.0
1164.27356 240.0
1167.88916 216.0
1172.716553 224.0
1172.921021 140.0
1175.847046 196.0
1177.246582 180.0
1177.738281 148.0
1179.58313 192.0
1180.629272 184.0
1182.298462 156.0
1186.394409 188.0
1195.309326 152.0
1196.575684 204.0
1203.857056 172.0
1204.596069 228.0
1205.387695 100.0
1206.842041 144.0
1212.968872 148.0
1214.272339 208.0
1214.459595 184.0
1218.478882 172.0
1220.793457 196.0
1221.204712 140.0
1227.764282 176.0
1230.199341 148.0
1233.489502 196.0
1234.510254 140.0
1240.55957 188.0
1247.052368 152.0
1248.085693 140.0
1252.167236 212.0
1254.118774 160.0
1254.358521 204.0
1255.18335 212.0
1257.687744 156.0
1258.146606 224.0
1260.802368 148.0
1266.774048 228.0
1267.376221 188.0
1267.824585 180.0
1269.977905 200.0
1272.731445 188.0
1274.940552 140.0
1274.990356 140.0
1278.859253 204.0
1280.247559 144.0
1282.477539 228.0
1288.9646 140.0
1291.774292 216.0
1292.074829 160.0
1294.307861 176.0
1297.087524 140.0
1297.151978 156.0
1298.227539 172.0
1298.643433 180.0
1300.307983 152.0
1300.494507 176.0
1301.391846 156.0
1301.635986 188.0
1301.80835 140.0
1303.029419 216.0
1303.230591 148.0
1305.386963 208.0
1307.307617 164.0
1307.595459 200.0
1309.67627 140.0
1312.594971 168.0
1313.510864 176.0
1314.257812 236.0
1314.571411 180.0
1315.379761 184.0
1316.029541 156.0
1324.896362 184.0
1326.135376 168.0
1329.369873 212.0
1330.131958 152.0
1331.446045 156.0
1331.838257 184.0
1333.44397 192.0
1336.30896 148.0
1336.52002 144.0
1337.575317 184.0
1338.237793 176.0
1338.485352 212.0
1339.046021 160.0
1339.410156 160.0
1340.211548 176.0
1340.481201 144.0
1345.477295 184.0
1346.265869 184.0
1346.609131 140.0
1348.019165 144.0
1349.02771 156.0
1353.512573 220.0
1354.655029 180.0
1355.006714 160.0
1355.307129 156.0
1356.399048 212.0
1356.772949 140.0
1359.780273 184.0
1367.615112 208.0
1368.005249 184.0
1369.305908 228.0
1370.221924 148.0
1370.966064 152.0
1371.865356 172.0
1374.431885 156.0
1376.359619 136.0
1380.6073 208.0
1380.903076 180.0
1381.554077 176.0
1382.057129 180.0
1383.359741 160.0
1388.12207 176.0
1389.154541 140.0
1390.593994 144.0
1390.85376 176.0
1390.916138 208.0
1392.606079 160.0
1396.515503 216.0
1396.857666 168.0
1399.34668 140.0
1400.154907 176.0
1401.029053 188.0
1401.167969 236.0
1403.396362 188.0
1404.537354 164.0
1404.865601 152.0
1406.559448 172.0
1408.359009 188.0
1409.389893 368.0
1409.726196 152.0
1411.153809 208.0
1412.484985 160.0
1413.128296 212.0
1413.233032 160.0
1414.348022 168.0
1414.632568 228.0
1415.538452 144.0
1415.658203 144.0
1416.338013 168.0
1416.639404 288.0
1420.169922 240.0
1420.293213 220.0
1420.6875 152.0
1420.95752 156.0
1421.715454 144.0
1422.518433 208.0
1422.63855 176.0
1422.889526 160.0
1423.479492 172.0
1423.599609 140.0
1424.050293 204.0
1425.071899 216.0
1425.943604 216.0
1426.501709 120.0
1426.63501 144.0
1429.590942 180.0
1430.050049 164.0
1432.406738 188.0
1432.753296 164.0
1433.062134 204.0
1433.616211 172.0
1433.785522 196.0
1434.508423 248.0
1435.157471 172.0
1436.462158 152.0
1437.488281 176.0
1438.416504 200.0
1438.537354 192.0
1439.692505 176.0
1440.848145 140.0
1441.694458 172.0
1442.215942 160.0
1442.420044 192.0
1443.228882 148.0
1443.448242 264.0
1445.578125 132.0
1450.420776 204.0
1451.14856 204.0
1454.661011 224.0
1455.397461 156.0
1455.594849 176.0
1456.688477 220.0
1457.440674 144.0
1457.972534 164.0
1459.743774 152.0
1460.945557 232.0
1462.269409 176.0
1462.794678 200.0
1463.936646 144.0
1464.445923 204.0
1464.835449 176.0
1467.388306 144.0
1467.800049 152.0
1470.386108 180.0
1472.149658 180.0
1473.44812 140.0
1473.639038 216.0
1473.715454 184.0
1474.265625 160.0
1474.808228 140.0
1478.341553 148.0
1479.550903 204.0
1479.604492 156.0
1480.201782 168.0
1481.204956 184.0
1482.783325 196.0
1483.741455 184.0
1485.044067 172.0
1485.244507 172.0
1486.210449 148.0
1486.533447 176.0
1486.77124 204.0
1487.285522 148.0
1487.707642 140.0
1487.792114 244.0
1489.02063 196.0
1489.899048 288.0
1490.326538 192.0
1490.818359 148.0
1495.047974 152.0
1495.15564 148.0
1495.632812 176.0
1496.094727 148.0
1496.6875 152.0
1496.741455 148.0
1497.057129 172.0
1497.157227 208.0
1498.435913 168.0
1500.447388 144.0
1503.949463 192.0
1504.755249 172.0
1504.899048 156.0
1505.192383 140.0
1506.42041 220.0
1507.231689 176.0
1508.159058 216.0
1509.388184 152.0
1510.393555 200.0
1510.842285 184.0
1511.337402 200.0
1512.358887 204.0
1512.558594 164.0
1512.800049 148.0
1513.171753 172.0
1513.233643 180.0
1515.00708 156.0
1515.867188 208.0
1516.254639 144.0
1516.494507 148.0
1516.998657 152.0
1517.122681 152.0
1519.20105 152.0
1519.26001 184.0
1521.218628 184.0
1522.888062 144.0
1523.945557 156.0
1524.278687 208.0
1525.397827 212.0
1525.561035 168.0
1526.066406 196.0
1526.532959 148.0
1527.092896 156.0
1528.656494 192.0
1530.049805 188.0
1530.221069 188.0
1530.898438 168.0
1531.350098 200.0
1532.962769 140.0
1533.843506 160.0
1535.005127 144.0
1535.309204 184.0
1536.38562 160.0
1536.557251 168.0
1538.867432 228.0
1539.41394 200.0
1541.570557 152.0
1542.130005 160.0
1542.249878 192.0
1542.718872 156.0
1543.062866 144.0
1543.758789 220.0
1544.540894 164.0
1544.611328 208.0
1544.963257 176.0
1546.1604 144.0
1548.195923 148.0
1548.885132 160.0
1550.977173 208.0
1551.416138 168.0
1552.121826 148.0
1553.141235 212.0
1553.949341 176.0
1554.286621 220.0
1554.671143 196.0
1554.890869 216.0
1557.332642 140.0
1557.544678 176.0
1557.607544 164.0
1557.67041 164.0
1557.725342 152.0
1558.110229 172.0
1559.972778 176.0
1560.161377 144.0
1561.2229 168.0
1562.442017 156.0
1563.842651 140.0
1563.984375 208.0
1565.653442 228.0
1566.102417 200.0
1566.75061 208.0
1568.516357 212.0
1568.907593 192.0
1570.050903 172.0
1570.145508 168.0
1570.96582 156.0
1571.786377 200.0
1572.488647 212.0
1573.112305 176.0
1574.470337 160.0
1574.683594 220.0
1575.065063 148.0
1575.362793 184.0
1577.085449 232.0
1578.089355 180.0
1578.935425 140.0
1580.129883 212.0
1584.341553 148.0
1584.840698 144.0
1585.070557 204.0
1587.472412 144.0
1588.130615 172.0
1589.62207 192.0
1590.241089 140.0
1590.582397 276.0
1591.273071 200.0
1591.630371 140.0
1592.067017 300.0
1592.710327 140.0
1592.991333 140.0
1594.503418 220.0
1595.308838 172.0
1596.374146 160.0
1596.493896 196.0
1596.596802 176.0
1596.859253 168.0
1597.562378 188.0
1598.015747 192.0
1598.903931 212.0
1599.349609 168.0
1601.459595 184.0
1601.678223 220.0
1601.786133 236.0
1602.080933 164.0
1603.21228 176.0
1603.7052 228.0
1603.85791 172.0
1604.144775 196.0
1604.798584 168.0
1605.019409 220.0
1605.133423 152.0
1605.292969 276.0
1605.595947 180.0
1606.365723 308.0
1606.577026 244.0
1607.207275 148.0
1607.430786 160.0
1607.638184 176.0
1607.734009 156.0
1607.837769 220.0
1608.683228 172.0
1608.891357 148.0
1609.833496 180.0
1609.905396 152.0
1609.961304 168.0
1610.416504 152.0
1610.79187 152.0
1611.02356 176.0
1611.790527 172.0
1611.957031 144.0
1612.186768 256.0
1612.42334 148.0
1612.533691 180.0
1612.819702 180.0
1613.393555 160.0
1614.940308 164.0
1616.012207 200.0
1616.460327 156.0
1617.468628 144.0
1617.572754 140.0
1617.660767 208.0
1617.99707 196.0
1618.053101 160.0
1618.496948 192.0
1618.925781 144.0
1619.23938 204.0
1620.00708 156.0
1620.18335 188.0
1621.842041 208.0
1622.074463 184.0
1622.16272 196.0
1622.531494 200.0
1623.164795 172.0
1623.469604 172.0
1623.541748 164.0
1624.389648 196.0
1625.033691 208.0
1625.346558 188.0
1625.571289 164.0
1625.667603 156.0
1626.293579 144.0
1627.730591 152.0
1628.531128 200.0
1629.589722 164.0
1629.796021 224.0
1630.357422 180.0
1630.775269 200.0
1631.936646 236.0
1632.375122 212.0
1632.519897 184.0
1632.744995 220.0
1634.410156 184.0
1634.909058 152.0
1635.681763 212.0
1635.818604 196.0
1638.730591 168.0
1639.157593 124.0
1639.273682 164.0
1639.386475 168.0
1640.635864 144.0
1640.764771 212.0
1641.990479 164.0
1642.466309 188.0
1642.796997 160.0
1642.853516 180.0
1643.248779 176.0
1643.418213 168.0
1644.814331 152.0
1645.371338 180.0
1645.807373 204.0
1647.034912 148.0
1648.351685 164.0
1649.216431 240.0
1650.138062 168.0
1650.501831 168.0
1651.164917 172.0
1651.407593 168.0
1651.488403 144.0
1653.260254 176.0
1653.761963 152.0
1653.851074 148.0
1654.126221 156.0
1655.494507 140.0
1655.769897 164.0
1656.563599 176.0
1656.839111 140.0
1657.187378 152.0
1657.471069 160.0
1657.949097 148.0
1658.45166 224.0
1658.654297 184.0
1659.238647 208.0
1662.279419 176.0
1662.360596 140.0
1662.531006 184.0
1662.72583 144.0
1662.904297 236.0
1663.245239 168.0
1663.967773 232.0
1664.227539 228.0
1664.584839 144.0
1665.169556 200.0
1665.408081 172.0
1665.485962 220.0
1666.745483 160.0
1666.912109 280.0
1667.037964 148.0
1667.68811 168.0
1668.238159 192.0
1668.310303 168.0
1670.477173 192.0
1670.647949 152.0
1671.591797 224.0
1672.283447 208.0
1672.470703 180.0
1672.820679 144.0
1672.991699 164.0
1673.064941 216.0
1673.455688 228.0
1674.009399 156.0
1674.384033 180.0
1674.677246 196.0
1674.766846 348.0
1675.263672 140.0
1676.233154 184.0
1676.428833 156.0
1677.268188 140.0
1677.578003 176.0
1678.629761 192.0
1679.078247 168.0
1679.535034 204.0
1679.779663 148.0
1679.918335 176.0
1681.313599 160.0
1681.737183 168.0
1682.782837 140.0
1683.289062 192.0
1684.064941 172.0
1684.808228 184.0
1684.914429 180.0
1685.306641 188.0
1686.95752 164.0
1687.137329 160.0
1688.216553 184.0
1688.306519 148.0
1688.48645 164.0
1688.55542 136.0
1688.61731 148.0
1689.476196 144.0
1690.548096 140.0
1690.621704 140.0
1690.896973 132.0
1691.358276 176.0
1691.775757 144.0
1692.493408 164.0
1692.921997 192.0
1693.913086 212.0
1694.052246 216.0
1694.150635 172.0
1694.347168 168.0
1695.740234 184.0
1697.338745 188.0
1697.724121 196.0
1697.986572 164.0
1698.593506 144.0
1698.954468 172.0
1699.331909 168.0
1700.062134 276.0
1701.367188 172.0
1701.906982 172.0
1703.255859 168.0
1704.085571 184.0
1704.217041 164.0
1704.545776 164.0
1704.866211 180.0
1705.170288 156.0
1705.326416 140.0
1705.466187 160.0
1705.712769 160.0
1706.26355 168.0
1706.559448 156.0
1707.431152 180.0
1707.620239 168.0
1708.664917 152.0
1708.903564 172.0
1709.026978 160.0
1710.508301 176.0
1711.298584 212.0
1711.690552 200.0
1712.039673 156.0
1713.637695 144.0
1714.016724 204.0
1714.733643 172.0
1714.881958 148.0
1715.096313 160.0
1715.393066 144.0
1715.458984 184.0
1715.696899 184.0
1715.780518 140.0
1716.308105 172.0
1716.59668 176.0
1717.149292 148.0
1717.545166 172.0
1717.833862 176.0
1718.337036 184.0
1718.614502 136.0
1718.706909 180.0
1719.137451 152.0
1719.830688 184.0
1720.325562 160.0
1720.69751 172.0
1721.09375 256.0
1721.430542 144.0
1721.531372 168.0
1722.547241 204.0
1722.894287 160.0
1723.131714 172.0
1723.224731 156.0
1723.422974 180.0
1723.712158 180.0
1723.775024 224.0
1724.332031 204.0
1724.555176 144.0
1724.793823 172.0
1725.318115 172.0
1725.489258 148.0
1725.613281 156.0
1725.737305 144.0
1725.849365 144.0
1726.532959 140.0
1726.679932 148.0
1726.985962 184.0
1727.234131 180.0
1727.432617 164.0
1728.061401 312.0
1729.170166 204.0
1729.937866 160.0
1730.006226 168.0
1730.395264 252.0
1730.974854 152.0
1731.535278 192.0
1731.64563 172.0
1732.358032 160.0
1732.605591 248.0
1732.969727 200.0
1733.609131 152.0
1733.799683 172.0
1734.098022 160.0
1734.313477 152.0
1734.396362 160.0
1734.636841 172.0
1735.117554 152.0
1735.72998 168.0
1736.48584 176.0
1736.751221 156.0
1737.083008 176.0
1737.406494 208.0
1737.564087 220.0
1738.128296 160.0
1739.979248 160.0
1740.078857 192.0
1742.379272 220.0
1742.574829 212.0
1742.786377 308.0
1743.805298 172.0
1745.554321 148.0
1746.223633 156.0
1746.726929 156.0
1746.818481 208.0
1747.558838 216.0
1747.700317 180.0
1747.925049 180.0
1747.991577 172.0
1748.732178 208.0
1749.953979 152.0
1750.49707 148.0
1751.446533 200.0
1752.012939 228.0
1752.937866 164.0
1753.115356 172.0
1753.351562 264.0
1753.679565 152.0
1753.89624 216.0
1754.038696 172.0
1754.538086 156.0
1755.305176 260.0
1755.492432 104.0
1756.5979 184.0
1756.781372 148.0
1757.090088 140.0
1758.179077 180.0
1758.726685 256.0
1759.143311 188.0
1759.268188 176.0
1759.602173 184.0
1759.794189 180.0
1760.194458 164.0
1761.088501 164.0
1761.480957 256.0
1761.706665 188.0
1762.450195 184.0
1762.846436 220.0
1762.976562 156.0
1763.035156 156.0
1763.352661 176.0
1763.519897 156.0
1764.338989 200.0
1764.489502 148.0
1764.723633 224.0
1765.927734 140.0
1766.337646 156.0
1767.49353 144.0
1768.161621 148.0
1768.529785 156.0
1768.856323 156.0
1769.107422 272.0
1769.334717 156.0
1770.137207 176.0
1770.966309 176.0
1771.431885 116.0
1771.69165 136.0
1772.072021 192.0
1772.625122 224.0
1773.220093 144.0
1773.404419 192.0
1773.508423 116.0
1773.647583 164.0
1773.949341 164.0
1774.510986 148.0
1774.745728 152.0
1775.094238 172.0
1775.248901 224.0
1775.458496 176.0
1776.14624 168.0
1776.766968 152.0
1777.282959 168.0
1777.679932 172.0
1777.913208 192.0
1778.487183 192.0
1778.554321 164.0
1779.637329 236.0
1779.754883 188.0
1779.914429 152.0
1781.120605 160.0
1781.69458 180.0
1781.792847 172.0
1783.299927 160.0
1783.661255 176.0
1783.938721 152.0
1784.039551 204.0
1784.174072 184.0
1784.401123 160.0
1784.831055 196.0
1784.972778 144.0
1786.360474 152.0
1786.50354 188.0
1787.37854 180.0
1787.757202 144.0
1788.026489 148.0
1789.002808 140.0
1790.383667 144.0
1790.594238 204.0
1790.86377 156.0
1791.057495 168.0
1791.495483 152.0
1792.759277 200.0
1793.038452 100.0
1793.745483 164.0
1794.32959 252.0
1794.554688 144.0
1794.875122 188.0
1794.959473 200.0
1795.046021 168.0
1795.532837 228.0
1796.224487 188.0
1796.865601 232.0
1797.612061 192.0
1798.183716 160.0
1798.874146 152.0
1799.051392 164.0
1799.203369 224.0
1799.390137 224.0
1799.600098 168.0
1799.802734 204.0
1799.904175 232.0
1800.022095 160.0
1800.225342 184.0
1800.807739 180.0
1800.934448 192.0
1801.187744 216.0
1801.945068 156.0
1802.471924 220.0
1802.573364 172.0
1803.24939 176.0
1803.545288 180.0
1804.821777 152.0
1805.17688 168.0
1805.362915 164.0
1805.591309 180.0
1806.360107 156.0
1806.577026 160.0
1806.690918 188.0
1806.809326 192.0
1807.012329 156.0
1807.190063 204.0
1807.260376 180.0
1807.460815 188.0
1808.388062 248.0
1808.874146 208.0
1809.280396 192.0
1809.788452 140.0
1810.313477 172.0
1810.483521 152.0
1810.575928 160.0
1811.287354 176.0
1811.431396 148.0
1811.871948 180.0
1812.532715 204.0
1812.812378 188.0
1813.083618 200.0
1813.524292 148.0
1813.642944 152.0
1813.871826 148.0
1813.931152 184.0
1814.171631 168.0
1814.795898 172.0
1815.373657 140.0
1815.482666 168.0
1815.677734 176.0
1815.830444 172.0
1815.920898 256.0
1816.424072 196.0
1816.763428 164.0
1817.05188 160.0
1817.467651 148.0
1818.358643 188.0
1818.452026 148.0
1818.65564 176.0
1818.836182 200.0
1819.080078 224.0
1819.156494 184.0
1821.296265 156.0
1821.406738 188.0
1821.474731 176.0
1822.45166 232.0
1822.596069 152.0
1822.832275 216.0
1822.978516 152.0
1823.220093 116.0
1823.42041 192.0
1823.62439 192.0
1823.794312 204.0
1823.853882 156.0
1824.11731 148.0
1824.751465 156.0
1825.418091 140.0
1825.579712 160.0
1826.013428 280.0
1827.246826 176.0
1827.323364 164.0
1827.51062 176.0
1827.757324 208.0
1827.936035 180.0
1828.276367 148.0
1828.693481 176.0
1828.786987 140.0
1829.11499 172.0
1829.41687 184.0
1829.621216 332.0
1829.746582 128.0
1829.95874 224.0
1830.839722 184.0
1831.341309 196.0
1831.792725 140.0
1831.988647 228.0
1832.120117 208.0
1832.252808 160.0
1832.346436 172.0
1832.585083 172.0
1832.653198 396.0
1833.394531 168.0
1833.471191 184.0
1834.11731 144.0
1834.485474 228.0
1834.835083 160.0
1835.477783 180.0
1835.866699 220.0
1836.182251 196.0
1836.546387 216.0
1836.787842 204.0
1837.077881 280.0
1837.845703 204.0
1838.775879 200.0
1839.44165 144.0
1840.056274 220.0
1840.175781 172.0
1843.165161 236.0
1843.28479 152.0
1844.741943 168.0
1845.182251 168.0
1845.746582 152.0
1846.191284 340.0
1846.35376 152.0
1846.464844 148.0
1846.52478 148.0
1846.696411 164.0
1846.875488 148.0
1847.346313 168.0
1847.474243 196.0
1847.842041 196.0
1848.933594 156.0
1849.12561 164.0
1849.485107 192.0
1851.257324 160.0
1852.343262 180.0
1852.471069 188.0
1852.549316 164.0
1852.944702 200.0
1853.158813 164.0
1853.218872 160.0
1853.364502 168.0
1853.878662 180.0
1854.039185 184.0
1854.701416 256.0
1855.087158 164.0
1856.364624 176.0
1856.630371 156.0
1856.913452 172.0
1856.990601 180.0
1857.092041 136.0
1858.062866 152.0
1858.161743 376.0
1858.474731 208.0
1858.663452 184.0
1858.835083 160.0
1859.521606 176.0
1860.002197 184.0
1860.276978 144.0
1860.517334 152.0
1860.610474 196.0
1860.791992 180.0
1860.946533 164.0
1861.117554 140.0
1861.145874 128.0
1861.539062 168.0
1861.796631 140.0
1861.956299 96.0
1862.784424 140.0
1863.29126 256.0
1863.540405 144.0
1863.69812 204.0
1863.90979 236.0
1864.588745 144.0
1865.078613 144.0
1865.284912 160.0
1865.680298 176.0
1866.445557 144.0
1866.512451 212.0
1866.982788 132.0
1867.064697 192.0
1867.580688 220.0
1868.064575 128.0
1868.199951 148.0
1868.320435 188.0
1870.222168 224.0
1870.531982 216.0
1870.738647 168.0
1872.934204 180.0
1873.343506 160.0
1874.140503 144.0
1876.114014 140.0
1876.928833 204.0
1877.407349 156.0
1878.537231 164.0
1878.804688 160.0
1878.959961 228.0
1879.115112 184.0
1880.349243 164.0
1880.617798 132.0
1880.768188 140.0
1881.709229 228.0
1882.213867 224.0
1882.4729 144.0
1883.293335 180.0
1883.828857 188.0
1884.329956 144.0
1884.61499 168.0
1884.761963 192.0
1885.263062 200.0
1885.435913 152.0
1885.503906 180.0
1885.617432 208.0
1886.058228 160.0
1886.196533 172.0
1886.291626 232.0
1887.017822 176.0
1887.35498 164.0
1887.704102 368.0
1888.104858 224.0
1888.2677 160.0
1888.557007 188.0
1888.907471 164.0
1889.02417 204.0
1889.275024 264.0
1890.607422 164.0
1891.0896 136.0
1892.278076 184.0
1892.927368 148.0
1892.988037 180.0
1893.464355 148.0
1893.689453 192.0
1894.356445 220.0
1894.48645 144.0
1894.988892 152.0
1895.13623 164.0
1895.205444 208.0
1896.037354 168.0
1896.973389 148.0
1897.424194 148.0
1898.265259 160.0
1898.534058 224.0
1898.664185 148.0
1899.340698 148.0
1899.800415 148.0
1900.095337 180.0
1900.416016 172.0
1900.667969 176.0
1900.72876 164.0
1900.894897 140.0
1901.457642 252.0
1901.587891 200.0
1901.99585 212.0
1902.872559 240.0
1902.959351 176.0
1903.193848 148.0
1903.480347 164.0
1903.879883 140.0
1903.975342 196.0
1904.131714 176.0
1904.265137 140.0
1904.609375 148.0
1904.696289 172.0
1904.800415 176.0
1905.304321 156.0
1905.921143 148.0
1906.028442 176.0
1906.355591 172.0
1906.764038 148.0
1907.023804 188.0
1907.345703 148.0
1907.450684 164.0
1908.137451 140.0
1908.467896 208.0
1908.72876 200.0
1908.79834 148.0
1909.137451 192.0
1909.341431 148.0
1909.615723 176.0
1910.181152 172.0
1910.511719 164.0
1910.859619 208.0
1911.129395 324.0
1911.303345 148.0
1911.454956 144.0
1912.162598 208.0
1912.426025 168.0
1912.569702 188.0
1913.078857 164.0
1913.416138 156.0
1913.740479 192.0
1913.95813 188.0
1914.06958 216.0
1914.254272 156.0
1914.701294 168.0
1914.855103 160.0
1915.70874 160.0
1916.144287 152.0
1916.318604 252.0
1916.396973 144.0
1916.52771 144.0
1916.889404 128.0
1916.998169 144.0
1917.093994 212.0
1918.706543 160.0
1919.578491 172.0
1919.78772 156.0
1919.90979 144.0
1920.337158 192.0
1920.773315 148.0
1920.921509 148.0
1921.273804 364.0
1921.577637 228.0
1921.767822 144.0
1921.894043 188.0
1922.116821 160.0
1922.299805 152.0
1922.474609 300.0
1922.989502 248.0
1923.312378 160.0
1924.342529 156.0
1924.787842 156.0
1924.866333 204.0
1925.006104 168.0
1925.25061 164.0
1925.673096 200.0
1926.639404 212.0
1926.866577 236.0
1926.962646 172.0
1927.11084 156.0
1927.373291 152.0
1927.705322 156.0
1928.501465 160.0
1928.64917 140.0
1928.771606 228.0
1928.984497 160.0
1929.820557 188.0
1930.039185 148.0
1930.275269 160.0
1930.765015 152.0
1930.878662 180.0
1931.324707 172.0
1931.68335 156.0
1931.945801 152.0
1932.146973 216.0
1932.514404 156.0
1933.284424 164.0
1933.971436 152.0
1934.255981 180.0
1934.571045 140.0
1934.658569 320.0
1935.577881 188.0
1936.205322 212.0
1936.557739 176.0
1936.707642 200.0
1937.312012 168.0
1937.767578 168.0
1937.907715 160.0
1938.039185 176.0
1938.372192 140.0
1938.486084 204.0
1938.90625 144.0
1939.160889 172.0
1939.546509 140.0
1940.063721 156.0
1940.168945 196.0
1940.765015 200.0
1941.14209 148.0
1941.650757 140.0
1941.865723 188.0
1942.152466 156.0
1942.216919 132.0
1942.633057 216.0
1943.27356 164.0
1943.362549 192.0
1943.443359 236.0
1944.730225 152.0
1945.638672 132.0
1945.761108 156.0
1946.117188 188.0
1947.135864 208.0
1947.355347 200.0
1947.689209 156.0
1948.189819 204.0
1948.397339 148.0
1949.033325 156.0
1949.695801 172.0
1950.214355 180.0
1950.438965 180.0
1950.624023 144.0
1951.169067 140.0
1951.600708 116.0
1952.13623 152.0
1952.197754 260.0
1952.400024 148.0
1952.938354 204.0
1953.182739 180.0
1953.759644 144.0
1954.185669 144.0
1954.810425 144.0
1954.933594 148.0
1955.223999 176.0
1955.778442 148.0
1955.980835 168.0
1956.233398 176.0
1957.521606 160.0
1957.653687 148.0
1959.089355 228.0
1960.352905 404.0
1960.842773 144.0
1960.983765 152.0
1961.644897 164.0
1961.749756 124.0
1962.31958 140.0
1963.037842 140.0
1964.025635 216.0
1964.325562 168.0
1964.387207 196.0
1964.710938 204.0
1965.282349 136.0
1965.375366 192.0
1965.578247 208.0
1966.134277 160.0
1966.955078 208.0
1967.016846 144.0
1967.255249 180.0
1967.608276 144.0
1967.926147 200.0
1968.003418 160.0
1968.493164 132.0
1968.712036 148.0
1968.791504 160.0
1968.870972 168.0
1969.745361 160.0
1970.072144 148.0
1970.946899 152.0
1971.326782 144.0
1971.591919 140.0
1972.192871 244.0
1972.41394 188.0
1972.625977 172.0
1972.873535 176.0
1973.015015 184.0
1973.6073 216.0
1973.669189 164.0
1973.99646 160.0
1974.721558 148.0
1975.110718 168.0
1975.178711 136.0
1975.580078 136.0
1975.687988 164.0
1975.87854 140.0
1975.944458 360.0
1976.261108 136.0
1976.366943 268.0
1976.437744 296.0
1976.605835 152.0
1977.840698 168.0
1978.119263 152.0
1978.818604 204.0
1979.463745 140.0
1980.067139 200.0
1980.513794 148.0
1980.842651 160.0
1981.023804 368.0
1981.103516 180.0
1981.249756 196.0
1982.538818 156.0
1983.455566 192.0
1983.646729 176.0
1984.147339 164.0
1984.776855 164.0
1985.482056 144.0
1985.7052 244.0
1985.863403 164.0
1986.244873 160.0
1986.741577 148.0
1987.211792 172.0
1987.424683 200.0
1987.603882 188.0
1987.832886 164.0
1987.957153 148.0
1988.074951 180.0
1988.418579 140.0
1988.542847 248.0
1989.045654 184.0
1989.402466 244.0
1990.078613 208.0
1990.531372 152.0
1990.77771 216.0
1991.09082 160.0
1991.370972 124.0
1991.614868 140.0
1991.694824 148.0
1991.810303 160.0
1992.130005 200.0
1992.689697 204.0
1992.921509 172.0
1993.134033 172.0
1993.462769 208.0
1993.913818 144.0
1994.238159 172.0
1994.395874 168.0
1994.525635 136.0
1994.929199 176.0
1995.000366 196.0
1995.062622 168.0
1995.178223 140.0
1995.436035 180.0
1995.649414 144.0
1995.916138 192.0
1996.591919 148.0
1997.143311 176.0
1997.285645 156.0
1999.049927 192.0
2000.043945 180.0
2001.557373 140.0
2002.109497 144.0
2002.401978 160.0
2002.723999 184.0
2003.053589 184.0
2003.240601 176.0
