>compound Bumetanide
>formula C17H20N2O5S 
>ionization [M+H]+
>parentmass 365.118
#inchi InChI=1S/C17H20N2O5S/c1-2-3-9-19-14-10-12(17(20)21)11-15(25(18,22)23)16(14)24-13-7-5-4-6-8-13/h4-8,10-11,19H,2-3,9H2,1H3,(H,20,21)(H2,18,22,23)
#inchikey MAEIEVLCKWDQJH
#Ion_Source LC-ESI
#Instrument qTof
#Compound_Source Isolated
#PI Sirenas
#Data_Collector Ed Esquenazi 
#Scan -1
#Precursor_MZ 365.118
#ExactMass 0.0
#Charge 1
#CAS_Number N/A
#Pubmed_ID N/A
#Smiles N/A
#INCHI_AUX N/A
#Library_Class 3
#SpectrumID CCMSLIB00000006154
#IonMode Positive
#UpdateWorkflowName UPDATE-SINGLE-ANNOTATED-BRONZE
#LibraryQualityString Bronze
#TaskID d19310cd93df49b68e9fcbec27720eb5
##Scan# 3
#SpectrumFile Bumetanide.mgf
#LibraryName fda_library.mgf
#MQScore -1
#Organism fda_library
#TIC_Query 0
#RT_Query -1
#MZErrorPPM -1
#SharedPeaks 0
#MassDiff 0
#LibMZ -1
#SpecMZ 365.118
#SpecCharge 0
#internalFilename spec-00000.mgf

>collision 10
101.05748 32.465401
102.04879 17.83452
104.050056 60.327179
105.020432 19.680059
105.033897 55.270161
105.118652 1.6875
105.42305 4.115741
106.051086 23.337959
106.22435 20.005051
106.756805 7.486111
107.012779 31.388201
107.430038 7.354167
107.621231 2.381944
108.044083 658.833984
108.066772 34.973881
108.081123 12.60562
108.16507 2.708333
108.221268 10.46939
108.294632 6.932018
108.355164 2.50463
108.365196 1.055556
108.40715 4.387821
108.445656 4.872578
108.478264 4.166667
108.619621 1.183712
109.015182 2.834052
109.031487 8.376811
110.009056 21.834681
113.03611 39.254341
113.07074 1.666667
113.20739 12.02083
114.613663 8.172222
115.053749 450.709991
115.084015 10.81079
115.229111 7.54023
115.243958 2.670833
115.259285 4.409274
115.284843 5.127604
115.307457 7.245098
115.385918 2.020833
116.264778 5.907738
117.068825 19.745449
117.375694 13.38562
118.068306 38.200199
118.123825 2.380952
119.036217 18.55374
120.044914 40.700779
120.258354 2.568056
121.030205 7.708333
122.018326 12.34271
122.101425 2.113426
123.444237 3.211111
123.451973 1.837963
124.038467 228.562805
124.064346 8.327381
124.121582 10.69265
124.259636 8.650144
124.377518 4.423611
124.470787 10.71307
125.004959 121.4049
125.024933 27.35215
125.166374 9.68217
125.248123 3.201868
125.992874 8.170204
126.645737 6.173132
127.004097 13.40171
127.053719 302.689087
127.293358 3.926282
127.367241 3.780242
127.571465 8.33772
127.583252 7.168519
127.980515 6.349116
128.011948 7.007184
128.062256 944.029114
128.114288 1.335648
128.130035 1.668056
128.216187 6.191469
128.370239 3.005953
128.39006 6.186403
128.409088 2.092803
128.42215 3.115741
128.464981 3.395833
128.560196 3.520833
129.069885 2330.059082
129.119675 9.633117
129.133209 2.526786
129.151947 2.720395
129.182755 1.0375
129.191605 14.91759
129.24321 6.50463
129.258881 1.380682
129.317688 23.173759
129.337906 2.240741
129.369537 1.666667
129.419678 3.408334
129.432861 2.920139
129.44841 1.170833
129.480347 1.166667
129.509048 13.87212
129.543701 2.170139
129.621399 9.638354
129.646667 13.33333
129.864624 2.666667
130.039764 20.333851
130.110535 3.002778
130.396545 8.601191
130.688705 11.2451
131.049805 93.552757
131.100494 1.333333
131.245163 5.086693
131.475006 6.358334
131.684357 9.306281
132.07869 22.199289
133.051575 12.2567
134.044571 7.401389
134.098572 3.234722
134.129974 6.260671
134.371017 1.868055
136.037292 50.099548
136.271317 7.75926
137.047043 57.328442
137.412552 4.669872
138.466751 3.593364
139.054001 885.219971
139.101959 0.84375
139.130402 1.505208
139.13884 2.190476
139.161469 12.60227
139.190216 1.395833
139.246033 10.23444
139.261688 1.854167
139.30719 3.364268
139.315399 2.33443
139.339249 7.031863
139.524918 8.667092
139.660141 9.928142
140.015305 14.03472
140.046082 28.028179
140.096619 2.173611
140.127731 1.0
140.2659 7.010212
140.277328 2.173611
140.405655 10.8424
140.426056 2.9375
140.446915 2.02381
140.610703 2.873775
140.814072 1.501225
140.826462 3.337121
140.931747 1.479167
140.999084 41.742531
141.029251 18.03075
141.069458 2250.63501
141.120743 8.201894
141.128937 8.282586
141.148346 11.5336
141.166916 2.942402
141.183334 11.04211
141.194122 4.502315
141.206482 5.051136
141.241135 2.19391
141.286331 17.383011
141.33931 6.527315
141.376083 4.221102
141.418274 6.222757
141.438293 5.721102
141.450531 6.673913
141.467285 3.179167
141.475586 2.969697
141.569839 0.854167
141.669876 5.523438
141.716263 2.729167
141.773453 1.5
141.858444 2.240741
141.878067 16.7239
142.029617 1.963141
142.134064 2.847222
142.229462 2.666667
142.851593 9.920259
143.044113 14.9692
143.085526 179.761093
143.127045 1.854167
143.210297 4.006465
143.226959 3.5
144.056671 5.34741
144.560608 9.546696
145.060425 15.36742
146.059616 69.189667
146.337097 2.841486
147.103897 11.8631
148.076187 24.68713
150.052444 27.632021
151.053635 66.118462
151.105606 3.440476
151.351913 14.75426
151.447525 14.76223
152.034088 447.404297
152.06015 303.039612
152.217361 5.78125
152.234924 6.595238
152.262619 6.277039
152.309662 3.503205
152.336044 8.26589
152.416962 2.213542
152.451385 7.10947
152.597458 3.335526
152.786606 2.370833
152.903595 15.15103
153.069748 1031.187988
153.102448 6.9375
153.117889 2.337121
153.135117 4.012703
153.173721 3.001225
153.199585 9.339744
153.234146 3.670455
153.277206 3.354167
153.290131 2.170139
153.340775 7.920139
153.476273 8.560606
153.486755 2.555556
153.501251 6.73852
153.699203 13.90587
153.708221 3.835227
153.80455 11.34375
154.065735 338.582397
154.122253 7.748547
154.175293 1.361111
154.265091 2.920139
154.360504 10.47738
154.41658 3.979167
154.513214 2.8
154.682358 10.96955
154.719147 8.030637
154.767807 6.302083
154.899918 12.21528
154.974686 10.42158
155.048401 395.333405
155.072601 187.854599
155.117508 2.500906
155.126175 1.361111
155.146713 19.467819
155.165176 4.500563
155.173843 5.932099
155.184753 9.583333
155.19519 4.371826
155.215698 32.383579
155.245377 5.880952
155.260391 4.211309
155.282196 19.87409
155.296341 14.90774
155.311264 30.74629
155.323486 6.504167
155.342896 4.167339
155.353424 34.99165
155.370834 19.55147
155.40361 4.503205
155.412277 7.184576
155.425873 7.374166
155.46344 10.43795
155.485214 15.55776
155.503952 7.997248
155.512039 2.500906
155.598923 10.33674
155.60968 1.270833
155.678879 8.881667
155.741577 3.65308
155.885361 4.333333
155.918091 7.440834
155.983551 10.81845
156.012131 22.294531
156.024399 10.04861
156.080887 14995.360352
156.153824 19.60656
156.167755 2.422149
156.197601 26.18054
156.216766 36.393181
156.228592 14.43073
156.244461 9.078431
156.259903 56.279369
156.293808 31.475849
156.315079 49.204632
156.336319 19.24626
156.358932 34.550308
156.383652 29.05201
156.404114 7.84127
156.42128 38.7822
156.433762 7.48682
156.454498 13.96535
156.462662 10.70794
156.471817 25.938049
156.496902 16.57235
156.508179 11.50046
156.527924 21.19665
156.536148 7.401152
156.556259 11.89059
156.565628 15.34167
156.594116 28.428829
156.605286 11.07787
156.615952 9.3571
156.63118 1.291667
156.651993 10.09274
156.665405 27.41996
156.745331 12.8288
156.769455 16.653851
156.780045 8.595834
156.826584 6.773438
156.890747 1.408333
156.936951 4.745192
157.06459 80.642113
157.138718 2.347756
157.4095 3.740036
157.435516 3.780242
157.693192 11.15346
157.715744 4.255482
157.802383 4.876736
157.824402 11.44218
157.978561 4.9
158.012238 6.180147
158.021271 1.008333
158.682007 3.500563
158.748322 4.510417
158.962448 10.6973
159.665176 2.337121
160.106781 2.942402
161.581879 2.893518
162.480392 14.52083
163.016434 9.336742
163.971008 2.191468
164.034103 151.012207
164.102982 28.760321
164.158173 1.361111
164.334015 5.565188
164.872162 8.040441
165.086594 6.193452
165.167068 1.843202
165.234131 2.027412
165.269928 8.342803
165.283371 3.001389
165.3246 4.669445
165.381531 4.469445
165.43544 5.266401
166.017639 4.231304
166.065063 4394.523926
166.119247 14.83089
166.138321 14.58285
166.147461 9.401153
166.162582 4.010417
166.18927 3.4375
166.218719 10.1141
166.272491 19.961821
166.313751 11.17315
166.344391 18.281191
166.391403 34.24239
166.448242 4.857074
166.467377 3.909091
166.488632 3.175595
166.515579 4.678241
166.558197 11.59873
166.578888 3.4375
166.6465 17.866739
166.722137 7.834459
166.76973 3.483553
166.798508 5.019261
166.845444 5.940025
166.939407 4.080044
167.018753 2.920139
167.047638 340.55011
167.162643 7.001984
167.176132 10.56909
167.205978 7.650144
167.441605 3.426697
167.482147 3.010417
167.509659 4.357143
167.612747 2.034722
167.623001 1.446759
167.656158 6.023525
167.694107 4.676535
167.869568 4.350379
167.973251 4.960318
168.009323 2.360746
168.080078 466.041107
168.181747 4.741071
168.198761 6.849537
168.209488 3.551136
168.21907 20.326031
168.241241 33.466709
168.320709 12.25347
168.361237 2.367424
168.397339 5.690476
168.432678 4.574405
168.492096 2.708333
168.505707 5.679369
168.573456 4.691565
168.605072 4.083333
168.620422 2.517045
168.648087 15.50048
168.695435 5.502083
169.065018 1508.562988
169.269775 3.833333
169.310501 1.446759
169.369217 2.534722
169.382935 2.337121
169.414764 8.380051
169.453125 1.4375
169.500656 7.04529
169.509796 5.522727
169.563171 5.041667
169.59024 11.73039
169.766922 5.505682
169.831482 2.337963
169.898056 3.391204
170.023529 12.963
170.096039 770.125671
170.149078 2.834936
170.165298 7.453159
170.256134 7.542328
170.301834 1.8
170.335083 2.5075
170.346252 3.0
170.367142 16.347321
170.384552 9.98554
170.549164 4.074405
170.637543 7.667339
170.965851 21.40238
171.023666 45.730701
171.080765 343.680298
171.239685 9.051724
171.279434 10.06891
171.316238 1.333333
171.437912 2.9375
171.625137 11.96944
171.708618 4.600833
172.109482 23.200689
172.535156 2.673132
173.482361 2.220395
174.056549 13.45337
175.024414 23.973339
177.042953 16.92308
177.067764 28.23003
178.060532 33.7342
178.07695 51.607101
178.378174 5.335417
179.049957 66.552277
179.071625 98.568398
179.080978 54.37973
179.229385 4.8375
179.360733 5.186275
179.87735 2.669444
179.989365 7.329301
180.081314 231.820999
180.139603 2.745192
180.166748 2.520833
180.274216 4.987714
180.573273 0.8375
180.596603 6.043403
180.952087 1.361111
181.065323 342.469604
181.087418 128.538803
181.120636 1.1875
181.148697 6.230682
181.179123 6.149038
181.231705 2.541667
181.275513 4.584722
181.298569 7.690628
181.37674 8.256945
181.43721 1.334722
181.527359 3.401389
181.620789 4.483333
181.636124 2.588816
181.889114 7.035088
181.950256 4.578948
181.970337 9.191468
182.010788 9.380123
182.024429 1.891204
182.061081 1100.168945
182.113174 12.41234
182.134323 8.06813
182.1474 7.16713
182.161591 15.46377
182.204727 8.360887
182.217178 1.526786
182.234879 2.260417
182.255402 2.864583
182.286362 44.628639
182.333191 8.115661
182.344849 54.603661
182.411972 3.408334
182.458389 17.83427
182.480911 5.199755
182.490509 2.347222
182.534958 3.104167
182.551407 2.860119
182.580597 5.182449
182.613998 6.49135
182.639999 8.227941
182.73761 1.880208
182.750595 8.648438
182.89476 6.564103
182.929642 3.6
182.955887 25.597
182.969986 4.039216
183.067993 5916.269043
183.125793 65.596397
183.147263 60.76527
183.177322 32.14534
183.189285 1.847756
183.201065 16.810699
183.213074 33.29245
183.234024 33.012131
183.255661 5.093202
183.266251 14.35064
183.32309 4.005682
183.35025 5.556327
183.362778 19.926081
183.393951 37.057129
183.413773 37.865559
183.445282 2.416667
183.475922 7.675804
183.48967 22.136181
183.502075 5.000906
183.523178 8.217803
183.545853 4.340278
183.563919 15.8075
183.615234 2.704167
183.690674 4.408333
183.76561 11.35417
183.780273 4.335648
183.806564 12.04196
183.839233 14.13095
184.006348 74.672997
184.041931 10.56904
184.075592 7454.494141
184.190491 4.518939
184.222626 5.633928
184.233841 18.299021
184.252914 18.175871
184.271118 13.80377
184.303772 12.29016
184.319458 12.37335
184.376404 33.726349
184.421082 7.736629
184.469498 10.35366
184.491241 13.8817
184.530136 4.354167
184.562225 7.885965
184.572388 5.217803
184.5896 4.9375
184.615051 10.54243
184.641953 4.100833
184.66983 10.7845
184.715271 8.913547
184.725784 15.05426
184.756516 9.965909
184.79834 7.127043
184.815094 7.113426
184.853455 15.74798
184.921707 9.525568
185.159729 4.69853
185.306366 12.27413
185.335297 6.282738
185.416229 8.573627
185.500961 17.862431
185.534149 5.198506
185.553101 1.173611
185.595749 2.333333
185.790482 8.827851
185.851761 8.172794
185.947784 1.6875
186.150681 1.68109
186.360229 10.04679
186.485748 4.734722
186.606155 4.173611
186.967819 7.547348
187.285919 2.745192
187.424973 2.168561
187.700562 1.166667
187.961929 2.926136
188.373886 1.002976
189.019073 6.449275
189.042603 6.500595
189.445602 3.726716
190.073196 20.30228
190.499847 5.50641
191.071747 51.840988
192.079559 70.81942
192.175018 6.001984
192.620987 1.177083
192.96138 7.232687
193.048798 16.76115
193.087509 55.018799
193.473984 6.670204
193.702194 6.037094
193.904846 2.530637
193.924255 3.402778
193.99147 20.430811
194.028214 12.57149
194.061981 107.236504
194.094437 35.464211
194.156876 4.175438
194.215149 5.026175
194.612564 2.422149
194.797272 2.341486
194.912857 23.162951
194.955383 5.294872
194.990936 13.03984
195.009903 1.0375
195.049805 3.337963
195.067413 1579.970947
195.104797 48.76823
195.129303 2.503205
195.147018 6.166667
195.187302 44.416168
195.210358 15.96758
195.2314 15.43704
195.260223 41.51857
195.284546 3.040441
195.304977 2.183333
195.323898 20.761681
195.349777 5.940025
195.380371 5.541159
195.513321 4.54041
195.555481 2.580357
195.580017 5.898438
195.652328 10.75695
195.668091 5.129902
195.787628 4.394231
195.854935 5.011667
195.875137 3.373775
195.935104 4.543269
195.959457 3.170833
196.05307 101.941399
196.07576 8398.727539
196.135406 55.34087
196.154022 20.116819
196.194656 32.0
196.224808 15.67542
196.278931 9.22807
196.295227 12.04695
196.312073 17.010509
196.338226 12.14854
196.35379 3.335648
196.375793 6.547619
196.388245 10.6864
196.418106 17.68548
196.447479 34.840889
196.470001 18.366051
196.50354 15.64113
196.526001 18.42079
196.558929 1.6875
196.573685 3.645833
196.591476 26.28322
196.613983 4.640152
196.68161 11.00605
196.699738 19.39106
196.715805 19.24419
196.744537 10.53878
196.793243 10.62537
196.851669 4.52374
196.880142 8.002992
196.984116 6.706117
197.008362 32.925789
197.02211 13.67103
197.118698 10.66667
197.259781 9.364899
197.374298 4.505067
197.394318 18.6875
197.457382 1.002315
197.738663 10.63373
197.815186 21.144819
197.873077 3.005208
198.024948 21.8652
198.091934 459.3992
198.27951 2.722222
198.328506 4.227941
198.415955 2.354167
198.612762 1.6875
198.6716 1.501603
198.896255 1.173611
199.830673 3.094697
200.0186 56.706421
200.074005 43.038109
200.106018 3.500906
200.386627 6.320988
201.772842 5.710892
201.970551 3.380953
202.034836 2.194079
202.079559 39.667042
203.08461 22.83333
204.942932 2.060049
205.089417 29.313219
206.062088 22.670059
206.096466 44.044781
206.165359 9.8704
206.529953 5.756299
207.071518 65.787422
207.811584 3.891204
207.886826 2.334167
207.967758 15.32997
208.022263 16.62439
208.076416 279.972992
208.111618 10.19391
208.429169 2.175
208.565613 2.691468
208.78566 5.833333
208.861053 4.167092
209.01207 2.588816
209.057205 13.27253
209.083481 482.853088
209.217316 13.15995
209.339203 1.745192
209.374161 5.03293
209.505096 5.834005
209.530289 4.833818
209.594681 3.901389
209.685486 4.354167
210.052353 397.201813
210.091263 289.925201
210.150131 2.334722
210.206543 8.465517
210.234039 2.555556
210.291458 9.678763
210.356964 1.505208
210.392853 3.65308
210.405838 2.583333
210.499313 3.204167
210.548752 3.6
210.609314 4.205883
210.729736 3.265931
210.760803 7.265932
210.870163 2.19391
210.938171 6.258333
211.150192 2.868056
211.422943 6.528602
211.818787 19.943569
212.069244 49.37397
212.111908 18.875
212.143738 1136.972046
212.182404 1.540064
212.2034 7.686018
212.226654 11.88967
212.324326 1.501225
212.437836 4.520833
212.502869 14.5935
212.532196 3.333333
212.598129 5.051445
212.638092 5.816498
212.659256 6.174166
212.672775 1.388889
212.872131 3.833333
212.900513 6.606115
212.925446 4.041667
213.483917 6.041349
213.958801 11.29882
214.051163 121.797997
214.087418 120.356201
214.168427 1.334722
216.021118 34.36702
216.292801 10.27336
216.327408 3.354167
216.834763 6.648148
219.065628 38.886372
219.109589 7.722553
221.164001 2.580357
221.359329 4.518939
222.057388 72.004173
222.095947 10.50521
222.121887 16.112249
222.158401 4.717803
222.205048 1.0
222.817398 5.514423
223.094284 31.39463
223.847656 7.779321
224.069946 240.101807
224.106003 151.813599
224.169479 4.355978
224.400574 15.17018
225.055389 292.764313
225.243927 3.960938
225.374252 3.501602
226.267792 4.881944
227.056625 308.329315
227.101227 2.53125
227.133743 8.781068
227.18512 4.86
227.245422 9.416667
227.603378 3.779166
227.679626 6.133962
227.710144 1.505952
227.841049 3.1875
227.945328 1.513889
228.064529 372.277588
228.119629 1.004167
228.645187 11.83333
228.850388 5.006944
228.913467 2.672619
228.940842 5.889423
229.026367 201.697998
229.176849 1.380682
229.241257 4.855511
229.268265 2.501894
229.369659 2.574405
229.721909 5.752604
230.077591 6.642045
230.759872 13.67654
230.928635 2.867424
233.164978 2.509868
233.308426 1.868055
233.691681 1.408333
233.765701 4.1
234.050583 21.90741
234.079575 1.671296
236.070282 42.269371
236.285507 2.668056
236.696884 5.280093
236.839752 2.907408
236.952515 2.296875
237.11264 11.00044
237.643204 4.385417
237.771606 2.449074
238.082901 27.510059
238.122925 689.791687
238.163696 3.858333
238.18808 4.786775
238.240189 8.524377
238.271088 5.282609
238.293625 3.706731
238.485931 1.333333
238.512787 1.514423
238.550552 2.083333
238.59877 2.174819
238.61322 3.986743
238.654221 4.928571
238.679092 4.005208
238.705399 4.958333
238.765381 5.019261
238.792557 6.321047
238.824509 8.666987
238.845535 19.78289
238.932648 11.73693
239.222946 10.22629
239.528732 8.701755
239.56163 3.178571
239.628189 3.641748
239.798615 3.333333
239.873627 1.895833
240.06604 3050.812012
240.136963 305.535309
240.184174 1.375
240.256744 5.512112
240.269058 13.48188
240.294434 10.57019
240.312439 5.408974
240.336716 3.666667
240.359253 24.84252
240.400208 26.904671
240.423935 5.436904
240.443375 8.198698
240.458847 25.148411
240.50856 7.909275
240.551849 17.416031
240.595596 9.279324
240.669846 20.416759
240.709915 3.833333
240.753098 5.175438
240.812103 6.041159
240.837341 5.513889
240.884552 10.35063
241.179718 3.172024
241.239639 15.89897
241.725708 8.517174
242.019745 2.006944
242.081207 903.522522
242.145798 3.63576
242.163132 4.542857
242.256058 3.926716
242.288544 1.002976
242.38063 7.511082
242.456482 3.681818
242.475708 8.821297
242.517761 22.26465
242.58226 3.0625
242.618988 3.833867
242.672409 6.82353
242.781815 5.834936
243.714874 4.670139
244.960114 4.000534
245.919785 7.949275
246.019989 59.60664
247.097931 36.662331
248.034103 47.671341
248.105026 26.055559
248.424332 2.839382
248.731491 2.871142
249.143753 1.347222
250.040558 1.446759
251.929352 3.746795
254.077332 92.571999
254.126373 1.333333
255.603699 2.674167
255.64476 2.755208
255.689911 3.270833
256.098602 31.94029
256.129517 20.927
262.547028 8.712121
264.364532 5.722222
266.119568 206.564407
283.115814 12.59643
284.135101 28.553341
284.275299 2.336539
284.733002 2.008929
285.138794 21.881519
292.023834 7.964461
587.608154 18.39801
1059.38147 4.898551
1119.859375 1.0
1152.812012 4.6875
1322.871582 37.75
1322.943237 4.576389
1636.759399 4.483477
