>compound MLS002153787-01!Brinzolamide138890-62-7
>formula C12H21N3O5S3
>ionization [M+H]+
>parentmass 384.0716102240905
#inchi InChI=1S/C12H21N3O5S3/c1-3-14-10-8-15(5-4-6-20-2)23(18,19)12-9(10)7-11(21-12)22(13,16)17/h7,10,14H,3-6,8H2,1-2H3,(H2,13,16,17)/t10-/m0/s1
#inchikey HCRKCZRJWPKOAR
#Ion_Source LC-ESI
#Instrument qTof
#Compound_Source NIH Pharmacologically Active Library
#PI Dorrestein
#Data_Collector VP/LMS
#Scan -1
#Precursor_MZ 384.076
#ExactMass 383.064
#Charge 1
#CAS_Number N/A
#Pubmed_ID N/A
#Smiles CCN[C@H]1CN(CCCOC)S(=O)(=O)c2sc(cc12)S(=O)(=O)N
#INCHI_AUX N/A
#Library_Class 1
#SpectrumID CCMSLIB00000085851
#IonMode Positive
#UpdateWorkflowName UPDATE-SINGLE-ANNOTATED-GOLD
#LibraryQualityString Gold
#TaskID d252d724072548979f1f6f1ced849daf
##Scan# 1277
#SpectrumFile p4-G03_GG3_01_18399.mzXML
#LibraryName Pharm_Active_Library.mgf
#MQScore -1
#Organism Pharm_Active_Library
#TIC_Query 0
#RT_Query -1
#MZErrorPPM -1
#SharedPeaks 0
#MassDiff 0
#LibMZ -1
#SpecMZ 384.076
#SpecCharge 0
#internalFilename spec-00000.mgf

>collision 10
44.907581 84.0
44.938263 128.0
44.947605 236.0
44.99699 124.0
45.010345 100.0
45.05175 132.0
45.122581 144.0
45.141304 164.0
45.170727 156.0
45.268341 172.0
45.349701 140.0
45.387699 232.0
45.399769 184.0
45.454773 160.0
45.486984 112.0
45.509743 224.0
45.531334 140.0
45.562191 152.0
45.571594 72.0
45.586376 196.0
45.706059 184.0
45.727592 48.0
45.770672 136.0
45.786835 88.0
45.811081 180.0
45.834091 204.0
45.869278 236.0
45.901386 328.0
45.945896 152.0
45.964787 196.0
46.106586 120.0
46.122807 116.0
46.166073 148.0
46.244545 148.0
46.25808 160.0
46.317665 168.0
46.38271 68.0
46.431522 140.0
46.442371 188.0
46.483074 128.0
46.497574 164.0
46.508862 124.0
46.523529 184.0
46.578114 148.0
46.59306 136.0
46.650139 92.0
46.716774 44.0
47.011089 164.0
47.087543 120.0
47.221489 180.0
47.235168 184.0
47.248848 160.0
47.309067 132.0
47.38055 164.0
47.472385 188.0
47.532482 96.0
47.564049 232.0
47.59288 164.0
47.629963 220.0
47.676678 180.0
47.687672 176.0
47.708294 132.0
47.749546 196.0
47.791691 176.0
47.812836 176.0
47.822468 156.0
47.838989 188.0
47.85537 176.0
47.913357 108.0
47.925758 124.0
48.007088 160.0
48.044331 152.0
48.110577 164.0
48.168579 160.0
48.218323 188.0
48.265324 156.0
48.310966 48.0
48.333107 48.0
48.405087 152.0
48.478512 140.0
48.492371 176.0
48.542278 196.0
48.581116 156.0
48.597767 152.0
48.71439 204.0
48.769974 148.0
48.820026 148.0
48.909779 156.0
49.002178 164.0
49.095776 128.0
49.245117 248.0
49.282837 204.0
49.345219 152.0
49.376179 208.0
49.408672 120.0
49.443657 120.0
49.492653 156.0
49.502457 168.0
49.522064 160.0
49.554283 184.0
49.714142 136.0
49.730392 104.0
49.788551 184.0
49.838547 208.0
49.87426 144.0
49.950191 156.0
50.002254 36.0
50.062794 248.0
50.072651 32.0
50.088303 180.0
50.12196 176.0
50.134644 92.0
50.148739 120.0
50.222057 192.0
50.274261 156.0
50.288376 196.0
50.339203 156.0
50.401356 140.0
50.460724 244.0
50.503151 140.0
50.556499 192.0
50.580975 128.0
50.606461 188.0
50.620621 200.0
50.654613 80.0
50.668781 212.0
50.719799 184.0
50.804886 248.0
50.846035 172.0
50.868748 112.0
50.895721 184.0
50.908279 152.0
50.938332 160.0
50.976692 128.0
51.003696 196.0
51.056305 116.0
51.151638 160.0
51.187233 144.0
51.198627 184.0
51.26701 164.0
51.381084 80.0
51.401062 188.0
51.469582 168.0
51.48386 180.0
51.528141 152.0
51.538143 160.0
51.626774 180.0
51.649658 192.0
51.681133 148.0
51.705849 192.0
51.736954 172.0
51.755566 176.0
51.894558 108.0
51.934711 152.0
51.959099 184.0
52.039474 168.0
52.068195 120.0
52.112728 108.0
52.137157 148.0
52.19236 200.0
52.213356 184.0
52.229179 96.0
52.259392 124.0
52.312641 52.0
52.380325 164.0
52.394733 144.0
52.440845 132.0
52.484589 152.0
52.525921 204.0
52.54179 144.0
52.585079 144.0
52.602402 172.0
52.624058 188.0
52.686165 132.0
52.735294 148.0
52.850342 196.0
52.874146 148.0
52.894409 132.0
52.924816 252.0
52.994705 144.0
53.027672 204.0
53.058113 128.0
53.069714 196.0
53.123375 176.0
53.146591 168.0
53.168358 128.0
53.295204 172.0
53.313591 192.0
53.399368 148.0
53.431374 220.0
53.44738 120.0
53.460476 188.0
53.496864 240.0
53.527439 244.0
53.550743 200.0
53.630882 80.0
53.676079 64.0
53.726273 184.0
53.835144 104.0
53.962273 136.0
53.982746 184.0
54.108585 136.0
54.158379 156.0
54.230175 224.0
54.256561 140.0
54.266827 264.0
54.284771 184.0
54.324024 184.0
54.344563 200.0
54.369694 160.0
54.385654 196.0
54.479637 144.0
54.525608 212.0
54.550179 184.0
54.698757 176.0
54.73262 48.0
54.823956 144.0
54.841671 184.0
54.958149 172.0
54.987663 196.0
54.99947 160.0
55.042286 204.0
55.136833 168.0
55.167877 208.0
55.203362 52.0
55.258095 104.0
55.29213 228.0
55.315811 136.0
55.373177 200.0
55.377453 140.0
55.461613 188.0
55.505459 372.0
55.538086 120.0
55.640484 96.0
55.750404 172.0
55.784592 120.0
55.809868 176.0
55.842583 152.0
55.918465 132.0
55.997379 120.0
56.012276 200.0
56.076347 240.0
56.12748 148.0
56.150894 132.0
56.170288 104.0
56.204601 44.0
56.237434 204.0
56.276249 76.0
56.370358 124.0
56.399654 248.0
56.43314 192.0
56.470528 216.0
56.498219 156.0
56.570786 208.0
56.61644 104.0
56.64716 164.0
56.674126 168.0
56.714592 140.0
56.758068 212.0
56.824066 104.0
56.855579 128.0
56.879597 192.0
56.924637 100.0
57.044838 48.0
57.082428 148.0
57.100475 160.0
57.111004 200.0
57.255497 64.0
57.313717 136.0
57.382732 156.0
57.480591 244.0
57.605438 192.0
57.629852 176.0
57.690067 124.0
57.915543 112.0
57.983727 164.0
58.017075 136.0
58.03072 140.0
58.044369 156.0
58.060886 184.0
58.129318 96.0
58.193279 204.0
58.252304 144.0
58.337406 52.0
58.443871 188.0
58.46822 116.0
58.508545 212.0
58.544228 160.0
58.56871 136.0
58.684536 168.0
58.762325 204.0
58.797585 152.0
58.876812 120.0
58.89056 128.0
58.904305 136.0
59.000584 188.0
59.162754 180.0
59.193378 136.0
59.384953 152.0
59.483158 172.0
59.498508 68.0
59.596249 216.0
59.607567 56.0
59.69519 172.0
59.734436 124.0
59.756718 200.0
59.778263 148.0
59.792114 204.0
59.872173 148.0
60.027824 32.0
60.087982 188.0
60.171326 192.0
60.220741 48.0
60.301086 80.0
60.325821 140.0
60.451107 80.0
60.472775 156.0
60.497314 136.0
60.514572 68.0
60.531605 140.0
60.548641 208.0
60.590466 188.0
60.697414 224.0
60.765663 228.0
60.81126 136.0
60.84016 176.0
60.880882 196.0
60.914703 192.0
61.026604 172.0
61.048374 124.0
61.073261 180.0
61.123417 184.0
61.189976 140.0
61.203991 156.0
61.305248 208.0
61.316154 112.0
61.336418 140.0
61.368092 152.0
61.462749 56.0
61.486156 144.0
61.592335 172.0
61.634518 208.0
61.654831 68.0
61.717026 168.0
61.842518 152.0
61.855042 124.0
61.889484 160.0
61.984821 172.0
62.232964 76.0
62.30827 144.0
62.320839 208.0
62.374275 184.0
62.421219 140.0
62.457619 104.0
62.501671 160.0
62.53944 40.0
62.592968 156.0
62.619743 104.0
62.632343 140.0
62.660702 136.0
62.692215 152.0
62.736351 164.0
62.775768 112.0
62.930412 172.0
62.943043 172.0
62.954098 164.0
62.982529 136.0
63.003063 204.0
63.044147 120.0
63.07576 156.0
63.089985 220.0
63.112122 152.0
63.123192 84.0
63.192791 128.0
63.207031 148.0
63.289345 220.0
63.330521 140.0
63.398647 128.0
63.424007 172.0
63.439861 108.0
63.452103 300.0
63.468399 148.0
63.481087 52.0
63.506779 160.0
63.573097 132.0
63.593731 60.0
63.614368 68.0
63.678829 176.0
63.703705 172.0
63.768448 172.0
63.862137 156.0
63.884529 204.0
63.919533 136.0
63.948181 384.0
63.977364 132.0
64.128166 112.0
64.195129 164.0
64.20948 100.0
64.244576 152.0
64.370667 196.0
64.399414 120.0
64.458527 244.0
64.471313 160.0
64.524063 196.0
64.536858 208.0
64.637627 148.0
64.674438 200.0
64.751297 136.0
64.818581 232.0
64.901939 176.0
64.918716 164.0
64.934013 136.0
64.991768 108.0
65.027069 116.0
65.05275 212.0
65.063187 140.0
65.205353 108.0
65.219818 176.0
65.242325 196.0
65.359741 204.0
65.4048 152.0
65.443443 136.0
65.56337 176.0
65.780396 220.0
65.808716 104.0
65.843369 100.0
65.856293 128.0
65.985573 132.0
66.184593 124.0
66.262344 156.0
66.443932 204.0
66.463402 152.0
66.494232 160.0
66.51371 172.0
66.61602 128.0
66.646889 140.0
66.67614 128.0
66.718407 232.0
66.750923 212.0
66.802971 164.0
66.830627 140.0
66.864807 132.0
66.895996 148.0
66.920151 68.0
66.931549 140.0
66.960861 44.0
66.985298 148.0
67.009735 156.0
67.024399 136.0
67.068405 164.0
67.084702 156.0
67.09938 52.0
67.122208 184.0
67.296806 100.0
67.34375 204.0
67.362129 128.0
67.445473 172.0
67.479805 220.0
67.568604 176.0
67.663048 160.0
67.754768 132.0
67.805565 48.0
67.859665 180.0
67.884262 216.0
67.938385 136.0
67.976128 84.0
67.9991 160.0
68.017159 180.0
68.22908 132.0
68.242233 164.0
68.253746 168.0
68.31131 168.0
68.326111 132.0
68.360672 48.0
68.414299 180.0
68.505562 232.0
68.522041 168.0
68.576424 168.0
68.591255 244.0
68.607742 196.0
68.698448 128.0
68.738045 136.0
68.779305 124.0
68.886642 136.0
69.017212 204.0
69.032097 128.0
69.123932 160.0
69.240623 156.0
69.411316 156.0
69.540726 152.0
69.623741 96.0
69.64035 128.0
69.703476 76.0
69.801559 108.0
69.873131 140.0
69.909691 132.0
69.941315 144.0
70.007912 76.0
70.05455 188.0
70.07621 156.0
70.126205 160.0
70.142319 96.0
70.191223 124.0
70.294968 112.0
70.392853 160.0
70.436569 144.0
70.47332 176.0
70.630478 168.0
70.667564 212.0
70.732552 96.0
70.74929 160.0
70.761009 140.0
70.772728 140.0
70.789474 200.0
70.81292 144.0
70.827995 164.0
70.846428 144.0
70.859825 140.0
70.916122 248.0
70.950333 172.0
71.005669 216.0
71.019089 100.0
71.067741 208.0
71.08284 208.0
71.093674 168.0
71.117035 96.0
71.170128 184.0
71.215477 160.0
71.250366 156.0
71.358322 96.0
71.398674 144.0
71.597275 176.0
71.642754 152.0
71.692085 216.0
71.71521 116.0
71.814697 100.0
71.873741 148.0
71.998665 172.0
72.020622 200.0
72.057793 88.0
72.108482 156.0
72.147362 176.0
72.201477 116.0
72.277603 140.0
72.44014 164.0
72.516396 168.0
72.574036 132.0
72.589745 212.0
72.629997 136.0
72.677177 148.0
72.702957 212.0
72.718231 152.0
72.777649 124.0
72.820107 136.0
72.838791 168.0
72.85408 164.0
72.877869 128.0
72.899956 200.0
72.972481 216.0
72.998337 184.0
73.024071 168.0
73.057831 160.0
73.064644 136.0
73.080208 176.0
73.097221 156.0
73.112541 180.0
73.170418 140.0
73.224907 188.0
73.241943 168.0
73.32373 196.0
73.37146 144.0
73.389206 216.0
73.416992 148.0
73.501442 172.0
73.531807 124.0
73.565948 176.0
73.593262 220.0
73.653038 108.0
73.747017 156.0
73.765732 152.0
73.918045 164.0
74.007057 164.0
74.098816 412.0
74.190384 156.0
74.267548 168.0
74.333603 148.0
74.346474 108.0
74.391739 172.0
74.439178 192.0
74.478683 148.0
74.581779 204.0
74.629921 200.0
74.643677 168.0
74.684952 128.0
74.698715 160.0
74.793358 164.0
74.8209 160.0
74.889786 160.0
74.901161 136.0
74.959312 212.0
74.993164 160.0
75.024193 144.0
75.069275 140.0
75.124222 176.0
75.151825 132.0
75.215683 312.0
75.239853 116.0
75.343475 164.0
75.571701 312.0
75.635735 84.0
75.694115 200.0
75.711922 176.0
75.724045 180.0
75.830513 196.0
75.926826 160.0
76.082069 240.0
76.109039 264.0
76.138565 64.0
76.15593 236.0
76.178513 176.0
76.206314 236.0
76.221954 128.0
76.259132 204.0
76.294952 52.0
76.314079 200.0
76.337967 168.0
76.384819 184.0
76.401039 84.0
76.446281 48.0
76.500237 156.0
76.512428 104.0
76.657722 164.0
76.799965 168.0
76.91626 204.0
76.953537 220.0
77.032127 168.0
77.046104 200.0
77.180687 280.0
77.208672 152.0
77.318893 192.0
77.369087 148.0
77.453712 172.0
77.506271 148.0
77.604431 124.0
77.648277 144.0
77.679848 76.0
77.695641 192.0
77.718445 40.0
77.735992 188.0
77.812195 204.0
77.844833 216.0
77.895767 164.0
77.948479 48.0
78.062744 176.0
78.141899 184.0
78.228142 132.0
78.25103 172.0
78.302094 196.0
78.43248 100.0
78.541809 180.0
78.677696 180.0
78.746559 176.0
78.886482 220.0
78.910446 152.0
78.935669 124.0
79.013496 200.0
79.071892 152.0
79.119682 124.0
79.341141 52.0
79.381927 164.0
79.403206 68.0
79.422714 156.0
79.527405 88.0
79.628616 200.0
79.703232 76.0
79.884583 168.0
80.019844 208.0
80.09108 96.0
80.110672 104.0
80.158775 160.0
80.260384 152.0
80.331726 224.0
80.37812 64.0
80.454865 124.0
80.5513 160.0
80.724678 200.0
80.813103 148.0
80.825958 168.0
80.885704 252.0
80.905396 128.0
80.917931 200.0
80.9561 172.0
81.116791 224.0
81.141891 148.0
81.190308 88.0
81.213623 124.0
81.283257 216.0
81.33197 192.0
81.405663 188.0
81.443375 196.0
81.527824 156.0
81.755142 168.0
81.769211 168.0
81.871445 172.0
81.889359 144.0
81.973068 216.0
82.004135 148.0
82.042625 164.0
82.082291 212.0
82.101273 140.0
82.116562 44.0
82.152634 112.0
82.203156 40.0
82.318695 188.0
82.354813 44.0
82.38372 172.0
82.522881 236.0
82.600647 68.0
82.665787 144.0
82.761726 172.0
82.776215 220.0
82.864555 192.0
82.871681 148.0
82.878975 148.0
82.991852 152.0
83.055321 96.0
83.205948 128.0
83.235001 212.0
83.353073 56.0
83.367615 228.0
83.443596 120.0
83.491241 144.0
83.503967 140.0
83.591293 172.0
83.609314 160.0
83.64772 348.0
83.755157 140.0
83.81353 196.0
83.844597 140.0
83.857193 220.0
83.970238 80.0
84.072411 104.0
84.095291 208.0
84.12899 168.0
84.181946 176.0
84.244049 180.0
84.262314 116.0
84.339073 164.0
84.435974 80.0
84.533096 184.0
84.571373 176.0
84.589676 160.0
84.639114 188.0
84.657425 212.0
84.731461 144.0
84.774673 204.0
84.824158 172.0
84.899338 216.0
84.92868 160.0
84.9617 144.0
85.007614 176.0
85.036942 144.0
85.079163 144.0
85.150116 112.0
85.193024 108.0
85.229767 124.0
85.268364 204.0
85.303284 144.0
85.408104 136.0
85.547958 156.0
85.592148 124.0
85.704514 160.0
85.8022 136.0
85.833267 80.0
85.838531 68.0
85.843628 128.0
85.960831 136.0
85.975594 200.0
85.995171 336.0
86.027275 212.0
86.06974 128.0
86.088211 192.0
86.128838 168.0
86.175026 192.0
86.20459 196.0
86.306259 164.0
86.332695 192.0
86.480164 160.0
86.494972 148.0
86.509781 184.0
86.524597 184.0
86.936096 204.0
87.015915 196.0
87.126945 216.0
87.145935 172.0
87.237007 176.0
87.339279 152.0
87.473259 132.0
87.514221 136.0
87.618523 204.0
87.648338 116.0
87.698654 152.0
87.772278 172.0
87.868355 156.0
87.924339 192.0
87.946732 156.0
88.178345 212.0
88.199287 312.0
88.221336 120.0
88.352249 88.0
88.382187 184.0
88.399025 128.0
88.442078 248.0
88.513222 168.0
88.610619 160.0
88.62561 204.0
88.665138 176.0
88.70192 212.0
88.897514 160.0
88.955704 128.0
88.968842 116.0
88.993248 108.0
89.030807 180.0
89.049591 124.0
89.062737 172.0
89.184875 164.0
89.252556 152.0
89.301453 132.0
89.337196 120.0
89.386116 148.0
89.41246 160.0
89.53672 176.0
89.672989 160.0
89.693108 220.0
89.732697 212.0
89.81002 208.0
89.83326 176.0
89.8685 140.0
89.908134 164.0
89.923462 164.0
89.945885 168.0
89.96476 108.0
89.982445 424.0
90.000633 148.0
90.028687 168.0
90.089355 156.0
90.11396 152.0
90.195229 184.0
90.285988 248.0
90.306793 132.0
90.332672 164.0
90.348404 168.0
90.371109 180.0
90.429779 232.0
90.4506 168.0
90.577469 100.0
90.615364 108.0
90.660843 112.0
90.728745 136.0
90.994698 84.0
91.031898 212.0
91.055092 484.0
91.140953 168.0
91.160378 232.0
91.253098 164.0
91.27401 156.0
91.319656 184.0
91.369385 168.0
91.397659 140.0
91.515671 176.0
91.816765 144.0
91.858727 152.0
91.873985 164.0
91.952225 200.0
92.051628 288.0
92.133354 208.0
92.163208 200.0
92.319046 156.0
92.475929 108.0
92.535278 204.0
92.552505 156.0
92.705757 228.0
92.825485 352.0
92.909012 116.0
92.94381 236.0
93.012001 228.0
93.055611 888.0
93.145248 148.0
93.198929 188.0
93.235443 124.0
93.285423 64.0
93.36618 168.0
93.385414 128.0
93.473907 88.0
93.520103 152.0
93.704979 116.0
93.726173 172.0
93.782059 128.0
93.839897 172.0
93.859177 60.0
93.899368 200.0
93.922821 96.0
93.977531 164.0
94.062965 336.0
94.216255 68.0
94.275032 124.0
94.283287 52.0
94.287117 160.0
94.380539 200.0
94.394081 40.0
94.415352 88.0
94.436623 156.0
94.495522 252.0
94.537231 164.0
94.69622 136.0
94.756042 128.0
94.814178 260.0
94.864571 68.0
94.899307 96.0
94.955711 240.0
94.97123 240.0
95.037186 248.0
95.085701 204.0
95.143936 300.0
95.173065 164.0
95.250748 192.0
95.313271 200.0
95.359566 56.0
95.431061 180.0
95.497612 204.0
95.598785 140.0
95.696114 168.0
95.737007 168.0
95.756485 172.0
95.811028 368.0
95.8461 80.0
95.920303 164.0
95.999229 320.0
96.046089 164.0
96.083977 228.0
96.115196 44.0
96.286987 156.0
96.328011 36.0
96.492172 76.0
96.519547 280.0
96.543015 36.0
96.648651 156.0
96.877724 152.0
96.92083 148.0
97.009666 540.0
97.122765 104.0
97.158073 128.0
97.232643 152.0
97.42205 156.0
97.537086 64.0
97.554779 144.0
97.596733 188.0
97.802643 52.0
97.824295 244.0
97.853828 144.0
97.893738 180.0
97.914871 176.0
97.962151 248.0
97.999542 204.0
98.010773 112.0
98.014 164.0
98.048843 180.0
98.092209 60.0
98.198692 184.0
98.259842 136.0
98.291412 176.0
98.305229 144.0
98.32299 64.0
98.344704 156.0
98.378258 108.0
98.401947 188.0
98.43354 180.0
98.453293 188.0
98.498718 104.0
98.538231 204.0
98.563919 192.0
98.648911 156.0
98.816414 316.0
98.85659 240.0
98.906075 188.0
98.985268 112.0
99.026855 312.0
99.073135 224.0
99.207176 140.0
99.321114 336.0
99.338066 116.0
99.403542 120.0
99.445221 356.0
99.524628 224.0
99.602089 152.0
99.629898 312.0
99.727272 116.0
99.771004 96.0
99.808784 160.0
99.880379 128.0
100.04261 176.0
100.119225 236.0
100.202888 152.0
100.218826 244.0
100.340416 88.0
100.365402 124.0
100.396248 116.0
100.515938 156.0
100.555855 156.0
100.723579 52.0
100.773529 200.0
100.789513 80.0
100.923439 224.0
100.955437 188.0
100.983437 148.0
101.010284 180.0
101.024635 136.0
101.051453 160.0
101.235611 172.0
101.277672 108.0
101.377846 180.0
101.391876 176.0
101.419518 136.0
101.437981 180.0
101.462036 36.0
101.538239 192.0
101.680687 256.0
101.716812 184.0
101.805862 184.0
101.835289 100.0
101.877472 156.0
101.960251 244.0
102.033798 56.0
102.201172 96.0
102.394936 208.0
102.414574 108.0
102.507256 216.0
102.575783 164.0
102.614044 180.0
102.640297 80.0
102.656433 108.0
102.682648 168.0
102.708961 180.0
102.757286 220.0
102.805809 172.0
102.884438 200.0
102.965988 472.0
103.059509 236.0
103.15313 112.0
103.231979 112.0
103.294685 92.0
103.347282 208.0
103.418114 132.0
103.543648 140.0
103.618599 156.0
103.794266 224.0
103.930855 220.0
103.968269 300.0
104.048767 4104.0
104.112709 260.0
104.178551 52.0
104.26796 68.0
104.286255 148.0
104.300484 160.0
104.369606 148.0
104.432655 188.0
104.487579 124.0
104.621902 176.0
104.691132 156.0
104.711502 152.0
104.831703 156.0
104.870422 172.0
104.909157 148.0
104.982559 132.0
105.004997 148.0
105.019272 160.0
105.054184 664.0
105.241722 128.0
105.378571 168.0
105.401047 164.0
105.452141 112.0
105.48893 248.0
105.523689 132.0
105.554359 168.0
105.57576 156.0
105.63208 124.0
105.689369 196.0
105.933006 156.0
105.949394 196.0
105.971939 204.0
105.990379 228.0
106.023163 196.0
106.037514 132.0
106.063629 2340.0
106.181496 176.0
106.342262 172.0
106.369804 60.0
106.466309 112.0
106.527931 96.0
106.647118 124.0
106.667671 128.0
106.725235 172.0
106.799271 156.0
106.826019 152.0
106.860992 164.0
106.922729 216.0
106.992592 592.0
107.036316 180.0
107.065941 304.0
107.08744 84.0
107.10804 160.0
107.182579 200.0
107.288605 148.0
107.340935 204.0
107.403374 176.0
107.472954 124.0
107.526611 200.0
107.611244 224.0
107.716576 140.0
107.745499 144.0
107.784752 252.0
107.881897 132.0
107.91201 120.0
108.000633 784.0
108.028725 204.0
108.049507 176.0
108.079041 776.0
108.115631 176.0
108.131599 204.0
108.17244 108.0
108.220482 160.0
108.228294 104.0
108.236717 204.0
108.277122 160.0
108.307816 148.0
108.313835 132.0
108.451164 196.0
108.49884 180.0
108.515434 232.0
108.534088 168.0
108.724945 88.0
108.749855 184.0
108.910812 100.0
108.951279 76.0
108.986603 152.0
109.009079 1628.0
109.04895 136.0
109.073769 172.0
109.113388 96.0
109.159134 144.0
109.231934 176.0
109.315155 52.0
109.363029 124.0
109.425484 80.0
109.458794 160.0
109.531349 172.0
109.583496 200.0
109.596748 228.0
109.702568 116.0
109.720955 444.0
109.74427 160.0
109.811005 208.0
109.886101 196.0
109.908409 180.0
109.975838 196.0
110.01815 4064.0
110.080231 160.0
110.13662 160.0
110.304764 60.0
110.343246 192.0
110.349091 168.0
110.456444 188.0
110.475639 136.0
110.558205 112.0
110.576584 196.0
110.6092 36.0
110.6427 84.0
110.667824 112.0
110.747406 184.0
110.923424 212.0
110.944382 172.0
110.963257 52.0
110.990509 124.0
111.013596 2288.0
111.093285 176.0
111.156227 108.0
111.181412 192.0
111.227592 84.0
111.273453 232.0
111.340973 156.0
111.370377 124.0
111.418694 68.0
111.544785 140.0
111.742477 148.0
111.778244 264.0
111.947449 120.0
112.014687 544.0
112.081474 128.0
112.098335 224.0
112.144699 192.0
112.238487 148.0
112.260658 140.0
112.30706 184.0
112.376678 212.0
112.392021 132.0
112.501198 160.0
112.518089 136.0
112.591995 144.0
112.626602 188.0
112.659592 244.0
112.677582 132.0
112.773705 132.0
112.847694 140.0
112.867813 132.0
112.906906 124.0
112.949898 424.0
113.003616 228.0
113.033836 200.0
113.093094 176.0
113.171425 116.0
113.302307 176.0
113.37394 140.0
113.391747 208.0
113.4617 164.0
113.544395 224.0
113.758713 340.0
113.792679 180.0
113.903114 212.0
113.920105 200.0
113.955055 204.0
113.996597 128.0
114.050514 164.0
114.085869 168.0
114.162422 112.0
114.194321 140.0
114.375183 48.0
114.40712 216.0
114.42202 208.0
114.458214 136.0
114.534889 140.0
114.571106 144.0
114.600983 184.0
114.74707 176.0
114.767189 128.0
114.839699 112.0
114.926895 124.0
114.96685 824.0
115.032852 192.0
115.140648 64.0
115.221611 124.0
115.362869 252.0
115.521126 144.0
115.559631 104.0
115.574608 124.0
115.685905 136.0
115.762985 40.0
115.816116 156.0
115.823616 104.0
115.831306 196.0
115.856384 220.0
115.910507 236.0
115.973892 1640.0
116.017677 204.0
116.050133 144.0
116.114464 104.0
116.157364 180.0
116.172379 132.0
116.189545 80.0
116.206711 60.0
116.243187 424.0
116.298988 156.0
116.33548 188.0
116.530922 200.0
116.556709 108.0
116.582497 144.0
116.642677 168.0
116.659874 192.0
116.681374 48.0
116.726524 240.0
116.801804 176.0
116.827621 148.0
116.981415 584.0
117.055191 484.0
117.08931 224.0
117.118233 156.0
117.228111 176.0
117.266068 164.0
117.28846 144.0
117.303551 124.0
117.322952 128.0
117.341995 144.0
117.463127 184.0
117.637924 140.0
117.789085 156.0
117.845047 200.0
117.905769 156.0
117.927383 172.0
117.970612 476.0
117.987907 204.0
118.011696 192.0
118.064308 1148.0
118.119827 228.0
118.156609 80.0
118.178246 120.0
118.238136 160.0
118.258316 200.0
118.275635 188.0
118.32975 124.0
118.464027 332.0
118.479195 220.0
118.52253 40.0
118.626564 160.0
118.715462 224.0
118.756668 112.0
118.774025 132.0
118.793976 140.0
118.951965 140.0
118.971497 104.0
119.036636 140.0
119.072227 372.0
119.121346 188.0
119.33532 252.0
119.36068 136.0
119.453949 180.0
119.477882 220.0
119.501816 84.0
119.608452 136.0
119.634575 140.0
119.658524 176.0
119.745628 116.0
119.768326 152.0
119.795731 148.0
119.913399 192.0
119.948273 160.0
119.965714 164.0
119.998413 136.0
120.041344 316.0
120.056023 144.0
120.080856 184.0
120.181633 44.0
120.290764 108.0
120.360626 144.0
120.408669 180.0
120.430511 140.0
120.454544 172.0
120.631546 80.0
120.764938 176.0
120.863388 108.0
120.89183 144.0
120.90715 180.0
120.966255 156.0
121.007835 364.0
121.064781 148.0
121.154587 212.0
121.303612 212.0
121.375961 124.0
121.481728 164.0
121.514153 144.0
121.841286 184.0
121.915474 152.0
121.96875 164.0
122.004463 1344.0
122.055748 280.0
122.06002 140.0
122.296494 120.0
122.320709 188.0
122.413185 140.0
122.582809 180.0
122.631294 168.0
122.66436 128.0
122.761375 168.0
122.795326 172.0
122.823128 192.0
122.955521 276.0
122.973175 132.0
122.988625 176.0
123.012604 3636.0
123.065895 228.0
123.094543 148.0
123.097542 120.0
123.116684 112.0
123.163071 144.0
123.193993 160.0
123.286797 184.0
123.324371 120.0
123.364159 144.0
123.452606 92.0
123.503471 244.0
123.589752 116.0
123.669426 164.0
123.749123 128.0
123.788101 212.0
123.85321 108.0
123.930138 156.0
124.020309 3780.0
124.039345 468.0
124.068169 68.0
124.183479 136.0
124.205566 196.0
124.318817 180.0
124.360985 180.0
124.456444 124.0
124.476433 176.0
124.589714 148.0
124.833984 196.0
124.949883 140.0
125.00856 236.0
125.028511 624.0
125.101219 180.0
125.23011 172.0
125.272697 80.0
125.308342 180.0
125.401939 100.0
125.549339 196.0
125.589233 160.0
125.624924 156.0
125.66732 176.0
125.781136 140.0
125.830254 124.0
125.93074 156.0
125.95755 176.0
125.993294 156.0
126.037071 1352.0
126.091881 168.0
126.198914 236.0
126.21904 208.0
126.364433 148.0
126.427086 40.0
126.532295 76.0
126.632767 148.0
126.709801 172.0
126.749565 128.0
126.861626 212.0
126.967064 192.0
126.971893 184.0
126.981697 404.0
127.017174 444.0
127.039635 160.0
127.166702 128.0
127.229553 56.0
127.269974 92.0
127.38002 100.0
127.445175 112.0
127.54406 152.0
127.640739 228.0
127.681213 248.0
127.703705 168.0
127.728455 44.0
127.90847 188.0
127.95575 168.0
127.97287 452.0
128.012817 428.0
128.047073 172.0
128.077362 176.0
128.208038 176.0
128.244095 100.0
128.323105 180.0
128.429001 148.0
128.616287 208.0
128.636398 176.0
128.702072 224.0
128.754013 60.0
128.815002 88.0
128.842102 176.0
128.860184 232.0
128.876007 192.0
128.955093 188.0
128.9776 180.0
128.991089 264.0
129.016403 204.0
129.061295 348.0
129.16539 208.0
129.219421 176.0
129.253403 168.0
129.34642 76.0
129.443771 144.0
129.563828 132.0
129.623596 136.0
129.679398 212.0
129.715652 96.0
129.815414 104.0
129.856247 112.0
129.976807 464.0
130.007904 132.0
130.022629 168.0
130.064041 1816.0
130.087692 180.0
130.208038 144.0
130.393219 144.0
130.41481 176.0
130.46254 168.0
130.483002 148.0
130.621597 196.0
130.712738 180.0
130.817444 216.0
130.850266 160.0
130.960938 948.0
131.068756 196.0
131.124954 204.0
131.22525 216.0
131.300507 112.0
131.350677 172.0
131.400879 144.0
131.471619 136.0
131.526398 132.0
131.565201 136.0
131.621323 188.0
131.668015 160.0
131.834732 116.0
131.855301 120.0
131.89093 176.0
131.966354 172.0
131.989532 316.0
132.078918 216.0
132.102249 136.0
132.12056 128.0
132.184616 120.0
132.205215 60.0
132.273438 204.0
132.399811 64.0
132.449631 192.0
132.456131 144.0
132.46701 132.0
132.471512 188.0
132.553314 132.0
132.616928 212.0
132.720642 132.0
132.846786 124.0
132.894974 108.0
132.938568 144.0
132.975296 176.0
132.991364 148.0
133.00972 128.0
133.044159 168.0
133.083191 200.0
133.099258 208.0
133.175598 200.0
133.19342 100.0
133.271545 252.0
133.348297 184.0
133.372665 36.0
133.427826 208.0
133.653244 148.0
133.777527 192.0
133.798248 168.0
133.855804 192.0
133.935471 176.0
134.004288 3512.0
134.059921 132.0
134.073288 180.0
134.090805 124.0
134.107407 184.0
134.14151 224.0
134.183014 128.0
134.222198 60.0
134.252182 112.0
134.291214 156.0
134.342148 36.0
134.372818 176.0
134.425201 40.0
134.464432 124.0
134.587402 168.0
134.69165 160.0
134.732239 240.0
134.772598 200.0
134.824738 144.0
134.90564 144.0
134.925064 148.0
134.959778 200.0
134.977188 156.0
135.012985 17076.0
135.045532 312.0
135.067764 164.0
135.092636 780.0
135.151688 136.0
135.199066 56.0
135.275772 28.0
135.294296 104.0
135.382751 100.0
135.525909 192.0
135.555115 132.0
135.594315 132.0
135.653381 220.0
135.681198 136.0
135.706711 208.0
135.729889 148.0
135.748444 172.0
135.774948 140.0
135.809799 176.0
135.82988 148.0
135.856583 148.0
135.904495 108.0
135.923431 228.0
135.961884 220.0
135.980209 208.0
136.021011 57100.0
136.074081 520.0
136.125931 60.0
136.207993 76.0
136.236038 112.0
136.268402 48.0
136.301865 140.0
136.326492 40.0
136.375305 196.0
136.403885 144.0
136.445038 40.0
136.4776 44.0
136.526428 136.0
136.546082 124.0
136.577591 64.0
136.594879 184.0
136.658875 120.0
136.686951 88.0
136.703232 284.0
136.737503 116.0
136.783157 248.0
136.856613 144.0
136.885803 164.0
136.901672 228.0
136.932144 320.0
136.962692 180.0
137.028458 58464.0
137.092148 64.0
137.114166 36.0
137.132294 36.0
137.153763 168.0
137.171402 56.0
137.191986 124.0
137.210785 132.0
137.228897 116.0
137.26207 144.0
137.269409 108.0
137.276321 128.0
137.304306 92.0
137.349091 192.0
137.377014 116.0
137.414429 344.0
137.460815 140.0
137.494293 68.0
137.531677 204.0
137.561066 100.0
137.618073 184.0
137.634155 116.0
137.705475 140.0
137.740891 164.0
137.766479 60.0
137.782837 68.0
137.881287 124.0
137.941757 200.0
137.962509 216.0
137.968002 176.0
138.03064 4864.0
138.085968 268.0
138.125748 140.0
138.161575 128.0
138.192001 140.0
138.245819 132.0
138.265625 60.0
138.283264 80.0
138.339447 88.0
138.39772 180.0
138.52211 48.0
138.539825 92.0
138.629883 104.0
138.658905 116.0
138.693161 180.0
138.714264 196.0
138.74826 84.0
138.786163 168.0
138.815079 84.0
138.834229 172.0
138.866684 56.0
138.903778 44.0
138.917831 184.0
138.943451 172.0
138.980759 224.0
139.02562 1604.0
139.117767 68.0
139.147812 60.0
139.16864 208.0
139.196381 124.0
139.223419 88.0
139.244568 144.0
139.2798 44.0
139.29892 84.0
139.35968 64.0
139.41539 108.0
139.456024 160.0
139.474091 76.0
139.63707 52.0
139.707642 36.0
139.825302 140.0
139.863312 80.0
139.964188 248.0
139.990097 208.0
140.015244 548.0
140.052368 336.0
140.073746 140.0
140.106094 284.0
140.168091 200.0
140.210541 156.0
140.297424 84.0
140.444977 184.0
140.621933 112.0
140.654984 88.0
140.780121 48.0
140.834442 128.0
140.867508 44.0
140.944305 648.0
140.968033 1268.0
140.997086 772.0
141.113586 168.0
141.304886 76.0
141.361679 196.0
141.420837 124.0
141.444519 244.0
141.462067 228.0
141.578476 108.0
141.686066 124.0
141.733459 172.0
141.782196 176.0
141.955307 140.0
141.9785 1020.0
142.029449 132.0
142.084381 44.0
142.122345 152.0
142.191162 188.0
142.231506 68.0
142.290863 196.0
142.383469 156.0
142.568787 184.0
142.590164 164.0
142.625824 204.0
142.830322 148.0
142.961853 432.0
143.027832 160.0
143.173065 136.0
143.217255 80.0
143.327911 176.0
143.366043 72.0
143.385101 248.0
143.691635 140.0
143.97023 680.0
144.010223 172.0
144.030472 184.0
144.089066 68.0
144.176285 160.0
144.203766 112.0
144.282654 124.0
144.335251 112.0
144.559128 212.0
144.631912 72.0
144.681366 220.0
144.703735 88.0
144.971268 452.0
144.995987 140.0
145.015167 56.0
145.049515 180.0
145.082687 188.0
145.108658 164.0
145.127838 108.0
145.307724 128.0
145.367722 180.0
145.434921 136.0
145.451721 40.0
145.595779 324.0
145.689468 164.0
145.732712 236.0
145.795197 176.0
145.840851 152.0
145.864899 88.0
145.971512 164.0
146.007858 220.0
146.051865 208.0
146.091492 212.0
146.184784 40.0
146.285873 160.0
146.324402 88.0
146.360519 152.0
146.505035 124.0
146.577316 128.0
146.75087 28.0
146.774979 152.0
146.801498 140.0
146.828033 148.0
146.85939 116.0
146.881104 160.0
146.938995 108.0
146.958099 164.0
147.037933 72.0
147.062073 156.0
147.161057 84.0
147.49202 160.0
147.612915 172.0
147.833054 156.0
147.888718 232.0
147.90567 228.0
147.93927 172.0
147.975876 156.0
148.019318 1152.0
148.079437 224.0
148.135712 104.0
148.1866 56.0
148.210831 68.0
148.346558 156.0
148.441116 120.0
148.509552 188.0
148.533279 136.0
148.662903 64.0
148.732254 100.0
148.911942 160.0
149.026855 456.0
149.084442 224.0
149.154922 168.0
149.196243 328.0
149.524643 112.0
149.56601 208.0
149.650467 232.0
149.702362 164.0
149.746201 168.0
149.799789 116.0
149.918777 172.0
149.998322 1248.0
150.036316 2692.0
150.091064 540.0
150.189819 200.0
150.214203 64.0
150.294724 28.0
150.358734 104.0
150.409424 188.0
150.446045 108.0
150.558365 184.0
150.602325 52.0
150.832031 152.0
150.861313 196.0
150.947372 112.0
150.968506 112.0
151.007492 3960.0
151.041992 2292.0
151.088928 164.0
151.114883 200.0
151.147522 48.0
151.311523 28.0
151.362946 172.0
151.419266 56.0
151.49765 68.0
151.539307 96.0
151.62262 172.0
151.647125 44.0
151.666733 36.0
151.818756 28.0
151.899689 88.0
151.91687 188.0
151.963333 268.0
152.014496 5168.0
152.048874 1256.0
152.091095 108.0
152.232132 136.0
152.317001 64.0
152.447235 168.0
152.528336 104.0
152.570129 152.0
152.596512 152.0
152.677856 128.0
152.769333 120.0
152.902206 212.0
152.977005 292.0
153.021805 536.0
153.044418 616.0
153.239578 100.0
153.33815 212.0
153.419495 180.0
153.558411 108.0
153.666122 104.0
153.732758 48.0
153.975952 688.0
154.030075 596.0
154.145157 52.0
154.209412 44.0
154.231659 92.0
154.266266 264.0
154.291 84.0
154.352814 80.0
154.380005 116.0
154.399796 236.0
154.472748 104.0
154.543274 24.0
154.699203 96.0
154.813095 36.0
154.96051 368.0
154.998352 128.0
155.109207 120.0
155.132462 160.0
155.269119 164.0
155.380737 240.0
155.445251 40.0
155.522186 112.0
155.676132 100.0
155.894745 148.0
155.958328 192.0
155.976379 208.0
156.009125 236.0
156.14328 132.0
156.265244 152.0
156.302567 172.0
156.576416 76.0
156.656128 48.0
156.703461 100.0
156.778214 156.0
156.810623 72.0
156.931885 192.0
156.961395 180.0
156.992447 236.0
157.082413 176.0
157.107361 104.0
157.182205 120.0
157.209656 204.0
157.321991 152.0
157.364426 128.0
157.499283 72.0
157.734177 164.0
157.779175 80.0
157.886703 168.0
157.947769 324.0
157.973389 700.0
158.01178 180.0
158.061813 208.0
158.117172 212.0
158.242035 228.0
158.309647 156.0
158.369751 124.0
158.439896 136.0
158.655441 80.0
158.708084 96.0
158.955444 564.0
158.984024 208.0
159.026703 112.0
159.24765 212.0
159.401871 280.0
159.76297 140.0
159.798203 184.0
159.971848 244.0
160.018295 340.0
160.037308 268.0
160.090195 228.0
160.458084 68.0
160.579132 104.0
160.599304 172.0
160.632095 128.0
160.677505 120.0
160.738068 180.0
160.826401 156.0
160.955154 204.0
161.00061 176.0
161.030167 400.0
161.049927 192.0
161.127914 152.0
161.200195 136.0
161.571884 136.0
161.602249 200.0
161.619965 144.0
161.688293 128.0
161.761688 196.0
161.840027 192.0
161.845139 180.0
161.901672 224.0
162.036469 8936.0
162.089905 436.0
162.192337 28.0
162.215149 48.0
162.253174 48.0
162.338058 184.0
162.358307 216.0
162.445923 44.0
162.491577 108.0
162.509338 140.0
162.537262 84.0
162.570251 108.0
162.714935 84.0
162.737778 144.0
162.808884 84.0
162.841904 120.0
162.896317 180.0
162.923187 128.0
162.940979 132.0
162.993805 192.0
163.044144 35664.0
163.096207 48.0
163.10466 176.0
163.159058 84.0
163.169037 60.0
163.247574 52.0
163.324844 212.0
163.38208 120.0
163.408798 52.0
163.458298 24.0
163.492767 260.0
163.551315 108.0
163.734634 112.0
163.839081 72.0
163.97139 52.0
164.049728 6336.0
164.107788 148.0
164.142395 80.0
164.210251 88.0
164.239304 80.0
164.26947 48.0
164.305634 140.0
164.425568 36.0
164.493286 136.0
164.548096 96.0
164.571686 152.0
164.609375 52.0
164.634918 56.0
164.652802 92.0
164.680893 72.0
164.816284 124.0
164.95079 96.0
164.955673 60.0
165.014877 188.0
165.054718 1568.0
165.143524 136.0
165.192123 184.0
165.274139 76.0
165.304703 44.0
165.345657 56.0
165.391724 128.0
165.467377 160.0
165.652924 32.0
165.722092 112.0
165.837418 152.0
165.87587 132.0
165.973297 192.0
166.030212 200.0
166.086136 76.0
166.129745 212.0
166.20929 56.0
166.285141 224.0
166.317078 244.0
166.432617 188.0
166.453156 48.0
166.558456 224.0
166.625244 76.0
166.846283 100.0
166.998001 204.0
167.026001 316.0
167.060913 288.0
167.116791 1728.0
167.16008 52.0
167.275909 84.0
167.317093 64.0
167.350571 200.0
167.422668 52.0
167.698349 152.0
167.9375 176.0
168.014694 288.0
168.047424 612.0
168.067139 344.0
168.121246 336.0
168.180695 136.0
168.247818 208.0
168.425995 216.0
168.674072 208.0
168.715424 204.0
168.899033 76.0
168.956528 252.0
168.975708 368.0
168.994873 204.0
169.02063 280.0
169.051559 156.0
169.081787 140.0
169.12323 172.0
169.178528 76.0
169.414185 52.0
169.48674 76.0
169.554108 88.0
169.970795 264.0
170.072861 248.0
170.306549 108.0
170.607986 220.0
170.740601 140.0
170.969131 232.0
171.003387 104.0
171.05545 148.0
171.459183 108.0
171.809616 216.0
171.818787 84.0
171.825806 208.0
171.850342 148.0
171.870316 144.0
171.966263 152.0
172.06958 104.0
172.111359 112.0
172.255005 84.0
172.281128 220.0
172.351685 180.0
172.72554 140.0
172.972137 1004.0
173.700012 164.0
173.783966 60.0
173.80925 88.0
173.846954 128.0
173.972885 216.0
174.264465 152.0
174.399567 228.0
174.470932 208.0
174.656189 56.0
174.7509 276.0
174.769318 172.0
174.856155 128.0
174.963028 196.0
175.035172 72.0
175.145798 188.0
175.224823 108.0
175.686203 160.0
175.965149 368.0
175.982895 1060.0
176.013489 168.0
176.111206 232.0
176.164047 36.0
176.235382 144.0
176.322586 124.0
176.49791 124.0
176.986694 100.0
177.05455 248.0
177.25148 228.0
177.357498 144.0
177.474152 148.0
177.73941 192.0
177.760635 72.0
177.877411 168.0
178.00412 216.0
178.030685 1184.0
178.273163 200.0
178.443298 156.0
178.690643 220.0
178.7798 172.0
178.81572 60.0
178.866287 160.0
178.927292 664.0
178.980774 340.0
179.039215 668.0
179.061371 620.0
179.319107 92.0
179.406479 176.0
179.441742 200.0
179.580414 56.0
179.805984 184.0
179.884613 196.0
179.90596 52.0
180.046494 2896.0
180.098236 112.0
180.595398 136.0
180.686356 256.0
180.921875 32.0
180.960129 196.0
180.994171 180.0
181.050446 864.0
181.093262 120.0
181.114685 164.0
181.173615 180.0
181.601776 92.0
181.971451 324.0
182.007767 152.0
182.058075 332.0
182.209183 208.0
182.276398 40.0
182.378525 184.0
182.416153 48.0
182.47261 172.0
182.693146 152.0
182.808853 132.0
182.982635 160.0
183.021133 144.0
183.025711 228.0
183.050232 144.0
183.298965 60.0
183.48494 80.0
183.546967 84.0
183.730377 116.0
183.954376 140.0
183.994858 120.0
184.044937 200.0
184.074127 660.0
184.194702 120.0
184.621765 108.0
184.662338 64.0
184.987045 200.0
185.027649 132.0
185.431274 160.0
185.518021 32.0
185.830444 184.0
185.916748 224.0
185.968689 192.0
186.047043 240.0
186.294174 124.0
186.35939 184.0
186.810699 144.0
186.924973 152.0
186.976685 68.0
187.042007 88.0
187.145462 172.0
187.35791 172.0
187.57048 152.0
187.641357 188.0
187.764069 100.0
187.982269 1116.0
188.029648 200.0
188.178848 132.0
188.290817 160.0
188.323593 40.0
188.706192 216.0
188.801895 144.0
188.935928 108.0
188.99118 756.0
189.127487 108.0
189.217834 120.0
189.406784 172.0
189.539459 264.0
189.700012 176.0
189.724686 84.0
189.837097 160.0
189.997498 1072.0
190.056549 176.0
190.085602 192.0
190.330643 108.0
190.570023 184.0
190.7789 60.0
190.809143 152.0
190.896057 204.0
190.963135 68.0
191.125702 180.0
191.483337 148.0
191.807098 184.0
191.849823 56.0
191.994598 396.0
192.04837 172.0
192.119461 192.0
192.14769 84.0
192.280136 172.0
192.702652 212.0
192.768967 216.0
192.945877 136.0
192.98735 140.0
193.012222 164.0
193.169876 196.0
193.386475 132.0
193.421692 176.0
193.479828 36.0
193.535217 168.0
193.579514 188.0
193.67923 120.0
193.853775 60.0
193.940002 664.0
193.984039 128.0
194.062378 844.0
194.280777 60.0
194.397308 116.0
194.441727 68.0
194.491684 80.0
194.530548 160.0
194.644379 160.0
194.777695 124.0
194.886047 164.0
194.911057 80.0
194.955292 348.0
194.983307 60.0
195.008316 48.0
195.036194 136.0
195.070038 17380.0
195.147324 232.0
195.222397 48.0
195.294708 60.0
195.330322 80.0
195.361481 140.0
195.414337 80.0
195.506653 92.0
195.553665 176.0
195.592453 80.0
195.673187 40.0
195.701019 76.0
195.741089 144.0
195.765076 36.0
195.823563 96.0
195.84584 212.0
195.865341 244.0
195.915482 44.0
195.951706 140.0
196.073227 1344.0
196.219269 168.0
196.236893 136.0
196.339172 44.0
196.553986 140.0
196.615372 116.0
196.936462 172.0
197.072678 448.0
197.120865 64.0
197.291351 44.0
197.347275 36.0
197.573822 64.0
197.822906 176.0
197.940491 176.0
197.966614 700.0
198.069595 168.0
198.120911 220.0
198.338333 36.0
198.506561 32.0
198.896545 224.0
198.967773 300.0
199.090439 144.0
199.129608 216.0
199.52301 48.0
199.891479 120.0
199.981293 536.0
200.198334 184.0
200.625473 176.0
200.702759 68.0
200.773254 180.0
200.897751 208.0
200.974609 296.0
200.998947 100.0
201.346176 116.0
201.382904 200.0
201.413971 168.0
201.510025 36.0
201.611755 152.0
201.953857 128.0
201.982864 520.0
202.106339 156.0
202.364212 128.0
202.522797 140.0
202.593613 72.0
202.689957 112.0
202.726791 132.0
202.806152 260.0
202.988007 252.0
203.142471 172.0
203.282623 156.0
203.404678 128.0
203.586395 208.0
203.680115 124.0
203.816483 144.0
203.930161 152.0
203.976868 448.0
204.471893 164.0
204.553116 148.0
204.607208 184.0
204.762436 92.0
204.819153 180.0
204.99353 204.0
205.002426 128.0
205.009567 172.0
205.073807 192.0
205.191269 112.0
205.522141 144.0
205.633438 148.0
205.661972 136.0
205.942276 464.0
205.973221 36.0
205.998932 160.0
206.450546 120.0
206.562088 196.0
206.845398 100.0
206.921951 292.0
206.974228 144.0
207.031509 128.0
207.117432 144.0
207.395386 144.0
207.590332 96.0
207.656296 28.0
207.816956 216.0
207.855698 240.0
207.921143 144.0
207.950485 400.0
207.977661 56.0
208.046555 220.0
208.080261 200.0
208.218857 176.0
208.316513 124.0
208.480286 92.0
208.917557 164.0
208.992157 324.0
209.029648 152.0
209.328949 40.0
209.360626 152.0
209.942612 268.0
209.986038 108.0
210.057663 2640.0
210.207962 152.0
210.424683 56.0
210.479538 196.0
210.560394 64.0
210.664383 32.0
210.938919 156.0
211.007614 168.0
211.038483 516.0
211.057007 752.0
211.090164 172.0
211.129761 260.0
211.404602 216.0
211.598541 104.0
211.804153 88.0
211.917145 236.0
212.031815 204.0
212.053268 148.0
212.091919 348.0
212.34259 168.0
212.508636 100.0
212.614227 176.0
212.665344 80.0
212.764053 184.0
212.836639 52.0
212.977982 432.0
213.342194 108.0
213.382889 104.0
213.467209 172.0
213.673737 200.0
213.752304 112.0
213.781403 60.0
213.845428 200.0
213.906448 200.0
213.984222 168.0
214.017197 76.0
214.043396 156.0
214.066696 84.0
214.145325 168.0
214.529968 176.0
214.588287 132.0
214.780762 156.0
214.885788 208.0
214.923721 132.0
214.955063 124.0
214.993103 15308.0
215.078751 196.0
215.2565 148.0
215.311981 136.0
215.406235 180.0
215.507706 96.0
215.567932 184.0
215.598297 48.0
215.639206 120.0
215.735672 76.0
215.878952 60.0
215.914902 136.0
215.995026 1604.0
216.057373 144.0
216.136383 56.0
216.191986 56.0
216.273926 176.0
216.311981 48.0
216.426163 84.0
216.566742 52.0
216.660477 200.0
216.839233 204.0
216.865616 92.0
216.900146 180.0
216.92894 132.0
216.939621 80.0
216.946152 152.0
217.009033 45080.0
217.082565 208.0
217.106033 32.0
217.152023 152.0
217.175537 80.0
217.246048 152.0
217.279099 156.0
217.38237 164.0
217.438995 224.0
217.463974 48.0
217.505066 104.0
217.540283 56.0
217.578461 36.0
217.599014 48.0
217.637177 48.0
217.661942 52.0
217.718628 76.0
217.752777 132.0
217.866272 72.0
217.892715 32.0
217.936783 88.0
218.011551 3336.0
218.088562 196.0
218.201309 136.0
218.283646 84.0
218.598419 76.0
218.692596 152.0
218.825073 40.0
218.922699 156.0
219.004532 4200.0
219.107819 136.0
219.205048 80.0
219.237473 112.0
219.280853 136.0
219.337677 192.0
219.386536 160.0
219.395874 92.0
219.405228 136.0
219.494827 120.0
219.523422 56.0
219.670898 40.0
219.745285 132.0
219.815475 76.0
219.942383 168.0
220.011139 436.0
220.09552 172.0
220.357742 124.0
220.471085 96.0
220.547928 112.0
220.627747 52.0
220.861374 28.0
220.948715 3456.0
221.001862 108.0
221.021133 188.0
221.067047 200.0
221.104279 2528.0
221.189819 48.0
221.27272 68.0
221.376358 68.0
221.494827 124.0
221.598526 120.0
221.637039 68.0
221.660751 64.0
221.804916 180.0
221.877121 168.0
221.933563 8612.0
221.992767 68.0
222.013519 36.0
222.108688 260.0
222.25975 84.0
222.283478 140.0
222.405167 80.0
222.856583 124.0
222.939896 2696.0
222.996262 76.0
223.037872 108.0
223.079483 72.0
223.112183 156.0
223.29953 124.0
223.338196 96.0
223.370911 60.0
223.394714 124.0
223.501816 64.0
223.814377 56.0
223.844147 80.0
223.941528 1408.0
224.073502 68.0
224.198654 96.0
224.22847 60.0
224.314911 120.0
224.341736 128.0
224.368561 48.0
224.574326 100.0
224.693649 76.0
224.884644 112.0
224.937149 384.0
225.069733 76.0
225.31427 180.0
225.419235 80.0
225.84079 88.0
225.943771 396.0
225.990921 208.0
226.050232 120.0
226.074173 180.0
226.975861 120.0
227.02684 180.0
227.050842 28.0
227.12883 120.0
228.000198 700.0
228.234039 52.0
228.294189 144.0
228.459625 76.0
228.546875 84.0
228.968323 112.0
229.002121 156.0
229.989334 276.0
230.014435 200.0
230.458572 64.0
230.57341 128.0
230.986282 476.0
231.02301 732.0
231.393188 64.0
231.951981 212.0
232.033188 216.0
232.099167 132.0
232.238678 136.0
232.302383 120.0
232.529968 48.0
232.699966 112.0
232.950684 772.0
233.005142 448.0
233.037994 180.0
233.204254 156.0
233.225525 72.0
233.265045 60.0
233.3228 120.0
233.730377 64.0
233.794281 148.0
233.934753 576.0
234.574036 76.0
234.656357 140.0
234.943329 492.0
234.963364 176.0
235.922867 308.0
235.952057 292.0
236.333221 232.0
236.385239 40.0
236.412781 52.0
236.721985 56.0
236.743423 104.0
236.95784 96.0
237.052826 224.0
237.092667 108.0
237.931381 124.0
237.979218 92.0
238.944321 96.0
239.024323 124.0
239.128952 128.0
239.190521 156.0
239.455322 56.0
239.655563 100.0
239.708679 84.0
240.119949 200.0
240.148819 92.0
240.701263 196.0
240.797989 100.0
241.008255 140.0
241.065781 72.0
241.507904 48.0
241.842072 76.0
242.019699 320.0
242.266312 104.0
242.365463 84.0
242.396454 156.0
242.916016 128.0
243.021179 1164.0
243.134537 100.0
243.727676 36.0
244.027725 532.0
244.072723 40.0
244.203339 32.0
244.866302 48.0
244.972198 68.0
245.02092 308.0
245.111053 120.0
245.587112 56.0
245.979462 128.0
246.016937 28.0
246.038788 160.0
246.091858 132.0
246.116837 188.0
246.326096 104.0
246.419815 84.0
247.018677 144.0
247.119644 620.0
247.176514 192.0
247.611679 48.0
247.65239 92.0
247.837234 192.0
248.069168 172.0
248.124374 308.0
248.940735 176.0
248.975784 252.0
249.019943 188.0
249.777481 36.0
249.928467 2960.0
250.057526 84.0
250.863907 176.0
250.937866 176.0
251.267593 52.0
251.330704 100.0
251.504272 76.0
251.539001 116.0
251.598984 140.0
251.797928 68.0
251.935226 364.0
252.088577 100.0
252.177063 200.0
252.265579 88.0
252.417343 168.0
252.527512 96.0
252.641907 260.0
252.673553 64.0
252.910889 152.0
252.943436 156.0
252.999527 224.0
253.078735 2320.0
253.233856 64.0
253.455627 228.0
253.737732 100.0
253.952286 140.0
254.019974 68.0
254.081482 592.0
254.362701 56.0
255.086624 172.0
255.175995 52.0
255.844131 96.0
256.054749 144.0
257.658844 136.0
258.024231 2244.0
258.266235 32.0
258.323792 36.0
258.365387 40.0
258.416595 52.0
258.839111 44.0
258.960815 124.0
259.024078 496.0
259.124176 140.0
259.153015 144.0
260.021149 280.0
260.224304 36.0
260.487915 48.0
260.84436 80.0
260.902222 144.0
260.951111 332.0
260.978424 80.0
261.252777 60.0
261.429749 52.0
261.790314 124.0
261.922363 48.0
262.947479 104.0
263.286713 112.0
263.574249 132.0
265.04657 140.0
265.698273 48.0
266.698486 244.0
266.854553 176.0
266.953369 228.0
267.130981 176.0
267.505219 56.0
267.957916 136.0
268.658875 164.0
269.07663 192.0
269.37381 136.0
269.566589 120.0
270.057007 124.0
271.317749 184.0
271.606323 192.0
271.655548 116.0
272.082184 168.0
272.312042 172.0
272.371185 48.0
272.420441 200.0
272.59787 60.0
272.772064 116.0
273.11734 80.0
273.736084 84.0
274.243469 176.0
274.767792 180.0
275.052551 1456.0
275.104095 120.0
275.160553 60.0
275.365295 104.0
275.471008 176.0
275.748566 84.0
275.860962 80.0
276.026276 56.0
276.056793 292.0
276.095703 120.0
276.396759 92.0
276.565552 32.0
276.744324 96.0
277.051025 148.0
277.489838 88.0
277.52298 88.0
277.57605 56.0
277.685486 52.0
277.86792 140.0
277.991394 152.0
278.093079 204.0
278.196503 136.0
278.292786 144.0
278.438904 88.0
278.618256 208.0
278.734558 176.0
278.801025 68.0
278.840912 204.0
278.881317 180.0
278.955566 31856.0
279.095947 560.0
279.139862 52.0
279.171417 68.0
279.31308 76.0
279.413422 48.0
279.452789 36.0
279.609192 120.0
279.795624 68.0
279.820892 88.0
279.830963 52.0
279.888855 56.0
279.914246 32.0
279.95697 2968.0
280.062256 56.0
280.094421 420.0
280.191956 36.0
280.246979 124.0
280.259613 180.0
280.382782 192.0
280.452667 84.0
280.481873 68.0
280.531891 44.0
280.570343 52.0
280.605225 132.0
280.675232 28.0
280.738617 36.0
280.765289 68.0
280.856354 52.0
280.969513 12560.0
281.018799 320.0
281.045013 56.0
281.112244 104.0
281.162689 68.0
281.21701 92.0
281.259094 52.0
281.295807 60.0
281.349243 80.0
281.549591 196.0
281.579651 108.0
281.646454 64.0
281.686523 88.0
281.756683 44.0
281.811096 112.0
281.971161 1460.0
282.020691 100.0
282.050781 72.0
282.252258 104.0
282.400757 132.0
282.562927 84.0
282.63269 96.0
282.682892 40.0
282.790009 76.0
282.873688 32.0
282.966583 2296.0
283.034393 92.0
283.245392 92.0
283.324554 68.0
283.355927 52.0
283.443054 44.0
283.711182 124.0
283.808441 72.0
283.89563 124.0
283.922455 76.0
283.969391 196.0
284.029785 44.0
284.368683 64.0
284.560028 76.0
284.733002 132.0
284.828705 64.0
284.969788 268.0
285.013489 124.0
285.047089 48.0
285.551361 64.0
285.77002 140.0
286.446747 36.0
286.527588 120.0
288.441071 60.0
288.972046 72.0
289.493347 96.0
291.047546 140.0
291.110962 108.0
291.389496 44.0
291.685181 60.0
292.24292 132.0
292.27356 64.0
292.658203 84.0
292.893188 112.0
293.001709 200.0
293.244141 36.0
294.72525 88.0
294.983398 376.0
295.01236 132.0
295.039703 84.0
295.183319 56.0
295.734131 60.0
295.987488 104.0
298.090302 128.0
300.573151 104.0
303.614014 68.0
306.985809 2160.0
307.05719 44.0
307.943695 56.0
308.007782 468.0
308.450378 60.0
308.859497 80.0
308.982971 380.0
309.104401 32.0
309.310913 44.0
309.594513 120.0
309.864227 36.0
310.014923 124.0
310.165619 60.0
311.039062 116.0
311.305908 48.0
312.26889 68.0
312.543304 72.0
314.488678 64.0
314.979492 120.0
315.230347 52.0
315.255096 44.0
316.319733 60.0
316.457794 48.0
318.90918 192.0
320.143768 152.0
321.623413 64.0
321.962616 120.0
324.012299 76.0
324.212952 112.0
324.359894 92.0
324.95166 76.0
327.828339 104.0
329.715851 68.0
337.129944 164.0
339.010986 172.0
340.173706 56.0
351.123016 68.0
352.052307 132.0
353.177307 136.0
354.427734 152.0
354.577637 60.0
355.440186 120.0
359.251648 152.0
367.248199 84.0
368.511841 144.0
369.758484 124.0
369.792938 108.0
372.872803 68.0
378.55954 84.0
379.737732 40.0
383.291077 120.0
384.078613 100.0
384.15741 124.0
384.19577 116.0
385.159882 92.0
386.164429 124.0
387.252533 172.0
389.453003 56.0
391.852722 44.0
396.587097 76.0
396.880463 124.0
397.122375 48.0
399.744537 36.0
400.222229 48.0
403.006378 104.0
403.210205 88.0
404.814484 84.0
406.66272 88.0
408.583588 96.0
416.462524 52.0
416.531586 144.0
418.846161 96.0
419.314758 76.0
424.642273 76.0
426.337891 40.0
427.246643 96.0
429.198944 92.0
429.660919 88.0
431.283844 32.0
431.970276 92.0
435.402344 144.0
435.90918 100.0
436.578491 76.0
437.31076 84.0
444.121582 52.0
445.397675 76.0
447.559387 96.0
450.655426 128.0
452.283661 140.0
457.718048 40.0
458.331451 52.0
467.409607 124.0
468.559235 56.0
473.57901 48.0
478.316437 88.0
478.499268 64.0
479.95459 56.0
484.614136 60.0
486.162079 40.0
486.486908 60.0
489.036469 48.0
491.473572 80.0
493.098724 40.0
498.092438 72.0
501.835297 36.0
511.273956 132.0
511.985291 108.0
529.41626 72.0
532.144653 72.0
541.367249 104.0
544.288757 96.0
555.466919 96.0
563.007324 80.0
588.234009 80.0
590.026367 72.0
590.925964 116.0
592.082886 60.0
596.056091 80.0
596.372009 76.0
599.252991 172.0
602.033447 92.0
603.240356 132.0
603.685303 180.0
603.866211 60.0
619.966064 92.0
633.419189 84.0
633.774902 188.0
636.594116 76.0
667.215759 132.0
668.91864 160.0
670.252563 84.0
672.60437 84.0
688.231689 104.0
694.936829 20.0
695.267456 68.0
696.86908 156.0
702.797974 48.0
714.794922 184.0
723.591553 36.0
744.976135 176.0
752.874268 204.0
754.923645 180.0
766.325012 84.0
767.151733 76.0
767.278503 212.0
770.960327 160.0
778.106079 120.0
783.367188 184.0
786.663025 108.0
787.22699 176.0
788.120728 96.0
789.339355 204.0
797.108948 252.0
801.36853 104.0
801.486267 188.0
802.597351 140.0
805.83728 100.0
809.927551 176.0
812.835999 124.0
822.614319 108.0
826.512268 160.0
829.891785 120.0
839.714172 72.0
844.675903 172.0
846.672852 180.0
846.869751 60.0
849.281067 272.0
849.37384 152.0
858.353882 176.0
858.732971 136.0
860.407776 236.0
861.447327 176.0
864.206848 268.0
866.179871 204.0
871.624512 264.0
872.041809 176.0
874.39447 100.0
875.695679 208.0
875.919495 160.0
879.551941 196.0
880.402161 40.0
881.766968 56.0
882.411316 84.0
887.355164 172.0
889.247559 176.0
892.039368 172.0
896.706116 152.0
896.789551 164.0
902.789856 204.0
903.938477 240.0
906.885132 244.0
908.342224 172.0
909.830505 100.0
919.999023 132.0
922.758667 176.0
926.876038 68.0
927.009399 64.0
929.21051 116.0
929.83551 112.0
932.131165 76.0
932.593079 60.0
938.882568 216.0
940.566589 28.0
940.859558 164.0
942.936523 232.0
943.303284 156.0
945.431824 116.0
946.362305 264.0
948.298157 108.0
951.052246 236.0
951.733704 188.0
953.70575 184.0
956.079895 156.0
958.617188 136.0
959.060913 200.0
959.702087 120.0
962.182434 216.0
964.387817 176.0
964.727844 136.0
965.38324 180.0
965.587341 180.0
966.145264 100.0
967.51178 56.0
971.081116 148.0
976.167603 124.0
976.602966 84.0
983.132507 192.0
983.894043 68.0
986.449219 72.0
987.118225 52.0
993.645142 136.0
994.109436 124.0
995.283325 156.0
997.048584 164.0
997.212036 152.0
999.142578 168.0
1001.730042 156.0
1001.774109 188.0
1003.292969 180.0
1003.728027 140.0
1005.898438 156.0
1008.001648 144.0
1008.817017 236.0
1010.379089 160.0
1015.903564 56.0
1016.182678 160.0
1016.74115 156.0
1017.534607 92.0
1018.766724 164.0
1019.891479 128.0
1021.614807 216.0
1022.34021 124.0
1024.237549 56.0
1024.371338 128.0
1025.518311 232.0
1027.393188 140.0
1031.000854 108.0
1035.011963 124.0
1038.806274 168.0
1039.730225 128.0
1040.237305 160.0
1041.682251 140.0
1042.658813 172.0
1044.098999 196.0
1044.819458 112.0
1045.089722 204.0
1047.504028 160.0
1047.6604 156.0
1051.179199 164.0
1051.618042 168.0
1054.039917 240.0
1054.718506 132.0
1055.533081 132.0
1058.853027 176.0
1062.353394 160.0
1062.515625 152.0
1063.618896 140.0
1064.131714 180.0
1066.021973 196.0
1071.077393 232.0
1071.878784 180.0
1076.516968 196.0
1076.673706 156.0
1079.006592 232.0
1080.124878 120.0
1080.890381 124.0
1080.949219 168.0
1082.448364 152.0
1084.518677 156.0
1086.708984 172.0
1089.932983 164.0
1091.181885 108.0
1091.859253 180.0
1093.148682 196.0
1093.497437 56.0
1094.544312 136.0
1096.158203 60.0
1097.998901 224.0
1098.135986 124.0
1098.775879 180.0
1099.396118 184.0
1099.930786 144.0
1101.020264 208.0
1102.275513 108.0
1102.612549 68.0
1103.12146 188.0
1104.047119 136.0
1105.75415 36.0
1106.667725 184.0
1106.866333 64.0
1107.455811 108.0
1108.787476 148.0
1109.622803 156.0
1112.090576 48.0
1112.296387 156.0
1114.514648 168.0
1115.511597 140.0
1116.309448 128.0
1116.528931 124.0
1117.400269 216.0
1120.149902 104.0
1121.442627 136.0
1122.595947 184.0
1124.664307 224.0
1126.059814 224.0
1126.566284 168.0
1127.148682 260.0
1130.177856 60.0
1131.851318 140.0
1132.869385 136.0
1135.19519 140.0
1136.664307 144.0
1137.442871 188.0
1138.134399 192.0
1139.155273 132.0
1140.815186 176.0
1141.319458 92.0
1143.055054 140.0
1143.505859 144.0
1145.397949 132.0
1146.691772 172.0
1147.129883 212.0
1148.863037 80.0
1149.038452 172.0
1154.083984 144.0
1154.138062 176.0
1154.280029 84.0
1155.558472 184.0
1157.358887 176.0
1158.368042 168.0
1159.364136 128.0
1159.418335 196.0
1160.543579 60.0
1161.554199 192.0
1162.056152 164.0
1162.178345 200.0
1163.026611 196.0
1166.355103 184.0
1166.518188 168.0
1166.715454 212.0
1167.108398 196.0
1167.320557 48.0
1170.559814 172.0
1171.009277 208.0
1172.876221 100.0
1173.551147 168.0
1174.23999 48.0
1176.860474 160.0
1179.374634 148.0
1180.796753 56.0
1181.261963 224.0
1183.26709 160.0
1183.547852 116.0
1184.890381 124.0
1184.965698 164.0
1185.191895 156.0
1185.397461 216.0
1186.535278 180.0
1187.001587 216.0
1191.469971 172.0
1193.855103 76.0
1194.302246 92.0
1194.921387 100.0
1196.525024 148.0
1197.206665 196.0
1197.495972 180.0
1199.577026 268.0
1201.335571 112.0
1204.545532 116.0
1205.160522 72.0
1206.404541 152.0
1206.847046 184.0
1207.739136 176.0
1208.085083 132.0
1208.410278 196.0
1209.247559 160.0
1209.333252 152.0
1210.673828 112.0
1210.826172 132.0
1212.0177 204.0
1212.502808 164.0
1215.595947 188.0
1216.373291 148.0
1216.678711 136.0
1217.456421 224.0
1217.505005 164.0
1218.095459 260.0
1218.950073 160.0
1219.443481 124.0
1220.535034 244.0
1222.204468 148.0
1222.26709 84.0
1223.62439 128.0
1225.414307 128.0
1227.073242 100.0
1228.161133 160.0
1228.67041 148.0
1229.088989 152.0
1229.186768 124.0
1229.29834 140.0
1230.498657 152.0
1230.631592 148.0
1230.890015 136.0
1231.036621 128.0
1231.895752 228.0
1232.929932 188.0
1233.181519 56.0
1233.936523 92.0
1234.466553 180.0
1234.740723 172.0
1235.125366 176.0
1236.202881 164.0
1237.85498 144.0
1237.981079 160.0
1239.403076 108.0
1239.606323 184.0
1241.295776 176.0
1241.793701 176.0
1242.00415 32.0
1242.151489 100.0
1243.077637 60.0
1243.92688 168.0
1244.610107 164.0
1245.766846 216.0
1245.998657 216.0
1248.240845 136.0
1249.141113 52.0
1250.01355 188.0
1251.04126 104.0
1252.54126 172.0
1253.238647 192.0
1253.774292 100.0
1253.894043 136.0
1256.277466 144.0
1260.414917 116.0
1260.72583 44.0
1261.234741 88.0
1261.29126 84.0
1261.35498 136.0
1261.722534 192.0
1262.175049 184.0
1262.231689 128.0
1264.424683 88.0
1265.706055 180.0
1265.861938 168.0
1267.0802 144.0
1267.144043 64.0
1267.675415 148.0
1267.859741 36.0
1268.618164 240.0
1268.976318 256.0
1271.306396 180.0
1271.419922 116.0
1271.888428 196.0
1272.399536 228.0
1272.662231 160.0
1273.095459 132.0
1274.004639 56.0
1275.447266 168.0
1275.571289 192.0
1275.74585 124.0
1275.845337 32.0
1277.331665 96.0
1277.466797 224.0
1277.82959 152.0
1277.943481 112.0
1278.078735 164.0
1279.324219 136.0
1280.093262 56.0
1280.80542 216.0
1281.553467 112.0
1281.895508 144.0
1282.55127 148.0
1282.986084 264.0
1283.11438 164.0
1284.062866 124.0
1284.3125 136.0
1285.561035 132.0
1286.232056 52.0
1286.410522 176.0
1287.995728 112.0
1289.574951 60.0
1290.897583 276.0
1291.512695 196.0
1291.655762 168.0
1292.199463 140.0
1292.464233 260.0
1292.729004 172.0
1292.965088 148.0
1293.101074 248.0
1293.194214 208.0
1293.680908 40.0
1293.766846 160.0
1293.995972 212.0
1294.253662 168.0
1294.740723 168.0
1295.772217 184.0
1296.094604 128.0
1296.682251 172.0
1298.065918 148.0
1298.230835 172.0
1298.73291 68.0
1298.847656 144.0
1299.601074 140.0
1300.160767 176.0
1300.512451 168.0
1302.774414 216.0
1303.457031 156.0
1303.758911 224.0
1304.492065 208.0
1305.397949 136.0
1306.261108 40.0
1306.354614 144.0
1306.822266 168.0
1307.239624 104.0
1308.54248 76.0
1308.859375 160.0
1309.867676 220.0
1309.990112 136.0
1310.905151 124.0
1311.503418 156.0
1311.8927 136.0
1312.303589 144.0
1314.294434 188.0
1314.489258 140.0
1314.756226 244.0
1315.059448 108.0
1315.442017 152.0
1315.911255 40.0
1316.019531 180.0
1316.387817 112.0
1316.991211 192.0
1317.442383 104.0
1318.063721 192.0
1318.345581 124.0
1318.540771 136.0
1318.865967 220.0
1319.527954 216.0
1320.239746 132.0
1321.483887 56.0
1322.250977 252.0
1322.547729 188.0
1322.699829 184.0
1322.815674 156.0
1323.365845 96.0
1323.981323 164.0
1324.952026 160.0
1325.024536 56.0
1325.26355 224.0
1327.068359 152.0
1328.177979 92.0
1329.868652 128.0
1331.77832 184.0
1331.872803 132.0
1332.286865 220.0
1332.846313 164.0
1335.179932 136.0
1335.289062 144.0
1335.900024 144.0
1336.649414 144.0
1337.348145 80.0
1339.022827 132.0
1339.831299 132.0
1340.822388 168.0
1341.536743 212.0
1342.95874 168.0
1344.082153 100.0
1344.680664 152.0
1344.936157 136.0
1345.352173 48.0
1345.834106 96.0
1347.024536 84.0
1347.250977 160.0
1348.040161 76.0
1349.019653 112.0
1350.584473 276.0
1350.803955 184.0
1350.862427 160.0
1351.162476 136.0
1351.301392 100.0
1351.542358 196.0
1352.18689 144.0
1352.516235 188.0
1352.92627 128.0
1353.54126 176.0
1353.62915 156.0
1354.061279 136.0
1354.259033 180.0
1354.346924 72.0
1354.837769 136.0
1357.927368 116.0
1358.12915 128.0
1358.57666 104.0
1358.892212 188.0
1360.888672 72.0
1361.307129 56.0
1361.380615 184.0
1361.520142 124.0
1362.467773 40.0
1362.833008 124.0
1363.239258 200.0
1363.871338 164.0
1364.619263 180.0
1364.812378 200.0
1365.724365 112.0
1367.195923 200.0
1367.66687 152.0
1368.756592 112.0
1369.065796 116.0
1369.139526 228.0
1370.657104 216.0
1372.463013 160.0
1372.647339 144.0
1373.252197 88.0
1374.262817 184.0
1375.185303 108.0
1377.393188 168.0
1378.319946 232.0
1378.420166 124.0
1379.307007 144.0
1379.669312 112.0
1379.75061 92.0
1379.913208 144.0
1380.03894 216.0
1380.098145 68.0
1380.349487 48.0
1380.482666 164.0
1381.000366 144.0
1381.22229 192.0
1383.449707 144.0
1384.30127 168.0
1384.471558 136.0
1385.293701 128.0
1385.968018 200.0
1386.986206 168.0
1387.398438 184.0
1388.978027 68.0
1390.870239 252.0
1391.352783 144.0
1392.310669 124.0
1392.54834 148.0
1392.754272 276.0
1393.008911 28.0
1393.491821 176.0
1394.153198 48.0
1394.487671 124.0
1394.866699 52.0
1395.907715 164.0
1396.31665 164.0
1396.673706 116.0
1398.481812 68.0
1399.099731 192.0
1399.405029 212.0
1400.663574 148.0
1401.095703 148.0
1402.422119 180.0
1402.578735 36.0
1402.787476 200.0
1402.85498 188.0
1403.376465 148.0
1403.453979 212.0
1403.816406 36.0
1404.726318 60.0
1404.905396 124.0
1406.017212 116.0
1406.300781 136.0
1406.532227 148.0
1408.548462 132.0
1408.854736 168.0
1409.310425 100.0
1409.855957 144.0
1410.767944 152.0
1410.932373 168.0
1411.478149 124.0
1412.128906 92.0
1412.592651 168.0
1413.138794 156.0
1413.834717 152.0
1414.281494 180.0
1414.860229 216.0
1415.706299 180.0
1416.335449 204.0
1416.702515 132.0
1418.516113 124.0
1419.123413 152.0
1419.445801 148.0
1419.730835 76.0
1420.41333 212.0
1420.623413 172.0
1420.93103 196.0
1421.223633 196.0
1422.266846 108.0
1422.724731 212.0
1423.055054 120.0
1424.519653 88.0
1424.737549 228.0
1425.173218 140.0
1425.421265 128.0
1426.729126 184.0
1428.345947 200.0
1430.136841 168.0
1430.814331 160.0
1430.927246 176.0
1431.168213 204.0
1431.665283 180.0
1432.335571 156.0
1432.667114 100.0
1433.224609 88.0
1433.857666 100.0
1434.341431 264.0
1434.551147 128.0
1434.694336 248.0
1434.78479 136.0
1436.293091 124.0
1436.36853 104.0
1437.040039 184.0
1437.847412 188.0
1437.937988 236.0
1438.322998 248.0
1439.035767 208.0
1439.161011 92.0
1439.659424 200.0
1439.772705 132.0
1439.848145 176.0
1440.195679 124.0
1440.920898 124.0
1442.371826 208.0
1443.566528 148.0
1443.725342 196.0
1444.095947 272.0
1444.70105 128.0
1445.442505 212.0
1445.767944 220.0
1447.304688 188.0
1448.584717 164.0
1449.539307 128.0
1449.994019 140.0
1450.668701 164.0
1450.949219 56.0
1451.654419 176.0
1451.934937 124.0
1452.033569 188.0
1452.200439 196.0
1452.541748 160.0
1452.87561 156.0
1453.345947 172.0
1453.520508 112.0
1454.271851 108.0
1454.416138 56.0
1454.871582 204.0
1455.342285 184.0
1455.433472 168.0
1456.823364 140.0
1457.058838 216.0
1457.119629 144.0
1457.400391 168.0
1457.940308 128.0
1458.122681 144.0
1459.34668 160.0
1460.3125 260.0
1460.553467 212.0
1462.244995 140.0
1462.38208 88.0
1462.435303 268.0
1463.272705 96.0
1464.323608 156.0
1464.445435 184.0
1465.65686 168.0
1465.737183 212.0
1466.007324 232.0
1466.418945 100.0
1467.303223 164.0
1467.651489 192.0
1468.452026 180.0
1468.729248 32.0
1468.874268 148.0
1469.537964 168.0
1469.690552 148.0
1471.217041 204.0
1471.942383 132.0
1473.1521 288.0
1474.035522 244.0
1474.29541 220.0
1474.654541 204.0
1475.235474 112.0
1475.54895 216.0
1476.313599 128.0
1476.382446 108.0
1476.59668 156.0
1477.346313 260.0
1478.057861 88.0
1478.386841 212.0
1478.616455 156.0
1479.022217 116.0
1479.106323 60.0
1479.374268 60.0
1479.634644 144.0
1479.703491 148.0
1479.78772 184.0
1479.871948 184.0
1480.714355 180.0
1480.967041 180.0
1481.240356 220.0
1481.549316 128.0
1481.629883 144.0
1481.825073 220.0
1482.272949 96.0
1482.43811 148.0
1483.143188 108.0
1483.848511 164.0
1484.070923 96.0
1484.224243 116.0
1484.97583 136.0
1485.167603 156.0
1485.459106 344.0
1486.103516 200.0
1486.241699 216.0
1486.302979 228.0
1486.970703 44.0
1488.705811 160.0
1488.767212 188.0
1488.821045 168.0
1488.920898 148.0
1489.297241 164.0
1489.627563 124.0
1489.712036 180.0
1489.827271 160.0
1489.906372 228.0
1490.595581 40.0
1491.064453 228.0
1492.032959 200.0
1492.832642 104.0
1493.571045 76.0
1494.825073 104.0
1495.394653 236.0
1495.548584 176.0
1495.717896 172.0
1495.794922 112.0
1495.90271 184.0
1495.994995 76.0
1496.680298 176.0
1496.757324 112.0
1496.9729 208.0
1498.575195 148.0
1498.667603 116.0
1498.752319 164.0
1498.945068 164.0
1499.137695 48.0
1499.584717 172.0
1499.838989 144.0
1500.054932 120.0
1500.86438 124.0
1500.949219 204.0
1501.034058 136.0
1501.612549 140.0
1501.820801 164.0
1502.144775 132.0
1502.314453 56.0
1502.399292 208.0
1502.64624 108.0
1502.862183 56.0
1502.939453 104.0
1503.61084 40.0
1503.78064 216.0
1503.834595 156.0
1504.143433 60.0
1504.452148 64.0
1504.706909 164.0
1504.830444 68.0
1505.162476 48.0
