>compound Meropenem
>formula C17H25N3O5S
>ionization [M+H]+
>parentmass 384.157593
#inchi InChI=1S/C17H25N3O5S/c1-7-12-11(8(2)21)16(23)20(12)13(17(24)25)14(7)26-9-5-10(18-6-9)15(22)19(3)4/h7-12,18,21H,5-6H2,1-4H3,(H,24,25)
#inchikey DMJNNHOOLUXYBV
#Ion_Source LC-ESI
#Instrument qTof
#Compound_Source Commercial
#PI Dorrestein
#Data_Collector Garg_Neha
#Scan -1
#Precursor_MZ 384.159
#ExactMass 383.151
#Charge 1
#CAS_Number 96036-03-2, 119478-56-7 (3H2O)
#Pubmed_ID N/A
#Smiles N12C(C(C1=O)C(C)O)C(C(=C2C(O)=O)SC3CC(NC3)C(=O)N(C)C)C
#INCHI_AUX N/A
#Library_Class 1
#SpectrumID CCMSLIB00000078125
#IonMode Positive
#UpdateWorkflowName UPDATE-SINGLE-ANNOTATED-GOLD
#LibraryQualityString Gold
#TaskID 77f51c88eb8b467eb4a01dd2d0cb90d2
##Scan# 1020
#SpectrumFile Plate2_41_60_GG7_01_16495.mzXML
#LibraryName FDALibrary_2_04302014.mgf
#MQScore -1
#Organism FDALibrary_2_04302014
#TIC_Query 0
#RT_Query -1
#MZErrorPPM -1
#SharedPeaks 0
#MassDiff 0
#LibMZ -1
#SpecMZ 384.159
#SpecCharge 0
#internalFilename spec-00000.mgf

>collision 10
45.796383 248.0
46.140491 176.0
46.900696 164.0
47.585754 160.0
47.767479 204.0
51.961864 272.0
52.119804 148.0
55.698158 236.0
55.976276 148.0
60.71249 184.0
61.413925 152.0
64.553864 156.0
64.662651 160.0
67.168823 228.0
68.49659 168.0
68.9272 172.0
69.737595 168.0
70.108742 160.0
72.634193 216.0
73.730698 156.0
77.08522 180.0
79.12915 152.0
80.832573 180.0
81.241081 148.0
84.089302 164.0
84.229897 196.0
90.12748 208.0
90.765373 192.0
91.040527 152.0
91.057617 192.0
92.328827 140.0
95.532745 152.0
96.048958 164.0
98.050858 232.0
98.36644 204.0
98.832855 156.0
99.052612 240.0
100.022194 300.0
100.296524 152.0
101.071404 588.0
102.018059 180.0
102.039566 148.0
102.056259 184.0
107.077576 144.0
108.078102 192.0
108.573189 140.0
109.092285 148.0
110.061089 164.0
112.021812 776.0
112.051559 236.0
112.542992 164.0
113.043968 200.0
113.626663 216.0
114.036591 504.0
115.041908 180.0
116.051727 156.0
117.106873 140.0
119.570778 212.0
120.041344 140.0
121.425674 224.0
122.059402 340.0
122.09552 348.0
124.07621 176.0
126.038445 448.0
126.089478 244.0
130.064697 148.0
130.984894 184.0
131.074921 288.0
131.098816 220.0
131.518463 232.0
132.080627 148.0
133.017776 208.0
133.412888 160.0
134.191055 164.0
136.020981 156.0
137.079224 168.0
137.557343 224.0
138.03038 136.0
138.092422 184.0
139.041306 148.0
139.062424 152.0
139.088272 752.0
139.873352 212.0
140.013962 172.0
140.391693 152.0
141.050964 172.0
141.101685 1088.0
142.025986 228.0
142.078171 184.0
142.109009 336.0
143.120102 548.0
144.073196 184.0
144.120987 172.0
144.316971 176.0
145.241379 168.0
148.07106 188.0
148.580109 168.0
148.728134 144.0
149.025375 140.0
149.289368 244.0
150.03688 184.0
150.10759 184.0
150.231979 140.0
151.93222 196.0
152.056168 212.0
152.105148 188.0
153.013596 172.0
153.03801 192.0
153.605042 168.0
154.032089 140.0
154.075424 204.0
155.056091 140.0
155.999664 148.0
156.051422 332.0
156.085754 408.0
157.247589 188.0
158.024811 332.0
158.828903 160.0
164.053024 2704.0
164.129929 140.0
164.733231 216.0
165.056534 640.0
166.050461 256.0
166.086365 192.0
167.0625 184.0
168.095688 144.0
170.08075 192.0
170.115982 196.0
170.948807 260.0
171.058914 776.0
171.120605 176.0
172.025375 160.0
172.052841 204.0
172.0737 264.0
172.997726 176.0
173.07579 784.0
174.104218 212.0
174.574615 144.0
175.090958 1340.0
176.071518 160.0
176.096054 344.0
176.941483 148.0
178.047211 212.0
180.255661 216.0
180.563095 240.0
181.082199 584.0
182.007507 176.0
182.095291 376.0
182.596085 228.0
186.576416 180.0
188.050095 164.0
188.088318 148.0
189.050369 160.0
189.104034 172.0
190.573364 216.0
191.04512 156.0
192.050552 152.0
193.061401 176.0
196.029587 156.0
196.076401 168.0
198.06015 144.0
200.069183 584.0
200.100723 152.0
201.071457 188.0
202.083099 188.0
203.094437 260.0
204.051437 172.0
204.109543 1080.0
204.33017 140.0
204.580597 204.0
204.617615 188.0
205.036346 156.0
205.104752 168.0
207.058304 184.0
207.569244 196.0
209.077362 296.0
211.082291 216.0
211.116989 188.0
211.60022 220.0
212.0811 144.0
214.054916 180.0
214.08287 156.0
215.065399 148.0
215.121872 184.0
216.293045 200.0
216.931641 152.0
217.09877 148.0
218.104782 228.0
218.726471 168.0
219.089096 224.0
220.02356 176.0
220.095627 136.0
221.511063 172.0
221.976379 148.0
222.100296 128.0
222.139496 168.0
223.087387 592.0
223.124084 252.0
224.089752 344.0
225.086792 336.0
226.097687 204.0
226.61145 216.0
227.105713 188.0
227.601273 156.0
228.060913 140.0
230.097031 292.0
230.595825 196.0
231.09166 340.0
232.115463 244.0
234.060211 168.0
234.610703 264.0
235.093567 416.0
235.611404 252.0
236.120087 244.0
238.610687 2588.0
239.111145 544.0
239.416214 140.0
239.612808 232.0
243.05777 180.0
244.094803 200.0
245.110046 252.0
246.633041 148.0
247.102127 204.0
249.109451 312.0
251.086807 544.0
251.485916 168.0
252.092285 156.0
252.61142 820.0
253.060211 148.0
253.111923 216.0
253.614899 416.0
254.132324 1344.0
255.133881 352.0
256.09613 192.0
256.129608 448.0
256.620941 608.0
257.62088 240.0
257.764648 200.0
258.945129 168.0
259.120026 260.0
259.632202 244.0
260.035217 208.0
260.623413 2696.0
261.128693 880.0
261.621582 888.0
262.128815 260.0
262.625305 256.0
265.108307 176.0
266.625519 316.0
267.1185 248.0
267.157104 144.0
267.617279 232.0
268.104218 156.0
270.124451 320.0
271.081726 164.0
271.13089 200.0
271.606323 180.0
273.031769 160.0
274.114838 172.0
274.62149 628.0
275.054779 168.0
275.137085 2288.0
275.631195 476.0
276.071472 156.0
276.13089 380.0
277.097839 276.0
278.143158 224.0
279.118378 268.0
281.02182 152.0
281.111938 164.0
281.634674 172.0
282.125702 140.0
282.612244 172.0
283.080872 156.0
283.13446 180.0
286.101166 104.0
287.120361 204.0
287.650085 200.0
289.116974 220.0
289.154205 140.0
290.126373 200.0
293.100311 164.0
295.101532 184.0
296.103119 140.0
296.142914 424.0
296.188538 172.0
297.149933 1176.0
297.650818 532.0
298.122498 704.0
298.153137 192.0
299.086823 152.0
299.117798 140.0
300.410065 144.0
301.093475 172.0
302.138092 276.0
303.131104 196.0
303.643951 540.0
304.140991 128.0
304.63974 220.0
305.136292 144.0
309.642914 192.0
310.146851 316.0
312.180817 192.0
313.170135 296.0
318.17688 528.0
318.687317 216.0
318.907654 176.0
319.138489 220.0
319.65451 188.0
319.679413 216.0
321.083038 168.0
321.131042 220.0
322.161011 208.0
323.096222 160.0
323.151337 164.0
327.196198 140.0
329.247894 184.0
330.127686 288.0
331.134155 168.0
331.160736 176.0
332.125305 196.0
333.781372 196.0
334.10144 148.0
337.182617 144.0
338.159149 172.0
340.169617 1888.0
340.667786 272.0
341.171783 480.0
341.667175 240.0
342.176361 148.0
343.085052 140.0
343.180908 184.0
344.163757 148.0
344.904938 176.0
347.152283 144.0
350.304108 144.0
353.134674 288.0
353.930573 156.0
354.121582 164.0
354.155273 160.0
356.151581 160.0
357.180664 232.0
357.207001 276.0
361.122314 164.0
363.186127 124.0
364.104889 236.0
365.142639 168.0
365.173065 144.0
371.214844 164.0
374.155365 160.0
375.171265 164.0
376.172821 116.0
378.0914 196.0
378.150452 184.0
378.714752 188.0
379.133179 152.0
379.218445 192.0
380.139404 120.0
381.153168 172.0
381.679718 160.0
382.165009 120.0
383.313507 168.0
383.462708 168.0
384.157593 760.0
384.338074 128.0
385.161865 328.0
385.232483 152.0
385.339691 192.0
386.230988 140.0
387.153931 172.0
388.171478 136.0
389.197693 216.0
403.993439 216.0
404.077454 164.0
404.141479 168.0
406.145874 148.0
407.175385 120.0
407.203247 448.0
408.127319 112.0
409.174591 308.0
409.203979 244.0
418.189667 264.0
422.163391 168.0
425.174469 152.0
427.936829 156.0
434.176575 236.0
436.231873 196.0
438.27951 180.0
450.154999 144.0
453.181641 120.0
453.224854 160.0
461.218506 140.0
464.176788 152.0
467.179016 236.0
476.214172 192.0
481.522614 164.0
482.266815 180.0
484.29657 140.0
487.184479 120.0
504.215485 252.0
505.214722 140.0
506.206055 336.0
514.256653 376.0
516.277527 172.0
520.252136 120.0
521.245239 112.0
536.224731 156.0
538.213013 148.0
539.235657 172.0
540.246948 112.0
541.213928 192.0
541.260193 140.0
546.272705 152.0
548.242188 216.0
549.243652 192.0
561.255371 148.0
606.264893 200.0
607.272583 176.0
1282.934204 172.0
1304.927856 144.0
1367.308594 196.0
1419.686279 204.0
1428.489014 284.0
1470.131836 172.0
1491.661865 144.0
1664.408569 188.0
1710.964722 200.0
1721.427979 164.0
1728.446045 140.0
1736.697388 160.0
1791.475952 184.0
1834.364624 144.0
1892.75415 168.0
1892.987915 180.0
1906.764404 144.0
1959.064575 144.0
1993.980835 160.0
