>compound MLS001165769-01!nefazodone
>formula C25H32ClN5O2
>ionization [M+H]+
>parentmass 470.231873
#inchi InChI=1S/C25H32ClN5O2/c1-2-24-27-31(25(32)30(24)18-19-33-23-10-4-3-5-11-23)13-7-12-28-14-16-29(17-15-28)22-9-6-8-21(26)20-22/h3-6,8-11,20H,2,7,12-19H2,1H3
#inchikey VRBKIVRKKCLPHA
#Ion_Source LC-ESI
#Instrument qTof
#Compound_Source NIH Pharmacologically Active Library
#PI Dorrestein
#Data_Collector VP/LMS
#Scan -1
#Precursor_MZ 470.23
#ExactMass 469.224
#Charge 1
#CAS_Number N/A
#Pubmed_ID N/A
#Smiles CCc1nn(CCCN2CCN(CC2)c3cccc(Cl)c3)c(=O)n1CCOc4ccccc4
#INCHI_AUX N/A
#Library_Class 1
#SpectrumID CCMSLIB00000085933
#IonMode Positive
#UpdateWorkflowName UPDATE-SINGLE-ANNOTATED-GOLD
#LibraryQualityString Gold
#TaskID d252d724072548979f1f6f1ced849daf
##Scan# 1839
#SpectrumFile p4-H03_GH3_01_18411.mzXML
#LibraryName Pharm_Active_Library.mgf
#MQScore -1
#Organism Pharm_Active_Library
#TIC_Query 0
#RT_Query -1
#MZErrorPPM -1
#SharedPeaks 0
#MassDiff 0
#LibMZ -1
#SpecMZ 470.23
#SpecCharge 0
#internalFilename spec-00000.mgf

>collision 10
44.901371 132.0
44.913998 128.0
44.925381 164.0
44.934719 188.0
44.950729 196.0
44.965412 132.0
44.976711 172.0
45.003784 188.0
45.038544 140.0
45.057552 156.0
45.117691 96.0
45.133736 136.0
45.144436 100.0
45.166519 188.0
45.202938 104.0
45.252823 112.0
45.320625 180.0
45.337215 100.0
45.360996 140.0
45.401569 168.0
45.419003 152.0
45.444679 144.0
45.464622 96.0
45.502209 120.0
45.518322 168.0
45.553242 148.0
45.573395 248.0
45.601616 280.0
45.659378 68.0
45.672169 172.0
45.706516 164.0
45.75901 156.0
45.773819 72.0
45.811829 164.0
45.841175 172.0
45.860046 128.0
45.877567 112.0
45.913975 156.0
45.951408 208.0
45.96254 80.0
45.984135 48.0
46.020584 248.0
46.031387 256.0
46.048943 176.0
46.071552 152.0
46.086769 184.0
46.115761 124.0
46.142807 244.0
46.163822 144.0
46.175991 160.0
46.201694 112.0
46.236877 144.0
46.251766 176.0
46.272072 88.0
46.286964 104.0
46.327599 92.0
46.350506 128.0
46.363274 196.0
46.455372 160.0
46.470047 180.0
46.495739 120.0
46.522911 144.0
46.533688 184.0
46.559547 132.0
46.576168 172.0
46.601662 120.0
46.613178 168.0
46.630199 172.0
46.639713 180.0
46.677414 192.0
46.720005 180.0
46.763489 40.0
46.833366 188.0
46.858852 148.0
46.871265 140.0
46.914696 160.0
46.932419 212.0
46.945564 144.0
46.956806 172.0
46.985611 156.0
47.004715 140.0
47.019348 72.0
47.023296 52.0
47.028599 104.0
47.040203 52.0
47.056583 144.0
47.100285 128.0
47.112404 124.0
47.116577 108.0
47.145374 88.0
47.185017 112.0
47.228775 176.0
47.24345 132.0
47.260242 156.0
47.292332 172.0
47.319862 136.0
47.351963 124.0
47.367031 44.0
47.384842 160.0
47.395802 84.0
47.405396 100.0
47.431988 136.0
47.462967 92.0
47.480797 44.0
47.519207 204.0
47.528812 48.0
47.557777 188.0
47.577324 104.0
47.582664 136.0
47.59882 120.0
47.621975 144.0
47.648815 132.0
47.723862 160.0
47.734863 120.0
47.747238 80.0
47.768608 112.0
47.823391 184.0
47.849068 180.0
47.862839 148.0
47.902611 132.0
47.94067 136.0
47.955681 156.0
47.973061 156.0
47.986572 180.0
48.003395 120.0
48.066853 68.0
48.117077 140.0
48.122616 140.0
48.129223 152.0
48.14576 140.0
48.191124 104.0
48.232166 192.0
48.250488 156.0
48.276661 164.0
48.310757 196.0
48.326435 172.0
48.358459 120.0
48.406914 132.0
48.42215 108.0
48.44154 128.0
48.478951 180.0
48.498943 132.0
48.513603 144.0
48.539948 32.0
48.556587 108.0
48.639843 200.0
48.650948 136.0
48.664829 104.0
48.705952 184.0
48.739838 164.0
48.819077 124.0
48.871937 184.0
48.924824 56.0
48.938747 176.0
48.949886 132.0
48.962334 188.0
48.965744 136.0
48.987495 60.0
48.998638 188.0
49.013966 124.0
49.033478 312.0
49.048809 48.0
49.072857 156.0
49.090637 108.0
49.154808 180.0
49.170158 200.0
49.250217 236.0
49.275356 96.0
49.287464 84.0
49.319611 136.0
49.334614 300.0
49.350365 164.0
49.360348 144.0
49.397919 132.0
49.410507 168.0
49.437866 116.0
49.465614 128.0
49.468269 176.0
49.490288 212.0
49.500092 52.0
49.515965 216.0
49.552116 84.0
49.589756 228.0
49.606697 136.0
49.655651 92.0
49.66547 288.0
49.676693 152.0
49.714577 244.0
49.751991 244.0
49.770729 148.0
49.783367 136.0
49.808224 132.0
49.8241 52.0
49.849392 148.0
49.863037 164.0
49.966099 156.0
49.978584 188.0
50.008316 64.0
50.05196 88.0
50.073086 44.0
50.09985 188.0
50.123802 112.0
50.169022 144.0
50.196186 172.0
50.232365 72.0
50.251438 200.0
50.267639 96.0
50.280338 160.0
50.307713 204.0
50.339634 160.0
50.397549 120.0
50.413799 168.0
50.4244 204.0
50.450935 140.0
50.475292 124.0
50.486008 136.0
50.513481 264.0
50.571457 152.0
50.58308 216.0
50.606197 196.0
50.616802 164.0
50.629547 184.0
50.658192 144.0
50.676292 124.0
50.693298 172.0
50.808151 140.0
50.822338 116.0
50.851276 192.0
50.893223 64.0
50.928814 84.0
50.959339 148.0
50.970016 128.0
51.008389 192.0
51.026047 144.0
51.041088 136.0
51.06242 208.0
51.073799 160.0
51.119328 76.0
51.142101 76.0
51.154144 164.0
51.167725 140.0
51.199051 188.0
51.215454 116.0
51.252304 136.0
51.284538 128.0
51.298794 88.0
51.384365 136.0
51.412903 192.0
51.448589 140.0
51.525711 200.0
51.553852 192.0
51.607178 80.0
51.63435 156.0
51.661526 72.0
51.672733 144.0
51.688713 148.0
51.700161 196.0
51.724491 204.0
51.743103 148.0
51.773087 192.0
51.806877 148.0
51.881348 236.0
51.912186 176.0
51.971001 176.0
51.983913 300.0
52.003849 252.0
52.025539 116.0
52.041332 148.0
52.061436 172.0
52.074364 168.0
52.085854 108.0
52.151951 152.0
52.16713 172.0
52.192207 108.0
52.22097 80.0
52.290707 68.0
52.304424 352.0
52.316616 132.0
52.357143 124.0
52.399475 136.0
52.409561 64.0
52.435276 104.0
52.458561 120.0
52.475864 32.0
52.499416 324.0
52.545094 156.0
52.571068 392.0
52.582611 164.0
52.624973 128.0
52.747276 48.0
52.770489 144.0
52.781361 188.0
52.803669 212.0
52.828838 240.0
52.841351 84.0
52.868774 120.0
52.886833 276.0
52.980309 140.0
53.041134 176.0
53.05418 128.0
53.08173 64.0
53.091881 140.0
53.122341 160.0
53.157162 224.0
53.202976 128.0
53.241364 92.0
53.252655 164.0
53.274773 164.0
53.293659 104.0
53.32222 184.0
53.340168 52.0
53.357613 200.0
53.375061 96.0
53.437096 200.0
53.45718 168.0
53.476933 164.0
53.511082 180.0
53.562809 180.0
53.592453 128.0
53.616718 180.0
53.62838 112.0
53.666283 72.0
53.691074 136.0
53.720245 80.0
53.755264 136.0
53.790295 164.0
53.812191 204.0
53.839935 264.0
53.877914 124.0
53.899956 140.0
53.927601 52.0
53.958549 140.0
53.971458 284.0
54.005093 104.0
54.057869 168.0
54.081181 172.0
54.091427 180.0
54.116318 76.0
54.158787 156.0
54.204441 148.0
54.220325 204.0
54.251106 232.0
54.264301 132.0
54.307198 176.0
54.327827 140.0
54.356712 152.0
54.380192 276.0
54.414814 212.0
54.430107 112.0
54.458012 132.0
54.478577 196.0
54.519718 72.0
54.568844 128.0
54.602051 204.0
54.634411 96.0
54.658707 172.0
54.678555 144.0
54.690331 68.0
54.719772 240.0
54.731327 208.0
54.749302 152.0
54.792965 92.0
54.828781 192.0
54.852364 116.0
54.869671 200.0
54.892174 276.0
54.923145 188.0
54.939373 152.0
54.958553 116.0
54.981998 200.0
55.008732 92.0
55.035503 180.0
55.050076 136.0
55.081089 88.0
55.107685 168.0
55.130894 136.0
55.139717 136.0
55.167095 120.0
55.181587 184.0
55.196373 140.0
55.220036 140.0
55.268852 388.0
55.28809 188.0
55.379887 160.0
55.428776 188.0
55.484535 188.0
55.515003 232.0
55.579578 132.0
55.618614 136.0
55.683319 180.0
55.700191 124.0
55.71357 136.0
55.784988 336.0
55.796883 104.0
55.890423 144.0
55.939705 64.0
55.957569 112.0
55.969482 88.0
55.984371 188.0
56.005222 108.0
56.021202 132.0
56.057369 120.0
56.070782 176.0
56.093483 140.0
56.108047 196.0
56.124451 180.0
56.142345 52.0
56.16024 136.0
56.231941 148.0
56.284111 140.0
56.299744 164.0
56.330414 112.0
56.342186 68.0
56.363281 132.0
56.405128 160.0
56.440704 156.0
56.482651 180.0
56.51281 72.0
56.583157 152.0
56.608612 140.0
56.629379 120.0
56.65118 304.0
56.676018 92.0
56.689507 184.0
56.702995 104.0
56.716232 216.0
56.735973 160.0
56.754005 104.0
56.796906 184.0
56.855972 120.0
56.891998 68.0
56.913017 260.0
56.926533 128.0
56.959576 196.0
56.979103 152.0
56.989624 48.0
57.028694 168.0
57.04974 184.0
57.061768 96.0
57.083775 164.0
57.107552 164.0
57.117413 188.0
57.133423 168.0
57.148468 188.0
57.163162 196.0
57.204521 148.0
57.224262 56.0
57.260406 136.0
57.275467 108.0
57.334229 88.0
57.382355 176.0
57.441715 140.0
57.458725 164.0
57.477695 180.0
57.539379 152.0
57.554077 212.0
57.595253 132.0
57.723721 116.0
57.740948 248.0
57.763042 156.0
57.781639 232.0
57.825645 148.0
57.843197 128.0
57.859898 136.0
57.915932 224.0
57.938652 140.0
57.965927 164.0
58.008091 220.0
58.031818 196.0
58.075737 176.0
58.102264 332.0
58.114529 176.0
58.133141 136.0
58.160221 184.0
58.199532 120.0
58.210159 100.0
58.263382 168.0
58.296749 112.0
58.32008 192.0
58.379799 140.0
58.430561 80.0
58.441212 164.0
58.4603 220.0
58.482937 168.0
58.495998 204.0
58.506657 32.0
58.558857 172.0
58.570118 172.0
58.579758 388.0
58.608009 140.0
58.653732 272.0
58.688374 120.0
58.70779 140.0
58.733864 168.0
58.748974 148.0
58.759651 140.0
58.779697 88.0
58.810013 168.0
58.840546 136.0
58.854897 140.0
58.890938 188.0
58.939827 184.0
58.981735 104.0
58.996422 140.0
59.029205 148.0
59.083935 208.0
59.114151 220.0
59.129456 152.0
59.152416 88.0
59.193756 104.0
59.22839 124.0
59.256557 124.0
59.284142 260.0
59.302532 104.0
59.350056 168.0
59.388397 132.0
59.409874 148.0
59.424446 152.0
59.448231 96.0
59.460644 92.0
59.47279 124.0
59.50349 96.0
59.524014 164.0
59.544952 68.0
59.581821 104.0
59.597832 132.0
59.667889 192.0
59.697201 240.0
59.731239 132.0
59.800182 144.0
59.817722 192.0
59.823513 228.0
59.840683 168.0
59.871006 204.0
59.884865 124.0
59.924244 256.0
59.948032 96.0
59.961903 244.0
59.985023 160.0
60.001984 132.0
60.037449 156.0
60.066753 180.0
60.085743 220.0
60.100697 96.0
60.139278 192.0
60.154713 160.0
60.176327 160.0
60.194859 188.0
60.205669 124.0
60.227291 172.0
60.247372 160.0
60.265915 108.0
60.330826 256.0
60.356861 148.0
60.38031 164.0
60.415886 236.0
60.439095 128.0
60.479332 136.0
60.49791 212.0
60.541264 104.0
60.569145 128.0
60.586185 132.0
60.635769 144.0
60.658123 152.0
60.69313 36.0
60.711739 148.0
60.755169 160.0
60.773788 124.0
60.814137 200.0
60.834621 164.0
60.860806 132.0
60.904198 188.0
60.980721 208.0
61.003403 228.0
61.051849 140.0
61.067402 184.0
61.124966 128.0
61.142086 132.0
61.206478 140.0
61.225578 88.0
61.280678 76.0
61.306824 180.0
61.403831 136.0
61.44751 128.0
61.466232 152.0
61.491203 136.0
61.53775 88.0
61.594257 168.0
61.647381 392.0
61.671654 196.0
61.705215 136.0
61.748749 200.0
61.773045 204.0
61.788109 84.0
61.82383 188.0
61.839748 136.0
61.916466 176.0
61.941528 172.0
61.960587 144.0
61.982262 140.0
62.005089 172.0
62.026146 76.0
62.041824 60.0
62.074749 144.0
62.102272 124.0
62.179146 172.0
62.209686 120.0
62.239517 164.0
62.277805 200.0
62.289776 208.0
62.34634 92.0
62.373058 136.0
62.395069 192.0
62.528778 128.0
62.56813 248.0
62.594898 112.0
62.642658 136.0
62.667656 168.0
62.692963 96.0
62.763508 236.0
62.796627 176.0
62.813976 48.0
62.842373 124.0
62.87867 244.0
62.918934 244.0
62.93708 128.0
62.960766 152.0
63.011314 112.0
63.03157 200.0
63.167828 92.0
63.178608 212.0
63.191898 112.0
63.214935 88.0
63.297611 92.0
63.316616 116.0
63.330872 76.0
63.356216 124.0
63.392101 196.0
63.425415 216.0
63.440208 124.0
63.4566 180.0
63.473507 152.0
63.498878 196.0
63.575035 180.0
63.606777 56.0
63.619476 76.0
63.644497 88.0
63.682995 60.0
63.7346 312.0
63.748135 140.0
63.813305 124.0
63.862495 116.0
63.891239 104.0
63.908741 176.0
63.956486 84.0
63.980362 144.0
64.005836 216.0
64.029724 112.0
64.040878 108.0
64.065445 292.0
64.118546 172.0
64.155609 32.0
64.243324 124.0
64.257683 480.0
64.295975 144.0
64.311935 112.0
64.331093 144.0
64.353447 108.0
64.372604 164.0
64.391769 208.0
64.425316 156.0
64.449173 176.0
64.480507 104.0
64.485924 56.0
64.493584 100.0
64.518013 112.0
64.539513 176.0
64.558228 156.0
64.613968 96.0
64.634773 152.0
64.671577 196.0
64.682785 172.0
64.697861 240.0
64.717567 328.0
64.737221 180.0
64.769257 276.0
64.790077 160.0
64.815529 136.0
64.821243 168.0
64.854179 40.0
64.891129 168.0
64.929535 108.0
64.946785 244.0
64.964828 220.0
64.992104 200.0
65.064331 144.0
65.093231 84.0
65.106079 84.0
65.204079 32.0
65.224976 104.0
65.252304 120.0
65.297333 96.0
65.348808 164.0
65.385818 164.0
65.401917 148.0
65.414795 204.0
65.477943 200.0
65.551697 116.0
65.562981 156.0
65.604538 124.0
65.627464 132.0
65.668808 188.0
65.69101 128.0
65.724243 236.0
65.748451 152.0
65.767815 164.0
65.782341 156.0
65.798248 160.0
65.816246 188.0
65.853394 128.0
65.869804 152.0
65.900246 72.0
65.925247 172.0
65.963272 40.0
65.997337 168.0
66.013397 164.0
66.058739 116.0
66.089424 116.0
66.121124 224.0
66.163872 224.0
66.23761 136.0
66.251328 232.0
66.283737 132.0
66.2967 120.0
66.308044 44.0
66.338196 140.0
66.392349 156.0
66.408272 176.0
66.430771 204.0
66.518486 200.0
66.551376 172.0
66.593605 132.0
66.652092 124.0
66.687996 188.0
66.739868 164.0
66.788475 144.0
66.804512 144.0
66.832581 208.0
66.878151 108.0
66.957932 220.0
66.979103 100.0
66.993767 80.0
67.031898 388.0
67.067902 224.0
67.08503 152.0
67.12249 156.0
67.128792 152.0
67.148621 128.0
67.161667 136.0
67.214149 192.0
67.237297 156.0
67.277641 120.0
67.310188 300.0
67.365105 272.0
67.435982 152.0
67.447426 172.0
67.473053 224.0
67.488297 96.0
67.50576 188.0
67.519958 328.0
67.537209 172.0
67.555351 140.0
67.566803 196.0
67.597893 88.0
67.62899 144.0
67.671555 188.0
67.714134 36.0
67.740341 188.0
67.753448 84.0
67.793221 176.0
67.814079 160.0
67.824493 136.0
67.850143 96.0
67.907539 84.0
67.919678 188.0
67.951828 204.0
67.965294 156.0
67.978081 148.0
68.014221 208.0
68.036209 212.0
68.052032 152.0
68.142288 104.0
68.165291 184.0
68.180077 312.0
68.191582 184.0
68.230026 176.0
68.2351 68.0
68.246414 216.0
68.265564 136.0
68.291885 112.0
68.326431 136.0
68.339592 340.0
68.446579 316.0
68.476227 156.0
68.493706 176.0
68.524002 96.0
68.553658 140.0
68.570229 144.0
68.603104 184.0
68.659271 132.0
68.691055 128.0
68.707008 204.0
68.726807 176.0
68.746605 44.0
68.800285 100.0
68.863457 212.0
68.891907 76.0
68.915039 112.0
68.942581 168.0
68.97123 168.0
68.997498 84.0
69.01091 100.0
69.031044 248.0
69.077065 128.0
69.119781 180.0
69.124237 148.0
69.154472 148.0
69.174591 128.0
69.240929 56.0
69.263466 152.0
69.288704 192.0
69.32045 164.0
69.331238 132.0
69.378464 164.0
69.439819 164.0
69.463036 248.0
69.496223 144.0
69.511154 96.0
69.549324 132.0
69.592491 220.0
69.653938 248.0
69.697258 212.0
69.718742 184.0
69.73037 120.0
69.766045 164.0
69.780884 208.0
69.823334 136.0
69.868393 164.0
69.886696 156.0
69.902321 184.0
69.918312 236.0
69.936623 216.0
69.948273 284.0
69.968246 288.0
69.99762 156.0
70.021538 44.0
70.055763 256.0
70.081505 80.0
70.186516 184.0
70.203194 200.0
70.241554 212.0
70.289886 124.0
70.323318 136.0
70.347466 148.0
70.383423 208.0
70.403458 144.0
70.43911 116.0
70.476959 292.0
70.510384 144.0
70.525429 144.0
70.538231 164.0
70.544434 108.0
70.558304 288.0
70.575577 132.0
70.588959 136.0
70.607353 168.0
70.624077 112.0
70.660881 104.0
70.679695 148.0
70.704575 144.0
70.769676 188.0
70.794189 188.0
70.821594 112.0
70.855011 76.0
70.871849 200.0
70.900124 184.0
70.918777 136.0
70.960686 236.0
70.979134 64.0
70.998016 76.0
71.041191 168.0
71.079781 244.0
71.093201 204.0
71.126213 132.0
71.155312 112.0
71.177589 164.0
71.220802 132.0
71.250305 136.0
71.276245 96.0
71.289688 120.0
71.328346 92.0
71.34684 168.0
71.360291 116.0
71.382149 44.0
71.446068 184.0
71.483086 140.0
71.503281 132.0
71.570618 72.0
71.619453 120.0
71.66317 80.0
71.704613 244.0
71.74247 180.0
71.754272 36.0
71.777878 188.0
71.799805 104.0
71.815742 168.0
71.822708 144.0
71.830063 136.0
71.912216 172.0
71.970245 112.0
71.990509 72.0
72.031044 216.0
72.066521 152.0
72.096939 96.0
72.118279 80.0
72.199173 136.0
72.222054 48.0
72.252502 124.0
72.272865 124.0
72.294708 140.0
72.32959 372.0
72.347282 60.0
72.386223 136.0
72.411751 112.0
72.428566 236.0
72.460754 188.0
72.498299 228.0
72.562447 112.0
72.589577 88.0
72.624466 148.0
72.68457 156.0
72.725937 212.0
72.750763 152.0
72.815292 116.0
72.886642 216.0
72.903633 124.0
72.917229 104.0
72.942986 176.0
72.959724 88.0
72.981827 100.0
73.026718 164.0
73.046013 76.0
73.057823 176.0
73.088791 100.0
73.104309 136.0
73.119621 196.0
73.131538 224.0
73.150574 152.0
73.204124 196.0
73.226891 180.0
73.252922 184.0
73.325706 240.0
73.419525 148.0
73.479179 132.0
73.492828 52.0
73.5159 200.0
73.547157 144.0
73.562805 164.0
73.575737 160.0
73.605492 128.0
73.622566 148.0
73.648315 108.0
73.666977 164.0
73.747292 128.0
73.810211 100.0
73.844994 308.0
73.883537 320.0
73.918312 192.0
73.93885 216.0
73.971054 128.0
74.017601 200.0
74.02874 164.0
74.046715 96.0
74.069443 148.0
74.088821 144.0
74.123505 208.0
74.185509 144.0
74.222801 192.0
74.250664 116.0
74.287666 136.0
74.307236 172.0
74.338982 176.0
74.342514 104.0
74.365623 116.0
74.384506 156.0
74.507256 184.0
74.523613 152.0
74.556267 108.0
74.638779 56.0
74.673485 180.0
74.698975 52.0
74.786736 148.0
74.798431 136.0
74.866875 216.0
74.893623 160.0
74.919334 164.0
74.94606 164.0
74.996552 84.0
75.006592 188.0
75.039978 216.0
75.057442 152.0
75.103783 140.0
75.116913 276.0
75.146912 136.0
75.174088 160.0
75.190056 164.0
75.220329 140.0
75.252197 120.0
75.29351 108.0
75.338554 92.0
75.386932 144.0
75.457657 140.0
75.502762 224.0
75.523712 176.0
75.587532 84.0
75.613487 176.0
75.675812 160.0
75.709084 204.0
75.724297 80.0
75.761894 180.0
75.791862 156.0
75.854256 136.0
75.902802 112.0
75.926399 276.0
75.954834 208.0
75.98259 156.0
76.010353 116.0
76.055473 96.0
76.093666 248.0
76.117035 132.0
76.15004 140.0
76.177147 120.0
76.225677 132.0
76.260246 108.0
76.292122 352.0
76.316856 176.0
76.336937 128.0
76.354324 152.0
76.378387 96.0
76.422508 164.0
76.460457 204.0
76.500488 116.0
76.516159 140.0
76.545761 80.0
76.631897 160.0
76.655083 164.0
76.740921 120.0
76.800209 96.0
76.813553 160.0
76.835098 96.0
76.866508 132.0
76.889198 212.0
76.927597 148.0
76.939819 148.0
76.968536 80.0
77.006172 180.0
77.021896 96.0
77.03936 156.0
77.053337 104.0
77.093712 152.0
77.109261 192.0
77.129791 188.0
77.136246 128.0
77.140244 208.0
77.156456 124.0
77.257889 96.0
77.291138 192.0
77.307182 176.0
77.351624 164.0
77.383904 116.0
77.408417 172.0
77.483734 176.0
77.504761 128.0
77.554146 92.0
77.585388 96.0
77.601166 116.0
77.639748 180.0
77.660728 116.0
77.687798 252.0
77.716934 160.0
77.766418 176.0
77.780113 192.0
77.859589 120.0
77.90387 160.0
77.930115 108.0
77.954224 152.0
77.976074 92.0
78.011993 96.0
78.084084 112.0
78.096397 132.0
78.14566 180.0
78.176605 268.0
78.194931 136.0
78.223335 172.0
78.263588 288.0
78.287483 120.0
78.348778 152.0
78.410416 92.0
78.475029 220.0
78.492195 168.0
78.50853 124.0
78.572037 128.0
78.619675 156.0
78.642624 124.0
78.705948 188.0
78.734428 148.0
78.757393 140.0
78.826294 176.0
78.848145 132.0
78.879318 212.0
78.891693 120.0
78.934128 168.0
78.996033 212.0
79.057961 40.0
79.105751 200.0
79.125221 52.0
79.149055 108.0
79.183662 152.0
79.214737 240.0
79.231827 148.0
79.275787 164.0
79.29705 268.0
79.369637 216.0
79.430153 128.0
79.49334 148.0
79.574989 148.0
79.602196 124.0
79.630615 200.0
79.646782 116.0
79.673553 208.0
79.692795 112.0
79.721222 52.0
79.737221 164.0
79.778099 108.0
79.797661 192.0
79.822556 116.0
79.87413 76.0
79.895477 108.0
79.907928 56.0
79.931061 140.0
79.976288 252.0
80.002121 52.0
80.016502 196.0
80.069923 228.0
80.111908 160.0
80.180382 176.0
80.212471 116.0
80.22673 108.0
80.284943 148.0
80.310539 120.0
80.364059 92.0
80.411057 132.0
80.426521 144.0
80.446953 180.0
80.467583 376.0
80.514816 212.0
80.530083 208.0
80.562119 116.0
80.583679 188.0
80.622589 196.0
80.642647 136.0
80.681976 192.0
80.72847 128.0
80.769608 116.0
80.787491 288.0
80.816116 160.0
80.837593 72.0
80.856575 204.0
80.91993 136.0
80.934204 144.0
80.962906 108.0
81.018745 116.0
81.052483 96.0
81.066818 100.0
81.088318 124.0
81.106247 180.0
81.134926 152.0
81.158714 196.0
81.186928 168.0
81.235359 112.0
81.260475 28.0
81.29277 28.0
81.330467 112.0
81.348412 64.0
81.375343 124.0
81.433006 148.0
81.468735 256.0
81.495689 152.0
81.519043 236.0
81.536163 172.0
81.587349 136.0
81.608292 204.0
81.650284 88.0
81.67852 304.0
81.693794 168.0
81.719963 136.0
81.723076 232.0
81.730637 144.0
81.739494 184.0
81.744316 252.0
81.756432 396.0
81.797829 140.0
81.833832 148.0
81.851845 124.0
81.873451 132.0
81.887863 136.0
81.902267 184.0
81.945503 136.0
81.999207 120.0
82.077087 68.0
82.132996 184.0
82.158249 308.0
82.205162 120.0
82.228996 136.0
82.257507 116.0
82.310089 160.0
82.362244 140.0
82.374886 264.0
82.401184 144.0
82.443542 232.0
82.49054 144.0
82.512131 136.0
82.60479 156.0
82.629906 132.0
82.679817 56.0
82.710258 204.0
82.725716 116.0
82.745628 144.0
82.763199 148.0
82.799294 120.0
82.841614 84.0
82.85611 52.0
82.872414 40.0
82.886909 124.0
82.903221 96.0
82.935844 204.0
82.963036 116.0
82.987679 236.0
83.031937 204.0
83.064735 252.0
83.082771 164.0
83.120834 132.0
83.138977 164.0
83.157127 88.0
83.181862 96.0
83.188438 128.0
83.207962 136.0
83.226112 112.0
83.262436 156.0
83.278778 168.0
83.318748 116.0
83.360008 156.0
83.380531 176.0
83.423737 192.0
83.452316 180.0
83.476883 176.0
83.491272 140.0
83.507111 412.0
83.52417 148.0
83.547821 248.0
83.593307 112.0
83.640625 88.0
83.691971 200.0
83.720741 168.0
83.748062 136.0
83.77993 204.0
83.801659 104.0
83.879257 56.0
83.979828 208.0
84.03067 156.0
84.04705 164.0
84.065292 144.0
84.103622 232.0
84.129181 180.0
84.157616 180.0
84.193085 180.0
84.222313 144.0
84.251541 120.0
84.269096 144.0
84.299049 236.0
84.356117 160.0
84.388618 168.0
84.421532 44.0
84.443474 32.0
84.481415 124.0
84.511162 88.0
84.55928 92.0
84.577049 44.0
84.61515 128.0
84.653297 204.0
84.674088 72.0
84.727211 176.0
84.763855 140.0
84.803398 188.0
84.835342 140.0
84.851837 256.0
84.890343 108.0
84.945435 108.0
85.020287 164.0
85.046295 48.0
85.128937 176.0
85.160042 156.0
85.202065 136.0
85.253075 184.0
85.300758 144.0
85.345749 128.0
85.375443 192.0
85.411957 60.0
85.424835 140.0
85.465309 76.0
85.478188 192.0
85.491074 88.0
85.521523 184.0
85.538925 172.0
85.555496 212.0
85.572067 180.0
85.588638 108.0
85.613632 188.0
85.665451 176.0
85.677216 176.0
85.700996 188.0
85.74707 144.0
85.787621 88.0
85.811584 104.0
85.841972 144.0
85.865067 104.0
85.879822 108.0
85.896423 60.0
85.926712 96.0
85.970047 164.0
86.006805 176.0
86.14933 156.0
86.17704 148.0
86.197365 280.0
86.212151 176.0
86.231369 176.0
86.258362 104.0
86.275002 84.0
86.295334 144.0
86.32122 100.0
86.337868 124.0
86.364586 180.0
86.384109 96.0
86.42646 112.0
86.440796 220.0
86.474777 168.0
86.489586 100.0
86.508095 68.0
86.535866 184.0
86.643288 112.0
86.666344 108.0
86.695175 160.0
86.726677 224.0
86.758194 124.0
86.771973 180.0
86.831879 152.0
86.937111 96.0
86.955826 244.0
86.969444 132.0
87.001228 324.0
87.03093 140.0
87.0755 180.0
87.088501 60.0
87.10215 208.0
87.131233 96.0
87.164673 44.0
87.177681 132.0
87.196266 28.0
87.240883 140.0
87.330139 128.0
87.369507 124.0
87.38781 112.0
87.441772 176.0
87.454803 180.0
87.475281 196.0
87.504601 128.0
87.521828 164.0
87.652214 116.0
87.676857 240.0
87.728638 144.0
87.740875 156.0
87.754738 136.0
87.786179 116.0
87.817619 220.0
87.870377 132.0
87.903229 220.0
87.926353 88.0
87.956223 104.0
87.980301 320.0
88.003281 116.0
88.029037 84.0
88.072998 176.0
88.109352 152.0
88.156067 120.0
88.189713 104.0
88.267906 324.0
88.2901 92.0
88.349403 180.0
88.36924 136.0
88.382332 148.0
88.450867 212.0
88.494644 288.0
88.524658 132.0
88.577049 376.0
88.623886 148.0
88.642624 148.0
88.671768 188.0
88.694038 156.0
88.719467 124.0
88.750824 160.0
88.801979 104.0
88.820732 200.0
88.867088 204.0
88.892029 88.0
88.912674 204.0
88.950706 92.0
88.965233 148.0
88.999596 132.0
89.019638 156.0
89.042221 120.0
89.055367 188.0
89.087303 104.0
89.100449 72.0
89.128059 196.0
89.18364 224.0
89.200592 140.0
89.24176 108.0
89.263977 80.0
89.297829 144.0
89.316643 180.0
89.339218 192.0
89.369316 136.0
89.382492 192.0
89.416367 144.0
89.435188 236.0
89.463829 160.0
89.491661 352.0
89.511032 140.0
89.574532 172.0
89.595627 140.0
89.627281 164.0
89.640472 172.0
89.66497 184.0
89.681938 188.0
89.761124 136.0
89.803551 128.0
89.838509 128.0
89.859207 48.0
89.903221 180.0
89.917702 144.0
89.949791 108.0
89.970558 208.0
90.103371 236.0
90.142906 152.0
90.184021 104.0
90.208595 52.0
90.248352 132.0
90.273979 172.0
90.301247 200.0
90.344757 152.0
90.365562 192.0
90.378807 208.0
90.40519 132.0
90.428017 188.0
90.452507 120.0
90.475761 160.0
90.492378 176.0
90.516991 52.0
90.570023 216.0
90.583282 168.0
90.693192 96.0
90.732071 108.0
90.784195 200.0
90.829712 80.0
90.848686 100.0
90.899696 172.0
90.941666 228.0
90.979355 212.0
91.005234 124.0
91.054321 1644.0
91.084076 92.0
91.099274 176.0
91.205688 104.0
91.255119 168.0
91.28891 156.0
91.316452 208.0
91.359726 208.0
91.3806 140.0
91.416809 180.0
91.449158 88.0
91.481522 180.0
91.4981 136.0
91.517693 360.0
91.557686 140.0
91.579781 260.0
91.599586 116.0
91.616737 108.0
91.635788 116.0
91.706299 188.0
91.763489 152.0
91.793999 108.0
91.839767 152.0
91.854309 352.0
91.880783 144.0
92.004837 208.0
92.025642 152.0
92.059372 128.0
92.080261 176.0
92.105492 116.0
92.122284 136.0
92.170052 196.0
92.189163 128.0
92.223564 112.0
92.238853 164.0
92.303856 96.0
92.351669 84.0
92.399498 76.0
92.414803 168.0
92.437767 160.0
92.46936 124.0
92.497093 164.0
92.514328 184.0
92.564407 180.0
92.607552 140.0
92.629227 176.0
92.661049 196.0
92.692451 176.0
92.717369 68.0
92.744202 184.0
92.776787 112.0
92.817055 156.0
92.83239 248.0
92.849533 164.0
92.868835 104.0
92.934059 172.0
93.001228 148.0
93.03157 208.0
93.069603 1228.0
93.141403 60.0
93.200958 104.0
93.231705 152.0
93.267433 252.0
93.304749 136.0
93.322052 68.0
93.340073 140.0
93.347763 108.0
93.380356 112.0
93.398979 56.0
93.422523 168.0
93.457069 144.0
93.47834 160.0
93.497108 108.0
93.527565 152.0
93.554855 200.0
93.574104 104.0
93.626099 188.0
93.660767 168.0
93.70137 156.0
93.757103 168.0
93.770485 136.0
93.791794 188.0
93.828362 116.0
93.863281 156.0
93.882416 184.0
93.909416 32.0
93.944977 200.0
93.962791 128.0
93.986588 120.0
94.005882 72.0
94.042549 176.0
94.070419 156.0
94.105347 176.0
94.154533 200.0
94.25692 140.0
94.326653 52.0
94.377014 124.0
94.421806 200.0
94.454124 100.0
94.483147 124.0
94.514107 136.0
94.553215 124.0
94.566353 136.0
94.653473 92.0
94.66703 68.0
94.682526 140.0
94.734985 144.0
94.761345 160.0
94.775513 160.0
94.802475 140.0
94.847214 140.0
94.884048 156.0
94.909615 108.0
94.961617 208.0
94.994202 276.0
95.023697 344.0
95.083847 384.0
95.119484 224.0
95.125107 252.0
95.133675 288.0
95.178917 140.0
95.217995 128.0
95.252777 104.0
95.382973 104.0
95.408241 100.0
95.426468 204.0
95.473358 148.0
95.485878 104.0
95.511314 76.0
95.528816 160.0
95.54438 132.0
95.585243 164.0
95.608597 128.0
95.663094 124.0
95.68853 192.0
95.729294 152.0
95.746826 160.0
95.76046 132.0
95.785294 176.0
95.846458 196.0
95.883202 100.0
95.902695 164.0
95.959229 80.0
95.99334 144.0
96.011879 160.0
96.035286 432.0
96.08149 512.0
96.103561 140.0
96.178818 164.0
96.208954 212.0
96.228477 132.0
96.244659 252.0
96.324173 156.0
96.345459 112.0
96.34874 216.0
96.373016 124.0
96.421875 132.0
96.469673 168.0
96.537216 160.0
96.582207 128.0
96.611549 108.0
96.656548 180.0
96.689819 132.0
96.705475 212.0
96.747879 156.0
96.779869 220.0
96.796257 172.0
96.819031 124.0
96.83918 112.0
96.881432 84.0
96.922859 140.0
96.974663 148.0
96.993416 156.0
97.007133 52.0
97.020859 232.0
97.039703 820.0
97.074951 644.0
97.102104 184.0
97.152252 160.0
97.165291 124.0
97.192001 108.0
97.246445 160.0
97.306679 264.0
97.326439 204.0
97.334167 152.0
97.357063 192.0
97.390617 188.0
97.442627 120.0
97.445213 128.0
97.456886 176.0
97.513565 196.0
97.54895 180.0
97.58683 216.0
97.632652 196.0
97.708244 120.0
97.766716 140.0
97.775711 112.0
97.77977 172.0
97.799011 192.0
97.842079 140.0
97.869537 76.0
97.960609 232.0
97.975166 104.0
97.993729 124.0
98.049759 320.0
98.069778 204.0
98.073738 120.0
98.082413 156.0
98.102127 72.0
98.313179 148.0
98.405952 132.0
98.437294 156.0
98.454475 160.0
98.469147 188.0
98.518532 96.0
98.547096 152.0
98.565948 76.0
98.583733 140.0
98.597572 112.0
98.611404 132.0
98.645004 148.0
98.672234 192.0
98.677711 148.0
98.714737 180.0
98.828941 124.0
98.854668 248.0
98.874451 204.0
98.896225 152.0
98.929878 104.0
99.004082 168.0
99.022942 92.0
99.053963 248.0
99.068504 224.0
99.089317 156.0
99.148529 104.0
99.169159 196.0
99.189514 124.0
99.213173 132.0
99.24292 148.0
99.274643 120.0
99.308357 40.0
99.345688 176.0
99.385727 88.0
99.437737 156.0
99.465942 196.0
99.501801 92.0
99.568367 188.0
99.590637 168.0
99.614052 160.0
99.627953 96.0
99.655769 200.0
99.717377 180.0
99.741058 188.0
99.812798 72.0
99.828011 136.0
99.836571 88.0
99.843536 132.0
99.866501 108.0
99.920212 164.0
99.948067 100.0
99.979904 116.0
100.001801 140.0
100.05616 168.0
100.095367 108.0
100.257118 164.0
100.304565 88.0
100.329437 236.0
100.411415 164.0
100.442154 92.0
100.540817 196.0
100.563873 168.0
100.593025 140.0
100.621765 36.0
100.662926 196.0
100.718513 312.0
100.763573 48.0
100.825539 264.0
100.847504 124.0
100.883484 168.0
100.952751 156.0
100.981468 172.0
101.001297 236.0
101.023476 152.0
101.038475 104.0
101.061485 124.0
101.085495 284.0
101.1091 156.0
101.158806 144.0
101.213615 144.0
101.237747 152.0
101.282051 92.0
101.412949 224.0
101.437759 132.0
101.440605 188.0
101.478104 120.0
101.579308 180.0
101.594429 156.0
101.664658 140.0
101.706802 152.0
101.763016 108.0
101.811211 100.0
101.847359 32.0
101.869461 148.0
101.910362 200.0
101.980469 180.0
101.995491 156.0
102.014191 212.0
102.042297 144.0
102.091515 184.0
102.118416 192.0
102.142776 104.0
102.161263 132.0
102.183083 220.0
102.198654 168.0
102.22937 168.0
102.257545 184.0
102.287735 160.0
102.326851 140.0
102.383911 244.0
102.404526 88.0
102.440781 112.0
102.466591 156.0
102.495178 100.0
102.535484 132.0
102.628052 196.0
102.654099 104.0
102.669785 172.0
102.705444 192.0
102.727234 168.0
102.763855 212.0
102.806671 172.0
102.850136 104.0
102.871895 200.0
102.894547 228.0
102.934929 64.0
102.977341 144.0
102.992722 208.0
103.015244 168.0
103.027695 268.0
103.054787 1876.0
103.118118 136.0
103.185486 140.0
103.207726 156.0
103.243164 168.0
103.260887 180.0
103.292671 164.0
103.323013 136.0
103.358513 76.0
103.385742 72.0
103.471123 156.0
103.498985 68.0
103.525429 192.0
103.543655 104.0
103.55986 92.0
103.583519 144.0
103.601929 52.0
103.626709 132.0
103.646141 156.0
103.729202 252.0
103.756424 128.0
103.795563 292.0
103.825371 96.0
103.858818 128.0
103.926208 124.0
103.961876 140.0
103.989708 128.0
104.021019 152.0
104.056229 552.0
104.091217 48.0
104.10746 124.0
104.141991 124.0
104.202278 176.0
104.221222 184.0
104.26593 140.0
104.290955 204.0
104.314713 84.0
104.333008 100.0
104.385872 60.0
104.437759 148.0
104.481476 148.0
104.495712 88.0
104.509956 76.0
104.534378 220.0
104.579147 156.0
104.623932 176.0
104.643799 164.0
104.662621 172.0
104.678154 140.0
104.720505 208.0
104.821503 96.0
104.848 104.0
104.896919 184.0
104.919342 188.0
104.951965 144.0
104.968277 188.0
104.995682 128.0
105.039665 128.0
105.068916 608.0
105.106987 84.0
105.12944 84.0
105.186584 168.0
105.217209 124.0
105.233543 80.0
105.253311 176.0
105.278931 212.0
105.329529 224.0
105.343826 224.0
105.366302 100.0
105.390816 100.0
105.412445 172.0
105.437912 180.0
105.493439 152.0
105.511406 132.0
105.550797 136.0
105.599342 192.0
105.619797 104.0
105.651924 208.0
105.681168 148.0
105.69754 48.0
105.720047 132.0
105.735519 100.0
105.806023 120.0
105.835999 144.0
105.904312 144.0
105.93811 144.0
105.943123 72.0
105.951492 140.0
105.976013 108.0
106.010078 212.0
106.049789 164.0
106.07164 132.0
106.117805 136.0
106.218834 192.0
106.243027 120.0
106.300003 108.0
106.326683 240.0
106.351311 184.0
106.377495 180.0
106.427269 100.0
106.445503 232.0
106.503258 68.0
106.548454 152.0
106.575165 208.0
106.589546 148.0
106.618195 136.0
106.629875 128.0
106.7211 40.0
106.735497 104.0
106.749886 108.0
106.768394 92.0
106.788963 204.0
106.825989 140.0
106.850349 100.0
106.877426 164.0
106.900063 84.0
106.932991 128.0
106.984451 116.0
107.020462 172.0
107.032326 112.0
107.051338 116.0
107.080299 344.0
107.124489 164.0
107.143028 164.0
107.159103 300.0
107.211029 52.0
107.225456 96.0
107.251183 224.0
107.263321 172.0
107.290604 132.0
107.309975 116.0
107.330925 104.0
107.394737 140.0
107.448158 136.0
107.489426 112.0
107.518318 104.0
107.561264 144.0
107.578011 164.0
107.591866 276.0
107.625664 212.0
107.644249 152.0
107.658707 132.0
107.706215 60.0
107.7248 52.0
107.751663 200.0
107.777611 96.0
107.819504 168.0
107.877632 232.0
107.882675 160.0
107.891525 208.0
107.916 156.0
107.945267 244.0
107.982643 168.0
107.998047 156.0
108.032829 60.0
108.055733 116.0
108.1632 192.0
108.188042 88.0
108.219101 116.0
108.233589 168.0
108.251312 136.0
108.266724 200.0
108.289505 164.0
108.310219 160.0
108.349251 124.0
108.368225 120.0
108.413658 160.0
108.446976 80.0
108.475998 128.0
108.521606 76.0
108.635841 164.0
108.675766 136.0
108.707069 128.0
108.741508 168.0
108.756035 208.0
108.86335 128.0
108.893074 188.0
108.930458 152.0
108.961624 140.0
108.992058 256.0
109.00647 192.0
109.078484 364.0
109.132057 60.0
109.149628 132.0
109.192146 116.0
109.246445 204.0
109.261009 132.0
109.281815 132.0
109.331757 160.0
109.35881 148.0
109.408775 196.0
109.43792 124.0
109.46209 152.0
109.483734 180.0
109.589973 116.0
109.618805 220.0
109.677574 176.0
109.774269 184.0
109.848495 148.0
109.883453 148.0
109.965347 184.0
109.994568 172.0
110.015533 152.0
110.036324 164.0
110.050934 120.0
110.079498 444.0
110.128204 108.0
110.16259 132.0
110.182518 108.0
110.221649 176.0
110.237473 188.0
110.274467 72.0
110.324638 116.0
110.346886 168.0
110.387978 180.0
110.425003 188.0
110.473114 172.0
110.634262 172.0
110.657837 196.0
110.697075 44.0
110.720108 72.0
110.749557 136.0
110.776665 112.0
110.837212 116.0
110.840973 104.0
110.87558 156.0
110.897675 128.0
110.921822 120.0
110.95356 156.0
110.996246 120.0
111.055489 280.0
111.091225 1948.0
111.151962 52.0
111.170853 128.0
111.186096 156.0
111.210732 260.0
111.225418 112.0
111.242218 160.0
111.292603 104.0
111.316673 208.0
111.347206 120.0
111.373871 388.0
111.422829 108.0
111.471413 132.0
111.491394 184.0
111.532974 220.0
111.618301 88.0
111.643539 148.0
111.710846 104.0
111.729721 148.0
111.786591 144.0
111.853004 180.0
111.896042 240.0
111.93605 40.0
111.980278 104.0
112.049301 916.0
112.091362 236.0
112.14814 308.0
112.163597 120.0
112.191002 52.0
112.223724 192.0
112.247925 176.0
112.272751 140.0
112.279877 108.0
112.284431 156.0
112.313599 144.0
112.349167 48.0
112.416916 140.0
112.439903 152.0
112.503227 216.0
112.528564 100.0
112.57502 72.0
112.592506 100.0
112.637733 156.0
112.70388 200.0
112.71978 204.0
112.779961 84.0
112.812546 212.0
112.833984 140.0
112.881439 84.0
112.908936 96.0
112.96524 156.0
113.006523 152.0
113.059509 244.0
113.084541 84.0
113.10994 144.0
113.15863 184.0
113.182678 224.0
113.211571 144.0
113.239105 132.0
113.300537 224.0
113.393776 168.0
113.419205 112.0
113.434044 72.0
113.451004 120.0
113.504456 172.0
113.523094 104.0
113.537613 392.0
113.597229 200.0
113.657394 208.0
113.702698 168.0
113.729904 168.0
113.792587 204.0
113.817215 136.0
113.841362 132.0
113.856354 132.0
113.886024 108.0
113.956131 124.0
114.04113 112.0
114.064865 220.0
114.094276 68.0
114.130219 168.0
114.179337 108.0
114.236763 128.0
114.29847 72.0
114.341026 76.0
114.377815 212.0
114.400627 44.0
114.421921 152.0
114.440216 168.0
114.466125 152.0
114.500282 100.0
114.514885 232.0
114.548775 176.0
114.688202 256.0
114.704559 184.0
114.761864 148.0
114.842514 152.0
114.947891 152.0
114.965469 256.0
114.99646 192.0
115.004189 200.0
115.056976 152.0
115.093552 136.0
115.166168 108.0
115.182419 168.0
115.200348 116.0
115.215302 124.0
115.259178 164.0
115.337105 72.0
115.394829 84.0
115.451851 200.0
115.469673 160.0
115.506035 188.0
115.604454 120.0
115.623718 44.0
115.640839 224.0
115.666527 140.0
115.700775 144.0
115.764114 124.0
115.822845 124.0
115.887436 188.0
115.919258 192.0
115.947113 44.0
116.000702 180.0
116.073601 104.0
116.088608 168.0
116.133652 192.0
116.189423 56.0
116.24736 128.0
116.273109 80.0
116.330078 164.0
116.370468 216.0
116.386887 140.0
116.464203 156.0
116.517906 60.0
116.560883 124.0
116.578072 148.0
116.634331 184.0
116.68985 64.0
116.710625 224.0
116.728554 128.0
116.745758 216.0
116.762665 172.0
116.802994 164.0
116.847595 152.0
116.902802 224.0
116.930779 372.0
116.952751 120.0
116.990318 188.0
117.019043 36.0
117.057159 148.0
117.087952 176.0
117.137489 120.0
117.18644 216.0
117.271088 132.0
117.295227 100.0
117.359474 124.0
117.387505 232.0
117.426888 200.0
117.473541 144.0
117.525558 144.0
117.564407 128.0
117.614044 140.0
117.670174 184.0
117.708679 144.0
117.732796 160.0
117.825676 144.0
117.863983 176.0
117.879265 320.0
117.905632 144.0
117.920761 128.0
118.0653 328.0
118.070457 268.0
118.104546 172.0
118.136658 76.0
118.165123 120.0
118.180946 128.0
118.199097 132.0
118.21489 148.0
118.24086 88.0
118.262505 256.0
118.286316 44.0
118.306778 124.0
118.338791 184.0
118.366425 160.0
118.395638 116.0
118.438667 168.0
118.494217 84.0
118.511551 132.0
118.533218 204.0
118.547409 124.0
118.565727 164.0
118.585236 136.0
118.695801 164.0
118.710976 88.0
118.726158 116.0
118.784721 132.0
118.812569 148.0
118.819016 124.0
118.892265 332.0
118.934799 148.0
118.953987 116.0
119.070663 432.0
119.098137 104.0
119.106979 132.0
119.112877 164.0
119.142921 160.0
119.255623 116.0
119.26123 208.0
119.28418 152.0
119.305916 48.0
119.323311 352.0
119.351578 168.0
119.379845 68.0
119.395065 160.0
119.438568 180.0
119.514717 136.0
119.558235 44.0
119.573471 172.0
119.590248 124.0
119.627892 204.0
119.645302 120.0
119.673607 212.0
119.723694 120.0
119.771614 108.0
119.799927 176.0
119.815178 72.0
119.887085 172.0
119.924141 164.0
119.952477 252.0
119.972092 136.0
120.001915 268.0
120.057861 308.0
120.097267 160.0
120.142204 156.0
120.224136 160.0
120.261383 168.0
120.291504 152.0
120.369202 52.0
120.417183 164.0
120.456558 96.0
120.491516 80.0
120.516533 116.0
120.608368 148.0
120.648872 212.0
120.686043 180.0
120.747276 176.0
120.798553 180.0
120.821648 264.0
120.8479 288.0
120.869781 108.0
120.929764 156.0
120.963898 144.0
120.990166 156.0
121.025826 172.0
121.041618 64.0
121.064697 14352.0
121.11657 108.0
121.147301 64.0
121.169754 48.0
121.194466 188.0
121.225769 192.0
121.300385 196.0
121.357109 184.0
121.384972 276.0
121.419655 32.0
121.472511 140.0
121.504936 328.0
121.553955 200.0
121.601753 176.0
121.636871 120.0
121.678589 176.0
121.693954 116.0
121.722504 36.0
121.746323 132.0
121.788391 128.0
121.845078 144.0
121.878365 88.0
121.9356 148.0
121.957581 272.0
122.000687 176.0
122.041122 204.0
122.066994 1128.0
122.109291 132.0
122.133484 168.0
122.154205 268.0
122.184082 204.0
122.210487 168.0
122.258568 160.0
122.287582 116.0
122.318329 228.0
122.34417 260.0
122.401993 40.0
122.417404 156.0
122.449554 180.0
122.476868 84.0
122.547371 100.0
122.60907 112.0
122.632652 160.0
122.678482 196.0
122.699448 184.0
122.714882 128.0
122.752365 96.0
122.79216 496.0
122.850861 220.0
122.884712 116.0
122.972984 160.0
122.992851 76.0
123.021545 140.0
123.052307 212.0
123.070396 160.0
123.091095 128.0
123.117523 180.0
123.154037 124.0
123.171715 224.0
123.191589 48.0
123.21846 192.0
123.262299 156.0
123.295746 148.0
123.315338 88.0
123.333015 132.0
123.39492 60.0
123.503281 112.0
123.538673 120.0
123.565224 212.0
123.587349 160.0
123.639084 296.0
123.673653 168.0
123.726784 100.0
123.742287 200.0
123.764427 160.0
123.782143 148.0
123.831734 172.0
123.892792 184.0
123.94606 120.0
123.99482 216.0
124.051483 1240.0
124.081825 136.0
124.155556 176.0
124.195427 148.0
124.223206 136.0
124.251831 340.0
124.27211 176.0
124.292923 376.0
124.345245 108.0
124.377243 212.0
124.405174 64.0
124.458466 180.0
124.478989 196.0
124.541367 140.0
124.571869 196.0
124.593948 52.0
124.65683 80.0
124.691719 144.0
124.831779 216.0
124.847351 132.0
124.878487 160.0
124.929649 120.0
125.013268 176.0
125.027344 404.0
125.061119 1384.0
125.106201 164.0
125.165573 44.0
125.210678 188.0
125.241295 84.0
125.260582 188.0
125.269539 124.0
125.310356 112.0
125.37468 332.0
125.39949 84.0
125.4151 120.0
125.452995 116.0
125.468597 164.0
125.499809 180.0
125.529427 156.0
125.56002 224.0
125.611816 260.0
125.716194 140.0
125.731812 120.0
125.767525 92.0
125.795677 72.0
125.821571 132.0
125.835464 120.0
125.883469 108.0
125.907242 132.0
125.92878 164.0
125.947472 300.0
126.002007 84.0
126.026733 180.0
126.067017 20724.0
126.115051 136.0
126.138237 120.0
126.155518 64.0
126.171524 136.0
126.225868 184.0
126.253807 168.0
126.323723 168.0
126.355499 112.0
126.388855 220.0
126.42318 124.0
126.439743 168.0
126.471184 164.0
126.502228 280.0
126.526787 100.0
126.543259 192.0
126.563416 152.0
126.595528 152.0
126.647057 160.0
126.67717 168.0
126.720779 188.0
126.737465 148.0
126.772118 48.0
126.799408 208.0
126.850861 120.0
126.884583 128.0
126.99218 136.0
127.029366 364.0
127.068665 1948.0
127.126068 132.0
127.179932 108.0
127.231567 172.0
127.33149 192.0
127.405602 228.0
127.449432 152.0
127.467407 100.0
127.516853 236.0
127.537613 236.0
127.557114 196.0
127.588783 80.0
127.611206 148.0
127.658485 168.0
127.686394 216.0
127.702827 224.0
127.727554 192.0
127.761955 244.0
127.784454 192.0
127.819267 152.0
127.840706 176.0
127.856461 52.0
127.888084 80.0
127.922256 156.0
127.953255 212.0
128.007294 160.0
128.041077 140.0
128.070953 408.0
128.09964 76.0
128.115967 128.0
128.189758 96.0
128.25061 108.0
128.299789 108.0
128.345306 176.0
128.376877 260.0
128.403931 188.0
128.428741 212.0
128.444534 124.0
128.464844 124.0
128.482895 196.0
128.588943 220.0
128.629578 120.0
128.64537 104.0
128.678391 192.0
128.69957 144.0
128.740204 72.0
128.796402 236.0
128.861359 120.0
128.891571 108.0
129.036224 184.0
129.070145 132.0
129.085968 156.0
129.113113 132.0
129.15834 36.0
129.204498 196.0
129.223953 168.0
129.269211 132.0
129.294098 124.0
129.364273 136.0
129.400497 156.0
129.481049 120.0
129.509186 100.0
129.529587 148.0
129.553192 188.0
129.60434 128.0
129.656464 108.0
129.683624 236.0
129.762146 184.0
129.794754 192.0
129.862473 144.0
129.950439 132.0
129.966507 300.0
129.987564 136.0
130.028229 244.0
130.06044 144.0
130.116882 148.0
130.122879 144.0
130.132248 92.0
130.272385 136.0
130.359985 176.0
130.395111 224.0
130.425903 112.0
130.479233 140.0
130.563232 136.0
130.579895 212.0
130.603256 96.0
130.62146 228.0
130.651031 88.0
130.71019 148.0
130.748871 148.0
130.7771 232.0
130.810333 316.0
130.851273 200.0
130.855072 196.0
130.88002 204.0
130.888916 124.0
130.929626 324.0
131.003906 128.0
131.026016 108.0
131.066315 92.0
131.097321 140.0
131.133789 160.0
131.221359 144.0
131.238647 160.0
131.293381 188.0
131.325531 328.0
131.361176 72.0
131.393021 168.0
131.467453 148.0
131.489594 120.0
131.519257 184.0
131.553497 112.0
131.586792 76.0
131.660233 128.0
131.692795 140.0
131.7202 92.0
131.743057 108.0
131.781891 132.0
131.813004 188.0
131.853683 212.0
131.882446 168.0
131.914444 132.0
131.980743 88.0
132.026489 80.0
132.064957 180.0
132.073654 148.0
132.097397 236.0
132.133408 156.0
132.139755 116.0
132.187927 140.0
132.211792 132.0
132.236969 76.0
132.25528 92.0
132.280457 204.0
132.362885 124.0
132.41098 168.0
132.429306 80.0
132.51236 220.0
132.580521 100.0
132.61261 68.0
132.669907 96.0
132.76622 144.0
132.78685 108.0
132.838303 140.0
132.888168 156.0
132.907227 248.0
133.024246 288.0
133.064865 1732.0
133.098969 124.0
133.155228 188.0
133.177048 200.0
133.206909 104.0
133.273026 164.0
133.38797 136.0
133.480408 260.0
133.508011 96.0
133.524109 344.0
133.594147 160.0
133.611526 40.0
133.638123 136.0
133.661133 272.0
133.72197 264.0
133.762482 160.0
133.786423 216.0
133.818665 160.0
133.848602 88.0
133.868439 220.0
133.887741 60.0
133.996201 100.0
134.039795 108.0
134.067444 388.0
134.090485 124.0
134.119888 212.0
134.15773 164.0
134.194229 32.0
134.210373 200.0
134.293381 172.0
134.337219 232.0
134.381058 144.0
134.469269 200.0
134.484436 148.0
134.613739 304.0
134.642609 92.0
134.718948 244.0
134.741226 76.0
134.789749 124.0
134.822754 120.0
134.877579 100.0
134.912247 140.0
134.942307 148.0
134.962784 136.0
135.009369 204.0
135.039429 208.0
135.080124 1556.0
135.14183 168.0
135.159729 144.0
135.245972 304.0
135.291656 44.0
135.393539 216.0
135.42366 152.0
135.438141 140.0
135.48851 180.0
135.510773 172.0
135.53949 156.0
135.55571 172.0
135.576569 136.0
135.591919 148.0
135.659698 148.0
135.694794 160.0
135.773636 136.0
135.838577 140.0
135.959549 148.0
136.014938 124.0
136.042786 160.0
136.08432 144.0
136.131027 36.0
136.163528 148.0
136.179794 152.0
136.212311 124.0
136.242508 104.0
136.279694 272.0
136.308701 220.0
136.33429 220.0
136.379623 132.0
136.412155 160.0
136.444458 184.0
136.461517 256.0
136.516785 180.0
136.533066 100.0
136.614487 192.0
136.651077 164.0
136.733154 56.0
136.791351 72.0
136.824753 320.0
136.87587 144.0
136.881516 44.0
136.890686 132.0
136.92421 148.0
136.949692 188.0
136.970657 192.0
137.025467 168.0
137.105225 116.0
137.155899 328.0
137.19902 168.0
137.222336 80.0
137.287628 92.0
137.320282 172.0
137.349182 204.0
137.368927 160.0
137.378387 136.0
137.385727 152.0
137.412292 136.0
137.444489 108.0
137.564346 208.0
137.596756 224.0
137.64151 144.0
137.683914 80.0
137.754456 128.0
137.794174 92.0
137.81987 136.0
137.838562 184.0
137.85321 176.0
137.878296 132.0
137.913055 192.0
137.969818 156.0
138.010956 816.0
138.066299 3352.0
138.102585 7680.0
138.147186 144.0
138.229614 104.0
138.262177 180.0
138.287598 156.0
138.315674 168.0
138.356384 172.0
138.409561 156.0
138.544891 164.0
138.597687 116.0
138.65062 156.0
138.699844 160.0
138.720932 40.0
138.745056 124.0
138.760788 184.0
138.871017 144.0
138.889771 136.0
138.908539 132.0
138.98877 204.0
138.999573 40.0
139.004257 196.0
139.019852 264.0
139.082306 612.0
139.105392 104.0
139.108551 852.0
139.144608 108.0
139.225403 44.0
139.244202 272.0
139.298218 128.0
139.354568 204.0
139.371857 128.0
139.37677 260.0
139.413361 188.0
139.439713 112.0
139.50267 156.0
139.530884 176.0
139.571304 168.0
139.610825 136.0
139.629639 204.0
139.650818 88.0
139.685028 124.0
139.735504 128.0
139.759506 224.0
139.777863 148.0
139.816727 140.0
139.874039 152.0
139.899139 248.0
139.945236 180.0
139.987366 132.0
140.006821 624.0
140.039185 176.0
140.082382 50824.0
140.137253 108.0
140.167526 156.0
140.193649 152.0
140.214355 92.0
140.247299 244.0
140.284241 68.0
140.31076 64.0
140.345291 76.0
140.369125 76.0
140.391922 60.0
140.418655 176.0
140.441681 136.0
140.470093 176.0
140.510651 120.0
140.527802 132.0
140.566177 284.0
140.587341 48.0
140.61731 84.0
140.646042 128.0
140.69899 100.0
140.737228 204.0
140.763428 88.0
140.81044 44.0
140.842499 64.0
140.888397 164.0
140.924225 388.0
140.964005 112.0
140.998734 184.0
141.015579 136.0
141.085678 2436.0
141.148392 36.0
141.21933 300.0
141.264282 124.0
141.294754 180.0
141.312347 216.0
141.369034 88.0
141.39679 116.0
141.41983 52.0
141.474899 52.0
141.496201 28.0
141.55304 104.0
141.569611 40.0
141.615936 128.0
141.647812 172.0
141.677658 324.0
141.726562 236.0
141.752029 172.0
141.804153 112.0
141.83168 296.0
141.866562 184.0
141.933594 164.0
141.951416 144.0
142.002975 244.0
142.027893 208.0
142.071884 80.0
142.078995 120.0
142.096497 532.0
142.119385 52.0
142.151764 168.0
142.177292 140.0
142.216125 152.0
142.253769 176.0
142.276215 108.0
142.305618 104.0
142.337097 152.0
142.355759 144.0
142.368866 200.0
142.387085 168.0
142.426834 112.0
142.47435 192.0
142.49765 136.0
142.514648 124.0
142.562927 96.0
142.587387 44.0
142.632553 372.0
142.679047 172.0
142.718201 108.0
142.737167 144.0
142.784729 124.0
142.825165 152.0
142.867203 232.0
142.901291 144.0
142.92746 72.0
142.96077 112.0
142.984573 48.0
143.001236 48.0
143.069229 148.0
143.09169 156.0
143.106674 124.0
143.19873 148.0
143.240311 124.0
143.258408 136.0
143.277985 260.0
143.332275 140.0
143.399002 68.0
143.487198 144.0
143.512421 208.0
143.537277 188.0
143.568268 128.0
143.592117 164.0
143.68515 132.0
143.702896 148.0
143.790146 212.0
143.861755 132.0
143.911896 124.0
143.928604 220.0
143.976944 100.0
143.98468 108.0
143.993774 152.0
144.019363 176.0
144.050201 136.0
144.075241 120.0
144.106857 208.0
144.167099 120.0
144.217682 196.0
144.236801 180.0
144.267883 28.0
144.302078 184.0
144.319138 168.0
144.351562 192.0
144.377411 224.0
144.41507 196.0
144.503952 232.0
144.532806 152.0
144.602768 152.0
144.638718 132.0
144.679367 128.0
144.703308 60.0
144.758392 116.0
144.78743 156.0
144.818268 148.0
144.92128 160.0
144.966797 296.0
144.990768 124.0
145.091446 264.0
145.179321 204.0
145.232925 164.0
145.256912 100.0
145.309692 120.0
145.364883 348.0
145.434479 104.0
145.456024 148.0
145.49736 292.0
145.590546 160.0
145.626572 120.0
145.672073 144.0
145.767365 144.0
145.816391 176.0
145.854843 132.0
145.919754 36.0
145.970245 120.0
146.046906 192.0
146.073669 116.0
146.210266 248.0
146.245529 180.0
146.289749 152.0
146.310059 144.0
146.360077 168.0
146.381744 188.0
146.40274 156.0
146.449173 148.0
146.543137 32.0
146.567749 112.0
146.596146 104.0
146.635513 72.0
146.658813 72.0
146.73497 128.0
146.767288 148.0
146.791412 156.0
146.821655 132.0
146.8526 216.0
146.890289 120.0
146.943375 56.0
146.99469 192.0
147.03894 196.0
147.083344 172.0
147.099442 144.0
147.149872 164.0
147.22113 116.0
147.278931 136.0
147.324829 172.0
147.341736 52.0
147.457733 188.0
147.501236 192.0
147.519348 156.0
147.547165 168.0
147.603836 304.0
147.631805 252.0
147.653564 212.0
147.710358 168.0
147.727005 144.0
147.793884 180.0
147.846207 308.0
147.902786 64.0
147.975403 76.0
148.023834 100.0
148.040787 92.0
148.062592 48.0
148.079544 256.0
148.136108 192.0
148.156998 152.0
148.21521 112.0
148.239441 132.0
148.261246 196.0
148.28064 136.0
148.316986 144.0
148.355774 112.0
148.382446 108.0
148.426086 136.0
148.462463 128.0
148.574051 100.0
148.608017 48.0
148.653198 212.0
148.77063 120.0
148.82933 156.0
148.901749 148.0
148.934769 152.0
148.957611 100.0
148.986771 168.0
149.02742 164.0
149.051727 152.0
149.079102 196.0
149.110977 168.0
149.131149 216.0
149.156876 172.0
149.178619 76.0
149.23877 140.0
149.268707 104.0
149.29303 164.0
149.33371 104.0
149.379547 224.0
149.424393 96.0
149.475479 44.0
149.519287 124.0
149.550934 104.0
149.645874 40.0
149.801956 156.0
149.823669 60.0
149.887009 140.0
149.911377 124.0
149.943069 116.0
149.998032 116.0
150.072449 108.0
150.16275 152.0
150.173538 256.0
150.182617 340.0
150.228363 84.0
150.247879 112.0
150.279587 104.0
150.310089 128.0
150.336548 164.0
150.365005 176.0
150.412598 184.0
150.457764 152.0
150.491943 148.0
150.520493 104.0
150.543228 236.0
150.616791 100.0
150.660309 124.0
150.695587 236.0
150.739304 120.0
150.772705 124.0
150.868195 32.0
150.914658 228.0
150.946442 112.0
151.014923 160.0
151.034256 140.0
151.083572 244.0
151.109558 140.0
151.135849 92.0
151.1427 120.0
151.165543 176.0
151.290619 84.0
151.396378 180.0
151.423615 184.0
151.447937 216.0
151.489807 156.0
151.524094 140.0
151.553497 108.0
151.570648 172.0
151.595154 96.0
151.616623 164.0
151.698105 136.0
151.727524 28.0
151.792053 188.0
151.827606 176.0
151.83371 144.0
151.879562 176.0
151.911453 268.0
151.928619 264.0
151.96347 176.0
152.026779 96.0
152.053986 132.0
152.082108 7640.0
152.123566 420.0
152.159317 120.0
152.225616 48.0
152.242813 52.0
152.272278 44.0
152.322433 164.0
152.357437 104.0
152.390457 116.0
152.414764 104.0
152.448105 128.0
152.479187 188.0
152.502945 168.0
152.572067 92.0
152.606491 128.0
152.631088 164.0
152.667969 140.0
152.690109 120.0
152.712234 124.0
152.762405 136.0
152.808777 232.0
152.845093 40.0
152.872162 48.0
152.909073 144.0
152.938614 144.0
153.005081 216.0
153.025833 112.0
153.03627 48.0
153.040771 96.0
153.058258 172.0
153.089905 37908.0
153.131607 220.0
153.149826 216.0
153.168564 80.0
153.206375 180.0
153.239792 68.0
153.283051 120.0
153.34053 44.0
153.360916 80.0
153.412933 152.0
153.466629 36.0
153.496506 128.0
153.552597 212.0
153.595139 120.0
153.616257 84.0
153.639328 68.0
153.654892 188.0
153.703644 124.0
153.737076 132.0
153.761841 180.0
153.788574 192.0
153.825012 228.0
153.878204 116.0
153.896545 84.0
153.939468 252.0
153.959351 256.0
153.985489 152.0
154.004593 224.0
154.041245 3784.0
154.098282 69584.0
154.159668 116.0
154.204239 64.0
154.226654 216.0
154.256165 128.0
154.292114 216.0
154.319916 172.0
154.336563 136.0
154.370148 52.0
154.376511 100.0
154.418121 264.0
154.434875 120.0
154.47554 100.0
154.504456 592.0
154.537079 148.0
154.570587 168.0
154.591003 148.0
154.639771 228.0
154.666885 88.0
154.704224 176.0
154.749741 272.0
154.788651 208.0
154.811157 128.0
154.849701 192.0
154.86795 196.0
154.889954 32.0
154.926498 56.0
154.96048 168.0
155.007355 88.0
155.046432 248.0
155.100739 7876.0
155.149536 172.0
155.166733 60.0
155.187271 224.0
155.232513 196.0
155.260437 100.0
155.305328 200.0
155.328094 56.0
155.380188 48.0
155.419235 60.0
155.463745 212.0
155.484406 36.0
155.507751 228.0
155.54895 104.0
155.613495 68.0
155.664764 136.0
155.700409 108.0
155.72525 40.0
155.764984 172.0
155.826416 132.0
155.851135 204.0
155.885681 160.0
155.913651 96.0
155.922638 80.0
155.964371 148.0
156.038406 500.0
156.101456 964.0
156.15773 320.0
156.197937 48.0
156.218475 88.0
156.235641 124.0
156.288132 144.0
156.309952 232.0
156.352753 72.0
156.3871 172.0
156.405746 168.0
156.457748 256.0
156.49617 176.0
156.633148 244.0
156.653076 128.0
156.692703 172.0
156.731171 220.0
156.770172 80.0
156.805817 172.0
156.825775 128.0
156.84993 76.0
156.871582 152.0
156.902039 120.0
156.927216 96.0
157.004517 176.0
157.035858 120.0
157.12529 96.0
157.164169 60.0
157.197357 296.0
157.231552 120.0
157.294952 152.0
157.329361 204.0
157.367294 204.0
157.398819 236.0
157.441956 156.0
157.476654 120.0
157.519928 160.0
157.568665 132.0
157.628632 128.0
157.650162 52.0
157.681107 88.0
157.804382 188.0
157.822678 152.0
157.848618 188.0
157.941147 232.0
157.974243 176.0
158.084564 88.0
158.171173 52.0
158.228516 164.0
158.27771 100.0
158.420959 208.0
158.460617 184.0
158.499451 192.0
158.667389 68.0
158.711624 180.0
158.74762 48.0
158.813522 132.0
158.975906 128.0
158.993484 172.0
159.021088 216.0
159.038651 40.0
159.076309 300.0
159.093887 180.0
159.132263 152.0
159.186783 168.0
159.224457 128.0
159.450577 68.0
159.498322 180.0
159.523468 172.0
159.546097 104.0
159.573441 164.0
159.651276 168.0
159.792572 172.0
159.845413 392.0
159.895737 152.0
159.936005 112.0
159.961182 212.0
160.069443 140.0
160.107224 180.0
160.207291 148.0
160.232254 132.0
160.278519 200.0
160.328918 316.0
160.349091 156.0
160.396973 124.0
160.474167 136.0
160.546326 136.0
160.563843 176.0
160.596176 104.0
160.64772 212.0
160.67691 144.0
160.83194 236.0
160.90152 132.0
160.949493 156.0
161.007858 180.0
161.042938 32.0
161.09465 392.0
161.128555 148.0
161.176834 112.0
161.252655 140.0
161.27388 156.0
161.293091 112.0
161.310791 100.0
161.363876 76.0
161.411514 196.0
161.453781 108.0
161.504593 156.0
161.551559 116.0
161.639587 144.0
161.664886 184.0
161.700317 88.0
161.750153 128.0
161.769989 208.0
161.796646 140.0
161.833176 172.0
161.887665 152.0
162.06636 96.0
162.10553 180.0
162.234802 96.0
162.260147 220.0
162.303253 80.0
162.352356 256.0
162.447296 136.0
162.470474 112.0
162.615295 72.0
162.651184 228.0
162.722473 352.0
162.757462 224.0
162.930176 152.0
162.963211 84.0
162.983536 128.0
163.076248 100.0
163.171616 136.0
163.274338 124.0
163.334106 184.0
163.369995 176.0
163.420883 132.0
163.536865 140.0
163.556015 120.0
163.595413 148.0
163.628387 136.0
163.7108 220.0
163.744186 164.0
163.767792 132.0
163.818497 68.0
163.90213 188.0
163.922516 156.0
163.978577 176.0
164.023148 140.0
164.031357 180.0
164.081818 216.0
164.172348 52.0
164.223358 84.0
164.322083 320.0
164.362 104.0
164.508163 124.0
164.565323 92.0
164.646805 132.0
164.695557 160.0
164.72876 240.0
164.787521 148.0
164.81308 56.0
164.905075 68.0
164.944 88.0
165.039108 196.0
165.103867 144.0
165.160767 148.0
165.182419 216.0
165.218674 120.0
165.273346 56.0
165.298935 136.0
165.324524 140.0
165.357788 268.0
165.414108 52.0
165.447388 136.0
165.467865 132.0
165.493637 124.0
165.572861 132.0
165.616394 212.0
165.647141 112.0
165.670197 124.0
165.693253 84.0
165.734238 184.0
165.757309 124.0
165.775238 96.0
165.797836 108.0
165.823944 172.0
165.857101 204.0
165.888016 112.0
165.923904 160.0
165.954681 140.0
165.99675 232.0
166.041565 4332.0
166.098297 1252.0
166.134903 44.0
166.164993 156.0
166.182953 172.0
166.211182 276.0
166.269638 180.0
166.279007 212.0
166.324112 36.0
166.420761 148.0
166.470459 72.0
166.506409 108.0
166.537231 196.0
166.557526 188.0
166.583466 192.0
166.659546 196.0
166.699081 132.0
166.73764 84.0
166.781326 220.0
166.81694 244.0
166.850739 220.0
166.867264 160.0
166.88826 168.0
166.912735 180.0
167.043625 900.0
167.100861 484.0
167.166168 116.0
167.231461 76.0
167.254623 68.0
167.301514 148.0
167.326706 84.0
167.379135 200.0
167.398804 72.0
167.486374 96.0
167.506989 104.0
167.532745 208.0
167.581696 312.0
167.617767 144.0
167.638382 172.0
167.656418 96.0
167.679626 80.0
167.726013 184.0
167.779251 104.0
167.911667 172.0
167.932297 96.0
168.04068 800.0
168.113541 1916.0
168.168076 148.0
168.19548 212.0
168.244537 152.0
168.263718 148.0
168.311661 56.0
168.396881 44.0
168.414963 116.0
168.439529 164.0
168.486923 136.0
168.526062 156.0
168.578552 140.0
168.602219 216.0
168.637177 188.0
168.665298 164.0
168.697952 296.0
168.776779 44.0
168.864716 164.0
168.88176 128.0
168.918213 204.0
168.944901 144.0
168.994049 52.0
169.042236 240.0
169.097641 140.0
169.118515 264.0
169.151932 168.0
169.175674 344.0
169.214386 316.0
169.242538 232.0
169.305634 104.0
169.328003 168.0
169.351303 124.0
169.496384 168.0
169.592285 144.0
169.810074 140.0
169.910309 272.0
169.932007 112.0
169.991684 112.0
170.05397 92.0
170.117462 96.0
170.170792 140.0
170.214935 124.0
170.259079 192.0
170.337006 172.0
170.373367 100.0
170.51889 76.0
170.539688 136.0
170.594269 108.0
170.62027 96.0
170.651459 112.0
170.786697 144.0
170.815308 200.0
170.872543 164.0
170.965439 240.0
171.064575 152.0
171.097946 132.0
171.107468 136.0
171.21875 304.0
171.260422 220.0
171.320343 116.0
171.381042 188.0
171.484207 140.0
171.490311 124.0
171.528824 136.0
171.588776 168.0
171.65918 124.0
171.737427 144.0
171.760895 144.0
171.823517 164.0
171.884033 144.0
171.933105 212.0
171.974869 160.0
172.010269 128.0
172.076675 128.0
172.100174 80.0
172.144562 144.0
172.204636 100.0
172.226318 176.0
172.283005 144.0
172.361389 124.0
172.445007 112.0
172.484222 132.0
172.524582 128.0
172.614944 36.0
172.643707 92.0
172.727417 68.0
172.824203 72.0
172.845139 108.0
172.868698 156.0
172.931442 144.0
172.957687 264.0
172.976013 196.0
173.015198 144.0
173.024292 260.0
173.070251 92.0
173.093826 96.0
173.127869 36.0
173.167923 176.0
173.203827 80.0
173.22699 220.0
173.308624 168.0
173.337448 188.0
173.384613 104.0
173.439651 100.0
173.460632 144.0
173.494522 116.0
173.541901 140.0
173.633682 136.0
173.657288 80.0
173.756973 124.0
173.805161 164.0
173.828339 60.0
173.877121 132.0
173.938049 100.0
173.958115 168.0
174.003677 128.0
174.029938 100.0
174.087112 124.0
174.11702 188.0
174.187515 212.0
174.300491 160.0
174.334152 104.0
174.446701 140.0
174.492371 132.0
174.521286 188.0
174.586182 136.0
174.608063 216.0
174.637878 144.0
174.776428 72.0
174.884338 116.0
174.913284 144.0
174.944885 124.0
175.065994 152.0
175.095551 128.0
175.123947 140.0
175.151825 144.0
175.270416 160.0
175.299637 216.0
175.3479 84.0
175.387436 80.0
175.429611 128.0
175.453339 48.0
175.519257 128.0
175.57991 172.0
175.624741 128.0
175.698608 168.0
175.73291 108.0
175.751373 92.0
175.769852 60.0
175.812073 164.0
175.84903 80.0
175.867493 144.0
175.912369 160.0
175.967819 136.0
175.996857 132.0
176.02327 120.0
176.068939 188.0
176.110413 248.0
176.152679 120.0
176.184387 80.0
176.274063 136.0
176.279251 128.0
176.361435 188.0
176.48027 80.0
176.501892 192.0
176.546509 220.0
176.607346 176.0
176.639084 40.0
176.686707 148.0
176.750198 124.0
176.778793 144.0
176.83754 132.0
176.874985 80.0
176.935486 132.0
176.959305 88.0
177.056015 196.0
177.066971 140.0
177.123505 360.0
177.179138 132.0
177.233963 204.0
177.281494 204.0
177.33284 144.0
177.377899 192.0
177.466415 296.0
177.515762 184.0
177.566162 156.0
177.590027 96.0
177.616806 128.0
177.666962 108.0
177.712051 172.0
177.750748 140.0
177.818329 172.0
177.842102 172.0
177.872696 212.0
177.893478 196.0
177.93605 184.0
177.982803 40.0
178.046326 232.0
178.095291 192.0
178.156723 184.0
178.179657 104.0
178.28299 128.0
178.3069 112.0
178.334579 68.0
178.386642 152.0
178.418549 136.0
178.487549 172.0
178.535538 128.0
178.595322 160.0
178.636612 100.0
178.665878 136.0
178.696854 112.0
178.868134 164.0
178.90007 108.0
178.925171 84.0
178.983292 172.0
179.030029 312.0
179.049194 160.0
179.104004 276.0
179.14241 148.0
179.220322 112.0
179.254318 168.0
179.288971 136.0
179.312317 268.0
179.339005 440.0
179.362335 76.0
179.392914 52.0
179.428848 184.0
179.467575 124.0
179.496902 148.0
179.518234 180.0
179.615265 204.0
179.64093 152.0
179.665604 80.0
179.698944 220.0
179.755661 68.0
179.782349 72.0
179.822372 144.0
179.843124 192.0
179.877991 216.0
179.923447 120.0
179.932358 100.0
179.984818 160.0
180.034409 432.0
180.07193 380.0
180.1138 82360.0
180.186279 120.0
180.217606 80.0
180.238983 276.0
180.277969 68.0
180.324173 128.0
180.340179 60.0
180.367966 108.0
180.412109 124.0
180.435883 164.0
180.473602 104.0
180.510025 112.0
180.552963 684.0
180.587479 124.0
180.619354 192.0
180.665161 132.0
180.704865 152.0
180.72438 76.0
180.753662 136.0
180.776489 96.0
180.815109 68.0
180.846069 160.0
180.869888 124.0
180.932999 196.0
180.974121 144.0
181.004318 148.0
181.051331 500.0
181.120605 36944.0
181.177658 204.0
181.200546 76.0
181.255524 72.0
181.288467 132.0
181.35498 68.0
181.378937 96.0
181.399139 120.0
181.44368 48.0
181.491714 136.0
181.517227 156.0
181.557419 40.0
181.589432 100.0
181.616425 148.0
181.655319 44.0
181.674088 28.0
181.696304 172.0
181.773621 84.0
181.802887 64.0
181.824356 192.0
181.853882 112.0
181.905624 156.0
181.933517 48.0
181.958572 172.0
181.992203 88.0
182.025696 64.0
182.065979 48.0
182.123337 3904.0
182.173431 32.0
182.19223 52.0
182.212997 164.0
182.242325 192.0
182.313141 204.0
182.341034 148.0
182.38385 236.0
182.439026 72.0
182.460678 136.0
182.465714 100.0
182.476425 92.0
182.513062 104.0
182.54567 212.0
182.581406 104.0
182.626816 204.0
182.669632 48.0
182.67981 144.0
182.709946 204.0
182.781067 72.0
182.804184 156.0
182.829498 36.0
182.861801 172.0
182.939865 52.0
183.018417 140.0
183.055634 176.0
183.130096 368.0
183.157333 164.0
183.196075 204.0
183.29808 32.0
183.362991 48.0
183.420975 220.0
183.428955 172.0
183.530792 172.0
183.62265 112.0
183.646698 204.0
183.697113 56.0
183.759171 224.0
183.783447 148.0
183.813141 180.0
183.86441 52.0
183.929184 168.0
183.953476 48.0
183.977783 68.0
183.997192 272.0
184.042572 224.0
184.074234 116.0
184.117096 112.0
184.231644 148.0
184.264053 48.0
184.30188 72.0
184.404587 84.0
184.553268 172.0
184.63504 116.0
184.669556 168.0
184.702316 208.0
184.769638 80.0
184.821045 124.0
184.841187 136.0
184.910355 88.0
184.937424 116.0
185.032379 152.0
185.076187 416.0
185.148514 120.0
185.216324 60.0
185.248825 92.0
185.316559 156.0
185.362137 136.0
185.41954 132.0
185.462906 160.0
185.481873 144.0
185.504761 108.0
185.547211 120.0
185.630997 252.0
185.668961 296.0
185.706924 96.0
185.742188 140.0
185.777466 196.0
185.807297 68.0
185.835175 204.0
185.932129 48.0
185.986404 112.0
186.058014 284.0
186.126022 184.0
186.255234 96.0
186.287827 164.0
186.339447 168.0
186.437271 248.0
186.456299 168.0
186.486191 168.0
186.527985 140.0
186.594925 104.0
186.706421 84.0
186.752655 136.0
186.775345 176.0
186.80162 68.0
186.907837 204.0
186.945831 156.0
187.008423 36.0
187.054703 88.0
187.098251 160.0
187.136368 172.0
187.260529 184.0
187.294327 48.0
187.331924 112.0
187.350555 288.0
187.408386 184.0
187.465118 204.0
187.645874 100.0
187.705872 48.0
187.795868 144.0
187.823135 140.0
187.844955 104.0
187.869522 220.0
187.899521 160.0
187.984116 164.0
188.065994 84.0
188.128769 256.0
188.153351 100.0
188.246185 172.0
188.270767 96.0
188.299133 140.0
188.330841 116.0
188.352707 48.0
188.390121 132.0
188.42041 188.0
188.627731 160.0
188.716187 84.0
188.735321 176.0
188.759933 104.0
188.833771 108.0
188.855652 116.0
189.052643 132.0
189.115585 132.0
189.140091 80.0
189.214142 64.0
189.238785 124.0
189.260193 136.0
189.294815 156.0
189.370224 172.0
189.40036 108.0
189.449661 112.0
189.525528 116.0
189.748398 148.0
189.775818 180.0
189.803238 140.0
189.850861 184.0
189.95134 88.0
190.058533 140.0
190.122345 1340.0
190.152496 128.0
190.187317 172.0
190.20929 84.0
190.231247 120.0
190.280655 220.0
190.395996 108.0
190.439941 164.0
190.475647 124.0
190.500977 128.0
190.569061 108.0
190.654068 124.0
190.684479 84.0
190.750443 160.0
190.814148 116.0
190.922729 188.0
191.017914 180.0
191.039185 204.0
191.063156 212.0
191.086594 172.0
191.109528 200.0
191.131516 352.0
191.179245 200.0
191.369461 144.0
191.467178 188.0
191.534042 136.0
191.630081 148.0
191.669693 36.0
191.705521 152.0
191.724808 88.0
191.843338 112.0
191.873657 100.0
191.983948 72.0
192.030167 164.0
192.083252 96.0
192.106827 92.0
192.17981 156.0
192.212845 132.0
192.281921 112.0
192.309509 140.0
192.346466 216.0
192.450302 76.0
192.52919 104.0
192.570663 220.0
192.684723 220.0
192.732056 136.0
192.82048 152.0
192.896957 168.0
192.907181 88.0
192.94957 196.0
192.989105 140.0
193.016769 168.0
193.052719 604.0
193.10408 92.0
193.159409 216.0
193.301682 108.0
193.381943 128.0
193.433563 136.0
193.498215 88.0
193.578506 128.0
193.614517 136.0
193.667633 216.0
193.697601 140.0
193.729462 128.0
193.769638 112.0
193.802887 156.0
193.866623 200.0
193.913742 168.0
193.944229 164.0
193.978348 180.0
194.058868 908.0
194.121307 188.0
194.1306 164.0
194.179901 104.0
194.204163 204.0
194.235382 76.0
194.260345 152.0
194.324158 88.0
194.35144 120.0
194.393524 148.0
194.560059 60.0
194.588669 160.0
194.676682 192.0
194.696121 108.0
194.796112 96.0
194.854462 64.0
194.910736 188.0
194.933792 232.0
194.957977 172.0
194.985062 116.0
195.026764 176.0
195.061676 320.0
195.137955 160.0
195.165756 140.0
195.19635 160.0
195.226944 68.0
195.251968 128.0
195.354889 172.0
195.388275 124.0
195.435562 108.0
195.491226 132.0
195.534531 128.0
195.649887 184.0
195.75383 108.0
195.853165 68.0
195.920029 156.0
196.058182 1240.0
196.129593 448.0
196.187561 144.0
196.223816 204.0
196.262543 112.0
196.268646 100.0
196.323959 96.0
196.398499 144.0
196.427399 184.0
196.536194 220.0
196.569687 112.0
196.59201 108.0
196.815338 80.0
196.848846 116.0
196.882217 172.0
196.913391 72.0
196.94101 80.0
196.997925 96.0
197.086227 880.0
197.119812 132.0
197.139374 220.0
197.198059 80.0
197.237198 152.0
197.366409 92.0
197.446899 128.0
197.470108 148.0
197.488846 196.0
197.637131 44.0
197.693085 48.0
197.799454 144.0
197.865707 156.0
197.885086 252.0
197.923477 172.0
197.978638 152.0
198.009445 88.0
198.073624 184.0
198.106415 156.0
198.180328 92.0
198.225464 112.0
198.300842 96.0
198.330399 124.0
198.373718 224.0
198.410156 140.0
198.581223 76.0
198.631714 124.0
198.65976 44.0
198.727097 140.0
198.748306 164.0
198.759674 92.0
198.783524 216.0
198.881439 36.0
198.930237 168.0
198.957245 148.0
199.08255 480.0
199.118408 172.0
199.145386 64.0
199.221222 264.0
199.294281 96.0
199.371307 164.0
199.473465 148.0
199.519119 144.0
199.537292 60.0
199.625977 36.0
199.668152 112.0
199.749725 196.0
199.865738 128.0
199.898849 108.0
199.946686 188.0
199.96817 200.0
200.005798 296.0
200.048019 128.0
200.081543 432.0
200.138123 104.0
200.169083 60.0
200.199432 196.0
200.281738 128.0
200.312729 100.0
200.402893 184.0
200.498703 120.0
200.600174 184.0
200.673477 164.0
200.693207 68.0
200.744278 144.0
200.794724 116.0
200.822937 240.0
200.882172 388.0
200.913208 152.0
200.969635 104.0
201.028885 288.0
201.057266 420.0
201.158051 100.0
201.162323 144.0
201.173706 208.0
201.233521 232.0
201.268829 56.0
201.328995 236.0
201.426987 120.0
201.564148 132.0
201.596512 88.0
201.629227 216.0
201.681305 64.0
201.737839 156.0
201.896927 108.0
201.924469 188.0
201.947098 124.0
202.054596 148.0
202.150803 28.0
202.258347 116.0
202.419724 36.0
202.457687 208.0
202.482025 136.0
202.518845 236.0
202.552734 112.0
202.600998 164.0
202.677338 136.0
202.717178 112.0
202.74205 144.0
202.797974 236.0
202.909927 52.0
203.000656 40.0
203.023346 140.0
203.067734 560.0
203.12262 160.0
203.354919 124.0
203.406387 220.0
203.531311 148.0
203.556854 200.0
203.588104 172.0
203.613663 168.0
203.730118 116.0
203.812515 104.0
203.838089 100.0
203.90062 132.0
203.957977 132.0
204.000092 104.0
204.042587 72.0
204.071899 200.0
204.358658 160.0
204.395447 88.0
204.486511 108.0
204.719971 96.0
204.81395 180.0
204.899414 240.0
205.158768 200.0
205.224335 172.0
205.264709 224.0
205.298477 112.0
205.344116 204.0
205.421127 60.0
205.458221 132.0
205.543808 72.0
205.575195 164.0
205.635132 156.0
205.673965 192.0
205.709351 168.0
205.75708 192.0
205.846405 112.0
205.897797 172.0
206.02626 148.0
206.03476 144.0
206.112061 104.0
206.200653 124.0
206.234955 136.0
206.302582 164.0
206.364395 128.0
206.419449 172.0
206.500854 148.0
206.686813 64.0
206.744049 196.0
206.778107 160.0
206.921524 192.0
207.030334 132.0
207.063889 440.0
207.087616 104.0
207.150101 196.0
207.208496 120.0
207.24231 148.0
207.311081 88.0
207.342606 104.0
207.419998 104.0
207.451538 96.0
207.480209 36.0
207.546143 168.0
207.578217 176.0
207.600632 88.0
207.653809 228.0
207.738312 92.0
207.790497 148.0
207.898987 148.0
207.985092 104.0
208.031021 168.0
208.065369 108.0
208.105667 40.0
208.211914 44.0
208.266495 112.0
208.321075 148.0
208.362564 108.0
208.421234 148.0
208.525085 112.0
208.640686 132.0
208.671692 84.0
208.731934 84.0
208.815475 92.0
208.847122 96.0
208.888275 116.0
209.028366 228.0
209.084946 6512.0
209.134857 56.0
209.183792 64.0
209.236786 128.0
209.269775 180.0
209.323853 68.0
209.383911 112.0
209.423691 176.0
209.478195 120.0
209.506332 32.0
209.55983 204.0
209.607178 124.0
209.673462 192.0
209.712952 160.0
209.814697 188.0
209.857956 160.0
209.914917 180.0
209.969299 192.0
210.007782 172.0
210.08522 848.0
210.134323 88.0
210.19014 196.0
210.209091 120.0
210.268539 144.0
210.316757 132.0
210.368607 104.0
210.423462 164.0
210.453186 96.0
210.498535 84.0
210.518753 132.0
210.579407 148.0
210.681442 172.0
210.727798 196.0
210.748444 148.0
210.819199 56.0
210.845215 56.0
210.897232 44.0
210.923248 160.0
211.00708 204.0
211.080658 2396.0
211.11911 296.0
211.157318 548.0
211.220673 48.0
211.290527 88.0
211.32814 140.0
211.371536 176.0
211.394684 76.0
211.436142 156.0
211.475723 144.0
211.504669 36.0
211.524933 220.0
211.561066 124.0
211.584274 152.0
211.669693 252.0
211.718918 164.0
211.768158 52.0
211.810257 128.0
211.870514 144.0
212.04631 156.0
212.085464 288.0
212.138672 168.0
212.156998 428.0
212.182556 48.0
212.260834 160.0
212.310135 172.0
212.436432 144.0
212.458069 228.0
212.536407 200.0
212.626373 136.0
212.748291 224.0
212.806351 100.0
212.902084 124.0
213.079376 140.0
213.110703 384.0
213.24501 160.0
213.433975 124.0
213.556122 340.0
213.585205 184.0
213.678299 120.0
213.70401 172.0
213.73941 176.0
213.810059 144.0
213.911118 208.0
213.983902 68.0
214.059616 128.0
214.097275 176.0
214.115524 260.0
214.164459 252.0
214.278076 224.0
214.318863 200.0
214.371307 108.0
214.409195 268.0
214.429596 148.0
214.465958 128.0
214.484985 240.0
214.508301 192.0
214.53746 88.0
214.566605 128.0
214.600082 116.0
214.623108 152.0
214.648254 156.0
214.683243 164.0
214.709488 40.0
214.759079 96.0
214.893265 180.0
214.948715 116.0
215.021667 96.0
215.094635 84.0
215.115067 184.0
215.153412 180.0
215.188065 84.0
215.21434 180.0
215.272736 192.0
215.360352 168.0
215.391144 156.0
215.592667 172.0
215.73291 196.0
215.773376 192.0
215.880157 108.0
215.966385 144.0
215.999557 148.0
216.042877 124.0
216.06929 204.0
216.108749 268.0
216.203827 112.0
216.281418 96.0
216.405319 132.0
216.491501 288.0
216.539093 92.0
216.600601 48.0
216.714859 188.0
216.789169 156.0
216.817413 36.0
216.843796 136.0
216.864319 160.0
216.946396 96.0
216.966919 184.0
217.038193 160.0
217.061996 84.0
217.093506 140.0
217.16925 288.0
217.192719 108.0
217.298325 416.0
217.403961 144.0
217.50267 260.0
217.541916 132.0
217.577148 116.0
217.600632 128.0
217.682861 64.0
217.721039 144.0
217.77977 192.0
217.815018 176.0
217.947235 92.0
218.01001 88.0
218.0923 1948.0
218.124771 264.0
218.255875 100.0
218.285278 160.0
218.378693 288.0
218.467636 120.0
218.554138 180.0
218.576492 184.0
218.608871 172.0
218.63829 156.0
218.683914 48.0
218.741318 132.0
218.814911 176.0
218.968048 176.0
219.019821 124.0
219.095596 768.0
219.25087 40.0
219.304886 148.0
219.348145 164.0
219.386459 116.0
219.474915 192.0
219.545685 212.0
219.640076 100.0
219.681366 132.0
219.737427 220.0
219.77092 136.0
219.805298 128.0
219.882019 156.0
220.069946 176.0
220.121155 92.0
220.146255 116.0
220.175247 152.0
220.22876 160.0
220.251099 148.0
220.366318 176.0
220.480408 164.0
220.561371 196.0
220.680908 156.0
220.703278 40.0
220.809738 88.0
220.889603 172.0
220.922134 128.0
221.043457 132.0
221.138153 116.0
221.179596 88.0
221.2314 196.0
221.25415 196.0
221.37796 176.0
221.444031 156.0
221.475708 136.0
221.531982 124.0
221.558655 168.0
221.662354 192.0
221.694946 56.0
221.721619 148.0
221.754227 80.0
221.777939 128.0
222.110352 188.0
222.204971 260.0
222.313278 164.0
222.380051 136.0
222.555206 140.0
222.61348 128.0
222.810638 132.0
222.852234 168.0
222.877014 176.0
222.904343 120.0
222.932465 104.0
222.977051 168.0
223.015686 112.0
223.082077 168.0
223.095093 56.0
223.1008 152.0
223.434982 116.0
223.467712 112.0
223.506058 176.0
223.53894 124.0
223.641998 128.0
223.67009 164.0
223.702835 28.0
223.732605 96.0
223.759399 44.0
223.899353 204.0
223.952957 92.0
223.988708 52.0
224.076614 236.0
224.187729 180.0
224.195206 144.0
224.227081 176.0
224.258499 144.0
224.292648 128.0
224.345688 172.0
224.391022 216.0
224.461487 156.0
224.534164 196.0
224.647507 84.0
224.757904 120.0
224.853394 152.0
224.91011 132.0
224.93399 84.0
224.969818 104.0
225.041473 140.0
225.080276 108.0
225.122086 76.0
225.145981 160.0
225.167511 96.0
225.193771 160.0
225.230988 96.0
225.279709 176.0
225.319229 116.0
225.408875 140.0
225.432785 132.0
225.480591 48.0
225.558304 132.0
225.579239 128.0
225.633148 208.0
225.794525 304.0
225.831406 108.0
225.920151 60.0
225.965027 116.0
226.0159 104.0
226.063782 180.0
226.111664 124.0
226.156555 184.0
226.186493 80.0
226.240433 224.0
226.306244 100.0
226.356628 96.0
226.429016 136.0
226.53685 124.0
226.566818 244.0
226.600433 144.0
226.658447 192.0
226.824539 64.0
226.848511 152.0
226.938461 136.0
226.995438 124.0
227.049408 168.0
227.093048 124.0
227.169067 112.0
227.205399 176.0
227.333084 216.0
227.358978 160.0
227.403442 188.0
227.436462 188.0
227.517517 196.0
227.565231 152.0
227.584442 164.0
227.616592 172.0
227.658646 60.0
227.736725 116.0
227.757751 176.0
227.847656 112.0
227.892944 144.0
227.962402 172.0
227.991898 112.0
228.104889 160.0
228.137985 120.0
228.206772 204.0
228.286728 224.0
228.359604 172.0
228.39801 240.0
228.451614 112.0
228.647751 40.0
228.733246 88.0
228.816315 128.0
228.843536 196.0
228.876541 208.0
228.897614 60.0
228.966873 180.0
229.075317 84.0
229.117493 168.0
229.147614 180.0
229.199936 176.0
229.250076 68.0
229.2966 180.0
229.379669 76.0
229.406799 56.0
229.541946 228.0
229.578674 92.0
229.638382 120.0
229.756638 196.0
229.795853 100.0
229.829056 184.0
230.058426 124.0
230.082047 156.0
230.245636 120.0
230.293961 120.0
230.333237 84.0
230.469193 88.0
230.493362 144.0
230.529617 160.0
230.626343 84.0
230.689819 140.0
230.759354 108.0
230.820648 132.0
230.934753 164.0
230.955917 132.0
230.993958 160.0
231.1008 308.0
231.148346 80.0
231.17598 180.0
231.211548 132.0
231.282715 100.0
231.322067 272.0
231.397751 160.0
231.487762 188.0
231.518875 396.0
231.549164 112.0
231.72789 128.0
231.867279 160.0
231.915787 96.0
231.949127 60.0
231.97641 136.0
232.00975 104.0
232.1371 120.0
232.193542 328.0
232.215515 188.0
232.300888 152.0
232.360092 116.0
232.404037 108.0
232.4617 124.0
232.51123 124.0
232.546677 204.0
232.586136 184.0
232.619522 100.0
232.722122 116.0
232.726456 164.0
232.789551 160.0
232.813843 188.0
232.885223 176.0
232.926224 180.0
233.038635 184.0
233.076813 184.0
233.111572 160.0
233.233139 148.0
233.281769 120.0
233.318253 168.0
233.424683 132.0
233.526855 160.0
233.588913 56.0
233.613251 52.0
233.637589 68.0
233.664978 172.0
233.709641 180.0
233.74408 140.0
233.795822 96.0
233.877991 196.0
233.961853 160.0
233.974442 88.0
233.98555 132.0
234.030212 160.0
234.072845 112.0
234.122253 456.0
234.161163 136.0
234.205414 212.0
234.258636 124.0
234.286057 140.0
234.376816 132.0
234.459732 132.0
234.519684 108.0
234.57045 112.0
234.749359 88.0
234.856094 152.0
235.005585 124.0
235.098267 2436.0
235.149017 108.0
235.173431 116.0
235.226471 208.0
235.297943 188.0
235.309479 148.0
235.317703 124.0
235.36853 124.0
235.442108 204.0
235.503937 116.0
235.536789 124.0
235.58873 172.0
235.665115 144.0
235.704834 132.0
235.753723 96.0
235.775116 116.0
235.83226 224.0
235.903503 148.0
236.019684 332.0
236.041077 156.0
236.105637 388.0
236.135895 128.0
236.175644 92.0
236.218475 124.0
236.272873 188.0
236.405121 44.0
236.469391 168.0
236.537888 116.0
236.60614 184.0
236.680618 180.0
236.71904 164.0
236.760239 184.0
236.843491 176.0
236.919525 108.0
237.114624 5396.0
237.278107 60.0
237.299561 72.0
237.354752 192.0
237.406891 104.0
237.462097 192.0
237.514236 100.0
237.611328 136.0
237.682968 128.0
237.744354 220.0
237.767776 120.0
237.867126 128.0
237.916245 136.0
237.940796 80.0
237.965363 84.0
238.011429 160.0
238.051346 84.0
238.085526 152.0
238.118118 1360.0
238.164978 100.0
238.21106 132.0
238.30629 124.0
238.392334 36.0
238.413849 132.0
238.449753 172.0
238.533722 144.0
238.562195 136.0
238.648895 148.0
238.678223 132.0
238.720398 184.0
238.74353 152.0
238.798157 104.0
238.88353 196.0
238.930435 100.0
239.11113 1840.0
239.278214 136.0
239.339066 136.0
239.407547 148.0
239.481461 40.0
239.608246 156.0
239.638565 68.0
239.718552 180.0
239.728439 172.0
239.843628 216.0
239.878845 108.0
239.971451 188.0
240.021698 68.0
240.05162 100.0
240.118759 160.0
240.137909 184.0
240.198273 132.0
240.245941 104.0
240.295303 144.0
240.340271 132.0
240.440338 196.0
240.470337 184.0
240.505157 48.0
240.576157 200.0
240.644073 100.0
240.858337 116.0
240.92012 180.0
240.949844 200.0
241.057999 220.0
241.200165 164.0
241.255814 112.0
241.345474 148.0
241.493912 204.0
241.554123 172.0
241.586823 120.0
241.643112 228.0
241.685715 108.0
241.772369 204.0
241.902374 148.0
241.924042 72.0
242.227524 140.0
242.277084 104.0
242.332855 204.0
242.39328 88.0
242.506393 100.0
242.528091 212.0
242.562195 124.0
242.611786 72.0
242.639694 132.0
242.773026 112.0
242.804047 56.0
242.853195 200.0
242.875809 184.0
242.90181 192.0
242.935883 212.0
243.095657 284.0
243.145325 80.0
243.188766 40.0
243.229126 108.0
243.289764 172.0
243.399887 112.0
243.437149 164.0
243.530319 132.0
243.552689 228.0
243.676331 64.0
243.743866 212.0
243.834183 160.0
243.872101 128.0
243.913254 84.0
243.926926 132.0
243.934937 168.0
243.965363 172.0
244.009583 160.0
244.033752 128.0
244.067963 212.0
244.095169 196.0
244.124222 212.0
244.161255 36.0
244.192352 96.0
244.223465 100.0
244.366562 232.0
244.388336 124.0
244.410126 168.0
244.46225 144.0
244.528381 96.0
244.555237 216.0
244.656525 168.0
244.759811 220.0
244.807327 180.0
244.839722 228.0
244.895782 48.0
244.921677 124.0
244.944565 200.0
244.985947 212.0
245.029861 100.0
245.056686 148.0
245.126328 136.0
245.147446 124.0
245.179993 184.0
245.213593 44.0
245.271347 144.0
245.325806 128.0
245.358231 80.0
245.391281 120.0
245.425705 96.0
245.458237 96.0
245.487228 280.0
245.538086 116.0
245.561172 92.0
245.599396 152.0
245.635391 116.0
245.659195 124.0
245.686035 252.0
245.733215 144.0
245.767151 228.0
245.846405 184.0
245.891937 196.0
245.925842 212.0
245.963455 196.0
246.009506 348.0
246.045303 256.0
246.053101 344.0
246.079239 408.0
246.124313 140632.0
246.191971 316.0
246.23175 48.0
246.26622 144.0
246.31813 240.0
246.346512 132.0
246.376434 220.0
246.398743 172.0
246.43248 204.0
246.442352 296.0
246.45639 96.0
246.470245 96.0
246.482193 108.0
246.511383 184.0
246.539093 96.0
246.568787 216.0
246.60173 68.0
246.639969 1740.0
246.687653 84.0
246.749435 104.0
246.793594 164.0
246.821182 72.0
246.849609 64.0
246.878189 168.0
246.916733 124.0
246.943787 120.0
246.993362 292.0
247.015579 204.0
247.041626 168.0
247.086792 292.0
247.12645 25580.0
247.199936 164.0
247.228027 104.0
247.251556 200.0
247.29689 104.0
247.321609 140.0
247.340088 60.0
247.367691 132.0
247.407425 72.0
247.44989 56.0
247.471924 184.0
247.506638 72.0
247.534317 112.0
247.610458 52.0
247.64209 64.0
247.704163 280.0
247.737579 76.0
247.797058 256.0
247.831223 180.0
247.880112 176.0
247.935074 68.0
247.956406 84.0
247.980576 188.0
248.00293 104.0
248.040024 96.0
248.07634 144.0
248.128937 2016.0
248.167618 224.0
248.223831 64.0
248.24678 164.0
248.278061 220.0
248.329346 76.0
248.400467 128.0
248.431244 68.0
248.459579 116.0
248.520935 292.0
248.549927 192.0
248.597168 112.0
248.647507 192.0
248.677383 100.0
248.72406 216.0
248.753265 124.0
248.782959 332.0
248.822388 196.0
248.847672 168.0
248.868896 128.0
248.877762 44.0
248.902939 208.0
248.933029 92.0
248.997818 108.0
249.014175 100.0
249.025467 248.0
249.077744 72.0
249.083633 68.0
249.132477 252.0
249.172928 228.0
249.268066 176.0
249.324371 148.0
249.373276 48.0
249.448715 56.0
249.517883 152.0
249.560211 164.0
249.58609 156.0
249.623413 128.0
249.720551 160.0
249.753311 60.0
249.77066 84.0
249.835938 152.0
249.860687 96.0
249.930588 240.0
249.96347 84.0
250.010513 72.0
250.043198 212.0
250.118744 128.0
250.151733 92.0
250.197449 88.0
250.219482 152.0
250.276154 116.0
250.303864 60.0
250.324738 84.0
250.354218 152.0
250.540726 180.0
250.675354 96.0
250.783371 64.0
250.811737 104.0
250.951447 268.0
251.013519 164.0
251.120743 56.0
251.272156 116.0
251.388916 136.0
251.442566 112.0
251.496216 32.0
251.58461 132.0
251.647751 40.0
251.688797 104.0
251.710907 156.0
251.922516 160.0
251.96405 136.0
252.178482 116.0
252.205444 96.0
252.22905 116.0
252.323883 52.0
252.346024 160.0
252.575836 132.0
252.63382 92.0
252.665466 72.0
252.848999 220.0
252.899643 172.0
252.978775 160.0
253.118088 132.0
253.178253 104.0
253.207077 160.0
253.330292 176.0
253.366394 236.0
253.406326 144.0
253.525391 176.0
253.57428 128.0
253.59964 92.0
253.628159 132.0
253.71376 196.0
253.833099 300.0
253.856445 104.0
253.900833 152.0
253.927994 148.0
253.954758 188.0
253.976959 72.0
254.02388 76.0
254.122894 104.0
254.240311 108.0
254.402191 88.0
254.443451 56.0
254.4879 144.0
254.554596 88.0
254.665741 132.0
254.753433 272.0
254.805054 216.0
254.996185 92.0
255.043869 116.0
255.199646 136.0
255.301392 88.0
255.368195 140.0
255.444 204.0
255.614899 176.0
255.643738 164.0
255.718185 96.0
255.944214 136.0
256.266663 172.0
256.297791 84.0
256.425262 124.0
256.482635 60.0
256.504944 208.0
256.588348 152.0
256.61972 120.0
256.687195 172.0
256.753632 112.0
256.820618 104.0
256.924011 148.0
256.971588 204.0
257.013153 80.0
257.104584 120.0
257.139679 180.0
257.174805 88.0
257.216309 88.0
257.241821 152.0
257.323547 148.0
257.358643 184.0
257.465332 120.0
257.557983 100.0
257.657013 176.0
257.781616 240.0
257.803986 176.0
257.832764 196.0
258.07251 108.0
258.144775 100.0
258.208344 116.0
258.251587 160.0
258.347565 56.0
258.521576 52.0
258.613159 76.0
258.650543 212.0
258.766815 112.0
258.852997 96.0
258.88208 80.0
258.97818 68.0
259.02301 88.0
259.06189 124.0
259.109528 64.0
259.151154 336.0
259.288971 96.0
259.35556 128.0
259.378296 244.0
259.484497 112.0
259.571075 128.0
259.612762 172.0
259.675018 156.0
259.796661 120.0
259.978485 116.0
260.020203 132.0
260.09082 48.0
260.140289 396.0
260.225647 108.0
260.466522 172.0
260.562897 120.0
260.604675 116.0
260.691437 88.0
260.82962 44.0
260.858551 152.0
260.944702 172.0
261.083649 116.0
261.238037 120.0
261.274292 180.0
261.312042 176.0
261.346832 128.0
261.44397 68.0
261.746552 204.0
261.804535 100.0
261.84317 76.0
261.943024 132.0
262.059021 100.0
262.133118 72.0
262.16803 136.0
262.227051 116.0
262.271698 116.0
262.313629 100.0
262.420013 80.0
262.519958 48.0
262.650543 116.0
262.703827 56.0
262.729614 48.0
262.839325 176.0
262.887726 116.0
262.926453 124.0
263.062042 124.0
263.091095 128.0
263.134552 104.0
263.178253 96.0
263.200867 128.0
263.449554 108.0
263.549713 104.0
263.627258 92.0
263.756561 132.0
263.814728 108.0
264.131653 120.0
264.238403 124.0
264.326416 188.0
264.38147 96.0
264.413147 140.0
264.445526 564.0
264.513489 92.0
264.545868 168.0
264.58551 144.0
264.636383 92.0
264.668884 96.0
264.918274 136.0
265.089996 172.0
265.133575 144.0
265.20163 72.0
265.26828 128.0
265.299713 120.0
265.333099 176.0
265.482269 160.0
265.554993 132.0
265.64444 180.0
265.719055 48.0
265.771637 256.0
266.120422 268.0
266.144257 48.0
266.257904 144.0
266.332611 176.0
266.378113 256.0
266.420319 112.0
266.460297 144.0
266.646332 116.0
266.711426 192.0
266.901367 236.0
266.956635 216.0
267.05423 196.0
267.248901 128.0
267.294952 92.0
267.513031 104.0
267.542328 112.0
267.701874 324.0
267.731201 56.0
267.783295 144.0
267.894501 172.0
267.936401 108.0
267.988525 76.0
268.041107 172.0
268.077789 132.0
268.131927 136.0
268.223175 48.0
268.307953 104.0
268.435089 112.0
268.484009 96.0
268.526917 180.0
268.598175 52.0
268.621002 192.0
268.664459 76.0
268.705841 144.0
268.728668 160.0
269.048523 128.0
269.358765 64.0
269.388153 124.0
269.450226 144.0
269.476379 152.0
269.51886 60.0
269.564178 160.0
269.575684 264.0
269.616882 192.0
269.67572 120.0
269.777039 112.0
269.845703 160.0
269.888214 172.0
269.917633 132.0
269.947083 180.0
270.077911 160.0
270.2229 164.0
270.342926 140.0
270.375641 100.0
270.40509 80.0
270.516388 140.0
270.562225 112.0
270.601501 92.0
270.649841 168.0
270.696472 40.0
270.719391 84.0
270.763763 220.0
270.804535 64.0
270.884003 92.0
270.912628 164.0
271.043701 184.0
271.073181 180.0
271.158386 96.0
271.219177 132.0
271.263275 72.0
271.297119 208.0
271.343048 324.0
271.384583 160.0
271.443604 184.0
271.523132 120.0
271.545288 168.0
271.574799 152.0
271.605347 76.0
271.640717 352.0
271.702728 140.0
271.746857 80.0
271.780609 104.0
271.824127 136.0
271.860229 72.0
271.900513 160.0
271.968536 100.0
272.070312 268.0
272.100281 276.0
272.132477 152.0
272.205841 156.0
272.26767 120.0
272.296875 112.0
272.326447 264.0
272.411865 136.0
272.451965 112.0
272.478088 140.0
272.525482 156.0
272.547729 224.0
272.570496 112.0
272.626892 240.0
272.671082 124.0
272.715363 144.0
272.774445 140.0
272.806213 108.0
272.834534 104.0
272.863068 96.0
272.910034 248.0
272.960052 212.0
272.986328 148.0
273.010986 100.0
273.049591 216.0
273.094757 120.0
273.116455 296.0
273.144012 196.0
273.195038 120.0
273.240967 144.0
273.264099 340.0
273.312958 212.0
273.341278 112.0
273.369476 336.0
273.381134 204.0
273.390961 216.0
273.458191 160.0
273.50473 196.0
273.562256 200.0
273.603149 296.0
273.647919 152.0
273.691376 376.0
273.72998 204.0
273.765259 212.0
273.847565 360.0
273.888031 348.0
273.942841 148.0
273.949738 196.0
273.980835 432.0
274.052856 1032.0
274.080536 792.0
274.156067 319252.0
274.24527 244.0
274.277466 220.0
274.316864 108.0
274.322601 260.0
274.371368 380.0
274.383514 228.0
274.418182 204.0
274.461792 388.0
274.510437 224.0
274.516571 468.0
274.591034 252.0
274.606812 184.0
274.61908 296.0
274.66272 444.0
274.699463 5124.0
274.741455 328.0
274.767212 140.0
274.799438 208.0
274.864197 220.0
274.893219 296.0
274.9151 156.0
274.948547 236.0
274.991669 200.0
275.008881 60.0
275.061981 164.0
275.08493 352.0
275.158478 81460.0
275.259644 180.0
275.275909 204.0
275.307617 128.0
275.353943 120.0
275.404663 136.0
275.480103 296.0
275.517059 260.0
275.553741 84.0
275.597534 140.0
275.609222 52.0
275.618347 248.0
275.644135 148.0
275.674347 140.0
275.719116 132.0
275.758484 168.0
275.806122 92.0
275.850769 116.0
275.988647 112.0
276.071472 132.0
276.095154 176.0
276.161163 7116.0
276.222229 32.0
276.257385 72.0
276.298004 72.0
276.364349 224.0
276.406372 96.0
276.45697 132.0
276.499512 88.0
276.537842 148.0
276.595673 192.0
276.64151 180.0
276.668427 68.0
276.726013 156.0
276.770477 180.0
276.79245 240.0
276.839142 260.0
276.912018 336.0
276.925232 156.0
276.948517 268.0
276.987183 280.0
277.022888 152.0
277.059692 260.0
277.078491 396.0
277.107635 204.0
277.162384 560.0
277.23053 384.0
277.259094 128.0
277.267578 224.0
277.304352 188.0
277.317413 128.0
277.383301 64.0
277.421204 64.0
277.461212 44.0
277.517792 108.0
277.563995 112.0
277.626373 200.0
277.653381 88.0
277.683533 144.0
277.710297 80.0
277.742065 116.0
277.775208 76.0
277.844788 104.0
277.879089 52.0
277.908966 52.0
277.940338 148.0
277.975891 216.0
278.035065 52.0
278.067657 44.0
278.103241 144.0
278.16983 164.0
278.192993 104.0
278.220398 64.0
278.283447 148.0
278.334564 72.0
278.341492 104.0
278.370361 296.0
278.393494 116.0
278.489929 76.0
278.610687 80.0
278.672638 32.0
278.742432 72.0
278.852081 48.0
278.895294 100.0
278.938507 76.0
279.046478 152.0
279.126556 136.0
279.175507 84.0
279.227783 140.0
279.297638 100.0
279.354187 52.0
279.377472 40.0
279.409912 48.0
279.463989 88.0
279.637482 60.0
279.680298 44.0
279.70694 28.0
279.796814 72.0
279.830109 52.0
279.883392 108.0
279.926666 88.0
280.079895 44.0
280.10321 68.0
280.234802 80.0
280.316437 60.0
280.343079 64.0
280.433075 100.0
280.493073 84.0
280.569763 72.0
280.699799 52.0
280.83606 84.0
280.896576 48.0
281.307037 132.0
281.34375 68.0
281.451752 160.0
281.500671 80.0
281.597534 44.0
281.677704 64.0
281.71109 48.0
281.813965 96.0
281.988434 64.0
282.132172 44.0
282.232483 52.0
282.500061 52.0
282.570312 36.0
282.787842 56.0
282.925079 140.0
283.04895 132.0
283.075745 68.0
283.467682 40.0
283.722443 52.0
283.816315 56.0
283.849854 92.0
283.933685 48.0
283.957153 60.0
284.017548 128.0
284.15509 56.0
284.225525 116.0
284.359772 132.0
284.712311 132.0
284.802979 68.0
284.89032 48.0
285.182678 148.0
285.427216 108.0
285.582794 68.0
285.616425 72.0
285.662048 164.0
285.814941 40.0
285.925995 72.0
286.037048 88.0
286.077454 144.0
286.264893 84.0
286.323273 52.0
286.424316 116.0
286.528748 188.0
286.626465 116.0
286.730927 72.0
286.784851 96.0
286.912964 120.0
286.936554 96.0
287.159119 104.0
287.185059 260.0
287.226562 76.0
287.304169 88.0
287.371643 52.0
287.501678 120.0
287.618011 68.0
287.659058 124.0
287.763153 112.0
287.850952 124.0
287.986053 100.0
288.060364 84.0
288.11441 112.0
288.295959 100.0
288.452362 84.0
288.574066 96.0
288.672119 84.0
288.733002 52.0
288.942719 32.0
289.015564 132.0
289.267609 68.0
289.392883 104.0
289.478577 72.0
289.521545 84.0
289.545258 68.0
289.924713 180.0
290.002655 104.0
290.06369 32.0
290.141663 68.0
290.17218 60.0
290.202667 84.0
290.270508 116.0
290.321381 76.0
290.358673 132.0
290.433289 72.0
290.50293 60.0
290.634583 120.0
290.753265 72.0
290.888 60.0
291.033997 108.0
291.434784 132.0
291.764465 44.0
291.920898 64.0
292.325714 164.0
292.359741 188.0
293.272522 256.0
293.388428 80.0
293.466827 96.0
293.644165 84.0
294.043365 76.0
294.237915 116.0
294.398407 32.0
294.781036 96.0
294.818604 88.0
295.1297 92.0
295.540161 128.0
295.68045 76.0
296.019379 112.0
296.512726 136.0
297.095642 128.0
297.370148 164.0
298.022644 48.0
298.097015 80.0
298.263214 168.0
298.892609 128.0
299.047455 96.0
299.667328 96.0
300.177094 216.0
300.539948 108.0
300.971161 152.0
301.409851 32.0
301.634491 52.0
301.78653 152.0
301.86615 88.0
302.167084 92.0
303.171265 168.0
303.972351 128.0
304.263916 104.0
304.6633 108.0
304.767517 72.0
304.941284 100.0
306.127014 132.0
306.324432 68.0
306.350555 124.0
306.507355 48.0
306.848938 68.0
306.92215 60.0
306.946564 204.0
307.263977 64.0
307.330261 160.0
307.672302 76.0
307.72467 112.0
307.81897 92.0
308.287079 172.0
308.311523 72.0
308.489807 88.0
308.657623 80.0
308.975922 156.0
309.056396 108.0
309.105377 64.0
309.136871 68.0
309.546448 36.0
309.721558 136.0
310.149048 92.0
310.565552 148.0
311.155884 136.0
311.247162 48.0
312.143219 128.0
312.347229 104.0
312.382385 40.0
313.058197 132.0
313.477417 56.0
313.907471 44.0
313.963898 56.0
314.066193 60.0
314.175537 92.0
315.157074 144.0
315.199463 208.0
315.266632 80.0
315.323181 80.0
315.485779 88.0
316.164917 148.0
316.402069 96.0
317.149536 92.0
317.193878 800.0
317.961761 112.0
318.054047 72.0
318.203705 576.0
318.372253 84.0
318.551178 60.0
318.888763 40.0
318.991852 80.0
319.196045 204.0
319.411438 64.0
319.585785 44.0
320.212311 72.0
320.522247 48.0
320.572144 196.0
320.661255 116.0
321.064117 40.0
321.221069 200.0
321.417297 32.0
322.02063 160.0
322.095642 76.0
322.581635 100.0
323.0 164.0
323.232574 100.0
323.343506 128.0
324.070465 128.0
324.263977 68.0
324.744415 60.0
325.580688 56.0
325.756683 192.0
326.410828 120.0
326.820892 80.0
326.84967 160.0
327.231201 144.0
327.292419 28.0
327.78952 112.0
328.229309 152.0
328.463745 156.0
328.669373 152.0
328.763214 120.0
328.828156 40.0
329.084473 252.0
329.167511 128.0
329.474548 92.0
329.543182 84.0
329.704559 164.0
329.893768 128.0
330.175781 36.0
330.356659 56.0
330.481476 60.0
330.892273 72.0
331.504425 124.0
331.939453 72.0
332.077271 92.0
332.207855 152.0
332.675995 140.0
332.933807 132.0
333.020966 116.0
333.231659 60.0
333.616913 96.0
333.809601 104.0
334.132629 164.0
334.38443 84.0
334.976501 160.0
335.050812 84.0
335.812683 160.0
336.181152 120.0
336.224945 124.0
336.491425 156.0
336.577667 124.0
337.189514 160.0
337.964417 104.0
338.001007 88.0
338.531799 80.0
339.308624 52.0
339.356293 84.0
339.708374 164.0
339.921173 88.0
341.033997 156.0
341.192047 240.0
341.765839 128.0
341.883575 92.0
341.931427 116.0
341.971924 116.0
342.14389 100.0
342.295898 44.0
342.564758 92.0
342.897949 76.0
344.084198 84.0
344.132202 84.0
344.209747 120.0
344.265137 216.0
344.568024 112.0
345.547791 48.0
345.821625 132.0
346.343719 68.0
346.680878 32.0
347.151703 172.0
347.348267 56.0
348.421143 172.0
348.722137 120.0
348.759308 56.0
348.789062 160.0
349.212952 68.0
349.257568 128.0
349.298492 132.0
350.821594 60.0
351.869934 180.0
354.315918 156.0
354.623199 112.0
354.671936 40.0
354.896881 140.0
355.084381 72.0
355.118134 108.0
356.097748 124.0
356.240509 28.0
356.631287 92.0
356.69519 80.0
357.199097 112.0
357.232941 172.0
357.398499 88.0
357.462463 72.0
357.958527 88.0
358.479218 116.0
358.93158 80.0
359.15033 56.0
359.697479 96.0
360.154388 104.0
360.245026 108.0
360.989655 48.0
361.106873 68.0
361.159821 124.0
361.481415 112.0
361.515472 160.0
362.049377 140.0
363.068756 44.0
363.311493 92.0
363.53537 108.0
363.584717 204.0
364.025085 184.0
364.45813 116.0
364.697571 124.0
364.990295 140.0
365.190796 172.0
366.090057 116.0
366.20813 152.0
366.962677 144.0
367.088501 108.0
367.130463 104.0
367.393646 160.0
367.485199 144.0
367.668365 132.0
367.721802 112.0
367.874481 120.0
368.164673 260.0
368.229614 36.0
368.518677 144.0
368.921234 152.0
369.397064 56.0
369.44516 56.0
369.697693 56.0
370.222198 84.0
370.84668 124.0
371.084381 84.0
371.548462 156.0
372.039703 64.0
372.53125 168.0
372.984711 52.0
373.203827 108.0
373.576904 152.0
374.034851 108.0
374.188843 128.0
374.354401 164.0
375.437317 112.0
375.529877 44.0
376.16272 136.0
376.188538 128.0
376.363464 144.0
376.63382 124.0
376.799927 104.0
376.834686 100.0
377.192841 220.0
377.476349 88.0
377.739349 40.0
378.1716 124.0
378.537872 76.0
378.649139 92.0
378.691589 160.0
378.776794 60.0
379.148773 80.0
379.183014 200.0
379.815643 92.0
379.862213 68.0
379.955322 124.0
380.087219 144.0
380.296814 96.0
380.506439 44.0
380.848175 56.0
380.999664 36.0
381.147308 204.0
381.381927 152.0
381.586548 88.0
382.010437 156.0
382.395844 88.0
382.450165 88.0
384.136536 172.0
384.227173 92.0
384.293488 116.0
384.422272 68.0
384.566681 96.0
385.058624 88.0
386.876923 48.0
386.923889 84.0
387.750427 132.0
387.83786 168.0
387.891541 112.0
388.075806 136.0
388.652374 108.0
388.754425 116.0
388.907471 92.0
389.221558 128.0
389.327576 156.0
389.359009 84.0
390.56958 48.0
390.994537 132.0
391.163788 72.0
391.486633 176.0
391.908142 88.0
392.203705 176.0
392.302246 52.0
392.351471 64.0
394.22052 76.0
394.481384 48.0
395.260559 64.0
395.848633 100.0
396.456482 76.0
396.852905 116.0
396.995667 76.0
398.01947 104.0
398.392822 120.0
399.876038 84.0
400.393616 76.0
400.477264 108.0
401.541443 160.0
401.697021 76.0
403.906067 84.0
404.026062 80.0
404.534302 100.0
406.490265 104.0
406.807343 128.0
406.871552 76.0
407.317322 72.0
408.398621 188.0
408.450897 116.0
408.559509 68.0
408.817047 184.0
409.098785 116.0
409.751221 124.0
409.843903 84.0
409.892242 32.0
410.246948 64.0
410.496918 76.0
411.307892 124.0
411.703552 56.0
411.780304 92.0
412.192383 100.0
412.362122 144.0
412.463165 104.0
412.944336 96.0
414.952911 36.0
415.001556 60.0
415.066437 76.0
415.285431 144.0
415.55722 132.0
415.997284 140.0
416.084869 152.0
416.352875 44.0
416.876953 140.0
417.00293 72.0
417.084229 112.0
417.206177 76.0
418.36969 148.0
418.634369 200.0
419.07431 44.0
419.290283 36.0
419.681641 152.0
419.905914 92.0
420.738373 104.0
420.864929 152.0
421.399994 84.0
422.945862 68.0
423.203796 136.0
424.711914 156.0
424.986786 128.0
425.442383 180.0
425.528595 276.0
426.046082 44.0
426.124146 76.0
426.288483 100.0
426.970947 64.0
427.246552 124.0
427.641571 204.0
427.781525 84.0
428.4487 40.0
428.629974 40.0
429.038025 100.0
429.776306 60.0
430.069336 92.0
430.151886 124.0
430.453278 60.0
430.556519 68.0
430.65152 80.0
430.911774 136.0
431.465607 84.0
431.548279 132.0
431.941193 52.0
432.106659 52.0
432.520508 56.0
432.56604 104.0
432.984253 92.0
434.667358 48.0
434.765656 128.0
435.207703 160.0
435.427094 100.0
435.67215 56.0
435.756683 128.0
436.241516 112.0
436.366241 124.0
436.482666 88.0
436.59494 168.0
436.923096 184.0
437.318878 156.0
437.629822 92.0
438.010071 112.0
440.070282 144.0
440.137115 120.0
440.355011 88.0
441.302887 128.0
442.177185 132.0
442.633514 100.0
442.713074 44.0
442.79425 136.0
443.010468 84.0
443.111023 52.0
443.639099 68.0
443.840332 84.0
444.482117 168.0
444.515686 148.0
444.948029 48.0
445.313385 40.0
445.922607 180.0
446.132782 168.0
446.628998 204.0
447.76123 40.0
447.794922 36.0
448.072937 136.0
448.102448 56.0
449.190125 104.0
450.642426 152.0
450.849487 108.0
450.879059 164.0
451.344086 104.0
451.377899 92.0
451.627441 140.0
451.686646 36.0
451.775482 112.0
452.706696 40.0
453.456573 140.0
454.42691 108.0
455.433807 44.0
455.582489 108.0
455.739685 164.0
456.100922 68.0
456.449554 136.0
456.577148 76.0
456.662201 132.0
456.781311 152.0
456.925934 120.0
457.125946 76.0
457.23233 88.0
458.254333 124.0
458.578217 176.0
458.863831 92.0
459.038666 52.0
459.469452 44.0
460.669098 80.0
460.780182 116.0
461.03656 152.0
461.451202 156.0
461.964417 76.0
462.062805 204.0
462.482178 104.0
462.936035 140.0
464.178772 124.0
464.461426 168.0
464.779297 104.0
464.817932 96.0
464.852264 92.0
464.919617 92.0
465.199921 56.0
465.760529 132.0
465.807251 104.0
466.058563 100.0
466.163544 124.0
466.20932 80.0
466.488678 100.0
466.636749 88.0
466.851746 92.0
466.944489 104.0
467.245605 108.0
467.396179 104.0
467.437073 56.0
467.516693 100.0
467.568329 68.0
467.658722 128.0
467.865326 80.0
467.928192 100.0
467.992126 116.0
468.03183 144.0
468.128479 104.0
468.20694 480.0
468.254852 148.0
468.330414 72.0
468.396942 120.0
468.457092 108.0
468.517151 104.0
468.792419 104.0
468.831573 112.0
468.864685 96.0
468.903473 124.0
468.939301 192.0
468.996124 56.0
469.215912 324.0
469.291443 148.0
469.321625 124.0
469.364746 180.0
469.383423 128.0
469.42511 76.0
469.483398 208.0
469.514648 84.0
469.601959 100.0
469.668549 316.0
469.722717 100.0
469.75293 56.0
469.864624 152.0
469.898285 176.0
469.962097 200.0
470.027771 244.0
470.059753 172.0
470.114899 120.0
470.231873 62752.0
470.328552 72.0
470.399384 124.0
470.438446 84.0
470.449615 116.0
470.523773 180.0
470.580902 140.0
470.609802 188.0
470.648773 196.0
470.698639 304.0
470.762543 92.0
470.774506 164.0
470.860901 116.0
470.944733 316.0
471.007019 196.0
471.03476 176.0
471.089661 68.0
471.125732 252.0
471.232849 19980.0
471.340332 72.0
471.378418 256.0
471.418121 84.0
471.457916 156.0
471.566498 64.0
471.603088 136.0
471.661163 92.0
471.705597 96.0
471.741089 116.0
471.812897 68.0
471.893036 260.0
471.94693 140.0
471.994019 180.0
472.047211 228.0
472.109283 168.0
472.152771 232.0
472.229095 26060.0
472.356293 140.0
472.397491 220.0
472.427856 144.0
472.495605 84.0
472.549988 104.0
472.609985 232.0
472.666138 120.0
472.745636 56.0
472.771942 72.0
472.841553 52.0
472.898956 60.0
472.941956 112.0
472.989136 40.0
473.020996 108.0
473.089844 72.0
473.152527 180.0
473.23056 4012.0
473.335052 60.0
473.383575 60.0
473.413879 104.0
473.452332 100.0
473.513489 72.0
473.572052 100.0
473.601105 316.0
473.682404 228.0
473.758087 100.0
473.820282 68.0
473.910126 84.0
473.970825 128.0
474.002411 144.0
474.052155 56.0
474.09549 228.0
474.122498 176.0
474.235413 696.0
474.320618 116.0
474.383759 76.0
474.450989 92.0
474.523163 52.0
474.557861 44.0
474.614227 76.0
474.722626 40.0
474.778687 52.0
474.822388 100.0
474.852753 132.0
474.974182 92.0
475.098907 112.0
475.208466 88.0
475.45401 56.0
475.678009 104.0
475.74231 204.0
475.781372 148.0
475.811768 116.0
475.846497 100.0
475.904907 124.0
475.97229 100.0
476.077637 224.0
476.155609 88.0
476.241669 96.0
476.285126 28.0
476.324219 48.0
476.367645 56.0
476.419769 104.0
476.46756 96.0
476.538666 124.0
476.75 88.0
476.863007 168.0
476.949951 36.0
477.097748 72.0
477.1586 48.0
477.189056 36.0
477.267303 36.0
477.536926 48.0
477.750092 36.0
477.983551 116.0
478.063354 36.0
478.17218 112.0
478.202637 60.0
478.381104 124.0
478.411591 44.0
479.073547 76.0
479.238098 52.0
479.343689 76.0
479.417755 56.0
479.735962 76.0
479.967041 76.0
480.272308 48.0
480.407532 84.0
480.80899 60.0
481.027222 56.0
481.372131 96.0
481.900696 52.0
482.009918 28.0
482.42514 64.0
483.155487 48.0
483.365509 92.0
483.41803 36.0
483.457397 72.0
484.393921 72.0
484.543365 68.0
485.174469 80.0
485.248993 72.0
485.292847 60.0
485.555939 104.0
486.631073 56.0
487.273071 96.0
487.557953 68.0
487.768921 80.0
488.015747 112.0
488.226196 104.0
489.101776 152.0
489.476013 48.0
489.590515 76.0
489.920868 92.0
489.991364 72.0
490.630402 76.0
490.709747 68.0
491.415466 96.0
491.918579 48.0
492.020111 40.0
492.324799 48.0
492.48822 112.0
493.053772 60.0
493.425079 52.0
493.977875 84.0
494.150421 60.0
495.159729 96.0
495.602722 32.0
496.60907 44.0
497.527618 56.0
497.896179 92.0
498.469269 60.0
499.385101 84.0
499.52301 108.0
500.35965 56.0
501.718506 56.0
502.03064 84.0
502.632874 124.0
502.878326 28.0
503.262238 132.0
503.72226 40.0
503.918823 76.0
504.978302 88.0
505.22879 136.0
506.966125 124.0
507.270905 48.0
509.056641 128.0
509.106049 132.0
510.827545 72.0
511.295471 96.0
512.430237 72.0
514.685547 100.0
514.992615 60.0
517.108643 68.0
517.384827 48.0
518.322388 156.0
518.698547 100.0
519.773438 48.0
520.222778 108.0
520.34082 116.0
520.981201 32.0
521.890198 28.0
524.562683 52.0
525.83075 44.0
526.090942 76.0
527.123169 72.0
529.039612 88.0
532.823242 80.0
533.11731 92.0
533.61377 52.0
534.082825 44.0
535.122864 52.0
535.210327 104.0
535.247192 108.0
535.320862 48.0
536.279175 68.0
536.611084 68.0
537.34906 60.0
538.831116 68.0
539.066772 52.0
541.560486 84.0
542.125671 48.0
542.997314 112.0
543.721069 140.0
544.333862 52.0
545.132874 84.0
545.318787 52.0
545.472168 52.0
545.597656 104.0
546.45343 76.0
548.166992 104.0
548.395386 72.0
548.595825 128.0
548.884888 92.0
549.752563 88.0
555.484253 120.0
558.890442 56.0
559.973206 68.0
560.797729 68.0
561.033447 60.0
564.319458 108.0
564.499146 72.0
565.644165 96.0
567.4776 92.0
568.250671 120.0
568.378784 64.0
571.043945 156.0
571.614868 56.0
572.724182 84.0
573.648621 112.0
576.746643 64.0
576.923523 80.0
578.779968 92.0
582.698669 56.0
583.472473 44.0
583.684998 40.0
583.890808 68.0
585.103455 52.0
586.760803 72.0
587.189941 84.0
589.463806 120.0
589.797302 48.0
590.493591 64.0
590.696716 32.0
601.289429 64.0
602.788696 92.0
606.439697 76.0
606.866211 76.0
606.939758 80.0
607.768738 112.0
608.068054 44.0
609.561035 108.0
612.266785 72.0
613.597229 76.0
618.760254 92.0
619.31488 84.0
620.826538 64.0
625.198364 104.0
627.918579 52.0
628.507263 44.0
629.046265 60.0
631.09967 64.0
632.260254 40.0
632.956116 44.0
633.632263 100.0
634.153442 80.0
634.569519 64.0
634.614624 64.0
635.918945 72.0
638.59198 92.0
640.801941 116.0
641.346191 48.0
642.627136 84.0
643.237854 64.0
643.33374 40.0
643.434692 52.0
643.762939 40.0
649.629272 76.0
649.679993 84.0
652.646118 80.0
655.486511 44.0
656.098145 60.0
658.021606 64.0
658.057312 32.0
658.491394 40.0
660.147278 60.0
662.09198 116.0
663.009033 40.0
663.311462 48.0
665.050354 140.0
665.430237 52.0
666.190308 112.0
666.729858 52.0
667.002258 68.0
670.863159 88.0
672.96814 96.0
673.339966 76.0
673.928833 68.0
674.430176 28.0
674.611084 60.0
674.947144 104.0
675.702332 92.0
675.960999 140.0
676.54071 100.0
679.624573 84.0
680.039734 104.0
682.549011 40.0
683.225159 72.0
683.261597 92.0
684.099487 56.0
685.740295 64.0
688.944275 48.0
689.487732 108.0
689.92157 92.0
690.486267 44.0
691.396606 88.0
691.752563 100.0
695.626587 68.0
695.899597 92.0
696.487732 36.0
697.191833 100.0
697.496643 128.0
700.090576 36.0
700.396057 84.0
700.749023 52.0
704.167358 92.0
704.796021 108.0
705.673462 56.0
705.810913 52.0
706.689026 76.0
707.122925 88.0
707.694641 128.0
710.164246 92.0
711.644836 72.0
713.153564 92.0
714.498962 44.0
714.802246 140.0
717.593384 60.0
717.721375 132.0
720.475464 96.0
722.646118 64.0
727.883057 68.0
728.368896 96.0
730.791077 88.0
731.393799 44.0
731.517639 52.0
734.114685 72.0
736.446228 80.0
737.981018 112.0
738.792236 88.0
743.142883 68.0
743.446716 116.0
743.495605 132.0
744.163269 208.0
744.603149 92.0
746.363892 76.0
749.232239 108.0
750.491272 112.0
754.203674 128.0
756.517578 76.0
757.930664 80.0
758.138916 36.0
765.467346 64.0
765.907898 68.0
771.95697 116.0
773.345642 96.0
777.607971 108.0
780.074219 112.0
780.652466 100.0
781.954285 80.0
784.232361 72.0
785.180176 100.0
787.161377 72.0
787.222778 112.0
793.652466 160.0
793.775818 96.0
793.887939 40.0
796.750671 100.0
799.078247 96.0
802.299805 228.0
802.361816 156.0
805.62384 100.0
805.708557 56.0
807.907776 148.0
808.818909 44.0
808.881165 32.0
810.200684 172.0
812.071289 76.0
813.620483 52.0
814.284851 112.0
816.308105 52.0
816.842712 40.0
818.385071 88.0
822.455566 40.0
824.186035 168.0
826.004089 96.0
826.341675 72.0
826.707886 108.0
828.368286 36.0
830.598206 144.0
831.665527 72.0
832.222351 100.0
832.497986 60.0
834.009033 76.0
837.340515 56.0
837.997192 68.0
839.397888 80.0
842.618713 36.0
843.341064 36.0
843.497131 116.0
844.138916 152.0
847.032837 44.0
848.922302 56.0
850.8255 48.0
852.248474 64.0
854.108887 68.0
855.563721 48.0
859.608826 48.0
860.332642 128.0
862.458984 184.0
863.803894 196.0
864.956726 88.0
866.368042 140.0
867.311462 124.0
869.205811 164.0
873.471252 40.0
873.971375 112.0
875.784607 144.0
880.916626 132.0
885.536377 92.0
886.44281 108.0
888.506287 44.0
889.0047 112.0
892.832947 88.0
894.90741 76.0
898.161377 128.0
899.336853 160.0
900.142883 40.0
900.811768 92.0
901.989014 160.0
903.268677 72.0
906.86145 76.0
908.672485 48.0
908.864502 112.0
911.350342 68.0
913.337952 72.0
914.026184 44.0
914.838684 40.0
920.150146 96.0
921.074097 136.0
924.187683 52.0
924.980469 176.0
925.246826 44.0
925.858459 84.0
927.542847 36.0
928.889038 40.0
931.420349 244.0
933.462524 64.0
939.901306 60.0
943.633362 180.0
944.35498 172.0
945.933655 192.0
948.402283 68.0
948.512634 132.0
948.616821 60.0
949.389404 144.0
950.892517 220.0
951.334473 72.0
951.414307 176.0
951.893188 56.0
952.611816 56.0
955.999695 52.0
961.780945 64.0
961.929077 88.0
965.302551 32.0
967.053406 44.0
967.852051 64.0
973.364685 76.0
973.979492 180.0
974.209351 112.0
974.867981 136.0
975.240906 92.0
975.756897 52.0
975.850159 68.0
976.764343 100.0
978.127136 60.0
978.89917 164.0
979.702637 184.0
982.576721 88.0
985.092651 156.0
985.417542 140.0
985.598755 76.0
985.736206 100.0
987.57428 108.0
988.785339 72.0
989.908752 112.0
993.343445 40.0
993.751221 160.0
994.416443 88.0
994.554504 68.0
995.351868 112.0
995.48999 144.0
996.689819 136.0
997.953247 64.0
998.707886 172.0
999.261536 184.0
1003.052734 156.0
1003.254456 192.0
1006.5354 120.0
1007.583923 160.0
1007.861938 152.0
1008.898499 160.0
1010.89093 120.0
1013.379456 116.0
1013.968811 52.0
1014.386841 184.0
1015.674438 100.0
1016.67688 144.0
1016.968872 120.0
1019.077209 48.0
1021.505859 44.0
1023.797241 68.0
1026.104004 136.0
1026.205933 120.0
1026.307983 84.0
1026.480225 200.0
1028.821777 100.0
1029.690308 104.0
1030.469604 92.0
1031.536865 144.0
1031.80542 256.0
1031.939697 192.0
1032.860596 160.0
1033.174072 212.0
1034.287476 40.0
1035.139038 44.0
1037.073853 52.0
1037.253418 104.0
1039.973145 136.0
1042.201538 144.0
1042.535767 152.0
1043.454956 160.0
1043.737793 100.0
1048.914185 76.0
1049.294556 156.0
1049.823242 44.0
1050.506958 96.0
1050.82959 64.0
1051.855713 104.0
1052.139771 84.0
1052.552979 144.0
1053.450806 100.0
1054.167969 100.0
1056.806274 84.0
1058.003662 176.0
1058.126587 144.0
1059.19519 176.0
1059.253418 84.0
1059.823608 120.0
1059.972656 120.0
1061.547852 184.0
1063.091797 100.0
1063.202148 28.0
1064.55249 132.0
1066.170166 68.0
1066.319702 196.0
1069.005615 92.0
1069.415649 140.0
1073.435425 156.0
1074.589966 96.0
1074.837891 92.0
1075.927856 88.0
1076.03894 32.0
1076.326172 140.0
1076.744141 52.0
1076.842163 156.0
1077.723999 188.0
1077.972412 168.0
1078.639038 188.0
1078.723999 108.0
1079.443237 112.0
1079.855225 108.0
1080.882324 56.0
1081.18335 200.0
1081.248779 72.0
1082.748047 144.0
1082.852905 160.0
1083.615356 232.0
1083.691406 160.0
1083.789673 292.0
1083.992798 80.0
1084.097656 136.0
1084.1698 140.0
1085.487427 180.0
1086.012085 116.0
1086.878174 64.0
1087.304688 184.0
1088.00708 92.0
1088.256592 156.0
1089.997192 152.0
1090.358643 100.0
1090.444092 156.0
1090.549316 44.0
1090.628174 152.0
1092.824707 152.0
1093.12085 140.0
1095.003662 168.0
1095.206299 116.0
1096.769531 132.0
1097.573853 164.0
1099.057983 92.0
1099.566162 160.0
1099.665161 120.0
1101.395142 132.0
1101.580078 136.0
1102.518311 172.0
1103.880127 160.0
1104.237305 36.0
1104.508545 104.0
1104.73999 76.0
1105.117188 184.0
1108.050293 72.0
1110.164795 44.0
1111.313232 152.0
1112.978394 120.0
1114.154053 156.0
1116.420654 72.0
1118.909302 60.0
1119.206055 92.0
1119.768311 244.0
1121.300781 108.0
1121.360718 124.0
1121.440674 136.0
1121.514038 152.0
1121.793945 52.0
1122.227417 108.0
1123.547974 168.0
1123.701416 228.0
1123.781494 96.0
1123.921631 140.0
1125.528564 152.0
1125.824097 120.0
1126.966431 80.0
1127.69043 188.0
1128.209595 160.0
1128.263062 48.0
1128.664185 164.0
1129.018677 216.0
1130.550659 228.0
1131.922974 124.0
1131.983276 160.0
1132.043579 48.0
1132.17749 84.0
1132.827148 56.0
1134.247803 180.0
1135.14624 116.0
1135.287109 128.0
1135.984619 212.0
1136.702637 184.0
1138.669678 52.0
1138.837524 148.0
1139.025635 140.0
1139.714233 144.0
1140.577881 100.0
1141.687256 152.0
1143.348999 140.0
1143.658569 148.0
1144.217407 140.0
1144.823364 100.0
1146.581787 76.0
1147.006348 160.0
1147.882935 88.0
1149.572144 196.0
1149.812378 96.0
1150.892456 112.0
1151.533936 216.0
1151.601562 84.0
1152.439209 180.0
1152.898682 100.0
1153.088013 188.0
1153.486816 128.0
1153.534058 168.0
1153.716675 156.0
1154.162842 152.0
1154.30481 80.0
1155.008301 116.0
1155.062378 200.0
1156.963989 128.0
1158.469604 64.0
1159.083984 84.0
1160.005737 204.0
1161.531494 164.0
1162.902222 88.0
1163.322998 76.0
1163.832275 112.0
1164.008789 140.0
1164.667603 88.0
1164.939331 152.0
1165.292603 148.0
1167.277344 120.0
1168.705933 144.0
1168.984863 256.0
1169.100586 136.0
1169.365967 180.0
1169.529297 152.0
1169.94458 128.0
1170.564209 164.0
1171.619995 112.0
1174.217041 120.0
1174.462646 160.0
1174.85144 124.0
1175.936401 184.0
1176.339233 128.0
1176.994629 136.0
1178.10791 108.0
1180.192505 48.0
1182.781738 128.0
1183.100342 140.0
1183.155029 220.0
1184.168579 44.0
1184.463135 96.0
1185.819824 108.0
1186.15564 220.0
1188.37146 136.0
1188.453125 136.0
1188.82373 152.0
1188.960938 128.0
1189.565063 140.0
1189.791626 128.0
1190.505737 80.0
1193.549927 60.0
1194.168945 132.0
1194.32019 92.0
1195.469238 156.0
1196.033569 136.0
1196.501709 188.0
1196.694458 64.0
1196.832153 136.0
1196.942383 108.0
1197.14209 156.0
1197.541748 108.0
1198.505981 164.0
1198.88501 124.0
1199.539795 128.0
1200.629272 160.0
1200.836182 148.0
1201.312134 136.0
1201.539795 144.0
1202.630127 132.0
1202.816528 60.0
1202.871704 104.0
1203.348022 132.0
1204.114624 124.0
1204.204346 60.0
1205.475586 176.0
1206.180542 188.0
1206.491699 164.0
1207.272949 160.0
1207.473511 128.0
1208.282959 120.0
1208.531982 108.0
1208.58728 156.0
1209.237915 64.0
1210.006226 136.0
1210.947998 140.0
1211.426025 172.0
1212.278198 92.0
1213.019897 144.0
1213.470459 88.0
1213.546753 32.0
1213.636963 252.0
1214.004395 200.0
1214.067017 148.0
1214.316528 120.0
1214.587036 208.0
1214.654053 168.0
1214.84375 72.0
1215.40564 128.0
1215.579224 176.0
1216.413208 124.0
1216.465332 60.0
1216.585571 84.0
1216.863281 132.0
1218.856812 208.0
1219.690796 120.0
1219.864624 152.0
1221.034546 204.0
1221.241455 164.0
1221.70752 216.0
1221.797974 100.0
1221.895386 56.0
1222.459473 212.0
1222.521606 56.0
1223.085327 192.0
1223.704956 160.0
1223.955566 208.0
1225.354492 140.0
1225.871338 304.0
1226.937744 108.0
1227.139893 152.0
1227.495605 92.0
1229.337158 80.0
1229.448853 88.0
1230.621582 72.0
1230.733276 68.0
1231.040527 144.0
1231.80188 128.0
1231.878784 172.0
1232.011475 156.0
1232.754028 188.0
1233.723755 180.0
1234.380737 152.0
1234.403809 148.0
1234.961426 104.0
1235.04541 52.0
1235.50708 128.0
1236.360718 92.0
1236.45166 132.0
1236.654663 176.0
1237.795898 112.0
1237.956909 152.0
1238.202026 144.0
1238.615234 132.0
1239.077637 80.0
1239.280884 92.0
1239.708252 68.0
1239.792358 156.0
1241.124268 156.0
1241.285645 148.0
1242.435913 100.0
1242.611328 332.0
1242.772705 112.0
1243.741211 204.0
1244.481934 148.0
1245.096313 152.0
1245.419434 188.0
1245.503662 60.0
1246.002441 164.0
1246.290527 164.0
1247.077637 68.0
1247.288452 140.0
1248.750977 136.0
1249.545898 48.0
1249.771118 152.0
1249.820312 200.0
1250.221436 216.0
1250.397461 36.0
1251.360107 200.0
1251.728027 128.0
1252.763306 92.0
1252.833862 80.0
1252.904297 172.0
1253.045166 100.0
1253.179077 108.0
1253.482056 68.0
1254.877686 144.0
1255.843872 72.0
1256.0625 172.0
1256.506958 156.0
1256.831543 132.0
1257.184326 112.0
1258.031372 200.0
1258.391479 156.0
1259.295288 72.0
1259.549683 64.0
1259.634399 136.0
1260.976929 112.0
1261.153687 152.0
1261.415161 124.0
1261.697998 196.0
1262.035889 132.0
1262.28479 196.0
1262.683716 220.0
1262.907227 104.0
1263.409424 60.0
1263.954224 84.0
1264.201904 108.0
1264.86731 80.0
1266.665894 128.0
1267.572754 100.0
1267.760376 148.0
1267.834961 36.0
1267.920044 180.0
1268.239014 68.0
1268.78479 100.0
1269.452881 144.0
1269.678345 192.0
1270.529541 132.0
1270.773071 168.0
1271.004883 116.0
1271.331299 92.0
1271.586792 172.0
1271.771362 116.0
1271.955933 144.0
1272.246948 148.0
1272.292114 112.0
1272.509644 128.0
1273.681396 100.0
1273.901611 164.0
1274.235596 132.0
1274.519775 76.0
1274.84668 192.0
1274.960327 36.0
1275.187866 72.0
1275.337036 68.0
1275.62146 108.0
1275.784912 32.0
1275.884399 108.0
1276.033691 80.0
1276.133301 96.0
1276.417725 80.0
1276.695068 92.0
1277.036499 176.0
1277.295288 184.0
1277.441895 156.0
1278.167603 52.0
1278.312744 132.0
1278.374023 108.0
1278.452271 144.0
1278.509155 128.0
1278.672852 128.0
1278.84082 148.0
1280.096802 180.0
1280.153687 56.0
1280.581055 136.0
1281.450195 36.0
1281.671021 168.0
1281.785034 148.0
1282.547607 184.0
1283.003906 116.0
1283.353271 44.0
1283.873779 52.0
1285.157837 64.0
1285.227539 52.0
1285.421875 164.0
1285.885742 188.0
1286.028442 160.0
1287.285034 108.0
1287.684937 116.0
1287.877808 156.0
1287.999268 152.0
1288.431274 148.0
1288.74231 28.0
1288.920898 156.0
1289.549805 108.0
1290.257446 128.0
1290.479126 108.0
1290.550659 64.0
1290.872437 140.0
1291.001099 132.0
1291.694946 140.0
1292.582153 132.0
1292.946411 200.0
1293.204712 160.0
1293.598389 68.0
1294.550781 144.0
1295.324219 112.0
1295.431763 112.0
1295.689575 156.0
1296.502441 124.0
1296.886353 212.0
1297.474243 56.0
1297.839844 200.0
1298.363403 120.0
1298.485229 192.0
1299.970337 136.0
1300.056519 60.0
1300.630615 136.0
1300.695312 108.0
1300.953735 176.0
1301.204956 224.0
1302.13855 156.0
1303.829468 168.0
1303.956299 156.0
1304.409058 132.0
1304.502563 136.0
1304.63916 176.0
1304.840454 52.0
1305.624268 184.0
1305.768066 40.0
1306.041382 124.0
1306.796753 104.0
1307.034302 52.0
1307.696289 132.0
1307.969849 92.0
1308.04187 232.0
1308.192993 120.0
1308.409058 144.0
1308.977783 92.0
1309.514526 68.0
1310.137451 120.0
1311.794922 176.0
1311.97229 228.0
1312.299683 164.0
1312.602539 136.0
1312.667358 184.0
1313.020752 168.0
1313.980225 52.0
1314.03064 108.0
1314.525513 140.0
1314.716187 44.0
1314.853271 100.0
1315.719482 160.0
1315.827881 116.0
1315.950562 232.0
1316.210571 160.0
1316.549927 144.0
1316.831543 124.0
1316.882202 68.0
1317.069946 128.0
1318.515015 140.0
1318.637939 144.0
1319.816284 112.0
1320.062134 128.0
1320.387573 228.0
1320.467163 108.0
1320.75647 76.0
1321.096436 64.0
1321.197754 224.0
1323.636963 104.0
1323.810791 64.0
1324.071411 56.0
1324.658203 112.0
1326.37561 216.0
1326.44812 208.0
1327.35437 152.0
1327.557373 172.0
1327.963501 180.0
1328.957397 128.0
1329.283936 88.0
1329.610474 52.0
1329.741211 156.0
1330.329102 128.0
1330.684937 200.0
1330.895386 208.0
1331.193115 188.0
1331.360229 164.0
1332.173706 132.0
1332.311768 124.0
1332.40625 136.0
1333.169189 164.0
1333.445312 88.0
1333.801514 120.0
1334.863037 188.0
1335.321167 160.0
1335.633911 128.0
1335.721191 148.0
1336.405151 176.0
1336.634155 132.0
1336.776245 148.0
1337.343872 172.0
1337.642334 180.0
1337.773315 104.0
1338.683472 104.0
1338.763672 200.0
1338.858276 104.0
1339.375488 88.0
1340.184082 128.0
1340.657715 140.0
1340.796265 124.0
1340.84729 180.0
1341.284546 108.0
1341.568848 156.0
1341.962646 188.0
1342.123047 168.0
1342.662598 80.0
1343.516113 88.0
1343.895508 176.0
1344.690918 36.0
1345.114258 64.0
1345.435547 112.0
1345.618042 112.0
1345.888184 100.0
1346.67688 112.0
1346.852173 120.0
1347.14209 156.0
1347.429321 84.0
1347.736206 172.0
1347.889648 120.0
1347.955444 120.0
1348.101562 204.0
1348.357422 68.0
1348.518188 156.0
1348.657104 156.0
1348.942139 108.0
1349.132202 144.0
1349.505127 104.0
1349.614746 124.0
1349.69519 132.0
1349.812134 104.0
1350.645996 176.0
1350.772583 204.0
1350.975098 144.0
1351.458008 176.0
1352.592407 132.0
1352.936523 132.0
1353.278198 212.0
1353.397705 120.0
1354.781982 164.0
1355.097046 152.0
1355.184937 136.0
1355.82251 164.0
1356.005737 84.0
1356.210938 144.0
1356.35022 140.0
1356.841431 164.0
1357.105347 140.0
1357.515991 112.0
1357.934082 220.0
1358.484131 120.0
1358.916992 192.0
1359.276611 160.0
1359.834351 104.0
1360.028442 188.0
1360.150024 104.0
1360.473022 132.0
1360.524414 88.0
1360.58313 128.0
1360.906128 48.0
1361.816772 76.0
1361.912231 56.0
1361.963745 32.0
1362.323608 188.0
1363.462524 104.0
1363.543457 248.0
1363.697754 184.0
1364.057983 124.0
1364.197632 188.0
1364.660767 72.0
1365.630127 204.0
1365.940308 144.0
1366.462769 148.0
1366.896973 76.0
1366.977905 80.0
1367.154541 88.0
1367.206055 132.0
1367.684448 100.0
1368.06665 156.0
1368.29541 52.0
1368.582642 104.0
1368.65625 96.0
1368.884521 96.0
1369.156982 176.0
1369.27478 152.0
1369.993408 116.0
1370.984131 136.0
1371.529541 60.0
1372.041748 164.0
1372.148682 148.0
1372.259277 132.0
1372.413208 96.0
1372.51001 112.0
1372.58374 200.0
1372.709106 308.0
1373.043457 140.0
1373.498291 156.0
1373.631104 184.0
1373.992554 180.0
1374.088501 128.0
1374.77478 92.0
1374.929688 168.0
1375.6604 176.0
1376.206787 68.0
1376.646729 180.0
1376.937866 140.0
1377.491821 60.0
1377.80957 136.0
1378.119873 164.0
1378.260254 136.0
1378.629761 120.0
1378.804077 128.0
1379.014038 112.0
1380.847656 80.0
1381.128784 148.0
1381.757568 160.0
1382.948975 108.0
1383.50415 220.0
1384.207642 152.0
1384.274292 88.0
1384.333496 152.0
1384.548218 188.0
1384.792725 260.0
1385.244507 96.0
1385.303833 112.0
1385.822388 168.0
1385.970581 100.0
1386.311523 132.0
1386.630127 104.0
1387.415894 120.0
1387.497437 112.0
1387.616089 124.0
1388.016479 136.0
1388.342773 144.0
1388.63208 136.0
1388.958374 52.0
1389.173462 92.0
1389.388672 172.0
1389.655762 144.0
1390.145508 200.0
1390.620483 144.0
1390.819214 200.0
1390.991577 44.0
1391.19104 152.0
1391.299805 196.0
1391.838013 88.0
1392.023804 160.0
1392.216797 164.0
1392.640137 180.0
1393.048706 164.0
1393.397827 184.0
1393.843628 196.0
1394.244995 152.0
1394.446411 144.0
1395.374878 152.0
1395.627686 160.0
1395.702026 116.0
1395.843262 156.0
1396.029175 140.0
1396.780396 144.0
1397.241577 112.0
1398.491821 152.0
1398.737427 176.0
1399.727661 164.0
1399.824463 96.0
1399.980835 68.0
1400.055298 136.0
1400.576782 108.0
1400.807617 104.0
1401.344116 112.0
1402.044556 216.0
1402.111572 172.0
1402.238281 32.0
1402.484253 120.0
1403.207397 72.0
1403.565308 100.0
1403.662231 320.0
1403.985352 132.0
1404.258911 192.0
1404.71814 56.0
1405.012329 160.0
1405.758423 128.0
1405.810669 92.0
1406.512329 124.0
1407.333496 120.0
1407.630371 160.0
1407.916016 116.0
1408.125122 192.0
1408.262085 200.0
1408.362427 308.0
1408.662842 168.0
1409.163452 116.0
1409.26062 132.0
1409.469849 152.0
1409.746338 116.0
1409.858398 164.0
1410.052734 216.0
1410.269409 124.0
1410.691772 112.0
1410.972168 196.0
1411.674561 136.0
1411.802124 124.0
1411.899414 176.0
1412.699707 196.0
1412.901733 92.0
1413.021484 96.0
1413.612549 116.0
1414.211304 116.0
1414.548218 204.0
1415.194702 112.0
1415.341797 148.0
1415.993286 180.0
1416.630005 132.0
1416.727417 88.0
1417.223633 172.0
1417.5802 128.0
1417.903809 160.0
1417.963745 72.0
1418.098755 152.0
1418.323608 160.0
1418.390991 196.0
1418.968262 92.0
1419.433228 184.0
1419.553101 200.0
1419.68811 152.0
1420.018188 372.0
1420.130615 156.0
1420.925781 124.0
1421.030884 40.0
1421.207886 252.0
1421.384033 112.0
1421.683716 60.0
1421.751221 120.0
1421.953857 172.0
1422.441772 156.0
1422.516846 156.0
1423.079956 96.0
1423.275146 184.0
1423.487915 240.0
1423.80835 128.0
1424.108765 124.0
1424.244019 140.0
1424.401733 156.0
1424.461792 108.0
1424.863647 128.0
1424.957642 156.0
1425.701538 104.0
1425.806763 144.0
1426.175049 132.0
1426.498291 132.0
1426.708862 204.0
1426.941895 144.0
1427.302856 148.0
1427.505859 176.0
1427.573486 180.0
1427.911987 120.0
1428.61145 180.0
1428.769531 68.0
1428.852295 96.0
1429.303711 52.0
1429.868164 92.0
1429.928345 180.0
1430.048706 44.0
1431.513916 236.0
1431.775635 176.0
1431.855713 124.0
1432.006348 168.0
1432.315186 92.0
1432.699463 216.0
1432.825195 160.0
1432.856323 112.0
1432.881714 140.0
1433.505615 68.0
1433.686523 120.0
1433.769409 48.0
1433.822144 108.0
1434.327148 116.0
1434.583496 240.0
1434.74939 80.0
1434.892578 64.0
1435.035889 152.0
1435.096191 140.0
1435.164062 272.0
1435.503296 100.0
1435.616455 56.0
1435.838257 116.0
1436.06897 112.0
1436.227417 156.0
1436.817749 212.0
1437.034668 160.0
1437.094971 60.0
1437.668457 116.0
1438.423218 176.0
1438.498779 120.0
1438.974365 100.0
1439.095215 72.0
1439.691772 88.0
1440.341309 108.0
1440.658569 128.0
1440.764282 84.0
1440.998535 180.0
1441.671753 132.0
1441.723999 184.0
1441.927979 196.0
1442.086792 260.0
1442.162354 160.0
1442.540283 144.0
1442.744385 160.0
1442.827637 168.0
1442.925903 120.0
1443.228271 192.0
1443.916504 120.0
1444.029907 140.0
1444.33252 212.0
1444.400513 168.0
1444.915039 132.0
1445.194946 136.0
1445.331177 180.0
1445.497559 24.0
1445.732178 112.0
1446.087891 152.0
1446.70105 156.0
1446.754028 176.0
1446.829834 124.0
1446.973633 140.0
1447.07959 184.0
1447.42041 144.0
1447.473389 128.0
1447.571777 168.0
1448.260986 176.0
1448.942749 160.0
1449.329224 136.0
1449.70813 144.0
1449.776367 100.0
1449.834229 256.0
1449.897583 216.0
1450.693481 44.0
1450.784424 56.0
1451.087769 132.0
1451.959717 56.0
1452.028076 48.0
1452.498291 120.0
1453.226562 192.0
1453.810913 128.0
1453.879272 200.0
1454.342163 152.0
1454.418091 96.0
1454.509155 168.0
1454.562378 116.0
1454.894531 136.0
1455.298706 84.0
1455.374634 84.0
1455.488525 52.0
1455.746826 68.0
1456.339111 240.0
1456.711426 192.0
1456.810181 104.0
1457.144409 180.0
1457.27356 172.0
1457.645874 152.0
1458.018311 160.0
1458.101929 120.0
1458.208252 172.0
1458.44397 56.0
1459.043701 144.0
1459.226929 92.0
1459.356201 88.0
1459.489258 120.0
1459.690796 116.0
1460.048218 144.0
1460.185059 60.0
1460.436157 104.0
1460.709961 164.0
1461.189209 176.0
1461.242554 52.0
1461.520752 148.0
1461.550781 84.0
1461.573975 192.0
1461.775146 96.0
1462.041504 156.0
1462.403809 216.0
1462.509399 180.0
1462.635132 236.0
1462.970093 144.0
1463.594482 152.0
1463.647705 40.0
1463.716309 52.0
1464.119873 76.0
1464.554077 120.0
1464.930054 188.0
1465.354004 216.0
1465.849243 108.0
1466.108398 48.0
1467.480469 120.0
1467.556763 148.0
1468.443848 204.0
1469.136841 228.0
1469.402466 80.0
1469.974731 196.0
1470.967041 176.0
1471.657593 124.0
1472.043579 136.0
1472.753784 124.0
1472.886841 164.0
1473.250366 148.0
1473.319092 112.0
1473.617065 96.0
1473.739868 128.0
1474.052612 44.0
1474.130493 188.0
1474.220825 100.0
1475.137939 104.0
1475.917847 92.0
1475.979004 196.0
1476.083008 200.0
1476.361328 64.0
1476.468384 96.0
1476.950317 108.0
1477.172119 88.0
1477.355713 80.0
1477.409302 160.0
1477.845337 132.0
1478.733032 132.0
1478.824951 156.0
1479.080444 232.0
1479.138794 124.0
1479.26123 56.0
1479.406738 168.0
1479.544556 40.0
1479.718384 184.0
1480.049805 116.0
1480.287231 164.0
1480.762085 132.0
1480.945923 120.0
1481.114136 120.0
1481.765503 132.0
1482.393921 152.0
1482.63916 40.0
1482.792358 60.0
1482.909546 172.0
1482.994873 128.0
1483.22168 208.0
1483.328979 164.0
1483.393799 156.0
1483.581909 168.0
1484.078857 104.0
1484.279663 220.0
1484.509766 88.0
1484.663086 148.0
1484.816528 104.0
1484.977539 200.0
1485.275391 216.0
1485.586914 188.0
1486.204956 168.0
1486.35083 152.0
1486.780518 140.0
1486.834229 132.0
1487.064575 96.0
1487.218018 164.0
1487.348511 140.0
1487.548096 68.0
1487.801392 128.0
1487.970337 136.0
1488.290405 76.0
1488.454102 84.0
1489.068481 96.0
1489.268188 100.0
1489.644531 192.0
1489.749268 248.0
1489.865601 272.0
1490.323853 164.0
1490.727417 112.0
1491.135254 72.0
1491.242798 92.0
1491.711792 172.0
1491.765503 76.0
1491.884399 212.0
1491.996216 108.0
1492.057739 124.0
1492.125854 148.0
1492.411377 100.0
1492.511353 128.0
1492.82666 144.0
1492.980469 104.0
1493.2146 160.0
1493.557251 216.0
1493.949585 216.0
1494.149658 128.0
1494.257324 144.0
1494.377441 176.0
1494.449707 80.0
1494.772949 204.0
1494.903687 84.0
1494.95752 160.0
1495.057617 184.0
1495.24231 96.0
1495.403931 128.0
1495.765747 68.0
1495.850464 84.0
1495.989014 144.0
1496.604858 124.0
1496.658813 48.0
1496.766602 212.0
1496.897583 124.0
1496.966797 144.0
1497.826538 148.0
1497.945068 132.0
1498.122192 204.0
1498.337891 100.0
1498.507446 120.0
1498.561401 152.0
1498.638428 108.0
1498.79248 164.0
1498.851807 244.0
1498.977417 32.0
1499.054565 112.0
1499.66333 160.0
1499.940918 172.0
1500.742676 128.0
1501.051147 132.0
1501.280273 184.0
1501.390381 148.0
1501.614746 132.0
1501.86084 108.0
1502.022827 136.0
1502.125977 164.0
1502.285156 44.0
1502.724976 208.0
1503.182373 100.0
1503.241943 148.0
1503.39624 96.0
1503.843872 104.0
1504.067749 264.0
1504.353394 152.0
1504.538696 152.0
1504.855225 96.0
1505.040527 136.0
1505.117798 108.0
1505.253296 192.0
