>compound MLS001160333-01!
>formula C24H23ClN2O5
>ionization [M+H]+
>parentmass 455.138794
#inchi InChI=1S/C24H23ClN2O5/c1-13-16-7-18(25)21(31-2)9-20(16)32-24(30)17(13)8-23(29)26-10-14-6-15(12-26)19-4-3-5-22(28)27(19)11-14/h3-5,7,9,14-15H,6,8,10-12H2,1-2H3/t14-,15+/m1/s1
#inchikey JRXKUVRBGCRRCI
#Ion_Source LC-ESI
#Instrument qTof
#Compound_Source NIH Natural Product Library
#PI Dorrestein
#Data_Collector VVP/LMS
#Scan -1
#Precursor_MZ 455.137
#ExactMass 454.13
#Charge 1
#CAS_Number N/A
#Pubmed_ID N/A
#Smiles COc1cc2oc(=O)c(CC(=O)N3C[C@H]4C[C@@H](C3)c5cccc(=O)n5C4)c(C)c2cc1Cl
#INCHI_AUX N/A
#Library_Class 1
#SpectrumID CCMSLIB00000080437
#IonMode Positive
#UpdateWorkflowName UPDATE-SINGLE-ANNOTATED-GOLD
#LibraryQualityString Gold
#TaskID b1d8e8f6646f4e71acdff9ca3d919d08
##Scan# 1802
#SpectrumFile p2-H08_GH8_01_18068.mzXML
#LibraryName NIH_Natural_Products_Library.mgf
#MQScore -1
#Organism NIH_Natural_Products_Library
#TIC_Query 0
#RT_Query -1
#MZErrorPPM -1
#SharedPeaks 0
#MassDiff 0
#LibMZ -1
#SpecMZ 455.137
#SpecCharge 0
#internalFilename spec-00000.mgf

>collision 10
94.969193 208.0
95.021011 200.0
95.052055 248.0
95.077286 128.0
95.108337 164.0
95.213181 168.0
95.287003 132.0
95.30777 232.0
95.366676 196.0
95.40361 128.0
95.417221 172.0
95.497917 112.0
95.51445 164.0
95.533905 220.0
95.792816 96.0
95.836288 116.0
95.864914 220.0
96.054031 168.0
96.124275 200.0
96.149643 116.0
96.163307 160.0
96.618607 156.0
96.726242 228.0
96.802597 56.0
96.869194 96.0
96.973045 144.0
96.992645 144.0
97.243713 140.0
97.353661 116.0
97.373299 160.0
97.414543 184.0
97.445892 172.0
97.577667 56.0
97.593254 220.0
97.628792 160.0
97.683861 148.0
97.731079 164.0
97.931885 116.0
97.971283 132.0
98.026451 132.0
98.057983 44.0
98.09346 240.0
98.107262 176.0
98.162468 124.0
98.186134 140.0
98.219666 104.0
98.342003 228.0
98.435272 164.0
98.576393 212.0
98.608643 60.0
98.745064 176.0
98.770782 112.0
98.825851 196.0
98.95285 48.0
98.982552 108.0
99.067719 208.0
99.125175 204.0
99.172379 196.0
99.343277 240.0
99.418671 216.0
99.542641 148.0
99.666901 132.0
99.971146 196.0
100.202126 228.0
100.222054 128.0
100.321701 220.0
100.413429 80.0
100.545105 148.0
100.652908 120.0
100.826706 204.0
100.880676 52.0
100.946655 164.0
100.966652 200.0
100.998657 260.0
101.036667 168.0
101.070679 148.0
101.122711 148.0
101.203697 232.0
101.234825 212.0
101.248535 128.0
101.276886 132.0
101.361031 140.0
101.50135 112.0
101.585587 132.0
101.607651 128.0
101.663834 160.0
101.726059 148.0
101.765205 240.0
101.848312 136.0
101.872658 168.0
101.888031 136.0
101.916855 104.0
101.975136 128.0
102.051529 152.0
102.55481 168.0
102.597145 172.0
102.657631 184.0
102.798843 108.0
102.859398 128.0
102.883621 36.0
102.946213 148.0
102.972473 104.0
103.016907 152.0
103.051643 408.0
103.081566 144.0
103.451698 176.0
103.506363 232.0
103.522568 76.0
103.552948 168.0
103.62587 96.0
103.668427 160.0
103.729233 240.0
103.860168 124.0
103.957497 176.0
103.994949 148.0
104.054085 156.0
104.112709 92.0
104.151299 48.0
104.179741 112.0
104.262238 120.0
104.291504 200.0
104.385025 152.0
104.553879 84.0
104.639366 176.0
104.692879 188.0
104.830841 188.0
104.989853 148.0
105.030647 156.0
105.073174 184.0
105.124496 204.0
105.183685 96.0
105.304161 120.0
105.342972 144.0
105.387344 128.0
105.404724 176.0
105.706909 204.0
105.876823 216.0
105.913689 132.0
105.982086 124.0
106.014084 140.0
106.063065 116.0
106.182198 128.0
106.20681 168.0
106.268349 152.0
106.490059 104.0
106.594833 144.0
106.611275 128.0
106.765656 128.0
106.816887 188.0
106.925941 160.0
106.977394 240.0
107.02681 168.0
107.061821 196.0
107.1661 256.0
107.33297 200.0
107.472038 180.0
107.837563 68.0
108.013321 60.0
108.216133 188.0
108.261688 212.0
108.319687 196.0
108.37207 196.0
108.611961 192.0
108.628555 132.0
108.788345 68.0
108.827225 188.0
108.85479 152.0
108.885941 160.0
109.027214 208.0
109.337097 196.0
109.364151 152.0
109.424522 116.0
109.534378 256.0
109.595314 132.0
109.668259 132.0
109.739136 52.0
109.795441 192.0
109.830894 144.0
110.04715 192.0
110.121025 192.0
110.17952 244.0
110.217125 160.0
110.329987 164.0
110.428268 176.0
110.597755 120.0
110.679405 192.0
110.735664 180.0
110.920334 128.0
110.972748 148.0
111.03566 36.0
111.32737 140.0
111.356773 84.0
111.431778 176.0
111.501381 116.0
111.686775 136.0
111.766716 72.0
111.831955 184.0
111.918045 168.0
111.939331 160.0
112.004616 140.0
112.038322 240.0
112.314476 156.0
112.352448 212.0
112.487511 216.0
112.506508 136.0
112.542404 136.0
112.614204 180.0
112.646088 128.0
112.700821 152.0
112.77829 140.0
112.850891 88.0
112.899529 168.0
112.982018 48.0
113.028572 144.0
113.062431 140.0
113.185211 152.0
113.244507 228.0
113.282639 132.0
113.363152 192.0
113.433151 184.0
113.500069 136.0
113.551834 208.0
113.568802 148.0
113.660027 124.0
113.704597 100.0
113.75766 144.0
113.912682 116.0
114.074455 312.0
114.081764 212.0
114.334587 184.0
114.425209 168.0
114.446503 128.0
114.461411 120.0
114.610519 148.0
114.708557 180.0
114.836494 68.0
114.896721 204.0
115.01786 188.0
115.054077 328.0
115.143837 112.0
115.158783 176.0
115.222282 148.0
115.443031 204.0
115.520035 160.0
115.557518 208.0
115.597061 164.0
115.654846 104.0
115.710503 128.0
115.761894 144.0
115.830429 136.0
115.937561 148.0
116.019012 104.0
116.05761 144.0
116.072617 72.0
116.089767 216.0
116.136955 176.0
116.179855 124.0
116.345108 132.0
116.394493 128.0
116.415398 152.0
116.529808 168.0
116.605026 104.0
116.630814 112.0
116.703911 156.0
116.789932 112.0
116.837257 136.0
116.977142 160.0
117.043884 176.0
117.078606 192.0
117.201126 112.0
117.323982 92.0
117.375725 176.0
117.401604 104.0
117.433258 112.0
117.474937 176.0
117.546143 184.0
117.585732 244.0
117.613045 136.0
117.675652 176.0
117.718834 112.0
117.733955 244.0
117.926239 96.0
117.965149 212.0
118.042984 148.0
118.062447 152.0
118.138153 192.0
118.157623 116.0
118.313446 136.0
118.339432 64.0
118.491043 208.0
118.540878 184.0
118.566879 136.0
118.72081 80.0
118.766357 148.0
118.846626 148.0
118.909554 184.0
118.968163 100.0
119.063705 172.0
119.233017 160.0
119.251541 184.0
119.330986 196.0
119.444069 244.0
119.524574 136.0
119.594215 168.0
119.759697 144.0
119.883881 224.0
119.94709 184.0
119.962349 216.0
120.03212 204.0
120.101906 208.0
120.143356 148.0
120.210991 224.0
120.322311 148.0
120.387817 68.0
120.429314 112.0
120.490479 148.0
120.539658 164.0
120.663139 188.0
120.717804 76.0
120.761543 80.0
120.795555 248.0
120.888435 148.0
121.05043 32.0
121.227875 92.0
121.26075 188.0
121.291435 144.0
121.361542 176.0
121.407639 240.0
121.595154 128.0
121.651192 88.0
121.730232 144.0
121.758781 380.0
121.842255 112.0
121.942047 216.0
122.009285 124.0
122.051064 196.0
122.167625 144.0
122.183029 192.0
122.202827 104.0
122.262245 148.0
122.385521 112.0
122.489029 240.0
122.548515 172.0
122.879234 60.0
123.02269 148.0
123.042557 140.0
123.10659 120.0
123.159599 160.0
123.312057 144.0
123.36953 124.0
123.464607 132.0
123.522118 100.0
123.542023 56.0
123.733414 100.0
123.848709 176.0
123.888405 208.0
124.082405 96.0
124.098289 124.0
124.211037 60.0
124.268715 208.0
124.353409 144.0
124.468483 144.0
124.492912 100.0
124.510674 200.0
124.552879 268.0
124.599533 168.0
124.675079 164.0
124.692856 160.0
124.768166 228.0
125.014763 268.0
125.148895 136.0
125.24736 188.0
125.378838 216.0
125.398399 228.0
125.442986 204.0
125.483109 88.0
125.579056 156.0
125.637001 172.0
126.021011 168.0
126.043358 220.0
126.134995 128.0
126.161819 184.0
126.222183 168.0
126.281342 160.0
126.365341 132.0
126.474998 144.0
126.636208 160.0
126.712372 172.0
126.745987 140.0
126.781837 220.0
126.992584 196.0
127.018562 160.0
127.053154 148.0
127.156372 200.0
127.173447 324.0
127.201271 128.0
127.306793 168.0
127.383163 168.0
127.457298 140.0
127.475281 168.0
127.499809 144.0
127.730431 200.0
127.810333 120.0
127.842964 160.0
127.974648 184.0
128.028687 80.0
128.062012 448.0
128.274292 52.0
128.294006 160.0
128.355453 40.0
128.472733 104.0
128.578781 92.0
128.716492 256.0
128.845245 144.0
128.915283 176.0
128.937881 100.0
128.953705 144.0
129.044128 220.0
129.065704 244.0
129.308136 96.0
129.381241 120.0
129.449173 156.0
129.582809 128.0
129.607727 144.0
129.759598 128.0
129.807205 184.0
129.826553 196.0
129.85257 160.0
129.884323 164.0
129.956924 180.0
130.059036 228.0
130.161209 140.0
130.363388 164.0
130.520233 64.0
130.547516 132.0
130.605881 152.0
130.633957 132.0
130.838776 108.0
130.925293 100.0
130.995911 188.0
131.048462 456.0
131.132629 280.0
131.216965 128.0
131.328705 132.0
131.376617 160.0
131.443314 104.0
131.481583 124.0
131.522659 108.0
131.57634 176.0
131.597992 100.0
131.618546 184.0
131.801285 284.0
131.965851 72.0
132.061905 188.0
132.082718 208.0
132.139679 172.0
132.160278 196.0
132.265549 180.0
132.377747 128.0
132.526627 60.0
132.63205 236.0
132.7966 84.0
132.826965 168.0
133.051712 168.0
133.249374 140.0
133.299927 196.0
133.31601 52.0
133.3367 140.0
133.355087 120.0
133.631042 128.0
133.679352 108.0
133.725388 140.0
133.762222 88.0
133.845093 76.0
133.878876 180.0
133.902664 148.0
133.937225 264.0
134.060852 176.0
134.130783 108.0
134.238174 180.0
134.486008 216.0
134.675339 104.0
134.765442 212.0
134.78624 160.0
134.823212 60.0
134.903488 60.0
135.106842 168.0
135.221802 136.0
135.285812 220.0
135.445602 188.0
135.584625 124.0
135.617935 192.0
135.730667 160.0
135.809525 116.0
135.826675 172.0
135.955688 52.0
136.025314 72.0
136.048538 140.0
136.074066 152.0
136.09729 140.0
136.366776 148.0
136.410934 148.0
136.559753 168.0
136.584183 20.0
136.74588 148.0
136.92627 144.0
136.932739 192.0
137.132523 84.0
137.174484 124.0
137.230438 180.0
137.706497 72.0
137.799927 176.0
137.881607 168.0
137.93782 156.0
137.963531 188.0
137.982239 216.0
138.305069 140.0
138.518158 112.0
138.534546 156.0
138.563171 200.0
138.58609 160.0
138.707962 148.0
138.738434 116.0
138.766571 192.0
139.019913 120.0
139.11145 180.0
139.31575 124.0
139.402695 160.0
139.428543 120.0
139.494354 192.0
139.513168 168.0
139.581345 176.0
139.672623 212.0
139.901337 108.0
139.922516 148.0
140.073242 148.0
140.099152 160.0
140.346634 136.0
140.443314 116.0
140.733597 136.0
140.771088 164.0
140.816254 44.0
140.863495 248.0
140.983994 132.0
141.007629 172.0
141.059631 168.0
141.128189 124.0
141.177841 132.0
141.236969 136.0
141.312683 180.0
141.404968 176.0
141.596741 112.0
141.646927 192.0
141.700974 228.0
141.727036 140.0
141.760208 176.0
141.780899 180.0
141.900055 176.0
142.20845 148.0
142.229813 68.0
142.301025 148.0
142.344498 196.0
142.401291 140.0
142.429276 104.0
142.555191 152.0
142.578964 64.0
142.76915 116.0
142.797699 68.0
142.878937 204.0
142.916641 244.0
142.935669 132.0
142.978516 132.0
143.047531 932.0
143.075638 124.0
143.218979 96.0
143.266632 236.0
143.504959 160.0
143.612274 132.0
143.690994 212.0
143.755417 156.0
143.855148 168.0
143.946396 148.0
144.000214 164.0
144.029984 180.0
144.049759 560.0
144.08493 68.0
144.123154 120.0
144.240265 104.0
144.257004 160.0
144.331116 144.0
144.687622 136.0
144.728317 148.0
144.747482 168.0
144.826508 152.0
145.00621 160.0
145.064285 428.0
145.181229 108.0
145.205215 72.0
145.222 68.0
145.262772 84.0
145.447556 112.0
145.464355 92.0
145.618027 164.0
145.829468 116.0
145.887146 152.0
145.928024 88.0
146.024216 116.0
146.041046 32.0
146.07106 1516.0
146.103592 152.0
146.130066 200.0
146.308167 128.0
146.423737 144.0
146.55722 216.0
146.686386 264.0
146.910645 108.0
147.012665 216.0
147.072983 220.0
147.267975 144.0
147.365173 136.0
147.391891 224.0
147.4702 180.0
147.509537 136.0
147.709381 188.0
147.790085 148.0
147.807022 128.0
147.855423 208.0
147.971619 212.0
148.003189 204.0
148.034805 172.0
148.075317 12448.0
148.140182 120.0
148.175064 88.0
148.25502 92.0
148.298645 44.0
148.364929 140.0
148.46109 216.0
148.512024 84.0
148.578934 164.0
148.698853 164.0
148.732834 136.0
148.749817 72.0
148.869995 216.0
148.944092 92.0
149.016968 200.0
149.038834 172.0
149.079254 1044.0
149.119034 180.0
149.162781 48.0
149.182236 76.0
149.216263 72.0
149.34758 52.0
149.37677 88.0
149.459488 160.0
149.496002 48.0
149.551971 176.0
149.780853 48.0
149.819839 112.0
149.958725 144.0
150.002609 128.0
150.028091 124.0
150.077148 168.0
150.134277 124.0
150.424622 64.0
150.444153 188.0
150.715256 164.0
150.769012 172.0
150.813019 76.0
150.893692 164.0
150.946198 184.0
150.967041 144.0
151.008621 124.0
151.033081 104.0
151.145615 88.0
151.231277 144.0
151.520233 136.0
151.58374 96.0
151.618256 168.0
151.708939 212.0
151.767776 156.0
151.802109 160.0
152.027802 144.0
152.187363 92.0
152.342087 168.0
152.386719 148.0
152.420715 44.0
152.491989 76.0
152.509186 88.0
152.573105 188.0
152.607529 136.0
152.664078 104.0
152.828888 140.0
152.956863 124.0
153.052948 160.0
153.079971 180.0
153.161255 176.0
153.234787 216.0
153.286896 220.0
153.353439 192.0
153.390411 196.0
153.410141 220.0
153.53096 180.0
153.72197 148.0
153.752991 148.0
153.802353 164.0
153.854202 72.0
153.878891 96.0
153.928268 140.0
153.965317 216.0
153.990005 140.0
154.024582 124.0
154.101166 176.0
154.120941 168.0
154.214844 104.0
154.338455 220.0
154.405228 100.0
154.444809 216.0
154.472015 120.0
154.538803 108.0
154.600677 136.0
154.714539 152.0
154.82843 152.0
154.92009 184.0
154.976578 180.0
155.006805 128.0
155.041489 140.0
155.217499 180.0
155.35144 140.0
155.532593 64.0
155.592163 204.0
155.614517 120.0
155.661682 116.0
155.734955 148.0
155.825623 172.0
156.223724 192.0
156.350311 108.0
156.40506 260.0
156.430115 192.0
156.469788 168.0
156.519592 200.0
156.662491 100.0
156.686462 52.0
156.718857 204.0
156.766205 124.0
157.020493 136.0
157.070374 96.0
157.130249 112.0
157.411087 140.0
157.467255 124.0
157.499725 88.0
157.530548 176.0
157.744614 184.0
158.07428 1080.0
158.202408 152.0
158.23996 120.0
158.320084 204.0
158.414444 184.0
158.466888 112.0
158.49794 160.0
158.59819 84.0
158.650833 108.0
158.711136 152.0
158.833893 76.0
159.04306 1984.0
159.077301 284.0
159.130035 132.0
159.191467 164.0
159.333466 160.0
159.38121 100.0
159.408844 72.0
159.438995 136.0
159.481735 156.0
159.544571 136.0
159.632584 188.0
159.780975 188.0
159.906799 68.0
159.947067 64.0
160.041306 148.0
160.075729 356.0
160.121338 188.0
160.135147 132.0
160.211487 44.0
160.246765 140.0
160.274475 168.0
160.314789 152.0
160.420654 188.0
160.438309 164.0
160.508896 92.0
160.567612 172.0
160.586258 148.0
160.665283 148.0
160.814163 196.0
160.942917 160.0
161.006042 140.0
161.198044 184.0
161.258118 276.0
161.362335 100.0
161.423019 56.0
161.579849 128.0
161.615265 152.0
161.658279 224.0
161.686127 124.0
161.728851 136.0
161.83548 204.0
161.982361 188.0
162.005173 180.0
162.024063 156.0
162.094269 212.0
162.116653 32.0
162.180008 120.0
162.27562 168.0
162.460648 60.0
162.6772 148.0
162.750824 40.0
162.806686 160.0
162.948944 176.0
163.031601 188.0
163.092392 152.0
163.205658 132.0
163.269226 236.0
163.495651 44.0
163.549103 28.0
163.574554 132.0
163.612732 92.0
163.650925 128.0
163.689117 100.0
163.910736 260.0
164.069443 136.0
164.094269 156.0
164.285538 108.0
164.47168 208.0
164.543304 116.0
164.576492 116.0
164.604584 152.0
164.706741 52.0
164.881546 184.0
164.93161 136.0
164.952057 120.0
165.008301 128.0
165.056885 148.0
165.267593 152.0
165.320358 140.0
165.714706 112.0
165.737762 144.0
165.814651 124.0
165.941422 200.0
166.017014 588.0
166.181412 160.0
166.285385 52.0
166.450867 64.0
166.509933 112.0
166.566437 400.0
166.643509 180.0
166.682053 164.0
166.723175 84.0
166.914352 152.0
166.94426 76.0
166.963028 148.0
167.029144 184.0
167.103745 96.0
167.227264 172.0
167.291611 104.0
167.426224 200.0
167.446121 100.0
167.510513 176.0
167.69603 136.0
167.755325 168.0
167.773361 108.0
167.799149 188.0
167.858459 128.0
167.879089 172.0
167.961609 88.0
168.012436 336.0
168.119003 208.0
168.168045 84.0
168.403 48.0
168.570923 160.0
168.596771 80.0
168.780304 168.0
168.829437 156.0
168.894104 160.0
169.128586 220.0
169.23053 176.0
169.256424 160.0
169.274551 240.0
169.643036 184.0
169.676178 120.0
169.730621 100.0
169.795456 124.0
169.883652 148.0
169.90181 176.0
170.057495 108.0
170.083466 156.0
170.223663 112.0
170.363907 288.0
170.421066 128.0
170.569214 196.0
170.795441 36.0
170.821442 132.0
170.865677 124.0
170.918335 232.0
170.938522 132.0
171.014008 136.0
171.167603 108.0
171.193649 180.0
171.368164 104.0
171.454163 204.0
171.600143 232.0
171.634033 164.0
171.876617 168.0
171.928818 124.0
172.030609 156.0
172.051498 128.0
172.385834 172.0
172.491791 192.0
172.555725 152.0
172.574036 144.0
172.631042 180.0
172.699554 136.0
172.737869 192.0
172.783264 152.0
172.817276 44.0
172.927185 124.0
172.966461 160.0
173.060745 144.0
173.1026 168.0
173.254517 160.0
173.30954 88.0
173.502472 104.0
173.529709 148.0
173.595261 72.0
173.920593 296.0
173.973083 232.0
174.066986 4952.0
174.115173 188.0
174.254105 96.0
174.277756 224.0
174.338196 168.0
174.367096 36.0
174.494705 132.0
174.669479 104.0
174.814178 156.0
174.895767 208.0
174.966843 100.0
175.043198 48.0
175.069321 300.0
175.098328 120.0
175.169632 188.0
175.293457 200.0
175.369888 180.0
175.608749 196.0
175.629578 228.0
175.725891 112.0
175.771042 164.0
175.818253 160.0
175.971359 144.0
176.076981 128.0
176.190567 68.0
176.362335 84.0
176.385117 148.0
176.409912 196.0
176.428421 128.0
176.476013 192.0
176.523605 112.0
176.561768 168.0
176.61882 124.0
176.833145 200.0
176.994629 172.0
177.022522 240.0
177.055542 104.0
177.113495 168.0
177.169434 172.0
177.358795 140.0
177.537872 160.0
177.577652 180.0
177.622742 136.0
177.667847 140.0
177.691727 176.0
177.723557 108.0
178.020798 324.0
178.073975 140.0
178.124451 140.0
178.289185 136.0
178.406143 116.0
178.46994 148.0
178.528442 296.0
178.653458 60.0
178.751907 116.0
178.89563 40.0
178.996811 120.0
179.185928 136.0
179.417786 148.0
179.665817 172.0
179.727188 184.0
179.785889 196.0
179.876633 100.0
179.900665 188.0
179.940704 88.0
180.039505 148.0
180.18367 132.0
180.191345 128.0
180.231842 140.0
180.25589 152.0
180.437653 200.0
180.539261 72.0
180.892441 188.0
180.929932 172.0
181.044098 268.0
181.098633 180.0
181.142334 204.0
181.196014 136.0
181.333069 196.0
181.55426 104.0
181.575714 120.0
181.742035 108.0
181.776917 156.0
181.92453 84.0
182.018509 116.0
182.128616 40.0
182.179871 104.0
182.305939 80.0
182.440338 160.0
182.534439 132.0
182.580154 100.0
182.963638 172.0
183.008026 120.0
183.033905 368.0
183.236969 208.0
183.277374 156.0
183.321625 176.0
183.509003 176.0
183.56041 224.0
183.608963 100.0
183.638626 172.0
183.746536 188.0
183.84906 184.0
184.127579 148.0
184.275711 208.0
184.375702 128.0
184.577423 232.0
184.637939 196.0
184.681335 188.0
184.911194 96.0
184.962631 152.0
185.065506 200.0
185.12236 160.0
185.157578 156.0
185.219864 136.0
185.347198 188.0
185.373703 164.0
185.526093 136.0
185.547775 124.0
185.840698 172.0
186.233887 172.0
186.280518 116.0
186.356583 216.0
186.381042 140.0
186.408218 92.0
186.636551 104.0
187.037964 140.0
187.183487 92.0
187.202545 220.0
187.297882 256.0
187.374161 96.0
187.698502 164.0
187.851242 104.0
187.875793 48.0
187.926971 180.0
188.053818 100.0
188.132324 112.0
188.304352 140.0
188.326202 100.0
188.399612 156.0
188.469437 196.0
188.536575 152.0
188.604904 52.0
188.651382 80.0
188.682419 148.0
188.848267 128.0
188.941879 252.0
189.028824 80.0
189.103012 184.0
189.157471 124.0
189.308044 132.0
189.349136 108.0
189.428558 96.0
189.491577 52.0
189.582001 132.0
189.680664 132.0
189.707199 212.0
189.77742 124.0
190.028961 172.0
190.308929 140.0
190.377579 120.0
190.407227 216.0
190.470963 168.0
190.492935 120.0
190.528641 136.0
190.556122 168.0
190.594589 100.0
190.621674 140.0
190.655045 84.0
190.685272 204.0
190.73172 152.0
190.898117 288.0
190.958862 176.0
190.980194 212.0
191.009735 236.0
191.056503 124.0
191.118576 51324.0
191.158539 152.0
191.196716 60.0
191.233475 112.0
191.326202 184.0
191.350677 36.0
191.376587 112.0
191.43634 64.0
191.485916 68.0
191.50795 64.0
191.56752 272.0
191.661636 76.0
191.677933 200.0
191.709961 124.0
191.758682 60.0
191.808975 132.0
191.85791 80.0
191.879974 124.0
191.899261 60.0
191.921326 40.0
191.94339 304.0
192.010849 124.0
192.044022 188.0
192.12117 5348.0
192.191635 144.0
192.254456 68.0
192.269867 80.0
192.318619 340.0
192.368271 56.0
192.409683 88.0
192.539001 60.0
192.57814 112.0
192.654755 184.0
192.719437 136.0
192.774292 248.0
192.915253 188.0
192.970551 52.0
192.993896 144.0
193.04361 284.0
193.075623 92.0
193.121582 740.0
193.19783 112.0
193.238831 156.0
193.321838 76.0
193.355057 128.0
193.424255 156.0
193.474472 140.0
193.51062 80.0
193.568054 136.0
193.578949 128.0
193.620834 40.0
193.640228 48.0
193.672226 156.0
193.729767 172.0
193.781494 124.0
193.800888 204.0
193.875717 168.0
193.903427 48.0
194.012711 1576.0
194.042908 96.0
194.097488 48.0
194.197327 64.0
194.227829 68.0
194.250031 68.0
194.338562 184.0
194.405396 88.0
194.483109 84.0
194.521973 120.0
194.566208 120.0
194.752441 308.0
194.869125 228.0
194.887558 208.0
194.944153 112.0
195.013855 332.0
195.032684 576.0
195.074783 84.0
195.097031 140.0
195.119263 160.0
195.191559 60.0
195.233276 76.0
195.439117 68.0
195.505905 148.0
195.567139 188.0
195.672913 44.0
195.795441 180.0
195.890152 136.0
195.931931 204.0
196.009857 484.0
196.157669 48.0
196.246872 88.0
196.290161 172.0
196.34169 84.0
196.598358 160.0
196.620682 184.0
196.682083 140.0
196.894287 116.0
196.916626 236.0
197.000427 176.0
197.019974 124.0
197.047913 196.0
197.12056 180.0
197.168076 312.0
197.240753 120.0
197.514786 128.0
197.587509 144.0
197.721832 40.0
197.772202 64.0
197.846222 168.0
197.931793 176.0
197.965393 152.0
198.007401 84.0
198.183884 104.0
198.309998 52.0
198.408112 88.0
198.481003 48.0
198.573547 128.0
198.593185 28.0
198.710999 160.0
198.851318 156.0
199.129272 164.0
199.301834 224.0
199.429901 60.0
199.517044 168.0
199.587341 144.0
199.671707 172.0
199.746338 184.0
199.792664 180.0
199.891144 128.0
199.944611 156.0
199.96994 92.0
200.034683 68.0
200.071274 132.0
200.206436 72.0
200.513519 124.0
200.660095 80.0
200.708038 112.0
201.1651 180.0
201.201797 156.0
201.232849 172.0
201.294968 168.0
201.36557 84.0
201.405121 188.0
201.563324 112.0
201.692902 132.0
201.888428 176.0
202.052475 248.0
202.073105 160.0
202.106232 164.0
202.154343 204.0
202.199631 140.0
202.327011 60.0
202.39212 180.0
202.627213 184.0
202.797241 132.0
202.93898 36.0
203.069427 100.0
203.089294 160.0
203.177231 44.0
203.404251 260.0
203.432648 180.0
203.495102 124.0
203.620041 92.0
203.648453 68.0
203.750717 92.0
203.935425 148.0
203.989426 156.0
204.083252 100.0
204.115952 136.0
204.148651 128.0
204.177094 160.0
204.290863 144.0
204.362 128.0
204.433136 56.0
204.492905 116.0
204.615311 148.0
204.706421 216.0
204.942856 120.0
205.196518 76.0
205.2621 120.0
205.336243 128.0
205.379028 172.0
205.461761 64.0
205.558777 128.0
205.681488 136.0
205.838516 68.0
205.858505 168.0
205.927048 132.0
205.998459 120.0
206.098465 68.0
206.166611 160.0
206.261368 72.0
206.347122 232.0
206.506119 140.0
206.581635 80.0
206.613113 152.0
206.633133 144.0
206.741867 156.0
206.767624 160.0
206.919342 176.0
206.949081 152.0
206.985199 288.0
207.219223 176.0
207.311768 152.0
207.372345 124.0
207.609909 216.0
207.74472 112.0
207.770538 160.0
207.939835 128.0
208.025696 136.0
208.118439 260.0
208.183868 112.0
208.293015 212.0
208.330353 132.0
208.445282 212.0
208.479767 184.0
208.554489 168.0
208.59761 40.0
208.686737 148.0
208.7845 100.0
208.844147 152.0
208.86792 96.0
208.948471 188.0
208.969025 136.0
209.036942 14640.0
209.09639 148.0
209.180267 168.0
209.216125 64.0
209.315323 88.0
209.446487 52.0
209.495468 216.0
209.521393 108.0
209.558853 120.0
209.590546 164.0
209.63089 68.0
209.904739 196.0
209.933578 56.0
210.038818 2168.0
210.08934 84.0
210.126846 56.0
210.233597 36.0
210.262115 100.0
210.325958 284.0
210.372147 140.0
210.392365 104.0
210.430557 156.0
210.455215 156.0
210.603165 228.0
210.808289 84.0
210.883423 68.0
210.933594 168.0
210.975937 112.0
211.034195 4076.0
211.0858 232.0
211.201492 180.0
211.260681 120.0
211.314316 52.0
211.430054 88.0
211.487946 96.0
211.513992 100.0
211.574783 200.0
211.688034 136.0
211.728256 76.0
211.816452 168.0
212.04129 428.0
212.122314 220.0
212.157104 116.0
212.177399 40.0
212.293381 140.0
212.313675 128.0
212.360916 128.0
212.447098 220.0
212.588821 152.0
212.741882 76.0
212.81279 64.0
212.975418 132.0
213.001572 68.0
213.032486 56.0
213.370636 100.0
213.680923 216.0
213.768768 160.0
213.815689 192.0
213.859344 184.0
214.086258 128.0
214.249557 140.0
214.331131 120.0
214.418564 100.0
214.468109 180.0
214.494339 132.0
214.663452 188.0
214.88385 128.0
214.92598 124.0
214.969757 156.0
215.112762 120.0
215.28212 144.0
215.469055 112.0
215.489502 92.0
215.76651 216.0
215.791962 108.0
215.857803 192.0
216.024521 40.0
216.141541 240.0
216.191299 148.0
216.331787 128.0
216.410294 276.0
216.466476 48.0
216.536758 116.0
216.785782 80.0
216.875687 136.0
216.985718 132.0
217.017349 244.0
217.037872 132.0
217.210907 132.0
217.248154 100.0
217.877304 180.0
217.95076 68.0
217.983078 128.0
218.059494 132.0
218.121216 148.0
218.1418 128.0
218.568253 144.0
218.677139 176.0
218.830215 128.0
218.942108 140.0
218.962723 132.0
219.307449 180.0
219.328079 196.0
219.539749 152.0
219.670151 116.0
219.740952 92.0
219.950485 116.0
220.228043 140.0
220.298935 160.0
220.675278 152.0
220.721588 108.0
220.801422 168.0
220.848755 132.0
220.955246 120.0
221.027878 248.0
221.576981 108.0
221.600677 60.0
221.645126 216.0
221.867416 164.0
222.008041 332.0
222.128387 136.0
222.442947 76.0
222.46965 160.0
222.50528 164.0
222.698303 220.0
222.748795 164.0
222.959763 136.0
223.019196 196.0
223.072708 76.0
223.233261 148.0
223.346283 216.0
223.500977 236.0
223.565216 256.0
223.840332 196.0
223.885361 164.0
223.920731 56.0
223.992218 164.0
224.013077 140.0
224.081589 40.0
224.138199 196.0
224.397522 112.0
224.534698 52.0
225.119629 96.0
225.206238 36.0
225.342239 336.0
225.379517 80.0
225.424332 176.0
225.60965 212.0
225.812988 224.0
225.962555 156.0
226.187012 104.0
226.240891 136.0
226.441513 100.0
226.531372 148.0
226.942032 180.0
226.965958 172.0
227.136902 196.0
227.680161 164.0
227.77327 148.0
227.941528 196.0
228.091797 132.0
228.233093 180.0
228.542908 164.0
228.706451 176.0
228.864975 96.0
228.89444 148.0
228.943268 148.0
229.087387 180.0
229.166183 204.0
229.214401 100.0
229.30307 76.0
229.389206 216.0
229.425385 116.0
229.461563 60.0
229.536942 180.0
229.70282 72.0
229.766174 132.0
229.787292 224.0
229.901947 60.0
229.92308 148.0
229.95929 168.0
230.016647 128.0
230.074005 140.0
230.175308 192.0
230.258194 208.0
230.288651 144.0
230.475708 144.0
230.545212 60.0
230.799133 188.0
230.865662 144.0
231.022949 192.0
231.210541 168.0
231.257706 172.0
231.56781 56.0
231.646561 152.0
232.070847 164.0
232.110275 56.0
232.325623 152.0
232.481186 220.0
232.5728 168.0
232.690109 200.0
232.718491 196.0
232.874634 208.0
232.929718 212.0
232.972244 64.0
233.008713 32.0
233.203186 152.0
233.406876 168.0
233.470734 156.0
233.555908 80.0
233.723221 156.0
233.814529 128.0
234.237259 176.0
234.417511 136.0
234.457123 276.0
234.545517 88.0
234.652222 160.0
234.694901 64.0
234.789429 108.0
234.856537 108.0
234.917542 120.0
234.954895 164.0
234.987717 52.0
235.34462 176.0
235.415054 104.0
235.470032 164.0
235.528061 168.0
235.573883 192.0
235.624557 132.0
235.784714 92.0
235.806107 56.0
235.851959 84.0
235.955887 168.0
236.017593 192.0
236.072083 144.0
236.102509 308.0
236.136307 128.0
236.200546 168.0
236.246384 132.0
236.2901 264.0
236.324265 208.0
236.364639 136.0
236.416595 156.0
236.428619 96.0
236.478989 160.0
236.519699 120.0
236.561234 136.0
236.595688 220.0
236.622864 296.0
236.652771 348.0
236.71048 332.0
236.730865 132.0
236.769852 412.0
236.804214 288.0
236.860855 320.0
236.914825 136.0
236.927383 196.0
236.951035 636.0
236.980148 576.0
237.032837 192648.0
237.132858 460.0
237.202667 140.0
237.238312 180.0
237.258484 92.0
237.30336 208.0
237.326294 228.0
237.386505 128.0
237.43013 80.0
237.472427 236.0
237.51152 272.0
237.537674 1816.0
237.57756 236.0
237.612015 104.0
237.646347 64.0
237.653427 44.0
237.6922 68.0
237.712234 132.0
237.762238 132.0
237.837296 180.0
237.872604 92.0
237.916641 108.0
237.963699 256.0
238.035355 30504.0
238.118469 44.0
238.137329 228.0
238.160812 164.0
238.18689 36.0
238.243301 44.0
238.266144 304.0
238.288269 172.0
238.319778 204.0
238.365646 52.0
238.421417 156.0
238.444 76.0
238.469574 36.0
238.528122 136.0
238.554443 256.0
238.57962 312.0
238.619263 136.0
238.660858 224.0
238.715088 56.0
238.750641 76.0
238.78656 40.0
238.816193 268.0
238.837006 68.0
238.867096 168.0
238.89209 52.0
238.954147 296.0
238.978317 220.0
239.029617 57656.0
239.100174 88.0
239.129669 156.0
239.188248 160.0
239.231094 92.0
239.250839 188.0
239.299133 152.0
239.326584 48.0
239.368927 84.0
239.40657 108.0
239.464523 232.0
239.500336 60.0
239.537384 100.0
239.575348 352.0
239.581055 196.0
239.617157 120.0
239.649399 132.0
239.690475 272.0
239.715683 80.0
239.722595 56.0
239.734344 88.0
239.775909 392.0
239.804184 280.0
239.83606 168.0
239.889801 112.0
239.928665 92.0
239.97081 36.0
239.998459 56.0
240.032761 6572.0
240.06897 104.0
240.082077 128.0
240.144669 88.0
240.19696 64.0
240.220459 104.0
240.264832 68.0
240.340424 64.0
240.368286 68.0
240.427933 56.0
240.467255 188.0
240.490097 76.0
240.529236 152.0
240.560074 108.0
240.605927 100.0
240.635193 40.0
240.695709 40.0
240.731995 120.0
240.794937 148.0
240.869904 48.0
240.891525 28.0
240.920517 52.0
240.959488 76.0
241.032791 772.0
241.144897 68.0
241.197449 76.0
241.265457 48.0
241.290192 100.0
241.311829 48.0
241.336563 52.0
241.407684 120.0
241.449753 60.0
241.549835 148.0
241.611832 72.0
241.682999 72.0
241.733429 120.0
241.794113 88.0
241.815399 168.0
241.847961 196.0
241.869858 148.0
241.930588 104.0
241.971695 72.0
242.001801 72.0
242.035858 48.0
242.224792 128.0
242.302231 96.0
242.39209 52.0
242.438568 84.0
242.491257 80.0
242.627655 132.0
242.729965 80.0
242.776489 40.0
242.943985 32.0
243.021545 28.0
243.425079 48.0
243.50116 96.0
243.950165 112.0
244.301575 68.0
244.553619 84.0
244.590973 28.0
244.802689 140.0
244.945953 84.0
245.026962 104.0
245.151596 60.0
245.379135 76.0
245.597427 120.0
245.950027 76.0
246.012466 132.0
246.17482 48.0
246.446579 120.0
246.787277 104.0
246.990555 116.0
247.012451 300.0
247.065628 48.0
247.234161 84.0
247.616562 64.0
247.641617 40.0
247.813904 72.0
247.860916 48.0
248.027008 96.0
248.061493 76.0
248.089706 112.0
248.541351 192.0
248.641769 192.0
248.706238 56.0
249.009109 88.0
249.093918 92.0
249.235291 160.0
249.452148 112.0
249.474152 60.0
249.499298 104.0
249.754028 92.0
249.845245 76.0
250.260696 48.0
250.389801 40.0
250.443344 60.0
250.496902 76.0
250.553604 120.0
250.575668 56.0
250.824615 44.0
250.859299 100.0
250.966492 128.0
250.991714 72.0
251.310303 76.0
251.417587 68.0
251.578568 144.0
251.689072 92.0
251.929108 120.0
251.995453 84.0
252.284058 112.0
252.909378 64.0
252.94104 68.0
253.016617 156.0
253.62207 92.0
253.710831 80.0
253.843994 108.0
253.970856 80.0
254.294495 68.0
254.510376 192.0
255.031387 192.0
255.133102 92.0
255.683395 44.0
255.910339 68.0
255.947617 44.0
256.393616 88.0
256.766602 140.0
257.02182 36.0
258.373352 104.0
259.853516 96.0
260.775146 32.0
261.46344 112.0
262.033386 128.0
263.326935 56.0
264.131775 248.0
264.944336 52.0
265.027161 10184.0
265.080414 188.0
265.194489 128.0
265.235992 68.0
265.719177 64.0
266.032532 916.0
266.397705 52.0
266.453949 88.0
266.602386 188.0
266.777924 76.0
266.829926 120.0
266.930725 68.0
266.956757 60.0
267.023407 2008.0
267.106354 48.0
267.213715 112.0
267.496857 160.0
267.744293 136.0
267.770355 64.0
267.817657 100.0
268.031494 576.0
268.350403 40.0
269.018036 272.0
269.254303 40.0
269.518921 68.0
269.918732 76.0
270.382233 76.0
271.528931 36.0
272.641907 56.0
272.668182 64.0
273.079163 84.0
274.073364 60.0
274.957153 40.0
276.573395 44.0
277.719849 112.0
278.054962 96.0
279.354156 100.0
281.190125 100.0
281.27359 176.0
282.436432 108.0
282.486603 80.0
283.159393 84.0
283.608368 92.0
287.024078 148.0
287.074677 108.0
288.107513 80.0
288.648315 28.0
289.650085 48.0
290.568817 100.0
294.121643 84.0
299.649811 92.0
300.246155 44.0
301.385345 92.0
305.312927 92.0
305.37207 92.0
306.799744 164.0
309.092773 116.0
309.696625 116.0
311.692841 64.0
312.16037 28.0
313.575623 76.0
319.001953 236.0
323.965942 52.0
325.51181 56.0
327.154938 40.0
329.011566 144.0
331.608826 68.0
332.410309 100.0
332.700653 184.0
334.208984 128.0
336.636688 124.0
337.88678 112.0
341.397095 120.0
343.673615 64.0
346.439087 108.0
346.854126 144.0
348.037598 80.0
350.414337 116.0
350.630463 84.0
353.221741 80.0
354.907043 80.0
355.882599 136.0
357.434998 20.0
361.079224 40.0
362.949982 112.0
367.808319 108.0
367.915192 40.0
368.503357 108.0
369.489777 96.0
372.549103 160.0
374.927032 20.0
375.034943 140.0
377.065125 180.0
377.389862 100.0
377.724945 56.0
377.857849 152.0
379.069794 88.0
380.586487 52.0
384.178802 96.0
386.08493 88.0
387.144012 140.0
388.333008 72.0
389.412354 88.0
389.954559 132.0
390.174683 144.0
390.422424 124.0
390.615143 112.0
391.481049 132.0
391.55191 152.0
394.716888 64.0
395.567535 96.0
396.942352 96.0
401.455872 48.0
401.74704 96.0
403.384338 84.0
406.227539 52.0
408.424805 48.0
410.075653 148.0
410.765137 36.0
411.499634 68.0
412.396454 104.0
412.922058 128.0
412.998901 88.0
419.349243 76.0
421.001587 72.0
421.920959 136.0
422.583496 124.0
423.578339 76.0
426.249237 72.0
428.079773 48.0
428.429901 80.0
428.660614 104.0
429.835846 32.0
430.583069 76.0
432.253235 136.0
432.542938 120.0
434.324707 80.0
437.095795 64.0
437.129089 180.0
438.157562 100.0
438.424225 48.0
440.205536 184.0
444.601196 108.0
450.419983 100.0
452.445618 56.0
452.547211 56.0
453.025787 68.0
453.182556 92.0
454.356964 92.0
455.019043 88.0
455.077118 148.0
455.138794 3464.0
455.269592 148.0
455.447968 112.0
455.673126 44.0
455.881317 96.0
455.987579 144.0
456.142273 1140.0
456.866974 108.0
456.897552 32.0
457.05072 48.0
457.133514 1220.0
457.254974 84.0
457.489105 76.0
457.753082 52.0
457.893616 120.0
458.136414 624.0
458.485809 72.0
458.873718 132.0
459.125305 92.0
459.889008 88.0
461.131897 44.0
461.375549 88.0
461.704803 76.0
464.192902 52.0
464.458801 68.0
465.454498 68.0
468.60733 32.0
469.158997 56.0
470.090637 48.0
473.01236 92.0
475.760742 72.0
477.111847 72.0
478.891632 64.0
479.327271 44.0
483.095215 92.0
483.532776 124.0
487.769836 128.0
490.238953 132.0
497.248718 76.0
499.714996 48.0
499.817322 68.0
501.638916 92.0
503.133392 28.0
504.898407 92.0
512.511841 80.0
512.971558 44.0
525.342712 120.0
529.502258 160.0
543.42865 44.0
547.705566 124.0
547.78479 112.0
549.066589 96.0
549.281128 64.0
554.653931 32.0
556.967224 80.0
562.367981 52.0
568.753174 40.0
572.328247 64.0
580.015198 136.0
582.928467 56.0
584.967712 96.0
590.497375 120.0
594.038208 72.0
601.444336 60.0
603.408203 100.0
605.791504 76.0
606.894226 76.0
607.105103 72.0
609.235352 56.0
614.083923 172.0
614.369995 52.0
616.661194 40.0
628.550354 36.0
632.273315 44.0
639.913391 36.0
649.997314 104.0
668.172058 76.0
691.497986 96.0
697.167358 68.0
697.21991 124.0
707.717407 56.0
720.006714 48.0
720.044128 52.0
729.673462 44.0
738.479431 44.0
739.45874 200.0
742.888672 108.0
748.181824 108.0
762.051819 120.0
776.115662 132.0
776.964294 60.0
780.413269 100.0
785.391968 36.0
787.401306 100.0
823.156677 36.0
828.785278 60.0
848.172607 32.0
866.588379 60.0
869.602539 108.0
882.704773 108.0
887.530701 132.0
888.515259 144.0
893.166687 100.0
893.238037 120.0
905.180603 72.0
910.866211 60.0
911.593201 128.0
930.292908 88.0
932.309448 40.0
940.897949 48.0
942.773132 92.0
974.259888 68.0
978.725525 76.0
988.513184 76.0
1001.464966 52.0
1015.388672 108.0
1036.239868 40.0
1037.816528 88.0
1050.705688 36.0
1059.569336 60.0
1068.073364 164.0
1076.395874 116.0
1086.895386 164.0
1101.332764 112.0
1107.378052 148.0
1121.203857 56.0
1126.929321 132.0
1132.917114 84.0
1144.825806 192.0
1146.348267 52.0
1158.503296 216.0
1168.387817 112.0
1168.959351 120.0
1173.925415 116.0
1174.59375 116.0
1174.730225 132.0
1178.013672 80.0
1178.450928 184.0
1178.88147 196.0
1179.216797 236.0
1180.399048 188.0
1183.923218 164.0
1184.375244 36.0
1196.957031 56.0
1205.344849 164.0
1206.40918 176.0
1206.789429 172.0
1209.916748 56.0
1210.567505 152.0
1212.784546 132.0
1215.794556 80.0
1224.129639 168.0
1240.913452 124.0
1248.616577 40.0
1251.163818 68.0
1259.873413 136.0
1266.636108 92.0
1268.854248 200.0
1274.070557 108.0
1274.674438 68.0
1275.804565 96.0
1280.46521 100.0
1286.854492 68.0
1287.32666 156.0
1287.718506 100.0
1289.283203 80.0
1292.436768 156.0
1292.909058 132.0
1302.624268 68.0
1303.084106 168.0
1305.61438 172.0
1310.509155 72.0
1313.133179 32.0
1315.478271 172.0
1317.897583 204.0
1319.769653 216.0
1320.398804 144.0
1322.981934 108.0
1326.915771 136.0
1328.0979 180.0
1330.238403 236.0
1331.516357 196.0
1333.405273 112.0
1337.711304 68.0
1341.542969 136.0
1348.104614 116.0
1350.034546 200.0
1350.992798 192.0
1351.234131 80.0
1353.913208 176.0
1354.880127 204.0
1355.89856 132.0
1356.147827 36.0
1359.624146 240.0
1360.203979 272.0
1360.783936 148.0
1362.495239 60.0
1363.634155 200.0
1363.884033 208.0
1365.648682 136.0
1367.326172 128.0
1370.838989 180.0
1372.5271 64.0
1374.858032 164.0
1375.227051 188.0
1377.841187 216.0
1378.05542 84.0
1380.864502 104.0
1381.212158 112.0
1381.855713 116.0
1384.372437 208.0
1385.253784 128.0
1387.02478 128.0
1389.034302 176.0
1395.182983 76.0
1397.235596 176.0
1397.481079 172.0
1397.927612 116.0
1401.129272 172.0
1402.045776 132.0
1402.858154 108.0
1403.551636 80.0
1404.931396 108.0
1409.590332 112.0
1413.822998 160.0
1415.567261 132.0
1417.252563 108.0
1419.411377 144.0
1420.116211 104.0
1420.46875 168.0
1421.316528 184.0
1421.736816 156.0
1423.088013 136.0
1423.816284 196.0
1424.131836 108.0
1424.31958 40.0
1425.318726 136.0
1426.88208 192.0
1428.438843 248.0
1432.631836 152.0
1434.003174 160.0
1436.499023 156.0
1436.846069 164.0
1436.898804 104.0
1438.400635 108.0
1441.277954 136.0
1442.464478 124.0
1443.78772 224.0
1447.427612 64.0
1448.896973 40.0
1450.609619 160.0
1451.868286 136.0
1452.755737 136.0
1463.228027 168.0
1463.821899 148.0
1464.73584 124.0
1465.80249 244.0
1466.335938 152.0
1467.098145 160.0
1467.265869 136.0
1468.119873 204.0
1468.4021 148.0
1469.912598 64.0
1470.584106 120.0
1472.057617 60.0
1472.553955 68.0
1480.990234 188.0
1482.216064 104.0
1482.622192 152.0
1485.182861 160.0
1485.804321 112.0
1486.441162 236.0
1488.068359 228.0
1490.095947 144.0
1493.339844 40.0
1494.524536 196.0
1496.0177 128.0
1496.171631 224.0
1497.118652 196.0
1498.212402 120.0
1499.707397 104.0
1500.347168 124.0
1502.86145 144.0
