>compound Erythraline
>formula C18H19NO3
>ionization [M+H]+
>parentmass 298.1437699200905
#inchi InChI=1S/C18H19NO3/c1-20-14-3-2-13-5-7-19-6-4-12-8-16-17(22-11-21-16)9-15(12)18(13,19)10-14/h2-3,5,8-9,14H,4,6-7,10-11H2,1H3
#inchikey TVOFUERNMZTYRM
#Ion_Source DI-ESI
#Instrument Ion Trap
#Compound_Source Isolated
#PI Norberto Lopes
#Data_Collector Denise Silva
#Scan -1
#Precursor_MZ 266.0
#ExactMass 297.137
#Charge 1
#CAS_Number 466-77-3
#Pubmed_ID  
#Smiles COC1CC23C4=CC5=C(OCO5)C=C4CCN2CC=C3C=C1
#INCHI_AUX  
#Library_Class 3
#SpectrumID CCMSLIB00000081230
#IonMode Positive
#UpdateWorkflowName UPDATE-SINGLE-ANNOTATED-BRONZE
#LibraryQualityString Bronze
#TaskID 154365ea5c3e4e9b8284f01c0eafd792
##Scan# 1
#SpectrumFile gnps_Erythraline_pos_MplusHminusCH3OH.mgf
#LibraryName gnps_library.mgf
#MQScore -1
#Organism gnps_library
#TIC_Query 0
#RT_Query -1
#MZErrorPPM -1
#SharedPeaks 0
#MassDiff 0
#LibMZ -1
#SpecMZ 266
#SpecCharge 0
#internalFilename spec-00000.mgf

>collision 10
119.009003 21368.0
149.020004 104199.0
162.013 8187.0
165.074997 9578.0
174.011993 19278.0
175.011993 11099.0
176.013 19519.0
181.949997 10518.0
190.983002 104928.0
193.106003 22684.0
203.048004 19147.0
207.020996 101051.0
208.059006 446526.0
208.919998 16645.0
211.037003 14553.0
218.074997 8753.0
219.039993 1370684.0
221.003998 106108.0
223.102997 20564.0
224.035004 52153.0
229.044006 18624.0
231.003998 35806.0
234.044006 15217.0
235.044006 9772.0
236.070999 1533387.0
247.048996 11646.0
249.054993 3490709.0
249.748993 7730.0
264.067993 515938.0
266.085999 986620.0
