>compound SB 205607
>formula C23H24N2O
>ionization [M+H]+
>parentmass 345.195953
#inchi InChI=1S/C23H24N2O/c1-25-10-9-23(18-6-4-7-20(26)13-18)14-22-17(12-19(23)15-25)11-16-5-2-3-8-21(16)24-22/h2-8,11,13,19,26H,9-10,12,14-15H2,1H3/t19-,23+/m0/s1
#inchikey LEPBHAAYNPPRRA
#Ion_Source LC-ESI
#Instrument qTof
#Compound_Source Commercial
#PI Dorrestein
#Data_Collector Garg_Neha
#Scan -1
#Precursor_MZ 345.196
#ExactMass 344.189
#Charge 1
#CAS_Number N/A
#Pubmed_ID N/A
#Smiles CN1CC[C@@]2(Cc3nc4ccccc4cc3C[C@H]2C1)c5cccc(O)c5
#INCHI_AUX N/A
#Library_Class 1
#SpectrumID CCMSLIB00000079228
#IonMode Positive
#UpdateWorkflowName UPDATE-SINGLE-ANNOTATED-GOLD
#LibraryQualityString Gold
#TaskID 278b19f5865741e282cec7349aa7e7a1
##Scan# 990
#SpectrumFile NCP003672_A27B27C27D27_BE4_01_15740.mzXML
#LibraryName NIHcollectionI_05062014.mgf
#MQScore -1
#Organism NIHcollectionI_05062014
#TIC_Query 0
#RT_Query -1
#MZErrorPPM -1
#SharedPeaks 0
#MassDiff 0
#LibMZ -1
#SpecMZ 345.196
#SpecCharge 0
#internalFilename spec-00000.mgf

>collision 10
53.346745 200.0
82.075188 196.0
105.854172 140.0
107.051361 140.0
109.081039 212.0
133.057785 176.0
147.070908 144.0
156.08168 396.0
157.091064 152.0
158.096939 172.0
158.32579 148.0
162.091919 160.0
168.07959 160.0
168.098801 188.0
169.085983 360.0
170.096481 580.0
173.084564 180.0
180.076462 176.0
181.081665 144.0
182.105103 276.0
188.10878 324.0
195.099777 152.0
198.091019 236.0
199.089508 164.0
199.124664 340.0
200.104599 312.0
200.127121 140.0
206.105057 112.0
207.104813 176.0
208.112534 208.0
210.102997 176.0
211.123245 172.0
212.133347 172.0
222.640732 160.0
225.112442 204.0
226.122467 136.0
227.128326 332.0
243.146591 212.0
244.151276 396.0
245.000198 144.0
245.157394 116.0
265.129913 120.0
266.171112 140.0
272.109833 128.0
274.129303 192.0
284.115021 208.0
286.118256 444.0
288.219208 144.0
300.14093 148.0
300.387451 152.0
302.153168 1152.0
303.156189 316.0
310.418182 196.0
311.169067 164.0
314.142822 156.0
315.147461 296.0
335.27124 140.0
343.063782 148.0
344.248138 156.0
345.049927 144.0
345.195953 10448.0
345.284088 136.0
346.200043 1980.0
347.200775 320.0
