>compound (8S,9R,10S,11S,13S,14S,16R,17S)-9-fluoro-11-hydroxy-17-(2-hydroxyacetyl)-10,13,16-trimethyl-7,8,11,12,14,15,16,17-octahydro-6H-cyclopenta[a]phenanthren-3-one
>formula C22H29FO4
>ionization [M+H]+
>parentmass 377.213409
#inchi InChI=1S/C22H29FO4/c1-12-8-16-15-5-4-13-9-14(25)6-7-21(13,3)22(15,23)18(27)10-20(16,2)19(12)17(26)11-24/h6-7,9,12,15-16,18-19,24,27H,4-5,8,10-11H2,1-3H3/t12-,15+,16+,18+,19-,20+,21+,22+/m1/s1
#inchikey VWVSBHGCDBMOOT
#Ion_Source LC-ESI
#Instrument qTof
#Compound_Source Commercial
#PI Dorrestein
#Data_Collector Garg_Neha
#Scan -1
#Precursor_MZ 377.212
#ExactMass 376.205
#Charge 1
#CAS_Number N/A
#Pubmed_ID N/A
#Smiles C[C@@H]1C[C@H]2[C@@H]3CCC4=CC(=O)C=C[C@]4(C)[C@@]3(F)[C@@H](O)C[C@]2(C)[C@H]1C(=O)CO
#INCHI_AUX N/A
#Library_Class 1
#SpectrumID CCMSLIB00000079054
#IonMode Positive
#UpdateWorkflowName UPDATE-SINGLE-ANNOTATED-GOLD
#LibraryQualityString Gold
#TaskID 278b19f5865741e282cec7349aa7e7a1
##Scan# 1303
#SpectrumFile NCP003432_A2_B11_BC8_01_15722.mzXML
#LibraryName NIHcollectionI_05062014.mgf
#MQScore -1
#Organism NIHcollectionI_05062014
#TIC_Query 0
#RT_Query -1
#MZErrorPPM -1
#SharedPeaks 0
#MassDiff 0
#LibMZ -1
#SpecMZ 377.212
#SpecCharge 0
#internalFilename spec-00000.mgf

>collision 10
47.724438 184.0
48.097778 140.0
48.807106 168.0
51.116962 188.0
51.324928 152.0
51.494751 140.0
51.883965 160.0
51.918377 180.0
52.207031 188.0
52.417202 204.0
53.356567 196.0
53.710434 168.0
54.362961 164.0
54.734867 304.0
54.88369 152.0
55.663494 184.0
56.208305 188.0
56.462261 152.0
56.604427 152.0
57.627254 144.0
58.037434 152.0
58.290924 180.0
58.446022 212.0
58.470371 144.0
59.082249 144.0
59.221546 152.0
60.611149 156.0
61.190498 216.0
61.304203 160.0
61.375256 184.0
61.549107 148.0
61.814842 168.0
62.687946 164.0
63.000351 204.0
63.470409 184.0
63.932671 148.0
64.380638 156.0
64.740456 152.0
65.046692 228.0
65.263573 152.0
65.471664 164.0
66.230247 192.0
66.575706 184.0
68.705246 164.0
69.484467 160.0
69.726898 156.0
70.339455 140.0
71.381935 288.0
72.631714 156.0
72.986656 188.0
73.066597 176.0
73.504478 148.0
74.099495 148.0
75.561203 156.0
77.1735 148.0
77.518326 172.0
78.025581 172.0
78.908859 192.0
79.022057 148.0
79.676262 168.0
79.78289 164.0
80.248489 260.0
80.964104 152.0
81.025009 184.0
81.597519 148.0
83.160072 188.0
83.625366 248.0
84.384224 140.0
85.111618 140.0
85.939896 188.0
86.004486 192.0
86.24276 156.0
86.329651 148.0
87.147102 160.0
87.949738 228.0
87.992668 236.0
89.122063 156.0
89.928055 212.0
89.945045 160.0
90.073448 144.0
90.500847 156.0
90.682709 164.0
90.897003 212.0
91.051811 380.0
91.606163 144.0
92.153694 216.0
92.293221 148.0
92.773773 180.0
93.070374 356.0
93.130684 172.0
93.530624 152.0
94.826645 184.0
94.92746 176.0
94.960426 140.0
95.086456 1280.0
96.091484 188.0
97.065231 752.0
97.836815 148.0
98.536934 204.0
98.906731 208.0
99.082062 216.0
99.134491 156.0
99.495483 168.0
99.626556 260.0
100.052132 160.0
101.028008 160.0
101.057449 340.0
102.71138 176.0
103.053917 252.0
103.278961 248.0
103.580559 160.0
103.698074 152.0
104.217575 140.0
104.736336 196.0
105.070068 1992.0
105.176765 200.0
106.071495 184.0
107.03418 232.0
107.047821 172.0
107.086052 1168.0
107.741615 172.0
108.016556 180.0
108.091072 300.0
108.793648 144.0
109.065765 296.0
109.101234 2772.0
110.067841 172.0
110.106606 128.0
110.62397 160.0
110.858551 228.0
111.045135 180.0
111.078636 472.0
111.269661 148.0
112.281784 244.0
112.469566 148.0
113.440475 184.0
113.990173 144.0
114.434723 164.0
114.905739 140.0
115.05497 196.0
115.076805 740.0
115.101547 216.0
116.079819 340.0
116.258049 148.0
117.070366 636.0
118.543922 200.0
119.085304 1128.0
119.344894 188.0
120.090309 148.0
120.578712 148.0
120.88707 196.0
121.065346 3304.0
121.100372 2716.0
121.139893 160.0
122.068817 556.0
122.106621 304.0
122.551872 136.0
123.081467 224.0
123.118034 540.0
123.903618 220.0
124.086716 156.0
124.120827 140.0
124.18438 176.0
125.057785 744.0
125.979233 200.0
126.057434 156.0
126.151306 196.0
127.056282 188.0
128.033798 160.0
128.062805 1376.0
128.683212 140.0
128.750961 180.0
128.773544 184.0
129.070511 1088.0
129.406708 148.0
130.077759 168.0
130.941772 164.0
131.049789 280.0
131.086029 1432.0
131.114014 132.0
131.83606 216.0
132.057663 628.0
132.087173 160.0
133.067368 368.0
133.101517 1656.0
134.057465 204.0
134.104263 168.0
134.347977 188.0
135.080017 2320.0
135.11438 652.0
135.244537 160.0
135.42514 188.0
136.086624 280.0
136.118317 180.0
136.869614 164.0
136.902222 180.0
137.097336 1564.0
137.57605 204.0
138.012939 252.0
138.064011 152.0
138.098206 252.0
139.077591 304.0
139.110031 328.0
139.866272 172.0
140.294998 232.0
140.408173 152.0
140.582748 160.0
141.069687 748.0
141.090485 196.0
141.677475 240.0
142.077103 1072.0
142.505463 228.0
142.664688 152.0
143.084473 1836.0
143.313583 200.0
143.357315 192.0
143.743622 144.0
143.790955 168.0
144.057999 252.0
144.088196 324.0
144.817032 184.0
145.064209 812.0
145.100784 1292.0
146.015991 100.0
146.074936 824.0
146.10025 188.0
146.166199 204.0
146.183044 196.0
146.770798 216.0
146.911224 196.0
147.080933 21632.0
147.119293 220.0
147.978043 184.0
148.084686 2160.0
149.056946 144.0
149.095749 880.0
149.133499 172.0
150.100754 288.0
150.825134 168.0
151.07695 344.0
151.11113 416.0
152.060547 312.0
152.51149 140.0
153.089478 440.0
154.070129 176.0
154.625198 152.0
155.086502 1844.0
155.978348 172.0
156.090256 248.0
156.84816 168.0
157.071182 516.0
157.102203 1312.0
157.222275 160.0
158.051895 160.0
158.073227 828.0
158.102966 188.0
158.219589 168.0
158.57576 188.0
158.602859 188.0
158.974045 224.0
159.080276 4404.0
159.119736 192.0
159.330582 152.0
160.084778 448.0
160.122925 196.0
161.096542 4412.0
162.103363 560.0
162.136459 144.0
162.245453 148.0
162.73764 196.0
163.075043 892.0
163.111984 844.0
163.141586 176.0
164.075882 144.0
165.066315 196.0
165.091965 600.0
165.145996 176.0
166.07814 144.0
166.098663 140.0
167.106827 2900.0
167.229202 220.0
167.466843 132.0
168.057434 160.0
168.103958 388.0
169.069016 320.0
169.101746 664.0
170.070572 848.0
170.109055 284.0
170.326797 156.0
171.041367 172.0
171.080719 23884.0
171.112442 788.0
171.776688 160.0
172.035034 192.0
172.084335 2476.0
172.119019 140.0
172.155136 196.0
173.096176 7708.0
173.129578 304.0
174.098236 1152.0
175.111649 676.0
175.329437 176.0
176.07605 168.0
176.110382 404.0
176.874527 168.0
176.911575 180.0
177.090439 508.0
177.128052 516.0
178.077896 328.0
179.10585 1968.0
180.091583 692.0
180.114853 308.0
181.067566 348.0
181.102554 256.0
181.121902 440.0
181.880447 220.0
182.02005 164.0
182.072632 424.0
182.113876 196.0
182.12233 272.0
182.605896 180.0
183.084213 296.0
183.114334 892.0
183.141495 148.0
184.085419 156.0
184.128616 184.0
184.250168 176.0
184.308655 112.0
185.096298 6664.0
186.102234 896.0
187.075546 916.0
187.111115 1780.0
188.077988 128.0
188.109039 236.0
188.532471 176.0
188.995453 116.0
189.041122 184.0
189.09259 984.0
190.079453 568.0
191.08461 860.0
191.132065 172.0
192.09433 484.0
193.102539 900.0
193.576889 144.0
194.074921 144.0
194.105637 148.0
195.079224 944.0
195.116501 776.0
195.41803 176.0
196.085876 776.0
196.1241 124.0
196.7789 144.0
197.09584 1968.0
197.11615 2040.0
198.10257 312.0
199.111588 1460.0
200.117706 144.0
200.215912 148.0
200.480713 196.0
201.058838 140.0
201.088821 468.0
201.124588 216.0
201.584091 168.0
202.133392 188.0
203.084564 144.0
203.108887 296.0
203.138382 148.0
204.096359 476.0
205.103119 656.0
206.030746 188.0
206.074966 100.0
206.106995 168.0
207.115952 1184.0
207.894501 260.0
208.088715 1176.0
208.122925 152.0
208.469055 208.0
209.095993 1152.0
209.133621 988.0
210.049683 144.0
210.102875 1076.0
210.13736 136.0
210.933289 220.0
211.07048 184.0
211.111557 1528.0
211.143463 316.0
211.283188 172.0
211.346832 152.0
212.079514 340.0
212.117859 904.0
212.153305 140.0
213.093964 744.0
213.126205 1608.0
213.676651 168.0
214.09639 176.0
215.107376 284.0
215.908081 168.0
216.045563 160.0
216.091003 164.0
216.111572 144.0
216.147964 144.0
216.985641 208.0
217.097565 140.0
217.12175 160.0
218.105515 308.0
218.162872 176.0
219.077606 152.0
219.12117 660.0
219.691254 148.0
220.126541 288.0
221.097534 552.0
221.130753 684.0
222.104767 1472.0
222.137695 276.0
222.547211 196.0
223.073456 156.0
223.111526 3128.0
223.145523 248.0
223.760254 140.0
223.947861 144.0
224.081909 180.0
224.117462 1148.0
224.803482 168.0
225.092316 296.0
225.128418 3420.0
225.810257 204.0
226.132935 2216.0
227.105469 600.0
227.144104 704.0
227.725418 144.0
228.105804 128.0
228.850098 152.0
229.097885 148.0
229.162582 364.0
230.108292 256.0
230.814362 156.0
231.076736 188.0
231.115036 380.0
231.976944 152.0
232.125214 296.0
232.510773 180.0
233.095673 244.0
233.133804 376.0
233.335129 184.0
234.104126 432.0
234.13765 120.0
234.795532 220.0
235.113129 2308.0
235.148697 680.0
236.117813 544.0
236.15332 612.0
236.897156 156.0
237.090698 196.0
237.127335 5492.0
237.16391 776.0
237.711227 192.0
237.775345 188.0
238.130417 1184.0
238.159943 188.0
238.438721 152.0
239.10408 440.0
239.14357 4656.0
240.057999 188.0
240.148712 592.0
240.854263 168.0
240.993271 140.0
241.120483 484.0
241.157196 392.0
242.11644 164.0
242.167053 196.0
243.119034 268.0
243.542816 152.0
244.123672 288.0
244.624893 176.0
244.852188 144.0
245.096802 292.0
245.131683 596.0
245.821716 176.0
246.102646 476.0
246.140488 168.0
246.79628 148.0
246.846298 180.0
246.965973 120.0
247.11145 836.0
247.149689 416.0
248.11908 956.0
248.151825 296.0
248.506393 160.0
248.672714 196.0
249.12619 968.0
249.156082 416.0
250.093353 160.0
250.138092 1188.0
251.107086 488.0
251.141571 1036.0
252.11319 124.0
252.147964 284.0
252.408966 152.0
252.522812 156.0
253.057587 200.0
253.123672 716.0
253.16333 612.0
254.106659 160.0
254.13089 296.0
254.16626 168.0
255.132736 400.0
255.183777 112.0
255.57135 144.0
256.140625 196.0
257.127625 460.0
257.152222 440.0
257.924896 156.0
258.101654 248.0
258.12796 180.0
258.156342 144.0
259.109497 1244.0
259.148956 412.0
259.816437 116.0
260.118225 636.0
260.150391 192.0
260.193268 192.0
260.241089 164.0
261.126312 1480.0
261.161285 656.0
262.133759 1468.0
262.166992 352.0
262.954742 160.0
263.142639 1292.0
263.181061 1168.0
264.116241 148.0
264.146637 180.0
264.18515 240.0
265.121002 516.0
265.158142 2216.0
266.127655 260.0
266.160339 688.0
266.237549 220.0
266.382202 104.0
266.679382 216.0
267.128754 156.0
267.173279 276.0
268.176575 156.0
269.12912 176.0
269.187073 284.0
270.139893 288.0
271.039307 140.0
271.135559 628.0
271.648743 136.0
272.142853 324.0
273.054932 180.0
273.126862 1044.0
273.165436 124.0
274.132935 1040.0
275.143494 896.0
275.178436 600.0
276.156128 168.0
277.091949 144.0
277.159698 2932.0
277.19931 132.0
277.261963 172.0
277.658783 216.0
278.161652 1248.0
279.138031 632.0
279.174896 6896.0
280.177307 2160.0
281.158142 640.0
281.189331 1564.0
281.549194 144.0
282.156311 128.0
282.194153 316.0
282.291077 172.0
283.136047 236.0
283.171783 172.0
283.425842 152.0
285.168762 268.0
286.1745 148.0
287.141235 180.0
287.177521 152.0
288.150604 1764.0
289.018646 164.0
289.156738 328.0
289.644958 144.0
290.163849 496.0
290.729889 180.0
291.174683 1416.0
292.142273 272.0
292.179413 576.0
293.190033 2420.0
293.662506 180.0
294.061707 140.0
294.194366 416.0
295.174805 1076.0
296.166962 260.0
296.836151 200.0
297.152832 432.0
297.190094 512.0
298.161316 204.0
298.194885 292.0
299.150177 156.0
299.176819 264.0
300.202667 164.0
301.161377 136.0
302.162476 132.0
302.375641 172.0
303.174744 11896.0
303.359344 212.0
304.176331 2208.0
304.257843 176.0
305.178528 244.0
306.164307 156.0
306.222473 140.0
308.176147 96.0
309.190094 396.0
310.184753 272.0
311.019562 164.0
311.197388 1260.0
311.236542 204.0
312.204529 272.0
313.180542 1156.0
314.19046 208.0
320.590179 216.0
320.767242 148.0
321.185272 12168.0
322.187469 2888.0
323.187439 804.0
324.170837 288.0
325.318573 208.0
326.937714 100.0
327.202454 148.0
329.214691 388.0
330.217896 260.0
331.52594 204.0
336.078064 124.0
336.753876 212.0
337.093201 168.0
337.18866 276.0
338.040741 140.0
338.085571 176.0
338.361542 164.0
338.375732 268.0
338.427155 120.0
338.731659 140.0
338.913544 120.0
339.026337 136.0
339.13208 164.0
339.197418 90108.0
339.331512 140.0
339.361725 100.0
339.546387 128.0
339.607758 108.0
339.802887 188.0
339.841431 128.0
339.980499 132.0
340.200134 13752.0
340.394836 120.0
340.840485 108.0
341.20282 2408.0
341.668488 120.0
341.951294 104.0
341.998199 168.0
342.185394 152.0
342.201294 180.0
342.286011 104.0
342.390167 196.0
343.234924 116.0
343.434631 132.0
349.989685 284.0
352.17337 96.0
353.992554 168.0
355.8974 144.0
356.088928 152.0
356.978333 168.0
357.053131 112.0
357.107147 200.0
357.206757 31328.0
357.699646 144.0
358.209229 5380.0
358.313263 96.0
358.422791 168.0
358.621277 120.0
359.208221 1488.0
360.212982 204.0
360.276001 176.0
360.57135 116.0
361.213959 228.0
362.21814 176.0
371.90332 172.0
372.608002 156.0
377.213409 2900.0
378.21344 912.0
379.196777 228.0
379.227875 180.0
381.269226 160.0
695.628723 140.0
723.155518 148.0
1039.009399 196.0
1045.608398 180.0
1153.020752 188.0
1219.014038 200.0
1245.633301 148.0
1248.571167 148.0
1254.950928 172.0
1293.570801 140.0
1352.890869 160.0
1353.45459 164.0
1379.92041 144.0
1406.232056 192.0
1425.305786 208.0
1429.990845 196.0
1454.738159 200.0
1478.626099 140.0
1510.325439 196.0
1528.020142 168.0
1544.504517 160.0
1549.921021 176.0
1584.811035 176.0
1594.611328 180.0
1596.765869 148.0
1599.025391 176.0
1609.955444 236.0
1615.574341 204.0
1637.133301 144.0
1645.091187 192.0
1645.309204 160.0
1664.652344 168.0
1697.702271 184.0
1710.404175 156.0
1717.20166 188.0
1734.755859 180.0
1740.729492 180.0
1756.442627 204.0
1767.938965 188.0
1781.47998 168.0
1783.328491 192.0
1803.27832 148.0
1810.401733 160.0
1829.114258 152.0
1832.452515 160.0
1839.547852 240.0
1842.246338 204.0
1870.69104 180.0
1874.721924 192.0
1895.513062 156.0
1902.442871 152.0
1903.033325 144.0
1909.567993 144.0
1917.935303 160.0
1918.650024 176.0
1923.369385 176.0
1924.530396 188.0
1925.604492 184.0
1941.067993 176.0
1945.595215 144.0
1951.683838 144.0
1960.098633 148.0
1966.554077 152.0
1969.980103 188.0
1972.153809 244.0
1977.965088 144.0
1982.871948 172.0
1984.183838 160.0
1994.284302 188.0
1998.919067 148.0
