>compound (2R,3S)-5-[3-(tert-butylamino)-2-hydroxypropoxy]-1,2,3,4-tetrahydronaphthalene-2,3-diol
>formula C17H27NO4 
>ionization [M+H]+
>parentmass 310.203094
#inchi InChI=1S/C17H27NO4/c1-17(2,3)18-9-12(19)10-22-16-6-4-5-11-7-14(20)15(21)8-13(11)16/h4-6,12,14-15,18-21H,7-10H2,1-3H3/t12?,14-,15+/m1/s1
#inchikey VWPOSFSPZNDTMJ
#Ion_Source LC-ESI
#Instrument qTof
#Compound_Source Commercial
#PI Dorrestein
#Data_Collector Garg_Neha
#Scan -1
#Precursor_MZ 310.204
#ExactMass 309.194
#Charge 1
#CAS_Number N/A
#Pubmed_ID N/A
#Smiles N/A
#INCHI_AUX N/A
#Library_Class 1
#SpectrumID CCMSLIB00000076969
#IonMode Positive
#UpdateWorkflowName UPDATE-SINGLE-ANNOTATED-GOLD
#LibraryQualityString Gold
#TaskID 48f7f52fc6d249b5abbcc6e7b3df5969
##Scan# 1048
#SpectrumFile NCP002928_A2_B11_BA2_01_15696.mzXML
#LibraryName NIH_Clinical_Collection_2.mgf
#MQScore -1
#Organism NIHcollection2_04212014_2_mgf
#TIC_Query 0
#RT_Query -1
#MZErrorPPM -1
#SharedPeaks 0
#MassDiff 0
#LibMZ -1
#SpecMZ 310.204
#SpecCharge 0
#internalFilename spec-00000.mgf

>collision 10
45.679283 188.0
45.900162 152.0
46.358425 148.0
47.822552 212.0
48.049927 200.0
49.108414 160.0
49.349976 152.0
49.618797 180.0
49.881317 180.0
50.695343 152.0
50.775105 140.0
50.88295 268.0
51.371094 228.0
52.332767 152.0
52.407669 168.0
52.432167 176.0
52.655792 244.0
53.365868 148.0
53.460419 140.0
53.493893 148.0
53.816093 176.0
54.109974 160.0
54.398785 188.0
55.829079 184.0
55.900486 152.0
56.367233 164.0
56.561661 180.0
56.783417 168.0
56.894459 152.0
57.035667 176.0
57.389454 180.0
57.401516 188.0
57.674782 156.0
57.841171 196.0
58.598984 172.0
58.691963 144.0
59.355595 160.0
59.535141 144.0
59.916611 148.0
60.195789 140.0
60.330212 224.0
60.909782 156.0
61.512417 172.0
61.861015 164.0
61.906422 172.0
62.188625 164.0
62.295403 200.0
62.356682 160.0
63.527515 124.0
63.695015 152.0
63.871799 168.0
63.896912 148.0
64.08638 192.0
64.118248 152.0
64.18042 140.0
65.229073 156.0
65.274094 168.0
65.406021 180.0
65.64608 172.0
66.310539 164.0
66.398087 196.0
66.449997 228.0
66.644836 196.0
67.089157 148.0
67.271629 136.0
67.530045 156.0
67.80838 144.0
67.942841 160.0
69.163948 148.0
69.789612 132.0
70.785568 144.0
71.911179 180.0
72.205948 192.0
72.24485 240.0
72.287155 144.0
72.571724 172.0
72.855156 224.0
73.401512 148.0
74.399017 152.0
74.646439 180.0
74.770302 264.0
75.344505 172.0
75.494789 148.0
75.665237 164.0
75.895821 216.0
76.271622 176.0
76.821381 192.0
76.949295 208.0
77.330376 184.0
77.480972 208.0
77.516014 168.0
77.995148 144.0
78.059814 172.0
78.153427 156.0
78.526894 196.0
79.016594 148.0
79.19146 196.0
79.255234 168.0
79.761032 144.0
80.188217 208.0
81.189407 164.0
81.349098 140.0
81.428108 168.0
82.023674 144.0
82.095795 140.0
82.169754 172.0
83.098511 120.0
83.575768 144.0
84.142609 156.0
84.425827 172.0
84.760826 148.0
85.114906 132.0
86.222008 140.0
87.113251 220.0
87.155983 172.0
87.366081 176.0
87.62468 204.0
88.011742 180.0
88.532677 152.0
89.144241 152.0
89.356712 164.0
89.524239 152.0
89.543076 204.0
89.563789 184.0
89.888069 196.0
90.152443 152.0
90.359001 168.0
90.612251 172.0
90.665306 160.0
91.054276 156.0
92.044502 184.0
92.260406 156.0
92.492195 188.0
94.636528 208.0
95.07074 156.0
95.439819 224.0
95.513725 180.0
95.540962 148.0
95.91095 156.0
96.074753 144.0
96.574829 184.0
96.735283 228.0
96.980133 184.0
97.580833 168.0
98.291893 144.0
99.336533 144.0
99.358353 148.0
100.340836 176.0
100.837883 144.0
100.863869 160.0
100.887856 192.0
101.67849 140.0
102.056725 140.0
102.364594 168.0
102.380699 176.0
103.055939 368.0
103.862198 240.0
104.089188 128.0
104.67514 200.0
104.847206 104.0
104.886284 176.0
105.070564 292.0
105.229759 144.0
105.250175 152.0
105.278763 148.0
105.329826 368.0
105.393158 164.0
105.534187 208.0
105.96196 148.0
106.758385 184.0
106.968681 152.0
107.017654 204.0
107.045952 408.0
107.112389 140.0
107.308174 204.0
107.710594 180.0
108.057579 176.0
108.369896 116.0
109.026268 160.0
109.413155 168.0
109.554649 208.0
109.652702 208.0
110.032356 160.0
110.255859 184.0
110.684708 188.0
110.862762 140.0
111.278091 208.0
112.055885 168.0
112.222794 176.0
112.307144 152.0
112.6819 176.0
112.75898 180.0
112.860451 184.0
113.258987 176.0
114.215622 156.0
114.264549 184.0
114.366692 140.0
114.646797 120.0
114.705376 144.0
115.054947 508.0
115.228226 156.0
117.069839 608.0
117.586044 172.0
117.847343 188.0
117.947052 144.0
119.008293 216.0
119.054123 188.0
119.166847 180.0
119.656036 204.0
119.756378 140.0
120.215408 144.0
120.277512 176.0
120.39978 192.0
120.421616 140.0
120.652313 216.0
121.003036 168.0
121.029564 148.0
121.114975 200.0
121.274933 160.0
121.527122 188.0
121.616028 180.0
121.650024 176.0
122.05648 196.0
123.01046 200.0
123.31749 156.0
123.965935 176.0
124.021347 276.0
124.127762 184.0
124.276375 180.0
124.949585 152.0
126.357376 160.0
126.420029 152.0
126.567238 152.0
126.731277 164.0
127.056419 216.0
127.076569 172.0
127.322189 124.0
127.424576 172.0
128.06543 836.0
128.167068 192.0
128.297791 204.0
128.498032 168.0
128.690369 148.0
129.070084 960.0
129.108414 184.0
129.640411 156.0
129.70108 172.0
130.072754 168.0
130.125824 152.0
131.051895 816.0
131.084167 508.0
131.777084 188.0
131.822784 176.0
132.061523 180.0
132.287079 160.0
132.832474 164.0
132.933426 216.0
133.065506 1272.0
133.165298 188.0
133.293945 148.0
133.337616 156.0
133.422668 152.0
133.51004 216.0
133.848312 180.0
134.061325 120.0
134.161667 168.0
134.807938 180.0
134.907333 152.0
135.083099 300.0
135.571609 172.0
135.724609 160.0
135.798828 180.0
136.474594 144.0
137.684021 164.0
138.504974 176.0
139.227356 140.0
139.551422 196.0
140.255539 152.0
140.470123 176.0
140.668335 148.0
141.065842 804.0
141.403442 156.0
141.483917 196.0
141.782379 168.0
142.077347 220.0
142.242523 148.0
142.689133 152.0
143.084839 1480.0
143.298416 148.0
143.835007 160.0
143.920944 196.0
144.057449 492.0
144.091019 136.0
144.343887 140.0
145.064804 7392.0
145.100708 1136.0
145.141266 172.0
145.352356 184.0
146.017792 216.0
146.068802 468.0
146.101669 172.0
146.491974 208.0
146.778778 152.0
146.865601 248.0
146.971756 232.0
147.080643 6416.0
147.152222 156.0
147.72554 144.0
148.082428 788.0
148.111893 244.0
148.307251 176.0
148.330933 144.0
148.563736 228.0
149.034744 192.0
149.097321 112.0
149.260803 156.0
149.538132 192.0
150.432693 192.0
150.530365 152.0
150.755112 160.0
151.183929 228.0
152.061523 184.0
152.097443 164.0
152.399338 192.0
152.48288 196.0
152.726288 144.0
152.918213 220.0
153.048691 200.0
153.071594 364.0
153.171829 404.0
153.590866 148.0
154.077347 288.0
154.220505 204.0
154.477661 160.0
154.83905 248.0
155.084274 4288.0
155.128952 160.0
155.342209 140.0
155.46875 192.0
155.582642 200.0
155.611389 172.0
156.057983 288.0
156.088272 380.0
157.064758 3944.0
157.164276 120.0
157.339447 196.0
157.697784 196.0
157.850281 160.0
158.025375 256.0
158.069885 332.0
159.022751 172.0
159.046234 280.0
159.079742 6940.0
159.297379 172.0
159.608078 188.0
160.051987 480.0
160.082581 1132.0
160.120712 164.0
160.145035 200.0
160.213272 140.0
160.396088 152.0
160.594193 120.0
161.057571 764.0
161.096161 600.0
161.398376 192.0
161.831039 176.0
161.985535 148.0
162.042511 264.0
162.068451 392.0
162.082565 144.0
162.304855 148.0
162.446884 192.0
162.56868 176.0
163.073608 884.0
163.116211 164.0
163.404663 196.0
163.437729 272.0
163.521713 160.0
163.631165 200.0
163.689728 164.0
163.911346 192.0
164.078308 176.0
164.495392 160.0
165.071442 980.0
165.676865 280.0
165.72554 196.0
165.966476 204.0
166.469421 148.0
166.690033 164.0
167.011703 232.0
168.05542 168.0
168.827408 156.0
168.879135 140.0
169.064301 316.0
169.982773 152.0
170.011322 148.0
170.072708 268.0
170.099655 116.0
170.394135 160.0
171.080292 9480.0
171.233231 152.0
171.532883 164.0
171.807831 156.0
172.084854 1252.0
172.112061 140.0
172.85965 148.0
173.016693 148.0
173.058823 200.0
173.096191 2552.0
173.307419 208.0
173.365219 132.0
173.56691 196.0
174.092682 1488.0
174.443817 160.0
174.562134 164.0
174.704163 168.0
174.920898 188.0
175.075821 2264.0
175.115463 188.0
175.831924 176.0
176.045761 224.0
176.074493 292.0
176.645737 160.0
176.743622 180.0
177.156158 172.0
177.527725 160.0
177.88591 152.0
178.372025 196.0
178.438477 164.0
179.399567 180.0
179.631561 188.0
179.731491 148.0
180.272354 148.0
180.536789 144.0
181.621719 148.0
181.9142 244.0
182.666626 140.0
182.844208 156.0
182.884583 156.0
183.027267 156.0
183.051498 144.0
183.080078 10428.0
183.318192 140.0
183.699295 172.0
184.081894 1976.0
184.173431 172.0
184.341202 180.0
184.770859 152.0
184.873672 212.0
185.03067 144.0
185.089233 140.0
185.244614 160.0
185.41803 140.0
185.805786 144.0
186.070099 192.0
186.829224 140.0
187.073624 172.0
187.647034 148.0
187.919785 176.0
188.105667 180.0
188.643509 192.0
188.979889 144.0
189.088379 956.0
189.469971 148.0
190.051224 168.0
190.127884 128.0
190.575653 140.0
190.605881 160.0
191.121796 140.0
191.241165 160.0
191.535782 216.0
192.238831 140.0
192.503845 252.0
192.796677 148.0
193.082825 156.0
193.358658 96.0
194.081116 172.0
194.327957 152.0
194.530563 140.0
195.138977 176.0
195.301041 236.0
195.804031 148.0
195.890381 240.0
195.982315 144.0
196.394913 140.0
197.408722 176.0
197.948807 184.0
198.778549 140.0
198.944153 208.0
199.26712 164.0
200.112915 320.0
200.695145 176.0
201.051819 144.0
201.091064 25720.0
201.453308 188.0
202.093109 2824.0
202.319656 104.0
203.101913 164.0
203.277588 188.0
203.395889 148.0
203.515472 164.0
203.935913 164.0
203.969681 188.0
204.100449 152.0
204.433273 164.0
204.567047 164.0
204.723648 160.0
204.829025 152.0
204.965775 192.0
205.056961 184.0
205.815796 208.0
206.114777 428.0
206.155731 180.0
206.412994 148.0
207.116135 164.0
207.657501 164.0
208.092072 148.0
208.888138 184.0
209.740479 204.0
210.291397 160.0
210.600327 144.0
211.514053 156.0
212.084671 172.0
212.571899 144.0
212.783798 144.0
212.940598 152.0
213.393921 156.0
213.521866 176.0
214.045685 192.0
214.278702 144.0
214.768448 420.0
214.990189 184.0
215.819794 156.0
216.472321 196.0
216.52211 156.0
216.60997 152.0
216.932312 108.0
216.970428 148.0
217.316513 184.0
218.071213 156.0
218.115891 2568.0
218.83606 208.0
218.989197 144.0
219.065781 200.0
219.100891 1856.0
219.280884 184.0
219.322144 180.0
219.389938 176.0
220.031815 112.0
220.10672 376.0
220.165955 200.0
220.425919 228.0
221.514694 180.0
221.615417 208.0
221.873276 156.0
222.353806 148.0
222.422073 164.0
222.638824 176.0
223.688385 164.0
223.756851 184.0
224.030838 140.0
224.704605 140.0
224.952118 120.0
225.000076 220.0
225.814148 140.0
226.118027 184.0
227.202759 152.0
227.530746 140.0
228.485596 180.0
229.530731 188.0
229.575974 160.0
229.87764 148.0
230.037598 168.0
230.526886 156.0
230.801971 156.0
230.935028 152.0
231.122604 160.0
231.880402 132.0
232.167694 156.0
232.219238 216.0
232.753357 140.0
233.011536 144.0
233.422623 176.0
233.580017 152.0
233.643906 140.0
234.149185 164.0
234.411179 144.0
234.533096 228.0
234.831894 168.0
235.109528 140.0
235.161407 164.0
235.344574 192.0
235.524765 180.0
235.576691 172.0
235.894501 144.0
236.072693 344.0
236.127808 25336.0
236.351532 128.0
236.934387 184.0
237.13147 3980.0
238.136353 264.0
238.32486 148.0
238.448227 136.0
238.530762 144.0
239.008621 256.0
240.962265 148.0
241.657913 148.0
241.964325 172.0
242.534317 188.0
244.114594 228.0
244.534592 164.0
245.980865 172.0
246.083893 172.0
246.124374 116.0
246.252518 160.0
246.511826 144.0
247.112183 168.0
247.69133 188.0
248.039154 224.0
248.28685 184.0
248.327621 156.0
248.572327 156.0
248.873657 148.0
250.661713 232.0
250.770599 148.0
250.997589 172.0
251.054352 240.0
251.783356 168.0
252.130875 148.0
252.168808 140.0
252.206726 192.0
252.522781 100.0
252.534378 96.0
252.545364 160.0
252.648285 164.0
252.981735 156.0
253.297302 116.0
253.631119 180.0
253.712341 180.0
253.763199 244.0
253.8685 208.0
253.893326 180.0
253.927414 124.0
253.952942 112.0
254.032776 204.0
254.139908 115948.0
254.222473 176.0
254.33017 176.0
254.362976 144.0
254.42041 168.0
254.477112 156.0
254.520554 132.0
254.661926 828.0
254.708069 120.0
254.807465 168.0
254.831802 112.0
254.916656 128.0
255.142532 22156.0
255.78038 128.0
256.108643 112.0
256.143951 1840.0
256.196045 176.0
256.245575 96.0
256.461884 124.0
256.778778 136.0
256.804321 116.0
256.849487 200.0
256.905701 148.0
256.945923 128.0
256.988831 184.0
257.040009 192.0
257.112335 116.0
257.773254 108.0
260.302338 148.0
260.835663 200.0
261.577637 152.0
261.665649 140.0
261.974823 160.0
263.042206 148.0
263.264984 188.0
264.459961 176.0
264.561584 184.0
266.507538 156.0
267.649231 176.0
269.626099 144.0
269.979187 188.0
271.608398 164.0
271.652893 144.0
272.895996 256.0
273.302155 152.0
273.417328 140.0
273.618134 148.0
273.697144 140.0
274.230835 188.0
274.784821 204.0
275.95401 176.0
277.2052 180.0
278.117249 168.0
279.895874 152.0
280.122345 208.0
281.930725 144.0
282.061096 144.0
282.479065 176.0
283.644379 180.0
283.694946 236.0
283.748322 164.0
283.890747 116.0
284.93103 100.0
285.201874 140.0
285.618805 144.0
285.837494 144.0
285.951935 156.0
286.083191 164.0
286.197662 164.0
286.672638 180.0
288.833405 152.0
289.330872 188.0
290.069366 148.0
290.890289 140.0
291.23526 172.0
292.185822 236.0
292.556 188.0
292.743286 152.0
292.940826 160.0
293.066864 228.0
293.124786 148.0
293.183533 156.0
296.525177 196.0
297.036072 196.0
297.262512 216.0
297.502747 208.0
297.653839 164.0
297.677856 144.0
297.894257 188.0
299.631561 160.0
299.907227 216.0
300.541779 152.0
301.360107 144.0
301.850922 184.0
302.722961 176.0
303.669067 176.0
304.116669 168.0
304.42218 184.0
304.512482 124.0
304.835571 152.0
305.405731 152.0
305.576172 160.0
305.734802 148.0
305.965973 272.0
306.192322 148.0
306.604889 172.0
306.856628 180.0
307.01828 148.0
307.274506 116.0
307.309845 124.0
307.512878 208.0
307.740479 116.0
307.90152 104.0
307.974579 220.0
308.012085 136.0
308.097504 124.0
308.140656 184.0
308.28949 124.0
308.341766 148.0
308.474365 128.0
308.521362 140.0
308.580841 116.0
308.605469 220.0
308.651398 216.0
308.773285 188.0
308.848999 248.0
308.888977 128.0
309.008911 128.0
309.073151 604.0
309.148529 120.0
309.187561 332.0
309.246521 276.0
309.338867 244.0
309.372223 148.0
309.484619 368.0
309.538849 200.0
309.576904 240.0
309.664307 156.0
309.755005 220.0
309.788849 212.0
309.826508 108.0
309.926636 264.0
309.955688 208.0
309.989716 348.0
310.034668 248.0
310.084625 304.0
310.103943 248.0
310.142273 584.0
310.203094 199636.0
310.31839 244.0
310.445465 108.0
310.480988 112.0
310.532806 832.0
310.584808 352.0
310.617493 252.0
310.659027 148.0
310.701447 184.0
310.738403 684.0
310.780853 6596.0
310.816742 264.0
310.875214 276.0
310.92453 228.0
311.057587 228.0
311.104584 364.0
311.205109 71840.0
311.402161 208.0
311.490662 136.0
311.543884 140.0
311.574005 136.0
311.611267 164.0
311.64978 224.0
311.789246 144.0
311.852692 112.0
311.897736 104.0
311.940094 100.0
312.099548 164.0
312.20755 8144.0
312.403168 148.0
312.503876 196.0
312.536469 200.0
312.59726 168.0
312.685028 112.0
312.75824 152.0
312.797302 100.0
312.888885 168.0
312.937927 184.0
313.040405 208.0
313.071198 100.0
313.101532 144.0
313.179077 240.0
313.208862 496.0
313.27121 328.0
313.307983 408.0
313.34552 168.0
313.409698 208.0
313.448151 332.0
313.492371 300.0
313.556488 176.0
313.889435 172.0
314.091583 112.0
314.179474 188.0
314.33786 164.0
314.461121 164.0
314.529694 100.0
315.012512 120.0
320.866119 140.0
322.331177 112.0
322.852448 184.0
324.437653 144.0
324.70755 104.0
358.294067 96.0
360.793854 148.0
372.858429 156.0
397.999603 140.0
442.243073 156.0
442.646484 112.0
470.148102 168.0
476.074677 144.0
492.609528 144.0
515.1297 164.0
539.37738 148.0
603.868591 164.0
607.091125 144.0
623.839417 152.0
734.461243 144.0
998.343933 308.0
1056.682617 176.0
1095.140381 204.0
1199.914551 240.0
1234.788086 140.0
1251.222168 244.0
1362.263184 164.0
1429.631226 156.0
1433.080078 160.0
1462.410034 220.0
1474.055542 164.0
1513.555908 180.0
1530.810303 224.0
1534.628418 200.0
1553.500122 144.0
1562.873047 192.0
1572.503052 176.0
1578.87085 164.0
1657.115112 172.0
1677.677002 176.0
1697.02063 172.0
1725.665283 160.0
1728.72583 176.0
1757.009888 160.0
1770.660034 176.0
1792.325317 140.0
1793.286011 176.0
1823.544434 180.0
1838.721558 240.0
1848.095947 188.0
1862.223633 172.0
1867.027954 144.0
1880.821899 176.0
1909.614502 164.0
1915.812134 216.0
1922.718018 152.0
1930.799316 156.0
1934.806885 156.0
1957.688965 152.0
1987.558716 156.0
1993.472656 140.0
1995.036987 160.0
