>compound Loratadine
>formula C22H23ClN2O2 
>ionization [M+H]+
>parentmass 383.153
#inchi InChI=1S/C22H23ClN2O2/c1-2-27-22(26)25-12-9-15(10-13-25)20-19-8-7-18(23)14-17(19)6-5-16-4-3-11-24-21(16)20/h3-4,7-8,11,14H,2,5-6,9-10,12-13H2,1H3
#inchikey JCCNYMKQOSZNPW
#Ion_Source LC-ESI
#Instrument qTof
#Compound_Source Isolated
#PI Sirenas
#Data_Collector Ed Esquenazi 
#Scan -1
#Precursor_MZ 383.153
#ExactMass 0.0
#Charge 1
#CAS_Number N/A
#Pubmed_ID N/A
#Smiles N/A
#INCHI_AUX N/A
#Library_Class 3
#SpectrumID CCMSLIB00000006534
#IonMode Positive
#UpdateWorkflowName UPDATE-SINGLE-ANNOTATED-BRONZE
#LibraryQualityString Bronze
#TaskID d19310cd93df49b68e9fcbec27720eb5
##Scan# 15
#SpectrumFile Loratadine.mgf
#LibraryName fda_library.mgf
#MQScore -1
#Organism fda_library
#TIC_Query 0
#RT_Query -1
#MZErrorPPM -1
#SharedPeaks 0
#MassDiff 0
#LibMZ -1
#SpecMZ 383.153
#SpecCharge 0
#internalFilename spec-00000.mgf

>collision 10
192.077652 227.760895
193.084457 82.232689
205.086594 221.248993
205.136078 9.375
206.101929 20.89286
208.922745 23.694441
212.714691 26.29167
214.046249 169.066498
225.636139 64.213028
225.804443 25.9
225.954865 10.00658
226.043732 358.830505
226.331543 19.08333
226.802902 11.40833
226.866989 18.160721
226.912872 26.26667
227.010269 201.094299
227.050949 6905.88916
227.121384 26.90086
227.138245 21.375
227.185455 14.13587
227.235809 57.348961
227.28479 10.125
227.309479 49.8125
227.370178 58.416672
227.405731 23.0
227.489685 17.125
227.537888 33.94231
227.684723 11.18382
227.709213 30.48214
228.103821 6.025
230.096619 94.01136
240.05661 140.5
242.089966 96.965714
242.458374 21.57065
252.054184 67.133186
258.660919 6.160714
259.134277 138.8125
266.069794 71.61731
266.241394 15.625
267.083374 279.654388
267.440948 31.787161
270.052673 24.066669
271.077911 26.92308
279.081848 101.941803
281.09314 150.640106
281.45575 42.041672
283.057404 55.006939
292.082153 98.398582
293.062347 56.25
294.107697 255.145493
309.487762 37.59259
311.131012 297.846191
337.109894 307.44931
337.193848 26.529409
383.142181 81.615158
790.574768 29.13306
