>compound MLS001148448-01!
>formula C14H14N2
>ionization [M+H]+
>parentmass 211.122543
#inchi InChI=1S/C14H14N2/c1-2-7-13-11(4-1)5-3-6-12(13)10-14-15-8-9-16-14/h1-7H,8-10H2,(H,15,16)
#inchikey CNIIGCLFLJGOGP
#origInchi InChI=1S/C14H14N2.ClH/c1-2-7-13-11(4-1)5-3-6-12(13)10-14-15-8-9-16-14;/h1-7H,8-10H2,(H,15,16);1H
#Ion_Source LC-ESI
#Instrument qTof
#Compound_Source NIH Pharmacologically Active Library
#PI Dorrestein
#Data_Collector VP/LMS
#Scan -1
#Precursor_MZ 211.125
#ExactMass 210.116
#Charge 1
#CAS_Number N/A
#Pubmed_ID N/A
#Smiles C(C1=NCCN1)c2cccc3ccccc23.Cl
#INCHI_AUX N/A
#Library_Class 1
#SpectrumID CCMSLIB00000085140
#IonMode Positive
#UpdateWorkflowName UPDATE-SINGLE-ANNOTATED-GOLD
#LibraryQualityString Gold
#TaskID d252d724072548979f1f6f1ced849daf
##Scan# 1352
#SpectrumFile p3-F04_GF4_01_18285.mzXML
#LibraryName Pharm_Active_Library.mgf
#MQScore -1
#Organism Pharm_Active_Library
#TIC_Query 0
#RT_Query -1
#MZErrorPPM -1
#SharedPeaks 0
#MassDiff 0
#LibMZ -1
#SpecMZ 211.125
#SpecCharge 0
#internalFilename spec-00000.mgf

>collision 10
44.893887 180.0
44.942692 72.0
45.006229 220.0
45.19257 76.0
45.468636 224.0
45.576077 184.0
45.616398 148.0
45.629841 116.0
45.682293 144.0
45.891056 144.0
45.912548 124.0
45.926121 160.0
45.980095 172.0
46.011143 176.0
46.053825 208.0
46.162727 180.0
46.26194 152.0
46.341171 392.0
46.352013 160.0
46.395386 116.0
46.407589 144.0
46.419796 304.0
46.438782 196.0
46.505272 124.0
46.672379 156.0
46.698219 116.0
46.773743 128.0
46.847961 128.0
46.869762 180.0
46.892933 184.0
47.032063 132.0
47.223366 176.0
47.245255 256.0
47.275356 164.0
47.345181 320.0
47.368465 112.0
47.380798 128.0
47.406834 144.0
47.482239 152.0
47.604385 136.0
47.640099 184.0
47.707443 168.0
47.741161 184.0
47.875317 128.0
47.942825 96.0
47.985561 156.0
48.047626 184.0
48.060047 156.0
48.071087 156.0
48.170502 76.0
48.200897 120.0
48.285233 116.0
48.384869 76.0
48.430569 188.0
48.45966 152.0
48.502625 156.0
48.5359 148.0
48.596935 132.0
48.694115 168.0
48.721897 144.0
48.755245 52.0
48.898506 84.0
49.1689 56.0
49.213573 160.0
49.35051 160.0
49.435844 104.0
49.472237 144.0
49.495228 204.0
49.567486 176.0
49.585705 144.0
49.623554 212.0
49.641785 144.0
49.702106 132.0
49.797573 172.0
49.82848 96.0
49.938133 160.0
50.025379 252.0
50.222672 160.0
50.312988 132.0
50.352528 128.0
50.533478 128.0
50.556122 128.0
50.568859 80.0
50.600002 136.0
50.670822 132.0
50.69685 164.0
50.770054 184.0
50.879318 136.0
50.899326 196.0
51.049835 48.0
51.179333 48.0
51.243431 156.0
51.311848 236.0
51.400284 148.0
51.432198 172.0
51.481659 152.0
51.553089 128.0
51.729027 168.0
51.753365 172.0
52.061687 132.0
52.10622 92.0
52.17952 132.0
52.248558 188.0
52.313324 252.0
52.369484 180.0
52.405361 204.0
52.424236 132.0
52.457386 316.0
52.486225 128.0
52.504971 236.0
52.523724 180.0
52.548248 128.0
52.572781 184.0
52.681076 164.0
52.903797 124.0
52.922619 216.0
52.958824 292.0
52.977657 116.0
53.012432 156.0
53.051571 188.0
53.061718 212.0
53.089272 208.0
53.1502 192.0
53.256653 236.0
53.267651 148.0
53.480312 148.0
53.544182 132.0
53.557041 140.0
53.727856 156.0
53.822731 76.0
53.87093 196.0
53.999569 208.0
54.015659 216.0
54.03614 172.0
54.082973 88.0
54.138611 132.0
54.194279 60.0
54.214794 60.0
54.32917 140.0
54.349712 176.0
54.376907 204.0
54.458355 140.0
54.512714 152.0
54.54652 208.0
54.661247 136.0
54.85862 144.0
54.958912 168.0
55.034195 236.0
55.223362 44.0
55.261021 164.0
55.412857 132.0
55.442493 188.0
55.472141 144.0
55.626423 136.0
55.645725 56.0
55.685822 76.0
55.718502 200.0
55.822556 200.0
55.849327 248.0
56.084599 148.0
56.105473 160.0
56.238438 152.0
56.272579 136.0
56.302444 140.0
56.332317 228.0
56.481812 140.0
56.653969 268.0
56.866913 172.0
57.029133 160.0
57.149448 208.0
57.301525 152.0
57.3181 112.0
57.410061 192.0
57.570038 140.0
57.610821 220.0
57.651619 176.0
57.67429 168.0
57.742332 204.0
57.766537 52.0
57.910343 104.0
57.984585 156.0
58.0877 44.0
58.116524 180.0
58.127148 84.0
58.155983 128.0
58.201435 192.0
58.224312 152.0
58.312748 212.0
58.470615 228.0
58.50106 128.0
58.563496 228.0
58.619869 184.0
58.729645 28.0
58.815098 120.0
58.873116 176.0
58.899082 124.0
59.203465 328.0
59.298454 164.0
59.336781 172.0
59.401192 148.0
59.470245 188.0
59.494808 156.0
59.528591 176.0
59.633198 232.0
59.714558 164.0
59.845367 208.0
59.882328 188.0
59.904484 220.0
60.01178 120.0
60.130569 192.0
60.227848 208.0
60.292744 196.0
60.312836 164.0
60.363857 240.0
60.388603 160.0
60.417694 224.0
60.696804 160.0
60.713863 160.0
60.799194 64.0
60.873234 216.0
60.900116 184.0
60.962265 140.0
60.973145 256.0
61.010452 160.0
61.074211 128.0
61.18626 252.0
61.220516 136.0
61.234535 228.0
61.287502 112.0
61.377914 152.0
61.469955 124.0
61.510536 128.0
61.542709 224.0
61.601109 160.0
61.687061 220.0
61.751175 160.0
61.768383 172.0
61.780895 204.0
62.045578 144.0
62.091057 96.0
62.103603 108.0
62.122429 148.0
62.153809 164.0
62.186768 88.0
62.339111 152.0
62.450745 136.0
62.518398 148.0
62.553028 148.0
62.579792 152.0
62.669575 216.0
62.784657 52.0
62.819359 92.0
62.906155 200.0
62.939312 52.0
62.977215 164.0
63.028202 132.0
63.174816 156.0
63.222286 60.0
63.302105 220.0
63.382233 140.0
63.436123 192.0
63.472591 176.0
63.503922 212.0
63.572533 180.0
63.80286 116.0
63.848976 112.0
63.896698 184.0
63.925343 140.0
63.949215 156.0
64.103706 140.0
64.206802 176.0
64.340477 156.0
64.555496 160.0
64.587486 192.0
64.60508 232.0
64.61628 156.0
64.73954 220.0
64.791504 136.0
64.827652 204.0
64.843681 160.0
64.896584 64.0
64.97197 56.0
65.03331 88.0
65.060242 112.0
65.156601 208.0
65.352768 132.0
65.421974 40.0
65.528275 120.0
65.581451 220.0
65.639496 200.0
65.683044 140.0
65.70079 172.0
65.76857 180.0
65.84446 204.0
65.862221 156.0
65.933319 196.0
65.983429 156.0
66.031944 144.0
66.15007 204.0
66.185692 124.0
66.219696 192.0
66.243996 164.0
66.331505 184.0
66.414207 184.0
66.490471 172.0
66.506699 128.0
66.623627 92.0
66.669121 148.0
66.771553 212.0
66.782936 152.0
66.797577 116.0
66.817101 160.0
67.053223 72.0
67.089088 232.0
67.152679 172.0
67.193466 108.0
67.215637 148.0
67.33326 164.0
67.384499 184.0
67.564903 224.0
67.579071 196.0
67.687111 108.0
67.718224 148.0
67.747711 144.0
67.791954 136.0
68.058372 128.0
68.115189 116.0
68.139832 244.0
68.198997 176.0
68.340431 120.0
68.445404 212.0
68.495193 164.0
68.613846 44.0
68.765617 140.0
68.811836 156.0
68.897728 148.0
68.970436 172.0
68.998543 164.0
69.056419 224.0
69.165634 204.0
69.198746 148.0
69.240143 128.0
69.255051 108.0
69.293152 128.0
69.425407 220.0
69.444008 160.0
69.498756 184.0
69.548546 172.0
69.634888 136.0
69.654823 148.0
69.865959 172.0
69.903786 212.0
69.954163 120.0
70.009903 168.0
70.062416 112.0
70.084076 216.0
70.113358 216.0
70.255806 32.0
70.324226 56.0
70.369301 200.0
70.39769 148.0
70.536369 116.0
70.548073 160.0
70.792366 84.0
70.825867 68.0
70.846313 136.0
71.020309 224.0
71.050507 172.0
71.226784 144.0
71.263741 164.0
71.312477 204.0
71.391502 136.0
71.49749 240.0
71.551796 160.0
71.569885 188.0
71.660843 180.0
71.785583 276.0
72.035385 140.0
72.13298 176.0
72.181023 120.0
72.286209 144.0
72.522743 208.0
72.555244 184.0
72.609215 172.0
72.64653 136.0
72.726288 208.0
72.74836 220.0
72.778915 156.0
72.872932 240.0
72.908028 80.0
72.98793 188.0
73.045753 128.0
73.083183 204.0
73.112114 268.0
73.127434 192.0
73.138214 168.0
73.144943 56.0
73.150749 184.0
73.190422 212.0
73.232147 136.0
73.273888 148.0
73.31649 172.0
73.456306 208.0
73.521149 184.0
73.618462 188.0
73.635536 124.0
73.674828 184.0
73.919342 92.0
74.131691 140.0
74.171112 140.0
74.220833 196.0
74.260277 60.0
74.274811 212.0
74.296303 168.0
74.461243 188.0
74.502327 148.0
74.516068 128.0
74.546997 128.0
74.600052 128.0
74.634674 156.0
74.700027 68.0
74.868713 168.0
74.885941 208.0
74.901443 60.0
74.935898 160.0
75.063454 212.0
75.089325 132.0
75.272263 176.0
75.299896 168.0
75.333069 196.0
75.378067 244.0
75.400108 184.0
75.424301 60.0
75.612846 184.0
75.909096 144.0
75.921234 176.0
75.94165 140.0
76.007973 116.0
76.094765 160.0
76.291092 192.0
76.311958 172.0
76.35891 92.0
76.404137 132.0
76.42836 152.0
76.474922 196.0
76.712395 100.0
76.781448 240.0
76.815285 224.0
76.830986 76.0
76.926979 184.0
77.007301 100.0
77.057961 160.0
77.075439 176.0
77.134865 180.0
77.206551 172.0
77.269524 180.0
77.308022 100.0
77.50766 188.0
77.716324 140.0
77.790039 176.0
77.81813 168.0
77.985756 116.0
78.028976 128.0
78.062386 152.0
78.153862 56.0
78.290497 84.0
78.319351 172.0
78.382774 136.0
78.753273 124.0
78.786842 168.0
78.852226 188.0
78.931778 208.0
79.002533 60.0
79.041458 148.0
79.106941 88.0
79.1884 204.0
79.324844 40.0
79.346115 168.0
79.385132 156.0
79.401093 216.0
79.441887 124.0
79.456085 156.0
79.50399 100.0
79.530617 88.0
79.564346 116.0
79.592758 184.0
79.62117 56.0
79.649834 144.0
79.663803 216.0
79.773987 68.0
79.823769 164.0
80.115685 164.0
80.14241 112.0
80.297508 100.0
80.338531 164.0
80.427757 156.0
80.492035 192.0
80.517036 132.0
80.697838 92.0
80.779793 180.0
80.81916 236.0
80.931931 124.0
81.105713 84.0
81.138733 172.0
81.164879 192.0
81.179222 132.0
81.202538 96.0
81.225853 180.0
81.314957 136.0
81.338913 176.0
81.392769 252.0
81.471802 108.0
81.58503 192.0
81.610199 152.0
81.736115 180.0
81.950394 176.0
81.963005 140.0
82.027893 176.0
82.05674 156.0
82.188416 272.0
82.240753 184.0
82.26963 120.0
82.372574 216.0
82.406128 92.0
82.464729 212.0
82.766853 240.0
82.839302 40.0
82.870102 116.0
82.944412 164.0
82.9571 192.0
83.056839 64.0
83.218185 208.0
83.276474 160.0
83.307358 156.0
83.48185 156.0
83.569168 188.0
83.607384 220.0
83.625587 244.0
83.663811 132.0
83.725723 228.0
83.802231 132.0
83.849617 120.0
83.940773 156.0
84.044746 200.0
84.064819 116.0
84.104973 144.0
84.156097 204.0
84.256554 128.0
84.31868 188.0
84.448502 32.0
84.594887 128.0
84.701103 188.0
84.81105 236.0
84.827545 96.0
85.010971 184.0
85.176216 240.0
85.317719 148.0
85.347137 124.0
85.398636 196.0
85.507195 88.0
85.588196 184.0
85.617661 116.0
85.704239 372.0
85.774315 184.0
85.991936 184.0
86.008553 228.0
86.128273 268.0
86.165527 160.0
86.230202 124.0
86.248688 128.0
86.346687 172.0
86.365181 180.0
86.718849 152.0
86.761482 148.0
86.828239 140.0
86.950691 228.0
86.965538 64.0
86.982246 200.0
87.017525 160.0
87.06395 220.0
87.214447 172.0
87.595917 136.0
87.661133 120.0
87.676041 236.0
87.974495 84.0
88.029213 184.0
88.08094 120.0
88.165024 140.0
88.301506 56.0
88.344528 192.0
88.432625 152.0
88.464302 136.0
88.601021 140.0
88.623505 120.0
88.750961 180.0
88.77359 180.0
88.799721 188.0
88.814728 60.0
89.038086 376.0
89.176697 176.0
89.440468 220.0
89.476234 68.0
89.528961 248.0
89.557953 204.0
89.63591 208.0
89.660843 124.0
89.841866 316.0
89.951767 188.0
89.987198 144.0
90.132637 176.0
90.244164 176.0
90.302826 216.0
90.372787 60.0
90.418205 124.0
90.639778 168.0
90.669548 232.0
90.690948 148.0
90.81041 96.0
91.054192 396.0
91.076149 212.0
91.111519 200.0
91.150246 232.0
91.20916 328.0
91.241478 168.0
91.260498 148.0
91.34037 80.0
91.367004 172.0
91.380325 204.0
91.412674 208.0
91.56498 160.0
91.624031 212.0
92.009293 144.0
92.039841 136.0
92.060852 160.0
92.123886 156.0
92.234718 172.0
92.25766 176.0
92.393448 264.0
92.593819 208.0
92.772652 176.0
92.824425 120.0
93.075806 124.0
93.152298 160.0
93.287155 152.0
93.395248 208.0
93.423698 92.0
93.521843 208.0
93.546867 160.0
93.564194 76.0
93.577675 192.0
93.945007 196.0
93.970871 188.0
94.009468 44.0
94.057716 232.0
94.206413 312.0
94.233467 124.0
94.494492 180.0
94.616425 224.0
94.660957 272.0
94.70163 236.0
94.722939 180.0
94.887672 192.0
94.91288 208.0
95.002098 216.0
95.019562 132.0
95.03508 60.0
95.138474 132.0
95.301094 200.0
95.371063 144.0
95.750481 172.0
95.840088 44.0
95.908302 192.0
95.972641 152.0
96.009689 168.0
96.023346 216.0
96.134552 192.0
96.339577 220.0
96.433372 188.0
96.474419 128.0
96.662193 168.0
96.754112 200.0
96.828606 192.0
96.875618 156.0
96.944191 180.0
97.002998 296.0
97.122612 196.0
97.150078 184.0
97.261932 140.0
97.507462 180.0
97.523186 120.0
97.586098 164.0
97.649025 176.0
97.664764 152.0
97.686401 100.0
97.702141 72.0
97.735588 144.0
97.802498 192.0
97.857628 128.0
98.093765 140.0
98.331619 136.0
98.364304 92.0
98.435387 184.0
98.46106 212.0
98.486732 132.0
98.583549 224.0
98.76149 288.0
98.822823 184.0
99.020782 168.0
99.036629 160.0
99.074272 152.0
99.098045 192.0
99.19516 116.0
99.264557 148.0
99.40937 188.0
99.443108 124.0
99.492737 152.0
99.524506 120.0
99.586075 136.0
99.653618 184.0
99.68541 184.0
99.7033 180.0
99.786789 184.0
99.864349 60.0
99.898811 208.0
100.049416 352.0
100.085251 176.0
100.141014 76.0
100.23465 108.0
100.422058 184.0
100.517822 120.0
100.62162 148.0
100.693504 116.0
100.763428 248.0
100.891335 164.0
101.039337 164.0
101.135391 208.0
101.155411 168.0
101.24752 132.0
101.279564 164.0
101.407806 248.0
101.443886 136.0
101.481979 240.0
101.520081 124.0
101.644455 152.0
101.797028 128.0
101.833176 196.0
101.915543 72.0
102.044479 332.0
102.15078 224.0
102.211136 128.0
102.239311 172.0
102.459984 224.0
102.48259 124.0
102.512825 236.0
102.551498 212.0
102.581734 128.0
102.607941 168.0
102.750351 132.0
102.844322 208.0
102.922707 168.0
102.961082 76.0
103.014015 156.0
103.047668 192.0
103.122719 152.0
103.153038 108.0
103.191452 256.0
103.389694 176.0
103.411957 172.0
103.447952 164.0
103.474716 196.0
103.496986 252.0
103.72187 48.0
103.754311 128.0
103.79689 164.0
103.819199 192.0
103.869904 192.0
103.991653 144.0
104.034279 164.0
104.257721 156.0
104.326828 100.0
104.434608 184.0
104.495636 136.0
104.6259 100.0
104.670692 80.0
104.823471 132.0
104.847931 240.0
104.982033 144.0
105.233482 212.0
105.570656 260.0
105.701576 152.0
105.783447 44.0
105.853065 44.0
105.898605 204.0
105.939087 172.0
105.97187 176.0
106.070244 284.0
106.103462 172.0
106.119446 220.0
106.154305 152.0
106.179779 152.0
106.215836 208.0
106.240456 252.0
106.601837 140.0
106.729294 200.0
106.842415 112.0
107.139488 164.0
107.293457 196.0
107.349129 260.0
107.413071 104.0
107.772308 156.0
107.811089 252.0
108.242996 204.0
108.264648 44.0
108.299858 208.0
108.668877 148.0
108.783028 176.0
108.86554 124.0
108.897232 164.0
109.040527 236.0
109.111275 184.0
109.127907 188.0
109.146622 244.0
109.202774 180.0
109.277664 116.0
109.444183 276.0
109.560822 164.0
109.825569 140.0
109.858948 76.0
109.890198 184.0
110.007118 160.0
110.057228 140.0
110.149124 212.0
110.19091 112.0
110.341393 220.0
110.422951 116.0
110.680359 184.0
110.774612 76.0
110.887764 160.0
110.929688 128.0
110.95694 148.0
110.971619 120.0
110.986298 100.0
111.02195 236.0
111.265358 128.0
111.366158 212.0
111.496429 108.0
111.571068 236.0
111.616257 180.0
111.70459 152.0
111.811905 136.0
111.870842 104.0
111.990875 164.0
112.10675 260.0
112.172096 44.0
112.2248 200.0
112.241959 148.0
112.601166 140.0
112.619446 212.0
112.68071 84.0
112.714516 180.0
112.767357 104.0
112.854034 204.0
112.877289 68.0
113.035995 188.0
113.205307 168.0
113.372665 156.0
113.510468 144.0
113.839394 52.0
114.041237 104.0
114.102882 116.0
114.224106 116.0
114.279419 156.0
114.341133 128.0
114.387962 108.0
114.464615 112.0
114.528503 76.0
114.583893 140.0
114.649956 48.0
114.675529 188.0
114.70668 176.0
114.726692 184.0
114.788521 144.0
114.841843 192.0
114.885765 352.0
114.952782 212.0
114.97036 208.0
115.005936 208.0
115.053734 46820.0
115.106483 36.0
115.1679 148.0
115.218124 60.0
115.236786 52.0
115.267876 204.0
115.282516 104.0
115.288574 136.0
115.339943 180.0
115.362885 92.0
115.401505 112.0
115.429047 72.0
115.455971 120.0
115.493225 80.0
115.566071 60.0
115.612587 92.0
115.655952 100.0
115.681641 92.0
115.711617 68.0
115.738274 80.0
115.771568 52.0
115.78656 176.0
115.822975 60.0
115.840111 228.0
115.887718 164.0
115.912964 84.0
115.975113 136.0
115.998695 124.0
116.020134 148.0
116.056328 3420.0
116.097389 196.0
116.123062 188.0
116.180984 148.0
116.209785 240.0
116.333359 88.0
116.596825 164.0
116.621208 52.0
116.737305 104.0
116.771744 332.0
116.813156 196.0
116.83625 120.0
116.857765 40.0
116.894348 132.0
116.909409 72.0
116.924477 60.0
116.949112 180.0
117.007301 84.0
117.028419 168.0
117.059593 576.0
117.161346 32.0
117.217369 28.0
117.307892 156.0
117.346695 264.0
117.3797 144.0
117.478256 48.0
117.579674 68.0
117.599098 136.0
117.691933 40.0
117.892838 204.0
117.942543 92.0
118.035515 188.0
118.060555 188.0
118.455399 164.0
118.578911 88.0
118.600586 144.0
118.659119 148.0
118.693817 192.0
118.730682 124.0
118.761047 80.0
118.904251 120.0
118.962662 132.0
119.088806 272.0
119.187202 220.0
119.282196 188.0
119.356125 36.0
119.434418 212.0
119.692879 148.0
119.741318 176.0
119.863319 136.0
120.028992 100.0
120.094421 180.0
120.120598 208.0
120.14241 116.0
120.487366 128.0
120.531067 144.0
120.566032 32.0
120.598816 232.0
120.681892 132.0
120.75843 148.0
120.795616 96.0
120.834999 216.0
120.872192 136.0
120.894081 152.0
120.915962 208.0
121.156837 72.0
121.248871 152.0
121.2686 164.0
121.50544 120.0
121.553711 72.0
121.648087 140.0
121.876503 176.0
121.946831 172.0
121.971008 52.0
122.182129 160.0
122.254745 188.0
122.307571 152.0
122.428665 164.0
122.472717 176.0
122.805557 160.0
122.935722 88.0
123.006355 152.0
123.136635 80.0
123.333282 220.0
123.40403 168.0
123.448257 224.0
123.492493 96.0
123.547791 160.0
123.638519 160.0
123.662865 68.0
123.815636 196.0
123.831139 160.0
123.917534 124.0
123.955208 200.0
123.995094 140.0
124.223488 148.0
124.454308 200.0
124.676453 176.0
124.732025 220.0
124.758698 252.0
124.816505 92.0
124.990021 64.0
125.05011 184.0
125.083496 148.0
125.099075 236.0
125.186676 152.0
125.240257 140.0
125.357452 184.0
125.538025 52.0
125.817787 152.0
125.872765 104.0
125.915199 168.0
126.029137 116.0
126.047012 180.0
126.369003 48.0
126.501045 156.0
126.597328 132.0
126.639885 172.0
126.825859 76.0
126.967117 152.0
127.053696 356.0
127.083771 40.0
127.234146 144.0
127.299263 208.0
127.582382 140.0
127.613861 188.0
127.726303 168.0
127.964859 92.0
128.060135 928.0
128.078796 284.0
128.104492 172.0
128.210403 220.0
128.341248 176.0
128.359192 136.0
128.465576 192.0
128.562225 172.0
128.582535 164.0
128.860291 140.0
129.034332 156.0
129.065048 1016.0
129.32164 204.0
129.473114 168.0
129.602463 164.0
129.733917 172.0
129.860901 80.0
130.040146 108.0
130.062851 144.0
130.166794 168.0
130.20816 196.0
130.233154 100.0
130.367203 212.0
130.501312 180.0
130.685562 168.0
130.806183 192.0
130.915466 152.0
130.954193 152.0
130.979248 96.0
131.022537 156.0
131.357651 136.0
131.423828 224.0
131.576752 84.0
131.615555 228.0
131.640244 144.0
131.75946 108.0
132.117813 204.0
132.260284 148.0
132.280884 100.0
132.482422 156.0
132.523651 148.0
132.608444 144.0
132.707031 188.0
132.815292 204.0
132.931824 388.0
133.021347 152.0
133.241806 120.0
133.3797 100.0
133.453262 208.0
133.517654 160.0
133.639572 156.0
133.770767 52.0
133.81221 196.0
133.855957 164.0
133.883591 144.0
133.938873 216.0
134.178543 108.0
134.441513 156.0
134.582321 128.0
134.642365 172.0
134.695496 180.0
134.716278 104.0
134.931213 132.0
134.97052 104.0
135.044525 132.0
135.123184 156.0
135.220383 176.0
135.343079 108.0
135.442657 168.0
135.472778 140.0
135.711502 184.0
135.734695 56.0
136.054886 216.0
136.103653 200.0
136.34758 196.0
136.438232 176.0
136.696411 176.0
136.871002 192.0
136.910599 160.0
136.943207 120.0
137.262497 116.0
137.647537 140.0
137.754974 196.0
138.04541 184.0
138.555481 212.0
138.810577 60.0
138.851929 132.0
139.052582 2032.0
139.242401 164.0
139.338715 196.0
139.357498 196.0
139.383347 168.0
139.479706 44.0
139.649017 108.0
139.81842 232.0
139.905518 56.0
140.053314 1064.0
140.129257 36.0
140.159882 160.0
140.282455 172.0
140.397995 56.0
140.440445 188.0
140.51593 104.0
140.532455 212.0
140.615051 96.0
140.636292 176.0
140.664612 80.0
140.697662 208.0
140.745773 224.0
140.78981 184.0
140.817856 396.0
140.833298 192.0
140.882935 412.0
140.90715 144.0
140.914032 144.0
140.962219 136.0
140.987717 96.0
141.015335 176.0
141.069366 116360.0
141.122955 32.0
141.154678 116.0
141.205261 156.0
141.220383 108.0
141.25 80.0
141.27861 128.0
141.293686 176.0
141.303543 84.0
141.339386 68.0
141.365875 220.0
141.383163 48.0
141.413071 164.0
141.432343 76.0
141.457458 1140.0
141.478516 72.0
141.49939 104.0
141.518097 68.0
141.569595 140.0
141.608093 100.0
141.631287 200.0
141.661896 56.0
141.675797 76.0
141.707108 80.0
141.752838 84.0
141.797638 144.0
141.823608 120.0
141.861633 84.0
141.897202 120.0
141.918549 80.0
141.946991 88.0
141.989105 100.0
142.015671 64.0
142.071671 16760.0
142.174744 80.0
142.201996 56.0
142.230865 36.0
142.261307 68.0
142.306061 88.0
142.362427 72.0
142.392212 60.0
142.409164 60.0
142.438293 116.0
142.461105 60.0
142.528885 224.0
142.552689 56.0
142.589127 76.0
142.626022 40.0
142.675949 72.0
142.753281 160.0
142.772125 36.0
142.794846 64.0
142.840317 172.0
142.865768 80.0
142.88974 144.0
142.920929 60.0
142.995178 80.0
143.028976 84.0
143.075439 604.0
143.108215 152.0
143.114838 104.0
143.124405 112.0
143.133545 88.0
143.183563 100.0
143.207703 124.0
143.231232 120.0
143.26413 140.0
143.288315 104.0
143.31575 148.0
143.409149 60.0
143.432983 148.0
143.451813 40.0
143.483047 148.0
143.564117 92.0
143.65715 56.0
143.676224 72.0
143.719177 100.0
143.776459 84.0
143.795547 88.0
143.862381 84.0
143.97699 108.0
144.029541 136.0
144.051834 180.0
144.079102 356.0
144.108383 132.0
144.129883 28.0
144.175293 92.0
144.218307 76.0
144.31395 36.0
144.396973 204.0
144.538788 120.0
144.91713 128.0
144.996201 68.0
145.063995 340.0
145.113663 36.0
145.132843 64.0
145.178406 32.0
145.461548 44.0
145.487946 60.0
145.932434 64.0
145.982925 156.0
146.026215 56.0
146.062302 108.0
146.447433 52.0
146.50766 108.0
146.905441 100.0
147.163696 68.0
147.366577 96.0
147.997894 52.0
148.126251 56.0
148.145645 28.0
148.482574 120.0
148.725204 100.0
148.919464 56.0
149.074951 56.0
149.113831 72.0
149.133286 84.0
149.369156 88.0
149.573563 56.0
149.6539 108.0
149.795151 76.0
149.817078 204.0
150.033981 180.0
150.109573 88.0
150.224213 124.0
150.537827 204.0
150.58548 80.0
150.788269 144.0
150.966751 292.0
151.053146 440.0
151.08905 180.0
151.836166 108.0
152.060928 1712.0
152.153076 28.0
152.290237 84.0
152.472061 84.0
152.983704 116.0
153.068192 2164.0
153.104355 192.0
153.44194 48.0
154.072388 536.0
154.21463 124.0
154.399597 108.0
154.531174 260.0
154.687088 92.0
154.934738 192.0
155.006592 52.0
155.043549 140.0
155.07785 604.0
155.130524 140.0
155.269379 132.0
155.457932 112.0
155.582047 68.0
156.079987 840.0
156.265518 96.0
156.534363 36.0
156.813385 56.0
156.883179 100.0
157.05275 104.0
157.090179 544.0
157.115128 164.0
157.165024 236.0
157.204956 96.0
157.967026 176.0
158.074615 144.0
158.100616 184.0
158.886459 188.0
159.660141 132.0
160.014938 192.0
160.612213 216.0
160.756027 116.0
160.970612 104.0
161.534241 128.0
162.15715 108.0
162.428467 44.0
162.595932 172.0
162.926041 220.0
164.050919 136.0
164.816605 40.0
165.010376 188.0
165.067184 1408.0
165.131058 176.0
165.233383 48.0
165.322937 68.0
165.640442 148.0
165.719864 112.0
165.842865 168.0
166.030029 184.0
166.06456 3212.0
166.132645 40.0
166.289169 308.0
166.345642 128.0
166.389282 48.0
166.49971 172.0
166.548508 40.0
166.628143 144.0
166.869751 136.0
166.939178 104.0
167.042053 184.0
167.073669 2832.0
167.173706 72.0
167.29425 52.0
167.484818 32.0
167.680634 92.0
167.716721 68.0
168.077499 2696.0
168.178452 148.0
168.372086 84.0
168.837296 36.0
169.0802 464.0
169.184036 92.0
169.20993 56.0
169.29538 48.0
169.839661 60.0
170.036865 200.0
170.055023 56.0
170.09436 500.0
170.241959 208.0
170.369232 144.0
170.462784 40.0
170.777359 136.0
171.102646 152.0
171.975952 48.0
171.996841 28.0
172.059494 204.0
173.684631 112.0
173.839432 112.0
175.13298 148.0
176.064041 104.0
176.60321 72.0
176.685226 152.0
176.759308 76.0
177.153824 80.0
178.212418 120.0
178.933228 152.0
179.0504 152.0
179.073059 112.0
179.375473 128.0
180.010483 128.0
180.079117 868.0
180.16272 44.0
180.403244 120.0
180.820541 188.0
181.074493 168.0
182.026962 248.0
182.086548 768.0
182.392349 76.0
182.690842 276.0
182.906128 164.0
183.06601 164.0
183.093414 664.0
183.420639 180.0
183.528488 188.0
183.757751 188.0
183.886322 168.0
184.103546 156.0
184.408569 108.0
184.55455 232.0
184.700607 124.0
185.410004 184.0
185.66214 48.0
185.925293 156.0
187.028809 156.0
187.145874 152.0
187.739929 112.0
188.034592 164.0
188.460602 136.0
188.684723 72.0
189.853973 164.0
190.037766 176.0
191.875061 72.0
192.073715 368.0
192.258484 112.0
193.086273 572.0
193.117752 132.0
193.336334 68.0
193.380615 68.0
194.056564 80.0
194.093521 620.0
195.09079 556.0
195.537216 92.0
195.993942 76.0
196.099976 180.0
196.911774 88.0
197.599457 56.0
198.666885 176.0
198.860504 196.0
199.754074 200.0
201.518951 92.0
202.497772 184.0
202.554413 168.0
203.97612 132.0
204.004547 112.0
204.687408 128.0
205.28299 44.0
205.633911 172.0
206.099411 180.0
206.219437 196.0
206.302338 100.0
206.679871 112.0
206.759995 144.0
207.077805 148.0
207.943695 60.0
208.032684 256.0
208.09906 920.0
208.434799 80.0
208.578491 380.0
208.963867 112.0
209.105209 1520.0
209.231537 164.0
209.467682 60.0
210.110626 336.0
210.200012 176.0
210.266388 100.0
210.474243 104.0
210.537781 108.0
210.633102 148.0
210.684647 128.0
210.719772 132.0
210.806458 136.0
210.956757 128.0
211.036972 180.0
211.122543 35984.0
211.218048 96.0
211.293106 200.0
211.364578 68.0
211.413773 132.0
211.438019 84.0
211.512177 48.0
211.588943 100.0
211.727615 76.0
211.830719 48.0
211.885117 72.0
211.98201 128.0
212.06543 56.0
212.125259 4464.0
212.204575 48.0
212.239365 36.0
212.306076 128.0
212.584579 52.0
212.625198 100.0
212.700668 80.0
212.802277 160.0
212.828415 48.0
212.873428 152.0
212.899994 136.0
213.127289 616.0
213.264191 36.0
213.374664 112.0
213.421188 104.0
213.488068 128.0
213.537506 108.0
213.703323 96.0
213.742249 128.0
213.811005 124.0
213.851746 64.0
213.886673 92.0
214.006042 36.0
214.154572 100.0
214.224472 136.0
214.362076 88.0
214.446991 132.0
214.475082 28.0
214.687927 44.0
215.087112 64.0
215.148956 84.0
215.283279 68.0
215.332932 64.0
215.993515 36.0
216.040329 48.0
217.012695 92.0
218.16066 72.0
218.181244 104.0
220.06395 64.0
223.100815 44.0
223.303024 56.0
223.594604 48.0
224.613632 48.0
224.816528 56.0
225.17778 96.0
225.374939 76.0
229.692261 52.0
231.154602 60.0
240.013687 88.0
241.848831 100.0
243.408295 96.0
247.317932 96.0
248.587265 108.0
249.686844 76.0
249.8284 116.0
256.826233 72.0
261.214783 40.0
261.53656 124.0
263.788147 108.0
270.911987 76.0
271.88913 76.0
272.601776 56.0
278.884766 148.0
293.074402 84.0
294.148712 64.0
297.541382 116.0
305.587769 84.0
313.047363 48.0
365.92276 80.0
381.120514 56.0
385.993073 76.0
396.457031 60.0
402.51181 56.0
407.189453 104.0
440.697815 76.0
444.890289 104.0
445.429718 44.0
452.077026 48.0
467.09198 104.0
471.256653 104.0
475.939026 44.0
478.88324 88.0
483.90097 48.0
485.180298 96.0
490.182312 92.0
490.786224 88.0
494.926575 52.0
498.377533 52.0
512.386963 48.0
555.711609 52.0
557.002686 100.0
585.433411 56.0
586.917664 44.0
610.340515 64.0
613.91571 68.0
638.791321 36.0
664.591919 40.0
677.844421 80.0
718.781677 84.0
728.370667 56.0
730.052979 84.0
730.725403 72.0
758.192871 244.0
771.115906 148.0
773.239746 104.0
783.245483 84.0
788.753113 96.0
789.832336 64.0
801.155273 216.0
809.781128 200.0
816.353271 48.0
818.703674 136.0
835.555908 80.0
836.655151 84.0
838.158447 176.0
851.185547 160.0
858.518066 164.0
881.738281 200.0
895.658325 92.0
896.164734 192.0
898.084351 168.0
904.106934 176.0
908.912354 136.0
925.350586 112.0
928.301575 64.0
931.275452 188.0
933.037781 196.0
937.341125 184.0
944.019592 92.0
944.405518 200.0
949.776855 44.0
952.078552 180.0
955.963928 224.0
956.524048 208.0
956.844177 188.0
959.894226 64.0
965.031738 224.0
968.144348 148.0
972.856873 208.0
974.32251 116.0
979.043762 64.0
983.270813 128.0
986.318909 132.0
987.450684 144.0
988.245178 168.0
993.821838 132.0
1000.893372 132.0
1004.940125 112.0
1005.369202 48.0
1006.417114 176.0
1006.758118 52.0
1007.888916 156.0
1008.040588 152.0
1008.388184 276.0
1010.810364 208.0
1012.735046 80.0
1016.742188 172.0
1017.776917 184.0
1021.832153 128.0
1022.163086 164.0
1022.952271 60.0
1024.544434 32.0
1024.85022 176.0
1025.946533 184.0
1027.549072 188.0
1030.644043 208.0
1035.858398 192.0
1038.07605 136.0
1038.884277 172.0
1042.139404 204.0
1045.270996 36.0
1045.425415 124.0
1046.64209 196.0
1047.537354 128.0
1048.291138 252.0
1052.581055 108.0
1054.292969 124.0
1057.177368 108.0
1065.704712 176.0
1068.279297 48.0
1068.468018 180.0
1068.728271 212.0
1072.968384 164.0
1073.718262 124.0
1077.210449 120.0
1078.719971 64.0
1083.130615 124.0
1085.758911 264.0
1086.493652 32.0
1089.342896 160.0
1089.999878 120.0
1090.920044 128.0
1092.005005 64.0
1094.400513 152.0
1095.974854 152.0
1100.493164 92.0
1100.671387 136.0
1103.21521 184.0
1105.265503 196.0
1105.72876 180.0
1105.907471 180.0
1106.722534 180.0
1106.913818 140.0
1107.549683 128.0
1107.774902 48.0
1109.836182 216.0
1111.700195 60.0
1116.204224 240.0
1117.534546 176.0
1118.120239 156.0
1121.097168 152.0
1123.571045 168.0
1123.891357 228.0
1128.640625 96.0
1132.95105 128.0
1135.001953 140.0
1135.102539 124.0
1135.686035 152.0
1137.994629 200.0
1138.370728 216.0
1141.858765 260.0
1147.414307 228.0
1148.027832 136.0
1151.172729 152.0
1153.375366 160.0
1154.802002 236.0
1155.999512 112.0
1156.595093 180.0
1157.021606 144.0
1157.942627 172.0
1159.033325 176.0
1159.575439 152.0
1163.312988 168.0
1163.598145 156.0
1164.243286 136.0
1166.768188 132.0
1167.852295 184.0
1168.607422 176.0
1169.573853 140.0
1170.077637 92.0
1170.642822 200.0
1172.352783 176.0
1172.577637 156.0
1176.868652 148.0
1177.285156 164.0
1177.449097 148.0
1180.121094 164.0
1180.674927 176.0
1181.023804 168.0
1181.297485 172.0
1181.954224 148.0
1182.590698 172.0
1183.378052 144.0
1184.076538 100.0
1184.309326 64.0
1185.467285 144.0
1186.097778 52.0
1188.560059 192.0
1191.100342 196.0
1193.856445 156.0
1195.714111 160.0
1196.905029 152.0
1197.008301 148.0
1197.731567 160.0
1199.213013 172.0
1200.495361 136.0
1208.453125 160.0
1210.322021 192.0
1211.617188 180.0
1213.086426 144.0
1214.022583 128.0
1215.527954 124.0
1216.555176 168.0
1217.145264 236.0
1217.562012 180.0
1218.548462 192.0
1219.687622 236.0
1220.696289 236.0
1221.162231 204.0
1224.809692 160.0
1225.436646 52.0
1226.586548 172.0
1228.916016 68.0
1229.278809 208.0
1231.086914 148.0
1231.505981 120.0
1233.700195 144.0
1235.063843 184.0
1237.15625 80.0
1237.21228 212.0
1238.802002 264.0
1240.252563 236.0
1242.011353 188.0
1242.202026 172.0
1243.121094 120.0
1243.586182 140.0
1243.636597 64.0
1244.054688 124.0
1244.995605 44.0
1246.611328 88.0
1247.567261 120.0
1248.375977 132.0
1250.571045 176.0
1250.711792 104.0
1251.338379 68.0
1255.390137 204.0
1256.151978 200.0
1258.14917 204.0
1259.031738 76.0
1259.328369 188.0
1259.787598 136.0
1261.794678 156.0
1263.131348 96.0
1263.569946 204.0
1265.190674 128.0
1265.410156 36.0
1265.679321 120.0
1265.728882 232.0
1266.585815 192.0
1266.876221 172.0
1268.839355 188.0
1269.860596 108.0
1270.548706 144.0
1272.834229 84.0
1274.062988 372.0
1274.66687 156.0
1275.242554 36.0
1275.342163 216.0
1276.600586 240.0
1279.005371 196.0
1280.158813 160.0
1281.768188 252.0
1282.224854 116.0
1282.845093 176.0
1283.500977 144.0
1285.194214 172.0
1285.398438 176.0
1286.076538 52.0
1286.654785 136.0
1290.377075 256.0
1292.701904 212.0
1294.398438 152.0
1295.558838 172.0
1296.010254 124.0
1296.977661 108.0
1297.458008 224.0
1297.536865 172.0
1299.609741 124.0
1300.126465 88.0
1301.023682 64.0
1301.152954 120.0
1302.323486 188.0
1303.372437 172.0
1304.507935 252.0
1305.232422 204.0
1306.219482 116.0
1307.054077 212.0
1308.17688 160.0
1308.594482 136.0
1309.42981 152.0
1310.366333 152.0
1310.906738 148.0
1311.699585 176.0
1311.800537 192.0
1311.865356 128.0
1312.117676 164.0
1312.192871 172.0
1312.297974 36.0
1312.427734 112.0
1314.692871 92.0
1314.866089 140.0
1315.855103 212.0
1316.533813 248.0
1317.053955 208.0
1317.3573 88.0
1317.704102 144.0
1319.988281 144.0
1320.617432 128.0
1321.167236 128.0
1321.623047 140.0
1322.274292 220.0
1322.513184 188.0
1322.940308 172.0
1323.57312 140.0
1324.026489 100.0
1324.446533 184.0
1324.924683 144.0
1325.192749 260.0
1325.74353 220.0
1327.490601 164.0
1327.570435 128.0
1327.700928 64.0
1327.954834 76.0
1328.215942 92.0
1328.796265 164.0
1331.220703 92.0
1331.729126 220.0
1332.411987 132.0
1332.520996 64.0
1332.898804 164.0
1334.621582 100.0
1334.897949 136.0
1335.130615 156.0
1335.690674 212.0
1336.06897 128.0
1336.672974 200.0
1336.77478 148.0
1337.189697 92.0
1337.509888 148.0
1339.089966 240.0
1339.228394 196.0
1339.672729 144.0
1340.248291 180.0
1340.598145 132.0
1340.816772 252.0
1341.764404 136.0
1341.924805 176.0
1342.005005 80.0
1342.187256 68.0
1342.369629 168.0
1342.785278 160.0
1343.558594 144.0
1343.857666 144.0
1344.062012 200.0
1344.13501 248.0
1344.383057 216.0
1344.529053 224.0
1345.127563 104.0
1345.886841 168.0
1347.165039 152.0
1348.151489 160.0
1349.408813 144.0
1350.074219 228.0
1350.893433 264.0
1352.642456 272.0
1352.77417 212.0
1353.601562 72.0
1357.89624 156.0
1358.842529 128.0
1359.326782 144.0
1361.022461 104.0
1362.021362 236.0
1362.395996 220.0
1363.395386 196.0
1363.498169 168.0
1364.777344 236.0
1365.027344 176.0
1365.733398 172.0
1366.623657 180.0
1366.726685 48.0
1368.949707 164.0
1370.334595 148.0
1371.027344 120.0
1371.086304 200.0
1371.454834 172.0
1372.420532 232.0
1374.404785 152.0
1374.574463 180.0
1375.807129 140.0
1376.323975 152.0
1376.552856 188.0
1376.626709 180.0
1376.730103 156.0
1377.129028 128.0
1377.298828 192.0
1378.517944 172.0
1379.841064 196.0
1380.255127 156.0
1380.506592 136.0
1380.817261 192.0
1380.928101 204.0
1381.681641 132.0
1381.852905 140.0
1382.230225 92.0
1382.296875 104.0
1383.710693 164.0
1386.147583 204.0
1386.503296 52.0
1386.658936 188.0
1388.964966 120.0
1389.365601 216.0
1389.620728 216.0
1390.797852 156.0
1390.864624 212.0
1390.938843 76.0
1391.889282 208.0
1392.5354 176.0
1393.508545 132.0
1395.455933 200.0
1396.125122 60.0
1397.002808 228.0
1397.285522 144.0
1398.3125 148.0
1400.21106 100.0
1400.300415 56.0
1401.544556 172.0
1401.723389 148.0
1403.460327 160.0
1403.765991 188.0
1403.9375 112.0
1404.302979 116.0
1404.608765 108.0
1404.959473 164.0
1405.160889 228.0
1405.213989 152.0
1405.339966 204.0
1405.526489 208.0
1405.974243 156.0
1406.601196 136.0
1406.720703 208.0
1407.355347 84.0
1408.418701 176.0
1408.953735 188.0
1409.132935 232.0
1409.820435 232.0
1409.90271 124.0
1409.99231 260.0
1411.293091 132.0
1411.756714 72.0
1412.049194 172.0
1412.78894 204.0
1414.906982 276.0
1416.015259 104.0
1416.30542 216.0
1416.4198 156.0
1416.644531 148.0
1417.168945 68.0
1418.405518 164.0
1419.575195 204.0
1420.220215 80.0
1421.795898 140.0
1422.193604 176.0
1422.246216 240.0
1422.576538 200.0
1422.692505 180.0
1426.197266 208.0
1427.054321 208.0
1428.490845 208.0
1429.032471 240.0
1429.635254 196.0
1429.754883 216.0
1431.102417 208.0
1432.141724 180.0
1433.000488 192.0
1433.241577 112.0
1433.889771 148.0
1434.304321 116.0
1434.44751 140.0
1434.816895 132.0
1437.804077 52.0
1439.502686 216.0
1439.774414 176.0
1440.937866 220.0
1441.104126 152.0
1441.225098 236.0
1441.345947 196.0
1442.895508 148.0
1443.364258 100.0
1443.454956 136.0
1445.217529 228.0
1445.656372 144.0
1446.669067 92.0
1446.897827 60.0
1446.973511 188.0
1448.012329 88.0
1448.579102 208.0
1449.571655 128.0
1450.284058 164.0
1450.602417 132.0
1451.360596 176.0
1451.785278 136.0
1453.355591 148.0
1454.152466 168.0
1454.402954 108.0
1454.562256 148.0
1455.367065 200.0
1455.503784 164.0
1455.670776 192.0
1456.848145 160.0
1456.949829 200.0
1457.212769 168.0
1457.71106 140.0
1457.805542 188.0
1458.063965 60.0
1458.72522 148.0
1459.29541 240.0
1459.934204 160.0
1460.116699 56.0
1460.953491 164.0
1461.158813 128.0
1462.117676 116.0
1463.015869 160.0
1463.1073 164.0
1463.663086 160.0
1464.142822 168.0
1464.516113 180.0
1465.186401 152.0
1465.559814 128.0
1465.971313 168.0
1466.748657 252.0
1466.802124 96.0
1466.885864 76.0
1468.569458 144.0
1469.727905 180.0
1470.142822 168.0
1470.684692 184.0
1470.776367 180.0
1472.127808 320.0
1473.655518 200.0
1475.482178 152.0
1475.788086 144.0
1476.032715 48.0
1477.57019 204.0
1478.189941 172.0
1478.614258 204.0
1478.771606 120.0
1479.384033 164.0
1479.805054 160.0
1481.382812 132.0
1481.66626 160.0
1482.256226 28.0
1482.593506 156.0
1482.754517 204.0
1484.24939 160.0
1485.599243 48.0
1485.867798 72.0
1486.57373 124.0
1486.635132 136.0
1486.957397 104.0
1487.946777 160.0
1488.108887 204.0
1490.497803 168.0
1493.39624 188.0
1493.665405 184.0
1493.842407 128.0
1495.689209 140.0
1496.372437 236.0
1497.005859 204.0
1498.076538 208.0
1498.199707 88.0
1498.353882 136.0
1498.507935 164.0
1499.486572 160.0
1499.810303 176.0
1501.591553 116.0
1502.12793 156.0
1502.524902 172.0
1503.751831 204.0
1504.052856 180.0
1504.29834 248.0
1505.164673 184.0
1505.295898 160.0
