>compound MLS002153226-01!CHLORPROTHIXENE HYDROCHLORIDE
>formula C18H18ClNS
>ionization [M+H]+
>parentmass 316.092041
#inchi InChI=1S/C18H18ClNS/c1-20(2)11-5-7-14-15-6-3-4-8-17(15)21-18-10-9-13(19)12-16(14)18/h3-4,6-10,12H,5,11H2,1-2H3/b14-7+
#inchikey WSPOMRSOLSGNFJ
#origInchi InChI=1S/C18H18ClNS.ClH/c1-20(2)11-5-7-14-15-6-3-4-8-17(15)21-18-10-9-13(19)12-16(14)18;/h3-4,6-10,12H,5,11H2,1-2H3;1H/b14-7+;
#Ion_Source LC-ESI
#Instrument qTof
#Compound_Source NIH Pharmacologically Active Library
#PI Dorrestein
#Data_Collector VP/LMS
#Scan -1
#Precursor_MZ 316.099
#ExactMass 315.085
#Charge 1
#CAS_Number N/A
#Pubmed_ID N/A
#Smiles CN(C)CC/C=C/1\c2ccccc2Sc3ccc(Cl)cc13.Cl
#INCHI_AUX N/A
#Library_Class 1
#SpectrumID CCMSLIB00000086080
#IonMode Positive
#UpdateWorkflowName UPDATE-SINGLE-ANNOTATED-GOLD
#LibraryQualityString Gold
#TaskID d252d724072548979f1f6f1ced849daf
##Scan# 1834
#SpectrumFile p5-D04_GD4_01_18455.mzXML
#LibraryName Pharm_Active_Library.mgf
#MQScore -1
#Organism Pharm_Active_Library
#TIC_Query 0
#RT_Query -1
#MZErrorPPM -1
#SharedPeaks 0
#MassDiff 0
#LibMZ -1
#SpecMZ 316.099
#SpecCharge 0
#internalFilename spec-00000.mgf

>collision 10
44.892578 140.0
44.894653 128.0
44.899841 200.0
44.91003 140.0
44.927372 136.0
44.958061 48.0
44.970375 192.0
44.996769 112.0
45.019466 108.0
45.042099 288.0
45.089806 172.0
45.103638 124.0
45.11433 92.0
45.127701 176.0
45.183872 224.0
45.192871 184.0
45.210632 136.0
45.22134 168.0
45.232872 188.0
45.257481 240.0
45.285797 308.0
45.333832 136.0
45.35545 184.0
45.395393 188.0
45.430904 180.0
45.46928 176.0
45.481102 208.0
45.501495 168.0
45.512966 152.0
45.527008 220.0
45.591488 148.0
45.612652 220.0
45.672157 160.0
45.695026 44.0
45.726871 120.0
45.748856 112.0
45.789616 148.0
45.802719 48.0
45.815952 204.0
45.820938 168.0
45.825317 124.0
45.830376 264.0
45.867397 104.0
45.886269 100.0
45.9011 128.0
45.910538 176.0
45.924026 228.0
45.932674 132.0
45.957077 232.0
45.983391 112.0
45.996887 96.0
46.007687 176.0
46.023888 188.0
46.057648 28.0
46.087044 164.0
46.114395 176.0
46.150894 276.0
46.171177 88.0
46.267246 168.0
46.296249 152.0
46.3223 104.0
46.341736 328.0
46.364769 96.0
46.386185 120.0
46.388073 208.0
46.405437 104.0
46.431198 224.0
46.473251 152.0
46.493603 120.0
46.503105 172.0
46.522106 172.0
46.561485 108.0
46.614464 184.0
46.629341 152.0
46.63784 180.0
46.686512 172.0
46.728794 184.0
46.753689 208.0
46.781754 200.0
46.811203 152.0
46.828342 148.0
46.856651 112.0
46.867554 204.0
46.900261 140.0
46.928513 160.0
46.932976 116.0
46.943748 316.0
46.947296 128.0
46.95274 252.0
46.972527 132.0
46.984802 96.0
47.012978 192.0
47.048946 156.0
47.072155 84.0
47.09264 292.0
47.128159 116.0
47.162323 124.0
47.195133 172.0
47.208805 196.0
47.225216 204.0
47.258049 144.0
47.306568 168.0
47.337437 232.0
47.375443 152.0
47.407299 108.0
47.463501 156.0
47.496414 136.0
47.531242 176.0
47.535038 208.0
47.626808 272.0
47.644669 180.0
47.671829 208.0
47.68589 104.0
47.717823 224.0
47.735802 232.0
47.757385 144.0
47.776642 108.0
47.806911 112.0
47.816544 148.0
47.832497 352.0
47.859219 100.0
47.891479 244.0
47.915081 228.0
47.925331 204.0
47.952084 232.0
47.968052 132.0
48.010796 92.0
48.028725 172.0
48.039707 104.0
48.059074 132.0
48.068733 160.0
48.108757 144.0
48.130196 136.0
48.151562 140.0
48.186092 156.0
48.224243 124.0
48.23999 184.0
48.251511 108.0
48.288383 132.0
48.310516 136.0
48.334747 264.0
48.347874 160.0
48.375553 232.0
48.410168 164.0
48.419861 148.0
48.447563 100.0
48.472916 148.0
48.49329 152.0
48.519627 168.0
48.53957 240.0
48.566772 176.0
48.590355 160.0
48.616718 148.0
48.656971 104.0
48.70002 140.0
48.713909 156.0
48.738914 144.0
48.770878 120.0
48.809803 188.0
48.833447 96.0
48.86507 180.0
48.870792 132.0
48.872639 160.0
48.888889 164.0
48.912754 120.0
48.928066 188.0
48.958698 132.0
49.010239 128.0
49.019993 176.0
49.045078 116.0
49.081326 288.0
49.103638 176.0
49.117344 116.0
49.139904 188.0
49.153858 144.0
49.16893 180.0
49.191174 168.0
49.212479 184.0
49.229237 148.0
49.266949 184.0
49.280918 120.0
49.309586 140.0
49.320045 160.0
49.334026 128.0
49.371166 156.0
49.396763 324.0
49.426968 176.0
49.442284 200.0
49.464119 164.0
49.481316 120.0
49.494473 176.0
49.559349 192.0
49.586971 180.0
49.605595 40.0
49.641079 208.0
49.671799 188.0
49.695351 152.0
49.713593 160.0
49.759754 176.0
49.795013 164.0
49.811871 152.0
49.842358 120.0
49.857864 212.0
49.883533 132.0
49.963692 148.0
50.018574 200.0
50.040134 152.0
50.088978 168.0
50.131245 124.0
50.160133 168.0
50.173527 172.0
50.211853 156.0
50.222881 128.0
50.237999 156.0
50.249683 152.0
50.282139 156.0
50.296326 156.0
50.340019 108.0
50.354141 148.0
50.395103 180.0
50.429173 148.0
50.4785 108.0
50.492641 128.0
50.51527 228.0
50.608677 116.0
50.63715 168.0
50.661846 184.0
50.678078 160.0
50.702168 156.0
50.724232 248.0
50.736183 272.0
50.794327 172.0
50.822758 188.0
50.860085 180.0
50.870953 164.0
50.885685 148.0
50.913548 76.0
50.954739 156.0
50.990261 180.0
51.00021 136.0
51.020111 144.0
51.037174 196.0
51.059143 124.0
51.101532 144.0
51.135326 188.0
51.155067 184.0
51.16814 156.0
51.183994 156.0
51.202499 172.0
51.227879 184.0
51.262074 152.0
51.27721 148.0
51.288239 144.0
51.299129 116.0
51.384109 312.0
51.401817 124.0
51.453197 120.0
51.472008 164.0
51.548893 52.0
51.564613 132.0
51.593201 212.0
51.636097 124.0
51.663273 124.0
51.684734 168.0
51.772053 148.0
51.807861 36.0
51.855743 156.0
51.872669 176.0
51.885246 184.0
51.903885 204.0
51.915009 296.0
51.935436 428.0
51.99139 92.0
52.011482 136.0
52.034451 248.0
52.047371 96.0
52.079193 152.0
52.099689 188.0
52.126373 88.0
52.164341 96.0
52.189617 140.0
52.199684 184.0
52.231323 96.0
52.261536 124.0
52.278721 144.0
52.348541 304.0
52.409138 148.0
52.422806 176.0
52.434334 112.0
52.50209 132.0
52.519398 112.0
52.562859 160.0
52.579994 132.0
52.595638 148.0
52.622131 192.0
52.653862 120.0
52.70129 132.0
52.738865 192.0
52.770668 116.0
52.801033 156.0
52.811752 92.0
52.825623 100.0
52.905212 96.0
52.940784 296.0
52.960236 156.0
52.980515 72.0
53.028973 172.0
53.072231 184.0
53.097389 136.0
53.112427 128.0
53.132736 156.0
53.160305 112.0
53.187878 180.0
53.217297 196.0
53.246334 352.0
53.259026 200.0
53.281879 152.0
53.324718 188.0
53.360748 224.0
53.37674 136.0
53.399811 148.0
53.416008 248.0
53.445526 124.0
53.497135 160.0
53.508369 176.0
53.54409 160.0
53.571766 120.0
53.632965 76.0
53.648998 388.0
53.668194 144.0
53.692741 224.0
53.743797 232.0
53.787579 136.0
53.805096 128.0
53.829533 228.0
53.845982 136.0
53.895809 180.0
53.910259 176.0
53.921951 256.0
53.93803 144.0
53.984024 160.0
54.039738 148.0
54.071217 256.0
54.131145 316.0
54.14579 196.0
54.15897 108.0
54.170689 184.0
54.189735 152.0
54.199158 148.0
54.237957 172.0
54.258617 60.0
54.292969 252.0
54.326042 180.0
54.343681 148.0
54.358353 148.0
54.375961 252.0
54.408932 104.0
54.484623 76.0
54.532562 180.0
54.5434 132.0
54.558151 120.0
54.593388 172.0
54.604427 144.0
54.620682 176.0
54.671356 160.0
54.692722 116.0
54.702263 152.0
54.720665 136.0
54.749378 344.0
54.764442 192.0
54.805355 156.0
54.817142 212.0
54.830402 172.0
54.842194 108.0
54.877575 112.0
54.887894 176.0
54.933613 132.0
54.961647 144.0
54.986732 180.0
55.009331 232.0
55.02533 188.0
55.076393 132.0
55.158062 136.0
55.199459 120.0
55.254185 116.0
55.302029 168.0
55.326824 192.0
55.434822 140.0
55.463749 108.0
55.483734 208.0
55.508938 224.0
55.548985 144.0
55.590527 84.0
55.615753 164.0
55.63802 116.0
55.678204 64.0
55.71072 168.0
55.747505 208.0
55.781601 208.0
55.79446 168.0
55.807388 108.0
55.825233 56.0
55.880268 196.0
55.896633 148.0
55.909489 188.0
55.938061 196.0
55.985153 156.0
56.003822 48.0
56.041061 176.0
56.059399 184.0
56.081299 108.0
56.093224 180.0
56.154354 432.0
56.167778 76.0
56.187489 132.0
56.214027 140.0
56.274391 208.0
56.298744 112.0
56.318531 108.0
56.369328 100.0
56.381008 176.0
56.413349 220.0
56.465 176.0
56.486885 204.0
56.502396 244.0
56.529327 104.0
56.58321 144.0
56.619148 164.0
56.66708 140.0
56.67881 328.0
56.707901 216.0
56.720219 96.0
56.73452 96.0
56.757008 216.0
56.792999 188.0
56.815502 168.0
56.826004 260.0
56.845509 64.0
56.865017 140.0
56.887791 140.0
56.907051 116.0
56.936241 236.0
56.9506 120.0
56.964115 100.0
56.98064 128.0
57.007687 124.0
57.037746 96.0
57.04977 188.0
57.089897 180.0
57.170097 92.0
57.204521 128.0
57.243858 192.0
57.260426 100.0
57.276237 208.0
57.299587 304.0
57.314655 168.0
57.325203 156.0
57.367496 196.0
57.393032 128.0
57.411217 136.0
57.423191 192.0
57.439785 236.0
57.456379 136.0
57.480518 144.0
57.491081 196.0
57.516739 116.0
57.537872 156.0
57.567726 420.0
57.586483 124.0
57.596497 112.0
57.617519 216.0
57.636391 156.0
57.655052 124.0
57.691963 88.0
57.707081 124.0
57.744884 124.0
57.785728 124.0
57.803883 72.0
57.825363 104.0
57.842117 152.0
57.862911 32.0
57.899902 160.0
57.952271 240.0
57.965908 132.0
57.982578 100.0
58.05307 176.0
58.118206 132.0
58.138779 128.0
58.155476 148.0
58.181786 156.0
58.219238 144.0
58.255081 196.0
58.305832 128.0
58.334709 144.0
58.368156 360.0
58.384884 88.0
58.416824 180.0
58.451149 128.0
58.473122 152.0
58.508129 168.0
58.529446 168.0
58.573612 192.0
58.597721 116.0
58.619801 128.0
58.629982 180.0
58.646748 44.0
58.709255 416.0
58.738171 344.0
58.765694 164.0
58.802315 48.0
58.859894 208.0
58.873638 128.0
58.900032 116.0
58.91927 240.0
58.958092 100.0
58.977169 224.0
59.000889 204.0
59.011589 56.0
59.022293 112.0
59.037582 200.0
59.086529 136.0
59.108311 136.0
59.121723 204.0
59.184483 164.0
59.195202 224.0
59.231956 88.0
59.266159 160.0
59.276882 308.0
59.302814 164.0
59.319843 124.0
59.34996 164.0
59.379097 100.0
59.417446 96.0
59.430561 320.0
59.481895 164.0
59.493309 172.0
59.557583 220.0
59.597744 276.0
59.655476 136.0
59.670082 208.0
59.678864 132.0
59.689301 172.0
59.735439 200.0
59.755436 148.0
59.837006 140.0
59.898933 168.0
59.924793 180.0
59.946365 176.0
59.981812 96.0
60.000309 148.0
60.011101 148.0
60.025558 192.0
60.037315 124.0
60.056377 272.0
60.068623 160.0
60.07896 220.0
60.100559 124.0
60.137596 76.0
60.186996 132.0
60.203983 196.0
60.238964 160.0
60.242062 104.0
60.26577 52.0
60.285664 96.0
60.291088 156.0
60.324932 184.0
60.377064 104.0
60.428963 128.0
60.466721 168.0
60.493107 184.0
60.539162 188.0
60.551556 224.0
60.582901 172.0
60.630116 176.0
60.649555 192.0
60.665054 200.0
60.68676 176.0
60.708675 208.0
60.711956 160.0
60.718193 220.0
60.790684 156.0
60.818619 164.0
60.845009 180.0
60.864182 264.0
60.899357 92.0
60.921104 160.0
60.942852 36.0
60.956837 156.0
60.979733 164.0
61.004559 176.0
61.020962 152.0
61.050106 140.0
61.065659 104.0
61.081211 152.0
61.093658 140.0
61.121662 216.0
61.140766 144.0
61.163681 148.0
61.183918 44.0
61.213501 76.0
61.228832 156.0
61.242073 92.0
61.268616 124.0
61.283592 176.0
61.310928 228.0
61.328785 216.0
61.388199 216.0
61.440414 212.0
61.497231 84.0
61.522205 156.0
61.534695 92.0
61.567486 208.0
61.600285 92.0
61.642471 144.0
61.671711 152.0
61.703407 200.0
61.731571 48.0
61.742516 204.0
61.776928 136.0
61.840183 284.0
61.883347 172.0
61.902225 140.0
61.919361 204.0
61.960087 192.0
61.971054 156.0
61.984966 132.0
62.017479 160.0
62.054123 152.0
62.138813 184.0
62.22356 140.0
62.262817 156.0
62.300514 148.0
62.314651 200.0
62.417622 188.0
62.441067 76.0
62.460083 168.0
62.495461 144.0
62.518814 176.0
62.548969 128.0
62.56786 124.0
62.583603 132.0
62.635571 88.0
62.648174 252.0
62.671047 208.0
62.709625 160.0
62.729202 152.0
62.788452 124.0
62.807507 148.0
62.82473 116.0
62.851551 232.0
62.872784 220.0
63.007858 140.0
63.048939 252.0
63.093197 180.0
63.123238 112.0
63.156223 144.0
63.212238 336.0
63.233974 152.0
63.244164 64.0
63.276176 188.0
63.314716 136.0
63.374908 212.0
63.387585 96.0
63.416111 100.0
63.450985 276.0
63.512829 148.0
63.540115 120.0
63.557251 156.0
63.598511 112.0
63.639786 208.0
63.660427 64.0
63.69965 184.0
63.725552 160.0
63.765095 208.0
63.782761 188.0
63.798656 188.0
63.833633 104.0
63.8559 144.0
63.871803 184.0
63.889301 44.0
63.900436 116.0
63.919529 112.0
63.931297 152.0
63.967922 168.0
63.991531 156.0
64.007042 180.0
64.021408 236.0
64.040894 220.0
64.08831 144.0
64.1007 216.0
64.103333 168.0
64.110512 120.0
64.115799 160.0
64.156845 156.0
64.219032 136.0
64.305183 124.0
64.378624 168.0
64.412743 132.0
64.436127 156.0
64.464882 120.0
64.479263 116.0
64.49205 116.0
64.503242 148.0
64.535217 184.0
64.606384 112.0
64.656013 232.0
64.693596 40.0
64.736824 116.0
64.752838 180.0
64.791283 124.0
64.813972 172.0
64.852547 172.0
64.873016 132.0
64.901871 84.0
64.933395 256.0
64.980461 156.0
65.015762 236.0
65.059776 208.0
65.149361 156.0
65.173126 44.0
65.221336 152.0
65.237411 184.0
65.255096 144.0
65.269608 164.0
65.285645 120.0
65.332291 208.0
65.371422 176.0
65.403091 112.0
65.41436 120.0
65.465385 116.0
65.488426 144.0
65.565765 232.0
65.591553 268.0
65.607666 352.0
65.624939 180.0
65.657654 176.0
65.670555 184.0
65.68177 168.0
65.723793 144.0
65.741867 84.0
65.759293 92.0
65.773819 92.0
65.806107 196.0
65.819023 112.0
65.859398 140.0
65.870705 56.0
65.894676 124.0
65.897606 104.0
65.905655 192.0
65.910851 160.0
65.935333 172.0
65.949875 128.0
66.027481 124.0
66.066299 36.0
66.092186 136.0
66.103516 164.0
66.12941 136.0
66.140739 188.0
66.155304 72.0
66.215218 132.0
66.247612 156.0
66.281631 176.0
66.310799 80.0
66.333496 196.0
66.343895 184.0
66.38858 188.0
66.412949 104.0
66.429169 172.0
66.459991 176.0
66.52491 264.0
66.557381 160.0
66.57473 84.0
66.601227 140.0
66.626976 188.0
66.645699 180.0
66.666214 260.0
66.677216 140.0
66.682098 108.0
66.687134 224.0
66.749115 152.0
66.762123 60.0
66.775131 244.0
66.791397 96.0
66.815796 128.0
66.859734 248.0
66.932983 116.0
66.973694 104.0
67.024361 80.0
67.043755 124.0
67.056793 76.0
67.086128 148.0
67.118736 112.0
67.13504 188.0
67.177452 216.0
67.206818 188.0
67.232925 160.0
67.279297 140.0
67.330872 136.0
67.365593 124.0
67.390099 220.0
67.402748 164.0
67.453957 204.0
67.477936 84.0
67.48938 180.0
67.510635 188.0
67.59079 96.0
67.657898 132.0
67.679176 136.0
67.733223 72.0
67.824982 176.0
67.865967 176.0
67.880722 276.0
67.892204 100.0
67.903679 292.0
67.92984 80.0
67.98735 112.0
68.007042 112.0
68.045616 72.0
68.061218 176.0
68.074356 144.0
68.100632 136.0
68.133484 120.0
68.156822 212.0
68.177849 144.0
68.205788 100.0
68.224556 128.0
68.236595 140.0
68.305107 176.0
68.332283 180.0
68.375191 148.0
68.4114 132.0
68.430359 156.0
68.455856 184.0
68.474518 164.0
68.496964 188.0
68.53492 236.0
68.61898 332.0
68.643707 172.0
68.672272 224.0
68.703087 144.0
68.72123 236.0
68.745987 128.0
68.815765 160.0
68.832558 180.0
68.874756 164.0
68.924316 128.0
68.95076 100.0
68.965225 128.0
68.982162 164.0
69.020187 180.0
69.041687 148.0
69.063187 132.0
69.079727 184.0
69.112816 80.0
69.126053 172.0
69.148293 300.0
69.210472 300.0
69.24379 132.0
69.26181 196.0
69.294846 144.0
69.312057 156.0
69.354599 152.0
69.432518 120.0
69.45076 204.0
69.470665 188.0
69.485596 108.0
69.498871 132.0
69.517128 104.0
69.542015 188.0
69.555298 156.0
69.581856 136.0
69.61174 128.0
69.623367 124.0
69.634995 184.0
69.646622 80.0
69.673195 108.0
69.68483 88.0
69.766258 128.0
69.782883 128.0
69.878899 148.0
69.902641 160.0
69.933441 148.0
69.98587 124.0
70.025833 132.0
70.047935 388.0
70.085808 140.0
70.105804 40.0
70.129135 100.0
70.167496 184.0
70.195816 156.0
70.222504 164.0
70.249191 108.0
70.280884 180.0
70.303398 156.0
70.33429 244.0
70.381317 188.0
70.40107 156.0
70.432159 176.0
70.444496 100.0
70.459534 224.0
70.49295 84.0
70.506065 80.0
70.536522 268.0
70.565842 196.0
70.588226 116.0
70.649406 180.0
70.69696 100.0
70.71537 180.0
70.7388 184.0
70.777306 144.0
70.809341 124.0
70.832573 144.0
70.853233 168.0
70.881157 60.0
70.892891 132.0
70.940125 152.0
70.972839 132.0
71.016953 108.0
71.07399 148.0
71.099884 148.0
71.124336 72.0
71.141121 136.0
71.178871 148.0
71.188866 128.0
71.236839 112.0
71.253639 136.0
71.278839 80.0
71.307404 152.0
71.36792 64.0
71.382637 128.0
71.40155 28.0
71.421738 264.0
71.457306 112.0
71.500816 132.0
71.515961 128.0
71.561409 228.0
71.587708 136.0
71.635513 144.0
71.652359 104.0
71.760216 148.0
71.793945 136.0
71.805748 124.0
71.851288 92.0
71.901581 264.0
71.940735 188.0
71.972 196.0
71.998299 128.0
72.013336 56.0
72.047119 152.0
72.063171 176.0
72.066208 216.0
72.099503 104.0
72.138603 176.0
72.169243 124.0
72.187431 296.0
72.23098 136.0
72.302437 156.0
72.432808 116.0
72.446358 148.0
72.470078 164.0
72.487022 332.0
72.519501 120.0
72.532784 200.0
72.5616 172.0
72.597206 108.0
72.634521 80.0
72.696899 208.0
72.726181 184.0
72.739723 120.0
72.754997 164.0
72.802849 132.0
72.81443 160.0
72.829712 92.0
72.864716 196.0
72.874451 168.0
72.904472 168.0
72.910667 68.0
72.917213 144.0
72.926971 184.0
72.948662 80.0
72.974159 172.0
73.014969 152.0
73.083015 84.0
73.11869 116.0
73.132362 148.0
73.243034 100.0
73.304367 40.0
73.332932 168.0
73.355659 128.0
73.389015 176.0
73.442459 148.0
73.459518 48.0
73.487701 284.0
73.531181 48.0
73.546539 240.0
73.575562 204.0
73.594337 144.0
73.633614 32.0
73.652405 72.0
73.669479 136.0
73.741447 168.0
73.765175 116.0
73.81134 56.0
73.835281 156.0
73.86631 84.0
73.881462 40.0
73.955551 160.0
73.992126 364.0
74.040642 120.0
74.092255 180.0
74.171089 176.0
74.185532 204.0
74.211998 152.0
74.223999 124.0
74.251434 132.0
74.314903 216.0
74.345795 48.0
74.362953 156.0
74.431618 120.0
74.49173 96.0
74.512344 128.0
74.5364 80.0
74.54908 148.0
74.594833 124.0
74.620621 60.0
74.634377 164.0
74.66877 84.0
74.691124 136.0
74.723808 108.0
74.751343 180.0
74.771027 192.0
74.791824 168.0
74.804695 68.0
74.818466 112.0
74.839127 140.0
74.854622 92.0
74.880455 332.0
74.899399 116.0
74.945915 192.0
75.001244 152.0
75.037262 120.0
75.051056 168.0
75.114861 208.0
75.153191 128.0
75.194229 124.0
75.213219 152.0
75.246017 164.0
75.290016 132.0
75.31163 132.0
75.332359 128.0
75.347908 132.0
75.363457 68.0
75.391106 120.0
75.420486 208.0
75.442955 208.0
75.468887 116.0
75.480995 168.0
75.500015 224.0
75.524231 96.0
75.536339 120.0
75.575768 328.0
75.624344 176.0
75.657471 64.0
75.712875 136.0
75.743004 128.0
75.771767 248.0
75.858421 100.0
75.874016 68.0
75.915634 156.0
75.934708 76.0
75.954987 264.0
75.978043 156.0
76.004097 204.0
76.035332 44.0
76.064842 164.0
76.090881 136.0
76.106506 184.0
76.142967 196.0
76.173225 124.0
76.199226 52.0
76.254158 100.0
76.297615 212.0
76.309784 68.0
76.323692 96.0
76.354263 352.0
76.370857 200.0
76.403702 128.0
76.494186 260.0
76.521843 140.0
76.536293 152.0
76.558609 128.0
76.593445 140.0
76.621315 96.0
76.64048 140.0
76.690163 164.0
76.713676 108.0
76.837494 176.0
76.891975 160.0
76.904572 200.0
76.942787 136.0
77.006813 200.0
77.028709 112.0
77.101158 164.0
77.147575 132.0
77.171074 164.0
77.195557 124.0
77.258522 140.0
77.325012 268.0
77.363518 60.0
77.407288 320.0
77.419548 148.0
77.437057 172.0
77.46859 108.0
77.554443 112.0
77.631584 32.0
77.647369 208.0
77.668419 44.0
77.707008 128.0
77.752632 104.0
77.766022 156.0
77.807663 124.0
77.8246 132.0
77.839821 132.0
77.880798 160.0
77.917686 232.0
77.942245 192.0
77.989731 108.0
78.005554 80.0
78.038956 128.0
78.064888 168.0
78.102264 48.0
78.128647 120.0
78.144478 180.0
78.202553 132.0
78.214874 92.0
78.235992 168.0
78.261589 208.0
78.280968 280.0
78.332848 48.0
78.363937 192.0
78.378654 120.0
78.413902 96.0
78.445625 164.0
78.500282 208.0
78.520515 160.0
78.54084 100.0
78.564613 252.0
78.583183 156.0
78.606117 144.0
78.628487 160.0
78.653275 172.0
78.669655 120.0
78.694374 276.0
78.733223 132.0
78.747345 196.0
78.763245 88.0
78.793396 120.0
78.833916 96.0
78.856888 252.0
78.886055 104.0
78.899315 168.0
78.961197 304.0
79.003647 128.0
79.065063 208.0
79.123985 348.0
79.137337 116.0
79.167679 136.0
79.198364 68.0
79.282005 208.0
79.300888 180.0
79.311966 116.0
79.341011 200.0
79.359627 248.0
79.382622 132.0
79.429634 168.0
79.457169 156.0
79.505768 144.0
79.561874 156.0
79.57608 148.0
79.613892 136.0
79.645332 168.0
79.664871 144.0
79.677307 124.0
79.695076 124.0
79.748001 128.0
79.771492 188.0
79.783936 124.0
79.812897 180.0
79.865738 108.0
79.897758 92.0
79.924973 148.0
79.988106 124.0
80.01165 248.0
80.038361 88.0
80.059731 156.0
80.075752 380.0
80.104073 204.0
80.159485 144.0
80.179626 164.0
80.205818 132.0
80.224121 180.0
80.261086 148.0
80.302185 168.0
80.36953 184.0
80.415459 104.0
80.458237 448.0
80.489479 136.0
80.505829 180.0
80.546448 196.0
80.552071 176.0
80.555801 204.0
80.58593 216.0
80.632385 184.0
80.6605 220.0
80.67588 168.0
80.769241 140.0
80.7892 160.0
80.861305 164.0
80.922173 140.0
80.956497 140.0
80.988464 176.0
81.011711 116.0
81.040375 144.0
81.069 144.0
81.101303 152.0
81.128197 116.0
81.174812 200.0
81.294998 184.0
81.309357 96.0
81.33448 148.0
81.359329 152.0
81.409889 160.0
81.479935 332.0
81.557205 172.0
81.616142 176.0
81.634407 204.0
81.664368 332.0
81.73114 100.0
81.749023 176.0
81.807236 168.0
81.840317 224.0
81.852242 176.0
81.935097 140.0
81.958519 224.0
81.97113 52.0
81.990952 136.0
82.030602 112.0
82.045029 200.0
82.095512 144.0
82.141502 160.0
82.146309 192.0
82.158638 340.0
82.171265 160.0
82.243446 132.0
82.297607 228.0
82.315269 184.0
82.340942 48.0
82.353584 220.0
82.369843 120.0
82.386101 48.0
82.403717 192.0
82.416817 36.0
82.445724 148.0
82.463036 104.0
82.565041 108.0
82.601212 176.0
82.619415 128.0
82.653679 172.0
82.690941 144.0
82.736931 112.0
82.758659 92.0
82.794876 72.0
82.824745 112.0
82.836533 164.0
82.883636 128.0
82.916252 240.0
82.93438 160.0
82.994202 140.0
83.063118 272.0
83.079445 132.0
83.103027 64.0
83.128845 340.0
83.226448 112.0
83.279114 172.0
83.340874 136.0
83.40448 128.0
83.437202 228.0
83.468109 132.0
83.511757 132.0
83.668243 60.0
83.682808 140.0
83.737442 180.0
83.752579 204.0
83.843109 116.0
83.866798 144.0
83.893585 224.0
83.916016 120.0
83.965248 100.0
83.98896 68.0
84.038216 220.0
84.078362 180.0
84.103912 140.0
84.202507 84.0
84.228546 184.0
84.241737 164.0
84.32222 144.0
84.365829 172.0
84.383408 164.0
84.403519 112.0
84.452896 132.0
84.467529 52.0
84.527901 140.0
84.550385 112.0
84.592537 76.0
84.635895 148.0
84.692299 140.0
84.729301 180.0
84.760445 116.0
84.787933 352.0
84.819092 208.0
84.857254 180.0
84.876045 240.0
84.881866 116.0
84.889198 152.0
84.960434 152.0
85.021301 144.0
85.068565 168.0
85.087456 164.0
85.171394 104.0
85.189758 96.0
85.277954 188.0
85.300011 124.0
85.316559 56.0
85.331268 128.0
85.353333 176.0
85.385803 188.0
85.404823 168.0
85.43441 192.0
85.486404 260.0
85.540985 100.0
85.55571 144.0
85.592537 152.0
85.634888 116.0
85.653824 140.0
85.684624 160.0
85.73069 108.0
85.768501 132.0
85.789032 196.0
85.85051 108.0
85.893707 116.0
85.915314 168.0
85.929825 120.0
85.950981 180.0
85.977798 104.0
86.003639 148.0
86.059021 204.0
86.129196 220.0
86.158752 188.0
86.199402 300.0
86.251144 272.0
86.284424 124.0
86.301064 160.0
86.328796 144.0
86.368134 192.0
86.410179 176.0
86.436218 156.0
86.452087 136.0
86.497269 136.0
86.519928 80.0
86.548996 160.0
86.565659 104.0
86.582329 120.0
86.598991 120.0
86.693474 208.0
86.735962 184.0
86.761284 140.0
86.788124 132.0
86.811836 160.0
86.849213 128.0
86.869614 124.0
86.88884 232.0
86.903008 188.0
86.926765 184.0
86.941971 212.0
86.964554 168.0
86.997658 160.0
87.064499 200.0
87.08493 188.0
87.112793 136.0
87.181656 124.0
87.252167 220.0
87.333984 124.0
87.352585 124.0
87.417702 124.0
87.475395 168.0
87.527527 148.0
87.548218 144.0
87.562912 152.0
87.577805 148.0
87.613197 116.0
87.635559 160.0
87.667236 184.0
87.684448 184.0
87.721283 108.0
87.758568 140.0
87.771622 104.0
87.794418 176.0
87.851814 172.0
87.945114 84.0
87.958183 184.0
87.984314 152.0
88.002983 140.0
88.029518 208.0
88.068344 192.0
88.113174 184.0
88.133842 132.0
88.187569 168.0
88.245346 144.0
88.268906 176.0
88.351212 160.0
88.367012 228.0
88.386147 200.0
88.404861 104.0
88.417961 176.0
88.439102 148.0
88.444458 176.0
88.461945 104.0
88.517174 240.0
88.552856 120.0
88.565872 140.0
88.599586 148.0
88.672127 208.0
88.743896 136.0
88.766396 160.0
88.794525 200.0
88.837669 104.0
88.86956 48.0
88.886024 156.0
88.933365 212.0
88.986382 180.0
89.002823 108.0
89.047485 148.0
89.087334 108.0
89.111755 228.0
89.132423 148.0
89.166901 148.0
89.190018 108.0
89.217781 232.0
89.225777 96.0
89.229256 200.0
89.246765 164.0
89.267769 68.0
89.317276 208.0
89.367455 144.0
89.382507 116.0
89.422028 68.0
89.454872 152.0
89.496185 112.0
89.538757 160.0
89.551941 80.0
89.569916 216.0
89.668747 120.0
89.681938 188.0
89.697021 120.0
89.712105 80.0
89.795067 144.0
89.829018 312.0
89.860115 148.0
89.904488 136.0
89.919586 112.0
89.940346 376.0
89.97319 140.0
90.078484 152.0
90.099525 176.0
90.142418 156.0
90.157539 100.0
90.184036 184.0
90.208572 160.0
90.225586 204.0
90.243614 152.0
90.269073 172.0
90.305 164.0
90.323914 104.0
90.348511 188.0
90.365532 264.0
90.432816 216.0
90.455376 312.0
90.494232 188.0
90.506966 388.0
90.541458 128.0
90.59082 176.0
90.599342 152.0
90.610268 344.0
90.65155 148.0
90.711884 176.0
90.719627 156.0
90.787369 120.0
90.814484 60.0
90.837601 136.0
90.93222 144.0
90.947304 188.0
91.056152 120.0
91.093506 212.0
91.137207 152.0
91.154305 144.0
91.173309 184.0
91.199913 124.0
91.224625 204.0
91.275955 156.0
91.338715 180.0
91.352036 136.0
91.44146 132.0
91.458588 184.0
91.48143 140.0
91.518166 324.0
91.565208 144.0
91.639503 108.0
91.759567 136.0
91.778633 72.0
91.805328 80.0
91.826309 176.0
91.883202 344.0
91.917221 128.0
91.969406 144.0
91.994217 156.0
92.007584 168.0
92.036224 252.0
92.051498 232.0
92.078232 128.0
92.122162 108.0
92.20623 60.0
92.267822 164.0
92.311378 196.0
92.385971 112.0
92.423515 204.0
92.458679 144.0
92.544815 104.0
92.57737 132.0
92.651802 172.0
92.676971 140.0
92.698051 96.0
92.719131 212.0
92.73587 120.0
92.765129 128.0
92.797722 164.0
92.849495 176.0
92.87059 132.0
92.935814 160.0
92.956917 120.0
92.981865 192.0
93.014641 156.0
93.037529 180.0
93.056732 92.0
93.07209 60.0
93.118179 84.0
93.154671 160.0
93.175514 228.0
93.19886 144.0
93.235367 128.0
93.298798 148.0
93.319305 156.0
93.358452 192.0
93.382462 220.0
93.42662 128.0
93.463463 156.0
93.489212 76.0
93.510384 184.0
93.587387 152.0
93.608566 84.0
93.629745 60.0
93.656708 120.0
93.701019 168.0
93.741478 44.0
93.75882 172.0
93.793419 80.0
93.80825 152.0
93.839043 156.0
93.874489 148.0
93.924629 124.0
93.943924 200.0
93.99794 88.0
94.033913 120.0
94.075142 116.0
94.109894 120.0
94.131134 176.0
94.152321 148.0
94.186195 172.0
94.204521 156.0
94.219009 128.0
94.256691 68.0
94.314667 68.0
94.347527 244.0
94.36319 312.0
94.413269 192.0
94.488701 76.0
94.517723 192.0
94.541046 152.0
94.564331 144.0
94.587395 136.0
94.630714 180.0
94.686646 260.0
94.703568 60.0
94.75753 112.0
94.773308 196.0
94.806252 136.0
94.819817 112.0
94.862457 160.0
94.887657 136.0
94.918686 156.0
94.932259 124.0
95.000137 160.0
95.024475 120.0
95.0467 160.0
95.095215 96.0
95.145134 196.0
95.153175 140.0
95.15773 176.0
95.213234 148.0
95.231125 260.0
95.289398 152.0
95.332146 268.0
95.380737 120.0
95.398232 148.0
95.428711 124.0
95.456467 168.0
95.536301 52.0
95.581047 68.0
95.620041 200.0
95.638359 160.0
95.666679 124.0
95.730934 168.0
95.746513 232.0
95.764038 72.0
95.799103 160.0
95.824425 208.0
95.851898 144.0
95.912117 164.0
95.935509 156.0
95.981216 180.0
96.00428 176.0
96.031105 160.0
96.066162 128.0
96.087624 236.0
96.106941 160.0
96.123131 224.0
96.179337 188.0
96.194954 180.0
96.214478 120.0
96.235954 156.0
96.265244 64.0
96.280861 136.0
96.300392 96.0
96.31926 188.0
96.338593 196.0
96.372673 116.0
96.394165 172.0
96.419212 176.0
96.466476 192.0
96.48407 152.0
96.501671 96.0
96.523178 116.0
96.5662 168.0
96.588654 216.0
96.620972 84.0
96.66169 180.0
96.691414 128.0
96.710983 164.0
96.726639 184.0
96.744896 148.0
96.78138 200.0
96.802994 128.0
96.885254 124.0
96.92997 156.0
96.953835 108.0
97.038666 188.0
97.109734 108.0
97.14798 232.0
97.177368 120.0
97.214653 164.0
97.249977 84.0
97.288803 128.0
97.308868 164.0
97.322609 164.0
97.336357 104.0
97.369743 248.0
97.438492 124.0
97.457809 120.0
97.475822 160.0
97.495628 196.0
97.522987 160.0
97.591789 124.0
97.645676 248.0
97.664551 296.0
97.689453 176.0
97.727501 80.0
97.755333 164.0
97.786537 164.0
97.814095 112.0
97.833778 172.0
97.867241 76.0
97.946014 180.0
97.983749 340.0
98.005119 200.0
98.020882 96.0
98.056351 224.0
98.125343 76.0
98.154716 156.0
98.160553 140.0
98.165413 136.0
98.269318 68.0
98.316437 100.0
98.379837 112.0
98.417343 164.0
98.456841 128.0
98.504242 172.0
98.536453 236.0
98.590515 204.0
98.605621 116.0
98.612488 56.0
98.619759 104.0
98.705826 148.0
98.733315 160.0
98.762482 316.0
98.810654 112.0
98.85006 144.0
98.902939 176.0
98.972946 232.0
99.022453 132.0
99.044243 136.0
99.077919 60.0
99.103676 148.0
99.16404 208.0
99.197929 132.0
99.216644 136.0
99.242416 172.0
99.258278 92.0
99.286041 208.0
99.307854 172.0
99.362579 136.0
99.426895 160.0
99.451286 152.0
99.473747 152.0
99.51622 148.0
99.56189 120.0
99.585724 124.0
99.605583 128.0
99.62545 164.0
99.653259 244.0
99.669159 224.0
99.733574 116.0
99.746666 180.0
99.818092 112.0
99.850983 128.0
99.864723 96.0
99.909721 156.0
99.962463 176.0
99.981354 128.0
100.019173 108.0
100.045052 212.0
100.062965 128.0
100.085228 196.0
100.100792 164.0
100.23027 360.0
100.267441 184.0
100.298027 160.0
100.359825 168.0
100.383759 132.0
100.439598 116.0
100.484695 224.0
100.523941 144.0
100.571518 280.0
100.599228 148.0
100.624184 132.0
100.681091 104.0
100.709053 176.0
100.73774 144.0
100.770515 172.0
100.810783 152.0
100.834923 104.0
100.866905 220.0
100.892891 176.0
100.940872 164.0
100.968079 172.0
100.973824 168.0
101.003159 224.0
101.028687 128.0
101.049095 148.0
101.07489 188.0
101.126923 104.0
101.144142 164.0
101.166954 84.0
101.22702 156.0
101.291107 176.0
101.355217 36.0
101.398453 132.0
101.463448 56.0
101.497528 240.0
101.523598 316.0
101.549667 148.0
101.612175 252.0
101.714195 292.0
101.738289 160.0
101.766396 160.0
101.814651 248.0
101.906075 164.0
101.943153 168.0
101.991386 264.0
102.005455 188.0
102.045525 240.0
102.065773 316.0
102.144203 68.0
102.177612 184.0
102.197495 180.0
102.222664 104.0
102.245918 252.0
102.283043 120.0
102.321289 128.0
102.342949 136.0
102.356224 208.0
102.404564 124.0
102.46888 128.0
102.536819 48.0
102.552063 64.0
102.593262 168.0
102.623497 184.0
102.678749 180.0
102.706184 124.0
102.726349 364.0
102.772751 128.0
102.809074 128.0
102.878601 224.0
102.901924 124.0
102.916054 132.0
102.936394 172.0
102.958405 136.0
102.961647 132.0
103.054802 948.0
103.118065 32.0
103.190834 276.0
103.223183 116.0
103.239365 172.0
103.266174 156.0
103.285881 140.0
103.31218 32.0
103.357765 200.0
103.40728 184.0
103.465981 176.0
103.522675 120.0
103.53685 176.0
103.59964 308.0
103.65155 32.0
103.68177 224.0
103.702248 144.0
103.765816 208.0
103.811279 152.0
103.832733 88.0
103.876778 184.0
103.912186 140.0
103.932129 188.0
103.991875 200.0
103.998177 88.0
104.006104 160.0
104.021423 52.0
104.057175 276.0
104.122948 148.0
104.165909 184.0
104.200134 264.0
104.22451 100.0
104.246864 48.0
104.292511 192.0
104.341072 460.0
104.385963 224.0
104.428772 184.0
104.44828 176.0
104.466446 44.0
104.525055 124.0
104.572357 88.0
104.588539 44.0
104.626289 124.0
104.674042 180.0
104.71273 96.0
104.753471 116.0
104.774811 220.0
104.806435 168.0
104.877762 128.0
104.892029 52.0
104.91819 144.0
104.935783 268.0
104.961349 288.0
104.991936 128.0
105.026604 176.0
105.044304 148.0
105.075569 216.0
105.141884 176.0
105.16127 56.0
105.250237 124.0
105.26947 156.0
105.336327 196.0
105.371216 108.0
105.374847 88.0
105.382729 160.0
105.398209 160.0
105.425041 76.0
105.447197 144.0
105.471725 200.0
105.498184 72.0
105.52079 188.0
105.535103 152.0
105.611031 124.0
105.618629 52.0
105.6436 156.0
105.660324 228.0
105.688499 104.0
105.707726 132.0
105.73687 188.0
105.753128 220.0
105.786736 88.0
105.822823 180.0
105.868637 88.0
105.905495 148.0
105.933685 168.0
105.952042 172.0
105.958298 124.0
106.02433 116.0
106.061218 68.0
106.075569 80.0
106.11657 168.0
106.13092 116.0
106.147324 112.0
106.176033 180.0
106.237564 148.0
106.262184 128.0
106.280807 308.0
106.299118 176.0
106.334 164.0
106.364792 160.0
106.391479 132.0
106.475998 172.0
106.53112 168.0
106.581909 116.0
106.603027 192.0
106.640022 152.0
106.654404 196.0
106.728416 124.0
106.744865 224.0
106.775711 104.0
106.79628 120.0
106.810677 144.0
106.84565 176.0
106.871201 148.0
106.94236 116.0
106.956764 68.0
106.978203 216.0
106.99176 184.0
107.014664 128.0
107.057564 188.0
107.086479 140.0
107.107079 112.0
107.125618 168.0
107.19474 156.0
107.218338 136.0
107.242714 116.0
107.25872 400.0
107.325523 112.0
107.342026 208.0
107.361923 160.0
107.390732 116.0
107.397598 80.0
107.406837 192.0
107.450562 128.0
107.47197 228.0
107.515305 44.0
107.548325 144.0
107.61834 96.0
107.66394 184.0
107.690269 216.0
107.717644 116.0
107.738297 192.0
107.887093 224.0
107.935944 108.0
107.975998 56.0
108.002884 128.0
108.0215 136.0
108.052536 124.0
108.091843 176.0
108.112541 112.0
108.155998 100.0
108.23053 156.0
108.254402 188.0
108.269875 76.0
108.311295 204.0
108.333954 128.0
108.360542 160.0
108.39209 168.0
108.423172 152.0
108.439758 212.0
108.474991 144.0
108.49292 160.0
108.578659 84.0
108.598518 132.0
108.64296 72.0
108.694832 88.0
108.719727 200.0
108.734253 92.0
108.759163 112.0
108.788223 148.0
108.819366 200.0
108.844276 104.0
108.887886 60.0
108.908661 232.0
108.933586 160.0
108.959831 164.0
108.975136 124.0
109.008377 464.0
109.041626 180.0
109.081116 136.0
109.10247 176.0
109.275169 308.0
109.297409 372.0
109.327904 288.0
109.35984 176.0
109.378853 296.0
109.391808 168.0
109.44725 336.0
109.468094 208.0
109.532654 148.0
109.577072 204.0
109.607658 168.0
109.666008 108.0
109.684464 192.0
109.703529 132.0
109.718117 124.0
109.800552 192.0
109.820297 172.0
109.834892 212.0
109.8508 96.0
109.876617 140.0
109.906448 100.0
109.987213 56.0
110.022705 216.0
110.049843 196.0
110.076988 228.0
110.11187 176.0
110.15229 160.0
110.175148 92.0
110.20858 136.0
110.225296 172.0
110.292168 152.0
110.311287 164.0
110.366852 188.0
110.384155 160.0
110.43644 96.0
110.472 188.0
110.534607 164.0
110.539719 152.0
110.54911 220.0
110.574524 116.0
110.604897 328.0
110.633133 184.0
110.660347 148.0
110.693848 124.0
110.72567 204.0
110.756676 152.0
110.827904 236.0
110.844666 124.0
110.920113 132.0
110.959671 184.0
110.965187 160.0
110.972717 172.0
110.985168 176.0
111.064796 160.0
111.112183 188.0
111.12767 140.0
111.132172 156.0
111.140945 160.0
111.15049 344.0
111.180771 200.0
111.207016 204.0
111.259789 160.0
111.283043 172.0
111.375443 136.0
111.46788 172.0
111.512009 172.0
111.606606 128.0
111.65287 104.0
111.683662 136.0
111.719475 168.0
111.772774 132.0
111.802612 176.0
111.819069 144.0
111.868195 188.0
111.886429 184.0
111.917824 136.0
111.948479 184.0
111.983284 236.0
112.007423 128.0
112.05912 136.0
112.082298 128.0
112.105476 184.0
112.171913 184.0
112.189781 176.0
112.20665 76.0
112.225624 68.0
112.244598 112.0
112.261467 180.0
112.288887 68.0
112.335289 148.0
112.352165 76.0
112.434456 112.0
112.459778 184.0
112.572632 88.0
112.588562 152.0
112.61602 108.0
112.66349 120.0
112.727989 148.0
112.79985 144.0
112.833672 92.0
112.889206 120.0
112.93306 124.0
112.975365 64.0
113.002861 172.0
113.021904 240.0
113.046219 204.0
113.061218 148.0
113.087257 368.0
113.110794 124.0
113.195473 104.0
113.223007 108.0
113.267479 136.0
113.320442 144.0
113.337395 84.0
113.415497 112.0
113.421455 96.0
113.427368 176.0
113.453957 172.0
113.481522 196.0
113.496361 208.0
113.519684 104.0
113.543015 452.0
113.557861 216.0
113.600281 292.0
113.617821 180.0
113.661804 144.0
113.677719 144.0
113.710617 140.0
113.770889 232.0
113.798248 152.0
113.822235 200.0
113.92363 100.0
113.95269 104.0
113.980309 228.0
113.997223 192.0
114.016434 244.0
114.08445 40.0
114.101456 208.0
114.146111 132.0
114.201401 332.0
114.251587 168.0
114.26947 224.0
114.290749 188.0
114.326241 144.0
114.343948 144.0
114.383492 116.0
114.414192 160.0
114.431221 144.0
114.469543 164.0
114.488708 148.0
114.507881 120.0
114.53344 72.0
114.558998 168.0
114.601608 56.0
114.616524 160.0
114.648483 192.0
114.680077 136.0
114.723083 172.0
114.738007 148.0
114.785797 136.0
114.807701 128.0
114.848892 140.0
114.883018 172.0
114.923553 36.0
114.938492 148.0
114.968369 100.0
115.002518 244.0
115.054977 1984.0
115.114975 100.0
115.147697 260.0
115.24382 224.0
115.280998 216.0
115.312202 104.0
115.343758 152.0
115.364403 152.0
115.384178 124.0
115.460213 156.0
115.47683 172.0
115.504631 184.0
115.53244 72.0
115.566887 196.0
115.583786 196.0
115.618614 88.0
115.642082 232.0
115.657875 200.0
115.662628 124.0
115.670059 180.0
115.744324 132.0
115.770844 160.0
115.789291 164.0
115.80883 164.0
115.826996 172.0
115.849266 100.0
115.874977 148.0
115.902832 120.0
115.926643 140.0
115.94783 160.0
115.988548 200.0
116.036072 48.0
116.062965 304.0
116.213722 148.0
116.23304 224.0
116.25235 72.0
116.301712 120.0
116.329613 128.0
116.363396 196.0
116.430527 168.0
116.482079 128.0
116.520058 296.0
116.544373 136.0
116.559418 32.0
116.5895 384.0
116.627312 180.0
116.65123 128.0
116.681931 64.0
116.72493 92.0
116.758171 140.0
116.81311 84.0
116.863663 148.0
116.907776 40.0
116.924988 112.0
116.94928 140.0
116.974495 144.0
117.008934 172.0
117.061882 136.0
117.097221 156.0
117.129532 84.0
117.146759 160.0
117.228638 128.0
117.287415 160.0
117.309143 176.0
117.340714 96.0
117.359543 164.0
117.36702 120.0
117.371681 188.0
117.392464 132.0
117.409714 108.0
117.437752 160.0
117.489693 152.0
117.588783 44.0
117.618996 140.0
117.647057 148.0
117.665329 216.0
117.683762 204.0
117.770302 160.0
117.79174 152.0
117.80661 532.0
117.863029 284.0
117.927505 168.0
118.005684 124.0
118.048927 120.0
118.098671 132.0
118.118073 136.0
118.129654 196.0
118.146255 168.0
118.172218 148.0
118.187363 176.0
118.215492 212.0
118.263107 168.0
118.285988 224.0
118.294083 128.0
118.325882 144.0
118.347534 172.0
118.412498 188.0
118.447388 144.0
118.464478 116.0
118.501305 132.0
118.523109 132.0
118.572815 176.0
118.590157 156.0
118.618332 164.0
118.640007 140.0
118.676865 136.0
118.727997 172.0
118.774452 176.0
118.833122 224.0
118.855553 220.0
118.876419 128.0
118.902466 148.0
118.931549 328.0
118.978432 160.0
119.042648 140.0
119.081314 200.0
119.123932 116.0
119.178246 152.0
119.195084 160.0
119.217354 168.0
119.23909 88.0
119.254303 108.0
119.276039 172.0
119.298004 224.0
119.329399 212.0
119.427895 152.0
119.454552 148.0
119.509064 180.0
119.542587 200.0
119.565308 160.0
119.621895 196.0
119.643661 204.0
119.676323 128.0
119.724228 80.0
119.78521 192.0
119.815704 152.0
119.843933 272.0
119.857994 284.0
119.889793 184.0
119.911583 104.0
119.946457 228.0
119.983513 200.0
120.035759 108.0
120.083817 160.0
120.126404 176.0
120.164528 40.0
120.225624 144.0
120.380615 116.0
120.439964 152.0
120.518227 156.0
120.537895 96.0
120.554787 148.0
120.614944 124.0
120.642799 272.0
120.664665 144.0
120.714203 116.0
120.765251 112.0
120.82486 112.0
120.843033 100.0
120.955956 276.0
120.962708 148.0
121.01133 476.0
121.100677 172.0
121.119835 216.0
121.1987 104.0
121.216225 152.0
121.242523 96.0
121.287819 132.0
121.308281 236.0
121.323448 204.0
121.36528 224.0
121.387207 188.0
121.415817 172.0
121.438797 160.0
121.479317 76.0
121.516617 120.0
121.535889 112.0
121.560501 52.0
121.589966 84.0
121.606247 144.0
121.653702 180.0
121.681221 152.0
121.739952 48.0
121.780029 116.0
121.811737 276.0
121.845932 92.0
121.903061 68.0
121.962196 132.0
121.991714 204.0
122.015152 120.0
122.034943 156.0
122.068146 160.0
122.116852 176.0
122.155594 144.0
122.210892 128.0
122.239502 136.0
122.268105 164.0
122.298553 120.0
122.351753 136.0
122.406792 184.0
122.443512 124.0
122.46405 88.0
122.510307 132.0
122.536743 120.0
122.554367 152.0
122.578606 52.0
122.594872 316.0
122.621826 304.0
122.631943 140.0
122.640915 192.0
122.664131 164.0
122.693222 232.0
122.710854 160.0
122.728493 136.0
122.75943 140.0
122.809448 152.0
122.868362 288.0
122.883514 168.0
122.90715 168.0
122.938049 140.0
122.957428 128.0
123.000633 224.0
123.021919 56.0
123.050911 272.0
123.119019 196.0
123.165443 132.0
123.219063 220.0
123.269882 184.0
123.317902 88.0
123.38887 152.0
123.441704 120.0
123.457184 188.0
123.533852 240.0
123.585541 132.0
123.6194 184.0
123.687881 160.0
123.746384 148.0
123.782471 160.0
123.813477 168.0
123.843376 104.0
123.882133 228.0
123.897644 104.0
123.929565 156.0
123.99514 164.0
124.015083 156.0
124.044128 196.0
124.077148 112.0
124.114845 112.0
124.166328 148.0
124.194679 232.0
124.305603 228.0
124.337982 156.0
124.383911 196.0
124.405479 156.0
124.425461 172.0
124.444542 268.0
124.496513 148.0
124.525383 108.0
124.596458 152.0
124.627563 112.0
124.663116 132.0
124.692009 104.0
124.739693 184.0
124.779251 144.0
124.827614 184.0
124.856522 140.0
124.9366 124.0
124.963295 140.0
125.014915 344.0
125.038948 140.0
125.055908 168.0
125.096817 52.0
125.172516 140.0
125.207451 128.0
125.215317 164.0
125.239326 144.0
125.268867 168.0
125.323982 404.0
125.375023 216.0
125.380959 196.0
125.427162 140.0
125.448784 136.0
125.464386 128.0
125.542427 148.0
125.567215 140.0
125.584763 336.0
125.622719 108.0
125.645027 124.0
125.667816 176.0
125.694115 124.0
125.734383 168.0
125.789581 216.0
125.796402 168.0
125.807655 188.0
125.811134 332.0
125.853523 124.0
125.892784 140.0
125.941917 136.0
125.956398 132.0
125.988823 144.0
126.021179 284.0
126.044632 180.0
126.075539 148.0
126.111725 188.0
126.181526 176.0
126.23468 92.0
126.296326 156.0
126.329865 248.0
126.391258 124.0
126.420349 140.0
126.462532 160.0
126.494209 116.0
126.550865 156.0
126.572563 120.0
126.590477 48.0
126.646828 148.0
126.700226 224.0
126.743446 192.0
126.772743 132.0
126.805542 108.0
126.821228 40.0
126.845886 28.0
126.895203 72.0
126.914429 132.0
126.944534 40.0
126.976997 268.0
127.015388 296.0
127.052856 160.0
127.092575 176.0
127.11277 248.0
127.16153 236.0
127.167671 112.0
127.222351 160.0
127.254173 144.0
127.323784 144.0
127.393417 252.0
127.409142 152.0
127.445084 128.0
127.583893 152.0
127.620399 100.0
127.696854 132.0
127.720009 164.0
127.793587 56.0
127.813835 140.0
127.852089 192.0
127.879097 116.0
127.92411 144.0
127.949959 332.0
128.063004 4880.0
128.089005 196.0
128.169464 124.0
128.188507 348.0
128.239456 124.0
128.264252 92.0
128.286789 56.0
128.304825 116.0
128.32962 116.0
128.377686 344.0
128.402588 112.0
128.421555 212.0
128.492676 320.0
128.532623 144.0
128.552933 164.0
128.586777 188.0
128.616119 104.0
128.64328 136.0
128.677078 176.0
128.724487 136.0
128.741058 124.0
128.758362 52.0
128.828247 136.0
128.882599 52.0
128.91423 100.0
128.9617 240.0
128.979782 236.0
129.044144 196.0
129.069824 1012.0
129.124435 172.0
129.155136 184.0
129.269257 100.0
129.287369 108.0
129.327148 120.0
129.35527 192.0
129.420914 56.0
129.450363 172.0
129.473007 100.0
129.511505 68.0
129.543213 164.0
129.559067 132.0
129.574936 68.0
129.59758 124.0
129.629303 156.0
129.691452 160.0
129.743622 412.0
129.776291 160.0
129.810654 164.0
129.835602 148.0
129.865082 192.0
129.892303 104.0
129.938797 136.0
129.983566 156.0
130.008011 136.0
130.042053 132.0
130.075897 876.0
130.126038 40.0
130.1828 144.0
130.215652 168.0
130.246552 180.0
130.287292 108.0
130.377304 84.0
130.397522 164.0
130.415054 160.0
130.455444 64.0
130.47818 92.0
130.512283 204.0
130.54184 280.0
130.602463 296.0
130.632645 176.0
130.655563 144.0
130.67276 136.0
130.703354 192.0
130.752838 160.0
130.809219 332.0
130.844467 68.0
130.883163 96.0
130.90593 236.0
130.935547 260.0
131.049438 80.0
131.082794 256.0
131.13205 156.0
131.151855 144.0
131.190735 132.0
131.215805 104.0
131.26825 140.0
131.314743 156.0
131.333755 244.0
131.368698 96.0
131.375977 156.0
131.424591 156.0
131.453873 128.0
131.461075 144.0
131.471436 204.0
131.523773 176.0
131.552277 140.0
131.635635 192.0
131.660751 100.0
131.694061 212.0
131.747559 136.0
131.767426 132.0
131.794159 156.0
131.820663 160.0
131.845123 104.0
131.86409 124.0
131.909912 168.0
131.941803 80.0
131.968384 200.0
132.008102 160.0
132.058426 92.0
132.0961 228.0
132.154495 120.0
132.23407 124.0
132.240417 176.0
132.247864 220.0
132.256226 132.0
132.317001 152.0
132.335312 148.0
132.392548 120.0
132.431244 152.0
132.45668 136.0
132.479324 172.0
132.497925 196.0
132.562073 148.0
132.589462 172.0
132.639999 164.0
132.662918 144.0
132.69043 172.0
132.724823 80.0
132.775269 116.0
132.814255 60.0
132.86702 152.0
132.896576 140.0
132.949615 180.0
132.985947 140.0
133.013947 160.0
133.052902 40.0
133.08046 136.0
133.150284 176.0
133.204468 104.0
133.227448 180.0
133.243515 52.0
133.261902 136.0
133.296127 152.0
133.329117 136.0
133.353821 108.0
133.425079 104.0
133.617874 168.0
133.65036 176.0
133.693375 192.0
133.699387 124.0
133.72641 108.0
133.786255 144.0
133.826508 280.0
133.853195 160.0
133.901382 172.0
133.924423 152.0
133.968185 124.0
134.021164 376.0
134.051132 64.0
134.069565 152.0
134.122574 156.0
134.152542 232.0
134.210724 184.0
134.263214 148.0
134.28627 112.0
134.320251 224.0
134.408539 132.0
134.456192 160.0
134.493057 128.0
134.528549 108.0
134.592484 144.0
134.648605 80.0
134.690186 152.0
134.75209 384.0
134.798767 116.0
134.840118 152.0
134.865784 36.0
134.893524 228.0
134.983932 156.0
135.025162 316.0
135.060013 108.0
135.109344 184.0
135.11969 60.0
135.12674 132.0
135.146576 204.0
135.165222 192.0
135.198639 172.0
135.21666 348.0
135.317505 184.0
135.337708 140.0
135.36171 116.0
135.417831 260.0
135.443085 172.0
135.534592 156.0
135.618011 168.0
135.686386 220.0
135.715378 140.0
135.733932 196.0
135.752487 184.0
135.81781 120.0
135.90062 180.0
136.001785 312.0
136.044266 200.0
136.076355 140.0
136.105179 216.0
136.146988 100.0
136.170212 136.0
136.192322 316.0
136.263123 132.0
136.297974 88.0
136.323532 164.0
136.367691 112.0
136.386292 104.0
136.402557 100.0
136.423477 140.0
136.495483 132.0
136.595551 80.0
136.614166 212.0
136.694916 96.0
136.726578 236.0
136.742142 200.0
136.785843 140.0
136.811966 140.0
136.867844 308.0
136.898117 44.0
136.931793 160.0
136.951477 416.0
137.015533 556.0
137.084473 96.0
137.108032 112.0
137.142166 116.0
137.183273 144.0
137.198898 172.0
137.226654 216.0
137.310608 128.0
137.366821 192.0
137.422195 124.0
137.43013 164.0
137.475464 132.0
137.504242 156.0
137.524704 68.0
137.546249 160.0
137.581268 148.0
137.623291 196.0
137.644302 80.0
137.665329 156.0
137.714371 180.0
137.784439 184.0
137.812485 228.0
137.833511 96.0
137.891922 100.0
137.923294 220.0
137.997116 188.0
138.015823 200.0
138.052734 188.0
138.116379 148.0
138.132751 100.0
138.180664 176.0
138.214645 72.0
138.235703 172.0
138.263229 188.0
138.294998 276.0
138.317612 120.0
138.336273 148.0
138.373795 124.0
138.40744 212.0
138.419113 136.0
138.472137 172.0
138.535385 176.0
138.553864 176.0
138.584579 104.0
138.647858 120.0
138.664261 216.0
138.68013 192.0
138.704102 104.0
138.756073 188.0
138.779114 152.0
138.842438 152.0
138.891251 64.0
138.91983 116.0
138.962067 216.0
139.008728 152.0
139.033752 184.0
139.084579 116.0
139.126343 160.0
139.149811 184.0
139.167404 148.0
139.245224 196.0
139.268112 156.0
139.37529 48.0
139.399796 172.0
139.41687 192.0
139.448135 108.0
139.469299 108.0
139.499847 140.0
139.528717 172.0
139.56575 184.0
139.599808 176.0
139.617416 124.0
139.637756 140.0
139.672867 120.0
139.689316 112.0
139.717636 144.0
139.744431 152.0
139.763077 156.0
139.770248 144.0
139.803253 144.0
139.822083 180.0
139.847641 144.0
139.944489 164.0
139.991455 148.0
140.022705 204.0
140.057526 168.0
140.128189 184.0
140.231873 148.0
140.262512 156.0
140.279022 124.0
140.300232 156.0
140.352097 248.0
140.378036 236.0
140.398788 220.0
140.436996 160.0
140.455872 260.0
140.491608 188.0
140.558258 312.0
140.576904 144.0
140.617218 176.0
140.68631 140.0
140.727585 200.0
140.812271 156.0
140.842972 88.0
140.887848 228.0
140.905396 196.0
140.928009 120.0
141.000748 128.0
141.083099 220.0
141.11525 284.0
141.150238 200.0
141.184921 88.0
141.287369 96.0
141.30394 180.0
141.327927 196.0
141.358353 124.0
141.44577 128.0
141.490753 256.0
141.511749 144.0
141.525009 196.0
141.542984 108.0
141.564301 136.0
141.595078 172.0
141.666138 140.0
141.6922 244.0
141.772766 176.0
141.862823 100.0
141.898392 120.0
141.929214 192.0
141.967148 240.0
142.045959 176.0
142.090485 216.0
142.114212 84.0
142.171158 68.0
142.233917 136.0
142.282715 104.0
142.309113 172.0
142.352249 56.0
142.393661 200.0
142.426727 124.0
142.481232 184.0
142.532104 88.0
142.577255 64.0
142.643799 168.0
142.683319 172.0
142.699722 128.0
142.738907 172.0
142.783142 172.0
142.809341 168.0
142.830597 236.0
142.899246 172.0
142.943466 104.0
142.972336 284.0
143.005188 188.0
143.057709 164.0
143.081512 148.0
143.166626 172.0
143.198959 176.0
143.219452 112.0
143.265335 204.0
143.310989 192.0
143.341125 188.0
143.357803 144.0
143.374496 152.0
143.442154 196.0
143.468719 68.0
143.503204 124.0
143.536118 204.0
143.641525 240.0
143.657013 156.0
143.695862 164.0
143.722641 120.0
143.738129 116.0
143.760818 320.0
143.798996 112.0
143.822861 92.0
143.839569 184.0
143.945648 140.0
143.992172 152.0
144.013199 168.0
144.040146 112.0
144.074631 232.0
144.092712 116.0
144.116287 176.0
144.166779 76.0
144.183502 68.0
144.222198 64.0
144.243256 164.0
144.26239 192.0
144.288681 104.0
144.33194 128.0
144.350388 124.0
144.422134 168.0
144.487183 212.0
144.575714 116.0
144.633743 164.0
144.638733 192.0
144.650436 180.0
144.697449 144.0
144.735687 164.0
144.774643 200.0
144.851837 192.0
144.877396 152.0
144.912582 184.0
144.932495 196.0
144.968384 196.0
144.990005 128.0
145.069107 216.0
145.10611 144.0
145.143433 96.0
145.180511 208.0
145.200974 212.0
145.22496 120.0
145.254837 140.0
145.277725 96.0
145.301727 136.0
145.335312 136.0
145.366501 36.0
145.428909 88.0
145.540237 180.0
145.565735 156.0
145.594559 84.0
145.628189 52.0
145.673813 168.0
145.719467 208.0
145.771774 192.0
145.784958 200.0
145.851379 348.0
145.893311 224.0
145.914139 188.0
145.962219 168.0
146.125153 232.0
146.182358 116.0
146.241425 140.0
146.258865 184.0
146.347198 136.0
146.37767 380.0
146.407394 80.0
146.472427 156.0
146.542282 252.0
146.566376 40.0
146.638672 340.0
146.665192 224.0
146.751205 164.0
146.80513 164.0
146.899078 148.0
146.956619 160.0
147.028381 164.0
147.073349 180.0
147.109024 344.0
147.158905 324.0
147.179901 144.0
147.232162 188.0
147.270798 64.0
147.354187 404.0
147.37709 112.0
147.473755 116.0
147.541443 204.0
147.625305 228.0
147.684113 132.0
147.751831 216.0
147.780869 76.0
147.805069 88.0
147.826843 192.0
147.85347 92.0
147.928497 124.0
147.964813 168.0
147.98175 224.0
148.008392 100.0
148.039871 136.0
148.090729 204.0
148.113007 180.0
148.164001 144.0
148.192459 128.0
148.228806 144.0
148.246689 116.0
148.313629 164.0
148.347565 120.0
148.388779 120.0
148.432419 188.0
148.473648 196.0
148.529343 116.0
148.563385 76.0
148.594223 164.0
148.624039 264.0
148.65741 208.0
148.682877 164.0
148.718689 160.0
148.745392 132.0
148.813354 124.0
148.837646 160.0
148.92955 156.0
149.015793 1684.0
149.056244 92.0
149.087112 120.0
149.134247 124.0
149.160751 132.0
149.189926 204.0
149.228821 188.0
149.24585 128.0
149.267731 168.0
149.366745 168.0
149.408798 116.0
149.476913 128.0
149.51828 108.0
149.596176 64.0
149.621948 204.0
149.70166 160.0
149.744705 80.0
149.791718 128.0
149.819138 100.0
149.845779 244.0
149.881271 256.0
149.905075 168.0
149.956665 136.0
149.97522 168.0
149.997437 204.0
150.01886 348.0
150.049286 276.0
150.070953 140.0
150.112686 160.0
150.154694 160.0
150.180969 108.0
150.198044 104.0
150.232559 212.0
150.261475 144.0
150.528625 176.0
150.561707 208.0
150.611984 252.0
150.642227 132.0
150.666733 136.0
150.686279 124.0
150.715591 44.0
150.760986 132.0
150.803772 148.0
150.877853 184.0
151.010376 592.0
151.058319 192.0
151.097504 136.0
151.165512 104.0
151.197327 164.0
151.229141 176.0
151.331955 104.0
151.366241 140.0
151.42746 116.0
151.450928 164.0
151.467728 172.0
151.502197 192.0
151.541122 180.0
151.596268 128.0
151.620361 216.0
151.660217 148.0
151.70433 156.0
151.745209 208.0
151.808182 112.0
151.831833 152.0
151.871078 180.0
151.893158 104.0
151.925461 184.0
151.95694 188.0
152.017136 120.0
152.060974 1836.0
152.170944 160.0
152.214645 136.0
152.244125 104.0
152.27359 204.0
152.300598 76.0
152.322083 140.0
152.406235 136.0
152.477509 116.0
152.497757 136.0
152.566086 200.0
152.600403 252.0
152.639877 236.0
152.688934 128.0
152.715225 184.0
152.769058 148.0
152.805984 120.0
152.83876 176.0
152.880814 120.0
152.920197 36.0
152.959579 180.0
152.994034 80.0
153.022324 196.0
153.062195 476.0
153.119614 124.0
153.141785 160.0
153.238297 220.0
153.334656 140.0
153.342926 112.0
153.352066 172.0
153.385712 144.0
153.449799 228.0
153.483276 340.0
153.553207 180.0
153.562119 168.0
153.602707 160.0
153.627365 128.0
153.659439 248.0
153.693985 84.0
153.716187 164.0
153.770477 88.0
153.790222 56.0
153.853622 176.0
153.889328 180.0
153.922058 120.0
153.963043 44.0
153.992249 384.0
154.012436 124.0
154.066788 124.0
154.140976 192.0
154.213486 140.0
154.264481 88.0
154.302505 156.0
154.385635 160.0
154.489502 172.0
154.529099 136.0
154.553833 132.0
154.583527 164.0
154.647247 204.0
154.677567 144.0
154.702332 104.0
154.736557 184.0
154.826202 124.0
154.861618 168.0
154.893005 152.0
154.922729 192.0
154.971115 436.0
155.003342 156.0
155.041656 164.0
155.063644 124.0
155.130875 100.0
155.154282 148.0
155.177979 188.0
155.230057 144.0
155.251968 200.0
155.287842 200.0
155.321823 120.0
155.344147 52.0
155.391281 232.0
155.423523 348.0
155.468201 60.0
155.515137 152.0
155.563568 148.0
155.571533 152.0
155.643997 188.0
155.672516 264.0
155.753708 204.0
155.793457 64.0
155.813324 152.0
155.835693 68.0
155.865509 148.0
155.905258 160.0
155.927353 176.0
155.973877 152.0
156.02713 128.0
156.049438 216.0
156.083817 212.0
156.120193 148.0
156.138763 164.0
156.171982 184.0
156.211075 152.0
156.255859 116.0
156.308105 148.0
156.386871 136.0
156.463684 204.0
156.504745 160.0
156.529648 180.0
156.557037 144.0
156.591904 132.0
156.616806 48.0
156.670944 148.0
156.708984 136.0
156.736908 172.0
156.786224 136.0
156.836075 236.0
156.867706 116.0
156.900055 204.0
156.950745 184.0
156.982742 344.0
157.011505 164.0
157.080429 160.0
157.129517 172.0
157.152771 104.0
157.172745 112.0
157.251541 208.0
157.309097 208.0
157.335541 172.0
157.354935 164.0
157.372421 160.0
157.404877 136.0
157.42485 60.0
157.459915 168.0
157.528015 196.0
157.557236 148.0
157.574722 124.0
157.609695 256.0
157.628479 124.0
157.654678 164.0
157.687164 104.0
157.717285 172.0
157.759644 168.0
157.779648 292.0
157.832153 180.0
157.864792 72.0
157.883011 124.0
157.913757 184.0
157.982208 112.0
158.020508 432.0
158.057266 112.0
158.101151 104.0
158.11824 164.0
158.145844 112.0
158.177139 232.0
158.222397 168.0
158.24205 320.0
158.273224 172.0
158.294266 224.0
158.353989 192.0
158.421219 144.0
158.447845 128.0
158.495453 140.0
158.541046 184.0
158.589172 208.0
158.628281 112.0
158.680923 84.0
158.726334 148.0
158.788742 212.0
158.82135 128.0
158.939377 88.0
159.02655 1692.0
159.054001 172.0
159.06105 136.0
159.073761 244.0
159.08046 200.0
159.098785 164.0
159.169083 136.0
159.19548 156.0
159.256638 180.0
159.282608 404.0
159.313339 112.0
159.346008 152.0
159.525406 108.0
159.545212 208.0
159.670258 104.0
159.699173 152.0
159.773392 180.0
159.796036 152.0
159.884109 384.0
159.911789 220.0
159.940338 164.0
159.974716 96.0
159.994278 156.0
159.999054 120.0
160.032166 360.0
160.103119 100.0
160.122208 148.0
160.217972 160.0
160.241653 152.0
160.309692 204.0
160.342972 136.0
160.378128 128.0
160.433197 160.0
160.450836 176.0
160.471008 144.0
160.506302 84.0
160.523956 144.0
160.541611 184.0
160.645203 164.0
160.662674 232.0
160.710617 136.0
160.791367 68.0
160.829224 212.0
160.851318 172.0
160.878189 160.0
160.924362 64.0
160.980698 192.0
161.024643 140.0
161.045746 184.0
161.073761 136.0
161.106979 124.0
161.137711 152.0
161.185303 48.0
161.210571 92.0
161.331894 160.0
161.483322 184.0
161.519012 180.0
161.58226 104.0
161.621323 200.0
161.648041 200.0
161.667313 156.0
161.691055 188.0
161.72583 136.0
161.756866 280.0
161.775803 144.0
161.831818 164.0
161.85054 196.0
161.875854 152.0
161.947525 176.0
161.983627 196.0
162.02298 2792.0
162.081039 128.0
162.159592 168.0
162.179871 152.0
162.197617 148.0
162.239182 120.0
162.309158 116.0
162.329453 40.0
162.397919 124.0
162.42836 96.0
162.46286 180.0
162.493195 128.0
162.529831 120.0
162.568375 140.0
162.593277 120.0
162.636795 188.0
162.66127 116.0
162.707489 212.0
162.754883 116.0
162.787827 168.0
162.833572 172.0
162.874374 308.0
162.90303 176.0
162.941147 140.0
162.966553 228.0
163.024307 520.0
163.056122 192.0
163.0961 188.0
163.188995 232.0
163.324417 192.0
163.363144 104.0
163.409927 236.0
163.482727 196.0
163.520905 204.0
163.551437 96.0
163.571808 100.0
163.600723 144.0
163.70137 180.0
163.734756 132.0
163.755127 132.0
163.797516 180.0
163.816254 248.0
163.838867 156.0
163.874069 168.0
163.902878 176.0
163.961487 60.0
163.981873 212.0
164.023819 576.0
164.044861 316.0
164.078384 116.0
164.114441 144.0
164.179352 96.0
164.258728 144.0
164.284851 136.0
164.324905 132.0
164.351639 92.0
164.372055 164.0
164.420532 144.0
164.494553 100.0
164.555832 256.0
164.6409 200.0
164.665634 144.0
164.716705 136.0
164.800812 148.0
164.834442 180.0
164.852112 192.0
164.876801 152.0
164.971085 140.0
165.016403 148.0
165.070862 4724.0
165.116486 280.0
165.154434 160.0
165.199829 52.0
165.252396 176.0
165.286819 160.0
165.360458 180.0
165.412231 164.0
165.432709 120.0
165.500671 140.0
165.52774 164.0
165.545441 176.0
165.567291 156.0
165.601974 124.0
165.72525 244.0
165.747726 176.0
165.773346 184.0
165.791168 176.0
165.826065 140.0
165.871689 192.0
165.90918 92.0
165.947906 264.0
165.980591 164.0
166.014313 152.0
166.033813 196.0
166.075409 1072.0
166.12973 132.0
166.151962 272.0
166.188263 176.0
166.242767 192.0
166.309341 160.0
166.350281 132.0
166.35965 168.0
166.426117 280.0
166.45311 84.0
166.471085 112.0
166.503998 196.0
166.537857 164.0
166.572952 164.0
166.668869 168.0
166.703491 116.0
166.779373 200.0
166.819351 160.0
166.850983 196.0
166.887344 48.0
166.938766 136.0
166.969635 196.0
167.00563 236.0
167.049698 156.0
167.077774 176.0
167.108536 64.0
167.131699 52.0
167.159607 156.0
167.178009 92.0
167.226913 232.0
167.260361 80.0
167.29126 212.0
167.316559 208.0
167.376221 116.0
167.436707 132.0
167.4776 208.0
167.664246 172.0
167.687927 148.0
167.713699 220.0
167.747421 148.0
167.778137 204.0
167.806503 144.0
167.855484 112.0
167.92511 200.0
167.963806 180.0
167.999924 224.0
168.058578 256.0
168.144409 92.0
168.167633 156.0
168.249313 224.0
168.295532 488.0
168.338028 220.0
168.419556 112.0
168.465942 200.0
168.542084 88.0
168.57309 180.0
168.641357 144.0
168.660965 132.0
168.787292 88.0
168.813492 128.0
168.872894 140.0
168.911774 88.0
168.932465 36.0
168.982941 116.0
169.029922 132.0
169.040756 220.0
169.045197 176.0
169.090302 120.0
169.131714 196.0
169.232681 136.0
169.267303 96.0
169.300003 172.0
169.386627 252.0
169.429504 200.0
169.478729 204.0
169.508835 168.0
169.564438 324.0
169.640472 132.0
169.681915 176.0
169.703293 156.0
169.794815 180.0
169.827652 168.0
169.909119 288.0
169.942764 124.0
169.98558 228.0
170.022552 316.0
170.050095 108.0
170.077789 148.0
170.107651 268.0
170.137283 152.0
170.161591 184.0
170.181625 68.0
170.212784 188.0
170.255295 204.0
170.285492 200.0
170.321854 228.0
170.363419 164.0
170.402573 164.0
170.423645 156.0
170.46994 68.0
170.541687 244.0
170.57756 200.0
170.672699 160.0
170.784515 136.0
170.827835 196.0
170.901581 60.0
170.990051 200.0
171.027466 332.0
171.062927 148.0
171.092499 112.0
171.100113 156.0
171.130615 120.0
171.151443 108.0
171.187531 112.0
171.227814 148.0
171.307388 160.0
171.366608 304.0
171.401505 232.0
171.479675 128.0
171.532944 120.0
171.560486 32.0
171.589157 188.0
171.658386 176.0
171.701721 120.0
171.743652 148.0
171.765213 152.0
171.835495 92.0
171.873444 276.0
172.003937 140.0
172.021637 128.0
172.108231 164.0
172.144913 160.0
172.181473 140.0
172.24939 112.0
172.291183 148.0
172.326782 128.0
172.395691 176.0
172.41922 36.0
172.466263 204.0
172.486038 68.0
172.510696 228.0
172.542068 124.0
172.601379 128.0
172.637878 180.0
172.694946 180.0
172.732971 128.0
172.761734 48.0
172.824524 120.0
172.869019 68.0
172.90535 140.0
172.968903 144.0
173.016891 152.0
173.063477 176.0
173.112289 192.0
173.14389 252.0
173.177933 240.0
173.209763 156.0
173.23555 136.0
173.257736 232.0
173.318222 72.0
173.36618 136.0
173.413727 108.0
173.435623 160.0
173.466156 204.0
173.528351 144.0
173.571732 280.0
173.657166 208.0
173.681717 172.0
173.704773 160.0
173.728378 120.0
173.819061 188.0
173.906815 156.0
173.985565 96.0
174.016968 172.0
174.045746 152.0
174.052048 224.0
174.124512 240.0
174.158875 32.0
174.181595 208.0
174.24173 184.0
174.305984 184.0
174.348038 100.0
174.380295 144.0
174.408478 160.0
174.455795 96.0
174.479462 152.0
174.521255 196.0
174.544861 120.0
174.595154 56.0
174.634598 140.0
174.691589 132.0
174.75824 140.0
174.783966 180.0
174.850342 100.0
174.878983 96.0
174.907898 196.0
174.980209 212.0
175.033447 172.0
175.059036 116.0
175.092545 180.0
175.110062 120.0
175.134674 136.0
175.158386 176.0
175.179459 40.0
175.220932 140.0
175.251892 300.0
175.283493 88.0
175.479889 116.0
175.506256 112.0
175.598557 144.0
175.622284 132.0
175.71167 136.0
175.752823 100.0
175.854462 180.0
175.901978 156.0
175.944214 44.0
175.975891 248.0
176.018143 80.0
176.062073 308.0
176.11322 200.0
176.141434 88.0
176.162552 188.0
176.205673 160.0
176.25322 44.0
176.282288 212.0
176.343964 216.0
176.414444 144.0
176.464676 104.0
176.489197 156.0
176.522842 68.0
176.597549 176.0
176.649353 188.0
176.742386 156.0
176.762604 256.0
176.808548 112.0
176.87207 112.0
176.905884 168.0
176.930298 64.0
176.993835 188.0
177.022964 120.0
177.048721 204.0
177.066879 532.0
177.200439 128.0
177.268387 136.0
177.290527 156.0
177.314377 120.0
177.359436 116.0
177.377991 80.0
177.397308 208.0
177.448456 128.0
177.482452 152.0
177.523804 132.0
177.554276 204.0
177.623627 320.0
177.672333 108.0
177.709473 160.0
177.791733 144.0
177.812973 156.0
177.841949 100.0
177.872467 124.0
177.897903 152.0
177.943756 192.0
178.01207 220.0
178.080582 1712.0
178.183136 128.0
178.214401 116.0
178.269745 120.0
178.298965 60.0
178.344147 152.0
178.362762 124.0
178.394653 128.0
178.418579 96.0
178.472794 236.0
178.571976 140.0
178.68187 180.0
178.707977 192.0
178.740662 160.0
178.804276 148.0
178.845749 228.0
178.924042 92.0
178.99086 168.0
179.039886 192.0
179.079132 188.0
179.139755 144.0
179.187698 296.0
179.222336 208.0
179.275452 164.0
179.358261 100.0
179.408905 132.0
179.430222 68.0
179.523621 168.0
179.579559 104.0
179.600891 120.0
179.662247 192.0
179.6866 156.0
179.75563 148.0
179.815567 208.0
179.90123 180.0
179.961151 148.0
180.011887 120.0
180.057785 172.0
180.080414 236.0
180.09964 156.0
180.126724 116.0
180.148972 232.0
180.193512 156.0
180.317444 284.0
180.341995 120.0
180.367218 64.0
180.412659 128.0
180.439392 152.0
180.476822 132.0
180.517029 184.0
180.541 164.0
180.562393 212.0
180.607864 236.0
180.661743 136.0
180.693451 32.0
180.737961 240.0
180.797806 144.0
180.832611 56.0
180.907547 212.0
180.92897 212.0
180.963776 128.0
180.988159 152.0
181.022675 152.0
181.06601 112.0
181.113739 168.0
181.140518 108.0
181.161957 148.0
181.18338 148.0
181.223572 152.0
181.308548 140.0
181.336365 252.0
181.38446 324.0
181.413116 236.0
181.439407 208.0
181.469818 164.0
181.539856 72.0
181.572037 112.0
181.633118 140.0
181.668991 216.0
181.728058 100.0
181.758331 144.0
181.820938 196.0
181.827682 152.0
181.885956 148.0
181.904739 144.0
181.936951 84.0
181.98259 132.0
182.00676 236.0
182.049728 152.0
182.073898 116.0
182.097443 208.0
182.192078 68.0
182.219543 180.0
182.297043 124.0
182.318359 96.0
182.342545 316.0
182.393616 144.0
182.420502 108.0
182.552017 192.0
182.611221 172.0
182.651749 172.0
182.684021 148.0
182.70285 216.0
182.780945 156.0
182.82663 152.0
182.969284 128.0
182.996201 136.0
183.041977 140.0
183.098526 208.0
183.303268 96.0
183.324814 128.0
183.378723 144.0
183.454193 140.0
183.477921 140.0
183.51889 132.0
183.545853 208.0
183.580826 120.0
183.629822 208.0
183.688797 124.0
183.718475 72.0
183.758942 184.0
183.837784 180.0
183.87912 52.0
183.893372 180.0
183.94519 200.0
183.995438 120.0
184.030396 680.0
184.054413 160.0
184.116196 56.0
184.177353 88.0
184.207062 136.0
184.231384 80.0
184.291367 156.0
184.351593 220.0
184.373413 120.0
184.417831 184.0
184.439453 136.0
184.48494 164.0
184.569321 192.0
184.624695 216.0
184.647629 192.0
184.685501 128.0
184.858643 208.0
184.929001 144.0
184.984634 196.0
185.042145 176.0
185.072479 128.0
185.102264 176.0
185.224594 168.0
185.298294 244.0
185.384827 168.0
185.43277 128.0
185.514877 316.0
185.549316 144.0
185.603546 124.0
185.639496 140.0
185.663208 132.0
185.756775 124.0
185.779831 152.0
185.801544 68.0
185.847656 120.0
185.871307 196.0
185.913269 136.0
185.953018 184.0
185.963135 152.0
186.026642 308.0
186.047501 352.0
186.085693 176.0
186.121796 68.0
186.173386 180.0
186.235855 68.0
186.259628 176.0
186.298264 148.0
186.309128 84.0
186.315628 228.0
186.364746 168.0
186.394089 196.0
186.411667 168.0
186.455917 40.0
186.52388 76.0
186.54808 224.0
186.575516 96.0
186.61087 188.0
186.69516 120.0
186.752274 80.0
186.774033 116.0
186.880127 140.0
186.89917 72.0
186.920944 152.0
186.948151 112.0
186.981598 180.0
187.034409 488.0
187.059738 88.0
187.084244 132.0
187.217651 60.0
187.237549 156.0
187.277573 44.0
187.319138 212.0
187.353836 64.0
187.381088 164.0
187.46283 48.0
187.551544 116.0
187.597961 184.0
187.62886 168.0
187.683609 88.0
187.713455 136.0
187.720428 128.0
187.730957 200.0
187.759964 224.0
187.799896 276.0
187.882706 184.0
187.904541 176.0
187.979996 128.0
187.984833 176.0
188.008438 52.0
188.035355 348.0
188.11467 184.0
188.14267 140.0
188.185654 196.0
188.215897 204.0
188.237518 112.0
188.259369 216.0
188.316727 172.0
188.378174 152.0
188.4431 380.0
188.521622 112.0
188.573929 144.0
188.627014 128.0
188.652817 208.0
188.71843 132.0
188.797729 48.0
188.84549 328.0
188.915329 268.0
188.953629 144.0
188.983734 120.0
189.068649 412.0
189.104126 140.0
189.136978 180.0
189.232788 164.0
189.282074 96.0
189.319412 176.0
189.492981 160.0
189.525848 88.0
189.559662 204.0
189.66835 160.0
189.711884 196.0
189.764297 224.0
189.841919 224.0
189.882217 204.0
189.90416 136.0
189.924774 168.0
189.96283 144.0
190.037018 184.0
190.074936 540.0
190.107712 164.0
190.228989 156.0
190.258209 148.0
190.277344 104.0
190.318039 252.0
190.359879 152.0
190.40451 180.0
190.455841 84.0
190.493362 176.0
190.499222 116.0
190.511353 152.0
190.626175 92.0
190.666763 192.0
190.714111 52.0
190.7892 152.0
190.82814 108.0
190.850128 264.0
190.971191 188.0
191.035828 180.0
191.086029 628.0
191.123871 216.0
191.166519 140.0
191.253433 148.0
191.280731 248.0
191.339355 368.0
191.37709 196.0
191.434906 132.0
191.459702 148.0
191.560486 128.0
191.578125 184.0
191.600174 60.0
191.635986 132.0
191.685577 292.0
191.713638 156.0
191.751724 172.0
191.798569 360.0
191.873001 92.0
191.998581 196.0
192.054245 128.0
192.085571 428.0
192.102722 188.0
192.173615 176.0
192.192932 128.0
192.270203 140.0
192.297806 72.0
192.336441 120.0
192.374832 132.0
192.410965 360.0
192.441345 108.0
192.463425 156.0
192.507614 136.0
192.544922 164.0
192.568359 148.0
192.593231 188.0
192.637421 212.0
192.759644 200.0
192.847687 160.0
192.880585 132.0
192.913757 132.0
192.942825 124.0
192.987457 1520.0
193.037094 204.0
193.107727 364.0
193.136246 136.0
193.162628 144.0
193.217957 132.0
193.238449 196.0
193.287491 180.0
193.314789 236.0
193.345001 188.0
193.378448 188.0
193.411652 108.0
193.455948 124.0
193.486404 180.0
193.524231 104.0
193.56102 160.0
193.603638 128.0
193.694168 148.0
193.746719 148.0
193.76889 60.0
193.788284 52.0
193.814911 128.0
193.852005 68.0
193.899124 152.0
193.934906 176.0
193.985443 192.0
194.02475 172.0
194.070984 240.0
194.09317 212.0
194.127792 180.0
194.176361 188.0
194.201324 228.0
194.237762 200.0
194.276215 112.0
194.314835 184.0
194.324356 116.0
194.356674 140.0
194.37886 68.0
194.413864 260.0
194.448242 208.0
194.473221 80.0
194.500977 124.0
194.559952 180.0
194.612015 204.0
194.636642 152.0
194.741379 96.0
194.759201 148.0
194.785553 180.0
194.900467 160.0
194.934219 160.0
194.987991 1144.0
195.026016 4684.0
195.101837 128.0
195.151031 216.0
195.207901 292.0
195.256699 104.0
195.337357 216.0
195.412476 92.0
195.434723 148.0
195.468124 104.0
195.51265 176.0
195.557175 84.0
195.593353 144.0
195.632324 108.0
195.659073 164.0
195.682434 60.0
195.709167 180.0
195.740906 40.0
195.763184 172.0
195.827591 140.0
195.869995 204.0
195.896866 204.0
195.951492 228.0
195.972092 128.0
196.033737 7964.0
196.100281 176.0
196.136169 164.0
196.162186 164.0
196.24115 112.0
196.292282 188.0
196.328888 80.0
196.369354 188.0
196.398056 160.0
196.426498 148.0
196.454391 144.0
196.518555 64.0
196.543884 160.0
196.586731 324.0
196.646927 164.0
196.693893 176.0
196.774658 268.0
196.800659 112.0
196.867477 52.0
196.901764 172.0
196.925537 156.0
196.966507 200.0
196.974182 252.0
196.997665 104.0
197.00386 96.0
197.037552 1572.0
197.131622 64.0
197.239059 148.0
197.270126 136.0
197.291748 136.0
197.341248 224.0
197.382858 164.0
197.419708 208.0
197.456818 140.0
197.482849 180.0
197.515869 100.0
197.546722 152.0
197.637115 144.0
197.678436 152.0
197.7565 68.0
197.778519 152.0
197.811432 88.0
197.848877 164.0
197.913269 104.0
198.037384 432.0
198.117706 188.0
198.143677 180.0
198.211212 88.0
198.240997 200.0
198.27742 232.0
198.437195 84.0
198.468033 252.0
198.529724 200.0
198.563385 144.0
198.622284 112.0
198.645874 88.0
198.66716 132.0
198.695221 80.0
198.714859 160.0
198.782288 120.0
198.813065 148.0
198.868347 212.0
198.891068 136.0
198.936554 212.0
198.967438 308.0
199.031479 4052.0
199.085114 132.0
199.104156 180.0
199.189865 156.0
199.248932 208.0
199.296875 120.0
199.317108 272.0
199.339523 140.0
199.385956 60.0
199.414062 232.0
199.448242 152.0
199.488007 156.0
199.512451 128.0
199.574295 68.0
199.636154 192.0
199.672714 260.0
199.702423 156.0
199.710098 220.0
199.751068 160.0
199.879654 292.0
199.901215 144.0
199.921738 108.0
199.983459 284.0
200.035339 672.0
200.085724 180.0
200.139893 124.0
200.214798 200.0
200.259216 236.0
200.332336 140.0
200.378433 208.0
200.415863 140.0
200.440979 136.0
200.531876 144.0
200.59906 296.0
200.686447 260.0
200.786301 272.0
200.951569 168.0
201.02652 1104.0
201.062027 272.0
201.103943 132.0
201.134445 204.0
201.139954 164.0
201.173874 176.0
201.222504 172.0
201.262039 184.0
201.312988 180.0
201.372162 116.0
201.434311 108.0
201.467148 236.0
201.516739 200.0
201.541031 124.0
201.58432 168.0
201.63208 224.0
201.663177 188.0
201.745682 64.0
201.779938 92.0
201.807114 344.0
201.837952 116.0
201.869736 124.0
201.900192 148.0
201.94873 124.0
201.974197 188.0
202.029083 288.0
202.077393 12816.0
202.116516 132.0
202.15593 124.0
202.192047 128.0
202.223175 128.0
202.252945 116.0
202.282623 88.0
202.330429 144.0
202.343842 176.0
202.427002 116.0
202.452499 148.0
202.511322 208.0
202.531799 128.0
202.562134 192.0
202.598358 144.0
202.651733 104.0
202.698944 104.0
202.736649 144.0
202.808304 172.0
202.863586 224.0
202.903015 140.0
202.933884 144.0
202.960739 188.0
202.986649 176.0
203.013245 96.0
203.037964 232.0
203.085999 28328.0
203.161743 388.0
203.194611 132.0
203.241119 276.0
203.258286 84.0
203.318268 160.0
203.360947 228.0
203.393051 48.0
203.414612 152.0
203.447693 80.0
203.468384 224.0
203.502716 200.0
203.532867 128.0
203.593552 120.0
203.630966 76.0
203.653519 140.0
203.687042 56.0
203.756302 180.0
203.785568 136.0
203.810211 136.0
203.842484 40.0
203.90094 176.0
203.956772 148.0
203.998672 180.0
204.018707 332.0
204.08905 3760.0
204.151016 112.0
204.199356 116.0
204.240494 72.0
204.274216 164.0
204.308777 60.0
204.415527 92.0
204.421158 144.0
204.432648 164.0
204.486023 136.0
204.545105 80.0
204.571045 120.0
204.647446 48.0
204.677048 20.0
204.741409 100.0
204.771439 176.0
204.943649 156.0
204.963287 144.0
204.969833 128.0
204.991211 180.0
205.044373 128.0
205.069229 228.0
205.093903 520.0
205.151291 136.0
205.21727 96.0
205.274307 76.0
205.314224 112.0
205.362152 124.0
205.410339 164.0
205.429153 108.0
205.5271 168.0
205.567719 344.0
205.621185 248.0
205.641144 172.0
205.672318 196.0
205.683411 100.0
205.691269 136.0
205.723709 232.0
205.776474 96.0
205.810745 116.0
205.847855 72.0
205.876419 56.0
205.913544 96.0
205.979233 104.0
206.030655 128.0
206.088882 84.0
206.131973 112.0
206.14299 164.0
206.172394 144.0
206.200775 184.0
206.22496 108.0
206.269989 148.0
206.313568 152.0
206.359314 152.0
206.402206 84.0
206.480881 128.0
206.502289 144.0
206.533752 100.0
206.638611 200.0
206.716843 144.0
206.751877 132.0
206.770264 132.0
206.814148 160.0
206.862808 164.0
206.879196 160.0
206.891922 120.0
206.900986 180.0
206.933884 92.0
206.997375 120.0
207.020279 52.0
207.046051 84.0
207.09761 164.0
207.132874 124.0
207.187515 124.0
207.282181 196.0
207.347748 144.0
207.413147 156.0
207.45578 220.0
207.475845 368.0
207.553711 236.0
207.604935 156.0
207.649979 176.0
207.697845 96.0
207.819153 80.0
207.850571 92.0
207.88887 60.0
207.920441 96.0
208.034973 2416.0
208.089798 132.0
208.170197 132.0
208.190292 92.0
208.279327 80.0
208.329132 244.0
208.357346 124.0
208.393066 176.0
208.448822 40.0
208.548325 176.0
208.595398 172.0
208.744904 120.0
208.780746 172.0
208.827179 224.0
208.871445 112.0
208.93364 148.0
208.972137 136.0
208.998093 244.0
209.042892 3328.0
209.124008 108.0
209.162064 144.0
209.206085 68.0
209.281677 116.0
209.304474 392.0
209.34436 212.0
209.380875 124.0
209.401031 124.0
209.452377 252.0
209.468903 132.0
209.503571 308.0
209.568176 172.0
209.61763 160.0
209.626907 148.0
209.661758 328.0
209.715881 116.0
209.760132 336.0
209.814453 160.0
209.851532 156.0
209.894028 144.0
209.939194 168.0
209.97905 144.0
209.984695 396.0
210.050629 53168.0
210.125168 240.0
210.144196 156.0
210.179382 44.0
210.214584 40.0
210.251297 156.0
210.255524 120.0
210.299622 208.0
210.330063 56.0
210.355423 92.0
210.380569 108.0
210.426697 52.0
210.453583 160.0
210.498352 252.0
210.534775 156.0
210.568451 148.0
210.639801 124.0
210.687515 80.0
210.742401 108.0
210.763641 112.0
210.785751 48.0
210.837753 184.0
210.875565 100.0
210.911865 144.0
210.939636 184.0
210.951813 148.0
210.958771 188.0
210.996735 140.0
211.05307 6964.0
211.089432 328.0
211.128372 160.0
211.136124 216.0
211.168945 108.0
211.189697 120.0
211.226547 196.0
211.257004 96.0
211.276779 88.0
211.301971 168.0
211.385849 180.0
211.412537 244.0
211.455383 128.0
211.529526 204.0
211.56955 176.0
211.607178 276.0
211.636124 200.0
211.683792 200.0
211.724854 172.0
211.78093 96.0
211.821198 144.0
211.848679 164.0
211.899689 144.0
211.942383 140.0
211.983719 204.0
212.040253 7536.0
212.092957 288.0
212.138565 168.0
212.179108 68.0
212.257065 40.0
212.317093 132.0
212.349457 124.0
212.434891 192.0
212.50563 52.0
212.565247 136.0
212.570282 100.0
212.617142 144.0
212.640213 128.0
212.69812 184.0
212.754898 184.0
212.803925 124.0
212.812683 96.0
212.821884 200.0
212.993332 116.0
213.042404 1784.0
213.106628 72.0
213.153122 68.0
213.179276 144.0
213.215469 92.0
213.273987 176.0
213.327255 92.0
213.335312 140.0
213.392288 184.0
213.426346 136.0
213.457504 208.0
213.492767 76.0
213.553558 156.0
213.583389 76.0
213.632843 60.0
213.725937 100.0
213.789963 96.0
213.853989 332.0
213.874359 56.0
213.927521 316.0
213.963364 132.0
213.999527 96.0
214.034088 1848.0
214.083969 124.0
214.133484 84.0
214.165527 168.0
214.235031 296.0
214.254532 172.0
214.326965 228.0
214.338486 96.0
214.347046 128.0
214.395676 376.0
214.463684 132.0
214.509354 80.0
214.554337 148.0
214.60556 164.0
214.652206 124.0
214.675537 36.0
214.730942 176.0
214.761322 220.0
214.830109 360.0
214.868149 164.0
214.905045 176.0
214.916077 120.0
214.930359 112.0
214.938934 160.0
214.975998 92.0
215.036774 328.0
215.082336 92.0
215.174469 188.0
215.227036 144.0
215.266449 192.0
215.300034 120.0
215.337997 180.0
215.498657 152.0
215.517654 104.0
215.589249 108.0
215.609695 164.0
215.630157 184.0
215.665222 136.0
215.708618 204.0
215.735382 84.0
215.89975 188.0
215.948334 116.0
215.978088 200.0
216.017288 124.0
216.057068 148.0
216.089249 72.0
216.124359 132.0
216.200439 176.0
216.228683 80.0
216.258667 156.0
216.285309 52.0
216.342606 188.0
216.364349 84.0
216.390701 200.0
216.48732 100.0
216.53418 176.0
216.571259 232.0
216.678604 104.0
216.890778 152.0
216.910461 188.0
216.961029 408.0
216.991302 248.0
217.046997 88.0
217.123245 140.0
217.293381 72.0
217.319778 160.0
217.357925 184.0
217.425003 168.0
217.47049 180.0
217.504654 124.0
217.542816 152.0
217.571899 128.0
217.596802 220.0
217.648514 152.0
217.739548 204.0
217.777725 140.0
217.798279 84.0
217.880539 100.0
217.930481 132.0
218.050964 136.0
218.080353 140.0
218.159714 100.0
218.213898 240.0
218.234879 188.0
218.271439 144.0
218.306717 280.0
218.333435 132.0
218.369888 216.0
218.400833 84.0
218.433182 216.0
218.475037 140.0
218.513718 128.0
218.574402 152.0
218.600403 100.0
218.616547 160.0
218.70253 156.0
218.734467 124.0
218.806915 124.0
218.847153 144.0
218.906204 260.0
218.960037 128.0
219.030182 292.0
219.070694 148.0
219.11026 200.0
219.184326 340.0
219.222229 156.0
219.263474 168.0
219.290009 164.0
219.310638 60.0
219.439606 160.0
219.483459 128.0
219.503662 152.0
219.531754 72.0
219.558289 124.0
219.611374 48.0
219.634979 84.0
219.667664 284.0
219.705765 124.0
219.786316 148.0
219.870926 156.0
219.94957 116.0
220.003067 156.0
220.033173 572.0
220.066071 216.0
220.10434 172.0
220.164749 104.0
220.22522 184.0
220.272766 164.0
220.357788 84.0
220.42688 156.0
220.440598 136.0
220.44931 140.0
220.483414 172.0
220.529602 80.0
220.57869 228.0
220.615479 80.0
220.649368 132.0
220.705063 168.0
220.725601 108.0
220.756638 292.0
220.793289 148.0
220.822388 144.0
220.853989 148.0
220.864594 148.0
220.880737 328.0
220.886887 48.0
220.928726 204.0
220.963409 436.0
221.004852 796.0
221.043564 185592.0
221.121277 108.0
221.189789 60.0
221.21524 140.0
221.243408 236.0
221.276672 104.0
221.309647 292.0
221.36731 200.0
221.405258 124.0
221.43895 348.0
221.489227 180.0
221.530884 1444.0
221.575378 140.0
221.604767 172.0
221.643845 224.0
221.695206 108.0
221.716385 36.0
221.744659 88.0
221.765076 156.0
221.788513 120.0
221.830154 84.0
221.864975 120.0
221.896454 64.0
221.944 204.0
221.980408 132.0
222.045837 26896.0
222.115829 204.0
222.138535 48.0
222.165131 276.0
222.19101 392.0
222.233765 152.0
222.258942 228.0
222.299988 156.0
222.333054 344.0
222.409134 80.0
222.431183 236.0
222.454926 152.0
222.474365 68.0
222.520233 88.0
222.542084 100.0
222.586273 132.0
222.595398 128.0
222.639008 228.0
222.699966 88.0
222.752792 88.0
222.782806 96.0
222.833694 132.0
222.859589 160.0
222.888382 156.0
222.933319 132.0
222.959488 148.0
222.995514 244.0
223.039291 7180.0
223.118576 140.0
223.156036 164.0
223.186874 128.0
223.231186 160.0
223.258469 160.0
223.30069 152.0
223.31958 112.0
223.358002 164.0
223.379227 160.0
223.414963 100.0
223.437943 112.0
223.450775 80.0
223.459396 120.0
223.497009 156.0
223.561188 212.0
223.600235 96.0
223.643005 68.0
223.667007 176.0
223.677551 104.0
223.687988 112.0
223.722824 200.0
223.756927 252.0
223.788727 200.0
223.810349 276.0
223.848907 88.0
223.882065 112.0
223.91951 188.0
223.950562 64.0
223.986313 276.0
224.039871 732.0
224.095154 156.0
224.188904 76.0
224.242554 44.0
224.300339 124.0
224.320038 184.0
224.411118 116.0
224.452438 116.0
224.478058 76.0
224.560776 76.0
224.609283 88.0
224.636124 168.0
224.678665 144.0
224.696793 96.0
224.732697 436.0
224.785797 144.0
224.853943 68.0
224.877808 64.0
224.919601 128.0
224.940216 84.0
224.999054 104.0
225.004288 108.0
225.017792 188.0
225.040985 264.0
225.102585 164.0
225.128586 92.0
225.152481 76.0
225.195419 148.0
225.259308 172.0
225.334686 92.0
225.369446 376.0
225.391449 140.0
225.431244 140.0
225.485855 252.0
225.522949 40.0
225.563492 168.0
225.581924 140.0
225.616547 96.0
225.663452 108.0
225.771088 192.0
225.842621 152.0
225.890732 92.0
225.941025 172.0
225.974487 56.0
226.048386 472.0
226.103165 236.0
226.130096 48.0
226.161331 88.0
226.192947 36.0
226.266449 152.0
226.303711 256.0
226.331802 84.0
226.37558 208.0
226.423492 112.0
226.45694 188.0
226.564362 136.0
226.588242 200.0
226.615524 188.0
226.642166 76.0
226.669128 36.0
226.717087 108.0
226.777023 188.0
226.818619 164.0
226.863953 124.0
226.887756 140.0
226.91571 100.0
226.953888 108.0
226.983871 100.0
227.043839 136.0
227.066696 116.0
227.10083 180.0
227.169815 344.0
227.20282 156.0
227.298828 184.0
227.333542 148.0
227.36853 124.0
227.394852 132.0
227.450089 80.0
227.523453 76.0
227.553955 124.0
227.644028 88.0
227.689072 196.0
227.74614 76.0
227.7789 132.0
227.872299 112.0
227.909592 136.0
227.989487 80.0
228.01947 568.0
228.082657 148.0
228.184006 112.0
228.220947 76.0
228.287384 168.0
228.341232 56.0
228.538406 112.0
228.581436 132.0
228.648102 60.0
228.697479 168.0
228.762466 96.0
228.831711 80.0
228.867844 164.0
228.90097 100.0
228.965851 124.0
229.018311 116.0
229.058685 292.0
229.079987 320.0
229.15239 76.0
229.194916 144.0
229.244507 164.0
229.313675 164.0
229.340805 48.0
229.416 236.0
229.456528 188.0
229.497559 84.0
229.521591 140.0
229.56691 116.0
229.612213 176.0
229.654373 304.0
229.723755 104.0
229.789001 184.0
229.828049 112.0
229.8797 128.0
229.88681 88.0
229.900024 132.0
229.968155 120.0
229.998337 240.0
230.052673 152.0
230.076584 232.0
230.119095 244.0
230.176956 152.0
230.207855 120.0
230.248016 132.0
230.30632 124.0
230.375076 152.0
230.400177 168.0
230.452194 192.0
230.488831 176.0
230.531815 248.0
230.556717 208.0
230.596359 272.0
230.64473 116.0
230.6689 148.0
230.697159 208.0
230.70285 312.0
230.773651 176.0
230.80072 360.0
230.815384 124.0
230.826889 328.0
230.847977 268.0
230.873978 376.0
230.912308 264.0
230.928894 208.0
231.004456 173564.0
231.093796 144.0
231.114258 220.0
231.159256 328.0
231.216873 140.0
231.249893 248.0
231.291733 300.0
231.339127 168.0
231.368515 144.0
231.399734 136.0
231.44899 172.0
231.471954 256.0
231.502808 796.0
231.550568 152.0
231.593231 108.0
231.622055 128.0
231.659927 140.0
231.70372 96.0
231.732224 84.0
231.762283 56.0
231.775391 144.0
231.783585 84.0
231.81987 152.0
231.845184 224.0
231.874313 172.0
231.896072 184.0
231.924423 108.0
231.960907 288.0
232.006805 32844.0
232.056992 392.0
232.100891 52.0
232.149414 184.0
232.18132 68.0
232.208618 176.0
232.252014 192.0
232.316696 76.0
232.365265 48.0
232.434494 220.0
232.438858 104.0
232.470352 68.0
232.528625 36.0
232.555054 156.0
232.579086 80.0
232.601471 44.0
232.631165 108.0
232.67128 216.0
232.690918 180.0
232.74472 108.0
232.772964 156.0
232.827545 336.0
232.860291 420.0
232.921707 180.0
232.953705 232.0
233.001129 60944.0
233.04747 360.0
233.104446 104.0
233.129791 376.0
233.171661 176.0
233.189789 176.0
233.228699 156.0
233.254959 212.0
233.278351 196.0
233.290695 104.0
233.303177 188.0
233.341782 40.0
233.3508 180.0
233.370682 300.0
233.415482 256.0
233.462311 336.0
233.506348 396.0
233.565094 60.0
233.586899 316.0
233.615631 248.0
233.625305 132.0
233.637894 296.0
233.647659 220.0
233.703201 196.0
233.742294 172.0
233.753189 100.0
233.803207 112.0
233.827301 268.0
233.870468 516.0
233.897461 468.0
233.9207 200.0
233.943588 236.0
234.002213 5944.0
234.050919 48652.0
234.122803 116.0
234.165619 120.0
234.221649 152.0
234.276978 56.0
234.32019 136.0
234.364136 152.0
234.413071 108.0
234.456436 176.0
234.511078 124.0
234.521454 140.0
234.565536 104.0
234.608582 152.0
234.65329 236.0
234.700897 144.0
234.739594 200.0
234.770752 96.0
234.816681 148.0
234.831741 148.0
234.855942 364.0
234.863602 116.0
234.902832 192.0
234.930756 292.0
234.954712 132.0
235.058594 106220.0
235.1315 184.0
235.153183 104.0
235.212112 224.0
235.246048 160.0
235.287796 176.0
235.29393 168.0
235.307388 264.0
235.33812 116.0
235.370514 196.0
235.44545 224.0
235.488022 124.0
235.562088 336.0
235.585342 180.0
235.601074 200.0
235.653 220.0
235.68074 168.0
235.730133 128.0
235.738434 56.0
235.775116 160.0
235.805679 144.0
235.849426 188.0
235.897507 316.0
235.941269 144.0
235.985199 176.0
235.989532 172.0
236.065277 65884.0
236.171799 168.0
236.211136 144.0
236.220535 88.0
236.228806 72.0
236.276047 432.0
236.341049 52.0
236.365952 264.0
236.408691 220.0
236.441467 132.0
236.469086 144.0
236.521378 224.0
236.566208 160.0
236.619904 208.0
236.673355 68.0
236.716354 212.0
236.746216 164.0
236.790985 164.0
236.820282 56.0
236.843231 140.0
236.892319 104.0
236.936279 204.0
236.980026 88.0
236.984818 48.0
237.066986 9548.0
237.108032 140.0
237.125504 260.0
237.149796 176.0
237.179916 48.0
237.213135 172.0
237.248062 204.0
237.277115 176.0
237.34758 212.0
237.37178 140.0
237.425461 136.0
237.483475 56.0
237.508011 176.0
237.530396 120.0
237.561829 168.0
237.588028 188.0
237.623505 92.0
237.662643 176.0
237.73555 120.0
237.758057 120.0
237.771042 60.0
237.776703 76.0
237.821854 116.0
237.878738 100.0
237.898041 276.0
237.953903 52.0
237.989807 152.0
238.054794 34248.0
238.115768 224.0
238.14682 256.0
238.176239 60.0
238.207367 76.0
238.243179 72.0
238.274155 96.0
238.3246 112.0
238.353317 100.0
238.393417 112.0
238.44751 56.0
238.471161 136.0
238.540039 92.0
238.577713 224.0
238.621796 52.0
238.662216 332.0
238.710205 80.0
238.764862 56.0
238.812241 212.0
238.848434 120.0
238.881042 40.0
238.905655 84.0
238.952698 248.0
238.982574 116.0
239.057465 5416.0
239.114883 136.0
239.159927 44.0
239.227341 120.0
239.264938 64.0
239.304657 80.0
239.419662 72.0
239.46756 152.0
239.507065 64.0
239.640549 136.0
239.666092 92.0
239.709366 92.0
239.750916 276.0
239.795517 172.0
239.82132 112.0
239.849823 52.0
239.90033 32.0
239.938858 96.0
239.994888 120.0
240.051285 8952.0
240.126953 56.0
240.148987 152.0
240.174759 56.0
240.204834 48.0
240.217255 36.0
240.269196 108.0
240.284683 112.0
240.333771 244.0
240.378372 96.0
240.463654 92.0
240.482681 152.0
240.544327 176.0
240.612701 208.0
240.656174 48.0
240.684982 108.0
240.719986 104.0
240.765198 156.0
240.790359 88.0
240.816132 80.0
240.853806 52.0
240.898972 84.0
240.941895 80.0
240.995911 108.0
241.054977 840.0
241.098557 56.0
241.136078 212.0
241.224609 40.0
241.272354 144.0
241.391953 64.0
241.44722 84.0
241.558563 80.0
241.601883 96.0
241.657562 36.0
241.800369 108.0
241.861801 80.0
241.886566 40.0
241.914429 84.0
241.936096 64.0
241.968353 96.0
242.041367 92.0
242.121872 64.0
242.201218 84.0
242.289139 60.0
242.406876 168.0
242.437317 188.0
242.499847 68.0
242.564941 100.0
242.639343 44.0
242.676544 52.0
242.747849 184.0
242.781967 80.0
242.847092 72.0
242.890518 228.0
242.955658 56.0
243.001099 280.0
243.123215 88.0
243.244247 112.0
243.371536 132.0
243.449173 124.0
243.477112 112.0
243.505066 84.0
243.576508 64.0
243.609619 172.0
243.639725 88.0
243.750488 144.0
243.859253 80.0
243.955612 64.0
244.009766 592.0
244.055084 332.0
244.086182 92.0
244.188812 48.0
244.291458 92.0
244.313232 124.0
244.372345 92.0
244.419006 60.0
244.443802 124.0
244.450638 120.0
244.521698 68.0
244.551743 280.0
244.588821 248.0
244.62442 104.0
244.73027 140.0
244.849335 200.0
244.881592 172.0
244.920227 132.0
244.959625 148.0
245.019012 19544.0
245.094681 100.0
245.12822 204.0
245.153885 52.0
245.191284 84.0
245.24115 80.0
245.324814 76.0
245.353363 136.0
245.377014 116.0
245.498306 180.0
245.521576 224.0
245.545914 144.0
245.577881 152.0
245.634018 48.0
245.69017 64.0
245.819794 132.0
245.921082 92.0
245.95697 164.0
246.021912 3404.0
246.086533 96.0
246.130234 56.0
246.161469 196.0
246.217682 80.0
246.245789 176.0
246.305756 80.0
246.383224 64.0
246.465469 184.0
246.5457 76.0
246.617584 52.0
246.755127 76.0
246.795761 64.0
246.886444 48.0
246.970886 132.0
247.016281 5708.0
247.089767 36.0
247.130173 144.0
247.268112 164.0
247.307419 172.0
247.346359 48.0
247.381714 116.0
247.410446 128.0
247.471588 56.0
247.50061 164.0
247.54303 132.0
247.621628 48.0
247.737793 180.0
247.762848 28.0
247.862015 104.0
247.922638 68.0
248.019058 436.0
248.069962 60.0
248.195358 104.0
248.248672 64.0
248.276886 160.0
248.298843 84.0
248.438065 108.0
248.491486 84.0
248.679749 196.0
248.722397 48.0
248.807159 84.0
248.835419 180.0
248.970428 76.0
249.105484 80.0
249.162033 312.0
249.216721 128.0
249.256287 124.0
249.37326 108.0
249.495163 44.0
249.567459 108.0
249.592621 76.0
249.614624 48.0
249.749863 44.0
249.87883 172.0
249.931641 116.0
249.954346 36.0
249.99321 92.0
250.013397 136.0
250.074905 104.0
250.146332 84.0
250.171509 64.0
250.240021 84.0
250.281204 108.0
250.338379 88.0
250.391922 40.0
250.580917 212.0
250.661255 180.0
250.729004 100.0
250.864548 48.0
251.142029 136.0
251.195648 56.0
251.246109 140.0
251.350235 92.0
251.593262 60.0
251.653244 52.0
251.687973 148.0
251.713226 48.0
251.902725 116.0
251.931152 84.0
252.025742 316.0
252.142853 160.0
252.370453 108.0
252.436859 80.0
252.626617 84.0
252.876587 196.0
252.924057 164.0
252.974716 108.0
253.034851 104.0
253.072845 60.0
253.148849 36.0
253.526581 132.0
253.884033 156.0
254.02359 160.0
254.064301 120.0
254.13652 88.0
254.340897 76.0
254.404388 116.0
254.448837 116.0
254.521851 56.0
254.594894 68.0
254.737976 160.0
254.766403 192.0
254.809601 164.0
254.849014 36.0
254.917892 152.0
254.949554 180.0
254.959793 116.0
255.003265 12752.0
255.076172 108.0
255.109604 64.0
255.138214 32.0
255.198624 76.0
255.221832 76.0
255.262222 128.0
255.284485 60.0
255.308807 80.0
255.332184 196.0
255.355606 132.0
255.468063 72.0
255.548477 72.0
255.577118 76.0
255.613647 92.0
255.656677 160.0
255.691681 36.0
255.77124 60.0
255.836884 148.0
255.876297 48.0
255.93042 160.0
255.960999 164.0
256.010986 13496.0
256.144592 48.0
256.225983 160.0
256.24707 124.0
256.328125 172.0
256.38913 52.0
256.424164 56.0
256.475281 120.0
256.50058 184.0
256.551666 40.0
256.672821 188.0
256.723846 88.0
256.763062 68.0
256.818939 88.0
256.908844 52.0
256.953491 104.0
257.003113 5472.0
257.087524 72.0
257.184326 72.0
257.237946 88.0
257.3237 52.0
257.429077 76.0
257.451447 140.0
257.499329 132.0
257.540863 68.0
257.566406 48.0
257.645538 52.0
257.675018 180.0
257.715057 76.0
257.845947 248.0
257.892334 136.0
257.943451 172.0
257.965851 44.0
258.006897 4392.0
258.049072 112.0
258.080933 56.0
258.128876 212.0
258.157684 72.0
258.288788 192.0
258.429565 172.0
258.451965 44.0
258.615173 84.0
258.681 148.0
258.727203 72.0
258.941742 88.0
259.014526 516.0
259.047424 120.0
259.073059 108.0
259.18576 136.0
259.454407 140.0
259.524933 128.0
259.710938 100.0
259.744354 96.0
259.862366 100.0
259.932312 92.0
259.990051 44.0
260.05899 120.0
260.291809 160.0
260.397766 92.0
260.445953 40.0
260.539124 120.0
260.606567 120.0
260.972748 116.0
261.034943 132.0
261.262421 100.0
261.339661 204.0
262.057617 128.0
262.854034 104.0
263.067047 116.0
263.212341 104.0
263.370575 84.0
263.761536 32.0
263.897308 124.0
264.230438 108.0
264.589661 60.0
264.842255 52.0
265.026886 124.0
265.068146 120.0
265.496918 80.0
265.782379 140.0
266.037567 160.0
266.460938 108.0
266.701416 140.0
267.050934 136.0
267.549286 92.0
267.562805 60.0
267.575073 140.0
267.631805 172.0
267.843506 96.0
268.007782 444.0
268.058502 140.0
268.104126 188.0
268.325775 60.0
268.511658 92.0
268.684509 64.0
268.710632 68.0
268.743256 116.0
268.890076 52.0
268.961884 184.0
269.017395 2288.0
269.069611 60.0
269.215057 116.0
269.255737 108.0
269.422333 176.0
269.63797 96.0
269.693542 72.0
269.840637 44.0
269.866791 192.0
269.940582 88.0
270.01947 624.0
270.11084 160.0
270.256012 44.0
270.324738 124.0
270.380341 80.0
270.451447 144.0
270.487396 68.0
270.532501 148.0
270.598663 92.0
270.652039 144.0
270.790833 128.0
270.819061 152.0
270.855103 92.0
270.946869 164.0
271.034851 58408.0
271.128662 48.0
271.159271 24.0
271.187805 60.0
271.248657 248.0
271.297485 96.0
271.320404 120.0
271.348877 112.0
271.389282 72.0
271.415497 84.0
271.574554 48.0
271.654022 104.0
271.683502 140.0
271.723816 44.0
271.786133 124.0
271.887878 136.0
271.950348 172.0
272.037048 6180.0
272.109131 116.0
272.137115 104.0
272.157043 192.0
272.184875 176.0
272.225983 184.0
272.247101 84.0
272.278534 36.0
272.301514 40.0
272.400055 100.0
272.436188 92.0
272.529205 104.0
272.587708 104.0
272.630035 196.0
272.679352 48.0
272.754944 48.0
272.825531 188.0
272.853546 136.0
272.889709 44.0
272.924438 156.0
272.967346 112.0
272.989624 220.0
273.033264 15136.0
273.10675 124.0
273.162689 36.0
273.196899 104.0
273.281097 64.0
273.312378 44.0
273.363373 68.0
273.402863 32.0
273.458801 152.0
273.611176 84.0
273.62558 84.0
273.638672 56.0
273.648193 120.0
273.714478 84.0
273.804504 112.0
273.844025 252.0
273.867065 124.0
273.89447 88.0
273.918823 56.0
273.94162 108.0
273.975769 132.0
274.034637 1956.0
274.117432 76.0
274.163574 36.0
274.198059 180.0
274.252563 120.0
274.278931 56.0
274.39267 60.0
274.546143 84.0
274.592163 44.0
274.683136 96.0
274.720795 64.0
274.915466 136.0
274.959412 68.0
275.046478 1336.0
275.107117 56.0
275.136597 52.0
275.23233 60.0
275.301697 92.0
275.476746 32.0
275.585754 56.0
275.684875 44.0
275.803864 100.0
275.833618 60.0
276.050751 256.0
276.127869 52.0
276.154327 52.0
276.240326 108.0
276.382599 64.0
276.716888 36.0
276.90564 96.0
277.117645 32.0
277.409271 108.0
277.432465 48.0
278.215363 56.0
278.590637 72.0
278.859772 80.0
279.129028 92.0
280.114166 136.0
280.500702 60.0
280.534027 40.0
280.814117 32.0
281.277893 36.0
281.358002 44.0
281.795502 112.0
282.029419 68.0
282.283508 36.0
282.330322 76.0
283.002899 100.0
283.150238 80.0
283.26413 80.0
283.367981 44.0
283.719879 96.0
285.469147 72.0
285.617126 60.0
286.017548 76.0
286.074768 60.0
286.694489 80.0
286.910217 80.0
287.004608 264.0
287.12262 64.0
287.213684 48.0
287.540955 48.0
287.736755 72.0
287.885315 100.0
288.882355 60.0
289.068451 128.0
289.945526 60.0
290.152283 56.0
292.166168 92.0
292.516663 80.0
293.25238 40.0
293.91394 76.0
295.324829 52.0
295.656708 88.0
296.132568 152.0
297.981506 52.0
298.741241 56.0
299.377991 88.0
300.556885 172.0
301.271545 68.0
302.121948 96.0
303.268097 68.0
303.562775 132.0
304.121338 56.0
304.565765 112.0
305.807007 76.0
307.165894 40.0
307.277527 92.0
308.986969 92.0
309.906708 104.0
310.264191 56.0
310.663971 108.0
311.200897 180.0
311.899994 76.0
312.603363 56.0
313.332214 108.0
313.469635 52.0
313.758636 108.0
313.811523 76.0
314.065338 164.0
314.248871 124.0
314.690033 100.0
314.854523 96.0
314.908966 36.0
314.954895 172.0
315.794464 148.0
315.902222 100.0
315.983582 80.0
316.008331 108.0
316.092041 7128.0
316.167572 144.0
316.216858 52.0
316.312347 44.0
316.365784 56.0
316.462555 48.0
316.573975 120.0
316.714569 96.0
316.75531 120.0
316.790741 64.0
316.911011 84.0
316.967865 132.0
317.003571 52.0
317.031647 76.0
317.097015 1744.0
317.13797 68.0
317.318756 128.0
317.354218 68.0
317.552795 32.0
317.577637 40.0
317.779816 44.0
317.971436 96.0
318.090118 2824.0
318.198608 36.0
318.280273 116.0
318.599915 52.0
318.672852 44.0
318.746826 80.0
319.051239 40.0
319.089142 340.0
319.17569 160.0
319.310822 36.0
319.444122 168.0
319.581177 64.0
319.61319 196.0
320.090149 64.0
320.382202 108.0
320.874023 120.0
320.916779 108.0
321.013062 92.0
321.212799 144.0
321.530334 52.0
321.612427 64.0
321.673096 128.0
322.680511 60.0
323.098938 96.0
323.410248 44.0
323.625061 92.0
324.406036 60.0
324.574554 36.0
326.208069 68.0
326.265594 76.0
326.812256 92.0
327.056946 36.0
327.211761 64.0
327.708771 44.0
328.144867 100.0
328.224182 56.0
328.350403 116.0
328.462219 44.0
329.725891 72.0
331.85434 64.0
333.044617 76.0
334.15332 120.0
334.666504 104.0
334.90686 80.0
335.387817 148.0
335.521088 136.0
335.624786 76.0
335.843567 56.0
335.949371 36.0
338.372284 96.0
338.734833 56.0
338.88504 76.0
339.6492 68.0
340.032806 88.0
340.770874 96.0
340.822296 92.0
341.035461 88.0
342.426178 84.0
343.045197 104.0
343.329102 108.0
345.537933 100.0
346.359741 92.0
346.500519 116.0
346.782135 76.0
347.193665 76.0
347.750153 96.0
348.418518 76.0
349.191681 140.0
350.14444 128.0
350.602661 116.0
351.161865 128.0
351.281219 112.0
353.373291 80.0
353.466827 96.0
353.721313 48.0
354.114441 68.0
356.109741 96.0
357.101959 96.0
357.545898 76.0
359.079224 72.0
359.52063 76.0
360.419342 60.0
360.884216 108.0
361.232147 52.0
361.428894 60.0
361.773285 72.0
362.568695 92.0
362.822632 80.0
363.02359 76.0
363.679932 104.0
364.656036 88.0
366.623566 128.0
366.821777 96.0
367.340363 116.0
367.863159 112.0
369.839325 84.0
370.069 68.0
370.670349 72.0
370.766174 68.0
370.950134 28.0
371.245361 144.0
371.947449 72.0
373.415161 72.0
373.595947 44.0
373.784485 60.0
374.558289 48.0
375.109314 84.0
375.244232 32.0
375.471741 44.0
376.261047 108.0
376.853668 56.0
377.046875 120.0
378.195526 80.0
379.819031 60.0
379.873322 80.0
381.690918 96.0
381.982574 72.0
382.052612 36.0
384.815735 92.0
384.889923 108.0
385.147675 52.0
385.538361 36.0
385.804138 100.0
385.92926 108.0
386.860382 52.0
387.248016 68.0
387.600586 72.0
390.580322 40.0
390.847809 72.0
391.469757 76.0
392.107941 52.0
392.316864 148.0
392.411469 96.0
392.443024 148.0
392.644104 96.0
393.413513 112.0
394.709412 40.0
394.828033 32.0
395.22757 48.0
396.819763 132.0
396.978363 76.0
397.089417 80.0
398.018005 48.0
398.272156 100.0
398.955627 68.0
399.186218 76.0
399.48053 52.0
399.862518 44.0
400.041626 60.0
400.113281 68.0
402.625305 40.0
404.360382 40.0
404.996979 128.0
405.024994 76.0
406.652832 60.0
408.243744 140.0
411.196686 112.0
411.253204 96.0
411.531738 80.0
412.816681 80.0
413.423462 64.0
413.670349 40.0
414.419556 76.0
415.327637 84.0
415.873871 108.0
416.57785 116.0
416.854095 84.0
417.382538 68.0
419.426208 52.0
419.719727 92.0
421.965332 92.0
424.04068 68.0
424.327606 52.0
424.450623 128.0
425.652863 48.0
426.158081 108.0
426.347107 48.0
427.560272 68.0
428.408478 80.0
428.762817 108.0
428.832886 124.0
429.603943 48.0
430.284851 60.0
432.417786 80.0
432.877289 104.0
433.515228 72.0
434.095581 88.0
434.746857 128.0
435.506592 96.0
436.899109 76.0
437.644073 96.0
439.065033 84.0
440.07901 52.0
443.396149 64.0
443.55542 52.0
443.723114 68.0
443.853088 68.0
445.645325 64.0
448.953827 64.0
449.274384 76.0
449.582397 80.0
450.388763 104.0
451.817566 140.0
453.214691 88.0
459.968079 52.0
460.429199 124.0
460.685455 120.0
461.146942 64.0
462.464264 64.0
464.10498 40.0
464.456635 96.0
465.113098 40.0
465.456573 68.0
466.242676 108.0
467.383392 116.0
467.476868 88.0
467.993408 120.0
469.566254 96.0
472.434296 44.0
473.681 96.0
475.241669 120.0
478.053009 76.0
481.850769 88.0
481.994934 40.0
482.51944 68.0
484.265381 68.0
485.948669 52.0
486.738708 36.0
487.995331 36.0
489.284393 84.0
489.997864 96.0
490.67215 104.0
491.152802 48.0
492.472534 96.0
492.830353 68.0
493.714417 88.0
493.900146 88.0
494.125763 44.0
494.798462 48.0
497.968933 100.0
499.235504 100.0
503.00473 144.0
504.438599 76.0
504.550354 68.0
506.259552 48.0
506.909088 124.0
507.236267 88.0
507.760834 104.0
510.131561 68.0
511.796143 84.0
514.329712 60.0
516.792603 96.0
517.580139 56.0
518.341125 36.0
518.826111 64.0
520.495728 72.0
520.836304 80.0
522.077087 60.0
523.296509 132.0
523.715454 44.0
529.405945 92.0
531.822021 68.0
532.676086 100.0
534.487427 68.0
535.601562 96.0
537.40863 72.0
537.727051 80.0
539.676453 76.0
540.652466 52.0
543.001282 60.0
544.537415 64.0
544.936951 56.0
546.550293 64.0
546.699219 108.0
547.551147 68.0
547.728149 28.0
548.520264 52.0
549.793518 124.0
551.657104 68.0
553.069763 44.0
554.156189 124.0
559.077148 72.0
560.631165 92.0
562.782104 88.0
563.49054 124.0
565.670654 84.0
567.798035 136.0
568.205933 40.0
568.932068 48.0
569.943665 96.0
570.628052 52.0
570.922852 116.0
571.726868 44.0
573.53186 40.0
573.875122 52.0
575.611877 92.0
576.036926 92.0
576.935364 80.0
578.820374 64.0
579.237061 80.0
580.032471 72.0
580.540649 32.0
580.981934 52.0
581.668152 112.0
585.779419 56.0
589.707031 80.0
590.940125 128.0
592.97876 144.0
593.366577 76.0
596.016541 76.0
597.74762 52.0
600.168396 56.0
601.002502 76.0
601.920105 80.0
603.591248 88.0
608.078491 124.0
610.06781 72.0
610.746338 60.0
611.705872 36.0
612.779419 140.0
614.135071 56.0
614.287964 60.0
616.524536 80.0
616.65802 60.0
619.438721 68.0
619.617065 44.0
621.903015 68.0
627.130432 72.0
627.618958 36.0
627.93811 76.0
630.484192 52.0
634.62384 80.0
636.299561 92.0
643.393005 100.0
645.525208 56.0
647.078491 176.0
649.333435 36.0
650.774536 164.0
656.952881 68.0
659.490662 92.0
662.571106 52.0
662.791443 104.0
665.201843 80.0
665.679321 88.0
665.992554 40.0
666.696411 60.0
667.8172 92.0
669.798828 88.0
670.654114 84.0
672.758667 72.0
672.990967 156.0
673.972351 56.0
679.891052 96.0
680.898193 60.0
683.877258 52.0
697.523865 104.0
698.370361 44.0
699.522705 56.0
701.698425 64.0
702.911499 76.0
703.175354 72.0
704.183777 64.0
705.747925 68.0
706.916931 104.0
713.61615 48.0
717.236084 52.0
721.020142 52.0
721.383545 132.0
727.060974 32.0
730.838562 44.0
733.79541 132.0
734.501892 184.0
734.998169 84.0
735.651245 116.0
739.396912 44.0
743.955322 104.0
754.966858 92.0
756.570007 140.0
759.902039 68.0
763.901428 48.0
773.392151 88.0
775.47467 92.0
781.705627 40.0
782.373535 44.0
785.427185 64.0
792.532593 52.0
795.617188 44.0
798.64032 144.0
799.782532 76.0
808.42865 44.0
809.266418 32.0
810.002625 104.0
811.997681 56.0
813.450195 36.0
814.688171 72.0
823.631348 84.0
825.437256 64.0
832.674988 84.0
834.962341 68.0
837.581116 48.0
839.540649 76.0
845.606628 104.0
846.978821 64.0
847.830505 260.0
848.49707 48.0
849.494507 84.0
858.807007 68.0
881.556824 72.0
882.212891 72.0
883.614441 64.0
887.458191 88.0
888.632568 76.0
891.143921 88.0
891.429138 60.0
900.872559 132.0
907.17981 72.0
909.345093 72.0
911.705322 28.0
915.946899 124.0
918.243286 84.0
923.243713 88.0
925.500793 64.0
925.664246 44.0
926.300171 124.0
935.244202 208.0
937.485413 116.0
949.583923 200.0
952.947815 64.0
955.296204 124.0
959.434448 80.0
964.378784 28.0
965.170105 40.0
970.823547 132.0
975.834412 144.0
975.940125 100.0
984.133362 212.0
988.665222 188.0
989.835815 108.0
989.923462 136.0
995.611206 56.0
997.860657 48.0
998.445435 156.0
1002.58783 64.0
1013.526062 124.0
1014.793701 240.0
1018.112305 36.0
1020.902039 224.0
1022.435181 128.0
1025.536743 52.0
1027.83252 116.0
1028.592041 56.0
1032.61084 260.0
1040.325439 108.0
1041.224365 32.0
1041.513428 156.0
1044.470093 164.0
1052.435425 52.0
1059.109253 152.0
1061.669189 164.0
1067.643677 68.0
1073.863281 236.0
1075.801147 72.0
1076.754395 68.0
1077.878052 96.0
1083.517944 80.0
1084.618774 36.0
1085.274292 248.0
1086.172852 68.0
1086.238403 100.0
1092.169678 132.0
1092.452515 160.0
1098.216064 160.0
1098.921997 84.0
1101.027588 180.0
1102.910522 160.0
1104.821533 124.0
1104.973755 44.0
1107.250732 124.0
1107.49585 180.0
1108.668457 52.0
1111.599487 108.0
1113.039917 76.0
1120.868774 124.0
1122.708618 156.0
1125.170776 180.0
1126.793579 56.0
1127.321411 40.0
1134.234985 92.0
1135.180298 140.0
1138.931763 184.0
1143.026001 40.0
1143.947266 200.0
1145.15332 72.0
1147.45105 240.0
1151.905029 128.0
1155.447266 136.0
1159.272827 108.0
1163.58667 160.0
1164.856567 160.0
1168.350586 68.0
1172.020264 108.0
1172.183838 248.0
1174.556274 176.0
1175.409058 176.0
1177.832642 60.0
1180.074097 148.0
1180.634766 176.0
1183.378662 172.0
1183.652588 96.0
1183.994995 136.0
1188.182983 116.0
1188.711304 136.0
1190.241943 172.0
1192.01416 80.0
1192.240967 124.0
1193.443848 168.0
1195.342285 168.0
1197.283569 140.0
1197.545166 172.0
1198.199585 124.0
1198.509644 160.0
1202.612793 52.0
1203.482666 108.0
1205.245605 148.0
1205.301025 228.0
1206.066284 148.0
1208.445068 60.0
1209.033325 112.0
1211.013306 104.0
1212.419678 124.0
1212.925659 124.0
1213.563477 32.0
1214.54126 232.0
1215.574951 176.0
1217.358887 76.0
1219.185913 64.0
1219.874023 152.0
1222.391602 168.0
1224.542725 120.0
1225.030273 100.0
1225.629517 52.0
1229.325195 168.0
1229.464722 208.0
1229.611206 76.0
1230.225464 188.0
1231.119141 152.0
1231.314697 152.0
1231.559204 112.0
1232.334595 96.0
1233.103271 40.0
1235.64856 148.0
1240.683838 116.0
1241.307861 204.0
1242.11438 120.0
1242.570312 104.0
1242.942139 124.0
1243.012329 104.0
1246.05249 176.0
1246.720093 112.0
1251.094971 200.0
1252.496216 40.0
1254.278931 216.0
1255.935913 176.0
1255.99939 124.0
1256.119263 164.0
1256.225098 172.0
1258.878784 188.0
1258.991821 192.0
1259.344971 140.0
1260.849731 116.0
1261.132446 92.0
1261.987793 84.0
1262.095703 220.0
1263.140503 136.0
1263.281982 152.0
1263.451782 72.0
1263.529663 72.0
1265.235107 88.0
1268.465454 116.0
1270.92627 88.0
1273.140991 116.0
1273.247559 148.0
1273.737549 112.0
1274.526123 44.0
1275.890747 212.0
1277.540527 64.0
1278.444214 140.0
1278.942383 76.0
1280.010254 88.0
1280.22876 172.0
1280.394775 152.0
1281.320801 44.0
1281.783813 220.0
1281.912109 160.0
1282.197144 164.0
1283.024048 164.0
1283.123779 60.0
1284.143555 120.0
1284.728394 196.0
1284.799683 200.0
1288.347778 228.0
1289.44812 192.0
1290.191528 80.0
1290.656128 44.0
1292.189697 184.0
1292.258301 52.0
1293.152832 192.0
1293.274414 212.0
1293.925903 104.0
1294.813721 80.0
1295.207642 116.0
1295.787964 148.0
1296.862793 136.0
1297.507935 268.0
1298.547607 156.0
1299.896362 140.0
1300.728882 120.0
1301.375 36.0
1302.847168 188.0
1303.335815 124.0
1303.414795 104.0
1304.571899 136.0
1304.751587 48.0
1305.592896 48.0
1306.628662 136.0
1306.995605 160.0
1307.110718 152.0
1311.662231 36.0
1312.426392 136.0
1313.652466 112.0
1316.633301 92.0
1317.146118 164.0
1317.723999 180.0
1319.125977 92.0
1319.653809 68.0
1319.870605 192.0
1320.572144 128.0
1321.635498 244.0
1322.605225 164.0
1322.699341 192.0
1324.125732 168.0
1325.704956 80.0
1326.052856 144.0
1326.676147 112.0
1326.813965 172.0
1327.865356 56.0
1331.021973 148.0
1331.414185 132.0
1331.849976 84.0
1331.958862 88.0
1332.314819 144.0
1332.917847 148.0
1334.822266 156.0
1335.324097 164.0
1335.906006 208.0
1336.335205 188.0
1337.60144 248.0
1339.975464 76.0
1340.21582 220.0
1340.376099 68.0
1340.470825 156.0
1340.704102 128.0
1341.418335 136.0
1341.542236 196.0
1341.658936 52.0
1342.789062 164.0
1343.584106 48.0
1343.883301 108.0
1344.824585 40.0
1345.664062 64.0
1347.438843 164.0
1347.891846 204.0
1348.206055 92.0
1348.447144 116.0
1349.806885 156.0
1350.07019 128.0
1350.165283 124.0
1350.238403 140.0
1350.450439 108.0
1351.632446 156.0
1352.528442 160.0
1352.726074 136.0
1355.106079 88.0
1355.611694 172.0
1356.520508 132.0
1357.807983 60.0
1360.019287 112.0
1360.166138 260.0
1360.422974 196.0
1361.384888 112.0
1361.766724 64.0
1362.692261 164.0
1363.037598 140.0
1363.382935 136.0
1364.279663 128.0
1364.411987 160.0
1366.743408 168.0
1367.714844 68.0
1367.781128 188.0
1367.921021 148.0
1368.635132 104.0
1369.209473 152.0
1369.359741 160.0
1369.688232 192.0
1370.019653 136.0
1370.410156 192.0
1374.030029 96.0
1374.109863 176.0
1374.251465 160.0
1374.812256 148.0
1375.395264 208.0
1376.80542 128.0
1376.894043 104.0
1378.016846 172.0
1378.696655 172.0
1379.820068 192.0
1380.130615 144.0
1380.31543 120.0
1381.092041 64.0
1381.180786 152.0
1382.216431 168.0
1382.786255 136.0
1383.496826 76.0
1383.585693 28.0
1383.644897 152.0
1384.073242 140.0
1385.244263 144.0
1385.659302 176.0
1388.120117 164.0
1388.646606 104.0
1389.151001 164.0
1389.974487 96.0
1390.293579 116.0
1390.442017 56.0
1390.716675 152.0
1391.072876 132.0
1394.073486 108.0
1395.626953 48.0
1395.842651 112.0
1395.954102 176.0
1396.511963 128.0
1397.657471 172.0
1397.947754 140.0
1398.513306 68.0
1398.863159 140.0
1399.704468 120.0
1399.883179 52.0
1399.977417 188.0
1402.088257 60.0
1403.049683 168.0
1403.49707 84.0
1404.496338 48.0
1404.94397 132.0
1405.749756 128.0
1406.369141 124.0
1407.675659 152.0
1407.877197 144.0
1408.97522 148.0
1410.20813 84.0
1410.993042 192.0
1412.668091 108.0
1413.072144 240.0
1414.232056 152.0
1415.182739 52.0
1415.295044 128.0
1416.972656 152.0
1417.39978 96.0
1418.044189 200.0
1418.748779 160.0
1418.816284 68.0
1419.221191 192.0
1419.678589 52.0
1419.933472 180.0
1420.308594 240.0
1420.826172 212.0
1422.191772 132.0
1422.637329 136.0
1423.332886 136.0
1423.858521 160.0
1426.548462 152.0
1427.969482 152.0
1428.703003 160.0
1429.022583 204.0
1431.431274 164.0
1431.551758 240.0
1432.485596 120.0
1435.145874 180.0
1435.281616 192.0
1435.937744 152.0
1437.287964 116.0
1438.359619 136.0
1438.669189 168.0
1438.89563 88.0
1438.971069 196.0
1439.220703 204.0
1439.967896 128.0
1442.113525 96.0
1442.76355 120.0
1442.816528 64.0
1443.557495 168.0
1443.61792 84.0
1443.716309 136.0
1444.056641 80.0
1445.062622 132.0
1447.060669 84.0
1447.454468 192.0
1447.961792 152.0
1448.908691 260.0
1449.143555 52.0
1450.954834 208.0
1451.212646 184.0
1451.606934 120.0
1451.902588 164.0
1452.516968 220.0
1453.047974 132.0
1453.776367 148.0
1454.208984 160.0
1454.608643 196.0
1455.552612 116.0
1455.734863 176.0
1458.006226 148.0
1458.38623 128.0
1459.192017 172.0
1460.195801 168.0
1461.134155 216.0
1461.245483 200.0
1461.329224 172.0
1461.488892 176.0
1462.24231 136.0
1462.32605 56.0
1462.40979 88.0
1464.891968 172.0
1465.714844 56.0
1465.83667 140.0
1466.54541 76.0
1467.155273 128.0
1467.605103 140.0
1467.940552 112.0
1468.115967 112.0
1468.459106 220.0
1468.893921 264.0
1469.061768 128.0
1469.962036 132.0
1470.419922 156.0
1470.69458 164.0
1471.221313 88.0
1471.335815 108.0
1471.396851 164.0
1471.480835 168.0
1471.541992 68.0
1471.969604 220.0
1472.114624 132.0
1472.221558 140.0
1472.412476 64.0
1472.572876 120.0
1473.008179 116.0
1473.283203 116.0
1473.374878 172.0
1474.47522 192.0
1476.156982 120.0
1476.432251 72.0
1478.176392 216.0
1478.344727 96.0
1479.094727 132.0
1479.201904 128.0
1479.500488 80.0
1479.554077 184.0
1480.181885 76.0
1481.307739 156.0
1481.537476 80.0
1481.652466 152.0
1482.173462 112.0
1482.832397 152.0
1483.314331 184.0
1483.529907 116.0
1483.86731 128.0
1483.959229 260.0
1484.795044 132.0
1485.531372 188.0
1486.336914 116.0
1486.413696 132.0
1486.58252 96.0
1486.920166 244.0
1487.363525 140.0
1487.547363 184.0
1487.726074 152.0
1488.148315 192.0
1488.217407 148.0
1489.23877 200.0
1489.300171 124.0
1489.730347 256.0
1490.736816 176.0
1491.205688 168.0
1491.492676 248.0
1491.613037 160.0
1492.389404 132.0
1492.796997 208.0
1493.458374 164.0
1493.627563 192.0
1493.896851 192.0
1494.358398 140.0
1494.789307 104.0
1494.966309 160.0
1495.959106 172.0
1496.428711 184.0
1496.767456 200.0
1497.092896 204.0
1497.244995 148.0
1497.838013 92.0
1498.569824 128.0
1499.765015 192.0
1499.840332 152.0
1500.720215 156.0
1500.812744 180.0
1501.369873 196.0
1501.591553 76.0
1501.768921 188.0
1502.254883 56.0
1502.748657 200.0
1503.581909 100.0
1503.653076 200.0
1504.060547 144.0
1504.515869 140.0
1504.60083 116.0
1504.778442 164.0
1505.038818 180.0
