>compound MLS000859887-01!(S)-()-Propranolol hydrochloride
>formula C16H21NO2
>ionization [M+H]+
>parentmass 260.165344
#inchi InChI=1S/C16H21NO2/c1-12(2)17-10-14(18)11-19-16-9-5-7-13-6-3-4-8-15(13)16/h3-9,12,14,17-18H,10-11H2,1-2H3/t14-/m0/s1
#inchikey AQHHHDLHHXJYJD
#origInchi InChI=1S/C16H21NO2.ClH/c1-12(2)17-10-14(18)11-19-16-9-5-7-13-6-3-4-8-15(13)16;/h3-9,12,14,17-18H,10-11H2,1-2H3;1H/t14-;/m0./s1
#Ion_Source LC-ESI
#Instrument qTof
#Compound_Source NIH Pharmacologically Active Library
#PI Dorrestein
#Data_Collector VP/LMS
#Scan -1
#Precursor_MZ 260.167
#ExactMass 259.157
#Charge 1
#CAS_Number N/A
#Pubmed_ID N/A
#Smiles CC(C)NC[C@H](O)COc1cccc2ccccc12.Cl
#INCHI_AUX N/A
#Library_Class 1
#SpectrumID CCMSLIB00000085986
#IonMode Positive
#UpdateWorkflowName UPDATE-SINGLE-ANNOTATED-GOLD
#LibraryQualityString Gold
#TaskID d252d724072548979f1f6f1ced849daf
##Scan# 1538
#SpectrumFile p5-A02_GA2_01_18431.mzXML
#LibraryName Pharm_Active_Library.mgf
#MQScore -1
#Organism Pharm_Active_Library
#TIC_Query 0
#RT_Query -1
#MZErrorPPM -1
#SharedPeaks 0
#MassDiff 0
#LibMZ -1
#SpecMZ 260.167
#SpecCharge 0
#internalFilename spec-00000.mgf

>collision 10
44.923454 220.0
44.960812 208.0
45.056953 156.0
45.101051 172.0
45.198677 104.0
45.295071 108.0
45.320522 124.0
45.449245 192.0
45.506958 228.0
45.655548 200.0
45.678978 132.0
45.703194 124.0
45.743568 156.0
46.18433 136.0
46.275478 104.0
46.306622 220.0
46.368946 44.0
46.497787 176.0
46.514072 76.0
46.537151 156.0
46.549374 208.0
46.664867 48.0
46.679825 228.0
46.723351 140.0
46.734234 212.0
46.765533 168.0
46.784592 172.0
46.836334 168.0
46.851318 236.0
46.88266 164.0
46.899014 212.0
47.003624 204.0
47.044968 88.0
47.05862 136.0
47.125546 68.0
47.307438 220.0
47.364952 132.0
47.443062 188.0
47.502029 44.0
47.569267 144.0
47.679581 156.0
47.701141 156.0
47.743774 232.0
47.76577 92.0
47.811172 192.0
47.882492 180.0
47.895157 164.0
47.936489 84.0
48.175182 244.0
48.226307 124.0
48.318958 188.0
48.3494 80.0
48.42416 180.0
48.469875 228.0
48.498978 188.0
48.519772 180.0
48.659119 236.0
48.733505 100.0
48.921257 120.0
49.027115 128.0
49.042446 152.0
49.056385 216.0
49.155407 140.0
49.243359 160.0
49.279678 188.0
49.336979 180.0
49.499279 164.0
49.548302 360.0
49.576324 160.0
49.647823 140.0
49.670261 184.0
49.782543 124.0
49.837326 84.0
49.880253 196.0
49.904793 160.0
50.010296 216.0
50.12719 224.0
50.289371 176.0
50.340195 220.0
50.354469 184.0
50.396694 208.0
50.448986 176.0
50.669758 120.0
50.688179 28.0
50.698097 104.0
50.785999 176.0
50.807278 152.0
50.865459 212.0
50.923676 184.0
50.950665 128.0
50.971977 136.0
51.067226 116.0
51.13979 160.0
51.307877 128.0
51.322132 160.0
51.397732 116.0
51.409145 108.0
51.52766 140.0
51.587681 168.0
51.670628 180.0
51.713558 228.0
51.79517 204.0
51.954288 156.0
52.130894 188.0
52.359631 160.0
52.382675 160.0
52.412933 164.0
52.443195 328.0
52.50375 156.0
52.875408 172.0
52.914288 172.0
52.972046 140.0
53.054649 248.0
53.072048 72.0
53.087997 196.0
53.170689 152.0
53.292801 172.0
53.398785 176.0
53.490452 140.0
53.62154 148.0
53.777599 184.0
53.790737 180.0
53.907692 152.0
53.958939 144.0
54.020157 128.0
54.03186 168.0
54.052345 252.0
54.185585 232.0
54.336594 140.0
54.351265 68.0
54.397751 160.0
54.481934 132.0
54.493687 56.0
54.508381 124.0
54.577465 116.0
54.61129 120.0
54.623055 160.0
54.742271 140.0
54.795296 204.0
54.961906 116.0
54.981087 68.0
55.048996 100.0
55.068195 116.0
55.093307 44.0
55.150936 184.0
55.164238 164.0
55.176064 64.0
55.264805 104.0
55.30772 176.0
55.331715 192.0
55.380272 180.0
55.415386 228.0
55.461765 112.0
55.491413 40.0
55.510693 176.0
55.521072 100.0
55.673927 76.0
55.75861 200.0
55.804691 148.0
55.887981 140.0
55.954956 164.0
56.020485 228.0
56.053261 56.0
56.135246 112.0
56.172535 188.0
56.245651 188.0
56.330765 160.0
56.362141 176.0
56.399502 196.0
56.478748 168.0
56.713825 108.0
56.973427 196.0
57.018505 148.0
57.171902 192.0
57.305916 232.0
57.345097 104.0
57.447102 228.0
57.520061 132.0
57.662041 168.0
57.690762 152.0
57.730072 160.0
57.740658 148.0
57.879879 112.0
57.901081 176.0
58.093578 120.0
58.107231 72.0
58.269684 132.0
58.333511 164.0
58.436924 212.0
58.483593 200.0
58.592216 220.0
58.750767 112.0
58.784332 136.0
58.923279 128.0
58.940403 96.0
59.056271 148.0
59.123589 212.0
59.163383 128.0
59.203194 160.0
59.301247 188.0
59.569767 68.0
59.711174 188.0
59.734245 200.0
59.768093 180.0
59.820419 160.0
60.043571 140.0
60.110172 168.0
60.213604 156.0
60.266125 72.0
60.30785 196.0
60.321762 148.0
60.34959 152.0
60.468704 136.0
60.530624 168.0
60.560051 200.0
60.596737 176.0
60.612724 224.0
60.652679 184.0
60.825195 28.0
60.854691 160.0
60.923027 84.0
60.98032 156.0
61.036484 60.0
61.221661 208.0
61.399323 216.0
61.539761 168.0
61.567867 180.0
61.724136 148.0
61.840313 76.0
61.868076 156.0
61.896259 80.0
61.996113 172.0
62.067055 164.0
62.368477 160.0
62.412498 216.0
62.510021 216.0
62.736824 216.0
62.973515 144.0
63.107838 140.0
63.183754 140.0
63.256546 236.0
63.30563 132.0
63.323685 180.0
63.395924 36.0
63.452988 208.0
63.503731 224.0
63.559254 52.0
63.826107 140.0
63.908817 228.0
64.200325 176.0
64.222649 148.0
64.403015 148.0
64.428574 68.0
64.686035 176.0
64.770905 152.0
64.860153 160.0
64.864868 112.0
64.871078 232.0
64.90873 124.0
64.952034 128.0
64.992142 168.0
65.070786 272.0
65.110931 132.0
65.157509 220.0
65.178398 160.0
65.189644 156.0
65.287712 120.0
65.472778 172.0
65.50499 164.0
65.608635 292.0
65.758141 156.0
65.808182 204.0
65.890549 60.0
65.90509 152.0
65.943878 140.0
65.958427 160.0
65.976204 156.0
66.110458 212.0
66.14444 184.0
66.25119 228.0
66.317123 88.0
66.356659 188.0
66.517639 208.0
66.546486 132.0
66.642319 104.0
66.653687 168.0
66.678062 168.0
66.689445 124.0
66.772362 160.0
66.855331 100.0
67.132271 76.0
67.318306 180.0
67.346069 100.0
67.377106 232.0
67.455544 176.0
67.588013 180.0
67.705879 224.0
67.743553 136.0
67.895981 172.0
67.953392 192.0
68.056801 192.0
68.089638 192.0
68.119202 188.0
68.223763 224.0
68.230484 140.0
68.232986 184.0
68.304955 72.0
68.318115 164.0
68.342789 168.0
68.408623 48.0
68.434967 196.0
68.462959 168.0
68.537086 132.0
68.599709 192.0
68.626091 364.0
68.730003 204.0
68.794365 220.0
68.812531 164.0
68.97773 200.0
69.176231 192.0
69.381653 156.0
69.579071 116.0
69.68869 180.0
69.83165 176.0
69.855118 184.0
70.018051 160.0
70.091347 208.0
70.25808 168.0
70.366554 120.0
70.409973 132.0
70.466286 168.0
70.520241 168.0
70.665802 168.0
70.714256 148.0
70.873344 148.0
71.05442 108.0
71.146721 164.0
71.466049 200.0
71.477829 216.0
71.659676 212.0
71.829941 164.0
71.841751 128.0
71.863678 120.0
71.892365 192.0
72.027435 116.0
72.039261 196.0
72.187996 192.0
72.204903 104.0
72.237045 164.0
72.299644 164.0
72.358887 180.0
72.573486 176.0
72.626633 56.0
72.714859 212.0
72.752205 236.0
72.794647 152.0
72.969666 168.0
73.001968 220.0
73.069351 208.0
73.122757 136.0
73.354401 176.0
73.593246 128.0
73.646187 180.0
73.740959 184.0
73.799988 168.0
73.82222 172.0
73.898323 156.0
73.996742 220.0
74.35157 92.0
74.559372 148.0
74.619537 144.0
74.643608 228.0
74.852676 176.0
74.887138 240.0
74.959892 184.0
74.97757 220.0
75.063766 164.0
75.084465 136.0
75.112061 208.0
75.156914 76.0
75.188553 180.0
75.205231 100.0
75.512779 156.0
75.66851 144.0
75.697952 168.0
75.758568 152.0
76.327843 96.0
76.460052 196.0
76.696922 220.0
76.740501 88.0
76.871323 68.0
77.054665 124.0
77.079124 168.0
77.201485 200.0
77.232971 180.0
77.375847 136.0
77.428993 176.0
77.577927 192.0
77.825302 200.0
77.876228 160.0
77.892036 168.0
77.9711 40.0
78.11528 100.0
78.152229 144.0
78.585625 204.0
78.65625 200.0
78.822617 100.0
78.84877 196.0
79.045067 36.0
79.09816 64.0
79.122948 160.0
79.362129 180.0
79.48629 152.0
79.614105 128.0
79.733795 192.0
80.144882 208.0
80.194092 140.0
80.208351 128.0
80.324257 104.0
80.422394 132.0
80.556313 204.0
80.588951 148.0
80.774399 144.0
80.926514 200.0
81.185066 244.0
81.198891 156.0
81.504066 36.0
82.044006 196.0
82.072853 184.0
82.126961 148.0
82.182884 140.0
82.390503 168.0
82.596588 196.0
82.714203 88.0
82.802917 204.0
82.817413 212.0
82.830086 156.0
82.9515 156.0
83.016151 236.0
83.136497 220.0
83.316254 176.0
83.376213 144.0
83.508934 184.0
83.650864 168.0
83.672707 172.0
83.794731 136.0
83.889496 128.0
83.92778 160.0
84.117516 148.0
84.534225 212.0
84.642227 204.0
84.699417 228.0
84.744797 364.0
84.786949 184.0
84.854767 120.0
85.102455 140.0
85.405678 68.0
85.605965 160.0
85.646805 144.0
85.726021 192.0
85.766571 188.0
85.845848 200.0
85.875351 184.0
85.893799 192.0
85.914093 220.0
85.954681 44.0
85.974976 184.0
86.111595 164.0
86.322273 220.0
86.56469 216.0
86.623955 148.0
86.636925 140.0
86.705482 196.0
86.740692 44.0
86.93544 136.0
86.968842 104.0
87.355339 124.0
87.372086 56.0
87.738968 172.0
87.765068 164.0
87.800499 116.0
87.914299 92.0
87.985222 172.0
88.140244 132.0
88.22171 164.0
88.375839 172.0
88.600838 204.0
88.667969 172.0
88.73732 112.0
88.791702 124.0
88.836716 160.0
88.890137 220.0
89.107056 124.0
89.155914 160.0
89.219818 160.0
89.33902 228.0
89.400383 176.0
89.636986 152.0
89.713051 208.0
89.892227 48.0
90.214165 248.0
90.273811 184.0
90.325478 100.0
90.340012 180.0
90.56337 220.0
90.605042 132.0
90.872368 160.0
90.885643 44.0
90.929459 180.0
91.020416 44.0
91.049881 176.0
91.202797 80.0
91.237984 192.0
91.429123 192.0
91.581436 188.0
91.615723 144.0
91.63858 136.0
91.672882 244.0
91.922684 204.0
92.021942 152.0
92.222519 92.0
92.262665 172.0
92.327675 120.0
92.708641 172.0
92.772034 220.0
92.889328 200.0
92.946419 96.0
93.011673 104.0
93.059669 164.0
93.192192 40.0
93.213326 120.0
93.324814 212.0
93.451759 120.0
93.540283 68.0
93.621147 160.0
93.665443 200.0
93.890953 148.0
93.946884 208.0
94.181297 220.0
94.296379 172.0
94.385307 180.0
94.48201 180.0
94.509102 184.0
94.571022 192.0
94.619415 400.0
94.818932 176.0
95.006058 364.0
95.187523 172.0
95.358475 80.0
95.531532 208.0
95.641022 164.0
95.765114 188.0
95.878113 148.0
95.92099 192.0
96.020432 100.0
96.059441 212.0
96.196037 184.0
96.29834 184.0
96.328827 172.0
96.363419 48.0
96.4617 108.0
96.676849 72.0
96.704247 100.0
96.857239 204.0
97.023537 156.0
97.412094 176.0
97.468803 204.0
97.614532 148.0
97.785683 268.0
97.836861 220.0
97.884117 160.0
97.90184 156.0
97.945168 148.0
97.962898 168.0
98.075722 140.0
98.09787 1016.0
98.126068 156.0
98.149704 56.0
98.264526 156.0
98.408295 204.0
98.527992 116.0
98.590332 188.0
98.651604 196.0
98.768272 96.0
98.792015 140.0
98.922615 148.0
99.041428 140.0
99.065384 172.0
99.099426 172.0
99.245544 92.0
99.277275 180.0
99.346695 124.0
99.433998 108.0
99.449875 116.0
99.475685 108.0
99.533257 160.0
99.574959 96.0
99.755775 56.0
99.851212 40.0
99.890999 224.0
99.914871 124.0
99.974564 128.0
100.048203 128.0
100.071922 92.0
100.114151 2244.0
100.147766 176.0
100.193932 228.0
100.450745 52.0
100.570465 64.0
100.610825 184.0
100.651955 260.0
100.732208 204.0
100.78215 100.0
100.838104 96.0
100.96006 216.0
101.036758 196.0
101.116104 188.0
101.20018 196.0
101.250244 132.0
101.388474 128.0
101.516777 188.0
101.727448 116.0
101.851944 140.0
102.022751 160.0
102.048294 204.0
102.096313 184.0
102.394997 120.0
102.408226 152.0
102.493706 156.0
102.562225 120.0
102.739677 88.0
102.759857 128.0
102.911232 172.0
103.008163 156.0
103.055336 4344.0
103.123878 60.0
103.224419 96.0
103.252731 80.0
103.285622 216.0
103.315437 188.0
103.487465 52.0
103.558014 220.0
103.771118 48.0
103.88063 204.0
103.896858 164.0
103.963821 128.0
103.984116 52.0
104.059975 520.0
104.144508 120.0
104.165001 184.0
104.217644 140.0
104.384323 240.0
104.555199 52.0
104.608124 160.0
104.705856 204.0
104.824013 188.0
104.948349 120.0
105.035263 252.0
105.170708 240.0
105.285042 176.0
105.315681 116.0
105.372879 176.0
105.403526 136.0
105.652573 188.0
105.728668 48.0
105.779839 176.0
106.107613 124.0
106.140419 188.0
106.162979 144.0
106.194672 212.0
106.259384 212.0
106.40715 240.0
106.645439 32.0
106.83873 168.0
106.894287 152.0
107.353661 136.0
107.390778 236.0
108.13665 216.0
108.242226 120.0
108.325073 132.0
108.43074 140.0
108.685806 136.0
108.712784 264.0
109.013893 60.0
109.207245 188.0
109.22596 152.0
109.369537 144.0
109.484047 116.0
109.509033 148.0
109.588196 192.0
109.646545 120.0
109.667381 100.0
109.748688 212.0
109.894691 144.0
110.08255 64.0
110.130585 216.0
110.191399 140.0
110.260757 184.0
110.471474 224.0
110.496407 72.0
110.531975 148.0
110.57592 176.0
110.613594 116.0
110.640808 156.0
110.716187 208.0
110.747604 208.0
110.902657 216.0
110.929901 148.0
110.976028 204.0
110.9907 60.0
111.10186 172.0
111.183693 212.0
111.30545 80.0
111.332748 124.0
111.357948 180.0
111.427269 116.0
111.513428 196.0
111.565979 184.0
111.877289 212.0
111.913116 260.0
112.18911 144.0
112.224953 172.0
112.311409 228.0
112.328285 168.0
112.391579 144.0
112.454887 188.0
112.494995 232.0
112.541435 168.0
112.824547 240.0
112.932884 224.0
113.300713 164.0
113.516907 160.0
113.585243 180.0
113.775131 148.0
113.888306 136.0
113.928665 160.0
113.97541 204.0
113.99453 28.0
114.12632 192.0
114.431114 204.0
114.628662 168.0
114.662758 220.0
114.786407 160.0
114.822655 184.0
115.055443 10496.0
115.217545 124.0
115.253426 168.0
115.339355 40.0
115.504845 212.0
115.581017 68.0
115.799377 184.0
115.947205 192.0
116.060089 1088.0
116.10759 5316.0
116.138016 140.0
116.198082 40.0
116.241615 208.0
116.277481 172.0
116.405594 212.0
116.471016 144.0
116.489418 68.0
116.594551 88.0
116.646912 124.0
116.715714 136.0
116.775925 68.0
116.88134 132.0
116.911461 180.0
116.952354 200.0
116.981361 152.0
117.008324 128.0
117.036316 40.0
117.069794 2328.0
117.112289 348.0
117.130325 184.0
117.191391 204.0
117.245262 144.0
117.322861 164.0
117.419891 92.0
117.478127 140.0
117.551483 152.0
117.745781 64.0
118.020218 104.0
118.074432 208.0
118.108887 164.0
118.124023 180.0
118.344772 168.0
118.398903 88.0
118.57222 172.0
118.770996 136.0
119.286324 188.0
119.30806 88.0
119.501625 152.0
119.743248 140.0
119.873962 100.0
119.937164 140.0
120.017822 180.0
120.209778 160.0
120.262154 148.0
120.292717 148.0
121.029488 160.0
121.117081 196.0
121.237587 100.0
121.257309 188.0
121.307724 220.0
121.522644 136.0
121.586281 144.0
121.748734 168.0
121.84758 136.0
121.880539 164.0
122.029999 196.0
122.082771 124.0
122.190552 164.0
122.430473 128.0
122.52739 160.0
122.752213 180.0
123.137154 176.0
123.317375 216.0
123.629204 160.0
123.657974 144.0
123.697815 120.0
123.81517 228.0
123.881615 184.0
123.990189 188.0
124.067764 88.0
124.298431 204.0
124.827103 200.0
124.878258 180.0
124.944992 240.0
125.069603 152.0
125.176468 144.0
125.33239 92.0
125.521858 140.0
125.579636 176.0
125.898987 60.0
126.046989 524.0
126.172417 204.0
126.22525 92.0
126.256554 48.0
126.27668 200.0
126.397484 148.0
126.569839 128.0
126.648224 164.0
126.668381 96.0
126.843163 124.0
126.946297 176.0
127.019241 160.0
127.054817 6040.0
127.081909 192.0
127.121269 48.0
127.142967 80.0
127.188599 132.0
127.257355 268.0
127.291428 60.0
127.334541 48.0
127.379463 132.0
127.404175 160.0
127.419899 28.0
127.709381 180.0
127.809601 172.0
127.853508 244.0
127.878632 128.0
127.912392 60.0
127.961922 52.0
127.982185 156.0
127.997948 120.0
128.027222 164.0
128.062805 17088.0
128.108307 296.0
128.140732 112.0
128.173645 184.0
128.191254 56.0
128.20462 184.0
128.232452 168.0
128.254776 60.0
128.32135 164.0
128.349457 36.0
128.394562 200.0
128.440735 76.0
128.482529 116.0
128.527649 188.0
128.561508 56.0
128.685654 80.0
128.769196 84.0
128.824081 148.0
128.920563 32.0
128.952209 84.0
128.986115 176.0
129.02002 268.0
129.070938 26216.0
129.141479 56.0
129.20372 52.0
129.223557 88.0
129.248108 232.0
129.313461 176.0
129.357086 220.0
129.420761 32.0
129.45134 76.0
129.472565 56.0
129.560898 48.0
129.603943 60.0
129.730865 212.0
129.76033 176.0
129.934967 148.0
129.968994 220.0
130.074356 2348.0
130.098358 204.0
130.160843 92.0
130.202805 52.0
130.307297 108.0
130.343658 60.0
130.564163 52.0
130.693817 148.0
130.803055 76.0
130.821274 140.0
130.855423 88.0
130.914017 104.0
130.946503 96.0
131.008011 168.0
131.048126 344.0
131.071503 212.0
131.103699 164.0
131.167526 112.0
131.379593 96.0
131.891098 144.0
132.055725 164.0
132.135788 64.0
132.261658 204.0
132.465439 160.0
132.559387 36.0
132.717545 132.0
132.94693 176.0
133.0112 148.0
133.05481 172.0
133.100723 132.0
133.236237 136.0
133.323547 52.0
133.482178 136.0
133.603027 168.0
133.74675 188.0
133.790482 144.0
133.921738 156.0
133.956284 128.0
134.138321 60.0
134.202286 188.0
134.244385 112.0
134.458923 120.0
134.590515 220.0
134.678268 80.0
134.745255 72.0
134.80072 64.0
135.098969 36.0
135.133682 232.0
135.58522 196.0
135.87738 176.0
135.940033 208.0
136.286011 76.0
136.671051 208.0
136.825592 148.0
137.226318 184.0
137.364471 168.0
137.436234 188.0
137.515579 140.0
137.538925 184.0
137.728058 228.0
137.880585 168.0
138.055252 40.0
138.127762 192.0
138.352402 92.0
138.76709 220.0
139.056259 160.0
139.217606 164.0
139.513657 156.0
140.063171 812.0
140.274017 156.0
140.35321 204.0
140.453232 144.0
140.535797 80.0
140.639633 164.0
140.698639 200.0
140.741135 124.0
141.070053 5356.0
141.121246 156.0
141.145187 144.0
141.284729 152.0
141.421982 136.0
141.440918 124.0
142.071091 604.0
142.313324 220.0
142.600769 100.0
142.814758 208.0
142.978912 148.0
143.049133 1044.0
143.080902 284.0
143.298004 76.0
143.328979 124.0
143.348038 64.0
143.414764 156.0
143.479126 180.0
143.495819 156.0
143.734329 208.0
143.925293 152.0
144.058121 1172.0
144.085312 188.0
144.14743 88.0
144.238251 48.0
144.298019 88.0
144.343445 260.0
144.362579 108.0
144.503693 144.0
144.604202 64.0
144.810104 40.0
144.917908 64.0
145.031891 128.0
145.040634 188.0
145.065903 7316.0
145.123688 172.0
145.176788 88.0
145.193573 116.0
145.230927 92.0
145.306305 108.0
145.354294 192.0
145.452698 112.0
145.664001 88.0
145.692825 140.0
145.781738 52.0
145.94519 356.0
146.066895 1536.0
146.291626 148.0
146.396072 252.0
146.467407 40.0
146.546921 152.0
147.06897 160.0
147.212662 128.0
147.749237 48.0
147.826675 44.0
147.988846 132.0
148.223801 124.0
148.497742 192.0
148.839905 152.0
148.893341 220.0
149.211655 148.0
149.318649 172.0
149.669067 88.0
149.705597 156.0
149.893158 64.0
149.934586 168.0
150.041885 212.0
150.151566 152.0
150.21254 184.0
150.246689 152.0
150.437042 60.0
150.761902 160.0
150.825439 148.0
150.994141 160.0
151.021042 80.0
151.053192 240.0
151.246155 204.0
151.428696 224.0
151.711578 196.0
152.062241 1944.0
152.104065 296.0
152.202271 124.0
152.228302 172.0
152.374191 180.0
152.701126 148.0
152.725723 220.0
152.779846 164.0
152.831512 244.0
152.869873 196.0
152.917633 160.0
152.954559 104.0
152.9841 248.0
153.070694 12704.0
153.122375 216.0
153.176178 32.0
153.200806 128.0
153.22052 132.0
153.342575 52.0
153.521225 108.0
153.550812 92.0
153.617416 40.0
153.718567 68.0
153.809891 48.0
153.928391 116.0
153.975311 160.0
154.017303 140.0
154.078064 7224.0
154.150711 52.0
154.170486 80.0
154.224854 72.0
154.261932 60.0
154.307159 164.0
154.342743 64.0
154.521591 132.0
154.610672 96.0
154.632614 200.0
154.675034 204.0
154.709686 96.0
154.754242 192.0
154.773148 164.0
154.817551 156.0
154.897217 176.0
154.907715 128.0
154.910904 172.0
154.950577 120.0
154.977158 196.0
155.012955 72.0
155.060501 5552.0
155.0867 30176.0
155.165588 176.0
155.227203 96.0
155.266479 180.0
155.294174 100.0
155.344086 60.0
155.385498 184.0
155.431198 84.0
155.463181 76.0
155.505371 100.0
155.599701 96.0
155.62204 60.0
155.644379 48.0
155.717407 108.0
155.87291 76.0
155.940887 148.0
155.979782 148.0
156.06041 1012.0
156.090546 2996.0
156.136414 32.0
156.164124 232.0
156.216003 72.0
156.240891 44.0
156.270966 88.0
156.415085 132.0
156.452423 40.0
156.469849 212.0
156.54953 52.0
156.661606 68.0
156.694 104.0
156.718903 152.0
156.781204 92.0
156.813599 140.0
156.858475 64.0
156.908325 160.0
156.948227 204.0
156.965195 116.0
157.015549 168.0
157.065887 16612.0
157.13623 204.0
157.236572 128.0
157.297501 136.0
157.336349 88.0
157.373672 132.0
157.460098 64.0
157.507355 92.0
157.537216 64.0
157.588821 104.0
157.644653 96.0
157.677139 56.0
157.759628 56.0
157.817123 64.0
158.069336 2436.0
158.212433 40.0
158.407761 84.0
158.425293 76.0
158.487656 184.0
158.529434 92.0
158.58316 196.0
158.695969 132.0
158.756134 56.0
158.956818 80.0
159.009521 88.0
159.075287 140.0
159.127502 68.0
159.215393 76.0
159.250549 116.0
159.340988 148.0
159.391235 124.0
159.5345 48.0
159.78598 32.0
159.816177 68.0
159.879074 64.0
159.929413 176.0
160.183731 40.0
160.208923 148.0
160.352554 124.0
160.975677 56.0
161.033752 108.0
161.166702 96.0
161.304123 112.0
161.534225 116.0
161.78476 116.0
162.857376 108.0
163.080963 48.0
163.114014 48.0
163.538788 32.0
163.696625 120.0
163.887665 164.0
163.941177 112.0
164.025284 108.0
164.059601 172.0
164.668274 212.0
164.829208 164.0
164.857315 228.0
164.949326 208.0
164.987671 48.0
165.018356 196.0
165.070999 13444.0
165.111084 136.0
165.460388 88.0
165.565948 128.0
165.691452 48.0
165.837524 44.0
166.046524 116.0
166.073593 1228.0
166.145233 48.0
166.215057 92.0
166.247864 80.0
166.268402 64.0
166.304321 132.0
166.481476 68.0
166.584213 116.0
166.810349 64.0
167.077225 356.0
167.116379 112.0
167.19101 80.0
167.218063 140.0
167.335159 64.0
167.360901 48.0
167.396942 80.0
167.595291 100.0
167.64682 120.0
167.688065 172.0
167.819534 104.0
167.896881 128.0
167.984589 120.0
168.058548 4308.0
168.11972 32.0
168.265869 72.0
168.294281 64.0
168.772278 56.0
169.063904 544.0
169.126694 28.0
169.2173 48.0
169.305344 72.0
169.948212 44.0
170.067108 332.0
170.161026 80.0
170.392181 132.0
170.558487 88.0
171.081329 1228.0
171.12561 104.0
171.529404 136.0
172.080276 220.0
172.8797 160.0
173.085083 160.0
173.505707 52.0
173.836197 172.0
173.891312 68.0
174.613815 148.0
175.298279 88.0
175.957687 224.0
176.665955 80.0
177.293472 220.0
178.123917 160.0
180.084335 168.0
180.164474 140.0
180.709869 152.0
181.067917 1212.0
181.371323 188.0
181.441025 184.0
181.494644 140.0
181.800446 48.0
181.840698 224.0
182.012512 148.0
182.042038 184.0
182.072693 1492.0
182.111877 156.0
182.638687 208.0
182.867386 56.0
183.023529 112.0
183.080719 10540.0
183.125854 184.0
183.24707 84.0
183.309052 84.0
183.344086 88.0
183.376419 52.0
183.435715 124.0
183.697296 64.0
183.732361 48.0
183.840286 76.0
184.084991 1772.0
184.258804 88.0
184.380402 80.0
184.926727 84.0
185.096069 268.0
185.360031 76.0
185.387131 120.0
185.406097 84.0
185.763992 80.0
185.972931 44.0
186.103989 264.0
186.247162 76.0
186.461807 132.0
187.705902 88.0
189.260666 80.0
189.773041 96.0
191.845978 92.0
192.092896 200.0
193.078857 200.0
196.053986 208.0
196.521973 76.0
198.08194 184.0
198.435043 60.0
198.93161 128.0
201.098999 36.0
203.547821 72.0
211.344681 112.0
212.141129 132.0
214.195587 36.0
216.939514 144.0
218.121811 900.0
219.114227 176.0
221.003815 84.0
225.123749 160.0
227.783356 40.0
233.024857 204.0
233.201111 60.0
234.369675 100.0
237.012726 120.0
237.306961 92.0
239.565826 40.0
239.621277 32.0
240.083649 68.0
240.401382 108.0
241.198212 96.0
241.686844 72.0
244.184067 112.0
248.435287 248.0
249.79863 96.0
251.361328 156.0
252.10025 164.0
253.397568 40.0
253.841309 36.0
258.520905 76.0
260.065674 168.0
260.165344 1592.0
260.608368 60.0
261.164429 264.0
262.172241 172.0
264.067322 108.0
264.827942 104.0
269.035675 124.0
272.885193 196.0
273.632019 72.0
276.196136 92.0
301.540192 56.0
302.629852 36.0
311.098389 124.0
319.555664 92.0
326.988098 48.0
349.559845 84.0
360.464722 52.0
367.16507 92.0
379.043976 48.0
381.232605 92.0
393.208832 68.0
401.424835 80.0
432.303131 100.0
432.543182 84.0
437.978577 84.0
446.088043 84.0
446.575806 68.0
452.445465 92.0
457.318573 68.0
459.730774 68.0
480.560516 140.0
480.817993 60.0
490.458405 80.0
514.174438 92.0
522.402832 136.0
523.531616 40.0
531.8526 84.0
544.313171 76.0
574.403503 80.0
574.75177 80.0
575.214722 80.0
588.242798 176.0
664.576172 152.0
697.424988 120.0
697.65625 208.0
704.845215 92.0
719.104187 180.0
726.499084 116.0
727.733459 124.0
728.356384 160.0
731.970459 120.0
747.370178 192.0
761.951965 240.0
775.598938 112.0
808.834778 80.0
810.668396 184.0
811.478943 136.0
816.350769 220.0
816.538452 260.0
818.069031 84.0
818.723816 232.0
827.397217 212.0
834.292969 240.0
840.195862 176.0
840.824768 64.0
849.619934 160.0
853.424072 136.0
862.331482 132.0
863.477417 168.0
874.513428 128.0
879.6297 192.0
901.367004 100.0
905.949951 136.0
910.310364 188.0
912.479431 124.0
917.325623 108.0
925.112244 168.0
926.511169 156.0
932.500244 244.0
935.389343 160.0
941.254333 48.0
944.438354 200.0
945.356079 220.0
947.640015 200.0
948.712524 180.0
955.670898 172.0
958.983948 176.0
962.420044 188.0
964.965576 216.0
971.803284 184.0
974.92041 40.0
976.294312 212.0
981.151001 188.0
984.10199 60.0
986.644775 68.0
987.701599 172.0
988.383545 156.0
993.502258 84.0
994.820068 192.0
998.024231 164.0
1001.472778 244.0
1003.937012 164.0
1004.801147 176.0
1008.558472 88.0
1015.421814 144.0
1024.333008 188.0
1028.592529 52.0
1029.47998 108.0
1034.198242 124.0
1034.883179 160.0
1034.9729 200.0
1036.47168 148.0
1038.407715 172.0
1044.863281 172.0
1046.39502 160.0
1047.869873 136.0
1049.803589 108.0
1050.306641 248.0
1052.739868 156.0
1056.954468 196.0
1059.835815 184.0
1060.957031 224.0
1064.350342 136.0
1067.01416 168.0
1067.905029 220.0
1070.091553 140.0
1071.88916 148.0
1077.363281 244.0
1078.428345 104.0
1078.735596 60.0
1079.00354 176.0
1081.358398 184.0
1081.607178 196.0
1083.211426 192.0
1090.331543 112.0
1091.059937 176.0
1091.467651 128.0
1092.210693 164.0
1092.598877 104.0
1093.033081 140.0
1093.724121 144.0
1095.390015 232.0
1095.752319 48.0
1096.092651 156.0
1096.477173 148.0
1096.866089 208.0
1099.174316 184.0
1099.385498 220.0
1099.887085 172.0
1100.864258 180.0
1102.568604 172.0
1106.352051 232.0
1110.917969 136.0
1115.393677 184.0
1116.264526 196.0
1118.127319 236.0
1118.819458 176.0
1120.406738 140.0
1122.910767 132.0
1123.291016 244.0
1123.411133 112.0
1123.864746 172.0
1125.012695 172.0
1125.86731 384.0
1126.515137 200.0
1127.60437 152.0
1129.937988 160.0
1131.905762 48.0
1132.990845 240.0
1134.679688 168.0
1135.008179 164.0
1135.222778 196.0
1137.698608 168.0
1138.249146 160.0
1139.45813 168.0
1141.979004 176.0
1143.391846 144.0
1144.313965 180.0
1149.584961 144.0
1152.610229 148.0
1153.441406 184.0
1153.874146 184.0
1157.961182 188.0
1158.144043 200.0
1158.421753 48.0
1159.939697 172.0
1161.689209 208.0
1161.885986 140.0
1164.17334 208.0
1167.557617 140.0
1169.728027 148.0
1170.510986 164.0
1170.967285 92.0
1171.23291 132.0
1173.495361 176.0
1175.807861 84.0
1177.11853 196.0
1178.307007 240.0
1179.878906 212.0
1180.15918 136.0
1182.765625 224.0
1183.559814 196.0
1186.259155 144.0
1187.575684 96.0
1187.7677 192.0
1188.989014 224.0
1189.46936 236.0
1191.378418 148.0
1192.182373 184.0
1196.983887 132.0
1197.734497 204.0
1198.926514 156.0
1199.195312 244.0
1201.808838 196.0
1204.62561 180.0
1205.268066 44.0
1205.855469 216.0
1207.231201 120.0
1210.76062 236.0
1211.259277 136.0
1212.090698 164.0
1212.846069 144.0
1213.241211 240.0
1214.093994 40.0
1214.350708 188.0
1215.155273 160.0
1215.509155 188.0
1216.557251 228.0
1217.675049 236.0
1217.973755 176.0
1219.86377 176.0
1220.079346 160.0
1220.538208 168.0
1220.816284 204.0
1223.564697 184.0
1224.163574 72.0
1228.275513 240.0
1229.426758 136.0
1230.815918 116.0
1231.674927 184.0
1232.736816 180.0
1233.267944 96.0
1234.337524 124.0
1236.079346 152.0
1237.535278 136.0
1238.277466 132.0
1238.872925 216.0
1242.686768 172.0
1243.170898 36.0
1244.237793 60.0
1244.504517 156.0
1245.410522 68.0
1246.31665 152.0
1248.038696 168.0
1250.916138 176.0
1251.549805 180.0
1251.641357 188.0
1252.359619 160.0
1252.993652 48.0
1253.592529 176.0
1254.071777 192.0
1254.17041 180.0
1255.883789 124.0
1258.050049 200.0
1258.883179 124.0
1261.688232 120.0
1263.5271 188.0
1263.979858 144.0
1264.083008 208.0
1265.784912 256.0
1267.499023 196.0
1269.59021 184.0
1270.491089 152.0
1270.980591 228.0
1272.520752 304.0
1273.088867 196.0
1273.571777 176.0
1274.786621 132.0
1275.881226 132.0
1277.018921 204.0
1278.968506 144.0
1280.057739 72.0
1280.107544 120.0
1280.449463 132.0
1281.047729 104.0
1281.324951 212.0
1282.501343 172.0
1283.520752 156.0
1285.482422 176.0
1285.625122 140.0
1286.203247 76.0
1288.79895 196.0
1290.782715 220.0
1292.120239 104.0
1294.503662 188.0
1295.871826 172.0
1295.972168 196.0
1297.613403 120.0
1298.739258 184.0
1299.499634 164.0
1299.693359 184.0
1300.633545 160.0
1301.157593 224.0
1301.904297 132.0
1303.218872 200.0
1305.094727 140.0
1306.231079 68.0
1306.38208 172.0
1307.461426 220.0
1308.224365 116.0
1312.619263 168.0
1313.63623 196.0
1315.606201 124.0
1319.753296 64.0
1320.346191 152.0
1320.736816 236.0
1321.069458 132.0
1321.677246 52.0
1322.067993 172.0
1322.364746 236.0
1322.835205 104.0
1323.443359 152.0
1324.152954 144.0
1324.739746 232.0
1325.877197 220.0
1328.988159 132.0
1330.679199 116.0
1331.870117 160.0
1332.611084 188.0
1333.119751 88.0
1336.151855 144.0
1337.512573 124.0
1338.167847 164.0
1341.05249 36.0
1342.269897 168.0
1345.45105 200.0
1347.313354 156.0
1347.734863 148.0
1348.57019 228.0
1349.425415 200.0
1351.136841 156.0
1351.883179 176.0
1352.473389 148.0
1352.893188 180.0
1359.482422 132.0
1359.56311 132.0
1360.818359 200.0
1360.877075 180.0
1362.140259 192.0
1363.190796 148.0
1363.719971 160.0
1364.212524 108.0
1364.609497 168.0
1365.661011 260.0
1365.844971 192.0
1366.793945 164.0
1367.044189 160.0
1367.279663 244.0
1367.632935 156.0
1369.075928 168.0
1370.210205 164.0
1371.079712 216.0
1371.300781 152.0
1371.632568 168.0
1372.981812 252.0
1373.195679 140.0
1373.372681 252.0
1374.102905 80.0
1375.401733 116.0
1375.697021 192.0
1376.797119 48.0
1378.052856 168.0
1378.400146 172.0
1378.547974 160.0
1379.30188 76.0
1379.375732 156.0
1379.575317 176.0
1379.70105 124.0
1381.372314 120.0
1381.830933 120.0
1382.237915 136.0
1384.525269 180.0
1385.710449 128.0
1388.089722 128.0
1388.987183 164.0
1389.840332 120.0
1391.391479 140.0
1391.866699 236.0
1391.99292 108.0
1392.230469 196.0
1394.243774 184.0
1394.81604 188.0
1395.19519 220.0
1396.13208 192.0
1396.451904 192.0
1397.686768 180.0
1398.222534 108.0
1398.542603 180.0
1398.750977 180.0
1399.800781 164.0
1403.772461 40.0
1404.453369 236.0
1404.779419 192.0
1405.154663 188.0
1405.950806 36.0
1406.90625 224.0
1407.227173 80.0
1407.481079 152.0
1407.654541 176.0
1407.757324 184.0
1409.639893 216.0
1410.140503 152.0
1410.633911 36.0
1410.701172 204.0
1411.703003 112.0
1411.860107 92.0
1414.044556 140.0
1416.567871 116.0
1417.054932 176.0
1418.44873 128.0
1419.895874 188.0
1420.983521 148.0
1421.163574 184.0
1421.471191 208.0
1422.19165 232.0
1422.717163 148.0
1422.792236 52.0
1423.039917 168.0
1424.526978 204.0
1424.782349 180.0
1425.203125 180.0
1425.563721 136.0
1425.653931 116.0
1425.849365 208.0
1427.142334 172.0
1428.150024 168.0
1431.062256 148.0
1431.935791 152.0
1432.297363 64.0
1432.515747 36.0
1432.922607 116.0
1433.819214 156.0
1433.909668 224.0
1434.030273 192.0
1434.964966 104.0
1435.922729 80.0
1436.103638 304.0
1437.046631 124.0
1437.974854 104.0
1438.473022 204.0
1438.525757 228.0
1438.986328 184.0
1440.19458 132.0
1440.307861 104.0
1441.713135 188.0
1442.786499 128.0
1443.043457 104.0
1443.202271 148.0
1443.913086 148.0
1444.858643 156.0
1445.842285 132.0
1446.508301 48.0
1446.712769 80.0
1447.045776 224.0
1447.121582 268.0
1447.19165 76.0
1447.515259 172.0
1447.909058 160.0
1448.461914 172.0
1448.931641 180.0
1450.310791 144.0
1450.477539 148.0
1450.614014 116.0
1450.750488 216.0
1451.523804 164.0
1452.555176 152.0
1453.511108 200.0
1453.617432 220.0
1454.664795 208.0
1454.953247 148.0
1456.350464 148.0
1457.28479 140.0
1457.452026 168.0
1457.626709 148.0
1459.124023 212.0
1459.458618 80.0
1460.127808 196.0
1463.468384 140.0
1464.168945 172.0
1464.245117 204.0
1464.382202 152.0
1464.702026 184.0
1464.808716 112.0
1464.862061 140.0
1465.570557 64.0
1466.056641 192.0
1466.408813 156.0
1466.736572 96.0
1467.392212 160.0
1468.261475 132.0
1468.749512 128.0
1469.039429 84.0
1470.048096 184.0
1471.687622 172.0
1472.787354 160.0
1473.360229 132.0
1474.047852 180.0
1474.567505 196.0
1474.804443 164.0
1474.919189 232.0
1475.156128 128.0
1475.989502 48.0
1476.142334 140.0
1477.65686 100.0
1478.131226 160.0
1478.506226 240.0
1478.751099 204.0
1479.164429 164.0
1479.49353 112.0
1479.868774 164.0
1480.412354 168.0
1480.802979 224.0
1482.166504 236.0
1484.619507 164.0
1484.93396 140.0
1486.36084 176.0
1486.460571 180.0
1486.621704 56.0
1487.688599 188.0
1488.295166 116.0
1489.285767 204.0
1490.192261 148.0
1490.730103 120.0
1490.929932 208.0
1491.221924 156.0
1491.306519 192.0
1491.629272 160.0
1491.752319 192.0
1491.836914 132.0
1494.936523 120.0
1495.074951 156.0
1495.33667 176.0
1496.398926 176.0
1497.554077 132.0
1499.395386 264.0
1499.557251 100.0
1499.626587 180.0
1501.091431 164.0
1501.862549 72.0
1502.703491 208.0
1503.096924 96.0
1504.617432 208.0
1504.687866 164.0
1505.111572 136.0
