>compound Galangin
>formula C15H10O5
>ionization [M+H]+
>parentmass 271.0600998720905
#inchi InChI=1S/C15H10O5/c16-9-6-10(17)12-11(7-9)20-15(14(19)13(12)18)8-4-2-1-3-5-8/h1-7,16-17,19H
#inchikey VCCRNZQBSJXYJD
#Ion_Source DI-ESI
#Instrument qTof
#Compound_Source Isolated
#PI Norberto Lopes
#Data_Collector Denise Silva
#Scan -1
#Precursor_MZ 271.053
#ExactMass 270.053
#Charge 1
#CAS_Number 548-83-4
#Pubmed_ID  
#Smiles O=C1C2=C(O)C=C(O)C=C2OC(C3=CC=CC=C3)=C1O
#INCHI_AUX  
#Library_Class 3
#SpectrumID CCMSLIB00000078874
#IonMode Positive
#UpdateWorkflowName UPDATE-SINGLE-ANNOTATED-BRONZE
#LibraryQualityString Bronze
#TaskID 0792de2ddbbb47679b42145ad0f7ebf8
##Scan# 1
#SpectrumFile gnps_galangin_pos_MSMS_271.mgf
#LibraryName gnps_library.mgf
#MQScore -1
#Organism gnps_library
#TIC_Query 0
#RT_Query -1
#MZErrorPPM -1
#SharedPeaks 0
#MassDiff 0
#LibMZ -1
#SpecMZ 271.053
#SpecCharge 0
#internalFilename spec-00000.mgf

>collision 10
115.051117 1634.0
123.004387 1617.0
127.04985 466.0
128.059814 1046.0
129.064575 995.0
131.044662 1576.0
137.020096 1998.0
139.049759 229.0
141.066437 7752.0
142.068848 613.0
144.053146 230.0
145.059921 2774.0
150.033127 254.0
151.050552 274.0
152.057785 1190.0
153.013123 24298.0
154.018204 1204.0
155.047913 1923.0
157.061462 238.0
159.038635 225.0
165.013046 3754.0
168.053452 1287.0
169.058548 2918.0
170.065857 263.0
171.034149 438.0
173.05632 434.0
179.047424 770.0
181.05986 355.0
183.025284 806.0
187.070663 358.0
196.046387 474.0
197.05603 7634.0
198.058502 761.0
200.041626 761.0
201.04834 249.0
202.059174 252.0
203.065735 306.0
213.050247 2077.0
215.064896 3031.0
216.070068 298.0
224.041885 266.0
225.050583 1526.0
226.054733 381.0
241.046371 318.0
242.053543 2727.0
243.056244 477.0
247.05481 310.0
253.041794 830.0
269.03717 650.0
271.052765 22198.0
