>compound Mirabegron (YM178)
>formula C21H24N4O2S
>ionization [M+H]+
>parentmass 397.168243
#inchi InChI=1S/C21H24N4O2S/c22-21-25-18(14-28-21)12-20(27)24-17-8-6-15(7-9-17)10-11-23-13-19(26)16-4-2-1-3-5-16/h1-9,14,19,23,26H,10-13H2,(H2,22,25)(H,24,27)/t19-/m0/s1
#inchikey PBAPPPCECJKMCM
#Ion_Source LC-ESI
#Instrument qTof
#Compound_Source Commercial
#PI Dorrestein
#Data_Collector Garg_Neha
#Scan -1
#Precursor_MZ 397.169
#ExactMass 396.162
#Charge 1
#CAS_Number 223673-61-8
#Pubmed_ID N/A
#Smiles S1C(=NC(=C1)CC(=O)NC2C=CC(=CC=2)CCNC[C@@H](C3C=CC=CC=3)O)N
#INCHI_AUX N/A
#Library_Class 1
#SpectrumID CCMSLIB00000078618
#IonMode Positive
#UpdateWorkflowName UPDATE-SINGLE-ANNOTATED-GOLD
#LibraryQualityString Gold
#TaskID 77f51c88eb8b467eb4a01dd2d0cb90d2
##Scan# 990
#SpectrumFile Plate10_1_20_GC1_01_15743.mzXML
#LibraryName FDALibrary_2_04302014.mgf
#MQScore -1
#Organism FDALibrary_2_04302014
#TIC_Query 0
#RT_Query -1
#MZErrorPPM -1
#SharedPeaks 0
#MassDiff 0
#LibMZ -1
#SpecMZ 397.169
#SpecCharge 0
#internalFilename spec-00000.mgf

>collision 10
48.043152 180.0
56.285099 168.0
67.750893 184.0
68.146286 156.0
71.716125 168.0
84.251808 152.0
87.749306 184.0
88.648376 148.0
92.880341 160.0
96.080048 140.0
99.391472 152.0
101.189308 176.0
102.531136 168.0
103.055794 364.0
103.610146 180.0
108.078293 180.0
109.854179 160.0
113.017227 1100.0
114.025528 184.0
116.755684 148.0
118.065399 204.0
119.068153 320.0
120.080986 2064.0
121.002319 224.0
121.080795 124.0
128.048767 844.0
129.053024 168.0
129.07338 168.0
131.428879 180.0
141.012817 764.0
143.006699 116.0
144.07959 184.0
146.060043 3744.0
147.061279 588.0
148.070236 212.0
176.485077 144.0
182.083969 180.0
183.087112 156.0
184.074799 148.0
206.004623 180.0
208.115356 148.0
215.064774 308.0
216.062744 144.0
217.058578 172.0
220.105865 108.0
237.864105 224.0
239.153122 412.0
241.165222 196.0
242.079453 144.0
243.055252 128.0
248.120438 176.0
250.157257 204.0
260.083252 2368.0
261.090912 624.0
262.084076 216.0
262.78363 168.0
262.819122 164.0
265.132416 352.0
276.165039 160.0
281.342194 184.0
289.07959 156.0
298.133301 152.0
298.900696 144.0
333.56601 184.0
355.687653 152.0
361.150299 408.0
362.130737 272.0
378.470123 104.0
378.612396 188.0
379.0401 168.0
379.157867 12464.0
379.34082 164.0
379.780518 152.0
379.821655 160.0
380.159729 4772.0
380.260101 176.0
381.157715 1104.0
382.158325 248.0
397.009094 232.0
397.168243 3676.0
398.171753 1520.0
399.166473 388.0
399.313904 288.0
1184.976196 156.0
1464.252319 160.0
1679.785889 160.0
1683.050415 152.0
1803.891357 160.0
1811.693726 148.0
1886.16272 152.0
